Node Numbers,X Locations (inches),Y Locations (inches),Z Locations (inches),Equivalent Elastic Strains (in/in),Equivalent Stress (psi),Max Principal Elastic Strain (in/in),Max Principal Stress (psi),Middle Principal Elastic Strain (in/in),Middle Principal Stress (psi),Min Principal Elastic Strain (in/in),Min Principal Stress (psi),Total Deformation (in)
1,3.7,2.1818,0,0.0019609,19595,0.00077824,1679.6,0.00057545,155.99,-0.0019252,-18633,0.085135
2,3.7,2.3636,0,0.0015481,15470,0.00061811,1272.1,0.0004425,-47.418,-0.001523,-14815,0.086519
3,3.7,2.5455,0,0.0013583,13574,0.00052734,956.73,0.00040008,0.5549,-0.0013395,-13070,0.087497
4,3.7,2.7273,0,0.0012603,12595,0.00048141,788.17,0.0003758,-5.374,-0.0012451,-12184,0.088123
5,3.7,2.9091,0,0.0012184,12176,0.00046109,710.82,0.00036612,-2.7294,-0.0012048,-11806,0.088429
6,3.7,3.0909,0,0.0012184,12176,0.00046109,710.82,0.00036612,-2.7294,-0.0012048,-11806,0.088429
7,3.7,3.2727,0,0.0012603,12595,0.00048141,788.17,0.0003758,-5.374,-0.0012451,-12184,0.088123
8,3.7,3.4545,0,0.0013583,13574,0.00052733,956.73,0.00040008,0.55492,-0.0013395,-13070,0.087497
9,3.7,3.6364,0,0.0015481,15470,0.00061811,1272.1,0.0004425,-47.418,-0.001523,-14815,0.086519
10,3.7,3.8182,0,0.0019609,19595,0.00077824,1679.6,0.00057545,155.99,-0.0019252,-18633,0.085135
11,3.8667,2.1818,0,0.0019424,19410,0.00076755,1616.7,0.00057157,144.19,-0.0019082,-18488,0.094461
12,3.8667,2.3636,0,0.0015387,15377,0.00061591,1281.3,0.00043867,-50.444,-0.0015135,-14718,0.095845
13,3.8667,2.5455,0,0.0013527,13517,0.00052796,987.74,0.00039667,1.3168,-0.0013331,-12996,0.096826
14,3.8667,2.7273,0,0.0012561,12552,0.00048331,828.46,0.00037233,-5.3915,-0.00124,-12120,0.097454
15,3.8667,2.9091,0,0.0012148,12139,0.00046349,754.86,0.00036267,-2.6242,-0.0012002,-11745,0.097762
16,3.8667,3.0909,0,0.0012148,12139,0.00046349,754.86,0.00036267,-2.6242,-0.0012002,-11745,0.097762
17,3.8667,3.2727,0,0.0012561,12552,0.00048331,828.46,0.00037233,-5.3915,-0.00124,-12120,0.097454
18,3.8667,3.4545,0,0.0013527,13517,0.00052796,987.74,0.00039667,1.3169,-0.0013331,-12996,0.096826
19,3.8667,3.6364,0,0.0015387,15377,0.00061591,1281.3,0.00043867,-50.444,-0.0015135,-14718,0.095845
20,3.8667,3.8182,0,0.0019424,19410,0.00076755,1616.7,0.00057157,144.19,-0.0019082,-18488,0.094461
21,3.515,5.8182,0,0.0001276,1275.1,5.9451e-05,189.14,2.8746e-05,-41.563,-0.00012351,-1185.6,0.057542
22,3.515,5.6364,0,0.00018336,1832.4,9.0153e-05,353.99,4.0299e-05,-20.593,-0.0001748,-1636.7,0.059101
23,3.515,5.4545,0,0.00025232,2521.5,0.00013473,632.06,4.8636e-05,-14.835,-0.00023551,-2149.8,0.060683
24,3.515,5.2727,0,0.0003277,3274.8,0.00018567,964.4,5.5663e-05,-12.409,-0.00030038,-2687.6,0.062302
25,3.515,5.0909,0,0.0004113,4110.2,0.00024333,1348.9,6.223e-05,-11.793,-0.00037129,-3269.1,0.063965
26,3.515,4.9091,0,0.00050735,5070,0.00031021,1799.1,6.8911e-05,-13.946,-0.00045203,-3928.1,0.065677
27,3.515,4.7273,0,0.00062334,6229.1,0.00039082,2344.3,7.7258e-05,-11.655,-0.00054927,-4719.1,0.067437
28,3.515,4.5455,0,0.00077189,7713.6,0.00049242,3007.7,8.7564e-05,-34.225,-0.0006749,-5763.1,0.069237
29,3.515,4.3636,0,0.00098404,9833.7,0.00063345,3943.7,0.00011062,15.369,-0.00085593,-7246.9,0.071058
30,3.515,4.1818,0,0.0012903,12894,0.00078418,4424.9,0.00016925,-195.52,-0.0011546,-10143,0.072852
31,3.515,4,0,0.0015208,15197,0.00076972,2891.7,0.00028499,-750.34,-0.0014512,-13796,0.074529
32,3.515,3.8182,0,0.0014547,14537,0.00057227,1113.6,0.00042346,-4.5698,-0.0014327,-13951,0.07598
33,3.515,3.6364,0,0.0013581,13572,0.00051774,826.24,0.00040458,-24.046,-0.0013424,-13151,0.077143
34,3.515,3.4545,0,0.0012535,12527,0.00046414,611.1,0.0003834,4.4244,-0.0012419,-12208,0.078004
35,3.515,3.2727,0,0.0011926,11918,0.00043619,510.84,0.0003676,-4.5492,-0.0011832,-11656,0.07857
36,3.515,3.0909,0,0.0011638,11630,0.00042239,460.97,0.00036093,-0.82295,-0.0011553,-11393,0.07885
37,3.515,2.9091,0,0.0011638,11630,0.00042239,460.97,0.00036093,-0.82295,-0.0011553,-11393,0.07885
38,3.515,2.7273,0,0.0011926,11918,0.00043619,510.84,0.0003676,-4.5492,-0.0011832,-11656,0.07857
39,3.515,2.5455,0,0.0012535,12527,0.00046414,611.1,0.0003834,4.4245,-0.0012419,-12208,0.078004
40,3.515,2.3636,0,0.0013581,13572,0.00051774,826.24,0.00040458,-24.046,-0.0013424,-13151,0.077143
41,3.515,2.1818,0,0.0014547,14537,0.00057227,1113.6,0.00042346,-4.5697,-0.0014327,-13951,0.07598
42,3.515,2,0,0.0015208,15197,0.00076972,2891.7,0.00028499,-750.34,-0.0014512,-13796,0.074529
43,3.515,1.8182,0,0.0012903,12894,0.00078418,4424.9,0.00016925,-195.52,-0.0011546,-10143,0.072852
44,3.515,1.6364,0,0.00098404,9833.7,0.00063345,3943.7,0.00011062,15.369,-0.00085593,-7246.9,0.071058
45,3.515,1.4545,0,0.00077189,7713.6,0.00049242,3007.7,8.7564e-05,-34.225,-0.0006749,-5763.1,0.069237
46,3.515,1.2727,0,0.00062334,6229.1,0.00039082,2344.3,7.7258e-05,-11.655,-0.00054927,-4719.1,0.067437
47,3.515,1.0909,0,0.00050735,5070,0.00031021,1799.1,6.8911e-05,-13.946,-0.00045203,-3928.1,0.065677
48,3.515,0.90909,0,0.0004113,4110.2,0.00024333,1348.9,6.223e-05,-11.793,-0.00037129,-3269.1,0.063965
49,3.515,0.72727,0,0.0003277,3274.8,0.00018567,964.4,5.5663e-05,-12.409,-0.00030038,-2687.6,0.062302
50,3.515,0.54545,0,0.00025232,2521.5,0.00013473,632.06,4.8636e-05,-14.835,-0.00023551,-2149.8,0.060683
51,3.515,0.36364,0,0.00018336,1832.4,9.0153e-05,353.99,4.0299e-05,-20.593,-0.0001748,-1636.7,0.059101
52,3.515,0.18182,0,0.0001276,1275.1,5.9451e-05,189.14,2.8746e-05,-41.563,-0.00012351,-1185.6,0.057542
53,3.33,5.8182,0,0.00019019,1900.6,7.5346e-05,142.5,5.4121e-05,-16.975,-0.00018756,-1832.8,0.052097
54,3.33,5.6364,0,0.00021644,2162.9,8.6463e-05,174.35,6.1452e-05,-13.573,-0.00021309,-2076.4,0.053585
55,3.33,5.4545,0,0.00026337,2631.8,0.00011411,327.43,6.9535e-05,-7.5053,-0.00025632,-2455.8,0.055067
56,3.33,5.2727,0,0.00032186,3216.4,0.00015095,547.09,7.7602e-05,-4.0219,-0.00030906,-2909.2,0.056552
57,3.33,5.0909,0,0.0003898,3895.3,0.00019421,808.56,8.6259e-05,-2.5783,-0.0003697,-3428.5,0.058046
58,3.33,4.9091,0,0.00046812,4678,0.00024333,1101.3,9.6538e-05,-1.6011,-0.00043955,-4029.6,0.059549
59,3.33,4.7273,0,0.00055987,5594.8,0.00029874,1417.2,0.00010991,-1.6883,-0.00052212,-4750.5,0.061054
60,3.33,4.5455,0,0.00066725,6667.9,0.00035772,1710.3,0.00012973,-2.6973,-0.00062147,-5646.9,0.062547
61,3.33,4.3636,0,0.00079326,7927.1,0.00041379,1888.7,0.00016292,3.6929,-0.00074406,-6811,0.064002
62,3.33,4.1818,0,0.000926,9253.6,0.00044553,1730.2,0.000217,13.155,-0.0008843,-8261.6,0.065381
63,3.33,4,0,0.0010169,10162,0.00040843,939.66,0.00029623,96.601,-0.00099663,-9617.4,0.066636
64,3.33,3.8182,0,0.0010898,10891,0.00038865,376.16,0.00034478,46.581,-0.0010823,-10676,0.067733
65,3.33,3.6364,0,0.0011087,11079,0.00038188,183,0.00035548,-15.43,-0.0011057,-10994,0.068647
66,3.33,3.4545,0,0.0010982,10974,0.00037395,136.11,0.00035531,-3.8746,-0.0010959,-10908,0.069349
67,3.33,3.2727,0,0.0010797,10790,0.00036471,99.008,0.00035118,-2.6405,-0.0010781,-10741,0.069822
68,3.33,3.0909,0,0.0010686,10679,0.00035948,81.561,0.00034856,-0.47418,-0.0010672,-10638,0.070059
69,3.33,2.9091,0,0.0010686,10679,0.00035948,81.562,0.00034856,-0.47418,-0.0010672,-10638,0.070059
70,3.33,2.7273,0,0.0010797,10790,0.00036471,99.009,0.00035118,-2.6405,-0.0010781,-10741,0.069822
71,3.33,2.5455,0,0.0010982,10974,0.00037395,136.11,0.00035531,-3.8745,-0.0010959,-10908,0.069349
72,3.33,2.3636,0,0.0011087,11079,0.00038188,183,0.00035547,-15.43,-0.0011057,-10994,0.068647
73,3.33,2.1818,0,0.0010898,10891,0.00038865,376.16,0.00034478,46.581,-0.0010823,-10676,0.067733
74,3.33,2,0,0.0010169,10162,0.00040843,939.66,0.00029623,96.601,-0.00099663,-9617.4,0.066636
75,3.33,1.8182,0,0.000926,9253.6,0.00044553,1730.2,0.000217,13.155,-0.0008843,-8261.6,0.065381
76,3.33,1.6364,0,0.00079326,7927.1,0.00041379,1888.7,0.00016292,3.6929,-0.00074406,-6811,0.064002
77,3.33,1.4545,0,0.00066725,6667.9,0.00035772,1710.3,0.00012973,-2.6973,-0.00062147,-5646.9,0.062547
78,3.33,1.2727,0,0.00055987,5594.8,0.00029874,1417.2,0.00010991,-1.6883,-0.00052212,-4750.5,0.061054
79,3.33,1.0909,0,0.00046812,4678,0.00024333,1101.3,9.6538e-05,-1.6011,-0.00043955,-4029.6,0.059549
80,3.33,0.90909,0,0.0003898,3895.3,0.00019421,808.56,8.6259e-05,-2.5783,-0.0003697,-3428.5,0.058046
81,3.33,0.72727,0,0.00032186,3216.4,0.00015095,547.09,7.7602e-05,-4.0219,-0.00030906,-2909.2,0.056552
82,3.33,0.54545,0,0.00026337,2631.8,0.00011411,327.43,6.9535e-05,-7.5053,-0.00025632,-2455.8,0.055067
83,3.33,0.36364,0,0.00021644,2162.9,8.6463e-05,174.35,6.1452e-05,-13.573,-0.00021309,-2076.4,0.053585
84,3.33,0.18182,0,0.00019019,1900.6,7.5346e-05,142.5,5.4121e-05,-16.975,-0.00018756,-1832.8,0.052097
85,3.145,5.8182,0,0.00025654,2563.6,9.719e-05,145.56,7.6509e-05,-9.8271,-0.00025388,-2492.2,0.04675
86,3.145,5.6364,0,0.00027216,2719.7,0.00010178,137.67,8.1948e-05,-11.303,-0.0002697,-2653.5,0.048162
87,3.145,5.4545,0,0.00030484,3046.3,0.0001186,212.35,8.9111e-05,-9.2079,-0.00030078,-2938.7,0.049544
88,3.145,5.2727,0,0.00034944,3492,0.00014362,339.78,9.7483e-05,-6.8697,-0.00034248,-3312.6,0.050901
89,3.145,5.0909,0,0.00040371,4034.3,0.00017437,498.35,0.00010728,-5.708,-0.00039296,-3764.3,0.052238
90,3.145,4.9091,0,0.00046673,4664.1,0.00020885,667.26,0.0001193,-5.5952,-0.00045182,-4296.7,0.053551
91,3.145,4.7273,0,0.00053807,5377,0.00024468,818.62,0.00013496,-5.752,-0.00051948,-4923,0.054834
92,3.145,4.5455,0,0.00061697,6165.5,0.00027819,909.37,0.00015637,-5.9928,-0.00059648,-5662.6,0.056072
93,3.145,4.3636,0,0.00069754,6970.6,0.00030111,855.32,0.0001851,-16.348,-0.00067916,-6510.1,0.057246
94,3.145,4.1818,0,0.0007739,7733.7,0.00030479,591.08,0.00022451,-12.16,-0.00076228,-7426.5,0.058332
95,3.145,4,0,0.00084129,8407.1,0.00029627,207.28,0.0002649,-28.44,-0.000838,-8315.2,0.059309
96,3.145,3.8182,0,0.00089619,8955.8,0.00030195,-4.6009,0.0002848,-133.41,-0.00089847,-9024.1,0.060162
97,3.145,3.6364,0,0.00093627,9356.2,0.00032297,8.2225,0.00028582,-270.89,-0.00094042,-9484.4,0.060874
98,3.145,3.4545,0,0.00095501,9543.5,0.00033044,1.5935,0.00028918,-308.38,-0.00095985,-9693.1,0.061428
99,3.145,3.2727,0,0.00096099,9603.2,0.00033279,1.5292,0.00029049,-316.26,-0.00096594,-9756.6,0.061806
100,3.145,3.0909,0,0.00096192,9612.6,0.00033309,0.90527,0.00029075,-317.28,-0.00096691,-9766.8,0.061997
101,3.145,2.9091,0,0.00096192,9612.6,0.00033309,0.90527,0.00029075,-317.28,-0.00096691,-9766.8,0.061997
102,3.145,2.7273,0,0.00096099,9603.2,0.00033279,1.5292,0.00029049,-316.26,-0.00096594,-9756.6,0.061806
103,3.145,2.5455,0,0.00095501,9543.5,0.00033044,1.5935,0.00028918,-308.38,-0.00095985,-9693.1,0.061428
104,3.145,2.3636,0,0.00093627,9356.2,0.00032297,8.2225,0.00028582,-270.89,-0.00094042,-9484.4,0.060874
105,3.145,2.1818,0,0.00089619,8955.8,0.00030194,-4.601,0.0002848,-133.41,-0.00089847,-9024.1,0.060162
106,3.145,2,0,0.00084129,8407.1,0.00029627,207.28,0.0002649,-28.44,-0.000838,-8315.2,0.059309
107,3.145,1.8182,0,0.0007739,7733.6,0.00030479,591.07,0.00022451,-12.16,-0.00076228,-7426.5,0.058332
108,3.145,1.6364,0,0.00069754,6970.6,0.00030111,855.32,0.0001851,-16.348,-0.00067916,-6510.1,0.057246
109,3.145,1.4545,0,0.00061697,6165.5,0.00027819,909.37,0.00015637,-5.9927,-0.00059648,-5662.6,0.056072
110,3.145,1.2727,0,0.00053807,5377,0.00024468,818.62,0.00013496,-5.752,-0.00051948,-4923,0.054834
111,3.145,1.0909,0,0.00046673,4664.1,0.00020885,667.26,0.0001193,-5.5952,-0.00045182,-4296.7,0.053551
112,3.145,0.90909,0,0.00040371,4034.3,0.00017437,498.35,0.00010728,-5.708,-0.00039296,-3764.3,0.052238
113,3.145,0.72727,0,0.00034944,3492,0.00014362,339.78,9.7483e-05,-6.8697,-0.00034248,-3312.6,0.050901
114,3.145,0.54545,0,0.00030484,3046.3,0.0001186,212.35,8.9111e-05,-9.2079,-0.00030078,-2938.7,0.049544
115,3.145,0.36364,0,0.00027216,2719.7,0.00010178,137.67,8.1948e-05,-11.303,-0.0002697,-2653.5,0.048162
116,3.145,0.18182,0,0.00025654,2563.6,9.719e-05,145.56,7.6509e-05,-9.8271,-0.00025388,-2492.2,0.04675
117,2.96,5.8182,0,0.00031683,3166.1,0.00011703,147.36,9.6728e-05,-5.195,-0.00031413,-3092.2,0.041552
118,2.96,5.6364,0,0.00032768,3274.5,0.00011884,124.61,0.00010129,-7.2755,-0.00032548,-3213.9,0.042886
119,2.96,5.4545,0,0.00035136,3511.2,0.00012891,151.44,0.00010769,-8.016,-0.00034865,-3436.8,0.04417
120,2.96,5.2727,0,0.00038474,3844.7,0.00014452,207.73,0.00011593,-7.0923,-0.00038087,-3739.9,0.045408
121,2.96,5.0909,0,0.00042633,4260.4,0.00016415,279.86,0.00012606,-6.2847,-0.00042095,-4116.4,0.046601
122,2.96,4.9091,0,0.00047475,4744.2,0.00018578,348.82,0.00013856,-5.9413,-0.00046792,-4562.8,0.047749
123,2.96,4.7273,0,0.00052841,5280.5,0.00020684,389.09,0.0001542,-6.4145,-0.00052079,-5078,0.048845
124,2.96,4.5455,0,0.0005851,5846.9,0.00022396,368.48,0.00017387,-7.8969,-0.00057805,-5657.6,0.049879
125,2.96,4.3636,0,0.00064177,6413.3,0.00023344,255.07,0.0001982,-9.7488,-0.00063719,-6286.5,0.050839
126,2.96,4.1818,0,0.00069467,6941.9,0.00023652,63.213,0.0002227,-40.608,-0.00069423,-6930.1,0.051712
127,2.96,4,0,0.00074327,7427.6,0.00025851,11.446,0.0002237,-250.15,-0.00074699,-7543.5,0.052488
128,2.96,3.8182,0,0.00078612,7855.7,0.00028274,6.991,0.00021977,-466.1,-0.00079286,-8074.6,0.053159
129,2.96,3.6364,0,0.00082049,8199.2,0.0002998,1.4008,0.00022046,-594.76,-0.00082895,-8479.6,0.053717
130,2.96,3.4545,0,0.00084448,8439,0.00031026,1.6576,0.0002239,-647.2,-0.00085359,-8743,0.054151
131,2.96,3.2727,0,0.00085817,8575.8,0.00031549,1.37,0.00022714,-662.41,-0.00086749,-8887.1,0.054447
132,2.96,3.0909,0,0.00086409,8634.9,0.00031757,1.1517,0.00022885,-665.51,-0.00087346,-8947.8,0.054598
133,2.96,2.9091,0,0.00086409,8634.9,0.00031757,1.1517,0.00022885,-665.51,-0.00087346,-8947.8,0.054598
134,2.96,2.7273,0,0.00085817,8575.8,0.00031549,1.37,0.00022714,-662.41,-0.00086749,-8887.1,0.054447
135,2.96,2.5455,0,0.00084448,8439,0.00031026,1.6576,0.0002239,-647.2,-0.00085359,-8743,0.054151
136,2.96,2.3636,0,0.00082049,8199.2,0.0002998,1.4008,0.00022046,-594.76,-0.00082895,-8479.6,0.053717
137,2.96,2.1818,0,0.00078612,7855.7,0.00028274,6.991,0.00021977,-466.1,-0.00079286,-8074.6,0.053159
138,2.96,2,0,0.00074327,7427.6,0.00025851,11.446,0.0002237,-250.15,-0.00074699,-7543.5,0.052488
139,2.96,1.8182,0,0.00069467,6941.9,0.00023652,63.212,0.0002227,-40.608,-0.00069423,-6930,0.051712
140,2.96,1.6364,0,0.00064177,6413.3,0.00023344,255.07,0.0001982,-9.7488,-0.00063719,-6286.5,0.050839
141,2.96,1.4545,0,0.0005851,5846.9,0.00022396,368.48,0.00017387,-7.8969,-0.00057805,-5657.6,0.049879
142,2.96,1.2727,0,0.00052841,5280.5,0.00020684,389.09,0.0001542,-6.4145,-0.00052079,-5078,0.048845
143,2.96,1.0909,0,0.00047475,4744.2,0.00018578,348.82,0.00013856,-5.9413,-0.00046792,-4562.8,0.047749
144,2.96,0.90909,0,0.00042633,4260.4,0.00016415,279.86,0.00012606,-6.2847,-0.00042095,-4116.4,0.046601
145,2.96,0.72727,0,0.00038474,3844.7,0.00014452,207.73,0.00011593,-7.0923,-0.00038087,-3739.9,0.045408
146,2.96,0.54545,0,0.00035136,3511.2,0.00012891,151.44,0.00010769,-8.016,-0.00034865,-3436.8,0.04417
147,2.96,0.36364,0,0.00032768,3274.5,0.00011884,124.61,0.00010129,-7.2755,-0.00032548,-3213.9,0.042886
148,2.96,0.18182,0,0.00031683,3166.1,0.00011703,147.36,9.6728e-05,-5.195,-0.00031413,-3092.2,0.041552
149,2.775,5.8182,0,0.00036984,3695.9,0.00013398,141.59,0.00011468,-3.4162,-0.00036728,-3624.7,0.036548
150,2.775,5.6364,0,0.00037767,3774.1,0.00013402,109.61,0.00011869,-5.5515,-0.00037577,-3720.7,0.037804
151,2.775,5.4545,0,0.00039508,3948.1,0.00013946,104.42,0.00012449,-8.0882,-0.00039332,-3898.7,0.038994
152,2.775,5.2727,0,0.00041971,4194.2,0.00014813,110,0.00013222,-9.536,-0.00041787,-4142.7,0.040121
153,2.775,5.0909,0,0.0004506,4502.9,0.00015902,117.82,0.00014194,-10.556,-0.00044864,-4447.9,0.041188
154,2.775,4.9091,0,0.00048651,4861.8,0.00017076,115.37,0.00015376,-12.372,-0.00048463,-4809,0.042193
155,2.775,4.7273,0,0.00052587,5255.1,0.00018177,88.119,0.00016764,-18.047,-0.0005246,-5219.2,0.043133
156,2.775,4.5455,0,0.00056675,5663.6,0.00019238,36.458,0.00018129,-46.806,-0.00056688,-5668.3,0.044003
157,2.775,4.3636,0,0.00060709,6066.7,0.00020911,10.356,0.00018634,-160.73,-0.00060946,-6140.1,0.044797
158,2.775,4.1818,0,0.00064553,6450.9,0.00023021,4.5754,0.00018383,-343.9,-0.0006506,-6613.5,0.045509
159,2.775,4,0,0.00068128,6808.1,0.00025149,1.7652,0.00017852,-546.48,-0.00068889,-7063.9,0.046134
160,2.775,3.8182,0,0.00071378,7132.9,0.0002704,0.70554,0.00017439,-720.63,-0.00072328,-7465.4,0.046668
161,2.775,3.6364,0,0.00074159,7410.8,0.00028521,1.3193,0.00017337,-838.98,-0.00075225,-7793.8,0.047108
162,2.775,3.4545,0,0.00076286,7623.3,0.00029529,1.2362,0.00017481,-903.97,-0.00077417,-8034.3,0.047448
163,2.775,3.2727,0,0.00077679,7762.5,0.00030126,1.0928,0.00017691,-933.29,-0.00078841,-8186.3,0.047679
164,2.775,3.0909,0,0.00078355,7830.1,0.00030399,1.0821,0.00017825,-943.7,-0.0007953,-8258.5,0.047796
165,2.775,2.9091,0,0.00078355,7830.1,0.00030399,1.0821,0.00017825,-943.7,-0.0007953,-8258.5,0.047796
166,2.775,2.7273,0,0.00077679,7762.5,0.00030126,1.0928,0.00017691,-933.29,-0.00078841,-8186.3,0.047679
167,2.775,2.5455,0,0.00076286,7623.3,0.00029529,1.2362,0.00017481,-903.97,-0.00077417,-8034.3,0.047448
168,2.775,2.3636,0,0.00074159,7410.8,0.00028521,1.3193,0.00017337,-838.98,-0.00075225,-7793.8,0.047108
169,2.775,2.1818,0,0.00071378,7132.9,0.0002704,0.70554,0.00017439,-720.63,-0.00072328,-7465.4,0.046668
170,2.775,2,0,0.00068128,6808.1,0.00025149,1.7652,0.00017852,-546.48,-0.00068888,-7063.9,0.046134
171,2.775,1.8182,0,0.00064553,6450.9,0.00023021,4.5754,0.00018383,-343.9,-0.0006506,-6613.5,0.045509
172,2.775,1.6364,0,0.00060709,6066.7,0.00020911,10.356,0.00018634,-160.73,-0.00060946,-6140.1,0.044797
173,2.775,1.4545,0,0.00056675,5663.6,0.00019238,36.458,0.00018129,-46.806,-0.00056688,-5668.3,0.044003
174,2.775,1.2727,0,0.00052587,5255,0.00018177,88.119,0.00016764,-18.047,-0.0005246,-5219.2,0.043133
175,2.775,1.0909,0,0.00048651,4861.8,0.00017076,115.37,0.00015376,-12.372,-0.00048463,-4809,0.042193
176,2.775,0.90909,0,0.0004506,4502.9,0.00015902,117.82,0.00014194,-10.556,-0.00044864,-4447.9,0.041188
177,2.775,0.72727,0,0.00041971,4194.2,0.00014813,110,0.00013222,-9.536,-0.00041787,-4142.7,0.040121
178,2.775,0.54545,0,0.00039508,3948.1,0.00013946,104.42,0.00012449,-8.0882,-0.00039332,-3898.7,0.038994
179,2.775,0.36364,0,0.00037767,3774.1,0.00013402,109.61,0.00011869,-5.5515,-0.00037577,-3720.7,0.037804
180,2.775,0.18182,0,0.00036984,3695.9,0.00013398,141.59,0.00011468,-3.4162,-0.00036728,-3624.7,0.036548
181,2.59,5.8182,0,0.00041567,4153.8,0.00014814,130.41,0.00013044,-2.5841,-0.00041333,-4088.3,0.031776
182,2.59,5.6364,0,0.0004209,4206.1,0.00014649,88.282,0.00013408,-4.9549,-0.0004194,-4163.6,0.032955
183,2.59,5.4545,0,0.00043339,4330.9,0.00014852,59.894,0.00013918,-10.292,-0.0004325,-4305.7,0.034056
184,2.59,5.2727,0,0.00045107,4507.5,0.00015291,35.954,0.00014527,-21.458,-0.00045079,-4500,0.035082
185,2.59,5.0909,0,0.0004733,4729.7,0.0001601,19.495,0.00015133,-46.413,-0.00047372,-4742.8,0.036036
186,2.59,4.9091,0,0.00049914,4988,0.00017023,10.879,0.00015634,-93.465,-0.00050046,-5028.4,0.036919
187,2.59,4.7273,0,0.00052739,5270.2,0.00018288,6.5553,0.00015952,-168.96,-0.00052993,-5349.2,0.03773
188,2.59,4.5455,0,0.00055669,5563.1,0.0001977,4.2409,0.00016001,-279,-0.00056083,-5695.1,0.038467
189,2.59,4.3636,0,0.00058584,5854.3,0.0002142,2.9258,0.00015734,-424.28,-0.00059183,-6053.3,0.039129
190,2.59,4.1818,0,0.00061394,6135.2,0.00023149,2.0072,0.00015212,-594.35,-0.00062184,-6409.6,0.039715
191,2.59,4,0,0.00064051,6400.7,0.00024835,1.5571,0.00014605,-767.09,-0.00065006,-6748.7,0.040222
192,2.59,3.8182,0,0.00066495,6644.9,0.00026341,1.23,0.00014111,-917.7,-0.00067576,-7055.3,0.040652
193,2.59,3.6364,0,0.00068629,6858.2,0.00027565,0.86976,0.00013843,-1030.2,-0.00069796,-7314.4,0.041001
194,2.59,3.4545,0,0.00070333,7028.5,0.00028462,0.80382,0.00013779,-1102.4,-0.00071555,-7514.1,0.041268
195,2.59,3.2727,0,0.00071508,7145.9,0.00029036,0.84301,0.00013821,-1142.3,-0.00072761,-7647.7,0.041449
196,2.59,3.0909,0,0.00072103,7205.3,0.00029311,0.8493,0.0001387,-1159.3,-0.0007337,-7714.2,0.041541
197,2.59,2.9091,0,0.00072103,7205.3,0.00029311,0.8493,0.0001387,-1159.3,-0.0007337,-7714.2,0.041541
198,2.59,2.7273,0,0.00071508,7145.9,0.00029036,0.84301,0.00013821,-1142.3,-0.00072761,-7647.7,0.041449
199,2.59,2.5455,0,0.00070333,7028.5,0.00028462,0.80382,0.00013779,-1102.4,-0.00071555,-7514.1,0.041268
200,2.59,2.3636,0,0.00068629,6858.2,0.00027565,0.86976,0.00013843,-1030.2,-0.00069796,-7314.4,0.041001
201,2.59,2.1818,0,0.00066495,6644.9,0.00026341,1.23,0.00014111,-917.7,-0.00067576,-7055.3,0.040652
202,2.59,2,0,0.00064051,6400.7,0.00024835,1.5571,0.00014605,-767.09,-0.00065006,-6748.7,0.040222
203,2.59,1.8182,0,0.00061394,6135.2,0.00023149,2.0072,0.00015212,-594.35,-0.00062184,-6409.5,0.039715
204,2.59,1.6364,0,0.00058584,5854.3,0.0002142,2.9258,0.00015734,-424.28,-0.00059183,-6053.3,0.039129
205,2.59,1.4545,0,0.00055669,5563.1,0.0001977,4.2409,0.00016001,-279,-0.00056083,-5695.1,0.038467
206,2.59,1.2727,0,0.00052739,5270.2,0.00018288,6.5553,0.00015952,-168.96,-0.00052993,-5349.2,0.03773
207,2.59,1.0909,0,0.00049914,4988,0.00017023,10.879,0.00015634,-93.465,-0.00050046,-5028.4,0.036919
208,2.59,0.90909,0,0.0004733,4729.7,0.0001601,19.495,0.00015133,-46.413,-0.00047372,-4742.8,0.036036
209,2.59,0.72727,0,0.00045107,4507.5,0.00015291,35.954,0.00014527,-21.458,-0.00045079,-4500,0.035082
210,2.59,0.54545,0,0.00043339,4330.9,0.00014852,59.893,0.00013918,-10.292,-0.0004325,-4305.7,0.034056
211,2.59,0.36364,0,0.0004209,4206.1,0.00014649,88.282,0.00013408,-4.9549,-0.0004194,-4163.6,0.032955
212,2.59,0.18182,0,0.00041567,4153.8,0.00014814,130.41,0.00013044,-2.5841,-0.00041333,-4088.3,0.031776
213,2.405,5.8182,0,0.00045474,4544.2,0.00015985,116.14,0.00014407,-2.366,-0.00045269,-4486.2,0.027271
214,2.405,5.6364,0,0.00045742,4571,0.00015636,61.531,0.00014742,-5.6142,-0.00045643,-4542.7,0.028374
215,2.405,5.4545,0,0.00046574,4654.2,0.00015661,21.765,0.00015076,-22.207,-0.00046573,-4654.2,0.02939
216,2.405,5.2727,0,0.00047776,4774.3,0.000162,8.1299,0.00015104,-74.203,-0.00047884,-4806.9,0.030323
217,2.405,5.0909,0,0.00049307,4927.3,0.00017037,4.7419,0.00015008,-147.71,-0.00049532,-4997,0.031176
218,2.405,4.9091,0,0.00051103,5106.8,0.00018055,3.2729,0.00014847,-237.75,-0.00051459,-5219.7,0.031953
219,2.405,4.7273,0,0.00053083,5304.6,0.00019228,2.4154,0.00014576,-347.11,-0.00053583,-5468.3,0.032655
220,2.405,4.5455,0,0.00055159,5512.1,0.00020533,1.8352,0.0001415,-477.76,-0.00055812,-5734.4,0.033283
221,2.405,4.3636,0,0.00057253,5721.4,0.00021927,1.4005,0.00013559,-627.28,-0.00058058,-6008.3,0.033838
222,2.405,4.1818,0,0.00059307,5926.6,0.00023348,1.0696,0.00012861,-786.87,-0.00060249,-6280.1,0.034323
223,2.405,4,0,0.00061273,6123.1,0.00024714,0.78168,0.00012161,-942.39,-0.00062327,-6539.2,0.034737
224,2.405,3.8182,0,0.00063101,6305.7,0.00025942,0.60909,0.00011575,-1078.9,-0.00064238,-6775.2,0.035084
225,2.405,3.6364,0,0.00064715,6467,0.00026964,0.5763,0.00011171,-1186.1,-0.00065909,-6977.6,0.035363
226,2.405,3.4545,0,0.00066024,6597.9,0.00027739,0.58034,0.00010947,-1261.1,-0.00067257,-7137,0.035575
227,2.405,3.2727,0,0.00066946,6690,0.00028252,0.59798,0.00010851,-1306.8,-0.00068202,-7246.6,0.035717
228,2.405,3.0909,0,0.00067421,6737.4,0.00028505,0.61734,0.00010822,-1328,-0.00068688,-7302.1,0.035788
229,2.405,2.9091,0,0.00067421,6737.4,0.00028505,0.61734,0.00010822,-1328,-0.00068688,-7302.1,0.035788
230,2.405,2.7273,0,0.00066946,6690,0.00028252,0.59798,0.00010851,-1306.8,-0.00068202,-7246.6,0.035717
231,2.405,2.5455,0,0.00066024,6597.9,0.00027739,0.58034,0.00010947,-1261.1,-0.00067257,-7137,0.035575
232,2.405,2.3636,0,0.00064715,6467,0.00026964,0.5763,0.00011171,-1186.1,-0.00065909,-6977.6,0.035363
233,2.405,2.1818,0,0.00063101,6305.7,0.00025942,0.60909,0.00011575,-1078.9,-0.00064238,-6775.2,0.035084
234,2.405,2,0,0.00061273,6123.1,0.00024714,0.78168,0.00012161,-942.39,-0.00062327,-6539.2,0.034737
235,2.405,1.8182,0,0.00059307,5926.6,0.00023348,1.0696,0.00012861,-786.87,-0.00060249,-6280.1,0.034323
236,2.405,1.6364,0,0.00057253,5721.4,0.00021927,1.4005,0.00013559,-627.28,-0.00058058,-6008.3,0.033838
237,2.405,1.4545,0,0.00055159,5512.1,0.00020533,1.8352,0.0001415,-477.76,-0.00055812,-5734.4,0.033283
238,2.405,1.2727,0,0.00053083,5304.6,0.00019228,2.4154,0.00014576,-347.11,-0.00053583,-5468.3,0.032655
239,2.405,1.0909,0,0.00051103,5106.8,0.00018055,3.2729,0.00014847,-237.75,-0.00051459,-5219.7,0.031953
240,2.405,0.90909,0,0.00049307,4927.3,0.00017037,4.7419,0.00015008,-147.71,-0.00049532,-4997,0.031176
241,2.405,0.72727,0,0.00047776,4774.3,0.000162,8.1299,0.00015104,-74.203,-0.00047884,-4806.9,0.030323
242,2.405,0.54545,0,0.00046574,4654.2,0.00015661,21.765,0.00015076,-22.207,-0.00046573,-4654.2,0.02939
243,2.405,0.36364,0,0.00045742,4571,0.00015636,61.531,0.00014742,-5.6142,-0.00045643,-4542.7,0.028374
244,2.405,0.18182,0,0.00045474,4544.2,0.00015985,116.14,0.00014407,-2.366,-0.00045269,-4486.2,0.027271
245,2.22,5.8182,0,0.00048768,4873.5,0.00016947,100.95,0.0001557,-2.5308,-0.00048593,-4823.4,0.023061
246,2.22,5.6364,0,0.00048778,4874.5,0.00016417,33.036,0.00015857,-9.0306,-0.00048736,-4862.3,0.024089
247,2.22,5.4545,0,0.00049244,4921,0.00016605,6.7123,0.0001571,-60.539,-0.00049332,-4947.6,0.025023
248,2.22,5.2727,0,0.0004998,4994.5,0.00017251,3.391,0.00015232,-148.3,-0.00050209,-5065.3,0.025869
249,2.22,5.0909,0,0.00050959,5092.4,0.00018065,2.2943,0.00014689,-251.42,-0.00051336,-5212.2,0.026632
250,2.22,4.9091,0,0.00052146,5211,0.00019014,1.7212,0.0001409,-368.23,-0.00052671,-5384.4,0.027315
251,2.22,4.7273,0,0.00053489,5345.3,0.00020075,1.3529,0.0001342,-498.64,-0.0005416,-5576.3,0.027922
252,2.22,4.5455,0,0.00054934,5489.6,0.00021221,1.0889,0.0001267,-641.44,-0.0005574,-5781.5,0.028458
253,2.22,4.3636,0,0.00056426,5638.8,0.00022416,0.88113,0.00011853,-792.78,-0.00057353,-5992.7,0.028925
254,2.22,4.1818,0,0.00057921,5788.1,0.00023611,0.70547,0.00011018,-945.49,-0.00058945,-6202.2,0.029327
255,2.22,4,0,0.00059375,5933.4,0.00024748,0.56942,0.00010233,-1090,-0.00060472,-6402.5,0.029667
256,2.22,3.8182,0,0.00060739,6069.7,0.0002577,0.47049,9.5698e-05,-1216.8,-0.00061885,-6585.6,0.029948
257,2.22,3.6364,0,0.00061951,6190.9,0.00026629,0.41212,9.0699e-05,-1318.9,-0.0006313,-6743.8,0.030171
258,2.22,3.4545,0,0.00062942,6289.9,0.00027291,0.40223,8.7379e-05,-1393.6,-0.00064142,-6869.6,0.030339
259,2.22,3.2727,0,0.00063646,6360.2,0.00027738,0.4165,8.5477e-05,-1441.5,-0.00064859,-6956.9,0.03045
260,2.22,3.0909,0,0.00064011,6396.7,0.00027962,0.42945,8.4643e-05,-1464.6,-0.0006523,-7001.6,0.030506
261,2.22,2.9091,0,0.00064011,6396.7,0.00027962,0.42945,8.4643e-05,-1464.6,-0.0006523,-7001.6,0.030506
262,2.22,2.7273,0,0.00063646,6360.2,0.00027738,0.4165,8.5477e-05,-1441.5,-0.00064859,-6956.9,0.03045
263,2.22,2.5455,0,0.00062942,6289.9,0.00027291,0.40223,8.7379e-05,-1393.6,-0.00064142,-6869.6,0.030339
264,2.22,2.3636,0,0.00061951,6190.9,0.00026629,0.41212,9.0699e-05,-1318.9,-0.0006313,-6743.8,0.030171
265,2.22,2.1818,0,0.00060739,6069.7,0.0002577,0.47049,9.5698e-05,-1216.8,-0.00061885,-6585.6,0.029948
266,2.22,2,0,0.00059375,5933.4,0.00024748,0.56942,0.00010233,-1090,-0.00060472,-6402.5,0.029667
267,2.22,1.8182,0,0.00057921,5788.1,0.00023611,0.70547,0.00011018,-945.49,-0.00058945,-6202.2,0.029327
268,2.22,1.6364,0,0.00056426,5638.8,0.00022416,0.88113,0.00011853,-792.78,-0.00057353,-5992.7,0.028925
269,2.22,1.4545,0,0.00054934,5489.6,0.00021221,1.0889,0.0001267,-641.44,-0.0005574,-5781.5,0.028458
270,2.22,1.2727,0,0.00053489,5345.3,0.00020075,1.3529,0.0001342,-498.64,-0.0005416,-5576.3,0.027922
271,2.22,1.0909,0,0.00052146,5211,0.00019014,1.7212,0.0001409,-368.23,-0.00052671,-5384.4,0.027315
272,2.22,0.90909,0,0.00050959,5092.4,0.00018065,2.2943,0.00014689,-251.42,-0.00051336,-5212.2,0.026632
273,2.22,0.72727,0,0.0004998,4994.5,0.00017251,3.391,0.00015232,-148.3,-0.00050209,-5065.3,0.025869
274,2.22,0.54545,0,0.00049244,4921,0.00016605,6.7122,0.0001571,-60.539,-0.00049332,-4947.6,0.025023
275,2.22,0.36364,0,0.00048778,4874.5,0.00016417,33.036,0.00015857,-9.0306,-0.00048736,-4862.3,0.024089
276,2.22,0.18182,0,0.00048768,4873.5,0.00016947,100.95,0.0001557,-2.5308,-0.00048593,-4823.4,0.023061
277,2.035,5.8182,0,0.00051516,5148.1,0.00017737,86.537,0.00016544,-3.0413,-0.00051368,-5105.7,0.019168
278,2.035,5.6364,0,0.00051265,5123,0.00017134,12.369,0.00016665,-22.836,-0.00051282,-5128.1,0.020122
279,2.035,5.4545,0,0.00051405,5137,0.00017548,3.2361,0.00015999,-113.11,-0.00051582,-5190.9,0.020977
280,2.035,5.2727,0,0.00051753,5171.7,0.00018201,1.9783,0.00015169,-225.84,-0.00052096,-5279.9,0.021741
281,2.035,5.0909,0,0.00052296,5226,0.00018984,1.4272,0.00014279,-352.13,-0.00052802,-5392.3,0.022419
282,2.035,4.9091,0,0.00053017,5298,0.00019872,1.1104,0.00013346,-489.17,-0.00053676,-5525,0.023018
283,2.035,4.7273,0,0.00053887,5385,0.0002084,0.89344,0.00012383,-634.59,-0.00054683,-5673.6,0.023542
284,2.035,4.5455,0,0.00054871,5483.3,0.00021864,0.73115,0.00011401,-785.45,-0.00055781,-5833.2,0.023998
285,2.035,4.3636,0,0.00055927,5588.9,0.00022909,0.59845,0.00010423,-937.52,-0.00056927,-5998,0.024391
286,2.035,4.1818,0,0.00057017,5697.8,0.00023937,0.48586,9.4888e-05,-1085.1,-0.00058081,-6162,0.024724
287,2.035,4,0,0.00058098,5805.8,0.00024905,0.39268,8.6429e-05,-1221.5,-0.00059203,-6319.1,0.025002
288,2.035,3.8182,0,0.00059124,5908.3,0.00025773,0.32781,7.9284e-05,-1340.4,-0.00060251,-6463.1,0.025229
289,2.035,3.6364,0,0.00060041,6000,0.00026504,0.2949,7.3717e-05,-1437.2,-0.00061179,-6587.9,0.025407
290,2.035,3.4545,0,0.00060794,6075.2,0.00027071,0.28579,6.9772e-05,-1509.5,-0.00061936,-6687.4,0.02554
291,2.035,3.2727,0,0.00061329,6128.7,0.00027457,0.28997,6.7317e-05,-1557,-0.00062474,-6756.8,0.025628
292,2.035,3.0909,0,0.00061608,6156.6,0.00027652,0.29599,6.6157e-05,-1580.3,-0.00062754,-6792.5,0.025672
293,2.035,2.9091,0,0.00061608,6156.6,0.00027652,0.29599,6.6157e-05,-1580.3,-0.00062754,-6792.5,0.025672
294,2.035,2.7273,0,0.00061329,6128.7,0.00027457,0.28997,6.7317e-05,-1557,-0.00062474,-6756.8,0.025628
295,2.035,2.5455,0,0.00060794,6075.2,0.00027071,0.28579,6.9772e-05,-1509.5,-0.00061936,-6687.4,0.02554
296,2.035,2.3636,0,0.00060041,6000,0.00026504,0.2949,7.3717e-05,-1437.2,-0.00061179,-6587.9,0.025407
297,2.035,2.1818,0,0.00059124,5908.3,0.00025773,0.32781,7.9284e-05,-1340.4,-0.00060251,-6463.1,0.025229
298,2.035,2,0,0.00058098,5805.8,0.00024905,0.39268,8.6429e-05,-1221.5,-0.00059203,-6319.1,0.025002
299,2.035,1.8182,0,0.00057017,5697.8,0.00023937,0.48586,9.4888e-05,-1085.1,-0.00058081,-6162,0.024724
300,2.035,1.6364,0,0.00055927,5588.9,0.00022909,0.59845,0.00010423,-937.52,-0.00056927,-5998,0.024391
301,2.035,1.4545,0,0.00054871,5483.3,0.00021864,0.73115,0.00011401,-785.45,-0.00055781,-5833.2,0.023998
302,2.035,1.2727,0,0.00053887,5385,0.0002084,0.89344,0.00012383,-634.59,-0.00054683,-5673.6,0.023542
303,2.035,1.0909,0,0.00053017,5298,0.00019872,1.1104,0.00013346,-489.17,-0.00053676,-5525,0.023018
304,2.035,0.90909,0,0.00052296,5226,0.00018984,1.4272,0.00014279,-352.13,-0.00052802,-5392.3,0.022419
305,2.035,0.72727,0,0.00051753,5171.7,0.00018201,1.9783,0.00015169,-225.84,-0.00052096,-5279.9,0.021741
306,2.035,0.54545,0,0.00051405,5137,0.00017548,3.2361,0.00015999,-113.11,-0.00051582,-5190.9,0.020977
307,2.035,0.36364,0,0.00051265,5123,0.00017134,12.369,0.00016665,-22.836,-0.00051282,-5128.1,0.020122
308,2.035,0.18182,0,0.00051516,5148.1,0.00017737,86.537,0.00016544,-3.0413,-0.00051368,-5105.7,0.019168
309,1.85,5.8182,0,0.00053778,5374.1,0.00018385,74.195,0.00017345,-3.9229,-0.00053654,-5338.5,0.015614
310,1.85,5.6364,0,0.00053265,5322.8,0.0001788,5.6274,0.00017116,-51.756,-0.00053341,-5345.7,0.016492
311,1.85,5.4545,0,0.00053113,5307.7,0.00018381,2.0619,0.00016088,-170.2,-0.00053378,-5389.6,0.017269
312,1.85,5.2727,0,0.00053138,5310.1,0.00019039,1.3739,0.00014952,-305.7,-0.00053589,-5455.6,0.017953
313,1.85,5.0909,0,0.00053338,5330.1,0.00019804,1.0123,0.00013767,-452.58,-0.00053961,-5541.4,0.018552
314,1.85,4.9091,0,0.00053711,5367.4,0.0002065,0.79591,0.00012568,-606.48,-0.00054483,-5644.4,0.019073
315,1.85,4.7273,0,0.0005424,5420.3,0.00021553,0.64259,0.00011382,-763.55,-0.00055132,-5761.2,0.019523
316,1.85,4.5455,0,0.000549,5486.2,0.00022486,0.52696,0.00010234,-920.05,-0.00055881,-5887.7,0.019909
317,1.85,4.3636,0,0.00055654,5561.5,0.00023421,0.43297,9.1488e-05,-1071.9,-0.00056695,-6019.2,0.020236
318,1.85,4.1818,0,0.00056463,5642.4,0.00024326,0.35415,8.1532e-05,-1214.8,-0.00057538,-6150.6,0.02051
319,1.85,4,0,0.00057286,5724.6,0.0002517,0.29024,7.2759e-05,-1344.2,-0.00058374,-6276.9,0.020736
320,1.85,3.8182,0,0.00058076,5803.6,0.00025921,0.24315,6.5409e-05,-1455.9,-0.00059164,-6392.7,0.020918
321,1.85,3.6364,0,0.00058786,5874.5,0.00026552,0.21425,5.9622e-05,-1546.8,-0.00059868,-6493,0.02106
322,1.85,3.4545,0,0.0005937,5932.9,0.00027042,0.20191,5.5419e-05,-1615.3,-0.00060443,-6573.1,0.021164
323,1.85,3.2727,0,0.00059786,5974.5,0.00027377,0.19994,5.2719e-05,-1660.7,-0.00060852,-6629,0.021233
324,1.85,3.0909,0,0.00060003,5996.1,0.00027546,0.2012,5.1409e-05,-1683.3,-0.00061065,-6657.7,0.021267
325,1.85,2.9091,0,0.00060003,5996.1,0.00027546,0.2012,5.1409e-05,-1683.3,-0.00061065,-6657.7,0.021267
326,1.85,2.7273,0,0.00059786,5974.5,0.00027377,0.19994,5.2719e-05,-1660.7,-0.00060852,-6629,0.021233
327,1.85,2.5455,0,0.0005937,5932.9,0.00027042,0.20191,5.5419e-05,-1615.3,-0.00060443,-6573.1,0.021164
328,1.85,2.3636,0,0.00058786,5874.5,0.00026552,0.21425,5.9622e-05,-1546.8,-0.00059868,-6493,0.02106
329,1.85,2.1818,0,0.00058076,5803.5,0.00025921,0.24315,6.5409e-05,-1455.9,-0.00059164,-6392.7,0.020918
330,1.85,2,0,0.00057286,5724.6,0.0002517,0.29024,7.2759e-05,-1344.2,-0.00058374,-6276.9,0.020736
331,1.85,1.8182,0,0.00056463,5642.4,0.00024326,0.35415,8.1532e-05,-1214.8,-0.00057538,-6150.6,0.02051
332,1.85,1.6364,0,0.00055654,5561.5,0.00023421,0.43297,9.1487e-05,-1071.9,-0.00056695,-6019.2,0.020236
333,1.85,1.4545,0,0.000549,5486.2,0.00022486,0.52696,0.00010234,-920.05,-0.00055881,-5887.7,0.019909
334,1.85,1.2727,0,0.0005424,5420.3,0.00021553,0.64259,0.00011382,-763.55,-0.00055132,-5761.2,0.019523
335,1.85,1.0909,0,0.00053711,5367.4,0.0002065,0.79591,0.00012568,-606.48,-0.00054482,-5644.4,0.019073
336,1.85,0.90909,0,0.00053338,5330.1,0.00019804,1.0123,0.00013767,-452.58,-0.00053961,-5541.4,0.018552
337,1.85,0.72727,0,0.00053138,5310.1,0.00019039,1.3739,0.00014952,-305.7,-0.00053589,-5455.6,0.017953
338,1.85,0.54545,0,0.00053113,5307.7,0.00018381,2.0619,0.00016088,-170.2,-0.00053378,-5389.6,0.017269
339,1.85,0.36364,0,0.00053265,5322.8,0.0001788,5.6274,0.00017116,-51.756,-0.00053341,-5345.7,0.016492
340,1.85,0.18182,0,0.00053778,5374.1,0.00018385,74.195,0.00017345,-3.9229,-0.00053654,-5338.5,0.015614
341,1.665,5.8182,0,0.00055598,5556,0.00018914,64.859,0.00017982,-5.2023,-0.00055494,-5525.8,0.012412
342,1.665,5.6364,0,0.00054823,5478.5,0.00018547,3.7631,0.00017352,-86.028,-0.00054958,-5519.1,0.013213
343,1.665,5.4545,0,0.0005441,5437.2,0.00019097,1.5649,0.0001601,-230.4,-0.00054762,-5547.9,0.013912
344,1.665,5.2727,0,0.00054168,5413,0.00019777,1.0908,0.00014584,-389.08,-0.00054722,-5596.5,0.014518
345,1.665,5.0909,0,0.00054107,5406.9,0.00020544,0.80659,0.00013135,-555.9,-0.00054835,-5662.9,0.015041
346,1.665,4.9091,0,0.00054232,5419.5,0.00021373,0.63667,0.00011714,-725.07,-0.00055099,-5745.1,0.015489
347,1.665,4.7273,0,0.00054534,5449.6,0.00022236,0.51526,0.0001036,-891.8,-0.00055499,-5840.2,0.01587
348,1.665,4.5455,0,0.00054985,5494.7,0.00023109,0.42523,9.0998e-05,-1052.2,-0.00056012,-5944.5,0.016192
349,1.665,4.3636,0,0.00055549,5551,0.00023966,0.35347,7.953e-05,-1202.8,-0.00056607,-6053.6,0.016461
350,1.665,4.1818,0,0.00056182,5614.3,0.00024782,0.29451,6.9353e-05,-1340.7,-0.00057247,-6163.1,0.016684
351,1.665,4,0,0.0005684,5680.1,0.00025533,0.24675,6.0596e-05,-1462.9,-0.00057896,-6268.3,0.016865
352,1.665,3.8182,0,0.00057478,5743.9,0.00026195,0.21094,5.335e-05,-1567.1,-0.00058516,-6364.6,0.017009
353,1.665,3.6364,0,0.00058054,5801.4,0.00026749,0.18745,4.7653e-05,-1651.6,-0.00059071,-6447.9,0.017121
354,1.665,3.4545,0,0.00058527,5848.6,0.00027178,0.17468,4.3482e-05,-1715.1,-0.00059525,-6514.3,0.017202
355,1.665,3.2727,0,0.00058863,5882.2,0.0002747,0.16943,4.0771e-05,-1757.5,-0.00059847,-6560.5,0.017255
356,1.665,3.0909,0,0.00059037,5899.7,0.00027618,0.16802,3.9441e-05,-1778.6,-0.00060015,-6584.2,0.017281
357,1.665,2.9091,0,0.00059037,5899.7,0.00027618,0.16802,3.9441e-05,-1778.6,-0.00060015,-6584.2,0.017281
358,1.665,2.7273,0,0.00058863,5882.2,0.0002747,0.16943,4.0771e-05,-1757.5,-0.00059847,-6560.5,0.017255
359,1.665,2.5455,0,0.00058527,5848.6,0.00027178,0.17468,4.3482e-05,-1715.1,-0.00059525,-6514.3,0.017202
360,1.665,2.3636,0,0.00058054,5801.4,0.00026749,0.18745,4.7652e-05,-1651.6,-0.00059071,-6447.9,0.017121
361,1.665,2.1818,0,0.00057478,5743.9,0.00026195,0.21094,5.335e-05,-1567.1,-0.00058516,-6364.6,0.017009
362,1.665,2,0,0.0005684,5680.1,0.00025533,0.24675,6.0596e-05,-1462.9,-0.00057896,-6268.3,0.016865
363,1.665,1.8182,0,0.00056182,5614.3,0.00024782,0.29451,6.9353e-05,-1340.7,-0.00057247,-6163.1,0.016684
364,1.665,1.6364,0,0.00055549,5551,0.00023966,0.35347,7.953e-05,-1202.8,-0.00056607,-6053.6,0.016461
365,1.665,1.4545,0,0.00054985,5494.7,0.00023109,0.42523,9.0998e-05,-1052.2,-0.00056012,-5944.5,0.016192
366,1.665,1.2727,0,0.00054534,5449.6,0.00022236,0.51526,0.0001036,-891.8,-0.00055499,-5840.2,0.01587
367,1.665,1.0909,0,0.00054232,5419.5,0.00021373,0.63667,0.00011714,-725.07,-0.00055099,-5745.1,0.015489
368,1.665,0.90909,0,0.00054107,5406.9,0.00020544,0.80659,0.00013135,-555.9,-0.00054835,-5662.9,0.015041
369,1.665,0.72727,0,0.00054168,5413,0.00019777,1.0908,0.00014584,-389.08,-0.00054722,-5596.5,0.014518
370,1.665,0.54545,0,0.0005441,5437.2,0.00019097,1.5649,0.0001601,-230.4,-0.00054762,-5547.9,0.013912
371,1.665,0.36364,0,0.00054823,5478.5,0.00018547,3.7631,0.00017352,-86.028,-0.00054958,-5519.1,0.013213
372,1.665,0.18182,0,0.00055598,5556,0.00018914,64.859,0.00017982,-5.2023,-0.00055494,-5525.8,0.012412
373,1.48,5.8182,0,0.00057004,5696.4,0.00019338,59.139,0.0001846,-6.8816,-0.00056912,-5670,0.0095761
374,1.48,5.6364,0,0.00055963,5592.4,0.00019095,3.0652,0.00017429,-122.08,-0.00056155,-5650.9,0.010297
375,1.48,5.4545,0,0.00055315,5527.7,0.00019704,1.255,0.00015767,-294.54,-0.00055754,-5668.4,0.010916
376,1.48,5.2727,0,0.0005486,5482.2,0.00020429,0.86088,0.0001405,-478.38,-0.00055515,-5705.2,0.011444
377,1.48,5.0909,0,0.00054615,5457.7,0.00021225,0.60102,0.00012356,-665.75,-0.0005544,-5759.7,0.011893
378,1.48,4.9091,0,0.00054589,5455.2,0.00022061,0.45003,0.0001075,-849.47,-0.00055534,-5829.8,0.012271
379,1.48,4.7273,0,0.00054767,5473,0.00022911,0.34408,9.2735e-05,-1024.3,-0.00055785,-5912.5,0.012587
380,1.48,4.5455,0,0.00055115,5507.7,0.00023749,0.26852,7.9504e-05,-1186.8,-0.00056165,-6004.1,0.012851
381,1.48,4.3636,0,0.00055586,5554.7,0.00024554,0.21031,6.7887e-05,-1334.6,-0.00056639,-6100.3,0.013068
382,1.48,4.1818,0,0.00056131,5609.3,0.00025307,0.16374,5.7891e-05,-1466.3,-0.00057168,-6196.7,0.013245
383,1.48,4,0,0.00056704,5666.4,0.00025989,0.1263,4.9494e-05,-1580.7,-0.00057713,-6288.9,0.013387
384,1.48,3.8182,0,0.00057258,5721.9,0.00026583,0.097492,4.2653e-05,-1676.8,-0.00058236,-6372.8,0.013499
385,1.48,3.6364,0,0.00057755,5771.5,0.00027076,0.07715,3.7314e-05,-1753.9,-0.00058703,-6445,0.013585
386,1.48,3.4545,0,0.00058161,5812.1,0.00027456,0.064463,3.341e-05,-1811.8,-0.00059083,-6502.1,0.013646
387,1.48,3.2727,0,0.00058448,5840.8,0.00027714,0.057728,3.0864e-05,-1850.3,-0.00059353,-6541.8,0.013686
388,1.48,3.0909,0,0.00058596,5855.6,0.00027844,0.055,2.9611e-05,-1869.5,-0.00059492,-6562,0.013706
389,1.48,2.9091,0,0.00058596,5855.6,0.00027844,0.055,2.9611e-05,-1869.5,-0.00059492,-6562,0.013706
390,1.48,2.7273,0,0.00058448,5840.8,0.00027714,0.057728,3.0864e-05,-1850.3,-0.00059353,-6541.8,0.013686
391,1.48,2.5455,0,0.00058161,5812.1,0.00027456,0.064463,3.341e-05,-1811.8,-0.00059083,-6502.1,0.013646
392,1.48,2.3636,0,0.00057755,5771.5,0.00027076,0.07715,3.7314e-05,-1753.9,-0.00058703,-6445,0.013585
393,1.48,2.1818,0,0.00057258,5721.9,0.00026583,0.097492,4.2652e-05,-1676.8,-0.00058236,-6372.8,0.013499
394,1.48,2,0,0.00056704,5666.4,0.00025989,0.1263,4.9493e-05,-1580.7,-0.00057713,-6288.9,0.013387
395,1.48,1.8182,0,0.00056131,5609.3,0.00025307,0.16374,5.7891e-05,-1466.3,-0.00057168,-6196.7,0.013245
396,1.48,1.6364,0,0.00055586,5554.7,0.00024554,0.21031,6.7887e-05,-1334.6,-0.00056639,-6100.3,0.013068
397,1.48,1.4545,0,0.00055115,5507.7,0.00023749,0.26852,7.9504e-05,-1186.8,-0.00056165,-6004.1,0.012851
398,1.48,1.2727,0,0.00054767,5473,0.00022911,0.34408,9.2735e-05,-1024.3,-0.00055785,-5912.5,0.012587
399,1.48,1.0909,0,0.00054589,5455.1,0.00022061,0.45003,0.0001075,-849.47,-0.00055534,-5829.8,0.012271
400,1.48,0.90909,0,0.00054615,5457.7,0.00021225,0.60102,0.00012356,-665.75,-0.0005544,-5759.7,0.011893
401,1.48,0.72727,0,0.0005486,5482.2,0.00020429,0.86088,0.0001405,-478.38,-0.00055515,-5705.2,0.011444
402,1.48,0.54545,0,0.00055315,5527.7,0.00019704,1.255,0.00015767,-294.54,-0.00055754,-5668.4,0.010916
403,1.48,0.36364,0,0.00055963,5592.4,0.00019095,3.0652,0.00017429,-122.08,-0.00056155,-5650.9,0.010297
404,1.48,0.18182,0,0.00057004,5696.4,0.00019338,59.139,0.0001846,-6.8816,-0.00056912,-5670,0.0095761
405,1.295,5.8182,0,0.00057991,5795.1,0.00019659,57.449,0.00018779,-8.6749,-0.00057905,-5770.4,0.0071134
406,1.295,5.6364,0,0.0005668,5664.1,0.00019516,3.0439,0.00017347,-159.94,-0.00056929,-5740.8,0.00775
407,1.295,5.4545,0,0.00055825,5578.7,0.00020212,1.3829,0.00015337,-364.89,-0.00056354,-5751.4,0.0082871
408,1.295,5.2727,0,0.00055215,5517.7,0.00021014,1.0504,0.00013318,-577.21,-0.00055968,-5783,0.0087371
409,1.295,5.0909,0,0.00054872,5483.4,0.00021869,0.81544,0.00011392,-786.43,-0.00055782,-5833.6,0.0091119
410,1.295,4.9091,0,0.00054796,5475.8,0.00022742,0.68837,9.6363e-05,-984.03,-0.000558,-5900.7,0.0094222
411,1.295,4.7273,0,0.00054956,5491.8,0.00023603,0.60262,8.0887e-05,-1165,-0.00056001,-5980.5,0.0096778
412,1.295,4.5455,0,0.000553,5526.2,0.00024428,0.54467,6.7567e-05,-1327.2,-0.00056346,-6068.5,0.009887
413,1.295,4.3636,0,0.00055767,5572.9,0.00025202,0.50111,5.6301e-05,-1470.1,-0.00056791,-6160.2,0.010057
414,1.295,4.1818,0,0.00056301,5626.3,0.0002591,0.4664,4.6912e-05,-1593.8,-0.0005729,-6250.9,0.010194
415,1.295,4,0,0.00056852,5681.2,0.0002654,0.43801,3.9221e-05,-1699,-0.000578,-6336.6,0.010302
416,1.295,3.8182,0,0.00057375,5733.6,0.00027081,0.41538,3.3068e-05,-1785.9,-0.00058285,-6413.7,0.010386
417,1.295,3.6364,0,0.00057837,5779.7,0.00027526,0.39842,2.8318e-05,-1855,-0.00058712,-6479.1,0.01045
418,1.295,3.4545,0,0.00058208,5816.8,0.00027865,0.38683,2.4863e-05,-1906.5,-0.00059056,-6530.5,0.010495
419,1.295,3.2727,0,0.00058468,5842.7,0.00028095,0.37989,2.2613e-05,-1940.6,-0.00059296,-6565.8,0.010524
420,1.295,3.0909,0,0.00058601,5856.1,0.0002821,0.37672,2.1506e-05,-1957.6,-0.00059421,-6583.9,0.010539
421,1.295,2.9091,0,0.00058601,5856.1,0.0002821,0.37672,2.1506e-05,-1957.6,-0.00059421,-6583.9,0.010539
422,1.295,2.7273,0,0.00058468,5842.7,0.00028095,0.37989,2.2613e-05,-1940.6,-0.00059296,-6565.8,0.010524
423,1.295,2.5455,0,0.00058208,5816.8,0.00027865,0.38683,2.4863e-05,-1906.5,-0.00059055,-6530.5,0.010495
424,1.295,2.3636,0,0.00057837,5779.7,0.00027526,0.39842,2.8318e-05,-1855,-0.00058712,-6479.1,0.01045
425,1.295,2.1818,0,0.00057375,5733.5,0.00027081,0.41537,3.3068e-05,-1785.9,-0.00058285,-6413.7,0.010386
426,1.295,2,0,0.00056852,5681.2,0.0002654,0.43801,3.9221e-05,-1699,-0.000578,-6336.6,0.010302
427,1.295,1.8182,0,0.00056301,5626.3,0.0002591,0.4664,4.6912e-05,-1593.8,-0.0005729,-6250.9,0.010194
428,1.295,1.6364,0,0.00055767,5572.9,0.00025202,0.50111,5.6301e-05,-1470.1,-0.00056791,-6160.2,0.010057
429,1.295,1.4545,0,0.000553,5526.2,0.00024428,0.54467,6.7567e-05,-1327.2,-0.00056346,-6068.5,0.009887
430,1.295,1.2727,0,0.00054956,5491.8,0.00023603,0.60262,8.0887e-05,-1165,-0.00056001,-5980.5,0.0096778
431,1.295,1.0909,0,0.00054796,5475.8,0.00022742,0.68837,9.6363e-05,-984.03,-0.000558,-5900.7,0.0094222
432,1.295,0.90909,0,0.00054872,5483.4,0.00021869,0.81545,0.00011392,-786.43,-0.00055782,-5833.6,0.0091119
433,1.295,0.72727,0,0.00055215,5517.7,0.00021014,1.0504,0.00013318,-577.21,-0.00055968,-5783,0.0087371
434,1.295,0.54545,0,0.00055825,5578.7,0.00020212,1.3829,0.00015337,-364.89,-0.00056354,-5751.4,0.0082871
435,1.295,0.36364,0,0.0005668,5664.1,0.00019516,3.0439,0.00017347,-159.94,-0.00056929,-5740.8,0.00775
436,1.295,0.18182,0,0.00057991,5795.1,0.00019659,57.449,0.00018779,-8.6749,-0.00057905,-5770.4,0.0071134
437,1.11,5.8182,0,0.00058513,5847.2,0.00019861,59.74,0.00018921,-10.907,-0.00058426,-5822.5,0.0050293
438,1.11,5.6364,0,0.00056919,5687.9,0.00019794,2.3477,0.00017075,-201.96,-0.00057231,-5785,0.0055772
439,1.11,5.4545,0,0.00055893,5585.4,0.00020615,0.39366,0.00014667,-446.53,-0.00056518,-5795.1,0.0060292
440,1.11,5.2727,0,0.00055205,5516.6,0.00021537,-0.057632,0.00012327,-692.07,-0.00056055,-5830.1,0.0063995
441,1.11,5.0909,0,0.0005487,5483.2,0.00022489,-0.37318,0.00010191,-924.37,-0.00055856,-5886.9,0.0067012
442,1.11,4.9091,0,0.00054865,5482.7,0.00023427,-0.54526,8.338e-05,-1134.2,-0.00055908,-5961.5,0.0069462
443,1.11,4.7273,0,0.00055121,5508.3,0.0002432,-0.65876,6.784e-05,-1318.2,-0.0005617,-6048.3,0.0071442
444,1.11,4.5455,0,0.0005556,5552.1,0.0002515,-0.73442,5.5077e-05,-1476.6,-0.00056581,-6141.7,0.0073035
445,1.11,4.3636,0,0.00056103,5606.4,0.00025907,-0.78979,4.4719e-05,-1611.3,-0.00057082,-6236.2,0.0074308
446,1.11,4.1818,0,0.00056688,5664.9,0.00026582,-0.83236,3.6379e-05,-1724.8,-0.00057619,-6327.4,0.0075316
447,1.11,4,0,0.00057264,5722.5,0.00027171,-0.86598,2.9728e-05,-1819,-0.0005815,-6411.5,0.0076105
448,1.11,3.8182,0,0.00057794,5775.4,0.00027668,-0.89223,2.4509e-05,-1895.6,-0.00058638,-6485.6,0.007671
449,1.11,3.6364,0,0.00058248,5820.8,0.00028071,-0.91193,2.0531e-05,-1955.8,-0.00059059,-6547.5,0.0077161
450,1.11,3.4545,0,0.00058606,5856.6,0.00028376,-0.92572,1.7658e-05,-2000.3,-0.00059391,-6595.4,0.007748
451,1.11,3.2727,0,0.00058853,5881.3,0.00028581,-0.93433,1.5795e-05,-2029.7,-0.0005962,-6628,0.0077684
452,1.11,3.0909,0,0.00058979,5893.9,0.00028684,-0.93842,1.4878e-05,-2044.3,-0.00059738,-6644.6,0.0077783
453,1.11,2.9091,0,0.00058979,5893.9,0.00028684,-0.93842,1.4878e-05,-2044.3,-0.00059738,-6644.6,0.0077783
454,1.11,2.7273,0,0.00058853,5881.3,0.00028581,-0.93433,1.5795e-05,-2029.7,-0.0005962,-6628,0.0077684
455,1.11,2.5455,0,0.00058606,5856.6,0.00028376,-0.92572,1.7658e-05,-2000.3,-0.00059391,-6595.4,0.007748
456,1.11,2.3636,0,0.00058248,5820.8,0.00028071,-0.91193,2.0531e-05,-1955.8,-0.00059059,-6547.5,0.0077161
457,1.11,2.1818,0,0.00057794,5775.4,0.00027668,-0.89223,2.4509e-05,-1895.6,-0.00058638,-6485.6,0.007671
458,1.11,2,0,0.00057264,5722.5,0.00027171,-0.86598,2.9728e-05,-1819,-0.0005815,-6411.5,0.0076105
459,1.11,1.8182,0,0.00056688,5664.9,0.00026582,-0.83236,3.6379e-05,-1724.8,-0.00057619,-6327.4,0.0075316
460,1.11,1.6364,0,0.00056103,5606.4,0.00025907,-0.78979,4.4719e-05,-1611.3,-0.00057082,-6236.2,0.0074308
461,1.11,1.4545,0,0.0005556,5552.1,0.0002515,-0.73442,5.5077e-05,-1476.6,-0.00056581,-6141.7,0.0073035
462,1.11,1.2727,0,0.00055121,5508.3,0.0002432,-0.65876,6.784e-05,-1318.2,-0.0005617,-6048.3,0.0071442
463,1.11,1.0909,0,0.00054865,5482.7,0.00023427,-0.54526,8.338e-05,-1134.2,-0.00055908,-5961.5,0.0069462
464,1.11,0.90909,0,0.0005487,5483.2,0.00022489,-0.37318,0.00010191,-924.37,-0.00055856,-5886.9,0.0067012
465,1.11,0.72727,0,0.00055204,5516.6,0.00021537,-0.057632,0.00012327,-692.07,-0.00056055,-5830.1,0.0063995
466,1.11,0.54545,0,0.00055893,5585.4,0.00020615,0.39366,0.00014667,-446.53,-0.00056517,-5795.1,0.0060292
467,1.11,0.36364,0,0.00056919,5687.9,0.00019794,2.3477,0.00017075,-201.96,-0.00057231,-5785,0.0055772
468,1.11,0.18182,0,0.00058513,5847.2,0.00019861,59.74,0.00018921,-10.907,-0.00058426,-5822.5,0.0050293
469,0.925,5.8182,0,0.00058466,5842.6,0.0001991,67.094,0.00018865,-11.442,-0.00058368,-5814.4,0.0033246
470,0.925,5.6364,0,0.00056594,5655.5,0.0001995,5.4755,0.00016538,-250.91,-0.00056968,-5773.8,0.0037784
471,0.925,5.4545,0,0.00055469,5543,0.00020975,4.2907,0.00013658,-545.43,-0.00056184,-5793.1,0.0041421
472,0.925,5.2727,0,0.00054834,5479.6,0.00022081,4.2587,0.00010986,-829.39,-0.0005576,-5844.4,0.0044318
473,0.925,5.0909,0,0.00054674,5463.6,0.00023177,4.2088,8.6922e-05,-1084.1,-0.00055691,-5921.6,0.0046618
474,0.925,4.9091,0,0.00054897,5485.9,0.00024211,4.2304,6.8276e-05,-1301.9,-0.00055925,-6016.8,0.0048442
475,0.925,4.7273,0,0.0005538,5534.2,0.00025156,4.2558,5.3585e-05,-1483.3,-0.00056375,-6121.6,0.0049886
476,0.925,4.5455,0,0.00056009,5597,0.00026003,4.279,4.2166e-05,-1632.7,-0.00056952,-6228.7,0.0051027
477,0.925,4.3636,0,0.00056694,5665.5,0.0002675,4.2931,3.3316e-05,-1755.3,-0.00057584,-6332.3,0.0051923
478,0.925,4.1818,0,0.00057375,5733.5,0.00027399,4.2986,2.6447e-05,-1855.6,-0.00058213,-6428.3,0.0052621
479,0.925,4,0,0.00058007,5796.7,0.00027951,4.2975,2.1119e-05,-1937.1,-0.00058801,-6513.9,0.0053159
480,0.925,3.8182,0,0.00058563,5852.3,0.00028408,4.2926,1.7018e-05,-2002.3,-0.00059321,-6587.3,0.0053566
481,0.925,3.6364,0,0.00059025,5898.4,0.00028773,4.2862,1.3933e-05,-2052.9,-0.00059753,-6647.2,0.0053865
482,0.925,3.4545,0,0.0005938,5933.9,0.00029047,4.2801,1.1721e-05,-2090.1,-0.00060087,-6692.8,0.0054075
483,0.925,3.2727,0,0.00059621,5958,0.00029228,4.2755,1.0292e-05,-2114.5,-0.00060313,-6723.5,0.0054207
484,0.925,3.0909,0,0.00059743,5970.2,0.00029319,4.2731,9.5909e-06,-2126.6,-0.00060428,-6739,0.0054271
485,0.925,2.9091,0,0.00059743,5970.2,0.00029319,4.2731,9.5909e-06,-2126.6,-0.00060428,-6739,0.0054271
486,0.925,2.7273,0,0.00059621,5958,0.00029228,4.2755,1.0292e-05,-2114.5,-0.00060313,-6723.5,0.0054207
487,0.925,2.5455,0,0.0005938,5933.9,0.00029047,4.2801,1.1721e-05,-2090.1,-0.00060087,-6692.8,0.0054075
488,0.925,2.3636,0,0.00059025,5898.4,0.00028773,4.2862,1.3933e-05,-2052.9,-0.00059753,-6647.2,0.0053865
489,0.925,2.1818,0,0.00058563,5852.3,0.00028408,4.2926,1.7018e-05,-2002.3,-0.00059321,-6587.3,0.0053566
490,0.925,2,0,0.00058007,5796.7,0.00027951,4.2975,2.1119e-05,-1937.1,-0.00058801,-6513.9,0.0053159
491,0.925,1.8182,0,0.00057375,5733.5,0.00027399,4.2986,2.6447e-05,-1855.6,-0.00058213,-6428.3,0.0052621
492,0.925,1.6364,0,0.00056694,5665.5,0.0002675,4.2931,3.3316e-05,-1755.3,-0.00057584,-6332.3,0.0051923
493,0.925,1.4545,0,0.00056009,5597,0.00026003,4.279,4.2166e-05,-1632.7,-0.00056952,-6228.7,0.0051027
494,0.925,1.2727,0,0.0005538,5534.2,0.00025156,4.2558,5.3585e-05,-1483.3,-0.00056374,-6121.6,0.0049886
495,0.925,1.0909,0,0.00054897,5485.9,0.00024211,4.2304,6.8276e-05,-1301.9,-0.00055925,-6016.8,0.0048442
496,0.925,0.90909,0,0.00054674,5463.6,0.00023177,4.2088,8.6922e-05,-1084.1,-0.00055691,-5921.6,0.0046618
497,0.925,0.72727,0,0.00054834,5479.6,0.00022081,4.2587,0.00010986,-829.39,-0.0005576,-5844.4,0.0044318
498,0.925,0.54545,0,0.00055469,5543,0.00020975,4.2907,0.00013658,-545.43,-0.00056184,-5793.1,0.0041421
499,0.925,0.36364,0,0.00056594,5655.5,0.0001995,5.4756,0.00016538,-250.91,-0.00056968,-5773.8,0.0037784
500,0.925,0.18182,0,0.00058466,5842.6,0.0001991,67.094,0.00018865,-11.442,-0.00058368,-5814.4,0.0033246
501,0.74,5.8182,0,0.00057579,5754,0.00019725,75.753,0.00018468,-18.654,-0.00057476,-5724.8,0.0019956
502,0.74,5.6364,0,0.00055392,5535.4,0.00019806,-5.736,0.00015591,-322.48,-0.00055882,-5692.7,0.0023497
503,0.74,5.4545,0,0.00054282,5424.4,0.00021111,-10.745,0.00012141,-684.65,-0.0005515,-5740.6,0.0026225
504,0.74,5.2727,0,0.00053925,5388.7,0.00022471,-12.567,9.1723e-05,-1011.8,-0.00054967,-5831,0.0028318
505,0.74,5.0909,0,0.00054175,5413.8,0.00023749,-13.795,6.8458e-05,-1283.8,-0.00055253,-5949.7,0.0029929
506,0.74,4.9091,0,0.00054816,5477.8,0.00024895,-14.56,5.1151e-05,-1500.7,-0.00055859,-6082.1,0.0031172
507,0.74,4.7273,0,0.00055649,5561.1,0.00025895,-15.09,3.8533e-05,-1671.2,-0.00056635,-6216.1,0.0032135
508,0.74,4.5455,0,0.00056539,5650,0.00026756,-15.461,2.9328e-05,-1805.4,-0.00057467,-6343.6,0.003288
509,0.74,4.3636,0,0.00057402,5736.3,0.00027488,-15.73,2.254e-05,-1911.7,-0.00058279,-6460,0.0033455
510,0.74,4.1818,0,0.00058192,5815.2,0.00028105,-15.923,1.7464e-05,-1996.4,-0.00059027,-6562.7,0.0033895
511,0.74,4,0,0.00058884,5884.3,0.00028617,-16.061,1.3629e-05,-2063.8,-0.00059684,-6650.7,0.0034229
512,0.74,3.8182,0,0.00059466,5942.5,0.00029032,-16.157,1.073e-05,-2116.9,-0.00060239,-6723.7,0.0034477
513,0.74,3.6364,0,0.00059933,5989.1,0.00029358,-16.223,8.5738e-06,-2157.6,-0.00060685,-6781.7,0.0034657
514,0.74,3.4545,0,0.00060283,6024.1,0.00029598,-16.265,7.0379e-06,-2187.3,-0.0006102,-6825,0.0034781
515,0.74,3.2727,0,0.00060516,6047.4,0.00029757,-16.29,6.0488e-06,-2206.7,-0.00061244,-6853.7,0.0034859
516,0.74,3.0909,0,0.00060633,6059.1,0.00029836,-16.302,5.5639e-06,-2216.2,-0.00061355,-6868,0.0034897
517,0.74,2.9091,0,0.00060633,6059.1,0.00029836,-16.302,5.5639e-06,-2216.2,-0.00061355,-6868,0.0034897
518,0.74,2.7273,0,0.00060516,6047.4,0.00029757,-16.29,6.0488e-06,-2206.7,-0.00061244,-6853.7,0.0034859
519,0.74,2.5455,0,0.00060283,6024.1,0.00029598,-16.265,7.0379e-06,-2187.3,-0.0006102,-6825,0.0034781
520,0.74,2.3636,0,0.00059933,5989.1,0.00029358,-16.223,8.5738e-06,-2157.6,-0.00060685,-6781.7,0.0034657
521,0.74,2.1818,0,0.00059466,5942.5,0.00029032,-16.157,1.073e-05,-2116.9,-0.00060239,-6723.7,0.0034477
522,0.74,2,0,0.00058884,5884.3,0.00028617,-16.061,1.3629e-05,-2063.8,-0.00059684,-6650.7,0.0034229
523,0.74,1.8182,0,0.00058192,5815.2,0.00028105,-15.923,1.7464e-05,-1996.4,-0.00059027,-6562.7,0.0033895
524,0.74,1.6364,0,0.00057402,5736.3,0.00027488,-15.73,2.254e-05,-1911.7,-0.00058279,-6460,0.0033455
525,0.74,1.4545,0,0.00056539,5650,0.00026756,-15.461,2.9328e-05,-1805.4,-0.00057467,-6343.6,0.003288
526,0.74,1.2727,0,0.00055649,5561.1,0.00025895,-15.09,3.8533e-05,-1671.2,-0.00056635,-6216.1,0.0032135
527,0.74,1.0909,0,0.00054816,5477.8,0.00024895,-14.56,5.1151e-05,-1500.7,-0.00055859,-6082.1,0.0031172
528,0.74,0.90909,0,0.00054175,5413.8,0.00023749,-13.795,6.8458e-05,-1283.8,-0.00055253,-5949.7,0.0029929
529,0.74,0.72727,0,0.00053925,5388.7,0.00022471,-12.567,9.1723e-05,-1011.8,-0.00054967,-5831,0.0028318
530,0.74,0.54545,0,0.00054282,5424.4,0.00021111,-10.745,0.00012141,-684.65,-0.0005515,-5740.6,0.0026225
531,0.74,0.36364,0,0.00055392,5535.4,0.00019806,-5.736,0.00015591,-322.48,-0.00055882,-5692.7,0.0023497
532,0.74,0.18182,0,0.00057579,5754,0.00019725,75.753,0.00018468,-18.654,-0.00057476,-5724.8,0.0019956
533,0.555,5.8182,0,0.00055515,5547.6,0.00019148,98.239,0.00017815,-1.8896,-0.00055344,-5498.8,0.0010315
534,0.555,5.6364,0,0.0005332,5328.3,0.00019944,41.955,0.00013888,-413.07,-0.00053805,-5499.3,0.0012812
535,0.555,5.4545,0,0.00052745,5270.9,0.00021874,50.439,9.8078e-05,-856.18,-0.00053527,-5614.9,0.0014627
536,0.555,5.2727,0,0.00053225,5318.9,0.00023667,54.897,6.7497e-05,-1216.2,-0.00054048,-5784.3,0.0015954
537,0.555,5.0909,0,0.00054314,5427.7,0.00025218,57.969,4.6649e-05,-1486.3,-0.00055069,-5974.5,0.0016935
538,0.555,4.9091,0,0.00055623,5558.5,0.00026513,60.175,3.2869e-05,-1685,-0.00056292,-6161.5,0.0017671
539,0.555,4.7273,0,0.00056928,5688.9,0.00027581,61.744,2.3705e-05,-1832.5,-0.00057523,-6332.6,0.0018226
540,0.555,4.5455,0,0.00058124,5808.4,0.00028457,62.863,1.746e-05,-1944.1,-0.00058661,-6482.9,0.0018648
541,0.555,4.3636,0,0.00059171,5913,0.00029173,63.652,1.3073e-05,-2030.1,-0.00059665,-6611.3,0.0018966
542,0.555,4.1818,0,0.00060059,6001.7,0.00029755,64.199,9.9019e-06,-2097.1,-0.00060521,-6718.8,0.0019206
543,0.555,4,0,0.00060793,6075.1,0.00030223,64.568,7.5589e-06,-2149.5,-0.00061232,-6807,0.0019385
544,0.555,3.8182,0,0.00061383,6134.1,0.00030593,64.809,5.8119e-06,-2190.1,-0.00061805,-6877.6,0.0019515
545,0.555,3.6364,0,0.0006184,6179.8,0.00030876,64.959,4.5219e-06,-2221,-0.00062249,-6932.1,0.0019608
546,0.555,3.4545,0,0.00062174,6213.1,0.00031082,65.047,3.6065e-06,-2243.2,-0.00062574,-6971.8,0.0019671
547,0.555,3.2727,0,0.00062392,6234.9,0.00031215,65.094,3.0178e-06,-2257.6,-0.00062786,-6997.8,0.001971
548,0.555,3.0909,0,0.000625,6245.7,0.00031281,65.114,2.7293e-06,-2264.7,-0.00062891,-7010.6,0.0019728
549,0.555,2.9091,0,0.000625,6245.7,0.00031281,65.114,2.7292e-06,-2264.7,-0.00062891,-7010.6,0.0019728
550,0.555,2.7273,0,0.00062392,6234.9,0.00031215,65.094,3.0178e-06,-2257.6,-0.00062786,-6997.8,0.001971
551,0.555,2.5455,0,0.00062174,6213.1,0.00031082,65.047,3.6065e-06,-2243.2,-0.00062574,-6971.8,0.0019671
552,0.555,2.3636,0,0.0006184,6179.8,0.00030876,64.959,4.5219e-06,-2221,-0.00062249,-6932.1,0.0019608
553,0.555,2.1818,0,0.00061383,6134.1,0.00030593,64.809,5.8119e-06,-2190.1,-0.00061805,-6877.6,0.0019515
554,0.555,2,0,0.00060793,6075.1,0.00030223,64.568,7.5589e-06,-2149.5,-0.00061232,-6807,0.0019385
555,0.555,1.8182,0,0.00060059,6001.7,0.00029755,64.199,9.9019e-06,-2097.1,-0.00060521,-6718.8,0.0019206
556,0.555,1.6364,0,0.00059171,5913,0.00029173,63.652,1.3073e-05,-2030.1,-0.00059665,-6611.3,0.0018966
557,0.555,1.4545,0,0.00058124,5808.4,0.00028457,62.863,1.746e-05,-1944.1,-0.00058661,-6482.9,0.0018648
558,0.555,1.2727,0,0.00056928,5688.9,0.00027581,61.744,2.3705e-05,-1832.5,-0.00057523,-6332.6,0.0018226
559,0.555,1.0909,0,0.00055623,5558.5,0.00026513,60.175,3.2869e-05,-1685,-0.00056292,-6161.5,0.0017671
560,0.555,0.90909,0,0.00054314,5427.7,0.00025218,57.969,4.6649e-05,-1486.3,-0.00055069,-5974.5,0.0016935
561,0.555,0.72727,0,0.00053225,5318.8,0.00023667,54.897,6.7497e-05,-1216.2,-0.00054048,-5784.3,0.0015954
562,0.555,0.54545,0,0.00052745,5270.9,0.00021874,50.439,9.8078e-05,-856.18,-0.00053527,-5614.9,0.0014627
563,0.555,0.36364,0,0.0005332,5328.3,0.00019944,41.955,0.00013888,-413.07,-0.00053805,-5499.3,0.0012812
564,0.555,0.18182,0,0.00055515,5547.6,0.00019148,98.239,0.00017815,-1.8896,-0.00055344,-5498.8,0.0010315
565,0.37,5.8182,0,0.00050581,5054.6,0.00017738,72.469,0.00015573,-90.168,-0.00050592,-5061.5,0.00041082
566,0.37,5.6364,0,0.00048059,4802.6,0.00017957,-143.12,0.00010813,-679.93,-0.00049233,-5191.5,0.00055482
567,0.37,5.4545,0,0.00048604,4857.1,0.00020297,-188.42,6.3794e-05,-1234.1,-0.00050172,-5483.2,0.00065077
568,0.37,5.2727,0,0.00050495,5046.1,0.00022359,-210.89,3.8319e-05,-1602.9,-0.00052119,-5806.9,0.00071637
569,0.37,5.0909,0,0.00052619,5258.3,0.00024004,-225.17,2.4099e-05,-1847.6,-0.00054232,-6103.5,0.00076279
570,0.37,4.9091,0,0.00054568,5453,0.00025292,-234.93,1.597e-05,-2015.3,-0.00056169,-6355.6,0.00079649
571,0.37,4.7273,0,0.00056229,5619,0.00026304,-241.79,1.1053e-05,-2135.1,-0.00057825,-6562.9,0.00082135
572,0.37,4.5455,0,0.000576,5756,0.000271,-246.67,7.9093e-06,-2223.4,-0.00059195,-6730.6,0.00083981
573,0.37,4.3636,0,0.00058711,5867,0.00027729,-250.14,5.7901e-06,-2290.1,-0.00060307,-6864.8,0.0008535
574,0.37,4.1818,0,0.00059599,5955.8,0.00028224,-252.57,4.2971e-06,-2340.9,-0.00061197,-6971.3,0.00086359
575,0.37,4,0,0.00060299,6025.7,0.00028612,-254.25,3.2103e-06,-2379.9,-0.00061897,-7054.7,0.00087094
576,0.37,3.8182,0,0.0006084,6079.8,0.0002891,-255.36,2.4057e-06,-2409.5,-0.00062438,-7118.9,0.00087619
577,0.37,3.6364,0,0.00061244,6120.2,0.00029134,-256.08,1.8132e-06,-2431.4,-0.00062843,-7166.8,0.00087984
578,0.37,3.4545,0,0.00061532,6149,0.00029293,-256.52,1.3926e-06,-2447,-0.0006313,-7200.8,0.00088226
579,0.37,3.2727,0,0.00061717,6167.4,0.00029395,-256.76,1.1218e-06,-2457,-0.00063314,-7222.6,0.00088373
580,0.37,3.0909,0,0.00061807,6176.4,0.00029445,-256.87,9.8898e-07,-2461.8,-0.00063404,-7233.2,0.00088442
581,0.37,2.9091,0,0.00061807,6176.4,0.00029445,-256.87,9.8898e-07,-2461.8,-0.00063404,-7233.2,0.00088442
582,0.37,2.7273,0,0.00061717,6167.4,0.00029395,-256.76,1.1218e-06,-2457,-0.00063314,-7222.6,0.00088373
583,0.37,2.5455,0,0.00061532,6149,0.00029293,-256.52,1.3926e-06,-2447,-0.0006313,-7200.8,0.00088226
584,0.37,2.3636,0,0.00061244,6120.2,0.00029134,-256.08,1.8132e-06,-2431.4,-0.00062843,-7166.8,0.00087984
585,0.37,2.1818,0,0.0006084,6079.8,0.0002891,-255.36,2.4057e-06,-2409.5,-0.00062438,-7118.9,0.00087619
586,0.37,2,0,0.00060299,6025.7,0.00028612,-254.25,3.2102e-06,-2379.9,-0.00061897,-7054.7,0.00087094
587,0.37,1.8182,0,0.00059599,5955.8,0.00028224,-252.57,4.2971e-06,-2340.9,-0.00061197,-6971.3,0.00086359
588,0.37,1.6364,0,0.00058711,5867,0.00027729,-250.14,5.7901e-06,-2290.1,-0.00060307,-6864.8,0.0008535
589,0.37,1.4545,0,0.00057599,5756,0.000271,-246.67,7.9093e-06,-2223.4,-0.00059195,-6730.6,0.00083981
590,0.37,1.2727,0,0.00056229,5619,0.00026304,-241.79,1.1053e-05,-2135.1,-0.00057825,-6562.9,0.00082135
591,0.37,1.0909,0,0.00054568,5453,0.00025292,-234.93,1.597e-05,-2015.3,-0.00056169,-6355.6,0.00079649
592,0.37,0.90909,0,0.00052619,5258.3,0.00024004,-225.17,2.4099e-05,-1847.6,-0.00054232,-6103.5,0.00076279
593,0.37,0.72727,0,0.00050495,5046.1,0.00022359,-210.89,3.8319e-05,-1602.9,-0.00052119,-5806.9,0.00071637
594,0.37,0.54545,0,0.00048604,4857.1,0.00020297,-188.42,6.3794e-05,-1234.1,-0.00050172,-5483.1,0.00065077
595,0.37,0.36364,0,0.00048059,4802.6,0.00017957,-143.12,0.00010813,-679.93,-0.00049233,-5191.5,0.00055482
596,0.37,0.18182,0,0.00050581,5054.6,0.00017738,72.469,0.00015573,-90.168,-0.00050592,-5061.5,0.00041082
597,0.185,5.8182,0,0.00041448,4142,0.00016533,331.82,0.00011793,-24.336,-0.0004081,-3976.7,9.3946e-05
598,0.185,5.6364,0,0.00046464,4643.2,0.00024207,630.97,4.535e-05,-847.12,-0.00045031,-4571.3,0.00014465
599,0.185,5.4545,0,0.00053044,5300.7,0.00029196,761.09,2.0537e-05,-1278.2,-0.00050893,-5256.5,0.00017391
600,0.185,5.2727,0,0.00058152,5811.2,0.00032558,844.34,1.0404e-05,-1523.8,-0.00055566,-5777,0.00019232
601,0.185,5.0909,0,0.00061943,6190,0.00034872,896.78,6.0957e-06,-1677.6,-0.00059114,-6165,0.00020481
602,0.185,4.9091,0,0.0006476,6471.5,0.00036541,933.66,3.88e-06,-1782.7,-0.00061774,-6453.4,0.00021363
603,0.185,4.7273,0,0.00066868,6682.2,0.00037765,959.61,2.6343e-06,-1858.1,-0.00063778,-6669.9,0.00022
604,0.185,4.5455,0,0.00068453,6840.6,0.00038674,978.17,1.8618e-06,-1913.6,-0.00065292,-6833.4,0.00022463
605,0.185,4.3636,0,0.00069644,6959.6,0.0003935,991.34,1.349e-06,-1955.1,-0.00066434,-6956.9,0.00022799
606,0.185,4.1818,0,0.00070535,7048.6,0.00039852,1000.6,9.8828e-07,-1986.3,-0.0006729,-7049.7,0.00023041
607,0.185,4,0,0.00071193,7114.4,0.00040221,1006.9,7.2431e-07,-2009.7,-0.00067925,-7118.8,0.00023212
608,0.185,3.8182,0,0.00071672,7162.2,0.00040487,1011.1,5.2713e-07,-2027,-0.00068389,-7169.4,0.00023331
609,0.185,3.6364,0,0.00072011,7196.1,0.00040674,1013.7,3.8045e-07,-2039.5,-0.00068718,-7205.6,0.0002341
610,0.185,3.4545,0,0.0007224,7219,0.000408,1015.3,2.7541e-07,-2048.2,-0.00068941,-7230.2,0.00023461
611,0.185,3.2727,0,0.00072381,7233.1,0.00040877,1016.2,2.0731e-07,-2053.6,-0.00069079,-7245.5,0.00023491
612,0.185,3.0909,0,0.00072448,7239.8,0.00040914,1016.6,1.7375e-07,-2056.2,-0.00069145,-7252.8,0.00023505
613,0.185,2.9091,0,0.00072448,7239.8,0.00040914,1016.6,1.7375e-07,-2056.2,-0.00069145,-7252.8,0.00023505
614,0.185,2.7273,0,0.00072381,7233.1,0.00040877,1016.2,2.073e-07,-2053.6,-0.00069079,-7245.5,0.00023491
615,0.185,2.5455,0,0.0007224,7219,0.000408,1015.3,2.7541e-07,-2048.2,-0.00068941,-7230.2,0.00023461
616,0.185,2.3636,0,0.00072011,7196.1,0.00040674,1013.7,3.8044e-07,-2039.5,-0.00068718,-7205.6,0.0002341
617,0.185,2.1818,0,0.00071672,7162.2,0.00040487,1011.1,5.2712e-07,-2027,-0.00068389,-7169.4,0.00023331
618,0.185,2,0,0.00071193,7114.4,0.00040221,1006.9,7.243e-07,-2009.7,-0.00067925,-7118.8,0.00023212
619,0.185,1.8182,0,0.00070535,7048.6,0.00039852,1000.6,9.8827e-07,-1986.3,-0.0006729,-7049.7,0.00023041
620,0.185,1.6364,0,0.00069644,6959.6,0.0003935,991.34,1.349e-06,-1955.1,-0.00066434,-6956.9,0.00022799
621,0.185,1.4545,0,0.00068453,6840.6,0.00038674,978.17,1.8618e-06,-1913.6,-0.00065292,-6833.4,0.00022463
622,0.185,1.2727,0,0.00066868,6682.2,0.00037765,959.61,2.6343e-06,-1858.1,-0.00063778,-6669.9,0.00022
623,0.185,1.0909,0,0.0006476,6471.5,0.00036541,933.66,3.88e-06,-1782.7,-0.00061774,-6453.3,0.00021363
624,0.185,0.90909,0,0.00061943,6190,0.00034872,896.78,6.0956e-06,-1677.6,-0.00059114,-6165,0.00020481
625,0.185,0.72727,0,0.00058152,5811.1,0.00032558,844.34,1.0404e-05,-1523.8,-0.00055566,-5777,0.00019232
626,0.185,0.54545,0,0.00053044,5300.7,0.00029196,761.09,2.0537e-05,-1278.2,-0.00050893,-5256.5,0.00017391
627,0.185,0.36364,0,0.00046464,4643.2,0.00024207,630.97,4.535e-05,-847.12,-0.00045031,-4571.3,0.00014465
628,0.185,0.18182,0,0.00041448,4142,0.00016533,331.82,0.00011793,-24.335,-0.0004081,-3976.7,9.3946e-05
629,4.0514,0.18182,0,9.9103e-05,990.35,4.6379e-05,151.69,2.2407e-05,-28.426,-9.5769e-05,-916.35,0.086706
630,4.0514,0.36364,0,0.00014445,1443.5,7.3473e-05,311.51,3.0151e-05,-13.991,-0.00013661,-1267,0.088438
631,4.0514,0.54545,0,0.00020207,2019.3,0.00011245,566.24,3.567e-05,-10.659,-0.00018633,-1678.7,0.090182
632,4.0514,0.72727,0,0.00026722,2670.4,0.00015774,870.75,4.0588e-05,-9.4902,-0.00024145,-2128.6,0.091945
633,4.0514,0.90909,0,0.00034182,3415.8,0.00020993,1224.6,4.5687e-05,-9.475,-0.00030399,-2636.8,0.09373
634,4.0514,1.0909,0,0.00043001,4297.2,0.00027144,1640.1,5.1569e-05,-11.969,-0.00037778,-3238,0.095539
635,4.0514,1.2727,0,0.00053914,5387.7,0.00034656,2144,5.987e-05,-10.037,-0.00046949,-3987.4,0.097368
636,4.0514,1.4545,0,0.00068188,6814.1,0.00044244,2757.9,7.1082e-05,-32.349,-0.00059119,-5008.4,0.099212
637,4.0514,1.6364,0,0.00088829,8876.8,0.00057656,3625.8,9.6004e-05,15.056,-0.00076942,-6487.4,0.10105
638,4.0514,1.8182,0,0.0011942,11934,0.00072391,4064.5,0.0001575,-191.3,-0.0010699,-9413.7,0.10285
639,4.0514,2,0,0.0014419,14409,0.00072303,2639,0.00027346,-738.85,-0.0013795,-13159,0.10452
640,4.0514,2.1818,0,0.0014116,14106,0.00055347,1057,0.0004119,-6.6702,-0.0013907,-13551,0.10597
641,4.0514,2.3636,0,0.0013335,13326,0.00051409,881.67,0.00039371,-22.844,-0.0013166,-12873,0.10715
642,4.0514,2.5455,0,0.0012369,12361,0.0004674,718,0.00037257,5.4669,-0.0012231,-11984,0.10802
643,4.0514,2.7273,0,0.0011798,11790,0.00044284,643.01,0.00035672,-4.0784,-0.0011676,-11458,0.1086
644,4.0514,2.9091,0,0.0011527,11519,0.00043046,603.79,0.00035004,-0.44855,-0.0011412,-11205,0.10888
645,4.0514,3.0909,0,0.0011527,11519,0.00043046,603.79,0.00035004,-0.44855,-0.0011412,-11205,0.10888
646,4.0514,3.2727,0,0.0011798,11790,0.00044284,643,0.00035672,-4.0784,-0.0011676,-11458,0.1086
647,4.0514,3.4545,0,0.0012369,12361,0.0004674,718,0.00037257,5.4669,-0.0012231,-11984,0.10802
648,4.0514,3.6364,0,0.0013335,13326,0.00051409,881.67,0.00039371,-22.844,-0.0013166,-12873,0.10715
649,4.0514,3.8182,0,0.0014116,14106,0.00055347,1057,0.0004119,-6.6703,-0.0013907,-13551,0.10597
650,4.0514,4,0,0.0014419,14409,0.00072303,2639,0.00027346,-738.85,-0.0013795,-13159,0.10452
651,4.0514,4.1818,0,0.0011942,11934,0.00072391,4064.5,0.0001575,-191.3,-0.0010699,-9413.7,0.10285
652,4.0514,4.3636,0,0.00088829,8876.8,0.00057656,3625.8,9.6004e-05,15.056,-0.00076942,-6487.4,0.10105
653,4.0514,4.5455,0,0.00068188,6814.1,0.00044244,2757.9,7.1082e-05,-32.349,-0.00059119,-5008.4,0.099212
654,4.0514,4.7273,0,0.00053914,5387.7,0.00034656,2144,5.9871e-05,-10.037,-0.00046949,-3987.4,0.097368
655,4.0514,4.9091,0,0.00043001,4297.2,0.00027144,1640.1,5.1569e-05,-11.969,-0.00037778,-3238,0.095539
656,4.0514,5.0909,0,0.00034182,3415.8,0.00020993,1224.6,4.5687e-05,-9.475,-0.00030399,-2636.8,0.09373
657,4.0514,5.2727,0,0.00026722,2670.4,0.00015774,870.75,4.0588e-05,-9.4902,-0.00024145,-2128.6,0.091945
658,4.0514,5.4545,0,0.00020207,2019.3,0.00011245,566.24,3.567e-05,-10.659,-0.00018633,-1678.7,0.090182
659,4.0514,5.6364,0,0.00014445,1443.5,7.3473e-05,311.51,3.0151e-05,-13.991,-0.00013661,-1267,0.088438
660,4.0514,5.8182,0,9.9103e-05,990.35,4.6379e-05,151.69,2.2407e-05,-28.426,-9.5769e-05,-916.35,0.086706
661,4.2361,0.18182,0,0.0001491,1490,5.8847e-05,111.78,4.2831e-05,-8.5601,-0.00014698,-1434.7,0.10152
662,4.2361,0.36364,0,0.00017256,1724.4,7.1467e-05,173.22,4.766e-05,-5.6606,-0.00016901,-1633.6,0.1032
663,4.2361,0.54545,0,0.00021302,2128.8,9.7376e-05,329.99,5.3044e-05,-3.1033,-0.0002055,-1945.7,0.10486
664,4.2361,0.72727,0,0.00026468,2644.9,0.00013126,541.28,5.9009e-05,-1.5741,-0.00025128,-2333,0.10652
665,4.2361,0.90909,0,0.00032645,3262.3,0.00017134,789.41,6.6143e-05,-1.014,-0.00030577,-2795.4,0.10817
666,4.2361,1.0909,0,0.00039969,3994.2,0.00021744,1066.2,7.5462e-05,-0.54657,-0.00037072,-3353,0.1098
667,4.2361,1.2727,0,0.00048774,4874,0.00027022,1364.6,8.8466e-05,-0.99228,-0.00044997,-4046.6,0.11142
668,4.2361,1.4545,0,0.00059318,5927.7,0.00032726,1641.1,0.00010856,-2.1418,-0.00054796,-4934.9,0.113
669,4.2361,1.6364,0,0.00072014,7196.4,0.00038318,1811.8,0.00014246,3.1152,-0.000672,-6116.4,0.11452
670,4.2361,1.8182,0,0.00085719,8566,0.00041725,1662.7,0.00019754,11.913,-0.00081668,-7608.6,0.11594
671,4.2361,2,0,0.00095937,9587.1,0.00038882,933.26,0.00027764,97.831,-0.00093909,-9044.2,0.11724
672,4.2361,2.1818,0,0.0010449,10442,0.00037975,448.05,0.00032633,46.672,-0.0010359,-10188,0.11837
673,4.2361,2.3636,0,0.0010755,10747,0.00038279,328.21,0.00033752,-11.867,-0.0010697,-10585,0.11931
674,4.2361,2.5455,0,0.0010731,10723,0.00038194,334.51,0.00033742,0.04924,-0.001067,-10552,0.12004
675,4.2361,2.7273,0,0.0010592,10585,0.00037701,330.01,0.00033304,-0.42292,-0.0010532,-10416,0.12053
676,4.2361,2.9091,0,0.0010502,10495,0.00037386,328.27,0.00033017,-0.006397,-0.0010442,-10327,0.12078
677,4.2361,3.0909,0,0.0010502,10495,0.00037386,328.27,0.00033017,-0.0063988,-0.0010442,-10327,0.12078
678,4.2361,3.2727,0,0.0010592,10585,0.00037701,330,0.00033304,-0.42293,-0.0010532,-10416,0.12053
679,4.2361,3.4545,0,0.0010731,10723,0.00038194,334.51,0.00033742,0.049232,-0.001067,-10552,0.12004
680,4.2361,3.6364,0,0.0010755,10747,0.00038279,328.21,0.00033753,-11.867,-0.0010697,-10585,0.11931
681,4.2361,3.8182,0,0.0010449,10442,0.00037975,448.05,0.00032633,46.672,-0.0010359,-10188,0.11837
682,4.2361,4,0,0.00095937,9587.1,0.00038882,933.26,0.00027764,97.831,-0.0009391,-9044.2,0.11724
683,4.2361,4.1818,0,0.00085719,8566,0.00041725,1662.7,0.00019754,11.913,-0.00081668,-7608.6,0.11594
684,4.2361,4.3636,0,0.00072014,7196.4,0.00038318,1811.8,0.00014246,3.1152,-0.000672,-6116.5,0.11452
685,4.2361,4.5455,0,0.00059318,5927.7,0.00032726,1641.1,0.00010856,-2.1418,-0.00054796,-4934.9,0.113
686,4.2361,4.7273,0,0.00048774,4874,0.00027022,1364.6,8.8466e-05,-0.99229,-0.00044997,-4046.6,0.11142
687,4.2361,4.9091,0,0.00039969,3994.2,0.00021744,1066.2,7.5462e-05,-0.54657,-0.00037072,-3353,0.1098
688,4.2361,5.0909,0,0.00032645,3262.3,0.00017134,789.41,6.6143e-05,-1.014,-0.00030577,-2795.4,0.10817
689,4.2361,5.2727,0,0.00026468,2644.9,0.00013126,541.28,5.9009e-05,-1.5741,-0.00025128,-2333,0.10652
690,4.2361,5.4545,0,0.00021302,2128.8,9.7376e-05,329.99,5.3044e-05,-3.1033,-0.0002055,-1945.7,0.10486
691,4.2361,5.6364,0,0.00017256,1724.4,7.1467e-05,173.22,4.766e-05,-5.6606,-0.00016901,-1633.6,0.1032
692,4.2361,5.8182,0,0.0001491,1490,5.8847e-05,111.78,4.2831e-05,-8.5601,-0.00014698,-1434.7,0.10152
693,4.4208,0.18182,0,0.00020146,2013.2,7.5948e-05,111.95,6.0528e-05,-3.9079,-0.00019937,-1956.7,0.11642
694,4.4208,0.36364,0,0.00021799,2178.4,8.4665e-05,151.54,6.3952e-05,-4.087,-0.00021507,-2100.5,0.11804
695,4.4208,0.54545,0,0.00024807,2478.9,0.00010267,250.74,6.8818e-05,-3.5899,-0.00024288,-2345.6,0.11963
696,4.4208,0.72727,0,0.00028909,2888.9,0.00012753,390.64,7.5114e-05,-3.2043,-0.00028048,-2675,0.12119
697,4.4208,0.90909,0,0.00033995,3397.2,0.0001576,555.31,8.327e-05,-3.1615,-0.0003271,-3086.5,0.12271
698,4.4208,1.0909,0,0.00040041,4001.3,0.00019148,727.96,9.4099e-05,-3.6972,-0.00038303,-3588.7,0.12419
699,4.4208,1.2727,0,0.00047047,4701.5,0.00022721,883.64,0.00010904,-4.2336,-0.00044918,-4198.5,0.12562
700,4.4208,1.4545,0,0.00054978,5494,0.00026154,982.36,0.00013016,-4.7734,-0.00052645,-4938.3,0.12699
701,4.4208,1.6364,0,0.00063279,6323.6,0.00028661,943.84,0.00015904,-14.657,-0.00061151,-5804.2,0.12827
702,4.4208,1.8182,0,0.00071377,7132.8,0.00029428,707.5,0.00019875,-10.26,-0.0006992,-6757.1,0.12945
703,4.4208,2,0,0.00078745,7869.1,0.00029093,360.85,0.00023981,-23.213,-0.000781,-7693.2,0.1305
704,4.4208,2.1818,0,0.00085013,8495.5,0.00028877,89.747,0.00027483,-15.031,-0.00084881,-8457.6,0.13141
705,4.4208,2.3636,0,0.00089795,8973.3,0.00029768,11.866,0.00029512,-7.4147,-0.00089787,-8971.1,0.13218
706,4.4208,2.5455,0,0.00092308,9224.5,0.00030642,15.48,0.00030298,-10.356,-0.00092299,-9221.9,0.13277
707,4.4208,2.7273,0,0.00093332,9326.7,0.0003105,28.924,0.00030642,-1.7483,-0.00093285,-9313.1,0.13318
708,4.4208,2.9091,0,0.00093632,9356.8,0.00031222,39.26,0.00030712,0.90888,-0.00093563,-9336.6,0.13338
709,4.4208,3.0909,0,0.00093632,9356.8,0.00031222,39.259,0.00030712,0.90888,-0.00093563,-9336.6,0.13338
710,4.4208,3.2727,0,0.00093332,9326.8,0.0003105,28.924,0.00030642,-1.7484,-0.00093285,-9313.1,0.13318
711,4.4208,3.4545,0,0.00092308,9224.5,0.00030642,15.48,0.00030298,-10.356,-0.00092299,-9221.9,0.13277
712,4.4208,3.6364,0,0.00089795,8973.3,0.00029768,11.866,0.00029512,-7.4149,-0.00089787,-8971.1,0.13218
713,4.4208,3.8182,0,0.00085013,8495.5,0.00028877,89.747,0.00027483,-15.031,-0.00084882,-8457.6,0.13141
714,4.4208,4,0,0.00078745,7869.1,0.00029093,360.85,0.00023981,-23.213,-0.000781,-7693.2,0.1305
715,4.4208,4.1818,0,0.00071378,7132.8,0.00029428,707.5,0.00019875,-10.26,-0.0006992,-6757.1,0.12945
716,4.4208,4.3636,0,0.00063279,6323.6,0.00028661,943.84,0.00015904,-14.657,-0.00061151,-5804.2,0.12827
717,4.4208,4.5455,0,0.00054978,5494,0.00026154,982.36,0.00013016,-4.7734,-0.00052645,-4938.3,0.12699
718,4.4208,4.7273,0,0.00047047,4701.5,0.00022721,883.64,0.00010904,-4.2336,-0.00044918,-4198.5,0.12562
719,4.4208,4.9091,0,0.00040041,4001.3,0.00019148,727.96,9.4099e-05,-3.6972,-0.00038303,-3588.7,0.12419
720,4.4208,5.0909,0,0.00033995,3397.2,0.0001576,555.31,8.327e-05,-3.1615,-0.0003271,-3086.5,0.12271
721,4.4208,5.2727,0,0.00028909,2888.9,0.00012753,390.64,7.5114e-05,-3.2044,-0.00028048,-2675,0.12119
722,4.4208,5.4545,0,0.00024807,2478.9,0.00010267,250.74,6.8818e-05,-3.5899,-0.00024288,-2345.6,0.11963
723,4.4208,5.6364,0,0.00021799,2178.4,8.4665e-05,151.54,6.3952e-05,-4.087,-0.00021507,-2100.5,0.11804
724,4.4208,5.8182,0,0.00020146,2013.2,7.5948e-05,111.95,6.0528e-05,-3.908,-0.00019937,-1956.7,0.11642
725,4.6055,0.18182,0,0.00024826,2480.9,9.1263e-05,111.93,7.6235e-05,-0.98089,-0.00024618,-2423.5,0.13144
726,4.6055,0.36364,0,0.00026216,2619.8,9.8981e-05,149.45,7.8851e-05,-1.7935,-0.00025932,-2542.7,0.13301
727,4.6055,0.54545,0,0.00028593,2857.4,0.00011235,216.54,8.3252e-05,-2.0615,-0.00028166,-2743.8,0.13453
728,4.6055,0.72727,0,0.00031849,3182.7,0.00013027,304.3,8.948e-05,-2.1988,-0.00031224,-3020.6,0.136
729,4.6055,0.90909,0,0.00035921,3589.7,0.00015172,402.47,9.7839e-05,-2.379,-0.00035069,-3372.4,0.13741
730,4.6055,1.0909,0,0.0004073,4070.2,0.00017515,495.04,0.00010891,-2.6572,-0.00039663,-3801.1,0.13877
731,4.6055,1.2727,0,0.00046156,4612.5,0.00019834,559.06,0.00012349,-3.3282,-0.00044953,-4308.8,0.14005
732,4.6055,1.4545,0,0.00051999,5196.3,0.00021817,564.07,0.00014252,-4.2923,-0.00050813,-4893,0.14125
733,4.6055,1.6364,0,0.00057952,5791.2,0.00023087,478.16,0.00016677,-3.5035,-0.00056994,-5538.8,0.14236
734,4.6055,1.8182,0,0.00063624,6358,0.0002347,294.09,0.00019463,-6.9841,-0.00063082,-6209.1,0.14336
735,4.6055,2,0,0.00068944,6889.6,0.000235,80.868,0.00022223,-15.125,-0.00068827,-6856.2,0.14424
736,4.6055,2.1818,0,0.00073753,7370.2,0.00025018,9.8278,0.00023274,-121.19,-0.00073933,-7425,0.145
737,4.6055,2.3636,0,0.00077736,7768.2,0.00026672,1.8552,0.00023932,-203.99,-0.00078059,-7867.3,0.14563
738,4.6055,2.5455,0,0.00080622,8056.6,0.00027698,2.0297,0.00024761,-218.6,-0.00080968,-8162.6,0.14612
739,4.6055,2.7273,0,0.00082344,8228.7,0.00028207,1.753,0.00025429,-206.95,-0.00082673,-8329.3,0.14645
740,4.6055,2.9091,0,0.00083116,8305.9,0.00028407,1.4968,0.00025775,-196.24,-0.0008343,-8401.5,0.14662
741,4.6055,3.0909,0,0.00083116,8305.9,0.00028407,1.4968,0.00025775,-196.24,-0.0008343,-8401.5,0.14662
742,4.6055,3.2727,0,0.00082344,8228.7,0.00028207,1.753,0.00025429,-206.95,-0.00082673,-8329.3,0.14645
743,4.6055,3.4545,0,0.00080622,8056.6,0.00027698,2.0297,0.00024761,-218.6,-0.00080968,-8162.6,0.14612
744,4.6055,3.6364,0,0.00077736,7768.2,0.00026672,1.8552,0.00023932,-203.99,-0.00078059,-7867.3,0.14563
745,4.6055,3.8182,0,0.00073753,7370.2,0.00025018,9.8278,0.00023274,-121.19,-0.00073933,-7425,0.145
746,4.6055,4,0,0.00068944,6889.6,0.000235,80.868,0.00022223,-15.125,-0.00068827,-6856.2,0.14424
747,4.6055,4.1818,0,0.00063624,6358,0.0002347,294.09,0.00019463,-6.9841,-0.00063082,-6209.1,0.14336
748,4.6055,4.3636,0,0.00057952,5791.2,0.00023087,478.16,0.00016677,-3.5035,-0.00056994,-5538.8,0.14236
749,4.6055,4.5455,0,0.00051999,5196.3,0.00021817,564.07,0.00014252,-4.2923,-0.00050813,-4893,0.14125
750,4.6055,4.7273,0,0.00046157,4612.5,0.00019834,559.06,0.00012349,-3.3282,-0.00044953,-4308.8,0.14005
751,4.6055,4.9091,0,0.0004073,4070.2,0.00017515,495.04,0.00010891,-2.6572,-0.00039663,-3801.1,0.13877
752,4.6055,5.0909,0,0.00035921,3589.7,0.00015172,402.47,9.7839e-05,-2.379,-0.00035069,-3372.4,0.13741
753,4.6055,5.2727,0,0.00031849,3182.7,0.00013027,304.3,8.948e-05,-2.1988,-0.00031224,-3020.6,0.136
754,4.6055,5.4545,0,0.00028593,2857.4,0.00011235,216.54,8.3252e-05,-2.0615,-0.00028166,-2743.8,0.13453
755,4.6055,5.6364,0,0.00026216,2619.8,9.8981e-05,149.45,7.8851e-05,-1.7935,-0.00025932,-2542.7,0.13301
756,4.6055,5.8182,0,0.00024826,2480.9,9.1263e-05,111.93,7.6235e-05,-0.98089,-0.00024618,-2423.5,0.13144
757,4.7902,0.18182,0,0.00028835,2881.5,0.00010403,106.71,8.9811e-05,-0.10619,-0.00028638,-2826.7,0.14662
758,4.7902,0.36364,0,0.00030076,3005.6,0.00011142,146.03,9.1843e-05,-1.0389,-0.00029803,-2930.4,0.14814
759,4.7902,0.54545,0,0.00032025,3200.3,0.00012184,194.33,9.579e-05,-1.3988,-0.00031651,-3099.3,0.1496
760,4.7902,0.72727,0,0.00034623,3459.9,0.00013476,247.03,0.00010165,-1.7944,-0.00034139,-3330.6,0.15099
761,4.7902,0.90909,0,0.00037834,3780.8,0.00014957,298.07,0.00010961,-2.1564,-0.00037241,-3623.9,0.15232
762,4.7902,1.0909,0,0.00041572,4154.4,0.00016504,335.82,0.00012,-2.5996,-0.00040902,-3977.4,0.15356
763,4.7902,1.2727,0,0.00045707,4567.5,0.00017944,344.37,0.00013318,-3.1897,-0.00045027,-4387,0.15473
764,4.7902,1.4545,0,0.00050051,5001.6,0.00019073,306.21,0.0001494,-4.2978,-0.00049465,-4843.4,0.1558
765,4.7902,1.6364,0,0.00054388,5435,0.0001973,210.46,0.00016836,-7.0012,-0.00054009,-5330,0.15678
766,4.7902,1.8182,0,0.00058566,5852.5,0.00020029,73.743,0.00018812,-17.677,-0.00058465,-5823.9,0.15766
767,4.7902,2,0,0.00062499,6245.6,0.00021263,8.0193,0.00019613,-115.98,-0.00062674,-6298.7,0.15842
768,4.7902,2.1818,0,0.00066136,6609,0.00023042,2.0875,0.00019761,-244.44,-0.00066514,-6726.7,0.15907
769,4.7902,2.3636,0,0.00069313,6926.5,0.00024472,1.8228,0.00020143,-323.47,-0.00069803,-7081.6,0.15961
770,4.7902,2.5455,0,0.00071802,7175.2,0.00025446,1.5596,0.00020695,-355.42,-0.00072337,-7345.5,0.16002
771,4.7902,2.7273,0,0.00073469,7341.8,0.00026022,1.4065,0.000212,-360.87,-0.00074013,-7514.8,0.16029
772,4.7902,2.9091,0,0.0007429,7423.9,0.00026283,1.3976,0.00021489,-358.83,-0.00074833,-7596.1,0.16044
773,4.7902,3.0909,0,0.0007429,7423.9,0.00026283,1.3976,0.00021489,-358.83,-0.00074833,-7596.1,0.16044
774,4.7902,3.2727,0,0.00073469,7341.8,0.00026022,1.4065,0.000212,-360.87,-0.00074013,-7514.8,0.16029
775,4.7902,3.4545,0,0.00071802,7175.2,0.00025446,1.5596,0.00020695,-355.42,-0.00072337,-7345.5,0.16002
776,4.7902,3.6364,0,0.00069313,6926.5,0.00024472,1.8228,0.00020143,-323.47,-0.00069803,-7081.6,0.15961
777,4.7902,3.8182,0,0.00066136,6609,0.00023042,2.0875,0.00019761,-244.44,-0.00066514,-6726.7,0.15907
778,4.7902,4,0,0.00062499,6245.6,0.00021263,8.0194,0.00019613,-115.97,-0.00062674,-6298.7,0.15842
779,4.7902,4.1818,0,0.00058566,5852.5,0.00020029,73.743,0.00018812,-17.677,-0.00058465,-5823.9,0.15766
780,4.7902,4.3636,0,0.00054388,5435,0.0001973,210.46,0.00016836,-7.0012,-0.00054009,-5330,0.15678
781,4.7902,4.5455,0,0.00050051,5001.6,0.00019073,306.21,0.0001494,-4.2978,-0.00049465,-4843.4,0.15581
782,4.7902,4.7273,0,0.00045707,4567.5,0.00017944,344.37,0.00013318,-3.1897,-0.00045027,-4387,0.15473
783,4.7902,4.9091,0,0.00041572,4154.4,0.00016504,335.82,0.00012,-2.5996,-0.00040902,-3977.4,0.15356
784,4.7902,5.0909,0,0.00037834,3780.8,0.00014957,298.07,0.00010961,-2.1564,-0.00037241,-3623.9,0.15232
785,4.7902,5.2727,0,0.00034623,3459.9,0.00013476,247.03,0.00010165,-1.7944,-0.00034139,-3330.6,0.15099
786,4.7902,5.4545,0,0.00032025,3200.3,0.00012184,194.33,9.579e-05,-1.3988,-0.00031651,-3099.3,0.1496
787,4.7902,5.6364,0,0.00030076,3005.6,0.00011142,146.03,9.1843e-05,-1.0389,-0.00029803,-2930.4,0.14814
788,4.7902,5.8182,0,0.00028835,2881.5,0.00010403,106.71,8.9811e-05,-0.1062,-0.00028638,-2826.7,0.14662
789,4.9749,0.18182,0,0.00032173,3215.1,0.00011429,97.757,0.00010131,0.22517,-0.00031995,-3165,0.16199
790,4.9749,0.36364,0,0.00033286,3326.3,0.00012131,137.73,0.0001029,-0.65094,-0.00033031,-3255.6,0.16347
791,4.9749,0.54545,0,0.000349,3487.6,0.00012964,173.9,0.00010637,-0.9224,-0.00034573,-3397.9,0.16487
792,4.9749,0.72727,0,0.00036976,3695.1,0.00013897,203.7,0.00011168,-1.3784,-0.00036589,-3589.6,0.1662
793,4.9749,0.90909,0,0.00039486,3945.9,0.00014894,223.89,0.0001189,-1.823,-0.0003906,-3830,0.16745
794,4.9749,1.0909,0,0.00042359,4232.9,0.00015874,227.33,0.00012817,-2.3968,-0.00041929,-4115.8,0.16861
795,4.9749,1.2727,0,0.00045483,4545.2,0.00016725,204.81,0.00013955,-3.3148,-0.00045105,-4440.9,0.16969
796,4.9749,1.4545,0,0.00048724,4869,0.00017341,148.59,0.00015292,-5.2971,-0.00048462,-4795.5,0.17067
797,4.9749,1.6364,0,0.00051947,5191.1,0.00017726,61.857,0.0001672,-13.701,-0.00051861,-5166.6,0.17155
798,4.9749,1.8182,0,0.00055058,5502,0.00018668,9.8752,0.00017412,-84.486,-0.00055179,-5538.7,0.17233
799,4.9749,2,0,0.00058009,5796.9,0.00020189,3.6875,0.00017387,-206.83,-0.00058326,-5895.6,0.17301
800,4.9749,2.1818,0,0.00060747,6070.5,0.00021605,2.0805,0.00017381,-315.27,-0.00061217,-6220.8,0.17358
801,4.9749,2.3636,0,0.0006317,6312.7,0.00022764,1.3065,0.00017542,-390.99,-0.00063742,-6498.4,0.17405
802,4.9749,2.5455,0,0.00065137,6509.2,0.00023614,1.1153,0.00017835,-433.11,-0.00065763,-6714.4,0.1744
803,4.9749,2.7273,0,0.00066513,6646.7,0.00024157,1.1239,0.00018133,-451.46,-0.00067164,-6860.3,0.17464
804,4.9749,2.9091,0,0.00067217,6717,0.00024417,1.1272,0.00018316,-457.28,-0.00067875,-6933.4,0.17476
805,4.9749,3.0909,0,0.00067217,6717,0.00024417,1.1272,0.00018316,-457.28,-0.00067875,-6933.4,0.17476
806,4.9749,3.2727,0,0.00066513,6646.7,0.00024157,1.1239,0.00018133,-451.46,-0.00067164,-6860.3,0.17464
807,4.9749,3.4545,0,0.00065137,6509.2,0.00023614,1.1153,0.00017835,-433.11,-0.00065763,-6714.4,0.1744
808,4.9749,3.6364,0,0.0006317,6312.7,0.00022764,1.3065,0.00017542,-390.99,-0.00063742,-6498.4,0.17405
809,4.9749,3.8182,0,0.00060747,6070.5,0.00021605,2.0805,0.00017381,-315.27,-0.00061217,-6220.8,0.17358
810,4.9749,4,0,0.00058009,5796.9,0.00020189,3.6875,0.00017387,-206.83,-0.00058326,-5895.6,0.17301
811,4.9749,4.1818,0,0.00055058,5502,0.00018668,9.8752,0.00017412,-84.486,-0.00055179,-5538.7,0.17233
812,4.9749,4.3636,0,0.00051947,5191.1,0.00017726,61.857,0.0001672,-13.701,-0.00051861,-5166.6,0.17155
813,4.9749,4.5455,0,0.00048724,4869,0.00017341,148.59,0.00015292,-5.2971,-0.00048462,-4795.5,0.17067
814,4.9749,4.7273,0,0.00045483,4545.2,0.00016725,204.81,0.00013955,-3.3148,-0.00045105,-4440.9,0.16969
815,4.9749,4.9091,0,0.00042359,4232.9,0.00015874,227.33,0.00012817,-2.3968,-0.00041929,-4115.8,0.16861
816,4.9749,5.0909,0,0.00039486,3945.9,0.00014894,223.89,0.0001189,-1.823,-0.0003906,-3830,0.16745
817,4.9749,5.2727,0,0.00036976,3695.1,0.00013897,203.7,0.00011168,-1.3784,-0.00036589,-3589.6,0.1662
818,4.9749,5.4545,0,0.000349,3487.6,0.00012964,173.9,0.00010637,-0.92241,-0.00034573,-3397.9,0.16487
819,4.9749,5.6364,0,0.00033286,3326.3,0.00012131,137.73,0.0001029,-0.65094,-0.00033031,-3255.6,0.16347
820,4.9749,5.8182,0,0.00032173,3215.1,0.00011429,97.757,0.00010131,0.22516,-0.00031995,-3165,0.16199
821,5.1596,0.18182,0,0.00034882,3485.7,0.00012231,86.618,0.00011081,0.27111,-0.00034726,-3441.5,0.17757
822,5.1596,0.36364,0,0.00035863,3583.8,0.00012877,125.1,0.00011206,-0.4794,-0.00035634,-3519.8,0.17901
823,5.1596,0.54545,0,0.00037196,3717,0.00013544,152.53,0.00011506,-0.65159,-0.00036913,-3638.7,0.18037
824,5.1596,0.72727,0,0.00038848,3882.1,0.00014215,167.44,0.00011972,-1.0929,-0.00038537,-3796.2,0.18164
825,5.1596,0.90909,0,0.00040797,4076.9,0.0001487,168.49,0.00012606,-1.5935,-0.00040487,-3990.8,0.18283
826,5.1596,1.0909,0,0.00042988,4295.9,0.00015461,152,0.00013407,-2.3548,-0.00042713,-4219,0.18393
827,5.1596,1.2727,0,0.0004534,4530.9,0.00015929,113.83,0.00014362,-3.8986,-0.00045142,-4474.8,0.18494
828,5.1596,1.4545,0,0.0004776,4772.7,0.0001626,54.215,0.00015411,-9.5393,-0.00047681,-4750,0.18585
829,5.1596,1.6364,0,0.00050161,5012.7,0.00016909,10.217,0.00016043,-54.897,-0.00050234,-5034.7,0.18666
830,5.1596,1.8182,0,0.00052485,5244.9,0.00018105,3.628,0.00016013,-153.6,-0.00052722,-5318.1,0.18737
831,5.1596,2,0,0.00054691,5465.3,0.00019333,1.922,0.00015857,-259.28,-0.00055082,-5589.3,0.18799
832,5.1596,2.1818,0,0.00056739,5670,0.00020455,1.2126,0.0001574,-353.04,-0.00057254,-5837.6,0.1885
833,5.1596,2.3636,0,0.00058557,5851.7,0.00021395,0.94791,0.00015735,-424.32,-0.00059162,-6051.8,0.18892
834,5.1596,2.5455,0,0.00060048,6000.6,0.00022109,0.8568,0.00015831,-470.88,-0.00060708,-6221.7,0.18923
835,5.1596,2.7273,0,0.00061106,6106.4,0.00022582,0.84272,0.0001596,-496.69,-0.00061798,-6339.1,0.18944
836,5.1596,2.9091,0,0.00061656,6161.3,0.00022816,0.85422,0.00016048,-507.64,-0.0006236,-6399,0.18955
837,5.1596,3.0909,0,0.00061656,6161.3,0.00022816,0.85422,0.00016048,-507.64,-0.0006236,-6399,0.18955
838,5.1596,3.2727,0,0.00061106,6106.4,0.00022582,0.84272,0.0001596,-496.69,-0.00061798,-6339.1,0.18944
839,5.1596,3.4545,0,0.00060048,6000.6,0.00022109,0.8568,0.00015831,-470.88,-0.00060708,-6221.7,0.18923
840,5.1596,3.6364,0,0.00058558,5851.7,0.00021395,0.94792,0.00015735,-424.32,-0.00059162,-6051.8,0.18892
841,5.1596,3.8182,0,0.00056739,5670,0.00020455,1.2126,0.0001574,-353.04,-0.00057254,-5837.6,0.1885
842,5.1596,4,0,0.00054691,5465.3,0.00019333,1.922,0.00015857,-259.28,-0.00055082,-5589.3,0.18799
843,5.1596,4.1818,0,0.00052485,5244.9,0.00018105,3.628,0.00016013,-153.6,-0.00052722,-5318.1,0.18737
844,5.1596,4.3636,0,0.00050161,5012.7,0.0001691,10.217,0.00016043,-54.897,-0.00050234,-5034.7,0.18666
845,5.1596,4.5455,0,0.0004776,4772.7,0.0001626,54.215,0.00015411,-9.5393,-0.00047681,-4750,0.18585
846,5.1596,4.7273,0,0.0004534,4530.9,0.00015929,113.83,0.00014362,-3.8986,-0.00045142,-4474.8,0.18494
847,5.1596,4.9091,0,0.00042988,4295.9,0.00015461,152,0.00013407,-2.3548,-0.00042713,-4219,0.18393
848,5.1596,5.0909,0,0.00040797,4076.9,0.0001487,168.49,0.00012606,-1.5935,-0.00040487,-3990.8,0.18283
849,5.1596,5.2727,0,0.00038848,3882.1,0.00014215,167.44,0.00011972,-1.0929,-0.00038537,-3796.2,0.18164
850,5.1596,5.4545,0,0.00037196,3717,0.00013544,152.53,0.00011506,-0.65159,-0.00036913,-3638.7,0.18037
851,5.1596,5.6364,0,0.00035863,3583.8,0.00012877,125.1,0.00011206,-0.4794,-0.00035634,-3519.8,0.17901
852,5.1596,5.8182,0,0.00034882,3485.7,0.00012231,86.618,0.00011081,0.27111,-0.00034726,-3441.5,0.17757
853,5.3443,0.18182,0,0.00037023,3699.8,0.00012838,74.651,0.00011848,0.23262,-0.0003689,-3661.7,0.19339
854,5.3443,0.36364,0,0.00037868,3784.2,0.00013412,109.77,0.00011946,-0.377,-0.0003767,-3728.3,0.19479
855,5.3443,0.54545,0,0.00038958,3893.1,0.00013942,130.36,0.00012201,-0.47486,-0.00038721,-3826.5,0.19611
856,5.3443,0.72727,0,0.00040265,4023.7,0.00014419,135.59,0.00012603,-0.88126,-0.00040018,-3954.6,0.19734
857,5.3443,0.90909,0,0.00041769,4174.1,0.00014833,125.29,0.00013147,-1.4221,-0.00041544,-4110.7,0.19848
858,5.3443,1.0909,0,0.00043432,4340.2,0.00015162,98.218,0.00013823,-2.4459,-0.0004326,-4291.4,0.19953
859,5.3443,1.2727,0,0.00045195,4516.4,0.00015394,54.289,0.00014598,-5.5253,-0.00045109,-4491.7,0.20048
860,5.3443,1.4545,0,0.00046997,4696.5,0.00015754,11.967,0.00015204,-29.353,-0.00047025,-4705,0.20134
861,5.3443,1.6364,0,0.00048783,4875,0.0001664,3.7098,0.00015212,-103.59,-0.00048944,-4924,0.2021
862,5.3443,1.8182,0,0.00050511,5047.7,0.00017638,2.0065,0.00015027,-194.16,-0.0005081,-5140.9,0.20277
863,5.3443,2,0,0.00052151,5211.5,0.00018618,1.2926,0.00014794,-286.01,-0.00052576,-5347.9,0.20334
864,5.3443,2.1818,0,0.00053667,5363,0.00019513,0.91438,0.00014593,-368.71,-0.00054197,-5537.4,0.20381
865,5.3443,2.3636,0,0.0005501,5497.2,0.00020271,0.71401,0.00014472,-435.05,-0.00055619,-5701.4,0.20419
866,5.3443,2.5455,0,0.00056111,5607.2,0.00020859,0.63588,0.00014432,-482.26,-0.00056774,-5832.4,0.20447
867,5.3443,2.7273,0,0.00056896,5685.7,0.00021257,0.62111,0.00014443,-511.35,-0.00057592,-5923.7,0.20466
868,5.3443,2.9091,0,0.00057305,5726.6,0.00021456,0.62431,0.00014462,-524.91,-0.00058016,-5970.6,0.20476
869,5.3443,3.0909,0,0.00057305,5726.6,0.00021456,0.62431,0.00014462,-524.91,-0.00058016,-5970.6,0.20476
870,5.3443,3.2727,0,0.00056896,5685.7,0.00021257,0.62111,0.00014443,-511.35,-0.00057592,-5923.7,0.20466
871,5.3443,3.4545,0,0.00056111,5607.2,0.00020859,0.63588,0.00014432,-482.26,-0.00056774,-5832.4,0.20447
872,5.3443,3.6364,0,0.0005501,5497.2,0.00020271,0.71401,0.00014472,-435.05,-0.00055619,-5701.4,0.20419
873,5.3443,3.8182,0,0.00053667,5363,0.00019513,0.91439,0.00014593,-368.71,-0.00054197,-5537.4,0.20381
874,5.3443,4,0,0.00052151,5211.5,0.00018618,1.2926,0.00014794,-286.01,-0.00052576,-5347.9,0.20334
875,5.3443,4.1818,0,0.00050511,5047.7,0.00017638,2.0065,0.00015027,-194.16,-0.0005081,-5140.9,0.20277
876,5.3443,4.3636,0,0.00048783,4875,0.0001664,3.7098,0.00015212,-103.59,-0.00048944,-4924,0.2021
877,5.3443,4.5455,0,0.00046997,4696.5,0.00015754,11.967,0.00015204,-29.352,-0.00047025,-4705,0.20134
878,5.3443,4.7273,0,0.00045195,4516.4,0.00015394,54.289,0.00014598,-5.5253,-0.00045109,-4491.7,0.20048
879,5.3443,4.9091,0,0.00043432,4340.2,0.00015162,98.218,0.00013823,-2.4459,-0.0004326,-4291.4,0.19953
880,5.3443,5.0909,0,0.00041769,4174.1,0.00014833,125.29,0.00013147,-1.4221,-0.00041544,-4110.7,0.19848
881,5.3443,5.2727,0,0.00040265,4023.7,0.00014419,135.59,0.00012603,-0.88126,-0.00040018,-3954.6,0.19734
882,5.3443,5.4545,0,0.00038958,3893.1,0.00013942,130.36,0.00012201,-0.47486,-0.00038721,-3826.5,0.19611
883,5.3443,5.6364,0,0.00037868,3784.2,0.00013412,109.77,0.00011946,-0.377,-0.0003767,-3728.3,0.19479
884,5.3443,5.8182,0,0.00037023,3699.8,0.00012838,74.651,0.00011848,0.23262,-0.0003689,-3661.7,0.19339
885,5.5291,0.18182,0,0.0003867,3864.4,0.00013284,62.824,0.0001245,0.1726,-0.00038559,-3832.5,0.20945
886,5.5291,0.36364,0,0.00039381,3935.4,0.00013775,93.34,0.00012528,-0.30736,-0.00039215,-3888.1,0.21083
887,5.5291,0.54545,0,0.00040262,4023.4,0.00014189,108.28,0.00012743,-0.36103,-0.00040067,-3968.3,0.21211
888,5.5291,0.72727,0,0.00041286,4125.7,0.0001452,107.16,0.00013084,-0.73493,-0.00041094,-4071.5,0.21331
889,5.5291,0.90909,0,0.00042439,4241,0.00014765,90.522,0.00013543,-1.3258,-0.0004228,-4195.6,0.21441
890,5.5291,1.0909,0,0.00043692,4366.2,0.00014922,58.783,0.00014103,-2.7948,-0.00043594,-4337.9,0.21542
891,5.5291,1.2727,0,0.00045007,4497.6,0.00015061,18.222,0.00014667,-11.365,-0.00044994,-4494.1,0.21634
892,5.5291,1.4545,0,0.00046342,4631,0.00015627,3.9926,0.00014762,-61.008,-0.00046436,-4659.2,0.21715
893,5.5291,1.6364,0,0.00047662,4762.9,0.00016406,1.987,0.0001459,-134.49,-0.00047872,-4827.7,0.21788
894,5.5291,1.8182,0,0.00048936,4890.3,0.00017215,1.2663,0.0001433,-215.55,-0.00049265,-4993.8,0.2185
895,5.5291,2,0,0.00050142,5010.7,0.00018001,0.88234,0.00014044,-296.42,-0.00050578,-5151.9,0.21904
896,5.5291,2.1818,0,0.00051252,5121.6,0.00018718,0.65633,0.00013785,-370.04,-0.00051779,-5296.2,0.21948
897,5.5291,2.3636,0,0.00052229,5219.3,0.00019331,0.53145,0.00013587,-431.04,-0.00052827,-5421.1,0.21984
898,5.5291,2.5455,0,0.00053027,5299,0.0001981,0.47215,0.00013461,-476.6,-0.00053675,-5520.9,0.2201
899,5.5291,2.7273,0,0.00053595,5355.8,0.00020138,0.45164,0.00013395,-506.22,-0.00054275,-5590.6,0.22028
900,5.5291,2.9091,0,0.00053891,5385.3,0.00020304,0.44796,0.00013369,-520.64,-0.00054586,-5626.5,0.22037
901,5.5291,3.0909,0,0.00053891,5385.3,0.00020304,0.44796,0.00013369,-520.64,-0.00054586,-5626.5,0.22037
902,5.5291,3.2727,0,0.00053595,5355.8,0.00020138,0.45164,0.00013395,-506.22,-0.00054275,-5590.6,0.22028
903,5.5291,3.4545,0,0.00053027,5299,0.0001981,0.47215,0.00013461,-476.6,-0.00053675,-5520.9,0.2201
904,5.5291,3.6364,0,0.00052229,5219.3,0.00019331,0.53145,0.00013587,-431.04,-0.00052827,-5421.1,0.21984
905,5.5291,3.8182,0,0.00051252,5121.6,0.00018718,0.65633,0.00013785,-370.04,-0.00051779,-5296.2,0.21948
906,5.5291,4,0,0.00050142,5010.7,0.00018001,0.88234,0.00014044,-296.42,-0.00050578,-5151.9,0.21904
907,5.5291,4.1818,0,0.00048936,4890.3,0.00017215,1.2663,0.0001433,-215.55,-0.00049265,-4993.8,0.2185
908,5.5291,4.3636,0,0.00047662,4762.9,0.00016406,1.987,0.0001459,-134.49,-0.00047872,-4827.7,0.21788
909,5.5291,4.5455,0,0.00046342,4631,0.00015627,3.9926,0.00014762,-61.008,-0.00046436,-4659.2,0.21715
910,5.5291,4.7273,0,0.00045007,4497.6,0.00015061,18.222,0.00014667,-11.365,-0.00044994,-4494.1,0.21634
911,5.5291,4.9091,0,0.00043692,4366.2,0.00014922,58.783,0.00014103,-2.7948,-0.00043594,-4337.9,0.21542
912,5.5291,5.0909,0,0.00042439,4241,0.00014765,90.522,0.00013543,-1.3258,-0.0004228,-4195.6,0.21441
913,5.5291,5.2727,0,0.00041286,4125.7,0.0001452,107.16,0.00013084,-0.73493,-0.00041094,-4071.5,0.21331
914,5.5291,5.4545,0,0.00040262,4023.4,0.00014189,108.28,0.00012743,-0.36104,-0.00040067,-3968.3,0.21211
915,5.5291,5.6364,0,0.00039381,3935.4,0.00013775,93.34,0.00012528,-0.30736,-0.00039215,-3888.1,0.21083
916,5.5291,5.8182,0,0.0003867,3864.4,0.00013284,62.824,0.0001245,0.1726,-0.00038559,-3832.5,0.20945
917,5.7138,0.18182,0,0.00039897,3987,0.00013597,51.755,0.0001291,0.11961,-0.00039807,-3960.8,0.22578
918,5.7138,0.36364,0,0.00040482,4045.4,0.00014002,77.06,0.00012973,-0.25235,-0.00040345,-4006.4,0.22713
919,5.7138,0.54545,0,0.00041182,4115.4,0.00014318,87.211,0.00013153,-0.28643,-0.00041027,-4071.2,0.22839
920,5.7138,0.72727,0,0.00041977,4194.8,0.00014538,81.89,0.00013439,-0.63933,-0.00041832,-4153.5,0.22955
921,5.7138,0.90909,0,0.00042853,4282.3,0.00014665,62.025,0.00013822,-1.3186,-0.00042746,-4251.6,0.23063
922,5.7138,1.0909,0,0.0004379,4376,0.00014717,29.64,0.00014271,-3.8399,-0.00043745,-4363,0.23161
923,5.7138,1.2727,0,0.00044762,4473.1,0.00014952,5.2166,0.00014513,-27.758,-0.000448,-4484.3,0.23249
924,5.7138,1.4545,0,0.00045743,4571.1,0.00015529,2.023,0.00014377,-84.55,-0.00045877,-4611.8,0.23328
925,5.7138,1.6364,0,0.00046708,4667.5,0.00016172,1.2362,0.00014128,-152.34,-0.00046946,-4741.2,0.23397
926,5.7138,1.8182,0,0.00047636,4760.3,0.00016827,0.86216,0.00013824,-224.78,-0.00047977,-4868.3,0.23458
927,5.7138,2,0,0.0004851,4847.7,0.0001746,0.63557,0.00013506,-296.45,-0.00048945,-4988.8,0.23509
928,5.7138,2.1818,0,0.0004931,4927.6,0.00018037,0.48876,0.00013211,-362.14,-0.00049825,-5098.4,0.23551
929,5.7138,2.3636,0,0.0005001,4997.6,0.00018532,0.39766,0.00012968,-417.63,-0.00050589,-5193,0.23585
930,5.7138,2.5455,0,0.00050578,5054.3,0.00018921,0.34807,0.00012791,-460.24,-0.00051203,-5268.5,0.2361
931,5.7138,2.7273,0,0.00050981,5094.6,0.00019189,0.32578,0.0001268,-488.76,-0.00051635,-5321.1,0.23627
932,5.7138,2.9091,0,0.0005119,5115.5,0.00019325,0.31829,0.00012627,-502.97,-0.00051859,-5348.2,0.23635
933,5.7138,3.0909,0,0.0005119,5115.5,0.00019325,0.31829,0.00012627,-502.97,-0.00051859,-5348.2,0.23635
934,5.7138,3.2727,0,0.00050981,5094.6,0.00019189,0.32578,0.0001268,-488.76,-0.00051635,-5321.1,0.23627
935,5.7138,3.4545,0,0.00050578,5054.3,0.00018921,0.34806,0.00012791,-460.24,-0.00051203,-5268.5,0.2361
936,5.7138,3.6364,0,0.0005001,4997.6,0.00018532,0.39766,0.00012968,-417.63,-0.00050589,-5193.1,0.23585
937,5.7138,3.8182,0,0.0004931,4927.6,0.00018037,0.48876,0.00013211,-362.14,-0.00049825,-5098.4,0.23551
938,5.7138,4,0,0.0004851,4847.7,0.0001746,0.63557,0.00013506,-296.45,-0.00048945,-4988.8,0.23509
939,5.7138,4.1818,0,0.00047636,4760.3,0.00016827,0.86216,0.00013824,-224.78,-0.00047977,-4868.3,0.23458
940,5.7138,4.3636,0,0.00046708,4667.5,0.00016172,1.2362,0.00014128,-152.34,-0.00046946,-4741.2,0.23397
941,5.7138,4.5455,0,0.00045743,4571.1,0.00015529,2.023,0.00014377,-84.55,-0.00045877,-4611.8,0.23328
942,5.7138,4.7273,0,0.00044762,4473.1,0.00014952,5.2166,0.00014513,-27.758,-0.000448,-4484.3,0.23249
943,5.7138,4.9091,0,0.0004379,4376,0.00014717,29.64,0.00014271,-3.8398,-0.00043745,-4363,0.23161
944,5.7138,5.0909,0,0.00042853,4282.3,0.00014665,62.026,0.00013822,-1.3186,-0.00042746,-4251.6,0.23063
945,5.7138,5.2727,0,0.00041977,4194.8,0.00014538,81.891,0.00013439,-0.63933,-0.00041832,-4153.5,0.22955
946,5.7138,5.4545,0,0.00041182,4115.4,0.00014318,87.211,0.00013153,-0.28643,-0.00041027,-4071.2,0.22839
947,5.7138,5.6364,0,0.00040482,4045.4,0.00014002,77.06,0.00012973,-0.25236,-0.00040345,-4006.4,0.22713
948,5.7138,5.8182,0,0.00039897,3987,0.00013597,51.755,0.0001291,0.11961,-0.00039807,-3960.8,0.22578
949,5.8985,0.18182,0,0.00040773,4074.5,0.00013803,41.783,0.00013248,0.080246,-0.000407,-4053.4,0.24237
950,5.8985,0.36364,0,0.00041242,4121.3,0.00014126,61.759,0.00013301,-0.20699,-0.00041134,-4090.2,0.2437
951,5.8985,0.54545,0,0.00041791,4176.2,0.00014357,67.808,0.00013452,-0.2398,-0.00041671,-4142,0.24494
952,5.8985,0.72727,0,0.00042399,4237,0.00014492,59.684,0.0001369,-0.59032,-0.00042295,-4207.1,0.24608
953,5.8985,0.90909,0,0.00043057,4302.7,0.00014538,38.57,0.00014005,-1.4628,-0.00042992,-4284,0.24713
954,5.8985,1.0909,0,0.0004375,4371.9,0.00014561,10.242,0.00014322,-7.7792,-0.00043745,-4370.7,0.24809
955,5.8985,1.2727,0,0.0004446,4443,0.00014917,2.2324,0.00014278,-45.761,-0.00044532,-4464.5,0.24895
956,5.8985,1.4545,0,0.00045171,4514,0.0001541,1.209,0.00014061,-100.1,-0.00045331,-4562.6,0.24971
957,5.8985,1.6364,0,0.00045866,4583.5,0.00015936,0.8256,0.00013774,-161.65,-0.00046118,-4661.7,0.25039
958,5.8985,1.8182,0,0.00046531,4649.9,0.00016468,0.60867,0.00013448,-226.32,-0.00046874,-4758.6,0.25097
959,5.8985,2,0,0.00047154,4712.2,0.00016979,0.46378,0.00013114,-289.94,-0.00047579,-4850.2,0.25147
960,5.8985,2.1818,0,0.0004772,4768.7,0.00017445,0.36328,0.00012802,-348.48,-0.00048216,-4933.2,0.25188
961,5.8985,2.3636,0,0.00048212,4817.8,0.00017845,0.2963,0.00012538,-398.49,-0.00048765,-5004.5,0.2522
962,5.8985,2.5455,0,0.00048608,4857.4,0.00018161,0.25546,0.00012335,-437.51,-0.00049203,-5061.2,0.25245
963,5.8985,2.7273,0,0.00048887,4885.4,0.00018379,0.23374,0.00012199,-464.06,-0.00049511,-5100.7,0.25261
964,5.8985,2.9091,0,0.00049032,4899.9,0.0001849,0.22482,0.00012132,-477.45,-0.00049669,-5121,0.25269
965,5.8985,3.0909,0,0.00049032,4899.9,0.0001849,0.22482,0.00012132,-477.45,-0.00049669,-5121,0.25269
966,5.8985,3.2727,0,0.00048887,4885.4,0.00018379,0.23374,0.00012199,-464.06,-0.00049511,-5100.7,0.25261
967,5.8985,3.4545,0,0.00048608,4857.4,0.00018161,0.25546,0.00012335,-437.51,-0.00049203,-5061.2,0.25245
968,5.8985,3.6364,0,0.00048212,4817.8,0.00017845,0.2963,0.00012538,-398.49,-0.00048765,-5004.5,0.2522
969,5.8985,3.8182,0,0.0004772,4768.7,0.00017445,0.36328,0.00012802,-348.48,-0.00048216,-4933.2,0.25188
970,5.8985,4,0,0.00047154,4712.2,0.00016979,0.46378,0.00013114,-289.94,-0.00047579,-4850.2,0.25147
971,5.8985,4.1818,0,0.00046531,4649.9,0.00016468,0.60867,0.00013448,-226.32,-0.00046874,-4758.6,0.25097
972,5.8985,4.3636,0,0.00045866,4583.5,0.00015936,0.8256,0.00013774,-161.65,-0.00046118,-4661.7,0.25039
973,5.8985,4.5455,0,0.00045171,4514,0.0001541,1.209,0.00014061,-100.1,-0.00045331,-4562.6,0.24971
974,5.8985,4.7273,0,0.0004446,4443,0.00014917,2.2324,0.00014278,-45.761,-0.00044532,-4464.5,0.24895
975,5.8985,4.9091,0,0.0004375,4372,0.00014561,10.242,0.00014322,-7.7791,-0.00043745,-4370.7,0.24809
976,5.8985,5.0909,0,0.00043057,4302.7,0.00014538,38.57,0.00014005,-1.4628,-0.00042992,-4284,0.24713
977,5.8985,5.2727,0,0.00042399,4237,0.00014492,59.684,0.0001369,-0.59032,-0.00042295,-4207.1,0.24608
978,5.8985,5.4545,0,0.00041791,4176.2,0.00014357,67.808,0.00013452,-0.2398,-0.00041671,-4142,0.24494
979,5.8985,5.6364,0,0.00041242,4121.3,0.00014126,61.759,0.00013301,-0.20699,-0.00041134,-4090.2,0.2437
980,5.8985,5.8182,0,0.00040773,4074.5,0.00013803,41.783,0.00013248,0.080244,-0.000407,-4053.4,0.24237
981,6.0832,0.18182,0,0.00041359,4133,0.00013924,33.053,0.00013485,0.053844,-0.00041302,-4116.4,0.25924
982,6.0832,0.36364,0,0.00041726,4169.7,0.0001417,47.925,0.0001353,-0.16958,-0.00041643,-4145.6,0.26055
983,6.0832,0.54545,0,0.00042148,4211.9,0.00014331,50.475,0.00013656,-0.2151,-0.0004206,-4186.5,0.26177
984,6.0832,0.72727,0,0.00042606,4257.6,0.00014401,40.491,0.00013854,-0.59474,-0.00042537,-4237.6,0.2629
985,6.0832,0.90909,0,0.00043092,4306.3,0.00014394,19.59,0.00014107,-2.0122,-0.00043062,-4297.4,0.26393
986,6.0832,1.0909,0,0.00043597,4356.7,0.00014505,3.0055,0.00014215,-18.733,-0.00043623,-4364.5,0.26487
987,6.0832,1.2727,0,0.00044108,4407.7,0.00014861,1.2135,0.00014049,-59.819,-0.00044204,-4436.7,0.26571
988,6.0832,1.4545,0,0.00044613,4458.3,0.0001527,0.78365,0.00013797,-109.91,-0.00044789,-4511.8,0.26646
989,6.0832,1.6364,0,0.00045104,4507.3,0.00015701,0.57462,0.00013492,-165.34,-0.00045361,-4587.4,0.26712
990,6.0832,1.8182,0,0.0004557,4553.8,0.00016132,0.44018,0.00013159,-222.95,-0.00045907,-4661,0.26769
991,6.0832,2,0,0.00046003,4597.1,0.00016547,0.34315,0.00012824,-279.39,-0.00046414,-4730.2,0.26817
992,6.0832,2.1818,0,0.00046393,4636.1,0.00016924,0.27149,0.0001251,-331.39,-0.00046867,-4792.8,0.26857
993,6.0832,2.3636,0,0.0004673,4669.7,0.00017248,0.22042,0.00012239,-376.11,-0.00047255,-4846.3,0.26889
994,6.0832,2.5455,0,0.00046999,4696.7,0.00017504,0.18669,0.00012027,-411.31,-0.00047563,-4888.7,0.26913
995,6.0832,2.7273,0,0.00047188,4715.6,0.00017681,0.16695,0.00011883,-435.49,-0.00047778,-4918.1,0.26928
996,6.0832,2.9091,0,0.00047286,4725.3,0.00017771,0.15804,0.00011809,-447.77,-0.00047888,-4933.2,0.26936
997,6.0832,3.0909,0,0.00047286,4725.3,0.00017771,0.15804,0.00011809,-447.77,-0.00047888,-4933.2,0.26936
998,6.0832,3.2727,0,0.00047188,4715.6,0.00017681,0.16695,0.00011883,-435.49,-0.00047778,-4918.1,0.26928
999,6.0832,3.4545,0,0.00046999,4696.7,0.00017504,0.18669,0.00012027,-411.31,-0.00047563,-4888.7,0.26913
1000,6.0832,3.6364,0,0.0004673,4669.7,0.00017248,0.22042,0.00012239,-376.11,-0.00047255,-4846.3,0.26889
1001,6.0832,3.8182,0,0.00046393,4636.1,0.00016924,0.27149,0.0001251,-331.39,-0.00046867,-4792.8,0.26857
1002,6.0832,4,0,0.00046003,4597.1,0.00016547,0.34315,0.00012824,-279.38,-0.00046414,-4730.2,0.26817
1003,6.0832,4.1818,0,0.0004557,4553.8,0.00016132,0.44018,0.00013159,-222.95,-0.00045907,-4661,0.26769
1004,6.0832,4.3636,0,0.00045104,4507.3,0.00015701,0.57462,0.00013492,-165.34,-0.00045361,-4587.4,0.26712
1005,6.0832,4.5455,0,0.00044613,4458.3,0.0001527,0.78365,0.00013797,-109.91,-0.00044789,-4511.8,0.26646
1006,6.0832,4.7273,0,0.00044108,4407.7,0.00014861,1.2135,0.00014049,-59.819,-0.00044204,-4436.7,0.26571
1007,6.0832,4.9091,0,0.00043597,4356.7,0.00014505,3.0055,0.00014215,-18.733,-0.00043623,-4364.5,0.26487
1008,6.0832,5.0909,0,0.00043092,4306.3,0.00014394,19.59,0.00014107,-2.0122,-0.00043062,-4297.4,0.26393
1009,6.0832,5.2727,0,0.00042606,4257.6,0.00014401,40.491,0.00013854,-0.59474,-0.00042537,-4237.6,0.2629
1010,6.0832,5.4545,0,0.00042148,4211.9,0.00014331,50.475,0.00013656,-0.2151,-0.0004206,-4186.5,0.26177
1011,6.0832,5.6364,0,0.00041726,4169.7,0.0001417,47.925,0.0001353,-0.16958,-0.00041643,-4145.6,0.26055
1012,6.0832,5.8182,0,0.00041359,4133,0.00013924,33.053,0.00013485,0.053842,-0.00041302,-4116.4,0.25924
1013,6.2679,0.18182,0,0.00041709,4168.1,0.00013977,25.585,0.00013637,0.037014,-0.00041665,-4155.2,0.2764
1014,6.2679,0.36364,0,0.00041988,4195.9,0.00014156,35.79,0.00013677,-0.14013,-0.00041927,-4178,0.27769
1015,6.2679,0.54545,0,0.00042305,4227.6,0.00014257,35.394,0.00013783,-0.21164,-0.00042244,-4209.9,0.2789
1016,6.2679,0.72727,0,0.00042643,4261.3,0.00014278,24.242,0.00013946,-0.69208,-0.00042602,-4249.5,0.28
1017,6.2679,0.90909,0,0.00042995,4296.5,0.00014262,6.1136,0.0001412,-4.5662,-0.00042992,-4295.7,0.28102
1018,6.2679,1.0909,0,0.00043354,4332.4,0.00014472,1.2885,0.0001404,-31.162,-0.00043404,-4347.3,0.28194
1019,6.2679,1.2727,0,0.00043713,4368.2,0.00014777,0.74062,0.00013834,-70.084,-0.00043826,-4402.5,0.28277
1020,6.2679,1.4545,0,0.00044063,4403.2,0.00015114,0.53258,0.00013568,-115.61,-0.00044247,-4459.6,0.28351
1021,6.2679,1.6364,0,0.00044399,4436.8,0.00015466,0.41033,0.00013261,-165.26,-0.00044656,-4516.9,0.28416
1022,6.2679,1.8182,0,0.00044715,4468.4,0.00015818,0.32297,0.00012933,-216.45,-0.00045043,-4572.5,0.28472
1023,6.2679,2,0,0.00045006,4497.5,0.00016154,0.25549,0.00012605,-266.41,-0.00045399,-4624.6,0.2852
1024,6.2679,2.1818,0,0.00045266,4523.5,0.0001646,0.20294,0.00012299,-312.45,-0.00045716,-4671.5,0.28559
1025,6.2679,2.3636,0,0.00045488,4545.7,0.00016723,0.16349,0.00012034,-352.17,-0.00045984,-4711.4,0.2859
1026,6.2679,2.5455,0,0.00045665,4563.3,0.00016931,0.13586,0.00011824,-383.59,-0.00046196,-4742.9,0.28613
1027,6.2679,2.7273,0,0.00045788,4575.7,0.00017074,0.11867,0.00011679,-405.29,-0.00046343,-4764.8,0.28629
1028,6.2679,2.9091,0,0.00045852,4582,0.00017147,0.11051,0.00011605,-416.35,-0.00046418,-4775.9,0.28636
1029,6.2679,3.0909,0,0.00045852,4582,0.00017147,0.11051,0.00011605,-416.35,-0.00046418,-4775.9,0.28636
1030,6.2679,3.2727,0,0.00045788,4575.7,0.00017074,0.11867,0.00011679,-405.29,-0.00046343,-4764.8,0.28629
1031,6.2679,3.4545,0,0.00045665,4563.3,0.00016931,0.13586,0.00011824,-383.59,-0.00046196,-4742.9,0.28613
1032,6.2679,3.6364,0,0.00045488,4545.7,0.00016723,0.16349,0.00012034,-352.17,-0.00045984,-4711.4,0.2859
1033,6.2679,3.8182,0,0.00045266,4523.5,0.0001646,0.20294,0.00012299,-312.45,-0.00045716,-4671.5,0.28559
1034,6.2679,4,0,0.00045006,4497.5,0.00016154,0.25549,0.00012605,-266.41,-0.00045399,-4624.6,0.2852
1035,6.2679,4.1818,0,0.00044715,4468.4,0.00015818,0.32297,0.00012933,-216.45,-0.00045043,-4572.5,0.28472
1036,6.2679,4.3636,0,0.00044399,4436.8,0.00015466,0.41033,0.00013261,-165.26,-0.00044656,-4516.9,0.28416
1037,6.2679,4.5455,0,0.00044063,4403.3,0.00015114,0.53258,0.00013568,-115.61,-0.00044247,-4459.6,0.28351
1038,6.2679,4.7273,0,0.00043713,4368.2,0.00014777,0.74062,0.00013834,-70.084,-0.00043826,-4402.5,0.28277
1039,6.2679,4.9091,0,0.00043354,4332.4,0.00014472,1.2885,0.0001404,-31.162,-0.00043404,-4347.3,0.28194
1040,6.2679,5.0909,0,0.00042995,4296.5,0.00014262,6.1137,0.0001412,-4.5662,-0.00042992,-4295.7,0.28102
1041,6.2679,5.2727,0,0.00042643,4261.3,0.00014278,24.242,0.00013946,-0.69207,-0.00042602,-4249.5,0.28
1042,6.2679,5.4545,0,0.00042305,4227.6,0.00014257,35.394,0.00013783,-0.21164,-0.00042244,-4209.9,0.2789
1043,6.2679,5.6364,0,0.00041988,4195.9,0.00014156,35.79,0.00013677,-0.14014,-0.00041927,-4178,0.27769
1044,6.2679,5.8182,0,0.00041709,4168.1,0.00013977,25.585,0.00013637,0.037012,-0.00041665,-4155.2,0.2764
1045,6.4526,0.18182,0,0.00041869,4184,0.00013978,19.321,0.00013721,0.026002,-0.00041836,-4174.3,0.29383
1046,6.4526,0.36364,0,0.00042074,4204.5,0.00014097,25.412,0.00013757,-0.11965,-0.0004203,-4191.8,0.29511
1047,6.4526,0.54545,0,0.00042304,4227.5,0.0001415,22.586,0.00013846,-0.23763,-0.00042266,-4216.3,0.2963
1048,6.4526,0.72727,0,0.00042546,4251.7,0.00014137,10.979,0.00013977,-1.0883,-0.00042529,-4246.7,0.2974
1049,6.4526,0.90909,0,0.00042794,4276.4,0.00014199,1.5457,0.00014006,-12.973,-0.00042813,-4282.1,0.2984
1050,6.4526,1.0909,0,0.00043041,4301.1,0.00014414,0.69756,0.00013853,-41.43,-0.00043109,-4321.4,0.29931
1051,6.4526,1.2727,0,0.00043284,4325.4,0.00014669,0.48339,0.00013634,-77.253,-0.00043409,-4363.2,0.30013
1052,6.4526,1.4545,0,0.00043517,4348.7,0.00014946,0.37352,0.00013366,-118.31,-0.00043705,-4406.4,0.30086
1053,6.4526,1.6364,0,0.00043737,4370.7,0.00015234,0.2983,0.00013065,-162.62,-0.0004399,-4449.6,0.3015
1054,6.4526,1.8182,0,0.00043941,4391.1,0.00015521,0.23943,0.00012749,-207.98,-0.00044258,-4491.3,0.30206
1055,6.4526,2,0,0.00044127,4409.7,0.00015794,0.19115,0.00012437,-252.09,-0.00044501,-4530.2,0.30253
1056,6.4526,2.1818,0,0.00044291,4426.1,0.00016043,0.15178,0.00012145,-292.72,-0.00044716,-4565.1,0.30292
1057,6.4526,2.3636,0,0.0004443,4439.9,0.00016257,0.12094,0.00011892,-327.8,-0.00044896,-4594.7,0.30323
1058,6.4526,2.5455,0,0.00044539,4450.9,0.00016425,0.098422,0.00011691,-355.63,-0.00045037,-4618,0.30346
1059,6.4526,2.7273,0,0.00044616,4458.5,0.00016542,0.083842,0.00011551,-374.89,-0.00045135,-4634,0.30361
1060,6.4526,2.9091,0,0.00044655,4462.4,0.00016601,0.07672,0.0001148,-384.74,-0.00045184,-4642.2,0.30368
1061,6.4526,3.0909,0,0.00044655,4462.4,0.00016601,0.07672,0.0001148,-384.74,-0.00045184,-4642.2,0.30368
1062,6.4526,3.2727,0,0.00044616,4458.5,0.00016542,0.083842,0.00011551,-374.89,-0.00045135,-4634,0.30361
1063,6.4526,3.4545,0,0.00044539,4450.9,0.00016425,0.098422,0.00011691,-355.63,-0.00045037,-4618,0.30346
1064,6.4526,3.6364,0,0.0004443,4439.9,0.00016257,0.12094,0.00011892,-327.8,-0.00044896,-4594.7,0.30323
1065,6.4526,3.8182,0,0.00044291,4426.1,0.00016043,0.15178,0.00012145,-292.72,-0.00044716,-4565.1,0.30292
1066,6.4526,4,0,0.00044127,4409.7,0.00015794,0.19115,0.00012437,-252.09,-0.00044501,-4530.2,0.30253
1067,6.4526,4.1818,0,0.00043941,4391.1,0.00015521,0.23943,0.00012749,-207.98,-0.00044258,-4491.3,0.30206
1068,6.4526,4.3636,0,0.00043737,4370.7,0.00015234,0.2983,0.00013065,-162.62,-0.00043991,-4449.6,0.3015
1069,6.4526,4.5455,0,0.00043517,4348.7,0.00014946,0.37352,0.00013366,-118.31,-0.00043705,-4406.4,0.30086
1070,6.4526,4.7273,0,0.00043284,4325.4,0.00014669,0.48339,0.00013634,-77.253,-0.00043409,-4363.2,0.30013
1071,6.4526,4.9091,0,0.00043041,4301.1,0.00014414,0.69756,0.00013853,-41.429,-0.00043109,-4321.4,0.29931
1072,6.4526,5.0909,0,0.00042794,4276.4,0.00014199,1.5457,0.00014006,-12.973,-0.00042813,-4282.1,0.2984
1073,6.4526,5.2727,0,0.00042546,4251.7,0.00014137,10.979,0.00013977,-1.0883,-0.00042529,-4246.7,0.2974
1074,6.4526,5.4545,0,0.00042304,4227.5,0.0001415,22.586,0.00013846,-0.23763,-0.00042266,-4216.3,0.2963
1075,6.4526,5.6364,0,0.00042074,4204.5,0.00014097,25.412,0.00013757,-0.11965,-0.0004203,-4191.8,0.29511
1076,6.4526,5.8182,0,0.00041869,4184,0.00013978,19.321,0.00013721,0.026,-0.00041836,-4174.3,0.29383
1077,6.6373,0.18182,0,0.00041877,4184.8,0.00013938,14.164,0.00013749,0.017306,-0.00041853,-4177.7,0.31155
1078,6.6373,0.36364,0,0.00042019,4199,0.00014007,16.735,0.00013782,-0.11112,-0.00041991,-4190.7,0.31282
1079,6.6373,0.54545,0,0.0004218,4215.1,0.00014021,11.997,0.00013857,-0.33334,-0.0004216,-4209.2,0.314
1080,6.6373,0.72727,0,0.00042346,4231.7,0.00014012,2.375,0.00013932,-3.668,-0.00042348,-4232.3,0.31509
1081,6.6373,0.90909,0,0.00042512,4248.2,0.00014145,0.65304,0.00013839,-22.378,-0.00042548,-4259.1,0.31608
1082,6.6373,1.0909,0,0.00042674,4264.5,0.00014329,0.42596,0.00013668,-49.287,-0.00042755,-4288.7,0.31698
1083,6.6373,1.2727,0,0.00042829,4279.9,0.0001454,0.32992,0.00013445,-81.922,-0.00042962,-4320.1,0.31779
1084,6.6373,1.4545,0,0.00042974,4294.5,0.00014768,0.26805,0.00013184,-118.78,-0.00043164,-4352.5,0.31851
1085,6.6373,1.6364,0,0.00043109,4307.9,0.00015004,0.21978,0.00012896,-158.19,-0.00043356,-4384.7,0.31915
1086,6.6373,1.8182,0,0.0004323,4320.1,0.00015238,0.17885,0.00012597,-198.3,-0.00043533,-4415.7,0.3197
1087,6.6373,2,0,0.00043339,4330.9,0.00015462,0.14348,0.00012303,-237.16,-0.00043693,-4444.5,0.32017
1088,6.6373,2.1818,0,0.00043433,4340.3,0.00015664,0.1135,0.00012031,-272.9,-0.00043833,-4470.3,0.32055
1089,6.6373,2.3636,0,0.00043512,4348.2,0.00015838,0.089207,0.00011794,-303.75,-0.00043949,-4492,0.32086
1090,6.6373,2.5455,0,0.00043573,4354.3,0.00015975,0.070923,0.00011605,-328.25,-0.00044038,-4509.1,0.32109
1091,6.6373,2.7273,0,0.00043615,4358.5,0.0001607,0.058769,0.00011474,-345.23,-0.000441,-4520.9,0.32124
1092,6.6373,2.9091,0,0.00043637,4360.7,0.00016118,0.052721,0.00011407,-353.92,-0.00044131,-4526.8,0.32131
1093,6.6373,3.0909,0,0.00043637,4360.7,0.00016118,0.052721,0.00011407,-353.92,-0.00044131,-4526.8,0.32131
1094,6.6373,3.2727,0,0.00043615,4358.5,0.0001607,0.058769,0.00011474,-345.23,-0.000441,-4520.9,0.32124
1095,6.6373,3.4545,0,0.00043573,4354.3,0.00015975,0.070924,0.00011605,-328.25,-0.00044038,-4509.1,0.32109
1096,6.6373,3.6364,0,0.00043512,4348.2,0.00015838,0.089207,0.00011794,-303.75,-0.00043949,-4492,0.32086
1097,6.6373,3.8182,0,0.00043433,4340.3,0.00015664,0.1135,0.00012031,-272.9,-0.00043833,-4470.3,0.32055
1098,6.6373,4,0,0.00043339,4330.9,0.00015462,0.14348,0.00012303,-237.16,-0.00043693,-4444.5,0.32017
1099,6.6373,4.1818,0,0.0004323,4320.1,0.00015238,0.17885,0.00012597,-198.3,-0.00043533,-4415.7,0.3197
1100,6.6373,4.3636,0,0.00043109,4307.9,0.00015004,0.21978,0.00012896,-158.19,-0.00043356,-4384.7,0.31915
1101,6.6373,4.5455,0,0.00042974,4294.5,0.00014768,0.26805,0.00013184,-118.78,-0.00043164,-4352.5,0.31851
1102,6.6373,4.7273,0,0.00042829,4279.9,0.0001454,0.32992,0.00013445,-81.922,-0.00042962,-4320.1,0.31779
1103,6.6373,4.9091,0,0.00042674,4264.5,0.00014329,0.42596,0.00013668,-49.287,-0.00042755,-4288.7,0.31698
1104,6.6373,5.0909,0,0.00042512,4248.3,0.00014145,0.65304,0.00013839,-22.377,-0.00042548,-4259.1,0.31608
1105,6.6373,5.2727,0,0.00042346,4231.7,0.00014012,2.375,0.00013932,-3.6679,-0.00042348,-4232.3,0.31509
1106,6.6373,5.4545,0,0.0004218,4215.1,0.00014021,11.997,0.00013857,-0.33333,-0.0004216,-4209.2,0.314
1107,6.6373,5.6364,0,0.00042019,4199,0.00014007,16.735,0.00013782,-0.11112,-0.00041991,-4190.7,0.31282
1108,6.6373,5.8182,0,0.00041877,4184.8,0.00013938,14.164,0.00013749,0.017304,-0.00041853,-4177.7,0.31155
1109,6.822,0.18182,0,0.00041763,4173.5,0.00013865,9.9977,0.00013732,0.0074892,-0.00041746,-4168.4,0.32956
1110,6.822,0.36364,0,0.00041855,4182.6,0.00013893,9.6471,0.00013763,-0.1247,-0.00041838,-4177.8,0.33082
1111,6.822,0.54545,0,0.00041959,4193,0.00013882,3.7784,0.00013821,-0.81756,-0.00041954,-4191.6,0.33199
1112,6.822,0.72727,0,0.00042065,4203.6,0.0001394,0.59977,0.00013788,-10.842,-0.00042083,-4208.8,0.33306
1113,6.822,0.90909,0,0.00042169,4213.9,0.00014067,0.35952,0.00013663,-30.043,-0.00042218,-4228.7,0.33404
1114,6.822,1.0909,0,0.00042266,4223.7,0.00014221,0.27995,0.00013486,-54.98,-0.00042356,-4250.7,0.33494
1115,6.822,1.2727,0,0.00042355,4232.6,0.00014396,0.23272,0.00013267,-84.564,-0.00042492,-4274.1,0.33574
1116,6.822,1.4545,0,0.00042435,4240.6,0.00014584,0.19589,0.00013016,-117.56,-0.00042623,-4298.1,0.33646
1117,6.822,1.6364,0,0.00042506,4247.7,0.00014777,0.1637,0.00012745,-152.54,-0.00042745,-4321.8,0.33709
1118,6.822,1.8182,0,0.00042568,4253.9,0.00014969,0.13444,0.00012466,-187.93,-0.00042856,-4344.6,0.33764
1119,6.822,2,0,0.00042621,4259.1,0.00015151,0.108,0.00012194,-222.1,-0.00042955,-4365.8,0.3381
1120,6.822,2.1818,0,0.00042665,4263.5,0.00015317,0.084845,0.00011942,-253.45,-0.00043039,-4384.6,0.33848
1121,6.822,2.3636,0,0.000427,4267.1,0.00015458,0.065597,0.00011724,-280.5,-0.00043108,-4400.4,0.33879
1122,6.822,2.5455,0,0.00042728,4269.8,0.0001557,0.050783,0.0001155,-301.97,-0.00043161,-4412.8,0.33902
1123,6.822,2.7273,0,0.00042746,4271.7,0.00015647,0.040757,0.00011429,-316.86,-0.00043197,-4421.3,0.33917
1124,6.822,2.9091,0,0.00042756,4272.6,0.00015686,0.035706,0.00011367,-324.48,-0.00043215,-4425.6,0.33924
1125,6.822,3.0909,0,0.00042756,4272.6,0.00015686,0.035706,0.00011367,-324.48,-0.00043215,-4425.6,0.33924
1126,6.822,3.2727,0,0.00042746,4271.7,0.00015647,0.040757,0.00011429,-316.86,-0.00043197,-4421.3,0.33917
1127,6.822,3.4545,0,0.00042728,4269.8,0.0001557,0.050783,0.0001155,-301.97,-0.00043161,-4412.8,0.33902
1128,6.822,3.6364,0,0.000427,4267.1,0.00015458,0.065597,0.00011724,-280.5,-0.00043108,-4400.4,0.33879
1129,6.822,3.8182,0,0.00042665,4263.5,0.00015317,0.084844,0.00011942,-253.45,-0.00043039,-4384.6,0.33848
1130,6.822,4,0,0.00042621,4259.1,0.00015151,0.108,0.00012194,-222.1,-0.00042955,-4365.8,0.3381
1131,6.822,4.1818,0,0.00042568,4253.9,0.00014969,0.13444,0.00012466,-187.93,-0.00042856,-4344.6,0.33764
1132,6.822,4.3636,0,0.00042506,4247.7,0.00014777,0.1637,0.00012745,-152.54,-0.00042745,-4321.8,0.33709
1133,6.822,4.5455,0,0.00042436,4240.6,0.00014584,0.19589,0.00013016,-117.56,-0.00042623,-4298.1,0.33646
1134,6.822,4.7273,0,0.00042355,4232.6,0.00014396,0.23272,0.00013267,-84.564,-0.00042492,-4274.1,0.33574
1135,6.822,4.9091,0,0.00042266,4223.7,0.00014221,0.27995,0.00013486,-54.98,-0.00042356,-4250.7,0.33494
1136,6.822,5.0909,0,0.00042169,4213.9,0.00014067,0.35952,0.00013663,-30.043,-0.00042218,-4228.7,0.33404
1137,6.822,5.2727,0,0.00042065,4203.6,0.0001394,0.59977,0.00013788,-10.841,-0.00042083,-4208.8,0.33306
1138,6.822,5.4545,0,0.00041959,4193,0.00013882,3.7784,0.00013821,-0.81755,-0.00041954,-4191.6,0.33199
1139,6.822,5.6364,0,0.00041855,4182.6,0.00013893,9.6471,0.00013763,-0.12471,-0.00041838,-4177.8,0.33082
1140,6.822,5.8182,0,0.00041763,4173.5,0.00013865,9.9977,0.00013732,0.0074879,-0.00041746,-4168.4,0.32956
1141,7.0067,0.18182,0,0.00041554,4152.5,0.00013769,6.7037,0.0001368,-0.0077962,-0.00041543,-4149.2,0.34785
1142,7.0067,0.36364,0,0.00041604,4157.5,0.00013764,4.0447,0.00013707,-0.21552,-0.00041597,-4155.6,0.3491
1143,7.0067,0.54545,0,0.00041664,4163.5,0.00013776,0.54559,0.00013709,-4.5064,-0.00041671,-4165.5,0.35026
1144,7.0067,0.72727,0,0.00041724,4169.5,0.00013858,0.28359,0.00013621,-17.494,-0.00041753,-4178.1,0.35132
1145,7.0067,0.90909,0,0.00041779,4175,0.00013966,0.22569,0.00013486,-35.843,-0.00041838,-4192.7,0.3523
1146,7.0067,1.0909,0,0.00041827,4179.8,0.00014095,0.19359,0.00013309,-58.811,-0.00041923,-4208.8,0.35318
1147,7.0067,1.2727,0,0.00041867,4183.9,0.00014239,0.16847,0.00013098,-85.558,-0.00042006,-4225.9,0.35398
1148,7.0067,1.4545,0,0.000419,4187.1,0.00014394,0.14535,0.00012861,-115.04,-0.00042084,-4243.4,0.35469
1149,7.0067,1.6364,0,0.00041925,4189.6,0.00014553,0.12306,0.00012608,-146.04,-0.00042154,-4260.6,0.35532
1150,7.0067,1.8182,0,0.00041943,4191.4,0.00014711,0.1016,0.00012351,-177.23,-0.00042216,-4277.2,0.35587
1151,7.0067,2,0,0.00041956,4192.7,0.0001486,0.081483,0.00012101,-207.23,-0.0004227,-4292.4,0.35633
1152,7.0067,2.1818,0,0.00041965,4193.6,0.00014995,0.063403,0.00011871,-234.68,-0.00042315,-4306,0.35671
1153,7.0067,2.3636,0,0.00041971,4194.2,0.00015111,0.048068,0.00011672,-258.34,-0.0004235,-4317.3,0.35701
1154,7.0067,2.5455,0,0.00041974,4194.6,0.00015202,0.036073,0.00011513,-277.1,-0.00042377,-4326.2,0.35724
1155,7.0067,2.7273,0,0.00041977,4194.8,0.00015265,0.027851,0.00011403,-290.11,-0.00042395,-4332.3,0.35739
1156,7.0067,2.9091,0,0.00041978,4194.9,0.00015297,0.023677,0.00011347,-296.76,-0.00042404,-4335.4,0.35747
1157,7.0067,3.0909,0,0.00041978,4194.9,0.00015297,0.023677,0.00011347,-296.76,-0.00042404,-4335.4,0.35747
1158,7.0067,3.2727,0,0.00041977,4194.8,0.00015265,0.027851,0.00011403,-290.11,-0.00042395,-4332.3,0.35739
1159,7.0067,3.4545,0,0.00041974,4194.6,0.00015202,0.036073,0.00011513,-277.1,-0.00042377,-4326.2,0.35724
1160,7.0067,3.6364,0,0.00041971,4194.2,0.00015111,0.048068,0.00011672,-258.34,-0.0004235,-4317.3,0.35701
1161,7.0067,3.8182,0,0.00041965,4193.6,0.00014995,0.063403,0.00011871,-234.68,-0.00042315,-4306,0.35671
1162,7.0067,4,0,0.00041956,4192.7,0.0001486,0.081483,0.00012101,-207.23,-0.0004227,-4292.4,0.35633
1163,7.0067,4.1818,0,0.00041943,4191.4,0.00014711,0.1016,0.00012351,-177.23,-0.00042216,-4277.2,0.35587
1164,7.0067,4.3636,0,0.00041925,4189.6,0.00014553,0.12306,0.00012608,-146.04,-0.00042154,-4260.6,0.35532
1165,7.0067,4.5455,0,0.000419,4187.1,0.00014394,0.14535,0.00012861,-115.04,-0.00042084,-4243.4,0.35469
1166,7.0067,4.7273,0,0.00041867,4183.9,0.00014239,0.16847,0.00013098,-85.558,-0.00042006,-4225.9,0.35398
1167,7.0067,4.9091,0,0.00041827,4179.8,0.00014095,0.19359,0.00013309,-58.811,-0.00041924,-4208.8,0.35318
1168,7.0067,5.0909,0,0.00041779,4175,0.00013966,0.22569,0.00013486,-35.843,-0.00041838,-4192.7,0.3523
1169,7.0067,5.2727,0,0.00041724,4169.5,0.00013858,0.28359,0.00013621,-17.494,-0.00041753,-4178.1,0.35132
1170,7.0067,5.4545,0,0.00041664,4163.5,0.00013776,0.54559,0.00013709,-4.5064,-0.00041671,-4165.5,0.35026
1171,7.0067,5.6364,0,0.00041604,4157.5,0.00013764,4.0447,0.00013707,-0.21552,-0.00041597,-4155.6,0.3491
1172,7.0067,5.8182,0,0.00041554,4152.5,0.00013769,6.7038,0.0001368,-0.0077978,-0.00041543,-4149.2,0.34785
1173,7.1914,0.18182,0,0.00041269,4124.1,0.00013654,4.1713,0.00013598,-0.036573,-0.00041262,-4122,0.36643
1174,7.1914,0.36364,0,0.00041286,4125.8,0.00013635,0.59536,0.00013611,-1.2206,-0.00041287,-4126.1,0.36766
1175,7.1914,0.54545,0,0.00041312,4128.3,0.00013682,0.21001,0.00013552,-9.5271,-0.00041327,-4133,0.36881
1176,7.1914,0.72727,0,0.00041335,4130.6,0.00013754,0.17052,0.0001345,-22.626,-0.00041373,-4141.8,0.36987
1177,7.1914,0.90909,0,0.00041353,4132.5,0.00013845,0.15339,0.00013311,-39.971,-0.0004142,-4152.3,0.37084
1178,7.1914,1.0909,0,0.00041365,4133.7,0.00013953,0.13907,0.00013138,-61.069,-0.00041466,-4163.8,0.37172
1179,7.1914,1.2727,0,0.0004137,4134.2,0.00014073,0.12462,0.00012937,-85.218,-0.00041508,-4176,0.37251
1180,7.1914,1.4545,0,0.00041368,4134,0.00014201,0.1093,0.00012715,-111.53,-0.00041546,-4188.5,0.37322
1181,7.1914,1.6364,0,0.0004136,4133.2,0.00014332,0.093314,0.00012481,-138.99,-0.00041579,-4200.9,0.37384
1182,7.1914,1.8182,0,0.00041348,4132,0.00014462,0.077195,0.00012245,-166.45,-0.00041606,-4212.6,0.37438
1183,7.1914,2,0,0.00041333,4130.5,0.00014584,0.061624,0.00012018,-192.76,-0.00041627,-4223.4,0.37484
1184,7.1914,2.1818,0,0.00041318,4128.9,0.00014695,0.047379,0.00011809,-216.77,-0.00041644,-4233,0.37522
1185,7.1914,2.3636,0,0.00041303,4127.5,0.00014789,0.035099,0.00011629,-237.42,-0.00041656,-4241,0.37553
1186,7.1914,2.5455,0,0.00041291,4126.2,0.00014864,0.025381,0.00011486,-253.78,-0.00041664,-4247.3,0.37575
1187,7.1914,2.7273,0,0.00041282,4125.4,0.00014915,0.018661,0.00011387,-265.12,-0.00041669,-4251.5,0.3759
1188,7.1914,2.9091,0,0.00041277,4124.9,0.00014942,0.015229,0.00011336,-270.92,-0.00041671,-4253.7,0.37598
1189,7.1914,3.0909,0,0.00041277,4124.9,0.00014942,0.015229,0.00011336,-270.92,-0.00041671,-4253.7,0.37598
1190,7.1914,3.2727,0,0.00041282,4125.4,0.00014915,0.01866,0.00011387,-265.12,-0.00041669,-4251.5,0.3759
1191,7.1914,3.4545,0,0.00041291,4126.2,0.00014864,0.025381,0.00011486,-253.78,-0.00041664,-4247.3,0.37575
1192,7.1914,3.6364,0,0.00041303,4127.5,0.00014789,0.035099,0.00011629,-237.42,-0.00041656,-4241,0.37553
1193,7.1914,3.8182,0,0.00041318,4128.9,0.00014695,0.047379,0.00011809,-216.77,-0.00041644,-4233,0.37522
1194,7.1914,4,0,0.00041333,4130.5,0.00014584,0.061624,0.00012018,-192.76,-0.00041627,-4223.4,0.37484
1195,7.1914,4.1818,0,0.00041348,4132,0.00014462,0.077195,0.00012245,-166.45,-0.00041606,-4212.6,0.37438
1196,7.1914,4.3636,0,0.0004136,4133.2,0.00014332,0.093313,0.00012481,-138.99,-0.00041579,-4200.9,0.37384
1197,7.1914,4.5455,0,0.00041368,4134,0.00014201,0.1093,0.00012715,-111.53,-0.00041546,-4188.5,0.37322
1198,7.1914,4.7273,0,0.0004137,4134.2,0.00014073,0.12462,0.00012937,-85.218,-0.00041508,-4176,0.37251
1199,7.1914,4.9091,0,0.00041365,4133.7,0.00013953,0.13907,0.00013138,-61.069,-0.00041466,-4163.8,0.37172
1200,7.1914,5.0909,0,0.00041353,4132.5,0.00013845,0.15339,0.00013311,-39.971,-0.0004142,-4152.3,0.37084
1201,7.1914,5.2727,0,0.00041335,4130.6,0.00013754,0.17052,0.0001345,-22.626,-0.00041373,-4141.8,0.36987
1202,7.1914,5.4545,0,0.00041312,4128.3,0.00013682,0.21001,0.00013552,-9.527,-0.00041327,-4133,0.36881
1203,7.1914,5.6364,0,0.00041286,4125.8,0.00013635,0.59536,0.00013611,-1.2206,-0.00041287,-4126.1,0.36766
1204,7.1914,5.8182,0,0.00041269,4124.1,0.00013654,4.1713,0.00013598,-0.036575,-0.00041262,-4122,0.36643
1205,7.3761,0.18182,0,0.00040926,4089.7,0.00013525,2.3111,0.00013493,-0.099986,-0.00040922,-4088.6,0.38528
1206,7.3761,0.36364,0,0.00040916,4088.8,0.00013524,0.16223,0.00013467,-4.1725,-0.00040923,-4090.8,0.38651
1207,7.3761,0.54545,0,0.00040915,4088.7,0.00013569,0.1229,0.00013389,-13.445,-0.00040937,-4095.3,0.38765
1208,7.3761,0.72727,0,0.00040911,4088.3,0.00013632,0.11572,0.0001328,-26.338,-0.00040955,-4101.3,0.38869
1209,7.3761,0.90909,0,0.00040902,4087.4,0.00013709,0.11008,0.0001314,-42.662,-0.00040973,-4108.5,0.38966
1210,7.3761,1.0909,0,0.00040887,4085.9,0.000138,0.10297,0.00012973,-62.016,-0.00040989,-4116.5,0.39053
1211,7.3761,1.2727,0,0.00040866,4083.8,0.000139,0.093916,0.00012783,-83.809,-0.00041002,-4125,0.39132
1212,7.3761,1.4545,0,0.0004084,4081.2,0.00014006,0.083201,0.00012577,-107.3,-0.00041012,-4133.7,0.39202
1213,7.3761,1.6364,0,0.00040809,4078.1,0.00014114,0.07134,0.00012362,-131.6,-0.00041017,-4142.3,0.39264
1214,7.3761,1.8182,0,0.00040776,4074.8,0.00014221,0.058971,0.00012147,-155.78,-0.00041018,-4150.4,0.39318
1215,7.3761,2,0,0.00040742,4071.4,0.00014322,0.046775,0.00011941,-178.84,-0.00041017,-4157.9,0.39364
1216,7.3761,2.1818,0,0.00040711,4068.2,0.00014412,0.035425,0.00011752,-199.83,-0.00041014,-4164.5,0.39402
1217,7.3761,2.3636,0,0.00040682,4065.4,0.0001449,0.025544,0.0001159,-217.84,-0.00041009,-4170,0.39433
1218,7.3761,2.5455,0,0.0004066,4063.2,0.00014551,0.017657,0.00011462,-232.08,-0.00041005,-4174.2,0.39455
1219,7.3761,2.7273,0,0.00040644,4061.6,0.00014593,0.01217,0.00011373,-241.95,-0.00041001,-4177.1,0.3947
1220,7.3761,2.9091,0,0.00040636,4060.7,0.00014615,0.0093579,0.00011327,-246.99,-0.00040999,-4178.6,0.39478
1221,7.3761,3.0909,0,0.00040636,4060.7,0.00014615,0.0093579,0.00011327,-246.99,-0.00040999,-4178.6,0.39478
1222,7.3761,3.2727,0,0.00040644,4061.6,0.00014593,0.01217,0.00011373,-241.95,-0.00041001,-4177.1,0.3947
1223,7.3761,3.4545,0,0.0004066,4063.2,0.00014551,0.017657,0.00011462,-232.08,-0.00041005,-4174.2,0.39455
1224,7.3761,3.6364,0,0.00040682,4065.4,0.0001449,0.025544,0.0001159,-217.84,-0.00041009,-4170,0.39433
1225,7.3761,3.8182,0,0.00040711,4068.2,0.00014412,0.035425,0.00011752,-199.83,-0.00041014,-4164.5,0.39402
1226,7.3761,4,0,0.00040742,4071.4,0.00014322,0.046775,0.00011941,-178.84,-0.00041017,-4157.9,0.39364
1227,7.3761,4.1818,0,0.00040776,4074.8,0.00014221,0.058971,0.00012147,-155.78,-0.00041018,-4150.4,0.39318
1228,7.3761,4.3636,0,0.00040809,4078.1,0.00014114,0.07134,0.00012362,-131.6,-0.00041017,-4142.3,0.39264
1229,7.3761,4.5455,0,0.0004084,4081.2,0.00014006,0.083201,0.00012577,-107.3,-0.00041012,-4133.7,0.39202
1230,7.3761,4.7273,0,0.00040866,4083.8,0.000139,0.093915,0.00012783,-83.809,-0.00041002,-4125,0.39132
1231,7.3761,4.9091,0,0.00040887,4085.9,0.000138,0.10297,0.00012973,-62.016,-0.00040989,-4116.5,0.39053
1232,7.3761,5.0909,0,0.00040902,4087.4,0.00013709,0.11008,0.0001314,-42.662,-0.00040973,-4108.5,0.38966
1233,7.3761,5.2727,0,0.00040911,4088.3,0.00013632,0.11572,0.0001328,-26.338,-0.00040955,-4101.3,0.38869
1234,7.3761,5.4545,0,0.00040915,4088.7,0.00013569,0.1229,0.00013389,-13.445,-0.00040937,-4095.3,0.38765
1235,7.3761,5.6364,0,0.00040916,4088.8,0.00013524,0.16223,0.00013467,-4.1724,-0.00040923,-4090.8,0.38651
1236,7.3761,5.8182,0,0.00040926,4089.7,0.00013525,2.3111,0.00013493,-0.099987,-0.00040922,-4088.6,0.38528
1237,7.5609,0.18182,0,0.00040536,4050.8,0.00013387,1.0904,0.00013369,-0.26546,-0.00040535,-4050.4,0.40442
1238,7.5609,0.36364,0,0.00040507,4047.9,0.00013401,0.10115,0.00013312,-6.5873,-0.00040518,-4051.1,0.40563
1239,7.5609,0.54545,0,0.00040485,4045.7,0.00013441,0.084618,0.00013224,-16.264,-0.00040512,-4053.7,0.40676
1240,7.5609,0.72727,0,0.0004046,4043.2,0.00013495,0.084556,0.0001311,-28.827,-0.00040508,-4057.5,0.4078
1241,7.5609,0.90909,0,0.00040431,4040.3,0.00013561,0.082208,0.00012972,-44.146,-0.00040505,-4062.2,0.40876
1242,7.5609,1.0909,0,0.00040397,4036.9,0.00013637,0.078146,0.00012812,-61.889,-0.00040499,-4067.5,0.40963
1243,7.5609,1.2727,0,0.00040358,4033,0.00013721,0.07194,0.00012634,-81.559,-0.00040491,-4073.2,0.41041
1244,7.5609,1.4545,0,0.00040315,4028.7,0.00013809,0.064059,0.00012444,-102.52,-0.00040479,-4078.9,0.41111
1245,7.5609,1.6364,0,0.00040269,4024.1,0.00013899,0.054987,0.00012247,-124.05,-0.00040465,-4084.7,0.41173
1246,7.5609,1.8182,0,0.00040222,4019.4,0.00013987,0.045311,0.00012052,-145.34,-0.00040449,-4090.1,0.41227
1247,7.5609,2,0,0.00040176,4014.8,0.0001407,0.035628,0.00011866,-165.56,-0.00040432,-4095,0.41272
1248,7.5609,2.1818,0,0.00040134,4010.6,0.00014145,0.026523,0.00011697,-183.9,-0.00040415,-4099.4,0.4131
1249,7.5609,2.3636,0,0.00040097,4007,0.00014209,0.018534,0.00011552,-199.59,-0.00040399,-4103,0.4134
1250,7.5609,2.5455,0,0.00040068,4004,0.00014259,0.012121,0.00011437,-211.99,-0.00040387,-4105.8,0.41363
1251,7.5609,2.7273,0,0.00040048,4002,0.00014293,0.0076398,0.00011358,-220.57,-0.00040377,-4107.7,0.41378
1252,7.5609,2.9091,0,0.00040037,4001,0.00014311,0.0053367,0.00011317,-224.95,-0.00040372,-4108.7,0.41386
1253,7.5609,3.0909,0,0.00040037,4001,0.00014311,0.0053366,0.00011317,-224.95,-0.00040372,-4108.7,0.41386
1254,7.5609,3.2727,0,0.00040048,4002,0.00014293,0.00764,0.00011358,-220.57,-0.00040377,-4107.7,0.41378
1255,7.5609,3.4545,0,0.00040068,4004,0.00014259,0.012121,0.00011437,-211.99,-0.00040387,-4105.8,0.41363
1256,7.5609,3.6364,0,0.00040097,4007,0.00014209,0.018534,0.00011552,-199.59,-0.00040399,-4103,0.4134
1257,7.5609,3.8182,0,0.00040134,4010.6,0.00014145,0.026523,0.00011697,-183.9,-0.00040415,-4099.4,0.4131
1258,7.5609,4,0,0.00040176,4014.8,0.0001407,0.035627,0.00011866,-165.56,-0.00040432,-4095,0.41272
1259,7.5609,4.1818,0,0.00040222,4019.4,0.00013987,0.045311,0.00012052,-145.34,-0.00040449,-4090.1,0.41227
1260,7.5609,4.3636,0,0.00040269,4024.1,0.00013899,0.054987,0.00012247,-124.05,-0.00040465,-4084.7,0.41173
1261,7.5609,4.5455,0,0.00040315,4028.7,0.00013809,0.064059,0.00012444,-102.52,-0.00040479,-4078.9,0.41111
1262,7.5609,4.7273,0,0.00040358,4033,0.00013721,0.07194,0.00012634,-81.558,-0.00040491,-4073.2,0.41041
1263,7.5609,4.9091,0,0.00040397,4036.9,0.00013637,0.078145,0.00012812,-61.889,-0.00040499,-4067.5,0.40963
1264,7.5609,5.0909,0,0.00040431,4040.3,0.00013561,0.082207,0.00012972,-44.146,-0.00040505,-4062.2,0.40876
1265,7.5609,5.2727,0,0.0004046,4043.2,0.00013495,0.084557,0.0001311,-28.827,-0.00040508,-4057.5,0.4078
1266,7.5609,5.4545,0,0.00040485,4045.7,0.00013441,0.084618,0.00013224,-16.264,-0.00040512,-4053.7,0.40676
1267,7.5609,5.6364,0,0.00040507,4047.9,0.00013401,0.10114,0.00013312,-6.5873,-0.00040518,-4051.1,0.40563
1268,7.5609,5.8182,0,0.00040536,4050.8,0.00013387,1.0904,0.00013369,-0.26546,-0.00040535,-4050.4,0.40442
1269,7.7456,0.18182,0,0.00040112,4008.4,0.00013244,0.51996,0.00013229,-0.63284,-0.00040112,-4008.4,0.42383
1270,7.7456,0.36364,0,0.00040067,4003.9,0.00013264,0.080095,0.00013152,-8.2802,-0.00040081,-4008,0.42503
1271,7.7456,0.54545,0,0.00040029,4000.2,0.000133,0.063411,0.00013058,-18.14,-0.0004006,-4009.2,0.42615
1272,7.7456,0.72727,0,0.0003999,3996.2,0.00013347,0.064898,0.00012943,-30.29,-0.0004004,-4011.3,0.42719
1273,7.7456,0.90909,0,0.00039947,3991.9,0.00013403,0.0633,0.00012808,-44.635,-0.00040021,-4014,0.42813
1274,7.7456,1.0909,0,0.00039899,3987.1,0.00013468,0.060554,0.00012656,-60.897,-0.00039999,-4017.2,0.429
1275,7.7456,1.2727,0,0.00039847,3982,0.00013538,0.055926,0.0001249,-78.658,-0.00039975,-4020.7,0.42978
1276,7.7456,1.4545,0,0.00039793,3976.5,0.00013612,0.049864,0.00012315,-97.388,-0.0003995,-4024.3,0.43047
1277,7.7456,1.6364,0,0.00039737,3971,0.00013686,0.04274,0.00012136,-116.47,-0.00039922,-4027.9,0.43109
1278,7.7456,1.8182,0,0.00039681,3965.4,0.00013759,0.035043,0.00011959,-135.22,-0.00039894,-4031.3,0.43162
1279,7.7456,2,0,0.00039628,3960.1,0.00013828,0.02727,0.00011792,-152.96,-0.00039866,-4034.4,0.43208
1280,7.7456,2.1818,0,0.0003958,3955.3,0.0001389,0.019914,0.0001164,-168.99,-0.00039841,-4037.1,0.43246
1281,7.7456,2.3636,0,0.00039539,3951.1,0.00013942,0.013425,0.00011511,-182.67,-0.00039818,-4039.3,0.43276
1282,7.7456,2.5455,0,0.00039506,3947.9,0.00013984,0.0081973,0.00011409,-193.47,-0.00039799,-4041,0.43298
1283,7.7456,2.7273,0,0.00039483,3945.6,0.00014012,0.0045334,0.00011338,-200.92,-0.00039787,-4042.2,0.43313
1284,7.7456,2.9091,0,0.00039471,3944.4,0.00014027,0.0026481,0.00011302,-204.73,-0.0003978,-4042.8,0.43321
1285,7.7456,3.0909,0,0.00039471,3944.4,0.00014027,0.0026472,0.00011302,-204.73,-0.0003978,-4042.8,0.43321
1286,7.7456,3.2727,0,0.00039483,3945.6,0.00014012,0.0045334,0.00011338,-200.92,-0.00039787,-4042.2,0.43313
1287,7.7456,3.4545,0,0.00039506,3947.9,0.00013984,0.0081964,0.00011409,-193.47,-0.00039799,-4041,0.43298
1288,7.7456,3.6364,0,0.00039539,3951.1,0.00013942,0.013425,0.00011511,-182.67,-0.00039818,-4039.3,0.43276
1289,7.7456,3.8182,0,0.0003958,3955.3,0.0001389,0.019913,0.0001164,-168.99,-0.00039841,-4037.1,0.43246
1290,7.7456,4,0,0.00039628,3960.1,0.00013828,0.02727,0.00011792,-152.96,-0.00039866,-4034.4,0.43208
1291,7.7456,4.1818,0,0.00039681,3965.4,0.00013759,0.035042,0.00011959,-135.22,-0.00039894,-4031.3,0.43162
1292,7.7456,4.3636,0,0.00039737,3971,0.00013686,0.042739,0.00012136,-116.47,-0.00039922,-4027.9,0.43109
1293,7.7456,4.5455,0,0.00039793,3976.5,0.00013612,0.049864,0.00012315,-97.388,-0.0003995,-4024.3,0.43047
1294,7.7456,4.7273,0,0.00039847,3982,0.00013538,0.055925,0.0001249,-78.658,-0.00039975,-4020.7,0.42978
1295,7.7456,4.9091,0,0.00039899,3987.1,0.00013468,0.060554,0.00012656,-60.897,-0.00039999,-4017.2,0.429
1296,7.7456,5.0909,0,0.00039947,3991.9,0.00013403,0.063298,0.00012808,-44.635,-0.00040021,-4014,0.42813
1297,7.7456,5.2727,0,0.0003999,3996.2,0.00013347,0.064897,0.00012943,-30.289,-0.0004004,-4011.3,0.42719
1298,7.7456,5.4545,0,0.00040029,4000.2,0.000133,0.063411,0.00013058,-18.14,-0.0004006,-4009.2,0.42615
1299,7.7456,5.6364,0,0.00040067,4003.9,0.00013264,0.080095,0.00013152,-8.2802,-0.00040081,-4008,0.42503
1300,7.7456,5.8182,0,0.00040112,4008.4,0.00013244,0.51996,0.00013229,-0.63283,-0.00040112,-4008.4,0.42383
1301,7.9303,0.18182,0,0.0003966,3963.3,0.00013096,0.34364,0.00013078,-1.0241,-0.00039661,-3963.6,0.44351
1302,7.9303,0.36364,0,0.00039604,3957.6,0.00013116,0.06971,0.00012991,-9.3533,-0.00039619,-3962.3,0.44471
1303,7.9303,0.54545,0,0.00039555,3952.8,0.00013149,0.04999,0.00012892,-19.232,-0.00039587,-3962.3,0.44582
1304,7.9303,0.72727,0,0.00039505,3947.8,0.0001319,0.051601,0.00012778,-30.909,-0.00039556,-3963.1,0.44684
1305,7.9303,0.90909,0,0.00039452,3942.4,0.00013238,0.049932,0.00012648,-44.318,-0.00039525,-3964.4,0.44778
1306,7.9303,1.0909,0,0.00039395,3936.8,0.00013293,0.047802,0.00012504,-59.223,-0.00039492,-3966,0.44864
1307,7.9303,1.2727,0,0.00039335,3930.8,0.00013352,0.044069,0.0001235,-75.273,-0.00039458,-3967.9,0.44941
1308,7.9303,1.4545,0,0.00039274,3924.7,0.00013414,0.039233,0.00012189,-92.023,-0.00039422,-3969.9,0.45011
1309,7.9303,1.6364,0,0.00039212,3918.5,0.00013476,0.033513,0.00012026,-108.95,-0.00039386,-3971.8,0.45072
1310,7.9303,1.8182,0,0.00039152,3912.5,0.00013537,0.027303,0.00011866,-125.49,-0.0003935,-3973.7,0.45125
1311,7.9303,2,0,0.00039095,3906.8,0.00013594,0.021006,0.00011716,-141.06,-0.00039316,-3975.4,0.45171
1312,7.9303,2.1818,0,0.00039044,3901.7,0.00013645,0.015024,0.00011581,-155.08,-0.00039284,-3976.9,0.45208
1313,7.9303,2.3636,0,0.00039,3897.3,0.00013689,0.0097326,0.00011465,-167.03,-0.00039257,-3978.1,0.45238
1314,7.9303,2.5455,0,0.00038966,3893.9,0.00013723,0.0054588,0.00011375,-176.43,-0.00039236,-3979.1,0.45261
1315,7.9303,2.7273,0,0.00038942,3891.5,0.00013746,0.0024589,0.00011312,-182.91,-0.00039221,-3979.7,0.45276
1316,7.9303,2.9091,0,0.0003893,3890.3,0.00013758,0.0009126,0.0001128,-186.22,-0.00039213,-3980,0.45283
1317,7.9303,3.0909,0,0.0003893,3890.3,0.00013758,0.00091242,0.0001128,-186.22,-0.00039213,-3980,0.45283
1318,7.9303,3.2727,0,0.00038942,3891.5,0.00013746,0.0024589,0.00011312,-182.91,-0.00039221,-3979.7,0.45276
1319,7.9303,3.4545,0,0.00038966,3893.9,0.00013723,0.0054588,0.00011375,-176.43,-0.00039236,-3979.1,0.45261
1320,7.9303,3.6364,0,0.00039,3897.3,0.00013689,0.0097321,0.00011465,-167.03,-0.00039257,-3978.1,0.45238
1321,7.9303,3.8182,0,0.00039044,3901.7,0.00013645,0.015023,0.00011581,-155.08,-0.00039284,-3976.9,0.45208
1322,7.9303,4,0,0.00039095,3906.8,0.00013594,0.021006,0.00011716,-141.06,-0.00039316,-3975.4,0.45171
1323,7.9303,4.1818,0,0.00039152,3912.5,0.00013537,0.027303,0.00011866,-125.49,-0.0003935,-3973.7,0.45125
1324,7.9303,4.3636,0,0.00039212,3918.5,0.00013476,0.033512,0.00012026,-108.95,-0.00039386,-3971.8,0.45072
1325,7.9303,4.5455,0,0.00039274,3924.7,0.00013414,0.039232,0.00012189,-92.023,-0.00039422,-3969.9,0.45011
1326,7.9303,4.7273,0,0.00039335,3930.8,0.00013352,0.044069,0.0001235,-75.273,-0.00039458,-3967.9,0.44941
1327,7.9303,4.9091,0,0.00039395,3936.8,0.00013293,0.047802,0.00012504,-59.223,-0.00039492,-3966,0.44864
1328,7.9303,5.0909,0,0.00039452,3942.4,0.00013238,0.049931,0.00012648,-44.318,-0.00039525,-3964.4,0.44778
1329,7.9303,5.2727,0,0.00039505,3947.8,0.0001319,0.051599,0.00012778,-30.909,-0.00039556,-3963.1,0.44684
1330,7.9303,5.4545,0,0.00039555,3952.8,0.00013149,0.049991,0.00012892,-19.232,-0.00039587,-3962.3,0.44582
1331,7.9303,5.6364,0,0.00039604,3957.6,0.00013116,0.069709,0.00012991,-9.3533,-0.00039619,-3962.3,0.44471
1332,7.9303,5.8182,0,0.0003966,3963.3,0.00013096,0.34364,0.00013078,-1.0241,-0.00039661,-3963.6,0.44351
1333,8.115,0.18182,0,0.00039188,3916.1,0.00012941,0.29154,0.0001292,-1.2371,-0.00039189,-3916.6,0.46347
1334,8.115,0.36364,0,0.00039123,3909.6,0.0001296,0.063223,0.00012827,-9.9157,-0.0003914,-3914.5,0.46465
1335,8.115,0.54545,0,0.00039067,3904,0.0001299,0.040719,0.00012727,-19.683,-0.000391,-3913.8,0.46575
1336,8.115,0.72727,0,0.00039009,3898.2,0.00013026,0.042096,0.00012615,-30.848,-0.00039061,-3913.6,0.46677
1337,8.115,0.90909,0,0.00038949,3892.3,0.00013068,0.040163,0.0001249,-43.361,-0.00039021,-3913.7,0.4677
1338,8.115,1.0909,0,0.00038887,3886,0.00013115,0.03827,0.00012355,-57.024,-0.00038981,-3914.2,0.46855
1339,8.115,1.2727,0,0.00038823,3879.6,0.00013165,0.035167,0.00012212,-71.543,-0.0003894,-3914.9,0.46932
1340,8.115,1.4545,0,0.00038758,3873.1,0.00013217,0.0312,0.00012064,-86.541,-0.00038898,-3915.6,0.47001
1341,8.115,1.6364,0,0.00038693,3866.6,0.00013269,0.026526,0.00011916,-101.58,-0.00038856,-3916.4,0.47062
1342,8.115,1.8182,0,0.00038631,3860.4,0.0001332,0.021458,0.00011773,-116.19,-0.00038815,-3917.2,0.47115
1343,8.115,2,0,0.00038572,3854.6,0.00013367,0.016315,0.00011638,-129.88,-0.00038777,-3917.9,0.4716
1344,8.115,2.1818,0,0.0003852,3849.4,0.00013409,0.011423,0.00011517,-142.16,-0.00038742,-3918.5,0.47198
1345,8.115,2.3636,0,0.00038476,3845,0.00013445,0.0070914,0.00011415,-152.59,-0.00038713,-3919,0.47228
1346,8.115,2.5455,0,0.00038441,3841.5,0.00013474,0.0035889,0.00011334,-160.78,-0.0003869,-3919.3,0.4725
1347,8.115,2.7273,0,0.00038417,3839.1,0.00013493,0.0011275,0.00011278,-166.43,-0.00038673,-3919.6,0.47265
1348,8.115,2.9091,0,0.00038405,3837.9,0.00013503,-0.00014173,0.0001125,-169.31,-0.00038665,-3919.7,0.47273
1349,8.115,3.0909,0,0.00038405,3837.9,0.00013503,-0.00014215,0.0001125,-169.31,-0.00038665,-3919.7,0.47273
1350,8.115,3.2727,0,0.00038417,3839.1,0.00013493,0.0011273,0.00011278,-166.43,-0.00038673,-3919.6,0.47265
1351,8.115,3.4545,0,0.00038441,3841.5,0.00013474,0.0035883,0.00011334,-160.78,-0.0003869,-3919.3,0.4725
1352,8.115,3.6364,0,0.00038476,3845,0.00013445,0.0070911,0.00011415,-152.59,-0.00038713,-3919,0.47228
1353,8.115,3.8182,0,0.0003852,3849.4,0.00013409,0.011423,0.00011517,-142.16,-0.00038742,-3918.5,0.47198
1354,8.115,4,0,0.00038572,3854.6,0.00013367,0.016315,0.00011638,-129.88,-0.00038777,-3917.9,0.4716
1355,8.115,4.1818,0,0.00038631,3860.4,0.0001332,0.021458,0.00011773,-116.19,-0.00038815,-3917.2,0.47115
1356,8.115,4.3636,0,0.00038693,3866.6,0.00013269,0.026526,0.00011916,-101.58,-0.00038856,-3916.4,0.47062
1357,8.115,4.5455,0,0.00038758,3873.1,0.00013217,0.031199,0.00012064,-86.541,-0.00038898,-3915.6,0.47001
1358,8.115,4.7273,0,0.00038823,3879.6,0.00013165,0.035167,0.00012212,-71.543,-0.0003894,-3914.9,0.46932
1359,8.115,4.9091,0,0.00038887,3886,0.00013115,0.038269,0.00012355,-57.024,-0.00038981,-3914.2,0.46855
1360,8.115,5.0909,0,0.00038949,3892.3,0.00013068,0.040162,0.0001249,-43.361,-0.00039021,-3913.7,0.4677
1361,8.115,5.2727,0,0.00039009,3898.2,0.00013026,0.042095,0.00012615,-30.848,-0.00039061,-3913.6,0.46677
1362,8.115,5.4545,0,0.00039067,3904,0.0001299,0.040719,0.00012727,-19.683,-0.000391,-3913.8,0.46575
1363,8.115,5.6364,0,0.00039123,3909.6,0.0001296,0.063221,0.00012827,-9.9157,-0.0003914,-3914.5,0.46465
1364,8.115,5.8182,0,0.00039188,3916.1,0.00012941,0.29154,0.0001292,-1.2371,-0.00039189,-3916.6,0.46347
1365,8.2997,0.18182,0,0.000387,3867.4,0.0001278,0.286,0.00012759,-1.2526,-0.00038702,-3867.9,0.48369
1366,8.2997,0.36364,0,0.0003863,3860.3,0.00012798,0.058389,0.00012663,-10.065,-0.00038647,-3865.3,0.48486
1367,8.2997,0.54545,0,0.00038568,3854.2,0.00012825,0.033909,0.00012563,-19.621,-0.00038601,-3863.9,0.48595
1368,8.2997,0.72727,0,0.00038506,3848,0.00012857,0.035014,0.00012454,-30.247,-0.00038557,-3863,0.48696
1369,8.2997,0.90909,0,0.00038442,3841.6,0.00012893,0.032835,0.00012335,-41.908,-0.00038512,-3862.4,0.48789
1370,8.2997,1.0909,0,0.00038377,3835,0.00012933,0.031093,0.00012208,-54.436,-0.00038467,-3862,0.48873
1371,8.2997,1.2727,0,0.0003831,3828.4,0.00012976,0.028408,0.00012076,-67.583,-0.00038421,-3861.7,0.4895
1372,8.2997,1.4545,0,0.00038244,3821.7,0.0001302,0.025087,0.00011941,-81.033,-0.00038375,-3861.6,0.49018
1373,8.2997,1.6364,0,0.00038178,3815.2,0.00013064,0.021217,0.00011807,-94.418,-0.0003833,-3861.5,0.49079
1374,8.2997,1.8182,0,0.00038116,3809,0.00013106,0.017043,0.00011677,-107.34,-0.00038287,-3861.5,0.49131
1375,8.2997,2,0,0.00038058,3803.2,0.00013146,0.012814,0.00011557,-119.39,-0.00038247,-3861.4,0.49176
1376,8.2997,2.1818,0,0.00038006,3798,0.00013181,0.0087955,0.00011449,-130.17,-0.00038211,-3861.4,0.49214
1377,8.2997,2.3636,0,0.00037963,3793.7,0.00013211,0.0052364,0.00011357,-139.29,-0.00038181,-3861.4,0.49244
1378,8.2997,2.5455,0,0.00037929,3790.2,0.00013235,0.0023582,0.00011286,-146.44,-0.00038157,-3861.3,0.49266
1379,8.2997,2.7273,0,0.00037905,3787.9,0.00013251,0.00033505,0.00011236,-151.37,-0.0003814,-3861.3,0.49281
1380,8.2997,2.9091,0,0.00037893,3786.7,0.00013259,-0.00070806,0.00011211,-153.87,-0.00038132,-3861.3,0.49288
1381,8.2997,3.0909,0,0.00037893,3786.7,0.00013259,-0.00070841,0.00011211,-153.87,-0.00038132,-3861.3,0.49288
1382,8.2997,3.2727,0,0.00037905,3787.9,0.00013251,0.00033535,0.00011236,-151.37,-0.0003814,-3861.3,0.49281
1383,8.2997,3.4545,0,0.00037929,3790.2,0.00013235,0.0023583,0.00011286,-146.44,-0.00038157,-3861.3,0.49266
1384,8.2997,3.6364,0,0.00037963,3793.7,0.00013211,0.0052363,0.00011357,-139.29,-0.00038181,-3861.4,0.49244
1385,8.2997,3.8182,0,0.00038006,3798,0.00013181,0.0087952,0.00011449,-130.17,-0.00038211,-3861.4,0.49214
1386,8.2997,4,0,0.00038058,3803.2,0.00013146,0.012814,0.00011557,-119.39,-0.00038247,-3861.4,0.49176
1387,8.2997,4.1818,0,0.00038116,3809,0.00013106,0.017042,0.00011677,-107.34,-0.00038287,-3861.5,0.49131
1388,8.2997,4.3636,0,0.00038178,3815.2,0.00013064,0.021217,0.00011807,-94.418,-0.0003833,-3861.5,0.49079
1389,8.2997,4.5455,0,0.00038244,3821.7,0.0001302,0.025087,0.00011941,-81.033,-0.00038375,-3861.6,0.49018
1390,8.2997,4.7273,0,0.0003831,3828.4,0.00012976,0.028408,0.00012076,-67.583,-0.00038421,-3861.7,0.4895
1391,8.2997,4.9091,0,0.00038377,3835,0.00012933,0.031091,0.00012208,-54.436,-0.00038467,-3862,0.48873
1392,8.2997,5.0909,0,0.00038442,3841.6,0.00012893,0.032834,0.00012335,-41.908,-0.00038512,-3862.4,0.48789
1393,8.2997,5.2727,0,0.00038506,3848,0.00012857,0.035013,0.00012454,-30.247,-0.00038557,-3863,0.48696
1394,8.2997,5.4545,0,0.00038568,3854.2,0.00012825,0.033909,0.00012563,-19.621,-0.00038601,-3863.9,0.48595
1395,8.2997,5.6364,0,0.0003863,3860.3,0.00012798,0.058388,0.00012663,-10.065,-0.00038647,-3865.3,0.48486
1396,8.2997,5.8182,0,0.000387,3867.4,0.0001278,0.286,0.00012759,-1.2526,-0.00038702,-3867.9,0.48369
1397,8.4844,0.18182,0,0.00038202,3817.5,0.00012615,0.31387,0.00012596,-1.107,-0.00038203,-3817.9,0.50417
1398,8.4844,0.36364,0,0.00038127,3810.1,0.00012631,0.054321,0.00012499,-9.8869,-0.00038144,-3815,0.50534
1399,8.4844,0.54545,0,0.00038063,3803.6,0.00012656,0.028676,0.000124,-19.155,-0.00038095,-3813.2,0.50642
1400,8.4844,0.72727,0,0.00037998,3797.2,0.00012684,0.02956,0.00012295,-29.228,-0.00038047,-3811.7,0.50742
1401,8.4844,0.90909,0,0.00037932,3790.6,0.00012716,0.027216,0.00012182,-40.081,-0.00037999,-3810.5,0.50834
1402,8.4844,1.0909,0,0.00037865,3783.9,0.0001275,0.025586,0.00012064,-51.572,-0.0003795,-3809.4,0.50917
1403,8.4844,1.2727,0,0.00037798,3777.2,0.00012787,0.023224,0.00011941,-63.491,-0.00037902,-3808.6,0.50993
1404,8.4844,1.4545,0,0.00037732,3770.6,0.00012824,0.020407,0.00011818,-75.57,-0.00037855,-3807.8,0.51061
1405,8.4844,1.6364,0,0.00037667,3764.1,0.00012861,0.017171,0.00011696,-87.504,-0.00037808,-3807.1,0.51121
1406,8.4844,1.8182,0,0.00037606,3758,0.00012897,0.013707,0.0001158,-98.957,-0.00037764,-3806.5,0.51174
1407,8.4844,2,0,0.00037549,3752.3,0.0001293,0.010212,0.00011472,-109.59,-0.00037724,-3805.9,0.51219
1408,8.4844,2.1818,0,0.00037499,3747.3,0.0001296,0.0068972,0.00011375,-119.06,-0.00037688,-3805.4,0.51256
1409,8.4844,2.3636,0,0.00037457,3743.1,0.00012985,0.0039647,0.00011294,-127.06,-0.00037657,-3805,0.51285
1410,8.4844,2.5455,0,0.00037424,3739.9,0.00013005,0.0015942,0.0001123,-133.31,-0.00037633,-3804.7,0.51308
1411,8.4844,2.7273,0,0.00037402,3737.6,0.00013018,-7.2385e-05,0.00011187,-137.61,-0.00037617,-3804.5,0.51322
1412,8.4844,2.9091,0,0.0003739,3736.5,0.00013025,-0.00093157,0.00011164,-139.8,-0.00037609,-3804.4,0.5133
1413,8.4844,3.0909,0,0.0003739,3736.5,0.00013025,-0.00093139,0.00011164,-139.8,-0.00037609,-3804.4,0.5133
1414,8.4844,3.2727,0,0.00037402,3737.6,0.00013018,-7.2263e-05,0.00011187,-137.61,-0.00037617,-3804.5,0.51322
1415,8.4844,3.4545,0,0.00037424,3739.9,0.00013005,0.0015939,0.0001123,-133.31,-0.00037633,-3804.7,0.51308
1416,8.4844,3.6364,0,0.00037457,3743.1,0.00012985,0.0039648,0.00011294,-127.06,-0.00037657,-3805,0.51285
1417,8.4844,3.8182,0,0.00037499,3747.3,0.0001296,0.0068968,0.00011375,-119.06,-0.00037688,-3805.4,0.51256
1418,8.4844,4,0,0.00037549,3752.3,0.0001293,0.010212,0.00011472,-109.59,-0.00037724,-3805.9,0.51219
1419,8.4844,4.1818,0,0.00037606,3758,0.00012897,0.013706,0.0001158,-98.957,-0.00037764,-3806.5,0.51174
1420,8.4844,4.3636,0,0.00037667,3764.1,0.00012861,0.01717,0.00011696,-87.504,-0.00037808,-3807.1,0.51121
1421,8.4844,4.5455,0,0.00037732,3770.6,0.00012824,0.020406,0.00011818,-75.57,-0.00037855,-3807.8,0.51061
1422,8.4844,4.7273,0,0.00037798,3777.2,0.00012787,0.023223,0.00011941,-63.491,-0.00037902,-3808.6,0.50993
1423,8.4844,4.9091,0,0.00037865,3783.9,0.0001275,0.025585,0.00012064,-51.572,-0.0003795,-3809.4,0.50917
1424,8.4844,5.0909,0,0.00037932,3790.6,0.00012716,0.027214,0.00012182,-40.081,-0.00037999,-3810.5,0.50834
1425,8.4844,5.2727,0,0.00037998,3797.2,0.00012684,0.029558,0.00012295,-29.228,-0.00038047,-3811.7,0.50742
1426,8.4844,5.4545,0,0.00038063,3803.6,0.00012656,0.028676,0.000124,-19.155,-0.00038095,-3813.2,0.50642
1427,8.4844,5.6364,0,0.00038127,3810.1,0.00012631,0.054321,0.00012499,-9.8869,-0.00038144,-3815,0.50534
1428,8.4844,5.8182,0,0.00038202,3817.5,0.00012615,0.31387,0.00012596,-1.107,-0.00038203,-3817.9,0.50417
1429,8.6691,0.18182,0,0.00037694,3766.8,0.00012447,0.38723,0.0001243,-0.85451,-0.00037695,-3767.1,0.52492
1430,8.6691,0.36364,0,0.00037618,3759.2,0.00012461,0.050634,0.00012335,-9.4526,-0.00037634,-3763.9,0.52607
1431,8.6691,0.54545,0,0.00037552,3752.6,0.00012483,0.024513,0.00012238,-18.378,-0.00037583,-3761.7,0.52714
1432,8.6691,0.72727,0,0.00037486,3746,0.00012509,0.025241,0.00012137,-27.892,-0.00037533,-3759.9,0.52813
1433,8.6691,0.90909,0,0.0003742,3739.4,0.00012536,0.022823,0.00012031,-37.983,-0.00037483,-3758.2,0.52904
1434,8.6691,1.0909,0,0.00037353,3732.7,0.00012566,0.0213,0.0001192,-48.526,-0.00037433,-3756.8,0.52987
1435,8.6691,1.2727,0,0.00037287,3726.1,0.00012598,0.019207,0.00011808,-59.344,-0.00037384,-3755.4,0.53063
1436,8.6691,1.4545,0,0.00037222,3719.6,0.00012629,0.016798,0.00011695,-70.211,-0.00037336,-3754.2,0.5313
1437,8.6691,1.6364,0,0.00037159,3713.3,0.00012661,0.014074,0.00011584,-80.871,-0.0003729,-3753.1,0.5319
1438,8.6691,1.8182,0,0.00037099,3707.4,0.00012691,0.011185,0.00011479,-91.043,-0.00037246,-3752.1,0.53242
1439,8.6691,2,0,0.00037045,3702,0.00012719,0.0082848,0.00011382,-100.44,-0.00037206,-3751.2,0.53287
1440,8.6691,2.1818,0,0.00036997,3697.2,0.00012744,0.0055415,0.00011296,-108.78,-0.0003717,-3750.4,0.53324
1441,8.6691,2.3636,0,0.00036957,3693.2,0.00012765,0.003118,0.00011224,-115.8,-0.00037141,-3749.7,0.53353
1442,8.6691,2.5455,0,0.00036926,3690,0.00012781,0.0011621,0.00011167,-121.29,-0.00037117,-3749.2,0.53375
1443,8.6691,2.7273,0,0.00036905,3687.9,0.00012793,-0.00021261,0.00011128,-125.05,-0.00037101,-3748.8,0.5339
1444,8.6691,2.9091,0,0.00036894,3686.8,0.00012798,-0.00092091,0.00011109,-126.96,-0.00037093,-3748.7,0.53397
1445,8.6691,3.0909,0,0.00036894,3686.8,0.00012798,-0.00092145,0.00011109,-126.96,-0.00037093,-3748.7,0.53397
1446,8.6691,3.2727,0,0.00036905,3687.9,0.00012793,-0.00021273,0.00011128,-125.05,-0.00037101,-3748.8,0.5339
1447,8.6691,3.4545,0,0.00036926,3690,0.00012781,0.0011622,0.00011167,-121.29,-0.00037117,-3749.2,0.53375
1448,8.6691,3.6364,0,0.00036957,3693.2,0.00012765,0.0031181,0.00011224,-115.8,-0.00037141,-3749.7,0.53353
1449,8.6691,3.8182,0,0.00036997,3697.2,0.00012744,0.0055412,0.00011296,-108.78,-0.0003717,-3750.4,0.53324
1450,8.6691,4,0,0.00037045,3702,0.00012719,0.0082846,0.00011382,-100.44,-0.00037206,-3751.2,0.53287
1451,8.6691,4.1818,0,0.00037099,3707.4,0.00012691,0.011185,0.00011479,-91.043,-0.00037246,-3752.1,0.53242
1452,8.6691,4.3636,0,0.00037159,3713.3,0.00012661,0.014073,0.00011584,-80.871,-0.0003729,-3753.1,0.5319
1453,8.6691,4.5455,0,0.00037222,3719.6,0.00012629,0.016797,0.00011695,-70.211,-0.00037336,-3754.2,0.5313
1454,8.6691,4.7273,0,0.00037287,3726.1,0.00012598,0.019206,0.00011808,-59.343,-0.00037384,-3755.4,0.53063
1455,8.6691,4.9091,0,0.00037353,3732.7,0.00012566,0.0213,0.0001192,-48.526,-0.00037433,-3756.8,0.52987
1456,8.6691,5.0909,0,0.0003742,3739.4,0.00012536,0.022821,0.00012031,-37.983,-0.00037483,-3758.2,0.52904
1457,8.6691,5.2727,0,0.00037486,3746,0.00012509,0.02524,0.00012137,-27.892,-0.00037533,-3759.9,0.52813
1458,8.6691,5.4545,0,0.00037552,3752.6,0.00012483,0.024512,0.00012238,-18.377,-0.00037583,-3761.7,0.52714
1459,8.6691,5.6364,0,0.00037618,3759.2,0.00012461,0.050633,0.00012335,-9.4526,-0.00037634,-3763.9,0.52607
1460,8.6691,5.8182,0,0.00037694,3766.8,0.00012447,0.38723,0.0001243,-0.8545,-0.00037695,-3767.1,0.52492
1461,8.8538,0.18182,0,0.00037182,3715.6,0.00012277,0.54546,0.00012262,-0.56958,-0.00037182,-3715.6,0.54592
1462,8.8538,0.36364,0,0.00037104,3707.9,0.00012288,0.047165,0.0001217,-8.823,-0.00037119,-3712.2,0.54706
1463,8.8538,0.54545,0,0.00037038,3701.2,0.00012309,0.021113,0.00012077,-17.366,-0.00037067,-3709.9,0.54812
1464,8.8538,0.72727,0,0.00036972,3694.7,0.00012331,0.021748,0.0001198,-26.326,-0.00037016,-3707.7,0.5491
1465,8.8538,0.90909,0,0.00036906,3688.1,0.00012356,0.019337,0.0001188,-35.698,-0.00036966,-3705.8,0.55001
1466,8.8538,1.0909,0,0.00036841,3681.5,0.00012382,0.017928,0.00011778,-45.375,-0.00036916,-3704,0.55083
1467,8.8538,1.2727,0,0.00036776,3675.1,0.00012409,0.01607,0.00011674,-55.205,-0.00036867,-3702.4,0.55158
1468,8.8538,1.4545,0,0.00036713,3668.8,0.00012436,0.014002,0.00011571,-64.999,-0.00036819,-3700.8,0.55225
1469,8.8538,1.6364,0,0.00036653,3662.7,0.00012463,0.011699,0.00011471,-74.54,-0.00036774,-3699.4,0.55284
1470,8.8538,1.8182,0,0.00036596,3657.1,0.00012488,0.0092807,0.00011376,-83.593,-0.00036731,-3698.1,0.55336
1471,8.8538,2,0,0.00036544,3651.9,0.00012512,0.0068672,0.00011289,-91.919,-0.00036692,-3697,0.5538
1472,8.8538,2.1818,0,0.00036499,3647.4,0.00012533,0.0045913,0.00011212,-99.282,-0.00036658,-3696,0.55417
1473,8.8538,2.3636,0,0.00036461,3643.6,0.00012551,0.0025853,0.00011147,-105.47,-0.00036629,-3695.2,0.55446
1474,8.8538,2.5455,0,0.00036432,3640.6,0.00012565,0.00096782,0.00011097,-110.28,-0.00036607,-3694.5,0.55468
1475,8.8538,2.7273,0,0.00036412,3638.6,0.00012574,-0.00016711,0.00011062,-113.58,-0.00036591,-3694.1,0.55482
1476,8.8538,2.9091,0,0.00036401,3637.6,0.00012579,-0.00075277,0.00011045,-115.26,-0.00036584,-3693.9,0.5549
1477,8.8538,3.0909,0,0.00036401,3637.6,0.00012579,-0.00075276,0.00011045,-115.26,-0.00036584,-3693.9,0.5549
1478,8.8538,3.2727,0,0.00036412,3638.6,0.00012574,-0.00016746,0.00011062,-113.58,-0.00036591,-3694.1,0.55482
1479,8.8538,3.4545,0,0.00036432,3640.6,0.00012565,0.00096807,0.00011097,-110.28,-0.00036607,-3694.5,0.55468
1480,8.8538,3.6364,0,0.00036461,3643.6,0.00012551,0.002585,0.00011147,-105.47,-0.00036629,-3695.2,0.55446
1481,8.8538,3.8182,0,0.00036499,3647.4,0.00012533,0.0045909,0.00011212,-99.282,-0.00036658,-3696,0.55417
1482,8.8538,4,0,0.00036544,3651.9,0.00012512,0.0068667,0.00011289,-91.919,-0.00036692,-3697,0.5538
1483,8.8538,4.1818,0,0.00036596,3657.1,0.00012488,0.0092807,0.00011376,-83.593,-0.00036731,-3698.1,0.55336
1484,8.8538,4.3636,0,0.00036653,3662.7,0.00012463,0.011698,0.00011471,-74.54,-0.00036774,-3699.4,0.55284
1485,8.8538,4.5455,0,0.00036713,3668.8,0.00012436,0.014001,0.00011571,-64.999,-0.00036819,-3700.8,0.55225
1486,8.8538,4.7273,0,0.00036776,3675.1,0.00012409,0.01607,0.00011674,-55.205,-0.00036867,-3702.4,0.55158
1487,8.8538,4.9091,0,0.00036841,3681.5,0.00012382,0.017928,0.00011778,-45.375,-0.00036916,-3704,0.55083
1488,8.8538,5.0909,0,0.00036906,3688.1,0.00012356,0.019336,0.0001188,-35.698,-0.00036966,-3705.8,0.55001
1489,8.8538,5.2727,0,0.00036972,3694.7,0.00012331,0.021746,0.0001198,-26.326,-0.00037016,-3707.7,0.5491
1490,8.8538,5.4545,0,0.00037038,3701.2,0.00012309,0.021112,0.00012077,-17.366,-0.00037067,-3709.9,0.54812
1491,8.8538,5.6364,0,0.00037104,3707.9,0.00012288,0.047164,0.0001217,-8.823,-0.00037119,-3712.2,0.54706
1492,8.8538,5.8182,0,0.00037182,3715.6,0.00012277,0.54546,0.00012262,-0.56957,-0.00037182,-3715.6,0.54592
1493,9.0385,0.18182,0,0.00036665,3664,0.00012108,0.8475,0.00012092,-0.34044,-0.00036664,-3663.7,0.56718
1494,9.0385,0.36364,0,0.00036587,3656.2,0.00012114,0.043852,0.00012006,-8.0481,-0.00036601,-3660.2,0.56831
1495,9.0385,0.54545,0,0.00036522,3649.6,0.00012132,0.018282,0.00011917,-16.183,-0.00036549,-3657.7,0.56936
1496,9.0385,0.72727,0,0.00036457,3643.2,0.00012153,0.018874,0.00011825,-24.6,-0.00036498,-3655.4,0.57033
1497,9.0385,0.90909,0,0.00036392,3636.7,0.00012174,0.016537,0.00011731,-33.297,-0.00036448,-3653.3,0.57122
1498,9.0385,1.0909,0,0.00036329,3630.4,0.00012197,0.015251,0.00011635,-42.181,-0.00036399,-3651.3,0.57204
1499,9.0385,1.2727,0,0.00036266,3624.1,0.0001222,0.013607,0.0001154,-51.124,-0.00036351,-3649.4,0.57278
1500,9.0385,1.4545,0,0.00036206,3618.1,0.00012244,0.011829,0.00011446,-59.966,-0.00036304,-3647.7,0.57344
1501,9.0385,1.6364,0,0.00036148,3612.3,0.00012267,0.0098788,0.00011355,-68.523,-0.0003626,-3646.1,0.57403
1502,9.0385,1.8182,0,0.00036094,3607,0.00012289,0.0078499,0.00011269,-76.599,-0.00036219,-3644.6,0.57454
1503,9.0385,2,0,0.00036046,3602.1,0.00012309,0.0058368,0.00011191,-83.993,-0.00036181,-3643.3,0.57498
1504,9.0385,2.1818,0,0.00036003,3597.8,0.00012327,0.0039453,0.00011122,-90.509,-0.00036148,-3642.2,0.57535
1505,9.0385,2.3636,0,0.00035967,3594.3,0.00012341,0.0022829,0.00011064,-95.966,-0.00036121,-3641.3,0.57564
1506,9.0385,2.5455,0,0.0003594,3591.5,0.00012353,0.00094408,0.00011019,-100.21,-0.000361,-3640.6,0.57586
1507,9.0385,2.7273,0,0.00035921,3589.6,0.00012361,4.3153e-06,0.00010989,-103.11,-0.00036086,-3640.1,0.576
1508,9.0385,2.9091,0,0.00035912,3588.7,0.00012365,-0.00047872,0.00010973,-104.58,-0.00036078,-3639.8,0.57607
1509,9.0385,3.0909,0,0.00035912,3588.7,0.00012365,-0.00047913,0.00010973,-104.58,-0.00036078,-3639.8,0.57607
1510,9.0385,3.2727,0,0.00035921,3589.6,0.00012361,4.6752e-06,0.00010989,-103.11,-0.00036086,-3640.1,0.576
1511,9.0385,3.4545,0,0.0003594,3591.5,0.00012353,0.00094438,0.00011019,-100.21,-0.000361,-3640.6,0.57586
1512,9.0385,3.6364,0,0.00035967,3594.3,0.00012341,0.002282,0.00011064,-95.966,-0.00036121,-3641.3,0.57564
1513,9.0385,3.8182,0,0.00036003,3597.8,0.00012327,0.0039451,0.00011122,-90.509,-0.00036148,-3642.2,0.57535
1514,9.0385,4,0,0.00036046,3602.1,0.00012309,0.0058371,0.00011191,-83.993,-0.00036181,-3643.3,0.57498
1515,9.0385,4.1818,0,0.00036094,3607,0.00012289,0.0078491,0.00011269,-76.599,-0.00036219,-3644.6,0.57454
1516,9.0385,4.3636,0,0.00036148,3612.3,0.00012267,0.0098787,0.00011355,-68.523,-0.0003626,-3646.1,0.57403
1517,9.0385,4.5455,0,0.00036206,3618.1,0.00012244,0.011828,0.00011446,-59.966,-0.00036304,-3647.7,0.57344
1518,9.0385,4.7273,0,0.00036266,3624.1,0.0001222,0.013605,0.0001154,-51.124,-0.00036351,-3649.4,0.57278
1519,9.0385,4.9091,0,0.00036329,3630.4,0.00012197,0.015251,0.00011635,-42.181,-0.00036399,-3651.3,0.57204
1520,9.0385,5.0909,0,0.00036392,3636.7,0.00012174,0.016534,0.00011731,-33.297,-0.00036448,-3653.3,0.57122
1521,9.0385,5.2727,0,0.00036457,3643.2,0.00012153,0.018873,0.00011825,-24.6,-0.00036498,-3655.4,0.57033
1522,9.0385,5.4545,0,0.00036522,3649.6,0.00012132,0.01828,0.00011917,-16.183,-0.00036549,-3657.7,0.56936
1523,9.0385,5.6364,0,0.00036587,3656.2,0.00012114,0.04385,0.00012006,-8.0481,-0.00036601,-3660.2,0.56831
1524,9.0385,5.8182,0,0.00036665,3664,0.00012108,0.84751,0.00012092,-0.34044,-0.00036664,-3663.7,0.56718
1525,9.2232,0.18182,0,0.00036146,3612.1,0.0001194,1.3056,0.0001192,-0.20351,-0.00036144,-3611.5,0.58868
1526,9.2232,0.36364,0,0.00036069,3604.4,0.00011939,0.040677,0.00011843,-7.1694,-0.00036081,-3608,0.5898
1527,9.2232,0.54545,0,0.00036004,3597.9,0.00011955,0.015886,0.00011757,-14.884,-0.00036029,-3605.4,0.59084
1528,9.2232,0.72727,0,0.00035941,3591.6,0.00011973,0.016475,0.0001167,-22.77,-0.00035979,-3603,0.5918
1529,9.2232,0.90909,0,0.00035879,3585.4,0.00011993,0.014261,0.00011582,-30.834,-0.0003593,-3600.7,0.59269
1530,9.2232,1.0909,0,0.00035817,3579.3,0.00012012,0.013107,0.00011493,-38.995,-0.00035882,-3598.6,0.59349
1531,9.2232,1.2727,0,0.00035758,3573.3,0.00012033,0.011659,0.00011405,-47.14,-0.00035835,-3596.6,0.59423
1532,9.2232,1.4545,0,0.000357,3567.5,0.00012053,0.010134,0.00011319,-55.135,-0.0003579,-3594.8,0.59489
1533,9.2232,1.6364,0,0.00035645,3562.1,0.00012073,0.0084824,0.00011237,-62.826,-0.00035748,-3593.1,0.59547
1534,9.2232,1.8182,0,0.00035595,3557,0.00012092,0.0067796,0.00011159,-70.047,-0.00035709,-3591.5,0.59598
1535,9.2232,2,0,0.00035549,3552.4,0.00012109,0.0050989,0.00011089,-76.63,-0.00035673,-3590.1,0.59641
1536,9.2232,2.1818,0,0.00035509,3548.4,0.00012124,0.0035254,0.00011027,-82.411,-0.00035642,-3588.9,0.59677
1537,9.2232,2.3636,0,0.00035476,3545.1,0.00012136,0.0021451,0.00010975,-87.239,-0.00035616,-3587.9,0.59706
1538,9.2232,2.5455,0,0.0003545,3542.6,0.00012146,0.0010376,0.00010935,-90.984,-0.00035596,-3587.2,0.59728
1539,9.2232,2.7273,0,0.00035433,3540.8,0.00012153,0.0002603,0.00010908,-93.542,-0.00035583,-3586.7,0.59742
1540,9.2232,2.9091,0,0.00035424,3539.9,0.00012156,-0.00014089,0.00010894,-94.839,-0.00035576,-3586.4,0.5975
1541,9.2232,3.0909,0,0.00035424,3539.9,0.00012156,-0.00014035,0.00010894,-94.839,-0.00035576,-3586.4,0.5975
1542,9.2232,3.2727,0,0.00035433,3540.8,0.00012153,0.00026,0.00010908,-93.542,-0.00035583,-3586.7,0.59742
1543,9.2232,3.4545,0,0.0003545,3542.6,0.00012146,0.0010365,0.00010935,-90.984,-0.00035596,-3587.2,0.59728
1544,9.2232,3.6364,0,0.00035476,3545.1,0.00012136,0.0021458,0.00010975,-87.239,-0.00035616,-3587.9,0.59706
1545,9.2232,3.8182,0,0.00035509,3548.4,0.00012124,0.0035253,0.00011027,-82.411,-0.00035642,-3588.9,0.59677
1546,9.2232,4,0,0.00035549,3552.4,0.00012109,0.0050984,0.00011089,-76.63,-0.00035673,-3590.1,0.59641
1547,9.2232,4.1818,0,0.00035595,3557,0.00012092,0.006779,0.00011159,-70.047,-0.00035709,-3591.5,0.59598
1548,9.2232,4.3636,0,0.00035645,3562.1,0.00012073,0.008482,0.00011237,-62.826,-0.00035748,-3593.1,0.59547
1549,9.2232,4.5455,0,0.000357,3567.5,0.00012053,0.010134,0.00011319,-55.135,-0.00035791,-3594.8,0.59489
1550,9.2232,4.7273,0,0.00035758,3573.3,0.00012033,0.011659,0.00011405,-47.14,-0.00035835,-3596.6,0.59423
1551,9.2232,4.9091,0,0.00035817,3579.3,0.00012012,0.013106,0.00011493,-38.995,-0.00035882,-3598.6,0.59349
1552,9.2232,5.0909,0,0.00035879,3585.4,0.00011993,0.01426,0.00011582,-30.834,-0.0003593,-3600.7,0.59269
1553,9.2232,5.2727,0,0.00035941,3591.6,0.00011973,0.016474,0.0001167,-22.77,-0.00035979,-3603,0.5918
1554,9.2232,5.4545,0,0.00036004,3597.9,0.00011955,0.015886,0.00011757,-14.884,-0.00036029,-3605.4,0.59084
1555,9.2232,5.6364,0,0.00036069,3604.4,0.00011939,0.040676,0.00011843,-7.1694,-0.00036081,-3608,0.5898
1556,9.2232,5.8182,0,0.00036146,3612.1,0.0001194,1.3057,0.0001192,-0.20351,-0.00036144,-3611.5,0.58868
1557,9.408,0.18182,0,0.00035625,3560.1,0.00011773,1.8714,0.00011746,-0.12994,-0.00035622,-3559.2,0.61043
1558,9.408,0.36364,0,0.00035549,3552.5,0.00011762,0.037652,0.00011679,-6.2204,-0.0003556,-3555.6,0.61154
1559,9.408,0.54545,0,0.00035487,3546.2,0.00011778,0.013837,0.00011598,-13.509,-0.00035509,-3552.9,0.61257
1560,9.408,0.72727,0,0.00035426,3540.1,0.00011794,0.014454,0.00011516,-20.884,-0.00035461,-3550.5,0.61352
1561,9.408,0.90909,0,0.00035366,3534.1,0.00011811,0.012401,0.00011433,-28.356,-0.00035413,-3548.2,0.61439
1562,9.408,1.0909,0,0.00035307,3528.2,0.00011828,0.011382,0.00011351,-35.854,-0.00035366,-3546,0.61519
1563,9.408,1.2727,0,0.0003525,3522.5,0.00011846,0.010119,0.0001127,-43.281,-0.00035321,-3544,0.61592
1564,9.408,1.4545,0,0.00035195,3517.1,0.00011864,0.0088146,0.00011191,-50.523,-0.00035278,-3542.1,0.61657
1565,9.408,1.6364,0,0.00035144,3511.9,0.00011881,0.0074169,0.00011116,-57.449,-0.00035238,-3540.3,0.61715
1566,9.408,1.8182,0,0.00035096,3507.2,0.00011897,0.0059879,0.00011046,-63.92,-0.000352,-3538.7,0.61765
1567,9.408,2,0,0.00035053,3502.9,0.00011912,0.004585,0.00010983,-69.795,-0.00035167,-3537.3,0.61809
1568,9.408,2.1818,0,0.00035016,3499.2,0.00011925,0.0032769,0.00010927,-74.937,-0.00035137,-3536,0.61844
1569,9.408,2.3636,0,0.00034985,3496.1,0.00011935,0.0021311,0.00010881,-79.22,-0.00035113,-3535,0.61873
1570,9.408,2.5455,0,0.00034961,3493.7,0.00011944,0.0012125,0.00010845,-82.536,-0.00035094,-3534.3,0.61895
1571,9.408,2.7273,0,0.00034945,3492.1,0.00011949,0.00056939,0.00010821,-84.797,-0.00035082,-3533.7,0.61909
1572,9.408,2.9091,0,0.00034937,3491.3,0.00011952,0.0002377,0.00010808,-85.943,-0.00035075,-3533.5,0.61916
1573,9.408,3.0909,0,0.00034937,3491.3,0.00011952,0.00023817,0.00010808,-85.943,-0.00035075,-3533.5,0.61916
1574,9.408,3.2727,0,0.00034945,3492.1,0.00011949,0.00056921,0.00010821,-84.797,-0.00035082,-3533.7,0.61909
1575,9.408,3.4545,0,0.00034961,3493.7,0.00011944,0.0012128,0.00010845,-82.536,-0.00035094,-3534.3,0.61895
1576,9.408,3.6364,0,0.00034985,3496.1,0.00011935,0.002131,0.00010881,-79.22,-0.00035113,-3535,0.61873
1577,9.408,3.8182,0,0.00035016,3499.2,0.00011925,0.0032757,0.00010927,-74.937,-0.00035137,-3536,0.61844
1578,9.408,4,0,0.00035053,3502.9,0.00011912,0.0045852,0.00010983,-69.795,-0.00035167,-3537.3,0.61809
1579,9.408,4.1818,0,0.00035096,3507.2,0.00011897,0.0059878,0.00011046,-63.92,-0.000352,-3538.7,0.61765
1580,9.408,4.3636,0,0.00035144,3511.9,0.00011881,0.0074164,0.00011116,-57.448,-0.00035238,-3540.3,0.61715
1581,9.408,4.5455,0,0.00035195,3517.1,0.00011864,0.0088141,0.00011191,-50.523,-0.00035278,-3542.1,0.61657
1582,9.408,4.7273,0,0.0003525,3522.5,0.00011846,0.010118,0.0001127,-43.281,-0.00035321,-3544,0.61592
1583,9.408,4.9091,0,0.00035307,3528.2,0.00011828,0.011381,0.00011351,-35.854,-0.00035366,-3546,0.61519
1584,9.408,5.0909,0,0.00035366,3534.1,0.00011811,0.0124,0.00011433,-28.356,-0.00035413,-3548.2,0.61439
1585,9.408,5.2727,0,0.00035426,3540.1,0.00011794,0.014453,0.00011516,-20.884,-0.00035461,-3550.5,0.61352
1586,9.408,5.4545,0,0.00035487,3546.2,0.00011778,0.013837,0.00011598,-13.509,-0.00035509,-3552.9,0.61257
1587,9.408,5.6364,0,0.00035549,3552.5,0.00011762,0.037651,0.00011679,-6.2204,-0.0003556,-3555.6,0.61154
1588,9.408,5.8182,0,0.00035625,3560.1,0.00011773,1.8714,0.00011746,-0.12994,-0.00035622,-3559.2,0.61043
1589,9.5927,0.18182,0,0.00035104,3508,0.00011606,2.4976,0.00011571,-0.088685,-0.000351,-3506.8,0.63243
1590,9.5927,0.36364,0,0.0003503,3500.6,0.00011586,0.034801,0.00011516,-5.228,-0.00035039,-3503.2,0.63352
1591,9.5927,0.54545,0,0.00034969,3494.5,0.000116,0.012068,0.00011439,-12.093,-0.0003499,-3500.5,0.63454
1592,9.5927,0.72727,0,0.00034911,3488.6,0.00011614,0.012739,0.00011362,-18.978,-0.00034942,-3498.1,0.63548
1593,9.5927,0.90909,0,0.00034853,3482.9,0.0001163,0.010872,0.00011285,-25.897,-0.00034896,-3495.8,0.63634
1594,9.5927,1.0909,0,0.00034797,3477.3,0.00011645,0.0099885,0.00011209,-32.788,-0.00034852,-3493.6,0.63714
1595,9.5927,1.2727,0,0.00034743,3471.9,0.00011661,0.0088968,0.00011134,-39.567,-0.00034809,-3491.5,0.63786
1596,9.5927,1.4545,0,0.00034691,3466.7,0.00011676,0.007788,0.00011062,-46.137,-0.00034768,-3489.6,0.6385
1597,9.5927,1.6364,0,0.00034643,3461.9,0.00011691,0.0066087,0.00010993,-52.386,-0.00034729,-3487.8,0.63907
1598,9.5927,1.8182,0,0.00034598,3457.5,0.00011705,0.0054128,0.0001093,-58.199,-0.00034694,-3486.2,0.63957
1599,9.5927,2,0,0.00034558,3453.5,0.00011717,0.0042427,0.00010873,-63.455,-0.00034662,-3484.8,0.64
1600,9.5927,2.1818,0,0.00034524,3450,0.00011728,0.0031537,0.00010823,-68.041,-0.00034635,-3483.5,0.64036
1601,9.5927,2.3636,0,0.00034495,3447.1,0.00011738,0.0022042,0.00010781,-71.851,-0.00034612,-3482.5,0.64064
1602,9.5927,2.5455,0,0.00034473,3444.9,0.00011745,0.0014433,0.00010749,-74.795,-0.00034594,-3481.7,0.64085
1603,9.5927,2.7273,0,0.00034458,3443.5,0.0001175,0.00091103,0.00010727,-76.799,-0.00034583,-3481.2,0.64099
1604,9.5927,2.9091,0,0.00034451,3442.7,0.00011752,0.00063679,0.00010716,-77.815,-0.00034577,-3480.9,0.64107
1605,9.5927,3.0909,0,0.00034451,3442.7,0.00011752,0.00063703,0.00010716,-77.815,-0.00034577,-3480.9,0.64107
1606,9.5927,3.2727,0,0.00034458,3443.5,0.0001175,0.00091104,0.00010727,-76.799,-0.00034583,-3481.2,0.64099
1607,9.5927,3.4545,0,0.00034473,3444.9,0.00011745,0.0014436,0.00010749,-74.795,-0.00034594,-3481.7,0.64085
1608,9.5927,3.6364,0,0.00034495,3447.1,0.00011738,0.0022036,0.00010781,-71.851,-0.00034612,-3482.5,0.64064
1609,9.5927,3.8182,0,0.00034524,3450,0.00011728,0.0031537,0.00010823,-68.041,-0.00034635,-3483.5,0.64036
1610,9.5927,4,0,0.00034558,3453.5,0.00011717,0.0042417,0.00010873,-63.455,-0.00034662,-3484.8,0.64
1611,9.5927,4.1818,0,0.00034598,3457.5,0.00011705,0.0054116,0.0001093,-58.199,-0.00034694,-3486.2,0.63957
1612,9.5927,4.3636,0,0.00034643,3461.9,0.00011691,0.0066087,0.00010993,-52.386,-0.00034729,-3487.8,0.63907
1613,9.5927,4.5455,0,0.00034691,3466.7,0.00011676,0.0077876,0.00011062,-46.137,-0.00034768,-3489.6,0.6385
1614,9.5927,4.7273,0,0.00034743,3471.9,0.00011661,0.0088952,0.00011134,-39.567,-0.00034809,-3491.5,0.63786
1615,9.5927,4.9091,0,0.00034797,3477.3,0.00011645,0.0099888,0.00011209,-32.788,-0.00034852,-3493.6,0.63714
1616,9.5927,5.0909,0,0.00034853,3482.9,0.0001163,0.01087,0.00011285,-25.897,-0.00034896,-3495.8,0.63634
1617,9.5927,5.2727,0,0.00034911,3488.6,0.00011614,0.012737,0.00011362,-18.978,-0.00034942,-3498.1,0.63548
1618,9.5927,5.4545,0,0.00034969,3494.5,0.000116,0.012069,0.00011439,-12.093,-0.0003499,-3500.5,0.63454
1619,9.5927,5.6364,0,0.0003503,3500.6,0.00011586,0.0348,0.00011516,-5.228,-0.00035039,-3503.2,0.63352
1620,9.5927,5.8182,0,0.00035104,3508,0.00011606,2.4976,0.00011571,-0.088685,-0.000351,-3506.8,0.63243
1621,9.7774,0.18182,0,0.00034583,3456,0.00011439,3.1556,0.00011396,-0.063746,-0.00034578,-3454.4,0.65466
1622,9.7774,0.36364,0,0.00034511,3448.7,0.0001141,0.032157,0.00011353,-4.2139,-0.00034518,-3450.8,0.65574
1623,9.7774,0.54545,0,0.00034453,3442.9,0.00011422,0.010518,0.0001128,-10.663,-0.00034471,-3448.2,0.65674
1624,9.7774,0.72727,0,0.00034396,3437.3,0.00011435,0.011258,0.00011208,-17.081,-0.00034425,-3445.8,0.65767
1625,9.7774,0.90909,0,0.00034341,3431.8,0.00011449,0.0095938,0.00011136,-23.485,-0.00034381,-3443.5,0.65853
1626,9.7774,1.0909,0,0.00034288,3426.5,0.00011463,0.008847,0.00011066,-29.82,-0.00034338,-3441.3,0.65932
1627,9.7774,1.2727,0,0.00034237,3421.4,0.00011476,0.0079133,0.00010997,-36.014,-0.00034297,-3439.2,0.66003
1628,9.7774,1.4545,0,0.00034189,3416.5,0.0001149,0.0069776,0.00010931,-41.983,-0.00034258,-3437.3,0.66067
1629,9.7774,1.6364,0,0.00034143,3412,0.00011502,0.0059877,0.00010868,-47.632,-0.00034222,-3435.5,0.66123
1630,9.7774,1.8182,0,0.00034102,3407.8,0.00011514,0.0049881,0.00010811,-52.864,-0.00034188,-3433.9,0.66173
1631,9.7774,2,0,0.00034064,3404.1,0.00011525,0.0040145,0.00010759,-57.578,-0.00034159,-3432.5,0.66215
1632,9.7774,2.1818,0,0.00034032,3400.9,0.00011535,0.003111,0.00010714,-61.679,-0.00034133,-3431.3,0.6625
1633,9.7774,2.3636,0,0.00034006,3398.2,0.00011543,0.0023241,0.00010677,-65.077,-0.00034112,-3430.3,0.66278
1634,9.7774,2.5455,0,0.00033985,3396.2,0.00011549,0.0016945,0.00010648,-67.698,-0.00034096,-3429.5,0.66299
1635,9.7774,2.7273,0,0.00033972,3394.8,0.00011553,0.0012539,0.00010628,-69.48,-0.00034085,-3429,0.66313
1636,9.7774,2.9091,0,0.00033965,3394.1,0.00011555,0.0010279,0.00010618,-70.382,-0.00034079,-3428.8,0.66321
1637,9.7774,3.0909,0,0.00033965,3394.1,0.00011555,0.0010283,0.00010618,-70.382,-0.00034079,-3428.8,0.66321
1638,9.7774,3.2727,0,0.00033972,3394.8,0.00011553,0.0012544,0.00010628,-69.48,-0.00034085,-3429,0.66313
1639,9.7774,3.4545,0,0.00033985,3396.2,0.00011549,0.0016946,0.00010648,-67.698,-0.00034096,-3429.5,0.66299
1640,9.7774,3.6364,0,0.00034006,3398.2,0.00011543,0.0023244,0.00010677,-65.077,-0.00034112,-3430.3,0.66278
1641,9.7774,3.8182,0,0.00034032,3400.9,0.00011535,0.0031103,0.00010714,-61.679,-0.00034133,-3431.3,0.6625
1642,9.7774,4,0,0.00034064,3404.1,0.00011525,0.0040152,0.00010759,-57.578,-0.00034159,-3432.5,0.66215
1643,9.7774,4.1818,0,0.00034102,3407.8,0.00011514,0.0049877,0.00010811,-52.864,-0.00034188,-3433.9,0.66173
1644,9.7774,4.3636,0,0.00034143,3412,0.00011502,0.0059868,0.00010868,-47.632,-0.00034222,-3435.5,0.66123
1645,9.7774,4.5455,0,0.00034189,3416.5,0.0001149,0.0069774,0.00010931,-41.983,-0.00034258,-3437.3,0.66067
1646,9.7774,4.7273,0,0.00034237,3421.4,0.00011476,0.0079127,0.00010997,-36.014,-0.00034297,-3439.2,0.66003
1647,9.7774,4.9091,0,0.00034288,3426.5,0.00011463,0.0088466,0.00011066,-29.819,-0.00034338,-3441.3,0.65932
1648,9.7774,5.0909,0,0.00034341,3431.8,0.00011449,0.009592,0.00011136,-23.485,-0.00034381,-3443.5,0.65853
1649,9.7774,5.2727,0,0.00034396,3437.3,0.00011435,0.011257,0.00011208,-17.08,-0.00034425,-3445.8,0.65767
1650,9.7774,5.4545,0,0.00034453,3442.9,0.00011422,0.010518,0.0001128,-10.663,-0.00034471,-3448.2,0.65674
1651,9.7774,5.6364,0,0.00034511,3448.7,0.0001141,0.032156,0.00011353,-4.2138,-0.00034518,-3450.8,0.65574
1652,9.7774,5.8182,0,0.00034583,3456,0.00011439,3.1556,0.00011396,-0.063746,-0.00034578,-3454.4,0.65466
1653,9.9621,0.18182,0,0.00034063,3404,0.00011273,3.8278,0.00011222,-0.047632,-0.00034057,-3402.1,0.67713
1654,9.9621,0.36364,0,0.00033993,3396.9,0.00011234,0.029823,0.00011191,-3.1948,-0.00033998,-3398.5,0.67819
1655,9.9621,0.54545,0,0.00033937,3391.3,0.00011245,0.0091598,0.00011122,-9.2392,-0.00033952,-3395.9,0.67919
1656,9.9621,0.72727,0,0.00033883,3386,0.00011257,0.0099866,0.00011054,-15.213,-0.00033909,-3393.6,0.68011
1657,9.9621,0.90909,0,0.00033831,3380.8,0.00011269,0.0085325,0.00010987,-21.138,-0.00033866,-3391.3,0.68095
1658,9.9621,1.0909,0,0.00033781,3375.7,0.00011281,0.0079177,0.00010922,-26.964,-0.00033826,-3389.1,0.68173
1659,9.9621,1.2727,0,0.00033732,3370.9,0.00011293,0.0071302,0.00010859,-32.629,-0.00033787,-3387.1,0.68243
1660,9.9621,1.4545,0,0.00033687,3366.4,0.00011305,0.0063479,0.00010798,-38.059,-0.0003375,-3385.2,0.68306
1661,9.9621,1.6364,0,0.00033644,3362.1,0.00011316,0.0055212,0.00010741,-43.176,-0.00033716,-3383.5,0.68362
1662,9.9621,1.8182,0,0.00033606,3358.2,0.00011326,0.0046906,0.00010689,-47.896,-0.00033684,-3381.9,0.68411
1663,9.9621,2,0,0.00033571,3354.8,0.00011336,0.003883,0.00010642,-52.134,-0.00033657,-3380.5,0.68453
1664,9.9621,2.1818,0,0.00033541,3351.8,0.00011344,0.0031337,0.00010601,-55.809,-0.00033633,-3379.4,0.68488
1665,9.9621,2.3636,0,0.00033517,3349.4,0.00011351,0.0024839,0.00010567,-58.848,-0.00033613,-3378.4,0.68516
1666,9.9621,2.5455,0,0.00033498,3347.5,0.00011356,0.0019639,0.00010542,-61.187,-0.00033598,-3377.6,0.68537
1667,9.9621,2.7273,0,0.00033485,3346.2,0.0001136,0.0016003,0.00010524,-62.776,-0.00033587,-3377.1,0.68551
1668,9.9621,2.9091,0,0.00033479,3345.6,0.00011361,0.0014133,0.00010515,-63.579,-0.00033582,-3376.9,0.68558
1669,9.9621,3.0909,0,0.00033479,3345.6,0.00011361,0.0014132,0.00010515,-63.579,-0.00033582,-3376.9,0.68558
1670,9.9621,3.2727,0,0.00033485,3346.2,0.0001136,0.0016,0.00010524,-62.776,-0.00033587,-3377.1,0.68551
1671,9.9621,3.4545,0,0.00033498,3347.5,0.00011356,0.0019636,0.00010542,-61.187,-0.00033598,-3377.6,0.68537
1672,9.9621,3.6364,0,0.00033517,3349.4,0.00011351,0.0024837,0.00010567,-58.848,-0.00033613,-3378.4,0.68516
1673,9.9621,3.8182,0,0.00033541,3351.8,0.00011344,0.0031345,0.00010601,-55.809,-0.00033633,-3379.4,0.68488
1674,9.9621,4,0,0.00033571,3354.8,0.00011336,0.003882,0.00010642,-52.134,-0.00033657,-3380.5,0.68453
1675,9.9621,4.1818,0,0.00033606,3358.2,0.00011326,0.0046897,0.00010689,-47.896,-0.00033684,-3381.9,0.68411
1676,9.9621,4.3636,0,0.00033644,3362.1,0.00011316,0.0055213,0.00010741,-43.176,-0.00033716,-3383.5,0.68362
1677,9.9621,4.5455,0,0.00033687,3366.4,0.00011305,0.006347,0.00010798,-38.059,-0.0003375,-3385.2,0.68306
1678,9.9621,4.7273,0,0.00033732,3370.9,0.00011293,0.0071293,0.00010859,-32.628,-0.00033787,-3387.1,0.68243
1679,9.9621,4.9091,0,0.00033781,3375.7,0.00011281,0.0079173,0.00010922,-26.964,-0.00033826,-3389.1,0.68173
1680,9.9621,5.0909,0,0.00033831,3380.8,0.00011269,0.0085307,0.00010987,-21.138,-0.00033866,-3391.3,0.68095
1681,9.9621,5.2727,0,0.00033883,3386,0.00011257,0.0099851,0.00011054,-15.213,-0.00033909,-3393.6,0.68011
1682,9.9621,5.4545,0,0.00033937,3391.3,0.00011245,0.0091592,0.00011122,-9.2391,-0.00033952,-3395.9,0.67919
1683,9.9621,5.6364,0,0.00033993,3396.9,0.00011234,0.029822,0.00011191,-3.1948,-0.00033998,-3398.5,0.67819
1684,9.9621,5.8182,0,0.00034063,3404,0.00011273,3.8278,0.00011222,-0.047633,-0.00034057,-3402.1,0.67713
1685,10.147,0.18182,0,0.00033544,3352.1,0.00011107,4.5027,0.00011047,-0.036634,-0.00033537,-3349.9,0.69982
1686,10.147,0.36364,0,0.00033476,3345.2,0.00011058,0.028081,0.00011029,-2.1841,-0.00033479,-3346.3,0.70088
1687,10.147,0.54545,0,0.00033422,3339.9,0.00011068,0.0080025,0.00010964,-7.8383,-0.00033435,-3343.8,0.70186
1688,10.147,0.72727,0,0.00033371,3334.8,0.00011079,0.00893,0.000109,-13.393,-0.00033394,-3341.5,0.70277
1689,10.147,0.90909,0,0.00033322,3329.9,0.0001109,0.0076879,0.00010838,-18.872,-0.00033353,-3339.3,0.70361
1690,10.147,1.0909,0,0.00033274,3325.1,0.000111,0.0071989,0.00010778,-24.231,-0.00033315,-3337.2,0.70437
1691,10.147,1.2727,0,0.00033229,3320.6,0.00011111,0.0065451,0.00010719,-29.416,-0.00033278,-3335.2,0.70507
1692,10.147,1.4545,0,0.00033186,3316.3,0.00011121,0.0058982,0.00010664,-34.364,-0.00033243,-3333.4,0.70569
1693,10.147,1.6364,0,0.00033146,3312.3,0.00011131,0.005213,0.00010612,-39.006,-0.00033211,-3331.7,0.70625
1694,10.147,1.8182,0,0.0003311,3308.7,0.0001114,0.0045255,0.00010564,-43.272,-0.00033182,-3330.1,0.70673
1695,10.147,2,0,0.00033078,3305.5,0.00011148,0.0038584,0.00010521,-47.09,-0.00033156,-3328.8,0.70715
1696,10.147,2.1818,0,0.0003305,3302.8,0.00011155,0.0032404,0.00010485,-50.393,-0.00033133,-3327.7,0.70749
1697,10.147,2.3636,0,0.00033028,3300.5,0.00011161,0.0027039,0.00010454,-53.118,-0.00033115,-3326.7,0.70777
1698,10.147,2.5455,0,0.0003301,3298.8,0.00011166,0.0022755,0.00010431,-55.211,-0.00033101,-3326,0.70797
1699,10.147,2.7273,0,0.00032999,3297.6,0.00011169,0.0019765,0.00010415,-56.632,-0.00033091,-3325.5,0.70811
1700,10.147,2.9091,0,0.00032993,3297,0.0001117,0.0018222,0.00010407,-57.349,-0.00033086,-3325.3,0.70818
1701,10.147,3.0909,0,0.00032993,3297,0.0001117,0.0018218,0.00010407,-57.349,-0.00033086,-3325.3,0.70818
1702,10.147,3.2727,0,0.00032999,3297.6,0.00011169,0.001977,0.00010415,-56.632,-0.00033091,-3325.5,0.70811
1703,10.147,3.4545,0,0.0003301,3298.8,0.00011166,0.0022755,0.00010431,-55.211,-0.00033101,-3326,0.70797
1704,10.147,3.6364,0,0.00033028,3300.5,0.00011161,0.0027037,0.00010454,-53.118,-0.00033115,-3326.7,0.70777
1705,10.147,3.8182,0,0.0003305,3302.8,0.00011155,0.00324,0.00010485,-50.393,-0.00033133,-3327.7,0.70749
1706,10.147,4,0,0.00033078,3305.5,0.00011148,0.0038585,0.00010521,-47.09,-0.00033156,-3328.8,0.70715
1707,10.147,4.1818,0,0.0003311,3308.7,0.0001114,0.0045249,0.00010564,-43.272,-0.00033182,-3330.1,0.70673
1708,10.147,4.3636,0,0.00033146,3312.3,0.00011131,0.0052134,0.00010612,-39.006,-0.00033211,-3331.7,0.70625
1709,10.147,4.5455,0,0.00033186,3316.3,0.00011121,0.0058976,0.00010664,-34.364,-0.00033243,-3333.4,0.70569
1710,10.147,4.7273,0,0.00033229,3320.6,0.00011111,0.0065445,0.00010719,-29.416,-0.00033278,-3335.2,0.70507
1711,10.147,4.9091,0,0.00033274,3325.1,0.000111,0.0071983,0.00010778,-24.231,-0.00033315,-3337.2,0.70437
1712,10.147,5.0909,0,0.00033322,3329.9,0.0001109,0.0076865,0.00010838,-18.872,-0.00033353,-3339.3,0.70361
1713,10.147,5.2727,0,0.00033371,3334.8,0.00011079,0.0089287,0.000109,-13.393,-0.00033394,-3341.5,0.70277
1714,10.147,5.4545,0,0.00033422,3339.9,0.00011068,0.0080017,0.00010964,-7.8382,-0.00033436,-3343.8,0.70186
1715,10.147,5.6364,0,0.00033476,3345.2,0.00011058,0.028081,0.00011029,-2.1841,-0.00033479,-3346.3,0.70088
1716,10.147,5.8182,0,0.00033544,3352.1,0.00011107,4.5027,0.00011047,-0.036634,-0.00033537,-3349.9,0.69982
1717,10.331,0.18182,0,0.00033027,3300.4,0.00010942,5.1722,0.00010873,-0.028853,-0.00033018,-3297.8,0.72275
1718,10.331,0.36364,0,0.0003296,3293.7,0.00010883,0.027879,0.00010867,-1.1925,-0.00032962,-3294.3,0.72379
1719,10.331,0.54545,0,0.00032909,3288.6,0.00010892,0.006973,0.00010806,-6.4719,-0.0003292,-3291.9,0.72476
1720,10.331,0.72727,0,0.00032861,3283.8,0.00010902,0.0080138,0.00010747,-11.632,-0.0003288,-3289.6,0.72566
1721,10.331,0.90909,0,0.00032814,3279.1,0.00010911,0.00698,0.00010689,-16.697,-0.00032842,-3287.4,0.72649
1722,10.331,1.0909,0,0.00032769,3274.6,0.00010921,0.0066064,0.00010633,-21.628,-0.00032805,-3285.4,0.72724
1723,10.331,1.2727,0,0.00032726,3270.4,0.0001093,0.0060736,0.00010579,-26.378,-0.0003277,-3283.5,0.72793
1724,10.331,1.4545,0,0.00032686,3266.4,0.00010939,0.0055459,0.00010528,-30.891,-0.00032738,-3281.7,0.72855
1725,10.331,1.6364,0,0.00032649,3262.7,0.00010948,0.0049837,0.0001048,-35.11,-0.00032707,-3280.1,0.7291
1726,10.331,1.8182,0,0.00032615,3259.3,0.00010956,0.0044183,0.00010437,-38.973,-0.0003268,-3278.6,0.72958
1727,10.331,2,0,0.00032585,3256.3,0.00010963,0.0038692,0.00010398,-42.42,-0.00032656,-3277.3,0.72998
1728,10.331,2.1818,0,0.0003256,3253.7,0.00010969,0.0033617,0.00010365,-45.395,-0.00032635,-3276.2,0.73033
1729,10.331,2.3636,0,0.00032539,3251.6,0.00010974,0.0029204,0.00010337,-47.844,-0.00032618,-3275.3,0.7306
1730,10.331,2.5455,0,0.00032523,3250,0.00010978,0.0025689,0.00010316,-49.722,-0.00032605,-3274.6,0.7308
1731,10.331,2.7273,0,0.00032512,3249,0.00010981,0.0023233,0.00010302,-50.995,-0.00032596,-3274.1,0.73094
1732,10.331,2.9091,0,0.00032506,3248.4,0.00010982,0.0021967,0.00010295,-51.638,-0.00032591,-3273.9,0.73101
1733,10.331,3.0909,0,0.00032506,3248.4,0.00010982,0.0021963,0.00010295,-51.638,-0.00032591,-3273.9,0.73101
1734,10.331,3.2727,0,0.00032512,3249,0.00010981,0.0023226,0.00010302,-50.995,-0.00032596,-3274.1,0.73094
1735,10.331,3.4545,0,0.00032523,3250,0.00010978,0.0025693,0.00010316,-49.722,-0.00032605,-3274.6,0.7308
1736,10.331,3.6364,0,0.00032539,3251.6,0.00010974,0.0029202,0.00010337,-47.844,-0.00032618,-3275.3,0.7306
1737,10.331,3.8182,0,0.0003256,3253.7,0.00010969,0.0033613,0.00010365,-45.395,-0.00032635,-3276.2,0.73033
1738,10.331,4,0,0.00032585,3256.3,0.00010963,0.0038692,0.00010398,-42.42,-0.00032656,-3277.3,0.72998
1739,10.331,4.1818,0,0.00032615,3259.3,0.00010956,0.0044175,0.00010437,-38.973,-0.0003268,-3278.6,0.72958
1740,10.331,4.3636,0,0.00032649,3262.7,0.00010948,0.0049827,0.0001048,-35.11,-0.00032707,-3280.1,0.7291
1741,10.331,4.5455,0,0.00032686,3266.4,0.00010939,0.0055448,0.00010528,-30.891,-0.00032738,-3281.7,0.72855
1742,10.331,4.7273,0,0.00032726,3270.4,0.0001093,0.0060733,0.00010579,-26.378,-0.0003277,-3283.5,0.72793
1743,10.331,4.9091,0,0.00032769,3274.6,0.00010921,0.006606,0.00010633,-21.628,-0.00032805,-3285.4,0.72724
1744,10.331,5.0909,0,0.00032814,3279.1,0.00010911,0.0069784,0.00010689,-16.697,-0.00032842,-3287.4,0.72649
1745,10.331,5.2727,0,0.00032861,3283.8,0.00010902,0.0080124,0.00010747,-11.632,-0.0003288,-3289.6,0.72566
1746,10.331,5.4545,0,0.00032909,3288.6,0.00010892,0.0069733,0.00010806,-6.4718,-0.0003292,-3291.9,0.72476
1747,10.331,5.6364,0,0.0003296,3293.7,0.00010883,0.027879,0.00010867,-1.1925,-0.00032962,-3294.3,0.72379
1748,10.331,5.8182,0,0.00033027,3300.4,0.00010942,5.1722,0.00010873,-0.028853,-0.00033018,-3297.8,0.72275
1749,10.516,0.18182,0,0.00032511,3248.8,0.00010777,5.8307,0.000107,-0.023199,-0.00032501,-3245.9,0.7459
1750,10.516,0.36364,0,0.00032446,3242.3,0.00010709,0.044101,0.00010705,-0.24237,-0.00032446,-3242.4,0.74693
1751,10.516,0.54545,0,0.00032397,3237.5,0.00010717,0.0060456,0.00010648,-5.1487,-0.00032406,-3240.1,0.74789
1752,10.516,0.72727,0,0.00032351,3232.9,0.00010725,0.0072075,0.00010593,-9.9381,-0.00032368,-3237.9,0.74877
1753,10.516,0.90909,0,0.00032307,3228.5,0.00010734,0.0063707,0.00010539,-14.619,-0.00032332,-3235.8,0.74959
1754,10.516,1.0909,0,0.00032265,3224.3,0.00010742,0.006101,0.00010487,-19.158,-0.00032297,-3233.8,0.75034
1755,10.516,1.2727,0,0.00032225,3220.3,0.0001075,0.0056752,0.00010437,-23.512,-0.00032264,-3231.9,0.75102
1756,10.516,1.4545,0,0.00032187,3216.5,0.00010758,0.0052497,0.00010391,-27.634,-0.00032233,-3230.2,0.75163
1757,10.516,1.6364,0,0.00032153,3213,0.00010766,0.0047925,0.00010347,-31.473,-0.00032205,-3228.7,0.75217
1758,10.516,1.8182,0,0.00032121,3209.9,0.00010773,0.0043314,0.00010307,-34.978,-0.00032179,-3227.2,0.75264
1759,10.516,2,0,0.00032093,3207.1,0.00010779,0.0038828,0.00010272,-38.097,-0.00032156,-3226,0.75305
1760,10.516,2.1818,0,0.0003207,3204.8,0.00010784,0.0034676,0.00010242,-40.781,-0.00032137,-3224.9,0.75338
1761,10.516,2.3636,0,0.0003205,3202.8,0.00010789,0.0031063,0.00010217,-42.988,-0.00032121,-3224.1,0.75365
1762,10.516,2.5455,0,0.00032035,3201.3,0.00010792,0.0028187,0.00010198,-44.678,-0.00032109,-3223.4,0.75386
1763,10.516,2.7273,0,0.00032025,3200.3,0.00010795,0.0026177,0.00010185,-45.821,-0.00032101,-3223,0.75399
1764,10.516,2.9091,0,0.0003202,3199.8,0.00010796,0.0025132,0.00010178,-46.399,-0.00032097,-3222.8,0.75406
1765,10.516,3.0909,0,0.0003202,3199.8,0.00010796,0.0025138,0.00010178,-46.399,-0.00032097,-3222.8,0.75406
1766,10.516,3.2727,0,0.00032025,3200.3,0.00010795,0.0026178,0.00010185,-45.821,-0.00032101,-3223,0.75399
1767,10.516,3.4545,0,0.00032035,3201.3,0.00010792,0.002818,0.00010198,-44.677,-0.00032109,-3223.4,0.75386
1768,10.516,3.6364,0,0.0003205,3202.8,0.00010789,0.0031065,0.00010217,-42.988,-0.00032121,-3224.1,0.75365
1769,10.516,3.8182,0,0.0003207,3204.8,0.00010784,0.0034674,0.00010242,-40.781,-0.00032137,-3224.9,0.75338
1770,10.516,4,0,0.00032093,3207.1,0.00010779,0.0038829,0.00010272,-38.097,-0.00032157,-3226,0.75305
1771,10.516,4.1818,0,0.00032121,3209.9,0.00010773,0.0043309,0.00010307,-34.978,-0.00032179,-3227.2,0.75264
1772,10.516,4.3636,0,0.00032153,3213,0.00010766,0.0047922,0.00010347,-31.473,-0.00032205,-3228.7,0.75217
1773,10.516,4.5455,0,0.00032187,3216.5,0.00010758,0.0052494,0.00010391,-27.634,-0.00032233,-3230.2,0.75163
1774,10.516,4.7273,0,0.00032225,3220.3,0.0001075,0.0056742,0.00010437,-23.512,-0.00032264,-3231.9,0.75102
1775,10.516,4.9091,0,0.00032265,3224.3,0.00010742,0.0061012,0.00010487,-19.158,-0.00032297,-3233.8,0.75034
1776,10.516,5.0909,0,0.00032307,3228.5,0.00010734,0.0063685,0.00010539,-14.619,-0.00032332,-3235.8,0.74959
1777,10.516,5.2727,0,0.00032352,3232.9,0.00010725,0.0072064,0.00010593,-9.9381,-0.00032368,-3237.9,0.74877
1778,10.516,5.4545,0,0.00032397,3237.5,0.00010717,0.0060455,0.00010648,-5.1486,-0.00032406,-3240.1,0.74789
1779,10.516,5.6364,0,0.00032446,3242.3,0.00010709,0.044104,0.00010705,-0.24236,-0.00032446,-3242.4,0.74693
1780,10.516,5.8182,0,0.00032511,3248.8,0.00010777,5.8307,0.000107,-0.023199,-0.00032501,-3245.9,0.7459
1781,10.701,0.18182,0,0.00031997,3197.5,0.00010613,6.4745,0.00010527,-0.01892,-0.00031986,-3194.2,0.76928
1782,10.701,0.36364,0,0.00031933,3191.1,0.00010544,0.72896,0.00010534,0.0092991,-0.00031932,-3190.8,0.77029
1783,10.701,0.54545,0,0.00031887,3186.5,0.00010542,0.0053142,0.0001049,-3.8744,-0.00031894,-3188.5,0.77123
1784,10.701,0.72727,0,0.00031844,3182.2,0.0001055,0.0065977,0.00010439,-8.3166,-0.00031858,-3186.3,0.77211
1785,10.701,0.90909,0,0.00031802,3178,0.00010557,0.0059371,0.00010389,-12.642,-0.00031823,-3184.3,0.77292
1786,10.701,1.0909,0,0.00031762,3174,0.00010565,0.005756,0.00010341,-16.821,-0.00031791,-3182.4,0.77365
1787,10.701,1.2727,0,0.00031725,3170.3,0.00010572,0.0054207,0.00010295,-20.815,-0.00031759,-3180.6,0.77432
1788,10.701,1.4545,0,0.00031689,3166.7,0.00010579,0.0050825,0.00010252,-24.583,-0.0003173,-3179,0.77493
1789,10.701,1.6364,0,0.00031657,3163.5,0.00010586,0.0047127,0.00010212,-28.082,-0.00031704,-3177.5,0.77546
1790,10.701,1.8182,0,0.00031628,3160.6,0.00010592,0.0043398,0.00010175,-31.267,-0.0003168,-3176.1,0.77593
1791,10.701,2,0,0.00031602,3158,0.00010597,0.003975,0.00010143,-34.094,-0.00031658,-3174.9,0.77633
1792,10.701,2.1818,0,0.0003158,3155.8,0.00010602,0.0036365,0.00010116,-36.522,-0.0003164,-3173.9,0.77666
1793,10.701,2.3636,0,0.00031562,3154,0.00010606,0.0033432,0.00010093,-38.514,-0.00031625,-3173.1,0.77693
1794,10.701,2.5455,0,0.00031548,3152.6,0.00010609,0.0031081,0.00010076,-40.037,-0.00031614,-3172.4,0.77713
1795,10.701,2.7273,0,0.00031539,3151.7,0.00010611,0.0029445,0.00010064,-41.068,-0.00031607,-3172,0.77726
1796,10.701,2.9091,0,0.00031534,3151.2,0.00010612,0.0028602,0.00010058,-41.587,-0.00031603,-3171.8,0.77733
1797,10.701,3.0909,0,0.00031534,3151.2,0.00010612,0.0028597,0.00010058,-41.587,-0.00031603,-3171.8,0.77733
1798,10.701,3.2727,0,0.00031539,3151.7,0.00010611,0.0029435,0.00010064,-41.068,-0.00031607,-3172,0.77726
1799,10.701,3.4545,0,0.00031548,3152.6,0.00010609,0.0031084,0.00010076,-40.037,-0.00031614,-3172.4,0.77713
1800,10.701,3.6364,0,0.00031562,3154,0.00010606,0.0033425,0.00010093,-38.514,-0.00031625,-3173.1,0.77693
1801,10.701,3.8182,0,0.0003158,3155.8,0.00010602,0.0036361,0.00010116,-36.522,-0.0003164,-3173.9,0.77666
1802,10.701,4,0,0.00031602,3158,0.00010597,0.0039746,0.00010143,-34.094,-0.00031658,-3174.9,0.77633
1803,10.701,4.1818,0,0.00031628,3160.6,0.00010592,0.0043388,0.00010175,-31.267,-0.0003168,-3176.1,0.77593
1804,10.701,4.3636,0,0.00031657,3163.5,0.00010586,0.0047127,0.00010212,-28.082,-0.00031704,-3177.5,0.77546
1805,10.701,4.5455,0,0.00031689,3166.7,0.00010579,0.0050817,0.00010252,-24.583,-0.0003173,-3179,0.77493
1806,10.701,4.7273,0,0.00031725,3170.3,0.00010572,0.0054203,0.00010295,-20.815,-0.00031759,-3180.6,0.77432
1807,10.701,4.9091,0,0.00031762,3174,0.00010565,0.0057547,0.00010341,-16.821,-0.00031791,-3182.4,0.77365
1808,10.701,5.0909,0,0.00031802,3178,0.00010557,0.0059356,0.00010389,-12.642,-0.00031823,-3184.3,0.77292
1809,10.701,5.2727,0,0.00031844,3182.2,0.0001055,0.006596,0.00010439,-8.3166,-0.00031858,-3186.3,0.77211
1810,10.701,5.4545,0,0.00031887,3186.5,0.00010542,0.0053134,0.0001049,-3.8743,-0.00031894,-3188.5,0.77123
1811,10.701,5.6364,0,0.00031933,3191.1,0.00010544,0.72897,0.00010534,0.0092979,-0.00031932,-3190.8,0.77029
1812,10.701,5.8182,0,0.00031997,3197.5,0.00010613,6.4745,0.00010527,-0.01892,-0.00031986,-3194.2,0.76928
1813,10.886,0.18182,0,0.00031484,3146.3,0.00010449,7.1008,0.00010355,-0.015645,-0.00031472,-3142.7,0.79287
1814,10.886,0.36364,0,0.00031423,3140.1,0.00010383,1.6292,0.00010362,0.012106,-0.0003142,-3139.3,0.79387
1815,10.886,0.54545,0,0.00031379,3135.7,0.00010368,0.0047781,0.00010333,-2.6529,-0.00031384,-3137.1,0.7948
1816,10.886,0.72727,0,0.00031338,3131.6,0.00010375,0.0061451,0.00010285,-6.7708,-0.00031349,-3135,0.79566
1817,10.886,0.90909,0,0.00031298,3127.7,0.00010382,0.0056245,0.00010238,-10.767,-0.00031317,-3133.1,0.79646
1818,10.886,1.0909,0,0.00031261,3123.9,0.00010388,0.0055079,0.00010194,-14.615,-0.00031285,-3131.2,0.79718
1819,10.886,1.2727,0,0.00031225,3120.4,0.00010395,0.005246,0.00010151,-18.281,-0.00031256,-3129.5,0.79785
1820,10.886,1.4545,0,0.00031192,3117.1,0.00010401,0.0049781,0.00010112,-21.73,-0.00031229,-3127.9,0.79844
1821,10.886,1.6364,0,0.00031162,3114.1,0.00010407,0.0046812,0.00010075,-24.922,-0.00031204,-3126.4,0.79897
1822,10.886,1.8182,0,0.00031135,3111.3,0.00010412,0.0043795,0.00010042,-27.821,-0.00031181,-3125.2,0.79943
1823,10.886,2,0,0.00031111,3108.9,0.00010417,0.0040852,0.00010012,-30.388,-0.00031161,-3124,0.79983
1824,10.886,2.1818,0,0.0003109,3106.9,0.00010421,0.0038106,9.9871e-05,-32.588,-0.00031144,-3123,0.80015
1825,10.886,2.3636,0,0.00031074,3105.2,0.00010424,0.0035718,9.9664e-05,-34.39,-0.00031131,-3122.3,0.80042
1826,10.886,2.5455,0,0.00031061,3103.9,0.00010427,0.0033817,9.9507e-05,-35.767,-0.0003112,-3121.7,0.80061
1827,10.886,2.7273,0,0.00031052,3103.1,0.00010429,0.003249,9.9401e-05,-36.697,-0.00031113,-3121.3,0.80075
1828,10.886,2.9091,0,0.00031048,3102.6,0.00010429,0.0031791,9.9347e-05,-37.166,-0.00031109,-3121.1,0.80081
1829,10.886,3.0909,0,0.00031048,3102.6,0.00010429,0.00318,9.9347e-05,-37.166,-0.00031109,-3121.1,0.80081
1830,10.886,3.2727,0,0.00031052,3103.1,0.00010429,0.0032489,9.9401e-05,-36.697,-0.00031113,-3121.3,0.80075
1831,10.886,3.4545,0,0.00031061,3103.9,0.00010427,0.003382,9.9507e-05,-35.767,-0.0003112,-3121.7,0.80061
1832,10.886,3.6364,0,0.00031074,3105.2,0.00010424,0.0035718,9.9664e-05,-34.39,-0.00031131,-3122.3,0.80042
1833,10.886,3.8182,0,0.0003109,3106.9,0.00010421,0.0038097,9.9871e-05,-32.588,-0.00031144,-3123,0.80015
1834,10.886,4,0,0.00031111,3108.9,0.00010417,0.0040839,0.00010012,-30.388,-0.00031161,-3124,0.79983
1835,10.886,4.1818,0,0.00031135,3111.3,0.00010412,0.0043801,0.00010042,-27.821,-0.00031181,-3125.2,0.79943
1836,10.886,4.3636,0,0.00031162,3114.1,0.00010407,0.0046801,0.00010075,-24.922,-0.00031204,-3126.4,0.79897
1837,10.886,4.5455,0,0.00031192,3117.1,0.00010401,0.0049775,0.00010112,-21.73,-0.00031229,-3127.9,0.79844
1838,10.886,4.7273,0,0.00031225,3120.4,0.00010395,0.0052448,0.00010151,-18.281,-0.00031256,-3129.5,0.79785
1839,10.886,4.9091,0,0.00031261,3123.9,0.00010388,0.0055077,0.00010194,-14.615,-0.00031285,-3131.2,0.79718
1840,10.886,5.0909,0,0.00031298,3127.7,0.00010382,0.0056231,0.00010238,-10.767,-0.00031317,-3133.1,0.79646
1841,10.886,5.2727,0,0.00031338,3131.6,0.00010375,0.0061443,0.00010285,-6.7707,-0.00031349,-3135,0.79566
1842,10.886,5.4545,0,0.00031379,3135.7,0.00010368,0.0047778,0.00010333,-2.6529,-0.00031384,-3137.1,0.7948
1843,10.886,5.6364,0,0.00031423,3140.1,0.00010383,1.6292,0.00010362,0.012105,-0.0003142,-3139.3,0.79387
1844,10.886,5.8182,0,0.00031484,3146.3,0.00010449,7.1008,0.00010355,-0.015646,-0.00031472,-3142.7,0.79287
1845,11.07,0.18182,0,0.00030974,3095.3,0.00010286,7.7079,0.00010183,-0.013096,-0.00030961,-3091.4,0.81667
1846,11.07,0.36364,0,0.00030914,3089.3,0.00010222,2.4972,0.00010189,0.011478,-0.0003091,-3088,0.81766
1847,11.07,0.54545,0,0.00030873,3085.1,0.00010195,0.0046926,0.00010176,-1.4867,-0.00030875,-3085.9,0.81857
1848,11.07,0.72727,0,0.00030834,3081.2,0.00010201,0.0059009,0.00010131,-5.3017,-0.00030843,-3083.9,0.81943
1849,11.07,0.90909,0,0.00030796,3077.5,0.00010207,0.0054482,0.00010088,-8.9934,-0.00030811,-3082,0.82021
1850,11.07,1.0909,0,0.00030761,3074,0.00010213,0.0053619,0.00010046,-12.538,-0.00030782,-3080.2,0.82093
1851,11.07,1.2727,0,0.00030728,3070.6,0.00010219,0.0051481,0.00010007,-15.905,-0.00030754,-3078.6,0.82158
1852,11.07,1.4545,0,0.00030697,3067.5,0.00010224,0.0049322,9.9704e-05,-19.063,-0.00030729,-3077,0.82217
1853,11.07,1.6364,0,0.00030668,3064.7,0.00010229,0.004692,9.9367e-05,-21.98,-0.00030705,-3075.6,0.82269
1854,11.07,1.8182,0,0.00030643,3062.2,0.00010234,0.0044488,9.9061e-05,-24.621,-0.00030684,-3074.4,0.82314
1855,11.07,2,0,0.0003062,3059.9,0.00010238,0.0042101,9.8792e-05,-26.956,-0.00030665,-3073.3,0.82353
1856,11.07,2.1818,0,0.00030601,3058,0.00010242,0.0039883,9.8561e-05,-28.953,-0.0003065,-3072.4,0.82386
1857,11.07,2.3636,0,0.00030586,3056.5,0.00010244,0.0037941,9.8373e-05,-30.587,-0.00030637,-3071.6,0.82412
1858,11.07,2.5455,0,0.00030574,3055.3,0.00010247,0.0036409,9.823e-05,-31.833,-0.00030627,-3071.1,0.82431
1859,11.07,2.7273,0,0.00030566,3054.5,0.00010248,0.0035324,9.8133e-05,-32.675,-0.0003062,-3070.7,0.82444
1860,11.07,2.9091,0,0.00030562,3054.1,0.00010249,0.0034767,9.8084e-05,-33.098,-0.00030617,-3070.5,0.82451
1861,11.07,3.0909,0,0.00030562,3054.1,0.00010249,0.0034761,9.8084e-05,-33.098,-0.00030617,-3070.5,0.82451
1862,11.07,3.2727,0,0.00030566,3054.5,0.00010248,0.003533,9.8133e-05,-32.675,-0.0003062,-3070.7,0.82444
1863,11.07,3.4545,0,0.00030574,3055.3,0.00010247,0.00364,9.823e-05,-31.833,-0.00030627,-3071.1,0.82431
1864,11.07,3.6364,0,0.00030586,3056.5,0.00010244,0.0037946,9.8373e-05,-30.587,-0.00030637,-3071.6,0.82412
1865,11.07,3.8182,0,0.00030601,3058,0.00010242,0.0039877,9.8561e-05,-28.953,-0.0003065,-3072.4,0.82386
1866,11.07,4,0,0.0003062,3059.9,0.00010238,0.0042097,9.8792e-05,-26.956,-0.00030665,-3073.3,0.82353
1867,11.07,4.1818,0,0.00030643,3062.2,0.00010234,0.004448,9.9061e-05,-24.621,-0.00030684,-3074.4,0.82314
1868,11.07,4.3636,0,0.00030668,3064.7,0.00010229,0.0046932,9.9367e-05,-21.98,-0.00030705,-3075.6,0.82269
1869,11.07,4.5455,0,0.00030697,3067.5,0.00010224,0.0049315,9.9704e-05,-19.063,-0.00030729,-3077,0.82217
1870,11.07,4.7273,0,0.00030728,3070.6,0.00010219,0.0051483,0.00010007,-15.905,-0.00030754,-3078.6,0.82158
1871,11.07,4.9091,0,0.00030761,3074,0.00010213,0.0053605,0.00010046,-12.538,-0.00030782,-3080.2,0.82093
1872,11.07,5.0909,0,0.00030796,3077.5,0.00010207,0.0054468,0.00010088,-8.9934,-0.00030811,-3082,0.82021
1873,11.07,5.2727,0,0.00030834,3081.2,0.00010201,0.0059002,0.00010131,-5.3017,-0.00030843,-3083.9,0.81943
1874,11.07,5.4545,0,0.00030873,3085.1,0.00010195,0.0046921,0.00010176,-1.4866,-0.00030875,-3085.9,0.81857
1875,11.07,5.6364,0,0.00030914,3089.3,0.00010222,2.4972,0.00010189,0.011477,-0.0003091,-3088,0.81766
1876,11.07,5.8182,0,0.00030974,3095.3,0.00010286,7.7079,0.00010183,-0.013097,-0.00030961,-3091.4,0.81667
1877,11.255,0.18182,0,0.00030466,3044.5,0.00010123,8.2949,0.00010012,-0.011043,-0.00030451,-3040.3,0.84069
1878,11.255,0.36364,0,0.00030407,3038.6,0.00010062,3.3293,0.00010018,0.010284,-0.00030402,-3037,0.84166
1879,11.255,0.54545,0,0.00030368,3034.7,0.00010023,0.0082924,0.00010018,-0.37933,-0.00030368,-3034.9,0.84256
1880,11.255,0.72727,0,0.00030331,3031,0.00010029,0.0060314,9.9765e-05,-3.9092,-0.00030338,-3032.9,0.8434
1881,11.255,0.90909,0,0.00030296,3027.5,0.00010034,0.0054819,9.9364e-05,-7.3189,-0.00030308,-3031.1,0.84417
1882,11.255,1.0909,0,0.00030262,3024.1,0.00010039,0.0053674,9.898e-05,-10.584,-0.0003028,-3029.4,0.84488
1883,11.255,1.2727,0,0.00030231,3021,0.00010044,0.0051712,9.8618e-05,-13.678,-0.00030254,-3027.8,0.84553
1884,11.255,1.4545,0,0.00030202,3018.1,0.00010049,0.0049858,9.828e-05,-16.573,-0.0003023,-3026.4,0.84611
1885,11.255,1.6364,0,0.00030175,3015.5,0.00010053,0.0047851,9.7969e-05,-19.24,-0.00030208,-3025,0.84662
1886,11.255,1.8182,0,0.00030152,3013.1,0.00010057,0.0045842,9.7689e-05,-21.651,-0.00030188,-3023.8,0.84707
1887,11.255,2,0,0.00030131,3011,0.00010061,0.0043889,9.7442e-05,-23.777,-0.0003017,-3022.8,0.84745
1888,11.255,2.1818,0,0.00030113,3009.2,0.00010064,0.0042071,9.7231e-05,-25.594,-0.00030156,-3021.9,0.84777
1889,11.255,2.3636,0,0.00030098,3007.8,0.00010066,0.0040499,9.7059e-05,-27.077,-0.00030144,-3021.2,0.84803
1890,11.255,2.5455,0,0.00030087,3006.7,0.00010068,0.0039251,9.6928e-05,-28.207,-0.00030134,-3020.7,0.84822
1891,11.255,2.7273,0,0.0003008,3005.9,0.0001007,0.0038376,9.684e-05,-28.97,-0.00030128,-3020.3,0.84835
1892,11.255,2.9091,0,0.00030076,3005.6,0.0001007,0.0037922,9.6795e-05,-29.354,-0.00030125,-3020.1,0.84841
1893,11.255,3.0909,0,0.00030076,3005.6,0.0001007,0.003792,9.6795e-05,-29.354,-0.00030125,-3020.1,0.84841
1894,11.255,3.2727,0,0.0003008,3005.9,0.0001007,0.0038373,9.684e-05,-28.97,-0.00030128,-3020.3,0.84835
1895,11.255,3.4545,0,0.00030087,3006.7,0.00010068,0.0039257,9.6928e-05,-28.207,-0.00030134,-3020.7,0.84822
1896,11.255,3.6364,0,0.00030098,3007.8,0.00010066,0.0040496,9.7059e-05,-27.077,-0.00030144,-3021.2,0.84803
1897,11.255,3.8182,0,0.00030113,3009.2,0.00010064,0.004207,9.7231e-05,-25.594,-0.00030156,-3021.9,0.84777
1898,11.255,4,0,0.00030131,3011,0.00010061,0.0043883,9.7442e-05,-23.777,-0.0003017,-3022.8,0.84745
1899,11.255,4.1818,0,0.00030152,3013.1,0.00010057,0.0045833,9.7689e-05,-21.651,-0.00030188,-3023.8,0.84707
1900,11.255,4.3636,0,0.00030175,3015.5,0.00010053,0.0047835,9.7969e-05,-19.24,-0.00030208,-3025,0.84662
1901,11.255,4.5455,0,0.00030202,3018.1,0.00010049,0.0049845,9.828e-05,-16.573,-0.0003023,-3026.4,0.84611
1902,11.255,4.7273,0,0.00030231,3021,0.00010044,0.0051701,9.8618e-05,-13.678,-0.00030254,-3027.8,0.84553
1903,11.255,4.9091,0,0.00030262,3024.1,0.00010039,0.0053668,9.898e-05,-10.584,-0.0003028,-3029.4,0.84488
1904,11.255,5.0909,0,0.00030296,3027.5,0.00010034,0.0054798,9.9364e-05,-7.3189,-0.00030308,-3031.1,0.84417
1905,11.255,5.2727,0,0.00030331,3031,0.00010029,0.0060304,9.9765e-05,-3.9091,-0.00030338,-3032.9,0.8434
1906,11.255,5.4545,0,0.00030368,3034.7,0.00010023,0.0082914,0.00010018,-0.3793,-0.00030368,-3034.9,0.84256
1907,11.255,5.6364,0,0.00030407,3038.6,0.00010062,3.3293,0.00010018,0.010284,-0.00030402,-3037,0.84166
1908,11.255,5.8182,0,0.00030466,3044.5,0.00010123,8.2949,0.00010012,-0.011043,-0.00030451,-3040.3,0.84069
1909,11.44,0.18182,0,0.00029959,2993.9,9.9606e-05,8.8614,9.8426e-05,-0.0094049,-0.00029944,-2989.4,0.86491
1910,11.44,0.36364,0,0.00029902,2988.2,9.9022e-05,4.1247,9.8474e-05,0.008925,-0.00029895,-2986.1,0.86586
1911,11.44,0.54545,0,0.00029865,2984.4,9.8612e-05,0.68581,9.852e-05,-0.001151,-0.00029864,-2984.1,0.86676
1912,11.44,0.72727,0,0.0002983,2980.9,9.8568e-05,0.0068564,9.8222e-05,-2.5923,-0.00029834,-2982.2,0.86758
1913,11.44,0.90909,0,0.00029797,2977.6,9.8614e-05,0.0057484,9.7849e-05,-5.741,-0.00029806,-2980.5,0.86835
1914,11.44,1.0909,0,0.00029765,2974.5,9.8658e-05,0.0054985,9.7493e-05,-8.7497,-0.0002978,-2978.8,0.86904
1915,11.44,1.2727,0,0.00029736,2971.5,9.8702e-05,0.0052704,9.7158e-05,-11.594,-0.00029755,-2977.3,0.86968
1916,11.44,1.4545,0,0.00029708,2968.8,9.8743e-05,0.0050867,9.6846e-05,-14.25,-0.00029732,-2975.9,0.87025
1917,11.44,1.6364,0,0.00029683,2966.3,9.8781e-05,0.0049041,9.6559e-05,-16.691,-0.00029711,-2974.6,0.87076
1918,11.44,1.8182,0,0.00029661,2964.1,9.8817e-05,0.0047313,9.6301e-05,-18.893,-0.00029693,-2973.5,0.8712
1919,11.44,2,0,0.00029642,2962.1,9.8848e-05,0.0045652,9.6074e-05,-20.833,-0.00029676,-2972.5,0.87158
1920,11.44,2.1818,0,0.00029625,2960.5,9.8875e-05,0.0044156,9.5881e-05,-22.487,-0.00029663,-2971.6,0.87189
1921,11.44,2.3636,0,0.00029612,2959.1,9.8897e-05,0.0042851,9.5724e-05,-23.836,-0.00029651,-2971,0.87215
1922,11.44,2.5455,0,0.00029601,2958.1,9.8914e-05,0.0041829,9.5604e-05,-24.863,-0.00029643,-2970.4,0.87234
1923,11.44,2.7273,0,0.00029594,2957.4,9.8925e-05,0.0041111,9.5523e-05,-25.555,-0.00029637,-2970.1,0.87246
1924,11.44,2.9091,0,0.00029591,2957.1,9.8931e-05,0.0040739,9.5483e-05,-25.903,-0.00029634,-2969.9,0.87253
1925,11.44,3.0909,0,0.00029591,2957.1,9.8931e-05,0.0040737,9.5483e-05,-25.903,-0.00029634,-2969.9,0.87253
1926,11.44,3.2727,0,0.00029594,2957.4,9.8925e-05,0.0041114,9.5523e-05,-25.555,-0.00029637,-2970.1,0.87246
1927,11.44,3.4545,0,0.00029601,2958.1,9.8914e-05,0.0041824,9.5604e-05,-24.863,-0.00029643,-2970.4,0.87234
1928,11.44,3.6364,0,0.00029612,2959.1,9.8897e-05,0.0042848,9.5724e-05,-23.836,-0.00029651,-2971,0.87215
1929,11.44,3.8182,0,0.00029625,2960.5,9.8875e-05,0.0044147,9.5881e-05,-22.487,-0.00029663,-2971.6,0.87189
1930,11.44,4,0,0.00029642,2962.1,9.8848e-05,0.0045657,9.6075e-05,-20.833,-0.00029676,-2972.5,0.87158
1931,11.44,4.1818,0,0.00029661,2964.1,9.8817e-05,0.0047302,9.6301e-05,-18.893,-0.00029693,-2973.5,0.8712
1932,11.44,4.3636,0,0.00029683,2966.3,9.8781e-05,0.0049051,9.6559e-05,-16.691,-0.00029711,-2974.6,0.87076
1933,11.44,4.5455,0,0.00029708,2968.8,9.8743e-05,0.0050864,9.6846e-05,-14.25,-0.00029732,-2975.9,0.87025
1934,11.44,4.7273,0,0.00029736,2971.5,9.8702e-05,0.0052699,9.7158e-05,-11.594,-0.00029755,-2977.3,0.86968
1935,11.44,4.9091,0,0.00029765,2974.5,9.8659e-05,0.0054974,9.7493e-05,-8.7496,-0.0002978,-2978.8,0.86904
1936,11.44,5.0909,0,0.00029797,2977.6,9.8614e-05,0.0057463,9.7849e-05,-5.741,-0.00029806,-2980.5,0.86835
1937,11.44,5.2727,0,0.0002983,2980.9,9.8568e-05,0.0068557,9.8222e-05,-2.5923,-0.00029834,-2982.2,0.86758
1938,11.44,5.4545,0,0.00029865,2984.4,9.8612e-05,0.68585,9.852e-05,-0.0011497,-0.00029864,-2984.1,0.86676
1939,11.44,5.6364,0,0.00029902,2988.2,9.9022e-05,4.1247,9.8474e-05,0.0089242,-0.00029895,-2986.1,0.86586
1940,11.44,5.8182,0,0.00029959,2993.9,9.9606e-05,8.8614,9.8426e-05,-0.0094065,-0.00029944,-2989.4,0.86491
1941,11.624,0.18182,0,0.00029455,2943.5,9.7988e-05,9.4075,9.6735e-05,-0.0080862,-0.00029439,-2938.8,0.88933
1942,11.624,0.36364,0,0.000294,2937.9,9.7426e-05,4.8836,9.6777e-05,0.0075355,-0.00029391,-2935.5,0.89027
1943,11.624,0.54545,0,0.00029364,2934.4,9.7042e-05,1.6862,9.6817e-05,0.0001859,-0.00029361,-2933.5,0.89115
1944,11.624,0.72727,0,0.00029331,2931,9.6859e-05,0.01007,9.6678e-05,-1.3505,-0.00029333,-2931.7,0.89197
1945,11.624,0.90909,0,0.00029299,2927.9,9.6899e-05,0.0064329,9.6331e-05,-4.256,-0.00029306,-2930,0.89272
1946,11.624,1.0909,0,0.00029269,2924.9,9.6938e-05,0.0058156,9.6001e-05,-7.0286,-0.00029281,-2928.4,0.89341
1947,11.624,1.2727,0,0.00029242,2922.1,9.6975e-05,0.0054747,9.5691e-05,-9.6447,-0.00029258,-2927,0.89403
1948,11.624,1.4545,0,0.00029216,2919.6,9.7011e-05,0.0052504,9.5402e-05,-12.082,-0.00029236,-2925.6,0.89459
1949,11.624,1.6364,0,0.00029193,2917.2,9.7044e-05,0.0050618,9.5138e-05,-14.319,-0.00029217,-2924.4,0.89509
1950,11.624,1.8182,0,0.00029172,2915.2,9.7075e-05,0.0048966,9.49e-05,-16.333,-0.00029199,-2923.3,0.89553
1951,11.624,2,0,0.00029153,2913.3,9.7102e-05,0.0047488,9.4692e-05,-18.103,-0.00029184,-2922.3,0.89591
1952,11.624,2.1818,0,0.00029138,2911.8,9.7125e-05,0.0046164,9.4515e-05,-19.612,-0.00029171,-2921.5,0.89622
1953,11.624,2.3636,0,0.00029125,2910.5,9.7144e-05,0.0045062,9.437e-05,-20.84,-0.0002916,-2920.9,0.89647
1954,11.624,2.5455,0,0.00029116,2909.6,9.7159e-05,0.0044192,9.426e-05,-21.775,-0.00029152,-2920.4,0.89665
1955,11.624,2.7273,0,0.00029109,2908.9,9.7169e-05,0.0043588,9.4187e-05,-22.404,-0.00029147,-2920.1,0.89678
1956,11.624,2.9091,0,0.00029106,2908.6,9.7174e-05,0.0043276,9.4149e-05,-22.721,-0.00029144,-2919.9,0.89684
1957,11.624,3.0909,0,0.00029106,2908.6,9.7174e-05,0.0043272,9.4149e-05,-22.721,-0.00029144,-2919.9,0.89684
1958,11.624,3.2727,0,0.00029109,2908.9,9.7169e-05,0.004359,9.4187e-05,-22.404,-0.00029147,-2920.1,0.89678
1959,11.624,3.4545,0,0.00029116,2909.6,9.7159e-05,0.0044192,9.426e-05,-21.775,-0.00029152,-2920.4,0.89665
1960,11.624,3.6364,0,0.00029125,2910.5,9.7144e-05,0.0045055,9.437e-05,-20.84,-0.0002916,-2920.9,0.89647
1961,11.624,3.8182,0,0.00029138,2911.8,9.7125e-05,0.0046163,9.4515e-05,-19.612,-0.00029171,-2921.5,0.89622
1962,11.624,4,0,0.00029153,2913.3,9.7102e-05,0.0047484,9.4692e-05,-18.103,-0.00029184,-2922.3,0.89591
1963,11.624,4.1818,0,0.00029172,2915.2,9.7075e-05,0.0048967,9.49e-05,-16.333,-0.00029199,-2923.3,0.89553
1964,11.624,4.3636,0,0.00029193,2917.2,9.7044e-05,0.0050618,9.5138e-05,-14.319,-0.00029217,-2924.4,0.89509
1965,11.624,4.5455,0,0.00029216,2919.6,9.7011e-05,0.0052501,9.5402e-05,-12.082,-0.00029236,-2925.6,0.89459
1966,11.624,4.7273,0,0.00029242,2922.1,9.6975e-05,0.005474,9.5691e-05,-9.6447,-0.00029258,-2927,0.89403
1967,11.624,4.9091,0,0.00029269,2924.9,9.6938e-05,0.0058144,9.6001e-05,-7.0285,-0.00029281,-2928.4,0.89341
1968,11.624,5.0909,0,0.00029299,2927.9,9.6899e-05,0.0064325,9.6331e-05,-4.2559,-0.00029306,-2930,0.89272
1969,11.624,5.2727,0,0.00029331,2931,9.6859e-05,0.01007,9.6678e-05,-1.3505,-0.00029333,-2931.7,0.89197
1970,11.624,5.4545,0,0.00029364,2934.4,9.7042e-05,1.6863,9.6817e-05,0.0001866,-0.00029361,-2933.5,0.89115
1971,11.624,5.6364,0,0.000294,2937.9,9.7426e-05,4.8837,9.6777e-05,0.0075352,-0.00029391,-2935.5,0.89027
1972,11.624,5.8182,0,0.00029455,2943.5,9.7988e-05,9.4075,9.6735e-05,-0.0080869,-0.00029439,-2938.8,0.88933
1973,11.809,0.18182,0,0.00028953,2893.3,9.6375e-05,9.9335,9.5052e-05,-0.0070218,-0.00028936,-2888.3,0.91396
1974,11.809,0.36364,0,0.00028899,2887.9,9.5834e-05,5.607,9.5088e-05,0.0061639,-0.00028889,-2885.1,0.91488
1975,11.809,0.54545,0,0.00028865,2884.5,9.5474e-05,2.6356,9.5123e-05,0.00012918,-0.0002886,-2883.2,0.91575
1976,11.809,0.72727,0,0.00028833,2881.3,9.5164e-05,0.050138,9.5129e-05,-0.21564,-0.00028833,-2881.4,0.91655
1977,11.809,0.90909,0,0.00028803,2878.3,9.5193e-05,0.0080453,9.4812e-05,-2.8603,-0.00028808,-2879.8,0.91729
1978,11.809,1.0909,0,0.00028775,2875.5,9.5227e-05,0.0064316,9.4505e-05,-5.4151,-0.00028784,-2878.2,0.91797
1979,11.809,1.2727,0,0.00028749,2872.9,9.526e-05,0.0058249,9.4218e-05,-7.8219,-0.00028762,-2876.8,0.91859
1980,11.809,1.4545,0,0.00028725,2870.5,9.529e-05,0.0054939,9.3951e-05,-10.06,-0.00028742,-2875.5,0.91914
1981,11.809,1.6364,0,0.00028703,2868.3,9.5319e-05,0.0052613,9.3707e-05,-12.111,-0.00028723,-2874.3,0.91963
1982,11.809,1.8182,0,0.00028683,2866.3,9.5346e-05,0.0050818,9.3488e-05,-13.954,-0.00028707,-2873.3,0.92006
1983,11.809,2,0,0.00028666,2864.6,9.5369e-05,0.0049336,9.3296e-05,-15.573,-0.00028692,-2872.4,0.92043
1984,11.809,2.1818,0,0.00028652,2863.2,9.5389e-05,0.0048091,9.3133e-05,-16.949,-0.0002868,-2871.6,0.92074
1985,11.809,2.3636,0,0.0002864,2862,9.5405e-05,0.0047069,9.3e-05,-18.07,-0.0002867,-2871,0.92098
1986,11.809,2.5455,0,0.00028631,2861.1,9.5418e-05,0.0046312,9.2899e-05,-18.921,-0.00028663,-2870.5,0.92117
1987,11.809,2.7273,0,0.00028625,2860.5,9.5427e-05,0.0045773,9.2831e-05,-19.494,-0.00028658,-2870.2,0.92129
1988,11.809,2.9091,0,0.00028622,2860.2,9.5431e-05,0.0045506,9.2797e-05,-19.783,-0.00028655,-2870.1,0.92135
1989,11.809,3.0909,0,0.00028622,2860.2,9.5431e-05,0.0045504,9.2797e-05,-19.783,-0.00028655,-2870.1,0.92135
1990,11.809,3.2727,0,0.00028625,2860.5,9.5427e-05,0.0045768,9.2831e-05,-19.494,-0.00028658,-2870.2,0.92129
1991,11.809,3.4545,0,0.00028631,2861.1,9.5418e-05,0.0046306,9.2899e-05,-18.921,-0.00028663,-2870.5,0.92117
1992,11.809,3.6364,0,0.0002864,2862,9.5405e-05,0.0047076,9.3e-05,-18.07,-0.0002867,-2871,0.92098
1993,11.809,3.8182,0,0.00028652,2863.2,9.5389e-05,0.0048088,9.3133e-05,-16.949,-0.0002868,-2871.6,0.92074
1994,11.809,4,0,0.00028666,2864.6,9.5369e-05,0.004933,9.3296e-05,-15.573,-0.00028692,-2872.4,0.92043
1995,11.809,4.1818,0,0.00028683,2866.3,9.5346e-05,0.0050811,9.3488e-05,-13.954,-0.00028707,-2873.3,0.92006
1996,11.809,4.3636,0,0.00028703,2868.3,9.5319e-05,0.0052622,9.3707e-05,-12.111,-0.00028723,-2874.3,0.91963
1997,11.809,4.5455,0,0.00028725,2870.5,9.529e-05,0.0054932,9.3951e-05,-10.06,-0.00028742,-2875.5,0.91914
1998,11.809,4.7273,0,0.00028749,2872.9,9.526e-05,0.0058234,9.4218e-05,-7.8219,-0.00028762,-2876.8,0.91859
1999,11.809,4.9091,0,0.00028775,2875.5,9.5227e-05,0.0064323,9.4505e-05,-5.415,-0.00028784,-2878.2,0.91797
2000,11.809,5.0909,0,0.00028803,2878.3,9.5193e-05,0.0080429,9.4812e-05,-2.8603,-0.00028808,-2879.8,0.91729
2001,11.809,5.2727,0,0.00028833,2881.3,9.5164e-05,0.050148,9.5129e-05,-0.2156,-0.00028833,-2881.4,0.91655
2002,11.809,5.4545,0,0.00028865,2884.5,9.5474e-05,2.6356,9.5123e-05,0.00012756,-0.0002886,-2883.2,0.91575
2003,11.809,5.6364,0,0.00028899,2887.9,9.5834e-05,5.607,9.5088e-05,0.0061637,-0.00028889,-2885.1,0.91488
2004,11.809,5.8182,0,0.00028953,2893.3,9.6375e-05,9.9336,9.5052e-05,-0.007022,-0.00028936,-2888.3,0.91396
2005,11.994,0.18182,0,0.00028453,2843.3,9.4767e-05,10.44,9.3377e-05,-0.006099,-0.00028435,-2838.1,0.93878
2006,11.994,0.36364,0,0.000284,2838,9.4245e-05,6.2961,9.3408e-05,0.0048918,-0.00028389,-2834.9,0.93969
2007,11.994,0.54545,0,0.00028367,2834.8,9.3908e-05,3.5351,9.3437e-05,-0.00010212,-0.00028361,-2833,0.94054
2008,11.994,0.72727,0,0.00028337,2831.8,9.3594e-05,0.95256,9.3466e-05,-0.0096193,-0.00028336,-2831.3,0.94133
2009,11.994,0.90909,0,0.00028309,2829,9.3498e-05,0.012773,9.329e-05,-1.5512,-0.00028312,-2829.7,0.94206
2010,11.994,1.0909,0,0.00028283,2826.3,9.3527e-05,0.0077048,9.3006e-05,-3.9031,-0.00028289,-2828.3,0.94273
2011,11.994,1.2727,0,0.00028258,2823.8,9.3554e-05,0.0064743,9.2739e-05,-6.1176,-0.00028268,-2826.9,0.94334
2012,11.994,1.4545,0,0.00028235,2821.6,9.3581e-05,0.0059194,9.2492e-05,-8.1742,-0.00028249,-2825.6,0.94388
2013,11.994,1.6364,0,0.00028214,2819.5,9.3605e-05,0.0055863,9.2266e-05,-10.055,-0.00028231,-2824.5,0.94437
2014,11.994,1.8182,0,0.00028196,2817.6,9.3628e-05,0.0053587,9.2064e-05,-11.744,-0.00028216,-2823.5,0.94479
2015,11.994,2,0,0.0002818,2816,9.3648e-05,0.0051896,9.1887e-05,-13.224,-0.00028202,-2822.6,0.94515
2016,11.994,2.1818,0,0.00028166,2814.7,9.3665e-05,0.0050567,9.1737e-05,-14.482,-0.00028191,-2821.9,0.94546
2017,11.994,2.3636,0,0.00028155,2813.6,9.3679e-05,0.0049553,9.1615e-05,-15.505,-0.00028181,-2821.3,0.9457
2018,11.994,2.5455,0,0.00028147,2812.7,9.369e-05,0.00488,9.1522e-05,-16.282,-0.00028174,-2820.8,0.94588
2019,11.994,2.7273,0,0.00028141,2812.2,9.3697e-05,0.0048306,9.146e-05,-16.804,-0.00028169,-2820.5,0.946
2020,11.994,2.9091,0,0.00028138,2811.9,9.3701e-05,0.0048042,9.1429e-05,-17.067,-0.00028167,-2820.4,0.94606
2021,11.994,3.0909,0,0.00028138,2811.9,9.3701e-05,0.0048046,9.1429e-05,-17.067,-0.00028167,-2820.4,0.94606
2022,11.994,3.2727,0,0.00028141,2812.2,9.3697e-05,0.0048298,9.146e-05,-16.804,-0.00028169,-2820.5,0.946
2023,11.994,3.4545,0,0.00028147,2812.7,9.369e-05,0.0048802,9.1522e-05,-16.282,-0.00028174,-2820.8,0.94588
2024,11.994,3.6364,0,0.00028155,2813.6,9.3679e-05,0.0049544,9.1615e-05,-15.505,-0.00028181,-2821.3,0.9457
2025,11.994,3.8182,0,0.00028166,2814.7,9.3665e-05,0.0050565,9.1737e-05,-14.482,-0.00028191,-2821.9,0.94546
2026,11.994,4,0,0.0002818,2816,9.3648e-05,0.0051895,9.1887e-05,-13.224,-0.00028202,-2822.6,0.94515
2027,11.994,4.1818,0,0.00028196,2817.6,9.3628e-05,0.0053586,9.2064e-05,-11.744,-0.00028216,-2823.5,0.94479
2028,11.994,4.3636,0,0.00028214,2819.5,9.3605e-05,0.0055857,9.2266e-05,-10.055,-0.00028231,-2824.5,0.94437
2029,11.994,4.5455,0,0.00028235,2821.6,9.3581e-05,0.0059183,9.2492e-05,-8.1742,-0.00028249,-2825.6,0.94388
2030,11.994,4.7273,0,0.00028258,2823.8,9.3554e-05,0.0064741,9.2739e-05,-6.1176,-0.00028268,-2826.9,0.94334
2031,11.994,4.9091,0,0.00028283,2826.3,9.3527e-05,0.007705,9.3006e-05,-3.9031,-0.00028289,-2828.3,0.94273
2032,11.994,5.0909,0,0.00028309,2829,9.3498e-05,0.012771,9.329e-05,-1.5512,-0.00028312,-2829.7,0.94206
2033,11.994,5.2727,0,0.00028337,2831.8,9.3594e-05,0.95261,9.3466e-05,-0.0096203,-0.00028336,-2831.3,0.94133
2034,11.994,5.4545,0,0.00028367,2834.8,9.3908e-05,3.5352,9.3437e-05,-0.00010222,-0.00028361,-2833,0.94054
2035,11.994,5.6364,0,0.000284,2838,9.4245e-05,6.2962,9.3408e-05,0.0048921,-0.00028389,-2834.9,0.93969
2036,11.994,5.8182,0,0.00028453,2843.3,9.4767e-05,10.44,9.3377e-05,-0.0060994,-0.00028435,-2838.1,0.93878
2037,12.179,0.18182,0,0.00027955,2793.6,9.3165e-05,10.929,9.171e-05,-0.00532,-0.00027937,-2788.1,0.96379
2038,12.179,0.36364,0,0.00027903,2788.4,9.266e-05,6.9526,9.1736e-05,0.0036881,-0.00027891,-2784.9,0.96469
2039,12.179,0.54545,0,0.00027872,2785.3,9.2344e-05,4.3869,9.176e-05,-0.00038437,-0.00027865,-2783.1,0.96553
2040,12.179,0.72727,0,0.00027844,2782.4,9.205e-05,1.9924,9.1785e-05,-0.0042112,-0.0002784,-2781.4,0.96631
2041,12.179,0.90909,0,0.00027817,2779.8,9.1817e-05,0.049361,9.1763e-05,-0.35294,-0.00027817,-2779.9,0.96702
2042,12.179,1.0909,0,0.00027792,2777.2,9.1836e-05,0.010499,9.1504e-05,-2.4874,-0.00027796,-2778.5,0.96768
2043,12.179,1.2727,0,0.00027768,2774.9,9.1859e-05,0.0076015,9.1256e-05,-4.5244,-0.00027776,-2777.1,0.96828
2044,12.179,1.4545,0,0.00027747,2772.7,9.1882e-05,0.0065676,9.1027e-05,-6.4144,-0.00027757,-2775.9,0.96881
2045,12.179,1.6364,0,0.00027727,2770.8,9.1903e-05,0.0060333,9.0818e-05,-8.1407,-0.00027741,-2774.8,0.96929
2046,12.179,1.8182,0,0.0002771,2769,9.1922e-05,0.0057067,9.0631e-05,-9.6885,-0.00027726,-2773.9,0.96971
2047,12.179,2,0,0.00027694,2767.5,9.1939e-05,0.0054863,9.0468e-05,-11.044,-0.00027713,-2773,0.97007
2048,12.179,2.1818,0,0.00027682,2766.3,9.1953e-05,0.0053273,9.033e-05,-12.194,-0.00027702,-2772.3,0.97036
2049,12.179,2.3636,0,0.00027671,2765.2,9.1965e-05,0.0052121,9.0217e-05,-13.129,-0.00027693,-2771.8,0.9706
2050,12.179,2.5455,0,0.00027664,2764.4,9.1975e-05,0.0051303,9.0132e-05,-13.838,-0.00027687,-2771.3,0.97078
2051,12.179,2.7273,0,0.00027658,2763.9,9.1981e-05,0.0050773,9.0075e-05,-14.315,-0.00027682,-2771,0.9709
2052,12.179,2.9091,0,0.00027656,2763.7,9.1984e-05,0.0050507,9.0046e-05,-14.555,-0.0002768,-2770.9,0.97096
2053,12.179,3.0909,0,0.00027656,2763.7,9.1984e-05,0.0050513,9.0046e-05,-14.555,-0.0002768,-2770.9,0.97096
2054,12.179,3.2727,0,0.00027658,2763.9,9.1981e-05,0.0050772,9.0075e-05,-14.315,-0.00027682,-2771,0.9709
2055,12.179,3.4545,0,0.00027664,2764.4,9.1975e-05,0.0051306,9.0132e-05,-13.838,-0.00027687,-2771.3,0.97078
2056,12.179,3.6364,0,0.00027671,2765.2,9.1965e-05,0.0052111,9.0217e-05,-13.129,-0.00027693,-2771.8,0.9706
2057,12.179,3.8182,0,0.00027682,2766.3,9.1953e-05,0.0053273,9.033e-05,-12.194,-0.00027702,-2772.3,0.97036
2058,12.179,4,0,0.00027694,2767.5,9.1939e-05,0.0054868,9.0468e-05,-11.044,-0.00027713,-2773,0.97007
2059,12.179,4.1818,0,0.0002771,2769.1,9.1922e-05,0.0057069,9.0631e-05,-9.6885,-0.00027726,-2773.9,0.96971
2060,12.179,4.3636,0,0.00027727,2770.8,9.1903e-05,0.0060334,9.0818e-05,-8.1407,-0.00027741,-2774.8,0.96929
2061,12.179,4.5455,0,0.00027747,2772.7,9.1882e-05,0.0065675,9.1027e-05,-6.4143,-0.00027757,-2775.9,0.96881
2062,12.179,4.7273,0,0.00027768,2774.9,9.1859e-05,0.007601,9.1256e-05,-4.5244,-0.00027776,-2777.1,0.96828
2063,12.179,4.9091,0,0.00027792,2777.2,9.1836e-05,0.010499,9.1504e-05,-2.4874,-0.00027796,-2778.5,0.96768
2064,12.179,5.0909,0,0.00027817,2779.8,9.1817e-05,0.049365,9.1763e-05,-0.3529,-0.00027817,-2779.9,0.96702
2065,12.179,5.2727,0,0.00027844,2782.4,9.205e-05,1.9925,9.1785e-05,-0.0042131,-0.0002784,-2781.4,0.96631
2066,12.179,5.4545,0,0.00027872,2785.3,9.2344e-05,4.387,9.176e-05,-0.00038348,-0.00027865,-2783.1,0.96553
2067,12.179,5.6364,0,0.00027903,2788.4,9.266e-05,6.9526,9.1736e-05,0.0036874,-0.00027891,-2784.9,0.96469
2068,12.179,5.8182,0,0.00027955,2793.6,9.3165e-05,10.929,9.171e-05,-0.0053206,-0.00027937,-2788.1,0.96379
2069,12.363,0.18182,0,0.0002746,2744.1,9.1569e-05,11.399,9.0051e-05,-0.0047025,-0.0002744,-2738.3,0.98899
2070,12.363,0.36364,0,0.00027408,2738.9,9.108e-05,7.5778,9.0072e-05,0.0025072,-0.00027395,-2735.1,0.98988
2071,12.363,0.54545,0,0.00027379,2736,9.0783e-05,5.1935,9.0092e-05,-0.00072114,-0.0002737,-2733.4,0.9907
2072,12.363,0.72727,0,0.00027351,2733.3,9.0509e-05,2.9767,9.0112e-05,-0.0028438,-0.00027346,-2731.8,0.99147
2073,12.363,0.90909,0,0.00027326,2730.7,9.025e-05,0.87513,9.0131e-05,-0.017955,-0.00027324,-2730.3,0.99217
2074,12.363,1.0909,0,0.00027302,2728.3,9.0156e-05,0.019495,8.9998e-05,-1.1666,-0.00027304,-2728.9,0.99282
2075,12.363,1.2727,0,0.0002728,2726.1,9.0174e-05,0.009756,8.9769e-05,-3.0352,-0.00027285,-2727.6,0.99341
2076,12.363,1.4545,0,0.00027259,2724.1,9.0193e-05,0.0075761,8.9557e-05,-4.7718,-0.00027267,-2726.4,0.99394
2077,12.363,1.6364,0,0.00027241,2722.2,9.021e-05,0.0066334,8.9364e-05,-6.3566,-0.00027252,-2725.4,0.99441
2078,12.363,1.8182,0,0.00027225,2720.6,9.0226e-05,0.0061192,8.9191e-05,-7.7759,-0.00027238,-2724.5,0.99482
2079,12.363,2,0,0.0002721,2719.2,9.0241e-05,0.0057981,8.904e-05,-9.0175,-0.00027226,-2723.6,0.99517
2080,12.363,2.1818,0,0.00027198,2717.9,9.0253e-05,0.0055833,8.8912e-05,-10.07,-0.00027215,-2723,0.99546
2081,12.363,2.3636,0,0.00027189,2717,9.0263e-05,0.0054351,8.8808e-05,-10.925,-0.00027207,-2722.4,0.9957
2082,12.363,2.5455,0,0.00027181,2716.2,9.0271e-05,0.0053372,8.873e-05,-11.573,-0.00027201,-2722,0.99587
2083,12.363,2.7273,0,0.00027176,2715.7,9.0276e-05,0.0052738,8.8677e-05,-12.009,-0.00027196,-2721.7,0.99599
2084,12.363,2.9091,0,0.00027174,2715.5,9.0279e-05,0.0052429,8.8651e-05,-12.227,-0.00027194,-2721.6,0.99605
2085,12.363,3.0909,0,0.00027174,2715.5,9.0279e-05,0.0052437,8.8651e-05,-12.227,-0.00027194,-2721.6,0.99605
2086,12.363,3.2727,0,0.00027176,2715.7,9.0276e-05,0.0052736,8.8677e-05,-12.009,-0.00027196,-2721.7,0.99599
2087,12.363,3.4545,0,0.00027181,2716.2,9.0271e-05,0.0053366,8.873e-05,-11.573,-0.00027201,-2722,0.99587
2088,12.363,3.6364,0,0.00027189,2717,9.0263e-05,0.005436,8.8808e-05,-10.925,-0.00027207,-2722.4,0.9957
2089,12.363,3.8182,0,0.00027198,2717.9,9.0253e-05,0.0055831,8.8912e-05,-10.07,-0.00027215,-2723,0.99546
2090,12.363,4,0,0.0002721,2719.2,9.0241e-05,0.0057972,8.904e-05,-9.0175,-0.00027226,-2723.6,0.99517
2091,12.363,4.1818,0,0.00027225,2720.6,9.0226e-05,0.0061172,8.9191e-05,-7.7759,-0.00027238,-2724.5,0.99482
2092,12.363,4.3636,0,0.00027241,2722.2,9.021e-05,0.0066331,8.9364e-05,-6.3566,-0.00027252,-2725.4,0.99441
2093,12.363,4.5455,0,0.00027259,2724.1,9.0193e-05,0.0075736,8.9557e-05,-4.7718,-0.00027267,-2726.4,0.99394
2094,12.363,4.7273,0,0.0002728,2726.1,9.0174e-05,0.0097564,8.9769e-05,-3.0352,-0.00027285,-2727.6,0.99341
2095,12.363,4.9091,0,0.00027302,2728.3,9.0156e-05,0.019494,8.9998e-05,-1.1665,-0.00027304,-2728.9,0.99282
2096,12.363,5.0909,0,0.00027326,2730.7,9.025e-05,0.87518,9.0131e-05,-0.017955,-0.00027324,-2730.3,0.99217
2097,12.363,5.2727,0,0.00027351,2733.3,9.0509e-05,2.9767,9.0112e-05,-0.0028455,-0.00027346,-2731.8,0.99147
2098,12.363,5.4545,0,0.00027379,2736,9.0783e-05,5.1935,9.0092e-05,-0.00072196,-0.0002737,-2733.4,0.9907
2099,12.363,5.6364,0,0.00027408,2738.9,9.108e-05,7.5778,9.0072e-05,0.0025066,-0.00027395,-2735.1,0.98988
2100,12.363,5.8182,0,0.0002746,2744.1,9.1569e-05,11.399,9.0051e-05,-0.0047029,-0.0002744,-2738.3,0.98899
2101,12.548,0.18182,0,0.00026966,2694.7,8.9978e-05,11.853,8.84e-05,-0.0041434,-0.00026946,-2688.8,1.0144
2102,12.548,0.36364,0,0.00026915,2689.7,8.9503e-05,8.174,8.8416e-05,0.0014313,-0.00026901,-2685.6,1.0153
2103,12.548,0.54545,0,0.00026887,2686.8,8.9225e-05,5.9577,8.8432e-05,-0.0010148,-0.00026877,-2683.9,1.0161
2104,12.548,0.72727,0,0.00026861,2684.3,8.8968e-05,3.9062,8.8448e-05,-0.0023145,-0.00026855,-2682.3,1.0168
2105,12.548,0.90909,0,0.00026837,2681.8,8.8725e-05,1.9564,8.8464e-05,-0.0074356,-0.00026834,-2680.9,1.0175
2106,12.548,1.0909,0,0.00026814,2679.6,8.8508e-05,0.20036,8.8468e-05,-0.099768,-0.00026814,-2679.5,1.0181
2107,12.548,1.2727,0,0.00026793,2677.5,8.85e-05,0.015497,8.8279e-05,-1.6448,-0.00026796,-2678.3,1.0187
2108,12.548,1.4545,0,0.00026774,2675.5,8.8514e-05,0.0095228,8.8082e-05,-3.238,-0.00026779,-2677.1,1.0192
2109,12.548,1.6364,0,0.00026756,2673.8,8.8529e-05,0.0076442,8.7903e-05,-4.6927,-0.00026764,-2676.1,1.0197
2110,12.548,1.8182,0,0.00026741,2672.2,8.8542e-05,0.0067512,8.7743e-05,-5.9945,-0.00026751,-2675.2,1.0201
2111,12.548,2,0,0.00026727,2670.9,8.8554e-05,0.0062433,8.7604e-05,-7.1322,-0.00026739,-2674.4,1.0205
2112,12.548,2.1818,0,0.00026716,2669.7,8.8564e-05,0.0059263,8.7485e-05,-8.0961,-0.0002673,-2673.8,1.0207
2113,12.548,2.3636,0,0.00026707,2668.8,8.8572e-05,0.0057212,8.739e-05,-8.8779,-0.00026722,-2673.3,1.021
2114,12.548,2.5455,0,0.000267,2668.1,8.8579e-05,0.0055879,8.7317e-05,-9.4705,-0.00026716,-2672.9,1.0212
2115,12.548,2.7273,0,0.00026695,2667.7,8.8583e-05,0.005505,8.7269e-05,-9.8686,-0.00026712,-2672.6,1.0213
2116,12.548,2.9091,0,0.00026693,2667.4,8.8585e-05,0.0054674,8.7244e-05,-10.069,-0.0002671,-2672.5,1.0213
2117,12.548,3.0909,0,0.00026693,2667.4,8.8585e-05,0.005467,8.7244e-05,-10.069,-0.0002671,-2672.5,1.0213
2118,12.548,3.2727,0,0.00026695,2667.7,8.8583e-05,0.0055062,8.7269e-05,-9.8686,-0.00026712,-2672.6,1.0213
2119,12.548,3.4545,0,0.000267,2668.1,8.8579e-05,0.005587,8.7317e-05,-9.4705,-0.00026716,-2672.9,1.0212
2120,12.548,3.6364,0,0.00026707,2668.8,8.8572e-05,0.0057221,8.739e-05,-8.8778,-0.00026722,-2673.3,1.021
2121,12.548,3.8182,0,0.00026716,2669.8,8.8564e-05,0.0059261,8.7485e-05,-8.0961,-0.0002673,-2673.8,1.0207
2122,12.548,4,0,0.00026727,2670.9,8.8554e-05,0.0062442,8.7604e-05,-7.1322,-0.00026739,-2674.4,1.0205
2123,12.548,4.1818,0,0.00026741,2672.2,8.8542e-05,0.0067505,8.7743e-05,-5.9945,-0.00026751,-2675.2,1.0201
2124,12.548,4.3636,0,0.00026756,2673.8,8.8529e-05,0.0076443,8.7903e-05,-4.6927,-0.00026764,-2676.1,1.0197
2125,12.548,4.5455,0,0.00026774,2675.5,8.8514e-05,0.0095243,8.8082e-05,-3.238,-0.00026779,-2677.1,1.0192
2126,12.548,4.7273,0,0.00026793,2677.5,8.85e-05,0.015496,8.8279e-05,-1.6448,-0.00026796,-2678.3,1.0187
2127,12.548,4.9091,0,0.00026814,2679.6,8.8508e-05,0.20039,8.8468e-05,-0.099753,-0.00026814,-2679.5,1.0181
2128,12.548,5.0909,0,0.00026837,2681.8,8.8725e-05,1.9565,8.8464e-05,-0.0074366,-0.00026834,-2680.9,1.0175
2129,12.548,5.2727,0,0.00026861,2684.3,8.8968e-05,3.9062,8.8448e-05,-0.0023151,-0.00026855,-2682.3,1.0168
2130,12.548,5.4545,0,0.00026887,2686.8,8.9225e-05,5.9577,8.8432e-05,-0.0010152,-0.00026877,-2683.9,1.0161
2131,12.548,5.6364,0,0.00026915,2689.7,8.9503e-05,8.174,8.8416e-05,0.0014308,-0.00026901,-2685.6,1.0153
2132,12.548,5.8182,0,0.00026966,2694.7,8.9978e-05,11.853,8.84e-05,-0.004142,-0.00026946,-2688.8,1.0144
2133,12.733,0.18182,0,0.00026475,2645.6,8.8393e-05,12.292,8.6756e-05,-0.0036657,-0.00026453,-2639.5,1.04
2134,12.733,0.36364,0,0.00026425,2640.6,8.7932e-05,8.7428,8.6768e-05,0.00041445,-0.0002641,-2636.3,1.0408
2135,12.733,0.54545,0,0.00026397,2637.9,8.767e-05,6.6823,8.678e-05,-0.001303,-0.00026386,-2634.6,1.0416
2136,12.733,0.72727,0,0.00026373,2635.5,8.743e-05,4.784,8.6793e-05,-0.0021158,-0.00026365,-2633.1,1.0423
2137,12.733,0.90909,0,0.0002635,2633.1,8.7203e-05,2.9812,8.6805e-05,-0.0046388,-0.00026344,-2631.6,1.043
2138,12.733,1.0909,0,0.00026328,2631,8.699e-05,1.2856,8.6817e-05,-0.013749,-0.00026326,-2630.3,1.0437
2139,12.733,1.2727,0,0.00026308,2629,8.6839e-05,0.057448,8.6781e-05,-0.37882,-0.00026308,-2629.1,1.0442
2140,12.733,1.4545,0,0.0002629,2627.1,8.6846e-05,0.01432,8.6604e-05,-1.8066,-0.00026293,-2628,1.0447
2141,12.733,1.6364,0,0.00026273,2625.5,8.6857e-05,0.0095039,8.6438e-05,-3.14,-0.00026278,-2627,1.0452
2142,12.733,1.8182,0,0.00026258,2624,8.6868e-05,0.0077423,8.629e-05,-4.3337,-0.00026266,-2626.2,1.0456
2143,12.733,2,0,0.00026246,2622.7,8.6877e-05,0.0068615,8.6161e-05,-5.3763,-0.00026255,-2625.4,1.0459
2144,12.733,2.1818,0,0.00026235,2621.7,8.6885e-05,0.006355,8.6051e-05,-6.259,-0.00026245,-2624.8,1.0462
2145,12.733,2.3636,0,0.00026226,2620.8,8.6892e-05,0.0060421,8.5963e-05,-6.9744,-0.00026238,-2624.3,1.0464
2146,12.733,2.5455,0,0.0002622,2620.2,8.6897e-05,0.0058469,8.5896e-05,-7.5164,-0.00026232,-2623.9,1.0466
2147,12.733,2.7273,0,0.00026215,2619.7,8.6901e-05,0.0057318,8.5851e-05,-7.8805,-0.00026229,-2623.6,1.0467
2148,12.733,2.9091,0,0.00026213,2619.5,8.6903e-05,0.0056774,8.5829e-05,-8.0633,-0.00026227,-2623.5,1.0468
2149,12.733,3.0909,0,0.00026213,2619.5,8.6903e-05,0.0056775,8.5829e-05,-8.0633,-0.00026227,-2623.5,1.0468
2150,12.733,3.2727,0,0.00026215,2619.7,8.6901e-05,0.0057318,8.5851e-05,-7.8805,-0.00026229,-2623.6,1.0467
2151,12.733,3.4545,0,0.0002622,2620.2,8.6897e-05,0.0058472,8.5896e-05,-7.5164,-0.00026232,-2623.9,1.0466
2152,12.733,3.6364,0,0.00026226,2620.8,8.6892e-05,0.0060417,8.5963e-05,-6.9744,-0.00026238,-2624.3,1.0464
2153,12.733,3.8182,0,0.00026235,2621.7,8.6885e-05,0.0063547,8.6051e-05,-6.259,-0.00026245,-2624.8,1.0462
2154,12.733,4,0,0.00026246,2622.7,8.6877e-05,0.0068617,8.6161e-05,-5.3762,-0.00026255,-2625.4,1.0459
2155,12.733,4.1818,0,0.00026258,2624,8.6868e-05,0.0077411,8.629e-05,-4.3336,-0.00026266,-2626.2,1.0456
2156,12.733,4.3636,0,0.00026273,2625.5,8.6857e-05,0.0095036,8.6438e-05,-3.14,-0.00026278,-2627,1.0452
2157,12.733,4.5455,0,0.0002629,2627.1,8.6846e-05,0.014321,8.6604e-05,-1.8066,-0.00026293,-2628,1.0447
2158,12.733,4.7273,0,0.00026308,2629,8.6839e-05,0.057452,8.6781e-05,-0.37879,-0.00026308,-2629.1,1.0442
2159,12.733,4.9091,0,0.00026328,2631,8.699e-05,1.2857,8.6817e-05,-0.013749,-0.00026326,-2630.3,1.0437
2160,12.733,5.0909,0,0.0002635,2633.1,8.7203e-05,2.9812,8.6805e-05,-0.0046405,-0.00026344,-2631.6,1.043
2161,12.733,5.2727,0,0.00026373,2635.5,8.743e-05,4.7841,8.6793e-05,-0.0021166,-0.00026365,-2633.1,1.0423
2162,12.733,5.4545,0,0.00026397,2637.9,8.767e-05,6.6823,8.678e-05,-0.0013028,-0.00026386,-2634.6,1.0416
2163,12.733,5.6364,0,0.00026425,2640.6,8.7932e-05,8.7428,8.6768e-05,0.00041415,-0.0002641,-2636.3,1.0408
2164,12.733,5.8182,0,0.00026475,2645.6,8.8393e-05,12.292,8.6756e-05,-0.0036663,-0.00026453,-2639.5,1.04
2165,12.917,0.18182,0,0.00025985,2596.7,8.6813e-05,12.717,8.512e-05,-0.0032584,-0.00025963,-2590.3,1.0657
2166,12.917,0.36364,0,0.00025936,2591.8,8.6364e-05,9.2863,8.5128e-05,-0.00054806,-0.0002592,-2587.2,1.0665
2167,12.917,0.54545,0,0.0002591,2589.2,8.6118e-05,7.37,8.5137e-05,-0.0015827,-0.00025897,-2585.5,1.0673
2168,12.917,0.72727,0,0.00025886,2586.8,8.5893e-05,5.6138,8.5146e-05,-0.0020683,-0.00025877,-2584,1.0681
2169,12.917,0.90909,0,0.00025864,2584.6,8.5681e-05,3.948,8.5155e-05,-0.0034188,-0.00025857,-2582.6,1.0687
2170,12.917,1.0909,0,0.00025843,2582.5,8.5482e-05,2.3793,8.5165e-05,-0.0066156,-0.00025839,-2581.4,1.0693
2171,12.917,1.2727,0,0.00025824,2580.6,8.5298e-05,0.9252,8.5173e-05,-0.019871,-0.00025823,-2580.2,1.0699
2172,12.917,1.4545,0,0.00025807,2578.9,8.519e-05,0.043217,8.5119e-05,-0.49086,-0.00025808,-2579.1,1.0704
2173,12.917,1.6364,0,0.00025791,2577.3,8.5196e-05,0.014235,8.4969e-05,-1.6913,-0.00025794,-2578.2,1.0709
2174,12.917,1.8182,0,0.00025777,2575.9,8.5203e-05,0.0096407,8.4831e-05,-2.7838,-0.00025782,-2577.3,1.0712
2175,12.917,2,0,0.00025765,2574.7,8.5211e-05,0.0078607,8.4712e-05,-3.7388,-0.00025771,-2576.6,1.0716
2176,12.917,2.1818,0,0.00025755,2573.7,8.5217e-05,0.0069558,8.4611e-05,-4.547,-0.00025763,-2576,1.0719
2177,12.917,2.3636,0,0.00025747,2572.9,8.5222e-05,0.006441,8.4529e-05,-5.2017,-0.00025756,-2575.5,1.0721
2178,12.917,2.5455,0,0.00025741,2572.3,8.5226e-05,0.0061357,8.4467e-05,-5.6975,-0.0002575,-2575.1,1.0722
2179,12.917,2.7273,0,0.00025736,2571.9,8.5229e-05,0.0059596,8.4426e-05,-6.0304,-0.00025747,-2574.9,1.0724
2180,12.917,2.9091,0,0.00025734,2571.7,8.5231e-05,0.005879,8.4405e-05,-6.1975,-0.00025745,-2574.7,1.0724
2181,12.917,3.0909,0,0.00025734,2571.7,8.5231e-05,0.0058792,8.4405e-05,-6.1975,-0.00025745,-2574.7,1.0724
2182,12.917,3.2727,0,0.00025736,2571.9,8.5229e-05,0.0059587,8.4426e-05,-6.0304,-0.00025747,-2574.9,1.0724
2183,12.917,3.4545,0,0.00025741,2572.3,8.5226e-05,0.006135,8.4467e-05,-5.6975,-0.0002575,-2575.1,1.0722
2184,12.917,3.6364,0,0.00025747,2572.9,8.5222e-05,0.0064404,8.4529e-05,-5.2017,-0.00025756,-2575.5,1.0721
2185,12.917,3.8182,0,0.00025755,2573.7,8.5217e-05,0.0069563,8.4611e-05,-4.547,-0.00025763,-2576,1.0719
2186,12.917,4,0,0.00025765,2574.7,8.5211e-05,0.0078599,8.4712e-05,-3.7387,-0.00025771,-2576.6,1.0716
2187,12.917,4.1818,0,0.00025777,2575.9,8.5203e-05,0.0096401,8.4831e-05,-2.7838,-0.00025782,-2577.3,1.0712
2188,12.917,4.3636,0,0.00025791,2577.3,8.5196e-05,0.014235,8.4969e-05,-1.6913,-0.00025794,-2578.2,1.0709
2189,12.917,4.5455,0,0.00025807,2578.9,8.519e-05,0.043218,8.5119e-05,-0.49084,-0.00025808,-2579.1,1.0704
2190,12.917,4.7273,0,0.00025824,2580.6,8.5298e-05,0.92524,8.5173e-05,-0.01987,-0.00025823,-2580.2,1.0699
2191,12.917,4.9091,0,0.00025843,2582.6,8.5482e-05,2.3793,8.5165e-05,-0.0066155,-0.00025839,-2581.4,1.0693
2192,12.917,5.0909,0,0.00025864,2584.6,8.5681e-05,3.9481,8.5155e-05,-0.0034201,-0.00025857,-2582.6,1.0687
2193,12.917,5.2727,0,0.00025886,2586.8,8.5893e-05,5.6139,8.5146e-05,-0.0020693,-0.00025877,-2584,1.0681
2194,12.917,5.4545,0,0.0002591,2589.2,8.6118e-05,7.3701,8.5137e-05,-0.0015826,-0.00025897,-2585.5,1.0673
2195,12.917,5.6364,0,0.00025936,2591.8,8.6364e-05,9.2863,8.5128e-05,-0.00054789,-0.0002592,-2587.2,1.0665
2196,12.917,5.8182,0,0.00025985,2596.7,8.6813e-05,12.717,8.512e-05,-0.0032582,-0.00025963,-2590.3,1.0657
2197,13.102,0.18182,0,0.00025498,2548,8.524e-05,13.129,8.3492e-05,-0.0028737,-0.00025475,-2541.5,1.0916
2198,13.102,0.36364,0,0.00025449,2543.2,8.4802e-05,9.8065,8.3496e-05,-0.0014235,-0.00025432,-2538.3,1.0925
2199,13.102,0.54545,0,0.00025424,2540.6,8.457e-05,8.0239,8.3501e-05,-0.0018177,-0.0002541,-2536.6,1.0932
2200,13.102,0.72727,0,0.00025401,2538.4,8.4359e-05,6.3993,8.3507e-05,-0.0020673,-0.0002539,-2535.2,1.0939
2201,13.102,0.90909,0,0.0002538,2536.3,8.4161e-05,4.8608,8.3514e-05,-0.0027399,-0.00025372,-2533.8,1.0946
2202,13.102,1.0909,0,0.0002536,2534.3,8.3975e-05,3.4127,8.352e-05,-0.0041077,-0.00025355,-2532.6,1.0952
2203,13.102,1.2727,0,0.00025342,2532.5,8.3802e-05,2.065,8.3527e-05,-0.0073813,-0.00025339,-2531.4,1.0958
2204,13.102,1.4545,0,0.00025326,2530.8,8.3645e-05,0.83347,8.3532e-05,-0.020164,-0.00025324,-2530.4,1.0963
2205,13.102,1.6364,0,0.00025311,2529.3,8.3548e-05,0.050618,8.3492e-05,-0.36664,-0.00025311,-2529.5,1.0967
2206,13.102,1.8182,0,0.00025297,2528,8.3549e-05,0.01522,8.3369e-05,-1.338,-0.000253,-2528.7,1.0971
2207,13.102,2,0,0.00025286,2526.9,8.3554e-05,0.010005,8.3259e-05,-2.2099,-0.0002529,-2528,1.0974
2208,13.102,2.1818,0,0.00025276,2525.9,8.3559e-05,0.008036,8.3165e-05,-2.9491,-0.00025281,-2527.4,1.0977
2209,13.102,2.3636,0,0.00025269,2525.1,8.3563e-05,0.007061,8.3089e-05,-3.548,-0.00025275,-2526.9,1.0979
2210,13.102,2.5455,0,0.00025263,2524.5,8.3566e-05,0.006529,8.3032e-05,-4.0014,-0.00025269,-2526.5,1.0981
2211,13.102,2.7273,0,0.00025259,2524.1,8.3568e-05,0.0062367,8.2994e-05,-4.3057,-0.00025266,-2526.3,1.0982
2212,13.102,2.9091,0,0.00025257,2523.9,8.3569e-05,0.0061072,8.2975e-05,-4.4584,-0.00025264,-2526.2,1.0982
2213,13.102,3.0909,0,0.00025257,2523.9,8.3569e-05,0.0061066,8.2975e-05,-4.4584,-0.00025264,-2526.2,1.0982
2214,13.102,3.2727,0,0.00025259,2524.1,8.3568e-05,0.0062372,8.2994e-05,-4.3057,-0.00025266,-2526.3,1.0982
2215,13.102,3.4545,0,0.00025263,2524.5,8.3566e-05,0.0065285,8.3032e-05,-4.0013,-0.00025269,-2526.5,1.0981
2216,13.102,3.6364,0,0.00025269,2525.1,8.3563e-05,0.0070615,8.3089e-05,-3.5479,-0.00025275,-2526.9,1.0979
2217,13.102,3.8182,0,0.00025276,2525.9,8.3559e-05,0.0080345,8.3165e-05,-2.9491,-0.00025281,-2527.4,1.0977
2218,13.102,4,0,0.00025286,2526.9,8.3554e-05,0.010005,8.3259e-05,-2.2099,-0.0002529,-2528,1.0974
2219,13.102,4.1818,0,0.00025297,2528,8.3549e-05,0.01522,8.3369e-05,-1.338,-0.000253,-2528.7,1.0971
2220,13.102,4.3636,0,0.00025311,2529.3,8.3548e-05,0.050621,8.3492e-05,-0.36662,-0.00025311,-2529.5,1.0967
2221,13.102,4.5455,0,0.00025326,2530.8,8.3645e-05,0.8335,8.3532e-05,-0.020165,-0.00025324,-2530.4,1.0963
2222,13.102,4.7273,0,0.00025342,2532.5,8.3802e-05,2.065,8.3527e-05,-0.0073818,-0.00025339,-2531.4,1.0958
2223,13.102,4.9091,0,0.0002536,2534.3,8.3975e-05,3.4128,8.352e-05,-0.004108,-0.00025355,-2532.6,1.0952
2224,13.102,5.0909,0,0.0002538,2536.3,8.4161e-05,4.8608,8.3514e-05,-0.0027411,-0.00025372,-2533.8,1.0946
2225,13.102,5.2727,0,0.00025401,2538.4,8.4359e-05,6.3993,8.3507e-05,-0.0020693,-0.0002539,-2535.2,1.0939
2226,13.102,5.4545,0,0.00025424,2540.6,8.457e-05,8.0239,8.3501e-05,-0.0018179,-0.0002541,-2536.6,1.0932
2227,13.102,5.6364,0,0.00025449,2543.2,8.4802e-05,9.8065,8.3496e-05,-0.0014228,-0.00025432,-2538.3,1.0925
2228,13.102,5.8182,0,0.00025498,2548,8.524e-05,13.129,8.3492e-05,-0.0028738,-0.00025475,-2541.5,1.0916
2229,13.287,0.18182,0,0.00025013,2499.6,8.3672e-05,13.529,8.1871e-05,-0.002548,-0.0002499,-2492.8,1.1177
2230,13.287,0.36364,0,0.00024965,2494.7,8.3244e-05,10.305,8.1872e-05,-0.0022599,-0.00024947,-2489.6,1.1185
2231,13.287,0.54545,0,0.0002494,2492.3,8.3025e-05,8.6463,8.1874e-05,-0.0020549,-0.00024925,-2488,1.1193
2232,13.287,0.72727,0,0.00024919,2490.1,8.2828e-05,7.1438,8.1877e-05,-0.0021233,-0.00024906,-2486.6,1.12
2233,13.287,0.90909,0,0.00024898,2488.1,8.2642e-05,5.7233,8.188e-05,-0.0023441,-0.00024888,-2485.2,1.1207
2234,13.287,1.0909,0,0.00024879,2486.2,8.2468e-05,4.3879,8.1884e-05,-0.0028626,-0.00024872,-2484,1.1212
2235,13.287,1.2727,0,0.00024862,2484.5,8.2307e-05,3.1454,8.1888e-05,-0.0039206,-0.00024857,-2482.9,1.1218
2236,13.287,1.4545,0,0.00024846,2482.9,8.216e-05,2.0038,8.1892e-05,-0.0062851,-0.00024843,-2481.9,1.1223
2237,13.287,1.6364,0,0.00024832,2481.5,8.2027e-05,0.97406,8.1896e-05,-0.013545,-0.0002483,-2481,1.1227
2238,13.287,1.8182,0,0.00024819,2480.2,8.192e-05,0.13826,8.1888e-05,-0.10123,-0.00024819,-2480.2,1.1231
2239,13.287,2,0,0.00024808,2479.1,8.1908e-05,0.018946,8.1801e-05,-0.78577,-0.0002481,-2479.5,1.1234
2240,13.287,2.1818,0,0.00024799,2478.2,8.191e-05,0.010831,8.1715e-05,-1.4564,-0.00024802,-2478.9,1.1237
2241,13.287,2.3636,0,0.00024792,2477.5,8.1913e-05,0.0082744,8.1645e-05,-2.0027,-0.00024795,-2478.5,1.1239
2242,13.287,2.5455,0,0.00024786,2476.9,8.1915e-05,0.0071277,8.1592e-05,-2.4168,-0.0002479,-2478.1,1.1241
2243,13.287,2.7273,0,0.00024782,2476.5,8.1916e-05,0.0065627,8.1557e-05,-2.6947,-0.00024787,-2477.9,1.1242
2244,13.287,2.9091,0,0.00024781,2476.4,8.1917e-05,0.0063241,8.1539e-05,-2.8342,-0.00024785,-2477.8,1.1242
2245,13.287,3.0909,0,0.00024781,2476.4,8.1917e-05,0.0063233,8.1539e-05,-2.8342,-0.00024785,-2477.8,1.1242
2246,13.287,3.2727,0,0.00024782,2476.5,8.1916e-05,0.006563,8.1557e-05,-2.6947,-0.00024787,-2477.9,1.1242
2247,13.287,3.4545,0,0.00024786,2476.9,8.1915e-05,0.0071273,8.1592e-05,-2.4168,-0.0002479,-2478.1,1.1241
2248,13.287,3.6364,0,0.00024792,2477.5,8.1913e-05,0.0082735,8.1645e-05,-2.0027,-0.00024795,-2478.5,1.1239
2249,13.287,3.8182,0,0.00024799,2478.2,8.191e-05,0.01083,8.1715e-05,-1.4564,-0.00024802,-2478.9,1.1237
2250,13.287,4,0,0.00024808,2479.1,8.1908e-05,0.018947,8.1801e-05,-0.78575,-0.0002481,-2479.5,1.1234
2251,13.287,4.1818,0,0.00024819,2480.2,8.192e-05,0.13827,8.1888e-05,-0.10122,-0.00024819,-2480.2,1.1231
2252,13.287,4.3636,0,0.00024832,2481.5,8.2027e-05,0.97409,8.1896e-05,-0.013545,-0.0002483,-2481,1.1227
2253,13.287,4.5455,0,0.00024846,2482.9,8.216e-05,2.0039,8.1892e-05,-0.0062853,-0.00024843,-2481.9,1.1223
2254,13.287,4.7273,0,0.00024862,2484.5,8.2307e-05,3.1454,8.1888e-05,-0.0039205,-0.00024857,-2482.9,1.1218
2255,13.287,4.9091,0,0.00024879,2486.2,8.2468e-05,4.388,8.1884e-05,-0.0028635,-0.00024872,-2484,1.1212
2256,13.287,5.0909,0,0.00024898,2488.1,8.2642e-05,5.7234,8.188e-05,-0.0023464,-0.00024888,-2485.2,1.1207
2257,13.287,5.2727,0,0.00024919,2490.1,8.2828e-05,7.1439,8.1877e-05,-0.0021246,-0.00024906,-2486.6,1.12
2258,13.287,5.4545,0,0.0002494,2492.3,8.3025e-05,8.6464,8.1874e-05,-0.002055,-0.00024925,-2488,1.1193
2259,13.287,5.6364,0,0.00024965,2494.7,8.3244e-05,10.305,8.1872e-05,-0.0022597,-0.00024947,-2489.6,1.1185
2260,13.287,5.8182,0,0.00025013,2499.6,8.3672e-05,13.529,8.1871e-05,-0.0025479,-0.0002499,-2492.8,1.1177
2261,13.472,0.18182,0,0.0002453,2451.3,8.2111e-05,13.919,8.0258e-05,-0.0022709,-0.00024506,-2444.3,1.144
2262,13.472,0.36364,0,0.00024482,2446.5,8.1691e-05,10.784,8.0256e-05,-0.0030599,-0.00024464,-2441.1,1.1448
2263,13.472,0.54545,0,0.00024458,2444.2,8.1485e-05,9.2403,8.0255e-05,-0.0022915,-0.00024443,-2439.5,1.1455
2264,13.472,0.72727,0,0.00024438,2442.1,8.13e-05,7.8511,8.0255e-05,-0.0022149,-0.00024424,-2438.1,1.1462
2265,13.472,0.90909,0,0.00024418,2440.1,8.1126e-05,6.5401,8.0255e-05,-0.0021064,-0.00024407,-2436.8,1.1469
2266,13.472,1.0909,0,0.000244,2438.3,8.0963e-05,5.3094,8.0256e-05,-0.0021369,-0.00024391,-2435.7,1.1475
2267,13.472,1.2727,0,0.00024383,2436.6,8.0813e-05,4.1654,8.0258e-05,-0.0023162,-0.00024376,-2434.6,1.148
2268,13.472,1.4545,0,0.00024368,2435.1,8.0675e-05,3.1148,8.026e-05,-0.0027574,-0.00024363,-2433.6,1.1485
2269,13.472,1.6364,0,0.00024355,2433.8,8.0551e-05,2.1641,8.0262e-05,-0.0036983,-0.00024351,-2432.7,1.1489
2270,13.472,1.8182,0,0.00024342,2432.6,8.0441e-05,1.3196,8.0264e-05,-0.0058881,-0.0002434,-2431.9,1.1493
2271,13.472,2,0,0.00024332,2431.5,8.0346e-05,0.59067,8.0266e-05,-0.013161,-0.00024331,-2431.2,1.1496
2272,13.472,2.1818,0,0.00024323,2430.7,8.0279e-05,0.069827,8.0254e-05,-0.11346,-0.00024323,-2430.7,1.1498
2273,13.472,2.3636,0,0.00024316,2430,8.0273e-05,0.014524,8.0196e-05,-0.56015,-0.00024317,-2430.2,1.15
2274,13.472,2.5455,0,0.00024311,2429.4,8.0274e-05,0.0089398,8.0148e-05,-0.93407,-0.00024313,-2429.9,1.1502
2275,13.472,2.7273,0,0.00024308,2429.1,8.0274e-05,0.0071759,8.0115e-05,-1.1868,-0.0002431,-2429.7,1.1503
2276,13.472,2.9091,0,0.00024306,2428.9,8.0275e-05,0.006552,8.0099e-05,-1.3138,-0.00024308,-2429.6,1.1504
2277,13.472,3.0909,0,0.00024306,2428.9,8.0275e-05,0.0065528,8.0099e-05,-1.3138,-0.00024308,-2429.6,1.1504
2278,13.472,3.2727,0,0.00024308,2429.1,8.0274e-05,0.0071773,8.0115e-05,-1.1868,-0.0002431,-2429.7,1.1503
2279,13.472,3.4545,0,0.00024311,2429.4,8.0274e-05,0.0089383,8.0148e-05,-0.93406,-0.00024313,-2429.9,1.1502
2280,13.472,3.6364,0,0.00024316,2430,8.0273e-05,0.014524,8.0196e-05,-0.56014,-0.00024317,-2430.2,1.15
2281,13.472,3.8182,0,0.00024323,2430.7,8.0279e-05,0.069832,8.0254e-05,-0.11345,-0.00024323,-2430.7,1.1498
2282,13.472,4,0,0.00024332,2431.5,8.0346e-05,0.59069,8.0266e-05,-0.013161,-0.00024331,-2431.2,1.1496
2283,13.472,4.1818,0,0.00024342,2432.6,8.0441e-05,1.3197,8.0264e-05,-0.0058861,-0.0002434,-2431.9,1.1493
2284,13.472,4.3636,0,0.00024355,2433.8,8.0551e-05,2.1641,8.0262e-05,-0.0036983,-0.00024351,-2432.7,1.1489
2285,13.472,4.5455,0,0.00024368,2435.1,8.0675e-05,3.1149,8.026e-05,-0.0027576,-0.00024363,-2433.6,1.1485
2286,13.472,4.7273,0,0.00024383,2436.6,8.0813e-05,4.1655,8.0258e-05,-0.0023168,-0.00024376,-2434.6,1.148
2287,13.472,4.9091,0,0.000244,2438.3,8.0963e-05,5.3094,8.0256e-05,-0.002137,-0.00024391,-2435.7,1.1475
2288,13.472,5.0909,0,0.00024418,2440.1,8.1126e-05,6.5402,8.0255e-05,-0.0021075,-0.00024407,-2436.8,1.1469
2289,13.472,5.2727,0,0.00024438,2442.1,8.13e-05,7.8511,8.0255e-05,-0.0022173,-0.00024424,-2438.1,1.1462
2290,13.472,5.4545,0,0.00024458,2444.2,8.1485e-05,9.2404,8.0255e-05,-0.0022904,-0.00024443,-2439.5,1.1455
2291,13.472,5.6364,0,0.00024482,2446.5,8.1691e-05,10.784,8.0256e-05,-0.0030608,-0.00024464,-2441.1,1.1448
2292,13.472,5.8182,0,0.0002453,2451.3,8.2111e-05,13.919,8.0258e-05,-0.0022708,-0.00024506,-2444.3,1.144
2293,13.656,0.18182,0,0.00024049,2403.2,8.0556e-05,14.299,7.8652e-05,-0.002038,-0.00024024,-2396.1,1.1704
2294,13.656,0.36364,0,0.00024001,2398.5,8.0144e-05,11.246,7.8647e-05,-0.0038295,-0.00023982,-2392.9,1.1712
2295,13.656,0.54545,0,0.00023979,2396.2,7.9949e-05,9.8083,7.8643e-05,-0.0025265,-0.00023962,-2391.3,1.172
2296,13.656,0.72727,0,0.00023958,2394.2,7.9775e-05,8.5243,7.864e-05,-0.0023325,-0.00023944,-2389.9,1.1726
2297,13.656,0.90909,0,0.0002394,2392.3,7.9612e-05,7.3151,7.8638e-05,-0.0019674,-0.00023927,-2388.7,1.1733
2298,13.656,1.0909,0,0.00023922,2390.6,7.946e-05,6.1817,7.8637e-05,-0.0016806,-0.00023912,-2387.5,1.1738
2299,13.656,1.2727,0,0.00023906,2389,7.9319e-05,5.1296,7.8637e-05,-0.0014036,-0.00023898,-2386.4,1.1743
2300,13.656,1.4545,0,0.00023892,2387.5,7.9191e-05,4.1644,7.8637e-05,-0.0011514,-0.00023885,-2385.4,1.1748
2301,13.656,1.6364,0,0.00023879,2386.2,7.9075e-05,3.2915,7.8637e-05,-0.00091199,-0.00023873,-2384.6,1.1752
2302,13.656,1.8182,0,0.00023867,2385.1,7.8972e-05,2.5159,7.8637e-05,-0.00068034,-0.00023863,-2383.8,1.1756
2303,13.656,2,0,0.00023857,2384.1,7.8883e-05,1.842,7.8638e-05,-0.00043513,-0.00023854,-2383.2,1.1759
2304,13.656,2.1818,0,0.00023849,2383.3,7.8808e-05,1.2738,7.8639e-05,-0.00014818,-0.00023847,-2382.6,1.1762
2305,13.656,2.3636,0,0.00023842,2382.6,7.8748e-05,0.81477,7.864e-05,0.00025491,-0.00023841,-2382.2,1.1764
2306,13.656,2.5455,0,0.00023837,2382.1,7.8702e-05,0.46754,7.864e-05,0.0009666,-0.00023837,-2381.9,1.1765
2307,13.656,2.7273,0,0.00023834,2381.8,7.8672e-05,0.23373,7.8641e-05,0.0025174,-0.00023834,-2381.6,1.1766
2308,13.656,2.9091,0,0.00023832,2381.6,7.8656e-05,0.11407,7.8642e-05,0.0056861,-0.00023832,-2381.5,1.1767
2309,13.656,3.0909,0,0.00023832,2381.6,7.8656e-05,0.11407,7.8642e-05,0.0056854,-0.00023832,-2381.5,1.1767
2310,13.656,3.2727,0,0.00023834,2381.8,7.8672e-05,0.23374,7.8641e-05,0.0025165,-0.00023834,-2381.6,1.1766
2311,13.656,3.4545,0,0.00023837,2382.1,7.8702e-05,0.46755,7.864e-05,0.00096599,-0.00023837,-2381.9,1.1765
2312,13.656,3.6364,0,0.00023842,2382.6,7.8748e-05,0.81478,7.864e-05,0.00025587,-0.00023841,-2382.2,1.1764
2313,13.656,3.8182,0,0.00023849,2383.3,7.8808e-05,1.2738,7.8639e-05,-0.00014831,-0.00023847,-2382.6,1.1762
2314,13.656,4,0,0.00023857,2384.1,7.8883e-05,1.842,7.8638e-05,-0.00043472,-0.00023854,-2383.2,1.1759
2315,13.656,4.1818,0,0.00023867,2385.1,7.8972e-05,2.5159,7.8637e-05,-0.00067997,-0.00023863,-2383.8,1.1756
2316,13.656,4.3636,0,0.00023879,2386.2,7.9075e-05,3.2916,7.8637e-05,-0.00091379,-0.00023873,-2384.6,1.1752
2317,13.656,4.5455,0,0.00023892,2387.5,7.9191e-05,4.1645,7.8637e-05,-0.001151,-0.00023885,-2385.5,1.1748
2318,13.656,4.7273,0,0.00023906,2389,7.932e-05,5.1296,7.8637e-05,-0.0014045,-0.00023898,-2386.4,1.1743
2319,13.656,4.9091,0,0.00023922,2390.6,7.946e-05,6.1818,7.8637e-05,-0.0016812,-0.00023912,-2387.5,1.1738
2320,13.656,5.0909,0,0.0002394,2392.3,7.9612e-05,7.3152,7.8638e-05,-0.0019693,-0.00023927,-2388.7,1.1733
2321,13.656,5.2727,0,0.00023958,2394.2,7.9775e-05,8.5243,7.864e-05,-0.0023332,-0.00023944,-2389.9,1.1726
2322,13.656,5.4545,0,0.00023979,2396.2,7.9949e-05,9.8083,7.8643e-05,-0.002526,-0.00023962,-2391.3,1.172
2323,13.656,5.6364,0,0.00024002,2398.5,8.0144e-05,11.246,7.8647e-05,-0.0038293,-0.00023982,-2392.9,1.1712
2324,13.656,5.8182,0,0.00024049,2403.2,8.0556e-05,14.299,7.8652e-05,-0.002038,-0.00024024,-2396.1,1.1704
2325,13.841,0.18182,0,0.0002357,2355.4,7.9007e-05,14.67,7.7054e-05,-0.0018044,-0.00023545,-2348,1.197
2326,13.841,0.36364,0,0.00023523,2350.7,7.8602e-05,11.691,7.7046e-05,-0.0045303,-0.00023503,-2344.8,1.1978
2327,13.841,0.54545,0,0.00023501,2348.5,7.8417e-05,10.353,7.7039e-05,-0.0027242,-0.00023483,-2343.3,1.1985
2328,13.841,0.72727,0,0.00023481,2346.5,7.8254e-05,9.1668,7.7034e-05,-0.0024267,-0.00023466,-2341.9,1.1992
2329,13.841,0.90909,0,0.00023463,2344.7,7.8101e-05,8.0525,7.7029e-05,-0.0018532,-0.00023449,-2340.7,1.1998
2330,13.841,1.0909,0,0.00023447,2343,7.7959e-05,7.0097,7.7026e-05,-0.0013409,-0.00023435,-2339.5,1.2004
2331,13.841,1.2727,0,0.00023431,2341.5,7.7828e-05,6.0432,7.7023e-05,-0.0007863,-0.00023421,-2338.5,1.2009
2332,13.841,1.4545,0,0.00023417,2340.1,7.7708e-05,5.1577,7.7021e-05,-0.00019914,-0.00023408,-2337.5,1.2013
2333,13.841,1.6364,0,0.00023405,2338.9,7.76e-05,4.3579,7.702e-05,0.00044923,-0.00023397,-2336.7,1.2017
2334,13.841,1.8182,0,0.00023394,2337.8,7.7504e-05,3.6479,7.7019e-05,0.0011809,-0.00023388,-2335.9,1.2021
2335,13.841,2,0,0.00023384,2336.8,7.7421e-05,3.0315,7.7018e-05,0.0020206,-0.00023379,-2335.3,1.2024
2336,13.841,2.1818,0,0.00023376,2336,7.7352e-05,2.5121,7.7018e-05,0.0029838,-0.00023372,-2334.8,1.2027
2337,13.841,2.3636,0,0.0002337,2335.4,7.7296e-05,2.0926,7.7018e-05,0.0040648,-0.00023366,-2334.3,1.2029
2338,13.841,2.5455,0,0.00023365,2334.9,7.7253e-05,1.7755,7.7018e-05,0.0051862,-0.00023362,-2334,1.203
2339,13.841,2.7273,0,0.00023362,2334.6,7.7225e-05,1.5629,7.7018e-05,0.0061743,-0.00023359,-2333.8,1.2031
2340,13.841,2.9091,0,0.0002336,2334.4,7.7211e-05,1.4561,7.7018e-05,0.0067741,-0.00023358,-2333.7,1.2032
2341,13.841,3.0909,0,0.0002336,2334.4,7.7211e-05,1.4561,7.7018e-05,0.006774,-0.00023358,-2333.7,1.2032
2342,13.841,3.2727,0,0.00023362,2334.6,7.7225e-05,1.5629,7.7018e-05,0.0061748,-0.00023359,-2333.8,1.2031
2343,13.841,3.4545,0,0.00023365,2334.9,7.7253e-05,1.7755,7.7018e-05,0.0051863,-0.00023362,-2334,1.203
2344,13.841,3.6364,0,0.0002337,2335.4,7.7296e-05,2.0926,7.7018e-05,0.0040646,-0.00023366,-2334.3,1.2029
2345,13.841,3.8182,0,0.00023376,2336,7.7352e-05,2.5121,7.7018e-05,0.0029838,-0.00023372,-2334.8,1.2027
2346,13.841,4,0,0.00023384,2336.8,7.7421e-05,3.0315,7.7018e-05,0.0020191,-0.00023379,-2335.3,1.2024
2347,13.841,4.1818,0,0.00023394,2337.8,7.7504e-05,3.6479,7.7019e-05,0.0011818,-0.00023388,-2335.9,1.2021
2348,13.841,4.3636,0,0.00023405,2338.9,7.76e-05,4.3579,7.702e-05,0.00044992,-0.00023397,-2336.7,1.2017
2349,13.841,4.5455,0,0.00023417,2340.1,7.7708e-05,5.1578,7.7021e-05,-0.00019767,-0.00023408,-2337.5,1.2013
2350,13.841,4.7273,0,0.00023431,2341.5,7.7828e-05,6.0432,7.7023e-05,-0.00078674,-0.00023421,-2338.5,1.2009
2351,13.841,4.9091,0,0.00023447,2343,7.7959e-05,7.0097,7.7026e-05,-0.0013404,-0.00023435,-2339.5,1.2004
2352,13.841,5.0909,0,0.00023463,2344.7,7.8101e-05,8.0525,7.7029e-05,-0.0018553,-0.00023449,-2340.7,1.1998
2353,13.841,5.2727,0,0.00023481,2346.5,7.8254e-05,9.1669,7.7034e-05,-0.0024311,-0.00023466,-2341.9,1.1992
2354,13.841,5.4545,0,0.00023501,2348.5,7.8417e-05,10.353,7.7039e-05,-0.0027242,-0.00023483,-2343.3,1.1985
2355,13.841,5.6364,0,0.00023523,2350.7,7.8602e-05,11.691,7.7046e-05,-0.0045293,-0.00023503,-2344.8,1.1978
2356,13.841,5.8182,0,0.0002357,2355.4,7.9007e-05,14.67,7.7054e-05,-0.0018046,-0.00023545,-2348,1.197
2357,14.026,0.18182,0,0.00023094,2307.8,7.7464e-05,15.035,7.5463e-05,-0.0015964,-0.00023068,-2300.2,1.2238
2358,14.026,0.36364,0,0.00023046,2303.1,7.7066e-05,12.122,7.5452e-05,-0.0051983,-0.00023026,-2297,1.2245
2359,14.026,0.54545,0,0.00023025,2300.9,7.6891e-05,10.876,7.5443e-05,-0.0029149,-0.00023006,-2295.4,1.2253
2360,14.026,0.72727,0,0.00023006,2299,7.6737e-05,9.7818,7.5435e-05,-0.0025319,-0.00022989,-2294.1,1.2259
2361,14.026,0.90909,0,0.00022989,2297.3,7.6594e-05,8.7559,7.5428e-05,-0.0017803,-0.00022974,-2292.9,1.2265
2362,14.026,1.0909,0,0.00022972,2295.7,7.6461e-05,7.7976,7.5423e-05,-0.0010927,-0.00022959,-2291.8,1.2271
2363,14.026,1.2727,0,0.00022958,2294.2,7.6338e-05,6.9111,7.5418e-05,-0.00034857,-0.00022946,-2290.7,1.2276
2364,14.026,1.4545,0,0.00022944,2292.9,7.6226e-05,6.1001,7.5414e-05,0.00043537,-0.00022934,-2289.8,1.228
2365,14.026,1.6364,0,0.00022932,2291.7,7.6125e-05,5.3686,7.5411e-05,0.0012744,-0.00022923,-2289,1.2284
2366,14.026,1.8182,0,0.00022922,2290.6,7.6036e-05,4.7201,7.5408e-05,0.0021719,-0.00022914,-2288.2,1.2288
2367,14.026,2,0,0.00022913,2289.7,7.5959e-05,4.1577,7.5406e-05,0.0031249,-0.00022906,-2287.6,1.2291
2368,14.026,2.1818,0,0.00022905,2288.9,7.5895e-05,3.6843,7.5405e-05,0.0041092,-0.00022899,-2287.1,1.2293
2369,14.026,2.3636,0,0.00022899,2288.3,7.5843e-05,3.3024,7.5404e-05,0.0050784,-0.00022893,-2286.7,1.2295
2370,14.026,2.5455,0,0.00022895,2287.9,7.5803e-05,3.0141,7.5403e-05,0.0059537,-0.00022889,-2286.4,1.2297
2371,14.026,2.7273,0,0.00022891,2287.6,7.5777e-05,2.8209,7.5403e-05,0.0066302,-0.00022887,-2286.2,1.2298
2372,14.026,2.9091,0,0.0002289,2287.4,7.5764e-05,2.724,7.5402e-05,0.007001,-0.00022885,-2286,1.2298
2373,14.026,3.0909,0,0.0002289,2287.4,7.5764e-05,2.724,7.5402e-05,0.0070014,-0.00022885,-2286,1.2298
2374,14.026,3.2727,0,0.00022891,2287.6,7.5777e-05,2.8209,7.5403e-05,0.0066294,-0.00022887,-2286.2,1.2298
2375,14.026,3.4545,0,0.00022895,2287.9,7.5803e-05,3.0141,7.5403e-05,0.0059527,-0.00022889,-2286.4,1.2297
2376,14.026,3.6364,0,0.00022899,2288.3,7.5843e-05,3.3024,7.5404e-05,0.0050785,-0.00022893,-2286.7,1.2295
2377,14.026,3.8182,0,0.00022905,2288.9,7.5895e-05,3.6843,7.5405e-05,0.0041083,-0.00022899,-2287.1,1.2293
2378,14.026,4,0,0.00022913,2289.7,7.5959e-05,4.1577,7.5406e-05,0.0031252,-0.00022906,-2287.6,1.2291
2379,14.026,4.1818,0,0.00022922,2290.6,7.6036e-05,4.7201,7.5408e-05,0.0021715,-0.00022914,-2288.2,1.2288
2380,14.026,4.3636,0,0.00022932,2291.7,7.6125e-05,5.3687,7.5411e-05,0.0012742,-0.00022923,-2289,1.2284
2381,14.026,4.5455,0,0.00022944,2292.9,7.6226e-05,6.1002,7.5414e-05,0.00043439,-0.00022934,-2289.8,1.228
2382,14.026,4.7273,0,0.00022958,2294.2,7.6338e-05,6.9111,7.5418e-05,-0.00034835,-0.00022946,-2290.7,1.2276
2383,14.026,4.9091,0,0.00022973,2295.7,7.6461e-05,7.7977,7.5423e-05,-0.0010926,-0.00022959,-2291.8,1.2271
2384,14.026,5.0909,0,0.00022989,2297.3,7.6594e-05,8.7559,7.5428e-05,-0.0017819,-0.00022974,-2292.9,1.2265
2385,14.026,5.2727,0,0.00023006,2299,7.6737e-05,9.7819,7.5435e-05,-0.0025342,-0.00022989,-2294.1,1.2259
2386,14.026,5.4545,0,0.00023025,2300.9,7.6891e-05,10.877,7.5443e-05,-0.0029152,-0.00023006,-2295.4,1.2253
2387,14.026,5.6364,0,0.00023046,2303.1,7.7066e-05,12.122,7.5452e-05,-0.0051992,-0.00023026,-2297,1.2245
2388,14.026,5.8182,0,0.00023094,2307.8,7.7464e-05,15.035,7.5463e-05,-0.0015968,-0.00023068,-2300.2,1.2238
2389,14.21,0.18182,0,0.00022619,2260.3,7.5928e-05,15.393,7.3879e-05,-0.0014149,-0.00022592,-2252.6,1.2507
2390,14.21,0.36364,0,0.00022572,2255.6,7.5535e-05,12.541,7.3865e-05,-0.0058403,-0.0002255,-2249.3,1.2514
2391,14.21,0.54545,0,0.00022551,2253.5,7.5369e-05,11.381,7.3854e-05,-0.0031012,-0.00022531,-2247.8,1.2521
2392,14.21,0.72727,0,0.00022533,2251.7,7.5224e-05,10.372,7.3844e-05,-0.0026442,-0.00022515,-2246.5,1.2528
2393,14.21,0.90909,0,0.00022516,2250,7.509e-05,9.429,7.3835e-05,-0.0017353,-0.000225,-2245.3,1.2534
2394,14.21,1.0909,0,0.000225,2248.5,7.4965e-05,8.55,7.3827e-05,-0.00090866,-0.00022486,-2244.2,1.2539
2395,14.21,1.2727,0,0.00022486,2247.1,7.485e-05,7.7382,7.382e-05,-2.2475e-05,-0.00022473,-2243.2,1.2544
2396,14.21,1.4545,0,0.00022473,2245.8,7.4746e-05,6.997,7.3815e-05,0.00089018,-0.00022461,-2242.3,1.2548
2397,14.21,1.6364,0,0.00022462,2244.6,7.4652e-05,6.3295,7.381e-05,0.0018382,-0.00022451,-2241.5,1.2552
2398,14.21,1.8182,0,0.00022452,2243.6,7.457e-05,5.7386,7.3806e-05,0.0028112,-0.00022442,-2240.7,1.2556
2399,14.21,2,0,0.00022443,2242.7,7.4498e-05,5.2269,7.3803e-05,0.0037899,-0.00022434,-2240.1,1.2559
2400,14.21,2.1818,0,0.00022436,2242,7.4438e-05,4.7966,7.38e-05,0.0047409,-0.00022427,-2239.6,1.2561
2401,14.21,2.3636,0,0.0002243,2241.4,7.439e-05,4.4498,7.3798e-05,0.0056201,-0.00022422,-2239.2,1.2563
2402,14.21,2.5455,0,0.00022425,2241,7.4354e-05,4.1882,7.3797e-05,0.006366,-0.00022418,-2238.9,1.2565
2403,14.21,2.7273,0,0.00022423,2240.7,7.4329e-05,4.0131,7.3796e-05,0.0069128,-0.00022416,-2238.7,1.2566
2404,14.21,2.9091,0,0.00022421,2240.6,7.4317e-05,3.9253,7.3796e-05,0.0072023,-0.00022414,-2238.6,1.2566
2405,14.21,3.0909,0,0.00022421,2240.6,7.4317e-05,3.9253,7.3796e-05,0.0072023,-0.00022414,-2238.6,1.2566
2406,14.21,3.2727,0,0.00022423,2240.7,7.4329e-05,4.0131,7.3796e-05,0.0069124,-0.00022416,-2238.7,1.2566
2407,14.21,3.4545,0,0.00022425,2241,7.4354e-05,4.1882,7.3797e-05,0.0063658,-0.00022418,-2238.9,1.2565
2408,14.21,3.6364,0,0.0002243,2241.4,7.439e-05,4.4498,7.3798e-05,0.005621,-0.00022422,-2239.2,1.2563
2409,14.21,3.8182,0,0.00022436,2242,7.4438e-05,4.7966,7.38e-05,0.0047406,-0.00022427,-2239.6,1.2561
2410,14.21,4,0,0.00022443,2242.7,7.4498e-05,5.2269,7.3803e-05,0.0037891,-0.00022434,-2240.1,1.2559
2411,14.21,4.1818,0,0.00022452,2243.6,7.457e-05,5.7386,7.3806e-05,0.0028104,-0.00022442,-2240.7,1.2556
2412,14.21,4.3636,0,0.00022462,2244.6,7.4652e-05,6.3296,7.381e-05,0.0018376,-0.00022451,-2241.5,1.2552
2413,14.21,4.5455,0,0.00022473,2245.8,7.4746e-05,6.9971,7.3815e-05,0.00089141,-0.00022461,-2242.3,1.2548
2414,14.21,4.7273,0,0.00022486,2247.1,7.485e-05,7.7382,7.382e-05,-2.2717e-05,-0.00022473,-2243.2,1.2544
2415,14.21,4.9091,0,0.000225,2248.5,7.4965e-05,8.55,7.3827e-05,-0.00090853,-0.00022486,-2244.2,1.2539
2416,14.21,5.0909,0,0.00022516,2250,7.509e-05,9.4291,7.3835e-05,-0.001736,-0.000225,-2245.3,1.2534
2417,14.21,5.2727,0,0.00022533,2251.7,7.5224e-05,10.372,7.3844e-05,-0.0026451,-0.00022515,-2246.5,1.2528
2418,14.21,5.4545,0,0.00022551,2253.5,7.5369e-05,11.381,7.3854e-05,-0.0031033,-0.00022531,-2247.8,1.2521
2419,14.21,5.6364,0,0.00022572,2255.6,7.5535e-05,12.541,7.3865e-05,-0.0058399,-0.0002255,-2249.4,1.2514
2420,14.21,5.8182,0,0.00022619,2260.3,7.5928e-05,15.393,7.3879e-05,-0.001414,-0.00022592,-2252.6,1.2507
2421,14.395,0.18182,0,0.00022146,2213.1,7.4398e-05,15.747,7.2302e-05,-0.0012226,-0.00022119,-2205.2,1.2778
2422,14.395,0.36364,0,0.000221,2208.4,7.401e-05,12.949,7.2286e-05,-0.0064265,-0.00022077,-2201.9,1.2785
2423,14.395,0.54545,0,0.00022079,2206.4,7.3852e-05,11.87,7.2272e-05,-0.0032561,-0.00022059,-2200.4,1.2792
2424,14.395,0.72727,0,0.00022061,2204.6,7.3716e-05,10.941,7.226e-05,-0.0027266,-0.00022043,-2199.1,1.2798
2425,14.395,0.90909,0,0.00022045,2203,7.359e-05,10.075,7.2249e-05,-0.0016803,-0.00022028,-2197.9,1.2804
2426,14.395,1.0909,0,0.0002203,2201.5,7.3473e-05,9.2708,7.2239e-05,-0.00073616,-0.00022014,-2196.8,1.2809
2427,14.395,1.2727,0,0.00022016,2200.1,7.3366e-05,8.5294,7.2231e-05,0.00026215,-0.00022002,-2195.8,1.2814
2428,14.395,1.4545,0,0.00022004,2198.9,7.3269e-05,7.8538,7.2224e-05,0.0012707,-0.0002199,-2194.9,1.2818
2429,14.395,1.6364,0,0.00021993,2197.8,7.3181e-05,7.2465,7.2217e-05,0.0022888,-0.0002198,-2194.1,1.2822
2430,14.395,1.8182,0,0.00021983,2196.8,7.3104e-05,6.7098,7.2212e-05,0.0033018,-0.00021972,-2193.4,1.2825
2431,14.395,2,0,0.00021975,2196,7.3038e-05,6.2456,7.2207e-05,0.0042868,-0.00021964,-2192.8,1.2828
2432,14.395,2.1818,0,0.00021968,2195.3,7.2983e-05,5.8559,7.2204e-05,0.0052075,-0.00021958,-2192.3,1.2831
2433,14.395,2.3636,0,0.00021962,2194.7,7.2938e-05,5.5421,7.2201e-05,0.0060268,-0.00021953,-2191.9,1.2833
2434,14.395,2.5455,0,0.00021958,2194.3,7.2904e-05,5.3055,7.2199e-05,0.006699,-0.00021949,-2191.6,1.2834
2435,14.395,2.7273,0,0.00021955,2194,7.2882e-05,5.1473,7.2198e-05,0.0071763,-0.00021946,-2191.4,1.2835
2436,14.395,2.9091,0,0.00021954,2193.9,7.2871e-05,5.068,7.2197e-05,0.0074244,-0.00021945,-2191.3,1.2836
2437,14.395,3.0909,0,0.00021954,2193.9,7.2871e-05,5.068,7.2197e-05,0.0074243,-0.00021945,-2191.3,1.2836
2438,14.395,3.2727,0,0.00021955,2194,7.2882e-05,5.1473,7.2198e-05,0.0071755,-0.00021946,-2191.4,1.2835
2439,14.395,3.4545,0,0.00021958,2194.3,7.2904e-05,5.3056,7.2199e-05,0.0066981,-0.00021949,-2191.6,1.2834
2440,14.395,3.6364,0,0.00021962,2194.7,7.2938e-05,5.5421,7.2201e-05,0.0060261,-0.00021953,-2191.9,1.2833
2441,14.395,3.8182,0,0.00021968,2195.3,7.2983e-05,5.8559,7.2204e-05,0.0052086,-0.00021958,-2192.3,1.2831
2442,14.395,4,0,0.00021975,2196,7.3038e-05,6.2456,7.2207e-05,0.0042857,-0.00021964,-2192.8,1.2828
2443,14.395,4.1818,0,0.00021983,2196.8,7.3104e-05,6.7098,7.2212e-05,0.003302,-0.00021972,-2193.4,1.2825
2444,14.395,4.3636,0,0.00021993,2197.8,7.3181e-05,7.2466,7.2217e-05,0.002289,-0.0002198,-2194.1,1.2822
2445,14.395,4.5455,0,0.00022004,2198.9,7.3269e-05,7.8539,7.2224e-05,0.0012707,-0.0002199,-2194.9,1.2818
2446,14.395,4.7273,0,0.00022016,2200.1,7.3366e-05,8.5295,7.2231e-05,0.00026244,-0.00022002,-2195.8,1.2814
2447,14.395,4.9091,0,0.0002203,2201.5,7.3473e-05,9.2709,7.2239e-05,-0.00073785,-0.00022014,-2196.8,1.2809
2448,14.395,5.0909,0,0.00022045,2203,7.359e-05,10.076,7.2249e-05,-0.0016809,-0.00022028,-2197.9,1.2804
2449,14.395,5.2727,0,0.00022061,2204.6,7.3716e-05,10.941,7.226e-05,-0.0027284,-0.00022043,-2199.1,1.2798
2450,14.395,5.4545,0,0.00022079,2206.4,7.3852e-05,11.87,7.2272e-05,-0.0032568,-0.00022059,-2200.4,1.2792
2451,14.395,5.6364,0,0.000221,2208.4,7.401e-05,12.949,7.2286e-05,-0.0064264,-0.00022077,-2201.9,1.2785
2452,14.395,5.8182,0,0.00022146,2213.1,7.4398e-05,15.747,7.2302e-05,-0.0012225,-0.00022119,-2205.2,1.2778
2453,14.58,0.18182,0,0.00021676,2166.1,7.2874e-05,16.096,7.0732e-05,-0.0010582,-0.00021648,-2158,1.305
2454,14.58,0.36364,0,0.00021629,2161.4,7.2491e-05,13.348,7.0714e-05,-0.0070018,-0.00021606,-2154.7,1.3057
2455,14.58,0.54545,0,0.00021609,2159.4,7.2341e-05,12.345,7.0698e-05,-0.0034171,-0.00021588,-2153.2,1.3064
2456,14.58,0.72727,0,0.00021592,2157.7,7.2213e-05,11.491,7.0683e-05,-0.0028247,-0.00021572,-2151.9,1.307
2457,14.58,0.90909,0,0.00021576,2156.1,7.2095e-05,10.699,7.067e-05,-0.0016511,-0.00021558,-2150.8,1.3075
2458,14.58,1.0909,0,0.00021562,2154.7,7.1985e-05,9.9641,7.0659e-05,-0.00060411,-0.00021544,-2149.7,1.3081
2459,14.58,1.2727,0,0.00021548,2153.3,7.1885e-05,9.289,7.0649e-05,0.00048644,-0.00021532,-2148.7,1.3085
2460,14.58,1.4545,0,0.00021536,2152.1,7.1794e-05,8.6754,7.064e-05,0.001569,-0.00021521,-2147.8,1.309
2461,14.58,1.6364,0,0.00021526,2151.1,7.1713e-05,8.125,7.0632e-05,0.002642,-0.00021512,-2147,1.3093
2462,14.58,1.8182,0,0.00021516,2150.2,7.1642e-05,7.6394,7.0626e-05,0.0036823,-0.00021503,-2146.3,1.3097
2463,14.58,2,0,0.00021508,2149.3,7.158e-05,7.2202,7.062e-05,0.004668,-0.00021496,-2145.7,1.3099
2464,14.58,2.1818,0,0.00021502,2148.7,7.1529e-05,6.8687,7.0615e-05,0.0055688,-0.0002149,-2145.2,1.3102
2465,14.58,2.3636,0,0.00021496,2148.1,7.1488e-05,6.586,7.0612e-05,0.0063463,-0.00021485,-2144.8,1.3104
2466,14.58,2.5455,0,0.00021492,2147.7,7.1456e-05,6.3732,7.0609e-05,0.0069711,-0.00021481,-2144.5,1.3105
2467,14.58,2.7273,0,0.0002149,2147.5,7.1436e-05,6.2309,7.0607e-05,0.0074092,-0.00021479,-2144.4,1.3106
2468,14.58,2.9091,0,0.00021488,2147.3,7.1425e-05,6.1596,7.0607e-05,0.0076333,-0.00021478,-2144.3,1.3107
2469,14.58,3.0909,0,0.00021488,2147.3,7.1425e-05,6.1596,7.0607e-05,0.007633,-0.00021478,-2144.3,1.3107
2470,14.58,3.2727,0,0.0002149,2147.5,7.1436e-05,6.2309,7.0607e-05,0.007408,-0.00021479,-2144.4,1.3106
2471,14.58,3.4545,0,0.00021492,2147.7,7.1456e-05,6.3732,7.0609e-05,0.006971,-0.00021481,-2144.5,1.3105
2472,14.58,3.6364,0,0.00021496,2148.1,7.1488e-05,6.586,7.0612e-05,0.0063466,-0.00021485,-2144.8,1.3104
2473,14.58,3.8182,0,0.00021502,2148.7,7.1529e-05,6.8687,7.0615e-05,0.0055667,-0.0002149,-2145.2,1.3102
2474,14.58,4,0,0.00021508,2149.3,7.158e-05,7.2202,7.062e-05,0.0046694,-0.00021496,-2145.7,1.3099
2475,14.58,4.1818,0,0.00021516,2150.2,7.1642e-05,7.6394,7.0626e-05,0.003683,-0.00021503,-2146.3,1.3097
2476,14.58,4.3636,0,0.00021526,2151.1,7.1713e-05,8.125,7.0632e-05,0.0026423,-0.00021512,-2147,1.3093
2477,14.58,4.5455,0,0.00021536,2152.1,7.1794e-05,8.6754,7.064e-05,0.0015685,-0.00021521,-2147.8,1.309
2478,14.58,4.7273,0,0.00021548,2153.3,7.1885e-05,9.2891,7.0649e-05,0.00048663,-0.00021532,-2148.7,1.3085
2479,14.58,4.9091,0,0.00021562,2154.7,7.1985e-05,9.9641,7.0659e-05,-0.00060446,-0.00021544,-2149.7,1.3081
2480,14.58,5.0909,0,0.00021576,2156.1,7.2095e-05,10.699,7.067e-05,-0.0016518,-0.00021558,-2150.8,1.3075
2481,14.58,5.2727,0,0.00021592,2157.7,7.2213e-05,11.491,7.0683e-05,-0.0028248,-0.00021572,-2151.9,1.307
2482,14.58,5.4545,0,0.00021609,2159.4,7.2341e-05,12.345,7.0698e-05,-0.003417,-0.00021588,-2153.2,1.3064
2483,14.58,5.6364,0,0.00021629,2161.4,7.2491e-05,13.348,7.0714e-05,-0.0070018,-0.00021606,-2154.7,1.3057
2484,14.58,5.8182,0,0.00021676,2166.1,7.2874e-05,16.096,7.0732e-05,-0.0010576,-0.00021648,-2158,1.305
2485,14.765,0.18182,0,0.00021208,2119.3,7.1358e-05,16.442,6.9169e-05,-0.00091717,-0.00021179,-2111,1.3324
2486,14.765,0.36364,0,0.00021161,2114.6,7.0978e-05,13.739,6.9148e-05,-0.0075653,-0.00021137,-2107.7,1.333
2487,14.765,0.54545,0,0.00021141,2112.7,7.0836e-05,12.807,6.9131e-05,-0.0035805,-0.00021119,-2106.2,1.3337
2488,14.765,0.72727,0,0.00021125,2111,7.0715e-05,12.025,6.9114e-05,-0.0029297,-0.00021104,-2105,1.3343
2489,14.765,0.90909,0,0.00021109,2109.5,7.0604e-05,11.302,6.9099e-05,-0.0016399,-0.0002109,-2103.8,1.3349
2490,14.765,1.0909,0,0.00021095,2108,7.0501e-05,10.634,6.9086e-05,-0.00050173,-0.00021077,-2102.7,1.3354
2491,14.765,1.2727,0,0.00021082,2106.8,7.0408e-05,10.022,6.9074e-05,0.00066968,-0.00021065,-2101.7,1.3358
2492,14.765,1.4545,0,0.00021071,2105.6,7.0323e-05,9.4667,6.9064e-05,0.0018166,-0.00021054,-2100.9,1.3362
2493,14.765,1.6364,0,0.0002106,2104.6,7.0248e-05,8.9702,6.9055e-05,0.0029316,-0.00021045,-2100.1,1.3366
2494,14.765,1.8182,0,0.00021051,2103.7,7.0182e-05,8.5333,6.9047e-05,0.0039954,-0.00021037,-2099.4,1.3369
2495,14.765,2,0,0.00021044,2102.9,7.0125e-05,8.1568,6.904e-05,0.0049835,-0.0002103,-2098.8,1.3372
2496,14.765,2.1818,0,0.00021037,2102.3,7.0078e-05,7.8416,6.9035e-05,0.0058659,-0.00021024,-2098.3,1.3374
2497,14.765,2.3636,0,0.00021032,2101.8,7.0039e-05,7.5885,6.903e-05,0.0066187,-0.00021019,-2098,1.3376
2498,14.765,2.5455,0,0.00021028,2101.4,7.0011e-05,7.3982,6.9027e-05,0.0072126,-0.00021016,-2097.7,1.3378
2499,14.765,2.7273,0,0.00021026,2101.1,6.9992e-05,7.271,6.9025e-05,0.0076238,-0.00021013,-2097.5,1.3379
2500,14.765,2.9091,0,0.00021024,2101,6.9982e-05,7.2073,6.9024e-05,0.0078334,-0.00021012,-2097.4,1.3379
2501,14.765,3.0909,0,0.00021024,2101,6.9982e-05,7.2073,6.9024e-05,0.0078326,-0.00021012,-2097.4,1.3379
2502,14.765,3.2727,0,0.00021026,2101.1,6.9992e-05,7.271,6.9025e-05,0.0076236,-0.00021013,-2097.5,1.3379
2503,14.765,3.4545,0,0.00021028,2101.4,7.0011e-05,7.3982,6.9027e-05,0.0072118,-0.00021016,-2097.7,1.3378
2504,14.765,3.6364,0,0.00021032,2101.8,7.0039e-05,7.5885,6.903e-05,0.0066187,-0.00021019,-2098,1.3376
2505,14.765,3.8182,0,0.00021037,2102.3,7.0078e-05,7.8416,6.9035e-05,0.0058658,-0.00021024,-2098.3,1.3374
2506,14.765,4,0,0.00021044,2102.9,7.0125e-05,8.1568,6.904e-05,0.0049822,-0.0002103,-2098.8,1.3372
2507,14.765,4.1818,0,0.00021051,2103.7,7.0182e-05,8.5333,6.9047e-05,0.003995,-0.00021037,-2099.4,1.3369
2508,14.765,4.3636,0,0.0002106,2104.6,7.0248e-05,8.9703,6.9055e-05,0.0029319,-0.00021045,-2100.1,1.3366
2509,14.765,4.5455,0,0.00021071,2105.6,7.0324e-05,9.4667,6.9064e-05,0.0018157,-0.00021054,-2100.9,1.3362
2510,14.765,4.7273,0,0.00021082,2106.8,7.0408e-05,10.022,6.9074e-05,0.00067065,-0.00021065,-2101.7,1.3358
2511,14.765,4.9091,0,0.00021095,2108,7.0501e-05,10.634,6.9086e-05,-0.00050316,-0.00021077,-2102.7,1.3354
2512,14.765,5.0909,0,0.00021109,2109.5,7.0604e-05,11.302,6.9099e-05,-0.0016411,-0.0002109,-2103.8,1.3349
2513,14.765,5.2727,0,0.00021125,2111,7.0715e-05,12.025,6.9114e-05,-0.0029303,-0.00021104,-2105,1.3343
2514,14.765,5.4545,0,0.00021141,2112.7,7.0836e-05,12.807,6.9131e-05,-0.0035816,-0.00021119,-2106.2,1.3337
2515,14.765,5.6364,0,0.00021161,2114.6,7.0978e-05,13.739,6.9148e-05,-0.0075661,-0.00021137,-2107.7,1.333
2516,14.765,5.8182,0,0.00021208,2119.3,7.1358e-05,16.442,6.9169e-05,-0.00091592,-0.00021179,-2111,1.3324
2517,14.949,0.18182,0,0.00020741,2072.7,6.9847e-05,16.785,6.7613e-05,-0.00079608,-0.00020712,-2064.3,1.3599
2518,14.949,0.36364,0,0.00020694,2068,6.9471e-05,14.124,6.759e-05,-0.0081247,-0.0002067,-2060.9,1.3605
2519,14.949,0.54545,0,0.00020675,2066.1,6.9336e-05,13.259,6.7571e-05,-0.0037527,-0.00020652,-2059.4,1.3612
2520,14.949,0.72727,0,0.00020659,2064.5,6.9222e-05,12.545,6.7552e-05,-0.003043,-0.00020637,-2058.2,1.3618
2521,14.949,0.90909,0,0.00020644,2063,6.9118e-05,11.888,6.7536e-05,-0.0016453,-0.00020624,-2057,1.3623
2522,14.949,1.0909,0,0.0002063,2061.6,6.9022e-05,11.283,6.7521e-05,-0.0004251,-0.00020611,-2055.9,1.3628
2523,14.949,1.2727,0,0.00020618,2060.4,6.8935e-05,10.731,6.7507e-05,0.00081952,-0.00020599,-2055,1.3633
2524,14.949,1.4545,0,0.00020607,2059.3,6.8857e-05,10.232,6.7495e-05,0.0020218,-0.00020589,-2054.1,1.3637
2525,14.949,1.6364,0,0.00020597,2058.3,6.8787e-05,9.7874,6.7485e-05,0.0031754,-0.0002058,-2053.4,1.364
2526,14.949,1.8182,0,0.00020588,2057.4,6.8726e-05,9.3969,6.7476e-05,0.0042583,-0.00020572,-2052.7,1.3643
2527,14.949,2,0,0.00020581,2056.7,6.8673e-05,9.0612,6.7468e-05,0.0052495,-0.00020565,-2052.1,1.3646
2528,14.949,2.1818,0,0.00020575,2056,6.8629e-05,8.7807,6.7461e-05,0.0061235,-0.0002056,-2051.6,1.3648
2529,14.949,2.3636,0,0.0002057,2055.6,6.8594e-05,8.5559,6.7456e-05,0.0068571,-0.00020555,-2051.3,1.365
2530,14.949,2.5455,0,0.00020566,2055.2,6.8568e-05,8.3871,6.7453e-05,0.0074314,-0.00020552,-2051,1.3652
2531,14.949,2.7273,0,0.00020564,2054.9,6.855e-05,8.2743,6.745e-05,0.0078248,-0.00020549,-2050.8,1.3652
2532,14.949,2.9091,0,0.00020562,2054.8,6.8542e-05,8.2179,6.7449e-05,0.0080247,-0.00020548,-2050.7,1.3653
2533,14.949,3.0909,0,0.00020562,2054.8,6.8542e-05,8.2179,6.7449e-05,0.0080246,-0.00020548,-2050.7,1.3653
2534,14.949,3.2727,0,0.00020564,2054.9,6.855e-05,8.2743,6.745e-05,0.0078264,-0.00020549,-2050.8,1.3652
2535,14.949,3.4545,0,0.00020566,2055.2,6.8568e-05,8.3871,6.7453e-05,0.0074317,-0.00020552,-2051,1.3652
2536,14.949,3.6364,0,0.0002057,2055.6,6.8594e-05,8.5559,6.7456e-05,0.0068571,-0.00020555,-2051.3,1.365
2537,14.949,3.8182,0,0.00020575,2056,6.8629e-05,8.7807,6.7461e-05,0.0061229,-0.0002056,-2051.6,1.3648
2538,14.949,4,0,0.00020581,2056.7,6.8673e-05,9.0612,6.7468e-05,0.0052517,-0.00020565,-2052.1,1.3646
2539,14.949,4.1818,0,0.00020588,2057.4,6.8726e-05,9.3969,6.7476e-05,0.0042588,-0.00020572,-2052.7,1.3643
2540,14.949,4.3636,0,0.00020597,2058.3,6.8787e-05,9.7874,6.7485e-05,0.003175,-0.0002058,-2053.4,1.364
2541,14.949,4.5455,0,0.00020607,2059.3,6.8857e-05,10.232,6.7495e-05,0.0020221,-0.00020589,-2054.1,1.3637
2542,14.949,4.7273,0,0.00020618,2060.4,6.8935e-05,10.731,6.7507e-05,0.00081927,-0.00020599,-2055,1.3633
2543,14.949,4.9091,0,0.0002063,2061.6,6.9022e-05,11.283,6.7521e-05,-0.00042479,-0.00020611,-2055.9,1.3628
2544,14.949,5.0909,0,0.00020644,2063,6.9118e-05,11.888,6.7536e-05,-0.001646,-0.00020624,-2057,1.3623
2545,14.949,5.2727,0,0.00020659,2064.5,6.9222e-05,12.545,6.7552e-05,-0.0030457,-0.00020637,-2058.2,1.3618
2546,14.949,5.4545,0,0.00020675,2066.1,6.9336e-05,13.259,6.7571e-05,-0.0037523,-0.00020652,-2059.4,1.3612
2547,14.949,5.6364,0,0.00020695,2068,6.9471e-05,14.124,6.759e-05,-0.0081235,-0.0002067,-2060.9,1.3605
2548,14.949,5.8182,0,0.00020741,2072.7,6.9847e-05,16.785,6.7613e-05,-0.00079556,-0.00020712,-2064.3,1.3599
2549,15.134,0.18182,0,0.00020277,2026.3,6.8344e-05,17.128,6.6064e-05,-0.00066324,-0.00020247,-2017.7,1.3875
2550,15.134,0.36364,0,0.0002023,2021.6,6.7971e-05,14.504,6.6039e-05,-0.0086444,-0.00020205,-2014.3,1.3882
2551,15.134,0.54545,0,0.00020211,2019.7,6.7842e-05,13.704,6.6017e-05,-0.003896,-0.00020188,-2012.9,1.3888
2552,15.134,0.72727,0,0.00020195,2018.2,6.7735e-05,13.054,6.5997e-05,-0.0031338,-0.00020173,-2011.6,1.3894
2553,15.134,0.90909,0,0.00020181,2016.7,6.7637e-05,12.46,6.5979e-05,-0.0016311,-0.00020159,-2010.4,1.3899
2554,15.134,1.0909,0,0.00020168,2015.4,6.7548e-05,11.916,6.5962e-05,-0.00033363,-0.00020147,-2009.4,1.3904
2555,15.134,1.2727,0,0.00020156,2014.2,6.7467e-05,11.422,6.5947e-05,0.00097677,-0.00020136,-2008.4,1.3908
2556,15.134,1.4545,0,0.00020145,2013.1,6.7394e-05,10.977,6.5934e-05,0.0022305,-0.00020126,-2007.6,1.3912
2557,15.134,1.6364,0,0.00020135,2012.1,6.733e-05,10.582,6.5922e-05,0.0034177,-0.00020117,-2006.8,1.3916
2558,15.134,1.8182,0,0.00020127,2011.3,6.7273e-05,10.236,6.5912e-05,0.0045195,-0.00020109,-2006.2,1.3919
2559,15.134,2,0,0.0002012,2010.6,6.7225e-05,9.9392,6.5903e-05,0.005517,-0.00020103,-2005.6,1.3922
2560,15.134,2.1818,0,0.00020114,2010,6.7185e-05,9.6922,6.5896e-05,0.0063863,-0.00020097,-2005.1,1.3924
2561,15.134,2.3636,0,0.00020109,2009.5,6.7153e-05,9.4946,6.589e-05,0.0071077,-0.00020093,-2004.8,1.3926
2562,15.134,2.5455,0,0.00020106,2009.2,6.7129e-05,9.3464,6.5886e-05,0.0076692,-0.0002009,-2004.5,1.3927
2563,15.134,2.7273,0,0.00020103,2008.9,6.7112e-05,9.2477,6.5883e-05,0.0080494,-0.00020087,-2004.3,1.3928
2564,15.134,2.9091,0,0.00020102,2008.8,6.7104e-05,9.1983,6.5881e-05,0.0082432,-0.00020086,-2004.2,1.3928
2565,15.134,3.0909,0,0.00020102,2008.8,6.7104e-05,9.1983,6.5881e-05,0.0082438,-0.00020086,-2004.2,1.3928
2566,15.134,3.2727,0,0.00020103,2008.9,6.7113e-05,9.2477,6.5883e-05,0.00805,-0.00020087,-2004.3,1.3928
2567,15.134,3.4545,0,0.00020106,2009.2,6.7129e-05,9.3465,6.5886e-05,0.007669,-0.0002009,-2004.5,1.3927
2568,15.134,3.6364,0,0.00020109,2009.5,6.7153e-05,9.4946,6.589e-05,0.0071083,-0.00020093,-2004.8,1.3926
2569,15.134,3.8182,0,0.00020114,2010,6.7185e-05,9.6922,6.5896e-05,0.0063859,-0.00020097,-2005.1,1.3924
2570,15.134,4,0,0.0002012,2010.6,6.7225e-05,9.9392,6.5903e-05,0.005516,-0.00020103,-2005.6,1.3922
2571,15.134,4.1818,0,0.00020127,2011.3,6.7273e-05,10.236,6.5912e-05,0.0045194,-0.00020109,-2006.2,1.3919
2572,15.134,4.3636,0,0.00020135,2012.1,6.733e-05,10.582,6.5922e-05,0.0034172,-0.00020117,-2006.8,1.3916
2573,15.134,4.5455,0,0.00020145,2013.1,6.7394e-05,10.977,6.5934e-05,0.002229,-0.00020126,-2007.6,1.3912
2574,15.134,4.7273,0,0.00020156,2014.2,6.7467e-05,11.422,6.5947e-05,0.0009772,-0.00020136,-2008.4,1.3908
2575,15.134,4.9091,0,0.00020168,2015.4,6.7548e-05,11.916,6.5962e-05,-0.0003337,-0.00020147,-2009.4,1.3904
2576,15.134,5.0909,0,0.00020181,2016.7,6.7637e-05,12.46,6.5979e-05,-0.0016324,-0.00020159,-2010.4,1.3899
2577,15.134,5.2727,0,0.00020195,2018.2,6.7735e-05,13.054,6.5997e-05,-0.0031366,-0.00020173,-2011.6,1.3894
2578,15.134,5.4545,0,0.00020211,2019.7,6.7842e-05,13.704,6.6017e-05,-0.0038968,-0.00020188,-2012.9,1.3888
2579,15.134,5.6364,0,0.0002023,2021.6,6.7971e-05,14.504,6.6039e-05,-0.0086433,-0.00020205,-2014.3,1.3882
2580,15.134,5.8182,0,0.00020277,2026.3,6.8344e-05,17.128,6.6064e-05,-0.00066229,-0.00020247,-2017.7,1.3875
2581,15.319,0.18182,0,0.00019815,1980.1,6.6847e-05,17.47,6.4522e-05,-0.00053916,-0.00019785,-1971.3,1.4153
2582,15.319,0.36364,0,0.00019768,1975.4,6.6477e-05,14.88,6.4495e-05,-0.0091565,-0.00019742,-1968,1.4159
2583,15.319,0.54545,0,0.00019749,1973.6,6.6354e-05,14.142,6.4471e-05,-0.0040406,-0.00019725,-1966.5,1.4165
2584,15.319,0.72727,0,0.00019734,1972,6.6254e-05,13.554,6.4449e-05,-0.0032254,-0.00019711,-1965.2,1.4171
2585,15.319,0.90909,0,0.0001972,1970.6,6.6162e-05,13.021,6.4429e-05,-0.0016254,-0.00019697,-1964.1,1.4176
2586,15.319,1.0909,0,0.00019707,1969.3,6.6079e-05,12.536,6.4411e-05,-0.00025271,-0.00019685,-1963,1.4181
2587,15.319,1.2727,0,0.00019695,1968.2,6.6004e-05,12.097,6.4394e-05,0.0011212,-0.00019674,-1962.1,1.4185
2588,15.319,1.4545,0,0.00019685,1967.1,6.5937e-05,11.705,6.4379e-05,0.0024215,-0.00019665,-1961.2,1.4189
2589,15.319,1.6364,0,0.00019676,1966.2,6.5877e-05,11.357,6.4366e-05,0.003642,-0.00019656,-1960.5,1.4193
2590,15.319,1.8182,0,0.00019668,1965.4,6.5826e-05,11.055,6.4355e-05,0.0047642,-0.00019648,-1959.8,1.4196
2591,15.319,2,0,0.00019661,1964.7,6.5781e-05,10.796,6.4345e-05,0.0057673,-0.00019642,-1959.3,1.4198
2592,15.319,2.1818,0,0.00019655,1964.1,6.5745e-05,10.582,6.4337e-05,0.0066341,-0.00019637,-1958.8,1.4201
2593,15.319,2.3636,0,0.0001965,1963.7,6.5715e-05,10.411,6.4331e-05,0.0073512,-0.00019633,-1958.5,1.4202
2594,15.319,2.5455,0,0.00019647,1963.3,6.5693e-05,10.282,6.4326e-05,0.0079025,-0.00019629,-1958.2,1.4204
2595,15.319,2.7273,0,0.00019645,1963.1,6.5679e-05,10.197,6.4323e-05,0.0082753,-0.00019627,-1958,1.4204
2596,15.319,2.9091,0,0.00019644,1963,6.5671e-05,10.155,6.4321e-05,0.0084639,-0.00019626,-1957.9,1.4205
2597,15.319,3.0909,0,0.00019644,1963,6.5671e-05,10.155,6.4321e-05,0.0084641,-0.00019626,-1957.9,1.4205
2598,15.319,3.2727,0,0.00019645,1963.1,6.5679e-05,10.197,6.4323e-05,0.0082751,-0.00019627,-1958,1.4204
2599,15.319,3.4545,0,0.00019647,1963.3,6.5693e-05,10.282,6.4326e-05,0.0079021,-0.00019629,-1958.2,1.4204
2600,15.319,3.6364,0,0.0001965,1963.7,6.5715e-05,10.411,6.4331e-05,0.007351,-0.00019633,-1958.5,1.4202
2601,15.319,3.8182,0,0.00019655,1964.1,6.5745e-05,10.582,6.4337e-05,0.0066348,-0.00019637,-1958.8,1.4201
2602,15.319,4,0,0.00019661,1964.7,6.5781e-05,10.796,6.4345e-05,0.0057678,-0.00019642,-1959.3,1.4198
2603,15.319,4.1818,0,0.00019668,1965.4,6.5826e-05,11.055,6.4355e-05,0.004763,-0.00019648,-1959.8,1.4196
2604,15.319,4.3636,0,0.00019676,1966.2,6.5877e-05,11.357,6.4366e-05,0.0036421,-0.00019656,-1960.5,1.4193
2605,15.319,4.5455,0,0.00019685,1967.1,6.5937e-05,11.705,6.4379e-05,0.0024204,-0.00019665,-1961.2,1.4189
2606,15.319,4.7273,0,0.00019695,1968.2,6.6004e-05,12.097,6.4394e-05,0.0011222,-0.00019674,-1962.1,1.4185
2607,15.319,4.9091,0,0.00019707,1969.3,6.6079e-05,12.536,6.4411e-05,-0.00025338,-0.00019685,-1963,1.4181
2608,15.319,5.0909,0,0.0001972,1970.6,6.6162e-05,13.021,6.4429e-05,-0.0016251,-0.00019697,-1964.1,1.4176
2609,15.319,5.2727,0,0.00019734,1972,6.6254e-05,13.554,6.4449e-05,-0.0032281,-0.00019711,-1965.2,1.4171
2610,15.319,5.4545,0,0.0001975,1973.6,6.6354e-05,14.142,6.4471e-05,-0.0040397,-0.00019725,-1966.5,1.4165
2611,15.319,5.6364,0,0.00019768,1975.4,6.6477e-05,14.88,6.4495e-05,-0.0091554,-0.00019742,-1968,1.4159
2612,15.319,5.8182,0,0.00019815,1980.1,6.6847e-05,17.47,6.4522e-05,-0.0005403,-0.00019785,-1971.3,1.4153
2613,15.503,0.18182,0,0.00019355,1934.1,6.5357e-05,17.812,6.2987e-05,-0.00042946,-0.00019324,-1925.2,1.4432
2614,15.503,0.36364,0,0.00019308,1929.4,6.4989e-05,15.254,6.2957e-05,-0.009666,-0.00019281,-1921.8,1.4438
2615,15.503,0.54545,0,0.0001929,1927.6,6.4872e-05,14.576,6.2932e-05,-0.0041857,-0.00019264,-1920.3,1.4444
2616,15.503,0.72727,0,0.00019274,1926.1,6.4778e-05,14.049,6.2908e-05,-0.0033221,-0.0001925,-1919,1.445
2617,15.503,0.90909,0,0.00019261,1924.7,6.4693e-05,13.575,6.2886e-05,-0.0016227,-0.00019237,-1917.9,1.4455
2618,15.503,1.0909,0,0.00019248,1923.5,6.4616e-05,13.146,6.2866e-05,-0.00018058,-0.00019225,-1916.9,1.446
2619,15.503,1.2727,0,0.00019237,1922.3,6.4547e-05,12.762,6.2848e-05,0.0012546,-0.00019215,-1915.9,1.4464
2620,15.503,1.4545,0,0.00019227,1921.3,6.4485e-05,12.42,6.2832e-05,0.002599,-0.00019205,-1915.1,1.4468
2621,15.503,1.6364,0,0.00019218,1920.5,6.443e-05,12.119,6.2818e-05,0.0038515,-0.00019197,-1914.4,1.4471
2622,15.503,1.8182,0,0.0001921,1919.7,6.4383e-05,11.859,6.2805e-05,0.0049926,-0.0001919,-1913.7,1.4474
2623,15.503,2,0,0.00019203,1919,6.4343e-05,11.638,6.2795e-05,0.0060056,-0.00019183,-1913.2,1.4477
2624,15.503,2.1818,0,0.00019198,1918.5,6.4309e-05,11.455,6.2786e-05,0.0068746,-0.00019178,-1912.7,1.4479
2625,15.503,2.3636,0,0.00019194,1918,6.4283e-05,11.31,6.2779e-05,0.0075872,-0.00019174,-1912.4,1.448
2626,15.503,2.5455,0,0.0001919,1917.7,6.4263e-05,11.201,6.2773e-05,0.0081325,-0.00019171,-1912.1,1.4482
2627,15.503,2.7273,0,0.00019188,1917.5,6.425e-05,11.129,6.277e-05,0.0085,-0.00019169,-1911.9,1.4482
2628,15.503,2.9091,0,0.00019187,1917.4,6.4243e-05,11.093,6.2768e-05,0.0086858,-0.00019168,-1911.8,1.4483
2629,15.503,3.0909,0,0.00019187,1917.4,6.4243e-05,11.093,6.2768e-05,0.0086854,-0.00019168,-1911.8,1.4483
2630,15.503,3.2727,0,0.00019188,1917.5,6.425e-05,11.129,6.277e-05,0.008501,-0.00019169,-1911.9,1.4482
2631,15.503,3.4545,0,0.0001919,1917.7,6.4263e-05,11.201,6.2773e-05,0.0081319,-0.00019171,-1912.1,1.4482
2632,15.503,3.6364,0,0.00019194,1918,6.4283e-05,11.31,6.2779e-05,0.0075862,-0.00019174,-1912.4,1.448
2633,15.503,3.8182,0,0.00019198,1918.5,6.4309e-05,11.455,6.2786e-05,0.006874,-0.00019178,-1912.7,1.4479
2634,15.503,4,0,0.00019203,1919,6.4343e-05,11.638,6.2795e-05,0.006005,-0.00019183,-1913.2,1.4477
2635,15.503,4.1818,0,0.0001921,1919.7,6.4383e-05,11.859,6.2805e-05,0.0049915,-0.0001919,-1913.7,1.4474
2636,15.503,4.3636,0,0.00019218,1920.5,6.443e-05,12.12,6.2818e-05,0.0038516,-0.00019197,-1914.4,1.4471
2637,15.503,4.5455,0,0.00019227,1921.3,6.4485e-05,12.42,6.2832e-05,0.0025985,-0.00019205,-1915.1,1.4468
2638,15.503,4.7273,0,0.00019237,1922.3,6.4547e-05,12.762,6.2848e-05,0.0012533,-0.00019215,-1915.9,1.4464
2639,15.503,4.9091,0,0.00019248,1923.5,6.4616e-05,13.146,6.2866e-05,-0.00018088,-0.00019225,-1916.9,1.446
2640,15.503,5.0909,0,0.00019261,1924.7,6.4693e-05,13.575,6.2886e-05,-0.0016246,-0.00019237,-1917.9,1.4455
2641,15.503,5.2727,0,0.00019274,1926.1,6.4778e-05,14.049,6.2908e-05,-0.0033245,-0.0001925,-1919,1.445
2642,15.503,5.4545,0,0.0001929,1927.6,6.4872e-05,14.576,6.2932e-05,-0.0041877,-0.00019264,-1920.3,1.4444
2643,15.503,5.6364,0,0.00019308,1929.4,6.4989e-05,15.254,6.2957e-05,-0.0096645,-0.00019281,-1921.8,1.4438
2644,15.503,5.8182,0,0.00019355,1934.2,6.5357e-05,17.812,6.2987e-05,-0.00043049,-0.00019324,-1925.2,1.4432
2645,15.688,0.18182,0,0.00018897,1888.4,6.3874e-05,18.156,6.1458e-05,-0.00030112,-0.00018865,-1879.2,1.4713
2646,15.688,0.36364,0,0.00018849,1883.6,6.3508e-05,15.628,6.1427e-05,-0.010144,-0.00018822,-1875.8,1.4719
2647,15.688,0.54545,0,0.00018832,1881.9,6.3397e-05,15.007,6.1399e-05,-0.004306,-0.00018806,-1874.3,1.4725
2648,15.688,0.72727,0,0.00018817,1880.4,6.3309e-05,14.539,6.1374e-05,-0.0033903,-0.00018792,-1873.1,1.473
2649,15.688,0.90909,0,0.00018803,1879,6.323e-05,14.123,6.135e-05,-0.0015978,-0.00018779,-1871.9,1.4735
2650,15.688,1.0909,0,0.00018791,1877.8,6.3159e-05,13.75,6.1329e-05,-8.5407e-05,-0.00018767,-1870.9,1.4739
2651,15.688,1.2727,0,0.0001878,1876.7,6.3095e-05,13.419,6.1309e-05,0.0014089,-0.00018757,-1870,1.4744
2652,15.688,1.4545,0,0.00018771,1875.8,6.3038e-05,13.127,6.1292e-05,0.0027969,-0.00018748,-1869.2,1.4747
2653,15.688,1.6364,0,0.00018762,1874.9,6.2989e-05,12.873,6.1276e-05,0.0040811,-0.0001874,-1868.4,1.4751
2654,15.688,1.8182,0,0.00018754,1874.2,6.2946e-05,12.654,6.1262e-05,0.0052415,-0.00018733,-1867.8,1.4753
2655,15.688,2,0,0.00018748,1873.5,6.2909e-05,12.469,6.1251e-05,0.0062665,-0.00018727,-1867.3,1.4756
2656,15.688,2.1818,0,0.00018743,1873,6.2879e-05,12.318,6.1241e-05,0.0071378,-0.00018722,-1866.8,1.4758
2657,15.688,2.3636,0,0.00018739,1872.6,6.2856e-05,12.198,6.1233e-05,0.0078505,-0.00018718,-1866.4,1.476
2658,15.688,2.5455,0,0.00018736,1872.3,6.2838e-05,12.109,6.1227e-05,0.0083916,-0.00018715,-1866.2,1.4761
2659,15.688,2.7273,0,0.00018734,1872.1,6.2826e-05,12.05,6.1224e-05,0.0087571,-0.00018713,-1866,1.4762
2660,15.688,2.9091,0,0.00018733,1872,6.282e-05,12.02,6.1222e-05,0.0089398,-0.00018712,-1865.9,1.4762
2661,15.688,3.0909,0,0.00018733,1872,6.282e-05,12.02,6.1222e-05,0.0089404,-0.00018712,-1865.9,1.4762
2662,15.688,3.2727,0,0.00018734,1872.1,6.2826e-05,12.05,6.1224e-05,0.0087577,-0.00018713,-1866,1.4762
2663,15.688,3.4545,0,0.00018736,1872.3,6.2838e-05,12.109,6.1227e-05,0.0083926,-0.00018715,-1866.2,1.4761
2664,15.688,3.6364,0,0.00018739,1872.6,6.2856e-05,12.198,6.1233e-05,0.0078498,-0.00018718,-1866.4,1.476
2665,15.688,3.8182,0,0.00018743,1873,6.2879e-05,12.318,6.1241e-05,0.0071383,-0.00018722,-1866.8,1.4758
2666,15.688,4,0,0.00018748,1873.5,6.2909e-05,12.469,6.1251e-05,0.0062653,-0.00018727,-1867.3,1.4756
2667,15.688,4.1818,0,0.00018754,1874.2,6.2946e-05,12.654,6.1262e-05,0.0052414,-0.00018733,-1867.8,1.4753
2668,15.688,4.3636,0,0.00018762,1874.9,6.2989e-05,12.873,6.1276e-05,0.0040816,-0.0001874,-1868.4,1.4751
2669,15.688,4.5455,0,0.00018771,1875.8,6.3038e-05,13.127,6.1292e-05,0.0027966,-0.00018748,-1869.2,1.4747
2670,15.688,4.7273,0,0.0001878,1876.7,6.3095e-05,13.419,6.1309e-05,0.0014074,-0.00018757,-1870,1.4744
2671,15.688,4.9091,0,0.00018791,1877.8,6.3159e-05,13.75,6.1329e-05,-8.4831e-05,-0.00018767,-1870.9,1.4739
2672,15.688,5.0909,0,0.00018803,1879,6.323e-05,14.123,6.135e-05,-0.0015971,-0.00018779,-1871.9,1.4735
2673,15.688,5.2727,0,0.00018817,1880.4,6.3309e-05,14.539,6.1374e-05,-0.0033927,-0.00018792,-1873.1,1.473
2674,15.688,5.4545,0,0.00018832,1881.9,6.3397e-05,15.007,6.1399e-05,-0.0043051,-0.00018806,-1874.3,1.4725
2675,15.688,5.6364,0,0.00018849,1883.6,6.3508e-05,15.628,6.1427e-05,-0.010144,-0.00018822,-1875.8,1.4719
2676,15.688,5.8182,0,0.00018897,1888.4,6.3874e-05,18.156,6.1458e-05,-0.00030018,-0.00018865,-1879.2,1.4713
2677,15.873,0.18182,0,0.00018441,1842.8,6.2398e-05,18.502,5.9936e-05,-0.0002078,-0.00018409,-1833.5,1.4994
2678,15.873,0.36364,0,0.00018393,1838.1,6.2034e-05,16.002,5.9903e-05,-0.010652,-0.00018366,-1830,1.5
2679,15.873,0.54545,0,0.00018376,1836.3,6.1929e-05,15.438,5.9873e-05,-0.0044547,-0.00018349,-1828.5,1.5006
2680,15.873,0.72727,0,0.00018361,1834.9,6.1847e-05,15.028,5.9846e-05,-0.0034887,-0.00018335,-1827.3,1.5011
2681,15.873,0.90909,0,0.00018348,1833.6,6.1773e-05,14.669,5.9821e-05,-0.0015986,-0.00018323,-1826.2,1.5016
2682,15.873,1.0909,0,0.00018336,1832.4,6.1708e-05,14.351,5.9798e-05,-2.2084e-05,-0.00018312,-1825.2,1.5021
2683,15.873,1.2727,0,0.00018326,1831.3,6.1649e-05,14.073,5.9777e-05,0.0015294,-0.00018301,-1824.2,1.5025
2684,15.873,1.4545,0,0.00018316,1830.4,6.1598e-05,13.83,5.9758e-05,0.002961,-0.00018292,-1823.4,1.5028
2685,15.873,1.6364,0,0.00018308,1829.5,6.1553e-05,13.621,5.9741e-05,0.0042792,-0.00018284,-1822.7,1.5031
2686,15.873,1.8182,0,0.00018301,1828.8,6.1515e-05,13.444,5.9726e-05,0.0054594,-0.00018278,-1822.1,1.5034
2687,15.873,2,0,0.00018295,1828.2,6.1482e-05,13.296,5.9714e-05,0.006496,-0.00018272,-1821.5,1.5037
2688,15.873,2.1818,0,0.0001829,1827.7,6.1456e-05,13.175,5.9703e-05,0.0073744,-0.00018267,-1821.1,1.5039
2689,15.873,2.3636,0,0.00018286,1827.3,6.1435e-05,13.08,5.9695e-05,0.0080868,-0.00018263,-1820.7,1.504
2690,15.873,2.5455,0,0.00018283,1827,6.1419e-05,13.01,5.9688e-05,0.0086289,-0.0001826,-1820.5,1.5042
2691,15.873,2.7273,0,0.00018281,1826.8,6.1409e-05,12.964,5.9684e-05,0.0089907,-0.00018258,-1820.3,1.5042
2692,15.873,2.9091,0,0.0001828,1826.7,6.1403e-05,12.941,5.9682e-05,0.009173,-0.00018258,-1820.2,1.5043
2693,15.873,3.0909,0,0.0001828,1826.7,6.1403e-05,12.941,5.9682e-05,0.0091735,-0.00018258,-1820.2,1.5043
2694,15.873,3.2727,0,0.00018281,1826.8,6.1409e-05,12.964,5.9684e-05,0.0089919,-0.00018258,-1820.3,1.5042
2695,15.873,3.4545,0,0.00018283,1827,6.1419e-05,13.01,5.9688e-05,0.0086289,-0.0001826,-1820.5,1.5042
2696,15.873,3.6364,0,0.00018286,1827.3,6.1435e-05,13.08,5.9695e-05,0.0080871,-0.00018263,-1820.7,1.504
2697,15.873,3.8182,0,0.0001829,1827.7,6.1456e-05,13.175,5.9703e-05,0.0073749,-0.00018267,-1821.1,1.5039
2698,15.873,4,0,0.00018295,1828.2,6.1482e-05,13.296,5.9714e-05,0.0064962,-0.00018272,-1821.5,1.5037
2699,15.873,4.1818,0,0.00018301,1828.8,6.1515e-05,13.444,5.9726e-05,0.0054594,-0.00018278,-1822.1,1.5034
2700,15.873,4.3636,0,0.00018308,1829.5,6.1553e-05,13.621,5.9741e-05,0.0042771,-0.00018284,-1822.7,1.5031
2701,15.873,4.5455,0,0.00018316,1830.4,6.1598e-05,13.83,5.9758e-05,0.0029626,-0.00018292,-1823.4,1.5028
2702,15.873,4.7273,0,0.00018326,1831.3,6.1649e-05,14.073,5.9777e-05,0.0015299,-0.00018301,-1824.2,1.5025
2703,15.873,4.9091,0,0.00018336,1832.4,6.1708e-05,14.351,5.9798e-05,-2.2529e-05,-0.00018312,-1825.2,1.5021
2704,15.873,5.0909,0,0.00018348,1833.6,6.1773e-05,14.669,5.9821e-05,-0.0016011,-0.00018323,-1826.2,1.5016
2705,15.873,5.2727,0,0.00018361,1834.9,6.1847e-05,15.028,5.9846e-05,-0.003491,-0.00018335,-1827.3,1.5011
2706,15.873,5.4545,0,0.00018376,1836.3,6.1929e-05,15.438,5.9873e-05,-0.0044553,-0.00018349,-1828.5,1.5006
2707,15.873,5.6364,0,0.00018393,1838.1,6.2034e-05,16.002,5.9903e-05,-0.010651,-0.00018366,-1830,1.5
2708,15.873,5.8182,0,0.00018441,1842.8,6.2398e-05,18.502,5.9936e-05,-0.00020659,-0.00018409,-1833.5,1.4994
2709,16.057,0.18182,0,0.00017987,1797.4,6.0929e-05,18.85,5.842e-05,-0.0001195,-0.00017954,-1787.9,1.5277
2710,16.057,0.36364,0,0.00017939,1792.7,6.0566e-05,16.377,5.8385e-05,-0.01116,-0.00017911,-1784.4,1.5283
2711,16.057,0.54545,0,0.00017922,1791,6.0467e-05,15.87,5.8354e-05,-0.0046016,-0.00017894,-1783,1.5289
2712,16.057,0.72727,0,0.00017908,1789.5,6.0391e-05,15.517,5.8325e-05,-0.0035868,-0.00017881,-1781.7,1.5294
2713,16.057,0.90909,0,0.00017895,1788.3,6.0323e-05,15.215,5.8298e-05,-0.0016018,-0.00017869,-1780.6,1.5299
2714,16.057,1.0909,0,0.00017883,1787.1,6.0263e-05,14.952,5.8273e-05,4.3663e-05,-0.00017858,-1779.6,1.5303
2715,16.057,1.2727,0,0.00017873,1786.1,6.0211e-05,14.726,5.8251e-05,0.0016518,-0.00017848,-1778.7,1.5307
2716,16.057,1.4545,0,0.00017864,1785.2,6.0164e-05,14.533,5.8231e-05,0.0031293,-0.00017839,-1777.9,1.531
2717,16.057,1.6364,0,0.00017856,1784.4,6.0124e-05,14.37,5.8213e-05,0.0044772,-0.00017831,-1777.2,1.5314
2718,16.057,1.8182,0,0.00017849,1783.7,6.009e-05,14.234,5.8197e-05,0.0056793,-0.00017825,-1776.5,1.5316
2719,16.057,2,0,0.00017843,1783.1,6.0062e-05,14.122,5.8183e-05,0.0067299,-0.00017819,-1776,1.5319
2720,16.057,2.1818,0,0.00017839,1782.6,6.0038e-05,14.032,5.8172e-05,0.0076145,-0.00017814,-1775.6,1.5321
2721,16.057,2.3636,0,0.00017835,1782.3,6.002e-05,13.963,5.8163e-05,0.0083312,-0.00017811,-1775.2,1.5322
2722,16.057,2.5455,0,0.00017832,1782,6.0007e-05,13.913,5.8156e-05,0.0088728,-0.00017808,-1775,1.5323
2723,16.057,2.7273,0,0.0001783,1781.8,5.9998e-05,13.88,5.8152e-05,0.0092356,-0.00017806,-1774.8,1.5324
2724,16.057,2.9091,0,0.00017829,1781.7,5.9993e-05,13.863,5.8149e-05,0.0094166,-0.00017805,-1774.7,1.5325
2725,16.057,3.0909,0,0.00017829,1781.7,5.9993e-05,13.863,5.8149e-05,0.0094165,-0.00017805,-1774.7,1.5325
2726,16.057,3.2727,0,0.0001783,1781.8,5.9998e-05,13.88,5.8152e-05,0.0092348,-0.00017806,-1774.8,1.5324
2727,16.057,3.4545,0,0.00017832,1782,6.0007e-05,13.913,5.8156e-05,0.0088714,-0.00017808,-1775,1.5323
2728,16.057,3.6364,0,0.00017835,1782.3,6.002e-05,13.963,5.8163e-05,0.0083325,-0.00017811,-1775.2,1.5322
2729,16.057,3.8182,0,0.00017839,1782.6,6.0038e-05,14.032,5.8172e-05,0.0076142,-0.00017814,-1775.6,1.5321
2730,16.057,4,0,0.00017843,1783.1,6.0062e-05,14.122,5.8183e-05,0.0067293,-0.00017819,-1776,1.5319
2731,16.057,4.1818,0,0.00017849,1783.7,6.009e-05,14.234,5.8197e-05,0.0056805,-0.00017825,-1776.5,1.5316
2732,16.057,4.3636,0,0.00017856,1784.4,6.0124e-05,14.37,5.8213e-05,0.0044765,-0.00017831,-1777.2,1.5314
2733,16.057,4.5455,0,0.00017864,1785.2,6.0164e-05,14.533,5.8231e-05,0.0031281,-0.00017839,-1777.9,1.531
2734,16.057,4.7273,0,0.00017873,1786.1,6.0211e-05,14.726,5.8251e-05,0.0016523,-0.00017848,-1778.7,1.5307
2735,16.057,4.9091,0,0.00017883,1787.1,6.0263e-05,14.952,5.8273e-05,4.4149e-05,-0.00017858,-1779.6,1.5303
2736,16.057,5.0909,0,0.00017895,1788.3,6.0323e-05,15.215,5.8298e-05,-0.0016034,-0.00017869,-1780.6,1.5299
2737,16.057,5.2727,0,0.00017908,1789.5,6.0391e-05,15.517,5.8325e-05,-0.0035872,-0.00017881,-1781.7,1.5294
2738,16.057,5.4545,0,0.00017922,1791,6.0467e-05,15.87,5.8354e-05,-0.0046026,-0.00017894,-1783,1.5289
2739,16.057,5.6364,0,0.00017939,1792.7,6.0566e-05,16.377,5.8385e-05,-0.011158,-0.00017911,-1784.4,1.5283
2740,16.057,5.8182,0,0.00017987,1797.4,6.0929e-05,18.85,5.842e-05,-0.00011698,-0.00017954,-1787.9,1.5277
2741,16.242,0.18182,0,0.00017535,1752.3,5.9467e-05,19.202,5.6911e-05,-6.8225e-06,-0.00017501,-1742.6,1.5561
2742,16.242,0.36364,0,0.00017487,1747.5,5.9106e-05,16.756,5.6874e-05,-0.011646,-0.00017458,-1739.1,1.5567
2743,16.242,0.54545,0,0.0001747,1745.8,5.9012e-05,16.304,5.6841e-05,-0.0047217,-0.00017442,-1737.6,1.5573
2744,16.242,0.72727,0,0.00017456,1744.4,5.8941e-05,16.009,5.681e-05,-0.0036571,-0.00017428,-1736.4,1.5578
2745,16.242,0.90909,0,0.00017444,1743.2,5.888e-05,15.764,5.6782e-05,-0.0015765,-0.00017416,-1735.2,1.5582
2746,16.242,1.0909,0,0.00017433,1742.1,5.8826e-05,15.557,5.6755e-05,0.00013786,-0.00017406,-1734.2,1.5586
2747,16.242,1.2727,0,0.00017423,1741.1,5.8779e-05,15.383,5.6731e-05,0.0018043,-0.00017396,-1733.3,1.559
2748,16.242,1.4545,0,0.00017414,1740.2,5.8738e-05,15.24,5.671e-05,0.0033243,-0.00017388,-1732.5,1.5594
2749,16.242,1.6364,0,0.00017406,1739.4,5.8703e-05,15.123,5.6691e-05,0.0047052,-0.0001738,-1731.8,1.5597
2750,16.242,1.8182,0,0.000174,1738.8,5.8673e-05,15.029,5.6674e-05,0.0059313,-0.00017374,-1731.2,1.56
2751,16.242,2,0,0.00017394,1738.2,5.8648e-05,14.954,5.6659e-05,0.0069953,-0.00017368,-1730.7,1.5602
2752,16.242,2.1818,0,0.0001739,1737.8,5.8628e-05,14.896,5.6647e-05,0.0078885,-0.00017364,-1730.3,1.5604
2753,16.242,2.3636,0,0.00017386,1737.4,5.8613e-05,14.852,5.6637e-05,0.0086086,-0.0001736,-1729.9,1.5605
2754,16.242,2.5455,0,0.00017383,1737.1,5.8601e-05,14.821,5.663e-05,0.0091531,-0.00017358,-1729.7,1.5607
2755,16.242,2.7273,0,0.00017382,1737,5.8594e-05,14.801,5.6625e-05,0.009516,-0.00017356,-1729.5,1.5607
2756,16.242,2.9091,0,0.00017381,1736.9,5.859e-05,14.791,5.6623e-05,0.0096966,-0.00017355,-1729.4,1.5608
2757,16.242,3.0909,0,0.00017381,1736.9,5.859e-05,14.791,5.6623e-05,0.0096968,-0.00017355,-1729.4,1.5608
2758,16.242,3.2727,0,0.00017382,1737,5.8594e-05,14.801,5.6625e-05,0.0095155,-0.00017356,-1729.5,1.5607
2759,16.242,3.4545,0,0.00017383,1737.1,5.8601e-05,14.821,5.663e-05,0.0091526,-0.00017358,-1729.7,1.5607
2760,16.242,3.6364,0,0.00017386,1737.4,5.8613e-05,14.852,5.6637e-05,0.0086091,-0.0001736,-1729.9,1.5605
2761,16.242,3.8182,0,0.0001739,1737.8,5.8628e-05,14.896,5.6647e-05,0.0078895,-0.00017364,-1730.3,1.5604
2762,16.242,4,0,0.00017394,1738.2,5.8648e-05,14.954,5.6659e-05,0.006995,-0.00017368,-1730.7,1.5602
2763,16.242,4.1818,0,0.000174,1738.8,5.8673e-05,15.029,5.6674e-05,0.0059304,-0.00017374,-1731.2,1.56
2764,16.242,4.3636,0,0.00017406,1739.4,5.8703e-05,15.123,5.6691e-05,0.0047051,-0.0001738,-1731.8,1.5597
2765,16.242,4.5455,0,0.00017414,1740.2,5.8738e-05,15.24,5.671e-05,0.0033248,-0.00017388,-1732.5,1.5594
2766,16.242,4.7273,0,0.00017423,1741.1,5.8779e-05,15.384,5.6731e-05,0.0018022,-0.00017396,-1733.3,1.559
2767,16.242,4.9091,0,0.00017433,1742.1,5.8826e-05,15.557,5.6755e-05,0.00013679,-0.00017406,-1734.2,1.5586
2768,16.242,5.0909,0,0.00017444,1743.2,5.888e-05,15.764,5.6782e-05,-0.0015783,-0.00017416,-1735.2,1.5582
2769,16.242,5.2727,0,0.00017456,1744.4,5.8941e-05,16.009,5.681e-05,-0.0036581,-0.00017428,-1736.4,1.5578
2770,16.242,5.4545,0,0.0001747,1745.8,5.9012e-05,16.304,5.6841e-05,-0.0047237,-0.00017442,-1737.6,1.5573
2771,16.242,5.6364,0,0.00017487,1747.5,5.9106e-05,16.756,5.6874e-05,-0.011645,-0.00017458,-1739.1,1.5567
2772,16.242,5.8182,0,0.00017535,1752.3,5.9467e-05,19.202,5.6911e-05,-5.9356e-06,-0.00017501,-1742.6,1.5561
2773,16.427,0.18182,0,0.00017085,1707.3,5.8012e-05,19.558,5.5409e-05,8.866e-05,-0.00017051,-1697.5,1.5847
2774,16.427,0.36364,0,0.00017037,1702.5,5.7652e-05,17.138,5.537e-05,-0.012152,-0.00017007,-1693.9,1.5852
2775,16.427,0.54545,0,0.0001702,1700.8,5.7564e-05,16.743,5.5335e-05,-0.0048603,-0.00016991,-1692.4,1.5858
2776,16.427,0.72727,0,0.00017007,1699.5,5.7499e-05,16.506,5.5302e-05,-0.0037387,-0.00016978,-1691.2,1.5863
2777,16.427,0.90909,0,0.00016995,1698.3,5.7444e-05,16.318,5.5272e-05,-0.0015608,-0.00016966,-1690.1,1.5867
2778,16.427,1.0909,0,0.00016984,1697.2,5.7396e-05,16.167,5.5244e-05,0.00022182,-0.00016956,-1689.1,1.5871
2779,16.427,1.2727,0,0.00016974,1696.3,5.7354e-05,16.048,5.5218e-05,0.0019445,-0.00016946,-1688.2,1.5875
2780,16.427,1.4545,0,0.00016966,1695.4,5.7318e-05,15.955,5.5195e-05,0.0035098,-0.00016938,-1687.4,1.5878
2781,16.427,1.6364,0,0.00016959,1694.7,5.7288e-05,15.885,5.5175e-05,0.0049244,-0.00016931,-1686.7,1.5881
2782,16.427,1.8182,0,0.00016952,1694.1,5.7263e-05,15.833,5.5157e-05,0.0061745,-0.00016925,-1686.1,1.5884
2783,16.427,2,0,0.00016947,1693.5,5.7243e-05,15.796,5.5141e-05,0.0072553,-0.0001692,-1685.6,1.5886
2784,16.427,2.1818,0,0.00016943,1693.1,5.7226e-05,15.77,5.5128e-05,0.0081594,-0.00016915,-1685.2,1.5888
2785,16.427,2.3636,0,0.00016939,1692.8,5.7213e-05,15.753,5.5118e-05,0.0088852,-0.00016912,-1684.8,1.589
2786,16.427,2.5455,0,0.00016937,1692.5,5.7204e-05,15.741,5.511e-05,0.0094303,-0.00016909,-1684.6,1.5891
2787,16.427,2.7273,0,0.00016935,1692.3,5.7198e-05,15.735,5.5105e-05,0.0097955,-0.00016908,-1684.4,1.5892
2788,16.427,2.9091,0,0.00016934,1692.2,5.7195e-05,15.732,5.5103e-05,0.0099771,-0.00016907,-1684.3,1.5892
2789,16.427,3.0909,0,0.00016934,1692.2,5.7195e-05,15.732,5.5103e-05,0.0099764,-0.00016907,-1684.3,1.5892
2790,16.427,3.2727,0,0.00016935,1692.3,5.7198e-05,15.735,5.5105e-05,0.0097959,-0.00016908,-1684.4,1.5892
2791,16.427,3.4545,0,0.00016937,1692.5,5.7204e-05,15.741,5.511e-05,0.0094296,-0.00016909,-1684.6,1.5891
2792,16.427,3.6364,0,0.00016939,1692.8,5.7213e-05,15.753,5.5118e-05,0.0088844,-0.00016912,-1684.8,1.589
2793,16.427,3.8182,0,0.00016943,1693.1,5.7226e-05,15.77,5.5128e-05,0.0081587,-0.00016915,-1685.2,1.5888
2794,16.427,4,0,0.00016947,1693.5,5.7243e-05,15.796,5.5141e-05,0.0072556,-0.0001692,-1685.6,1.5886
2795,16.427,4.1818,0,0.00016952,1694.1,5.7263e-05,15.833,5.5157e-05,0.0061763,-0.00016925,-1686.1,1.5884
2796,16.427,4.3636,0,0.00016959,1694.7,5.7288e-05,15.885,5.5175e-05,0.0049238,-0.00016931,-1686.7,1.5881
2797,16.427,4.5455,0,0.00016966,1695.4,5.7318e-05,15.955,5.5195e-05,0.0035096,-0.00016938,-1687.4,1.5878
2798,16.427,4.7273,0,0.00016974,1696.3,5.7354e-05,16.048,5.5218e-05,0.0019455,-0.00016946,-1688.2,1.5875
2799,16.427,4.9091,0,0.00016984,1697.2,5.7396e-05,16.167,5.5244e-05,0.0002203,-0.00016956,-1689.1,1.5871
2800,16.427,5.0909,0,0.00016995,1698.3,5.7444e-05,16.318,5.5272e-05,-0.0015626,-0.00016966,-1690.1,1.5867
2801,16.427,5.2727,0,0.00017007,1699.5,5.7499e-05,16.506,5.5302e-05,-0.0037409,-0.00016978,-1691.2,1.5863
2802,16.427,5.4545,0,0.0001702,1700.8,5.7564e-05,16.743,5.5335e-05,-0.0048595,-0.00016991,-1692.4,1.5858
2803,16.427,5.6364,0,0.00017037,1702.5,5.7652e-05,17.138,5.537e-05,-0.012151,-0.00017007,-1693.9,1.5852
2804,16.427,5.8182,0,0.00017085,1707.3,5.8012e-05,19.558,5.5409e-05,8.9424e-05,-0.00017051,-1697.5,1.5847
2805,16.612,0.18182,0,0.00016637,1662.6,5.6564e-05,19.918,5.3913e-05,0.00017127,-0.00016602,-1652.5,1.6133
2806,16.612,0.36364,0,0.00016589,1657.7,5.6206e-05,17.526,5.3871e-05,-0.012678,-0.00016558,-1648.9,1.6139
2807,16.612,0.54545,0,0.00016572,1656.1,5.6123e-05,17.188,5.3835e-05,-0.005007,-0.00016542,-1647.4,1.6144
2808,16.612,0.72727,0,0.00016559,1654.8,5.6065e-05,17.011,5.38e-05,-0.0038305,-0.0001653,-1646.2,1.6149
2809,16.612,0.90909,0,0.00016547,1653.6,5.6015e-05,16.881,5.3768e-05,-0.0015524,-0.00016518,-1645.1,1.6153
2810,16.612,1.0909,0,0.00016537,1652.6,5.5973e-05,16.788,5.3739e-05,0.00029964,-0.00016508,-1644.1,1.6157
2811,16.612,1.2727,0,0.00016528,1651.6,5.5937e-05,16.723,5.3712e-05,0.002085,-0.00016499,-1643.2,1.6161
2812,16.612,1.4545,0,0.0001652,1650.8,5.5907e-05,16.683,5.3687e-05,0.0036947,-0.00016491,-1642.4,1.6164
2813,16.612,1.6364,0,0.00016513,1650.1,5.5882e-05,16.661,5.3665e-05,0.005144,-0.00016484,-1641.7,1.6167
2814,16.612,1.8182,0,0.00016507,1649.5,5.5862e-05,16.653,5.3646e-05,0.0064192,-0.00016478,-1641.2,1.617
2815,16.612,2,0,0.00016502,1649,5.5845e-05,16.654,5.363e-05,0.0075147,-0.00016473,-1640.7,1.6172
2816,16.612,2.1818,0,0.00016498,1648.6,5.5832e-05,16.661,5.3616e-05,0.0084299,-0.00016469,-1640.2,1.6174
2817,16.612,2.3636,0,0.00016495,1648.3,5.5822e-05,16.67,5.3605e-05,0.0091638,-0.00016466,-1639.9,1.6175
2818,16.612,2.5455,0,0.00016492,1648.1,5.5815e-05,16.68,5.3597e-05,0.009712,-0.00016463,-1639.7,1.6176
2819,16.612,2.7273,0,0.00016491,1647.9,5.5811e-05,16.687,5.3591e-05,0.010078,-0.00016462,-1639.5,1.6177
2820,16.612,2.9091,0,0.0001649,1647.8,5.5808e-05,16.691,5.3588e-05,0.010261,-0.00016461,-1639.4,1.6177
2821,16.612,3.0909,0,0.0001649,1647.8,5.5808e-05,16.691,5.3588e-05,0.010262,-0.00016461,-1639.4,1.6177
2822,16.612,3.2727,0,0.00016491,1647.9,5.5811e-05,16.687,5.3591e-05,0.010079,-0.00016462,-1639.5,1.6177
2823,16.612,3.4545,0,0.00016492,1648.1,5.5815e-05,16.68,5.3597e-05,0.0097128,-0.00016463,-1639.7,1.6176
2824,16.612,3.6364,0,0.00016495,1648.3,5.5822e-05,16.67,5.3605e-05,0.0091633,-0.00016466,-1639.9,1.6175
2825,16.612,3.8182,0,0.00016498,1648.6,5.5832e-05,16.661,5.3616e-05,0.0084301,-0.00016469,-1640.2,1.6174
2826,16.612,4,0,0.00016502,1649,5.5845e-05,16.654,5.363e-05,0.0075159,-0.00016473,-1640.7,1.6172
2827,16.612,4.1818,0,0.00016507,1649.5,5.5862e-05,16.653,5.3646e-05,0.0064184,-0.00016478,-1641.2,1.617
2828,16.612,4.3636,0,0.00016513,1650.1,5.5882e-05,16.661,5.3665e-05,0.0051447,-0.00016484,-1641.7,1.6167
2829,16.612,4.5455,0,0.0001652,1650.8,5.5907e-05,16.683,5.3687e-05,0.0036943,-0.00016491,-1642.4,1.6164
2830,16.612,4.7273,0,0.00016528,1651.6,5.5937e-05,16.724,5.3712e-05,0.0020837,-0.00016499,-1643.2,1.6161
2831,16.612,4.9091,0,0.00016537,1652.6,5.5973e-05,16.788,5.3739e-05,0.00029988,-0.00016508,-1644.1,1.6157
2832,16.612,5.0909,0,0.00016547,1653.6,5.6015e-05,16.882,5.3768e-05,-0.0015545,-0.00016518,-1645.1,1.6153
2833,16.612,5.2727,0,0.00016559,1654.8,5.6065e-05,17.011,5.38e-05,-0.003832,-0.0001653,-1646.2,1.6149
2834,16.612,5.4545,0,0.00016572,1656.1,5.6123e-05,17.188,5.3835e-05,-0.005006,-0.00016542,-1647.4,1.6144
2835,16.612,5.6364,0,0.00016589,1657.7,5.6206e-05,17.526,5.3871e-05,-0.012678,-0.00016558,-1648.9,1.6139
2836,16.612,5.8182,0,0.00016637,1662.6,5.6564e-05,19.918,5.3913e-05,0.00017229,-0.00016602,-1652.5,1.6133
2837,16.796,0.18182,0,0.00016191,1618,5.5123e-05,20.284,5.2423e-05,0.00024304,-0.00016156,-1607.8,1.6421
2838,16.796,0.36364,0,0.00016143,1613.2,5.4766e-05,17.92,5.238e-05,-0.013231,-0.00016111,-1604.1,1.6426
2839,16.796,0.54545,0,0.00016127,1611.5,5.469e-05,17.641,5.2341e-05,-0.0051655,-0.00016096,-1602.7,1.6431
2840,16.796,0.72727,0,0.00016114,1610.3,5.4637e-05,17.524,5.2304e-05,-0.0039293,-0.00016083,-1601.4,1.6436
2841,16.796,0.90909,0,0.00016102,1609.1,5.4594e-05,17.456,5.2271e-05,-0.0015524,-0.00016072,-1600.3,1.644
2842,16.796,1.0909,0,0.00016092,1608.1,5.4558e-05,17.421,5.2239e-05,0.00037441,-0.00016062,-1599.3,1.6444
2843,16.796,1.2727,0,0.00016083,1607.2,5.4528e-05,17.414,5.2211e-05,0.002219,-0.00016053,-1598.5,1.6448
2844,16.796,1.4545,0,0.00016076,1606.5,5.4504e-05,17.427,5.2185e-05,0.003878,-0.00016045,-1597.7,1.6451
2845,16.796,1.6364,0,0.00016069,1605.8,5.4484e-05,17.455,5.2162e-05,0.0053621,-0.00016039,-1597,1.6454
2846,16.796,1.8182,0,0.00016064,1605.2,5.4469e-05,17.491,5.2142e-05,0.0066622,-0.00016033,-1596.4,1.6456
2847,16.796,2,0,0.00016059,1604.8,5.4456e-05,17.533,5.2124e-05,0.0077773,-0.00016028,-1595.9,1.6458
2848,16.796,2.1818,0,0.00016055,1604.4,5.4447e-05,17.574,5.2109e-05,0.0087058,-0.00016024,-1595.5,1.646
2849,16.796,2.3636,0,0.00016052,1604.1,5.444e-05,17.611,5.2098e-05,0.009444,-0.00016021,-1595.2,1.6462
2850,16.796,2.5455,0,0.0001605,1603.9,5.4436e-05,17.642,5.2089e-05,0.0099998,-0.00016019,-1595,1.6463
2851,16.796,2.7273,0,0.00016048,1603.7,5.4433e-05,17.664,5.2083e-05,0.010367,-0.00016018,-1594.8,1.6463
2852,16.796,2.9091,0,0.00016048,1603.7,5.4431e-05,17.675,5.208e-05,0.010551,-0.00016017,-1594.7,1.6464
2853,16.796,3.0909,0,0.00016048,1603.7,5.4431e-05,17.675,5.208e-05,0.010551,-0.00016017,-1594.7,1.6464
2854,16.796,3.2727,0,0.00016048,1603.7,5.4433e-05,17.664,5.2083e-05,0.010367,-0.00016018,-1594.8,1.6463
2855,16.796,3.4545,0,0.0001605,1603.9,5.4436e-05,17.642,5.2089e-05,0.0099988,-0.00016019,-1595,1.6463
2856,16.796,3.6364,0,0.00016052,1604.1,5.444e-05,17.611,5.2098e-05,0.0094448,-0.00016021,-1595.2,1.6462
2857,16.796,3.8182,0,0.00016055,1604.4,5.4447e-05,17.574,5.2109e-05,0.008704,-0.00016024,-1595.5,1.646
2858,16.796,4,0,0.00016059,1604.8,5.4456e-05,17.533,5.2124e-05,0.0077769,-0.00016028,-1595.9,1.6458
2859,16.796,4.1818,0,0.00016064,1605.2,5.4469e-05,17.492,5.2142e-05,0.0066615,-0.00016033,-1596.4,1.6456
2860,16.796,4.3636,0,0.00016069,1605.8,5.4484e-05,17.455,5.2162e-05,0.0053614,-0.00016039,-1597,1.6454
2861,16.796,4.5455,0,0.00016076,1606.5,5.4504e-05,17.427,5.2185e-05,0.0038768,-0.00016045,-1597.7,1.6451
2862,16.796,4.7273,0,0.00016083,1607.2,5.4528e-05,17.414,5.2211e-05,0.0022185,-0.00016053,-1598.5,1.6448
2863,16.796,4.9091,0,0.00016092,1608.1,5.4558e-05,17.421,5.2239e-05,0.0003747,-0.00016062,-1599.3,1.6444
2864,16.796,5.0909,0,0.00016102,1609.1,5.4594e-05,17.456,5.2271e-05,-0.0015539,-0.00016072,-1600.3,1.644
2865,16.796,5.2727,0,0.00016114,1610.3,5.4637e-05,17.524,5.2304e-05,-0.0039317,-0.00016083,-1601.4,1.6436
2866,16.796,5.4545,0,0.00016127,1611.5,5.469e-05,17.641,5.2341e-05,-0.0051642,-0.00016096,-1602.7,1.6431
2867,16.796,5.6364,0,0.00016143,1613.2,5.4766e-05,17.92,5.238e-05,-0.013229,-0.00016111,-1604.1,1.6426
2868,16.796,5.8182,0,0.00016191,1618,5.5123e-05,20.284,5.2423e-05,0.00024261,-0.00016156,-1607.8,1.6421
2869,16.981,0.18182,0,0.00015747,1573.6,5.3689e-05,20.656,5.094e-05,0.00032524,-0.00015711,-1563.2,1.671
2870,16.981,0.36364,0,0.00015699,1568.8,5.3334e-05,18.321,5.0894e-05,-0.013782,-0.00015667,-1559.5,1.6715
2871,16.981,0.54545,0,0.00015683,1567.2,5.3263e-05,18.104,5.0853e-05,-0.0053108,-0.00015651,-1558.1,1.672
2872,16.981,0.72727,0,0.0001567,1565.9,5.3218e-05,18.05,5.0815e-05,-0.0040162,-0.00015639,-1556.8,1.6724
2873,16.981,0.90909,0,0.00015659,1564.9,5.3181e-05,18.044,5.0779e-05,-0.0015304,-0.00015628,-1555.8,1.6728
2874,16.981,1.0909,0,0.0001565,1563.9,5.3151e-05,18.071,5.0746e-05,0.00046957,-0.00015618,-1554.8,1.6732
2875,16.981,1.2727,0,0.00015641,1563,5.3128e-05,18.122,5.0716e-05,0.0023782,-0.0001561,-1553.9,1.6736
2876,16.981,1.4545,0,0.00015634,1562.3,5.3109e-05,18.191,5.0689e-05,0.0040852,-0.00015602,-1553.1,1.6739
2877,16.981,1.6364,0,0.00015628,1561.7,5.3095e-05,18.271,5.0664e-05,0.0056061,-0.00015596,-1552.5,1.6742
2878,16.981,1.8182,0,0.00015622,1561.2,5.3085e-05,18.355,5.0643e-05,0.0069334,-0.0001559,-1551.9,1.6744
2879,16.981,2,0,0.00015618,1560.7,5.3077e-05,18.438,5.0624e-05,0.0080694,-0.00015586,-1551.4,1.6746
2880,16.981,2.1818,0,0.00015614,1560.4,5.3072e-05,18.515,5.0609e-05,0.0090087,-0.00015582,-1551,1.6748
2881,16.981,2.3636,0,0.00015612,1560.1,5.3068e-05,18.582,5.0596e-05,0.009758,-0.00015579,-1550.7,1.6749
2882,16.981,2.5455,0,0.0001561,1559.9,5.3066e-05,18.635,5.0587e-05,0.010318,-0.00015577,-1550.5,1.675
2883,16.981,2.7273,0,0.00015608,1559.7,5.3064e-05,18.672,5.0581e-05,0.010689,-0.00015576,-1550.3,1.6751
2884,16.981,2.9091,0,0.00015608,1559.7,5.3063e-05,18.69,5.0577e-05,0.010875,-0.00015575,-1550.2,1.6751
2885,16.981,3.0909,0,0.00015608,1559.7,5.3063e-05,18.69,5.0577e-05,0.010873,-0.00015575,-1550.2,1.6751
2886,16.981,3.2727,0,0.00015608,1559.7,5.3064e-05,18.672,5.0581e-05,0.010689,-0.00015576,-1550.3,1.6751
2887,16.981,3.4545,0,0.0001561,1559.9,5.3066e-05,18.635,5.0587e-05,0.010317,-0.00015577,-1550.5,1.675
2888,16.981,3.6364,0,0.00015612,1560.1,5.3068e-05,18.582,5.0596e-05,0.0097575,-0.00015579,-1550.7,1.6749
2889,16.981,3.8182,0,0.00015614,1560.4,5.3072e-05,18.515,5.0609e-05,0.0090094,-0.00015582,-1551,1.6748
2890,16.981,4,0,0.00015618,1560.7,5.3077e-05,18.438,5.0624e-05,0.0080687,-0.00015586,-1551.4,1.6746
2891,16.981,4.1818,0,0.00015622,1561.2,5.3085e-05,18.355,5.0643e-05,0.0069343,-0.0001559,-1551.9,1.6744
2892,16.981,4.3636,0,0.00015628,1561.7,5.3095e-05,18.271,5.0664e-05,0.0056077,-0.00015596,-1552.5,1.6742
2893,16.981,4.5455,0,0.00015634,1562.3,5.3109e-05,18.191,5.0689e-05,0.0040812,-0.00015602,-1553.1,1.6739
2894,16.981,4.7273,0,0.00015641,1563,5.3128e-05,18.122,5.0716e-05,0.002378,-0.0001561,-1553.9,1.6736
2895,16.981,4.9091,0,0.0001565,1563.9,5.3151e-05,18.071,5.0746e-05,0.00046936,-0.00015618,-1554.8,1.6732
2896,16.981,5.0909,0,0.00015659,1564.9,5.3181e-05,18.044,5.0779e-05,-0.0015321,-0.00015628,-1555.8,1.6728
2897,16.981,5.2727,0,0.0001567,1565.9,5.3218e-05,18.05,5.0815e-05,-0.004019,-0.00015639,-1556.8,1.6724
2898,16.981,5.4545,0,0.00015683,1567.2,5.3263e-05,18.104,5.0853e-05,-0.0053111,-0.00015651,-1558.1,1.672
2899,16.981,5.6364,0,0.00015699,1568.8,5.3334e-05,18.321,5.0894e-05,-0.013781,-0.00015667,-1559.5,1.6715
2900,16.981,5.8182,0,0.00015747,1573.6,5.3689e-05,20.656,5.094e-05,0.00032612,-0.00015711,-1563.2,1.671
2901,17.166,0.18182,0,0.00015305,1529.5,5.2262e-05,21.035,4.9462e-05,0.00040044,-0.00015269,-1518.9,1.6999
2902,17.166,0.36364,0,0.00015256,1524.6,5.1909e-05,18.731,4.9414e-05,-0.014361,-0.00015224,-1515.2,1.7004
2903,17.166,0.54545,0,0.00015241,1523,5.1845e-05,18.577,4.9372e-05,-0.0054636,-0.00015209,-1513.7,1.7009
2904,17.166,0.72727,0,0.00015229,1521.8,5.1806e-05,18.589,4.9331e-05,-0.0041064,-0.00015196,-1512.5,1.7014
2905,17.166,0.90909,0,0.00015218,1520.8,5.1776e-05,18.649,4.9294e-05,-0.0015097,-0.00015186,-1511.4,1.7018
2906,17.166,1.0909,0,0.00015209,1519.9,5.1753e-05,18.74,4.9259e-05,0.00056822,-0.00015176,-1510.4,1.7021
2907,17.166,1.2727,0,0.00015201,1519.1,5.1736e-05,18.854,4.9227e-05,0.0025439,-0.00015168,-1509.5,1.7025
2908,17.166,1.4545,0,0.00015194,1518.4,5.1724e-05,18.981,4.9198e-05,0.0042988,-0.00015161,-1508.8,1.7028
2909,17.166,1.6364,0,0.00015188,1517.8,5.1716e-05,19.115,4.9172e-05,0.0058616,-0.00015155,-1508.1,1.7031
2910,17.166,1.8182,0,0.00015183,1517.3,5.171e-05,19.249,4.9149e-05,0.0072173,-0.0001515,-1507.6,1.7033
2911,17.166,2,0,0.00015179,1516.9,5.1707e-05,19.376,4.913e-05,0.0083714,-0.00015145,-1507.1,1.7035
2912,17.166,2.1818,0,0.00015176,1516.6,5.1706e-05,19.49,4.9113e-05,0.0093258,-0.00015142,-1506.7,1.7037
2913,17.166,2.3636,0,0.00015174,1516.3,5.1706e-05,19.588,4.91e-05,0.010084,-0.00015139,-1506.4,1.7038
2914,17.166,2.5455,0,0.00015172,1516.1,5.1706e-05,19.664,4.909e-05,0.01065,-0.00015137,-1506.2,1.7039
2915,17.166,2.7273,0,0.0001517,1516,5.1706e-05,19.717,4.9084e-05,0.011023,-0.00015136,-1506,1.704
2916,17.166,2.9091,0,0.0001517,1515.9,5.1706e-05,19.743,4.908e-05,0.011212,-0.00015135,-1506,1.704
2917,17.166,3.0909,0,0.0001517,1515.9,5.1706e-05,19.743,4.908e-05,0.01121,-0.00015135,-1506,1.704
2918,17.166,3.2727,0,0.0001517,1516,5.1706e-05,19.717,4.9084e-05,0.011025,-0.00015136,-1506,1.704
2919,17.166,3.4545,0,0.00015172,1516.1,5.1706e-05,19.664,4.909e-05,0.01065,-0.00015137,-1506.2,1.7039
2920,17.166,3.6364,0,0.00015174,1516.3,5.1706e-05,19.588,4.91e-05,0.010083,-0.00015139,-1506.4,1.7038
2921,17.166,3.8182,0,0.00015176,1516.6,5.1706e-05,19.49,4.9113e-05,0.0093255,-0.00015142,-1506.7,1.7037
2922,17.166,4,0,0.00015179,1516.9,5.1707e-05,19.376,4.913e-05,0.0083707,-0.00015145,-1507.1,1.7035
2923,17.166,4.1818,0,0.00015183,1517.3,5.171e-05,19.249,4.9149e-05,0.0072166,-0.0001515,-1507.6,1.7033
2924,17.166,4.3636,0,0.00015188,1517.8,5.1716e-05,19.115,4.9172e-05,0.0058597,-0.00015155,-1508.1,1.7031
2925,17.166,4.5455,0,0.00015194,1518.4,5.1724e-05,18.981,4.9198e-05,0.004301,-0.00015161,-1508.8,1.7028
2926,17.166,4.7273,0,0.00015201,1519.1,5.1736e-05,18.854,4.9227e-05,0.0025436,-0.00015168,-1509.5,1.7025
2927,17.166,4.9091,0,0.00015209,1519.9,5.1753e-05,18.74,4.9259e-05,0.00056677,-0.00015176,-1510.4,1.7021
2928,17.166,5.0909,0,0.00015218,1520.8,5.1776e-05,18.649,4.9294e-05,-0.0015112,-0.00015186,-1511.4,1.7018
2929,17.166,5.2727,0,0.00015229,1521.8,5.1806e-05,18.589,4.9331e-05,-0.0041062,-0.00015196,-1512.5,1.7014
2930,17.166,5.4545,0,0.00015241,1523,5.1845e-05,18.577,4.9372e-05,-0.0054639,-0.00015209,-1513.7,1.7009
2931,17.166,5.6364,0,0.00015256,1524.6,5.1909e-05,18.731,4.9415e-05,-0.014361,-0.00015224,-1515.2,1.7004
2932,17.166,5.8182,0,0.00015305,1529.5,5.2262e-05,21.035,4.9462e-05,0.00040083,-0.00015269,-1518.9,1.6999
2933,17.35,0.18182,0,0.00014866,1485.5,5.0842e-05,21.421,4.7991e-05,0.00046695,-0.00014828,-1474.7,1.729
2934,17.35,0.36364,0,0.00014816,1480.6,5.0492e-05,19.151,4.7941e-05,-0.014969,-0.00014783,-1471,1.7295
2935,17.35,0.54545,0,0.00014801,1479.1,5.0434e-05,19.064,4.7896e-05,-0.0056275,-0.00014768,-1469.5,1.73
2936,17.35,0.72727,0,0.0001479,1477.9,5.0402e-05,19.145,4.7854e-05,-0.0042009,-0.00014756,-1468.3,1.7304
2937,17.35,0.90909,0,0.00014779,1476.9,5.0379e-05,19.273,4.7814e-05,-0.0014876,-0.00014746,-1467.2,1.7308
2938,17.35,1.0909,0,0.00014771,1476,5.0364e-05,19.432,4.7777e-05,0.00067115,-0.00014737,-1466.2,1.7312
2939,17.35,1.2727,0,0.00014763,1475.3,5.0353e-05,19.611,4.7744e-05,0.0027141,-0.00014729,-1465.4,1.7315
2940,17.35,1.4545,0,0.00014757,1474.6,5.0348e-05,19.8,4.7713e-05,0.0045247,-0.00014722,-1464.6,1.7318
2941,17.35,1.6364,0,0.00014751,1474.1,5.0346e-05,19.992,4.7686e-05,0.0061238,-0.00014716,-1464,1.7321
2942,17.35,1.8182,0,0.00014747,1473.7,5.0346e-05,20.178,4.7662e-05,0.0075102,-0.00014711,-1463.5,1.7323
2943,17.35,2,0,0.00014743,1473.3,5.0348e-05,20.351,4.7641e-05,0.0086873,-0.00014707,-1463,1.7325
2944,17.35,2.1818,0,0.0001474,1473,5.0351e-05,20.505,4.7624e-05,0.0096559,-0.00014704,-1462.6,1.7327
2945,17.35,2.3636,0,0.00014738,1472.8,5.0355e-05,20.635,4.761e-05,0.010424,-0.00014702,-1462.3,1.7328
2946,17.35,2.5455,0,0.00014736,1472.6,5.0357e-05,20.736,4.7599e-05,0.010995,-0.000147,-1462.1,1.7329
2947,17.35,2.7273,0,0.00014735,1472.5,5.036e-05,20.806,4.7592e-05,0.011376,-0.00014698,-1462,1.733
2948,17.35,2.9091,0,0.00014734,1472.4,5.0361e-05,20.841,4.7589e-05,0.011564,-0.00014698,-1461.9,1.733
2949,17.35,3.0909,0,0.00014734,1472.4,5.0361e-05,20.841,4.7589e-05,0.011565,-0.00014698,-1461.9,1.733
2950,17.35,3.2727,0,0.00014735,1472.5,5.036e-05,20.806,4.7592e-05,0.011376,-0.00014698,-1462,1.733
2951,17.35,3.4545,0,0.00014736,1472.6,5.0357e-05,20.736,4.7599e-05,0.010995,-0.000147,-1462.1,1.7329
2952,17.35,3.6364,0,0.00014738,1472.8,5.0355e-05,20.635,4.761e-05,0.010425,-0.00014702,-1462.3,1.7328
2953,17.35,3.8182,0,0.0001474,1473,5.0351e-05,20.505,4.7624e-05,0.0096556,-0.00014704,-1462.6,1.7327
2954,17.35,4,0,0.00014743,1473.3,5.0348e-05,20.351,4.7641e-05,0.0086865,-0.00014707,-1463,1.7325
2955,17.35,4.1818,0,0.00014747,1473.7,5.0346e-05,20.178,4.7662e-05,0.0075108,-0.00014711,-1463.5,1.7323
2956,17.35,4.3636,0,0.00014751,1474.1,5.0346e-05,19.992,4.7686e-05,0.0061226,-0.00014716,-1464,1.7321
2957,17.35,4.5455,0,0.00014757,1474.6,5.0348e-05,19.801,4.7713e-05,0.0045242,-0.00014722,-1464.6,1.7318
2958,17.35,4.7273,0,0.00014763,1475.3,5.0353e-05,19.611,4.7744e-05,0.0027133,-0.00014729,-1465.4,1.7315
2959,17.35,4.9091,0,0.00014771,1476,5.0364e-05,19.432,4.7777e-05,0.00067128,-0.00014737,-1466.2,1.7312
2960,17.35,5.0909,0,0.00014779,1476.9,5.0379e-05,19.274,4.7814e-05,-0.0014901,-0.00014746,-1467.2,1.7308
2961,17.35,5.2727,0,0.0001479,1477.9,5.0402e-05,19.145,4.7854e-05,-0.0042028,-0.00014756,-1468.3,1.7304
2962,17.35,5.4545,0,0.00014801,1479.1,5.0434e-05,19.064,4.7896e-05,-0.005628,-0.00014768,-1469.5,1.73
2963,17.35,5.6364,0,0.00014816,1480.6,5.0492e-05,19.151,4.7941e-05,-0.014967,-0.00014783,-1471,1.7295
2964,17.35,5.8182,0,0.00014866,1485.5,5.0842e-05,21.421,4.7991e-05,0.00046754,-0.00014828,-1474.7,1.729
2965,17.535,0.18182,0,0.00014428,1441.8,4.943e-05,21.814,4.6527e-05,0.00054313,-0.00014389,-1430.7,1.7582
2966,17.535,0.36364,0,0.00014378,1436.8,4.9082e-05,19.582,4.6474e-05,-0.01559,-0.00014344,-1427,1.7587
2967,17.535,0.54545,0,0.00014363,1435.4,4.9031e-05,19.565,4.6427e-05,-0.005782,-0.00014329,-1425.5,1.7591
2968,17.535,0.72727,0,0.00014352,1434.2,4.9007e-05,19.719,4.6382e-05,-0.0042798,-0.00014318,-1424.3,1.7595
2969,17.535,0.90909,0,0.00014343,1433.3,4.8992e-05,19.921,4.634e-05,-0.0014453,-0.00014308,-1423.2,1.7599
2970,17.535,1.0909,0,0.00014334,1432.4,4.8983e-05,20.151,4.6301e-05,0.00079711,-0.00014299,-1422.3,1.7603
2971,17.535,1.2727,0,0.00014327,1431.7,4.8981e-05,20.399,4.6266e-05,0.0029128,-0.00014291,-1421.4,1.7606
2972,17.535,1.4545,0,0.00014321,1431.1,4.8982e-05,20.654,4.6234e-05,0.0047774,-0.00014285,-1420.7,1.7609
2973,17.535,1.6364,0,0.00014316,1430.6,4.8986e-05,20.907,4.6205e-05,0.0064194,-0.0001428,-1420.1,1.7611
2974,17.535,1.8182,0,0.00014312,1430.2,4.8993e-05,21.148,4.6179e-05,0.0078368,-0.00014275,-1419.5,1.7614
2975,17.535,2,0,0.00014309,1429.9,4.9e-05,21.371,4.6157e-05,0.0090355,-0.00014271,-1419.1,1.7616
2976,17.535,2.1818,0,0.00014306,1429.6,4.9008e-05,21.567,4.6139e-05,0.010022,-0.00014268,-1418.7,1.7617
2977,17.535,2.3636,0,0.00014304,1429.4,4.9015e-05,21.731,4.6124e-05,0.010802,-0.00014266,-1418.4,1.7619
2978,17.535,2.5455,0,0.00014303,1429.3,4.9021e-05,21.859,4.6113e-05,0.011381,-0.00014264,-1418.2,1.762
2979,17.535,2.7273,0,0.00014302,1429.2,4.9025e-05,21.946,4.6106e-05,0.011764,-0.00014263,-1418.1,1.762
2980,17.535,2.9091,0,0.00014301,1429.1,4.9027e-05,21.99,4.6102e-05,0.011954,-0.00014263,-1418,1.7621
2981,17.535,3.0909,0,0.00014301,1429.1,4.9027e-05,21.99,4.6102e-05,0.011954,-0.00014263,-1418,1.7621
2982,17.535,3.2727,0,0.00014302,1429.2,4.9025e-05,21.946,4.6106e-05,0.011764,-0.00014263,-1418.1,1.762
2983,17.535,3.4545,0,0.00014303,1429.3,4.9021e-05,21.859,4.6113e-05,0.011382,-0.00014264,-1418.2,1.762
2984,17.535,3.6364,0,0.00014304,1429.4,4.9015e-05,21.731,4.6124e-05,0.010802,-0.00014266,-1418.4,1.7619
2985,17.535,3.8182,0,0.00014306,1429.6,4.9008e-05,21.567,4.6139e-05,0.010021,-0.00014268,-1418.7,1.7617
2986,17.535,4,0,0.00014309,1429.9,4.9e-05,21.371,4.6157e-05,0.0090356,-0.00014271,-1419.1,1.7616
2987,17.535,4.1818,0,0.00014312,1430.2,4.8993e-05,21.148,4.6179e-05,0.0078372,-0.00014275,-1419.5,1.7614
2988,17.535,4.3636,0,0.00014316,1430.6,4.8986e-05,20.907,4.6205e-05,0.0064199,-0.0001428,-1420.1,1.7611
2989,17.535,4.5455,0,0.00014321,1431.1,4.8982e-05,20.654,4.6234e-05,0.0047763,-0.00014285,-1420.7,1.7609
2990,17.535,4.7273,0,0.00014327,1431.7,4.8981e-05,20.399,4.6266e-05,0.0029134,-0.00014291,-1421.4,1.7606
2991,17.535,4.9091,0,0.00014334,1432.4,4.8983e-05,20.151,4.6301e-05,0.00079821,-0.00014299,-1422.3,1.7603
2992,17.535,5.0909,0,0.00014343,1433.3,4.8992e-05,19.921,4.634e-05,-0.0014472,-0.00014308,-1423.2,1.7599
2993,17.535,5.2727,0,0.00014352,1434.2,4.9007e-05,19.719,4.6382e-05,-0.0042833,-0.00014318,-1424.3,1.7595
2994,17.535,5.4545,0,0.00014363,1435.4,4.9031e-05,19.565,4.6427e-05,-0.0057819,-0.00014329,-1425.5,1.7591
2995,17.535,5.6364,0,0.00014378,1436.8,4.9082e-05,19.582,4.6474e-05,-0.015588,-0.00014344,-1427,1.7587
2996,17.535,5.8182,0,0.00014428,1441.8,4.943e-05,21.814,4.6527e-05,0.00054434,-0.00014389,-1430.7,1.7582
2997,17.72,0.18182,0,0.00013992,1398.2,4.8024e-05,22.215,4.5068e-05,0.0006063,-0.00013953,-1387,1.7875
2998,17.72,0.36364,0,0.00013942,1393.3,4.768e-05,20.024,4.5012e-05,-0.016258,-0.00013907,-1383.1,1.7879
2999,17.72,0.54545,0,0.00013928,1391.8,4.7636e-05,20.082,4.4963e-05,-0.0059528,-0.00013893,-1381.7,1.7884
3000,17.72,0.72727,0,0.00013917,1390.7,4.762e-05,20.314,4.4916e-05,-0.0043719,-0.00013881,-1380.5,1.7888
3001,17.72,0.90909,0,0.00013908,1389.8,4.7613e-05,20.593,4.4872e-05,-0.001411,-0.00013872,-1379.4,1.7892
3002,17.72,1.0909,0,0.000139,1389,4.7612e-05,20.9,4.4831e-05,0.00092601,-0.00013863,-1378.5,1.7895
3003,17.72,1.2727,0,0.00013893,1388.4,4.7618e-05,21.222,4.4794e-05,0.0031149,-0.00013856,-1377.7,1.7898
3004,17.72,1.4545,0,0.00013888,1387.8,4.7627e-05,21.547,4.476e-05,0.0050361,-0.0001385,-1376.9,1.7901
3005,17.72,1.6364,0,0.00013884,1387.4,4.7638e-05,21.865,4.4729e-05,0.0067249,-0.00013845,-1376.3,1.7903
3006,17.72,1.8182,0,0.0001388,1387,4.7651e-05,22.165,4.4702e-05,0.0081741,-0.00013841,-1375.8,1.7906
3007,17.72,2,0,0.00013877,1386.7,4.7664e-05,22.44,4.4679e-05,0.0093963,-0.00013837,-1375.4,1.7908
3008,17.72,2.1818,0,0.00013875,1386.5,4.7677e-05,22.682,4.4659e-05,0.010401,-0.00013835,-1375,1.7909
3009,17.72,2.3636,0,0.00013873,1386.3,4.7688e-05,22.883,4.4644e-05,0.011193,-0.00013833,-1374.8,1.791
3010,17.72,2.5455,0,0.00013872,1386.2,4.7697e-05,23.039,4.4632e-05,0.011778,-0.00013831,-1374.6,1.7911
3011,17.72,2.7273,0,0.00013871,1386.1,4.7703e-05,23.145,4.4624e-05,0.012167,-0.0001383,-1374.4,1.7912
3012,17.72,2.9091,0,0.00013871,1386.1,4.7706e-05,23.198,4.462e-05,0.012358,-0.0001383,-1374.4,1.7912
3013,17.72,3.0909,0,0.00013871,1386.1,4.7706e-05,23.198,4.462e-05,0.012359,-0.0001383,-1374.4,1.7912
3014,17.72,3.2727,0,0.00013871,1386.1,4.7703e-05,23.145,4.4624e-05,0.012166,-0.0001383,-1374.4,1.7912
3015,17.72,3.4545,0,0.00013872,1386.2,4.7697e-05,23.039,4.4632e-05,0.011779,-0.00013831,-1374.6,1.7911
3016,17.72,3.6364,0,0.00013873,1386.3,4.7688e-05,22.883,4.4644e-05,0.01119,-0.00013833,-1374.8,1.791
3017,17.72,3.8182,0,0.00013875,1386.5,4.7677e-05,22.682,4.4659e-05,0.010401,-0.00013835,-1375,1.7909
3018,17.72,4,0,0.00013877,1386.7,4.7664e-05,22.44,4.4679e-05,0.0093986,-0.00013837,-1375.4,1.7908
3019,17.72,4.1818,0,0.0001388,1387,4.7651e-05,22.165,4.4702e-05,0.0081744,-0.00013841,-1375.8,1.7906
3020,17.72,4.3636,0,0.00013884,1387.4,4.7638e-05,21.865,4.4729e-05,0.0067226,-0.00013845,-1376.3,1.7903
3021,17.72,4.5455,0,0.00013888,1387.8,4.7627e-05,21.547,4.476e-05,0.0050374,-0.0001385,-1376.9,1.7901
3022,17.72,4.7273,0,0.00013893,1388.4,4.7618e-05,21.222,4.4794e-05,0.0031136,-0.00013856,-1377.7,1.7898
3023,17.72,4.9091,0,0.000139,1389,4.7613e-05,20.9,4.4831e-05,0.00092571,-0.00013863,-1378.5,1.7895
3024,17.72,5.0909,0,0.00013908,1389.8,4.7613e-05,20.593,4.4872e-05,-0.0014109,-0.00013872,-1379.4,1.7892
3025,17.72,5.2727,0,0.00013917,1390.7,4.762e-05,20.314,4.4916e-05,-0.0043747,-0.00013881,-1380.5,1.7888
3026,17.72,5.4545,0,0.00013928,1391.8,4.7636e-05,20.082,4.4963e-05,-0.0059515,-0.00013893,-1381.7,1.7884
3027,17.72,5.6364,0,0.00013942,1393.3,4.768e-05,20.024,4.5012e-05,-0.016256,-0.00013907,-1383.1,1.7879
3028,17.72,5.8182,0,0.00013992,1398.2,4.8024e-05,22.215,4.5068e-05,0.00060673,-0.00013953,-1387,1.7875
3029,17.905,0.18182,0,0.00013558,1354.8,4.6626e-05,22.625,4.3615e-05,0.00065183,-0.00013518,-1343.4,1.8168
3030,17.905,0.36364,0,0.00013508,1349.9,4.6285e-05,20.48,4.3557e-05,-0.016973,-0.00013472,-1339.5,1.8173
3031,17.905,0.54545,0,0.00013494,1348.5,4.6249e-05,20.617,4.3505e-05,-0.0061376,-0.00013458,-1338,1.8177
3032,17.905,0.72727,0,0.00013484,1347.4,4.6242e-05,20.932,4.3455e-05,-0.004476,-0.00013447,-1336.9,1.8181
3033,17.905,0.90909,0,0.00013475,1346.6,4.6243e-05,21.294,4.3409e-05,-0.0013773,-0.00013438,-1335.8,1.8185
3034,17.905,1.0909,0,0.00013468,1345.9,4.6252e-05,21.683,4.3366e-05,0.0010548,-0.0001343,-1334.9,1.8188
3035,17.905,1.2727,0,0.00013462,1345.3,4.6265e-05,22.083,4.3326e-05,0.003324,-0.00013423,-1334.1,1.8191
3036,17.905,1.4545,0,0.00013457,1344.8,4.6282e-05,22.484,4.329e-05,0.0053052,-0.00013417,-1333.4,1.8194
3037,17.905,1.6364,0,0.00013453,1344.4,4.6301e-05,22.871,4.3258e-05,0.0070397,-0.00013413,-1332.8,1.8196
3038,17.905,1.8182,0,0.0001345,1344.1,4.6321e-05,23.236,4.323e-05,0.0085233,-0.00013409,-1332.3,1.8198
3039,17.905,2,0,0.00013448,1343.8,4.634e-05,23.567,4.3205e-05,0.0097735,-0.00013406,-1331.9,1.82
3040,17.905,2.1818,0,0.00013446,1343.6,4.6358e-05,23.857,4.3185e-05,0.010793,-0.00013403,-1331.5,1.8202
3041,17.905,2.3636,0,0.00013444,1343.5,4.6374e-05,24.097,4.3168e-05,0.011596,-0.00013402,-1331.3,1.8203
3042,17.905,2.5455,0,0.00013443,1343.4,4.6386e-05,24.283,4.3156e-05,0.012193,-0.000134,-1331.1,1.8204
3043,17.905,2.7273,0,0.00013443,1343.3,4.6394e-05,24.409,4.3147e-05,0.012587,-0.00013399,-1331,1.8205
3044,17.905,2.9091,0,0.00013442,1343.3,4.6398e-05,24.473,4.3143e-05,0.01278,-0.00013399,-1330.9,1.8205
3045,17.905,3.0909,0,0.00013442,1343.3,4.6398e-05,24.473,4.3143e-05,0.012781,-0.00013399,-1330.9,1.8205
3046,17.905,3.2727,0,0.00013443,1343.3,4.6394e-05,24.409,4.3147e-05,0.012587,-0.00013399,-1331,1.8205
3047,17.905,3.4545,0,0.00013443,1343.4,4.6386e-05,24.283,4.3156e-05,0.012194,-0.000134,-1331.1,1.8204
3048,17.905,3.6364,0,0.00013444,1343.5,4.6374e-05,24.097,4.3168e-05,0.011599,-0.00013402,-1331.3,1.8203
3049,17.905,3.8182,0,0.00013446,1343.6,4.6358e-05,23.857,4.3185e-05,0.010794,-0.00013403,-1331.5,1.8202
3050,17.905,4,0,0.00013448,1343.8,4.634e-05,23.567,4.3205e-05,0.0097702,-0.00013406,-1331.9,1.82
3051,17.905,4.1818,0,0.0001345,1344.1,4.6321e-05,23.236,4.323e-05,0.0085242,-0.00013409,-1332.3,1.8198
3052,17.905,4.3636,0,0.00013453,1344.4,4.6301e-05,22.871,4.3258e-05,0.007039,-0.00013413,-1332.8,1.8196
3053,17.905,4.5455,0,0.00013457,1344.8,4.6282e-05,22.484,4.329e-05,0.0053074,-0.00013417,-1333.4,1.8194
3054,17.905,4.7273,0,0.00013462,1345.3,4.6265e-05,22.083,4.3326e-05,0.0033234,-0.00013423,-1334.1,1.8191
3055,17.905,4.9091,0,0.00013468,1345.9,4.6252e-05,21.683,4.3366e-05,0.0010538,-0.0001343,-1334.9,1.8188
3056,17.905,5.0909,0,0.00013475,1346.6,4.6243e-05,21.294,4.3409e-05,-0.0013762,-0.00013438,-1335.8,1.8185
3057,17.905,5.2727,0,0.00013484,1347.4,4.6242e-05,20.932,4.3455e-05,-0.0044771,-0.00013447,-1336.9,1.8181
3058,17.905,5.4545,0,0.00013494,1348.5,4.6249e-05,20.617,4.3505e-05,-0.0061398,-0.00013458,-1338,1.8177
3059,17.905,5.6364,0,0.00013508,1349.9,4.6285e-05,20.48,4.3557e-05,-0.016969,-0.00013472,-1339.5,1.8173
3060,17.905,5.8182,0,0.00013558,1354.8,4.6626e-05,22.625,4.3615e-05,0.00065179,-0.00013518,-1343.4,1.8168
3061,18.089,0.18182,0,0.00013126,1311.7,4.5235e-05,23.043,4.2168e-05,0.00068081,-0.00013085,-1300,1.8463
3062,18.089,0.36364,0,0.00013076,1306.7,4.4897e-05,20.949,4.2107e-05,-0.017734,-0.00013039,-1296.1,1.8467
3063,18.089,0.54545,0,0.00013062,1305.3,4.4871e-05,21.172,4.2052e-05,-0.0063421,-0.00013025,-1294.6,1.8471
3064,18.089,0.72727,0,0.00013053,1304.4,4.4872e-05,21.576,4.2e-05,-0.0045869,-0.00013015,-1293.4,1.8475
3065,18.089,0.90909,0,0.00013045,1303.6,4.4883e-05,22.027,4.1951e-05,-0.0013424,-0.00013006,-1292.4,1.8479
3066,18.089,1.0909,0,0.00013038,1302.9,4.4901e-05,22.503,4.1906e-05,0.001189,-0.00012998,-1291.5,1.8482
3067,18.089,1.2727,0,0.00013033,1302.4,4.4923e-05,22.989,4.1864e-05,0.0035423,-0.00012992,-1290.7,1.8485
3068,18.089,1.4545,0,0.00013028,1301.9,4.4949e-05,23.47,4.1826e-05,0.0055866,-0.00012987,-1290,1.8488
3069,18.089,1.6364,0,0.00013025,1301.6,4.4976e-05,23.933,4.1792e-05,0.0073699,-0.00012983,-1289.5,1.849
3070,18.089,1.8182,0,0.00013022,1301.3,4.5004e-05,24.365,4.1762e-05,0.0088911,-0.00012979,-1289,1.8492
3071,18.089,2,0,0.0001302,1301.1,4.503e-05,24.757,4.1736e-05,0.010166,-0.00012977,-1288.6,1.8494
3072,18.089,2.1818,0,0.00013019,1301,4.5053e-05,25.099,4.1714e-05,0.011206,-0.00012974,-1288.3,1.8495
3073,18.089,2.3636,0,0.00013018,1300.9,4.5073e-05,25.382,4.1697e-05,0.012025,-0.00012973,-1288,1.8497
3074,18.089,2.5455,0,0.00013017,1300.8,4.5089e-05,25.6,4.1684e-05,0.012629,-0.00012972,-1287.8,1.8498
3075,18.089,2.7273,0,0.00013017,1300.8,4.51e-05,25.749,4.1675e-05,0.013027,-0.00012971,-1287.7,1.8498
3076,18.089,2.9091,0,0.00013017,1300.8,4.5105e-05,25.824,4.167e-05,0.013225,-0.00012971,-1287.6,1.8498
3077,18.089,3.0909,0,0.00013017,1300.8,4.5105e-05,25.824,4.167e-05,0.013226,-0.00012971,-1287.6,1.8498
3078,18.089,3.2727,0,0.00013017,1300.8,4.51e-05,25.749,4.1675e-05,0.013027,-0.00012971,-1287.7,1.8498
3079,18.089,3.4545,0,0.00013017,1300.8,4.5089e-05,25.6,4.1684e-05,0.01263,-0.00012972,-1287.8,1.8498
3080,18.089,3.6364,0,0.00013018,1300.9,4.5073e-05,25.382,4.1697e-05,0.012023,-0.00012973,-1288,1.8497
3081,18.089,3.8182,0,0.00013019,1301,4.5053e-05,25.099,4.1714e-05,0.011208,-0.00012974,-1288.3,1.8495
3082,18.089,4,0,0.0001302,1301.1,4.503e-05,24.757,4.1736e-05,0.010166,-0.00012977,-1288.6,1.8494
3083,18.089,4.1818,0,0.00013022,1301.3,4.5004e-05,24.365,4.1762e-05,0.0088906,-0.00012979,-1289,1.8492
3084,18.089,4.3636,0,0.00013025,1301.6,4.4976e-05,23.933,4.1792e-05,0.0073694,-0.00012983,-1289.5,1.849
3085,18.089,4.5455,0,0.00013028,1301.9,4.4949e-05,23.47,4.1826e-05,0.0055866,-0.00012987,-1290,1.8488
3086,18.089,4.7273,0,0.00013033,1302.4,4.4923e-05,22.989,4.1864e-05,0.0035409,-0.00012992,-1290.7,1.8485
3087,18.089,4.9091,0,0.00013038,1302.9,4.4901e-05,22.504,4.1906e-05,0.0011887,-0.00012998,-1291.5,1.8482
3088,18.089,5.0909,0,0.00013045,1303.6,4.4883e-05,22.027,4.1951e-05,-0.0013425,-0.00013006,-1292.4,1.8479
3089,18.089,5.2727,0,0.00013053,1304.4,4.4872e-05,21.576,4.2e-05,-0.0045897,-0.00013015,-1293.4,1.8475
3090,18.089,5.4545,0,0.00013062,1305.3,4.4871e-05,21.172,4.2052e-05,-0.006343,-0.00013025,-1294.6,1.8471
3091,18.089,5.6364,0,0.00013076,1306.7,4.4897e-05,20.949,4.2107e-05,-0.017733,-0.00013039,-1296.1,1.8467
3092,18.089,5.8182,0,0.00013126,1311.7,4.5235e-05,23.043,4.2168e-05,0.00068229,-0.00013085,-1300,1.8463
3093,18.274,0.18182,0,0.00012695,1268.7,4.3851e-05,23.471,4.0727e-05,0.00071313,-0.00012654,-1256.8,1.8758
3094,18.274,0.36364,0,0.00012646,1263.7,4.3518e-05,21.433,4.0663e-05,-0.01853,-0.00012608,-1252.8,1.8763
3095,18.274,0.54545,0,0.00012633,1262.4,4.3501e-05,21.749,4.0605e-05,-0.0065433,-0.00012594,-1251.4,1.8767
3096,18.274,0.72727,0,0.00012623,1261.5,4.3512e-05,22.248,4.055e-05,-0.0046895,-0.00012584,-1250.2,1.877
3097,18.274,0.90909,0,0.00012616,1260.7,4.3533e-05,22.796,4.0499e-05,-0.0012869,-0.00012576,-1249.2,1.8774
3098,18.274,1.0909,0,0.0001261,1260.2,4.3561e-05,23.366,4.0451e-05,0.0013538,-0.00012569,-1248.3,1.8777
3099,18.274,1.2727,0,0.00012606,1259.7,4.3593e-05,23.943,4.0407e-05,0.0037913,-0.00012563,-1247.5,1.878
3100,18.274,1.4545,0,0.00012602,1259.3,4.3628e-05,24.511,4.0367e-05,0.005904,-0.00012558,-1246.9,1.8782
3101,18.274,1.6364,0,0.00012599,1259.1,4.3664e-05,25.055,4.0331e-05,0.0077386,-0.00012555,-1246.3,1.8785
3102,18.274,1.8182,0,0.00012597,1258.9,4.37e-05,25.562,4.0299e-05,0.0092978,-0.00012552,-1245.9,1.8787
3103,18.274,2,0,0.00012596,1258.7,4.3733e-05,26.019,4.0272e-05,0.010602,-0.0001255,-1245.5,1.8788
3104,18.274,2.1818,0,0.00012595,1258.6,4.3763e-05,26.417,4.0248e-05,0.011662,-0.00012548,-1245.2,1.879
3105,18.274,2.3636,0,0.00012594,1258.5,4.3788e-05,26.746,4.023e-05,0.012494,-0.00012546,-1245,1.8791
3106,18.274,2.5455,0,0.00012594,1258.5,4.3807e-05,26.999,4.0216e-05,0.013109,-0.00012546,-1244.8,1.8792
3107,18.274,2.7273,0,0.00012593,1258.5,4.3821e-05,27.171,4.0207e-05,0.013513,-0.00012545,-1244.7,1.8793
3108,18.274,2.9091,0,0.00012593,1258.5,4.3828e-05,27.258,4.0202e-05,0.013715,-0.00012545,-1244.6,1.8793
3109,18.274,3.0909,0,0.00012593,1258.5,4.3828e-05,27.258,4.0202e-05,0.013715,-0.00012545,-1244.6,1.8793
3110,18.274,3.2727,0,0.00012593,1258.5,4.3821e-05,27.171,4.0207e-05,0.013514,-0.00012545,-1244.7,1.8793
3111,18.274,3.4545,0,0.00012594,1258.5,4.3808e-05,26.999,4.0216e-05,0.013109,-0.00012546,-1244.8,1.8792
3112,18.274,3.6364,0,0.00012594,1258.5,4.3788e-05,26.746,4.023e-05,0.012495,-0.00012547,-1245,1.8791
3113,18.274,3.8182,0,0.00012595,1258.6,4.3763e-05,26.417,4.0248e-05,0.011662,-0.00012548,-1245.2,1.879
3114,18.274,4,0,0.00012596,1258.7,4.3733e-05,26.019,4.0272e-05,0.010602,-0.0001255,-1245.5,1.8788
3115,18.274,4.1818,0,0.00012597,1258.9,4.37e-05,25.562,4.0299e-05,0.0092981,-0.00012552,-1245.9,1.8787
3116,18.274,4.3636,0,0.00012599,1259.1,4.3664e-05,25.055,4.0331e-05,0.0077381,-0.00012555,-1246.3,1.8785
3117,18.274,4.5455,0,0.00012602,1259.3,4.3628e-05,24.511,4.0367e-05,0.0059075,-0.00012558,-1246.9,1.8782
3118,18.274,4.7273,0,0.00012606,1259.7,4.3593e-05,23.943,4.0407e-05,0.0037907,-0.00012563,-1247.5,1.878
3119,18.274,4.9091,0,0.0001261,1260.2,4.3561e-05,23.366,4.0451e-05,0.0013509,-0.00012569,-1248.3,1.8777
3120,18.274,5.0909,0,0.00012616,1260.7,4.3533e-05,22.796,4.0499e-05,-0.0012862,-0.00012576,-1249.2,1.8774
3121,18.274,5.2727,0,0.00012623,1261.5,4.3512e-05,22.248,4.055e-05,-0.0046887,-0.00012584,-1250.2,1.877
3122,18.274,5.4545,0,0.00012633,1262.4,4.3501e-05,21.749,4.0605e-05,-0.0065416,-0.00012594,-1251.4,1.8767
3123,18.274,5.6364,0,0.00012646,1263.7,4.3518e-05,21.433,4.0663e-05,-0.018533,-0.00012608,-1252.8,1.8763
3124,18.274,5.8182,0,0.00012695,1268.7,4.3851e-05,23.471,4.0727e-05,0.00071302,-0.00012654,-1256.8,1.8758
3125,18.459,0.18182,0,0.00012267,1225.9,4.2473e-05,23.907,3.9292e-05,0.00072871,-0.00012225,-1213.7,1.9055
3126,18.459,0.36364,0,0.00012217,1220.9,4.2146e-05,21.934,3.9224e-05,-0.019393,-0.00012179,-1209.8,1.9059
3127,18.459,0.54545,0,0.00012205,1219.6,4.2139e-05,22.349,3.9163e-05,-0.0067577,-0.00012165,-1208.3,1.9063
3128,18.459,0.72727,0,0.00012196,1218.8,4.2161e-05,22.951,3.9106e-05,-0.0047947,-0.00012156,-1207.2,1.9066
3129,18.459,0.90909,0,0.0001219,1218.1,4.2193e-05,23.603,3.9051e-05,-0.0012247,-0.00012148,-1206.2,1.907
3130,18.459,1.0909,0,0.00012185,1217.6,4.2232e-05,24.275,3.9001e-05,0.0015267,-0.00012142,-1205.3,1.9073
3131,18.459,1.2727,0,0.00012181,1217.2,4.2275e-05,24.951,3.8954e-05,0.0040604,-0.00012136,-1204.6,1.9075
3132,18.459,1.4545,0,0.00012178,1216.9,4.232e-05,25.613,3.8912e-05,0.0062448,-0.00012132,-1203.9,1.9078
3133,18.459,1.6364,0,0.00012176,1216.7,4.2366e-05,26.245,3.8874e-05,0.0081319,-0.00012129,-1203.4,1.908
3134,18.459,1.8182,0,0.00012174,1216.6,4.241e-05,26.831,3.884e-05,0.0097321,-0.00012127,-1203,1.9082
3135,18.459,2,0,0.00012174,1216.5,4.2451e-05,27.36,3.8811e-05,0.011066,-0.00012125,-1202.6,1.9084
3136,18.459,2.1818,0,0.00012173,1216.5,4.2487e-05,27.818,3.8787e-05,0.012149,-0.00012123,-1202.3,1.9085
3137,18.459,2.3636,0,0.00012173,1216.5,4.2518e-05,28.197,3.8767e-05,0.012995,-0.00012122,-1202.1,1.9086
3138,18.459,2.5455,0,0.00012173,1216.4,4.2542e-05,28.488,3.8752e-05,0.01362,-0.00012122,-1201.9,1.9087
3139,18.459,2.7273,0,0.00012173,1216.4,4.2558e-05,28.685,3.8742e-05,0.014033,-0.00012121,-1201.8,1.9088
3140,18.459,2.9091,0,0.00012173,1216.4,4.2566e-05,28.785,3.8737e-05,0.014235,-0.00012121,-1201.8,1.9088
3141,18.459,3.0909,0,0.00012173,1216.4,4.2566e-05,28.785,3.8737e-05,0.014234,-0.00012121,-1201.8,1.9088
3142,18.459,3.2727,0,0.00012173,1216.4,4.2558e-05,28.685,3.8742e-05,0.01403,-0.00012121,-1201.8,1.9088
3143,18.459,3.4545,0,0.00012173,1216.4,4.2542e-05,28.488,3.8752e-05,0.01362,-0.00012122,-1201.9,1.9087
3144,18.459,3.6364,0,0.00012173,1216.5,4.2518e-05,28.197,3.8767e-05,0.012995,-0.00012122,-1202.1,1.9086
3145,18.459,3.8182,0,0.00012173,1216.5,4.2487e-05,27.818,3.8787e-05,0.012149,-0.00012123,-1202.3,1.9085
3146,18.459,4,0,0.00012174,1216.5,4.2451e-05,27.36,3.8811e-05,0.011066,-0.00012125,-1202.6,1.9084
3147,18.459,4.1818,0,0.00012174,1216.6,4.241e-05,26.831,3.884e-05,0.0097315,-0.00012127,-1203,1.9082
3148,18.459,4.3636,0,0.00012176,1216.7,4.2366e-05,26.245,3.8874e-05,0.0081315,-0.00012129,-1203.4,1.908
3149,18.459,4.5455,0,0.00012178,1216.9,4.232e-05,25.613,3.8912e-05,0.0062438,-0.00012132,-1203.9,1.9078
3150,18.459,4.7273,0,0.00012181,1217.2,4.2275e-05,24.951,3.8954e-05,0.00406,-0.00012136,-1204.6,1.9075
3151,18.459,4.9091,0,0.00012185,1217.6,4.2232e-05,24.276,3.9001e-05,0.0015257,-0.00012142,-1205.3,1.9073
3152,18.459,5.0909,0,0.0001219,1218.1,4.2193e-05,23.603,3.9051e-05,-0.001226,-0.00012148,-1206.2,1.907
3153,18.459,5.2727,0,0.00012196,1218.8,4.2161e-05,22.952,3.9106e-05,-0.0047947,-0.00012156,-1207.2,1.9066
3154,18.459,5.4545,0,0.00012205,1219.6,4.2139e-05,22.349,3.9163e-05,-0.0067574,-0.00012165,-1208.3,1.9063
3155,18.459,5.6364,0,0.00012217,1220.9,4.2146e-05,21.934,3.9224e-05,-0.019391,-0.00012179,-1209.8,1.9059
3156,18.459,5.8182,0,0.00012267,1225.9,4.2473e-05,23.907,3.9292e-05,0.00072925,-0.00012225,-1213.7,1.9055
3157,18.643,0.18182,0,0.00011841,1183.3,4.1103e-05,24.353,3.7862e-05,0.0007241,-0.00011797,-1170.9,1.9352
3158,18.643,0.36364,0,0.00011791,1178.3,4.0782e-05,22.452,3.7791e-05,-0.020315,-0.00011751,-1166.9,1.9356
3159,18.643,0.54545,0,0.00011779,1177.1,4.0786e-05,22.975,3.7727e-05,-0.0069878,-0.00011738,-1165.4,1.936
3160,18.643,0.72727,0,0.00011771,1176.3,4.0819e-05,23.689,3.7666e-05,-0.0049074,-0.00011729,-1164.3,1.9363
3161,18.643,0.90909,0,0.00011766,1175.7,4.0863e-05,24.452,3.7609e-05,-0.0011569,-0.00011722,-1163.3,1.9366
3162,18.643,1.0909,0,0.00011761,1175.3,4.0914e-05,25.236,3.7555e-05,0.0017164,-0.00011716,-1162.5,1.9369
3163,18.643,1.2727,0,0.00011758,1175,4.0969e-05,26.019,3.7506e-05,0.0043468,-0.00011712,-1161.8,1.9372
3164,18.643,1.4545,0,0.00011756,1174.8,4.1025e-05,26.783,3.7461e-05,0.0066071,-0.00011708,-1161.2,1.9374
3165,18.643,1.6364,0,0.00011755,1174.7,4.1081e-05,27.509,3.7421e-05,0.0085531,-0.00011706,-1160.7,1.9377
3166,18.643,1.8182,0,0.00011754,1174.6,4.1135e-05,28.182,3.7385e-05,0.010195,-0.00011704,-1160.3,1.9378
3167,18.643,2,0,0.00011754,1174.6,4.1184e-05,28.787,3.7355e-05,0.011562,-0.00011702,-1159.9,1.938
3168,18.643,2.1818,0,0.00011754,1174.6,4.1228e-05,29.311,3.7329e-05,0.012666,-0.00011701,-1159.7,1.9381
3169,18.643,2.3636,0,0.00011754,1174.6,4.1265e-05,29.744,3.7308e-05,0.01353,-0.00011701,-1159.5,1.9383
3170,18.643,2.5455,0,0.00011755,1174.7,4.1293e-05,30.076,3.7292e-05,0.014165,-0.00011701,-1159.3,1.9383
3171,18.643,2.7273,0,0.00011755,1174.7,4.1312e-05,30.302,3.7282e-05,0.014583,-0.000117,-1159.2,1.9384
3172,18.643,2.9091,0,0.00011755,1174.7,4.1322e-05,30.415,3.7276e-05,0.014789,-0.000117,-1159.2,1.9384
3173,18.643,3.0909,0,0.00011755,1174.7,4.1322e-05,30.415,3.7276e-05,0.014791,-0.000117,-1159.2,1.9384
3174,18.643,3.2727,0,0.00011755,1174.7,4.1312e-05,30.302,3.7282e-05,0.014585,-0.000117,-1159.2,1.9384
3175,18.643,3.4545,0,0.00011755,1174.7,4.1293e-05,30.076,3.7292e-05,0.014167,-0.00011701,-1159.3,1.9383
3176,18.643,3.6364,0,0.00011754,1174.6,4.1265e-05,29.744,3.7308e-05,0.013529,-0.00011701,-1159.5,1.9383
3177,18.643,3.8182,0,0.00011754,1174.6,4.1228e-05,29.311,3.7329e-05,0.012666,-0.00011701,-1159.7,1.9381
3178,18.643,4,0,0.00011754,1174.6,4.1184e-05,28.787,3.7355e-05,0.01156,-0.00011702,-1159.9,1.938
3179,18.643,4.1818,0,0.00011754,1174.6,4.1135e-05,28.182,3.7385e-05,0.010196,-0.00011704,-1160.3,1.9378
3180,18.643,4.3636,0,0.00011755,1174.7,4.1081e-05,27.509,3.7421e-05,0.0085516,-0.00011706,-1160.7,1.9377
3181,18.643,4.5455,0,0.00011756,1174.8,4.1025e-05,26.783,3.7461e-05,0.0066101,-0.00011708,-1161.2,1.9374
3182,18.643,4.7273,0,0.00011758,1175,4.0969e-05,26.019,3.7506e-05,0.0043466,-0.00011712,-1161.8,1.9372
3183,18.643,4.9091,0,0.00011761,1175.3,4.0914e-05,25.236,3.7555e-05,0.0017147,-0.00011716,-1162.5,1.9369
3184,18.643,5.0909,0,0.00011766,1175.7,4.0863e-05,24.452,3.7609e-05,-0.001158,-0.00011722,-1163.3,1.9366
3185,18.643,5.2727,0,0.00011771,1176.3,4.0819e-05,23.689,3.7666e-05,-0.0049065,-0.00011729,-1164.3,1.9363
3186,18.643,5.4545,0,0.00011779,1177.1,4.0786e-05,22.975,3.7727e-05,-0.0069859,-0.00011738,-1165.4,1.936
3187,18.643,5.6364,0,0.00011791,1178.3,4.0782e-05,22.452,3.7791e-05,-0.020315,-0.00011751,-1166.9,1.9356
3188,18.643,5.8182,0,0.00011841,1183.3,4.1103e-05,24.353,3.7862e-05,0.00072681,-0.00011797,-1170.9,1.9352
3189,18.828,0.18182,0,0.00011416,1140.8,3.974e-05,24.808,3.6438e-05,0.00071193,-0.00011372,-1128.2,1.965
3190,18.828,0.36364,0,0.00011366,1135.9,3.9425e-05,22.988,3.6363e-05,-0.021289,-0.00011326,-1124.2,1.9654
3191,18.828,0.54545,0,0.00011355,1134.8,3.9441e-05,23.627,3.6296e-05,-0.0072143,-0.00011313,-1122.8,1.9657
3192,18.828,0.72727,0,0.00011348,1134.1,3.9488e-05,24.463,3.6231e-05,-0.0050023,-0.00011305,-1121.6,1.9661
3193,18.828,0.90909,0,0.00011344,1133.6,3.9545e-05,25.348,3.6171e-05,-0.001063,-0.00011298,-1120.7,1.9664
3194,18.828,1.0909,0,0.0001134,1133.2,3.9608e-05,26.251,3.6115e-05,0.0019379,-0.00011293,-1119.9,1.9667
3195,18.828,1.2727,0,0.00011338,1133,3.9675e-05,27.151,3.6063e-05,0.0046775,-0.00011289,-1119.2,1.9669
3196,18.828,1.4545,0,0.00011337,1132.9,3.9744e-05,28.026,3.6015e-05,0.0070179,-0.00011286,-1118.6,1.9672
3197,18.828,1.6364,0,0.00011336,1132.9,3.9811e-05,28.855,3.5972e-05,0.0090231,-0.00011284,-1118.1,1.9674
3198,18.828,1.8182,0,0.00011337,1132.9,3.9876e-05,29.622,3.5934e-05,0.010711,-0.00011283,-1117.8,1.9676
3199,18.828,2,0,0.00011337,1132.9,3.9934e-05,30.311,3.5902e-05,0.012108,-0.00011282,-1117.5,1.9677
3200,18.828,2.1818,0,0.00011338,1133,3.9986e-05,30.907,3.5874e-05,0.01324,-0.00011282,-1117.2,1.9678
3201,18.828,2.3636,0,0.00011338,1133.1,4.0029e-05,31.398,3.5852e-05,0.014118,-0.00011282,-1117,1.968
3202,18.828,2.5455,0,0.00011339,1133.1,4.0062e-05,31.774,3.5835e-05,0.014769,-0.00011282,-1116.9,1.968
3203,18.828,2.7273,0,0.0001134,1133.2,4.0085e-05,32.03,3.5824e-05,0.015193,-0.00011282,-1116.8,1.9681
3204,18.828,2.9091,0,0.0001134,1133.2,4.0097e-05,32.159,3.5819e-05,0.015402,-0.00011282,-1116.8,1.9681
3205,18.828,3.0909,0,0.0001134,1133.2,4.0097e-05,32.159,3.5819e-05,0.015404,-0.00011282,-1116.8,1.9681
3206,18.828,3.2727,0,0.0001134,1133.2,4.0085e-05,32.03,3.5824e-05,0.015192,-0.00011282,-1116.8,1.9681
3207,18.828,3.4545,0,0.00011339,1133.1,4.0062e-05,31.774,3.5835e-05,0.014766,-0.00011282,-1116.9,1.968
3208,18.828,3.6364,0,0.00011338,1133.1,4.0029e-05,31.398,3.5852e-05,0.01412,-0.00011282,-1117,1.968
3209,18.828,3.8182,0,0.00011338,1133,3.9986e-05,30.907,3.5874e-05,0.013239,-0.00011282,-1117.2,1.9678
3210,18.828,4,0,0.00011337,1132.9,3.9934e-05,30.311,3.5902e-05,0.012108,-0.00011282,-1117.5,1.9677
3211,18.828,4.1818,0,0.00011337,1132.9,3.9876e-05,29.623,3.5934e-05,0.010711,-0.00011283,-1117.8,1.9676
3212,18.828,4.3636,0,0.00011336,1132.9,3.9812e-05,28.855,3.5972e-05,0.009023,-0.00011284,-1118.1,1.9674
3213,18.828,4.5455,0,0.00011337,1132.9,3.9744e-05,28.026,3.6015e-05,0.0070151,-0.00011286,-1118.6,1.9672
3214,18.828,4.7273,0,0.00011338,1133,3.9675e-05,27.151,3.6063e-05,0.0046786,-0.00011289,-1119.2,1.9669
3215,18.828,4.9091,0,0.0001134,1133.2,3.9608e-05,26.252,3.6115e-05,0.0019407,-0.00011293,-1119.9,1.9667
3216,18.828,5.0909,0,0.00011344,1133.6,3.9545e-05,25.348,3.6171e-05,-0.0010667,-0.00011298,-1120.7,1.9664
3217,18.828,5.2727,0,0.00011348,1134.1,3.9488e-05,24.463,3.6231e-05,-0.0050045,-0.00011305,-1121.6,1.9661
3218,18.828,5.4545,0,0.00011355,1134.8,3.9441e-05,23.628,3.6296e-05,-0.0072158,-0.00011313,-1122.8,1.9657
3219,18.828,5.6364,0,0.00011366,1135.9,3.9425e-05,22.988,3.6363e-05,-0.021287,-0.00011326,-1124.2,1.9654
3220,18.828,5.8182,0,0.00011416,1140.8,3.974e-05,24.808,3.6438e-05,0.00071349,-0.00011372,-1128.2,1.965
3221,19.013,0.18182,0,0.00010993,1098.6,3.8383e-05,25.273,3.5019e-05,0.00066032,-0.00010948,-1085.7,1.9948
3222,19.013,0.36364,0,0.00010944,1093.6,3.8077e-05,23.542,3.4941e-05,-0.022359,-0.00010902,-1081.7,1.9952
3223,19.013,0.54545,0,0.00010934,1092.6,3.8106e-05,24.309,3.4869e-05,-0.0074764,-0.0001089,-1080.3,1.9956
3224,19.013,0.72727,0,0.00010928,1092,3.8166e-05,25.276,3.4801e-05,-0.0051223,-0.00010882,-1079.1,1.9959
3225,19.013,0.90909,0,0.00010924,1091.6,3.8237e-05,26.294,3.4737e-05,-0.00097397,-0.00010876,-1078.2,1.9962
3226,19.013,1.0909,0,0.00010921,1091.4,3.8315e-05,27.328,3.4678e-05,0.0021689,-0.00010872,-1077.4,1.9965
3227,19.013,1.2727,0,0.0001092,1091.2,3.8396e-05,28.354,3.4623e-05,0.00502,-0.00010869,-1076.8,1.9967
3228,19.013,1.4545,0,0.0001092,1091.2,3.8478e-05,29.349,3.4572e-05,0.0074436,-0.00010867,-1076.3,1.997
3229,19.013,1.6364,0,0.0001092,1091.3,3.8557e-05,30.291,3.4527e-05,0.0095123,-0.00010866,-1075.8,1.9972
3230,19.013,1.8182,0,0.00010921,1091.4,3.8633e-05,31.161,3.4487e-05,0.011248,-0.00010865,-1075.5,1.9973
3231,19.013,2,0,0.00010923,1091.5,3.8701e-05,31.94,3.4452e-05,0.012683,-0.00010865,-1075.2,1.9975
3232,19.013,2.1818,0,0.00010924,1091.7,3.8762e-05,32.613,3.4423e-05,0.013838,-0.00010865,-1075,1.9976
3233,19.013,2.3636,0,0.00010925,1091.8,3.8812e-05,33.168,3.4399e-05,0.014738,-0.00010865,-1074.8,1.9977
3234,19.013,2.5455,0,0.00010926,1091.9,3.8851e-05,33.593,3.4382e-05,0.015397,-0.00010865,-1074.7,1.9978
3235,19.013,2.7273,0,0.00010927,1092,3.8877e-05,33.881,3.437e-05,0.01583,-0.00010866,-1074.6,1.9979
3236,19.013,2.9091,0,0.00010928,1092,3.889e-05,34.026,3.4364e-05,0.016045,-0.00010866,-1074.6,1.9979
3237,19.013,3.0909,0,0.00010928,1092,3.889e-05,34.026,3.4364e-05,0.016044,-0.00010866,-1074.6,1.9979
3238,19.013,3.2727,0,0.00010927,1092,3.8877e-05,33.881,3.437e-05,0.015827,-0.00010866,-1074.6,1.9979
3239,19.013,3.4545,0,0.00010926,1091.9,3.8851e-05,33.593,3.4382e-05,0.015398,-0.00010865,-1074.7,1.9978
3240,19.013,3.6364,0,0.00010925,1091.8,3.8812e-05,33.168,3.4399e-05,0.014737,-0.00010865,-1074.8,1.9977
3241,19.013,3.8182,0,0.00010924,1091.7,3.8762e-05,32.613,3.4423e-05,0.01384,-0.00010865,-1075,1.9976
3242,19.013,4,0,0.00010923,1091.5,3.8701e-05,31.94,3.4452e-05,0.012683,-0.00010865,-1075.2,1.9975
3243,19.013,4.1818,0,0.00010921,1091.4,3.8633e-05,31.161,3.4487e-05,0.011249,-0.00010865,-1075.5,1.9973
3244,19.013,4.3636,0,0.0001092,1091.3,3.8557e-05,30.292,3.4527e-05,0.0095124,-0.00010866,-1075.8,1.9972
3245,19.013,4.5455,0,0.0001092,1091.2,3.8478e-05,29.35,3.4572e-05,0.007444,-0.00010867,-1076.3,1.997
3246,19.013,4.7273,0,0.0001092,1091.2,3.8396e-05,28.355,3.4623e-05,0.0050201,-0.00010869,-1076.8,1.9967
3247,19.013,4.9091,0,0.00010921,1091.4,3.8315e-05,27.328,3.4678e-05,0.002168,-0.00010872,-1077.4,1.9965
3248,19.013,5.0909,0,0.00010924,1091.6,3.8237e-05,26.294,3.4737e-05,-0.00097283,-0.00010876,-1078.2,1.9962
3249,19.013,5.2727,0,0.00010928,1092,3.8166e-05,25.276,3.4801e-05,-0.0051247,-0.00010882,-1079.1,1.9959
3250,19.013,5.4545,0,0.00010934,1092.6,3.8106e-05,24.309,3.4869e-05,-0.0074765,-0.0001089,-1080.3,1.9956
3251,19.013,5.6364,0,0.00010944,1093.6,3.8077e-05,23.542,3.4941e-05,-0.022359,-0.00010902,-1081.7,1.9952
3252,19.013,5.8182,0,0.00010993,1098.6,3.8383e-05,25.273,3.5019e-05,0.00066021,-0.00010948,-1085.7,1.9948
3253,19.198,0.18182,0,0.00010572,1056.5,3.7033e-05,25.746,3.3606e-05,0.00057923,-0.00010526,-1043.4,2.0248
3254,19.198,0.36364,0,0.00010523,1051.6,3.6736e-05,24.117,3.3523e-05,-0.023508,-0.0001048,-1039.3,2.0251
3255,19.198,0.54545,0,0.00010514,1050.6,3.6779e-05,25.023,3.3448e-05,-0.007754,-0.00010469,-1037.9,2.0255
3256,19.198,0.72727,0,0.00010509,1050.1,3.6855e-05,26.132,3.3376e-05,-0.0052407,-0.00010462,-1036.8,2.0258
3257,19.198,0.90909,0,0.00010506,1049.9,3.6941e-05,27.294,3.3308e-05,-0.00086707,-0.00010457,-1035.9,2.0261
3258,19.198,1.0909,0,0.00010504,1049.7,3.7034e-05,28.471,3.3245e-05,0.0024255,-0.00010453,-1035.2,2.0264
3259,19.198,1.2727,0,0.00010504,1049.7,3.713e-05,29.635,3.3187e-05,0.005397,-0.00010451,-1034.6,2.0266
3260,19.198,1.4545,0,0.00010505,1049.8,3.7226e-05,30.762,3.3133e-05,0.0079093,-0.0001045,-1034.1,2.0268
3261,19.198,1.6364,0,0.00010507,1050,3.732e-05,31.826,3.3085e-05,0.010047,-0.00010449,-1033.7,2.027
3262,19.198,1.8182,0,0.00010509,1050.2,3.7407e-05,32.807,3.3043e-05,0.011835,-0.00010449,-1033.4,2.0272
3263,19.198,2,0,0.00010511,1050.4,3.7487e-05,33.684,3.3006e-05,0.013303,-0.0001045,-1033.1,2.0273
3264,19.198,2.1818,0,0.00010513,1050.6,3.7557e-05,34.442,3.2975e-05,0.014488,-0.0001045,-1032.9,2.0275
3265,19.198,2.3636,0,0.00010515,1050.8,3.7614e-05,35.066,3.295e-05,0.015404,-0.00010451,-1032.8,2.0276
3266,19.198,2.5455,0,0.00010517,1050.9,3.7659e-05,35.544,3.2931e-05,0.016078,-0.00010452,-1032.7,2.0276
3267,19.198,2.7273,0,0.00010518,1051,3.7689e-05,35.867,3.2918e-05,0.016519,-0.00010452,-1032.6,2.0277
3268,19.198,2.9091,0,0.00010518,1051.1,3.7705e-05,36.03,3.2912e-05,0.016737,-0.00010452,-1032.6,2.0277
3269,19.198,3.0909,0,0.00010518,1051.1,3.7705e-05,36.03,3.2912e-05,0.016734,-0.00010452,-1032.6,2.0277
3270,19.198,3.2727,0,0.00010518,1051,3.7689e-05,35.867,3.2918e-05,0.016519,-0.00010452,-1032.6,2.0277
3271,19.198,3.4545,0,0.00010517,1050.9,3.7659e-05,35.544,3.2931e-05,0.016078,-0.00010452,-1032.7,2.0276
3272,19.198,3.6364,0,0.00010515,1050.8,3.7614e-05,35.066,3.295e-05,0.015405,-0.00010451,-1032.8,2.0276
3273,19.198,3.8182,0,0.00010513,1050.6,3.7557e-05,34.442,3.2975e-05,0.014486,-0.0001045,-1032.9,2.0275
3274,19.198,4,0,0.00010511,1050.4,3.7487e-05,33.684,3.3006e-05,0.013304,-0.0001045,-1033.1,2.0273
3275,19.198,4.1818,0,0.00010509,1050.2,3.7407e-05,32.807,3.3043e-05,0.011833,-0.00010449,-1033.4,2.0272
3276,19.198,4.3636,0,0.00010507,1050,3.732e-05,31.826,3.3085e-05,0.010048,-0.00010449,-1033.7,2.027
3277,19.198,4.5455,0,0.00010505,1049.8,3.7226e-05,30.762,3.3133e-05,0.0079054,-0.0001045,-1034.1,2.0268
3278,19.198,4.7273,0,0.00010504,1049.7,3.713e-05,29.636,3.3187e-05,0.0053963,-0.00010451,-1034.6,2.0266
3279,19.198,4.9091,0,0.00010504,1049.7,3.7034e-05,28.471,3.3245e-05,0.0024227,-0.00010453,-1035.2,2.0264
3280,19.198,5.0909,0,0.00010506,1049.9,3.6941e-05,27.294,3.3308e-05,-0.00086962,-0.00010457,-1035.9,2.0261
3281,19.198,5.2727,0,0.00010509,1050.1,3.6855e-05,26.133,3.3376e-05,-0.0052433,-0.00010462,-1036.8,2.0258
3282,19.198,5.4545,0,0.00010514,1050.6,3.6779e-05,25.023,3.3448e-05,-0.0077525,-0.00010469,-1037.9,2.0255
3283,19.198,5.6364,0,0.00010523,1051.6,3.6736e-05,24.117,3.3523e-05,-0.023508,-0.0001048,-1039.3,2.0251
3284,19.198,5.8182,0,0.00010572,1056.5,3.7033e-05,25.746,3.3606e-05,0.00057681,-0.00010526,-1043.4,2.0248
3285,19.382,0.18182,0,0.00010153,1014.6,3.5689e-05,26.228,3.2198e-05,0.00047081,-0.00010106,-1001.3,2.0548
3286,19.382,0.36364,0,0.00010104,1009.7,3.5403e-05,24.713,3.2111e-05,-0.024738,-0.0001006,-997.16,2.0551
3287,19.382,0.54545,0,0.00010096,1008.9,3.5462e-05,25.769,3.2031e-05,-0.0080282,-0.0001005,-995.76,2.0555
3288,19.382,0.72727,0,0.00010092,1008.5,3.5554e-05,27.035,3.1955e-05,-0.0053432,-0.00010043,-994.71,2.0558
3289,19.382,0.90909,0,0.0001009,1008.3,3.5657e-05,28.354,3.1883e-05,-0.00072498,-0.00010039,-993.85,2.0561
3290,19.382,1.0909,0,0.0001009,1008.3,3.5767e-05,29.686,3.1816e-05,0.0027253,-0.00010036,-993.14,2.0563
3291,19.382,1.2727,0,0.00010091,1008.4,3.5879e-05,31.001,3.1754e-05,0.0058254,-0.00010035,-992.57,2.0566
3292,19.382,1.4545,0,0.00010093,1008.6,3.5991e-05,32.27,3.1698e-05,0.0084385,-0.00010035,-992.11,2.0568
3293,19.382,1.6364,0,0.00010096,1008.9,3.6099e-05,33.468,3.1646e-05,0.010645,-0.00010035,-991.76,2.057
3294,19.382,1.8182,0,0.00010099,1009.2,3.62e-05,34.57,3.1601e-05,0.012487,-0.00010036,-991.48,2.0571
3295,19.382,2,0,0.00010102,1009.5,3.6292e-05,35.555,3.1562e-05,0.013996,-0.00010037,-991.27,2.0573
3296,19.382,2.1818,0,0.00010105,1009.8,3.6372e-05,36.404,3.1529e-05,0.015208,-0.00010038,-991.12,2.0574
3297,19.382,2.3636,0,0.00010108,1010.1,3.6438e-05,37.103,3.1502e-05,0.016147,-0.00010039,-991.01,2.0575
3298,19.382,2.5455,0,0.0001011,1010.3,3.6489e-05,37.638,3.1482e-05,0.016833,-0.0001004,-990.93,2.0576
3299,19.382,2.7273,0,0.00010111,1010.4,3.6524e-05,38,3.1469e-05,0.017283,-0.00010041,-990.88,2.0576
3300,19.382,2.9091,0,0.00010112,1010.5,3.6541e-05,38.183,3.1462e-05,0.017503,-0.00010042,-990.86,2.0576
3301,19.382,3.0909,0,0.00010112,1010.5,3.6541e-05,38.183,3.1462e-05,0.017504,-0.00010042,-990.86,2.0576
3302,19.382,3.2727,0,0.00010111,1010.4,3.6524e-05,38,3.1469e-05,0.017282,-0.00010041,-990.88,2.0576
3303,19.382,3.4545,0,0.0001011,1010.3,3.6489e-05,37.638,3.1482e-05,0.016832,-0.0001004,-990.93,2.0576
3304,19.382,3.6364,0,0.00010108,1010.1,3.6438e-05,37.103,3.1502e-05,0.016145,-0.00010039,-991.01,2.0575
3305,19.382,3.8182,0,0.00010105,1009.8,3.6372e-05,36.404,3.1529e-05,0.015206,-0.00010038,-991.12,2.0574
3306,19.382,4,0,0.00010102,1009.5,3.6292e-05,35.555,3.1562e-05,0.013996,-0.00010037,-991.27,2.0573
3307,19.382,4.1818,0,0.00010099,1009.2,3.62e-05,34.57,3.1601e-05,0.012486,-0.00010036,-991.48,2.0571
3308,19.382,4.3636,0,0.00010096,1008.9,3.6099e-05,33.468,3.1646e-05,0.010645,-0.00010035,-991.76,2.057
3309,19.382,4.5455,0,0.00010093,1008.6,3.5991e-05,32.27,3.1698e-05,0.0084391,-0.00010035,-992.11,2.0568
3310,19.382,4.7273,0,0.00010091,1008.4,3.5879e-05,31.001,3.1754e-05,0.0058261,-0.00010035,-992.57,2.0566
3311,19.382,4.9091,0,0.0001009,1008.3,3.5767e-05,29.686,3.1816e-05,0.0027261,-0.00010036,-993.14,2.0563
3312,19.382,5.0909,0,0.0001009,1008.3,3.5657e-05,28.354,3.1883e-05,-0.00072765,-0.00010039,-993.85,2.0561
3313,19.382,5.2727,0,0.00010092,1008.5,3.5554e-05,27.035,3.1955e-05,-0.005345,-0.00010043,-994.71,2.0558
3314,19.382,5.4545,0,0.00010096,1008.9,3.5462e-05,25.769,3.2031e-05,-0.0080286,-0.0001005,-995.76,2.0555
3315,19.382,5.6364,0,0.00010104,1009.7,3.5403e-05,24.713,3.2111e-05,-0.024735,-0.0001006,-997.16,2.0551
3316,19.382,5.8182,0,0.00010153,1014.6,3.5689e-05,26.228,3.2198e-05,0.00047137,-0.00010106,-1001.3,2.0548
3317,19.567,0.18182,0,9.7359e-05,972.91,3.4352e-05,26.719,3.0796e-05,0.00031102,-9.6877e-05,-959.28,2.0849
3318,19.567,0.36364,0,9.6873e-05,968.06,3.4078e-05,25.331,3.0703e-05,-0.026071,-9.6418e-05,-955.16,2.0852
3319,19.567,0.54545,0,9.6799e-05,967.32,3.4154e-05,26.551,3.0619e-05,-0.0083269,-9.632e-05,-953.78,2.0855
3320,19.567,0.72727,0,9.6772e-05,967.06,3.4264e-05,27.987,3.0538e-05,-0.0054494,-9.6266e-05,-952.76,2.0858
3321,19.567,0.90909,0,9.6768e-05,967.01,3.4385e-05,29.478,3.0462e-05,-0.00057071,-9.6233e-05,-951.93,2.0861
3322,19.567,1.0909,0,9.678e-05,967.13,3.4514e-05,30.98,3.0391e-05,0.0030569,-9.6216e-05,-951.27,2.0863
3323,19.567,1.2727,0,9.6805e-05,967.39,3.4644e-05,32.459,3.0325e-05,0.0062949,-9.6212e-05,-950.75,2.0866
3324,19.567,1.4545,0,9.684e-05,967.73,3.4773e-05,33.884,3.0265e-05,0.0090069,-9.6219e-05,-950.34,2.0868
3325,19.567,1.6364,0,9.6879e-05,968.12,3.4897e-05,35.227,3.021e-05,0.011292,-9.6232e-05,-950.03,2.087
3326,19.567,1.8182,0,9.6921e-05,968.54,3.5013e-05,36.461,3.0162e-05,0.013189,-9.6249e-05,-949.79,2.0871
3327,19.567,2,0,9.6963e-05,968.96,3.5118e-05,37.563,3.012e-05,0.014742,-9.6269e-05,-949.62,2.0873
3328,19.567,2.1818,0,9.7001e-05,969.34,3.5209e-05,38.512,3.0085e-05,0.015982,-9.6288e-05,-949.5,2.0874
3329,19.567,2.3636,0,9.7034e-05,969.67,3.5284e-05,39.293,3.0057e-05,0.016941,-9.6306e-05,-949.42,2.0875
3330,19.567,2.5455,0,9.7061e-05,969.94,3.5342e-05,39.89,3.0035e-05,0.017644,-9.632e-05,-949.37,2.0875
3331,19.567,2.7273,0,9.7079e-05,970.12,3.5381e-05,40.294,3.0021e-05,0.018102,-9.633e-05,-949.34,2.0876
3332,19.567,2.9091,0,9.7088e-05,970.21,3.5401e-05,40.498,3.0014e-05,0.01833,-9.6336e-05,-949.32,2.0876
3333,19.567,3.0909,0,9.7088e-05,970.21,3.5401e-05,40.498,3.0014e-05,0.018327,-9.6336e-05,-949.32,2.0876
3334,19.567,3.2727,0,9.7079e-05,970.12,3.5381e-05,40.294,3.0021e-05,0.018101,-9.633e-05,-949.34,2.0876
3335,19.567,3.4545,0,9.7061e-05,969.94,3.5342e-05,39.89,3.0035e-05,0.017644,-9.632e-05,-949.37,2.0875
3336,19.567,3.6364,0,9.7034e-05,969.67,3.5284e-05,39.293,3.0057e-05,0.016944,-9.6306e-05,-949.42,2.0875
3337,19.567,3.8182,0,9.7001e-05,969.34,3.5209e-05,38.512,3.0085e-05,0.015982,-9.6288e-05,-949.5,2.0874
3338,19.567,4,0,9.6963e-05,968.96,3.5118e-05,37.563,3.012e-05,0.014742,-9.6269e-05,-949.62,2.0873
3339,19.567,4.1818,0,9.6921e-05,968.54,3.5013e-05,36.461,3.0162e-05,0.013187,-9.6249e-05,-949.79,2.0871
3340,19.567,4.3636,0,9.6879e-05,968.12,3.4897e-05,35.227,3.021e-05,0.011293,-9.6232e-05,-950.03,2.087
3341,19.567,4.5455,0,9.684e-05,967.73,3.4773e-05,33.884,3.0265e-05,0.0090085,-9.6219e-05,-950.34,2.0868
3342,19.567,4.7273,0,9.6805e-05,967.39,3.4644e-05,32.459,3.0325e-05,0.0062964,-9.6212e-05,-950.75,2.0866
3343,19.567,4.9091,0,9.678e-05,967.13,3.4514e-05,30.98,3.0391e-05,0.0030553,-9.6216e-05,-951.27,2.0863
3344,19.567,5.0909,0,9.6768e-05,967.01,3.4385e-05,29.478,3.0462e-05,-0.00057049,-9.6233e-05,-951.93,2.0861
3345,19.567,5.2727,0,9.6772e-05,967.06,3.4264e-05,27.987,3.0538e-05,-0.0054509,-9.6266e-05,-952.76,2.0858
3346,19.567,5.4545,0,9.6799e-05,967.32,3.4154e-05,26.551,3.0619e-05,-0.0083293,-9.632e-05,-953.78,2.0855
3347,19.567,5.6364,0,9.6873e-05,968.06,3.4078e-05,25.331,3.0703e-05,-0.026069,-9.6418e-05,-955.16,2.0852
3348,19.567,5.8182,0,9.7359e-05,972.91,3.4352e-05,26.719,3.0796e-05,0.00031186,-9.6877e-05,-959.28,2.0849
3349,19.752,0.18182,0,9.3201e-05,931.37,3.3021e-05,27.216,2.9398e-05,9.43e-05,-9.2708e-05,-917.46,2.115
3350,19.752,0.36364,0,9.2721e-05,926.57,3.276e-05,25.971,2.93e-05,-0.027519,-9.2252e-05,-913.32,2.1153
3351,19.752,0.54545,0,9.2659e-05,925.95,3.2855e-05,27.371,2.9211e-05,-0.0086486,-9.2163e-05,-911.96,2.1156
3352,19.752,0.72727,0,9.2646e-05,925.82,3.2985e-05,28.993,2.9125e-05,-0.0055554,-9.2118e-05,-910.98,2.1159
3353,19.752,0.90909,0,9.2656e-05,925.92,3.3127e-05,30.671,2.9044e-05,-0.000391,-9.2096e-05,-910.2,2.1162
3354,19.752,1.0909,0,9.2683e-05,926.19,3.3275e-05,32.358,2.8969e-05,0.0034251,-9.209e-05,-909.59,2.1164
3355,19.752,1.2727,0,9.2723e-05,926.59,3.3425e-05,34.016,2.8899e-05,0.0068126,-9.2097e-05,-909.11,2.1167
3356,19.752,1.4545,0,9.2772e-05,927.08,3.3573e-05,35.612,2.8835e-05,0.0096313,-9.2115e-05,-908.75,2.1169
3357,19.752,1.6364,0,9.2825e-05,927.61,3.3714e-05,37.113,2.8777e-05,0.012,-9.2138e-05,-908.49,2.117
3358,19.752,1.8182,0,9.288e-05,928.16,3.3846e-05,38.491,2.8725e-05,0.013956,-9.2165e-05,-908.31,2.1172
3359,19.752,2,0,9.2933e-05,928.69,3.3965e-05,39.72,2.8681e-05,0.015552,-9.2193e-05,-908.18,2.1173
3360,19.752,2.1818,0,9.2981e-05,929.17,3.4068e-05,40.779,2.8643e-05,0.016824,-9.222e-05,-908.1,2.1174
3361,19.752,2.3636,0,9.3022e-05,929.58,3.4153e-05,41.648,2.8613e-05,0.017807,-9.2243e-05,-908.05,2.1175
3362,19.752,2.5455,0,9.3055e-05,929.91,3.4219e-05,42.313,2.859e-05,0.018524,-9.2262e-05,-908.02,2.1176
3363,19.752,2.7273,0,9.3077e-05,930.13,3.4263e-05,42.762,2.8575e-05,0.018991,-9.2276e-05,-908,2.1176
3364,19.752,2.9091,0,9.3089e-05,930.25,3.4286e-05,42.989,2.8567e-05,0.019223,-9.2283e-05,-908,2.1177
3365,19.752,3.0909,0,9.3089e-05,930.25,3.4286e-05,42.989,2.8567e-05,0.019221,-9.2283e-05,-908,2.1177
3366,19.752,3.2727,0,9.3077e-05,930.13,3.4263e-05,42.762,2.8575e-05,0.018992,-9.2276e-05,-908,2.1176
3367,19.752,3.4545,0,9.3055e-05,929.91,3.4219e-05,42.313,2.859e-05,0.018523,-9.2262e-05,-908.02,2.1176
3368,19.752,3.6364,0,9.3022e-05,929.58,3.4153e-05,41.648,2.8613e-05,0.017806,-9.2243e-05,-908.05,2.1175
3369,19.752,3.8182,0,9.2981e-05,929.17,3.4068e-05,40.779,2.8643e-05,0.016825,-9.222e-05,-908.1,2.1174
3370,19.752,4,0,9.2933e-05,928.69,3.3965e-05,39.72,2.8681e-05,0.015551,-9.2193e-05,-908.18,2.1173
3371,19.752,4.1818,0,9.288e-05,928.16,3.3846e-05,38.491,2.8725e-05,0.013957,-9.2165e-05,-908.31,2.1172
3372,19.752,4.3636,0,9.2825e-05,927.61,3.3714e-05,37.113,2.8777e-05,0.012,-9.2138e-05,-908.49,2.117
3373,19.752,4.5455,0,9.2772e-05,927.08,3.3573e-05,35.612,2.8835e-05,0.0096351,-9.2115e-05,-908.75,2.1169
3374,19.752,4.7273,0,9.2723e-05,926.59,3.3425e-05,34.016,2.8899e-05,0.0068118,-9.2097e-05,-909.11,2.1167
3375,19.752,4.9091,0,9.2683e-05,926.19,3.3275e-05,32.358,2.8969e-05,0.0034241,-9.209e-05,-909.59,2.1164
3376,19.752,5.0909,0,9.2656e-05,925.92,3.3127e-05,30.671,2.9044e-05,-0.00039042,-9.2096e-05,-910.2,2.1162
3377,19.752,5.2727,0,9.2646e-05,925.82,3.2985e-05,28.993,2.9125e-05,-0.0055586,-9.2118e-05,-910.98,2.1159
3378,19.752,5.4545,0,9.2659e-05,925.95,3.2855e-05,27.371,2.9211e-05,-0.0086497,-9.2163e-05,-911.96,2.1156
3379,19.752,5.6364,0,9.2721e-05,926.57,3.276e-05,25.971,2.93e-05,-0.027518,-9.2252e-05,-913.32,2.1153
3380,19.752,5.8182,0,9.3201e-05,931.37,3.3021e-05,27.216,2.9398e-05,9.5104e-05,-9.2708e-05,-917.46,2.115
3381,19.936,0.18182,0,8.906e-05,889.98,3.1695e-05,27.72,2.8006e-05,-0.00019643,-8.8556e-05,-875.8,2.1452
3382,19.936,0.36364,0,8.8586e-05,885.25,3.145e-05,26.634,2.7902e-05,-0.029097,-8.8103e-05,-871.65,2.1455
3383,19.936,0.54545,0,8.8538e-05,884.77,3.1566e-05,28.231,2.7807e-05,-0.0089884,-8.8024e-05,-870.32,2.1458
3384,19.936,0.72727,0,8.8539e-05,884.78,3.1717e-05,30.056,2.7716e-05,-0.0056603,-8.799e-05,-869.38,2.1461
3385,19.936,0.90909,0,8.8566e-05,885.04,3.1881e-05,31.939,2.763e-05,-0.00017845,-8.7979e-05,-868.64,2.1463
3386,19.936,1.0909,0,8.8609e-05,885.48,3.2052e-05,33.828,2.755e-05,0.003838,-8.7985e-05,-868.08,2.1466
3387,19.936,1.2727,0,8.8666e-05,886.05,3.2223e-05,35.683,2.7475e-05,0.0073838,-8.8005e-05,-867.66,2.1468
3388,19.936,1.4545,0,8.8731e-05,886.7,3.2392e-05,37.465,2.7407e-05,0.010322,-8.8034e-05,-867.37,2.147
3389,19.936,1.6364,0,8.88e-05,887.38,3.2552e-05,39.139,2.7345e-05,0.012774,-8.8069e-05,-867.16,2.1472
3390,19.936,1.8182,0,8.8868e-05,888.07,3.2701e-05,40.674,2.729e-05,0.014794,-8.8106e-05,-867.03,2.1473
3391,19.936,2,0,8.8934e-05,888.72,3.2836e-05,42.041,2.7242e-05,0.016435,-8.8143e-05,-866.95,2.1474
3392,19.936,2.1818,0,8.8992e-05,889.31,3.2952e-05,43.218,2.7202e-05,0.017742,-8.8178e-05,-866.91,2.1476
3393,19.936,2.3636,0,8.9043e-05,889.81,3.3048e-05,44.183,2.717e-05,0.018748,-8.8208e-05,-866.89,2.1476
3394,19.936,2.5455,0,8.9082e-05,890.2,3.3122e-05,44.921,2.7145e-05,0.01948,-8.8232e-05,-866.88,2.1477
3395,19.936,2.7273,0,8.9109e-05,890.48,3.3172e-05,45.42,2.7129e-05,0.019957,-8.8249e-05,-866.89,2.1478
3396,19.936,2.9091,0,8.9123e-05,890.61,3.3197e-05,45.672,2.7121e-05,0.020193,-8.8258e-05,-866.89,2.1478
3397,19.936,3.0909,0,8.9123e-05,890.61,3.3197e-05,45.672,2.7121e-05,0.020193,-8.8258e-05,-866.89,2.1478
3398,19.936,3.2727,0,8.9109e-05,890.48,3.3172e-05,45.42,2.7129e-05,0.019959,-8.8249e-05,-866.89,2.1478
3399,19.936,3.4545,0,8.9082e-05,890.2,3.3122e-05,44.921,2.7145e-05,0.019481,-8.8232e-05,-866.88,2.1477
3400,19.936,3.6364,0,8.9043e-05,889.81,3.3048e-05,44.183,2.717e-05,0.018748,-8.8208e-05,-866.89,2.1476
3401,19.936,3.8182,0,8.8992e-05,889.31,3.2952e-05,43.218,2.7202e-05,0.017742,-8.8178e-05,-866.91,2.1476
3402,19.936,4,0,8.8934e-05,888.72,3.2836e-05,42.041,2.7242e-05,0.016435,-8.8143e-05,-866.95,2.1474
3403,19.936,4.1818,0,8.8868e-05,888.07,3.2701e-05,40.674,2.729e-05,0.014795,-8.8106e-05,-867.03,2.1473
3404,19.936,4.3636,0,8.88e-05,887.38,3.2552e-05,39.139,2.7345e-05,0.012774,-8.8069e-05,-867.16,2.1472
3405,19.936,4.5455,0,8.8731e-05,886.7,3.2392e-05,37.465,2.7407e-05,0.01032,-8.8034e-05,-867.37,2.147
3406,19.936,4.7273,0,8.8666e-05,886.05,3.2223e-05,35.683,2.7475e-05,0.0073824,-8.8005e-05,-867.66,2.1468
3407,19.936,4.9091,0,8.8609e-05,885.48,3.2052e-05,33.828,2.755e-05,0.0038385,-8.7985e-05,-868.08,2.1466
3408,19.936,5.0909,0,8.8566e-05,885.04,3.1881e-05,31.939,2.763e-05,-0.0001814,-8.7979e-05,-868.64,2.1463
3409,19.936,5.2727,0,8.8539e-05,884.78,3.1717e-05,30.056,2.7716e-05,-0.0056625,-8.799e-05,-869.38,2.1461
3410,19.936,5.4545,0,8.8538e-05,884.77,3.1566e-05,28.231,2.7807e-05,-0.0089929,-8.8024e-05,-870.32,2.1458
3411,19.936,5.6364,0,8.8586e-05,885.25,3.145e-05,26.634,2.7902e-05,-0.029093,-8.8103e-05,-871.65,2.1455
3412,19.936,5.8182,0,8.906e-05,889.98,3.1695e-05,27.72,2.8006e-05,-0.00019474,-8.8556e-05,-875.8,2.1452
3413,20.121,0.18182,0,8.4935e-05,848.76,3.0376e-05,28.229,2.6618e-05,-0.000556,-8.4419e-05,-834.29,2.1755
3414,20.121,0.36364,0,8.4469e-05,844.11,3.0148e-05,27.321,2.6508e-05,-0.030795,-8.3972e-05,-830.13,2.1758
3415,20.121,0.54545,0,8.4435e-05,843.77,3.0286e-05,29.133,2.6407e-05,-0.0093389,-8.3902e-05,-828.83,2.1761
3416,20.121,0.72727,0,8.4454e-05,843.96,3.0461e-05,31.181,2.6311e-05,-0.0057419,-8.388e-05,-827.94,2.1763
3417,20.121,0.90909,0,8.4498e-05,844.4,3.065e-05,33.288,2.6219e-05,8.3954e-05,-8.3882e-05,-827.26,2.1766
3418,20.121,1.0909,0,8.456e-05,845.02,3.0844e-05,35.399,2.6133e-05,0.004317,-8.3902e-05,-826.76,2.1768
3419,20.121,1.2727,0,8.4635e-05,845.77,3.1039e-05,37.468,2.6054e-05,0.0080381,-8.3935e-05,-826.41,2.177
3420,20.121,1.4545,0,8.4717e-05,846.59,3.123e-05,39.453,2.5981e-05,0.011098,-8.3977e-05,-826.17,2.1772
3421,20.121,1.6364,0,8.4803e-05,847.44,3.1412e-05,41.315,2.5915e-05,0.013645,-8.4024e-05,-826.02,2.1774
3422,20.121,1.8182,0,8.4887e-05,848.28,3.158e-05,43.021,2.5856e-05,0.015729,-8.4073e-05,-825.95,2.1775
3423,20.121,2,0,8.4966e-05,849.07,3.1731e-05,44.539,2.5805e-05,0.017421,-8.412e-05,-825.92,2.1776
3424,20.121,2.1818,0,8.5037e-05,849.78,3.1861e-05,45.844,2.5762e-05,0.01876,-8.4164e-05,-825.92,2.1777
3425,20.121,2.3636,0,8.5096e-05,850.38,3.1969e-05,46.914,2.5728e-05,0.019793,-8.4201e-05,-825.94,2.1778
3426,20.121,2.5455,0,8.5143e-05,850.84,3.2051e-05,47.732,2.5701e-05,0.020537,-8.423e-05,-825.96,2.1779
3427,20.121,2.7273,0,8.5175e-05,851.16,3.2107e-05,48.284,2.5684e-05,0.02103,-8.4251e-05,-825.98,2.1779
3428,20.121,2.9091,0,8.5191e-05,851.33,3.2136e-05,48.562,2.5675e-05,0.021267,-8.4261e-05,-826,2.1779
3429,20.121,3.0909,0,8.5191e-05,851.33,3.2136e-05,48.562,2.5675e-05,0.021267,-8.4261e-05,-826,2.1779
3430,20.121,3.2727,0,8.5175e-05,851.16,3.2107e-05,48.284,2.5684e-05,0.021025,-8.4251e-05,-825.98,2.1779
3431,20.121,3.4545,0,8.5143e-05,850.84,3.2051e-05,47.732,2.5701e-05,0.020539,-8.423e-05,-825.96,2.1779
3432,20.121,3.6364,0,8.5096e-05,850.38,3.1969e-05,46.914,2.5728e-05,0.01979,-8.4201e-05,-825.94,2.1778
3433,20.121,3.8182,0,8.5037e-05,849.78,3.1861e-05,45.844,2.5762e-05,0.01876,-8.4164e-05,-825.92,2.1777
3434,20.121,4,0,8.4966e-05,849.07,3.1731e-05,44.539,2.5805e-05,0.017421,-8.412e-05,-825.92,2.1776
3435,20.121,4.1818,0,8.4887e-05,848.28,3.158e-05,43.021,2.5856e-05,0.01573,-8.4073e-05,-825.95,2.1775
3436,20.121,4.3636,0,8.4803e-05,847.44,3.1412e-05,41.315,2.5915e-05,0.013643,-8.4024e-05,-826.02,2.1774
3437,20.121,4.5455,0,8.4717e-05,846.59,3.123e-05,39.453,2.5981e-05,0.011098,-8.3977e-05,-826.17,2.1772
3438,20.121,4.7273,0,8.4635e-05,845.77,3.1039e-05,37.468,2.6054e-05,0.0080377,-8.3935e-05,-826.41,2.177
3439,20.121,4.9091,0,8.456e-05,845.02,3.0844e-05,35.399,2.6133e-05,0.0043184,-8.3902e-05,-826.76,2.1768
3440,20.121,5.0909,0,8.4498e-05,844.4,3.065e-05,33.288,2.6219e-05,8.0159e-05,-8.3882e-05,-827.26,2.1766
3441,20.121,5.2727,0,8.4454e-05,843.96,3.0461e-05,31.181,2.6311e-05,-0.0057411,-8.388e-05,-827.94,2.1763
3442,20.121,5.4545,0,8.4435e-05,843.77,3.0286e-05,29.133,2.6407e-05,-0.0093379,-8.3902e-05,-828.83,2.1761
3443,20.121,5.6364,0,8.4469e-05,844.11,3.0148e-05,27.321,2.6508e-05,-0.030793,-8.3972e-05,-830.13,2.1758
3444,20.121,5.8182,0,8.4935e-05,848.76,3.0376e-05,28.229,2.6618e-05,-0.00055166,-8.4419e-05,-834.29,2.1755
3445,20.306,0.18182,0,8.0825e-05,807.69,2.9061e-05,28.742,2.5236e-05,-0.001013,-8.0298e-05,-792.94,2.2058
3446,20.306,0.36364,0,8.0369e-05,803.14,2.8854e-05,28.033,2.5118e-05,-0.032637,-7.9856e-05,-788.77,2.2061
3447,20.306,0.54545,0,8.0352e-05,802.97,2.9016e-05,30.08,2.5011e-05,-0.0097045,-7.9798e-05,-787.51,2.2063
3448,20.306,0.72727,0,8.0389e-05,803.34,2.9217e-05,32.372,2.4908e-05,-0.0058039,-7.979e-05,-786.67,2.2066
3449,20.306,0.90909,0,8.0453e-05,803.97,2.9432e-05,34.725,2.4811e-05,0.00039574,-7.9806e-05,-786.05,2.2068
3450,20.306,1.0909,0,8.0535e-05,804.8,2.9653e-05,37.079,2.4719e-05,0.0048696,-7.984e-05,-785.62,2.2071
3451,20.306,1.2727,0,8.063e-05,805.75,2.9874e-05,39.382,2.4634e-05,0.008774,-7.9888e-05,-785.33,2.2073
3452,20.306,1.4545,0,8.0733e-05,806.77,3.009e-05,41.589,2.4556e-05,0.011967,-7.9944e-05,-785.16,2.2074
3453,20.306,1.6364,0,8.0836e-05,807.81,3.0294e-05,43.657,2.4485e-05,0.014609,-8.0005e-05,-785.09,2.2076
3454,20.306,1.8182,0,8.0937e-05,808.81,3.0483e-05,45.548,2.4423e-05,0.016766,-8.0066e-05,-785.07,2.2077
3455,20.306,2,0,8.1031e-05,809.75,3.0652e-05,47.23,2.4368e-05,0.018508,-8.0124e-05,-785.1,2.2079
3456,20.306,2.1818,0,8.1115e-05,810.59,3.0798e-05,48.674,2.4322e-05,0.019885,-8.0177e-05,-785.15,2.208
3457,20.306,2.3636,0,8.1185e-05,811.29,3.0918e-05,49.857,2.4285e-05,0.02094,-8.0222e-05,-785.2,2.208
3458,20.306,2.5455,0,8.124e-05,811.84,3.101e-05,50.76,2.4257e-05,0.021708,-8.0257e-05,-785.26,2.2081
3459,20.306,2.7273,0,8.1277e-05,812.21,3.1073e-05,51.37,2.4239e-05,0.022204,-8.0281e-05,-785.3,2.2082
3460,20.306,2.9091,0,8.1296e-05,812.4,3.1104e-05,51.677,2.4229e-05,0.022448,-8.0293e-05,-785.32,2.2082
3461,20.306,3.0909,0,8.1296e-05,812.4,3.1104e-05,51.677,2.4229e-05,0.02245,-8.0293e-05,-785.32,2.2082
3462,20.306,3.2727,0,8.1277e-05,812.21,3.1073e-05,51.37,2.4239e-05,0.022204,-8.0281e-05,-785.3,2.2082
3463,20.306,3.4545,0,8.124e-05,811.84,3.101e-05,50.76,2.4257e-05,0.021707,-8.0257e-05,-785.26,2.2081
3464,20.306,3.6364,0,8.1185e-05,811.29,3.0918e-05,49.857,2.4285e-05,0.020942,-8.0222e-05,-785.2,2.208
3465,20.306,3.8182,0,8.1115e-05,810.59,3.0798e-05,48.674,2.4322e-05,0.019884,-8.0177e-05,-785.15,2.208
3466,20.306,4,0,8.1031e-05,809.75,3.0652e-05,47.23,2.4368e-05,0.018507,-8.0124e-05,-785.1,2.2079
3467,20.306,4.1818,0,8.0937e-05,808.81,3.0483e-05,45.548,2.4423e-05,0.016769,-8.0066e-05,-785.07,2.2077
3468,20.306,4.3636,0,8.0836e-05,807.81,3.0294e-05,43.657,2.4485e-05,0.014609,-8.0005e-05,-785.09,2.2076
3469,20.306,4.5455,0,8.0733e-05,806.77,3.009e-05,41.589,2.4556e-05,0.011967,-7.9944e-05,-785.16,2.2074
3470,20.306,4.7273,0,8.063e-05,805.75,2.9874e-05,39.382,2.4634e-05,0.008772,-7.9888e-05,-785.33,2.2073
3471,20.306,4.9091,0,8.0535e-05,804.8,2.9654e-05,37.079,2.4719e-05,0.0048691,-7.984e-05,-785.62,2.2071
3472,20.306,5.0909,0,8.0453e-05,803.97,2.9432e-05,34.725,2.4811e-05,0.00039419,-7.9806e-05,-786.05,2.2068
3473,20.306,5.2727,0,8.0389e-05,803.34,2.9217e-05,32.372,2.4908e-05,-0.0058045,-7.979e-05,-786.67,2.2066
3474,20.306,5.4545,0,8.0352e-05,802.97,2.9016e-05,30.08,2.5011e-05,-0.0097025,-7.9798e-05,-787.51,2.2063
3475,20.306,5.6364,0,8.0369e-05,803.14,2.8854e-05,28.033,2.5118e-05,-0.032639,-7.9856e-05,-788.77,2.2061
3476,20.306,5.8182,0,8.0825e-05,807.69,2.9061e-05,28.742,2.5236e-05,-0.0010128,-8.0298e-05,-792.94,2.2058
3477,20.491,0.18182,0,7.6731e-05,766.78,2.7752e-05,29.257,2.3858e-05,-0.0015917,-7.6191e-05,-751.73,2.2361
3478,20.491,0.36364,0,7.6287e-05,762.34,2.7567e-05,28.77,2.3733e-05,-0.034649,-7.5757e-05,-747.56,2.2364
3479,20.491,0.54545,0,7.6288e-05,762.35,2.7756e-05,31.075,2.3619e-05,-0.010081,-7.5712e-05,-746.34,2.2367
3480,20.491,0.72727,0,7.6346e-05,762.93,2.7986e-05,33.634,2.3509e-05,-0.0058377,-7.5718e-05,-745.56,2.2369
3481,20.491,0.90909,0,7.6431e-05,763.78,2.8231e-05,36.257,2.3405e-05,0.00076839,-7.575e-05,-745.01,2.2372
3482,20.491,1.0909,0,7.6536e-05,764.83,2.8481e-05,38.877,2.3307e-05,0.0055066,-7.58e-05,-744.65,2.2374
3483,20.491,1.2727,0,7.6653e-05,766.01,2.873e-05,41.437,2.3216e-05,0.0096085,-7.5864e-05,-744.44,2.2376
3484,20.491,1.4545,0,7.6777e-05,767.24,2.8972e-05,43.886,2.3133e-05,0.012943,-7.5936e-05,-744.35,2.2377
3485,20.491,1.6364,0,7.6901e-05,768.48,2.9201e-05,46.177,2.3057e-05,0.015687,-7.6011e-05,-744.34,2.2379
3486,20.491,1.8182,0,7.702e-05,769.67,2.9412e-05,48.271,2.299e-05,0.017921,-7.6085e-05,-744.39,2.238
3487,20.491,2,0,7.7131e-05,770.78,2.9601e-05,50.13,2.2931e-05,0.019714,-7.6155e-05,-744.48,2.2382
3488,20.491,2.1818,0,7.7228e-05,771.75,2.9763e-05,51.724,2.2882e-05,0.02113,-7.6218e-05,-744.58,2.2383
3489,20.491,2.3636,0,7.731e-05,772.57,2.9897e-05,53.029,2.2842e-05,0.022208,-7.6271e-05,-744.68,2.2383
3490,20.491,2.5455,0,7.7373e-05,773.2,3e-05,54.025,2.2812e-05,0.022994,-7.6312e-05,-744.76,2.2384
3491,20.491,2.7273,0,7.7417e-05,773.63,3.0069e-05,54.697,2.2792e-05,0.023502,-7.6341e-05,-744.82,2.2384
3492,20.491,2.9091,0,7.7439e-05,773.85,3.0104e-05,55.035,2.2782e-05,0.023753,-7.6355e-05,-744.86,2.2385
3493,20.491,3.0909,0,7.7439e-05,773.85,3.0104e-05,55.035,2.2782e-05,0.02375,-7.6355e-05,-744.86,2.2385
3494,20.491,3.2727,0,7.7417e-05,773.63,3.0069e-05,54.697,2.2792e-05,0.023499,-7.6341e-05,-744.82,2.2384
3495,20.491,3.4545,0,7.7373e-05,773.2,3e-05,54.025,2.2812e-05,0.022994,-7.6312e-05,-744.76,2.2384
3496,20.491,3.6364,0,7.731e-05,772.57,2.9897e-05,53.029,2.2842e-05,0.022211,-7.6271e-05,-744.68,2.2383
3497,20.491,3.8182,0,7.7228e-05,771.75,2.9763e-05,51.724,2.2882e-05,0.021129,-7.6218e-05,-744.58,2.2383
3498,20.491,4,0,7.7131e-05,770.78,2.9601e-05,50.13,2.2931e-05,0.019714,-7.6155e-05,-744.48,2.2382
3499,20.491,4.1818,0,7.702e-05,769.67,2.9412e-05,48.271,2.299e-05,0.017919,-7.6085e-05,-744.39,2.238
3500,20.491,4.3636,0,7.6901e-05,768.48,2.9201e-05,46.177,2.3057e-05,0.015689,-7.6011e-05,-744.34,2.2379
3501,20.491,4.5455,0,7.6777e-05,767.24,2.8972e-05,43.886,2.3133e-05,0.012943,-7.5936e-05,-744.35,2.2377
3502,20.491,4.7273,0,7.6653e-05,766.01,2.873e-05,41.437,2.3216e-05,0.0096051,-7.5864e-05,-744.44,2.2376
3503,20.491,4.9091,0,7.6536e-05,764.83,2.8481e-05,38.877,2.3307e-05,0.0055042,-7.58e-05,-744.65,2.2374
3504,20.491,5.0909,0,7.6431e-05,763.78,2.8231e-05,36.258,2.3405e-05,0.00076679,-7.575e-05,-745.01,2.2372
3505,20.491,5.2727,0,7.6346e-05,762.93,2.7986e-05,33.634,2.3509e-05,-0.0058407,-7.5718e-05,-745.56,2.2369
3506,20.491,5.4545,0,7.6288e-05,762.35,2.7756e-05,31.075,2.3619e-05,-0.010077,-7.5712e-05,-746.34,2.2367
3507,20.491,5.6364,0,7.6287e-05,762.34,2.7567e-05,28.77,2.3733e-05,-0.034649,-7.5757e-05,-747.56,2.2364
3508,20.491,5.8182,0,7.6731e-05,766.78,2.7752e-05,29.257,2.3858e-05,-0.0015924,-7.6191e-05,-751.73,2.2361
3509,20.675,0.18182,0,7.2651e-05,726.01,2.6447e-05,29.772,2.2485e-05,-0.0023082,-7.2099e-05,-710.66,2.2666
3510,20.675,0.36364,0,7.2221e-05,721.71,2.6287e-05,29.533,2.2352e-05,-0.036828,-7.1673e-05,-706.51,2.2668
3511,20.675,0.54545,0,7.2242e-05,721.93,2.6507e-05,32.122,2.223e-05,-0.01045,-7.1642e-05,-705.33,2.2671
3512,20.675,0.72727,0,7.2323e-05,722.73,2.6768e-05,34.974,2.2113e-05,-0.0058264,-7.1665e-05,-704.61,2.2673
3513,20.675,0.90909,0,7.2433e-05,723.83,2.7045e-05,37.893,2.2001e-05,0.0012319,-7.1714e-05,-704.14,2.2675
3514,20.675,1.0909,0,7.2563e-05,725.13,2.7327e-05,40.804,2.1897e-05,0.0062523,-7.1782e-05,-703.86,2.2677
3515,20.675,1.2727,0,7.2705e-05,726.55,2.7606e-05,43.645,2.1799e-05,0.010568,-7.1864e-05,-703.74,2.2679
3516,20.675,1.4545,0,7.2852e-05,728.02,2.7878e-05,46.358,2.171e-05,0.014058,-7.1952e-05,-703.73,2.2681
3517,20.675,1.6364,0,7.2998e-05,729.48,2.8133e-05,48.893,2.1628e-05,0.016912,-7.2043e-05,-703.8,2.2683
3518,20.675,1.8182,0,7.3138e-05,730.87,2.8369e-05,51.205,2.1556e-05,0.019223,-7.2132e-05,-703.92,2.2684
3519,20.675,2,0,7.3266e-05,732.16,2.8579e-05,53.256,2.1494e-05,0.021064,-7.2214e-05,-704.06,2.2685
3520,20.675,2.1818,0,7.3379e-05,733.28,2.876e-05,55.013,2.1441e-05,0.022526,-7.2288e-05,-704.22,2.2686
3521,20.675,2.3636,0,7.3473e-05,734.22,2.8908e-05,56.449,2.1398e-05,0.023635,-7.2349e-05,-704.36,2.2687
3522,20.675,2.5455,0,7.3546e-05,734.95,2.9021e-05,57.544,2.1366e-05,0.024434,-7.2397e-05,-704.48,2.2687
3523,20.675,2.7273,0,7.3595e-05,735.44,2.9098e-05,58.283,2.1344e-05,0.024953,-7.243e-05,-704.56,2.2688
3524,20.675,2.9091,0,7.362e-05,735.7,2.9137e-05,58.654,2.1333e-05,0.025207,-7.2447e-05,-704.6,2.2688
3525,20.675,3.0909,0,7.362e-05,735.7,2.9137e-05,58.654,2.1333e-05,0.025206,-7.2447e-05,-704.6,2.2688
3526,20.675,3.2727,0,7.3595e-05,735.44,2.9098e-05,58.283,2.1344e-05,0.024952,-7.243e-05,-704.56,2.2688
3527,20.675,3.4545,0,7.3546e-05,734.95,2.9021e-05,57.544,2.1366e-05,0.024433,-7.2397e-05,-704.48,2.2687
3528,20.675,3.6364,0,7.3473e-05,734.22,2.8908e-05,56.449,2.1398e-05,0.023633,-7.2349e-05,-704.36,2.2687
3529,20.675,3.8182,0,7.3379e-05,733.28,2.876e-05,55.013,2.1441e-05,0.022526,-7.2288e-05,-704.22,2.2686
3530,20.675,4,0,7.3266e-05,732.16,2.8579e-05,53.256,2.1494e-05,0.021064,-7.2214e-05,-704.06,2.2685
3531,20.675,4.1818,0,7.3138e-05,730.87,2.8369e-05,51.205,2.1556e-05,0.019221,-7.2132e-05,-703.92,2.2684
3532,20.675,4.3636,0,7.2998e-05,729.48,2.8133e-05,48.893,2.1628e-05,0.016915,-7.2043e-05,-703.8,2.2683
3533,20.675,4.5455,0,7.2852e-05,728.02,2.7878e-05,46.358,2.171e-05,0.014055,-7.1952e-05,-703.73,2.2681
3534,20.675,4.7273,0,7.2705e-05,726.55,2.7606e-05,43.645,2.1799e-05,0.010569,-7.1864e-05,-703.74,2.2679
3535,20.675,4.9091,0,7.2563e-05,725.13,2.7327e-05,40.804,2.1897e-05,0.0062515,-7.1782e-05,-703.86,2.2677
3536,20.675,5.0909,0,7.2433e-05,723.83,2.7045e-05,37.894,2.2001e-05,0.0012302,-7.1714e-05,-704.14,2.2675
3537,20.675,5.2727,0,7.2323e-05,722.73,2.6768e-05,34.974,2.2113e-05,-0.0058291,-7.1665e-05,-704.61,2.2673
3538,20.675,5.4545,0,7.2242e-05,721.93,2.6507e-05,32.122,2.223e-05,-0.010447,-7.1642e-05,-705.33,2.2671
3539,20.675,5.6364,0,7.2221e-05,721.71,2.6287e-05,29.533,2.2352e-05,-0.036827,-7.1673e-05,-706.51,2.2668
3540,20.675,5.8182,0,7.2651e-05,726.01,2.6447e-05,29.772,2.2485e-05,-0.0023092,-7.2099e-05,-710.66,2.2666
3541,20.86,0.18182,0,6.8585e-05,685.38,2.5147e-05,30.283,2.1116e-05,-0.0032098,-6.802e-05,-669.74,2.297
3542,20.86,0.36364,0,6.8171e-05,681.24,2.5015e-05,30.322,2.0974e-05,-0.039204,-6.7605e-05,-665.59,2.2973
3543,20.86,0.54545,0,6.8216e-05,681.69,2.5268e-05,33.223,2.0845e-05,-0.010821,-6.759e-05,-664.47,2.2975
3544,20.86,0.72727,0,6.8322e-05,682.75,2.5564e-05,36.398,2.0719e-05,-0.0057691,-6.763e-05,-663.83,2.2978
3545,20.86,0.90909,0,6.8459e-05,684.12,2.5875e-05,39.643,2.06e-05,0.0017893,-6.7699e-05,-663.44,2.298
3546,20.86,1.0909,0,6.8617e-05,685.69,2.6192e-05,42.873,2.0487e-05,0.0071199,-6.7787e-05,-663.25,2.2982
3547,20.86,1.2727,0,6.8786e-05,687.39,2.6506e-05,46.021,2.0383e-05,0.01167,-6.7887e-05,-663.21,2.2983
3548,20.86,1.4545,0,6.8959e-05,689.12,2.6809e-05,49.022,2.0286e-05,0.01532,-6.7994e-05,-663.29,2.2985
3549,20.86,1.6364,0,6.913e-05,690.82,2.7094e-05,51.821,2.0199e-05,0.018293,-6.8102e-05,-663.44,2.2987
3550,20.86,1.8182,0,6.9291e-05,692.44,2.7355e-05,54.371,2.0122e-05,0.020684,-6.8206e-05,-663.64,2.2988
3551,20.86,2,0,6.9439e-05,693.91,2.7588e-05,56.628,2.0054e-05,0.02259,-6.8302e-05,-663.85,2.2989
3552,20.86,2.1818,0,6.9568e-05,695.2,2.7788e-05,58.559,1.9998e-05,0.024084,-6.8386e-05,-664.06,2.299
3553,20.86,2.3636,0,6.9676e-05,696.27,2.7952e-05,60.137,1.9952e-05,0.025218,-6.8457e-05,-664.24,2.2991
3554,20.86,2.5455,0,6.9758e-05,697.1,2.8077e-05,61.338,1.9917e-05,0.026036,-6.8512e-05,-664.4,2.2991
3555,20.86,2.7273,0,6.9815e-05,697.66,2.8162e-05,62.147,1.9894e-05,0.026565,-6.8549e-05,-664.5,2.2992
3556,20.86,2.9091,0,6.9843e-05,697.95,2.8204e-05,62.555,1.9882e-05,0.026826,-6.8568e-05,-664.55,2.2992
3557,20.86,3.0909,0,6.9843e-05,697.95,2.8204e-05,62.555,1.9882e-05,0.026826,-6.8568e-05,-664.55,2.2992
3558,20.86,3.2727,0,6.9815e-05,697.66,2.8162e-05,62.147,1.9894e-05,0.026565,-6.8549e-05,-664.5,2.2992
3559,20.86,3.4545,0,6.9758e-05,697.1,2.8077e-05,61.338,1.9917e-05,0.026034,-6.8512e-05,-664.4,2.2991
3560,20.86,3.6364,0,6.9676e-05,696.27,2.7952e-05,60.137,1.9952e-05,0.025219,-6.8457e-05,-664.24,2.2991
3561,20.86,3.8182,0,6.9568e-05,695.2,2.7788e-05,58.559,1.9998e-05,0.024084,-6.8386e-05,-664.06,2.299
3562,20.86,4,0,6.9439e-05,693.91,2.7588e-05,56.628,2.0054e-05,0.02259,-6.8302e-05,-663.85,2.2989
3563,20.86,4.1818,0,6.9291e-05,692.44,2.7355e-05,54.371,2.0122e-05,0.020685,-6.8206e-05,-663.64,2.2988
3564,20.86,4.3636,0,6.913e-05,690.82,2.7094e-05,51.821,2.0199e-05,0.018292,-6.8102e-05,-663.44,2.2987
3565,20.86,4.5455,0,6.8959e-05,689.12,2.6809e-05,49.022,2.0286e-05,0.015319,-6.7994e-05,-663.29,2.2985
3566,20.86,4.7273,0,6.8786e-05,687.39,2.6506e-05,46.021,2.0383e-05,0.01167,-6.7887e-05,-663.21,2.2983
3567,20.86,4.9091,0,6.8617e-05,685.69,2.6192e-05,42.873,2.0487e-05,0.0071188,-6.7787e-05,-663.25,2.2982
3568,20.86,5.0909,0,6.8459e-05,684.12,2.5875e-05,39.643,2.06e-05,0.0017882,-6.7699e-05,-663.44,2.298
3569,20.86,5.2727,0,6.8322e-05,682.75,2.5564e-05,36.398,2.0719e-05,-0.0057709,-6.763e-05,-663.83,2.2978
3570,20.86,5.4545,0,6.8216e-05,681.69,2.5268e-05,33.223,2.0845e-05,-0.010822,-6.759e-05,-664.47,2.2975
3571,20.86,5.6364,0,6.8171e-05,681.24,2.5015e-05,30.322,2.0974e-05,-0.039203,-6.7605e-05,-665.59,2.2973
3572,20.86,5.8182,0,6.8585e-05,685.38,2.5147e-05,30.283,2.1116e-05,-0.0032071,-6.802e-05,-669.74,2.297
3573,21.045,0.18182,0,6.4533e-05,644.89,2.3851e-05,30.789,1.9752e-05,-0.0043223,-6.3954e-05,-628.94,2.3275
3574,21.045,0.36364,0,6.4138e-05,640.94,2.3751e-05,31.138,1.9601e-05,-0.041801,-6.3552e-05,-624.82,2.3278
3575,21.045,0.54545,0,6.4208e-05,641.64,2.4039e-05,34.382,1.9462e-05,-0.011189,-6.3555e-05,-623.76,2.328
3576,21.045,0.72727,0,6.4343e-05,642.99,2.4374e-05,37.914,1.9327e-05,-0.0056384,-6.3615e-05,-623.2,2.3282
3577,21.045,0.90909,0,6.4511e-05,644.66,2.4724e-05,41.516,1.9199e-05,0.00247,-6.3704e-05,-622.9,2.3284
3578,21.045,1.0909,0,6.4699e-05,646.54,2.508e-05,45.098,1.9079e-05,0.0081433,-6.3814e-05,-622.81,2.3286
3579,21.045,1.2727,0,6.4898e-05,648.54,2.543e-05,48.581,1.8966e-05,0.012947,-6.3935e-05,-622.87,2.3288
3580,21.045,1.4545,0,6.51e-05,650.56,2.5767e-05,51.896,1.8863e-05,0.016765,-6.4062e-05,-623.05,2.329
3581,21.045,1.6364,0,6.5297e-05,652.52,2.6084e-05,54.982,1.8769e-05,0.019862,-6.4188e-05,-623.29,2.3291
3582,21.045,1.8182,0,6.5483e-05,654.38,2.6374e-05,57.787,1.8686e-05,0.022341,-6.4308e-05,-623.56,2.3292
3583,21.045,2,0,6.5651e-05,656.06,2.6631e-05,60.266,1.8613e-05,0.024305,-6.4418e-05,-623.84,2.3293
3584,21.045,2.1818,0,6.5798e-05,657.53,2.6852e-05,62.385,1.8552e-05,0.025839,-6.4514e-05,-624.1,2.3294
3585,21.045,2.3636,0,6.592e-05,658.74,2.7032e-05,64.112,1.8503e-05,0.026996,-6.4594e-05,-624.33,2.3295
3586,21.045,2.5455,0,6.6014e-05,659.68,2.717e-05,65.426,1.8466e-05,0.027835,-6.4656e-05,-624.52,2.3295
3587,21.045,2.7273,0,6.6077e-05,660.31,2.7262e-05,66.311,1.8441e-05,0.028375,-6.4698e-05,-624.64,2.3296
3588,21.045,2.9091,0,6.6109e-05,660.63,2.7309e-05,66.756,1.8428e-05,0.028638,-6.472e-05,-624.71,2.3296
3589,21.045,3.0909,0,6.6109e-05,660.63,2.7309e-05,66.756,1.8428e-05,0.028637,-6.472e-05,-624.71,2.3296
3590,21.045,3.2727,0,6.6077e-05,660.31,2.7262e-05,66.311,1.8441e-05,0.028376,-6.4698e-05,-624.64,2.3296
3591,21.045,3.4545,0,6.6014e-05,659.68,2.717e-05,65.426,1.8466e-05,0.027832,-6.4656e-05,-624.52,2.3295
3592,21.045,3.6364,0,6.592e-05,658.74,2.7032e-05,64.112,1.8503e-05,0.026999,-6.4594e-05,-624.33,2.3295
3593,21.045,3.8182,0,6.5798e-05,657.53,2.6852e-05,62.385,1.8552e-05,0.025838,-6.4514e-05,-624.1,2.3294
3594,21.045,4,0,6.5651e-05,656.06,2.6631e-05,60.266,1.8613e-05,0.024304,-6.4418e-05,-623.84,2.3293
3595,21.045,4.1818,0,6.5483e-05,654.38,2.6374e-05,57.787,1.8686e-05,0.022341,-6.4308e-05,-623.56,2.3292
3596,21.045,4.3636,0,6.5297e-05,652.52,2.6084e-05,54.982,1.8769e-05,0.019862,-6.4188e-05,-623.29,2.3291
3597,21.045,4.5455,0,6.51e-05,650.56,2.5767e-05,51.896,1.8863e-05,0.016765,-6.4062e-05,-623.05,2.329
3598,21.045,4.7273,0,6.4898e-05,648.54,2.543e-05,48.581,1.8966e-05,0.012942,-6.3935e-05,-622.87,2.3288
3599,21.045,4.9091,0,6.4699e-05,646.54,2.508e-05,45.098,1.9079e-05,0.0081451,-6.3814e-05,-622.81,2.3286
3600,21.045,5.0909,0,6.4511e-05,644.66,2.4724e-05,41.517,1.9199e-05,0.0024716,-6.3704e-05,-622.9,2.3284
3601,21.045,5.2727,0,6.4343e-05,642.99,2.4374e-05,37.914,1.9327e-05,-0.0056404,-6.3615e-05,-623.2,2.3282
3602,21.045,5.4545,0,6.4208e-05,641.64,2.4039e-05,34.382,1.9462e-05,-0.011191,-6.3555e-05,-623.76,2.328
3603,21.045,5.6364,0,6.4138e-05,640.94,2.3751e-05,31.138,1.9601e-05,-0.041798,-6.3552e-05,-624.82,2.3278
3604,21.045,5.8182,0,6.4533e-05,644.89,2.3851e-05,30.789,1.9752e-05,-0.0043209,-6.3954e-05,-628.94,2.3275
3605,21.229,0.18182,0,6.0494e-05,604.52,2.2557e-05,31.285,1.8393e-05,-0.005707,-5.9901e-05,-588.28,2.3581
3606,21.229,0.36364,0,6.0121e-05,600.8,2.2493e-05,31.981,1.8231e-05,-0.044631,-5.9514e-05,-584.19,2.3583
3607,21.229,0.54545,0,6.0221e-05,601.79,2.2822e-05,35.606,1.8082e-05,-0.011526,-5.9536e-05,-583.2,2.3585
3608,21.229,0.72727,0,6.0388e-05,603.46,2.3199e-05,39.53,1.7937e-05,-0.0054114,-5.9618e-05,-582.73,2.3588
3609,21.229,0.90909,0,6.0589e-05,605.47,2.3592e-05,43.527,1.78e-05,0.0033138,-5.9731e-05,-582.53,2.359
3610,21.229,1.0909,0,6.0811e-05,607.69,2.399e-05,47.494,1.767e-05,0.0093567,-5.9864e-05,-582.55,2.3591
3611,21.229,1.2727,0,6.1044e-05,610.02,2.438e-05,51.344,1.7549e-05,0.014431,-6.0008e-05,-582.72,2.3593
3612,21.229,1.4545,0,6.1278e-05,612.35,2.4755e-05,55,1.7438e-05,0.018441,-6.0156e-05,-582.99,2.3595
3613,21.229,1.6364,0,6.1504e-05,614.61,2.5106e-05,58.396,1.7337e-05,0.021665,-6.0301e-05,-583.32,2.3596
3614,21.229,1.8182,0,6.1715e-05,616.72,2.5426e-05,61.476,1.7247e-05,0.024229,-6.0439e-05,-583.67,2.3597
3615,21.229,2,0,6.1906e-05,618.63,2.5709e-05,64.193,1.7169e-05,0.026256,-6.0563e-05,-584.02,2.3598
3616,21.229,2.1818,0,6.2072e-05,620.29,2.5951e-05,66.51,1.7103e-05,0.027827,-6.0672e-05,-584.34,2.3599
3617,21.229,2.3636,0,6.2209e-05,621.66,2.6149e-05,68.397,1.705e-05,0.029018,-6.0762e-05,-584.62,2.36
3618,21.229,2.5455,0,6.2314e-05,622.71,2.63e-05,69.831,1.701e-05,0.029866,-6.0831e-05,-584.83,2.36
3619,21.229,2.7273,0,6.2385e-05,623.42,2.6401e-05,70.795,1.6983e-05,0.030417,-6.0878e-05,-584.98,2.3601
3620,21.229,2.9091,0,6.2421e-05,623.78,2.6452e-05,71.28,1.697e-05,0.030685,-6.0901e-05,-585.06,2.3601
3621,21.229,3.0909,0,6.2421e-05,623.78,2.6452e-05,71.28,1.697e-05,0.030685,-6.0901e-05,-585.06,2.3601
3622,21.229,3.2727,0,6.2385e-05,623.42,2.6401e-05,70.795,1.6983e-05,0.030416,-6.0878e-05,-584.98,2.3601
3623,21.229,3.4545,0,6.2314e-05,622.71,2.63e-05,69.831,1.701e-05,0.029868,-6.0831e-05,-584.83,2.36
3624,21.229,3.6364,0,6.2209e-05,621.66,2.6149e-05,68.397,1.705e-05,0.029015,-6.0762e-05,-584.62,2.36
3625,21.229,3.8182,0,6.2072e-05,620.29,2.5951e-05,66.51,1.7103e-05,0.027829,-6.0672e-05,-584.34,2.3599
3626,21.229,4,0,6.1906e-05,618.63,2.5709e-05,64.193,1.7169e-05,0.026255,-6.0563e-05,-584.02,2.3598
3627,21.229,4.1818,0,6.1715e-05,616.72,2.5426e-05,61.476,1.7247e-05,0.02423,-6.0439e-05,-583.67,2.3597
3628,21.229,4.3636,0,6.1504e-05,614.61,2.5106e-05,58.396,1.7337e-05,0.021666,-6.0301e-05,-583.32,2.3596
3629,21.229,4.5455,0,6.1278e-05,612.35,2.4755e-05,55,1.7438e-05,0.018443,-6.0156e-05,-582.99,2.3595
3630,21.229,4.7273,0,6.1044e-05,610.02,2.438e-05,51.344,1.7549e-05,0.014431,-6.0008e-05,-582.72,2.3593
3631,21.229,4.9091,0,6.0811e-05,607.69,2.399e-05,47.494,1.767e-05,0.0093564,-5.9864e-05,-582.55,2.3591
3632,21.229,5.0909,0,6.0589e-05,605.47,2.3592e-05,43.528,1.78e-05,0.0033113,-5.9731e-05,-582.53,2.359
3633,21.229,5.2727,0,6.0388e-05,603.46,2.3199e-05,39.53,1.7937e-05,-0.0054126,-5.9618e-05,-582.73,2.3588
3634,21.229,5.4545,0,6.0221e-05,601.79,2.2822e-05,35.606,1.8082e-05,-0.011528,-5.9536e-05,-583.2,2.3585
3635,21.229,5.6364,0,6.0121e-05,600.8,2.2493e-05,31.981,1.8231e-05,-0.044626,-5.9514e-05,-584.19,2.3583
3636,21.229,5.8182,0,6.0494e-05,604.52,2.2557e-05,31.285,1.8393e-05,-0.0057045,-5.9901e-05,-588.28,2.3581
3637,21.414,0.18182,0,5.6468e-05,564.29,2.1267e-05,31.766,1.7038e-05,-0.0074076,-5.586e-05,-547.74,2.3887
3638,21.414,0.36364,0,5.6121e-05,560.82,2.1243e-05,32.853,1.6865e-05,-0.047706,-5.549e-05,-543.7,2.3889
3639,21.414,0.54545,0,5.6253e-05,562.14,2.1617e-05,36.899,1.6705e-05,-0.011808,-5.5534e-05,-542.79,2.3891
3640,21.414,0.72727,0,5.6456e-05,564.17,2.2041e-05,41.258,1.6549e-05,-0.0050367,-5.5641e-05,-542.41,2.3893
3641,21.414,0.90909,0,5.6695e-05,566.56,2.2481e-05,45.691,1.6401e-05,0.004372,-5.5779e-05,-542.33,2.3895
3642,21.414,1.0909,0,5.6956e-05,569.16,2.2925e-05,50.081,1.6261e-05,0.010824,-5.5938e-05,-542.46,2.3897
3643,21.414,1.2727,0,5.7225e-05,571.86,2.3359e-05,54.332,1.613e-05,0.016193,-5.6107e-05,-542.75,2.3898
3644,21.414,1.4545,0,5.7493e-05,574.54,2.3774e-05,58.358,1.601e-05,0.020406,-5.6277e-05,-543.12,2.39
3645,21.414,1.6364,0,5.7751e-05,577.11,2.4162e-05,62.087,1.5901e-05,0.023762,-5.6443e-05,-543.55,2.3901
3646,21.414,1.8182,0,5.799e-05,579.5,2.4514e-05,65.462,1.5805e-05,0.026419,-5.6598e-05,-543.98,2.3902
3647,21.414,2,0,5.8205e-05,581.65,2.4824e-05,68.432,1.5721e-05,0.028505,-5.6738e-05,-544.4,2.3903
3648,21.414,2.1818,0,5.8391e-05,583.51,2.509e-05,70.959,1.565e-05,0.030116,-5.6859e-05,-544.77,2.3904
3649,21.414,2.3636,0,5.8544e-05,585.04,2.5306e-05,73.013,1.5592e-05,0.031328,-5.6959e-05,-545.09,2.3905
3650,21.414,2.5455,0,5.8661e-05,586.21,2.547e-05,74.573,1.5549e-05,0.032198,-5.7035e-05,-545.34,2.3905
3651,21.414,2.7273,0,5.874e-05,587,2.558e-05,75.62,1.552e-05,0.032755,-5.7087e-05,-545.51,2.3906
3652,21.414,2.9091,0,5.878e-05,587.4,2.5636e-05,76.147,1.5506e-05,0.03303,-5.7113e-05,-545.6,2.3906
3653,21.414,3.0909,0,5.878e-05,587.4,2.5636e-05,76.147,1.5506e-05,0.033027,-5.7113e-05,-545.6,2.3906
3654,21.414,3.2727,0,5.874e-05,587,2.558e-05,75.62,1.552e-05,0.032757,-5.7087e-05,-545.51,2.3906
3655,21.414,3.4545,0,5.8661e-05,586.21,2.547e-05,74.573,1.5549e-05,0.032195,-5.7035e-05,-545.34,2.3905
3656,21.414,3.6364,0,5.8544e-05,585.04,2.5306e-05,73.014,1.5592e-05,0.031331,-5.6959e-05,-545.09,2.3905
3657,21.414,3.8182,0,5.8391e-05,583.51,2.509e-05,70.959,1.565e-05,0.030115,-5.6859e-05,-544.77,2.3904
3658,21.414,4,0,5.8205e-05,581.65,2.4824e-05,68.432,1.5721e-05,0.028506,-5.6738e-05,-544.4,2.3903
3659,21.414,4.1818,0,5.799e-05,579.5,2.4514e-05,65.462,1.5805e-05,0.026418,-5.6598e-05,-543.98,2.3902
3660,21.414,4.3636,0,5.7751e-05,577.11,2.4162e-05,62.088,1.5901e-05,0.023763,-5.6443e-05,-543.55,2.3901
3661,21.414,4.5455,0,5.7493e-05,574.54,2.3774e-05,58.358,1.601e-05,0.020404,-5.6277e-05,-543.12,2.39
3662,21.414,4.7273,0,5.7225e-05,571.86,2.3359e-05,54.332,1.613e-05,0.016194,-5.6107e-05,-542.75,2.3898
3663,21.414,4.9091,0,5.6956e-05,569.16,2.2925e-05,50.081,1.6261e-05,0.010824,-5.5938e-05,-542.46,2.3897
3664,21.414,5.0909,0,5.6695e-05,566.56,2.2481e-05,45.691,1.6401e-05,0.004369,-5.5779e-05,-542.33,2.3895
3665,21.414,5.2727,0,5.6456e-05,564.17,2.2041e-05,41.258,1.6549e-05,-0.005039,-5.5641e-05,-542.41,2.3893
3666,21.414,5.4545,0,5.6253e-05,562.14,2.1617e-05,36.899,1.6705e-05,-0.011807,-5.5534e-05,-542.79,2.3891
3667,21.414,5.6364,0,5.6121e-05,560.82,2.1243e-05,32.853,1.6865e-05,-0.047705,-5.549e-05,-543.7,2.3889
3668,21.414,5.8182,0,5.6468e-05,564.29,2.1267e-05,31.766,1.7038e-05,-0.0074061,-5.586e-05,-547.74,2.3887
3669,21.599,0.18182,0,5.2453e-05,524.17,1.9978e-05,32.228,1.5688e-05,-0.0095155,-5.1831e-05,-507.32,2.4193
3670,21.599,0.36364,0,5.2137e-05,521.01,2.0001e-05,33.754,1.5502e-05,-0.051061,-5.1481e-05,-503.34,2.4195
3671,21.599,0.54545,0,5.2306e-05,522.7,2.0424e-05,38.269,1.533e-05,-0.012002,-5.155e-05,-502.52,2.4197
3672,21.599,0.72727,0,5.255e-05,525.14,2.09e-05,43.111,1.5162e-05,-0.0044729,-5.1684e-05,-502.25,2.4199
3673,21.599,0.90909,0,5.2832e-05,527.95,2.1393e-05,48.026,1.5002e-05,0.005699,-5.1851e-05,-502.3,2.4201
3674,21.599,1.0909,0,5.3135e-05,530.98,2.1887e-05,52.882,1.4851e-05,0.012604,-5.2037e-05,-502.56,2.4203
3675,21.599,1.2727,0,5.3445e-05,534.08,2.2369e-05,57.569,1.471e-05,0.018295,-5.2232e-05,-502.96,2.4204
3676,21.599,1.4545,0,5.3751e-05,537.14,2.2828e-05,61.995,1.458e-05,0.022713,-5.2427e-05,-503.44,2.4206
3677,21.599,1.6364,0,5.4043e-05,540.05,2.3254e-05,66.083,1.4463e-05,0.026214,-5.2614e-05,-503.96,2.4207
3678,21.599,1.8182,0,5.4312e-05,542.75,2.364e-05,69.771,1.4358e-05,0.028962,-5.2788e-05,-504.48,2.4208
3679,21.599,2,0,5.4553e-05,545.15,2.398e-05,73.008,1.4267e-05,0.031108,-5.2943e-05,-504.96,2.4209
3680,21.599,2.1818,0,5.476e-05,547.23,2.4269e-05,75.756,1.4191e-05,0.03276,-5.3076e-05,-505.39,2.421
3681,21.599,2.3636,0,5.493e-05,548.92,2.4504e-05,77.985,1.4129e-05,0.033999,-5.3186e-05,-505.75,2.4211
3682,21.599,2.5455,0,5.506e-05,550.22,2.4682e-05,79.674,1.4083e-05,0.034883,-5.327e-05,-506.02,2.4211
3683,21.599,2.7273,0,5.5147e-05,551.09,2.4802e-05,80.808,1.4052e-05,0.035448,-5.3326e-05,-506.21,2.4211
3684,21.599,2.9091,0,5.5191e-05,551.53,2.4862e-05,81.378,1.4036e-05,0.035725,-5.3354e-05,-506.31,2.4212
3685,21.599,3.0909,0,5.5191e-05,551.53,2.4862e-05,81.378,1.4036e-05,0.035727,-5.3354e-05,-506.31,2.4212
3686,21.599,3.2727,0,5.5147e-05,551.09,2.4802e-05,80.808,1.4052e-05,0.035447,-5.3326e-05,-506.21,2.4211
3687,21.599,3.4545,0,5.506e-05,550.22,2.4682e-05,79.674,1.4083e-05,0.034883,-5.327e-05,-506.02,2.4211
3688,21.599,3.6364,0,5.493e-05,548.92,2.4504e-05,77.985,1.4129e-05,0.033998,-5.3186e-05,-505.75,2.4211
3689,21.599,3.8182,0,5.476e-05,547.23,2.4269e-05,75.756,1.4191e-05,0.03276,-5.3076e-05,-505.39,2.421
3690,21.599,4,0,5.4553e-05,545.15,2.398e-05,73.008,1.4267e-05,0.031107,-5.2943e-05,-504.96,2.4209
3691,21.599,4.1818,0,5.4312e-05,542.75,2.364e-05,69.771,1.4358e-05,0.02896,-5.2788e-05,-504.48,2.4208
3692,21.599,4.3636,0,5.4043e-05,540.05,2.3254e-05,66.083,1.4463e-05,0.026213,-5.2614e-05,-503.96,2.4207
3693,21.599,4.5455,0,5.3751e-05,537.14,2.2828e-05,61.995,1.458e-05,0.022713,-5.2427e-05,-503.44,2.4206
3694,21.599,4.7273,0,5.3445e-05,534.08,2.2369e-05,57.569,1.471e-05,0.018295,-5.2232e-05,-502.96,2.4204
3695,21.599,4.9091,0,5.3135e-05,530.98,2.1887e-05,52.882,1.4851e-05,0.012606,-5.2037e-05,-502.56,2.4203
3696,21.599,5.0909,0,5.2832e-05,527.95,2.1393e-05,48.026,1.5002e-05,0.0056961,-5.1851e-05,-502.3,2.4201
3697,21.599,5.2727,0,5.255e-05,525.14,2.09e-05,43.111,1.5162e-05,-0.0044767,-5.1684e-05,-502.25,2.4199
3698,21.599,5.4545,0,5.2306e-05,522.7,2.0424e-05,38.269,1.533e-05,-0.012003,-5.155e-05,-502.52,2.4197
3699,21.599,5.6364,0,5.2137e-05,521.01,2.0001e-05,33.754,1.5502e-05,-0.051061,-5.1481e-05,-503.34,2.4195
3700,21.599,5.8182,0,5.2453e-05,524.17,1.9978e-05,32.228,1.5688e-05,-0.0095108,-5.1831e-05,-507.32,2.4193
3701,21.783,0.18182,0,4.8451e-05,484.18,1.8691e-05,32.663,1.4343e-05,-0.012124,-4.7813e-05,-467.02,2.45
3702,21.783,0.36364,0,4.817e-05,481.37,1.8766e-05,34.687,1.4142e-05,-0.054719,-4.7487e-05,-463.11,2.4502
3703,21.783,0.54545,0,4.8381e-05,483.48,1.9245e-05,39.725,1.3957e-05,-0.012064,-4.7583e-05,-462.4,2.4504
3704,21.783,0.72727,0,4.8672e-05,486.38,1.9779e-05,45.107,1.3775e-05,-0.003649,-4.7747e-05,-462.26,2.4506
3705,21.783,0.90909,0,4.9002e-05,489.68,2.033e-05,50.556,1.3602e-05,0.0073765,-4.7946e-05,-462.44,2.4507
3706,21.783,1.0909,0,4.9353e-05,493.19,2.088e-05,55.923,1.3439e-05,0.014787,-4.8163e-05,-462.83,2.4509
3707,21.783,1.2727,0,4.9708e-05,496.74,2.1414e-05,61.086,1.3286e-05,0.02082,-4.8386e-05,-463.36,2.451
3708,21.783,1.4545,0,5.0055e-05,500.21,2.1919e-05,65.943,1.3146e-05,0.025463,-4.8606e-05,-463.95,2.4512
3709,21.783,1.6364,0,5.0384e-05,503.49,2.2386e-05,70.413,1.3019e-05,0.029109,-4.8815e-05,-464.57,2.4513
3710,21.783,1.8182,0,5.0685e-05,506.5,2.2808e-05,74.431,1.2906e-05,0.03195,-4.9007e-05,-465.16,2.4514
3711,21.783,2,0,5.0954e-05,509.18,2.3178e-05,77.947,1.2808e-05,0.034159,-4.9178e-05,-465.7,2.4515
3712,21.783,2.1818,0,5.1183e-05,511.48,2.3491e-05,80.925,1.2726e-05,0.035848,-4.9324e-05,-466.18,2.4516
3713,21.783,2.3636,0,5.1371e-05,513.35,2.3745e-05,83.335,1.2659e-05,0.037111,-4.9443e-05,-466.57,2.4516
3714,21.783,2.5455,0,5.1513e-05,514.78,2.3938e-05,85.158,1.2609e-05,0.03801,-4.9533e-05,-466.87,2.4517
3715,21.783,2.7273,0,5.1609e-05,515.74,2.4067e-05,86.38,1.2576e-05,0.038589,-4.9594e-05,-467.08,2.4517
3716,21.783,2.9091,0,5.1658e-05,516.22,2.4132e-05,86.993,1.2559e-05,0.038867,-4.9624e-05,-467.18,2.4517
3717,21.783,3.0909,0,5.1658e-05,516.22,2.4132e-05,86.993,1.2559e-05,0.038869,-4.9624e-05,-467.18,2.4517
3718,21.783,3.2727,0,5.1609e-05,515.74,2.4067e-05,86.38,1.2576e-05,0.038588,-4.9594e-05,-467.08,2.4517
3719,21.783,3.4545,0,5.1513e-05,514.78,2.3938e-05,85.158,1.2609e-05,0.03801,-4.9533e-05,-466.87,2.4517
3720,21.783,3.6364,0,5.1371e-05,513.35,2.3745e-05,83.335,1.2659e-05,0.037114,-4.9443e-05,-466.57,2.4516
3721,21.783,3.8182,0,5.1183e-05,511.48,2.3491e-05,80.925,1.2726e-05,0.035851,-4.9324e-05,-466.18,2.4516
3722,21.783,4,0,5.0954e-05,509.18,2.3178e-05,77.948,1.2808e-05,0.034158,-4.9178e-05,-465.7,2.4515
3723,21.783,4.1818,0,5.0685e-05,506.5,2.2808e-05,74.431,1.2906e-05,0.031952,-4.9007e-05,-465.16,2.4514
3724,21.783,4.3636,0,5.0384e-05,503.49,2.2386e-05,70.413,1.3019e-05,0.029106,-4.8815e-05,-464.57,2.4513
3725,21.783,4.5455,0,5.0055e-05,500.21,2.1919e-05,65.943,1.3146e-05,0.02546,-4.8606e-05,-463.95,2.4512
3726,21.783,4.7273,0,4.9708e-05,496.74,2.1414e-05,61.086,1.3286e-05,0.02082,-4.8386e-05,-463.36,2.451
3727,21.783,4.9091,0,4.9353e-05,493.19,2.088e-05,55.923,1.3439e-05,0.014786,-4.8163e-05,-462.83,2.4509
3728,21.783,5.0909,0,4.9002e-05,489.68,2.033e-05,50.556,1.3602e-05,0.0073784,-4.7946e-05,-462.44,2.4507
3729,21.783,5.2727,0,4.8672e-05,486.38,1.9779e-05,45.107,1.3775e-05,-0.0036496,-4.7747e-05,-462.26,2.4506
3730,21.783,5.4545,0,4.8381e-05,483.48,1.9245e-05,39.725,1.3957e-05,-0.012061,-4.7583e-05,-462.4,2.4504
3731,21.783,5.6364,0,4.817e-05,481.37,1.8766e-05,34.687,1.4142e-05,-0.054718,-4.7487e-05,-463.11,2.4502
3732,21.783,5.8182,0,4.8451e-05,484.18,1.8691e-05,32.663,1.4343e-05,-0.012125,-4.7813e-05,-467.02,2.45
3733,21.968,0.18182,0,4.446e-05,444.29,1.7405e-05,33.066,1.3002e-05,-0.015363,-4.3805e-05,-426.84,2.4806
3734,21.968,0.36364,0,4.4222e-05,441.91,1.7539e-05,35.654,1.2786e-05,-0.058692,-4.3508e-05,-423.03,2.4808
3735,21.968,0.54545,0,4.4481e-05,444.5,1.8081e-05,41.282,1.2585e-05,-0.011907,-4.3635e-05,-422.43,2.481
3736,21.968,0.72727,0,4.4825e-05,447.94,1.868e-05,47.267,1.2389e-05,-0.0024564,-4.3834e-05,-422.44,2.4812
3737,21.968,0.90909,0,4.521e-05,451.79,1.9295e-05,53.309,1.2201e-05,0.0095429,-4.4066e-05,-422.77,2.4814
3738,21.968,1.0909,0,4.5614e-05,455.82,1.9906e-05,59.238,1.2024e-05,0.017499,-4.4316e-05,-423.3,2.4815
3739,21.968,1.2727,0,4.6019e-05,459.87,2.0495e-05,64.916,1.1859e-05,0.023902,-4.4569e-05,-423.95,2.4817
3740,21.968,1.4545,0,4.6411e-05,463.79,2.1051e-05,70.235,1.1707e-05,0.02878,-4.4815e-05,-424.66,2.4818
3741,21.968,1.6364,0,4.6779e-05,467.47,2.1562e-05,75.109,1.1569e-05,0.032577,-4.5046e-05,-425.36,2.4819
3742,21.968,1.8182,0,4.7115e-05,470.83,2.202e-05,79.474,1.1447e-05,0.035514,-4.5257e-05,-426.02,2.482
3743,21.968,2,0,4.7412e-05,473.79,2.242e-05,83.279,1.1342e-05,0.037785,-4.5442e-05,-426.62,2.4821
3744,21.968,2.1818,0,4.7665e-05,476.32,2.2759e-05,86.492,1.1253e-05,0.039515,-4.56e-05,-427.13,2.4822
3745,21.968,2.3636,0,4.787e-05,478.37,2.3032e-05,89.086,1.1181e-05,0.040802,-4.5728e-05,-427.55,2.4823
3746,21.968,2.5455,0,4.8026e-05,479.93,2.3239e-05,91.044,1.1127e-05,0.041714,-4.5825e-05,-427.87,2.4823
3747,21.968,2.7273,0,4.8131e-05,480.98,2.3377e-05,92.355,1.1091e-05,0.042302,-4.589e-05,-428.09,2.4824
3748,21.968,2.9091,0,4.8184e-05,481.5,2.3447e-05,93.013,1.1073e-05,0.042587,-4.5922e-05,-428.2,2.4824
3749,21.968,3.0909,0,4.8184e-05,481.5,2.3447e-05,93.013,1.1073e-05,0.042586,-4.5922e-05,-428.2,2.4824
3750,21.968,3.2727,0,4.8131e-05,480.98,2.3377e-05,92.355,1.1091e-05,0.042301,-4.589e-05,-428.09,2.4824
3751,21.968,3.4545,0,4.8026e-05,479.93,2.3239e-05,91.044,1.1127e-05,0.041714,-4.5825e-05,-427.87,2.4823
3752,21.968,3.6364,0,4.787e-05,478.37,2.3032e-05,89.086,1.1181e-05,0.040803,-4.5728e-05,-427.55,2.4823
3753,21.968,3.8182,0,4.7665e-05,476.32,2.2759e-05,86.492,1.1253e-05,0.039515,-4.56e-05,-427.13,2.4822
3754,21.968,4,0,4.7412e-05,473.79,2.242e-05,83.279,1.1342e-05,0.037784,-4.5442e-05,-426.61,2.4821
3755,21.968,4.1818,0,4.7115e-05,470.83,2.202e-05,79.474,1.1447e-05,0.035515,-4.5257e-05,-426.02,2.482
3756,21.968,4.3636,0,4.6779e-05,467.47,2.1562e-05,75.11,1.1569e-05,0.032574,-4.5046e-05,-425.36,2.4819
3757,21.968,4.5455,0,4.6411e-05,463.79,2.1051e-05,70.235,1.1707e-05,0.028777,-4.4815e-05,-424.66,2.4818
3758,21.968,4.7273,0,4.6019e-05,459.87,2.0495e-05,64.916,1.1859e-05,0.023903,-4.4569e-05,-423.95,2.4817
3759,21.968,4.9091,0,4.5614e-05,455.82,1.9906e-05,59.238,1.2024e-05,0.017495,-4.4316e-05,-423.3,2.4815
3760,21.968,5.0909,0,4.521e-05,451.79,1.9295e-05,53.309,1.2201e-05,0.0095421,-4.4066e-05,-422.77,2.4814
3761,21.968,5.2727,0,4.4825e-05,447.94,1.868e-05,47.267,1.2389e-05,-0.0024573,-4.3834e-05,-422.44,2.4812
3762,21.968,5.4545,0,4.4481e-05,444.5,1.8081e-05,41.282,1.2585e-05,-0.011904,-4.3635e-05,-422.43,2.481
3763,21.968,5.6364,0,4.4222e-05,441.91,1.7539e-05,35.654,1.2786e-05,-0.058692,-4.3508e-05,-423.03,2.4808
3764,21.968,5.8182,0,4.446e-05,444.29,1.7405e-05,33.066,1.3002e-05,-0.015369,-4.3805e-05,-426.84,2.4806
3765,22.153,0.18182,0,4.0481e-05,404.53,1.6118e-05,33.425,1.1667e-05,-0.019432,-3.9809e-05,-386.79,2.5114
3766,22.153,0.36364,0,4.0293e-05,402.65,1.6321e-05,36.661,1.1434e-05,-0.062996,-3.9544e-05,-383.09,2.5115
3767,22.153,0.54545,0,4.0609e-05,405.81,1.6934e-05,42.956,1.1216e-05,-0.011421,-3.9707e-05,-382.62,2.5117
3768,22.153,0.72727,0,4.1014e-05,409.86,1.7606e-05,49.62,1.1002e-05,-0.00074803,-3.9944e-05,-382.79,2.5119
3769,22.153,0.90909,0,4.1461e-05,414.33,1.8293e-05,56.323,1.0798e-05,0.012338,-4.0215e-05,-383.28,2.5121
3770,22.153,1.0909,0,4.1925e-05,418.96,1.897e-05,62.867,1.0606e-05,0.020898,-4.05e-05,-383.97,2.5122
3771,22.153,1.2727,0,4.2385e-05,423.56,1.9619e-05,69.103,1.0426e-05,0.027704,-4.0784e-05,-384.75,2.5124
3772,22.153,1.4545,0,4.2826e-05,427.96,2.0227e-05,74.913,1.0261e-05,0.032824,-4.1057e-05,-385.55,2.5125
3773,22.153,1.6364,0,4.3237e-05,432.07,2.0783e-05,80.21,1.0113e-05,0.036777,-4.131e-05,-386.33,2.5126
3774,22.153,1.8182,0,4.3608e-05,435.78,2.1279e-05,84.931,9.9807e-06,0.039815,-4.1538e-05,-387.05,2.5127
3775,22.153,2,0,4.3934e-05,439.04,2.171e-05,89.032,9.8666e-06,0.042149,-4.1737e-05,-387.69,2.5128
3776,22.153,2.1818,0,4.4211e-05,441.81,2.2074e-05,92.482,9.7708e-06,0.043918,-4.1905e-05,-388.23,2.5129
3777,22.153,2.3636,0,4.4435e-05,444.05,2.2366e-05,95.261,9.6937e-06,0.045234,-4.2041e-05,-388.67,2.5129
3778,22.153,2.5455,0,4.4605e-05,445.74,2.2586e-05,97.354,9.6356e-06,0.046164,-4.2143e-05,-389,2.513
3779,22.153,2.7273,0,4.4718e-05,446.88,2.2734e-05,98.754,9.5968e-06,0.046757,-4.2212e-05,-389.22,2.513
3780,22.153,2.9091,0,4.4775e-05,447.45,2.2808e-05,99.455,9.5774e-06,0.047049,-4.2246e-05,-389.33,2.513
3781,22.153,3.0909,0,4.4775e-05,447.45,2.2808e-05,99.455,9.5774e-06,0.047049,-4.2246e-05,-389.33,2.513
3782,22.153,3.2727,0,4.4718e-05,446.88,2.2734e-05,98.754,9.5968e-06,0.046759,-4.2212e-05,-389.22,2.513
3783,22.153,3.4545,0,4.4605e-05,445.74,2.2586e-05,97.354,9.6356e-06,0.046163,-4.2143e-05,-389,2.513
3784,22.153,3.6364,0,4.4435e-05,444.05,2.2366e-05,95.261,9.6937e-06,0.045232,-4.2041e-05,-388.67,2.5129
3785,22.153,3.8182,0,4.4211e-05,441.81,2.2074e-05,92.482,9.7708e-06,0.043919,-4.1905e-05,-388.23,2.5129
3786,22.153,4,0,4.3934e-05,439.04,2.171e-05,89.032,9.8666e-06,0.042147,-4.1737e-05,-387.69,2.5128
3787,22.153,4.1818,0,4.3608e-05,435.78,2.1279e-05,84.931,9.9807e-06,0.039813,-4.1538e-05,-387.05,2.5127
3788,22.153,4.3636,0,4.3237e-05,432.07,2.0783e-05,80.21,1.0113e-05,0.03678,-4.1309e-05,-386.33,2.5126
3789,22.153,4.5455,0,4.2826e-05,427.96,2.0227e-05,74.913,1.0261e-05,0.032825,-4.1057e-05,-385.55,2.5125
3790,22.153,4.7273,0,4.2385e-05,423.56,1.9619e-05,69.103,1.0426e-05,0.027703,-4.0784e-05,-384.75,2.5124
3791,22.153,4.9091,0,4.1925e-05,418.96,1.897e-05,62.867,1.0606e-05,0.020901,-4.05e-05,-383.97,2.5122
3792,22.153,5.0909,0,4.1461e-05,414.33,1.8293e-05,56.323,1.0798e-05,0.012336,-4.0215e-05,-383.28,2.5121
3793,22.153,5.2727,0,4.1014e-05,409.86,1.7606e-05,49.62,1.1002e-05,-0.00075022,-3.9944e-05,-382.79,2.5119
3794,22.153,5.4545,0,4.0609e-05,405.81,1.6934e-05,42.956,1.1216e-05,-0.011418,-3.9707e-05,-382.62,2.5117
3795,22.153,5.6364,0,4.0293e-05,402.65,1.6321e-05,36.661,1.1434e-05,-0.062991,-3.9544e-05,-383.09,2.5115
3796,22.153,5.8182,0,4.0481e-05,404.53,1.6118e-05,33.425,1.1667e-05,-0.019433,-3.9809e-05,-386.79,2.5114
3797,22.338,0.18182,0,3.6513e-05,364.88,1.483e-05,33.731,1.0338e-05,-0.024552,-3.5823e-05,-346.86,2.5421
3798,22.338,0.36364,0,3.6385e-05,363.6,1.5113e-05,37.715,1.0085e-05,-0.067618,-3.5597e-05,-343.3,2.5423
3799,22.338,0.54545,0,3.6768e-05,367.43,1.5807e-05,44.773,9.8471e-06,-0.010435,-3.5801e-05,-342.99,2.5425
3800,22.338,0.72727,0,3.7246e-05,372.2,1.6562e-05,52.206,9.6143e-06,0.0016814,-3.6082e-05,-343.34,2.5426
3801,22.338,0.90909,0,3.7764e-05,377.38,1.7328e-05,59.643,9.392e-06,0.016009,-3.6394e-05,-344.01,2.5428
3802,22.338,1.0909,0,3.8295e-05,382.69,1.8077e-05,66.861,9.1821e-06,0.025234,-3.6717e-05,-344.84,2.5429
3803,22.338,1.2727,0,3.8815e-05,387.88,1.8791e-05,73.694,8.987e-06,0.032464,-3.7032e-05,-345.74,2.5431
3804,22.338,1.4545,0,3.9309e-05,392.82,1.9453e-05,80.019,8.8081e-06,0.037845,-3.7331e-05,-346.63,2.5432
3805,22.338,1.6364,0,3.9764e-05,397.37,2.0054e-05,85.753,8.647e-06,0.041956,-3.7605e-05,-347.48,2.5433
3806,22.338,1.8182,0,4.0173e-05,401.45,2.0588e-05,90.838,8.5045e-06,0.045097,-3.7849e-05,-348.24,2.5434
3807,22.338,2,0,4.053e-05,405.02,2.105e-05,95.235,8.3814e-06,0.047494,-3.8061e-05,-348.9,2.5435
3808,22.338,2.1818,0,4.0831e-05,408.03,2.1437e-05,98.922,8.2783e-06,0.049311,-3.8238e-05,-349.46,2.5436
3809,22.338,2.3636,0,4.1074e-05,410.45,2.1748e-05,101.88,8.1954e-06,0.050656,-3.838e-05,-349.9,2.5436
3810,22.338,2.5455,0,4.1257e-05,412.28,2.1982e-05,104.11,8.133e-06,0.051608,-3.8487e-05,-350.23,2.5437
3811,22.338,2.7273,0,4.1379e-05,413.51,2.2138e-05,105.59,8.0914e-06,0.052215,-3.8559e-05,-350.46,2.5437
3812,22.338,2.9091,0,4.1441e-05,414.12,2.2216e-05,106.34,8.0705e-06,0.052512,-3.8594e-05,-350.57,2.5437
3813,22.338,3.0909,0,4.1441e-05,414.12,2.2216e-05,106.34,8.0705e-06,0.052512,-3.8594e-05,-350.57,2.5437
3814,22.338,3.2727,0,4.1379e-05,413.51,2.2138e-05,105.59,8.0914e-06,0.052215,-3.8559e-05,-350.46,2.5437
3815,22.338,3.4545,0,4.1257e-05,412.28,2.1982e-05,104.11,8.133e-06,0.051605,-3.8487e-05,-350.23,2.5437
3816,22.338,3.6364,0,4.1074e-05,410.45,2.1748e-05,101.88,8.1954e-06,0.050659,-3.838e-05,-349.9,2.5436
3817,22.338,3.8182,0,4.0831e-05,408.03,2.1437e-05,98.922,8.2783e-06,0.049309,-3.8238e-05,-349.46,2.5436
3818,22.338,4,0,4.053e-05,405.02,2.105e-05,95.236,8.3814e-06,0.047496,-3.8061e-05,-348.9,2.5435
3819,22.338,4.1818,0,4.0173e-05,401.45,2.0588e-05,90.838,8.5045e-06,0.045096,-3.7849e-05,-348.24,2.5434
3820,22.338,4.3636,0,3.9764e-05,397.37,2.0054e-05,85.753,8.647e-06,0.041957,-3.7605e-05,-347.48,2.5433
3821,22.338,4.5455,0,3.9309e-05,392.82,1.9453e-05,80.019,8.8081e-06,0.037842,-3.7331e-05,-346.63,2.5432
3822,22.338,4.7273,0,3.8815e-05,387.88,1.8791e-05,73.694,8.987e-06,0.032465,-3.7032e-05,-345.74,2.5431
3823,22.338,4.9091,0,3.8295e-05,382.69,1.8077e-05,66.861,9.1821e-06,0.025235,-3.6717e-05,-344.84,2.5429
3824,22.338,5.0909,0,3.7764e-05,377.38,1.7328e-05,59.643,9.392e-06,0.016008,-3.6394e-05,-344,2.5428
3825,22.338,5.2727,0,3.7246e-05,372.2,1.6562e-05,52.206,9.6143e-06,0.0016813,-3.6082e-05,-343.34,2.5426
3826,22.338,5.4545,0,3.6768e-05,367.43,1.5807e-05,44.773,9.8471e-06,-0.010434,-3.5801e-05,-342.99,2.5425
3827,22.338,5.6364,0,3.6385e-05,363.6,1.5113e-05,37.715,1.0085e-05,-0.067616,-3.5597e-05,-343.3,2.5423
3828,22.338,5.8182,0,3.6513e-05,364.88,1.483e-05,33.731,1.0338e-05,-0.024551,-3.5823e-05,-346.86,2.5421
3829,22.522,0.18182,0,3.2558e-05,325.36,1.354e-05,33.97,9.0149e-06,-0.031023,-3.1847e-05,-307.05,2.5729
3830,22.522,0.36364,0,3.2504e-05,324.82,1.3917e-05,38.829,8.7391e-06,-0.072474,-3.1669e-05,-303.69,2.573
3831,22.522,0.54545,0,3.2967e-05,329.44,1.4705e-05,46.77,8.4792e-06,-0.0086208,-3.1922e-05,-303.56,2.5732
3832,22.522,0.72727,0,3.353e-05,335.06,1.5554e-05,55.077,8.2243e-06,0.005223,-3.2251e-05,-304.11,2.5734
3833,22.522,0.90909,0,3.413e-05,341.07,1.6407e-05,63.333,7.9812e-06,0.020952,-3.2609e-05,-304.96,2.5735
3834,22.522,1.0909,0,3.4736e-05,347.12,1.7235e-05,71.282,7.752e-06,0.030906,-3.297e-05,-305.94,2.5737
3835,22.522,1.2727,0,3.5322e-05,352.98,1.8015e-05,78.747,7.5395e-06,0.038592,-3.3317e-05,-306.94,2.5738
3836,22.522,1.4545,0,3.5872e-05,358.47,1.8733e-05,85.607,7.3454e-06,0.04424,-3.364e-05,-307.91,2.5739
3837,22.522,1.6364,0,3.6374e-05,363.49,1.938e-05,91.784,7.1709e-06,0.048523,-3.3933e-05,-308.79,2.574
3838,22.522,1.8182,0,3.6821e-05,367.96,1.9951e-05,97.23,7.0171e-06,0.051775,-3.4191e-05,-309.57,2.5741
3839,22.522,2,0,3.7209e-05,371.84,2.0442e-05,101.92,6.8845e-06,0.054252,-3.4412e-05,-310.23,2.5742
3840,22.522,2.1818,0,3.7535e-05,375.09,2.0852e-05,105.83,6.7737e-06,0.05612,-3.4597e-05,-310.78,2.5743
3841,22.522,2.3636,0,3.7796e-05,377.7,2.118e-05,108.97,6.6847e-06,0.057507,-3.4744e-05,-311.22,2.5743
3842,22.522,2.5455,0,3.7993e-05,379.66,2.1426e-05,111.32,6.6179e-06,0.058483,-3.4854e-05,-311.55,2.5744
3843,22.522,2.7273,0,3.8124e-05,380.98,2.1589e-05,112.88,6.5734e-06,0.05911,-3.4927e-05,-311.76,2.5744
3844,22.522,2.9091,0,3.819e-05,381.63,2.1671e-05,113.67,6.5511e-06,0.059412,-3.4964e-05,-311.87,2.5744
3845,22.522,3.0909,0,3.819e-05,381.63,2.1671e-05,113.67,6.5511e-06,0.059412,-3.4964e-05,-311.87,2.5744
3846,22.522,3.2727,0,3.8124e-05,380.98,2.1589e-05,112.88,6.5734e-06,0.059109,-3.4927e-05,-311.76,2.5744
3847,22.522,3.4545,0,3.7993e-05,379.66,2.1426e-05,111.32,6.6179e-06,0.058486,-3.4854e-05,-311.55,2.5744
3848,22.522,3.6364,0,3.7796e-05,377.7,2.118e-05,108.97,6.6847e-06,0.057507,-3.4744e-05,-311.22,2.5743
3849,22.522,3.8182,0,3.7535e-05,375.09,2.0852e-05,105.83,6.7737e-06,0.056122,-3.4597e-05,-310.78,2.5743
3850,22.522,4,0,3.7209e-05,371.84,2.0442e-05,101.92,6.8845e-06,0.054253,-3.4412e-05,-310.23,2.5742
3851,22.522,4.1818,0,3.6821e-05,367.96,1.9951e-05,97.23,7.0171e-06,0.051775,-3.4191e-05,-309.57,2.5741
3852,22.522,4.3636,0,3.6374e-05,363.49,1.938e-05,91.784,7.1709e-06,0.048525,-3.3933e-05,-308.79,2.574
3853,22.522,4.5455,0,3.5872e-05,358.47,1.8733e-05,85.607,7.3454e-06,0.044238,-3.364e-05,-307.91,2.5739
3854,22.522,4.7273,0,3.5322e-05,352.98,1.8015e-05,78.747,7.5395e-06,0.038589,-3.3317e-05,-306.94,2.5738
3855,22.522,4.9091,0,3.4736e-05,347.12,1.7235e-05,71.282,7.752e-06,0.030906,-3.297e-05,-305.94,2.5737
3856,22.522,5.0909,0,3.413e-05,341.07,1.6407e-05,63.333,7.9812e-06,0.020953,-3.2609e-05,-304.96,2.5735
3857,22.522,5.2727,0,3.353e-05,335.06,1.5554e-05,55.077,8.2243e-06,0.005221,-3.2251e-05,-304.11,2.5734
3858,22.522,5.4545,0,3.2967e-05,329.44,1.4705e-05,46.77,8.4792e-06,-0.0086204,-3.1922e-05,-303.56,2.5732
3859,22.522,5.6364,0,3.2504e-05,324.82,1.3917e-05,38.829,8.7391e-06,-0.072471,-3.1669e-05,-303.69,2.573
3860,22.522,5.8182,0,3.2558e-05,325.36,1.354e-05,33.97,9.0149e-06,-0.031019,-3.1847e-05,-307.05,2.5729
3861,22.707,0.18182,0,2.8618e-05,285.98,1.2247e-05,34.127,7.6994e-06,-0.039415,-2.7884e-05,-267.4,2.6036
3862,22.707,0.36364,0,2.8655e-05,286.35,1.2735e-05,40.025,7.3973e-06,-0.077555,-2.7764e-05,-264.27,2.6038
3863,22.707,0.54545,0,2.9216e-05,291.96,1.3634e-05,49,7.1113e-06,-0.005662,-2.8073e-05,-264.36,2.604
3864,22.707,0.72727,0,2.988e-05,298.59,1.459e-05,58.308,6.831e-06,0.01024,-2.8457e-05,-265.13,2.6041
3865,22.707,0.90909,0,3.0576e-05,305.55,1.554e-05,67.472,6.564e-06,0.02756,-2.8864e-05,-266.16,2.6043
3866,22.707,1.0909,0,3.1265e-05,312.44,1.6451e-05,76.206,6.3133e-06,0.038304,-2.9263e-05,-267.27,2.6044
3867,22.707,1.2727,0,3.1923e-05,319.01,1.7299e-05,84.329,6.0817e-06,0.046476,-2.9641e-05,-268.36,2.6046
3868,22.707,1.4545,0,3.2532e-05,325.09,1.8073e-05,91.73,5.871e-06,0.052413,-2.9985e-05,-269.36,2.6047
3869,22.707,1.6364,0,3.3082e-05,330.59,1.8764e-05,98.345,5.6824e-06,0.056891,-3.0293e-05,-270.25,2.6048
3870,22.707,1.8182,0,3.3568e-05,335.45,1.9369e-05,104.14,5.5166e-06,0.060275,-3.0561e-05,-271.01,2.6049
3871,22.707,2,0,3.3987e-05,339.64,1.9887e-05,109.11,5.3742e-06,0.062847,-3.079e-05,-271.66,2.605
3872,22.707,2.1818,0,3.4337e-05,343.13,2.0318e-05,113.24,5.2554e-06,0.064788,-3.0979e-05,-272.19,2.605
3873,22.707,2.3636,0,3.4617e-05,345.93,2.0661e-05,116.53,5.1603e-06,0.066225,-3.1129e-05,-272.6,2.6051
3874,22.707,2.5455,0,3.4827e-05,348.03,2.0918e-05,119,5.0889e-06,0.067241,-3.1241e-05,-272.9,2.6051
3875,22.707,2.7273,0,3.4966e-05,349.42,2.1089e-05,120.64,5.0413e-06,0.06789,-3.1315e-05,-273.1,2.6051
3876,22.707,2.9091,0,3.5036e-05,350.12,2.1174e-05,121.46,5.0176e-06,0.068208,-3.1352e-05,-273.2,2.6052
3877,22.707,3.0909,0,3.5036e-05,350.12,2.1174e-05,121.46,5.0176e-06,0.068208,-3.1352e-05,-273.2,2.6052
3878,22.707,3.2727,0,3.4966e-05,349.42,2.1089e-05,120.64,5.0413e-06,0.067891,-3.1315e-05,-273.1,2.6051
3879,22.707,3.4545,0,3.4827e-05,348.03,2.0918e-05,119,5.0889e-06,0.067242,-3.1241e-05,-272.9,2.6051
3880,22.707,3.6364,0,3.4617e-05,345.93,2.0661e-05,116.53,5.1602e-06,0.066223,-3.1129e-05,-272.6,2.6051
3881,22.707,3.8182,0,3.4337e-05,343.13,2.0318e-05,113.24,5.2554e-06,0.064789,-3.0979e-05,-272.19,2.605
3882,22.707,4,0,3.3987e-05,339.64,1.9887e-05,109.11,5.3742e-06,0.062846,-3.079e-05,-271.66,2.605
3883,22.707,4.1818,0,3.3568e-05,335.45,1.9369e-05,104.14,5.5166e-06,0.060273,-3.0561e-05,-271.01,2.6049
3884,22.707,4.3636,0,3.3082e-05,330.59,1.8764e-05,98.345,5.6824e-06,0.056891,-3.0293e-05,-270.25,2.6048
3885,22.707,4.5455,0,3.2532e-05,325.09,1.8073e-05,91.73,5.871e-06,0.052414,-2.9985e-05,-269.36,2.6047
3886,22.707,4.7273,0,3.1923e-05,319.01,1.7299e-05,84.329,6.0817e-06,0.046475,-2.9641e-05,-268.36,2.6046
3887,22.707,4.9091,0,3.1265e-05,312.44,1.6451e-05,76.206,6.3133e-06,0.038302,-2.9263e-05,-267.27,2.6044
3888,22.707,5.0909,0,3.0576e-05,305.55,1.554e-05,67.472,6.564e-06,0.027559,-2.8864e-05,-266.16,2.6043
3889,22.707,5.2727,0,2.988e-05,298.59,1.459e-05,58.308,6.8309e-06,0.010238,-2.8457e-05,-265.13,2.6041
3890,22.707,5.4545,0,2.9216e-05,291.96,1.3634e-05,49,7.1113e-06,-0.0056627,-2.8073e-05,-264.36,2.604
3891,22.707,5.6364,0,2.8655e-05,286.35,1.2735e-05,40.025,7.3973e-06,-0.077552,-2.7764e-05,-264.27,2.6038
3892,22.707,5.8182,0,2.8618e-05,285.98,1.2247e-05,34.127,7.6994e-06,-0.039415,-2.7884e-05,-267.4,2.6036
3893,22.892,0.18182,0,2.4694e-05,246.76,1.0948e-05,34.182,6.3925e-06,-0.049996,-2.3934e-05,-227.91,2.6344
3894,22.892,0.36364,0,2.4849e-05,248.32,1.1573e-05,41.344,6.0593e-06,-0.08201,-2.3886e-05,-225.08,2.6346
3895,22.892,0.54545,0,2.5533e-05,255.15,1.2603e-05,51.548,5.7425e-06,-0.00019391,-2.4262e-05,-225.44,2.6348
3896,22.892,0.72727,0,2.6318e-05,263,1.3682e-05,62.004,5.4324e-06,0.018206,-2.4709e-05,-226.45,2.6349
3897,22.892,0.90909,0,2.7124e-05,271.05,1.4738e-05,72.165,5.1383e-06,0.03734,-2.5165e-05,-227.65,2.6351
3898,22.892,1.0909,0,2.7906e-05,278.87,1.5734e-05,81.726,4.8636e-06,0.048956,-2.5602e-05,-228.86,2.6352
3899,22.892,1.2727,0,2.8639e-05,286.2,1.6651e-05,90.517,4.6112e-06,0.057672,-2.6005e-05,-229.98,2.6353
3900,22.892,1.4545,0,2.931e-05,292.9,1.7477e-05,98.448,4.3828e-06,0.063947,-2.6366e-05,-230.97,2.6354
3901,22.892,1.6364,0,2.9909e-05,298.89,1.8209e-05,105.48,4.1792e-06,0.068659,-2.6685e-05,-231.83,2.6355
3902,22.892,1.8182,0,3.0435e-05,304.14,1.8846e-05,111.61,4.0011e-06,0.072213,-2.6959e-05,-232.55,2.6356
3903,22.892,2,0,3.0884e-05,308.63,1.9387e-05,116.83,3.8486e-06,0.074916,-2.7191e-05,-233.14,2.6357
3904,22.892,2.1818,0,3.1258e-05,312.36,1.9836e-05,121.15,3.7217e-06,0.076961,-2.7382e-05,-233.62,2.6358
3905,22.892,2.3636,0,3.1556e-05,315.34,2.0193e-05,124.6,3.6204e-06,0.078475,-2.7532e-05,-233.99,2.6358
3906,22.892,2.5455,0,3.1778e-05,317.57,2.0459e-05,127.17,3.5445e-06,0.079546,-2.7644e-05,-234.26,2.6359
3907,22.892,2.7273,0,3.1927e-05,319.05,2.0636e-05,128.88,3.494e-06,0.080233,-2.7718e-05,-234.44,2.6359
3908,22.892,2.9091,0,3.2001e-05,319.79,2.0724e-05,129.73,3.4687e-06,0.080567,-2.7755e-05,-234.52,2.6359
3909,22.892,3.0909,0,3.2001e-05,319.79,2.0724e-05,129.73,3.4687e-06,0.080568,-2.7755e-05,-234.52,2.6359
3910,22.892,3.2727,0,3.1927e-05,319.05,2.0636e-05,128.88,3.494e-06,0.080232,-2.7718e-05,-234.44,2.6359
3911,22.892,3.4545,0,3.1778e-05,317.57,2.0459e-05,127.17,3.5445e-06,0.079546,-2.7644e-05,-234.26,2.6359
3912,22.892,3.6364,0,3.1556e-05,315.34,2.0193e-05,124.6,3.6204e-06,0.078476,-2.7532e-05,-233.99,2.6358
3913,22.892,3.8182,0,3.1258e-05,312.36,1.9836e-05,121.15,3.7217e-06,0.07696,-2.7382e-05,-233.62,2.6358
3914,22.892,4,0,3.0884e-05,308.63,1.9387e-05,116.83,3.8486e-06,0.074919,-2.7191e-05,-233.14,2.6357
3915,22.892,4.1818,0,3.0435e-05,304.14,1.8846e-05,111.61,4.0011e-06,0.072213,-2.6959e-05,-232.55,2.6356
3916,22.892,4.3636,0,2.9909e-05,298.89,1.8209e-05,105.48,4.1792e-06,0.068659,-2.6685e-05,-231.83,2.6355
3917,22.892,4.5455,0,2.931e-05,292.9,1.7477e-05,98.448,4.3828e-06,0.063947,-2.6366e-05,-230.97,2.6354
3918,22.892,4.7273,0,2.8639e-05,286.2,1.6651e-05,90.517,4.6112e-06,0.057671,-2.6005e-05,-229.98,2.6353
3919,22.892,4.9091,0,2.7906e-05,278.87,1.5734e-05,81.727,4.8636e-06,0.048956,-2.5602e-05,-228.86,2.6352
3920,22.892,5.0909,0,2.7124e-05,271.05,1.4738e-05,72.165,5.1383e-06,0.037341,-2.5165e-05,-227.65,2.6351
3921,22.892,5.2727,0,2.6318e-05,263,1.3682e-05,62.004,5.4324e-06,0.018205,-2.4709e-05,-226.45,2.6349
3922,22.892,5.4545,0,2.5533e-05,255.15,1.2603e-05,51.548,5.7425e-06,-0.00019045,-2.4262e-05,-225.44,2.6348
3923,22.892,5.6364,0,2.4849e-05,248.32,1.1573e-05,41.344,6.0593e-06,-0.082005,-2.3886e-05,-225.08,2.6346
3924,22.892,5.8182,0,2.4694e-05,246.76,1.0948e-05,34.182,6.3925e-06,-0.05,-2.3934e-05,-227.91,2.6344
3925,23.076,0.18182,0,2.0791e-05,207.77,9.6449e-06,34.113,5.096e-06,-0.065291,-2e-05,-188.63,2.6652
3926,23.076,0.36364,0,2.1104e-05,210.89,1.044e-05,42.857,4.7249e-06,-0.087099,-2.0045e-05,-186.2,2.6654
3927,23.076,0.54545,0,2.1946e-05,219.31,1.163e-05,54.545,4.3709e-06,0.0069805,-2.0503e-05,-186.88,2.6656
3928,23.076,0.72727,0,2.2878e-05,228.63,1.2847e-05,66.311,4.0257e-06,0.028258,-2.1017e-05,-188.13,2.6657
3929,23.076,0.90909,0,2.3808e-05,237.92,1.4015e-05,77.546,3.7007e-06,0.049477,-2.1522e-05,-189.46,2.6659
3930,23.076,1.0909,0,2.4691e-05,246.74,1.5096e-05,87.949,3.3994e-06,0.062052,-2.199e-05,-190.7,2.666
3931,23.076,1.2727,0,2.5504e-05,254.86,1.6077e-05,97.388,3.1247e-06,0.071396,-2.2411e-05,-191.79,2.6661
3932,23.076,1.4545,0,2.6236e-05,262.18,1.6951e-05,105.82,2.8777e-06,0.078085,-2.2783e-05,-192.72,2.6662
3933,23.076,1.6364,0,2.6885e-05,268.66,1.7718e-05,113.23,2.6589e-06,0.083102,-2.3105e-05,-193.5,2.6663
3934,23.076,1.8182,0,2.7449e-05,274.3,1.8381e-05,119.65,2.4683e-06,0.086895,-2.3381e-05,-194.13,2.6664
3935,23.076,2,0,2.7928e-05,279.09,1.8943e-05,125.1,2.3057e-06,0.089786,-2.3612e-05,-194.65,2.6665
3936,23.076,2.1818,0,2.8325e-05,283.06,1.9406e-05,129.59,2.1709e-06,0.091973,-2.3801e-05,-195.05,2.6666
3937,23.076,2.3636,0,2.8641e-05,286.21,1.9773e-05,133.16,2.0634e-06,0.0936,-2.395e-05,-195.36,2.6666
3938,23.076,2.5455,0,2.8876e-05,288.56,2.0047e-05,135.82,1.9831e-06,0.09475,-2.406e-05,-195.58,2.6667
3939,23.076,2.7273,0,2.9033e-05,290.13,2.0228e-05,137.58,1.9297e-06,0.095491,-2.4133e-05,-195.73,2.6667
3940,23.076,2.9091,0,2.9111e-05,290.91,2.0319e-05,138.46,1.903e-06,0.095852,-2.4169e-05,-195.8,2.6667
3941,23.076,3.0909,0,2.9111e-05,290.91,2.0319e-05,138.46,1.903e-06,0.095851,-2.4169e-05,-195.8,2.6667
3942,23.076,3.2727,0,2.9033e-05,290.13,2.0228e-05,137.58,1.9297e-06,0.09549,-2.4133e-05,-195.73,2.6667
3943,23.076,3.4545,0,2.8876e-05,288.56,2.0047e-05,135.82,1.9831e-06,0.094752,-2.406e-05,-195.58,2.6667
3944,23.076,3.6364,0,2.8641e-05,286.21,1.9773e-05,133.16,2.0634e-06,0.093599,-2.395e-05,-195.36,2.6666
3945,23.076,3.8182,0,2.8325e-05,283.06,1.9406e-05,129.59,2.1709e-06,0.091973,-2.3801e-05,-195.05,2.6666
3946,23.076,4,0,2.7928e-05,279.09,1.8943e-05,125.1,2.3057e-06,0.089788,-2.3612e-05,-194.65,2.6665
3947,23.076,4.1818,0,2.7449e-05,274.3,1.8381e-05,119.65,2.4683e-06,0.086894,-2.3381e-05,-194.13,2.6664
3948,23.076,4.3636,0,2.6885e-05,268.66,1.7718e-05,113.23,2.6589e-06,0.083104,-2.3105e-05,-193.5,2.6663
3949,23.076,4.5455,0,2.6236e-05,262.18,1.6951e-05,105.82,2.8777e-06,0.078086,-2.2783e-05,-192.72,2.6662
3950,23.076,4.7273,0,2.5504e-05,254.86,1.6077e-05,97.388,3.1247e-06,0.071395,-2.2411e-05,-191.79,2.6661
3951,23.076,4.9091,0,2.4691e-05,246.74,1.5096e-05,87.949,3.3994e-06,0.062052,-2.199e-05,-190.7,2.666
3952,23.076,5.0909,0,2.3808e-05,237.92,1.4015e-05,77.546,3.7007e-06,0.049476,-2.1522e-05,-189.46,2.6659
3953,23.076,5.2727,0,2.2878e-05,228.63,1.2847e-05,66.311,4.0257e-06,0.028257,-2.1017e-05,-188.13,2.6657
3954,23.076,5.4545,0,2.1946e-05,219.31,1.163e-05,54.546,4.3709e-06,0.0069782,-2.0503e-05,-186.88,2.6656
3955,23.076,5.6364,0,2.1104e-05,210.89,1.044e-05,42.857,4.7249e-06,-0.087094,-2.0045e-05,-186.2,2.6654
3956,23.076,5.8182,0,2.0791e-05,207.77,9.6449e-06,34.113,5.096e-06,-0.06529,-2e-05,-188.63,2.6652
3957,23.261,0.18182,0,1.6922e-05,169.1,8.3359e-06,33.904,3.8128e-06,-0.080887,-1.6088e-05,-149.61,2.6961
3958,23.261,0.36364,0,1.7454e-05,174.42,9.3552e-06,44.705,3.3942e-06,-0.083285,-1.6258e-05,-147.74,2.6962
3959,23.261,0.54545,0,1.8504e-05,184.91,1.0738e-05,58.209,2.9941e-06,0.027886,-1.6813e-05,-148.79,2.6964
3960,23.261,0.72727,0,1.9613e-05,195.99,1.2109e-05,71.441,2.6074e-06,0.052835,-1.7395e-05,-150.24,2.6965
3961,23.261,0.90909,0,2.0681e-05,206.66,1.3388e-05,83.779,2.2475e-06,0.076611,-1.794e-05,-151.61,2.6967
3962,23.261,1.0909,0,2.1668e-05,216.53,1.4548e-05,94.993,1.9176e-06,0.090506,-1.8429e-05,-152.79,2.6968
3963,23.261,1.2727,0,2.2561e-05,225.45,1.5584e-05,105.03,1.6196e-06,0.10075,-1.8859e-05,-153.76,2.6969
3964,23.261,1.4545,0,2.3354e-05,233.38,1.6497e-05,113.89,1.3537e-06,0.10809,-1.9231e-05,-154.56,2.697
3965,23.261,1.6364,0,2.405e-05,240.34,1.7293e-05,121.63,1.1197e-06,0.11361,-1.9551e-05,-155.2,2.6971
3966,23.261,1.8182,0,2.4651e-05,246.34,1.7977e-05,128.3,9.1692e-07,0.1178,-1.9822e-05,-155.71,2.6972
3967,23.261,2,0,2.516e-05,251.43,1.8553e-05,133.93,7.4464e-07,0.121,-2.0048e-05,-156.11,2.6973
3968,23.261,2.1818,0,2.558e-05,255.62,1.9027e-05,138.56,6.0219e-07,0.12344,-2.0233e-05,-156.42,2.6974
3969,23.261,2.3636,0,2.5913e-05,258.95,1.9402e-05,142.23,4.8897e-07,0.12525,-2.0378e-05,-156.66,2.6974
3970,23.261,2.5455,0,2.6161e-05,261.43,1.9681e-05,144.96,4.045e-07,0.12654,-2.0485e-05,-156.83,2.6975
3971,23.261,2.7273,0,2.6325e-05,263.07,1.9866e-05,146.77,3.4839e-07,0.12736,-2.0555e-05,-156.94,2.6975
3972,23.261,2.9091,0,2.6407e-05,263.89,1.9958e-05,147.67,3.204e-07,0.12777,-2.0591e-05,-156.99,2.6975
3973,23.261,3.0909,0,2.6407e-05,263.89,1.9958e-05,147.67,3.204e-07,0.12776,-2.0591e-05,-156.99,2.6975
3974,23.261,3.2727,0,2.6325e-05,263.07,1.9866e-05,146.77,3.4839e-07,0.12736,-2.0555e-05,-156.94,2.6975
3975,23.261,3.4545,0,2.6161e-05,261.43,1.9681e-05,144.96,4.045e-07,0.12654,-2.0485e-05,-156.83,2.6975
3976,23.261,3.6364,0,2.5913e-05,258.95,1.9402e-05,142.23,4.8897e-07,0.12525,-2.0378e-05,-156.66,2.6974
3977,23.261,3.8182,0,2.558e-05,255.62,1.9027e-05,138.56,6.0219e-07,0.12344,-2.0233e-05,-156.42,2.6974
3978,23.261,4,0,2.516e-05,251.43,1.8553e-05,133.93,7.4464e-07,0.121,-2.0048e-05,-156.11,2.6973
3979,23.261,4.1818,0,2.4651e-05,246.34,1.7977e-05,128.3,9.1692e-07,0.1178,-1.9822e-05,-155.71,2.6972
3980,23.261,4.3636,0,2.405e-05,240.34,1.7293e-05,121.63,1.1197e-06,0.11361,-1.9551e-05,-155.2,2.6971
3981,23.261,4.5455,0,2.3354e-05,233.38,1.6497e-05,113.89,1.3537e-06,0.10809,-1.9231e-05,-154.56,2.697
3982,23.261,4.7273,0,2.2561e-05,225.45,1.5584e-05,105.03,1.6196e-06,0.10075,-1.8859e-05,-153.76,2.6969
3983,23.261,4.9091,0,2.1668e-05,216.53,1.4548e-05,94.993,1.9176e-06,0.090506,-1.8429e-05,-152.79,2.6968
3984,23.261,5.0909,0,2.0681e-05,206.66,1.3388e-05,83.779,2.2475e-06,0.076609,-1.794e-05,-151.61,2.6967
3985,23.261,5.2727,0,1.9613e-05,195.99,1.2109e-05,71.441,2.6074e-06,0.052835,-1.7395e-05,-150.24,2.6965
3986,23.261,5.4545,0,1.8504e-05,184.91,1.0738e-05,58.209,2.9941e-06,0.027885,-1.6813e-05,-148.79,2.6964
3987,23.261,5.6364,0,1.7454e-05,174.42,9.3552e-06,44.705,3.3942e-06,-0.083285,-1.6258e-05,-147.74,2.6962
3988,23.261,5.8182,0,1.6922e-05,169.1,8.3359e-06,33.904,3.8128e-06,-0.080884,-1.6088e-05,-149.61,2.6961
3989,23.446,0.18182,0,1.3108e-05,130.99,7.0267e-06,33.555,2.5447e-06,-0.12105,-1.221e-05,-110.98,2.7269
3990,23.446,0.36364,0,1.3968e-05,139.58,8.3528e-06,47.168,2.0623e-06,-0.096677,-1.2553e-05,-109.91,2.7271
3991,23.446,0.54545,0,1.5291e-05,152.8,9.967e-06,62.872,1.6033e-06,0.031096,-1.3218e-05,-111.33,2.7272
3992,23.446,0.72727,0,1.6602e-05,165.91,1.1494e-05,77.649,1.1682e-06,0.061609,-1.3858e-05,-112.84,2.7274
3993,23.446,0.90909,0,1.7814e-05,178.01,1.2874e-05,91.031,7.7005e-07,0.088315,-1.4425e-05,-114.08,2.7275
3994,23.446,1.0909,0,1.8904e-05,188.91,1.4099e-05,102.95,4.103e-07,0.10366,-1.4918e-05,-115.06,2.7276
3995,23.446,1.2727,0,1.9872e-05,198.59,1.5177e-05,113.48,8.9025e-08,0.11507,-1.5342e-05,-115.82,2.7277
3996,23.446,1.4545,0,2.0724e-05,207.09,1.6118e-05,122.69,-1.9508e-07,0.12325,-1.5705e-05,-116.41,2.7278
3997,23.446,1.6364,0,2.1465e-05,214.5,1.6933e-05,130.69,-4.4348e-07,0.12944,-1.6015e-05,-116.87,2.7279
3998,23.446,1.8182,0,2.2101e-05,220.86,1.763e-05,137.54,-6.5765e-07,0.13417,-1.6276e-05,-117.22,2.728
3999,23.446,2,0,2.2638e-05,226.22,1.8216e-05,143.31,-8.3887e-07,0.1378,-1.6494e-05,-117.49,2.7281
4000,23.446,2.1818,0,2.3079e-05,230.63,1.8697e-05,148.05,-9.8826e-07,0.14056,-1.6671e-05,-117.69,2.7282
4001,23.446,2.3636,0,2.3428e-05,234.12,1.9077e-05,151.79,-1.1067e-06,0.14263,-1.681e-05,-117.85,2.7282
4002,23.446,2.5455,0,2.3688e-05,236.72,1.9359e-05,154.58,-1.195e-06,0.14411,-1.6913e-05,-117.95,2.7283
4003,23.446,2.7273,0,2.386e-05,238.44,1.9545e-05,156.42,-1.2535e-06,0.14505,-1.6981e-05,-118.02,2.7283
4004,23.446,2.9091,0,2.3946e-05,239.29,1.9638e-05,157.34,-1.2827e-06,0.14552,-1.7014e-05,-118.05,2.7283
4005,23.446,3.0909,0,2.3946e-05,239.29,1.9638e-05,157.34,-1.2827e-06,0.14552,-1.7014e-05,-118.05,2.7283
4006,23.446,3.2727,0,2.386e-05,238.44,1.9545e-05,156.42,-1.2535e-06,0.14505,-1.6981e-05,-118.02,2.7283
4007,23.446,3.4545,0,2.3688e-05,236.72,1.9359e-05,154.58,-1.195e-06,0.14411,-1.6913e-05,-117.95,2.7283
4008,23.446,3.6364,0,2.3428e-05,234.12,1.9077e-05,151.79,-1.1067e-06,0.14263,-1.681e-05,-117.85,2.7282
4009,23.446,3.8182,0,2.3079e-05,230.63,1.8697e-05,148.05,-9.8826e-07,0.14057,-1.6671e-05,-117.69,2.7282
4010,23.446,4,0,2.2638e-05,226.22,1.8216e-05,143.31,-8.3887e-07,0.1378,-1.6494e-05,-117.49,2.7281
4011,23.446,4.1818,0,2.2101e-05,220.86,1.763e-05,137.54,-6.5765e-07,0.13417,-1.6276e-05,-117.22,2.728
4012,23.446,4.3636,0,2.1465e-05,214.5,1.6933e-05,130.69,-4.4348e-07,0.12945,-1.6015e-05,-116.87,2.7279
4013,23.446,4.5455,0,2.0724e-05,207.09,1.6118e-05,122.69,-1.9508e-07,0.12325,-1.5705e-05,-116.41,2.7278
4014,23.446,4.7273,0,1.9872e-05,198.59,1.5177e-05,113.48,8.9024e-08,0.11507,-1.5342e-05,-115.82,2.7277
4015,23.446,4.9091,0,1.8904e-05,188.91,1.4099e-05,102.95,4.1029e-07,0.10366,-1.4918e-05,-115.06,2.7276
4016,23.446,5.0909,0,1.7814e-05,178.01,1.2874e-05,91.032,7.7004e-07,0.088314,-1.4425e-05,-114.08,2.7275
4017,23.446,5.2727,0,1.6602e-05,165.91,1.1494e-05,77.649,1.1682e-06,0.061608,-1.3858e-05,-112.84,2.7274
4018,23.446,5.4545,0,1.5291e-05,152.8,9.967e-06,62.872,1.6033e-06,0.031098,-1.3218e-05,-111.33,2.7272
4019,23.446,5.6364,0,1.3968e-05,139.58,8.3528e-06,47.168,2.0623e-06,-0.096672,-1.2553e-05,-109.91,2.7271
4020,23.446,5.8182,0,1.3108e-05,130.99,7.0267e-06,33.555,2.5447e-06,-0.12104,-1.221e-05,-110.98,2.7269
4021,23.631,0.18182,0,9.4158e-06,94.094,5.7381e-06,33.212,1.3031e-06,-0.11046,-8.399e-06,-73.008,2.7577
4022,23.631,0.36364,0,1.0807e-05,108,7.5122e-06,50.949,7.3174e-07,0.0035573,-8.9974e-06,-73.097,2.7579
4023,23.631,0.54545,0,1.2463e-05,124.55,9.3762e-06,69.123,2.0085e-07,0.18319,-9.7589e-06,-74.65,2.758
4024,23.631,0.72727,0,1.3978e-05,139.68,1.1036e-05,85.308,-2.8858e-07,0.2207,-1.042e-05,-75.9,2.7582
4025,23.631,0.90909,0,1.532e-05,153.1,1.2487e-05,99.529,-7.2546e-07,0.25566,-1.0979e-05,-76.785,2.7583
4026,23.631,1.0909,0,1.6501e-05,164.89,1.3753e-05,111.98,-1.1137e-06,0.27603,-1.1454e-05,-77.414,2.7584
4027,23.631,1.2727,0,1.7535e-05,175.23,1.4855e-05,122.85,-1.4563e-06,0.29131,-1.1858e-05,-77.862,2.7586
4028,23.631,1.4545,0,1.8437e-05,184.24,1.5811e-05,132.3,-1.7568e-06,0.30248,-1.2203e-05,-78.186,2.7587
4029,23.631,1.6364,0,1.9217e-05,192.03,1.6636e-05,140.47,-2.0178e-06,0.31105,-1.2496e-05,-78.42,2.7588
4030,23.631,1.8182,0,1.9884e-05,198.7,1.7339e-05,147.44,-2.2418e-06,0.31766,-1.2744e-05,-78.591,2.7589
4031,23.631,2,0,2.0444e-05,204.3,1.7929e-05,153.3,-2.4307e-06,0.32278,-1.295e-05,-78.715,2.7589
4032,23.631,2.1818,0,2.0905e-05,208.9,1.8413e-05,158.1,-2.586e-06,0.32673,-1.3118e-05,-78.804,2.759
4033,23.631,2.3636,0,2.1268e-05,212.54,1.8794e-05,161.9,-2.7089e-06,0.32969,-1.3249e-05,-78.867,2.759
4034,23.631,2.5455,0,2.1539e-05,215.24,1.9078e-05,164.72,-2.8003e-06,0.33182,-1.3347e-05,-78.91,2.7591
4035,23.631,2.7273,0,2.1718e-05,217.03,1.9265e-05,166.58,-2.8609e-06,0.33318,-1.3411e-05,-78.937,2.7591
4036,23.631,2.9091,0,2.1807e-05,217.92,1.9359e-05,167.51,-2.8911e-06,0.33386,-1.3443e-05,-78.949,2.7591
4037,23.631,3.0909,0,2.1807e-05,217.92,1.9359e-05,167.51,-2.8911e-06,0.33386,-1.3443e-05,-78.949,2.7591
4038,23.631,3.2727,0,2.1718e-05,217.03,1.9265e-05,166.58,-2.8609e-06,0.33319,-1.3411e-05,-78.937,2.7591
4039,23.631,3.4545,0,2.1539e-05,215.24,1.9078e-05,164.72,-2.8003e-06,0.33182,-1.3347e-05,-78.91,2.7591
4040,23.631,3.6364,0,2.1268e-05,212.54,1.8794e-05,161.9,-2.7089e-06,0.3297,-1.3249e-05,-78.867,2.759
4041,23.631,3.8182,0,2.0905e-05,208.9,1.8413e-05,158.1,-2.586e-06,0.32673,-1.3118e-05,-78.804,2.759
4042,23.631,4,0,2.0444e-05,204.3,1.7929e-05,153.3,-2.4307e-06,0.32278,-1.295e-05,-78.715,2.7589
4043,23.631,4.1818,0,1.9884e-05,198.7,1.7339e-05,147.44,-2.2418e-06,0.31766,-1.2744e-05,-78.591,2.7589
4044,23.631,4.3636,0,1.9217e-05,192.03,1.6636e-05,140.47,-2.0178e-06,0.31105,-1.2496e-05,-78.42,2.7588
4045,23.631,4.5455,0,1.8437e-05,184.24,1.5811e-05,132.3,-1.7568e-06,0.30248,-1.2203e-05,-78.186,2.7587
4046,23.631,4.7273,0,1.7535e-05,175.23,1.4855e-05,122.85,-1.4563e-06,0.29131,-1.1858e-05,-77.862,2.7586
4047,23.631,4.9091,0,1.6501e-05,164.9,1.3753e-05,111.98,-1.1137e-06,0.27603,-1.1454e-05,-77.414,2.7584
4048,23.631,5.0909,0,1.532e-05,153.1,1.2487e-05,99.529,-7.2546e-07,0.25566,-1.0979e-05,-76.785,2.7583
4049,23.631,5.2727,0,1.3978e-05,139.68,1.1036e-05,85.308,-2.8859e-07,0.2207,-1.042e-05,-75.9,2.7582
4050,23.631,5.4545,0,1.2463e-05,124.55,9.3762e-06,69.123,2.0085e-07,0.18318,-9.7589e-06,-74.65,2.758
4051,23.631,5.6364,0,1.0807e-05,108,7.5122e-06,50.949,7.3174e-07,0.0035604,-8.9974e-06,-73.097,2.7579
4052,23.631,5.8182,0,9.4158e-06,94.094,5.7381e-06,33.212,1.3031e-06,-0.11046,-8.399e-06,-73.008,2.7577
4053,23.815,0.18182,0,6.1809e-06,61.766,4.6628e-06,34.171,4.7102e-08,-0.50952,-4.8283e-06,-37.141,2.7886
4054,23.815,0.36364,0,8.3415e-06,83.357,7.0146e-06,57.41,-6.6455e-07,-0.28849,-5.7049e-06,-38.16,2.7887
4055,23.815,0.54545,0,1.0287e-05,102.8,9.0518e-06,77.567,-1.2765e-06,-0.035956,-6.465e-06,-39.021,2.7889
4056,23.815,0.72727,0,1.1949e-05,119.41,1.0774e-05,94.625,-1.8171e-06,0.018801,-7.0823e-06,-39.542,2.789
4057,23.815,0.90909,0,1.3379e-05,133.7,1.2249e-05,109.29,-2.2872e-06,0.071189,-7.5955e-06,-39.814,2.7892
4058,23.815,1.0909,0,1.4619e-05,146.09,1.3523e-05,121.99,-2.6986e-06,0.10403,-8.0297e-06,-39.952,2.7893
4059,23.815,1.2727,0,1.5696e-05,156.85,1.4627e-05,133.01,-3.0579e-06,0.12974,-8.4004e-06,-40.012,2.7894
4060,23.815,1.4545,0,1.6629e-05,166.17,1.5582e-05,142.55,-3.3708e-06,0.14947,-8.7177e-06,-40.025,2.7895
4061,23.815,1.6364,0,1.7433e-05,174.21,1.6404e-05,150.78,-3.6413e-06,0.1652,-8.9884e-06,-40.011,2.7896
4062,23.815,1.8182,0,1.8119e-05,181.07,1.7104e-05,157.79,-3.8726e-06,0.17776,-9.2177e-06,-39.983,2.7897
4063,23.815,2,0,1.8695e-05,186.82,1.7692e-05,163.68,-4.067e-06,0.1878,-9.409e-06,-39.95,2.7898
4064,23.815,2.1818,0,1.9167e-05,191.53,1.8173e-05,168.5,-4.2266e-06,0.19572,-9.565e-06,-39.915,2.7898
4065,23.815,2.3636,0,1.9539e-05,195.26,1.8553e-05,172.3,-4.3526e-06,0.20179,-9.6878e-06,-39.885,2.7899
4066,23.815,2.5455,0,1.9816e-05,198.02,1.8834e-05,175.13,-4.4463e-06,0.20621,-9.7787e-06,-39.86,2.7899
4067,23.815,2.7273,0,1.9999e-05,199.85,1.9021e-05,177,-4.5083e-06,0.20909,-9.8388e-06,-39.842,2.7899
4068,23.815,2.9091,0,2.009e-05,200.76,1.9114e-05,177.93,-4.5392e-06,0.21051,-9.8687e-06,-39.833,2.7899
4069,23.815,3.0909,0,2.009e-05,200.76,1.9114e-05,177.93,-4.5392e-06,0.21051,-9.8687e-06,-39.833,2.7899
4070,23.815,3.2727,0,1.9999e-05,199.85,1.9021e-05,177,-4.5083e-06,0.20909,-9.8388e-06,-39.842,2.7899
4071,23.815,3.4545,0,1.9816e-05,198.02,1.8834e-05,175.13,-4.4463e-06,0.20621,-9.7787e-06,-39.86,2.7899
4072,23.815,3.6364,0,1.9539e-05,195.26,1.8553e-05,172.3,-4.3526e-06,0.20179,-9.6878e-06,-39.885,2.7899
4073,23.815,3.8182,0,1.9167e-05,191.53,1.8173e-05,168.5,-4.2266e-06,0.19572,-9.565e-06,-39.915,2.7898
4074,23.815,4,0,1.8695e-05,186.82,1.7692e-05,163.68,-4.067e-06,0.1878,-9.409e-06,-39.95,2.7898
4075,23.815,4.1818,0,1.8119e-05,181.07,1.7104e-05,157.79,-3.8726e-06,0.17776,-9.2177e-06,-39.983,2.7897
4076,23.815,4.3636,0,1.7433e-05,174.21,1.6404e-05,150.78,-3.6413e-06,0.16519,-8.9884e-06,-40.011,2.7896
4077,23.815,4.5455,0,1.6629e-05,166.17,1.5582e-05,142.55,-3.3708e-06,0.14947,-8.7177e-06,-40.025,2.7895
4078,23.815,4.7273,0,1.5696e-05,156.85,1.4627e-05,133.01,-3.0579e-06,0.12974,-8.4004e-06,-40.012,2.7894
4079,23.815,4.9091,0,1.4619e-05,146.09,1.3523e-05,121.99,-2.6986e-06,0.10403,-8.0297e-06,-39.952,2.7893
4080,23.815,5.0909,0,1.3379e-05,133.7,1.2249e-05,109.29,-2.2872e-06,0.071187,-7.5955e-06,-39.814,2.7892
4081,23.815,5.2727,0,1.1949e-05,119.41,1.0774e-05,94.625,-1.8171e-06,0.018801,-7.0823e-06,-39.542,2.789
4082,23.815,5.4545,0,1.0287e-05,102.8,9.0518e-06,77.567,-1.2765e-06,-0.035959,-6.465e-06,-39.021,2.7889
4083,23.815,5.6364,0,8.3415e-06,83.357,7.0146e-06,57.41,-6.6455e-07,-0.28849,-5.7049e-06,-38.16,2.7887
4084,23.815,5.8182,0,6.1809e-06,61.766,4.6628e-06,34.171,4.7102e-08,-0.50952,-4.8283e-06,-37.141,2.7886
4085,23.815,5.8182,0.1,6.1809e-06,61.766,4.8283e-06,37.141,-4.7104e-08,0.50952,-4.6628e-06,-34.171,2.7886
4086,23.815,5.6364,0.1,8.3415e-06,83.357,5.7049e-06,38.16,6.6455e-07,0.28849,-7.0146e-06,-57.41,2.7887
4087,23.815,5.4545,0.1,1.0287e-05,102.8,6.465e-06,39.021,1.2765e-06,0.035957,-9.0518e-06,-77.567,2.7889
4088,23.815,5.2727,0.1,1.1949e-05,119.41,7.0823e-06,39.542,1.8171e-06,-0.0188,-1.0774e-05,-94.625,2.789
4089,23.815,5.0909,0.1,1.3379e-05,133.7,7.5955e-06,39.814,2.2872e-06,-0.07119,-1.2249e-05,-109.29,2.7892
4090,23.815,4.9091,0.1,1.4619e-05,146.09,8.0297e-06,39.952,2.6986e-06,-0.10403,-1.3523e-05,-121.99,2.7893
4091,23.815,4.7273,0.1,1.5696e-05,156.85,8.4004e-06,40.012,3.0579e-06,-0.12974,-1.4627e-05,-133.01,2.7894
4092,23.815,4.5455,0.1,1.6629e-05,166.17,8.7177e-06,40.025,3.3708e-06,-0.14948,-1.5582e-05,-142.55,2.7895
4093,23.815,4.3636,0.1,1.7433e-05,174.21,8.9884e-06,40.011,3.6413e-06,-0.16519,-1.6404e-05,-150.78,2.7896
4094,23.815,4.1818,0.1,1.8119e-05,181.07,9.2177e-06,39.983,3.8726e-06,-0.17776,-1.7104e-05,-157.79,2.7897
4095,23.815,4,0.1,1.8695e-05,186.82,9.409e-06,39.95,4.067e-06,-0.1878,-1.7692e-05,-163.68,2.7898
4096,23.815,3.8182,0.1,1.9167e-05,191.53,9.565e-06,39.915,4.2266e-06,-0.19572,-1.8173e-05,-168.5,2.7898
4097,23.815,3.6364,0.1,1.9539e-05,195.26,9.6878e-06,39.885,4.3526e-06,-0.20179,-1.8553e-05,-172.3,2.7899
4098,23.815,3.4545,0.1,1.9816e-05,198.02,9.7787e-06,39.86,4.4463e-06,-0.20621,-1.8834e-05,-175.13,2.7899
4099,23.815,3.2727,0.1,1.9999e-05,199.85,9.8388e-06,39.842,4.5083e-06,-0.20909,-1.9021e-05,-177,2.7899
4100,23.815,3.0909,0.1,2.009e-05,200.76,9.8687e-06,39.833,4.5392e-06,-0.21051,-1.9114e-05,-177.93,2.7899
4101,23.815,2.9091,0.1,2.009e-05,200.76,9.8687e-06,39.833,4.5392e-06,-0.21051,-1.9114e-05,-177.93,2.7899
4102,23.815,2.7273,0.1,1.9999e-05,199.85,9.8388e-06,39.842,4.5083e-06,-0.20909,-1.9021e-05,-177,2.7899
4103,23.815,2.5455,0.1,1.9816e-05,198.02,9.7787e-06,39.86,4.4463e-06,-0.20621,-1.8834e-05,-175.13,2.7899
4104,23.815,2.3636,0.1,1.9539e-05,195.26,9.6878e-06,39.885,4.3526e-06,-0.20179,-1.8553e-05,-172.3,2.7899
4105,23.815,2.1818,0.1,1.9167e-05,191.53,9.565e-06,39.915,4.2266e-06,-0.19572,-1.8173e-05,-168.5,2.7898
4106,23.815,2,0.1,1.8695e-05,186.82,9.409e-06,39.95,4.067e-06,-0.1878,-1.7692e-05,-163.68,2.7898
4107,23.815,1.8182,0.1,1.8119e-05,181.07,9.2177e-06,39.983,3.8726e-06,-0.17776,-1.7105e-05,-157.79,2.7897
4108,23.815,1.6364,0.1,1.7433e-05,174.21,8.9884e-06,40.011,3.6413e-06,-0.1652,-1.6404e-05,-150.78,2.7896
4109,23.815,1.4545,0.1,1.6629e-05,166.17,8.7177e-06,40.025,3.3708e-06,-0.14947,-1.5582e-05,-142.55,2.7895
4110,23.815,1.2727,0.1,1.5696e-05,156.85,8.4004e-06,40.012,3.0579e-06,-0.12974,-1.4627e-05,-133.01,2.7894
4111,23.815,1.0909,0.1,1.4619e-05,146.09,8.0297e-06,39.952,2.6986e-06,-0.10403,-1.3523e-05,-121.99,2.7893
4112,23.815,0.90909,0.1,1.3379e-05,133.7,7.5955e-06,39.814,2.2872e-06,-0.071188,-1.2249e-05,-109.29,2.7892
4113,23.815,0.72727,0.1,1.1949e-05,119.41,7.0823e-06,39.542,1.8171e-06,-0.018803,-1.0774e-05,-94.625,2.789
4114,23.815,0.54545,0.1,1.0287e-05,102.8,6.465e-06,39.021,1.2765e-06,0.035956,-9.0518e-06,-77.567,2.7889
4115,23.815,0.36364,0.1,8.3415e-06,83.357,5.7049e-06,38.16,6.6455e-07,0.28849,-7.0146e-06,-57.41,2.7887
4116,23.815,0.18182,0.1,6.1809e-06,61.766,4.8283e-06,37.141,-4.7103e-08,0.50953,-4.6628e-06,-34.171,2.7886
4117,23.631,5.8182,0.1,9.4158e-06,94.094,8.399e-06,73.008,-1.3031e-06,0.11046,-5.7381e-06,-33.212,2.7577
4118,23.631,5.6364,0.1,1.0807e-05,108,8.9974e-06,73.097,-7.3174e-07,-0.0035602,-7.5122e-06,-50.949,2.7579
4119,23.631,5.4545,0.1,1.2463e-05,124.55,9.7589e-06,74.65,-2.0085e-07,-0.18318,-9.3762e-06,-69.123,2.758
4120,23.631,5.2727,0.1,1.3978e-05,139.68,1.042e-05,75.9,2.8859e-07,-0.2207,-1.1036e-05,-85.308,2.7582
4121,23.631,5.0909,0.1,1.532e-05,153.1,1.0979e-05,76.785,7.2546e-07,-0.25566,-1.2487e-05,-99.529,2.7583
4122,23.631,4.9091,0.1,1.6501e-05,164.89,1.1454e-05,77.414,1.1137e-06,-0.27603,-1.3753e-05,-111.98,2.7584
4123,23.631,4.7273,0.1,1.7535e-05,175.23,1.1858e-05,77.862,1.4563e-06,-0.29131,-1.4855e-05,-122.85,2.7586
4124,23.631,4.5455,0.1,1.8437e-05,184.24,1.2203e-05,78.186,1.7568e-06,-0.30248,-1.5811e-05,-132.3,2.7587
4125,23.631,4.3636,0.1,1.9217e-05,192.03,1.2496e-05,78.42,2.0178e-06,-0.31105,-1.6636e-05,-140.47,2.7588
4126,23.631,4.1818,0.1,1.9884e-05,198.7,1.2744e-05,78.591,2.2418e-06,-0.31766,-1.7339e-05,-147.44,2.7589
4127,23.631,4,0.1,2.0444e-05,204.3,1.295e-05,78.715,2.4307e-06,-0.32278,-1.7929e-05,-153.3,2.7589
4128,23.631,3.8182,0.1,2.0905e-05,208.9,1.3118e-05,78.804,2.586e-06,-0.32673,-1.8413e-05,-158.1,2.759
4129,23.631,3.6364,0.1,2.1268e-05,212.54,1.3249e-05,78.867,2.7089e-06,-0.3297,-1.8794e-05,-161.9,2.759
4130,23.631,3.4545,0.1,2.1539e-05,215.24,1.3347e-05,78.91,2.8003e-06,-0.33182,-1.9078e-05,-164.72,2.7591
4131,23.631,3.2727,0.1,2.1718e-05,217.03,1.3411e-05,78.937,2.8609e-06,-0.33319,-1.9265e-05,-166.58,2.7591
4132,23.631,3.0909,0.1,2.1807e-05,217.92,1.3443e-05,78.949,2.8911e-06,-0.33386,-1.9359e-05,-167.51,2.7591
4133,23.631,2.9091,0.1,2.1807e-05,217.92,1.3443e-05,78.949,2.8911e-06,-0.33386,-1.9359e-05,-167.51,2.7591
4134,23.631,2.7273,0.1,2.1718e-05,217.03,1.3411e-05,78.937,2.8609e-06,-0.33319,-1.9265e-05,-166.58,2.7591
4135,23.631,2.5455,0.1,2.1539e-05,215.24,1.3347e-05,78.91,2.8003e-06,-0.33182,-1.9078e-05,-164.72,2.7591
4136,23.631,2.3636,0.1,2.1268e-05,212.54,1.3249e-05,78.867,2.7089e-06,-0.32969,-1.8794e-05,-161.9,2.759
4137,23.631,2.1818,0.1,2.0905e-05,208.9,1.3118e-05,78.804,2.586e-06,-0.32673,-1.8413e-05,-158.1,2.759
4138,23.631,2,0.1,2.0444e-05,204.3,1.295e-05,78.715,2.4307e-06,-0.32278,-1.7929e-05,-153.3,2.7589
4139,23.631,1.8182,0.1,1.9884e-05,198.7,1.2744e-05,78.591,2.2418e-06,-0.31766,-1.7339e-05,-147.44,2.7589
4140,23.631,1.6364,0.1,1.9217e-05,192.03,1.2496e-05,78.42,2.0178e-06,-0.31105,-1.6636e-05,-140.47,2.7588
4141,23.631,1.4545,0.1,1.8437e-05,184.24,1.2203e-05,78.186,1.7568e-06,-0.30248,-1.5811e-05,-132.3,2.7587
4142,23.631,1.2727,0.1,1.7535e-05,175.23,1.1858e-05,77.862,1.4563e-06,-0.29131,-1.4855e-05,-122.85,2.7586
4143,23.631,1.0909,0.1,1.6501e-05,164.89,1.1454e-05,77.414,1.1137e-06,-0.27603,-1.3753e-05,-111.98,2.7584
4144,23.631,0.90909,0.1,1.532e-05,153.1,1.0979e-05,76.785,7.2546e-07,-0.25566,-1.2487e-05,-99.529,2.7583
4145,23.631,0.72727,0.1,1.3978e-05,139.68,1.042e-05,75.9,2.8859e-07,-0.2207,-1.1036e-05,-85.308,2.7582
4146,23.631,0.54545,0.1,1.2463e-05,124.55,9.7589e-06,74.65,-2.0085e-07,-0.18319,-9.3762e-06,-69.123,2.758
4147,23.631,0.36364,0.1,1.0807e-05,108,8.9974e-06,73.097,-7.3174e-07,-0.0035595,-7.5122e-06,-50.949,2.7579
4148,23.631,0.18182,0.1,9.4158e-06,94.094,8.399e-06,73.008,-1.3031e-06,0.11046,-5.7381e-06,-33.212,2.7577
4149,23.446,5.8182,0.1,1.3108e-05,130.99,1.221e-05,110.98,-2.5447e-06,0.12104,-7.0267e-06,-33.555,2.7269
4150,23.446,5.6364,0.1,1.3968e-05,139.58,1.2553e-05,109.91,-2.0623e-06,0.096673,-8.3528e-06,-47.168,2.7271
4151,23.446,5.4545,0.1,1.5291e-05,152.8,1.3218e-05,111.33,-1.6033e-06,-0.031099,-9.967e-06,-62.872,2.7272
4152,23.446,5.2727,0.1,1.6602e-05,165.91,1.3858e-05,112.84,-1.1682e-06,-0.061608,-1.1494e-05,-77.649,2.7274
4153,23.446,5.0909,0.1,1.7814e-05,178.01,1.4425e-05,114.08,-7.7004e-07,-0.088314,-1.2874e-05,-91.032,2.7275
4154,23.446,4.9091,0.1,1.8904e-05,188.91,1.4918e-05,115.06,-4.1029e-07,-0.10366,-1.4099e-05,-102.95,2.7276
4155,23.446,4.7273,0.1,1.9872e-05,198.59,1.5342e-05,115.82,-8.9025e-08,-0.11507,-1.5177e-05,-113.48,2.7277
4156,23.446,4.5455,0.1,2.0724e-05,207.09,1.5705e-05,116.41,1.9508e-07,-0.12325,-1.6118e-05,-122.69,2.7278
4157,23.446,4.3636,0.1,2.1465e-05,214.5,1.6015e-05,116.87,4.4348e-07,-0.12945,-1.6933e-05,-130.69,2.7279
4158,23.446,4.1818,0.1,2.2101e-05,220.86,1.6276e-05,117.22,6.5765e-07,-0.13417,-1.763e-05,-137.54,2.728
4159,23.446,4,0.1,2.2638e-05,226.22,1.6494e-05,117.49,8.3887e-07,-0.1378,-1.8216e-05,-143.31,2.7281
4160,23.446,3.8182,0.1,2.3079e-05,230.63,1.6671e-05,117.69,9.8826e-07,-0.14057,-1.8697e-05,-148.05,2.7282
4161,23.446,3.6364,0.1,2.3428e-05,234.12,1.681e-05,117.85,1.1067e-06,-0.14263,-1.9077e-05,-151.79,2.7282
4162,23.446,3.4545,0.1,2.3688e-05,236.72,1.6913e-05,117.95,1.195e-06,-0.14411,-1.9359e-05,-154.58,2.7283
4163,23.446,3.2727,0.1,2.386e-05,238.44,1.6981e-05,118.02,1.2535e-06,-0.14505,-1.9545e-05,-156.42,2.7283
4164,23.446,3.0909,0.1,2.3946e-05,239.29,1.7014e-05,118.05,1.2827e-06,-0.14552,-1.9638e-05,-157.34,2.7283
4165,23.446,2.9091,0.1,2.3946e-05,239.29,1.7014e-05,118.05,1.2827e-06,-0.14552,-1.9638e-05,-157.34,2.7283
4166,23.446,2.7273,0.1,2.386e-05,238.44,1.6981e-05,118.02,1.2535e-06,-0.14505,-1.9545e-05,-156.42,2.7283
4167,23.446,2.5455,0.1,2.3688e-05,236.72,1.6913e-05,117.95,1.195e-06,-0.14411,-1.9359e-05,-154.58,2.7283
4168,23.446,2.3636,0.1,2.3428e-05,234.12,1.681e-05,117.85,1.1067e-06,-0.14263,-1.9077e-05,-151.79,2.7282
4169,23.446,2.1818,0.1,2.3079e-05,230.63,1.6671e-05,117.69,9.8827e-07,-0.14056,-1.8697e-05,-148.05,2.7282
4170,23.446,2,0.1,2.2638e-05,226.22,1.6494e-05,117.49,8.3887e-07,-0.1378,-1.8216e-05,-143.31,2.7281
4171,23.446,1.8182,0.1,2.2101e-05,220.86,1.6276e-05,117.22,6.5765e-07,-0.13417,-1.763e-05,-137.54,2.728
4172,23.446,1.6364,0.1,2.1465e-05,214.5,1.6015e-05,116.87,4.4348e-07,-0.12944,-1.6933e-05,-130.69,2.7279
4173,23.446,1.4545,0.1,2.0724e-05,207.09,1.5705e-05,116.41,1.9508e-07,-0.12325,-1.6118e-05,-122.69,2.7278
4174,23.446,1.2727,0.1,1.9872e-05,198.59,1.5342e-05,115.82,-8.9025e-08,-0.11507,-1.5177e-05,-113.48,2.7277
4175,23.446,1.0909,0.1,1.8904e-05,188.91,1.4918e-05,115.06,-4.1029e-07,-0.10366,-1.4099e-05,-102.95,2.7276
4176,23.446,0.90909,0.1,1.7814e-05,178.01,1.4425e-05,114.08,-7.7004e-07,-0.088317,-1.2874e-05,-91.032,2.7275
4177,23.446,0.72727,0.1,1.6602e-05,165.91,1.3858e-05,112.84,-1.1682e-06,-0.061611,-1.1494e-05,-77.649,2.7274
4178,23.446,0.54545,0.1,1.5291e-05,152.8,1.3218e-05,111.33,-1.6033e-06,-0.0311,-9.967e-06,-62.872,2.7272
4179,23.446,0.36364,0.1,1.3968e-05,139.58,1.2553e-05,109.91,-2.0623e-06,0.096676,-8.3528e-06,-47.168,2.7271
4180,23.446,0.18182,0.1,1.3108e-05,130.99,1.221e-05,110.98,-2.5447e-06,0.12104,-7.0267e-06,-33.555,2.7269
4181,23.261,5.8182,0.1,1.6922e-05,169.1,1.6088e-05,149.61,-3.8129e-06,0.080884,-8.3359e-06,-33.904,2.6961
4182,23.261,5.6364,0.1,1.7454e-05,174.42,1.6258e-05,147.74,-3.3942e-06,0.083285,-9.3552e-06,-44.705,2.6962
4183,23.261,5.4545,0.1,1.8504e-05,184.91,1.6813e-05,148.79,-2.9941e-06,-0.027882,-1.0738e-05,-58.209,2.6964
4184,23.261,5.2727,0.1,1.9613e-05,195.99,1.7395e-05,150.24,-2.6074e-06,-0.052836,-1.2109e-05,-71.441,2.6965
4185,23.261,5.0909,0.1,2.0681e-05,206.66,1.794e-05,151.61,-2.2475e-06,-0.076608,-1.3388e-05,-83.779,2.6967
4186,23.261,4.9091,0.1,2.1668e-05,216.53,1.8429e-05,152.79,-1.9176e-06,-0.090505,-1.4548e-05,-94.993,2.6968
4187,23.261,4.7273,0.1,2.2561e-05,225.45,1.8859e-05,153.76,-1.6196e-06,-0.10075,-1.5584e-05,-105.03,2.6969
4188,23.261,4.5455,0.1,2.3354e-05,233.38,1.9231e-05,154.56,-1.3537e-06,-0.10809,-1.6497e-05,-113.89,2.697
4189,23.261,4.3636,0.1,2.405e-05,240.34,1.9551e-05,155.2,-1.1197e-06,-0.11361,-1.7293e-05,-121.63,2.6971
4190,23.261,4.1818,0.1,2.4651e-05,246.34,1.9822e-05,155.71,-9.1692e-07,-0.1178,-1.7977e-05,-128.3,2.6972
4191,23.261,4,0.1,2.516e-05,251.43,2.0048e-05,156.11,-7.4464e-07,-0.121,-1.8553e-05,-133.93,2.6973
4192,23.261,3.8182,0.1,2.558e-05,255.62,2.0233e-05,156.42,-6.0219e-07,-0.12344,-1.9027e-05,-138.56,2.6974
4193,23.261,3.6364,0.1,2.5913e-05,258.95,2.0378e-05,156.66,-4.8897e-07,-0.12525,-1.9402e-05,-142.23,2.6974
4194,23.261,3.4545,0.1,2.6161e-05,261.43,2.0485e-05,156.83,-4.045e-07,-0.12654,-1.9681e-05,-144.96,2.6975
4195,23.261,3.2727,0.1,2.6325e-05,263.07,2.0555e-05,156.94,-3.4839e-07,-0.12736,-1.9866e-05,-146.77,2.6975
4196,23.261,3.0909,0.1,2.6407e-05,263.89,2.0591e-05,156.99,-3.204e-07,-0.12777,-1.9958e-05,-147.67,2.6975
4197,23.261,2.9091,0.1,2.6407e-05,263.89,2.0591e-05,156.99,-3.204e-07,-0.12777,-1.9958e-05,-147.67,2.6975
4198,23.261,2.7273,0.1,2.6325e-05,263.07,2.0555e-05,156.94,-3.4839e-07,-0.12736,-1.9866e-05,-146.77,2.6975
4199,23.261,2.5455,0.1,2.6161e-05,261.43,2.0485e-05,156.83,-4.045e-07,-0.12654,-1.9681e-05,-144.96,2.6975
4200,23.261,2.3636,0.1,2.5913e-05,258.95,2.0378e-05,156.66,-4.8897e-07,-0.12525,-1.9402e-05,-142.23,2.6974
4201,23.261,2.1818,0.1,2.558e-05,255.62,2.0233e-05,156.42,-6.0219e-07,-0.12344,-1.9027e-05,-138.56,2.6974
4202,23.261,2,0.1,2.516e-05,251.43,2.0048e-05,156.11,-7.4464e-07,-0.121,-1.8553e-05,-133.93,2.6973
4203,23.261,1.8182,0.1,2.4651e-05,246.34,1.9822e-05,155.71,-9.1692e-07,-0.1178,-1.7977e-05,-128.3,2.6972
4204,23.261,1.6364,0.1,2.405e-05,240.34,1.9551e-05,155.2,-1.1197e-06,-0.11361,-1.7293e-05,-121.63,2.6971
4205,23.261,1.4545,0.1,2.3354e-05,233.38,1.9231e-05,154.56,-1.3537e-06,-0.10809,-1.6497e-05,-113.89,2.697
4206,23.261,1.2727,0.1,2.2561e-05,225.45,1.8859e-05,153.76,-1.6196e-06,-0.10075,-1.5584e-05,-105.03,2.6969
4207,23.261,1.0909,0.1,2.1668e-05,216.53,1.8429e-05,152.79,-1.9176e-06,-0.090506,-1.4548e-05,-94.993,2.6968
4208,23.261,0.90909,0.1,2.0681e-05,206.66,1.794e-05,151.61,-2.2475e-06,-0.07661,-1.3388e-05,-83.779,2.6967
4209,23.261,0.72727,0.1,1.9613e-05,195.99,1.7395e-05,150.24,-2.6074e-06,-0.052834,-1.2109e-05,-71.441,2.6965
4210,23.261,0.54545,0.1,1.8504e-05,184.91,1.6813e-05,148.79,-2.9941e-06,-0.027887,-1.0738e-05,-58.209,2.6964
4211,23.261,0.36364,0.1,1.7454e-05,174.42,1.6258e-05,147.74,-3.3942e-06,0.083284,-9.3552e-06,-44.705,2.6962
4212,23.261,0.18182,0.1,1.6922e-05,169.1,1.6088e-05,149.61,-3.8128e-06,0.080888,-8.3359e-06,-33.904,2.6961
4213,23.076,5.8182,0.1,2.0791e-05,207.77,2e-05,188.63,-5.096e-06,0.065289,-9.6448e-06,-34.113,2.6652
4214,23.076,5.6364,0.1,2.1104e-05,210.89,2.0045e-05,186.2,-4.7249e-06,0.087096,-1.044e-05,-42.857,2.6654
4215,23.076,5.4545,0.1,2.1946e-05,219.31,2.0503e-05,186.88,-4.3709e-06,-0.0069778,-1.163e-05,-54.545,2.6656
4216,23.076,5.2727,0.1,2.2878e-05,228.63,2.1017e-05,188.13,-4.0257e-06,-0.028257,-1.2847e-05,-66.311,2.6657
4217,23.076,5.0909,0.1,2.3808e-05,237.92,2.1522e-05,189.46,-3.7007e-06,-0.049474,-1.4015e-05,-77.546,2.6659
4218,23.076,4.9091,0.1,2.4691e-05,246.74,2.199e-05,190.7,-3.3994e-06,-0.062049,-1.5096e-05,-87.949,2.666
4219,23.076,4.7273,0.1,2.5504e-05,254.86,2.2411e-05,191.79,-3.1247e-06,-0.071396,-1.6077e-05,-97.388,2.6661
4220,23.076,4.5455,0.1,2.6236e-05,262.18,2.2783e-05,192.72,-2.8777e-06,-0.078083,-1.6951e-05,-105.82,2.6662
4221,23.076,4.3636,0.1,2.6885e-05,268.66,2.3105e-05,193.5,-2.6589e-06,-0.083102,-1.7718e-05,-113.23,2.6663
4222,23.076,4.1818,0.1,2.7449e-05,274.3,2.3381e-05,194.13,-2.4683e-06,-0.086895,-1.8381e-05,-119.65,2.6664
4223,23.076,4,0.1,2.7928e-05,279.09,2.3612e-05,194.65,-2.3057e-06,-0.089783,-1.8943e-05,-125.1,2.6665
4224,23.076,3.8182,0.1,2.8325e-05,283.06,2.3801e-05,195.05,-2.1709e-06,-0.091972,-1.9406e-05,-129.59,2.6666
4225,23.076,3.6364,0.1,2.8641e-05,286.21,2.395e-05,195.36,-2.0634e-06,-0.093599,-1.9773e-05,-133.16,2.6666
4226,23.076,3.4545,0.1,2.8876e-05,288.56,2.406e-05,195.58,-1.9831e-06,-0.09475,-2.0047e-05,-135.82,2.6667
4227,23.076,3.2727,0.1,2.9033e-05,290.13,2.4133e-05,195.73,-1.9297e-06,-0.095489,-2.0228e-05,-137.58,2.6667
4228,23.076,3.0909,0.1,2.9111e-05,290.91,2.4169e-05,195.8,-1.903e-06,-0.09585,-2.0319e-05,-138.46,2.6667
4229,23.076,2.9091,0.1,2.9111e-05,290.91,2.4169e-05,195.8,-1.903e-06,-0.095849,-2.0319e-05,-138.46,2.6667
4230,23.076,2.7273,0.1,2.9033e-05,290.13,2.4133e-05,195.73,-1.9297e-06,-0.09549,-2.0228e-05,-137.58,2.6667
4231,23.076,2.5455,0.1,2.8876e-05,288.56,2.406e-05,195.58,-1.9831e-06,-0.09475,-2.0047e-05,-135.82,2.6667
4232,23.076,2.3636,0.1,2.8641e-05,286.21,2.395e-05,195.36,-2.0634e-06,-0.093599,-1.9773e-05,-133.16,2.6666
4233,23.076,2.1818,0.1,2.8325e-05,283.06,2.3801e-05,195.05,-2.1709e-06,-0.091973,-1.9406e-05,-129.59,2.6666
4234,23.076,2,0.1,2.7928e-05,279.09,2.3612e-05,194.65,-2.3057e-06,-0.089783,-1.8943e-05,-125.1,2.6665
4235,23.076,1.8182,0.1,2.7449e-05,274.3,2.3381e-05,194.13,-2.4683e-06,-0.086894,-1.8381e-05,-119.65,2.6664
4236,23.076,1.6364,0.1,2.6885e-05,268.66,2.3105e-05,193.5,-2.6589e-06,-0.083102,-1.7718e-05,-113.23,2.6663
4237,23.076,1.4545,0.1,2.6236e-05,262.18,2.2783e-05,192.72,-2.8777e-06,-0.078085,-1.6951e-05,-105.82,2.6662
4238,23.076,1.2727,0.1,2.5504e-05,254.86,2.2411e-05,191.79,-3.1247e-06,-0.071395,-1.6077e-05,-97.388,2.6661
4239,23.076,1.0909,0.1,2.4691e-05,246.74,2.199e-05,190.7,-3.3994e-06,-0.062052,-1.5096e-05,-87.949,2.666
4240,23.076,0.90909,0.1,2.3808e-05,237.92,2.1522e-05,189.46,-3.7007e-06,-0.049474,-1.4015e-05,-77.546,2.6659
4241,23.076,0.72727,0.1,2.2878e-05,228.63,2.1017e-05,188.13,-4.0257e-06,-0.02826,-1.2847e-05,-66.311,2.6657
4242,23.076,0.54545,0.1,2.1946e-05,219.31,2.0503e-05,186.88,-4.3709e-06,-0.0069797,-1.163e-05,-54.545,2.6656
4243,23.076,0.36364,0.1,2.1104e-05,210.89,2.0045e-05,186.2,-4.7249e-06,0.087099,-1.044e-05,-42.857,2.6654
4244,23.076,0.18182,0.1,2.0791e-05,207.77,2e-05,188.63,-5.096e-06,0.065291,-9.6449e-06,-34.113,2.6652
4245,22.892,5.8182,0.1,2.4694e-05,246.76,2.3934e-05,227.91,-6.3925e-06,0.05,-1.0948e-05,-34.182,2.6344
4246,22.892,5.6364,0.1,2.4849e-05,248.32,2.3886e-05,225.08,-6.0593e-06,0.082006,-1.1573e-05,-41.344,2.6346
4247,22.892,5.4545,0.1,2.5533e-05,255.15,2.4262e-05,225.44,-5.7425e-06,0.00019066,-1.2603e-05,-51.548,2.6348
4248,22.892,5.2727,0.1,2.6318e-05,263,2.4709e-05,226.45,-5.4324e-06,-0.018206,-1.3682e-05,-62.004,2.6349
4249,22.892,5.0909,0.1,2.7124e-05,271.05,2.5165e-05,227.65,-5.1383e-06,-0.03734,-1.4738e-05,-72.165,2.6351
4250,22.892,4.9091,0.1,2.7906e-05,278.87,2.5602e-05,228.86,-4.8636e-06,-0.048955,-1.5734e-05,-81.726,2.6352
4251,22.892,4.7273,0.1,2.8639e-05,286.2,2.6005e-05,229.98,-4.6112e-06,-0.057671,-1.6651e-05,-90.517,2.6353
4252,22.892,4.5455,0.1,2.931e-05,292.9,2.6366e-05,230.97,-4.3828e-06,-0.063948,-1.7477e-05,-98.448,2.6354
4253,22.892,4.3636,0.1,2.9909e-05,298.89,2.6685e-05,231.83,-4.1792e-06,-0.068658,-1.8209e-05,-105.48,2.6355
4254,22.892,4.1818,0.1,3.0435e-05,304.14,2.6959e-05,232.55,-4.0011e-06,-0.072213,-1.8846e-05,-111.61,2.6356
4255,22.892,4,0.1,3.0884e-05,308.63,2.7191e-05,233.14,-3.8486e-06,-0.074918,-1.9387e-05,-116.83,2.6357
4256,22.892,3.8182,0.1,3.1258e-05,312.36,2.7382e-05,233.62,-3.7217e-06,-0.07696,-1.9836e-05,-121.15,2.6358
4257,22.892,3.6364,0.1,3.1556e-05,315.34,2.7532e-05,233.99,-3.6204e-06,-0.078476,-2.0193e-05,-124.6,2.6358
4258,22.892,3.4545,0.1,3.1778e-05,317.57,2.7644e-05,234.26,-3.5445e-06,-0.079545,-2.0459e-05,-127.17,2.6359
4259,22.892,3.2727,0.1,3.1927e-05,319.05,2.7718e-05,234.44,-3.494e-06,-0.080234,-2.0636e-05,-128.88,2.6359
4260,22.892,3.0909,0.1,3.2001e-05,319.79,2.7755e-05,234.52,-3.4687e-06,-0.080567,-2.0724e-05,-129.73,2.6359
4261,22.892,2.9091,0.1,3.2001e-05,319.79,2.7755e-05,234.52,-3.4687e-06,-0.080566,-2.0724e-05,-129.73,2.6359
4262,22.892,2.7273,0.1,3.1927e-05,319.05,2.7718e-05,234.44,-3.494e-06,-0.080232,-2.0636e-05,-128.88,2.6359
4263,22.892,2.5455,0.1,3.1778e-05,317.57,2.7644e-05,234.26,-3.5445e-06,-0.079547,-2.0459e-05,-127.17,2.6359
4264,22.892,2.3636,0.1,3.1556e-05,315.34,2.7532e-05,233.99,-3.6204e-06,-0.078474,-2.0193e-05,-124.6,2.6358
4265,22.892,2.1818,0.1,3.1258e-05,312.36,2.7382e-05,233.62,-3.7217e-06,-0.076961,-1.9836e-05,-121.15,2.6358
4266,22.892,2,0.1,3.0884e-05,308.63,2.7191e-05,233.14,-3.8486e-06,-0.074917,-1.9387e-05,-116.83,2.6357
4267,22.892,1.8182,0.1,3.0435e-05,304.14,2.6959e-05,232.55,-4.0011e-06,-0.072212,-1.8846e-05,-111.61,2.6356
4268,22.892,1.6364,0.1,2.9909e-05,298.89,2.6685e-05,231.83,-4.1792e-06,-0.068659,-1.8209e-05,-105.48,2.6355
4269,22.892,1.4545,0.1,2.931e-05,292.9,2.6366e-05,230.97,-4.3828e-06,-0.063947,-1.7477e-05,-98.448,2.6354
4270,22.892,1.2727,0.1,2.8639e-05,286.2,2.6005e-05,229.98,-4.6112e-06,-0.057671,-1.6651e-05,-90.517,2.6353
4271,22.892,1.0909,0.1,2.7906e-05,278.87,2.5602e-05,228.86,-4.8636e-06,-0.048956,-1.5734e-05,-81.726,2.6352
4272,22.892,0.90909,0.1,2.7124e-05,271.05,2.5165e-05,227.65,-5.1383e-06,-0.037341,-1.4738e-05,-72.165,2.6351
4273,22.892,0.72727,0.1,2.6318e-05,263,2.4709e-05,226.45,-5.4324e-06,-0.018207,-1.3682e-05,-62.004,2.6349
4274,22.892,0.54545,0.1,2.5533e-05,255.15,2.4262e-05,225.44,-5.7425e-06,0.00019235,-1.2603e-05,-51.548,2.6348
4275,22.892,0.36364,0.1,2.4849e-05,248.32,2.3886e-05,225.08,-6.0593e-06,0.082007,-1.1573e-05,-41.344,2.6346
4276,22.892,0.18182,0.1,2.4694e-05,246.76,2.3934e-05,227.91,-6.3925e-06,0.049998,-1.0948e-05,-34.182,2.6344
4277,22.707,5.8182,0.1,2.8618e-05,285.98,2.7884e-05,267.4,-7.6994e-06,0.039415,-1.2247e-05,-34.127,2.6036
4278,22.707,5.6364,0.1,2.8655e-05,286.35,2.7764e-05,264.27,-7.3973e-06,0.077551,-1.2735e-05,-40.025,2.6038
4279,22.707,5.4545,0.1,2.9216e-05,291.96,2.8073e-05,264.36,-7.1113e-06,0.0056631,-1.3634e-05,-49,2.604
4280,22.707,5.2727,0.1,2.988e-05,298.59,2.8457e-05,265.13,-6.8309e-06,-0.010238,-1.459e-05,-58.308,2.6041
4281,22.707,5.0909,0.1,3.0576e-05,305.55,2.8864e-05,266.16,-6.564e-06,-0.027561,-1.554e-05,-67.472,2.6043
4282,22.707,4.9091,0.1,3.1265e-05,312.44,2.9263e-05,267.27,-6.3133e-06,-0.038301,-1.6451e-05,-76.206,2.6044
4283,22.707,4.7273,0.1,3.1923e-05,319.01,2.9641e-05,268.36,-6.0817e-06,-0.046476,-1.7299e-05,-84.329,2.6046
4284,22.707,4.5455,0.1,3.2532e-05,325.09,2.9985e-05,269.36,-5.871e-06,-0.052413,-1.8073e-05,-91.73,2.6047
4285,22.707,4.3636,0.1,3.3082e-05,330.59,3.0293e-05,270.25,-5.6824e-06,-0.056892,-1.8764e-05,-98.345,2.6048
4286,22.707,4.1818,0.1,3.3568e-05,335.45,3.0561e-05,271.01,-5.5166e-06,-0.060274,-1.9369e-05,-104.14,2.6049
4287,22.707,4,0.1,3.3987e-05,339.64,3.079e-05,271.66,-5.3742e-06,-0.062846,-1.9887e-05,-109.11,2.605
4288,22.707,3.8182,0.1,3.4337e-05,343.13,3.0979e-05,272.19,-5.2554e-06,-0.064788,-2.0318e-05,-113.24,2.605
4289,22.707,3.6364,0.1,3.4617e-05,345.93,3.1129e-05,272.6,-5.1603e-06,-0.066225,-2.0661e-05,-116.53,2.6051
4290,22.707,3.4545,0.1,3.4827e-05,348.03,3.1241e-05,272.9,-5.0889e-06,-0.06724,-2.0918e-05,-119,2.6051
4291,22.707,3.2727,0.1,3.4966e-05,349.42,3.1315e-05,273.1,-5.0413e-06,-0.06789,-2.1089e-05,-120.64,2.6051
4292,22.707,3.0909,0.1,3.5036e-05,350.12,3.1352e-05,273.2,-5.0176e-06,-0.068206,-2.1174e-05,-121.46,2.6052
4293,22.707,2.9091,0.1,3.5036e-05,350.12,3.1352e-05,273.2,-5.0176e-06,-0.068208,-2.1174e-05,-121.46,2.6052
4294,22.707,2.7273,0.1,3.4966e-05,349.42,3.1315e-05,273.1,-5.0413e-06,-0.067889,-2.1089e-05,-120.64,2.6051
4295,22.707,2.5455,0.1,3.4827e-05,348.03,3.1241e-05,272.9,-5.0889e-06,-0.06724,-2.0918e-05,-119,2.6051
4296,22.707,2.3636,0.1,3.4617e-05,345.93,3.1129e-05,272.6,-5.1603e-06,-0.066224,-2.0661e-05,-116.53,2.6051
4297,22.707,2.1818,0.1,3.4337e-05,343.13,3.0979e-05,272.19,-5.2554e-06,-0.064787,-2.0318e-05,-113.24,2.605
4298,22.707,2,0.1,3.3987e-05,339.64,3.079e-05,271.66,-5.3742e-06,-0.062846,-1.9887e-05,-109.11,2.605
4299,22.707,1.8182,0.1,3.3568e-05,335.45,3.0561e-05,271.01,-5.5166e-06,-0.060276,-1.9369e-05,-104.14,2.6049
4300,22.707,1.6364,0.1,3.3082e-05,330.59,3.0293e-05,270.25,-5.6824e-06,-0.05689,-1.8764e-05,-98.345,2.6048
4301,22.707,1.4545,0.1,3.2532e-05,325.09,2.9985e-05,269.36,-5.871e-06,-0.052413,-1.8073e-05,-91.73,2.6047
4302,22.707,1.2727,0.1,3.1923e-05,319.01,2.9641e-05,268.36,-6.0817e-06,-0.046477,-1.7299e-05,-84.329,2.6046
4303,22.707,1.0909,0.1,3.1265e-05,312.44,2.9263e-05,267.27,-6.3133e-06,-0.038303,-1.6451e-05,-76.206,2.6044
4304,22.707,0.90909,0.1,3.0576e-05,305.55,2.8864e-05,266.16,-6.564e-06,-0.027559,-1.554e-05,-67.472,2.6043
4305,22.707,0.72727,0.1,2.988e-05,298.59,2.8457e-05,265.13,-6.831e-06,-0.010238,-1.459e-05,-58.308,2.6041
4306,22.707,0.54545,0.1,2.9216e-05,291.96,2.8073e-05,264.36,-7.1113e-06,0.0056633,-1.3634e-05,-49,2.604
4307,22.707,0.36364,0.1,2.8655e-05,286.35,2.7764e-05,264.27,-7.3973e-06,0.077555,-1.2735e-05,-40.025,2.6038
4308,22.707,0.18182,0.1,2.8618e-05,285.98,2.7884e-05,267.4,-7.6994e-06,0.039415,-1.2247e-05,-34.127,2.6036
4309,22.522,5.8182,0.1,3.2558e-05,325.36,3.1847e-05,307.05,-9.0149e-06,0.03102,-1.354e-05,-33.97,2.5729
4310,22.522,5.6364,0.1,3.2504e-05,324.82,3.1669e-05,303.69,-8.7391e-06,0.072471,-1.3917e-05,-38.829,2.573
4311,22.522,5.4545,0.1,3.2967e-05,329.44,3.1922e-05,303.56,-8.4792e-06,0.0086186,-1.4705e-05,-46.77,2.5732
4312,22.522,5.2727,0.1,3.3529e-05,335.06,3.2251e-05,304.11,-8.2243e-06,-0.0052213,-1.5554e-05,-55.077,2.5734
4313,22.522,5.0909,0.1,3.413e-05,341.07,3.2609e-05,304.96,-7.9812e-06,-0.020953,-1.6407e-05,-63.333,2.5735
4314,22.522,4.9091,0.1,3.4736e-05,347.12,3.297e-05,305.94,-7.752e-06,-0.030905,-1.7235e-05,-71.282,2.5737
4315,22.522,4.7273,0.1,3.5322e-05,352.98,3.3317e-05,306.94,-7.5395e-06,-0.03859,-1.8015e-05,-78.747,2.5738
4316,22.522,4.5455,0.1,3.5872e-05,358.47,3.364e-05,307.91,-7.3454e-06,-0.044239,-1.8733e-05,-85.607,2.5739
4317,22.522,4.3636,0.1,3.6374e-05,363.49,3.3933e-05,308.79,-7.1709e-06,-0.048525,-1.938e-05,-91.784,2.574
4318,22.522,4.1818,0.1,3.6821e-05,367.96,3.4191e-05,309.57,-7.0171e-06,-0.051776,-1.9951e-05,-97.23,2.5741
4319,22.522,4,0.1,3.7209e-05,371.84,3.4412e-05,310.23,-6.8845e-06,-0.054252,-2.0442e-05,-101.92,2.5742
4320,22.522,3.8182,0.1,3.7535e-05,375.09,3.4597e-05,310.78,-6.7737e-06,-0.056122,-2.0852e-05,-105.83,2.5743
4321,22.522,3.6364,0.1,3.7796e-05,377.7,3.4744e-05,311.22,-6.6847e-06,-0.057506,-2.118e-05,-108.97,2.5743
4322,22.522,3.4545,0.1,3.7993e-05,379.66,3.4854e-05,311.55,-6.6179e-06,-0.058485,-2.1426e-05,-111.32,2.5744
4323,22.522,3.2727,0.1,3.8124e-05,380.98,3.4927e-05,311.76,-6.5734e-06,-0.059109,-2.1589e-05,-112.88,2.5744
4324,22.522,3.0909,0.1,3.819e-05,381.63,3.4964e-05,311.87,-6.5511e-06,-0.059414,-2.1671e-05,-113.67,2.5744
4325,22.522,2.9091,0.1,3.819e-05,381.63,3.4964e-05,311.87,-6.5511e-06,-0.059413,-2.1671e-05,-113.67,2.5744
4326,22.522,2.7273,0.1,3.8124e-05,380.98,3.4927e-05,311.76,-6.5734e-06,-0.05911,-2.1589e-05,-112.88,2.5744
4327,22.522,2.5455,0.1,3.7993e-05,379.66,3.4854e-05,311.55,-6.6179e-06,-0.058484,-2.1426e-05,-111.32,2.5744
4328,22.522,2.3636,0.1,3.7796e-05,377.7,3.4744e-05,311.22,-6.6847e-06,-0.057507,-2.118e-05,-108.97,2.5743
4329,22.522,2.1818,0.1,3.7535e-05,375.09,3.4597e-05,310.78,-6.7737e-06,-0.056121,-2.0852e-05,-105.83,2.5743
4330,22.522,2,0.1,3.7209e-05,371.84,3.4412e-05,310.23,-6.8845e-06,-0.054255,-2.0442e-05,-101.92,2.5742
4331,22.522,1.8182,0.1,3.6821e-05,367.96,3.4191e-05,309.57,-7.0171e-06,-0.051775,-1.9951e-05,-97.23,2.5741
4332,22.522,1.6364,0.1,3.6374e-05,363.49,3.3933e-05,308.79,-7.1709e-06,-0.048523,-1.938e-05,-91.784,2.574
4333,22.522,1.4545,0.1,3.5872e-05,358.47,3.364e-05,307.91,-7.3454e-06,-0.04424,-1.8733e-05,-85.607,2.5739
4334,22.522,1.2727,0.1,3.5322e-05,352.98,3.3317e-05,306.94,-7.5395e-06,-0.038592,-1.8015e-05,-78.747,2.5738
4335,22.522,1.0909,0.1,3.4736e-05,347.12,3.297e-05,305.94,-7.752e-06,-0.030906,-1.7235e-05,-71.282,2.5737
4336,22.522,0.90909,0.1,3.413e-05,341.07,3.2609e-05,304.96,-7.9812e-06,-0.020955,-1.6407e-05,-63.333,2.5735
4337,22.522,0.72727,0.1,3.353e-05,335.06,3.2251e-05,304.11,-8.2243e-06,-0.005223,-1.5554e-05,-55.077,2.5734
4338,22.522,0.54545,0.1,3.2967e-05,329.44,3.1922e-05,303.56,-8.4792e-06,0.0086195,-1.4705e-05,-46.77,2.5732
4339,22.522,0.36364,0.1,3.2504e-05,324.82,3.1669e-05,303.69,-8.7391e-06,0.072473,-1.3917e-05,-38.829,2.573
4340,22.522,0.18182,0.1,3.2558e-05,325.36,3.1847e-05,307.05,-9.0149e-06,0.031024,-1.354e-05,-33.97,2.5729
4341,22.338,5.8182,0.1,3.6513e-05,364.88,3.5823e-05,346.86,-1.0338e-05,0.02455,-1.483e-05,-33.731,2.5421
4342,22.338,5.6364,0.1,3.6385e-05,363.6,3.5597e-05,343.3,-1.0085e-05,0.067615,-1.5113e-05,-37.715,2.5423
4343,22.338,5.4545,0.1,3.6768e-05,367.43,3.5801e-05,342.99,-9.8471e-06,0.010434,-1.5807e-05,-44.773,2.5425
4344,22.338,5.2727,0.1,3.7246e-05,372.2,3.6082e-05,343.34,-9.6143e-06,-0.0016826,-1.6562e-05,-52.206,2.5426
4345,22.338,5.0909,0.1,3.7764e-05,377.38,3.6394e-05,344,-9.392e-06,-0.016009,-1.7328e-05,-59.643,2.5428
4346,22.338,4.9091,0.1,3.8295e-05,382.69,3.6717e-05,344.84,-9.1821e-06,-0.025234,-1.8077e-05,-66.861,2.5429
4347,22.338,4.7273,0.1,3.8815e-05,387.88,3.7032e-05,345.74,-8.987e-06,-0.032464,-1.8791e-05,-73.694,2.5431
4348,22.338,4.5455,0.1,3.9309e-05,392.82,3.7331e-05,346.63,-8.8081e-06,-0.037843,-1.9453e-05,-80.019,2.5432
4349,22.338,4.3636,0.1,3.9764e-05,397.37,3.7605e-05,347.48,-8.647e-06,-0.041957,-2.0054e-05,-85.753,2.5433
4350,22.338,4.1818,0.1,4.0173e-05,401.45,3.7849e-05,348.24,-8.5045e-06,-0.045097,-2.0588e-05,-90.838,2.5434
4351,22.338,4,0.1,4.053e-05,405.02,3.8061e-05,348.9,-8.3814e-06,-0.047496,-2.105e-05,-95.236,2.5435
4352,22.338,3.8182,0.1,4.0831e-05,408.03,3.8238e-05,349.46,-8.2783e-06,-0.049312,-2.1437e-05,-98.922,2.5436
4353,22.338,3.6364,0.1,4.1074e-05,410.45,3.838e-05,349.9,-8.1954e-06,-0.050658,-2.1748e-05,-101.88,2.5436
4354,22.338,3.4545,0.1,4.1257e-05,412.28,3.8487e-05,350.23,-8.133e-06,-0.051607,-2.1982e-05,-104.11,2.5437
4355,22.338,3.2727,0.1,4.1379e-05,413.51,3.8559e-05,350.46,-8.0914e-06,-0.052214,-2.2138e-05,-105.59,2.5437
4356,22.338,3.0909,0.1,4.1441e-05,414.12,3.8594e-05,350.57,-8.0705e-06,-0.052512,-2.2216e-05,-106.34,2.5437
4357,22.338,2.9091,0.1,4.1441e-05,414.12,3.8594e-05,350.57,-8.0705e-06,-0.052512,-2.2216e-05,-106.34,2.5437
4358,22.338,2.7273,0.1,4.1379e-05,413.51,3.8559e-05,350.46,-8.0914e-06,-0.052216,-2.2138e-05,-105.59,2.5437
4359,22.338,2.5455,0.1,4.1257e-05,412.28,3.8487e-05,350.23,-8.133e-06,-0.051607,-2.1982e-05,-104.11,2.5437
4360,22.338,2.3636,0.1,4.1074e-05,410.45,3.838e-05,349.9,-8.1954e-06,-0.050657,-2.1748e-05,-101.88,2.5436
4361,22.338,2.1818,0.1,4.0831e-05,408.03,3.8238e-05,349.46,-8.2783e-06,-0.049312,-2.1437e-05,-98.922,2.5436
4362,22.338,2,0.1,4.053e-05,405.02,3.8061e-05,348.9,-8.3814e-06,-0.047496,-2.105e-05,-95.235,2.5435
4363,22.338,1.8182,0.1,4.0173e-05,401.45,3.7849e-05,348.24,-8.5045e-06,-0.045097,-2.0588e-05,-90.838,2.5434
4364,22.338,1.6364,0.1,3.9764e-05,397.37,3.7605e-05,347.48,-8.647e-06,-0.041956,-2.0054e-05,-85.753,2.5433
4365,22.338,1.4545,0.1,3.9309e-05,392.82,3.7331e-05,346.63,-8.8081e-06,-0.037844,-1.9453e-05,-80.019,2.5432
4366,22.338,1.2727,0.1,3.8815e-05,387.88,3.7032e-05,345.74,-8.987e-06,-0.032465,-1.8791e-05,-73.694,2.5431
4367,22.338,1.0909,0.1,3.8295e-05,382.69,3.6717e-05,344.84,-9.1821e-06,-0.025235,-1.8077e-05,-66.861,2.5429
4368,22.338,0.90909,0.1,3.7764e-05,377.38,3.6394e-05,344.01,-9.392e-06,-0.01601,-1.7328e-05,-59.643,2.5428
4369,22.338,0.72727,0.1,3.7246e-05,372.2,3.6082e-05,343.34,-9.6143e-06,-0.0016837,-1.6562e-05,-52.206,2.5426
4370,22.338,0.54545,0.1,3.6768e-05,367.43,3.5801e-05,342.99,-9.8471e-06,0.010435,-1.5807e-05,-44.773,2.5425
4371,22.338,0.36364,0.1,3.6385e-05,363.6,3.5597e-05,343.3,-1.0085e-05,0.067619,-1.5113e-05,-37.715,2.5423
4372,22.338,0.18182,0.1,3.6513e-05,364.88,3.5823e-05,346.86,-1.0338e-05,0.024551,-1.483e-05,-33.731,2.5421
4373,22.153,5.8182,0.1,4.0481e-05,404.53,3.9809e-05,386.79,-1.1667e-05,0.019433,-1.6118e-05,-33.425,2.5114
4374,22.153,5.6364,0.1,4.0293e-05,402.65,3.9544e-05,383.09,-1.1434e-05,0.062992,-1.6321e-05,-36.661,2.5115
4375,22.153,5.4545,0.1,4.0609e-05,405.81,3.9707e-05,382.62,-1.1216e-05,0.011419,-1.6934e-05,-42.956,2.5117
4376,22.153,5.2727,0.1,4.1014e-05,409.86,3.9944e-05,382.79,-1.1002e-05,0.00075115,-1.7606e-05,-49.62,2.5119
4377,22.153,5.0909,0.1,4.1461e-05,414.33,4.0215e-05,383.28,-1.0798e-05,-0.012338,-1.8293e-05,-56.323,2.5121
4378,22.153,4.9091,0.1,4.1925e-05,418.96,4.05e-05,383.97,-1.0606e-05,-0.0209,-1.897e-05,-62.867,2.5122
4379,22.153,4.7273,0.1,4.2385e-05,423.56,4.0784e-05,384.75,-1.0426e-05,-0.027702,-1.9619e-05,-69.103,2.5124
4380,22.153,4.5455,0.1,4.2826e-05,427.96,4.1056e-05,385.55,-1.0261e-05,-0.032826,-2.0227e-05,-74.913,2.5125
4381,22.153,4.3636,0.1,4.3237e-05,432.07,4.1309e-05,386.33,-1.0113e-05,-0.036778,-2.0783e-05,-80.21,2.5126
4382,22.153,4.1818,0.1,4.3608e-05,435.78,4.1538e-05,387.05,-9.9807e-06,-0.039814,-2.1279e-05,-84.931,2.5127
4383,22.153,4,0.1,4.3934e-05,439.04,4.1737e-05,387.69,-9.8666e-06,-0.042147,-2.171e-05,-89.032,2.5128
4384,22.153,3.8182,0.1,4.4211e-05,441.81,4.1905e-05,388.23,-9.7708e-06,-0.04392,-2.2074e-05,-92.482,2.5129
4385,22.153,3.6364,0.1,4.4435e-05,444.05,4.2041e-05,388.67,-9.6937e-06,-0.045232,-2.2366e-05,-95.261,2.5129
4386,22.153,3.4545,0.1,4.4605e-05,445.74,4.2143e-05,389,-9.6356e-06,-0.046163,-2.2586e-05,-97.354,2.513
4387,22.153,3.2727,0.1,4.4718e-05,446.88,4.2212e-05,389.22,-9.5968e-06,-0.046758,-2.2734e-05,-98.754,2.513
4388,22.153,3.0909,0.1,4.4775e-05,447.45,4.2246e-05,389.33,-9.5774e-06,-0.047049,-2.2808e-05,-99.455,2.513
4389,22.153,2.9091,0.1,4.4775e-05,447.45,4.2246e-05,389.33,-9.5774e-06,-0.047049,-2.2808e-05,-99.455,2.513
4390,22.153,2.7273,0.1,4.4718e-05,446.88,4.2212e-05,389.22,-9.5968e-06,-0.046758,-2.2734e-05,-98.754,2.513
4391,22.153,2.5455,0.1,4.4605e-05,445.74,4.2143e-05,389,-9.6356e-06,-0.046164,-2.2586e-05,-97.354,2.513
4392,22.153,2.3636,0.1,4.4435e-05,444.05,4.2041e-05,388.67,-9.6937e-06,-0.045234,-2.2366e-05,-95.261,2.5129
4393,22.153,2.1818,0.1,4.4211e-05,441.81,4.1905e-05,388.23,-9.7708e-06,-0.043918,-2.2074e-05,-92.482,2.5129
4394,22.153,2,0.1,4.3934e-05,439.04,4.1737e-05,387.69,-9.8666e-06,-0.042148,-2.171e-05,-89.032,2.5128
4395,22.153,1.8182,0.1,4.3608e-05,435.78,4.1538e-05,387.05,-9.9807e-06,-0.039814,-2.1279e-05,-84.931,2.5127
4396,22.153,1.6364,0.1,4.3237e-05,432.07,4.131e-05,386.33,-1.0113e-05,-0.036779,-2.0783e-05,-80.21,2.5126
4397,22.153,1.4545,0.1,4.2826e-05,427.96,4.1057e-05,385.55,-1.0261e-05,-0.032826,-2.0227e-05,-74.912,2.5125
4398,22.153,1.2727,0.1,4.2385e-05,423.56,4.0784e-05,384.75,-1.0426e-05,-0.027705,-1.9619e-05,-69.103,2.5124
4399,22.153,1.0909,0.1,4.1925e-05,418.96,4.05e-05,383.97,-1.0606e-05,-0.020899,-1.897e-05,-62.867,2.5122
4400,22.153,0.90909,0.1,4.1461e-05,414.33,4.0215e-05,383.28,-1.0798e-05,-0.01234,-1.8293e-05,-56.323,2.5121
4401,22.153,0.72727,0.1,4.1014e-05,409.86,3.9944e-05,382.79,-1.1002e-05,0.00074786,-1.7606e-05,-49.62,2.5119
4402,22.153,0.54545,0.1,4.0609e-05,405.81,3.9707e-05,382.62,-1.1216e-05,0.011419,-1.6934e-05,-42.956,2.5117
4403,22.153,0.36364,0.1,4.0293e-05,402.65,3.9544e-05,383.09,-1.1434e-05,0.062996,-1.6321e-05,-36.661,2.5115
4404,22.153,0.18182,0.1,4.0481e-05,404.53,3.9809e-05,386.79,-1.1667e-05,0.019431,-1.6118e-05,-33.425,2.5114
4405,21.968,5.8182,0.1,4.446e-05,444.29,4.3805e-05,426.84,-1.3002e-05,0.01537,-1.7405e-05,-33.066,2.4806
4406,21.968,5.6364,0.1,4.4222e-05,441.91,4.3508e-05,423.03,-1.2786e-05,0.05869,-1.7539e-05,-35.654,2.4808
4407,21.968,5.4545,0.1,4.4481e-05,444.5,4.3635e-05,422.43,-1.2585e-05,0.011903,-1.8081e-05,-41.282,2.481
4408,21.968,5.2727,0.1,4.4825e-05,447.94,4.3834e-05,422.44,-1.2389e-05,0.0024562,-1.868e-05,-47.267,2.4812
4409,21.968,5.0909,0.1,4.521e-05,451.79,4.4066e-05,422.77,-1.2201e-05,-0.0095416,-1.9295e-05,-53.309,2.4814
4410,21.968,4.9091,0.1,4.5614e-05,455.82,4.4316e-05,423.3,-1.2024e-05,-0.017495,-1.9906e-05,-59.238,2.4815
4411,21.968,4.7273,0.1,4.6019e-05,459.87,4.4569e-05,423.95,-1.1859e-05,-0.023903,-2.0495e-05,-64.916,2.4817
4412,21.968,4.5455,0.1,4.6411e-05,463.79,4.4815e-05,424.66,-1.1707e-05,-0.028778,-2.1051e-05,-70.235,2.4818
4413,21.968,4.3636,0.1,4.6779e-05,467.47,4.5046e-05,425.36,-1.1569e-05,-0.032575,-2.1562e-05,-75.109,2.4819
4414,21.968,4.1818,0.1,4.7115e-05,470.83,4.5257e-05,426.02,-1.1447e-05,-0.035516,-2.202e-05,-79.474,2.482
4415,21.968,4,0.1,4.7412e-05,473.79,4.5442e-05,426.61,-1.1342e-05,-0.037784,-2.242e-05,-83.279,2.4821
4416,21.968,3.8182,0.1,4.7665e-05,476.32,4.56e-05,427.13,-1.1253e-05,-0.039514,-2.2759e-05,-86.492,2.4822
4417,21.968,3.6364,0.1,4.787e-05,478.37,4.5728e-05,427.55,-1.1181e-05,-0.040803,-2.3032e-05,-89.086,2.4823
4418,21.968,3.4545,0.1,4.8026e-05,479.93,4.5825e-05,427.87,-1.1127e-05,-0.041716,-2.3239e-05,-91.044,2.4823
4419,21.968,3.2727,0.1,4.8131e-05,480.98,4.589e-05,428.09,-1.1091e-05,-0.042302,-2.3377e-05,-92.355,2.4824
4420,21.968,3.0909,0.1,4.8184e-05,481.5,4.5922e-05,428.2,-1.1073e-05,-0.042587,-2.3447e-05,-93.013,2.4824
4421,21.968,2.9091,0.1,4.8184e-05,481.5,4.5922e-05,428.2,-1.1073e-05,-0.042586,-2.3447e-05,-93.013,2.4824
4422,21.968,2.7273,0.1,4.8131e-05,480.98,4.589e-05,428.09,-1.1091e-05,-0.042301,-2.3377e-05,-92.355,2.4824
4423,21.968,2.5455,0.1,4.8026e-05,479.93,4.5825e-05,427.87,-1.1127e-05,-0.041715,-2.3239e-05,-91.044,2.4823
4424,21.968,2.3636,0.1,4.787e-05,478.37,4.5728e-05,427.55,-1.1181e-05,-0.040802,-2.3032e-05,-89.086,2.4823
4425,21.968,2.1818,0.1,4.7665e-05,476.32,4.56e-05,427.13,-1.1253e-05,-0.039515,-2.2759e-05,-86.492,2.4822
4426,21.968,2,0.1,4.7412e-05,473.79,4.5442e-05,426.62,-1.1342e-05,-0.037784,-2.242e-05,-83.279,2.4821
4427,21.968,1.8182,0.1,4.7115e-05,470.83,4.5257e-05,426.02,-1.1447e-05,-0.035516,-2.202e-05,-79.474,2.482
4428,21.968,1.6364,0.1,4.6779e-05,467.47,4.5046e-05,425.36,-1.1569e-05,-0.032576,-2.1562e-05,-75.109,2.4819
4429,21.968,1.4545,0.1,4.6411e-05,463.79,4.4815e-05,424.66,-1.1707e-05,-0.02878,-2.1051e-05,-70.235,2.4818
4430,21.968,1.2727,0.1,4.6019e-05,459.87,4.4569e-05,423.95,-1.1859e-05,-0.023903,-2.0495e-05,-64.916,2.4817
4431,21.968,1.0909,0.1,4.5614e-05,455.82,4.4316e-05,423.3,-1.2024e-05,-0.017499,-1.9906e-05,-59.238,2.4815
4432,21.968,0.90909,0.1,4.521e-05,451.79,4.4066e-05,422.77,-1.2201e-05,-0.0095418,-1.9295e-05,-53.309,2.4814
4433,21.968,0.72727,0.1,4.4825e-05,447.94,4.3834e-05,422.44,-1.2389e-05,0.0024555,-1.868e-05,-47.267,2.4812
4434,21.968,0.54545,0.1,4.4481e-05,444.5,4.3635e-05,422.43,-1.2585e-05,0.011909,-1.8081e-05,-41.282,2.481
4435,21.968,0.36364,0.1,4.4222e-05,441.91,4.3508e-05,423.03,-1.2786e-05,0.058692,-1.7539e-05,-35.654,2.4808
4436,21.968,0.18182,0.1,4.446e-05,444.29,4.3805e-05,426.84,-1.3002e-05,0.015361,-1.7405e-05,-33.066,2.4806
4437,21.783,5.8182,0.1,4.8451e-05,484.18,4.7813e-05,467.02,-1.4343e-05,0.012125,-1.8691e-05,-32.663,2.45
4438,21.783,5.6364,0.1,4.817e-05,481.37,4.7487e-05,463.11,-1.4142e-05,0.054719,-1.8766e-05,-34.687,2.4502
4439,21.783,5.4545,0.1,4.8381e-05,483.48,4.7583e-05,462.4,-1.3957e-05,0.012063,-1.9245e-05,-39.725,2.4504
4440,21.783,5.2727,0.1,4.8672e-05,486.38,4.7747e-05,462.26,-1.3775e-05,0.0036525,-1.9779e-05,-45.107,2.4506
4441,21.783,5.0909,0.1,4.9002e-05,489.68,4.7946e-05,462.44,-1.3602e-05,-0.0073784,-2.033e-05,-50.556,2.4507
4442,21.783,4.9091,0.1,4.9353e-05,493.19,4.8163e-05,462.83,-1.3439e-05,-0.014785,-2.088e-05,-55.923,2.4509
4443,21.783,4.7273,0.1,4.9708e-05,496.74,4.8386e-05,463.36,-1.3286e-05,-0.020819,-2.1414e-05,-61.086,2.451
4444,21.783,4.5455,0.1,5.0055e-05,500.21,4.8606e-05,463.95,-1.3146e-05,-0.025461,-2.1919e-05,-65.943,2.4512
4445,21.783,4.3636,0.1,5.0384e-05,503.49,4.8815e-05,464.57,-1.3019e-05,-0.029106,-2.2386e-05,-70.413,2.4513
4446,21.783,4.1818,0.1,5.0685e-05,506.5,4.9007e-05,465.16,-1.2906e-05,-0.031951,-2.2808e-05,-74.431,2.4514
4447,21.783,4,0.1,5.0954e-05,509.18,4.9178e-05,465.7,-1.2808e-05,-0.034157,-2.3178e-05,-77.947,2.4515
4448,21.783,3.8182,0.1,5.1183e-05,511.48,4.9324e-05,466.18,-1.2726e-05,-0.035849,-2.3491e-05,-80.925,2.4516
4449,21.783,3.6364,0.1,5.1371e-05,513.35,4.9443e-05,466.57,-1.2659e-05,-0.037113,-2.3745e-05,-83.335,2.4516
4450,21.783,3.4545,0.1,5.1513e-05,514.78,4.9533e-05,466.87,-1.2609e-05,-0.03801,-2.3938e-05,-85.158,2.4517
4451,21.783,3.2727,0.1,5.1609e-05,515.74,4.9594e-05,467.08,-1.2576e-05,-0.038586,-2.4067e-05,-86.38,2.4517
4452,21.783,3.0909,0.1,5.1658e-05,516.22,4.9624e-05,467.18,-1.2559e-05,-0.038868,-2.4132e-05,-86.993,2.4517
4453,21.783,2.9091,0.1,5.1658e-05,516.22,4.9624e-05,467.18,-1.2559e-05,-0.038867,-2.4132e-05,-86.993,2.4517
4454,21.783,2.7273,0.1,5.1609e-05,515.74,4.9594e-05,467.08,-1.2576e-05,-0.038588,-2.4067e-05,-86.38,2.4517
4455,21.783,2.5455,0.1,5.1513e-05,514.78,4.9533e-05,466.87,-1.2609e-05,-0.03801,-2.3938e-05,-85.158,2.4517
4456,21.783,2.3636,0.1,5.1371e-05,513.35,4.9443e-05,466.57,-1.2659e-05,-0.037111,-2.3745e-05,-83.335,2.4516
4457,21.783,2.1818,0.1,5.1183e-05,511.48,4.9324e-05,466.18,-1.2726e-05,-0.035849,-2.3491e-05,-80.925,2.4516
4458,21.783,2,0.1,5.0954e-05,509.18,4.9178e-05,465.7,-1.2808e-05,-0.034158,-2.3178e-05,-77.947,2.4515
4459,21.783,1.8182,0.1,5.0685e-05,506.5,4.9007e-05,465.16,-1.2906e-05,-0.031949,-2.2808e-05,-74.431,2.4514
4460,21.783,1.6364,0.1,5.0384e-05,503.49,4.8815e-05,464.57,-1.3019e-05,-0.029107,-2.2386e-05,-70.413,2.4513
4461,21.783,1.4545,0.1,5.0055e-05,500.21,4.8606e-05,463.95,-1.3146e-05,-0.025461,-2.1919e-05,-65.943,2.4512
4462,21.783,1.2727,0.1,4.9708e-05,496.74,4.8386e-05,463.36,-1.3286e-05,-0.02082,-2.1414e-05,-61.086,2.451
4463,21.783,1.0909,0.1,4.9353e-05,493.19,4.8163e-05,462.83,-1.3439e-05,-0.014786,-2.088e-05,-55.923,2.4509
4464,21.783,0.90909,0.1,4.9002e-05,489.68,4.7946e-05,462.44,-1.3602e-05,-0.0073787,-2.033e-05,-50.556,2.4507
4465,21.783,0.72727,0.1,4.8672e-05,486.38,4.7747e-05,462.26,-1.3775e-05,0.0036522,-1.9779e-05,-45.107,2.4506
4466,21.783,0.54545,0.1,4.8381e-05,483.48,4.7583e-05,462.4,-1.3957e-05,0.012064,-1.9245e-05,-39.725,2.4504
4467,21.783,0.36364,0.1,4.817e-05,481.37,4.7487e-05,463.11,-1.4142e-05,0.054721,-1.8766e-05,-34.687,2.4502
4468,21.783,0.18182,0.1,4.8451e-05,484.18,4.7813e-05,467.02,-1.4343e-05,0.012122,-1.8691e-05,-32.663,2.45
4469,21.599,5.8182,0.1,5.2453e-05,524.17,5.1831e-05,507.32,-1.5688e-05,0.0095127,-1.9978e-05,-32.228,2.4193
4470,21.599,5.6364,0.1,5.2137e-05,521.01,5.1481e-05,503.34,-1.5502e-05,0.051063,-2.0001e-05,-33.754,2.4195
4471,21.599,5.4545,0.1,5.2306e-05,522.7,5.155e-05,502.52,-1.533e-05,0.012005,-2.0424e-05,-38.269,2.4197
4472,21.599,5.2727,0.1,5.255e-05,525.14,5.1684e-05,502.25,-1.5162e-05,0.0044753,-2.09e-05,-43.111,2.4199
4473,21.599,5.0909,0.1,5.2832e-05,527.95,5.1851e-05,502.3,-1.5002e-05,-0.0056953,-2.1393e-05,-48.026,2.4201
4474,21.599,4.9091,0.1,5.3135e-05,530.98,5.2037e-05,502.56,-1.4851e-05,-0.012604,-2.1887e-05,-52.882,2.4203
4475,21.599,4.7273,0.1,5.3445e-05,534.08,5.2232e-05,502.96,-1.471e-05,-0.018293,-2.2369e-05,-57.569,2.4204
4476,21.599,4.5455,0.1,5.3751e-05,537.14,5.2427e-05,503.44,-1.458e-05,-0.022712,-2.2828e-05,-61.995,2.4206
4477,21.599,4.3636,0.1,5.4043e-05,540.05,5.2614e-05,503.96,-1.4463e-05,-0.026212,-2.3254e-05,-66.083,2.4207
4478,21.599,4.1818,0.1,5.4312e-05,542.75,5.2788e-05,504.48,-1.4358e-05,-0.02896,-2.364e-05,-69.771,2.4208
4479,21.599,4,0.1,5.4553e-05,545.15,5.2943e-05,504.96,-1.4267e-05,-0.031107,-2.398e-05,-73.008,2.4209
4480,21.599,3.8182,0.1,5.476e-05,547.23,5.3076e-05,505.39,-1.4191e-05,-0.032761,-2.4269e-05,-75.756,2.421
4481,21.599,3.6364,0.1,5.493e-05,548.92,5.3186e-05,505.75,-1.4129e-05,-0.033997,-2.4504e-05,-77.985,2.4211
4482,21.599,3.4545,0.1,5.506e-05,550.22,5.327e-05,506.02,-1.4083e-05,-0.034879,-2.4682e-05,-79.674,2.4211
4483,21.599,3.2727,0.1,5.5147e-05,551.09,5.3326e-05,506.21,-1.4052e-05,-0.035449,-2.4802e-05,-80.808,2.4211
4484,21.599,3.0909,0.1,5.5191e-05,551.53,5.3354e-05,506.31,-1.4036e-05,-0.035724,-2.4862e-05,-81.378,2.4212
4485,21.599,2.9091,0.1,5.5191e-05,551.53,5.3354e-05,506.31,-1.4036e-05,-0.035724,-2.4862e-05,-81.378,2.4212
4486,21.599,2.7273,0.1,5.5147e-05,551.09,5.3326e-05,506.21,-1.4052e-05,-0.035448,-2.4802e-05,-80.808,2.4211
4487,21.599,2.5455,0.1,5.506e-05,550.22,5.327e-05,506.02,-1.4083e-05,-0.03488,-2.4682e-05,-79.674,2.4211
4488,21.599,2.3636,0.1,5.493e-05,548.92,5.3186e-05,505.75,-1.4129e-05,-0.033996,-2.4504e-05,-77.985,2.4211
4489,21.599,2.1818,0.1,5.476e-05,547.23,5.3076e-05,505.39,-1.4191e-05,-0.03276,-2.4269e-05,-75.756,2.421
4490,21.599,2,0.1,5.4553e-05,545.15,5.2943e-05,504.96,-1.4267e-05,-0.031107,-2.398e-05,-73.008,2.4209
4491,21.599,1.8182,0.1,5.4312e-05,542.75,5.2788e-05,504.48,-1.4358e-05,-0.02896,-2.364e-05,-69.771,2.4208
4492,21.599,1.6364,0.1,5.4043e-05,540.05,5.2614e-05,503.96,-1.4463e-05,-0.026212,-2.3254e-05,-66.083,2.4207
4493,21.599,1.4545,0.1,5.3751e-05,537.14,5.2427e-05,503.44,-1.458e-05,-0.022713,-2.2828e-05,-61.995,2.4206
4494,21.599,1.2727,0.1,5.3445e-05,534.08,5.2232e-05,502.96,-1.471e-05,-0.018292,-2.2369e-05,-57.569,2.4204
4495,21.599,1.0909,0.1,5.3135e-05,530.98,5.2037e-05,502.56,-1.4851e-05,-0.012604,-2.1887e-05,-52.882,2.4203
4496,21.599,0.90909,0.1,5.2832e-05,527.95,5.1851e-05,502.3,-1.5002e-05,-0.0056988,-2.1393e-05,-48.026,2.4201
4497,21.599,0.72727,0.1,5.255e-05,525.14,5.1684e-05,502.25,-1.5162e-05,0.0044735,-2.09e-05,-43.111,2.4199
4498,21.599,0.54545,0.1,5.2306e-05,522.7,5.155e-05,502.52,-1.533e-05,0.012001,-2.0424e-05,-38.269,2.4197
4499,21.599,0.36364,0.1,5.2137e-05,521.01,5.1481e-05,503.34,-1.5502e-05,0.051064,-2.0001e-05,-33.754,2.4195
4500,21.599,0.18182,0.1,5.2453e-05,524.17,5.1831e-05,507.32,-1.5688e-05,0.0095146,-1.9978e-05,-32.228,2.4193
4501,21.414,5.8182,0.1,5.6468e-05,564.29,5.586e-05,547.74,-1.7038e-05,0.0074041,-2.1267e-05,-31.766,2.3887
4502,21.414,5.6364,0.1,5.6121e-05,560.82,5.549e-05,543.7,-1.6865e-05,0.047705,-2.1243e-05,-32.853,2.3889
4503,21.414,5.4545,0.1,5.6253e-05,562.14,5.5534e-05,542.79,-1.6705e-05,0.011809,-2.1617e-05,-36.899,2.3891
4504,21.414,5.2727,0.1,5.6456e-05,564.17,5.5641e-05,542.41,-1.6549e-05,0.0050386,-2.2041e-05,-41.258,2.3893
4505,21.414,5.0909,0.1,5.6695e-05,566.56,5.5779e-05,542.33,-1.6401e-05,-0.0043693,-2.2481e-05,-45.691,2.3895
4506,21.414,4.9091,0.1,5.6956e-05,569.16,5.5938e-05,542.46,-1.6261e-05,-0.010824,-2.2925e-05,-50.081,2.3897
4507,21.414,4.7273,0.1,5.7225e-05,571.86,5.6107e-05,542.75,-1.613e-05,-0.016194,-2.3359e-05,-54.332,2.3898
4508,21.414,4.5455,0.1,5.7493e-05,574.54,5.6277e-05,543.12,-1.601e-05,-0.020403,-2.3774e-05,-58.358,2.39
4509,21.414,4.3636,0.1,5.7751e-05,577.11,5.6443e-05,543.55,-1.5901e-05,-0.023762,-2.4162e-05,-62.088,2.3901
4510,21.414,4.1818,0.1,5.799e-05,579.5,5.6598e-05,543.98,-1.5805e-05,-0.026417,-2.4514e-05,-65.462,2.3902
4511,21.414,4,0.1,5.8205e-05,581.65,5.6738e-05,544.4,-1.5721e-05,-0.028502,-2.4824e-05,-68.432,2.3903
4512,21.414,3.8182,0.1,5.8391e-05,583.51,5.6859e-05,544.77,-1.565e-05,-0.030115,-2.509e-05,-70.959,2.3904
4513,21.414,3.6364,0.1,5.8544e-05,585.04,5.6959e-05,545.09,-1.5592e-05,-0.031329,-2.5306e-05,-73.013,2.3905
4514,21.414,3.4545,0.1,5.8661e-05,586.21,5.7035e-05,545.34,-1.5549e-05,-0.032195,-2.547e-05,-74.573,2.3905
4515,21.414,3.2727,0.1,5.874e-05,587,5.7087e-05,545.51,-1.552e-05,-0.032756,-2.558e-05,-75.62,2.3906
4516,21.414,3.0909,0.1,5.878e-05,587.4,5.7113e-05,545.6,-1.5506e-05,-0.033028,-2.5636e-05,-76.147,2.3906
4517,21.414,2.9091,0.1,5.878e-05,587.4,5.7113e-05,545.6,-1.5506e-05,-0.033028,-2.5636e-05,-76.147,2.3906
4518,21.414,2.7273,0.1,5.874e-05,587,5.7087e-05,545.51,-1.552e-05,-0.032756,-2.558e-05,-75.62,2.3906
4519,21.414,2.5455,0.1,5.8661e-05,586.21,5.7035e-05,545.34,-1.5549e-05,-0.032197,-2.547e-05,-74.573,2.3905
4520,21.414,2.3636,0.1,5.8544e-05,585.04,5.6959e-05,545.09,-1.5592e-05,-0.031328,-2.5306e-05,-73.013,2.3905
4521,21.414,2.1818,0.1,5.8391e-05,583.51,5.6859e-05,544.77,-1.565e-05,-0.030116,-2.509e-05,-70.959,2.3904
4522,21.414,2,0.1,5.8205e-05,581.65,5.6738e-05,544.4,-1.5721e-05,-0.028503,-2.4824e-05,-68.432,2.3903
4523,21.414,1.8182,0.1,5.799e-05,579.5,5.6598e-05,543.98,-1.5805e-05,-0.026418,-2.4514e-05,-65.462,2.3902
4524,21.414,1.6364,0.1,5.7751e-05,577.11,5.6443e-05,543.55,-1.5901e-05,-0.023761,-2.4162e-05,-62.087,2.3901
4525,21.414,1.4545,0.1,5.7493e-05,574.54,5.6277e-05,543.12,-1.601e-05,-0.020404,-2.3774e-05,-58.358,2.39
4526,21.414,1.2727,0.1,5.7225e-05,571.86,5.6107e-05,542.75,-1.613e-05,-0.016193,-2.3359e-05,-54.332,2.3898
4527,21.414,1.0909,0.1,5.6956e-05,569.16,5.5938e-05,542.46,-1.6261e-05,-0.010824,-2.2925e-05,-50.081,2.3897
4528,21.414,0.90909,0.1,5.6695e-05,566.56,5.5779e-05,542.33,-1.6401e-05,-0.0043706,-2.2481e-05,-45.691,2.3895
4529,21.414,0.72727,0.1,5.6456e-05,564.17,5.5641e-05,542.41,-1.6549e-05,0.0050379,-2.2041e-05,-41.258,2.3893
4530,21.414,0.54545,0.1,5.6253e-05,562.14,5.5534e-05,542.79,-1.6705e-05,0.011807,-2.1617e-05,-36.899,2.3891
4531,21.414,0.36364,0.1,5.6121e-05,560.82,5.549e-05,543.7,-1.6865e-05,0.047708,-2.1243e-05,-32.853,2.3889
4532,21.414,0.18182,0.1,5.6468e-05,564.29,5.586e-05,547.74,-1.7038e-05,0.0074085,-2.1267e-05,-31.766,2.3887
4533,21.229,5.8182,0.1,6.0494e-05,604.52,5.9901e-05,588.28,-1.8393e-05,0.0057041,-2.2557e-05,-31.285,2.3581
4534,21.229,5.6364,0.1,6.0121e-05,600.8,5.9514e-05,584.19,-1.8231e-05,0.044627,-2.2493e-05,-31.981,2.3583
4535,21.229,5.4545,0.1,6.0221e-05,601.79,5.9536e-05,583.2,-1.8082e-05,0.011528,-2.2822e-05,-35.606,2.3585
4536,21.229,5.2727,0.1,6.0388e-05,603.46,5.9618e-05,582.73,-1.7937e-05,0.0054096,-2.3199e-05,-39.53,2.3588
4537,21.229,5.0909,0.1,6.0589e-05,605.47,5.9731e-05,582.53,-1.78e-05,-0.0033115,-2.3592e-05,-43.528,2.359
4538,21.229,4.9091,0.1,6.0811e-05,607.69,5.9864e-05,582.55,-1.767e-05,-0.0093569,-2.399e-05,-47.494,2.3591
4539,21.229,4.7273,0.1,6.1044e-05,610.02,6.0008e-05,582.72,-1.7549e-05,-0.014432,-2.438e-05,-51.344,2.3593
4540,21.229,4.5455,0.1,6.1278e-05,612.35,6.0156e-05,582.99,-1.7438e-05,-0.018443,-2.4755e-05,-55,2.3595
4541,21.229,4.3636,0.1,6.1504e-05,614.61,6.0301e-05,583.32,-1.7337e-05,-0.021666,-2.5106e-05,-58.396,2.3596
4542,21.229,4.1818,0.1,6.1715e-05,616.72,6.0439e-05,583.67,-1.7247e-05,-0.024231,-2.5426e-05,-61.476,2.3597
4543,21.229,4,0.1,6.1906e-05,618.63,6.0563e-05,584.02,-1.7169e-05,-0.026256,-2.5709e-05,-64.193,2.3598
4544,21.229,3.8182,0.1,6.2072e-05,620.29,6.0672e-05,584.34,-1.7103e-05,-0.027829,-2.5951e-05,-66.51,2.3599
4545,21.229,3.6364,0.1,6.2209e-05,621.66,6.0762e-05,584.62,-1.705e-05,-0.029015,-2.6149e-05,-68.397,2.36
4546,21.229,3.4545,0.1,6.2314e-05,622.71,6.0831e-05,584.83,-1.701e-05,-0.029869,-2.63e-05,-69.831,2.36
4547,21.229,3.2727,0.1,6.2385e-05,623.42,6.0878e-05,584.98,-1.6983e-05,-0.030416,-2.6401e-05,-70.795,2.3601
4548,21.229,3.0909,0.1,6.2421e-05,623.78,6.0901e-05,585.06,-1.697e-05,-0.030686,-2.6452e-05,-71.28,2.3601
4549,21.229,2.9091,0.1,6.2421e-05,623.78,6.0901e-05,585.06,-1.697e-05,-0.030687,-2.6452e-05,-71.28,2.3601
4550,21.229,2.7273,0.1,6.2385e-05,623.42,6.0878e-05,584.98,-1.6983e-05,-0.030418,-2.6401e-05,-70.795,2.3601
4551,21.229,2.5455,0.1,6.2314e-05,622.71,6.0831e-05,584.83,-1.701e-05,-0.029868,-2.63e-05,-69.831,2.36
4552,21.229,2.3636,0.1,6.2209e-05,621.66,6.0762e-05,584.62,-1.705e-05,-0.029017,-2.6149e-05,-68.397,2.36
4553,21.229,2.1818,0.1,6.2072e-05,620.29,6.0672e-05,584.34,-1.7103e-05,-0.027829,-2.5951e-05,-66.51,2.3599
4554,21.229,2,0.1,6.1906e-05,618.63,6.0563e-05,584.02,-1.7169e-05,-0.026257,-2.5709e-05,-64.193,2.3598
4555,21.229,1.8182,0.1,6.1715e-05,616.72,6.0439e-05,583.67,-1.7247e-05,-0.024231,-2.5426e-05,-61.476,2.3597
4556,21.229,1.6364,0.1,6.1504e-05,614.61,6.0301e-05,583.32,-1.7337e-05,-0.021667,-2.5106e-05,-58.396,2.3596
4557,21.229,1.4545,0.1,6.1278e-05,612.35,6.0156e-05,582.99,-1.7438e-05,-0.018444,-2.4755e-05,-55,2.3595
4558,21.229,1.2727,0.1,6.1044e-05,610.02,6.0008e-05,582.72,-1.7549e-05,-0.014431,-2.438e-05,-51.344,2.3593
4559,21.229,1.0909,0.1,6.0811e-05,607.69,5.9864e-05,582.55,-1.767e-05,-0.0093583,-2.399e-05,-47.494,2.3591
4560,21.229,0.90909,0.1,6.0589e-05,605.47,5.9731e-05,582.53,-1.78e-05,-0.0033152,-2.3592e-05,-43.527,2.359
4561,21.229,0.72727,0.1,6.0388e-05,603.46,5.9618e-05,582.73,-1.7937e-05,0.0054088,-2.3199e-05,-39.53,2.3588
4562,21.229,0.54545,0.1,6.0221e-05,601.79,5.9536e-05,583.2,-1.8082e-05,0.011526,-2.2822e-05,-35.606,2.3585
4563,21.229,0.36364,0.1,6.0121e-05,600.8,5.9514e-05,584.19,-1.8231e-05,0.044628,-2.2493e-05,-31.981,2.3583
4564,21.229,0.18182,0.1,6.0494e-05,604.52,5.9901e-05,588.28,-1.8393e-05,0.0057068,-2.2557e-05,-31.285,2.3581
4565,21.045,5.8182,0.1,6.4533e-05,644.89,6.3954e-05,628.94,-1.9752e-05,0.00432,-2.3851e-05,-30.789,2.3275
4566,21.045,5.6364,0.1,6.4138e-05,640.94,6.3552e-05,624.82,-1.9601e-05,0.041799,-2.3751e-05,-31.138,2.3278
4567,21.045,5.4545,0.1,6.4208e-05,641.64,6.3555e-05,623.76,-1.9462e-05,0.011189,-2.4039e-05,-34.382,2.328
4568,21.045,5.2727,0.1,6.4343e-05,642.99,6.3615e-05,623.2,-1.9327e-05,0.0056399,-2.4374e-05,-37.914,2.3282
4569,21.045,5.0909,0.1,6.4511e-05,644.66,6.3704e-05,622.9,-1.9199e-05,-0.0024708,-2.4724e-05,-41.517,2.3284
4570,21.045,4.9091,0.1,6.4699e-05,646.54,6.3814e-05,622.81,-1.9079e-05,-0.0081446,-2.508e-05,-45.098,2.3286
4571,21.045,4.7273,0.1,6.4898e-05,648.54,6.3935e-05,622.87,-1.8966e-05,-0.012943,-2.543e-05,-48.581,2.3288
4572,21.045,4.5455,0.1,6.51e-05,650.56,6.4062e-05,623.05,-1.8863e-05,-0.016765,-2.5767e-05,-51.896,2.329
4573,21.045,4.3636,0.1,6.5297e-05,652.52,6.4188e-05,623.28,-1.8769e-05,-0.019864,-2.6084e-05,-54.982,2.3291
4574,21.045,4.1818,0.1,6.5483e-05,654.38,6.4308e-05,623.56,-1.8686e-05,-0.022341,-2.6374e-05,-57.787,2.3292
4575,21.045,4,0.1,6.5651e-05,656.06,6.4418e-05,623.84,-1.8613e-05,-0.024306,-2.6631e-05,-60.266,2.3293
4576,21.045,3.8182,0.1,6.5798e-05,657.53,6.4514e-05,624.1,-1.8552e-05,-0.025839,-2.6852e-05,-62.385,2.3294
4577,21.045,3.6364,0.1,6.592e-05,658.74,6.4594e-05,624.33,-1.8503e-05,-0.026998,-2.7032e-05,-64.112,2.3295
4578,21.045,3.4545,0.1,6.6014e-05,659.68,6.4656e-05,624.52,-1.8466e-05,-0.027834,-2.717e-05,-65.426,2.3295
4579,21.045,3.2727,0.1,6.6077e-05,660.31,6.4698e-05,624.64,-1.8441e-05,-0.028374,-2.7262e-05,-66.311,2.3296
4580,21.045,3.0909,0.1,6.6109e-05,660.63,6.472e-05,624.71,-1.8428e-05,-0.028638,-2.7309e-05,-66.756,2.3296
4581,21.045,2.9091,0.1,6.6109e-05,660.63,6.472e-05,624.71,-1.8428e-05,-0.028637,-2.7309e-05,-66.756,2.3296
4582,21.045,2.7273,0.1,6.6077e-05,660.31,6.4698e-05,624.64,-1.8441e-05,-0.028375,-2.7262e-05,-66.311,2.3296
4583,21.045,2.5455,0.1,6.6014e-05,659.68,6.4656e-05,624.52,-1.8466e-05,-0.027835,-2.717e-05,-65.426,2.3295
4584,21.045,2.3636,0.1,6.592e-05,658.74,6.4594e-05,624.33,-1.8503e-05,-0.026998,-2.7032e-05,-64.112,2.3295
4585,21.045,2.1818,0.1,6.5798e-05,657.53,6.4514e-05,624.1,-1.8552e-05,-0.025838,-2.6852e-05,-62.384,2.3294
4586,21.045,2,0.1,6.5651e-05,656.06,6.4418e-05,623.84,-1.8613e-05,-0.024305,-2.6631e-05,-60.266,2.3293
4587,21.045,1.8182,0.1,6.5483e-05,654.38,6.4308e-05,623.56,-1.8686e-05,-0.022342,-2.6374e-05,-57.787,2.3292
4588,21.045,1.6364,0.1,6.5297e-05,652.52,6.4188e-05,623.29,-1.8769e-05,-0.019864,-2.6084e-05,-54.982,2.3291
4589,21.045,1.4545,0.1,6.51e-05,650.56,6.4062e-05,623.05,-1.8863e-05,-0.016765,-2.5767e-05,-51.896,2.329
4590,21.045,1.2727,0.1,6.4898e-05,648.54,6.3935e-05,622.87,-1.8966e-05,-0.012946,-2.543e-05,-48.581,2.3288
4591,21.045,1.0909,0.1,6.4699e-05,646.54,6.3814e-05,622.81,-1.9079e-05,-0.008145,-2.508e-05,-45.098,2.3286
4592,21.045,0.90909,0.1,6.4511e-05,644.66,6.3704e-05,622.9,-1.9199e-05,-0.0024701,-2.4724e-05,-41.516,2.3284
4593,21.045,0.72727,0.1,6.4343e-05,642.99,6.3615e-05,623.2,-1.9327e-05,0.0056366,-2.4374e-05,-37.914,2.3282
4594,21.045,0.54545,0.1,6.4208e-05,641.64,6.3555e-05,623.76,-1.9462e-05,0.011187,-2.4039e-05,-34.382,2.328
4595,21.045,0.36364,0.1,6.4138e-05,640.94,6.3552e-05,624.82,-1.9601e-05,0.0418,-2.3751e-05,-31.138,2.3278
4596,21.045,0.18182,0.1,6.4533e-05,644.89,6.3954e-05,628.94,-1.9752e-05,0.0043243,-2.3851e-05,-30.789,2.3275
4597,20.86,5.8182,0.1,6.8585e-05,685.38,6.802e-05,669.74,-2.1116e-05,0.0032065,-2.5147e-05,-30.283,2.297
4598,20.86,5.6364,0.1,6.8171e-05,681.24,6.7605e-05,665.59,-2.0974e-05,0.039203,-2.5015e-05,-30.322,2.2973
4599,20.86,5.4545,0.1,6.8216e-05,681.69,6.759e-05,664.47,-2.0845e-05,0.010822,-2.5268e-05,-33.223,2.2975
4600,20.86,5.2727,0.1,6.8322e-05,682.75,6.763e-05,663.83,-2.0719e-05,0.0057696,-2.5564e-05,-36.398,2.2978
4601,20.86,5.0909,0.1,6.8459e-05,684.12,6.7699e-05,663.44,-2.06e-05,-0.0017877,-2.5875e-05,-39.643,2.298
4602,20.86,4.9091,0.1,6.8617e-05,685.69,6.7787e-05,663.25,-2.0487e-05,-0.0071181,-2.6192e-05,-42.873,2.2982
4603,20.86,4.7273,0.1,6.8786e-05,687.39,6.7887e-05,663.21,-2.0383e-05,-0.01167,-2.6506e-05,-46.021,2.2983
4604,20.86,4.5455,0.1,6.8959e-05,689.12,6.7994e-05,663.29,-2.0286e-05,-0.01532,-2.6809e-05,-49.022,2.2985
4605,20.86,4.3636,0.1,6.913e-05,690.82,6.8102e-05,663.44,-2.0199e-05,-0.018293,-2.7094e-05,-51.821,2.2987
4606,20.86,4.1818,0.1,6.9291e-05,692.44,6.8206e-05,663.64,-2.0122e-05,-0.020684,-2.7355e-05,-54.371,2.2988
4607,20.86,4,0.1,6.9439e-05,693.91,6.8302e-05,663.85,-2.0054e-05,-0.022591,-2.7588e-05,-56.628,2.2989
4608,20.86,3.8182,0.1,6.9568e-05,695.2,6.8386e-05,664.06,-1.9998e-05,-0.024082,-2.7788e-05,-58.559,2.299
4609,20.86,3.6364,0.1,6.9676e-05,696.27,6.8457e-05,664.24,-1.9952e-05,-0.025218,-2.7952e-05,-60.137,2.2991
4610,20.86,3.4545,0.1,6.9758e-05,697.1,6.8512e-05,664.4,-1.9917e-05,-0.026036,-2.8077e-05,-61.338,2.2991
4611,20.86,3.2727,0.1,6.9815e-05,697.66,6.8549e-05,664.5,-1.9894e-05,-0.026565,-2.8162e-05,-62.147,2.2992
4612,20.86,3.0909,0.1,6.9843e-05,697.95,6.8568e-05,664.55,-1.9882e-05,-0.026825,-2.8204e-05,-62.555,2.2992
4613,20.86,2.9091,0.1,6.9843e-05,697.95,6.8568e-05,664.55,-1.9882e-05,-0.026826,-2.8204e-05,-62.555,2.2992
4614,20.86,2.7273,0.1,6.9815e-05,697.66,6.8549e-05,664.5,-1.9894e-05,-0.026563,-2.8162e-05,-62.147,2.2992
4615,20.86,2.5455,0.1,6.9758e-05,697.1,6.8512e-05,664.4,-1.9917e-05,-0.026036,-2.8077e-05,-61.338,2.2991
4616,20.86,2.3636,0.1,6.9676e-05,696.27,6.8457e-05,664.24,-1.9952e-05,-0.025217,-2.7952e-05,-60.137,2.2991
4617,20.86,2.1818,0.1,6.9568e-05,695.2,6.8386e-05,664.06,-1.9998e-05,-0.024084,-2.7788e-05,-58.559,2.299
4618,20.86,2,0.1,6.9439e-05,693.91,6.8302e-05,663.85,-2.0054e-05,-0.02259,-2.7588e-05,-56.628,2.2989
4619,20.86,1.8182,0.1,6.9291e-05,692.44,6.8206e-05,663.64,-2.0122e-05,-0.020683,-2.7355e-05,-54.371,2.2988
4620,20.86,1.6364,0.1,6.913e-05,690.82,6.8102e-05,663.44,-2.0199e-05,-0.018293,-2.7094e-05,-51.821,2.2987
4621,20.86,1.4545,0.1,6.8959e-05,689.12,6.7994e-05,663.29,-2.0286e-05,-0.01532,-2.6809e-05,-49.022,2.2985
4622,20.86,1.2727,0.1,6.8786e-05,687.39,6.7887e-05,663.21,-2.0383e-05,-0.011668,-2.6506e-05,-46.021,2.2983
4623,20.86,1.0909,0.1,6.8617e-05,685.69,6.7787e-05,663.25,-2.0487e-05,-0.0071208,-2.6192e-05,-42.873,2.2982
4624,20.86,0.90909,0.1,6.8459e-05,684.12,6.7699e-05,663.44,-2.06e-05,-0.0017885,-2.5875e-05,-39.643,2.298
4625,20.86,0.72727,0.1,6.8322e-05,682.75,6.763e-05,663.83,-2.0719e-05,0.0057694,-2.5564e-05,-36.398,2.2978
4626,20.86,0.54545,0.1,6.8216e-05,681.69,6.759e-05,664.47,-2.0845e-05,0.010821,-2.5268e-05,-33.223,2.2975
4627,20.86,0.36364,0.1,6.8171e-05,681.24,6.7605e-05,665.59,-2.0975e-05,0.039206,-2.5015e-05,-30.322,2.2973
4628,20.86,0.18182,0.1,6.8585e-05,685.38,6.802e-05,669.74,-2.1116e-05,0.003208,-2.5147e-05,-30.283,2.297
4629,20.675,5.8182,0.1,7.2651e-05,726.01,7.2099e-05,710.66,-2.2485e-05,0.0023095,-2.6447e-05,-29.772,2.2666
4630,20.675,5.6364,0.1,7.2221e-05,721.71,7.1673e-05,706.51,-2.2352e-05,0.036827,-2.6287e-05,-29.533,2.2668
4631,20.675,5.4545,0.1,7.2242e-05,721.93,7.1642e-05,705.33,-2.223e-05,0.010448,-2.6507e-05,-32.122,2.2671
4632,20.675,5.2727,0.1,7.2323e-05,722.73,7.1665e-05,704.61,-2.2113e-05,0.0058314,-2.6768e-05,-34.974,2.2673
4633,20.675,5.0909,0.1,7.2433e-05,723.83,7.1714e-05,704.14,-2.2001e-05,-0.0012296,-2.7045e-05,-37.894,2.2675
4634,20.675,4.9091,0.1,7.2563e-05,725.13,7.1782e-05,703.86,-2.1897e-05,-0.0062506,-2.7327e-05,-40.804,2.2677
4635,20.675,4.7273,0.1,7.2705e-05,726.55,7.1864e-05,703.74,-2.1799e-05,-0.010569,-2.7606e-05,-43.645,2.2679
4636,20.675,4.5455,0.1,7.2852e-05,728.02,7.1952e-05,703.73,-2.171e-05,-0.014055,-2.7878e-05,-46.358,2.2681
4637,20.675,4.3636,0.1,7.2998e-05,729.48,7.2043e-05,703.8,-2.1628e-05,-0.016912,-2.8133e-05,-48.893,2.2683
4638,20.675,4.1818,0.1,7.3138e-05,730.87,7.2132e-05,703.92,-2.1556e-05,-0.019221,-2.8369e-05,-51.205,2.2684
4639,20.675,4,0.1,7.3266e-05,732.16,7.2214e-05,704.06,-2.1494e-05,-0.021064,-2.8579e-05,-53.256,2.2685
4640,20.675,3.8182,0.1,7.3379e-05,733.28,7.2288e-05,704.22,-2.1441e-05,-0.022524,-2.876e-05,-55.013,2.2686
4641,20.675,3.6364,0.1,7.3473e-05,734.22,7.2349e-05,704.36,-2.1398e-05,-0.023631,-2.8908e-05,-56.449,2.2687
4642,20.675,3.4545,0.1,7.3546e-05,734.95,7.2397e-05,704.48,-2.1366e-05,-0.024432,-2.9021e-05,-57.544,2.2687
4643,20.675,3.2727,0.1,7.3595e-05,735.44,7.243e-05,704.56,-2.1344e-05,-0.024952,-2.9098e-05,-58.283,2.2688
4644,20.675,3.0909,0.1,7.362e-05,735.7,7.2447e-05,704.6,-2.1333e-05,-0.025206,-2.9137e-05,-58.654,2.2688
4645,20.675,2.9091,0.1,7.362e-05,735.7,7.2447e-05,704.6,-2.1333e-05,-0.025206,-2.9137e-05,-58.654,2.2688
4646,20.675,2.7273,0.1,7.3595e-05,735.44,7.243e-05,704.56,-2.1344e-05,-0.024951,-2.9098e-05,-58.283,2.2688
4647,20.675,2.5455,0.1,7.3546e-05,734.95,7.2397e-05,704.48,-2.1366e-05,-0.024432,-2.9021e-05,-57.544,2.2687
4648,20.675,2.3636,0.1,7.3473e-05,734.22,7.2349e-05,704.36,-2.1398e-05,-0.023633,-2.8908e-05,-56.449,2.2687
4649,20.675,2.1818,0.1,7.3379e-05,733.28,7.2288e-05,704.22,-2.1441e-05,-0.022524,-2.876e-05,-55.013,2.2686
4650,20.675,2,0.1,7.3266e-05,732.16,7.2214e-05,704.06,-2.1494e-05,-0.021064,-2.8579e-05,-53.256,2.2685
4651,20.675,1.8182,0.1,7.3138e-05,730.87,7.2132e-05,703.92,-2.1556e-05,-0.019221,-2.8369e-05,-51.205,2.2684
4652,20.675,1.6364,0.1,7.2998e-05,729.48,7.2043e-05,703.8,-2.1628e-05,-0.016913,-2.8133e-05,-48.893,2.2683
4653,20.675,1.4545,0.1,7.2852e-05,728.02,7.1953e-05,703.73,-2.171e-05,-0.014057,-2.7878e-05,-46.358,2.2681
4654,20.675,1.2727,0.1,7.2705e-05,726.55,7.1864e-05,703.74,-2.1799e-05,-0.010568,-2.7606e-05,-43.645,2.2679
4655,20.675,1.0909,0.1,7.2563e-05,725.13,7.1782e-05,703.86,-2.1897e-05,-0.006252,-2.7327e-05,-40.804,2.2677
4656,20.675,0.90909,0.1,7.2433e-05,723.83,7.1714e-05,704.14,-2.2001e-05,-0.0012305,-2.7045e-05,-37.893,2.2675
4657,20.675,0.72727,0.1,7.2323e-05,722.73,7.1665e-05,704.61,-2.2113e-05,0.0058277,-2.6768e-05,-34.974,2.2673
4658,20.675,0.54545,0.1,7.2242e-05,721.93,7.1642e-05,705.33,-2.223e-05,0.010449,-2.6507e-05,-32.122,2.2671
4659,20.675,0.36364,0.1,7.2221e-05,721.71,7.1673e-05,706.51,-2.2352e-05,0.036827,-2.6287e-05,-29.533,2.2668
4660,20.675,0.18182,0.1,7.2651e-05,726.01,7.2099e-05,710.66,-2.2485e-05,0.0023097,-2.6447e-05,-29.772,2.2666
4661,20.491,5.8182,0.1,7.6731e-05,766.78,7.6191e-05,751.73,-2.3858e-05,0.0015917,-2.7752e-05,-29.257,2.2361
4662,20.491,5.6364,0.1,7.6287e-05,762.34,7.5757e-05,747.56,-2.3733e-05,0.034649,-2.7567e-05,-28.77,2.2364
4663,20.491,5.4545,0.1,7.6288e-05,762.35,7.5712e-05,746.34,-2.3619e-05,0.010076,-2.7756e-05,-31.075,2.2367
4664,20.491,5.2727,0.1,7.6346e-05,762.93,7.5718e-05,745.56,-2.3509e-05,0.0058405,-2.7986e-05,-33.634,2.2369
4665,20.491,5.0909,0.1,7.6431e-05,763.78,7.575e-05,745.01,-2.3405e-05,-0.00076701,-2.8231e-05,-36.258,2.2372
4666,20.491,4.9091,0.1,7.6536e-05,764.83,7.58e-05,744.65,-2.3307e-05,-0.0055039,-2.8481e-05,-38.877,2.2374
4667,20.491,4.7273,0.1,7.6653e-05,766.01,7.5864e-05,744.44,-2.3216e-05,-0.0096058,-2.873e-05,-41.437,2.2376
4668,20.491,4.5455,0.1,7.6777e-05,767.24,7.5936e-05,744.35,-2.3133e-05,-0.012944,-2.8972e-05,-43.886,2.2377
4669,20.491,4.3636,0.1,7.6901e-05,768.48,7.6011e-05,744.34,-2.3057e-05,-0.015689,-2.9201e-05,-46.177,2.2379
4670,20.491,4.1818,0.1,7.702e-05,769.67,7.6085e-05,744.39,-2.299e-05,-0.017919,-2.9412e-05,-48.271,2.238
4671,20.491,4,0.1,7.7131e-05,770.78,7.6155e-05,744.48,-2.2931e-05,-0.019715,-2.9601e-05,-50.13,2.2382
4672,20.491,3.8182,0.1,7.7228e-05,771.75,7.6218e-05,744.58,-2.2882e-05,-0.021129,-2.9763e-05,-51.724,2.2383
4673,20.491,3.6364,0.1,7.731e-05,772.57,7.6271e-05,744.68,-2.2842e-05,-0.02221,-2.9897e-05,-53.029,2.2383
4674,20.491,3.4545,0.1,7.7373e-05,773.2,7.6312e-05,744.76,-2.2812e-05,-0.022993,-3e-05,-54.025,2.2384
4675,20.491,3.2727,0.1,7.7417e-05,773.63,7.6341e-05,744.82,-2.2792e-05,-0.023501,-3.0069e-05,-54.697,2.2384
4676,20.491,3.0909,0.1,7.7439e-05,773.85,7.6355e-05,744.86,-2.2782e-05,-0.02375,-3.0104e-05,-55.035,2.2385
4677,20.491,2.9091,0.1,7.7439e-05,773.85,7.6355e-05,744.86,-2.2782e-05,-0.023752,-3.0104e-05,-55.035,2.2385
4678,20.491,2.7273,0.1,7.7417e-05,773.63,7.6341e-05,744.82,-2.2792e-05,-0.023503,-3.0069e-05,-54.697,2.2384
4679,20.491,2.5455,0.1,7.7373e-05,773.2,7.6312e-05,744.76,-2.2812e-05,-0.022994,-3e-05,-54.025,2.2384
4680,20.491,2.3636,0.1,7.731e-05,772.57,7.6271e-05,744.68,-2.2842e-05,-0.02221,-2.9897e-05,-53.029,2.2383
4681,20.491,2.1818,0.1,7.7228e-05,771.75,7.6218e-05,744.58,-2.2882e-05,-0.021131,-2.9763e-05,-51.724,2.2383
4682,20.491,2,0.1,7.7131e-05,770.78,7.6155e-05,744.48,-2.2931e-05,-0.019715,-2.9601e-05,-50.13,2.2382
4683,20.491,1.8182,0.1,7.702e-05,769.67,7.6085e-05,744.39,-2.299e-05,-0.017921,-2.9412e-05,-48.271,2.238
4684,20.491,1.6364,0.1,7.6901e-05,768.48,7.6011e-05,744.34,-2.3057e-05,-0.015688,-2.9201e-05,-46.177,2.2379
4685,20.491,1.4545,0.1,7.6777e-05,767.24,7.5936e-05,744.35,-2.3133e-05,-0.012942,-2.8972e-05,-43.886,2.2377
4686,20.491,1.2727,0.1,7.6653e-05,766.01,7.5864e-05,744.44,-2.3216e-05,-0.0096058,-2.873e-05,-41.437,2.2376
4687,20.491,1.0909,0.1,7.6536e-05,764.83,7.58e-05,744.65,-2.3307e-05,-0.0055051,-2.8481e-05,-38.877,2.2374
4688,20.491,0.90909,0.1,7.6431e-05,763.78,7.575e-05,745.01,-2.3405e-05,-0.00077013,-2.8231e-05,-36.257,2.2372
4689,20.491,0.72727,0.1,7.6346e-05,762.93,7.5718e-05,745.56,-2.3509e-05,0.005839,-2.7986e-05,-33.634,2.2369
4690,20.491,0.54545,0.1,7.6288e-05,762.35,7.5712e-05,746.34,-2.3619e-05,0.010081,-2.7756e-05,-31.075,2.2367
4691,20.491,0.36364,0.1,7.6287e-05,762.34,7.5757e-05,747.56,-2.3733e-05,0.03465,-2.7567e-05,-28.77,2.2364
4692,20.491,0.18182,0.1,7.6731e-05,766.78,7.6191e-05,751.73,-2.3858e-05,0.0015906,-2.7752e-05,-29.257,2.2361
4693,20.306,5.8182,0.1,8.0825e-05,807.69,8.0298e-05,792.94,-2.5236e-05,0.0010123,-2.9061e-05,-28.742,2.2058
4694,20.306,5.6364,0.1,8.0369e-05,803.14,7.9856e-05,788.77,-2.5118e-05,0.03264,-2.8854e-05,-28.033,2.2061
4695,20.306,5.4545,0.1,8.0352e-05,802.97,7.9798e-05,787.51,-2.5011e-05,0.009702,-2.9016e-05,-30.08,2.2063
4696,20.306,5.2727,0.1,8.0389e-05,803.34,7.979e-05,786.67,-2.4908e-05,0.0058044,-2.9217e-05,-32.372,2.2066
4697,20.306,5.0909,0.1,8.0453e-05,803.97,7.9806e-05,786.05,-2.4811e-05,-0.00039237,-2.9432e-05,-34.725,2.2068
4698,20.306,4.9091,0.1,8.0535e-05,804.8,7.984e-05,785.62,-2.4719e-05,-0.0048696,-2.9654e-05,-37.079,2.2071
4699,20.306,4.7273,0.1,8.063e-05,805.75,7.9888e-05,785.33,-2.4634e-05,-0.0087727,-2.9874e-05,-39.382,2.2073
4700,20.306,4.5455,0.1,8.0733e-05,806.77,7.9944e-05,785.16,-2.4556e-05,-0.011966,-3.009e-05,-41.589,2.2074
4701,20.306,4.3636,0.1,8.0836e-05,807.81,8.0005e-05,785.09,-2.4485e-05,-0.014609,-3.0294e-05,-43.657,2.2076
4702,20.306,4.1818,0.1,8.0937e-05,808.81,8.0066e-05,785.07,-2.4423e-05,-0.016767,-3.0483e-05,-45.548,2.2077
4703,20.306,4,0.1,8.1031e-05,809.75,8.0124e-05,785.1,-2.4368e-05,-0.018506,-3.0652e-05,-47.23,2.2079
4704,20.306,3.8182,0.1,8.1115e-05,810.59,8.0177e-05,785.15,-2.4322e-05,-0.019884,-3.0798e-05,-48.674,2.208
4705,20.306,3.6364,0.1,8.1185e-05,811.29,8.0222e-05,785.2,-2.4285e-05,-0.02094,-3.0918e-05,-49.857,2.208
4706,20.306,3.4545,0.1,8.124e-05,811.84,8.0257e-05,785.26,-2.4257e-05,-0.021705,-3.101e-05,-50.76,2.2081
4707,20.306,3.2727,0.1,8.1277e-05,812.21,8.0281e-05,785.3,-2.4239e-05,-0.022204,-3.1073e-05,-51.37,2.2082
4708,20.306,3.0909,0.1,8.1296e-05,812.4,8.0293e-05,785.32,-2.4229e-05,-0.022449,-3.1104e-05,-51.677,2.2082
4709,20.306,2.9091,0.1,8.1296e-05,812.4,8.0293e-05,785.32,-2.4229e-05,-0.022448,-3.1104e-05,-51.677,2.2082
4710,20.306,2.7273,0.1,8.1277e-05,812.21,8.0281e-05,785.3,-2.4239e-05,-0.022204,-3.1073e-05,-51.37,2.2082
4711,20.306,2.5455,0.1,8.124e-05,811.84,8.0257e-05,785.26,-2.4257e-05,-0.021706,-3.101e-05,-50.76,2.2081
4712,20.306,2.3636,0.1,8.1185e-05,811.29,8.0222e-05,785.2,-2.4285e-05,-0.020939,-3.0918e-05,-49.857,2.208
4713,20.306,2.1818,0.1,8.1115e-05,810.59,8.0177e-05,785.15,-2.4322e-05,-0.019884,-3.0798e-05,-48.674,2.208
4714,20.306,2,0.1,8.1031e-05,809.75,8.0124e-05,785.1,-2.4368e-05,-0.018508,-3.0652e-05,-47.23,2.2079
4715,20.306,1.8182,0.1,8.0937e-05,808.81,8.0066e-05,785.07,-2.4423e-05,-0.016767,-3.0483e-05,-45.548,2.2077
4716,20.306,1.6364,0.1,8.0836e-05,807.81,8.0005e-05,785.09,-2.4485e-05,-0.014609,-3.0294e-05,-43.657,2.2076
4717,20.306,1.4545,0.1,8.0733e-05,806.77,7.9944e-05,785.16,-2.4556e-05,-0.011967,-3.009e-05,-41.589,2.2074
4718,20.306,1.2727,0.1,8.063e-05,805.75,7.9888e-05,785.33,-2.4634e-05,-0.008773,-2.9874e-05,-39.382,2.2073
4719,20.306,1.0909,0.1,8.0535e-05,804.8,7.984e-05,785.62,-2.4719e-05,-0.0048693,-2.9653e-05,-37.079,2.2071
4720,20.306,0.90909,0.1,8.0453e-05,803.97,7.9806e-05,786.05,-2.4811e-05,-0.00039588,-2.9432e-05,-34.725,2.2068
4721,20.306,0.72727,0.1,8.0389e-05,803.34,7.979e-05,786.67,-2.4908e-05,0.0058027,-2.9217e-05,-32.372,2.2066
4722,20.306,0.54545,0.1,8.0352e-05,802.97,7.9798e-05,787.51,-2.5011e-05,0.0097056,-2.9016e-05,-30.08,2.2063
4723,20.306,0.36364,0.1,8.0369e-05,803.14,7.9856e-05,788.77,-2.5118e-05,0.03264,-2.8854e-05,-28.033,2.2061
4724,20.306,0.18182,0.1,8.0825e-05,807.69,8.0298e-05,792.94,-2.5236e-05,0.0010113,-2.9061e-05,-28.742,2.2058
4725,20.121,5.8182,0.1,8.4935e-05,848.76,8.4419e-05,834.29,-2.6618e-05,0.00055314,-3.0376e-05,-28.229,2.1755
4726,20.121,5.6364,0.1,8.4469e-05,844.11,8.3972e-05,830.13,-2.6508e-05,0.030793,-3.0148e-05,-27.321,2.1758
4727,20.121,5.4545,0.1,8.4435e-05,843.77,8.3902e-05,828.83,-2.6407e-05,0.0093406,-3.0286e-05,-29.133,2.1761
4728,20.121,5.2727,0.1,8.4454e-05,843.96,8.388e-05,827.94,-2.6311e-05,0.0057418,-3.0461e-05,-31.181,2.1763
4729,20.121,5.0909,0.1,8.4498e-05,844.4,8.3882e-05,827.26,-2.6219e-05,-8.0636e-05,-3.065e-05,-33.288,2.1766
4730,20.121,4.9091,0.1,8.456e-05,845.02,8.3902e-05,826.76,-2.6133e-05,-0.0043182,-3.0844e-05,-35.399,2.1768
4731,20.121,4.7273,0.1,8.4635e-05,845.77,8.3935e-05,826.41,-2.6054e-05,-0.0080369,-3.1039e-05,-37.468,2.177
4732,20.121,4.5455,0.1,8.4717e-05,846.59,8.3977e-05,826.17,-2.5981e-05,-0.011098,-3.123e-05,-39.453,2.1772
4733,20.121,4.3636,0.1,8.4803e-05,847.44,8.4024e-05,826.02,-2.5915e-05,-0.013642,-3.1412e-05,-41.315,2.1774
4734,20.121,4.1818,0.1,8.4887e-05,848.28,8.4073e-05,825.95,-2.5856e-05,-0.015729,-3.158e-05,-43.021,2.1775
4735,20.121,4,0.1,8.4966e-05,849.07,8.412e-05,825.92,-2.5805e-05,-0.017419,-3.1731e-05,-44.539,2.1776
4736,20.121,3.8182,0.1,8.5037e-05,849.78,8.4164e-05,825.92,-2.5762e-05,-0.018758,-3.1861e-05,-45.844,2.1777
4737,20.121,3.6364,0.1,8.5096e-05,850.38,8.4201e-05,825.94,-2.5728e-05,-0.019791,-3.1969e-05,-46.914,2.1778
4738,20.121,3.4545,0.1,8.5143e-05,850.84,8.423e-05,825.96,-2.5701e-05,-0.02054,-3.2051e-05,-47.732,2.1779
4739,20.121,3.2727,0.1,8.5175e-05,851.16,8.4251e-05,825.98,-2.5684e-05,-0.021026,-3.2107e-05,-48.284,2.1779
4740,20.121,3.0909,0.1,8.5191e-05,851.33,8.4261e-05,826,-2.5675e-05,-0.021267,-3.2136e-05,-48.562,2.1779
4741,20.121,2.9091,0.1,8.5191e-05,851.33,8.4261e-05,826,-2.5675e-05,-0.021266,-3.2136e-05,-48.562,2.1779
4742,20.121,2.7273,0.1,8.5175e-05,851.16,8.4251e-05,825.98,-2.5684e-05,-0.02103,-3.2107e-05,-48.284,2.1779
4743,20.121,2.5455,0.1,8.5143e-05,850.84,8.423e-05,825.96,-2.5701e-05,-0.020538,-3.2051e-05,-47.732,2.1779
4744,20.121,2.3636,0.1,8.5096e-05,850.38,8.4201e-05,825.94,-2.5728e-05,-0.019792,-3.1969e-05,-46.914,2.1778
4745,20.121,2.1818,0.1,8.5037e-05,849.78,8.4164e-05,825.92,-2.5762e-05,-0.01876,-3.1861e-05,-45.844,2.1777
4746,20.121,2,0.1,8.4966e-05,849.07,8.412e-05,825.92,-2.5805e-05,-0.017419,-3.1731e-05,-44.539,2.1776
4747,20.121,1.8182,0.1,8.4887e-05,848.28,8.4073e-05,825.95,-2.5856e-05,-0.01573,-3.158e-05,-43.021,2.1775
4748,20.121,1.6364,0.1,8.4803e-05,847.44,8.4024e-05,826.02,-2.5915e-05,-0.013642,-3.1412e-05,-41.315,2.1774
4749,20.121,1.4545,0.1,8.4717e-05,846.59,8.3977e-05,826.17,-2.5981e-05,-0.011098,-3.123e-05,-39.453,2.1772
4750,20.121,1.2727,0.1,8.4635e-05,845.77,8.3935e-05,826.41,-2.6054e-05,-0.0080362,-3.1039e-05,-37.468,2.177
4751,20.121,1.0909,0.1,8.456e-05,845.02,8.3902e-05,826.76,-2.6133e-05,-0.0043177,-3.0844e-05,-35.399,2.1768
4752,20.121,0.90909,0.1,8.4498e-05,844.4,8.3882e-05,827.26,-2.6219e-05,-8.3223e-05,-3.065e-05,-33.288,2.1766
4753,20.121,0.72727,0.1,8.4454e-05,843.96,8.388e-05,827.94,-2.6311e-05,0.0057423,-3.0461e-05,-31.18,2.1763
4754,20.121,0.54545,0.1,8.4435e-05,843.77,8.3902e-05,828.83,-2.6407e-05,0.0093392,-3.0286e-05,-29.133,2.1761
4755,20.121,0.36364,0.1,8.4469e-05,844.11,8.3972e-05,830.13,-2.6508e-05,0.030795,-3.0148e-05,-27.321,2.1758
4756,20.121,0.18182,0.1,8.4935e-05,848.76,8.4419e-05,834.29,-2.6618e-05,0.00055649,-3.0376e-05,-28.229,2.1755
4757,19.936,5.8182,0.1,8.906e-05,889.98,8.8556e-05,875.8,-2.8006e-05,0.00019365,-3.1695e-05,-27.72,2.1452
4758,19.936,5.6364,0.1,8.8586e-05,885.25,8.8103e-05,871.65,-2.7902e-05,0.029094,-3.145e-05,-26.634,2.1455
4759,19.936,5.4545,0.1,8.8538e-05,884.77,8.8024e-05,870.32,-2.7807e-05,0.0089918,-3.1566e-05,-28.231,2.1458
4760,19.936,5.2727,0.1,8.8539e-05,884.78,8.799e-05,869.38,-2.7716e-05,0.0056619,-3.1717e-05,-30.056,2.1461
4761,19.936,5.0909,0.1,8.8566e-05,885.04,8.7979e-05,868.64,-2.763e-05,0.00018085,-3.1881e-05,-31.939,2.1463
4762,19.936,4.9091,0.1,8.8609e-05,885.48,8.7985e-05,868.08,-2.755e-05,-0.0038374,-3.2052e-05,-33.828,2.1466
4763,19.936,4.7273,0.1,8.8666e-05,886.05,8.8005e-05,867.66,-2.7475e-05,-0.0073837,-3.2223e-05,-35.683,2.1468
4764,19.936,4.5455,0.1,8.8731e-05,886.7,8.8034e-05,867.37,-2.7407e-05,-0.01032,-3.2392e-05,-37.465,2.147
4765,19.936,4.3636,0.1,8.88e-05,887.38,8.8069e-05,867.16,-2.7345e-05,-0.012773,-3.2552e-05,-39.139,2.1472
4766,19.936,4.1818,0.1,8.8868e-05,888.07,8.8106e-05,867.03,-2.729e-05,-0.014795,-3.2701e-05,-40.674,2.1473
4767,19.936,4,0.1,8.8934e-05,888.72,8.8143e-05,866.95,-2.7242e-05,-0.016435,-3.2836e-05,-42.041,2.1474
4768,19.936,3.8182,0.1,8.8992e-05,889.31,8.8178e-05,866.91,-2.7202e-05,-0.017743,-3.2952e-05,-43.218,2.1476
4769,19.936,3.6364,0.1,8.9043e-05,889.81,8.8208e-05,866.89,-2.717e-05,-0.018749,-3.3048e-05,-44.183,2.1476
4770,19.936,3.4545,0.1,8.9082e-05,890.2,8.8232e-05,866.88,-2.7145e-05,-0.019479,-3.3122e-05,-44.921,2.1477
4771,19.936,3.2727,0.1,8.9109e-05,890.48,8.8249e-05,866.89,-2.7129e-05,-0.019957,-3.3172e-05,-45.42,2.1478
4772,19.936,3.0909,0.1,8.9123e-05,890.61,8.8258e-05,866.89,-2.7121e-05,-0.020193,-3.3197e-05,-45.672,2.1478
4773,19.936,2.9091,0.1,8.9123e-05,890.61,8.8258e-05,866.89,-2.7121e-05,-0.020193,-3.3197e-05,-45.672,2.1478
4774,19.936,2.7273,0.1,8.9109e-05,890.48,8.8249e-05,866.89,-2.7129e-05,-0.019957,-3.3172e-05,-45.42,2.1478
4775,19.936,2.5455,0.1,8.9082e-05,890.2,8.8232e-05,866.88,-2.7145e-05,-0.019481,-3.3122e-05,-44.921,2.1477
4776,19.936,2.3636,0.1,8.9043e-05,889.81,8.8208e-05,866.89,-2.717e-05,-0.018748,-3.3048e-05,-44.183,2.1476
4777,19.936,2.1818,0.1,8.8992e-05,889.31,8.8178e-05,866.91,-2.7202e-05,-0.017742,-3.2952e-05,-43.218,2.1476
4778,19.936,2,0.1,8.8934e-05,888.72,8.8143e-05,866.95,-2.7242e-05,-0.016435,-3.2836e-05,-42.041,2.1474
4779,19.936,1.8182,0.1,8.8868e-05,888.07,8.8106e-05,867.03,-2.729e-05,-0.014794,-3.2701e-05,-40.674,2.1473
4780,19.936,1.6364,0.1,8.88e-05,887.38,8.8069e-05,867.16,-2.7345e-05,-0.012774,-3.2552e-05,-39.139,2.1472
4781,19.936,1.4545,0.1,8.8731e-05,886.7,8.8034e-05,867.37,-2.7407e-05,-0.010322,-3.2392e-05,-37.465,2.147
4782,19.936,1.2727,0.1,8.8666e-05,886.05,8.8005e-05,867.66,-2.7475e-05,-0.0073834,-3.2223e-05,-35.683,2.1468
4783,19.936,1.0909,0.1,8.8609e-05,885.48,8.7985e-05,868.08,-2.755e-05,-0.0038382,-3.2052e-05,-33.828,2.1466
4784,19.936,0.90909,0.1,8.8566e-05,885.04,8.7979e-05,868.64,-2.763e-05,0.00017949,-3.1881e-05,-31.939,2.1463
4785,19.936,0.72727,0.1,8.8539e-05,884.78,8.799e-05,869.38,-2.7716e-05,0.0056588,-3.1717e-05,-30.056,2.1461
4786,19.936,0.54545,0.1,8.8538e-05,884.77,8.8024e-05,870.32,-2.7807e-05,0.0089874,-3.1566e-05,-28.23,2.1458
4787,19.936,0.36364,0.1,8.8586e-05,885.25,8.8103e-05,871.65,-2.7902e-05,0.029097,-3.145e-05,-26.634,2.1455
4788,19.936,0.18182,0.1,8.906e-05,889.98,8.8556e-05,875.8,-2.8006e-05,0.00019514,-3.1695e-05,-27.72,2.1452
4789,19.752,5.8182,0.1,9.3201e-05,931.37,9.2708e-05,917.46,-2.9398e-05,-9.5536e-05,-3.3021e-05,-27.216,2.115
4790,19.752,5.6364,0.1,9.2721e-05,926.57,9.2252e-05,913.32,-2.93e-05,0.027518,-3.276e-05,-25.971,2.1153
4791,19.752,5.4545,0.1,9.2659e-05,925.95,9.2163e-05,911.96,-2.9211e-05,0.0086506,-3.2855e-05,-27.371,2.1156
4792,19.752,5.2727,0.1,9.2646e-05,925.82,9.2118e-05,910.98,-2.9125e-05,0.0055589,-3.2985e-05,-28.993,2.1159
4793,19.752,5.0909,0.1,9.2656e-05,925.92,9.2096e-05,910.2,-2.9044e-05,0.00039003,-3.3127e-05,-30.671,2.1162
4794,19.752,4.9091,0.1,9.2683e-05,926.19,9.209e-05,909.59,-2.8969e-05,-0.0034236,-3.3275e-05,-32.358,2.1164
4795,19.752,4.7273,0.1,9.2723e-05,926.59,9.2097e-05,909.11,-2.8899e-05,-0.0068113,-3.3425e-05,-34.016,2.1167
4796,19.752,4.5455,0.1,9.2772e-05,927.08,9.2115e-05,908.75,-2.8835e-05,-0.0096328,-3.3573e-05,-35.612,2.1169
4797,19.752,4.3636,0.1,9.2825e-05,927.61,9.2138e-05,908.49,-2.8777e-05,-0.012,-3.3714e-05,-37.113,2.117
4798,19.752,4.1818,0.1,9.288e-05,928.16,9.2165e-05,908.31,-2.8725e-05,-0.013955,-3.3846e-05,-38.491,2.1172
4799,19.752,4,0.1,9.2933e-05,928.69,9.2193e-05,908.18,-2.8681e-05,-0.015552,-3.3965e-05,-39.72,2.1173
4800,19.752,3.8182,0.1,9.2981e-05,929.17,9.222e-05,908.1,-2.8643e-05,-0.016824,-3.4068e-05,-40.779,2.1174
4801,19.752,3.6364,0.1,9.3022e-05,929.58,9.2243e-05,908.05,-2.8613e-05,-0.017806,-3.4153e-05,-41.648,2.1175
4802,19.752,3.4545,0.1,9.3055e-05,929.91,9.2262e-05,908.02,-2.859e-05,-0.018524,-3.4219e-05,-42.313,2.1176
4803,19.752,3.2727,0.1,9.3077e-05,930.13,9.2276e-05,908,-2.8575e-05,-0.018991,-3.4263e-05,-42.762,2.1176
4804,19.752,3.0909,0.1,9.3089e-05,930.25,9.2283e-05,908,-2.8567e-05,-0.019222,-3.4286e-05,-42.989,2.1177
4805,19.752,2.9091,0.1,9.3089e-05,930.25,9.2283e-05,908,-2.8567e-05,-0.019222,-3.4286e-05,-42.989,2.1177
4806,19.752,2.7273,0.1,9.3077e-05,930.13,9.2276e-05,908,-2.8575e-05,-0.018992,-3.4263e-05,-42.762,2.1176
4807,19.752,2.5455,0.1,9.3055e-05,929.91,9.2262e-05,908.02,-2.859e-05,-0.018523,-3.4219e-05,-42.313,2.1176
4808,19.752,2.3636,0.1,9.3022e-05,929.58,9.2243e-05,908.05,-2.8613e-05,-0.017808,-3.4153e-05,-41.648,2.1175
4809,19.752,2.1818,0.1,9.2981e-05,929.17,9.222e-05,908.1,-2.8643e-05,-0.016825,-3.4068e-05,-40.779,2.1174
4810,19.752,2,0.1,9.2933e-05,928.69,9.2193e-05,908.18,-2.8681e-05,-0.015551,-3.3965e-05,-39.72,2.1173
4811,19.752,1.8182,0.1,9.288e-05,928.16,9.2165e-05,908.31,-2.8725e-05,-0.013955,-3.3846e-05,-38.491,2.1172
4812,19.752,1.6364,0.1,9.2825e-05,927.61,9.2138e-05,908.49,-2.8777e-05,-0.012001,-3.3714e-05,-37.113,2.117
4813,19.752,1.4545,0.1,9.2772e-05,927.08,9.2115e-05,908.75,-2.8835e-05,-0.0096316,-3.3573e-05,-35.612,2.1169
4814,19.752,1.2727,0.1,9.2723e-05,926.59,9.2097e-05,909.11,-2.8899e-05,-0.0068122,-3.3425e-05,-34.016,2.1167
4815,19.752,1.0909,0.1,9.2683e-05,926.19,9.209e-05,909.59,-2.8969e-05,-0.0034243,-3.3275e-05,-32.358,2.1164
4816,19.752,0.90909,0.1,9.2656e-05,925.92,9.2096e-05,910.2,-2.9044e-05,0.00038958,-3.3127e-05,-30.671,2.1162
4817,19.752,0.72727,0.1,9.2646e-05,925.82,9.2118e-05,910.98,-2.9125e-05,0.0055555,-3.2985e-05,-28.993,2.1159
4818,19.752,0.54545,0.1,9.2659e-05,925.95,9.2163e-05,911.96,-2.9211e-05,0.0086482,-3.2855e-05,-27.371,2.1156
4819,19.752,0.36364,0.1,9.2721e-05,926.57,9.2252e-05,913.32,-2.93e-05,0.02752,-3.276e-05,-25.971,2.1153
4820,19.752,0.18182,0.1,9.3201e-05,931.37,9.2708e-05,917.46,-2.9398e-05,-9.4076e-05,-3.3021e-05,-27.216,2.115
4821,19.567,5.8182,0.1,9.7359e-05,972.91,9.6877e-05,959.28,-3.0796e-05,-0.0003125,-3.4352e-05,-26.719,2.0849
4822,19.567,5.6364,0.1,9.6873e-05,968.06,9.6418e-05,955.16,-3.0703e-05,0.026068,-3.4078e-05,-25.331,2.0852
4823,19.567,5.4545,0.1,9.6799e-05,967.32,9.632e-05,953.78,-3.0619e-05,0.0083286,-3.4154e-05,-26.551,2.0855
4824,19.567,5.2727,0.1,9.6772e-05,967.06,9.6266e-05,952.76,-3.0538e-05,0.0054503,-3.4264e-05,-27.987,2.0858
4825,19.567,5.0909,0.1,9.6768e-05,967.01,9.6233e-05,951.93,-3.0462e-05,0.00057109,-3.4385e-05,-29.478,2.0861
4826,19.567,4.9091,0.1,9.678e-05,967.13,9.6216e-05,951.27,-3.0391e-05,-0.0030565,-3.4514e-05,-30.98,2.0863
4827,19.567,4.7273,0.1,9.6805e-05,967.39,9.6212e-05,950.75,-3.0325e-05,-0.0062959,-3.4644e-05,-32.459,2.0866
4828,19.567,4.5455,0.1,9.684e-05,967.73,9.6219e-05,950.34,-3.0265e-05,-0.0090092,-3.4773e-05,-33.884,2.0868
4829,19.567,4.3636,0.1,9.6879e-05,968.12,9.6232e-05,950.03,-3.021e-05,-0.011293,-3.4897e-05,-35.227,2.087
4830,19.567,4.1818,0.1,9.6921e-05,968.54,9.6249e-05,949.79,-3.0162e-05,-0.013189,-3.5013e-05,-36.461,2.0871
4831,19.567,4,0.1,9.6963e-05,968.96,9.6269e-05,949.62,-3.012e-05,-0.014743,-3.5118e-05,-37.563,2.0873
4832,19.567,3.8182,0.1,9.7001e-05,969.34,9.6288e-05,949.5,-3.0085e-05,-0.015982,-3.5209e-05,-38.512,2.0874
4833,19.567,3.6364,0.1,9.7034e-05,969.67,9.6306e-05,949.42,-3.0057e-05,-0.016943,-3.5284e-05,-39.293,2.0875
4834,19.567,3.4545,0.1,9.7061e-05,969.94,9.632e-05,949.37,-3.0035e-05,-0.017644,-3.5342e-05,-39.89,2.0875
4835,19.567,3.2727,0.1,9.7079e-05,970.12,9.633e-05,949.34,-3.0021e-05,-0.018102,-3.5381e-05,-40.294,2.0876
4836,19.567,3.0909,0.1,9.7088e-05,970.21,9.6336e-05,949.32,-3.0014e-05,-0.018328,-3.5401e-05,-40.498,2.0876
4837,19.567,2.9091,0.1,9.7088e-05,970.21,9.6336e-05,949.32,-3.0014e-05,-0.018329,-3.5401e-05,-40.498,2.0876
4838,19.567,2.7273,0.1,9.7079e-05,970.12,9.633e-05,949.34,-3.0021e-05,-0.018102,-3.5381e-05,-40.294,2.0876
4839,19.567,2.5455,0.1,9.7061e-05,969.94,9.632e-05,949.37,-3.0035e-05,-0.017644,-3.5342e-05,-39.89,2.0875
4840,19.567,2.3636,0.1,9.7034e-05,969.67,9.6306e-05,949.42,-3.0057e-05,-0.016942,-3.5284e-05,-39.293,2.0875
4841,19.567,2.1818,0.1,9.7001e-05,969.34,9.6288e-05,949.5,-3.0085e-05,-0.015982,-3.5209e-05,-38.512,2.0874
4842,19.567,2,0.1,9.6963e-05,968.96,9.6269e-05,949.62,-3.012e-05,-0.014742,-3.5118e-05,-37.563,2.0873
4843,19.567,1.8182,0.1,9.6921e-05,968.54,9.6249e-05,949.79,-3.0162e-05,-0.01319,-3.5013e-05,-36.461,2.0871
4844,19.567,1.6364,0.1,9.6879e-05,968.12,9.6232e-05,950.03,-3.021e-05,-0.011293,-3.4897e-05,-35.227,2.087
4845,19.567,1.4545,0.1,9.684e-05,967.73,9.6219e-05,950.34,-3.0265e-05,-0.0090084,-3.4773e-05,-33.884,2.0868
4846,19.567,1.2727,0.1,9.6805e-05,967.39,9.6212e-05,950.75,-3.0325e-05,-0.0062956,-3.4644e-05,-32.459,2.0866
4847,19.567,1.0909,0.1,9.678e-05,967.13,9.6216e-05,951.27,-3.0391e-05,-0.0030565,-3.4514e-05,-30.98,2.0863
4848,19.567,0.90909,0.1,9.6768e-05,967.01,9.6233e-05,951.93,-3.0462e-05,0.00056935,-3.4385e-05,-29.478,2.0861
4849,19.567,0.72727,0.1,9.6772e-05,967.06,9.6266e-05,952.76,-3.0538e-05,0.0054481,-3.4264e-05,-27.987,2.0858
4850,19.567,0.54545,0.1,9.6799e-05,967.32,9.632e-05,953.78,-3.0619e-05,0.0083275,-3.4154e-05,-26.551,2.0855
4851,19.567,0.36364,0.1,9.6873e-05,968.06,9.6418e-05,955.16,-3.0703e-05,0.026071,-3.4078e-05,-25.331,2.0852
4852,19.567,0.18182,0.1,9.7359e-05,972.91,9.6877e-05,959.28,-3.0796e-05,-0.0003127,-3.4352e-05,-26.719,2.0849
4853,19.382,5.8182,0.1,0.00010153,1014.6,0.00010106,1001.3,-3.2198e-05,-0.00047212,-3.5689e-05,-26.228,2.0548
4854,19.382,5.6364,0.1,0.00010104,1009.7,0.0001006,997.16,-3.2111e-05,0.024733,-3.5403e-05,-24.713,2.0551
4855,19.382,5.4545,0.1,0.00010096,1008.9,0.0001005,995.76,-3.2031e-05,0.0080296,-3.5462e-05,-25.769,2.0555
4856,19.382,5.2727,0.1,0.00010092,1008.5,0.00010043,994.71,-3.1955e-05,0.0053437,-3.5554e-05,-27.035,2.0558
4857,19.382,5.0909,0.1,0.0001009,1008.3,0.00010039,993.85,-3.1883e-05,0.00072848,-3.5657e-05,-28.354,2.0561
4858,19.382,4.9091,0.1,0.0001009,1008.3,0.00010036,993.14,-3.1816e-05,-0.0027258,-3.5767e-05,-29.686,2.0563
4859,19.382,4.7273,0.1,0.00010091,1008.4,0.00010035,992.57,-3.1754e-05,-0.0058268,-3.5879e-05,-31.001,2.0566
4860,19.382,4.5455,0.1,0.00010093,1008.6,0.00010035,992.11,-3.1698e-05,-0.0084363,-3.5991e-05,-32.27,2.0568
4861,19.382,4.3636,0.1,0.00010096,1008.9,0.00010035,991.76,-3.1646e-05,-0.010647,-3.6099e-05,-33.468,2.057
4862,19.382,4.1818,0.1,0.00010099,1009.2,0.00010036,991.48,-3.1601e-05,-0.012487,-3.62e-05,-34.57,2.0571
4863,19.382,4,0.1,0.00010102,1009.5,0.00010037,991.27,-3.1562e-05,-0.013997,-3.6292e-05,-35.555,2.0573
4864,19.382,3.8182,0.1,0.00010105,1009.8,0.00010038,991.12,-3.1529e-05,-0.015207,-3.6372e-05,-36.404,2.0574
4865,19.382,3.6364,0.1,0.00010108,1010.1,0.00010039,991.01,-3.1502e-05,-0.016146,-3.6438e-05,-37.103,2.0575
4866,19.382,3.4545,0.1,0.0001011,1010.3,0.0001004,990.93,-3.1482e-05,-0.016832,-3.6489e-05,-37.638,2.0576
4867,19.382,3.2727,0.1,0.00010111,1010.4,0.00010041,990.88,-3.1469e-05,-0.017282,-3.6524e-05,-38,2.0576
4868,19.382,3.0909,0.1,0.00010112,1010.5,0.00010042,990.86,-3.1462e-05,-0.017504,-3.6541e-05,-38.183,2.0576
4869,19.382,2.9091,0.1,0.00010112,1010.5,0.00010042,990.86,-3.1462e-05,-0.017504,-3.6541e-05,-38.183,2.0576
4870,19.382,2.7273,0.1,0.00010111,1010.4,0.00010041,990.88,-3.1469e-05,-0.017282,-3.6524e-05,-38,2.0576
4871,19.382,2.5455,0.1,0.0001011,1010.3,0.0001004,990.93,-3.1482e-05,-0.016833,-3.6489e-05,-37.638,2.0576
4872,19.382,2.3636,0.1,0.00010108,1010.1,0.00010039,991.01,-3.1502e-05,-0.016146,-3.6438e-05,-37.103,2.0575
4873,19.382,2.1818,0.1,0.00010105,1009.8,0.00010038,991.12,-3.1529e-05,-0.015207,-3.6372e-05,-36.404,2.0574
4874,19.382,2,0.1,0.00010102,1009.5,0.00010037,991.27,-3.1562e-05,-0.013996,-3.6292e-05,-35.555,2.0573
4875,19.382,1.8182,0.1,0.00010099,1009.2,0.00010036,991.48,-3.1601e-05,-0.012486,-3.62e-05,-34.57,2.0571
4876,19.382,1.6364,0.1,0.00010096,1008.9,0.00010035,991.76,-3.1646e-05,-0.010646,-3.6099e-05,-33.468,2.057
4877,19.382,1.4545,0.1,0.00010093,1008.6,0.00010035,992.11,-3.1698e-05,-0.0084383,-3.5991e-05,-32.27,2.0568
4878,19.382,1.2727,0.1,0.00010091,1008.4,0.00010035,992.57,-3.1754e-05,-0.0058265,-3.5879e-05,-31.001,2.0566
4879,19.382,1.0909,0.1,0.0001009,1008.3,0.00010036,993.14,-3.1816e-05,-0.0027269,-3.5767e-05,-29.686,2.0563
4880,19.382,0.90909,0.1,0.0001009,1008.3,0.00010039,993.85,-3.1883e-05,0.00072522,-3.5657e-05,-28.354,2.0561
4881,19.382,0.72727,0.1,0.00010092,1008.5,0.00010043,994.71,-3.1955e-05,0.0053414,-3.5554e-05,-27.035,2.0558
4882,19.382,0.54545,0.1,0.00010096,1008.9,0.0001005,995.76,-3.2031e-05,0.0080288,-3.5462e-05,-25.769,2.0555
4883,19.382,0.36364,0.1,0.00010104,1009.7,0.0001006,997.16,-3.2111e-05,0.024737,-3.5403e-05,-24.713,2.0551
4884,19.382,0.18182,0.1,0.00010153,1014.6,0.00010106,1001.3,-3.2198e-05,-0.00047149,-3.5689e-05,-26.228,2.0548
4885,19.198,5.8182,0.1,0.00010572,1056.5,0.00010526,1043.4,-3.3606e-05,-0.00057683,-3.7033e-05,-25.746,2.0248
4886,19.198,5.6364,0.1,0.00010523,1051.6,0.0001048,1039.3,-3.3523e-05,0.023509,-3.6736e-05,-24.117,2.0251
4887,19.198,5.4545,0.1,0.00010514,1050.6,0.00010469,1037.9,-3.3448e-05,0.0077535,-3.6779e-05,-25.023,2.0255
4888,19.198,5.2727,0.1,0.00010509,1050.1,0.00010462,1036.8,-3.3376e-05,0.0052432,-3.6855e-05,-26.133,2.0258
4889,19.198,5.0909,0.1,0.00010506,1049.9,0.00010457,1035.9,-3.3308e-05,0.000868,-3.6941e-05,-27.294,2.0261
4890,19.198,4.9091,0.1,0.00010504,1049.7,0.00010453,1035.2,-3.3245e-05,-0.002423,-3.7034e-05,-28.471,2.0264
4891,19.198,4.7273,0.1,0.00010504,1049.7,0.00010451,1034.6,-3.3187e-05,-0.0053968,-3.713e-05,-29.635,2.0266
4892,19.198,4.5455,0.1,0.00010505,1049.8,0.0001045,1034.1,-3.3133e-05,-0.0079082,-3.7226e-05,-30.762,2.0268
4893,19.198,4.3636,0.1,0.00010507,1050,0.00010449,1033.7,-3.3085e-05,-0.010046,-3.732e-05,-31.826,2.027
4894,19.198,4.1818,0.1,0.00010509,1050.2,0.00010449,1033.4,-3.3043e-05,-0.011833,-3.7407e-05,-32.807,2.0272
4895,19.198,4,0.1,0.00010511,1050.4,0.0001045,1033.1,-3.3006e-05,-0.013304,-3.7487e-05,-33.684,2.0273
4896,19.198,3.8182,0.1,0.00010513,1050.6,0.0001045,1032.9,-3.2975e-05,-0.014486,-3.7557e-05,-34.442,2.0275
4897,19.198,3.6364,0.1,0.00010515,1050.8,0.00010451,1032.8,-3.295e-05,-0.015406,-3.7614e-05,-35.066,2.0276
4898,19.198,3.4545,0.1,0.00010517,1050.9,0.00010452,1032.7,-3.2931e-05,-0.016077,-3.7659e-05,-35.544,2.0276
4899,19.198,3.2727,0.1,0.00010518,1051,0.00010452,1032.6,-3.2918e-05,-0.016519,-3.7689e-05,-35.867,2.0277
4900,19.198,3.0909,0.1,0.00010518,1051.1,0.00010452,1032.6,-3.2912e-05,-0.016737,-3.7705e-05,-36.03,2.0277
4901,19.198,2.9091,0.1,0.00010518,1051.1,0.00010452,1032.6,-3.2912e-05,-0.016737,-3.7705e-05,-36.03,2.0277
4902,19.198,2.7273,0.1,0.00010518,1051,0.00010452,1032.6,-3.2918e-05,-0.016518,-3.7689e-05,-35.867,2.0277
4903,19.198,2.5455,0.1,0.00010517,1050.9,0.00010452,1032.7,-3.2931e-05,-0.016078,-3.7659e-05,-35.544,2.0276
4904,19.198,2.3636,0.1,0.00010515,1050.8,0.00010451,1032.8,-3.295e-05,-0.015404,-3.7614e-05,-35.066,2.0276
4905,19.198,2.1818,0.1,0.00010513,1050.6,0.0001045,1032.9,-3.2975e-05,-0.014487,-3.7557e-05,-34.442,2.0275
4906,19.198,2,0.1,0.00010511,1050.4,0.0001045,1033.1,-3.3006e-05,-0.013303,-3.7487e-05,-33.684,2.0273
4907,19.198,1.8182,0.1,0.00010509,1050.2,0.00010449,1033.4,-3.3043e-05,-0.011834,-3.7407e-05,-32.807,2.0272
4908,19.198,1.6364,0.1,0.00010507,1050,0.00010449,1033.7,-3.3085e-05,-0.010046,-3.732e-05,-31.826,2.027
4909,19.198,1.4545,0.1,0.00010505,1049.8,0.0001045,1034.1,-3.3133e-05,-0.0079098,-3.7226e-05,-30.762,2.0268
4910,19.198,1.2727,0.1,0.00010504,1049.7,0.00010451,1034.6,-3.3187e-05,-0.0053953,-3.713e-05,-29.635,2.0266
4911,19.198,1.0909,0.1,0.00010504,1049.7,0.00010453,1035.2,-3.3245e-05,-0.0024257,-3.7034e-05,-28.471,2.0264
4912,19.198,0.90909,0.1,0.00010506,1049.9,0.00010457,1035.9,-3.3308e-05,0.00086685,-3.6941e-05,-27.294,2.0261
4913,19.198,0.72727,0.1,0.00010509,1050.1,0.00010462,1036.8,-3.3376e-05,0.005242,-3.6855e-05,-26.132,2.0258
4914,19.198,0.54545,0.1,0.00010514,1050.6,0.00010469,1037.9,-3.3448e-05,0.0077551,-3.6779e-05,-25.023,2.0255
4915,19.198,0.36364,0.1,0.00010523,1051.6,0.0001048,1039.3,-3.3523e-05,0.023511,-3.6736e-05,-24.117,2.0251
4916,19.198,0.18182,0.1,0.00010572,1056.5,0.00010526,1043.4,-3.3606e-05,-0.00057883,-3.7033e-05,-25.746,2.0248
4917,19.013,5.8182,0.1,0.00010993,1098.6,0.00010948,1085.7,-3.5019e-05,-0.00066094,-3.8383e-05,-25.273,1.9948
4918,19.013,5.6364,0.1,0.00010944,1093.6,0.00010902,1081.7,-3.4941e-05,0.022358,-3.8077e-05,-23.542,1.9952
4919,19.013,5.4545,0.1,0.00010934,1092.6,0.0001089,1080.3,-3.4869e-05,0.007477,-3.8106e-05,-24.309,1.9956
4920,19.013,5.2727,0.1,0.00010928,1092,0.00010882,1079.1,-3.4801e-05,0.0051246,-3.8166e-05,-25.276,1.9959
4921,19.013,5.0909,0.1,0.00010924,1091.6,0.00010876,1078.2,-3.4737e-05,0.00097491,-3.8237e-05,-26.294,1.9962
4922,19.013,4.9091,0.1,0.00010921,1091.4,0.00010872,1077.4,-3.4678e-05,-0.0021679,-3.8315e-05,-27.328,1.9965
4923,19.013,4.7273,0.1,0.0001092,1091.2,0.00010869,1076.8,-3.4623e-05,-0.0050187,-3.8396e-05,-28.355,1.9967
4924,19.013,4.5455,0.1,0.0001092,1091.2,0.00010867,1076.3,-3.4572e-05,-0.0074437,-3.8478e-05,-29.349,1.997
4925,19.013,4.3636,0.1,0.0001092,1091.3,0.00010866,1075.8,-3.4527e-05,-0.0095119,-3.8557e-05,-30.292,1.9972
4926,19.013,4.1818,0.1,0.00010921,1091.4,0.00010865,1075.5,-3.4487e-05,-0.01125,-3.8633e-05,-31.161,1.9973
4927,19.013,4,0.1,0.00010923,1091.5,0.00010865,1075.2,-3.4452e-05,-0.012682,-3.8701e-05,-31.94,1.9975
4928,19.013,3.8182,0.1,0.00010924,1091.7,0.00010865,1075,-3.4423e-05,-0.013838,-3.8762e-05,-32.613,1.9976
4929,19.013,3.6364,0.1,0.00010925,1091.8,0.00010865,1074.8,-3.4399e-05,-0.014737,-3.8812e-05,-33.168,1.9977
4930,19.013,3.4545,0.1,0.00010926,1091.9,0.00010865,1074.7,-3.4382e-05,-0.015396,-3.8851e-05,-33.593,1.9978
4931,19.013,3.2727,0.1,0.00010927,1092,0.00010866,1074.6,-3.437e-05,-0.015828,-3.8877e-05,-33.881,1.9979
4932,19.013,3.0909,0.1,0.00010928,1092,0.00010866,1074.6,-3.4364e-05,-0.016043,-3.889e-05,-34.026,1.9979
4933,19.013,2.9091,0.1,0.00010928,1092,0.00010866,1074.6,-3.4364e-05,-0.016044,-3.889e-05,-34.026,1.9979
4934,19.013,2.7273,0.1,0.00010927,1092,0.00010866,1074.6,-3.437e-05,-0.015829,-3.8877e-05,-33.881,1.9979
4935,19.013,2.5455,0.1,0.00010926,1091.9,0.00010865,1074.7,-3.4382e-05,-0.015397,-3.8851e-05,-33.593,1.9978
4936,19.013,2.3636,0.1,0.00010925,1091.8,0.00010865,1074.8,-3.4399e-05,-0.014738,-3.8812e-05,-33.168,1.9977
4937,19.013,2.1818,0.1,0.00010924,1091.7,0.00010865,1075,-3.4423e-05,-0.013838,-3.8762e-05,-32.613,1.9976
4938,19.013,2,0.1,0.00010923,1091.5,0.00010865,1075.2,-3.4452e-05,-0.012682,-3.8701e-05,-31.94,1.9975
4939,19.013,1.8182,0.1,0.00010921,1091.4,0.00010865,1075.5,-3.4487e-05,-0.01125,-3.8633e-05,-31.161,1.9973
4940,19.013,1.6364,0.1,0.0001092,1091.3,0.00010866,1075.8,-3.4527e-05,-0.0095121,-3.8557e-05,-30.291,1.9972
4941,19.013,1.4545,0.1,0.0001092,1091.2,0.00010867,1076.3,-3.4572e-05,-0.007444,-3.8478e-05,-29.349,1.997
4942,19.013,1.2727,0.1,0.0001092,1091.2,0.00010869,1076.8,-3.4623e-05,-0.0050197,-3.8396e-05,-28.354,1.9967
4943,19.013,1.0909,0.1,0.00010921,1091.4,0.00010872,1077.4,-3.4678e-05,-0.0021689,-3.8315e-05,-27.328,1.9965
4944,19.013,0.90909,0.1,0.00010924,1091.6,0.00010876,1078.2,-3.4737e-05,0.00097372,-3.8237e-05,-26.294,1.9962
4945,19.013,0.72727,0.1,0.00010928,1092,0.00010882,1079.1,-3.4801e-05,0.0051231,-3.8166e-05,-25.276,1.9959
4946,19.013,0.54545,0.1,0.00010934,1092.6,0.0001089,1080.3,-3.4869e-05,0.0074781,-3.8106e-05,-24.309,1.9956
4947,19.013,0.36364,0.1,0.00010944,1093.6,0.00010902,1081.7,-3.4941e-05,0.022359,-3.8077e-05,-23.542,1.9952
4948,19.013,0.18182,0.1,0.00010993,1098.6,0.00010948,1085.7,-3.5019e-05,-0.00066105,-3.8383e-05,-25.273,1.9948
4949,18.828,5.8182,0.1,0.00011416,1140.8,0.00011372,1128.2,-3.6438e-05,-0.00071511,-3.974e-05,-24.808,1.965
4950,18.828,5.6364,0.1,0.00011366,1135.9,0.00011326,1124.2,-3.6363e-05,0.021289,-3.9425e-05,-22.988,1.9654
4951,18.828,5.4545,0.1,0.00011355,1134.8,0.00011313,1122.8,-3.6296e-05,0.0072167,-3.9441e-05,-23.627,1.9657
4952,18.828,5.2727,0.1,0.00011348,1134.1,0.00011305,1121.6,-3.6231e-05,0.0050058,-3.9488e-05,-24.463,1.9661
4953,18.828,5.0909,0.1,0.00011344,1133.6,0.00011298,1120.7,-3.6171e-05,0.0010648,-3.9545e-05,-25.348,1.9664
4954,18.828,4.9091,0.1,0.0001134,1133.2,0.00011293,1119.9,-3.6115e-05,-0.0019395,-3.9608e-05,-26.252,1.9667
4955,18.828,4.7273,0.1,0.00011338,1133,0.00011289,1119.2,-3.6063e-05,-0.004678,-3.9675e-05,-27.151,1.9669
4956,18.828,4.5455,0.1,0.00011337,1132.9,0.00011286,1118.6,-3.6015e-05,-0.007016,-3.9744e-05,-28.026,1.9672
4957,18.828,4.3636,0.1,0.00011336,1132.9,0.00011284,1118.1,-3.5972e-05,-0.0090226,-3.9811e-05,-28.855,1.9674
4958,18.828,4.1818,0.1,0.00011337,1132.9,0.00011283,1117.8,-3.5934e-05,-0.010711,-3.9876e-05,-29.623,1.9676
4959,18.828,4,0.1,0.00011337,1132.9,0.00011282,1117.5,-3.5902e-05,-0.012108,-3.9934e-05,-30.311,1.9677
4960,18.828,3.8182,0.1,0.00011338,1133,0.00011282,1117.2,-3.5874e-05,-0.013238,-3.9986e-05,-30.907,1.9678
4961,18.828,3.6364,0.1,0.00011338,1133.1,0.00011282,1117,-3.5852e-05,-0.01412,-4.0029e-05,-31.398,1.968
4962,18.828,3.4545,0.1,0.00011339,1133.1,0.00011282,1116.9,-3.5835e-05,-0.014767,-4.0062e-05,-31.774,1.968
4963,18.828,3.2727,0.1,0.0001134,1133.2,0.00011282,1116.8,-3.5824e-05,-0.015192,-4.0085e-05,-32.03,1.9681
4964,18.828,3.0909,0.1,0.0001134,1133.2,0.00011282,1116.8,-3.5819e-05,-0.015403,-4.0097e-05,-32.159,1.9681
4965,18.828,2.9091,0.1,0.0001134,1133.2,0.00011282,1116.8,-3.5819e-05,-0.015402,-4.0097e-05,-32.159,1.9681
4966,18.828,2.7273,0.1,0.0001134,1133.2,0.00011282,1116.8,-3.5824e-05,-0.015193,-4.0085e-05,-32.03,1.9681
4967,18.828,2.5455,0.1,0.00011339,1133.1,0.00011282,1116.9,-3.5835e-05,-0.014769,-4.0062e-05,-31.774,1.968
4968,18.828,2.3636,0.1,0.00011338,1133.1,0.00011282,1117,-3.5852e-05,-0.014118,-4.0029e-05,-31.398,1.968
4969,18.828,2.1818,0.1,0.00011338,1133,0.00011282,1117.2,-3.5874e-05,-0.01324,-3.9986e-05,-30.907,1.9678
4970,18.828,2,0.1,0.00011337,1132.9,0.00011282,1117.5,-3.5902e-05,-0.012109,-3.9934e-05,-30.311,1.9677
4971,18.828,1.8182,0.1,0.00011337,1132.9,0.00011283,1117.8,-3.5934e-05,-0.01071,-3.9876e-05,-29.622,1.9676
4972,18.828,1.6364,0.1,0.00011336,1132.9,0.00011284,1118.1,-3.5972e-05,-0.009023,-3.9811e-05,-28.855,1.9674
4973,18.828,1.4545,0.1,0.00011337,1132.9,0.00011286,1118.6,-3.6015e-05,-0.0070175,-3.9744e-05,-28.026,1.9672
4974,18.828,1.2727,0.1,0.00011338,1133,0.00011289,1119.2,-3.6063e-05,-0.0046782,-3.9675e-05,-27.151,1.9669
4975,18.828,1.0909,0.1,0.0001134,1133.2,0.00011293,1119.9,-3.6115e-05,-0.0019376,-3.9608e-05,-26.251,1.9667
4976,18.828,0.90909,0.1,0.00011344,1133.6,0.00011298,1120.7,-3.6171e-05,0.001062,-3.9545e-05,-25.348,1.9664
4977,18.828,0.72727,0.1,0.00011348,1134.1,0.00011305,1121.6,-3.6231e-05,0.0050029,-3.9488e-05,-24.462,1.9661
4978,18.828,0.54545,0.1,0.00011355,1134.8,0.00011313,1122.8,-3.6296e-05,0.0072151,-3.9441e-05,-23.627,1.9657
4979,18.828,0.36364,0.1,0.00011366,1135.9,0.00011326,1124.2,-3.6363e-05,0.021289,-3.9425e-05,-22.988,1.9654
4980,18.828,0.18182,0.1,0.00011416,1140.8,0.00011372,1128.2,-3.6438e-05,-0.0007121,-3.974e-05,-24.808,1.965
4981,18.643,5.8182,0.1,0.00011841,1183.3,0.00011797,1170.9,-3.7862e-05,-0.00072596,-4.1103e-05,-24.353,1.9352
4982,18.643,5.6364,0.1,0.00011791,1178.3,0.00011751,1166.9,-3.7791e-05,0.020315,-4.0782e-05,-22.452,1.9356
4983,18.643,5.4545,0.1,0.00011779,1177.1,0.00011738,1165.4,-3.7727e-05,0.0069868,-4.0786e-05,-22.975,1.936
4984,18.643,5.2727,0.1,0.00011771,1176.3,0.00011729,1164.3,-3.7666e-05,0.0049071,-4.0819e-05,-23.689,1.9363
4985,18.643,5.0909,0.1,0.00011766,1175.7,0.00011722,1163.3,-3.7609e-05,0.0011587,-4.0863e-05,-24.452,1.9366
4986,18.643,4.9091,0.1,0.00011761,1175.3,0.00011716,1162.5,-3.7555e-05,-0.0017139,-4.0914e-05,-25.236,1.9369
4987,18.643,4.7273,0.1,0.00011758,1175,0.00011712,1161.8,-3.7506e-05,-0.0043465,-4.0969e-05,-26.019,1.9372
4988,18.643,4.5455,0.1,0.00011756,1174.8,0.00011708,1161.2,-3.7461e-05,-0.00661,-4.1025e-05,-26.783,1.9374
4989,18.643,4.3636,0.1,0.00011755,1174.7,0.00011706,1160.7,-3.7421e-05,-0.0085515,-4.1081e-05,-27.509,1.9377
4990,18.643,4.1818,0.1,0.00011754,1174.6,0.00011704,1160.3,-3.7385e-05,-0.010196,-4.1135e-05,-28.182,1.9378
4991,18.643,4,0.1,0.00011754,1174.6,0.00011702,1159.9,-3.7355e-05,-0.011559,-4.1184e-05,-28.787,1.938
4992,18.643,3.8182,0.1,0.00011754,1174.6,0.00011701,1159.7,-3.7329e-05,-0.012665,-4.1228e-05,-29.311,1.9381
4993,18.643,3.6364,0.1,0.00011754,1174.6,0.00011701,1159.5,-3.7308e-05,-0.013529,-4.1265e-05,-29.744,1.9383
4994,18.643,3.4545,0.1,0.00011755,1174.7,0.00011701,1159.3,-3.7292e-05,-0.014166,-4.1293e-05,-30.076,1.9383
4995,18.643,3.2727,0.1,0.00011755,1174.7,0.000117,1159.2,-3.7282e-05,-0.014584,-4.1312e-05,-30.302,1.9384
4996,18.643,3.0909,0.1,0.00011755,1174.7,0.000117,1159.2,-3.7276e-05,-0.01479,-4.1322e-05,-30.415,1.9384
4997,18.643,2.9091,0.1,0.00011755,1174.7,0.000117,1159.2,-3.7276e-05,-0.01479,-4.1322e-05,-30.415,1.9384
4998,18.643,2.7273,0.1,0.00011755,1174.7,0.000117,1159.2,-3.7282e-05,-0.014582,-4.1312e-05,-30.302,1.9384
4999,18.643,2.5455,0.1,0.00011755,1174.7,0.00011701,1159.3,-3.7292e-05,-0.014166,-4.1293e-05,-30.076,1.9383
5000,18.643,2.3636,0.1,0.00011754,1174.6,0.00011701,1159.5,-3.7308e-05,-0.01353,-4.1265e-05,-29.744,1.9383
5001,18.643,2.1818,0.1,0.00011754,1174.6,0.00011701,1159.7,-3.7329e-05,-0.012665,-4.1228e-05,-29.311,1.9381
5002,18.643,2,0.1,0.00011754,1174.6,0.00011702,1159.9,-3.7355e-05,-0.01156,-4.1184e-05,-28.787,1.938
5003,18.643,1.8182,0.1,0.00011754,1174.6,0.00011704,1160.3,-3.7385e-05,-0.010196,-4.1135e-05,-28.182,1.9378
5004,18.643,1.6364,0.1,0.00011755,1174.7,0.00011706,1160.7,-3.7421e-05,-0.0085521,-4.1081e-05,-27.509,1.9377
5005,18.643,1.4545,0.1,0.00011756,1174.8,0.00011708,1161.2,-3.7461e-05,-0.0066079,-4.1025e-05,-26.782,1.9374
5006,18.643,1.2727,0.1,0.00011758,1175,0.00011712,1161.8,-3.7506e-05,-0.0043486,-4.0969e-05,-26.019,1.9372
5007,18.643,1.0909,0.1,0.00011761,1175.3,0.00011716,1162.5,-3.7556e-05,-0.0017154,-4.0914e-05,-25.236,1.9369
5008,18.643,0.90909,0.1,0.00011766,1175.7,0.00011722,1163.3,-3.7609e-05,0.0011561,-4.0863e-05,-24.452,1.9366
5009,18.643,0.72727,0.1,0.00011771,1176.3,0.00011729,1164.3,-3.7666e-05,0.0049069,-4.0819e-05,-23.689,1.9363
5010,18.643,0.54545,0.1,0.00011779,1177.1,0.00011738,1165.4,-3.7727e-05,0.006987,-4.0786e-05,-22.975,1.936
5011,18.643,0.36364,0.1,0.00011791,1178.3,0.00011751,1166.9,-3.7791e-05,0.020315,-4.0782e-05,-22.452,1.9356
5012,18.643,0.18182,0.1,0.00011841,1183.3,0.00011797,1170.9,-3.7862e-05,-0.00072379,-4.1103e-05,-24.353,1.9352
5013,18.459,5.8182,0.1,0.00012267,1225.9,0.00012225,1213.7,-3.9292e-05,-0.00072982,-4.2473e-05,-23.907,1.9055
5014,18.459,5.6364,0.1,0.00012217,1220.9,0.00012179,1209.8,-3.9224e-05,0.01939,-4.2146e-05,-21.934,1.9059
5015,18.459,5.4545,0.1,0.00012205,1219.6,0.00012165,1208.3,-3.9163e-05,0.006758,-4.2139e-05,-22.349,1.9063
5016,18.459,5.2727,0.1,0.00012196,1218.8,0.00012156,1207.2,-3.9106e-05,0.0047945,-4.2161e-05,-22.952,1.9066
5017,18.459,5.0909,0.1,0.0001219,1218.1,0.00012148,1206.2,-3.9051e-05,0.0012254,-4.2193e-05,-23.603,1.907
5018,18.459,4.9091,0.1,0.00012185,1217.6,0.00012142,1205.3,-3.9001e-05,-0.0015257,-4.2232e-05,-24.276,1.9073
5019,18.459,4.7273,0.1,0.00012181,1217.2,0.00012136,1204.6,-3.8954e-05,-0.0040601,-4.2275e-05,-24.951,1.9075
5020,18.459,4.5455,0.1,0.00012178,1216.9,0.00012132,1203.9,-3.8912e-05,-0.006244,-4.232e-05,-25.613,1.9078
5021,18.459,4.3636,0.1,0.00012176,1216.7,0.00012129,1203.4,-3.8874e-05,-0.0081318,-4.2366e-05,-26.245,1.908
5022,18.459,4.1818,0.1,0.00012174,1216.6,0.00012127,1203,-3.884e-05,-0.0097319,-4.241e-05,-26.831,1.9082
5023,18.459,4,0.1,0.00012174,1216.5,0.00012125,1202.6,-3.8811e-05,-0.011064,-4.2451e-05,-27.36,1.9084
5024,18.459,3.8182,0.1,0.00012173,1216.5,0.00012123,1202.3,-3.8787e-05,-0.012147,-4.2487e-05,-27.818,1.9085
5025,18.459,3.6364,0.1,0.00012173,1216.5,0.00012122,1202.1,-3.8767e-05,-0.012997,-4.2518e-05,-28.197,1.9086
5026,18.459,3.4545,0.1,0.00012173,1216.4,0.00012122,1201.9,-3.8752e-05,-0.01362,-4.2542e-05,-28.488,1.9087
5027,18.459,3.2727,0.1,0.00012173,1216.4,0.00012121,1201.8,-3.8742e-05,-0.014032,-4.2558e-05,-28.685,1.9088
5028,18.459,3.0909,0.1,0.00012173,1216.4,0.00012121,1201.8,-3.8737e-05,-0.014235,-4.2566e-05,-28.785,1.9088
5029,18.459,2.9091,0.1,0.00012173,1216.4,0.00012121,1201.8,-3.8737e-05,-0.014234,-4.2566e-05,-28.785,1.9088
5030,18.459,2.7273,0.1,0.00012173,1216.4,0.00012121,1201.8,-3.8742e-05,-0.014033,-4.2558e-05,-28.685,1.9088
5031,18.459,2.5455,0.1,0.00012173,1216.4,0.00012122,1201.9,-3.8752e-05,-0.01362,-4.2542e-05,-28.488,1.9087
5032,18.459,2.3636,0.1,0.00012173,1216.5,0.00012122,1202.1,-3.8767e-05,-0.012995,-4.2518e-05,-28.197,1.9086
5033,18.459,2.1818,0.1,0.00012173,1216.5,0.00012123,1202.3,-3.8787e-05,-0.012149,-4.2487e-05,-27.818,1.9085
5034,18.459,2,0.1,0.00012174,1216.5,0.00012125,1202.6,-3.8811e-05,-0.011066,-4.2451e-05,-27.359,1.9084
5035,18.459,1.8182,0.1,0.00012174,1216.6,0.00012127,1203,-3.884e-05,-0.0097314,-4.241e-05,-26.831,1.9082
5036,18.459,1.6364,0.1,0.00012176,1216.7,0.00012129,1203.4,-3.8874e-05,-0.0081318,-4.2366e-05,-26.245,1.908
5037,18.459,1.4545,0.1,0.00012178,1216.9,0.00012132,1203.9,-3.8912e-05,-0.0062449,-4.232e-05,-25.613,1.9078
5038,18.459,1.2727,0.1,0.00012181,1217.2,0.00012136,1204.6,-3.8954e-05,-0.0040597,-4.2275e-05,-24.951,1.9075
5039,18.459,1.0909,0.1,0.00012185,1217.6,0.00012142,1205.3,-3.9001e-05,-0.0015263,-4.2232e-05,-24.275,1.9073
5040,18.459,0.90909,0.1,0.0001219,1218.1,0.00012148,1206.2,-3.9051e-05,0.0012238,-4.2193e-05,-23.603,1.907
5041,18.459,0.72727,0.1,0.00012196,1218.8,0.00012156,1207.2,-3.9106e-05,0.0047946,-4.2161e-05,-22.951,1.9066
5042,18.459,0.54545,0.1,0.00012205,1219.6,0.00012165,1208.3,-3.9163e-05,0.0067567,-4.2139e-05,-22.349,1.9063
5043,18.459,0.36364,0.1,0.00012217,1220.9,0.00012179,1209.8,-3.9224e-05,0.019391,-4.2146e-05,-21.934,1.9059
5044,18.459,0.18182,0.1,0.00012267,1225.9,0.00012225,1213.7,-3.9292e-05,-0.00072874,-4.2473e-05,-23.907,1.9055
5045,18.274,5.8182,0.1,0.00012695,1268.7,0.00012654,1256.8,-4.0727e-05,-0.00071461,-4.3851e-05,-23.471,1.8758
5046,18.274,5.6364,0.1,0.00012646,1263.7,0.00012608,1252.8,-4.0663e-05,0.018534,-4.3518e-05,-21.433,1.8763
5047,18.274,5.4545,0.1,0.00012633,1262.4,0.00012594,1251.4,-4.0605e-05,0.0065438,-4.3501e-05,-21.749,1.8767
5048,18.274,5.2727,0.1,0.00012623,1261.5,0.00012584,1250.2,-4.055e-05,0.00469,-4.3512e-05,-22.248,1.877
5049,18.274,5.0909,0.1,0.00012616,1260.7,0.00012576,1249.2,-4.0499e-05,0.0012865,-4.3533e-05,-22.796,1.8774
5050,18.274,4.9091,0.1,0.0001261,1260.2,0.00012569,1248.3,-4.0451e-05,-0.0013504,-4.3561e-05,-23.366,1.8777
5051,18.274,4.7273,0.1,0.00012606,1259.7,0.00012563,1247.5,-4.0407e-05,-0.00379,-4.3593e-05,-23.943,1.878
5052,18.274,4.5455,0.1,0.00012602,1259.3,0.00012558,1246.9,-4.0367e-05,-0.0059058,-4.3628e-05,-24.511,1.8782
5053,18.274,4.3636,0.1,0.00012599,1259.1,0.00012555,1246.3,-4.0331e-05,-0.0077362,-4.3664e-05,-25.055,1.8785
5054,18.274,4.1818,0.1,0.00012597,1258.9,0.00012552,1245.9,-4.0299e-05,-0.0092976,-4.37e-05,-25.562,1.8787
5055,18.274,4,0.1,0.00012596,1258.7,0.0001255,1245.5,-4.0272e-05,-0.010601,-4.3733e-05,-26.019,1.8788
5056,18.274,3.8182,0.1,0.00012595,1258.6,0.00012548,1245.2,-4.0248e-05,-0.011663,-4.3763e-05,-26.417,1.879
5057,18.274,3.6364,0.1,0.00012594,1258.5,0.00012547,1245,-4.023e-05,-0.012494,-4.3788e-05,-26.746,1.8791
5058,18.274,3.4545,0.1,0.00012594,1258.5,0.00012546,1244.8,-4.0216e-05,-0.013109,-4.3807e-05,-26.999,1.8792
5059,18.274,3.2727,0.1,0.00012593,1258.5,0.00012545,1244.7,-4.0207e-05,-0.013514,-4.3821e-05,-27.171,1.8793
5060,18.274,3.0909,0.1,0.00012593,1258.5,0.00012545,1244.6,-4.0202e-05,-0.013713,-4.3828e-05,-27.258,1.8793
5061,18.274,2.9091,0.1,0.00012593,1258.5,0.00012545,1244.6,-4.0202e-05,-0.013713,-4.3828e-05,-27.258,1.8793
5062,18.274,2.7273,0.1,0.00012593,1258.5,0.00012545,1244.7,-4.0207e-05,-0.013513,-4.3821e-05,-27.171,1.8793
5063,18.274,2.5455,0.1,0.00012594,1258.5,0.00012546,1244.8,-4.0216e-05,-0.01311,-4.3807e-05,-26.999,1.8792
5064,18.274,2.3636,0.1,0.00012594,1258.5,0.00012547,1245,-4.023e-05,-0.012494,-4.3788e-05,-26.746,1.8791
5065,18.274,2.1818,0.1,0.00012595,1258.6,0.00012548,1245.2,-4.0248e-05,-0.011663,-4.3763e-05,-26.417,1.879
5066,18.274,2,0.1,0.00012596,1258.7,0.0001255,1245.5,-4.0272e-05,-0.010602,-4.3733e-05,-26.019,1.8788
5067,18.274,1.8182,0.1,0.00012597,1258.9,0.00012552,1245.9,-4.0299e-05,-0.0092981,-4.37e-05,-25.562,1.8787
5068,18.274,1.6364,0.1,0.00012599,1259.1,0.00012555,1246.3,-4.0331e-05,-0.0077373,-4.3664e-05,-25.055,1.8785
5069,18.274,1.4545,0.1,0.00012602,1259.3,0.00012558,1246.9,-4.0367e-05,-0.0059049,-4.3628e-05,-24.511,1.8782
5070,18.274,1.2727,0.1,0.00012606,1259.7,0.00012563,1247.5,-4.0407e-05,-0.003792,-4.3593e-05,-23.943,1.878
5071,18.274,1.0909,0.1,0.0001261,1260.2,0.00012569,1248.3,-4.0451e-05,-0.0013519,-4.3561e-05,-23.366,1.8777
5072,18.274,0.90909,0.1,0.00012616,1260.7,0.00012576,1249.2,-4.0499e-05,0.0012856,-4.3533e-05,-22.796,1.8774
5073,18.274,0.72727,0.1,0.00012623,1261.5,0.00012584,1250.2,-4.055e-05,0.0046896,-4.3512e-05,-22.248,1.877
5074,18.274,0.54545,0.1,0.00012633,1262.4,0.00012594,1251.4,-4.0605e-05,0.0065439,-4.3501e-05,-21.749,1.8767
5075,18.274,0.36364,0.1,0.00012646,1263.7,0.00012608,1252.8,-4.0663e-05,0.018532,-4.3518e-05,-21.433,1.8763
5076,18.274,0.18182,0.1,0.00012695,1268.7,0.00012654,1256.8,-4.0727e-05,-0.0007144,-4.3851e-05,-23.471,1.8758
5077,18.089,5.8182,0.1,0.00013126,1311.7,0.00013085,1300,-4.2168e-05,-0.00068166,-4.5235e-05,-23.043,1.8463
5078,18.089,5.6364,0.1,0.00013076,1306.7,0.00013039,1296.1,-4.2107e-05,0.017734,-4.4897e-05,-20.949,1.8467
5079,18.089,5.4545,0.1,0.00013062,1305.3,0.00013025,1294.6,-4.2052e-05,0.0063442,-4.4871e-05,-21.172,1.8471
5080,18.089,5.2727,0.1,0.00013053,1304.4,0.00013015,1293.4,-4.2e-05,0.0045885,-4.4872e-05,-21.576,1.8475
5081,18.089,5.0909,0.1,0.00013045,1303.6,0.00013006,1292.4,-4.1951e-05,0.0013423,-4.4883e-05,-22.027,1.8479
5082,18.089,4.9091,0.1,0.00013038,1302.9,0.00012998,1291.5,-4.1906e-05,-0.0011889,-4.4901e-05,-22.504,1.8482
5083,18.089,4.7273,0.1,0.00013033,1302.4,0.00012992,1290.7,-4.1864e-05,-0.0035408,-4.4923e-05,-22.989,1.8485
5084,18.089,4.5455,0.1,0.00013028,1301.9,0.00012987,1290,-4.1826e-05,-0.005588,-4.4949e-05,-23.47,1.8488
5085,18.089,4.3636,0.1,0.00013025,1301.6,0.00012983,1289.5,-4.1792e-05,-0.0073691,-4.4976e-05,-23.933,1.849
5086,18.089,4.1818,0.1,0.00013022,1301.3,0.00012979,1289,-4.1762e-05,-0.0088911,-4.5004e-05,-24.365,1.8492
5087,18.089,4,0.1,0.0001302,1301.1,0.00012977,1288.6,-4.1736e-05,-0.010166,-4.503e-05,-24.757,1.8494
5088,18.089,3.8182,0.1,0.00013019,1301,0.00012974,1288.3,-4.1714e-05,-0.011205,-4.5053e-05,-25.099,1.8495
5089,18.089,3.6364,0.1,0.00013018,1300.9,0.00012973,1288,-4.1697e-05,-0.012024,-4.5073e-05,-25.382,1.8497
5090,18.089,3.4545,0.1,0.00013017,1300.8,0.00012972,1287.8,-4.1684e-05,-0.012629,-4.5089e-05,-25.6,1.8498
5091,18.089,3.2727,0.1,0.00013017,1300.8,0.00012971,1287.7,-4.1675e-05,-0.013027,-4.51e-05,-25.749,1.8498
5092,18.089,3.0909,0.1,0.00013017,1300.8,0.00012971,1287.6,-4.167e-05,-0.013225,-4.5105e-05,-25.824,1.8498
5093,18.089,2.9091,0.1,0.00013017,1300.8,0.00012971,1287.6,-4.167e-05,-0.013225,-4.5105e-05,-25.824,1.8498
5094,18.089,2.7273,0.1,0.00013017,1300.8,0.00012971,1287.7,-4.1675e-05,-0.013028,-4.51e-05,-25.749,1.8498
5095,18.089,2.5455,0.1,0.00013017,1300.8,0.00012972,1287.8,-4.1684e-05,-0.012629,-4.5089e-05,-25.6,1.8498
5096,18.089,2.3636,0.1,0.00013018,1300.9,0.00012973,1288,-4.1697e-05,-0.012024,-4.5073e-05,-25.382,1.8497
5097,18.089,2.1818,0.1,0.00013019,1301,0.00012974,1288.3,-4.1714e-05,-0.011206,-4.5053e-05,-25.099,1.8495
5098,18.089,2,0.1,0.0001302,1301.1,0.00012977,1288.6,-4.1736e-05,-0.010166,-4.503e-05,-24.757,1.8494
5099,18.089,1.8182,0.1,0.00013022,1301.3,0.00012979,1289,-4.1762e-05,-0.0088905,-4.5004e-05,-24.365,1.8492
5100,18.089,1.6364,0.1,0.00013025,1301.6,0.00012983,1289.5,-4.1792e-05,-0.0073692,-4.4976e-05,-23.933,1.849
5101,18.089,1.4545,0.1,0.00013028,1301.9,0.00012987,1290,-4.1826e-05,-0.0055876,-4.4949e-05,-23.47,1.8488
5102,18.089,1.2727,0.1,0.00013033,1302.4,0.00012992,1290.7,-4.1864e-05,-0.0035405,-4.4923e-05,-22.989,1.8485
5103,18.089,1.0909,0.1,0.00013038,1302.9,0.00012998,1291.5,-4.1906e-05,-0.0011894,-4.4901e-05,-22.503,1.8482
5104,18.089,0.90909,0.1,0.00013045,1303.6,0.00013006,1292.4,-4.1951e-05,0.0013411,-4.4883e-05,-22.027,1.8479
5105,18.089,0.72727,0.1,0.00013053,1304.4,0.00013015,1293.4,-4.2e-05,0.0045871,-4.4872e-05,-21.576,1.8475
5106,18.089,0.54545,0.1,0.00013062,1305.3,0.00013025,1294.6,-4.2052e-05,0.0063418,-4.4871e-05,-21.172,1.8471
5107,18.089,0.36364,0.1,0.00013076,1306.7,0.00013039,1296.1,-4.2107e-05,0.017733,-4.4897e-05,-20.949,1.8467
5108,18.089,0.18182,0.1,0.00013126,1311.7,0.00013085,1300,-4.2168e-05,-0.00068068,-4.5235e-05,-23.043,1.8463
5109,17.905,5.8182,0.1,0.00013558,1354.8,0.00013518,1343.4,-4.3615e-05,-0.00065249,-4.6626e-05,-22.625,1.8168
5110,17.905,5.6364,0.1,0.00013508,1349.9,0.00013472,1339.5,-4.3557e-05,0.016969,-4.6285e-05,-20.48,1.8173
5111,17.905,5.4545,0.1,0.00013494,1348.5,0.00013458,1338,-4.3505e-05,0.0061388,-4.6249e-05,-20.617,1.8177
5112,17.905,5.2727,0.1,0.00013484,1347.4,0.00013447,1336.9,-4.3455e-05,0.0044772,-4.6242e-05,-20.932,1.8181
5113,17.905,5.0909,0.1,0.00013475,1346.6,0.00013438,1335.8,-4.3409e-05,0.0013759,-4.6243e-05,-21.294,1.8185
5114,17.905,4.9091,0.1,0.00013468,1345.9,0.0001343,1334.9,-4.3366e-05,-0.0010533,-4.6252e-05,-21.683,1.8188
5115,17.905,4.7273,0.1,0.00013462,1345.3,0.00013423,1334.1,-4.3326e-05,-0.0033232,-4.6265e-05,-22.083,1.8191
5116,17.905,4.5455,0.1,0.00013457,1344.8,0.00013417,1333.4,-4.329e-05,-0.0053071,-4.6282e-05,-22.484,1.8194
5117,17.905,4.3636,0.1,0.00013453,1344.4,0.00013413,1332.8,-4.3258e-05,-0.0070393,-4.6301e-05,-22.871,1.8196
5118,17.905,4.1818,0.1,0.0001345,1344.1,0.00013409,1332.3,-4.323e-05,-0.0085241,-4.6321e-05,-23.236,1.8198
5119,17.905,4,0.1,0.00013448,1343.8,0.00013406,1331.9,-4.3205e-05,-0.0097723,-4.634e-05,-23.567,1.82
5120,17.905,3.8182,0.1,0.00013446,1343.6,0.00013403,1331.5,-4.3185e-05,-0.010794,-4.6358e-05,-23.857,1.8202
5121,17.905,3.6364,0.1,0.00013444,1343.5,0.00013402,1331.3,-4.3168e-05,-0.011598,-4.6374e-05,-24.097,1.8203
5122,17.905,3.4545,0.1,0.00013443,1343.4,0.000134,1331.1,-4.3156e-05,-0.012194,-4.6386e-05,-24.283,1.8204
5123,17.905,3.2727,0.1,0.00013443,1343.3,0.00013399,1331,-4.3147e-05,-0.012587,-4.6394e-05,-24.409,1.8205
5124,17.905,3.0909,0.1,0.00013442,1343.3,0.00013399,1330.9,-4.3143e-05,-0.012782,-4.6398e-05,-24.473,1.8205
5125,17.905,2.9091,0.1,0.00013442,1343.3,0.00013399,1330.9,-4.3143e-05,-0.012782,-4.6398e-05,-24.473,1.8205
5126,17.905,2.7273,0.1,0.00013443,1343.3,0.00013399,1331,-4.3147e-05,-0.012588,-4.6394e-05,-24.409,1.8205
5127,17.905,2.5455,0.1,0.00013443,1343.4,0.000134,1331.1,-4.3156e-05,-0.012194,-4.6386e-05,-24.283,1.8204
5128,17.905,2.3636,0.1,0.00013444,1343.5,0.00013402,1331.3,-4.3168e-05,-0.011598,-4.6374e-05,-24.097,1.8203
5129,17.905,2.1818,0.1,0.00013446,1343.6,0.00013403,1331.5,-4.3185e-05,-0.010794,-4.6358e-05,-23.857,1.8202
5130,17.905,2,0.1,0.00013448,1343.8,0.00013406,1331.9,-4.3205e-05,-0.0097725,-4.634e-05,-23.567,1.82
5131,17.905,1.8182,0.1,0.0001345,1344.1,0.00013409,1332.3,-4.323e-05,-0.0085248,-4.6321e-05,-23.236,1.8198
5132,17.905,1.6364,0.1,0.00013453,1344.4,0.00013413,1332.8,-4.3258e-05,-0.0070389,-4.6301e-05,-22.871,1.8196
5133,17.905,1.4545,0.1,0.00013457,1344.8,0.00013417,1333.4,-4.329e-05,-0.0053054,-4.6282e-05,-22.483,1.8194
5134,17.905,1.2727,0.1,0.00013462,1345.3,0.00013423,1334.1,-4.3326e-05,-0.0033238,-4.6265e-05,-22.083,1.8191
5135,17.905,1.0909,0.1,0.00013468,1345.9,0.0001343,1334.9,-4.3366e-05,-0.0010553,-4.6252e-05,-21.683,1.8188
5136,17.905,0.90909,0.1,0.00013475,1346.6,0.00013438,1335.8,-4.3409e-05,0.0013763,-4.6243e-05,-21.294,1.8185
5137,17.905,0.72727,0.1,0.00013484,1347.4,0.00013447,1336.9,-4.3455e-05,0.0044746,-4.6242e-05,-20.932,1.8181
5138,17.905,0.54545,0.1,0.00013494,1348.5,0.00013458,1338,-4.3505e-05,0.0061377,-4.6249e-05,-20.617,1.8177
5139,17.905,0.36364,0.1,0.00013508,1349.9,0.00013472,1339.5,-4.3557e-05,0.016971,-4.6285e-05,-20.479,1.8173
5140,17.905,0.18182,0.1,0.00013558,1354.8,0.00013518,1343.4,-4.3615e-05,-0.00065324,-4.6626e-05,-22.625,1.8168
5141,17.72,5.8182,0.1,0.00013992,1398.2,0.00013953,1387,-4.5068e-05,-0.00060624,-4.8024e-05,-22.215,1.7875
5142,17.72,5.6364,0.1,0.00013942,1393.3,0.00013907,1383.1,-4.5012e-05,0.016256,-4.768e-05,-20.024,1.7879
5143,17.72,5.4545,0.1,0.00013928,1391.8,0.00013893,1381.7,-4.4963e-05,0.0059528,-4.7636e-05,-20.082,1.7884
5144,17.72,5.2727,0.1,0.00013917,1390.7,0.00013881,1380.5,-4.4916e-05,0.0043755,-4.762e-05,-20.314,1.7888
5145,17.72,5.0909,0.1,0.00013908,1389.8,0.00013872,1379.4,-4.4872e-05,0.0014104,-4.7613e-05,-20.593,1.7892
5146,17.72,4.9091,0.1,0.000139,1389,0.00013863,1378.5,-4.4831e-05,-0.00092448,-4.7612e-05,-20.9,1.7895
5147,17.72,4.7273,0.1,0.00013893,1388.4,0.00013856,1377.7,-4.4794e-05,-0.0031142,-4.7618e-05,-21.222,1.7898
5148,17.72,4.5455,0.1,0.00013888,1387.8,0.0001385,1376.9,-4.476e-05,-0.0050357,-4.7627e-05,-21.547,1.7901
5149,17.72,4.3636,0.1,0.00013884,1387.4,0.00013845,1376.3,-4.4729e-05,-0.0067219,-4.7638e-05,-21.865,1.7903
5150,17.72,4.1818,0.1,0.0001388,1387,0.00013841,1375.8,-4.4702e-05,-0.0081734,-4.7651e-05,-22.165,1.7906
5151,17.72,4,0.1,0.00013877,1386.7,0.00013837,1375.4,-4.4679e-05,-0.0093969,-4.7664e-05,-22.44,1.7908
5152,17.72,3.8182,0.1,0.00013875,1386.5,0.00013835,1375,-4.4659e-05,-0.010399,-4.7677e-05,-22.682,1.7909
5153,17.72,3.6364,0.1,0.00013873,1386.3,0.00013833,1374.8,-4.4644e-05,-0.011191,-4.7688e-05,-22.883,1.791
5154,17.72,3.4545,0.1,0.00013872,1386.2,0.00013831,1374.6,-4.4632e-05,-0.011778,-4.7697e-05,-23.039,1.7911
5155,17.72,3.2727,0.1,0.00013871,1386.1,0.0001383,1374.4,-4.4624e-05,-0.012165,-4.7703e-05,-23.145,1.7912
5156,17.72,3.0909,0.1,0.00013871,1386.1,0.0001383,1374.4,-4.462e-05,-0.012359,-4.7706e-05,-23.198,1.7912
5157,17.72,2.9091,0.1,0.00013871,1386.1,0.0001383,1374.4,-4.462e-05,-0.012358,-4.7706e-05,-23.198,1.7912
5158,17.72,2.7273,0.1,0.00013871,1386.1,0.0001383,1374.4,-4.4624e-05,-0.012165,-4.7703e-05,-23.145,1.7912
5159,17.72,2.5455,0.1,0.00013872,1386.2,0.00013831,1374.6,-4.4632e-05,-0.011778,-4.7697e-05,-23.039,1.7911
5160,17.72,2.3636,0.1,0.00013873,1386.3,0.00013833,1374.8,-4.4644e-05,-0.01119,-4.7688e-05,-22.883,1.791
5161,17.72,2.1818,0.1,0.00013875,1386.5,0.00013835,1375,-4.4659e-05,-0.010399,-4.7677e-05,-22.682,1.7909
5162,17.72,2,0.1,0.00013877,1386.7,0.00013837,1375.4,-4.4679e-05,-0.0093961,-4.7664e-05,-22.44,1.7908
5163,17.72,1.8182,0.1,0.0001388,1387,0.00013841,1375.8,-4.4702e-05,-0.0081741,-4.7651e-05,-22.165,1.7906
5164,17.72,1.6364,0.1,0.00013884,1387.4,0.00013845,1376.3,-4.4729e-05,-0.0067234,-4.7638e-05,-21.865,1.7903
5165,17.72,1.4545,0.1,0.00013888,1387.8,0.0001385,1376.9,-4.476e-05,-0.0050365,-4.7627e-05,-21.547,1.7901
5166,17.72,1.2727,0.1,0.00013893,1388.4,0.00013856,1377.7,-4.4794e-05,-0.003114,-4.7618e-05,-21.222,1.7898
5167,17.72,1.0909,0.1,0.000139,1389,0.00013863,1378.5,-4.4831e-05,-0.00092509,-4.7612e-05,-20.9,1.7895
5168,17.72,0.90909,0.1,0.00013908,1389.8,0.00013872,1379.4,-4.4872e-05,0.0014111,-4.7613e-05,-20.593,1.7892
5169,17.72,0.72727,0.1,0.00013917,1390.7,0.00013881,1380.5,-4.4916e-05,0.0043713,-4.762e-05,-20.314,1.7888
5170,17.72,0.54545,0.1,0.00013928,1391.8,0.00013893,1381.7,-4.4963e-05,0.0059529,-4.7636e-05,-20.082,1.7884
5171,17.72,0.36364,0.1,0.00013942,1393.3,0.00013907,1383.1,-4.5012e-05,0.016259,-4.768e-05,-20.024,1.7879
5172,17.72,0.18182,0.1,0.00013992,1398.2,0.00013953,1387,-4.5068e-05,-0.00060534,-4.8024e-05,-22.215,1.7875
5173,17.535,5.8182,0.1,0.00014428,1441.8,0.00014389,1430.7,-4.6527e-05,-0.00054472,-4.943e-05,-21.814,1.7582
5174,17.535,5.6364,0.1,0.00014378,1436.8,0.00014344,1427,-4.6474e-05,0.01559,-4.9082e-05,-19.582,1.7587
5175,17.535,5.4545,0.1,0.00014363,1435.4,0.00014329,1425.5,-4.6427e-05,0.0057812,-4.9031e-05,-19.565,1.7591
5176,17.535,5.2727,0.1,0.00014352,1434.2,0.00014318,1424.3,-4.6382e-05,0.0042829,-4.9007e-05,-19.719,1.7595
5177,17.535,5.0909,0.1,0.00014343,1433.3,0.00014308,1423.2,-4.634e-05,0.0014481,-4.8992e-05,-19.921,1.7599
5178,17.535,4.9091,0.1,0.00014334,1432.4,0.00014299,1422.3,-4.6301e-05,-0.00079758,-4.8983e-05,-20.151,1.7603
5179,17.535,4.7273,0.1,0.00014327,1431.7,0.00014291,1421.4,-4.6266e-05,-0.0029115,-4.8981e-05,-20.399,1.7606
5180,17.535,4.5455,0.1,0.00014321,1431.1,0.00014285,1420.7,-4.6234e-05,-0.0047775,-4.8982e-05,-20.654,1.7609
5181,17.535,4.3636,0.1,0.00014316,1430.6,0.0001428,1420.1,-4.6205e-05,-0.0064199,-4.8986e-05,-20.907,1.7611
5182,17.535,4.1818,0.1,0.00014312,1430.2,0.00014275,1419.5,-4.6179e-05,-0.007837,-4.8993e-05,-21.148,1.7614
5183,17.535,4,0.1,0.00014309,1429.9,0.00014271,1419.1,-4.6157e-05,-0.0090358,-4.9e-05,-21.371,1.7616
5184,17.535,3.8182,0.1,0.00014306,1429.6,0.00014268,1418.7,-4.6139e-05,-0.010022,-4.9008e-05,-21.567,1.7617
5185,17.535,3.6364,0.1,0.00014304,1429.4,0.00014266,1418.4,-4.6124e-05,-0.010801,-4.9015e-05,-21.731,1.7619
5186,17.535,3.4545,0.1,0.00014303,1429.3,0.00014264,1418.2,-4.6113e-05,-0.011382,-4.9021e-05,-21.859,1.762
5187,17.535,3.2727,0.1,0.00014302,1429.2,0.00014263,1418.1,-4.6106e-05,-0.011764,-4.9025e-05,-21.946,1.762
5188,17.535,3.0909,0.1,0.00014301,1429.1,0.00014263,1418,-4.6102e-05,-0.011954,-4.9027e-05,-21.99,1.7621
5189,17.535,2.9091,0.1,0.00014301,1429.1,0.00014263,1418,-4.6102e-05,-0.011956,-4.9027e-05,-21.99,1.7621
5190,17.535,2.7273,0.1,0.00014302,1429.2,0.00014263,1418.1,-4.6106e-05,-0.011765,-4.9025e-05,-21.946,1.762
5191,17.535,2.5455,0.1,0.00014303,1429.3,0.00014264,1418.2,-4.6113e-05,-0.011381,-4.9021e-05,-21.859,1.762
5192,17.535,2.3636,0.1,0.00014304,1429.4,0.00014266,1418.4,-4.6124e-05,-0.010802,-4.9015e-05,-21.731,1.7619
5193,17.535,2.1818,0.1,0.00014306,1429.6,0.00014268,1418.7,-4.6139e-05,-0.010022,-4.9008e-05,-21.567,1.7617
5194,17.535,2,0.1,0.00014309,1429.9,0.00014271,1419.1,-4.6157e-05,-0.0090362,-4.9e-05,-21.371,1.7616
5195,17.535,1.8182,0.1,0.00014312,1430.2,0.00014275,1419.5,-4.6179e-05,-0.0078372,-4.8993e-05,-21.148,1.7614
5196,17.535,1.6364,0.1,0.00014316,1430.6,0.0001428,1420.1,-4.6205e-05,-0.0064203,-4.8986e-05,-20.907,1.7611
5197,17.535,1.4545,0.1,0.00014321,1431.1,0.00014285,1420.7,-4.6234e-05,-0.0047771,-4.8982e-05,-20.654,1.7609
5198,17.535,1.2727,0.1,0.00014327,1431.7,0.00014291,1421.4,-4.6266e-05,-0.0029121,-4.8981e-05,-20.399,1.7606
5199,17.535,1.0909,0.1,0.00014334,1432.4,0.00014299,1422.3,-4.6301e-05,-0.00079749,-4.8983e-05,-20.151,1.7603
5200,17.535,0.90909,0.1,0.00014343,1433.3,0.00014308,1423.2,-4.634e-05,0.0014456,-4.8992e-05,-19.921,1.7599
5201,17.535,0.72727,0.1,0.00014352,1434.2,0.00014318,1424.3,-4.6382e-05,0.0042803,-4.9007e-05,-19.719,1.7595
5202,17.535,0.54545,0.1,0.00014363,1435.4,0.00014329,1425.5,-4.6427e-05,0.0057827,-4.9031e-05,-19.565,1.7591
5203,17.535,0.36364,0.1,0.00014378,1436.8,0.00014344,1427,-4.6474e-05,0.01559,-4.9082e-05,-19.582,1.7587
5204,17.535,0.18182,0.1,0.00014428,1441.8,0.00014389,1430.7,-4.6527e-05,-0.00054392,-4.943e-05,-21.814,1.7582
5205,17.35,5.8182,0.1,0.00014866,1485.5,0.00014828,1474.7,-4.7991e-05,-0.00046788,-5.0842e-05,-21.421,1.729
5206,17.35,5.6364,0.1,0.00014816,1480.6,0.00014783,1471,-4.7941e-05,0.014968,-5.0492e-05,-19.151,1.7295
5207,17.35,5.4545,0.1,0.00014801,1479.1,0.00014768,1469.5,-4.7896e-05,0.0056285,-5.0434e-05,-19.064,1.73
5208,17.35,5.2727,0.1,0.0001479,1477.9,0.00014756,1468.3,-4.7854e-05,0.0042023,-5.0402e-05,-19.145,1.7304
5209,17.35,5.0909,0.1,0.00014779,1476.9,0.00014746,1467.2,-4.7814e-05,0.0014902,-5.0379e-05,-19.274,1.7308
5210,17.35,4.9091,0.1,0.00014771,1476,0.00014737,1466.2,-4.7777e-05,-0.00067029,-5.0364e-05,-19.432,1.7312
5211,17.35,4.7273,0.1,0.00014763,1475.3,0.00014729,1465.4,-4.7744e-05,-0.0027135,-5.0353e-05,-19.611,1.7315
5212,17.35,4.5455,0.1,0.00014757,1474.6,0.00014722,1464.6,-4.7713e-05,-0.004524,-5.0348e-05,-19.801,1.7318
5213,17.35,4.3636,0.1,0.00014751,1474.1,0.00014716,1464,-4.7686e-05,-0.0061232,-5.0346e-05,-19.992,1.7321
5214,17.35,4.1818,0.1,0.00014747,1473.7,0.00014711,1463.5,-4.7662e-05,-0.0075109,-5.0346e-05,-20.178,1.7323
5215,17.35,4,0.1,0.00014743,1473.3,0.00014707,1463,-4.7641e-05,-0.0086859,-5.0348e-05,-20.351,1.7325
5216,17.35,3.8182,0.1,0.0001474,1473,0.00014704,1462.6,-4.7624e-05,-0.009655,-5.0351e-05,-20.505,1.7327
5217,17.35,3.6364,0.1,0.00014738,1472.8,0.00014702,1462.3,-4.761e-05,-0.010424,-5.0355e-05,-20.635,1.7328
5218,17.35,3.4545,0.1,0.00014736,1472.6,0.000147,1462.1,-4.7599e-05,-0.010996,-5.0357e-05,-20.736,1.7329
5219,17.35,3.2727,0.1,0.00014735,1472.5,0.00014698,1462,-4.7592e-05,-0.011376,-5.036e-05,-20.806,1.733
5220,17.35,3.0909,0.1,0.00014734,1472.4,0.00014698,1461.9,-4.7589e-05,-0.011565,-5.0361e-05,-20.841,1.733
5221,17.35,2.9091,0.1,0.00014734,1472.4,0.00014698,1461.9,-4.7589e-05,-0.011564,-5.0361e-05,-20.841,1.733
5222,17.35,2.7273,0.1,0.00014735,1472.5,0.00014698,1462,-4.7592e-05,-0.011376,-5.036e-05,-20.806,1.733
5223,17.35,2.5455,0.1,0.00014736,1472.6,0.000147,1462.1,-4.7599e-05,-0.010996,-5.0357e-05,-20.736,1.7329
5224,17.35,2.3636,0.1,0.00014738,1472.8,0.00014702,1462.3,-4.761e-05,-0.010424,-5.0355e-05,-20.635,1.7328
5225,17.35,2.1818,0.1,0.0001474,1473,0.00014704,1462.6,-4.7624e-05,-0.0096552,-5.0351e-05,-20.505,1.7327
5226,17.35,2,0.1,0.00014743,1473.3,0.00014707,1463,-4.7641e-05,-0.0086878,-5.0348e-05,-20.351,1.7325
5227,17.35,1.8182,0.1,0.00014747,1473.7,0.00014711,1463.5,-4.7662e-05,-0.0075105,-5.0346e-05,-20.178,1.7323
5228,17.35,1.6364,0.1,0.00014751,1474.1,0.00014716,1464,-4.7686e-05,-0.0061245,-5.0346e-05,-19.992,1.7321
5229,17.35,1.4545,0.1,0.00014757,1474.6,0.00014722,1464.6,-4.7713e-05,-0.0045236,-5.0348e-05,-19.8,1.7318
5230,17.35,1.2727,0.1,0.00014763,1475.3,0.00014729,1465.4,-4.7744e-05,-0.0027144,-5.0353e-05,-19.611,1.7315
5231,17.35,1.0909,0.1,0.00014771,1476,0.00014737,1466.2,-4.7777e-05,-0.00067168,-5.0364e-05,-19.432,1.7312
5232,17.35,0.90909,0.1,0.00014779,1476.9,0.00014746,1467.2,-4.7814e-05,0.0014873,-5.0379e-05,-19.273,1.7308
5233,17.35,0.72727,0.1,0.0001479,1477.9,0.00014756,1468.3,-4.7854e-05,0.0042003,-5.0402e-05,-19.145,1.7304
5234,17.35,0.54545,0.1,0.00014801,1479.1,0.00014768,1469.5,-4.7896e-05,0.0056271,-5.0434e-05,-19.064,1.73
5235,17.35,0.36364,0.1,0.00014816,1480.6,0.00014783,1471,-4.7941e-05,0.014969,-5.0492e-05,-19.151,1.7295
5236,17.35,0.18182,0.1,0.00014866,1485.5,0.00014828,1474.7,-4.7991e-05,-0.0004666,-5.0842e-05,-21.421,1.729
5237,17.166,5.8182,0.1,0.00015305,1529.5,0.00015269,1518.9,-4.9462e-05,-0.00040138,-5.2262e-05,-21.035,1.6999
5238,17.166,5.6364,0.1,0.00015256,1524.6,0.00015224,1515.2,-4.9414e-05,0.014361,-5.1909e-05,-18.731,1.7004
5239,17.166,5.4545,0.1,0.00015241,1523,0.00015209,1513.7,-4.9372e-05,0.0054635,-5.1845e-05,-18.577,1.7009
5240,17.166,5.2727,0.1,0.00015229,1521.8,0.00015196,1512.5,-4.9331e-05,0.0041075,-5.1806e-05,-18.589,1.7014
5241,17.166,5.0909,0.1,0.00015218,1520.8,0.00015186,1511.4,-4.9294e-05,0.0015109,-5.1776e-05,-18.649,1.7018
5242,17.166,4.9091,0.1,0.00015209,1519.9,0.00015176,1510.4,-4.9259e-05,-0.00056799,-5.1753e-05,-18.74,1.7021
5243,17.166,4.7273,0.1,0.00015201,1519.1,0.00015168,1509.5,-4.9227e-05,-0.0025431,-5.1736e-05,-18.854,1.7025
5244,17.166,4.5455,0.1,0.00015194,1518.4,0.00015161,1508.8,-4.9198e-05,-0.0042997,-5.1724e-05,-18.981,1.7028
5245,17.166,4.3636,0.1,0.00015188,1517.8,0.00015155,1508.1,-4.9172e-05,-0.0058602,-5.1716e-05,-19.115,1.7031
5246,17.166,4.1818,0.1,0.00015183,1517.3,0.0001515,1507.6,-4.9149e-05,-0.0072166,-5.171e-05,-19.249,1.7033
5247,17.166,4,0.1,0.00015179,1516.9,0.00015145,1507.1,-4.913e-05,-0.0083708,-5.1707e-05,-19.376,1.7035
5248,17.166,3.8182,0.1,0.00015176,1516.6,0.00015142,1506.7,-4.9113e-05,-0.0093257,-5.1706e-05,-19.49,1.7037
5249,17.166,3.6364,0.1,0.00015174,1516.3,0.00015139,1506.4,-4.91e-05,-0.010084,-5.1706e-05,-19.588,1.7038
5250,17.166,3.4545,0.1,0.00015172,1516.1,0.00015137,1506.2,-4.909e-05,-0.010651,-5.1706e-05,-19.664,1.7039
5251,17.166,3.2727,0.1,0.0001517,1516,0.00015136,1506,-4.9084e-05,-0.011024,-5.1706e-05,-19.717,1.704
5252,17.166,3.0909,0.1,0.0001517,1515.9,0.00015135,1506,-4.908e-05,-0.011212,-5.1706e-05,-19.743,1.704
5253,17.166,2.9091,0.1,0.0001517,1515.9,0.00015135,1506,-4.908e-05,-0.011211,-5.1706e-05,-19.743,1.704
5254,17.166,2.7273,0.1,0.0001517,1516,0.00015136,1506,-4.9084e-05,-0.011025,-5.1706e-05,-19.717,1.704
5255,17.166,2.5455,0.1,0.00015172,1516.1,0.00015137,1506.2,-4.909e-05,-0.010649,-5.1706e-05,-19.664,1.7039
5256,17.166,2.3636,0.1,0.00015174,1516.3,0.00015139,1506.4,-4.91e-05,-0.010084,-5.1706e-05,-19.588,1.7038
5257,17.166,2.1818,0.1,0.00015176,1516.6,0.00015142,1506.7,-4.9113e-05,-0.0093258,-5.1706e-05,-19.49,1.7037
5258,17.166,2,0.1,0.00015179,1516.9,0.00015145,1507.1,-4.913e-05,-0.0083717,-5.1707e-05,-19.376,1.7035
5259,17.166,1.8182,0.1,0.00015183,1517.3,0.0001515,1507.6,-4.9149e-05,-0.0072171,-5.171e-05,-19.249,1.7033
5260,17.166,1.6364,0.1,0.00015188,1517.8,0.00015155,1508.1,-4.9172e-05,-0.0058611,-5.1716e-05,-19.115,1.7031
5261,17.166,1.4545,0.1,0.00015194,1518.4,0.00015161,1508.8,-4.9198e-05,-0.0043002,-5.1724e-05,-18.981,1.7028
5262,17.166,1.2727,0.1,0.00015201,1519.1,0.00015168,1509.5,-4.9227e-05,-0.0025424,-5.1736e-05,-18.854,1.7025
5263,17.166,1.0909,0.1,0.00015209,1519.9,0.00015176,1510.4,-4.9259e-05,-0.00056895,-5.1753e-05,-18.74,1.7021
5264,17.166,0.90909,0.1,0.00015218,1520.8,0.00015186,1511.4,-4.9294e-05,0.0015085,-5.1776e-05,-18.649,1.7018
5265,17.166,0.72727,0.1,0.00015229,1521.8,0.00015196,1512.5,-4.9331e-05,0.0041068,-5.1806e-05,-18.589,1.7014
5266,17.166,0.54545,0.1,0.00015241,1523,0.00015209,1513.7,-4.9372e-05,0.0054631,-5.1845e-05,-18.577,1.7009
5267,17.166,0.36364,0.1,0.00015256,1524.6,0.00015224,1515.2,-4.9415e-05,0.014361,-5.1909e-05,-18.731,1.7004
5268,17.166,0.18182,0.1,0.00015305,1529.5,0.00015269,1518.9,-4.9462e-05,-0.00039968,-5.2262e-05,-21.035,1.6999
5269,16.981,5.8182,0.1,0.00015747,1573.6,0.00015711,1563.2,-5.094e-05,-0.00032408,-5.3689e-05,-20.656,1.671
5270,16.981,5.6364,0.1,0.00015699,1568.8,0.00015667,1559.5,-5.0894e-05,0.013783,-5.3334e-05,-18.321,1.6715
5271,16.981,5.4545,0.1,0.00015683,1567.2,0.00015651,1558.1,-5.0853e-05,0.0053108,-5.3263e-05,-18.104,1.672
5272,16.981,5.2727,0.1,0.0001567,1565.9,0.00015639,1556.8,-5.0815e-05,0.0040187,-5.3218e-05,-18.05,1.6724
5273,16.981,5.0909,0.1,0.00015659,1564.9,0.00015628,1555.8,-5.0779e-05,0.0015323,-5.3181e-05,-18.044,1.6728
5274,16.981,4.9091,0.1,0.0001565,1563.9,0.00015618,1554.8,-5.0746e-05,-0.00046854,-5.3151e-05,-18.071,1.6732
5275,16.981,4.7273,0.1,0.00015641,1563,0.0001561,1553.9,-5.0716e-05,-0.0023783,-5.3128e-05,-18.122,1.6736
5276,16.981,4.5455,0.1,0.00015634,1562.3,0.00015602,1553.1,-5.0689e-05,-0.0040843,-5.3109e-05,-18.191,1.6739
5277,16.981,4.3636,0.1,0.00015628,1561.7,0.00015596,1552.5,-5.0664e-05,-0.0056063,-5.3095e-05,-18.271,1.6742
5278,16.981,4.1818,0.1,0.00015622,1561.2,0.0001559,1551.9,-5.0643e-05,-0.006934,-5.3085e-05,-18.355,1.6744
5279,16.981,4,0.1,0.00015618,1560.7,0.00015586,1551.4,-5.0624e-05,-0.008068,-5.3077e-05,-18.438,1.6746
5280,16.981,3.8182,0.1,0.00015614,1560.4,0.00015582,1551,-5.0609e-05,-0.0090084,-5.3072e-05,-18.515,1.6748
5281,16.981,3.6364,0.1,0.00015612,1560.1,0.00015579,1550.7,-5.0596e-05,-0.0097571,-5.3068e-05,-18.582,1.6749
5282,16.981,3.4545,0.1,0.0001561,1559.9,0.00015577,1550.5,-5.0587e-05,-0.010317,-5.3066e-05,-18.635,1.675
5283,16.981,3.2727,0.1,0.00015608,1559.7,0.00015576,1550.3,-5.0581e-05,-0.010689,-5.3064e-05,-18.672,1.6751
5284,16.981,3.0909,0.1,0.00015608,1559.7,0.00015575,1550.2,-5.0577e-05,-0.010874,-5.3063e-05,-18.69,1.6751
5285,16.981,2.9091,0.1,0.00015608,1559.7,0.00015575,1550.2,-5.0577e-05,-0.010873,-5.3063e-05,-18.69,1.6751
5286,16.981,2.7273,0.1,0.00015608,1559.7,0.00015576,1550.3,-5.0581e-05,-0.010688,-5.3064e-05,-18.672,1.6751
5287,16.981,2.5455,0.1,0.0001561,1559.9,0.00015577,1550.5,-5.0587e-05,-0.010317,-5.3066e-05,-18.635,1.675
5288,16.981,2.3636,0.1,0.00015612,1560.1,0.00015579,1550.7,-5.0596e-05,-0.0097572,-5.3068e-05,-18.582,1.6749
5289,16.981,2.1818,0.1,0.00015614,1560.4,0.00015582,1551,-5.0609e-05,-0.0090084,-5.3072e-05,-18.515,1.6748
5290,16.981,2,0.1,0.00015618,1560.7,0.00015586,1551.4,-5.0624e-05,-0.0080687,-5.3077e-05,-18.438,1.6746
5291,16.981,1.8182,0.1,0.00015622,1561.2,0.0001559,1551.9,-5.0643e-05,-0.0069338,-5.3085e-05,-18.355,1.6744
5292,16.981,1.6364,0.1,0.00015628,1561.7,0.00015596,1552.5,-5.0664e-05,-0.0056065,-5.3095e-05,-18.271,1.6742
5293,16.981,1.4545,0.1,0.00015634,1562.3,0.00015602,1553.1,-5.0689e-05,-0.0040838,-5.3109e-05,-18.191,1.6739
5294,16.981,1.2727,0.1,0.00015641,1563,0.0001561,1553.9,-5.0716e-05,-0.0023786,-5.3128e-05,-18.122,1.6736
5295,16.981,1.0909,0.1,0.0001565,1563.9,0.00015618,1554.8,-5.0746e-05,-0.00046907,-5.3151e-05,-18.071,1.6732
5296,16.981,0.90909,0.1,0.00015659,1564.9,0.00015628,1555.8,-5.0779e-05,0.0015316,-5.3181e-05,-18.044,1.6728
5297,16.981,0.72727,0.1,0.0001567,1565.9,0.00015639,1556.8,-5.0815e-05,0.0040168,-5.3218e-05,-18.05,1.6724
5298,16.981,0.54545,0.1,0.00015683,1567.2,0.00015651,1558.1,-5.0853e-05,0.0053127,-5.3263e-05,-18.104,1.672
5299,16.981,0.36364,0.1,0.00015699,1568.8,0.00015667,1559.5,-5.0894e-05,0.013782,-5.3334e-05,-18.321,1.6715
5300,16.981,0.18182,0.1,0.00015747,1573.6,0.00015711,1563.2,-5.094e-05,-0.00032533,-5.3689e-05,-20.656,1.671
5301,16.796,5.8182,0.1,0.00016191,1618,0.00016156,1607.8,-5.2423e-05,-0.00024367,-5.5123e-05,-20.284,1.6421
5302,16.796,5.6364,0.1,0.00016143,1613.2,0.00016111,1604.1,-5.238e-05,0.013231,-5.4766e-05,-17.92,1.6426
5303,16.796,5.4545,0.1,0.00016127,1611.5,0.00016096,1602.7,-5.2341e-05,0.0051652,-5.469e-05,-17.641,1.6431
5304,16.796,5.2727,0.1,0.00016114,1610.3,0.00016083,1601.4,-5.2304e-05,0.0039327,-5.4637e-05,-17.524,1.6436
5305,16.796,5.0909,0.1,0.00016102,1609.1,0.00016072,1600.3,-5.2271e-05,0.0015549,-5.4594e-05,-17.456,1.644
5306,16.796,4.9091,0.1,0.00016092,1608.1,0.00016062,1599.3,-5.2239e-05,-0.00037288,-5.4558e-05,-17.421,1.6444
5307,16.796,4.7273,0.1,0.00016083,1607.2,0.00016053,1598.5,-5.2211e-05,-0.0022178,-5.4528e-05,-17.414,1.6448
5308,16.796,4.5455,0.1,0.00016076,1606.5,0.00016045,1597.7,-5.2185e-05,-0.0038765,-5.4504e-05,-17.427,1.6451
5309,16.796,4.3636,0.1,0.00016069,1605.8,0.00016039,1597,-5.2162e-05,-0.0053605,-5.4484e-05,-17.455,1.6454
5310,16.796,4.1818,0.1,0.00016064,1605.2,0.00016033,1596.4,-5.2142e-05,-0.0066616,-5.4469e-05,-17.492,1.6456
5311,16.796,4,0.1,0.00016059,1604.8,0.00016028,1595.9,-5.2124e-05,-0.0077763,-5.4456e-05,-17.533,1.6458
5312,16.796,3.8182,0.1,0.00016055,1604.4,0.00016024,1595.5,-5.2109e-05,-0.0087043,-5.4447e-05,-17.574,1.646
5313,16.796,3.6364,0.1,0.00016052,1604.1,0.00016021,1595.2,-5.2098e-05,-0.0094441,-5.444e-05,-17.611,1.6462
5314,16.796,3.4545,0.1,0.0001605,1603.9,0.00016019,1595,-5.2089e-05,-0.0099989,-5.4436e-05,-17.642,1.6463
5315,16.796,3.2727,0.1,0.00016048,1603.7,0.00016018,1594.8,-5.2083e-05,-0.010366,-5.4433e-05,-17.664,1.6463
5316,16.796,3.0909,0.1,0.00016048,1603.7,0.00016017,1594.7,-5.208e-05,-0.010551,-5.4431e-05,-17.675,1.6464
5317,16.796,2.9091,0.1,0.00016048,1603.7,0.00016017,1594.7,-5.208e-05,-0.010551,-5.4431e-05,-17.675,1.6464
5318,16.796,2.7273,0.1,0.00016048,1603.7,0.00016018,1594.8,-5.2083e-05,-0.010366,-5.4433e-05,-17.664,1.6463
5319,16.796,2.5455,0.1,0.0001605,1603.9,0.00016019,1595,-5.2089e-05,-0.0099984,-5.4436e-05,-17.642,1.6463
5320,16.796,2.3636,0.1,0.00016052,1604.1,0.00016021,1595.2,-5.2098e-05,-0.0094439,-5.444e-05,-17.611,1.6462
5321,16.796,2.1818,0.1,0.00016055,1604.4,0.00016024,1595.5,-5.2109e-05,-0.008703,-5.4447e-05,-17.574,1.646
5322,16.796,2,0.1,0.00016059,1604.8,0.00016028,1595.9,-5.2124e-05,-0.0077761,-5.4456e-05,-17.533,1.6458
5323,16.796,1.8182,0.1,0.00016064,1605.2,0.00016033,1596.4,-5.2142e-05,-0.0066614,-5.4469e-05,-17.491,1.6456
5324,16.796,1.6364,0.1,0.00016069,1605.8,0.00016039,1597,-5.2162e-05,-0.0053602,-5.4484e-05,-17.455,1.6454
5325,16.796,1.4545,0.1,0.00016076,1606.5,0.00016045,1597.7,-5.2185e-05,-0.0038764,-5.4504e-05,-17.427,1.6451
5326,16.796,1.2727,0.1,0.00016084,1607.2,0.00016053,1598.5,-5.2211e-05,-0.0022182,-5.4528e-05,-17.414,1.6448
5327,16.796,1.0909,0.1,0.00016092,1608.1,0.00016062,1599.3,-5.2239e-05,-0.00037317,-5.4558e-05,-17.421,1.6444
5328,16.796,0.90909,0.1,0.00016102,1609.1,0.00016072,1600.3,-5.2271e-05,0.0015524,-5.4594e-05,-17.456,1.644
5329,16.796,0.72727,0.1,0.00016114,1610.3,0.00016083,1601.4,-5.2304e-05,0.0039312,-5.4637e-05,-17.524,1.6436
5330,16.796,0.54545,0.1,0.00016127,1611.5,0.00016096,1602.7,-5.2341e-05,0.0051659,-5.469e-05,-17.641,1.6431
5331,16.796,0.36364,0.1,0.00016143,1613.2,0.00016111,1604.1,-5.238e-05,0.013231,-5.4766e-05,-17.92,1.6426
5332,16.796,0.18182,0.1,0.00016191,1618,0.00016156,1607.8,-5.2423e-05,-0.00024333,-5.5123e-05,-20.284,1.6421
5333,16.612,5.8182,0.1,0.00016637,1662.6,0.00016602,1652.5,-5.3913e-05,-0.00017258,-5.6564e-05,-19.918,1.6133
5334,16.612,5.6364,0.1,0.00016589,1657.7,0.00016558,1648.9,-5.3871e-05,0.012679,-5.6206e-05,-17.526,1.6139
5335,16.612,5.4545,0.1,0.00016572,1656.1,0.00016542,1647.4,-5.3835e-05,0.0050058,-5.6123e-05,-17.188,1.6144
5336,16.612,5.2727,0.1,0.00016559,1654.8,0.0001653,1646.2,-5.38e-05,0.0038324,-5.6065e-05,-17.011,1.6149
5337,16.612,5.0909,0.1,0.00016547,1653.6,0.00016518,1645.1,-5.3768e-05,0.0015539,-5.6015e-05,-16.882,1.6153
5338,16.612,4.9091,0.1,0.00016537,1652.6,0.00016508,1644.1,-5.3739e-05,-0.00029791,-5.5973e-05,-16.788,1.6157
5339,16.612,4.7273,0.1,0.00016528,1651.6,0.00016499,1643.2,-5.3712e-05,-0.0020848,-5.5937e-05,-16.724,1.6161
5340,16.612,4.5455,0.1,0.0001652,1650.8,0.00016491,1642.4,-5.3687e-05,-0.0036945,-5.5907e-05,-16.683,1.6164
5341,16.612,4.3636,0.1,0.00016513,1650.1,0.00016484,1641.7,-5.3665e-05,-0.0051434,-5.5882e-05,-16.661,1.6167
5342,16.612,4.1818,0.1,0.00016507,1649.5,0.00016478,1641.2,-5.3646e-05,-0.0064183,-5.5862e-05,-16.653,1.617
5343,16.612,4,0.1,0.00016502,1649,0.00016473,1640.7,-5.363e-05,-0.007515,-5.5845e-05,-16.654,1.6172
5344,16.612,3.8182,0.1,0.00016498,1648.6,0.00016469,1640.2,-5.3616e-05,-0.00843,-5.5832e-05,-16.661,1.6174
5345,16.612,3.6364,0.1,0.00016495,1648.3,0.00016466,1639.9,-5.3605e-05,-0.0091622,-5.5822e-05,-16.67,1.6175
5346,16.612,3.4545,0.1,0.00016492,1648.1,0.00016463,1639.7,-5.3597e-05,-0.0097125,-5.5815e-05,-16.68,1.6176
5347,16.612,3.2727,0.1,0.00016491,1647.9,0.00016462,1639.5,-5.3591e-05,-0.010079,-5.5811e-05,-16.687,1.6177
5348,16.612,3.0909,0.1,0.0001649,1647.8,0.00016461,1639.4,-5.3588e-05,-0.010261,-5.5808e-05,-16.691,1.6177
5349,16.612,2.9091,0.1,0.0001649,1647.8,0.00016461,1639.4,-5.3588e-05,-0.010261,-5.5808e-05,-16.691,1.6177
5350,16.612,2.7273,0.1,0.00016491,1647.9,0.00016462,1639.5,-5.3591e-05,-0.010079,-5.5811e-05,-16.687,1.6177
5351,16.612,2.5455,0.1,0.00016492,1648.1,0.00016463,1639.7,-5.3597e-05,-0.0097121,-5.5815e-05,-16.68,1.6176
5352,16.612,2.3636,0.1,0.00016495,1648.3,0.00016466,1639.9,-5.3605e-05,-0.0091629,-5.5822e-05,-16.67,1.6175
5353,16.612,2.1818,0.1,0.00016498,1648.6,0.00016469,1640.2,-5.3616e-05,-0.0084298,-5.5832e-05,-16.661,1.6174
5354,16.612,2,0.1,0.00016502,1649,0.00016473,1640.7,-5.363e-05,-0.0075148,-5.5845e-05,-16.654,1.6172
5355,16.612,1.8182,0.1,0.00016507,1649.5,0.00016478,1641.2,-5.3646e-05,-0.0064187,-5.5862e-05,-16.653,1.617
5356,16.612,1.6364,0.1,0.00016513,1650.1,0.00016484,1641.7,-5.3665e-05,-0.0051439,-5.5882e-05,-16.661,1.6167
5357,16.612,1.4545,0.1,0.0001652,1650.8,0.00016491,1642.4,-5.3687e-05,-0.003696,-5.5907e-05,-16.683,1.6164
5358,16.612,1.2727,0.1,0.00016528,1651.6,0.00016499,1643.2,-5.3712e-05,-0.0020839,-5.5937e-05,-16.723,1.6161
5359,16.612,1.0909,0.1,0.00016537,1652.6,0.00016508,1644.1,-5.3739e-05,-0.00030015,-5.5973e-05,-16.788,1.6157
5360,16.612,0.90909,0.1,0.00016547,1653.6,0.00016518,1645.1,-5.3768e-05,0.0015527,-5.6015e-05,-16.881,1.6153
5361,16.612,0.72727,0.1,0.00016559,1654.8,0.0001653,1646.2,-5.38e-05,0.0038296,-5.6065e-05,-17.011,1.6149
5362,16.612,0.54545,0.1,0.00016572,1656.1,0.00016542,1647.4,-5.3835e-05,0.0050061,-5.6123e-05,-17.188,1.6144
5363,16.612,0.36364,0.1,0.00016589,1657.7,0.00016558,1648.9,-5.3871e-05,0.012679,-5.6206e-05,-17.526,1.6139
5364,16.612,0.18182,0.1,0.00016637,1662.6,0.00016602,1652.5,-5.3913e-05,-0.00017109,-5.6564e-05,-19.918,1.6133
5365,16.427,5.8182,0.1,0.00017085,1707.3,0.00017051,1697.5,-5.5409e-05,-8.9826e-05,-5.8012e-05,-19.558,1.5847
5366,16.427,5.6364,0.1,0.00017037,1702.5,0.00017007,1693.9,-5.537e-05,0.012152,-5.7652e-05,-17.138,1.5852
5367,16.427,5.4545,0.1,0.0001702,1700.8,0.00016991,1692.4,-5.5335e-05,0.0048599,-5.7564e-05,-16.743,1.5858
5368,16.427,5.2727,0.1,0.00017007,1699.5,0.00016978,1691.2,-5.5302e-05,0.0037412,-5.7499e-05,-16.506,1.5863
5369,16.427,5.0909,0.1,0.00016995,1698.3,0.00016966,1690.1,-5.5272e-05,0.001563,-5.7444e-05,-16.318,1.5867
5370,16.427,4.9091,0.1,0.00016984,1697.2,0.00016956,1689.1,-5.5244e-05,-0.00022151,-5.7396e-05,-16.167,1.5871
5371,16.427,4.7273,0.1,0.00016974,1696.3,0.00016946,1688.2,-5.5218e-05,-0.0019453,-5.7354e-05,-16.048,1.5875
5372,16.427,4.5455,0.1,0.00016966,1695.4,0.00016938,1687.4,-5.5195e-05,-0.0035099,-5.7318e-05,-15.955,1.5878
5373,16.427,4.3636,0.1,0.00016959,1694.7,0.00016931,1686.7,-5.5175e-05,-0.0049253,-5.7288e-05,-15.885,1.5881
5374,16.427,4.1818,0.1,0.00016952,1694.1,0.00016925,1686.1,-5.5157e-05,-0.0061758,-5.7263e-05,-15.833,1.5884
5375,16.427,4,0.1,0.00016947,1693.5,0.0001692,1685.6,-5.5141e-05,-0.0072554,-5.7243e-05,-15.796,1.5886
5376,16.427,3.8182,0.1,0.00016943,1693.1,0.00016915,1685.2,-5.5128e-05,-0.0081593,-5.7226e-05,-15.77,1.5888
5377,16.427,3.6364,0.1,0.00016939,1692.8,0.00016912,1684.8,-5.5118e-05,-0.0088854,-5.7213e-05,-15.753,1.589
5378,16.427,3.4545,0.1,0.00016937,1692.5,0.00016909,1684.6,-5.511e-05,-0.00943,-5.7204e-05,-15.741,1.5891
5379,16.427,3.2727,0.1,0.00016935,1692.3,0.00016908,1684.4,-5.5105e-05,-0.009795,-5.7198e-05,-15.735,1.5892
5380,16.427,3.0909,0.1,0.00016934,1692.2,0.00016907,1684.3,-5.5103e-05,-0.0099779,-5.7195e-05,-15.732,1.5892
5381,16.427,2.9091,0.1,0.00016934,1692.2,0.00016907,1684.3,-5.5103e-05,-0.0099761,-5.7195e-05,-15.732,1.5892
5382,16.427,2.7273,0.1,0.00016935,1692.3,0.00016908,1684.4,-5.5105e-05,-0.0097955,-5.7198e-05,-15.735,1.5892
5383,16.427,2.5455,0.1,0.00016937,1692.5,0.00016909,1684.6,-5.511e-05,-0.0094311,-5.7204e-05,-15.741,1.5891
5384,16.427,2.3636,0.1,0.00016939,1692.8,0.00016912,1684.8,-5.5118e-05,-0.0088851,-5.7213e-05,-15.753,1.589
5385,16.427,2.1818,0.1,0.00016943,1693.1,0.00016915,1685.2,-5.5128e-05,-0.0081594,-5.7226e-05,-15.77,1.5888
5386,16.427,2,0.1,0.00016947,1693.5,0.0001692,1685.6,-5.5141e-05,-0.0072557,-5.7243e-05,-15.796,1.5886
5387,16.427,1.8182,0.1,0.00016952,1694.1,0.00016925,1686.1,-5.5157e-05,-0.0061745,-5.7263e-05,-15.833,1.5884
5388,16.427,1.6364,0.1,0.00016959,1694.7,0.00016931,1686.7,-5.5175e-05,-0.0049254,-5.7288e-05,-15.885,1.5881
5389,16.427,1.4545,0.1,0.00016966,1695.4,0.00016938,1687.4,-5.5195e-05,-0.0035106,-5.7318e-05,-15.955,1.5878
5390,16.427,1.2727,0.1,0.00016974,1696.3,0.00016946,1688.2,-5.5218e-05,-0.0019457,-5.7354e-05,-16.048,1.5875
5391,16.427,1.0909,0.1,0.00016984,1697.2,0.00016956,1689.1,-5.5244e-05,-0.00022099,-5.7396e-05,-16.167,1.5871
5392,16.427,0.90909,0.1,0.00016995,1698.3,0.00016966,1690.1,-5.5272e-05,0.0015596,-5.7444e-05,-16.318,1.5867
5393,16.427,0.72727,0.1,0.00017007,1699.5,0.00016978,1691.2,-5.5302e-05,0.0037396,-5.7499e-05,-16.506,1.5863
5394,16.427,0.54545,0.1,0.0001702,1700.8,0.00016991,1692.4,-5.5335e-05,0.0048595,-5.7564e-05,-16.743,1.5858
5395,16.427,0.36364,0.1,0.00017037,1702.5,0.00017007,1693.9,-5.537e-05,0.012153,-5.7652e-05,-17.138,1.5852
5396,16.427,0.18182,0.1,0.00017085,1707.3,0.00017051,1697.5,-5.5409e-05,-8.8771e-05,-5.8012e-05,-19.558,1.5847
5397,16.242,5.8182,0.1,0.00017535,1752.3,0.00017501,1742.6,-5.6911e-05,5.4342e-06,-5.9467e-05,-19.202,1.5561
5398,16.242,5.6364,0.1,0.00017487,1747.5,0.00017458,1739.1,-5.6874e-05,0.011644,-5.9106e-05,-16.756,1.5567
5399,16.242,5.4545,0.1,0.0001747,1745.8,0.00017442,1737.6,-5.6841e-05,0.0047237,-5.9012e-05,-16.304,1.5573
5400,16.242,5.2727,0.1,0.00017456,1744.4,0.00017428,1736.4,-5.681e-05,0.003657,-5.8941e-05,-16.009,1.5578
5401,16.242,5.0909,0.1,0.00017444,1743.2,0.00017416,1735.2,-5.6782e-05,0.0015771,-5.888e-05,-15.764,1.5582
5402,16.242,4.9091,0.1,0.00017433,1742.1,0.00017406,1734.2,-5.6755e-05,-0.00013762,-5.8826e-05,-15.557,1.5586
5403,16.242,4.7273,0.1,0.00017423,1741.1,0.00017396,1733.3,-5.6731e-05,-0.0018035,-5.8779e-05,-15.384,1.559
5404,16.242,4.5455,0.1,0.00017414,1740.2,0.00017388,1732.5,-5.671e-05,-0.0033237,-5.8738e-05,-15.24,1.5594
5405,16.242,4.3636,0.1,0.00017406,1739.4,0.0001738,1731.8,-5.6691e-05,-0.0047051,-5.8703e-05,-15.123,1.5597
5406,16.242,4.1818,0.1,0.000174,1738.8,0.00017374,1731.2,-5.6674e-05,-0.0059308,-5.8673e-05,-15.029,1.56
5407,16.242,4,0.1,0.00017394,1738.2,0.00017368,1730.7,-5.6659e-05,-0.0069949,-5.8648e-05,-14.954,1.5602
5408,16.242,3.8182,0.1,0.0001739,1737.8,0.00017364,1730.3,-5.6647e-05,-0.0078891,-5.8628e-05,-14.896,1.5604
5409,16.242,3.6364,0.1,0.00017386,1737.4,0.0001736,1729.9,-5.6637e-05,-0.0086092,-5.8613e-05,-14.852,1.5605
5410,16.242,3.4545,0.1,0.00017383,1737.1,0.00017358,1729.7,-5.663e-05,-0.0091538,-5.8601e-05,-14.821,1.5607
5411,16.242,3.2727,0.1,0.00017382,1737,0.00017356,1729.5,-5.6625e-05,-0.0095153,-5.8594e-05,-14.801,1.5607
5412,16.242,3.0909,0.1,0.00017381,1736.9,0.00017355,1729.4,-5.6623e-05,-0.0096982,-5.859e-05,-14.791,1.5608
5413,16.242,2.9091,0.1,0.00017381,1736.9,0.00017355,1729.4,-5.6623e-05,-0.0096965,-5.859e-05,-14.791,1.5608
5414,16.242,2.7273,0.1,0.00017382,1737,0.00017356,1729.5,-5.6625e-05,-0.0095161,-5.8594e-05,-14.801,1.5607
5415,16.242,2.5455,0.1,0.00017383,1737.1,0.00017358,1729.7,-5.663e-05,-0.0091527,-5.8601e-05,-14.821,1.5607
5416,16.242,2.3636,0.1,0.00017386,1737.4,0.0001736,1729.9,-5.6637e-05,-0.0086094,-5.8613e-05,-14.852,1.5605
5417,16.242,2.1818,0.1,0.0001739,1737.8,0.00017364,1730.3,-5.6647e-05,-0.0078893,-5.8628e-05,-14.896,1.5604
5418,16.242,2,0.1,0.00017394,1738.2,0.00017368,1730.7,-5.6659e-05,-0.0069957,-5.8648e-05,-14.954,1.5602
5419,16.242,1.8182,0.1,0.000174,1738.8,0.00017374,1731.2,-5.6674e-05,-0.0059315,-5.8673e-05,-15.029,1.56
5420,16.242,1.6364,0.1,0.00017406,1739.4,0.0001738,1731.8,-5.6691e-05,-0.0047052,-5.8703e-05,-15.123,1.5597
5421,16.242,1.4545,0.1,0.00017414,1740.2,0.00017388,1732.5,-5.671e-05,-0.0033242,-5.8738e-05,-15.24,1.5594
5422,16.242,1.2727,0.1,0.00017423,1741.1,0.00017396,1733.3,-5.6731e-05,-0.0018044,-5.8779e-05,-15.383,1.559
5423,16.242,1.0909,0.1,0.00017433,1742.1,0.00017406,1734.2,-5.6755e-05,-0.00013871,-5.8826e-05,-15.557,1.5586
5424,16.242,0.90909,0.1,0.00017444,1743.2,0.00017416,1735.2,-5.6782e-05,0.0015753,-5.888e-05,-15.764,1.5582
5425,16.242,0.72727,0.1,0.00017456,1744.4,0.00017428,1736.4,-5.681e-05,0.0036568,-5.8941e-05,-16.009,1.5578
5426,16.242,0.54545,0.1,0.0001747,1745.8,0.00017442,1737.6,-5.6841e-05,0.0047212,-5.9012e-05,-16.304,1.5573
5427,16.242,0.36364,0.1,0.00017487,1747.5,0.00017458,1739.1,-5.6874e-05,0.011645,-5.9106e-05,-16.756,1.5567
5428,16.242,0.18182,0.1,0.00017535,1752.3,0.00017501,1742.6,-5.6911e-05,7.4849e-06,-5.9467e-05,-19.202,1.5561
5429,16.057,5.8182,0.1,0.00017987,1797.4,0.00017954,1787.9,-5.842e-05,0.00011711,-6.0929e-05,-18.85,1.5277
5430,16.057,5.6364,0.1,0.00017939,1792.7,0.00017911,1784.4,-5.8385e-05,0.011159,-6.0566e-05,-16.377,1.5283
5431,16.057,5.4545,0.1,0.00017922,1791,0.00017894,1783,-5.8354e-05,0.0046015,-6.0467e-05,-15.87,1.5289
5432,16.057,5.2727,0.1,0.00017908,1789.5,0.00017881,1781.7,-5.8325e-05,0.0035879,-6.0391e-05,-15.517,1.5294
5433,16.057,5.0909,0.1,0.00017895,1788.3,0.00017869,1780.6,-5.8298e-05,0.001604,-6.0323e-05,-15.215,1.5299
5434,16.057,4.9091,0.1,0.00017883,1787.1,0.00017858,1779.6,-5.8273e-05,-4.3984e-05,-6.0263e-05,-14.952,1.5303
5435,16.057,4.7273,0.1,0.00017873,1786.1,0.00017848,1778.7,-5.8251e-05,-0.0016523,-6.0211e-05,-14.726,1.5307
5436,16.057,4.5455,0.1,0.00017864,1785.2,0.00017839,1777.9,-5.8231e-05,-0.0031288,-6.0164e-05,-14.533,1.531
5437,16.057,4.3636,0.1,0.00017856,1784.4,0.00017831,1777.2,-5.8213e-05,-0.0044768,-6.0124e-05,-14.37,1.5314
5438,16.057,4.1818,0.1,0.00017849,1783.7,0.00017825,1776.5,-5.8197e-05,-0.0056797,-6.009e-05,-14.234,1.5316
5439,16.057,4,0.1,0.00017843,1783.1,0.00017819,1776,-5.8183e-05,-0.0067298,-6.0062e-05,-14.122,1.5319
5440,16.057,3.8182,0.1,0.00017839,1782.6,0.00017814,1775.6,-5.8172e-05,-0.0076147,-6.0038e-05,-14.032,1.5321
5441,16.057,3.6364,0.1,0.00017835,1782.3,0.00017811,1775.2,-5.8163e-05,-0.0083317,-6.002e-05,-13.963,1.5322
5442,16.057,3.4545,0.1,0.00017832,1782,0.00017808,1775,-5.8156e-05,-0.0088723,-6.0007e-05,-13.913,1.5323
5443,16.057,3.2727,0.1,0.0001783,1781.8,0.00017806,1774.8,-5.8152e-05,-0.0092345,-5.9998e-05,-13.88,1.5324
5444,16.057,3.0909,0.1,0.00017829,1781.7,0.00017805,1774.7,-5.8149e-05,-0.0094163,-5.9993e-05,-13.863,1.5325
5445,16.057,2.9091,0.1,0.00017829,1781.7,0.00017805,1774.7,-5.8149e-05,-0.0094169,-5.9993e-05,-13.863,1.5325
5446,16.057,2.7273,0.1,0.0001783,1781.8,0.00017806,1774.8,-5.8152e-05,-0.0092355,-5.9998e-05,-13.88,1.5324
5447,16.057,2.5455,0.1,0.00017832,1782,0.00017808,1775,-5.8156e-05,-0.0088728,-6.0007e-05,-13.913,1.5323
5448,16.057,2.3636,0.1,0.00017835,1782.3,0.00017811,1775.2,-5.8163e-05,-0.0083314,-6.002e-05,-13.963,1.5322
5449,16.057,2.1818,0.1,0.00017839,1782.6,0.00017814,1775.6,-5.8172e-05,-0.0076157,-6.0038e-05,-14.032,1.5321
5450,16.057,2,0.1,0.00017843,1783.1,0.00017819,1776,-5.8183e-05,-0.0067303,-6.0062e-05,-14.122,1.5319
5451,16.057,1.8182,0.1,0.00017849,1783.7,0.00017825,1776.5,-5.8197e-05,-0.00568,-6.009e-05,-14.234,1.5316
5452,16.057,1.6364,0.1,0.00017856,1784.4,0.00017831,1777.2,-5.8213e-05,-0.0044768,-6.0124e-05,-14.37,1.5314
5453,16.057,1.4545,0.1,0.00017864,1785.2,0.00017839,1777.9,-5.8231e-05,-0.0031284,-6.0164e-05,-14.533,1.531
5454,16.057,1.2727,0.1,0.00017873,1786.1,0.00017848,1778.7,-5.8251e-05,-0.0016528,-6.0211e-05,-14.726,1.5307
5455,16.057,1.0909,0.1,0.00017883,1787.1,0.00017858,1779.6,-5.8273e-05,-4.4132e-05,-6.0263e-05,-14.952,1.5303
5456,16.057,0.90909,0.1,0.00017895,1788.3,0.00017869,1780.6,-5.8298e-05,0.0016012,-6.0323e-05,-15.215,1.5299
5457,16.057,0.72727,0.1,0.00017908,1789.5,0.00017881,1781.7,-5.8325e-05,0.003587,-6.0391e-05,-15.517,1.5294
5458,16.057,0.54545,0.1,0.00017922,1791,0.00017894,1783,-5.8354e-05,0.0046013,-6.0467e-05,-15.87,1.5289
5459,16.057,0.36364,0.1,0.00017939,1792.7,0.00017911,1784.4,-5.8385e-05,0.01116,-6.0566e-05,-16.377,1.5283
5460,16.057,0.18182,0.1,0.00017987,1797.4,0.00017954,1787.9,-5.842e-05,0.00011762,-6.0929e-05,-18.85,1.5277
5461,15.873,5.8182,0.1,0.00018441,1842.8,0.00018409,1833.5,-5.9936e-05,0.00020709,-6.2398e-05,-18.502,1.4994
5462,15.873,5.6364,0.1,0.00018393,1838.1,0.00018366,1830,-5.9903e-05,0.01065,-6.2034e-05,-16.002,1.5
5463,15.873,5.4545,0.1,0.00018376,1836.3,0.00018349,1828.5,-5.9873e-05,0.0044553,-6.1929e-05,-15.438,1.5006
5464,15.873,5.2727,0.1,0.00018361,1834.9,0.00018335,1827.3,-5.9846e-05,0.0034913,-6.1847e-05,-15.028,1.5011
5465,15.873,5.0909,0.1,0.00018348,1833.6,0.00018323,1826.2,-5.9821e-05,0.0016011,-6.1773e-05,-14.669,1.5016
5466,15.873,4.9091,0.1,0.00018336,1832.4,0.00018312,1825.2,-5.9798e-05,2.1469e-05,-6.1708e-05,-14.351,1.5021
5467,15.873,4.7273,0.1,0.00018326,1831.3,0.00018301,1824.2,-5.9777e-05,-0.0015295,-6.1649e-05,-14.073,1.5025
5468,15.873,4.5455,0.1,0.00018316,1830.4,0.00018292,1823.4,-5.9758e-05,-0.0029622,-6.1598e-05,-13.83,1.5028
5469,15.873,4.3636,0.1,0.00018308,1829.5,0.00018284,1822.7,-5.9741e-05,-0.0042785,-6.1553e-05,-13.621,1.5031
5470,15.873,4.1818,0.1,0.00018301,1828.8,0.00018278,1822.1,-5.9726e-05,-0.0054598,-6.1515e-05,-13.444,1.5034
5471,15.873,4,0.1,0.00018295,1828.2,0.00018272,1821.5,-5.9714e-05,-0.0064952,-6.1482e-05,-13.296,1.5037
5472,15.873,3.8182,0.1,0.0001829,1827.7,0.00018267,1821.1,-5.9703e-05,-0.0073741,-6.1456e-05,-13.175,1.5039
5473,15.873,3.6364,0.1,0.00018286,1827.3,0.00018263,1820.7,-5.9695e-05,-0.0080872,-6.1435e-05,-13.08,1.504
5474,15.873,3.4545,0.1,0.00018283,1827,0.0001826,1820.5,-5.9688e-05,-0.0086289,-6.1419e-05,-13.01,1.5042
5475,15.873,3.2727,0.1,0.00018281,1826.8,0.00018258,1820.3,-5.9684e-05,-0.0089916,-6.1409e-05,-12.964,1.5042
5476,15.873,3.0909,0.1,0.0001828,1826.7,0.00018258,1820.2,-5.9682e-05,-0.0091737,-6.1403e-05,-12.941,1.5043
5477,15.873,2.9091,0.1,0.0001828,1826.7,0.00018258,1820.2,-5.9682e-05,-0.0091729,-6.1403e-05,-12.941,1.5043
5478,15.873,2.7273,0.1,0.00018281,1826.8,0.00018258,1820.3,-5.9684e-05,-0.0089908,-6.1409e-05,-12.964,1.5042
5479,15.873,2.5455,0.1,0.00018283,1827,0.0001826,1820.5,-5.9688e-05,-0.0086283,-6.1419e-05,-13.01,1.5042
5480,15.873,2.3636,0.1,0.00018286,1827.3,0.00018263,1820.7,-5.9695e-05,-0.0080874,-6.1435e-05,-13.08,1.504
5481,15.873,2.1818,0.1,0.0001829,1827.7,0.00018267,1821.1,-5.9703e-05,-0.007374,-6.1456e-05,-13.175,1.5039
5482,15.873,2,0.1,0.00018295,1828.2,0.00018272,1821.5,-5.9714e-05,-0.0064953,-6.1482e-05,-13.296,1.5037
5483,15.873,1.8182,0.1,0.00018301,1828.8,0.00018278,1822.1,-5.9726e-05,-0.0054603,-6.1515e-05,-13.444,1.5034
5484,15.873,1.6364,0.1,0.00018308,1829.5,0.00018284,1822.7,-5.9741e-05,-0.0042785,-6.1553e-05,-13.621,1.5031
5485,15.873,1.4545,0.1,0.00018316,1830.4,0.00018292,1823.4,-5.9758e-05,-0.0029615,-6.1598e-05,-13.83,1.5028
5486,15.873,1.2727,0.1,0.00018326,1831.3,0.00018301,1824.2,-5.9777e-05,-0.0015299,-6.1649e-05,-14.073,1.5025
5487,15.873,1.0909,0.1,0.00018336,1832.4,0.00018312,1825.2,-5.9798e-05,2.1225e-05,-6.1708e-05,-14.351,1.5021
5488,15.873,0.90909,0.1,0.00018348,1833.6,0.00018323,1826.2,-5.9821e-05,0.0015991,-6.1773e-05,-14.669,1.5016
5489,15.873,0.72727,0.1,0.00018361,1834.9,0.00018335,1827.3,-5.9846e-05,0.0034882,-6.1847e-05,-15.028,1.5011
5490,15.873,0.54545,0.1,0.00018376,1836.3,0.00018349,1828.5,-5.9873e-05,0.004455,-6.1929e-05,-15.438,1.5006
5491,15.873,0.36364,0.1,0.00018393,1838.1,0.00018366,1830,-5.9903e-05,0.010652,-6.2034e-05,-16.002,1.5
5492,15.873,0.18182,0.1,0.00018441,1842.8,0.00018409,1833.5,-5.9936e-05,0.00020785,-6.2398e-05,-18.502,1.4994
5493,15.688,5.8182,0.1,0.00018897,1888.4,0.00018865,1879.2,-6.1458e-05,0.0003008,-6.3874e-05,-18.156,1.4713
5494,15.688,5.6364,0.1,0.00018849,1883.6,0.00018822,1875.8,-6.1427e-05,0.010145,-6.3508e-05,-15.628,1.4719
5495,15.688,5.4545,0.1,0.00018832,1881.9,0.00018806,1874.3,-6.1399e-05,0.0043065,-6.3397e-05,-15.007,1.4725
5496,15.688,5.2727,0.1,0.00018817,1880.4,0.00018792,1873.1,-6.1374e-05,0.0033932,-6.3309e-05,-14.539,1.473
5497,15.688,5.0909,0.1,0.00018803,1879,0.00018779,1871.9,-6.135e-05,0.0015973,-6.323e-05,-14.123,1.4735
5498,15.688,4.9091,0.1,0.00018791,1877.8,0.00018767,1870.9,-6.1329e-05,8.6016e-05,-6.3159e-05,-13.75,1.4739
5499,15.688,4.7273,0.1,0.0001878,1876.7,0.00018757,1870,-6.1309e-05,-0.001408,-6.3095e-05,-13.419,1.4744
5500,15.688,4.5455,0.1,0.00018771,1875.8,0.00018748,1869.2,-6.1292e-05,-0.0027957,-6.3038e-05,-13.127,1.4747
5501,15.688,4.3636,0.1,0.00018762,1874.9,0.0001874,1868.4,-6.1276e-05,-0.0040809,-6.2989e-05,-12.873,1.4751
5502,15.688,4.1818,0.1,0.00018754,1874.2,0.00018733,1867.8,-6.1262e-05,-0.0052424,-6.2946e-05,-12.654,1.4753
5503,15.688,4,0.1,0.00018748,1873.5,0.00018727,1867.3,-6.1251e-05,-0.0062654,-6.2909e-05,-12.469,1.4756
5504,15.688,3.8182,0.1,0.00018743,1873,0.00018722,1866.8,-6.1241e-05,-0.0071385,-6.2879e-05,-12.318,1.4758
5505,15.688,3.6364,0.1,0.00018739,1872.6,0.00018718,1866.4,-6.1233e-05,-0.0078495,-6.2856e-05,-12.198,1.476
5506,15.688,3.4545,0.1,0.00018736,1872.3,0.00018715,1866.2,-6.1227e-05,-0.0083924,-6.2838e-05,-12.109,1.4761
5507,15.688,3.2727,0.1,0.00018734,1872.1,0.00018713,1866,-6.1224e-05,-0.0087564,-6.2826e-05,-12.05,1.4762
5508,15.688,3.0909,0.1,0.00018733,1872,0.00018712,1865.9,-6.1222e-05,-0.00894,-6.282e-05,-12.02,1.4762
5509,15.688,2.9091,0.1,0.00018733,1872,0.00018712,1865.9,-6.1222e-05,-0.0089407,-6.282e-05,-12.02,1.4762
5510,15.688,2.7273,0.1,0.00018734,1872.1,0.00018713,1866,-6.1224e-05,-0.0087572,-6.2826e-05,-12.05,1.4762
5511,15.688,2.5455,0.1,0.00018736,1872.3,0.00018715,1866.2,-6.1227e-05,-0.0083926,-6.2838e-05,-12.109,1.4761
5512,15.688,2.3636,0.1,0.00018739,1872.6,0.00018718,1866.4,-6.1233e-05,-0.0078492,-6.2856e-05,-12.198,1.476
5513,15.688,2.1818,0.1,0.00018743,1873,0.00018722,1866.8,-6.1241e-05,-0.007139,-6.2879e-05,-12.318,1.4758
5514,15.688,2,0.1,0.00018748,1873.5,0.00018727,1867.3,-6.1251e-05,-0.0062654,-6.2909e-05,-12.469,1.4756
5515,15.688,1.8182,0.1,0.00018754,1874.2,0.00018733,1867.8,-6.1262e-05,-0.0052412,-6.2946e-05,-12.654,1.4753
5516,15.688,1.6364,0.1,0.00018762,1874.9,0.0001874,1868.4,-6.1276e-05,-0.0040825,-6.2989e-05,-12.873,1.4751
5517,15.688,1.4545,0.1,0.00018771,1875.8,0.00018748,1869.2,-6.1292e-05,-0.0027966,-6.3038e-05,-13.127,1.4747
5518,15.688,1.2727,0.1,0.0001878,1876.7,0.00018757,1870,-6.1309e-05,-0.0014075,-6.3095e-05,-13.419,1.4744
5519,15.688,1.0909,0.1,0.00018791,1877.8,0.00018767,1870.9,-6.1329e-05,8.5644e-05,-6.3159e-05,-13.75,1.4739
5520,15.688,0.90909,0.1,0.00018803,1879,0.00018779,1871.9,-6.135e-05,0.0015958,-6.323e-05,-14.123,1.4735
5521,15.688,0.72727,0.1,0.00018817,1880.4,0.00018792,1873.1,-6.1374e-05,0.0033903,-6.3309e-05,-14.539,1.473
5522,15.688,0.54545,0.1,0.00018832,1881.9,0.00018806,1874.3,-6.1399e-05,0.0043056,-6.3397e-05,-15.007,1.4725
5523,15.688,0.36364,0.1,0.00018849,1883.6,0.00018822,1875.8,-6.1427e-05,0.010143,-6.3508e-05,-15.628,1.4719
5524,15.688,0.18182,0.1,0.00018897,1888.4,0.00018865,1879.2,-6.1458e-05,0.00030108,-6.3874e-05,-18.156,1.4713
5525,15.503,5.8182,0.1,0.00019355,1934.1,0.00019324,1925.2,-6.2987e-05,0.00042984,-6.5357e-05,-17.812,1.4432
5526,15.503,5.6364,0.1,0.00019308,1929.4,0.00019281,1921.8,-6.2957e-05,0.0096647,-6.4989e-05,-15.254,1.4438
5527,15.503,5.4545,0.1,0.0001929,1927.6,0.00019264,1920.3,-6.2932e-05,0.0041872,-6.4872e-05,-14.576,1.4444
5528,15.503,5.2727,0.1,0.00019274,1926.1,0.0001925,1919,-6.2908e-05,0.0033244,-6.4778e-05,-14.049,1.445
5529,15.503,5.0909,0.1,0.00019261,1924.7,0.00019237,1917.9,-6.2886e-05,0.0016237,-6.4693e-05,-13.575,1.4455
5530,15.503,4.9091,0.1,0.00019248,1923.5,0.00019225,1916.9,-6.2866e-05,0.00018147,-6.4616e-05,-13.146,1.446
5531,15.503,4.7273,0.1,0.00019237,1922.3,0.00019215,1915.9,-6.2848e-05,-0.001253,-6.4547e-05,-12.762,1.4464
5532,15.503,4.5455,0.1,0.00019227,1921.3,0.00019205,1915.1,-6.2832e-05,-0.0025982,-6.4485e-05,-12.42,1.4468
5533,15.503,4.3636,0.1,0.00019218,1920.5,0.00019197,1914.4,-6.2818e-05,-0.0038503,-6.443e-05,-12.12,1.4471
5534,15.503,4.1818,0.1,0.0001921,1919.7,0.0001919,1913.7,-6.2805e-05,-0.0049912,-6.4383e-05,-11.859,1.4474
5535,15.503,4,0.1,0.00019203,1919,0.00019183,1913.2,-6.2795e-05,-0.0060042,-6.4343e-05,-11.638,1.4477
5536,15.503,3.8182,0.1,0.00019198,1918.5,0.00019178,1912.7,-6.2786e-05,-0.0068735,-6.4309e-05,-11.455,1.4479
5537,15.503,3.6364,0.1,0.00019194,1918,0.00019174,1912.4,-6.2779e-05,-0.0075866,-6.4283e-05,-11.31,1.448
5538,15.503,3.4545,0.1,0.0001919,1917.7,0.00019171,1912.1,-6.2773e-05,-0.0081318,-6.4263e-05,-11.201,1.4482
5539,15.503,3.2727,0.1,0.00019188,1917.5,0.00019169,1911.9,-6.277e-05,-0.0084997,-6.425e-05,-11.129,1.4482
5540,15.503,3.0909,0.1,0.00019187,1917.4,0.00019168,1911.8,-6.2768e-05,-0.0086858,-6.4243e-05,-11.093,1.4483
5541,15.503,2.9091,0.1,0.00019187,1917.4,0.00019168,1911.8,-6.2768e-05,-0.0086851,-6.4243e-05,-11.093,1.4483
5542,15.503,2.7273,0.1,0.00019188,1917.5,0.00019169,1911.9,-6.277e-05,-0.0084993,-6.425e-05,-11.129,1.4482
5543,15.503,2.5455,0.1,0.0001919,1917.7,0.00019171,1912.1,-6.2773e-05,-0.0081313,-6.4263e-05,-11.201,1.4482
5544,15.503,2.3636,0.1,0.00019194,1918,0.00019174,1912.4,-6.2779e-05,-0.0075858,-6.4283e-05,-11.31,1.448
5545,15.503,2.1818,0.1,0.00019198,1918.5,0.00019178,1912.7,-6.2786e-05,-0.0068738,-6.4309e-05,-11.455,1.4479
5546,15.503,2,0.1,0.00019203,1919,0.00019183,1913.2,-6.2795e-05,-0.0060056,-6.4343e-05,-11.638,1.4477
5547,15.503,1.8182,0.1,0.0001921,1919.7,0.0001919,1913.7,-6.2805e-05,-0.004992,-6.4383e-05,-11.859,1.4474
5548,15.503,1.6364,0.1,0.00019218,1920.5,0.00019197,1914.4,-6.2818e-05,-0.0038513,-6.443e-05,-12.119,1.4471
5549,15.503,1.4545,0.1,0.00019227,1921.3,0.00019205,1915.1,-6.2832e-05,-0.0025984,-6.4485e-05,-12.42,1.4468
5550,15.503,1.2727,0.1,0.00019237,1922.3,0.00019215,1915.9,-6.2848e-05,-0.0012536,-6.4547e-05,-12.762,1.4464
5551,15.503,1.0909,0.1,0.00019248,1923.5,0.00019225,1916.9,-6.2866e-05,0.00018088,-6.4616e-05,-13.146,1.446
5552,15.503,0.90909,0.1,0.00019261,1924.7,0.00019237,1917.9,-6.2886e-05,0.0016236,-6.4693e-05,-13.575,1.4455
5553,15.503,0.72727,0.1,0.00019274,1926.1,0.0001925,1919,-6.2908e-05,0.0033226,-6.4778e-05,-14.049,1.445
5554,15.503,0.54545,0.1,0.0001929,1927.6,0.00019264,1920.3,-6.2932e-05,0.0041869,-6.4872e-05,-14.576,1.4444
5555,15.503,0.36364,0.1,0.00019308,1929.4,0.00019281,1921.8,-6.2957e-05,0.0096668,-6.4989e-05,-15.254,1.4438
5556,15.503,0.18182,0.1,0.00019355,1934.2,0.00019324,1925.2,-6.2987e-05,0.00042949,-6.5357e-05,-17.812,1.4432
5557,15.319,5.8182,0.1,0.00019815,1980.1,0.00019785,1971.3,-6.4522e-05,0.00053986,-6.6847e-05,-17.47,1.4153
5558,15.319,5.6364,0.1,0.00019768,1975.4,0.00019742,1968,-6.4495e-05,0.0091551,-6.6477e-05,-14.88,1.4159
5559,15.319,5.4545,0.1,0.00019749,1973.6,0.00019725,1966.5,-6.4471e-05,0.0040397,-6.6354e-05,-14.142,1.4165
5560,15.319,5.2727,0.1,0.00019734,1972,0.00019711,1965.2,-6.4449e-05,0.0032283,-6.6254e-05,-13.554,1.4171
5561,15.319,5.0909,0.1,0.0001972,1970.6,0.00019697,1964.1,-6.4429e-05,0.0016247,-6.6162e-05,-13.021,1.4176
5562,15.319,4.9091,0.1,0.00019707,1969.3,0.00019685,1963,-6.4411e-05,0.00025309,-6.6079e-05,-12.536,1.4181
5563,15.319,4.7273,0.1,0.00019695,1968.2,0.00019674,1962.1,-6.4394e-05,-0.0011218,-6.6004e-05,-12.097,1.4185
5564,15.319,4.5455,0.1,0.00019685,1967.1,0.00019665,1961.2,-6.4379e-05,-0.0024214,-6.5937e-05,-11.705,1.4189
5565,15.319,4.3636,0.1,0.00019676,1966.2,0.00019656,1960.5,-6.4366e-05,-0.0036421,-6.5877e-05,-11.357,1.4193
5566,15.319,4.1818,0.1,0.00019668,1965.4,0.00019648,1959.8,-6.4355e-05,-0.0047637,-6.5826e-05,-11.055,1.4196
5567,15.319,4,0.1,0.00019661,1964.7,0.00019642,1959.3,-6.4345e-05,-0.0057679,-6.5781e-05,-10.796,1.4198
5568,15.319,3.8182,0.1,0.00019655,1964.1,0.00019637,1958.8,-6.4337e-05,-0.0066348,-6.5745e-05,-10.582,1.4201
5569,15.319,3.6364,0.1,0.0001965,1963.7,0.00019633,1958.5,-6.4331e-05,-0.0073509,-6.5715e-05,-10.411,1.4202
5570,15.319,3.4545,0.1,0.00019647,1963.3,0.00019629,1958.2,-6.4326e-05,-0.007902,-6.5693e-05,-10.282,1.4204
5571,15.319,3.2727,0.1,0.00019645,1963.1,0.00019627,1958,-6.4323e-05,-0.0082757,-6.5679e-05,-10.197,1.4204
5572,15.319,3.0909,0.1,0.00019644,1963,0.00019626,1957.9,-6.4321e-05,-0.0084638,-6.5671e-05,-10.155,1.4205
5573,15.319,2.9091,0.1,0.00019644,1963,0.00019626,1957.9,-6.4321e-05,-0.0084643,-6.5671e-05,-10.155,1.4205
5574,15.319,2.7273,0.1,0.00019645,1963.1,0.00019627,1958,-6.4323e-05,-0.008276,-6.5679e-05,-10.197,1.4204
5575,15.319,2.5455,0.1,0.00019647,1963.3,0.00019629,1958.2,-6.4326e-05,-0.0079033,-6.5693e-05,-10.282,1.4204
5576,15.319,2.3636,0.1,0.0001965,1963.7,0.00019633,1958.5,-6.4331e-05,-0.0073505,-6.5715e-05,-10.411,1.4202
5577,15.319,2.1818,0.1,0.00019655,1964.1,0.00019637,1958.8,-6.4337e-05,-0.0066357,-6.5745e-05,-10.582,1.4201
5578,15.319,2,0.1,0.00019661,1964.7,0.00019642,1959.3,-6.4345e-05,-0.0057672,-6.5781e-05,-10.796,1.4198
5579,15.319,1.8182,0.1,0.00019668,1965.4,0.00019648,1959.8,-6.4355e-05,-0.004764,-6.5826e-05,-11.055,1.4196
5580,15.319,1.6364,0.1,0.00019676,1966.2,0.00019656,1960.5,-6.4366e-05,-0.0036423,-6.5877e-05,-11.357,1.4193
5581,15.319,1.4545,0.1,0.00019685,1967.1,0.00019665,1961.2,-6.4379e-05,-0.0024231,-6.5937e-05,-11.705,1.4189
5582,15.319,1.2727,0.1,0.00019695,1968.2,0.00019674,1962.1,-6.4394e-05,-0.0011215,-6.6004e-05,-12.097,1.4185
5583,15.319,1.0909,0.1,0.00019707,1969.3,0.00019685,1963,-6.4411e-05,0.0002521,-6.6079e-05,-12.536,1.4181
5584,15.319,0.90909,0.1,0.0001972,1970.6,0.00019697,1964.1,-6.4429e-05,0.0016245,-6.6162e-05,-13.021,1.4176
5585,15.319,0.72727,0.1,0.00019734,1972,0.00019711,1965.2,-6.4449e-05,0.003225,-6.6254e-05,-13.554,1.4171
5586,15.319,0.54545,0.1,0.0001975,1973.6,0.00019725,1966.5,-6.4471e-05,0.0040395,-6.6354e-05,-14.142,1.4165
5587,15.319,0.36364,0.1,0.00019768,1975.4,0.00019742,1968,-6.4495e-05,0.0091564,-6.6477e-05,-14.88,1.4159
5588,15.319,0.18182,0.1,0.00019815,1980.1,0.00019785,1971.3,-6.4522e-05,0.00053864,-6.6847e-05,-17.47,1.4153
5589,15.134,5.8182,0.1,0.00020277,2026.3,0.00020247,2017.7,-6.6064e-05,0.0006617,-6.8344e-05,-17.128,1.3875
5590,15.134,5.6364,0.1,0.0002023,2021.6,0.00020205,2014.3,-6.6039e-05,0.0086438,-6.7971e-05,-14.504,1.3882
5591,15.134,5.4545,0.1,0.00020211,2019.7,0.00020188,2012.9,-6.6017e-05,0.0038966,-6.7842e-05,-13.704,1.3888
5592,15.134,5.2727,0.1,0.00020195,2018.2,0.00020173,2011.6,-6.5997e-05,0.0031356,-6.7735e-05,-13.054,1.3894
5593,15.134,5.0909,0.1,0.00020181,2016.7,0.00020159,2010.4,-6.5979e-05,0.0016332,-6.7637e-05,-12.46,1.3899
5594,15.134,4.9091,0.1,0.00020168,2015.4,0.00020147,2009.4,-6.5962e-05,0.00033412,-6.7548e-05,-11.916,1.3904
5595,15.134,4.7273,0.1,0.00020156,2014.2,0.00020136,2008.4,-6.5947e-05,-0.00097826,-6.7467e-05,-11.422,1.3908
5596,15.134,4.5455,0.1,0.00020145,2013.1,0.00020126,2007.6,-6.5934e-05,-0.0022285,-6.7394e-05,-10.977,1.3912
5597,15.134,4.3636,0.1,0.00020135,2012.1,0.00020117,2006.8,-6.5922e-05,-0.0034183,-6.733e-05,-10.582,1.3916
5598,15.134,4.1818,0.1,0.00020127,2011.3,0.00020109,2006.2,-6.5912e-05,-0.0045199,-6.7273e-05,-10.236,1.3919
5599,15.134,4,0.1,0.0002012,2010.6,0.00020103,2005.6,-6.5903e-05,-0.0055162,-6.7225e-05,-9.9392,1.3922
5600,15.134,3.8182,0.1,0.00020114,2010,0.00020097,2005.1,-6.5896e-05,-0.0063855,-6.7185e-05,-9.6922,1.3924
5601,15.134,3.6364,0.1,0.00020109,2009.5,0.00020093,2004.8,-6.589e-05,-0.0071088,-6.7153e-05,-9.4946,1.3926
5602,15.134,3.4545,0.1,0.00020106,2009.2,0.0002009,2004.5,-6.5886e-05,-0.0076691,-6.7129e-05,-9.3464,1.3927
5603,15.134,3.2727,0.1,0.00020103,2008.9,0.00020087,2004.3,-6.5883e-05,-0.0080492,-6.7113e-05,-9.2477,1.3928
5604,15.134,3.0909,0.1,0.00020102,2008.8,0.00020086,2004.2,-6.5881e-05,-0.0082439,-6.7104e-05,-9.1983,1.3928
5605,15.134,2.9091,0.1,0.00020102,2008.8,0.00020086,2004.2,-6.5881e-05,-0.0082433,-6.7104e-05,-9.1983,1.3928
5606,15.134,2.7273,0.1,0.00020103,2008.9,0.00020087,2004.3,-6.5883e-05,-0.0080503,-6.7113e-05,-9.2476,1.3928
5607,15.134,2.5455,0.1,0.00020106,2009.2,0.0002009,2004.5,-6.5886e-05,-0.0076685,-6.7129e-05,-9.3464,1.3927
5608,15.134,2.3636,0.1,0.00020109,2009.5,0.00020093,2004.8,-6.589e-05,-0.0071092,-6.7153e-05,-9.4946,1.3926
5609,15.134,2.1818,0.1,0.00020114,2010,0.00020097,2005.1,-6.5896e-05,-0.0063856,-6.7185e-05,-9.6922,1.3924
5610,15.134,2,0.1,0.0002012,2010.6,0.00020103,2005.6,-6.5903e-05,-0.0055162,-6.7225e-05,-9.9392,1.3922
5611,15.134,1.8182,0.1,0.00020127,2011.3,0.00020109,2006.2,-6.5912e-05,-0.0045197,-6.7273e-05,-10.236,1.3919
5612,15.134,1.6364,0.1,0.00020135,2012.1,0.00020117,2006.8,-6.5922e-05,-0.0034177,-6.733e-05,-10.581,1.3916
5613,15.134,1.4545,0.1,0.00020145,2013.1,0.00020126,2007.6,-6.5934e-05,-0.0022298,-6.7394e-05,-10.977,1.3912
5614,15.134,1.2727,0.1,0.00020156,2014.2,0.00020136,2008.4,-6.5947e-05,-0.00097787,-6.7467e-05,-11.422,1.3908
5615,15.134,1.0909,0.1,0.00020168,2015.4,0.00020147,2009.4,-6.5962e-05,0.00033384,-6.7548e-05,-11.916,1.3904
5616,15.134,0.90909,0.1,0.00020181,2016.7,0.00020159,2010.4,-6.5979e-05,0.0016315,-6.7637e-05,-12.46,1.3899
5617,15.134,0.72727,0.1,0.00020195,2018.2,0.00020173,2011.6,-6.5997e-05,0.0031345,-6.7735e-05,-13.054,1.3894
5618,15.134,0.54545,0.1,0.00020211,2019.7,0.00020188,2012.9,-6.6017e-05,0.0038955,-6.7842e-05,-13.704,1.3888
5619,15.134,0.36364,0.1,0.0002023,2021.6,0.00020205,2014.3,-6.6039e-05,0.0086448,-6.7971e-05,-14.504,1.3882
5620,15.134,0.18182,0.1,0.00020277,2026.3,0.00020247,2017.7,-6.6064e-05,0.00066241,-6.8344e-05,-17.128,1.3875
5621,14.949,5.8182,0.1,0.00020741,2072.7,0.00020712,2064.3,-6.7613e-05,0.00079573,-6.9847e-05,-16.785,1.3599
5622,14.949,5.6364,0.1,0.00020694,2068,0.0002067,2060.9,-6.759e-05,0.0081234,-6.9471e-05,-14.124,1.3605
5623,14.949,5.4545,0.1,0.00020675,2066.1,0.00020652,2059.4,-6.7571e-05,0.0037527,-6.9336e-05,-13.259,1.3612
5624,14.949,5.2727,0.1,0.00020659,2064.5,0.00020637,2058.2,-6.7552e-05,0.0030455,-6.9222e-05,-12.545,1.3618
5625,14.949,5.0909,0.1,0.00020644,2063,0.00020624,2057,-6.7536e-05,0.0016467,-6.9118e-05,-11.888,1.3623
5626,14.949,4.9091,0.1,0.0002063,2061.6,0.00020611,2055.9,-6.7521e-05,0.00042553,-6.9022e-05,-11.283,1.3628
5627,14.949,4.7273,0.1,0.00020618,2060.4,0.00020599,2055,-6.7507e-05,-0.00081959,-6.8935e-05,-10.731,1.3633
5628,14.949,4.5455,0.1,0.00020607,2059.3,0.00020589,2054.1,-6.7495e-05,-0.0020218,-6.8857e-05,-10.232,1.3637
5629,14.949,4.3636,0.1,0.00020597,2058.3,0.0002058,2053.4,-6.7485e-05,-0.0031745,-6.8787e-05,-9.7874,1.364
5630,14.949,4.1818,0.1,0.00020588,2057.4,0.00020572,2052.7,-6.7476e-05,-0.0042592,-6.8726e-05,-9.3969,1.3643
5631,14.949,4,0.1,0.00020581,2056.7,0.00020565,2052.1,-6.7468e-05,-0.0052501,-6.8673e-05,-9.0612,1.3646
5632,14.949,3.8182,0.1,0.00020575,2056,0.0002056,2051.6,-6.7461e-05,-0.0061229,-6.8629e-05,-8.7807,1.3648
5633,14.949,3.6364,0.1,0.0002057,2055.6,0.00020555,2051.3,-6.7456e-05,-0.0068576,-6.8594e-05,-8.5559,1.365
5634,14.949,3.4545,0.1,0.00020566,2055.2,0.00020552,2051,-6.7453e-05,-0.0074314,-6.8568e-05,-8.3871,1.3652
5635,14.949,3.2727,0.1,0.00020564,2054.9,0.00020549,2050.8,-6.745e-05,-0.0078252,-6.855e-05,-8.2743,1.3652
5636,14.949,3.0909,0.1,0.00020562,2054.8,0.00020548,2050.7,-6.7449e-05,-0.008025,-6.8542e-05,-8.2179,1.3653
5637,14.949,2.9091,0.1,0.00020562,2054.8,0.00020548,2050.7,-6.7449e-05,-0.0080244,-6.8542e-05,-8.2179,1.3653
5638,14.949,2.7273,0.1,0.00020564,2054.9,0.00020549,2050.8,-6.745e-05,-0.0078252,-6.855e-05,-8.2743,1.3652
5639,14.949,2.5455,0.1,0.00020566,2055.2,0.00020552,2051,-6.7453e-05,-0.0074317,-6.8568e-05,-8.387,1.3652
5640,14.949,2.3636,0.1,0.0002057,2055.6,0.00020555,2051.3,-6.7456e-05,-0.0068582,-6.8594e-05,-8.5559,1.365
5641,14.949,2.1818,0.1,0.00020575,2056,0.0002056,2051.6,-6.7461e-05,-0.0061229,-6.8629e-05,-8.7807,1.3648
5642,14.949,2,0.1,0.00020581,2056.7,0.00020565,2052.1,-6.7468e-05,-0.0052491,-6.8673e-05,-9.0611,1.3646
5643,14.949,1.8182,0.1,0.00020588,2057.4,0.00020572,2052.7,-6.7476e-05,-0.004258,-6.8726e-05,-9.3968,1.3643
5644,14.949,1.6364,0.1,0.00020597,2058.3,0.0002058,2053.4,-6.7485e-05,-0.0031752,-6.8787e-05,-9.7874,1.364
5645,14.949,1.4545,0.1,0.00020607,2059.3,0.00020589,2054.1,-6.7495e-05,-0.0020218,-6.8857e-05,-10.232,1.3637
5646,14.949,1.2727,0.1,0.00020618,2060.4,0.00020599,2055,-6.7507e-05,-0.00081993,-6.8935e-05,-10.731,1.3633
5647,14.949,1.0909,0.1,0.0002063,2061.6,0.00020611,2055.9,-6.7521e-05,0.00042494,-6.9022e-05,-11.283,1.3628
5648,14.949,0.90909,0.1,0.00020644,2063,0.00020624,2057,-6.7536e-05,0.0016458,-6.9118e-05,-11.888,1.3623
5649,14.949,0.72727,0.1,0.00020659,2064.5,0.00020637,2058.2,-6.7552e-05,0.0030428,-6.9222e-05,-12.545,1.3618
5650,14.949,0.54545,0.1,0.00020675,2066.1,0.00020652,2059.4,-6.7571e-05,0.0037525,-6.9336e-05,-13.259,1.3612
5651,14.949,0.36364,0.1,0.00020695,2068,0.0002067,2060.9,-6.759e-05,0.0081236,-6.9471e-05,-14.124,1.3605
5652,14.949,0.18182,0.1,0.00020741,2072.7,0.00020712,2064.3,-6.7613e-05,0.00079586,-6.9847e-05,-16.785,1.3599
5653,14.765,5.8182,0.1,0.00021208,2119.3,0.00021179,2111,-6.9169e-05,0.00091563,-7.1358e-05,-16.442,1.3324
5654,14.765,5.6364,0.1,0.00021161,2114.6,0.00021137,2107.7,-6.9148e-05,0.007566,-7.0978e-05,-13.739,1.333
5655,14.765,5.4545,0.1,0.00021141,2112.7,0.00021119,2106.2,-6.9131e-05,0.0035824,-7.0836e-05,-12.807,1.3337
5656,14.765,5.2727,0.1,0.00021125,2111,0.00021104,2105,-6.9114e-05,0.002931,-7.0715e-05,-12.025,1.3343
5657,14.765,5.0909,0.1,0.00021109,2109.5,0.0002109,2103.8,-6.9099e-05,0.0016413,-7.0604e-05,-11.302,1.3349
5658,14.765,4.9091,0.1,0.00021095,2108,0.00021077,2102.7,-6.9086e-05,0.00050242,-7.0501e-05,-10.634,1.3354
5659,14.765,4.7273,0.1,0.00021082,2106.8,0.00021065,2101.7,-6.9074e-05,-0.00066988,-7.0408e-05,-10.022,1.3358
5660,14.765,4.5455,0.1,0.00021071,2105.6,0.00021054,2100.9,-6.9064e-05,-0.0018156,-7.0324e-05,-9.4667,1.3362
5661,14.765,4.3636,0.1,0.0002106,2104.6,0.00021045,2100.1,-6.9055e-05,-0.0029314,-7.0248e-05,-8.9703,1.3366
5662,14.765,4.1818,0.1,0.00021051,2103.7,0.00021037,2099.4,-6.9047e-05,-0.003994,-7.0182e-05,-8.5333,1.3369
5663,14.765,4,0.1,0.00021044,2102.9,0.0002103,2098.8,-6.904e-05,-0.0049814,-7.0125e-05,-8.1568,1.3372
5664,14.765,3.8182,0.1,0.00021037,2102.3,0.00021024,2098.3,-6.9035e-05,-0.0058654,-7.0078e-05,-7.8416,1.3374
5665,14.765,3.6364,0.1,0.00021032,2101.8,0.00021019,2098,-6.903e-05,-0.0066184,-7.0039e-05,-7.5885,1.3376
5666,14.765,3.4545,0.1,0.00021028,2101.4,0.00021016,2097.7,-6.9027e-05,-0.0072125,-7.0011e-05,-7.3982,1.3378
5667,14.765,3.2727,0.1,0.00021026,2101.1,0.00021013,2097.5,-6.9025e-05,-0.007623,-6.9992e-05,-7.271,1.3379
5668,14.765,3.0909,0.1,0.00021024,2101,0.00021012,2097.4,-6.9024e-05,-0.0078329,-6.9982e-05,-7.2073,1.3379
5669,14.765,2.9091,0.1,0.00021024,2101,0.00021012,2097.4,-6.9024e-05,-0.0078329,-6.9982e-05,-7.2073,1.3379
5670,14.765,2.7273,0.1,0.00021026,2101.1,0.00021013,2097.5,-6.9025e-05,-0.0076235,-6.9992e-05,-7.271,1.3379
5671,14.765,2.5455,0.1,0.00021028,2101.4,0.00021016,2097.7,-6.9027e-05,-0.0072118,-7.0011e-05,-7.3981,1.3378
5672,14.765,2.3636,0.1,0.00021032,2101.8,0.00021019,2098,-6.903e-05,-0.0066185,-7.0039e-05,-7.5885,1.3376
5673,14.765,2.1818,0.1,0.00021037,2102.3,0.00021024,2098.3,-6.9035e-05,-0.005866,-7.0078e-05,-7.8416,1.3374
5674,14.765,2,0.1,0.00021044,2102.9,0.0002103,2098.8,-6.904e-05,-0.0049827,-7.0125e-05,-8.1567,1.3372
5675,14.765,1.8182,0.1,0.00021051,2103.7,0.00021037,2099.4,-6.9047e-05,-0.003995,-7.0182e-05,-8.5332,1.3369
5676,14.765,1.6364,0.1,0.0002106,2104.6,0.00021045,2100.1,-6.9055e-05,-0.0029315,-7.0248e-05,-8.9702,1.3366
5677,14.765,1.4545,0.1,0.00021071,2105.6,0.00021054,2100.9,-6.9064e-05,-0.0018162,-7.0324e-05,-9.4667,1.3362
5678,14.765,1.2727,0.1,0.00021082,2106.8,0.00021065,2101.7,-6.9074e-05,-0.00066928,-7.0408e-05,-10.022,1.3358
5679,14.765,1.0909,0.1,0.00021095,2108,0.00021077,2102.7,-6.9086e-05,0.00050221,-7.0501e-05,-10.634,1.3354
5680,14.765,0.90909,0.1,0.00021109,2109.5,0.0002109,2103.8,-6.9099e-05,0.0016387,-7.0604e-05,-11.302,1.3349
5681,14.765,0.72727,0.1,0.00021125,2111,0.00021104,2105,-6.9114e-05,0.0029294,-7.0715e-05,-12.025,1.3343
5682,14.765,0.54545,0.1,0.00021141,2112.7,0.00021119,2106.2,-6.9131e-05,0.0035813,-7.0836e-05,-12.807,1.3337
5683,14.765,0.36364,0.1,0.00021161,2114.6,0.00021137,2107.7,-6.9148e-05,0.0075663,-7.0978e-05,-13.739,1.333
5684,14.765,0.18182,0.1,0.00021208,2119.3,0.00021179,2111,-6.9169e-05,0.00091651,-7.1358e-05,-16.442,1.3324
5685,14.58,5.8182,0.1,0.00021676,2166.1,0.00021648,2158,-7.0732e-05,0.0010584,-7.2874e-05,-16.096,1.305
5686,14.58,5.6364,0.1,0.00021629,2161.4,0.00021606,2154.7,-7.0714e-05,0.0070008,-7.2491e-05,-13.348,1.3057
5687,14.58,5.4545,0.1,0.00021609,2159.4,0.00021588,2153.2,-7.0698e-05,0.0034172,-7.2341e-05,-12.345,1.3064
5688,14.58,5.2727,0.1,0.00021592,2157.7,0.00021572,2151.9,-7.0683e-05,0.0028246,-7.2213e-05,-11.491,1.307
5689,14.58,5.0909,0.1,0.00021576,2156.1,0.00021558,2150.8,-7.067e-05,0.0016519,-7.2095e-05,-10.699,1.3075
5690,14.58,4.9091,0.1,0.00021562,2154.7,0.00021544,2149.7,-7.0659e-05,0.00060458,-7.1985e-05,-9.9641,1.3081
5691,14.58,4.7273,0.1,0.00021548,2153.3,0.00021532,2148.7,-7.0649e-05,-0.00048661,-7.1885e-05,-9.2891,1.3085
5692,14.58,4.5455,0.1,0.00021536,2152.1,0.00021521,2147.8,-7.064e-05,-0.0015693,-7.1794e-05,-8.6754,1.309
5693,14.58,4.3636,0.1,0.00021526,2151.1,0.00021512,2147,-7.0632e-05,-0.0026418,-7.1713e-05,-8.125,1.3093
5694,14.58,4.1818,0.1,0.00021516,2150.2,0.00021503,2146.3,-7.0626e-05,-0.0036836,-7.1642e-05,-7.6394,1.3097
5695,14.58,4,0.1,0.00021508,2149.3,0.00021496,2145.7,-7.062e-05,-0.0046685,-7.158e-05,-7.2202,1.3099
5696,14.58,3.8182,0.1,0.00021502,2148.7,0.0002149,2145.2,-7.0615e-05,-0.0055674,-7.1529e-05,-6.8687,1.3102
5697,14.58,3.6364,0.1,0.00021496,2148.1,0.00021485,2144.8,-7.0612e-05,-0.0063468,-7.1488e-05,-6.586,1.3104
5698,14.58,3.4545,0.1,0.00021492,2147.7,0.00021481,2144.5,-7.0609e-05,-0.0069715,-7.1456e-05,-6.3732,1.3105
5699,14.58,3.2727,0.1,0.0002149,2147.5,0.00021479,2144.4,-7.0607e-05,-0.0074079,-7.1436e-05,-6.2309,1.3106
5700,14.58,3.0909,0.1,0.00021488,2147.3,0.00021478,2144.3,-7.0607e-05,-0.0076339,-7.1425e-05,-6.1596,1.3107
5701,14.58,2.9091,0.1,0.00021488,2147.3,0.00021478,2144.3,-7.0607e-05,-0.0076329,-7.1425e-05,-6.1596,1.3107
5702,14.58,2.7273,0.1,0.0002149,2147.5,0.00021479,2144.4,-7.0607e-05,-0.0074079,-7.1436e-05,-6.2309,1.3106
5703,14.58,2.5455,0.1,0.00021492,2147.7,0.00021481,2144.5,-7.0609e-05,-0.0069719,-7.1456e-05,-6.3732,1.3105
5704,14.58,2.3636,0.1,0.00021496,2148.1,0.00021485,2144.8,-7.0612e-05,-0.0063466,-7.1488e-05,-6.586,1.3104
5705,14.58,2.1818,0.1,0.00021502,2148.7,0.0002149,2145.2,-7.0615e-05,-0.0055678,-7.1529e-05,-6.8686,1.3102
5706,14.58,2,0.1,0.00021508,2149.3,0.00021496,2145.7,-7.062e-05,-0.0046694,-7.158e-05,-7.2202,1.3099
5707,14.58,1.8182,0.1,0.00021516,2150.2,0.00021503,2146.3,-7.0626e-05,-0.0036829,-7.1642e-05,-7.6394,1.3097
5708,14.58,1.6364,0.1,0.00021526,2151.1,0.00021512,2147,-7.0632e-05,-0.0026419,-7.1713e-05,-8.1249,1.3093
5709,14.58,1.4545,0.1,0.00021536,2152.1,0.00021521,2147.8,-7.064e-05,-0.0015696,-7.1794e-05,-8.6754,1.309
5710,14.58,1.2727,0.1,0.00021548,2153.3,0.00021532,2148.7,-7.0649e-05,-0.00048659,-7.1885e-05,-9.289,1.3085
5711,14.58,1.0909,0.1,0.00021562,2154.7,0.00021544,2149.7,-7.0659e-05,0.00060349,-7.1985e-05,-9.964,1.3081
5712,14.58,0.90909,0.1,0.00021576,2156.1,0.00021558,2150.8,-7.0671e-05,0.0016511,-7.2095e-05,-10.699,1.3075
5713,14.58,0.72727,0.1,0.00021592,2157.7,0.00021572,2151.9,-7.0683e-05,0.0028237,-7.2213e-05,-11.491,1.307
5714,14.58,0.54545,0.1,0.00021609,2159.4,0.00021588,2153.2,-7.0698e-05,0.0034173,-7.2341e-05,-12.344,1.3064
5715,14.58,0.36364,0.1,0.00021629,2161.4,0.00021606,2154.7,-7.0714e-05,0.0070013,-7.2491e-05,-13.348,1.3057
5716,14.58,0.18182,0.1,0.00021676,2166.1,0.00021648,2158,-7.0732e-05,0.0010578,-7.2874e-05,-16.096,1.305
5717,14.395,5.8182,0.1,0.00022146,2213.1,0.00022119,2205.2,-7.2302e-05,0.0012221,-7.4398e-05,-15.747,1.2778
5718,14.395,5.6364,0.1,0.000221,2208.4,0.00022077,2201.9,-7.2286e-05,0.0064277,-7.401e-05,-12.949,1.2785
5719,14.395,5.4545,0.1,0.00022079,2206.4,0.00022059,2200.4,-7.2272e-05,0.0032562,-7.3852e-05,-11.87,1.2792
5720,14.395,5.2727,0.1,0.00022061,2204.6,0.00022043,2199.1,-7.226e-05,0.0027292,-7.3716e-05,-10.941,1.2798
5721,14.395,5.0909,0.1,0.00022045,2203,0.00022028,2197.9,-7.2249e-05,0.0016821,-7.359e-05,-10.076,1.2804
5722,14.395,4.9091,0.1,0.0002203,2201.5,0.00022014,2196.8,-7.2239e-05,0.0007363,-7.3473e-05,-9.2709,1.2809
5723,14.395,4.7273,0.1,0.00022016,2200.1,0.00022002,2195.8,-7.2231e-05,-0.00026142,-7.3366e-05,-8.5294,1.2814
5724,14.395,4.5455,0.1,0.00022004,2198.9,0.0002199,2194.9,-7.2224e-05,-0.0012696,-7.3269e-05,-7.8539,1.2818
5725,14.395,4.3636,0.1,0.00021993,2197.8,0.0002198,2194.1,-7.2217e-05,-0.0022891,-7.3181e-05,-7.2466,1.2822
5726,14.395,4.1818,0.1,0.00021983,2196.8,0.00021972,2193.4,-7.2212e-05,-0.0033015,-7.3104e-05,-6.7098,1.2825
5727,14.395,4,0.1,0.00021975,2196,0.00021964,2192.8,-7.2207e-05,-0.0042868,-7.3038e-05,-6.2456,1.2828
5728,14.395,3.8182,0.1,0.00021968,2195.3,0.00021958,2192.3,-7.2204e-05,-0.0052074,-7.2983e-05,-5.8559,1.2831
5729,14.395,3.6364,0.1,0.00021962,2194.7,0.00021953,2191.9,-7.2201e-05,-0.0060256,-7.2938e-05,-5.5421,1.2833
5730,14.395,3.4545,0.1,0.00021958,2194.3,0.00021949,2191.6,-7.2199e-05,-0.0066977,-7.2904e-05,-5.3055,1.2834
5731,14.395,3.2727,0.1,0.00021955,2194,0.00021946,2191.4,-7.2198e-05,-0.0071764,-7.2882e-05,-5.1473,1.2835
5732,14.395,3.0909,0.1,0.00021954,2193.9,0.00021945,2191.3,-7.2197e-05,-0.0074246,-7.2871e-05,-5.068,1.2836
5733,14.395,2.9091,0.1,0.00021954,2193.9,0.00021945,2191.3,-7.2197e-05,-0.0074249,-7.2871e-05,-5.068,1.2836
5734,14.395,2.7273,0.1,0.00021955,2194,0.00021946,2191.4,-7.2198e-05,-0.0071759,-7.2882e-05,-5.1473,1.2835
5735,14.395,2.5455,0.1,0.00021958,2194.3,0.00021949,2191.6,-7.2199e-05,-0.006698,-7.2904e-05,-5.3055,1.2834
5736,14.395,2.3636,0.1,0.00021962,2194.7,0.00021953,2191.9,-7.2201e-05,-0.0060263,-7.2938e-05,-5.542,1.2833
5737,14.395,2.1818,0.1,0.00021968,2195.3,0.00021958,2192.3,-7.2204e-05,-0.0052074,-7.2983e-05,-5.8558,1.2831
5738,14.395,2,0.1,0.00021975,2196,0.00021964,2192.8,-7.2207e-05,-0.0042862,-7.3038e-05,-6.2456,1.2828
5739,14.395,1.8182,0.1,0.00021983,2196.8,0.00021972,2193.4,-7.2212e-05,-0.003302,-7.3104e-05,-6.7098,1.2825
5740,14.395,1.6364,0.1,0.00021993,2197.8,0.0002198,2194.1,-7.2217e-05,-0.0022889,-7.3181e-05,-7.2465,1.2822
5741,14.395,1.4545,0.1,0.00022004,2198.9,0.0002199,2194.9,-7.2224e-05,-0.0012698,-7.3269e-05,-7.8538,1.2818
5742,14.395,1.2727,0.1,0.00022016,2200.1,0.00022002,2195.8,-7.2231e-05,-0.00026152,-7.3366e-05,-8.5294,1.2814
5743,14.395,1.0909,0.1,0.0002203,2201.5,0.00022014,2196.8,-7.2239e-05,0.00073691,-7.3473e-05,-9.2708,1.2809
5744,14.395,0.90909,0.1,0.00022045,2203,0.00022028,2197.9,-7.2249e-05,0.00168,-7.359e-05,-10.075,1.2804
5745,14.395,0.72727,0.1,0.00022061,2204.6,0.00022043,2199.1,-7.226e-05,0.0027267,-7.3716e-05,-10.941,1.2798
5746,14.395,0.54545,0.1,0.00022079,2206.4,0.00022059,2200.4,-7.2272e-05,0.0032556,-7.3852e-05,-11.87,1.2792
5747,14.395,0.36364,0.1,0.000221,2208.4,0.00022077,2201.9,-7.2286e-05,0.0064266,-7.401e-05,-12.949,1.2785
5748,14.395,0.18182,0.1,0.00022146,2213.1,0.00022119,2205.2,-7.2302e-05,0.0012222,-7.4398e-05,-15.747,1.2778
5749,14.21,5.8182,0.1,0.00022619,2260.3,0.00022592,2252.6,-7.3879e-05,0.0014138,-7.5928e-05,-15.393,1.2507
5750,14.21,5.6364,0.1,0.00022572,2255.6,0.0002255,2249.3,-7.3865e-05,0.00584,-7.5535e-05,-12.541,1.2514
5751,14.21,5.4545,0.1,0.00022551,2253.5,0.00022531,2247.8,-7.3854e-05,0.0031037,-7.5369e-05,-11.381,1.2521
5752,14.21,5.2727,0.1,0.00022533,2251.7,0.00022515,2246.5,-7.3844e-05,0.0026447,-7.5224e-05,-10.372,1.2528
5753,14.21,5.0909,0.1,0.00022516,2250,0.000225,2245.3,-7.3835e-05,0.0017365,-7.509e-05,-9.4291,1.2534
5754,14.21,4.9091,0.1,0.000225,2248.5,0.00022486,2244.2,-7.3827e-05,0.00090876,-7.4965e-05,-8.55,1.2539
5755,14.21,4.7273,0.1,0.00022486,2247.1,0.00022473,2243.2,-7.382e-05,2.2904e-05,-7.485e-05,-7.7382,1.2544
5756,14.21,4.5455,0.1,0.00022473,2245.8,0.00022461,2242.3,-7.3815e-05,-0.00089072,-7.4746e-05,-6.9971,1.2548
5757,14.21,4.3636,0.1,0.00022462,2244.6,0.00022451,2241.5,-7.381e-05,-0.0018373,-7.4652e-05,-6.3296,1.2552
5758,14.21,4.1818,0.1,0.00022452,2243.6,0.00022442,2240.7,-7.3806e-05,-0.0028107,-7.457e-05,-5.7386,1.2556
5759,14.21,4,0.1,0.00022443,2242.7,0.00022434,2240.1,-7.3803e-05,-0.0037892,-7.4498e-05,-5.2269,1.2559
5760,14.21,3.8182,0.1,0.00022436,2242,0.00022427,2239.6,-7.38e-05,-0.0047412,-7.4438e-05,-4.7966,1.2561
5761,14.21,3.6364,0.1,0.0002243,2241.4,0.00022422,2239.2,-7.3798e-05,-0.0056201,-7.439e-05,-4.4498,1.2563
5762,14.21,3.4545,0.1,0.00022425,2241,0.00022418,2238.9,-7.3797e-05,-0.0063658,-7.4354e-05,-4.1882,1.2565
5763,14.21,3.2727,0.1,0.00022423,2240.7,0.00022416,2238.7,-7.3796e-05,-0.006912,-7.4329e-05,-4.0131,1.2566
5764,14.21,3.0909,0.1,0.00022421,2240.6,0.00022414,2238.6,-7.3796e-05,-0.0072021,-7.4317e-05,-3.9253,1.2566
5765,14.21,2.9091,0.1,0.00022421,2240.6,0.00022414,2238.6,-7.3796e-05,-0.007202,-7.4317e-05,-3.9253,1.2566
5766,14.21,2.7273,0.1,0.00022423,2240.7,0.00022416,2238.7,-7.3796e-05,-0.0069122,-7.4329e-05,-4.013,1.2566
5767,14.21,2.5455,0.1,0.00022425,2241,0.00022418,2238.9,-7.3797e-05,-0.0063664,-7.4354e-05,-4.1882,1.2565
5768,14.21,2.3636,0.1,0.0002243,2241.4,0.00022422,2239.2,-7.3798e-05,-0.0056195,-7.439e-05,-4.4498,1.2563
5769,14.21,2.1818,0.1,0.00022436,2242,0.00022427,2239.6,-7.38e-05,-0.0047411,-7.4438e-05,-4.7966,1.2561
5770,14.21,2,0.1,0.00022443,2242.7,0.00022434,2240.1,-7.3803e-05,-0.0037898,-7.4498e-05,-5.2268,1.2559
5771,14.21,1.8182,0.1,0.00022452,2243.6,0.00022442,2240.7,-7.3806e-05,-0.0028104,-7.457e-05,-5.7386,1.2556
5772,14.21,1.6364,0.1,0.00022462,2244.6,0.00022451,2241.5,-7.381e-05,-0.0018388,-7.4652e-05,-6.3295,1.2552
5773,14.21,1.4545,0.1,0.00022473,2245.8,0.00022461,2242.3,-7.3815e-05,-0.00089006,-7.4746e-05,-6.997,1.2548
5774,14.21,1.2727,0.1,0.00022486,2247.1,0.00022473,2243.2,-7.382e-05,2.2573e-05,-7.485e-05,-7.7382,1.2544
5775,14.21,1.0909,0.1,0.000225,2248.5,0.00022486,2244.2,-7.3827e-05,0.00090835,-7.4965e-05,-8.5499,1.2539
5776,14.21,0.90909,0.1,0.00022516,2250,0.000225,2245.3,-7.3835e-05,0.0017357,-7.509e-05,-9.429,1.2534
5777,14.21,0.72727,0.1,0.00022533,2251.7,0.00022515,2246.5,-7.3844e-05,0.0026431,-7.5224e-05,-10.372,1.2528
5778,14.21,0.54545,0.1,0.00022551,2253.5,0.00022531,2247.8,-7.3854e-05,0.0031026,-7.5369e-05,-11.381,1.2521
5779,14.21,0.36364,0.1,0.00022572,2255.6,0.0002255,2249.4,-7.3865e-05,0.0058404,-7.5535e-05,-12.541,1.2514
5780,14.21,0.18182,0.1,0.00022619,2260.3,0.00022592,2252.6,-7.3879e-05,0.0014137,-7.5928e-05,-15.393,1.2507
5781,14.026,5.8182,0.1,0.00023094,2307.8,0.00023068,2300.2,-7.5463e-05,0.0015971,-7.7464e-05,-15.035,1.2238
5782,14.026,5.6364,0.1,0.00023046,2303.1,0.00023026,2297,-7.5452e-05,0.005199,-7.7066e-05,-12.122,1.2245
5783,14.026,5.4545,0.1,0.00023025,2300.9,0.00023006,2295.4,-7.5443e-05,0.0029159,-7.6891e-05,-10.877,1.2253
5784,14.026,5.2727,0.1,0.00023006,2299,0.00022989,2294.1,-7.5435e-05,0.0025346,-7.6737e-05,-9.7819,1.2259
5785,14.026,5.0909,0.1,0.00022989,2297.3,0.00022974,2292.9,-7.5428e-05,0.0017812,-7.6594e-05,-8.7559,1.2265
5786,14.026,4.9091,0.1,0.00022972,2295.7,0.00022959,2291.8,-7.5423e-05,0.0010935,-7.6461e-05,-7.7977,1.2271
5787,14.026,4.7273,0.1,0.00022958,2294.2,0.00022946,2290.7,-7.5418e-05,0.00034923,-7.6338e-05,-6.9111,1.2276
5788,14.026,4.5455,0.1,0.00022944,2292.9,0.00022934,2289.8,-7.5414e-05,-0.00043417,-7.6226e-05,-6.1002,1.228
5789,14.026,4.3636,0.1,0.00022932,2291.7,0.00022923,2289,-7.5411e-05,-0.0012741,-7.6125e-05,-5.3686,1.2284
5790,14.026,4.1818,0.1,0.00022922,2290.6,0.00022914,2288.2,-7.5408e-05,-0.0021717,-7.6036e-05,-4.7201,1.2288
5791,14.026,4,0.1,0.00022913,2289.7,0.00022906,2287.6,-7.5406e-05,-0.0031247,-7.5959e-05,-4.1577,1.2291
5792,14.026,3.8182,0.1,0.00022905,2288.9,0.00022899,2287.1,-7.5405e-05,-0.0041079,-7.5895e-05,-3.6843,1.2293
5793,14.026,3.6364,0.1,0.00022899,2288.3,0.00022893,2286.7,-7.5404e-05,-0.005078,-7.5843e-05,-3.3024,1.2295
5794,14.026,3.4545,0.1,0.00022895,2287.9,0.00022889,2286.4,-7.5403e-05,-0.0059535,-7.5803e-05,-3.0141,1.2297
5795,14.026,3.2727,0.1,0.00022891,2287.6,0.00022887,2286.2,-7.5403e-05,-0.0066293,-7.5777e-05,-2.8209,1.2298
5796,14.026,3.0909,0.1,0.0002289,2287.4,0.00022885,2286,-7.5402e-05,-0.0070005,-7.5764e-05,-2.724,1.2298
5797,14.026,2.9091,0.1,0.0002289,2287.4,0.00022885,2286,-7.5402e-05,-0.0070012,-7.5764e-05,-2.724,1.2298
5798,14.026,2.7273,0.1,0.00022891,2287.6,0.00022887,2286.2,-7.5403e-05,-0.006629,-7.5777e-05,-2.8209,1.2298
5799,14.026,2.5455,0.1,0.00022895,2287.9,0.00022889,2286.4,-7.5403e-05,-0.0059535,-7.5803e-05,-3.014,1.2297
5800,14.026,2.3636,0.1,0.00022899,2288.3,0.00022893,2286.7,-7.5404e-05,-0.0050778,-7.5843e-05,-3.3024,1.2295
5801,14.026,2.1818,0.1,0.00022905,2288.9,0.00022899,2287.1,-7.5405e-05,-0.0041091,-7.5895e-05,-3.6843,1.2293
5802,14.026,2,0.1,0.00022913,2289.7,0.00022906,2287.6,-7.5406e-05,-0.0031245,-7.5959e-05,-4.1577,1.2291
5803,14.026,1.8182,0.1,0.00022922,2290.6,0.00022914,2288.2,-7.5408e-05,-0.0021719,-7.6036e-05,-4.7201,1.2288
5804,14.026,1.6364,0.1,0.00022932,2291.7,0.00022923,2289,-7.5411e-05,-0.0012737,-7.6125e-05,-5.3686,1.2284
5805,14.026,1.4545,0.1,0.00022944,2292.9,0.00022934,2289.8,-7.5414e-05,-0.00043614,-7.6226e-05,-6.1001,1.228
5806,14.026,1.2727,0.1,0.00022958,2294.2,0.00022946,2290.7,-7.5418e-05,0.00034777,-7.6338e-05,-6.911,1.2276
5807,14.026,1.0909,0.1,0.00022973,2295.7,0.00022959,2291.8,-7.5423e-05,0.0010928,-7.6461e-05,-7.7976,1.2271
5808,14.026,0.90909,0.1,0.00022989,2297.3,0.00022974,2292.9,-7.5428e-05,0.0017803,-7.6594e-05,-8.7559,1.2265
5809,14.026,0.72727,0.1,0.00023006,2299,0.00022989,2294.1,-7.5435e-05,0.0025317,-7.6737e-05,-9.7818,1.2259
5810,14.026,0.54545,0.1,0.00023025,2300.9,0.00023006,2295.4,-7.5443e-05,0.0029153,-7.6891e-05,-10.876,1.2253
5811,14.026,0.36364,0.1,0.00023046,2303.1,0.00023026,2297,-7.5452e-05,0.0051979,-7.7066e-05,-12.122,1.2245
5812,14.026,0.18182,0.1,0.00023094,2307.8,0.00023068,2300.2,-7.5463e-05,0.0015967,-7.7464e-05,-15.035,1.2238
5813,13.841,5.8182,0.1,0.0002357,2355.4,0.00023545,2348,-7.7054e-05,0.0018043,-7.9007e-05,-14.67,1.197
5814,13.841,5.6364,0.1,0.00023523,2350.7,0.00023503,2344.8,-7.7046e-05,0.0045301,-7.8602e-05,-11.691,1.1978
5815,13.841,5.4545,0.1,0.00023501,2348.5,0.00023483,2343.3,-7.7039e-05,0.0027237,-7.8417e-05,-10.353,1.1985
5816,13.841,5.2727,0.1,0.00023481,2346.5,0.00023466,2341.9,-7.7034e-05,0.0024302,-7.8254e-05,-9.1669,1.1992
5817,13.841,5.0909,0.1,0.00023463,2344.7,0.00023449,2340.7,-7.7029e-05,0.0018553,-7.8101e-05,-8.0525,1.1998
5818,13.841,4.9091,0.1,0.00023447,2343,0.00023435,2339.5,-7.7026e-05,0.0013408,-7.7959e-05,-7.0097,1.2004
5819,13.841,4.7273,0.1,0.00023431,2341.5,0.00023421,2338.5,-7.7023e-05,0.00078686,-7.7828e-05,-6.0432,1.2009
5820,13.841,4.5455,0.1,0.00023417,2340.1,0.00023408,2337.5,-7.7021e-05,0.00019724,-7.7708e-05,-5.1578,1.2013
5821,13.841,4.3636,0.1,0.00023405,2338.9,0.00023397,2336.7,-7.702e-05,-0.00044947,-7.76e-05,-4.3579,1.2017
5822,13.841,4.1818,0.1,0.00023394,2337.8,0.00023388,2335.9,-7.7019e-05,-0.0011815,-7.7504e-05,-3.6479,1.2021
5823,13.841,4,0.1,0.00023384,2336.8,0.00023379,2335.3,-7.7018e-05,-0.0020204,-7.7421e-05,-3.0315,1.2024
5824,13.841,3.8182,0.1,0.00023376,2336,0.00023372,2334.8,-7.7018e-05,-0.0029843,-7.7352e-05,-2.5121,1.2027
5825,13.841,3.6364,0.1,0.0002337,2335.4,0.00023366,2334.3,-7.7018e-05,-0.0040647,-7.7296e-05,-2.0926,1.2029
5826,13.841,3.4545,0.1,0.00023365,2334.9,0.00023362,2334,-7.7018e-05,-0.0051865,-7.7253e-05,-1.7755,1.203
5827,13.841,3.2727,0.1,0.00023362,2334.6,0.00023359,2333.8,-7.7018e-05,-0.0061753,-7.7225e-05,-1.5629,1.2031
5828,13.841,3.0909,0.1,0.0002336,2334.4,0.00023358,2333.7,-7.7018e-05,-0.0067741,-7.7211e-05,-1.4561,1.2032
5829,13.841,2.9091,0.1,0.0002336,2334.4,0.00023358,2333.7,-7.7018e-05,-0.0067731,-7.7211e-05,-1.4561,1.2032
5830,13.841,2.7273,0.1,0.00023362,2334.6,0.00023359,2333.8,-7.7018e-05,-0.0061752,-7.7225e-05,-1.5629,1.2031
5831,13.841,2.5455,0.1,0.00023365,2334.9,0.00023362,2334,-7.7018e-05,-0.0051866,-7.7253e-05,-1.7755,1.203
5832,13.841,2.3636,0.1,0.0002337,2335.4,0.00023366,2334.3,-7.7018e-05,-0.0040645,-7.7296e-05,-2.0926,1.2029
5833,13.841,2.1818,0.1,0.00023376,2336,0.00023372,2334.8,-7.7018e-05,-0.0029837,-7.7352e-05,-2.5121,1.2027
5834,13.841,2,0.1,0.00023384,2336.8,0.00023379,2335.3,-7.7018e-05,-0.0020204,-7.7421e-05,-3.0315,1.2024
5835,13.841,1.8182,0.1,0.00023394,2337.8,0.00023388,2335.9,-7.7019e-05,-0.0011815,-7.7504e-05,-3.6479,1.2021
5836,13.841,1.6364,0.1,0.00023405,2338.9,0.00023397,2336.7,-7.702e-05,-0.00044996,-7.76e-05,-4.3579,1.2017
5837,13.841,1.4545,0.1,0.00023417,2340.1,0.00023408,2337.5,-7.7021e-05,0.00019848,-7.7708e-05,-5.1577,1.2013
5838,13.841,1.2727,0.1,0.00023431,2341.5,0.00023421,2338.5,-7.7023e-05,0.00078656,-7.7828e-05,-6.0431,1.2009
5839,13.841,1.0909,0.1,0.00023447,2343,0.00023435,2339.5,-7.7026e-05,0.0013409,-7.7959e-05,-7.0097,1.2004
5840,13.841,0.90909,0.1,0.00023463,2344.7,0.00023449,2340.7,-7.7029e-05,0.0018537,-7.8101e-05,-8.0525,1.1998
5841,13.841,0.72727,0.1,0.00023481,2346.5,0.00023466,2341.9,-7.7034e-05,0.0024277,-7.8254e-05,-9.1668,1.1992
5842,13.841,0.54545,0.1,0.00023501,2348.5,0.00023483,2343.3,-7.7039e-05,0.0027244,-7.8417e-05,-10.353,1.1985
5843,13.841,0.36364,0.1,0.00023523,2350.7,0.00023503,2344.8,-7.7046e-05,0.0045306,-7.8602e-05,-11.691,1.1978
5844,13.841,0.18182,0.1,0.0002357,2355.4,0.00023545,2348,-7.7054e-05,0.0018043,-7.9007e-05,-14.67,1.197
5845,13.656,5.8182,0.1,0.00024049,2403.2,0.00024024,2396.1,-7.8652e-05,0.0020373,-8.0556e-05,-14.299,1.1704
5846,13.656,5.6364,0.1,0.00024001,2398.5,0.00023982,2392.9,-7.8647e-05,0.0038286,-8.0144e-05,-11.246,1.1712
5847,13.656,5.4545,0.1,0.00023979,2396.2,0.00023962,2391.3,-7.8643e-05,0.0025261,-7.9949e-05,-9.8083,1.172
5848,13.656,5.2727,0.1,0.00023958,2394.2,0.00023944,2389.9,-7.864e-05,0.0023331,-7.9775e-05,-8.5243,1.1726
5849,13.656,5.0909,0.1,0.0002394,2392.3,0.00023927,2388.7,-7.8638e-05,0.0019689,-7.9612e-05,-7.3152,1.1733
5850,13.656,4.9091,0.1,0.00023922,2390.6,0.00023912,2387.5,-7.8637e-05,0.0016814,-7.946e-05,-6.1818,1.1738
5851,13.656,4.7273,0.1,0.00023906,2389,0.00023898,2386.4,-7.8637e-05,0.0014043,-7.932e-05,-5.1296,1.1743
5852,13.656,4.5455,0.1,0.00023892,2387.5,0.00023885,2385.4,-7.8637e-05,0.0011513,-7.9191e-05,-4.1645,1.1748
5853,13.656,4.3636,0.1,0.00023879,2386.2,0.00023873,2384.6,-7.8637e-05,0.00091351,-7.9075e-05,-3.2916,1.1752
5854,13.656,4.1818,0.1,0.00023867,2385.1,0.00023863,2383.8,-7.8637e-05,0.00067978,-7.8972e-05,-2.5159,1.1756
5855,13.656,4,0.1,0.00023857,2384.1,0.00023854,2383.2,-7.8638e-05,0.00043516,-7.8883e-05,-1.842,1.1759
5856,13.656,3.8182,0.1,0.00023849,2383.3,0.00023847,2382.6,-7.8639e-05,0.0001489,-7.8808e-05,-1.2738,1.1762
5857,13.656,3.6364,0.1,0.00023842,2382.6,0.00023841,2382.2,-7.864e-05,-0.00025549,-7.8748e-05,-0.81478,1.1764
5858,13.656,3.4545,0.1,0.00023837,2382.1,0.00023837,2381.9,-7.864e-05,-0.0009675,-7.8702e-05,-0.46754,1.1765
5859,13.656,3.2727,0.1,0.00023834,2381.8,0.00023834,2381.6,-7.8641e-05,-0.0025161,-7.8672e-05,-0.23374,1.1766
5860,13.656,3.0909,0.1,0.00023832,2381.6,0.00023832,2381.5,-7.8642e-05,-0.0056857,-7.8656e-05,-0.11407,1.1767
5861,13.656,2.9091,0.1,0.00023832,2381.6,0.00023832,2381.5,-7.8642e-05,-0.0056855,-7.8656e-05,-0.11406,1.1767
5862,13.656,2.7273,0.1,0.00023834,2381.8,0.00023834,2381.6,-7.8641e-05,-0.0025164,-7.8672e-05,-0.23373,1.1766
5863,13.656,2.5455,0.1,0.00023837,2382.1,0.00023837,2381.9,-7.864e-05,-0.00096631,-7.8702e-05,-0.46753,1.1765
5864,13.656,2.3636,0.1,0.00023842,2382.6,0.00023841,2382.2,-7.864e-05,-0.00025474,-7.8748e-05,-0.81476,1.1764
5865,13.656,2.1818,0.1,0.00023849,2383.3,0.00023847,2382.6,-7.8639e-05,0.00014798,-7.8808e-05,-1.2738,1.1762
5866,13.656,2,0.1,0.00023857,2384.1,0.00023854,2383.2,-7.8638e-05,0.00043517,-7.8883e-05,-1.842,1.1759
5867,13.656,1.8182,0.1,0.00023867,2385.1,0.00023863,2383.8,-7.8637e-05,0.00067963,-7.8972e-05,-2.5159,1.1756
5868,13.656,1.6364,0.1,0.00023879,2386.2,0.00023873,2384.6,-7.8637e-05,0.00091228,-7.9075e-05,-3.2915,1.1752
5869,13.656,1.4545,0.1,0.00023892,2387.5,0.00023885,2385.5,-7.8637e-05,0.001152,-7.9191e-05,-4.1644,1.1748
5870,13.656,1.2727,0.1,0.00023906,2389,0.00023898,2386.4,-7.8637e-05,0.0014041,-7.932e-05,-5.1296,1.1743
5871,13.656,1.0909,0.1,0.00023922,2390.6,0.00023912,2387.5,-7.8637e-05,0.0016804,-7.946e-05,-6.1817,1.1738
5872,13.656,0.90909,0.1,0.0002394,2392.3,0.00023927,2388.7,-7.8638e-05,0.0019666,-7.9612e-05,-7.3151,1.1733
5873,13.656,0.72727,0.1,0.00023958,2394.2,0.00023944,2389.9,-7.864e-05,0.0023316,-7.9775e-05,-8.5243,1.1726
5874,13.656,0.54545,0.1,0.00023979,2396.2,0.00023962,2391.3,-7.8643e-05,0.0025258,-7.9949e-05,-9.8083,1.172
5875,13.656,0.36364,0.1,0.00024002,2398.5,0.00023982,2392.9,-7.8647e-05,0.0038295,-8.0144e-05,-11.245,1.1712
5876,13.656,0.18182,0.1,0.00024049,2403.2,0.00024024,2396.1,-7.8652e-05,0.0020379,-8.0556e-05,-14.299,1.1704
5877,13.472,5.8182,0.1,0.0002453,2451.3,0.00024506,2444.3,-8.0258e-05,0.0022713,-8.2111e-05,-13.919,1.144
5878,13.472,5.6364,0.1,0.00024482,2446.5,0.00024464,2441.1,-8.0256e-05,0.0030604,-8.1691e-05,-10.784,1.1448
5879,13.472,5.4545,0.1,0.00024458,2444.2,0.00024443,2439.5,-8.0255e-05,0.0022898,-8.1485e-05,-9.2404,1.1455
5880,13.472,5.2727,0.1,0.00024438,2442.1,0.00024424,2438.1,-8.0255e-05,0.0022162,-8.13e-05,-7.8511,1.1462
5881,13.472,5.0909,0.1,0.00024418,2440.1,0.00024407,2436.8,-8.0255e-05,0.0021076,-8.1126e-05,-6.5402,1.1469
5882,13.472,4.9091,0.1,0.000244,2438.3,0.00024391,2435.7,-8.0256e-05,0.0021373,-8.0963e-05,-5.3094,1.1475
5883,13.472,4.7273,0.1,0.00024383,2436.6,0.00024376,2434.6,-8.0258e-05,0.002317,-8.0813e-05,-4.1655,1.148
5884,13.472,4.5455,0.1,0.00024368,2435.1,0.00024363,2433.6,-8.026e-05,0.002757,-8.0675e-05,-3.1149,1.1485
5885,13.472,4.3636,0.1,0.00024355,2433.8,0.00024351,2432.7,-8.0262e-05,0.0036979,-8.0551e-05,-2.1641,1.1489
5886,13.472,4.1818,0.1,0.00024342,2432.6,0.0002434,2431.9,-8.0264e-05,0.0058864,-8.0441e-05,-1.3197,1.1493
5887,13.472,4,0.1,0.00024332,2431.5,0.00024331,2431.2,-8.0266e-05,0.01316,-8.0346e-05,-0.59069,1.1496
5888,13.472,3.8182,0.1,0.00024323,2430.7,0.00024323,2430.7,-8.0254e-05,0.11345,-8.0279e-05,-0.069833,1.1498
5889,13.472,3.6364,0.1,0.00024316,2430,0.00024317,2430.2,-8.0196e-05,0.56014,-8.0273e-05,-0.014524,1.15
5890,13.472,3.4545,0.1,0.00024311,2429.4,0.00024313,2429.9,-8.0148e-05,0.93406,-8.0274e-05,-0.0089379,1.1502
5891,13.472,3.2727,0.1,0.00024308,2429.1,0.0002431,2429.7,-8.0115e-05,1.1868,-8.0274e-05,-0.0071777,1.1503
5892,13.472,3.0909,0.1,0.00024306,2428.9,0.00024308,2429.6,-8.0099e-05,1.3138,-8.0275e-05,-0.0065536,1.1504
5893,13.472,2.9091,0.1,0.00024306,2428.9,0.00024308,2429.6,-8.0099e-05,1.3138,-8.0275e-05,-0.0065525,1.1504
5894,13.472,2.7273,0.1,0.00024308,2429.1,0.0002431,2429.7,-8.0115e-05,1.1868,-8.0274e-05,-0.007177,1.1503
5895,13.472,2.5455,0.1,0.00024311,2429.4,0.00024313,2429.9,-8.0148e-05,0.93407,-8.0274e-05,-0.0089393,1.1502
5896,13.472,2.3636,0.1,0.00024316,2430,0.00024317,2430.2,-8.0196e-05,0.56016,-8.0273e-05,-0.014523,1.15
5897,13.472,2.1818,0.1,0.00024323,2430.7,0.00024323,2430.7,-8.0254e-05,0.11347,-8.0279e-05,-0.069824,1.1498
5898,13.472,2,0.1,0.00024332,2431.5,0.00024331,2431.2,-8.0266e-05,0.013161,-8.0346e-05,-0.59067,1.1496
5899,13.472,1.8182,0.1,0.00024342,2432.6,0.0002434,2431.9,-8.0264e-05,0.0058868,-8.0441e-05,-1.3196,1.1493
5900,13.472,1.6364,0.1,0.00024355,2433.8,0.00024351,2432.7,-8.0262e-05,0.003698,-8.0551e-05,-2.164,1.1489
5901,13.472,1.4545,0.1,0.00024368,2435.1,0.00024363,2433.6,-8.026e-05,0.0027562,-8.0675e-05,-3.1148,1.1485
5902,13.472,1.2727,0.1,0.00024383,2436.6,0.00024376,2434.6,-8.0258e-05,0.0023165,-8.0813e-05,-4.1654,1.148
5903,13.472,1.0909,0.1,0.000244,2438.3,0.00024391,2435.7,-8.0256e-05,0.0021368,-8.0963e-05,-5.3094,1.1475
5904,13.472,0.90909,0.1,0.00024418,2440.1,0.00024407,2436.8,-8.0255e-05,0.0021061,-8.1126e-05,-6.5401,1.1469
5905,13.472,0.72727,0.1,0.00024438,2442.1,0.00024424,2438.1,-8.0255e-05,0.0022153,-8.13e-05,-7.8511,1.1462
5906,13.472,0.54545,0.1,0.00024458,2444.2,0.00024443,2439.5,-8.0255e-05,0.0022897,-8.1485e-05,-9.2403,1.1455
5907,13.472,0.36364,0.1,0.00024482,2446.5,0.00024464,2441.1,-8.0256e-05,0.00306,-8.1691e-05,-10.784,1.1448
5908,13.472,0.18182,0.1,0.0002453,2451.3,0.00024506,2444.3,-8.0258e-05,0.0022709,-8.2111e-05,-13.919,1.144
5909,13.287,5.8182,0.1,0.00025013,2499.6,0.0002499,2492.8,-8.1871e-05,0.0025475,-8.3672e-05,-13.529,1.1177
5910,13.287,5.6364,0.1,0.00024965,2494.7,0.00024947,2489.6,-8.1872e-05,0.0022599,-8.3244e-05,-10.305,1.1185
5911,13.287,5.4545,0.1,0.0002494,2492.3,0.00024925,2488,-8.1874e-05,0.0020545,-8.3025e-05,-8.6464,1.1193
5912,13.287,5.2727,0.1,0.00024919,2490.1,0.00024906,2486.6,-8.1877e-05,0.0021252,-8.2828e-05,-7.1439,1.12
5913,13.287,5.0909,0.1,0.00024898,2488.1,0.00024888,2485.2,-8.188e-05,0.0023461,-8.2642e-05,-5.7234,1.1207
5914,13.287,4.9091,0.1,0.00024879,2486.2,0.00024872,2484,-8.1884e-05,0.0028624,-8.2468e-05,-4.388,1.1212
5915,13.287,4.7273,0.1,0.00024862,2484.5,0.00024857,2482.9,-8.1888e-05,0.0039201,-8.2307e-05,-3.1454,1.1218
5916,13.287,4.5455,0.1,0.00024846,2482.9,0.00024843,2481.9,-8.1892e-05,0.0062858,-8.216e-05,-2.0039,1.1223
5917,13.287,4.3636,0.1,0.00024832,2481.5,0.0002483,2481,-8.1896e-05,0.013545,-8.2027e-05,-0.97409,1.1227
5918,13.287,4.1818,0.1,0.00024819,2480.2,0.00024819,2480.2,-8.1888e-05,0.10122,-8.192e-05,-0.13827,1.1231
5919,13.287,4,0.1,0.00024808,2479.1,0.0002481,2479.5,-8.1801e-05,0.78575,-8.1908e-05,-0.018947,1.1234
5920,13.287,3.8182,0.1,0.00024799,2478.2,0.00024802,2478.9,-8.1715e-05,1.4564,-8.191e-05,-0.01083,1.1237
5921,13.287,3.6364,0.1,0.00024792,2477.5,0.00024795,2478.5,-8.1645e-05,2.0027,-8.1913e-05,-0.0082738,1.1239
5922,13.287,3.4545,0.1,0.00024786,2476.9,0.0002479,2478.1,-8.1592e-05,2.4168,-8.1915e-05,-0.0071277,1.1241
5923,13.287,3.2727,0.1,0.00024782,2476.5,0.00024787,2477.9,-8.1557e-05,2.6947,-8.1916e-05,-0.0065628,1.1242
5924,13.287,3.0909,0.1,0.00024781,2476.4,0.00024785,2477.8,-8.1539e-05,2.8342,-8.1917e-05,-0.0063229,1.1242
5925,13.287,2.9091,0.1,0.00024781,2476.4,0.00024785,2477.8,-8.1539e-05,2.8342,-8.1917e-05,-0.0063233,1.1242
5926,13.287,2.7273,0.1,0.00024782,2476.5,0.00024787,2477.9,-8.1557e-05,2.6947,-8.1916e-05,-0.0065631,1.1242
5927,13.287,2.5455,0.1,0.00024786,2476.9,0.0002479,2478.1,-8.1592e-05,2.4168,-8.1915e-05,-0.0071275,1.1241
5928,13.287,2.3636,0.1,0.00024792,2477.5,0.00024795,2478.5,-8.1645e-05,2.0028,-8.1913e-05,-0.0082752,1.1239
5929,13.287,2.1818,0.1,0.00024799,2478.2,0.00024802,2478.9,-8.1715e-05,1.4564,-8.191e-05,-0.01083,1.1237
5930,13.287,2,0.1,0.00024808,2479.1,0.0002481,2479.5,-8.1801e-05,0.78578,-8.1908e-05,-0.018947,1.1234
5931,13.287,1.8182,0.1,0.00024819,2480.2,0.00024819,2480.2,-8.1888e-05,0.10124,-8.192e-05,-0.13825,1.1231
5932,13.287,1.6364,0.1,0.00024832,2481.5,0.0002483,2481,-8.1896e-05,0.013546,-8.2027e-05,-0.97405,1.1227
5933,13.287,1.4545,0.1,0.00024846,2482.9,0.00024843,2481.9,-8.1892e-05,0.0062859,-8.216e-05,-2.0038,1.1223
5934,13.287,1.2727,0.1,0.00024862,2484.5,0.00024857,2482.9,-8.1888e-05,0.0039207,-8.2307e-05,-3.1453,1.1218
5935,13.287,1.0909,0.1,0.00024879,2486.2,0.00024872,2484,-8.1884e-05,0.0028613,-8.2468e-05,-4.3879,1.1212
5936,13.287,0.90909,0.1,0.00024898,2488.1,0.00024888,2485.2,-8.188e-05,0.0023449,-8.2642e-05,-5.7233,1.1207
5937,13.287,0.72727,0.1,0.00024919,2490.1,0.00024906,2486.6,-8.1877e-05,0.0021234,-8.2828e-05,-7.1438,1.12
5938,13.287,0.54545,0.1,0.0002494,2492.3,0.00024925,2488,-8.1874e-05,0.0020541,-8.3025e-05,-8.6463,1.1193
5939,13.287,0.36364,0.1,0.00024965,2494.7,0.00024947,2489.6,-8.1872e-05,0.0022606,-8.3244e-05,-10.305,1.1185
5940,13.287,0.18182,0.1,0.00025013,2499.6,0.0002499,2492.8,-8.1871e-05,0.0025478,-8.3672e-05,-13.529,1.1177
5941,13.102,5.8182,0.1,0.00025498,2548,0.00025475,2541.5,-8.3492e-05,0.0028737,-8.524e-05,-13.129,1.0916
5942,13.102,5.6364,0.1,0.00025449,2543.2,0.00025432,2538.3,-8.3496e-05,0.0014232,-8.4802e-05,-9.8065,1.0925
5943,13.102,5.4545,0.1,0.00025424,2540.6,0.0002541,2536.6,-8.3501e-05,0.0018176,-8.457e-05,-8.0239,1.0932
5944,13.102,5.2727,0.1,0.00025401,2538.4,0.0002539,2535.2,-8.3507e-05,0.0020686,-8.4359e-05,-6.3993,1.0939
5945,13.102,5.0909,0.1,0.0002538,2536.3,0.00025372,2533.8,-8.3514e-05,0.0027416,-8.4161e-05,-4.8608,1.0946
5946,13.102,4.9091,0.1,0.0002536,2534.3,0.00025355,2532.6,-8.352e-05,0.0041079,-8.3975e-05,-3.4128,1.0952
5947,13.102,4.7273,0.1,0.00025342,2532.5,0.00025339,2531.4,-8.3527e-05,0.0073813,-8.3802e-05,-2.065,1.0958
5948,13.102,4.5455,0.1,0.00025326,2530.8,0.00025324,2530.4,-8.3532e-05,0.020164,-8.3645e-05,-0.8335,1.0963
5949,13.102,4.3636,0.1,0.00025311,2529.3,0.00025311,2529.5,-8.3492e-05,0.36662,-8.3548e-05,-0.050621,1.0967
5950,13.102,4.1818,0.1,0.00025297,2528,0.000253,2528.7,-8.3369e-05,1.338,-8.3549e-05,-0.01522,1.0971
5951,13.102,4,0.1,0.00025286,2526.9,0.0002529,2528,-8.3259e-05,2.2099,-8.3554e-05,-0.010005,1.0974
5952,13.102,3.8182,0.1,0.00025276,2525.9,0.00025281,2527.4,-8.3165e-05,2.9491,-8.3559e-05,-0.0080351,1.0977
5953,13.102,3.6364,0.1,0.00025269,2525.1,0.00025275,2526.9,-8.3089e-05,3.548,-8.3563e-05,-0.0070616,1.0979
5954,13.102,3.4545,0.1,0.00025263,2524.5,0.00025269,2526.5,-8.3032e-05,4.0013,-8.3566e-05,-0.0065283,1.0981
5955,13.102,3.2727,0.1,0.00025259,2524.1,0.00025266,2526.3,-8.2994e-05,4.3057,-8.3568e-05,-0.0062372,1.0982
5956,13.102,3.0909,0.1,0.00025257,2523.9,0.00025264,2526.2,-8.2975e-05,4.4584,-8.3569e-05,-0.0061073,1.0982
5957,13.102,2.9091,0.1,0.00025257,2523.9,0.00025264,2526.2,-8.2975e-05,4.4584,-8.3569e-05,-0.0061073,1.0982
5958,13.102,2.7273,0.1,0.00025259,2524.1,0.00025266,2526.3,-8.2994e-05,4.3057,-8.3568e-05,-0.0062369,1.0982
5959,13.102,2.5455,0.1,0.00025263,2524.5,0.00025269,2526.5,-8.3032e-05,4.0014,-8.3566e-05,-0.0065292,1.0981
5960,13.102,2.3636,0.1,0.00025269,2525.1,0.00025275,2526.9,-8.3089e-05,3.548,-8.3563e-05,-0.0070611,1.0979
5961,13.102,2.1818,0.1,0.00025276,2525.9,0.00025281,2527.4,-8.3165e-05,2.9491,-8.3559e-05,-0.0080353,1.0977
5962,13.102,2,0.1,0.00025286,2526.9,0.0002529,2528,-8.3259e-05,2.2099,-8.3554e-05,-0.010005,1.0974
5963,13.102,1.8182,0.1,0.00025297,2528,0.000253,2528.7,-8.3369e-05,1.338,-8.3549e-05,-0.01522,1.0971
5964,13.102,1.6364,0.1,0.00025311,2529.3,0.00025311,2529.5,-8.3492e-05,0.36665,-8.3548e-05,-0.050617,1.0967
5965,13.102,1.4545,0.1,0.00025326,2530.8,0.00025324,2530.4,-8.3532e-05,0.020165,-8.3645e-05,-0.83346,1.0963
5966,13.102,1.2727,0.1,0.00025342,2532.5,0.00025339,2531.4,-8.3527e-05,0.0073817,-8.3802e-05,-2.0649,1.0958
5967,13.102,1.0909,0.1,0.0002536,2534.3,0.00025355,2532.6,-8.352e-05,0.0041073,-8.3975e-05,-3.4127,1.0952
5968,13.102,0.90909,0.1,0.0002538,2536.3,0.00025372,2533.8,-8.3514e-05,0.0027394,-8.4161e-05,-4.8607,1.0946
5969,13.102,0.72727,0.1,0.00025401,2538.4,0.0002539,2535.2,-8.3507e-05,0.0020673,-8.4359e-05,-6.3993,1.0939
5970,13.102,0.54545,0.1,0.00025424,2540.6,0.0002541,2536.6,-8.3501e-05,0.0018179,-8.457e-05,-8.0238,1.0932
5971,13.102,0.36364,0.1,0.00025449,2543.2,0.00025432,2538.3,-8.3496e-05,0.0014233,-8.4802e-05,-9.8065,1.0925
5972,13.102,0.18182,0.1,0.00025498,2548,0.00025475,2541.5,-8.3492e-05,0.0028736,-8.524e-05,-13.129,1.0916
5973,12.917,5.8182,0.1,0.00025985,2596.7,0.00025963,2590.3,-8.512e-05,0.003258,-8.6813e-05,-12.717,1.0657
5974,12.917,5.6364,0.1,0.00025936,2591.8,0.0002592,2587.2,-8.5128e-05,0.0005483,-8.6364e-05,-9.2863,1.0665
5975,12.917,5.4545,0.1,0.0002591,2589.2,0.00025897,2585.5,-8.5137e-05,0.0015826,-8.6118e-05,-7.3701,1.0673
5976,12.917,5.2727,0.1,0.00025886,2586.8,0.00025877,2584,-8.5146e-05,0.0020701,-8.5893e-05,-5.6139,1.0681
5977,12.917,5.0909,0.1,0.00025864,2584.6,0.00025857,2582.6,-8.5155e-05,0.0034195,-8.5681e-05,-3.9481,1.0687
5978,12.917,4.9091,0.1,0.00025843,2582.5,0.00025839,2581.4,-8.5165e-05,0.0066165,-8.5482e-05,-2.3793,1.0693
5979,12.917,4.7273,0.1,0.00025824,2580.6,0.00025823,2580.2,-8.5173e-05,0.01987,-8.5298e-05,-0.92524,1.0699
5980,12.917,4.5455,0.1,0.00025807,2578.9,0.00025808,2579.1,-8.5119e-05,0.49084,-8.519e-05,-0.043218,1.0704
5981,12.917,4.3636,0.1,0.00025791,2577.3,0.00025794,2578.2,-8.4969e-05,1.6913,-8.5196e-05,-0.014234,1.0709
5982,12.917,4.1818,0.1,0.00025777,2575.9,0.00025782,2577.3,-8.4831e-05,2.7838,-8.5203e-05,-0.0096397,1.0712
5983,12.917,4,0.1,0.00025765,2574.7,0.00025771,2576.6,-8.4712e-05,3.7387,-8.5211e-05,-0.0078598,1.0716
5984,12.917,3.8182,0.1,0.00025755,2573.7,0.00025763,2576,-8.4611e-05,4.547,-8.5217e-05,-0.0069563,1.0719
5985,12.917,3.6364,0.1,0.00025747,2572.9,0.00025756,2575.5,-8.4529e-05,5.2017,-8.5222e-05,-0.0064407,1.0721
5986,12.917,3.4545,0.1,0.00025741,2572.3,0.0002575,2575.1,-8.4467e-05,5.6975,-8.5226e-05,-0.0061346,1.0722
5987,12.917,3.2727,0.1,0.00025736,2571.9,0.00025747,2574.9,-8.4426e-05,6.0304,-8.5229e-05,-0.0059592,1.0724
5988,12.917,3.0909,0.1,0.00025734,2571.7,0.00025745,2574.7,-8.4405e-05,6.1975,-8.5231e-05,-0.0058789,1.0724
5989,12.917,2.9091,0.1,0.00025734,2571.7,0.00025745,2574.7,-8.4405e-05,6.1975,-8.5231e-05,-0.0058783,1.0724
5990,12.917,2.7273,0.1,0.00025736,2571.9,0.00025747,2574.9,-8.4426e-05,6.0304,-8.5229e-05,-0.0059602,1.0724
5991,12.917,2.5455,0.1,0.00025741,2572.3,0.0002575,2575.1,-8.4467e-05,5.6976,-8.5226e-05,-0.0061354,1.0722
5992,12.917,2.3636,0.1,0.00025747,2572.9,0.00025756,2575.5,-8.4529e-05,5.2017,-8.5222e-05,-0.0064401,1.0721
5993,12.917,2.1818,0.1,0.00025755,2573.7,0.00025763,2576,-8.4611e-05,4.547,-8.5217e-05,-0.006956,1.0719
5994,12.917,2,0.1,0.00025765,2574.7,0.00025771,2576.6,-8.4712e-05,3.7388,-8.5211e-05,-0.0078604,1.0716
5995,12.917,1.8182,0.1,0.00025777,2575.9,0.00025782,2577.3,-8.4831e-05,2.7838,-8.5203e-05,-0.0096399,1.0712
5996,12.917,1.6364,0.1,0.00025791,2577.3,0.00025794,2578.2,-8.4969e-05,1.6913,-8.5196e-05,-0.014234,1.0709
5997,12.917,1.4545,0.1,0.00025807,2578.9,0.00025808,2579.1,-8.5119e-05,0.49088,-8.519e-05,-0.043216,1.0704
5998,12.917,1.2727,0.1,0.00025824,2580.6,0.00025823,2580.2,-8.5173e-05,0.019871,-8.5298e-05,-0.92519,1.0699
5999,12.917,1.0909,0.1,0.00025843,2582.5,0.00025839,2581.4,-8.5165e-05,0.006616,-8.5482e-05,-2.3792,1.0693
6000,12.917,0.90909,0.1,0.00025864,2584.6,0.00025857,2582.6,-8.5155e-05,0.0034189,-8.5681e-05,-3.948,1.0687
6001,12.917,0.72727,0.1,0.00025886,2586.8,0.00025877,2584,-8.5146e-05,0.0020681,-8.5893e-05,-5.6138,1.0681
6002,12.917,0.54545,0.1,0.0002591,2589.2,0.00025897,2585.5,-8.5137e-05,0.0015825,-8.6118e-05,-7.37,1.0673
6003,12.917,0.36364,0.1,0.00025936,2591.8,0.0002592,2587.2,-8.5128e-05,0.00054765,-8.6364e-05,-9.2863,1.0665
6004,12.917,0.18182,0.1,0.00025985,2596.7,0.00025963,2590.3,-8.512e-05,0.0032582,-8.6813e-05,-12.717,1.0657
6005,12.733,5.8182,0.1,0.00026475,2645.6,0.00026453,2639.5,-8.6756e-05,0.0036661,-8.8393e-05,-12.292,1.04
6006,12.733,5.6364,0.1,0.00026425,2640.6,0.0002641,2636.3,-8.6768e-05,-0.00041356,-8.7932e-05,-8.7428,1.0408
6007,12.733,5.4545,0.1,0.00026397,2637.9,0.00026386,2634.6,-8.678e-05,0.0013037,-8.767e-05,-6.6823,1.0416
6008,12.733,5.2727,0.1,0.00026373,2635.5,0.00026365,2633.1,-8.6793e-05,0.0021168,-8.743e-05,-4.7841,1.0423
6009,12.733,5.0909,0.1,0.0002635,2633.1,0.00026344,2631.6,-8.6805e-05,0.0046411,-8.7203e-05,-2.9812,1.043
6010,12.733,4.9091,0.1,0.00026328,2631,0.00026326,2630.3,-8.6817e-05,0.01375,-8.699e-05,-1.2857,1.0437
6011,12.733,4.7273,0.1,0.00026308,2629,0.00026308,2629.1,-8.6781e-05,0.37879,-8.6839e-05,-0.057451,1.0442
6012,12.733,4.5455,0.1,0.0002629,2627.1,0.00026293,2628,-8.6604e-05,1.8066,-8.6846e-05,-0.01432,1.0447
6013,12.733,4.3636,0.1,0.00026273,2625.5,0.00026278,2627,-8.6438e-05,3.14,-8.6857e-05,-0.0095033,1.0452
6014,12.733,4.1818,0.1,0.00026258,2624,0.00026266,2626.2,-8.629e-05,4.3336,-8.6868e-05,-0.0077417,1.0456
6015,12.733,4,0.1,0.00026246,2622.7,0.00026255,2625.4,-8.6161e-05,5.3763,-8.6877e-05,-0.0068616,1.0459
6016,12.733,3.8182,0.1,0.00026235,2621.7,0.00026245,2624.8,-8.6051e-05,6.259,-8.6885e-05,-0.0063538,1.0462
6017,12.733,3.6364,0.1,0.00026226,2620.8,0.00026238,2624.3,-8.5963e-05,6.9744,-8.6892e-05,-0.0060417,1.0464
6018,12.733,3.4545,0.1,0.0002622,2620.2,0.00026232,2623.9,-8.5896e-05,7.5164,-8.6897e-05,-0.0058471,1.0466
6019,12.733,3.2727,0.1,0.00026215,2619.7,0.00026229,2623.6,-8.5851e-05,7.8805,-8.6901e-05,-0.0057317,1.0467
6020,12.733,3.0909,0.1,0.00026213,2619.5,0.00026227,2623.5,-8.5829e-05,8.0633,-8.6903e-05,-0.0056774,1.0468
6021,12.733,2.9091,0.1,0.00026213,2619.5,0.00026227,2623.5,-8.5829e-05,8.0633,-8.6903e-05,-0.0056772,1.0468
6022,12.733,2.7273,0.1,0.00026215,2619.7,0.00026229,2623.6,-8.5851e-05,7.8805,-8.6901e-05,-0.0057314,1.0467
6023,12.733,2.5455,0.1,0.0002622,2620.2,0.00026232,2623.9,-8.5896e-05,7.5165,-8.6897e-05,-0.0058472,1.0466
6024,12.733,2.3636,0.1,0.00026226,2620.8,0.00026238,2624.3,-8.5963e-05,6.9744,-8.6892e-05,-0.0060412,1.0464
6025,12.733,2.1818,0.1,0.00026235,2621.7,0.00026245,2624.8,-8.6051e-05,6.259,-8.6885e-05,-0.0063547,1.0462
6026,12.733,2,0.1,0.00026246,2622.7,0.00026255,2625.4,-8.6161e-05,5.3763,-8.6877e-05,-0.0068616,1.0459
6027,12.733,1.8182,0.1,0.00026258,2624,0.00026266,2626.2,-8.629e-05,4.3337,-8.6868e-05,-0.0077424,1.0456
6028,12.733,1.6364,0.1,0.00026273,2625.5,0.00026278,2627,-8.6438e-05,3.14,-8.6857e-05,-0.0095039,1.0452
6029,12.733,1.4545,0.1,0.0002629,2627.1,0.00026293,2628,-8.6604e-05,1.8067,-8.6846e-05,-0.01432,1.0447
6030,12.733,1.2727,0.1,0.00026308,2629,0.00026308,2629.1,-8.6781e-05,0.37884,-8.6839e-05,-0.057446,1.0442
6031,12.733,1.0909,0.1,0.00026328,2631,0.00026326,2630.3,-8.6817e-05,0.013749,-8.699e-05,-1.2856,1.0437
6032,12.733,0.90909,0.1,0.0002635,2633.1,0.00026344,2631.6,-8.6805e-05,0.0046397,-8.7203e-05,-2.9812,1.043
6033,12.733,0.72727,0.1,0.00026373,2635.5,0.00026365,2633.1,-8.6793e-05,0.0021161,-8.743e-05,-4.784,1.0423
6034,12.733,0.54545,0.1,0.00026397,2637.9,0.00026386,2634.6,-8.678e-05,0.0013034,-8.767e-05,-6.6823,1.0416
6035,12.733,0.36364,0.1,0.00026425,2640.6,0.0002641,2636.3,-8.6768e-05,-0.00041352,-8.7932e-05,-8.7428,1.0408
6036,12.733,0.18182,0.1,0.00026475,2645.6,0.00026453,2639.5,-8.6756e-05,0.0036651,-8.8393e-05,-12.292,1.04
6037,12.548,5.8182,0.1,0.00026966,2694.7,0.00026946,2688.8,-8.84e-05,0.0041423,-8.9978e-05,-11.853,1.0144
6038,12.548,5.6364,0.1,0.00026915,2689.7,0.00026901,2685.6,-8.8416e-05,-0.0014308,-8.9503e-05,-8.174,1.0153
6039,12.548,5.4545,0.1,0.00026887,2686.8,0.00026877,2683.9,-8.8432e-05,0.0010156,-8.9225e-05,-5.9577,1.0161
6040,12.548,5.2727,0.1,0.00026861,2684.3,0.00026855,2682.3,-8.8448e-05,0.0023153,-8.8968e-05,-3.9062,1.0168
6041,12.548,5.0909,0.1,0.00026837,2681.8,0.00026834,2680.9,-8.8464e-05,0.0074366,-8.8725e-05,-1.9565,1.0175
6042,12.548,4.9091,0.1,0.00026814,2679.6,0.00026814,2679.5,-8.8468e-05,0.099753,-8.8508e-05,-0.20039,1.0181
6043,12.548,4.7273,0.1,0.00026793,2677.5,0.00026796,2678.3,-8.8279e-05,1.6448,-8.85e-05,-0.015496,1.0187
6044,12.548,4.5455,0.1,0.00026774,2675.5,0.00026779,2677.1,-8.8082e-05,3.238,-8.8514e-05,-0.009524,1.0192
6045,12.548,4.3636,0.1,0.00026756,2673.8,0.00026764,2676.1,-8.7903e-05,4.6927,-8.8529e-05,-0.0076437,1.0197
6046,12.548,4.1818,0.1,0.00026741,2672.2,0.00026751,2675.2,-8.7743e-05,5.9945,-8.8542e-05,-0.0067504,1.0201
6047,12.548,4,0.1,0.00026727,2670.9,0.00026739,2674.4,-8.7604e-05,7.1322,-8.8554e-05,-0.0062441,1.0205
6048,12.548,3.8182,0.1,0.00026716,2669.8,0.0002673,2673.8,-8.7485e-05,8.0961,-8.8564e-05,-0.0059269,1.0207
6049,12.548,3.6364,0.1,0.00026707,2668.8,0.00026722,2673.3,-8.739e-05,8.8778,-8.8572e-05,-0.0057212,1.021
6050,12.548,3.4545,0.1,0.000267,2668.1,0.00026716,2672.9,-8.7317e-05,9.4705,-8.8579e-05,-0.0055872,1.0212
6051,12.548,3.2727,0.1,0.00026695,2667.7,0.00026712,2672.6,-8.7269e-05,9.8686,-8.8583e-05,-0.0055057,1.0213
6052,12.548,3.0909,0.1,0.00026693,2667.4,0.0002671,2672.5,-8.7244e-05,10.069,-8.8585e-05,-0.0054666,1.0213
6053,12.548,2.9091,0.1,0.00026693,2667.4,0.0002671,2672.5,-8.7244e-05,10.069,-8.8585e-05,-0.0054664,1.0213
6054,12.548,2.7273,0.1,0.00026695,2667.7,0.00026712,2672.6,-8.7269e-05,9.8686,-8.8583e-05,-0.0055062,1.0213
6055,12.548,2.5455,0.1,0.000267,2668.1,0.00026716,2672.9,-8.7317e-05,9.4705,-8.8579e-05,-0.0055876,1.0212
6056,12.548,2.3636,0.1,0.00026707,2668.8,0.00026722,2673.3,-8.739e-05,8.8779,-8.8572e-05,-0.0057208,1.021
6057,12.548,2.1818,0.1,0.00026716,2669.8,0.0002673,2673.8,-8.7485e-05,8.0961,-8.8564e-05,-0.0059272,1.0207
6058,12.548,2,0.1,0.00026727,2670.9,0.00026739,2674.4,-8.7604e-05,7.1322,-8.8554e-05,-0.0062439,1.0205
6059,12.548,1.8182,0.1,0.00026741,2672.2,0.00026751,2675.2,-8.7743e-05,5.9945,-8.8542e-05,-0.0067509,1.0201
6060,12.548,1.6364,0.1,0.00026756,2673.8,0.00026764,2676.1,-8.7903e-05,4.6928,-8.8529e-05,-0.0076435,1.0197
6061,12.548,1.4545,0.1,0.00026774,2675.5,0.00026779,2677.1,-8.8082e-05,3.2381,-8.8514e-05,-0.0095241,1.0192
6062,12.548,1.2727,0.1,0.00026793,2677.5,0.00026796,2678.3,-8.8279e-05,1.6448,-8.85e-05,-0.015497,1.0187
6063,12.548,1.0909,0.1,0.00026814,2679.6,0.00026814,2679.5,-8.8468e-05,0.099773,-8.8508e-05,-0.20035,1.0181
6064,12.548,0.90909,0.1,0.00026837,2681.8,0.00026834,2680.9,-8.8464e-05,0.0074356,-8.8725e-05,-1.9564,1.0175
6065,12.548,0.72727,0.1,0.00026861,2684.3,0.00026855,2682.3,-8.8448e-05,0.0023151,-8.8968e-05,-3.9062,1.0168
6066,12.548,0.54545,0.1,0.00026887,2686.8,0.00026877,2683.9,-8.8432e-05,0.0010147,-8.9225e-05,-5.9577,1.0161
6067,12.548,0.36364,0.1,0.00026915,2689.7,0.00026901,2685.6,-8.8416e-05,-0.0014311,-8.9503e-05,-8.174,1.0153
6068,12.548,0.18182,0.1,0.00026966,2694.7,0.00026946,2688.8,-8.84e-05,0.0041432,-8.9978e-05,-11.853,1.0144
6069,12.363,5.8182,0.1,0.0002746,2744.1,0.0002744,2738.3,-9.0051e-05,0.004703,-9.1569e-05,-11.399,0.98899
6070,12.363,5.6364,0.1,0.00027408,2738.9,0.00027395,2735.1,-9.0072e-05,-0.0025068,-9.108e-05,-7.5778,0.98988
6071,12.363,5.4545,0.1,0.00027379,2736,0.0002737,2733.4,-9.0092e-05,0.00072168,-9.0783e-05,-5.1935,0.9907
6072,12.363,5.2727,0.1,0.00027351,2733.3,0.00027346,2731.8,-9.0112e-05,0.0028445,-9.0509e-05,-2.9767,0.99147
6073,12.363,5.0909,0.1,0.00027326,2730.7,0.00027324,2730.3,-9.0131e-05,0.017955,-9.025e-05,-0.87518,0.99217
6074,12.363,4.9091,0.1,0.00027302,2728.3,0.00027304,2728.9,-8.9998e-05,1.1665,-9.0156e-05,-0.019494,0.99282
6075,12.363,4.7273,0.1,0.0002728,2726.1,0.00027285,2727.6,-8.9769e-05,3.0352,-9.0174e-05,-0.0097553,0.99341
6076,12.363,4.5455,0.1,0.00027259,2724.1,0.00027267,2726.4,-8.9557e-05,4.7718,-9.0193e-05,-0.0075748,0.99394
6077,12.363,4.3636,0.1,0.00027241,2722.2,0.00027252,2725.4,-8.9364e-05,6.3566,-9.021e-05,-0.0066335,0.99441
6078,12.363,4.1818,0.1,0.00027225,2720.6,0.00027238,2724.5,-8.9191e-05,7.7759,-9.0226e-05,-0.0061176,0.99482
6079,12.363,4,0.1,0.0002721,2719.2,0.00027226,2723.6,-8.904e-05,9.0175,-9.0241e-05,-0.0057972,0.99517
6080,12.363,3.8182,0.1,0.00027198,2717.9,0.00027215,2723,-8.8912e-05,10.07,-9.0253e-05,-0.005583,0.99546
6081,12.363,3.6364,0.1,0.00027189,2717,0.00027207,2722.4,-8.8808e-05,10.925,-9.0263e-05,-0.0054359,0.9957
6082,12.363,3.4545,0.1,0.00027181,2716.2,0.00027201,2722,-8.873e-05,11.573,-9.0271e-05,-0.0053368,0.99587
6083,12.363,3.2727,0.1,0.00027176,2715.7,0.00027196,2721.7,-8.8677e-05,12.009,-9.0276e-05,-0.0052739,0.99599
6084,12.363,3.0909,0.1,0.00027174,2715.5,0.00027194,2721.6,-8.8651e-05,12.227,-9.0279e-05,-0.0052432,0.99605
6085,12.363,2.9091,0.1,0.00027174,2715.5,0.00027194,2721.6,-8.8651e-05,12.227,-9.0279e-05,-0.0052435,0.99605
6086,12.363,2.7273,0.1,0.00027176,2715.7,0.00027196,2721.7,-8.8677e-05,12.009,-9.0276e-05,-0.0052738,0.99599
6087,12.363,2.5455,0.1,0.00027181,2716.2,0.00027201,2722,-8.873e-05,11.573,-9.0271e-05,-0.0053368,0.99587
6088,12.363,2.3636,0.1,0.00027189,2717,0.00027207,2722.4,-8.8808e-05,10.925,-9.0263e-05,-0.0054352,0.9957
6089,12.363,2.1818,0.1,0.00027198,2717.9,0.00027215,2723,-8.8912e-05,10.07,-9.0253e-05,-0.0055827,0.99546
6090,12.363,2,0.1,0.0002721,2719.2,0.00027226,2723.6,-8.904e-05,9.0175,-9.0241e-05,-0.0057979,0.99517
6091,12.363,1.8182,0.1,0.00027225,2720.6,0.00027238,2724.5,-8.9191e-05,7.7759,-9.0226e-05,-0.006119,0.99482
6092,12.363,1.6364,0.1,0.00027241,2722.2,0.00027252,2725.4,-8.9364e-05,6.3566,-9.021e-05,-0.0066334,0.99441
6093,12.363,1.4545,0.1,0.00027259,2724.1,0.00027267,2726.4,-8.9557e-05,4.7718,-9.0193e-05,-0.0075757,0.99394
6094,12.363,1.2727,0.1,0.0002728,2726.1,0.00027285,2727.6,-8.9769e-05,3.0352,-9.0174e-05,-0.0097559,0.99341
6095,12.363,1.0909,0.1,0.00027302,2728.3,0.00027304,2728.9,-8.9998e-05,1.1666,-9.0156e-05,-0.019495,0.99282
6096,12.363,0.90909,0.1,0.00027326,2730.7,0.00027324,2730.3,-9.0131e-05,0.017955,-9.025e-05,-0.87512,0.99217
6097,12.363,0.72727,0.1,0.00027351,2733.3,0.00027346,2731.8,-9.0112e-05,0.0028436,-9.0509e-05,-2.9767,0.99147
6098,12.363,0.54545,0.1,0.00027379,2736,0.0002737,2733.4,-9.0092e-05,0.00072137,-9.0783e-05,-5.1934,0.9907
6099,12.363,0.36364,0.1,0.00027408,2738.9,0.00027395,2735.1,-9.0072e-05,-0.002507,-9.108e-05,-7.5778,0.98988
6100,12.363,0.18182,0.1,0.0002746,2744.1,0.0002744,2738.3,-9.0051e-05,0.0047025,-9.1569e-05,-11.399,0.98899
6101,12.179,5.8182,0.1,0.00027955,2793.6,0.00027937,2788.1,-9.171e-05,0.0053203,-9.3165e-05,-10.929,0.96379
6102,12.179,5.6364,0.1,0.00027903,2788.4,0.00027891,2784.9,-9.1736e-05,-0.0036884,-9.266e-05,-6.9526,0.96469
6103,12.179,5.4545,0.1,0.00027872,2785.3,0.00027865,2783.1,-9.176e-05,0.00038463,-9.2344e-05,-4.387,0.96553
6104,12.179,5.2727,0.1,0.00027844,2782.4,0.0002784,2781.4,-9.1785e-05,0.0042126,-9.205e-05,-1.9925,0.96631
6105,12.179,5.0909,0.1,0.00027817,2779.8,0.00027817,2779.9,-9.1763e-05,0.35289,-9.1817e-05,-0.049366,0.96702
6106,12.179,4.9091,0.1,0.00027792,2777.2,0.00027796,2778.5,-9.1504e-05,2.4874,-9.1836e-05,-0.010499,0.96768
6107,12.179,4.7273,0.1,0.00027768,2774.9,0.00027776,2777.1,-9.1256e-05,4.5244,-9.1859e-05,-0.0076013,0.96828
6108,12.179,4.5455,0.1,0.00027747,2772.7,0.00027757,2775.9,-9.1027e-05,6.4143,-9.1882e-05,-0.0065671,0.96881
6109,12.179,4.3636,0.1,0.00027727,2770.8,0.00027741,2774.8,-9.0818e-05,8.1407,-9.1903e-05,-0.0060337,0.96929
6110,12.179,4.1818,0.1,0.0002771,2769,0.00027726,2773.9,-9.0631e-05,9.6885,-9.1922e-05,-0.0057076,0.96971
6111,12.179,4,0.1,0.00027694,2767.5,0.00027713,2773,-9.0468e-05,11.044,-9.1939e-05,-0.0054871,0.97007
6112,12.179,3.8182,0.1,0.00027682,2766.3,0.00027702,2772.3,-9.033e-05,12.194,-9.1953e-05,-0.0053268,0.97036
6113,12.179,3.6364,0.1,0.00027671,2765.2,0.00027693,2771.8,-9.0217e-05,13.129,-9.1965e-05,-0.0052111,0.9706
6114,12.179,3.4545,0.1,0.00027664,2764.4,0.00027687,2771.3,-9.0132e-05,13.838,-9.1975e-05,-0.00513,0.97078
6115,12.179,3.2727,0.1,0.00027658,2763.9,0.00027682,2771,-9.0075e-05,14.315,-9.1981e-05,-0.0050776,0.9709
6116,12.179,3.0909,0.1,0.00027656,2763.7,0.0002768,2770.9,-9.0046e-05,14.555,-9.1984e-05,-0.0050513,0.97096
6117,12.179,2.9091,0.1,0.00027656,2763.7,0.0002768,2770.9,-9.0046e-05,14.555,-9.1984e-05,-0.0050509,0.97096
6118,12.179,2.7273,0.1,0.00027658,2763.9,0.00027682,2771,-9.0075e-05,14.315,-9.1981e-05,-0.0050781,0.9709
6119,12.179,2.5455,0.1,0.00027664,2764.4,0.00027687,2771.3,-9.0132e-05,13.838,-9.1975e-05,-0.0051302,0.97078
6120,12.179,2.3636,0.1,0.00027671,2765.2,0.00027693,2771.8,-9.0217e-05,13.129,-9.1965e-05,-0.0052117,0.9706
6121,12.179,2.1818,0.1,0.00027682,2766.3,0.00027702,2772.3,-9.033e-05,12.194,-9.1953e-05,-0.0053276,0.97036
6122,12.179,2,0.1,0.00027694,2767.5,0.00027713,2773,-9.0468e-05,11.044,-9.1939e-05,-0.0054873,0.97007
6123,12.179,1.8182,0.1,0.0002771,2769.1,0.00027726,2773.9,-9.0631e-05,9.6885,-9.1922e-05,-0.0057073,0.96971
6124,12.179,1.6364,0.1,0.00027727,2770.8,0.00027741,2774.8,-9.0818e-05,8.1407,-9.1903e-05,-0.0060342,0.96929
6125,12.179,1.4545,0.1,0.00027747,2772.7,0.00027757,2775.9,-9.1027e-05,6.4144,-9.1882e-05,-0.0065674,0.96881
6126,12.179,1.2727,0.1,0.00027768,2774.9,0.00027776,2777.1,-9.1256e-05,4.5244,-9.1859e-05,-0.0076015,0.96828
6127,12.179,1.0909,0.1,0.00027792,2777.2,0.00027796,2778.5,-9.1504e-05,2.4874,-9.1836e-05,-0.0105,0.96768
6128,12.179,0.90909,0.1,0.00027817,2779.8,0.00027817,2779.9,-9.1763e-05,0.35295,-9.1817e-05,-0.04936,0.96702
6129,12.179,0.72727,0.1,0.00027844,2782.4,0.0002784,2781.4,-9.1785e-05,0.0042103,-9.205e-05,-1.9924,0.96631
6130,12.179,0.54545,0.1,0.00027872,2785.3,0.00027865,2783.1,-9.176e-05,0.00038418,-9.2344e-05,-4.3869,0.96553
6131,12.179,0.36364,0.1,0.00027903,2788.4,0.00027891,2784.9,-9.1736e-05,-0.0036884,-9.266e-05,-6.9526,0.96469
6132,12.179,0.18182,0.1,0.00027955,2793.6,0.00027937,2788.1,-9.171e-05,0.0053194,-9.3165e-05,-10.929,0.96379
6133,11.994,5.8182,0.1,0.00028453,2843.3,0.00028435,2838.1,-9.3377e-05,0.0060985,-9.4767e-05,-10.44,0.93878
6134,11.994,5.6364,0.1,0.000284,2838,0.00028389,2834.9,-9.3408e-05,-0.004892,-9.4245e-05,-6.2962,0.93969
6135,11.994,5.4545,0.1,0.00028367,2834.8,0.00028361,2833,-9.3437e-05,0.00010202,-9.3908e-05,-3.5352,0.94054
6136,11.994,5.2727,0.1,0.00028337,2831.8,0.00028336,2831.3,-9.3466e-05,0.0096203,-9.3594e-05,-0.95261,0.94133
6137,11.994,5.0909,0.1,0.00028309,2829,0.00028312,2829.7,-9.329e-05,1.5512,-9.3498e-05,-0.012771,0.94206
6138,11.994,4.9091,0.1,0.00028283,2826.3,0.00028289,2828.3,-9.3006e-05,3.9031,-9.3527e-05,-0.007705,0.94273
6139,11.994,4.7273,0.1,0.00028258,2823.8,0.00028268,2826.9,-9.2739e-05,6.1176,-9.3554e-05,-0.0064737,0.94334
6140,11.994,4.5455,0.1,0.00028235,2821.6,0.00028249,2825.6,-9.2492e-05,8.1742,-9.3581e-05,-0.0059186,0.94388
6141,11.994,4.3636,0.1,0.00028214,2819.5,0.00028231,2824.5,-9.2266e-05,10.055,-9.3605e-05,-0.0055858,0.94437
6142,11.994,4.1818,0.1,0.00028196,2817.6,0.00028216,2823.5,-9.2064e-05,11.744,-9.3628e-05,-0.0053585,0.94479
6143,11.994,4,0.1,0.0002818,2816,0.00028202,2822.6,-9.1887e-05,13.224,-9.3648e-05,-0.0051891,0.94515
6144,11.994,3.8182,0.1,0.00028166,2814.7,0.00028191,2821.9,-9.1737e-05,14.482,-9.3665e-05,-0.005057,0.94546
6145,11.994,3.6364,0.1,0.00028155,2813.6,0.00028181,2821.3,-9.1615e-05,15.505,-9.3679e-05,-0.0049555,0.9457
6146,11.994,3.4545,0.1,0.00028147,2812.7,0.00028174,2820.8,-9.1522e-05,16.282,-9.369e-05,-0.0048804,0.94588
6147,11.994,3.2727,0.1,0.00028141,2812.2,0.00028169,2820.5,-9.146e-05,16.804,-9.3697e-05,-0.0048301,0.946
6148,11.994,3.0909,0.1,0.00028138,2811.9,0.00028167,2820.4,-9.1429e-05,17.067,-9.3701e-05,-0.0048044,0.94606
6149,11.994,2.9091,0.1,0.00028138,2811.9,0.00028167,2820.4,-9.1429e-05,17.067,-9.3701e-05,-0.0048049,0.94606
6150,11.994,2.7273,0.1,0.00028141,2812.2,0.00028169,2820.5,-9.146e-05,16.804,-9.3697e-05,-0.0048298,0.946
6151,11.994,2.5455,0.1,0.00028147,2812.7,0.00028174,2820.8,-9.1522e-05,16.282,-9.369e-05,-0.0048808,0.94588
6152,11.994,2.3636,0.1,0.00028155,2813.6,0.00028181,2821.3,-9.1615e-05,15.505,-9.3679e-05,-0.004955,0.9457
6153,11.994,2.1818,0.1,0.00028166,2814.7,0.00028191,2821.9,-9.1737e-05,14.482,-9.3665e-05,-0.0050574,0.94546
6154,11.994,2,0.1,0.0002818,2816,0.00028202,2822.6,-9.1887e-05,13.224,-9.3648e-05,-0.0051894,0.94515
6155,11.994,1.8182,0.1,0.00028196,2817.6,0.00028216,2823.5,-9.2064e-05,11.744,-9.3628e-05,-0.0053589,0.94479
6156,11.994,1.6364,0.1,0.00028214,2819.5,0.00028231,2824.5,-9.2266e-05,10.055,-9.3605e-05,-0.0055864,0.94437
6157,11.994,1.4545,0.1,0.00028235,2821.6,0.00028249,2825.6,-9.2492e-05,8.1742,-9.3581e-05,-0.0059185,0.94388
6158,11.994,1.2727,0.1,0.00028258,2823.8,0.00028268,2826.9,-9.2739e-05,6.1177,-9.3554e-05,-0.0064746,0.94334
6159,11.994,1.0909,0.1,0.00028283,2826.3,0.00028289,2828.3,-9.3006e-05,3.9031,-9.3527e-05,-0.0077056,0.94273
6160,11.994,0.90909,0.1,0.00028309,2829,0.00028312,2829.7,-9.329e-05,1.5513,-9.3498e-05,-0.012772,0.94206
6161,11.994,0.72727,0.1,0.00028337,2831.8,0.00028336,2831.3,-9.3466e-05,0.0096191,-9.3594e-05,-0.95255,0.94133
6162,11.994,0.54545,0.1,0.00028367,2834.8,0.00028361,2833,-9.3437e-05,0.0001016,-9.3908e-05,-3.5351,0.94054
6163,11.994,0.36364,0.1,0.000284,2838,0.00028389,2834.9,-9.3408e-05,-0.0048918,-9.4245e-05,-6.2961,0.93969
6164,11.994,0.18182,0.1,0.00028453,2843.3,0.00028435,2838.1,-9.3377e-05,0.0060988,-9.4767e-05,-10.44,0.93878
6165,11.809,5.8182,0.1,0.00028953,2893.3,0.00028936,2888.3,-9.5052e-05,0.0070223,-9.6375e-05,-9.9335,0.91396
6166,11.809,5.6364,0.1,0.00028899,2887.9,0.00028889,2885.1,-9.5088e-05,-0.0061633,-9.5834e-05,-5.607,0.91488
6167,11.809,5.4545,0.1,0.00028865,2884.5,0.0002886,2883.2,-9.5123e-05,-0.00012712,-9.5474e-05,-2.6356,0.91575
6168,11.809,5.2727,0.1,0.00028833,2881.3,0.00028833,2881.4,-9.5129e-05,0.2156,-9.5164e-05,-0.050145,0.91655
6169,11.809,5.0909,0.1,0.00028803,2878.3,0.00028808,2879.8,-9.4812e-05,2.8603,-9.5193e-05,-0.0080429,0.91729
6170,11.809,4.9091,0.1,0.00028775,2875.5,0.00028784,2878.2,-9.4505e-05,5.415,-9.5227e-05,-0.0064318,0.91797
6171,11.809,4.7273,0.1,0.00028749,2872.9,0.00028762,2876.8,-9.4218e-05,7.8219,-9.526e-05,-0.0058232,0.91859
6172,11.809,4.5455,0.1,0.00028725,2870.5,0.00028742,2875.5,-9.3951e-05,10.06,-9.529e-05,-0.0054928,0.91914
6173,11.809,4.3636,0.1,0.00028703,2868.3,0.00028723,2874.3,-9.3707e-05,12.111,-9.5319e-05,-0.0052615,0.91963
6174,11.809,4.1818,0.1,0.00028683,2866.3,0.00028707,2873.3,-9.3488e-05,13.954,-9.5346e-05,-0.0050812,0.92006
6175,11.809,4,0.1,0.00028666,2864.6,0.00028692,2872.4,-9.3296e-05,15.573,-9.5369e-05,-0.004933,0.92043
6176,11.809,3.8182,0.1,0.00028652,2863.2,0.0002868,2871.6,-9.3133e-05,16.949,-9.5389e-05,-0.004808,0.92074
6177,11.809,3.6364,0.1,0.0002864,2862,0.0002867,2871,-9.3e-05,18.07,-9.5405e-05,-0.0047073,0.92098
6178,11.809,3.4545,0.1,0.00028631,2861.1,0.00028663,2870.5,-9.2899e-05,18.921,-9.5418e-05,-0.0046304,0.92117
6179,11.809,3.2727,0.1,0.00028625,2860.5,0.00028658,2870.2,-9.2831e-05,19.494,-9.5427e-05,-0.0045769,0.92129
6180,11.809,3.0909,0.1,0.00028622,2860.2,0.00028655,2870.1,-9.2797e-05,19.783,-9.5431e-05,-0.0045503,0.92135
6181,11.809,2.9091,0.1,0.00028622,2860.2,0.00028655,2870.1,-9.2797e-05,19.783,-9.5431e-05,-0.0045499,0.92135
6182,11.809,2.7273,0.1,0.00028625,2860.5,0.00028658,2870.2,-9.2831e-05,19.494,-9.5427e-05,-0.0045777,0.92129
6183,11.809,2.5455,0.1,0.00028631,2861.1,0.00028663,2870.5,-9.2899e-05,18.921,-9.5418e-05,-0.0046305,0.92117
6184,11.809,2.3636,0.1,0.0002864,2862,0.0002867,2871,-9.3e-05,18.07,-9.5405e-05,-0.004707,0.92098
6185,11.809,2.1818,0.1,0.00028652,2863.2,0.0002868,2871.6,-9.3133e-05,16.949,-9.5389e-05,-0.0048086,0.92074
6186,11.809,2,0.1,0.00028666,2864.6,0.00028692,2872.4,-9.3296e-05,15.573,-9.5369e-05,-0.0049328,0.92043
6187,11.809,1.8182,0.1,0.00028683,2866.3,0.00028707,2873.3,-9.3488e-05,13.954,-9.5346e-05,-0.0050814,0.92006
6188,11.809,1.6364,0.1,0.00028703,2868.3,0.00028723,2874.3,-9.3707e-05,12.111,-9.5319e-05,-0.0052621,0.91963
6189,11.809,1.4545,0.1,0.00028725,2870.5,0.00028742,2875.5,-9.3951e-05,10.06,-9.529e-05,-0.0054935,0.91914
6190,11.809,1.2727,0.1,0.00028749,2872.9,0.00028762,2876.8,-9.4218e-05,7.8219,-9.526e-05,-0.0058243,0.91859
6191,11.809,1.0909,0.1,0.00028775,2875.5,0.00028784,2878.2,-9.4505e-05,5.4151,-9.5227e-05,-0.0064316,0.91797
6192,11.809,0.90909,0.1,0.00028803,2878.3,0.00028808,2879.8,-9.4812e-05,2.8603,-9.5193e-05,-0.0080449,0.91729
6193,11.809,0.72727,0.1,0.00028833,2881.3,0.00028833,2881.4,-9.5129e-05,0.21565,-9.5164e-05,-0.050139,0.91655
6194,11.809,0.54545,0.1,0.00028865,2884.5,0.0002886,2883.2,-9.5123e-05,-0.00012825,-9.5474e-05,-2.6356,0.91575
6195,11.809,0.36364,0.1,0.00028899,2887.9,0.00028889,2885.1,-9.5088e-05,-0.0061637,-9.5834e-05,-5.607,0.91488
6196,11.809,0.18182,0.1,0.00028953,2893.3,0.00028936,2888.3,-9.5052e-05,0.0070219,-9.6375e-05,-9.9335,0.91396
6197,11.624,5.8182,0.1,0.00029455,2943.5,0.00029439,2938.8,-9.6735e-05,0.0080875,-9.7988e-05,-9.4075,0.88933
6198,11.624,5.6364,0.1,0.000294,2937.9,0.00029391,2935.5,-9.6777e-05,-0.007535,-9.7426e-05,-4.8837,0.89027
6199,11.624,5.4545,0.1,0.00029364,2934.4,0.00029361,2933.5,-9.6817e-05,-0.00018609,-9.7042e-05,-1.6863,0.89115
6200,11.624,5.2727,0.1,0.00029331,2931,0.00029333,2931.7,-9.6678e-05,1.3505,-9.6859e-05,-0.010069,0.89197
6201,11.624,5.0909,0.1,0.00029299,2927.9,0.00029306,2930,-9.6331e-05,4.2559,-9.6899e-05,-0.0064324,0.89272
6202,11.624,4.9091,0.1,0.00029269,2924.9,0.00029281,2928.4,-9.6001e-05,7.0285,-9.6938e-05,-0.0058139,0.89341
6203,11.624,4.7273,0.1,0.00029242,2922.1,0.00029258,2927,-9.5691e-05,9.6447,-9.6975e-05,-0.0054739,0.89403
6204,11.624,4.5455,0.1,0.00029216,2919.6,0.00029236,2925.6,-9.5402e-05,12.082,-9.7011e-05,-0.0052499,0.89459
6205,11.624,4.3636,0.1,0.00029193,2917.2,0.00029217,2924.4,-9.5138e-05,14.319,-9.7044e-05,-0.0050617,0.89509
6206,11.624,4.1818,0.1,0.00029172,2915.2,0.00029199,2923.3,-9.49e-05,16.333,-9.7075e-05,-0.0048964,0.89553
6207,11.624,4,0.1,0.00029153,2913.3,0.00029184,2922.3,-9.4692e-05,18.103,-9.7102e-05,-0.0047486,0.89591
6208,11.624,3.8182,0.1,0.00029138,2911.8,0.00029171,2921.5,-9.4515e-05,19.612,-9.7125e-05,-0.0046163,0.89622
6209,11.624,3.6364,0.1,0.00029125,2910.5,0.0002916,2920.9,-9.437e-05,20.84,-9.7144e-05,-0.0045048,0.89647
6210,11.624,3.4545,0.1,0.00029116,2909.6,0.00029152,2920.4,-9.426e-05,21.775,-9.7159e-05,-0.0044191,0.89665
6211,11.624,3.2727,0.1,0.00029109,2908.9,0.00029147,2920.1,-9.4187e-05,22.404,-9.7169e-05,-0.004359,0.89678
6212,11.624,3.0909,0.1,0.00029106,2908.6,0.00029144,2919.9,-9.4149e-05,22.721,-9.7174e-05,-0.0043275,0.89684
6213,11.624,2.9091,0.1,0.00029106,2908.6,0.00029144,2919.9,-9.4149e-05,22.721,-9.7174e-05,-0.0043279,0.89684
6214,11.624,2.7273,0.1,0.00029109,2908.9,0.00029147,2920.1,-9.4187e-05,22.404,-9.7169e-05,-0.004359,0.89678
6215,11.624,2.5455,0.1,0.00029116,2909.6,0.00029152,2920.4,-9.426e-05,21.775,-9.7159e-05,-0.0044194,0.89665
6216,11.624,2.3636,0.1,0.00029125,2910.5,0.0002916,2920.9,-9.437e-05,20.84,-9.7144e-05,-0.0045063,0.89647
6217,11.624,2.1818,0.1,0.00029138,2911.8,0.00029171,2921.5,-9.4515e-05,19.612,-9.7125e-05,-0.0046169,0.89622
6218,11.624,2,0.1,0.00029153,2913.3,0.00029184,2922.3,-9.4692e-05,18.103,-9.7102e-05,-0.0047483,0.89591
6219,11.624,1.8182,0.1,0.00029172,2915.2,0.00029199,2923.3,-9.49e-05,16.333,-9.7075e-05,-0.0048964,0.89553
6220,11.624,1.6364,0.1,0.00029193,2917.2,0.00029217,2924.4,-9.5138e-05,14.319,-9.7044e-05,-0.0050613,0.89509
6221,11.624,1.4545,0.1,0.00029216,2919.6,0.00029236,2925.6,-9.5402e-05,12.082,-9.7011e-05,-0.0052507,0.89459
6222,11.624,1.2727,0.1,0.00029242,2922.1,0.00029258,2927,-9.5691e-05,9.6447,-9.6975e-05,-0.0054743,0.89403
6223,11.624,1.0909,0.1,0.00029269,2924.9,0.00029281,2928.4,-9.6001e-05,7.0286,-9.6938e-05,-0.0058151,0.89341
6224,11.624,0.90909,0.1,0.00029299,2927.9,0.00029306,2930,-9.6331e-05,4.256,-9.6899e-05,-0.0064335,0.89272
6225,11.624,0.72727,0.1,0.00029331,2931,0.00029333,2931.7,-9.6678e-05,1.3505,-9.6859e-05,-0.01007,0.89197
6226,11.624,0.54545,0.1,0.00029364,2934.4,0.00029361,2933.5,-9.6817e-05,-0.0001863,-9.7042e-05,-1.6862,0.89115
6227,11.624,0.36364,0.1,0.000294,2937.9,0.00029391,2935.5,-9.6777e-05,-0.0075358,-9.7426e-05,-4.8836,0.89027
6228,11.624,0.18182,0.1,0.00029455,2943.5,0.00029439,2938.8,-9.6735e-05,0.0080863,-9.7988e-05,-9.4075,0.88933
6229,11.44,5.8182,0.1,0.00029959,2993.9,0.00029944,2989.4,-9.8426e-05,0.0094066,-9.9606e-05,-8.8614,0.86491
6230,11.44,5.6364,0.1,0.00029902,2988.2,0.00029895,2986.1,-9.8474e-05,-0.0089239,-9.9022e-05,-4.1247,0.86586
6231,11.44,5.4545,0.1,0.00029865,2984.4,0.00029864,2984.1,-9.852e-05,0.0011491,-9.8612e-05,-0.68584,0.86676
6232,11.44,5.2727,0.1,0.0002983,2980.9,0.00029834,2982.2,-9.8222e-05,2.5923,-9.8568e-05,-0.0068553,0.86758
6233,11.44,5.0909,0.1,0.00029797,2977.6,0.00029806,2980.5,-9.7849e-05,5.741,-9.8614e-05,-0.005747,0.86835
6234,11.44,4.9091,0.1,0.00029765,2974.5,0.0002978,2978.8,-9.7493e-05,8.7496,-9.8658e-05,-0.0054971,0.86904
6235,11.44,4.7273,0.1,0.00029736,2971.5,0.00029755,2977.3,-9.7158e-05,11.594,-9.8702e-05,-0.0052702,0.86968
6236,11.44,4.5455,0.1,0.00029708,2968.8,0.00029732,2975.9,-9.6846e-05,14.25,-9.8743e-05,-0.0050861,0.87025
6237,11.44,4.3636,0.1,0.00029683,2966.3,0.00029711,2974.6,-9.6559e-05,16.691,-9.8781e-05,-0.0049042,0.87076
6238,11.44,4.1818,0.1,0.00029661,2964.1,0.00029693,2973.5,-9.6301e-05,18.893,-9.8817e-05,-0.0047299,0.8712
6239,11.44,4,0.1,0.00029642,2962.1,0.00029676,2972.5,-9.6074e-05,20.833,-9.8848e-05,-0.0045655,0.87158
6240,11.44,3.8182,0.1,0.00029625,2960.5,0.00029663,2971.6,-9.5881e-05,22.487,-9.8875e-05,-0.004415,0.87189
6241,11.44,3.6364,0.1,0.00029612,2959.1,0.00029651,2971,-9.5724e-05,23.836,-9.8897e-05,-0.0042852,0.87215
6242,11.44,3.4545,0.1,0.00029601,2958.1,0.00029643,2970.4,-9.5604e-05,24.863,-9.8914e-05,-0.0041823,0.87234
6243,11.44,3.2727,0.1,0.00029594,2957.4,0.00029637,2970.1,-9.5523e-05,25.555,-9.8925e-05,-0.004111,0.87246
6244,11.44,3.0909,0.1,0.00029591,2957.1,0.00029634,2969.9,-9.5483e-05,25.903,-9.8931e-05,-0.0040736,0.87253
6245,11.44,2.9091,0.1,0.00029591,2957.1,0.00029634,2969.9,-9.5483e-05,25.903,-9.8931e-05,-0.0040739,0.87253
6246,11.44,2.7273,0.1,0.00029594,2957.4,0.00029637,2970.1,-9.5523e-05,25.555,-9.8925e-05,-0.0041108,0.87246
6247,11.44,2.5455,0.1,0.00029601,2958.1,0.00029643,2970.4,-9.5604e-05,24.863,-9.8914e-05,-0.0041829,0.87234
6248,11.44,2.3636,0.1,0.00029612,2959.1,0.00029651,2971,-9.5724e-05,23.836,-9.8897e-05,-0.0042844,0.87215
6249,11.44,2.1818,0.1,0.00029625,2960.5,0.00029663,2971.6,-9.5881e-05,22.487,-9.8875e-05,-0.0044154,0.87189
6250,11.44,2,0.1,0.00029642,2962.1,0.00029676,2972.5,-9.6075e-05,20.833,-9.8848e-05,-0.004565,0.87158
6251,11.44,1.8182,0.1,0.00029661,2964.1,0.00029693,2973.5,-9.6301e-05,18.893,-9.8817e-05,-0.0047314,0.8712
6252,11.44,1.6364,0.1,0.00029683,2966.3,0.00029711,2974.6,-9.6559e-05,16.691,-9.8781e-05,-0.0049048,0.87076
6253,11.44,1.4545,0.1,0.00029708,2968.8,0.00029732,2975.9,-9.6846e-05,14.25,-9.8743e-05,-0.0050869,0.87025
6254,11.44,1.2727,0.1,0.00029736,2971.5,0.00029755,2977.3,-9.7158e-05,11.594,-9.8702e-05,-0.0052707,0.86968
6255,11.44,1.0909,0.1,0.00029765,2974.5,0.0002978,2978.8,-9.7493e-05,8.7497,-9.8659e-05,-0.0054982,0.86904
6256,11.44,0.90909,0.1,0.00029797,2977.6,0.00029806,2980.5,-9.7849e-05,5.741,-9.8614e-05,-0.0057488,0.86835
6257,11.44,0.72727,0.1,0.0002983,2980.9,0.00029834,2982.2,-9.8222e-05,2.5923,-9.8568e-05,-0.0068562,0.86758
6258,11.44,0.54545,0.1,0.00029865,2984.4,0.00029864,2984.1,-9.852e-05,0.0011505,-9.8612e-05,-0.68581,0.86676
6259,11.44,0.36364,0.1,0.00029902,2988.2,0.00029895,2986.1,-9.8474e-05,-0.0089247,-9.9022e-05,-4.1246,0.86586
6260,11.44,0.18182,0.1,0.00029959,2993.9,0.00029944,2989.4,-9.8426e-05,0.009405,-9.9606e-05,-8.8614,0.86491
6261,11.255,5.8182,0.1,0.00030466,3044.5,0.00030451,3040.3,-0.00010012,0.011044,-0.00010123,-8.2949,0.84069
6262,11.255,5.6364,0.1,0.00030407,3038.6,0.00030402,3037,-0.00010018,-0.010284,-0.00010062,-3.3293,0.84166
6263,11.255,5.4545,0.1,0.00030368,3034.7,0.00030368,3034.9,-0.00010018,0.3793,-0.00010023,-0.0082918,0.84256
6264,11.255,5.2727,0.1,0.00030331,3031,0.00030338,3032.9,-9.9765e-05,3.9091,-0.00010029,-0.0060297,0.8434
6265,11.255,5.0909,0.1,0.00030296,3027.5,0.00030308,3031.1,-9.9364e-05,7.3189,-0.00010034,-0.0054797,0.84417
6266,11.255,4.9091,0.1,0.00030262,3024.1,0.0003028,3029.4,-9.898e-05,10.584,-0.00010039,-0.0053665,0.84488
6267,11.255,4.7273,0.1,0.00030231,3021,0.00030254,3027.8,-9.8618e-05,13.678,-0.00010044,-0.0051701,0.84553
6268,11.255,4.5455,0.1,0.00030202,3018.1,0.0003023,3026.4,-9.828e-05,16.573,-0.00010049,-0.0049848,0.84611
6269,11.255,4.3636,0.1,0.00030175,3015.5,0.00030208,3025,-9.7969e-05,19.24,-0.00010053,-0.0047837,0.84662
6270,11.255,4.1818,0.1,0.00030152,3013.1,0.00030188,3023.8,-9.7689e-05,21.651,-0.00010057,-0.0045835,0.84707
6271,11.255,4,0.1,0.00030131,3011,0.0003017,3022.8,-9.7442e-05,23.777,-0.00010061,-0.0043883,0.84745
6272,11.255,3.8182,0.1,0.00030113,3009.2,0.00030156,3021.9,-9.7231e-05,25.594,-0.00010064,-0.0042067,0.84777
6273,11.255,3.6364,0.1,0.00030098,3007.8,0.00030144,3021.2,-9.7059e-05,27.077,-0.00010066,-0.0040497,0.84803
6274,11.255,3.4545,0.1,0.00030087,3006.7,0.00030134,3020.7,-9.6928e-05,28.207,-0.00010068,-0.0039251,0.84822
6275,11.255,3.2727,0.1,0.0003008,3005.9,0.00030128,3020.3,-9.684e-05,28.97,-0.0001007,-0.003837,0.84835
6276,11.255,3.0909,0.1,0.00030076,3005.6,0.00030125,3020.1,-9.6795e-05,29.354,-0.0001007,-0.003792,0.84841
6277,11.255,2.9091,0.1,0.00030076,3005.6,0.00030125,3020.1,-9.6795e-05,29.354,-0.0001007,-0.003792,0.84841
6278,11.255,2.7273,0.1,0.0003008,3005.9,0.00030128,3020.3,-9.684e-05,28.97,-0.0001007,-0.0038377,0.84835
6279,11.255,2.5455,0.1,0.00030087,3006.7,0.00030134,3020.7,-9.6928e-05,28.207,-0.00010068,-0.003925,0.84822
6280,11.255,2.3636,0.1,0.00030098,3007.8,0.00030144,3021.2,-9.7059e-05,27.077,-0.00010066,-0.0040503,0.84803
6281,11.255,2.1818,0.1,0.00030113,3009.2,0.00030156,3021.9,-9.7231e-05,25.594,-0.00010064,-0.0042067,0.84777
6282,11.255,2,0.1,0.00030131,3011,0.0003017,3022.8,-9.7442e-05,23.777,-0.00010061,-0.0043891,0.84745
6283,11.255,1.8182,0.1,0.00030152,3013.1,0.00030188,3023.8,-9.7689e-05,21.651,-0.00010057,-0.0045834,0.84707
6284,11.255,1.6364,0.1,0.00030175,3015.5,0.00030208,3025,-9.7969e-05,19.24,-0.00010053,-0.0047848,0.84662
6285,11.255,1.4545,0.1,0.00030202,3018.1,0.0003023,3026.4,-9.828e-05,16.573,-0.00010049,-0.0049851,0.84611
6286,11.255,1.2727,0.1,0.00030231,3021,0.00030254,3027.8,-9.8618e-05,13.678,-0.00010044,-0.0051708,0.84553
6287,11.255,1.0909,0.1,0.00030262,3024.1,0.0003028,3029.4,-9.898e-05,10.584,-0.00010039,-0.0053677,0.84488
6288,11.255,0.90909,0.1,0.00030296,3027.5,0.00030308,3031.1,-9.9364e-05,7.3189,-0.00010034,-0.0054811,0.84417
6289,11.255,0.72727,0.1,0.00030331,3031,0.00030338,3032.9,-9.9765e-05,3.9092,-0.00010029,-0.0060314,0.8434
6290,11.255,0.54545,0.1,0.00030368,3034.7,0.00030368,3034.9,-0.00010018,0.37934,-0.00010023,-0.0082928,0.84256
6291,11.255,0.36364,0.1,0.00030407,3038.6,0.00030402,3037,-0.00010018,-0.010284,-0.00010062,-3.3293,0.84166
6292,11.255,0.18182,0.1,0.00030466,3044.5,0.00030451,3040.3,-0.00010012,0.011043,-0.00010123,-8.2949,0.84069
6293,11.07,5.8182,0.1,0.00030974,3095.3,0.00030961,3091.4,-0.00010183,0.013097,-0.00010286,-7.7079,0.81667
6294,11.07,5.6364,0.1,0.00030914,3089.3,0.0003091,3088,-0.00010189,-0.011477,-0.00010222,-2.4972,0.81766
6295,11.07,5.4545,0.1,0.00030873,3085.1,0.00030875,3085.9,-0.00010176,1.4866,-0.00010195,-0.0046922,0.81857
6296,11.07,5.2727,0.1,0.00030834,3081.2,0.00030843,3083.9,-0.00010131,5.3017,-0.00010201,-0.0059003,0.81943
6297,11.07,5.0909,0.1,0.00030796,3077.5,0.00030811,3082,-0.00010088,8.9934,-0.00010207,-0.0054467,0.82021
6298,11.07,4.9091,0.1,0.00030761,3074,0.00030782,3080.2,-0.00010046,12.538,-0.00010213,-0.0053606,0.82093
6299,11.07,4.7273,0.1,0.00030728,3070.6,0.00030754,3078.6,-0.00010007,15.905,-0.00010219,-0.0051483,0.82158
6300,11.07,4.5455,0.1,0.00030697,3067.5,0.00030729,3077,-9.9704e-05,19.063,-0.00010224,-0.0049315,0.82217
6301,11.07,4.3636,0.1,0.00030668,3064.7,0.00030705,3075.6,-9.9367e-05,21.98,-0.00010229,-0.0046925,0.82269
6302,11.07,4.1818,0.1,0.00030643,3062.2,0.00030684,3074.4,-9.9061e-05,24.621,-0.00010234,-0.0044484,0.82314
6303,11.07,4,0.1,0.0003062,3059.9,0.00030665,3073.3,-9.8792e-05,26.956,-0.00010238,-0.0042099,0.82353
6304,11.07,3.8182,0.1,0.00030601,3058,0.0003065,3072.4,-9.8561e-05,28.953,-0.00010242,-0.0039878,0.82386
6305,11.07,3.6364,0.1,0.00030586,3056.5,0.00030637,3071.6,-9.8373e-05,30.587,-0.00010244,-0.0037939,0.82412
6306,11.07,3.4545,0.1,0.00030574,3055.3,0.00030627,3071.1,-9.823e-05,31.833,-0.00010247,-0.0036405,0.82431
6307,11.07,3.2727,0.1,0.00030566,3054.5,0.0003062,3070.7,-9.8133e-05,32.675,-0.00010248,-0.0035326,0.82444
6308,11.07,3.0909,0.1,0.00030562,3054.1,0.00030617,3070.5,-9.8084e-05,33.098,-0.00010249,-0.0034772,0.82451
6309,11.07,2.9091,0.1,0.00030562,3054.1,0.00030617,3070.5,-9.8084e-05,33.098,-0.00010249,-0.0034767,0.82451
6310,11.07,2.7273,0.1,0.00030566,3054.5,0.0003062,3070.7,-9.8133e-05,32.675,-0.00010248,-0.0035322,0.82444
6311,11.07,2.5455,0.1,0.00030574,3055.3,0.00030627,3071.1,-9.823e-05,31.833,-0.00010247,-0.0036408,0.82431
6312,11.07,2.3636,0.1,0.00030586,3056.5,0.00030637,3071.6,-9.8373e-05,30.587,-0.00010244,-0.0037943,0.82412
6313,11.07,2.1818,0.1,0.00030601,3058,0.0003065,3072.4,-9.8561e-05,28.953,-0.00010242,-0.0039878,0.82386
6314,11.07,2,0.1,0.0003062,3059.9,0.00030665,3073.3,-9.8792e-05,26.956,-0.00010238,-0.0042098,0.82353
6315,11.07,1.8182,0.1,0.00030643,3062.2,0.00030684,3074.4,-9.9061e-05,24.621,-0.00010234,-0.0044488,0.82314
6316,11.07,1.6364,0.1,0.00030668,3064.7,0.00030705,3075.6,-9.9367e-05,21.98,-0.00010229,-0.0046926,0.82269
6317,11.07,1.4545,0.1,0.00030697,3067.5,0.00030729,3077,-9.9704e-05,19.063,-0.00010224,-0.0049329,0.82217
6318,11.07,1.2727,0.1,0.00030728,3070.6,0.00030754,3078.6,-0.00010007,15.905,-0.00010219,-0.0051483,0.82158
6319,11.07,1.0909,0.1,0.00030761,3074,0.00030782,3080.2,-0.00010046,12.538,-0.00010213,-0.0053615,0.82093
6320,11.07,0.90909,0.1,0.00030796,3077.5,0.00030811,3082,-0.00010088,8.9934,-0.00010207,-0.0054488,0.82021
6321,11.07,0.72727,0.1,0.00030834,3081.2,0.00030843,3083.9,-0.00010131,5.3017,-0.00010201,-0.0059015,0.81943
6322,11.07,0.54545,0.1,0.00030873,3085.1,0.00030875,3085.9,-0.00010176,1.4867,-0.00010195,-0.0046926,0.81857
6323,11.07,0.36364,0.1,0.00030914,3089.3,0.0003091,3088,-0.00010189,-0.011478,-0.00010222,-2.4972,0.81766
6324,11.07,0.18182,0.1,0.00030974,3095.3,0.00030961,3091.4,-0.00010183,0.013096,-0.00010286,-7.7079,0.81667
6325,10.886,5.8182,0.1,0.00031484,3146.3,0.00031472,3142.7,-0.00010355,0.015645,-0.00010449,-7.1008,0.79287
6326,10.886,5.6364,0.1,0.00031423,3140.1,0.0003142,3139.3,-0.00010362,-0.012105,-0.00010383,-1.6292,0.79387
6327,10.886,5.4545,0.1,0.00031379,3135.7,0.00031384,3137.1,-0.00010333,2.6529,-0.00010368,-0.0047773,0.7948
6328,10.886,5.2727,0.1,0.00031338,3131.6,0.00031349,3135,-0.00010285,6.7707,-0.00010375,-0.0061445,0.79566
6329,10.886,5.0909,0.1,0.00031298,3127.7,0.00031317,3133.1,-0.00010238,10.767,-0.00010382,-0.0056226,0.79646
6330,10.886,4.9091,0.1,0.00031261,3123.9,0.00031285,3131.2,-0.00010194,14.615,-0.00010388,-0.0055073,0.79718
6331,10.886,4.7273,0.1,0.00031225,3120.4,0.00031256,3129.5,-0.00010151,18.281,-0.00010395,-0.005245,0.79785
6332,10.886,4.5455,0.1,0.00031192,3117.1,0.00031229,3127.9,-0.00010112,21.73,-0.00010401,-0.0049773,0.79844
6333,10.886,4.3636,0.1,0.00031162,3114.1,0.00031204,3126.4,-0.00010075,24.922,-0.00010407,-0.0046806,0.79897
6334,10.886,4.1818,0.1,0.00031135,3111.3,0.00031181,3125.2,-0.00010042,27.821,-0.00010412,-0.0043797,0.79943
6335,10.886,4,0.1,0.00031111,3108.9,0.00031161,3124,-0.00010012,30.388,-0.00010417,-0.0040847,0.79983
6336,10.886,3.8182,0.1,0.0003109,3106.9,0.00031144,3123,-9.9871e-05,32.588,-0.00010421,-0.0038105,0.80015
6337,10.886,3.6364,0.1,0.00031074,3105.2,0.00031131,3122.3,-9.9664e-05,34.39,-0.00010424,-0.0035715,0.80042
6338,10.886,3.4545,0.1,0.00031061,3103.9,0.0003112,3121.7,-9.9507e-05,35.767,-0.00010427,-0.0033813,0.80061
6339,10.886,3.2727,0.1,0.00031052,3103.1,0.00031113,3121.3,-9.9401e-05,36.697,-0.00010429,-0.0032487,0.80075
6340,10.886,3.0909,0.1,0.00031048,3102.6,0.00031109,3121.1,-9.9347e-05,37.166,-0.00010429,-0.0031795,0.80081
6341,10.886,2.9091,0.1,0.00031048,3102.6,0.00031109,3121.1,-9.9347e-05,37.166,-0.00010429,-0.0031797,0.80081
6342,10.886,2.7273,0.1,0.00031052,3103.1,0.00031113,3121.3,-9.9401e-05,36.697,-0.00010429,-0.0032487,0.80075
6343,10.886,2.5455,0.1,0.00031061,3103.9,0.0003112,3121.7,-9.9507e-05,35.767,-0.00010427,-0.0033817,0.80061
6344,10.886,2.3636,0.1,0.00031074,3105.2,0.00031131,3122.3,-9.9664e-05,34.39,-0.00010424,-0.0035717,0.80042
6345,10.886,2.1818,0.1,0.0003109,3106.9,0.00031144,3123,-9.9871e-05,32.588,-0.00010421,-0.0038105,0.80015
6346,10.886,2,0.1,0.00031111,3108.9,0.00031161,3124,-0.00010012,30.388,-0.00010417,-0.0040847,0.79983
6347,10.886,1.8182,0.1,0.00031135,3111.3,0.00031181,3125.2,-0.00010042,27.821,-0.00010412,-0.0043797,0.79943
6348,10.886,1.6364,0.1,0.00031162,3114.1,0.00031204,3126.4,-0.00010075,24.922,-0.00010407,-0.0046813,0.79897
6349,10.886,1.4545,0.1,0.00031192,3117.1,0.00031229,3127.9,-0.00010112,21.73,-0.00010401,-0.0049775,0.79844
6350,10.886,1.2727,0.1,0.00031225,3120.4,0.00031256,3129.5,-0.00010151,18.281,-0.00010395,-0.0052459,0.79785
6351,10.886,1.0909,0.1,0.00031261,3123.9,0.00031285,3131.2,-0.00010194,14.615,-0.00010388,-0.0055077,0.79718
6352,10.886,0.90909,0.1,0.00031298,3127.7,0.00031317,3133.1,-0.00010238,10.767,-0.00010382,-0.0056249,0.79646
6353,10.886,0.72727,0.1,0.00031338,3131.6,0.00031349,3135,-0.00010285,6.7708,-0.00010375,-0.006145,0.79566
6354,10.886,0.54545,0.1,0.00031379,3135.7,0.00031384,3137.1,-0.00010333,2.6529,-0.00010368,-0.004778,0.7948
6355,10.886,0.36364,0.1,0.00031423,3140.1,0.0003142,3139.3,-0.00010362,-0.012106,-0.00010383,-1.6292,0.79387
6356,10.886,0.18182,0.1,0.00031484,3146.3,0.00031472,3142.7,-0.00010355,0.015646,-0.00010449,-7.1008,0.79287
6357,10.701,5.8182,0.1,0.00031997,3197.5,0.00031986,3194.2,-0.00010527,0.01892,-0.00010613,-6.4745,0.76928
6358,10.701,5.6364,0.1,0.00031933,3191.1,0.00031932,3190.8,-0.00010534,-0.009298,-0.00010544,-0.72897,0.77029
6359,10.701,5.4545,0.1,0.00031887,3186.5,0.00031894,3188.5,-0.0001049,3.8743,-0.00010542,-0.0053138,0.77123
6360,10.701,5.2727,0.1,0.00031844,3182.2,0.00031858,3186.3,-0.00010439,8.3166,-0.0001055,-0.0065958,0.77211
6361,10.701,5.0909,0.1,0.00031802,3178,0.00031823,3184.3,-0.00010389,12.642,-0.00010557,-0.0059358,0.77292
6362,10.701,4.9091,0.1,0.00031762,3174,0.00031791,3182.4,-0.00010341,16.821,-0.00010565,-0.0057546,0.77365
6363,10.701,4.7273,0.1,0.00031725,3170.3,0.00031759,3180.6,-0.00010295,20.815,-0.00010572,-0.0054196,0.77432
6364,10.701,4.5455,0.1,0.00031689,3166.7,0.0003173,3179,-0.00010252,24.583,-0.00010579,-0.0050816,0.77493
6365,10.701,4.3636,0.1,0.00031657,3163.5,0.00031704,3177.5,-0.00010212,28.082,-0.00010586,-0.0047127,0.77546
6366,10.701,4.1818,0.1,0.00031628,3160.6,0.0003168,3176.1,-0.00010175,31.267,-0.00010592,-0.0043392,0.77593
6367,10.701,4,0.1,0.00031602,3158,0.00031658,3174.9,-0.00010143,34.094,-0.00010597,-0.0039747,0.77633
6368,10.701,3.8182,0.1,0.0003158,3155.8,0.0003164,3173.9,-0.00010116,36.522,-0.00010602,-0.0036363,0.77666
6369,10.701,3.6364,0.1,0.00031562,3154,0.00031625,3173.1,-0.00010093,38.514,-0.00010606,-0.0033425,0.77693
6370,10.701,3.4545,0.1,0.00031548,3152.6,0.00031614,3172.4,-0.00010076,40.037,-0.00010609,-0.0031084,0.77713
6371,10.701,3.2727,0.1,0.00031539,3151.7,0.00031607,3172,-0.00010064,41.068,-0.00010611,-0.002944,0.77726
6372,10.701,3.0909,0.1,0.00031534,3151.2,0.00031603,3171.8,-0.00010058,41.587,-0.00010612,-0.0028596,0.77733
6373,10.701,2.9091,0.1,0.00031534,3151.2,0.00031603,3171.8,-0.00010058,41.587,-0.00010612,-0.0028594,0.77733
6374,10.701,2.7273,0.1,0.00031539,3151.7,0.00031607,3172,-0.00010064,41.068,-0.00010611,-0.0029442,0.77726
6375,10.701,2.5455,0.1,0.00031548,3152.6,0.00031614,3172.4,-0.00010076,40.037,-0.00010609,-0.0031084,0.77713
6376,10.701,2.3636,0.1,0.00031562,3154,0.00031625,3173.1,-0.00010093,38.514,-0.00010606,-0.003343,0.77693
6377,10.701,2.1818,0.1,0.0003158,3155.8,0.0003164,3173.9,-0.00010116,36.522,-0.00010602,-0.0036366,0.77666
6378,10.701,2,0.1,0.00031602,3158,0.00031658,3174.9,-0.00010143,34.094,-0.00010597,-0.0039747,0.77633
6379,10.701,1.8182,0.1,0.00031628,3160.6,0.0003168,3176.1,-0.00010175,31.267,-0.00010592,-0.0043394,0.77593
6380,10.701,1.6364,0.1,0.00031657,3163.5,0.00031704,3177.5,-0.00010212,28.082,-0.00010586,-0.004713,0.77546
6381,10.701,1.4545,0.1,0.00031689,3166.7,0.0003173,3179,-0.00010252,24.583,-0.00010579,-0.0050825,0.77493
6382,10.701,1.2727,0.1,0.00031725,3170.3,0.00031759,3180.6,-0.00010295,20.815,-0.00010572,-0.0054208,0.77432
6383,10.701,1.0909,0.1,0.00031762,3174,0.00031791,3182.4,-0.00010341,16.821,-0.00010565,-0.0057552,0.77365
6384,10.701,0.90909,0.1,0.00031802,3178,0.00031823,3184.3,-0.00010389,12.642,-0.00010557,-0.0059369,0.77292
6385,10.701,0.72727,0.1,0.00031844,3182.2,0.00031858,3186.3,-0.00010439,8.3167,-0.0001055,-0.0065975,0.77211
6386,10.701,0.54545,0.1,0.00031887,3186.5,0.00031894,3188.5,-0.0001049,3.8744,-0.00010542,-0.0053141,0.77123
6387,10.701,0.36364,0.1,0.00031933,3191.1,0.00031932,3190.8,-0.00010534,-0.0092991,-0.00010544,-0.72895,0.77029
6388,10.701,0.18182,0.1,0.00031997,3197.5,0.00031986,3194.2,-0.00010527,0.01892,-0.00010613,-6.4745,0.76928
6389,10.516,5.8182,0.1,0.00032511,3248.8,0.00032501,3245.9,-0.000107,0.023199,-0.00010777,-5.8307,0.7459
6390,10.516,5.6364,0.1,0.00032446,3242.3,0.00032446,3242.4,-0.00010705,0.24236,-0.00010709,-0.044103,0.74693
6391,10.516,5.4545,0.1,0.00032397,3237.5,0.00032406,3240.1,-0.00010648,5.1486,-0.00010717,-0.006045,0.74789
6392,10.516,5.2727,0.1,0.00032351,3232.9,0.00032368,3237.9,-0.00010593,9.9381,-0.00010725,-0.0072063,0.74877
6393,10.516,5.0909,0.1,0.00032307,3228.5,0.00032332,3235.8,-0.00010539,14.619,-0.00010734,-0.0063687,0.74959
6394,10.516,4.9091,0.1,0.00032265,3224.3,0.00032297,3233.8,-0.00010487,19.158,-0.00010742,-0.0061007,0.75034
6395,10.516,4.7273,0.1,0.00032225,3220.3,0.00032264,3231.9,-0.00010437,23.512,-0.0001075,-0.0056746,0.75102
6396,10.516,4.5455,0.1,0.00032187,3216.5,0.00032233,3230.2,-0.00010391,27.634,-0.00010758,-0.0052494,0.75163
6397,10.516,4.3636,0.1,0.00032153,3213,0.00032205,3228.7,-0.00010347,31.473,-0.00010766,-0.0047921,0.75217
6398,10.516,4.1818,0.1,0.00032121,3209.9,0.00032179,3227.2,-0.00010307,34.978,-0.00010773,-0.0043309,0.75264
6399,10.516,4,0.1,0.00032093,3207.1,0.00032156,3226,-0.00010272,38.097,-0.00010779,-0.0038827,0.75305
6400,10.516,3.8182,0.1,0.0003207,3204.8,0.00032137,3224.9,-0.00010242,40.781,-0.00010784,-0.0034668,0.75338
6401,10.516,3.6364,0.1,0.0003205,3202.8,0.00032121,3224.1,-0.00010217,42.988,-0.00010789,-0.0031063,0.75365
6402,10.516,3.4545,0.1,0.00032035,3201.3,0.00032109,3223.4,-0.00010198,44.677,-0.00010792,-0.002819,0.75386
6403,10.516,3.2727,0.1,0.00032025,3200.3,0.00032101,3223,-0.00010185,45.821,-0.00010795,-0.0026173,0.75399
6404,10.516,3.0909,0.1,0.0003202,3199.8,0.00032097,3222.8,-0.00010178,46.399,-0.00010796,-0.0025135,0.75406
6405,10.516,2.9091,0.1,0.0003202,3199.8,0.00032097,3222.8,-0.00010178,46.399,-0.00010796,-0.0025145,0.75406
6406,10.516,2.7273,0.1,0.00032025,3200.3,0.00032101,3223,-0.00010185,45.821,-0.00010795,-0.0026175,0.75399
6407,10.516,2.5455,0.1,0.00032035,3201.3,0.00032109,3223.4,-0.00010198,44.678,-0.00010792,-0.002819,0.75386
6408,10.516,2.3636,0.1,0.0003205,3202.8,0.00032121,3224.1,-0.00010217,42.988,-0.00010789,-0.0031063,0.75365
6409,10.516,2.1818,0.1,0.0003207,3204.8,0.00032137,3224.9,-0.00010242,40.781,-0.00010784,-0.0034673,0.75338
6410,10.516,2,0.1,0.00032093,3207.1,0.00032157,3226,-0.00010272,38.097,-0.00010779,-0.0038829,0.75305
6411,10.516,1.8182,0.1,0.00032121,3209.9,0.00032179,3227.2,-0.00010307,34.978,-0.00010773,-0.0043311,0.75264
6412,10.516,1.6364,0.1,0.00032153,3213,0.00032205,3228.7,-0.00010347,31.473,-0.00010766,-0.0047929,0.75217
6413,10.516,1.4545,0.1,0.00032187,3216.5,0.00032233,3230.2,-0.00010391,27.634,-0.00010758,-0.0052496,0.75163
6414,10.516,1.2727,0.1,0.00032225,3220.3,0.00032264,3231.9,-0.00010437,23.512,-0.0001075,-0.0056753,0.75102
6415,10.516,1.0909,0.1,0.00032265,3224.3,0.00032297,3233.8,-0.00010487,19.158,-0.00010742,-0.006101,0.75034
6416,10.516,0.90909,0.1,0.00032307,3228.5,0.00032332,3235.8,-0.00010539,14.619,-0.00010734,-0.0063708,0.74959
6417,10.516,0.72727,0.1,0.00032352,3232.9,0.00032368,3237.9,-0.00010593,9.9381,-0.00010725,-0.0072078,0.74877
6418,10.516,0.54545,0.1,0.00032397,3237.5,0.00032406,3240.1,-0.00010648,5.1487,-0.00010717,-0.0060455,0.74789
6419,10.516,0.36364,0.1,0.00032446,3242.3,0.00032446,3242.4,-0.00010705,0.24238,-0.00010709,-0.044101,0.74693
6420,10.516,0.18182,0.1,0.00032511,3248.8,0.00032501,3245.9,-0.000107,0.023199,-0.00010777,-5.8307,0.7459
6421,10.331,5.8182,0.1,0.00033027,3300.4,0.00033018,3297.8,-0.00010873,0.028853,-0.00010942,-5.1722,0.72275
6422,10.331,5.6364,0.1,0.0003296,3293.7,0.00032962,3294.3,-0.00010867,1.1925,-0.00010883,-0.027879,0.72379
6423,10.331,5.4545,0.1,0.00032909,3288.6,0.0003292,3291.9,-0.00010806,6.4718,-0.00010892,-0.0069732,0.72476
6424,10.331,5.2727,0.1,0.00032861,3283.8,0.0003288,3289.6,-0.00010747,11.632,-0.00010902,-0.0080124,0.72566
6425,10.331,5.0909,0.1,0.00032814,3279.1,0.00032842,3287.4,-0.00010689,16.697,-0.00010911,-0.0069782,0.72649
6426,10.331,4.9091,0.1,0.00032769,3274.6,0.00032805,3285.4,-0.00010633,21.628,-0.00010921,-0.006606,0.72724
6427,10.331,4.7273,0.1,0.00032726,3270.4,0.0003277,3283.5,-0.00010579,26.378,-0.0001093,-0.006073,0.72793
6428,10.331,4.5455,0.1,0.00032686,3266.4,0.00032738,3281.7,-0.00010528,30.891,-0.00010939,-0.005545,0.72855
6429,10.331,4.3636,0.1,0.00032649,3262.7,0.00032707,3280.1,-0.0001048,35.11,-0.00010948,-0.0049822,0.7291
6430,10.331,4.1818,0.1,0.00032615,3259.3,0.0003268,3278.6,-0.00010437,38.973,-0.00010956,-0.0044178,0.72958
6431,10.331,4,0.1,0.00032585,3256.3,0.00032656,3277.3,-0.00010398,42.42,-0.00010963,-0.0038688,0.72998
6432,10.331,3.8182,0.1,0.0003256,3253.7,0.00032635,3276.2,-0.00010365,45.395,-0.00010969,-0.0033616,0.73033
6433,10.331,3.6364,0.1,0.00032539,3251.6,0.00032618,3275.3,-0.00010337,47.844,-0.00010974,-0.0029195,0.7306
6434,10.331,3.4545,0.1,0.00032523,3250,0.00032605,3274.6,-0.00010316,49.722,-0.00010978,-0.002569,0.7308
6435,10.331,3.2727,0.1,0.00032512,3249,0.00032596,3274.1,-0.00010302,50.995,-0.00010981,-0.0023228,0.73094
6436,10.331,3.0909,0.1,0.00032506,3248.4,0.00032591,3273.9,-0.00010295,51.638,-0.00010982,-0.0021964,0.73101
6437,10.331,2.9091,0.1,0.00032506,3248.4,0.00032591,3273.9,-0.00010295,51.638,-0.00010982,-0.0021958,0.73101
6438,10.331,2.7273,0.1,0.00032512,3249,0.00032596,3274.1,-0.00010302,50.995,-0.00010981,-0.0023229,0.73094
6439,10.331,2.5455,0.1,0.00032523,3250,0.00032605,3274.6,-0.00010316,49.722,-0.00010978,-0.002569,0.7308
6440,10.331,2.3636,0.1,0.00032539,3251.6,0.00032618,3275.3,-0.00010337,47.844,-0.00010974,-0.0029204,0.7306
6441,10.331,2.1818,0.1,0.0003256,3253.7,0.00032635,3276.2,-0.00010365,45.395,-0.00010969,-0.0033616,0.73033
6442,10.331,2,0.1,0.00032585,3256.3,0.00032656,3277.3,-0.00010398,42.42,-0.00010963,-0.0038692,0.72998
6443,10.331,1.8182,0.1,0.00032615,3259.3,0.0003268,3278.6,-0.00010437,38.973,-0.00010956,-0.0044178,0.72958
6444,10.331,1.6364,0.1,0.00032649,3262.7,0.00032707,3280.1,-0.0001048,35.11,-0.00010948,-0.0049833,0.7291
6445,10.331,1.4545,0.1,0.00032686,3266.4,0.00032738,3281.7,-0.00010528,30.891,-0.00010939,-0.0055456,0.72855
6446,10.331,1.2727,0.1,0.00032726,3270.4,0.0003277,3283.5,-0.00010579,26.378,-0.0001093,-0.0060737,0.72793
6447,10.331,1.0909,0.1,0.00032769,3274.6,0.00032805,3285.4,-0.00010633,21.628,-0.00010921,-0.0066066,0.72724
6448,10.331,0.90909,0.1,0.00032814,3279.1,0.00032842,3287.4,-0.00010689,16.697,-0.00010911,-0.0069804,0.72649
6449,10.331,0.72727,0.1,0.00032861,3283.8,0.0003288,3289.6,-0.00010747,11.632,-0.00010902,-0.0080138,0.72566
6450,10.331,0.54545,0.1,0.00032909,3288.6,0.0003292,3291.9,-0.00010806,6.4719,-0.00010892,-0.0069733,0.72476
6451,10.331,0.36364,0.1,0.0003296,3293.7,0.00032962,3294.3,-0.00010867,1.1925,-0.00010883,-0.027879,0.72379
6452,10.331,0.18182,0.1,0.00033027,3300.4,0.00033018,3297.8,-0.00010873,0.028853,-0.00010942,-5.1722,0.72275
6453,10.147,5.8182,0.1,0.00033544,3352.1,0.00033537,3349.9,-0.00011047,0.036635,-0.00011107,-4.5027,0.69982
6454,10.147,5.6364,0.1,0.00033476,3345.2,0.00033479,3346.3,-0.00011029,2.1841,-0.00011058,-0.02808,0.70088
6455,10.147,5.4545,0.1,0.00033422,3339.9,0.00033435,3343.8,-0.00010964,7.8382,-0.00011068,-0.0080021,0.70186
6456,10.147,5.2727,0.1,0.00033371,3334.8,0.00033394,3341.5,-0.000109,13.393,-0.00011079,-0.0089289,0.70277
6457,10.147,5.0909,0.1,0.00033322,3329.9,0.00033353,3339.3,-0.00010838,18.872,-0.0001109,-0.007687,0.70361
6458,10.147,4.9091,0.1,0.00033274,3325.1,0.00033315,3337.2,-0.00010778,24.231,-0.000111,-0.007198,0.70437
6459,10.147,4.7273,0.1,0.00033229,3320.6,0.00033278,3335.2,-0.00010719,29.416,-0.00011111,-0.0065443,0.70507
6460,10.147,4.5455,0.1,0.00033186,3316.3,0.00033243,3333.4,-0.00010664,34.364,-0.00011121,-0.0058971,0.70569
6461,10.147,4.3636,0.1,0.00033146,3312.3,0.00033211,3331.7,-0.00010612,39.006,-0.00011131,-0.0052133,0.70625
6462,10.147,4.1818,0.1,0.0003311,3308.7,0.00033182,3330.1,-0.00010564,43.272,-0.0001114,-0.0045251,0.70673
6463,10.147,4,0.1,0.00033078,3305.5,0.00033156,3328.8,-0.00010521,47.09,-0.00011148,-0.0038578,0.70715
6464,10.147,3.8182,0.1,0.0003305,3302.8,0.00033133,3327.7,-0.00010485,50.393,-0.00011155,-0.0032404,0.70749
6465,10.147,3.6364,0.1,0.00033028,3300.5,0.00033115,3326.7,-0.00010454,53.118,-0.00011161,-0.0027039,0.70777
6466,10.147,3.4545,0.1,0.0003301,3298.8,0.00033101,3326,-0.00010431,55.211,-0.00011166,-0.0022757,0.70797
6467,10.147,3.2727,0.1,0.00032999,3297.6,0.00033091,3325.5,-0.00010415,56.632,-0.00011169,-0.0019766,0.70811
6468,10.147,3.0909,0.1,0.00032993,3297,0.00033086,3325.3,-0.00010407,57.349,-0.0001117,-0.001822,0.70818
6469,10.147,2.9091,0.1,0.00032993,3297,0.00033086,3325.3,-0.00010407,57.349,-0.0001117,-0.0018221,0.70818
6470,10.147,2.7273,0.1,0.00032999,3297.6,0.00033091,3325.5,-0.00010415,56.632,-0.00011169,-0.0019766,0.70811
6471,10.147,2.5455,0.1,0.0003301,3298.8,0.00033101,3326,-0.00010431,55.211,-0.00011166,-0.0022761,0.70797
6472,10.147,2.3636,0.1,0.00033028,3300.5,0.00033115,3326.7,-0.00010454,53.118,-0.00011161,-0.0027039,0.70777
6473,10.147,2.1818,0.1,0.0003305,3302.8,0.00033133,3327.7,-0.00010485,50.393,-0.00011155,-0.0032409,0.70749
6474,10.147,2,0.1,0.00033078,3305.5,0.00033156,3328.8,-0.00010521,47.09,-0.00011148,-0.0038584,0.70715
6475,10.147,1.8182,0.1,0.0003311,3308.7,0.00033182,3330.1,-0.00010564,43.272,-0.0001114,-0.004526,0.70673
6476,10.147,1.6364,0.1,0.00033146,3312.3,0.00033211,3331.7,-0.00010612,39.006,-0.00011131,-0.0052137,0.70625
6477,10.147,1.4545,0.1,0.00033186,3316.3,0.00033243,3333.4,-0.00010664,34.364,-0.00011121,-0.005898,0.70569
6478,10.147,1.2727,0.1,0.00033229,3320.6,0.00033278,3335.2,-0.00010719,29.416,-0.00011111,-0.0065449,0.70507
6479,10.147,1.0909,0.1,0.00033274,3325.1,0.00033315,3337.2,-0.00010778,24.231,-0.000111,-0.0071985,0.70437
6480,10.147,0.90909,0.1,0.00033322,3329.9,0.00033353,3339.3,-0.00010838,18.872,-0.0001109,-0.0076881,0.70361
6481,10.147,0.72727,0.1,0.00033371,3334.8,0.00033394,3341.5,-0.000109,13.393,-0.00011079,-0.0089303,0.70277
6482,10.147,0.54545,0.1,0.00033422,3339.9,0.00033436,3343.8,-0.00010964,7.8383,-0.00011068,-0.0080027,0.70186
6483,10.147,0.36364,0.1,0.00033476,3345.2,0.00033479,3346.3,-0.00011029,2.1841,-0.00011058,-0.028081,0.70088
6484,10.147,0.18182,0.1,0.00033544,3352.1,0.00033537,3349.9,-0.00011047,0.036634,-0.00011107,-4.5027,0.69982
6485,9.9621,5.8182,0.1,0.00034063,3404,0.00034057,3402.1,-0.00011222,0.047633,-0.00011273,-3.8278,0.67713
6486,9.9621,5.6364,0.1,0.00033993,3396.9,0.00033998,3398.5,-0.00011191,3.1948,-0.00011234,-0.029822,0.67819
6487,9.9621,5.4545,0.1,0.00033937,3391.3,0.00033952,3395.9,-0.00011122,9.2391,-0.00011245,-0.0091589,0.67919
6488,9.9621,5.2727,0.1,0.00033883,3386,0.00033909,3393.6,-0.00011054,15.213,-0.00011257,-0.0099852,0.68011
6489,9.9621,5.0909,0.1,0.00033831,3380.8,0.00033866,3391.3,-0.00010987,21.138,-0.00011269,-0.0085314,0.68095
6490,9.9621,4.9091,0.1,0.00033781,3375.7,0.00033826,3389.1,-0.00010922,26.964,-0.00011281,-0.0079171,0.68173
6491,9.9621,4.7273,0.1,0.00033732,3370.9,0.00033787,3387.1,-0.00010859,32.628,-0.00011293,-0.0071297,0.68243
6492,9.9621,4.5455,0.1,0.00033687,3366.4,0.0003375,3385.2,-0.00010798,38.059,-0.00011305,-0.0063472,0.68306
6493,9.9621,4.3636,0.1,0.00033644,3362.1,0.00033716,3383.5,-0.00010741,43.176,-0.00011316,-0.0055208,0.68362
6494,9.9621,4.1818,0.1,0.00033606,3358.2,0.00033684,3381.9,-0.00010689,47.896,-0.00011326,-0.0046899,0.68411
6495,9.9621,4,0.1,0.00033571,3354.8,0.00033657,3380.5,-0.00010642,52.134,-0.00011336,-0.0038821,0.68453
6496,9.9621,3.8182,0.1,0.00033541,3351.8,0.00033633,3379.4,-0.00010601,55.809,-0.00011344,-0.0031341,0.68488
6497,9.9621,3.6364,0.1,0.00033517,3349.4,0.00033613,3378.4,-0.00010567,58.848,-0.00011351,-0.0024831,0.68516
6498,9.9621,3.4545,0.1,0.00033498,3347.5,0.00033598,3377.6,-0.00010542,61.187,-0.00011356,-0.0019635,0.68537
6499,9.9621,3.2727,0.1,0.00033485,3346.2,0.00033587,3377.1,-0.00010524,62.776,-0.0001136,-0.0016003,0.68551
6500,9.9621,3.0909,0.1,0.00033479,3345.6,0.00033582,3376.9,-0.00010515,63.579,-0.00011361,-0.0014133,0.68558
6501,9.9621,2.9091,0.1,0.00033479,3345.6,0.00033582,3376.9,-0.00010515,63.579,-0.00011361,-0.0014134,0.68558
6502,9.9621,2.7273,0.1,0.00033485,3346.2,0.00033587,3377.1,-0.00010524,62.776,-0.0001136,-0.0016007,0.68551
6503,9.9621,2.5455,0.1,0.00033498,3347.5,0.00033598,3377.6,-0.00010542,61.187,-0.00011356,-0.0019638,0.68537
6504,9.9621,2.3636,0.1,0.00033517,3349.4,0.00033613,3378.4,-0.00010567,58.848,-0.00011351,-0.0024835,0.68516
6505,9.9621,2.1818,0.1,0.00033541,3351.8,0.00033633,3379.4,-0.00010601,55.809,-0.00011344,-0.0031342,0.68488
6506,9.9621,2,0.1,0.00033571,3354.8,0.00033657,3380.5,-0.00010642,52.134,-0.00011336,-0.0038829,0.68453
6507,9.9621,1.8182,0.1,0.00033606,3358.2,0.00033684,3381.9,-0.00010689,47.896,-0.00011326,-0.0046908,0.68411
6508,9.9621,1.6364,0.1,0.00033644,3362.1,0.00033716,3383.5,-0.00010741,43.176,-0.00011316,-0.0055214,0.68362
6509,9.9621,1.4545,0.1,0.00033687,3366.4,0.0003375,3385.2,-0.00010798,38.059,-0.00011305,-0.0063483,0.68306
6510,9.9621,1.2727,0.1,0.00033732,3370.9,0.00033787,3387.1,-0.00010859,32.629,-0.00011293,-0.0071298,0.68243
6511,9.9621,1.0909,0.1,0.00033781,3375.7,0.00033826,3389.1,-0.00010922,26.964,-0.00011281,-0.0079174,0.68173
6512,9.9621,0.90909,0.1,0.00033831,3380.8,0.00033866,3391.3,-0.00010987,21.138,-0.00011269,-0.008532,0.68095
6513,9.9621,0.72727,0.1,0.00033883,3386,0.00033909,3393.6,-0.00011054,15.213,-0.00011257,-0.0099865,0.68011
6514,9.9621,0.54545,0.1,0.00033937,3391.3,0.00033952,3395.9,-0.00011122,9.2392,-0.00011245,-0.0091597,0.67919
6515,9.9621,0.36364,0.1,0.00033993,3396.9,0.00033998,3398.5,-0.00011191,3.1948,-0.00011234,-0.029823,0.67819
6516,9.9621,0.18182,0.1,0.00034063,3404,0.00034057,3402.1,-0.00011222,0.047632,-0.00011273,-3.8278,0.67713
6517,9.7774,5.8182,0.1,0.00034583,3456,0.00034578,3454.4,-0.00011396,0.063745,-0.00011439,-3.1556,0.65466
6518,9.7774,5.6364,0.1,0.00034511,3448.7,0.00034518,3450.8,-0.00011353,4.2138,-0.0001141,-0.032155,0.65574
6519,9.7774,5.4545,0.1,0.00034453,3442.9,0.00034471,3448.2,-0.0001128,10.663,-0.00011422,-0.010518,0.65674
6520,9.7774,5.2727,0.1,0.00034396,3437.3,0.00034425,3445.8,-0.00011208,17.08,-0.00011435,-0.011257,0.65767
6521,9.7774,5.0909,0.1,0.00034341,3431.8,0.00034381,3443.5,-0.00011136,23.485,-0.00011449,-0.0095923,0.65853
6522,9.7774,4.9091,0.1,0.00034288,3426.5,0.00034338,3441.3,-0.00011066,29.819,-0.00011463,-0.008846,0.65932
6523,9.7774,4.7273,0.1,0.00034237,3421.4,0.00034297,3439.2,-0.00010997,36.014,-0.00011476,-0.0079126,0.66003
6524,9.7774,4.5455,0.1,0.00034189,3416.5,0.00034258,3437.3,-0.00010931,41.983,-0.0001149,-0.0069773,0.66067
6525,9.7774,4.3636,0.1,0.00034143,3412,0.00034222,3435.5,-0.00010868,47.632,-0.00011502,-0.0059869,0.66123
6526,9.7774,4.1818,0.1,0.00034102,3407.8,0.00034188,3433.9,-0.00010811,52.864,-0.00011514,-0.004988,0.66173
6527,9.7774,4,0.1,0.00034064,3404.1,0.00034159,3432.5,-0.00010759,57.578,-0.00011525,-0.0040143,0.66215
6528,9.7774,3.8182,0.1,0.00034032,3400.9,0.00034133,3431.3,-0.00010714,61.679,-0.00011535,-0.0031107,0.6625
6529,9.7774,3.6364,0.1,0.00034006,3398.2,0.00034112,3430.3,-0.00010677,65.077,-0.00011543,-0.0023242,0.66278
6530,9.7774,3.4545,0.1,0.00033985,3396.2,0.00034096,3429.5,-0.00010648,67.698,-0.00011549,-0.0016944,0.66299
6531,9.7774,3.2727,0.1,0.00033972,3394.8,0.00034085,3429,-0.00010628,69.48,-0.00011553,-0.0012541,0.66313
6532,9.7774,3.0909,0.1,0.00033965,3394.1,0.00034079,3428.8,-0.00010618,70.382,-0.00011555,-0.0010281,0.66321
6533,9.7774,2.9091,0.1,0.00033965,3394.1,0.00034079,3428.8,-0.00010618,70.382,-0.00011555,-0.0010278,0.66321
6534,9.7774,2.7273,0.1,0.00033972,3394.8,0.00034085,3429,-0.00010628,69.48,-0.00011553,-0.0012545,0.66313
6535,9.7774,2.5455,0.1,0.00033985,3396.2,0.00034096,3429.5,-0.00010648,67.698,-0.00011549,-0.0016951,0.66299
6536,9.7774,2.3636,0.1,0.00034006,3398.2,0.00034112,3430.3,-0.00010677,65.077,-0.00011543,-0.0023239,0.66278
6537,9.7774,2.1818,0.1,0.00034032,3400.9,0.00034133,3431.3,-0.00010714,61.679,-0.00011535,-0.0031113,0.6625
6538,9.7774,2,0.1,0.00034064,3404.1,0.00034159,3432.5,-0.00010759,57.578,-0.00011525,-0.0040145,0.66215
6539,9.7774,1.8182,0.1,0.00034102,3407.8,0.00034188,3433.9,-0.00010811,52.864,-0.00011514,-0.0049879,0.66173
6540,9.7774,1.6364,0.1,0.00034143,3412,0.00034222,3435.5,-0.00010868,47.632,-0.00011502,-0.0059879,0.66123
6541,9.7774,1.4545,0.1,0.00034189,3416.5,0.00034258,3437.3,-0.00010931,41.983,-0.0001149,-0.0069776,0.66067
6542,9.7774,1.2727,0.1,0.00034237,3421.4,0.00034297,3439.2,-0.00010997,36.014,-0.00011476,-0.007913,0.66003
6543,9.7774,1.0909,0.1,0.00034288,3426.5,0.00034338,3441.3,-0.00011066,29.82,-0.00011463,-0.0088468,0.65932
6544,9.7774,0.90909,0.1,0.00034341,3431.8,0.00034381,3443.5,-0.00011136,23.485,-0.00011449,-0.0095937,0.65853
6545,9.7774,0.72727,0.1,0.00034396,3437.3,0.00034425,3445.8,-0.00011208,17.081,-0.00011435,-0.011258,0.65767
6546,9.7774,0.54545,0.1,0.00034453,3442.9,0.00034471,3448.2,-0.0001128,10.663,-0.00011422,-0.010518,0.65674
6547,9.7774,0.36364,0.1,0.00034511,3448.7,0.00034518,3450.8,-0.00011353,4.2139,-0.0001141,-0.032156,0.65574
6548,9.7774,0.18182,0.1,0.00034583,3456,0.00034578,3454.4,-0.00011396,0.063745,-0.00011439,-3.1556,0.65466
6549,9.5927,5.8182,0.1,0.00035104,3508,0.000351,3506.8,-0.00011571,0.088685,-0.00011606,-2.4976,0.63243
6550,9.5927,5.6364,0.1,0.0003503,3500.6,0.00035039,3503.2,-0.00011516,5.228,-0.00011586,-0.0348,0.63352
6551,9.5927,5.4545,0.1,0.00034969,3494.5,0.0003499,3500.5,-0.00011439,12.093,-0.000116,-0.012069,0.63454
6552,9.5927,5.2727,0.1,0.00034911,3488.6,0.00034942,3498.1,-0.00011362,18.978,-0.00011614,-0.012736,0.63548
6553,9.5927,5.0909,0.1,0.00034853,3482.9,0.00034896,3495.8,-0.00011285,25.897,-0.0001163,-0.01087,0.63634
6554,9.5927,4.9091,0.1,0.00034797,3477.3,0.00034852,3493.6,-0.00011209,32.788,-0.00011645,-0.0099886,0.63714
6555,9.5927,4.7273,0.1,0.00034743,3471.9,0.00034809,3491.5,-0.00011134,39.567,-0.00011661,-0.0088962,0.63786
6556,9.5927,4.5455,0.1,0.00034691,3466.7,0.00034768,3489.6,-0.00011062,46.137,-0.00011676,-0.0077874,0.6385
6557,9.5927,4.3636,0.1,0.00034643,3461.9,0.00034729,3487.8,-0.00010993,52.386,-0.00011691,-0.0066087,0.63907
6558,9.5927,4.1818,0.1,0.00034598,3457.5,0.00034694,3486.2,-0.0001093,58.199,-0.00011705,-0.0054116,0.63957
6559,9.5927,4,0.1,0.00034558,3453.5,0.00034662,3484.8,-0.00010873,63.455,-0.00011717,-0.004242,0.64
6560,9.5927,3.8182,0.1,0.00034524,3450,0.00034635,3483.5,-0.00010823,68.041,-0.00011728,-0.0031536,0.64036
6561,9.5927,3.6364,0.1,0.00034495,3447.1,0.00034612,3482.5,-0.00010781,71.851,-0.00011738,-0.0022039,0.64064
6562,9.5927,3.4545,0.1,0.00034473,3444.9,0.00034594,3481.7,-0.00010749,74.795,-0.00011745,-0.0014435,0.64085
6563,9.5927,3.2727,0.1,0.00034458,3443.5,0.00034583,3481.2,-0.00010727,76.799,-0.0001175,-0.00091086,0.64099
6564,9.5927,3.0909,0.1,0.00034451,3442.7,0.00034577,3480.9,-0.00010716,77.815,-0.00011752,-0.00063643,0.64107
6565,9.5927,2.9091,0.1,0.00034451,3442.7,0.00034577,3480.9,-0.00010716,77.815,-0.00011752,-0.00063673,0.64107
6566,9.5927,2.7273,0.1,0.00034458,3443.5,0.00034583,3481.2,-0.00010727,76.799,-0.0001175,-0.00091092,0.64099
6567,9.5927,2.5455,0.1,0.00034473,3444.9,0.00034594,3481.7,-0.00010749,74.795,-0.00011745,-0.0014434,0.64085
6568,9.5927,2.3636,0.1,0.00034495,3447.1,0.00034612,3482.5,-0.00010781,71.851,-0.00011738,-0.0022042,0.64064
6569,9.5927,2.1818,0.1,0.00034524,3450,0.00034635,3483.5,-0.00010823,68.041,-0.00011728,-0.0031539,0.64036
6570,9.5927,2,0.1,0.00034558,3453.5,0.00034662,3484.8,-0.00010873,63.455,-0.00011717,-0.0042429,0.64
6571,9.5927,1.8182,0.1,0.00034598,3457.5,0.00034694,3486.2,-0.0001093,58.199,-0.00011705,-0.0054122,0.63957
6572,9.5927,1.6364,0.1,0.00034643,3461.9,0.00034729,3487.8,-0.00010993,52.386,-0.00011691,-0.0066088,0.63907
6573,9.5927,1.4545,0.1,0.00034691,3466.7,0.00034768,3489.6,-0.00011062,46.137,-0.00011676,-0.0077881,0.6385
6574,9.5927,1.2727,0.1,0.00034743,3471.9,0.00034809,3491.5,-0.00011134,39.567,-0.00011661,-0.0088969,0.63786
6575,9.5927,1.0909,0.1,0.00034797,3477.3,0.00034852,3493.6,-0.00011209,32.788,-0.00011645,-0.0099887,0.63714
6576,9.5927,0.90909,0.1,0.00034853,3482.9,0.00034896,3495.8,-0.00011285,25.897,-0.0001163,-0.010872,0.63634
6577,9.5927,0.72727,0.1,0.00034911,3488.6,0.00034942,3498.1,-0.00011362,18.978,-0.00011614,-0.012738,0.63548
6578,9.5927,0.54545,0.1,0.00034969,3494.5,0.0003499,3500.5,-0.00011439,12.093,-0.000116,-0.012069,0.63454
6579,9.5927,0.36364,0.1,0.0003503,3500.6,0.00035039,3503.2,-0.00011516,5.228,-0.00011586,-0.034801,0.63352
6580,9.5927,0.18182,0.1,0.00035104,3508,0.000351,3506.8,-0.00011571,0.088685,-0.00011606,-2.4976,0.63243
6581,9.408,5.8182,0.1,0.00035625,3560.1,0.00035622,3559.2,-0.00011746,0.12994,-0.00011773,-1.8714,0.61043
6582,9.408,5.6364,0.1,0.00035549,3552.5,0.0003556,3555.6,-0.00011679,6.2204,-0.00011762,-0.037651,0.61154
6583,9.408,5.4545,0.1,0.00035487,3546.2,0.00035509,3552.9,-0.00011598,13.509,-0.00011778,-0.013837,0.61257
6584,9.408,5.2727,0.1,0.00035426,3540.1,0.00035461,3550.5,-0.00011516,20.884,-0.00011794,-0.014453,0.61352
6585,9.408,5.0909,0.1,0.00035366,3534.1,0.00035413,3548.2,-0.00011433,28.356,-0.00011811,-0.0124,0.61439
6586,9.408,4.9091,0.1,0.00035307,3528.2,0.00035366,3546,-0.00011351,35.854,-0.00011828,-0.011381,0.61519
6587,9.408,4.7273,0.1,0.0003525,3522.5,0.00035321,3544,-0.0001127,43.281,-0.00011846,-0.010118,0.61592
6588,9.408,4.5455,0.1,0.00035195,3517.1,0.00035278,3542.1,-0.00011191,50.523,-0.00011864,-0.0088142,0.61657
6589,9.408,4.3636,0.1,0.00035144,3511.9,0.00035238,3540.3,-0.00011116,57.448,-0.00011881,-0.0074163,0.61715
6590,9.408,4.1818,0.1,0.00035096,3507.2,0.000352,3538.7,-0.00011046,63.92,-0.00011897,-0.0059879,0.61765
6591,9.408,4,0.1,0.00035053,3502.9,0.00035167,3537.3,-0.00010983,69.795,-0.00011912,-0.0045851,0.61809
6592,9.408,3.8182,0.1,0.00035016,3499.2,0.00035137,3536,-0.00010927,74.937,-0.00011925,-0.0032762,0.61844
6593,9.408,3.6364,0.1,0.00034985,3496.1,0.00035113,3535,-0.00010881,79.22,-0.00011935,-0.0021313,0.61873
6594,9.408,3.4545,0.1,0.00034961,3493.7,0.00035094,3534.3,-0.00010845,82.536,-0.00011944,-0.0012126,0.61895
6595,9.408,3.2727,0.1,0.00034945,3492.1,0.00035082,3533.7,-0.00010821,84.797,-0.00011949,-0.00056915,0.61909
6596,9.408,3.0909,0.1,0.00034937,3491.3,0.00035075,3533.5,-0.00010808,85.943,-0.00011952,-0.00023829,0.61916
6597,9.408,2.9091,0.1,0.00034937,3491.3,0.00035075,3533.5,-0.00010808,85.943,-0.00011952,-0.00023758,0.61916
6598,9.408,2.7273,0.1,0.00034945,3492.1,0.00035082,3533.7,-0.00010821,84.797,-0.00011949,-0.00056945,0.61909
6599,9.408,2.5455,0.1,0.00034961,3493.7,0.00035094,3534.3,-0.00010845,82.536,-0.00011944,-0.0012131,0.61895
6600,9.408,2.3636,0.1,0.00034985,3496.1,0.00035113,3535,-0.00010881,79.22,-0.00011935,-0.0021313,0.61873
6601,9.408,2.1818,0.1,0.00035016,3499.2,0.00035137,3536,-0.00010927,74.937,-0.00011925,-0.0032765,0.61844
6602,9.408,2,0.1,0.00035053,3502.9,0.00035167,3537.3,-0.00010983,69.795,-0.00011912,-0.0045855,0.61809
6603,9.408,1.8182,0.1,0.00035096,3507.2,0.000352,3538.7,-0.00011046,63.92,-0.00011897,-0.0059882,0.61765
6604,9.408,1.6364,0.1,0.00035144,3511.9,0.00035238,3540.3,-0.00011116,57.449,-0.00011881,-0.0074172,0.61715
6605,9.408,1.4545,0.1,0.00035195,3517.1,0.00035278,3542.1,-0.00011191,50.523,-0.00011864,-0.0088149,0.61657
6606,9.408,1.2727,0.1,0.0003525,3522.5,0.00035321,3544,-0.0001127,43.281,-0.00011846,-0.010119,0.61592
6607,9.408,1.0909,0.1,0.00035307,3528.2,0.00035366,3546,-0.00011351,35.854,-0.00011828,-0.011382,0.61519
6608,9.408,0.90909,0.1,0.00035366,3534.1,0.00035413,3548.2,-0.00011433,28.356,-0.00011811,-0.012402,0.61439
6609,9.408,0.72727,0.1,0.00035426,3540.1,0.00035461,3550.5,-0.00011516,20.884,-0.00011794,-0.014454,0.61352
6610,9.408,0.54545,0.1,0.00035487,3546.2,0.00035509,3552.9,-0.00011598,13.509,-0.00011778,-0.013837,0.61257
6611,9.408,0.36364,0.1,0.00035549,3552.5,0.0003556,3555.6,-0.00011679,6.2204,-0.00011762,-0.037651,0.61154
6612,9.408,0.18182,0.1,0.00035625,3560.1,0.00035622,3559.2,-0.00011746,0.12994,-0.00011773,-1.8713,0.61043
6613,9.2232,5.8182,0.1,0.00036146,3612.1,0.00036144,3611.5,-0.0001192,0.20351,-0.0001194,-1.3057,0.58868
6614,9.2232,5.6364,0.1,0.00036069,3604.4,0.00036081,3608,-0.00011843,7.1694,-0.00011939,-0.040676,0.5898
6615,9.2232,5.4545,0.1,0.00036004,3597.9,0.00036029,3605.4,-0.00011757,14.884,-0.00011955,-0.015886,0.59084
6616,9.2232,5.2727,0.1,0.00035941,3591.6,0.00035979,3603,-0.0001167,22.77,-0.00011973,-0.016474,0.5918
6617,9.2232,5.0909,0.1,0.00035879,3585.4,0.0003593,3600.7,-0.00011582,30.834,-0.00011993,-0.01426,0.59269
6618,9.2232,4.9091,0.1,0.00035817,3579.3,0.00035882,3598.6,-0.00011493,38.995,-0.00012012,-0.013106,0.59349
6619,9.2232,4.7273,0.1,0.00035758,3573.3,0.00035835,3596.6,-0.00011405,47.14,-0.00012033,-0.011659,0.59423
6620,9.2232,4.5455,0.1,0.000357,3567.5,0.0003579,3594.8,-0.00011319,55.135,-0.00012053,-0.010134,0.59489
6621,9.2232,4.3636,0.1,0.00035645,3562.1,0.00035748,3593.1,-0.00011237,62.826,-0.00012073,-0.008482,0.59547
6622,9.2232,4.1818,0.1,0.00035595,3557,0.00035709,3591.5,-0.00011159,70.047,-0.00012092,-0.0067795,0.59598
6623,9.2232,4,0.1,0.00035549,3552.4,0.00035673,3590.1,-0.00011089,76.63,-0.00012109,-0.0050983,0.59641
6624,9.2232,3.8182,0.1,0.00035509,3548.4,0.00035642,3588.9,-0.00011027,82.411,-0.00012124,-0.0035251,0.59677
6625,9.2232,3.6364,0.1,0.00035476,3545.1,0.00035616,3587.9,-0.00010975,87.239,-0.00012136,-0.0021453,0.59706
6626,9.2232,3.4545,0.1,0.0003545,3542.6,0.00035596,3587.2,-0.00010935,90.984,-0.00012146,-0.001037,0.59728
6627,9.2232,3.2727,0.1,0.00035433,3540.8,0.00035583,3586.7,-0.00010908,93.542,-0.00012153,-0.00025964,0.59742
6628,9.2232,3.0909,0.1,0.00035424,3539.9,0.00035576,3586.4,-0.00010894,94.839,-0.00012156,0.00014029,0.5975
6629,9.2232,2.9091,0.1,0.00035424,3539.9,0.00035576,3586.4,-0.00010894,94.839,-0.00012156,0.00014065,0.5975
6630,9.2232,2.7273,0.1,0.00035433,3540.8,0.00035583,3586.7,-0.00010908,93.542,-0.00012153,-0.00026054,0.59742
6631,9.2232,2.5455,0.1,0.0003545,3542.6,0.00035596,3587.2,-0.00010935,90.984,-0.00012146,-0.001037,0.59728
6632,9.2232,2.3636,0.1,0.00035476,3545.1,0.00035616,3587.9,-0.00010975,87.239,-0.00012136,-0.0021456,0.59706
6633,9.2232,2.1818,0.1,0.00035509,3548.4,0.00035642,3588.9,-0.00011027,82.411,-0.00012124,-0.0035256,0.59677
6634,9.2232,2,0.1,0.00035549,3552.4,0.00035673,3590.1,-0.00011089,76.63,-0.00012109,-0.005099,0.59641
6635,9.2232,1.8182,0.1,0.00035595,3557,0.00035709,3591.5,-0.00011159,70.047,-0.00012092,-0.0067792,0.59598
6636,9.2232,1.6364,0.1,0.00035645,3562.1,0.00035748,3593.1,-0.00011237,62.826,-0.00012073,-0.0084823,0.59547
6637,9.2232,1.4545,0.1,0.000357,3567.5,0.00035791,3594.8,-0.00011319,55.135,-0.00012053,-0.010134,0.59489
6638,9.2232,1.2727,0.1,0.00035758,3573.3,0.00035835,3596.6,-0.00011405,47.14,-0.00012033,-0.011659,0.59423
6639,9.2232,1.0909,0.1,0.00035817,3579.3,0.00035882,3598.6,-0.00011493,38.995,-0.00012012,-0.013107,0.59349
6640,9.2232,0.90909,0.1,0.00035879,3585.4,0.0003593,3600.7,-0.00011582,30.834,-0.00011993,-0.014261,0.59269
6641,9.2232,0.72727,0.1,0.00035941,3591.6,0.00035979,3603,-0.0001167,22.77,-0.00011973,-0.016475,0.5918
6642,9.2232,0.54545,0.1,0.00036004,3597.9,0.00036029,3605.4,-0.00011757,14.884,-0.00011955,-0.015886,0.59084
6643,9.2232,0.36364,0.1,0.00036069,3604.4,0.00036081,3608,-0.00011843,7.1694,-0.00011939,-0.040677,0.5898
6644,9.2232,0.18182,0.1,0.00036146,3612.1,0.00036144,3611.5,-0.0001192,0.20351,-0.0001194,-1.3056,0.58868
6645,9.0385,5.8182,0.1,0.00036665,3664,0.00036664,3663.7,-0.00012092,0.34044,-0.00012108,-0.84751,0.56718
6646,9.0385,5.6364,0.1,0.00036587,3656.2,0.00036601,3660.2,-0.00012006,8.0481,-0.00012114,-0.043851,0.56831
6647,9.0385,5.4545,0.1,0.00036522,3649.6,0.00036549,3657.7,-0.00011917,16.183,-0.00012132,-0.018281,0.56936
6648,9.0385,5.2727,0.1,0.00036457,3643.2,0.00036498,3655.4,-0.00011825,24.6,-0.00012153,-0.018872,0.57033
6649,9.0385,5.0909,0.1,0.00036392,3636.7,0.00036448,3653.3,-0.00011731,33.297,-0.00012174,-0.016535,0.57122
6650,9.0385,4.9091,0.1,0.00036329,3630.4,0.00036399,3651.3,-0.00011635,42.181,-0.00012197,-0.01525,0.57204
6651,9.0385,4.7273,0.1,0.00036266,3624.1,0.00036351,3649.4,-0.0001154,51.124,-0.0001222,-0.013606,0.57278
6652,9.0385,4.5455,0.1,0.00036206,3618.1,0.00036304,3647.7,-0.00011446,59.966,-0.00012244,-0.011828,0.57344
6653,9.0385,4.3636,0.1,0.00036148,3612.3,0.0003626,3646.1,-0.00011355,68.523,-0.00012267,-0.0098784,0.57403
6654,9.0385,4.1818,0.1,0.00036094,3607,0.00036219,3644.6,-0.00011269,76.599,-0.00012289,-0.0078498,0.57454
6655,9.0385,4,0.1,0.00036046,3602.1,0.00036181,3643.3,-0.00011191,83.993,-0.00012309,-0.0058366,0.57498
6656,9.0385,3.8182,0.1,0.00036003,3597.8,0.00036148,3642.2,-0.00011122,90.509,-0.00012327,-0.0039452,0.57535
6657,9.0385,3.6364,0.1,0.00035967,3594.3,0.00036121,3641.3,-0.00011064,95.966,-0.00012341,-0.0022825,0.57564
6658,9.0385,3.4545,0.1,0.0003594,3591.5,0.000361,3640.6,-0.00011019,100.21,-0.00012353,-0.00094402,0.57586
6659,9.0385,3.2727,0.1,0.00035921,3589.6,0.00036086,3640.1,-0.00010989,103.11,-0.00012361,-4.854e-06,0.576
6660,9.0385,3.0909,0.1,0.00035912,3588.7,0.00036078,3639.8,-0.00010973,104.58,-0.00012365,0.00047883,0.57607
6661,9.0385,2.9091,0.1,0.00035912,3588.7,0.00036078,3639.8,-0.00010973,104.58,-0.00012365,0.00047877,0.57607
6662,9.0385,2.7273,0.1,0.00035921,3589.6,0.00036086,3640.1,-0.00010989,103.11,-0.00012361,-4.8538e-06,0.576
6663,9.0385,2.5455,0.1,0.0003594,3591.5,0.000361,3640.6,-0.00011019,100.21,-0.00012353,-0.0009442,0.57586
6664,9.0385,2.3636,0.1,0.00035967,3594.3,0.00036121,3641.3,-0.00011064,95.966,-0.00012341,-0.0022827,0.57564
6665,9.0385,2.1818,0.1,0.00036003,3597.8,0.00036148,3642.2,-0.00011122,90.509,-0.00012327,-0.0039458,0.57535
6666,9.0385,2,0.1,0.00036046,3602.1,0.00036181,3643.3,-0.00011191,83.993,-0.00012309,-0.0058369,0.57498
6667,9.0385,1.8182,0.1,0.00036094,3607,0.00036219,3644.6,-0.00011269,76.599,-0.00012289,-0.0078504,0.57454
6668,9.0385,1.6364,0.1,0.00036148,3612.3,0.0003626,3646.1,-0.00011355,68.523,-0.00012267,-0.0098783,0.57403
6669,9.0385,1.4545,0.1,0.00036206,3618.1,0.00036304,3647.7,-0.00011446,59.966,-0.00012244,-0.011829,0.57344
6670,9.0385,1.2727,0.1,0.00036266,3624.1,0.00036351,3649.4,-0.0001154,51.124,-0.0001222,-0.013607,0.57278
6671,9.0385,1.0909,0.1,0.00036329,3630.4,0.00036399,3651.3,-0.00011635,42.181,-0.00012197,-0.015251,0.57204
6672,9.0385,0.90909,0.1,0.00036392,3636.7,0.00036448,3653.3,-0.00011731,33.297,-0.00012174,-0.016537,0.57122
6673,9.0385,0.72727,0.1,0.00036457,3643.2,0.00036498,3655.4,-0.00011825,24.6,-0.00012153,-0.018874,0.57033
6674,9.0385,0.54545,0.1,0.00036522,3649.6,0.00036549,3657.7,-0.00011917,16.183,-0.00012132,-0.018282,0.56936
6675,9.0385,0.36364,0.1,0.00036587,3656.2,0.00036601,3660.2,-0.00012006,8.0481,-0.00012114,-0.043852,0.56831
6676,9.0385,0.18182,0.1,0.00036665,3664,0.00036664,3663.7,-0.00012092,0.34044,-0.00012108,-0.84749,0.56718
6677,8.8538,5.8182,0.1,0.00037182,3715.6,0.00037182,3715.6,-0.00012262,0.56957,-0.00012277,-0.54546,0.54592
6678,8.8538,5.6364,0.1,0.00037104,3707.9,0.00037119,3712.2,-0.0001217,8.823,-0.00012288,-0.047164,0.54706
6679,8.8538,5.4545,0.1,0.00037038,3701.2,0.00037067,3709.9,-0.00012077,17.366,-0.00012309,-0.021113,0.54812
6680,8.8538,5.2727,0.1,0.00036972,3694.7,0.00037016,3707.7,-0.0001198,26.326,-0.00012331,-0.021747,0.5491
6681,8.8538,5.0909,0.1,0.00036906,3688.1,0.00036966,3705.8,-0.0001188,35.698,-0.00012356,-0.019335,0.55001
6682,8.8538,4.9091,0.1,0.00036841,3681.5,0.00036916,3704,-0.00011778,45.375,-0.00012382,-0.017928,0.55083
6683,8.8538,4.7273,0.1,0.00036776,3675.1,0.00036867,3702.4,-0.00011674,55.205,-0.00012409,-0.016069,0.55158
6684,8.8538,4.5455,0.1,0.00036713,3668.8,0.00036819,3700.8,-0.00011571,64.999,-0.00012436,-0.014001,0.55225
6685,8.8538,4.3636,0.1,0.00036653,3662.7,0.00036774,3699.4,-0.00011471,74.54,-0.00012463,-0.011698,0.55284
6686,8.8538,4.1818,0.1,0.00036596,3657.1,0.00036731,3698.1,-0.00011376,83.593,-0.00012488,-0.0092807,0.55336
6687,8.8538,4,0.1,0.00036544,3651.9,0.00036692,3697,-0.00011289,91.919,-0.00012512,-0.0068667,0.5538
6688,8.8538,3.8182,0.1,0.00036499,3647.4,0.00036658,3696,-0.00011212,99.282,-0.00012533,-0.004591,0.55417
6689,8.8538,3.6364,0.1,0.00036461,3643.6,0.00036629,3695.2,-0.00011147,105.47,-0.00012551,-0.0025852,0.55446
6690,8.8538,3.4545,0.1,0.00036432,3640.6,0.00036607,3694.5,-0.00011097,110.28,-0.00012565,-0.000968,0.55468
6691,8.8538,3.2727,0.1,0.00036412,3638.6,0.00036591,3694.1,-0.00011062,113.58,-0.00012574,0.00016723,0.55482
6692,8.8538,3.0909,0.1,0.00036401,3637.6,0.00036584,3693.9,-0.00011045,115.26,-0.00012579,0.00075277,0.5549
6693,8.8538,2.9091,0.1,0.00036401,3637.6,0.00036584,3693.9,-0.00011045,115.26,-0.00012579,0.00075265,0.5549
6694,8.8538,2.7273,0.1,0.00036412,3638.6,0.00036591,3694.1,-0.00011062,113.58,-0.00012574,0.00016729,0.55482
6695,8.8538,2.5455,0.1,0.00036432,3640.6,0.00036607,3694.5,-0.00011097,110.28,-0.00012565,-0.00096788,0.55468
6696,8.8538,2.3636,0.1,0.00036461,3643.6,0.00036629,3695.2,-0.00011147,105.47,-0.00012551,-0.0025852,0.55446
6697,8.8538,2.1818,0.1,0.00036499,3647.4,0.00036658,3696,-0.00011212,99.282,-0.00012533,-0.0045912,0.55417
6698,8.8538,2,0.1,0.00036544,3651.9,0.00036692,3697,-0.00011289,91.919,-0.00012512,-0.0068668,0.5538
6699,8.8538,1.8182,0.1,0.00036596,3657.1,0.00036731,3698.1,-0.00011376,83.593,-0.00012488,-0.0092814,0.55336
6700,8.8538,1.6364,0.1,0.00036653,3662.7,0.00036774,3699.4,-0.00011471,74.54,-0.00012463,-0.011699,0.55284
6701,8.8538,1.4545,0.1,0.00036713,3668.8,0.00036819,3700.8,-0.00011571,64.999,-0.00012436,-0.014002,0.55225
6702,8.8538,1.2727,0.1,0.00036776,3675.1,0.00036867,3702.4,-0.00011674,55.205,-0.00012409,-0.01607,0.55158
6703,8.8538,1.0909,0.1,0.00036841,3681.5,0.00036916,3704,-0.00011778,45.375,-0.00012382,-0.017928,0.55083
6704,8.8538,0.90909,0.1,0.00036906,3688.1,0.00036966,3705.8,-0.0001188,35.698,-0.00012356,-0.019337,0.55001
6705,8.8538,0.72727,0.1,0.00036972,3694.7,0.00037016,3707.7,-0.0001198,26.326,-0.00012331,-0.021748,0.5491
6706,8.8538,0.54545,0.1,0.00037038,3701.2,0.00037067,3709.9,-0.00012077,17.366,-0.00012309,-0.021113,0.54812
6707,8.8538,0.36364,0.1,0.00037104,3707.9,0.00037119,3712.2,-0.0001217,8.823,-0.00012288,-0.047164,0.54706
6708,8.8538,0.18182,0.1,0.00037182,3715.6,0.00037182,3715.6,-0.00012262,0.56958,-0.00012277,-0.54545,0.54592
6709,8.6691,5.8182,0.1,0.00037694,3766.8,0.00037695,3767.1,-0.0001243,0.8545,-0.00012447,-0.38723,0.52492
6710,8.6691,5.6364,0.1,0.00037618,3759.2,0.00037634,3763.9,-0.00012335,9.4526,-0.00012461,-0.050633,0.52607
6711,8.6691,5.4545,0.1,0.00037552,3752.6,0.00037583,3761.7,-0.00012238,18.377,-0.00012483,-0.024512,0.52714
6712,8.6691,5.2727,0.1,0.00037486,3746,0.00037533,3759.9,-0.00012137,27.892,-0.00012509,-0.02524,0.52813
6713,8.6691,5.0909,0.1,0.0003742,3739.4,0.00037483,3758.2,-0.00012031,37.983,-0.00012536,-0.022822,0.52904
6714,8.6691,4.9091,0.1,0.00037353,3732.7,0.00037433,3756.8,-0.0001192,48.526,-0.00012566,-0.0213,0.52987
6715,8.6691,4.7273,0.1,0.00037287,3726.1,0.00037384,3755.4,-0.00011808,59.344,-0.00012598,-0.019206,0.53063
6716,8.6691,4.5455,0.1,0.00037222,3719.6,0.00037336,3754.2,-0.00011695,70.211,-0.00012629,-0.016797,0.5313
6717,8.6691,4.3636,0.1,0.00037159,3713.3,0.0003729,3753.1,-0.00011584,80.871,-0.00012661,-0.014073,0.5319
6718,8.6691,4.1818,0.1,0.00037099,3707.4,0.00037246,3752.1,-0.00011479,91.043,-0.00012691,-0.011185,0.53242
6719,8.6691,4,0.1,0.00037045,3702,0.00037206,3751.2,-0.00011382,100.44,-0.00012719,-0.0082842,0.53287
6720,8.6691,3.8182,0.1,0.00036997,3697.2,0.0003717,3750.4,-0.00011296,108.78,-0.00012744,-0.0055408,0.53324
6721,8.6691,3.6364,0.1,0.00036957,3693.2,0.00037141,3749.7,-0.00011224,115.8,-0.00012765,-0.0031181,0.53353
6722,8.6691,3.4545,0.1,0.00036926,3690,0.00037117,3749.2,-0.00011167,121.29,-0.00012781,-0.0011619,0.53375
6723,8.6691,3.2727,0.1,0.00036905,3687.9,0.00037101,3748.8,-0.00011128,125.05,-0.00012793,0.00021249,0.5339
6724,8.6691,3.0909,0.1,0.00036894,3686.8,0.00037093,3748.7,-0.00011109,126.96,-0.00012798,0.00092139,0.53397
6725,8.6691,2.9091,0.1,0.00036894,3686.8,0.00037093,3748.7,-0.00011109,126.96,-0.00012798,0.00092109,0.53397
6726,8.6691,2.7273,0.1,0.00036905,3687.9,0.00037101,3748.8,-0.00011128,125.05,-0.00012793,0.0002125,0.5339
6727,8.6691,2.5455,0.1,0.00036926,3690,0.00037117,3749.2,-0.00011167,121.29,-0.00012781,-0.0011619,0.53375
6728,8.6691,2.3636,0.1,0.00036957,3693.2,0.00037141,3749.7,-0.00011224,115.8,-0.00012765,-0.0031184,0.53353
6729,8.6691,2.1818,0.1,0.00036997,3697.2,0.0003717,3750.4,-0.00011296,108.78,-0.00012744,-0.0055414,0.53324
6730,8.6691,2,0.1,0.00037045,3702,0.00037206,3751.2,-0.00011382,100.44,-0.00012719,-0.0082849,0.53287
6731,8.6691,1.8182,0.1,0.00037099,3707.4,0.00037246,3752.1,-0.00011479,91.043,-0.00012691,-0.011185,0.53242
6732,8.6691,1.6364,0.1,0.00037159,3713.3,0.0003729,3753.1,-0.00011584,80.871,-0.00012661,-0.014073,0.5319
6733,8.6691,1.4545,0.1,0.00037222,3719.6,0.00037336,3754.2,-0.00011695,70.211,-0.00012629,-0.016798,0.5313
6734,8.6691,1.2727,0.1,0.00037287,3726.1,0.00037384,3755.4,-0.00011808,59.344,-0.00012598,-0.019207,0.53063
6735,8.6691,1.0909,0.1,0.00037353,3732.7,0.00037433,3756.8,-0.0001192,48.526,-0.00012566,-0.021301,0.52987
6736,8.6691,0.90909,0.1,0.0003742,3739.4,0.00037483,3758.2,-0.00012031,37.983,-0.00012536,-0.022823,0.52904
6737,8.6691,0.72727,0.1,0.00037486,3746,0.00037533,3759.9,-0.00012137,27.892,-0.00012509,-0.025241,0.52813
6738,8.6691,0.54545,0.1,0.00037552,3752.6,0.00037583,3761.7,-0.00012238,18.378,-0.00012483,-0.024513,0.52714
6739,8.6691,0.36364,0.1,0.00037618,3759.2,0.00037634,3763.9,-0.00012335,9.4526,-0.00012461,-0.050634,0.52607
6740,8.6691,0.18182,0.1,0.00037694,3766.8,0.00037695,3767.1,-0.0001243,0.85451,-0.00012447,-0.38723,0.52492
6741,8.4844,5.8182,0.1,0.00038202,3817.5,0.00038203,3817.9,-0.00012596,1.107,-0.00012615,-0.31387,0.50417
6742,8.4844,5.6364,0.1,0.00038127,3810.1,0.00038144,3815,-0.00012499,9.8869,-0.00012631,-0.05432,0.50534
6743,8.4844,5.4545,0.1,0.00038063,3803.6,0.00038095,3813.2,-0.000124,19.155,-0.00012656,-0.028676,0.50642
6744,8.4844,5.2727,0.1,0.00037998,3797.2,0.00038047,3811.7,-0.00012295,29.228,-0.00012684,-0.029558,0.50742
6745,8.4844,5.0909,0.1,0.00037932,3790.6,0.00037999,3810.5,-0.00012182,40.081,-0.00012716,-0.027214,0.50834
6746,8.4844,4.9091,0.1,0.00037865,3783.9,0.0003795,3809.4,-0.00012064,51.572,-0.0001275,-0.025585,0.50917
6747,8.4844,4.7273,0.1,0.00037798,3777.2,0.00037902,3808.6,-0.00011941,63.491,-0.00012787,-0.023223,0.50993
6748,8.4844,4.5455,0.1,0.00037732,3770.6,0.00037855,3807.8,-0.00011818,75.57,-0.00012824,-0.020406,0.51061
6749,8.4844,4.3636,0.1,0.00037667,3764.1,0.00037808,3807.1,-0.00011696,87.504,-0.00012861,-0.01717,0.51121
6750,8.4844,4.1818,0.1,0.00037606,3758,0.00037764,3806.5,-0.0001158,98.957,-0.00012897,-0.013707,0.51174
6751,8.4844,4,0.1,0.00037549,3752.3,0.00037724,3805.9,-0.00011472,109.59,-0.0001293,-0.010212,0.51219
6752,8.4844,3.8182,0.1,0.00037499,3747.3,0.00037688,3805.4,-0.00011375,119.06,-0.0001296,-0.0068972,0.51256
6753,8.4844,3.6364,0.1,0.00037457,3743.1,0.00037657,3805,-0.00011294,127.06,-0.00012985,-0.0039641,0.51285
6754,8.4844,3.4545,0.1,0.00037424,3739.9,0.00037633,3804.7,-0.0001123,133.31,-0.00013005,-0.001594,0.51308
6755,8.4844,3.2727,0.1,0.00037402,3737.6,0.00037617,3804.5,-0.00011187,137.61,-0.00013018,7.2203e-05,0.51322
6756,8.4844,3.0909,0.1,0.0003739,3736.5,0.00037609,3804.4,-0.00011164,139.8,-0.00013025,0.00093121,0.5133
6757,8.4844,2.9091,0.1,0.0003739,3736.5,0.00037609,3804.4,-0.00011164,139.8,-0.00013025,0.00093151,0.5133
6758,8.4844,2.7273,0.1,0.00037402,3737.6,0.00037617,3804.5,-0.00011187,137.61,-0.00013018,7.1905e-05,0.51322
6759,8.4844,2.5455,0.1,0.00037424,3739.9,0.00037633,3804.7,-0.0001123,133.31,-0.00013005,-0.0015942,0.51308
6760,8.4844,2.3636,0.1,0.00037457,3743.1,0.00037657,3805,-0.00011294,127.06,-0.00012985,-0.0039647,0.51285
6761,8.4844,2.1818,0.1,0.00037499,3747.3,0.00037688,3805.4,-0.00011375,119.06,-0.0001296,-0.0068974,0.51256
6762,8.4844,2,0.1,0.00037549,3752.3,0.00037724,3805.9,-0.00011472,109.59,-0.0001293,-0.010212,0.51219
6763,8.4844,1.8182,0.1,0.00037606,3758,0.00037764,3806.5,-0.0001158,98.957,-0.00012897,-0.013707,0.51174
6764,8.4844,1.6364,0.1,0.00037667,3764.1,0.00037808,3807.1,-0.00011696,87.504,-0.00012861,-0.017171,0.51121
6765,8.4844,1.4545,0.1,0.00037732,3770.6,0.00037855,3807.8,-0.00011818,75.57,-0.00012824,-0.020407,0.51061
6766,8.4844,1.2727,0.1,0.00037798,3777.2,0.00037902,3808.6,-0.00011941,63.491,-0.00012787,-0.023224,0.50993
6767,8.4844,1.0909,0.1,0.00037865,3783.9,0.0003795,3809.4,-0.00012064,51.572,-0.0001275,-0.025586,0.50917
6768,8.4844,0.90909,0.1,0.00037932,3790.6,0.00037999,3810.5,-0.00012182,40.081,-0.00012716,-0.027215,0.50834
6769,8.4844,0.72727,0.1,0.00037998,3797.2,0.00038047,3811.7,-0.00012295,29.228,-0.00012684,-0.02956,0.50742
6770,8.4844,0.54545,0.1,0.00038063,3803.6,0.00038095,3813.2,-0.000124,19.155,-0.00012656,-0.028676,0.50642
6771,8.4844,0.36364,0.1,0.00038127,3810.1,0.00038144,3815,-0.00012499,9.8869,-0.00012631,-0.054321,0.50534
6772,8.4844,0.18182,0.1,0.00038202,3817.5,0.00038203,3817.9,-0.00012596,1.107,-0.00012615,-0.31387,0.50417
6773,8.2997,5.8182,0.1,0.000387,3867.4,0.00038702,3867.9,-0.00012759,1.2526,-0.0001278,-0.286,0.48369
6774,8.2997,5.6364,0.1,0.0003863,3860.3,0.00038647,3865.3,-0.00012663,10.065,-0.00012798,-0.058388,0.48486
6775,8.2997,5.4545,0.1,0.00038568,3854.2,0.00038601,3863.9,-0.00012563,19.621,-0.00012825,-0.033909,0.48595
6776,8.2997,5.2727,0.1,0.00038506,3848,0.00038557,3863,-0.00012454,30.247,-0.00012857,-0.035013,0.48696
6777,8.2997,5.0909,0.1,0.00038442,3841.6,0.00038512,3862.4,-0.00012335,41.908,-0.00012893,-0.032834,0.48789
6778,8.2997,4.9091,0.1,0.00038377,3835,0.00038467,3862,-0.00012208,54.436,-0.00012933,-0.031092,0.48873
6779,8.2997,4.7273,0.1,0.0003831,3828.4,0.00038421,3861.7,-0.00012076,67.583,-0.00012976,-0.028408,0.4895
6780,8.2997,4.5455,0.1,0.00038244,3821.7,0.00038375,3861.6,-0.00011941,81.033,-0.0001302,-0.025087,0.49018
6781,8.2997,4.3636,0.1,0.00038178,3815.2,0.0003833,3861.5,-0.00011807,94.418,-0.00013064,-0.021217,0.49079
6782,8.2997,4.1818,0.1,0.00038116,3809,0.00038287,3861.5,-0.00011677,107.34,-0.00013106,-0.017042,0.49131
6783,8.2997,4,0.1,0.00038058,3803.2,0.00038247,3861.4,-0.00011557,119.39,-0.00013146,-0.012814,0.49176
6784,8.2997,3.8182,0.1,0.00038006,3798,0.00038211,3861.4,-0.00011449,130.17,-0.00013181,-0.0087951,0.49214
6785,8.2997,3.6364,0.1,0.00037963,3793.7,0.00038181,3861.4,-0.00011357,139.29,-0.00013211,-0.0052363,0.49244
6786,8.2997,3.4545,0.1,0.00037929,3790.2,0.00038157,3861.3,-0.00011286,146.44,-0.00013235,-0.0023585,0.49266
6787,8.2997,3.2727,0.1,0.00037905,3787.9,0.0003814,3861.3,-0.00011236,151.37,-0.00013251,-0.00033511,0.49281
6788,8.2997,3.0909,0.1,0.00037893,3786.7,0.00038132,3861.3,-0.00011211,153.87,-0.00013259,0.00070853,0.49288
6789,8.2997,2.9091,0.1,0.00037893,3786.7,0.00038132,3861.3,-0.00011211,153.87,-0.00013259,0.00070818,0.49288
6790,8.2997,2.7273,0.1,0.00037905,3787.9,0.0003814,3861.3,-0.00011236,151.37,-0.00013251,-0.00033529,0.49281
6791,8.2997,2.5455,0.1,0.00037929,3790.2,0.00038157,3861.3,-0.00011286,146.44,-0.00013235,-0.0023585,0.49266
6792,8.2997,2.3636,0.1,0.00037963,3793.7,0.00038181,3861.4,-0.00011357,139.29,-0.00013211,-0.0052365,0.49244
6793,8.2997,2.1818,0.1,0.00038006,3798,0.00038211,3861.4,-0.00011449,130.17,-0.00013181,-0.0087956,0.49214
6794,8.2997,2,0.1,0.00038058,3803.2,0.00038247,3861.4,-0.00011557,119.39,-0.00013146,-0.012814,0.49176
6795,8.2997,1.8182,0.1,0.00038116,3809,0.00038287,3861.5,-0.00011677,107.34,-0.00013106,-0.017043,0.49131
6796,8.2997,1.6364,0.1,0.00038178,3815.2,0.0003833,3861.5,-0.00011807,94.418,-0.00013064,-0.021217,0.49079
6797,8.2997,1.4545,0.1,0.00038244,3821.7,0.00038375,3861.6,-0.00011941,81.033,-0.0001302,-0.025087,0.49018
6798,8.2997,1.2727,0.1,0.0003831,3828.4,0.00038421,3861.7,-0.00012076,67.583,-0.00012976,-0.028409,0.4895
6799,8.2997,1.0909,0.1,0.00038377,3835,0.00038467,3862,-0.00012208,54.436,-0.00012933,-0.031093,0.48873
6800,8.2997,0.90909,0.1,0.00038442,3841.6,0.00038512,3862.4,-0.00012335,41.908,-0.00012893,-0.032835,0.48789
6801,8.2997,0.72727,0.1,0.00038506,3848,0.00038557,3863,-0.00012454,30.247,-0.00012857,-0.035014,0.48696
6802,8.2997,0.54545,0.1,0.00038568,3854.2,0.00038601,3863.9,-0.00012563,19.621,-0.00012825,-0.033909,0.48595
6803,8.2997,0.36364,0.1,0.0003863,3860.3,0.00038647,3865.3,-0.00012663,10.065,-0.00012798,-0.058389,0.48486
6804,8.2997,0.18182,0.1,0.000387,3867.4,0.00038702,3867.9,-0.00012759,1.2526,-0.0001278,-0.28599,0.48369
6805,8.115,5.8182,0.1,0.00039188,3916.1,0.00039189,3916.6,-0.0001292,1.2371,-0.00012941,-0.29154,0.46347
6806,8.115,5.6364,0.1,0.00039123,3909.6,0.0003914,3914.5,-0.00012827,9.9157,-0.0001296,-0.063221,0.46465
6807,8.115,5.4545,0.1,0.00039067,3904,0.000391,3913.8,-0.00012727,19.683,-0.0001299,-0.040719,0.46575
6808,8.115,5.2727,0.1,0.00039009,3898.2,0.00039061,3913.6,-0.00012615,30.848,-0.00013026,-0.042095,0.46677
6809,8.115,5.0909,0.1,0.00038949,3892.3,0.00039021,3913.7,-0.0001249,43.361,-0.00013068,-0.040162,0.4677
6810,8.115,4.9091,0.1,0.00038887,3886,0.00038981,3914.2,-0.00012355,57.024,-0.00013115,-0.038269,0.46855
6811,8.115,4.7273,0.1,0.00038823,3879.6,0.0003894,3914.9,-0.00012212,71.543,-0.00013165,-0.035167,0.46932
6812,8.115,4.5455,0.1,0.00038758,3873.1,0.00038898,3915.6,-0.00012064,86.541,-0.00013217,-0.031199,0.47001
6813,8.115,4.3636,0.1,0.00038693,3866.6,0.00038856,3916.4,-0.00011916,101.58,-0.00013269,-0.026526,0.47062
6814,8.115,4.1818,0.1,0.00038631,3860.4,0.00038815,3917.2,-0.00011773,116.19,-0.0001332,-0.021458,0.47115
6815,8.115,4,0.1,0.00038572,3854.6,0.00038777,3917.9,-0.00011638,129.88,-0.00013367,-0.016314,0.4716
6816,8.115,3.8182,0.1,0.0003852,3849.4,0.00038742,3918.5,-0.00011517,142.16,-0.00013409,-0.011423,0.47198
6817,8.115,3.6364,0.1,0.00038476,3845,0.00038713,3919,-0.00011415,152.59,-0.00013445,-0.0070912,0.47228
6818,8.115,3.4545,0.1,0.00038441,3841.5,0.0003869,3919.3,-0.00011334,160.78,-0.00013474,-0.0035886,0.4725
6819,8.115,3.2727,0.1,0.00038417,3839.1,0.00038673,3919.6,-0.00011278,166.43,-0.00013493,-0.0011274,0.47265
6820,8.115,3.0909,0.1,0.00038405,3837.9,0.00038665,3919.7,-0.0001125,169.31,-0.00013503,0.00014173,0.47273
6821,8.115,2.9091,0.1,0.00038405,3837.9,0.00038665,3919.7,-0.0001125,169.31,-0.00013503,0.00014179,0.47273
6822,8.115,2.7273,0.1,0.00038417,3839.1,0.00038673,3919.6,-0.00011278,166.43,-0.00013493,-0.0011277,0.47265
6823,8.115,2.5455,0.1,0.00038441,3841.5,0.0003869,3919.3,-0.00011334,160.78,-0.00013474,-0.0035887,0.4725
6824,8.115,2.3636,0.1,0.00038476,3845,0.00038713,3919,-0.00011415,152.59,-0.00013445,-0.0070914,0.47228
6825,8.115,2.1818,0.1,0.0003852,3849.4,0.00038742,3918.5,-0.00011517,142.16,-0.00013409,-0.011423,0.47198
6826,8.115,2,0.1,0.00038572,3854.6,0.00038777,3917.9,-0.00011638,129.88,-0.00013367,-0.016315,0.4716
6827,8.115,1.8182,0.1,0.00038631,3860.4,0.00038815,3917.2,-0.00011773,116.19,-0.0001332,-0.021458,0.47115
6828,8.115,1.6364,0.1,0.00038693,3866.6,0.00038856,3916.4,-0.00011916,101.58,-0.00013269,-0.026526,0.47062
6829,8.115,1.4545,0.1,0.00038758,3873.1,0.00038898,3915.6,-0.00012064,86.541,-0.00013217,-0.0312,0.47001
6830,8.115,1.2727,0.1,0.00038823,3879.6,0.0003894,3914.9,-0.00012212,71.543,-0.00013165,-0.035167,0.46932
6831,8.115,1.0909,0.1,0.00038887,3886,0.00038981,3914.2,-0.00012355,57.024,-0.00013115,-0.038269,0.46855
6832,8.115,0.90909,0.1,0.00038949,3892.3,0.00039021,3913.7,-0.0001249,43.361,-0.00013068,-0.040163,0.4677
6833,8.115,0.72727,0.1,0.00039009,3898.2,0.00039061,3913.6,-0.00012615,30.848,-0.00013026,-0.042096,0.46677
6834,8.115,0.54545,0.1,0.00039067,3904,0.000391,3913.8,-0.00012727,19.683,-0.0001299,-0.040719,0.46575
6835,8.115,0.36364,0.1,0.00039123,3909.6,0.0003914,3914.5,-0.00012827,9.9157,-0.0001296,-0.063223,0.46465
6836,8.115,0.18182,0.1,0.00039188,3916.1,0.00039189,3916.6,-0.0001292,1.2371,-0.00012941,-0.29154,0.46347
6837,7.9303,5.8182,0.1,0.0003966,3963.3,0.00039661,3963.6,-0.00013078,1.0241,-0.00013096,-0.34364,0.44351
6838,7.9303,5.6364,0.1,0.00039604,3957.6,0.00039619,3962.3,-0.00012991,9.3533,-0.00013116,-0.069708,0.44471
6839,7.9303,5.4545,0.1,0.00039555,3952.8,0.00039587,3962.3,-0.00012892,19.232,-0.00013149,-0.049991,0.44582
6840,7.9303,5.2727,0.1,0.00039505,3947.8,0.00039556,3963.1,-0.00012778,30.909,-0.0001319,-0.0516,0.44684
6841,7.9303,5.0909,0.1,0.00039452,3942.4,0.00039525,3964.4,-0.00012648,44.318,-0.00013238,-0.049931,0.44778
6842,7.9303,4.9091,0.1,0.00039395,3936.8,0.00039492,3966,-0.00012504,59.223,-0.00013293,-0.047802,0.44864
6843,7.9303,4.7273,0.1,0.00039335,3930.8,0.00039458,3967.9,-0.0001235,75.273,-0.00013352,-0.044069,0.44941
6844,7.9303,4.5455,0.1,0.00039274,3924.7,0.00039422,3969.9,-0.00012189,92.023,-0.00013414,-0.039232,0.45011
6845,7.9303,4.3636,0.1,0.00039212,3918.5,0.00039386,3971.8,-0.00012026,108.95,-0.00013476,-0.033512,0.45072
6846,7.9303,4.1818,0.1,0.00039152,3912.5,0.0003935,3973.7,-0.00011866,125.49,-0.00013537,-0.027303,0.45125
6847,7.9303,4,0.1,0.00039095,3906.8,0.00039316,3975.4,-0.00011716,141.06,-0.00013594,-0.021006,0.45171
6848,7.9303,3.8182,0.1,0.00039044,3901.7,0.00039284,3976.9,-0.00011581,155.08,-0.00013645,-0.015023,0.45208
6849,7.9303,3.6364,0.1,0.00039,3897.3,0.00039257,3978.1,-0.00011465,167.03,-0.00013689,-0.0097321,0.45238
6850,7.9303,3.4545,0.1,0.00038966,3893.9,0.00039236,3979.1,-0.00011375,176.43,-0.00013723,-0.0054589,0.45261
6851,7.9303,3.2727,0.1,0.00038942,3891.5,0.00039221,3979.7,-0.00011312,182.91,-0.00013746,-0.0024588,0.45276
6852,7.9303,3.0909,0.1,0.0003893,3890.3,0.00039213,3980,-0.0001128,186.22,-0.00013758,-0.00091296,0.45283
6853,7.9303,2.9091,0.1,0.0003893,3890.3,0.00039213,3980,-0.0001128,186.22,-0.00013758,-0.00091266,0.45283
6854,7.9303,2.7273,0.1,0.00038942,3891.5,0.00039221,3979.7,-0.00011312,182.91,-0.00013746,-0.0024591,0.45276
6855,7.9303,2.5455,0.1,0.00038966,3893.9,0.00039236,3979.1,-0.00011375,176.43,-0.00013723,-0.0054589,0.45261
6856,7.9303,2.3636,0.1,0.00039,3897.3,0.00039257,3978.1,-0.00011465,167.03,-0.00013689,-0.0097326,0.45238
6857,7.9303,2.1818,0.1,0.00039044,3901.7,0.00039284,3976.9,-0.00011581,155.08,-0.00013645,-0.015024,0.45208
6858,7.9303,2,0.1,0.00039095,3906.8,0.00039316,3975.4,-0.00011716,141.06,-0.00013594,-0.021006,0.45171
6859,7.9303,1.8182,0.1,0.00039152,3912.5,0.0003935,3973.7,-0.00011866,125.49,-0.00013537,-0.027304,0.45125
6860,7.9303,1.6364,0.1,0.00039212,3918.5,0.00039386,3971.8,-0.00012026,108.95,-0.00013476,-0.033513,0.45072
6861,7.9303,1.4545,0.1,0.00039274,3924.7,0.00039422,3969.9,-0.00012189,92.023,-0.00013414,-0.039233,0.45011
6862,7.9303,1.2727,0.1,0.00039335,3930.8,0.00039458,3967.9,-0.0001235,75.273,-0.00013352,-0.044069,0.44941
6863,7.9303,1.0909,0.1,0.00039395,3936.8,0.00039492,3966,-0.00012504,59.223,-0.00013293,-0.047802,0.44864
6864,7.9303,0.90909,0.1,0.00039452,3942.4,0.00039525,3964.4,-0.00012648,44.318,-0.00013238,-0.049932,0.44778
6865,7.9303,0.72727,0.1,0.00039505,3947.8,0.00039556,3963.1,-0.00012778,30.909,-0.0001319,-0.051601,0.44684
6866,7.9303,0.54545,0.1,0.00039555,3952.8,0.00039587,3962.3,-0.00012892,19.232,-0.00013149,-0.049991,0.44582
6867,7.9303,0.36364,0.1,0.00039604,3957.6,0.00039619,3962.3,-0.00012991,9.3533,-0.00013116,-0.06971,0.44471
6868,7.9303,0.18182,0.1,0.0003966,3963.3,0.00039661,3963.6,-0.00013078,1.0241,-0.00013096,-0.34364,0.44351
6869,7.7456,5.8182,0.1,0.00040112,4008.4,0.00040112,4008.4,-0.00013229,0.63283,-0.00013244,-0.51996,0.42383
6870,7.7456,5.6364,0.1,0.00040067,4003.9,0.00040081,4008,-0.00013152,8.2802,-0.00013264,-0.080095,0.42503
6871,7.7456,5.4545,0.1,0.00040029,4000.2,0.0004006,4009.2,-0.00013058,18.14,-0.000133,-0.063412,0.42615
6872,7.7456,5.2727,0.1,0.0003999,3996.2,0.0004004,4011.3,-0.00012943,30.29,-0.00013347,-0.064897,0.42719
6873,7.7456,5.0909,0.1,0.00039947,3991.9,0.00040021,4014,-0.00012808,44.635,-0.00013403,-0.063298,0.42813
6874,7.7456,4.9091,0.1,0.00039899,3987.1,0.00039999,4017.2,-0.00012656,60.897,-0.00013468,-0.060553,0.429
6875,7.7456,4.7273,0.1,0.00039847,3982,0.00039975,4020.7,-0.0001249,78.658,-0.00013538,-0.055926,0.42978
6876,7.7456,4.5455,0.1,0.00039793,3976.5,0.0003995,4024.3,-0.00012315,97.388,-0.00013612,-0.049864,0.43047
6877,7.7456,4.3636,0.1,0.00039737,3971,0.00039922,4027.9,-0.00012136,116.47,-0.00013686,-0.042739,0.43109
6878,7.7456,4.1818,0.1,0.00039681,3965.4,0.00039894,4031.3,-0.00011959,135.22,-0.00013759,-0.035042,0.43162
6879,7.7456,4,0.1,0.00039628,3960.1,0.00039866,4034.4,-0.00011792,152.96,-0.00013828,-0.02727,0.43208
6880,7.7456,3.8182,0.1,0.0003958,3955.3,0.00039841,4037.1,-0.0001164,168.99,-0.0001389,-0.019913,0.43246
6881,7.7456,3.6364,0.1,0.00039539,3951.1,0.00039818,4039.3,-0.00011511,182.67,-0.00013942,-0.013425,0.43276
6882,7.7456,3.4545,0.1,0.00039506,3947.9,0.00039799,4041,-0.00011409,193.47,-0.00013984,-0.0081968,0.43298
6883,7.7456,3.2727,0.1,0.00039483,3945.6,0.00039787,4042.2,-0.00011338,200.92,-0.00014012,-0.0045332,0.43313
6884,7.7456,3.0909,0.1,0.00039471,3944.4,0.0003978,4042.8,-0.00011302,204.73,-0.00014027,-0.0026478,0.43321
6885,7.7456,2.9091,0.1,0.00039471,3944.4,0.0003978,4042.8,-0.00011302,204.73,-0.00014027,-0.0026481,0.43321
6886,7.7456,2.7273,0.1,0.00039483,3945.6,0.00039787,4042.2,-0.00011338,200.92,-0.00014012,-0.0045338,0.43313
6887,7.7456,2.5455,0.1,0.00039506,3947.9,0.00039799,4041,-0.00011409,193.47,-0.00013984,-0.0081973,0.43298
6888,7.7456,2.3636,0.1,0.00039539,3951.1,0.00039818,4039.3,-0.00011511,182.67,-0.00013942,-0.013425,0.43276
6889,7.7456,2.1818,0.1,0.0003958,3955.3,0.00039841,4037.1,-0.0001164,168.99,-0.0001389,-0.019913,0.43246
6890,7.7456,2,0.1,0.00039628,3960.1,0.00039866,4034.4,-0.00011792,152.96,-0.00013828,-0.02727,0.43208
6891,7.7456,1.8182,0.1,0.00039681,3965.4,0.00039894,4031.3,-0.00011959,135.22,-0.00013759,-0.035042,0.43162
6892,7.7456,1.6364,0.1,0.00039737,3971,0.00039922,4027.9,-0.00012136,116.47,-0.00013686,-0.04274,0.43109
6893,7.7456,1.4545,0.1,0.00039793,3976.5,0.0003995,4024.3,-0.00012315,97.388,-0.00013612,-0.049865,0.43047
6894,7.7456,1.2727,0.1,0.00039847,3982,0.00039975,4020.7,-0.0001249,78.658,-0.00013538,-0.055926,0.42978
6895,7.7456,1.0909,0.1,0.00039899,3987.1,0.00039999,4017.2,-0.00012656,60.897,-0.00013468,-0.060555,0.429
6896,7.7456,0.90909,0.1,0.00039947,3991.9,0.00040021,4014,-0.00012808,44.635,-0.00013403,-0.0633,0.42813
6897,7.7456,0.72727,0.1,0.0003999,3996.2,0.0004004,4011.3,-0.00012943,30.29,-0.00013347,-0.064898,0.42719
6898,7.7456,0.54545,0.1,0.00040029,4000.2,0.0004006,4009.2,-0.00013058,18.14,-0.000133,-0.063411,0.42615
6899,7.7456,0.36364,0.1,0.00040067,4003.9,0.00040081,4008,-0.00013152,8.2802,-0.00013264,-0.080096,0.42503
6900,7.7456,0.18182,0.1,0.00040112,4008.4,0.00040112,4008.4,-0.00013229,0.63284,-0.00013244,-0.51996,0.42383
6901,7.5609,5.8182,0.1,0.00040536,4050.8,0.00040535,4050.4,-0.00013369,0.26546,-0.00013387,-1.0904,0.40442
6902,7.5609,5.6364,0.1,0.00040507,4047.9,0.00040518,4051.1,-0.00013312,6.5873,-0.00013401,-0.10114,0.40563
6903,7.5609,5.4545,0.1,0.00040485,4045.7,0.00040512,4053.7,-0.00013224,16.264,-0.00013441,-0.084618,0.40676
6904,7.5609,5.2727,0.1,0.0004046,4043.2,0.00040508,4057.5,-0.0001311,28.827,-0.00013495,-0.084556,0.4078
6905,7.5609,5.0909,0.1,0.00040431,4040.3,0.00040505,4062.2,-0.00012972,44.146,-0.00013561,-0.082207,0.40876
6906,7.5609,4.9091,0.1,0.00040397,4036.9,0.00040499,4067.5,-0.00012812,61.889,-0.00013637,-0.078145,0.40963
6907,7.5609,4.7273,0.1,0.00040358,4033,0.00040491,4073.2,-0.00012634,81.559,-0.00013721,-0.07194,0.41041
6908,7.5609,4.5455,0.1,0.00040315,4028.7,0.00040479,4078.9,-0.00012444,102.52,-0.00013809,-0.064058,0.41111
6909,7.5609,4.3636,0.1,0.00040269,4024.1,0.00040465,4084.7,-0.00012247,124.05,-0.00013899,-0.054987,0.41173
6910,7.5609,4.1818,0.1,0.00040222,4019.4,0.00040449,4090.1,-0.00012052,145.34,-0.00013987,-0.04531,0.41227
6911,7.5609,4,0.1,0.00040176,4014.8,0.00040432,4095,-0.00011866,165.56,-0.0001407,-0.035628,0.41272
6912,7.5609,3.8182,0.1,0.00040134,4010.6,0.00040415,4099.4,-0.00011697,183.9,-0.00014145,-0.026523,0.4131
6913,7.5609,3.6364,0.1,0.00040097,4007,0.00040399,4103,-0.00011552,199.59,-0.00014209,-0.018534,0.4134
6914,7.5609,3.4545,0.1,0.00040068,4004,0.00040387,4105.8,-0.00011437,211.99,-0.00014259,-0.012121,0.41363
6915,7.5609,3.2727,0.1,0.00040048,4002,0.00040377,4107.7,-0.00011358,220.57,-0.00014293,-0.0076395,0.41378
6916,7.5609,3.0909,0.1,0.00040037,4001,0.00040372,4108.7,-0.00011317,224.95,-0.00014311,-0.0053366,0.41386
6917,7.5609,2.9091,0.1,0.00040037,4001,0.00040372,4108.7,-0.00011317,224.95,-0.00014311,-0.0053366,0.41386
6918,7.5609,2.7273,0.1,0.00040048,4002,0.00040377,4107.7,-0.00011358,220.57,-0.00014293,-0.0076396,0.41378
6919,7.5609,2.5455,0.1,0.00040068,4004,0.00040387,4105.8,-0.00011437,211.99,-0.00014259,-0.012121,0.41363
6920,7.5609,2.3636,0.1,0.00040097,4007,0.00040399,4103,-0.00011552,199.59,-0.00014209,-0.018534,0.4134
6921,7.5609,2.1818,0.1,0.00040134,4010.6,0.00040415,4099.4,-0.00011697,183.9,-0.00014145,-0.026523,0.4131
6922,7.5609,2,0.1,0.00040176,4014.8,0.00040432,4095,-0.00011866,165.56,-0.0001407,-0.035628,0.41272
6923,7.5609,1.8182,0.1,0.00040222,4019.4,0.00040449,4090.1,-0.00012052,145.34,-0.00013987,-0.045311,0.41227
6924,7.5609,1.6364,0.1,0.00040269,4024.1,0.00040465,4084.7,-0.00012247,124.05,-0.00013899,-0.054987,0.41173
6925,7.5609,1.4545,0.1,0.00040315,4028.7,0.00040479,4078.9,-0.00012444,102.52,-0.00013809,-0.06406,0.41111
6926,7.5609,1.2727,0.1,0.00040358,4033,0.00040491,4073.2,-0.00012634,81.558,-0.00013721,-0.07194,0.41041
6927,7.5609,1.0909,0.1,0.00040397,4036.9,0.00040499,4067.5,-0.00012812,61.889,-0.00013637,-0.078146,0.40963
6928,7.5609,0.90909,0.1,0.00040431,4040.3,0.00040505,4062.2,-0.00012972,44.146,-0.00013561,-0.082208,0.40876
6929,7.5609,0.72727,0.1,0.0004046,4043.2,0.00040508,4057.5,-0.0001311,28.827,-0.00013495,-0.084557,0.4078
6930,7.5609,0.54545,0.1,0.00040485,4045.7,0.00040512,4053.7,-0.00013224,16.264,-0.00013441,-0.084618,0.40676
6931,7.5609,0.36364,0.1,0.00040507,4047.9,0.00040518,4051.1,-0.00013312,6.5873,-0.00013401,-0.10115,0.40563
6932,7.5609,0.18182,0.1,0.00040536,4050.8,0.00040535,4050.4,-0.00013369,0.26546,-0.00013387,-1.0904,0.40442
6933,7.3761,5.8182,0.1,0.00040926,4089.7,0.00040922,4088.6,-0.00013493,0.099987,-0.00013525,-2.3111,0.38528
6934,7.3761,5.6364,0.1,0.00040916,4088.8,0.00040923,4090.8,-0.00013467,4.1725,-0.00013524,-0.16223,0.38651
6935,7.3761,5.4545,0.1,0.00040915,4088.7,0.00040937,4095.3,-0.00013389,13.445,-0.00013569,-0.1229,0.38765
6936,7.3761,5.2727,0.1,0.00040911,4088.3,0.00040955,4101.3,-0.0001328,26.338,-0.00013632,-0.11572,0.38869
6937,7.3761,5.0909,0.1,0.00040902,4087.4,0.00040973,4108.5,-0.0001314,42.662,-0.00013709,-0.11008,0.38966
6938,7.3761,4.9091,0.1,0.00040887,4085.9,0.00040989,4116.5,-0.00012973,62.016,-0.000138,-0.10297,0.39053
6939,7.3761,4.7273,0.1,0.00040866,4083.8,0.00041002,4125,-0.00012783,83.809,-0.000139,-0.093915,0.39132
6940,7.3761,4.5455,0.1,0.0004084,4081.2,0.00041012,4133.7,-0.00012577,107.3,-0.00014006,-0.083201,0.39202
6941,7.3761,4.3636,0.1,0.00040809,4078.1,0.00041017,4142.3,-0.00012362,131.6,-0.00014114,-0.07134,0.39264
6942,7.3761,4.1818,0.1,0.00040776,4074.8,0.00041018,4150.4,-0.00012147,155.78,-0.00014221,-0.058971,0.39318
6943,7.3761,4,0.1,0.00040742,4071.4,0.00041017,4157.9,-0.00011941,178.84,-0.00014322,-0.046775,0.39364
6944,7.3761,3.8182,0.1,0.00040711,4068.2,0.00041014,4164.5,-0.00011752,199.83,-0.00014412,-0.035425,0.39402
6945,7.3761,3.6364,0.1,0.00040682,4065.4,0.00041009,4170,-0.0001159,217.84,-0.0001449,-0.025543,0.39433
6946,7.3761,3.4545,0.1,0.0004066,4063.2,0.00041005,4174.2,-0.00011462,232.08,-0.00014551,-0.017657,0.39455
6947,7.3761,3.2727,0.1,0.00040644,4061.6,0.00041001,4177.1,-0.00011373,241.95,-0.00014593,-0.01217,0.3947
6948,7.3761,3.0909,0.1,0.00040636,4060.7,0.00040999,4178.6,-0.00011327,246.99,-0.00014615,-0.0093577,0.39478
6949,7.3761,2.9091,0.1,0.00040636,4060.7,0.00040999,4178.6,-0.00011327,246.99,-0.00014615,-0.0093578,0.39478
6950,7.3761,2.7273,0.1,0.00040644,4061.6,0.00041001,4177.1,-0.00011373,241.95,-0.00014593,-0.01217,0.3947
6951,7.3761,2.5455,0.1,0.0004066,4063.2,0.00041005,4174.2,-0.00011462,232.08,-0.00014551,-0.017657,0.39455
6952,7.3761,2.3636,0.1,0.00040682,4065.4,0.00041009,4170,-0.0001159,217.84,-0.0001449,-0.025544,0.39433
6953,7.3761,2.1818,0.1,0.00040711,4068.2,0.00041014,4164.5,-0.00011752,199.83,-0.00014412,-0.035426,0.39402
6954,7.3761,2,0.1,0.00040742,4071.4,0.00041017,4157.9,-0.00011941,178.84,-0.00014322,-0.046775,0.39364
6955,7.3761,1.8182,0.1,0.00040776,4074.8,0.00041018,4150.4,-0.00012147,155.78,-0.00014221,-0.058971,0.39318
6956,7.3761,1.6364,0.1,0.00040809,4078.1,0.00041017,4142.3,-0.00012362,131.6,-0.00014114,-0.07134,0.39264
6957,7.3761,1.4545,0.1,0.0004084,4081.2,0.00041012,4133.7,-0.00012577,107.3,-0.00014006,-0.083202,0.39202
6958,7.3761,1.2727,0.1,0.00040866,4083.8,0.00041002,4125,-0.00012783,83.809,-0.000139,-0.093916,0.39132
6959,7.3761,1.0909,0.1,0.00040887,4085.9,0.00040989,4116.5,-0.00012973,62.016,-0.000138,-0.10297,0.39053
6960,7.3761,0.90909,0.1,0.00040902,4087.4,0.00040973,4108.5,-0.0001314,42.662,-0.00013709,-0.11008,0.38966
6961,7.3761,0.72727,0.1,0.00040911,4088.3,0.00040955,4101.3,-0.0001328,26.338,-0.00013632,-0.11572,0.38869
6962,7.3761,0.54545,0.1,0.00040915,4088.7,0.00040937,4095.3,-0.00013389,13.445,-0.00013569,-0.1229,0.38765
6963,7.3761,0.36364,0.1,0.00040916,4088.8,0.00040923,4090.8,-0.00013467,4.1724,-0.00013524,-0.16223,0.38651
6964,7.3761,0.18182,0.1,0.00040926,4089.7,0.00040922,4088.6,-0.00013493,0.099986,-0.00013525,-2.3111,0.38528
6965,7.1914,5.8182,0.1,0.00041269,4124.1,0.00041262,4122,-0.00013598,0.036574,-0.00013654,-4.1713,0.36643
6966,7.1914,5.6364,0.1,0.00041286,4125.8,0.00041287,4126.1,-0.00013611,1.2206,-0.00013635,-0.59536,0.36766
6967,7.1914,5.4545,0.1,0.00041312,4128.3,0.00041327,4133,-0.00013552,9.527,-0.00013682,-0.21001,0.36881
6968,7.1914,5.2727,0.1,0.00041335,4130.6,0.00041373,4141.8,-0.0001345,22.626,-0.00013754,-0.17052,0.36987
6969,7.1914,5.0909,0.1,0.00041353,4132.5,0.0004142,4152.3,-0.00013311,39.971,-0.00013845,-0.15339,0.37084
6970,7.1914,4.9091,0.1,0.00041365,4133.7,0.00041466,4163.8,-0.00013138,61.069,-0.00013953,-0.13907,0.37172
6971,7.1914,4.7273,0.1,0.0004137,4134.2,0.00041508,4176,-0.00012937,85.218,-0.00014073,-0.12462,0.37251
6972,7.1914,4.5455,0.1,0.00041368,4134,0.00041546,4188.5,-0.00012715,111.53,-0.00014201,-0.1093,0.37322
6973,7.1914,4.3636,0.1,0.0004136,4133.2,0.00041579,4200.9,-0.00012481,138.99,-0.00014332,-0.093313,0.37384
6974,7.1914,4.1818,0.1,0.00041348,4132,0.00041606,4212.6,-0.00012245,166.45,-0.00014462,-0.077195,0.37438
6975,7.1914,4,0.1,0.00041333,4130.5,0.00041627,4223.4,-0.00012018,192.76,-0.00014584,-0.061624,0.37484
6976,7.1914,3.8182,0.1,0.00041318,4128.9,0.00041644,4233,-0.00011809,216.77,-0.00014695,-0.047379,0.37522
6977,7.1914,3.6364,0.1,0.00041303,4127.5,0.00041656,4241,-0.00011629,237.42,-0.00014789,-0.035099,0.37553
6978,7.1914,3.4545,0.1,0.00041291,4126.2,0.00041664,4247.3,-0.00011486,253.78,-0.00014864,-0.025381,0.37575
6979,7.1914,3.2727,0.1,0.00041282,4125.4,0.00041669,4251.5,-0.00011387,265.12,-0.00014915,-0.01866,0.3759
6980,7.1914,3.0909,0.1,0.00041277,4124.9,0.00041671,4253.7,-0.00011336,270.92,-0.00014942,-0.015229,0.37598
6981,7.1914,2.9091,0.1,0.00041277,4124.9,0.00041671,4253.7,-0.00011336,270.92,-0.00014942,-0.015229,0.37598
6982,7.1914,2.7273,0.1,0.00041282,4125.4,0.00041669,4251.5,-0.00011387,265.12,-0.00014915,-0.01866,0.3759
6983,7.1914,2.5455,0.1,0.00041291,4126.2,0.00041664,4247.3,-0.00011486,253.78,-0.00014864,-0.025381,0.37575
6984,7.1914,2.3636,0.1,0.00041303,4127.5,0.00041656,4241,-0.00011629,237.42,-0.00014789,-0.035099,0.37553
6985,7.1914,2.1818,0.1,0.00041318,4128.9,0.00041644,4233,-0.00011809,216.77,-0.00014695,-0.04738,0.37522
6986,7.1914,2,0.1,0.00041333,4130.5,0.00041627,4223.4,-0.00012018,192.76,-0.00014584,-0.061624,0.37484
6987,7.1914,1.8182,0.1,0.00041348,4132,0.00041606,4212.6,-0.00012245,166.45,-0.00014462,-0.077195,0.37438
6988,7.1914,1.6364,0.1,0.0004136,4133.2,0.00041579,4200.9,-0.00012481,138.99,-0.00014332,-0.093314,0.37384
6989,7.1914,1.4545,0.1,0.00041368,4134,0.00041546,4188.5,-0.00012715,111.53,-0.00014201,-0.1093,0.37322
6990,7.1914,1.2727,0.1,0.0004137,4134.2,0.00041508,4176,-0.00012937,85.218,-0.00014073,-0.12463,0.37251
6991,7.1914,1.0909,0.1,0.00041365,4133.7,0.00041466,4163.8,-0.00013138,61.069,-0.00013953,-0.13907,0.37172
6992,7.1914,0.90909,0.1,0.00041353,4132.5,0.0004142,4152.3,-0.00013311,39.971,-0.00013845,-0.15339,0.37084
6993,7.1914,0.72727,0.1,0.00041335,4130.6,0.00041373,4141.8,-0.0001345,22.626,-0.00013754,-0.17052,0.36987
6994,7.1914,0.54545,0.1,0.00041312,4128.3,0.00041327,4133,-0.00013552,9.527,-0.00013682,-0.21001,0.36881
6995,7.1914,0.36364,0.1,0.00041286,4125.8,0.00041287,4126.1,-0.00013611,1.2206,-0.00013635,-0.59536,0.36766
6996,7.1914,0.18182,0.1,0.00041269,4124.1,0.00041262,4122,-0.00013598,0.036574,-0.00013654,-4.1713,0.36643
6997,7.0067,5.8182,0.1,0.00041554,4152.5,0.00041543,4149.2,-0.0001368,0.0077975,-0.00013769,-6.7037,0.34785
6998,7.0067,5.6364,0.1,0.00041604,4157.5,0.00041597,4155.6,-0.00013707,0.21552,-0.00013764,-4.0447,0.3491
6999,7.0067,5.4545,0.1,0.00041664,4163.5,0.00041671,4165.5,-0.00013709,4.5064,-0.00013776,-0.54559,0.35026
7000,7.0067,5.2727,0.1,0.00041724,4169.5,0.00041753,4178.1,-0.00013621,17.494,-0.00013858,-0.28359,0.35132
7001,7.0067,5.0909,0.1,0.00041779,4175,0.00041838,4192.7,-0.00013486,35.843,-0.00013966,-0.22569,0.3523
7002,7.0067,4.9091,0.1,0.00041827,4179.8,0.00041923,4208.8,-0.00013309,58.811,-0.00014095,-0.19359,0.35318
7003,7.0067,4.7273,0.1,0.00041867,4183.9,0.00042006,4225.9,-0.00013098,85.558,-0.00014239,-0.16847,0.35398
7004,7.0067,4.5455,0.1,0.000419,4187.1,0.00042084,4243.4,-0.00012861,115.04,-0.00014394,-0.14535,0.35469
7005,7.0067,4.3636,0.1,0.00041925,4189.6,0.00042154,4260.6,-0.00012608,146.04,-0.00014553,-0.12306,0.35532
7006,7.0067,4.1818,0.1,0.00041943,4191.4,0.00042216,4277.2,-0.00012351,177.23,-0.00014711,-0.1016,0.35587
7007,7.0067,4,0.1,0.00041956,4192.7,0.0004227,4292.4,-0.00012101,207.23,-0.0001486,-0.081483,0.35633
7008,7.0067,3.8182,0.1,0.00041965,4193.6,0.00042315,4306,-0.00011871,234.68,-0.00014995,-0.063403,0.35671
7009,7.0067,3.6364,0.1,0.00041971,4194.2,0.0004235,4317.3,-0.00011672,258.34,-0.00015111,-0.048068,0.35701
7010,7.0067,3.4545,0.1,0.00041974,4194.6,0.00042377,4326.2,-0.00011513,277.1,-0.00015202,-0.036073,0.35724
7011,7.0067,3.2727,0.1,0.00041977,4194.8,0.00042395,4332.3,-0.00011403,290.11,-0.00015265,-0.027851,0.35739
7012,7.0067,3.0909,0.1,0.00041978,4194.9,0.00042404,4335.4,-0.00011347,296.76,-0.00015297,-0.023677,0.35747
7013,7.0067,2.9091,0.1,0.00041978,4194.9,0.00042404,4335.4,-0.00011347,296.76,-0.00015297,-0.023677,0.35747
7014,7.0067,2.7273,0.1,0.00041977,4194.8,0.00042395,4332.3,-0.00011403,290.11,-0.00015265,-0.027852,0.35739
7015,7.0067,2.5455,0.1,0.00041974,4194.6,0.00042377,4326.2,-0.00011513,277.1,-0.00015202,-0.036073,0.35724
7016,7.0067,2.3636,0.1,0.00041971,4194.2,0.0004235,4317.3,-0.00011672,258.34,-0.00015111,-0.048068,0.35701
7017,7.0067,2.1818,0.1,0.00041965,4193.6,0.00042315,4306,-0.00011871,234.68,-0.00014995,-0.063403,0.35671
7018,7.0067,2,0.1,0.00041956,4192.7,0.0004227,4292.4,-0.00012101,207.23,-0.0001486,-0.081483,0.35633
7019,7.0067,1.8182,0.1,0.00041943,4191.4,0.00042216,4277.2,-0.00012351,177.23,-0.00014711,-0.1016,0.35587
7020,7.0067,1.6364,0.1,0.00041925,4189.6,0.00042154,4260.6,-0.00012608,146.04,-0.00014553,-0.12306,0.35532
7021,7.0067,1.4545,0.1,0.000419,4187.1,0.00042084,4243.4,-0.00012861,115.04,-0.00014394,-0.14535,0.35469
7022,7.0067,1.2727,0.1,0.00041867,4183.9,0.00042006,4225.9,-0.00013098,85.558,-0.00014239,-0.16847,0.35398
7023,7.0067,1.0909,0.1,0.00041827,4179.8,0.00041924,4208.8,-0.00013309,58.811,-0.00014095,-0.19359,0.35318
7024,7.0067,0.90909,0.1,0.00041779,4175,0.00041838,4192.7,-0.00013486,35.843,-0.00013966,-0.22569,0.3523
7025,7.0067,0.72727,0.1,0.00041724,4169.5,0.00041753,4178.1,-0.00013621,17.494,-0.00013858,-0.28359,0.35132
7026,7.0067,0.54545,0.1,0.00041664,4163.5,0.00041671,4165.5,-0.00013709,4.5064,-0.00013776,-0.54559,0.35026
7027,7.0067,0.36364,0.1,0.00041604,4157.5,0.00041597,4155.6,-0.00013707,0.21551,-0.00013764,-4.0447,0.3491
7028,7.0067,0.18182,0.1,0.00041554,4152.5,0.00041543,4149.2,-0.0001368,0.0077963,-0.00013769,-6.7037,0.34785
7029,6.822,5.8182,0.1,0.00041763,4173.5,0.00041746,4168.4,-0.00013732,-0.0074879,-0.00013865,-9.9977,0.32956
7030,6.822,5.6364,0.1,0.00041855,4182.6,0.00041838,4177.8,-0.00013763,0.12471,-0.00013893,-9.6471,0.33082
7031,6.822,5.4545,0.1,0.00041959,4193,0.00041954,4191.6,-0.00013821,0.81756,-0.00013882,-3.7784,0.33199
7032,6.822,5.2727,0.1,0.00042065,4203.6,0.00042083,4208.8,-0.00013788,10.842,-0.0001394,-0.59977,0.33306
7033,6.822,5.0909,0.1,0.00042169,4213.9,0.00042218,4228.7,-0.00013663,30.043,-0.00014067,-0.35952,0.33404
7034,6.822,4.9091,0.1,0.00042266,4223.7,0.00042356,4250.7,-0.00013486,54.98,-0.00014221,-0.27995,0.33494
7035,6.822,4.7273,0.1,0.00042355,4232.6,0.00042492,4274.1,-0.00013267,84.564,-0.00014396,-0.23272,0.33574
7036,6.822,4.5455,0.1,0.00042435,4240.6,0.00042623,4298.1,-0.00013016,117.56,-0.00014584,-0.19589,0.33646
7037,6.822,4.3636,0.1,0.00042506,4247.7,0.00042745,4321.8,-0.00012745,152.54,-0.00014777,-0.1637,0.33709
7038,6.822,4.1818,0.1,0.00042568,4253.9,0.00042856,4344.6,-0.00012466,187.93,-0.00014969,-0.13444,0.33764
7039,6.822,4,0.1,0.00042621,4259.1,0.00042955,4365.8,-0.00012194,222.1,-0.00015151,-0.108,0.3381
7040,6.822,3.8182,0.1,0.00042665,4263.5,0.00043039,4384.6,-0.00011942,253.45,-0.00015317,-0.084844,0.33848
7041,6.822,3.6364,0.1,0.000427,4267.1,0.00043108,4400.4,-0.00011724,280.5,-0.00015458,-0.065597,0.33879
7042,6.822,3.4545,0.1,0.00042728,4269.8,0.00043161,4412.8,-0.0001155,301.97,-0.0001557,-0.050783,0.33902
7043,6.822,3.2727,0.1,0.00042746,4271.7,0.00043197,4421.3,-0.00011429,316.86,-0.00015647,-0.040757,0.33917
7044,6.822,3.0909,0.1,0.00042756,4272.6,0.00043215,4425.6,-0.00011367,324.48,-0.00015686,-0.035706,0.33924
7045,6.822,2.9091,0.1,0.00042756,4272.6,0.00043215,4425.6,-0.00011367,324.48,-0.00015686,-0.035706,0.33924
7046,6.822,2.7273,0.1,0.00042746,4271.7,0.00043197,4421.3,-0.00011429,316.86,-0.00015647,-0.040757,0.33917
7047,6.822,2.5455,0.1,0.00042728,4269.8,0.00043161,4412.8,-0.0001155,301.97,-0.0001557,-0.050783,0.33902
7048,6.822,2.3636,0.1,0.000427,4267.1,0.00043108,4400.4,-0.00011724,280.5,-0.00015458,-0.065597,0.33879
7049,6.822,2.1818,0.1,0.00042665,4263.5,0.00043039,4384.6,-0.00011942,253.45,-0.00015317,-0.084845,0.33848
7050,6.822,2,0.1,0.00042621,4259.1,0.00042955,4365.8,-0.00012194,222.1,-0.00015151,-0.108,0.3381
7051,6.822,1.8182,0.1,0.00042568,4253.9,0.00042856,4344.6,-0.00012466,187.93,-0.00014969,-0.13444,0.33764
7052,6.822,1.6364,0.1,0.00042506,4247.7,0.00042745,4321.8,-0.00012745,152.54,-0.00014777,-0.1637,0.33709
7053,6.822,1.4545,0.1,0.00042436,4240.6,0.00042623,4298.1,-0.00013016,117.56,-0.00014584,-0.19589,0.33646
7054,6.822,1.2727,0.1,0.00042355,4232.6,0.00042492,4274.1,-0.00013267,84.564,-0.00014396,-0.23272,0.33574
7055,6.822,1.0909,0.1,0.00042266,4223.7,0.00042356,4250.7,-0.00013486,54.98,-0.00014221,-0.27995,0.33494
7056,6.822,0.90909,0.1,0.00042169,4213.9,0.00042218,4228.7,-0.00013663,30.043,-0.00014067,-0.35952,0.33404
7057,6.822,0.72727,0.1,0.00042065,4203.6,0.00042083,4208.8,-0.00013788,10.841,-0.0001394,-0.59978,0.33306
7058,6.822,0.54545,0.1,0.00041959,4193,0.00041954,4191.6,-0.00013821,0.81755,-0.00013882,-3.7784,0.33199
7059,6.822,0.36364,0.1,0.00041855,4182.6,0.00041838,4177.8,-0.00013763,0.1247,-0.00013893,-9.6471,0.33082
7060,6.822,0.18182,0.1,0.00041763,4173.5,0.00041746,4168.4,-0.00013732,-0.0074891,-0.00013865,-9.9977,0.32956
7061,6.6373,5.8182,0.1,0.00041877,4184.8,0.00041853,4177.7,-0.00013749,-0.017305,-0.00013938,-14.164,0.31155
7062,6.6373,5.6364,0.1,0.00042019,4199,0.00041991,4190.7,-0.00013782,0.11112,-0.00014007,-16.735,0.31282
7063,6.6373,5.4545,0.1,0.0004218,4215.1,0.0004216,4209.2,-0.00013857,0.33334,-0.00014021,-11.997,0.314
7064,6.6373,5.2727,0.1,0.00042346,4231.7,0.00042348,4232.3,-0.00013932,3.668,-0.00014012,-2.375,0.31509
7065,6.6373,5.0909,0.1,0.00042512,4248.2,0.00042548,4259.1,-0.00013839,22.378,-0.00014145,-0.65303,0.31608
7066,6.6373,4.9091,0.1,0.00042674,4264.5,0.00042755,4288.7,-0.00013668,49.287,-0.00014329,-0.42596,0.31698
7067,6.6373,4.7273,0.1,0.00042829,4279.9,0.00042962,4320.1,-0.00013445,81.922,-0.0001454,-0.32992,0.31779
7068,6.6373,4.5455,0.1,0.00042974,4294.5,0.00043164,4352.5,-0.00013184,118.78,-0.00014768,-0.26805,0.31851
7069,6.6373,4.3636,0.1,0.00043109,4307.9,0.00043356,4384.7,-0.00012896,158.19,-0.00015004,-0.21978,0.31915
7070,6.6373,4.1818,0.1,0.0004323,4320.1,0.00043533,4415.7,-0.00012597,198.3,-0.00015238,-0.17885,0.3197
7071,6.6373,4,0.1,0.00043339,4330.9,0.00043693,4444.5,-0.00012303,237.16,-0.00015462,-0.14348,0.32017
7072,6.6373,3.8182,0.1,0.00043433,4340.3,0.00043833,4470.3,-0.00012031,272.9,-0.00015664,-0.1135,0.32055
7073,6.6373,3.6364,0.1,0.00043512,4348.2,0.00043949,4492,-0.00011794,303.75,-0.00015838,-0.089207,0.32086
7074,6.6373,3.4545,0.1,0.00043573,4354.3,0.00044038,4509.1,-0.00011605,328.25,-0.00015975,-0.070923,0.32109
7075,6.6373,3.2727,0.1,0.00043615,4358.5,0.000441,4520.9,-0.00011474,345.23,-0.0001607,-0.058769,0.32124
7076,6.6373,3.0909,0.1,0.00043637,4360.7,0.00044131,4526.8,-0.00011407,353.92,-0.00016118,-0.052721,0.32131
7077,6.6373,2.9091,0.1,0.00043637,4360.7,0.00044131,4526.8,-0.00011407,353.92,-0.00016118,-0.052721,0.32131
7078,6.6373,2.7273,0.1,0.00043615,4358.5,0.000441,4520.9,-0.00011474,345.23,-0.0001607,-0.058769,0.32124
7079,6.6373,2.5455,0.1,0.00043573,4354.3,0.00044038,4509.1,-0.00011605,328.25,-0.00015975,-0.070924,0.32109
7080,6.6373,2.3636,0.1,0.00043512,4348.2,0.00043949,4492,-0.00011794,303.75,-0.00015838,-0.089207,0.32086
7081,6.6373,2.1818,0.1,0.00043433,4340.3,0.00043833,4470.3,-0.00012031,272.9,-0.00015664,-0.1135,0.32055
7082,6.6373,2,0.1,0.00043339,4330.9,0.00043693,4444.5,-0.00012303,237.16,-0.00015462,-0.14348,0.32017
7083,6.6373,1.8182,0.1,0.0004323,4320.1,0.00043533,4415.7,-0.00012597,198.3,-0.00015238,-0.17885,0.3197
7084,6.6373,1.6364,0.1,0.00043109,4307.9,0.00043356,4384.7,-0.00012896,158.19,-0.00015004,-0.21978,0.31915
7085,6.6373,1.4545,0.1,0.00042974,4294.5,0.00043164,4352.5,-0.00013184,118.78,-0.00014768,-0.26805,0.31851
7086,6.6373,1.2727,0.1,0.00042829,4279.9,0.00042962,4320.1,-0.00013445,81.922,-0.0001454,-0.32992,0.31779
7087,6.6373,1.0909,0.1,0.00042674,4264.5,0.00042755,4288.7,-0.00013668,49.287,-0.00014329,-0.42596,0.31698
7088,6.6373,0.90909,0.1,0.00042512,4248.3,0.00042548,4259.1,-0.00013839,22.377,-0.00014145,-0.65304,0.31608
7089,6.6373,0.72727,0.1,0.00042346,4231.7,0.00042348,4232.3,-0.00013932,3.6679,-0.00014012,-2.375,0.31509
7090,6.6373,0.54545,0.1,0.0004218,4215.1,0.0004216,4209.2,-0.00013857,0.33333,-0.00014021,-11.997,0.314
7091,6.6373,0.36364,0.1,0.00042019,4199,0.00041991,4190.7,-0.00013782,0.11112,-0.00014007,-16.735,0.31282
7092,6.6373,0.18182,0.1,0.00041877,4184.8,0.00041853,4177.7,-0.00013749,-0.017306,-0.00013938,-14.164,0.31155
7093,6.4526,5.8182,0.1,0.00041869,4184,0.00041836,4174.3,-0.00013721,-0.026001,-0.00013978,-19.321,0.29383
7094,6.4526,5.6364,0.1,0.00042074,4204.5,0.0004203,4191.8,-0.00013757,0.11965,-0.00014097,-25.412,0.29511
7095,6.4526,5.4545,0.1,0.00042304,4227.5,0.00042266,4216.3,-0.00013846,0.23763,-0.0001415,-22.586,0.2963
7096,6.4526,5.2727,0.1,0.00042546,4251.7,0.00042529,4246.7,-0.00013977,1.0883,-0.00014137,-10.979,0.2974
7097,6.4526,5.0909,0.1,0.00042794,4276.4,0.00042813,4282.1,-0.00014006,12.973,-0.00014199,-1.5457,0.2984
7098,6.4526,4.9091,0.1,0.00043041,4301.1,0.00043109,4321.4,-0.00013853,41.43,-0.00014414,-0.69756,0.29931
7099,6.4526,4.7273,0.1,0.00043284,4325.4,0.00043409,4363.2,-0.00013634,77.253,-0.00014669,-0.48339,0.30013
7100,6.4526,4.5455,0.1,0.00043517,4348.7,0.00043705,4406.4,-0.00013366,118.31,-0.00014946,-0.37352,0.30086
7101,6.4526,4.3636,0.1,0.00043737,4370.7,0.0004399,4449.6,-0.00013065,162.62,-0.00015234,-0.2983,0.3015
7102,6.4526,4.1818,0.1,0.00043941,4391.1,0.00044258,4491.3,-0.00012749,207.98,-0.00015521,-0.23943,0.30206
7103,6.4526,4,0.1,0.00044127,4409.7,0.00044501,4530.2,-0.00012437,252.09,-0.00015794,-0.19115,0.30253
7104,6.4526,3.8182,0.1,0.00044291,4426.1,0.00044716,4565.1,-0.00012145,292.72,-0.00016043,-0.15178,0.30292
7105,6.4526,3.6364,0.1,0.0004443,4439.9,0.00044896,4594.7,-0.00011892,327.8,-0.00016257,-0.12094,0.30323
7106,6.4526,3.4545,0.1,0.00044539,4450.9,0.00045037,4618,-0.00011691,355.63,-0.00016425,-0.098422,0.30346
7107,6.4526,3.2727,0.1,0.00044616,4458.5,0.00045135,4634,-0.00011551,374.89,-0.00016542,-0.083842,0.30361
7108,6.4526,3.0909,0.1,0.00044655,4462.4,0.00045184,4642.2,-0.0001148,384.74,-0.00016601,-0.07672,0.30368
7109,6.4526,2.9091,0.1,0.00044655,4462.4,0.00045184,4642.2,-0.0001148,384.74,-0.00016601,-0.07672,0.30368
7110,6.4526,2.7273,0.1,0.00044616,4458.5,0.00045135,4634,-0.00011551,374.89,-0.00016542,-0.083842,0.30361
7111,6.4526,2.5455,0.1,0.00044539,4450.9,0.00045037,4618,-0.00011691,355.63,-0.00016425,-0.098423,0.30346
7112,6.4526,2.3636,0.1,0.0004443,4439.9,0.00044896,4594.7,-0.00011892,327.8,-0.00016257,-0.12094,0.30323
7113,6.4526,2.1818,0.1,0.00044291,4426.1,0.00044716,4565.1,-0.00012145,292.72,-0.00016043,-0.15179,0.30292
7114,6.4526,2,0.1,0.00044127,4409.7,0.00044501,4530.2,-0.00012437,252.09,-0.00015794,-0.19115,0.30253
7115,6.4526,1.8182,0.1,0.00043941,4391.1,0.00044258,4491.3,-0.00012749,207.98,-0.00015521,-0.23943,0.30206
7116,6.4526,1.6364,0.1,0.00043737,4370.7,0.00043991,4449.6,-0.00013065,162.62,-0.00015234,-0.2983,0.3015
7117,6.4526,1.4545,0.1,0.00043517,4348.7,0.00043705,4406.4,-0.00013366,118.31,-0.00014946,-0.37352,0.30086
7118,6.4526,1.2727,0.1,0.00043284,4325.4,0.00043409,4363.2,-0.00013634,77.253,-0.00014669,-0.48339,0.30013
7119,6.4526,1.0909,0.1,0.00043041,4301.1,0.00043109,4321.4,-0.00013853,41.429,-0.00014414,-0.69756,0.29931
7120,6.4526,0.90909,0.1,0.00042794,4276.4,0.00042813,4282.1,-0.00014006,12.973,-0.00014199,-1.5457,0.2984
7121,6.4526,0.72727,0.1,0.00042546,4251.7,0.00042529,4246.7,-0.00013977,1.0883,-0.00014137,-10.979,0.2974
7122,6.4526,0.54545,0.1,0.00042304,4227.5,0.00042266,4216.3,-0.00013846,0.23763,-0.0001415,-22.586,0.2963
7123,6.4526,0.36364,0.1,0.00042074,4204.5,0.0004203,4191.8,-0.00013757,0.11965,-0.00014097,-25.412,0.29511
7124,6.4526,0.18182,0.1,0.00041869,4184,0.00041836,4174.3,-0.00013721,-0.026002,-0.00013978,-19.321,0.29383
7125,6.2679,5.8182,0.1,0.00041709,4168.1,0.00041665,4155.2,-0.00013637,-0.037012,-0.00013977,-25.585,0.2764
7126,6.2679,5.6364,0.1,0.00041988,4195.9,0.00041927,4178,-0.00013677,0.14014,-0.00014156,-35.79,0.27769
7127,6.2679,5.4545,0.1,0.00042305,4227.6,0.00042244,4209.9,-0.00013783,0.21164,-0.00014257,-35.394,0.2789
7128,6.2679,5.2727,0.1,0.00042643,4261.3,0.00042602,4249.5,-0.00013946,0.69208,-0.00014278,-24.242,0.28
7129,6.2679,5.0909,0.1,0.00042995,4296.5,0.00042992,4295.7,-0.0001412,4.5662,-0.00014262,-6.1136,0.28102
7130,6.2679,4.9091,0.1,0.00043354,4332.4,0.00043404,4347.3,-0.0001404,31.162,-0.00014472,-1.2885,0.28194
7131,6.2679,4.7273,0.1,0.00043713,4368.2,0.00043826,4402.5,-0.00013834,70.084,-0.00014777,-0.74062,0.28277
7132,6.2679,4.5455,0.1,0.00044063,4403.2,0.00044247,4459.6,-0.00013568,115.61,-0.00015114,-0.53258,0.28351
7133,6.2679,4.3636,0.1,0.00044399,4436.8,0.00044656,4516.9,-0.00013261,165.26,-0.00015466,-0.41033,0.28416
7134,6.2679,4.1818,0.1,0.00044715,4468.4,0.00045043,4572.5,-0.00012933,216.45,-0.00015818,-0.32297,0.28472
7135,6.2679,4,0.1,0.00045006,4497.5,0.00045399,4624.6,-0.00012605,266.41,-0.00016154,-0.25549,0.2852
7136,6.2679,3.8182,0.1,0.00045266,4523.5,0.00045716,4671.5,-0.00012299,312.45,-0.0001646,-0.20294,0.28559
7137,6.2679,3.6364,0.1,0.00045488,4545.7,0.00045984,4711.4,-0.00012034,352.17,-0.00016723,-0.16349,0.2859
7138,6.2679,3.4545,0.1,0.00045665,4563.3,0.00046196,4742.9,-0.00011824,383.59,-0.00016931,-0.13586,0.28613
7139,6.2679,3.2727,0.1,0.00045788,4575.7,0.00046343,4764.8,-0.00011679,405.29,-0.00017074,-0.11867,0.28629
7140,6.2679,3.0909,0.1,0.00045852,4582,0.00046418,4775.9,-0.00011605,416.35,-0.00017147,-0.11051,0.28636
7141,6.2679,2.9091,0.1,0.00045852,4582,0.00046418,4775.9,-0.00011605,416.35,-0.00017147,-0.11051,0.28636
7142,6.2679,2.7273,0.1,0.00045788,4575.7,0.00046343,4764.8,-0.00011679,405.29,-0.00017074,-0.11867,0.28629
7143,6.2679,2.5455,0.1,0.00045665,4563.3,0.00046196,4742.9,-0.00011824,383.59,-0.00016931,-0.13586,0.28613
7144,6.2679,2.3636,0.1,0.00045488,4545.7,0.00045984,4711.4,-0.00012034,352.17,-0.00016723,-0.16349,0.2859
7145,6.2679,2.1818,0.1,0.00045266,4523.5,0.00045716,4671.5,-0.00012299,312.45,-0.0001646,-0.20294,0.28559
7146,6.2679,2,0.1,0.00045006,4497.5,0.00045399,4624.6,-0.00012605,266.41,-0.00016154,-0.25549,0.2852
7147,6.2679,1.8182,0.1,0.00044715,4468.4,0.00045043,4572.5,-0.00012933,216.45,-0.00015818,-0.32297,0.28472
7148,6.2679,1.6364,0.1,0.00044399,4436.8,0.00044656,4516.9,-0.00013261,165.26,-0.00015466,-0.41033,0.28416
7149,6.2679,1.4545,0.1,0.00044063,4403.3,0.00044247,4459.6,-0.00013568,115.61,-0.00015114,-0.53258,0.28351
7150,6.2679,1.2727,0.1,0.00043713,4368.2,0.00043826,4402.5,-0.00013834,70.084,-0.00014777,-0.74062,0.28277
7151,6.2679,1.0909,0.1,0.00043354,4332.4,0.00043404,4347.3,-0.0001404,31.162,-0.00014472,-1.2885,0.28194
7152,6.2679,0.90909,0.1,0.00042995,4296.5,0.00042992,4295.7,-0.0001412,4.5661,-0.00014262,-6.1137,0.28102
7153,6.2679,0.72727,0.1,0.00042643,4261.3,0.00042602,4249.5,-0.00013946,0.69207,-0.00014278,-24.242,0.28
7154,6.2679,0.54545,0.1,0.00042305,4227.6,0.00042244,4209.9,-0.00013783,0.21164,-0.00014257,-35.394,0.2789
7155,6.2679,0.36364,0.1,0.00041988,4195.9,0.00041927,4178,-0.00013677,0.14013,-0.00014156,-35.79,0.27769
7156,6.2679,0.18182,0.1,0.00041709,4168.1,0.00041665,4155.2,-0.00013637,-0.037013,-0.00013977,-25.585,0.2764
7157,6.0832,5.8182,0.1,0.00041359,4133,0.00041302,4116.4,-0.00013485,-0.053842,-0.00013924,-33.053,0.25924
7158,6.0832,5.6364,0.1,0.00041726,4169.7,0.00041643,4145.6,-0.0001353,0.16958,-0.0001417,-47.925,0.26055
7159,6.0832,5.4545,0.1,0.00042148,4211.9,0.0004206,4186.5,-0.00013656,0.2151,-0.00014331,-50.475,0.26177
7160,6.0832,5.2727,0.1,0.00042606,4257.6,0.00042537,4237.6,-0.00013854,0.59474,-0.00014401,-40.491,0.2629
7161,6.0832,5.0909,0.1,0.00043092,4306.3,0.00043062,4297.4,-0.00014107,2.0122,-0.00014394,-19.59,0.26393
7162,6.0832,4.9091,0.1,0.00043597,4356.7,0.00043623,4364.5,-0.00014215,18.733,-0.00014505,-3.0055,0.26487
7163,6.0832,4.7273,0.1,0.00044108,4407.7,0.00044204,4436.7,-0.00014049,59.819,-0.00014861,-1.2135,0.26571
7164,6.0832,4.5455,0.1,0.00044613,4458.3,0.00044789,4511.8,-0.00013797,109.91,-0.0001527,-0.78365,0.26646
7165,6.0832,4.3636,0.1,0.00045104,4507.3,0.00045361,4587.4,-0.00013492,165.34,-0.00015701,-0.57461,0.26712
7166,6.0832,4.1818,0.1,0.0004557,4553.8,0.00045907,4661,-0.00013159,222.95,-0.00016132,-0.44018,0.26769
7167,6.0832,4,0.1,0.00046003,4597.1,0.00046414,4730.2,-0.00012824,279.39,-0.00016547,-0.34315,0.26817
7168,6.0832,3.8182,0.1,0.00046393,4636.1,0.00046867,4792.8,-0.0001251,331.39,-0.00016924,-0.27149,0.26857
7169,6.0832,3.6364,0.1,0.0004673,4669.7,0.00047255,4846.3,-0.00012239,376.11,-0.00017248,-0.22042,0.26889
7170,6.0832,3.4545,0.1,0.00046999,4696.7,0.00047563,4888.7,-0.00012027,411.31,-0.00017504,-0.18669,0.26913
7171,6.0832,3.2727,0.1,0.00047188,4715.6,0.00047778,4918.1,-0.00011883,435.49,-0.00017681,-0.16695,0.26928
7172,6.0832,3.0909,0.1,0.00047286,4725.3,0.00047888,4933.2,-0.00011809,447.77,-0.00017771,-0.15804,0.26936
7173,6.0832,2.9091,0.1,0.00047286,4725.3,0.00047888,4933.2,-0.00011809,447.77,-0.00017771,-0.15804,0.26936
7174,6.0832,2.7273,0.1,0.00047188,4715.6,0.00047778,4918.1,-0.00011883,435.49,-0.00017681,-0.16695,0.26928
7175,6.0832,2.5455,0.1,0.00046999,4696.7,0.00047563,4888.7,-0.00012027,411.31,-0.00017504,-0.18669,0.26913
7176,6.0832,2.3636,0.1,0.0004673,4669.7,0.00047255,4846.3,-0.00012239,376.11,-0.00017248,-0.22042,0.26889
7177,6.0832,2.1818,0.1,0.00046393,4636.1,0.00046867,4792.8,-0.0001251,331.39,-0.00016924,-0.27149,0.26857
7178,6.0832,2,0.1,0.00046003,4597.1,0.00046414,4730.2,-0.00012824,279.38,-0.00016547,-0.34315,0.26817
7179,6.0832,1.8182,0.1,0.0004557,4553.8,0.00045907,4661,-0.00013159,222.95,-0.00016132,-0.44018,0.26769
7180,6.0832,1.6364,0.1,0.00045104,4507.3,0.00045361,4587.4,-0.00013492,165.34,-0.00015701,-0.57462,0.26712
7181,6.0832,1.4545,0.1,0.00044613,4458.3,0.00044789,4511.8,-0.00013797,109.91,-0.0001527,-0.78365,0.26646
7182,6.0832,1.2727,0.1,0.00044108,4407.7,0.00044204,4436.7,-0.00014049,59.819,-0.00014861,-1.2135,0.26571
7183,6.0832,1.0909,0.1,0.00043597,4356.7,0.00043623,4364.5,-0.00014215,18.733,-0.00014505,-3.0055,0.26487
7184,6.0832,0.90909,0.1,0.00043092,4306.3,0.00043062,4297.4,-0.00014107,2.0122,-0.00014394,-19.59,0.26393
7185,6.0832,0.72727,0.1,0.00042606,4257.6,0.00042537,4237.6,-0.00013854,0.59474,-0.00014401,-40.491,0.2629
7186,6.0832,0.54545,0.1,0.00042148,4211.9,0.0004206,4186.5,-0.00013656,0.2151,-0.00014331,-50.475,0.26177
7187,6.0832,0.36364,0.1,0.00041726,4169.7,0.00041643,4145.6,-0.0001353,0.16958,-0.0001417,-47.925,0.26055
7188,6.0832,0.18182,0.1,0.00041359,4133,0.00041302,4116.4,-0.00013485,-0.053844,-0.00013924,-33.053,0.25924
7189,5.8985,5.8182,0.1,0.00040773,4074.5,0.000407,4053.4,-0.00013248,-0.080244,-0.00013803,-41.783,0.24237
7190,5.8985,5.6364,0.1,0.00041242,4121.3,0.00041134,4090.2,-0.00013301,0.20699,-0.00014126,-61.759,0.2437
7191,5.8985,5.4545,0.1,0.00041791,4176.2,0.00041671,4142,-0.00013452,0.2398,-0.00014357,-67.808,0.24494
7192,5.8985,5.2727,0.1,0.00042399,4237,0.00042295,4207.1,-0.0001369,0.59032,-0.00014492,-59.684,0.24608
7193,5.8985,5.0909,0.1,0.00043057,4302.7,0.00042992,4284,-0.00014005,1.4628,-0.00014538,-38.57,0.24713
7194,5.8985,4.9091,0.1,0.0004375,4371.9,0.00043745,4370.7,-0.00014322,7.7792,-0.00014561,-10.242,0.24809
7195,5.8985,4.7273,0.1,0.0004446,4443,0.00044532,4464.5,-0.00014278,45.761,-0.00014917,-2.2324,0.24895
7196,5.8985,4.5455,0.1,0.00045171,4514,0.00045331,4562.6,-0.00014061,100.1,-0.0001541,-1.209,0.24971
7197,5.8985,4.3636,0.1,0.00045866,4583.5,0.00046118,4661.7,-0.00013774,161.65,-0.00015936,-0.8256,0.25039
7198,5.8985,4.1818,0.1,0.00046531,4649.9,0.00046874,4758.6,-0.00013448,226.32,-0.00016468,-0.60867,0.25097
7199,5.8985,4,0.1,0.00047154,4712.2,0.00047579,4850.2,-0.00013114,289.94,-0.00016979,-0.46378,0.25147
7200,5.8985,3.8182,0.1,0.0004772,4768.7,0.00048216,4933.2,-0.00012802,348.48,-0.00017445,-0.36327,0.25188
7201,5.8985,3.6364,0.1,0.00048212,4817.8,0.00048765,5004.5,-0.00012538,398.49,-0.00017845,-0.2963,0.2522
7202,5.8985,3.4545,0.1,0.00048608,4857.4,0.00049203,5061.2,-0.00012335,437.51,-0.00018161,-0.25546,0.25245
7203,5.8985,3.2727,0.1,0.00048887,4885.4,0.00049511,5100.7,-0.00012199,464.06,-0.00018379,-0.23374,0.25261
7204,5.8985,3.0909,0.1,0.00049032,4899.9,0.00049669,5121,-0.00012132,477.45,-0.0001849,-0.22482,0.25269
7205,5.8985,2.9091,0.1,0.00049032,4899.9,0.00049669,5121,-0.00012132,477.45,-0.0001849,-0.22482,0.25269
7206,5.8985,2.7273,0.1,0.00048887,4885.4,0.00049511,5100.7,-0.00012199,464.06,-0.00018379,-0.23374,0.25261
7207,5.8985,2.5455,0.1,0.00048608,4857.4,0.00049203,5061.2,-0.00012335,437.51,-0.00018161,-0.25546,0.25245
7208,5.8985,2.3636,0.1,0.00048212,4817.8,0.00048765,5004.5,-0.00012538,398.49,-0.00017845,-0.2963,0.2522
7209,5.8985,2.1818,0.1,0.0004772,4768.7,0.00048216,4933.2,-0.00012802,348.48,-0.00017445,-0.36328,0.25188
7210,5.8985,2,0.1,0.00047154,4712.2,0.00047579,4850.2,-0.00013114,289.94,-0.00016979,-0.46378,0.25147
7211,5.8985,1.8182,0.1,0.00046531,4649.9,0.00046874,4758.6,-0.00013448,226.32,-0.00016468,-0.60867,0.25097
7212,5.8985,1.6364,0.1,0.00045866,4583.5,0.00046118,4661.7,-0.00013774,161.65,-0.00015936,-0.82561,0.25039
7213,5.8985,1.4545,0.1,0.00045171,4514,0.00045331,4562.6,-0.00014061,100.1,-0.0001541,-1.209,0.24971
7214,5.8985,1.2727,0.1,0.0004446,4443,0.00044532,4464.5,-0.00014278,45.76,-0.00014917,-2.2324,0.24895
7215,5.8985,1.0909,0.1,0.0004375,4372,0.00043745,4370.7,-0.00014322,7.7791,-0.00014561,-10.242,0.24809
7216,5.8985,0.90909,0.1,0.00043057,4302.7,0.00042992,4284,-0.00014005,1.4628,-0.00014538,-38.57,0.24713
7217,5.8985,0.72727,0.1,0.00042399,4237,0.00042295,4207.1,-0.0001369,0.59032,-0.00014492,-59.684,0.24608
7218,5.8985,0.54545,0.1,0.00041791,4176.2,0.00041671,4142,-0.00013452,0.2398,-0.00014357,-67.808,0.24494
7219,5.8985,0.36364,0.1,0.00041242,4121.3,0.00041134,4090.2,-0.00013301,0.20699,-0.00014126,-61.759,0.2437
7220,5.8985,0.18182,0.1,0.00040773,4074.5,0.000407,4053.4,-0.00013248,-0.080246,-0.00013803,-41.783,0.24237
7221,5.7138,5.8182,0.1,0.00039897,3987,0.00039807,3960.8,-0.0001291,-0.11961,-0.00013597,-51.755,0.22578
7222,5.7138,5.6364,0.1,0.00040482,4045.4,0.00040345,4006.4,-0.00012973,0.25236,-0.00014002,-77.06,0.22713
7223,5.7138,5.4545,0.1,0.00041182,4115.4,0.00041027,4071.2,-0.00013153,0.28643,-0.00014318,-87.211,0.22839
7224,5.7138,5.2727,0.1,0.00041977,4194.8,0.00041832,4153.5,-0.00013439,0.63934,-0.00014538,-81.89,0.22955
7225,5.7138,5.0909,0.1,0.00042853,4282.3,0.00042746,4251.6,-0.00013822,1.3186,-0.00014665,-62.025,0.23063
7226,5.7138,4.9091,0.1,0.0004379,4376,0.00043745,4363,-0.00014271,3.8399,-0.00014717,-29.639,0.23161
7227,5.7138,4.7273,0.1,0.00044762,4473.1,0.000448,4484.3,-0.00014513,27.758,-0.00014952,-5.2166,0.23249
7228,5.7138,4.5455,0.1,0.00045743,4571.1,0.00045877,4611.8,-0.00014377,84.55,-0.00015529,-2.023,0.23328
7229,5.7138,4.3636,0.1,0.00046708,4667.5,0.00046946,4741.2,-0.00014128,152.34,-0.00016172,-1.2362,0.23397
7230,5.7138,4.1818,0.1,0.00047636,4760.3,0.00047977,4868.3,-0.00013824,224.78,-0.00016827,-0.86216,0.23458
7231,5.7138,4,0.1,0.0004851,4847.7,0.00048945,4988.8,-0.00013506,296.45,-0.0001746,-0.63556,0.23509
7232,5.7138,3.8182,0.1,0.0004931,4927.6,0.00049825,5098.4,-0.00013211,362.14,-0.00018037,-0.48876,0.23551
7233,5.7138,3.6364,0.1,0.0005001,4997.6,0.00050589,5193,-0.00012968,417.63,-0.00018532,-0.39766,0.23585
7234,5.7138,3.4545,0.1,0.00050578,5054.3,0.00051203,5268.5,-0.00012791,460.24,-0.00018921,-0.34806,0.2361
7235,5.7138,3.2727,0.1,0.00050981,5094.6,0.00051635,5321.1,-0.0001268,488.76,-0.00019189,-0.32578,0.23627
7236,5.7138,3.0909,0.1,0.0005119,5115.5,0.00051859,5348.2,-0.00012627,502.97,-0.00019325,-0.31829,0.23635
7237,5.7138,2.9091,0.1,0.0005119,5115.5,0.00051859,5348.2,-0.00012627,502.97,-0.00019325,-0.31829,0.23635
7238,5.7138,2.7273,0.1,0.00050981,5094.6,0.00051635,5321.1,-0.0001268,488.76,-0.00019189,-0.32578,0.23627
7239,5.7138,2.5455,0.1,0.00050578,5054.3,0.00051203,5268.5,-0.00012791,460.24,-0.00018921,-0.34807,0.2361
7240,5.7138,2.3636,0.1,0.0005001,4997.6,0.00050589,5193.1,-0.00012968,417.63,-0.00018532,-0.39766,0.23585
7241,5.7138,2.1818,0.1,0.0004931,4927.6,0.00049825,5098.4,-0.00013211,362.14,-0.00018037,-0.48876,0.23551
7242,5.7138,2,0.1,0.0004851,4847.7,0.00048945,4988.8,-0.00013506,296.45,-0.0001746,-0.63557,0.23509
7243,5.7138,1.8182,0.1,0.00047636,4760.3,0.00047977,4868.3,-0.00013824,224.78,-0.00016827,-0.86216,0.23458
7244,5.7138,1.6364,0.1,0.00046708,4667.5,0.00046946,4741.2,-0.00014128,152.34,-0.00016172,-1.2362,0.23397
7245,5.7138,1.4545,0.1,0.00045743,4571.1,0.00045877,4611.8,-0.00014377,84.55,-0.00015529,-2.023,0.23328
7246,5.7138,1.2727,0.1,0.00044762,4473.1,0.000448,4484.3,-0.00014513,27.758,-0.00014952,-5.2166,0.23249
7247,5.7138,1.0909,0.1,0.0004379,4376,0.00043745,4363,-0.00014271,3.8398,-0.00014717,-29.64,0.23161
7248,5.7138,0.90909,0.1,0.00042853,4282.3,0.00042746,4251.6,-0.00013822,1.3186,-0.00014665,-62.026,0.23063
7249,5.7138,0.72727,0.1,0.00041977,4194.8,0.00041832,4153.5,-0.00013439,0.63933,-0.00014538,-81.891,0.22955
7250,5.7138,0.54545,0.1,0.00041182,4115.4,0.00041027,4071.2,-0.00013153,0.28643,-0.00014318,-87.211,0.22839
7251,5.7138,0.36364,0.1,0.00040482,4045.4,0.00040345,4006.4,-0.00012973,0.25235,-0.00014002,-77.06,0.22713
7252,5.7138,0.18182,0.1,0.00039897,3987,0.00039807,3960.8,-0.0001291,-0.11961,-0.00013597,-51.755,0.22578
7253,5.5291,5.8182,0.1,0.0003867,3864.4,0.00038559,3832.5,-0.0001245,-0.1726,-0.00013284,-62.824,0.20945
7254,5.5291,5.6364,0.1,0.00039381,3935.4,0.00039215,3888.1,-0.00012528,0.30736,-0.00013775,-93.34,0.21083
7255,5.5291,5.4545,0.1,0.00040262,4023.4,0.00040067,3968.3,-0.00012743,0.36104,-0.00014189,-108.28,0.21211
7256,5.5291,5.2727,0.1,0.00041286,4125.7,0.00041094,4071.5,-0.00013084,0.73493,-0.0001452,-107.16,0.21331
7257,5.5291,5.0909,0.1,0.00042439,4241,0.0004228,4195.6,-0.00013543,1.3258,-0.00014765,-90.522,0.21441
7258,5.5291,4.9091,0.1,0.00043692,4366.2,0.00043594,4337.9,-0.00014103,2.7948,-0.00014922,-58.783,0.21542
7259,5.5291,4.7273,0.1,0.00045007,4497.6,0.00044994,4494.1,-0.00014667,11.365,-0.00015061,-18.222,0.21634
7260,5.5291,4.5455,0.1,0.00046342,4631,0.00046436,4659.2,-0.00014762,61.008,-0.00015627,-3.9926,0.21715
7261,5.5291,4.3636,0.1,0.00047662,4762.9,0.00047872,4827.7,-0.0001459,134.49,-0.00016406,-1.987,0.21788
7262,5.5291,4.1818,0.1,0.00048936,4890.3,0.00049265,4993.8,-0.0001433,215.55,-0.00017215,-1.2663,0.2185
7263,5.5291,4,0.1,0.00050142,5010.7,0.00050578,5151.9,-0.00014044,296.42,-0.00018001,-0.88234,0.21904
7264,5.5291,3.8182,0.1,0.00051252,5121.6,0.00051779,5296.2,-0.00013785,370.04,-0.00018718,-0.65633,0.21948
7265,5.5291,3.6364,0.1,0.00052229,5219.3,0.00052827,5421.1,-0.00013587,431.04,-0.00019331,-0.53145,0.21984
7266,5.5291,3.4545,0.1,0.00053027,5299,0.00053675,5520.9,-0.00013461,476.6,-0.0001981,-0.47215,0.2201
7267,5.5291,3.2727,0.1,0.00053595,5355.8,0.00054275,5590.6,-0.00013395,506.22,-0.00020138,-0.45164,0.22028
7268,5.5291,3.0909,0.1,0.00053891,5385.3,0.00054586,5626.5,-0.00013369,520.64,-0.00020304,-0.44796,0.22037
7269,5.5291,2.9091,0.1,0.00053891,5385.3,0.00054586,5626.5,-0.00013369,520.64,-0.00020304,-0.44796,0.22037
7270,5.5291,2.7273,0.1,0.00053595,5355.8,0.00054275,5590.6,-0.00013395,506.22,-0.00020138,-0.45164,0.22028
7271,5.5291,2.5455,0.1,0.00053027,5299,0.00053675,5520.9,-0.00013461,476.6,-0.0001981,-0.47215,0.2201
7272,5.5291,2.3636,0.1,0.00052229,5219.3,0.00052827,5421.1,-0.00013587,431.04,-0.00019331,-0.53145,0.21984
7273,5.5291,2.1818,0.1,0.00051252,5121.6,0.00051779,5296.2,-0.00013785,370.04,-0.00018718,-0.65633,0.21948
7274,5.5291,2,0.1,0.00050142,5010.7,0.00050578,5151.9,-0.00014044,296.42,-0.00018001,-0.88234,0.21904
7275,5.5291,1.8182,0.1,0.00048936,4890.3,0.00049265,4993.8,-0.0001433,215.55,-0.00017215,-1.2663,0.2185
7276,5.5291,1.6364,0.1,0.00047662,4762.9,0.00047872,4827.7,-0.0001459,134.49,-0.00016406,-1.987,0.21788
7277,5.5291,1.4545,0.1,0.00046342,4631,0.00046436,4659.2,-0.00014762,61.008,-0.00015627,-3.9926,0.21715
7278,5.5291,1.2727,0.1,0.00045007,4497.6,0.00044994,4494.1,-0.00014667,11.365,-0.00015061,-18.222,0.21634
7279,5.5291,1.0909,0.1,0.00043692,4366.2,0.00043594,4337.9,-0.00014103,2.7948,-0.00014922,-58.783,0.21542
7280,5.5291,0.90909,0.1,0.00042439,4241,0.0004228,4195.6,-0.00013543,1.3258,-0.00014765,-90.522,0.21441
7281,5.5291,0.72727,0.1,0.00041286,4125.7,0.00041094,4071.5,-0.00013084,0.73493,-0.0001452,-107.16,0.21331
7282,5.5291,0.54545,0.1,0.00040262,4023.4,0.00040067,3968.3,-0.00012743,0.36104,-0.00014189,-108.28,0.21211
7283,5.5291,0.36364,0.1,0.00039381,3935.4,0.00039215,3888.1,-0.00012528,0.30736,-0.00013775,-93.34,0.21083
7284,5.5291,0.18182,0.1,0.0003867,3864.4,0.00038559,3832.5,-0.0001245,-0.1726,-0.00013284,-62.824,0.20945
7285,5.3443,5.8182,0.1,0.00037023,3699.8,0.0003689,3661.7,-0.00011848,-0.23262,-0.00012838,-74.651,0.19339
7286,5.3443,5.6364,0.1,0.00037868,3784.2,0.0003767,3728.3,-0.00011946,0.377,-0.00013412,-109.77,0.19479
7287,5.3443,5.4545,0.1,0.00038958,3893.1,0.00038721,3826.5,-0.00012201,0.47486,-0.00013942,-130.36,0.19611
7288,5.3443,5.2727,0.1,0.00040265,4023.7,0.00040018,3954.6,-0.00012603,0.88126,-0.00014419,-135.59,0.19734
7289,5.3443,5.0909,0.1,0.00041769,4174.1,0.00041544,4110.7,-0.00013147,1.4221,-0.00014833,-125.29,0.19848
7290,5.3443,4.9091,0.1,0.00043432,4340.2,0.0004326,4291.4,-0.00013823,2.4459,-0.00015162,-98.218,0.19953
7291,5.3443,4.7273,0.1,0.00045195,4516.4,0.00045109,4491.7,-0.00014598,5.5253,-0.00015394,-54.289,0.20048
7292,5.3443,4.5455,0.1,0.00046997,4696.5,0.00047025,4705,-0.00015204,29.353,-0.00015754,-11.967,0.20134
7293,5.3443,4.3636,0.1,0.00048783,4875,0.00048944,4924,-0.00015212,103.59,-0.0001664,-3.7098,0.2021
7294,5.3443,4.1818,0.1,0.00050511,5047.7,0.0005081,5140.9,-0.00015027,194.16,-0.00017638,-2.0065,0.20277
7295,5.3443,4,0.1,0.00052151,5211.5,0.00052576,5347.9,-0.00014794,286.01,-0.00018618,-1.2926,0.20334
7296,5.3443,3.8182,0.1,0.00053667,5363,0.00054197,5537.4,-0.00014593,368.71,-0.00019513,-0.91438,0.20381
7297,5.3443,3.6364,0.1,0.0005501,5497.2,0.00055619,5701.4,-0.00014472,435.05,-0.00020271,-0.71401,0.20419
7298,5.3443,3.4545,0.1,0.00056111,5607.2,0.00056774,5832.4,-0.00014432,482.26,-0.00020859,-0.63588,0.20447
7299,5.3443,3.2727,0.1,0.00056896,5685.7,0.00057592,5923.7,-0.00014443,511.35,-0.00021257,-0.62111,0.20466
7300,5.3443,3.0909,0.1,0.00057305,5726.6,0.00058016,5970.6,-0.00014462,524.91,-0.00021456,-0.62431,0.20476
7301,5.3443,2.9091,0.1,0.00057305,5726.6,0.00058016,5970.6,-0.00014462,524.91,-0.00021456,-0.62431,0.20476
7302,5.3443,2.7273,0.1,0.00056896,5685.7,0.00057592,5923.7,-0.00014443,511.35,-0.00021257,-0.62112,0.20466
7303,5.3443,2.5455,0.1,0.00056111,5607.2,0.00056774,5832.4,-0.00014432,482.26,-0.00020859,-0.63588,0.20447
7304,5.3443,2.3636,0.1,0.0005501,5497.2,0.00055619,5701.4,-0.00014472,435.05,-0.00020271,-0.71401,0.20419
7305,5.3443,2.1818,0.1,0.00053667,5363,0.00054197,5537.4,-0.00014593,368.71,-0.00019513,-0.91439,0.20381
7306,5.3443,2,0.1,0.00052151,5211.5,0.00052576,5347.9,-0.00014794,286.01,-0.00018618,-1.2926,0.20334
7307,5.3443,1.8182,0.1,0.00050511,5047.7,0.0005081,5140.9,-0.00015027,194.16,-0.00017638,-2.0065,0.20277
7308,5.3443,1.6364,0.1,0.00048783,4875,0.00048944,4924,-0.00015212,103.59,-0.0001664,-3.7098,0.2021
7309,5.3443,1.4545,0.1,0.00046997,4696.5,0.00047025,4705,-0.00015204,29.352,-0.00015754,-11.967,0.20134
7310,5.3443,1.2727,0.1,0.00045195,4516.4,0.00045109,4491.7,-0.00014598,5.5253,-0.00015394,-54.289,0.20048
7311,5.3443,1.0909,0.1,0.00043432,4340.2,0.0004326,4291.4,-0.00013823,2.4459,-0.00015162,-98.218,0.19953
7312,5.3443,0.90909,0.1,0.00041769,4174.1,0.00041544,4110.7,-0.00013147,1.4221,-0.00014833,-125.29,0.19848
7313,5.3443,0.72727,0.1,0.00040265,4023.7,0.00040018,3954.6,-0.00012603,0.88126,-0.00014419,-135.59,0.19734
7314,5.3443,0.54545,0.1,0.00038958,3893.1,0.00038721,3826.5,-0.00012201,0.47486,-0.00013942,-130.36,0.19611
7315,5.3443,0.36364,0.1,0.00037868,3784.2,0.0003767,3728.3,-0.00011946,0.377,-0.00013412,-109.77,0.19479
7316,5.3443,0.18182,0.1,0.00037023,3699.8,0.0003689,3661.7,-0.00011848,-0.23262,-0.00012838,-74.651,0.19339
7317,5.1596,5.8182,0.1,0.00034882,3485.7,0.00034726,3441.5,-0.00011081,-0.27111,-0.00012231,-86.618,0.17757
7318,5.1596,5.6364,0.1,0.00035863,3583.8,0.00035634,3519.8,-0.00011206,0.4794,-0.00012877,-125.1,0.17901
7319,5.1596,5.4545,0.1,0.00037196,3717,0.00036913,3638.7,-0.00011506,0.65159,-0.00013544,-152.53,0.18037
7320,5.1596,5.2727,0.1,0.00038848,3882.1,0.00038537,3796.2,-0.00011972,1.0929,-0.00014215,-167.44,0.18164
7321,5.1596,5.0909,0.1,0.00040797,4076.9,0.00040487,3990.8,-0.00012606,1.5935,-0.0001487,-168.49,0.18283
7322,5.1596,4.9091,0.1,0.00042988,4295.9,0.00042713,4219,-0.00013407,2.3548,-0.00015461,-152,0.18393
7323,5.1596,4.7273,0.1,0.0004534,4530.9,0.00045142,4474.8,-0.00014362,3.8986,-0.00015929,-113.83,0.18494
7324,5.1596,4.5455,0.1,0.0004776,4772.7,0.00047681,4750,-0.00015411,9.5394,-0.0001626,-54.215,0.18585
7325,5.1596,4.3636,0.1,0.00050161,5012.7,0.00050234,5034.7,-0.00016043,54.897,-0.00016909,-10.217,0.18666
7326,5.1596,4.1818,0.1,0.00052485,5244.9,0.00052722,5318.1,-0.00016013,153.6,-0.00018105,-3.628,0.18737
7327,5.1596,4,0.1,0.00054691,5465.3,0.00055082,5589.3,-0.00015857,259.28,-0.00019333,-1.922,0.18799
7328,5.1596,3.8182,0.1,0.00056739,5670,0.00057254,5837.6,-0.0001574,353.04,-0.00020455,-1.2126,0.1885
7329,5.1596,3.6364,0.1,0.00058557,5851.7,0.00059162,6051.8,-0.00015735,424.32,-0.00021395,-0.94791,0.18892
7330,5.1596,3.4545,0.1,0.00060048,6000.6,0.00060708,6221.7,-0.00015831,470.88,-0.00022109,-0.8568,0.18923
7331,5.1596,3.2727,0.1,0.00061106,6106.4,0.00061798,6339.1,-0.0001596,496.69,-0.00022582,-0.84271,0.18944
7332,5.1596,3.0909,0.1,0.00061656,6161.3,0.0006236,6399,-0.00016048,507.64,-0.00022816,-0.85422,0.18955
7333,5.1596,2.9091,0.1,0.00061656,6161.3,0.0006236,6399,-0.00016048,507.64,-0.00022816,-0.85422,0.18955
7334,5.1596,2.7273,0.1,0.00061106,6106.4,0.00061798,6339.1,-0.0001596,496.69,-0.00022582,-0.84272,0.18944
7335,5.1596,2.5455,0.1,0.00060048,6000.6,0.00060708,6221.7,-0.00015831,470.88,-0.00022109,-0.8568,0.18923
7336,5.1596,2.3636,0.1,0.00058558,5851.7,0.00059162,6051.8,-0.00015735,424.32,-0.00021395,-0.94792,0.18892
7337,5.1596,2.1818,0.1,0.00056739,5670,0.00057254,5837.6,-0.0001574,353.04,-0.00020455,-1.2126,0.1885
7338,5.1596,2,0.1,0.00054691,5465.3,0.00055082,5589.3,-0.00015857,259.28,-0.00019333,-1.922,0.18799
7339,5.1596,1.8182,0.1,0.00052485,5244.9,0.00052722,5318.1,-0.00016013,153.6,-0.00018105,-3.628,0.18737
7340,5.1596,1.6364,0.1,0.00050161,5012.7,0.00050234,5034.7,-0.00016043,54.897,-0.0001691,-10.217,0.18666
7341,5.1596,1.4545,0.1,0.0004776,4772.7,0.00047681,4750,-0.00015411,9.5393,-0.0001626,-54.215,0.18585
7342,5.1596,1.2727,0.1,0.0004534,4530.9,0.00045142,4474.8,-0.00014362,3.8986,-0.00015929,-113.83,0.18494
7343,5.1596,1.0909,0.1,0.00042988,4295.9,0.00042713,4219,-0.00013407,2.3548,-0.00015461,-152,0.18393
7344,5.1596,0.90909,0.1,0.00040797,4076.9,0.00040487,3990.8,-0.00012606,1.5935,-0.0001487,-168.49,0.18283
7345,5.1596,0.72727,0.1,0.00038848,3882.1,0.00038537,3796.2,-0.00011972,1.0929,-0.00014215,-167.44,0.18164
7346,5.1596,0.54545,0.1,0.00037196,3717,0.00036913,3638.7,-0.00011506,0.65159,-0.00013544,-152.53,0.18037
7347,5.1596,0.36364,0.1,0.00035863,3583.8,0.00035634,3519.8,-0.00011206,0.4794,-0.00012877,-125.1,0.17901
7348,5.1596,0.18182,0.1,0.00034882,3485.7,0.00034726,3441.5,-0.00011081,-0.27111,-0.00012231,-86.618,0.17757
7349,4.9749,5.8182,0.1,0.00032173,3215.1,0.00031995,3165,-0.00010131,-0.22516,-0.00011429,-97.757,0.16199
7350,4.9749,5.6364,0.1,0.00033286,3326.3,0.00033031,3255.6,-0.0001029,0.65094,-0.00012131,-137.73,0.16347
7351,4.9749,5.4545,0.1,0.000349,3487.6,0.00034573,3397.9,-0.00010637,0.92241,-0.00012964,-173.9,0.16487
7352,4.9749,5.2727,0.1,0.00036976,3695.1,0.00036589,3589.6,-0.00011168,1.3784,-0.00013897,-203.7,0.1662
7353,4.9749,5.0909,0.1,0.00039486,3945.9,0.0003906,3830,-0.0001189,1.823,-0.00014894,-223.89,0.16745
7354,4.9749,4.9091,0.1,0.00042359,4232.9,0.00041929,4115.8,-0.00012817,2.3968,-0.00015874,-227.33,0.16861
7355,4.9749,4.7273,0.1,0.00045483,4545.2,0.00045105,4440.9,-0.00013955,3.3148,-0.00016725,-204.81,0.16969
7356,4.9749,4.5455,0.1,0.00048724,4869,0.00048462,4795.5,-0.00015292,5.2971,-0.00017341,-148.59,0.17067
7357,4.9749,4.3636,0.1,0.00051947,5191.1,0.00051861,5166.6,-0.0001672,13.701,-0.00017726,-61.857,0.17155
7358,4.9749,4.1818,0.1,0.00055058,5502,0.00055179,5538.7,-0.00017412,84.486,-0.00018668,-9.8751,0.17233
7359,4.9749,4,0.1,0.00058009,5796.9,0.00058326,5895.6,-0.00017387,206.83,-0.00020189,-3.6875,0.17301
7360,4.9749,3.8182,0.1,0.00060747,6070.5,0.00061217,6220.8,-0.00017381,315.27,-0.00021605,-2.0805,0.17358
7361,4.9749,3.6364,0.1,0.0006317,6312.7,0.00063742,6498.4,-0.00017542,390.99,-0.00022764,-1.3065,0.17405
7362,4.9749,3.4545,0.1,0.00065137,6509.2,0.00065763,6714.4,-0.00017835,433.11,-0.00023614,-1.1153,0.1744
7363,4.9749,3.2727,0.1,0.00066513,6646.7,0.00067164,6860.3,-0.00018133,451.46,-0.00024157,-1.1239,0.17464
7364,4.9749,3.0909,0.1,0.00067217,6717,0.00067875,6933.4,-0.00018316,457.28,-0.00024417,-1.1272,0.17476
7365,4.9749,2.9091,0.1,0.00067217,6717,0.00067875,6933.4,-0.00018316,457.28,-0.00024417,-1.1272,0.17476
7366,4.9749,2.7273,0.1,0.00066513,6646.7,0.00067164,6860.3,-0.00018133,451.46,-0.00024157,-1.1239,0.17464
7367,4.9749,2.5455,0.1,0.00065137,6509.2,0.00065763,6714.4,-0.00017835,433.11,-0.00023614,-1.1153,0.1744
7368,4.9749,2.3636,0.1,0.0006317,6312.7,0.00063742,6498.4,-0.00017542,390.99,-0.00022764,-1.3065,0.17405
7369,4.9749,2.1818,0.1,0.00060747,6070.5,0.00061217,6220.8,-0.00017381,315.27,-0.00021605,-2.0805,0.17358
7370,4.9749,2,0.1,0.00058009,5796.9,0.00058326,5895.6,-0.00017387,206.82,-0.00020189,-3.6875,0.17301
7371,4.9749,1.8182,0.1,0.00055058,5502,0.00055179,5538.7,-0.00017412,84.486,-0.00018668,-9.8752,0.17233
7372,4.9749,1.6364,0.1,0.00051947,5191.1,0.00051861,5166.6,-0.0001672,13.701,-0.00017726,-61.857,0.17155
7373,4.9749,1.4545,0.1,0.00048724,4869,0.00048462,4795.5,-0.00015292,5.2971,-0.00017341,-148.59,0.17067
7374,4.9749,1.2727,0.1,0.00045483,4545.2,0.00045105,4440.9,-0.00013955,3.3148,-0.00016725,-204.81,0.16969
7375,4.9749,1.0909,0.1,0.00042359,4232.9,0.00041929,4115.8,-0.00012817,2.3968,-0.00015874,-227.33,0.16861
7376,4.9749,0.90909,0.1,0.00039486,3945.9,0.0003906,3830,-0.0001189,1.823,-0.00014894,-223.89,0.16745
7377,4.9749,0.72727,0.1,0.00036976,3695.1,0.00036589,3589.6,-0.00011168,1.3784,-0.00013897,-203.7,0.1662
7378,4.9749,0.54545,0.1,0.000349,3487.6,0.00034573,3397.9,-0.00010637,0.9224,-0.00012964,-173.9,0.16487
7379,4.9749,0.36364,0.1,0.00033286,3326.3,0.00033031,3255.6,-0.0001029,0.65094,-0.00012131,-137.73,0.16347
7380,4.9749,0.18182,0.1,0.00032173,3215.1,0.00031995,3165,-0.00010131,-0.22517,-0.00011429,-97.757,0.16199
7381,4.7902,5.8182,0.1,0.00028835,2881.5,0.00028638,2826.7,-8.9811e-05,0.1062,-0.00010403,-106.71,0.14662
7382,4.7902,5.6364,0.1,0.00030076,3005.6,0.00029803,2930.4,-9.1843e-05,1.0389,-0.00011142,-146.03,0.14814
7383,4.7902,5.4545,0.1,0.00032025,3200.3,0.00031651,3099.3,-9.579e-05,1.3988,-0.00012184,-194.33,0.1496
7384,4.7902,5.2727,0.1,0.00034623,3459.9,0.00034139,3330.6,-0.00010165,1.7944,-0.00013476,-247.03,0.15099
7385,4.7902,5.0909,0.1,0.00037834,3780.8,0.00037241,3623.9,-0.00010961,2.1564,-0.00014957,-298.07,0.15232
7386,4.7902,4.9091,0.1,0.00041572,4154.4,0.00040902,3977.4,-0.00012,2.5996,-0.00016504,-335.82,0.15356
7387,4.7902,4.7273,0.1,0.00045707,4567.5,0.00045027,4387,-0.00013318,3.1897,-0.00017944,-344.37,0.15473
7388,4.7902,4.5455,0.1,0.00050051,5001.6,0.00049465,4843.4,-0.0001494,4.2978,-0.00019073,-306.21,0.15581
7389,4.7902,4.3636,0.1,0.00054388,5435,0.00054009,5330,-0.00016836,7.0012,-0.0001973,-210.46,0.15678
7390,4.7902,4.1818,0.1,0.00058566,5852.5,0.00058465,5823.9,-0.00018812,17.677,-0.00020029,-73.743,0.15766
7391,4.7902,4,0.1,0.00062499,6245.6,0.00062674,6298.7,-0.00019613,115.98,-0.00021263,-8.0193,0.15842
7392,4.7902,3.8182,0.1,0.00066136,6609,0.00066514,6726.7,-0.00019761,244.44,-0.00023042,-2.0875,0.15907
7393,4.7902,3.6364,0.1,0.00069313,6926.5,0.00069803,7081.6,-0.00020143,323.47,-0.00024472,-1.8228,0.15961
7394,4.7902,3.4545,0.1,0.00071802,7175.2,0.00072337,7345.5,-0.00020695,355.42,-0.00025446,-1.5596,0.16002
7395,4.7902,3.2727,0.1,0.00073469,7341.8,0.00074013,7514.8,-0.000212,360.87,-0.00026022,-1.4065,0.16029
7396,4.7902,3.0909,0.1,0.0007429,7423.9,0.00074833,7596.1,-0.00021489,358.83,-0.00026283,-1.3976,0.16044
7397,4.7902,2.9091,0.1,0.0007429,7423.9,0.00074833,7596.1,-0.00021489,358.83,-0.00026283,-1.3976,0.16044
7398,4.7902,2.7273,0.1,0.00073469,7341.8,0.00074013,7514.8,-0.000212,360.87,-0.00026022,-1.4065,0.16029
7399,4.7902,2.5455,0.1,0.00071802,7175.2,0.00072337,7345.5,-0.00020695,355.42,-0.00025446,-1.5596,0.16002
7400,4.7902,2.3636,0.1,0.00069313,6926.5,0.00069803,7081.6,-0.00020143,323.47,-0.00024472,-1.8228,0.15961
7401,4.7902,2.1818,0.1,0.00066136,6609,0.00066514,6726.7,-0.00019761,244.44,-0.00023042,-2.0875,0.15907
7402,4.7902,2,0.1,0.00062499,6245.6,0.00062674,6298.7,-0.00019613,115.97,-0.00021263,-8.0194,0.15842
7403,4.7902,1.8182,0.1,0.00058566,5852.5,0.00058465,5823.9,-0.00018812,17.677,-0.00020029,-73.744,0.15766
7404,4.7902,1.6364,0.1,0.00054388,5435,0.00054009,5330,-0.00016836,7.0012,-0.0001973,-210.46,0.15678
7405,4.7902,1.4545,0.1,0.00050051,5001.6,0.00049465,4843.4,-0.0001494,4.2978,-0.00019073,-306.21,0.1558
7406,4.7902,1.2727,0.1,0.00045707,4567.5,0.00045027,4387,-0.00013318,3.1897,-0.00017944,-344.37,0.15473
7407,4.7902,1.0909,0.1,0.00041572,4154.4,0.00040902,3977.4,-0.00012,2.5996,-0.00016504,-335.82,0.15356
7408,4.7902,0.90909,0.1,0.00037834,3780.8,0.00037241,3623.9,-0.00010961,2.1564,-0.00014957,-298.07,0.15232
7409,4.7902,0.72727,0.1,0.00034623,3459.9,0.00034139,3330.6,-0.00010165,1.7944,-0.00013476,-247.03,0.15099
7410,4.7902,0.54545,0.1,0.00032025,3200.3,0.00031651,3099.3,-9.579e-05,1.3988,-0.00012184,-194.33,0.1496
7411,4.7902,0.36364,0.1,0.00030076,3005.6,0.00029803,2930.4,-9.1843e-05,1.0389,-0.00011142,-146.03,0.14814
7412,4.7902,0.18182,0.1,0.00028835,2881.5,0.00028638,2826.7,-8.9811e-05,0.10619,-0.00010403,-106.71,0.14662
7413,4.6055,5.8182,0.1,0.00024826,2480.9,0.00024618,2423.5,-7.6235e-05,0.98089,-9.1263e-05,-111.93,0.13144
7414,4.6055,5.6364,0.1,0.00026216,2619.8,0.00025932,2542.7,-7.8851e-05,1.7935,-9.8981e-05,-149.45,0.13301
7415,4.6055,5.4545,0.1,0.00028593,2857.4,0.00028166,2743.8,-8.3252e-05,2.0615,-0.00011235,-216.54,0.13453
7416,4.6055,5.2727,0.1,0.00031849,3182.7,0.00031224,3020.6,-8.948e-05,2.1988,-0.00013027,-304.3,0.136
7417,4.6055,5.0909,0.1,0.00035921,3589.7,0.00035069,3372.4,-9.7839e-05,2.379,-0.00015172,-402.47,0.13741
7418,4.6055,4.9091,0.1,0.0004073,4070.2,0.00039663,3801.1,-0.00010891,2.6572,-0.00017515,-495.04,0.13877
7419,4.6055,4.7273,0.1,0.00046156,4612.5,0.00044953,4308.8,-0.00012349,3.3282,-0.00019834,-559.06,0.14005
7420,4.6055,4.5455,0.1,0.00051999,5196.3,0.00050813,4893,-0.00014252,4.2923,-0.00021817,-564.07,0.14125
7421,4.6055,4.3636,0.1,0.00057952,5791.2,0.00056994,5538.8,-0.00016677,3.5035,-0.00023087,-478.16,0.14236
7422,4.6055,4.1818,0.1,0.00063624,6358,0.00063082,6209.1,-0.00019463,6.9841,-0.0002347,-294.09,0.14336
7423,4.6055,4,0.1,0.00068944,6889.6,0.00068827,6856.2,-0.00022223,15.125,-0.000235,-80.868,0.14424
7424,4.6055,3.8182,0.1,0.00073753,7370.2,0.00073933,7425,-0.00023274,121.19,-0.00025018,-9.8278,0.145
7425,4.6055,3.6364,0.1,0.00077736,7768.2,0.00078059,7867.3,-0.00023932,203.99,-0.00026672,-1.8552,0.14563
7426,4.6055,3.4545,0.1,0.00080622,8056.6,0.00080968,8162.6,-0.00024761,218.6,-0.00027698,-2.0297,0.14612
7427,4.6055,3.2727,0.1,0.00082344,8228.7,0.00082673,8329.3,-0.00025429,206.95,-0.00028207,-1.753,0.14645
7428,4.6055,3.0909,0.1,0.00083116,8305.9,0.0008343,8401.5,-0.00025775,196.24,-0.00028407,-1.4968,0.14662
7429,4.6055,2.9091,0.1,0.00083116,8305.9,0.0008343,8401.5,-0.00025775,196.24,-0.00028407,-1.4968,0.14662
7430,4.6055,2.7273,0.1,0.00082344,8228.7,0.00082673,8329.3,-0.00025429,206.95,-0.00028207,-1.753,0.14645
7431,4.6055,2.5455,0.1,0.00080622,8056.6,0.00080968,8162.6,-0.00024761,218.6,-0.00027698,-2.0297,0.14612
7432,4.6055,2.3636,0.1,0.00077736,7768.2,0.00078059,7867.3,-0.00023932,203.99,-0.00026672,-1.8552,0.14563
7433,4.6055,2.1818,0.1,0.00073753,7370.2,0.00073933,7425,-0.00023274,121.19,-0.00025018,-9.8278,0.145
7434,4.6055,2,0.1,0.00068944,6889.6,0.00068827,6856.2,-0.00022223,15.125,-0.000235,-80.868,0.14424
7435,4.6055,1.8182,0.1,0.00063624,6358,0.00063082,6209.1,-0.00019463,6.9841,-0.0002347,-294.09,0.14336
7436,4.6055,1.6364,0.1,0.00057952,5791.2,0.00056994,5538.8,-0.00016677,3.5035,-0.00023087,-478.16,0.14236
7437,4.6055,1.4545,0.1,0.00051999,5196.3,0.00050813,4893,-0.00014252,4.2923,-0.00021817,-564.07,0.14125
7438,4.6055,1.2727,0.1,0.00046157,4612.5,0.00044953,4308.8,-0.00012349,3.3282,-0.00019834,-559.06,0.14005
7439,4.6055,1.0909,0.1,0.0004073,4070.2,0.00039663,3801.1,-0.00010891,2.6572,-0.00017515,-495.04,0.13877
7440,4.6055,0.90909,0.1,0.00035921,3589.7,0.00035069,3372.4,-9.7839e-05,2.379,-0.00015172,-402.47,0.13741
7441,4.6055,0.72727,0.1,0.00031849,3182.7,0.00031224,3020.6,-8.948e-05,2.1988,-0.00013027,-304.3,0.136
7442,4.6055,0.54545,0.1,0.00028593,2857.4,0.00028166,2743.8,-8.3252e-05,2.0615,-0.00011235,-216.54,0.13453
7443,4.6055,0.36364,0.1,0.00026216,2619.8,0.00025932,2542.7,-7.8851e-05,1.7935,-9.8981e-05,-149.45,0.13301
7444,4.6055,0.18182,0.1,0.00024826,2480.9,0.00024618,2423.5,-7.6235e-05,0.98089,-9.1263e-05,-111.93,0.13144
7445,4.4208,5.8182,0.1,0.00020146,2013.2,0.00019937,1956.7,-6.0528e-05,3.908,-7.5948e-05,-111.95,0.11642
7446,4.4208,5.6364,0.1,0.00021799,2178.4,0.00021507,2100.5,-6.3952e-05,4.087,-8.4665e-05,-151.54,0.11804
7447,4.4208,5.4545,0.1,0.00024807,2478.9,0.00024288,2345.6,-6.8818e-05,3.5899,-0.00010267,-250.74,0.11963
7448,4.4208,5.2727,0.1,0.00028909,2888.9,0.00028048,2675,-7.5114e-05,3.2044,-0.00012753,-390.64,0.12119
7449,4.4208,5.0909,0.1,0.00033995,3397.2,0.0003271,3086.5,-8.327e-05,3.1615,-0.0001576,-555.31,0.12271
7450,4.4208,4.9091,0.1,0.00040041,4001.3,0.00038303,3588.7,-9.4099e-05,3.6972,-0.00019148,-727.96,0.12419
7451,4.4208,4.7273,0.1,0.00047047,4701.5,0.00044918,4198.5,-0.00010904,4.2336,-0.00022721,-883.64,0.12562
7452,4.4208,4.5455,0.1,0.00054978,5494,0.00052645,4938.3,-0.00013016,4.7734,-0.00026154,-982.36,0.12699
7453,4.4208,4.3636,0.1,0.00063279,6323.6,0.00061151,5804.2,-0.00015904,14.657,-0.00028661,-943.84,0.12827
7454,4.4208,4.1818,0.1,0.00071377,7132.8,0.0006992,6757.1,-0.00019875,10.26,-0.00029428,-707.5,0.12945
7455,4.4208,4,0.1,0.00078745,7869.1,0.000781,7693.2,-0.00023981,23.213,-0.00029093,-360.85,0.1305
7456,4.4208,3.8182,0.1,0.00085013,8495.5,0.00084881,8457.6,-0.00027483,15.031,-0.00028877,-89.747,0.13141
7457,4.4208,3.6364,0.1,0.00089795,8973.3,0.00089787,8971.1,-0.00029512,7.4147,-0.00029768,-11.866,0.13218
7458,4.4208,3.4545,0.1,0.00092308,9224.5,0.00092299,9221.9,-0.00030298,10.356,-0.00030642,-15.48,0.13277
7459,4.4208,3.2727,0.1,0.00093332,9326.8,0.00093285,9313.1,-0.00030642,1.7483,-0.0003105,-28.924,0.13318
7460,4.4208,3.0909,0.1,0.00093632,9356.8,0.00093563,9336.6,-0.00030712,-0.90888,-0.00031222,-39.26,0.13338
7461,4.4208,2.9091,0.1,0.00093632,9356.8,0.00093563,9336.6,-0.00030712,-0.90888,-0.00031222,-39.259,0.13338
7462,4.4208,2.7273,0.1,0.00093332,9326.8,0.00093285,9313.1,-0.00030642,1.7484,-0.0003105,-28.924,0.13318
7463,4.4208,2.5455,0.1,0.00092308,9224.5,0.00092299,9221.9,-0.00030298,10.356,-0.00030642,-15.48,0.13277
7464,4.4208,2.3636,0.1,0.00089795,8973.3,0.00089787,8971.1,-0.00029512,7.4148,-0.00029768,-11.866,0.13218
7465,4.4208,2.1818,0.1,0.00085013,8495.5,0.00084882,8457.6,-0.00027483,15.031,-0.00028877,-89.747,0.13141
7466,4.4208,2,0.1,0.00078745,7869.1,0.000781,7693.2,-0.00023981,23.213,-0.00029093,-360.85,0.1305
7467,4.4208,1.8182,0.1,0.00071378,7132.8,0.0006992,6757.1,-0.00019875,10.26,-0.00029428,-707.5,0.12945
7468,4.4208,1.6364,0.1,0.00063279,6323.6,0.00061151,5804.2,-0.00015904,14.657,-0.00028661,-943.84,0.12827
7469,4.4208,1.4545,0.1,0.00054978,5494,0.00052645,4938.3,-0.00013016,4.7734,-0.00026154,-982.36,0.12699
7470,4.4208,1.2727,0.1,0.00047047,4701.5,0.00044918,4198.5,-0.00010904,4.2336,-0.00022721,-883.64,0.12562
7471,4.4208,1.0909,0.1,0.00040041,4001.3,0.00038303,3588.7,-9.4099e-05,3.6972,-0.00019148,-727.96,0.12419
7472,4.4208,0.90909,0.1,0.00033995,3397.2,0.0003271,3086.5,-8.327e-05,3.1615,-0.0001576,-555.31,0.12271
7473,4.4208,0.72727,0.1,0.00028909,2888.9,0.00028048,2675,-7.5114e-05,3.2044,-0.00012753,-390.64,0.12119
7474,4.4208,0.54545,0.1,0.00024807,2478.9,0.00024288,2345.6,-6.8818e-05,3.5899,-0.00010267,-250.74,0.11963
7475,4.4208,0.36364,0.1,0.00021799,2178.4,0.00021507,2100.5,-6.3952e-05,4.087,-8.4665e-05,-151.54,0.11804
7476,4.4208,0.18182,0.1,0.00020146,2013.2,0.00019937,1956.7,-6.0528e-05,3.9079,-7.5948e-05,-111.95,0.11642
7477,4.2361,5.8182,0.1,0.0001491,1490,0.00014698,1434.7,-4.2831e-05,8.5601,-5.8847e-05,-111.78,0.10152
7478,4.2361,5.6364,0.1,0.00017256,1724.4,0.00016901,1633.6,-4.766e-05,5.6606,-7.1467e-05,-173.22,0.1032
7479,4.2361,5.4545,0.1,0.00021302,2128.8,0.0002055,1945.7,-5.3044e-05,3.1033,-9.7376e-05,-329.99,0.10486
7480,4.2361,5.2727,0.1,0.00026468,2644.9,0.00025128,2333,-5.9009e-05,1.5741,-0.00013126,-541.28,0.10652
7481,4.2361,5.0909,0.1,0.00032645,3262.3,0.00030577,2795.4,-6.6143e-05,1.014,-0.00017134,-789.41,0.10817
7482,4.2361,4.9091,0.1,0.00039969,3994.2,0.00037072,3353,-7.5462e-05,0.54657,-0.00021744,-1066.2,0.1098
7483,4.2361,4.7273,0.1,0.00048774,4874,0.00044997,4046.6,-8.8466e-05,0.99229,-0.00027022,-1364.6,0.11142
7484,4.2361,4.5455,0.1,0.00059318,5927.7,0.00054796,4934.9,-0.00010856,2.1418,-0.00032726,-1641.1,0.113
7485,4.2361,4.3636,0.1,0.00072014,7196.4,0.000672,6116.4,-0.00014246,-3.1152,-0.00038318,-1811.8,0.11452
7486,4.2361,4.1818,0.1,0.00085719,8566,0.00081668,7608.6,-0.00019754,-11.913,-0.00041725,-1662.7,0.11594
7487,4.2361,4,0.1,0.00095937,9587.1,0.00093909,9044.2,-0.00027764,-97.831,-0.00038882,-933.26,0.11724
7488,4.2361,3.8182,0.1,0.0010449,10442,0.0010359,10188,-0.00032633,-46.672,-0.00037975,-448.05,0.11837
7489,4.2361,3.6364,0.1,0.0010755,10747,0.0010697,10585,-0.00033752,11.867,-0.00038279,-328.21,0.11931
7490,4.2361,3.4545,0.1,0.0010731,10723,0.001067,10552,-0.00033742,-0.04924,-0.00038194,-334.51,0.12004
7491,4.2361,3.2727,0.1,0.0010592,10585,0.0010532,10416,-0.00033304,0.42292,-0.00037701,-330.01,0.12053
7492,4.2361,3.0909,0.1,0.0010502,10495,0.0010442,10327,-0.00033017,0.0063972,-0.00037386,-328.27,0.12078
7493,4.2361,2.9091,0.1,0.0010502,10495,0.0010442,10327,-0.00033017,0.0063976,-0.00037386,-328.27,0.12078
7494,4.2361,2.7273,0.1,0.0010592,10585,0.0010532,10416,-0.00033304,0.42293,-0.00037701,-330,0.12053
7495,4.2361,2.5455,0.1,0.0010731,10723,0.001067,10552,-0.00033742,-0.049234,-0.00038194,-334.51,0.12004
7496,4.2361,2.3636,0.1,0.0010755,10747,0.0010697,10585,-0.00033753,11.867,-0.00038279,-328.21,0.11931
7497,4.2361,2.1818,0.1,0.0010449,10442,0.0010359,10188,-0.00032633,-46.672,-0.00037975,-448.05,0.11837
7498,4.2361,2,0.1,0.00095937,9587.1,0.0009391,9044.2,-0.00027764,-97.831,-0.00038882,-933.26,0.11724
7499,4.2361,1.8182,0.1,0.00085719,8566,0.00081668,7608.6,-0.00019754,-11.913,-0.00041725,-1662.7,0.11594
7500,4.2361,1.6364,0.1,0.00072014,7196.4,0.000672,6116.5,-0.00014246,-3.1153,-0.00038318,-1811.8,0.11452
7501,4.2361,1.4545,0.1,0.00059318,5927.7,0.00054796,4934.9,-0.00010856,2.1418,-0.00032726,-1641.1,0.113
7502,4.2361,1.2727,0.1,0.00048774,4874,0.00044997,4046.6,-8.8466e-05,0.99228,-0.00027022,-1364.6,0.11142
7503,4.2361,1.0909,0.1,0.00039969,3994.2,0.00037072,3353,-7.5462e-05,0.54657,-0.00021744,-1066.2,0.1098
7504,4.2361,0.90909,0.1,0.00032645,3262.3,0.00030577,2795.4,-6.6143e-05,1.014,-0.00017134,-789.41,0.10817
7505,4.2361,0.72727,0.1,0.00026468,2644.9,0.00025128,2333,-5.9009e-05,1.5741,-0.00013126,-541.28,0.10652
7506,4.2361,0.54545,0.1,0.00021302,2128.8,0.0002055,1945.7,-5.3044e-05,3.1033,-9.7376e-05,-329.99,0.10486
7507,4.2361,0.36364,0.1,0.00017256,1724.4,0.00016901,1633.6,-4.766e-05,5.6606,-7.1467e-05,-173.22,0.1032
7508,4.2361,0.18182,0.1,0.0001491,1490,0.00014698,1434.7,-4.2831e-05,8.5601,-5.8847e-05,-111.78,0.10152
7509,4.0514,5.8182,0.1,9.9103e-05,990.35,9.5769e-05,916.35,-2.2407e-05,28.426,-4.6379e-05,-151.69,0.086706
7510,4.0514,5.6364,0.1,0.00014445,1443.5,0.00013661,1267,-3.0151e-05,13.991,-7.3473e-05,-311.51,0.088438
7511,4.0514,5.4545,0.1,0.00020207,2019.3,0.00018633,1678.7,-3.567e-05,10.659,-0.00011245,-566.24,0.090182
7512,4.0514,5.2727,0.1,0.00026722,2670.4,0.00024145,2128.6,-4.0588e-05,9.4902,-0.00015774,-870.75,0.091945
7513,4.0514,5.0909,0.1,0.00034182,3415.8,0.00030399,2636.8,-4.5687e-05,9.475,-0.00020993,-1224.6,0.09373
7514,4.0514,4.9091,0.1,0.00043001,4297.2,0.00037778,3238,-5.1569e-05,11.969,-0.00027144,-1640.1,0.095539
7515,4.0514,4.7273,0.1,0.00053914,5387.7,0.00046949,3987.4,-5.987e-05,10.037,-0.00034656,-2144,0.097368
7516,4.0514,4.5455,0.1,0.00068188,6814.1,0.00059119,5008.4,-7.1082e-05,32.349,-0.00044244,-2757.9,0.099212
7517,4.0514,4.3636,0.1,0.00088829,8876.8,0.00076942,6487.4,-9.6004e-05,-15.056,-0.00057656,-3625.8,0.10105
7518,4.0514,4.1818,0.1,0.0011942,11934,0.0010699,9413.7,-0.0001575,191.3,-0.00072391,-4064.5,0.10285
7519,4.0514,4,0.1,0.0014419,14409,0.0013795,13159,-0.00027346,738.85,-0.00072303,-2639,0.10452
7520,4.0514,3.8182,0.1,0.0014116,14106,0.0013907,13551,-0.0004119,6.6702,-0.00055347,-1057,0.10597
7521,4.0514,3.6364,0.1,0.0013335,13326,0.0013166,12873,-0.00039371,22.844,-0.00051409,-881.67,0.10715
7522,4.0514,3.4545,0.1,0.0012369,12361,0.0012231,11984,-0.00037257,-5.4669,-0.0004674,-718,0.10802
7523,4.0514,3.2727,0.1,0.0011798,11790,0.0011676,11458,-0.00035672,4.0784,-0.00044284,-643.01,0.1086
7524,4.0514,3.0909,0.1,0.0011527,11519,0.0011412,11205,-0.00035004,0.44855,-0.00043046,-603.79,0.10888
7525,4.0514,2.9091,0.1,0.0011527,11519,0.0011412,11205,-0.00035004,0.44855,-0.00043046,-603.79,0.10888
7526,4.0514,2.7273,0.1,0.0011798,11790,0.0011676,11458,-0.00035672,4.0784,-0.00044284,-643,0.1086
7527,4.0514,2.5455,0.1,0.0012369,12361,0.0012231,11984,-0.00037257,-5.4669,-0.0004674,-718,0.10802
7528,4.0514,2.3636,0.1,0.0013335,13326,0.0013166,12873,-0.00039371,22.844,-0.00051409,-881.67,0.10715
7529,4.0514,2.1818,0.1,0.0014116,14106,0.0013907,13551,-0.0004119,6.6702,-0.00055347,-1057,0.10597
7530,4.0514,2,0.1,0.0014419,14409,0.0013795,13159,-0.00027346,738.85,-0.00072303,-2639,0.10452
7531,4.0514,1.8182,0.1,0.0011942,11934,0.0010699,9413.7,-0.0001575,191.3,-0.00072391,-4064.5,0.10285
7532,4.0514,1.6364,0.1,0.00088829,8876.8,0.00076942,6487.4,-9.6004e-05,-15.056,-0.00057656,-3625.8,0.10105
7533,4.0514,1.4545,0.1,0.00068188,6814.1,0.00059119,5008.4,-7.1082e-05,32.349,-0.00044244,-2757.9,0.099212
7534,4.0514,1.2727,0.1,0.00053914,5387.7,0.00046949,3987.4,-5.987e-05,10.037,-0.00034656,-2144,0.097368
7535,4.0514,1.0909,0.1,0.00043001,4297.2,0.00037778,3238,-5.1569e-05,11.969,-0.00027144,-1640.1,0.095539
7536,4.0514,0.90909,0.1,0.00034182,3415.8,0.00030399,2636.8,-4.5687e-05,9.475,-0.00020993,-1224.6,0.09373
7537,4.0514,0.72727,0.1,0.00026722,2670.4,0.00024145,2128.6,-4.0588e-05,9.4902,-0.00015774,-870.75,0.091945
7538,4.0514,0.54545,0.1,0.00020207,2019.3,0.00018633,1678.7,-3.567e-05,10.659,-0.00011245,-566.24,0.090182
7539,4.0514,0.36364,0.1,0.00014445,1443.5,0.00013661,1267,-3.0151e-05,13.991,-7.3473e-05,-311.51,0.088438
7540,4.0514,0.18182,0.1,9.9103e-05,990.35,9.5769e-05,916.35,-2.2407e-05,28.426,-4.6379e-05,-151.69,0.086706
7541,0.185,0.18182,0.1,0.00041448,4142,0.0004081,3976.7,-0.00011793,24.336,-0.00016533,-331.82,9.3946e-05
7542,0.185,0.36364,0.1,0.00046464,4643.2,0.00045031,4571.3,-4.535e-05,847.12,-0.00024207,-630.97,0.00014465
7543,0.185,0.54545,0.1,0.00053044,5300.7,0.00050893,5256.5,-2.0537e-05,1278.2,-0.00029196,-761.09,0.00017391
7544,0.185,0.72727,0.1,0.00058152,5811.2,0.00055566,5777,-1.0404e-05,1523.8,-0.00032558,-844.34,0.00019232
7545,0.185,0.90909,0.1,0.00061943,6190,0.00059114,6165,-6.0957e-06,1677.6,-0.00034872,-896.78,0.00020481
7546,0.185,1.0909,0.1,0.0006476,6471.5,0.00061774,6453.3,-3.88e-06,1782.7,-0.00036541,-933.66,0.00021363
7547,0.185,1.2727,0.1,0.00066868,6682.2,0.00063778,6669.9,-2.6343e-06,1858.1,-0.00037765,-959.61,0.00022
7548,0.185,1.4545,0.1,0.00068453,6840.6,0.00065292,6833.4,-1.8618e-06,1913.6,-0.00038674,-978.17,0.00022463
7549,0.185,1.6364,0.1,0.00069644,6959.6,0.00066434,6956.9,-1.349e-06,1955.1,-0.0003935,-991.34,0.00022799
7550,0.185,1.8182,0.1,0.00070535,7048.6,0.0006729,7049.7,-9.8828e-07,1986.3,-0.00039852,-1000.6,0.00023041
7551,0.185,2,0.1,0.00071193,7114.4,0.00067925,7118.8,-7.2431e-07,2009.7,-0.00040221,-1006.9,0.00023212
7552,0.185,2.1818,0.1,0.00071672,7162.2,0.00068389,7169.4,-5.2713e-07,2027,-0.00040487,-1011.1,0.00023331
7553,0.185,2.3636,0.1,0.00072011,7196.1,0.00068718,7205.6,-3.8045e-07,2039.5,-0.00040674,-1013.7,0.0002341
7554,0.185,2.5455,0.1,0.0007224,7219,0.00068941,7230.2,-2.7541e-07,2048.2,-0.000408,-1015.3,0.00023461
7555,0.185,2.7273,0.1,0.00072381,7233.1,0.00069079,7245.5,-2.0731e-07,2053.6,-0.00040877,-1016.2,0.00023491
7556,0.185,2.9091,0.1,0.00072448,7239.8,0.00069145,7252.8,-1.7375e-07,2056.2,-0.00040914,-1016.6,0.00023505
7557,0.185,3.0909,0.1,0.00072448,7239.8,0.00069145,7252.8,-1.7375e-07,2056.2,-0.00040914,-1016.6,0.00023505
7558,0.185,3.2727,0.1,0.00072381,7233.1,0.00069079,7245.5,-2.073e-07,2053.6,-0.00040877,-1016.2,0.00023491
7559,0.185,3.4545,0.1,0.0007224,7219,0.00068941,7230.2,-2.7541e-07,2048.2,-0.000408,-1015.3,0.00023461
7560,0.185,3.6364,0.1,0.00072011,7196.1,0.00068718,7205.6,-3.8044e-07,2039.5,-0.00040674,-1013.7,0.0002341
7561,0.185,3.8182,0.1,0.00071672,7162.2,0.00068389,7169.4,-5.2712e-07,2027,-0.00040487,-1011.1,0.00023331
7562,0.185,4,0.1,0.00071193,7114.4,0.00067925,7118.8,-7.243e-07,2009.7,-0.00040221,-1006.9,0.00023212
7563,0.185,4.1818,0.1,0.00070535,7048.6,0.0006729,7049.7,-9.8827e-07,1986.3,-0.00039852,-1000.6,0.00023041
7564,0.185,4.3636,0.1,0.00069644,6959.6,0.00066434,6956.9,-1.349e-06,1955.1,-0.0003935,-991.34,0.00022799
7565,0.185,4.5455,0.1,0.00068453,6840.6,0.00065292,6833.4,-1.8618e-06,1913.6,-0.00038674,-978.17,0.00022463
7566,0.185,4.7273,0.1,0.00066868,6682.2,0.00063778,6669.9,-2.6343e-06,1858.1,-0.00037765,-959.61,0.00022
7567,0.185,4.9091,0.1,0.0006476,6471.5,0.00061774,6453.3,-3.88e-06,1782.7,-0.00036541,-933.66,0.00021363
7568,0.185,5.0909,0.1,0.00061943,6190,0.00059114,6165,-6.0956e-06,1677.6,-0.00034872,-896.78,0.00020481
7569,0.185,5.2727,0.1,0.00058152,5811.1,0.00055566,5777,-1.0404e-05,1523.8,-0.00032558,-844.34,0.00019232
7570,0.185,5.4545,0.1,0.00053044,5300.7,0.00050893,5256.5,-2.0537e-05,1278.2,-0.00029196,-761.09,0.00017391
7571,0.185,5.6364,0.1,0.00046464,4643.2,0.00045031,4571.3,-4.535e-05,847.12,-0.00024207,-630.97,0.00014465
7572,0.185,5.8182,0.1,0.00041448,4142,0.0004081,3976.7,-0.00011793,24.336,-0.00016533,-331.82,9.3946e-05
7573,0.37,0.18182,0.1,0.00050581,5054.6,0.00050592,5061.5,-0.00015573,90.168,-0.00017738,-72.469,0.00041082
7574,0.37,0.36364,0.1,0.00048059,4802.6,0.00049233,5191.5,-0.00010813,679.93,-0.00017957,143.12,0.00055482
7575,0.37,0.54545,0.1,0.00048604,4857.1,0.00050172,5483.2,-6.3794e-05,1234.1,-0.00020297,188.42,0.00065077
7576,0.37,0.72727,0.1,0.00050495,5046.1,0.00052119,5806.9,-3.8319e-05,1602.9,-0.00022359,210.89,0.00071637
7577,0.37,0.90909,0.1,0.00052619,5258.3,0.00054232,6103.5,-2.4099e-05,1847.6,-0.00024004,225.17,0.00076279
7578,0.37,1.0909,0.1,0.00054568,5453,0.00056169,6355.6,-1.597e-05,2015.3,-0.00025292,234.93,0.00079649
7579,0.37,1.2727,0.1,0.00056229,5619,0.00057825,6562.9,-1.1053e-05,2135.1,-0.00026304,241.79,0.00082135
7580,0.37,1.4545,0.1,0.00057599,5756,0.00059195,6730.6,-7.9093e-06,2223.4,-0.000271,246.67,0.00083981
7581,0.37,1.6364,0.1,0.00058711,5867,0.00060307,6864.8,-5.7901e-06,2290.1,-0.00027729,250.14,0.0008535
7582,0.37,1.8182,0.1,0.00059599,5955.8,0.00061197,6971.3,-4.2971e-06,2340.9,-0.00028224,252.57,0.00086359
7583,0.37,2,0.1,0.00060299,6025.7,0.00061897,7054.7,-3.2103e-06,2379.9,-0.00028612,254.25,0.00087094
7584,0.37,2.1818,0.1,0.0006084,6079.8,0.00062438,7118.9,-2.4057e-06,2409.5,-0.0002891,255.36,0.00087619
7585,0.37,2.3636,0.1,0.00061244,6120.2,0.00062843,7166.8,-1.8132e-06,2431.4,-0.00029134,256.08,0.00087984
7586,0.37,2.5455,0.1,0.00061532,6149,0.0006313,7200.8,-1.3926e-06,2447,-0.00029293,256.52,0.00088226
7587,0.37,2.7273,0.1,0.00061717,6167.4,0.00063314,7222.6,-1.1218e-06,2457,-0.00029395,256.76,0.00088373
7588,0.37,2.9091,0.1,0.00061807,6176.4,0.00063404,7233.2,-9.8898e-07,2461.8,-0.00029445,256.87,0.00088442
7589,0.37,3.0909,0.1,0.00061807,6176.4,0.00063404,7233.2,-9.8898e-07,2461.8,-0.00029445,256.87,0.00088442
7590,0.37,3.2727,0.1,0.00061717,6167.4,0.00063314,7222.6,-1.1218e-06,2457,-0.00029395,256.76,0.00088373
7591,0.37,3.4545,0.1,0.00061532,6149,0.0006313,7200.8,-1.3926e-06,2447,-0.00029293,256.52,0.00088226
7592,0.37,3.6364,0.1,0.00061244,6120.2,0.00062843,7166.8,-1.8132e-06,2431.4,-0.00029134,256.08,0.00087984
7593,0.37,3.8182,0.1,0.0006084,6079.8,0.00062438,7118.9,-2.4057e-06,2409.5,-0.0002891,255.36,0.00087619
7594,0.37,4,0.1,0.00060299,6025.7,0.00061897,7054.7,-3.2102e-06,2379.9,-0.00028612,254.25,0.00087094
7595,0.37,4.1818,0.1,0.00059599,5955.8,0.00061197,6971.3,-4.2971e-06,2340.9,-0.00028224,252.57,0.00086359
7596,0.37,4.3636,0.1,0.00058711,5867,0.00060307,6864.8,-5.7901e-06,2290.1,-0.00027729,250.14,0.0008535
7597,0.37,4.5455,0.1,0.00057599,5756,0.00059195,6730.6,-7.9093e-06,2223.4,-0.000271,246.67,0.00083981
7598,0.37,4.7273,0.1,0.00056229,5619,0.00057825,6562.9,-1.1053e-05,2135.1,-0.00026304,241.79,0.00082135
7599,0.37,4.9091,0.1,0.00054568,5453,0.00056169,6355.6,-1.597e-05,2015.3,-0.00025292,234.93,0.00079649
7600,0.37,5.0909,0.1,0.00052619,5258.3,0.00054232,6103.5,-2.4099e-05,1847.6,-0.00024004,225.17,0.00076279
7601,0.37,5.2727,0.1,0.00050495,5046.1,0.00052119,5806.9,-3.8319e-05,1602.9,-0.00022359,210.89,0.00071637
7602,0.37,5.4545,0.1,0.00048604,4857.1,0.00050172,5483.1,-6.3794e-05,1234.1,-0.00020297,188.42,0.00065077
7603,0.37,5.6364,0.1,0.00048059,4802.6,0.00049233,5191.5,-0.00010813,679.93,-0.00017957,143.12,0.00055482
7604,0.37,5.8182,0.1,0.00050581,5054.6,0.00050592,5061.5,-0.00015573,90.168,-0.00017738,-72.469,0.00041082
7605,0.555,0.18182,0.1,0.00055515,5547.6,0.00055344,5498.8,-0.00017815,1.8896,-0.00019148,-98.239,0.0010315
7606,0.555,0.36364,0.1,0.0005332,5328.3,0.00053805,5499.3,-0.00013888,413.07,-0.00019944,-41.955,0.0012812
7607,0.555,0.54545,0.1,0.00052745,5270.9,0.00053527,5614.9,-9.8078e-05,856.18,-0.00021874,-50.439,0.0014627
7608,0.555,0.72727,0.1,0.00053225,5318.9,0.00054048,5784.3,-6.7497e-05,1216.2,-0.00023667,-54.897,0.0015954
7609,0.555,0.90909,0.1,0.00054314,5427.7,0.00055069,5974.5,-4.6649e-05,1486.3,-0.00025218,-57.969,0.0016935
7610,0.555,1.0909,0.1,0.00055623,5558.5,0.00056292,6161.5,-3.2869e-05,1685,-0.00026513,-60.175,0.0017671
7611,0.555,1.2727,0.1,0.00056928,5688.9,0.00057523,6332.6,-2.3705e-05,1832.5,-0.00027581,-61.744,0.0018226
7612,0.555,1.4545,0.1,0.00058124,5808.4,0.00058661,6482.9,-1.746e-05,1944.1,-0.00028457,-62.863,0.0018648
7613,0.555,1.6364,0.1,0.00059171,5913,0.00059665,6611.3,-1.3073e-05,2030.1,-0.00029173,-63.652,0.0018966
7614,0.555,1.8182,0.1,0.00060059,6001.7,0.00060521,6718.8,-9.9019e-06,2097.1,-0.00029755,-64.199,0.0019206
7615,0.555,2,0.1,0.00060793,6075.1,0.00061232,6807,-7.5589e-06,2149.5,-0.00030223,-64.568,0.0019385
7616,0.555,2.1818,0.1,0.00061383,6134.1,0.00061805,6877.6,-5.8119e-06,2190.1,-0.00030593,-64.809,0.0019515
7617,0.555,2.3636,0.1,0.0006184,6179.8,0.00062249,6932.1,-4.5219e-06,2221,-0.00030876,-64.959,0.0019608
7618,0.555,2.5455,0.1,0.00062174,6213.1,0.00062574,6971.8,-3.6065e-06,2243.2,-0.00031082,-65.047,0.0019671
7619,0.555,2.7273,0.1,0.00062392,6234.9,0.00062786,6997.8,-3.0178e-06,2257.6,-0.00031215,-65.094,0.001971
7620,0.555,2.9091,0.1,0.000625,6245.7,0.00062891,7010.6,-2.7293e-06,2264.7,-0.00031281,-65.114,0.0019728
7621,0.555,3.0909,0.1,0.000625,6245.7,0.00062891,7010.6,-2.7292e-06,2264.7,-0.00031281,-65.114,0.0019728
7622,0.555,3.2727,0.1,0.00062392,6234.9,0.00062786,6997.8,-3.0178e-06,2257.6,-0.00031215,-65.094,0.001971
7623,0.555,3.4545,0.1,0.00062174,6213.1,0.00062574,6971.8,-3.6065e-06,2243.2,-0.00031082,-65.047,0.0019671
7624,0.555,3.6364,0.1,0.0006184,6179.8,0.00062249,6932.1,-4.5219e-06,2221,-0.00030876,-64.959,0.0019608
7625,0.555,3.8182,0.1,0.00061383,6134.1,0.00061805,6877.6,-5.8119e-06,2190.1,-0.00030593,-64.809,0.0019515
7626,0.555,4,0.1,0.00060793,6075.1,0.00061232,6807,-7.5589e-06,2149.5,-0.00030223,-64.568,0.0019385
7627,0.555,4.1818,0.1,0.00060059,6001.7,0.00060521,6718.8,-9.9019e-06,2097.1,-0.00029755,-64.199,0.0019206
7628,0.555,4.3636,0.1,0.00059171,5913,0.00059665,6611.3,-1.3073e-05,2030.1,-0.00029173,-63.652,0.0018966
7629,0.555,4.5455,0.1,0.00058124,5808.4,0.00058661,6482.9,-1.746e-05,1944.1,-0.00028457,-62.863,0.0018648
7630,0.555,4.7273,0.1,0.00056928,5688.9,0.00057523,6332.6,-2.3705e-05,1832.5,-0.00027581,-61.744,0.0018226
7631,0.555,4.9091,0.1,0.00055623,5558.5,0.00056292,6161.5,-3.2869e-05,1685,-0.00026513,-60.175,0.0017671
7632,0.555,5.0909,0.1,0.00054314,5427.7,0.00055069,5974.5,-4.6649e-05,1486.3,-0.00025218,-57.969,0.0016935
7633,0.555,5.2727,0.1,0.00053225,5318.8,0.00054048,5784.3,-6.7497e-05,1216.2,-0.00023667,-54.897,0.0015954
7634,0.555,5.4545,0.1,0.00052745,5270.9,0.00053527,5614.9,-9.8078e-05,856.18,-0.00021874,-50.439,0.0014627
7635,0.555,5.6364,0.1,0.0005332,5328.3,0.00053805,5499.3,-0.00013888,413.07,-0.00019944,-41.955,0.0012812
7636,0.555,5.8182,0.1,0.00055515,5547.6,0.00055344,5498.8,-0.00017815,1.8896,-0.00019148,-98.239,0.0010315
7637,0.74,0.18182,0.1,0.00057579,5754,0.00057476,5724.8,-0.00018468,18.654,-0.00019725,-75.753,0.0019956
7638,0.74,0.36364,0.1,0.00055392,5535.4,0.00055882,5692.7,-0.00015591,322.48,-0.00019806,5.736,0.0023497
7639,0.74,0.54545,0.1,0.00054282,5424.4,0.0005515,5740.6,-0.00012141,684.65,-0.00021111,10.745,0.0026225
7640,0.74,0.72727,0.1,0.00053925,5388.7,0.00054967,5831,-9.1723e-05,1011.8,-0.00022471,12.567,0.0028318
7641,0.74,0.90909,0.1,0.00054175,5413.8,0.00055253,5949.7,-6.8458e-05,1283.8,-0.00023749,13.795,0.0029929
7642,0.74,1.0909,0.1,0.00054816,5477.8,0.00055859,6082.1,-5.1151e-05,1500.7,-0.00024895,14.56,0.0031172
7643,0.74,1.2727,0.1,0.00055649,5561.1,0.00056635,6216.1,-3.8533e-05,1671.2,-0.00025895,15.09,0.0032135
7644,0.74,1.4545,0.1,0.00056539,5650,0.00057467,6343.6,-2.9328e-05,1805.4,-0.00026756,15.461,0.003288
7645,0.74,1.6364,0.1,0.00057402,5736.3,0.00058279,6460,-2.254e-05,1911.7,-0.00027488,15.73,0.0033455
7646,0.74,1.8182,0.1,0.00058192,5815.2,0.00059027,6562.7,-1.7464e-05,1996.4,-0.00028105,15.923,0.0033895
7647,0.74,2,0.1,0.00058884,5884.3,0.00059684,6650.7,-1.3629e-05,2063.8,-0.00028617,16.061,0.0034229
7648,0.74,2.1818,0.1,0.00059466,5942.5,0.00060239,6723.7,-1.073e-05,2116.9,-0.00029032,16.157,0.0034477
7649,0.74,2.3636,0.1,0.00059933,5989.1,0.00060685,6781.7,-8.5738e-06,2157.6,-0.00029358,16.223,0.0034657
7650,0.74,2.5455,0.1,0.00060283,6024.1,0.0006102,6825,-7.0379e-06,2187.3,-0.00029598,16.265,0.0034781
7651,0.74,2.7273,0.1,0.00060516,6047.4,0.00061244,6853.7,-6.0488e-06,2206.7,-0.00029757,16.29,0.0034859
7652,0.74,2.9091,0.1,0.00060633,6059.1,0.00061355,6868,-5.5639e-06,2216.2,-0.00029836,16.302,0.0034897
7653,0.74,3.0909,0.1,0.00060633,6059.1,0.00061355,6868,-5.5639e-06,2216.2,-0.00029836,16.302,0.0034897
7654,0.74,3.2727,0.1,0.00060516,6047.4,0.00061244,6853.7,-6.0488e-06,2206.7,-0.00029757,16.29,0.0034859
7655,0.74,3.4545,0.1,0.00060283,6024.1,0.0006102,6825,-7.0379e-06,2187.3,-0.00029598,16.265,0.0034781
7656,0.74,3.6364,0.1,0.00059933,5989.1,0.00060685,6781.7,-8.5738e-06,2157.6,-0.00029358,16.223,0.0034657
7657,0.74,3.8182,0.1,0.00059466,5942.5,0.00060239,6723.7,-1.073e-05,2116.9,-0.00029032,16.157,0.0034477
7658,0.74,4,0.1,0.00058884,5884.3,0.00059684,6650.7,-1.3629e-05,2063.8,-0.00028617,16.061,0.0034229
7659,0.74,4.1818,0.1,0.00058192,5815.2,0.00059027,6562.7,-1.7464e-05,1996.4,-0.00028105,15.923,0.0033895
7660,0.74,4.3636,0.1,0.00057402,5736.3,0.00058279,6460,-2.254e-05,1911.7,-0.00027488,15.73,0.0033455
7661,0.74,4.5455,0.1,0.00056539,5650,0.00057467,6343.6,-2.9328e-05,1805.4,-0.00026756,15.461,0.003288
7662,0.74,4.7273,0.1,0.00055649,5561.1,0.00056635,6216.1,-3.8533e-05,1671.2,-0.00025895,15.09,0.0032135
7663,0.74,4.9091,0.1,0.00054816,5477.8,0.00055859,6082.1,-5.1151e-05,1500.7,-0.00024895,14.56,0.0031172
7664,0.74,5.0909,0.1,0.00054175,5413.8,0.00055253,5949.7,-6.8458e-05,1283.8,-0.00023749,13.795,0.0029929
7665,0.74,5.2727,0.1,0.00053925,5388.7,0.00054967,5831,-9.1723e-05,1011.8,-0.00022471,12.567,0.0028318
7666,0.74,5.4545,0.1,0.00054282,5424.4,0.0005515,5740.6,-0.00012141,684.65,-0.00021111,10.745,0.0026225
7667,0.74,5.6364,0.1,0.00055392,5535.4,0.00055882,5692.7,-0.00015591,322.48,-0.00019806,5.736,0.0023497
7668,0.74,5.8182,0.1,0.00057579,5754,0.00057476,5724.8,-0.00018468,18.654,-0.00019725,-75.753,0.0019956
7669,0.925,0.18182,0.1,0.00058466,5842.6,0.00058368,5814.4,-0.00018865,11.442,-0.0001991,-67.094,0.0033246
7670,0.925,0.36364,0.1,0.00056594,5655.5,0.00056968,5773.8,-0.00016538,250.91,-0.0001995,-5.4756,0.0037784
7671,0.925,0.54545,0.1,0.00055469,5543,0.00056184,5793.1,-0.00013658,545.43,-0.00020975,-4.2907,0.0041421
7672,0.925,0.72727,0.1,0.00054834,5479.6,0.0005576,5844.4,-0.00010986,829.39,-0.00022081,-4.2587,0.0044318
7673,0.925,0.90909,0.1,0.00054674,5463.6,0.00055691,5921.6,-8.6922e-05,1084.1,-0.00023177,-4.2088,0.0046618
7674,0.925,1.0909,0.1,0.00054897,5485.9,0.00055925,6016.8,-6.8276e-05,1301.9,-0.00024211,-4.2304,0.0048442
7675,0.925,1.2727,0.1,0.0005538,5534.2,0.00056375,6121.6,-5.3585e-05,1483.3,-0.00025156,-4.2558,0.0049886
7676,0.925,1.4545,0.1,0.00056009,5597,0.00056952,6228.7,-4.2166e-05,1632.7,-0.00026003,-4.279,0.0051027
7677,0.925,1.6364,0.1,0.00056694,5665.5,0.00057584,6332.3,-3.3316e-05,1755.3,-0.0002675,-4.2931,0.0051923
7678,0.925,1.8182,0.1,0.00057375,5733.5,0.00058213,6428.3,-2.6447e-05,1855.6,-0.00027399,-4.2986,0.0052621
7679,0.925,2,0.1,0.00058007,5796.7,0.00058801,6513.9,-2.1119e-05,1937.1,-0.00027951,-4.2975,0.0053159
7680,0.925,2.1818,0.1,0.00058563,5852.3,0.00059321,6587.3,-1.7018e-05,2002.3,-0.00028408,-4.2926,0.0053566
7681,0.925,2.3636,0.1,0.00059025,5898.4,0.00059753,6647.2,-1.3933e-05,2052.9,-0.00028773,-4.2862,0.0053865
7682,0.925,2.5455,0.1,0.0005938,5933.9,0.00060087,6692.8,-1.1721e-05,2090.1,-0.00029047,-4.2801,0.0054075
7683,0.925,2.7273,0.1,0.00059621,5958,0.00060313,6723.5,-1.0292e-05,2114.5,-0.00029228,-4.2755,0.0054207
7684,0.925,2.9091,0.1,0.00059743,5970.2,0.00060428,6739,-9.5909e-06,2126.6,-0.00029319,-4.2731,0.0054271
7685,0.925,3.0909,0.1,0.00059743,5970.2,0.00060428,6739,-9.5909e-06,2126.6,-0.00029319,-4.2731,0.0054271
7686,0.925,3.2727,0.1,0.00059621,5958,0.00060313,6723.5,-1.0292e-05,2114.5,-0.00029228,-4.2755,0.0054207
7687,0.925,3.4545,0.1,0.0005938,5933.9,0.00060087,6692.8,-1.1721e-05,2090.1,-0.00029047,-4.2801,0.0054075
7688,0.925,3.6364,0.1,0.00059025,5898.4,0.00059753,6647.2,-1.3933e-05,2052.9,-0.00028773,-4.2862,0.0053865
7689,0.925,3.8182,0.1,0.00058563,5852.3,0.00059321,6587.3,-1.7018e-05,2002.3,-0.00028408,-4.2926,0.0053566
7690,0.925,4,0.1,0.00058007,5796.7,0.00058801,6513.9,-2.1119e-05,1937.1,-0.00027951,-4.2975,0.0053159
7691,0.925,4.1818,0.1,0.00057375,5733.5,0.00058213,6428.3,-2.6447e-05,1855.6,-0.00027399,-4.2986,0.0052621
7692,0.925,4.3636,0.1,0.00056694,5665.5,0.00057584,6332.3,-3.3316e-05,1755.3,-0.0002675,-4.2931,0.0051923
7693,0.925,4.5455,0.1,0.00056009,5597,0.00056952,6228.7,-4.2166e-05,1632.7,-0.00026003,-4.279,0.0051027
7694,0.925,4.7273,0.1,0.0005538,5534.2,0.00056374,6121.6,-5.3585e-05,1483.3,-0.00025156,-4.2558,0.0049886
7695,0.925,4.9091,0.1,0.00054897,5485.9,0.00055925,6016.8,-6.8276e-05,1301.9,-0.00024211,-4.2304,0.0048442
7696,0.925,5.0909,0.1,0.00054674,5463.6,0.00055691,5921.6,-8.6922e-05,1084.1,-0.00023177,-4.2088,0.0046618
7697,0.925,5.2727,0.1,0.00054834,5479.6,0.0005576,5844.4,-0.00010986,829.39,-0.00022081,-4.2587,0.0044318
7698,0.925,5.4545,0.1,0.00055469,5543,0.00056184,5793.1,-0.00013658,545.43,-0.00020975,-4.2907,0.0041421
7699,0.925,5.6364,0.1,0.00056594,5655.5,0.00056968,5773.8,-0.00016538,250.91,-0.0001995,-5.4755,0.0037784
7700,0.925,5.8182,0.1,0.00058466,5842.6,0.00058368,5814.4,-0.00018865,11.442,-0.0001991,-67.094,0.0033246
7701,1.11,0.18182,0.1,0.00058513,5847.2,0.00058426,5822.5,-0.00018921,10.907,-0.00019861,-59.74,0.0050293
7702,1.11,0.36364,0.1,0.00056919,5687.9,0.00057231,5785,-0.00017075,201.96,-0.00019794,-2.3477,0.0055772
7703,1.11,0.54545,0.1,0.00055893,5585.4,0.00056518,5795.1,-0.00014667,446.53,-0.00020615,-0.39366,0.0060292
7704,1.11,0.72727,0.1,0.00055205,5516.6,0.00056055,5830.1,-0.00012327,692.07,-0.00021537,0.057632,0.0063995
7705,1.11,0.90909,0.1,0.0005487,5483.2,0.00055856,5886.9,-0.00010191,924.37,-0.00022489,0.37318,0.0067012
7706,1.11,1.0909,0.1,0.00054865,5482.7,0.00055908,5961.5,-8.338e-05,1134.2,-0.00023427,0.54526,0.0069462
7707,1.11,1.2727,0.1,0.00055121,5508.3,0.0005617,6048.3,-6.784e-05,1318.2,-0.0002432,0.65876,0.0071442
7708,1.11,1.4545,0.1,0.0005556,5552.1,0.00056581,6141.7,-5.5077e-05,1476.6,-0.0002515,0.73442,0.0073035
7709,1.11,1.6364,0.1,0.00056103,5606.4,0.00057082,6236.2,-4.4719e-05,1611.3,-0.00025907,0.78979,0.0074308
7710,1.11,1.8182,0.1,0.00056688,5664.9,0.00057619,6327.4,-3.6379e-05,1724.8,-0.00026582,0.83236,0.0075316
7711,1.11,2,0.1,0.00057264,5722.5,0.0005815,6411.5,-2.9728e-05,1819,-0.00027171,0.86598,0.0076105
7712,1.11,2.1818,0.1,0.00057794,5775.4,0.00058638,6485.6,-2.4509e-05,1895.6,-0.00027668,0.89223,0.007671
7713,1.11,2.3636,0.1,0.00058248,5820.8,0.00059059,6547.5,-2.0531e-05,1955.8,-0.00028071,0.91193,0.0077161
7714,1.11,2.5455,0.1,0.00058606,5856.6,0.00059391,6595.4,-1.7658e-05,2000.3,-0.00028376,0.92572,0.007748
7715,1.11,2.7273,0.1,0.00058853,5881.3,0.0005962,6628,-1.5795e-05,2029.7,-0.00028581,0.93433,0.0077684
7716,1.11,2.9091,0.1,0.00058979,5893.9,0.00059738,6644.6,-1.4878e-05,2044.3,-0.00028684,0.93842,0.0077783
7717,1.11,3.0909,0.1,0.00058979,5893.9,0.00059738,6644.6,-1.4878e-05,2044.3,-0.00028684,0.93842,0.0077783
7718,1.11,3.2727,0.1,0.00058853,5881.3,0.0005962,6628,-1.5795e-05,2029.7,-0.00028581,0.93433,0.0077684
7719,1.11,3.4545,0.1,0.00058606,5856.6,0.00059391,6595.4,-1.7658e-05,2000.3,-0.00028376,0.92572,0.007748
7720,1.11,3.6364,0.1,0.00058248,5820.8,0.00059059,6547.5,-2.0531e-05,1955.8,-0.00028071,0.91193,0.0077161
7721,1.11,3.8182,0.1,0.00057794,5775.4,0.00058638,6485.6,-2.4509e-05,1895.6,-0.00027668,0.89223,0.007671
7722,1.11,4,0.1,0.00057264,5722.5,0.0005815,6411.5,-2.9728e-05,1819,-0.00027171,0.86598,0.0076105
7723,1.11,4.1818,0.1,0.00056688,5664.9,0.00057619,6327.4,-3.6379e-05,1724.8,-0.00026582,0.83236,0.0075316
7724,1.11,4.3636,0.1,0.00056103,5606.4,0.00057082,6236.2,-4.4719e-05,1611.3,-0.00025907,0.78979,0.0074308
7725,1.11,4.5455,0.1,0.0005556,5552.1,0.00056581,6141.7,-5.5077e-05,1476.6,-0.0002515,0.73442,0.0073035
7726,1.11,4.7273,0.1,0.00055121,5508.3,0.0005617,6048.3,-6.784e-05,1318.2,-0.0002432,0.65876,0.0071442
7727,1.11,4.9091,0.1,0.00054865,5482.7,0.00055908,5961.5,-8.338e-05,1134.2,-0.00023427,0.54526,0.0069462
7728,1.11,5.0909,0.1,0.0005487,5483.2,0.00055856,5886.9,-0.00010191,924.37,-0.00022489,0.37318,0.0067012
7729,1.11,5.2727,0.1,0.00055204,5516.6,0.00056055,5830.1,-0.00012327,692.07,-0.00021537,0.057632,0.0063995
7730,1.11,5.4545,0.1,0.00055893,5585.4,0.00056517,5795.1,-0.00014667,446.53,-0.00020615,-0.39366,0.0060292
7731,1.11,5.6364,0.1,0.00056919,5687.9,0.00057231,5785,-0.00017075,201.96,-0.00019794,-2.3477,0.0055772
7732,1.11,5.8182,0.1,0.00058513,5847.2,0.00058426,5822.5,-0.00018921,10.907,-0.00019861,-59.74,0.0050293
7733,1.295,0.18182,0.1,0.00057991,5795.1,0.00057905,5770.4,-0.00018779,8.6749,-0.00019659,-57.449,0.0071134
7734,1.295,0.36364,0.1,0.0005668,5664.1,0.00056929,5740.8,-0.00017347,159.94,-0.00019516,-3.0439,0.00775
7735,1.295,0.54545,0.1,0.00055825,5578.7,0.00056354,5751.4,-0.00015337,364.89,-0.00020212,-1.3829,0.0082871
7736,1.295,0.72727,0.1,0.00055215,5517.7,0.00055968,5783,-0.00013318,577.21,-0.00021014,-1.0504,0.0087371
7737,1.295,0.90909,0.1,0.00054872,5483.4,0.00055782,5833.6,-0.00011392,786.43,-0.00021869,-0.81545,0.0091119
7738,1.295,1.0909,0.1,0.00054796,5475.8,0.000558,5900.7,-9.6363e-05,984.03,-0.00022742,-0.68837,0.0094222
7739,1.295,1.2727,0.1,0.00054956,5491.8,0.00056001,5980.5,-8.0887e-05,1165,-0.00023603,-0.60262,0.0096778
7740,1.295,1.4545,0.1,0.000553,5526.2,0.00056346,6068.5,-6.7567e-05,1327.2,-0.00024428,-0.54467,0.009887
7741,1.295,1.6364,0.1,0.00055767,5572.9,0.00056791,6160.2,-5.6301e-05,1470.1,-0.00025202,-0.50111,0.010057
7742,1.295,1.8182,0.1,0.00056301,5626.3,0.0005729,6250.9,-4.6912e-05,1593.8,-0.0002591,-0.4664,0.010194
7743,1.295,2,0.1,0.00056852,5681.2,0.000578,6336.6,-3.9221e-05,1699,-0.0002654,-0.43801,0.010302
7744,1.295,2.1818,0.1,0.00057375,5733.6,0.00058285,6413.7,-3.3068e-05,1785.9,-0.00027081,-0.41538,0.010386
7745,1.295,2.3636,0.1,0.00057837,5779.7,0.00058712,6479.1,-2.8318e-05,1855,-0.00027526,-0.39842,0.01045
7746,1.295,2.5455,0.1,0.00058208,5816.8,0.00059056,6530.5,-2.4863e-05,1906.5,-0.00027865,-0.38683,0.010495
7747,1.295,2.7273,0.1,0.00058468,5842.7,0.00059296,6565.8,-2.2613e-05,1940.6,-0.00028095,-0.37989,0.010524
7748,1.295,2.9091,0.1,0.00058601,5856.1,0.00059421,6583.9,-2.1506e-05,1957.6,-0.0002821,-0.37672,0.010539
7749,1.295,3.0909,0.1,0.00058601,5856.1,0.00059421,6583.9,-2.1506e-05,1957.6,-0.0002821,-0.37672,0.010539
7750,1.295,3.2727,0.1,0.00058468,5842.7,0.00059296,6565.8,-2.2613e-05,1940.6,-0.00028095,-0.37989,0.010524
7751,1.295,3.4545,0.1,0.00058208,5816.8,0.00059055,6530.5,-2.4863e-05,1906.5,-0.00027865,-0.38683,0.010495
7752,1.295,3.6364,0.1,0.00057837,5779.7,0.00058712,6479.1,-2.8318e-05,1855,-0.00027526,-0.39842,0.01045
7753,1.295,3.8182,0.1,0.00057375,5733.5,0.00058285,6413.7,-3.3068e-05,1785.9,-0.00027081,-0.41537,0.010386
7754,1.295,4,0.1,0.00056852,5681.2,0.000578,6336.6,-3.9221e-05,1699,-0.0002654,-0.43801,0.010302
7755,1.295,4.1818,0.1,0.00056301,5626.3,0.0005729,6250.9,-4.6912e-05,1593.8,-0.0002591,-0.4664,0.010194
7756,1.295,4.3636,0.1,0.00055767,5572.9,0.00056791,6160.2,-5.6301e-05,1470.1,-0.00025202,-0.50111,0.010057
7757,1.295,4.5455,0.1,0.000553,5526.2,0.00056346,6068.5,-6.7567e-05,1327.2,-0.00024428,-0.54467,0.009887
7758,1.295,4.7273,0.1,0.00054956,5491.8,0.00056001,5980.5,-8.0887e-05,1165,-0.00023603,-0.60262,0.0096778
7759,1.295,4.9091,0.1,0.00054796,5475.8,0.000558,5900.7,-9.6363e-05,984.03,-0.00022742,-0.68837,0.0094222
7760,1.295,5.0909,0.1,0.00054872,5483.4,0.00055782,5833.6,-0.00011392,786.43,-0.00021869,-0.81544,0.0091119
7761,1.295,5.2727,0.1,0.00055215,5517.7,0.00055968,5783,-0.00013318,577.21,-0.00021014,-1.0504,0.0087371
7762,1.295,5.4545,0.1,0.00055825,5578.7,0.00056354,5751.4,-0.00015337,364.89,-0.00020212,-1.3829,0.0082871
7763,1.295,5.6364,0.1,0.0005668,5664.1,0.00056929,5740.8,-0.00017347,159.94,-0.00019516,-3.0439,0.00775
7764,1.295,5.8182,0.1,0.00057991,5795.1,0.00057905,5770.4,-0.00018779,8.6749,-0.00019659,-57.449,0.0071134
7765,1.48,0.18182,0.1,0.00057004,5696.4,0.00056912,5670,-0.0001846,6.8816,-0.00019338,-59.139,0.0095761
7766,1.48,0.36364,0.1,0.00055963,5592.4,0.00056155,5650.9,-0.00017429,122.08,-0.00019095,-3.0652,0.010297
7767,1.48,0.54545,0.1,0.00055315,5527.7,0.00055754,5668.4,-0.00015767,294.54,-0.00019704,-1.255,0.010916
7768,1.48,0.72727,0.1,0.0005486,5482.2,0.00055515,5705.2,-0.0001405,478.38,-0.00020429,-0.86088,0.011444
7769,1.48,0.90909,0.1,0.00054615,5457.7,0.0005544,5759.7,-0.00012356,665.75,-0.00021225,-0.60102,0.011893
7770,1.48,1.0909,0.1,0.00054589,5455.2,0.00055534,5829.8,-0.0001075,849.47,-0.00022061,-0.45003,0.012271
7771,1.48,1.2727,0.1,0.00054767,5473,0.00055785,5912.5,-9.2735e-05,1024.3,-0.00022911,-0.34408,0.012587
7772,1.48,1.4545,0.1,0.00055115,5507.7,0.00056165,6004.1,-7.9504e-05,1186.8,-0.00023749,-0.26852,0.012851
7773,1.48,1.6364,0.1,0.00055586,5554.7,0.00056639,6100.3,-6.7887e-05,1334.6,-0.00024554,-0.21031,0.013068
7774,1.48,1.8182,0.1,0.00056131,5609.3,0.00057168,6196.7,-5.7891e-05,1466.3,-0.00025307,-0.16374,0.013245
7775,1.48,2,0.1,0.00056704,5666.4,0.00057713,6288.9,-4.9494e-05,1580.7,-0.00025989,-0.1263,0.013387
7776,1.48,2.1818,0.1,0.00057258,5721.9,0.00058236,6372.8,-4.2653e-05,1676.8,-0.00026583,-0.097492,0.013499
7777,1.48,2.3636,0.1,0.00057755,5771.5,0.00058703,6445,-3.7314e-05,1753.9,-0.00027076,-0.07715,0.013585
7778,1.48,2.5455,0.1,0.00058161,5812.1,0.00059083,6502.1,-3.341e-05,1811.8,-0.00027456,-0.064463,0.013646
7779,1.48,2.7273,0.1,0.00058448,5840.8,0.00059353,6541.8,-3.0864e-05,1850.3,-0.00027714,-0.057728,0.013686
7780,1.48,2.9091,0.1,0.00058596,5855.6,0.00059492,6562,-2.9611e-05,1869.5,-0.00027844,-0.055,0.013706
7781,1.48,3.0909,0.1,0.00058596,5855.6,0.00059492,6562,-2.9611e-05,1869.5,-0.00027844,-0.055,0.013706
7782,1.48,3.2727,0.1,0.00058448,5840.8,0.00059353,6541.8,-3.0864e-05,1850.3,-0.00027714,-0.057728,0.013686
7783,1.48,3.4545,0.1,0.00058161,5812.1,0.00059083,6502.1,-3.341e-05,1811.8,-0.00027456,-0.064463,0.013646
7784,1.48,3.6364,0.1,0.00057755,5771.5,0.00058703,6445,-3.7314e-05,1753.9,-0.00027076,-0.07715,0.013585
7785,1.48,3.8182,0.1,0.00057258,5721.9,0.00058236,6372.8,-4.2652e-05,1676.8,-0.00026583,-0.097492,0.013499
7786,1.48,4,0.1,0.00056704,5666.4,0.00057713,6288.9,-4.9494e-05,1580.7,-0.00025989,-0.1263,0.013387
7787,1.48,4.1818,0.1,0.00056131,5609.3,0.00057168,6196.7,-5.7891e-05,1466.3,-0.00025307,-0.16374,0.013245
7788,1.48,4.3636,0.1,0.00055586,5554.7,0.00056639,6100.3,-6.7887e-05,1334.6,-0.00024554,-0.21031,0.013068
7789,1.48,4.5455,0.1,0.00055115,5507.7,0.00056165,6004.1,-7.9504e-05,1186.8,-0.00023749,-0.26852,0.012851
7790,1.48,4.7273,0.1,0.00054767,5473,0.00055785,5912.5,-9.2735e-05,1024.3,-0.00022911,-0.34408,0.012587
7791,1.48,4.9091,0.1,0.00054589,5455.1,0.00055534,5829.8,-0.0001075,849.47,-0.00022061,-0.45003,0.012271
7792,1.48,5.0909,0.1,0.00054615,5457.7,0.0005544,5759.7,-0.00012356,665.75,-0.00021225,-0.60102,0.011893
7793,1.48,5.2727,0.1,0.0005486,5482.2,0.00055515,5705.2,-0.0001405,478.38,-0.00020429,-0.86088,0.011444
7794,1.48,5.4545,0.1,0.00055315,5527.7,0.00055754,5668.4,-0.00015767,294.54,-0.00019704,-1.255,0.010916
7795,1.48,5.6364,0.1,0.00055963,5592.4,0.00056155,5650.9,-0.00017429,122.08,-0.00019095,-3.0652,0.010297
7796,1.48,5.8182,0.1,0.00057004,5696.4,0.00056912,5670,-0.0001846,6.8816,-0.00019338,-59.139,0.0095761
7797,1.665,0.18182,0.1,0.00055598,5556,0.00055494,5525.8,-0.00017982,5.2023,-0.00018914,-64.859,0.012412
7798,1.665,0.36364,0.1,0.00054823,5478.5,0.00054958,5519.1,-0.00017352,86.028,-0.00018547,-3.7631,0.013213
7799,1.665,0.54545,0.1,0.0005441,5437.2,0.00054762,5547.9,-0.0001601,230.4,-0.00019097,-1.5649,0.013912
7800,1.665,0.72727,0.1,0.00054168,5413,0.00054722,5596.5,-0.00014584,389.08,-0.00019777,-1.0908,0.014518
7801,1.665,0.90909,0.1,0.00054107,5406.9,0.00054835,5662.9,-0.00013135,555.9,-0.00020544,-0.80659,0.015041
7802,1.665,1.0909,0.1,0.00054232,5419.5,0.00055099,5745.1,-0.00011714,725.07,-0.00021373,-0.63667,0.015489
7803,1.665,1.2727,0.1,0.00054534,5449.6,0.00055499,5840.2,-0.0001036,891.8,-0.00022236,-0.51526,0.01587
7804,1.665,1.4545,0.1,0.00054985,5494.7,0.00056012,5944.5,-9.0998e-05,1052.2,-0.00023109,-0.42523,0.016192
7805,1.665,1.6364,0.1,0.00055549,5551,0.00056607,6053.6,-7.953e-05,1202.8,-0.00023966,-0.35347,0.016461
7806,1.665,1.8182,0.1,0.00056182,5614.3,0.00057247,6163.1,-6.9353e-05,1340.7,-0.00024782,-0.29451,0.016684
7807,1.665,2,0.1,0.0005684,5680.1,0.00057896,6268.3,-6.0596e-05,1462.9,-0.00025533,-0.24675,0.016865
7808,1.665,2.1818,0.1,0.00057478,5743.9,0.00058516,6364.6,-5.335e-05,1567.1,-0.00026195,-0.21094,0.017009
7809,1.665,2.3636,0.1,0.00058054,5801.4,0.00059071,6447.9,-4.7652e-05,1651.6,-0.00026749,-0.18745,0.017121
7810,1.665,2.5455,0.1,0.00058527,5848.6,0.00059525,6514.3,-4.3482e-05,1715.1,-0.00027178,-0.17468,0.017202
7811,1.665,2.7273,0.1,0.00058863,5882.2,0.00059847,6560.5,-4.0771e-05,1757.5,-0.0002747,-0.16943,0.017255
7812,1.665,2.9091,0.1,0.00059037,5899.7,0.00060015,6584.2,-3.9441e-05,1778.6,-0.00027618,-0.16802,0.017281
7813,1.665,3.0909,0.1,0.00059037,5899.7,0.00060015,6584.2,-3.9441e-05,1778.6,-0.00027618,-0.16802,0.017281
7814,1.665,3.2727,0.1,0.00058863,5882.2,0.00059847,6560.5,-4.0771e-05,1757.5,-0.0002747,-0.16943,0.017255
7815,1.665,3.4545,0.1,0.00058527,5848.6,0.00059525,6514.3,-4.3482e-05,1715.1,-0.00027178,-0.17468,0.017202
7816,1.665,3.6364,0.1,0.00058054,5801.4,0.00059071,6447.9,-4.7652e-05,1651.6,-0.00026749,-0.18745,0.017121
7817,1.665,3.8182,0.1,0.00057478,5743.9,0.00058516,6364.6,-5.335e-05,1567.1,-0.00026195,-0.21094,0.017009
7818,1.665,4,0.1,0.0005684,5680.1,0.00057896,6268.3,-6.0596e-05,1462.9,-0.00025533,-0.24675,0.016865
7819,1.665,4.1818,0.1,0.00056182,5614.3,0.00057247,6163.1,-6.9353e-05,1340.7,-0.00024782,-0.29451,0.016684
7820,1.665,4.3636,0.1,0.00055549,5551,0.00056607,6053.6,-7.953e-05,1202.8,-0.00023966,-0.35347,0.016461
7821,1.665,4.5455,0.1,0.00054985,5494.7,0.00056012,5944.5,-9.0998e-05,1052.2,-0.00023109,-0.42523,0.016192
7822,1.665,4.7273,0.1,0.00054534,5449.6,0.00055499,5840.2,-0.0001036,891.8,-0.00022236,-0.51526,0.01587
7823,1.665,4.9091,0.1,0.00054232,5419.5,0.00055099,5745.1,-0.00011714,725.07,-0.00021373,-0.63667,0.015489
7824,1.665,5.0909,0.1,0.00054107,5406.9,0.00054835,5662.9,-0.00013135,555.9,-0.00020544,-0.80659,0.015041
7825,1.665,5.2727,0.1,0.00054168,5413,0.00054722,5596.5,-0.00014584,389.08,-0.00019777,-1.0908,0.014518
7826,1.665,5.4545,0.1,0.0005441,5437.2,0.00054762,5547.9,-0.0001601,230.4,-0.00019097,-1.5649,0.013912
7827,1.665,5.6364,0.1,0.00054823,5478.5,0.00054958,5519.1,-0.00017352,86.028,-0.00018547,-3.7631,0.013213
7828,1.665,5.8182,0.1,0.00055598,5556,0.00055494,5525.8,-0.00017982,5.2023,-0.00018914,-64.859,0.012412
7829,1.85,0.18182,0.1,0.00053778,5374.1,0.00053654,5338.5,-0.00017345,3.9229,-0.00018385,-74.195,0.015614
7830,1.85,0.36364,0.1,0.00053265,5322.8,0.00053341,5345.7,-0.00017116,51.756,-0.0001788,-5.6274,0.016492
7831,1.85,0.54545,0.1,0.00053113,5307.7,0.00053378,5389.6,-0.00016088,170.2,-0.00018381,-2.0619,0.017269
7832,1.85,0.72727,0.1,0.00053138,5310.1,0.00053589,5455.6,-0.00014952,305.7,-0.00019039,-1.3739,0.017953
7833,1.85,0.90909,0.1,0.00053338,5330.1,0.00053961,5541.4,-0.00013767,452.58,-0.00019804,-1.0123,0.018552
7834,1.85,1.0909,0.1,0.00053711,5367.4,0.00054483,5644.4,-0.00012568,606.48,-0.0002065,-0.79591,0.019073
7835,1.85,1.2727,0.1,0.0005424,5420.3,0.00055132,5761.2,-0.00011382,763.55,-0.00021553,-0.64259,0.019523
7836,1.85,1.4545,0.1,0.000549,5486.2,0.00055881,5887.7,-0.00010234,920.05,-0.00022486,-0.52696,0.019909
7837,1.85,1.6364,0.1,0.00055654,5561.5,0.00056695,6019.2,-9.1488e-05,1071.9,-0.00023421,-0.43297,0.020236
7838,1.85,1.8182,0.1,0.00056463,5642.4,0.00057538,6150.6,-8.1532e-05,1214.8,-0.00024326,-0.35415,0.02051
7839,1.85,2,0.1,0.00057286,5724.6,0.00058374,6276.9,-7.2759e-05,1344.2,-0.0002517,-0.29024,0.020736
7840,1.85,2.1818,0.1,0.00058076,5803.6,0.00059164,6392.7,-6.5409e-05,1455.9,-0.00025921,-0.24315,0.020918
7841,1.85,2.3636,0.1,0.00058786,5874.5,0.00059868,6493,-5.9622e-05,1546.8,-0.00026552,-0.21425,0.02106
7842,1.85,2.5455,0.1,0.0005937,5932.9,0.00060443,6573.1,-5.5419e-05,1615.3,-0.00027042,-0.20191,0.021164
7843,1.85,2.7273,0.1,0.00059786,5974.5,0.00060852,6629,-5.2719e-05,1660.7,-0.00027377,-0.19994,0.021233
7844,1.85,2.9091,0.1,0.00060003,5996.1,0.00061065,6657.7,-5.1409e-05,1683.3,-0.00027546,-0.2012,0.021267
7845,1.85,3.0909,0.1,0.00060003,5996.1,0.00061065,6657.7,-5.1409e-05,1683.3,-0.00027546,-0.2012,0.021267
7846,1.85,3.2727,0.1,0.00059786,5974.5,0.00060852,6629,-5.2719e-05,1660.7,-0.00027377,-0.19994,0.021233
7847,1.85,3.4545,0.1,0.0005937,5932.9,0.00060443,6573.1,-5.5419e-05,1615.3,-0.00027042,-0.20191,0.021164
7848,1.85,3.6364,0.1,0.00058786,5874.5,0.00059868,6493,-5.9622e-05,1546.8,-0.00026552,-0.21425,0.02106
7849,1.85,3.8182,0.1,0.00058076,5803.5,0.00059164,6392.7,-6.5409e-05,1455.9,-0.00025921,-0.24315,0.020918
7850,1.85,4,0.1,0.00057286,5724.6,0.00058374,6276.9,-7.2759e-05,1344.2,-0.0002517,-0.29024,0.020736
7851,1.85,4.1818,0.1,0.00056463,5642.4,0.00057538,6150.6,-8.1532e-05,1214.8,-0.00024326,-0.35415,0.02051
7852,1.85,4.3636,0.1,0.00055654,5561.5,0.00056695,6019.2,-9.1487e-05,1071.9,-0.00023421,-0.43297,0.020236
7853,1.85,4.5455,0.1,0.000549,5486.2,0.00055881,5887.7,-0.00010234,920.05,-0.00022486,-0.52696,0.019909
7854,1.85,4.7273,0.1,0.0005424,5420.3,0.00055132,5761.2,-0.00011382,763.55,-0.00021553,-0.64259,0.019523
7855,1.85,4.9091,0.1,0.00053711,5367.4,0.00054482,5644.4,-0.00012568,606.48,-0.0002065,-0.79591,0.019073
7856,1.85,5.0909,0.1,0.00053338,5330.1,0.00053961,5541.4,-0.00013767,452.58,-0.00019804,-1.0123,0.018552
7857,1.85,5.2727,0.1,0.00053138,5310.1,0.00053589,5455.6,-0.00014952,305.7,-0.00019039,-1.3739,0.017953
7858,1.85,5.4545,0.1,0.00053113,5307.7,0.00053378,5389.6,-0.00016088,170.2,-0.00018381,-2.0619,0.017269
7859,1.85,5.6364,0.1,0.00053265,5322.8,0.00053341,5345.7,-0.00017116,51.756,-0.0001788,-5.6274,0.016492
7860,1.85,5.8182,0.1,0.00053778,5374.1,0.00053654,5338.5,-0.00017345,3.9229,-0.00018385,-74.195,0.015614
7861,2.035,0.18182,0.1,0.00051516,5148.1,0.00051368,5105.7,-0.00016544,3.0413,-0.00017737,-86.537,0.019168
7862,2.035,0.36364,0.1,0.00051265,5123,0.00051282,5128.1,-0.00016665,22.836,-0.00017134,-12.369,0.020122
7863,2.035,0.54545,0.1,0.00051405,5137,0.00051582,5190.9,-0.00015999,113.11,-0.00017548,-3.2361,0.020977
7864,2.035,0.72727,0.1,0.00051753,5171.7,0.00052096,5279.9,-0.00015169,225.84,-0.00018201,-1.9783,0.021741
7865,2.035,0.90909,0.1,0.00052296,5226,0.00052802,5392.3,-0.00014279,352.13,-0.00018984,-1.4272,0.022419
7866,2.035,1.0909,0.1,0.00053017,5298,0.00053676,5525,-0.00013346,489.17,-0.00019872,-1.1104,0.023018
7867,2.035,1.2727,0.1,0.00053887,5385,0.00054683,5673.6,-0.00012383,634.59,-0.0002084,-0.89344,0.023542
7868,2.035,1.4545,0.1,0.00054871,5483.3,0.00055781,5833.2,-0.00011401,785.45,-0.00021864,-0.73115,0.023998
7869,2.035,1.6364,0.1,0.00055927,5588.9,0.00056927,5998,-0.00010423,937.52,-0.00022909,-0.59845,0.024391
7870,2.035,1.8182,0.1,0.00057017,5697.8,0.00058081,6162,-9.4888e-05,1085.1,-0.00023937,-0.48586,0.024724
7871,2.035,2,0.1,0.00058098,5805.8,0.00059203,6319.1,-8.6429e-05,1221.5,-0.00024905,-0.39268,0.025002
7872,2.035,2.1818,0.1,0.00059124,5908.3,0.00060251,6463.1,-7.9284e-05,1340.4,-0.00025773,-0.32781,0.025229
7873,2.035,2.3636,0.1,0.00060041,6000,0.00061179,6587.9,-7.3717e-05,1437.2,-0.00026504,-0.2949,0.025407
7874,2.035,2.5455,0.1,0.00060794,6075.2,0.00061936,6687.4,-6.9772e-05,1509.5,-0.00027071,-0.28579,0.02554
7875,2.035,2.7273,0.1,0.00061329,6128.7,0.00062474,6756.8,-6.7317e-05,1557,-0.00027457,-0.28997,0.025628
7876,2.035,2.9091,0.1,0.00061608,6156.6,0.00062754,6792.5,-6.6157e-05,1580.3,-0.00027652,-0.29599,0.025672
7877,2.035,3.0909,0.1,0.00061608,6156.6,0.00062754,6792.5,-6.6157e-05,1580.3,-0.00027652,-0.29599,0.025672
7878,2.035,3.2727,0.1,0.00061329,6128.7,0.00062474,6756.8,-6.7317e-05,1557,-0.00027457,-0.28997,0.025628
7879,2.035,3.4545,0.1,0.00060794,6075.2,0.00061936,6687.4,-6.9772e-05,1509.5,-0.00027071,-0.28579,0.02554
7880,2.035,3.6364,0.1,0.00060041,6000,0.00061179,6587.9,-7.3717e-05,1437.2,-0.00026504,-0.2949,0.025407
7881,2.035,3.8182,0.1,0.00059124,5908.3,0.00060251,6463.1,-7.9284e-05,1340.4,-0.00025773,-0.32781,0.025229
7882,2.035,4,0.1,0.00058098,5805.8,0.00059203,6319.1,-8.6429e-05,1221.5,-0.00024905,-0.39268,0.025002
7883,2.035,4.1818,0.1,0.00057017,5697.8,0.00058081,6162,-9.4888e-05,1085.1,-0.00023937,-0.48586,0.024724
7884,2.035,4.3636,0.1,0.00055927,5588.9,0.00056927,5998,-0.00010423,937.52,-0.00022909,-0.59845,0.024391
7885,2.035,4.5455,0.1,0.00054871,5483.3,0.00055781,5833.2,-0.00011401,785.45,-0.00021864,-0.73115,0.023998
7886,2.035,4.7273,0.1,0.00053887,5385,0.00054683,5673.6,-0.00012383,634.59,-0.0002084,-0.89344,0.023542
7887,2.035,4.9091,0.1,0.00053017,5298,0.00053676,5525,-0.00013346,489.17,-0.00019872,-1.1104,0.023018
7888,2.035,5.0909,0.1,0.00052296,5226,0.00052802,5392.3,-0.00014279,352.13,-0.00018984,-1.4272,0.022419
7889,2.035,5.2727,0.1,0.00051753,5171.7,0.00052096,5279.9,-0.00015169,225.84,-0.00018201,-1.9783,0.021741
7890,2.035,5.4545,0.1,0.00051405,5137,0.00051582,5190.9,-0.00015999,113.11,-0.00017548,-3.2361,0.020977
7891,2.035,5.6364,0.1,0.00051265,5123,0.00051282,5128.1,-0.00016665,22.836,-0.00017134,-12.369,0.020122
7892,2.035,5.8182,0.1,0.00051516,5148.1,0.00051368,5105.7,-0.00016544,3.0413,-0.00017737,-86.537,0.019168
7893,2.22,0.18182,0.1,0.00048768,4873.5,0.00048593,4823.4,-0.0001557,2.5308,-0.00016947,-100.95,0.023061
7894,2.22,0.36364,0.1,0.00048778,4874.5,0.00048736,4862.3,-0.00015857,9.0306,-0.00016417,-33.036,0.024089
7895,2.22,0.54545,0.1,0.00049244,4921,0.00049332,4947.6,-0.0001571,60.539,-0.00016605,-6.7123,0.025023
7896,2.22,0.72727,0.1,0.0004998,4994.5,0.00050209,5065.3,-0.00015232,148.3,-0.00017251,-3.391,0.025869
7897,2.22,0.90909,0.1,0.00050959,5092.4,0.00051336,5212.2,-0.00014689,251.42,-0.00018065,-2.2943,0.026632
7898,2.22,1.0909,0.1,0.00052146,5211,0.00052671,5384.4,-0.0001409,368.23,-0.00019014,-1.7212,0.027315
7899,2.22,1.2727,0.1,0.00053489,5345.3,0.0005416,5576.3,-0.0001342,498.64,-0.00020075,-1.3529,0.027922
7900,2.22,1.4545,0.1,0.00054934,5489.6,0.0005574,5781.5,-0.0001267,641.44,-0.00021221,-1.0889,0.028458
7901,2.22,1.6364,0.1,0.00056426,5638.8,0.00057353,5992.7,-0.00011853,792.78,-0.00022416,-0.88113,0.028925
7902,2.22,1.8182,0.1,0.00057921,5788.1,0.00058945,6202.2,-0.00011018,945.49,-0.00023611,-0.70547,0.029327
7903,2.22,2,0.1,0.00059375,5933.4,0.00060472,6402.5,-0.00010233,1090,-0.00024748,-0.56942,0.029667
7904,2.22,2.1818,0.1,0.00060739,6069.7,0.00061885,6585.6,-9.5698e-05,1216.8,-0.0002577,-0.47049,0.029948
7905,2.22,2.3636,0.1,0.00061951,6190.9,0.0006313,6743.8,-9.0699e-05,1318.9,-0.00026629,-0.41212,0.030171
7906,2.22,2.5455,0.1,0.00062942,6289.9,0.00064142,6869.6,-8.7379e-05,1393.6,-0.00027291,-0.40223,0.030339
7907,2.22,2.7273,0.1,0.00063646,6360.2,0.00064859,6956.9,-8.5477e-05,1441.5,-0.00027738,-0.4165,0.03045
7908,2.22,2.9091,0.1,0.00064011,6396.7,0.0006523,7001.6,-8.4643e-05,1464.6,-0.00027962,-0.42945,0.030506
7909,2.22,3.0909,0.1,0.00064011,6396.7,0.0006523,7001.6,-8.4643e-05,1464.6,-0.00027962,-0.42945,0.030506
7910,2.22,3.2727,0.1,0.00063646,6360.2,0.00064859,6956.9,-8.5477e-05,1441.5,-0.00027738,-0.4165,0.03045
7911,2.22,3.4545,0.1,0.00062942,6289.9,0.00064142,6869.6,-8.7379e-05,1393.6,-0.00027291,-0.40223,0.030339
7912,2.22,3.6364,0.1,0.00061951,6190.9,0.0006313,6743.8,-9.0699e-05,1318.9,-0.00026629,-0.41212,0.030171
7913,2.22,3.8182,0.1,0.00060739,6069.7,0.00061885,6585.6,-9.5698e-05,1216.8,-0.0002577,-0.47049,0.029948
7914,2.22,4,0.1,0.00059375,5933.4,0.00060472,6402.5,-0.00010233,1090,-0.00024748,-0.56942,0.029667
7915,2.22,4.1818,0.1,0.00057921,5788.1,0.00058945,6202.2,-0.00011018,945.49,-0.00023611,-0.70547,0.029327
7916,2.22,4.3636,0.1,0.00056426,5638.8,0.00057353,5992.7,-0.00011853,792.78,-0.00022416,-0.88113,0.028925
7917,2.22,4.5455,0.1,0.00054934,5489.6,0.0005574,5781.5,-0.0001267,641.44,-0.00021221,-1.0889,0.028458
7918,2.22,4.7273,0.1,0.00053489,5345.3,0.0005416,5576.3,-0.0001342,498.64,-0.00020075,-1.3529,0.027922
7919,2.22,4.9091,0.1,0.00052146,5211,0.00052671,5384.4,-0.0001409,368.23,-0.00019014,-1.7212,0.027315
7920,2.22,5.0909,0.1,0.00050959,5092.4,0.00051336,5212.2,-0.00014689,251.42,-0.00018065,-2.2943,0.026632
7921,2.22,5.2727,0.1,0.0004998,4994.5,0.00050209,5065.3,-0.00015232,148.3,-0.00017251,-3.391,0.025869
7922,2.22,5.4545,0.1,0.00049244,4921,0.00049332,4947.6,-0.0001571,60.539,-0.00016605,-6.7123,0.025023
7923,2.22,5.6364,0.1,0.00048778,4874.5,0.00048736,4862.3,-0.00015857,9.0306,-0.00016417,-33.036,0.024089
7924,2.22,5.8182,0.1,0.00048768,4873.5,0.00048593,4823.4,-0.0001557,2.5308,-0.00016947,-100.95,0.023061
7925,2.405,0.18182,0.1,0.00045474,4544.2,0.00045269,4486.2,-0.00014407,2.366,-0.00015985,-116.14,0.027271
7926,2.405,0.36364,0.1,0.00045742,4571,0.00045643,4542.7,-0.00014742,5.6142,-0.00015636,-61.531,0.028374
7927,2.405,0.54545,0.1,0.00046574,4654.2,0.00046573,4654.2,-0.00015076,22.207,-0.00015661,-21.765,0.02939
7928,2.405,0.72727,0.1,0.00047776,4774.3,0.00047884,4806.9,-0.00015104,74.203,-0.000162,-8.1299,0.030323
7929,2.405,0.90909,0.1,0.00049307,4927.3,0.00049532,4997,-0.00015008,147.71,-0.00017037,-4.7419,0.031176
7930,2.405,1.0909,0.1,0.00051103,5106.8,0.00051459,5219.7,-0.00014847,237.75,-0.00018055,-3.2729,0.031953
7931,2.405,1.2727,0.1,0.00053083,5304.6,0.00053583,5468.3,-0.00014576,347.11,-0.00019228,-2.4154,0.032655
7932,2.405,1.4545,0.1,0.00055159,5512.1,0.00055812,5734.4,-0.0001415,477.76,-0.00020533,-1.8352,0.033283
7933,2.405,1.6364,0.1,0.00057253,5721.4,0.00058058,6008.3,-0.00013559,627.28,-0.00021927,-1.4005,0.033838
7934,2.405,1.8182,0.1,0.00059307,5926.6,0.00060249,6280.1,-0.00012861,786.87,-0.00023348,-1.0696,0.034323
7935,2.405,2,0.1,0.00061273,6123.1,0.00062327,6539.2,-0.00012161,942.39,-0.00024714,-0.78168,0.034737
7936,2.405,2.1818,0.1,0.00063101,6305.7,0.00064238,6775.2,-0.00011575,1078.9,-0.00025942,-0.60909,0.035084
7937,2.405,2.3636,0.1,0.00064715,6467,0.00065909,6977.6,-0.00011171,1186.1,-0.00026964,-0.5763,0.035363
7938,2.405,2.5455,0.1,0.00066024,6597.9,0.00067257,7137,-0.00010947,1261.1,-0.00027739,-0.58034,0.035575
7939,2.405,2.7273,0.1,0.00066946,6690,0.00068202,7246.6,-0.00010851,1306.8,-0.00028252,-0.59798,0.035717
7940,2.405,2.9091,0.1,0.00067421,6737.4,0.00068688,7302.1,-0.00010822,1328,-0.00028505,-0.61734,0.035788
7941,2.405,3.0909,0.1,0.00067421,6737.4,0.00068688,7302.1,-0.00010822,1328,-0.00028505,-0.61734,0.035788
7942,2.405,3.2727,0.1,0.00066946,6690,0.00068202,7246.6,-0.00010851,1306.8,-0.00028252,-0.59798,0.035717
7943,2.405,3.4545,0.1,0.00066024,6597.9,0.00067257,7137,-0.00010947,1261.1,-0.00027739,-0.58034,0.035575
7944,2.405,3.6364,0.1,0.00064715,6467,0.00065909,6977.6,-0.00011171,1186.1,-0.00026964,-0.5763,0.035363
7945,2.405,3.8182,0.1,0.00063101,6305.7,0.00064238,6775.2,-0.00011575,1078.9,-0.00025942,-0.60909,0.035084
7946,2.405,4,0.1,0.00061273,6123.1,0.00062327,6539.2,-0.00012161,942.39,-0.00024714,-0.78168,0.034737
7947,2.405,4.1818,0.1,0.00059307,5926.6,0.00060249,6280.1,-0.00012861,786.87,-0.00023348,-1.0696,0.034323
7948,2.405,4.3636,0.1,0.00057253,5721.4,0.00058058,6008.3,-0.00013559,627.28,-0.00021927,-1.4005,0.033838
7949,2.405,4.5455,0.1,0.00055159,5512.1,0.00055812,5734.4,-0.0001415,477.76,-0.00020533,-1.8352,0.033283
7950,2.405,4.7273,0.1,0.00053083,5304.6,0.00053583,5468.3,-0.00014576,347.11,-0.00019228,-2.4154,0.032655
7951,2.405,4.9091,0.1,0.00051103,5106.8,0.00051459,5219.7,-0.00014847,237.75,-0.00018055,-3.2729,0.031953
7952,2.405,5.0909,0.1,0.00049307,4927.3,0.00049532,4997,-0.00015008,147.71,-0.00017037,-4.7419,0.031176
7953,2.405,5.2727,0.1,0.00047776,4774.3,0.00047884,4806.9,-0.00015104,74.203,-0.000162,-8.1299,0.030323
7954,2.405,5.4545,0.1,0.00046574,4654.2,0.00046573,4654.2,-0.00015076,22.207,-0.00015661,-21.765,0.02939
7955,2.405,5.6364,0.1,0.00045742,4571,0.00045643,4542.7,-0.00014742,5.6142,-0.00015636,-61.531,0.028374
7956,2.405,5.8182,0.1,0.00045474,4544.2,0.00045269,4486.2,-0.00014407,2.366,-0.00015985,-116.14,0.027271
7957,2.59,0.18182,0.1,0.00041567,4153.8,0.00041333,4088.3,-0.00013044,2.5841,-0.00014814,-130.41,0.031776
7958,2.59,0.36364,0.1,0.0004209,4206.1,0.0004194,4163.6,-0.00013408,4.9549,-0.00014649,-88.282,0.032955
7959,2.59,0.54545,0.1,0.00043339,4330.9,0.0004325,4305.7,-0.00013918,10.292,-0.00014852,-59.894,0.034056
7960,2.59,0.72727,0.1,0.00045107,4507.5,0.00045079,4500,-0.00014527,21.458,-0.00015291,-35.954,0.035082
7961,2.59,0.90909,0.1,0.0004733,4729.7,0.00047372,4742.8,-0.00015133,46.413,-0.0001601,-19.495,0.036036
7962,2.59,1.0909,0.1,0.00049914,4988,0.00050046,5028.4,-0.00015634,93.465,-0.00017023,-10.879,0.036919
7963,2.59,1.2727,0.1,0.00052739,5270.2,0.00052993,5349.2,-0.00015952,168.96,-0.00018288,-6.5553,0.03773
7964,2.59,1.4545,0.1,0.00055669,5563.1,0.00056083,5695.1,-0.00016001,279,-0.0001977,-4.2409,0.038467
7965,2.59,1.6364,0.1,0.00058584,5854.3,0.00059183,6053.3,-0.00015734,424.28,-0.0002142,-2.9258,0.039129
7966,2.59,1.8182,0.1,0.00061394,6135.2,0.00062184,6409.6,-0.00015212,594.35,-0.00023149,-2.0072,0.039715
7967,2.59,2,0.1,0.00064051,6400.7,0.00065006,6748.7,-0.00014605,767.09,-0.00024835,-1.5571,0.040222
7968,2.59,2.1818,0.1,0.00066495,6644.9,0.00067576,7055.3,-0.00014111,917.7,-0.00026341,-1.23,0.040652
7969,2.59,2.3636,0.1,0.00068629,6858.2,0.00069796,7314.4,-0.00013843,1030.2,-0.00027565,-0.86976,0.041001
7970,2.59,2.5455,0.1,0.00070333,7028.5,0.00071555,7514.1,-0.00013779,1102.4,-0.00028462,-0.80382,0.041268
7971,2.59,2.7273,0.1,0.00071508,7145.9,0.00072761,7647.7,-0.00013821,1142.3,-0.00029036,-0.84301,0.041449
7972,2.59,2.9091,0.1,0.00072103,7205.3,0.0007337,7714.2,-0.0001387,1159.3,-0.00029311,-0.8493,0.041541
7973,2.59,3.0909,0.1,0.00072103,7205.3,0.0007337,7714.2,-0.0001387,1159.3,-0.00029311,-0.8493,0.041541
7974,2.59,3.2727,0.1,0.00071508,7145.9,0.00072761,7647.7,-0.00013821,1142.3,-0.00029036,-0.84301,0.041449
7975,2.59,3.4545,0.1,0.00070333,7028.5,0.00071555,7514.1,-0.00013779,1102.4,-0.00028462,-0.80382,0.041268
7976,2.59,3.6364,0.1,0.00068629,6858.2,0.00069796,7314.4,-0.00013843,1030.2,-0.00027565,-0.86976,0.041001
7977,2.59,3.8182,0.1,0.00066495,6644.9,0.00067576,7055.3,-0.00014111,917.7,-0.00026341,-1.23,0.040652
7978,2.59,4,0.1,0.00064051,6400.7,0.00065006,6748.7,-0.00014605,767.09,-0.00024835,-1.5571,0.040222
7979,2.59,4.1818,0.1,0.00061394,6135.2,0.00062184,6409.5,-0.00015212,594.35,-0.00023149,-2.0072,0.039715
7980,2.59,4.3636,0.1,0.00058584,5854.3,0.00059183,6053.3,-0.00015734,424.28,-0.0002142,-2.9258,0.039129
7981,2.59,4.5455,0.1,0.00055669,5563.1,0.00056083,5695.1,-0.00016001,279,-0.0001977,-4.2409,0.038467
7982,2.59,4.7273,0.1,0.00052739,5270.2,0.00052993,5349.2,-0.00015952,168.96,-0.00018288,-6.5553,0.03773
7983,2.59,4.9091,0.1,0.00049914,4988,0.00050046,5028.4,-0.00015634,93.465,-0.00017023,-10.879,0.036919
7984,2.59,5.0909,0.1,0.0004733,4729.7,0.00047372,4742.8,-0.00015133,46.413,-0.0001601,-19.495,0.036036
7985,2.59,5.2727,0.1,0.00045107,4507.5,0.00045079,4500,-0.00014527,21.458,-0.00015291,-35.954,0.035082
7986,2.59,5.4545,0.1,0.00043339,4330.9,0.0004325,4305.7,-0.00013918,10.292,-0.00014852,-59.893,0.034056
7987,2.59,5.6364,0.1,0.0004209,4206.1,0.0004194,4163.6,-0.00013408,4.9549,-0.00014649,-88.282,0.032955
7988,2.59,5.8182,0.1,0.00041567,4153.8,0.00041333,4088.3,-0.00013044,2.5841,-0.00014814,-130.41,0.031776
7989,2.775,0.18182,0.1,0.00036984,3695.9,0.00036728,3624.7,-0.00011468,3.4162,-0.00013398,-141.59,0.036548
7990,2.775,0.36364,0.1,0.00037767,3774.1,0.00037577,3720.7,-0.00011869,5.5515,-0.00013402,-109.61,0.037804
7991,2.775,0.54545,0.1,0.00039508,3948.1,0.00039332,3898.7,-0.00012449,8.0882,-0.00013946,-104.42,0.038994
7992,2.775,0.72727,0.1,0.00041971,4194.2,0.00041787,4142.7,-0.00013222,9.536,-0.00014813,-110,0.040121
7993,2.775,0.90909,0.1,0.0004506,4502.9,0.00044864,4447.9,-0.00014194,10.556,-0.00015902,-117.82,0.041188
7994,2.775,1.0909,0.1,0.00048651,4861.8,0.00048463,4809,-0.00015376,12.372,-0.00017076,-115.37,0.042193
7995,2.775,1.2727,0.1,0.00052587,5255.1,0.0005246,5219.2,-0.00016764,18.047,-0.00018177,-88.119,0.043133
7996,2.775,1.4545,0.1,0.00056675,5663.6,0.00056688,5668.3,-0.00018129,46.806,-0.00019238,-36.458,0.044003
7997,2.775,1.6364,0.1,0.00060709,6066.7,0.00060946,6140.1,-0.00018634,160.73,-0.00020911,-10.356,0.044797
7998,2.775,1.8182,0.1,0.00064553,6450.9,0.0006506,6613.5,-0.00018383,343.9,-0.00023021,-4.5754,0.045509
7999,2.775,2,0.1,0.00068128,6808.1,0.00068889,7063.9,-0.00017852,546.48,-0.00025149,-1.7652,0.046134
8000,2.775,2.1818,0.1,0.00071378,7132.9,0.00072328,7465.4,-0.00017439,720.63,-0.0002704,-0.70554,0.046668
8001,2.775,2.3636,0.1,0.00074159,7410.8,0.00075225,7793.8,-0.00017337,838.98,-0.00028521,-1.3193,0.047108
8002,2.775,2.5455,0.1,0.00076286,7623.3,0.00077417,8034.3,-0.00017481,903.97,-0.00029529,-1.2362,0.047448
8003,2.775,2.7273,0.1,0.00077679,7762.5,0.00078841,8186.3,-0.00017691,933.29,-0.00030126,-1.0928,0.047679
8004,2.775,2.9091,0.1,0.00078355,7830.1,0.0007953,8258.5,-0.00017825,943.7,-0.00030399,-1.0821,0.047796
8005,2.775,3.0909,0.1,0.00078355,7830.1,0.0007953,8258.5,-0.00017825,943.7,-0.00030399,-1.0821,0.047796
8006,2.775,3.2727,0.1,0.00077679,7762.5,0.00078841,8186.3,-0.00017691,933.29,-0.00030126,-1.0928,0.047679
8007,2.775,3.4545,0.1,0.00076286,7623.3,0.00077417,8034.3,-0.00017481,903.97,-0.00029529,-1.2362,0.047448
8008,2.775,3.6364,0.1,0.00074159,7410.8,0.00075225,7793.8,-0.00017337,838.98,-0.00028521,-1.3193,0.047108
8009,2.775,3.8182,0.1,0.00071378,7132.9,0.00072328,7465.4,-0.00017439,720.63,-0.0002704,-0.70554,0.046668
8010,2.775,4,0.1,0.00068128,6808.1,0.00068888,7063.9,-0.00017852,546.48,-0.00025149,-1.7652,0.046134
8011,2.775,4.1818,0.1,0.00064553,6450.9,0.0006506,6613.5,-0.00018383,343.9,-0.00023021,-4.5754,0.045509
8012,2.775,4.3636,0.1,0.00060709,6066.7,0.00060946,6140.1,-0.00018634,160.73,-0.00020911,-10.356,0.044797
8013,2.775,4.5455,0.1,0.00056675,5663.6,0.00056688,5668.3,-0.00018129,46.806,-0.00019238,-36.458,0.044003
8014,2.775,4.7273,0.1,0.00052587,5255,0.0005246,5219.2,-0.00016764,18.047,-0.00018177,-88.119,0.043133
8015,2.775,4.9091,0.1,0.00048651,4861.8,0.00048463,4809,-0.00015376,12.372,-0.00017076,-115.37,0.042193
8016,2.775,5.0909,0.1,0.0004506,4502.9,0.00044864,4447.9,-0.00014194,10.556,-0.00015902,-117.82,0.041188
8017,2.775,5.2727,0.1,0.00041971,4194.2,0.00041787,4142.7,-0.00013222,9.5359,-0.00014813,-110,0.040121
8018,2.775,5.4545,0.1,0.00039508,3948.1,0.00039332,3898.7,-0.00012449,8.0882,-0.00013946,-104.42,0.038994
8019,2.775,5.6364,0.1,0.00037767,3774.1,0.00037577,3720.7,-0.00011869,5.5515,-0.00013402,-109.61,0.037804
8020,2.775,5.8182,0.1,0.00036984,3695.9,0.00036728,3624.7,-0.00011468,3.4162,-0.00013398,-141.59,0.036548
8021,2.96,0.18182,0.1,0.00031683,3166.1,0.00031413,3092.2,-9.6728e-05,5.195,-0.00011703,-147.36,0.041552
8022,2.96,0.36364,0.1,0.00032768,3274.5,0.00032548,3213.9,-0.00010129,7.2755,-0.00011884,-124.61,0.042886
8023,2.96,0.54545,0.1,0.00035136,3511.2,0.00034865,3436.8,-0.00010769,8.016,-0.00012891,-151.44,0.04417
8024,2.96,0.72727,0.1,0.00038474,3844.7,0.00038087,3739.9,-0.00011593,7.0923,-0.00014452,-207.73,0.045408
8025,2.96,0.90909,0.1,0.00042633,4260.4,0.00042095,4116.4,-0.00012606,6.2847,-0.00016415,-279.86,0.046601
8026,2.96,1.0909,0.1,0.00047475,4744.2,0.00046792,4562.8,-0.00013856,5.9413,-0.00018578,-348.82,0.047749
8027,2.96,1.2727,0.1,0.00052841,5280.5,0.00052079,5078,-0.0001542,6.4145,-0.00020684,-389.09,0.048845
8028,2.96,1.4545,0.1,0.0005851,5846.9,0.00057805,5657.6,-0.00017387,7.8969,-0.00022396,-368.48,0.049879
8029,2.96,1.6364,0.1,0.00064177,6413.3,0.00063719,6286.5,-0.0001982,9.7488,-0.00023344,-255.07,0.050839
8030,2.96,1.8182,0.1,0.00069467,6941.9,0.00069423,6930.1,-0.0002227,40.608,-0.00023652,-63.213,0.051712
8031,2.96,2,0.1,0.00074327,7427.6,0.00074699,7543.5,-0.0002237,250.15,-0.00025851,-11.446,0.052488
8032,2.96,2.1818,0.1,0.00078612,7855.7,0.00079286,8074.6,-0.00021977,466.1,-0.00028274,-6.991,0.053159
8033,2.96,2.3636,0.1,0.00082049,8199.2,0.00082895,8479.6,-0.00022046,594.76,-0.0002998,-1.4008,0.053717
8034,2.96,2.5455,0.1,0.00084448,8439,0.00085359,8743,-0.0002239,647.2,-0.00031026,-1.6576,0.054151
8035,2.96,2.7273,0.1,0.00085817,8575.8,0.00086749,8887.1,-0.00022714,662.41,-0.00031549,-1.37,0.054447
8036,2.96,2.9091,0.1,0.00086409,8634.9,0.00087346,8947.8,-0.00022885,665.51,-0.00031757,-1.1517,0.054598
8037,2.96,3.0909,0.1,0.00086409,8634.9,0.00087346,8947.8,-0.00022885,665.51,-0.00031757,-1.1517,0.054598
8038,2.96,3.2727,0.1,0.00085817,8575.8,0.00086749,8887.1,-0.00022714,662.41,-0.00031549,-1.37,0.054447
8039,2.96,3.4545,0.1,0.00084448,8439,0.00085359,8743,-0.0002239,647.2,-0.00031026,-1.6577,0.054151
8040,2.96,3.6364,0.1,0.00082049,8199.2,0.00082895,8479.6,-0.00022046,594.76,-0.0002998,-1.4008,0.053717
8041,2.96,3.8182,0.1,0.00078612,7855.7,0.00079286,8074.6,-0.00021977,466.1,-0.00028274,-6.991,0.053159
8042,2.96,4,0.1,0.00074327,7427.6,0.00074699,7543.5,-0.0002237,250.15,-0.00025851,-11.446,0.052488
8043,2.96,4.1818,0.1,0.00069467,6941.9,0.00069423,6930,-0.0002227,40.608,-0.00023652,-63.212,0.051712
8044,2.96,4.3636,0.1,0.00064177,6413.3,0.00063719,6286.5,-0.0001982,9.7488,-0.00023344,-255.07,0.050839
8045,2.96,4.5455,0.1,0.0005851,5846.9,0.00057805,5657.6,-0.00017387,7.8969,-0.00022396,-368.48,0.049879
8046,2.96,4.7273,0.1,0.00052841,5280.5,0.00052079,5078,-0.0001542,6.4145,-0.00020684,-389.09,0.048845
8047,2.96,4.9091,0.1,0.00047475,4744.2,0.00046792,4562.8,-0.00013856,5.9413,-0.00018578,-348.82,0.047749
8048,2.96,5.0909,0.1,0.00042633,4260.4,0.00042095,4116.4,-0.00012606,6.2847,-0.00016415,-279.86,0.046601
8049,2.96,5.2727,0.1,0.00038474,3844.7,0.00038087,3739.9,-0.00011593,7.0923,-0.00014452,-207.73,0.045408
8050,2.96,5.4545,0.1,0.00035136,3511.2,0.00034865,3436.8,-0.00010769,8.016,-0.00012891,-151.44,0.04417
8051,2.96,5.6364,0.1,0.00032768,3274.5,0.00032548,3213.9,-0.00010129,7.2755,-0.00011884,-124.61,0.042886
8052,2.96,5.8182,0.1,0.00031683,3166.1,0.00031413,3092.2,-9.6728e-05,5.195,-0.00011703,-147.36,0.041552
8053,3.145,0.18182,0.1,0.00025654,2563.6,0.00025388,2492.2,-7.6509e-05,9.8271,-9.719e-05,-145.56,0.04675
8054,3.145,0.36364,0.1,0.00027216,2719.7,0.0002697,2653.5,-8.1948e-05,11.303,-0.00010178,-137.67,0.048162
8055,3.145,0.54545,0.1,0.00030484,3046.3,0.00030078,2938.7,-8.9111e-05,9.2079,-0.0001186,-212.35,0.049544
8056,3.145,0.72727,0.1,0.00034944,3492,0.00034248,3312.6,-9.7483e-05,6.8697,-0.00014362,-339.78,0.050901
8057,3.145,0.90909,0.1,0.00040371,4034.3,0.00039296,3764.3,-0.00010728,5.708,-0.00017437,-498.35,0.052238
8058,3.145,1.0909,0.1,0.00046673,4664.1,0.00045182,4296.7,-0.0001193,5.5952,-0.00020885,-667.26,0.053551
8059,3.145,1.2727,0.1,0.00053807,5377,0.00051948,4923,-0.00013496,5.752,-0.00024468,-818.62,0.054834
8060,3.145,1.4545,0.1,0.00061697,6165.5,0.00059648,5662.6,-0.00015637,5.9928,-0.00027819,-909.37,0.056072
8061,3.145,1.6364,0.1,0.00069754,6970.6,0.00067916,6510.1,-0.0001851,16.348,-0.00030111,-855.32,0.057246
8062,3.145,1.8182,0.1,0.0007739,7733.7,0.00076228,7426.5,-0.00022451,12.16,-0.00030479,-591.08,0.058332
8063,3.145,2,0.1,0.00084129,8407.1,0.000838,8315.2,-0.0002649,28.44,-0.00029627,-207.28,0.059309
8064,3.145,2.1818,0.1,0.00089619,8955.8,0.00089847,9024.1,-0.0002848,133.41,-0.00030195,4.6009,0.060162
8065,3.145,2.3636,0.1,0.00093627,9356.2,0.00094042,9484.4,-0.00028582,270.89,-0.00032297,-8.2225,0.060874
8066,3.145,2.5455,0.1,0.00095501,9543.5,0.00095985,9693.1,-0.00028918,308.38,-0.00033044,-1.5935,0.061428
8067,3.145,2.7273,0.1,0.00096099,9603.2,0.00096594,9756.6,-0.00029049,316.26,-0.00033279,-1.5292,0.061806
8068,3.145,2.9091,0.1,0.00096192,9612.6,0.00096691,9766.8,-0.00029075,317.28,-0.00033309,-0.90527,0.061997
8069,3.145,3.0909,0.1,0.00096192,9612.6,0.00096691,9766.8,-0.00029075,317.28,-0.00033309,-0.90527,0.061997
8070,3.145,3.2727,0.1,0.00096099,9603.2,0.00096594,9756.6,-0.00029049,316.26,-0.00033279,-1.5292,0.061806
8071,3.145,3.4545,0.1,0.00095501,9543.5,0.00095985,9693.1,-0.00028918,308.38,-0.00033044,-1.5935,0.061428
8072,3.145,3.6364,0.1,0.00093627,9356.2,0.00094042,9484.4,-0.00028582,270.89,-0.00032297,-8.2225,0.060874
8073,3.145,3.8182,0.1,0.00089619,8955.8,0.00089847,9024.1,-0.0002848,133.41,-0.00030194,4.6009,0.060162
8074,3.145,4,0.1,0.00084129,8407.1,0.000838,8315.2,-0.0002649,28.44,-0.00029627,-207.28,0.059309
8075,3.145,4.1818,0.1,0.0007739,7733.6,0.00076228,7426.5,-0.00022451,12.16,-0.00030479,-591.07,0.058332
8076,3.145,4.3636,0.1,0.00069754,6970.6,0.00067916,6510.1,-0.0001851,16.348,-0.00030111,-855.32,0.057246
8077,3.145,4.5455,0.1,0.00061697,6165.5,0.00059648,5662.6,-0.00015637,5.9927,-0.00027819,-909.37,0.056072
8078,3.145,4.7273,0.1,0.00053807,5377,0.00051948,4923,-0.00013496,5.752,-0.00024468,-818.62,0.054834
8079,3.145,4.9091,0.1,0.00046673,4664.1,0.00045182,4296.7,-0.0001193,5.5952,-0.00020885,-667.26,0.053551
8080,3.145,5.0909,0.1,0.00040371,4034.3,0.00039296,3764.3,-0.00010728,5.708,-0.00017437,-498.35,0.052238
8081,3.145,5.2727,0.1,0.00034944,3492,0.00034248,3312.6,-9.7483e-05,6.8697,-0.00014362,-339.78,0.050901
8082,3.145,5.4545,0.1,0.00030484,3046.3,0.00030078,2938.7,-8.9111e-05,9.2079,-0.0001186,-212.35,0.049544
8083,3.145,5.6364,0.1,0.00027216,2719.7,0.0002697,2653.5,-8.1948e-05,11.303,-0.00010178,-137.67,0.048162
8084,3.145,5.8182,0.1,0.00025654,2563.6,0.00025388,2492.2,-7.6509e-05,9.8271,-9.719e-05,-145.56,0.04675
8085,3.33,0.18182,0.1,0.00019019,1900.6,0.00018756,1832.8,-5.4121e-05,16.975,-7.5346e-05,-142.5,0.052097
8086,3.33,0.36364,0.1,0.00021644,2162.9,0.00021309,2076.4,-6.1452e-05,13.573,-8.6463e-05,-174.35,0.053585
8087,3.33,0.54545,0.1,0.00026337,2631.8,0.00025632,2455.8,-6.9535e-05,7.5053,-0.00011411,-327.43,0.055067
8088,3.33,0.72727,0.1,0.00032186,3216.4,0.00030906,2909.2,-7.7602e-05,4.0219,-0.00015095,-547.09,0.056552
8089,3.33,0.90909,0.1,0.0003898,3895.3,0.0003697,3428.5,-8.6259e-05,2.5783,-0.00019421,-808.56,0.058046
8090,3.33,1.0909,0.1,0.00046812,4678,0.00043955,4029.6,-9.6538e-05,1.6011,-0.00024333,-1101.3,0.059549
8091,3.33,1.2727,0.1,0.00055987,5594.8,0.00052212,4750.5,-0.00010991,1.6883,-0.00029874,-1417.2,0.061054
8092,3.33,1.4545,0.1,0.00066725,6667.9,0.00062147,5646.9,-0.00012973,2.6973,-0.00035772,-1710.3,0.062547
8093,3.33,1.6364,0.1,0.00079326,7927.1,0.00074406,6811,-0.00016292,-3.6929,-0.00041379,-1888.7,0.064002
8094,3.33,1.8182,0.1,0.000926,9253.6,0.0008843,8261.6,-0.000217,-13.155,-0.00044553,-1730.2,0.065381
8095,3.33,2,0.1,0.0010169,10162,0.00099663,9617.4,-0.00029623,-96.601,-0.00040843,-939.66,0.066636
8096,3.33,2.1818,0.1,0.0010898,10891,0.0010823,10676,-0.00034478,-46.581,-0.00038865,-376.16,0.067733
8097,3.33,2.3636,0.1,0.0011087,11079,0.0011057,10994,-0.00035548,15.43,-0.00038188,-183,0.068647
8098,3.33,2.5455,0.1,0.0010982,10974,0.0010959,10908,-0.00035531,3.8746,-0.00037395,-136.11,0.069349
8099,3.33,2.7273,0.1,0.0010797,10790,0.0010781,10741,-0.00035118,2.6405,-0.00036471,-99.008,0.069822
8100,3.33,2.9091,0.1,0.0010686,10679,0.0010672,10638,-0.00034856,0.47418,-0.00035948,-81.561,0.070059
8101,3.33,3.0909,0.1,0.0010686,10679,0.0010672,10638,-0.00034856,0.47418,-0.00035948,-81.562,0.070059
8102,3.33,3.2727,0.1,0.0010797,10790,0.0010781,10741,-0.00035118,2.6405,-0.00036471,-99.009,0.069822
8103,3.33,3.4545,0.1,0.0010982,10974,0.0010959,10908,-0.00035531,3.8745,-0.00037395,-136.11,0.069349
8104,3.33,3.6364,0.1,0.0011087,11079,0.0011057,10994,-0.00035547,15.43,-0.00038188,-183,0.068647
8105,3.33,3.8182,0.1,0.0010898,10891,0.0010823,10676,-0.00034478,-46.581,-0.00038865,-376.16,0.067733
8106,3.33,4,0.1,0.0010169,10162,0.00099663,9617.4,-0.00029623,-96.601,-0.00040843,-939.66,0.066636
8107,3.33,4.1818,0.1,0.000926,9253.6,0.0008843,8261.6,-0.000217,-13.155,-0.00044553,-1730.2,0.065381
8108,3.33,4.3636,0.1,0.00079326,7927.1,0.00074406,6811,-0.00016292,-3.6929,-0.00041379,-1888.7,0.064002
8109,3.33,4.5455,0.1,0.00066725,6667.9,0.00062147,5646.9,-0.00012973,2.6973,-0.00035772,-1710.3,0.062547
8110,3.33,4.7273,0.1,0.00055987,5594.8,0.00052212,4750.5,-0.00010991,1.6883,-0.00029874,-1417.2,0.061054
8111,3.33,4.9091,0.1,0.00046812,4678,0.00043955,4029.6,-9.6538e-05,1.6011,-0.00024333,-1101.3,0.059549
8112,3.33,5.0909,0.1,0.0003898,3895.3,0.0003697,3428.5,-8.6259e-05,2.5783,-0.00019421,-808.56,0.058046
8113,3.33,5.2727,0.1,0.00032186,3216.4,0.00030906,2909.2,-7.7602e-05,4.0219,-0.00015095,-547.09,0.056552
8114,3.33,5.4545,0.1,0.00026337,2631.8,0.00025632,2455.8,-6.9535e-05,7.5053,-0.00011411,-327.43,0.055067
8115,3.33,5.6364,0.1,0.00021644,2162.9,0.00021309,2076.4,-6.1452e-05,13.573,-8.6463e-05,-174.35,0.053585
8116,3.33,5.8182,0.1,0.00019019,1900.6,0.00018756,1832.8,-5.4121e-05,16.975,-7.5346e-05,-142.5,0.052097
8117,3.515,0.18182,0.1,0.0001276,1275.1,0.00012351,1185.6,-2.8746e-05,41.563,-5.9451e-05,-189.14,0.057542
8118,3.515,0.36364,0.1,0.00018336,1832.4,0.0001748,1636.7,-4.0299e-05,20.593,-9.0153e-05,-353.99,0.059101
8119,3.515,0.54545,0.1,0.00025232,2521.5,0.00023551,2149.8,-4.8636e-05,14.835,-0.00013473,-632.06,0.060683
8120,3.515,0.72727,0.1,0.0003277,3274.8,0.00030038,2687.6,-5.5663e-05,12.409,-0.00018567,-964.4,0.062302
8121,3.515,0.90909,0.1,0.0004113,4110.2,0.00037129,3269.1,-6.223e-05,11.793,-0.00024333,-1348.9,0.063965
8122,3.515,1.0909,0.1,0.00050735,5070,0.00045203,3928.1,-6.8911e-05,13.946,-0.00031021,-1799.1,0.065677
8123,3.515,1.2727,0.1,0.00062334,6229.1,0.00054927,4719.1,-7.7258e-05,11.655,-0.00039082,-2344.3,0.067437
8124,3.515,1.4545,0.1,0.00077189,7713.6,0.0006749,5763.1,-8.7564e-05,34.225,-0.00049242,-3007.7,0.069237
8125,3.515,1.6364,0.1,0.00098404,9833.7,0.00085593,7246.9,-0.00011062,-15.369,-0.00063345,-3943.7,0.071058
8126,3.515,1.8182,0.1,0.0012903,12894,0.0011546,10143,-0.00016925,195.52,-0.00078418,-4424.9,0.072852
8127,3.515,2,0.1,0.0015208,15197,0.0014512,13796,-0.00028499,750.34,-0.00076972,-2891.7,0.074529
8128,3.515,2.1818,0.1,0.0014547,14537,0.0014327,13951,-0.00042346,4.5698,-0.00057227,-1113.6,0.07598
8129,3.515,2.3636,0.1,0.0013581,13572,0.0013424,13151,-0.00040458,24.046,-0.00051774,-826.24,0.077143
8130,3.515,2.5455,0.1,0.0012535,12527,0.0012419,12208,-0.0003834,-4.4244,-0.00046414,-611.1,0.078004
8131,3.515,2.7273,0.1,0.0011926,11918,0.0011832,11656,-0.0003676,4.5492,-0.00043619,-510.84,0.07857
8132,3.515,2.9091,0.1,0.0011638,11630,0.0011553,11393,-0.00036093,0.82295,-0.00042239,-460.97,0.07885
8133,3.515,3.0909,0.1,0.0011638,11630,0.0011553,11393,-0.00036093,0.82295,-0.00042239,-460.97,0.07885
8134,3.515,3.2727,0.1,0.0011926,11918,0.0011832,11656,-0.0003676,4.5492,-0.00043619,-510.84,0.07857
8135,3.515,3.4545,0.1,0.0012535,12527,0.0012419,12208,-0.0003834,-4.4245,-0.00046414,-611.1,0.078004
8136,3.515,3.6364,0.1,0.0013581,13572,0.0013424,13151,-0.00040458,24.046,-0.00051774,-826.24,0.077143
8137,3.515,3.8182,0.1,0.0014547,14537,0.0014327,13951,-0.00042346,4.5697,-0.00057227,-1113.6,0.07598
8138,3.515,4,0.1,0.0015208,15197,0.0014512,13796,-0.00028499,750.34,-0.00076972,-2891.7,0.074529
8139,3.515,4.1818,0.1,0.0012903,12894,0.0011546,10143,-0.00016925,195.52,-0.00078418,-4424.9,0.072852
8140,3.515,4.3636,0.1,0.00098404,9833.7,0.00085593,7246.9,-0.00011062,-15.369,-0.00063345,-3943.7,0.071058
8141,3.515,4.5455,0.1,0.00077189,7713.6,0.0006749,5763.1,-8.7564e-05,34.225,-0.00049242,-3007.7,0.069237
8142,3.515,4.7273,0.1,0.00062334,6229.1,0.00054927,4719.1,-7.7258e-05,11.655,-0.00039082,-2344.3,0.067437
8143,3.515,4.9091,0.1,0.00050735,5070,0.00045203,3928.1,-6.8911e-05,13.946,-0.00031021,-1799.1,0.065677
8144,3.515,5.0909,0.1,0.0004113,4110.2,0.00037129,3269.1,-6.223e-05,11.793,-0.00024333,-1348.9,0.063965
8145,3.515,5.2727,0.1,0.0003277,3274.8,0.00030038,2687.6,-5.5663e-05,12.409,-0.00018567,-964.4,0.062302
8146,3.515,5.4545,0.1,0.00025232,2521.5,0.00023551,2149.8,-4.8636e-05,14.835,-0.00013473,-632.06,0.060683
8147,3.515,5.6364,0.1,0.00018336,1832.4,0.0001748,1636.7,-4.0299e-05,20.593,-9.0153e-05,-353.99,0.059101
8148,3.515,5.8182,0.1,0.0001276,1275.1,0.00012351,1185.6,-2.8746e-05,41.563,-5.9451e-05,-189.14,0.057542
8149,3.8667,3.8182,0.1,0.0019424,19410,0.0019082,18488,-0.00057157,-144.19,-0.00076755,-1616.7,0.094461
8150,3.8667,3.6364,0.1,0.0015387,15377,0.0015135,14718,-0.00043867,50.444,-0.00061591,-1281.3,0.095845
8151,3.8667,3.4545,0.1,0.0013527,13517,0.0013331,12996,-0.00039667,-1.3168,-0.00052796,-987.74,0.096826
8152,3.8667,3.2727,0.1,0.0012561,12552,0.00124,12120,-0.00037233,5.3915,-0.00048331,-828.46,0.097454
8153,3.8667,3.0909,0.1,0.0012148,12139,0.0012002,11745,-0.00036267,2.6242,-0.00046349,-754.86,0.097762
8154,3.8667,2.9091,0.1,0.0012148,12139,0.0012002,11745,-0.00036267,2.6242,-0.00046349,-754.86,0.097762
8155,3.8667,2.7273,0.1,0.0012561,12552,0.00124,12120,-0.00037233,5.3915,-0.00048331,-828.46,0.097454
8156,3.8667,2.5455,0.1,0.0013527,13517,0.0013331,12996,-0.00039667,-1.3169,-0.00052796,-987.73,0.096826
8157,3.8667,2.3636,0.1,0.0015387,15377,0.0015135,14718,-0.00043867,50.444,-0.00061591,-1281.3,0.095845
8158,3.8667,2.1818,0.1,0.0019424,19410,0.0019082,18488,-0.00057157,-144.19,-0.00076755,-1616.7,0.094461
8159,3.7,3.8182,0.1,0.0019609,19595,0.0019252,18633,-0.00057545,-155.99,-0.00077824,-1679.6,0.085135
8160,3.7,3.6364,0.1,0.0015481,15470,0.001523,14815,-0.0004425,47.418,-0.00061811,-1272.1,0.086519
8161,3.7,3.4545,0.1,0.0013583,13574,0.0013395,13070,-0.00040008,-0.5549,-0.00052734,-956.73,0.087497
8162,3.7,3.2727,0.1,0.0012603,12595,0.0012451,12184,-0.0003758,5.374,-0.00048141,-788.17,0.088123
8163,3.7,3.0909,0.1,0.0012184,12176,0.0012048,11806,-0.00036612,2.7294,-0.00046109,-710.82,0.088429
8164,3.7,2.9091,0.1,0.0012184,12176,0.0012048,11806,-0.00036612,2.7294,-0.00046109,-710.82,0.088429
8165,3.7,2.7273,0.1,0.0012603,12595,0.0012451,12184,-0.0003758,5.374,-0.00048141,-788.17,0.088123
8166,3.7,2.5455,0.1,0.0013583,13574,0.0013395,13070,-0.00040008,-0.55492,-0.00052733,-956.73,0.087497
8167,3.7,2.3636,0.1,0.0015481,15470,0.001523,14815,-0.0004425,47.418,-0.00061811,-1272.1,0.086519
8168,3.7,2.1818,0.1,0.0019609,19595,0.0019252,18633,-0.00057545,-155.99,-0.00077824,-1679.6,0.085135
8169,3.8667,5.8182,0.1,5.4287e-05,542.49,5.1931e-05,482.59,-1.4091e-05,-13.466,-2.5169e-05,-96.706,0.071933
8170,3.8667,5.6364,0.1,9.9557e-05,994.88,9.3129e-05,843.51,-2.1703e-05,-19.283,-5.171e-05,-244.75,0.073715
8171,3.8667,5.4545,0.1,0.00014255,1424.5,0.00013072,1160.7,-2.6372e-05,-19.645,-7.9873e-05,-421.63,0.075536
8172,3.8667,5.2727,0.1,0.00018818,1880.5,0.00016954,1478.9,-3.0204e-05,-21.864,-0.00011121,-630.53,0.077408
8173,3.8667,5.0909,0.1,0.0002394,2392.3,0.00021226,1822.4,-3.3681e-05,-25.496,-0.00014738,-879.78,0.079337
8174,3.8667,4.9091,0.1,0.00029998,2997.8,0.00026208,2218.4,-3.6973e-05,-28.589,-0.00019094,-1185.4,0.081329
8175,3.8667,4.7273,0.1,0.0003759,3756.4,0.000324,2703.3,-4.1388e-05,-42.131,-0.00024575,-1577.6,0.083392
8176,3.8667,4.5455,0.1,0.00048149,4811.6,0.00040855,3363.7,-4.408e-05,-37.186,-0.00032416,-2141.6,0.085532
8177,3.8667,4.3636,0.1,0.0006149,6144.7,0.0005229,4271.7,-6.4799e-05,-144.02,-0.00041109,-2745.9,0.087758
8178,3.8667,4.1818,0.1,0.0010785,10778,0.00084455,6481.4,-1.453e-05,26.625,-0.00081139,-5960.7,0.090069
8179,3.8667,4,0.1,0.0028236,28217,0.0027357,26419,-0.00059979,1357.6,-0.0013318,-4142.5,0.092557
8180,3.7,4,0.1,0.0029105,29085,0.0028119,27067,-0.00060549,1390.2,-0.001392,-4519,0.083214
8181,3.7,4.1818,0.1,0.0011703,11695,0.00091916,7071.5,-1.8923e-05,23.115,-0.00087757,-6428.4,0.080647
8182,3.7,4.3636,0.1,0.0006901,6896.2,0.0005908,4865.5,-7.6402e-05,-147.59,-0.00045592,-2999.1,0.078282
8183,3.7,4.5455,0.1,0.00055252,5521.4,0.00047549,3970.3,-5.8314e-05,-40.466,-0.00036264,-2327.1,0.076026
8184,3.7,4.7273,0.1,0.00044238,4420.8,0.00038816,3298.5,-5.6871e-05,-45.314,-0.00027891,-1713.6,0.073885
8185,3.7,4.9091,0.1,0.00036147,3612.2,0.00032222,2784.5,-5.2579e-05,-31.641,-0.00021981,-1288.2,0.071853
8186,3.7,5.0909,0.1,0.00029506,2948.6,0.00026705,2342.9,-4.8577e-05,-28.631,-0.00017235,-958.6,0.069922
8187,3.7,5.2727,0.1,0.00023685,2366.9,0.00021754,1937.6,-4.3684e-05,-25.101,-0.00013229,-690.85,0.068084
8188,3.7,5.4545,0.1,0.00018279,1826.7,0.00017039,1541.3,-3.7801e-05,-22.937,-9.679e-05,-466.16,0.066332
8189,3.7,5.6364,0.1,0.00012956,1294.7,0.00012266,1127.6,-3.0488e-05,-23.127,-6.3928e-05,-274.38,0.064652
8190,3.7,5.8182,0.1,7.1148e-05,710.99,6.8511e-05,642.94,-1.908e-05,-15.189,-3.1854e-05,-111.17,0.063029
8191,3.8667,0.18182,0.1,5.4287e-05,542.49,5.1931e-05,482.59,-1.4091e-05,-13.466,-2.5169e-05,-96.706,0.071933
8192,3.8667,0.36364,0.1,9.9557e-05,994.88,9.3129e-05,843.51,-2.1703e-05,-19.283,-5.171e-05,-244.75,0.073715
8193,3.8667,0.54545,0.1,0.00014255,1424.5,0.00013072,1160.7,-2.6372e-05,-19.645,-7.9873e-05,-421.63,0.075536
8194,3.8667,0.72727,0.1,0.00018818,1880.5,0.00016954,1478.9,-3.0204e-05,-21.864,-0.00011121,-630.53,0.077408
8195,3.8667,0.90909,0.1,0.0002394,2392.3,0.00021226,1822.4,-3.3681e-05,-25.496,-0.00014738,-879.78,0.079337
8196,3.8667,1.0909,0.1,0.00029998,2997.8,0.00026208,2218.4,-3.6973e-05,-28.589,-0.00019094,-1185.4,0.081329
8197,3.8667,1.2727,0.1,0.0003759,3756.4,0.000324,2703.3,-4.1388e-05,-42.131,-0.00024575,-1577.6,0.083392
8198,3.8667,1.4545,0.1,0.00048149,4811.6,0.00040855,3363.7,-4.408e-05,-37.186,-0.00032416,-2141.6,0.085532
8199,3.8667,1.6364,0.1,0.0006149,6144.7,0.0005229,4271.7,-6.4799e-05,-144.02,-0.00041109,-2745.9,0.087758
8200,3.8667,1.8182,0.1,0.0010785,10778,0.00084455,6481.4,-1.453e-05,26.624,-0.00081139,-5960.7,0.090069
8201,3.8667,2,0.1,0.0028236,28217,0.0027357,26419,-0.00059979,1357.6,-0.0013318,-4142.5,0.092557
8202,3.7,2,0.1,0.0029105,29085,0.0028119,27067,-0.00060549,1390.2,-0.001392,-4519,0.083214
8203,3.7,1.8182,0.1,0.0011703,11695,0.00091916,7071.5,-1.8923e-05,23.115,-0.00087757,-6428.4,0.080647
8204,3.7,1.6364,0.1,0.0006901,6896.2,0.0005908,4865.5,-7.6402e-05,-147.59,-0.00045592,-2999.1,0.078282
8205,3.7,1.4545,0.1,0.00055252,5521.4,0.00047549,3970.3,-5.8314e-05,-40.466,-0.00036264,-2327.1,0.076026
8206,3.7,1.2727,0.1,0.00044238,4420.8,0.00038816,3298.5,-5.6871e-05,-45.314,-0.00027891,-1713.6,0.073885
8207,3.7,1.0909,0.1,0.00036147,3612.2,0.00032222,2784.5,-5.2579e-05,-31.641,-0.00021981,-1288.2,0.071853
8208,3.7,0.90909,0.1,0.00029506,2948.6,0.00026705,2342.9,-4.8577e-05,-28.631,-0.00017235,-958.6,0.069922
8209,3.7,0.72727,0.1,0.00023685,2366.9,0.00021754,1937.6,-4.3684e-05,-25.101,-0.00013229,-690.85,0.068084
8210,3.7,0.54545,0.1,0.00018279,1826.7,0.00017039,1541.3,-3.7801e-05,-22.937,-9.679e-05,-466.16,0.066332
8211,3.7,0.36364,0.1,0.00012956,1294.7,0.00012266,1127.6,-3.0488e-05,-23.127,-6.3928e-05,-274.38,0.064652
8212,3.7,0.18182,0.1,7.1148e-05,710.99,6.8511e-05,642.94,-1.908e-05,-15.189,-3.1854e-05,-111.17,0.063029
8213,3.8667,6,0.1,6.9255e-06,69.207,5.346e-06,62.945,2.6811e-06,42.922,-4.9036e-06,-14.066,0.070179
8214,4.0514,6,0.1,6.5964e-05,659.19,6.5618e-05,649.82,-2.0236e-05,4.7567,-2.3881e-05,-22.631,0.084974
8215,4.2361,6,0.1,0.0001289,1288.1,0.00012838,1273.2,-4.1522e-05,-3.4002,-4.4544e-05,-26.11,0.099821
8216,4.4208,6,0.1,0.00018416,1840.3,0.00018365,1825.8,-5.9423e-05,-0.58938,-6.3086e-05,-28.114,0.11476
8217,4.6055,6,0.1,0.00023287,2327.1,0.00023239,2313.3,-7.5482e-05,0.06212,-7.9132e-05,-27.364,0.12982
8218,4.7902,6,0.1,0.00027479,2746,0.00027437,2734,-8.9374e-05,0.89608,-9.2795e-05,-24.811,0.14504
8219,4.9749,6,0.1,0.00031001,3098,0.00030966,3087.7,-0.00010112,1.3006,-0.00010417,-21.63,0.16044
8220,5.1596,6,0.1,0.00033887,3386.4,0.00033858,3377.9,-0.00011079,1.4855,-0.00011343,-18.348,0.17606
8221,5.3443,6,0.1,0.00036194,3616.9,0.0003617,3609.9,-0.00011856,1.4861,-0.00012079,-15.286,0.1919
8222,5.5291,6,0.1,0.00037989,3796.3,0.0003797,3790.7,-0.00012463,1.3763,-0.00012648,-12.579,0.20799
8223,5.7138,6,0.1,0.00039346,3931.9,0.00039331,3927.4,-0.00012923,1.2043,-0.00013076,-10.271,0.22434
8224,5.8985,6,0.1,0.00040333,4030.5,0.00040321,4026.9,-0.0001326,1.0065,-0.00013385,-8.3472,0.24095
8225,6.0832,6,0.1,0.00041013,4098.5,0.00041003,4095.5,-0.00013494,0.80632,-0.00013595,-6.773,0.25784
8226,6.2679,6,0.1,0.00041442,4141.3,0.00041434,4138.9,-0.00013643,0.61784,-0.00013725,-5.5035,0.27501
8227,6.4526,6,0.1,0.00041666,4163.8,0.00041659,4161.7,-0.00013724,0.44874,-0.0001379,-4.4941,0.29246
8228,6.6373,6,0.1,0.00041726,4169.8,0.0004172,4168,-0.00013749,0.30227,-0.00013802,-3.7042,0.31019
8229,6.822,6,0.1,0.00041655,4162.6,0.0004165,4161.1,-0.00013729,0.17892,-0.00013773,-3.0987,0.32821
8230,7.0067,6,0.1,0.00041478,4145,0.00041474,4143.7,-0.00013674,0.077581,-0.0001371,-2.6473,0.34652
8231,7.1914,6,0.1,0.00041219,4119.1,0.00041215,4117.9,-0.00013591,-0.0037482,-0.00013622,-2.3247,0.3651
8232,7.3761,6,0.1,0.00040895,4086.7,0.00040892,4085.6,-0.00013486,-0.06743,-0.00013513,-2.1095,0.38397
8233,7.5609,6,0.1,0.00040521,4049.3,0.00040517,4048.2,-0.00013363,-0.1159,-0.00013388,-1.9836,0.40311
8234,7.7456,6,0.1,0.00040106,4007.9,0.00040103,4006.8,-0.00013227,-0.15149,-0.0001325,-1.9316,0.42254
8235,7.9303,6,0.1,0.00039661,3963.4,0.00039658,3962.3,-0.0001308,-0.17638,-0.00013104,-1.9404,0.44223
8236,8.115,6,0.1,0.00039193,3916.6,0.00039189,3915.5,-0.00012925,-0.1925,-0.00012949,-1.9989,0.4622
8237,8.2997,6,0.1,0.00038707,3868.1,0.00038703,3866.9,-0.00012765,-0.20156,-0.0001279,-2.0974,0.48243
8238,8.4844,6,0.1,0.00038208,3818.2,0.00038204,3817,-0.00012599,-0.20504,-0.00012626,-2.2279,0.50293
8239,8.6691,6,0.1,0.000377,3767.4,0.00037695,3766.1,-0.00012431,-0.20415,-0.0001246,-2.3833,0.52368
8240,8.8538,6,0.1,0.00037184,3715.9,0.0003718,3714.5,-0.0001226,-0.19993,-0.00012291,-2.5578,0.5447
8241,9.0385,6,0.1,0.00036664,3663.9,0.00036659,3662.4,-0.00012087,-0.19323,-0.00012121,-2.7466,0.56597
8242,9.2232,6,0.1,0.00036141,3611.6,0.00036135,3610,-0.00011913,-0.18471,-0.0001195,-2.9454,0.58749
8243,9.408,6,0.1,0.00035616,3559.1,0.0003561,3557.4,-0.00011739,-0.17495,-0.00011779,-3.1509,0.60925
8244,9.5927,6,0.1,0.0003509,3506.6,0.00035084,3504.8,-0.00011564,-0.16437,-0.00011607,-3.3603,0.63126
8245,9.7774,6,0.1,0.00034564,3454,0.00034558,3452.2,-0.0001139,-0.15331,-0.00011435,-3.5714,0.6535
8246,9.9621,6,0.1,0.00034039,3401.5,0.00034032,3399.6,-0.00011215,-0.14205,-0.00011264,-3.7823,0.67598
8247,10.147,6,0.1,0.00033515,3349.2,0.00033508,3347.1,-0.00011041,-0.13082,-0.00011093,-3.9917,0.6987
8248,10.331,6,0.1,0.00032992,3296.9,0.00032985,3294.8,-0.00010868,-0.11975,-0.00010922,-4.1985,0.72164
8249,10.516,6,0.1,0.00032471,3244.9,0.00032463,3242.6,-0.00010695,-0.10892,-0.00010752,-4.4018,0.74481
8250,10.701,6,0.1,0.00031952,3193,0.00031944,3190.6,-0.00010522,-0.098496,-0.00010582,-4.6012,0.76819
8251,10.886,6,0.1,0.00031435,3141.3,0.00031427,3138.9,-0.0001035,-0.088484,-0.00010413,-4.7963,0.7918
8252,11.07,6,0.1,0.0003092,3089.8,0.00030911,3087.3,-0.00010179,-0.078922,-0.00010245,-4.9867,0.81562
8253,11.255,6,0.1,0.00030407,3038.6,0.00030398,3036,-0.00010009,-0.069866,-0.00010077,-5.1725,0.83965
8254,11.44,6,0.1,0.00029896,2987.6,0.00029887,2984.9,-9.8398e-05,-0.061276,-9.9102e-05,-5.3536,0.86389
8255,11.624,6,0.1,0.00029388,2936.8,0.00029378,2934,-9.671e-05,-0.053158,-9.7439e-05,-5.5301,0.88833
8256,11.809,6,0.1,0.00028882,2886.2,0.00028872,2883.3,-9.5031e-05,-0.045493,-9.5784e-05,-5.7022,0.91297
8257,11.994,6,0.1,0.00028378,2835.8,0.00028368,2832.9,-9.3359e-05,-0.038321,-9.4136e-05,-5.8701,0.9378
8258,12.179,6,0.1,0.00027876,2785.7,0.00027866,2782.7,-9.1696e-05,-0.03159,-9.2494e-05,-6.034,0.96283
8259,12.363,6,0.1,0.00027377,2735.8,0.00027366,2732.7,-9.0039e-05,-0.025235,-9.086e-05,-6.1942,0.98805
8260,12.548,6,0.1,0.0002688,2686.1,0.00026869,2683,-8.8391e-05,-0.019307,-8.9233e-05,-6.3511,1.0135
8261,12.733,6,0.1,0.00026385,2636.7,0.00026374,2633.4,-8.675e-05,-0.013743,-8.7614e-05,-6.5048,1.039
8262,12.917,6,0.1,0.00025893,2587.5,0.00025881,2584.1,-8.5116e-05,-0.0085184,-8.6001e-05,-6.6558,1.0648
8263,13.102,6,0.1,0.00025402,2538.5,0.00025391,2535.1,-8.349e-05,-0.0036387,-8.4395e-05,-6.8043,1.0908
8264,13.287,6,0.1,0.00024914,2489.7,0.00024902,2486.2,-8.1872e-05,0.00096057,-8.2797e-05,-6.9507,1.1169
8265,13.472,6,0.1,0.00024428,2441.1,0.00024416,2437.6,-8.0261e-05,0.0052953,-8.1206e-05,-7.0953,1.1432
8266,13.656,6,0.1,0.00023944,2392.8,0.00023932,2389.2,-7.8657e-05,0.0093947,-7.9621e-05,-7.2383,1.1696
8267,13.841,6,0.1,0.00023463,2344.7,0.0002345,2341,-7.706e-05,0.013247,-7.8044e-05,-7.3802,1.1962
8268,14.026,6,0.1,0.00022983,2296.7,0.0002297,2293,-7.5471e-05,0.016899,-7.6474e-05,-7.5212,1.223
8269,14.21,6,0.1,0.00022506,2249,0.00022493,2245.2,-7.3888e-05,0.020374,-7.4911e-05,-7.6616,1.2499
8270,14.395,6,0.1,0.00022031,2201.6,0.00022017,2197.7,-7.2313e-05,0.023664,-7.3354e-05,-7.8018,1.277
8271,14.58,6,0.1,0.00021558,2154.3,0.00021544,2150.3,-7.0745e-05,0.026828,-7.1805e-05,-7.9419,1.3042
8272,14.765,6,0.1,0.00021087,2107.2,0.00021073,2103.2,-6.9183e-05,0.029874,-7.0263e-05,-8.0823,1.3316
8273,14.949,6,0.1,0.00020618,2060.4,0.00020604,2056.3,-6.7629e-05,0.032832,-6.8727e-05,-8.2232,1.3591
8274,15.134,6,0.1,0.00020151,2013.7,0.00020137,2009.5,-6.6081e-05,0.035683,-6.7199e-05,-8.3649,1.3868
8275,15.319,6,0.1,0.00019686,1967.3,0.00019672,1963,-6.454e-05,0.038469,-6.5677e-05,-8.5077,1.4146
8276,15.503,6,0.1,0.00019224,1921,0.00019209,1916.7,-6.3006e-05,0.041213,-6.4163e-05,-8.6517,1.4425
8277,15.688,6,0.1,0.00018763,1875,0.00018748,1870.6,-6.1478e-05,0.0439,-6.2655e-05,-8.7973,1.4706
8278,15.873,6,0.1,0.00018305,1829.2,0.00018289,1824.7,-5.9958e-05,0.046599,-6.1154e-05,-8.9446,1.4988
8279,16.057,6,0.1,0.00017848,1783.6,0.00017832,1779,-5.8443e-05,0.049299,-5.966e-05,-9.0939,1.5271
8280,16.242,6,0.1,0.00017393,1738.1,0.00017378,1733.5,-5.6936e-05,0.051997,-5.8173e-05,-9.2454,1.5555
8281,16.427,6,0.1,0.00016941,1692.9,0.00016925,1688.2,-5.5434e-05,0.054742,-5.6693e-05,-9.3993,1.5841
8282,16.612,6,0.1,0.0001649,1647.9,0.00016474,1643.1,-5.394e-05,0.057547,-5.5219e-05,-9.5557,1.6127
8283,16.796,6,0.1,0.00016042,1603.1,0.00016025,1598.2,-5.2451e-05,0.060436,-5.3752e-05,-9.7149,1.6415
8284,16.981,6,0.1,0.00015595,1558.5,0.00015578,1553.5,-5.0969e-05,0.063396,-5.2292e-05,-9.8769,1.6704
8285,17.166,6,0.1,0.00015151,1514,0.00015133,1509,-4.9493e-05,0.066471,-5.0839e-05,-10.042,1.6994
8286,17.35,6,0.1,0.00014708,1469.8,0.0001469,1464.7,-4.8024e-05,0.069679,-4.9392e-05,-10.21,1.7285
8287,17.535,6,0.1,0.00014267,1425.7,0.00014249,1420.6,-4.6561e-05,0.073024,-4.7952e-05,-10.382,1.7577
8288,17.72,6,0.1,0.00013828,1381.9,0.0001381,1376.6,-4.5104e-05,0.076549,-4.6519e-05,-10.557,1.787
8289,17.905,6,0.1,0.00013392,1338.2,0.00013373,1332.9,-4.3652e-05,0.08027,-4.5092e-05,-10.735,1.8164
8290,18.089,6,0.1,0.00012956,1294.8,0.00012938,1289.3,-4.2207e-05,0.084218,-4.3672e-05,-10.917,1.8458
8291,18.274,6,0.1,0.00012523,1251.5,0.00012504,1245.9,-4.0768e-05,0.088398,-4.2258e-05,-11.103,1.8754
8292,18.459,6,0.1,0.00012092,1208.4,0.00012073,1202.7,-3.9335e-05,0.092851,-4.085e-05,-11.292,1.905
8293,18.643,6,0.1,0.00011662,1165.4,0.00011643,1159.7,-3.7908e-05,0.097605,-3.9449e-05,-11.484,1.9348
8294,18.828,6,0.1,0.00011235,1122.7,0.00011215,1116.9,-3.6486e-05,0.10268,-3.8054e-05,-11.68,1.9646
8295,19.013,6,0.1,0.00010809,1080.1,0.00010788,1074.2,-3.507e-05,0.10813,-3.6666e-05,-11.88,1.9944
8296,19.198,6,0.1,0.00010385,1037.8,0.00010364,1031.7,-3.366e-05,0.11398,-3.5283e-05,-12.082,2.0244
8297,19.382,6,0.1,9.9623e-05,995.54,9.941e-05,989.4,-3.2255e-05,0.12025,-3.3906e-05,-12.287,2.0544
8298,19.567,6,0.1,9.5415e-05,953.49,9.5199e-05,947.25,-3.0855e-05,0.12701,-3.2535e-05,-12.494,2.0845
8299,19.752,6,0.1,9.1225e-05,911.62,9.1004e-05,905.27,-2.9462e-05,0.13429,-3.117e-05,-12.704,2.1147
8300,19.936,6,0.1,8.7051e-05,869.91,8.6827e-05,863.45,-2.8073e-05,0.14216,-2.9811e-05,-12.915,2.1449
8301,20.121,6,0.1,8.2894e-05,828.36,8.2665e-05,821.8,-2.6689e-05,0.15066,-2.8457e-05,-13.127,2.1751
8302,20.306,6,0.1,7.8752e-05,786.98,7.8519e-05,780.3,-2.5311e-05,0.15984,-2.7108e-05,-13.339,2.2055
8303,20.491,6,0.1,7.4626e-05,745.75,7.4389e-05,738.96,-2.3938e-05,0.1698,-2.5764e-05,-13.551,2.2358
8304,20.675,6,0.1,7.0516e-05,704.68,7.0275e-05,697.78,-2.257e-05,0.18059,-2.4426e-05,-13.76,2.2663
8305,20.86,6,0.1,6.6421e-05,663.76,6.6176e-05,656.76,-2.1207e-05,0.19232,-2.3092e-05,-13.967,2.2968
8306,21.045,6,0.1,6.2342e-05,622.99,6.2092e-05,615.88,-1.985e-05,0.20508,-2.1763e-05,-14.169,2.3273
8307,21.229,6,0.1,5.8278e-05,582.37,5.8023e-05,575.16,-1.8497e-05,0.21901,-2.0438e-05,-14.365,2.3578
8308,21.414,6,0.1,5.4228e-05,541.91,5.397e-05,534.6,-1.715e-05,0.23425,-1.9118e-05,-14.553,2.3884
8309,21.599,6,0.1,5.0195e-05,501.6,4.9932e-05,494.19,-1.5808e-05,0.25097,-1.7802e-05,-14.73,2.4191
8310,21.783,6,0.1,4.6177e-05,461.45,4.591e-05,453.95,-1.4472e-05,0.26939,-1.649e-05,-14.893,2.4497
8311,21.968,6,0.1,4.2176e-05,421.47,4.1904e-05,413.89,-1.3142e-05,0.28978,-1.5182e-05,-15.038,2.4804
8312,22.153,6,0.1,3.8193e-05,381.66,3.7916e-05,374,-1.1819e-05,0.3125,-1.3878e-05,-15.161,2.5111
8313,22.338,6,0.1,3.4229e-05,342.05,3.3948e-05,334.32,-1.0503e-05,0.33801,-1.2578e-05,-15.256,2.5419
8314,22.522,6,0.1,3.0286e-05,302.65,3.0001e-05,294.87,-9.1951e-06,0.3669,-1.1282e-05,-15.316,2.5727
8315,22.707,6,0.1,2.6369e-05,263.51,2.608e-05,255.69,-7.8975e-06,0.40009,-9.9909e-06,-15.329,2.6035
8316,22.892,6,0.1,2.2483e-05,224.67,2.2189e-05,216.84,-6.6121e-06,0.4386,-8.7045e-06,-15.283,2.6343
8317,23.076,6,0.1,1.8635e-05,186.22,1.8336e-05,178.39,-5.3421e-06,0.48525,-7.4235e-06,-15.154,2.6651
8318,23.261,6,0.1,1.4838e-05,148.27,1.4533e-05,140.48,-4.0928e-06,0.53902,-6.1491e-06,-14.911,2.6959
8319,23.446,6,0.1,1.111e-05,111.02,1.0797e-05,103.33,-2.8722e-06,0.62373,-4.8804e-06,-14.465,2.7267
8320,23.631,6,0.1,7.5003e-06,74.951,7.1712e-06,67.337,-1.6978e-06,0.69894,-3.6283e-06,-13.806,2.7576
8321,23.815,6,0.1,4.0184e-06,40.156,3.6902e-06,33.429,-6.1778e-07,1.0599,-2.2906e-06,-11.509,2.7884
8322,24,6,0.1,9.4795e-07,9.473,7.418e-07,5.1799,-8.6629e-08,-1.0446,-7.0916e-07,-5.722,2.8193
8323,24,5.8182,0.1,3.9738e-06,39.71,1.9561e-06,6.7502,7.7417e-07,-2.1301,-3.8199e-06,-36.648,2.8194
8324,24,5.6364,0.1,6.7109e-06,67.063,2.9025e-06,7.1426,1.664e-06,-2.1635,-6.5776e-06,-64.087,2.8196
8325,24,5.4545,0.1,8.8189e-06,88.128,3.6217e-06,7.2671,2.3394e-06,-2.3677,-8.696e-06,-85.283,2.8197
8326,24,5.2727,0.1,1.0576e-05,105.68,4.2084e-06,7.3075,2.9163e-06,-2.4006,-1.0459e-05,-102.9,2.8199
8327,24,5.0909,0.1,1.2073e-05,120.65,4.704e-06,7.2871,3.4096e-06,-2.4381,-1.1961e-05,-117.93,2.82
8328,24,4.9091,0.1,1.3365e-05,133.56,5.1291e-06,7.2473,3.8371e-06,-2.4601,-1.3257e-05,-130.9,2.8201
8329,24,4.7273,0.1,1.4484e-05,144.74,5.4959e-06,7.1972,4.2083e-06,-2.4776,-1.438e-05,-142.14,2.8202
8330,24,4.5455,0.1,1.5453e-05,154.42,5.8124e-06,7.1447,4.5301e-06,-2.4907,-1.5351e-05,-151.87,2.8203
8331,24,4.3636,0.1,1.6287e-05,162.76,6.0844e-06,7.0935,4.8074e-06,-2.5009,-1.6188e-05,-160.25,2.8204
8332,24,4.1818,0.1,1.6998e-05,169.86,6.3157e-06,7.046,5.044e-06,-2.509,-1.6901e-05,-167.39,2.8205
8333,24,4,0.1,1.7594e-05,175.82,6.5096e-06,7.0037,5.2427e-06,-2.5153,-1.7499e-05,-173.39,2.8206
8334,24,3.8182,0.1,1.8083e-05,180.7,6.6682e-06,6.9675,5.4055e-06,-2.5202,-1.7989e-05,-178.29,2.8207
8335,24,3.6364,0.1,1.8468e-05,184.56,6.7933e-06,6.938,5.534e-06,-2.5239,-1.8375e-05,-182.17,2.8207
8336,24,3.4545,0.1,1.8754e-05,187.42,6.8861e-06,6.9156,5.6294e-06,-2.5266,-1.8662e-05,-185.04,2.8207
8337,24,3.2727,0.1,1.8944e-05,189.31,6.9475e-06,6.9005,5.6926e-06,-2.5283,-1.8852e-05,-186.95,2.8208
8338,24,3.0909,0.1,1.9038e-05,190.25,6.978e-06,6.893,5.724e-06,-2.5292,-1.8946e-05,-187.89,2.8208
8339,24,2.9091,0.1,1.9038e-05,190.25,6.978e-06,6.893,5.724e-06,-2.5292,-1.8946e-05,-187.89,2.8208
8340,24,2.7273,0.1,1.8944e-05,189.31,6.9475e-06,6.9005,5.6926e-06,-2.5283,-1.8852e-05,-186.95,2.8208
8341,24,2.5455,0.1,1.8754e-05,187.42,6.8861e-06,6.9156,5.6294e-06,-2.5266,-1.8662e-05,-185.04,2.8207
8342,24,2.3636,0.1,1.8468e-05,184.56,6.7933e-06,6.938,5.534e-06,-2.5239,-1.8375e-05,-182.17,2.8207
8343,24,2.1818,0.1,1.8083e-05,180.7,6.6682e-06,6.9675,5.4055e-06,-2.5202,-1.7989e-05,-178.29,2.8207
8344,24,2,0.1,1.7594e-05,175.82,6.5096e-06,7.0037,5.2427e-06,-2.5153,-1.7499e-05,-173.39,2.8206
8345,24,1.8182,0.1,1.6998e-05,169.86,6.3157e-06,7.046,5.044e-06,-2.509,-1.6901e-05,-167.39,2.8205
8346,24,1.6364,0.1,1.6287e-05,162.76,6.0844e-06,7.0935,4.8074e-06,-2.5009,-1.6188e-05,-160.25,2.8204
8347,24,1.4545,0.1,1.5453e-05,154.42,5.8124e-06,7.1447,4.5301e-06,-2.4907,-1.5351e-05,-151.87,2.8203
8348,24,1.2727,0.1,1.4484e-05,144.74,5.4959e-06,7.1972,4.2083e-06,-2.4776,-1.438e-05,-142.14,2.8202
8349,24,1.0909,0.1,1.3365e-05,133.56,5.1291e-06,7.2473,3.8371e-06,-2.4601,-1.3257e-05,-130.9,2.8201
8350,24,0.90909,0.1,1.2073e-05,120.65,4.704e-06,7.2871,3.4096e-06,-2.4381,-1.1961e-05,-117.93,2.82
8351,24,0.72727,0.1,1.0576e-05,105.68,4.2084e-06,7.3075,2.9163e-06,-2.4006,-1.0459e-05,-102.9,2.8199
8352,24,0.54545,0.1,8.8189e-06,88.128,3.6217e-06,7.267,2.3394e-06,-2.3677,-8.696e-06,-85.283,2.8197
8353,24,0.36364,0.1,6.7109e-06,67.063,2.9025e-06,7.1426,1.664e-06,-2.1635,-6.5776e-06,-64.087,2.8196
8354,24,0.18182,0.1,3.9738e-06,39.71,1.9561e-06,6.7501,7.7417e-07,-2.1301,-3.8199e-06,-36.648,2.8194
8355,1.5894e-15,0.18182,0.1,0.00014517,1450.7,0.00018604,2661.2,2.6172e-06,1283,-1.5416e-05,1147.5,0
8356,3.1789e-15,0.36364,0.1,0.00024407,2439,0.00032395,4787.9,3.7735e-06,2382.3,-4.94e-06,2316.8,0
8357,4.7683e-15,0.54545,0.1,0.00029502,2948.2,0.00039263,5817.3,2.847e-06,2888.6,-2.3045e-06,2849.9,0
8358,6.3578e-15,0.72727,0.1,0.00032702,3267.9,0.00043512,6445.2,1.7482e-06,3189,-1.3708e-06,3165.6,0
8359,7.9472e-15,0.90909,0.1,0.00034806,3478.2,0.00046305,6857.9,1.1561e-06,3387.4,-8.9945e-07,3371.9,0
8360,9.5366e-15,1.0909,0.1,0.0003627,3624.5,0.00048248,7145.1,8.0449e-07,3525.9,-6.1845e-07,3515.3,0
8361,1.1126e-14,1.2727,0.1,0.00037312,3728.6,0.00049631,7349.5,5.7023e-07,3624.7,-4.3324e-07,3617.2,0
8362,1.2716e-14,1.4545,0.1,0.00038059,3803.3,0.00050624,7496.2,4.0804e-07,3695.6,-3.0377e-07,3690.3,0
8363,1.4305e-14,1.6364,0.1,0.00038594,3856.7,0.00051333,7601.1,2.9151e-07,3746.3,-2.1051e-07,3742.6,0
8364,1.5894e-14,1.8182,0.1,0.00038971,3894.4,0.00051835,7675.2,2.063e-07,3782.1,-1.4267e-07,3779.5,0
8365,1.7484e-14,2,0.1,0.00039232,3920.5,0.00052181,7726.5,1.4379e-07,3806.8,-9.3577e-08,3805,0
8366,1.9073e-14,2.1818,0.1,0.00039408,3938.1,0.00052415,7760.9,9.8344e-08,3823.4,-5.8654e-08,3822.3,0
8367,2.0663e-14,2.3636,0.1,0.00039522,3949.5,0.00052566,7783.3,6.5961e-08,3834.2,-3.4433e-08,3833.4,0
8368,2.2252e-14,2.5455,0.1,0.00039593,3956.5,0.0005266,7797.1,4.3575e-08,3840.8,-1.8091e-08,3840.3,0
8369,2.3842e-14,2.7273,0.1,0.00039633,3960.5,0.00052713,7804.9,2.8818e-08,3844.5,-7.3479e-09,3844.2,0
8370,2.5431e-14,2.9091,0.1,0.00039651,3962.3,0.00052736,7808.4,2.0561e-08,3846.1,-1.0988e-09,3846,0
8371,2.702e-14,3.0909,0.1,0.00039651,3962.3,0.00052736,7808.4,2.0561e-08,3846.1,-1.0987e-09,3846,0
8372,2.861e-14,3.2727,0.1,0.00039633,3960.5,0.00052713,7804.9,2.8817e-08,3844.5,-7.3477e-09,3844.2,0
8373,3.0199e-14,3.4545,0.1,0.00039593,3956.5,0.0005266,7797.1,4.3575e-08,3840.8,-1.809e-08,3840.3,0
8374,3.1789e-14,3.6364,0.1,0.00039522,3949.5,0.00052566,7783.3,6.5961e-08,3834.2,-3.4433e-08,3833.4,0
8375,3.3378e-14,3.8182,0.1,0.00039408,3938.1,0.00052415,7760.9,9.8344e-08,3823.4,-5.8653e-08,3822.3,0
8376,3.4968e-14,4,0.1,0.00039232,3920.5,0.00052181,7726.5,1.4379e-07,3806.8,-9.3577e-08,3805,0
8377,3.6557e-14,4.1818,0.1,0.00038971,3894.4,0.00051835,7675.2,2.063e-07,3782.1,-1.4267e-07,3779.5,0
8378,3.8147e-14,4.3636,0.1,0.00038594,3856.7,0.00051333,7601.1,2.9151e-07,3746.3,-2.1051e-07,3742.6,0
8379,3.9736e-14,4.5455,0.1,0.00038059,3803.3,0.00050624,7496.2,4.0804e-07,3695.6,-3.0377e-07,3690.3,0
8380,4.1325e-14,4.7273,0.1,0.00037312,3728.6,0.00049631,7349.5,5.7023e-07,3624.7,-4.3324e-07,3617.2,0
8381,4.2915e-14,4.9091,0.1,0.0003627,3624.5,0.00048248,7145.1,8.0449e-07,3525.9,-6.1845e-07,3515.3,0
8382,4.4504e-14,5.0909,0.1,0.00034806,3478.2,0.00046305,6857.9,1.1561e-06,3387.4,-8.9944e-07,3371.9,0
8383,4.6094e-14,5.2727,0.1,0.00032702,3267.9,0.00043512,6445.2,1.7482e-06,3189,-1.3708e-06,3165.6,0
8384,4.7683e-14,5.4545,0.1,0.00029502,2948.2,0.00039263,5817.3,2.847e-06,2888.6,-2.3045e-06,2849.9,0
8385,4.9273e-14,5.6364,0.1,0.00024407,2439,0.00032394,4787.9,3.7735e-06,2382.3,-4.94e-06,2316.8,0
8386,5.0862e-14,5.8182,0.1,0.00014517,1450.7,0.00018604,2661.2,2.6172e-06,1283,-1.5416e-05,1147.5,0
8387,24,0,0.1,9.4795e-07,9.4729,7.418e-07,5.1799,-8.6628e-08,-1.0446,-7.0915e-07,-5.722,2.8193
8388,23.815,0,0.1,4.0184e-06,40.156,3.6902e-06,33.428,-6.1778e-07,1.0599,-2.2906e-06,-11.509,2.7884
8389,23.631,0,0.1,7.5003e-06,74.951,7.1712e-06,67.337,-1.6978e-06,0.69895,-3.6283e-06,-13.806,2.7576
8390,23.446,0,0.1,1.111e-05,111.02,1.0797e-05,103.33,-2.8722e-06,0.62373,-4.8804e-06,-14.465,2.7267
8391,23.261,0,0.1,1.4838e-05,148.27,1.4533e-05,140.48,-4.0928e-06,0.53902,-6.1491e-06,-14.911,2.6959
8392,23.076,0,0.1,1.8635e-05,186.22,1.8336e-05,178.39,-5.3421e-06,0.48525,-7.4235e-06,-15.154,2.6651
8393,22.892,0,0.1,2.2483e-05,224.67,2.2189e-05,216.84,-6.6121e-06,0.4386,-8.7045e-06,-15.283,2.6343
8394,22.707,0,0.1,2.6369e-05,263.51,2.608e-05,255.69,-7.8975e-06,0.40009,-9.9909e-06,-15.329,2.6035
8395,22.522,0,0.1,3.0286e-05,302.65,3.0001e-05,294.87,-9.1951e-06,0.3669,-1.1282e-05,-15.316,2.5727
8396,22.338,0,0.1,3.4229e-05,342.05,3.3948e-05,334.32,-1.0503e-05,0.33801,-1.2578e-05,-15.256,2.5419
8397,22.153,0,0.1,3.8193e-05,381.66,3.7916e-05,374,-1.1819e-05,0.31251,-1.3878e-05,-15.161,2.5111
8398,21.968,0,0.1,4.2176e-05,421.47,4.1904e-05,413.89,-1.3142e-05,0.28979,-1.5182e-05,-15.038,2.4804
8399,21.783,0,0.1,4.6177e-05,461.45,4.591e-05,453.95,-1.4472e-05,0.26939,-1.649e-05,-14.893,2.4497
8400,21.599,0,0.1,5.0195e-05,501.6,4.9932e-05,494.19,-1.5808e-05,0.25097,-1.7802e-05,-14.73,2.4191
8401,21.414,0,0.1,5.4228e-05,541.91,5.397e-05,534.6,-1.715e-05,0.23426,-1.9118e-05,-14.553,2.3884
8402,21.229,0,0.1,5.8278e-05,582.37,5.8023e-05,575.16,-1.8497e-05,0.21902,-2.0438e-05,-14.365,2.3578
8403,21.045,0,0.1,6.2342e-05,622.99,6.2092e-05,615.88,-1.985e-05,0.20508,-2.1763e-05,-14.169,2.3273
8404,20.86,0,0.1,6.6421e-05,663.76,6.6176e-05,656.76,-2.1207e-05,0.19232,-2.3092e-05,-13.967,2.2968
8405,20.675,0,0.1,7.0516e-05,704.68,7.0275e-05,697.78,-2.257e-05,0.18059,-2.4426e-05,-13.76,2.2663
8406,20.491,0,0.1,7.4626e-05,745.75,7.4389e-05,738.96,-2.3938e-05,0.1698,-2.5764e-05,-13.551,2.2358
8407,20.306,0,0.1,7.8752e-05,786.98,7.8519e-05,780.3,-2.5311e-05,0.15985,-2.7108e-05,-13.339,2.2055
8408,20.121,0,0.1,8.2894e-05,828.36,8.2665e-05,821.8,-2.6689e-05,0.15066,-2.8457e-05,-13.127,2.1751
8409,19.936,0,0.1,8.7051e-05,869.91,8.6827e-05,863.45,-2.8073e-05,0.14216,-2.9811e-05,-12.915,2.1449
8410,19.752,0,0.1,9.1225e-05,911.62,9.1004e-05,905.27,-2.9462e-05,0.1343,-3.117e-05,-12.704,2.1147
8411,19.567,0,0.1,9.5415e-05,953.5,9.5199e-05,947.25,-3.0855e-05,0.12701,-3.2535e-05,-12.494,2.0845
8412,19.382,0,0.1,9.9623e-05,995.54,9.941e-05,989.4,-3.2255e-05,0.12025,-3.3906e-05,-12.287,2.0544
8413,19.198,0,0.1,0.00010385,1037.8,0.00010364,1031.7,-3.366e-05,0.11398,-3.5283e-05,-12.082,2.0244
8414,19.013,0,0.1,0.00010809,1080.1,0.00010788,1074.2,-3.507e-05,0.10813,-3.6666e-05,-11.88,1.9944
8415,18.828,0,0.1,0.00011235,1122.7,0.00011215,1116.9,-3.6486e-05,0.10268,-3.8054e-05,-11.68,1.9646
8416,18.643,0,0.1,0.00011662,1165.4,0.00011643,1159.7,-3.7908e-05,0.097607,-3.9449e-05,-11.484,1.9348
8417,18.459,0,0.1,0.00012092,1208.4,0.00012073,1202.7,-3.9335e-05,0.092851,-4.085e-05,-11.292,1.905
8418,18.274,0,0.1,0.00012523,1251.5,0.00012504,1245.9,-4.0768e-05,0.088402,-4.2258e-05,-11.103,1.8754
8419,18.089,0,0.1,0.00012956,1294.8,0.00012938,1289.3,-4.2207e-05,0.084218,-4.3672e-05,-10.917,1.8458
8420,17.905,0,0.1,0.00013392,1338.2,0.00013373,1332.9,-4.3652e-05,0.080267,-4.5092e-05,-10.735,1.8164
8421,17.72,0,0.1,0.00013828,1381.9,0.0001381,1376.6,-4.5104e-05,0.076548,-4.6519e-05,-10.557,1.787
8422,17.535,0,0.1,0.00014267,1425.7,0.00014249,1420.6,-4.6561e-05,0.073025,-4.7952e-05,-10.382,1.7577
8423,17.35,0,0.1,0.00014708,1469.8,0.0001469,1464.7,-4.8024e-05,0.06968,-4.9392e-05,-10.21,1.7285
8424,17.166,0,0.1,0.00015151,1514,0.00015133,1509,-4.9493e-05,0.066471,-5.0839e-05,-10.042,1.6994
8425,16.981,0,0.1,0.00015595,1558.5,0.00015578,1553.5,-5.0969e-05,0.063399,-5.2292e-05,-9.8769,1.6704
8426,16.796,0,0.1,0.00016042,1603.1,0.00016025,1598.2,-5.2451e-05,0.060436,-5.3752e-05,-9.7149,1.6415
8427,16.612,0,0.1,0.0001649,1647.9,0.00016474,1643.1,-5.394e-05,0.057549,-5.5219e-05,-9.5557,1.6127
8428,16.427,0,0.1,0.00016941,1692.9,0.00016925,1688.2,-5.5434e-05,0.054743,-5.6693e-05,-9.3993,1.5841
8429,16.242,0,0.1,0.00017393,1738.1,0.00017378,1733.5,-5.6936e-05,0.051996,-5.8173e-05,-9.2454,1.5555
8430,16.057,0,0.1,0.00017848,1783.6,0.00017832,1779,-5.8443e-05,0.049299,-5.966e-05,-9.0939,1.5271
8431,15.873,0,0.1,0.00018305,1829.2,0.00018289,1824.7,-5.9958e-05,0.046599,-6.1154e-05,-8.9446,1.4988
8432,15.688,0,0.1,0.00018763,1875,0.00018748,1870.6,-6.1478e-05,0.043901,-6.2655e-05,-8.7973,1.4706
8433,15.503,0,0.1,0.00019224,1921,0.00019209,1916.7,-6.3006e-05,0.041214,-6.4163e-05,-8.6517,1.4425
8434,15.319,0,0.1,0.00019686,1967.3,0.00019672,1963,-6.454e-05,0.03847,-6.5677e-05,-8.5076,1.4146
8435,15.134,0,0.1,0.00020151,2013.7,0.00020137,2009.5,-6.6081e-05,0.035684,-6.7199e-05,-8.3649,1.3868
8436,14.949,0,0.1,0.00020618,2060.4,0.00020604,2056.3,-6.7629e-05,0.032832,-6.8727e-05,-8.2231,1.3591
8437,14.765,0,0.1,0.00021087,2107.2,0.00021073,2103.2,-6.9183e-05,0.029876,-7.0263e-05,-8.0823,1.3316
8438,14.58,0,0.1,0.00021558,2154.3,0.00021544,2150.3,-7.0745e-05,0.026828,-7.1805e-05,-7.9419,1.3042
8439,14.395,0,0.1,0.00022031,2201.6,0.00022017,2197.7,-7.2313e-05,0.023664,-7.3354e-05,-7.8017,1.277
8440,14.21,0,0.1,0.00022506,2249,0.00022493,2245.2,-7.3888e-05,0.020374,-7.4911e-05,-7.6616,1.2499
8441,14.026,0,0.1,0.00022983,2296.7,0.0002297,2293,-7.5471e-05,0.016899,-7.6474e-05,-7.5212,1.223
8442,13.841,0,0.1,0.00023463,2344.7,0.0002345,2341,-7.706e-05,0.013249,-7.8044e-05,-7.3802,1.1962
8443,13.656,0,0.1,0.00023944,2392.8,0.00023932,2389.2,-7.8657e-05,0.0093944,-7.9621e-05,-7.2383,1.1696
8444,13.472,0,0.1,0.00024428,2441.1,0.00024416,2437.6,-8.0261e-05,0.005296,-8.1206e-05,-7.0953,1.1432
8445,13.287,0,0.1,0.00024914,2489.7,0.00024902,2486.2,-8.1872e-05,0.00095955,-8.2797e-05,-6.9507,1.1169
8446,13.102,0,0.1,0.00025402,2538.5,0.00025391,2535.1,-8.349e-05,-0.0036396,-8.4395e-05,-6.8043,1.0908
8447,12.917,0,0.1,0.00025893,2587.5,0.00025881,2584.1,-8.5116e-05,-0.0085174,-8.6001e-05,-6.6558,1.0648
8448,12.733,0,0.1,0.00026385,2636.7,0.00026374,2633.4,-8.675e-05,-0.013743,-8.7614e-05,-6.5048,1.039
8449,12.548,0,0.1,0.0002688,2686.1,0.00026869,2683,-8.8391e-05,-0.019309,-8.9233e-05,-6.3511,1.0135
8450,12.363,0,0.1,0.00027377,2735.8,0.00027366,2732.7,-9.0039e-05,-0.025235,-9.086e-05,-6.1942,0.98805
8451,12.179,0,0.1,0.00027876,2785.7,0.00027866,2782.7,-9.1696e-05,-0.031589,-9.2494e-05,-6.034,0.96283
8452,11.994,0,0.1,0.00028378,2835.8,0.00028368,2832.9,-9.3359e-05,-0.038321,-9.4136e-05,-5.8701,0.9378
8453,11.809,0,0.1,0.00028882,2886.2,0.00028872,2883.3,-9.5031e-05,-0.045493,-9.5784e-05,-5.7022,0.91297
8454,11.624,0,0.1,0.00029388,2936.8,0.00029378,2934,-9.6711e-05,-0.053158,-9.7439e-05,-5.5301,0.88833
8455,11.44,0,0.1,0.00029896,2987.6,0.00029887,2984.9,-9.8398e-05,-0.061277,-9.9102e-05,-5.3536,0.86389
8456,11.255,0,0.1,0.00030407,3038.6,0.00030398,3036,-0.00010009,-0.069867,-0.00010077,-5.1725,0.83965
8457,11.07,0,0.1,0.0003092,3089.8,0.00030911,3087.3,-0.00010179,-0.078922,-0.00010245,-4.9867,0.81562
8458,10.886,0,0.1,0.00031435,3141.3,0.00031427,3138.9,-0.0001035,-0.088484,-0.00010413,-4.7963,0.7918
8459,10.701,0,0.1,0.00031952,3193,0.00031944,3190.6,-0.00010522,-0.098497,-0.00010582,-4.6012,0.76819
8460,10.516,0,0.1,0.00032471,3244.9,0.00032463,3242.6,-0.00010695,-0.10892,-0.00010752,-4.4018,0.74481
8461,10.331,0,0.1,0.00032992,3296.9,0.00032985,3294.8,-0.00010868,-0.11975,-0.00010922,-4.1985,0.72164
8462,10.147,0,0.1,0.00033515,3349.2,0.00033508,3347.1,-0.00011041,-0.13082,-0.00011093,-3.9917,0.6987
8463,9.9621,0,0.1,0.00034039,3401.5,0.00034032,3399.6,-0.00011215,-0.14205,-0.00011264,-3.7823,0.67598
8464,9.7774,0,0.1,0.00034564,3454,0.00034558,3452.2,-0.0001139,-0.15331,-0.00011435,-3.5714,0.6535
8465,9.5927,0,0.1,0.0003509,3506.6,0.00035084,3504.8,-0.00011564,-0.16437,-0.00011607,-3.3603,0.63126
8466,9.408,0,0.1,0.00035616,3559.1,0.0003561,3557.4,-0.00011739,-0.17495,-0.00011779,-3.1509,0.60925
8467,9.2232,0,0.1,0.00036141,3611.6,0.00036135,3610,-0.00011913,-0.18471,-0.0001195,-2.9454,0.58749
8468,9.0385,0,0.1,0.00036664,3663.9,0.00036659,3662.4,-0.00012087,-0.19323,-0.00012121,-2.7466,0.56597
8469,8.8538,0,0.1,0.00037184,3715.9,0.0003718,3714.5,-0.0001226,-0.19993,-0.00012291,-2.5578,0.5447
8470,8.6691,0,0.1,0.000377,3767.4,0.00037695,3766.1,-0.00012431,-0.20415,-0.0001246,-2.3833,0.52368
8471,8.4844,0,0.1,0.00038208,3818.2,0.00038204,3817,-0.00012599,-0.20504,-0.00012626,-2.2279,0.50293
8472,8.2997,0,0.1,0.00038707,3868.1,0.00038703,3866.9,-0.00012765,-0.20156,-0.0001279,-2.0974,0.48243
8473,8.115,0,0.1,0.00039193,3916.6,0.00039189,3915.5,-0.00012925,-0.1925,-0.00012949,-1.9989,0.4622
8474,7.9303,0,0.1,0.00039661,3963.4,0.00039658,3962.3,-0.0001308,-0.17638,-0.00013104,-1.9404,0.44223
8475,7.7456,0,0.1,0.00040106,4007.9,0.00040103,4006.8,-0.00013227,-0.15149,-0.0001325,-1.9316,0.42254
8476,7.5609,0,0.1,0.00040521,4049.3,0.00040517,4048.2,-0.00013363,-0.1159,-0.00013388,-1.9836,0.40311
8477,7.3761,0,0.1,0.00040895,4086.7,0.00040892,4085.6,-0.00013486,-0.06743,-0.00013513,-2.1095,0.38397
8478,7.1914,0,0.1,0.00041219,4119.1,0.00041215,4117.9,-0.00013591,-0.0037487,-0.00013622,-2.3247,0.3651
8479,7.0067,0,0.1,0.00041478,4145,0.00041474,4143.7,-0.00013674,0.077581,-0.0001371,-2.6473,0.34652
8480,6.822,0,0.1,0.00041655,4162.6,0.0004165,4161.1,-0.00013729,0.17892,-0.00013773,-3.0987,0.32821
8481,6.6373,0,0.1,0.00041726,4169.8,0.00041721,4168,-0.00013749,0.30227,-0.00013802,-3.7042,0.31019
8482,6.4526,0,0.1,0.00041666,4163.8,0.00041659,4161.7,-0.00013724,0.44874,-0.0001379,-4.4941,0.29246
8483,6.2679,0,0.1,0.00041442,4141.3,0.00041434,4138.9,-0.00013643,0.61784,-0.00013725,-5.5035,0.27501
8484,6.0832,0,0.1,0.00041013,4098.5,0.00041003,4095.5,-0.00013494,0.80632,-0.00013595,-6.773,0.25784
8485,5.8985,0,0.1,0.00040333,4030.5,0.00040321,4026.9,-0.0001326,1.0065,-0.00013385,-8.3472,0.24095
8486,5.7138,0,0.1,0.00039346,3931.9,0.00039331,3927.4,-0.00012923,1.2043,-0.00013076,-10.271,0.22434
8487,5.5291,0,0.1,0.00037989,3796.3,0.0003797,3790.7,-0.00012463,1.3763,-0.00012648,-12.579,0.20799
8488,5.3443,0,0.1,0.00036194,3616.9,0.0003617,3609.9,-0.00011856,1.4861,-0.00012079,-15.286,0.1919
8489,5.1596,0,0.1,0.00033887,3386.4,0.00033858,3377.9,-0.00011079,1.4855,-0.00011343,-18.348,0.17606
8490,4.9749,0,0.1,0.00031001,3098,0.00030966,3087.7,-0.00010112,1.3006,-0.00010417,-21.63,0.16044
8491,4.7902,0,0.1,0.00027479,2746,0.00027437,2734,-8.9374e-05,0.89607,-9.2795e-05,-24.811,0.14504
8492,4.6055,0,0.1,0.00023287,2327.1,0.00023239,2313.3,-7.5482e-05,0.062119,-7.9132e-05,-27.364,0.12982
8493,4.4208,0,0.1,0.00018416,1840.3,0.00018365,1825.8,-5.9423e-05,-0.58938,-6.3086e-05,-28.114,0.11476
8494,4.2361,0,0.1,0.0001289,1288.1,0.00012838,1273.2,-4.1521e-05,-3.4002,-4.4544e-05,-26.11,0.099821
8495,4.0514,0,0.1,6.5964e-05,659.19,6.5618e-05,649.82,-2.0236e-05,4.7567,-2.3881e-05,-22.631,0.084974
8496,3.8667,0,0.1,6.9255e-06,69.207,5.346e-06,62.945,2.6811e-06,42.922,-4.9036e-06,-14.066,0.070179
8497,3.7,0,0.1,9.0028e-06,89.966,6.8847e-06,81.617,3.6019e-06,56.952,-6.3881e-06,-18.109,0.061445
8498,3.515,-1.5559e-30,0.1,8.4268e-05,842.1,8.3718e-05,827.24,-2.5687e-05,5.2183,-3.0851e-05,-33.586,0.055989
8499,3.33,-1.474e-30,0.1,0.00016338,1632.7,0.00016251,1607.9,-5.2282e-05,-6.0033,-5.719e-05,-42.886,0.05059
8500,3.145,-1.3921e-30,0.1,0.0002331,2329.4,0.00023217,2302.8,-7.468e-05,-2.7872,-8.0928e-05,-49.735,0.045299
8501,2.96,-1.3102e-30,0.1,0.00029554,2953.4,0.00029458,2925.7,-9.5116e-05,-2.2947,-0.00010178,-52.368,0.040162
8502,2.775,-1.2283e-30,0.1,0.00035069,3504.5,0.00034975,3477.4,-0.00011326,-1.5418,-0.00012,-52.182,0.035222
8503,2.59,-1.1465e-30,0.1,0.00039873,3984.5,0.00039782,3958.2,-0.00012916,-1.3022,-0.00013576,-50.925,0.030516
8504,2.405,-1.0646e-30,0.1,0.00043999,4396.8,0.0004391,4371.2,-0.00014285,-1.327,-0.00014926,-49.53,0.026077
8505,2.22,-9.8268e-31,0.1,0.00047497,4746.4,0.0004741,4721.1,-0.00015446,-1.5895,-0.00016072,-48.686,0.021935
8506,2.035,-9.0079e-31,0.1,0.00050425,5039,0.00050336,5013.4,-0.00016414,-2.0144,-0.00017038,-48.87,0.018112
8507,1.85,-8.189e-31,0.1,0.00052834,5279.8,0.00052742,5253.1,-0.00017206,-2.5566,-0.00017844,-50.476,0.014629
8508,1.665,-7.3701e-31,0.1,0.00054767,5472.9,0.00054668,5444.2,-0.00017832,-3.1908,-0.00018507,-53.896,0.011502
8509,1.48,-6.5512e-31,0.1,0.00056245,5620.6,0.00056135,5588.7,-0.00018298,-3.8898,-0.00019039,-59.581,0.0087447
8510,1.295,-5.7323e-31,0.1,0.00057261,5722.2,0.00057135,5685.5,-0.00018597,-4.7105,-0.00019442,-68.203,0.0063661
8511,1.11,-4.9134e-31,0.1,0.00057767,5772.7,0.00057617,5729.3,-0.00018708,-5.4829,-0.00019708,-80.607,0.0043724
8512,0.925,-4.0945e-31,0.1,0.00057645,5760.5,0.0005746,5707.2,-0.00018589,-6.8716,-0.00019813,-98.817,0.0027657
8513,0.74,-3.2756e-31,0.1,0.00056653,5661.4,0.0005642,5594.7,-0.00018133,-6.935,-0.00019699,-124.62,0.0015436
8514,0.555,-2.4567e-31,0.1,0.00054287,5424.9,0.00053965,5333.6,-0.00017171,-11.304,-0.00019257,-168.04,0.00069675
8515,0.37,-1.6378e-31,0.1,0.00049528,4949.3,0.00049062,4820,-0.00015258,-12.8,-0.00018259,-238.26,0.00020747
8516,0.185,-8.189e-32,0.1,0.00038843,3881.6,0.00037953,3661.3,-0.00010312,34.852,-0.00016539,-433.02,4.8942e-05
8517,0,0,0.1,0.00022555,2253.9,0.00015529,899.73,-1.3353e-06,-277.1,-0.00019058,-1699,0
8518,3.937e-14,6,0.1,0.00022555,2253.9,0.00015529,899.73,-1.3353e-06,-277.1,-0.00019058,-1699,0
8519,0.185,6,0.1,0.00038843,3881.6,0.00037953,3661.3,-0.00010312,34.852,-0.00016539,-433.02,4.8942e-05
8520,0.37,6,0.1,0.00049528,4949.3,0.00049062,4820,-0.00015258,-12.8,-0.00018259,-238.26,0.00020747
8521,0.555,6,0.1,0.00054287,5424.9,0.00053965,5333.6,-0.00017171,-11.304,-0.00019257,-168.04,0.00069675
8522,0.74,6,0.1,0.00056653,5661.4,0.0005642,5594.7,-0.00018133,-6.935,-0.00019699,-124.62,0.0015436
8523,0.925,6,0.1,0.00057645,5760.5,0.0005746,5707.2,-0.00018589,-6.8716,-0.00019813,-98.817,0.0027657
8524,1.11,6,0.1,0.00057767,5772.7,0.00057617,5729.3,-0.00018708,-5.4829,-0.00019708,-80.607,0.0043724
8525,1.295,6,0.1,0.00057261,5722.2,0.00057135,5685.5,-0.00018597,-4.7105,-0.00019442,-68.203,0.0063661
8526,1.48,6,0.1,0.00056245,5620.6,0.00056135,5588.7,-0.00018298,-3.8898,-0.00019039,-59.581,0.0087447
8527,1.665,6,0.1,0.00054767,5472.9,0.00054668,5444.2,-0.00017832,-3.1908,-0.00018507,-53.896,0.011502
8528,1.85,6,0.1,0.00052834,5279.8,0.00052742,5253.1,-0.00017206,-2.5566,-0.00017844,-50.476,0.014629
8529,2.035,6,0.1,0.00050425,5039,0.00050336,5013.4,-0.00016414,-2.0144,-0.00017038,-48.87,0.018112
8530,2.22,6,0.1,0.00047497,4746.4,0.0004741,4721.1,-0.00015446,-1.5895,-0.00016072,-48.686,0.021935
8531,2.405,6,0.1,0.00043999,4396.8,0.0004391,4371.2,-0.00014285,-1.327,-0.00014926,-49.53,0.026077
8532,2.59,6,0.1,0.00039873,3984.5,0.00039782,3958.2,-0.00012916,-1.3022,-0.00013576,-50.925,0.030516
8533,2.775,6,0.1,0.00035069,3504.5,0.00034975,3477.4,-0.00011326,-1.5418,-0.00012,-52.182,0.035222
8534,2.96,6,0.1,0.00029554,2953.4,0.00029458,2925.7,-9.5116e-05,-2.2947,-0.00010178,-52.368,0.040162
8535,3.145,6,0.1,0.0002331,2329.4,0.00023217,2302.8,-7.468e-05,-2.7872,-8.0928e-05,-49.735,0.045299
8536,3.33,6,0.1,0.00016338,1632.7,0.00016251,1607.9,-5.2282e-05,-6.0033,-5.719e-05,-42.886,0.05059
8537,3.515,6,0.1,8.4268e-05,842.1,8.3718e-05,827.24,-2.5687e-05,5.2183,-3.0851e-05,-33.586,0.055989
8538,3.7,6,0.1,9.0028e-06,89.966,6.8847e-06,81.617,3.6019e-06,56.952,-6.3881e-06,-18.109,0.061445
8539,3.515,6,0,8.4268e-05,842.1,3.0851e-05,33.586,2.5687e-05,-5.2183,-8.3718e-05,-827.24,0.055989
8540,3.33,6,0,0.00016338,1632.7,5.719e-05,42.886,5.2282e-05,6.0033,-0.00016251,-1607.9,0.05059
8541,3.145,6,0,0.0002331,2329.4,8.0928e-05,49.735,7.468e-05,2.7872,-0.00023217,-2302.8,0.045299
8542,2.96,6,0,0.00029554,2953.4,0.00010178,52.368,9.5116e-05,2.2947,-0.00029458,-2925.7,0.040162
8543,2.775,6,0,0.00035069,3504.5,0.00012,52.182,0.00011326,1.5418,-0.00034975,-3477.4,0.035222
8544,2.59,6,0,0.00039873,3984.5,0.00013576,50.925,0.00012916,1.3022,-0.00039782,-3958.2,0.030516
8545,2.405,6,0,0.00043999,4396.8,0.00014926,49.53,0.00014285,1.327,-0.0004391,-4371.2,0.026077
8546,2.22,6,0,0.00047497,4746.4,0.00016072,48.686,0.00015446,1.5895,-0.0004741,-4721.1,0.021935
8547,2.035,6,0,0.00050425,5039,0.00017038,48.87,0.00016414,2.0144,-0.00050336,-5013.4,0.018112
8548,1.85,6,0,0.00052834,5279.8,0.00017844,50.476,0.00017206,2.5566,-0.00052742,-5253.1,0.014629
8549,1.665,6,0,0.00054767,5472.9,0.00018507,53.896,0.00017832,3.1908,-0.00054668,-5444.2,0.011502
8550,1.48,6,0,0.00056245,5620.6,0.00019039,59.581,0.00018298,3.8898,-0.00056135,-5588.7,0.0087447
8551,1.295,6,0,0.00057261,5722.2,0.00019442,68.203,0.00018597,4.7105,-0.00057135,-5685.5,0.0063661
8552,1.11,6,0,0.00057767,5772.7,0.00019708,80.607,0.00018708,5.4829,-0.00057617,-5729.3,0.0043724
8553,0.925,6,0,0.00057645,5760.5,0.00019813,98.817,0.00018589,6.8716,-0.0005746,-5707.2,0.0027657
8554,0.74,6,0,0.00056653,5661.4,0.00019699,124.62,0.00018133,6.935,-0.0005642,-5594.7,0.0015436
8555,0.555,6,0,0.00054287,5424.9,0.00019257,168.04,0.00017171,11.304,-0.00053965,-5333.6,0.00069675
8556,0.37,6,0,0.00049528,4949.3,0.00018259,238.26,0.00015258,12.8,-0.00049062,-4820,0.00020747
8557,0.185,6,0,0.00038843,3881.6,0.00016539,433.02,0.00010312,-34.852,-0.00037953,-3661.3,4.8942e-05
8558,3.7,6,0,9.0028e-06,89.966,6.3881e-06,18.109,-3.6019e-06,-56.952,-6.8847e-06,-81.617,0.061445
8559,3.937e-14,6,0,0.00022555,2253.9,0.00019058,1699,1.3353e-06,277.1,-0.00015529,-899.73,0
8560,0.185,-8.189e-32,0,0.00038843,3881.6,0.00016539,433.02,0.00010312,-34.852,-0.00037953,-3661.3,4.8942e-05
8561,0.37,-1.6378e-31,0,0.00049528,4949.3,0.00018259,238.26,0.00015258,12.8,-0.00049062,-4820,0.00020747
8562,0.555,-2.4567e-31,0,0.00054287,5424.9,0.00019257,168.04,0.00017171,11.304,-0.00053965,-5333.5,0.00069675
8563,0.74,-3.2756e-31,0,0.00056653,5661.4,0.00019699,124.62,0.00018133,6.935,-0.0005642,-5594.7,0.0015436
8564,0.925,-4.0945e-31,0,0.00057645,5760.5,0.00019813,98.817,0.00018589,6.8716,-0.0005746,-5707.2,0.0027657
8565,1.11,-4.9134e-31,0,0.00057767,5772.7,0.00019708,80.607,0.00018708,5.4829,-0.00057617,-5729.3,0.0043724
8566,1.295,-5.7323e-31,0,0.00057261,5722.2,0.00019442,68.203,0.00018597,4.7105,-0.00057135,-5685.5,0.0063661
8567,1.48,-6.5512e-31,0,0.00056245,5620.6,0.00019039,59.581,0.00018298,3.8898,-0.00056135,-5588.7,0.0087447
8568,1.665,-7.3701e-31,0,0.00054767,5472.9,0.00018507,53.896,0.00017832,3.1908,-0.00054668,-5444.2,0.011502
8569,1.85,-8.189e-31,0,0.00052834,5279.8,0.00017844,50.476,0.00017206,2.5566,-0.00052742,-5253.1,0.014629
8570,2.035,-9.0079e-31,0,0.00050425,5039,0.00017038,48.87,0.00016414,2.0144,-0.00050336,-5013.4,0.018112
8571,2.22,-9.8268e-31,0,0.00047497,4746.4,0.00016072,48.686,0.00015446,1.5895,-0.0004741,-4721.1,0.021935
8572,2.405,-1.0646e-30,0,0.00043999,4396.8,0.00014926,49.53,0.00014285,1.327,-0.0004391,-4371.2,0.026077
8573,2.59,-1.1465e-30,0,0.00039873,3984.5,0.00013576,50.925,0.00012916,1.3022,-0.00039782,-3958.2,0.030516
8574,2.775,-1.2283e-30,0,0.00035069,3504.5,0.00012,52.182,0.00011326,1.5418,-0.00034975,-3477.4,0.035222
8575,2.96,-1.3102e-30,0,0.00029554,2953.4,0.00010178,52.368,9.5116e-05,2.2947,-0.00029458,-2925.7,0.040162
8576,3.145,-1.3921e-30,0,0.0002331,2329.4,8.0928e-05,49.735,7.468e-05,2.7872,-0.00023217,-2302.8,0.045299
8577,3.33,-1.474e-30,0,0.00016338,1632.7,5.719e-05,42.886,5.2282e-05,6.0033,-0.00016251,-1607.9,0.05059
8578,3.515,-1.5559e-30,0,8.4268e-05,842.1,3.0851e-05,33.586,2.5687e-05,-5.2183,-8.3718e-05,-827.24,0.055989
8579,3.7,0,0,9.0028e-06,89.966,6.3881e-06,18.109,-3.6019e-06,-56.952,-6.8847e-06,-81.617,0.061445
8580,0,0,0,0.00022555,2253.9,0.00019058,1699,1.3353e-06,277.1,-0.00015529,-899.73,0
8581,4.0514,0,0,6.5964e-05,659.19,2.3881e-05,22.631,2.0236e-05,-4.7567,-6.5618e-05,-649.82,0.084974
8582,4.2361,0,0,0.0001289,1288.1,4.4544e-05,26.11,4.1522e-05,3.4002,-0.00012838,-1273.2,0.099821
8583,4.4208,0,0,0.00018416,1840.3,6.3086e-05,28.114,5.9423e-05,0.58938,-0.00018365,-1825.8,0.11476
8584,4.6055,0,0,0.00023287,2327.1,7.9132e-05,27.364,7.5482e-05,-0.062119,-0.00023239,-2313.3,0.12982
8585,4.7902,0,0,0.00027479,2746,9.2795e-05,24.811,8.9374e-05,-0.89608,-0.00027437,-2734,0.14504
8586,4.9749,0,0,0.00031001,3098,0.00010417,21.63,0.00010112,-1.3006,-0.00030966,-3087.7,0.16044
8587,5.1596,0,0,0.00033887,3386.4,0.00011343,18.348,0.00011079,-1.4855,-0.00033858,-3377.9,0.17606
8588,5.3443,0,0,0.00036194,3616.9,0.00012079,15.286,0.00011856,-1.4861,-0.0003617,-3609.9,0.1919
8589,5.5291,0,0,0.00037989,3796.3,0.00012648,12.579,0.00012463,-1.3763,-0.0003797,-3790.7,0.20799
8590,5.7138,0,0,0.00039346,3931.9,0.00013076,10.271,0.00012923,-1.2043,-0.00039331,-3927.4,0.22434
8591,5.8985,0,0,0.00040333,4030.5,0.00013385,8.3472,0.0001326,-1.0065,-0.00040321,-4026.9,0.24095
8592,6.0832,0,0,0.00041013,4098.5,0.00013595,6.773,0.00013494,-0.80632,-0.00041003,-4095.5,0.25784
8593,6.2679,0,0,0.00041442,4141.3,0.00013725,5.5035,0.00013643,-0.61784,-0.00041434,-4138.9,0.27501
8594,6.4526,0,0,0.00041666,4163.8,0.0001379,4.4941,0.00013724,-0.44874,-0.00041659,-4161.7,0.29246
8595,6.6373,0,0,0.00041726,4169.8,0.00013802,3.7042,0.00013749,-0.30227,-0.0004172,-4168,0.31019
8596,6.822,0,0,0.00041655,4162.6,0.00013773,3.0987,0.00013729,-0.17892,-0.0004165,-4161.1,0.32821
8597,7.0067,0,0,0.00041478,4145,0.0001371,2.6473,0.00013674,-0.07758,-0.00041474,-4143.7,0.34652
8598,7.1914,0,0,0.00041219,4119.1,0.00013622,2.3247,0.00013591,0.0037492,-0.00041215,-4117.9,0.3651
8599,7.3761,0,0,0.00040895,4086.7,0.00013513,2.1095,0.00013486,0.067431,-0.00040892,-4085.6,0.38397
8600,7.5609,0,0,0.00040521,4049.3,0.00013388,1.9836,0.00013363,0.1159,-0.00040517,-4048.2,0.40311
8601,7.7456,0,0,0.00040106,4007.9,0.0001325,1.9316,0.00013227,0.15149,-0.00040103,-4006.8,0.42254
8602,7.9303,0,0,0.00039661,3963.4,0.00013104,1.9404,0.0001308,0.17638,-0.00039658,-3962.3,0.44223
8603,8.115,0,0,0.00039193,3916.6,0.00012949,1.9989,0.00012925,0.1925,-0.00039189,-3915.5,0.4622
8604,8.2997,0,0,0.00038707,3868.1,0.0001279,2.0974,0.00012765,0.20156,-0.00038703,-3866.9,0.48243
8605,8.4844,0,0,0.00038208,3818.2,0.00012626,2.2279,0.00012599,0.20504,-0.00038204,-3817,0.50293
8606,8.6691,0,0,0.000377,3767.4,0.0001246,2.3833,0.00012431,0.20415,-0.00037695,-3766.1,0.52368
8607,8.8538,0,0,0.00037184,3715.9,0.00012291,2.5578,0.0001226,0.19993,-0.0003718,-3714.5,0.5447
8608,9.0385,0,0,0.00036664,3663.9,0.00012121,2.7466,0.00012087,0.19323,-0.00036659,-3662.4,0.56597
8609,9.2232,0,0,0.00036141,3611.6,0.0001195,2.9454,0.00011913,0.18471,-0.00036135,-3610,0.58749
8610,9.408,0,0,0.00035616,3559.1,0.00011779,3.1509,0.00011739,0.17495,-0.0003561,-3557.4,0.60925
8611,9.5927,0,0,0.0003509,3506.6,0.00011607,3.3603,0.00011564,0.16437,-0.00035084,-3504.8,0.63126
8612,9.7774,0,0,0.00034564,3454,0.00011435,3.5714,0.0001139,0.15331,-0.00034558,-3452.2,0.6535
8613,9.9621,0,0,0.00034039,3401.5,0.00011264,3.7823,0.00011215,0.14205,-0.00034032,-3399.6,0.67598
8614,10.147,0,0,0.00033515,3349.2,0.00011093,3.9917,0.00011041,0.13083,-0.00033508,-3347.1,0.6987
8615,10.331,0,0,0.00032992,3296.9,0.00010922,4.1985,0.00010868,0.11975,-0.00032985,-3294.8,0.72164
8616,10.516,0,0,0.00032471,3244.9,0.00010752,4.4018,0.00010695,0.10892,-0.00032463,-3242.6,0.74481
8617,10.701,0,0,0.00031952,3193,0.00010582,4.6012,0.00010522,0.098497,-0.00031944,-3190.6,0.76819
8618,10.886,0,0,0.00031435,3141.3,0.00010413,4.7963,0.0001035,0.088485,-0.00031427,-3138.9,0.7918
8619,11.07,0,0,0.0003092,3089.8,0.00010245,4.9867,0.00010179,0.078924,-0.00030911,-3087.3,0.81562
8620,11.255,0,0,0.00030407,3038.6,0.00010077,5.1725,0.00010009,0.069867,-0.00030398,-3036,0.83965
8621,11.44,0,0,0.00029896,2987.6,9.9102e-05,5.3536,9.8398e-05,0.061276,-0.00029887,-2984.9,0.86389
8622,11.624,0,0,0.00029388,2936.8,9.7439e-05,5.5301,9.671e-05,0.053159,-0.00029378,-2934,0.88833
8623,11.809,0,0,0.00028882,2886.2,9.5784e-05,5.7022,9.5031e-05,0.045494,-0.00028872,-2883.3,0.91297
8624,11.994,0,0,0.00028378,2835.8,9.4136e-05,5.8701,9.3359e-05,0.038323,-0.00028368,-2832.9,0.9378
8625,12.179,0,0,0.00027876,2785.7,9.2494e-05,6.034,9.1696e-05,0.031589,-0.00027866,-2782.7,0.96283
8626,12.363,0,0,0.00027377,2735.8,9.086e-05,6.1942,9.0039e-05,0.025236,-0.00027366,-2732.7,0.98805
8627,12.548,0,0,0.0002688,2686.1,8.9233e-05,6.3511,8.8391e-05,0.019308,-0.00026869,-2683,1.0135
8628,12.733,0,0,0.00026385,2636.7,8.7614e-05,6.5048,8.675e-05,0.013743,-0.00026374,-2633.4,1.039
8629,12.917,0,0,0.00025893,2587.5,8.6001e-05,6.6558,8.5116e-05,0.0085183,-0.00025881,-2584.1,1.0648
8630,13.102,0,0,0.00025402,2538.5,8.4395e-05,6.8043,8.349e-05,0.0036397,-0.00025391,-2535.1,1.0908
8631,13.287,0,0,0.00024914,2489.7,8.2797e-05,6.9507,8.1872e-05,-0.00095995,-0.00024902,-2486.2,1.1169
8632,13.472,0,0,0.00024428,2441.1,8.1206e-05,7.0953,8.0261e-05,-0.0052943,-0.00024416,-2437.6,1.1432
8633,13.656,0,0,0.00023944,2392.8,7.9621e-05,7.2383,7.8657e-05,-0.0093935,-0.00023932,-2389.2,1.1696
8634,13.841,0,0,0.00023463,2344.7,7.8044e-05,7.3802,7.706e-05,-0.013246,-0.0002345,-2341,1.1962
8635,14.026,0,0,0.00022983,2296.7,7.6474e-05,7.5212,7.5471e-05,-0.016899,-0.0002297,-2293,1.223
8636,14.21,0,0,0.00022506,2249,7.4911e-05,7.6616,7.3888e-05,-0.020374,-0.00022493,-2245.2,1.2499
8637,14.395,0,0,0.00022031,2201.6,7.3354e-05,7.8018,7.2313e-05,-0.023665,-0.00022017,-2197.7,1.277
8638,14.58,0,0,0.00021558,2154.3,7.1805e-05,7.9419,7.0745e-05,-0.026826,-0.00021544,-2150.3,1.3042
8639,14.765,0,0,0.00021087,2107.2,7.0263e-05,8.0823,6.9183e-05,-0.029875,-0.00021073,-2103.2,1.3316
8640,14.949,0,0,0.00020618,2060.4,6.8727e-05,8.2232,6.7629e-05,-0.032831,-0.00020604,-2056.3,1.3591
8641,15.134,0,0,0.00020151,2013.7,6.7199e-05,8.3649,6.6081e-05,-0.035683,-0.00020137,-2009.5,1.3868
8642,15.319,0,0,0.00019686,1967.3,6.5677e-05,8.5077,6.454e-05,-0.03847,-0.00019672,-1963,1.4146
8643,15.503,0,0,0.00019224,1921,6.4163e-05,8.6517,6.3006e-05,-0.041211,-0.00019209,-1916.7,1.4425
8644,15.688,0,0,0.00018763,1875,6.2655e-05,8.7973,6.1478e-05,-0.043901,-0.00018748,-1870.6,1.4706
8645,15.873,0,0,0.00018305,1829.2,6.1154e-05,8.9446,5.9958e-05,-0.046598,-0.00018289,-1824.7,1.4988
8646,16.057,0,0,0.00017848,1783.6,5.966e-05,9.0939,5.8443e-05,-0.049298,-0.00017832,-1779,1.5271
8647,16.242,0,0,0.00017393,1738.1,5.8173e-05,9.2455,5.6936e-05,-0.051994,-0.00017378,-1733.5,1.5555
8648,16.427,0,0,0.00016941,1692.9,5.6693e-05,9.3993,5.5434e-05,-0.054742,-0.00016925,-1688.2,1.5841
8649,16.612,0,0,0.0001649,1647.9,5.5219e-05,9.5557,5.394e-05,-0.057547,-0.00016474,-1643.1,1.6127
8650,16.796,0,0,0.00016042,1603.1,5.3752e-05,9.7149,5.2451e-05,-0.060437,-0.00016025,-1598.2,1.6415
8651,16.981,0,0,0.00015595,1558.5,5.2292e-05,9.8769,5.0969e-05,-0.0634,-0.00015578,-1553.5,1.6704
8652,17.166,0,0,0.00015151,1514,5.0839e-05,10.042,4.9493e-05,-0.06647,-0.00015133,-1509,1.6994
8653,17.35,0,0,0.00014708,1469.8,4.9392e-05,10.21,4.8024e-05,-0.069679,-0.0001469,-1464.7,1.7285
8654,17.535,0,0,0.00014267,1425.7,4.7952e-05,10.382,4.6561e-05,-0.073022,-0.00014249,-1420.6,1.7577
8655,17.72,0,0,0.00013828,1381.9,4.6519e-05,10.557,4.5104e-05,-0.076549,-0.0001381,-1376.6,1.787
8656,17.905,0,0,0.00013392,1338.2,4.5092e-05,10.735,4.3652e-05,-0.080267,-0.00013373,-1332.9,1.8164
8657,18.089,0,0,0.00012956,1294.8,4.3672e-05,10.917,4.2207e-05,-0.084222,-0.00012938,-1289.3,1.8458
8658,18.274,0,0,0.00012523,1251.5,4.2258e-05,11.103,4.0768e-05,-0.088404,-0.00012504,-1245.9,1.8754
8659,18.459,0,0,0.00012092,1208.4,4.085e-05,11.292,3.9335e-05,-0.09285,-0.00012073,-1202.7,1.905
8660,18.643,0,0,0.00011662,1165.4,3.9449e-05,11.485,3.7908e-05,-0.097606,-0.00011643,-1159.7,1.9348
8661,18.828,0,0,0.00011235,1122.7,3.8054e-05,11.68,3.6486e-05,-0.10268,-0.00011215,-1116.9,1.9646
8662,19.013,0,0,0.00010809,1080.1,3.6666e-05,11.88,3.507e-05,-0.10813,-0.00010788,-1074.2,1.9944
8663,19.198,0,0,0.00010385,1037.8,3.5283e-05,12.082,3.366e-05,-0.11397,-0.00010364,-1031.7,2.0244
8664,19.382,0,0,9.9623e-05,995.54,3.3906e-05,12.287,3.2255e-05,-0.12025,-9.941e-05,-989.4,2.0544
8665,19.567,0,0,9.5415e-05,953.49,3.2535e-05,12.494,3.0855e-05,-0.12701,-9.5199e-05,-947.25,2.0845
8666,19.752,0,0,9.1225e-05,911.62,3.117e-05,12.704,2.9462e-05,-0.13429,-9.1004e-05,-905.27,2.1147
8667,19.936,0,0,8.7051e-05,869.91,2.9811e-05,12.915,2.8073e-05,-0.14216,-8.6827e-05,-863.45,2.1449
8668,20.121,0,0,8.2894e-05,828.36,2.8457e-05,13.127,2.6689e-05,-0.15066,-8.2665e-05,-821.8,2.1751
8669,20.306,0,0,7.8752e-05,786.98,2.7108e-05,13.339,2.5311e-05,-0.15985,-7.8519e-05,-780.3,2.2055
8670,20.491,0,0,7.4626e-05,745.75,2.5764e-05,13.551,2.3938e-05,-0.1698,-7.4389e-05,-738.96,2.2358
8671,20.675,0,0,7.0516e-05,704.68,2.4426e-05,13.76,2.257e-05,-0.18059,-7.0275e-05,-697.78,2.2663
8672,20.86,0,0,6.6421e-05,663.76,2.3092e-05,13.967,2.1207e-05,-0.19232,-6.6176e-05,-656.76,2.2968
8673,21.045,0,0,6.2342e-05,622.99,2.1763e-05,14.169,1.985e-05,-0.20508,-6.2092e-05,-615.88,2.3273
8674,21.229,0,0,5.8278e-05,582.37,2.0438e-05,14.365,1.8497e-05,-0.21901,-5.8023e-05,-575.16,2.3578
8675,21.414,0,0,5.4228e-05,541.91,1.9118e-05,14.553,1.715e-05,-0.23425,-5.397e-05,-534.6,2.3884
8676,21.599,0,0,5.0195e-05,501.6,1.7802e-05,14.73,1.5808e-05,-0.25097,-4.9932e-05,-494.19,2.4191
8677,21.783,0,0,4.6177e-05,461.45,1.649e-05,14.893,1.4472e-05,-0.26939,-4.591e-05,-453.95,2.4497
8678,21.968,0,0,4.2176e-05,421.47,1.5182e-05,15.038,1.3142e-05,-0.28979,-4.1904e-05,-413.89,2.4804
8679,22.153,0,0,3.8193e-05,381.66,1.3878e-05,15.161,1.1819e-05,-0.3125,-3.7916e-05,-374,2.5111
8680,22.338,0,0,3.4229e-05,342.05,1.2578e-05,15.256,1.0503e-05,-0.33801,-3.3948e-05,-334.32,2.5419
8681,22.522,0,0,3.0286e-05,302.65,1.1282e-05,15.316,9.1951e-06,-0.36689,-3.0001e-05,-294.87,2.5727
8682,22.707,0,0,2.6369e-05,263.51,9.9909e-06,15.329,7.8975e-06,-0.40009,-2.608e-05,-255.69,2.6035
8683,22.892,0,0,2.2483e-05,224.67,8.7045e-06,15.283,6.6121e-06,-0.4386,-2.2189e-05,-216.84,2.6343
8684,23.076,0,0,1.8635e-05,186.22,7.4235e-06,15.154,5.3421e-06,-0.48525,-1.8336e-05,-178.39,2.6651
8685,23.261,0,0,1.4838e-05,148.27,6.1491e-06,14.911,4.0928e-06,-0.53902,-1.4533e-05,-140.48,2.6959
8686,23.446,0,0,1.111e-05,111.02,4.8804e-06,14.465,2.8722e-06,-0.62373,-1.0797e-05,-103.33,2.7267
8687,23.631,0,0,7.5003e-06,74.951,3.6283e-06,13.806,1.6978e-06,-0.69894,-7.1712e-06,-67.337,2.7576
8688,23.815,0,0,4.0184e-06,40.156,2.2906e-06,11.509,6.1778e-07,-1.0599,-3.6902e-06,-33.428,2.7884
8689,3.8667,0,0,6.9255e-06,69.207,4.9036e-06,14.066,-2.6811e-06,-42.922,-5.346e-06,-62.945,0.070179
8690,24,0,0,9.4795e-07,9.473,7.0916e-07,5.722,8.663e-08,1.0446,-7.418e-07,-5.1799,2.8193
8691,5.0862e-14,5.8182,0,0.00014517,1450.7,1.5416e-05,-1147.5,-2.6172e-06,-1283,-0.00018604,-2661.2,0
8692,4.9273e-14,5.6364,0,0.00024407,2439,4.94e-06,-2316.8,-3.7735e-06,-2382.3,-0.00032395,-4787.9,0
8693,4.7683e-14,5.4545,0,0.00029502,2948.2,2.3045e-06,-2849.9,-2.847e-06,-2888.6,-0.00039263,-5817.3,0
8694,4.6094e-14,5.2727,0,0.00032702,3267.9,1.3708e-06,-3165.6,-1.7482e-06,-3189,-0.00043512,-6445.2,0
8695,4.4504e-14,5.0909,0,0.00034806,3478.2,8.9945e-07,-3371.9,-1.1561e-06,-3387.4,-0.00046305,-6857.9,0
8696,4.2915e-14,4.9091,0,0.0003627,3624.5,6.1845e-07,-3515.3,-8.0449e-07,-3525.9,-0.00048248,-7145.1,0
8697,4.1325e-14,4.7273,0,0.00037312,3728.6,4.3324e-07,-3617.2,-5.7023e-07,-3624.7,-0.00049631,-7349.5,0
8698,3.9736e-14,4.5455,0,0.00038059,3803.3,3.0377e-07,-3690.3,-4.0804e-07,-3695.6,-0.00050624,-7496.2,0
8699,3.8147e-14,4.3636,0,0.00038594,3856.7,2.1051e-07,-3742.6,-2.9151e-07,-3746.3,-0.00051333,-7601.1,0
8700,3.6557e-14,4.1818,0,0.00038971,3894.4,1.4267e-07,-3779.5,-2.063e-07,-3782.1,-0.00051835,-7675.2,0
8701,3.4968e-14,4,0,0.00039232,3920.5,9.3577e-08,-3805,-1.4379e-07,-3806.8,-0.00052181,-7726.5,0
8702,3.3378e-14,3.8182,0,0.00039408,3938.1,5.8654e-08,-3822.3,-9.8344e-08,-3823.4,-0.00052415,-7760.9,0
8703,3.1789e-14,3.6364,0,0.00039522,3949.5,3.4433e-08,-3833.4,-6.5961e-08,-3834.2,-0.00052566,-7783.3,0
8704,3.0199e-14,3.4545,0,0.00039593,3956.5,1.8091e-08,-3840.3,-4.3575e-08,-3840.8,-0.0005266,-7797.1,0
8705,2.861e-14,3.2727,0,0.00039633,3960.5,7.3478e-09,-3844.2,-2.8817e-08,-3844.5,-0.00052713,-7804.9,0
8706,2.702e-14,3.0909,0,0.00039651,3962.3,1.0988e-09,-3846,-2.0561e-08,-3846.1,-0.00052736,-7808.4,0
8707,2.5431e-14,2.9091,0,0.00039651,3962.3,1.0987e-09,-3846,-2.0561e-08,-3846.1,-0.00052736,-7808.4,0
8708,2.3842e-14,2.7273,0,0.00039633,3960.5,7.3478e-09,-3844.2,-2.8817e-08,-3844.5,-0.00052713,-7804.9,0
8709,2.2252e-14,2.5455,0,0.00039593,3956.5,1.8091e-08,-3840.3,-4.3575e-08,-3840.8,-0.0005266,-7797.1,0
8710,2.0663e-14,2.3636,0,0.00039522,3949.5,3.4433e-08,-3833.4,-6.5961e-08,-3834.2,-0.00052566,-7783.3,0
8711,1.9073e-14,2.1818,0,0.00039408,3938.1,5.8654e-08,-3822.3,-9.8344e-08,-3823.4,-0.00052415,-7760.9,0
8712,1.7484e-14,2,0,0.00039232,3920.5,9.3577e-08,-3805,-1.4379e-07,-3806.8,-0.00052181,-7726.5,0
8713,1.5894e-14,1.8182,0,0.00038971,3894.4,1.4267e-07,-3779.5,-2.063e-07,-3782.1,-0.00051835,-7675.2,0
8714,1.4305e-14,1.6364,0,0.00038594,3856.7,2.1051e-07,-3742.6,-2.9151e-07,-3746.3,-0.00051333,-7601.1,0
8715,1.2716e-14,1.4545,0,0.00038059,3803.3,3.0377e-07,-3690.3,-4.0804e-07,-3695.6,-0.00050624,-7496.2,0
8716,1.1126e-14,1.2727,0,0.00037312,3728.6,4.3324e-07,-3617.2,-5.7023e-07,-3624.7,-0.00049631,-7349.5,0
8717,9.5366e-15,1.0909,0,0.0003627,3624.5,6.1845e-07,-3515.3,-8.0449e-07,-3525.9,-0.00048248,-7145.1,0
8718,7.9472e-15,0.90909,0,0.00034806,3478.2,8.9944e-07,-3371.9,-1.1561e-06,-3387.4,-0.00046305,-6857.9,0
8719,6.3578e-15,0.72727,0,0.00032702,3267.9,1.3708e-06,-3165.6,-1.7482e-06,-3189,-0.00043512,-6445.2,0
8720,4.7683e-15,0.54545,0,0.00029502,2948.2,2.3045e-06,-2849.9,-2.847e-06,-2888.6,-0.00039263,-5817.3,0
8721,3.1789e-15,0.36364,0,0.00024407,2439,4.94e-06,-2316.8,-3.7735e-06,-2382.3,-0.00032394,-4787.9,0
8722,1.5894e-15,0.18182,0,0.00014517,1450.7,1.5416e-05,-1147.5,-2.6172e-06,-1283,-0.00018604,-2661.2,0
8723,24,0.18182,0,3.9738e-06,39.71,3.8199e-06,36.648,-7.7417e-07,2.1301,-1.9561e-06,-6.7501,2.8194
8724,24,0.36364,0,6.7109e-06,67.063,6.5776e-06,64.087,-1.664e-06,2.1635,-2.9025e-06,-7.1426,2.8196
8725,24,0.54545,0,8.8189e-06,88.128,8.696e-06,85.283,-2.3394e-06,2.3677,-3.6217e-06,-7.267,2.8197
8726,24,0.72727,0,1.0576e-05,105.68,1.0459e-05,102.9,-2.9163e-06,2.4006,-4.2084e-06,-7.3075,2.8199
8727,24,0.90909,0,1.2073e-05,120.65,1.1961e-05,117.93,-3.4096e-06,2.4381,-4.704e-06,-7.287,2.82
8728,24,1.0909,0,1.3365e-05,133.56,1.3257e-05,130.9,-3.8371e-06,2.4601,-5.1291e-06,-7.2473,2.8201
8729,24,1.2727,0,1.4484e-05,144.74,1.438e-05,142.14,-4.2083e-06,2.4776,-5.4959e-06,-7.1972,2.8202
8730,24,1.4545,0,1.5453e-05,154.42,1.5351e-05,151.87,-4.5301e-06,2.4907,-5.8124e-06,-7.1447,2.8203
8731,24,1.6364,0,1.6287e-05,162.76,1.6188e-05,160.25,-4.8074e-06,2.5009,-6.0844e-06,-7.0935,2.8204
8732,24,1.8182,0,1.6998e-05,169.86,1.6901e-05,167.39,-5.044e-06,2.509,-6.3157e-06,-7.046,2.8205
8733,24,2,0,1.7594e-05,175.82,1.7499e-05,173.39,-5.2427e-06,2.5153,-6.5096e-06,-7.0036,2.8206
8734,24,2.1818,0,1.8083e-05,180.7,1.7989e-05,178.29,-5.4055e-06,2.5202,-6.6682e-06,-6.9674,2.8207
8735,24,2.3636,0,1.8468e-05,184.56,1.8375e-05,182.17,-5.534e-06,2.5239,-6.7933e-06,-6.9379,2.8207
8736,24,2.5455,0,1.8754e-05,187.42,1.8662e-05,185.04,-5.6294e-06,2.5266,-6.8861e-06,-6.9155,2.8207
8737,24,2.7273,0,1.8944e-05,189.31,1.8852e-05,186.95,-5.6926e-06,2.5283,-6.9475e-06,-6.9005,2.8208
8738,24,2.9091,0,1.9038e-05,190.25,1.8946e-05,187.89,-5.724e-06,2.5292,-6.978e-06,-6.8929,2.8208
8739,24,3.0909,0,1.9038e-05,190.25,1.8946e-05,187.89,-5.724e-06,2.5292,-6.978e-06,-6.8929,2.8208
8740,24,3.2727,0,1.8944e-05,189.31,1.8852e-05,186.95,-5.6926e-06,2.5283,-6.9475e-06,-6.9005,2.8208
8741,24,3.4545,0,1.8754e-05,187.42,1.8662e-05,185.04,-5.6294e-06,2.5266,-6.8861e-06,-6.9156,2.8207
8742,24,3.6364,0,1.8468e-05,184.56,1.8375e-05,182.17,-5.534e-06,2.5239,-6.7933e-06,-6.9379,2.8207
8743,24,3.8182,0,1.8083e-05,180.7,1.7989e-05,178.29,-5.4055e-06,2.5202,-6.6682e-06,-6.9674,2.8207
8744,24,4,0,1.7594e-05,175.82,1.7499e-05,173.39,-5.2427e-06,2.5153,-6.5096e-06,-7.0036,2.8206
8745,24,4.1818,0,1.6998e-05,169.86,1.6901e-05,167.39,-5.044e-06,2.509,-6.3157e-06,-7.046,2.8205
8746,24,4.3636,0,1.6287e-05,162.76,1.6188e-05,160.25,-4.8074e-06,2.5009,-6.0844e-06,-7.0935,2.8204
8747,24,4.5455,0,1.5453e-05,154.42,1.5351e-05,151.87,-4.5301e-06,2.4907,-5.8124e-06,-7.1447,2.8203
8748,24,4.7273,0,1.4484e-05,144.74,1.438e-05,142.14,-4.2083e-06,2.4776,-5.4959e-06,-7.1972,2.8202
8749,24,4.9091,0,1.3365e-05,133.56,1.3257e-05,130.9,-3.8372e-06,2.4601,-5.1291e-06,-7.2473,2.8201
8750,24,5.0909,0,1.2073e-05,120.65,1.1961e-05,117.93,-3.4096e-06,2.4381,-4.704e-06,-7.287,2.82
8751,24,5.2727,0,1.0576e-05,105.68,1.0459e-05,102.9,-2.9163e-06,2.4006,-4.2084e-06,-7.3075,2.8199
8752,24,5.4545,0,8.8189e-06,88.128,8.696e-06,85.283,-2.3394e-06,2.3677,-3.6217e-06,-7.267,2.8197
8753,24,5.6364,0,6.7109e-06,67.063,6.5776e-06,64.087,-1.664e-06,2.1635,-2.9025e-06,-7.1426,2.8196
8754,24,5.8182,0,3.9738e-06,39.71,3.8199e-06,36.648,-7.7417e-07,2.1301,-1.9561e-06,-6.7501,2.8194
8755,24,6,0,9.4795e-07,9.473,7.0915e-07,5.722,8.6631e-08,1.0446,-7.418e-07,-5.1799,2.8193
8756,23.815,6,0,4.0184e-06,40.156,2.2906e-06,11.509,6.1778e-07,-1.0599,-3.6902e-06,-33.428,2.7884
8757,23.631,6,0,7.5003e-06,74.951,3.6283e-06,13.806,1.6978e-06,-0.69894,-7.1712e-06,-67.337,2.7576
8758,23.446,6,0,1.111e-05,111.02,4.8804e-06,14.465,2.8722e-06,-0.62373,-1.0797e-05,-103.33,2.7267
8759,23.261,6,0,1.4838e-05,148.27,6.1491e-06,14.911,4.0928e-06,-0.53902,-1.4533e-05,-140.48,2.6959
8760,23.076,6,0,1.8635e-05,186.22,7.4235e-06,15.154,5.3421e-06,-0.48525,-1.8336e-05,-178.39,2.6651
8761,22.892,6,0,2.2483e-05,224.67,8.7045e-06,15.283,6.6121e-06,-0.4386,-2.2189e-05,-216.84,2.6343
8762,22.707,6,0,2.6369e-05,263.51,9.9909e-06,15.329,7.8975e-06,-0.40009,-2.608e-05,-255.69,2.6035
8763,22.522,6,0,3.0286e-05,302.65,1.1282e-05,15.316,9.1951e-06,-0.3669,-3.0001e-05,-294.87,2.5727
8764,22.338,6,0,3.4229e-05,342.05,1.2578e-05,15.256,1.0503e-05,-0.33801,-3.3948e-05,-334.32,2.5419
8765,22.153,6,0,3.8193e-05,381.66,1.3878e-05,15.161,1.1819e-05,-0.3125,-3.7916e-05,-374,2.5111
8766,21.968,6,0,4.2176e-05,421.47,1.5182e-05,15.038,1.3142e-05,-0.28978,-4.1904e-05,-413.89,2.4804
8767,21.783,6,0,4.6177e-05,461.45,1.649e-05,14.893,1.4472e-05,-0.26939,-4.591e-05,-453.95,2.4497
8768,21.599,6,0,5.0195e-05,501.6,1.7802e-05,14.73,1.5808e-05,-0.25097,-4.9932e-05,-494.19,2.4191
8769,21.414,6,0,5.4228e-05,541.91,1.9118e-05,14.553,1.715e-05,-0.23425,-5.397e-05,-534.6,2.3884
8770,21.229,6,0,5.8278e-05,582.37,2.0438e-05,14.365,1.8497e-05,-0.21902,-5.8023e-05,-575.16,2.3578
8771,21.045,6,0,6.2342e-05,622.99,2.1763e-05,14.169,1.985e-05,-0.20508,-6.2092e-05,-615.88,2.3273
8772,20.86,6,0,6.6421e-05,663.76,2.3092e-05,13.967,2.1207e-05,-0.19231,-6.6176e-05,-656.76,2.2968
8773,20.675,6,0,7.0516e-05,704.68,2.4426e-05,13.76,2.257e-05,-0.18059,-7.0275e-05,-697.78,2.2663
8774,20.491,6,0,7.4626e-05,745.75,2.5764e-05,13.551,2.3938e-05,-0.1698,-7.4389e-05,-738.96,2.2358
8775,20.306,6,0,7.8752e-05,786.98,2.7108e-05,13.339,2.5311e-05,-0.15984,-7.8519e-05,-780.3,2.2055
8776,20.121,6,0,8.2894e-05,828.36,2.8457e-05,13.127,2.6689e-05,-0.15066,-8.2665e-05,-821.8,2.1751
8777,19.936,6,0,8.7051e-05,869.91,2.9811e-05,12.915,2.8073e-05,-0.14216,-8.6827e-05,-863.45,2.1449
8778,19.752,6,0,9.1225e-05,911.62,3.117e-05,12.704,2.9462e-05,-0.13429,-9.1004e-05,-905.27,2.1147
8779,19.567,6,0,9.5415e-05,953.5,3.2535e-05,12.494,3.0855e-05,-0.12701,-9.5199e-05,-947.25,2.0845
8780,19.382,6,0,9.9623e-05,995.54,3.3906e-05,12.287,3.2255e-05,-0.12025,-9.941e-05,-989.4,2.0544
8781,19.198,6,0,0.00010385,1037.8,3.5283e-05,12.082,3.366e-05,-0.11398,-0.00010364,-1031.7,2.0244
8782,19.013,6,0,0.00010809,1080.1,3.6666e-05,11.88,3.507e-05,-0.10813,-0.00010788,-1074.2,1.9944
8783,18.828,6,0,0.00011235,1122.7,3.8054e-05,11.68,3.6486e-05,-0.10268,-0.00011215,-1116.9,1.9646
8784,18.643,6,0,0.00011662,1165.4,3.9449e-05,11.485,3.7908e-05,-0.097604,-0.00011643,-1159.7,1.9348
8785,18.459,6,0,0.00012092,1208.4,4.085e-05,11.292,3.9335e-05,-0.09285,-0.00012073,-1202.7,1.905
8786,18.274,6,0,0.00012523,1251.5,4.2258e-05,11.103,4.0768e-05,-0.088398,-0.00012504,-1245.9,1.8754
8787,18.089,6,0,0.00012956,1294.8,4.3672e-05,10.917,4.2207e-05,-0.084218,-0.00012938,-1289.3,1.8458
8788,17.905,6,0,0.00013392,1338.2,4.5092e-05,10.735,4.3652e-05,-0.08027,-0.00013373,-1332.9,1.8164
8789,17.72,6,0,0.00013828,1381.9,4.6519e-05,10.557,4.5104e-05,-0.076546,-0.0001381,-1376.6,1.787
8790,17.535,6,0,0.00014267,1425.7,4.7952e-05,10.382,4.6561e-05,-0.073022,-0.00014249,-1420.6,1.7577
8791,17.35,6,0,0.00014708,1469.8,4.9392e-05,10.21,4.8024e-05,-0.06968,-0.0001469,-1464.7,1.7285
8792,17.166,6,0,0.00015151,1514,5.0839e-05,10.042,4.9493e-05,-0.066472,-0.00015133,-1509,1.6994
8793,16.981,6,0,0.00015595,1558.5,5.2292e-05,9.877,5.0969e-05,-0.063396,-0.00015578,-1553.5,1.6704
8794,16.796,6,0,0.00016042,1603.1,5.3752e-05,9.7149,5.2451e-05,-0.060433,-0.00016025,-1598.2,1.6415
8795,16.612,6,0,0.0001649,1647.9,5.5219e-05,9.5557,5.394e-05,-0.057547,-0.00016474,-1643.1,1.6127
8796,16.427,6,0,0.00016941,1692.9,5.6693e-05,9.3993,5.5434e-05,-0.054741,-0.00016925,-1688.2,1.5841
8797,16.242,6,0,0.00017393,1738.1,5.8173e-05,9.2455,5.6936e-05,-0.051997,-0.00017378,-1733.5,1.5555
8798,16.057,6,0,0.00017848,1783.6,5.966e-05,9.0939,5.8443e-05,-0.049299,-0.00017832,-1779,1.5271
8799,15.873,6,0,0.00018305,1829.2,6.1154e-05,8.9447,5.9958e-05,-0.046599,-0.00018289,-1824.7,1.4988
8800,15.688,6,0,0.00018763,1875,6.2655e-05,8.7973,6.1478e-05,-0.0439,-0.00018748,-1870.6,1.4706
8801,15.503,6,0,0.00019224,1921,6.4163e-05,8.6517,6.3006e-05,-0.041212,-0.00019209,-1916.7,1.4425
8802,15.319,6,0,0.00019686,1967.3,6.5677e-05,8.5077,6.454e-05,-0.038469,-0.00019672,-1963,1.4146
8803,15.134,6,0,0.00020151,2013.7,6.7199e-05,8.3649,6.6081e-05,-0.035682,-0.00020137,-2009.5,1.3868
8804,14.949,6,0,0.00020618,2060.4,6.8727e-05,8.2232,6.7629e-05,-0.03283,-0.00020604,-2056.3,1.3591
8805,14.765,6,0,0.00021087,2107.2,7.0263e-05,8.0823,6.9183e-05,-0.029875,-0.00021073,-2103.2,1.3316
8806,14.58,6,0,0.00021558,2154.3,7.1805e-05,7.9419,7.0745e-05,-0.026828,-0.00021544,-2150.3,1.3042
8807,14.395,6,0,0.00022031,2201.6,7.3354e-05,7.8018,7.2313e-05,-0.023665,-0.00022017,-2197.7,1.277
8808,14.21,6,0,0.00022506,2249,7.4911e-05,7.6616,7.3888e-05,-0.020373,-0.00022493,-2245.2,1.2499
8809,14.026,6,0,0.00022983,2296.7,7.6474e-05,7.5212,7.5471e-05,-0.016898,-0.0002297,-2293,1.223
8810,13.841,6,0,0.00023463,2344.7,7.8044e-05,7.3802,7.706e-05,-0.013247,-0.0002345,-2341,1.1962
8811,13.656,6,0,0.00023944,2392.8,7.9621e-05,7.2383,7.8657e-05,-0.0093947,-0.00023932,-2389.2,1.1696
8812,13.472,6,0,0.00024428,2441.1,8.1206e-05,7.0953,8.0261e-05,-0.0052948,-0.00024416,-2437.6,1.1432
8813,13.287,6,0,0.00024914,2489.7,8.2797e-05,6.9507,8.1872e-05,-0.0009592,-0.00024902,-2486.2,1.1169
8814,13.102,6,0,0.00025402,2538.5,8.4395e-05,6.8043,8.349e-05,0.0036386,-0.00025391,-2535.1,1.0908
8815,12.917,6,0,0.00025893,2587.5,8.6001e-05,6.6558,8.5116e-05,0.0085186,-0.00025881,-2584.1,1.0648
8816,12.733,6,0,0.00026385,2636.7,8.7614e-05,6.5048,8.675e-05,0.013744,-0.00026374,-2633.4,1.039
8817,12.548,6,0,0.0002688,2686.1,8.9233e-05,6.3511,8.8391e-05,0.019307,-0.00026869,-2683,1.0135
8818,12.363,6,0,0.00027377,2735.8,9.086e-05,6.1942,9.0039e-05,0.025236,-0.00027366,-2732.7,0.98805
8819,12.179,6,0,0.00027876,2785.7,9.2494e-05,6.034,9.1696e-05,0.03159,-0.00027866,-2782.7,0.96283
8820,11.994,6,0,0.00028378,2835.8,9.4136e-05,5.8701,9.3359e-05,0.038322,-0.00028368,-2832.9,0.9378
8821,11.809,6,0,0.00028882,2886.2,9.5784e-05,5.7022,9.5031e-05,0.045493,-0.00028872,-2883.3,0.91297
8822,11.624,6,0,0.00029388,2936.8,9.7439e-05,5.5301,9.6711e-05,0.053158,-0.00029378,-2934,0.88833
8823,11.44,6,0,0.00029896,2987.6,9.9102e-05,5.3536,9.8398e-05,0.061277,-0.00029887,-2984.9,0.86389
8824,11.255,6,0,0.00030407,3038.6,0.00010077,5.1725,0.00010009,0.069867,-0.00030398,-3036,0.83965
8825,11.07,6,0,0.0003092,3089.8,0.00010245,4.9867,0.00010179,0.078923,-0.00030911,-3087.3,0.81562
8826,10.886,6,0,0.00031435,3141.3,0.00010413,4.7963,0.0001035,0.088485,-0.00031427,-3138.9,0.7918
8827,10.701,6,0,0.00031952,3193,0.00010582,4.6012,0.00010522,0.098497,-0.00031944,-3190.6,0.76819
8828,10.516,6,0,0.00032471,3244.9,0.00010752,4.4018,0.00010695,0.10892,-0.00032463,-3242.6,0.74481
8829,10.331,6,0,0.00032992,3296.9,0.00010922,4.1985,0.00010868,0.11975,-0.00032985,-3294.8,0.72164
8830,10.147,6,0,0.00033515,3349.2,0.00011093,3.9917,0.00011041,0.13082,-0.00033508,-3347.1,0.6987
8831,9.9621,6,0,0.00034039,3401.5,0.00011264,3.7823,0.00011215,0.14205,-0.00034032,-3399.6,0.67598
8832,9.7774,6,0,0.00034564,3454,0.00011435,3.5714,0.0001139,0.15331,-0.00034558,-3452.2,0.6535
8833,9.5927,6,0,0.0003509,3506.6,0.00011607,3.3603,0.00011564,0.16437,-0.00035084,-3504.8,0.63126
8834,9.408,6,0,0.00035616,3559.1,0.00011779,3.1509,0.00011739,0.17495,-0.0003561,-3557.4,0.60925
8835,9.2232,6,0,0.00036141,3611.6,0.0001195,2.9454,0.00011913,0.18471,-0.00036135,-3610,0.58749
8836,9.0385,6,0,0.00036664,3663.9,0.00012121,2.7466,0.00012087,0.19323,-0.00036659,-3662.4,0.56597
8837,8.8538,6,0,0.00037184,3715.9,0.00012291,2.5579,0.0001226,0.19993,-0.0003718,-3714.5,0.5447
8838,8.6691,6,0,0.000377,3767.4,0.0001246,2.3833,0.00012431,0.20415,-0.00037695,-3766.1,0.52368
8839,8.4844,6,0,0.00038208,3818.2,0.00012626,2.2279,0.00012599,0.20504,-0.00038204,-3817,0.50293
8840,8.2997,6,0,0.00038707,3868.1,0.0001279,2.0974,0.00012765,0.20156,-0.00038703,-3866.9,0.48243
8841,8.115,6,0,0.00039193,3916.6,0.00012949,1.9989,0.00012925,0.1925,-0.00039189,-3915.5,0.4622
8842,7.9303,6,0,0.00039661,3963.4,0.00013104,1.9404,0.0001308,0.17638,-0.00039658,-3962.3,0.44223
8843,7.7456,6,0,0.00040106,4007.9,0.0001325,1.9316,0.00013227,0.15149,-0.00040103,-4006.8,0.42254
8844,7.5609,6,0,0.00040521,4049.3,0.00013388,1.9836,0.00013363,0.1159,-0.00040517,-4048.2,0.40311
8845,7.3761,6,0,0.00040895,4086.7,0.00013513,2.1095,0.00013486,0.06743,-0.00040892,-4085.6,0.38397
8846,7.1914,6,0,0.00041219,4119.1,0.00013622,2.3247,0.00013591,0.0037479,-0.00041215,-4117.9,0.3651
8847,7.0067,6,0,0.00041478,4145,0.0001371,2.6473,0.00013674,-0.077581,-0.00041474,-4143.7,0.34652
8848,6.822,6,0,0.00041655,4162.6,0.00013773,3.0987,0.00013729,-0.17892,-0.0004165,-4161.1,0.32821
8849,6.6373,6,0,0.00041726,4169.8,0.00013802,3.7042,0.00013749,-0.30227,-0.00041721,-4168,0.31019
8850,6.4526,6,0,0.00041666,4163.8,0.0001379,4.4941,0.00013724,-0.44874,-0.00041659,-4161.7,0.29246
8851,6.2679,6,0,0.00041442,4141.3,0.00013725,5.5035,0.00013643,-0.61784,-0.00041434,-4138.9,0.27501
8852,6.0832,6,0,0.00041013,4098.5,0.00013595,6.773,0.00013494,-0.80632,-0.00041003,-4095.5,0.25784
8853,5.8985,6,0,0.00040333,4030.5,0.00013385,8.3472,0.0001326,-1.0065,-0.00040321,-4026.9,0.24095
8854,5.7138,6,0,0.00039346,3931.9,0.00013076,10.271,0.00012923,-1.2043,-0.00039331,-3927.4,0.22434
8855,5.5291,6,0,0.00037989,3796.3,0.00012648,12.579,0.00012463,-1.3763,-0.0003797,-3790.7,0.20799
8856,5.3443,6,0,0.00036194,3616.9,0.00012079,15.286,0.00011856,-1.4861,-0.0003617,-3609.9,0.1919
8857,5.1596,6,0,0.00033887,3386.4,0.00011343,18.348,0.00011079,-1.4855,-0.00033858,-3377.9,0.17606
8858,4.9749,6,0,0.00031001,3098,0.00010417,21.63,0.00010112,-1.3006,-0.00030966,-3087.7,0.16044
8859,4.7902,6,0,0.00027479,2746,9.2795e-05,24.811,8.9374e-05,-0.89608,-0.00027437,-2734,0.14504
8860,4.6055,6,0,0.00023287,2327.1,7.9132e-05,27.364,7.5482e-05,-0.06212,-0.00023239,-2313.3,0.12982
8861,4.4208,6,0,0.00018416,1840.3,6.3086e-05,28.114,5.9423e-05,0.58938,-0.00018365,-1825.8,0.11476
8862,4.2361,6,0,0.0001289,1288.1,4.4544e-05,26.11,4.1521e-05,3.4002,-0.00012838,-1273.2,0.099821
8863,4.0514,6,0,6.5964e-05,659.19,2.3881e-05,22.631,2.0236e-05,-4.7567,-6.5618e-05,-649.82,0.084974
8864,3.8667,6,0,6.9255e-06,69.207,4.9036e-06,14.066,-2.6811e-06,-42.922,-5.346e-06,-62.945,0.070179
8865,3.7,1.8182,0,0.0011703,11695,0.00087757,6428.4,1.8923e-05,-23.115,-0.00091916,-7071.5,0.080647
8866,3.7,1.6364,0,0.0006901,6896.2,0.00045592,2999.1,7.6402e-05,147.59,-0.0005908,-4865.5,0.078282
8867,3.7,1.4545,0,0.00055252,5521.4,0.00036264,2327.1,5.8314e-05,40.466,-0.00047549,-3970.3,0.076026
8868,3.7,1.2727,0,0.00044238,4420.8,0.00027891,1713.6,5.6871e-05,45.314,-0.00038816,-3298.5,0.073885
8869,3.7,1.0909,0,0.00036147,3612.2,0.00021981,1288.2,5.2579e-05,31.641,-0.00032222,-2784.5,0.071853
8870,3.7,0.90909,0,0.00029506,2948.6,0.00017235,958.6,4.8577e-05,28.631,-0.00026705,-2342.9,0.069922
8871,3.7,0.72727,0,0.00023685,2366.9,0.00013229,690.85,4.3684e-05,25.101,-0.00021754,-1937.6,0.068084
8872,3.7,0.54545,0,0.00018279,1826.7,9.679e-05,466.16,3.7801e-05,22.937,-0.00017039,-1541.3,0.066332
8873,3.7,0.36364,0,0.00012956,1294.7,6.3928e-05,274.38,3.0488e-05,23.127,-0.00012266,-1127.6,0.064652
8874,3.7,0.18182,0,7.1148e-05,710.99,3.1854e-05,111.17,1.908e-05,15.189,-6.8511e-05,-642.94,0.063029
8875,3.7,2,0,0.0029105,29085,0.001392,4519,0.00060549,-1390.2,-0.0028119,-27067,0.083214
8876,3.8667,0.18182,0,5.4287e-05,542.49,2.5169e-05,96.706,1.4091e-05,13.466,-5.1931e-05,-482.59,0.071933
8877,3.8667,0.36364,0,9.9557e-05,994.88,5.171e-05,244.75,2.1703e-05,19.283,-9.3129e-05,-843.51,0.073715
8878,3.8667,0.54545,0,0.00014255,1424.5,7.9873e-05,421.63,2.6372e-05,19.645,-0.00013072,-1160.7,0.075536
8879,3.8667,0.72727,0,0.00018818,1880.5,0.00011121,630.53,3.0204e-05,21.864,-0.00016954,-1478.9,0.077408
8880,3.8667,0.90909,0,0.0002394,2392.3,0.00014738,879.78,3.3681e-05,25.496,-0.00021226,-1822.4,0.079337
8881,3.8667,1.0909,0,0.00029998,2997.8,0.00019094,1185.4,3.6973e-05,28.589,-0.00026208,-2218.4,0.081329
8882,3.8667,1.2727,0,0.0003759,3756.4,0.00024575,1577.6,4.1388e-05,42.131,-0.000324,-2703.3,0.083392
8883,3.8667,1.4545,0,0.00048149,4811.6,0.00032416,2141.6,4.408e-05,37.186,-0.00040855,-3363.7,0.085532
8884,3.8667,1.6364,0,0.0006149,6144.7,0.00041109,2745.9,6.4799e-05,144.02,-0.0005229,-4271.7,0.087758
8885,3.8667,1.8182,0,0.0010785,10778,0.00081139,5960.7,1.453e-05,-26.625,-0.00084455,-6481.4,0.090069
8886,3.8667,2,0,0.0028236,28217,0.0013318,4142.5,0.00059979,-1357.6,-0.0027357,-26419,0.092557
8887,3.7,4.1818,0,0.0011703,11695,0.00087757,6428.4,1.8923e-05,-23.115,-0.00091916,-7071.5,0.080647
8888,3.7,4.3636,0,0.0006901,6896.2,0.00045592,2999.1,7.6402e-05,147.59,-0.0005908,-4865.5,0.078282
8889,3.7,4.5455,0,0.00055252,5521.4,0.00036264,2327.1,5.8314e-05,40.466,-0.00047549,-3970.3,0.076026
8890,3.7,4.7273,0,0.00044238,4420.8,0.00027891,1713.6,5.6871e-05,45.314,-0.00038816,-3298.5,0.073885
8891,3.7,4.9091,0,0.00036147,3612.2,0.00021981,1288.2,5.2579e-05,31.641,-0.00032222,-2784.5,0.071853
8892,3.7,5.0909,0,0.00029506,2948.6,0.00017235,958.6,4.8577e-05,28.631,-0.00026705,-2342.9,0.069922
8893,3.7,5.2727,0,0.00023685,2366.9,0.00013229,690.85,4.3684e-05,25.101,-0.00021754,-1937.6,0.068084
8894,3.7,5.4545,0,0.00018279,1826.7,9.679e-05,466.16,3.7801e-05,22.937,-0.00017039,-1541.3,0.066332
8895,3.7,5.6364,0,0.00012956,1294.7,6.3928e-05,274.38,3.0488e-05,23.127,-0.00012266,-1127.6,0.064652
8896,3.7,5.8182,0,7.1148e-05,710.99,3.1854e-05,111.17,1.908e-05,15.189,-6.8511e-05,-642.94,0.063029
8897,3.7,4,0,0.0029105,29085,0.001392,4519,0.00060549,-1390.2,-0.0028119,-27067,0.083214
8898,3.8667,5.8182,0,5.4287e-05,542.49,2.5169e-05,96.706,1.4091e-05,13.466,-5.1931e-05,-482.59,0.071933
8899,3.8667,5.6364,0,9.9557e-05,994.88,5.171e-05,244.75,2.1703e-05,19.283,-9.3129e-05,-843.51,0.073715
8900,3.8667,5.4545,0,0.00014255,1424.5,7.9873e-05,421.63,2.6372e-05,19.645,-0.00013072,-1160.7,0.075536
8901,3.8667,5.2727,0,0.00018818,1880.5,0.00011121,630.53,3.0204e-05,21.864,-0.00016954,-1478.9,0.077408
8902,3.8667,5.0909,0,0.0002394,2392.3,0.00014738,879.78,3.3681e-05,25.496,-0.00021226,-1822.4,0.079337
8903,3.8667,4.9091,0,0.00029998,2997.8,0.00019094,1185.4,3.6973e-05,28.589,-0.00026208,-2218.4,0.081329
8904,3.8667,4.7273,0,0.0003759,3756.4,0.00024575,1577.6,4.1388e-05,42.131,-0.000324,-2703.3,0.083392
8905,3.8667,4.5455,0,0.00048149,4811.6,0.00032416,2141.6,4.408e-05,37.186,-0.00040855,-3363.7,0.085532
8906,3.8667,4.3636,0,0.0006149,6144.7,0.00041109,2745.9,6.4799e-05,144.02,-0.0005229,-4271.7,0.087758
8907,3.8667,4.1818,0,0.0010785,10778,0.00081139,5960.7,1.4531e-05,-26.624,-0.00084455,-6481.4,0.090069
8908,3.8667,4,0,0.0028236,28217,0.0013318,4142.5,0.00059979,-1357.6,-0.0027357,-26419,0.092557
8909,3.7,2.2727,0,0.0017534,17522,0.00069733,1469.5,0.0005089,53.75,-0.0017232,-16717,0.085885
8910,3.7833,2.1818,0,0.001923,19217,0.00074901,1468.7,0.0005728,144.79,-0.0018921,-18376,0.089659
8911,3.6075,2.1818,0,0.0016876,16865,0.00065837,1269.7,0.00049903,72.502,-0.0016616,-16162,0.080418
8912,3.7,2.1818,0.05,0.00010773,1076.5,8.2722e-05,621.54,1.0339e-10,0.0025034,-8.2722e-05,-621.54,0.085079
8913,3.7,2.0909,0,0.0023781,23765,0.0010506,2839.8,0.00057838,-707.96,-0.0023219,-22500,0.084255
8914,3.7,2.4545,0,0.0014528,14518,0.00057231,1111.3,0.00042135,-22.955,-0.0014309,-13940,0.087055
8915,3.7833,2.3636,0,0.0015346,15335,0.0006095,1220.3,0.00044058,-48.939,-0.0015107,-14710,0.091077
8916,3.6075,2.3636,0,0.0014471,14461,0.00056288,1011.2,0.00042354,-35.677,-0.0014277,-13945,0.08171
8917,3.7,2.3636,0.05,1.9395e-05,193.81,1.4893e-05,111.9,1.2414e-10,0.0017308,-1.4893e-05,-111.9,0.086466
8918,3.7,2.6364,0,0.0013092,13083,0.00050425,871.54,0.00038794,-2.3831,-0.0012922,-12626,0.087851
8919,3.7833,2.5455,0,0.0013532,13522,0.00052565,957.27,0.00039836,0.8641,-0.0013343,-13018,0.092068
8920,3.6075,2.5455,0,0.0013038,13030,0.00049394,770.44,0.00039179,2.8551,-0.001289,-12626,0.08264
8921,3.7,2.5455,0.05,8.5949e-06,85.89,6.5998e-06,49.589,6.4964e-11,0.00099698,-6.5998e-06,-49.588,0.087445
8922,3.7,2.8182,0,0.0012393,12384,0.00047117,748.87,0.00037097,-4.0016,-0.0012249,-11995,0.088315
8923,3.7833,2.7273,0,0.0012576,12567,0.00048184,804.38,0.00037406,-5.4125,-0.001242,-12148,0.092702
8924,3.6075,2.7273,0,0.0012259,12250,0.00045833,645.97,0.0003717,-4.9564,-0.0012137,-11917,0.083242
8925,3.7,2.7273,0.05,4.1659e-06,41.63,3.1989e-06,24.035,3.4346e-11,0.00057068,-3.1989e-06,-24.035,0.088072
8926,3.7,3,0,0.0012183,12175,0.00046102,710.3,0.00036613,-2.6901,-0.0012047,-11806,0.088467
8927,3.7833,2.9091,0,0.0012165,12157,0.00046224,732.47,0.00036439,-2.7039,-0.0012024,-11775,0.093012
8928,3.6075,2.9091,0,0.001191,11902,0.0004417,585.55,0.00036352,-1.7962,-0.00118,-11599,0.083538
8929,3.7,2.9091,0.05,1.8741e-06,18.728,1.4391e-06,10.813,-2.7457e-13,0.00013027,-1.4391e-06,-10.812,0.088379
8930,3.7,3.1818,0,0.0012393,12384,0.00047117,748.87,0.00037097,-4.0016,-0.0012249,-11995,0.088315
8931,3.7833,3.0909,0,0.0012165,12157,0.00046224,732.47,0.00036439,-2.7039,-0.0012024,-11775,0.093012
8932,3.6075,3.0909,0,0.001191,11902,0.0004417,585.55,0.00036352,-1.7962,-0.00118,-11599,0.083538
8933,3.7,3.0909,0.05,1.8741e-06,18.728,1.4391e-06,10.813,3.6867e-12,-8.4128e-05,-1.4391e-06,-10.813,0.088379
8934,3.7,3.3636,0,0.0013092,13083,0.00050425,871.54,0.00038794,-2.3831,-0.0012922,-12626,0.087851
8935,3.7833,3.2727,0,0.0012576,12567,0.00048184,804.37,0.00037406,-5.4125,-0.001242,-12148,0.092702
8936,3.6075,3.2727,0,0.0012259,12250,0.00045833,645.97,0.0003717,-4.9564,-0.0012137,-11917,0.083242
8937,3.7,3.2727,0.05,4.1659e-06,41.63,3.1989e-06,24.035,-3.3323e-11,-0.00055769,-3.1989e-06,-24.035,0.088072
8938,3.7,3.5455,0,0.0014528,14518,0.00057231,1111.3,0.00042135,-22.955,-0.0014309,-13940,0.087055
8939,3.7833,3.4545,0,0.0013532,13522,0.00052565,957.27,0.00039836,0.86412,-0.0013343,-13018,0.092068
8940,3.6075,3.4545,0,0.0013038,13030,0.00049394,770.44,0.00039179,2.8551,-0.001289,-12626,0.08264
8941,3.7,3.4545,0.05,8.5949e-06,85.89,6.5998e-06,49.588,-6.9998e-11,-0.00097965,-6.5998e-06,-49.589,0.087445
8942,3.7,3.7273,0,0.0017534,17522,0.00069733,1469.5,0.0005089,53.75,-0.0017232,-16717,0.085885
8943,3.7833,3.6364,0,0.0015346,15335,0.0006095,1220.3,0.00044058,-48.939,-0.0015107,-14710,0.091077
8944,3.6075,3.6364,0,0.0014471,14461,0.00056288,1011.2,0.00042354,-35.677,-0.0014277,-13945,0.08171
8945,3.7,3.6364,0.05,1.9395e-05,193.81,1.4893e-05,111.9,-1.2246e-10,-0.0017313,-1.4893e-05,-111.9,0.086466
8946,3.7833,3.8182,0,0.001923,19217,0.00074901,1468.7,0.00057281,144.79,-0.0018921,-18376,0.089659
8947,3.6075,3.8182,0,0.0016876,16865,0.00065837,1269.7,0.00049903,72.502,-0.0016616,-16162,0.080418
8948,3.7,3.8182,0.05,0.00010773,1076.5,8.2722e-05,621.54,-1.178e-10,-0.0024591,-8.2722e-05,-621.54,0.085079
8949,3.7,3.9091,0,0.0023781,23765,0.0010506,2839.8,0.00057838,-707.96,-0.0023219,-22500,0.084255
8950,3.8667,2.2727,0,0.0017392,17380,0.00069048,1439.6,0.00050526,47.931,-0.0017097,-16595,0.09521
8951,3.959,2.1818,0,0.001659,16578,0.00064552,1224.2,0.00049126,65.187,-0.001634,-15903,0.10008
8952,3.8667,2.1818,0.05,0.00011047,1103.9,8.4826e-05,637.35,8.0498e-11,0.0022438,-8.4826e-05,-637.35,0.094399
8953,3.8667,2.0909,0,0.0023257,23241,0.0010153,2621.2,0.00057324,-700.17,-0.0022751,-22102,0.093583
8954,3.8667,2.4545,0,0.0014453,14443,0.00057151,1131.3,0.00041774,-24.03,-0.0014229,-13854,0.096383
8955,3.959,2.3636,0,0.0014305,14295,0.00056027,1045.9,0.00041619,-36.621,-0.0014103,-13760,0.10138
8956,3.8667,2.3636,0.05,2.148e-05,214.65,1.6494e-05,123.93,7.3462e-11,0.0015485,-1.6494e-05,-123.93,0.095789
8957,3.8667,2.6364,0,0.0013043,13034,0.00050554,907.38,0.00038451,-2.006,-0.0012865,-12557,0.097182
8958,3.959,2.5455,0,0.0012928,12919,0.00049598,840.12,0.00038465,3.6461,-0.0012764,-12477,0.10232
8959,3.8667,2.5455,0.05,1.1252e-05,112.44,8.64e-06,64.918,2.8844e-11,0.00081372,-8.64e-06,-64.917,0.096772
8960,3.8667,2.8182,0,0.0012354,12345,0.00047335,791.26,0.00036751,-3.9575,-0.00122,-11932,0.097648
8961,3.959,2.7273,0,0.0012174,12166,0.00046263,732.37,0.00036452,-4.7482,-0.0012034,-11785,0.10292
8962,3.8667,2.7273,0.05,6.6062e-06,66.016,5.0728e-06,38.115,7.9733e-12,0.00040406,-5.0727e-06,-38.114,0.097402
8963,3.8667,3,0,0.0012147,12139,0.00046345,754.56,0.00036268,-2.5854,-0.0012002,-11745,0.097801
8964,3.959,2.9091,0,0.0011836,11828,0.00044693,679,0.00035635,-1.5609,-0.0011706,-11475,0.10322
8965,3.8667,2.9091,0.05,4.8062e-06,48.029,3.6906e-06,27.73,-3.1318e-12,0.00011375,-3.6906e-06,-27.729,0.09771
8966,3.8667,3.1818,0,0.0012354,12345,0.00047335,791.26,0.00036751,-3.9575,-0.00122,-11932,0.097648
8967,3.959,3.0909,0,0.0011836,11828,0.00044693,679,0.00035635,-1.5609,-0.0011706,-11475,0.10322
8968,3.8667,3.0909,0.05,4.8062e-06,48.029,3.6906e-06,27.729,6.6373e-12,-8.2982e-05,-3.6906e-06,-27.73,0.09771
8969,3.8667,3.3636,0,0.0013043,13034,0.00050554,907.37,0.00038451,-2.006,-0.0012865,-12557,0.097182
8970,3.959,3.2727,0,0.0012174,12166,0.00046263,732.36,0.00036452,-4.7482,-0.0012034,-11785,0.10292
8971,3.8667,3.2727,0.05,6.6062e-06,66.016,5.0727e-06,38.114,-8.3627e-12,-0.00034725,-5.0728e-06,-38.115,0.097402
8972,3.8667,3.5455,0,0.0014453,14443,0.00057151,1131.3,0.00041774,-24.03,-0.0014229,-13854,0.096383
8973,3.959,3.4545,0,0.0012928,12919,0.00049598,840.12,0.00038465,3.6461,-0.0012764,-12477,0.10232
8974,3.8667,3.4545,0.05,1.1252e-05,112.44,8.64e-06,64.917,-3.0046e-11,-0.00079009,-8.64e-06,-64.918,0.096772
8975,3.8667,3.7273,0,0.0017392,17380,0.00069048,1439.6,0.00050526,47.93,-0.0017097,-16595,0.09521
8976,3.959,3.6364,0,0.0014305,14295,0.00056027,1045.9,0.00041619,-36.621,-0.0014103,-13760,0.10138
8977,3.8667,3.6364,0.05,2.148e-05,214.65,1.6494e-05,123.93,-7.3587e-11,-0.001528,-1.6494e-05,-123.93,0.095789
8978,3.959,3.8182,0,0.001659,16578,0.00064552,1224.2,0.00049126,65.187,-0.001634,-15903,0.10008
8979,3.8667,3.8182,0.05,0.00011047,1103.9,8.4826e-05,637.35,-8.0498e-11,-0.0021884,-8.4826e-05,-637.35,0.094399
8980,3.8667,3.9091,0,0.0023257,23241,0.0010153,2621.2,0.00057324,-700.17,-0.0022751,-22102,0.093583
8981,3.515,5.7273,0,0.00015435,1542.4,7.3732e-05,263.53,3.4703e-05,-29.719,-0.00014827,-1404.5,0.05832
8982,3.4225,5.8182,0,0.00015588,1557.7,6.528e-05,149.91,4.1087e-05,-31.874,-0.00015307,-1490.7,0.054811
8983,3.515,5.8182,0.05,1.6755e-05,167.43,1.2866e-05,96.668,2.6935e-12,2.1711e-05,-1.2866e-05,-96.668,0.057521
8984,3.515,5.9091,0,9.9209e-05,991.41,3.9691e-05,70.338,2.7144e-05,-23.937,-9.8083e-05,-964.84,0.056767
8985,3.6075,5.8182,0,8.9551e-05,894.89,3.6199e-05,79.121,2.5324e-05,-2.5901,-8.7968e-05,-853.82,0.060284
8986,3.515,5.5455,0,0.00021761,2174.6,0.00011221,491.25,4.4592e-05,-16.781,-0.00020504,-1892.4,0.059888
8987,3.4225,5.6364,0,0.00019521,1950.8,8.4855e-05,238.23,5.059e-05,-19.223,-0.00019021,-1828.5,0.056335
8988,3.515,5.6364,0.05,1.4891e-05,148.81,1.1434e-05,85.914,2.6216e-12,1.9312e-05,-1.1434e-05,-85.914,0.059079
8989,3.6075,5.6364,0,0.00014575,1456.5,6.7815e-05,244.87,3.5903e-05,5.0954,-0.00014001,-1316.7,0.061875
8990,3.515,5.3636,0,0.00028994,2897.4,0.00016016,797.9,5.2186e-05,-13.347,-0.00026794,-2418.7,0.061487
8991,3.4225,5.4545,0,0.00025315,2529.8,0.00012102,454.17,5.8961e-05,-12.104,-0.00024239,-2276.3,0.057867
8992,3.515,5.4545,0.05,1.5554e-05,155.43,1.1944e-05,89.74,1.5691e-12,-1.9035e-14,-1.1944e-05,-89.74,0.060661
8993,3.6075,5.4545,0,0.00020528,2051.4,0.00010595,475.4,4.3092e-05,3.0984,-0.00019302,-1770.9,0.063507
8994,3.515,5.1818,0,0.00036945,3692,0.00021448,1156.5,5.896e-05,-12.001,-0.00033583,-2978.3,0.063127
8995,3.4225,5.2727,0,0.00032021,3199.9,0.00016509,731.54,6.6551e-05,-8.8259,-0.00030142,-2773.6,0.059418
8996,3.515,5.2727,0.05,1.7063e-05,170.52,1.3103e-05,98.447,-1.1371e-12,-2.5263e-05,-1.3103e-05,-98.447,0.062279
8997,3.6075,5.2727,0,0.00026774,2675.6,0.00014772,743.03,4.923e-05,3.0111,-0.00024726,-2224.7,0.065193
8998,3.515,5,0,0.00045925,4589.3,0.00027673,1573.7,6.5575e-05,-12.83,-0.00041163,-3598.4,0.064815
8999,3.4225,5.0909,0,0.00039582,3955.5,0.00021551,1054.2,7.4182e-05,-7.6574,-0.00036717,-3323.8,0.060996
9000,3.515,5.0909,0.05,1.9362e-05,193.49,1.4868e-05,111.71,-8.7766e-12,-3.5209e-05,-1.4868e-05,-111.71,0.063941
9001,3.6075,5.0909,0,0.00033578,3355.4,0.00019455,1053.9,5.4727e-05,3.3351,-0.00030521,-2701.1,0.066943
9002,3.515,4.8182,0,0.00056521,5648.2,0.00035043,2071.1,7.3085e-05,-12.797,-0.00050057,-4323,0.066551
9003,3.4225,4.9091,0,0.00048243,4821,0.00027317,1423.2,8.2672e-05,-8.1678,-0.00044214,-3951.4,0.062602
9004,3.515,4.9091,0.05,2.2636e-05,226.2,1.7381e-05,130.6,-8.7733e-12,-0.0001627,-1.7381e-05,-130.6,0.065652
9005,3.6075,4.9091,0,0.00041336,4130.8,0.00024917,1424.6,5.9735e-05,1.26,-0.00037027,-3229.7,0.068764
9006,3.515,4.6364,0,0.00069727,6967.9,0.00044136,2674.1,8.2409e-05,-22.953,-0.00061183,-5239.2,0.068333
9007,3.4225,4.7273,0,0.00058506,5846.6,0.00034037,1847.6,9.354e-05,-6.984,-0.00053124,-4701.4,0.064231
9008,3.515,4.7273,0.05,2.7711e-05,276.92,2.1279e-05,159.88,-1.5323e-11,-0.00022334,-2.1279e-05,-159.88,0.067411
9009,3.6075,4.7273,0,0.00050703,5066.8,0.00031542,1882.8,6.5923e-05,8.2497,-0.00044813,-3854.1,0.07066
9010,3.515,4.4545,0,0.00087734,8767.4,0.00056244,3472,9.91e-05,-9.3735,-0.00076493,-6501.3,0.070147
9011,3.4225,4.5455,0,0.00071088,7103.9,0.00041933,2315.9,0.0001086,-18.791,-0.0006424,-5661.5,0.065872
9012,3.515,4.5455,0.05,3.4168e-05,341.45,2.6237e-05,197.13,-4.3719e-11,-0.00050858,-2.6237e-05,-197.13,0.069209
9013,3.6075,4.5455,0,0.00062945,6290.2,0.00040417,2491.9,6.9645e-05,-21.63,-0.00054854,-4666.4,0.072628
9014,3.515,4.2727,0,0.0011303,11295,0.00070365,4145.4,0.00013983,-90.836,-0.001,-8655.2,0.071964
9015,3.4225,4.3636,0,0.00087432,8737.2,0.00051415,2845,0.00013677,9.5018,-0.00079052,-6957.8,0.067499
9016,3.515,4.3636,0.05,5.0944e-05,509.09,3.9119e-05,293.92,-8.6126e-11,-0.00090926,-3.9119e-05,-293.92,0.071027
9017,3.6075,4.3636,0,0.00079282,7922.7,0.00050955,3207.5,9.4532e-05,89.146,-0.00068926,-5800,0.074662
9018,3.515,4.0909,0,0.0013854,13845,0.0007633,3555.7,0.0002261,-480.63,-0.0012882,-11859,0.07372
9019,3.4225,4.1818,0,0.0010958,10950,0.00060761,3023.1,0.00019306,-91.652,-0.0010122,-9147.2,0.069065
9020,3.515,4.1818,0.05,9.1786e-05,917.22,7.048e-05,529.56,-2.4299e-10,-0.0025398,-7.048e-05,-529.56,0.072816
9021,3.6075,4.1818,0,0.0011191,11183,0.00077231,4986.6,5.4742e-05,-404.94,-0.00093898,-7871.3,0.076738
9022,3.515,3.9091,0,0.0014642,14631,0.00064909,1838.1,0.00036058,-329.7,-0.0014264,-13756,0.075283
9023,3.4225,4,0,0.0012622,12614,0.00058664,1897.4,0.00028984,-332.67,-0.0012207,-11682,0.070505
9024,3.515,4,0.05,0.00016261,1624.9,0.00012486,938.15,-1.0298e-10,-0.0018739,-0.00012486,-938.16,0.074487
9025,3.6075,4,0,0.0021817,21802,0.00099969,3095.7,0.00051038,-580.85,-0.0021156,-20311,0.078738
9026,3.515,3.7273,0,0.0014003,13994,0.0005394,927.74,0.00041446,-10.959,-0.0013824,-13512,0.076598
9027,3.4225,3.8182,0,0.0012718,12710,0.00047968,739.03,0.00038476,25.823,-0.0012573,-12312,0.07176
9028,3.515,3.8182,0.05,7.9986e-05,799.31,6.1419e-05,461.48,5.1268e-11,-0.00059852,-6.1419e-05,-461.48,0.075932
9029,3.515,3.5455,0,0.0013036,13027,0.00048909,704.76,0.00039399,-9.7811,-0.0012904,-12665,0.077611
9030,3.4225,3.6364,0,0.0012325,12317,0.00044915,499.62,0.00038013,-18.927,-0.0012235,-12068,0.072796
9031,3.515,3.6364,0.05,3.3099e-05,330.76,2.5416e-05,190.96,4.5238e-12,-0.00067374,-2.5416e-05,-190.97,0.077095
9032,3.515,3.3636,0,0.0012221,12212,0.00044928,554.3,0.00037554,0.20505,-0.0012117,-11926,0.078324
9033,3.4225,3.4545,0,0.0011753,11744,0.0004185,369.52,0.0003695,1.351,-0.0011685,-11555,0.073578
9034,3.515,3.4545,0.05,1.775e-05,177.38,1.363e-05,102.41,1.2127e-11,-0.0003789,-1.363e-05,-102.41,0.077956
9035,3.515,3.1818,0,0.0011776,11768,0.00042876,481.9,0.00036428,-2.6161,-0.0011687,-11521,0.078745
9036,3.4225,3.2727,0,0.0011359,11351,0.0004002,303.02,0.00035949,-2.8674,-0.0011305,-11198,0.074099
9037,3.515,3.2727,0.05,1.0153e-05,101.46,7.7964e-06,58.579,1.3788e-11,-0.0002194,-7.7965e-06,-58.58,0.078522
9038,3.515,3,0,0.0011633,11625,0.00042194,457.56,0.00036094,-0.74967,-0.0011549,-11390,0.078885
9039,3.4225,3.0909,0,0.0011161,11153,0.00039091,271.05,0.00035476,-0.57632,-0.0011113,-11016,0.074359
9040,3.515,3.0909,0.05,7.4901e-06,74.849,5.7514e-06,43.214,1.1347e-11,-2.7248e-05,-5.7514e-06,-43.214,0.078802
9041,3.515,2.8182,0,0.0011776,11768,0.00042876,481.9,0.00036428,-2.6161,-0.0011687,-11521,0.078745
9042,3.4225,2.9091,0,0.0011161,11153,0.00039091,271.05,0.00035476,-0.57632,-0.0011113,-11016,0.074359
9043,3.515,2.9091,0.05,7.4901e-06,74.849,5.7514e-06,43.214,-7.7589e-12,5.5707e-05,-5.7514e-06,-43.214,0.078802
9044,3.515,2.6364,0,0.0012221,12212,0.00044928,554.31,0.00037553,0.20506,-0.0012117,-11926,0.078324
9045,3.4225,2.7273,0,0.0011359,11351,0.0004002,303.02,0.00035949,-2.8674,-0.0011305,-11198,0.074099
9046,3.515,2.7273,0.05,1.0153e-05,101.46,7.7965e-06,58.58,-1.7634e-11,0.000245,-7.7964e-06,-58.579,0.078522
9047,3.515,2.4545,0,0.0013036,13027,0.00048909,704.76,0.00039399,-9.7811,-0.0012904,-12665,0.077611
9048,3.4225,2.5455,0,0.0011753,11744,0.0004185,369.52,0.0003695,1.351,-0.0011685,-11555,0.073578
9049,3.515,2.5455,0.05,1.775e-05,177.38,1.363e-05,102.41,-1.4699e-11,0.00040654,-1.363e-05,-102.41,0.077956
9050,3.515,2.2727,0,0.0014003,13994,0.0005394,927.74,0.00041446,-10.959,-0.0013824,-13512,0.076598
9051,3.4225,2.3636,0,0.0012325,12317,0.00044915,499.62,0.00038013,-18.927,-0.0012235,-12068,0.072796
9052,3.515,2.3636,0.05,3.3099e-05,330.76,2.5416e-05,190.97,-1.2827e-11,0.00072269,-2.5416e-05,-190.96,0.077095
9053,3.515,2.0909,0,0.0014642,14631,0.00064909,1838.1,0.00036058,-329.7,-0.0014264,-13756,0.075283
9054,3.4225,2.1818,0,0.0012718,12710,0.00047968,739.03,0.00038476,25.823,-0.0012573,-12312,0.07176
9055,3.515,2.1818,0.05,7.9986e-05,799.31,6.1419e-05,461.48,-5.8111e-11,0.00063457,-6.1419e-05,-461.48,0.075932
9056,3.515,1.9091,0,0.0013854,13845,0.0007633,3555.7,0.0002261,-480.63,-0.0012882,-11859,0.07372
9057,3.4225,2,0,0.0012622,12614,0.00058664,1897.4,0.00028984,-332.67,-0.0012207,-11682,0.070505
9058,3.515,2,0.05,0.00016261,1624.9,0.00012486,938.16,1.3813e-10,0.0017658,-0.00012486,-938.15,0.074487
9059,3.6075,2,0,0.0021817,21802,0.00099969,3095.7,0.00051038,-580.85,-0.0021156,-20311,0.078738
9060,3.515,1.7273,0,0.0011303,11295,0.00070365,4145.4,0.00013983,-90.836,-0.001,-8655.2,0.071964
9061,3.4225,1.8182,0,0.0010958,10950,0.00060761,3023.1,0.00019306,-91.652,-0.0010122,-9147.2,0.069065
9062,3.515,1.8182,0.05,9.1786e-05,917.22,7.048e-05,529.56,2.5021e-10,0.0025727,-7.048e-05,-529.56,0.072816
9063,3.6075,1.8182,0,0.0011191,11183,0.00077231,4986.6,5.4742e-05,-404.94,-0.00093898,-7871.3,0.076738
9064,3.515,1.5455,0,0.00087734,8767.4,0.00056244,3472,9.91e-05,-9.3735,-0.00076493,-6501.3,0.070147
9065,3.4225,1.6364,0,0.00087432,8737.2,0.00051415,2845,0.00013677,9.5018,-0.00079052,-6957.8,0.067499
9066,3.515,1.6364,0.05,5.0944e-05,509.09,3.9119e-05,293.92,9.5111e-11,0.00091385,-3.9119e-05,-293.92,0.071027
9067,3.6075,1.6364,0,0.00079282,7922.7,0.00050955,3207.5,9.4532e-05,89.146,-0.00068926,-5800,0.074662
9068,3.515,1.3636,0,0.00069727,6967.9,0.00044136,2674.1,8.2409e-05,-22.953,-0.00061183,-5239.2,0.068333
9069,3.4225,1.4545,0,0.00071088,7103.9,0.00041933,2315.9,0.0001086,-18.791,-0.0006424,-5661.5,0.065872
9070,3.515,1.4545,0.05,3.4168e-05,341.45,2.6237e-05,197.13,4.2392e-11,0.00051342,-2.6237e-05,-197.13,0.069209
9071,3.6075,1.4545,0,0.00062945,6290.2,0.00040417,2491.9,6.9645e-05,-21.63,-0.00054854,-4666.4,0.072628
9072,3.515,1.1818,0,0.00056521,5648.2,0.00035043,2071.1,7.3085e-05,-12.797,-0.00050057,-4323,0.066551
9073,3.4225,1.2727,0,0.00058506,5846.6,0.00034037,1847.6,9.354e-05,-6.984,-0.00053124,-4701.4,0.064231
9074,3.515,1.2727,0.05,2.7711e-05,276.92,2.1279e-05,159.88,1.6701e-11,0.00022476,-2.1279e-05,-159.88,0.067411
9075,3.6075,1.2727,0,0.00050703,5066.8,0.00031542,1882.8,6.5923e-05,8.2497,-0.00044813,-3854.1,0.07066
9076,3.515,1,0,0.00045925,4589.3,0.00027673,1573.7,6.5575e-05,-12.83,-0.00041163,-3598.4,0.064815
9077,3.4225,1.0909,0,0.00048243,4821,0.00027317,1423.2,8.2672e-05,-8.1678,-0.00044214,-3951.4,0.062602
9078,3.515,1.0909,0.05,2.2636e-05,226.2,1.7381e-05,130.6,8.7733e-12,0.0001625,-1.7381e-05,-130.6,0.065652
9079,3.6075,1.0909,0,0.00041336,4130.8,0.00024917,1424.6,5.9735e-05,1.26,-0.00037027,-3229.7,0.068764
9080,3.515,0.81818,0,0.00036945,3692,0.00021448,1156.5,5.896e-05,-12.001,-0.00033583,-2978.3,0.063127
9081,3.4225,0.90909,0,0.00039582,3955.5,0.00021551,1054.2,7.4182e-05,-7.6574,-0.00036717,-3323.8,0.060996
9082,3.515,0.90909,0.05,1.9362e-05,193.49,1.4868e-05,111.71,9.8613e-12,3.6678e-05,-1.4868e-05,-111.71,0.063941
9083,3.6075,0.90909,0,0.00033578,3355.4,0.00019455,1053.9,5.4727e-05,3.3351,-0.00030521,-2701.1,0.066943
9084,3.515,0.63636,0,0.00028994,2897.4,0.00016016,797.9,5.2186e-05,-13.347,-0.00026794,-2418.7,0.061487
9085,3.4225,0.72727,0,0.00032021,3199.9,0.00016509,731.54,6.6551e-05,-8.8259,-0.00030142,-2773.6,0.059418
9086,3.515,0.72727,0.05,1.7063e-05,170.52,1.3103e-05,98.447,5.6853e-13,1.049e-05,-1.3103e-05,-98.447,0.062279
9087,3.6075,0.72727,0,0.00026774,2675.6,0.00014772,743.03,4.923e-05,3.0111,-0.00024726,-2224.7,0.065193
9088,3.515,0.45455,0,0.00021761,2174.6,0.00011221,491.25,4.4592e-05,-16.781,-0.00020504,-1892.4,0.059888
9089,3.4225,0.54545,0,0.00025315,2529.8,0.00012102,454.17,5.8961e-05,-12.104,-0.00024239,-2276.3,0.057867
9090,3.515,0.54545,0.05,1.5554e-05,155.43,1.1944e-05,89.74,1.6462e-13,2.5978e-06,-1.1944e-05,-89.74,0.060661
9091,3.6075,0.54545,0,0.00020528,2051.4,0.00010595,475.4,4.3092e-05,3.0984,-0.00019302,-1770.9,0.063507
9092,3.515,0.27273,0,0.00015435,1542.4,7.3732e-05,263.53,3.4703e-05,-29.719,-0.00014827,-1404.5,0.05832
9093,3.4225,0.36364,0,0.00019521,1950.8,8.4855e-05,238.23,5.059e-05,-19.223,-0.00019021,-1828.5,0.056335
9094,3.515,0.36364,0.05,1.4891e-05,148.81,1.1435e-05,85.914,-2.9985e-12,-1.7693e-05,-1.1434e-05,-85.914,0.059079
9095,3.6075,0.36364,0,0.00014575,1456.5,6.7815e-05,244.87,3.5903e-05,5.0954,-0.00014001,-1316.7,0.061875
9096,3.4225,0.18182,0,0.00015588,1557.7,6.528e-05,149.91,4.1087e-05,-31.874,-0.00015307,-1490.7,0.054811
9097,3.515,0.18182,0.05,1.6755e-05,167.43,1.2866e-05,96.668,-2.4068e-12,-9.4462e-06,-1.2866e-05,-96.668,0.057521
9098,3.515,0.090909,0,9.9209e-05,991.41,3.9691e-05,70.338,2.7144e-05,-23.937,-9.8083e-05,-964.84,0.056767
9099,3.6075,0.18182,0,8.9551e-05,894.89,3.6199e-05,79.121,2.5324e-05,-2.5901,-8.7968e-05,-853.82,0.060284
9100,3.33,5.7273,0,0.00020227,2021.4,8.0145e-05,152.72,5.7646e-05,-16.329,-0.00019942,-1947.8,0.052843
9101,3.2375,5.8182,0,0.0002226,2224.4,8.5594e-05,138.97,6.5341e-05,-13.211,-0.00022007,-2157.6,0.049408
9102,3.33,5.8182,0.05,1.4923e-05,149.13,1.1459e-05,86.1,2.4011e-13,6.9331e-06,-1.1459e-05,-86.1,0.052074
9103,3.33,5.9091,0,0.0001721,1719.8,6.1795e-05,59.087,5.3684e-05,-1.8566,-0.00017105,-1690.4,0.051347
9104,3.33,5.5455,0,0.00023931,2391.5,9.9725e-05,246.66,6.5598e-05,-9.7521,-0.00023425,-2262.7,0.054326
9105,3.2375,5.6364,0,0.00024252,2423.5,9.2707e-05,145.4,7.1593e-05,-13.238,-0.00023988,-2353.5,0.050858
9106,3.33,5.6364,0.05,1.2595e-05,125.87,9.6718e-06,72.67,-3.1098e-13,-6.5722e-06,-9.6717e-06,-72.67,0.053561
9107,3.33,5.3636,0,0.00029239,2921.8,0.00013235,435.86,7.3618e-05,-5.3912,-0.00028255,-2681.5,0.055808
9108,3.2375,5.4545,0,0.00028158,2813.9,0.00011433,254.65,7.927e-05,-8.7514,-0.00027647,-2681.6,0.05229
9109,3.33,5.4545,0.05,1.2515e-05,125.06,9.6099e-06,72.205,-4.1267e-12,-5.1554e-05,-9.6099e-06,-72.205,0.055043
9110,3.33,5.1818,0,0.00035576,3555.1,0.00017255,677.55,8.1949e-05,-3.1603,-0.00033936,-3168.7,0.057298
9111,3.2375,5.2727,0,0.0003327,3324.7,0.00014497,426.04,8.7526e-05,-5.5709,-0.00032344,-3093.4,0.05371
9112,3.33,5.2727,0.05,1.2983e-05,129.74,9.9692e-06,74.904,-9.1205e-12,-0.00011058,-9.9691e-06,-74.904,0.056527
9113,3.33,5,0,0.00042892,4286.3,0.00021876,954.85,9.1406e-05,-2.036,-0.00040462,-3729,0.058797
9114,3.2375,5.0909,0,0.00039348,3932.1,0.0001818,634.77,9.6765e-05,-4.1796,-0.00037884,-3577.7,0.055124
9115,3.33,5.0909,0.05,1.3945e-05,139.35,1.0708e-05,80.454,-1.8251e-11,-0.00016721,-1.0708e-05,-80.454,0.058021
9116,3.33,4.8182,0,0.00051388,5135.2,0.00027095,1258.6,0.00010323,-1.6216,-0.00048076,-4389.4,0.060302
9117,3.2375,4.9091,0,0.00046377,4634.5,0.0002234,864.09,0.00010792,-3.5998,-0.000443,-4142.9,0.056529
9118,3.33,4.9091,0.05,1.5465e-05,154.55,1.1875e-05,89.227,-2.6741e-11,-0.00026414,-1.1875e-05,-89.227,0.059522
9119,3.33,4.6364,0,0.00061319,6127.7,0.00032794,1561.5,0.00011982,-2.1976,-0.0005715,-5196.5,0.061804
9120,3.2375,4.7273,0,0.00054483,5444.5,0.00026876,1095.7,0.00012244,-3.6779,-0.00051785,-4814.6,0.057919
9121,3.33,4.7273,0.05,1.742e-05,174.08,1.3376e-05,100.5,-4.4673e-11,-0.00041737,-1.3376e-05,-100.5,0.061026
9122,3.33,4.4545,0,0.00072895,7284.5,0.00038473,1791.8,0.00014632,0.47991,-0.00068174,-6221.3,0.063282
9123,3.2375,4.5455,0,0.00063745,6370.1,0.00031474,1285.7,0.00014305,-4.2932,-0.00060577,-5630.7,0.059278
9124,3.33,4.5455,0.05,2.1186e-05,211.72,1.6269e-05,122.24,-7.1976e-11,-0.00071447,-1.6268e-05,-122.24,0.062517
9125,3.33,4.2727,0,0.00085725,8566.6,0.00042783,1795.7,0.00019005,9.1163,-0.00081245,-7523.3,0.064705
9126,3.2375,4.3636,0,0.0007411,7405.9,0.00035465,1350.9,0.00017403,-6.1947,-0.00070883,-6639.6,0.060583
9127,3.33,4.3636,0.05,2.0507e-05,204.93,1.5747e-05,118.31,-1.2676e-10,-0.0012121,-1.5747e-05,-118.31,0.06397
9128,3.33,4.0909,0,0.00096676,9660.9,0.00042385,1311.4,0.00025664,55.072,-0.00093736,-8916.2,0.066025
9129,3.2375,4.1818,0,0.00084644,8458.6,0.00037302,1144.5,0.00022074,0.41244,-0.00082114,-7827.9,0.061803
9130,3.33,4.1818,0.05,2.9726e-05,297.06,2.2826e-05,171.51,-1.8198e-10,-0.0017958,-2.2826e-05,-171.51,0.065345
9131,3.33,3.9091,0,0.0010505,10498,0.00039625,640.71,0.00032059,72.237,-0.0010372,-10130,0.067205
9132,3.2375,4,0,0.00092799,9273.5,0.00035136,565.99,0.00028086,36.269,-0.00091661,-8961,0.062906
9133,3.33,4,0.05,2.5505e-05,254.87,1.9585e-05,147.15,1.6521e-11,-0.0005991,-1.9585e-05,-147.15,0.066596
9134,3.33,3.7273,0,0.0010965,10957,0.00038252,258.96,0.00035043,17.81,-0.0010916,-10817,0.068214
9135,3.2375,3.8182,0,0.00099256,9918.7,0.00033705,123.8,0.00032279,16.695,-0.00099012,-9848,0.063871
9136,3.33,3.8182,0.05,3.6269e-05,362.44,2.785e-05,209.25,5.3828e-11,-0.00028431,-2.785e-05,-209.26,0.06769
9137,3.33,3.5455,0,0.0011014,11007,0.00037619,146.57,0.00035535,-9.9753,-0.001099,-10938,0.069026
9138,3.2375,3.6364,0,0.0010223,10216,0.00034083,8.5051,0.00033224,-56.103,-0.0010231,-10239,0.064678
9139,3.33,3.6364,0.05,2.55e-05,254.83,1.9581e-05,147.12,5.2561e-11,-0.00017074,-1.9581e-05,-147.12,0.068603
9140,3.33,3.3636,0,0.0010876,10869,0.00036817,108.85,0.00035323,-3.3935,-0.0010858,-10816,0.069614
9141,3.2375,3.4545,0,0.0010264,10257,0.00034386,6.2817,0.00033056,-93.636,-0.0010278,-10300,0.065303
9142,3.33,3.4545,0.05,1.8729e-05,187.16,1.4382e-05,108.06,4.2054e-11,-0.00011779,-1.4382e-05,-108.06,0.069304
9143,3.33,3.1818,0,0.0010732,10725,0.00036119,83.467,0.0003499,-1.3669,-0.0010718,-10683,0.06997
9144,3.2375,3.2727,0,0.0010202,10195,0.00034235,2.1675,0.00032723,-111.44,-0.001022,-10249,0.065727
9145,3.33,3.2727,0.05,1.3146e-05,131.37,1.0094e-05,75.844,3.0014e-11,-1.161e-05,-1.0094e-05,-75.845,0.069776
9146,3.33,3,0,0.0010677,10670,0.00035865,75.313,0.0003486,-0.16672,-0.0010664,-10632,0.070088
9147,3.2375,3.0909,0,0.0010151,10144,0.00034087,0.48948,0.00032508,-118.15,-0.0010171,-10202,0.065941
9148,3.33,3.0909,0.05,1.0738e-05,107.3,8.2453e-06,61.952,1.8068e-11,1.014e-05,-8.2453e-06,-61.952,0.070013
9149,3.33,2.8182,0,0.0010732,10725,0.00036119,83.468,0.0003499,-1.3669,-0.0010718,-10683,0.06997
9150,3.2375,2.9091,0,0.0010151,10144,0.00034087,0.48949,0.00032508,-118.15,-0.0010171,-10202,0.065941
9151,3.33,2.9091,0.05,1.0738e-05,107.3,8.2454e-06,61.952,-1.082e-11,6.9891e-06,-8.2453e-06,-61.952,0.070013
9152,3.33,2.6364,0,0.0010876,10869,0.00036817,108.85,0.00035323,-3.3934,-0.0010858,-10816,0.069614
9153,3.2375,2.7273,0,0.0010202,10195,0.00034235,2.1675,0.00032723,-111.44,-0.001022,-10249,0.065727
9154,3.33,2.7273,0.05,1.3146e-05,131.37,1.0094e-05,75.845,-2.6456e-11,3.2881e-05,-1.0094e-05,-75.844,0.069776
9155,3.33,2.4545,0,0.0011014,11007,0.00037619,146.57,0.00035535,-9.9752,-0.001099,-10938,0.069026
9156,3.2375,2.5455,0,0.0010264,10257,0.00034386,6.2818,0.00033056,-93.635,-0.0010278,-10300,0.065303
9157,3.33,2.5455,0.05,1.8729e-05,187.16,1.4382e-05,108.06,-3.8493e-11,0.00013041,-1.4382e-05,-108.06,0.069304
9158,3.33,2.2727,0,0.0010965,10957,0.00038252,258.96,0.00035043,17.81,-0.0010916,-10817,0.068214
9159,3.2375,2.3636,0,0.0010223,10216,0.00034083,8.5052,0.00033224,-56.103,-0.0010231,-10239,0.064678
9160,3.33,2.3636,0.05,2.55e-05,254.83,1.9581e-05,147.12,-5.1618e-11,0.000191,-1.9581e-05,-147.12,0.068603
9161,3.33,2.0909,0,0.0010505,10498,0.00039625,640.71,0.00032059,72.237,-0.0010372,-10130,0.067205
9162,3.2375,2.1818,0,0.00099256,9918.7,0.00033705,123.8,0.00032279,16.695,-0.00099012,-9848,0.063871
9163,3.33,2.1818,0.05,3.6269e-05,362.44,2.785e-05,209.26,-5.2766e-11,0.00024728,-2.785e-05,-209.25,0.06769
9164,3.33,1.9091,0,0.00096676,9660.9,0.00042385,1311.4,0.00025664,55.072,-0.00093736,-8916.2,0.066025
9165,3.2375,2,0,0.00092799,9273.5,0.00035136,565.98,0.00028086,36.269,-0.00091661,-8961,0.062906
9166,3.33,2,0.05,2.5505e-05,254.87,1.9585e-05,147.15,-1.0271e-11,0.00050939,-1.9585e-05,-147.15,0.066596
9167,3.33,1.7273,0,0.00085725,8566.5,0.00042783,1795.7,0.00019005,9.1163,-0.00081245,-7523.3,0.064705
9168,3.2375,1.8182,0,0.00084644,8458.6,0.00037302,1144.5,0.00022074,0.41245,-0.00082114,-7827.9,0.061803
9169,3.33,1.8182,0.05,2.9726e-05,297.06,2.2826e-05,171.51,1.8556e-10,0.0018687,-2.2826e-05,-171.51,0.065345
9170,3.33,1.5455,0,0.00072895,7284.5,0.00038473,1791.8,0.00014632,0.4799,-0.00068174,-6221.3,0.063282
9171,3.2375,1.6364,0,0.0007411,7405.8,0.00035465,1350.9,0.00017403,-6.1947,-0.00070883,-6639.6,0.060583
9172,3.33,1.6364,0.05,2.0507e-05,204.93,1.5747e-05,118.31,1.2538e-10,0.0012227,-1.5747e-05,-118.31,0.06397
9173,3.33,1.3636,0,0.00061319,6127.7,0.00032794,1561.5,0.00011982,-2.1976,-0.0005715,-5196.5,0.061804
9174,3.2375,1.4545,0,0.00063745,6370.1,0.00031474,1285.7,0.00014305,-4.2932,-0.00060577,-5630.7,0.059278
9175,3.33,1.4545,0.05,2.1186e-05,211.72,1.6268e-05,122.24,6.9322e-11,0.00071794,-1.6269e-05,-122.24,0.062517
9176,3.33,1.1818,0,0.00051388,5135.2,0.00027095,1258.6,0.00010323,-1.6216,-0.00048076,-4389.4,0.060302
9177,3.2375,1.2727,0,0.00054483,5444.5,0.00026876,1095.7,0.00012244,-3.6779,-0.00051785,-4814.6,0.057919
9178,3.33,1.2727,0.05,1.742e-05,174.08,1.3376e-05,100.5,4.4887e-11,0.0004319,-1.3376e-05,-100.5,0.061026
9179,3.33,1,0,0.00042892,4286.3,0.00021876,954.85,9.1406e-05,-2.036,-0.00040462,-3729,0.058797
9180,3.2375,1.0909,0,0.00046377,4634.5,0.0002234,864.09,0.00010792,-3.5998,-0.000443,-4142.9,0.056529
9181,3.33,1.0909,0.05,1.5465e-05,154.55,1.1875e-05,89.227,2.8642e-11,0.00029964,-1.1875e-05,-89.227,0.059522
9182,3.33,0.81818,0,0.00035576,3555.1,0.00017255,677.55,8.1949e-05,-3.1603,-0.00033936,-3168.7,0.057298
9183,3.2375,0.90909,0,0.00039348,3932.1,0.0001818,634.77,9.6765e-05,-4.1796,-0.00037884,-3577.7,0.055124
9184,3.33,0.90909,0.05,1.3945e-05,139.35,1.0708e-05,80.454,1.6733e-11,0.00016629,-1.0708e-05,-80.454,0.058021
9185,3.33,0.63636,0,0.00029239,2921.8,0.00013235,435.86,7.3618e-05,-5.3912,-0.00028255,-2681.5,0.055808
9186,3.2375,0.72727,0,0.0003327,3324.7,0.00014497,426.04,8.7526e-05,-5.5709,-0.00032344,-3093.4,0.05371
9187,3.33,0.72727,0.05,1.2983e-05,129.74,9.9691e-06,74.904,9.4379e-12,9.6782e-05,-9.9692e-06,-74.904,0.056527
9188,3.33,0.45455,0,0.00023931,2391.5,9.9725e-05,246.66,6.5598e-05,-9.7521,-0.00023425,-2262.7,0.054326
9189,3.2375,0.54545,0,0.00028158,2813.9,0.00011433,254.65,7.927e-05,-8.7514,-0.00027647,-2681.6,0.05229
9190,3.33,0.54545,0.05,1.2515e-05,125.06,9.6099e-06,72.205,4.1267e-12,6.1185e-05,-9.6099e-06,-72.205,0.055043
9191,3.33,0.27273,0,0.00020227,2021.4,8.0145e-05,152.72,5.7646e-05,-16.329,-0.00019942,-1947.8,0.052843
9192,3.2375,0.36364,0,0.00024252,2423.5,9.2707e-05,145.4,7.1593e-05,-13.238,-0.00023988,-2353.5,0.050858
9193,3.33,0.36364,0.05,1.2595e-05,125.87,9.6717e-06,72.67,1.3465e-12,1.5259e-05,-9.6718e-06,-72.67,0.053561
9194,3.2375,0.18182,0,0.0002226,2224.4,8.5594e-05,138.97,6.5341e-05,-13.211,-0.00022007,-2157.7,0.049408
9195,3.33,0.18182,0.05,1.4923e-05,149.13,1.1459e-05,86.1,-2.0392e-13,-6.9408e-06,-1.1459e-05,-86.1,0.052074
9196,3.33,0.090909,0,0.0001721,1719.8,6.1795e-05,59.087,5.3684e-05,-1.8566,-0.00017105,-1690.4,0.051347
9197,3.145,5.7273,0,0.00026383,2636.5,9.9093e-05,138.68,7.9166e-05,-11.033,-0.00026134,-2569.4,0.047461
9198,3.0525,5.8182,0,0.00028634,2861.4,0.0001068,144.14,8.6634e-05,-7.3934,-0.00028371,-2790,0.04413
9199,3.145,5.8182,0.05,1.4078e-05,140.68,1.081e-05,81.224,-3.7474e-13,-8.281e-06,-1.081e-05,-81.224,0.046725
9200,3.145,5.9091,0,0.00024107,2409.1,8.5485e-05,70.796,7.595e-05,-0.85082,-0.0002398,-2373.3,0.04603
9201,3.145,5.5455,0,0.00028802,2878.2,0.00010977,171.88,8.5538e-05,-10.193,-0.00028483,-2793,0.048856
9202,3.0525,5.6364,0,0.00029914,2989.4,0.00010966,126.28,9.1594e-05,-9.4649,-0.00029692,-2928.6,0.045503
9203,3.145,5.6364,0.05,1.1635e-05,116.27,8.9341e-06,67.128,-3.4358e-12,-4.1538e-05,-8.9341e-06,-67.128,0.048137
9204,3.145,5.3636,0,0.00032689,3266.6,0.00013088,274.37,9.3328e-05,-7.8066,-0.00032144,-3124.2,0.050225
9205,3.0525,5.4545,0,0.00032682,3266,0.0001227,173.98,9.8367e-05,-8.8535,-0.00032363,-3179.6,0.046835
9206,3.145,5.4545,0.05,1.1549e-05,115.41,8.8682e-06,66.632,-8.103e-12,-8.7346e-05,-8.8682e-06,-66.632,0.049518
9207,3.145,5.1818,0,0.00037649,3762.3,0.00015892,418.55,0.0001024,-6.1623,-0.00036767,-3538.1,0.051572
9208,3.0525,5.2727,0,0.00036539,3651.3,0.00014267,263.25,0.0001067,-7.0249,-0.00036027,-3515.7,0.048131
9209,3.145,5.2727,0.05,1.1802e-05,117.94,9.0628e-06,68.095,-1.3831e-11,-0.0001511,-9.0628e-06,-68.095,0.050875
9210,3.145,5,0,0.0004352,4349,0.0001916,582.75,0.0001133,-5.5971,-0.00042239,-4030.5,0.052898
9211,3.0525,5.0909,0,0.00041299,4127,0.00016763,376.88,0.00011668,-5.9136,-0.00040534,-3928.2,0.049395
9212,3.145,5.0909,0.05,1.2267e-05,122.59,9.4198e-06,70.777,-2.2896e-11,-0.00022861,-9.4198e-06,-70.777,0.052211
9213,3.145,4.8182,0,0.00050234,5020,0.00022672,742.59,0.00012713,-5.6609,-0.00048561,-4609.5,0.054197
9214,3.0525,4.9091,0,0.00046845,4681.3,0.00019554,494.72,0.00012895,-5.5995,-0.00045812,-4416.6,0.050622
9215,3.145,4.9091,0.05,1.2884e-05,128.75,9.893e-06,74.332,-3.1807e-11,-0.00033974,-9.893e-06,-74.332,0.053523
9216,3.145,4.6364,0,0.00057727,5768.7,0.00026122,862.41,0.00014566,-5.8723,-0.00055777,-5291.2,0.05546
9217,3.0525,4.7273,0,0.00053079,5304.2,0.00022392,590.04,0.00014462,-5.8245,-0.00051833,-4986.9,0.051807
9218,3.145,4.7273,0.05,1.3462e-05,134.53,1.0337e-05,77.672,-4.9819e-11,-0.00050636,-1.0337e-05,-77.672,0.054804
9219,3.145,4.4545,0,0.00065662,6561.6,0.00028914,878.52,0.00017074,-11.139,-0.00063732,-6082.5,0.056669
9220,3.0525,4.5455,0,0.0005986,5981.9,0.0002493,625.54,0.00016519,-6.4184,-0.00058556,-5647.2,0.052937
9221,3.145,4.5455,0.05,1.3354e-05,133.45,1.0254e-05,77.047,-8.3889e-11,-0.00078781,-1.0254e-05,-77.047,0.056041
9222,3.145,4.2727,0,0.00073456,7340.5,0.00030207,716.59,0.00020483,-14.05,-0.00071987,-6961.9,0.057802
9223,3.0525,4.3636,0,0.00066753,6670.7,0.00026566,543.02,0.00019185,-11.523,-0.00065676,-6387.6,0.053997
9224,3.145,4.3636,0.05,1.3221e-05,132.12,1.0152e-05,76.278,-1.2692e-10,-0.0012708,-1.0152e-05,-76.278,0.057213
9225,3.145,4.0909,0,0.00080637,8058.1,0.0002995,391.37,0.00024485,-19.178,-0.00079925,-7864.2,0.058836
9226,3.0525,4.1818,0,0.00073285,7323.4,0.000268,307.22,0.00022532,-13.461,-0.00072733,-7171.3,0.054969
9227,3.145,4.1818,0.05,1.2979e-05,129.7,9.9664e-06,74.883,-1.3129e-10,-0.0012233,-9.9663e-06,-74.883,0.058297
9228,3.145,3.9091,0,0.00086756,8669.6,0.00029231,50.228,0.00028071,-36.876,-0.0008673,-8662.6,0.059752
9229,3.0525,4,0,0.00079139,7908.4,0.00026704,31.589,0.00025408,-65.817,-0.00079192,-7925.1,0.055838
9230,3.145,4,0.05,1.5964e-05,159.53,1.2258e-05,92.104,-3.8365e-11,-0.00068709,-1.2258e-05,-92.105,0.059271
9231,3.145,3.7273,0,0.00091504,9144.1,0.00031216,-0.40859,0.00028456,-207.79,-0.0009184,-9246.4,0.060536
9232,3.0525,3.8182,0,0.00084065,8400.7,0.00029218,0.011654,0.00025215,-300.81,-0.00084537,-8547.1,0.056594
9233,3.145,3.8182,0.05,1.7334e-05,173.22,1.3311e-05,100.01,5.823e-12,-0.00036648,-1.3311e-05,-100.01,0.060122
9234,3.145,3.5455,0,0.00094441,9437.6,0.0003267,4.8567,0.00028641,-297.87,-0.00094903,-9580.5,0.061172
9235,3.0525,3.6364,0,0.0008781,8774.9,0.00031137,4.6717,0.00025305,-433.54,-0.00088457,-8981.2,0.057224
9236,3.145,3.6364,0.05,1.7641e-05,176.29,1.3546e-05,101.78,4.4158e-11,-5.4449e-05,-1.3546e-05,-101.78,0.060833
9237,3.145,3.3636,0,0.00095689,9562.3,0.00033161,1.5314,0.00028884,-319.78,-0.0009619,-9717.4,0.06164
9238,3.0525,3.4545,0,0.00089955,8989.3,0.00032033,1.4769,0.00025653,-477.84,-0.00090669,-9217.9,0.057713
9239,3.145,3.4545,0.05,1.4934e-05,149.23,1.1467e-05,86.159,4.2991e-11,2.521e-06,-1.1467e-05,-86.16,0.061385
9240,3.145,3.1818,0,0.00096047,9598,0.00033294,1.1872,0.00028974,-323.41,-0.00096554,-9755,0.061925
9241,3.0525,3.2727,0,0.00090941,9087.8,0.00032413,1.3865,0.00025882,-489.3,-0.00091671,-9321.8,0.058049
9242,3.145,3.2727,0.05,1.2687e-05,126.78,9.742e-06,73.197,2.9555e-11,3.203e-05,-9.742e-06,-73.198,0.061763
9243,3.145,3,0,0.00096098,9603.2,0.00033309,0.87608,0.0002899,-323.62,-0.00096606,-9760.4,0.062021
9244,3.0525,3.0909,0,0.00091284,9122.1,0.00032533,1.0211,0.0002598,-491.39,-0.00092018,-9357.3,0.058219
9245,3.145,3.0909,0.05,1.136e-05,113.52,8.7229e-06,65.54,1.9107e-11,2.2719e-05,-8.7229e-06,-65.541,0.061954
9246,3.145,2.8182,0,0.00096047,9598,0.00033294,1.1872,0.00028974,-323.41,-0.00096554,-9755,0.061925
9247,3.0525,2.9091,0,0.00091284,9122.1,0.00032533,1.0211,0.0002598,-491.39,-0.00092018,-9357.3,0.058219
9248,3.145,2.9091,0.05,1.136e-05,113.52,8.7229e-06,65.541,-1.549e-11,-1.5256e-05,-8.7229e-06,-65.54,0.061954
9249,3.145,2.6364,0,0.00095689,9562.3,0.00033161,1.5314,0.00028884,-319.78,-0.0009619,-9717.4,0.06164
9250,3.0525,2.7273,0,0.00090941,9087.8,0.00032413,1.3865,0.00025882,-489.3,-0.00091671,-9321.8,0.058049
9251,3.145,2.7273,0.05,1.2687e-05,126.78,9.742e-06,73.198,-2.9555e-11,-2.3639e-05,-9.742e-06,-73.197,0.061763
9252,3.145,2.4545,0,0.00094441,9437.6,0.0003267,4.8567,0.00028641,-297.87,-0.00094903,-9580.5,0.061172
9253,3.0525,2.5455,0,0.00089955,8989.3,0.00032033,1.4769,0.00025653,-477.84,-0.00090669,-9217.9,0.057713
9254,3.145,2.5455,0.05,1.4934e-05,149.23,1.1467e-05,86.16,-4.2991e-11,1.2953e-06,-1.1467e-05,-86.159,0.061385
9255,3.145,2.2727,0,0.00091504,9144.1,0.00031216,-0.40859,0.00028456,-207.79,-0.0009184,-9246.4,0.060536
9256,3.0525,2.3636,0,0.0008781,8774.9,0.00031137,4.6717,0.00025305,-433.54,-0.00088457,-8981.2,0.057224
9257,3.145,2.3636,0.05,1.7641e-05,176.29,1.3546e-05,101.78,-4.8227e-11,5.3522e-05,-1.3546e-05,-101.78,0.060833
9258,3.145,2.0909,0,0.00086756,8669.6,0.00029231,50.228,0.00028071,-36.876,-0.0008673,-8662.6,0.059752
9259,3.0525,2.1818,0,0.00084065,8400.7,0.00029218,0.011647,0.00025215,-300.82,-0.00084537,-8547.1,0.056594
9260,3.145,2.1818,0.05,1.7334e-05,173.22,1.3311e-05,100.01,-1.3418e-11,0.00039893,-1.3311e-05,-100.01,0.060122
9261,3.145,1.9091,0,0.00080637,8058.1,0.0002995,391.37,0.00024485,-19.179,-0.00079925,-7864.2,0.058836
9262,3.0525,2,0,0.00079139,7908.4,0.00026704,31.589,0.00025408,-65.817,-0.00079192,-7925.1,0.055838
9263,3.145,2,0.05,1.5964e-05,159.53,1.2258e-05,92.105,3.4201e-11,0.00062448,-1.2258e-05,-92.104,0.059271
9264,3.145,1.7273,0,0.00073456,7340.5,0.00030207,716.59,0.00020483,-14.05,-0.00071987,-6961.9,0.057802
9265,3.0525,1.8182,0,0.00073285,7323.4,0.000268,307.22,0.00022532,-13.461,-0.00072732,-7171.3,0.054969
9266,3.145,1.8182,0.05,1.2979e-05,129.7,9.9663e-06,74.883,1.3131e-10,0.0012844,-9.9664e-06,-74.883,0.058297
9267,3.145,1.5455,0,0.00065662,6561.6,0.00028914,878.52,0.00017074,-11.139,-0.00063732,-6082.5,0.056669
9268,3.0525,1.6364,0,0.00066753,6670.7,0.00026566,543.02,0.00019185,-11.523,-0.00065676,-6387.6,0.053997
9269,3.145,1.6364,0.05,1.3221e-05,132.12,1.0152e-05,76.278,1.2328e-10,0.0013056,-1.0152e-05,-76.278,0.057213
9270,3.145,1.3636,0,0.00057727,5768.7,0.00026122,862.41,0.00014566,-5.8723,-0.00055777,-5291.2,0.05546
9271,3.0525,1.4545,0,0.0005986,5981.9,0.0002493,625.54,0.00016519,-6.4184,-0.00058556,-5647.2,0.052937
9272,3.145,1.4545,0.05,1.3354e-05,133.45,1.0254e-05,77.047,8.2816e-11,0.0007907,-1.0254e-05,-77.047,0.056041
9273,3.145,1.1818,0,0.00050234,5020,0.00022672,742.59,0.00012713,-5.6609,-0.00048561,-4609.5,0.054197
9274,3.0525,1.2727,0,0.00053079,5304.2,0.00022392,590.04,0.00014462,-5.8245,-0.00051833,-4986.9,0.051807
9275,3.145,1.2727,0.05,1.3462e-05,134.53,1.0337e-05,77.672,5.018e-11,0.00053965,-1.0337e-05,-77.672,0.054804
9276,3.145,1,0,0.0004352,4349,0.0001916,582.75,0.0001133,-5.5971,-0.00042239,-4030.5,0.052898
9277,3.0525,1.0909,0,0.00046845,4681.3,0.00019554,494.72,0.00012895,-5.5995,-0.00045812,-4416.6,0.050622
9278,3.145,1.0909,0.05,1.2884e-05,128.75,9.893e-06,74.332,3.3495e-11,0.0003596,-9.893e-06,-74.332,0.053523
9279,3.145,0.81818,0,0.00037649,3762.3,0.00015892,418.55,0.0001024,-6.1623,-0.00036767,-3538.1,0.051572
9280,3.0525,0.90909,0,0.00041299,4127,0.00016763,376.88,0.00011668,-5.9136,-0.00040534,-3928.2,0.049395
9281,3.145,0.90909,0.05,1.2267e-05,122.59,9.4198e-06,70.777,2.2831e-11,0.00023067,-9.4198e-06,-70.777,0.052211
9282,3.145,0.63636,0,0.00032689,3266.6,0.00013088,274.37,9.3328e-05,-7.8066,-0.00032144,-3124.2,0.050225
9283,3.0525,0.72727,0,0.00036539,3651.3,0.00014267,263.25,0.0001067,-7.0249,-0.00036027,-3515.7,0.048131
9284,3.145,0.72727,0.05,1.1802e-05,117.94,9.0628e-06,68.095,1.5392e-11,0.00014355,-9.0629e-06,-68.095,0.050875
9285,3.145,0.45455,0,0.00028802,2878.2,0.00010977,171.88,8.5538e-05,-10.193,-0.00028483,-2793,0.048856
9286,3.0525,0.54545,0,0.00032682,3266,0.0001227,173.98,9.8367e-05,-8.8535,-0.00032363,-3179.6,0.046835
9287,3.145,0.54545,0.05,1.1549e-05,115.41,8.8682e-06,66.632,7.1334e-12,7.3725e-05,-8.8682e-06,-66.632,0.049518
9288,3.145,0.27273,0,0.00026383,2636.5,9.9093e-05,138.68,7.9166e-05,-11.033,-0.00026134,-2569.4,0.047461
9289,3.0525,0.36364,0,0.00029914,2989.4,0.00010966,126.28,9.1594e-05,-9.4649,-0.00029692,-2928.6,0.045503
9290,3.145,0.36364,0.05,1.1635e-05,116.27,8.9341e-06,67.128,4.6711e-12,3.5979e-05,-8.9341e-06,-67.128,0.048137
9291,3.0525,0.18182,0,0.00028634,2861.4,0.0001068,144.14,8.6634e-05,-7.3934,-0.00028371,-2790,0.04413
9292,3.145,0.18182,0.05,1.4078e-05,140.68,1.081e-05,81.224,-2.293e-21,7.3609e-06,-1.081e-05,-81.224,0.046725
9293,3.145,0.090909,0,0.00024107,2409.1,8.5485e-05,70.796,7.595e-05,-0.85082,-0.0002398,-2373.3,0.04603
9294,2.96,5.7273,0,0.000322,3217.8,0.00011774,134.51,9.8989e-05,-6.3762,-0.00031959,-3151.4,0.042226
9295,2.8675,5.8182,0,0.00034315,3429.1,0.00012534,143.25,0.00010571,-4.2645,-0.00034055,-3357.3,0.039023
9296,2.96,5.8182,0.05,1.3099e-05,130.9,1.0058e-05,75.572,-2.5876e-12,-1.0653e-05,-1.0058e-05,-75.572,0.041525
9297,2.96,5.9091,0,0.00030306,3028.5,0.00010647,77.808,9.6156e-05,0.30745,-0.00030165,-2988.7,0.040865
9298,2.96,5.5455,0,0.00033922,3389.9,0.00012364,136.23,0.00010447,-7.7749,-0.00033681,-3323.4,0.043534
9299,2.8675,5.6364,0,0.00035229,3520.5,0.00012611,114.67,0.00010998,-6.4731,-0.00035029,-3464.8,0.040318
9300,2.96,5.6364,0.05,1.0469e-05,104.62,8.0392e-06,60.403,-3.4837e-12,-5.9745e-05,-8.0392e-06,-60.403,0.042859
9301,2.96,5.3636,0,0.00036787,3676.2,0.00013656,178.42,0.00011181,-7.5257,-0.00036461,-3587.2,0.044794
9302,2.8675,5.4545,0,0.00037256,3723.1,0.00013364,123.81,0.00011607,-8.1671,-0.00037042,-3663.5,0.041554
9303,2.96,5.4545,0.05,1.0354e-05,103.47,7.9506e-06,59.738,-1.0014e-11,-0.00010023,-7.9506e-06,-59.738,0.044143
9304,2.96,5.1818,0,0.00040547,4051.9,0.00015427,243.34,0.00012101,-6.6281,-0.00040086,-3927.7,0.04601
9305,2.8675,5.2727,0,0.00040129,4010.2,0.00014552,152.79,0.0001241,-8.1292,-0.00039859,-3935.4,0.042736
9306,2.96,5.2727,0.05,1.0431e-05,104.24,8.01e-06,60.184,-1.5866e-11,-0.00016908,-8.01e-06,-60.184,0.04538
9307,2.96,5,0,0.00045053,4502.2,0.00017496,314.29,0.00013232,-6.0848,-0.00044443,-4339.6,0.047181
9308,2.8675,5.0909,0,0.00043731,4370,0.00016054,191.03,0.00013409,-7.743,-0.00043385,-4275,0.043864
9309,2.96,5.0909,0.05,1.053e-05,105.23,8.0857e-06,60.753,-2.6038e-11,-0.00028287,-8.0857e-06,-60.753,0.046573
9310,2.96,4.8182,0,0.00050156,5012.1,0.00019629,368.8,0.00014638,-6.1756,-0.00049433,-4820.3,0.048304
9311,2.8675,4.9091,0,0.00047931,4789.8,0.00017704,222.84,0.00014635,-7.7357,-0.00047524,-4678.1,0.044938
9312,2.96,4.9091,0.05,1.0557e-05,105.49,8.1062e-06,60.907,-3.6651e-11,-0.00038417,-8.1062e-06,-60.907,0.04772
9313,2.96,4.6364,0,0.00055662,5562.4,0.00021529,377.92,0.00016404,-7.1302,-0.00054931,-5367,0.04937
9314,2.8675,4.7273,0,0.00052576,5254,0.00019279,227.24,0.00016138,-8.7488,-0.00052164,-5140.7,0.045952
9315,2.96,4.7273,0.05,1.0355e-05,103.47,7.9511e-06,59.741,-5.4105e-11,-0.00060745,-7.9511e-06,-59.741,0.048814
9316,2.96,4.4545,0,0.00061311,6126.9,0.0002284,309.5,0.00018609,-8.4346,-0.00060737,-5970.1,0.050369
9317,2.8675,4.5455,0,0.00057461,5742.1,0.00020522,180.27,0.00017958,-12.357,-0.00057151,-5655.7,0.0469
9318,2.96,4.5455,0.05,9.8869e-06,98.8,7.5919e-06,57.042,-8.5898e-11,-0.00085849,-7.5918e-06,-57.042,0.049847
9319,2.96,4.2727,0,0.00066773,6672.7,0.00023355,148.4,0.00021151,-17.186,-0.00066534,-6605.5,0.051287
9320,2.8675,4.3636,0,0.00062332,6228.9,0.00021329,72.72,0.00019948,-31.077,-0.00062255,-6207.5,0.047771
9321,2.96,4.3636,0.05,9.3197e-06,93.132,7.1564e-06,53.77,-1.277e-10,-0.0011719,-7.1563e-06,-53.77,0.050805
9322,2.96,4.0909,0,0.00071841,7179.2,0.00024501,18.522,0.00022528,-129.73,-0.00072019,-7233.6,0.052112
9323,2.8675,4.1818,0,0.00066928,6688.2,0.00023046,12.105,0.0002056,-174.72,-0.00067185,-6767.5,0.048559
9324,2.96,4.1818,0.05,9.3293e-06,93.229,7.1638e-06,53.826,-1.2668e-10,-0.0011895,-7.1637e-06,-53.826,0.051677
9325,2.96,3.9091,0,0.00076413,7636,0.00027048,8.1351,0.00022142,-360.53,-0.00076946,-7805.6,0.052837
9326,2.8675,4,0,0.00071171,7112.2,0.00025489,5.7344,0.00020084,-400.35,-0.00071755,-7300.8,0.049254
9327,2.96,4,0.05,1.024e-05,102.33,7.8634e-06,59.082,-6.6811e-11,-0.00082854,-7.8634e-06,-59.082,0.052451
9328,2.96,3.7273,0,0.0008027,8021.4,0.00029125,4.0283,0.0002196,-534.33,-0.00081036,-8273,0.053453
9329,2.8675,3.8182,0,0.00074956,7490.5,0.00027656,3.8052,0.00019684,-595.18,-0.00075782,-7768.2,0.049853
9330,2.96,3.8182,0.05,1.1167e-05,111.59,8.5746e-06,64.426,-6.2571e-12,-0.00037604,-8.5746e-06,-64.427,0.053121
9331,2.96,3.5455,0,0.00083178,8312.1,0.00030502,1.4914,0.00022154,-625.78,-0.00084062,-8606.5,0.05395
9332,2.8675,3.6364,0,0.00078077,7802.3,0.0002925,1.3546,0.00019678,-717.91,-0.00079046,-8135.6,0.050348
9333,2.96,3.6364,0.05,1.1645e-05,116.37,8.9422e-06,67.188,2.2282e-11,-0.00015142,-8.9422e-06,-67.189,0.053678
9334,2.96,3.3636,0,0.00085058,8499.9,0.00031287,1.5105,0.00022483,-660.01,-0.00085984,-8809.8,0.054316
9335,2.8675,3.4545,0,0.00080347,8029.2,0.00030277,1.4347,0.0001993,-776.02,-0.00081382,-8388.2,0.050731
9336,2.96,3.4545,0.05,1.1373e-05,113.65,8.7332e-06,65.617,2.7624e-11,-2.0256e-05,-8.7332e-06,-65.618,0.05411
9337,2.96,3.1818,0,0.00086038,8597.8,0.00031653,1.2602,0.0002273,-669.21,-0.00086977,-8912.2,0.054541
9338,2.8675,3.2727,0,0.00081732,8167.6,0.00030837,1.2237,0.00020201,-797.97,-0.00082794,-8536.6,0.050993
9339,2.96,3.2727,0.05,1.073e-05,107.22,8.2391e-06,61.905,2.0431e-11,1.8732e-05,-8.2391e-06,-61.906,0.054406
9340,2.96,3,0,0.00086334,8627.4,0.00031757,1.1506,0.00022815,-670.74,-0.00087276,-8942.6,0.054616
9341,2.8675,3.0909,0,0.00082367,8231,0.00031078,1.115,0.00020355,-804.62,-0.00083437,-8603.1,0.051126
9342,2.96,3.0909,0.05,1.0263e-05,102.56,7.8808e-06,59.213,9.0829e-12,1.6755e-05,-7.8808e-06,-59.214,0.054556
9343,2.96,2.8182,0,0.00086038,8597.8,0.00031653,1.2602,0.0002273,-669.21,-0.00086977,-8912.2,0.054541
9344,2.8675,2.9091,0,0.00082367,8231,0.00031078,1.115,0.00020355,-804.62,-0.00083437,-8603.1,0.051126
9345,2.96,2.9091,0.05,1.0263e-05,102.56,7.8808e-06,59.214,-9.0897e-12,-1.4974e-06,-7.8808e-06,-59.213,0.054556
9346,2.96,2.6364,0,0.00085058,8499.9,0.00031287,1.5105,0.00022483,-660.01,-0.00085984,-8809.8,0.054316
9347,2.8675,2.7273,0,0.00081732,8167.6,0.00030837,1.2237,0.00020201,-797.97,-0.00082794,-8536.6,0.050993
9348,2.96,2.7273,0.05,1.073e-05,107.22,8.2391e-06,61.906,-2.2247e-11,-1.0212e-05,-8.2391e-06,-61.905,0.054406
9349,2.96,2.4545,0,0.00083178,8312.1,0.00030502,1.4914,0.00022154,-625.78,-0.00084062,-8606.5,0.05395
9350,2.8675,2.5455,0,0.00080347,8029.2,0.00030277,1.4347,0.0001993,-776.02,-0.00081382,-8388.2,0.050731
9351,2.96,2.5455,0.05,1.1373e-05,113.65,8.7332e-06,65.618,-2.8811e-11,2.237e-05,-8.7332e-06,-65.617,0.05411
9352,2.96,2.2727,0,0.0008027,8021.4,0.00029125,4.0283,0.0002196,-534.33,-0.00081036,-8273,0.053453
9353,2.8675,2.3636,0,0.00078077,7802.3,0.0002925,1.3546,0.00019678,-717.91,-0.00079046,-8135.6,0.050348
9354,2.96,2.3636,0.05,1.1645e-05,116.37,8.9422e-06,67.189,-2.1207e-11,0.00015421,-8.9422e-06,-67.188,0.053678
9355,2.96,2.0909,0,0.00076413,7636,0.00027048,8.1351,0.00022142,-360.53,-0.00076946,-7805.6,0.052837
9356,2.8675,2.1818,0,0.00074956,7490.5,0.00027656,3.8052,0.00019684,-595.18,-0.00075782,-7768.2,0.049853
9357,2.96,2.1818,0.05,1.1167e-05,111.59,8.5746e-06,64.427,2.7033e-12,0.00037604,-8.5746e-06,-64.426,0.053121
9358,2.96,1.9091,0,0.00071841,7179.2,0.00024501,18.522,0.00022528,-129.73,-0.00072019,-7233.6,0.052112
9359,2.8675,2,0,0.00071171,7112.1,0.00025489,5.7344,0.00020084,-400.35,-0.00071755,-7300.8,0.049254
9360,2.96,2,0.05,1.024e-05,102.33,7.8634e-06,59.083,6.7754e-11,0.00086235,-7.8634e-06,-59.082,0.052451
9361,2.96,1.7273,0,0.00066773,6672.7,0.00023355,148.4,0.00021151,-17.186,-0.00066534,-6605.5,0.051287
9362,2.8675,1.8182,0,0.00066928,6688.2,0.00023046,12.105,0.0002056,-174.72,-0.00067185,-6767.5,0.048559
9363,2.96,1.8182,0.05,9.3293e-06,93.229,7.1637e-06,53.826,1.1214e-10,0.0012496,-7.1638e-06,-53.826,0.051677
9364,2.96,1.5455,0,0.00061311,6126.9,0.0002284,309.5,0.00018609,-8.4346,-0.00060737,-5970.1,0.050369
9365,2.8675,1.6364,0,0.00062332,6228.9,0.00021329,72.719,0.00019948,-31.077,-0.00062255,-6207.4,0.047771
9366,2.96,1.6364,0.05,9.3197e-06,93.132,7.1563e-06,53.77,1.277e-10,0.0011735,-7.1564e-06,-53.77,0.050805
9367,2.96,1.3636,0,0.00055662,5562.4,0.00021529,377.92,0.00016404,-7.1302,-0.00054931,-5366.9,0.04937
9368,2.8675,1.4545,0,0.00057461,5742.1,0.00020522,180.27,0.00017958,-12.358,-0.00057151,-5655.7,0.0469
9369,2.96,1.4545,0.05,9.8869e-06,98.8,7.5919e-06,57.042,8.7946e-11,0.00083254,-7.5919e-06,-57.042,0.049847
9370,2.96,1.1818,0,0.00050156,5012.1,0.00019629,368.8,0.00014638,-6.1756,-0.00049433,-4820.3,0.048304
9371,2.8675,1.2727,0,0.00052576,5254,0.00019279,227.24,0.00016138,-8.7488,-0.00052164,-5140.7,0.045952
9372,2.96,1.2727,0.05,1.0355e-05,103.47,7.9511e-06,59.741,5.3279e-11,0.00057096,-7.9511e-06,-59.741,0.048814
9373,2.96,1,0,0.00045053,4502.2,0.00017496,314.29,0.00013232,-6.0848,-0.00044443,-4339.6,0.047181
9374,2.8675,1.0909,0,0.00047931,4789.8,0.00017704,222.84,0.00014635,-7.7357,-0.00047524,-4678.1,0.044938
9375,2.96,1.0909,0.05,1.0557e-05,105.49,8.1062e-06,60.907,4.1251e-11,0.00041317,-8.1062e-06,-60.907,0.04772
9376,2.96,0.81818,0,0.00040547,4051.9,0.00015427,243.34,0.00012101,-6.6281,-0.00040086,-3927.7,0.04601
9377,2.8675,0.90909,0,0.00043731,4370,0.00016054,191.03,0.00013409,-7.743,-0.00043385,-4275,0.043864
9378,2.96,0.90909,0.05,1.053e-05,105.23,8.0857e-06,60.753,2.7881e-11,0.00026081,-8.0857e-06,-60.753,0.046573
9379,2.96,0.63636,0,0.00036787,3676.2,0.00013656,178.42,0.00011181,-7.5257,-0.00036461,-3587.2,0.044794
9380,2.8675,0.72727,0,0.00040129,4010.2,0.00014552,152.79,0.0001241,-8.1292,-0.00039859,-3935.4,0.042736
9381,2.96,0.72727,0.05,1.0431e-05,104.24,8.01e-06,60.184,1.8416e-11,0.00017257,-8.01e-06,-60.184,0.04538
9382,2.96,0.45455,0,0.00033922,3389.9,0.00012364,136.23,0.00010447,-7.7749,-0.00033681,-3323.4,0.043534
9383,2.8675,0.54545,0,0.00037256,3723.1,0.00013364,123.81,0.00011607,-8.1671,-0.00037042,-3663.5,0.041554
9384,2.96,0.54545,0.05,1.0354e-05,103.47,7.9506e-06,59.738,1.0432e-11,0.00011299,-7.9506e-06,-59.738,0.044143
9385,2.96,0.27273,0,0.000322,3217.8,0.00011774,134.51,9.8989e-05,-6.3762,-0.00031959,-3151.4,0.042226
9386,2.8675,0.36364,0,0.00035229,3520.5,0.00012611,114.67,0.00010998,-6.4731,-0.00035029,-3464.8,0.040318
9387,2.96,0.36364,0.05,1.0469e-05,104.62,8.0392e-06,60.403,6.065e-12,5.6298e-05,-8.0392e-06,-60.403,0.042859
9388,2.8675,0.18182,0,0.00034315,3429.1,0.00012534,143.25,0.00010571,-4.2645,-0.00034055,-3357.3,0.039023
9389,2.96,0.18182,0.05,1.3099e-05,130.9,1.0058e-05,75.572,5.3969e-13,1.7199e-05,-1.0058e-05,-75.572,0.041525
9390,2.96,0.090909,0,0.00030306,3028.5,0.00010647,77.808,9.6156e-05,0.30745,-0.00030165,-2988.7,0.040865
9391,2.775,5.7273,0,0.00037364,3733.8,0.0001339,124.85,0.00011669,-4.4884,-0.00037142,-3671.9,0.037185
9392,2.6825,5.8182,0,0.00039265,3923.8,0.00014097,135.33,0.00012256,-2.9915,-0.00039022,-3855.8,0.034131
9393,2.775,5.8182,0.05,1.2018e-05,120.1,9.2283e-06,69.338,-1.0478e-13,-1.9062e-05,-9.2283e-06,-69.338,0.036519
9394,2.775,5.9091,0,0.00035759,3573.5,0.00012449,78.133,0.00011415,0.37346,-0.00035619,-3533.6,0.035894
9395,2.775,5.5455,0,0.00038621,3859.4,0.0001366,105.97,0.00012159,-6.8535,-0.0003844,-3808.6,0.038407
9396,2.6825,5.6364,0,0.00039908,3988.1,0.00014009,97.674,0.00012638,-5.2824,-0.00039741,-3940.9,0.035348
9397,2.775,5.6364,0.05,9.2535e-06,92.471,7.1056e-06,53.388,-5.5315e-12,-6.8054e-05,-7.1056e-06,-53.388,0.037776
9398,2.775,5.3636,0,0.00040729,4070.1,0.00014371,106.58,0.00012834,-8.8762,-0.00040551,-4020,0.039565
9399,2.6825,5.4545,0,0.00041389,4136.1,0.00014367,79.787,0.00013185,-9.0297,-0.00041262,-4100,0.036493
9400,2.775,5.4545,0.05,9.0961e-06,90.898,6.9846e-06,52.48,-1.008e-11,-0.00012557,-6.9846e-06,-52.48,0.038965
9401,2.775,5.1818,0,0.00043512,4348.2,0.00015354,113.68,0.00013707,-10.079,-0.00043322,-4295,0.040662
9402,2.6825,5.2727,0,0.00043489,4345.9,0.0001498,67.598,0.00013904,-13.275,-0.00043391,-4318.2,0.037569
9403,2.775,5.2727,0.05,9.0611e-06,90.548,6.9578e-06,52.278,-1.8562e-11,-0.00019511,-6.9578e-06,-52.278,0.040092
9404,2.775,5,0,0.00046856,4682.3,0.00016489,116.56,0.00014785,-11.453,-0.00046664,-4628.4,0.041698
9405,2.6825,5.0909,0,0.00046132,4610,0.00015779,55.337,0.00014788,-19.098,-0.00046066,-4591.4,0.038577
9406,2.775,5.0909,0.05,8.9619e-06,89.558,6.8817e-06,51.706,-2.6068e-11,-0.00030391,-6.8816e-06,-51.706,0.041158
9407,2.775,4.8182,0,0.00050618,5058.3,0.00017621,101.32,0.00016074,-14.87,-0.0005046,-5014,0.042672
9408,2.6825,4.9091,0,0.0004921,4917.6,0.0001671,37.648,0.00015786,-31.826,-0.00049197,-4914.3,0.039519
9409,2.775,4.9091,0.05,8.7338e-06,87.278,6.7065e-06,50.39,-4.4174e-11,-0.0004406,-6.7065e-06,-50.39,0.042163
9410,2.775,4.6364,0,0.00054623,5458.5,0.00018648,57.839,0.000175,-28.414,-0.00054568,-5443.3,0.043577
9411,2.6825,4.7273,0,0.00052587,5255.1,0.00017855,18.986,0.00016677,-69.571,-0.00052667,-5279.8,0.040392
9412,2.775,4.7273,0.05,8.3353e-06,83.296,6.4005e-06,48.091,-6.1423e-11,-0.0006061,-6.4005e-06,-48.091,0.043102
9413,2.775,4.4545,0,0.00058675,5863.4,0.0001999,17.102,0.00018453,-98.406,-0.00058805,-5903.2,0.04441
9414,2.6825,4.5455,0,0.000561,5606.2,0.00019354,9.0439,0.00017162,-155.63,-0.00056332,-5677.6,0.041192
9415,2.775,4.5455,0.05,7.791e-06,77.856,5.9826e-06,44.95,-8.47e-11,-0.00085159,-5.9825e-06,-44.95,0.043971
9416,2.775,4.2727,0,0.00062606,6256.3,0.00021949,6.2372,0.00018506,-252.47,-0.00062985,-6375.4,0.045163
9417,2.6825,4.3636,0,0.00059584,5954.3,0.0002114,4.7257,0.00017165,-293.95,-0.0006002,-6093.3,0.041916
9418,2.775,4.3636,0.05,7.3314e-06,73.264,5.6297e-06,42.299,-1.1264e-10,-0.0010818,-5.6296e-06,-42.299,0.044763
9419,2.775,4.0909,0,0.00066312,6626.6,0.0002408,2.8179,0.000181,-446.51,-0.00066952,-6837,0.045832
9420,2.6825,4.1818,0,0.00062925,6288.1,0.0002308,2.8827,0.00016768,-471.32,-0.00063587,-6508.9,0.042561
9421,2.775,4.1818,0.05,7.2499e-06,72.449,5.567e-06,41.828,-1.0525e-10,-0.0010717,-5.567e-06,-41.828,0.045474
9422,2.775,3.9091,0,0.00069722,6967.4,0.00026093,1.096,0.00017622,-635.37,-0.00070583,-7262.7,0.046412
9423,2.6825,4,0,0.00066052,6600.6,0.00024991,1.5669,0.00016204,-658.63,-0.00066921,-6904.4,0.043124
9424,2.775,4,0.05,7.485e-06,74.799,5.7476e-06,43.185,-7.3597e-11,-0.00089709,-5.7475e-06,-43.185,0.046097
9425,2.775,3.7273,0,0.00072733,7268.3,0.0002778,0.95157,0.00017357,-782.14,-0.00073745,-7627.2,0.046901
9426,2.6825,3.8182,0,0.00068908,6886.1,0.0002669,0.94929,0.00015757,-820.52,-0.00069934,-7259,0.043602
9427,2.775,3.8182,0.05,7.8672e-06,78.618,6.041e-06,45.39,-3.4643e-11,-0.00051253,-6.041e-06,-45.39,0.046631
9428,2.775,3.5455,0,0.00075181,7512.9,0.00029025,1.256,0.0001737,-874.39,-0.00076282,-7911.1,0.047291
9429,2.6825,3.6364,0,0.00071373,7132.3,0.00028043,1.091,0.00015579,-935.43,-0.00072499,-7553.2,0.043994
9430,2.775,3.6364,0.05,8.2531e-06,82.474,6.3373e-06,47.616,-2.2079e-12,-0.00024584,-6.3374e-06,-47.617,0.04707
9431,2.775,3.3636,0,0.00076935,7688.2,0.00029828,1.1588,0.00017541,-922.02,-0.00078084,-8106.9,0.047577
9432,2.6825,3.4545,0,0.00073293,7324.3,0.00028995,1.0167,0.00015624,-1003.6,-0.0007448,-7773.7,0.044295
9433,2.775,3.4545,0.05,8.4873e-06,84.815,6.5172e-06,48.968,1.0205e-11,-7.5898e-05,-6.5172e-06,-48.968,0.047408
9434,2.775,3.1818,0,0.00077966,7791.2,0.00030263,1.0863,0.00017709,-942.15,-0.00079137,-8218.8,0.047752
9435,2.6825,3.2727,0,0.0007458,7452.9,0.00029581,0.96487,0.00015754,-1037.9,-0.00075799,-7916.9,0.0445
9436,2.775,3.2727,0.05,8.5043e-06,84.984,6.5302e-06,49.065,9.8779e-12,-2.8389e-05,-6.5302e-06,-49.066,0.047639
9437,2.775,3,0,0.00078302,7824.8,0.00030399,1.0816,0.00017775,-947.44,-0.0007948,-8254.8,0.047811
9438,2.6825,3.0909,0,0.00075217,7516.5,0.00029855,0.96352,0.00015847,-1051.5,-0.00076449,-7986.3,0.044603
9439,2.775,3.0909,0.05,8.4535e-06,84.476,6.4912e-06,48.772,4.5514e-12,5.3688e-06,-6.4912e-06,-48.773,0.047756
9440,2.775,2.8182,0,0.00077966,7791.2,0.00030263,1.0863,0.00017709,-942.15,-0.00079137,-8218.8,0.047752
9441,2.6825,2.9091,0,0.00075217,7516.5,0.00029855,0.96352,0.00015847,-1051.5,-0.00076449,-7986.3,0.044603
9442,2.775,2.9091,0.05,8.4535e-06,84.476,6.4912e-06,48.773,-8.1537e-12,1.7631e-05,-6.4912e-06,-48.772,0.047756
9443,2.775,2.6364,0,0.00076935,7688.2,0.00029828,1.1588,0.00017541,-922.02,-0.00078084,-8106.9,0.047577
9444,2.6825,2.7273,0,0.0007458,7452.9,0.00029581,0.96487,0.00015754,-1037.9,-0.00075799,-7916.9,0.0445
9445,2.775,2.7273,0.05,8.5043e-06,84.984,6.5302e-06,49.066,-1.3885e-11,2.7453e-05,-6.5302e-06,-49.065,0.047639
9446,2.775,2.4545,0,0.00075181,7512.9,0.00029025,1.256,0.0001737,-874.39,-0.00076282,-7911.1,0.047291
9447,2.6825,2.5455,0,0.00073293,7324.3,0.00028995,1.0167,0.00015624,-1003.6,-0.0007448,-7773.7,0.044295
9448,2.775,2.5455,0.05,8.4873e-06,84.815,6.5172e-06,48.968,-1.3627e-11,8.3088e-05,-6.5172e-06,-48.968,0.047408
9449,2.775,2.2727,0,0.00072733,7268.3,0.0002778,0.95157,0.00017357,-782.14,-0.00073745,-7627.2,0.046901
9450,2.6825,2.3636,0,0.00071373,7132.3,0.00028043,1.091,0.00015579,-935.43,-0.00072499,-7553.2,0.043994
9451,2.775,2.3636,0.05,8.2531e-06,82.474,6.3374e-06,47.617,2.1685e-12,0.00025751,-6.3373e-06,-47.616,0.04707
9452,2.775,2.0909,0,0.00069722,6967.4,0.00026093,1.096,0.00017622,-635.37,-0.00070583,-7262.7,0.046412
9453,2.6825,2.1818,0,0.00068908,6886.1,0.0002669,0.94929,0.00015757,-820.52,-0.00069934,-7259,0.043602
9454,2.775,2.1818,0.05,7.8672e-06,78.618,6.041e-06,45.39,3.2829e-11,0.00050138,-6.041e-06,-45.39,0.046631
9455,2.775,1.9091,0,0.00066312,6626.6,0.0002408,2.8179,0.000181,-446.51,-0.00066952,-6837,0.045832
9456,2.6825,2,0,0.00066052,6600.6,0.00024991,1.5669,0.00016204,-658.63,-0.00066921,-6904.4,0.043124
9457,2.775,2,0.05,7.485e-06,74.799,5.7476e-06,43.185,7.3251e-11,0.00089999,-5.7476e-06,-43.185,0.046097
9458,2.775,1.7273,0,0.00062606,6256.3,0.00021949,6.2372,0.00018506,-252.47,-0.00062985,-6375.4,0.045163
9459,2.6825,1.8182,0,0.00062925,6288.1,0.0002308,2.8827,0.00016768,-471.32,-0.00063587,-6508.9,0.042561
9460,2.775,1.8182,0.05,7.2499e-06,72.449,5.567e-06,41.828,1.1266e-10,0.0010706,-5.567e-06,-41.828,0.045474
9461,2.775,1.5455,0,0.00058675,5863.4,0.0001999,17.102,0.00018453,-98.407,-0.00058805,-5903.2,0.04441
9462,2.6825,1.6364,0,0.00059584,5954.3,0.0002114,4.7257,0.00017165,-293.95,-0.0006002,-6093.3,0.041916
9463,2.775,1.6364,0.05,7.3314e-06,73.264,5.6296e-06,42.299,1.1214e-10,0.0010386,-5.6297e-06,-42.299,0.044763
9464,2.775,1.3636,0,0.00054623,5458.5,0.00018648,57.839,0.000175,-28.414,-0.00054568,-5443.3,0.043577
9465,2.6825,1.4545,0,0.000561,5606.2,0.00019354,9.0439,0.00017162,-155.63,-0.00056332,-5677.6,0.041192
9466,2.775,1.4545,0.05,7.791e-06,77.856,5.9825e-06,44.95,8.47e-11,0.00080481,-5.9826e-06,-44.95,0.043971
9467,2.775,1.1818,0,0.00050618,5058.3,0.00017621,101.32,0.00016074,-14.87,-0.0005046,-5014,0.042672
9468,2.6825,1.2727,0,0.00052587,5255.1,0.00017855,18.986,0.00016677,-69.571,-0.00052667,-5279.8,0.040392
9469,2.775,1.2727,0.05,8.3353e-06,83.296,6.4005e-06,48.091,6.0831e-11,0.00061107,-6.4005e-06,-48.091,0.043102
9470,2.775,1,0,0.00046855,4682.3,0.00016489,116.56,0.00014785,-11.453,-0.00046664,-4628.4,0.041698
9471,2.6825,1.0909,0,0.0004921,4917.6,0.0001671,37.648,0.00015786,-31.826,-0.00049197,-4914.3,0.039519
9472,2.775,1.0909,0.05,8.7338e-06,87.278,6.7065e-06,50.39,4.1149e-11,0.00044357,-6.7065e-06,-50.39,0.042163
9473,2.775,0.81818,0,0.00043512,4348.2,0.00015354,113.68,0.00013707,-10.079,-0.00043322,-4295,0.040662
9474,2.6825,0.90909,0,0.00046132,4610,0.00015779,55.337,0.00014788,-19.098,-0.00046066,-4591.4,0.038577
9475,2.775,0.90909,0.05,8.9619e-06,89.558,6.8817e-06,51.706,2.9266e-11,0.00029291,-6.8817e-06,-51.706,0.041158
9476,2.775,0.63636,0,0.00040729,4070.1,0.00014371,106.58,0.00012834,-8.8762,-0.00040551,-4020,0.039565
9477,2.6825,0.72727,0,0.00043489,4345.9,0.0001498,67.598,0.00013904,-13.275,-0.00043391,-4318.2,0.037569
9478,2.775,0.72727,0.05,9.0611e-06,90.548,6.9578e-06,52.278,1.8629e-11,0.0002178,-6.9578e-06,-52.278,0.040092
9479,2.775,0.45455,0,0.00038621,3859.4,0.0001366,105.97,0.00012159,-6.8535,-0.0003844,-3808.6,0.038407
9480,2.6825,0.54545,0,0.00041389,4136.1,0.00014367,79.786,0.00013185,-9.0297,-0.00041262,-4100,0.036493
9481,2.775,0.54545,0.05,9.0961e-06,90.898,6.9846e-06,52.48,9.7773e-12,0.00013764,-6.9846e-06,-52.48,0.038965
9482,2.775,0.27273,0,0.00037364,3733.8,0.0001339,124.85,0.00011669,-4.4884,-0.00037142,-3671.9,0.037185
9483,2.6825,0.36364,0,0.00039908,3988.1,0.00014009,97.674,0.00012638,-5.2824,-0.00039741,-3940.9,0.035348
9484,2.775,0.36364,0.05,9.2535e-06,92.471,7.1056e-06,53.388,5.3345e-12,6.7306e-05,-7.1056e-06,-53.388,0.037776
9485,2.6825,0.18182,0,0.00039265,3923.8,0.00014097,135.33,0.00012256,-2.9915,-0.00039022,-3855.8,0.034131
9486,2.775,0.18182,0.05,1.2018e-05,120.1,9.2283e-06,69.338,1.6622e-13,1.719e-05,-9.2283e-06,-69.338,0.036519
9487,2.775,0.090909,0,0.00035759,3573.5,0.00012449,78.133,0.00011415,0.37346,-0.00035619,-3533.6,0.035894
9488,2.59,5.7273,0,0.00041822,4179.4,0.00014726,108.89,0.00013228,-3.6547,-0.00041632,-4125.6,0.032376
9489,2.4975,5.8182,0,0.00043515,4348.5,0.00015395,122.92,0.00013726,-2.475,-0.00043296,-4286.9,0.029489
9490,2.59,5.8182,0.05,1.0923e-05,109.15,8.3873e-06,63.019,-1.4664e-12,-2.1144e-05,-8.3873e-06,-63.019,0.031747
9491,2.59,5.9091,0,0.00040485,4045.7,0.00013976,74.203,0.00012995,0.48228,-0.00040353,-4007.9,0.031157
9492,2.59,5.5455,0,0.00042705,4267.6,0.00014737,73.102,0.00013668,-7.212,-0.00042587,-4234.1,0.033515
9493,2.4975,5.6364,0,0.00043905,4387.5,0.00015133,74.19,0.00014076,-5.2372,-0.00043783,-4352.5,0.030629
9494,2.59,5.6364,0.05,8.0721e-06,80.665,6.1984e-06,46.572,-5.3265e-12,-7.1331e-05,-6.1984e-06,-46.572,0.032926
9495,2.59,5.3636,0,0.00044217,4418.6,0.00015053,46.571,0.00014235,-14.889,-0.0004416,-4402.5,0.034578
9496,2.4975,5.4545,0,0.00044939,4490.8,0.00015217,37.854,0.00014521,-14.404,-0.00044897,-4478.8,0.031687
9497,2.59,5.4545,0.05,7.8958e-06,78.903,6.063e-06,45.555,-1.0173e-11,-0.00013978,-6.063e-06,-45.555,0.034026
9498,2.59,5.1818,0,0.00046216,4618.4,0.00015627,25.953,0.00014852,-32.298,-0.00046224,-4621.3,0.035568
9499,2.4975,5.2727,0,0.00046416,4638.4,0.00015662,15.765,0.00014877,-43.188,-0.0004646,-4651.8,0.032666
9500,2.59,5.2727,0.05,7.8198e-06,78.144,6.0046e-06,45.116,-2.1235e-11,-0.00021618,-6.0046e-06,-45.116,0.035052
9501,2.59,5,0,0.00048621,4858.8,0.000165,13.973,0.000154,-68.733,-0.00048709,-4885.6,0.036486
9502,2.4975,5.0909,0,0.00048285,4825.2,0.00016473,8.3277,0.00015093,-95.342,-0.00048425,-4867.8,0.033568
9503,2.59,5.0909,0.05,7.6578e-06,76.525,5.8803e-06,44.182,-2.9335e-11,-0.00029932,-5.8802e-06,-44.182,0.036006
9504,2.59,4.8182,0,0.00051325,5128.9,0.00017647,8.1144,0.00015801,-130.66,-0.00051519,-5188.8,0.037333
9505,2.4975,4.9091,0,0.0005047,5043.5,0.00017516,5.3337,0.00015233,-166.21,-0.00050722,-5121.7,0.034396
9506,2.59,4.9091,0.05,7.3789e-06,73.738,5.6661e-06,42.572,-3.997e-11,-0.00043592,-5.666e-06,-42.573,0.036888
9507,2.59,4.6364,0,0.00054199,5416.1,0.00019025,5.0866,0.00015977,-223.92,-0.00054534,-5521.9,0.038108
9508,2.4975,4.7273,0,0.0005287,5283.3,0.00018748,3.6986,0.00015243,-259.64,-0.00053256,-5406.4,0.03515
9509,2.59,4.7273,0.05,6.9841e-06,69.793,5.3629e-06,40.295,-5.5095e-11,-0.00060102,-5.3629e-06,-40.295,0.037698
9510,2.59,4.4545,0,0.00057116,5707.7,0.00020593,3.4071,0.00015863,-351.99,-0.00057626,-5873.6,0.038808
9511,2.4975,4.5455,0,0.00055375,5533.6,0.00020147,2.6818,0.0001505,-380.26,-0.00055917,-5712.5,0.03583
9512,2.59,4.5455,0.05,6.5335e-06,65.29,5.017e-06,37.695,-8.4877e-11,-0.00074254,-5.0169e-06,-37.695,0.038434
9513,2.59,4.2727,0,0.00059974,5993.3,0.00022283,2.3596,0.00015464,-509.99,-0.00060673,-6230.6,0.039432
9514,2.4975,4.3636,0,0.00057883,5784.3,0.00021671,2.005,0.00014623,-527.56,-0.00058595,-6028.9,0.036436
9515,2.59,4.3636,0.05,6.1358e-06,61.316,4.7116e-06,35.401,-1.0216e-10,-0.00086142,-4.7115e-06,-35.401,0.039096
9516,2.59,4.0909,0,0.00062705,6266.2,0.00023991,1.7143,0.00014896,-681.65,-0.00063582,-6578.1,0.039978
9517,2.4975,4.1818,0,0.00060321,6027.9,0.00023247,1.4718,0.00014016,-692.12,-0.00061195,-6343.2,0.036969
9518,2.59,4.1818,0.05,5.8882e-06,58.841,4.5215e-06,33.972,-1.0959e-10,-0.00097974,-4.5214e-06,-33.972,0.03968
9519,2.59,3.9091,0,0.00065254,6520.9,0.00025588,1.3506,0.00014343,-843.56,-0.00066275,-6900.8,0.040447
9520,2.4975,4,0,0.00062638,6259.5,0.00024774,1.1443,0.00013367,-855.95,-0.0006365,-6642.7,0.037427
9521,2.59,4,0.05,5.7994e-06,57.954,4.4533e-06,33.46,-7.9489e-11,-0.00091978,-4.4532e-06,-33.46,0.040186
9522,2.59,3.7273,0,0.0006754,6749.4,0.00026953,1.0245,0.00013957,-975.4,-0.00068666,-7183.4,0.040837
9523,2.4975,3.8182,0,0.00064779,6473.4,0.00026142,0.91128,0.00012831,-999.2,-0.00065895,-6914.3,0.037813
9524,2.59,3.8182,0.05,5.8598e-06,58.557,4.4996e-06,33.808,-5.6555e-11,-0.00064464,-4.4996e-06,-33.808,0.040615
9525,2.59,3.5455,0,0.00069456,6940.8,0.00028013,0.82375,0.00013787,-1068.1,-0.00070651,-7412.4,0.041145
9526,2.4975,3.6364,0,0.00066657,6661.1,0.00027265,0.71996,0.00012499,-1108.7,-0.00067844,-7145.4,0.038125
9527,2.59,3.6364,0.05,6.0504e-06,60.462,4.6459e-06,34.908,-2.4124e-11,-0.00035194,-4.6459e-06,-34.908,0.040964
9528,2.59,3.3636,0,0.00070891,7084.2,0.00028749,0.81749,0.00013771,-1124.5,-0.00072129,-7578.7,0.04137
9529,2.4975,3.4545,0,0.00068167,6812,0.000281,0.68975,0.00012358,-1182.1,-0.00069401,-7325.2,0.038363
9530,2.59,3.4545,0.05,6.2844e-06,62.801,4.8257e-06,36.258,-6.8101e-12,-0.0001861,-4.8257e-06,-36.258,0.04123
9531,2.59,3.1818,0,0.00071773,7172.3,0.00029173,0.8434,0.00013814,-1153.2,-0.00073033,-7678.5,0.041506
9532,2.4975,3.2727,0,0.00069217,6916.9,0.00028644,0.71812,0.00012334,-1224.7,-0.0007048,-7447,0.038523
9533,2.59,3.2727,0.05,6.4572e-06,64.528,4.9583e-06,37.255,-3.9436e-13,-3.9047e-05,-4.9584e-06,-37.255,0.04141
9534,2.59,3,0,0.00072069,7201.9,0.00029311,0.84736,0.00013837,-1161.8,-0.00073336,-7711.7,0.041552
9535,2.4975,3.0909,0,0.00069753,6970.5,0.00028908,0.731,0.00012346,-1243.7,-0.00071029,-7508.2,0.038604
9536,2.59,3.0909,0.05,6.5377e-06,65.331,5.0201e-06,37.719,-2.0546e-12,-3.9325e-05,-5.0201e-06,-37.719,0.041502
9537,2.59,2.8182,0,0.00071773,7172.3,0.00029173,0.8434,0.00013814,-1153.2,-0.00073033,-7678.5,0.041506
9538,2.4975,2.9091,0,0.00069753,6970.5,0.00028908,0.731,0.00012346,-1243.7,-0.00071029,-7508.2,0.038604
9539,2.59,2.9091,0.05,6.5377e-06,65.331,5.0201e-06,37.719,-1.5718e-12,3.9412e-05,-5.0201e-06,-37.719,0.041502
9540,2.59,2.6364,0,0.00070891,7084.2,0.00028749,0.81749,0.00013771,-1124.5,-0.00072129,-7578.7,0.04137
9541,2.4975,2.7273,0,0.00069217,6916.9,0.00028644,0.71812,0.00012334,-1224.7,-0.0007048,-7447,0.038523
9542,2.59,2.7273,0.05,6.4572e-06,64.528,4.9584e-06,37.255,-3.1225e-12,9.6682e-05,-4.9583e-06,-37.255,0.04141
9543,2.59,2.4545,0,0.00069456,6940.8,0.00028013,0.82375,0.00013787,-1068.1,-0.00070651,-7412.4,0.041145
9544,2.4975,2.5455,0,0.00068167,6812,0.000281,0.68975,0.00012358,-1182.1,-0.00069401,-7325.2,0.038363
9545,2.59,2.5455,0.05,6.2844e-06,62.801,4.8257e-06,36.258,4.8969e-12,0.00017266,-4.8257e-06,-36.258,0.04123
9546,2.59,2.2727,0,0.0006754,6749.4,0.00026953,1.0245,0.00013957,-975.4,-0.00068666,-7183.4,0.040837
9547,2.4975,2.3636,0,0.00066657,6661.1,0.00027265,0.71996,0.00012499,-1108.7,-0.00067844,-7145.4,0.038125
9548,2.59,2.3636,0.05,6.0504e-06,60.462,4.6459e-06,34.908,2.4242e-11,0.00037056,-4.6459e-06,-34.908,0.040964
9549,2.59,2.0909,0,0.00065254,6520.9,0.00025588,1.3506,0.00014343,-843.56,-0.00066275,-6900.8,0.040447
9550,2.4975,2.1818,0,0.00064779,6473.4,0.00026142,0.91128,0.00012831,-999.2,-0.00065895,-6914.3,0.037813
9551,2.59,2.1818,0.05,5.8598e-06,58.557,4.4996e-06,33.808,5.0474e-11,0.00060812,-4.4996e-06,-33.808,0.040615
9552,2.59,1.9091,0,0.00062705,6266.2,0.00023991,1.7143,0.00014896,-681.65,-0.00063582,-6578.1,0.039978
9553,2.4975,2,0,0.00062638,6259.5,0.00024774,1.1443,0.00013367,-855.95,-0.0006365,-6642.7,0.037427
9554,2.59,2,0.05,5.7994e-06,57.954,4.4532e-06,33.46,8.6779e-11,0.00092152,-4.4533e-06,-33.46,0.040186
9555,2.59,1.7273,0,0.00059974,5993.3,0.00022283,2.3596,0.00015464,-509.99,-0.00060673,-6230.6,0.039432
9556,2.4975,1.8182,0,0.00060321,6027.9,0.00023247,1.4718,0.00014016,-692.12,-0.00061195,-6343.2,0.036969
9557,2.59,1.8182,0.05,5.8882e-06,58.841,4.5214e-06,33.972,1.0961e-10,0.00098034,-4.5215e-06,-33.972,0.03968
9558,2.59,1.5455,0,0.00057116,5707.7,0.00020593,3.4071,0.00015863,-351.99,-0.00057626,-5873.6,0.038808
9559,2.4975,1.6364,0,0.00057883,5784.3,0.00021671,2.005,0.00014623,-527.56,-0.00058595,-6028.9,0.036436
9560,2.59,1.6364,0.05,6.1358e-06,61.316,4.7115e-06,35.401,1.0206e-10,0.00097958,-4.7116e-06,-35.401,0.039096
9561,2.59,1.3636,0,0.00054199,5416.1,0.00019025,5.0866,0.00015977,-223.92,-0.00054534,-5521.9,0.038108
9562,2.4975,1.4545,0,0.00055375,5533.6,0.00020147,2.6818,0.0001505,-380.26,-0.00055917,-5712.5,0.03583
9563,2.59,1.4545,0.05,6.5335e-06,65.29,5.0169e-06,37.695,7.4637e-11,0.00079993,-5.017e-06,-37.695,0.038434
9564,2.59,1.1818,0,0.00051325,5128.9,0.00017647,8.1144,0.00015801,-130.66,-0.00051519,-5188.8,0.037333
9565,2.4975,1.2727,0,0.0005287,5283.3,0.00018748,3.6986,0.00015243,-259.65,-0.00053256,-5406.4,0.03515
9566,2.59,1.2727,0.05,6.9841e-06,69.793,5.3629e-06,40.295,6.5439e-11,0.00061332,-5.3629e-06,-40.295,0.037698
9567,2.59,1,0,0.00048621,4858.8,0.000165,13.973,0.000154,-68.734,-0.00048709,-4885.6,0.036486
9568,2.4975,1.0909,0,0.0005047,5043.5,0.00017516,5.3337,0.00015233,-166.21,-0.00050721,-5121.7,0.034396
9569,2.59,1.0909,0.05,7.3789e-06,73.738,5.666e-06,42.573,4.3951e-11,0.00045338,-5.6661e-06,-42.573,0.036888
9570,2.59,0.81818,0,0.00046216,4618.4,0.00015627,25.953,0.00014852,-32.298,-0.00046224,-4621.3,0.035568
9571,2.4975,0.90909,0,0.00048285,4825.2,0.00016473,8.3276,0.00015093,-95.342,-0.00048425,-4867.8,0.033568
9572,2.59,0.90909,0.05,7.6578e-06,76.525,5.8802e-06,44.182,2.8565e-11,0.00031525,-5.8802e-06,-44.182,0.036006
9573,2.59,0.63636,0,0.00044217,4418.6,0.00015053,46.571,0.00014235,-14.889,-0.0004416,-4402.5,0.034578
9574,2.4975,0.72727,0,0.00046416,4638.4,0.00015662,15.765,0.00014877,-43.188,-0.0004646,-4651.8,0.032666
9575,2.59,0.72727,0.05,7.8198e-06,78.144,6.0046e-06,45.116,1.9483e-11,0.00025957,-6.0046e-06,-45.116,0.035052
9576,2.59,0.45455,0,0.00042705,4267.6,0.00014737,73.102,0.00013668,-7.212,-0.00042587,-4234.1,0.033515
9577,2.4975,0.54545,0,0.00044939,4490.8,0.00015217,37.854,0.00014521,-14.404,-0.00044897,-4478.8,0.031687
9578,2.59,0.54545,0.05,7.8958e-06,78.903,6.063e-06,45.555,1.2041e-11,0.00014149,-6.063e-06,-45.555,0.034026
9579,2.59,0.27273,0,0.00041822,4179.4,0.00014726,108.89,0.00013228,-3.6547,-0.00041632,-4125.6,0.032376
9580,2.4975,0.36364,0,0.00043905,4387.5,0.00015133,74.19,0.00014076,-5.2372,-0.00043783,-4352.5,0.030629
9581,2.59,0.36364,0.05,8.0721e-06,80.665,6.1984e-06,46.572,4.4732e-12,7.1427e-05,-6.1984e-06,-46.572,0.032926
9582,2.4975,0.18182,0,0.00043515,4348.5,0.00015395,122.92,0.00013726,-2.475,-0.00043296,-4286.9,0.029489
9583,2.59,0.18182,0.05,1.0923e-05,109.15,8.3873e-06,63.019,-1.8893e-12,1.9715e-05,-8.3873e-06,-63.019,0.031747
9584,2.59,0.090909,0,0.00040485,4045.7,0.00013976,74.203,0.00012995,0.48228,-0.00040353,-4007.9,0.031157
9585,2.405,5.7273,0,0.00045605,4557.3,0.00015803,88.303,0.0001458,-3.6073,-0.00045454,-4514.3,0.027834
9586,2.3125,5.8182,0,0.00047118,4708.6,0.00016464,108.37,0.00014989,-2.4449,-0.00046928,-4654.6,0.025127
9587,2.405,5.8182,0.05,9.8859e-06,98.79,7.5911e-06,57.037,5.023e-12,-1.8982e-05,-7.5911e-06,-57.037,0.02724
9588,2.405,5.9091,0,0.00044525,4449.4,0.00015257,67.893,0.0001436,0.54457,-0.00044405,-4414.8,0.026686
9589,2.405,5.5455,0,0.00046153,4612.1,0.00015603,38.287,0.0001495,-10.846,-0.00046104,-4598.2,0.028893
9590,2.3125,5.6364,0,0.00047255,4722.2,0.00016016,46.532,0.00015305,-6.8896,-0.00047185,-4702.2,0.026193
9591,2.405,5.6364,0.05,6.9853e-06,69.804,5.3638e-06,40.302,-7.6204e-12,-7.4349e-05,-5.3638e-06,-40.302,0.028344
9592,2.405,5.3636,0,0.00047172,4713.9,0.00015891,11.954,0.00015127,-45.387,-0.00047226,-4730.4,0.029867
9593,2.3125,5.4545,0,0.000479,4786.7,0.00016095,11.342,0.00015424,-39.022,-0.00047945,-4800.4,0.027168
9594,2.405,5.4545,0.05,6.8247e-06,68.2,5.2405e-06,39.375,-1.0761e-11,-0.00015819,-5.2405e-06,-39.375,0.02936
9595,2.405,5.1818,0,0.0004854,4850.6,0.00016611,5.8992,0.00015062,-110.47,-0.00048707,-4901.9,0.030759
9596,2.3125,5.2727,0,0.00048865,4883.1,0.00016714,4.9399,0.00015168,-111.23,-0.00049036,-4935.3,0.028057
9597,2.405,5.2727,0.05,6.7647e-06,67.6,5.1945e-06,39.029,-2.1743e-11,-0.00022832,-5.1945e-06,-39.029,0.030292
9598,2.405,5,0,0.00050204,5016.9,0.00017544,3.8348,0.0001493,-192.56,-0.00050496,-5108.4,0.031574
9599,2.3125,5.0909,0,0.00050116,5008.1,0.00017546,3.1649,0.00014839,-200.25,-0.0005042,-5103.6,0.028863
9600,2.405,5.0909,0.05,6.6233e-06,66.187,5.0859e-06,38.213,-3.051e-11,-0.00031676,-5.0858e-06,-38.213,0.031145
9601,2.405,4.8182,0,0.0005209,5205.5,0.0001864,2.7568,0.00014712,-292.39,-0.0005252,-5344,0.032313
9602,2.3125,4.9091,0,0.00051604,5156.8,0.00018532,2.3032,0.00014455,-304,-0.00052049,-5300.9,0.029592
9603,2.405,4.9091,0.05,6.3846e-06,63.802,4.9026e-06,36.836,-4.4438e-11,-0.00039204,-4.9026e-06,-36.836,0.031921
9604,2.405,4.6364,0,0.00054116,5407.9,0.0001988,2.0688,0.00014361,-412.55,-0.00054695,-5601.2,0.032978
9605,2.3125,4.7273,0,0.00053264,5322.7,0.0001965,1.7698,0.00013983,-424.02,-0.00053854,-5521.1,0.030245
9606,2.405,4.7273,0.05,6.0608e-06,60.566,4.654e-06,34.968,-5.8655e-11,-0.00054714,-4.6539e-06,-34.968,0.032622
9607,2.405,4.4545,0,0.00056198,5616,0.00021229,1.5765,0.0001385,-552.82,-0.0005693,-5871,0.033569
9608,2.3125,4.5455,0,0.00055024,5498.6,0.00020876,1.3946,0.00013394,-560.75,-0.0005576,-5756.7,0.030825
9609,2.405,4.5455,0.05,5.6871e-06,56.832,4.367e-06,32.812,-7.4178e-11,-0.00068459,-4.367e-06,-32.812,0.033249
9610,2.405,4.2727,0,0.0005827,5823,0.00022637,1.2033,0.00013204,-707.55,-0.00059147,-6143.7,0.034089
9611,2.3125,4.3636,0,0.00056819,5678,0.00022171,1.1024,0.00012692,-711.09,-0.00057691,-5999.4,0.031334
9612,2.405,4.3636,0.05,5.3139e-06,53.103,4.0805e-06,30.659,-8.839e-11,-0.00080034,-4.0804e-06,-30.659,0.033804
9613,2.405,4.0909,0,0.00060278,6023.7,0.00024031,0.90108,0.00012503,-865.26,-0.0006128,-6409,0.034539
9614,2.3125,4.1818,0,0.00058596,5855.5,0.00023479,0.86714,0.00011927,-867.09,-0.00059585,-6240.2,0.031775
9615,2.405,4.1818,0.05,4.9775e-06,49.74,3.8221e-06,28.718,-9.7249e-11,-0.00081677,-3.822e-06,-28.717,0.034288
9616,2.405,3.9091,0,0.00062174,6213.1,0.00025328,0.67698,0.00011858,-1011.4,-0.00063272,-6656.4,0.034919
9617,2.3125,4,0,0.00060309,6026.7,0.00024731,0.66562,0.00011187,-1016.9,-0.00061389,-6470.1,0.032151
9618,2.405,4,0.05,4.703e-06,46.998,3.6114e-06,27.134,-7.6298e-11,-0.00083129,-3.6113e-06,-27.134,0.034702
9619,2.405,3.7273,0,0.00063893,6384.9,0.00026453,0.57985,0.0001136,-1133.5,-0.0006506,-6875.4,0.035232
9620,2.3125,3.8182,0,0.00061907,6186.4,0.00025856,0.53522,0.00010565,-1148.4,-0.00063054,-6679.8,0.032463
9621,2.405,3.8182,0.05,4.5313e-06,45.282,3.4795e-06,26.143,-6.5278e-11,-0.00072327,-3.4795e-06,-26.143,0.035048
9622,2.405,3.5455,0,0.00065353,6530.8,0.00027352,0.5701,0.00011043,-1224.8,-0.00066567,-7056.1,0.035477
9623,2.3125,3.6364,0,0.00063322,6327.9,0.00026797,0.49174,0.00010115,-1252.9,-0.00064514,-6860.3,0.032713
9624,2.405,3.6364,0.05,4.5024e-06,44.993,3.4573e-06,25.977,-4.2075e-11,-0.00045446,-3.4573e-06,-25.977,0.035326
9625,2.405,3.3636,0,0.00066466,6642,0.00027995,0.5842,0.0001088,-1285.4,-0.00067711,-7190.4,0.035654
9626,2.3125,3.4545,0,0.00064475,6443,0.00027515,0.48929,9.8393e-05,-1327.6,-0.00065697,-7003.1,0.032901
9627,2.405,3.4545,0.05,4.589e-06,45.858,3.5238e-06,26.476,-2.4309e-11,-0.00024228,-3.5238e-06,-26.476,0.035537
9628,2.405,3.1818,0,0.00067162,6711.6,0.00028379,0.60448,0.00010816,-1319,-0.00068424,-7272.8,0.035761
9629,2.3125,3.2727,0,0.00065288,6524.3,0.00027995,0.5052,9.6981e-05,-1374.2,-0.00066529,-7101.7,0.033027
9630,2.405,3.2727,0.05,4.708e-06,47.048,3.6152e-06,27.163,-9.649e-12,-0.00010969,-3.6152e-06,-27.163,0.035679
9631,2.405,3,0,0.00067399,6735.3,0.00028505,0.61471,0.00010801,-1329.7,-0.00068667,-7300.5,0.035797
9632,2.3125,3.0909,0,0.00065709,6566.4,0.00028234,0.52129,9.6431e-05,-1396.3,-0.00066959,-7151.9,0.03309
9633,2.405,3.0909,0.05,4.7844e-06,47.811,3.6738e-06,27.603,-1.3793e-12,-5.4748e-05,-3.6738e-06,-27.603,0.03575
9634,2.405,2.8182,0,0.00067162,6711.6,0.00028379,0.60448,0.00010816,-1319,-0.00068424,-7272.8,0.035761
9635,2.3125,2.9091,0,0.00065709,6566.4,0.00028234,0.52129,9.6431e-05,-1396.3,-0.00066959,-7151.9,0.03309
9636,2.405,2.9091,0.05,4.7844e-06,47.811,3.6738e-06,27.603,2.246e-12,6.9752e-05,-3.6738e-06,-27.603,0.03575
9637,2.405,2.6364,0,0.00066466,6642,0.00027995,0.5842,0.0001088,-1285.4,-0.00067711,-7190.4,0.035654
9638,2.3125,2.7273,0,0.00065288,6524.3,0.00027995,0.5052,9.6981e-05,-1374.2,-0.00066529,-7101.7,0.033027
9639,2.405,2.7273,0.05,4.708e-06,47.048,3.6152e-06,27.163,8.038e-12,0.00014218,-3.6152e-06,-27.163,0.035679
9640,2.405,2.4545,0,0.00065353,6530.8,0.00027352,0.5701,0.00011043,-1224.8,-0.00066567,-7056.1,0.035477
9641,2.3125,2.5455,0,0.00064475,6443,0.00027515,0.48929,9.8393e-05,-1327.6,-0.00065697,-7003.1,0.032901
9642,2.405,2.5455,0.05,4.589e-06,45.858,3.5238e-06,26.476,2.4345e-11,0.00030064,-3.5238e-06,-26.476,0.035537
9643,2.405,2.2727,0,0.00063893,6384.9,0.00026453,0.57985,0.0001136,-1133.5,-0.0006506,-6875.4,0.035232
9644,2.3125,2.3636,0,0.00063322,6327.9,0.00026797,0.49174,0.00010115,-1252.9,-0.00064514,-6860.3,0.032713
9645,2.405,2.3636,0.05,4.5024e-06,44.993,3.4573e-06,25.977,4.0165e-11,0.00050604,-3.4573e-06,-25.977,0.035326
9646,2.405,2.0909,0,0.00062174,6213.1,0.00025328,0.67698,0.00011858,-1011.4,-0.00063272,-6656.4,0.034919
9647,2.3125,2.1818,0,0.00061907,6186.4,0.00025856,0.53522,0.00010565,-1148.4,-0.00063054,-6679.8,0.032463
9648,2.405,2.1818,0.05,4.5313e-06,45.282,3.4795e-06,26.143,6.8017e-11,0.00070714,-3.4795e-06,-26.143,0.035048
9649,2.405,1.9091,0,0.00060278,6023.7,0.00024031,0.90108,0.00012503,-865.26,-0.00061279,-6409,0.034539
9650,2.3125,2,0,0.00060309,6026.7,0.00024731,0.66562,0.00011187,-1016.9,-0.00061389,-6470.1,0.032151
9651,2.405,2,0.05,4.703e-06,46.998,3.6113e-06,27.134,8.9335e-11,0.00087526,-3.6114e-06,-27.134,0.034702
9652,2.405,1.7273,0,0.0005827,5823,0.00022637,1.2033,0.00013204,-707.55,-0.00059147,-6143.7,0.034089
9653,2.3125,1.8182,0,0.00058596,5855.5,0.00023479,0.86714,0.00011927,-867.09,-0.00059585,-6240.2,0.031775
9654,2.405,1.8182,0.05,4.9775e-06,49.74,3.822e-06,28.717,9.7771e-11,0.00087639,-3.8221e-06,-28.718,0.034288
9655,2.405,1.5455,0,0.00056198,5615.9,0.00021229,1.5765,0.0001385,-552.82,-0.0005693,-5871,0.033569
9656,2.3125,1.6364,0,0.00056819,5678,0.00022171,1.1024,0.00012692,-711.09,-0.00057691,-5999.4,0.031334
9657,2.405,1.6364,0.05,5.3139e-06,53.103,4.0804e-06,30.659,9.5999e-11,0.00085454,-4.0805e-06,-30.659,0.033804
9658,2.405,1.3636,0,0.00054116,5407.9,0.0001988,2.0688,0.00014361,-412.55,-0.00054695,-5601.2,0.032978
9659,2.3125,1.4545,0,0.00055024,5498.6,0.00020876,1.3946,0.00013394,-560.75,-0.0005576,-5756.7,0.030825
9660,2.405,1.4545,0.05,5.6871e-06,56.832,4.367e-06,32.812,6.8502e-11,0.00077085,-4.367e-06,-32.812,0.033249
9661,2.405,1.1818,0,0.0005209,5205.4,0.0001864,2.7568,0.00014712,-292.39,-0.0005252,-5344,0.032313
9662,2.3125,1.2727,0,0.00053264,5322.7,0.0001965,1.7698,0.00013983,-424.02,-0.00053854,-5521.1,0.030245
9663,2.405,1.2727,0.05,6.0608e-06,60.566,4.6539e-06,34.968,6.473e-11,0.00063382,-4.654e-06,-34.968,0.032622
9664,2.405,1,0,0.00050204,5016.9,0.00017544,3.8348,0.0001493,-192.56,-0.00050496,-5108.4,0.031574
9665,2.3125,1.0909,0,0.00051604,5156.8,0.00018532,2.3032,0.00014455,-304,-0.00052049,-5300.9,0.029592
9666,2.405,1.0909,0.05,6.3846e-06,63.802,4.9026e-06,36.836,4.6583e-11,0.00048554,-4.9026e-06,-36.836,0.031921
9667,2.405,0.81818,0,0.0004854,4850.6,0.00016611,5.8992,0.00015062,-110.47,-0.00048707,-4901.9,0.030759
9668,2.3125,0.90909,0,0.00050116,5008.1,0.00017546,3.1649,0.00014839,-200.25,-0.0005042,-5103.6,0.028863
9669,2.405,0.90909,0.05,6.6233e-06,66.187,5.0858e-06,38.213,3.3108e-11,0.00033642,-5.0859e-06,-38.213,0.031145
9670,2.405,0.63636,0,0.00047172,4713.9,0.00015891,11.954,0.00015127,-45.387,-0.00047226,-4730.4,0.029867
9671,2.3125,0.72727,0,0.00048865,4883.1,0.00016714,4.9399,0.00015168,-111.23,-0.00049036,-4935.3,0.028057
9672,2.405,0.72727,0.05,6.7647e-06,67.6,5.1945e-06,39.029,2.1743e-11,0.00021919,-5.1945e-06,-39.029,0.030292
9673,2.405,0.45455,0,0.00046153,4612.1,0.00015603,38.287,0.00014949,-10.846,-0.00046104,-4598.2,0.028893
9674,2.3125,0.54545,0,0.000479,4786.7,0.00016095,11.342,0.00015424,-39.022,-0.00047945,-4800.4,0.027168
9675,2.405,0.54545,0.05,6.8247e-06,68.2,5.2405e-06,39.375,1.0761e-11,0.00016343,-5.2405e-06,-39.375,0.02936
9676,2.405,0.27273,0,0.00045605,4557.3,0.00015803,88.303,0.0001458,-3.6073,-0.00045454,-4514.3,0.027834
9677,2.3125,0.36364,0,0.00047255,4722.2,0.00016016,46.532,0.00015305,-6.8897,-0.00047185,-4702.2,0.026193
9678,2.405,0.36364,0.05,6.9853e-06,69.804,5.3638e-06,40.302,3.1709e-12,8.1813e-05,-5.3638e-06,-40.301,0.028343
9679,2.3125,0.18182,0,0.00047118,4708.6,0.00016464,108.37,0.00014989,-2.4449,-0.00046928,-4654.6,0.025127
9680,2.405,0.18182,0.05,9.8859e-06,98.79,7.5911e-06,57.037,4.0147e-13,2.0695e-05,-7.5911e-06,-57.037,0.02724
9681,2.405,0.090909,0,0.00044525,4449.4,0.00015257,67.893,0.0001436,0.54457,-0.00044405,-4414.8,0.026686
9682,2.22,5.7273,0,0.00048771,4873.8,0.00016662,65.473,0.00015733,-4.3228,-0.00048664,-4842.8,0.023587
9683,2.1275,5.8182,0,0.00050141,5010.7,0.00017341,93.67,0.00016057,-2.7719,-0.0004998,-4964.5,0.021073
9684,2.22,5.8182,0.05,8.958e-06,89.519,6.8787e-06,51.684,2.454e-12,-2.1185e-05,-6.8787e-06,-51.684,0.023029
9685,2.22,5.9091,0,0.00047936,4790.3,0.00016322,60.74,0.00015522,0.62799,-0.00047829,-4759.3,0.02251
9686,2.22,5.5455,0,0.00049008,4897.4,0.00016416,12.742,0.00015877,-27.801,-0.00049032,-4904.8,0.024567
9687,2.1275,5.6364,0,0.0005002,4998.5,0.00016748,20.662,0.00016287,-14.022,-0.00050007,-4995.1,0.022064
9688,2.22,5.6364,0.05,6.0278e-06,60.237,4.6286e-06,34.778,-5.099e-12,-0.00010635,-4.6286e-06,-34.778,0.024057
9689,2.22,5.3636,0,0.00049609,4957.5,0.00016919,4.3688,0.00015479,-103.81,-0.0004977,-5006.3,0.025457
9690,2.1275,5.4545,0,0.00050321,5028.6,0.0001707,4.4513,0.00015859,-86.535,-0.00050454,-5069,0.022959
9691,2.22,5.4545,0.05,5.9136e-06,59.095,4.5409e-06,34.119,-1.5067e-11,-0.0001771,-4.5409e-06,-34.119,0.024992
9692,2.22,5.1818,0,0.00050467,5043.3,0.00017656,2.7011,0.00014962,-199.73,-0.00050772,-5138.7,0.026261
9693,2.1275,5.2727,0,0.0005086,5082.5,0.00017724,2.5257,0.00015198,-187.27,-0.00051148,-5172.2,0.023763
9694,2.22,5.2727,0.05,5.9074e-06,59.033,4.5361e-06,34.083,-2.315e-11,-0.00023543,-4.5361e-06,-34.083,0.025838
9695,2.22,5,0,0.0005155,5151.5,0.00018539,1.9506,0.0001439,-309.77,-0.00052003,-5298.3,0.026983
9696,2.1275,5.0909,0,0.00051619,5158.3,0.00018524,1.7778,0.00014478,-302.18,-0.00052062,-5301.8,0.024483
9697,2.22,5.0909,0.05,5.8274e-06,58.234,4.4747e-06,33.621,-3.6914e-11,-0.0003502,-4.4747e-06,-33.621,0.0266
9698,2.22,4.8182,0,0.00052814,5277.8,0.00019544,1.5046,0.00013755,-433.45,-0.00053415,-5480.3,0.027627
9699,2.1275,4.9091,0,0.0005257,5253.4,0.00019442,1.3643,0.00013711,-429.24,-0.00053166,-5454.1,0.025123
9700,2.22,4.9091,0.05,5.6601e-06,56.562,4.3463e-06,32.656,-4.4232e-11,-0.00046198,-4.3463e-06,-32.656,0.027282
9701,2.22,4.6364,0,0.00054207,5416.9,0.00020648,1.1984,0.00013043,-570.16,-0.00054948,-5678.8,0.028199
9702,2.1275,4.7273,0,0.00053676,5363.9,0.00020457,1.0895,0.00012893,-567.22,-0.00054413,-5624.3,0.025688
9703,2.22,4.7273,0.05,5.4122e-06,54.085,4.1559e-06,31.226,-5.9005e-11,-0.00055037,-4.1559e-06,-31.226,0.027889
9704,2.22,4.4545,0,0.00055674,5563.5,0.00021818,0.96756,0.00012258,-717.35,-0.00056543,-5886.8,0.0287
9705,2.1275,4.5455,0,0.00054889,5485.2,0.00021542,0.88798,0.00012027,-714.07,-0.00055752,-5806.7,0.026182
9706,2.22,4.5455,0.05,5.0998e-06,50.962,3.916e-06,29.423,-6.9662e-11,-0.00067606,-3.916e-06,-29.423,0.028424
9707,2.22,4.2727,0,0.00057166,5712.7,0.00023013,0.77901,0.00011431,-869.49,-0.00058144,-6097.1,0.029134
9708,2.1275,4.3636,0,0.00056165,5612.6,0.00022662,0.7258,0.0001113,-865.75,-0.00057132,-5994.7,0.02661
9709,2.22,4.3636,0.05,4.7411e-06,47.379,3.6406e-06,27.354,-8.9987e-11,-0.00076124,-3.6406e-06,-27.354,0.028891
9710,2.22,4.0909,0,0.0005864,5859.9,0.00024179,0.62563,0.00010619,-1018.2,-0.00059702,-6301.9,0.029504
9711,2.1275,4.1818,0,0.00057458,5741.8,0.00023774,0.5872,0.00010246,-1015.8,-0.00058506,-6181.6,0.026976
9712,2.22,4.1818,0.05,4.3541e-06,43.511,3.3434e-06,25.121,-8.2564e-11,-0.00075209,-3.3434e-06,-25.121,0.029292
9713,2.22,3.9091,0,0.00060048,6000.6,0.00025259,0.51041,9.894e-05,-1154,-0.00061171,-6493.5,0.029815
9714,2.1275,4,0,0.00058727,5868.6,0.00024827,0.47618,9.4321e-05,-1156.2,-0.00059831,-6360.4,0.027284
9715,2.22,4,0.05,3.9645e-06,39.617,3.0442e-06,22.873,-8.5392e-11,-0.00071889,-3.0442e-06,-22.873,0.029631
9716,2.22,3.7273,0,0.00061335,6129.3,0.000262,0.43394,9.3107e-05,-1268.6,-0.00062498,-6664,0.030066
9717,2.1275,3.8182,0,0.00059923,5988.1,0.00025772,0.39633,8.7443e-05,-1279,-0.00061063,-6524,0.027537
9718,2.22,3.8182,0.05,3.6209e-06,36.184,2.7804e-06,20.891,-7.7586e-11,-0.00066554,-2.7804e-06,-20.891,0.029911
9719,2.22,3.5455,0,0.00062436,6239.3,0.0002696,0.40178,8.8931e-05,-1357.1,-0.00063625,-6805.9,0.030262
9720,2.1275,3.6364,0,0.00060989,6094.7,0.00026567,0.35161,8.2174e-05,-1378.3,-0.00062151,-6665.6,0.027737
9721,2.22,3.6364,0.05,3.3828e-06,33.805,2.5976e-06,19.517,-5.6269e-11,-0.00049897,-2.5975e-06,-19.517,0.030134
9722,2.22,3.3636,0,0.00063282,6323.8,0.00027515,0.40551,8.6303e-05,-1418.5,-0.00064488,-6912.3,0.030401
9723,2.1275,3.4545,0,0.00061862,6181.9,0.00027181,0.34236,7.8556e-05,-1451.7,-0.00063037,-6778.3,0.027886
9724,2.22,3.4545,0.05,3.2747e-06,32.724,2.5146e-06,18.893,-3.6351e-11,-0.00034272,-2.5145e-06,-18.893,0.030301
9725,2.22,3.1818,0,0.00063815,6377.1,0.0002785,0.42006,8.4923e-05,-1454,-0.0006503,-6978.3,0.030485
9726,2.1275,3.2727,0,0.00062482,6243.9,0.00027598,0.35156,7.6389e-05,-1499.3,-0.00063666,-6856.8,0.027985
9727,2.22,3.2727,0.05,3.2596e-06,32.573,2.503e-06,18.806,-1.8265e-11,-0.00018368,-2.5029e-06,-18.806,0.030413
9728,2.22,3,0,0.00063997,6395.3,0.00027962,0.42684,8.4501e-05,-1465.6,-0.00065216,-7000.6,0.030513
9729,2.1275,3.0909,0,0.00062805,6276.1,0.00027807,0.36098,7.5399e-05,-1522.4,-0.00063992,-6897.1,0.028034
9730,2.22,3.0909,0.05,3.2735e-06,32.712,2.5136e-06,18.886,-6.0699e-12,-5.3896e-05,-2.5136e-06,-18.886,0.030469
9731,2.22,2.8182,0,0.00063815,6377.1,0.0002785,0.42006,8.4923e-05,-1454,-0.0006503,-6978.3,0.030485
9732,2.1275,2.9091,0,0.00062805,6276.1,0.00027807,0.36098,7.5399e-05,-1522.4,-0.00063992,-6897.1,0.028034
9733,2.22,2.9091,0.05,3.2735e-06,32.712,2.5136e-06,18.886,4.3443e-12,5.3462e-05,-2.5136e-06,-18.886,0.030469
9734,2.22,2.6364,0,0.00063282,6323.8,0.00027515,0.40551,8.6303e-05,-1418.5,-0.00064488,-6912.3,0.030401
9735,2.1275,2.7273,0,0.00062482,6243.9,0.00027598,0.35156,7.6389e-05,-1499.3,-0.00063666,-6856.8,0.027985
9736,2.22,2.7273,0.05,3.2596e-06,32.573,2.5029e-06,18.806,1.8998e-11,0.00018368,-2.503e-06,-18.806,0.030413
9737,2.22,2.4545,0,0.00062436,6239.3,0.0002696,0.40178,8.8931e-05,-1357.1,-0.00063625,-6805.9,0.030262
9738,2.1275,2.5455,0,0.00061862,6181.9,0.00027181,0.34236,7.8556e-05,-1451.7,-0.00063037,-6778.3,0.027886
9739,2.22,2.5455,0.05,3.2747e-06,32.724,2.5145e-06,18.893,3.5153e-11,0.00035994,-2.5146e-06,-18.893,0.030301
9740,2.22,2.2727,0,0.00061335,6129.3,0.000262,0.43394,9.3107e-05,-1268.6,-0.00062498,-6664,0.030066
9741,2.1275,2.3636,0,0.00060989,6094.7,0.00026567,0.35161,8.2174e-05,-1378.3,-0.00062151,-6665.6,0.027737
9742,2.22,2.3636,0.05,3.3828e-06,33.805,2.5975e-06,19.517,5.8221e-11,0.00056854,-2.5976e-06,-19.517,0.030134
9743,2.22,2.0909,0,0.00060048,6000.6,0.00025259,0.51041,9.894e-05,-1154,-0.00061171,-6493.5,0.029815
9744,2.1275,2.1818,0,0.00059923,5988.1,0.00025772,0.39633,8.7443e-05,-1279,-0.00061063,-6524,0.027537
9745,2.22,2.1818,0.05,3.6209e-06,36.184,2.7804e-06,20.891,7.6989e-11,0.00065551,-2.7804e-06,-20.891,0.029911
9746,2.22,1.9091,0,0.0005864,5859.9,0.00024179,0.62563,0.00010619,-1018.2,-0.00059702,-6301.9,0.029504
9747,2.1275,2,0,0.00058727,5868.6,0.00024827,0.47618,9.4321e-05,-1156.2,-0.00059831,-6360.4,0.027284
9748,2.22,2,0.05,3.9645e-06,39.617,3.0442e-06,22.873,8.5084e-11,0.00077819,-3.0442e-06,-22.873,0.029631
9749,2.22,1.7273,0,0.00057166,5712.7,0.00023013,0.77901,0.00011431,-869.49,-0.00058144,-6097.1,0.029134
9750,2.1275,1.8182,0,0.00057458,5741.8,0.00023774,0.5872,0.00010246,-1015.8,-0.00058506,-6181.6,0.026976
9751,2.22,1.8182,0.05,4.3541e-06,43.511,3.3434e-06,25.121,9.0268e-11,0.00081436,-3.3434e-06,-25.121,0.029292
9752,2.22,1.5455,0,0.00055674,5563.5,0.00021818,0.96756,0.00012258,-717.36,-0.00056543,-5886.8,0.0287
9753,2.1275,1.6364,0,0.00056165,5612.6,0.00022662,0.7258,0.0001113,-865.75,-0.00057132,-5994.7,0.02661
9754,2.22,1.6364,0.05,4.7411e-06,47.379,3.6406e-06,27.354,8.4146e-11,0.00075926,-3.6406e-06,-27.354,0.028891
9755,2.22,1.3636,0,0.00054207,5416.9,0.00020648,1.1984,0.00013043,-570.16,-0.00054948,-5678.8,0.028199
9756,2.1275,1.4545,0,0.00054889,5485.2,0.00021542,0.88798,0.00012027,-714.07,-0.00055752,-5806.7,0.026182
9757,2.22,1.4545,0.05,5.0998e-06,50.962,3.916e-06,29.423,6.4129e-11,0.00064534,-3.916e-06,-29.423,0.028424
9758,2.22,1.1818,0,0.00052814,5277.8,0.00019544,1.5046,0.00013755,-433.45,-0.00053415,-5480.3,0.027627
9759,2.1275,1.2727,0,0.00053676,5363.9,0.00020457,1.0895,0.00012893,-567.22,-0.00054413,-5624.3,0.025688
9760,2.22,1.2727,0.05,5.4122e-06,54.085,4.1559e-06,31.226,5.9005e-11,0.00063195,-4.1559e-06,-31.226,0.027889
9761,2.22,1,0,0.0005155,5151.5,0.00018539,1.9506,0.0001439,-309.77,-0.00052003,-5298.3,0.026983
9762,2.1275,1.0909,0,0.0005257,5253.4,0.00019442,1.3643,0.00013711,-429.24,-0.00053166,-5454.1,0.025123
9763,2.22,1.0909,0.05,5.6601e-06,56.562,4.3463e-06,32.656,4.9338e-11,0.00045513,-4.3463e-06,-32.656,0.027282
9764,2.22,0.81818,0,0.00050467,5043.3,0.00017656,2.7011,0.00014962,-199.73,-0.00050772,-5138.7,0.026261
9765,2.1275,0.90909,0,0.00051619,5158.3,0.00018524,1.7778,0.00014478,-302.18,-0.00052062,-5301.8,0.024483
9766,2.22,0.90909,0.05,5.8274e-06,58.234,4.4747e-06,33.621,2.9647e-11,0.00034293,-4.4747e-06,-33.621,0.0266
9767,2.22,0.63636,0,0.00049609,4957.5,0.00016919,4.3687,0.00015479,-103.81,-0.0004977,-5006.3,0.025457
9768,2.1275,0.72727,0,0.0005086,5082.5,0.00017724,2.5257,0.00015198,-187.27,-0.00051148,-5172.2,0.023763
9769,2.22,0.72727,0.05,5.9074e-06,59.033,4.5361e-06,34.083,2.2894e-11,0.00027019,-4.5361e-06,-34.083,0.025838
9770,2.22,0.45455,0,0.00049008,4897.4,0.00016416,12.742,0.00015877,-27.801,-0.00049032,-4904.8,0.024567
9771,2.1275,0.54545,0,0.00050321,5028.6,0.0001707,4.4513,0.00015859,-86.535,-0.00050454,-5069,0.022959
9772,2.22,0.54545,0.05,5.9136e-06,59.095,4.5409e-06,34.119,1.5002e-11,0.00017479,-4.5409e-06,-34.119,0.024992
9773,2.22,0.27273,0,0.00048771,4873.8,0.00016662,65.473,0.00015733,-4.3228,-0.00048664,-4842.8,0.023587
9774,2.1275,0.36364,0,0.0005002,4998.5,0.00016748,20.662,0.00016287,-14.022,-0.00050007,-4995.1,0.022064
9775,2.22,0.36364,0.05,6.0278e-06,60.237,4.6286e-06,34.778,6.0744e-12,9.9015e-05,-4.6286e-06,-34.778,0.024057
9776,2.1275,0.18182,0,0.00050141,5010.7,0.00017341,93.67,0.00016057,-2.7719,-0.0004998,-4964.5,0.021073
9777,2.22,0.18182,0.05,8.958e-06,89.519,6.8787e-06,51.684,-4.1407e-12,2.609e-05,-6.8787e-06,-51.683,0.023029
9778,2.22,0.090909,0,0.00047936,4790.3,0.00016322,60.74,0.00015522,0.62799,-0.00047828,-4759.3,0.02251
9779,2.035,5.7273,0,0.00051389,5135.3,0.00017348,42.917,0.00016691,-6.4285,-0.00051325,-5116.9,0.019658
9780,1.9425,5.8182,0,0.00052647,5261,0.0001806,80.328,0.00016945,-3.4538,-0.00052511,-5222.1,0.017348
9781,2.035,5.8182,0.05,8.1651e-06,81.594,6.2698e-06,47.108,2.474e-12,-3.1256e-05,-6.2698e-06,-47.109,0.019136
9782,2.035,5.9091,0,0.0005078,5074.5,0.00017203,53.882,0.00016496,0.72251,-0.00050685,-5047,0.018653
9783,2.035,5.5455,0,0.00051333,5129.7,0.00017304,5.0245,0.00016368,-65.263,-0.00051431,-5159.5,0.020561
9784,1.9425,5.6364,0,0.00052264,5222.8,0.00017492,7.9035,0.00016905,-36.235,-0.00052311,-5236.9,0.018263
9785,2.035,5.6364,0.05,5.2174e-06,52.138,4.0063e-06,30.102,-9.6028e-12,-0.00010396,-4.0063e-06,-30.102,0.02009
9786,2.035,5.3636,0,0.00051577,5154.1,0.00017872,2.392,0.00015587,-169.28,-0.00051839,-5235.4,0.02137
9787,1.9425,5.4545,0,0.00052258,5222.2,0.00017963,2.5294,0.00016044,-141.61,-0.00052479,-5290.2,0.01908
9788,2.035,5.4545,0.05,5.1736e-06,51.7,3.9727e-06,29.849,-1.7575e-11,-0.00020464,-3.9727e-06,-29.849,0.020945
9789,2.035,5.1818,0,0.00052022,5198.6,0.00018592,1.6416,0.00014725,-288.92,-0.00052449,-5336.1,0.02209
9790,1.9425,5.2727,0,0.00052442,5240.6,0.0001862,1.6273,0.0001506,-265.86,-0.00052841,-5367.6,0.019804
9791,2.035,5.2727,0.05,5.2414e-06,52.378,4.0248e-06,30.241,-2.7017e-11,-0.00030332,-4.0248e-06,-30.241,0.021709
9792,2.035,5,0,0.00052653,5261.7,0.00019427,1.2404,0.00013813,-420.64,-0.00053239,-5458.6,0.022728
9793,1.9425,5.0909,0,0.00052812,5277.6,0.00019394,1.1908,0.0001402,-402.53,-0.00053379,-5466.6,0.020442
9794,2.035,5.0909,0.05,5.2363e-06,52.327,4.0209e-06,30.211,-3.2043e-11,-0.0003454,-4.0209e-06,-30.211,0.022387
9795,2.035,4.8182,0,0.00053448,5341.1,0.00020356,0.98486,0.00012864,-561.93,-0.00054179,-5599.3,0.023289
9796,1.9425,4.9091,0,0.00053358,5332.1,0.00020261,0.93383,0.00012954,-548.08,-0.00054076,-5584.4,0.021001
9797,2.035,4.9091,0.05,5.1417e-06,51.382,3.9482e-06,29.665,-4.8551e-11,-0.00044438,-3.9482e-06,-29.665,0.022985
9798,2.035,4.6364,0,0.00054374,5433.6,0.00021352,0.80019,0.0001189,-710.15,-0.0005523,-5753.3,0.023779
9799,1.9425,4.7273,0,0.00054057,5401.9,0.00021197,0.75459,0.00011878,-699.38,-0.00054903,-5717.1,0.021487
9800,2.035,4.7273,0.05,4.9578e-06,49.544,3.807e-06,28.604,-5.4105e-11,-0.0005912,-3.8069e-06,-28.604,0.023509
9801,2.035,4.4545,0,0.00055393,5535.4,0.00022386,0.65529,0.00010909,-861.7,-0.00056351,-5915.4,0.024202
9802,1.9425,4.5455,0,0.00054877,5483.9,0.00022175,0.61972,0.00010813,-853.09,-0.00055826,-5860.1,0.021907
9803,2.035,4.5455,0.05,4.6899e-06,46.867,3.6013e-06,27.059,-6.2572e-11,-0.00059509,-3.6012e-06,-27.058,0.023965
9804,2.035,4.2727,0,0.00056465,5642.6,0.00023423,0.53426,9.9521e-05,-1011.6,-0.000575,-6079.7,0.024564
9805,1.9425,4.3636,0,0.00055782,5574.4,0.00023165,0.50934,9.7815e-05,-1005.1,-0.00056806,-6008.2,0.022266
9806,2.035,4.3636,0.05,4.3458e-06,43.428,3.3371e-06,25.073,-6.4886e-11,-0.00061197,-3.337e-06,-25.073,0.024356
9807,2.035,4.0909,0,0.00057551,5751.1,0.00024421,0.43258,9.0609e-05,-1153.6,-0.00058637,-6240.2,0.024869
9808,1.9425,4.1818,0,0.00056733,5669.3,0.00024132,0.41578,8.8168e-05,-1150.3,-0.00057805,-6156,0.022568
9809,2.035,4.1818,0.05,3.9362e-06,39.335,3.0225e-06,22.71,-7.8919e-11,-0.00072242,-3.0225e-06,-22.71,0.024689
9810,2.035,3.9091,0,0.00058604,5856.3,0.00025339,0.35462,8.2799e-05,-1281.4,-0.00059721,-6390.7,0.025121
9811,1.9425,4,0,0.00057685,5764.5,0.00025037,0.3387,7.9557e-05,-1283.1,-0.00058785,-6297.7,0.022819
9812,2.035,4,0.05,3.4814e-06,34.79,2.6733e-06,20.086,-8.714e-11,-0.00067006,-2.6732e-06,-20.086,0.024966
9813,2.035,3.7273,0,0.00059575,5953.4,0.00026138,0.30674,7.6433e-05,-1389.3,-0.00060708,-6525,0.025324
9814,1.9425,3.8182,0,0.00058594,5855.3,0.00025847,0.2836,7.2317e-05,-1398.4,-0.00059704,-6427.7,0.023023
9815,2.035,3.8182,0.05,3.019e-06,30.169,2.3183e-06,17.418,-8.0591e-11,-0.00061507,-2.3182e-06,-17.418,0.025193
9816,2.035,3.5455,0,0.00060409,6036.8,0.00026788,0.28666,7.1668e-05,-1474,-0.0006155,-6637.1,0.025479
9817,1.9425,3.6364,0,0.00059408,5936.7,0.00026528,0.25312,6.6648e-05,-1492.2,-0.00060521,-6540.3,0.023182
9818,2.035,3.6364,0.05,2.6029e-06,26.011,1.9988e-06,15.018,-7.2184e-11,-0.00055991,-1.9987e-06,-15.018,0.025371
9819,2.035,3.3636,0,0.00061053,6101.1,0.00027264,0.28495,6.8459e-05,-1533.9,-0.00062197,-6721.5,0.025589
9820,1.9425,3.4545,0,0.00060077,6003.6,0.00027057,0.24253,6.2583e-05,-1562.5,-0.00061189,-6630.2,0.0233
9821,2.035,3.4545,0.05,2.2851e-06,22.835,1.7547e-06,13.184,-5.0599e-11,-0.00046507,-1.7546e-06,-13.184,0.025503
9822,2.035,3.1818,0,0.0006146,6141.8,0.00027555,0.29053,6.6645e-05,-1569.3,-0.00062605,-6774,0.025655
9823,1.9425,3.2727,0,0.00060554,6051.2,0.00027417,0.24363,6.0013e-05,-1608.9,-0.00061663,-6692.9,0.023378
9824,2.035,3.2727,0.05,2.0891e-06,20.877,1.6042e-06,12.053,-2.9633e-11,-0.00026109,-1.6042e-06,-12.053,0.025591
9825,2.035,3,0,0.00061599,6155.7,0.00027652,0.2937,6.6063e-05,-1581,-0.00062745,-6791.8,0.025677
9826,1.9425,3.0909,0,0.00060802,6076,0.00027599,0.24723,5.8782e-05,-1631.8,-0.0006191,-6725.1,0.023416
9827,2.035,3.0909,0.05,2.0024e-06,20.01,1.5376e-06,11.553,-9.1521e-12,-9.2374e-05,-1.5376e-06,-11.553,0.025634
9828,2.035,2.8182,0,0.0006146,6141.8,0.00027555,0.29053,6.6645e-05,-1569.3,-0.00062605,-6774,0.025655
9829,1.9425,2.9091,0,0.00060802,6076,0.00027599,0.24723,5.8782e-05,-1631.8,-0.0006191,-6725.1,0.023416
9830,2.035,2.9091,0.05,2.0024e-06,20.01,1.5376e-06,11.553,9.3318e-12,9.4045e-05,-1.5376e-06,-11.553,0.025634
9831,2.035,2.6364,0,0.00061053,6101.1,0.00027264,0.28495,6.8459e-05,-1533.9,-0.00062197,-6721.5,0.025589
9832,1.9425,2.7273,0,0.00060554,6051.2,0.00027417,0.24363,6.0013e-05,-1608.9,-0.00061663,-6692.9,0.023378
9833,2.035,2.7273,0.05,2.0891e-06,20.877,1.6042e-06,12.053,3.1687e-11,0.0002959,-1.6042e-06,-12.053,0.025591
9834,2.035,2.4545,0,0.00060409,6036.8,0.00026788,0.28666,7.1668e-05,-1474,-0.0006155,-6637.1,0.025479
9835,1.9425,2.5455,0,0.00060077,6003.6,0.00027057,0.24253,6.2583e-05,-1562.5,-0.00061189,-6630.2,0.0233
9836,2.035,2.5455,0.05,2.2851e-06,22.835,1.7546e-06,13.184,4.8924e-11,0.00046403,-1.7547e-06,-13.184,0.025503
9837,2.035,2.2727,0,0.00059575,5953.4,0.00026138,0.30674,7.6433e-05,-1389.3,-0.00060708,-6525,0.025324
9838,1.9425,2.3636,0,0.00059408,5936.7,0.00026528,0.25312,6.6648e-05,-1492.2,-0.00060521,-6540.3,0.023182
9839,2.035,2.3636,0.05,2.6029e-06,26.011,1.9987e-06,15.018,6.5897e-11,0.00055003,-1.9988e-06,-15.018,0.025371
9840,2.035,2.0909,0,0.00058604,5856.3,0.00025339,0.35462,8.2799e-05,-1281.4,-0.00059721,-6390.7,0.025121
9841,1.9425,2.1818,0,0.00058594,5855.3,0.00025847,0.2836,7.2317e-05,-1398.4,-0.00059704,-6427.7,0.023023
9842,2.035,2.1818,0.05,3.019e-06,30.169,2.3182e-06,17.418,7.2654e-11,0.00067021,-2.3183e-06,-17.418,0.025193
9843,2.035,1.9091,0,0.00057551,5751.1,0.00024421,0.43258,9.0609e-05,-1153.6,-0.00058637,-6240.2,0.024869
9844,1.9425,2,0,0.00057685,5764.5,0.00025037,0.3387,7.9557e-05,-1283.1,-0.00058785,-6297.7,0.022819
9845,2.035,2,0.05,3.4814e-06,34.79,2.6732e-06,20.086,8.712e-11,0.00067101,-2.6733e-06,-20.086,0.024966
9846,2.035,1.7273,0,0.00056465,5642.6,0.00023423,0.53426,9.9521e-05,-1011.6,-0.000575,-6079.7,0.024564
9847,1.9425,1.8182,0,0.00056733,5669.3,0.00024132,0.41578,8.8168e-05,-1150.3,-0.00057805,-6156,0.022568
9848,2.035,1.8182,0.05,3.9362e-06,39.335,3.0225e-06,22.71,7.9693e-11,0.00073167,-3.0225e-06,-22.71,0.024689
9849,2.035,1.5455,0,0.00055393,5535.4,0.00022386,0.65529,0.00010909,-861.7,-0.00056351,-5915.4,0.024202
9850,1.9425,1.6364,0,0.00055782,5574.4,0.00023165,0.50934,9.7815e-05,-1005.1,-0.00056806,-6008.2,0.022266
9851,2.035,1.6364,0.05,4.3458e-06,43.428,3.337e-06,25.073,7.2186e-11,0.00061756,-3.3371e-06,-25.073,0.024356
9852,2.035,1.3636,0,0.00054374,5433.6,0.00021352,0.80019,0.0001189,-710.15,-0.0005523,-5753.3,0.023779
9853,1.9425,1.4545,0,0.00054877,5483.9,0.00022175,0.61972,0.00010813,-853.09,-0.00055826,-5860.1,0.021907
9854,2.035,1.4545,0.05,4.6899e-06,46.867,3.6012e-06,27.058,7.4553e-11,0.00069088,-3.6013e-06,-27.058,0.023965
9855,2.035,1.1818,0,0.00053448,5341.1,0.00020356,0.98486,0.00012864,-561.93,-0.00054179,-5599.3,0.023289
9856,1.9425,1.2727,0,0.00054056,5401.9,0.00021197,0.75459,0.00011878,-699.38,-0.00054903,-5717.1,0.021487
9857,2.035,1.2727,0.05,4.9578e-06,49.544,3.8069e-06,28.604,5.5871e-11,0.00054526,-3.807e-06,-28.604,0.023509
9858,2.035,1,0,0.00052653,5261.6,0.00019427,1.2404,0.00013813,-420.64,-0.00053239,-5458.6,0.022728
9859,1.9425,1.0909,0,0.00053358,5332.1,0.00020261,0.93383,0.00012954,-548.08,-0.00054076,-5584.4,0.021001
9860,2.035,1.0909,0.05,5.1417e-06,51.382,3.9482e-06,29.665,4.2058e-11,0.00045963,-3.9482e-06,-29.665,0.022985
9861,2.035,0.81818,0,0.00052022,5198.6,0.00018592,1.6416,0.00014725,-288.92,-0.00052449,-5336.1,0.02209
9862,1.9425,0.90909,0,0.00052812,5277.6,0.00019394,1.1908,0.0001402,-402.53,-0.00053379,-5466.6,0.020442
9863,2.035,0.90909,0.05,5.2363e-06,52.327,4.0209e-06,30.211,4.0042e-11,0.00038113,-4.0209e-06,-30.211,0.022387
9864,2.035,0.63636,0,0.00051577,5154.1,0.00017872,2.392,0.00015587,-169.28,-0.00051839,-5235.4,0.02137
9865,1.9425,0.72727,0,0.00052442,5240.6,0.0001862,1.6273,0.0001506,-265.86,-0.00052841,-5367.6,0.019804
9866,2.035,0.72727,0.05,5.2414e-06,52.378,4.0248e-06,30.241,2.7017e-11,0.00030971,-4.0248e-06,-30.241,0.021709
9867,2.035,0.45455,0,0.00051333,5129.7,0.00017304,5.0245,0.00016368,-65.263,-0.00051431,-5159.5,0.020561
9868,1.9425,0.54545,0,0.00052258,5222.2,0.00017963,2.5294,0.00016044,-141.61,-0.00052479,-5290.2,0.01908
9869,2.035,0.54545,0.05,5.1736e-06,51.7,3.9727e-06,29.849,1.6482e-11,0.00024163,-3.9727e-06,-29.849,0.020945
9870,2.035,0.27273,0,0.00051389,5135.3,0.00017348,42.917,0.00016691,-6.4285,-0.00051325,-5116.9,0.019658
9871,1.9425,0.36364,0,0.00052264,5222.8,0.00017492,7.9035,0.00016905,-36.235,-0.00052311,-5236.9,0.018263
9872,2.035,0.36364,0.05,5.2174e-06,52.138,4.0063e-06,30.102,5.0526e-12,0.00011887,-4.0063e-06,-30.102,0.02009
9873,1.9425,0.18182,0,0.00052647,5261,0.0001806,80.328,0.00016945,-3.4538,-0.00052511,-5222.1,0.017348
9874,2.035,0.18182,0.05,8.1651e-06,81.594,6.2698e-06,47.109,-5.9798e-12,3.3192e-05,-6.2698e-06,-47.108,0.019136
9875,2.035,0.090909,0,0.0005078,5074.5,0.00017203,53.882,0.00016496,0.72251,-0.00050685,-5047,0.018653
9876,1.85,5.7273,0,0.00053519,5348.2,0.00017922,24.092,0.00017441,-12.038,-0.00053497,-5342.1,0.016066
9877,1.7575,5.8182,0,0.00054688,5465,0.00018649,69.484,0.00017664,-4.5235,-0.00054574,-5432.2,0.013968
9878,1.85,5.8182,0.05,7.5127e-06,75.076,5.7688e-06,43.345,1.8481e-12,-3.9823e-05,-5.7689e-06,-43.345,0.015581
9879,1.85,5.9091,0,0.00053115,5307.8,0.00017926,48.168,0.00017296,0.82061,-0.0005303,-5283.1,0.015135
9880,1.85,5.5455,0,0.00053186,5314.9,0.00018119,2.9733,0.00016613,-110.13,-0.00053359,-5367.6,0.016892
9881,1.7575,5.6364,0,0.00054044,5400.7,0.00018211,4.4691,0.00017237,-68.668,-0.00054149,-5432.4,0.014808
9882,1.85,5.6364,0.05,4.5646e-06,45.615,3.5051e-06,26.336,-1.0754e-11,-0.00015957,-3.5051e-06,-26.336,0.016459
9883,1.85,5.3636,0,0.00053122,5308.6,0.00018709,1.6126,0.00015522,-237.85,-0.00053484,-5422.6,0.017622
9884,1.7575,5.4545,0,0.00053761,5372.4,0.00018738,1.775,0.00016049,-200.27,-0.0005407,-5468.8,0.015546
9885,1.85,5.4545,0.05,4.6101e-06,46.069,3.54e-06,26.598,-2.512e-11,-0.00023906,-3.54e-06,-26.598,0.017237
9886,1.85,5.1818,0,0.00053234,5319.7,0.00019421,1.1575,0.0001436,-379.11,-0.00053775,-5498.5,0.018263
9887,1.7575,5.2727,0,0.00053651,5361.4,0.00019408,1.2134,0.00014768,-347.41,-0.00054155,-5526,0.016191
9888,1.85,5.2727,0.05,4.7583e-06,47.55,3.6538e-06,27.453,-3.1195e-11,-0.00029197,-3.6538e-06,-27.453,0.017921
9889,1.85,5,0,0.0005352,5348.3,0.00020227,0.88633,0.00013167,-529.54,-0.00054221,-5592.8,0.018822
9890,1.7575,5.0909,0,0.00053719,5368.2,0.00020174,0.89716,0.0001345,-504.3,-0.00054397,-5602.1,0.016752
9891,1.85,5.0909,0.05,4.8243e-06,48.209,3.7045e-06,27.834,-3.7456e-11,-0.0003588,-3.7044e-06,-27.834,0.01852
9892,1.85,4.8182,0,0.0005397,5393.3,0.00021101,0.7083,0.00011974,-685.1,-0.00054806,-5702.7,0.019307
9893,1.7575,4.9091,0,0.00053968,5393,0.00021011,0.7076,0.0001214,-665.88,-0.00054789,-5694.6,0.017236
9894,1.85,4.9091,0.05,4.7895e-06,47.862,3.6777e-06,27.633,-4.6326e-11,-0.00045609,-3.6777e-06,-27.633,0.019041
9895,1.85,4.6364,0,0.00054564,5452.6,0.0002202,0.57701,0.00010806,-841.95,-0.00055505,-5824.3,0.019724
9896,1.7575,4.7273,0,0.00054382,5434.5,0.00021894,0.5726,0.00010869,-827.83,-0.00055314,-5800.5,0.017651
9897,1.85,4.7273,0.05,4.6522e-06,46.49,3.5723e-06,26.841,-5.3208e-11,-0.00049787,-3.5723e-06,-26.841,0.01949
9898,1.85,4.4545,0,0.0005527,5523.2,0.00022954,0.47392,9.6886e-05,-996.22,-0.00056285,-5953.2,0.020079
9899,1.7575,4.5455,0,0.00054937,5489.9,0.00022798,0.47147,9.6646e-05,-986.3,-0.00055944,-5915.9,0.018004
9900,1.85,4.5455,0.05,4.416e-06,44.129,3.3909e-06,25.478,-5.3959e-11,-0.00064897,-3.3909e-06,-25.478,0.019875
9901,1.85,4.2727,0,0.00056052,5601.3,0.00023874,0.38857,8.6474e-05,-1143.7,-0.00057113,-6084.6,0.020379
9902,1.7575,4.3636,0,0.00055595,5555.7,0.00023694,0.38987,8.5482e-05,-1137.6,-0.00056648,-6036.2,0.018301
9903,1.85,4.3636,0.05,4.0872e-06,40.843,3.1385e-06,23.581,-6.5446e-11,-0.00057529,-3.1384e-06,-23.581,0.020201
9904,1.85,4.0909,0,0.00056868,5682.9,0.00024748,0.31795,7.7104e-05,-1279.8,-0.00057952,-6213.4,0.020628
9905,1.7575,4.1818,0,0.00056317,5627.8,0.00024554,0.32192,7.5416e-05,-1277.9,-0.0005739,-6156.7,0.018548
9906,1.85,4.1818,0.05,3.6756e-06,36.73,2.8224e-06,21.206,-5.8864e-11,-0.00049695,-2.8224e-06,-21.206,0.020475
9907,1.85,3.9091,0,0.00057675,5763.5,0.00025545,0.26306,6.9037e-05,-1400.4,-0.00058765,-6334.4,0.020832
9908,1.7575,4,0,0.00057057,5701.8,0.00025351,0.26675,6.6654e-05,-1403.7,-0.00058133,-6272.4,0.018751
9909,1.85,4,0.05,3.1969e-06,31.947,2.4548e-06,18.444,-5.9802e-11,-0.00050975,-2.4548e-06,-18.444,0.0207
9910,1.85,3.7273,0,0.00058425,5838.5,0.00026236,0.22561,6.2464e-05,-1501.7,-0.00059511,-6442.5,0.020994
9911,1.7575,3.8182,0,0.00057772,5773.2,0.00026058,0.22572,5.936e-05,-1511.7,-0.00058838,-6378.5,0.018914
9912,1.85,3.8182,0.05,2.6753e-06,26.734,2.0543e-06,15.435,-5.5376e-11,-0.00058819,-2.0542e-06,-15.435,0.020882
9913,1.85,3.5455,0,0.00059072,5903.1,0.00026797,0.20546,5.7465e-05,-1581.5,-0.0006015,-6532.7,0.021117
9914,1.7575,3.6364,0,0.00058416,5837.6,0.0002665,0.19974,5.3623e-05,-1599.3,-0.00059468,-6470.4,0.01904
9915,1.85,3.6364,0.05,2.1435e-06,21.42,1.6459e-06,12.367,-5.3413e-11,-0.00050689,-1.6459e-06,-12.367,0.021023
9916,1.85,3.3636,0,0.00059572,5953.1,0.0002721,0.1987,5.4009e-05,-1638.4,-0.00060642,-6600.6,0.021203
9917,1.7575,3.4545,0,0.00058945,5890.4,0.0002711,0.18726,4.9442e-05,-1665.3,-0.00059983,-6543.7,0.019132
9918,1.85,3.4545,0.05,1.6407e-06,16.396,1.2599e-06,9.4662,-4.713e-11,-0.00038582,-1.2598e-06,-9.466,0.021128
9919,1.85,3.1818,0,0.00059889,5984.7,0.00027462,0.1986,5.2001e-05,-1672.4,-0.00060953,-6642.9,0.021254
9920,1.7575,3.2727,0,0.00059322,5928.1,0.00027423,0.18365,4.6742e-05,-1709.1,-0.00060349,-6594.7,0.019192
9921,1.85,3.2727,0.05,1.2157e-06,12.149,9.3352e-07,7.014,-4.0386e-11,-0.00037027,-9.3347e-07,-7.0138,0.021196
9922,1.85,3,0,0.00059997,5995.5,0.00027546,0.19932,5.1345e-05,-1683.7,-0.00061059,-6657.2,0.021271
9923,1.7575,3.0909,0,0.00059517,5947.6,0.00027582,0.18356,4.5425e-05,-1730.9,-0.0006054,-6621,0.019222
9924,1.85,3.0909,0.05,9.4799e-07,9.4733,7.2795e-07,5.4695,-1.9662e-11,-0.0001443,-7.2793e-07,-5.4694,0.02123
9925,1.85,2.8182,0,0.00059889,5984.7,0.00027462,0.1986,5.2001e-05,-1672.4,-0.00060953,-6642.9,0.021254
9926,1.7575,2.9091,0,0.00059517,5947.6,0.00027582,0.18356,4.5425e-05,-1730.9,-0.0006054,-6621,0.019222
9927,1.85,2.9091,0.05,9.4799e-07,9.4733,7.2793e-07,5.4694,1.9586e-11,0.00017047,-7.2794e-07,-5.4694,0.02123
9928,1.85,2.6364,0,0.00059572,5953.1,0.0002721,0.1987,5.4009e-05,-1638.4,-0.00060642,-6600.6,0.021203
9929,1.7575,2.7273,0,0.00059322,5928.1,0.00027423,0.18365,4.6742e-05,-1709.1,-0.00060349,-6594.7,0.019192
9930,1.85,2.7273,0.05,1.2157e-06,12.149,9.3348e-07,7.0138,4.3948e-11,0.00036653,-9.3352e-07,-7.014,0.021196
9931,1.85,2.4545,0,0.00059072,5903.1,0.00026797,0.20546,5.7465e-05,-1581.5,-0.0006015,-6532.7,0.021117
9932,1.7575,2.5455,0,0.00058945,5890.4,0.0002711,0.18726,4.9442e-05,-1665.3,-0.00059983,-6543.7,0.019132
9933,1.85,2.5455,0.05,1.6407e-06,16.396,1.2598e-06,9.466,5.9519e-11,0.00038312,-1.2599e-06,-9.4662,0.021128
9934,1.85,2.2727,0,0.00058425,5838.5,0.00026236,0.22561,6.2464e-05,-1501.7,-0.00059511,-6442.5,0.020994
9935,1.7575,2.3636,0,0.00058416,5837.6,0.0002665,0.19974,5.3623e-05,-1599.3,-0.00059468,-6470.4,0.01904
9936,1.85,2.3636,0.05,2.1435e-06,21.42,1.6459e-06,12.367,5.3402e-11,0.00050579,-1.6459e-06,-12.367,0.021023
9937,1.85,2.0909,0,0.00057674,5763.5,0.00025545,0.26306,6.9037e-05,-1400.4,-0.00058765,-6334.4,0.020832
9938,1.7575,2.1818,0,0.00057772,5773.2,0.00026058,0.22572,5.936e-05,-1511.7,-0.00058838,-6378.5,0.018914
9939,1.85,2.1818,0.05,2.6753e-06,26.734,2.0542e-06,15.435,5.5464e-11,0.00058958,-2.0543e-06,-15.435,0.020882
9940,1.85,1.9091,0,0.00056868,5682.9,0.00024748,0.31795,7.7104e-05,-1279.8,-0.00057952,-6213.4,0.020628
9941,1.7575,2,0,0.00057057,5701.8,0.00025351,0.26675,6.6654e-05,-1403.7,-0.00058133,-6272.4,0.018751
9942,1.85,2,0.05,3.1969e-06,31.947,2.4548e-06,18.444,7.4193e-11,0.00062822,-2.4548e-06,-18.444,0.0207
9943,1.85,1.7273,0,0.00056052,5601.3,0.00023874,0.38857,8.6473e-05,-1143.7,-0.00057113,-6084.6,0.020379
9944,1.7575,1.8182,0,0.00056317,5627.8,0.00024554,0.32192,7.5416e-05,-1277.9,-0.0005739,-6156.7,0.018548
9945,1.85,1.8182,0.05,3.6756e-06,36.73,2.8224e-06,21.206,6.5706e-11,0.00057056,-2.8224e-06,-21.206,0.020475
9946,1.85,1.5455,0,0.0005527,5523.2,0.00022954,0.47392,9.6886e-05,-996.22,-0.00056285,-5953.2,0.020079
9947,1.7575,1.6364,0,0.00055595,5555.7,0.00023694,0.38987,8.5482e-05,-1137.6,-0.00056648,-6036.2,0.018301
9948,1.85,1.6364,0.05,4.0872e-06,40.843,3.1384e-06,23.581,6.0192e-11,0.00048415,-3.1385e-06,-23.581,0.020201
9949,1.85,1.3636,0,0.00054564,5452.6,0.0002202,0.57701,0.00010806,-841.95,-0.00055505,-5824.3,0.019724
9950,1.7575,1.4545,0,0.00054937,5489.9,0.00022798,0.47147,9.6645e-05,-986.3,-0.00055944,-5915.9,0.018004
9951,1.85,1.4545,0.05,4.416e-06,44.129,3.3909e-06,25.478,6.0325e-11,0.00056999,-3.3909e-06,-25.478,0.019875
9952,1.85,1.1818,0,0.0005397,5393.3,0.00021101,0.7083,0.00011974,-685.1,-0.00054806,-5702.7,0.019307
9953,1.7575,1.2727,0,0.00054382,5434.5,0.00021894,0.5726,0.00010869,-827.83,-0.00055314,-5800.5,0.017651
9954,1.85,1.2727,0.05,4.6522e-06,46.49,3.5723e-06,26.841,5.2886e-11,0.0004676,-3.5723e-06,-26.841,0.01949
9955,1.85,1,0,0.0005352,5348.3,0.00020227,0.88633,0.00013167,-529.54,-0.00054221,-5592.8,0.018822
9956,1.7575,1.0909,0,0.00053968,5393,0.00021011,0.7076,0.0001214,-665.88,-0.00054789,-5694.6,0.017236
9957,1.85,1.0909,0.05,4.7895e-06,47.862,3.6777e-06,27.633,4.7225e-11,0.00044102,-3.6777e-06,-27.633,0.019041
9958,1.85,0.81818,0,0.00053234,5319.7,0.00019421,1.1575,0.0001436,-379.11,-0.00053775,-5498.5,0.018263
9959,1.7575,0.90909,0,0.00053719,5368.2,0.00020174,0.89716,0.0001345,-504.3,-0.00054397,-5602.1,0.016752
9960,1.85,0.90909,0.05,4.8243e-06,48.209,3.7044e-06,27.834,4.2983e-11,0.00041713,-3.7045e-06,-27.834,0.01852
9961,1.85,0.63636,0,0.00053122,5308.6,0.00018709,1.6126,0.00015522,-237.85,-0.00053484,-5422.6,0.017622
9962,1.7575,0.72727,0,0.00053651,5361.4,0.00019408,1.2134,0.00014768,-347.41,-0.00054155,-5526,0.016191
9963,1.85,0.72727,0.05,4.7583e-06,47.55,3.6538e-06,27.453,2.8598e-11,0.00028439,-3.6538e-06,-27.453,0.017921
9964,1.85,0.45455,0,0.00053186,5314.9,0.00018119,2.9733,0.00016613,-110.13,-0.00053359,-5367.6,0.016892
9965,1.7575,0.54545,0,0.00053761,5372.4,0.00018738,1.775,0.00016049,-200.27,-0.0005407,-5468.8,0.015546
9966,1.85,0.54545,0.05,4.6101e-06,46.069,3.54e-06,26.598,2.5996e-11,0.00023906,-3.54e-06,-26.598,0.017237
9967,1.85,0.27273,0,0.00053519,5348.2,0.00017922,24.092,0.00017441,-12.038,-0.00053497,-5342.1,0.016066
9968,1.7575,0.36364,0,0.00054044,5400.7,0.00018211,4.4691,0.00017237,-68.668,-0.00054149,-5432.4,0.014808
9969,1.85,0.36364,0.05,4.5646e-06,45.615,3.5051e-06,26.336,1.1831e-11,0.00018194,-3.5051e-06,-26.336,0.016459
9970,1.7575,0.18182,0,0.00054688,5465,0.00018649,69.484,0.00017664,-4.5235,-0.00054574,-5432.2,0.013968
9971,1.85,0.18182,0.05,7.5127e-06,75.076,5.7689e-06,43.345,-1.8481e-12,4.4183e-05,-5.7688e-06,-43.345,0.015581
9972,1.85,0.090909,0,0.00053115,5307.8,0.00017926,48.168,0.00017296,0.82061,-0.0005303,-5283.1,0.015135
9973,1.665,5.7273,0,0.00055207,5516.9,0.0001845,13.189,0.00017948,-24.52,-0.00055225,-5522.5,0.012826
9974,1.5725,5.8182,0,0.00056301,5626.2,0.00019125,61.931,0.00018221,-6.0065,-0.00056202,-5597.9,0.010948
9975,1.665,5.8182,0.05,6.9916e-06,69.868,5.3687e-06,40.338,2.5741e-12,-6.009e-05,-5.3687e-06,-40.338,0.012379
9976,1.665,5.9091,0,0.00054983,5494.5,0.00018509,44.262,0.00017932,0.91438,-0.00054905,-5471.8,0.011971
9977,1.665,5.5455,0,0.00054613,5457.5,0.00018817,2.2314,0.00016687,-157.79,-0.0005486,-5533.5,0.013575
9978,1.5725,5.6364,0,0.00055393,5535.5,0.0001882,3.3531,0.00017391,-104.01,-0.00055556,-5585,0.011709
9979,1.665,5.6364,0.05,4.0837e-06,40.808,3.1358e-06,23.561,-2.1097e-11,-0.00027722,-3.1357e-06,-23.561,0.01318
9980,1.665,5.3636,0,0.00054284,5424.7,0.00019436,1.2592,0.00015298,-309.67,-0.00054742,-5572.2,0.014226
9981,1.5725,5.4545,0,0.00054862,5482.4,0.000194,1.395,0.00015889,-262.45,-0.00055258,-5608.1,0.012368
9982,1.665,5.4545,0.05,4.2326e-06,42.297,3.2502e-06,24.42,-2.4835e-11,-0.00032901,-3.2501e-06,-24.42,0.01388
9983,1.665,5.1818,0,0.00054132,5409.5,0.0002016,0.92326,0.0001386,-472.49,-0.00054778,-5629.7,0.01479
9984,1.5725,5.2727,0,0.00054513,5447.5,0.00020103,0.96744,0.00014317,-433.73,-0.00055118,-5650.8,0.012936
9985,1.665,5.2727,0.05,4.4547e-06,44.516,3.4207e-06,25.701,-3.3952e-11,-0.00041064,-3.4206e-06,-25.701,0.014486
9986,1.665,5,0,0.00054164,5412.6,0.00020958,0.70851,0.00012424,-640.54,-0.00054966,-5704,0.015274
9987,1.5725,5.0909,0,0.00054358,5432.1,0.00020884,0.69796,0.00012745,-610.84,-0.00055137,-5711.3,0.013421
9988,1.665,5.0909,0.05,4.5752e-06,45.72,3.5132e-06,26.397,-3.9372e-11,-0.00043122,-3.5131e-06,-26.397,0.015009
9989,1.665,4.8182,0,0.00054377,5433.9,0.00021804,0.56785,0.00011036,-808.55,-0.00055297,-5792.6,0.015687
9990,1.5725,4.9091,0,0.00054408,5437,0.00021717,0.53899,0.00011231,-787.31,-0.00055316,-5787.4,0.013834
9991,1.665,4.9091,0.05,4.5794e-06,45.762,3.5164e-06,26.421,-4.7048e-11,-0.00044882,-3.5164e-06,-26.421,0.015456
9992,1.665,4.6364,0,0.00054753,5471.5,0.00022673,0.46458,9.7276e-05,-972.17,-0.00055753,-5892.2,0.016038
9993,1.5725,4.7273,0,0.00054647,5460.9,0.00022573,0.42633,9.8158e-05,-958.13,-0.00055641,-5876.3,0.014182
9994,1.665,4.7273,0.05,4.4697e-06,44.666,3.4322e-06,25.788,-5.0435e-11,-0.00044243,-3.4322e-06,-25.788,0.015837
9995,1.665,4.4545,0,0.0005526,5522.2,0.00023538,0.38504,8.5233e-05,-1127.7,-0.00056306,-5998.8,0.016333
9996,1.5725,4.5455,0,0.00055045,5500.7,0.00023429,0.3443,8.5236e-05,-1119.6,-0.00056087,-5974.2,0.014474
9997,1.665,4.5455,0.05,4.2535e-06,42.506,3.2662e-06,24.541,-4.995e-11,-0.000439,-3.2661e-06,-24.541,0.016158
9998,1.665,4.2727,0,0.00055859,5582,0.00024374,0.3205,7.4406e-05,-1272,-0.00056923,-6108.1,0.016578
9999,1.5725,4.3636,0,0.00055562,5552.4,0.0002426,0.27991,7.3691e-05,-1268.9,-0.00056621,-6076.8,0.014717
10000,1.665,4.3636,0.05,3.9405e-06,39.377,3.0258e-06,22.735,-5.2988e-11,-0.00045975,-3.0258e-06,-22.735,0.016426
10001,1.665,4.0909,0,0.00056505,5646.6,0.00025158,0.26769,6.4936e-05,-1402.1,-0.00057567,-6215.4,0.016779
10002,1.5725,4.1818,0,0.00056152,5611.3,0.00025045,0.22759,6.3604e-05,-1403.6,-0.00057205,-6179.7,0.014916
10003,1.665,4.1818,0.05,3.5425e-06,35.4,2.7202e-06,20.439,-5.0934e-11,-0.00044995,-2.7202e-06,-20.438,0.016648
10004,1.665,3.9091,0,0.00057154,5711.5,0.00025864,0.22631,5.6933e-05,-1515.3,-0.00058202,-6316.2,0.016941
10005,1.5725,4,0,0.00056768,5672.8,0.00025761,0.18532,5.5027e-05,-1521.9,-0.00057802,-6278.4,0.015077
10006,1.665,4,0.05,3.0742e-06,30.721,2.3606e-06,17.737,-4.3822e-11,-0.00038704,-2.3606e-06,-17.737,0.016829
10007,1.665,3.7273,0,0.00057761,5772.2,0.00026472,0.197,5.046e-05,-1609.7,-0.00058789,-6406,0.017069
10008,1.5725,3.8182,0,0.00057365,5732.5,0.00026389,0.15322,4.7987e-05,-1622.1,-0.00058374,-6368.6,0.015205
10009,1.665,3.8182,0.05,2.5532e-06,25.514,1.9605e-06,14.731,-4.244e-11,-0.00031892,-1.9605e-06,-14.731,0.016973
10010,1.665,3.5455,0,0.00058286,5824.6,0.00026963,0.17915,4.5525e-05,-1683.7,-0.00059293,-6480.8,0.017165
10011,1.5725,3.6364,0,0.00057901,5786.2,0.00026912,0.13144,4.2473e-05,-1702.8,-0.00058886,-6446.4,0.015302
10012,1.665,3.6364,0.05,1.9986e-06,19.972,1.5347e-06,11.531,-2.9718e-11,-0.00031933,-1.5347e-06,-11.531,0.017084
10013,1.665,3.3636,0,0.0005869,5865,0.00027324,0.17036,4.2084e-05,-1736.6,-0.00059682,-6537.1,0.017232
10014,1.5725,3.4545,0,0.00058341,5830.1,0.00027317,0.11876,3.844e-05,-1763.5,-0.00059303,-6508.2,0.015373
10015,1.665,3.4545,0.05,1.4284e-06,14.274,1.0968e-06,8.2411,-3.1396e-11,-0.00015779,-1.0968e-06,-8.2411,0.017165
10016,1.665,3.1818,0,0.00058946,5890.5,0.00027544,0.16717,4.0063e-05,-1768.4,-0.00059927,-6572,0.017271
10017,1.5725,3.2727,0,0.00058653,5861.3,0.00027592,0.11278,3.5815e-05,-1803.9,-0.000596,-6551.1,0.01542
10018,1.665,3.2727,0.05,8.552e-07,8.5461,6.5669e-07,4.9341,-6.3784e-12,-0.00018202,-6.5669e-07,-4.9341,0.017218
10019,1.665,3,0,0.00059033,5899.2,0.00027618,0.16651,3.9398e-05,-1778.9,-0.0006001,-6583.9,0.017284
10020,1.5725,3.0909,0,0.00058815,5877.4,0.00027731,0.11071,3.4526e-05,-1824.1,-0.00059753,-6573.1,0.015442
10021,1.665,3.0909,0.05,2.8466e-07,2.8446,2.1858e-07,1.6423,4.6807e-12,3.5257e-05,-2.1858e-07,-1.6424,0.017244
10022,1.665,2.8182,0,0.00058946,5890.5,0.00027544,0.16716,4.0063e-05,-1768.4,-0.00059927,-6572,0.017271
10023,1.5725,2.9091,0,0.00058815,5877.4,0.00027731,0.11071,3.4526e-05,-1824.1,-0.00059753,-6573.1,0.015442
10024,1.665,2.9091,0.05,2.8466e-07,2.8446,2.1858e-07,1.6424,2.5227e-12,-3.5183e-05,-2.1858e-07,-1.6423,0.017244
10025,1.665,2.6364,0,0.0005869,5865,0.00027324,0.17036,4.2084e-05,-1736.6,-0.00059682,-6537.1,0.017232
10026,1.5725,2.7273,0,0.00058653,5861.3,0.00027592,0.11278,3.5815e-05,-1803.9,-0.000596,-6551.1,0.01542
10027,1.665,2.7273,0.05,8.552e-07,8.5461,6.5669e-07,4.9341,1.3668e-11,0.00018254,-6.5669e-07,-4.9341,0.017218
10028,1.665,2.4545,0,0.00058286,5824.6,0.00026963,0.17915,4.5525e-05,-1683.7,-0.00059293,-6480.8,0.017165
10029,1.5725,2.5455,0,0.00058341,5830.1,0.00027317,0.11876,3.844e-05,-1763.5,-0.00059303,-6508.2,0.015373
10030,1.665,2.5455,0.05,1.4284e-06,14.274,1.0968e-06,8.2411,3.1367e-11,0.00027592,-1.0968e-06,-8.2411,0.017165
10031,1.665,2.2727,0,0.00057761,5772.2,0.00026472,0.197,5.046e-05,-1609.7,-0.00058789,-6406,0.017069
10032,1.5725,2.3636,0,0.00057901,5786.2,0.00026912,0.13143,4.2473e-05,-1702.8,-0.00058886,-6446.4,0.015302
10033,1.665,2.3636,0.05,1.9986e-06,19.972,1.5347e-06,11.531,3.6544e-11,0.00026114,-1.5347e-06,-11.531,0.017084
10034,1.665,2.0909,0,0.00057154,5711.5,0.00025864,0.22631,5.6933e-05,-1515.3,-0.00058202,-6316.1,0.016941
10035,1.5725,2.1818,0,0.00057365,5732.5,0.00026389,0.15322,4.7987e-05,-1622.1,-0.00058374,-6368.6,0.015205
10036,1.665,2.1818,0.05,2.5532e-06,25.514,1.9605e-06,14.731,3.6184e-11,0.00042421,-1.9605e-06,-14.731,0.016973
10037,1.665,1.9091,0,0.00056505,5646.6,0.00025158,0.26769,6.4936e-05,-1402.1,-0.00057567,-6215.4,0.016779
10038,1.5725,2,0,0.00056768,5672.8,0.00025761,0.18531,5.5027e-05,-1521.9,-0.00057802,-6278.4,0.015077
10039,1.665,2,0.05,3.0742e-06,30.721,2.3606e-06,17.737,4.3933e-11,0.00038733,-2.3606e-06,-17.737,0.016829
10040,1.665,1.7273,0,0.00055859,5582,0.00024374,0.3205,7.4406e-05,-1272,-0.00056923,-6108.1,0.016578
10041,1.5725,1.8182,0,0.00056152,5611.3,0.00025045,0.22759,6.3604e-05,-1403.6,-0.00057205,-6179.7,0.014916
10042,1.665,1.8182,0.05,3.5425e-06,35.4,2.7202e-06,20.438,5.2035e-11,0.00045319,-2.7202e-06,-20.439,0.016648
10043,1.665,1.5455,0,0.0005526,5522.2,0.00023538,0.38504,8.5233e-05,-1127.7,-0.00056306,-5998.8,0.016333
10044,1.5725,1.6364,0,0.00055562,5552.4,0.0002426,0.27991,7.369e-05,-1268.9,-0.00056621,-6076.8,0.014717
10045,1.665,1.6364,0.05,3.9405e-06,39.377,3.0258e-06,22.735,4.8141e-11,0.00047191,-3.0258e-06,-22.735,0.016426
10046,1.665,1.3636,0,0.00054753,5471.5,0.00022673,0.46458,9.7276e-05,-972.17,-0.00055753,-5892.2,0.016038
10047,1.5725,1.4545,0,0.00055045,5500.7,0.00023429,0.3443,8.5236e-05,-1119.6,-0.00056087,-5974.2,0.014474
10048,1.665,1.4545,0.05,4.2535e-06,42.506,3.2661e-06,24.541,5.024e-11,0.00053167,-3.2662e-06,-24.541,0.016158
10049,1.665,1.1818,0,0.00054377,5433.9,0.00021804,0.56785,0.00011036,-808.55,-0.00055297,-5792.6,0.015687
10050,1.5725,1.2727,0,0.00054647,5460.9,0.00022573,0.42634,9.8158e-05,-958.14,-0.00055641,-5876.3,0.014182
10051,1.665,1.2727,0.05,4.4697e-06,44.666,3.4322e-06,25.788,5.2706e-11,0.00053794,-3.4322e-06,-25.788,0.015837
10052,1.665,1,0,0.00054164,5412.6,0.00020958,0.70851,0.00012424,-640.54,-0.00054966,-5704,0.015274
10053,1.5725,1.0909,0,0.00054408,5437,0.00021717,0.53899,0.00011231,-787.31,-0.00055316,-5787.4,0.013834
10054,1.665,1.0909,0.05,4.5794e-06,45.762,3.5164e-06,26.421,5.0417e-11,0.00045619,-3.5164e-06,-26.421,0.015456
10055,1.665,0.81818,0,0.00054132,5409.5,0.0002016,0.92326,0.0001386,-472.49,-0.00054778,-5629.7,0.01479
10056,1.5725,0.90909,0,0.00054358,5432.1,0.00020884,0.69796,0.00012745,-610.84,-0.00055137,-5711.3,0.013421
10057,1.665,0.90909,0.05,4.5752e-06,45.72,3.5131e-06,26.397,4.0423e-11,0.00044619,-3.5132e-06,-26.397,0.015009
10058,1.665,0.63636,0,0.00054284,5424.7,0.00019436,1.2592,0.00015298,-309.67,-0.00054742,-5572.2,0.014226
10059,1.5725,0.72727,0,0.00054513,5447.5,0.00020103,0.96744,0.00014317,-433.73,-0.00055118,-5650.8,0.012936
10060,1.665,0.72727,0.05,4.4547e-06,44.516,3.4206e-06,25.701,4.1172e-11,0.00038077,-3.4207e-06,-25.701,0.014486
10061,1.665,0.45455,0,0.00054613,5457.5,0.00018817,2.2314,0.00016687,-157.79,-0.0005486,-5533.5,0.013575
10062,1.5725,0.54545,0,0.00054862,5482.4,0.000194,1.395,0.00015889,-262.45,-0.00055258,-5608.1,0.012368
10063,1.665,0.54545,0.05,4.2326e-06,42.297,3.2501e-06,24.42,3.1307e-11,0.00029622,-3.2502e-06,-24.42,0.01388
10064,1.665,0.27273,0,0.00055207,5516.9,0.0001845,13.189,0.00017948,-24.52,-0.00055225,-5522.4,0.012826
10065,1.5725,0.36364,0,0.00055393,5535.4,0.0001882,3.3531,0.00017391,-104.01,-0.00055556,-5585,0.011709
10066,1.665,0.36364,0.05,4.0837e-06,40.808,3.1357e-06,23.561,2.1097e-11,0.00022975,-3.1357e-06,-23.561,0.01318
10067,1.5725,0.18182,0,0.00056301,5626.2,0.00019125,61.931,0.00018221,-6.0065,-0.00056202,-5597.9,0.010948
10068,1.665,0.18182,0.05,6.9916e-06,69.868,5.3687e-06,40.338,-1.5629e-12,6.5511e-05,-5.3687e-06,-40.338,0.012379
10069,1.665,0.090909,0,0.00054983,5494.5,0.00018509,44.262,0.00017932,0.91438,-0.00054905,-5471.8,0.011971
10070,1.48,5.7273,0,0.00056478,5643.9,0.00018921,8.8954,0.00018239,-42.321,-0.00056533,-5660.4,0.0099497
10071,1.3875,5.8182,0,0.00057496,5745.6,0.00019497,58.187,0.0001862,-7.7663,-0.00057407,-5720.1,0.0082977
10072,1.48,5.8182,0.05,6.5816e-06,65.771,5.0539e-06,37.973,3.1485e-12,-8.6289e-05,-5.0539e-06,-37.973,0.0095423
10073,1.48,5.9091,0,0.0005641,5637.1,0.00018967,42.713,0.00018411,0.96236,-0.00056335,-5615.2,0.0091747
10074,1.48,5.5455,0,0.00055634,5559.5,0.00019395,1.8627,0.00016602,-208.01,-0.00055955,-5659.6,0.010618
10075,1.3875,5.6364,0,0.0005632,5628.2,0.00019305,3.0334,0.00017388,-141.04,-0.00056541,-5695.8,0.0089768
10076,1.48,5.6364,0.05,3.8034e-06,38.008,2.9205e-06,21.944,-3.4895e-11,-0.00029591,-2.9205e-06,-21.944,0.010264
10077,1.48,5.3636,0,0.00055081,5504.3,0.00020065,1.0033,0.00014909,-386.41,-0.00055634,-5686.8,0.011191
10078,1.3875,5.4545,0,0.00055569,5553.1,0.00019958,1.3125,0.00015552,-329.73,-0.00056054,-5709.9,0.0095553
10079,1.48,5.4545,0.05,4.0621e-06,40.593,3.1192e-06,23.436,-4.0766e-11,-0.0004266,-3.1192e-06,-23.436,0.010883
10080,1.48,5.1818,0,0.0005473,5469.3,0.00020826,0.70972,0.00013203,-572.09,-0.00055477,-5732.4,0.011678
10081,1.3875,5.2727,0,0.00055036,5499.8,0.00020721,0.95157,0.00013684,-527.79,-0.00055741,-5744.1,0.010045
10082,1.48,5.2727,0.05,4.3357e-06,43.327,3.3293e-06,25.015,-4.0922e-11,-0.00042131,-3.3292e-06,-25.015,0.011412
10083,1.48,5,0,0.00054594,5455.7,0.00021643,0.51445,0.00011551,-757.71,-0.00055486,-5794.6,0.01209
10084,1.3875,5.0909,0,0.00054741,5470.3,0.00021547,0.70519,0.00011874,-726.09,-0.00055611,-5796.7,0.010456
10085,1.48,5.0909,0.05,4.482e-06,44.789,3.4416e-06,25.859,-4.7437e-11,-0.00041323,-3.4416e-06,-25.859,0.01186
10086,1.48,4.8182,0,0.00054671,5463.3,0.00022486,0.39029,0.00010009,-937.06,-0.00055657,-5871,0.012436
10087,1.3875,4.9091,0,0.00054689,5465.1,0.00022402,0.56679,0.00010193,-916.77,-0.00055667,-5865.2,0.0108
10088,1.48,4.9091,0.05,4.4982e-06,44.951,3.454e-06,25.952,-4.1961e-11,-0.00044766,-3.454e-06,-25.952,0.012237
10089,1.48,4.6364,0,0.00054934,5489.6,0.0002333,0.3017,8.609e-05,-1105.8,-0.00055971,-5958.1,0.012725
10090,1.3875,4.7273,0,0.00054858,5482,0.00023257,0.4714,8.6804e-05,-1094.7,-0.00055892,-5946.4,0.011086
10091,1.48,4.7273,0.05,4.3958e-06,43.928,3.3755e-06,25.362,-4.9547e-11,-0.00043418,-3.3754e-06,-25.362,0.012553
10092,1.48,4.4545,0,0.00055343,5530.5,0.00024152,0.23603,7.3661e-05,-1261,-0.00056398,-6052,0.012965
10093,1.3875,4.5455,0,0.00055203,5516.5,0.00024089,0.40499,7.3524e-05,-1257.1,-0.00056254,-6036.2,0.011321
10094,1.48,4.5455,0.05,4.1888e-06,41.859,3.2165e-06,24.168,-4.5613e-11,-0.00042037,-3.2165e-06,-24.167,0.012816
10095,1.48,4.2727,0,0.00055853,5581.4,0.00024931,0.18436,6.2853e-05,-1400.8,-0.000569,-6148.2,0.013161
10096,1.3875,4.3636,0,0.00055672,5563.4,0.00024878,0.35439,6.2079e-05,-1402.5,-0.00056714,-6130.1,0.011514
10097,1.48,4.3636,0.05,3.8913e-06,38.887,2.9881e-06,22.451,-3.5766e-11,-0.00037727,-2.9881e-06,-22.451,0.013033
10098,1.48,4.0909,0,0.00056412,5637.3,0.00025648,0.14283,5.3657e-05,-1523.8,-0.00057437,-6242.5,0.01332
10099,1.3875,4.1818,0,0.00056212,5617.3,0.00025609,0.31397,5.2386e-05,-1530.2,-0.00057228,-6223.7,0.011671
10100,1.48,4.1818,0.05,3.5181e-06,35.157,2.7015e-06,20.298,-3.6878e-11,-0.00033719,-2.7015e-06,-20.298,0.013209
10101,1.48,3.9091,0,0.00056977,5693.7,0.00026286,0.11003,4.6039e-05,-1629,-0.00057971,-6330.6,0.013447
10102,1.3875,4,0,0.00056774,5673.5,0.00026264,0.28124,4.4343e-05,-1639.9,-0.00057755,-6312.6,0.011795
10103,1.48,4,0.05,3.0851e-06,30.83,2.369e-06,17.799,-2.6828e-11,-0.000292,-2.369e-06,-17.8,0.013351
10104,1.48,3.7273,0,0.00057503,5746.3,0.00026829,0.085693,3.995e-05,-1715.6,-0.00058466,-6408.7,0.013545
10105,1.3875,3.8182,0,0.00057314,5727.4,0.00026832,0.25565,3.7848e-05,-1731.4,-0.00058259,-6393.2,0.011893
10106,1.48,3.8182,0.05,2.61e-06,26.082,2.0041e-06,15.058,-2.5594e-11,-0.00021671,-2.0041e-06,-15.058,0.013463
10107,1.48,3.5455,0,0.00057955,5791.5,0.00027266,0.069366,3.533e-05,-1783.1,-0.0005889,-6473.3,0.013618
10108,1.3875,3.6364,0,0.00057793,5775.4,0.00027301,0.23709,3.2808e-05,-1804.5,-0.00058706,-6462,0.011967
10109,1.48,3.6364,0.05,2.1127e-06,21.113,1.6223e-06,12.189,5.454e-13,-0.00011479,-1.6223e-06,-12.189,0.013548
10110,1.48,3.3636,0,0.00058301,5826.1,0.00027585,0.059793,3.2106e-05,-1831.3,-0.00059215,-6521.7,0.013669
10111,1.3875,3.4545,0,0.00058183,5814.2,0.0002766,0.22501,2.9132e-05,-1859.2,-0.00059069,-6516.3,0.01202
10112,1.48,3.4545,0.05,1.618e-06,16.169,1.2424e-06,9.335,6.8194e-12,2.3358e-05,-1.2424e-06,-9.3352,0.013609
10113,1.48,3.1818,0,0.00058519,5847.9,0.00027779,0.055147,3.0207e-05,-1860.2,-0.00059419,-6551.7,0.013699
10114,1.3875,3.2727,0,0.00058456,5841.6,0.00027904,0.2182,2.6737e-05,-1895.5,-0.00059324,-6553.8,0.012055
10115,1.48,3.2727,0.05,1.1658e-06,11.65,8.9519e-07,6.7261,1.8612e-11,0.00017142,-8.952e-07,-6.7262,0.013649
10116,1.48,3,0,0.00058594,5855.3,0.00027844,0.053812,2.9581e-05,-1869.8,-0.00059489,-6561.8,0.013708
10117,1.3875,3.0909,0,0.00058597,5855.7,0.00028027,0.21526,2.5558e-05,-1913.6,-0.00059456,-6572.9,0.012071
10118,1.48,3.0909,0.05,8.5101e-07,8.5042,6.5346e-07,4.9098,1.6069e-11,9.7048e-05,-6.5348e-07,-4.91,0.013669
10119,1.48,2.8182,0,0.00058519,5847.9,0.00027779,0.055147,3.0207e-05,-1860.2,-0.00059419,-6551.7,0.013699
10120,1.3875,2.9091,0,0.00058597,5855.7,0.00028027,0.21526,2.5558e-05,-1913.6,-0.00059456,-6572.9,0.012071
10121,1.48,2.9091,0.05,8.5101e-07,8.5042,6.5348e-07,4.91,-1.7279e-11,-9.6504e-05,-6.5346e-07,-4.9098,0.013669
10122,1.48,2.6364,0,0.00058301,5826.1,0.00027585,0.059793,3.2106e-05,-1831.3,-0.00059215,-6521.7,0.013669
10123,1.3875,2.7273,0,0.00058456,5841.6,0.00027904,0.2182,2.6737e-05,-1895.5,-0.00059324,-6553.8,0.012055
10124,1.48,2.7273,0.05,1.1658e-06,11.65,8.952e-07,6.7262,-1.9435e-11,-0.00016954,-8.9519e-07,-6.7261,0.013649
10125,1.48,2.4545,0,0.00057955,5791.5,0.00027266,0.069366,3.533e-05,-1783.1,-0.0005889,-6473.3,0.013618
10126,1.3875,2.5455,0,0.00058183,5814.2,0.0002766,0.22501,2.9131e-05,-1859.2,-0.00059069,-6516.3,0.01202
10127,1.48,2.5455,0.05,1.618e-06,16.169,1.2424e-06,9.3352,-7.5494e-12,4.5463e-05,-1.2424e-06,-9.335,0.013609
10128,1.48,2.2727,0,0.00057503,5746.3,0.00026829,0.085693,3.995e-05,-1715.6,-0.00058466,-6408.7,0.013545
10129,1.3875,2.3636,0,0.00057793,5775.4,0.00027301,0.23709,3.2808e-05,-1804.5,-0.00058706,-6462,0.011967
10130,1.48,2.3636,0.05,2.1127e-06,21.113,1.6223e-06,12.189,4.9771e-12,0.00015902,-1.6223e-06,-12.189,0.013548
10131,1.48,2.0909,0,0.00056976,5693.7,0.00026286,0.11003,4.6039e-05,-1629,-0.00057971,-6330.6,0.013447
10132,1.3875,2.1818,0,0.00057314,5727.4,0.00026832,0.25565,3.7848e-05,-1731.4,-0.00058259,-6393.2,0.011893
10133,1.48,2.1818,0.05,2.61e-06,26.082,2.0041e-06,15.058,2.143e-11,0.00016645,-2.0041e-06,-15.058,0.013463
10134,1.48,1.9091,0,0.00056412,5637.3,0.00025648,0.14282,5.3657e-05,-1523.8,-0.00057437,-6242.5,0.01332
10135,1.3875,2,0,0.00056774,5673.5,0.00026264,0.28124,4.4343e-05,-1639.9,-0.00057755,-6312.6,0.011795
10136,1.48,2,0.05,3.0851e-06,30.83,2.369e-06,17.8,3.2268e-11,0.00029905,-2.369e-06,-17.799,0.013351
10137,1.48,1.7273,0,0.00055853,5581.4,0.00024931,0.18436,6.2853e-05,-1400.8,-0.000569,-6148.2,0.013161
10138,1.3875,1.8182,0,0.00056212,5617.3,0.00025609,0.31397,5.2386e-05,-1530.2,-0.00057227,-6223.7,0.011671
10139,1.48,1.8182,0.05,3.5181e-06,35.157,2.7015e-06,20.298,3.7157e-11,0.00038608,-2.7015e-06,-20.298,0.013209
10140,1.48,1.5455,0,0.00055343,5530.5,0.00024152,0.23603,7.3661e-05,-1261,-0.00056398,-6052,0.012965
10141,1.3875,1.6364,0,0.00055672,5563.4,0.00024878,0.35439,6.2079e-05,-1402.5,-0.00056714,-6130.1,0.011514
10142,1.48,1.6364,0.05,3.8913e-06,38.887,2.9881e-06,22.451,4.1695e-11,0.00043291,-2.9881e-06,-22.451,0.013033
10143,1.48,1.3636,0,0.00054934,5489.6,0.0002333,0.3017,8.609e-05,-1105.8,-0.00055971,-5958.1,0.012725
10144,1.3875,1.4545,0,0.00055203,5516.5,0.00024089,0.40499,7.3524e-05,-1257.1,-0.00056254,-6036.2,0.011321
10145,1.48,1.4545,0.05,4.1888e-06,41.859,3.2165e-06,24.167,4.0121e-11,0.00040823,-3.2165e-06,-24.168,0.012816
10146,1.48,1.1818,0,0.00054671,5463.3,0.00022486,0.39029,0.00010009,-937.06,-0.00055657,-5871,0.012436
10147,1.3875,1.2727,0,0.00054858,5482,0.00023257,0.4714,8.6804e-05,-1094.7,-0.00055892,-5946.4,0.011086
10148,1.48,1.2727,0.05,4.3958e-06,43.928,3.3754e-06,25.362,4.9547e-11,0.00044135,-3.3755e-06,-25.362,0.012553
10149,1.48,1,0,0.00054594,5455.7,0.00021643,0.51445,0.00011551,-757.71,-0.00055486,-5794.6,0.01209
10150,1.3875,1.0909,0,0.00054689,5465.1,0.00022402,0.56679,0.00010193,-916.77,-0.00055667,-5865.2,0.0108
10151,1.48,1.0909,0.05,4.4982e-06,44.951,3.454e-06,25.952,4.7427e-11,0.00050314,-3.454e-06,-25.952,0.012237
10152,1.48,0.81818,0,0.0005473,5469.2,0.00020826,0.70972,0.00013203,-572.09,-0.00055477,-5732.4,0.011678
10153,1.3875,0.90909,0,0.00054741,5470.3,0.00021547,0.70519,0.00011874,-726.09,-0.00055611,-5796.7,0.010456
10154,1.48,0.90909,0.05,4.482e-06,44.789,3.4416e-06,25.859,4.688e-11,0.00046184,-3.4416e-06,-25.859,0.01186
10155,1.48,0.63636,0,0.00055081,5504.3,0.00020065,1.0033,0.00014909,-386.41,-0.00055634,-5686.8,0.011191
10156,1.3875,0.72727,0,0.00055036,5499.8,0.00020721,0.95157,0.00013684,-527.79,-0.00055741,-5744.1,0.010045
10157,1.48,0.72727,0.05,4.3357e-06,43.327,3.3292e-06,25.015,4.673e-11,0.00046292,-3.3293e-06,-25.015,0.011412
10158,1.48,0.45455,0,0.00055634,5559.5,0.00019395,1.8627,0.00016602,-208.01,-0.00055955,-5659.6,0.010618
10159,1.3875,0.54545,0,0.00055569,5553.1,0.00019958,1.3125,0.00015552,-329.73,-0.00056054,-5709.9,0.0095553
10160,1.48,0.54545,0.05,4.0621e-06,40.593,3.1192e-06,23.436,3.9571e-11,0.00039404,-3.1192e-06,-23.436,0.010883
10161,1.48,0.27273,0,0.00056478,5643.9,0.00018921,8.8954,0.00018239,-42.321,-0.00056533,-5660.4,0.0099497
10162,1.3875,0.36364,0,0.0005632,5628.2,0.00019305,3.0334,0.00017388,-141.04,-0.00056541,-5695.8,0.0089768
10163,1.48,0.36364,0.05,3.8034e-06,38.008,2.9205e-06,21.944,2.6292e-11,0.00033122,-2.9205e-06,-21.944,0.010264
10164,1.3875,0.18182,0,0.00057496,5745.6,0.00019497,58.187,0.0001862,-7.7662,-0.00057407,-5720.1,0.0082977
10165,1.48,0.18182,0.05,6.5816e-06,65.771,5.0539e-06,37.973,-4.4022e-12,8.5608e-05,-5.0539e-06,-37.973,0.0095423
10166,1.48,0.090909,0,0.0005641,5637.1,0.00018967,42.713,0.00018411,0.96237,-0.00056335,-5615.2,0.0091747
10167,1.295,5.7273,0,0.00057327,5728.8,0.00019285,7.5135,0.00018365,-61.653,-0.00057416,-5755.5,0.0074449
10168,1.2025,5.8182,0,0.00058249,5820.9,0.00019758,58.427,0.0001885,-9.8174,-0.00058163,-5796.3,0.0060239
10169,1.295,5.8182,0.05,6.2555e-06,62.511,4.8034e-06,36.091,7.8364e-13,-0.00011353,-4.8034e-06,-36.091,0.0070795
10170,1.295,5.9091,0,0.00057389,5735,0.00019301,44.111,0.00018728,1.0584,-0.00057311,-5712.3,0.0067541
10171,1.295,5.5455,0,0.00056245,5620.6,0.00019861,1.9639,0.00016345,-262.17,-0.00056641,-5746.1,0.0080302
10172,1.2025,5.6364,0,0.00056797,5675.8,0.00019655,2.6881,0.0001721,-181.06,-0.00057078,-5762.8,0.0066168
10173,1.295,5.6364,0.05,3.7775e-06,37.749,2.9007e-06,21.795,-4.8128e-11,-0.00041344,-2.9007e-06,-21.795,0.0077172
10174,1.295,5.3636,0,0.00055512,5547.3,0.00020612,1.1668,0.00014327,-471.04,-0.0005616,-5767.2,0.0085223
10175,1.2025,5.4545,0,0.00055857,5581.9,0.00020413,0.88545,0.00015001,-405.76,-0.00056435,-5773.2,0.0071118
10176,1.295,5.4545,0.05,4.1332e-06,41.303,3.1738e-06,23.847,-3.7643e-11,-0.00048847,-3.1738e-06,-23.847,0.0082546
10177,1.295,5.1818,0,0.00055034,5499.6,0.00021441,0.91296,0.00012354,-681.91,-0.00055873,-5808.2,0.0089332
10178,1.2025,5.2727,0,0.00055208,5516.9,0.00021276,0.49437,0.00012822,-634.65,-0.00056011,-5806.5,0.007522
10179,1.295,5.2727,0.05,4.4146e-06,44.115,3.3899e-06,25.47,-4.9988e-11,-0.00048055,-3.3898e-06,-25.47,0.0087045
10180,1.295,5,0,0.00054824,5478.6,0.00022306,0.74148,0.00010512,-885.41,-0.00055789,-5867,0.0092745
10181,1.2025,5.0909,0,0.00054868,5483,0.00022179,0.21948,0.00010792,-855.4,-0.00055819,-5860.3,0.0078602
10182,1.295,5.0909,0.05,4.5439e-06,45.408,3.4892e-06,26.216,-4.9024e-11,-0.00043688,-3.4892e-06,-26.216,0.0090789
10183,1.295,4.8182,0,0.00054867,5482.9,0.00023172,0.63926,8.8591e-05,-1074.8,-0.00055897,-5940.3,0.0095563
10184,1.2025,4.9091,0,0.00054826,5478.8,0.00023084,0.070118,8.9868e-05,-1059.2,-0.00055854,-5931,0.0081375
10185,1.295,4.9091,0.05,4.5392e-06,45.361,3.4856e-06,26.189,-4.6167e-11,-0.00040669,-3.4855e-06,-26.189,0.0093887
10186,1.295,4.6364,0,0.0005512,5508.2,0.00024015,0.56955,7.4189e-05,-1246.4,-0.0005617,-6024.2,0.0097878
10187,1.2025,4.7273,0,0.00055034,5499.6,0.00023961,-0.029348,7.4355e-05,-1241.7,-0.00056084,-6014.3,0.0083639
10188,1.295,4.7273,0.05,4.4235e-06,44.204,3.3967e-06,25.521,-3.8346e-11,-0.00042215,-3.3967e-06,-25.521,0.0096437
10189,1.295,4.4545,0,0.00055527,5548.8,0.00024815,0.51999,6.1895e-05,-1398.9,-0.00056565,-6114.1,0.0099765
10190,1.2025,4.5455,0,0.00055425,5538.7,0.00024789,-0.096019,6.1309e-05,-1402,-0.00056462,-6105,0.0085476
10191,1.295,4.5455,0.05,4.216e-06,42.131,3.2374e-06,24.324,-3.5913e-11,-0.00037745,-3.2374e-06,-24.324,0.0098523
10192,1.295,4.2727,0,0.00056029,5599,0.00025556,0.48156,5.157e-05,-1532.2,-0.00057037,-6205.3,0.010129
10193,1.2025,4.3636,0,0.00055931,5589.2,0.00025555,-0.14535,5.0494e-05,-1540.8,-0.00056935,-6198.1,0.0086956
10194,1.295,4.3636,0.05,3.9332e-06,39.305,3.0203e-06,22.693,-3.4758e-11,-0.00032537,-3.0202e-06,-22.693,0.010022
10195,1.295,4.0909,0,0.00056572,5653.3,0.00026225,0.45046,4.3034e-05,-1646.7,-0.00057542,-6293.5,0.010251
10196,1.2025,4.1818,0,0.00056491,5645.2,0.00026246,-0.18387,4.163e-05,-1659.4,-0.00057453,-6289,0.0088138
10197,1.295,4.1818,0.05,3.5911e-06,35.886,2.7575e-06,20.719,-2.7432e-11,-0.00023722,-2.7575e-06,-20.719,0.010158
10198,1.295,3.9091,0,0.0005711,5707,0.00026811,0.42524,3.6115e-05,-1742.7,-0.0005804,-6374.9,0.010347
10199,1.2025,4,0,0.00057055,5701.5,0.00026855,-0.21475,3.4461e-05,-1759.1,-0.00057974,-6373.9,0.0089068
10200,1.295,4,0.05,3.2063e-06,32.041,2.4621e-06,18.499,-1.6803e-11,-0.00018119,-2.4621e-06,-18.499,0.010266
10201,1.295,3.7273,0,0.00057603,5756.3,0.00027303,0.40565,3.0667e-05,-1820.7,-0.00058495,-6446.2,0.01042
10202,1.2025,3.8182,0,0.00057582,5754.2,0.00027375,-0.23909,2.8777e-05,-1840.9,-0.0005846,-6449.6,0.0089787
10203,1.295,3.8182,0.05,2.7982e-06,27.962,2.1486e-06,16.144,-1.8027e-12,-3.3487e-05,-2.1486e-06,-16.144,0.010349
10204,1.295,3.5455,0,0.0005802,5798,0.00027695,0.39152,2.6566e-05,-1880.9,-0.00058881,-6504.6,0.010475
10205,1.2025,3.6364,0,0.0005804,5800,0.00027798,-0.25733,2.4417e-05,-1905.5,-0.00058884,-6513.3,0.0090326
10206,1.295,3.6364,0.05,2.3893e-06,23.876,1.8347e-06,13.785,5.8174e-12,-3.9932e-06,-1.8347e-06,-13.785,0.010413
10207,1.295,3.3636,0,0.00058336,5829.6,0.0002798,0.38236,2.3716e-05,-1923.7,-0.00059174,-6548,0.010512
10208,1.2025,3.4545,0,0.00058406,5836.5,0.00028121,-0.26996,2.1256e-05,-1953.4,-0.00059223,-6562.9,0.0090709
10209,1.295,3.4545,0.05,2.0094e-06,20.081,1.543e-06,11.593,1.4188e-11,7.3797e-05,-1.543e-06,-11.594,0.010458
10210,1.295,3.1818,0,0.00058533,5849.2,0.00028152,0.37737,2.2038e-05,-1949.3,-0.00059356,-6574.7,0.010533
10211,1.2025,3.2727,0,0.0005866,5861.9,0.00028338,-0.27769,1.9202e-05,-1985.2,-0.00059458,-6596.9,0.0090955
10212,1.295,3.2727,0.05,1.7007e-06,16.995,1.3059e-06,9.8119,2.0218e-11,0.00011321,-1.3059e-06,-9.8121,0.010487
10213,1.295,3,0,0.000586,5855.9,0.0002821,0.3758,2.1485e-05,-1957.8,-0.00059418,-6583.7,0.01054
10214,1.2025,3.0909,0,0.00058789,5874.9,0.00028447,-0.28131,1.8192e-05,-2001,-0.00059579,-6614.2,0.0091075
10215,1.295,3.0909,0.05,1.5204e-06,15.194,1.1675e-06,8.772,8.1866e-12,7.1357e-05,-1.1675e-06,-8.7721,0.010501
10216,1.295,2.8182,0,0.00058533,5849.2,0.00028152,0.37737,2.2038e-05,-1949.3,-0.00059356,-6574.7,0.010533
10217,1.2025,2.9091,0,0.00058789,5874.9,0.00028447,-0.28131,1.8192e-05,-2001,-0.00059579,-6614.2,0.0091075
10218,1.295,2.9091,0.05,1.5204e-06,15.194,1.1675e-06,8.7721,-9.2731e-12,-6.9792e-05,-1.1675e-06,-8.772,0.010501
10219,1.295,2.6364,0,0.00058336,5829.6,0.0002798,0.38236,2.3716e-05,-1923.7,-0.00059174,-6548,0.010512
10220,1.2025,2.7273,0,0.0005866,5861.9,0.00028338,-0.27769,1.9202e-05,-1985.2,-0.00059458,-6596.9,0.0090955
10221,1.295,2.7273,0.05,1.7007e-06,16.995,1.3059e-06,9.8122,-2.1092e-11,-0.00010145,-1.3059e-06,-9.8119,0.010487
10222,1.295,2.4545,0,0.0005802,5798,0.00027695,0.39152,2.6566e-05,-1880.9,-0.00058881,-6504.6,0.010475
10223,1.2025,2.5455,0,0.00058406,5836.5,0.00028121,-0.26996,2.1256e-05,-1953.4,-0.00059223,-6562.9,0.0090709
10224,1.295,2.5455,0.05,2.0094e-06,20.081,1.543e-06,11.594,-1.4864e-11,-7.0266e-05,-1.543e-06,-11.593,0.010458
10225,1.295,2.2727,0,0.00057603,5756.3,0.00027303,0.40565,3.0666e-05,-1820.7,-0.00058495,-6446.2,0.01042
10226,1.2025,2.3636,0,0.0005804,5800,0.00027798,-0.25733,2.4417e-05,-1905.5,-0.00058884,-6513.3,0.0090326
10227,1.295,2.3636,0.05,2.3893e-06,23.876,1.8347e-06,13.785,-2.6982e-12,7.7603e-06,-1.8347e-06,-13.785,0.010413
10228,1.295,2.0909,0,0.0005711,5707,0.00026811,0.42524,3.6115e-05,-1742.7,-0.0005804,-6374.9,0.010347
10229,1.2025,2.1818,0,0.00057582,5754.2,0.00027375,-0.23909,2.8777e-05,-1840.9,-0.0005846,-6449.6,0.0089787
10230,1.295,2.1818,0.05,2.7982e-06,27.962,2.1486e-06,16.144,4.9216e-12,0.00012551,-2.1486e-06,-16.144,0.010349
10231,1.295,1.9091,0,0.00056572,5653.3,0.00026225,0.45046,4.3034e-05,-1646.7,-0.00057542,-6293.5,0.010251
10232,1.2025,2,0,0.00057055,5701.5,0.00026855,-0.21475,3.4461e-05,-1759.1,-0.00057974,-6373.9,0.0089068
10233,1.295,2,0.05,3.2063e-06,32.041,2.4621e-06,18.499,1.6173e-11,0.00021784,-2.4621e-06,-18.499,0.010266
10234,1.295,1.7273,0,0.00056029,5599,0.00025556,0.48156,5.157e-05,-1532.2,-0.00057037,-6205.3,0.010129
10235,1.2025,1.8182,0,0.00056491,5645.2,0.00026246,-0.18387,4.163e-05,-1659.4,-0.00057453,-6289,0.0088138
10236,1.295,1.8182,0.05,3.5911e-06,35.886,2.7575e-06,20.719,2.4174e-11,0.00028343,-2.7575e-06,-20.719,0.010158
10237,1.295,1.5455,0,0.00055527,5548.8,0.00024815,0.51999,6.1895e-05,-1398.9,-0.00056565,-6114.1,0.0099765
10238,1.2025,1.6364,0,0.00055931,5589.2,0.00025555,-0.14535,5.0494e-05,-1540.8,-0.00056935,-6198.1,0.0086956
10239,1.295,1.6364,0.05,3.9332e-06,39.305,3.0202e-06,22.693,3.4758e-11,0.00034641,-3.0202e-06,-22.693,0.010022
10240,1.295,1.3636,0,0.0005512,5508.2,0.00024015,0.56955,7.4189e-05,-1246.4,-0.0005617,-6024.2,0.0097878
10241,1.2025,1.4545,0,0.00055425,5538.7,0.00024789,-0.096019,6.1309e-05,-1402,-0.00056462,-6105,0.0085476
10242,1.295,1.4545,0.05,4.216e-06,42.131,3.2374e-06,24.324,4.1383e-11,0.00039044,-3.2374e-06,-24.324,0.0098523
10243,1.295,1.1818,0,0.00054867,5482.9,0.00023172,0.63926,8.8591e-05,-1074.8,-0.00055897,-5940.3,0.0095563
10244,1.2025,1.2727,0,0.00055034,5499.6,0.00023961,-0.029348,7.4355e-05,-1241.7,-0.00056084,-6014.3,0.0083639
10245,1.295,1.2727,0.05,4.4235e-06,44.204,3.3967e-06,25.521,4.2032e-11,0.00041706,-3.3967e-06,-25.521,0.0096437
10246,1.295,1,0,0.00054824,5478.6,0.00022306,0.74148,0.00010512,-885.41,-0.00055789,-5867,0.0092745
10247,1.2025,1.0909,0,0.00054826,5478.8,0.00023084,0.070118,8.9868e-05,-1059.2,-0.00055854,-5931,0.0081375
10248,1.295,1.0909,0.05,4.5392e-06,45.361,3.4855e-06,26.189,4.6995e-11,0.00046373,-3.4856e-06,-26.189,0.0093887
10249,1.295,0.81818,0,0.00055034,5499.6,0.00021441,0.91296,0.00012354,-681.91,-0.00055873,-5808.2,0.0089332
10250,1.2025,0.90909,0,0.00054868,5483,0.00022179,0.21948,0.00010792,-855.4,-0.00055819,-5860.3,0.0078602
10251,1.295,0.90909,0.05,4.5439e-06,45.408,3.4892e-06,26.216,4.981e-11,0.00048085,-3.4892e-06,-26.216,0.0090789
10252,1.295,0.63636,0,0.00055512,5547.3,0.00020612,1.1668,0.00014327,-471.04,-0.0005616,-5767.2,0.0085223
10253,1.2025,0.72727,0,0.00055208,5516.9,0.00021276,0.49437,0.00012822,-634.65,-0.00056011,-5806.5,0.007522
10254,1.295,0.72727,0.05,4.4146e-06,44.115,3.3898e-06,25.47,5.127e-11,0.00048671,-3.3899e-06,-25.47,0.0087045
10255,1.295,0.45455,0,0.00056245,5620.6,0.00019861,1.9639,0.00016345,-262.17,-0.00056641,-5746.1,0.0080302
10256,1.2025,0.54545,0,0.00055857,5581.9,0.00020413,0.88545,0.00015001,-405.76,-0.00056435,-5773.2,0.0071118
10257,1.295,0.54545,0.05,4.1332e-06,41.303,3.1738e-06,23.846,5.0086e-11,0.00044359,-3.1738e-06,-23.847,0.0082546
10258,1.295,0.27273,0,0.00057327,5728.8,0.00019285,7.5135,0.00018365,-61.653,-0.00057416,-5755.5,0.0074449
10259,1.2025,0.36364,0,0.00056797,5675.8,0.00019655,2.6881,0.0001721,-181.06,-0.00057078,-5762.8,0.0066168
10260,1.295,0.36364,0.05,3.7775e-06,37.749,2.9007e-06,21.795,3.9393e-11,0.00046241,-2.9007e-06,-21.795,0.0077171
10261,1.2025,0.18182,0,0.00058249,5820.9,0.00019758,58.427,0.0001885,-9.8174,-0.00058163,-5796.3,0.0060239
10262,1.295,0.18182,0.05,6.2555e-06,62.511,4.8034e-06,36.091,6.8162e-12,0.00012145,-4.8034e-06,-36.091,0.0070795
10263,1.295,0.090909,0,0.00057389,5735,0.00019301,44.112,0.00018728,1.0584,-0.00057311,-5712.3,0.0067541
10264,1.11,5.7273,0,0.00057703,5766.4,0.00019502,6.5909,0.00018322,-82.114,-0.00057827,-5803.6,0.0053161
10265,1.0175,5.8182,0,0.00058484,5844.4,0.00019882,63.141,0.00018892,-11.241,-0.00058392,-5818.1,0.0041297
10266,1.11,5.8182,0.05,5.9916e-06,59.874,4.6008e-06,34.568,-9.6438e-12,-0.00019324,-4.6008e-06,-34.569,0.0049956
10267,1.11,5.9091,0,0.00057872,5783.2,0.00019502,48.91,0.00018862,0.84341,-0.00057786,-5758.2,0.004715
10268,1.11,5.5455,0,0.00056395,5635.6,0.00020202,1.1299,0.00015874,-324.03,-0.00056874,-5790,0.0058143
10269,1.0175,5.6364,0,0.00056753,5671.4,0.00019872,3.9073,0.00016804,-226.64,-0.00057097,-5779.2,0.0046312
10270,1.11,5.6364,0.05,4.0955e-06,40.927,3.1449e-06,23.629,-4.4019e-11,-0.00049476,-3.1449e-06,-23.629,0.0055447
10271,1.11,5.3636,0,0.00055536,5549.8,0.00021076,0.11701,0.00013496,-569.36,-0.00056285,-5812.5,0.0062237
10272,1.0175,5.4545,0,0.00055678,5563.9,0.00020795,2.3405,0.00014162,-496.07,-0.0005635,-5794,0.0050395
10273,1.11,5.4545,0.05,4.4969e-06,44.938,3.4531e-06,25.945,-5.9708e-11,-0.00050176,-3.4531e-06,-25.945,0.0059969
10274,1.11,5.1818,0,0.00055025,5498.7,0.00022013,-0.2362,0.00011257,-808.42,-0.00055953,-5858.3,0.0065582
10275,1.0175,5.2727,0,0.00055016,5497.8,0.00021809,2.0993,0.00011657,-760.74,-0.00055907,-5837.2,0.0053695
10276,1.11,5.2727,0.05,4.7125e-06,47.093,3.6187e-06,27.189,-5.33e-11,-0.00050553,-3.6186e-06,-27.189,0.0063669
10277,1.11,5,0,0.00054856,5481.8,0.00022958,-0.46998,9.2606e-05,-1029.6,-0.00055878,-5923.9,0.0068302
10278,1.0175,5.0909,0,0.00054767,5472.9,0.00022833,1.9167,9.4417e-05,-1004.3,-0.00055773,-5904.3,0.0056351
10279,1.11,5.0909,0.05,4.7662e-06,47.629,3.6598e-06,27.498,-5.0131e-11,-0.000434,-3.6598e-06,-27.498,0.0066682
10280,1.11,4.8182,0,0.00054983,5494.5,0.00023873,-0.60826,7.5563e-05,-1226.6,-0.00056034,-6004.5,0.0070505
10281,1.0175,4.9091,0,0.00054875,5483.7,0.00023819,1.8414,7.5821e-05,-1218.1,-0.00055916,-5989.1,0.0058484
10282,1.11,4.9091,0.05,4.7036e-06,47.004,3.6118e-06,27.137,-3.9931e-11,-0.00045661,-3.6118e-06,-27.138,0.0069125
10283,1.11,4.6364,0,0.00055332,5529.4,0.00024735,-0.70052,6.1412e-05,-1397.8,-0.0005637,-6094.6,0.0072282
10284,1.0175,4.7273,0,0.00055244,5520.6,0.00024738,1.7974,6.0698e-05,-1400.8,-0.00056271,-6084.9,0.006019
10285,1.11,4.7273,0.05,4.5557e-06,45.526,3.4982e-06,26.284,-3.9966e-11,-0.00036535,-3.4982e-06,-26.284,0.0071098
10286,1.11,4.4545,0,0.00055825,5578.6,0.00025529,-0.76475,4.9855e-05,-1544.3,-0.00056827,-6188.6,0.0073708
10287,1.0175,4.5455,0,0.00055778,5574,0.00025577,1.7713,4.8602e-05,-1554.8,-0.00056765,-6185,0.006155
10288,1.11,4.5455,0.05,4.3401e-06,43.371,3.3326e-06,25.04,-2.7116e-11,-0.00030219,-3.3326e-06,-25.04,0.0072684
10289,1.11,4.2727,0,0.0005639,5635.2,0.00026245,-0.81298,4.0512e-05,-1668.3,-0.00057347,-6281.5,0.0074842
10290,1.0175,4.3636,0,0.00056394,5635.5,0.00026329,1.7507,3.8996e-05,-1683.5,-0.00057331,-6284.1,0.0062629
10291,1.11,4.3636,0.05,4.0699e-06,40.671,3.1252e-06,23.481,-2.377e-11,-0.00027714,-3.1252e-06,-23.482,0.0073951
10292,1.11,4.0909,0,0.00056972,5693.3,0.00026876,-0.85062,3.3023e-05,-1772.1,-0.00057881,-6369.2,0.0075736
10293,1.0175,4.1818,0,0.00057027,5698.8,0.0002699,1.7323,3.1394e-05,-1790.3,-0.00057914,-6377.7,0.0063476
10294,1.11,4.1818,0.05,3.759e-06,37.564,2.8864e-06,21.687,-6.058e-12,-0.00022214,-2.8864e-06,-21.687,0.0074954
10295,1.11,3.9091,0,0.00057526,5748.6,0.0002742,-0.88028,2.7094e-05,-1857.5,-0.00058391,-6448.4,0.0076428
10296,1.0175,4,0,0.00057632,5759.3,0.00027561,1.715,2.5408e-05,-1878.2,-0.00058474,-6462.6,0.0064133
10297,1.11,4,0.05,3.423e-06,34.206,2.6284e-06,19.749,-7.8198e-12,-0.00013698,-2.6284e-06,-19.749,0.0075738
10298,1.11,3.7273,0,0.00058019,5797.9,0.0002787,-0.90306,2.2499e-05,-1925.9,-0.00058846,-6516.4,0.0076953
10299,1.0175,3.8182,0,0.00058176,5813.6,0.00028038,1.6996,2.0752e-05,-1949.1,-0.00058978,-6536.4,0.0064634
10300,1.11,3.8182,0.05,3.0803e-06,30.782,2.3653e-06,17.772,2.0715e-12,-3.7164e-05,-2.3653e-06,-17.772,0.0076339
10301,1.11,3.5455,0,0.00058426,5838.5,0.00028224,-0.91968,1.9077e-05,-1978.2,-0.00059223,-6571.3,0.0077336
10302,1.0175,3.6364,0,0.00058635,5859.4,0.00028422,1.6866,1.7224e-05,-2004.4,-0.00059405,-6597.3,0.0065005
10303,1.11,3.6364,0.05,2.7526e-06,27.507,2.1136e-06,15.881,1.1479e-11,5.1841e-05,-2.1137e-06,-15.881,0.0076787
10304,1.11,3.3636,0,0.00058729,5868.8,0.00028479,-0.93079,1.6711e-05,-2015.1,-0.00059504,-6611.6,0.0077595
10305,1.0175,3.4545,0,0.00058992,5895.1,0.00028711,1.6768,1.4686e-05,-2045.2,-0.00059738,-6644.1,0.0065266
10306,1.11,3.4545,0.05,2.4652e-06,24.635,1.8929e-06,14.223,1.4968e-11,7.1841e-05,-1.893e-06,-14.223,0.0077103
10307,1.11,3.1818,0,0.00058915,5887.5,0.00028632,-0.93709,1.5322e-05,-2037.1,-0.00059678,-6636.2,0.0077746
10308,1.0175,3.2727,0,0.00059236,5919.6,0.00028905,1.6702,1.3042e-05,-2072.1,-0.00059967,-6675.8,0.0065432
10309,1.11,3.2727,0.05,2.2473e-06,22.457,1.7256e-06,12.966,1.3983e-11,8.966e-05,-1.7256e-06,-12.966,0.0077305
10310,1.11,3,0,0.00058978,5893.8,0.00028684,-0.93912,1.4865e-05,-2044.4,-0.00059736,-6644.5,0.0077795
10311,1.0175,3.0909,0,0.0005936,5931.9,0.00029002,1.667,1.2234e-05,-2085.5,-0.00060083,-6691.8,0.0065513
10312,1.11,3.0909,0.05,2.1283e-06,21.268,1.6343e-06,12.279,4.9938e-12,2.0531e-05,-1.6343e-06,-12.279,0.0077404
10313,1.11,2.8182,0,0.00058915,5887.5,0.00028632,-0.93709,1.5322e-05,-2037.1,-0.00059678,-6636.2,0.0077746
10314,1.0175,2.9091,0,0.0005936,5931.9,0.00029002,1.667,1.2234e-05,-2085.5,-0.00060083,-6691.8,0.0065513
10315,1.11,2.9091,0.05,2.1283e-06,21.268,1.6343e-06,12.279,-6.228e-12,-2.0442e-05,-1.6343e-06,-12.279,0.0077404
10316,1.11,2.6364,0,0.00058729,5868.8,0.00028479,-0.93079,1.6711e-05,-2015.1,-0.00059504,-6611.6,0.0077595
10317,1.0175,2.7273,0,0.00059236,5919.6,0.00028905,1.6702,1.3042e-05,-2072.1,-0.00059967,-6675.8,0.0065432
10318,1.11,2.7273,0.05,2.2473e-06,22.457,1.7256e-06,12.966,-1.5228e-11,-8.4337e-05,-1.7256e-06,-12.966,0.0077305
10319,1.11,2.4545,0,0.00058426,5838.5,0.00028224,-0.91968,1.9077e-05,-1978.2,-0.00059223,-6571.3,0.0077336
10320,1.0175,2.5455,0,0.00058992,5895.1,0.00028711,1.6768,1.4686e-05,-2045.2,-0.00059738,-6644.1,0.0065266
10321,1.11,2.5455,0.05,2.4652e-06,24.635,1.893e-06,14.223,-1.4396e-11,-7.0431e-05,-1.8929e-06,-14.223,0.0077103
10322,1.11,2.2727,0,0.00058019,5797.9,0.0002787,-0.90306,2.2499e-05,-1925.9,-0.00058846,-6516.4,0.0076953
10323,1.0175,2.3636,0,0.00058635,5859.4,0.00028422,1.6866,1.7224e-05,-2004.4,-0.00059405,-6597.3,0.0065005
10324,1.11,2.3636,0.05,2.7526e-06,27.507,2.1137e-06,15.881,-1.2128e-11,-6.4046e-05,-2.1136e-06,-15.881,0.0076787
10325,1.11,2.0909,0,0.00057526,5748.6,0.0002742,-0.88028,2.7094e-05,-1857.5,-0.00058391,-6448.4,0.0076428
10326,1.0175,2.1818,0,0.00058176,5813.6,0.00028038,1.6996,2.0752e-05,-1949.1,-0.00058978,-6536.4,0.0064634
10327,1.11,2.1818,0.05,3.0803e-06,30.782,2.3653e-06,17.772,-4.4535e-12,5.0845e-05,-2.3653e-06,-17.772,0.0076339
10328,1.11,1.9091,0,0.00056972,5693.3,0.00026876,-0.85062,3.3023e-05,-1772.1,-0.00057881,-6369.2,0.0075736
10329,1.0175,2,0,0.00057632,5759.3,0.00027561,1.715,2.5408e-05,-1878.2,-0.00058474,-6462.6,0.0064133
10330,1.11,2,0.05,3.423e-06,34.206,2.6284e-06,19.749,2.0746e-12,7.1732e-05,-2.6284e-06,-19.749,0.0075738
10331,1.11,1.7273,0,0.0005639,5635.2,0.00026245,-0.81298,4.0512e-05,-1668.3,-0.00057347,-6281.5,0.0074842
10332,1.0175,1.8182,0,0.00057027,5698.8,0.0002699,1.7323,3.1394e-05,-1790.3,-0.00057914,-6377.7,0.0063476
10333,1.11,1.8182,0.05,3.759e-06,37.564,2.8864e-06,21.687,1.9654e-11,0.00018155,-2.8864e-06,-21.687,0.0074954
10334,1.11,1.5455,0,0.00055825,5578.6,0.00025529,-0.76475,4.9855e-05,-1544.3,-0.00056827,-6188.6,0.0073708
10335,1.0175,1.6364,0,0.00056394,5635.5,0.00026329,1.7507,3.8996e-05,-1683.5,-0.00057331,-6284.1,0.0062629
10336,1.11,1.6364,0.05,4.0699e-06,40.671,3.1252e-06,23.482,2.9084e-11,0.00021859,-3.1252e-06,-23.481,0.0073951
10337,1.11,1.3636,0,0.00055332,5529.4,0.00024735,-0.70052,6.1412e-05,-1397.8,-0.0005637,-6094.6,0.0072282
10338,1.0175,1.4545,0,0.00055778,5574,0.00025577,1.7713,4.8602e-05,-1554.8,-0.00056765,-6185,0.006155
10339,1.11,1.4545,0.05,4.3401e-06,43.371,3.3326e-06,25.04,3.2882e-11,0.00035117,-3.3326e-06,-25.04,0.0072684
10340,1.11,1.1818,0,0.00054983,5494.5,0.00023873,-0.60826,7.5563e-05,-1226.6,-0.00056034,-6004.5,0.0070505
10341,1.0175,1.2727,0,0.00055244,5520.6,0.00024738,1.7974,6.0698e-05,-1400.8,-0.00056271,-6084.9,0.006019
10342,1.11,1.2727,0.05,4.5557e-06,45.526,3.4982e-06,26.284,3.8767e-11,0.00040815,-3.4982e-06,-26.284,0.0071098
10343,1.11,1,0,0.00054856,5481.8,0.00022958,-0.46998,9.2606e-05,-1029.6,-0.00055878,-5923.9,0.0068302
10344,1.0175,1.0909,0,0.00054875,5483.7,0.00023819,1.8414,7.5821e-05,-1218.1,-0.00055916,-5989.1,0.0058484
10345,1.11,1.0909,0.05,4.7036e-06,47.004,3.6118e-06,27.137,5.2083e-11,0.00044375,-3.6118e-06,-27.138,0.0069125
10346,1.11,0.81818,0,0.00055025,5498.7,0.00022013,-0.2362,0.00011257,-808.42,-0.00055953,-5858.3,0.0065582
10347,1.0175,0.90909,0,0.00054767,5472.9,0.00022833,1.9167,9.4417e-05,-1004.3,-0.00055773,-5904.3,0.0056351
10348,1.11,0.90909,0.05,4.7662e-06,47.629,3.6598e-06,27.498,4.4472e-11,0.00048604,-3.6598e-06,-27.498,0.0066682
10349,1.11,0.63636,0,0.00055536,5549.8,0.00021076,0.11701,0.00013496,-569.36,-0.00056285,-5812.5,0.0062237
10350,1.0175,0.72727,0,0.00055016,5497.8,0.00021809,2.0993,0.00011657,-760.74,-0.00055907,-5837.2,0.0053695
10351,1.11,0.72727,0.05,4.7125e-06,47.093,3.6186e-06,27.189,4.641e-11,0.00050644,-3.6187e-06,-27.189,0.0063669
10352,1.11,0.45455,0,0.00056395,5635.6,0.00020202,1.1299,0.00015874,-324.03,-0.00056874,-5790,0.0058143
10353,1.0175,0.54545,0,0.00055678,5563.9,0.00020795,2.3405,0.00014162,-496.07,-0.0005635,-5794,0.0050395
10354,1.11,0.54545,0.05,4.4969e-06,44.938,3.4531e-06,25.945,5.2111e-11,0.00050535,-3.4531e-06,-25.945,0.0059969
10355,1.11,0.27273,0,0.00057703,5766.4,0.00019502,6.5909,0.00018322,-82.114,-0.00057827,-5803.6,0.0053161
10356,1.0175,0.36364,0,0.00056753,5671.4,0.00019872,3.9073,0.00016804,-226.64,-0.00057097,-5779.2,0.0046312
10357,1.11,0.36364,0.05,4.0955e-06,40.927,3.1449e-06,23.629,4.5421e-11,0.00049803,-3.1449e-06,-23.629,0.0055447
10358,1.0175,0.18182,0,0.00058484,5844.4,0.00019882,63.141,0.00018892,-11.241,-0.00058392,-5818.1,0.0041297
10359,1.11,0.18182,0.05,5.9916e-06,59.874,4.6008e-06,34.569,1.1966e-11,0.00020297,-4.6008e-06,-34.568,0.0049956
10360,1.11,0.090909,0,0.00057872,5783.2,0.00019502,48.91,0.00018862,0.84341,-0.00057786,-5758.2,0.004715
10361,0.925,5.7273,0,0.00057511,5747.1,0.00019564,8.8158,0.00018064,-103.94,-0.00057665,-5793.9,0.0035638
10362,0.8325,5.8182,0,0.00058014,5797.4,0.00019811,70.951,0.00018665,-15.164,-0.00057914,-5769,0.0026137
10363,0.925,5.8182,0.05,5.7896e-06,57.856,4.4457e-06,33.403,-2.0837e-11,-0.00026636,-4.4457e-06,-33.403,0.0032916
10364,0.925,5.9091,0,0.00057748,5770.8,0.00019537,58.573,0.00018781,1.7482,-0.00057643,-5740.4,0.0030588
10365,0.925,5.5455,0,0.00056014,5597.6,0.00020459,4.6337,0.000151,-398.02,-0.00056575,-5783.4,0.0039706
10366,0.8325,5.6364,0,0.00055988,5594.9,0.00019878,-0.13043,0.0001606,-287,-0.00056421,-5732.9,0.0030183
10367,0.925,5.6364,0.05,4.8844e-06,48.81,3.7506e-06,28.181,-5.0365e-11,-0.00054542,-3.7506e-06,-28.181,0.0037466
10368,0.925,5.3636,0,0.00055133,5509.5,0.00021527,4.2185,0.0001232,-687.61,-0.00055969,-5818.5,0.0042953
10369,0.8325,5.4545,0,0.00054871,5483.3,0.00021043,-3.2275,0.00012899,-615.13,-0.00055666,-5766.8,0.0033368
10370,0.925,5.4545,0.05,5.2165e-06,52.129,4.0057e-06,30.097,-5.296e-11,-0.00050056,-4.0056e-06,-30.097,0.0041103
10371,0.925,5.1818,0,0.00054737,5469.9,0.00022629,4.2104,9.8339e-05,-957.16,-0.0005572,-5882.6,0.0045534
10372,0.8325,5.2727,0,0.00054374,5433.6,0.00022276,-4.1544,0.00010079,-920.59,-0.00055364,-5837.7,0.0035861
10373,0.925,5.2727,0.05,5.2481e-06,52.445,4.0299e-06,30.279,-4.6375e-11,-0.00050443,-4.0299e-06,-30.279,0.0043994
10374,0.925,5,0,0.0005477,5473.3,0.00023694,4.2078,7.7534e-05,-1193.5,-0.00055801,-5968.7,0.0047583
10375,0.8325,5.0909,0,0.00054417,5438,0.00023463,-4.7938,7.7683e-05,-1184,-0.00055471,-5935.6,0.0037811
10376,0.925,5.0909,0.05,5.1495e-06,51.459,3.9542e-06,29.71,-4.4066e-11,-0.00046989,-3.9541e-06,-29.71,0.0046286
10377,0.925,4.8182,0,0.00055127,5508.9,0.00024683,4.2365,6.0866e-05,-1393,-0.00056143,-6068.7,0.0049206
10378,0.8325,4.9091,0,0.00054848,5481,0.00024553,-5.1659,5.9693e-05,-1401.5,-0.0005589,-6049.3,0.0039338
10379,0.925,4.9091,0.05,4.9929e-06,49.895,3.8339e-06,28.807,-3.8767e-11,-0.00042279,-3.8339e-06,-28.807,0.0048102
10380,0.925,4.6364,0,0.00055686,5564.7,0.0002558,4.2635,4.782e-05,-1558.4,-0.00056658,-6174.7,0.005049
10381,0.8325,4.7273,0,0.00055507,5546.9,0.00025526,-5.418,4.603e-05,-1577.5,-0.00056502,-6168.6,0.0040533
10382,0.925,4.7273,0.05,4.798e-06,47.947,3.6843e-06,27.682,-3.0645e-11,-0.00038571,-3.6843e-06,-27.682,0.0049538
10383,0.925,4.4545,0,0.00056346,5630.7,0.00026377,4.2835,3.7696e-05,-1694.3,-0.00057264,-6280.1,0.0051502
10384,0.8325,4.5455,0,0.00056268,5622.9,0.00026379,-5.5922,3.5715e-05,-1719.3,-0.00057207,-6285.9,0.0041468
10385,0.925,4.5455,0.05,4.5668e-06,45.636,3.5067e-06,26.348,-2.2996e-11,-0.00026752,-3.5067e-06,-26.348,0.0050671
10386,0.925,4.2727,0,0.0005703,5699.1,0.00027074,4.2941,2.9847e-05,-1805.7,-0.00057895,-6380,0.0052294
10387,0.8325,4.3636,0,0.00057043,5700.4,0.00027119,-5.7192,2.7899e-05,-1833.7,-0.00057929,-6395.9,0.0042196
10388,0.925,4.3636,0.05,4.3023e-06,42.993,3.3036e-06,24.822,-1.7576e-11,-0.00017152,-3.3036e-06,-24.822,0.0051561
10389,0.925,4.0909,0,0.00057688,5764.8,0.00027675,4.2968,2.3757e-05,-1896.6,-0.00058505,-6470.9,0.0052908
10390,0.8325,4.1818,0,0.0005778,5774,0.00027752,-5.813,2.1932e-05,-1926.2,-0.00058618,-6495.3,0.0042758
10391,0.925,4.1818,0.05,4.0133e-06,40.105,3.0817e-06,23.155,-1.1728e-11,-0.00012169,-3.0817e-06,-23.155,0.0052254
10392,0.925,3.9091,0,0.00058283,5824.3,0.0002818,4.2941,1.9049e-05,-1969.9,-0.00059059,-6550.5,0.0053377
10393,0.8325,4,0,0.00058443,5840.2,0.00028284,-5.8824,1.7356e-05,-2000.6,-0.00059241,-6582.2,0.0043188
10394,0.925,4,0.05,3.7131e-06,37.106,2.8512e-06,21.423,2.8186e-13,-4.7989e-05,-2.8512e-06,-21.423,0.0052787
10395,0.925,3.7273,0,0.00058792,5875.2,0.00028591,4.2886,1.5461e-05,-2027.8,-0.00059535,-6617.2,0.0053728
10396,0.8325,3.8182,0,0.00059013,5897.2,0.0002872,-5.933,1.3862e-05,-2059.7,-0.00059779,-6655.4,0.0043511
10397,0.925,3.8182,0.05,3.4183e-06,34.159,2.6248e-06,19.722,7.2138e-12,-1.8762e-05,-2.6248e-06,-19.722,0.005319
10398,0.925,3.5455,0,0.00059201,5916.1,0.0002891,4.2825,1.2815e-05,-2071.6,-0.00059919,-6670,0.005398
10399,0.8325,3.6364,0,0.00059478,5943.7,0.00029066,-5.9689,1.1246e-05,-2105.3,-0.00060218,-6714.4,0.0043746
10400,0.925,3.6364,0.05,3.147e-06,31.448,2.4165e-06,18.157,1.19e-11,7.1954e-05,-2.4165e-06,-18.157,0.0053486
10401,0.925,3.3636,0,0.000595,5945.9,0.00029137,4.2772,1.0997e-05,-2102.4,-0.00060199,-6708.1,0.005415
10402,0.8325,3.4545,0,0.00059831,5979,0.00029322,-5.993,9.3758e-06,-2138.7,-0.00060553,-6758.9,0.004391
10403,0.925,3.4545,0.05,2.9186e-06,29.166,2.2411e-06,16.839,1.1785e-11,4.8421e-05,-2.2412e-06,-16.839,0.0053693
10404,0.925,3.1818,0,0.00059681,5964,0.00029274,4.2738,9.933e-06,-2120.6,-0.00060369,-6731.2,0.0054247
10405,0.8325,3.2727,0,0.00060068,6002.7,0.00029493,-6.0077,8.1692e-06,-2160.6,-0.00060778,-6788.6,0.0044013
10406,0.925,3.2727,0.05,2.7523e-06,27.504,2.1134e-06,15.88,9.5553e-12,2.9346e-05,-2.1134e-06,-15.88,0.0053824
10407,0.925,3,0,0.00059742,5970.1,0.00029319,4.2726,9.5826e-06,-2126.7,-0.00060427,-6738.9,0.0054279
10408,0.8325,3.0909,0,0.00060187,6014.6,0.00029577,-6.0147,7.5773e-06,-2171.4,-0.00060891,-6803.5,0.0044063
10409,0.925,3.0909,0.05,2.6643e-06,26.625,2.0458e-06,15.372,3.3084e-12,1.1316e-05,-2.0459e-06,-15.372,0.0053887
10410,0.925,2.8182,0,0.00059681,5964,0.00029274,4.2738,9.933e-06,-2120.6,-0.00060369,-6731.2,0.0054247
10411,0.8325,2.9091,0,0.00060187,6014.6,0.00029577,-6.0147,7.5773e-06,-2171.4,-0.00060891,-6803.5,0.0044063
10412,0.925,2.9091,0.05,2.6643e-06,26.625,2.0459e-06,15.372,-4.2961e-12,-1.1253e-05,-2.0458e-06,-15.372,0.0053887
10413,0.925,2.6364,0,0.000595,5945.9,0.00029137,4.2772,1.0997e-05,-2102.4,-0.00060199,-6708.1,0.005415
10414,0.8325,2.7273,0,0.00060068,6002.7,0.00029493,-6.0077,8.1692e-06,-2160.6,-0.00060778,-6788.6,0.0044013
10415,0.925,2.7273,0.05,2.7523e-06,27.504,2.1134e-06,15.88,-1.0347e-11,-2.6788e-05,-2.1134e-06,-15.879,0.0053824
10416,0.925,2.4545,0,0.00059201,5916.1,0.0002891,4.2825,1.2815e-05,-2071.6,-0.00059919,-6670,0.005398
10417,0.8325,2.5455,0,0.00059831,5979,0.00029322,-5.993,9.3757e-06,-2138.7,-0.00060553,-6758.9,0.004391
10418,0.925,2.5455,0.05,2.9186e-06,29.166,2.2412e-06,16.839,-1.2483e-11,-4.0775e-05,-2.2411e-06,-16.839,0.0053693
10419,0.925,2.2727,0,0.00058792,5875.2,0.00028591,4.2886,1.5461e-05,-2027.8,-0.00059535,-6617.2,0.0053728
10420,0.8325,2.3636,0,0.00059478,5943.7,0.00029066,-5.9689,1.1246e-05,-2105.3,-0.00060218,-6714.4,0.0043746
10421,0.925,2.3636,0.05,3.147e-06,31.448,2.4165e-06,18.157,-1.2018e-11,-6.9213e-05,-2.4165e-06,-18.157,0.0053486
10422,0.925,2.0909,0,0.00058283,5824.3,0.0002818,4.2941,1.9049e-05,-1969.9,-0.00059059,-6550.5,0.0053377
10423,0.8325,2.1818,0,0.00059013,5897.2,0.0002872,-5.933,1.3862e-05,-2059.7,-0.00059779,-6655.4,0.0043511
10424,0.925,2.1818,0.05,3.4183e-06,34.159,2.6248e-06,19.722,-9.4727e-12,1.9996e-05,-2.6248e-06,-19.722,0.005319
10425,0.925,1.9091,0,0.00057688,5764.8,0.00027675,4.2968,2.3757e-05,-1896.6,-0.00058505,-6470.9,0.0052908
10426,0.8325,2,0,0.00058443,5840.2,0.00028284,-5.8824,1.7356e-05,-2000.6,-0.00059241,-6582.2,0.0043188
10427,0.925,2,0.05,3.7131e-06,37.106,2.8512e-06,21.423,-1.6177e-13,0.0001025,-2.8512e-06,-21.423,0.0052787
10428,0.925,1.7273,0,0.0005703,5699.1,0.00027074,4.2941,2.9847e-05,-1805.7,-0.00057895,-6380,0.0052294
10429,0.8325,1.8182,0,0.0005778,5774,0.00027752,-5.813,2.1932e-05,-1926.2,-0.00058618,-6495.3,0.0042758
10430,0.925,1.8182,0.05,4.0133e-06,40.105,3.0817e-06,23.155,1.8641e-12,0.00014986,-3.0817e-06,-23.154,0.0052254
10431,0.925,1.5455,0,0.00056346,5630.7,0.00026377,4.2835,3.7696e-05,-1694.3,-0.00057264,-6280.1,0.0051502
10432,0.8325,1.6364,0,0.00057043,5700.4,0.00027119,-5.7192,2.7899e-05,-1833.7,-0.00057929,-6395.9,0.0042196
10433,0.925,1.6364,0.05,4.3023e-06,42.993,3.3036e-06,24.822,1.507e-11,0.0002042,-3.3036e-06,-24.822,0.0051561
10434,0.925,1.3636,0,0.00055686,5564.7,0.0002558,4.2635,4.782e-05,-1558.4,-0.00056658,-6174.7,0.005049
10435,0.8325,1.4545,0,0.00056268,5622.9,0.00026379,-5.5922,3.5715e-05,-1719.3,-0.00057207,-6285.9,0.0041468
10436,0.925,1.4545,0.05,4.5668e-06,45.636,3.5067e-06,26.348,2.6347e-11,0.00030546,-3.5067e-06,-26.348,0.0050671
10437,0.925,1.1818,0,0.00055127,5508.9,0.00024683,4.2365,6.0866e-05,-1393,-0.00056143,-6068.7,0.0049206
10438,0.8325,1.2727,0,0.00055507,5546.9,0.00025526,-5.418,4.6029e-05,-1577.5,-0.00056502,-6168.6,0.0040533
10439,0.925,1.2727,0.05,4.798e-06,47.947,3.6843e-06,27.682,3.6355e-11,0.00032467,-3.6843e-06,-27.682,0.0049538
10440,0.925,1,0,0.0005477,5473.3,0.00023694,4.2078,7.7534e-05,-1193.5,-0.00055801,-5968.7,0.0047583
10441,0.8325,1.0909,0,0.00054848,5481,0.00024553,-5.1659,5.9693e-05,-1401.5,-0.0005589,-6049.3,0.0039338
10442,0.925,1.0909,0.05,4.9929e-06,49.895,3.8339e-06,28.807,4.8876e-11,0.00039169,-3.8339e-06,-28.807,0.0048102
10443,0.925,0.81818,0,0.00054737,5469.9,0.00022629,4.2104,9.8339e-05,-957.16,-0.0005572,-5882.6,0.0045534
10444,0.8325,0.90909,0,0.00054417,5438,0.00023463,-4.7938,7.7683e-05,-1184,-0.00055471,-5935.6,0.0037811
10445,0.925,0.90909,0.05,5.1495e-06,51.459,3.9541e-06,29.71,5.1453e-11,0.00048413,-3.9542e-06,-29.71,0.0046286
10446,0.925,0.63636,0,0.00055133,5509.5,0.00021527,4.2185,0.0001232,-687.61,-0.00055969,-5818.5,0.0042953
10447,0.8325,0.72727,0,0.00054374,5433.6,0.00022276,-4.1544,0.00010079,-920.59,-0.00055364,-5837.7,0.0035861
10448,0.925,0.72727,0.05,5.2481e-06,52.445,4.0299e-06,30.279,6.039e-11,0.00050495,-4.0299e-06,-30.279,0.0043994
10449,0.925,0.45455,0,0.00056014,5597.6,0.00020459,4.6337,0.000151,-398.02,-0.00056575,-5783.4,0.0039706
10450,0.8325,0.54545,0,0.00054871,5483.3,0.00021043,-3.2275,0.00012899,-615.13,-0.00055666,-5766.8,0.0033368
10451,0.925,0.54545,0.05,5.2165e-06,52.129,4.0056e-06,30.097,5.2652e-11,0.00056246,-4.0057e-06,-30.097,0.0041103
10452,0.925,0.27273,0,0.00057511,5747.1,0.00019564,8.8158,0.00018064,-103.94,-0.00057665,-5793.9,0.0035638
10453,0.8325,0.36364,0,0.00055988,5594.9,0.00019878,-0.13043,0.0001606,-287,-0.00056421,-5732.9,0.0030183
10454,0.925,0.36364,0.05,4.8844e-06,48.81,3.7506e-06,28.181,5.0465e-11,0.00048444,-3.7506e-06,-28.181,0.0037466
10455,0.8325,0.18182,0,0.00058014,5797.4,0.00019811,70.951,0.00018665,-15.164,-0.00057914,-5769,0.0026137
10456,0.925,0.18182,0.05,5.7896e-06,57.856,4.4457e-06,33.403,2.2811e-11,0.00029593,-4.4457e-06,-33.403,0.0032916
10457,0.925,0.090909,0,0.00057748,5770.8,0.00019537,58.573,0.00018781,1.7482,-0.00057643,-5740.4,0.0030588
10458,0.74,5.7273,0,0.00056455,5641.6,0.00019314,1.0645,0.00017476,-137.05,-0.00056674,-5708.3,0.002184
10459,0.6475,5.8182,0,0.00056533,5649.4,0.00019426,86.236,0.0001814,-10.434,-0.00056398,-5610.9,0.001469
10460,0.74,5.8182,0.05,5.867e-06,58.63,4.5052e-06,33.85,-4.3563e-11,-0.0004008,-4.5051e-06,-33.85,0.0019637
10461,0.74,5.9091,0,0.00056756,5671.7,0.00019336,71.955,0.00018361,-1.3354,-0.00056633,-5636,0.0017822
10462,0.74,5.5455,0,0.00054809,5477.1,0.00020454,-8.5404,0.00013866,-503.57,-0.00055512,-5716.3,0.0024951
10463,0.6475,5.6364,0,0.00054347,5431,0.00019875,18.098,0.00014735,-368.08,-0.00054839,-5595.6,0.0017713
10464,0.74,5.6364,0.05,6.3632e-06,63.588,4.8861e-06,36.712,-4.3932e-11,-0.00053813,-4.8861e-06,-36.713,0.0023189
10465,0.74,5.3636,0,0.00054075,5403.8,0.0002179,-11.727,0.0001065,-848.75,-0.0005505,-5785.2,0.0027341
10466,0.6475,5.4545,0,0.00053502,5346.5,0.00021492,19.844,0.00010975,-770.42,-0.00054338,-5677.8,0.0019983
10467,0.74,5.4545,0.05,6.3775e-06,63.731,4.8971e-06,36.795,-4.3475e-11,-0.00048647,-4.8971e-06,-36.795,0.0025913
10468,0.74,5.1818,0,0.00054027,5399,0.0002311,-13.21,7.9993e-05,-1148.5,-0.000551,-5889.6,0.0029176
10469,0.6475,5.2727,0,0.00053559,5352.2,0.00023069,21.163,7.9597e-05,-1114.1,-0.00054507,-5807.6,0.0021685
10470,0.74,5.2727,0.05,6.0485e-06,60.444,4.6445e-06,34.897,-4.6209e-11,-0.00051096,-4.6445e-06,-34.897,0.0027998
10471,0.74,5,0,0.00054479,5444.1,0.00024322,-14.192,5.971e-05,-1393,-0.00055546,-6015.2,0.003059
10472,0.6475,5.0909,0,0.00054227,5419,0.00024483,22.084,5.751e-05,-1385.4,-0.00055157,-5961.8,0.002297
10473,0.74,5.0909,0.05,5.727e-06,57.23,4.3976e-06,33.042,-4.3073e-11,-0.00047427,-4.3976e-06,-33.042,0.0029597
10474,0.74,4.8182,0,0.00055221,5518.3,0.00025395,-14.832,4.4764e-05,-1586.6,-0.00056239,-6148.5,0.0031684
10475,0.6475,4.9091,0,0.00055204,5516.6,0.00025704,22.805,4.1949e-05,-1593.3,-0.00056069,-6121.3,0.0023948
10476,0.74,4.9091,0.05,5.4592e-06,54.554,4.192e-06,31.497,-3.8491e-11,-0.00040119,-4.192e-06,-31.497,0.003083
10477,0.74,4.6364,0,0.00056087,5604.8,0.00026325,-15.279,3.3872e-05,-1738.8,-0.00057045,-6279.4,0.0032531
10478,0.6475,4.7273,0,0.00056276,5623.7,0.00026738,23.325,3.1057e-05,-1752.3,-0.00057073,-6273.9,0.0024697
10479,0.74,4.7273,0.05,5.2115e-06,52.079,4.0018e-06,30.068,-2.1642e-11,-0.00030551,-4.0018e-06,-30.068,0.0031783
10480,0.74,4.4545,0,0.00056966,5692.7,0.00027122,-15.598,2.5893e-05,-1858.9,-0.00057869,-6401.5,0.0033186
10481,0.6475,4.5455,0,0.00057322,5728.3,0.00027607,23.699,2.3341e-05,-1875.2,-0.00058059,-6412.9,0.002527
10482,0.74,4.5455,0.05,4.955e-06,49.515,3.8048e-06,28.588,-1.6961e-11,-0.0002483,-3.8048e-06,-28.588,0.003252
10483,0.74,4.2727,0,0.00057794,5775.4,0.00027797,-15.828,1.9973e-05,-1954.3,-0.0005865,-6511.1,0.003369
10484,0.6475,4.3636,0,0.0005828,5823.9,0.00028331,23.96,1.7765e-05,-1971.2,-0.00058968,-6535.3,0.0025708
10485,0.74,4.3636,0.05,4.6805e-06,46.772,3.594e-06,27.004,-6.7627e-12,-0.00016204,-3.594e-06,-27.004,0.0033088
10486,0.74,4.0909,0,0.00058536,5849.6,0.00028361,-15.993,1.5527e-05,-2030.3,-0.00059354,-6606.5,0.0034074
10487,0.6475,4.1818,0,0.0005912,5908,0.0002893,24.137,1.3653e-05,-2047,-0.00059771,-6640.5,0.002604
10488,0.74,4.1818,0.05,4.3933e-06,43.903,3.3735e-06,25.347,2.0714e-12,-0.00011162,-3.3735e-06,-25.347,0.0033522
10489,0.74,3.9091,0,0.00059173,5913.3,0.00028825,-16.11,1.2166e-05,-2090.5,-0.0005996,-6687.1,0.0034362
10490,0.6475,4,0,0.00059835,5979.4,0.0002942,24.253,1.0574e-05,-2106.8,-0.00060456,-6728.7,0.002629
10491,0.74,4,0.05,4.1056e-06,41.028,3.1526e-06,23.688,6.28e-12,-2.3866e-05,-3.1526e-06,-23.688,0.0033851
10492,0.74,3.7273,0,0.00059698,5965.7,0.00029195,-16.191,9.6424e-06,-2137.3,-0.00060461,-6752.6,0.0034575
10493,0.6475,3.8182,0,0.00060422,6038,0.00029812,24.325,8.2582e-06,-2153.6,-0.00061021,-6800.5,0.0026474
10494,0.74,3.8182,0.05,3.8325e-06,38.298,2.9428e-06,22.111,9.0774e-12,3.0997e-05,-2.9429e-06,-22.112,0.0034096
10495,0.74,3.5455,0,0.00060107,6006.6,0.00029478,-16.245,7.7988e-06,-2172.5,-0.00060852,-6803.3,0.0034725
10496,0.6475,3.6364,0,0.00060885,6084.3,0.00030117,24.368,6.5404e-06,-2189.4,-0.00061466,-6856.8,0.0026607
10497,0.74,3.6364,0.05,3.5892e-06,35.867,2.756e-06,20.708,1.0484e-11,2.7489e-05,-2.756e-06,-20.708,0.0034273
10498,0.74,3.3636,0,0.00060399,6035.7,0.00029678,-16.278,6.5378e-06,-2197,-0.00061131,-6839.3,0.0034826
10499,0.6475,3.4545,0,0.00061227,6118.5,0.0003034,24.39,5.3186e-06,-2215.3,-0.00061797,-6898.4,0.0026698
10500,0.74,3.4545,0.05,3.3906e-06,33.882,2.6035e-06,19.562,1.0279e-11,4.5662e-05,-2.6035e-06,-19.562,0.0034395
10501,0.74,3.1818,0,0.00060574,6053.2,0.00029796,-16.297,5.8016e-06,-2211.5,-0.00061299,-6860.8,0.0034883
10502,0.6475,3.2727,0,0.00061453,6141.1,0.00030486,24.402,4.532e-06,-2232.2,-0.00062015,-6925.7,0.0026754
10503,0.74,3.2727,0.05,3.2496e-06,32.474,2.4953e-06,18.749,6.8264e-12,4.3966e-05,-2.4953e-06,-18.749,0.0034471
10504,0.74,3,0,0.00060632,6059,0.00029836,-16.302,5.5594e-06,-2216.3,-0.00061355,-6868,0.0034901
10505,0.6475,3.0909,0,0.00061566,6152.3,0.00030558,24.406,4.1464e-06,-2240.5,-0.00062123,-6939.3,0.0026781
10506,0.74,3.0909,0.05,3.1764e-06,31.742,2.4391e-06,18.326,2.2842e-12,3.6966e-05,-2.4391e-06,-18.326,0.0034508
10507,0.74,2.8182,0,0.00060574,6053.2,0.00029796,-16.297,5.8016e-06,-2211.5,-0.00061299,-6860.8,0.0034883
10508,0.6475,2.9091,0,0.00061566,6152.3,0.00030558,24.406,4.1464e-06,-2240.5,-0.00062123,-6939.3,0.0026781
10509,0.74,2.9091,0.05,3.1764e-06,31.742,2.4391e-06,18.326,-3.1865e-12,-3.6921e-05,-2.4391e-06,-18.326,0.0034508
10510,0.74,2.6364,0,0.00060399,6035.7,0.00029678,-16.278,6.5378e-06,-2197,-0.00061131,-6839.3,0.0034826
10511,0.6475,2.7273,0,0.00061453,6141.1,0.00030486,24.402,4.532e-06,-2232.2,-0.00062015,-6925.7,0.0026754
10512,0.74,2.7273,0.05,3.2496e-06,32.474,2.4953e-06,18.749,-7.6726e-12,-7.3525e-05,-2.4953e-06,-18.749,0.0034471
10513,0.74,2.4545,0,0.00060107,6006.6,0.00029478,-16.245,7.7988e-06,-2172.5,-0.00060852,-6803.3,0.0034725
10514,0.6475,2.5455,0,0.00061227,6118.5,0.0003034,24.39,5.3186e-06,-2215.3,-0.00061797,-6898.4,0.0026698
10515,0.74,2.5455,0.05,3.3906e-06,33.882,2.6035e-06,19.562,-1.0536e-11,-3.8904e-05,-2.6035e-06,-19.562,0.0034395
10516,0.74,2.2727,0,0.00059698,5965.7,0.00029195,-16.191,9.6424e-06,-2137.3,-0.00060461,-6752.6,0.0034575
10517,0.6475,2.3636,0,0.00060885,6084.3,0.00030117,24.368,6.5404e-06,-2189.4,-0.00061466,-6856.8,0.0026607
10518,0.74,2.3636,0.05,3.5892e-06,35.867,2.756e-06,20.708,-1.0681e-11,2.5126e-06,-2.756e-06,-20.708,0.0034273
10519,0.74,2.0909,0,0.00059173,5913.3,0.00028825,-16.11,1.2166e-05,-2090.5,-0.0005996,-6687.1,0.0034362
10520,0.6475,2.1818,0,0.00060422,6038,0.00029812,24.325,8.2582e-06,-2153.6,-0.00061021,-6800.5,0.0026474
10521,0.74,2.1818,0.05,3.8325e-06,38.298,2.9429e-06,22.112,-8.343e-12,-4.8109e-05,-2.9428e-06,-22.111,0.0034096
10522,0.74,1.9091,0,0.00058536,5849.6,0.00028361,-15.993,1.5527e-05,-2030.3,-0.00059354,-6606.5,0.0034074
10523,0.6475,2,0,0.00059835,5979.4,0.0002942,24.253,1.0574e-05,-2106.8,-0.00060456,-6728.7,0.002629
10524,0.74,2,0.05,4.1056e-06,41.028,3.1526e-06,23.688,-3.9221e-12,7.2697e-05,-3.1526e-06,-23.687,0.0033851
10525,0.74,1.7273,0,0.00057794,5775.4,0.00027797,-15.828,1.9973e-05,-1954.3,-0.0005865,-6511.1,0.003369
10526,0.6475,1.8182,0,0.0005912,5908,0.0002893,24.137,1.3653e-05,-2047,-0.00059771,-6640.5,0.002604
10527,0.74,1.8182,0.05,4.3933e-06,43.903,3.3735e-06,25.347,3.5364e-12,5.5455e-05,-3.3735e-06,-25.347,0.0033522
10528,0.74,1.5455,0,0.00056966,5692.7,0.00027122,-15.598,2.5893e-05,-1858.9,-0.00057869,-6401.5,0.0033186
10529,0.6475,1.6364,0,0.0005828,5823.9,0.00028331,23.96,1.7765e-05,-1971.2,-0.00058968,-6535.3,0.0025708
10530,0.74,1.6364,0.05,4.6805e-06,46.772,3.594e-06,27.004,1.0892e-11,0.0001515,-3.594e-06,-27.004,0.0033088
10531,0.74,1.3636,0,0.00056087,5604.8,0.00026325,-15.279,3.3872e-05,-1738.8,-0.00057045,-6279.4,0.0032531
10532,0.6475,1.4545,0,0.00057322,5728.3,0.00027607,23.699,2.3341e-05,-1875.2,-0.00058059,-6412.9,0.002527
10533,0.74,1.4545,0.05,4.955e-06,49.515,3.8048e-06,28.588,1.5935e-11,0.00025574,-3.8048e-06,-28.588,0.003252
10534,0.74,1.1818,0,0.00055221,5518.3,0.00025395,-14.832,4.4764e-05,-1586.6,-0.00056239,-6148.5,0.0031684
10535,0.6475,1.2727,0,0.00056276,5623.7,0.00026738,23.325,3.1057e-05,-1752.3,-0.00057073,-6273.9,0.0024697
10536,0.74,1.2727,0.05,5.2115e-06,52.079,4.0018e-06,30.068,2.9384e-11,0.00030551,-4.0018e-06,-30.068,0.0031783
10537,0.74,1,0,0.00054479,5444.1,0.00024322,-14.192,5.971e-05,-1393,-0.00055546,-6015.2,0.003059
10538,0.6475,1.0909,0,0.00055204,5516.6,0.00025704,22.805,4.1949e-05,-1593.3,-0.00056069,-6121.3,0.0023948
10539,0.74,1.0909,0.05,5.4592e-06,54.554,4.1919e-06,31.497,4.1107e-11,0.00032284,-4.192e-06,-31.497,0.003083
10540,0.74,0.81818,0,0.00054027,5399,0.0002311,-13.21,7.9992e-05,-1148.5,-0.000551,-5889.6,0.0029176
10541,0.6475,0.90909,0,0.00054227,5419,0.00024483,22.084,5.751e-05,-1385.4,-0.00055157,-5961.8,0.002297
10542,0.74,0.90909,0.05,5.727e-06,57.23,4.3976e-06,33.042,4.3706e-11,0.00048945,-4.3976e-06,-33.042,0.0029597
10543,0.74,0.63636,0,0.00054075,5403.8,0.0002179,-11.727,0.0001065,-848.75,-0.0005505,-5785.2,0.0027341
10544,0.6475,0.72727,0,0.00053559,5352.2,0.00023069,21.163,7.9597e-05,-1114.1,-0.00054507,-5807.6,0.0021685
10545,0.74,0.72727,0.05,6.0485e-06,60.444,4.6445e-06,34.897,6.079e-11,0.00057296,-4.6445e-06,-34.897,0.0027998
10546,0.74,0.45455,0,0.00054809,5477.1,0.00020454,-8.5404,0.00013866,-503.57,-0.00055512,-5716.3,0.0024951
10547,0.6475,0.54545,0,0.00053502,5346.5,0.00021492,19.844,0.00010975,-770.42,-0.00054338,-5677.8,0.0019983
10548,0.74,0.54545,0.05,6.3775e-06,63.731,4.8971e-06,36.795,5.7955e-11,0.00048633,-4.8971e-06,-36.795,0.0025913
10549,0.74,0.27273,0,0.00056455,5641.6,0.00019314,1.0646,0.00017476,-137.05,-0.00056674,-5708.3,0.002184
10550,0.6475,0.36364,0,0.00054347,5431,0.00019875,18.098,0.00014735,-368.08,-0.00054839,-5595.6,0.0017713
10551,0.74,0.36364,0.05,6.3632e-06,63.588,4.8861e-06,36.713,5.0109e-11,0.00049928,-4.8861e-06,-36.712,0.0023189
10552,0.6475,0.18182,0,0.00056533,5649.4,0.00019426,86.236,0.0001814,-10.434,-0.00056398,-5610.9,0.001469
10553,0.74,0.18182,0.05,5.867e-06,58.63,4.5051e-06,33.85,4.8352e-11,0.00053515,-4.5052e-06,-33.85,0.0019637
10554,0.74,0.090909,0,0.00056756,5671.7,0.00019336,71.955,0.00018361,-1.3354,-0.00056633,-5636,0.0017822
10555,0.555,5.7273,0,0.00054357,5431.9,0.00019083,35.35,0.00016301,-173.71,-0.00054562,-5498.1,0.0011662
10556,0.4625,5.8182,0,0.00053016,5297.9,0.00018419,83.54,0.00016691,-46.285,-0.0005294,-5278.1,0.00068035
10557,0.555,5.8182,0.05,6.8862e-06,68.814,5.2878e-06,39.73,-5.832e-11,-0.0006113,-5.2877e-06,-39.73,0.0010015
10558,0.555,5.9091,0,0.00054481,5444.3,0.00018758,99.737,0.00017571,10.545,-0.00054287,-5388.6,0.00087469
10559,0.555,5.5455,0,0.0005298,5294.4,0.00020905,45.877,0.00011839,-635.29,-0.00053653,-5556.1,0.0013792
10560,0.4625,5.6364,0,0.00050682,5064.7,0.00018949,-50.683,0.00012348,-546.68,-0.00051515,-5345.1,0.00087691
10561,0.555,5.6364,0.05,8.8985e-06,88.924,6.8329e-06,51.34,-4.4032e-11,-0.0004312,-6.8329e-06,-51.34,0.0012519
10562,0.555,5.3636,0,0.00052944,5290.7,0.00022769,52.581,8.2618e-05,-1037.5,-0.0005377,-5698.3,0.0015342
10563,0.4625,5.4545,0,0.00050664,5062.9,0.00021085,-69.003,8.092e-05,-1045.3,-0.00051848,-5548.9,0.0010143
10564,0.555,5.4545,0.05,8.0158e-06,80.103,6.1551e-06,46.247,-4.2586e-11,-0.00048046,-6.1551e-06,-46.247,0.0014324
10565,0.555,5.1818,0,0.00053743,5370.6,0.00024442,56.399,5.6913e-05,-1352.5,-0.00054542,-5878.2,0.0016481
10566,0.4625,5.2727,0,0.00051844,5180.8,0.00023013,-78.003,5.2811e-05,-1410.3,-0.00053074,-5794.9,0.0011117
10567,0.555,5.2727,0.05,7.0676e-06,70.628,5.4271e-06,40.777,-5.3382e-11,-0.00050623,-5.427e-06,-40.777,0.0015634
10568,0.555,5,0,0.00054953,5491.5,0.00025865,59.057,3.9642e-05,-1586.5,-0.00055669,-6067.1,0.0017329
10569,0.4625,5.0909,0,0.00053452,5341.5,0.00024611,-83.603,3.5242e-05,-1668,-0.00054638,-6038,0.0011822
10570,0.555,5.0909,0.05,6.4642e-06,64.598,4.9637e-06,37.296,-4.6992e-11,-0.00044348,-4.9637e-06,-37.296,0.0016601
10571,0.555,4.8182,0,0.00056267,5622.8,0.00027047,60.952,2.821e-05,-1759.3,-0.00056899,-6246.5,0.0017968
10572,0.4625,4.9091,0,0.00055084,5504.6,0.00025903,-87.383,2.43e-05,-1851,-0.00056219,-6257.6,0.0012341
10573,0.555,4.9091,0.05,6.0547e-06,60.505,4.6493e-06,34.933,-3.0525e-11,-0.00036262,-4.6493e-06,-34.933,0.0017323
10574,0.555,4.6364,0,0.00057521,5748.1,0.00028019,62.3,2.0533e-05,-1888.7,-0.00058087,-6407.4,0.0018451
10575,0.4625,4.7273,0,0.0005657,5653.1,0.00026942,-90.024,1.7287e-05,-1984.5,-0.00057664,-6447.1,0.001273
10576,0.555,4.7273,0.05,5.7172e-06,57.133,4.3901e-06,32.985,-1.3898e-11,-0.00027724,-4.3901e-06,-32.986,0.0017868
10577,0.555,4.4545,0,0.00058644,5860.4,0.00028815,63.255,1.5236e-05,-1987.3,-0.0005916,-6546.9,0.0018818
10578,0.4625,4.5455,0,0.00057856,5781.6,0.00027779,-91.905,1.2619e-05,-2084.3,-0.00058922,-6606.2,0.0013021
10579,0.555,4.5455,0.05,5.3906e-06,53.869,4.1393e-06,31.101,-7.1474e-12,-0.00015879,-4.1393e-06,-31.102,0.001828
10580,0.555,4.2727,0,0.00059613,5957.2,0.00029464,63.924,1.1468e-05,-2063.7,-0.00060091,-6664.9,0.0019095
10581,0.4625,4.3636,0,0.00058937,5889.6,0.00028451,-93.245,9.3873e-06,-2160.4,-0.00059982,-6737.7,0.0013239
10582,0.555,4.3636,0.05,5.061e-06,50.575,3.8862e-06,29.2,-2.6749e-12,-8.9061e-05,-3.8862e-06,-29.2,0.0018592
10583,0.555,4.0909,0,0.00060424,6038.3,0.00029989,64.383,8.7182e-06,-2123.4,-0.00060876,-6762.8,0.0019302
10584,0.4625,4.1818,0,0.00059826,5978.5,0.0002899,-94.188,7.0707e-06,-2219.2,-0.00060856,-6844.9,0.0013401
10585,0.555,4.1818,0.05,4.7333e-06,47.301,3.6346e-06,27.309,3.6116e-12,-6.5946e-05,-3.6346e-06,-27.309,0.0018826
10586,0.555,3.9091,0,0.00061087,6104.5,0.00030408,64.688,6.6776e-06,-2169.9,-0.00061518,-6842.2,0.0019455
10587,0.4625,4,0,0.00060543,6050.2,0.00029417,-94.84,5.3666e-06,-2264.8,-0.00061563,-6930.7,0.0013521
10588,0.555,4,0.05,4.4191e-06,44.161,3.3933e-06,25.496,5.4299e-12,2.2788e-05,-3.3934e-06,-25.496,0.0019
10589,0.555,3.7273,0,0.00061611,6156.9,0.00030734,64.883,5.1618e-06,-2205.6,-0.00062026,-6904.8,0.0019565
10590,0.4625,3.8182,0,0.00061109,6106.7,0.00029751,-95.278,4.0982e-06,-2299.9,-0.0006212,-6998.2,0.0013608
10591,0.555,3.8182,0.05,4.1316e-06,41.287,3.1725e-06,23.837,8.321e-12,-1.1556e-05,-3.1726e-06,-23.837,0.0019126
10592,0.555,3.5455,0,0.00062007,6196.4,0.00030979,65.002,4.0607e-06,-2232.1,-0.00062411,-6951.9,0.0019642
10593,0.4625,3.6364,0,0.0006154,6149.8,0.00030005,-95.562,3.1617e-06,-2326.2,-0.00062545,-7049.4,0.0013669
10594,0.555,3.6364,0.05,3.8834e-06,38.807,2.982e-06,22.405,8.9266e-12,6.2763e-05,-2.982e-06,-22.405,0.0019216
10595,0.555,3.3636,0,0.00062283,6224,0.00031148,65.07,3.3096e-06,-2250.4,-0.00062679,-6984.8,0.0019693
10596,0.4625,3.4545,0,0.00061851,6180.9,0.00030187,-95.737,2.4969e-06,-2345.1,-0.00062852,-7086.3,0.001371
10597,0.555,3.4545,0.05,3.6859e-06,36.833,2.8303e-06,21.266,8.0599e-12,7.0992e-05,-2.8303e-06,-21.266,0.0019277
10598,0.555,3.1818,0,0.00062446,6240.3,0.00031248,65.104,2.8715e-06,-2261.2,-0.00062838,-7004.2,0.0019721
10599,0.4625,3.2727,0,0.00062053,6201,0.00030305,-95.836,2.0689e-06,-2357.3,-0.0006305,-7110.2,0.0013735
10600,0.555,3.2727,0.05,3.5485e-06,35.46,2.7248e-06,20.473,5.2599e-12,9.9502e-06,-2.7248e-06,-20.473,0.0019315
10601,0.555,3,0,0.000625,6245.7,0.00031281,65.114,2.7274e-06,-2264.8,-0.0006289,-7010.6,0.001973
10602,0.4625,3.0909,0,0.00062152,6210.9,0.00030363,-95.88,1.859e-06,-2363.3,-0.00063147,-7121.9,0.0013747
10603,0.555,3.0909,0.05,3.478e-06,34.756,2.6707e-06,20.066,1.6321e-12,4.0148e-06,-2.6707e-06,-20.066,0.0019333
10604,0.555,2.8182,0,0.00062446,6240.3,0.00031248,65.104,2.8715e-06,-2261.2,-0.00062838,-7004.2,0.0019721
10605,0.4625,2.9091,0,0.00062152,6210.9,0.00030363,-95.88,1.859e-06,-2363.3,-0.00063147,-7121.9,0.0013747
10606,0.555,2.9091,0.05,3.478e-06,34.756,2.6707e-06,20.066,-2.3085e-12,-3.982e-06,-2.6707e-06,-20.066,0.0019333
10607,0.555,2.6364,0,0.00062283,6224,0.00031148,65.07,3.3096e-06,-2250.4,-0.00062679,-6984.8,0.0019693
10608,0.4625,2.7273,0,0.00062053,6201,0.00030305,-95.836,2.0689e-06,-2357.3,-0.0006305,-7110.2,0.0013735
10609,0.555,2.7273,0.05,3.5485e-06,35.46,2.7248e-06,20.473,-5.8722e-12,-9.7568e-06,-2.7248e-06,-20.473,0.0019315
10610,0.555,2.4545,0,0.00062007,6196.4,0.00030979,65.002,4.0607e-06,-2232.1,-0.00062411,-6951.9,0.0019642
10611,0.4625,2.5455,0,0.00061851,6180.9,0.00030187,-95.737,2.4968e-06,-2345.1,-0.00062852,-7086.3,0.001371
10612,0.555,2.5455,0.05,3.6859e-06,36.833,2.8303e-06,21.266,-8.3912e-12,-1.1024e-05,-2.8303e-06,-21.266,0.0019277
10613,0.555,2.2727,0,0.00061611,6156.9,0.00030734,64.883,5.1618e-06,-2205.6,-0.00062026,-6904.8,0.0019565
10614,0.4625,2.3636,0,0.0006154,6149.8,0.00030005,-95.562,3.1617e-06,-2326.2,-0.00062545,-7049.4,0.0013669
10615,0.555,2.3636,0.05,3.8834e-06,38.807,2.982e-06,22.405,-9.7417e-12,-4.5956e-07,-2.982e-06,-22.405,0.0019216
10616,0.555,2.0909,0,0.00061087,6104.5,0.00030408,64.688,6.6776e-06,-2169.9,-0.00061518,-6842.2,0.0019455
10617,0.4625,2.1818,0,0.00061109,6106.7,0.00029751,-95.278,4.0982e-06,-2299.9,-0.0006212,-6998.2,0.0013608
10618,0.555,2.1818,0.05,4.1316e-06,41.287,3.1726e-06,23.837,-8.4797e-12,1.3644e-05,-3.1725e-06,-23.837,0.0019126
10619,0.555,1.9091,0,0.00060424,6038.3,0.00029989,64.383,8.7182e-06,-2123.4,-0.00060876,-6762.8,0.0019302
10620,0.4625,2,0,0.00060543,6050.2,0.00029417,-94.84,5.3666e-06,-2264.8,-0.00061563,-6930.7,0.0013521
10621,0.555,2,0.05,4.4191e-06,44.161,3.3934e-06,25.496,-6.4422e-12,4.0702e-05,-3.3933e-06,-25.496,0.0019
10622,0.555,1.7273,0,0.00059613,5957.2,0.00029464,63.924,1.1468e-05,-2063.7,-0.00060091,-6664.9,0.0019095
10623,0.4625,1.8182,0,0.00059826,5978.5,0.0002899,-94.188,7.0707e-06,-2219.2,-0.00060856,-6844.9,0.0013401
10624,0.555,1.8182,0.05,4.7333e-06,47.301,3.6346e-06,27.309,2.8426e-13,7.9976e-05,-3.6346e-06,-27.309,0.0018826
10625,0.555,1.5455,0,0.00058644,5860.4,0.00028815,63.255,1.5236e-05,-1987.3,-0.0005916,-6546.9,0.0018818
10626,0.4625,1.6364,0,0.00058937,5889.6,0.00028451,-93.245,9.3873e-06,-2160.4,-0.00059982,-6737.7,0.0013239
10627,0.555,1.6364,0.05,5.061e-06,50.575,3.8862e-06,29.2,4.734e-12,0.00014669,-3.8862e-06,-29.2,0.0018592
10628,0.555,1.3636,0,0.00057521,5748.1,0.00028019,62.299,2.0533e-05,-1888.7,-0.00058087,-6407.4,0.0018451
10629,0.4625,1.4545,0,0.00057856,5781.6,0.00027779,-91.905,1.2619e-05,-2084.3,-0.00058922,-6606.2,0.0013021
10630,0.555,1.4545,0.05,5.3906e-06,53.869,4.1393e-06,31.102,1.1975e-11,0.00020866,-4.1393e-06,-31.101,0.001828
10631,0.555,1.1818,0,0.00056267,5622.8,0.00027047,60.952,2.821e-05,-1759.3,-0.00056899,-6246.5,0.0017968
10632,0.4625,1.2727,0,0.0005657,5653.1,0.00026942,-90.024,1.7287e-05,-1984.5,-0.00057664,-6447.1,0.001273
10633,0.555,1.2727,0.05,5.7172e-06,57.133,4.3901e-06,32.986,2.357e-11,0.00028097,-4.3901e-06,-32.985,0.0017868
10634,0.555,1,0,0.00054953,5491.5,0.00025865,59.057,3.9642e-05,-1586.5,-0.00055669,-6067.1,0.0017329
10635,0.4625,1.0909,0,0.00055084,5504.6,0.00025903,-87.383,2.43e-05,-1851,-0.00056219,-6257.6,0.0012341
10636,0.555,1.0909,0.05,6.0547e-06,60.505,4.6493e-06,34.933,3.0978e-11,0.00037719,-4.6493e-06,-34.933,0.0017323
10637,0.555,0.81818,0,0.00053743,5370.6,0.00024442,56.399,5.6913e-05,-1352.5,-0.00054542,-5878.2,0.0016481
10638,0.4625,0.90909,0,0.00053451,5341.5,0.00024611,-83.603,3.5242e-05,-1668,-0.00054638,-6038,0.0011822
10639,0.555,0.90909,0.05,6.4642e-06,64.598,4.9637e-06,37.296,4.177e-11,0.00046507,-4.9637e-06,-37.296,0.0016601
10640,0.555,0.63636,0,0.00052944,5290.7,0.00022769,52.581,8.2618e-05,-1037.5,-0.0005377,-5698.3,0.0015342
10641,0.4625,0.72727,0,0.00051844,5180.8,0.00023013,-78.003,5.2811e-05,-1410.3,-0.00053074,-5794.9,0.0011117
10642,0.555,0.72727,0.05,7.0676e-06,70.628,5.427e-06,40.777,6.0558e-11,0.00051024,-5.4271e-06,-40.777,0.0015634
10643,0.555,0.45455,0,0.0005298,5294.4,0.00020905,45.877,0.00011839,-635.29,-0.00053653,-5556.1,0.0013792
10644,0.4625,0.54545,0,0.00050664,5062.9,0.00021085,-69.003,8.092e-05,-1045.3,-0.00051848,-5548.9,0.0010143
10645,0.555,0.54545,0.05,8.0158e-06,80.103,6.1551e-06,46.247,5.7051e-11,0.00060181,-6.1551e-06,-46.247,0.0014324
10646,0.555,0.27273,0,0.00054356,5431.9,0.00019083,35.35,0.00016301,-173.71,-0.00054562,-5498.1,0.0011662
10647,0.4625,0.36364,0,0.00050682,5064.7,0.00018949,-50.683,0.00012348,-546.68,-0.00051515,-5345.1,0.00087691
10648,0.555,0.36364,0.05,8.8985e-06,88.924,6.8329e-06,51.34,4.2453e-11,0.00048521,-6.8329e-06,-51.34,0.0012519
10649,0.4625,0.18182,0,0.00053016,5297.9,0.00018419,83.54,0.00016691,-46.285,-0.0005294,-5278.1,0.00068035
10650,0.555,0.18182,0.05,6.8862e-06,68.814,5.2877e-06,39.73,5.8389e-11,0.00055147,-5.2878e-06,-39.73,0.0010015
10651,0.555,0.090909,0,0.00054481,5444.3,0.00018758,99.737,0.00017571,10.545,-0.00054287,-5388.6,0.00087469
10652,0.37,5.7273,0,0.00049193,4915.9,0.00017039,-96.024,0.0001396,-327.4,-0.00049872,-5123.5,0.00049033
10653,0.2775,5.8182,0,0.00045963,4593.1,0.00016626,163.89,0.00014181,-19.826,-0.0004569,-4518.3,0.00021825
10654,0.37,5.8182,0.05,1.1734e-05,117.26,9.0103e-06,67.7,-4.8239e-11,-0.00044932,-9.0103e-06,-67.7,0.00038449
10655,0.37,5.9091,0,0.00049555,4952.1,0.00017434,112.97,0.00015549,-28.657,-0.00049396,-4908.4,0.0003143
10656,0.37,5.5455,0,0.00048236,4820.2,0.00019116,-166.57,8.5633e-05,-959.48,-0.00049659,-5334.1,0.00060761
10657,0.2775,5.6364,0,0.00047024,4699.1,0.00021075,243.35,7.6412e-05,-765.98,-0.00047092,-4878.4,0.00031222
10658,0.37,5.6364,0.05,1.3137e-05,131.27,1.0087e-05,75.791,-4.4895e-11,-0.00046276,-1.0087e-05,-75.791,0.00052821
10659,0.37,5.3636,0,0.00049498,4946.4,0.00021326,-199.81,5.0735e-05,-1420.9,-0.00051111,-5642.4,0.00068652
10660,0.2775,5.4545,0,0.000506,5056.5,0.00024744,286.17,4.1349e-05,-1262.3,-0.00050449,-5363.5,0.00037101
10661,0.37,5.4545,0.05,1.0298e-05,102.91,7.9075e-06,59.414,-5.6906e-11,-0.00057006,-7.9075e-06,-59.414,0.00062178
10662,0.37,5.1818,0,0.00051534,5149.8,0.00023181,-218.08,3.1019e-05,-1726.7,-0.00053156,-5953.7,0.00074146
10663,0.2775,5.2727,0,0.00054166,5412.9,0.00027457,316.64,2.3683e-05,-1568.5,-0.00053773,-5786.7,0.00040967
10664,0.37,5.2727,0.05,8.7676e-06,87.615,6.7324e-06,50.585,-4.3302e-11,-0.00048194,-6.7324e-06,-50.585,0.00068507
10665,0.37,5,0,0.00053582,5354.6,0.00024648,-230.07,1.9934e-05,-1932.2,-0.0005519,-6228.8,0.00078091
10666,0.2775,5.0909,0,0.00057174,5713.5,0.00029437,335.76,1.4657e-05,-1765.9,-0.00056628,-6130.9,0.00043645
10667,0.37,5.0909,0.05,7.9396e-06,79.341,6.0966e-06,45.807,-3.5094e-11,-0.00038218,-6.0966e-06,-45.808,0.00072959
10668,0.37,4.8182,0,0.00055393,5535.5,0.00025798,-238.37,1.3459e-05,-2075.6,-0.00056992,-6458.8,0.00080982
10669,0.2775,4.9091,0,0.00059587,5954.6,0.00030916,349.34,9.6583e-06,-1901,-0.00058945,-6402.5,0.00045563
10670,0.37,4.9091,0.05,7.4052e-06,74.001,5.6863e-06,42.724,-2.0709e-11,-0.0002922,-5.6863e-06,-42.725,0.0007618
10671,0.37,4.6364,0,0.00056911,5687.2,0.00026702,-244.23,9.4525e-06,-2179.5,-0.00058507,-6646.5,0.00083124
10672,0.2775,4.7273,0,0.00061489,6144.6,0.00032034,358.9,6.6856e-06,-1997.8,-0.00060786,-6615.2,0.00046962
10673,0.37,4.7273,0.05,6.9444e-06,69.396,5.3324e-06,40.066,-9.779e-12,-0.00020575,-5.3325e-06,-40.066,0.00078549
10674,0.37,4.4545,0,0.00058154,5811.3,0.00027415,-248.41,6.8335e-06,-2256.9,-0.00059749,-6797.6,0.00084715
10675,0.2775,4.5455,0,0.00062977,6293.3,0.00032887,365.74,4.7926e-06,-2069.2,-0.00062234,-6781.3,0.0004799
10676,0.37,4.5455,0.05,6.5062e-06,65.017,4.996e-06,37.538,-3.6928e-12,-0.00012441,-4.996e-06,-37.538,0.00080303
10677,0.37,4.2727,0,0.00059154,5911.3,0.00027977,-251.36,5.0343e-06,-2315.6,-0.00060751,-6918,0.00085892
10678,0.2775,4.3636,0,0.00064134,6409,0.00033539,370.59,3.5155e-06,-2123,-0.00063365,-6910.4,0.00048745
10679,0.37,4.3636,0.05,6.0837e-06,60.795,4.6715e-06,35.1,6.6485e-13,-7.8487e-05,-4.6716e-06,-35.1,0.00081601
10680,0.37,4.0909,0,0.00059949,5990.7,0.00028418,-253.41,3.7482e-06,-2360.5,-0.00061547,-7013,0.00086755
10681,0.2775,4.1818,0,0.00065028,6498.3,0.00034038,373.99,2.6117e-06,-2163.9,-0.0006424,-7010.3,0.00049295
10682,0.37,4.1818,0.05,5.6835e-06,56.796,4.3642e-06,32.791,4.3869e-12,-3.2922e-05,-4.3642e-06,-32.791,0.00082556
10683,0.37,3.9091,0,0.00060569,6052.7,0.00028761,-254.8,2.8048e-06,-2394.7,-0.00062167,-7086.8,0.00087378
10684,0.2775,4,0,0.00065709,6566.4,0.00034416,376.31,1.95e-06,-2194.9,-0.0006491,-7086.6,0.00049691
10685,0.37,4,0.05,5.3153e-06,53.117,4.0815e-06,30.667,6.1547e-12,-1.3e-05,-4.0815e-06,-30.667,0.00083248
10686,0.37,3.7273,0,0.00061042,6100,0.00029022,-255.72,2.1075e-06,-2420.5,-0.0006264,-7142.8,0.00087818
10687,0.2775,3.8182,0,0.00066221,6617.5,0.00034698,377.84,1.4571e-06,-2218.3,-0.00065413,-7144.1,0.0004997
10688,0.37,3.8182,0.05,4.9895e-06,49.861,3.8313e-06,28.787,7.1226e-12,-3.1084e-05,-3.8313e-06,-28.787,0.00083742
10689,0.37,3.5455,0,0.00061388,6134.6,0.00029213,-256.3,1.6017e-06,-2439.2,-0.00062986,-7183.8,0.00088117
10690,0.2775,3.6364,0,0.00066594,6654.8,0.00034904,378.81,1.0922e-06,-2235.5,-0.0006578,-7186.2,0.0005016
10691,0.37,3.6364,0.05,4.7157e-06,47.124,3.6211e-06,27.207,7.0297e-12,7.3279e-06,-3.6211e-06,-27.207,0.00084084
10692,0.37,3.3636,0,0.00061625,6158.2,0.00029344,-256.64,1.2564e-06,-2452,-0.00063222,-7211.7,0.00088309
10693,0.2775,3.4545,0,0.00066853,6680.7,0.00035046,379.4,8.3198e-07,-2247.6,-0.00066036,-7215.5,0.00050285
10694,0.37,3.4545,0.05,4.5023e-06,44.992,3.4572e-06,25.976,5.5465e-12,7.4629e-06,-3.4572e-06,-25.976,0.0008431
10695,0.37,3.1818,0,0.00061762,6171.9,0.0002942,-256.82,1.0548e-06,-2459.4,-0.00063359,-7227.9,0.00088416
10696,0.2775,3.2727,0,0.00067016,6697,0.00035136,379.72,6.6391e-07,-2255.3,-0.00066197,-7234,0.0005036
10697,0.37,3.2727,0.05,4.356e-06,43.53,3.3449e-06,25.132,3.5717e-12,6.491e-06,-3.3449e-06,-25.132,0.00084447
10698,0.37,3,0,0.00061807,6176.4,0.00029445,-256.87,9.8843e-07,-2461.8,-0.00063404,-7233.2,0.0008845
10699,0.2775,3.0909,0,0.00067095,6704.9,0.00035179,379.86,5.813e-07,-2259,-0.00066274,-7243,0.00050395
10700,0.37,3.0909,0.05,4.2817e-06,42.787,3.2878e-06,24.703,1.1027e-12,3.2921e-05,-3.2878e-06,-24.703,0.00084511
10701,0.37,2.8182,0,0.00061762,6171.9,0.0002942,-256.82,1.0548e-06,-2459.4,-0.00063359,-7227.9,0.00088416
10702,0.2775,2.9091,0,0.00067095,6704.9,0.00035179,379.86,5.813e-07,-2259,-0.00066274,-7243,0.00050395
10703,0.37,2.9091,0.05,4.2817e-06,42.787,3.2878e-06,24.703,-1.5517e-12,2.8134e-05,-3.2878e-06,-24.703,0.00084511
10704,0.37,2.6364,0,0.00061625,6158.2,0.00029344,-256.64,1.2564e-06,-2452,-0.00063222,-7211.7,0.00088309
10705,0.2775,2.7273,0,0.00067016,6697,0.00035136,379.72,6.6391e-07,-2255.3,-0.00066197,-7234,0.0005036
10706,0.37,2.7273,0.05,4.356e-06,43.53,3.3449e-06,25.132,-4.0033e-12,-6.567e-06,-3.3449e-06,-25.132,0.00084447
10707,0.37,2.4545,0,0.00061388,6134.6,0.00029213,-256.3,1.6017e-06,-2439.2,-0.00062986,-7183.8,0.00088117
10708,0.2775,2.5455,0,0.00066853,6680.7,0.00035046,379.4,8.3197e-07,-2247.6,-0.00066036,-7215.5,0.00050285
10709,0.37,2.5455,0.05,4.5023e-06,44.992,3.4572e-06,25.976,-5.9232e-12,-7.683e-06,-3.4572e-06,-25.976,0.0008431
10710,0.37,2.2727,0,0.00061042,6100,0.00029022,-255.72,2.1075e-06,-2420.5,-0.0006264,-7142.8,0.00087818
10711,0.2775,2.3636,0,0.00066594,6654.8,0.00034904,378.81,1.0921e-06,-2235.5,-0.0006578,-7186.2,0.0005016
10712,0.37,2.3636,0.05,4.7157e-06,47.124,3.6211e-06,27.207,-7.0032e-12,-4.9148e-06,-3.621e-06,-27.207,0.00084084
10713,0.37,2.0909,0,0.00060569,6052.7,0.00028761,-254.8,2.8047e-06,-2394.7,-0.00062167,-7086.8,0.00087378
10714,0.2775,2.1818,0,0.00066221,6617.5,0.00034698,377.84,1.4571e-06,-2218.3,-0.00065413,-7144.1,0.0004997
10715,0.37,2.1818,0.05,4.9895e-06,49.861,3.8313e-06,28.787,-7.034e-12,5.2678e-06,-3.8313e-06,-28.787,0.00083742
10716,0.37,1.9091,0,0.00059949,5990.7,0.00028418,-253.41,3.7482e-06,-2360.5,-0.00061547,-7013,0.00086755
10717,0.2775,2,0,0.00065709,6566.4,0.00034416,376.31,1.95e-06,-2194.9,-0.0006491,-7086.6,0.00049691
10718,0.37,2,0.05,5.3153e-06,53.117,4.0815e-06,30.667,-6.0853e-12,4.6937e-05,-4.0815e-06,-30.667,0.00083248
10719,0.37,1.7273,0,0.00059154,5911.3,0.00027977,-251.36,5.0342e-06,-2315.6,-0.00060751,-6918,0.00085892
10720,0.2775,1.8182,0,0.00065028,6498.3,0.00034038,373.99,2.6117e-06,-2163.9,-0.0006424,-7010.3,0.00049295
10721,0.37,1.8182,0.05,5.6835e-06,56.796,4.3642e-06,32.791,-4.2767e-12,0.00012409,-4.3642e-06,-32.791,0.00082556
10722,0.37,1.5455,0,0.00058154,5811.3,0.00027415,-248.41,6.8334e-06,-2256.9,-0.00059749,-6797.6,0.00084715
10723,0.2775,1.6364,0,0.00064134,6409,0.00033539,370.59,3.5155e-06,-2123,-0.00063365,-6910.4,0.00048745
10724,0.37,1.6364,0.05,6.0837e-06,60.795,4.6716e-06,35.1,-1.1262e-12,7.9653e-05,-4.6716e-06,-35.1,0.00081601
10725,0.37,1.3636,0,0.00056911,5687.2,0.00026702,-244.23,9.4524e-06,-2179.5,-0.00058507,-6646.5,0.00083124
10726,0.2775,1.4545,0,0.00062977,6293.3,0.00032887,365.74,4.7926e-06,-2069.2,-0.00062234,-6781.3,0.0004799
10727,0.37,1.4545,0.05,6.5062e-06,65.017,4.996e-06,37.538,3.3123e-12,0.00015413,-4.996e-06,-37.538,0.00080303
10728,0.37,1.1818,0,0.00055393,5535.5,0.00025798,-238.37,1.3459e-05,-2075.6,-0.00056992,-6458.8,0.00080982
10729,0.2775,1.2727,0,0.00061489,6144.6,0.00032034,358.9,6.6856e-06,-1997.8,-0.00060786,-6615.2,0.00046962
10730,0.37,1.2727,0.05,6.9444e-06,69.396,5.3325e-06,40.066,1.1737e-11,0.00018579,-5.3324e-06,-40.066,0.00078549
10731,0.37,1,0,0.00053582,5354.6,0.00024648,-230.07,1.9934e-05,-1932.2,-0.0005519,-6228.8,0.00078091
10732,0.2775,1.0909,0,0.00059587,5954.6,0.00030916,349.34,9.6583e-06,-1901,-0.00058945,-6402.5,0.00045563
10733,0.37,1.0909,0.05,7.4052e-06,74.001,5.6863e-06,42.725,2.1432e-11,0.00029584,-5.6863e-06,-42.724,0.0007618
10734,0.37,0.81818,0,0.00051534,5149.8,0.00023181,-218.08,3.1019e-05,-1726.7,-0.00053156,-5953.7,0.00074146
10735,0.2775,0.90909,0,0.00057174,5713.5,0.00029437,335.76,1.4657e-05,-1765.9,-0.00056628,-6130.9,0.00043645
10736,0.37,0.90909,0.05,7.9396e-06,79.341,6.0966e-06,45.808,2.8894e-11,0.00038598,-6.0966e-06,-45.807,0.00072959
10737,0.37,0.63636,0,0.00049498,4946.4,0.00021326,-199.81,5.0735e-05,-1420.9,-0.00051111,-5642.4,0.00068652
10738,0.2775,0.72727,0,0.00054166,5412.9,0.00027457,316.64,2.3683e-05,-1568.5,-0.00053773,-5786.7,0.00040967
10739,0.37,0.72727,0.05,8.7676e-06,87.615,6.7324e-06,50.585,5.5366e-11,0.00048194,-6.7324e-06,-50.585,0.00068507
10740,0.37,0.45455,0,0.00048236,4820.2,0.00019116,-166.57,8.5633e-05,-959.48,-0.00049659,-5334.1,0.00060761
10741,0.2775,0.54545,0,0.000506,5056.5,0.00024744,286.17,4.1349e-05,-1262.3,-0.00050449,-5363.5,0.00037101
10742,0.37,0.54545,0.05,1.0298e-05,102.91,7.9075e-06,59.414,5.7141e-11,0.00050972,-7.9075e-06,-59.414,0.00062178
10743,0.37,0.27273,0,0.00049193,4915.9,0.00017039,-96.024,0.0001396,-327.4,-0.00049872,-5123.5,0.00049033
10744,0.2775,0.36364,0,0.00047024,4699.1,0.00021075,243.35,7.6412e-05,-765.98,-0.00047092,-4878.4,0.00031222
10745,0.37,0.36364,0.05,1.3137e-05,131.27,1.0087e-05,75.791,4.4825e-11,0.000461,-1.0087e-05,-75.791,0.00052821
10746,0.2775,0.18182,0,0.00045963,4593.1,0.00016626,163.89,0.00014181,-19.825,-0.0004569,-4518.3,0.00021825
10747,0.37,0.18182,0.05,1.1734e-05,117.26,9.0103e-06,67.7,4.5229e-11,0.00044932,-9.0103e-06,-67.7,0.00038449
10748,0.37,0.090909,0,0.00049555,4952.1,0.00017434,112.97,0.00015549,-28.657,-0.00049396,-4908.4,0.0003143
10749,0.185,5.7273,0,0.00043486,4345.6,0.00020206,469.09,8.124e-05,-438.74,-0.00042717,-4258.7,0.0001227
10750,0.185,5.8182,0.05,2.9193e-05,291.73,2.2417e-05,168.43,-3.3303e-11,-0.00047768,-2.2417e-05,-168.43,7.3991e-05
10751,0.185,5.9091,0,0.00039404,3937.7,0.0001431,215.2,0.00012754,98.26,-0.00038858,-3779.7,5.7378e-05
10752,0.0925,5.8182,0,0.00027923,2790.4,8.6587e-05,-436.32,6.1205e-05,-627.03,-0.00029683,-3317.2,2.8024e-05
10753,0.185,5.5455,0,0.00049659,4962.5,0.00026694,695.46,3.223e-05,-1068,-0.00047883,-4908,0.00016091
10754,0.185,5.6364,0.05,1.8529e-05,185.17,1.4228e-05,106.91,-4.8854e-11,-0.00053462,-1.4228e-05,-106.91,0.00012074
10755,0.0925,5.6364,0,0.00034922,3489.8,0.00012143,-858.51,2.0829e-05,-1614.4,-0.00038509,-4664.3,4.5255e-05
10756,0.185,5.3636,0,0.00055575,5553.7,0.00030875,802.6,1.5257e-05,-1402.6,-0.00053206,-5515,0.00018393
10757,0.185,5.4545,0.05,1.2893e-05,128.84,9.8999e-06,74.384,-4.7165e-11,-0.00051024,-9.8999e-06,-74.384,0.00014585
10758,0.0925,5.4545,0,0.00040644,4061.6,0.00014611,-1052,8.9086e-06,-2083,-0.00044983,-5529.7,5.4619e-05
10759,0.185,5.1818,0,0.0006004,5999.9,0.00033715,870.53,8.1785e-06,-1601.2,-0.00057332,-5970.4,0.00019904
10760,0.185,5.2727,0.05,1.0076e-05,100.69,7.7369e-06,58.132,-4.2122e-11,-0.00043999,-7.7369e-06,-58.132,0.00016127
10761,0.0925,5.2727,0,0.00044712,4468.1,0.00016286,-1165.3,4.5204e-06,-2355,-0.00049496,-6107.8,6.0441e-05
10762,0.185,5,0,0.00063349,6330.5,0.00035706,915.21,4.9599e-06,-1730.4,-0.00060441,-6308.9,0.00020953
10763,0.185,5.0909,0.05,8.5484e-06,85.425,6.5641e-06,49.32,-3.0653e-11,-0.00032012,-6.5641e-06,-49.32,0.00017164
10764,0.0925,5.0909,0,0.00047604,4757.1,0.0001744,-1240.7,2.6749e-06,-2530.9,-0.00052688,-6509.8,6.4315e-05
10765,0.185,4.8182,0,0.00065813,6576.7,0.00037153,946.63,3.2447e-06,-1820.5,-0.00062775,-6561.5,0.00021702
10766,0.185,4.9091,0.05,7.4207e-06,74.156,5.6982e-06,42.814,-1.8942e-11,-0.00027625,-5.6982e-06,-42.814,0.00017891
10767,0.0925,4.9091,0,0.00049705,4967.1,0.00018273,-1293,1.7184e-06,-2653,-0.00055,-6798.4,6.7021e-05
10768,0.185,4.6364,0,0.0006766,6761.3,0.00038219,968.89,2.2419e-06,-1885.9,-0.00064535,-6751.6,0.00022246
10769,0.185,4.7273,0.05,6.5157e-06,65.112,5.0033e-06,37.592,-1.2326e-11,-0.00018495,-5.0033e-06,-37.593,0.00018414
10770,0.0925,4.7273,0,0.00051252,5121.7,0.00018884,-1330.3,1.1784e-06,-2740.3,-0.00056699,-7009.3,6.8957e-05
10771,0.185,4.4545,0,0.00069048,6900.1,0.00039012,984.76,1.6022e-06,-1934.4,-0.00065863,-6895.1,0.00022642
10772,0.185,4.5455,0.05,5.7503e-06,57.463,4.4155e-06,33.176,-4.704e-12,-0.00015321,-4.4155e-06,-33.176,0.00018792
10773,0.0925,4.5455,0,0.00052398,5236.2,0.00019338,-1357.1,8.3967e-07,-2803.8,-0.00057955,-7164.6,7.0352e-05
10774,0.185,4.2727,0,0.00070089,7004.1,0.00039601,995.95,1.1669e-06,-1970.7,-0.00066862,-7003.3,0.00022928
10775,0.185,4.3636,0.05,5.0872e-06,50.837,3.9063e-06,29.351,-2.8949e-12,-0.00010272,-3.9063e-06,-29.351,0.00019065
10776,0.0925,4.3636,0,0.00053247,5321,0.00019676,-1376.4,6.1221e-07,-2850.1,-0.00058882,-7278.9,7.1354e-05
10777,0.185,4.0909,0,0.00070864,7081.5,0.00040036,1003.7,8.5534e-07,-1998,-0.00067608,-7084.2,0.00023133
10778,0.185,4.1818,0.05,4.5091e-06,45.06,3.4624e-06,26.015,1.4398e-12,-6.8991e-05,-3.4624e-06,-26.015,0.0001926
10779,0.0925,4.1818,0,0.0005387,5383.3,0.00019926,-1390,4.5036e-07,-2883.8,-0.00059562,-7362.4,7.2065e-05
10780,0.185,3.9091,0,0.00071432,7138.3,0.00040354,1009,6.2519e-07,-2018.4,-0.00068157,-7144.1,0.00023276
10781,0.185,4,0.05,4.009e-06,40.062,3.0784e-06,23.13,3.1121e-12,-4.0372e-05,-3.0784e-06,-23.13,0.00019396
10782,0.0925,4,0,0.00054322,5428.4,0.0002011,-1399.4,3.3067e-07,-2908,-0.00060053,-7422.6,7.256e-05
10783,0.185,3.7273,0,0.00071841,7179.2,0.0004058,1012.4,4.535e-07,-2033.3,-0.00068554,-7187.5,0.00023374
10784,0.185,3.8182,0.05,3.5857e-06,35.833,2.7534e-06,20.688,3.9835e-12,-1.1268e-05,-2.7534e-06,-20.688,0.0001949
10785,0.0925,3.8182,0,0.00054644,5460.6,0.00020243,-1405.8,2.4046e-07,-2925,-0.00060402,-7465.2,7.2896e-05
10786,0.185,3.5455,0,0.00072125,7207.5,0.00040737,1014.5,3.2777e-07,-2043.8,-0.0006883,-7217.9,0.00023438
10787,0.185,3.6364,0.05,3.2413e-06,32.39,2.4889e-06,18.7,4.5581e-12,-2.1928e-05,-2.4889e-06,-18.701,0.00019552
10788,0.0925,3.6364,0,0.00054867,5482.9,0.00020337,-1410,1.729e-07,-2936.7,-0.00060642,-7494.4,7.3116e-05
10789,0.185,3.3636,0,0.0007231,7226,0.00040839,1015.8,2.4127e-07,-2050.9,-0.0006901,-7237.9,0.00023478
10790,0.185,3.4545,0.05,2.9787e-06,29.767,2.2873e-06,17.186,3.5797e-12,8.0498e-06,-2.2873e-06,-17.186,0.00019591
10791,0.0925,3.4545,0,0.00055014,5497.6,0.000204,-1412.6,1.2428e-07,-2944.4,-0.00060801,-7513.7,7.3254e-05
10792,0.185,3.1818,0,0.00072414,7236.5,0.00040896,1016.4,1.9047e-07,-2054.9,-0.00069112,-7249.1,0.00023499
10793,0.185,3.2727,0.05,2.8015e-06,27.996,2.1512e-06,16.163,2.3489e-12,7.156e-06,-2.1512e-06,-16.163,0.00019613
10794,0.0925,3.2727,0,0.00055103,5506.5,0.00020439,-1414,9.2659e-08,-2949,-0.00060896,-7525.2,7.3332e-05
10795,0.185,3,0,0.00072448,7239.8,0.00040914,1016.6,1.7369e-07,-2056.2,-0.00069145,-7252.8,0.00023506
10796,0.185,3.0909,0.05,2.7121e-06,27.103,2.0826e-06,15.648,7.6464e-13,2.6227e-06,-2.0826e-06,-15.648,0.00019624
10797,0.0925,3.0909,0,0.00055145,5510.7,0.00020457,-1414.7,7.7047e-08,-2951.2,-0.00060941,-7530.6,7.3368e-05
10798,0.185,2.8182,0,0.00072414,7236.5,0.00040896,1016.4,1.9046e-07,-2054.9,-0.00069112,-7249.1,0.00023499
10799,0.185,2.9091,0.05,2.7121e-06,27.103,2.0826e-06,15.648,-1.0071e-12,-2.5503e-06,-2.0826e-06,-15.648,0.00019624
10800,0.0925,2.9091,0,0.00055145,5510.7,0.00020457,-1414.7,7.7047e-08,-2951.2,-0.00060941,-7530.6,7.3368e-05
10801,0.185,2.6364,0,0.0007231,7226,0.00040839,1015.8,2.4126e-07,-2050.9,-0.0006901,-7237.9,0.00023478
10802,0.185,2.7273,0.05,2.8015e-06,27.996,2.1512e-06,16.163,-2.5682e-12,2.3654e-05,-2.1512e-06,-16.163,0.00019613
10803,0.0925,2.7273,0,0.00055103,5506.5,0.00020439,-1414,9.2657e-08,-2949,-0.00060896,-7525.2,7.3332e-05
10804,0.185,2.4545,0,0.00072125,7207.5,0.00040737,1014.5,3.2776e-07,-2043.8,-0.0006883,-7217.9,0.00023438
10805,0.185,2.5455,0.05,2.9787e-06,29.767,2.2873e-06,17.186,-3.7465e-12,5.1473e-05,-2.2873e-06,-17.186,0.00019591
10806,0.0925,2.5455,0,0.00055014,5497.6,0.000204,-1412.6,1.2428e-07,-2944.4,-0.00060801,-7513.7,7.3254e-05
10807,0.185,2.2727,0,0.00071841,7179.2,0.0004058,1012.4,4.5349e-07,-2033.3,-0.00068554,-7187.5,0.00023374
10808,0.185,2.3636,0.05,3.2413e-06,32.39,2.4889e-06,18.701,-4.1829e-12,-5.6443e-06,-2.4889e-06,-18.7,0.00019552
10809,0.0925,2.3636,0,0.00054867,5482.9,0.00020337,-1410,1.729e-07,-2936.7,-0.00060642,-7494.4,7.3116e-05
10810,0.185,2.0909,0,0.00071432,7138.3,0.00040354,1009,6.2518e-07,-2018.4,-0.00068157,-7144.1,0.00023276
10811,0.185,2.1818,0.05,3.5857e-06,35.833,2.7534e-06,20.688,-4.2472e-12,2.9603e-05,-2.7534e-06,-20.688,0.0001949
10812,0.0925,2.1818,0,0.00054644,5460.6,0.00020243,-1405.8,2.4046e-07,-2925,-0.00060402,-7465.2,7.2896e-05
10813,0.185,1.9091,0,0.00070864,7081.5,0.00040036,1003.7,8.5533e-07,-1998,-0.00067608,-7084.2,0.00023133
10814,0.185,2,0.05,4.009e-06,40.062,3.0784e-06,23.13,-3.0205e-12,7.1382e-05,-3.0784e-06,-23.13,0.00019396
10815,0.0925,2,0,0.00054322,5428.4,0.0002011,-1399.4,3.3066e-07,-2908,-0.00060053,-7422.6,7.256e-05
10816,0.185,1.7273,0,0.00070089,7004.1,0.00039601,995.95,1.1669e-06,-1970.7,-0.00066862,-7003.3,0.00022928
10817,0.185,1.8182,0.05,4.5091e-06,45.06,3.4624e-06,26.015,-4.757e-14,8.6135e-05,-3.4624e-06,-26.015,0.0001926
10818,0.0925,1.8182,0,0.0005387,5383.3,0.00019926,-1390,4.5036e-07,-2883.8,-0.00059562,-7362.4,7.2065e-05
10819,0.185,1.5455,0,0.00069048,6900.1,0.00039012,984.76,1.6022e-06,-1934.4,-0.00065863,-6895.1,0.00022642
10820,0.185,1.6364,0.05,5.0872e-06,50.837,3.9063e-06,29.351,1.5726e-12,0.00014758,-3.9063e-06,-29.35,0.00019065
10821,0.0925,1.6364,0,0.00053247,5321,0.00019676,-1376.4,6.122e-07,-2850.1,-0.00058882,-7278.9,7.1354e-05
10822,0.185,1.3636,0,0.0006766,6761.3,0.00038219,968.89,2.2419e-06,-1885.9,-0.00064535,-6751.6,0.00022246
10823,0.185,1.4545,0.05,5.7503e-06,57.463,4.4155e-06,33.176,7.5994e-12,0.00017741,-4.4155e-06,-33.176,0.00018792
10824,0.0925,1.4545,0,0.00052398,5236.2,0.00019338,-1357.1,8.3967e-07,-2803.8,-0.00057955,-7164.6,7.0352e-05
10825,0.185,1.1818,0,0.00065813,6576.7,0.00037153,946.63,3.2447e-06,-1820.5,-0.00062775,-6561.5,0.00021702
10826,0.185,1.2727,0.05,6.5157e-06,65.112,5.0033e-06,37.593,1.1392e-11,0.00022769,-5.0033e-06,-37.592,0.00018414
10827,0.0925,1.2727,0,0.00051252,5121.7,0.00018884,-1330.3,1.1784e-06,-2740.3,-0.00056699,-7009.3,6.8957e-05
10828,0.185,1,0,0.00063349,6330.5,0.00035706,915.21,4.9598e-06,-1730.4,-0.00060441,-6308.9,0.00020953
10829,0.185,1.0909,0.05,7.4207e-06,74.156,5.6982e-06,42.814,1.9971e-11,0.0002752,-5.6982e-06,-42.814,0.00017891
10830,0.0925,1.0909,0,0.00049705,4967.1,0.00018273,-1293,1.7184e-06,-2653,-0.00055,-6798.4,6.7021e-05
10831,0.185,0.81818,0,0.0006004,5999.9,0.00033715,870.53,8.1785e-06,-1601.2,-0.00057332,-5970.4,0.00019904
10832,0.185,0.90909,0.05,8.5484e-06,85.425,6.5641e-06,49.32,2.5702e-11,0.00037142,-6.5641e-06,-49.32,0.00017164
10833,0.0925,0.90909,0,0.00047604,4757.1,0.0001744,-1240.7,2.6749e-06,-2530.9,-0.00052688,-6509.8,6.4315e-05
10834,0.185,0.63636,0,0.00055575,5553.7,0.00030875,802.6,1.5257e-05,-1402.6,-0.00053206,-5515,0.00018393
10835,0.185,0.72727,0.05,1.0076e-05,100.69,7.7369e-06,58.132,3.8492e-11,0.00045701,-7.7369e-06,-58.132,0.00016127
10836,0.0925,0.72727,0,0.00044712,4468.1,0.00016286,-1165.3,4.5204e-06,-2355,-0.00049496,-6107.8,6.0441e-05
10837,0.185,0.45455,0,0.00049659,4962.5,0.00026694,695.46,3.223e-05,-1068,-0.00047883,-4908,0.00016091
10838,0.185,0.54545,0.05,1.2893e-05,128.84,9.8999e-06,74.384,6.0522e-11,0.00057313,-9.8999e-06,-74.384,0.00014585
10839,0.0925,0.54545,0,0.00040644,4061.6,0.00014611,-1052,8.9086e-06,-2083,-0.00044983,-5529.7,5.4619e-05
10840,0.185,0.27273,0,0.00043486,4345.6,0.00020206,469.09,8.124e-05,-438.74,-0.00042717,-4258.7,0.0001227
10841,0.185,0.36364,0.05,1.8529e-05,185.17,1.4228e-05,106.91,5.6009e-11,0.00059461,-1.4228e-05,-106.91,0.00012074
10842,0.0925,0.36364,0,0.00034922,3489.8,0.00012143,-858.51,2.0829e-05,-1614.4,-0.00038509,-4664.3,4.5255e-05
10843,0.185,0.18182,0.05,2.9193e-05,291.73,2.2417e-05,168.43,4.3228e-11,0.00048877,-2.2417e-05,-168.43,7.3991e-05
10844,0.185,0.090909,0,0.00039404,3937.7,0.0001431,215.2,0.00012754,98.26,-0.00038858,-3779.7,5.7378e-05
10845,0.0925,0.18182,0,0.00027923,2790.4,8.6587e-05,-436.31,6.1205e-05,-627.03,-0.00029683,-3317.2,2.8024e-05
10846,4.0514,0.27273,0,0.00012094,1208.6,5.9122e-05,225.56,2.6453e-05,-19.897,-0.00011556,-1086.9,0.087571
10847,4.1437,0.18182,0,0.00012153,1214.5,5.0731e-05,117.59,3.241e-05,-20.063,-0.00011928,-1159.8,0.094105
10848,4.0514,0.18182,0.05,1.3044e-05,130.35,1.0016e-05,75.26,-2.7384e-12,-1.7216e-05,-1.0016e-05,-75.26,0.086611
10849,4.0514,0.090909,0,7.7597e-05,775.44,3.1166e-05,57.377,2.1236e-05,-17.229,-7.6644e-05,-752.67,0.085841
10850,3.959,0.18182,0,6.8903e-05,688.56,2.8361e-05,68.497,1.9291e-05,0.3496,-6.7479e-05,-651.6,0.079317
10851,4.0514,0.45455,0,0.00017307,1729.5,9.28e-05,437.66,3.299e-05,-11.727,-0.00016139,-1472.2,0.089308
10852,4.1437,0.36364,0,0.00015442,1543.2,6.9424e-05,219.47,3.8725e-05,-11.181,-0.00014958,-1426,0.09581
10853,4.0514,0.36364,0.05,1.1803e-05,117.95,9.0635e-06,68.1,-2.028e-12,-3.1192e-05,-9.0635e-06,-68.1,0.088346
10854,3.959,0.36364,0,0.00011332,1132.4,5.5387e-05,224,2.6093e-05,3.8914,-0.00010783,-1002.3,0.081074
10855,4.0514,0.63636,0,0.00023458,2344.2,0.00013507,718.28,3.8151e-05,-9.9076,-0.00021388,-1903.6,0.09106
10856,4.1437,0.54545,0,0.0002033,2031.6,0.0001018,424.75,4.4273e-05,-7.5111,-0.00019272,-1788.2,0.097515
10857,4.0514,0.54545,0.05,1.2599e-05,125.9,9.6746e-06,72.691,-3.8189e-12,-1.9276e-05,-9.6746e-06,-72.691,0.090092
10858,3.959,0.54545,0,0.00016222,1621.1,8.8301e-05,434.87,3.0748e-05,2.4383,-0.00015039,-1358.6,0.082858
10859,4.0514,0.81818,0,0.00030448,3042.7,0.00018383,1047.6,4.3145e-05,-9.4246,-0.00027272,-2382.7,0.092834
10860,4.1437,0.72727,0,0.00026166,2614.8,0.00014143,682.93,4.9746e-05,-5.9292,-0.00024324,-2207.3,0.099224
10861,4.0514,0.72727,0.05,1.4177e-05,141.67,1.0886e-05,81.795,-3.0186e-13,-1.6916e-05,-1.0886e-05,-81.795,0.091858
10862,3.959,0.72727,0,0.0002156,2154.5,0.00012527,681.47,3.4889e-05,2.3782,-0.00019578,-1730.8,0.084675
10863,4.0514,1,0,0.00038588,3856.1,0.00024067,1432.2,4.8631e-05,-10.7,-0.00034087,-2937.3,0.094631
10864,4.1437,0.90909,0,0.00032956,3293.3,0.00018741,982.75,5.5876e-05,-5.5416,-0.00030161,-2691.6,0.10094
10865,4.0514,0.90909,0.05,1.6539e-05,165.27,1.27e-05,95.419,9.7706e-13,2.2042e-05,-1.27e-05,-95.419,0.093646
10866,3.959,0.90909,0,0.00027592,2757.3,0.00016759,969.06,3.8989e-05,2.7911,-0.00024637,-2141.3,0.086532
10867,4.0514,1.1818,0,0.00048451,4841.7,0.00030895,1891.7,5.572e-05,-11.002,-0.00042359,-3612.4,0.096451
10868,4.1437,1.0909,0,0.0004096,4093.2,0.00024078,1325.6,6.3483e-05,-6.502,-0.00037056,-3267.7,0.10266
10869,4.0514,1.0909,0.05,1.9884e-05,198.71,1.5269e-05,114.72,7.6348e-12,6.9991e-05,-1.5269e-05,-114.72,0.095458
10870,3.959,1.0909,0,0.00034695,3467.1,0.00021775,1311.7,4.3276e-05,0.83145,-0.0003055,-2619.7,0.088432
10871,4.0514,1.3636,0,0.0006103,6098.7,0.00039434,2449.8,6.5475e-05,-21.202,-0.00053018,-4496.7,0.098289
10872,4.1437,1.2727,0,0.00050685,5065,0.0003038,1719.9,7.4145e-05,-5.6887,-0.00045512,-3982.4,0.10438
10873,4.0514,1.2727,0.05,2.503e-05,250.13,1.922e-05,144.41,1.1126e-11,0.00015247,-1.922e-05,-144.41,0.097292
10874,3.959,1.2727,0,0.00043498,4346.8,0.00027931,1734.2,4.9527e-05,7.7638,-0.0003788,-3210.5,0.090377
10875,4.0514,1.5455,0,0.00078469,7841.4,0.00050918,3189.4,8.3556e-05,-8.5523,-0.00068,-5745.6,0.10013
10876,4.1437,1.4545,0,0.00062866,6282.3,0.00037879,2154,8.979e-05,-17.476,-0.00056349,-4926,0.10608
10877,4.0514,1.4545,0.05,3.1592e-05,315.7,2.4258e-05,182.27,4.1957e-11,0.00026754,-2.4258e-05,-182.27,0.099139
10878,3.959,1.4545,0,0.00055244,5520.6,0.00036262,2294.4,5.441e-05,-21.408,-0.00047603,-4006.9,0.092367
10879,4.0514,1.7273,0,0.0010353,10346,0.00064588,3812.4,0.00012668,-88.659,-0.00091524,-7917.2,0.10196
10880,4.1437,1.6364,0,0.00078946,7889.2,0.00046979,2643,0.00011924,9.1304,-0.00071063,-6226.2,0.10775
10881,4.0514,1.6364,0.05,4.8204e-05,481.71,3.7015e-05,278.11,8.5709e-11,0.00075879,-3.7015e-05,-278.11,0.10098
10882,3.959,1.6364,0,0.00071132,7108.3,0.00046179,2945.2,8.1512e-05,87.885,-0.00061524,-5147.2,0.094396
10883,4.0514,1.9091,0,0.0012999,12990,0.00071126,3260,0.00021452,-472.26,-0.0012116,-11187,0.10371
10884,4.1437,1.8182,0,0.0010129,10122,0.00056254,2803.2,0.00017747,-90.1,-0.00093521,-8450.3,0.10935
10885,4.0514,1.8182,0.05,8.7463e-05,874.02,6.716e-05,504.62,2.4003e-10,0.0023045,-6.7161e-05,-504.62,0.10278
10886,3.959,1.8182,0,0.001028,10273,0.0007105,4583.1,4.7775e-05,-396.29,-0.00086184,-7230.8,0.096446
10887,4.0514,2.0909,0,0.0014045,14035,0.00061677,1686.6,0.0003495,-321.53,-0.0013704,-13245,0.10527
10888,4.1437,2,0,0.0011937,11929,0.00055282,1762.8,0.00027481,-326.04,-0.0011555,-11073,0.1108
10889,4.0514,2,0.05,0.00015928,1591.7,0.0001223,918.95,1.1447e-10,0.0018491,-0.0001223,-918.94,0.10446
10890,3.959,2,0,0.0021035,21021,0.00094975,2807.2,0.0005016,-560.06,-0.0020449,-19694,0.098412
10891,4.0514,2.2727,0,0.0013665,13656,0.00052809,926.55,0.00040338,-10.469,-0.0013485,-13173,0.1066
10892,4.1437,2.1818,0,0.0012279,12271,0.00046568,745.56,0.00036999,26.593,-0.0012132,-11869,0.11208
10893,4.0514,2.1818,0.05,8.2805e-05,827.48,6.3584e-05,477.75,-7.053e-11,0.00041807,-6.3584e-05,-477.74,0.10591
10894,4.0514,2.4545,0,0.0012831,12822,0.00048896,786.44,0.00038315,-8.6062,-0.0012681,-12415,0.10762
10895,4.1437,2.3636,0,0.0012038,12030,0.00044801,601.69,0.00036563,-17.285,-0.0011927,-11726,0.11313
10896,4.0514,2.3636,0.05,3.6328e-05,363.03,2.7896e-05,209.6,-2.83e-11,0.00057037,-2.7896e-05,-209.6,0.10709
10897,4.0514,2.6364,0,0.0012075,12067,0.00045433,674.55,0.00036468,0.973,-0.0011946,-11715,0.10835
10898,4.1437,2.5455,0,0.0011545,11537,0.00042432,523.63,0.000355,2.8205,-0.0011447,-11265,0.11393
10899,4.0514,2.5455,0.05,2.0711e-05,206.96,1.5903e-05,119.49,-2.4875e-11,0.00031675,-1.5903e-05,-119.49,0.10797
10900,4.0514,2.8182,0,0.0011658,11649,0.00043621,620.11,0.00035339,-2.1974,-0.001154,-11328,0.10877
10901,4.1437,2.7273,0,0.0011193,11185,0.00040978,485.41,0.00034488,-2.1961,-0.0011103,-10936,0.11447
10902,4.0514,2.7273,0.05,1.3179e-05,131.7,1.012e-05,76.036,-1.6451e-11,0.0001615,-1.012e-05,-76.035,0.10854
10903,4.0514,3,0,0.0011522,11515,0.0004301,601.08,0.00035005,-0.38592,-0.0011408,-11202,0.10892
10904,4.1437,2.9091,0,0.0011014,11006,0.00040214,465.91,0.0003401,-0.23609,-0.0010927,-10766,0.11474
10905,4.0514,2.9091,0.05,1.0564e-05,105.57,8.1122e-06,60.952,-1.4112e-11,5.3301e-05,-8.1121e-06,-60.951,0.10883
10906,4.0514,3.1818,0,0.0011658,11649,0.00043621,620.11,0.00035339,-2.1974,-0.001154,-11328,0.10877
10907,4.1437,3.0909,0,0.0011014,11006,0.00040214,465.91,0.0003401,-0.23609,-0.0010927,-10766,0.11474
10908,4.0514,3.0909,0.05,1.0564e-05,105.57,8.1121e-06,60.951,1.4035e-11,-1.4869e-05,-8.1122e-06,-60.952,0.10883
10909,4.0514,3.3636,0,0.0012075,12067,0.00045433,674.55,0.00036468,0.97299,-0.0011946,-11715,0.10835
10910,4.1437,3.2727,0,0.0011193,11185,0.00040978,485.41,0.00034488,-2.1961,-0.0011103,-10936,0.11447
10911,4.0514,3.2727,0.05,1.3179e-05,131.7,1.012e-05,76.035,1.6072e-11,-0.00013728,-1.012e-05,-76.036,0.10854
10912,4.0514,3.5455,0,0.0012831,12822,0.00048896,786.43,0.00038315,-8.6062,-0.0012681,-12415,0.10762
10913,4.1437,3.4545,0,0.0011545,11537,0.00042432,523.63,0.000355,2.8205,-0.0011447,-11265,0.11393
10914,4.0514,3.4545,0.05,2.0711e-05,206.96,1.5903e-05,119.49,2.7024e-11,-0.00029646,-1.5903e-05,-119.49,0.10797
10915,4.0514,3.7273,0,0.0013665,13656,0.00052809,926.55,0.00040338,-10.469,-0.0013485,-13173,0.1066
10916,4.1437,3.6364,0,0.0012038,12030,0.00044801,601.69,0.00036563,-17.285,-0.0011927,-11726,0.11313
10917,4.0514,3.6364,0.05,3.6328e-05,363.03,2.7896e-05,209.6,2.7454e-11,-0.00054164,-2.7896e-05,-209.6,0.10709
10918,4.0514,3.9091,0,0.0014045,14035,0.00061677,1686.6,0.0003495,-321.53,-0.0013704,-13245,0.10527
10919,4.1437,3.8182,0,0.0012279,12271,0.00046568,745.56,0.00036999,26.593,-0.0012132,-11869,0.11208
10920,4.0514,3.8182,0.05,8.2805e-05,827.48,6.3584e-05,477.74,7.984e-11,-0.00041048,-6.3584e-05,-477.75,0.10591
10921,4.0514,4.0909,0,0.0012999,12990,0.00071126,3260,0.00021452,-472.26,-0.0012116,-11187,0.10371
10922,4.1437,4,0,0.0011937,11929,0.00055282,1762.8,0.00027481,-326.04,-0.0011555,-11073,0.1108
10923,4.0514,4,0.05,0.00015928,1591.7,0.0001223,918.94,-1.0305e-10,-0.0018997,-0.0001223,-918.95,0.10446
10924,3.959,4,0,0.0021035,21021,0.00094975,2807.2,0.0005016,-560.06,-0.0020449,-19694,0.098412
10925,4.0514,4.2727,0,0.0010353,10346,0.00064588,3812.4,0.00012668,-88.659,-0.00091524,-7917.2,0.10196
10926,4.1437,4.1818,0,0.0010129,10122,0.00056254,2803.2,0.00017747,-90.1,-0.00093521,-8450.3,0.10935
10927,4.0514,4.1818,0.05,8.7463e-05,874.02,6.7161e-05,504.62,-2.1453e-10,-0.002213,-6.716e-05,-504.62,0.10278
10928,3.959,4.1818,0,0.001028,10273,0.0007105,4583.1,4.7775e-05,-396.29,-0.00086184,-7230.8,0.096446
10929,4.0514,4.4545,0,0.00078469,7841.4,0.00050918,3189.4,8.3556e-05,-8.5523,-0.00068,-5745.6,0.10013
10930,4.1437,4.3636,0,0.00078946,7889.2,0.00046979,2643,0.00011924,9.1304,-0.00071063,-6226.2,0.10775
10931,4.0514,4.3636,0.05,4.8204e-05,481.71,3.7015e-05,278.11,-7.9528e-11,-0.00069632,-3.7015e-05,-278.11,0.10098
10932,3.959,4.3636,0,0.00071132,7108.3,0.00046179,2945.2,8.1513e-05,87.885,-0.00061524,-5147.2,0.094396
10933,4.0514,4.6364,0,0.0006103,6098.7,0.00039434,2449.8,6.5475e-05,-21.202,-0.00053018,-4496.7,0.098289
10934,4.1437,4.5455,0,0.00062866,6282.3,0.00037879,2154,8.979e-05,-17.476,-0.00056349,-4926,0.10608
10935,4.0514,4.5455,0.05,3.1592e-05,315.7,2.4258e-05,182.27,-3.8171e-11,-0.00027232,-2.4258e-05,-182.27,0.099139
10936,3.959,4.5455,0,0.00055244,5520.6,0.00036262,2294.4,5.441e-05,-21.408,-0.00047603,-4006.9,0.092367
10937,4.0514,4.8182,0,0.00048451,4841.7,0.00030895,1891.7,5.572e-05,-11.002,-0.00042359,-3612.4,0.096451
10938,4.1437,4.7273,0,0.00050685,5065,0.0003038,1719.9,7.4145e-05,-5.6887,-0.00045512,-3982.4,0.10438
10939,4.0514,4.7273,0.05,2.503e-05,250.13,1.922e-05,144.41,-1.4538e-11,-0.00015247,-1.922e-05,-144.41,0.097292
10940,3.959,4.7273,0,0.00043498,4346.8,0.00027931,1734.2,4.9527e-05,7.7637,-0.0003788,-3210.5,0.090377
10941,4.0514,5,0,0.00038588,3856.1,0.00024067,1432.2,4.8631e-05,-10.7,-0.00034087,-2937.3,0.094631
10942,4.1437,4.9091,0,0.0004096,4093.2,0.00024078,1325.6,6.3483e-05,-6.502,-0.00037056,-3267.7,0.10266
10943,4.0514,4.9091,0.05,1.9884e-05,198.71,1.5269e-05,114.72,-1.035e-11,-6.9991e-05,-1.5269e-05,-114.72,0.095458
10944,3.959,4.9091,0,0.00034695,3467.1,0.00021775,1311.7,4.3276e-05,0.83145,-0.0003055,-2619.7,0.088432
10945,4.0514,5.1818,0,0.00030448,3042.7,0.00018383,1047.6,4.3145e-05,-9.4246,-0.00027272,-2382.7,0.092834
10946,4.1437,5.0909,0,0.00032956,3293.3,0.00018741,982.75,5.5876e-05,-5.5416,-0.00030161,-2691.6,0.10094
10947,4.0514,5.0909,0.05,1.6539e-05,165.27,1.27e-05,95.419,-2.8518e-12,-9.6087e-06,-1.27e-05,-95.419,0.093646
10948,3.959,5.0909,0,0.00027592,2757.3,0.00016759,969.06,3.8989e-05,2.7911,-0.00024637,-2141.3,0.086532
10949,4.0514,5.3636,0,0.00023458,2344.2,0.00013507,718.28,3.8151e-05,-9.9076,-0.00021388,-1903.6,0.09106
10950,4.1437,5.2727,0,0.00026166,2614.8,0.00014143,682.93,4.9746e-05,-5.9292,-0.00024324,-2207.3,0.099224
10951,4.0514,5.2727,0.05,1.4177e-05,141.67,1.0886e-05,81.795,3.0186e-13,-5.1301e-06,-1.0886e-05,-81.795,0.091858
10952,3.959,5.2727,0,0.0002156,2154.5,0.00012527,681.47,3.4889e-05,2.3782,-0.00019578,-1730.8,0.084675
10953,4.0514,5.5455,0,0.00017307,1729.5,9.28e-05,437.66,3.299e-05,-11.727,-0.00016139,-1472.2,0.089308
10954,4.1437,5.4545,0,0.0002033,2031.6,0.0001018,424.75,4.4273e-05,-7.5111,-0.00019272,-1788.2,0.097515
10955,4.0514,5.4545,0.05,1.2599e-05,125.9,9.6746e-06,72.691,2.1652e-12,2.939e-05,-9.6746e-06,-72.691,0.090092
10956,3.959,5.4545,0,0.00016222,1621.1,8.8301e-05,434.87,3.0748e-05,2.4383,-0.00015039,-1358.6,0.082858
10957,4.0514,5.7273,0,0.00012094,1208.6,5.9122e-05,225.56,2.6453e-05,-19.897,-0.00011556,-1086.9,0.087571
10958,4.1437,5.6364,0,0.00015442,1543.2,6.9424e-05,219.47,3.8725e-05,-11.181,-0.00014958,-1426,0.09581
10959,4.0514,5.6364,0.05,1.1803e-05,117.95,9.0635e-06,68.1,3.7004e-12,2.9085e-05,-9.0635e-06,-68.1,0.088346
10960,3.959,5.6364,0,0.00011332,1132.4,5.5387e-05,224,2.6093e-05,3.8914,-0.00010783,-1002.3,0.081074
10961,4.1437,5.8182,0,0.00012153,1214.5,5.0731e-05,117.59,3.241e-05,-20.063,-0.00011928,-1159.8,0.094105
10962,4.0514,5.8182,0.05,1.3044e-05,130.35,1.0016e-05,75.26,6.4094e-13,1.9848e-05,-1.0016e-05,-75.26,0.086611
10963,4.0514,5.9091,0,7.7597e-05,775.44,3.1166e-05,57.377,2.1236e-05,-17.229,-7.6644e-05,-752.67,0.085841
10964,3.959,5.8182,0,6.8903e-05,688.56,2.8361e-05,68.497,1.9291e-05,0.3496,-6.7479e-05,-651.6,0.079317
10965,4.2361,0.27273,0,0.00016009,1599.7,6.4562e-05,138.02,4.5213e-05,-7.3572,-0.00015737,-1529.5,0.10236
10966,4.3284,0.18182,0,0.00017459,1744.7,6.6772e-05,107.16,5.1719e-05,-5.943,-0.00017259,-1691.3,0.10896
10967,4.2361,0.18182,0.05,1.1588e-05,115.8,8.8981e-06,66.857,1.8446e-13,-5.5903e-06,-8.8981e-06,-66.857,0.10144
10968,4.2361,0.090909,0,0.00013585,1357.5,4.8802e-05,47.201,4.2388e-05,-0.99085,-0.000135,-1333.8,0.10067
10969,4.2361,0.45455,0,0.00019233,1922,8.4035e-05,248.69,5.0401e-05,-4.0113,-0.00018691,-1787.1,0.10403
10970,4.3284,0.36364,0,0.00019372,1935.9,7.6774e-05,152.67,5.5789e-05,-5.0031,-0.00019073,-1857.2,0.11061
10971,4.2361,0.36364,0.05,1.0021e-05,100.14,7.695e-06,57.817,1.0765e-12,4.1875e-06,-7.695e-06,-57.817,0.10312
10972,4.2361,0.63636,0,0.00023866,2384.9,0.00011419,434.66,5.6047e-05,-2.1887,-0.00022828,-2138.5,0.10569
10973,4.3284,0.54545,0,0.0002283,2281.4,9.8206e-05,276.72,6.0914e-05,-3.4759,-0.00022236,-2131.9,0.11223
10974,4.2361,0.54545,0.05,1.0136e-05,101.29,7.7832e-06,58.48,2.4799e-12,2.973e-05,-7.7832e-06,-58.48,0.10479
10975,4.2361,0.81818,0,0.0002955,2953,0.00015127,665.15,6.2583e-05,-1.2383,-0.00027851,-2564.1,0.10735
10976,4.3284,0.72727,0,0.00027418,2739.9,0.00012727,450.02,6.7052e-05,-2.4577,-0.00026375,-2488,0.11384
10977,4.2361,0.72727,0.05,1.0728e-05,107.21,8.2379e-06,61.896,5.9772e-12,7.2055e-05,-8.2379e-06,-61.896,0.10644
10978,4.2361,1,0,0.00036305,3628,0.00019439,927.79,7.0805e-05,-0.76022,-0.00033825,-3074.2,0.10899
10979,4.3284,0.90909,0,0.00033011,3298.8,0.00016211,654.62,7.4702e-05,-2.1237,-0.00031407,-2923.2,0.11542
10980,4.2361,0.90909,0.05,1.1765e-05,117.57,9.0343e-06,67.88,1.2284e-11,0.00012633,-9.0343e-06,-67.88,0.10809
10981,4.2361,1.1818,0,0.00044365,4433.5,0.00024378,1215.1,8.1965e-05,-0.76133,-0.0004103,-3699.5,0.11061
10982,4.3284,1.0909,0,0.00039651,3962.4,0.00020181,877.23,8.4778e-05,-2.1405,-0.00037423,-3451,0.11698
10983,4.2361,1.0909,0.05,1.3318e-05,133.09,1.0226e-05,76.838,2.1458e-11,0.00022936,-1.0226e-05,-76.838,0.10973
10984,4.2361,1.3636,0,0.00054021,5398.4,0.00029854,1501.3,9.8513e-05,-1.5643,-0.00049876,-4489.3,0.11221
10985,4.3284,1.2727,0,0.00047501,4746.8,0.00024572,1101.6,9.8753e-05,-2.6142,-0.00044657,-4100,0.1185
10986,4.2361,1.2727,0.05,1.5272e-05,152.61,1.1727e-05,88.109,3.6237e-11,0.00036049,-1.1727e-05,-88.109,0.11135
10987,4.2361,1.5455,0,0.00065564,6551.9,0.00035443,1720.5,0.00012551,0.46101,-0.00060919,-5519.8,0.11377
10988,4.3284,1.4545,0,0.0005668,5664.1,0.00029104,1286.5,0.00011936,-3.4535,-0.00053384,-4911.4,0.11996
10989,4.2361,1.4545,0.05,1.8989e-05,189.76,1.4581e-05,109.56,6.0136e-11,0.00060077,-1.4582e-05,-109.56,0.11293
10990,4.2361,1.7273,0,0.0007867,7861.6,0.00039876,1726.3,0.0001701,8.2346,-0.00074298,-6852.3,0.11525
10991,4.3284,1.6364,0,0.00067209,6716.3,0.00033185,1354.9,0.00015075,-5.7579,-0.00063871,-5937.5,0.12135
10992,4.2361,1.6364,0.05,1.9016e-05,190.03,1.4602e-05,109.71,1.0828e-10,0.0010897,-1.4602e-05,-109.71,0.11445
10993,4.2361,1.9091,0,0.00090419,9035.6,0.0004004,1278.1,0.00023761,55.061,-0.00087527,-8306.7,0.11661
10994,4.3284,1.8182,0,0.00078186,7813.2,0.00035329,1166.5,0.00019812,0.68078,-0.00075545,-7164.1,0.12264
10995,4.2361,1.8182,0.05,2.9423e-05,294.02,2.2593e-05,169.75,1.5534e-10,0.0016398,-2.2593e-05,-169.75,0.11588
10996,4.2361,2.0909,0,0.00099977,9990.8,0.00038236,676.18,0.00030208,72.972,-0.00098566,-9602.6,0.11782
10997,4.3284,2,0,0.00087222,8716.2,0.00033891,639.8,0.00025877,37.672,-0.00085913,-8361.8,0.12381
10998,4.2361,2,0.05,2.7492e-05,274.73,2.111e-05,158.61,-1.9997e-11,0.00048005,-2.111e-05,-158.61,0.11718
10999,4.2361,2.2727,0,0.0010577,10569,0.00037892,370.48,0.00033208,18.595,-0.0010506,-10370,0.11887
11000,4.3284,2.1818,0,0.00094702,9463.6,0.0003336,263.97,0.00030086,17.954,-0.00094198,-9320.3,0.12482
11001,4.2361,2.1818,0.05,3.8735e-05,387.08,2.9744e-05,223.48,-5.7353e-11,0.00020356,-2.9744e-05,-223.48,0.11831
11002,4.2361,2.4545,0,0.0010725,10717,0.00038077,319.41,0.00033748,-5.8875,-0.0010668,-10557,0.1197
11003,4.3284,2.3636,0,0.00098659,9859,0.00033928,162.89,0.00031725,-2.6922,-0.00098376,-9777.9,0.12567
11004,4.2361,2.3636,0.05,2.8411e-05,283.92,2.1816e-05,163.92,-6.0973e-11,0.00010582,-2.1816e-05,-163.92,0.11926
11005,4.2361,2.6364,0,0.001065,10643,0.00037844,324.46,0.00033525,-0.056216,-0.0010591,-10477,0.12031
11006,4.3284,2.5455,0,0.000998,9973.1,0.00034357,170.41,0.00032081,-0.58543,-0.000995,-9887.1,0.12632
11007,4.2361,2.5455,0.05,2.172e-05,217.05,1.6678e-05,125.31,-4.8357e-11,5.9636e-05,-1.6678e-05,-125.31,0.11998
11008,4.2361,2.8182,0,0.0010539,10531,0.00037469,323.49,0.00033162,-0.095477,-0.001048,-10366,0.12068
11009,4.3284,2.7273,0,0.00099619,9955,0.0003436,178.28,0.00031988,0.042164,-0.00099304,-9864.7,0.12677
11010,4.2361,2.7273,0.05,1.6165e-05,161.54,1.2413e-05,93.263,-3.0773e-11,1.3382e-06,-1.2413e-05,-93.262,0.12048
11011,4.2361,3,0,0.0010494,10487,0.0003732,323.31,0.00033019,0.083733,-0.0010436,-10322,0.12081
11012,4.3284,2.9091,0,0.00099318,9925,0.00034303,183.66,0.00031866,0.54385,-0.00098992,-9831.6,0.12699
11013,4.2361,2.9091,0.05,1.3782e-05,137.73,1.0583e-05,79.517,-1.0407e-11,-2.2416e-06,-1.0583e-05,-79.517,0.12072
11014,4.2361,3.1818,0,0.0010539,10531,0.00037469,323.49,0.00033162,-0.09548,-0.001048,-10366,0.12068
11015,4.3284,3.0909,0,0.00099318,9925,0.00034303,183.66,0.00031866,0.54385,-0.00098992,-9831.6,0.12699
11016,4.2361,3.0909,0.05,1.3782e-05,137.73,1.0583e-05,79.517,1.0386e-11,1.7468e-05,-1.0583e-05,-79.517,0.12072
11017,4.2361,3.3636,0,0.001065,10643,0.00037844,324.46,0.00033525,-0.056222,-0.0010591,-10477,0.12031
11018,4.3284,3.2727,0,0.00099619,9955,0.0003436,178.28,0.00031988,0.04216,-0.00099304,-9864.7,0.12677
11019,4.2361,3.2727,0.05,1.6165e-05,161.54,1.2412e-05,93.262,3.0546e-11,1.7434e-05,-1.2413e-05,-93.263,0.12048
11020,4.2361,3.5455,0,0.0010725,10717,0.00038077,319.41,0.00033748,-5.8876,-0.0010668,-10557,0.1197
11021,4.3284,3.4545,0,0.000998,9973.1,0.00034357,170.41,0.00032081,-0.58544,-0.000995,-9887.1,0.12632
11022,4.2361,3.4545,0.05,2.172e-05,217.05,1.6678e-05,125.31,4.1206e-11,-4.2531e-05,-1.6678e-05,-125.31,0.11998
11023,4.2361,3.7273,0,0.0010577,10569,0.00037892,370.48,0.00033208,18.595,-0.0010506,-10370,0.11887
11024,4.3284,3.6364,0,0.00098659,9859.1,0.00033928,162.89,0.00031725,-2.6922,-0.00098376,-9777.9,0.12567
11025,4.2361,3.6364,0.05,2.8411e-05,283.92,2.1816e-05,163.92,6.8222e-11,-9.5057e-05,-2.1816e-05,-163.92,0.11926
11026,4.2361,3.9091,0,0.00099977,9990.8,0.00038236,676.18,0.00030208,72.972,-0.00098566,-9602.6,0.11782
11027,4.3284,3.8182,0,0.00094702,9463.6,0.0003336,263.97,0.00030086,17.954,-0.00094198,-9320.3,0.12482
11028,4.2361,3.8182,0.05,3.8735e-05,387.08,2.9744e-05,223.48,5.528e-11,-0.00016527,-2.9744e-05,-223.48,0.11831
11029,4.2361,4.0909,0,0.00090419,9035.6,0.0004004,1278.1,0.00023761,55.061,-0.00087527,-8306.7,0.11661
11030,4.3284,4,0,0.00087222,8716.2,0.00033891,639.8,0.00025877,37.672,-0.00085913,-8361.8,0.12381
11031,4.2361,4,0.05,2.7492e-05,274.73,2.111e-05,158.61,1.5985e-11,-0.00045216,-2.111e-05,-158.61,0.11718
11032,4.2361,4.2727,0,0.0007867,7861.6,0.00039876,1726.3,0.0001701,8.2346,-0.00074298,-6852.3,0.11525
11033,4.3284,4.1818,0,0.00078186,7813.2,0.00035329,1166.5,0.00019812,0.68077,-0.00075545,-7164.1,0.12264
11034,4.2361,4.1818,0.05,2.9423e-05,294.02,2.2593e-05,169.75,-1.5409e-10,-0.001629,-2.2593e-05,-169.75,0.11588
11035,4.2361,4.4545,0,0.00065564,6551.9,0.00035443,1720.5,0.00012551,0.46101,-0.00060919,-5519.8,0.11377
11036,4.3284,4.3636,0,0.00067209,6716.3,0.00033185,1354.9,0.00015075,-5.7579,-0.00063871,-5937.5,0.12135
11037,4.2361,4.3636,0.05,1.9016e-05,190.03,1.4602e-05,109.71,-1.2096e-10,-0.0010813,-1.4602e-05,-109.71,0.11445
11038,4.2361,4.6364,0,0.00054021,5398.4,0.00029854,1501.3,9.8513e-05,-1.5644,-0.00049876,-4489.3,0.11221
11039,4.3284,4.5455,0,0.0005668,5664.1,0.00029104,1286.5,0.00011936,-3.4535,-0.00053384,-4911.4,0.11996
11040,4.2361,4.5455,0.05,1.8989e-05,189.76,1.4582e-05,109.56,-6.1519e-11,-0.00062689,-1.4581e-05,-109.56,0.11293
11041,4.2361,4.8182,0,0.00044365,4433.5,0.00024378,1215.1,8.1965e-05,-0.76133,-0.0004103,-3699.5,0.11061
11042,4.3284,4.7273,0,0.00047501,4746.8,0.00024572,1101.6,9.8753e-05,-2.6142,-0.00044657,-4100,0.1185
11043,4.2361,4.7273,0.05,1.5272e-05,152.61,1.1727e-05,88.109,-3.3039e-11,-0.00034992,-1.1727e-05,-88.109,0.11135
11044,4.2361,5,0,0.00036305,3628,0.00019439,927.79,7.0805e-05,-0.76022,-0.00033825,-3074.2,0.10899
11045,4.3284,4.9091,0,0.00039651,3962.4,0.00020181,877.23,8.4778e-05,-2.1405,-0.00037423,-3451,0.11698
11046,4.2361,4.9091,0.05,1.3318e-05,133.09,1.0226e-05,76.838,-1.9512e-11,-0.00021493,-1.0226e-05,-76.838,0.10973
11047,4.2361,5.1818,0,0.0002955,2953,0.00015127,665.15,6.2583e-05,-1.2383,-0.00027851,-2564.1,0.10735
11048,4.3284,5.0909,0,0.00033011,3298.8,0.00016211,654.62,7.4702e-05,-2.1237,-0.00031407,-2923.2,0.11542
11049,4.2361,5.0909,0.05,1.1765e-05,117.57,9.0343e-06,67.88,-1.1852e-11,-0.00011876,-9.0343e-06,-67.88,0.10809
11050,4.2361,5.3636,0,0.00023866,2384.9,0.00011419,434.66,5.6047e-05,-2.1887,-0.00022828,-2138.5,0.10569
11051,4.3284,5.2727,0,0.00027418,2739.9,0.00012727,450.02,6.7052e-05,-2.4578,-0.00026375,-2488,0.11384
11052,4.2361,5.2727,0.05,1.0728e-05,107.21,8.2379e-06,61.896,-4.7517e-12,-7.2055e-05,-8.2379e-06,-61.896,0.10644
11053,4.2361,5.5455,0,0.00019233,1922,8.4035e-05,248.69,5.0401e-05,-4.0113,-0.00018691,-1787.1,0.10403
11054,4.3284,5.4545,0,0.0002283,2281.4,9.8206e-05,276.72,6.0914e-05,-3.4759,-0.00022236,-2131.9,0.11223
11055,4.2361,5.4545,0.05,1.0136e-05,101.29,7.7832e-06,58.48,-2.5737e-12,-2.973e-05,-7.7832e-06,-58.48,0.10479
11056,4.2361,5.7273,0,0.00016009,1599.7,6.4562e-05,138.02,4.5213e-05,-7.3572,-0.00015737,-1529.5,0.10236
11057,4.3284,5.6364,0,0.00019372,1935.9,7.6774e-05,152.67,5.5789e-05,-5.0031,-0.00019073,-1857.2,0.11061
11058,4.2361,5.6364,0.05,1.0021e-05,100.14,7.695e-06,57.817,5.5449e-13,-6.2281e-06,-7.695e-06,-57.817,0.10312
11059,4.3284,5.8182,0,0.00017459,1744.7,6.6772e-05,107.16,5.1719e-05,-5.943,-0.00017259,-1691.3,0.10896
11060,4.2361,5.8182,0.05,1.1588e-05,115.8,8.8981e-06,66.857,2.9279e-13,4.0982e-06,-8.8981e-06,-66.857,0.10144
11061,4.2361,5.9091,0,0.00013585,1357.5,4.8802e-05,47.201,4.2388e-05,-0.99085,-0.000135,-1333.8,0.10067
11062,4.4208,0.27273,0,0.00020936,2092.2,8.0014e-05,129.55,6.2221e-05,-4.146,-0.00020691,-2026.3,0.11723
11063,4.5132,0.18182,0,0.00022452,2243.7,8.3295e-05,109.61,6.8402e-05,-2.2907,-0.00022249,-2187.9,0.12391
11064,4.4208,0.18182,0.05,1.0687e-05,106.8,8.2064e-06,61.659,6.4562e-13,6.0013e-06,-8.2064e-06,-61.659,0.11634
11065,4.4208,0.090909,0,0.00019054,1904,6.7432e-05,54.365,6.011e-05,-0.64647,-0.00018956,-1876.6,0.11559
11066,4.4208,0.45455,0,0.00023266,2325,9.3367e-05,198.89,6.6391e-05,-3.79,-0.00022868,-2220.9,0.11884
11067,4.5132,0.36364,0,0.00023936,2392,9.1203e-05,145.84,7.1411e-05,-2.8677,-0.00023658,-2317,0.12551
11068,4.4208,0.36364,0.05,9.1018e-06,90.955,6.989e-06,52.513,2.1831e-12,2.4967e-05,-6.989e-06,-52.513,0.11797
11069,4.4208,0.63636,0,0.00026837,2681.9,0.00011494,319.52,7.1973e-05,-3.3428,-0.00026153,-2509.1,0.12042
11070,4.5132,0.54545,0,0.00026583,2656.4,0.00010652,226.26,7.6033e-05,-2.8391,-0.00026128,-2537.3,0.12706
11071,4.4208,0.54545,0.05,9.1339e-06,91.276,7.0137e-06,52.698,5.9847e-12,6.4873e-05,-7.0137e-06,-52.698,0.11956
11072,4.4208,0.81818,0,0.00031444,3142.3,0.00014252,472.61,7.9196e-05,-3.1555,-0.00030374,-2880.4,0.12196
11073,4.5132,0.72727,0,0.0003022,3020,0.00012761,337.73,8.2294e-05,-2.7266,-0.00029506,-2838,0.12857
11074,4.4208,0.72727,0.05,9.4499e-06,94.434,7.2564e-06,54.522,1.0432e-11,0.00011736,-7.2564e-06,-54.521,0.12112
11075,4.4208,1,0,0.00037017,3699.1,0.00017453,641.61,8.8686e-05,-3.4189,-0.00035506,-3337.6,0.12346
11076,4.5132,0.90909,0,0.00034765,3474.1,0.00015312,467.31,9.0553e-05,-2.7859,-0.00033735,-3217.9,0.13004
11077,4.4208,0.90909,0.05,9.9532e-06,99.463,7.6428e-06,57.425,1.765e-11,0.0001938,-7.6428e-06,-57.425,0.12265
11078,4.4208,1.1818,0,0.00043541,4351.1,0.00020932,805.62,0.00010157,-3.9665,-0.00041608,-3893.4,0.12492
11079,4.5132,1.0909,0,0.00040163,4013.5,0.00018158,598.49,0.0001015,-3.1789,-0.0003881,-3681.9,0.13145
11080,4.4208,1.0909,0.05,1.0592e-05,105.85,8.1333e-06,61.111,2.894e-11,0.00029965,-8.1334e-06,-61.111,0.12413
11081,4.4208,1.3636,0,0.00050995,5096,0.00024423,931.93,0.0001196,-4.5066,-0.00048767,-4567.3,0.12632
11082,4.5132,1.2727,0,0.00046359,4632.7,0.00021093,707.45,0.00011627,-3.7688,-0.00044751,-4239.7,0.13281
11083,4.4208,1.2727,0.05,1.1223e-05,112.15,8.6179e-06,64.752,4.7017e-11,0.0004545,-8.6179e-06,-64.752,0.12556
11084,4.4208,1.5455,0,0.0005908,5903.9,0.0002737,960.31,0.0001446,-9.6848,-0.00056861,-5368.5,0.12764
11085,4.5132,1.4545,0,0.00053245,5320.8,0.00023803,759.5,0.00013635,-4.4831,-0.00051547,-4902,0.13408
11086,4.4208,1.4545,0.05,1.1347e-05,113.39,8.7132e-06,65.468,7.8564e-11,0.00077558,-8.7133e-06,-65.468,0.12693
11087,4.4208,1.7273,0,0.00067235,6718.8,0.00028978,820.73,0.00017891,-12.351,-0.00065471,-6275.8,0.12887
11088,4.5132,1.6364,0,0.00060402,6036.1,0.00025715,699.1,0.00016292,-8.939,-0.00058916,-5659.8,0.13527
11089,4.4208,1.6364,0.05,1.1803e-05,117.95,9.0631e-06,68.097,1.2036e-10,0.0011318,-9.0632e-06,-68.097,0.12821
11090,4.4208,1.9091,0,0.00074966,7491.4,0.00029192,529.03,0.00021931,-16.513,-0.00073944,-7220.2,0.12999
11091,4.5132,1.8182,0,0.00067356,6730.9,0.00026336,492.3,0.00019673,-8.2825,-0.00066392,-6474.9,0.13635
11092,4.4208,1.8182,0.05,1.3556e-05,135.47,1.0409e-05,78.211,7.8821e-11,0.00095508,-1.0409e-05,-78.211,0.12939
11093,4.4208,2.0909,0,0.00081788,8173.1,0.0002891,219.64,0.00025736,-18.785,-0.0008142,-8070.1,0.13097
11094,4.5132,2,0,0.00073753,7370.2,0.00026172,211.53,0.00023155,-15.183,-0.00073392,-7269.4,0.13731
11095,4.4208,2,0.05,1.7756e-05,177.44,1.3635e-05,102.45,1.1131e-11,0.00047275,-1.3635e-05,-102.45,0.13044
11096,4.4208,2.2727,0,0.00087309,8724.9,0.00029121,35.626,0.00028616,-2.2691,-0.00087251,-8708.1,0.13182
11097,4.5132,2.1818,0,0.00079333,7927.8,0.00026475,14.265,0.00025811,-35.574,-0.00079368,-7938.3,0.13814
11098,4.4208,2.1818,0.05,1.9764e-05,197.5,1.5176e-05,114.03,-2.558e-11,0.00028434,-1.5176e-05,-114.03,0.13136
11099,4.4208,2.4545,0,0.0009095,9088.7,0.00030164,10.542,0.00029856,-12.556,-0.00090953,-9089.7,0.1325
11100,4.5132,2.3636,0,0.00083742,8368.4,0.00028196,5.0625,0.00026729,-105.14,-0.00083907,-8417.9,0.13884
11101,4.4208,2.3636,0.05,2.0483e-05,204.69,1.5728e-05,118.18,-5.3033e-11,1.3994e-05,-1.5728e-05,-118.18,0.13212
11102,4.4208,2.6364,0,0.00092728,9266.4,0.00030772,16.603,0.00030463,-6.583,-0.00092711,-9261.4,0.133
11103,4.5132,2.5455,0,0.00086454,8639.4,0.00029084,2.2631,0.00027612,-108.32,-0.00086629,-8691.9,0.13937
11104,4.4208,2.5455,0.05,1.7888e-05,178.75,1.3736e-05,103.2,-4.4159e-11,-4.1588e-05,-1.3735e-05,-103.2,0.13272
11105,4.4208,2.8182,0,0.00093401,9333.7,0.0003106,28.394,0.00030681,-0.10557,-0.00093353,-9319.5,0.1333
11106,4.5132,2.7273,0,0.0008783,8777,0.00029452,2.1215,0.0002821,-91.193,-0.00087978,-8821.1,0.13974
11107,4.4208,2.7273,0.05,1.5695e-05,156.84,1.2052e-05,90.551,-3.374e-11,-4.7411e-05,-1.2051e-05,-90.55,0.13312
11108,4.4208,3,0,0.00093556,9349.1,0.0003115,33.839,0.00030716,1.2281,-0.00093496,-9331.5,0.13341
11109,4.5132,2.9091,0,0.00088368,8830.7,0.00029562,1.4289,0.00028496,-78.722,-0.00088497,-8869.1,0.13993
11110,4.4208,2.9091,0.05,1.4387e-05,143.77,1.1047e-05,83.005,-1.1805e-11,-1.8991e-05,-1.1047e-05,-83.004,0.13333
11111,4.4208,3.1818,0,0.00093401,9333.7,0.0003106,28.393,0.00030681,-0.10557,-0.00093353,-9319.5,0.1333
11112,4.5132,3.0909,0,0.00088368,8830.7,0.00029562,1.4289,0.00028496,-78.722,-0.00088497,-8869.1,0.13993
11113,4.4208,3.0909,0.05,1.4387e-05,143.77,1.1047e-05,83.004,1.1788e-11,3.21e-05,-1.1047e-05,-83.005,0.13333
11114,4.4208,3.3636,0,0.00092728,9266.4,0.00030772,16.603,0.00030463,-6.5832,-0.00092711,-9261.4,0.133
11115,4.5132,3.2727,0,0.0008783,8777,0.00029452,2.1215,0.0002821,-91.193,-0.00087978,-8821.1,0.13974
11116,4.4208,3.2727,0.05,1.5695e-05,156.84,1.2051e-05,90.55,2.9977e-11,5.9644e-05,-1.2052e-05,-90.551,0.13312
11117,4.4208,3.5455,0,0.0009095,9088.7,0.00030164,10.542,0.00029856,-12.556,-0.00090953,-9089.7,0.1325
11118,4.5132,3.4545,0,0.00086454,8639.4,0.00029084,2.2631,0.00027612,-108.32,-0.00086629,-8691.9,0.13937
11119,4.4208,3.4545,0.05,1.7888e-05,178.75,1.3735e-05,103.2,4.4168e-11,5.0573e-05,-1.3736e-05,-103.2,0.13272
11120,4.4208,3.7273,0,0.00087309,8724.9,0.00029121,35.626,0.00028616,-2.2691,-0.00087252,-8708.1,0.13182
11121,4.5132,3.6364,0,0.00083742,8368.4,0.00028196,5.0625,0.00026729,-105.14,-0.00083907,-8417.9,0.13884
11122,4.4208,3.6364,0.05,2.0483e-05,204.69,1.5728e-05,118.18,5.3549e-11,-8.0937e-06,-1.5728e-05,-118.18,0.13212
11123,4.4208,3.9091,0,0.00081788,8173.1,0.0002891,219.64,0.00025736,-18.785,-0.0008142,-8070.1,0.13097
11124,4.5132,3.8182,0,0.00079333,7927.8,0.00026475,14.265,0.00025811,-35.574,-0.00079368,-7938.3,0.13814
11125,4.4208,3.8182,0.05,1.9764e-05,197.5,1.5176e-05,114.03,2.128e-11,-0.00025638,-1.5176e-05,-114.03,0.13136
11126,4.4208,4.0909,0,0.00074966,7491.4,0.00029192,529.03,0.00021931,-16.513,-0.00073944,-7220.2,0.12999
11127,4.5132,4,0,0.00073753,7370.2,0.00026172,211.53,0.00023155,-15.183,-0.00073392,-7269.4,0.13731
11128,4.4208,4,0.05,1.7756e-05,177.44,1.3635e-05,102.45,-7.7406e-12,-0.00046915,-1.3635e-05,-102.45,0.13044
11129,4.4208,4.2727,0,0.00067235,6718.9,0.00028978,820.73,0.00017891,-12.351,-0.00065471,-6275.8,0.12887
11130,4.5132,4.1818,0,0.00067356,6730.9,0.00026336,492.3,0.00019673,-8.2825,-0.00066392,-6474.9,0.13635
11131,4.4208,4.1818,0.05,1.3556e-05,135.47,1.0409e-05,78.211,-8.7187e-11,-0.00095479,-1.0409e-05,-78.211,0.12939
11132,4.4208,4.4545,0,0.0005908,5903.9,0.0002737,960.31,0.0001446,-9.6848,-0.00056861,-5368.5,0.12764
11133,4.5132,4.3636,0,0.00060402,6036.1,0.00025715,699.1,0.00016292,-8.939,-0.00058916,-5659.8,0.13527
11134,4.4208,4.3636,0.05,1.1803e-05,117.95,9.0631e-06,68.097,-1.1358e-10,-0.0011002,-9.0631e-06,-68.097,0.12821
11135,4.4208,4.6364,0,0.00050995,5096,0.00024423,931.93,0.0001196,-4.5066,-0.00048767,-4567.3,0.12632
11136,4.5132,4.5455,0,0.00053245,5320.8,0.00023803,759.5,0.00013635,-4.4831,-0.00051547,-4902,0.13408
11137,4.4208,4.5455,0.05,1.1347e-05,113.39,8.7133e-06,65.468,-7.8564e-11,-0.00069403,-8.7132e-06,-65.468,0.12693
11138,4.4208,4.8182,0,0.00043541,4351.1,0.00020932,805.62,0.00010157,-3.9665,-0.00041608,-3893.4,0.12492
11139,4.5132,4.7273,0,0.00046359,4632.7,0.00021093,707.45,0.00011627,-3.7689,-0.00044751,-4239.7,0.13281
11140,4.4208,4.7273,0.05,1.1223e-05,112.15,8.6179e-06,64.752,-4.4343e-11,-0.00044479,-8.6179e-06,-64.752,0.12556
11141,4.4208,5,0,0.00037017,3699.1,0.00017453,641.61,8.8686e-05,-3.4189,-0.00035506,-3337.6,0.12346
11142,4.5132,4.9091,0,0.00040163,4013.5,0.00018158,598.49,0.0001015,-3.1789,-0.0003881,-3681.9,0.13145
11143,4.4208,4.9091,0.05,1.0592e-05,105.85,8.1334e-06,61.111,-2.7281e-11,-0.00029176,-8.1333e-06,-61.111,0.12413
11144,4.4208,5.1818,0,0.00031444,3142.3,0.00014252,472.61,7.9196e-05,-3.1555,-0.00030374,-2880.4,0.12196
11145,4.5132,5.0909,0,0.00034765,3474.1,0.00015312,467.31,9.0553e-05,-2.7859,-0.00033735,-3217.9,0.13004
11146,4.4208,5.0909,0.05,9.9532e-06,99.463,7.6428e-06,57.425,-1.7318e-11,-0.00018382,-7.6428e-06,-57.425,0.12265
11147,4.4208,5.3636,0,0.00026837,2681.9,0.00011494,319.52,7.1973e-05,-3.3428,-0.00026153,-2509.1,0.12042
11148,4.5132,5.2727,0,0.0003022,3020,0.00012761,337.73,8.2294e-05,-2.7266,-0.00029506,-2838,0.12857
11149,4.4208,5.2727,0.05,9.4499e-06,94.434,7.2564e-06,54.521,-9.6632e-12,-0.00012018,-7.2564e-06,-54.522,0.12112
11150,4.4208,5.5455,0,0.00023266,2325,9.3367e-05,198.89,6.6391e-05,-3.79,-0.00022868,-2220.9,0.11884
11151,4.5132,5.4545,0,0.00026583,2656.4,0.00010652,226.26,7.6033e-05,-2.8391,-0.00026128,-2537.3,0.12706
11152,4.4208,5.4545,0.05,9.1339e-06,91.276,7.0137e-06,52.698,-5.9144e-12,-6.5462e-05,-7.0137e-06,-52.698,0.11956
11153,4.4208,5.7273,0,0.00020936,2092.2,8.0014e-05,129.55,6.2221e-05,-4.146,-0.00020691,-2026.3,0.11723
11154,4.5132,5.6364,0,0.00023936,2392,9.1203e-05,145.83,7.1411e-05,-2.8677,-0.00023658,-2317,0.12551
11155,4.4208,5.6364,0.05,9.1018e-06,90.955,6.989e-06,52.513,-2.4929e-12,-2.849e-05,-6.989e-06,-52.513,0.11797
11156,4.5132,5.8182,0,0.00022452,2243.7,8.3295e-05,109.61,6.8402e-05,-2.2907,-0.00022249,-2187.9,0.12391
11157,4.4208,5.8182,0.05,1.0687e-05,106.8,8.2064e-06,61.659,-4.6385e-13,-4.0444e-06,-8.2064e-06,-61.659,0.11634
11158,4.4208,5.9091,0,0.00019054,1904,6.7432e-05,54.365,6.011e-05,-0.64647,-0.00018956,-1876.6,0.11559
11159,4.6055,0.27273,0,0.00025504,2548.6,9.4984e-05,129.65,7.7535e-05,-1.4473,-0.0002526,-2482,0.13223
11160,4.6979,0.18182,0,0.0002681,2679.2,9.7462e-05,107.95,8.3032e-05,-0.47635,-0.00026611,-2623.8,0.13901
11161,4.6055,0.18182,0.05,9.5894e-06,95.828,7.3635e-06,55.326,3.3206e-13,9.2205e-06,-7.3635e-06,-55.326,0.13137
11162,4.6055,0.090909,0,0.00023889,2387.3,8.3677e-05,58.22,7.5943e-05,0.11083,-0.00023785,-2357.6,0.13063
11163,4.6055,0.45455,0,0.00027383,2736.4,0.00010549,181.68,8.105e-05,-1.9429,-0.00027031,-2641.9,0.13378
11164,4.6979,0.36364,0,0.00028108,2808.8,0.00010486,145.22,8.5353e-05,-1.3698,-0.00027834,-2734,0.14055
11165,4.6055,0.36364,0.05,7.9576e-06,79.521,6.1104e-06,45.911,2.0319e-12,3.6574e-05,-6.1104e-06,-45.911,0.13295
11166,4.6055,0.63636,0,0.00030207,3018.6,0.0001212,259.59,8.6366e-05,-2.1293,-0.00029684,-2881.4,0.13527
11167,4.6979,0.54545,0,0.00030245,3022.4,0.00011655,201.35,8.9522e-05,-1.7197,-0.00029854,-2917.5,0.14204
11168,4.6055,0.54545,0.05,7.9012e-06,78.957,6.0671e-06,45.586,5.7308e-12,8.2027e-05,-6.0671e-06,-45.586,0.13447
11169,4.6055,0.81818,0,0.0003388,3385.6,0.00014095,353.07,9.366e-05,-2.287,-0.00033143,-3196.2,0.13672
11170,4.6979,0.72727,0,0.00033146,3312.3,0.00013176,269.98,9.5562e-05,-2.0052,-0.00032606,-3169.9,0.14347
11171,4.6055,0.72727,0.05,7.9895e-06,79.84,6.1349e-06,46.095,1.0688e-11,0.00014129,-6.1349e-06,-46.095,0.13594
11172,4.6055,1,0,0.00038325,3829.8,0.00016343,448.73,0.00010337,-2.5201,-0.00037366,-3586.7,0.1381
11173,4.6979,0.90909,0,0.00036764,3673.8,0.00014971,343.25,0.00010372,-2.2773,-0.00036061,-3491.1,0.14484
11174,4.6055,0.90909,0.05,8.1001e-06,80.945,6.2199e-06,46.734,2.1166e-11,0.00024052,-6.2199e-06,-46.734,0.13735
11175,4.6055,1.1818,0,0.00043442,4341.2,0.00018674,526.97,0.0001162,-2.9962,-0.00042307,-4054.9,0.13942
11176,4.6979,1.0909,0,0.0004102,4099.2,0.00016904,407.49,0.00011445,-2.6273,-0.00040177,-3881.3,0.14614
11177,4.6055,1.0909,0.05,8.161e-06,81.553,6.2666e-06,47.085,3.3146e-11,0.00034877,-6.2666e-06,-47.085,0.13871
11178,4.6055,1.3636,0,0.00049068,4903.5,0.00020818,561.03,0.00013301,-3.8014,-0.00047876,-4600.4,0.14066
11179,4.6979,1.2727,0,0.00045793,4576.2,0.00018779,443.46,0.00012834,-3.2314,-0.0004488,-4339.7,0.14736
11180,4.6055,1.2727,0.05,8.0798e-06,80.742,6.2043e-06,46.617,5.3593e-11,0.00053064,-6.2043e-06,-46.617,0.13999
11181,4.6055,1.5455,0,0.00054952,5491.4,0.00022434,519.77,0.00015466,-3.8234,-0.00053886,-5214.7,0.14182
11182,4.6979,1.4545,0,0.00050892,5085.7,0.0002034,427.28,0.00014597,-4.2104,-0.00050035,-4860.4,0.14849
11183,4.6055,1.4545,0.05,7.999e-06,79.935,6.1422e-06,46.151,8.0333e-11,0.00076681,-6.1423e-06,-46.151,0.14119
11184,4.6055,1.7273,0,0.00060752,6071,0.0002325,383.94,0.00018074,-4.9121,-0.00060013,-5872.1,0.14287
11185,4.6979,1.6364,0,0.00056059,5602,0.00021318,337.48,0.0001676,-4.9602,-0.00055414,-5427.9,0.14953
11186,4.6055,1.6364,0.05,8.4297e-06,84.239,6.4729e-06,48.635,9.3236e-11,0.00099186,-6.473e-06,-48.635,0.1423
11187,4.6055,1.9091,0,0.00066244,6619.8,0.00023411,181.87,0.0002089,-7.5222,-0.00065927,-6530.6,0.14381
11188,4.6979,1.8182,0,0.00061012,6097,0.00021647,176.22,0.00019174,-9.6026,-0.00060707,-6011.6,0.15046
11189,4.6055,1.8182,0.05,9.7786e-06,97.719,7.5087e-06,56.418,6.8861e-11,0.00086295,-7.5088e-06,-56.418,0.1433
11190,4.6055,2.0909,0,0.00071309,7126,0.0002396,22.87,0.00023017,-47.985,-0.00071349,-7138.3,0.14464
11191,4.6979,2,0,0.00065664,6561.9,0.00022133,25.729,0.0002112,-50.391,-0.00065703,-6573.9,0.15128
11192,4.6055,2,0.05,1.1845e-05,118.37,9.0956e-06,68.341,2.838e-11,0.00050336,-9.0956e-06,-68.341,0.14418
11193,4.6055,2.2727,0,0.00075702,7564.9,0.00025835,5.0875,0.00023576,-164.66,-0.00075959,-7643.3,0.14533
11194,4.6979,2.1818,0,0.00069907,6985.8,0.00024026,5.6538,0.0002149,-184.88,-0.00070192,-7073.5,0.15198
11195,4.6055,2.1818,0.05,1.354e-05,135.31,1.0397e-05,78.121,-1.5545e-11,0.00019853,-1.0397e-05,-78.12,0.14495
11196,4.6055,2.4545,0,0.00079126,7907.2,0.00027183,1.8434,0.00024301,-214.75,-0.00079466,-8011.4,0.1459
11197,4.6979,2.3636,0,0.00073501,7345.1,0.00025572,1.838,0.00022019,-265.1,-0.00073913,-7473.1,0.15256
11198,4.6055,2.3636,0.05,1.4398e-05,143.88,1.1056e-05,83.069,-3.2126e-11,6.4202e-05,-1.1056e-05,-83.068,0.14558
11199,4.6055,2.6364,0,0.00081425,8136.8,0.00027952,1.8842,0.00025043,-216.69,-0.00081768,-8242,0.14631
11200,4.6979,2.5455,0,0.00076199,7614.7,0.00026572,1.768,0.0002272,-287.6,-0.00076644,-7753.5,0.153
11201,4.6055,2.5455,0.05,1.4313e-05,143.03,1.0991e-05,82.579,-3.711e-11,-2.792e-05,-1.0991e-05,-82.578,0.14607
11202,4.6055,2.8182,0,0.00082671,8261.4,0.00028307,1.621,0.00025549,-205.57,-0.00082999,-8361.4,0.14656
11203,4.6979,2.7273,0,0.00077899,7784.5,0.00027114,1.5575,0.00023312,-284.07,-0.0007834,-7921.9,0.15331
11204,4.6055,2.7273,0.05,1.3739e-05,137.3,1.055e-05,79.269,-2.6236e-11,-4.2405e-05,-1.055e-05,-79.268,0.1464
11205,4.6055,3,0,0.00083058,8300,0.00028407,1.4886,0.00025723,-200.2,-0.00083377,-8397.6,0.14664
11206,4.6979,2.9091,0,0.00078699,7864.4,0.00027345,1.4436,0.00023632,-277.55,-0.00079131,-7998.8,0.15346
11207,4.6055,2.9091,0.05,1.3299e-05,132.9,1.0212e-05,76.728,-1.3398e-11,-1.614e-05,-1.0212e-05,-76.728,0.14657
11208,4.6055,3.1818,0,0.00082671,8261.4,0.00028307,1.621,0.00025549,-205.57,-0.00082999,-8361.4,0.14656
11209,4.6979,3.0909,0,0.00078699,7864.4,0.00027345,1.4436,0.00023632,-277.55,-0.00079131,-7998.8,0.15346
11210,4.6055,3.0909,0.05,1.3299e-05,132.9,1.0212e-05,76.728,1.3398e-11,2.3769e-05,-1.0212e-05,-76.728,0.14657
11211,4.6055,3.3636,0,0.00081425,8136.8,0.00027952,1.8842,0.00025043,-216.69,-0.00081768,-8242,0.14631
11212,4.6979,3.2727,0,0.00077899,7784.5,0.00027114,1.5575,0.00023312,-284.07,-0.0007834,-7921.9,0.15331
11213,4.6055,3.2727,0.05,1.3739e-05,137.3,1.055e-05,79.268,2.2613e-11,5.0028e-05,-1.055e-05,-79.269,0.1464
11214,4.6055,3.5455,0,0.00079126,7907.2,0.00027183,1.8434,0.00024301,-214.75,-0.00079466,-8011.4,0.1459
11215,4.6979,3.4545,0,0.00076199,7614.7,0.00026572,1.768,0.0002272,-287.6,-0.00076644,-7753.5,0.153
11216,4.6055,3.4545,0.05,1.4313e-05,143.03,1.0991e-05,82.578,3.1421e-11,3.4577e-05,-1.0991e-05,-82.579,0.14607
11217,4.6055,3.7273,0,0.00075702,7564.9,0.00025835,5.0875,0.00023576,-164.66,-0.00075959,-7643.3,0.14533
11218,4.6979,3.6364,0,0.00073501,7345.1,0.00025572,1.838,0.00022019,-265.1,-0.00073913,-7473.1,0.15256
11219,4.6055,3.6364,0.05,1.4398e-05,143.88,1.1056e-05,83.068,2.9118e-11,-3.8915e-05,-1.1056e-05,-83.069,0.14558
11220,4.6055,3.9091,0,0.00071309,7126,0.0002396,22.87,0.00023017,-47.985,-0.00071349,-7138.3,0.14464
11221,4.6979,3.8182,0,0.00069907,6985.8,0.00024026,5.6538,0.0002149,-184.88,-0.00070192,-7073.5,0.15198
11222,4.6055,3.8182,0.05,1.354e-05,135.31,1.0397e-05,78.12,1.56e-11,-0.00017956,-1.0397e-05,-78.121,0.14495
11223,4.6055,4.0909,0,0.00066244,6619.8,0.00023411,181.87,0.0002089,-7.5222,-0.00065927,-6530.6,0.14381
11224,4.6979,4,0,0.00065664,6561.9,0.00022133,25.729,0.0002112,-50.391,-0.00065703,-6573.9,0.15128
11225,4.6055,4,0.05,1.1845e-05,118.37,9.0956e-06,68.341,-2.2977e-11,-0.00053029,-9.0956e-06,-68.341,0.14418
11226,4.6055,4.2727,0,0.00060752,6071,0.0002325,383.94,0.00018074,-4.9121,-0.00060013,-5872.1,0.14287
11227,4.6979,4.1818,0,0.00061012,6097,0.00021647,176.22,0.00019174,-9.6026,-0.00060707,-6011.6,0.15046
11228,4.6055,4.1818,0.05,9.7786e-06,97.719,7.5088e-06,56.418,-6.9899e-11,-0.00076017,-7.5087e-06,-56.418,0.1433
11229,4.6055,4.4545,0,0.00054952,5491.4,0.00022434,519.77,0.00015466,-3.8234,-0.00053886,-5214.7,0.14182
11230,4.6979,4.3636,0,0.00056059,5602,0.00021318,337.48,0.0001676,-4.9602,-0.00055414,-5427.9,0.14953
11231,4.6055,4.3636,0.05,8.4297e-06,84.239,6.473e-06,48.635,-9.9575e-11,-0.0010086,-6.4729e-06,-48.635,0.1423
11232,4.6055,4.6364,0,0.00049068,4903.5,0.00020818,561.03,0.00013301,-3.8014,-0.00047876,-4600.4,0.14066
11233,4.6979,4.5455,0,0.00050892,5085.7,0.0002034,427.28,0.00014597,-4.2104,-0.00050035,-4860.4,0.14849
11234,4.6055,4.5455,0.05,7.999e-06,79.935,6.1423e-06,46.151,-7.6336e-11,-0.0007489,-6.1422e-06,-46.151,0.14119
11235,4.6055,4.8182,0,0.00043442,4341.2,0.00018674,526.97,0.0001162,-2.9962,-0.00042307,-4054.9,0.13942
11236,4.6979,4.7273,0,0.00045793,4576.2,0.00018779,443.46,0.00012834,-3.2314,-0.0004488,-4339.7,0.14736
11237,4.6055,4.7273,0.05,8.0798e-06,80.742,6.2043e-06,46.617,-5.1805e-11,-0.00051136,-6.2043e-06,-46.617,0.13999
11238,4.6055,5,0,0.00038325,3829.8,0.00016343,448.73,0.00010337,-2.5201,-0.00037366,-3586.7,0.1381
11239,4.6979,4.9091,0,0.0004102,4099.2,0.00016904,407.49,0.00011445,-2.6273,-0.00040177,-3881.3,0.14614
11240,4.6055,4.9091,0.05,8.161e-06,81.553,6.2666e-06,47.085,-3.1152e-11,-0.00032755,-6.2666e-06,-47.085,0.13871
11241,4.6055,5.1818,0,0.0003388,3385.6,0.00014095,353.07,9.366e-05,-2.287,-0.00033143,-3196.2,0.13672
11242,4.6979,5.0909,0,0.00036764,3673.8,0.00014971,343.25,0.00010372,-2.2773,-0.00036061,-3491.1,0.14484
11243,4.6055,5.0909,0.05,8.1001e-06,80.945,6.2199e-06,46.734,-2.0709e-11,-0.00020801,-6.2199e-06,-46.734,0.13735
11244,4.6055,5.3636,0,0.00030207,3018.6,0.0001212,259.59,8.6366e-05,-2.1293,-0.00029684,-2881.4,0.13527
11245,4.6979,5.2727,0,0.00033146,3312.3,0.00013176,269.98,9.5562e-05,-2.0052,-0.00032606,-3169.9,0.14347
11246,4.6055,5.2727,0.05,7.9895e-06,79.84,6.1349e-06,46.095,-1.4098e-11,-0.00014141,-6.1349e-06,-46.095,0.13594
11247,4.6055,5.5455,0,0.00027383,2736.4,0.00010549,181.68,8.105e-05,-1.9429,-0.00027031,-2641.9,0.13378
11248,4.6979,5.4545,0,0.00030245,3022.4,0.00011655,201.35,8.9522e-05,-1.7197,-0.00029854,-2917.5,0.14204
11249,4.6055,5.4545,0.05,7.9012e-06,78.957,6.0671e-06,45.586,-6.0125e-12,-7.9049e-05,-6.0671e-06,-45.586,0.13447
11250,4.6055,5.7273,0,0.00025504,2548.6,9.4984e-05,129.65,7.7535e-05,-1.4473,-0.0002526,-2482,0.13223
11251,4.6979,5.6364,0,0.00028108,2808.8,0.00010486,145.22,8.5353e-05,-1.3698,-0.00027834,-2734,0.14055
11252,4.6055,5.6364,0.05,7.9576e-06,79.521,6.1104e-06,45.911,-4.0711e-12,-3.4793e-05,-6.1104e-06,-45.911,0.13295
11253,4.6979,5.8182,0,0.0002681,2679.2,9.7462e-05,107.95,8.3032e-05,-0.47635,-0.00026611,-2623.8,0.13901
11254,4.6055,5.8182,0.05,9.5894e-06,95.828,7.3635e-06,55.326,-3.253e-13,-6.4026e-06,-7.3635e-06,-55.326,0.13137
11255,4.6055,5.9091,0,0.00023889,2387.3,8.3677e-05,58.22,7.5943e-05,0.11083,-0.00023785,-2357.6,0.13063
11256,4.7902,0.27273,0,0.00029447,2942.7,0.00010766,125.89,9.0823e-05,-0.60108,-0.00029214,-2878,0.14739
11257,4.8826,0.18182,0,0.00030491,3047,0.00010904,101.36,9.5565e-05,0.086683,-0.00030306,-2995,0.15428
11258,4.7902,0.18182,0.05,8.3701e-06,83.643,6.4272e-06,48.292,1.1241e-13,7.7486e-06,-6.4272e-06,-48.292,0.14656
11259,4.7902,0.090909,0,0.00028035,2801.6,9.7287e-05,57.313,8.9666e-05,0.05537,-0.00027933,-2772.4,0.14584
11260,4.7902,0.45455,0,0.00031039,3101.8,0.00011654,169.49,9.3815e-05,-1.2305,-0.00030718,-3014.1,0.14888
11261,4.8826,0.36364,0,0.00031659,3163.7,0.00011617,140.41,9.7372e-05,-0.82532,-0.00031398,-3091.5,0.15578
11262,4.7902,0.36364,0.05,6.753e-06,67.483,5.1854e-06,38.961,1.8776e-12,4.0203e-05,-5.1854e-06,-38.961,0.14808
11263,4.7902,0.63636,0,0.00033316,3329.3,0.00012824,220.21,9.8717e-05,-1.6052,-0.00032889,-3214.4,0.15031
11264,4.8826,0.54545,0,0.00033426,3340.3,0.00012543,181.78,0.00010108,-1.1528,-0.00033081,-3246.2,0.15721
11265,4.7902,0.54545,0.05,6.6131e-06,66.085,5.078e-06,38.154,8.2097e-12,8.6894e-05,-5.078e-06,-38.154,0.14954
11266,4.7902,0.81818,0,0.00036225,3620,0.00014214,272.35,0.00010563,-1.9818,-0.00035687,-3477,0.15166
11267,4.8826,0.72727,0,0.00035748,3572.3,0.00013643,222.09,0.00010666,-1.5896,-0.0003532,-3456.8,0.15857
11268,4.7902,0.72727,0.05,6.547e-06,65.425,5.0273e-06,37.773,1.3877e-11,0.00015172,-5.0273e-06,-37.773,0.15094
11269,4.7902,1,0,0.00039703,3967.5,0.0001573,316.92,0.0001148,-2.3825,-0.00039071,-3800.6,0.15295
11270,4.8826,0.90909,0,0.00038595,3856.8,0.00014871,256.88,0.00011426,-1.9959,-0.00038096,-3722.8,0.15985
11271,4.7902,0.90909,0.05,6.4389e-06,64.344,4.9443e-06,37.149,2.1648e-11,0.00024075,-4.9443e-06,-37.149,0.15226
11272,4.7902,1.1818,0,0.00043639,4360.9,0.00017223,340.06,0.00012659,-2.891,-0.00042964,-4182.2,0.15416
11273,4.8826,1.0909,0,0.00041891,4186.2,0.00016127,276.93,0.00012408,-2.4943,-0.00041354,-4042,0.16106
11274,4.7902,1.0909,0.05,6.2589e-06,62.546,4.8061e-06,36.111,3.2872e-11,0.00039509,-4.8061e-06,-36.111,0.15351
11275,4.7902,1.3636,0,0.00047874,4784.1,0.00018504,325,0.0001413,-3.7031,-0.00047242,-4615,0.15528
11276,4.8826,1.2727,0,0.00045517,4548.6,0.0001727,269.76,0.00013637,-3.2095,-0.00045002,-4409.1,0.16217
11277,4.7902,1.2727,0.05,6.0515e-06,60.473,4.6468e-06,34.914,6.029e-11,0.00060078,-4.6468e-06,-34.914,0.15467
11278,4.7902,1.5455,0,0.00052208,5217.2,0.00019391,257.54,0.00015891,-5.4114,-0.00051729,-5086.2,0.15631
11279,4.8826,1.4545,0,0.00049314,4928,0.00018144,222.7,0.00015119,-4.5863,-0.00048904,-4815,0.1632
11280,4.7902,1.4545,0.05,6.0082e-06,60.04,4.6135e-06,34.664,7.8451e-11,0.0007922,-4.6136e-06,-34.664,0.15575
11281,4.7902,1.7273,0,0.0005646,5642.1,0.00019835,138.75,0.00017858,-9.7909,-0.00056226,-5576.2,0.15723
11282,4.8826,1.6364,0,0.00053105,5306.8,0.00018653,130.52,0.00016802,-8.5491,-0.00052884,-5244.5,0.16412
11283,4.7902,1.6364,0.05,6.4976e-06,64.931,4.9893e-06,37.488,8.1169e-11,0.0008016,-4.9893e-06,-37.488,0.15673
11284,4.7902,1.9091,0,0.00060514,6047.2,0.00020401,22.501,0.00019444,-49.394,-0.00060557,-6060.3,0.15805
11285,4.8826,1.8182,0,0.00056763,5672.4,0.00019149,26.796,0.00018271,-39.138,-0.00056781,-5678.3,0.16495
11286,4.7902,1.8182,0.05,7.6187e-06,76.134,5.8502e-06,43.956,5.2717e-11,0.00067188,-5.8502e-06,-43.956,0.1576
11287,4.7902,2.0909,0,0.00064299,6425.4,0.00022136,3.8043,0.00019689,-180.07,-0.00064579,-6511.6,0.15876
11288,4.8826,2,0,0.00060217,6017.6,0.00020715,5.047,0.00018479,-162.95,-0.00060468,-6094.8,0.16566
11289,4.7902,2,0.05,8.9145e-06,89.084,6.8452e-06,51.433,2.2815e-11,0.00042373,-6.8452e-06,-51.432,0.15837
11290,4.7902,2.2727,0,0.00067703,6765.6,0.00023754,1.7548,0.00019935,-285.19,-0.00068139,-6902.7,0.15935
11291,4.8826,2.1818,0,0.00063415,6337.1,0.00022323,2.0291,0.00018549,-281.51,-0.00063842,-6472.1,0.16627
11292,4.7902,2.1818,0.05,1.0064e-05,100.57,7.7281e-06,58.066,-1.0579e-12,0.00022955,-7.7281e-06,-58.066,0.15902
11293,4.7902,2.4545,0,0.0007053,7048.1,0.00024958,1.6415,0.00020394,-341.28,-0.00071045,-7211.7,0.15983
11294,4.8826,2.3636,0,0.00066224,6617.8,0.00023618,1.5629,0.00018828,-358.33,-0.00066758,-6788.9,0.16677
11295,4.7902,2.3636,0.05,1.093e-05,109.22,8.3927e-06,63.06,-1.7224e-11,9.099e-05,-8.3927e-06,-63.059,0.15955
11296,4.7902,2.6364,0,0.00072602,7255.2,0.00025734,1.4727,0.00020917,-360.42,-0.00073145,-7427.9,0.16017
11297,4.8826,2.5455,0,0.00068459,6841.2,0.0002453,1.3353,0.00019257,-394.84,-0.00069043,-7029.4,0.16715
11298,4.7902,2.5455,0.05,1.1409e-05,114.01,8.7606e-06,65.824,-2.1809e-11,8.8342e-06,-8.7605e-06,-65.823,0.15996
11299,4.7902,2.8182,0,0.00073843,7379.2,0.00026153,1.4008,0.00021311,-362.37,-0.00074389,-7552.9,0.16038
11300,4.8826,2.7273,0,0.00069986,6993.7,0.00025089,1.2624,0.00019664,-406.37,-0.00070586,-7187.4,0.16741
11301,4.7902,2.7273,0.05,1.1535e-05,115.28,8.8578e-06,66.555,-1.6877e-11,-1.8348e-05,-8.8578e-06,-66.554,0.16024
11302,4.7902,3,0,0.00074253,7420.1,0.00026283,1.3974,0.00021454,-361.42,-0.00074798,-7593.5,0.16045
11303,4.8826,2.9091,0,0.00070751,7070.2,0.0002535,1.2612,0.00019902,-408.08,-0.00071354,-7264.7,0.16754
11304,4.7902,2.9091,0.05,1.1525e-05,115.17,8.85e-06,66.496,-6.1497e-12,-2.3604e-06,-8.85e-06,-66.496,0.16038
11305,4.7902,3.1818,0,0.00073843,7379.2,0.00026153,1.4008,0.00021311,-362.37,-0.00074389,-7552.9,0.16038
11306,4.8826,3.0909,0,0.00070751,7070.2,0.0002535,1.2612,0.00019902,-408.08,-0.00071354,-7264.7,0.16754
11307,4.7902,3.0909,0.05,1.1525e-05,115.17,8.85e-06,66.496,2.507e-12,1.3745e-05,-8.85e-06,-66.496,0.16038
11308,4.7902,3.3636,0,0.00072602,7255.2,0.00025734,1.4727,0.00020917,-360.42,-0.00073145,-7427.9,0.16017
11309,4.8826,3.2727,0,0.00069986,6993.7,0.00025089,1.2624,0.00019664,-406.37,-0.00070586,-7187.4,0.16741
11310,4.7902,3.2727,0.05,1.1535e-05,115.28,8.8578e-06,66.554,1.8685e-11,1.7534e-05,-8.8578e-06,-66.554,0.16024
11311,4.7902,3.5455,0,0.0007053,7048.1,0.00024958,1.6415,0.00020394,-341.28,-0.00071045,-7211.7,0.15983
11312,4.8826,3.4545,0,0.00068459,6841.2,0.0002453,1.3353,0.00019257,-394.84,-0.00069043,-7029.4,0.16715
11313,4.7902,3.4545,0.05,1.1409e-05,114.01,8.7605e-06,65.823,1.9947e-11,-7.6756e-06,-8.7606e-06,-65.824,0.15996
11314,4.7902,3.7273,0,0.00067703,6765.6,0.00023754,1.7548,0.00019935,-285.19,-0.00068139,-6902.7,0.15935
11315,4.8826,3.6364,0,0.00066224,6617.8,0.00023618,1.5629,0.00018828,-358.33,-0.00066758,-6788.9,0.16677
11316,4.7902,3.6364,0.05,1.093e-05,109.22,8.3927e-06,63.059,1.3227e-11,-8.869e-05,-8.3927e-06,-63.06,0.15955
11317,4.7902,3.9091,0,0.00064299,6425.4,0.00022136,3.8044,0.00019689,-180.07,-0.00064579,-6511.6,0.15876
11318,4.8826,3.8182,0,0.00063415,6337.1,0.00022323,2.0291,0.00018549,-281.51,-0.00063842,-6472.1,0.16627
11319,4.7902,3.8182,0.05,1.0064e-05,100.57,7.7281e-06,58.066,-1.1549e-12,-0.00023632,-7.7281e-06,-58.066,0.15902
11320,4.7902,4.0909,0,0.00060514,6047.2,0.00020401,22.501,0.00019444,-49.394,-0.00060557,-6060.4,0.15805
11321,4.8826,4,0,0.00060217,6017.6,0.00020715,5.047,0.00018479,-162.95,-0.00060468,-6094.8,0.16566
11322,4.7902,4,0.05,8.9145e-06,89.084,6.8452e-06,51.432,-1.8893e-11,-0.00045063,-6.8453e-06,-51.433,0.15837
11323,4.7902,4.2727,0,0.0005646,5642.1,0.00019835,138.75,0.00017858,-9.7909,-0.00056226,-5576.2,0.15723
11324,4.8826,4.1818,0,0.00056763,5672.4,0.00019149,26.796,0.00018271,-39.138,-0.00056781,-5678.3,0.16495
11325,4.7902,4.1818,0.05,7.6187e-06,76.134,5.8502e-06,43.956,-5.8884e-11,-0.0006384,-5.8502e-06,-43.956,0.1576
11326,4.7902,4.4545,0,0.00052208,5217.2,0.00019391,257.54,0.00015891,-5.4114,-0.00051729,-5086.2,0.15631
11327,4.8826,4.3636,0,0.00053105,5306.8,0.00018653,130.52,0.00016802,-8.5491,-0.00052884,-5244.5,0.16412
11328,4.7902,4.3636,0.05,6.4976e-06,64.931,4.9893e-06,37.488,-8.1046e-11,-0.0008016,-4.9893e-06,-37.488,0.15673
11329,4.7902,4.6364,0,0.00047874,4784.1,0.00018504,325,0.0001413,-3.7031,-0.00047242,-4615,0.15528
11330,4.8826,4.5455,0,0.00049314,4928,0.00018144,222.7,0.00015119,-4.5863,-0.00048904,-4815,0.1632
11331,4.7902,4.5455,0.05,6.0082e-06,60.04,4.6136e-06,34.664,-7.599e-11,-0.00072924,-4.6135e-06,-34.664,0.15575
11332,4.7902,4.8182,0,0.00043639,4360.9,0.00017223,340.06,0.00012659,-2.891,-0.00042964,-4182.2,0.15416
11333,4.8826,4.7273,0,0.00045517,4548.6,0.0001727,269.76,0.00013637,-3.2095,-0.00045002,-4409.1,0.16217
11334,4.7902,4.7273,0.05,6.0515e-06,60.473,4.6468e-06,34.914,-5.3868e-11,-0.00058255,-4.6468e-06,-34.914,0.15467
11335,4.7902,5,0,0.00039703,3967.5,0.0001573,316.92,0.0001148,-2.3825,-0.00039071,-3800.6,0.15295
11336,4.8826,4.9091,0,0.00041891,4186.2,0.00016127,276.93,0.00012408,-2.4943,-0.00041354,-4042,0.16106
11337,4.7902,4.9091,0.05,6.2589e-06,62.546,4.8061e-06,36.111,-3.724e-11,-0.00035544,-4.8061e-06,-36.111,0.15351
11338,4.7902,5.1818,0,0.00036225,3620,0.00014214,272.35,0.00010563,-1.9818,-0.00035687,-3477,0.15166
11339,4.8826,5.0909,0,0.00038595,3856.8,0.00014871,256.88,0.00011426,-1.9959,-0.00038096,-3722.8,0.15985
11340,4.7902,5.0909,0.05,6.4389e-06,64.344,4.9443e-06,37.149,-2.2772e-11,-0.0002421,-4.9443e-06,-37.149,0.15226
11341,4.7902,5.3636,0,0.00033316,3329.3,0.00012824,220.21,9.8717e-05,-1.6052,-0.00032889,-3214.4,0.15031
11342,4.8826,5.2727,0,0.00035748,3572.3,0.00013643,222.09,0.00010666,-1.5896,-0.0003532,-3456.8,0.15857
11343,4.7902,5.2727,0.05,6.547e-06,65.425,5.0273e-06,37.773,-1.1903e-11,-0.0001446,-5.0273e-06,-37.773,0.15094
11344,4.7902,5.5455,0,0.00031039,3101.8,0.00011654,169.49,9.3815e-05,-1.2305,-0.00030718,-3014.1,0.14888
11345,4.8826,5.4545,0,0.00033426,3340.3,0.00012543,181.78,0.00010108,-1.1528,-0.00033081,-3246.2,0.15721
11346,4.7902,5.4545,0.05,6.6131e-06,66.085,5.078e-06,38.154,-7.3391e-12,-8.4701e-05,-5.078e-06,-38.154,0.14954
11347,4.7902,5.7273,0,0.00029447,2942.7,0.00010766,125.89,9.0823e-05,-0.60108,-0.00029214,-2878,0.14739
11348,4.8826,5.6364,0,0.00031659,3163.7,0.00011617,140.41,9.7372e-05,-0.82532,-0.00031398,-3091.5,0.15578
11349,4.7902,5.6364,0.05,6.753e-06,67.483,5.1854e-06,38.961,-1.8776e-12,-3.8841e-05,-5.1854e-06,-38.961,0.14808
11350,4.8826,5.8182,0,0.00030491,3047,0.00010904,101.36,9.5565e-05,0.086681,-0.00030306,-2995,0.15428
11351,4.7902,5.8182,0.05,8.3701e-06,83.643,6.4272e-06,48.292,-1.4743e-13,-6.1779e-06,-6.4272e-06,-48.292,0.14656
11352,4.7902,5.9091,0,0.00028035,2801.6,9.7287e-05,57.313,8.9666e-05,0.055369,-0.00027933,-2772.4,0.14584
11353,4.9749,0.27273,0,0.00032726,3270.3,0.00011778,117.53,0.0001021,-0.22575,-0.0003251,-3210.1,0.16274
11354,5.0673,0.18182,0,0.00033519,3349.6,0.00011822,91.624,0.00010606,0.25817,-0.00033353,-3302.7,0.16975
11355,4.9749,0.18182,0.05,7.1254e-06,71.205,5.4714e-06,41.11,-1.1172e-13,3.7159e-06,-5.4714e-06,-41.11,0.16193
11356,4.9749,0.090909,0,0.00031499,3147.7,0.0001084,53.407,0.0001013,0.052942,-0.00031405,-3120.7,0.16122
11357,4.9749,0.45455,0,0.00034088,3406.4,0.00012543,155.47,0.00010463,-0.78872,-0.00033798,-3326.4,0.16418
11358,5.0673,0.36364,0,0.00034561,3453.7,0.00012492,130.53,0.00010748,-0.55791,-0.00034321,-3386.8,0.17121
11359,4.9749,0.36364,0.05,5.5786e-06,55.748,4.2837e-06,32.186,9.9259e-13,3.5647e-05,-4.2837e-06,-32.186,0.16341
11360,4.9749,0.63636,0,0.00035935,3591,0.00013427,188.56,0.00010902,-1.1532,-0.00035578,-3493.5,0.16555
11361,5.0673,0.54545,0,0.00036027,3600.2,0.00013236,161.85,0.00011071,-0.78346,-0.00035725,-3516.9,0.17259
11362,4.9749,0.54545,0.05,5.3849e-06,53.812,4.135e-06,31.069,5.6456e-12,8.7496e-05,-4.135e-06,-31.068,0.16482
11363,4.9749,0.81818,0,0.0003823,3820.3,0.00014394,213.69,0.00011529,-1.6021,-0.00037823,-3709.7,0.16683
11364,5.0673,0.72727,0,0.00037882,3785.6,0.00014031,183.68,0.0001157,-1.2372,-0.00037538,-3691,0.17389
11365,4.9749,0.72727,0.05,5.2408e-06,52.371,4.0242e-06,30.237,1.2753e-11,0.00016443,-4.0243e-06,-30.237,0.16614
11366,4.9749,1,0,0.00040922,4089.4,0.00015384,225.59,0.00012354,-2.1045,-0.00040494,-3972.9,0.16804
11367,5.0673,0.90909,0,0.00040104,4007.7,0.00014851,193.83,0.00012248,-1.7118,-0.00039742,-3908,0.17511
11368,4.9749,0.90909,0.05,5.0522e-06,50.487,3.8794e-06,29.149,2.765e-11,0.00027426,-3.8795e-06,-29.149,0.16739
11369,4.9749,1.1818,0,0.0004392,4389,0.00016299,216.02,0.00013387,-2.823,-0.00043517,-4278.3,0.16916
11370,5.0673,1.0909,0,0.00042631,4260.2,0.00015632,186.99,0.00013112,-2.3677,-0.00042286,-4164.7,0.17624
11371,4.9749,1.0909,0.05,4.8366e-06,48.332,3.7139e-06,27.905,4.0268e-11,0.00039813,-3.7139e-06,-27.905,0.16856
11372,4.9749,1.3636,0,0.00047101,4706.8,0.00017029,176.41,0.00014626,-4.1325,-0.00046782,-4618.1,0.17019
11373,5.0673,1.2727,0,0.00045368,4533.7,0.00016289,156.48,0.0001416,-3.5195,-0.00045087,-4455.1,0.17728
11374,4.9749,1.2727,0.05,4.6875e-06,46.842,3.5994e-06,27.044,5.8905e-11,0.00060291,-3.5994e-06,-27.045,0.16963
11375,4.9749,1.5455,0,0.0005033,5029.5,0.00017508,103.3,0.00016029,-7.8369,-0.00050158,-4980.8,0.17112
11376,5.0673,1.4545,0,0.000482,4816.7,0.00016754,97.942,0.00015363,-6.5545,-0.00048037,-4770.2,0.17822
11377,4.9749,1.4545,0.05,4.7918e-06,47.885,3.6795e-06,27.646,7.4087e-11,0.00065353,-3.6795e-06,-27.646,0.17062
11378,4.9749,1.7273,0,0.00053494,5345.7,0.00018024,22.84,0.00017235,-36.446,-0.00053515,-5352.3,0.17195
11379,5.0673,1.6364,0,0.00051018,5098.3,0.00017186,26.144,0.00016483,-26.683,-0.00051017,-5098.4,0.17906
11380,4.9749,1.6364,0.05,5.292e-06,52.883,4.0636e-06,30.532,6.9198e-11,0.00071145,-4.0636e-06,-30.532,0.1715
11381,4.9749,1.9091,0,0.00056524,5648.5,0.0001941,5.3943,0.00017412,-144.74,-0.00056746,-5716.7,0.17268
11382,5.0673,1.8182,0,0.00053742,5370.5,0.00018374,5.7683,0.000167,-119.95,-0.00053925,-5426.5,0.17981
11383,4.9749,1.8182,0.05,6.1115e-06,61.073,4.6929e-06,35.261,5.0528e-11,0.00054029,-4.6929e-06,-35.261,0.17228
11384,4.9749,2.0909,0,0.00059368,5932.7,0.00020894,2.6496,0.0001738,-261.39,-0.00059764,-6057.6,0.17331
11385,5.0673,2,0,0.00056327,5628.8,0.00019759,2.6999,0.00016603,-234.45,-0.00056684,-5740.9,0.18045
11386,4.9749,2,0.05,7.0319e-06,70.271,5.3996e-06,40.571,2.3896e-11,0.00038734,-5.3996e-06,-40.571,0.17296
11387,4.9749,2.2727,0,0.00061947,6190.4,0.00022183,1.6173,0.00017453,-353.81,-0.00062469,-6358.8,0.17383
11388,5.0673,2.1818,0,0.00058725,5868.5,0.0002103,1.6307,0.00016546,-335.27,-0.0005922,-6028.1,0.18099
11389,4.9749,2.1818,0.05,7.9021e-06,78.967,6.0679e-06,45.592,5.6565e-12,0.00020874,-6.0679e-06,-45.591,0.17353
11390,4.9749,2.4545,0,0.00064139,6409.5,0.00023189,1.1817,0.00017676,-413.03,-0.00064739,-6605.4,0.17424
11391,5.0673,2.3636,0,0.00060852,6081,0.0002208,1.1254,0.00016629,-408.42,-0.00061441,-6274.3,0.18143
11392,4.9749,2.3636,0.05,8.645e-06,86.39,6.6383e-06,49.878,-4.4163e-12,0.0001133,-6.6383e-06,-49.877,0.17399
11393,4.9749,2.6364,0,0.00065807,6576.1,0.00023885,1.1086,0.00017967,-443.54,-0.00066447,-6786.1,0.17453
11394,5.0673,2.5455,0,0.00062585,6254.2,0.00022862,0.98528,0.00016827,-452.42,-0.0006323,-6467.6,0.18176
11395,4.9749,2.5455,0.05,9.197e-06,91.906,7.0621e-06,53.062,-1.4008e-11,4.293e-05,-7.0621e-06,-53.062,0.17435
11396,4.9749,2.8182,0,0.00066844,6679.8,0.00024287,1.1213,0.00018205,-455.82,-0.000675,-6895.4,0.17471
11397,5.0673,2.7273,0,0.00063806,6376.2,0.00023369,0.98214,0.00017045,-474.23,-0.00064478,-6599.6,0.18198
11398,4.9749,2.7273,0.05,9.5281e-06,95.215,7.3164e-06,54.972,-8.8686e-12,7.2409e-06,-7.3164e-06,-54.972,0.17459
11399,4.9749,3,0,0.00067195,6714.8,0.00024417,1.1245,0.00018296,-458.8,-0.00067855,-6931.8,0.17477
11400,5.0673,2.9091,0,0.00064435,6439,0.00023617,0.98958,0.00017182,-482.48,-0.00065118,-6666.1,0.1821
11401,4.9749,2.9091,0.05,9.6716e-06,96.649,7.4266e-06,55.8,-2.5789e-12,-4.345e-06,-7.4266e-06,-55.8,0.17471
11402,4.9749,3.1818,0,0.00066844,6679.8,0.00024287,1.1213,0.00018205,-455.82,-0.000675,-6895.4,0.17471
11403,5.0673,3.0909,0,0.00064435,6439,0.00023617,0.98958,0.00017182,-482.48,-0.00065118,-6666.2,0.1821
11404,4.9749,3.0909,0.05,9.6716e-06,96.649,7.4266e-06,55.8,2.5649e-12,6.7924e-07,-7.4266e-06,-55.8,0.17471
11405,4.9749,3.3636,0,0.00065807,6576.2,0.00023885,1.1086,0.00017967,-443.54,-0.00066447,-6786.1,0.17453
11406,5.0673,3.2727,0,0.00063806,6376.2,0.00023369,0.98214,0.00017045,-474.23,-0.00064478,-6599.6,0.18198
11407,4.9749,3.2727,0.05,9.5281e-06,95.215,7.3164e-06,54.972,8.8591e-12,-4.4077e-06,-7.3164e-06,-54.972,0.17459
11408,4.9749,3.5455,0,0.00064139,6409.5,0.00023189,1.1817,0.00017676,-413.03,-0.00064739,-6605.4,0.17424
11409,5.0673,3.4545,0,0.00062585,6254.2,0.00022862,0.98528,0.00016827,-452.42,-0.0006323,-6467.6,0.18176
11410,4.9749,3.4545,0.05,9.197e-06,91.906,7.0621e-06,53.062,1.0542e-11,-3.2256e-05,-7.0621e-06,-53.062,0.17435
11411,4.9749,3.7273,0,0.00061947,6190.4,0.00022183,1.6173,0.00017453,-353.81,-0.00062469,-6358.8,0.17383
11412,5.0673,3.6364,0,0.00060852,6081,0.0002208,1.1254,0.00016629,-408.42,-0.00061441,-6274.3,0.18143
11413,4.9749,3.6364,0.05,8.645e-06,86.39,6.6383e-06,49.877,3.8054e-12,-0.00011052,-6.6383e-06,-49.878,0.17399
11414,4.9749,3.9091,0,0.00059368,5932.7,0.00020894,2.6496,0.0001738,-261.39,-0.00059764,-6057.6,0.17331
11415,5.0673,3.8182,0,0.00058725,5868.5,0.0002103,1.6307,0.00016546,-335.27,-0.0005922,-6028.1,0.18099
11416,4.9749,3.8182,0.05,7.9021e-06,78.967,6.0679e-06,45.591,-4.3961e-12,-0.00021294,-6.0679e-06,-45.592,0.17353
11417,4.9749,4.0909,0,0.00056524,5648.5,0.0001941,5.3943,0.00017412,-144.74,-0.00056746,-5716.7,0.17268
11418,5.0673,4,0,0.00056327,5628.8,0.00019759,2.6999,0.00016603,-234.45,-0.00056684,-5740.9,0.18045
11419,4.9749,4,0.05,7.0319e-06,70.271,5.3996e-06,40.571,-3.0363e-11,-0.00036273,-5.3996e-06,-40.571,0.17296
11420,4.9749,4.2727,0,0.00053494,5345.7,0.00018024,22.84,0.00017235,-36.446,-0.00053515,-5352.3,0.17195
11421,5.0673,4.1818,0,0.00053742,5370.5,0.00018374,5.7683,0.000167,-119.95,-0.00053925,-5426.5,0.17981
11422,4.9749,4.1818,0.05,6.1115e-06,61.073,4.6929e-06,35.261,-5.3087e-11,-0.00055752,-4.6929e-06,-35.261,0.17228
11423,4.9749,4.4545,0,0.0005033,5029.5,0.00017508,103.3,0.00016029,-7.8369,-0.00050158,-4980.8,0.17112
11424,5.0673,4.3636,0,0.00051018,5098.3,0.00017186,26.144,0.00016483,-26.683,-0.00051017,-5098.4,0.17906
11425,4.9749,4.3636,0.05,5.292e-06,52.883,4.0636e-06,30.532,-6.2289e-11,-0.00065509,-4.0636e-06,-30.532,0.1715
11426,4.9749,4.6364,0,0.00047101,4706.8,0.00017029,176.41,0.00014626,-4.1325,-0.00046782,-4618.1,0.17019
11427,5.0673,4.5455,0,0.000482,4816.7,0.00016754,97.942,0.00015363,-6.5545,-0.00048037,-4770.2,0.17822
11428,4.9749,4.5455,0.05,4.7918e-06,47.885,3.6795e-06,27.646,-7.1663e-11,-0.00065325,-3.6795e-06,-27.646,0.17062
11429,4.9749,4.8182,0,0.0004392,4389,0.00016299,216.02,0.00013387,-2.823,-0.00043517,-4278.3,0.16916
11430,5.0673,4.7273,0,0.00045368,4533.7,0.00016289,156.48,0.0001416,-3.5195,-0.00045087,-4455.1,0.17728
11431,4.9749,4.7273,0.05,4.6875e-06,46.842,3.5994e-06,27.045,-5.9491e-11,-0.00058703,-3.5994e-06,-27.044,0.16963
11432,4.9749,5,0,0.00040922,4089.4,0.00015384,225.59,0.00012354,-2.1045,-0.00040494,-3972.9,0.16804
11433,5.0673,4.9091,0,0.00042631,4260.2,0.00015632,186.99,0.00013112,-2.3677,-0.00042286,-4164.7,0.17624
11434,4.9749,4.9091,0.05,4.8366e-06,48.332,3.7139e-06,27.905,-3.8789e-11,-0.00041535,-3.7139e-06,-27.905,0.16856
11435,4.9749,5.1818,0,0.0003823,3820.3,0.00014394,213.69,0.00011529,-1.6021,-0.00037823,-3709.7,0.16683
11436,5.0673,5.0909,0,0.00040104,4007.7,0.00014851,193.83,0.00012248,-1.7118,-0.00039742,-3908,0.17511
11437,4.9749,5.0909,0.05,5.0522e-06,50.487,3.8795e-06,29.149,-2.4879e-11,-0.00024551,-3.8794e-06,-29.149,0.16739
11438,4.9749,5.3636,0,0.00035935,3591,0.00013427,188.56,0.00010902,-1.1532,-0.00035578,-3493.5,0.16555
11439,5.0673,5.2727,0,0.00037882,3785.6,0.00014031,183.68,0.0001157,-1.2372,-0.00037538,-3691,0.17389
11440,4.9749,5.2727,0.05,5.2408e-06,52.371,4.0243e-06,30.237,-1.2132e-11,-0.00015621,-4.0243e-06,-30.237,0.16614
11441,4.9749,5.5455,0,0.00034088,3406.4,0.00012543,155.47,0.00010463,-0.78872,-0.00033798,-3326.4,0.16418
11442,5.0673,5.4545,0,0.00036027,3600.2,0.00013236,161.85,0.00011071,-0.78346,-0.00035725,-3516.9,0.17259
11443,4.9749,5.4545,0.05,5.3849e-06,53.812,4.135e-06,31.068,-6.1186e-12,-8.1033e-05,-4.135e-06,-31.069,0.16482
11444,4.9749,5.7273,0,0.00032726,3270.3,0.00011778,117.53,0.0001021,-0.22575,-0.0003251,-3210.1,0.16274
11445,5.0673,5.6364,0,0.00034561,3453.7,0.00012492,130.53,0.00010748,-0.55792,-0.00034321,-3386.8,0.17121
11446,4.9749,5.6364,0.05,5.5786e-06,55.748,4.2837e-06,32.186,-6.8154e-13,-3.2718e-05,-4.2837e-06,-32.186,0.16341
11447,5.0673,5.8182,0,0.00033519,3349.6,0.00011822,91.624,0.00010606,0.25816,-0.00033353,-3302.7,0.16975
11448,4.9749,5.8182,0.05,7.1254e-06,71.205,5.4714e-06,41.11,1.1172e-13,-2.474e-06,-5.4714e-06,-41.11,0.16193
11449,4.9749,5.9091,0,0.00031499,3147.7,0.0001084,53.407,0.0001013,0.052941,-0.00031405,-3120.7,0.16122
11450,5.1596,0.27273,0,0.0003537,3534.6,0.00012553,105.76,0.00011143,-0.10582,-0.00035179,-3480.6,0.1783
11451,5.252,0.18182,0,0.00035947,3592.2,0.0001253,80.267,0.00011465,0.25459,-0.00035803,-3551.3,0.18545
11452,5.1596,0.18182,0.05,5.9316e-06,59.275,4.5547e-06,34.222,-3.1225e-12,-1.4898e-06,-4.5547e-06,-34.222,0.17752
11453,5.1596,0.090909,0,0.00034321,3429.8,0.00011724,47.782,0.00011089,0.019727,-0.00034238,-3405.6,0.17682
11454,5.1596,0.45455,0,0.00036526,3650.1,0.00013208,138.65,0.00011356,-0.56074,-0.00036272,-3579.1,0.1797
11455,5.252,0.36364,0,0.00036857,3683.1,0.00013137,116.88,0.00011576,-0.42595,-0.00036645,-3623.5,0.18687
11456,5.1596,0.36364,0.05,4.4953e-06,44.922,3.4519e-06,25.936,-1.2947e-12,2.8796e-05,-3.4519e-06,-25.936,0.17896
11457,5.1596,0.63636,0,0.0003802,3799.4,0.00013878,159.88,0.00011739,-0.86739,-0.00037724,-3717.3,0.18102
11458,5.252,0.54545,0,0.00038064,3803.8,0.00013733,140.63,0.00011853,-0.56203,-0.00037806,-3731.8,0.18821
11459,5.1596,0.54545,0.05,4.2822e-06,42.793,3.2882e-06,24.707,7.8265e-12,8.3753e-05,-3.2882e-06,-24.706,0.18032
11460,5.1596,0.81818,0,0.00039822,3979.4,0.00014542,167.91,0.00012289,-1.3337,-0.00039511,-3893.5,0.18225
11461,5.252,0.72727,0,0.00039539,3951.2,0.00014302,150.42,0.00012287,-0.98799,-0.00039263,-3874.3,0.18946
11462,5.1596,0.72727,0.05,4.1185e-06,41.156,3.1625e-06,23.762,1.579e-11,0.00016277,-3.1625e-06,-23.762,0.18159
11463,5.1596,1,0,0.00041893,4186.4,0.00015165,160.21,0.00013007,-1.9451,-0.000416,-4104.9,0.18339
11464,5.252,0.90909,0,0.00041262,4123.4,0.00014834,145.54,0.00012876,-1.5089,-0.00040997,-4049.4,0.19062
11465,5.1596,0.90909,0.05,3.9352e-06,39.325,3.0217e-06,22.704,2.7249e-11,0.00028784,-3.0217e-06,-22.704,0.18278
11466,5.1596,1.1818,0,0.00044164,4413.3,0.00015693,132.78,0.00013886,-3.0047,-0.00043927,-4346.9,0.18445
11467,5.252,1.0909,0,0.00043186,4315.6,0.00015291,123.57,0.00013615,-2.3819,-0.00042966,-4253.7,0.1917
11468,5.1596,1.0909,0.05,3.7745e-06,37.719,2.8983e-06,21.777,4.4667e-11,0.00045114,-2.8984e-06,-21.777,0.18388
11469,5.1596,1.3636,0,0.00046548,4651.6,0.00016081,83.001,0.000149,-5.7582,-0.0004641,-4612.3,0.1854
11470,5.252,1.2727,0,0.00045243,4521.2,0.00015637,82.234,0.00014484,-4.456,-0.00045104,-4481.7,0.19267
11471,5.1596,1.2727,0.05,3.7337e-06,37.311,2.867e-06,21.542,5.6919e-11,0.00058192,-2.8671e-06,-21.542,0.18489
11472,5.1596,1.5455,0,0.00048957,4892.3,0.00016463,23.078,0.00015847,-23.21,-0.00048956,-4892.2,0.18627
11473,5.252,1.4545,0,0.00047355,4732.2,0.00015935,27.648,0.0001536,-15.503,-0.00047333,-4726,0.19356
11474,5.1596,1.4545,0.05,3.9273e-06,39.246,3.0156e-06,22.658,6.7705e-11,0.00065219,-3.0157e-06,-22.658,0.1858
11475,5.1596,1.7273,0,0.00051318,5128.3,0.00017487,5.3862,0.00016046,-102.9,-0.00051476,-5176.2,0.18703
11476,5.252,1.6364,0,0.00049452,4941.8,0.0001676,5.8804,0.00015624,-79.504,-0.00049571,-4978,0.19434
11477,5.1596,1.6364,0.05,4.3908e-06,43.878,3.3716e-06,25.333,5.5545e-11,0.00060035,-3.3716e-06,-25.333,0.18661
11478,5.1596,1.9091,0,0.00053583,5354.6,0.00018716,2.5292,0.00015935,-206.44,-0.00053899,-5453.5,0.18769
11479,5.252,1.8182,0,0.00051481,5144.5,0.0001787,2.6862,0.00015506,-174.89,-0.00051751,-5228.3,0.19503
11480,5.1596,1.8182,0.05,5.034e-06,50.305,3.8655e-06,29.044,4.1676e-11,0.00039328,-3.8655e-06,-29.044,0.18732
11481,5.1596,2.0909,0,0.00055709,5567.1,0.00019893,1.4847,0.00015795,-306.39,-0.00056164,-5713.1,0.18826
11482,5.252,2,0,0.00053407,5337,0.00018975,1.579,0.00015313,-273.54,-0.00053816,-5467.7,0.19562
11483,5.1596,2,0.05,5.7312e-06,57.272,4.4008e-06,33.066,2.2481e-11,0.00031281,-4.4008e-06,-33.066,0.18794
11484,5.1596,2.2727,0,0.00057642,5760.2,0.00020925,1.043,0.00015733,-389.05,-0.00058202,-5944.3,0.18872
11485,5.252,2.1818,0,0.00055192,5515.4,0.00019984,1.0568,0.00015157,-361.58,-0.00055716,-5686.7,0.19611
11486,5.1596,2.1818,0.05,6.4029e-06,63.985,4.9167e-06,36.942,7.4743e-12,0.00020973,-4.9166e-06,-36.942,0.18845
11487,5.1596,2.4545,0,0.00059295,5925.4,0.00021752,0.88379,0.00015776,-448.12,-0.00059928,-6136.2,0.18909
11488,5.252,2.3636,0,0.00056776,5673.7,0.00020833,0.82946,0.00015097,-430.18,-0.00057384,-5876.1,0.1965
11489,5.1596,2.3636,0.05,7.0063e-06,70.015,5.38e-06,40.423,-5.7079e-13,0.00011122,-5.38e-06,-40.423,0.18887
11490,5.1596,2.6364,0,0.00060567,6052.5,0.00022346,0.84021,0.00015887,-484.45,-0.00061244,-6279.7,0.18935
11491,5.252,2.5455,0,0.00058075,5803.5,0.00021484,0.74559,0.00015128,-476.85,-0.00058737,-6026.8,0.1968
11492,5.1596,2.5455,0.05,7.4968e-06,74.916,5.7566e-06,43.253,-4.7826e-12,6.8469e-05,-5.7566e-06,-43.253,0.18918
11493,5.1596,2.8182,0,0.0006137,6132.7,0.00022699,0.843,0.00015994,-502.95,-0.00062068,-6368.3,0.18951
11494,5.252,2.7273,0,0.00058999,5895.9,0.00021919,0.73099,0.000152,-504.13,-0.00059693,-6131.3,0.197
11495,5.1596,2.7273,0.05,7.8355e-06,78.301,6.0167e-06,45.207,-6.2024e-12,2.1581e-05,-6.0167e-06,-45.207,0.18939
11496,5.1596,3,0,0.00061644,6160.1,0.00022816,0.8499,0.00016037,-508.47,-0.00062349,-6398.1,0.18956
11497,5.252,2.9091,0,0.0005948,5943.9,0.00022136,0.73821,0.00015255,-516.29,-0.00060188,-6184.8,0.1971
11498,5.1596,2.9091,0.05,8.0049e-06,79.994,6.1468e-06,46.185,-5.6948e-12,1.4731e-05,-6.1468e-06,-46.185,0.1895
11499,5.1596,3.1818,0,0.0006137,6132.7,0.00022699,0.843,0.00015994,-502.95,-0.00062068,-6368.3,0.18951
11500,5.252,3.0909,0,0.0005948,5943.9,0.00022136,0.73821,0.00015255,-516.29,-0.00060188,-6184.8,0.1971
11501,5.1596,3.0909,0.05,8.0049e-06,79.994,6.1468e-06,46.185,3.8828e-12,-7.0024e-06,-6.1468e-06,-46.185,0.1895
11502,5.1596,3.3636,0,0.00060567,6052.5,0.00022346,0.84021,0.00015887,-484.45,-0.00061244,-6279.7,0.18935
11503,5.252,3.2727,0,0.00058999,5895.9,0.00021919,0.73099,0.000152,-504.13,-0.00059693,-6131.3,0.197
11504,5.1596,3.2727,0.05,7.8355e-06,78.301,6.0167e-06,45.207,6.2024e-12,-2.9482e-05,-6.0167e-06,-45.207,0.18939
11505,5.1596,3.5455,0,0.00059295,5925.4,0.00021752,0.88379,0.00015776,-448.12,-0.00059928,-6136.2,0.18909
11506,5.252,3.4545,0,0.00058075,5803.5,0.00021484,0.74559,0.00015128,-476.85,-0.00058737,-6026.8,0.1968
11507,5.1596,3.4545,0.05,7.4968e-06,74.916,5.7566e-06,43.253,4.7937e-12,-6.2779e-05,-5.7566e-06,-43.253,0.18918
11508,5.1596,3.7273,0,0.00057642,5760.2,0.00020925,1.043,0.00015733,-389.05,-0.00058202,-5944.3,0.18872
11509,5.252,3.6364,0,0.00056777,5673.7,0.00020833,0.82946,0.00015097,-430.18,-0.00057384,-5876.1,0.1965
11510,5.1596,3.6364,0.05,7.0063e-06,70.015,5.38e-06,40.423,5.708e-13,-0.00011719,-5.38e-06,-40.423,0.18887
11511,5.1596,3.9091,0,0.00055709,5567.1,0.00019893,1.4847,0.00015796,-306.38,-0.00056164,-5713.1,0.18826
11512,5.252,3.8182,0,0.00055192,5515.4,0.00019984,1.0568,0.00015157,-361.58,-0.00055716,-5686.8,0.19611
11513,5.1596,3.8182,0.05,6.4029e-06,63.985,4.9166e-06,36.942,-7.7969e-12,-0.00018021,-4.9167e-06,-36.942,0.18845
11514,5.1596,4.0909,0,0.00053583,5354.6,0.00018716,2.5292,0.00015935,-206.44,-0.00053899,-5453.5,0.18769
11515,5.252,4,0,0.00053407,5337,0.00018975,1.579,0.00015313,-273.54,-0.00053816,-5467.7,0.19562
11516,5.1596,4,0.05,5.7312e-06,57.272,4.4008e-06,33.066,-2.7104e-11,-0.00030268,-4.4008e-06,-33.066,0.18794
11517,5.1596,4.2727,0,0.00051318,5128.3,0.00017487,5.3862,0.00016046,-102.9,-0.00051476,-5176.2,0.18703
11518,5.252,4.1818,0,0.00051481,5144.5,0.0001787,2.6862,0.00015506,-174.89,-0.00051751,-5228.3,0.19503
11519,5.1596,4.1818,0.05,5.034e-06,50.305,3.8655e-06,29.044,-4.1676e-11,-0.00039988,-3.8655e-06,-29.044,0.18732
11520,5.1596,4.4545,0,0.00048957,4892.3,0.00016463,23.079,0.00015847,-23.21,-0.00048956,-4892.2,0.18627
11521,5.252,4.3636,0,0.00049452,4941.8,0.0001676,5.8804,0.00015624,-79.504,-0.00049571,-4978,0.19434
11522,5.1596,4.3636,0.05,4.3908e-06,43.878,3.3716e-06,25.333,-4.9043e-11,-0.00060688,-3.3716e-06,-25.333,0.18661
11523,5.1596,4.6364,0,0.00046548,4651.6,0.00016081,83.001,0.000149,-5.7582,-0.0004641,-4612.3,0.1854
11524,5.252,4.5455,0,0.00047355,4732.2,0.00015935,27.649,0.0001536,-15.503,-0.00047333,-4726,0.19356
11525,5.1596,4.5455,0.05,3.9273e-06,39.246,3.0157e-06,22.658,-6.3767e-11,-0.00064897,-3.0156e-06,-22.658,0.1858
11526,5.1596,4.8182,0,0.00044164,4413.3,0.00015693,132.78,0.00013886,-3.0047,-0.00043927,-4346.9,0.18445
11527,5.252,4.7273,0,0.00045243,4521.2,0.00015637,82.234,0.00014484,-4.456,-0.00045104,-4481.7,0.19267
11528,5.1596,4.7273,0.05,3.7337e-06,37.311,2.8671e-06,21.542,-6.5797e-11,-0.00058126,-2.867e-06,-21.542,0.18489
11529,5.1596,5,0,0.00041893,4186.4,0.00015165,160.21,0.00013007,-1.9451,-0.000416,-4104.9,0.18339
11530,5.252,4.9091,0,0.00043186,4315.6,0.00015291,123.57,0.00013615,-2.3819,-0.00042966,-4253.7,0.1917
11531,5.1596,4.9091,0.05,3.7745e-06,37.719,2.8984e-06,21.777,-4.4667e-11,-0.00040893,-2.8983e-06,-21.777,0.18388
11532,5.1596,5.1818,0,0.00039822,3979.4,0.00014542,167.91,0.00012289,-1.3337,-0.00039511,-3893.5,0.18225
11533,5.252,5.0909,0,0.00041262,4123.4,0.00014834,145.54,0.00012876,-1.5089,-0.00040997,-4049.4,0.19062
11534,5.1596,5.0909,0.05,3.9352e-06,39.325,3.0217e-06,22.704,-2.5984e-11,-0.0002625,-3.0217e-06,-22.704,0.18278
11535,5.1596,5.3636,0,0.0003802,3799.4,0.00013878,159.88,0.00011739,-0.86739,-0.00037724,-3717.3,0.18102
11536,5.252,5.2727,0,0.00039539,3951.2,0.00014302,150.42,0.00012287,-0.98799,-0.00039263,-3874.3,0.18946
11537,5.1596,5.2727,0.05,4.1185e-06,41.156,3.1625e-06,23.762,-1.4141e-11,-0.0001666,-3.1625e-06,-23.762,0.18159
11538,5.1596,5.5455,0,0.00036526,3650.1,0.00013208,138.65,0.00011356,-0.56074,-0.00036272,-3579.1,0.1797
11539,5.252,5.4545,0,0.00038064,3803.8,0.00013733,140.63,0.00011853,-0.56203,-0.00037806,-3731.8,0.18821
11540,5.1596,5.4545,0.05,4.2822e-06,42.793,3.2882e-06,24.706,-3.5535e-12,-8.0191e-05,-3.2882e-06,-24.707,0.18032
11541,5.1596,5.7273,0,0.0003537,3534.6,0.00012553,105.76,0.00011143,-0.10582,-0.00035179,-3480.6,0.1783
11542,5.252,5.6364,0,0.00036857,3683.1,0.00013137,116.88,0.00011576,-0.42596,-0.00036645,-3623.5,0.18687
11543,5.1596,5.6364,0.05,4.4953e-06,44.922,3.4519e-06,25.936,1.2947e-12,-2.738e-05,-3.4519e-06,-25.936,0.17896
11544,5.252,5.8182,0,0.00035947,3592.2,0.0001253,80.267,0.00011465,0.25459,-0.00035803,-3551.3,0.18545
11545,5.1596,5.8182,0.05,5.9316e-06,59.275,4.5547e-06,34.222,4.1006e-12,1.4346e-06,-4.5547e-06,-34.222,0.17752
11546,5.1596,5.9091,0,0.00034321,3429.8,0.00011724,47.782,0.00011089,0.019726,-0.00034238,-3405.6,0.17682
11547,5.3443,0.27273,0,0.00037445,3741.9,0.00013124,92.166,0.00011897,-0.0654,-0.0003728,-3695,0.1941
11548,5.4367,0.18182,0,0.00037843,3781.7,0.00013058,68.501,0.00012149,0.20248,-0.00037722,-3746.9,0.20139
11549,5.3443,0.18182,0.05,4.8394e-06,48.361,3.7161e-06,27.921,-4.2339e-12,-3.5956e-06,-3.7161e-06,-27.921,0.19333
11550,5.3443,0.090909,0,0.00036564,3653.8,0.00012412,41.436,0.0001186,0.0050695,-0.00036491,-3632.9,0.19265
11551,5.3443,0.45455,0,0.00038412,3838.6,0.00013676,119.99,0.00012073,-0.41706,-0.00038194,-3777.4,0.19546
11552,5.4367,0.36364,0,0.00038619,3859.3,0.00013589,101.22,0.00012237,-0.34181,-0.00038438,-3807.8,0.20278
11553,5.3443,0.36364,0.05,3.5348e-06,35.324,2.7143e-06,20.394,-2.8884e-12,2.2074e-05,-2.7143e-06,-20.394,0.19474
11554,5.3443,0.63636,0,0.00039611,3958.4,0.0001418,132.92,0.00012402,-0.66706,-0.00039369,-3890.5,0.19674
11555,5.4367,0.54545,0,0.00039602,3957.5,0.00014059,118.84,0.00012472,-0.41771,-0.00039387,-3896.9,0.20408
11556,5.3443,0.54545,0.05,3.329e-06,33.267,2.5563e-06,19.207,3.1777e-12,8.0946e-05,-2.5563e-06,-19.207,0.19606
11557,5.3443,0.81818,0,0.00041017,4098.9,0.00014626,130.4,0.00012875,-1.1291,-0.00040781,-4032.6,0.19792
11558,5.4367,0.72727,0,0.00040765,4073.7,0.00014461,120.74,0.00012843,-0.80844,-0.00040548,-4012.4,0.20529
11559,5.3443,0.72727,0.05,3.1833e-06,31.811,2.4444e-06,18.366,1.6563e-11,0.00017492,-2.4444e-06,-18.366,0.19729
11560,5.3443,1,0,0.000426,4257.1,0.00014997,111.68,0.00013486,-1.8604,-0.00042402,-4201,0.19902
11561,5.4367,0.90909,0,0.00042092,4206.3,0.00014789,107.13,0.00013345,-1.3718,-0.00041902,-4152.4,0.20641
11562,5.3443,0.90909,0.05,3.0487e-06,30.466,2.341e-06,17.589,2.8431e-11,0.00029407,-2.341e-06,-17.589,0.19843
11563,5.3443,1.1818,0,0.00044313,4428.2,0.00015272,75.8,0.00014216,-3.5424,-0.00044184,-4391.5,0.20002
11564,5.4367,1.0909,0,0.00043548,4351.8,0.0001503,77.589,0.00013963,-2.5723,-0.00043415,-4313.8,0.20744
11565,5.3443,1.0909,0.05,2.9733e-06,29.712,2.2831e-06,17.154,4.7686e-11,0.00041303,-2.2831e-06,-17.154,0.19948
11566,5.3443,1.3636,0,0.00046095,4606.3,0.00015499,27.447,0.00014976,-11.795,-0.00046067,-4598.3,0.20093
11567,5.4367,1.2727,0,0.00045087,4505.6,0.00015201,34.236,0.00014648,-7.3179,-0.0004504,-4492,0.20837
11568,5.3443,1.2727,0.05,3.0318e-06,30.297,2.328e-06,17.492,5.6678e-11,0.00050067,-2.3281e-06,-17.492,0.20044
11569,5.3443,1.5455,0,0.00047888,4785.5,0.00016168,5.6777,0.00015236,-64.384,-0.00047984,-4814.4,0.20173
11570,5.4367,1.4545,0,0.00046656,4662.4,0.00015672,6.593,0.0001499,-44.653,-0.00046719,-4681.2,0.20921
11571,5.3443,1.4545,0.05,3.2782e-06,32.759,2.5172e-06,18.914,6.0903e-11,0.00054204,-2.5173e-06,-18.914,0.20129
11572,5.3443,1.7273,0,0.00049644,4961,0.00017135,2.5838,0.00015122,-148.71,-0.00049876,-5032.3,0.20245
11573,5.4367,1.6364,0,0.00048211,4817.7,0.00016521,2.6993,0.00014892,-119.67,-0.00048398,-4875.1,0.20995
11574,5.3443,1.6364,0.05,3.6971e-06,36.945,2.8389e-06,21.33,4.7698e-11,0.00045327,-2.8389e-06,-21.33,0.20205
11575,5.3443,1.9091,0,0.00051328,5129.2,0.00018127,1.5654,0.0001491,-240.13,-0.00051691,-5244.3,0.20306
11576,5.4367,1.8182,0,0.00049714,4967.9,0.00017426,1.6014,0.0001467,-205.5,-0.00050028,-5066.7,0.21059
11577,5.3443,1.8182,0.05,4.2167e-06,42.138,3.2379e-06,24.329,3.5788e-11,0.00040084,-3.2379e-06,-24.329,0.20272
11578,5.3443,2.0909,0,0.00052906,5286.9,0.00019065,1.0652,0.00014692,-327.49,-0.00053384,-5442.5,0.20358
11579,5.4367,2,0,0.00051138,5110.3,0.00018309,1.0768,0.00014412,-291.76,-0.0005157,-5249.3,0.21114
11580,5.3443,2,0.05,4.7635e-06,47.602,3.6578e-06,27.483,1.5934e-11,0.0002715,-3.6578e-06,-27.483,0.20329
11581,5.3443,2.2727,0,0.00054335,5429.8,0.00019892,0.79335,0.0001453,-402.07,-0.00054905,-5619.2,0.20401
11582,5.4367,2.1818,0,0.00052453,5241.7,0.00019115,0.78201,0.00014183,-369.8,-0.00052983,-5416.4,0.2116
11583,5.3443,2.1818,0.05,5.2907e-06,52.871,4.0626e-06,30.525,9.2304e-12,0.0001904,-4.0626e-06,-30.525,0.20376
11584,5.3443,2.4545,0,0.00055556,5551.8,0.00020565,0.66267,0.00014448,-458.93,-0.00056193,-5766.6,0.20434
11585,5.4367,2.3636,0,0.00053615,5357.8,0.00019801,0.62158,0.00014025,-433.34,-0.00054219,-5561,0.21197
11586,5.3443,2.3636,0.05,5.7692e-06,57.652,4.43e-06,33.285,3.6845e-13,9.9795e-05,-4.43e-06,-33.285,0.20414
11587,5.3443,2.6364,0,0.00056498,5645.9,0.00021058,0.62087,0.00014433,-497.16,-0.00057178,-5877.7,0.20458
11588,5.4367,2.5455,0,0.00054566,5452.9,0.00020335,0.55331,0.00013944,-479.6,-0.00055222,-5676.5,0.21224
11589,5.3443,2.5455,0.05,6.1683e-06,61.641,4.7365e-06,35.588,-8.9314e-13,6.1853e-05,-4.7365e-06,-35.588,0.20443
11590,5.3443,2.8182,0,0.00057095,5705.5,0.00021356,0.61743,0.00014447,-518.54,-0.00057798,-5946.7,0.20472
11591,5.4367,2.7273,0,0.00055244,5520.6,0.00020697,0.53561,0.00013918,-508.85,-0.00055932,-5757.1,0.21242
11592,5.3443,2.7273,0.05,6.455e-06,64.505,4.9566e-06,37.242,-1.7549e-12,2.9199e-05,-4.9566e-06,-37.242,0.20462
11593,5.3443,3,0,0.00057299,5725.9,0.00021456,0.61974,0.00014456,-525.34,-0.0005801,-5970.2,0.20477
11594,5.4367,2.9091,0,0.00055598,5555.9,0.0002088,0.53527,0.00013915,-522.79,-0.00056301,-5798.5,0.21252
11595,5.3443,2.9091,0.05,6.6043e-06,65.998,5.0713e-06,38.104,-4.1285e-12,5.0404e-06,-5.0713e-06,-38.104,0.20471
11596,5.3443,3.1818,0,0.00057095,5705.5,0.00021356,0.61743,0.00014447,-518.54,-0.00057798,-5946.7,0.20472
11597,5.4367,3.0909,0,0.00055598,5555.9,0.0002088,0.53527,0.00013915,-522.78,-0.00056301,-5798.5,0.21252
11598,5.3443,3.0909,0.05,6.6043e-06,65.998,5.0713e-06,38.104,-1.3266e-12,-1.2791e-05,-5.0713e-06,-38.104,0.20471
11599,5.3443,3.3636,0,0.00056498,5645.9,0.00021058,0.62087,0.00014433,-497.16,-0.00057178,-5877.7,0.20458
11600,5.4367,3.2727,0,0.00055244,5520.6,0.00020697,0.53561,0.00013918,-508.85,-0.00055932,-5757.1,0.21242
11601,5.3443,3.2727,0.05,6.455e-06,64.505,4.9566e-06,37.242,1.5509e-12,-3.7224e-05,-4.9566e-06,-37.242,0.20462
11602,5.3443,3.5455,0,0.00055556,5551.8,0.00020565,0.66267,0.00014448,-458.93,-0.00056193,-5766.6,0.20434
11603,5.4367,3.4545,0,0.00054566,5452.9,0.00020335,0.55331,0.00013944,-479.6,-0.00055222,-5676.5,0.21224
11604,5.3443,3.4545,0.05,6.1683e-06,61.641,4.7365e-06,35.588,2.2311e-12,-7.0088e-05,-4.7365e-06,-35.588,0.20443
11605,5.3443,3.7273,0,0.00054335,5429.8,0.00019892,0.79335,0.0001453,-402.07,-0.00054905,-5619.2,0.20401
11606,5.4367,3.6364,0,0.00053615,5357.8,0.00019801,0.62158,0.00014025,-433.34,-0.00054219,-5561,0.21197
11607,5.3443,3.6364,0.05,5.7692e-06,57.652,4.43e-06,33.285,-1.0358e-12,-9.8408e-05,-4.43e-06,-33.285,0.20414
11608,5.3443,3.9091,0,0.00052906,5286.9,0.00019065,1.0652,0.00014692,-327.49,-0.00053384,-5442.5,0.20358
11609,5.4367,3.8182,0,0.00052453,5241.7,0.00019115,0.78201,0.00014183,-369.8,-0.00052983,-5416.4,0.2116
11610,5.3443,3.8182,0.05,5.2907e-06,52.871,4.0626e-06,30.525,-1.1754e-11,-0.00017908,-4.0626e-06,-30.525,0.20376
11611,5.3443,4.0909,0,0.00051328,5129.2,0.00018127,1.5654,0.0001491,-240.13,-0.00051691,-5244.3,0.20306
11612,5.4367,4,0,0.00051138,5110.3,0.00018309,1.0768,0.00014412,-291.76,-0.0005157,-5249.3,0.21114
11613,5.3443,4,0.05,4.7635e-06,47.602,3.6578e-06,27.483,-2.0401e-11,-0.00022716,-3.6578e-06,-27.483,0.20329
11614,5.3443,4.2727,0,0.00049644,4961,0.00017135,2.5838,0.00015122,-148.71,-0.00049876,-5032.3,0.20245
11615,5.4367,4.1818,0,0.00049714,4967.9,0.00017426,1.6014,0.0001467,-205.5,-0.00050028,-5066.7,0.21059
11616,5.3443,4.1818,0.05,4.2167e-06,42.138,3.2379e-06,24.329,-4.2702e-11,-0.00032509,-3.2379e-06,-24.329,0.20272
11617,5.3443,4.4545,0,0.00047888,4785.5,0.00016168,5.6777,0.00015236,-64.383,-0.00047984,-4814.4,0.20173
11618,5.4367,4.3636,0,0.00048211,4817.7,0.00016521,2.6993,0.00014892,-119.67,-0.00048398,-4875.1,0.20995
11619,5.3443,4.3636,0.05,3.6971e-06,36.945,2.8389e-06,21.33,-4.8771e-11,-0.00046228,-2.8389e-06,-21.33,0.20205
11620,5.3443,4.6364,0,0.00046095,4606.3,0.00015499,27.447,0.00014976,-11.795,-0.00046067,-4598.3,0.20093
11621,5.4367,4.5455,0,0.00046657,4662.4,0.00015672,6.593,0.0001499,-44.653,-0.00046719,-4681.3,0.20921
11622,5.3443,4.5455,0.05,3.2782e-06,32.759,2.5173e-06,18.914,-5.7302e-11,-0.00054248,-2.5172e-06,-18.914,0.20129
11623,5.3443,4.8182,0,0.00044313,4428.2,0.00015272,75.8,0.00014216,-3.5424,-0.00044184,-4391.5,0.20002
11624,5.4367,4.7273,0,0.00045087,4505.6,0.00015201,34.236,0.00014648,-7.3179,-0.0004504,-4492,0.20837
11625,5.3443,4.7273,0.05,3.0318e-06,30.297,2.3281e-06,17.492,-5.8958e-11,-0.00054304,-2.328e-06,-17.492,0.20044
11626,5.3443,5,0,0.000426,4257.1,0.00014997,111.68,0.00013486,-1.8604,-0.00042402,-4201,0.19902
11627,5.4367,4.9091,0,0.00043548,4351.8,0.0001503,77.589,0.00013963,-2.5723,-0.00043415,-4313.8,0.20744
11628,5.3443,4.9091,0.05,2.9733e-06,29.712,2.2831e-06,17.154,-4.6224e-11,-0.00040848,-2.2831e-06,-17.154,0.19948
11629,5.3443,5.1818,0,0.00041017,4098.9,0.00014626,130.4,0.00012875,-1.1291,-0.00040781,-4032.6,0.19792
11630,5.4367,5.0909,0,0.00042092,4206.3,0.00014789,107.13,0.00013345,-1.3718,-0.00041902,-4152.4,0.20641
11631,5.3443,5.0909,0.05,3.0487e-06,30.466,2.341e-06,17.589,-2.7576e-11,-0.00029322,-2.341e-06,-17.589,0.19843
11632,5.3443,5.3636,0,0.00039611,3958.4,0.0001418,132.92,0.00012402,-0.66706,-0.00039369,-3890.5,0.19674
11633,5.4367,5.2727,0,0.00040765,4073.7,0.00014461,120.74,0.00012843,-0.80844,-0.00040548,-4012.4,0.20529
11634,5.3443,5.2727,0.05,3.1833e-06,31.811,2.4444e-06,18.366,-1.2902e-11,-0.0001666,-2.4444e-06,-18.366,0.19729
11635,5.3443,5.5455,0,0.00038412,3838.6,0.00013676,119.99,0.00012073,-0.41706,-0.00038194,-3777.4,0.19546
11636,5.4367,5.4545,0,0.00039602,3957.5,0.00014059,118.84,0.00012472,-0.41772,-0.00039387,-3896.9,0.20408
11637,5.3443,5.4545,0.05,3.329e-06,33.267,2.5563e-06,19.207,-3.2025e-12,-7.9872e-05,-2.5563e-06,-19.207,0.19606
11638,5.3443,5.7273,0,0.00037445,3741.9,0.00013124,92.166,0.00011897,-0.065402,-0.0003728,-3695,0.1941
11639,5.4367,5.6364,0,0.00038619,3859.3,0.00013589,101.22,0.00012237,-0.34181,-0.00038438,-3807.8,0.20278
11640,5.3443,5.6364,0.05,3.5348e-06,35.324,2.7143e-06,20.394,1.2603e-12,-2.0915e-05,-2.7143e-06,-20.394,0.19474
11641,5.4367,5.8182,0,0.00037843,3781.7,0.00013058,68.501,0.00012149,0.20248,-0.00037722,-3746.9,0.20139
11642,5.3443,5.8182,0.05,4.8394e-06,48.361,3.7161e-06,27.921,4.4497e-12,4.8912e-06,-3.7161e-06,-27.921,0.19333
11643,5.3443,5.9091,0,0.00036564,3653.8,0.00012412,41.436,0.0001186,0.0050683,-0.00036491,-3632.9,0.19265
11644,5.5291,0.27273,0,0.00039026,3899.9,0.00013529,78.059,0.00012489,-0.054915,-0.00038887,-3860.3,0.21015
11645,5.6214,0.18182,0,0.00039282,3925.4,0.00013439,57.139,0.0001268,0.14508,-0.00039181,-3896.5,0.21758
11646,5.5291,0.18182,0.05,3.8752e-06,38.725,2.9756e-06,22.358,-8.2501e-12,-6.6905e-06,-2.9756e-06,-22.358,0.2094
11647,5.5291,0.090909,0,0.00038298,3827.2,0.00012931,35.031,0.00012464,-0.00023324,-0.00038237,-3809.5,0.20873
11648,5.5291,0.45455,0,0.00039821,3979.4,0.00013981,100.78,0.00012636,-0.32303,-0.00039641,-3928.2,0.21148
11649,5.6214,0.36364,0,0.00039928,3990.1,0.00013886,84.993,0.00012751,-0.28009,-0.00039777,-3947,0.21894
11650,5.5291,0.36364,0.05,2.7073e-06,27.055,2.0789e-06,15.62,-4.7879e-12,1.6257e-05,-2.0789e-06,-15.62,0.21078
11651,5.5291,0.63636,0,0.00040774,4074.5,0.00014354,107.7,0.00012914,-0.53226,-0.0004058,-4019.9,0.21272
11652,5.6214,0.54545,0,0.00040717,4068.9,0.0001425,97.46,0.00012948,-0.32375,-0.00040543,-4019.5,0.22022
11653,5.5291,0.54545,0.05,2.5262e-06,25.244,1.9398e-06,14.575,1.2425e-12,8.3468e-05,-1.9398e-06,-14.575,0.21207
11654,5.5291,0.81818,0,0.00041862,4183.3,0.00014642,98.802,0.00013314,-0.99205,-0.00041687,-4133.5,0.21387
11655,5.6214,0.72727,0,0.00041626,4159.7,0.00014524,94.157,0.00013262,-0.68662,-0.00041458,-4112.1,0.2214
11656,5.5291,0.72727,0.05,2.4197e-06,24.18,1.858e-06,13.96,1.6704e-11,0.0001789,-1.858e-06,-13.96,0.21326
11657,5.5291,1,0,0.00043065,4303.6,0.00014842,74.483,0.00013825,-1.8923,-0.00042937,-4266.8,0.21493
11658,5.6214,0.90909,0,0.00042639,4261,0.00014709,75.824,0.00013683,-1.3138,-0.00042507,-4223.2,0.22248
11659,5.5291,0.90909,0.05,2.3516e-06,23.499,1.8057e-06,13.567,3.1525e-11,0.00030447,-1.8057e-06,-13.567,0.21437
11660,5.5291,1.1818,0,0.00044349,4431.8,0.00014964,36.471,0.00014412,-5.0582,-0.00044294,-4416,0.21589
11661,5.6214,1.0909,0,0.00043733,4370.3,0.00014811,43.561,0.00014189,-3.1554,-0.00043663,-4349.9,0.22348
11662,5.5291,1.0909,0.05,2.3635e-06,23.619,1.8149e-06,13.636,4.9189e-11,0.00036911,-1.8149e-06,-13.636,0.21537
11663,5.5291,1.3636,0,0.00045673,4564.2,0.00015289,6.9832,0.00014769,-32.088,-0.00045715,-4576.6,0.21676
11664,5.6214,1.2727,0,0.00044877,4484.6,0.00014979,9.6675,0.00014611,-18.013,-0.0004489,-4488.7,0.22437
11665,5.5291,1.2727,0.05,2.4997e-06,24.979,1.9194e-06,14.422,5.2441e-11,0.00052583,-1.9194e-06,-14.422,0.21629
11666,5.5291,1.5455,0,0.00047,4696.8,0.00016012,2.6081,0.00014681,-97.41,-0.00047154,-4743.4,0.21753
11667,5.6214,1.4545,0,0.00046035,4600.3,0.00015575,2.8115,0.00014566,-73.07,-0.0004615,-4635,0.22518
11668,5.5291,1.4545,0.05,2.7719e-06,27.7,2.1284e-06,15.992,5.1802e-11,0.00044066,-2.1285e-06,-15.993,0.21711
11669,5.5291,1.7273,0,0.00048297,4826.4,0.0001681,1.5344,0.0001446,-174.99,-0.00048568,-4910.7,0.2182
11670,5.6214,1.6364,0,0.00047178,4714.5,0.00016289,1.5713,0.00014354,-143.82,-0.00047403,-4784,0.22588
11671,5.5291,1.6364,0.05,3.1487e-06,31.465,2.4178e-06,18.167,3.8519e-11,0.00037889,-2.4178e-06,-18.167,0.21783
11672,5.5291,1.9091,0,0.00049537,4950.3,0.00017607,1.0359,0.00014186,-256.02,-0.00049921,-5072.8,0.21878
11673,5.6214,1.8182,0,0.0004828,4824.7,0.00017021,1.0511,0.00014072,-220.54,-0.00048616,-4930.6,0.2265
11674,5.5291,1.8182,0.05,3.5782e-06,35.758,2.7476e-06,20.645,2.0143e-11,0.00035838,-2.7476e-06,-20.645,0.21846
11675,5.5291,2.0909,0,0.00050694,5066,0.00018359,0.74862,0.00013913,-333.3,-0.00051177,-5224,0.21927
11676,5.6214,2,0,0.00049321,4928.7,0.0001773,0.75405,0.0001377,-296.75,-0.00049758,-5070,0.22702
11677,5.5291,2,0.05,4.0155e-06,40.128,3.0834e-06,23.168,1.4715e-11,0.00025601,-3.0834e-06,-23.168,0.21899
11678,5.5291,2.2727,0,0.00051738,5170.2,0.00019024,0.58117,0.00013684,-400.64,-0.00052302,-5358.6,0.21967
11679,5.6214,2.1818,0,0.00050277,5024.3,0.00018378,0.57063,0.00013494,-366.33,-0.00050799,-5197.1,0.22745
11680,5.5291,2.1818,0.05,4.4318e-06,44.288,3.4031e-06,25.57,1.1412e-11,0.00018576,-3.4031e-06,-25.569,0.21944
11681,5.5291,2.4545,0,0.00052625,5258.9,0.0001957,0.49341,0.00013522,-453.96,-0.00053249,-5470.9,0.21998
11682,5.6214,2.3636,0,0.00051117,5108.2,0.00018931,0.46369,0.00013275,-424.51,-0.00051705,-5306.9,0.2278
11683,5.5291,2.3636,0.05,4.807e-06,48.037,3.6912e-06,27.734,2.792e-12,0.00011104,-3.6912e-06,-27.734,0.21979
11684,5.5291,2.6364,0,0.00053308,5327.1,0.00019974,0.45601,0.00013425,-491.58,-0.00053973,-5555.6,0.2202
11685,5.6214,2.5455,0,0.00051801,5176.5,0.00019366,0.40951,0.00013125,-468.52,-0.00052438,-5394.6,0.22806
11686,5.5291,2.5455,0.05,5.1196e-06,51.161,3.9312e-06,29.538,6.3036e-13,6.2403e-05,-3.9312e-06,-29.538,0.22006
11687,5.5291,2.8182,0,0.0005374,5370.3,0.00020221,0.44525,0.00013379,-513.63,-0.00054428,-5608.4,0.22034
11688,5.6214,2.7273,0,0.00052287,5225.1,0.00019664,0.38811,0.00013037,-497.53,-0.00052954,-5455.9,0.22823
11689,5.5291,2.7273,0.05,5.3458e-06,53.421,4.1049e-06,30.843,-3.4034e-12,3.2543e-05,-4.1049e-06,-30.843,0.22023
11690,5.5291,3,0,0.00053887,5385,0.00020304,0.44383,0.00013366,-520.85,-0.00054583,-5626.3,0.22038
11691,5.6214,2.9091,0,0.0005254,5250.4,0.00019815,0.38247,0.00012998,-511.81,-0.00053223,-5487.4,0.22831
11692,5.5291,2.9091,0.05,5.4647e-06,54.61,4.1962e-06,31.529,-1.0976e-12,8.0619e-06,-4.1962e-06,-31.529,0.22032
11693,5.5291,3.1818,0,0.0005374,5370.3,0.00020221,0.44525,0.00013379,-513.63,-0.00054428,-5608.4,0.22034
11694,5.6214,3.0909,0,0.0005254,5250.4,0.00019815,0.38247,0.00012998,-511.81,-0.00053223,-5487.4,0.22831
11695,5.5291,3.0909,0.05,5.4647e-06,54.61,4.1962e-06,31.529,-7.2236e-13,-4.4073e-06,-4.1962e-06,-31.529,0.22032
11696,5.5291,3.3636,0,0.00053308,5327.1,0.00019974,0.45601,0.00013425,-491.58,-0.00053973,-5555.6,0.2202
11697,5.6214,3.2727,0,0.00052287,5225.1,0.00019664,0.38811,0.00013037,-497.53,-0.00052955,-5455.9,0.22823
11698,5.5291,3.2727,0.05,5.3458e-06,53.421,4.1049e-06,30.843,-2.093e-12,-3.1574e-05,-4.1049e-06,-30.843,0.22023
11699,5.5291,3.5455,0,0.00052625,5258.9,0.0001957,0.49341,0.00013522,-453.96,-0.00053249,-5470.9,0.21998
11700,5.6214,3.4545,0,0.00051801,5176.5,0.00019366,0.40951,0.00013125,-468.52,-0.00052438,-5394.6,0.22806
11701,5.5291,3.4545,0.05,5.1196e-06,51.161,3.9312e-06,29.538,-3.1239e-13,-6.4438e-05,-3.9312e-06,-29.538,0.22006
11702,5.5291,3.7273,0,0.00051738,5170.2,0.00019024,0.58117,0.00013684,-400.64,-0.00052302,-5358.6,0.21967
11703,5.6214,3.6364,0,0.00051117,5108.2,0.00018931,0.46369,0.00013275,-424.51,-0.00051705,-5306.9,0.2278
11704,5.5291,3.6364,0.05,4.807e-06,48.037,3.6912e-06,27.734,-4.8174e-12,-0.00010665,-3.6912e-06,-27.734,0.21979
11705,5.5291,3.9091,0,0.00050695,5066,0.00018359,0.74862,0.00013913,-333.3,-0.00051178,-5224,0.21927
11706,5.6214,3.8182,0,0.00050277,5024.3,0.00018378,0.57063,0.00013494,-366.33,-0.00050799,-5197.1,0.22745
11707,5.5291,3.8182,0.05,4.4318e-06,44.288,3.4031e-06,25.569,-1.0503e-11,-0.00019272,-3.4031e-06,-25.57,0.21944
11708,5.5291,4.0909,0,0.00049537,4950.3,0.00017607,1.0359,0.00014186,-256.02,-0.00049921,-5072.8,0.21878
11709,5.6214,4,0,0.00049321,4928.7,0.0001773,0.75405,0.0001377,-296.75,-0.00049758,-5070,0.22702
11710,5.5291,4,0.05,4.0155e-06,40.128,3.0834e-06,23.168,-2.283e-11,-0.00023325,-3.0834e-06,-23.168,0.21899
11711,5.5291,4.2727,0,0.00048297,4826.4,0.0001681,1.5344,0.0001446,-174.99,-0.00048568,-4910.7,0.2182
11712,5.6214,4.1818,0,0.0004828,4824.7,0.00017021,1.0511,0.00014072,-220.54,-0.00048616,-4930.6,0.2265
11713,5.5291,4.1818,0.05,3.5782e-06,35.758,2.7476e-06,20.645,-2.3477e-11,-0.00028141,-2.7476e-06,-20.645,0.21846
11714,5.5291,4.4545,0,0.00047,4696.8,0.00016012,2.6081,0.00014681,-97.409,-0.00047154,-4743.4,0.21753
11715,5.6214,4.3636,0,0.00047178,4714.5,0.00016289,1.5713,0.00014354,-143.82,-0.00047403,-4784,0.22588
11716,5.5291,4.3636,0.05,3.1487e-06,31.465,2.4178e-06,18.167,-3.9219e-11,-0.00033231,-2.4178e-06,-18.167,0.21783
11717,5.5291,4.6364,0,0.00045673,4564.2,0.00015289,6.9832,0.00014769,-32.088,-0.00045715,-4576.6,0.21676
11718,5.6214,4.5455,0,0.00046035,4600.3,0.00015575,2.8116,0.00014566,-73.07,-0.0004615,-4635,0.22518
11719,5.5291,4.5455,0.05,2.7719e-06,27.7,2.1285e-06,15.993,-4.4773e-11,-0.00044262,-2.1284e-06,-15.992,0.21711
11720,5.5291,4.8182,0,0.00044349,4431.8,0.00014964,36.471,0.00014412,-5.0582,-0.00044294,-4416,0.21589
11721,5.6214,4.7273,0,0.00044877,4484.6,0.00014979,9.6676,0.00014611,-18.013,-0.0004489,-4488.7,0.22437
11722,5.5291,4.7273,0.05,2.4997e-06,24.979,1.9194e-06,14.422,-5.9228e-11,-0.00052455,-1.9194e-06,-14.422,0.21629
11723,5.5291,5,0,0.00043065,4303.6,0.00014842,74.483,0.00013825,-1.8923,-0.00042937,-4266.8,0.21493
11724,5.6214,4.9091,0,0.00043733,4370.3,0.00014811,43.561,0.00014189,-3.1554,-0.00043663,-4349.9,0.22348
11725,5.5291,4.9091,0.05,2.3635e-06,23.619,1.8149e-06,13.636,-4.5192e-11,-0.00035943,-1.8149e-06,-13.636,0.21537
11726,5.5291,5.1818,0,0.00041862,4183.3,0.00014642,98.802,0.00013314,-0.99205,-0.00041687,-4133.5,0.21387
11727,5.6214,5.0909,0,0.00042639,4261,0.00014709,75.824,0.00013683,-1.3138,-0.00042507,-4223.2,0.22248
11728,5.5291,5.0909,0.05,2.3516e-06,23.499,1.8057e-06,13.567,-3.2027e-11,-0.00026033,-1.8057e-06,-13.567,0.21437
11729,5.5291,5.3636,0,0.00040774,4074.5,0.00014354,107.7,0.00012914,-0.53226,-0.0004058,-4019.9,0.21272
11730,5.6214,5.2727,0,0.00041626,4159.7,0.00014524,94.157,0.00013262,-0.68662,-0.00041458,-4112.1,0.2214
11731,5.5291,5.2727,0.05,2.4197e-06,24.18,1.858e-06,13.96,-1.5506e-11,-0.00018616,-1.858e-06,-13.96,0.21326
11732,5.5291,5.5455,0,0.00039821,3979.4,0.00013981,100.78,0.00012636,-0.32303,-0.00039641,-3928.2,0.21148
11733,5.6214,5.4545,0,0.00040717,4068.9,0.0001425,97.46,0.00012948,-0.32375,-0.00040543,-4019.5,0.22022
11734,5.5291,5.4545,0.05,2.5262e-06,25.244,1.9398e-06,14.575,-4.8103e-12,-8.3932e-05,-1.9398e-06,-14.575,0.21207
11735,5.5291,5.7273,0,0.00039026,3899.9,0.00013529,78.059,0.00012489,-0.054917,-0.00038887,-3860.3,0.21015
11736,5.6214,5.6364,0,0.00039928,3990.1,0.00013886,84.993,0.00012751,-0.28009,-0.00039777,-3947,0.21894
11737,5.5291,5.6364,0.05,2.7073e-06,27.055,2.0789e-06,15.62,4.8774e-12,-1.6343e-05,-2.0789e-06,-15.62,0.21078
11738,5.6214,5.8182,0,0.00039282,3925.4,0.00013439,57.139,0.0001268,0.14508,-0.00039181,-3896.5,0.21758
11739,5.5291,5.8182,0.05,3.8752e-06,38.725,2.9756e-06,22.358,8.1814e-12,7.6387e-06,-2.9756e-06,-22.358,0.2094
11740,5.5291,5.9091,0,0.00038298,3827.2,0.00012931,35.031,0.00012464,-0.00023465,-0.00038237,-3809.5,0.20873
11741,5.7138,0.27273,0,0.00040189,4016.2,0.00013799,64.389,0.00012942,-0.050897,-0.00040076,-3983.6,0.22646
11742,5.8061,0.18182,0,0.00040334,4030.6,0.00013699,46.675,0.00013079,0.098819,-0.00040252,-4007,0.23404
11743,5.7138,0.18182,0.05,3.0467e-06,30.446,2.3395e-06,17.578,-9.9978e-12,-7.3057e-06,-2.3395e-06,-17.578,0.22573
11744,5.7138,0.090909,0,0.00039599,3957.2,0.0001331,28.978,0.00012924,0.0029051,-0.00039549,-3942.6,0.22507
11745,5.7138,0.45455,0,0.00040832,4080.4,0.0001416,82.116,0.00013064,-0.25699,-0.00040686,-4038.8,0.22777
11746,5.8061,0.36364,0,0.0004086,4083.2,0.00014062,69.284,0.00013137,-0.22999,-0.00040738,-4048.2,0.23538
11747,5.7138,0.36364,0.05,2.0096e-06,20.082,1.5431e-06,11.595,-8.0778e-12,1.5617e-05,-1.5431e-06,-11.594,0.22708
11748,5.7138,0.63636,0,0.00041579,4155.1,0.00014428,84.529,0.00013297,-0.44285,-0.0004143,-4112.4,0.22898
11749,5.8061,0.54545,0,0.00041484,4145.5,0.00014335,77.34,0.00013303,-0.26299,-0.00041347,-4106.4,0.23663
11750,5.7138,0.54545,0.05,1.8632e-06,18.62,1.4307e-06,10.75,5.2721e-12,9.3485e-05,-1.4307e-06,-10.75,0.22834
11751,5.7138,0.81818,0,0.00042415,4238.5,0.00014601,71.896,0.00013631,-0.91748,-0.00042289,-4202.6,0.2301
11752,5.8061,0.72727,0,0.00042184,4215.5,0.00014512,70.572,0.00013565,-0.61273,-0.00042061,-4180.1,0.23778
11753,5.7138,0.72727,0.05,1.807e-06,18.058,1.3876e-06,10.426,1.9851e-11,0.00019111,-1.3876e-06,-10.426,0.22951
11754,5.7138,1,0,0.00043321,4329.1,0.00014685,45.384,0.00014053,-2.1341,-0.00043245,-4307.3,0.23113
11755,5.8061,0.90909,0,0.00042951,4292.1,0.00014598,50.023,0.00013914,-1.3657,-0.00042866,-4267.6,0.23884
11756,5.7138,0.90909,0.05,1.8106e-06,18.093,1.3903e-06,10.446,3.5335e-11,0.0003945,-1.3903e-06,-10.446,0.23058
11757,5.7138,1.1818,0,0.00044275,4424.5,0.00014765,12.17,0.00014462,-10.551,-0.00044272,-4423.6,0.23206
11758,5.8061,1.0909,0,0.00043766,4373.5,0.00014626,18.919,0.00014306,-5.0611,-0.00043741,-4366.6,0.23981
11759,5.7138,1.0909,0.05,1.9006e-06,18.993,1.4594e-06,10.965,4.5543e-11,0.0005145,-1.4594e-06,-10.965,0.23156
11760,5.7138,1.3636,0,0.00045251,4522,0.0001523,2.8357,0.00014455,-55.39,-0.00045338,-4548,0.2329
11761,5.8061,1.2727,0,0.00044607,4457.6,0.00014929,3.3379,0.00014397,-36.653,-0.00044662,-4474.1,0.24068
11762,5.7138,1.2727,0.05,2.0917e-06,20.903,1.6061e-06,12.068,4.454e-11,0.0004341,-1.6062e-06,-12.068,0.23244
11763,5.7138,1.5455,0,0.00046224,4619.2,0.00015849,1.5109,0.00014254,-118.35,-0.00046411,-4676.4,0.23364
11764,5.8061,1.4545,0,0.00045453,4542.2,0.00015469,1.5649,0.00014216,-92.548,-0.000456,-4586.9,0.24146
11765,5.7138,1.4545,0.05,2.3719e-06,23.703,1.8213e-06,13.685,4.6917e-11,0.00040549,-1.8214e-06,-13.685,0.23323
11766,5.7138,1.7273,0,0.0004717,4713.8,0.00016499,1.0081,0.00013976,-188.56,-0.00047461,-4804.7,0.23429
11767,5.8061,1.6364,0,0.00046283,4625.1,0.00016054,1.0157,0.00013948,-157.23,-0.00046529,-4701.2,0.24214
11768,5.7138,1.6364,0.05,2.7094e-06,27.075,2.0805e-06,15.632,3.3187e-11,0.00030423,-2.0805e-06,-15.632,0.23393
11769,5.7138,1.9091,0,0.00048072,4803.9,0.00017143,0.72841,0.00013665,-260.64,-0.0004846,-4928.5,0.23484
11770,5.8061,1.8182,0,0.00047081,4704.8,0.00016647,0.72942,0.00013633,-225.76,-0.00047422,-4813.2,0.24273
11771,5.7138,1.8182,0.05,3.0689e-06,30.667,2.3565e-06,17.706,2.155e-11,0.00025988,-2.3565e-06,-17.706,0.23453
11772,5.7138,2.0909,0,0.00048909,4887.5,0.00017748,0.54986,0.00013358,-329.34,-0.00049385,-5043.6,0.23531
11773,5.8061,2,0,0.0004783,4779.7,0.00017219,0.54707,0.00013307,-293.38,-0.0004826,-4919.3,0.24324
11774,5.7138,2,0.05,3.4229e-06,34.205,2.6283e-06,19.748,1.3418e-11,0.0001979,-2.6284e-06,-19.748,0.23504
11775,5.7138,2.2727,0,0.00049659,4962.5,0.00018285,0.43499,0.00013089,-389.94,-0.00050206,-5145.7,0.23569
11776,5.8061,2.1818,0,0.00048513,4848,0.00017741,0.42482,0.00013005,-355.45,-0.00049019,-5015.7,0.24365
11777,5.7138,2.1818,0.05,3.7532e-06,37.506,2.882e-06,21.654,7.8351e-12,0.00013571,-2.882e-06,-21.654,0.23547
11778,5.7138,2.4545,0,0.00050293,5025.8,0.00018727,0.36699,0.00012879,-439.01,-0.00050895,-5230.7,0.23598
11779,5.8061,2.3636,0,0.00049109,4907.6,0.00018189,0.34634,0.00012752,-408.16,-0.00049675,-5098.7,0.24398
11780,5.7138,2.3636,0.05,4.0462e-06,40.434,3.107e-06,23.345,6.0351e-12,8.7884e-05,-3.107e-06,-23.345,0.2358
11781,5.7138,2.6364,0,0.00050778,5074.3,0.00019055,0.33246,0.00012734,-474.59,-0.00051418,-5294.7,0.23619
11782,5.8061,2.5455,0,0.00049592,4955.8,0.00018541,0.3013,0.00012562,-448.93,-0.00050202,-5164.8,0.24423
11783,5.7138,2.5455,0.05,4.2874e-06,42.844,3.2922e-06,24.736,2.3604e-12,5.907e-05,-3.2922e-06,-24.736,0.23605
11784,5.7138,2.8182,0,0.00051084,5104.9,0.00019257,0.31834,0.00012652,-495.96,-0.00051746,-5334.6,0.23632
11785,5.8061,2.7273,0,0.00049934,4989.9,0.00018784,0.27931,0.00012439,-476.43,-0.00050573,-5210.9,0.24439
11786,5.7138,2.7273,0.05,4.4607e-06,44.577,3.4253e-06,25.736,-9.397e-14,3.0691e-05,-3.4253e-06,-25.736,0.23622
11787,5.7138,3,0,0.00051189,5115.3,0.00019325,0.31484,0.00012626,-503.07,-0.00051858,-5348.1,0.23636
11788,5.8061,2.9091,0,0.00050111,5007.7,0.00018908,0.27108,0.0001238,-490.21,-0.00050764,-5234.6,0.24448
11789,5.7138,2.9091,0.05,4.5517e-06,45.486,3.4951e-06,26.261,-1.8413e-12,1.0298e-05,-3.4951e-06,-26.261,0.23631
11790,5.7138,3.1818,0,0.00051084,5104.9,0.00019257,0.31834,0.00012652,-495.96,-0.00051746,-5334.6,0.23632
11791,5.8061,3.0909,0,0.00050111,5007.7,0.00018908,0.27108,0.0001238,-490.21,-0.00050764,-5234.6,0.24448
11792,5.7138,3.0909,0.05,4.5517e-06,45.486,3.4951e-06,26.261,-1.7767e-12,-1.0195e-05,-3.4951e-06,-26.261,0.23631
11793,5.7138,3.3636,0,0.00050778,5074.3,0.00019055,0.33246,0.00012734,-474.59,-0.00051418,-5294.7,0.23619
11794,5.8061,3.2727,0,0.00049934,4989.9,0.00018784,0.27931,0.00012439,-476.43,-0.00050573,-5210.9,0.24439
11795,5.7138,3.2727,0.05,4.4607e-06,44.577,3.4253e-06,25.736,1.9904e-14,-2.9648e-05,-3.4253e-06,-25.736,0.23622
11796,5.7138,3.5455,0,0.00050293,5025.8,0.00018727,0.36699,0.00012879,-439,-0.00050895,-5230.7,0.23598
11797,5.8061,3.4545,0,0.00049592,4955.8,0.00018541,0.3013,0.00012562,-448.93,-0.00050202,-5164.8,0.24423
11798,5.7138,3.4545,0.05,4.2874e-06,42.844,3.2922e-06,24.736,-4.2809e-12,-6.3834e-05,-3.2922e-06,-24.736,0.23605
11799,5.7138,3.7273,0,0.00049659,4962.5,0.00018285,0.43499,0.00013089,-389.94,-0.00050206,-5145.7,0.23569
11800,5.8061,3.6364,0,0.00049109,4907.6,0.00018189,0.34634,0.00012752,-408.16,-0.00049675,-5098.7,0.24398
11801,5.7138,3.6364,0.05,4.0462e-06,40.434,3.107e-06,23.345,-5.0184e-12,-0.0001031,-3.107e-06,-23.345,0.2358
11802,5.7138,3.9091,0,0.00048909,4887.5,0.00017748,0.54986,0.00013358,-329.33,-0.00049385,-5043.6,0.23531
11803,5.8061,3.8182,0,0.00048513,4848,0.00017741,0.42482,0.00013005,-355.45,-0.00049019,-5015.7,0.24365
11804,5.7138,3.8182,0.05,3.7532e-06,37.506,2.882e-06,21.654,-9.4057e-12,-0.00013712,-2.882e-06,-21.654,0.23547
11805,5.7138,4.0909,0,0.00048072,4803.9,0.00017143,0.72841,0.00013665,-260.64,-0.0004846,-4928.5,0.23484
11806,5.8061,4,0,0.0004783,4779.7,0.00017219,0.54707,0.00013307,-293.38,-0.0004826,-4919.3,0.24324
11807,5.7138,4,0.05,3.4229e-06,34.205,2.6284e-06,19.748,-1.5011e-11,-0.00020358,-2.6284e-06,-19.748,0.23504
11808,5.7138,4.2727,0,0.0004717,4713.8,0.00016499,1.0081,0.00013976,-188.56,-0.00047461,-4804.7,0.23429
11809,5.8061,4.1818,0,0.00047081,4704.8,0.00016647,0.72942,0.00013633,-225.76,-0.00047422,-4813.2,0.24273
11810,5.7138,4.1818,0.05,3.0689e-06,30.667,2.3565e-06,17.706,-2.155e-11,-0.00023254,-2.3565e-06,-17.706,0.23453
11811,5.7138,4.4545,0,0.00046224,4619.2,0.00015849,1.5109,0.00014254,-118.35,-0.00046411,-4676.5,0.23364
11812,5.8061,4.3636,0,0.00046283,4625.1,0.00016054,1.0157,0.00013948,-157.23,-0.00046529,-4701.2,0.24214
11813,5.7138,4.3636,0.05,2.7094e-06,27.075,2.0805e-06,15.632,-3.3165e-11,-0.00031001,-2.0805e-06,-15.632,0.23393
11814,5.7138,4.6364,0,0.00045251,4522,0.0001523,2.8358,0.00014455,-55.39,-0.00045338,-4548,0.2329
11815,5.8061,4.5455,0,0.00045453,4542.2,0.00015469,1.5649,0.00014216,-92.547,-0.000456,-4586.9,0.24146
11816,5.7138,4.5455,0.05,2.3719e-06,23.703,1.8214e-06,13.685,-4.0476e-11,-0.00040549,-1.8213e-06,-13.685,0.23323
11817,5.7138,4.8182,0,0.00044275,4424.5,0.00014765,12.17,0.00014462,-10.551,-0.00044272,-4423.6,0.23206
11818,5.8061,4.7273,0,0.00044607,4457.6,0.00014929,3.3379,0.00014397,-36.653,-0.00044662,-4474.1,0.24068
11819,5.7138,4.7273,0.05,2.0917e-06,20.903,1.6062e-06,12.068,-4.8105e-11,-0.0004335,-1.6062e-06,-12.068,0.23244
11820,5.7138,5,0,0.00043321,4329.1,0.00014685,45.384,0.00014053,-2.1341,-0.00043245,-4307.3,0.23113
11821,5.8061,4.9091,0,0.00043766,4373.5,0.00014626,18.919,0.00014306,-5.0611,-0.00043741,-4366.6,0.23981
11822,5.7138,4.9091,0.05,1.9006e-06,18.993,1.4594e-06,10.965,-4.8264e-11,-0.00045493,-1.4594e-06,-10.965,0.23156
11823,5.7138,5.1818,0,0.00042415,4238.5,0.00014601,71.896,0.00013631,-0.91748,-0.00042289,-4202.6,0.2301
11824,5.8061,5.0909,0,0.00042951,4292.1,0.00014598,50.023,0.00013914,-1.3657,-0.00042866,-4267.6,0.23884
11825,5.7138,5.0909,0.05,1.8106e-06,18.093,1.3903e-06,10.446,-3.981e-11,-0.00035108,-1.3903e-06,-10.446,0.23058
11826,5.7138,5.3636,0,0.00041579,4155.1,0.00014428,84.529,0.00013297,-0.44286,-0.0004143,-4112.4,0.22898
11827,5.8061,5.2727,0,0.00042184,4215.5,0.00014512,70.572,0.00013565,-0.61273,-0.00042061,-4180.1,0.23778
11828,5.7138,5.2727,0.05,1.807e-06,18.058,1.3876e-06,10.426,-1.8138e-11,-0.00018746,-1.3876e-06,-10.426,0.22951
11829,5.7138,5.5455,0,0.00040832,4080.4,0.0001416,82.116,0.00013064,-0.25699,-0.00040686,-4038.8,0.22777
11830,5.8061,5.4545,0,0.00041484,4145.5,0.00014335,77.34,0.00013303,-0.26299,-0.00041347,-4106.4,0.23663
11831,5.7138,5.4545,0.05,1.8632e-06,18.62,1.4307e-06,10.75,-6.8646e-12,-9.0966e-05,-1.4307e-06,-10.75,0.22834
11832,5.7138,5.7273,0,0.00040189,4016.2,0.00013799,64.389,0.00012942,-0.050898,-0.00040076,-3983.6,0.22646
11833,5.8061,5.6364,0,0.0004086,4083.2,0.00014062,69.284,0.00013137,-0.22999,-0.00040738,-4048.2,0.23538
11834,5.7138,5.6364,0.05,2.0096e-06,20.082,1.5431e-06,11.594,6.281e-12,-1.2425e-05,-1.5431e-06,-11.595,0.22708
11835,5.8061,5.8182,0,0.00040334,4030.6,0.00013699,46.675,0.00013079,0.098817,-0.00040252,-4007,0.23404
11836,5.7138,5.8182,0.05,3.0467e-06,30.446,2.3395e-06,17.578,8.2209e-12,8.4886e-06,-2.3395e-06,-17.578,0.22573
11837,5.7138,5.9091,0,0.00039599,3957.2,0.0001331,28.978,0.00012924,0.0029037,-0.00039549,-3942.6,0.22507
11838,5.8985,0.27273,0,0.00041007,4097.9,0.00013964,51.752,0.00013275,-0.047046,-0.00040917,-4071.8,0.24305
11839,5.9908,0.18182,0,0.00041065,4103.7,0.00013863,37.361,0.00013367,0.06615,-0.00041,-4084.8,0.25077
11840,5.8985,0.18182,0.05,2.35e-06,23.484,1.8045e-06,13.559,-8.0665e-12,-7.2811e-06,-1.8045e-06,-13.558,0.24233
11841,5.8985,0.090909,0,0.00040536,4050.8,0.00013573,23.501,0.00013261,0.010796,-0.00040496,-4039,0.24167
11842,5.8985,0.45455,0,0.00041516,4148.8,0.00014241,64.769,0.00013377,-0.2102,-0.00041403,-4116.1,0.24433
11843,5.9908,0.36364,0,0.00041483,4145.4,0.00014147,54.767,0.00013416,-0.18848,-0.00041387,-4117.9,0.25209
11844,5.8985,0.36364,0.05,1.4312e-06,14.302,1.099e-06,8.2573,-5.7819e-12,1.6999e-05,-1.099e-06,-8.2571,0.24366
11845,5.8985,0.63636,0,0.00042095,4206.6,0.00014424,63.721,0.00013571,-0.38959,-0.00041983,-4174.5,0.24552
11846,5.9908,0.54545,0,0.00041967,4193.9,0.00014343,59.043,0.00013554,-0.22683,-0.00041864,-4164.1,0.25332
11847,5.8985,0.54545,0.05,1.3261e-06,13.252,1.0183e-06,7.6513,4.8433e-12,0.00011753,-1.0183e-06,-7.6511,0.24489
11848,5.8985,0.81818,0,0.00042728,4269.8,0.00014514,49.016,0.00013849,-0.91742,-0.00042644,-4245.6,0.24662
11849,5.9908,0.72727,0,0.000425,4247.1,0.00014445,49.961,0.00013772,-0.58676,-0.00042414,-4222.2,0.25446
11850,5.8985,0.72727,0.05,1.3271e-06,13.261,1.019e-06,7.6565,2.3406e-11,0.00030412,-1.019e-06,-7.6564,0.24604
11851,5.8985,1,0,0.00043403,4337.3,0.00014527,22.74,0.00014185,-2.961,-0.00043369,-4327.3,0.24762
11852,5.9908,0.90909,0,0.00043072,4304.3,0.00014463,28.847,0.00014057,-1.6441,-0.00043025,-4290.6,0.25549
11853,5.8985,0.90909,0.05,1.4015e-06,14.005,1.0761e-06,8.0857,4.4212e-11,0.00042293,-1.0762e-06,-8.0857,0.24709
11854,5.8985,1.1818,0,0.00044104,4407.4,0.00014706,3.7205,0.00014333,-24.264,-0.00044139,-4417.6,0.24853
11855,5.9908,1.0909,0,0.00043671,4364.1,0.00014518,5.4886,0.00014282,-12.272,-0.00043682,-4367.4,0.25644
11856,5.8985,1.0909,0.05,1.5551e-06,15.541,1.1941e-06,8.9724,4.6936e-11,0.00039092,-1.1942e-06,-8.9725,0.24804
11857,5.8985,1.3636,0,0.00044815,4478.4,0.00015161,1.526,0.00014172,-72.754,-0.00044931,-4513.6,0.24934
11858,5.9908,1.2727,0,0.00044282,4425.1,0.00014888,1.6389,0.00014162,-52.859,-0.00044366,-4450.5,0.25729
11859,5.8985,1.2727,0.05,1.78e-06,17.788,1.3668e-06,10.27,3.9638e-11,0.00039732,-1.3668e-06,-10.27,0.2489
11860,5.8985,1.5455,0,0.00045518,4548.6,0.00015672,0.96828,0.00013918,-130.85,-0.00045724,-4612.1,0.25006
11861,5.9908,1.4545,0,0.0004489,4485.9,0.0001534,0.97749,0.00013927,-105.13,-0.00045058,-4537,0.25805
11862,5.8985,1.4545,0.05,2.0551e-06,20.537,1.5781e-06,11.857,3.8484e-11,0.00031173,-1.5781e-06,-11.857,0.24967
11863,5.8985,1.7273,0,0.00046198,4616.6,0.00016202,0.69596,0.00013611,-193.99,-0.00046496,-4710.1,0.25069
11864,5.9908,1.6364,0,0.00045483,4545.2,0.00015818,0.6931,0.00013631,-163.62,-0.00045738,-4624.4,0.25872
11865,5.8985,1.6364,0.05,2.3554e-06,23.537,1.8086e-06,13.589,2.497e-11,0.00028033,-1.8086e-06,-13.589,0.25035
11866,5.8985,1.9091,0,0.00046842,4680.9,0.00016723,0.52433,0.0001328,-258.15,-0.00047226,-4804.4,0.25123
11867,5.9908,1.8182,0,0.00046049,4601.7,0.000163,0.52127,0.00013302,-224.75,-0.00046389,-4709.7,0.25929
11868,5.8985,1.8182,0.05,2.6582e-06,26.564,2.0412e-06,15.337,1.7904e-11,0.0002158,-2.0412e-06,-15.337,0.25093
11869,5.8985,2.0909,0,0.00047436,4740.3,0.00017212,0.40578,0.00012958,-319.23,-0.00047898,-4891.7,0.25168
11870,5.9908,2,0,0.00046577,4654.5,0.00016763,0.40194,0.00012967,-284.76,-0.00046995,-4790.1,0.25978
11871,5.8985,2,0.05,2.947e-06,29.45,2.263e-06,17.003,1.0011e-11,0.00016647,-2.263e-06,-17.003,0.25142
11872,5.8985,2.2727,0,0.00047965,4793.2,0.00017645,0.32427,0.0001267,-373.51,-0.0004849,-4968.8,0.25205
11873,5.9908,2.1818,0,0.00047055,4702.3,0.00017185,0.31659,0.00012655,-340.01,-0.00047541,-4862.9,0.26019
11874,5.8985,2.1818,0.05,3.2105e-06,32.082,2.4652e-06,18.523,7.4741e-12,0.00012956,-2.4652e-06,-18.523,0.25183
11875,5.8985,2.4545,0,0.00048409,4837.5,0.00018003,0.27169,0.00012436,-418.03,-0.00048984,-5032.8,0.25233
11876,5.9908,2.3636,0,0.0004747,4743.7,0.00017547,0.25789,0.00012388,-387.35,-0.00048009,-4925.4,0.26051
11877,5.8985,2.3636,0.05,3.4395e-06,34.372,2.6411e-06,19.845,7.0024e-13,7.6572e-05,-2.6411e-06,-19.844,0.25216
11878,5.8985,2.6364,0,0.00048747,4871.3,0.0001827,0.24123,0.00012267,-450.82,-0.00049356,-5080.9,0.25254
11879,5.9908,2.5455,0,0.00047803,4777,0.00017832,0.22073,0.00012181,-424.44,-0.00048383,-4974.9,0.26075
11880,5.8985,2.5455,0.05,3.625e-06,36.225,2.7835e-06,20.914,4.1445e-13,4.4311e-05,-2.7835e-06,-20.914,0.2524
11881,5.8985,2.8182,0,0.00048959,4892.5,0.00018434,0.22636,0.00012165,-470.8,-0.00049589,-5110.8,0.25266
11882,5.9908,2.7273,0,0.00048038,4800.5,0.0001803,0.20002,0.00012041,-449.79,-0.00048644,-5009.4,0.2609
11883,5.8985,2.7273,0.05,3.7566e-06,37.54,2.8846e-06,21.674,-6.9377e-13,2.7598e-05,-2.8846e-06,-21.674,0.25256
11884,5.8985,3,0,0.00049032,4899.8,0.0001849,0.22205,0.00012132,-477.5,-0.00049669,-5120.9,0.2527
11885,5.9908,2.9091,0,0.00048159,4812.6,0.0001813,0.1911,0.00011971,-462.61,-0.00048779,-5027.1,0.26098
11886,5.8985,2.9091,0.05,3.8252e-06,38.226,2.9373e-06,22.07,-7.8713e-13,8.1574e-06,-2.9373e-06,-22.07,0.25264
11887,5.8985,3.1818,0,0.00048959,4892.5,0.00018434,0.22636,0.00012165,-470.8,-0.00049589,-5110.8,0.25266
11888,5.9908,3.0909,0,0.00048159,4812.6,0.0001813,0.1911,0.00011971,-462.61,-0.00048779,-5027.1,0.26098
11889,5.8985,3.0909,0.05,3.8252e-06,38.226,2.9373e-06,22.07,-1.0106e-12,-8.2228e-06,-2.9373e-06,-22.07,0.25264
11890,5.8985,3.3636,0,0.00048747,4871.3,0.0001827,0.24123,0.00012267,-450.82,-0.00049356,-5080.9,0.25254
11891,5.9908,3.2727,0,0.00048038,4800.5,0.0001803,0.20002,0.00012041,-449.79,-0.00048644,-5009.4,0.2609
11892,5.8985,3.2727,0.05,3.7566e-06,37.54,2.8846e-06,21.674,-1.1868e-12,-2.5008e-05,-2.8846e-06,-21.674,0.25256
11893,5.8985,3.5455,0,0.00048409,4837.5,0.00018003,0.27169,0.00012436,-418.03,-0.00048984,-5032.8,0.25233
11894,5.9908,3.4545,0,0.00047803,4777,0.00017832,0.22073,0.00012181,-424.44,-0.00048383,-4974.9,0.26075
11895,5.8985,3.4545,0.05,3.625e-06,36.225,2.7835e-06,20.914,-2.3352e-12,-4.9366e-05,-2.7835e-06,-20.914,0.2524
11896,5.8985,3.7273,0,0.00047965,4793.2,0.00017645,0.32427,0.0001267,-373.51,-0.0004849,-4968.8,0.25205
11897,5.9908,3.6364,0,0.0004747,4743.7,0.00017547,0.25789,0.00012388,-387.35,-0.00048009,-4925.4,0.26051
11898,5.8985,3.6364,0.05,3.4395e-06,34.372,2.6411e-06,19.844,-1.5763e-12,-7.6804e-05,-2.6411e-06,-19.844,0.25216
11899,5.8985,3.9091,0,0.00047436,4740.3,0.00017212,0.40578,0.00012958,-319.23,-0.00047898,-4891.7,0.25168
11900,5.9908,3.8182,0,0.00047055,4702.3,0.00017185,0.31659,0.00012655,-340.01,-0.00047541,-4862.9,0.26019
11901,5.8985,3.8182,0.05,3.2105e-06,32.082,2.4652e-06,18.523,-5.9734e-12,-0.00010303,-2.4652e-06,-18.523,0.25183
11902,5.8985,4.0909,0,0.00046842,4680.9,0.00016723,0.52433,0.0001328,-258.15,-0.00047226,-4804.4,0.25123
11903,5.9908,4,0,0.00046577,4654.5,0.00016763,0.40194,0.00012967,-284.76,-0.00046995,-4790.1,0.25978
11904,5.8985,4,0.05,2.947e-06,29.45,2.263e-06,17.003,-1.3542e-11,-0.00012684,-2.263e-06,-17.003,0.25142
11905,5.8985,4.2727,0,0.00046198,4616.6,0.00016202,0.69596,0.00013611,-193.99,-0.00046496,-4710.1,0.25069
11906,5.9908,4.1818,0,0.00046049,4601.7,0.000163,0.52127,0.00013302,-224.75,-0.00046389,-4709.7,0.25929
11907,5.8985,4.1818,0.05,2.6582e-06,26.564,2.0412e-06,15.337,-1.9829e-11,-0.00018907,-2.0412e-06,-15.337,0.25093
11908,5.8985,4.4545,0,0.00045518,4548.6,0.00015672,0.96828,0.00013918,-130.85,-0.00045724,-4612.1,0.25006
11909,5.9908,4.3636,0,0.00045483,4545.2,0.00015818,0.6931,0.00013631,-163.62,-0.00045738,-4624.4,0.25872
11910,5.8985,4.3636,0.05,2.3554e-06,23.537,1.8086e-06,13.589,-2.5083e-11,-0.00028711,-1.8086e-06,-13.589,0.25035
11911,5.8985,4.6364,0,0.00044815,4478.4,0.00015161,1.526,0.00014172,-72.754,-0.00044931,-4513.6,0.24934
11912,5.9908,4.5455,0,0.0004489,4485.9,0.0001534,0.97749,0.00013927,-105.13,-0.00045058,-4537,0.25805
11913,5.8985,4.5455,0.05,2.0551e-06,20.537,1.5781e-06,11.857,-3.228e-11,-0.00031785,-1.5781e-06,-11.857,0.24967
11914,5.8985,4.8182,0,0.00044104,4407.4,0.00014706,3.7205,0.00014333,-24.264,-0.00044139,-4417.6,0.24853
11915,5.9908,4.7273,0,0.00044282,4425.1,0.00014888,1.6389,0.00014162,-52.859,-0.00044366,-4450.5,0.25729
11916,5.8985,4.7273,0.05,1.78e-06,17.788,1.3668e-06,10.27,-3.9797e-11,-0.00039774,-1.3668e-06,-10.27,0.2489
11917,5.8985,5,0,0.00043403,4337.3,0.00014527,22.74,0.00014185,-2.961,-0.00043369,-4327.3,0.24762
11918,5.9908,4.9091,0,0.00043671,4364.1,0.00014518,5.4887,0.00014282,-12.272,-0.00043682,-4367.4,0.25644
11919,5.8985,4.9091,0.05,1.5551e-06,15.541,1.1942e-06,8.9725,-4.3085e-11,-0.00033018,-1.1941e-06,-8.9724,0.24804
11920,5.8985,5.1818,0,0.00042728,4269.8,0.00014514,49.016,0.00013849,-0.91742,-0.00042644,-4245.6,0.24662
11921,5.9908,5.0909,0,0.00043072,4304.3,0.00014463,28.847,0.00014057,-1.6441,-0.00043025,-4290.6,0.25549
11922,5.8985,5.0909,0.05,1.4015e-06,14.005,1.0762e-06,8.0857,-4.385e-11,-0.0004212,-1.0761e-06,-8.0857,0.24709
11923,5.8985,5.3636,0,0.00042095,4206.6,0.00014424,63.721,0.00013571,-0.38959,-0.00041983,-4174.5,0.24552
11924,5.9908,5.2727,0,0.000425,4247.1,0.00014445,49.961,0.00013772,-0.58676,-0.00042414,-4222.2,0.25446
11925,5.8985,5.2727,0.05,1.3271e-06,13.261,1.019e-06,7.6564,-2.3887e-11,-0.00029957,-1.019e-06,-7.6565,0.24604
11926,5.8985,5.5455,0,0.00041516,4148.8,0.00014241,64.769,0.00013377,-0.2102,-0.00041403,-4116.1,0.24433
11927,5.9908,5.4545,0,0.00041968,4193.9,0.00014343,59.043,0.00013554,-0.22683,-0.00041864,-4164.1,0.25332
11928,5.8985,5.4545,0.05,1.3261e-06,13.252,1.0183e-06,7.6511,-5.5133e-12,-0.0001003,-1.0183e-06,-7.6512,0.24489
11929,5.8985,5.7273,0,0.00041007,4097.9,0.00013964,51.752,0.00013275,-0.047048,-0.00040917,-4071.8,0.24305
11930,5.9908,5.6364,0,0.00041483,4145.4,0.00014147,54.767,0.00013416,-0.18848,-0.00041387,-4117.9,0.25209
11931,5.8985,5.6364,0.05,1.4312e-06,14.302,1.099e-06,8.2571,7.6894e-12,-1.3035e-05,-1.099e-06,-8.2573,0.24366
11932,5.9908,5.8182,0,0.00041065,4103.7,0.00013863,37.361,0.00013367,0.066148,-0.00041,-4084.8,0.25077
11933,5.8985,5.8182,0.05,2.35e-06,23.484,1.8045e-06,13.558,1.1618e-11,8.0873e-06,-1.8045e-06,-13.559,0.24233
11934,5.8985,5.9091,0,0.00040536,4050.8,0.00013573,23.501,0.00013261,0.010795,-0.00040496,-4039,0.24167
11935,6.0832,0.27273,0,0.00041542,4151.4,0.00014047,40.469,0.00013508,-0.042147,-0.00041472,-4131,0.25991
11936,6.1755,0.18182,0,0.00041534,4150.5,0.0001395,29.286,0.00013561,0.044836,-0.00041483,-4135.8,0.26778
11937,6.0832,0.18182,0.05,1.7743e-06,17.731,1.3624e-06,10.237,-1.3306e-11,-5.782e-06,-1.3624e-06,-10.237,0.2592
11938,6.0832,0.090909,0,0.00041174,4114.5,0.00013743,18.698,0.00013495,0.021175,-0.00041142,-4105.1,0.25855
11939,6.0832,0.45455,0,0.00041937,4190.8,0.0001425,49.186,0.00013593,-0.17818,-0.00041851,-4166.1,0.26118
11940,6.1755,0.36364,0,0.00041857,4182.8,0.00014162,41.814,0.00013604,-0.15481,-0.00041784,-4161.8,0.26909
11941,6.0832,0.36364,0.05,9.5886e-07,9.582,7.363e-07,5.5323,-8.0721e-12,2.345e-05,-7.3628e-07,-5.5321,0.26051
11942,6.0832,0.63636,0,0.00042377,4234.7,0.00014365,45.446,0.00013755,-0.3696,-0.00042298,-4212,0.26235
11943,6.1755,0.54545,0,0.00042225,4219.6,0.00014293,42.877,0.0001372,-0.21164,-0.00042151,-4198.1,0.2703
11944,6.0832,0.54545,0.05,9.0255e-07,9.0192,6.9304e-07,5.2074,1.2503e-11,0.00019114,-6.9305e-07,-5.2072,0.26173
11945,6.0832,0.81818,0,0.00042849,4281.9,0.00014394,29.778,0.00013984,-1.0447,-0.00042799,-4267.5,0.26343
11946,6.1755,0.72727,0,0.00042623,4259.4,0.00014338,32.282,0.000139,-0.62622,-0.00042568,-4243.5,0.27142
11947,6.0832,0.72727,0.05,9.6753e-07,9.6686,7.4293e-07,5.5822,3.1912e-11,0.00028814,-7.4296e-07,-5.5822,0.26286
11948,6.0832,1,0,0.00043344,4331.4,0.00014397,7.3544,0.00014213,-6.4369,-0.00043343,-4331,0.26441
11949,6.1755,0.90909,0,0.00043043,4301.3,0.0001432,12.217,0.00014121,-2.7301,-0.00043026,-4296.5,0.27244
11950,6.0832,0.90909,0.05,1.1075e-06,11.067,8.5037e-07,6.3894,4.2835e-11,0.00038868,-8.504e-07,-6.3895,0.26389
11951,6.0832,1.1818,0,0.00043852,4382.1,0.00014677,1.6483,0.00014138,-38.826,-0.00043914,-4400.6,0.2653
11952,6.1755,1.0909,0,0.00043474,4344.4,0.00014485,1.9273,0.00014129,-24.809,-0.00043513,-4355.8,0.27337
11953,6.0832,1.0909,0.05,1.3064e-06,13.055,1.0031e-06,7.5371,4.2979e-11,0.00042214,-1.0031e-06,-7.5371,0.26482
11954,6.0832,1.3636,0,0.0004436,4432.9,0.00015065,0.93127,0.00013923,-84.81,-0.00044496,-4474.2,0.2661
11955,6.1755,1.2727,0,0.00043909,4387.9,0.00014819,0.94995,0.00013941,-65.006,-0.00044014,-4419.5,0.2742
11956,6.0832,1.2727,0.05,1.5453e-06,15.442,1.1866e-06,8.9156,3.7331e-11,0.00035311,-1.1866e-06,-8.9157,0.26567
11957,6.0832,1.5455,0,0.00044858,4482.7,0.00015485,0.65562,0.00013645,-137.62,-0.00045075,-4549.6,0.2668
11958,6.1755,1.4545,0,0.00044337,4430.6,0.00015192,0.64966,0.00013682,-112.83,-0.00044517,-4485.6,0.27495
11959,6.0832,1.4545,0.05,1.8054e-06,18.042,1.3863e-06,10.416,2.6763e-11,0.00023065,-1.3864e-06,-10.416,0.26642
11960,6.0832,1.7273,0,0.00045336,4530.5,0.00015916,0.49551,0.00013326,-194.15,-0.00045634,-4624.2,0.26742
11961,6.1755,1.6364,0,0.0004475,4471.9,0.00015583,0.48881,0.00013376,-165.37,-0.00045008,-4552.1,0.2756
11962,6.0832,1.6364,0.05,2.07e-06,20.686,1.5895e-06,11.943,2.1162e-11,0.0002172,-1.5895e-06,-11.943,0.26708
11963,6.0832,1.9091,0,0.00045785,4575.4,0.00016339,0.38434,0.00012991,-251.18,-0.0004616,-4695.6,0.26794
11964,6.1755,1.8182,0,0.00045142,4511,0.00015975,0.37976,0.00013045,-219.76,-0.00045474,-4616.7,0.27617
11965,6.0832,1.8182,0.05,2.3257e-06,23.241,1.7858e-06,13.418,1.4552e-11,0.00016797,-1.7858e-06,-13.418,0.26765
11966,6.0832,2.0909,0,0.00046197,4616.5,0.00016735,0.30224,0.00012667,-305.4,-0.0004664,-4761.5,0.26839
11967,6.1755,2,0,0.00045504,4547.2,0.0001635,0.29836,0.00012714,-272.95,-0.00045906,-4677.4,0.27665
11968,6.0832,2,0.05,2.5625e-06,25.608,1.9677e-06,14.785,7.2524e-12,0.00013281,-1.9677e-06,-14.785,0.26813
11969,6.0832,2.2727,0,0.00046561,4652.9,0.00017086,0.24215,0.00012374,-353.76,-0.00047061,-4819.5,0.26874
11970,6.1755,2.1818,0,0.00045829,4579.7,0.00016692,0.23668,0.00012404,-321.96,-0.00046291,-4732.1,0.27704
11971,6.0832,2.1818,0.05,2.7737e-06,27.718,2.1299e-06,16.003,7.6447e-12,9.1055e-05,-2.1299e-06,-16.003,0.26853
11972,6.0832,2.4545,0,0.00046864,4683.2,0.00017376,0.20053,0.00012133,-393.72,-0.00047409,-4867.5,0.26902
11973,6.1755,2.3636,0,0.00046108,4607.7,0.00016986,0.19161,0.00012136,-364.16,-0.00046619,-4778.8,0.27736
11974,6.0832,2.3636,0.05,2.9537e-06,29.516,2.2681e-06,17.041,4.7011e-12,5.8739e-05,-2.268e-06,-17.041,0.26885
11975,6.0832,2.6364,0,0.00047093,4706.1,0.00017592,0.17429,0.00011955,-423.42,-0.0004767,-4903.4,0.26922
11976,6.1755,2.5455,0,0.00046332,4630,0.00017217,0.16102,0.00011925,-397.46,-0.00046879,-4815.8,0.27759
11977,6.0832,2.5455,0.05,3.0967e-06,30.946,2.3779e-06,17.867,8.4752e-13,4.3945e-05,-2.3779e-06,-17.867,0.26908
11978,6.0832,2.8182,0,0.00047237,4720.4,0.00017726,0.16023,0.00011846,-441.65,-0.00047832,-4925.6,0.26933
11979,6.1755,2.7273,0,0.00046488,4645.6,0.00017377,0.14258,0.0001178,-420.39,-0.0004706,-4841.4,0.27775
11980,6.0832,2.7273,0.05,3.1969e-06,31.946,2.4548e-06,18.444,-1.1403e-12,2.0117e-05,-2.4548e-06,-18.444,0.26924
11981,6.0832,3,0,0.00047286,4725.3,0.00017771,0.15587,0.00011809,-447.79,-0.00047888,-4933.2,0.26937
11982,6.1755,2.9091,0,0.00046569,4653.7,0.00017459,0.13405,0.00011707,-432.06,-0.00047153,-4854.6,0.27782
11983,6.0832,2.9091,0.05,3.2486e-06,32.463,2.4945e-06,18.743,2.7346e-13,6.6661e-06,-2.4945e-06,-18.743,0.26932
11984,6.0832,3.1818,0,0.00047237,4720.4,0.00017726,0.16023,0.00011846,-441.65,-0.00047832,-4925.6,0.26933
11985,6.1755,3.0909,0,0.00046569,4653.7,0.00017459,0.13405,0.00011707,-432.06,-0.00047153,-4854.6,0.27782
11986,6.0832,3.0909,0.05,3.2486e-06,32.463,2.4945e-06,18.743,-2.7965e-13,-1.0534e-05,-2.4945e-06,-18.743,0.26932
11987,6.0832,3.3636,0,0.00047093,4706.1,0.00017592,0.17429,0.00011955,-423.42,-0.0004767,-4903.4,0.26922
11988,6.1755,3.2727,0,0.00046488,4645.6,0.00017377,0.14258,0.0001178,-420.39,-0.0004706,-4841.4,0.27775
11989,6.0832,3.2727,0.05,3.1969e-06,31.946,2.4548e-06,18.444,-7.0334e-13,-2.4447e-05,-2.4548e-06,-18.444,0.26924
11990,6.0832,3.5455,0,0.00046864,4683.2,0.00017376,0.20053,0.00012133,-393.72,-0.00047409,-4867.5,0.26902
11991,6.1755,3.4545,0,0.00046332,4630,0.00017217,0.16102,0.00011925,-397.46,-0.00046879,-4815.8,0.27759
11992,6.0832,3.4545,0.05,3.0967e-06,30.946,2.3779e-06,17.867,-1.6533e-12,-3.6722e-05,-2.3779e-06,-17.867,0.26908
11993,6.0832,3.7273,0,0.00046561,4652.9,0.00017086,0.24215,0.00012374,-353.76,-0.00047061,-4819.5,0.26874
11994,6.1755,3.6364,0,0.00046108,4607.7,0.00016986,0.19161,0.00012136,-364.16,-0.00046619,-4778.8,0.27736
11995,6.0832,3.6364,0.05,2.9537e-06,29.516,2.2681e-06,17.041,-1.4611e-12,-5.89e-05,-2.268e-06,-17.041,0.26885
11996,6.0832,3.9091,0,0.00046197,4616.5,0.00016735,0.30224,0.00012667,-305.4,-0.0004664,-4761.5,0.26839
11997,6.1755,3.8182,0,0.00045829,4579.7,0.00016692,0.23668,0.00012404,-321.96,-0.00046291,-4732.1,0.27704
11998,6.0832,3.8182,0.05,2.7737e-06,27.718,2.1299e-06,16.003,-2.325e-12,-0.00010091,-2.1299e-06,-16.003,0.26853
11999,6.0832,4.0909,0,0.00045785,4575.4,0.00016339,0.38434,0.00012991,-251.18,-0.0004616,-4695.6,0.26794
12000,6.1755,4,0,0.00045504,4547.2,0.0001635,0.29836,0.00012714,-272.95,-0.00045906,-4677.4,0.27665
12001,6.0832,4,0.05,2.5625e-06,25.608,1.9677e-06,14.785,-1.0313e-11,-0.00014166,-1.9677e-06,-14.785,0.26813
12002,6.0832,4.2727,0,0.00045336,4530.5,0.00015916,0.49551,0.00013326,-194.15,-0.00045634,-4624.2,0.26742
12003,6.1755,4.1818,0,0.00045142,4511,0.00015975,0.37976,0.00013045,-219.76,-0.00045474,-4616.7,0.27617
12004,6.0832,4.1818,0.05,2.3257e-06,23.241,1.7858e-06,13.418,-1.1761e-11,-0.00014548,-1.7858e-06,-13.418,0.26765
12005,6.0832,4.4545,0,0.00044858,4482.7,0.00015485,0.65562,0.00013645,-137.62,-0.00045075,-4549.6,0.2668
12006,6.1755,4.3636,0,0.0004475,4471.9,0.00015583,0.48881,0.00013376,-165.37,-0.00045008,-4552.1,0.2756
12007,6.0832,4.3636,0.05,2.07e-06,20.686,1.5895e-06,11.943,-1.8269e-11,-0.00022509,-1.5895e-06,-11.943,0.26708
12008,6.0832,4.6364,0,0.0004436,4432.9,0.00015065,0.93128,0.00013923,-84.81,-0.00044496,-4474.2,0.2661
12009,6.1755,4.5455,0,0.00044337,4430.6,0.00015192,0.64966,0.00013682,-112.83,-0.00044517,-4485.6,0.27495
12010,6.0832,4.5455,0.05,1.8054e-06,18.042,1.3863e-06,10.416,-2.5776e-11,-0.00023667,-1.3863e-06,-10.416,0.26642
12011,6.0832,4.8182,0,0.00043852,4382.1,0.00014677,1.6483,0.00014138,-38.826,-0.00043914,-4400.6,0.2653
12012,6.1755,4.7273,0,0.00043909,4387.9,0.00014819,0.94995,0.00013941,-65.006,-0.00044014,-4419.5,0.2742
12013,6.0832,4.7273,0.05,1.5453e-06,15.442,1.1866e-06,8.9157,-3.4257e-11,-0.000355,-1.1866e-06,-8.9156,0.26567
12014,6.0832,5,0,0.00043344,4331.4,0.00014397,7.3545,0.00014213,-6.4369,-0.00043343,-4331,0.26441
12015,6.1755,4.9091,0,0.00043474,4344.4,0.00014485,1.9273,0.00014129,-24.809,-0.00043513,-4355.8,0.27337
12016,6.0832,4.9091,0.05,1.3064e-06,13.055,1.0031e-06,7.5371,-2.8455e-11,-0.00042243,-1.0031e-06,-7.5371,0.26482
12017,6.0832,5.1818,0,0.00042849,4281.9,0.00014394,29.778,0.00013984,-1.0446,-0.00042799,-4267.5,0.26343
12018,6.1755,5.0909,0,0.00043043,4301.3,0.0001432,12.217,0.00014121,-2.7301,-0.00043026,-4296.5,0.27244
12019,6.0832,5.0909,0.05,1.1075e-06,11.067,8.504e-07,6.3895,-4.2737e-11,-0.00038574,-8.5037e-07,-6.3894,0.26389
12020,6.0832,5.3636,0,0.00042377,4234.7,0.00014365,45.446,0.00013755,-0.3696,-0.00042298,-4212,0.26235
12021,6.1755,5.2727,0,0.00042623,4259.4,0.00014338,32.282,0.000139,-0.62622,-0.00042568,-4243.5,0.27142
12022,6.0832,5.2727,0.05,9.6753e-07,9.6686,7.4296e-07,5.5822,-2.9017e-11,-0.00028427,-7.4293e-07,-5.5822,0.26286
12023,6.0832,5.5455,0,0.00041937,4190.8,0.0001425,49.186,0.00013593,-0.17818,-0.00041851,-4166.1,0.26118
12024,6.1755,5.4545,0,0.00042225,4219.6,0.00014293,42.877,0.0001372,-0.21164,-0.00042151,-4198.1,0.2703
12025,6.0832,5.4545,0.05,9.0255e-07,9.0192,6.9305e-07,5.2072,-1.3394e-11,-0.00018522,-6.9304e-07,-5.2074,0.26173
12026,6.0832,5.7273,0,0.00041542,4151.4,0.00014047,40.469,0.00013508,-0.042149,-0.00041472,-4131,0.25991
12027,6.1755,5.6364,0,0.00041857,4182.8,0.00014162,41.814,0.00013604,-0.15481,-0.00041784,-4161.8,0.26909
12028,6.0832,5.6364,0.05,9.5886e-07,9.582,7.3628e-07,5.5321,6.3562e-12,-2.022e-05,-7.363e-07,-5.5323,0.26051
12029,6.1755,5.8182,0,0.00041534,4150.5,0.0001395,29.286,0.00013561,0.044834,-0.00041483,-4135.8,0.26778
12030,6.0832,5.8182,0.05,1.7743e-06,17.731,1.3624e-06,10.237,9.6139e-12,6.4606e-06,-1.3624e-06,-10.237,0.2592
12031,6.0832,5.9091,0,0.00041174,4114.5,0.00013743,18.698,0.00013495,0.021174,-0.00041142,-4105.1,0.25855
12032,6.2679,0.27273,0,0.00041849,4182,0.00014066,30.666,0.00013658,-0.037171,-0.00041796,-4166.6,0.27706
12033,6.3602,0.18182,0,0.00041789,4176,0.00013978,22.435,0.00013679,0.031235,-0.0004175,-4164.7,0.28508
12034,6.2679,0.18182,0.05,1.3055e-06,13.046,1.0025e-06,7.5325,-1.3213e-11,-5.1343e-06,-1.0025e-06,-7.5322,0.27635
12035,6.2679,0.090909,0,0.00041566,4153.7,0.00013838,14.588,0.00013645,0.032336,-0.00041541,-4146.4,0.27571
12036,6.2679,0.45455,0,0.00042147,4211.8,0.00014206,35.574,0.0001373,-0.15969,-0.00042085,-4193.9,0.27831
12037,6.3602,0.36364,0,0.00042031,4200.2,0.00014126,30.577,0.00013717,-0.12941,-0.00041978,-4184.9,0.28637
12038,6.2679,0.36364,0.05,5.806e-07,5.802,4.4584e-07,3.3499,-4.8109e-12,5.3022e-05,-4.4582e-07,-3.3496,0.27765
12039,6.2679,0.63636,0,0.00042474,4244.4,0.00014267,29.754,0.00013865,-0.39165,-0.00042423,-4229.7,0.27946
12040,6.3602,0.54545,0,0.00042304,4227.5,0.00014203,28.955,0.00013815,-0.21997,-0.00042254,-4213,0.28756
12041,6.2679,0.54545,0.05,5.8867e-07,5.8827,4.5202e-07,3.3964,2.7254e-11,0.00026156,-4.5203e-07,-3.3963,0.27885
12042,6.2679,0.81818,0,0.00042819,4278.9,0.00014256,14.095,0.00014047,-1.5522,-0.00042797,-4272.6,0.28052
12043,6.3602,0.72727,0,0.00042594,4256.4,0.00014206,17.497,0.00013962,-0.81315,-0.00042565,-4248.1,0.28867
12044,6.2679,0.72727,0.05,7.243e-07,7.238,5.5616e-07,4.1788,3.7628e-11,0.0003184,-5.5619e-07,-4.1789,0.27996
12045,6.2679,1,0,0.00043174,4314.4,0.00014345,2.0723,0.00014101,-16.244,-0.00043198,-4321.5,0.28149
12046,6.3602,0.90909,0,0.00042894,4286.4,0.00014219,2.9854,0.00014074,-7.9658,-0.00042902,-4288.9,0.28968
12047,6.2679,0.90909,0.05,9.1562e-07,9.1499,7.0306e-07,5.2826,3.6612e-11,0.0002459,-7.031e-07,-5.2827,0.28098
12048,6.2679,1.1818,0,0.00043533,4350.3,0.00014623,0.90491,0.00013938,-50.525,-0.00043615,-4374.9,0.28237
12049,6.3602,1.0909,0,0.00043197,4316.7,0.00014442,0.94388,0.00013947,-36.289,-0.00043256,-4334.3,0.29059
12050,6.2679,1.0909,0.05,1.137e-06,11.362,8.7307e-07,6.56,3.2897e-11,0.00025478,-8.7309e-07,-6.56,0.2819
12051,6.2679,1.3636,0,0.00043887,4385.7,0.00014945,0.60855,0.00013702,-92.83,-0.00044037,-4431,0.28315
12052,6.3602,1.2727,0,0.00043497,4346.7,0.00014723,0.60095,0.00013734,-73.7,-0.00043617,-4382.8,0.29142
12053,6.2679,1.2727,0.05,1.3725e-06,13.716,1.0539e-06,7.9188,2.4472e-11,0.00019972,-1.0539e-06,-7.9188,0.28273
12054,6.2679,1.5455,0,0.0004423,4420,0.0001529,0.45912,0.00013415,-140.44,-0.00044451,-4488.3,0.28385
12055,6.3602,1.4545,0,0.00043789,4375.9,0.0001503,0.44874,0.00013467,-117,-0.00043976,-4433,0.29215
12056,6.2679,1.4545,0.05,1.6103e-06,16.092,1.2365e-06,9.2909,1.9366e-11,0.00015349,-1.2365e-06,-9.2909,0.28347
12057,6.2679,1.7273,0,0.00044556,4452.6,0.00015642,0.3596,0.00013097,-190.86,-0.0004485,-4544.7,0.28445
12058,6.3602,1.6364,0,0.00044068,4403.7,0.0001535,0.35223,0.00013163,-163.97,-0.00044323,-4483.2,0.29279
12059,6.2679,1.6364,0.05,1.8408e-06,18.396,1.4135e-06,10.621,1.4624e-11,0.00019182,-1.4135e-06,-10.621,0.28412
12060,6.2679,1.9091,0,0.0004486,4482.9,0.00015986,0.28455,0.00012769,-241.43,-0.00045221,-4598.6,0.28497
12061,6.3602,1.8182,0,0.00044328,4429.7,0.00015669,0.28008,0.00012841,-212.24,-0.0004465,-4531.9,0.29335
12062,6.2679,1.8182,0.05,2.0563e-06,20.549,1.579e-06,11.864,8.8976e-12,0.00012627,-1.579e-06,-11.864,0.28468
12063,6.2679,2.0909,0,0.00045135,4510.4,0.00016307,0.22579,0.00012452,-289.44,-0.00045557,-4648,0.2854
12064,6.3602,2,0,0.00044566,4453.5,0.00015974,0.22269,0.00012521,-259.28,-0.0004495,-4577.4,0.29383
12065,6.2679,2,0.05,2.2512e-06,22.497,1.7287e-06,12.989,9.064e-12,6.7166e-05,-1.7287e-06,-12.988,0.28516
12066,6.2679,2.2727,0,0.00045377,4534.5,0.00016592,0.18054,0.00012166,-332.32,-0.0004585,-4691.4,0.28576
12067,6.3602,2.1818,0,0.00044778,4474.7,0.00016252,0.17699,0.00012222,-302.6,-0.00045216,-4618.3,0.29422
12068,6.2679,2.1818,0.05,2.4214e-06,24.198,1.8594e-06,13.971,4.1245e-12,8.4453e-05,-1.8594e-06,-13.971,0.28555
12069,6.2679,2.4545,0,0.00045576,4554.5,0.00016827,0.14747,0.00011929,-367.88,-0.0004609,-4727.2,0.28603
12070,6.3602,2.3636,0,0.00044959,4492.8,0.0001649,0.14197,0.00011963,-340,-0.0004544,-4653,0.29453
12071,6.2679,2.3636,0.05,2.5637e-06,25.62,1.9686e-06,14.792,8.0778e-13,5.3694e-05,-1.9686e-06,-14.792,0.28586
12072,6.2679,2.6364,0,0.00045726,4569.5,0.00017002,0.12536,0.00011751,-394.44,-0.00046269,-4753.8,0.28622
12073,6.3602,2.5455,0,0.00045102,4507.1,0.00016678,0.11696,0.00011757,-369.61,-0.00045617,-4680.4,0.29476
12074,6.2679,2.5455,0.05,2.6749e-06,26.731,2.054e-06,15.433,1.7067e-13,3.324e-05,-2.054e-06,-15.433,0.28609
12075,6.2679,2.8182,0,0.0004582,4578.8,0.00017111,0.11285,0.00011642,-410.82,-0.0004638,-4770.3,0.28634
12076,6.3602,2.7273,0,0.00045202,4517.1,0.00016808,0.1011,0.00011615,-390.09,-0.00045739,-4699.4,0.29491
12077,6.2679,2.7273,0.05,2.7516e-06,27.497,2.1129e-06,15.876,-1.2237e-12,1.5216e-05,-2.1129e-06,-15.876,0.28625
12078,6.2679,3,0,0.00045852,4582,0.00017147,0.10883,0.00011605,-416.36,-0.00046418,-4775.9,0.28637
12079,6.3602,2.9091,0,0.00045253,4522.2,0.00016874,0.093466,0.00011542,-400.54,-0.00045801,-4709.1,0.29499
12080,6.2679,2.9091,0.05,2.7909e-06,27.89,2.1431e-06,16.102,-3.6636e-13,1.7007e-06,-2.1431e-06,-16.102,0.28632
12081,6.2679,3.1818,0,0.0004582,4578.8,0.00017111,0.11285,0.00011642,-410.82,-0.0004638,-4770.3,0.28634
12082,6.3602,3.0909,0,0.00045253,4522.2,0.00016874,0.093466,0.00011542,-400.54,-0.00045801,-4709.1,0.29499
12083,6.2679,3.0909,0.05,2.7909e-06,27.89,2.1431e-06,16.102,-1.447e-12,-9.205e-06,-2.1431e-06,-16.102,0.28632
12084,6.2679,3.3636,0,0.00045726,4569.5,0.00017002,0.12536,0.00011751,-394.44,-0.00046269,-4753.8,0.28622
12085,6.3602,3.2727,0,0.00045202,4517.1,0.00016808,0.1011,0.00011615,-390.09,-0.00045739,-4699.4,0.29491
12086,6.2679,3.2727,0.05,2.7516e-06,27.497,2.1129e-06,15.876,2.5673e-13,-2.3252e-05,-2.1129e-06,-15.876,0.28625
12087,6.2679,3.5455,0,0.00045576,4554.5,0.00016827,0.14747,0.00011929,-367.88,-0.0004609,-4727.2,0.28603
12088,6.3602,3.4545,0,0.00045102,4507.1,0.00016678,0.11696,0.00011757,-369.61,-0.00045617,-4680.4,0.29476
12089,6.2679,3.4545,0.05,2.6749e-06,26.731,2.054e-06,15.433,-1.7777e-12,-3.4168e-05,-2.054e-06,-15.433,0.28609
12090,6.2679,3.7273,0,0.00045377,4534.5,0.00016592,0.18054,0.00012166,-332.32,-0.0004585,-4691.4,0.28576
12091,6.3602,3.6364,0,0.00044959,4492.8,0.0001649,0.14197,0.00011963,-340,-0.0004544,-4653,0.29453
12092,6.2679,3.6364,0.05,2.5637e-06,25.62,1.9686e-06,14.792,-2.2244e-12,-6.3891e-05,-1.9686e-06,-14.792,0.28586
12093,6.2679,3.9091,0,0.00045135,4510.4,0.00016307,0.22579,0.00012452,-289.44,-0.00045557,-4648,0.2854
12094,6.3602,3.8182,0,0.00044778,4474.7,0.00016252,0.17699,0.00012222,-302.6,-0.00045216,-4618.3,0.29422
12095,6.2679,3.8182,0.05,2.4214e-06,24.198,1.8594e-06,13.971,-4.6957e-12,-6.1173e-05,-1.8594e-06,-13.971,0.28555
12096,6.2679,4.0909,0,0.0004486,4482.9,0.00015986,0.28455,0.00012769,-241.43,-0.00045221,-4598.6,0.28497
12097,6.3602,4,0,0.00044566,4453.5,0.00015974,0.22269,0.00012521,-259.27,-0.0004495,-4577.4,0.29383
12098,6.2679,4,0.05,2.2512e-06,22.497,1.7287e-06,12.988,-3.6412e-12,-6.9114e-05,-1.7287e-06,-12.989,0.28516
12099,6.2679,4.2727,0,0.00044556,4452.6,0.00015642,0.3596,0.00013097,-190.86,-0.0004485,-4544.7,0.28445
12100,6.3602,4.1818,0,0.00044328,4429.7,0.00015669,0.28008,0.00012841,-212.24,-0.0004465,-4531.9,0.29335
12101,6.2679,4.1818,0.05,2.0563e-06,20.549,1.579e-06,11.864,-7.93e-12,-0.00010634,-1.579e-06,-11.864,0.28468
12102,6.2679,4.4545,0,0.0004423,4420,0.0001529,0.45912,0.00013415,-140.44,-0.00044451,-4488.3,0.28385
12103,6.3602,4.3636,0,0.00044068,4403.7,0.0001535,0.35223,0.00013163,-163.97,-0.00044323,-4483.2,0.29279
12104,6.2679,4.3636,0.05,1.8408e-06,18.396,1.4135e-06,10.621,-1.4648e-11,-0.00019812,-1.4135e-06,-10.621,0.28412
12105,6.2679,4.6364,0,0.00043887,4385.7,0.00014945,0.60855,0.00013702,-92.83,-0.00044037,-4431,0.28315
12106,6.3602,4.5455,0,0.00043789,4375.9,0.0001503,0.44874,0.00013467,-117,-0.00043976,-4433,0.29215
12107,6.2679,4.5455,0.05,1.6103e-06,16.092,1.2365e-06,9.2909,-2.112e-11,-0.00011527,-1.2365e-06,-9.2909,0.28347
12108,6.2679,4.8182,0,0.00043533,4350.3,0.00014623,0.90491,0.00013938,-50.524,-0.00043615,-4374.9,0.28237
12109,6.3602,4.7273,0,0.00043497,4346.7,0.00014723,0.60095,0.00013734,-73.7,-0.00043617,-4382.8,0.29142
12110,6.2679,4.7273,0.05,1.3725e-06,13.716,1.0539e-06,7.9188,-2.5131e-11,-0.00020386,-1.0539e-06,-7.9188,0.28273
12111,6.2679,5,0,0.00043174,4314.4,0.00014345,2.0723,0.00014101,-16.244,-0.00043198,-4321.5,0.28149
12112,6.3602,4.9091,0,0.00043197,4316.7,0.00014442,0.94388,0.00013947,-36.289,-0.00043256,-4334.3,0.29059
12113,6.2679,4.9091,0.05,1.137e-06,11.362,8.7309e-07,6.56,-3.3178e-11,-0.000258,-8.7307e-07,-6.56,0.2819
12114,6.2679,5.1818,0,0.00042819,4278.9,0.00014256,14.095,0.00014047,-1.5522,-0.00042797,-4272.6,0.28052
12115,6.3602,5.0909,0,0.00042894,4286.4,0.00014219,2.9855,0.00014074,-7.9657,-0.00042902,-4288.9,0.28968
12116,6.2679,5.0909,0.05,9.1562e-07,9.1499,7.031e-07,5.2827,-4.0235e-11,-0.00024578,-7.0307e-07,-5.2826,0.28098
12117,6.2679,5.3636,0,0.00042474,4244.4,0.00014267,29.754,0.00013865,-0.39165,-0.00042423,-4229.7,0.27946
12118,6.3602,5.2727,0,0.00042594,4256.4,0.00014206,17.497,0.00013962,-0.81315,-0.00042565,-4248.1,0.28867
12119,6.2679,5.2727,0.05,7.243e-07,7.238,5.5618e-07,4.1789,-3.4209e-11,-0.00031711,-5.5616e-07,-4.1788,0.27996
12120,6.2679,5.5455,0,0.00042147,4211.8,0.00014206,35.574,0.0001373,-0.15969,-0.00042085,-4193.9,0.27831
12121,6.3602,5.4545,0,0.00042304,4227.5,0.00014203,28.955,0.00013815,-0.21997,-0.00042254,-4213,0.28756
12122,6.2679,5.4545,0.05,5.8867e-07,5.8827,4.5204e-07,3.3963,-2.2441e-11,-0.00029239,-4.5202e-07,-3.3964,0.27885
12123,6.2679,5.7273,0,0.00041849,4182,0.00014066,30.666,0.00013658,-0.037173,-0.00041796,-4166.6,0.27706
12124,6.3602,5.6364,0,0.00042031,4200.2,0.00014126,30.577,0.00013717,-0.12941,-0.00041978,-4184.9,0.28637
12125,6.2679,5.6364,0.05,5.806e-07,5.802,4.4582e-07,3.3496,4.8109e-12,-4.9586e-05,-4.4584e-07,-3.3499,0.27765
12126,6.3602,5.8182,0,0.00041789,4176,0.00013978,22.435,0.00013679,0.031233,-0.0004175,-4164.7,0.28508
12127,6.2679,5.8182,0.05,1.3055e-06,13.046,1.0025e-06,7.5322,1.3014e-11,5.8502e-06,-1.0025e-06,-7.5325,0.27635
12128,6.2679,5.9091,0,0.00041566,4153.7,0.00013838,14.588,0.00013645,0.032334,-0.00041541,-4146.4,0.27571
12129,6.4526,0.27273,0,0.00041971,4194.2,0.00014037,22.343,0.00013739,-0.033755,-0.00041933,-4183,0.29449
12130,6.545,0.18182,0,0.00041873,4184.4,0.00013958,16.733,0.00013735,0.021734,-0.00041844,-4176,0.30266
12131,6.4526,0.18182,0.05,9.2904e-07,9.284,7.134e-07,5.3603,-1.2965e-11,-2.947e-06,-7.1338e-07,-5.36,0.29379
12132,6.4526,0.090909,0,0.0004176,4173.1,0.00013874,11.143,0.00013726,0.043186,-0.00041741,-4167.5,0.29316
12133,6.4526,0.45455,0,0.00042189,4216,0.00014123,23.974,0.00013802,-0.15703,-0.00042148,-4204,0.29572
12134,6.545,0.36364,0,0.00042046,4201.7,0.00014052,21.06,0.0001377,-0.11397,-0.0004201,-4191.2,0.30393
12135,6.4526,0.36364,0.05,2.9423e-07,2.9402,2.2593e-07,1.6976,8.5234e-12,0.00015053,-2.2593e-07,-1.6974,0.29507
12136,6.4526,0.63636,0,0.00042425,4239.6,0.00014141,16.615,0.00013914,-0.50068,-0.00042397,-4231.5,0.29686
12137,6.545,0.54545,0,0.00042242,4221.3,0.00014085,17.259,0.00013852,-0.26923,-0.00042213,-4212.7,0.30512
12138,6.4526,0.54545,0.05,4.0143e-07,4.0115,3.0824e-07,2.316,3.6727e-11,0.00025471,-3.0826e-07,-2.3161,0.29626
12139,6.4526,0.81818,0,0.0004267,4264,0.00014133,3.5888,0.00014027,-4.365,-0.00042671,-4264.4,0.29791
12140,6.545,0.72727,0,0.00042446,4241.6,0.00014066,5.9903,0.00013963,-1.7101,-0.00042438,-4239.5,0.30621
12141,6.4526,0.72727,0.05,5.969e-07,5.9648,4.5833e-07,3.4438,3.1705e-11,0.00035871,-4.5835e-07,-3.4438,0.29736
12142,6.4526,1,0,0.00042917,4288.7,0.00014304,0.8973,0.00013932,-26.987,-0.00042961,-4301.7,0.29887
12143,6.545,0.90909,0,0.00042652,4262.3,0.0001417,0.97867,0.00013923,-17.575,-0.0004268,-4270.6,0.3072
12144,6.4526,0.90909,0.05,8.1083e-07,8.1027,6.2261e-07,4.6781,2.8813e-11,0.0003639,-6.2263e-07,-4.6781,0.29836
12145,6.4526,1.1818,0,0.00043162,4313.2,0.00014541,0.55486,0.00013744,-59.316,-0.00043259,-4342.3,0.29974
12146,6.545,1.0909,0,0.00042857,4282.8,0.00014372,0.54589,0.00013761,-45.363,-0.00042932,-4305,0.30811
12147,6.4526,1.0909,0.05,1.0305e-06,10.298,7.9132e-07,5.9457,1.8179e-11,0.00030451,-7.9133e-07,-5.9457,0.29927
12148,6.4526,1.3636,0,0.000434,4337,0.00014807,0.4153,0.000135,-97.781,-0.00043557,-4384.8,0.30051
12149,6.545,1.2727,0,0.00043056,4302.6,0.00014604,0.40145,0.0001354,-79.603,-0.00043185,-4341.7,0.30893
12150,6.4526,1.2727,0.05,1.2488e-06,12.479,9.5891e-07,7.205,1.5815e-11,0.00025077,-9.5893e-07,-7.2049,0.30009
12151,6.4526,1.5455,0,0.00043626,4359.6,0.0001509,0.32903,0.00013216,-140.47,-0.00043848,-4428,0.30119
12152,6.545,1.4545,0,0.00043245,4321.6,0.00014857,0.31841,0.00013275,-118.57,-0.00043434,-4379.5,0.30965
12153,6.4526,1.4545,0.05,1.4596e-06,14.586,1.1208e-06,8.4214,8.6875e-12,0.00016575,-1.1208e-06,-8.4213,0.30082
12154,6.4526,1.7273,0,0.00043839,4380.9,0.00015377,0.26453,0.00012907,-185.3,-0.00044124,-4470.4,0.30179
12155,6.545,1.6364,0,0.00043423,4339.3,0.00015119,0.25778,0.0001298,-160.42,-0.00043673,-4417.1,0.31029
12156,6.4526,1.6364,0.05,1.6577e-06,16.566,1.2729e-06,9.5644,7.9545e-12,0.00013438,-1.2729e-06,-9.5643,0.30146
12157,6.4526,1.9091,0,0.00044034,4400.3,0.00015657,0.21222,0.00012593,-230.04,-0.0004438,-4510.7,0.3023
12158,6.545,1.8182,0,0.00043586,4355.6,0.0001538,0.20842,0.00012673,-203.15,-0.00043895,-4453.5,0.31084
12159,6.4526,1.8182,0.05,1.8387e-06,18.375,1.4119e-06,10.609,1.9946e-12,8.7809e-05,-1.4119e-06,-10.609,0.30202
12160,6.4526,2.0909,0,0.00044209,4417.8,0.00015919,0.16912,0.00012291,-272.41,-0.00044609,-4547.6,0.30273
12161,6.545,2,0,0.00043733,4370.3,0.00015628,0.16689,0.0001237,-244.64,-0.00044097,-4487.4,0.31131
12162,6.4526,2,0.05,1.9993e-06,19.98,1.5352e-06,11.535,4.676e-12,7.6281e-05,-1.5352e-06,-11.535,0.30249
12163,6.4526,2.2727,0,0.0004436,4433,0.0001615,0.13446,0.00012019,-310.26,-0.00044806,-4579.9,0.30308
12164,6.545,2.1818,0,0.00043862,4383.2,0.00015854,0.13237,0.00012088,-282.82,-0.00044274,-4517.7,0.3117
12165,6.4526,2.1818,0.05,2.1372e-06,21.357,1.6411e-06,12.331,3.5883e-13,5.0848e-05,-1.6411e-06,-12.331,0.30288
12166,6.4526,2.4545,0,0.00044485,4445.4,0.00016341,0.10806,0.00011791,-341.72,-0.00044967,-4606.3,0.30335
12167,6.545,2.3636,0,0.00043971,4394,0.00016047,0.1049,0.00011843,-315.78,-0.00044422,-4543.4,0.312
12168,6.4526,2.3636,0.05,2.2506e-06,22.49,1.7282e-06,12.985,-2.1279e-13,4.7397e-05,-1.7281e-06,-12.985,0.30319
12169,6.4526,2.6364,0,0.00044577,4454.7,0.00016483,0.089697,0.00011621,-365.26,-0.00045086,-4626,0.30354
12170,6.545,2.5455,0,0.00044056,4402.6,0.000162,0.084543,0.00011648,-341.94,-0.00044538,-4563.5,0.31223
12171,6.4526,2.5455,0.05,2.3378e-06,23.362,1.7951e-06,13.488,5.4361e-13,3.2823e-05,-1.7951e-06,-13.488,0.30342
12172,6.4526,2.8182,0,0.00044635,4460.4,0.00016571,0.078949,0.00011515,-379.82,-0.00045159,-4638.1,0.30366
12173,6.545,2.7273,0,0.00044115,4408.5,0.00016306,0.071198,0.00011513,-360.06,-0.00044617,-4577.4,0.31238
12174,6.4526,2.7273,0.05,2.3972e-06,23.955,1.8407e-06,13.831,-1.0829e-12,1.4176e-05,-1.8407e-06,-13.831,0.30357
12175,6.4526,3,0,0.00044655,4462.4,0.00016601,0.075422,0.0001148,-384.74,-0.00045184,-4642.2,0.30369
12176,6.545,2.9091,0,0.00044146,4411.5,0.0001636,0.064621,0.00011443,-369.33,-0.00044658,-4584.5,0.31246
12177,6.4526,2.9091,0.05,2.4273e-06,24.257,1.8639e-06,14.005,-2.6451e-14,4.818e-06,-1.8639e-06,-14.005,0.30364
12178,6.4526,3.1818,0,0.00044635,4460.4,0.00016571,0.078949,0.00011515,-379.82,-0.00045159,-4638.1,0.30366
12179,6.545,3.0909,0,0.00044146,4411.5,0.0001636,0.064621,0.00011443,-369.33,-0.00044658,-4584.5,0.31246
12180,6.4526,3.0909,0.05,2.4273e-06,24.257,1.8639e-06,14.005,2.8363e-14,-8.6776e-06,-1.8639e-06,-14.005,0.30364
12181,6.4526,3.3636,0,0.00044577,4454.7,0.00016483,0.089697,0.00011621,-365.26,-0.00045086,-4626,0.30354
12182,6.545,3.2727,0,0.00044115,4408.5,0.00016306,0.071198,0.00011513,-360.06,-0.00044617,-4577.4,0.31238
12183,6.4526,3.2727,0.05,2.3972e-06,23.955,1.8407e-06,13.831,-7.6224e-13,-1.8407e-05,-1.8407e-06,-13.831,0.30357
12184,6.4526,3.5455,0,0.00044485,4445.4,0.00016341,0.10806,0.00011791,-341.72,-0.00044967,-4606.3,0.30335
12185,6.545,3.4545,0,0.00044056,4402.6,0.000162,0.084543,0.00011648,-341.94,-0.00044538,-4563.5,0.31223
12186,6.4526,3.4545,0.05,2.3378e-06,23.362,1.7951e-06,13.488,-1.3124e-12,-2.5971e-05,-1.7951e-06,-13.488,0.30342
12187,6.4526,3.7273,0,0.0004436,4433,0.0001615,0.13446,0.00012019,-310.26,-0.00044806,-4579.9,0.30308
12188,6.545,3.6364,0,0.00043971,4394,0.00016047,0.1049,0.00011843,-315.78,-0.00044422,-4543.4,0.312
12189,6.4526,3.6364,0.05,2.2506e-06,22.49,1.7281e-06,12.985,-2.4939e-12,-4.3405e-05,-1.7282e-06,-12.985,0.30319
12190,6.4526,3.9091,0,0.00044209,4417.8,0.00015919,0.16912,0.00012291,-272.41,-0.00044609,-4547.6,0.30273
12191,6.545,3.8182,0,0.00043862,4383.2,0.00015854,0.13237,0.00012088,-282.82,-0.00044274,-4517.7,0.3117
12192,6.4526,3.8182,0.05,2.1372e-06,21.357,1.6411e-06,12.331,-2.9917e-12,-5.4297e-05,-1.6411e-06,-12.331,0.30288
12193,6.4526,4.0909,0,0.00044034,4400.3,0.00015657,0.21222,0.00012593,-230.04,-0.0004438,-4510.7,0.3023
12194,6.545,4,0,0.00043733,4370.3,0.00015628,0.16689,0.0001237,-244.64,-0.00044097,-4487.4,0.31131
12195,6.4526,4,0.05,1.9993e-06,19.98,1.5352e-06,11.535,-3.1083e-12,-8.1537e-05,-1.5352e-06,-11.535,0.30249
12196,6.4526,4.2727,0,0.00043839,4380.9,0.00015377,0.26453,0.00012907,-185.3,-0.00044124,-4470.4,0.30179
12197,6.545,4.1818,0,0.00043586,4355.6,0.0001538,0.20842,0.00012673,-203.15,-0.00043895,-4453.5,0.31084
12198,6.4526,4.1818,0.05,1.8387e-06,18.375,1.4119e-06,10.609,-6.4108e-12,-9.2938e-05,-1.4119e-06,-10.609,0.30202
12199,6.4526,4.4545,0,0.00043626,4359.6,0.0001509,0.32903,0.00013216,-140.47,-0.00043848,-4428,0.30119
12200,6.545,4.3636,0,0.00043423,4339.3,0.00015119,0.25778,0.0001298,-160.42,-0.00043673,-4417.1,0.31029
12201,6.4526,4.3636,0.05,1.6577e-06,16.566,1.2729e-06,9.5643,-1.2303e-11,-7.8589e-05,-1.2729e-06,-9.5644,0.30146
12202,6.4526,4.6364,0,0.000434,4337,0.00014807,0.4153,0.000135,-97.781,-0.00043557,-4384.8,0.30051
12203,6.545,4.5455,0,0.00043245,4321.6,0.00014857,0.31841,0.00013275,-118.57,-0.00043434,-4379.5,0.30965
12204,6.4526,4.5455,0.05,1.4596e-06,14.586,1.1208e-06,8.4213,-9.351e-12,-0.00017168,-1.1208e-06,-8.4214,0.30082
12205,6.4526,4.8182,0,0.00043162,4313.2,0.00014541,0.55486,0.00013744,-59.316,-0.00043259,-4342.3,0.29974
12206,6.545,4.7273,0,0.00043056,4302.6,0.00014604,0.40145,0.0001354,-79.603,-0.00043185,-4341.7,0.30893
12207,6.4526,4.7273,0.05,1.2488e-06,12.479,9.5893e-07,7.2049,-1.1615e-11,-0.0002539,-9.5891e-07,-7.205,0.30009
12208,6.4526,5,0,0.00042917,4288.7,0.00014304,0.8973,0.00013932,-26.987,-0.00042961,-4301.7,0.29887
12209,6.545,4.9091,0,0.00042857,4282.8,0.00014372,0.54589,0.00013761,-45.363,-0.00042932,-4305,0.30811
12210,6.4526,4.9091,0.05,1.0305e-06,10.298,7.9133e-07,5.9457,-2.2153e-11,-0.0002057,-7.9132e-07,-5.9457,0.29927
12211,6.4526,5.1818,0,0.0004267,4264,0.00014133,3.5888,0.00014027,-4.365,-0.00042671,-4264.4,0.29791
12212,6.545,5.0909,0,0.00042652,4262.3,0.0001417,0.97868,0.00013923,-17.575,-0.0004268,-4270.6,0.3072
12213,6.4526,5.0909,0.05,8.1083e-07,8.1027,6.2263e-07,4.6781,-2.5399e-11,-0.00030961,-6.2261e-07,-4.6781,0.29836
12214,6.4526,5.3636,0,0.00042425,4239.6,0.00014142,16.615,0.00013914,-0.50068,-0.00042397,-4231.5,0.29686
12215,6.545,5.2727,0,0.00042446,4241.6,0.00014066,5.9903,0.00013963,-1.7101,-0.00042438,-4239.5,0.30621
12216,6.4526,5.2727,0.05,5.969e-07,5.9649,4.5835e-07,3.4438,-3.5405e-11,-0.0003587,-4.5833e-07,-3.4438,0.29736
12217,6.4526,5.5455,0,0.00042189,4216,0.00014123,23.974,0.00013802,-0.15703,-0.00042148,-4204,0.29572
12218,6.545,5.4545,0,0.00042242,4221.3,0.00014085,17.259,0.00013852,-0.26923,-0.00042213,-4212.8,0.30512
12219,6.4526,5.4545,0.05,4.0143e-07,4.0115,3.0826e-07,2.3161,-3.3363e-11,-0.00031028,-3.0824e-07,-2.316,0.29626
12220,6.4526,5.7273,0,0.00041971,4194.2,0.00014037,22.343,0.00013739,-0.033757,-0.00041933,-4183.1,0.29449
12221,6.545,5.6364,0,0.00042046,4201.7,0.00014052,21.06,0.0001377,-0.11398,-0.0004201,-4191.2,0.30393
12222,6.4526,5.6364,0.05,2.9423e-07,2.9402,2.2593e-07,1.6974,-7.3719e-12,-0.00014939,-2.2593e-07,-1.6977,0.29507
12223,6.545,5.8182,0,0.00041873,4184.4,0.00013958,16.733,0.00013735,0.021732,-0.00041844,-4176,0.30266
12224,6.4526,5.8182,0.05,9.2904e-07,9.284,7.1337e-07,5.36,1.293e-11,5.0798e-06,-7.134e-07,-5.3603,0.29379
12225,6.4526,5.9091,0,0.0004176,4173.1,0.00013874,11.143,0.00013726,0.043185,-0.00041741,-4167.5,0.29316
12226,6.6373,0.27273,0,0.00041948,4191.9,0.00013972,15.424,0.00013766,-0.034181,-0.00041922,-4184.2,0.3122
12227,6.7297,0.18182,0,0.0004182,4179.1,0.00013901,12.076,0.00013741,0.012953,-0.00041799,-4173.1,0.32052
12228,6.6373,0.18182,0.05,6.3073e-07,6.3029,4.8433e-07,3.6392,-1.1064e-11,-2.4011e-06,-4.8431e-07,-3.6388,0.31151
12229,6.6373,0.090909,0,0.00041795,4176.6,0.00013862,8.3108,0.00013752,0.053006,-0.00041781,-4172.4,0.31089
12230,6.6373,0.45455,0,0.000421,4207.1,0.00014013,14.32,0.0001382,-0.18165,-0.00042075,-4200,0.31342
12231,6.7297,0.36364,0,0.00041937,4190.8,0.0001395,13.181,0.00013773,-0.11362,-0.00041915,-4184.3,0.32179
12232,6.6373,0.36364,0.05,1.643e-07,1.6419,1.2615e-07,0.94792,3.2286e-11,0.00042362,-1.2617e-07,-0.94793,0.31278
12233,6.6373,0.63636,0,0.00042263,4223.4,0.00014003,6.1699,0.00013908,-0.99163,-0.00042254,-4220.8,0.31455
12234,6.7297,0.54545,0,0.0004207,4204.1,0.0001395,7.7583,0.00013841,-0.45393,-0.00042057,-4200.4,0.32296
12235,6.6373,0.54545,0.05,3.671e-07,3.6685,2.8188e-07,2.118,2.3478e-11,0.00029468,-2.819e-07,-2.118,0.31396
12236,6.6373,0.81818,0,0.00042429,4239.9,0.00014071,0.91885,0.00013893,-12.436,-0.00042448,-4245.7,0.31559
12237,6.7297,0.72727,0,0.00042205,4217.6,0.00013971,1.0985,0.00013865,-6.8748,-0.00042215,-4220.5,0.32404
12238,6.6373,0.72727,0.05,5.6943e-07,5.6904,4.3725e-07,3.2854,1.9605e-11,0.00025966,-4.3726e-07,-3.2853,0.31504
12239,6.6373,1,0,0.00042593,4256.3,0.00014237,0.49235,0.00013754,-35.795,-0.00042651,-4273.9,0.31654
12240,6.7297,0.90909,0,0.0004234,4231.1,0.00014106,0.48174,0.00013751,-26.195,-0.00042383,-4243.9,0.32502
12241,6.6373,0.90909,0.05,7.7143e-07,7.7089,5.9236e-07,4.4508,1.7953e-11,0.00017863,-5.9236e-07,-4.4507,0.31604
12242,6.6373,1.1818,0,0.00042751,4272.2,0.00014435,0.36389,0.00013557,-65.601,-0.00042858,-4304.4,0.3174
12243,6.7297,1.0909,0,0.0004247,4244,0.00014275,0.34657,0.00013577,-52.137,-0.00042555,-4269.7,0.32592
12244,6.6373,1.0909,0.05,9.7039e-07,9.6972,7.4514e-07,5.5988,1.5585e-11,0.00015096,-7.4514e-07,-5.5987,0.31694
12245,6.6373,1.3636,0,0.00042901,4287.2,0.00014654,0.29229,0.00013315,-100.36,-0.00043063,-4336.3,0.31816
12246,6.7297,1.2727,0,0.00042592,4256.3,0.00014468,0.27863,0.00013356,-83.249,-0.00042727,-4297.1,0.32673
12247,6.6373,1.2727,0.05,1.1627e-06,11.619,8.9279e-07,6.7081,9.9193e-12,0.0001253,-8.9279e-07,-6.708,0.31775
12248,6.6373,1.5455,0,0.00043041,4301.1,0.00014886,0.2399,0.0001304,-138.49,-0.0004326,-4368.6,0.31884
12249,6.7297,1.4545,0,0.00042705,4267.5,0.00014676,0.23058,0.000131,-118.18,-0.00042893,-4325.3,0.32745
12250,6.6373,1.4545,0.05,1.3445e-06,13.436,1.0324e-06,7.7573,8.2113e-12,0.00010503,-1.0324e-06,-7.7571,0.31847
12251,6.6373,1.7273,0,0.00043169,4313.9,0.00015121,0.19656,0.00012746,-178.25,-0.00043444,-4400.2,0.31943
12252,6.7297,1.6364,0,0.00042807,4277.8,0.00014891,0.19094,0.0001282,-155.37,-0.0004305,-4353.3,0.32808
12253,6.6373,1.6364,0.05,1.5124e-06,15.114,1.1614e-06,8.7262,8.4895e-12,9.1285e-05,-1.1614e-06,-8.726,0.31911
12254,6.6373,1.9091,0,0.00043284,4325.4,0.0001535,0.1591,0.0001245,-217.73,-0.00043613,-4430.1,0.31994
12255,6.7297,1.8182,0,0.00042899,4286.9,0.00015104,0.15616,0.00012531,-193.12,-0.00043195,-4380.2,0.32863
12256,6.6373,1.8182,0.05,1.6636e-06,16.625,1.2775e-06,9.5983,3.8151e-12,7.453e-05,-1.2774e-06,-9.5982,0.31966
12257,6.6373,2.0909,0,0.00043386,4335.6,0.00015563,0.12685,0.00012167,-255.03,-0.00043763,-4457.4,0.32037
12258,6.7297,2,0,0.0004298,4295,0.00015307,0.12544,0.00012249,-229.64,-0.00043324,-4405.1,0.3291
12259,6.6373,2,0.05,1.7959e-06,17.947,1.3791e-06,10.362,2.9322e-12,6.5035e-05,-1.379e-06,-10.362,0.32013
12260,6.6373,2.2727,0,0.00043472,4344.2,0.00015751,0.099977,0.00011912,-288.33,-0.00043891,-4481.1,0.32071
12261,6.7297,2.1818,0,0.00043049,4301.9,0.00015491,0.098981,0.00011987,-263.18,-0.00043436,-4427.4,0.32948
12262,6.6373,2.1818,0.05,1.908e-06,19.067,1.4651e-06,11.008,5.549e-13,4.6316e-05,-1.4651e-06,-11.008,0.32051
12263,6.6373,2.4545,0,0.00043542,4351.2,0.00015906,0.078868,0.000117,-316,-0.00043993,-4500.6,0.32098
12264,6.7297,2.3636,0,0.00043106,4307.6,0.00015648,0.077275,0.00011759,-292.13,-0.00043528,-4446.2,0.32979
12265,6.6373,2.3636,0.05,1.9989e-06,19.976,1.5349e-06,11.533,-1.6473e-12,2.8231e-05,-1.5349e-06,-11.533,0.32082
12266,6.6373,2.6364,0,0.00043594,4356.4,0.00016022,0.063764,0.0001154,-336.74,-0.00044069,-4515,0.32117
12267,6.7297,2.5455,0,0.0004315,4312.1,0.00015772,0.060762,0.00011578,-315.11,-0.000436,-4460.9,0.33001
12268,6.6373,2.5455,0.05,2.068e-06,20.666,1.588e-06,11.932,-2.0571e-12,2.6972e-05,-1.588e-06,-11.931,0.32105
12269,6.6373,2.8182,0,0.00043626,4359.6,0.00016094,0.054727,0.00011441,-349.58,-0.00044115,-4523.8,0.32128
12270,6.7297,2.7273,0,0.00043181,4315.1,0.00015858,0.04969,0.00011452,-331.05,-0.00043648,-4471.1,0.33016
12271,6.6373,2.7273,0.05,2.1146e-06,21.131,1.6237e-06,12.2,-7.1563e-13,1.4843e-05,-1.6237e-06,-12.2,0.3212
12272,6.6373,3,0,0.00043637,4360.7,0.00016118,0.051724,0.00011407,-353.92,-0.00044131,-4526.8,0.32132
12273,6.7297,2.9091,0,0.00043196,4316.7,0.00015902,0.044149,0.00011387,-339.2,-0.00043673,-4476.2,0.33024
12274,6.6373,2.9091,0.05,2.138e-06,21.365,1.6417e-06,12.335,-1.4467e-12,1.1163e-06,-1.6417e-06,-12.335,0.32127
12275,6.6373,3.1818,0,0.00043626,4359.6,0.00016094,0.054727,0.00011441,-349.58,-0.00044115,-4523.8,0.32128
12276,6.7297,3.0909,0,0.00043196,4316.7,0.00015902,0.044149,0.00011387,-339.2,-0.00043673,-4476.2,0.33024
12277,6.6373,3.0909,0.05,2.138e-06,21.365,1.6417e-06,12.335,1.4483e-12,-8.7754e-06,-1.6417e-06,-12.335,0.32127
12278,6.6373,3.3636,0,0.00043594,4356.4,0.00016022,0.063764,0.0001154,-336.74,-0.00044069,-4515,0.32117
12279,6.7297,3.2727,0,0.00043181,4315.1,0.00015858,0.04969,0.00011452,-331.05,-0.00043648,-4471.1,0.33016
12280,6.6373,3.2727,0.05,2.1146e-06,21.131,1.6237e-06,12.2,-8.2449e-14,-1.8988e-05,-1.6237e-06,-12.2,0.3212
12281,6.6373,3.5455,0,0.00043542,4351.2,0.00015906,0.078868,0.000117,-316,-0.00043994,-4500.6,0.32098
12282,6.7297,3.4545,0,0.0004315,4312.1,0.00015772,0.060762,0.00011578,-315.11,-0.000436,-4460.9,0.33001
12283,6.6373,3.4545,0.05,2.068e-06,20.666,1.588e-06,11.931,3.9414e-13,-1.7552e-05,-1.588e-06,-11.931,0.32105
12284,6.6373,3.7273,0,0.00043472,4344.2,0.00015751,0.099977,0.00011912,-288.33,-0.00043891,-4481.1,0.32071
12285,6.7297,3.6364,0,0.00043106,4307.6,0.00015648,0.077276,0.00011759,-292.13,-0.00043528,-4446.2,0.32979
12286,6.6373,3.6364,0.05,1.9989e-06,19.976,1.5349e-06,11.533,5.5313e-13,-2.3573e-05,-1.5349e-06,-11.533,0.32082
12287,6.6373,3.9091,0,0.00043386,4335.6,0.00015563,0.12685,0.00012167,-255.03,-0.00043763,-4457.4,0.32037
12288,6.7297,3.8182,0,0.00043049,4301.9,0.00015491,0.09898,0.00011987,-263.18,-0.00043436,-4427.4,0.32948
12289,6.6373,3.8182,0.05,1.908e-06,19.067,1.4651e-06,11.008,-2.1898e-13,-4.9229e-05,-1.4651e-06,-11.008,0.32051
12290,6.6373,4.0909,0,0.00043284,4325.4,0.0001535,0.1591,0.0001245,-217.73,-0.00043613,-4430.1,0.31994
12291,6.7297,4,0,0.0004298,4295,0.00015307,0.12544,0.00012249,-229.64,-0.00043324,-4405.1,0.3291
12292,6.6373,4,0.05,1.7959e-06,17.947,1.379e-06,10.362,7.0485e-13,-5.3457e-05,-1.3791e-06,-10.362,0.32013
12293,6.6373,4.2727,0,0.00043169,4313.9,0.00015121,0.19656,0.00012746,-178.25,-0.00043444,-4400.2,0.31943
12294,6.7297,4.1818,0,0.00042899,4287,0.00015104,0.15616,0.00012531,-193.12,-0.00043195,-4380.2,0.32863
12295,6.6373,4.1818,0.05,1.6636e-06,16.625,1.2774e-06,9.5982,-4.2993e-12,-8.2469e-05,-1.2775e-06,-9.5983,0.31966
12296,6.6373,4.4545,0,0.00043041,4301.1,0.00014886,0.2399,0.0001304,-138.49,-0.0004326,-4368.6,0.31884
12297,6.7297,4.3636,0,0.00042807,4277.8,0.00014891,0.19094,0.0001282,-155.37,-0.0004305,-4353.3,0.32808
12298,6.6373,4.3636,0.05,1.5124e-06,15.114,1.1614e-06,8.726,-1.0207e-11,-9.3663e-05,-1.1614e-06,-8.7262,0.31911
12299,6.6373,4.6364,0,0.00042901,4287.2,0.00014654,0.29229,0.00013315,-100.36,-0.00043063,-4336.3,0.31816
12300,6.7297,4.5455,0,0.00042705,4267.5,0.00014676,0.23058,0.000131,-118.18,-0.00042893,-4325.3,0.32745
12301,6.6373,4.5455,0.05,1.3445e-06,13.436,1.0324e-06,7.7571,-9.8889e-12,-0.00011119,-1.0324e-06,-7.7573,0.31847
12302,6.6373,4.8182,0,0.00042751,4272.2,0.00014435,0.36389,0.00013557,-65.601,-0.00042858,-4304.4,0.3174
12303,6.7297,4.7273,0,0.00042592,4256.3,0.00014468,0.27863,0.00013356,-83.249,-0.00042727,-4297.1,0.32673
12304,6.6373,4.7273,0.05,1.1627e-06,11.619,8.9279e-07,6.708,-1.0571e-11,-0.00016746,-8.9279e-07,-6.7081,0.31775
12305,6.6373,5,0,0.00042593,4256.3,0.00014237,0.49235,0.00013754,-35.795,-0.00042651,-4273.9,0.31654
12306,6.7297,4.9091,0,0.0004247,4244,0.00014275,0.34657,0.00013577,-52.137,-0.00042555,-4269.7,0.32592
12307,6.6373,4.9091,0.05,9.7039e-07,9.6973,7.4515e-07,5.5987,-1.2024e-11,-0.00015524,-7.4514e-07,-5.5988,0.31694
12308,6.6373,5.1818,0,0.00042429,4239.9,0.00014071,0.91886,0.00013893,-12.436,-0.00042448,-4245.7,0.31559
12309,6.7297,5.0909,0,0.0004234,4231.1,0.00014106,0.48174,0.00013751,-26.195,-0.00042383,-4243.9,0.32502
12310,6.6373,5.0909,0.05,7.7143e-07,7.7089,5.9236e-07,4.4507,-1.6395e-11,-0.00018253,-5.9236e-07,-4.4508,0.31604
12311,6.6373,5.3636,0,0.00042263,4223.4,0.00014003,6.1699,0.00013908,-0.99163,-0.00042254,-4220.8,0.31455
12312,6.7297,5.2727,0,0.00042205,4217.6,0.00013971,1.0985,0.00013865,-6.8747,-0.00042215,-4220.5,0.32404
12313,6.6373,5.2727,0.05,5.6943e-07,5.6904,4.3726e-07,3.2853,-1.9862e-11,-0.00026158,-4.3725e-07,-3.2854,0.31504
12314,6.6373,5.5455,0,0.000421,4207.1,0.00014013,14.32,0.0001382,-0.18165,-0.00042075,-4200,0.31342
12315,6.7297,5.4545,0,0.0004207,4204.1,0.0001395,7.7584,0.00013841,-0.45392,-0.00042057,-4200.4,0.32296
12316,6.6373,5.4545,0.05,3.671e-07,3.6685,2.819e-07,2.118,-2.4253e-11,-0.00029633,-2.8188e-07,-2.118,0.31396
12317,6.6373,5.7273,0,0.00041948,4191.9,0.00013972,15.424,0.00013766,-0.034182,-0.00041922,-4184.2,0.3122
12318,6.7297,5.6364,0,0.00041937,4190.8,0.0001395,13.181,0.00013773,-0.11362,-0.00041915,-4184.3,0.32179
12319,6.6373,5.6364,0.05,1.643e-07,1.6419,1.2617e-07,0.94793,-3.5915e-11,-0.0004233,-1.2615e-07,-0.94792,0.31278
12320,6.7297,5.8182,0,0.0004182,4179.1,0.00013901,12.076,0.00013741,0.012951,-0.00041799,-4173.1,0.32052
12321,6.6373,5.8182,0.05,6.3073e-07,6.3029,4.8431e-07,3.6388,1.2859e-11,3.9513e-06,-4.8433e-07,-3.6392,0.31151
12322,6.6373,5.9091,0,0.00041795,4176.6,0.00013862,8.3108,0.00013752,0.053004,-0.00041781,-4172.4,0.31089
12323,6.822,0.27273,0,0.00041809,4178,0.00013879,9.7907,0.00013748,-0.042719,-0.00041792,-4173.1,0.3302
12324,6.9144,0.18182,0,0.00041659,4163,0.00013817,8.3476,0.00013706,0.0012417,-0.00041644,-4158.8,0.33867
12325,6.822,0.18182,0.05,3.9822e-07,3.9794,3.0579e-07,2.2978,-1.4438e-11,-1.1256e-07,-3.0577e-07,-2.2973,0.32952
12326,6.822,0.090909,0,0.00041703,4167.5,0.00013812,6.0264,0.00013733,0.061242,-0.00041693,-4164.4,0.3289
12327,6.822,0.45455,0,0.00041907,4187.8,0.00013885,6.5276,0.00013795,-0.29254,-0.00041896,-4184.7,0.33141
12328,6.9144,0.36364,0,0.00041729,4170.1,0.00013828,6.8221,0.00013736,-0.14884,-0.00041718,-4166.7,0.33992
12329,6.822,0.36364,0.05,2.631e-07,2.6292,2.0203e-07,1.5181,4.1261e-12,0.00013482,-2.0202e-07,-1.5178,0.33078
12330,6.822,0.63636,0,0.00042012,4198.3,0.00013895,0.99685,0.0001382,-4.6453,-0.00042018,-4200.1,0.33253
12331,6.9144,0.54545,0,0.00041812,4178.3,0.00013819,1.4286,0.00013775,-1.9319,-0.00041813,-4178.5,0.34108
12332,6.822,0.54545,0.05,4.3668e-07,4.3638,3.3532e-07,2.5196,4.9979e-12,0.00017351,-3.3531e-07,-2.5193,0.33195
12333,6.822,0.81818,0,0.00042117,4208.8,0.00014003,0.41639,0.00013726,-20.388,-0.0004215,-4218.7,0.33356
12334,6.9144,0.72727,0,0.00041894,4186.6,0.00013898,0.40303,0.00013705,-14.133,-0.00041918,-4193.4,0.34215
12335,6.822,0.72727,0.05,6.0245e-07,6.0203,4.6261e-07,3.476,9.2011e-12,0.00019244,-4.6261e-07,-3.4757,0.33302
12336,6.822,1,0,0.00042217,4218.8,0.00014144,0.30521,0.00013574,-42.507,-0.00042287,-4239.7,0.3345
12337,6.9144,0.90909,0,0.00041973,4194.5,0.00014016,0.28496,0.00013574,-32.939,-0.00042028,-4210.7,0.34313
12338,6.822,0.90909,0.05,7.7255e-07,7.7201,5.9322e-07,4.4573,5.4938e-12,0.00018671,-5.9322e-07,-4.4571,0.334
12339,6.822,1.1818,0,0.0004231,4228.1,0.00014309,0.25,0.00013377,-69.775,-0.00042424,-4262.4,0.33535
12340,6.9144,1.0909,0,0.00042046,4201.7,0.00014158,0.23382,0.00013398,-56.897,-0.0004214,-4229.8,0.34402
12341,6.822,1.0909,0.05,9.4137e-07,9.4072,7.2285e-07,5.4313,1.1323e-11,0.00017217,-7.2285e-07,-5.4311,0.3349
12342,6.822,1.3636,0,0.00042395,4236.6,0.0001449,0.21067,0.00013142,-101.07,-0.00042557,-4286.1,0.33611
12343,6.9144,1.2727,0,0.00042111,4208.2,0.00014318,0.19911,0.00013183,-85.063,-0.00042249,-4250,0.34483
12344,6.822,1.2727,0.05,1.1042e-06,11.035,8.4792e-07,6.371,3.6214e-12,9.5045e-05,-8.4792e-07,-6.3708,0.3357
12345,6.822,1.5455,0,0.00042471,4244.1,0.0001468,0.17737,0.00012881,-135.05,-0.00042684,-4309.9,0.33678
12346,6.9144,1.4545,0,0.00042168,4213.9,0.00014489,0.16978,0.00012939,-116.3,-0.00042353,-4270.7,0.34554
12347,6.822,1.4545,0.05,1.2574e-06,12.565,9.6553e-07,7.2547,1.6622e-12,0.00013599,-9.6553e-07,-7.2545,0.33642
12348,6.822,1.7273,0,0.00042537,4250.7,0.00014873,0.14728,0.00012606,-170.23,-0.00042801,-4333.2,0.33737
12349,6.9144,1.6364,0,0.00042216,4218.7,0.00014665,0.14287,0.00012676,-149.29,-0.00042449,-4291.2,0.34617
12350,6.822,1.6364,0.05,1.3978e-06,13.969,1.0734e-06,8.0649,-6.6178e-13,7.3406e-05,-1.0734e-06,-8.0648,0.33705
12351,6.822,1.9091,0,0.00042594,4256.5,0.0001506,0.11981,0.0001233,-205.02,-0.00042905,-4355.2,0.33788
12352,6.9144,1.8182,0,0.00042256,4222.6,0.0001484,0.1177,0.00012408,-182.58,-0.00042536,-4310.9,0.34671
12353,6.822,1.8182,0.05,1.5232e-06,15.222,1.1697e-06,8.7885,-1.7133e-12,9.726e-05,-1.1697e-06,-8.7883,0.3376
12354,6.822,2.0909,0,0.00042642,4261.3,0.00015234,0.095258,0.00012068,-237.78,-0.00042997,-4375.2,0.3383
12355,6.9144,2,0,0.00042288,4225.9,0.00015006,0.094532,0.00012147,-214.67,-0.00042612,-4329.1,0.34718
12356,6.822,2,0.05,1.6321e-06,16.309,1.2532e-06,9.4163,2.2725e-13,4.1086e-05,-1.2532e-06,-9.4162,0.33806
12357,6.822,2.2727,0,0.00042682,4265.3,0.00015388,0.074221,0.00011833,-266.98,-0.00043074,-4392.5,0.33865
12358,6.9144,2.1818,0,0.00042315,4228.6,0.00015156,0.073989,0.00011907,-244.07,-0.00042677,-4345.3,0.34756
12359,6.822,2.1818,0.05,1.7234e-06,17.222,1.3234e-06,9.9432,-5.106e-13,2.4465e-05,-1.3234e-06,-9.9431,0.33844
12360,6.822,2.4545,0,0.00042714,4268.5,0.00015514,0.0573,0.00011637,-291.24,-0.00043135,-4406.6,0.33891
12361,6.9144,2.3636,0,0.00042336,4230.6,0.00015284,0.056742,0.00011698,-269.42,-0.00042729,-4358.9,0.34786
12362,6.822,2.3636,0.05,1.7968e-06,17.955,1.3797e-06,10.367,-1.8499e-12,3.1185e-05,-1.3797e-06,-10.366,0.33875
12363,6.822,2.6364,0,0.00042737,4270.8,0.00015608,0.044951,0.0001149,-309.42,-0.00043179,-4417,0.3391
12364,6.9144,2.5455,0,0.00042351,4232.2,0.00015386,0.043365,0.00011532,-289.54,-0.00042769,-4369.5,0.34809
12365,6.822,2.5455,0.05,1.852e-06,18.507,1.4221e-06,10.685,-1.4824e-12,1.0141e-05,-1.4221e-06,-10.685,0.33898
12366,6.822,2.8182,0,0.00042751,4272.2,0.00015667,0.037453,0.00011398,-320.67,-0.00043206,-4423.4,0.33921
12367,6.9144,2.7273,0,0.00042361,4233.2,0.00015456,0.034255,0.00011416,-303.49,-0.00042796,-4376.8,0.34824
12368,6.822,2.7273,0.05,1.8889e-06,18.876,1.4504e-06,10.898,-1.9314e-13,9.564e-06,-1.4504e-06,-10.898,0.33913
12369,6.822,3,0,0.00042756,4272.6,0.00015686,0.034941,0.00011367,-324.48,-0.00043215,-4425.6,0.33925
12370,6.9144,2.9091,0,0.00042367,4233.7,0.00015492,0.029649,0.00011357,-310.62,-0.00042809,-4380.5,0.34832
12371,6.822,2.9091,0.05,1.9073e-06,19.06,1.4646e-06,11.004,8.607e-13,1.811e-06,-1.4646e-06,-11.004,0.3392
12372,6.822,3.1818,0,0.00042751,4272.2,0.00015667,0.037453,0.00011398,-320.67,-0.00043206,-4423.4,0.33921
12373,6.9144,3.0909,0,0.00042367,4233.7,0.00015492,0.029649,0.00011357,-310.62,-0.00042809,-4380.5,0.34832
12374,6.822,3.0909,0.05,1.9073e-06,19.06,1.4646e-06,11.004,-1.7743e-12,-1.853e-06,-1.4646e-06,-11.004,0.3392
12375,6.822,3.3636,0,0.00042737,4270.8,0.00015608,0.044951,0.0001149,-309.42,-0.00043179,-4417,0.3391
12376,6.9144,3.2727,0,0.00042361,4233.2,0.00015456,0.034255,0.00011416,-303.49,-0.00042796,-4376.8,0.34824
12377,6.822,3.2727,0.05,1.8889e-06,18.876,1.4504e-06,10.898,-6.7929e-13,-9.941e-06,-1.4504e-06,-10.898,0.33913
12378,6.822,3.5455,0,0.00042714,4268.5,0.00015514,0.0573,0.00011637,-291.24,-0.00043135,-4406.6,0.33891
12379,6.9144,3.4545,0,0.00042351,4232.2,0.00015386,0.043364,0.00011532,-289.54,-0.00042769,-4369.5,0.34809
12380,6.822,3.4545,0.05,1.852e-06,18.507,1.4221e-06,10.685,4.9132e-13,-1.5334e-05,-1.4221e-06,-10.685,0.33898
12381,6.822,3.7273,0,0.00042682,4265.3,0.00015388,0.07422,0.00011833,-266.98,-0.00043074,-4392.5,0.33865
12382,6.9144,3.6364,0,0.00042336,4230.6,0.00015284,0.056742,0.00011698,-269.42,-0.00042729,-4358.9,0.34786
12383,6.822,3.6364,0.05,1.7968e-06,17.955,1.3797e-06,10.366,8.0171e-13,-2.1404e-05,-1.3797e-06,-10.367,0.33875
12384,6.822,3.9091,0,0.00042642,4261.3,0.00015234,0.095257,0.00012068,-237.78,-0.00042997,-4375.2,0.3383
12385,6.9144,3.8182,0,0.00042315,4228.6,0.00015156,0.073988,0.00011907,-244.07,-0.00042677,-4345.3,0.34756
12386,6.822,3.8182,0.05,1.7234e-06,17.222,1.3234e-06,9.9432,-6.0758e-13,-2.4403e-05,-1.3234e-06,-9.9432,0.33844
12387,6.822,4.0909,0,0.00042594,4256.5,0.0001506,0.11981,0.0001233,-205.02,-0.00042905,-4355.2,0.33788
12388,6.9144,4,0,0.00042288,4225.9,0.00015006,0.094532,0.00012147,-214.67,-0.00042612,-4329.1,0.34718
12389,6.822,4,0.05,1.6321e-06,16.309,1.2532e-06,9.4162,1.4445e-12,-4.7805e-05,-1.2532e-06,-9.4163,0.33806
12390,6.822,4.2727,0,0.00042537,4250.7,0.00014873,0.14728,0.00012606,-170.23,-0.00042801,-4333.2,0.33737
12391,6.9144,4.1818,0,0.00042256,4222.6,0.0001484,0.11769,0.00012408,-182.58,-0.00042536,-4310.9,0.34671
12392,6.822,4.1818,0.05,1.5232e-06,15.222,1.1697e-06,8.7883,-3.0266e-12,-8.674e-05,-1.1697e-06,-8.7885,0.3376
12393,6.822,4.4545,0,0.00042471,4244.1,0.0001468,0.17737,0.00012881,-135.05,-0.00042684,-4309.9,0.33678
12394,6.9144,4.3636,0,0.00042216,4218.7,0.00014665,0.14287,0.00012676,-149.29,-0.00042449,-4291.2,0.34617
12395,6.822,4.3636,0.05,1.3978e-06,13.969,1.0734e-06,8.0648,-3.7355e-12,-5.5639e-05,-1.0734e-06,-8.0649,0.33705
12396,6.822,4.6364,0,0.00042395,4236.6,0.0001449,0.21067,0.00013142,-101.07,-0.00042557,-4286.1,0.33611
12397,6.9144,4.5455,0,0.00042168,4213.9,0.00014489,0.16978,0.00012939,-116.3,-0.00042353,-4270.7,0.34554
12398,6.822,4.5455,0.05,1.2574e-06,12.565,9.6553e-07,7.2545,-4.3918e-12,-0.0001151,-9.6553e-07,-7.2547,0.33642
12399,6.822,4.8182,0,0.0004231,4228.1,0.00014309,0.25,0.00013377,-69.775,-0.00042424,-4262.4,0.33535
12400,6.9144,4.7273,0,0.00042111,4208.2,0.00014318,0.19911,0.00013183,-85.063,-0.00042249,-4250,0.34483
12401,6.822,4.7273,0.05,1.1042e-06,11.035,8.4792e-07,6.3709,-6.9942e-12,-9.9809e-05,-8.4792e-07,-6.371,0.3357
12402,6.822,5,0,0.00042217,4218.8,0.00014144,0.30521,0.00013574,-42.507,-0.00042287,-4239.7,0.3345
12403,6.9144,4.9091,0,0.00042046,4201.7,0.00014158,0.23382,0.00013398,-56.897,-0.0004214,-4229.8,0.34402
12404,6.822,4.9091,0.05,9.4137e-07,9.4072,7.2285e-07,5.4311,-7.1821e-12,-0.00014366,-7.2285e-07,-5.4313,0.3349
12405,6.822,5.1818,0,0.00042117,4208.8,0.00014003,0.41639,0.00013726,-20.388,-0.0004215,-4218.7,0.33356
12406,6.9144,5.0909,0,0.00041973,4194.5,0.00014016,0.28496,0.00013574,-32.939,-0.00042028,-4210.7,0.34313
12407,6.822,5.0909,0.05,7.7255e-07,7.7201,5.9322e-07,4.4571,-7.6495e-12,-0.00018998,-5.9322e-07,-4.4573,0.334
12408,6.822,5.3636,0,0.00042012,4198.3,0.00013895,0.99686,0.0001382,-4.6453,-0.00042018,-4200.1,0.33253
12409,6.9144,5.2727,0,0.00041894,4186.6,0.00013898,0.40303,0.00013705,-14.133,-0.00041918,-4193.4,0.34215
12410,6.822,5.2727,0.05,6.0245e-07,6.0204,4.6261e-07,3.4758,-1.2388e-11,-0.00012662,-4.6261e-07,-3.4759,0.33302
12411,6.822,5.5455,0,0.00041907,4187.8,0.00013885,6.5276,0.00013795,-0.29254,-0.00041896,-4184.7,0.33141
12412,6.9144,5.4545,0,0.00041812,4178.3,0.00013819,1.4286,0.00013775,-1.9319,-0.00041813,-4178.5,0.34108
12413,6.822,5.4545,0.05,4.3668e-07,4.3638,3.3531e-07,2.5193,-4.3362e-12,-0.00017654,-3.3532e-07,-2.5196,0.33195
12414,6.822,5.7273,0,0.00041809,4178,0.00013879,9.7907,0.00013748,-0.042721,-0.00041792,-4173.1,0.3302
12415,6.9144,5.6364,0,0.00041729,4170.1,0.00013828,6.8221,0.00013736,-0.14884,-0.00041718,-4166.7,0.33992
12416,6.822,5.6364,0.05,2.631e-07,2.6292,2.0202e-07,1.5178,-4.499e-12,-0.00013376,-2.0203e-07,-1.5181,0.33078
12417,6.9144,5.8182,0,0.00041659,4163,0.00013817,8.3476,0.00013706,0.0012402,-0.00041644,-4158.8,0.33867
12418,6.822,5.8182,0.05,3.9822e-07,3.9794,3.0577e-07,2.2973,1.4438e-11,1.9842e-06,-3.0579e-07,-2.2977,0.32952
12419,6.822,5.9091,0,0.00041703,4167.5,0.00013812,6.0264,0.00013733,0.061241,-0.00041693,-4164.4,0.3289
12420,7.0067,0.27273,0,0.00041579,4155,0.00013766,5.3169,0.00013694,-0.072325,-0.0004157,-4152.4,0.34849
12421,7.0991,0.18182,0,0.00041412,4138.3,0.00013711,5.4338,0.00013639,-0.018862,-0.00041402,-4135.6,0.3571
12422,7.0067,0.18182,0.05,2.2217e-07,2.2201,1.7061e-07,1.282,-1.2452e-11,1.5436e-05,-1.7058e-07,-1.2816,0.34781
12423,7.0067,0.090909,0,0.00041511,4148.2,0.00013734,4.2233,0.00013678,0.067251,-0.00041504,-4146.1,0.3472
12424,7.0067,0.45455,0,0.00041634,4160.5,0.00013755,1.1895,0.00013723,-1.263,-0.00041634,-4160.6,0.34969
12425,7.0991,0.36364,0,0.00041445,4141.6,0.00013695,1.9949,0.00013664,-0.39373,-0.00041442,-4140.8,0.35835
12426,7.0067,0.36364,0.05,3.9856e-07,3.9828,3.0605e-07,2.2997,-5.0408e-12,6.0271e-05,-3.0603e-07,-2.2993,0.34906
12427,7.0067,0.63636,0,0.00041694,4166.5,0.00013816,0.32906,0.00013666,-10.923,-0.00041712,-4171.8,0.3508
12428,7.0991,0.54545,0,0.00041488,4145.9,0.00013728,0.31912,0.00013631,-6.9592,-0.00041499,-4149.2,0.3595
12429,7.0067,0.54545,0.05,5.3191e-07,5.3154,4.0845e-07,3.069,-8.0855e-13,7.037e-05,-4.0843e-07,-3.0687,0.35022
12430,7.0067,0.81818,0,0.00041751,4172.2,0.00013912,0.24058,0.00013554,-26.664,-0.00041795,-4185.4,0.35182
12431,7.0991,0.72727,0,0.00041529,4150.1,0.00013806,0.21872,0.00013536,-20.053,-0.00041563,-4159.9,0.36056
12432,7.0067,0.72727,0.05,6.5825e-07,6.578,5.0546e-07,3.7979,4.1841e-12,9.2593e-05,-5.0545e-07,-3.7977,0.35128
12433,7.0067,1,0,0.00041802,4177.4,0.0001403,0.20398,0.00013398,-47.331,-0.00041881,-4200.7,0.35275
12434,7.0991,0.90909,0,0.00041566,4153.7,0.00013906,0.18652,0.00013399,-37.905,-0.00041629,-4172.5,0.36153
12435,7.0067,0.90909,0.05,7.9363e-07,7.9308,6.0941e-07,4.579,2.2709e-12,0.00010075,-6.0941e-07,-4.5788,0.35226
12436,7.0067,1.1818,0,0.00041847,4181.8,0.00014167,0.17787,0.00013204,-72.191,-0.00041965,-4217.3,0.35359
12437,7.0991,1.0909,0,0.00041596,4156.7,0.00014024,0.16483,0.00013224,-59.94,-0.00041695,-4186.3,0.36241
12438,7.0067,1.0909,0.05,9.3118e-07,9.3054,7.1504e-07,5.3726,1.853e-12,7.6295e-05,-7.1503e-07,-5.3724,0.35314
12439,7.0067,1.3636,0,0.00041883,4185.5,0.00014317,0.15483,0.0001298,-100.3,-0.00042045,-4234.6,0.35435
12440,7.0991,1.2727,0,0.00041619,4159,0.00014156,0.14569,0.00013018,-85.388,-0.00041757,-4201,0.36321
12441,7.0067,1.2727,0.05,1.0653e-06,10.646,8.1801e-07,6.1463,-5.0196e-13,9.3653e-05,-8.1801e-07,-6.1461,0.35394
12442,7.0067,1.5455,0,0.00041912,4188.3,0.00014474,0.13269,0.00012735,-130.54,-0.00042119,-4252,0.35502
12443,7.0991,1.4545,0,0.00041634,4160.5,0.00014298,0.1268,0.00012788,-113.29,-0.00041815,-4216,0.36392
12444,7.0067,1.4545,0.05,1.1918e-06,11.91,9.1519e-07,6.8765,-6.5602e-13,8.6442e-05,-9.1518e-07,-6.8762,0.35466
12445,7.0067,1.7273,0,0.00041934,4190.5,0.00014632,0.11115,0.00012479,-161.64,-0.00042185,-4268.9,0.3556
12446,7.0991,1.6364,0,0.00041643,4161.4,0.00014443,0.10785,0.00012545,-142.51,-0.00041867,-4230.8,0.36455
12447,7.0067,1.6364,0.05,1.3078e-06,13.069,1.0043e-06,7.5456,1.0549e-13,6.0556e-05,-1.0042e-06,-7.5454,0.35528
12448,7.0067,1.9091,0,0.00041949,4192.1,0.00014785,0.090568,0.00012226,-192.23,-0.00042243,-4284.8,0.35611
12449,7.0991,1.8182,0,0.00041646,4161.7,0.00014586,0.089176,0.00012298,-171.84,-0.00041911,-4244.9,0.36509
12450,7.0067,1.8182,0.05,1.4111e-06,14.101,1.0836e-06,8.1416,-4.9038e-13,3.7537e-05,-1.0836e-06,-8.1414,0.35583
12451,7.0067,2.0909,0,0.0004196,4193.1,0.00014928,0.071611,0.00011986,-220.96,-0.00042292,-4299.2,0.35653
12452,7.0991,2,0,0.00041645,4161.6,0.00014722,0.071415,0.00012059,-200,-0.00041949,-4257.9,0.36555
12453,7.0067,2,0.05,1.5004e-06,14.993,1.1521e-06,8.6565,-7.0813e-13,3.5509e-05,-1.1521e-06,-8.6564,0.35629
12454,7.0067,2.2727,0,0.00041968,4193.9,0.00015053,0.055002,0.00011771,-246.51,-0.00042333,-4311.7,0.35687
12455,7.0991,2.1818,0,0.00041641,4161.3,0.00014845,0.055294,0.0001184,-225.73,-0.00041979,-4269.5,0.36593
12456,7.0067,2.1818,0.05,1.5749e-06,15.738,1.2093e-06,9.0862,-2.1845e-12,2.2221e-05,-1.2093e-06,-9.0861,0.35667
12457,7.0067,2.4545,0,0.00041973,4194.4,0.00015156,0.041404,0.00011593,-267.72,-0.00042364,-4321.8,0.35714
12458,7.0991,2.3636,0,0.00041637,4160.8,0.0001495,0.041519,0.0001165,-247.88,-0.00042003,-4279.2,0.36623
12459,7.0067,2.3636,0.05,1.6343e-06,16.332,1.255e-06,9.4293,-1.6123e-12,1.6139e-05,-1.255e-06,-9.4292,0.35698
12460,7.0067,2.6364,0,0.00041976,4194.7,0.00015233,0.031341,0.00011458,-283.6,-0.00042386,-4329.2,0.35732
12461,7.0991,2.5455,0,0.00041633,4160.4,0.00015033,0.030683,0.000115,-265.44,-0.0004202,-4286.7,0.36646
12462,7.0067,2.5455,0.05,1.6788e-06,16.776,1.2891e-06,9.6857,-2.1448e-12,9.6959e-06,-1.2891e-06,-9.6856,0.3572
12463,7.0067,2.8182,0,0.00041977,4194.8,0.00015281,0.025168,0.00011375,-293.44,-0.00042399,-4333.8,0.35744
12464,7.0991,2.7273,0,0.00041629,4160.1,0.0001509,0.023224,0.00011395,-277.61,-0.00042032,-4291.9,0.36661
12465,7.0067,2.7273,0.05,1.7083e-06,17.071,1.3118e-06,9.856,-2.3721e-13,3.838e-06,-1.3117e-06,-9.856,0.35735
12466,7.0067,3,0,0.00041978,4194.9,0.00015297,0.023089,0.00011347,-296.76,-0.00042404,-4335.4,0.35748
12467,7.0991,2.9091,0,0.00041628,4159.9,0.00015119,0.019426,0.00011341,-283.84,-0.00042038,-4294.5,0.36669
12468,7.0067,2.9091,0.05,1.723e-06,17.218,1.3231e-06,9.941,-3.907e-13,3.0418e-06,-1.3231e-06,-9.941,0.35743
12469,7.0067,3.1818,0,0.00041977,4194.8,0.00015281,0.025168,0.00011375,-293.44,-0.00042399,-4333.8,0.35744
12470,7.0991,3.0909,0,0.00041628,4159.9,0.00015119,0.019426,0.00011341,-283.84,-0.00042038,-4294.5,0.36669
12471,7.0067,3.0909,0.05,1.723e-06,17.218,1.3231e-06,9.941,-5.2159e-13,-3.0762e-06,-1.3231e-06,-9.941,0.35743
12472,7.0067,3.3636,0,0.00041976,4194.7,0.00015233,0.031341,0.00011458,-283.6,-0.00042386,-4329.2,0.35732
12473,7.0991,3.2727,0,0.00041629,4160.1,0.0001509,0.023224,0.00011395,-277.61,-0.00042032,-4291.9,0.36661
12474,7.0067,3.2727,0.05,1.7083e-06,17.071,1.3117e-06,9.856,-5.843e-13,-1.1655e-05,-1.3118e-06,-9.856,0.35735
12475,7.0067,3.5455,0,0.00041973,4194.4,0.00015156,0.041404,0.00011593,-267.72,-0.00042364,-4321.8,0.35714
12476,7.0991,3.4545,0,0.00041633,4160.4,0.00015033,0.030683,0.000115,-265.44,-0.0004202,-4286.7,0.36646
12477,7.0067,3.4545,0.05,1.6788e-06,16.776,1.2891e-06,9.6856,2.9431e-13,-1.4132e-05,-1.2891e-06,-9.6857,0.3572
12478,7.0067,3.7273,0,0.00041968,4193.9,0.00015053,0.055001,0.00011771,-246.51,-0.00042333,-4311.7,0.35687
12479,7.0991,3.6364,0,0.00041637,4160.8,0.0001495,0.041519,0.0001165,-247.88,-0.00042003,-4279.2,0.36623
12480,7.0067,3.6364,0.05,1.6343e-06,16.332,1.255e-06,9.4292,5.9036e-13,-2.1108e-05,-1.255e-06,-9.4293,0.35698
12481,7.0067,3.9091,0,0.0004196,4193.1,0.00014928,0.071611,0.00011986,-220.96,-0.00042292,-4299.2,0.35653
12482,7.0991,3.8182,0,0.00041641,4161.3,0.00014845,0.055294,0.0001184,-225.73,-0.00041979,-4269.5,0.36593
12483,7.0067,3.8182,0.05,1.5749e-06,15.738,1.2093e-06,9.0862,-4.9929e-13,-1.8324e-05,-1.2093e-06,-9.0862,0.35667
12484,7.0067,4.0909,0,0.00041949,4192.1,0.00014785,0.090568,0.00012226,-192.23,-0.00042243,-4284.8,0.35611
12485,7.0991,4,0,0.00041645,4161.6,0.00014722,0.071415,0.00012059,-200,-0.00041949,-4257.9,0.36555
12486,7.0067,4,0.05,1.5004e-06,14.993,1.1521e-06,8.6564,1.5517e-12,-4.0186e-05,-1.1521e-06,-8.6565,0.35629
12487,7.0067,4.2727,0,0.00041934,4190.5,0.00014632,0.11115,0.00012479,-161.64,-0.00042185,-4268.9,0.3556
12488,7.0991,4.1818,0,0.00041646,4161.7,0.00014586,0.089176,0.00012298,-171.84,-0.00041911,-4244.9,0.36509
12489,7.0067,4.1818,0.05,1.4111e-06,14.101,1.0836e-06,8.1414,3.1589e-13,-4.389e-05,-1.0836e-06,-8.1416,0.35583
12490,7.0067,4.4545,0,0.00041912,4188.3,0.00014474,0.13269,0.00012735,-130.54,-0.00042119,-4252,0.35502
12491,7.0991,4.3636,0,0.00041643,4161.4,0.00014443,0.10785,0.00012545,-142.51,-0.00041867,-4230.8,0.36455
12492,7.0067,4.3636,0.05,1.3078e-06,13.069,1.0042e-06,7.5454,2.9158e-12,-6.2145e-05,-1.0043e-06,-7.5456,0.35528
12493,7.0067,4.6364,0,0.00041883,4185.5,0.00014317,0.15483,0.0001298,-100.3,-0.00042045,-4234.6,0.35435
12494,7.0991,4.5455,0,0.00041634,4160.5,0.00014298,0.1268,0.00012788,-113.29,-0.00041815,-4216,0.36392
12495,7.0067,4.5455,0.05,1.1918e-06,11.91,9.1518e-07,6.8763,1.1991e-13,-6.9031e-05,-9.1519e-07,-6.8764,0.35466
12496,7.0067,4.8182,0,0.00041847,4181.8,0.00014167,0.17787,0.00013204,-72.19,-0.00041965,-4217.3,0.35359
12497,7.0991,4.7273,0,0.00041619,4159,0.00014156,0.14569,0.00013018,-85.388,-0.00041757,-4201,0.36321
12498,7.0067,4.7273,0.05,1.0653e-06,10.646,8.1801e-07,6.1461,-1.2447e-12,-9.7203e-05,-8.1801e-07,-6.1463,0.35394
12499,7.0067,5,0,0.00041802,4177.4,0.0001403,0.20398,0.00013398,-47.331,-0.00041881,-4200.7,0.35275
12500,7.0991,4.9091,0,0.00041596,4156.7,0.00014024,0.16483,0.00013224,-59.94,-0.00041695,-4186.3,0.36241
12501,7.0067,4.9091,0.05,9.3118e-07,9.3054,7.1503e-07,5.3724,-2.2891e-12,-7.9739e-05,-7.1504e-07,-5.3726,0.35314
12502,7.0067,5.1818,0,0.00041751,4172.2,0.00013912,0.24058,0.00013554,-26.664,-0.00041795,-4185.4,0.35182
12503,7.0991,5.0909,0,0.00041566,4153.7,0.00013906,0.18652,0.00013399,-37.905,-0.00041629,-4172.5,0.36153
12504,7.0067,5.0909,0.05,7.9363e-07,7.9308,6.0941e-07,4.5788,-4.2561e-14,-7.8687e-05,-6.0941e-07,-4.579,0.35226
12505,7.0067,5.3636,0,0.00041694,4166.5,0.00013816,0.32906,0.00013666,-10.923,-0.00041712,-4171.8,0.3508
12506,7.0991,5.2727,0,0.00041529,4150.1,0.00013806,0.21872,0.00013536,-20.053,-0.00041563,-4159.9,0.36056
12507,7.0067,5.2727,0.05,6.5825e-07,6.578,5.0545e-07,3.7977,-3.469e-12,-7.1485e-05,-5.0546e-07,-3.7979,0.35128
12508,7.0067,5.5455,0,0.00041634,4160.5,0.00013755,1.1895,0.00013723,-1.2629,-0.00041634,-4160.6,0.34969
12509,7.0991,5.4545,0,0.00041488,4145.9,0.00013728,0.31912,0.00013631,-6.9591,-0.00041499,-4149.2,0.3595
12510,7.0067,5.4545,0.05,5.3191e-07,5.3154,4.0843e-07,3.0687,1.3709e-12,-8.8255e-05,-4.0844e-07,-3.069,0.35022
12511,7.0067,5.7273,0,0.00041579,4155,0.00013766,5.317,0.00013694,-0.072327,-0.0004157,-4152.4,0.34849
12512,7.0991,5.6364,0,0.00041445,4141.6,0.00013695,1.9949,0.00013664,-0.39373,-0.00041442,-4140.8,0.35835
12513,7.0067,5.6364,0.05,3.9856e-07,3.9828,3.0603e-07,2.2993,4.9993e-12,-5.1254e-05,-3.0605e-07,-2.2997,0.34906
12514,7.0991,5.8182,0,0.00041412,4138.3,0.00013711,5.4338,0.00013639,-0.018864,-0.00041402,-4135.6,0.3571
12515,7.0067,5.8182,0.05,2.2217e-07,2.2201,1.7059e-07,1.2816,1.2484e-11,-1.3217e-05,-1.7061e-07,-1.282,0.34781
12516,7.0067,5.9091,0,0.00041511,4148.2,0.00013734,4.2233,0.00013678,0.06725,-0.00041504,-4146.1,0.3472
12517,7.1914,0.27273,0,0.00041277,4124.9,0.00013639,1.9364,0.0001361,-0.20154,-0.00041274,-4124,0.36706
12518,7.2838,0.18182,0,0.00041097,4106.9,0.00013589,3.2322,0.00013546,-0.059326,-0.00041092,-4105.3,0.37582
12519,7.1914,0.18182,0.05,1.0335e-07,1.0328,7.9362e-08,0.59639,6.4193e-12,0.00014381,-7.9357e-08,-0.59616,0.36639
12520,7.1914,0.090909,0,0.00041239,4121.1,0.00013632,2.8371,0.00013596,0.069857,-0.00041234,-4119.6,0.36578
12521,7.1914,0.45455,0,0.00041299,4127,0.00013656,0.24111,0.00013584,-5.2208,-0.00041307,-4129.5,0.36825
12522,7.2838,0.36364,0,0.00041101,4107.3,0.00013578,0.26818,0.0001354,-2.586,-0.00041105,-4108.5,0.37705
12523,7.1914,0.36364,0.05,5.1391e-07,5.1355,3.9463e-07,2.9652,-1.0731e-11,3.4925e-05,-3.9461e-07,-2.9648,0.36762
12524,7.1914,0.63636,0,0.00041323,4129.5,0.00013718,0.1772,0.00013501,-16.073,-0.0004135,-4137.4,0.36935
12525,7.2838,0.54545,0,0.00041113,4108.5,0.00013625,0.15862,0.00013471,-11.478,-0.00041132,-4114.1,0.37819
12526,7.1914,0.54545,0.05,6.2054e-07,6.2011,4.7651e-07,3.5804,-7.0175e-12,6.2269e-05,-4.7649e-07,-3.58,0.36877
12527,7.1914,0.81818,0,0.00041344,4131.5,0.000138,0.1572,0.00013381,-31.303,-0.00041396,-4147,0.37036
12528,7.2838,0.72727,0,0.00041123,4109.5,0.00013693,0.1404,0.00013365,-24.48,-0.00041164,-4121.6,0.37925
12529,7.1914,0.72727,0.05,7.1618e-07,7.1568,5.4995e-07,4.1321,-2.0482e-12,5.7386e-05,-5.4992e-07,-4.1318,0.36983
12530,7.1914,1,0,0.00041359,4133.1,0.00013899,0.14363,0.00013225,-50.527,-0.00041443,-4158,0.37129
12531,7.2838,0.90909,0,0.00041128,4109.9,0.00013777,0.13036,0.00013226,-41.316,-0.00041196,-4130.4,0.38021
12532,7.1914,0.90909,0.05,8.2159e-07,8.2102,6.3088e-07,4.7403,-1.1264e-12,5.0879e-05,-6.3087e-07,-4.74,0.3708
12533,7.1914,1.1818,0,0.00041367,4133.9,0.00014013,0.13013,0.00013038,-73.15,-0.00041487,-4169.9,0.37212
12534,7.2838,1.0909,0,0.00041126,4109.8,0.00013876,0.12021,0.00013056,-61.542,-0.00041227,-4140.2,0.38109
12535,7.1914,1.0909,0.05,9.3115e-07,9.3051,7.1502e-07,5.3724,3.1606e-14,7.1782e-05,-7.1501e-07,-5.3722,0.37168
12536,7.1914,1.3636,0,0.00041369,4134,0.00014137,0.11571,0.00012826,-98.382,-0.00041527,-4182.3,0.37287
12537,7.2838,1.2727,0,0.00041118,4109,0.00013986,0.10876,0.0001286,-84.513,-0.00041255,-4150.5,0.38188
12538,7.1914,1.2727,0.05,1.0395e-06,10.388,7.982e-07,5.9974,-1.6044e-12,5.2363e-05,-7.9818e-07,-5.9972,0.37247
12539,7.1914,1.5455,0,0.00041364,4133.5,0.00014267,0.10033,0.00012598,-125.26,-0.00041563,-4194.7,0.37354
12540,7.2838,1.4545,0,0.00041104,4107.6,0.00014103,0.095912,0.00012646,-109.41,-0.00041279,-4161.1,0.38259
12541,7.1914,1.4545,0.05,1.1425e-06,11.417,8.773e-07,6.5918,-3.7451e-12,5.0698e-05,-8.7729e-07,-6.5916,0.37318
12542,7.1914,1.7273,0,0.00041354,4132.5,0.00014397,0.08445,0.00012363,-152.72,-0.00041592,-4206.7,0.37412
12543,7.2838,1.6364,0,0.00041085,4105.6,0.00014223,0.082099,0.00012422,-135.29,-0.00041298,-4171.6,0.38321
12544,7.1914,1.6364,0.05,1.2373e-06,12.364,9.5007e-07,7.1385,-1.1145e-12,3.3015e-05,-9.5006e-07,-7.1383,0.3738
12545,7.1914,1.9091,0,0.0004134,4131.2,0.00014523,0.068732,0.00012132,-179.61,-0.00041617,-4218,0.37462
12546,7.2838,1.8182,0,0.00041062,4103.4,0.00014341,0.067929,0.00012196,-161.12,-0.00041312,-4181.5,0.38375
12547,7.1914,1.8182,0.05,1.3217e-06,13.208,1.0149e-06,7.6259,-2.2115e-12,2.8955e-05,-1.0149e-06,-7.6258,0.37435
12548,7.1914,2.0909,0,0.00041325,4129.7,0.0001464,0.053908,0.00011913,-204.77,-0.00041635,-4228.2,0.37504
12549,7.2838,2,0,0.00041038,4100.9,0.00014453,0.054104,0.00011979,-185.8,-0.00041322,-4190.7,0.38421
12550,7.1914,2,0.05,1.3947e-06,13.937,1.0709e-06,8.0467,-2.4086e-12,2.651e-05,-1.0709e-06,-8.0465,0.37481
12551,7.1914,2.2727,0,0.0004131,4128.2,0.00014742,0.040697,0.00011719,-227.1,-0.0004165,-4237,0.37539
12552,7.2838,2.1818,0,0.00041014,4098.6,0.00014554,0.041333,0.00011781,-208.3,-0.00041329,-4198.7,0.38459
12553,7.1914,2.1818,0.05,1.4554e-06,14.544,1.1176e-06,8.397,-1.6286e-12,1.8767e-05,-1.1176e-06,-8.3969,0.37519
12554,7.1914,2.4545,0,0.00041297,4126.8,0.00014827,0.029739,0.00011557,-245.6,-0.0004166,-4244.1,0.37565
12555,7.2838,2.3636,0,0.00040993,4096.4,0.0001464,0.030276,0.0001161,-227.63,-0.00041332,-4205.5,0.38489
12556,7.1914,2.3636,0.05,1.5037e-06,15.027,1.1547e-06,8.6758,-2.3909e-12,1.6124e-05,-1.1547e-06,-8.6756,0.37549
12557,7.1914,2.6364,0,0.00041286,4125.8,0.0001489,0.021548,0.00011436,-259.45,-0.00041666,-4249.4,0.37584
12558,7.2838,2.5455,0,0.00040975,4094.7,0.00014707,0.021488,0.00011474,-242.93,-0.00041334,-4210.7,0.38512
12559,7.1914,2.5455,0.05,1.5397e-06,15.386,1.1823e-06,8.8832,-1.6683e-12,5.3635e-06,-1.1823e-06,-8.8832,0.37572
12560,7.1914,2.8182,0,0.0004128,4125.1,0.00014928,0.016488,0.00011361,-268.02,-0.0004167,-4252.6,0.37595
12561,7.2838,2.7273,0,0.00040963,4093.5,0.00014754,0.015394,0.0001138,-253.53,-0.00041335,-4214.3,0.38527
12562,7.1914,2.7273,0.05,1.5635e-06,15.624,1.2006e-06,9.0206,-3.0016e-12,1.7056e-06,-1.2006e-06,-9.0206,0.37587
12563,7.1914,3,0,0.00041277,4124.9,0.00014942,0.014777,0.00011336,-270.92,-0.00041671,-4253.7,0.37599
12564,7.2838,2.9091,0,0.00040956,4092.8,0.00014778,0.012276,0.00011331,-258.95,-0.00041335,-4216.1,0.38534
12565,7.1914,2.9091,0.05,1.5753e-06,15.743,1.2097e-06,9.089,2.3696e-13,-6.6725e-06,-1.2097e-06,-9.089,0.37594
12566,7.1914,3.1818,0,0.0004128,4125.1,0.00014928,0.016488,0.00011361,-268.02,-0.0004167,-4252.6,0.37595
12567,7.2838,3.0909,0,0.00040956,4092.8,0.00014778,0.012276,0.00011331,-258.95,-0.00041335,-4216.1,0.38534
12568,7.1914,3.0909,0.05,1.5753e-06,15.743,1.2097e-06,9.089,-1.149e-12,-9.7483e-07,-1.2097e-06,-9.089,0.37594
12569,7.1914,3.3636,0,0.00041286,4125.8,0.0001489,0.021548,0.00011436,-259.45,-0.00041666,-4249.4,0.37584
12570,7.2838,3.2727,0,0.00040963,4093.5,0.00014754,0.015394,0.0001138,-253.53,-0.00041335,-4214.3,0.38527
12571,7.1914,3.2727,0.05,1.5635e-06,15.624,1.2006e-06,9.0206,2.7427e-13,-5.7251e-06,-1.2006e-06,-9.0206,0.37587
12572,7.1914,3.5455,0,0.00041297,4126.8,0.00014827,0.029739,0.00011558,-245.6,-0.0004166,-4244.1,0.37565
12573,7.2838,3.4545,0,0.00040975,4094.7,0.00014707,0.021488,0.00011474,-242.93,-0.00041334,-4210.7,0.38512
12574,7.1914,3.4545,0.05,1.5397e-06,15.386,1.1823e-06,8.8832,7.0165e-13,-7.5492e-06,-1.1823e-06,-8.8832,0.37572
12575,7.1914,3.7273,0,0.0004131,4128.2,0.00014742,0.040697,0.00011719,-227.1,-0.0004165,-4237,0.37539
12576,7.2838,3.6364,0,0.00040993,4096.4,0.0001464,0.030276,0.0001161,-227.63,-0.00041332,-4205.5,0.38489
12577,7.1914,3.6364,0.05,1.5037e-06,15.027,1.1547e-06,8.6757,1.3789e-12,-1.1468e-05,-1.1547e-06,-8.6757,0.37549
12578,7.1914,3.9091,0,0.00041325,4129.7,0.0001464,0.053908,0.00011914,-204.77,-0.00041635,-4228.2,0.37504
12579,7.2838,3.8182,0,0.00041014,4098.6,0.00014554,0.041333,0.00011781,-208.3,-0.00041329,-4198.7,0.38459
12580,7.1914,3.8182,0.05,1.4554e-06,14.544,1.1176e-06,8.3969,5.7063e-13,-2.0668e-05,-1.1176e-06,-8.397,0.37519
12581,7.1914,4.0909,0,0.0004134,4131.2,0.00014523,0.068732,0.00012132,-179.61,-0.00041617,-4218,0.37462
12582,7.2838,4,0,0.00041038,4100.9,0.00014453,0.054104,0.00011979,-185.8,-0.00041322,-4190.7,0.38421
12583,7.1914,4,0.05,1.3947e-06,13.937,1.0709e-06,8.0465,1.3108e-12,-3.2127e-05,-1.0709e-06,-8.0467,0.37481
12584,7.1914,4.2727,0,0.00041354,4132.5,0.00014397,0.084449,0.00012363,-152.72,-0.00041592,-4206.7,0.37412
12585,7.2838,4.1818,0,0.00041062,4103.4,0.00014341,0.067928,0.00012196,-161.12,-0.00041312,-4181.5,0.38375
12586,7.1914,4.1818,0.05,1.3217e-06,13.208,1.0149e-06,7.6258,2.4759e-12,-3.5036e-05,-1.0149e-06,-7.6259,0.37435
12587,7.1914,4.4545,0,0.00041364,4133.5,0.00014267,0.10033,0.00012598,-125.26,-0.00041563,-4194.7,0.37354
12588,7.2838,4.3636,0,0.00041085,4105.6,0.00014223,0.082098,0.00012422,-135.29,-0.00041298,-4171.6,0.38321
12589,7.1914,4.3636,0.05,1.2373e-06,12.364,9.5006e-07,7.1383,1.1109e-13,-3.7688e-05,-9.5007e-07,-7.1385,0.3738
12590,7.1914,4.6364,0,0.00041369,4134,0.00014137,0.11571,0.00012826,-98.382,-0.00041527,-4182.3,0.37287
12591,7.2838,4.5455,0,0.00041104,4107.6,0.00014103,0.095912,0.00012646,-109.41,-0.00041279,-4161.1,0.38259
12592,7.1914,4.5455,0.05,1.1425e-06,11.417,8.773e-07,6.5916,2.1309e-13,-5.4468e-05,-8.773e-07,-6.5918,0.37318
12593,7.1914,4.8182,0,0.00041367,4133.9,0.00014013,0.13013,0.00013038,-73.15,-0.00041487,-4169.9,0.37212
12594,7.2838,4.7273,0,0.00041118,4109,0.00013986,0.10876,0.0001286,-84.513,-0.00041255,-4150.5,0.38188
12595,7.1914,4.7273,0.05,1.0395e-06,10.388,7.9819e-07,5.9972,1.9567e-12,-3.9593e-05,-7.982e-07,-5.9974,0.37247
12596,7.1914,5,0,0.00041359,4133.1,0.00013899,0.14363,0.00013225,-50.527,-0.00041443,-4158,0.37129
12597,7.2838,4.9091,0,0.00041126,4109.8,0.00013876,0.12021,0.00013056,-61.542,-0.00041227,-4140.2,0.38109
12598,7.1914,4.9091,0.05,9.3115e-07,9.3051,7.15e-07,5.3722,1.5752e-12,-7.4625e-05,-7.1502e-07,-5.3724,0.37168
12599,7.1914,5.1818,0,0.00041344,4131.5,0.000138,0.1572,0.00013381,-31.303,-0.00041396,-4147,0.37036
12600,7.2838,5.0909,0,0.00041128,4109.9,0.00013777,0.13036,0.00013226,-41.315,-0.00041196,-4130.4,0.38021
12601,7.1914,5.0909,0.05,8.2159e-07,8.2102,6.3087e-07,4.74,2.9573e-12,-6.9831e-05,-6.3088e-07,-4.7403,0.3708
12602,7.1914,5.3636,0,0.00041323,4129.5,0.00013718,0.1772,0.00013501,-16.072,-0.0004135,-4137.4,0.36935
12603,7.2838,5.2727,0,0.00041123,4109.5,0.00013693,0.1404,0.00013365,-24.48,-0.00041164,-4121.6,0.37925
12604,7.1914,5.2727,0.05,7.1618e-07,7.1568,5.4993e-07,4.1319,5.9643e-12,-4.3206e-05,-5.4994e-07,-4.1321,0.36983
12605,7.1914,5.5455,0,0.00041299,4127,0.00013656,0.24111,0.00013584,-5.2207,-0.00041307,-4129.5,0.36825
12606,7.2838,5.4545,0,0.00041113,4108.5,0.00013625,0.15862,0.00013471,-11.478,-0.00041132,-4114.1,0.37819
12607,7.1914,5.4545,0.05,6.2054e-07,6.2012,4.7649e-07,3.58,5.2569e-12,-6.132e-05,-4.7651e-07,-3.5804,0.36877
12608,7.1914,5.7273,0,0.00041277,4124.9,0.00013639,1.9365,0.0001361,-0.20154,-0.00041274,-4124,0.36706
12609,7.2838,5.6364,0,0.00041101,4107.3,0.00013578,0.26818,0.0001354,-2.586,-0.00041105,-4108.5,0.37705
12610,7.1914,5.6364,0.05,5.1391e-07,5.1355,3.9461e-07,2.9648,1.1248e-11,-3.519e-05,-3.9463e-07,-2.9652,0.36762
12611,7.2838,5.8182,0,0.00041097,4106.9,0.00013589,3.2322,0.00013546,-0.059328,-0.00041092,-4105.3,0.37582
12612,7.1914,5.8182,0.05,1.0335e-07,1.0328,7.9358e-08,0.59617,-6.448e-12,-0.00014067,-7.9361e-08,-0.59639,0.36639
12613,7.1914,5.9091,0,0.00041239,4121.1,0.00013632,2.8371,0.00013596,0.069856,-0.00041234,-4119.6,0.36578
12614,7.3761,0.27273,0,0.00040921,4089.2,0.00013513,0.32818,0.00013492,-1.2493,-0.00040922,-4089.7,0.38591
12615,7.4685,0.18182,0,0.00040731,4070.3,0.00013456,1.6734,0.00013432,-0.15553,-0.00040728,-4069.5,0.39482
12616,7.3761,0.18182,0.05,8.382e-08,0.83762,6.4351e-08,0.48361,3.9838e-11,0.00037094,-6.4376e-08,-0.48359,0.38525
12617,7.3761,0.090909,0,0.00040906,4087.7,0.00013514,1.8099,0.0001349,0.066212,-0.00040903,-4086.8,0.38464
12618,7.3761,0.45455,0,0.00040916,4088.7,0.00013547,0.12548,0.00013428,-8.8008,-0.0004093,-4093.1,0.38709
12619,7.4685,0.36364,0,0.00040712,4068.4,0.00013462,0.12412,0.00013389,-5.3723,-0.00040721,-4071,0.39604
12620,7.3761,0.36364,0.05,6.0623e-07,6.0581,4.6552e-07,3.4978,-1.1718e-11,1.7559e-05,-4.6549e-07,-3.4975,0.38647
12621,7.3761,0.63636,0,0.00040913,4088.4,0.00013601,0.11518,0.00013334,-19.897,-0.00040946,-4098.3,0.38818
12622,7.4685,0.54545,0,0.000407,4067.2,0.00013505,0.10168,0.00013306,-14.853,-0.00040725,-4074.5,0.39717
12623,7.3761,0.54545,0.05,6.9493e-07,6.9445,5.3363e-07,4.0096,-7.5037e-12,2.0182e-05,-5.3361e-07,-4.0093,0.38761
12624,7.3761,0.81818,0,0.00040906,4087.8,0.00013671,0.1108,0.0001321,-34.508,-0.00040964,-4104.9,0.38919
12625,7.4685,0.72727,0,0.00040686,4065.8,0.00013563,0.099025,0.00013195,-27.581,-0.00040732,-4079.4,0.39821
12626,7.3761,0.72727,0.05,7.6793e-07,7.674,5.8969e-07,4.4308,-6.541e-12,4.3973e-05,-5.8966e-07,-4.4304,0.38866
12627,7.3761,1,0,0.00040894,4086.6,0.00013755,0.10516,0.00013056,-52.347,-0.00040981,-4112.5,0.3901
12628,7.4685,0.90909,0,0.00040667,4063.9,0.00013635,0.095455,0.00013056,-43.403,-0.00040739,-4085.3,0.39917
12629,7.3761,0.90909,0.05,8.4948e-07,8.4889,6.523e-07,4.9012,-4.6944e-12,3.431e-05,-6.5229e-07,-4.901,0.38962
12630,7.3761,1.1818,0,0.00040877,4084.8,0.0001385,0.09744,0.00012878,-72.92,-0.00040995,-4120.8,0.39094
12631,7.4685,1.0909,0,0.00040642,4061.4,0.00013718,0.090098,0.00012893,-61.952,-0.00040744,-4092,0.40004
12632,7.3761,1.0909,0.05,9.3574e-07,9.351,7.1854e-07,5.3989,-2.7026e-12,2.5271e-05,-7.1853e-07,-5.3987,0.39049
12633,7.3761,1.3636,0,0.00040853,4082.5,0.00013953,0.08777,0.0001268,-95.558,-0.00041007,-4129.4,0.39168
12634,7.4685,1.2727,0,0.00040612,4058.4,0.0001381,0.082612,0.00012709,-82.684,-0.00040746,-4099.1,0.40083
12635,7.3761,1.2727,0.05,1.0222e-06,10.215,7.8491e-07,5.8976,-3.9879e-12,5.3247e-05,-7.849e-07,-5.8973,0.39128
12636,7.3761,1.5455,0,0.00040824,4079.6,0.0001406,0.07662,0.00012469,-119.45,-0.00041014,-4138,0.39234
12637,7.4685,1.4545,0,0.00040577,4054.9,0.00013907,0.073409,0.0001251,-104.91,-0.00040745,-4106.3,0.40153
12638,7.3761,1.4545,0.05,1.1051e-06,11.044,8.486e-07,6.3761,-2.7913e-12,2.7592e-05,-8.4859e-07,-6.3759,0.39199
12639,7.3761,1.7273,0,0.00040792,4076.4,0.00014167,0.0646,0.00012254,-143.69,-0.00041018,-4146.3,0.39292
12640,7.4685,1.6364,0,0.00040539,4051.1,0.00014007,0.063009,0.00012304,-127.83,-0.00040741,-4113.5,0.40215
12641,7.3761,1.6364,0.05,1.1819e-06,11.81,9.0753e-07,6.8189,-2.5751e-12,2.63e-05,-9.0752e-07,-6.8187,0.39261
12642,7.3761,1.9091,0,0.00040759,4073.1,0.00014271,0.052384,0.00012044,-167.31,-0.00041018,-4154.1,0.39342
12643,7.4685,1.8182,0,0.00040499,4047.1,0.00014104,0.052033,0.00012099,-150.56,-0.00040734,-4120.2,0.40269
12644,7.3761,1.8182,0.05,1.2505e-06,12.497,9.6025e-07,7.215,-2.4387e-12,2.4479e-05,-9.6024e-07,-7.2148,0.39315
12645,7.3761,2.0909,0,0.00040726,4069.8,0.00014367,0.04066,0.00011847,-189.34,-0.00041015,-4161.2,0.39384
12646,7.4685,2,0,0.00040459,4043.1,0.00014196,0.041127,0.00011903,-172.2,-0.00040725,-4126.5,0.40315
12647,7.3761,2,0.05,1.3099e-06,13.09,1.0058e-06,7.5574,-2.445e-12,2.2516e-05,-1.0058e-06,-7.5573,0.39361
12648,7.3761,2.2727,0,0.00040696,4066.8,0.00014451,0.030081,0.00011671,-208.83,-0.00041011,-4167.2,0.39418
12649,7.4685,2.1818,0,0.00040422,4039.4,0.00014279,0.030924,0.00011725,-191.86,-0.00040714,-4131.9,0.40353
12650,7.3761,2.1818,0.05,1.3593e-06,13.584,1.0438e-06,7.8426,-3.2201e-12,3.4919e-06,-1.0438e-06,-7.8425,0.39399
12651,7.3761,2.4545,0,0.00040671,4064.3,0.0001452,0.021222,0.00011526,-224.96,-0.00041007,-4172.1,0.39445
12652,7.4685,2.3636,0,0.0004039,4036.2,0.00014349,0.022006,0.00011571,-208.72,-0.00040704,-4136.5,0.40383
12653,7.3761,2.3636,0.05,1.3986e-06,13.976,1.074e-06,8.0693,-2.2342e-12,1.4468e-05,-1.074e-06,-8.0692,0.39429
12654,7.3761,2.6364,0,0.00040652,4062.4,0.00014572,0.014552,0.00011417,-237.01,-0.00041003,-4175.7,0.39464
12655,7.4685,2.5455,0,0.00040364,4033.6,0.00014405,0.014868,0.0001145,-222.04,-0.00040696,-4140,0.40406
12656,7.3761,2.5455,0.05,1.4278e-06,14.268,1.0964e-06,8.2378,-3.0395e-12,5.2421e-06,-1.0964e-06,-8.2377,0.39452
12657,7.3761,2.8182,0,0.0004064,4061.2,0.00014604,0.010413,0.0001135,-244.47,-0.00041,-4177.9,0.39475
12658,7.4685,2.7273,0,0.00040346,4031.8,0.00014443,0.0098908,0.00011365,-231.26,-0.00040689,-4142.4,0.40421
12659,7.3761,2.7273,0.05,1.4471e-06,14.461,1.1112e-06,8.3491,-9.1621e-13,7.0196e-07,-1.1112e-06,-8.3492,0.39467
12660,7.3761,3,0,0.00040636,4060.7,0.00014615,0.0090098,0.00011327,-246.99,-0.00040999,-4178.6,0.39479
12661,7.4685,2.9091,0,0.00040336,4030.8,0.00014463,0.0073365,0.00011322,-235.97,-0.00040686,-4143.6,0.40428
12662,7.3761,2.9091,0.05,1.4567e-06,14.557,1.1186e-06,8.4045,-8.9768e-13,-6.7343e-07,-1.1186e-06,-8.4045,0.39474
12663,7.3761,3.1818,0,0.0004064,4061.2,0.00014604,0.010413,0.0001135,-244.47,-0.00041,-4177.9,0.39475
12664,7.4685,3.0909,0,0.00040336,4030.8,0.00014463,0.0073364,0.00011322,-235.97,-0.00040686,-4143.6,0.40428
12665,7.3761,3.0909,0.05,1.4567e-06,14.557,1.1186e-06,8.4045,-9.2228e-13,-3.0862e-06,-1.1186e-06,-8.4045,0.39474
12666,7.3761,3.3636,0,0.00040652,4062.4,0.00014572,0.014552,0.00011417,-237.01,-0.00041003,-4175.7,0.39464
12667,7.4685,3.2727,0,0.00040346,4031.8,0.00014443,0.0098908,0.00011365,-231.26,-0.00040689,-4142.4,0.40421
12668,7.3761,3.2727,0.05,1.4471e-06,14.461,1.1112e-06,8.3492,2.6564e-14,-4.6821e-06,-1.1112e-06,-8.3491,0.39467
12669,7.3761,3.5455,0,0.00040671,4064.3,0.0001452,0.021222,0.00011526,-224.96,-0.00041007,-4172.1,0.39445
12670,7.4685,3.4545,0,0.00040364,4033.6,0.00014405,0.014868,0.0001145,-222.04,-0.00040696,-4140,0.40406
12671,7.3761,3.4545,0.05,1.4278e-06,14.268,1.0964e-06,8.2377,2.08e-12,-7.6558e-06,-1.0964e-06,-8.2378,0.39452
12672,7.3761,3.7273,0,0.00040696,4066.8,0.00014451,0.03008,0.00011671,-208.83,-0.00041011,-4167.2,0.39418
12673,7.4685,3.6364,0,0.0004039,4036.2,0.00014349,0.022006,0.00011571,-208.72,-0.00040704,-4136.5,0.40383
12674,7.3761,3.6364,0.05,1.3986e-06,13.976,1.074e-06,8.0692,1.242e-12,-8.7895e-06,-1.074e-06,-8.0693,0.39429
12675,7.3761,3.9091,0,0.00040726,4069.8,0.00014367,0.04066,0.00011847,-189.34,-0.00041015,-4161.2,0.39384
12676,7.4685,3.8182,0,0.00040422,4039.4,0.00014279,0.030924,0.00011725,-191.86,-0.00040714,-4131.9,0.40353
12677,7.3761,3.8182,0.05,1.3593e-06,13.584,1.0438e-06,7.8425,1.3577e-12,-6.9009e-06,-1.0438e-06,-7.8426,0.39399
12678,7.3761,4.0909,0,0.00040759,4073.1,0.00014271,0.052384,0.00012044,-167.31,-0.00041018,-4154.1,0.39342
12679,7.4685,4,0,0.00040459,4043.1,0.00014196,0.041127,0.00011903,-172.2,-0.00040725,-4126.5,0.40315
12680,7.3761,4,0.05,1.3099e-06,13.09,1.0058e-06,7.5573,2.2357e-12,-1.7466e-05,-1.0058e-06,-7.5574,0.39361
12681,7.3761,4.2727,0,0.00040792,4076.4,0.00014167,0.064599,0.00012254,-143.69,-0.00041018,-4146.3,0.39292
12682,7.4685,4.1818,0,0.00040499,4047.1,0.00014104,0.052033,0.00012099,-150.56,-0.00040734,-4120.2,0.40269
12683,7.3761,4.1818,0.05,1.2505e-06,12.497,9.6024e-07,7.2148,2.134e-12,-2.8485e-05,-9.6025e-07,-7.215,0.39315
12684,7.3761,4.4545,0,0.00040824,4079.6,0.0001406,0.07662,0.00012469,-119.45,-0.00041014,-4138,0.39234
12685,7.4685,4.3636,0,0.00040539,4051.1,0.00014007,0.063009,0.00012304,-127.83,-0.00040741,-4113.5,0.40215
12686,7.3761,4.3636,0.05,1.1819e-06,11.81,9.0752e-07,6.8187,2.1609e-12,-2.9044e-05,-9.0753e-07,-6.8189,0.39261
12687,7.3761,4.6364,0,0.00040853,4082.5,0.00013953,0.08777,0.0001268,-95.558,-0.00041007,-4129.4,0.39168
12688,7.4685,4.5455,0,0.00040577,4054.9,0.00013907,0.073409,0.0001251,-104.91,-0.00040745,-4106.3,0.40153
12689,7.3761,4.5455,0.05,1.1051e-06,11.044,8.4859e-07,6.3759,2.3352e-12,-2.9888e-05,-8.486e-07,-6.3761,0.39199
12690,7.3761,4.8182,0,0.00040877,4084.8,0.0001385,0.09744,0.00012878,-72.92,-0.00040995,-4120.8,0.39094
12691,7.4685,4.7273,0,0.00040612,4058.4,0.0001381,0.082611,0.00012709,-82.684,-0.00040746,-4099.1,0.40083
12692,7.3761,4.7273,0.05,1.0222e-06,10.215,7.849e-07,5.8973,4.3016e-12,-4.2505e-05,-7.8491e-07,-5.8976,0.39128
12693,7.3761,5,0,0.00040894,4086.6,0.00013755,0.10516,0.00013056,-52.347,-0.00040981,-4112.5,0.3901
12694,7.4685,4.9091,0,0.00040642,4061.4,0.00013718,0.090097,0.00012893,-61.952,-0.00040744,-4092,0.40004
12695,7.3761,4.9091,0.05,9.3575e-07,9.351,7.1853e-07,5.3987,2.3293e-12,-2.7262e-05,-7.1854e-07,-5.3989,0.39049
12696,7.3761,5.1818,0,0.00040906,4087.8,0.00013671,0.1108,0.0001321,-34.508,-0.00040964,-4104.9,0.38919
12697,7.4685,5.0909,0,0.00040667,4063.9,0.00013635,0.095454,0.00013056,-43.403,-0.00040739,-4085.3,0.39917
12698,7.3761,5.0909,0.05,8.4948e-07,8.4889,6.5229e-07,4.901,4.3315e-12,-3.7351e-05,-6.523e-07,-4.9012,0.38962
12699,7.3761,5.3636,0,0.00040913,4088.4,0.00013601,0.11518,0.00013334,-19.897,-0.00040946,-4098.3,0.38818
12700,7.4685,5.2727,0,0.00040686,4065.8,0.00013563,0.099024,0.00013195,-27.581,-0.00040732,-4079.4,0.39821
12701,7.3761,5.2727,0.05,7.6793e-07,7.674,5.8967e-07,4.4304,6.2261e-12,-3.895e-05,-5.8968e-07,-4.4307,0.38866
12702,7.3761,5.5455,0,0.00040916,4088.7,0.00013547,0.12548,0.00013428,-8.8007,-0.0004093,-4093.1,0.38709
12703,7.4685,5.4545,0,0.000407,4067.2,0.00013505,0.10168,0.00013306,-14.853,-0.00040725,-4074.5,0.39717
12704,7.3761,5.4545,0.05,6.9493e-07,6.9445,5.3361e-07,4.0093,7.2843e-12,-2.6052e-05,-5.3363e-07,-4.0096,0.38761
12705,7.3761,5.7273,0,0.00040921,4089.2,0.00013513,0.32818,0.00013492,-1.2492,-0.00040922,-4089.7,0.38591
12706,7.4685,5.6364,0,0.00040712,4068.4,0.00013462,0.12412,0.00013389,-5.3723,-0.00040721,-4071,0.39604
12707,7.3761,5.6364,0.05,6.0623e-07,6.0581,4.6549e-07,3.4975,1.1603e-11,-1.5602e-05,-4.6552e-07,-3.4978,0.38647
12708,7.4685,5.8182,0,0.00040731,4070.3,0.00013456,1.6735,0.00013432,-0.15553,-0.00040728,-4069.5,0.39482
12709,7.3761,5.8182,0.05,8.382e-08,0.83762,6.4375e-08,0.48359,-3.6732e-11,-0.00037035,-6.4351e-08,-0.48361,0.38525
12710,7.3761,5.9091,0,0.00040906,4087.8,0.00013514,1.8099,0.0001349,0.066211,-0.00040903,-4086.8,0.38464
12711,7.5609,0.27273,0,0.00040521,4049.3,0.00013388,0.14282,0.00013346,-2.9964,-0.00040526,-4050.8,0.40504
12712,7.6532,0.18182,0,0.00040324,4029.6,0.00013315,0.76174,0.000133,-0.40608,-0.00040323,-4029.4,0.41409
12713,7.5609,0.18182,0.05,1.3454e-07,1.3445,1.0331e-07,0.77635,1.5157e-11,0.00021239,-1.0331e-07,-0.77613,0.40438
12714,7.5609,0.090909,0,0.00040524,4049.6,0.00013382,1.0938,0.00013368,0.048836,-0.00040522,-4049,0.40378
12715,7.5609,0.45455,0,0.00040496,4046.8,0.00013421,0.086993,0.00013268,-11.429,-0.00040515,-4052.4,0.40621
12716,7.6532,0.36364,0,0.00040287,4025.9,0.00013332,0.089085,0.00013232,-7.4324,-0.00040299,-4029.6,0.4153
12717,7.5609,0.36364,0.05,6.7851e-07,6.7804,5.2103e-07,3.9149,-8.3744e-12,1.7942e-05,-5.2099e-07,-3.9145,0.4056
12718,7.5609,0.63636,0,0.00040472,4044.4,0.00013468,0.082645,0.00013167,-22.553,-0.0004051,-4055.6,0.40729
12719,7.6532,0.54545,0,0.00040257,4022.9,0.00013371,0.073258,0.00013141,-17.202,-0.00040286,-4031.5,0.41642
12720,7.5609,0.54545,0.05,7.5476e-07,7.5424,5.7958e-07,4.3548,-1.0769e-11,2.1197e-05,-5.7955e-07,-4.3544,0.40672
12721,7.5609,0.81818,0,0.00040446,4041.8,0.00013528,0.082252,0.00013041,-36.495,-0.00040506,-4059.9,0.40829
12722,7.6532,0.72727,0,0.00040225,4019.7,0.00013421,0.074188,0.00013027,-29.558,-0.00040274,-4034.4,0.41746
12723,7.5609,0.72727,0.05,8.1108e-07,8.1052,6.2282e-07,4.6797,-8.3137e-12,2.5146e-05,-6.228e-07,-4.6794,0.40777
12724,7.5609,1,0,0.00040414,4038.6,0.00013599,0.079381,0.00012892,-53.025,-0.00040502,-4064.8,0.4092
12725,7.6532,0.90909,0,0.00040189,4016.1,0.00013482,0.072384,0.0001289,-44.39,-0.00040263,-4038.1,0.41841
12726,7.5609,0.90909,0.05,8.7416e-07,8.7356,6.7125e-07,5.0436,-5.9114e-12,3.4572e-05,-6.7124e-07,-5.0433,0.40872
12727,7.5609,1.1818,0,0.00040377,4035,0.00013679,0.07442,0.00012723,-71.731,-0.00040495,-4070.3,0.41003
12728,7.6532,1.0909,0,0.00040148,4012,0.00013552,0.069079,0.00012734,-61.393,-0.00040249,-4042.4,0.41928
12729,7.5609,1.0909,0.05,9.4172e-07,9.4107,7.2313e-07,5.4334,-4.7862e-12,2.9168e-05,-7.2311e-07,-5.4331,0.40959
12730,7.5609,1.3636,0,0.00040336,4030.8,0.00013765,0.067484,0.00012539,-92.047,-0.00040485,-4076,0.41077
12731,7.6532,1.2727,0,0.00040103,4007.5,0.00013629,0.063733,0.00012562,-80.108,-0.00040233,-4046.9,0.42006
12732,7.5609,1.2727,0.05,1.0102e-06,10.095,7.7568e-07,5.8283,-6.6609e-12,3.5677e-05,-7.7567e-07,-5.828,0.41037
12733,7.5609,1.5455,0,0.00040292,4026.4,0.00013854,0.05908,0.00012345,-113.29,-0.00040472,-4081.8,0.41143
12734,7.6532,1.4545,0,0.00040054,4002.6,0.0001371,0.056815,0.00012379,-99.956,-0.00040214,-4051.6,0.42076
12735,7.5609,1.4545,0.05,1.0764e-06,10.757,8.2657e-07,6.2106,-3.0037e-12,2.6173e-05,-8.2655e-07,-6.2103,0.41107
12736,7.5609,1.7273,0,0.00040245,4021.7,0.00013943,0.049758,0.0001215,-134.7,-0.00040457,-4087.4,0.41201
12737,7.6532,1.6364,0,0.00040003,3997.5,0.00013793,0.048757,0.00012191,-120.26,-0.00040194,-4056.3,0.42137
12738,7.5609,1.6364,0.05,1.1381e-06,11.374,8.7396e-07,6.5666,-4.2877e-12,2.0986e-05,-8.7395e-07,-6.5665,0.41169
12739,7.5609,1.9091,0,0.00040199,4017.1,0.00014028,0.040116,0.00011959,-155.45,-0.00040441,-4092.6,0.4125
12740,7.6532,1.8182,0,0.00039952,3992.4,0.00013873,0.040101,0.00012006,-140.28,-0.00040172,-4060.7,0.42191
12741,7.5609,1.8182,0.05,1.1936e-06,11.928,9.1656e-07,6.8867,-2.7911e-12,2.0603e-05,-9.1654e-07,-6.8865,0.41223
12742,7.5609,2.0909,0,0.00040155,4012.7,0.00014107,0.030751,0.00011782,-174.73,-0.00040423,-4097.2,0.41292
12743,7.6532,2,0,0.00039902,3987.5,0.00013949,0.031396,0.00011829,-159.26,-0.00040149,-4064.7,0.42237
12744,7.5609,2,0.05,1.2417e-06,12.409,9.5351e-07,7.1643,-2.7703e-12,9.2099e-06,-9.535e-07,-7.1642,0.41269
12745,7.5609,2.2727,0,0.00040115,4008.8,0.00014177,0.022225,0.00011624,-191.75,-0.00040407,-4101.2,0.41326
12746,7.6532,2.1818,0,0.00039857,3983,0.00014017,0.023182,0.00011669,-176.44,-0.00040128,-4068.2,0.42275
12747,7.5609,2.1818,0.05,1.2819e-06,12.81,9.8434e-07,7.396,-1.6768e-12,9.2347e-06,-9.8433e-07,-7.3959,0.41307
12748,7.5609,2.4545,0,0.00040083,4005.5,0.00014234,0.01504,0.00011495,-205.79,-0.00040393,-4104.4,0.41353
12749,7.6532,2.3636,0,0.00039818,3979,0.00014075,0.015956,0.00011531,-191.13,-0.00040109,-4071.2,0.42305
12750,7.5609,2.3636,0.05,1.3138e-06,13.129,1.0089e-06,7.5803,-2.4446e-12,7.5824e-06,-1.0089e-06,-7.5802,0.41337
12751,7.5609,2.6364,0,0.00040058,4003,0.00014276,0.0096033,0.00011397,-216.28,-0.00040382,-4106.8,0.41371
12752,7.6532,2.5455,0,0.00039787,3975.9,0.00014121,0.010144,0.00011423,-202.73,-0.00040093,-4073.4,0.42327
12753,7.5609,2.5455,0.05,1.3376e-06,13.367,1.0271e-06,7.7174,-2.0566e-12,5.9043e-06,-1.0271e-06,-7.7173,0.41359
12754,7.5609,2.8182,0,0.00040042,4001.5,0.00014302,0.0062174,0.00011337,-222.76,-0.00040375,-4108.2,0.41383
12755,7.6532,2.7273,0,0.00039765,3973.8,0.00014153,0.0060773,0.00011348,-210.74,-0.00040082,-4075,0.42342
12756,7.5609,2.7273,0.05,1.3533e-06,13.524,1.0392e-06,7.8079,-1.442e-12,1.195e-06,-1.0392e-06,-7.8079,0.41374
12757,7.5609,3,0,0.00040037,4001,0.00014311,0.0050677,0.00011317,-224.95,-0.00040372,-4108.7,0.41386
12758,7.6532,2.9091,0,0.00039754,3972.7,0.00014169,0.0039857,0.00011309,-214.84,-0.00040076,-4075.7,0.4235
12759,7.5609,2.9091,0.05,1.3611e-06,13.602,1.0452e-06,7.8529,-1.0748e-12,3.6186e-06,-1.0452e-06,-7.8529,0.41382
12760,7.5609,3.1818,0,0.00040042,4001.5,0.00014302,0.0062173,0.00011337,-222.76,-0.00040375,-4108.2,0.41383
12761,7.6532,3.0909,0,0.00039754,3972.7,0.00014169,0.0039851,0.00011309,-214.84,-0.00040076,-4075.7,0.4235
12762,7.5609,3.0909,0.05,1.3611e-06,13.602,1.0452e-06,7.8529,1.0757e-12,-3.6389e-06,-1.0452e-06,-7.8529,0.41382
12763,7.5609,3.3636,0,0.00040058,4003,0.00014276,0.0096032,0.00011397,-216.28,-0.00040382,-4106.8,0.41371
12764,7.6532,3.2727,0,0.00039765,3973.8,0.00014153,0.0060773,0.00011348,-210.74,-0.00040082,-4075,0.42342
12765,7.5609,3.2727,0.05,1.3533e-06,13.524,1.0392e-06,7.8079,5.8058e-13,-1.367e-06,-1.0392e-06,-7.8079,0.41374
12766,7.5609,3.5455,0,0.00040083,4005.5,0.00014234,0.015039,0.00011495,-205.79,-0.00040393,-4104.4,0.41353
12767,7.6532,3.4545,0,0.00039787,3975.9,0.00014121,0.010144,0.00011423,-202.73,-0.00040093,-4073.4,0.42327
12768,7.5609,3.4545,0.05,1.3376e-06,13.367,1.0271e-06,7.7173,1.1072e-12,-4.9294e-06,-1.0271e-06,-7.7174,0.41359
12769,7.5609,3.7273,0,0.00040116,4008.8,0.00014177,0.022225,0.00011624,-191.75,-0.00040407,-4101.2,0.41326
12770,7.6532,3.6364,0,0.00039818,3979,0.00014075,0.015956,0.00011531,-191.13,-0.00040109,-4071.2,0.42305
12771,7.5609,3.6364,0.05,1.3138e-06,13.129,1.0089e-06,7.5803,2.331e-12,-3.9334e-06,-1.0089e-06,-7.5803,0.41337
12772,7.5609,3.9091,0,0.00040155,4012.7,0.00014107,0.03075,0.00011782,-174.73,-0.00040423,-4097.2,0.41292
12773,7.6532,3.8182,0,0.00039857,3983,0.00014017,0.023182,0.00011669,-176.44,-0.00040128,-4068.2,0.42275
12774,7.5609,3.8182,0.05,1.2819e-06,12.81,9.8433e-07,7.3959,1.5194e-12,-8.5397e-06,-9.8434e-07,-7.396,0.41307
12775,7.5609,4.0909,0,0.00040199,4017.1,0.00014028,0.040116,0.00011959,-155.45,-0.00040441,-4092.6,0.4125
12776,7.6532,4,0,0.00039902,3987.5,0.00013949,0.031396,0.00011829,-159.26,-0.00040149,-4064.7,0.42237
12777,7.5609,4,0.05,1.2417e-06,12.409,9.535e-07,7.1642,8.8978e-13,-1.0807e-05,-9.5351e-07,-7.1643,0.41269
12778,7.5609,4.2727,0,0.00040245,4021.7,0.00013943,0.049757,0.0001215,-134.7,-0.00040457,-4087.4,0.41201
12779,7.6532,4.1818,0,0.00039952,3992.4,0.00013873,0.040101,0.00012006,-140.28,-0.00040172,-4060.7,0.42191
12780,7.5609,4.1818,0.05,1.1936e-06,11.928,9.1654e-07,6.8865,2.1621e-12,-2.2604e-05,-9.1656e-07,-6.8867,0.41223
12781,7.5609,4.4545,0,0.00040292,4026.4,0.00013854,0.059079,0.00012345,-113.29,-0.00040472,-4081.8,0.41143
12782,7.6532,4.3636,0,0.00040003,3997.5,0.00013793,0.048757,0.00012191,-120.26,-0.00040194,-4056.3,0.42137
12783,7.5609,4.3636,0.05,1.1381e-06,11.374,8.7395e-07,6.5665,2.4466e-12,-2.3132e-05,-8.7396e-07,-6.5666,0.41169
12784,7.5609,4.6364,0,0.00040336,4030.8,0.00013765,0.067483,0.00012539,-92.047,-0.00040485,-4076,0.41077
12785,7.6532,4.5455,0,0.00040054,4002.6,0.0001371,0.056815,0.00012379,-99.956,-0.00040214,-4051.6,0.42076
12786,7.5609,4.5455,0.05,1.0764e-06,10.757,8.2656e-07,6.2103,3.7994e-12,-2.778e-05,-8.2656e-07,-6.2106,0.41107
12787,7.5609,4.8182,0,0.00040378,4035,0.00013679,0.074419,0.00012723,-71.731,-0.00040495,-4070.3,0.41003
12788,7.6532,4.7273,0,0.00040103,4007.5,0.00013629,0.063733,0.00012562,-80.108,-0.00040233,-4046.9,0.42006
12789,7.5609,4.7273,0.05,1.0102e-06,10.095,7.7567e-07,5.828,6.2424e-12,-3.1253e-05,-7.7568e-07,-5.8283,0.41037
12790,7.5609,5,0,0.00040414,4038.6,0.00013599,0.079379,0.00012892,-53.025,-0.00040502,-4064.8,0.4092
12791,7.6532,4.9091,0,0.00040148,4012,0.00013552,0.069078,0.00012734,-61.393,-0.00040249,-4042.4,0.41928
12792,7.5609,4.9091,0.05,9.4172e-07,9.4107,7.2311e-07,5.4332,5.6068e-12,-2.0786e-05,-7.2313e-07,-5.4334,0.40959
12793,7.5609,5.1818,0,0.00040446,4041.8,0.00013528,0.082251,0.00013041,-36.495,-0.00040506,-4059.9,0.40829
12794,7.6532,5.0909,0,0.00040189,4016.1,0.00013482,0.072382,0.0001289,-44.39,-0.00040263,-4038.1,0.41841
12795,7.5609,5.0909,0.05,8.7416e-07,8.7356,6.7124e-07,5.0433,4.5578e-12,-3.5093e-05,-6.7125e-07,-5.0436,0.40872
12796,7.5609,5.3636,0,0.00040472,4044.4,0.00013468,0.082645,0.00013167,-22.553,-0.0004051,-4055.6,0.40729
12797,7.6532,5.2727,0,0.00040225,4019.7,0.00013421,0.074188,0.00013027,-29.558,-0.00040274,-4034.4,0.41746
12798,7.5609,5.2727,0.05,8.1108e-07,8.1052,6.2281e-07,4.6794,8.0204e-12,-2.1096e-05,-6.2282e-07,-4.6797,0.40777
12799,7.5609,5.5455,0,0.00040496,4046.8,0.00013421,0.086993,0.00013268,-11.429,-0.00040515,-4052.4,0.40621
12800,7.6532,5.4545,0,0.00040257,4022.9,0.00013371,0.073257,0.00013141,-17.202,-0.00040286,-4031.5,0.41642
12801,7.5609,5.4545,0.05,7.5476e-07,7.5424,5.7956e-07,4.3544,1.1192e-11,-1.8392e-05,-5.7957e-07,-4.3548,0.40672
12802,7.5609,5.7273,0,0.00040521,4049.3,0.00013388,0.14282,0.00013346,-2.9964,-0.00040526,-4050.8,0.40504
12803,7.6532,5.6364,0,0.00040287,4025.9,0.00013332,0.089084,0.00013232,-7.4324,-0.00040299,-4029.6,0.4153
12804,7.5609,5.6364,0.05,6.7851e-07,6.7804,5.2099e-07,3.9145,8.2214e-12,-1.2365e-05,-5.2103e-07,-3.9148,0.4056
12805,7.6532,5.8182,0,0.00040324,4029.6,0.00013315,0.76174,0.000133,-0.40608,-0.00040323,-4029.4,0.41409
12806,7.5609,5.8182,0.05,1.3454e-07,1.3445,1.0331e-07,0.77612,-1.4018e-11,-0.00022326,-1.0331e-07,-0.77635,0.40438
12807,7.5609,5.9091,0,0.00040524,4049.6,0.00013382,1.0938,0.00013368,0.048835,-0.00040522,-4049,0.40378
12808,7.7456,0.27273,0,0.00040089,4006.1,0.00013251,0.10183,0.00013193,-4.2827,-0.00040096,-4008.2,0.42444
12809,7.8379,0.18182,0,0.00039886,3985.8,0.0001317,0.4178,0.00013153,-0.81516,-0.00039886,-3986,0.43364
12810,7.7456,0.18182,0.05,1.8166e-07,1.8153,1.395e-07,1.0482,5.8932e-12,0.00015133,-1.3949e-07,-1.0479,0.42379
12811,7.7456,0.090909,0,0.00040104,4007.6,0.0001324,0.65643,0.00013231,0.00096451,-0.00040103,-4007.3,0.42319
12812,7.7456,0.45455,0,0.00040048,4002,0.00013282,0.068396,0.00013105,-13.217,-0.0004007,-4008.6,0.4256
12813,7.8379,0.36364,0,0.00039835,3980.8,0.0001319,0.074425,0.00013072,-8.8168,-0.0003985,-3985.1,0.43484
12814,7.7456,0.36364,0.05,7.3429e-07,7.3378,5.6386e-07,4.2367,-1.2099e-11,1.2838e-05,-5.6383e-07,-4.2363,0.425
12815,7.7456,0.63636,0,0.00040009,3998.2,0.00013323,0.062994,0.00013,-24.223,-0.0004005,-4010.2,0.42668
12816,7.8379,0.54545,0,0.00039792,3976.5,0.00013224,0.056373,0.00012975,-18.686,-0.00039824,-3985.8,0.43595
12817,7.7456,0.54545,0.05,8.0171e-07,8.0116,6.1563e-07,4.6257,-9.5477e-12,1.6309e-05,-6.156e-07,-4.6253,0.42612
12818,7.7456,0.81818,0,0.00039968,3994,0.00013375,0.063407,0.00012876,-37.471,-0.0004003,-4012.6,0.42767
12819,7.8379,0.72727,0,0.00039747,3972,0.00013268,0.058002,0.0001286,-30.599,-0.00039798,-3987.2,0.43698
12820,7.7456,0.72727,0.05,8.4563e-07,8.4504,6.4935e-07,4.879,-8.1454e-12,1.9283e-05,-6.4932e-07,-4.8787,0.42715
12821,7.7456,1,0,0.00039923,3989.5,0.00013436,0.061419,0.00012732,-52.774,-0.0004001,-4015.6,0.42858
12822,7.8379,0.90909,0,0.00039699,3967.2,0.00013321,0.056406,0.00012728,-44.476,-0.00039773,-3989.2,0.43792
12823,7.7456,0.90909,0.05,8.9453e-07,8.9391,6.869e-07,5.1611,-8.5532e-12,2.0495e-05,-6.8687e-07,-5.1609,0.4281
12824,7.7456,1.1818,0,0.00039873,3984.6,0.00013503,0.057829,0.00012573,-69.785,-0.00039987,-4019,0.4294
12825,7.8379,1.0909,0,0.00039647,3962,0.0001338,0.053994,0.0001258,-60.06,-0.00039746,-3991.6,0.43878
12826,7.7456,1.0909,0.05,9.4733e-07,9.4668,7.2744e-07,5.4658,-6.7792e-12,2.1706e-05,-7.2742e-07,-5.4655,0.42896
12827,7.7456,1.3636,0,0.0003982,3979.3,0.00013575,0.052544,0.00012402,-88.029,-0.00039962,-4022.5,0.43013
12828,7.8379,1.2727,0,0.00039591,3956.4,0.00013445,0.049869,0.0001242,-76.966,-0.00039717,-3994.3,0.43956
12829,7.7456,1.2727,0.05,1.0013e-06,10.006,7.6888e-07,5.7772,-5.9638e-12,2.5301e-05,-7.6887e-07,-5.7769,0.42974
12830,7.7456,1.5455,0,0.00039765,3973.7,0.00013649,0.045992,0.00012225,-106.93,-0.00039936,-4026.1,0.43079
12831,7.8379,1.4545,0,0.00039533,3950.6,0.00013513,0.04445,0.00012252,-94.706,-0.00039686,-3997.1,0.44026
12832,7.7456,1.4545,0.05,1.054e-06,10.532,8.0932e-07,6.081,-5.8905e-12,2.1009e-05,-8.0931e-07,-6.0808,0.43044
12833,7.7456,1.7273,0,0.00039709,3968.2,0.00013723,0.03861,0.00012047,-125.85,-0.00039908,-4029.6,0.43137
12834,7.8379,1.6364,0,0.00039475,3944.7,0.00013581,0.038053,0.00012081,-112.71,-0.00039654,-3999.9,0.44087
12835,7.7456,1.6364,0.05,1.1033e-06,11.026,8.4723e-07,6.3658,-5.3567e-12,1.746e-05,-8.4723e-07,-6.3656,0.43105
12836,7.7456,1.9091,0,0.00039655,3962.7,0.00013794,0.030898,0.00011875,-144.09,-0.0003988,-4032.8,0.43186
12837,7.8379,1.8182,0,0.00039417,3938.9,0.00013648,0.031119,0.00011913,-130.36,-0.00039622,-4002.5,0.4414
12838,7.7456,1.8182,0.05,1.148e-06,11.472,8.8149e-07,6.6232,-4.405e-12,1.1593e-05,-8.8149e-07,-6.6231,0.43159
12839,7.7456,2.0909,0,0.00039604,3957.7,0.00013859,0.02335,0.00011716,-160.97,-0.00039853,-4035.7,0.43228
12840,7.8379,2,0,0.00039362,3933.5,0.00013711,0.0241,0.00011754,-147.01,-0.00039591,-4004.9,0.44186
12841,7.7456,2,0.05,1.1868e-06,11.86,9.1134e-07,6.8475,-4.2901e-12,8.2153e-06,-9.1133e-07,-6.8473,0.43204
12842,7.7456,2.2727,0,0.00039559,3953.2,0.00013916,0.01644,0.00011576,-175.83,-0.00039829,-4038.2,0.43262
12843,7.8379,2.1818,0,0.00039312,3928.5,0.00013767,0.017443,0.00011611,-162.04,-0.00039563,-4007,0.44224
12844,7.7456,2.1818,0.05,1.2194e-06,12.185,9.3632e-07,7.0352,-4.3888e-12,3.5521e-06,-9.3631e-07,-7.0351,0.43242
12845,7.7456,2.4545,0,0.00039522,3949.5,0.00013963,0.010592,0.0001146,-188.07,-0.00039809,-4040.2,0.43288
12846,7.8379,2.3636,0,0.00039269,3924.2,0.00013815,0.011562,0.00011488,-174.85,-0.00039538,-4008.7,0.44254
12847,7.7456,2.3636,0.05,1.2453e-06,12.445,9.5625e-07,7.1849,-3.3228e-12,7.2344e-06,-9.5624e-07,-7.1848,0.43272
12848,7.7456,2.6364,0,0.00039494,3946.7,0.00013998,0.0061521,0.00011373,-197.19,-0.00039793,-4041.6,0.43307
12849,7.8379,2.5455,0,0.00039236,3920.9,0.00013853,0.0068177,0.00011392,-184.95,-0.00039518,-4010.1,0.44276
12850,7.7456,2.5455,0.05,1.2646e-06,12.638,9.7109e-07,7.2964,-2.6238e-12,3.8066e-06,-9.7109e-07,-7.2964,0.43295
12851,7.7456,2.8182,0,0.00039477,3945,0.00014019,0.0033812,0.0001132,-202.82,-0.00039783,-4042.5,0.43318
12852,7.8379,2.7273,0,0.00039212,3918.5,0.00013879,0.00349,0.00011325,-191.92,-0.00039504,-4011,0.44291
12853,7.7456,2.7273,0.05,1.2774e-06,12.765,9.8091e-07,7.3702,-1.8121e-12,-6.5627e-08,-9.809e-07,-7.3701,0.4331
12854,7.7456,3,0,0.00039471,3944.4,0.00014027,0.0024394,0.00011302,-204.73,-0.0003978,-4042.8,0.43322
12855,7.8379,2.9091,0,0.000392,3917.3,0.00013892,0.0017762,0.00011291,-195.47,-0.00039496,-4011.4,0.44299
12856,7.7456,2.9091,0.05,1.2838e-06,12.829,9.8579e-07,7.4068,-1.2223e-12,6.636e-07,-9.8579e-07,-7.4068,0.43317
12857,7.7456,3.1818,0,0.00039477,3945,0.00014019,0.0033808,0.0001132,-202.82,-0.00039783,-4042.5,0.43318
12858,7.8379,3.0909,0,0.000392,3917.3,0.00013892,0.0017757,0.00011291,-195.47,-0.00039496,-4011.4,0.44299
12859,7.7456,3.0909,0.05,1.2838e-06,12.829,9.8579e-07,7.4068,-5.9468e-13,-2.5617e-06,-9.8579e-07,-7.4068,0.43317
12860,7.7456,3.3636,0,0.00039494,3946.7,0.00013998,0.0061516,0.00011373,-197.19,-0.00039793,-4041.6,0.43307
12861,7.8379,3.2727,0,0.00039212,3918.5,0.00013879,0.00349,0.00011325,-191.91,-0.00039504,-4011,0.44291
12862,7.7456,3.2727,0.05,1.2774e-06,12.765,9.8091e-07,7.3701,1.8692e-12,-1.7598e-06,-9.8091e-07,-7.3702,0.4331
12863,7.7456,3.5455,0,0.00039522,3949.5,0.00013963,0.010591,0.0001146,-188.07,-0.00039809,-4040.2,0.43288
12864,7.8379,3.4545,0,0.00039236,3920.9,0.00013853,0.0068173,0.00011392,-184.95,-0.00039518,-4010.1,0.44276
12865,7.7456,3.4545,0.05,1.2646e-06,12.638,9.7109e-07,7.2964,1.6812e-12,-3.6078e-06,-9.7109e-07,-7.2964,0.43295
12866,7.7456,3.7273,0,0.00039559,3953.2,0.00013916,0.01644,0.00011576,-175.83,-0.00039829,-4038.2,0.43262
12867,7.8379,3.6364,0,0.00039269,3924.2,0.00013815,0.011562,0.00011488,-174.85,-0.00039538,-4008.7,0.44254
12868,7.7456,3.6364,0.05,1.2453e-06,12.445,9.5624e-07,7.1848,2.3564e-12,-6.7849e-06,-9.5625e-07,-7.1849,0.43272
12869,7.7456,3.9091,0,0.00039604,3957.7,0.00013859,0.02335,0.00011716,-160.97,-0.00039853,-4035.7,0.43228
12870,7.8379,3.8182,0,0.00039312,3928.5,0.00013767,0.017442,0.00011611,-162.04,-0.00039563,-4007,0.44224
12871,7.7456,3.8182,0.05,1.2194e-06,12.185,9.3631e-07,7.0351,2.5137e-12,-8.2364e-06,-9.3632e-07,-7.0352,0.43242
12872,7.7456,4.0909,0,0.00039655,3962.7,0.00013794,0.030898,0.00011875,-144.09,-0.0003988,-4032.8,0.43186
12873,7.8379,4,0,0.00039362,3933.5,0.00013711,0.0241,0.00011754,-147.01,-0.00039591,-4004.9,0.44186
12874,7.7456,4,0.05,1.1868e-06,11.86,9.1133e-07,6.8473,3.2695e-12,-9.5829e-06,-9.1134e-07,-6.8475,0.43204
12875,7.7456,4.2727,0,0.00039709,3968.2,0.00013723,0.03861,0.00012047,-125.85,-0.00039908,-4029.6,0.43137
12876,7.8379,4.1818,0,0.00039417,3938.9,0.00013648,0.031119,0.00011913,-130.36,-0.00039622,-4002.5,0.4414
12877,7.7456,4.1818,0.05,1.148e-06,11.472,8.8149e-07,6.6231,3.3656e-12,-1.0577e-05,-8.8149e-07,-6.6232,0.43159
12878,7.7456,4.4545,0,0.00039765,3973.7,0.00013649,0.045991,0.00012225,-106.93,-0.00039936,-4026.1,0.43079
12879,7.8379,4.3636,0,0.00039475,3944.7,0.00013581,0.038052,0.00012081,-112.71,-0.00039654,-3999.9,0.44087
12880,7.7456,4.3636,0.05,1.1033e-06,11.026,8.4722e-07,6.3657,5.466e-12,-1.61e-05,-8.4723e-07,-6.3658,0.43105
12881,7.7456,4.6364,0,0.0003982,3979.3,0.00013575,0.052543,0.00012402,-88.029,-0.00039962,-4022.5,0.43013
12882,7.8379,4.5455,0,0.00039533,3950.6,0.00013513,0.04445,0.00012252,-94.706,-0.00039686,-3997.1,0.44026
12883,7.7456,4.5455,0.05,1.054e-06,10.532,8.0931e-07,6.0808,5.7439e-12,-2.0096e-05,-8.0932e-07,-6.081,0.43044
12884,7.7456,4.8182,0,0.00039873,3984.6,0.00013503,0.057828,0.00012573,-69.784,-0.00039987,-4019,0.4294
12885,7.8379,4.7273,0,0.00039591,3956.4,0.00013445,0.049868,0.0001242,-76.966,-0.00039717,-3994.3,0.43956
12886,7.7456,4.7273,0.05,1.0013e-06,10.006,7.6887e-07,5.7769,4.5495e-12,-2.1779e-05,-7.6888e-07,-5.7771,0.42974
12887,7.7456,5,0,0.00039923,3989.5,0.00013436,0.061418,0.00012732,-52.774,-0.0004001,-4015.6,0.42858
12888,7.8379,4.9091,0,0.00039647,3962,0.0001338,0.053994,0.0001258,-60.06,-0.00039746,-3991.6,0.43878
12889,7.7456,4.9091,0.05,9.4733e-07,9.4668,7.2743e-07,5.4655,6.9151e-12,-2.0259e-05,-7.2744e-07,-5.4658,0.42896
12890,7.7456,5.1818,0,0.00039968,3994,0.00013375,0.063406,0.00012876,-37.471,-0.0004003,-4012.6,0.42767
12891,7.8379,5.0909,0,0.00039699,3967.2,0.00013321,0.056405,0.00012728,-44.476,-0.00039773,-3989.2,0.43792
12892,7.7456,5.0909,0.05,8.9453e-07,8.9391,6.8688e-07,5.1608,7.8048e-12,-2.3628e-05,-6.8689e-07,-5.1611,0.4281
12893,7.7456,5.3636,0,0.00040009,3998.2,0.00013323,0.062994,0.00013,-24.223,-0.0004005,-4010.2,0.42668
12894,7.8379,5.2727,0,0.00039747,3972,0.00013268,0.058002,0.0001286,-30.599,-0.00039798,-3987.2,0.43698
12895,7.7456,5.2727,0.05,8.4563e-07,8.4504,6.4932e-07,4.8787,6.6728e-12,-1.8194e-05,-6.4935e-07,-4.879,0.42715
12896,7.7456,5.5455,0,0.00040048,4002,0.00013282,0.068396,0.00013105,-13.217,-0.0004007,-4008.6,0.4256
12897,7.8379,5.4545,0,0.00039792,3976.5,0.00013224,0.056374,0.00012975,-18.686,-0.00039824,-3985.8,0.43595
12898,7.7456,5.4545,0.05,8.0171e-07,8.0116,6.156e-07,4.6253,9.3813e-12,-1.59e-05,-6.1563e-07,-4.6257,0.42612
12899,7.7456,5.7273,0,0.00040089,4006.1,0.00013251,0.10182,0.00013193,-4.2826,-0.00040096,-4008.2,0.42444
12900,7.8379,5.6364,0,0.00039835,3980.8,0.0001319,0.074424,0.00013072,-8.8167,-0.0003985,-3985.1,0.43484
12901,7.7456,5.6364,0.05,7.3429e-07,7.3378,5.6383e-07,4.2363,1.2099e-11,-1.2468e-05,-5.6386e-07,-4.2367,0.425
12902,7.8379,5.8182,0,0.00039886,3985.8,0.0001317,0.4178,0.00013153,-0.81515,-0.00039886,-3986,0.43364
12903,7.7456,5.8182,0.05,1.8166e-07,1.8153,1.3949e-07,1.048,-5.8932e-12,-0.00012957,-1.395e-07,-1.0482,0.42379
12904,7.7456,5.9091,0,0.00040104,4007.6,0.0001324,0.65644,0.00013231,0.00096257,-0.00040103,-4007.3,0.42319
12905,7.9303,0.27273,0,0.00039631,3960.4,0.00013104,0.084746,0.00013035,-5.0924,-0.0003964,-3962.9,0.44412
12906,8.0226,0.18182,0,0.00039424,3939.7,0.00013018,0.31549,0.00012999,-1.1295,-0.00039425,-3940.1,0.45346
12907,7.9303,0.18182,0.05,2.1541e-07,2.1526,1.6541e-07,1.2429,1.2797e-12,0.00011232,-1.654e-07,-1.2426,0.44348
12908,7.9303,0.090909,0,0.00039656,3962.8,0.00013091,0.4611,0.00013083,-0.083912,-0.00039655,-3962.6,0.44288
12909,7.9303,0.45455,0,0.00039579,3955.2,0.00013132,0.057396,0.00012941,-14.3,-0.00039603,-3962.3,0.44527
12910,8.0226,0.36364,0,0.00039364,3933.6,0.00013038,0.066284,0.00012909,-9.6351,-0.0003938,-3938.4,0.45465
12911,7.9303,0.36364,0.05,7.7675e-07,7.7621,5.9646e-07,4.4817,-8.9569e-12,1.2744e-05,-5.9643e-07,-4.4813,0.44467
12912,7.9303,0.63636,0,0.0003953,3950.3,0.00013169,0.049978,0.00012835,-25.079,-0.00039572,-3962.7,0.44634
12913,8.0226,0.54545,0,0.00039311,3928.4,0.00013069,0.045196,0.0001281,-19.458,-0.00039344,-3938.1,0.45575
12914,7.9303,0.54545,0.05,8.3786e-07,8.3728,6.4338e-07,4.8342,-1.1924e-11,1.3842e-05,-6.4336e-07,-4.8339,0.44578
12915,7.9303,0.81818,0,0.00039478,3945.1,0.00013214,0.050291,0.00012713,-37.622,-0.00039541,-3963.7,0.44732
12916,8.0226,0.72727,0,0.00039257,3923,0.00013108,0.046705,0.00012696,-30.879,-0.00039309,-3938.3,0.45677
12917,7.9303,0.72727,0.05,8.7245e-07,8.7185,6.6995e-07,5.0338,-1.091e-11,1.58e-05,-6.6992e-07,-5.0335,0.44681
12918,7.9303,1,0,0.00039423,3939.6,0.00013266,0.0485,0.00012576,-51.778,-0.00039509,-3965.2,0.44822
12919,8.0226,0.90909,0,0.00039201,3917.3,0.00013153,0.044924,0.00012569,-43.84,-0.00039273,-3939.1,0.45771
12920,7.9303,0.90909,0.05,9.1049e-07,9.0986,6.9915e-07,5.2532,-6.5881e-12,1.6622e-05,-6.9913e-07,-5.2529,0.44775
12921,7.9303,1.1818,0,0.00039365,3933.8,0.00013323,0.045632,0.00012427,-67.255,-0.00039475,-3967,0.44904
12922,8.0226,1.0909,0,0.00039141,3911.4,0.00013204,0.042913,0.0001243,-58.124,-0.00039237,-3940.1,0.45856
12923,7.9303,1.0909,0.05,9.5176e-07,9.5111,7.3084e-07,5.4913,-9.7681e-12,1.6845e-05,-7.3083e-07,-5.4911,0.4486
12924,7.9303,1.3636,0,0.00039305,3927.7,0.00013383,0.041404,0.00012269,-83.654,-0.0003944,-3968.9,0.44977
12925,8.0226,1.2727,0,0.00039079,3905.2,0.00013258,0.039534,0.00012281,-73.409,-0.00039199,-3941.4,0.45934
12926,7.9303,1.2727,0.05,9.9423e-07,9.9354,7.6345e-07,5.7363,-4.2543e-12,1.3417e-05,-7.6344e-07,-5.7361,0.44938
12927,7.9303,1.5455,0,0.00039243,3921.6,0.00013445,0.03615,0.00012107,-100.49,-0.00039404,-3970.9,0.45042
12928,8.0226,1.4545,0,0.00039016,3898.9,0.00013315,0.035149,0.00012127,-89.283,-0.0003916,-3942.8,0.46003
12929,7.9303,1.4545,0.05,1.0359e-06,10.352,7.9549e-07,5.977,-5.8189e-12,1.7801e-05,-7.9547e-07,-5.9768,0.45007
12930,7.9303,1.7273,0,0.00039182,3915.5,0.00013507,0.030203,0.00011946,-117.23,-0.00039368,-3972.8,0.451
12931,8.0226,1.6364,0,0.00038953,3892.6,0.00013373,0.029968,0.00011971,-105.27,-0.00039121,-3944.1,0.46064
12932,7.9303,1.6364,0.05,1.0753e-06,10.746,8.257e-07,6.2041,-5.4238e-12,1.3726e-05,-8.2569e-07,-6.2039,0.45068
12933,7.9303,1.9091,0,0.00039123,3909.6,0.00013565,0.023963,0.00011791,-133.28,-0.00039333,-3974.6,0.45149
12934,8.0226,1.8182,0,0.00038891,3886.4,0.00013428,0.024342,0.0001182,-120.84,-0.00039083,-3945.4,0.46117
12935,7.9303,1.8182,0.05,1.1111e-06,11.103,8.5315e-07,6.4103,-4.2075e-12,9.2038e-06,-8.5315e-07,-6.4102,0.45122
12936,7.9303,2.0909,0,0.00039069,3904.2,0.0001362,0.017833,0.00011649,-148.07,-0.000393,-3976.2,0.45191
12937,8.0226,2,0,0.00038834,3880.7,0.0001348,0.018633,0.00011677,-135.47,-0.00039046,-3946.6,0.46162
12938,7.9303,2,0.05,1.1423e-06,11.416,8.7718e-07,6.5908,-3.7812e-12,8.735e-06,-8.7717e-07,-6.5907,0.45167
12939,7.9303,2.2727,0,0.00039022,3899.5,0.00013667,0.012204,0.00011523,-161.06,-0.00039271,-3977.5,0.45224
12940,8.0226,2.1818,0,0.00038782,3875.5,0.00013527,0.013205,0.00011549,-148.62,-0.00039013,-3947.7,0.462
12941,7.9303,2.1818,0.05,1.1686e-06,11.678,8.9738e-07,6.7426,-3.4647e-12,8.0125e-06,-8.9737e-07,-6.7424,0.45205
12942,7.9303,2.4545,0,0.00038983,3895.6,0.00013706,0.0074271,0.0001142,-171.73,-0.00039246,-3978.6,0.45251
12943,8.0226,2.3636,0,0.00038738,3871.1,0.00013567,0.0083999,0.0001144,-159.81,-0.00038985,-3948.6,0.4623
12944,7.9303,2.3636,0.05,1.1897e-06,11.889,9.1353e-07,6.864,-3.1507e-12,8.5057e-07,-9.1353e-07,-6.8639,0.45235
12945,7.9303,2.6364,0,0.00038954,3892.7,0.00013734,0.0037941,0.00011343,-179.67,-0.00039228,-3979.4,0.45269
12946,8.0226,2.5455,0,0.00038703,3867.7,0.00013598,0.0045166,0.00011354,-168.6,-0.00038963,-3949.2,0.46252
12947,7.9303,2.5455,0.05,1.2054e-06,12.046,9.256e-07,6.9546,-2.1389e-12,2.2852e-06,-9.2559e-07,-6.9545,0.45257
12948,7.9303,2.8182,0,0.00038936,3890.9,0.00013752,0.0015232,0.00011296,-184.56,-0.00039217,-3979.9,0.45281
12949,8.0226,2.7273,0,0.0003868,3865.3,0.0001362,0.0017891,0.00011295,-174.67,-0.00038947,-3949.7,0.46267
12950,7.9303,2.7273,0.05,1.2158e-06,12.15,9.336e-07,7.0146,-2.1563e-12,-9.9618e-07,-9.3358e-07,-7.0146,0.45272
12951,7.9303,3,0,0.0003893,3890.3,0.00013758,0.00075071,0.0001128,-186.22,-0.00039213,-3980,0.45284
12952,8.0226,2.9091,0,0.00038667,3864.1,0.00013631,0.00038293,0.00011265,-177.76,-0.00038939,-3949.9,0.46275
12953,7.9303,2.9091,0.05,1.221e-06,12.201,9.3757e-07,7.0446,-4.2864e-13,-3.9778e-06,-9.3757e-07,-7.0445,0.4528
12954,7.9303,3.1818,0,0.00038936,3890.9,0.00013752,0.0015231,0.00011296,-184.56,-0.00039217,-3979.9,0.45281
12955,8.0226,3.0909,0,0.00038667,3864.1,0.00013631,0.00038264,0.00011265,-177.76,-0.00038939,-3949.9,0.46275
12956,7.9303,3.0909,0.05,1.221e-06,12.201,9.3757e-07,7.0445,4.2678e-13,3.9833e-06,-9.3757e-07,-7.0445,0.4528
12957,7.9303,3.3636,0,0.00038954,3892.7,0.00013734,0.0037941,0.00011343,-179.67,-0.00039228,-3979.4,0.45269
12958,8.0226,3.2727,0,0.0003868,3865.3,0.0001362,0.001789,0.00011295,-174.67,-0.00038947,-3949.7,0.46267
12959,7.9303,3.2727,0.05,1.2158e-06,12.15,9.3359e-07,7.0146,2.161e-12,-2.912e-06,-9.336e-07,-7.0146,0.45272
12960,7.9303,3.5455,0,0.00038983,3895.6,0.00013706,0.0074269,0.0001142,-171.73,-0.00039246,-3978.6,0.45251
12961,8.0226,3.4545,0,0.00038703,3867.7,0.00013598,0.0045163,0.00011354,-168.6,-0.00038963,-3949.2,0.46252
12962,7.9303,3.4545,0.05,1.2054e-06,12.046,9.2559e-07,6.9545,1.2018e-12,-4.018e-06,-9.256e-07,-6.9546,0.45257
12963,7.9303,3.7273,0,0.00039022,3899.5,0.00013667,0.012203,0.00011523,-161.06,-0.00039271,-3977.5,0.45224
12964,8.0226,3.6364,0,0.00038738,3871.1,0.00013567,0.0083996,0.0001144,-159.81,-0.00038985,-3948.6,0.4623
12965,7.9303,3.6364,0.05,1.1897e-06,11.889,9.1353e-07,6.8639,2.291e-12,-7.0377e-06,-9.1353e-07,-6.864,0.45235
12966,7.9303,3.9091,0,0.00039069,3904.2,0.0001362,0.017833,0.00011649,-148.07,-0.000393,-3976.2,0.45191
12967,8.0226,3.8182,0,0.00038782,3875.5,0.00013527,0.013204,0.00011549,-148.62,-0.00039013,-3947.7,0.462
12968,7.9303,3.8182,0.05,1.1686e-06,11.678,8.9737e-07,6.7425,3.3452e-12,-5.8147e-06,-8.9738e-07,-6.7425,0.45205
12969,7.9303,4.0909,0,0.00039123,3909.6,0.00013565,0.023963,0.00011791,-133.28,-0.00039333,-3974.6,0.45149
12970,8.0226,4,0,0.00038834,3880.7,0.0001348,0.018633,0.00011677,-135.47,-0.00039046,-3946.6,0.46162
12971,7.9303,4,0.05,1.1423e-06,11.416,8.7717e-07,6.5907,2.986e-12,-8.3215e-06,-8.7718e-07,-6.5908,0.45167
12972,7.9303,4.2727,0,0.00039182,3915.5,0.00013507,0.030203,0.00011946,-117.23,-0.00039368,-3972.8,0.451
12973,8.0226,4.1818,0,0.00038891,3886.4,0.00013428,0.024342,0.0001182,-120.84,-0.00039083,-3945.4,0.46117
12974,7.9303,4.1818,0.05,1.1111e-06,11.103,8.5315e-07,6.4102,2.3572e-12,-6.3338e-06,-8.5315e-07,-6.4103,0.45122
12975,7.9303,4.4545,0,0.00039243,3921.6,0.00013445,0.03615,0.00012107,-100.49,-0.00039404,-3970.9,0.45042
12976,8.0226,4.3636,0,0.00038953,3892.6,0.00013373,0.029968,0.00011971,-105.27,-0.00039121,-3944.1,0.46064
12977,7.9303,4.3636,0.05,1.0753e-06,10.746,8.2569e-07,6.2039,4.6707e-12,-1.7182e-05,-8.257e-07,-6.2041,0.45068
12978,7.9303,4.6364,0,0.00039305,3927.7,0.00013383,0.041403,0.00012269,-83.654,-0.0003944,-3968.9,0.44977
12979,8.0226,4.5455,0,0.00039016,3898.9,0.00013315,0.035149,0.00012127,-89.283,-0.0003916,-3942.8,0.46003
12980,7.9303,4.5455,0.05,1.0359e-06,10.352,7.9547e-07,5.9768,5.886e-12,-1.6419e-05,-7.9548e-07,-5.977,0.45007
12981,7.9303,4.8182,0,0.00039365,3933.8,0.00013323,0.045632,0.00012427,-67.255,-0.00039475,-3967,0.44904
12982,8.0226,4.7273,0,0.00039079,3905.2,0.00013258,0.039533,0.00012281,-73.409,-0.00039199,-3941.4,0.45934
12983,7.9303,4.7273,0.05,9.9423e-07,9.9354,7.6344e-07,5.7361,3.9911e-12,-1.6491e-05,-7.6345e-07,-5.7363,0.44938
12984,7.9303,5,0,0.00039423,3939.6,0.00013266,0.048499,0.00012576,-51.778,-0.00039509,-3965.2,0.44822
12985,8.0226,4.9091,0,0.00039141,3911.4,0.00013204,0.042913,0.0001243,-58.124,-0.00039237,-3940.1,0.45856
12986,7.9303,4.9091,0.05,9.5176e-07,9.5111,7.3083e-07,5.4911,6.3239e-12,-1.7061e-05,-7.3084e-07,-5.4913,0.4486
12987,7.9303,5.1818,0,0.00039478,3945.1,0.00013214,0.050289,0.00012713,-37.622,-0.00039541,-3963.7,0.44732
12988,8.0226,5.0909,0,0.00039201,3917.3,0.00013153,0.044922,0.00012569,-43.84,-0.00039273,-3939.1,0.45771
12989,7.9303,5.0909,0.05,9.1049e-07,9.0986,6.9914e-07,5.2529,5.3096e-12,-1.67e-05,-6.9915e-07,-5.2532,0.44775
12990,7.9303,5.3636,0,0.0003953,3950.3,0.00013169,0.049978,0.00012835,-25.079,-0.00039572,-3962.7,0.44634
12991,8.0226,5.2727,0,0.00039257,3923,0.00013108,0.046704,0.00012696,-30.879,-0.00039309,-3938.3,0.45677
12992,7.9303,5.2727,0.05,8.7245e-07,8.7185,6.6992e-07,5.0335,9.3378e-12,-1.4567e-05,-6.6995e-07,-5.0338,0.44681
12993,7.9303,5.5455,0,0.00039579,3955.2,0.00013132,0.057396,0.00012941,-14.3,-0.00039603,-3962.3,0.44527
12994,8.0226,5.4545,0,0.00039311,3928.4,0.00013069,0.045196,0.0001281,-19.458,-0.00039344,-3938.1,0.45575
12995,7.9303,5.4545,0.05,8.3786e-07,8.3728,6.4336e-07,4.8339,1.2006e-11,-1.1983e-05,-6.4338e-07,-4.8342,0.44578
12996,7.9303,5.7273,0,0.00039631,3960.4,0.00013104,0.084745,0.00013035,-5.0924,-0.0003964,-3962.9,0.44412
12997,8.0226,5.6364,0,0.00039364,3933.6,0.00013038,0.066283,0.00012909,-9.6351,-0.0003938,-3938.4,0.45465
12998,7.9303,5.6364,0.05,7.7675e-07,7.7621,5.9643e-07,4.4813,7.0763e-12,-1.13e-05,-5.9646e-07,-4.4817,0.44467
12999,8.0226,5.8182,0,0.00039424,3939.7,0.00013018,0.31549,0.00012999,-1.1295,-0.00039425,-3940.1,0.45346
13000,7.9303,5.8182,0.05,2.1541e-07,2.1526,1.654e-07,1.2426,2.6282e-13,-0.0001202,-1.6541e-07,-1.243,0.44348
13001,7.9303,5.9091,0,0.00039656,3962.8,0.00013091,0.4611,0.00013083,-0.083911,-0.00039655,-3962.6,0.44288
13002,8.115,0.27273,0,0.00039155,3912.8,0.00012949,0.075407,0.00012875,-5.5013,-0.00039164,-3915.5,0.46407
13003,8.2073,0.18182,0,0.00038944,3891.7,0.0001286,0.28851,0.0001284,-1.2459,-0.00038946,-3892.2,0.47354
13004,8.115,0.18182,0.05,2.3698e-07,2.3682,1.8198e-07,1.3674,-2.1233e-12,9.7895e-05,-1.8197e-07,-1.3671,0.46343
13005,8.115,0.090909,0,0.00039185,3915.8,0.00012935,0.42089,0.00012928,-0.15642,-0.00039185,-3915.7,0.46284
13006,8.115,0.45455,0,0.00039095,3906.8,0.00012975,0.049927,0.00012777,-14.808,-0.0003912,-3914.1,0.46521
13007,8.2073,0.36364,0,0.00038877,3885,0.00012879,0.060728,0.00012745,-9.9915,-0.00038893,-3889.9,0.47472
13008,8.115,0.36364,0.05,8.0857e-07,8.0801,6.209e-07,4.6653,-1.2768e-11,1.2551e-05,-6.2087e-07,-4.6649,0.46462
13009,8.115,0.63636,0,0.00039038,3901.1,0.00013008,0.04077,0.00012671,-25.274,-0.0003908,-3913.7,0.46627
13010,8.2073,0.54545,0,0.00038818,3879.1,0.00012907,0.03723,0.00012645,-19.653,-0.00038851,-3888.9,0.47582
13011,8.115,0.54545,0.05,8.6518e-07,8.6458,6.6436e-07,4.9918,-8.5198e-12,1.2777e-05,-6.6434e-07,-4.9915,0.46572
13012,8.115,0.81818,0,0.00038979,3895.2,0.00013047,0.040775,0.00012552,-37.113,-0.00039041,-3913.6,0.46725
13013,8.2073,0.72727,0,0.00038758,3873.1,0.00012941,0.038472,0.00012534,-30.548,-0.00038809,-3888.3,0.47683
13014,8.115,0.72727,0.05,8.9271e-07,8.921,6.855e-07,5.1507,-1.1731e-11,1.4242e-05,-6.8548e-07,-5.1504,0.46673
13015,8.115,1,0,0.00038918,3889.1,0.00013091,0.038963,0.00012423,-50.2,-0.00039001,-3914,0.46814
13016,8.2073,0.90909,0,0.00038696,3866.9,0.00012981,0.036423,0.00012413,-42.635,-0.00038767,-3888,0.47776
13017,8.115,0.90909,0.05,9.2241e-07,9.2177,7.0831e-07,5.322,-5.6697e-12,1.7495e-05,-7.0828e-07,-5.3217,0.46767
13018,8.115,1.1818,0,0.00038855,3882.8,0.0001314,0.036512,0.00012283,-64.29,-0.0003896,-3914.5,0.46895
13019,8.2073,1.0909,0,0.00038632,3860.5,0.00013024,0.034614,0.00012282,-55.731,-0.00038724,-3888.1,0.47861
13020,8.115,1.0909,0.05,9.5471e-07,9.5405,7.331e-07,5.5083,-7.2956e-12,1.5841e-05,-7.3309e-07,-5.5081,0.46852
13021,8.115,1.3636,0,0.0003879,3876.3,0.00013191,0.033003,0.00012138,-79.048,-0.00038919,-3915.2,0.46968
13022,8.2073,1.2727,0,0.00038567,3854,0.0001307,0.031731,0.00012144,-69.564,-0.0003868,-3888.3,0.47938
13023,8.115,1.2727,0.05,9.881e-07,9.8742,7.5875e-07,5.701,-6.737e-12,1.786e-05,-7.5873e-07,-5.7007,0.46929
13024,8.115,1.5455,0,0.00038725,3869.9,0.00013243,0.028699,0.0001199,-94.066,-0.00038877,-3916,0.47033
13025,8.2073,1.4545,0,0.00038501,3847.4,0.00013118,0.028097,0.00012003,-83.788,-0.00038636,-3888.6,0.48006
13026,8.115,1.4545,0.05,1.0211e-06,10.204,7.8408e-07,5.8913,-6.6594e-12,1.2931e-05,-7.8406e-07,-5.8911,0.46998
13027,8.115,1.7273,0,0.00038662,3863.5,0.00013294,0.02384,0.00011845,-108.89,-0.00038835,-3916.8,0.4709
13028,8.2073,1.6364,0,0.00038436,3840.9,0.00013166,0.023835,0.00011862,-98.001,-0.00038593,-3889,0.48067
13029,8.115,1.6364,0.05,1.0524e-06,10.516,8.081e-07,6.0718,-5.0051e-12,1.3386e-05,-8.0809e-07,-6.0716,0.47059
13030,8.115,1.9091,0,0.00038602,3857.5,0.00013343,0.018743,0.00011705,-123.04,-0.00038796,-3917.5,0.47139
13031,8.2073,1.8182,0,0.00038373,3834.7,0.00013213,0.019223,0.00011725,-111.77,-0.00038551,-3889.3,0.4812
13032,8.115,1.8182,0.05,1.0809e-06,10.802,8.3004e-07,6.2366,-5.0218e-12,8.0964e-06,-8.3003e-07,-6.2365,0.47112
13033,8.115,2.0909,0,0.00038546,3852,0.00013388,0.013731,0.00011578,-136.02,-0.0003876,-3918.2,0.4718
13034,8.2073,2,0,0.00038315,3828.9,0.00013256,0.014545,0.00011597,-124.63,-0.00038512,-3889.7,0.48165
13035,8.115,2,0.05,1.1061e-06,11.053,8.4933e-07,6.3816,-5.4071e-12,7.0447e-06,-8.4932e-07,-6.3814,0.47157
13036,8.115,2.2727,0,0.00038498,3847.2,0.00013427,0.009124,0.00011466,-147.38,-0.00038728,-3918.7,0.47214
13037,8.2073,2.1818,0,0.00038263,3823.7,0.00013295,0.010096,0.00011483,-136.16,-0.00038477,-3889.9,0.48203
13038,8.115,2.1818,0.05,1.1273e-06,11.265,8.6561e-07,6.5039,-4.0019e-12,4.0624e-06,-8.656e-07,-6.5038,0.47194
13039,8.115,2.4545,0,0.00038459,3843.2,0.0001346,0.0052101,0.00011374,-156.69,-0.00038701,-3919.2,0.4724
13040,8.2073,2.3636,0,0.00038219,3819.3,0.00013328,0.0061552,0.00011386,-145.94,-0.00038447,-3890.2,0.48232
13041,8.115,2.3636,0.05,1.1443e-06,11.435,8.7869e-07,6.6021,-2.833e-12,4.1858e-06,-8.7868e-07,-6.602,0.47224
13042,8.115,2.6364,0,0.00038429,3840.3,0.00013483,0.0022304,0.00011306,-163.61,-0.00038681,-3919.5,0.47259
13043,8.2073,2.5455,0,0.00038185,3815.9,0.00013354,0.0029685,0.0001131,-153.61,-0.00038423,-3890.3,0.48255
13044,8.115,2.5455,0.05,1.1571e-06,11.563,8.8848e-07,6.6757,-1.7624e-12,2.5396e-06,-8.8848e-07,-6.6756,0.47247
13045,8.115,2.8182,0,0.00038411,3838.5,0.00013498,0.0003664,0.00011264,-167.87,-0.00038669,-3919.7,0.4727
13046,8.2073,2.7273,0,0.00038161,3813.5,0.00013372,0.00072861,0.00011257,-158.9,-0.00038407,-3890.5,0.4827
13047,8.115,2.7273,0.05,1.1655e-06,11.647,8.9499e-07,6.7245,-2.429e-12,1.0262e-06,-8.9497e-07,-6.7245,0.47262
13048,8.115,3,0,0.00038405,3837.9,0.00013503,-0.00026799,0.0001125,-169.31,-0.00038665,-3919.7,0.47273
13049,8.2073,2.9091,0,0.00038149,3812.3,0.00013381,-0.00042637,0.00011231,-161.59,-0.00038398,-3890.5,0.48277
13050,8.115,2.9091,0.05,1.1697e-06,11.689,8.9822e-07,6.7489,-3.2429e-12,1.0647e-06,-8.9822e-07,-6.7489,0.47269
13051,8.115,3.1818,0,0.00038411,3838.5,0.00013498,0.0003661,0.00011264,-167.87,-0.00038669,-3919.7,0.4727
13052,8.2073,3.0909,0,0.00038149,3812.3,0.00013381,-0.00042675,0.00011231,-161.59,-0.00038398,-3890.5,0.48277
13053,8.115,3.0909,0.05,1.1697e-06,11.689,8.9822e-07,6.7489,5.1617e-13,-1.0605e-06,-8.9822e-07,-6.7489,0.47269
13054,8.115,3.3636,0,0.00038429,3840.3,0.00013483,0.00223,0.00011306,-163.61,-0.00038681,-3919.5,0.47259
13055,8.2073,3.2727,0,0.00038161,3813.5,0.00013372,0.00072867,0.00011257,-158.9,-0.00038407,-3890.5,0.4827
13056,8.115,3.2727,0.05,1.1655e-06,11.647,8.9498e-07,6.7245,6.5228e-13,-9.854e-07,-8.9498e-07,-6.7245,0.47262
13057,8.115,3.5455,0,0.00038459,3843.2,0.0001346,0.0052097,0.00011374,-156.69,-0.00038701,-3919.2,0.4724
13058,8.2073,3.4545,0,0.00038185,3815.9,0.00013354,0.0029682,0.0001131,-153.61,-0.00038423,-3890.3,0.48255
13059,8.115,3.4545,0.05,1.1571e-06,11.563,8.8848e-07,6.6757,1.7322e-12,-3.9565e-06,-8.8848e-07,-6.6757,0.47247
13060,8.115,3.7273,0,0.00038498,3847.2,0.00013427,0.0091237,0.00011466,-147.38,-0.00038728,-3918.7,0.47214
13061,8.2073,3.6364,0,0.00038219,3819.3,0.00013328,0.006155,0.00011386,-145.94,-0.00038447,-3890.2,0.48232
13062,8.115,3.6364,0.05,1.1443e-06,11.435,8.7868e-07,6.6021,1.9665e-12,-3.9518e-06,-8.7869e-07,-6.6021,0.47224
13063,8.115,3.9091,0,0.00038546,3852,0.00013388,0.013731,0.00011578,-136.02,-0.0003876,-3918.2,0.4718
13064,8.2073,3.8182,0,0.00038263,3823.7,0.00013295,0.010095,0.00011483,-136.16,-0.00038477,-3889.9,0.48203
13065,8.115,3.8182,0.05,1.1273e-06,11.265,8.6561e-07,6.5038,3.1493e-12,-9.1998e-06,-8.6561e-07,-6.5039,0.47194
13066,8.115,4.0909,0,0.00038602,3857.5,0.00013343,0.018742,0.00011705,-123.04,-0.00038796,-3917.5,0.47139
13067,8.2073,4,0,0.00038315,3828.9,0.00013256,0.014544,0.00011597,-124.63,-0.00038512,-3889.7,0.48165
13068,8.115,4,0.05,1.1061e-06,11.053,8.4932e-07,6.3814,3.7003e-12,-7.4921e-06,-8.4933e-07,-6.3816,0.47157
13069,8.115,4.2727,0,0.00038662,3863.5,0.00013294,0.02384,0.00011845,-108.89,-0.00038835,-3916.8,0.4709
13070,8.2073,4.1818,0,0.00038373,3834.7,0.00013213,0.019222,0.00011725,-111.77,-0.00038551,-3889.3,0.4812
13071,8.115,4.1818,0.05,1.0809e-06,10.802,8.3003e-07,6.2365,5.291e-12,-9.096e-06,-8.3003e-07,-6.2366,0.47112
13072,8.115,4.4545,0,0.00038725,3869.9,0.00013243,0.028699,0.0001199,-94.066,-0.00038877,-3916,0.47033
13073,8.2073,4.3636,0,0.00038436,3840.9,0.00013166,0.023835,0.00011862,-98.001,-0.00038593,-3889,0.48067
13074,8.115,4.3636,0.05,1.0524e-06,10.516,8.0809e-07,6.0716,4.2728e-12,-1.0915e-05,-8.081e-07,-6.0718,0.47059
13075,8.115,4.6364,0,0.0003879,3876.3,0.00013191,0.033003,0.00012138,-79.048,-0.00038919,-3915.2,0.46968
13076,8.2073,4.5455,0,0.00038501,3847.4,0.00013118,0.028097,0.00012003,-83.788,-0.00038636,-3888.6,0.48006
13077,8.115,4.5455,0.05,1.0211e-06,10.204,7.8406e-07,5.8911,6.4869e-12,-9.0551e-06,-7.8408e-07,-5.8913,0.46998
13078,8.115,4.8182,0,0.00038855,3882.8,0.0001314,0.036511,0.00012283,-64.29,-0.0003896,-3914.5,0.46895
13079,8.2073,4.7273,0,0.00038567,3854,0.0001307,0.031731,0.00012144,-69.564,-0.0003868,-3888.3,0.47938
13080,8.115,4.7273,0.05,9.881e-07,9.8742,7.5873e-07,5.7008,6.8183e-12,-1.6808e-05,-7.5875e-07,-5.701,0.46929
13081,8.115,5,0,0.00038918,3889.1,0.00013091,0.038961,0.00012423,-50.2,-0.00039001,-3914,0.46814
13082,8.2073,4.9091,0,0.00038632,3860.5,0.00013024,0.034613,0.00012282,-55.731,-0.00038724,-3888.1,0.47861
13083,8.115,4.9091,0.05,9.5471e-07,9.5405,7.3309e-07,5.5081,7.0102e-12,-1.4291e-05,-7.331e-07,-5.5083,0.46852
13084,8.115,5.1818,0,0.00038979,3895.2,0.00013047,0.040774,0.00012552,-37.113,-0.00039041,-3913.6,0.46725
13085,8.2073,5.0909,0,0.00038696,3866.9,0.00012981,0.036421,0.00012413,-42.635,-0.00038767,-3888,0.47776
13086,8.115,5.0909,0.05,9.2241e-07,9.2177,7.0829e-07,5.3217,6.0045e-12,-1.746e-05,-7.083e-07,-5.322,0.46767
13087,8.115,5.3636,0,0.00039038,3901.1,0.00013008,0.040769,0.00012671,-25.274,-0.0003908,-3913.7,0.46627
13088,8.2073,5.2727,0,0.00038758,3873.1,0.00012941,0.038471,0.00012534,-30.548,-0.00038809,-3888.3,0.47683
13089,8.115,5.2727,0.05,8.9271e-07,8.921,6.8548e-07,5.1504,1.153e-11,-1.0763e-05,-6.855e-07,-5.1506,0.46673
13090,8.115,5.5455,0,0.00039095,3906.8,0.00012975,0.049927,0.00012777,-14.808,-0.0003912,-3914.2,0.46521
13091,8.2073,5.4545,0,0.00038818,3879.1,0.00012907,0.037231,0.00012645,-19.653,-0.00038851,-3888.9,0.47582
13092,8.115,5.4545,0.05,8.6518e-07,8.6458,6.6434e-07,4.9915,8.8653e-12,-9.8637e-06,-6.6436e-07,-4.9918,0.46572
13093,8.115,5.7273,0,0.00039155,3912.8,0.00012949,0.075406,0.00012875,-5.5013,-0.00039164,-3915.5,0.46407
13094,8.2073,5.6364,0,0.00038877,3885,0.00012879,0.060727,0.00012745,-9.9915,-0.00038893,-3889.9,0.47472
13095,8.115,5.6364,0.05,8.0857e-07,8.0801,6.2087e-07,4.6649,1.284e-11,-9.2449e-06,-6.2089e-07,-4.6652,0.46462
13096,8.2073,5.8182,0,0.00038944,3891.7,0.0001286,0.28851,0.0001284,-1.2459,-0.00038946,-3892.2,0.47354
13097,8.115,5.8182,0.05,2.3698e-07,2.3682,1.8196e-07,1.3671,2.1233e-12,-9.6682e-05,-1.8198e-07,-1.3674,0.46343
13098,8.115,5.9091,0,0.00039185,3915.8,0.00012935,0.4209,0.00012928,-0.15642,-0.00039185,-3915.7,0.46284
13099,8.2997,0.27273,0,0.00038665,3863.8,0.00012788,0.069501,0.00012712,-5.5842,-0.00038674,-3866.6,0.48429
13100,8.392,0.18182,0,0.00038451,3842.4,0.00012697,0.29889,0.00012677,-1.1804,-0.00038452,-3842.9,0.4939
13101,8.2997,0.18182,0.05,2.487e-07,2.4853,1.9098e-07,1.4351,-9.7116e-13,9.1728e-05,-1.9096e-07,-1.4347,0.48365
13102,8.2997,0.090909,0,0.00038698,3867.1,0.00012775,0.46481,0.00012767,-0.1778,-0.00038698,-3867,0.48307
13103,8.2997,0.45455,0,0.00038599,3857.2,0.00012812,0.044323,0.00012613,-14.852,-0.00038624,-3864.6,0.48542
13104,8.392,0.36364,0,0.00038379,3835.2,0.00012715,0.056321,0.00012581,-9.9774,-0.00038395,-3840.2,0.49507
13105,8.2997,0.36364,0.05,8.3196e-07,8.3138,6.3885e-07,4.8002,-1.109e-11,1.1502e-05,-6.3883e-07,-4.7998,0.48483
13106,8.2997,0.63636,0,0.00038537,3851.1,0.00012841,0.03393,0.00012508,-24.943,-0.00038579,-3863.4,0.48647
13107,8.392,0.54545,0,0.00038316,3828.9,0.0001274,0.031246,0.00012482,-19.389,-0.00038348,-3838.6,0.49615
13108,8.2997,0.54545,0.05,8.8539e-07,8.8478,6.7988e-07,5.1084,-8.7791e-12,1.1845e-05,-6.7985e-07,-5.1081,0.48592
13109,8.2997,0.81818,0,0.00038474,3844.8,0.00012875,0.033645,0.00012394,-36.086,-0.00038534,-3862.7,0.48744
13110,8.392,0.72727,0,0.00038252,3822.6,0.0001277,0.032237,0.00012374,-29.738,-0.00038302,-3837.3,0.49716
13111,8.2997,0.72727,0.05,9.0755e-07,9.0692,6.9689e-07,5.2362,-6.8218e-12,1.1434e-05,-6.9687e-07,-5.236,0.48693
13112,8.2997,1,0,0.00038409,3838.3,0.00012913,0.03177,0.00012272,-48.18,-0.00038489,-3862.1,0.48832
13113,8.392,0.90909,0,0.00038187,3816.1,0.00012805,0.029977,0.00012259,-40.996,-0.00038255,-3836.4,0.49808
13114,8.2997,0.90909,0.05,9.3082e-07,9.3018,7.1476e-07,5.3706,-8.2492e-12,1.387e-05,-7.1475e-07,-5.3702,0.48785
13115,8.2997,1.1818,0,0.00038344,3831.7,0.00012955,0.029595,0.00012142,-61.017,-0.00038444,-3861.8,0.48912
13116,8.392,1.0909,0,0.00038121,3809.5,0.00012842,0.028295,0.00012136,-53.005,-0.00038208,-3835.7,0.49892
13117,8.2997,1.0909,0.05,9.5615e-07,9.5549,7.3421e-07,5.5167,-7.8246e-12,1.4413e-05,-7.342e-07,-5.5164,0.4887
13118,8.2997,1.3636,0,0.00038277,3825.1,0.00012998,0.026613,0.00012009,-74.314,-0.00038398,-3861.7,0.48985
13119,8.392,1.2727,0,0.00038054,3802.8,0.00012881,0.025777,0.00012009,-65.538,-0.00038162,-3835.1,0.49968
13120,8.2997,1.2727,0.05,9.8242e-07,9.8175,7.5439e-07,5.6682,-7.3996e-12,1.2217e-05,-7.5437e-07,-5.668,0.48946
13121,8.2997,1.5455,0,0.00038211,3818.5,0.00013042,0.02303,0.00011874,-87.73,-0.00038353,-3861.6,0.49049
13122,8.392,1.4545,0,0.00037988,3796.2,0.00012922,0.022715,0.0001188,-78.302,-0.00038115,-3834.7,0.50036
13123,8.2997,1.4545,0.05,1.0085e-06,10.078,7.744e-07,5.8186,-6.295e-12,1.2772e-05,-7.7438e-07,-5.8184,0.49015
13124,8.2997,1.7273,0,0.00038147,3812.1,0.00013085,0.019015,0.00011742,-100.88,-0.00038309,-3861.5,0.49106
13125,8.392,1.6364,0,0.00037923,3789.7,0.00012963,0.019168,0.00011752,-90.962,-0.00038069,-3834.3,0.50097
13126,8.2997,1.6364,0.05,1.0333e-06,10.326,7.9347e-07,5.9619,-5.6867e-12,1.1692e-05,-7.9346e-07,-5.9617,0.49075
13127,8.2997,1.9091,0,0.00038087,3806.1,0.00013126,0.014819,0.00011617,-113.37,-0.00038267,-3861.5,0.49155
13128,8.392,1.8182,0,0.00037861,3783.5,0.00013002,0.015355,0.00011629,-103.15,-0.00038026,-3834,0.50149
13129,8.2997,1.8182,0.05,1.0561e-06,10.554,8.1097e-07,6.0934,-3.8206e-12,1.1265e-05,-8.1095e-07,-6.0931,0.49128
13130,8.2997,2.0909,0,0.00038032,3800.6,0.00013164,0.0107,0.00011503,-124.78,-0.00038229,-3861.4,0.49196
13131,8.392,2,0,0.00037804,3777.8,0.00013038,0.011499,0.00011514,-114.49,-0.00037985,-3833.7,0.50194
13132,8.2997,2,0.05,1.0762e-06,10.755,8.2643e-07,6.2095,-4.2501e-12,7.5341e-06,-8.2641e-07,-6.2093,0.49173
13133,8.2997,2.2727,0,0.00037984,3795.8,0.00013196,0.0069132,0.00011403,-134.73,-0.00038196,-3861.4,0.4923
13134,8.392,2.1818,0,0.00037753,3772.7,0.00013071,0.0078364,0.00011412,-124.61,-0.00037949,-3833.4,0.50232
13135,8.2997,2.1818,0.05,1.0933e-06,10.925,8.3952e-07,6.3079,-3.7647e-12,5.6831e-06,-8.3952e-07,-6.3078,0.4921
13136,8.2997,2.4545,0,0.00037946,3791.9,0.00013223,0.0036965,0.00011322,-142.87,-0.00038169,-3861.4,0.49256
13137,8.392,2.3636,0,0.0003771,3768.4,0.00013098,0.0045942,0.00011326,-133.17,-0.00037919,-3833.2,0.50261
13138,8.2997,2.3636,0.05,1.1071e-06,11.063,8.5009e-07,6.3872,-3.3513e-12,2.6785e-06,-8.5008e-07,-6.3871,0.4924
13139,8.2997,2.6364,0,0.00037917,3789.1,0.00013243,0.0012472,0.00011261,-148.91,-0.00038148,-3861.3,0.49274
13140,8.392,2.5455,0,0.00037676,3765,0.0001312,0.0019726,0.00011258,-139.88,-0.00037895,-3833,0.50284
13141,8.2997,2.5455,0.05,1.1174e-06,11.166,8.5802e-07,6.4468,-2.0928e-12,4.1508e-06,-8.5801e-07,-6.4468,0.49263
13142,8.2997,2.8182,0,0.00037899,3787.3,0.00013255,-0.00028522,0.00011224,-152.62,-0.00038136,-3861.3,0.49285
13143,8.392,2.7273,0,0.00037654,3762.8,0.00013134,0.00012958,0.00011211,-144.49,-0.00037878,-3832.9,0.50298
13144,8.2997,2.7273,0.05,1.1243e-06,11.235,8.6331e-07,6.4865,-1.7409e-12,3.2915e-06,-8.6329e-07,-6.4865,0.49277
13145,8.2997,3,0,0.00037893,3786.7,0.00013259,-0.0008067,0.00011211,-153.87,-0.00038132,-3861.3,0.49289
13146,8.392,2.9091,0,0.00037642,3761.6,0.00013142,-0.00082066,0.00011188,-146.83,-0.0003787,-3832.9,0.50306
13147,8.2997,2.9091,0.05,1.1277e-06,11.269,8.6594e-07,6.5063,-5.8626e-13,5.3121e-07,-8.6593e-07,-6.5063,0.49285
13148,8.2997,3.1818,0,0.00037899,3787.3,0.00013255,-0.00028525,0.00011224,-152.62,-0.00038136,-3861.3,0.49285
13149,8.392,3.0909,0,0.00037642,3761.6,0.00013142,-0.00082074,0.00011188,-146.83,-0.0003787,-3832.9,0.50306
13150,8.2997,3.0909,0.05,1.1277e-06,11.269,8.6594e-07,6.5063,5.8645e-13,-5.1764e-07,-8.6594e-07,-6.5063,0.49285
13151,8.2997,3.3636,0,0.00037917,3789.1,0.00013243,0.0012474,0.00011261,-148.91,-0.00038148,-3861.3,0.49274
13152,8.392,3.2727,0,0.00037654,3762.8,0.00013134,0.00012979,0.00011211,-144.49,-0.00037878,-3832.9,0.50298
13153,8.2997,3.2727,0.05,1.1243e-06,11.235,8.6329e-07,6.4865,1.7431e-12,4.2858e-07,-8.633e-07,-6.4865,0.49277
13154,8.2997,3.5455,0,0.00037946,3791.9,0.00013223,0.0036965,0.00011322,-142.87,-0.00038169,-3861.4,0.49256
13155,8.392,3.4545,0,0.00037676,3765,0.0001312,0.0019725,0.00011258,-139.88,-0.00037895,-3833,0.50284
13156,8.2997,3.4545,0.05,1.1174e-06,11.166,8.5802e-07,6.4468,1.1995e-12,-2.7878e-07,-8.5802e-07,-6.4468,0.49263
13157,8.2997,3.7273,0,0.00037985,3795.8,0.00013196,0.006913,0.00011403,-134.73,-0.00038196,-3861.4,0.4923
13158,8.392,3.6364,0,0.0003771,3768.4,0.00013098,0.0045942,0.00011326,-133.17,-0.00037919,-3833.2,0.50261
13159,8.2997,3.6364,0.05,1.1071e-06,11.063,8.5008e-07,6.3871,2.4134e-12,-6.7634e-06,-8.5009e-07,-6.3872,0.4924
13160,8.2997,3.9091,0,0.00038032,3800.6,0.00013164,0.010699,0.00011503,-124.78,-0.00038229,-3861.4,0.49196
13161,8.392,3.8182,0,0.00037753,3772.7,0.00013071,0.0078361,0.00011412,-124.61,-0.00037949,-3833.4,0.50232
13162,8.2997,3.8182,0.05,1.0933e-06,10.925,8.3952e-07,6.3078,3.7936e-12,-4.2705e-06,-8.3952e-07,-6.3079,0.4921
13163,8.2997,4.0909,0,0.00038087,3806.1,0.00013126,0.014819,0.00011617,-113.37,-0.00038267,-3861.5,0.49155
13164,8.392,4,0,0.00037804,3777.8,0.00013038,0.011499,0.00011514,-114.49,-0.00037985,-3833.7,0.50194
13165,8.2997,4,0.05,1.0762e-06,10.755,8.2641e-07,6.2093,4.2809e-12,-7.3035e-06,-8.2642e-07,-6.2095,0.49173
13166,8.2997,4.2727,0,0.00038147,3812.1,0.00013085,0.019015,0.00011742,-100.88,-0.00038309,-3861.5,0.49106
13167,8.392,4.1818,0,0.00037861,3783.5,0.00013002,0.015354,0.00011629,-103.15,-0.00038026,-3834,0.50149
13168,8.2997,4.1818,0.05,1.0561e-06,10.554,8.1096e-07,6.0931,3.8368e-12,-1.1214e-05,-8.1097e-07,-6.0934,0.49128
13169,8.2997,4.4545,0,0.00038211,3818.5,0.00013042,0.023029,0.00011874,-87.73,-0.00038353,-3861.6,0.49049
13170,8.392,4.3636,0,0.00037923,3789.7,0.00012963,0.019168,0.00011752,-90.962,-0.00038069,-3834.3,0.50097
13171,8.2997,4.3636,0.05,1.0333e-06,10.326,7.9346e-07,5.9617,3.9861e-12,-9.4196e-06,-7.9347e-07,-5.9619,0.49075
13172,8.2997,4.6364,0,0.00038277,3825.1,0.00012998,0.026613,0.00012009,-74.314,-0.00038398,-3861.7,0.48985
13173,8.392,4.5455,0,0.00037988,3796.2,0.00012922,0.022714,0.0001188,-78.302,-0.00038115,-3834.7,0.50036
13174,8.2997,4.5455,0.05,1.0085e-06,10.078,7.7439e-07,5.8184,5.498e-12,-8.8164e-06,-7.744e-07,-5.8186,0.49015
13175,8.2997,4.8182,0,0.00038344,3831.7,0.00012955,0.029595,0.00012142,-61.017,-0.00038444,-3861.8,0.48912
13176,8.392,4.7273,0,0.00038054,3802.8,0.00012881,0.025777,0.00012009,-65.538,-0.00038162,-3835.1,0.49968
13177,8.2997,4.7273,0.05,9.8242e-07,9.8175,7.5437e-07,5.668,7.2713e-12,-1.2444e-05,-7.5439e-07,-5.6682,0.48946
13178,8.2997,5,0,0.0003841,3838.3,0.00012913,0.031769,0.00012272,-48.18,-0.00038489,-3862.1,0.48832
13179,8.392,4.9091,0,0.00038121,3809.5,0.00012842,0.028294,0.00012136,-53.005,-0.00038208,-3835.7,0.49892
13180,8.2997,4.9091,0.05,9.5615e-07,9.5549,7.342e-07,5.5164,7.7237e-12,-1.1442e-05,-7.3421e-07,-5.5167,0.4887
13181,8.2997,5.1818,0,0.00038474,3844.8,0.00012875,0.033644,0.00012394,-36.086,-0.00038534,-3862.7,0.48744
13182,8.392,5.0909,0,0.00038187,3816.1,0.00012805,0.029975,0.00012259,-40.996,-0.00038255,-3836.4,0.49808
13183,8.2997,5.0909,0.05,9.3082e-07,9.3018,7.1475e-07,5.3703,8.1044e-12,-8.9378e-06,-7.1476e-07,-5.3705,0.48785
13184,8.2997,5.3636,0,0.00038537,3851.1,0.00012841,0.03393,0.00012508,-24.943,-0.00038579,-3863.4,0.48647
13185,8.392,5.2727,0,0.00038252,3822.6,0.0001277,0.032235,0.00012374,-29.738,-0.00038302,-3837.3,0.49716
13186,8.2997,5.2727,0.05,9.0755e-07,9.0692,6.9687e-07,5.236,8.5225e-12,-1.1335e-05,-6.9689e-07,-5.2362,0.48693
13187,8.2997,5.5455,0,0.00038599,3857.2,0.00012812,0.044322,0.00012613,-14.852,-0.00038624,-3864.6,0.48542
13188,8.392,5.4545,0,0.00038316,3828.9,0.0001274,0.031246,0.00012482,-19.389,-0.00038348,-3838.6,0.49615
13189,8.2997,5.4545,0.05,8.8539e-07,8.8478,6.7986e-07,5.1081,8.9375e-12,-8.3007e-06,-6.7988e-07,-5.1084,0.48592
13190,8.2997,5.7273,0,0.00038665,3863.8,0.00012788,0.0695,0.00012712,-5.5842,-0.00038674,-3866.6,0.48429
13191,8.392,5.6364,0,0.00038379,3835.2,0.00012715,0.05632,0.00012581,-9.9774,-0.00038395,-3840.2,0.49507
13192,8.2997,5.6364,0.05,8.3196e-07,8.3138,6.3883e-07,4.7998,1.297e-11,-8.1754e-06,-6.3885e-07,-4.8002,0.48483
13193,8.392,5.8182,0,0.00038451,3842.4,0.00012697,0.29889,0.00012677,-1.1804,-0.00038452,-3842.9,0.4939
13194,8.2997,5.8182,0.05,2.487e-07,2.4853,1.9096e-07,1.4347,9.7112e-13,-8.4318e-05,-1.9098e-07,-1.435,0.48365
13195,8.2997,5.9091,0,0.00038698,3867.1,0.00012775,0.46481,0.00012767,-0.1778,-0.00038698,-3867,0.48307
13196,8.4844,0.27273,0,0.00038164,3813.8,0.00012621,0.065507,0.00012549,-5.4075,-0.00038173,-3816.4,0.50477
13197,8.5768,0.18182,0,0.00037948,3792.2,0.00012531,0.34651,0.00012513,-0.97853,-0.00037949,-3792.5,0.51451
13198,8.4844,0.18182,0.05,2.5275e-07,2.5257,1.9409e-07,1.4584,-5.1785e-13,7.4791e-05,-1.9407e-07,-1.4581,0.50414
13199,8.4844,0.090909,0,0.00038199,3817.3,0.00012611,0.57558,0.00012601,-0.15832,-0.00038198,-3817,0.50356
13200,8.4844,0.45455,0,0.00038095,3806.9,0.00012644,0.039799,0.0001245,-14.53,-0.00038119,-3814.1,0.50589
13201,8.5768,0.36364,0,0.00037873,3784.7,0.00012546,0.052462,0.00012417,-9.6712,-0.00037889,-3789.5,0.51567
13202,8.4844,0.36364,0.05,8.487e-07,8.4812,6.5171e-07,4.8968,-1.1424e-11,1.1212e-05,-6.5168e-07,-4.8964,0.5053
13203,8.4844,0.63636,0,0.0003803,3800.4,0.0001267,0.028658,0.00012347,-24.2,-0.00038071,-3812.4,0.50693
13204,8.5768,0.54545,0,0.00037807,3778.1,0.00012569,0.026567,0.00012319,-18.768,-0.00037839,-3787.5,0.51675
13205,8.4844,0.54545,0.05,8.9994e-07,8.9931,6.9105e-07,5.1924,-9.1065e-12,1.2056e-05,-6.9102e-07,-5.192,0.50638
13206,8.4844,0.81818,0,0.00037965,3793.9,0.000127,0.028158,0.00012238,-34.663,-0.00038023,-3811.1,0.50789
13207,8.5768,0.72727,0,0.00037742,3771.6,0.00012596,0.027369,0.00012216,-28.561,-0.0003779,-3785.8,0.51774
13208,8.4844,0.72727,0.05,9.1798e-07,9.1735,7.0491e-07,5.2965,-8.8601e-12,1.2254e-05,-7.0488e-07,-5.2961,0.50738
13209,8.4844,1,0,0.00037899,3787.2,0.00012733,0.026248,0.00012123,-45.835,-0.00037974,-3809.9,0.50877
13210,8.5768,0.90909,0,0.00037676,3765,0.00012626,0.024987,0.00012106,-39.033,-0.00037741,-3784.3,0.51866
13211,8.4844,0.90909,0.05,9.3631e-07,9.3566,7.1898e-07,5.4022,-8.6537e-12,1.273e-05,-7.1896e-07,-5.4019,0.5083
13212,8.4844,1.1818,0,0.00037832,3780.6,0.00012769,0.024285,0.00012002,-57.538,-0.00037926,-3809,0.50956
13213,8.5768,1.0909,0,0.00037609,3758.3,0.00012658,0.023413,0.00011992,-50.05,-0.00037692,-3783.1,0.51949
13214,8.4844,1.0909,0.05,9.5621e-07,9.5555,7.3426e-07,5.517,-7.4419e-12,1.2958e-05,-7.3425e-07,-5.5168,0.50914
13215,8.4844,1.3636,0,0.00037765,3773.9,0.00012805,0.021713,0.0001188,-69.536,-0.00037878,-3808.2,0.51028
13216,8.5768,1.2727,0,0.00037543,3751.7,0.00012692,0.021189,0.00011874,-61.418,-0.00037643,-3782,0.52025
13217,8.4844,1.2727,0.05,9.7691e-07,9.7624,7.5015e-07,5.6364,-8.087e-12,1.1517e-05,-7.5014e-07,-5.6362,0.5099
13218,8.4844,1.5455,0,0.00037699,3767.3,0.00012843,0.018695,0.00011757,-81.542,-0.00037831,-3807.4,0.51092
13219,8.5768,1.4545,0,0.00037477,3745.1,0.00012727,0.018579,0.00011756,-72.892,-0.00037595,-3781,0.52093
13220,8.4844,1.4545,0.05,9.9751e-07,9.9682,7.6597e-07,5.7553,-6.0462e-12,1.2018e-05,-7.6595e-07,-5.755,0.51058
13221,8.4844,1.7273,0,0.00037636,3761,0.00012879,0.015351,0.00011638,-93.234,-0.00037786,-3806.8,0.51149
13222,8.5768,1.6364,0,0.00037413,3738.7,0.00012761,0.015603,0.0001164,-84.188,-0.00037549,-3780.1,0.52152
13223,8.4844,1.6364,0.05,1.0172e-06,10.165,7.811e-07,5.8689,-6.2382e-12,7.3331e-06,-7.8109e-07,-5.8688,0.51118
13224,8.4844,1.9091,0,0.00037578,3755.2,0.00012914,0.011876,0.00011526,-104.28,-0.00037744,-3806.2,0.51197
13225,8.5768,1.8182,0,0.00037353,3732.7,0.00012794,0.012431,0.0001153,-95.001,-0.00037505,-3779.3,0.52205
13226,8.4844,1.8182,0.05,1.0354e-06,10.347,7.9503e-07,5.9737,-4.7196e-12,7.993e-06,-7.9503e-07,-5.9735,0.5117
13227,8.4844,2.0909,0,0.00037524,3749.8,0.00012945,0.0084735,0.00011423,-114.32,-0.00037706,-3805.7,0.51238
13228,8.5768,2,0,0.00037297,3727.2,0.00012825,0.0092379,0.00011427,-105.01,-0.00037465,-3778.5,0.52249
13229,8.4844,2,0.05,1.0515e-06,10.507,8.074e-07,6.0665,-4.8578e-12,6.671e-06,-8.074e-07,-6.0664,0.51215
13230,8.4844,2.2727,0,0.00037478,3745.2,0.00012972,0.0053514,0.00011335,-123.06,-0.00037672,-3805.2,0.51272
13231,8.5768,2.1818,0,0.00037248,3722.3,0.00012852,0.006212,0.00011336,-113.92,-0.00037429,-3777.9,0.52286
13232,8.4844,2.1818,0.05,1.0652e-06,10.644,8.1793e-07,6.1456,-3.3139e-12,4.3648e-06,-8.1792e-07,-6.1455,0.51252
13233,8.4844,2.4545,0,0.00037441,3741.5,0.00012995,0.002701,0.00011262,-130.18,-0.00037645,-3804.9,0.51298
13234,8.5768,2.3636,0,0.00037207,3718.1,0.00012875,0.0035367,0.00011259,-121.43,-0.00037399,-3777.4,0.52316
13235,8.4844,2.3636,0.05,1.0763e-06,10.755,8.2644e-07,6.2096,-3.6593e-12,5.6156e-06,-8.2644e-07,-6.2095,0.51282
13236,8.4844,2.6364,0,0.00037413,3738.7,0.00013011,0.00068323,0.00011208,-135.46,-0.00037625,-3804.6,0.51316
13237,8.5768,2.5455,0,0.00037175,3714.9,0.00012893,0.0013756,0.00011199,-127.3,-0.00037375,-3777,0.52338
13238,8.4844,2.5455,0.05,1.0846e-06,10.839,8.3286e-07,6.2578,-1.4308e-12,3.6136e-06,-8.3285e-07,-6.2577,0.51304
13239,8.4844,2.8182,0,0.00037396,3737,0.00013021,-0.00057924,0.00011175,-138.7,-0.00037613,-3804.5,0.51327
13240,8.5768,2.7273,0,0.00037153,3712.8,0.00012905,-0.00014366,0.00011157,-131.33,-0.00037359,-3776.7,0.52353
13241,8.4844,2.7273,0.05,1.0902e-06,10.894,8.3714e-07,6.2899,-1.9332e-12,-1.7407e-06,-8.3714e-07,-6.2899,0.51319
13242,8.4844,3,0,0.0003739,3736.5,0.00013025,-0.0010086,0.00011164,-139.8,-0.00037609,-3804.4,0.51331
13243,8.5768,2.9091,0,0.00037142,3711.6,0.00012912,-0.0009267,0.00011136,-133.38,-0.00037351,-3776.5,0.5236
13244,8.4844,2.9091,0.05,1.093e-06,10.922,8.3928e-07,6.306,-6.4387e-13,1.9945e-06,-8.3928e-07,-6.306,0.51327
13245,8.4844,3.1818,0,0.00037396,3737,0.00013021,-0.00057909,0.00011175,-138.7,-0.00037613,-3804.5,0.51327
13246,8.5768,3.0909,0,0.00037142,3711.6,0.00012912,-0.00092688,0.00011136,-133.38,-0.00037351,-3776.5,0.5236
13247,8.4844,3.0909,0.05,1.093e-06,10.922,8.3928e-07,6.306,-2.6633e-13,-9.4305e-08,-8.3928e-07,-6.306,0.51327
13248,8.4844,3.3636,0,0.00037413,3738.7,0.00013011,0.00068312,0.00011208,-135.46,-0.00037625,-3804.6,0.51316
13249,8.5768,3.2727,0,0.00037153,3712.8,0.00012905,-0.00014366,0.00011157,-131.33,-0.00037359,-3776.7,0.52353
13250,8.4844,3.2727,0.05,1.0902e-06,10.894,8.3714e-07,6.2899,1.0359e-12,-2.0467e-06,-8.3714e-07,-6.2899,0.51319
13251,8.4844,3.5455,0,0.00037441,3741.5,0.00012995,0.0027009,0.00011262,-130.18,-0.00037645,-3804.9,0.51298
13252,8.5768,3.4545,0,0.00037175,3714.9,0.00012893,0.0013755,0.00011199,-127.3,-0.00037375,-3777,0.52338
13253,8.4844,3.4545,0.05,1.0846e-06,10.839,8.3285e-07,6.2577,1.4098e-12,-1.8368e-06,-8.3286e-07,-6.2578,0.51304
13254,8.4844,3.7273,0,0.00037478,3745.2,0.00012972,0.0053512,0.00011335,-123.06,-0.00037672,-3805.2,0.51272
13255,8.5768,3.6364,0,0.00037207,3718.1,0.00012875,0.0035368,0.00011259,-121.43,-0.00037399,-3777.4,0.52316
13256,8.4844,3.6364,0.05,1.0763e-06,10.755,8.2643e-07,6.2095,1.8709e-12,-4.9397e-06,-8.2644e-07,-6.2096,0.51282
13257,8.4844,3.9091,0,0.00037524,3749.8,0.00012945,0.0084731,0.00011423,-114.32,-0.00037706,-3805.7,0.51238
13258,8.5768,3.8182,0,0.00037248,3722.3,0.00012852,0.0062117,0.00011336,-113.92,-0.00037429,-3777.9,0.52286
13259,8.4844,3.8182,0.05,1.0652e-06,10.644,8.1792e-07,6.1455,3.3371e-12,-4.8236e-06,-8.1793e-07,-6.1456,0.51252
13260,8.4844,4.0909,0,0.00037578,3755.2,0.00012914,0.011875,0.00011526,-104.28,-0.00037744,-3806.2,0.51197
13261,8.5768,4,0,0.00037297,3727.2,0.00012825,0.0092376,0.00011427,-105.01,-0.00037465,-3778.5,0.52249
13262,8.4844,4,0.05,1.0515e-06,10.507,8.074e-07,6.0664,4.7762e-12,-5.63e-06,-8.074e-07,-6.0665,0.51215
13263,8.4844,4.2727,0,0.00037636,3761,0.00012879,0.015351,0.00011638,-93.234,-0.00037786,-3806.8,0.51149
13264,8.5768,4.1818,0,0.00037353,3732.7,0.00012794,0.012431,0.0001153,-95.001,-0.00037505,-3779.3,0.52205
13265,8.4844,4.1818,0.05,1.0354e-06,10.347,7.9503e-07,5.9735,4.6593e-12,-8.3304e-06,-7.9504e-07,-5.9737,0.5117
13266,8.4844,4.4545,0,0.00037699,3767.3,0.00012843,0.018695,0.00011757,-81.542,-0.00037831,-3807.4,0.51092
13267,8.5768,4.3636,0,0.00037413,3738.7,0.00012761,0.015603,0.0001164,-84.188,-0.00037549,-3780.1,0.52152
13268,8.4844,4.3636,0.05,1.0172e-06,10.165,7.8109e-07,5.8688,6.2447e-12,-6.5816e-06,-7.811e-07,-5.8689,0.51118
13269,8.4844,4.6364,0,0.00037765,3773.9,0.00012805,0.021711,0.0001188,-69.536,-0.00037878,-3808.2,0.51028
13270,8.5768,4.5455,0,0.00037477,3745.1,0.00012727,0.018579,0.00011756,-72.892,-0.00037595,-3781,0.52093
13271,8.4844,4.5455,0.05,9.9751e-07,9.9682,7.6595e-07,5.755,4.144e-12,-8.3831e-06,-7.6597e-07,-5.7553,0.51058
13272,8.4844,4.8182,0,0.00037832,3780.6,0.00012769,0.024284,0.00012002,-57.538,-0.00037926,-3809,0.50956
13273,8.5768,4.7273,0,0.00037543,3751.7,0.00012692,0.021187,0.00011874,-61.418,-0.00037643,-3782,0.52025
13274,8.4844,4.7273,0.05,9.7691e-07,9.7624,7.5014e-07,5.6362,6.404e-12,-9.639e-06,-7.5015e-07,-5.6364,0.5099
13275,8.4844,5,0,0.00037899,3787.2,0.00012733,0.026246,0.00012123,-45.834,-0.00037974,-3809.9,0.50877
13276,8.5768,4.9091,0,0.00037609,3758.3,0.00012658,0.023413,0.00011992,-50.05,-0.00037692,-3783.1,0.51949
13277,8.4844,4.9091,0.05,9.5621e-07,9.5555,7.3424e-07,5.5168,8.1804e-12,-9.3331e-06,-7.3426e-07,-5.517,0.50914
13278,8.4844,5.1818,0,0.00037965,3793.9,0.000127,0.028157,0.00012238,-34.663,-0.00038023,-3811.1,0.50789
13279,8.5768,5.0909,0,0.00037676,3765,0.00012626,0.024985,0.00012106,-39.033,-0.00037741,-3784.3,0.51866
13280,8.4844,5.0909,0.05,9.3631e-07,9.3566,7.1896e-07,5.4019,7.6919e-12,-9.5629e-06,-7.1898e-07,-5.4022,0.5083
13281,8.4844,5.3636,0,0.0003803,3800.4,0.0001267,0.028657,0.00012347,-24.2,-0.00038071,-3812.4,0.50693
13282,8.5768,5.2727,0,0.00037742,3771.6,0.00012596,0.027367,0.00012216,-28.561,-0.0003779,-3785.8,0.51774
13283,8.4844,5.2727,0.05,9.1798e-07,9.1735,7.0488e-07,5.2962,8.9749e-12,-9.7416e-06,-7.049e-07,-5.2964,0.50738
13284,8.4844,5.5455,0,0.00038095,3806.9,0.00012644,0.039799,0.0001245,-14.53,-0.00038119,-3814.1,0.50589
13285,8.5768,5.4545,0,0.00037807,3778.1,0.00012569,0.026566,0.00012319,-18.768,-0.00037839,-3787.5,0.51675
13286,8.4844,5.4545,0.05,8.9994e-07,8.9932,6.9103e-07,5.1921,9.2041e-12,-7.6342e-06,-6.9105e-07,-5.1923,0.50638
13287,8.4844,5.7273,0,0.00038164,3813.8,0.00012621,0.065506,0.00012549,-5.4075,-0.00038173,-3816.4,0.50477
13288,8.5768,5.6364,0,0.00037873,3784.7,0.00012546,0.052461,0.00012417,-9.6712,-0.00037889,-3789.5,0.51567
13289,8.4844,5.6364,0.05,8.487e-07,8.4812,6.5168e-07,4.8964,1.1341e-11,-7.3677e-06,-6.5171e-07,-4.8968,0.5053
13290,8.5768,5.8182,0,0.00037948,3792.2,0.00012531,0.34651,0.00012513,-0.97852,-0.00037949,-3792.5,0.51451
13291,8.4844,5.8182,0.05,2.5275e-07,2.5257,1.9407e-07,1.4581,1.7976e-12,-8.4064e-05,-1.9409e-07,-1.4584,0.50414
13292,8.4844,5.9091,0,0.00038199,3817.3,0.00012611,0.57559,0.00012601,-0.15832,-0.00038198,-3817,0.50356
13293,8.6691,0.27273,0,0.00037656,3763,0.00012452,0.062855,0.00012384,-5.0277,-0.00037664,-3765.5,0.52551
13294,8.7615,0.18182,0,0.00037438,3741.2,0.00012362,0.45581,0.00012346,-0.70343,-0.00037438,-3741.3,0.53539
13295,8.6691,0.18182,0.05,2.5095e-07,2.5078,1.9271e-07,1.448,-2.8777e-12,8.6992e-05,-1.9269e-07,-1.4477,0.52489
13296,8.6691,0.090909,0,0.00037691,3766.5,0.00012445,0.75538,0.00012433,-0.12342,-0.0003769,-3766.2,0.52431
13297,8.6691,0.45455,0,0.00037585,3755.9,0.00012472,0.035951,0.00012286,-13.924,-0.00037608,-3762.8,0.52662
13298,8.7615,0.36364,0,0.00037361,3733.5,0.00012375,0.048892,0.00012253,-9.1394,-0.00037377,-3738.1,0.53653
13299,8.6691,0.36364,0.05,8.6024e-07,8.5965,6.6057e-07,4.9634,-9.7234e-12,1.1038e-05,-6.6055e-07,-4.963,0.52604
13300,8.6691,0.63636,0,0.00037519,3749.3,0.00012496,0.024468,0.00012188,-23.144,-0.00037558,-3760.8,0.52765
13301,8.7615,0.54545,0,0.00037295,3726.9,0.00012396,0.022795,0.00012158,-17.873,-0.00037325,-3735.8,0.5376
13302,8.6691,0.54545,0.05,9.1001e-07,9.0938,6.9878e-07,5.2505,-1.0309e-11,1.0591e-05,-6.9876e-07,-5.2501,0.52711
13303,8.6691,0.81818,0,0.00037453,3742.7,0.00012522,0.023839,0.00012084,-32.946,-0.00037508,-3759,0.5286
13304,8.7615,0.72727,0,0.00037229,3720.3,0.0001242,0.023473,0.00012059,-27.111,-0.00037274,-3733.8,0.53859
13305,8.6691,0.72727,0.05,9.2489e-07,9.2425,7.1021e-07,5.3363,-1.0075e-11,1.0402e-05,-7.1019e-07,-5.336,0.5281
13306,8.6691,1,0,0.00037386,3736,0.00012551,0.021938,0.00011975,-43.262,-0.00037458,-3757.5,0.52947
13307,8.7615,0.90909,0,0.00037163,3713.7,0.00012446,0.021058,0.00011955,-36.842,-0.00037224,-3732,0.53949
13308,8.6691,0.90909,0.05,9.3939e-07,9.3874,7.2134e-07,5.42,-8.8198e-12,1.1561e-05,-7.2133e-07,-5.4197,0.52901
13309,8.6691,1.1818,0,0.0003732,3729.4,0.00012582,0.020159,0.00011864,-53.942,-0.00037409,-3756.1,0.53026
13310,8.7615,1.0909,0,0.00037097,3707.1,0.00012474,0.019593,0.00011849,-46.952,-0.00037175,-3730.4,0.54032
13311,8.6691,1.0909,0.05,9.5509e-07,9.5443,7.334e-07,5.5106,-7.7738e-12,1.3206e-05,-7.3338e-07,-5.5102,0.52984
13312,8.6691,1.3636,0,0.00037254,3722.8,0.00012614,0.017922,0.00011751,-64.783,-0.0003736,-3754.8,0.53097
13313,8.7615,1.2727,0,0.00037031,3700.6,0.00012503,0.017619,0.00011741,-57.275,-0.00037126,-3728.9,0.54107
13314,8.6691,1.2727,0.05,9.7142e-07,9.7075,7.4594e-07,5.6047,-6.6971e-12,1.0519e-05,-7.4593e-07,-5.6045,0.53059
13315,8.6691,1.5455,0,0.0003719,3716.4,0.00012645,0.015363,0.0001164,-75.546,-0.00037313,-3753.6,0.53161
13316,8.7615,1.4545,0,0.00036967,3694.2,0.00012533,0.015383,0.00011633,-67.606,-0.00037078,-3727.5,0.54174
13317,8.6691,1.4545,0.05,9.8771e-07,9.8703,7.5845e-07,5.6988,-7.414e-12,9.6257e-06,-7.5843e-07,-5.6985,0.53127
13318,8.6691,1.7273,0,0.00037129,3710.3,0.00012676,0.012562,0.00011532,-85.961,-0.00037268,-3752.6,0.53217
13319,8.7615,1.6364,0,0.00036906,3688,0.00012562,0.012873,0.00011527,-77.706,-0.00037032,-3726.3,0.54234
13320,8.6691,1.6364,0.05,1.0033e-06,10.027,7.7045e-07,5.789,-5.9065e-12,1.109e-05,-7.7044e-07,-5.7887,0.53187
13321,8.6691,1.9091,0,0.00037072,3704.7,0.00012705,0.0096699,0.00011431,-95.744,-0.00037226,-3751.6,0.53265
13322,8.7615,1.8182,0,0.00036848,3682.2,0.0001259,0.010222,0.00011427,-87.319,-0.00036988,-3725.1,0.54286
13323,8.6691,1.8182,0.05,1.0178e-06,10.171,7.8155e-07,5.8723,-4.9578e-12,8.9802e-06,-7.8154e-07,-5.8722,0.53239
13324,8.6691,2.0909,0,0.00037021,3699.6,0.00012732,0.0068501,0.00011339,-104.61,-0.00037188,-3750.8,0.53306
13325,8.7615,2,0,0.00036795,3676.9,0.00012616,0.0075681,0.00011335,-96.18,-0.00036949,-3724.1,0.5433
13326,8.6691,2,0.05,1.0307e-06,10.3,7.9144e-07,5.9466,-4.3369e-12,8.7764e-06,-7.9143e-07,-5.9464,0.53283
13327,8.6691,2.2727,0,0.00036977,3695.2,0.00012755,0.0042678,0.0001126,-112.29,-0.00037155,-3750,0.53339
13328,8.7615,2.1818,0,0.00036748,3672.3,0.00012639,0.0050609,0.00011254,-104.03,-0.00036914,-3723.2,0.54367
13329,8.6691,2.1818,0.05,1.0417e-06,10.41,7.9988e-07,6.01,-1.8725e-12,5.5178e-06,-7.9987e-07,-6.0099,0.5332
13330,8.6691,2.4545,0,0.00036942,3691.6,0.00012773,0.0020788,0.00011195,-118.55,-0.00037129,-3749.4,0.53365
13331,8.7615,2.3636,0,0.00036709,3668.4,0.00012658,0.0028482,0.00011185,-110.64,-0.00036885,-3722.4,0.54396
13332,8.6691,2.3636,0.05,1.0506e-06,10.499,8.0674e-07,6.0615,-2.1903e-12,5.3111e-06,-8.0673e-07,-6.0614,0.5335
13333,8.6691,2.6364,0,0.00036915,3689,0.00012787,0.00041389,0.00011148,-123.17,-0.00037109,-3749,0.53383
13334,8.7615,2.5455,0,0.00036679,3665.3,0.00012673,0.0010631,0.00011132,-115.79,-0.00036862,-3721.9,0.54418
13335,8.6691,2.5455,0.05,1.0573e-06,10.566,8.1192e-07,6.1005,-2.548e-12,3.5234e-06,-8.1191e-07,-6.1003,0.53372
13336,8.6691,2.8182,0,0.00036899,3687.4,0.00012796,-0.00062738,0.00011119,-126.01,-0.00037097,-3748.8,0.53394
13337,8.7615,2.7273,0,0.00036658,3663.3,0.00012683,-0.00019064,0.00011095,-119.31,-0.00036846,-3721.5,0.54433
13338,8.6691,2.7273,0.05,1.0619e-06,10.611,8.1538e-07,6.1265,-1.166e-12,2.2187e-06,-8.1538e-07,-6.1264,0.53387
13339,8.6691,3,0,0.00036894,3686.8,0.00012798,-0.00098172,0.00011109,-126.96,-0.00037093,-3748.7,0.53398
13340,8.7615,2.9091,0,0.00036647,3662.2,0.00012689,-0.00083708,0.00011077,-121.11,-0.00036838,-3721.3,0.5444
13341,8.6691,2.9091,0.05,1.0641e-06,10.634,8.1712e-07,6.1395,2.2199e-13,-2.3117e-07,-8.1711e-07,-6.1395,0.53394
13342,8.6691,3.1818,0,0.00036899,3687.4,0.00012796,-0.00062771,0.00011119,-126.01,-0.00037097,-3748.8,0.53394
13343,8.7615,3.0909,0,0.00036647,3662.2,0.00012689,-0.00083735,0.00011077,-121.11,-0.00036838,-3721.3,0.5444
13344,8.6691,3.0909,0.05,1.0641e-06,10.634,8.1712e-07,6.1395,-2.2192e-13,-7.1998e-07,-8.1711e-07,-6.1395,0.53394
13345,8.6691,3.3636,0,0.00036915,3689,0.00012787,0.00041387,0.00011148,-123.17,-0.00037109,-3749,0.53383
13346,8.7615,3.2727,0,0.00036658,3663.3,0.00012683,-0.00019088,0.00011095,-119.31,-0.00036846,-3721.5,0.54433
13347,8.6691,3.2727,0.05,1.0619e-06,10.611,8.1538e-07,6.1264,-6.5634e-13,-2.4325e-07,-8.1538e-07,-6.1265,0.53387
13348,8.6691,3.5455,0,0.00036942,3691.6,0.00012773,0.0020788,0.00011195,-118.55,-0.00037129,-3749.4,0.53365
13349,8.7615,3.4545,0,0.00036679,3665.3,0.00012673,0.0010633,0.00011132,-115.79,-0.00036862,-3721.9,0.54418
13350,8.6691,3.4545,0.05,1.0573e-06,10.566,8.1191e-07,6.1004,7.6218e-13,-4.6172e-07,-8.1191e-07,-6.1004,0.53372
13351,8.6691,3.7273,0,0.00036977,3695.2,0.00012755,0.0042677,0.0001126,-112.29,-0.00037155,-3750,0.53339
13352,8.7615,3.6364,0,0.00036709,3668.4,0.00012658,0.0028481,0.00011185,-110.64,-0.00036885,-3722.4,0.54396
13353,8.6691,3.6364,0.05,1.0506e-06,10.499,8.0673e-07,6.0614,2.1625e-12,-3.6088e-06,-8.0674e-07,-6.0615,0.5335
13354,8.6691,3.9091,0,0.00037021,3699.6,0.00012732,0.0068498,0.00011339,-104.61,-0.00037188,-3750.8,0.53306
13355,8.7615,3.8182,0,0.00036748,3672.3,0.00012639,0.0050606,0.00011254,-104.03,-0.00036914,-3723.2,0.54367
13356,8.6691,3.8182,0.05,1.0417e-06,10.41,7.9987e-07,6.0099,1.8244e-12,-2.5929e-06,-7.9988e-07,-6.01,0.5332
13357,8.6691,4.0909,0,0.00037072,3704.7,0.00012705,0.0096698,0.00011431,-95.744,-0.00037226,-3751.6,0.53265
13358,8.7615,4,0,0.00036795,3676.9,0.00012616,0.0075677,0.00011335,-96.18,-0.00036949,-3724.1,0.5433
13359,8.6691,4,0.05,1.0307e-06,10.3,7.9143e-07,5.9464,3.3819e-12,-4.894e-06,-7.9144e-07,-5.9466,0.53283
13360,8.6691,4.2727,0,0.00037129,3710.3,0.00012676,0.012561,0.00011532,-85.961,-0.00037268,-3752.6,0.53217
13361,8.7615,4.1818,0,0.00036848,3682.2,0.0001259,0.010222,0.00011427,-87.319,-0.00036988,-3725.1,0.54286
13362,8.6691,4.1818,0.05,1.0178e-06,10.171,7.8154e-07,5.8722,4.8692e-12,-5.4143e-06,-7.8155e-07,-5.8723,0.53239
13363,8.6691,4.4545,0,0.0003719,3716.4,0.00012645,0.015363,0.0001164,-75.546,-0.00037313,-3753.6,0.53161
13364,8.7615,4.3636,0,0.00036906,3688,0.00012562,0.012872,0.00011527,-77.706,-0.00037032,-3726.3,0.54234
13365,8.6691,4.3636,0.05,1.0033e-06,10.027,7.7044e-07,5.7887,4.8235e-12,-7.3046e-06,-7.7045e-07,-5.7889,0.53187
13366,8.6691,4.6364,0,0.00037254,3722.8,0.00012614,0.017921,0.00011751,-64.783,-0.0003736,-3754.8,0.53097
13367,8.7615,4.5455,0,0.00036967,3694.2,0.00012533,0.015383,0.00011633,-67.606,-0.00037078,-3727.5,0.54174
13368,8.6691,4.5455,0.05,9.8771e-07,9.8703,7.5843e-07,5.6986,6.4142e-12,-6.3655e-06,-7.5845e-07,-5.6987,0.53127
13369,8.6691,4.8182,0,0.0003732,3729.4,0.00012582,0.020158,0.00011864,-53.942,-0.00037409,-3756.1,0.53026
13370,8.7615,4.7273,0,0.00037031,3700.6,0.00012503,0.017619,0.00011741,-57.275,-0.00037126,-3728.9,0.54107
13371,8.6691,4.7273,0.05,9.7142e-07,9.7075,7.4592e-07,5.6045,4.9738e-12,-7.3326e-06,-7.4594e-07,-5.6047,0.53059
13372,8.6691,5,0,0.00037386,3736,0.00012551,0.021937,0.00011975,-43.262,-0.00037458,-3757.5,0.52947
13373,8.7615,4.9091,0,0.00037097,3707.1,0.00012474,0.019593,0.00011849,-46.952,-0.00037175,-3730.4,0.54032
13374,8.6691,4.9091,0.05,9.5509e-07,9.5443,7.3338e-07,5.5103,6.0478e-12,-7.4137e-06,-7.334e-07,-5.5105,0.52984
13375,8.6691,5.1818,0,0.00037453,3742.7,0.00012522,0.023838,0.00012084,-32.946,-0.00037508,-3759,0.5286
13376,8.7615,5.0909,0,0.00037163,3713.7,0.00012446,0.021057,0.00011955,-36.842,-0.00037224,-3732,0.53949
13377,8.6691,5.0909,0.05,9.3939e-07,9.3874,7.2133e-07,5.4197,8.8501e-12,-8.0673e-06,-7.2134e-07,-5.42,0.52901
13378,8.6691,5.3636,0,0.00037519,3749.3,0.00012496,0.024468,0.00012188,-23.144,-0.00037558,-3760.8,0.52765
13379,8.7615,5.2727,0,0.00037229,3720.3,0.0001242,0.023472,0.00012059,-27.111,-0.00037274,-3733.8,0.53859
13380,8.6691,5.2727,0.05,9.2489e-07,9.2425,7.1019e-07,5.336,8.9261e-12,-7.2963e-06,-7.1022e-07,-5.3363,0.5281
13381,8.6691,5.5455,0,0.00037585,3755.9,0.00012472,0.035951,0.00012286,-13.924,-0.00037608,-3762.8,0.52662
13382,8.7615,5.4545,0,0.00037295,3726.9,0.00012396,0.022795,0.00012158,-17.873,-0.00037325,-3735.8,0.5376
13383,8.6691,5.4545,0.05,9.1001e-07,9.0938,6.9876e-07,5.2501,1.0309e-11,-7.3762e-06,-6.9878e-07,-5.2505,0.52711
13384,8.6691,5.7273,0,0.00037656,3763,0.00012452,0.062854,0.00012384,-5.0277,-0.00037664,-3765.5,0.52551
13385,8.7615,5.6364,0,0.00037361,3733.5,0.00012375,0.048891,0.00012253,-9.1394,-0.00037377,-3738.1,0.53653
13386,8.6691,5.6364,0.05,8.6024e-07,8.5965,6.6055e-07,4.963,1.1587e-11,-5.8767e-06,-6.6056e-07,-4.9634,0.52604
13387,8.7615,5.8182,0,0.00037438,3741.2,0.00012362,0.45582,0.00012346,-0.70342,-0.00037438,-3741.3,0.53539
13388,8.6691,5.8182,0.05,2.5095e-07,2.5078,1.927e-07,1.4477,1.916e-12,-8.3684e-05,-1.927e-07,-1.448,0.52489
13389,8.6691,5.9091,0,0.00037691,3766.5,0.00012445,0.75539,0.00012433,-0.12342,-0.0003769,-3766.2,0.52431
13390,8.8538,0.27273,0,0.00037142,3711.7,0.0001228,0.061435,0.00012219,-4.4927,-0.0003715,-3713.9,0.5465
13391,8.9462,0.18182,0,0.00036923,3689.8,0.00012193,0.67987,0.00012178,-0.4404,-0.00036923,-3689.7,0.55652
13392,8.8538,0.18182,0.05,2.4482e-07,2.4465,1.88e-07,1.4127,-3.0659e-12,8.4976e-05,-1.8798e-07,-1.4123,0.54589
13393,8.8538,0.090909,0,0.00037176,3715,0.00012277,1.0021,0.00012262,-0.090514,-0.00037175,-3714.6,0.54532
13394,8.8538,0.45455,0,0.00037071,3704.5,0.00012298,0.032564,0.00012124,-13.103,-0.00037093,-3711,0.5476
13395,8.9462,0.36364,0,0.00036846,3682,0.00012201,0.045505,0.00012088,-8.4372,-0.0003686,-3686.2,0.55765
13396,8.8538,0.36364,0.05,8.6773e-07,8.6713,6.6632e-07,5.0065,-1.1533e-11,9.3426e-06,-6.663e-07,-5.0062,0.54703
13397,8.8538,0.63636,0,0.00037005,3697.9,0.0001232,0.021063,0.00012029,-21.855,-0.00037041,-3708.8,0.54862
13398,8.9462,0.54545,0,0.0003678,3675.4,0.0001222,0.019686,0.00011997,-16.776,-0.00036808,-3683.8,0.55871
13399,8.8538,0.54545,0.05,9.1657e-07,9.1593,7.0382e-07,5.2883,-9.6272e-12,9.1577e-06,-7.0379e-07,-5.288,0.54809
13400,8.8538,0.81818,0,0.00036939,3691.4,0.00012343,0.020377,0.0001193,-31.021,-0.00036991,-3706.8,0.54957
13401,8.9462,0.72727,0,0.00036714,3668.9,0.00012242,0.020296,0.00011903,-25.464,-0.00036757,-3681.6,0.55968
13402,8.8538,0.72727,0.05,9.2902e-07,9.2838,7.1338e-07,5.3601,-9.434e-12,9.5351e-06,-7.1336e-07,-5.3598,0.54907
13403,8.8538,1,0,0.00036873,3684.8,0.00012369,0.01853,0.00011829,-40.544,-0.00036941,-3704.9,0.55043
13404,8.9462,0.90909,0,0.00036649,3662.4,0.00012265,0.017921,0.00011806,-34.499,-0.00036707,-3679.5,0.56058
13405,8.8538,0.90909,0.05,9.4055e-07,9.399,7.2223e-07,5.4266,-9.2111e-12,9.2963e-06,-7.2221e-07,-5.4264,0.54997
13406,8.8538,1.1818,0,0.00036808,3678.3,0.00012395,0.016923,0.00011726,-50.297,-0.00036891,-3703.2,0.55121
13407,8.9462,1.0909,0,0.00036585,3656,0.00012289,0.016574,0.00011706,-43.779,-0.00036657,-3677.6,0.5614
13408,8.8538,1.0909,0.05,9.5297e-07,9.5231,7.3177e-07,5.4983,-8.958e-12,1.0569e-05,-7.3176e-07,-5.498,0.5508
13409,8.8538,1.3636,0,0.00036744,3671.9,0.00012422,0.014973,0.00011622,-60.108,-0.00036843,-3701.6,0.55192
13410,8.9462,1.2727,0,0.00036521,3649.6,0.00012315,0.014824,0.00011607,-53.166,-0.00036609,-3675.9,0.56215
13411,8.8538,1.2727,0.05,9.6589e-07,9.6523,7.4169e-07,5.5729,-8.0603e-12,8.6582e-06,-7.4168e-07,-5.5726,0.55154
13412,8.8538,1.5455,0,0.00036683,3665.7,0.00012449,0.012794,0.00011521,-69.775,-0.00036796,-3700.1,0.55255
13413,8.9462,1.4545,0,0.00036459,3643.4,0.0001234,0.012903,0.00011508,-62.484,-0.00036562,-3674.3,0.56281
13414,8.8538,1.4545,0.05,9.788e-07,9.7813,7.5161e-07,5.6473,-5.2363e-12,8.272e-06,-7.5159e-07,-5.6471,0.55221
13415,8.8538,1.7273,0,0.00036624,3659.9,0.00012476,0.010437,0.00011423,-79.071,-0.00036752,-3698.8,0.55311
13416,8.9462,1.6364,0,0.000364,3637.5,0.00012365,0.010779,0.00011413,-71.532,-0.00036517,-3672.8,0.5634
13417,8.8538,1.6364,0.05,9.9122e-07,9.9053,7.6114e-07,5.7189,-5.3344e-12,6.7419e-06,-7.6113e-07,-5.7188,0.55281
13418,8.8538,1.9091,0,0.0003657,3654.5,0.000125,0.0080235,0.00011332,-87.76,-0.00036711,-3697.6,0.55359
13419,8.9462,1.8182,0,0.00036345,3632,0.00012389,0.0085573,0.00011322,-80.097,-0.00036475,-3671.4,0.56392
13420,8.8538,1.8182,0.05,1.0027e-06,10.02,7.6998e-07,5.7854,-5.298e-12,7.6703e-06,-7.6997e-07,-5.7852,0.55332
13421,8.8538,2.0909,0,0.00036522,3649.6,0.00012523,0.0056801,0.0001125,-95.603,-0.00036675,-3696.5,0.55399
13422,8.9462,2,0,0.00036295,3627,0.0001241,0.0063461,0.0001124,-87.957,-0.00036437,-3670.2,0.56436
13423,8.8538,2,0.05,1.013e-06,10.123,7.7788e-07,5.8447,-5.5371e-12,6.5437e-06,-7.7787e-07,-5.8445,0.55377
13424,8.8538,2.2727,0,0.0003648,3645.5,0.00012542,0.0035399,0.00011179,-102.38,-0.00036643,-3695.6,0.55432
13425,8.9462,2.1818,0,0.00036251,3622.6,0.0001243,0.0042642,0.00011167,-94.896,-0.00036403,-3669.1,0.56473
13426,8.8538,2.1818,0.05,1.0218e-06,10.211,7.8464e-07,5.8955,-3.0461e-12,3.5052e-06,-7.8464e-07,-5.8954,0.55413
13427,8.8538,2.4545,0,0.00036446,3642.1,0.00012558,0.0017286,0.00011122,-107.88,-0.00036618,-3694.9,0.55458
13428,8.9462,2.3636,0,0.00036214,3618.9,0.00012446,0.0024315,0.00011106,-100.72,-0.00036375,-3668.2,0.56502
13429,8.8538,2.3636,0.05,1.029e-06,10.283,7.9016e-07,5.937,-2.3903e-12,4.2158e-06,-7.9015e-07,-5.9369,0.55443
13430,8.8538,2.6364,0,0.00036422,3639.6,0.00012569,0.00035259,0.0001108,-111.93,-0.00036599,-3694.3,0.55476
13431,8.9462,2.5455,0,0.00036186,3616.1,0.00012459,0.00095459,0.00011058,-105.25,-0.00036353,-3667.6,0.56524
13432,8.8538,2.5455,0.05,1.0345e-06,10.337,7.9433e-07,5.9683,-2.7284e-12,2.8627e-06,-7.9433e-07,-5.9683,0.55465
13433,8.8538,2.8182,0,0.00036406,3638.1,0.00012576,-0.00050758,0.00011054,-114.42,-0.00036588,-3694,0.55487
13434,8.9462,2.7273,0,0.00036166,3614.1,0.00012468,-8.1932e-05,0.00011026,-108.34,-0.00036338,-3667.1,0.56538
13435,8.8538,2.7273,0.05,1.0381e-06,10.374,7.9714e-07,5.9894,-1.2656e-12,1.292e-06,-7.9713e-07,-5.9893,0.55479
13436,8.8538,3,0,0.00036401,3637.6,0.00012579,-0.00080037,0.00011045,-115.26,-0.00036584,-3693.9,0.55491
13437,8.9462,2.9091,0,0.00036156,3613.2,0.00012472,-0.00061586,0.00011009,-109.92,-0.00036331,-3666.9,0.56545
13438,8.8538,2.9091,0.05,1.0399e-06,10.392,7.9853e-07,5.9999,-1.6336e-12,1.3916e-06,-7.9854e-07,-5.9999,0.55487
13439,8.8538,3.1818,0,0.00036406,3638.1,0.00012576,-0.00050776,0.00011054,-114.42,-0.00036588,-3694,0.55487
13440,8.9462,3.0909,0,0.00036156,3613.2,0.00012472,-0.00061606,0.00011009,-109.92,-0.00036331,-3666.9,0.56545
13441,8.8538,3.0909,0.05,1.0399e-06,10.392,7.9854e-07,5.9999,-1.8561e-13,5.1072e-07,-7.9854e-07,-5.9999,0.55487
13442,8.8538,3.3636,0,0.00036422,3639.6,0.00012569,0.00035254,0.0001108,-111.93,-0.00036599,-3694.3,0.55476
13443,8.9462,3.2727,0,0.00036166,3614.1,0.00012468,-8.1929e-05,0.00011026,-108.34,-0.00036338,-3667.1,0.56538
13444,8.8538,3.2727,0.05,1.0381e-06,10.374,7.9713e-07,5.9893,3.5745e-13,-2.2354e-06,-7.9714e-07,-5.9894,0.55479
13445,8.8538,3.5455,0,0.00036446,3642.1,0.00012558,0.0017285,0.00011122,-107.88,-0.00036618,-3694.9,0.55458
13446,8.9462,3.4545,0,0.00036186,3616.1,0.00012459,0.00095486,0.00011058,-105.25,-0.00036353,-3667.6,0.56524
13447,8.8538,3.4545,0.05,1.0345e-06,10.337,7.9433e-07,5.9683,1.8082e-12,-2.9531e-06,-7.9434e-07,-5.9683,0.55465
13448,8.8538,3.7273,0,0.0003648,3645.5,0.00012542,0.0035395,0.00011179,-102.38,-0.00036643,-3695.6,0.55432
13449,8.9462,3.6364,0,0.00036214,3618.9,0.00012446,0.0024309,0.00011106,-100.72,-0.00036375,-3668.2,0.56502
13450,8.8538,3.6364,0.05,1.029e-06,10.283,7.9015e-07,5.9369,1.468e-12,-1.3132e-06,-7.9016e-07,-5.9369,0.55443
13451,8.8538,3.9091,0,0.00036522,3649.6,0.00012523,0.0056796,0.0001125,-95.603,-0.00036675,-3696.5,0.55399
13452,8.9462,3.8182,0,0.00036251,3622.6,0.0001243,0.0042638,0.00011167,-94.896,-0.00036403,-3669.1,0.56473
13453,8.8538,3.8182,0.05,1.0218e-06,10.211,7.8464e-07,5.8954,3.0453e-12,-3.758e-06,-7.8464e-07,-5.8955,0.55413
13454,8.8538,4.0909,0,0.0003657,3654.5,0.000125,0.0080232,0.00011332,-87.76,-0.00036711,-3697.6,0.55359
13455,8.9462,4,0,0.00036295,3627,0.0001241,0.0063459,0.0001124,-87.957,-0.00036437,-3670.2,0.56436
13456,8.8538,4,0.05,1.013e-06,10.123,7.7787e-07,5.8446,4.6137e-12,-5.5451e-06,-7.7788e-07,-5.8447,0.55377
13457,8.8538,4.2727,0,0.00036624,3659.9,0.00012476,0.010437,0.00011423,-79.071,-0.00036752,-3698.8,0.55311
13458,8.9462,4.1818,0,0.00036345,3632,0.00012389,0.0085569,0.00011322,-80.097,-0.00036475,-3671.4,0.56392
13459,8.8538,4.1818,0.05,1.0027e-06,10.02,7.6997e-07,5.7852,5.2824e-12,-6.4366e-06,-7.6998e-07,-5.7854,0.55332
13460,8.8538,4.4545,0,0.00036683,3665.7,0.00012449,0.012793,0.00011521,-69.775,-0.00036796,-3700.1,0.55255
13461,8.9462,4.3636,0,0.000364,3637.5,0.00012365,0.010778,0.00011413,-71.532,-0.00036517,-3672.8,0.5634
13462,8.8538,4.3636,0.05,9.9122e-07,9.9053,7.6113e-07,5.7188,5.2841e-12,-6.9105e-06,-7.6114e-07,-5.719,0.55281
13463,8.8538,4.6364,0,0.00036744,3671.9,0.00012422,0.014972,0.00011622,-60.108,-0.00036843,-3701.6,0.55192
13464,8.9462,4.5455,0,0.00036459,3643.4,0.0001234,0.012902,0.00011508,-62.483,-0.00036562,-3674.3,0.56281
13465,8.8538,4.5455,0.05,9.788e-07,9.7813,7.5159e-07,5.6471,6.941e-12,-8.3361e-06,-7.5161e-07,-5.6473,0.55221
13466,8.8538,4.8182,0,0.00036808,3678.3,0.00012395,0.016923,0.00011726,-50.297,-0.00036891,-3703.2,0.55121
13467,8.9462,4.7273,0,0.00036521,3649.6,0.00012315,0.014823,0.00011607,-53.166,-0.00036609,-3675.9,0.56215
13468,8.8538,4.7273,0.05,9.6589e-07,9.6523,7.4168e-07,5.5726,8.0603e-12,-7.6964e-06,-7.4169e-07,-5.5729,0.55154
13469,8.8538,5,0,0.00036873,3684.8,0.00012369,0.018529,0.00011829,-40.544,-0.00036941,-3704.9,0.55043
13470,8.9462,4.9091,0,0.00036585,3656,0.00012289,0.016574,0.00011706,-43.779,-0.00036657,-3677.6,0.5614
13471,8.8538,4.9091,0.05,9.5297e-07,9.5231,7.3175e-07,5.498,8.1265e-12,-7.9478e-06,-7.3177e-07,-5.4983,0.5508
13472,8.8538,5.1818,0,0.00036939,3691.4,0.00012343,0.020376,0.0001193,-31.021,-0.00036991,-3706.8,0.54957
13473,8.9462,5.0909,0,0.00036649,3662.4,0.00012265,0.017919,0.00011806,-34.499,-0.00036707,-3679.5,0.56058
13474,8.8538,5.0909,0.05,9.4055e-07,9.399,7.2222e-07,5.4264,7.366e-12,-7.6455e-06,-7.2223e-07,-5.4266,0.54997
13475,8.8538,5.3636,0,0.00037005,3697.9,0.0001232,0.021062,0.00012029,-21.855,-0.00037041,-3708.8,0.54862
13476,8.9462,5.2727,0,0.00036714,3668.9,0.00012242,0.020295,0.00011903,-25.464,-0.00036757,-3681.6,0.55968
13477,8.8538,5.2727,0.05,9.2902e-07,9.2838,7.1336e-07,5.3598,9.4011e-12,-7.8966e-06,-7.1338e-07,-5.3601,0.54907
13478,8.8538,5.5455,0,0.00037071,3704.5,0.00012298,0.032564,0.00012124,-13.103,-0.00037093,-3711,0.5476
13479,8.9462,5.4545,0,0.0003678,3675.4,0.0001222,0.019685,0.00011997,-16.776,-0.00036808,-3683.8,0.55871
13480,8.8538,5.4545,0.05,9.1657e-07,9.1593,7.038e-07,5.288,9.6645e-12,-6.375e-06,-7.0382e-07,-5.2883,0.54809
13481,8.8538,5.7273,0,0.00037142,3711.7,0.0001228,0.061434,0.00012219,-4.4927,-0.0003715,-3713.9,0.5465
13482,8.9462,5.6364,0,0.00036846,3682,0.00012201,0.045504,0.00012088,-8.4372,-0.0003686,-3686.2,0.55765
13483,8.8538,5.6364,0.05,8.6773e-07,8.6713,6.663e-07,5.0062,1.0823e-11,-5.7245e-06,-6.6631e-07,-5.0065,0.54703
13484,8.9462,5.8182,0,0.00036923,3689.8,0.00012193,0.67988,0.00012178,-0.44039,-0.00036923,-3689.7,0.55652
13485,8.8538,5.8182,0.05,2.4482e-07,2.4465,1.8798e-07,1.4123,1.7603e-12,-7.6435e-05,-1.88e-07,-1.4127,0.54589
13486,8.8538,5.9091,0,0.00037176,3715,0.00012277,1.0021,0.00012262,-0.090514,-0.00037175,-3714.6,0.54532
13487,9.0385,0.27273,0,0.00036626,3660,0.00012106,0.061485,0.00012054,-3.8425,-0.00036632,-3661.9,0.56775
13488,9.1309,0.18182,0,0.00036405,3638,0.00012024,1.0631,0.00012006,-0.26049,-0.00036404,-3637.6,0.5779
13489,9.0385,0.18182,0.05,2.3555e-07,2.3539,1.8089e-07,1.3592,-2.4924e-12,7.5347e-05,-1.8087e-07,-1.3589,0.56714
13490,9.0385,0.090909,0,0.00036657,3663.2,0.00012108,1.305,0.0001209,-0.065155,-0.00036655,-3662.6,0.56658
13491,9.0385,0.45455,0,0.00036554,3652.9,0.00012123,0.029517,0.00011961,-12.125,-0.00036575,-3658.9,0.56884
13492,9.1309,0.36364,0,0.00036328,3630.3,0.00012026,0.042262,0.00011924,-7.6104,-0.00036341,-3634.1,0.57902
13493,9.0385,0.36364,0.05,8.7207e-07,8.7147,6.6966e-07,5.0317,-1.1725e-11,9.7371e-06,-6.6963e-07,-5.0312,0.56827
13494,9.0385,0.63636,0,0.00036489,3646.4,0.00012142,0.018245,0.00011871,-20.401,-0.00036523,-3656.5,0.56985
13495,9.1309,0.54545,0,0.00036263,3623.8,0.00012044,0.017076,0.00011837,-15.535,-0.00036289,-3631.5,0.58007
13496,9.0385,0.54545,0.05,9.2038e-07,9.1975,7.0675e-07,5.3103,-9.7448e-12,9.3161e-06,-7.0673e-07,-5.31,0.56932
13497,9.0385,0.81818,0,0.00036425,3639.9,0.00012163,0.017562,0.00011778,-28.957,-0.00036473,-3654.3,0.57078
13498,9.1309,0.72727,0,0.00036199,3617.4,0.00012063,0.017664,0.00011747,-23.687,-0.00036239,-3629.2,0.58103
13499,9.0385,0.72727,0.05,9.3096e-07,9.3032,7.1487e-07,5.3713,-9.4878e-12,9.1385e-06,-7.1485e-07,-5.371,0.5703
13500,9.0385,1,0,0.00036361,3633.5,0.00012186,0.015808,0.00011683,-37.747,-0.00036423,-3652.3,0.57164
13501,9.1309,0.90909,0,0.00036136,3611.1,0.00012083,0.015387,0.00011656,-32.067,-0.00036189,-3627,0.58192
13502,9.0385,0.90909,0.05,9.4018e-07,9.3954,7.2195e-07,5.4245,-9.4397e-12,8.8151e-06,-7.2194e-07,-5.4243,0.57119
13503,9.0385,1.1818,0,0.00036297,3627.2,0.00012209,0.014367,0.00011587,-46.66,-0.00036375,-3650.3,0.57242
13504,9.1309,1.0909,0,0.00036073,3604.8,0.00012105,0.014167,0.00011564,-40.589,-0.0003614,-3624.9,0.58274
13505,9.0385,1.0909,0.05,9.5005e-07,9.494,7.2953e-07,5.4815,-7.4503e-12,9.4884e-06,-7.2951e-07,-5.4812,0.57201
13506,9.0385,1.3636,0,0.00036236,3621.1,0.00012232,0.012667,0.00011493,-55.551,-0.00036327,-3648.5,0.57312
13507,9.1309,1.2727,0,0.00036012,3598.7,0.00012127,0.012622,0.00011473,-49.133,-0.00036093,-3623,0.58347
13508,9.0385,1.2727,0.05,9.6031e-07,9.5965,7.3741e-07,5.5406,-5.5393e-12,9.0858e-06,-7.3739e-07,-5.5404,0.57275
13509,9.0385,1.5455,0,0.00036177,3615.2,0.00012255,0.010809,0.000114,-64.25,-0.00036282,-3646.9,0.57375
13510,9.1309,1.4545,0,0.00035953,3592.8,0.00012148,0.010973,0.00011382,-57.552,-0.00036047,-3621.2,0.58413
13511,9.0385,1.4545,0.05,9.7056e-07,9.6989,7.4528e-07,5.5998,-7.3217e-12,8.4359e-06,-7.4526e-07,-5.5996,0.57341
13512,9.0385,1.7273,0,0.00036121,3609.6,0.00012278,0.008823,0.00011312,-72.566,-0.00036239,-3645.4,0.5743
13513,9.1309,1.6364,0,0.00035897,3587.2,0.0001217,0.0091728,0.00011296,-65.675,-0.00036004,-3619.6,0.58472
13514,9.0385,1.6364,0.05,9.8044e-07,9.7976,7.5286e-07,5.6567,-5.588e-12,7.4247e-06,-7.5285e-07,-5.6566,0.574
13515,9.0385,1.9091,0,0.0003607,3604.5,0.00012299,0.0068038,0.0001123,-80.3,-0.000362,-3644,0.57477
13516,9.1309,1.8182,0,0.00035845,3582,0.0001219,0.0073086,0.00011214,-73.324,-0.00035964,-3618.1,0.58523
13517,9.0385,1.8182,0.05,9.8961e-07,9.8893,7.5991e-07,5.7097,-5.6742e-12,7.7005e-06,-7.599e-07,-5.7095,0.57451
13518,9.0385,2.0909,0,0.00036024,3599.9,0.00012318,0.0048525,0.00011156,-87.255,-0.00036165,-3642.8,0.57517
13519,9.1309,2,0,0.00035797,3577.3,0.00012209,0.0054633,0.0001114,-80.312,-0.00035927,-3616.7,0.58567
13520,9.0385,2,0.05,9.9784e-07,9.9715,7.6622e-07,5.7571,-3.9976e-12,6.574e-06,-7.6621e-07,-5.7569,0.57495
13521,9.0385,2.2727,0,0.00035985,3596,0.00012334,0.0030761,0.00011093,-93.241,-0.00036135,-3641.7,0.5755
13522,9.1309,2.1818,0,0.00035756,3573.1,0.00012225,0.0037322,0.00011074,-86.46,-0.00035895,-3615.6,0.58603
13523,9.0385,2.1818,0.05,1.0049e-06,10.042,7.7164e-07,5.7979,-3.2732e-12,4.6509e-06,-7.7164e-07,-5.7977,0.57531
13524,9.0385,2.4545,0,0.00035954,3592.9,0.00012347,0.0015758,0.00011042,-98.09,-0.00036111,-3640.9,0.57576
13525,9.1309,2.3636,0,0.00035722,3569.7,0.00012239,0.002212,0.0001102,-91.603,-0.00035869,-3614.6,0.58632
13526,9.0385,2.3636,0.05,1.0107e-06,10.1,7.7607e-07,5.8311,-4.4422e-12,3.8424e-06,-7.7607e-07,-5.831,0.57561
13527,9.0385,2.6364,0,0.00035931,3590.6,0.00012357,0.00043664,0.00011004,-101.66,-0.00036093,-3640.3,0.57594
13528,9.1309,2.5455,0,0.00035695,3567,0.0001225,0.00098978,0.00010977,-95.596,-0.00035848,-3613.9,0.58654
13529,9.0385,2.5455,0.05,1.0151e-06,10.144,7.7944e-07,5.8564,-1.9606e-12,2.6835e-06,-7.7943e-07,-5.8564,0.57582
13530,9.0385,2.8182,0,0.00035916,3589.2,0.00012363,-0.00027469,0.00010981,-103.85,-0.00036082,-3640,0.57605
13531,9.1309,2.7273,0,0.00035677,3565.2,0.00012257,0.00013192,0.00010948,-98.325,-0.00035834,-3613.4,0.58668
13532,9.0385,2.7273,0.05,1.018e-06,10.173,7.817e-07,5.8734,-3.174e-12,2.4653e-06,-7.817e-07,-5.8734,0.57597
13533,9.0385,3,0,0.00035912,3588.7,0.00012365,-0.0005164,0.00010973,-104.58,-0.00036078,-3639.8,0.57608
13534,9.1309,2.9091,0,0.00035668,3564.3,0.00012261,-0.00030986,0.00010934,-99.71,-0.00035827,-3613.1,0.58675
13535,9.0385,2.9091,0.05,1.0195e-06,10.188,7.8284e-07,5.8819,1.5705e-13,1.1735e-06,-7.8283e-07,-5.8819,0.57604
13536,9.0385,3.1818,0,0.00035916,3589.2,0.00012363,-0.00027472,0.00010981,-103.85,-0.00036082,-3640,0.57605
13537,9.1309,3.0909,0,0.00035668,3564.3,0.00012261,-0.0003098,0.00010934,-99.71,-0.00035827,-3613.1,0.58675
13538,9.0385,3.0909,0.05,1.0195e-06,10.188,7.8283e-07,5.8819,-1.5667e-13,-1.1776e-06,-7.8283e-07,-5.8819,0.57604
13539,9.0385,3.3636,0,0.00035931,3590.6,0.00012357,0.00043697,0.00011004,-101.66,-0.00036093,-3640.3,0.57594
13540,9.1309,3.2727,0,0.00035677,3565.2,0.00012257,0.00013195,0.00010948,-98.325,-0.00035834,-3613.4,0.58668
13541,9.0385,3.2727,0.05,1.018e-06,10.173,7.817e-07,5.8734,1.3542e-12,3.6013e-07,-7.817e-07,-5.8734,0.57597
13542,9.0385,3.5455,0,0.00035954,3592.9,0.00012347,0.0015755,0.00011042,-98.09,-0.00036111,-3640.9,0.57576
13543,9.1309,3.4545,0,0.00035695,3567,0.0001225,0.0009894,0.00010977,-95.596,-0.00035848,-3613.9,0.58654
13544,9.0385,3.4545,0.05,1.0151e-06,10.144,7.7943e-07,5.8564,1.0588e-12,-1.7988e-06,-7.7944e-07,-5.8564,0.57582
13545,9.0385,3.7273,0,0.00035985,3596,0.00012334,0.0030756,0.00011093,-93.241,-0.00036135,-3641.7,0.5755
13546,9.1309,3.6364,0,0.00035722,3569.7,0.00012239,0.0022119,0.0001102,-91.603,-0.00035869,-3614.6,0.58632
13547,9.0385,3.6364,0.05,1.0107e-06,10.1,7.7607e-07,5.831,2.6372e-12,-3.0379e-06,-7.7607e-07,-5.8311,0.57561
13548,9.0385,3.9091,0,0.00036024,3599.9,0.00012318,0.0048526,0.00011156,-87.255,-0.00036165,-3642.8,0.57517
13549,9.1309,3.8182,0,0.00035756,3573.1,0.00012225,0.003732,0.00011074,-86.46,-0.00035895,-3615.6,0.58603
13550,9.0385,3.8182,0.05,1.0049e-06,10.042,7.7164e-07,5.7977,2.3558e-12,-3.9278e-06,-7.7164e-07,-5.7979,0.57531
13551,9.0385,4.0909,0,0.0003607,3604.5,0.00012299,0.0068035,0.0001123,-80.3,-0.000362,-3644,0.57477
13552,9.1309,4,0,0.00035797,3577.3,0.00012209,0.0054631,0.0001114,-80.312,-0.00035927,-3616.7,0.58567
13553,9.0385,4,0.05,9.9784e-07,9.9715,7.6621e-07,5.757,3.9976e-12,-3.3835e-06,-7.6622e-07,-5.7571,0.57495
13554,9.0385,4.2727,0,0.00036121,3609.6,0.00012278,0.0088226,0.00011312,-72.566,-0.00036239,-3645.4,0.5743
13555,9.1309,4.1818,0,0.00035845,3582,0.0001219,0.0073079,0.00011214,-73.324,-0.00035964,-3618.1,0.58523
13556,9.0385,4.1818,0.05,9.8961e-07,9.8893,7.599e-07,5.7095,4.7233e-12,-4.7749e-06,-7.5991e-07,-5.7097,0.57451
13557,9.0385,4.4545,0,0.00036177,3615.2,0.00012255,0.010809,0.000114,-64.25,-0.00036282,-3646.9,0.57375
13558,9.1309,4.3636,0,0.00035897,3587.2,0.0001217,0.0091726,0.00011296,-65.675,-0.00036004,-3619.6,0.58472
13559,9.0385,4.3636,0.05,9.8044e-07,9.7976,7.5285e-07,5.6566,5.5288e-12,-4.5829e-06,-7.5286e-07,-5.6567,0.574
13560,9.0385,4.6364,0,0.00036236,3621.1,0.00012232,0.012666,0.00011493,-55.551,-0.00036327,-3648.6,0.57312
13561,9.1309,4.5455,0,0.00035953,3592.8,0.00012148,0.010972,0.00011382,-57.552,-0.00036047,-3621.2,0.58413
13562,9.0385,4.5455,0.05,9.7056e-07,9.6989,7.4526e-07,5.5996,5.4751e-12,-5.1985e-06,-7.4528e-07,-5.5997,0.57341
13563,9.0385,4.8182,0,0.00036297,3627.2,0.00012209,0.014366,0.00011587,-46.66,-0.00036375,-3650.3,0.57242
13564,9.1309,4.7273,0,0.00036012,3598.7,0.00012127,0.012621,0.00011473,-49.133,-0.00036093,-3623,0.58347
13565,9.0385,4.7273,0.05,9.6031e-07,9.5965,7.3739e-07,5.5404,7.2588e-12,-6.2815e-06,-7.3741e-07,-5.5406,0.57275
13566,9.0385,5,0,0.00036361,3633.5,0.00012186,0.015807,0.00011683,-37.747,-0.00036423,-3652.3,0.57164
13567,9.1309,4.9091,0,0.00036073,3604.8,0.00012105,0.014167,0.00011564,-40.589,-0.0003614,-3624.9,0.58274
13568,9.0385,4.9091,0.05,9.5005e-07,9.494,7.2951e-07,5.4812,6.5271e-12,-5.6118e-06,-7.2953e-07,-5.4815,0.57201
13569,9.0385,5.1818,0,0.00036425,3639.9,0.00012163,0.017561,0.00011778,-28.957,-0.00036473,-3654.3,0.57078
13570,9.1309,5.0909,0,0.00036136,3611.1,0.00012083,0.015385,0.00011656,-32.067,-0.00036189,-3627,0.58192
13571,9.0385,5.0909,0.05,9.4018e-07,9.3954,7.2193e-07,5.4243,7.5932e-12,-6.6246e-06,-7.2195e-07,-5.4245,0.57119
13572,9.0385,5.3636,0,0.00036489,3646.4,0.00012142,0.018244,0.00011871,-20.401,-0.00036523,-3656.5,0.56985
13573,9.1309,5.2727,0,0.00036199,3617.4,0.00012063,0.017662,0.00011747,-23.687,-0.00036239,-3629.2,0.58103
13574,9.0385,5.2727,0.05,9.3096e-07,9.3032,7.1485e-07,5.371,8.5943e-12,-6.1095e-06,-7.1487e-07,-5.3713,0.5703
13575,9.0385,5.5455,0,0.00036554,3652.9,0.00012123,0.029516,0.00011961,-12.125,-0.00036575,-3658.9,0.56884
13576,9.1309,5.4545,0,0.00036263,3623.8,0.00012044,0.017075,0.00011837,-15.535,-0.00036289,-3631.5,0.58007
13577,9.0385,5.4545,0.05,9.2038e-07,9.1975,7.0673e-07,5.31,9.7448e-12,-5.0754e-06,-7.0675e-07,-5.3103,0.56932
13578,9.0385,5.7273,0,0.00036626,3660,0.00012106,0.061484,0.00012054,-3.8424,-0.00036632,-3661.9,0.56775
13579,9.1309,5.6364,0,0.00036328,3630.3,0.00012026,0.042261,0.00011924,-7.6104,-0.00036341,-3634.1,0.57902
13580,9.0385,5.6364,0.05,8.7207e-07,8.7147,6.6963e-07,5.0313,1.1834e-11,-4.3814e-06,-6.6966e-07,-5.0316,0.56827
13581,9.1309,5.8182,0,0.00036405,3638,0.00012024,1.0631,0.00012006,-0.26048,-0.00036404,-3637.6,0.5779
13582,9.0385,5.8182,0.05,2.3555e-07,2.3539,1.8087e-07,1.3589,2.8436e-12,-7.1058e-05,-1.8088e-07,-1.3592,0.56714
13583,9.0385,5.9091,0,0.00036657,3663.2,0.00012108,1.305,0.0001209,-0.065155,-0.00036655,-3662.6,0.56658
13584,9.2232,0.27273,0,0.00036107,3608.2,0.00011931,0.063744,0.00011889,-3.1105,-0.00036112,-3609.7,0.58925
13585,9.3156,0.18182,0,0.00035885,3586.1,0.00011856,1.5806,0.00011833,-0.16084,-0.00035883,-3585.4,0.59953
13586,9.2232,0.18182,0.05,2.241e-07,2.2395,1.7209e-07,1.2931,-1.9327e-12,8.6858e-05,-1.7207e-07,-1.2928,0.58865
13587,9.2232,0.090909,0,0.00036136,3611.1,0.00011939,1.6503,0.00011916,-0.046906,-0.00036133,-3610.3,0.58809
13588,9.2232,0.45455,0,0.00036036,3601.2,0.00011947,0.026735,0.000118,-11.036,-0.00036055,-3606.6,0.59033
13589,9.3156,0.36364,0,0.00035809,3578.4,0.0001185,0.039161,0.00011761,-6.6966,-0.0003582,-3581.8,0.60064
13590,9.2232,0.36364,0.05,8.7401e-07,8.7341,6.7114e-07,5.0428,-1.1043e-11,7.5855e-06,-6.7112e-07,-5.0424,0.58977
13591,9.2232,0.63636,0,0.00035973,3594.8,0.00011964,0.015879,0.00011713,-18.836,-0.00036004,-3604.1,0.59133
13592,9.3156,0.54545,0,0.00035745,3572.1,0.00011866,0.014856,0.00011677,-14.198,-0.00035769,-3579.1,0.60167
13593,9.2232,0.54545,0.05,9.2208e-07,9.2144,7.0805e-07,5.3201,-9.8714e-12,8.0398e-06,-7.0803e-07,-5.3198,0.59081
13594,9.2232,0.81818,0,0.0003591,3588.5,0.00011983,0.015245,0.00011626,-26.811,-0.00035955,-3601.8,0.59225
13595,9.3156,0.72727,0,0.00035683,3565.9,0.00011884,0.015456,0.00011593,-21.829,-0.0003572,-3576.7,0.60263
13596,9.2232,0.72727,0.05,9.312e-07,9.3056,7.1506e-07,5.3727,-9.8205e-12,8.2762e-06,-7.1504e-07,-5.3724,0.59177
13597,9.2232,1,0,0.00035848,3582.3,0.00012003,0.013613,0.00011538,-34.922,-0.00035906,-3599.6,0.5931
13598,9.3156,0.90909,0,0.00035622,3559.8,0.00011902,0.013322,0.00011508,-29.597,-0.00035672,-3574.5,0.60351
13599,9.2232,0.90909,0.05,9.3863e-07,9.3799,7.2076e-07,5.4156,-8.7312e-12,9.859e-06,-7.2075e-07,-5.4153,0.59265
13600,9.2232,1.1818,0,0.00035787,3576.3,0.00012023,0.012333,0.00011449,-43.075,-0.00035859,-3597.6,0.59387
13601,9.3156,1.0909,0,0.00035562,3553.8,0.0001192,0.012235,0.00011422,-37.425,-0.00035624,-3572.3,0.60431
13602,9.2232,1.0909,0.05,9.4651e-07,9.4586,7.2681e-07,5.461,-6.8577e-12,8.8949e-06,-7.2679e-07,-5.4608,0.59346
13603,9.2232,1.3636,0,0.00035729,3570.4,0.00012043,0.010856,0.00011362,-51.144,-0.00035813,-3595.7,0.59457
13604,9.3156,1.2727,0,0.00035504,3547.9,0.0001194,0.010881,0.00011338,-45.212,-0.00035578,-3570.3,0.60504
13605,9.2232,1.2727,0.05,9.5468e-07,9.5402,7.3309e-07,5.5082,-7.5914e-12,8.8269e-06,-7.3307e-07,-5.5079,0.5942
13606,9.2232,1.5455,0,0.00035673,3564.8,0.00012063,0.009273,0.00011278,-58.986,-0.00035769,-3593.9,0.59519
13607,9.3156,1.4545,0,0.00035447,3542.3,0.00011958,0.0094672,0.00011255,-52.83,-0.00035534,-3568.4,0.6057
13608,9.2232,1.4545,0.05,9.6285e-07,9.6218,7.3935e-07,5.5553,-6.6653e-12,8.0872e-06,-7.3934e-07,-5.555,0.59485
13609,9.2232,1.7273,0,0.0003562,3559.5,0.00012082,0.0075984,0.00011198,-66.442,-0.00035728,-3592.3,0.59573
13610,9.3156,1.6364,0,0.00035394,3537,0.00011977,0.0079436,0.00011176,-60.138,-0.00035493,-3566.7,0.60628
13611,9.2232,1.6364,0.05,9.7072e-07,9.7005,7.454e-07,5.6007,-5.7961e-12,6.619e-06,-7.4538e-07,-5.6005,0.59544
13612,9.2232,1.9091,0,0.00035572,3554.7,0.000121,0.0059082,0.00011124,-73.343,-0.00035691,-3590.8,0.5962
13613,9.3156,1.8182,0,0.00035345,3532.1,0.00011994,0.0063789,0.00011103,-66.984,-0.00035454,-3565.1,0.60679
13614,9.2232,1.8182,0.05,9.7804e-07,9.7737,7.5102e-07,5.6429,-4.9673e-12,5.7783e-06,-7.5101e-07,-5.6428,0.59595
13615,9.2232,2.0909,0,0.00035529,3550.4,0.00012116,0.0042819,0.00011058,-79.524,-0.00035657,-3589.5,0.5966
13616,9.3156,2,0,0.00035301,3527.7,0.0001201,0.0048384,0.00011036,-73.213,-0.0003542,-3563.7,0.60722
13617,9.2232,2,0.05,9.8462e-07,9.8394,7.5607e-07,5.6808,-5.131e-12,5.3635e-06,-7.5606e-07,-5.6807,0.59638
13618,9.2232,2.2727,0,0.00035492,3546.8,0.0001213,0.0028054,0.00011001,-84.828,-0.00035629,-3588.4,0.59693
13619,9.3156,2.1818,0,0.00035262,3523.8,0.00012024,0.0033986,0.00010977,-78.674,-0.0003539,-3562.5,0.60758
13620,9.2232,2.1818,0.05,9.9029e-07,9.896,7.6042e-07,5.7135,-3.4777e-12,4.2241e-06,-7.6041e-07,-5.7134,0.59674
13621,9.2232,2.4545,0,0.00035463,3543.8,0.00012141,0.0015617,0.00010955,-89.115,-0.00035606,-3587.6,0.59718
13622,9.3156,2.3636,0,0.0003523,3520.6,0.00012036,0.0021366,0.00010928,-83.23,-0.00035365,-3561.5,0.60787
13623,9.2232,2.3636,0.05,9.9492e-07,9.9424,7.6398e-07,5.7403,-2.7457e-12,4.4576e-06,-7.6397e-07,-5.7402,0.59703
13624,9.2232,2.6364,0,0.00035441,3541.7,0.0001215,0.00061939,0.00010922,-92.266,-0.00035589,-3586.9,0.59736
13625,9.3156,2.5455,0,0.00035206,3518.1,0.00012045,0.0011242,0.0001089,-86.76,-0.00035345,-3560.7,0.60808
13626,9.2232,2.5455,0.05,9.9845e-07,9.9777,7.6669e-07,5.7607,-1.1872e-12,3.0328e-06,-7.6669e-07,-5.7605,0.59725
13627,9.2232,2.8182,0,0.00035428,3540.4,0.00012155,3.0199e-05,0.00010901,-94.193,-0.00035579,-3586.5,0.59747
13628,9.3156,2.7273,0,0.00035189,3516.5,0.00012051,0.00041455,0.00010864,-89.169,-0.00035332,-3560.2,0.60823
13629,9.2232,2.7273,0.05,1.0008e-06,10.001,7.6851e-07,5.7743,-1.4298e-12,2.9456e-06,-7.6851e-07,-5.7743,0.59739
13630,9.2232,3,0,0.00035424,3539.9,0.00012156,-0.00017012,0.00010894,-94.841,-0.00035576,-3586.4,0.5975
13631,9.3156,2.9091,0,0.0003518,3515.6,0.00012054,4.8371e-05,0.00010851,-90.391,-0.00035325,-3559.9,0.6083
13632,9.2232,2.9091,0.05,1.002e-06,10.013,7.6943e-07,5.7812,-7.7656e-13,1.0012e-06,-7.6943e-07,-5.7812,0.59746
13633,9.2232,3.1818,0,0.00035428,3540.4,0.00012155,3.032e-05,0.00010901,-94.193,-0.00035579,-3586.5,0.59747
13634,9.3156,3.0909,0,0.0003518,3515.6,0.00012054,4.8878e-05,0.00010851,-90.391,-0.00035325,-3559.9,0.6083
13635,9.2232,3.0909,0.05,1.002e-06,10.013,7.6943e-07,5.7812,7.7621e-13,-4.7556e-08,-7.6943e-07,-5.7812,0.59746
13636,9.2232,3.3636,0,0.00035441,3541.7,0.0001215,0.00061871,0.00010922,-92.266,-0.00035589,-3586.9,0.59736
13637,9.3156,3.2727,0,0.00035189,3516.5,0.00012051,0.00041431,0.00010864,-89.169,-0.00035332,-3560.2,0.60823
13638,9.2232,3.2727,0.05,1.0008e-06,10.001,7.6851e-07,5.7743,1.4264e-12,-1.0414e-06,-7.6851e-07,-5.7743,0.59739
13639,9.2232,3.5455,0,0.00035463,3543.8,0.00012141,0.0015615,0.00010955,-89.115,-0.00035606,-3587.6,0.59718
13640,9.3156,3.4545,0,0.00035206,3518.1,0.00012045,0.0011238,0.0001089,-86.76,-0.00035345,-3560.7,0.60808
13641,9.2232,3.4545,0.05,9.9845e-07,9.9777,7.6669e-07,5.7606,2.802e-13,-9.7119e-07,-7.6669e-07,-5.7606,0.59725
13642,9.2232,3.7273,0,0.00035492,3546.8,0.0001213,0.0028057,0.00011001,-84.828,-0.00035629,-3588.4,0.59693
13643,9.3156,3.6364,0,0.0003523,3520.6,0.00012036,0.0021368,0.00010928,-83.23,-0.00035365,-3561.5,0.60787
13644,9.2232,3.6364,0.05,9.9492e-07,9.9424,7.6397e-07,5.7402,2.7505e-12,-1.5697e-06,-7.6398e-07,-5.7402,0.59703
13645,9.2232,3.9091,0,0.00035529,3550.4,0.00012116,0.0042816,0.00011058,-79.524,-0.00035657,-3589.5,0.5966
13646,9.3156,3.8182,0,0.00035262,3523.8,0.00012024,0.003398,0.00010977,-78.674,-0.0003539,-3562.5,0.60758
13647,9.2232,3.8182,0.05,9.9029e-07,9.896,7.6041e-07,5.7134,2.5185e-12,-1.3324e-06,-7.6042e-07,-5.7135,0.59674
13648,9.2232,4.0909,0,0.00035572,3554.7,0.000121,0.0059076,0.00011124,-73.343,-0.00035691,-3590.8,0.5962
13649,9.3156,4,0,0.00035301,3527.7,0.0001201,0.0048382,0.00011036,-73.213,-0.0003542,-3563.7,0.60722
13650,9.2232,4,0.05,9.8462e-07,9.8394,7.5606e-07,5.6807,4.1973e-12,-3.5649e-06,-7.5607e-07,-5.6808,0.59638
13651,9.2232,4.2727,0,0.0003562,3559.5,0.00012082,0.0075979,0.00011198,-66.442,-0.00035728,-3592.3,0.59573
13652,9.3156,4.1818,0,0.00035345,3532.1,0.00011994,0.0063786,0.00011103,-66.984,-0.00035454,-3565.1,0.60679
13653,9.2232,4.1818,0.05,9.7804e-07,9.7737,7.5101e-07,5.6428,4.1102e-12,-3.1538e-06,-7.5102e-07,-5.6429,0.59595
13654,9.2232,4.4545,0,0.00035673,3564.8,0.00012063,0.0092727,0.00011278,-58.986,-0.00035769,-3593.9,0.59519
13655,9.3156,4.3636,0,0.00035394,3537,0.00011977,0.0079432,0.00011176,-60.138,-0.00035493,-3566.7,0.60628
13656,9.2232,4.3636,0.05,9.7072e-07,9.7005,7.4539e-07,5.6005,5.8189e-12,-3.2954e-06,-7.4539e-07,-5.6007,0.59544
13657,9.2232,4.6364,0,0.00035729,3570.4,0.00012043,0.010856,0.00011362,-51.144,-0.00035813,-3595.7,0.59457
13658,9.3156,4.5455,0,0.00035448,3542.3,0.00011958,0.0094669,0.00011255,-52.83,-0.00035534,-3568.4,0.6057
13659,9.2232,4.5455,0.05,9.6285e-07,9.6218,7.3934e-07,5.5551,5.8235e-12,-5.515e-06,-7.3935e-07,-5.5553,0.59485
13660,9.2232,4.8182,0,0.00035787,3576.3,0.00012023,0.012332,0.00011449,-43.075,-0.00035859,-3597.6,0.59387
13661,9.3156,4.7273,0,0.00035504,3547.9,0.0001194,0.01088,0.00011338,-45.212,-0.00035578,-3570.3,0.60504
13662,9.2232,4.7273,0.05,9.5468e-07,9.5402,7.3307e-07,5.5079,6.6679e-12,-5.3091e-06,-7.3309e-07,-5.5082,0.5942
13663,9.2232,5,0,0.00035848,3582.3,0.00012003,0.013612,0.00011538,-34.922,-0.00035906,-3599.6,0.5931
13664,9.3156,4.9091,0,0.00035562,3553.8,0.0001192,0.012235,0.00011422,-37.425,-0.00035624,-3572.3,0.60431
13665,9.2232,4.9091,0.05,9.4651e-07,9.4586,7.268e-07,5.4608,8.7347e-12,-6.5555e-06,-7.2681e-07,-5.461,0.59346
13666,9.2232,5.1818,0,0.0003591,3588.5,0.00011983,0.015243,0.00011626,-26.811,-0.00035955,-3601.8,0.59225
13667,9.3156,5.0909,0,0.00035622,3559.8,0.00011902,0.013321,0.00011508,-29.597,-0.00035672,-3574.5,0.60351
13668,9.2232,5.0909,0.05,9.3863e-07,9.3799,7.2075e-07,5.4153,8.6752e-12,-5.1641e-06,-7.2076e-07,-5.4156,0.59265
13669,9.2232,5.3636,0,0.00035973,3594.8,0.00011964,0.015878,0.00011713,-18.836,-0.00036004,-3604.1,0.59133
13670,9.3156,5.2727,0,0.00035683,3565.9,0.00011884,0.015455,0.00011593,-21.829,-0.0003572,-3576.7,0.60263
13671,9.2232,5.2727,0.05,9.312e-07,9.3056,7.1504e-07,5.3724,8.8445e-12,-6.0957e-06,-7.1506e-07,-5.3728,0.59177
13672,9.2232,5.5455,0,0.00036036,3601.2,0.00011947,0.026735,0.000118,-11.036,-0.00036055,-3606.6,0.59033
13673,9.3156,5.4545,0,0.00035745,3572.1,0.00011866,0.014856,0.00011677,-14.198,-0.00035769,-3579.2,0.60167
13674,9.2232,5.4545,0.05,9.2208e-07,9.2144,7.0803e-07,5.3198,1.0769e-11,-2.6584e-06,-7.0805e-07,-5.32,0.59081
13675,9.2232,5.7273,0,0.00036107,3608.2,0.00011931,0.063744,0.00011889,-3.1104,-0.00036112,-3609.7,0.58925
13676,9.3156,5.6364,0,0.00035809,3578.4,0.0001185,0.03916,0.00011761,-6.6966,-0.0003582,-3581.8,0.60064
13677,9.2232,5.6364,0.05,8.7401e-07,8.7341,6.7112e-07,5.0424,1.0992e-11,-3.6248e-06,-6.7114e-07,-5.0428,0.58977
13678,9.3156,5.8182,0,0.00035885,3586.1,0.00011856,1.5806,0.00011833,-0.16084,-0.00035883,-3585.4,0.59953
13679,9.2232,5.8182,0.05,2.241e-07,2.2395,1.7207e-07,1.2928,2.1076e-12,-7.4186e-05,-1.7209e-07,-1.2931,0.58865
13680,9.2232,5.9091,0,0.00036136,3611.1,0.00011939,1.6503,0.00011916,-0.046907,-0.00036133,-3610.3,0.58809
13681,9.408,0.27273,0,0.00035587,3556.2,0.00011756,0.070155,0.00011724,-2.3253,-0.00035591,-3557.3,0.61099
13682,9.5003,0.18182,0,0.00035365,3534,0.00011689,2.1797,0.00011659,-0.1065,-0.00035361,-3533,0.6214
13683,9.408,0.18182,0.05,2.1121e-07,2.1106,1.6219e-07,1.2187,-3.4693e-12,7.0077e-05,-1.6217e-07,-1.2184,0.6104
13684,9.408,0.090909,0,0.00035612,3558.8,0.00011769,2.0252,0.00011742,-0.033964,-0.00035609,-3557.8,0.60985
13685,9.408,0.45455,0,0.00035518,3549.3,0.0001177,0.024176,0.00011638,-9.8741,-0.00035535,-3554.3,0.61206
13686,9.5003,0.36364,0,0.0003529,3526.5,0.00011674,0.036221,0.00011598,-5.7258,-0.00035299,-3529.4,0.6225
13687,9.408,0.36364,0.05,8.741e-07,8.735,6.7121e-07,5.0434,-1.109e-11,7.8112e-06,-6.7119e-07,-5.043,0.61151
13688,9.408,0.63636,0,0.00035456,3543.2,0.00011786,0.013872,0.00011557,-17.206,-0.00035485,-3551.7,0.61305
13689,9.5003,0.54545,0,0.00035228,3520.4,0.00011689,0.012948,0.00011518,-12.802,-0.0003525,-3526.7,0.62352
13690,9.408,0.54545,0.05,9.2214e-07,9.215,7.081e-07,5.3205,-9.9977e-12,7.4037e-06,-7.0808e-07,-5.3201,0.61253
13691,9.408,0.81818,0,0.00035395,3537.1,0.00011802,0.013321,0.00011474,-24.629,-0.00035437,-3549.3,0.61397
13692,9.5003,0.72727,0,0.00035168,3514.4,0.00011704,0.013589,0.00011439,-19.933,-0.00035201,-3524.3,0.62447
13693,9.408,0.72727,0.05,9.3014e-07,9.295,7.1424e-07,5.3666,-9.807e-12,8.3003e-06,-7.1422e-07,-5.3663,0.61349
13694,9.408,1,0,0.00035336,3531.2,0.0001182,0.011832,0.00011392,-32.113,-0.0003539,-3547.1,0.6148
13695,9.5003,0.90909,0,0.00035109,3508.5,0.0001172,0.011629,0.00011359,-27.128,-0.00035155,-3522,0.62534
13696,9.408,0.90909,0.05,9.3617e-07,9.3552,7.1887e-07,5.4014,-8.8838e-12,9.2415e-06,-7.1885e-07,-5.4011,0.61436
13697,9.408,1.1818,0,0.00035278,3525.4,0.00011837,0.010709,0.00011311,-39.575,-0.00035344,-3545,0.61557
13698,9.5003,1.0909,0,0.00035052,3502.8,0.00011737,0.010678,0.0001128,-34.322,-0.00035109,-3519.8,0.62614
13699,9.408,1.0909,0.05,9.4249e-07,9.4184,7.2373e-07,5.4379,-8.8151e-12,8.1432e-06,-7.2371e-07,-5.4376,0.61516
13700,9.408,1.3636,0,0.00035222,3519.8,0.00011855,0.0094343,0.00011231,-46.909,-0.000353,-3543,0.61626
13701,9.5003,1.2727,0,0.00034996,3497.2,0.00011753,0.0095012,0.00011202,-41.425,-0.00035065,-3517.7,0.62686
13702,9.408,1.2727,0.05,9.4903e-07,9.4838,7.2875e-07,5.4756,-6.0103e-12,7.9774e-06,-7.2873e-07,-5.4753,0.61589
13703,9.408,1.5455,0,0.00035169,3514.5,0.00011872,0.0080876,0.00011154,-53.992,-0.00035258,-3541.2,0.61687
13704,9.5003,1.4545,0,0.00034943,3491.9,0.0001177,0.0082954,0.00011127,-48.331,-0.00035023,-3515.8,0.62751
13705,9.408,1.4545,0.05,9.5555e-07,9.549,7.3376e-07,5.5132,-6.8176e-12,7.4914e-06,-7.3374e-07,-5.513,0.61654
13706,9.408,1.7273,0,0.0003512,3509.5,0.00011889,0.0066767,0.00011081,-60.689,-0.00035219,-3539.5,0.61741
13707,9.5003,1.6364,0,0.00034893,3486.9,0.00011786,0.0070079,0.00011055,-54.918,-0.00034983,-3514,0.62808
13708,9.408,1.6364,0.05,9.6185e-07,9.6118,7.3859e-07,5.5495,-5.0669e-12,7.4767e-06,-7.3857e-07,-5.5493,0.61712
13709,9.408,1.9091,0,0.00035075,3505,0.00011904,0.005262,0.00011014,-66.862,-0.00035183,-3538,0.61788
13710,9.5003,1.8182,0,0.00034847,3482.3,0.00011801,0.0056965,0.00010988,-61.06,-0.00034947,-3512.4,0.62858
13711,9.408,1.8182,0.05,9.6771e-07,9.6704,7.4308e-07,5.5833,-5.2352e-12,5.9136e-06,-7.4307e-07,-5.5831,0.61762
13712,9.408,2.0909,0,0.00035035,3501,0.00011918,0.0039072,0.00010955,-72.37,-0.00035152,-3536.7,0.61827
13713,9.5003,2,0,0.00034806,3478.2,0.00011814,0.0044109,0.00010928,-66.625,-0.00034914,-3511,0.62901
13714,9.408,2,0.05,9.7298e-07,9.7231,7.4713e-07,5.6137,-3.4819e-12,3.995e-06,-7.4712e-07,-5.6136,0.61805
13715,9.408,2.2727,0,0.00035,3497.6,0.0001193,0.0026806,0.00010904,-77.083,-0.00035125,-3535.5,0.6186
13716,9.5003,2.1818,0,0.0003477,3474.6,0.00011826,0.0032133,0.00010875,-71.489,-0.00034886,-3509.8,0.62937
13717,9.408,2.1818,0.05,9.7752e-07,9.7685,7.5062e-07,5.6399,-2.7529e-12,5.9481e-06,-7.5062e-07,-5.6398,0.61841
13718,9.408,2.4545,0,0.00034973,3494.9,0.00011939,0.0016486,0.00010863,-80.882,-0.00035104,-3534.6,0.61885
13719,9.5003,2.3636,0,0.0003474,3471.6,0.00011836,0.0021664,0.00010831,-75.536,-0.00034863,-3508.8,0.62966
13720,9.408,2.3636,0.05,9.8125e-07,9.8058,7.5348e-07,5.6614,-1.9814e-12,3.7063e-06,-7.5348e-07,-5.6613,0.6187
13721,9.408,2.6364,0,0.00034953,3492.9,0.00011947,0.00086774,0.00010833,-83.67,-0.00035088,-3534,0.61903
13722,9.5003,2.5455,0,0.00034717,3469.3,0.00011844,0.0013272,0.00010797,-78.666,-0.00034844,-3508,0.62987
13723,9.408,2.5455,0.05,9.841e-07,9.8342,7.5567e-07,5.6778,-2.1831e-12,3.2448e-06,-7.5567e-07,-5.6777,0.61892
13724,9.408,2.8182,0,0.00034941,3491.7,0.00011951,0.00038035,0.00010815,-85.373,-0.00035078,-3533.6,0.61913
13725,9.5003,2.7273,0,0.00034702,3467.8,0.00011849,0.00073997,0.00010774,-80.798,-0.00034832,-3507.5,0.63001
13726,9.408,2.7273,0.05,9.8602e-07,9.8533,7.5714e-07,5.6889,-1.4793e-12,1.6209e-06,-7.5713e-07,-5.6888,0.61906
13727,9.408,3,0,0.00034937,3491.3,0.00011952,0.00021474,0.00010808,-85.946,-0.00035075,-3533.5,0.61917
13728,9.5003,2.9091,0,0.00034694,3467,0.00011852,0.00043721,0.00010762,-81.879,-0.00034826,-3507.2,0.63008
13729,9.408,2.9091,0.05,9.8698e-07,9.863,7.5788e-07,5.6944,1.1417e-13,1.811e-06,-7.5788e-07,-5.6944,0.61913
13730,9.408,3.1818,0,0.00034941,3491.7,0.00011951,0.0003805,0.00010815,-85.373,-0.00035078,-3533.6,0.61913
13731,9.5003,3.0909,0,0.00034694,3467,0.00011852,0.00043757,0.00010762,-81.879,-0.00034826,-3507.2,0.63008
13732,9.408,3.0909,0.05,9.8698e-07,9.863,7.5788e-07,5.6944,-1.143e-13,2.0013e-06,-7.5788e-07,-5.6944,0.61913
13733,9.408,3.3636,0,0.00034953,3492.9,0.00011947,0.0008678,0.00010833,-83.67,-0.00035088,-3534,0.61903
13734,9.5003,3.2727,0,0.00034702,3467.8,0.00011849,0.00073988,0.00010774,-80.798,-0.00034832,-3507.5,0.63001
13735,9.408,3.2727,0.05,9.8602e-07,9.8533,7.5714e-07,5.6888,-3.3968e-13,-6.4502e-07,-7.5714e-07,-5.6888,0.61906
13736,9.408,3.5455,0,0.00034973,3494.9,0.00011939,0.0016487,0.00010863,-80.882,-0.00035104,-3534.6,0.61885
13737,9.5003,3.4545,0,0.00034717,3469.3,0.00011844,0.0013276,0.00010797,-78.666,-0.00034844,-3508,0.62987
13738,9.408,3.4545,0.05,9.841e-07,9.8342,7.5567e-07,5.6778,1.2704e-12,-2.7763e-07,-7.5567e-07,-5.6778,0.61892
13739,9.408,3.7273,0,0.00035,3497.6,0.0001193,0.00268,0.00010904,-77.083,-0.00035125,-3535.5,0.6186
13740,9.5003,3.6364,0,0.0003474,3471.6,0.00011836,0.002166,0.00010831,-75.536,-0.00034863,-3508.8,0.62966
13741,9.408,3.6364,0.05,9.8125e-07,9.8058,7.5348e-07,5.6613,1.9805e-12,-1.8609e-06,-7.5348e-07,-5.6614,0.6187
13742,9.408,3.9091,0,0.00035035,3501,0.00011918,0.0039067,0.00010955,-72.37,-0.00035152,-3536.7,0.61827
13743,9.5003,3.8182,0,0.0003477,3474.6,0.00011826,0.0032127,0.00010875,-71.489,-0.00034886,-3509.8,0.62937
13744,9.408,3.8182,0.05,9.7752e-07,9.7685,7.5062e-07,5.6398,4.5486e-12,-1.3078e-06,-7.5062e-07,-5.6399,0.61841
13745,9.408,4.0909,0,0.00035075,3505,0.00011904,0.0052621,0.00011014,-66.862,-0.00035183,-3538,0.61788
13746,9.5003,4,0,0.00034806,3478.2,0.00011814,0.0044105,0.00010928,-66.625,-0.00034914,-3511,0.62901
13747,9.408,4,0.05,9.7298e-07,9.7231,7.4712e-07,5.6136,2.5884e-12,-2.1817e-06,-7.4713e-07,-5.6137,0.61805
13748,9.408,4.2727,0,0.0003512,3509.5,0.00011889,0.0066764,0.00011081,-60.689,-0.00035219,-3539.5,0.61741
13749,9.5003,4.1818,0,0.00034847,3482.3,0.00011801,0.0056958,0.00010988,-61.06,-0.00034947,-3512.4,0.62858
13750,9.408,4.1818,0.05,9.6771e-07,9.6704,7.4308e-07,5.5831,4.291e-12,-4.5818e-06,-7.4308e-07,-5.5833,0.61762
13751,9.408,4.4545,0,0.00035169,3514.5,0.00011872,0.0080872,0.00011154,-53.992,-0.00035258,-3541.2,0.61687
13752,9.5003,4.3636,0,0.00034893,3486.9,0.00011786,0.0070077,0.00011055,-54.918,-0.00034983,-3514,0.62808
13753,9.408,4.3636,0.05,9.6185e-07,9.6118,7.3857e-07,5.5493,5.132e-12,-3.6727e-06,-7.3858e-07,-5.5495,0.61712
13754,9.408,4.6364,0,0.00035222,3519.8,0.00011855,0.0094334,0.00011231,-46.909,-0.000353,-3543,0.61626
13755,9.5003,4.5455,0,0.00034943,3491.9,0.0001177,0.008295,0.00011127,-48.331,-0.00035023,-3515.8,0.62751
13756,9.408,4.5455,0.05,9.5555e-07,9.549,7.3374e-07,5.513,5.9614e-12,-5.2484e-06,-7.3376e-07,-5.5132,0.61654
13757,9.408,4.8182,0,0.00035278,3525.4,0.00011837,0.010708,0.00011311,-39.575,-0.00035344,-3545,0.61557
13758,9.5003,4.7273,0,0.00034996,3497.2,0.00011753,0.0094998,0.00011202,-41.425,-0.00035065,-3517.7,0.62686
13759,9.408,4.7273,0.05,9.4903e-07,9.4838,7.2873e-07,5.4753,7.8268e-12,-4.724e-06,-7.2874e-07,-5.4756,0.61589
13760,9.408,5,0,0.00035336,3531.2,0.0001182,0.011831,0.00011392,-32.113,-0.0003539,-3547.1,0.6148
13761,9.5003,4.9091,0,0.00035052,3502.8,0.00011737,0.010678,0.0001128,-34.322,-0.00035109,-3519.8,0.62614
13762,9.408,4.9091,0.05,9.4249e-07,9.4184,7.2371e-07,5.4376,7.8662e-12,-3.736e-06,-7.2373e-07,-5.4379,0.61516
13763,9.408,5.1818,0,0.00035395,3537.1,0.00011802,0.01332,0.00011474,-24.629,-0.00035437,-3549.3,0.61397
13764,9.5003,5.0909,0,0.00035109,3508.5,0.0001172,0.011627,0.00011359,-27.128,-0.00035155,-3522,0.62534
13765,9.408,5.0909,0.05,9.3617e-07,9.3552,7.1885e-07,5.4011,7.9807e-12,-4.7771e-06,-7.1887e-07,-5.4014,0.61436
13766,9.408,5.3636,0,0.00035456,3543.2,0.00011786,0.013872,0.00011557,-17.206,-0.00035485,-3551.7,0.61305
13767,9.5003,5.2727,0,0.00035168,3514.4,0.00011704,0.013588,0.00011439,-19.933,-0.00035202,-3524.3,0.62447
13768,9.408,5.2727,0.05,9.3014e-07,9.295,7.1422e-07,5.3663,9.9185e-12,-3.5467e-06,-7.1424e-07,-5.3666,0.61349
13769,9.408,5.5455,0,0.00035518,3549.3,0.0001177,0.024176,0.00011638,-9.874,-0.00035535,-3554.3,0.61206
13770,9.5003,5.4545,0,0.00035228,3520.4,0.00011689,0.012948,0.00011518,-12.802,-0.0003525,-3526.7,0.62352
13771,9.408,5.4545,0.05,9.2214e-07,9.215,7.0808e-07,5.3201,1.0086e-11,-4.2344e-06,-7.0809e-07,-5.3204,0.61253
13772,9.408,5.7273,0,0.00035587,3556.2,0.00011756,0.070154,0.00011724,-2.3253,-0.00035591,-3557.3,0.61099
13773,9.5003,5.6364,0,0.0003529,3526.5,0.00011674,0.03622,0.00011598,-5.7258,-0.00035299,-3529.4,0.6225
13774,9.408,5.6364,0.05,8.741e-07,8.735,6.7119e-07,5.043,1.0143e-11,-3.4194e-06,-6.7121e-07,-5.0433,0.61151
13775,9.5003,5.8182,0,0.00035365,3534,0.00011689,2.1797,0.00011659,-0.1065,-0.00035361,-3533,0.6214
13776,9.408,5.8182,0.05,2.1121e-07,2.1106,1.6217e-07,1.2184,2.5487e-12,-7.0172e-05,-1.6219e-07,-1.2187,0.6104
13777,9.408,5.9091,0,0.00035612,3558.8,0.00011769,2.0252,0.00011742,-0.033964,-0.00035609,-3557.8,0.60985
13778,9.5927,0.27273,0,0.00035066,3504.2,0.0001158,0.086803,0.00011559,-1.5145,-0.00035069,-3504.9,0.63298
13779,9.685,0.18182,0,0.00034844,3482,0.00011522,2.8232,0.00011484,-0.074784,-0.00034839,-3480.6,0.64351
13780,9.5927,0.18182,0.05,1.9745e-07,1.9732,1.5163e-07,1.1394,-2.9113e-12,7.0132e-05,-1.5161e-07,-1.1391,0.63239
13781,9.5927,0.090909,0,0.00035088,3506.4,0.000116,2.4191,0.00011567,-0.024741,-0.00035084,-3505.2,0.63185
13782,9.5927,0.45455,0,0.00034999,3497.5,0.00011593,0.021811,0.00011477,-8.67,-0.00035014,-3501.8,0.63404
13783,9.685,0.36364,0,0.0003477,3474.6,0.00011498,0.033466,0.00011435,-4.7225,-0.00034778,-3477,0.6446
13784,9.5927,0.36364,0.05,8.7281e-07,8.7221,6.7022e-07,5.0359,-1.298e-11,6.8763e-06,-6.702e-07,-5.0355,0.63349
13785,9.5927,0.63636,0,0.0003494,3491.6,0.00011607,0.012158,0.000114,-15.545,-0.00034966,-3499.3,0.63502
13786,9.685,0.54545,0,0.00034711,3468.7,0.00011511,0.011289,0.00011359,-11.379,-0.0003473,-3474.4,0.64561
13787,9.5927,0.54545,0.05,9.2095e-07,9.2032,7.0719e-07,5.3136,-1.0121e-11,7.6019e-06,-7.0717e-07,-5.3133,0.6345
13788,9.5927,0.81818,0,0.00034882,3485.8,0.00011622,0.011714,0.00011323,-22.447,-0.00034919,-3496.9,0.63592
13789,9.685,0.72727,0,0.00034653,3462.9,0.00011525,0.011992,0.00011285,-18.031,-0.00034684,-3471.9,0.64655
13790,9.5927,0.72727,0.05,9.2808e-07,9.2744,7.1267e-07,5.3548,-9.0174e-12,8.1323e-06,-7.1264e-07,-5.3544,0.63545
13791,9.5927,1,0,0.00034825,3480.1,0.00011637,0.010381,0.00011247,-29.351,-0.00034874,-3494.7,0.63675
13792,9.685,0.90909,0,0.00034597,3457.3,0.00011539,0.010226,0.0001121,-24.692,-0.00034639,-3469.6,0.64741
13793,9.5927,0.90909,0.05,9.3302e-07,9.3238,7.1645e-07,5.3832,-7.1891e-12,7.1728e-06,-7.1644e-07,-5.383,0.63631
13794,9.5927,1.1818,0,0.0003477,3474.6,0.00011653,0.0094093,0.00011171,-36.185,-0.0003483,-3492.5,0.6375
13795,9.685,1.0909,0,0.00034543,3451.9,0.00011554,0.0094115,0.00011137,-31.305,-0.00034595,-3467.4,0.6482
13796,9.5927,1.0909,0.05,9.3813e-07,9.3748,7.2037e-07,5.4127,-8.032e-12,7.6804e-06,-7.2036e-07,-5.4124,0.63711
13797,9.5927,1.3636,0,0.00034717,3469.3,0.00011668,0.0083164,0.00011098,-42.859,-0.00034788,-3490.5,0.63819
13798,9.685,1.2727,0,0.0003449,3446.6,0.00011568,0.0083993,0.00011065,-37.792,-0.00034553,-3465.4,0.64891
13799,9.5927,1.2727,0.05,9.4338e-07,9.4273,7.2441e-07,5.443,-7.098e-12,7.6282e-06,-7.2439e-07,-5.4427,0.63782
13800,9.5927,1.5455,0,0.00034667,3464.3,0.00011683,0.0071761,0.00011028,-49.268,-0.00034748,-3488.7,0.6388
13801,9.685,1.4545,0,0.0003444,3441.6,0.00011583,0.0073778,0.00010996,-44.061,-0.00034513,-3463.4,0.64955
13802,9.5927,1.4545,0.05,9.4862e-07,9.4796,7.2843e-07,5.4732,-6.2113e-12,8.0105e-06,-7.2842e-07,-5.4729,0.63847
13803,9.5927,1.7273,0,0.00034621,3459.7,0.00011698,0.0059905,0.00010962,-55.298,-0.00034711,-3487,0.63933
13804,9.685,1.6364,0,0.00034393,3436.9,0.00011597,0.0062941,0.00010931,-50.01,-0.00034475,-3461.7,0.65012
13805,9.5927,1.6364,0.05,9.5366e-07,9.5301,7.323e-07,5.5023,-4.3859e-12,6.9147e-06,-7.3229e-07,-5.5021,0.63904
13806,9.5927,1.9091,0,0.00034578,3455.4,0.00011711,0.0048086,0.00010901,-60.832,-0.00034678,-3485.5,0.6398
13807,9.685,1.8182,0,0.0003435,3432.6,0.0001161,0.0051972,0.0001087,-55.532,-0.00034441,-3460.1,0.65062
13808,9.5927,1.8182,0.05,9.5837e-07,9.577,7.3591e-07,5.5294,-4.4626e-12,7.0443e-06,-7.359e-07,-5.5292,0.63954
13809,9.5927,2.0909,0,0.00034541,3451.7,0.00011723,0.0036796,0.00010848,-65.753,-0.00034648,-3484.1,0.64019
13810,9.685,2,0,0.00034311,3428.8,0.00011621,0.0041261,0.00010816,-60.517,-0.0003441,-3458.6,0.65105
13811,9.5927,2,0.05,9.626e-07,9.6193,7.3916e-07,5.5538,-3.6378e-12,5.4568e-06,-7.3915e-07,-5.5536,0.63997
13812,9.5927,2.2727,0,0.00034509,3448.6,0.00011733,0.0026607,0.00010802,-69.951,-0.00034623,-3483,0.64051
13813,9.685,2.1818,0,0.00034278,3425.4,0.00011632,0.0031307,0.00010768,-64.86,-0.00034384,-3457.4,0.6514
13814,9.5927,2.1818,0.05,9.6625e-07,9.6559,7.4197e-07,5.5749,-2.8416e-12,4.1724e-06,-7.4196e-07,-5.5748,0.64032
13815,9.5927,2.4545,0,0.00034484,3446,0.00011741,0.0018055,0.00010765,-73.327,-0.00034603,-3482.1,0.64075
13816,9.685,2.3636,0,0.00034251,3422.7,0.0001164,0.0022631,0.00010729,-68.465,-0.00034362,-3456.4,0.65168
13817,9.5927,2.3636,0.05,9.6926e-07,9.6859,7.4427e-07,5.5922,-1.1841e-12,4.829e-06,-7.4427e-07,-5.5921,0.64061
13818,9.5927,2.6364,0,0.00034466,3444.2,0.00011747,0.001159,0.00010738,-75.801,-0.00034588,-3481.5,0.64093
13819,9.685,2.5455,0,0.00034229,3420.6,0.00011647,0.0015683,0.00010699,-71.246,-0.00034345,-3455.6,0.65189
13820,9.5927,2.5455,0.05,9.7155e-07,9.7088,7.4603e-07,5.6054,-1.3411e-12,3.6184e-06,-7.4603e-07,-5.6053,0.64082
13821,9.5927,2.8182,0,0.00034454,3443.1,0.00011751,0.00075573,0.00010722,-77.311,-0.00034579,-3481.1,0.64104
13822,9.685,2.7273,0,0.00034215,3419.1,0.00011651,0.0010822,0.00010678,-73.14,-0.00034334,-3455.1,0.65204
13823,9.5927,2.7273,0.05,9.731e-07,9.7243,7.4722e-07,5.6143,-1.5289e-12,2.1846e-06,-7.4722e-07,-5.6143,0.64096
13824,9.5927,3,0,0.00034451,3442.7,0.00011752,0.00061872,0.00010716,-77.818,-0.00034576,-3480.9,0.64107
13825,9.685,2.9091,0,0.00034208,3418.4,0.00011654,0.00083233,0.00010667,-74.098,-0.00034328,-3454.9,0.65211
13826,9.5927,2.9091,0.05,9.7388e-07,9.732,7.4782e-07,5.6188,-8.1048e-13,7.4157e-07,-7.4781e-07,-5.6188,0.64103
13827,9.5927,3.1818,0,0.00034454,3443.1,0.00011751,0.00075585,0.00010722,-77.311,-0.00034579,-3481.1,0.64104
13828,9.685,3.0909,0,0.00034208,3418.4,0.00011654,0.00083262,0.00010667,-74.098,-0.00034328,-3454.9,0.65211
13829,9.5927,3.0909,0.05,9.7388e-07,9.732,7.4782e-07,5.6188,-9.8858e-14,2.1021e-07,-7.4782e-07,-5.6188,0.64103
13830,9.5927,3.3636,0,0.00034466,3444.2,0.00011747,0.0011591,0.00010738,-75.801,-0.00034588,-3481.5,0.64093
13831,9.685,3.2727,0,0.00034215,3419.1,0.00011651,0.0010825,0.00010678,-73.14,-0.00034334,-3455.1,0.65204
13832,9.5927,3.2727,0.05,9.731e-07,9.7243,7.4722e-07,5.6143,-2.9237e-13,-3.001e-07,-7.4722e-07,-5.6143,0.64096
13833,9.5927,3.5455,0,0.00034484,3446,0.00011741,0.0018054,0.00010765,-73.327,-0.00034603,-3482.1,0.64075
13834,9.685,3.4545,0,0.00034229,3420.6,0.00011647,0.0015685,0.00010699,-71.246,-0.00034345,-3455.6,0.65189
13835,9.5927,3.4545,0.05,9.7155e-07,9.7088,7.4603e-07,5.6054,1.3369e-12,2.4116e-07,-7.4603e-07,-5.6054,0.64082
13836,9.5927,3.7273,0,0.00034509,3448.6,0.00011733,0.0026603,0.00010802,-69.951,-0.00034623,-3483,0.64051
13837,9.685,3.6364,0,0.00034251,3422.7,0.0001164,0.0022629,0.00010729,-68.465,-0.00034362,-3456.4,0.65168
13838,9.5927,3.6364,0.05,9.6926e-07,9.6859,7.4427e-07,5.5921,2.0825e-12,-1.0173e-06,-7.4427e-07,-5.5922,0.64061
13839,9.5927,3.9091,0,0.00034541,3451.7,0.00011723,0.0036791,0.00010848,-65.753,-0.00034648,-3484.1,0.64019
13840,9.685,3.8182,0,0.00034278,3425.4,0.00011632,0.0031303,0.00010768,-64.86,-0.00034384,-3457.4,0.6514
13841,9.5927,3.8182,0.05,9.6625e-07,9.6559,7.4196e-07,5.5748,3.7477e-12,-2.149e-06,-7.4197e-07,-5.5749,0.64032
13842,9.5927,4.0909,0,0.00034578,3455.4,0.00011711,0.0048075,0.00010901,-60.832,-0.00034678,-3485.5,0.6398
13843,9.685,4,0,0.00034311,3428.8,0.00011621,0.004126,0.00010816,-60.517,-0.0003441,-3458.6,0.65105
13844,9.5927,4,0.05,9.626e-07,9.6193,7.3915e-07,5.5537,2.7367e-12,-2.1805e-06,-7.3916e-07,-5.5538,0.63997
13845,9.5927,4.2727,0,0.00034621,3459.7,0.00011698,0.0059899,0.00010962,-55.298,-0.00034711,-3487,0.63933
13846,9.685,4.1818,0,0.0003435,3432.6,0.0001161,0.0051964,0.0001087,-55.532,-0.00034441,-3460.1,0.65062
13847,9.5927,4.1818,0.05,9.5837e-07,9.577,7.359e-07,5.5292,4.4436e-12,-2.942e-06,-7.3591e-07,-5.5294,0.63954
13848,9.5927,4.4545,0,0.00034667,3464.3,0.00011683,0.0071759,0.00011028,-49.268,-0.00034748,-3488.7,0.6388
13849,9.685,4.3636,0,0.00034393,3436.9,0.00011597,0.0062936,0.00010931,-50.01,-0.00034475,-3461.7,0.65012
13850,9.5927,4.3636,0.05,9.5366e-07,9.5301,7.3229e-07,5.5021,6.1787e-12,-3.3581e-06,-7.323e-07,-5.5023,0.63904
13851,9.5927,4.6364,0,0.00034717,3469.3,0.00011668,0.0083154,0.00011098,-42.859,-0.00034788,-3490.5,0.63819
13852,9.685,4.5455,0,0.0003444,3441.6,0.00011583,0.0073776,0.00010996,-44.061,-0.00034513,-3463.4,0.64955
13853,9.5927,4.5455,0.05,9.4862e-07,9.4796,7.2842e-07,5.473,6.2232e-12,-3.369e-06,-7.2843e-07,-5.4732,0.63847
13854,9.5927,4.8182,0,0.0003477,3474.6,0.00011653,0.0094087,0.00011171,-36.185,-0.0003483,-3492.5,0.6375
13855,9.685,4.7273,0,0.0003449,3446.6,0.00011568,0.0083983,0.00011065,-37.792,-0.00034553,-3465.4,0.64891
13856,9.5927,4.7273,0.05,9.4338e-07,9.4273,7.2439e-07,5.4428,8.021e-12,-3.7374e-06,-7.2441e-07,-5.443,0.63782
13857,9.5927,5,0,0.00034825,3480.1,0.00011637,0.01038,0.00011247,-29.351,-0.00034874,-3494.7,0.63675
13858,9.685,4.9091,0,0.00034543,3451.9,0.00011554,0.0094115,0.00011137,-31.305,-0.00034595,-3467.4,0.6482
13859,9.5927,4.9091,0.05,9.3813e-07,9.3748,7.2036e-07,5.4124,7.1318e-12,-3.4328e-06,-7.2037e-07,-5.4127,0.63711
13860,9.5927,5.1818,0,0.00034882,3485.8,0.00011622,0.011712,0.00011323,-22.447,-0.00034919,-3496.9,0.63592
13861,9.685,5.0909,0,0.00034597,3457.3,0.00011539,0.010224,0.0001121,-24.692,-0.00034639,-3469.6,0.64741
13862,9.5927,5.0909,0.05,9.3302e-07,9.3238,7.1644e-07,5.3829,9.8898e-12,-4.3269e-06,-7.1645e-07,-5.3832,0.63631
13863,9.5927,5.3636,0,0.0003494,3491.6,0.00011607,0.012157,0.000114,-15.545,-0.00034966,-3499.3,0.63502
13864,9.685,5.2727,0,0.00034653,3462.9,0.00011525,0.01199,0.00011285,-18.031,-0.00034684,-3471.9,0.64655
13865,9.5927,5.2727,0.05,9.2808e-07,9.2744,7.1265e-07,5.3545,1.0026e-11,-3.7538e-06,-7.1266e-07,-5.3548,0.63545
13866,9.5927,5.5455,0,0.00034999,3497.5,0.00011593,0.021811,0.00011477,-8.6699,-0.00035014,-3501.8,0.63404
13867,9.685,5.4545,0,0.00034711,3468.7,0.00011511,0.011289,0.00011359,-11.379,-0.0003473,-3474.4,0.64561
13868,9.5927,5.4545,0.05,9.2095e-07,9.2032,7.0717e-07,5.3133,1.0189e-11,-1.9552e-06,-7.0719e-07,-5.3136,0.6345
13869,9.5927,5.7273,0,0.00035066,3504.2,0.0001158,0.086803,0.00011559,-1.5144,-0.00035069,-3504.9,0.63298
13870,9.685,5.6364,0,0.0003477,3474.6,0.00011498,0.033466,0.00011435,-4.7225,-0.00034778,-3477,0.6446
13871,9.5927,5.6364,0.05,8.7281e-07,8.7221,6.702e-07,5.0355,1.2079e-11,-2.1196e-06,-6.7022e-07,-5.0358,0.63349
13872,9.685,5.8182,0,0.00034844,3482,0.00011522,2.8232,0.00011484,-0.074784,-0.00034839,-3480.6,0.64351
13873,9.5927,5.8182,0.05,1.9745e-07,1.9732,1.5161e-07,1.1391,3.3083e-12,-6.6795e-05,-1.5163e-07,-1.1394,0.63239
13874,9.5927,5.9091,0,0.00035088,3506.4,0.000116,2.4192,0.00011567,-0.024741,-0.00035084,-3505.2,0.63185
13875,9.7774,0.27273,0,0.00034547,3452.3,0.00011405,0.14297,0.00011394,-0.72443,-0.00034548,-3452.6,0.65521
13876,9.8697,0.18182,0,0.00034323,3430,0.00011356,3.489,0.00011309,-0.054904,-0.00034318,-3428.3,0.66586
13877,9.7774,0.18182,0.05,1.8328e-07,1.8315,1.4074e-07,1.0576,-4.1261e-12,7.1963e-05,-1.4073e-07,-1.0573,0.65463
13878,9.7774,0.090909,0,0.00034565,3454.1,0.0001143,2.824,0.00011392,-0.018116,-0.0003456,-3452.7,0.65409
13879,9.7774,0.45455,0,0.00034482,3445.8,0.00011416,0.019605,0.00011317,-7.4479,-0.00034494,-3449.5,0.65625
13880,9.8697,0.36364,0,0.00034252,3422.8,0.00011322,0.030961,0.00011272,-3.7059,-0.00034258,-3424.6,0.66694
13881,9.7774,0.36364,0.05,8.7048e-07,8.6988,6.6843e-07,5.0224,-1.0203e-11,6.3764e-06,-6.6841e-07,-5.0221,0.65571
13882,9.7774,0.63636,0,0.00034424,3440.1,0.00011429,0.010669,0.00011244,-13.881,-0.00034448,-3447,0.65722
13883,9.8697,0.54545,0,0.00034195,3417.1,0.00011334,0.009835,0.00011201,-9.9524,-0.00034211,-3422.1,0.66794
13884,9.7774,0.54545,0.05,9.1883e-07,9.1819,7.0556e-07,5.3014,-1.021e-11,6.1731e-06,-7.0553e-07,-5.301,0.65671
13885,9.7774,0.81818,0,0.00034369,3434.5,0.00011442,0.01035,0.00011172,-20.292,-0.00034403,-3444.6,0.65811
13886,9.8697,0.72727,0,0.0003414,3411.6,0.00011346,0.010616,0.00011131,-16.148,-0.00034167,-3419.7,0.66886
13887,9.7774,0.72727,0.05,9.2528e-07,9.2464,7.1051e-07,5.3386,-1.0098e-11,6.8699e-06,-7.1049e-07,-5.3383,0.65764
13888,9.7774,1,0,0.00034315,3429.1,0.00011456,0.0091802,0.00011101,-26.66,-0.00034359,-3442.4,0.65893
13889,9.8697,0.90909,0,0.00034086,3406.3,0.00011359,0.0090571,0.00011062,-22.312,-0.00034124,-3417.4,0.66971
13890,9.7774,0.90909,0.05,9.2936e-07,9.2872,7.1364e-07,5.3621,-9.1221e-12,6.7554e-06,-7.1362e-07,-5.3618,0.6585
13891,9.7774,1.1818,0,0.00034263,3423.9,0.00011469,0.0083535,0.00011031,-32.924,-0.00034317,-3440.2,0.65968
13892,9.8697,1.0909,0,0.00034034,3401.1,0.00011372,0.0083767,0.00010994,-28.393,-0.00034082,-3415.2,0.67049
13893,9.7774,1.0909,0.05,9.3351e-07,9.3286,7.1683e-07,5.386,-7.2397e-12,6.9123e-06,-7.1681e-07,-5.3858,0.65929
13894,9.7774,1.3636,0,0.00034213,3418.9,0.00011483,0.0074249,0.00010964,-39.005,-0.00034277,-3438.2,0.66036
13895,9.8697,1.2727,0,0.00033985,3396.1,0.00011385,0.0075167,0.00010928,-34.322,-0.00034042,-3413.2,0.6712
13896,9.7774,1.2727,0.05,9.3776e-07,9.3711,7.2009e-07,5.4105,-8.1631e-12,6.7147e-06,-7.2008e-07,-5.4103,0.66
13897,9.7774,1.5455,0,0.00034166,3414.2,0.00011496,0.0064652,0.000109,-44.814,-0.0003424,-3436.4,0.66096
13898,9.8697,1.4545,0,0.00033938,3391.4,0.00011397,0.0066584,0.00010864,-40.022,-0.00034004,-3411.3,0.67184
13899,9.7774,1.4545,0.05,9.4198e-07,9.4133,7.2333e-07,5.4349,-6.3305e-12,6.5568e-06,-7.2332e-07,-5.4347,0.66063
13900,9.7774,1.7273,0,0.00034122,3409.9,0.00011508,0.0054721,0.0001084,-50.254,-0.00034205,-3434.7,0.66149
13901,9.8697,1.6364,0,0.00033894,3387,0.00011409,0.0057509,0.00010805,-45.405,-0.00033969,-3409.5,0.6724
13902,9.7774,1.6364,0.05,9.4604e-07,9.4539,7.2645e-07,5.4583,-5.4498e-12,5.5359e-06,-7.2644e-07,-5.4581,0.6612
13903,9.7774,1.9091,0,0.00034083,3405.9,0.0001152,0.0044864,0.00010785,-55.227,-0.00034174,-3433.2,0.66195
13904,9.8697,1.8182,0,0.00033854,3383,0.0001142,0.0048365,0.0001075,-50.381,-0.00033936,-3407.9,0.67289
13905,9.7774,1.8182,0.05,9.4983e-07,9.4918,7.2936e-07,5.4802,-5.503e-12,6.3438e-06,-7.2935e-07,-5.48,0.6617
13906,9.7774,2.0909,0,0.00034048,3402.5,0.0001153,0.0035483,0.00010736,-59.634,-0.00034146,-3431.9,0.66233
13907,9.8697,2,0,0.00033818,3379.4,0.0001143,0.0039466,0.000107,-54.856,-0.00033908,-3406.5,0.67331
13908,9.7774,2,0.05,9.5324e-07,9.5258,7.3197e-07,5.4998,-3.7541e-12,5.0453e-06,-7.3196e-07,-5.4997,0.66212
13909,9.7774,2.2727,0,0.00034019,3399.6,0.00011539,0.0027033,0.00010695,-63.383,-0.00034122,-3430.8,0.66265
13910,9.8697,2.1818,0,0.00033787,3376.3,0.00011439,0.0031209,0.00010657,-58.744,-0.00033883,-3405.3,0.67366
13911,9.7774,2.1818,0.05,9.5619e-07,9.5553,7.3423e-07,5.5168,-2.9543e-12,4.6715e-06,-7.3423e-07,-5.5167,0.66247
13912,9.7774,2.4545,0,0.00033996,3397.2,0.00011546,0.0019951,0.00010662,-66.392,-0.00034104,-3429.9,0.6629
13913,9.8697,2.3636,0,0.00033761,3373.8,0.00011447,0.0024031,0.00010622,-61.963,-0.00033862,-3404.3,0.67394
13914,9.7774,2.3636,0.05,9.5861e-07,9.5795,7.361e-07,5.5308,-3.0724e-12,3.8169e-06,-7.3609e-07,-5.5306,0.66275
13915,9.7774,2.6364,0,0.00033979,3395.5,0.00011551,0.00146,0.00010638,-68.593,-0.0003409,-3429.3,0.66307
13916,9.8697,2.5455,0,0.00033742,3371.8,0.00011452,0.0018287,0.00010595,-64.443,-0.00033847,-3403.6,0.67415
13917,9.7774,2.5455,0.05,9.6046e-07,9.598,7.3752e-07,5.5415,-1.4053e-12,3.1738e-06,-7.3751e-07,-5.5413,0.66296
13918,9.7774,2.8182,0,0.00033968,3394.5,0.00011554,0.0011267,0.00010623,-69.935,-0.00034082,-3428.9,0.66318
13919,9.8697,2.7273,0,0.00033728,3370.5,0.00011456,0.0014269,0.00010576,-66.128,-0.00033836,-3403.1,0.67429
13920,9.7774,2.7273,0.05,9.6171e-07,9.6105,7.3847e-07,5.5487,-1.5647e-12,2.8839e-06,-7.3847e-07,-5.5486,0.6631
13921,9.7774,3,0,0.00033965,3394.1,0.00011555,0.0010139,0.00010618,-70.386,-0.00034079,-3428.8,0.66321
13922,9.8697,2.9091,0,0.00033722,3369.8,0.00011458,0.0012206,0.00010567,-66.981,-0.00033831,-3402.8,0.67436
13923,9.7774,2.9091,0.05,9.6234e-07,9.6168,7.3896e-07,5.5522,-8.2386e-13,6.437e-07,-7.3896e-07,-5.5522,0.66317
13924,9.7774,3.1818,0,0.00033968,3394.5,0.00011554,0.0011272,0.00010623,-69.935,-0.00034082,-3428.9,0.66318
13925,9.8697,3.0909,0,0.00033722,3369.8,0.00011458,0.0012207,0.00010567,-66.981,-0.00033831,-3402.8,0.67436
13926,9.7774,3.0909,0.05,9.6234e-07,9.6168,7.3896e-07,5.5522,-8.5787e-14,1.2619e-06,-7.3896e-07,-5.5522,0.66317
13927,9.7774,3.3636,0,0.00033979,3395.5,0.00011551,0.0014603,0.00010638,-68.593,-0.0003409,-3429.3,0.66307
13928,9.8697,3.2727,0,0.00033728,3370.5,0.00011456,0.001427,0.00010576,-66.128,-0.00033836,-3403.1,0.67429
13929,9.7774,3.2727,0.05,9.6171e-07,9.6105,7.3847e-07,5.5486,6.5386e-13,9.4441e-07,-7.3848e-07,-5.5486,0.6631
13930,9.7774,3.5455,0,0.00033996,3397.2,0.00011546,0.0019953,0.00010662,-66.392,-0.00034104,-3429.9,0.6629
13931,9.8697,3.4545,0,0.00033742,3371.8,0.00011452,0.0018286,0.00010595,-64.443,-0.00033847,-3403.6,0.67415
13932,9.7774,3.4545,0.05,9.6046e-07,9.598,7.3751e-07,5.5413,2.31e-12,-1.2352e-06,-7.3752e-07,-5.5414,0.66296
13933,9.7774,3.7273,0,0.00034019,3399.6,0.00011539,0.0027031,0.00010695,-63.383,-0.00034122,-3430.8,0.66265
13934,9.8697,3.6364,0,0.00033761,3373.8,0.00011447,0.0024031,0.00010622,-61.963,-0.00033862,-3404.3,0.67394
13935,9.7774,3.6364,0.05,9.5861e-07,9.5795,7.3609e-07,5.5307,2.1596e-12,-8.9952e-07,-7.361e-07,-5.5307,0.66275
13936,9.7774,3.9091,0,0.00034048,3402.5,0.0001153,0.0035483,0.00010736,-59.634,-0.00034146,-3431.9,0.66233
13937,9.8697,3.8182,0,0.00033787,3376.3,0.00011439,0.0031209,0.00010657,-58.744,-0.00033883,-3405.3,0.67366
13938,9.7774,3.8182,0.05,9.5619e-07,9.5553,7.3423e-07,5.5167,2.9415e-12,-1.5047e-06,-7.3424e-07,-5.5168,0.66247
13939,9.7774,4.0909,0,0.00034083,3405.9,0.0001152,0.0044865,0.00010785,-55.227,-0.00034174,-3433.2,0.66195
13940,9.8697,4,0,0.00033818,3379.4,0.0001143,0.0039465,0.000107,-54.856,-0.00033908,-3406.5,0.67331
13941,9.7774,4,0.05,9.5324e-07,9.5258,7.3197e-07,5.4997,2.8652e-12,-2.1896e-06,-7.3197e-07,-5.4998,0.66212
13942,9.7774,4.2727,0,0.00034122,3409.9,0.00011508,0.0054715,0.0001084,-50.254,-0.00034205,-3434.7,0.66149
13943,9.8697,4.1818,0,0.00033854,3383,0.0001142,0.0048359,0.0001075,-50.381,-0.00033936,-3407.9,0.67289
13944,9.7774,4.1818,0.05,9.4983e-07,9.4918,7.2935e-07,5.48,3.6688e-12,-3.1654e-06,-7.2936e-07,-5.4802,0.6617
13945,9.7774,4.4545,0,0.00034166,3414.2,0.00011496,0.0064647,0.000109,-44.814,-0.0003424,-3436.4,0.66096
13946,9.8697,4.3636,0,0.00033894,3387,0.00011409,0.0057505,0.00010805,-45.405,-0.00033969,-3409.5,0.6724
13947,9.7774,4.3636,0.05,9.4604e-07,9.4539,7.2644e-07,5.4581,5.4186e-12,-2.7704e-06,-7.2645e-07,-5.4583,0.6612
13948,9.7774,4.6364,0,0.00034213,3418.9,0.00011483,0.0074246,0.00010964,-39.005,-0.00034277,-3438.2,0.66036
13949,9.8697,4.5455,0,0.00033938,3391.4,0.00011397,0.0066579,0.00010864,-40.022,-0.00034004,-3411.3,0.67184
13950,9.7774,4.5455,0.05,9.4198e-07,9.4133,7.2332e-07,5.4347,5.4083e-12,-3.6552e-06,-7.2333e-07,-5.4349,0.66064
13951,9.7774,4.8182,0,0.00034263,3423.9,0.00011469,0.008353,0.00011031,-32.924,-0.00034317,-3440.2,0.65968
13952,9.8697,4.7273,0,0.00033985,3396.1,0.00011385,0.0075159,0.00010928,-34.322,-0.00034042,-3413.2,0.6712
13953,9.7774,4.7273,0.05,9.3776e-07,9.3711,7.2007e-07,5.4103,6.3297e-12,-2.9303e-06,-7.2009e-07,-5.4105,0.66
13954,9.7774,5,0,0.00034315,3429.1,0.00011456,0.0091791,0.00011101,-26.66,-0.00034359,-3442.4,0.65893
13955,9.8697,4.9091,0,0.00034034,3401.1,0.00011372,0.0083763,0.00010994,-28.393,-0.00034082,-3415.2,0.67049
13956,9.7774,4.9091,0.05,9.3351e-07,9.3286,7.1681e-07,5.3858,7.2492e-12,-3.3017e-06,-7.1683e-07,-5.386,0.65929
13957,9.7774,5.1818,0,0.00034369,3434.5,0.00011442,0.010348,0.00011172,-20.292,-0.00034403,-3444.6,0.65811
13958,9.8697,5.0909,0,0.00034086,3406.3,0.00011359,0.0090553,0.00011062,-22.312,-0.00034124,-3417.4,0.66971
13959,9.7774,5.0909,0.05,9.2936e-07,9.2872,7.1363e-07,5.3618,9.1825e-12,-3.7572e-06,-7.1364e-07,-5.3621,0.6585
13960,9.7774,5.3636,0,0.00034424,3440.1,0.00011429,0.010668,0.00011244,-13.881,-0.00034448,-3447,0.65722
13961,9.8697,5.2727,0,0.0003414,3411.6,0.00011346,0.010615,0.00011131,-16.148,-0.00034167,-3419.7,0.66886
13962,9.7774,5.2727,0.05,9.2528e-07,9.2464,7.1049e-07,5.3383,8.3345e-12,-3.5592e-06,-7.1051e-07,-5.3386,0.65764
13963,9.7774,5.5455,0,0.00034482,3445.8,0.00011416,0.019604,0.00011317,-7.4478,-0.00034494,-3449.5,0.65625
13964,9.8697,5.4545,0,0.00034195,3417.1,0.00011334,0.0098347,0.00011201,-9.9523,-0.00034211,-3422.1,0.66794
13965,9.7774,5.4545,0.05,9.1883e-07,9.1819,7.0553e-07,5.301,1.0239e-11,-2.3172e-06,-7.0556e-07,-5.3013,0.65671
13966,9.7774,5.7273,0,0.00034547,3452.3,0.00011405,0.14297,0.00011394,-0.72442,-0.00034548,-3452.6,0.65521
13967,9.8697,5.6364,0,0.00034252,3422.8,0.00011322,0.03096,0.00011272,-3.7059,-0.00034258,-3424.6,0.66694
13968,9.7774,5.6364,0.05,8.7048e-07,8.6988,6.6841e-07,5.0221,1.1217e-11,-1.7537e-06,-6.6843e-07,-5.0224,0.65571
13969,9.8697,5.8182,0,0.00034323,3430,0.00011356,3.489,0.00011309,-0.054904,-0.00034318,-3428.3,0.66586
13970,9.7774,5.8182,0.05,1.8328e-07,1.8315,1.4073e-07,1.0573,4.2087e-12,-6.8639e-05,-1.4074e-07,-1.0576,0.65463
13971,9.7774,5.9091,0,0.00034565,3454.1,0.0001143,2.824,0.00011392,-0.018117,-0.0003456,-3452.7,0.65409
13972,9.9621,0.27273,0,0.00034027,3400.4,0.00011234,0.44775,0.00011225,-0.17773,-0.00034027,-3400.3,0.67767
13973,10.054,0.18182,0,0.00033804,3378.1,0.0001119,4.1629,0.00011134,-0.041672,-0.00033797,-3376,0.68845
13974,9.9621,0.18182,0.05,1.6902e-07,1.689,1.2979e-07,0.97534,-2.7824e-12,8.4545e-05,-1.2978e-07,-0.97499,0.67709
13975,9.9621,0.090909,0,0.00034042,3401.8,0.00011261,3.2332,0.00011218,-0.01331,-0.00034036,-3400.2,0.67656
13976,9.9621,0.45455,0,0.00033965,3394.1,0.00011239,0.017553,0.00011156,-6.2266,-0.00033975,-3397.2,0.6787
13977,10.054,0.36364,0,0.00033734,3371.1,0.00011146,0.028872,0.0001111,-2.6909,-0.00033739,-3372.4,0.68951
13978,9.9621,0.36364,0.05,8.6738e-07,8.6678,6.6605e-07,5.0045,-1.1229e-11,5.5765e-06,-6.6603e-07,-5.0042,0.67816
13979,9.9621,0.63636,0,0.0003391,3388.6,0.00011251,0.0093816,0.00011088,-12.236,-0.0003393,-3394.7,0.67966
13980,10.054,0.54545,0,0.0003368,3365.6,0.00011157,0.0085771,0.00011043,-8.5401,-0.00033694,-3369.9,0.69049
13981,9.9621,0.54545,0.05,9.16e-07,9.1536,7.0338e-07,5.285,-9.3702e-12,6.3205e-06,-7.0336e-07,-5.2847,0.67916
13982,9.9621,0.81818,0,0.00033857,3383.4,0.00011263,0.0091971,0.00011021,-18.185,-0.00033887,-3392.4,0.68054
13983,10.054,0.72727,0,0.00033627,3360.4,0.00011168,0.0094521,0.00010977,-14.305,-0.00033651,-3367.5,0.69141
13984,9.9621,0.72727,0.05,9.2192e-07,9.2129,7.0793e-07,5.3192,-1.0212e-11,6.6728e-06,-7.0791e-07,-5.3189,0.68008
13985,9.9621,1,0,0.00033806,3378.2,0.00011275,0.0081932,0.00010955,-24.06,-0.00033846,-3390.2,0.68135
13986,10.054,0.90909,0,0.00033576,3355.3,0.00011179,0.0081042,0.00010913,-20.006,-0.0003361,-3365.3,0.69225
13987,9.9621,0.90909,0.05,9.2532e-07,9.2468,7.1054e-07,5.3388,-1.0139e-11,7.4542e-06,-7.1052e-07,-5.3385,0.68092
13988,9.9621,1.1818,0,0.00033756,3373.3,0.00011287,0.0075031,0.0001089,-29.804,-0.00033806,-3388.1,0.68209
13989,10.054,1.0909,0,0.00033527,3350.4,0.00011191,0.0075529,0.0001085,-25.599,-0.0003357,-3363.1,0.69302
13990,9.9621,1.0909,0.05,9.2872e-07,9.2808,7.1314e-07,5.3584,-7.4172e-12,7.3971e-06,-7.1314e-07,-5.3581,0.6817
13991,9.9621,1.3636,0,0.0003371,3368.6,0.00011299,0.0067232,0.00010828,-35.351,-0.00033768,-3386.2,0.68276
13992,10.054,1.2727,0,0.00033481,3345.8,0.00011202,0.0068329,0.00010789,-31.023,-0.00033532,-3361.2,0.69372
13993,9.9621,1.2727,0.05,9.3218e-07,9.3154,7.158e-07,5.3783,-7.3849e-12,6.6434e-06,-7.1579e-07,-5.3781,0.6824
13994,9.9621,1.5455,0,0.00033665,3364.2,0.0001131,0.0059212,0.0001077,-40.625,-0.00033733,-3384.4,0.68335
13995,10.054,1.4545,0,0.00033436,3341.3,0.00011213,0.0061191,0.00010731,-36.212,-0.00033497,-3359.3,0.69435
13996,9.9621,1.4545,0.05,9.356e-07,9.3496,7.1843e-07,5.3981,-6.4465e-12,6.3761e-06,-7.1842e-07,-5.3979,0.68303
13997,9.9621,1.7273,0,0.00033625,3360.2,0.00011321,0.0050938,0.00010715,-45.542,-0.000337,-3382.7,0.68388
13998,10.054,1.6364,0,0.00033395,3337.2,0.00011223,0.0053639,0.00010676,-41.092,-0.00033463,-3357.6,0.69491
13999,9.9621,1.6364,0.05,9.3889e-07,9.3824,7.2096e-07,5.4171,-4.6343e-12,6.2279e-06,-7.2095e-07,-5.4169,0.68359
14000,9.9621,1.9091,0,0.00033588,3356.5,0.00011331,0.0042753,0.00010665,-50.021,-0.0003367,-3381.2,0.68433
14001,10.054,1.8182,0,0.00033358,3333.5,0.00011233,0.0046055,0.00010626,-45.585,-0.00033433,-3356,0.69539
14002,9.9621,1.8182,0.05,9.4195e-07,9.413,7.2331e-07,5.4347,-4.6915e-12,5.8612e-06,-7.233e-07,-5.4345,0.68408
14003,9.9621,2.0909,0,0.00033556,3353.3,0.0001134,0.0034972,0.00010621,-53.977,-0.00033645,-3379.9,0.68472
14004,10.054,2,0,0.00033324,3330.1,0.00011242,0.0038688,0.00010582,-49.612,-0.00033406,-3354.7,0.69581
14005,9.9621,2,0.05,9.4471e-07,9.4406,7.2542e-07,5.4506,-4.76e-12,5.191e-06,-7.2541e-07,-5.4504,0.6845
14006,9.9621,2.2727,0,0.00033529,3350.6,0.00011347,0.0027978,0.00010584,-57.334,-0.00033623,-3378.9,0.68503
14007,10.054,2.1818,0,0.00033296,3327.3,0.0001125,0.0031857,0.00010543,-53.101,-0.00033383,-3353.5,0.69616
14008,9.9621,2.1818,0.05,9.4709e-07,9.4644,7.2725e-07,5.4643,-3.9368e-12,4.9841e-06,-7.2724e-07,-5.4642,0.68485
14009,9.9621,2.4545,0,0.00033507,3348.4,0.00011353,0.0022129,0.00010554,-60.023,-0.00033605,-3378,0.68527
14010,10.054,2.3636,0,0.00033272,3324.9,0.00011256,0.0025931,0.00010511,-55.983,-0.00033364,-3352.6,0.69644
14011,9.9621,2.3636,0.05,9.4905e-07,9.4839,7.2876e-07,5.4756,-1.3281e-12,3.6379e-06,-7.2875e-07,-5.4755,0.68513
14012,9.9621,2.6364,0,0.00033491,3346.8,0.00011358,0.0017711,0.00010533,-61.986,-0.00033593,-3377.4,0.68545
14013,10.054,2.5455,0,0.00033254,3323.1,0.00011261,0.0021192,0.00010486,-58.199,-0.00033349,-3351.8,0.69664
14014,9.9621,2.5455,0.05,9.5055e-07,9.4989,7.2991e-07,5.4842,-2.369e-12,3.1807e-06,-7.299e-07,-5.4842,0.68534
14015,9.9621,2.8182,0,0.00033482,3345.9,0.00011361,0.0014958,0.0001052,-63.182,-0.00033585,-3377,0.68555
14016,10.054,2.7273,0,0.00033242,3321.9,0.00011264,0.0017882,0.0001047,-59.704,-0.00033339,-3351.3,0.69678
14017,9.9621,2.7273,0.05,9.5156e-07,9.5091,7.3068e-07,5.4901,-6.8853e-13,2.1277e-06,-7.3068e-07,-5.4901,0.68548
14018,9.9621,3,0,0.00033479,3345.6,0.00011361,0.0014023,0.00010515,-63.584,-0.00033582,-3376.9,0.68559
14019,10.054,2.9091,0,0.00033236,3321.3,0.00011266,0.0016177,0.00010461,-60.464,-0.00033334,-3351.1,0.69685
14020,9.9621,2.9091,0.05,9.5207e-07,9.5142,7.3107e-07,5.493,-8.3464e-13,1.9931e-06,-7.3107e-07,-5.493,0.68555
14021,9.9621,3.1818,0,0.00033482,3345.9,0.00011361,0.0014956,0.0001052,-63.182,-0.00033585,-3377,0.68555
14022,10.054,3.0909,0,0.00033236,3321.3,0.00011266,0.0016174,0.00010461,-60.464,-0.00033334,-3351.1,0.69685
14023,9.9621,3.0909,0.05,9.5207e-07,9.5142,7.3107e-07,5.493,-7.4868e-14,-8.6139e-08,-7.3107e-07,-5.493,0.68555
14024,9.9621,3.3636,0,0.00033491,3346.8,0.00011358,0.0017709,0.00010533,-61.986,-0.00033593,-3377.4,0.68545
14025,10.054,3.2727,0,0.00033242,3321.9,0.00011264,0.0017883,0.0001047,-59.704,-0.00033339,-3351.3,0.69678
14026,9.9621,3.2727,0.05,9.5156e-07,9.5091,7.3068e-07,5.4901,-2.2104e-13,2.4724e-07,-7.3068e-07,-5.4901,0.68548
14027,9.9621,3.5455,0,0.00033507,3348.4,0.00011353,0.0022127,0.00010554,-60.023,-0.00033605,-3378,0.68527
14028,10.054,3.4545,0,0.00033254,3323.1,0.00011261,0.0021191,0.00010486,-58.199,-0.00033349,-3351.8,0.69664
14029,9.9621,3.4545,0.05,9.5055e-07,9.4989,7.299e-07,5.4842,1.4537e-12,-3.2402e-07,-7.2991e-07,-5.4842,0.68534
14030,9.9621,3.7273,0,0.00033529,3350.6,0.00011347,0.0027981,0.00010584,-57.334,-0.00033623,-3378.9,0.68503
14031,10.054,3.6364,0,0.00033272,3324.9,0.00011256,0.0025928,0.00010511,-55.983,-0.00033364,-3352.6,0.69644
14032,9.9621,3.6364,0.05,9.4905e-07,9.4839,7.2875e-07,5.4755,2.2374e-12,-8.7636e-07,-7.2875e-07,-5.4756,0.68513
14033,9.9621,3.9091,0,0.00033556,3353.3,0.0001134,0.0034971,0.00010621,-53.977,-0.00033645,-3379.9,0.68472
14034,10.054,3.8182,0,0.00033296,3327.3,0.0001125,0.0031859,0.00010543,-53.101,-0.00033383,-3353.5,0.69616
14035,9.9621,3.8182,0.05,9.4709e-07,9.4644,7.2724e-07,5.4642,3.0329e-12,-7.9769e-07,-7.2725e-07,-5.4643,0.68485
14036,9.9621,4.0909,0,0.00033588,3356.5,0.00011331,0.0042744,0.00010665,-50.021,-0.0003367,-3381.2,0.68433
14037,10.054,4,0,0.00033324,3330.1,0.00011242,0.0038684,0.00010582,-49.612,-0.00033406,-3354.7,0.69581
14038,9.9621,4,0.05,9.4471e-07,9.4406,7.2541e-07,5.4504,3.8337e-12,-1.4449e-06,-7.2542e-07,-5.4506,0.6845
14039,9.9621,4.2727,0,0.00033625,3360.2,0.00011321,0.0050934,0.00010715,-45.542,-0.000337,-3382.7,0.68388
14040,10.054,4.1818,0,0.00033358,3333.5,0.00011233,0.0046048,0.00010626,-45.584,-0.00033433,-3356,0.69539
14041,9.9621,4.1818,0.05,9.4195e-07,9.413,7.233e-07,5.4345,5.5896e-12,-2.6004e-06,-7.2331e-07,-5.4347,0.68408
14042,9.9621,4.4545,0,0.00033665,3364.2,0.0001131,0.0059208,0.0001077,-40.625,-0.00033733,-3384.4,0.68335
14043,10.054,4.3636,0,0.00033395,3337.2,0.00011223,0.0053641,0.00010676,-41.092,-0.00033463,-3357.6,0.69491
14044,9.9621,4.3636,0.05,9.3889e-07,9.3824,7.2095e-07,5.4169,5.5579e-12,-1.9377e-06,-7.2096e-07,-5.417,0.68359
14045,9.9621,4.6364,0,0.0003371,3368.6,0.00011299,0.0067223,0.00010828,-35.351,-0.00033768,-3386.2,0.68276
14046,10.054,4.5455,0,0.00033436,3341.3,0.00011213,0.0061183,0.00010731,-36.212,-0.00033497,-3359.3,0.69435
14047,9.9621,4.5455,0.05,9.356e-07,9.3496,7.1842e-07,5.3979,5.5636e-12,-3.6442e-06,-7.1843e-07,-5.3981,0.68303
14048,9.9621,4.8182,0,0.00033756,3373.3,0.00011287,0.0075024,0.0001089,-29.804,-0.00033806,-3388.1,0.68209
14049,10.054,4.7273,0,0.00033481,3345.8,0.00011202,0.0068322,0.00010789,-31.023,-0.00033532,-3361.2,0.69372
14050,9.9621,4.7273,0.05,9.3218e-07,9.3154,7.1579e-07,5.3781,6.4631e-12,-2.853e-06,-7.158e-07,-5.3783,0.6824
14051,9.9621,5,0,0.00033806,3378.2,0.00011275,0.008192,0.00010955,-24.059,-0.00033846,-3390.2,0.68135
14052,10.054,4.9091,0,0.00033527,3350.4,0.00011191,0.0075523,0.0001085,-25.599,-0.0003357,-3363.1,0.69302
14053,9.9621,4.9091,0.05,9.2872e-07,9.2808,7.1314e-07,5.3581,7.4172e-12,-2.6606e-06,-7.1315e-07,-5.3584,0.6817
14054,9.9621,5.1818,0,0.00033857,3383.4,0.00011263,0.0091954,0.00011021,-18.185,-0.00033887,-3392.4,0.68054
14055,10.054,5.0909,0,0.00033576,3355.3,0.00011179,0.0081026,0.00010913,-20.006,-0.0003361,-3365.3,0.69225
14056,9.9621,5.0909,0.05,9.2532e-07,9.2468,7.1052e-07,5.3385,6.5687e-12,-3.6654e-06,-7.1054e-07,-5.3388,0.68092
14057,9.9621,5.3636,0,0.0003391,3388.6,0.00011251,0.0093806,0.00011088,-12.236,-0.0003393,-3394.7,0.67966
14058,10.054,5.2727,0,0.00033627,3360.4,0.00011168,0.0094507,0.00010977,-14.305,-0.00033651,-3367.5,0.69141
14059,9.9621,5.2727,0.05,9.2192e-07,9.2129,7.0791e-07,5.3189,1.0237e-11,-2.6469e-06,-7.0793e-07,-5.3192,0.68008
14060,9.9621,5.5455,0,0.00033965,3394.1,0.00011239,0.017552,0.00011156,-6.2265,-0.00033975,-3397.2,0.6787
14061,10.054,5.4545,0,0.0003368,3365.6,0.00011157,0.0085764,0.00011043,-8.5401,-0.00033694,-3369.9,0.69049
14062,9.9621,5.4545,0.05,9.16e-07,9.1536,7.0336e-07,5.2847,1.0334e-11,-1.6308e-06,-7.0338e-07,-5.285,0.67916
14063,9.9621,5.7273,0,0.00034027,3400.4,0.00011234,0.44776,0.00011225,-0.17773,-0.00034027,-3400.3,0.67767
14064,10.054,5.6364,0,0.00033734,3371.1,0.00011146,0.028872,0.0001111,-2.6909,-0.00033739,-3372.4,0.68951
14065,9.9621,5.6364,0.05,8.6738e-07,8.6678,6.6603e-07,5.0042,1.2207e-11,-1.7085e-06,-6.6605e-07,-5.0045,0.67816
14066,10.054,5.8182,0,0.00033804,3378.1,0.0001119,4.1629,0.00011134,-0.041673,-0.00033797,-3376,0.68845
14067,9.9621,5.8182,0.05,1.6902e-07,1.689,1.2978e-07,0.97501,2.6075e-12,-6.547e-05,-1.2979e-07,-0.97531,0.67709
14068,9.9621,5.9091,0,0.00034042,3401.8,0.00011261,3.2332,0.00011218,-0.01331,-0.00034036,-3400.2,0.67656
14069,10.147,0.27273,0,0.00033509,3348.6,0.00011068,1.1673,0.00011052,-0.05084,-0.00033508,-3348.1,0.70036
14070,10.239,0.18182,0,0.00033286,3326.3,0.00011025,4.8354,0.0001096,-0.032458,-0.00033277,-3323.9,0.71126
14071,10.147,0.18182,0.05,1.5493e-07,1.5482,1.1898e-07,0.89402,-2.9188e-12,7.3438e-05,-1.1896e-07,-0.89373,0.69979
14072,10.147,0.090909,0,0.0003352,3349.7,0.00011092,3.6421,0.00011043,-0.0097673,-0.00033513,-3347.8,0.69927
14073,10.147,0.45455,0,0.00033449,3342.6,0.00011063,0.015679,0.00010996,-5.0205,-0.00033457,-3345.1,0.70138
14074,10.239,0.36364,0,0.00033218,3319.5,0.0001097,0.027648,0.00010948,-1.6894,-0.00033221,-3320.3,0.71231
14075,10.147,0.36364,0.05,8.6373e-07,8.6313,6.6325e-07,4.9835,-1.0433e-11,4.9318e-06,-6.6323e-07,-4.9831,0.70085
14076,10.147,0.63636,0,0.00033397,3337.4,0.00011074,0.008303,0.00010932,-10.626,-0.00033414,-3342.6,0.70232
14077,10.239,0.54545,0,0.00033166,3314.3,0.0001098,0.0074828,0.00010885,-7.1564,-0.00033178,-3317.8,0.71328
14078,10.147,0.54545,0.05,9.1265e-07,9.1202,7.0081e-07,5.2657,-1.0408e-11,5.4077e-06,-7.0079e-07,-5.2654,0.70183
14079,10.147,0.81818,0,0.00033346,3332.3,0.00011084,0.0082598,0.00010869,-16.142,-0.00033373,-3340.4,0.7032
14080,10.239,0.72727,0,0.00033116,3309.3,0.0001099,0.0084649,0.00010824,-12.514,-0.00033137,-3315.5,0.71419
14081,10.147,0.72727,0.05,9.1816e-07,9.1753,7.0504e-07,5.2975,-1.0356e-11,6.1751e-06,-7.0502e-07,-5.2972,0.70274
14082,10.147,1,0,0.00033298,3327.5,0.00011095,0.0074191,0.00010808,-21.561,-0.00033334,-3338.2,0.704
14083,10.239,0.90909,0,0.00033068,3304.5,0.00011,0.0073276,0.00010764,-17.786,-0.00033098,-3313.3,0.71502
14084,10.147,0.90909,0.05,9.2103e-07,9.2039,7.0724e-07,5.314,-8.4117e-12,5.4553e-06,-7.0723e-07,-5.3138,0.70358
14085,10.147,1.1818,0,0.00033251,3322.8,0.00011106,0.0068563,0.00010748,-26.832,-0.00033296,-3336.2,0.70473
14086,10.239,1.0909,0,0.00033022,3299.9,0.00011011,0.0068971,0.00010705,-22.931,-0.0003306,-3311.3,0.71578
14087,10.147,1.0909,0.05,9.2383e-07,9.2319,7.094e-07,5.3302,-7.5045e-12,5.7261e-06,-7.0938e-07,-5.3299,0.70434
14088,10.147,1.3636,0,0.00033207,3318.4,0.00011116,0.0062097,0.00010691,-31.898,-0.0003326,-3334.3,0.70539
14089,10.239,1.2727,0,0.00032978,3295.5,0.00011021,0.0063047,0.00010649,-27.898,-0.00033024,-3309.3,0.71647
14090,10.147,1.2727,0.05,9.2667e-07,9.2603,7.1157e-07,5.3465,-6.5395e-12,5.5597e-06,-7.1156e-07,-5.3463,0.70504
14091,10.147,1.5455,0,0.00033166,3314.3,0.00011126,0.0055455,0.00010638,-36.692,-0.00033227,-3332.5,0.70598
14092,10.239,1.4545,0,0.00032936,3291.3,0.0001103,0.0057182,0.00010596,-32.628,-0.0003299,-3307.5,0.71709
14093,10.147,1.4545,0.05,9.2946e-07,9.2882,7.1372e-07,5.3626,-6.5686e-12,5.5435e-06,-7.1371e-07,-5.3624,0.70566
14094,10.147,1.7273,0,0.00033128,3310.5,0.00011135,0.0048601,0.00010588,-41.146,-0.00033196,-3330.9,0.7065
14095,10.239,1.6364,0,0.00032898,3287.5,0.00011039,0.0050952,0.00010546,-37.059,-0.00032959,-3305.9,0.71764
14096,10.147,1.6364,0.05,9.3214e-07,9.3149,7.1577e-07,5.3781,-4.7659e-12,5.0044e-06,-7.1576e-07,-5.3779,0.70622
14097,10.147,1.9091,0,0.00033094,3307.1,0.00011144,0.0041833,0.00010543,-45.188,-0.00033169,-3329.5,0.70695
14098,10.239,1.8182,0,0.00032863,3284,0.00011048,0.0044695,0.000105,-41.123,-0.00032931,-3304.4,0.71813
14099,10.147,1.8182,0.05,9.3462e-07,9.3398,7.1768e-07,5.3924,-3.8993e-12,5.1261e-06,-7.1767e-07,-5.3922,0.7067
14100,10.147,2.0909,0,0.00033064,3304.1,0.00011152,0.003541,0.00010503,-48.748,-0.00033144,-3328.2,0.70733
14101,10.239,2,0,0.00032832,3280.9,0.00011055,0.003862,0.0001046,-44.756,-0.00032906,-3303.1,0.71854
14102,10.147,2,0.05,9.3686e-07,9.3621,7.194e-07,5.4053,-3.945e-12,4.4598e-06,-7.1939e-07,-5.4052,0.70712
14103,10.147,2.2727,0,0.00033039,3301.6,0.00011158,0.0029638,0.00010469,-51.761,-0.00033124,-3327.2,0.70764
14104,10.239,2.1818,0,0.00032805,3278.2,0.00011062,0.0032998,0.00010425,-47.894,-0.00032884,-3301.9,0.71888
14105,10.147,2.1818,0.05,9.3879e-07,9.3815,7.2088e-07,5.4164,-3.1043e-12,3.9826e-06,-7.2087e-07,-5.4163,0.70746
14106,10.147,2.4545,0,0.00033019,3299.6,0.00011163,0.0024813,0.00010442,-54.17,-0.00033108,-3326.4,0.70788
14107,10.239,2.3636,0,0.00032783,3276.1,0.00011068,0.0028114,0.00010396,-50.481,-0.00032866,-3301,0.71915
14108,10.147,2.3636,0.05,9.4039e-07,9.3974,7.221e-07,5.4256,-2.2998e-12,3.2368e-06,-7.221e-07,-5.4255,0.70774
14109,10.147,2.6364,0,0.00033004,3298.2,0.00011167,0.0021176,0.00010423,-55.927,-0.00033096,-3325.8,0.70805
14110,10.239,2.5455,0,0.00032767,3274.4,0.00011072,0.0024217,0.00010374,-52.467,-0.00032853,-3300.3,0.71936
14111,10.147,2.5455,0.05,9.416e-07,9.4095,7.2304e-07,5.4326,-2.4097e-12,3.2775e-06,-7.2303e-07,-5.4326,0.70794
14112,10.147,2.8182,0,0.00032996,3297.3,0.0001117,0.001891,0.00010411,-56.996,-0.00033089,-3325.4,0.70815
14113,10.239,2.7273,0,0.00032755,3273.3,0.00011075,0.0021497,0.00010358,-53.814,-0.00032843,-3299.8,0.7195
14114,10.147,2.7273,0.05,9.4243e-07,9.4178,7.2367e-07,5.4374,-7.1699e-13,2.4097e-06,-7.2367e-07,-5.4373,0.70808
14115,10.147,3,0,0.00032993,3297,0.0001117,0.0018136,0.00010407,-57.354,-0.00033086,-3325.3,0.70819
14116,10.239,2.9091,0,0.0003275,3272.7,0.00011076,0.0020094,0.00010351,-54.494,-0.00032839,-3299.6,0.71957
14117,10.147,2.9091,0.05,9.4284e-07,9.4219,7.2399e-07,5.4397,-8.4418e-13,2.3971e-06,-7.2398e-07,-5.4397,0.70815
14118,10.147,3.1818,0,0.00032996,3297.3,0.0001117,0.001891,0.00010411,-56.996,-0.00033089,-3325.4,0.70815
14119,10.239,3.0909,0,0.0003275,3272.7,0.00011076,0.0020089,0.00010351,-54.494,-0.00032839,-3299.6,0.71957
14120,10.147,3.0909,0.05,9.4284e-07,9.4219,7.2398e-07,5.4397,-6.5413e-14,-1.4202e-08,-7.2398e-07,-5.4397,0.70815
14121,10.147,3.3636,0,0.00033004,3298.2,0.00011167,0.0021178,0.00010423,-55.927,-0.00033096,-3325.8,0.70805
14122,10.239,3.2727,0,0.00032755,3273.3,0.00011075,0.0021495,0.00010358,-53.814,-0.00032843,-3299.8,0.7195
14123,10.147,3.2727,0.05,9.4243e-07,9.4178,7.2367e-07,5.4373,7.1565e-13,4.3944e-07,-7.2367e-07,-5.4374,0.70808
14124,10.147,3.5455,0,0.00033019,3299.6,0.00011163,0.0024812,0.00010442,-54.17,-0.00033108,-3326.4,0.70788
14125,10.239,3.4545,0,0.00032767,3274.4,0.00011072,0.0024219,0.00010374,-52.467,-0.00032853,-3300.3,0.71936
14126,10.147,3.4545,0.05,9.416e-07,9.4095,7.2303e-07,5.4326,2.4107e-12,-4.5513e-07,-7.2304e-07,-5.4326,0.70794
14127,10.147,3.7273,0,0.00033039,3301.6,0.00011158,0.0029635,0.00010469,-51.761,-0.00033124,-3327.2,0.70764
14128,10.239,3.6364,0,0.00032783,3276.1,0.00011068,0.0028111,0.00010396,-50.481,-0.00032866,-3301,0.71915
14129,10.147,3.6364,0.05,9.4039e-07,9.3974,7.221e-07,5.4255,2.2923e-12,-1.3276e-06,-7.221e-07,-5.4256,0.70774
14130,10.147,3.9091,0,0.00033064,3304.1,0.00011152,0.0035408,0.00010503,-48.748,-0.00033144,-3328.2,0.70733
14131,10.239,3.8182,0,0.00032805,3278.2,0.00011062,0.0032994,0.00010425,-47.894,-0.00032884,-3301.9,0.71888
14132,10.147,3.8182,0.05,9.3879e-07,9.3815,7.2087e-07,5.4163,3.0993e-12,-1.6448e-06,-7.2088e-07,-5.4164,0.70746
14133,10.147,4.0909,0,0.00033094,3307.1,0.00011144,0.0041831,0.00010543,-45.188,-0.00033169,-3329.5,0.70695
14134,10.239,4,0,0.00032832,3280.9,0.00011055,0.0038621,0.0001046,-44.756,-0.00032906,-3303.1,0.71854
14135,10.147,4,0.05,9.3686e-07,9.3621,7.1939e-07,5.4052,3.9333e-12,-2.2297e-06,-7.194e-07,-5.4053,0.70712
14136,10.147,4.2727,0,0.00033128,3310.5,0.00011135,0.00486,0.00010588,-41.146,-0.00033196,-3330.9,0.7065
14137,10.239,4.1818,0,0.00032863,3284,0.00011048,0.0044688,0.000105,-41.123,-0.00032931,-3304.4,0.71813
14138,10.147,4.1818,0.05,9.3462e-07,9.3398,7.1767e-07,5.3923,2.9797e-12,-3.1212e-06,-7.1768e-07,-5.3924,0.7067
14139,10.147,4.4545,0,0.00033166,3314.3,0.00011126,0.0055455,0.00010638,-36.692,-0.00033227,-3332.5,0.70598
14140,10.239,4.3636,0,0.00032898,3287.5,0.00011039,0.005095,0.00010546,-37.059,-0.00032959,-3305.9,0.71764
14141,10.147,4.3636,0.05,9.3214e-07,9.3149,7.1576e-07,5.3779,4.7369e-12,-1.4457e-06,-7.1577e-07,-5.378,0.70622
14142,10.147,4.6364,0,0.00033207,3318.4,0.00011116,0.0062092,0.00010691,-31.898,-0.0003326,-3334.3,0.70539
14143,10.239,4.5455,0,0.00032936,3291.3,0.0001103,0.0057174,0.00010596,-32.628,-0.0003299,-3307.5,0.71709
14144,10.147,4.5455,0.05,9.2946e-07,9.2882,7.137e-07,5.3625,6.5377e-12,-3.0282e-06,-7.1372e-07,-5.3626,0.70566
14145,10.147,4.8182,0,0.00033251,3322.8,0.00011106,0.0068557,0.00010748,-26.832,-0.00033296,-3336.2,0.70473
14146,10.239,4.7273,0,0.00032978,3295.5,0.00011021,0.0063043,0.00010649,-27.898,-0.00033024,-3309.3,0.71647
14147,10.147,4.7273,0.05,9.2667e-07,9.2603,7.1156e-07,5.3463,7.4306e-12,-2.1993e-06,-7.1157e-07,-5.3465,0.70504
14148,10.147,5,0,0.00033298,3327.5,0.00011095,0.007418,0.00010808,-21.561,-0.00033334,-3338.2,0.704
14149,10.239,4.9091,0,0.00033022,3299.9,0.00011011,0.0068966,0.00010705,-22.931,-0.0003306,-3311.3,0.71578
14150,10.147,4.9091,0.05,9.2383e-07,9.2319,7.0938e-07,5.33,6.5666e-12,-2.2169e-06,-7.094e-07,-5.3302,0.70434
14151,10.147,5.1818,0,0.00033346,3332.3,0.00011084,0.0082585,0.00010869,-16.142,-0.00033373,-3340.4,0.7032
14152,10.239,5.0909,0,0.00033068,3304.5,0.00011,0.0073261,0.00010764,-17.786,-0.00033098,-3313.3,0.71502
14153,10.147,5.0909,0.05,9.2103e-07,9.2039,7.0722e-07,5.3137,8.4286e-12,-2.7788e-06,-7.0724e-07,-5.314,0.70358
14154,10.147,5.3636,0,0.00033397,3337.4,0.00011074,0.008302,0.00010932,-10.626,-0.00033415,-3342.6,0.70232
14155,10.239,5.2727,0,0.00033116,3309.3,0.0001099,0.0084636,0.00010824,-12.514,-0.00033137,-3315.5,0.71419
14156,10.147,5.2727,0.05,9.1816e-07,9.1753,7.0503e-07,5.2972,7.6421e-12,-2.5001e-06,-7.0504e-07,-5.2975,0.70274
14157,10.147,5.5455,0,0.00033449,3342.6,0.00011063,0.015678,0.00010996,-5.0204,-0.00033457,-3345.1,0.70138
14158,10.239,5.4545,0,0.00033166,3314.3,0.0001098,0.0074826,0.00010885,-7.1564,-0.00033178,-3317.8,0.71328
14159,10.147,5.4545,0.05,9.1265e-07,9.1202,7.0079e-07,5.2654,1.0375e-11,-1.4682e-06,-7.0081e-07,-5.2657,0.70183
14160,10.147,5.7273,0,0.00033509,3348.6,0.00011068,1.1673,0.00011052,-0.05084,-0.00033508,-3348.1,0.70036
14161,10.239,5.6364,0,0.00033218,3319.5,0.0001097,0.027648,0.00010948,-1.6894,-0.00033221,-3320.3,0.71231
14162,10.147,5.6364,0.05,8.6373e-07,8.6313,6.6323e-07,4.9831,1.0454e-11,-1.4161e-06,-6.6325e-07,-4.9835,0.70085
14163,10.239,5.8182,0,0.00033286,3326.3,0.00011025,4.8354,0.0001096,-0.032458,-0.00033277,-3323.9,0.71126
14164,10.147,5.8182,0.05,1.5493e-07,1.5482,1.1896e-07,0.89373,1.9097e-12,-6.1654e-05,-1.1898e-07,-0.894,0.69979
14165,10.147,5.9091,0,0.0003352,3349.7,0.00011092,3.6421,0.00011043,-0.0097678,-0.00033513,-3347.8,0.69927
14166,10.331,0.27273,0,0.00032993,3297,0.00010904,1.9714,0.00010878,-0.021647,-0.00032989,-3296,0.72328
14167,10.424,0.18182,0,0.00032769,3274.6,0.0001086,5.4995,0.00010786,-0.025842,-0.0003276,-3271.9,0.7343
14168,10.331,0.18182,0.05,1.412e-07,1.411,1.0843e-07,0.8148,-2.3455e-12,7.4532e-05,-1.0842e-07,-0.81451,0.72272
14169,10.331,0.090909,0,0.00032999,3297.6,0.00010924,4.0468,0.0001087,-0.007182,-0.00032992,-3295.6,0.7222
14170,10.331,0.45455,0,0.00032934,3291.2,0.00010887,0.013917,0.00010836,-3.8405,-0.00032941,-3293.1,0.72429
14171,10.424,0.36364,0,0.00032703,3268,0.00010796,0.030049,0.00010786,-0.71292,-0.00032704,-3268.4,0.73533
14172,10.331,0.36364,0.05,8.597e-07,8.5911,6.6015e-07,4.9602,-1.0482e-11,5.5881e-06,-6.6013e-07,-4.9599,0.72376
14173,10.331,0.63636,0,0.00032885,3286.2,0.00010897,0.007361,0.00010776,-9.062,-0.000329,-3290.7,0.72522
14174,10.424,0.54545,0,0.00032653,3263.1,0.00010804,0.0065024,0.00010727,-5.8116,-0.00032663,-3266,0.7363
14175,10.331,0.54545,0.05,9.0894e-07,9.0831,6.9796e-07,5.2443,-1.0473e-11,6.0688e-06,-6.9794e-07,-5.244,0.72473
14176,10.331,0.81818,0,0.00032837,3281.4,0.00010906,0.0074608,0.00010718,-14.174,-0.00032861,-3288.5,0.72608
14177,10.424,0.72727,0,0.00032606,3258.4,0.00010813,0.0076021,0.0001067,-10.786,-0.00032624,-3263.7,0.73719
14178,10.331,0.72727,0.05,9.1413e-07,9.1349,7.0195e-07,5.2742,-9.4605e-12,6.1224e-06,-7.0192e-07,-5.2739,0.72563
14179,10.331,1,0,0.00032791,3276.9,0.00010916,0.0067758,0.00010661,-19.172,-0.00032823,-3286.4,0.72687
14180,10.424,0.90909,0,0.00032561,3253.8,0.00010823,0.0066681,0.00010614,-15.659,-0.00032587,-3261.6,0.73801
14181,10.331,0.90909,0.05,9.1657e-07,9.1593,7.0382e-07,5.2883,-8.5275e-12,5.3579e-06,-7.038e-07,-5.288,0.72646
14182,10.331,1.1818,0,0.00032747,3272.5,0.00010925,0.0063288,0.00010606,-24.012,-0.00032788,-3284.4,0.7276
14183,10.424,1.0909,0,0.00032517,3249.4,0.00010831,0.0063478,0.0001056,-20.394,-0.00032551,-3259.6,0.73876
14184,10.331,1.0909,0.05,9.189e-07,9.1827,7.0561e-07,5.3018,-7.5749e-12,5.4239e-06,-7.0559e-07,-5.3015,0.72721
14185,10.331,1.3636,0,0.00032706,3268.4,0.00010935,0.0058012,0.00010553,-28.643,-0.00032754,-3282.6,0.72825
14186,10.424,1.2727,0,0.00032476,3245.3,0.0001084,0.0058696,0.00010508,-24.946,-0.00032517,-3257.7,0.73945
14187,10.331,1.2727,0.05,9.2124e-07,9.2061,7.0741e-07,5.3152,-6.6489e-12,5.0108e-06,-7.0739e-07,-5.315,0.7279
14188,10.331,1.5455,0,0.00032667,3264.5,0.00010943,0.0052575,0.00010504,-33.008,-0.00032722,-3280.9,0.72883
14189,10.424,1.4545,0,0.00032437,3241.4,0.00010849,0.0053939,0.00010459,-29.263,-0.00032485,-3256,0.74006
14190,10.331,1.4545,0.05,9.2354e-07,9.229,7.0917e-07,5.3285,-6.6559e-12,5.5736e-06,-7.0916e-07,-5.3283,0.72852
14191,10.331,1.7273,0,0.00032632,3261,0.00010952,0.0046943,0.00010458,-37.049,-0.00032694,-3279.3,0.72934
14192,10.424,1.6364,0,0.00032401,3237.8,0.00010857,0.004885,0.00010414,-33.292,-0.00032456,-3254.4,0.7406
14193,10.331,1.6364,0.05,9.2573e-07,9.2509,7.1085e-07,5.3411,-5.77e-12,6.2465e-06,-7.1084e-07,-5.3409,0.72907
14194,10.331,1.9091,0,0.000326,3257.8,0.00010959,0.0041374,0.00010417,-40.703,-0.00032668,-3277.9,0.72979
14195,10.424,1.8182,0,0.00032368,3234.6,0.00010864,0.0043725,0.00010372,-36.976,-0.0003243,-3252.9,0.74108
14196,10.331,1.8182,0.05,9.2776e-07,9.2712,7.1241e-07,5.3528,-4.8732e-12,4.7058e-06,-7.124e-07,-5.3527,0.72955
14197,10.331,2.0909,0,0.00032573,3255,0.00010966,0.0036092,0.00010381,-43.914,-0.00032645,-3276.7,0.73016
14198,10.424,2,0,0.00032339,3231.7,0.00010871,0.0038743,0.00010335,-40.259,-0.00032406,-3251.6,0.74149
14199,10.331,2,0.05,9.2959e-07,9.2895,7.1381e-07,5.3634,-4.9363e-12,5.0023e-06,-7.138e-07,-5.3632,0.72996
14200,10.331,2.2727,0,0.00032549,3252.7,0.00010971,0.0031348,0.00010351,-46.625,-0.00032626,-3275.7,0.73047
14201,10.424,2.1818,0,0.00032315,3229.2,0.00010877,0.0034134,0.00010303,-43.088,-0.00032386,-3250.6,0.74183
14202,10.331,2.1818,0.05,9.3117e-07,9.3052,7.1502e-07,5.3724,-3.2032e-12,4.8717e-06,-7.1502e-07,-5.3723,0.7303
14203,10.331,2.4545,0,0.00032531,3250.8,0.00010976,0.0027384,0.00010327,-48.789,-0.00032611,-3274.9,0.73071
14204,10.424,2.3636,0,0.00032295,3227.2,0.00010881,0.0030125,0.00010277,-45.416,-0.00032369,-3249.7,0.7421
14205,10.331,2.3636,0.05,9.3246e-07,9.3182,7.1602e-07,5.3799,-3.2668e-12,4.2611e-06,-7.1601e-07,-5.3798,0.73057
14206,10.331,2.6364,0,0.00032517,3249.5,0.00010979,0.0024399,0.00010309,-50.365,-0.000326,-3274.4,0.73088
14207,10.424,2.5455,0,0.00032279,3225.7,0.00010885,0.0026934,0.00010257,-47.2,-0.00032357,-3249,0.7423
14208,10.331,2.5455,0.05,9.3346e-07,9.3281,7.1678e-07,5.3856,-2.4554e-12,3.4969e-06,-7.1678e-07,-5.3856,0.73077
14209,10.331,2.8182,0,0.00032509,3248.7,0.00010981,0.0022537,0.00010298,-51.322,-0.00032593,-3274,0.73098
14210,10.424,2.7273,0,0.00032269,3224.6,0.00010888,0.0024703,0.00010243,-48.408,-0.00032348,-3248.6,0.74244
14211,10.331,2.7273,0.05,9.3413e-07,9.3348,7.1729e-07,5.3895,-7.4083e-13,2.7136e-06,-7.1729e-07,-5.3894,0.73091
14212,10.331,3,0,0.00032506,3248.4,0.00010982,0.0021902,0.00010295,-51.644,-0.00032591,-3273.9,0.73102
14213,10.424,2.9091,0,0.00032263,3224.1,0.00010889,0.0023548,0.00010236,-49.018,-0.00032344,-3248.3,0.7425
14214,10.331,2.9091,0.05,9.3446e-07,9.3382,7.1755e-07,5.3914,-1.7618e-12,1.3832e-06,-7.1755e-07,-5.3914,0.73098
14215,10.331,3.1818,0,0.00032509,3248.7,0.00010981,0.0022531,0.00010298,-51.322,-0.00032593,-3274,0.73098
14216,10.424,3.0909,0,0.00032263,3224.1,0.00010889,0.0023549,0.00010236,-49.018,-0.00032344,-3248.3,0.7425
14217,10.331,3.0909,0.05,9.3446e-07,9.3382,7.1755e-07,5.3914,8.5234e-13,1.4773e-06,-7.1755e-07,-5.3914,0.73098
14218,10.331,3.3636,0,0.00032517,3249.5,0.00010979,0.0024397,0.00010309,-50.365,-0.000326,-3274.4,0.73088
14219,10.424,3.2727,0,0.00032269,3224.6,0.00010888,0.0024699,0.00010243,-48.408,-0.00032348,-3248.6,0.74244
14220,10.331,3.2727,0.05,9.3413e-07,9.3348,7.1729e-07,5.3894,7.3965e-13,6.2288e-07,-7.1729e-07,-5.3895,0.73091
14221,10.331,3.5455,0,0.00032531,3250.8,0.00010976,0.0027385,0.00010327,-48.789,-0.00032611,-3274.9,0.73071
14222,10.424,3.4545,0,0.00032279,3225.7,0.00010885,0.0026932,0.00010257,-47.2,-0.00032357,-3249,0.7423
14223,10.331,3.4545,0.05,9.3346e-07,9.3281,7.1678e-07,5.3856,1.5412e-12,-1.667e-07,-7.1678e-07,-5.3856,0.73077
14224,10.331,3.7273,0,0.00032549,3252.7,0.00010971,0.0031345,0.00010351,-46.625,-0.00032626,-3275.7,0.73047
14225,10.424,3.6364,0,0.00032295,3227.2,0.00010881,0.0030126,0.00010277,-45.416,-0.00032369,-3249.7,0.7421
14226,10.331,3.6364,0.05,9.3246e-07,9.3182,7.1601e-07,5.3798,3.2562e-12,5.1728e-07,-7.1602e-07,-5.3799,0.73057
14227,10.331,3.9091,0,0.00032573,3255,0.00010966,0.003609,0.00010381,-43.914,-0.00032645,-3276.7,0.73016
14228,10.424,3.8182,0,0.00032315,3229.2,0.00010877,0.0034131,0.00010303,-43.088,-0.00032386,-3250.6,0.74183
14229,10.331,3.8182,0.05,9.3117e-07,9.3052,7.1502e-07,5.3723,3.1855e-12,-1.4755e-07,-7.1502e-07,-5.3724,0.7303
14230,10.331,4.0909,0,0.000326,3257.8,0.00010959,0.004137,0.00010417,-40.703,-0.00032668,-3277.9,0.72979
14231,10.424,4,0,0.00032339,3231.7,0.00010871,0.0038743,0.00010335,-40.259,-0.00032406,-3251.7,0.74149
14232,10.331,4,0.05,9.2959e-07,9.2895,7.1381e-07,5.3632,4.0155e-12,-1.1548e-06,-7.1381e-07,-5.3633,0.72996
14233,10.331,4.2727,0,0.00032632,3261,0.00010952,0.0046934,0.00010458,-37.049,-0.00032694,-3279.3,0.72934
14234,10.424,4.1818,0,0.00032368,3234.6,0.00010864,0.0043719,0.00010372,-36.976,-0.0003243,-3252.9,0.74108
14235,10.331,4.1818,0.05,9.2776e-07,9.2712,7.124e-07,5.3527,5.7685e-12,-2.3774e-06,-7.1241e-07,-5.3528,0.72955
14236,10.331,4.4545,0,0.00032667,3264.5,0.00010943,0.0052564,0.00010504,-33.008,-0.00032722,-3280.9,0.72883
14237,10.424,4.3636,0,0.00032401,3237.8,0.00010857,0.0048844,0.00010414,-33.292,-0.00032456,-3254.4,0.7406
14238,10.331,4.3636,0.05,9.2573e-07,9.2509,7.1084e-07,5.3409,5.7313e-12,-1.7521e-06,-7.1085e-07,-5.3411,0.72907
14239,10.331,4.6364,0,0.00032706,3268.4,0.00010935,0.0058005,0.00010553,-28.643,-0.00032754,-3282.6,0.72825
14240,10.424,4.5455,0,0.00032437,3241.4,0.00010849,0.0053932,0.00010459,-29.263,-0.00032485,-3256,0.74006
14241,10.331,4.5455,0.05,9.2354e-07,9.229,7.0916e-07,5.3283,5.7218e-12,-2.3776e-06,-7.0917e-07,-5.3284,0.72852
14242,10.331,4.8182,0,0.00032747,3272.5,0.00010925,0.0063285,0.00010606,-24.012,-0.00032788,-3284.4,0.7276
14243,10.424,4.7273,0,0.00032476,3245.3,0.0001084,0.0058689,0.00010508,-24.946,-0.00032517,-3257.7,0.73945
14244,10.331,4.7273,0.05,9.2124e-07,9.2061,7.074e-07,5.315,6.6641e-12,-1.921e-06,-7.074e-07,-5.3152,0.7279
14245,10.331,5,0,0.00032791,3276.9,0.00010916,0.0067748,0.00010661,-19.172,-0.00032823,-3286.4,0.72687
14246,10.424,4.9091,0,0.00032517,3249.4,0.00010832,0.0063477,0.0001056,-20.394,-0.00032551,-3259.6,0.73876
14247,10.331,4.9091,0.05,9.189e-07,9.1827,7.0559e-07,5.3015,7.5749e-12,-1.4929e-06,-7.0561e-07,-5.3017,0.72721
14248,10.331,5.1818,0,0.00032837,3281.4,0.00010906,0.0074593,0.00010718,-14.174,-0.00032861,-3288.5,0.72608
14249,10.424,5.0909,0,0.00032561,3253.8,0.00010823,0.0066662,0.00010614,-15.659,-0.00032587,-3261.6,0.73801
14250,10.331,5.0909,0.05,9.1657e-07,9.1593,7.038e-07,5.288,7.608e-12,-2.4e-06,-7.0382e-07,-5.2883,0.72646
14251,10.331,5.3636,0,0.00032885,3286.2,0.00010897,0.0073604,0.00010776,-9.0619,-0.000329,-3290.7,0.72522
14252,10.424,5.2727,0,0.00032606,3258.4,0.00010813,0.0076009,0.0001067,-10.786,-0.00032624,-3263.7,0.73719
14253,10.331,5.2727,0.05,9.1413e-07,9.1349,7.0193e-07,5.2739,1.0396e-11,-1.0988e-06,-7.0194e-07,-5.2742,0.72563
14254,10.331,5.5455,0,0.00032934,3291.2,0.00010887,0.013917,0.00010836,-3.8405,-0.00032941,-3293.1,0.72429
14255,10.424,5.4545,0,0.00032653,3263.1,0.00010804,0.0065025,0.00010727,-5.8115,-0.00032663,-3266,0.7363
14256,10.331,5.4545,0.05,9.0894e-07,9.0831,6.9794e-07,5.244,1.0473e-11,-9.477e-07,-6.9796e-07,-5.2443,0.72473
14257,10.331,5.7273,0,0.00032993,3297,0.00010904,1.9715,0.00010878,-0.021647,-0.00032989,-3296,0.72328
14258,10.424,5.6364,0,0.00032703,3268,0.00010796,0.030049,0.00010786,-0.71291,-0.00032704,-3268.4,0.73533
14259,10.331,5.6364,0.05,8.597e-07,8.5911,6.6013e-07,4.9599,1.0482e-11,-1.5809e-07,-6.6015e-07,-4.9602,0.72376
14260,10.424,5.8182,0,0.00032769,3274.6,0.0001086,5.4996,0.00010786,-0.025841,-0.0003276,-3271.9,0.7343
14261,10.331,5.8182,0.05,1.412e-07,1.411,1.0842e-07,0.81451,4.0088e-12,-6.7442e-05,-1.0843e-07,-0.8148,0.72272
14262,10.331,5.9091,0,0.00032999,3297.6,0.00010924,4.0468,0.0001087,-0.0071828,-0.00032992,-3295.6,0.7222
14263,10.516,0.27273,0,0.00032478,3245.5,0.00010741,2.7747,0.00010704,-0.010593,-0.00032473,-3244.1,0.74643
14264,10.609,0.18182,0,0.00032254,3223.2,0.00010695,6.1508,0.00010613,-0.020936,-0.00032243,-3220.1,0.75756
14265,10.516,0.18182,0.05,1.2794e-07,1.2786,9.8249e-08,0.73832,-3.7982e-12,7.5223e-05,-9.8242e-08,-0.73803,0.74587
14266,10.516,0.090909,0,0.0003248,3245.8,0.00010756,4.4444,0.00010696,-0.0053262,-0.00032473,-3243.6,0.74536
14267,10.516,0.45455,0,0.00032421,3239.9,0.00010713,0.01224,0.00010676,-2.6947,-0.00032426,-3241.2,0.74742
14268,10.609,0.36364,0,0.0003219,3216.7,0.00010625,0.27397,0.00010621,-0.0053501,-0.00032189,-3216.6,0.75858
14269,10.516,0.36364,0.05,8.554e-07,8.5481,6.5685e-07,4.9354,-1.0552e-11,4.8949e-06,-6.5683e-07,-4.9351,0.7469
14270,10.516,0.63636,0,0.00032374,3235.2,0.00010721,0.0065288,0.0001062,-7.5536,-0.00032387,-3239,0.74834
14271,10.609,0.54545,0,0.00032142,3212,0.00010629,0.0056682,0.00010569,-4.5128,-0.0003215,-3214.3,0.75953
14272,10.516,0.54545,0.05,9.0496e-07,9.0433,6.949e-07,5.2213,-1.0544e-11,5.3678e-06,-6.9489e-07,-5.221,0.74786
14273,10.516,0.81818,0,0.00032329,3230.7,0.0001073,0.0067655,0.00010566,-12.289,-0.0003235,-3236.8,0.74919
14274,10.609,0.72727,0,0.00032098,3207.6,0.00010637,0.0068911,0.00010516,-9.1285,-0.00032113,-3212.1,0.76041
14275,10.516,0.72727,0.05,9.0989e-07,9.0926,6.9869e-07,5.2498,-9.5281e-12,5.4608e-06,-6.9867e-07,-5.2495,0.74874
14276,10.516,1,0,0.00032286,3226.4,0.00010738,0.0062247,0.00010513,-16.898,-0.00032314,-3234.8,0.74997
14277,10.609,0.90909,0,0.00032055,3203.3,0.00010646,0.0061452,0.00010464,-13.632,-0.00032078,-3210,0.76123
14278,10.516,0.90909,0.05,9.1199e-07,9.1136,7.003e-07,5.2619,-8.6128e-12,4.7053e-06,-7.0028e-07,-5.2616,0.74956
14279,10.516,1.1818,0,0.00032245,3222.2,0.00010746,0.0058809,0.00010462,-21.344,-0.00032281,-3232.9,0.75069
14280,10.609,1.0909,0,0.00032014,3199.1,0.00010654,0.0059217,0.00010414,-17.991,-0.00032044,-3208.1,0.76197
14281,10.516,1.0909,0.05,9.1395e-07,9.1332,7.0181e-07,5.2732,-7.6371e-12,5.072e-06,-7.0179e-07,-5.2729,0.75031
14282,10.516,1.3636,0,0.00032206,3218.4,0.00010754,0.0054568,0.00010414,-25.581,-0.00032249,-3231.1,0.75133
14283,10.609,1.2727,0,0.00031975,3195.3,0.00010661,0.0055427,0.00010366,-22.164,-0.00032012,-3206.3,0.76264
14284,10.516,1.2727,0.05,9.159e-07,9.1527,7.033e-07,5.2844,-6.7127e-12,4.902e-06,-7.0329e-07,-5.2842,0.75099
14285,10.516,1.5455,0,0.0003217,3214.8,0.00010762,0.0050162,0.00010369,-29.562,-0.00032219,-3229.4,0.75191
14286,10.609,1.4545,0,0.00031938,3191.6,0.00010669,0.005162,0.00010321,-26.109,-0.00031982,-3204.6,0.76325
14287,10.516,1.4545,0.05,9.178e-07,9.1717,7.0476e-07,5.2954,-6.7064e-12,5.4349e-06,-7.0475e-07,-5.2951,0.7516
14288,10.516,1.7273,0,0.00032137,3211.5,0.00010769,0.0045574,0.00010327,-33.233,-0.00032192,-3227.9,0.75241
14289,10.609,1.6364,0,0.00031905,3188.3,0.00010676,0.0047494,0.00010279,-29.778,-0.00031954,-3203.1,0.76379
14290,10.516,1.6364,0.05,9.1961e-07,9.1897,7.0615e-07,5.3058,-5.8293e-12,4.8976e-06,-7.0614e-07,-5.3056,0.75214
14291,10.516,1.9091,0,0.00032107,3208.5,0.00010776,0.0041026,0.00010289,-36.544,-0.00032168,-3226.6,0.75285
14292,10.609,1.8182,0,0.00031874,3185.2,0.00010682,0.0043332,0.00010241,-33.123,-0.00031929,-3201.7,0.76426
14293,10.516,1.8182,0.05,9.2128e-07,9.2064,7.0743e-07,5.3154,-4.9539e-12,5.3286e-06,-7.0742e-07,-5.3153,0.75261
14294,10.516,2.0909,0,0.00032081,3205.9,0.00010782,0.0036707,0.00010257,-39.446,-0.00032147,-3225.5,0.75322
14295,10.609,2,0,0.00031848,3182.6,0.00010688,0.0039271,0.00010208,-36.096,-0.00031907,-3200.5,0.76466
14296,10.516,2,0.05,9.2278e-07,9.2214,7.0858e-07,5.324,-3.1754e-12,3.9693e-06,-7.0858e-07,-5.3239,0.75302
14297,10.516,2.2727,0,0.0003206,3203.8,0.00010787,0.0032825,0.00010229,-41.891,-0.00032129,-3224.5,0.75353
14298,10.609,2.1818,0,0.00031825,3180.3,0.00010693,0.0035508,0.00010179,-38.652,-0.00031889,-3199.4,0.765
14299,10.516,2.1818,0.05,9.2407e-07,9.2343,7.0957e-07,5.3315,-2.3294e-12,3.9448e-06,-7.0957e-07,-5.3314,0.75336
14300,10.516,2.4545,0,0.00032043,3202.1,0.00010791,0.002958,0.00010207,-43.839,-0.00032115,-3223.7,0.75376
14301,10.609,2.3636,0,0.00031806,3178.4,0.00010697,0.0032239,0.00010155,-40.751,-0.00031873,-3198.6,0.76526
14302,10.516,2.3636,0.05,9.2513e-07,9.245,7.1039e-07,5.3376,-1.4867e-12,3.4336e-06,-7.1039e-07,-5.3375,0.75362
14303,10.516,2.6364,0,0.0003203,3200.8,0.00010793,0.0027136,0.00010191,-45.256,-0.00032105,-3223.2,0.75393
14304,10.609,2.5455,0,0.00031792,3177,0.000107,0.0029629,0.00010137,-42.358,-0.00031862,-3197.9,0.76546
14305,10.516,2.5455,0.05,9.2595e-07,9.2531,7.1101e-07,5.3423,-6.7031e-13,3.2541e-06,-7.1101e-07,-5.3422,0.75383
14306,10.516,2.8182,0,0.00032023,3200.1,0.00010795,0.0025608,0.00010181,-46.116,-0.00032099,-3222.9,0.75403
14307,10.609,2.7273,0,0.00031782,3176,0.00010703,0.0027808,0.00010124,-43.445,-0.00031854,-3197.5,0.7656
14308,10.516,2.7273,0.05,9.265e-07,9.2586,7.1144e-07,5.3455,-1.6705e-12,3.0287e-06,-7.1144e-07,-5.3454,0.75396
14309,10.516,3,0,0.0003202,3199.8,0.00010796,0.0025088,0.00010178,-46.405,-0.00032097,-3222.8,0.75407
14310,10.609,2.9091,0,0.00031777,3175.5,0.00010704,0.0026865,0.00010118,-43.993,-0.0003185,-3197.3,0.76566
14311,10.516,2.9091,0.05,9.2677e-07,9.2614,7.1165e-07,5.347,5.0232e-14,1.331e-06,-7.1165e-07,-5.347,0.75403
14312,10.516,3.1818,0,0.00032023,3200.1,0.00010795,0.0025612,0.00010181,-46.116,-0.00032099,-3222.9,0.75403
14313,10.609,3.0909,0,0.00031777,3175.5,0.00010704,0.0026866,0.00010118,-43.993,-0.0003185,-3197.3,0.76566
14314,10.516,3.0909,0.05,9.2677e-07,9.2614,7.1165e-07,5.347,-5.035e-14,1.5294e-06,-7.1165e-07,-5.347,0.75403
14315,10.516,3.3636,0,0.0003203,3200.8,0.00010793,0.0027133,0.00010191,-45.256,-0.00032105,-3223.2,0.75393
14316,10.609,3.2727,0,0.00031782,3176,0.00010703,0.0027804,0.00010124,-43.445,-0.00031854,-3197.5,0.7656
14317,10.516,3.2727,0.05,9.265e-07,9.2586,7.1144e-07,5.3454,1.6701e-12,7.8995e-07,-7.1144e-07,-5.3455,0.75396
14318,10.516,3.5455,0,0.00032043,3202.1,0.00010791,0.0029577,0.00010207,-43.839,-0.00032115,-3223.7,0.75376
14319,10.609,3.4545,0,0.00031792,3177,0.000107,0.0029628,0.00010137,-42.358,-0.00031862,-3197.9,0.76546
14320,10.516,3.4545,0.05,9.2595e-07,9.2531,7.1101e-07,5.3423,1.5749e-12,9.4663e-08,-7.1101e-07,-5.3423,0.75383
14321,10.516,3.7273,0,0.0003206,3203.8,0.00010787,0.0032825,0.00010229,-41.891,-0.00032129,-3224.5,0.75353
14322,10.609,3.6364,0,0.00031806,3178.4,0.00010697,0.0032237,0.00010155,-40.751,-0.00031873,-3198.6,0.76526
14323,10.516,3.6364,0.05,9.2513e-07,9.245,7.1039e-07,5.3375,3.3044e-12,-1.1449e-07,-7.1039e-07,-5.3376,0.75362
14324,10.516,3.9091,0,0.00032081,3205.9,0.00010782,0.0036707,0.00010257,-39.446,-0.00032147,-3225.5,0.75322
14325,10.609,3.8182,0,0.00031825,3180.3,0.00010693,0.0035505,0.00010179,-38.652,-0.00031889,-3199.4,0.765
14326,10.516,3.8182,0.05,9.2407e-07,9.2343,7.0957e-07,5.3314,3.2339e-12,2.7601e-07,-7.0957e-07,-5.3315,0.75336
14327,10.516,4.0909,0,0.00032107,3208.5,0.00010776,0.0041025,0.00010289,-36.544,-0.00032168,-3226.6,0.75285
14328,10.609,4,0,0.00031848,3182.6,0.00010688,0.003927,0.00010208,-36.096,-0.00031907,-3200.5,0.76466
14329,10.516,4,0.05,9.2278e-07,9.2214,7.0858e-07,5.324,3.1708e-12,-5.7491e-07,-7.0858e-07,-5.324,0.75302
14330,10.516,4.2727,0,0.00032137,3211.5,0.00010769,0.004557,0.00010327,-33.233,-0.00032192,-3227.9,0.75241
14331,10.609,4.1818,0,0.00031874,3185.2,0.00010682,0.0043325,0.00010241,-33.123,-0.00031929,-3201.7,0.76426
14332,10.516,4.1818,0.05,9.2128e-07,9.2064,7.0743e-07,5.3153,4.0227e-12,-1.933e-06,-7.0743e-07,-5.3154,0.75261
14333,10.516,4.4545,0,0.0003217,3214.8,0.00010762,0.0050159,0.00010369,-29.561,-0.00032219,-3229.4,0.75191
14334,10.609,4.3636,0,0.00031905,3188.3,0.00010676,0.0047493,0.00010279,-29.778,-0.00031954,-3203.1,0.76379
14335,10.516,4.3636,0.05,9.1961e-07,9.1897,7.0614e-07,5.3056,5.8178e-12,-1.2859e-06,-7.0615e-07,-5.3058,0.75214
14336,10.516,4.6364,0,0.00032206,3218.4,0.00010754,0.0054561,0.00010414,-25.581,-0.00032249,-3231.1,0.75133
14337,10.609,4.5455,0,0.00031938,3191.6,0.00010669,0.0051614,0.00010321,-26.109,-0.00031982,-3204.6,0.76325
14338,10.516,4.5455,0.05,9.178e-07,9.1717,7.0475e-07,5.2951,5.8243e-12,-1.4974e-06,-7.0476e-07,-5.2954,0.7516
14339,10.516,4.8182,0,0.00032245,3222.2,0.00010746,0.0058805,0.00010462,-21.344,-0.00032281,-3232.9,0.75069
14340,10.609,4.7273,0,0.00031975,3195.3,0.00010661,0.005542,0.00010366,-22.164,-0.00032012,-3206.3,0.76264
14341,10.516,4.7273,0.05,9.159e-07,9.1527,7.0329e-07,5.2842,6.7246e-12,-1.8127e-06,-7.033e-07,-5.2844,0.75099
14342,10.516,5,0,0.00032286,3226.4,0.00010738,0.0062237,0.00010513,-16.898,-0.00032314,-3234.8,0.74997
14343,10.609,4.9091,0,0.00032014,3199.1,0.00010654,0.0059212,0.00010414,-17.99,-0.00032044,-3208.1,0.76197
14344,10.516,4.9091,0.05,9.1395e-07,9.1332,7.0179e-07,5.2729,8.5697e-12,-9.26e-07,-7.0181e-07,-5.2732,0.75031
14345,10.516,5.1818,0,0.00032329,3230.7,0.0001073,0.0067639,0.00010566,-12.288,-0.0003235,-3236.8,0.74919
14346,10.609,5.0909,0,0.00032055,3203.3,0.00010646,0.0061433,0.00010464,-13.632,-0.00032078,-3210,0.76123
14347,10.516,5.0909,0.05,9.1199e-07,9.1136,7.0029e-07,5.2616,8.5987e-12,-1.8658e-06,-7.003e-07,-5.2618,0.74956
14348,10.516,5.3636,0,0.00032374,3235.2,0.00010721,0.0065282,0.0001062,-7.5536,-0.00032387,-3239,0.74834
14349,10.609,5.2727,0,0.00032098,3207.6,0.00010637,0.0068897,0.00010516,-9.1285,-0.00032113,-3212.1,0.76041
14350,10.516,5.2727,0.05,9.0989e-07,9.0926,6.9867e-07,5.2495,7.7159e-12,-4.8413e-07,-6.9869e-07,-5.2497,0.74874
14351,10.516,5.5455,0,0.00032421,3239.9,0.00010713,0.01224,0.00010676,-2.6947,-0.00032426,-3241.2,0.74742
14352,10.609,5.4545,0,0.00032142,3212,0.00010629,0.0056677,0.00010569,-4.5127,-0.0003215,-3214.3,0.75953
14353,10.516,5.4545,0.05,9.0496e-07,9.0433,6.9489e-07,5.221,8.7321e-12,-1.365e-07,-6.949e-07,-5.2213,0.74786
14354,10.516,5.7273,0,0.00032478,3245.5,0.00010741,2.7747,0.00010704,-0.010594,-0.00032473,-3244.2,0.74643
14355,10.609,5.6364,0,0.0003219,3216.7,0.00010625,0.27399,0.00010621,-0.0053508,-0.00032189,-3216.6,0.75858
14356,10.516,5.6364,0.05,8.554e-07,8.5481,6.5683e-07,4.9351,1.0566e-11,7.1133e-07,-6.5685e-07,-4.9354,0.7469
14357,10.609,5.8182,0,0.00032254,3223.2,0.00010695,6.1508,0.00010613,-0.020936,-0.00032243,-3220.1,0.75756
14358,10.516,5.8182,0.05,1.2794e-07,1.2786,9.824e-08,0.73804,3.6222e-12,-6.2161e-05,-9.825e-08,-0.73831,0.74587
14359,10.516,5.9091,0,0.0003248,3245.8,0.00010756,4.4444,0.00010696,-0.0053269,-0.00032473,-3243.6,0.74536
14360,10.701,0.27273,0,0.00031964,3194.2,0.00010578,3.5607,0.00010531,-0.0053263,-0.00031958,-3192.5,0.76979
14361,10.793,0.18182,0,0.00031741,3171.9,0.00010531,6.786,0.00010441,-0.017197,-0.00031729,-3168.5,0.78104
14362,10.701,0.18182,0.05,1.1525e-07,1.1517,8.8507e-08,0.6651,-2.1563e-12,7.396e-05,-8.8494e-08,-0.66481,0.76925
14363,10.701,0.090909,0,0.00031963,3194.1,0.00010588,4.8333,0.00010524,-0.0039377,-0.00031955,-3191.7,0.76874
14364,10.701,0.45455,0,0.0003191,3188.8,0.00010538,0.010729,0.00010517,-1.5883,-0.00031913,-3189.6,0.77077
14365,10.793,0.36364,0,0.00031678,3165.6,0.00010464,1.1768,0.00010448,0.01164,-0.00031676,-3165,0.78205
14366,10.701,0.36364,0.05,8.5093e-07,8.5034,6.5342e-07,4.9096,-1.0613e-11,4.9859e-06,-6.5339e-07,-4.9093,0.77026
14367,10.701,0.63636,0,0.00031866,3184.4,0.00010546,0.0058985,0.00010465,-6.106,-0.00031876,-3187.4,0.77168
14368,10.793,0.54545,0,0.00031633,3161.1,0.00010455,0.0050199,0.00010412,-3.2648,-0.00031639,-3162.8,0.78299
14369,10.701,0.54545,0.05,9.0079e-07,9.0017,6.9171e-07,5.1973,-8.7433e-12,5.4869e-06,-6.9169e-07,-5.197,0.7712
14370,10.701,0.81818,0,0.00031823,3180.1,0.00010554,0.0062554,0.00010414,-10.489,-0.00031841,-3185.3,0.77252
14371,10.793,0.72727,0,0.00031591,3156.9,0.00010462,0.0063544,0.00010362,-7.5448,-0.00031604,-3160.7,0.78386
14372,10.701,0.72727,0.05,9.0552e-07,9.0489,6.9533e-07,5.2245,-9.6128e-12,4.3833e-06,-6.9531e-07,-5.2243,0.77208
14373,10.701,1,0,0.00031782,3176,0.00010561,0.0058408,0.00010365,-14.741,-0.00031807,-3183.4,0.77329
14374,10.793,0.90909,0,0.0003155,3152.8,0.0001047,0.0057695,0.00010314,-11.706,-0.0003157,-3158.7,0.78466
14375,10.701,0.90909,0.05,9.0734e-07,9.0672,6.9674e-07,5.2351,-9.5563e-12,4.1236e-06,-6.9672e-07,-5.2348,0.77289
14376,10.701,1.1818,0,0.00031743,3172.1,0.00010568,0.0055843,0.00010318,-18.827,-0.00031775,-3181.5,0.774
14377,10.793,1.0909,0,0.00031512,3149,0.00010477,0.0056238,0.00010267,-15.719,-0.00031538,-3156.8,0.78539
14378,10.701,1.0909,0.05,9.0901e-07,9.0838,6.9801e-07,5.2447,-6.8219e-12,4.7089e-06,-6.98e-07,-5.2444,0.77362
14379,10.701,1.3636,0,0.00031707,3168.5,0.00010576,0.0052483,0.00010273,-22.708,-0.00031745,-3179.8,0.77463
14380,10.793,1.2727,0,0.00031475,3145.3,0.00010483,0.0053273,0.00010223,-19.549,-0.00031508,-3155.1,0.78606
14381,10.701,1.2727,0.05,9.1064e-07,9.1002,6.9927e-07,5.2541,-6.7833e-12,4.534e-06,-6.9925e-07,-5.2539,0.77429
14382,10.701,1.5455,0,0.00031673,3165.1,0.00010582,0.0048946,0.00010232,-26.341,-0.00031717,-3178.2,0.7752
14383,10.793,1.4545,0,0.00031441,3141.9,0.0001049,0.0050257,0.00010182,-23.157,-0.0003148,-3153.4,0.78666
14384,10.701,1.4545,0.05,9.1223e-07,9.116,7.0049e-07,5.2632,-6.7665e-12,4.5987e-06,-7.0047e-07,-5.263,0.7749
14385,10.701,1.7273,0,0.00031642,3162,0.00010589,0.0045233,0.00010194,-29.682,-0.00031692,-3176.8,0.7757
14386,10.793,1.6364,0,0.0003141,3138.8,0.00010496,0.0046935,0.00010143,-26.503,-0.00031454,-3152,0.78719
14387,10.701,1.6364,0.05,9.1373e-07,9.131,7.0164e-07,5.2719,-4.9812e-12,4.8953e-06,-7.0163e-07,-5.2717,0.77543
14388,10.701,1.9091,0,0.00031615,3159.3,0.00010594,0.0041545,0.00010159,-32.688,-0.00031669,-3175.5,0.77614
14389,10.793,1.8182,0,0.00031381,3136,0.00010502,0.0043571,0.00010109,-29.544,-0.0003143,-3150.6,0.78765
14390,10.701,1.8182,0.05,9.1512e-07,9.1449,7.027e-07,5.2799,-5.0141e-12,4.3413e-06,-7.0269e-07,-5.2797,0.7759
14391,10.701,2.0909,0,0.00031591,3156.9,0.00010599,0.0038028,0.00010129,-35.315,-0.00031649,-3174.4,0.7765
14392,10.793,2,0,0.00031356,3133.5,0.00010507,0.0040283,0.00010078,-32.241,-0.0003141,-3149.5,0.78805
14393,10.701,2,0.05,9.1636e-07,9.1573,7.0365e-07,5.287,-5.0548e-12,4.2009e-06,-7.0365e-07,-5.2869,0.7763
14394,10.701,2.2727,0,0.00031571,3154.9,0.00010604,0.0034868,0.00010104,-37.525,-0.00031633,-3173.5,0.7768
14395,10.793,2.1818,0,0.00031335,3131.3,0.00010511,0.0037223,0.00010051,-34.555,-0.00031392,-3148.5,0.78838
14396,10.701,2.1818,0.05,9.1743e-07,9.1679,7.0447e-07,5.2932,-3.2814e-12,3.5662e-06,-7.0447e-07,-5.293,0.77663
14397,10.701,2.4545,0,0.00031555,3153.3,0.00010607,0.0032225,0.00010084,-39.282,-0.0003162,-3172.8,0.77704
14398,10.793,2.3636,0,0.00031318,3129.6,0.00010515,0.0034567,0.0001003,-36.452,-0.00031378,-3147.7,0.78865
14399,10.701,2.3636,0.05,9.183e-07,9.1767,7.0514e-07,5.2982,-2.4401e-12,3.586e-06,-7.0514e-07,-5.2981,0.7769
14400,10.701,2.6364,0,0.00031543,3152.1,0.0001061,0.0030231,0.0001007,-40.559,-0.0003161,-3172.2,0.7772
14401,10.793,2.5455,0,0.00031304,3128.3,0.00010518,0.0032444,0.00010013,-37.902,-0.00031367,-3147.1,0.78884
14402,10.701,2.5455,0.05,9.1897e-07,9.1834,7.0565e-07,5.3021,-1.6085e-12,3.5089e-06,-7.0566e-07,-5.302,0.7771
14403,10.701,2.8182,0,0.00031536,3151.5,0.00010611,0.0028991,0.00010061,-41.334,-0.00031605,-3171.9,0.7773
14404,10.793,2.7273,0,0.00031295,3127.4,0.0001052,0.0030964,0.00010002,-38.882,-0.0003136,-3146.6,0.78898
14405,10.701,2.7273,0.05,9.1942e-07,9.1879,7.0601e-07,5.3047,-1.688e-12,2.8898e-06,-7.06e-07,-5.3046,0.77723
14406,10.701,3,0,0.00031534,3151.2,0.00010612,0.0028567,0.00010058,-41.594,-0.00031603,-3171.8,0.77733
14407,10.793,2.9091,0,0.00031291,3126.9,0.0001052,0.0030195,9.9964e-05,-39.376,-0.00031356,-3146.4,0.78904
14408,10.701,2.9091,0.05,9.1965e-07,9.1902,7.0618e-07,5.306,4.3973e-14,2.2386e-06,-7.0618e-07,-5.3059,0.7773
14409,10.701,3.1818,0,0.00031536,3151.5,0.00010611,0.0028984,0.00010061,-41.334,-0.00031605,-3171.9,0.7773
14410,10.793,3.0909,0,0.00031291,3126.9,0.0001052,0.0030197,9.9964e-05,-39.376,-0.00031356,-3146.4,0.78904
14411,10.701,3.0909,0.05,9.1965e-07,9.1902,7.0618e-07,5.3059,-4.4076e-14,1.5756e-06,-7.0618e-07,-5.306,0.7773
14412,10.701,3.3636,0,0.00031543,3152.1,0.0001061,0.0030228,0.0001007,-40.559,-0.0003161,-3172.2,0.7772
14413,10.793,3.2727,0,0.00031295,3127.4,0.0001052,0.0030959,0.00010002,-38.882,-0.0003136,-3146.6,0.78898
14414,10.701,3.2727,0.05,9.1942e-07,9.1879,7.06e-07,5.3046,7.7824e-13,9.2027e-07,-7.0601e-07,-5.3047,0.77723
14415,10.701,3.5455,0,0.00031555,3153.3,0.00010607,0.0032223,0.00010084,-39.282,-0.0003162,-3172.8,0.77704
14416,10.793,3.4545,0,0.00031304,3128.3,0.00010518,0.0032447,0.00010013,-37.902,-0.00031367,-3147.1,0.78884
14417,10.701,3.4545,0.05,9.1897e-07,9.1834,7.0566e-07,5.302,6.973e-13,2.9609e-07,-7.0566e-07,-5.3021,0.7771
14418,10.701,3.7273,0,0.00031571,3154.9,0.00010604,0.0034862,0.00010104,-37.525,-0.00031633,-3173.5,0.7768
14419,10.793,3.6364,0,0.00031318,3129.6,0.00010515,0.0034563,0.0001003,-36.452,-0.00031378,-3147.7,0.78865
14420,10.701,3.6364,0.05,9.183e-07,9.1767,7.0514e-07,5.2981,2.4423e-12,1.9162e-07,-7.0514e-07,-5.2982,0.7769
14421,10.701,3.9091,0,0.00031591,3156.9,0.00010599,0.0038023,0.00010129,-35.315,-0.00031649,-3174.4,0.7765
14422,10.793,3.8182,0,0.00031335,3131.3,0.00010511,0.0037216,0.00010051,-34.555,-0.00031392,-3148.5,0.78838
14423,10.701,3.8182,0.05,9.1743e-07,9.1679,7.0447e-07,5.2931,3.2882e-12,2.1518e-07,-7.0447e-07,-5.2931,0.77663
14424,10.701,4.0909,0,0.00031615,3159.3,0.00010594,0.0041537,0.00010159,-32.688,-0.00031669,-3175.5,0.77614
14425,10.793,4,0,0.00031356,3133.5,0.00010507,0.0040274,0.00010078,-32.241,-0.0003141,-3149.5,0.78805
14426,10.701,4,0.05,9.1636e-07,9.1573,7.0365e-07,5.2869,3.2259e-12,-1.2086e-06,-7.0365e-07,-5.287,0.7763
14427,10.701,4.2727,0,0.00031642,3162,0.00010589,0.0045229,0.00010194,-29.682,-0.00031692,-3176.8,0.7757
14428,10.793,4.1818,0,0.00031381,3136,0.00010502,0.0043569,0.00010109,-29.544,-0.0003143,-3150.6,0.78765
14429,10.701,4.1818,0.05,9.1512e-07,9.1449,7.0269e-07,5.2797,4.0969e-12,-7.9792e-07,-7.027e-07,-5.2799,0.7759
14430,10.701,4.4545,0,0.00031673,3165.1,0.00010582,0.0048942,0.00010232,-26.341,-0.00031717,-3178.2,0.7752
14431,10.793,4.3636,0,0.0003141,3138.8,0.00010496,0.004693,0.00010143,-26.503,-0.00031454,-3152,0.78719
14432,10.701,4.3636,0.05,9.1373e-07,9.131,7.0163e-07,5.2717,5.8832e-12,-9.3643e-07,-7.0164e-07,-5.2719,0.77543
14433,10.701,4.6364,0,0.00031707,3168.5,0.00010576,0.0052477,0.00010273,-22.708,-0.00031745,-3179.8,0.77463
14434,10.793,4.5455,0,0.00031441,3141.9,0.0001049,0.005025,0.00010182,-23.157,-0.0003148,-3153.4,0.78666
14435,10.701,4.5455,0.05,9.1223e-07,9.116,7.0048e-07,5.2631,5.9007e-12,-1.3818e-06,-7.0049e-07,-5.2632,0.7749
14436,10.701,4.8182,0,0.00031743,3172.1,0.00010568,0.0055835,0.00010318,-18.827,-0.00031775,-3181.5,0.774
14437,10.793,4.7273,0,0.00031475,3145.3,0.00010483,0.0053265,0.00010223,-19.549,-0.00031508,-3155.1,0.78606
14438,10.701,4.7273,0.05,9.1064e-07,9.1002,6.9925e-07,5.2539,5.8762e-12,-4.2907e-07,-6.9927e-07,-5.2541,0.77429
14439,10.701,5,0,0.00031782,3176,0.00010561,0.0058394,0.00010365,-14.741,-0.00031807,-3183.4,0.77329
14440,10.793,4.9091,0,0.00031512,3149,0.00010477,0.0056231,0.00010267,-15.719,-0.00031538,-3156.8,0.78539
14441,10.701,4.9091,0.05,9.0901e-07,9.0838,6.98e-07,5.2444,7.715e-12,-5.812e-07,-6.9801e-07,-5.2446,0.77362
14442,10.701,5.1818,0,0.00031823,3180.1,0.00010554,0.0062538,0.00010414,-10.489,-0.00031841,-3185.3,0.77252
14443,10.793,5.0909,0,0.0003155,3152.8,0.0001047,0.005768,0.00010314,-11.706,-0.0003157,-3158.7,0.78466
14444,10.701,5.0909,0.05,9.0734e-07,9.0672,6.9672e-07,5.2348,7.7534e-12,-9.4335e-07,-6.9674e-07,-5.2351,0.77289
14445,10.701,5.3636,0,0.00031866,3184.4,0.00010546,0.0058973,0.00010465,-6.1059,-0.00031876,-3187.4,0.77168
14446,10.793,5.2727,0,0.00031591,3156.9,0.00010462,0.0063532,0.00010362,-7.5447,-0.00031604,-3160.7,0.78386
14447,10.701,5.2727,0.05,9.0552e-07,9.0489,6.9531e-07,5.2243,9.6128e-12,-4.1983e-07,-6.9533e-07,-5.2245,0.77208
14448,10.701,5.5455,0,0.0003191,3188.8,0.00010538,0.010728,0.00010517,-1.5883,-0.00031913,-3189.6,0.77077
14449,10.793,5.4545,0,0.00031633,3161.1,0.00010455,0.0050194,0.00010412,-3.2648,-0.00031639,-3162.8,0.78299
14450,10.701,5.4545,0.05,9.0079e-07,9.0017,6.9169e-07,5.197,9.686e-12,4.0268e-07,-6.9171e-07,-5.1973,0.7712
14451,10.701,5.7273,0,0.00031964,3194.2,0.00010578,3.5607,0.00010531,-0.0053271,-0.00031958,-3192.5,0.76979
14452,10.793,5.6364,0,0.00031678,3165.6,0.00010464,1.1768,0.00010448,0.011638,-0.00031676,-3165,0.78205
14453,10.701,5.6364,0.05,8.5093e-07,8.5034,6.5339e-07,4.9093,1.0613e-11,1.2968e-06,-6.5342e-07,-4.9096,0.77026
14454,10.793,5.8182,0,0.00031741,3171.9,0.00010531,6.786,0.00010441,-0.017198,-0.00031729,-3168.5,0.78104
14455,10.701,5.8182,0.05,1.1525e-07,1.1517,8.8493e-08,0.66482,2.509e-12,-6.4144e-05,-8.8506e-08,-0.66509,0.76925
14456,10.701,5.9091,0,0.00031963,3194.1,0.00010588,4.8333,0.00010524,-0.0039388,-0.00031955,-3191.7,0.76874
14457,10.886,0.27273,0,0.00031453,3143.1,0.00010416,4.3233,0.00010358,-0.0025865,-0.00031446,-3141,0.79337
14458,10.978,0.18182,0,0.00031229,3120.8,0.00010368,7.4027,0.00010269,-0.014311,-0.00031217,-3117.1,0.80474
14459,10.886,0.18182,0.05,1.032e-07,1.0312,7.9248e-08,0.59554,-2.2744e-12,7.5711e-05,-7.9235e-08,-0.59525,0.79284
14460,10.886,0.090909,0,0.00031448,3142.6,0.00010421,5.2118,0.00010352,-0.0029426,-0.00031439,-3140,0.79234
14461,10.886,0.45455,0,0.00031401,3137.9,0.00010365,0.0093461,0.00010358,-0.52519,-0.00031402,-3138.2,0.79434
14462,10.978,0.36364,0,0.00031168,3114.7,0.00010303,2.0618,0.00010275,0.011931,-0.00031165,-3113.7,0.80573
14463,10.886,0.36364,0.05,8.4636e-07,8.4578,6.4991e-07,4.8833,-1.0632e-11,4.0482e-06,-6.4989e-07,-4.8829,0.79384
14464,10.886,0.63636,0,0.00031358,3133.7,0.00010372,0.0054473,0.00010309,-4.7225,-0.00031366,-3136,0.79524
14465,10.978,0.54545,0,0.00031126,3110.4,0.00010282,0.0046425,0.00010254,-2.0709,-0.00031129,-3111.5,0.80666
14466,10.886,0.54545,0.05,8.9652e-07,8.959,6.8843e-07,5.1727,-8.8212e-12,3.8049e-06,-6.8841e-07,-5.1723,0.79477
14467,10.886,0.81818,0,0.00031318,3129.6,0.00010378,0.005882,0.00010262,-8.7792,-0.00031333,-3134,0.79607
14468,10.978,0.72727,0,0.00031086,3106.4,0.00010288,0.0059946,0.00010208,-6.0372,-0.00031096,-3109.4,0.80752
14469,10.886,0.72727,0.05,9.0108e-07,9.0046,6.9193e-07,5.199,-8.756e-12,3.2621e-06,-6.9191e-07,-5.1986,0.79563
14470,10.886,1,0,0.0003128,3125.8,0.00010385,0.0055645,0.00010216,-12.701,-0.00031301,-3132.1,0.79683
14471,10.978,0.90909,0,0.00031047,3102.6,0.00010295,0.0055206,0.00010163,-9.8812,-0.00031064,-3107.5,0.80831
14472,10.886,0.90909,0.05,9.0269e-07,9.0206,6.9316e-07,5.2082,-8.7478e-12,2.9491e-06,-6.9314e-07,-5.2079,0.79643
14473,10.886,1.1818,0,0.00031243,3122.1,0.00010392,0.0053755,0.00010173,-16.458,-0.00031271,-3130.3,0.79752
14474,10.978,1.0909,0,0.00031011,3098.9,0.00010301,0.0054246,0.0001012,-13.577,-0.00031034,-3105.7,0.80903
14475,10.886,1.0909,0.05,9.0411e-07,9.0349,6.9425e-07,5.2164,-7.7751e-12,4.0362e-06,-6.9423e-07,-5.2162,0.79716
14476,10.886,1.3636,0,0.00031209,3118.7,0.00010398,0.0051106,0.00010131,-20.014,-0.00031242,-3128.7,0.79815
14477,10.978,1.2727,0,0.00030977,3095.5,0.00010307,0.0051898,0.00010079,-17.094,-0.00031005,-3104,0.80969
14478,10.886,1.2727,0.05,9.055e-07,9.0487,6.9532e-07,5.2244,-6.8443e-12,4.3116e-06,-6.953e-07,-5.2242,0.79782
14479,10.886,1.5455,0,0.00031177,3115.6,0.00010404,0.0048281,0.00010093,-23.334,-0.00031216,-3127.2,0.79871
14480,10.978,1.4545,0,0.00030945,3092.3,0.00010313,0.0049498,0.00010041,-20.397,-0.00030979,-3102.5,0.81028
14481,10.886,1.4545,0.05,9.0683e-07,9.0621,6.9634e-07,5.2321,-5.0463e-12,4.629e-06,-6.9633e-07,-5.2319,0.79841
14482,10.886,1.7273,0,0.00031148,3112.7,0.00010409,0.0045287,0.00010058,-26.38,-0.00031192,-3125.8,0.79921
14483,10.978,1.6364,0,0.00030915,3089.4,0.00010318,0.0046827,0.00010006,-23.451,-0.00030954,-3101,0.8108
14484,10.886,1.6364,0.05,9.0809e-07,9.0747,6.9731e-07,5.2393,-5.959e-12,4.7904e-06,-6.973e-07,-5.2392,0.79894
14485,10.886,1.9091,0,0.00031123,3110.1,0.00010414,0.0042307,0.00010027,-29.112,-0.00031171,-3124.6,0.79964
14486,10.978,1.8182,0,0.00030889,3086.7,0.00010323,0.0044113,9.9739e-05,-26.221,-0.00030933,-3099.8,0.81126
14487,10.886,1.8182,0.05,9.0925e-07,9.0862,6.982e-07,5.246,-5.9623e-12,4.4424e-06,-6.9819e-07,-5.2458,0.7994
14488,10.886,2.0909,0,0.000311,3107.9,0.00010419,0.0039461,9.9996e-05,-31.495,-0.00031153,-3123.5,0.8
14489,10.978,2,0,0.00030866,3084.4,0.00010327,0.0041457,9.9457e-05,-28.672,-0.00030913,-3098.7,0.81165
14490,10.886,2,0.05,9.1028e-07,9.0965,6.9898e-07,5.2519,-3.2853e-12,4.113e-06,-6.9898e-07,-5.2518,0.7998
14491,10.886,2.2727,0,0.00031082,3106,0.00010423,0.0036892,9.9766e-05,-33.496,-0.00031137,-3122.6,0.80029
14492,10.978,2.1818,0,0.00030846,3082.4,0.00010331,0.0038981,9.9216e-05,-30.771,-0.00030897,-3097.7,0.81198
14493,10.886,2.1818,0.05,9.1117e-07,9.1054,6.9966e-07,5.257,-3.3292e-12,3.4756e-06,-6.9966e-07,-5.257,0.80013
14494,10.886,2.4545,0,0.00031067,3104.6,0.00010425,0.0034747,9.9585e-05,-35.086,-0.00031125,-3122,0.80052
14495,10.978,2.3636,0,0.0003083,3080.8,0.00010334,0.003682,9.9019e-05,-32.489,-0.00030884,-3097,0.81224
14496,10.886,2.3636,0.05,9.1189e-07,9.1127,7.0023e-07,5.2612,-2.473e-12,3.7986e-06,-7.0021e-07,-5.2611,0.80039
14497,10.886,2.6364,0,0.00031056,3103.5,0.00010428,0.0033132,9.9453e-05,-36.239,-0.00031116,-3121.5,0.80069
14498,10.978,2.5455,0,0.00030817,3079.6,0.00010337,0.0035107,9.8868e-05,-33.8,-0.00030873,-3096.4,0.81244
14499,10.886,2.5455,0.05,9.1245e-07,9.1182,7.0065e-07,5.2644,-2.5404e-12,3.3215e-06,-7.0065e-07,-5.2644,0.80059
14500,10.886,2.8182,0,0.0003105,3102.9,0.00010429,0.0032119,9.9373e-05,-36.938,-0.00031111,-3121.2,0.80079
14501,10.978,2.7273,0,0.00030809,3078.8,0.00010338,0.0033903,9.8767e-05,-34.686,-0.00030867,-3096,0.81257
14502,10.886,2.7273,0.05,9.1283e-07,9.122,7.0094e-07,5.2666,-7.9377e-13,1.8157e-06,-7.0093e-07,-5.2666,0.80072
14503,10.886,3,0,0.00031048,3102.6,0.00010429,0.0031773,9.9346e-05,-37.172,-0.00031109,-3121.1,0.80082
14504,10.978,2.9091,0,0.00030805,3078.4,0.00010339,0.0033277,9.8716e-05,-35.132,-0.00030863,-3095.8,0.81263
14505,10.886,2.9091,0.05,9.1301e-07,9.1238,7.0108e-07,5.2677,3.8933e-14,1.7224e-06,-7.0108e-07,-5.2676,0.80078
14506,10.886,3.1818,0,0.0003105,3102.9,0.00010429,0.0032122,9.9373e-05,-36.938,-0.00031111,-3121.2,0.80079
14507,10.978,3.0909,0,0.00030805,3078.4,0.00010339,0.0033278,9.8716e-05,-35.132,-0.00030863,-3095.8,0.81263
14508,10.886,3.0909,0.05,9.1301e-07,9.1238,7.0108e-07,5.2677,-3.8942e-14,6.6134e-07,-7.0108e-07,-5.2677,0.80078
14509,10.886,3.3636,0,0.00031056,3103.5,0.00010428,0.0033133,9.9453e-05,-36.239,-0.00031116,-3121.5,0.80069
14510,10.978,3.2727,0,0.00030809,3078.8,0.00010338,0.0033906,9.8767e-05,-34.686,-0.00030867,-3096,0.81257
14511,10.886,3.2727,0.05,9.1283e-07,9.122,7.0093e-07,5.2666,7.9296e-13,5.6369e-07,-7.0094e-07,-5.2666,0.80072
14512,10.886,3.5455,0,0.00031067,3104.6,0.00010425,0.0034748,9.9585e-05,-35.086,-0.00031125,-3122,0.80052
14513,10.978,3.4545,0,0.00030817,3079.6,0.00010337,0.0035104,9.8868e-05,-33.8,-0.00030873,-3096.4,0.81244
14514,10.886,3.4545,0.05,9.1245e-07,9.1182,7.0065e-07,5.2644,7.2101e-13,4.7729e-07,-7.0065e-07,-5.2644,0.80059
14515,10.886,3.7273,0,0.00031082,3106,0.00010423,0.0036888,9.9766e-05,-33.496,-0.00031137,-3122.6,0.80029
14516,10.978,3.6364,0,0.0003083,3080.8,0.00010334,0.0036823,9.9019e-05,-32.489,-0.00030884,-3097,0.81224
14517,10.886,3.6364,0.05,9.1189e-07,9.1127,7.0022e-07,5.2612,3.383e-12,1.6176e-09,-7.0023e-07,-5.2612,0.80039
14518,10.886,3.9091,0,0.000311,3107.9,0.00010419,0.0039449,9.9996e-05,-31.495,-0.00031153,-3123.5,0.8
14519,10.978,3.8182,0,0.00030846,3082.5,0.00010331,0.0038973,9.9216e-05,-30.771,-0.00030897,-3097.7,0.81198
14520,10.886,3.8182,0.05,9.1117e-07,9.1054,6.9966e-07,5.257,3.3231e-12,7.3559e-07,-6.9966e-07,-5.257,0.80013
14521,10.886,4.0909,0,0.00031123,3110.1,0.00010414,0.0042303,0.00010027,-29.112,-0.00031171,-3124.6,0.79964
14522,10.978,4,0,0.00030866,3084.4,0.00010327,0.0041448,9.9457e-05,-28.672,-0.00030913,-3098.7,0.81165
14523,10.886,4,0.05,9.1028e-07,9.0965,6.9898e-07,5.2518,3.2744e-12,-8.0902e-07,-6.9899e-07,-5.2519,0.7998
14524,10.886,4.2727,0,0.00031148,3112.7,0.00010409,0.0045285,0.00010058,-26.38,-0.00031192,-3125.8,0.79921
14525,10.978,4.1818,0,0.00030889,3086.7,0.00010323,0.0044112,9.9739e-05,-26.221,-0.00030933,-3099.8,0.81126
14526,10.886,4.1818,0.05,9.0925e-07,9.0862,6.9819e-07,5.2459,5.0553e-12,-1.0283e-06,-6.9819e-07,-5.246,0.7994
14527,10.886,4.4545,0,0.00031177,3115.6,0.00010404,0.0048273,0.00010093,-23.334,-0.00031216,-3127.2,0.79871
14528,10.978,4.3636,0,0.00030915,3089.4,0.00010318,0.0046827,0.00010006,-23.451,-0.00030954,-3101,0.8108
14529,10.886,4.3636,0.05,9.0809e-07,9.0747,6.973e-07,5.2392,5.0419e-12,-6.947e-07,-6.9731e-07,-5.2393,0.79894
14530,10.886,4.6364,0,0.00031209,3118.7,0.00010398,0.0051097,0.00010131,-20.014,-0.00031242,-3128.7,0.79815
14531,10.978,4.5455,0,0.00030945,3092.3,0.00010313,0.0049492,0.00010041,-20.397,-0.00030979,-3102.5,0.81028
14532,10.886,4.5455,0.05,9.0683e-07,9.0621,6.9633e-07,5.2319,5.9442e-12,-1.7162e-06,-6.9634e-07,-5.2321,0.79841
14533,10.886,4.8182,0,0.00031243,3122.1,0.00010392,0.0053748,0.00010173,-16.458,-0.00031271,-3130.3,0.79752
14534,10.978,4.7273,0,0.00030977,3095.5,0.00010307,0.0051893,0.00010079,-17.094,-0.00031005,-3104,0.80969
14535,10.886,4.7273,0.05,9.055e-07,9.0487,6.953e-07,5.2242,5.9519e-12,-5.282e-07,-6.9531e-07,-5.2244,0.79782
14536,10.886,5,0,0.0003128,3125.8,0.00010385,0.0055637,0.00010216,-12.701,-0.00031301,-3132.1,0.79683
14537,10.978,4.9091,0,0.00031011,3098.9,0.00010301,0.0054238,0.0001012,-13.577,-0.00031034,-3105.7,0.80903
14538,10.886,4.9091,0.05,9.0411e-07,9.0349,6.9424e-07,5.2162,6.8867e-12,-4.9645e-07,-6.9425e-07,-5.2164,0.79716
14539,10.886,5.1818,0,0.00031318,3129.6,0.00010378,0.0058809,0.00010262,-8.7791,-0.00031333,-3134,0.79607
14540,10.978,5.0909,0,0.00031047,3102.6,0.00010295,0.0055192,0.00010163,-9.8812,-0.00031064,-3107.5,0.80831
14541,10.886,5.0909,0.05,9.0269e-07,9.0206,6.9314e-07,5.2079,7.752e-12,-1.02e-06,-6.9316e-07,-5.2082,0.79643
14542,10.886,5.3636,0,0.00031358,3133.7,0.00010372,0.0054468,0.00010309,-4.7225,-0.00031366,-3136,0.79524
14543,10.978,5.2727,0,0.00031086,3106.4,0.00010288,0.0059939,0.00010208,-6.0372,-0.00031096,-3109.4,0.80752
14544,10.886,5.2727,0.05,9.0108e-07,9.0046,6.9191e-07,5.1986,8.7872e-12,-7.2055e-08,-6.9192e-07,-5.1989,0.79563
14545,10.886,5.5455,0,0.00031401,3137.9,0.00010365,0.0093456,0.00010358,-0.52517,-0.00031402,-3138.2,0.79434
14546,10.978,5.4545,0,0.00031126,3110.4,0.00010282,0.0046421,0.00010254,-2.0708,-0.00031129,-3111.5,0.80666
14547,10.886,5.4545,0.05,8.9652e-07,8.959,6.8841e-07,5.1724,9.7285e-12,3.7261e-07,-6.8843e-07,-5.1726,0.79477
14548,10.886,5.7273,0,0.00031453,3143.1,0.00010416,4.3233,0.00010358,-0.0025875,-0.00031446,-3141,0.79337
14549,10.978,5.6364,0,0.00031168,3114.7,0.00010303,2.0618,0.00010275,0.011929,-0.00031165,-3113.7,0.80573
14550,10.886,5.6364,0.05,8.4636e-07,8.4578,6.4989e-07,4.8829,9.7581e-12,1.0568e-06,-6.4991e-07,-4.8833,0.79384
14551,10.978,5.8182,0,0.00031229,3120.8,0.00010368,7.4027,0.00010269,-0.014311,-0.00031217,-3117.1,0.80474
14552,10.886,5.8182,0.05,1.032e-07,1.0312,7.9236e-08,0.59524,3.6906e-12,-7.0605e-05,-7.9246e-08,-0.59553,0.79284
14553,10.886,5.9091,0,0.00031448,3142.6,0.00010421,5.2118,0.00010352,-0.0029429,-0.00031439,-3140,0.79234
14554,11.07,0.27273,0,0.00030943,3092.2,0.00010254,5.0594,0.00010186,-0.0011307,-0.00030935,-3089.7,0.81717
14555,11.163,0.18182,0,0.0003072,3069.9,0.00010204,7.9998,0.00010098,-0.012026,-0.00030706,-3065.9,0.82865
14556,11.07,0.18182,0.05,9.1794e-08,0.91731,7.0491e-08,0.52974,-2.7173e-12,6.8305e-05,-7.0481e-08,-0.52947,0.81664
14557,11.07,0.090909,0,0.00030935,3091.3,0.00010255,5.5793,0.00010181,-0.0022433,-0.00030925,-3088.6,0.81615
14558,11.07,0.45455,0,0.00030893,3087.2,0.00010199,0.49285,0.00010192,0.0078987,-0.00030892,-3086.9,0.81812
14559,11.163,0.36364,0,0.00030661,3064,0.00010142,2.912,0.00010104,0.010923,-0.00030656,-3062.5,0.82963
14560,11.07,0.36364,0.05,8.4175e-07,8.4117,6.4637e-07,4.8566,-1.0679e-11,2.8535e-06,-6.4635e-07,-4.8563,0.81763
14561,11.07,0.63636,0,0.00030853,3083.2,0.00010198,0.0052765,0.00010153,-3.405,-0.00030859,-3084.9,0.81901
14562,11.163,0.54545,0,0.0003062,3059.9,0.00010109,0.0052387,0.00010097,-0.93285,-0.00030622,-3060.4,0.83054
14563,11.07,0.54545,0.05,8.9218e-07,8.9156,6.8509e-07,5.1476,-8.8584e-12,3.3907e-06,-6.8507e-07,-5.1473,0.81855
14564,11.07,0.81818,0,0.00030815,3079.3,0.00010204,0.0056733,0.00010109,-7.1579,-0.00030827,-3082.9,0.81983
14565,11.163,0.72727,0,0.00030582,3056.1,0.00010115,0.0059104,0.00010054,-4.6064,-0.0003059,-3058.4,0.83139
14566,11.07,0.72727,0.05,8.966e-07,8.9598,6.8849e-07,5.1731,-9.688e-12,2.4626e-06,-6.8847e-07,-5.1728,0.8194
14567,11.07,1,0,0.00030778,3075.7,0.0001021,0.0054048,0.00010067,-10.776,-0.00030797,-3081.1,0.82058
14568,11.163,0.90909,0,0.00030546,3052.5,0.00010121,0.0054411,0.00010012,-8.157,-0.0003056,-3056.6,0.83217
14569,11.07,0.90909,0.05,8.9803e-07,8.9741,6.8958e-07,5.1813,-6.9503e-12,2.7715e-06,-6.8957e-07,-5.1811,0.82018
14570,11.07,1.1818,0,0.00030744,3072.3,0.00010216,0.0052548,0.00010027,-14.231,-0.00030768,-3079.4,0.82126
14571,11.163,1.0909,0,0.00030512,3049.1,0.00010126,0.0053506,9.9721e-05,-11.562,-0.00030531,-3054.8,0.83288
14572,11.07,1.0909,0.05,8.9926e-07,8.9864,6.9053e-07,5.1884,-6.9188e-12,3.9915e-06,-6.9051e-07,-5.1882,0.8209
14573,11.07,1.3636,0,0.00030712,3069.1,0.00010222,0.0050398,9.9886e-05,-17.493,-0.00030741,-3077.8,0.82188
14574,11.163,1.2727,0,0.00030479,3045.8,0.00010131,0.0051504,9.9344e-05,-14.792,-0.00030504,-3053.2,0.83353
14575,11.07,1.2727,0.05,9.0044e-07,8.9982,6.9144e-07,5.1953,-6.9194e-12,4.4335e-06,-6.9142e-07,-5.195,0.82155
14576,11.07,1.5455,0,0.00030682,3066.1,0.00010227,0.0048116,9.9534e-05,-20.53,-0.00030717,-3076.3,0.82244
14577,11.163,1.4545,0,0.00030449,3042.8,0.00010136,0.0049526,9.8992e-05,-17.819,-0.00030479,-3051.7,0.83411
14578,11.07,1.4545,0.05,9.0158e-07,9.0096,6.9231e-07,5.2018,-5.9928e-12,4.2078e-06,-6.9229e-07,-5.2016,0.82214
14579,11.07,1.7273,0,0.00030655,3063.4,0.00010232,0.0045697,9.9213e-05,-23.309,-0.00030694,-3075,0.82293
14580,11.163,1.6364,0,0.00030422,3040.1,0.00010141,0.004734,9.8668e-05,-20.61,-0.00030456,-3050.3,0.83463
14581,11.07,1.6364,0.05,9.0264e-07,9.0202,6.9312e-07,5.2079,-4.1994e-12,4.3343e-06,-6.9311e-07,-5.2078,0.82266
14582,11.07,1.9091,0,0.00030631,3061,0.00010236,0.0043286,9.8925e-05,-25.797,-0.00030675,-3073.8,0.82335
14583,11.163,1.8182,0,0.00030397,3037.6,0.00010145,0.0045132,9.8375e-05,-23.136,-0.00030436,-3049.1,0.83508
14584,11.07,1.8182,0.05,9.0362e-07,9.0299,6.9387e-07,5.2135,-3.2968e-12,4.4912e-06,-6.9386e-07,-5.2134,0.82312
14585,11.07,2.0909,0,0.00030611,3059,0.0001024,0.0040982,9.8675e-05,-27.963,-0.00030657,-3072.8,0.82371
14586,11.163,2,0,0.00030375,3035.5,0.00010149,0.0042972,9.8117e-05,-25.367,-0.00030418,-3048.1,0.83547
14587,11.07,2,0.05,9.0448e-07,9.0386,6.9454e-07,5.2185,-3.3274e-12,4.0322e-06,-6.9453e-07,-5.2184,0.82351
14588,11.07,2.2727,0,0.00030593,3057.2,0.00010243,0.0038901,9.8466e-05,-29.778,-0.00030643,-3072,0.824
14589,11.163,2.1818,0,0.00030357,3033.6,0.00010153,0.0040961,9.7896e-05,-27.274,-0.00030403,-3047.2,0.83579
14590,11.07,2.1818,0.05,9.0523e-07,9.046,6.9511e-07,5.2228,-3.3642e-12,3.4813e-06,-6.951e-07,-5.2227,0.82383
14591,11.07,2.4545,0,0.0003058,3055.9,0.00010246,0.0037162,9.83e-05,-31.218,-0.00030632,-3071.3,0.82422
14592,11.163,2.3636,0,0.00030342,3032.1,0.00010155,0.003921,9.7716e-05,-28.832,-0.0003039,-3046.4,0.83605
14593,11.07,2.3636,0.05,9.0583e-07,9.0521,6.9557e-07,5.2262,-3.4118e-12,3.56e-06,-6.9556e-07,-5.2262,0.82409
14594,11.07,2.6364,0,0.0003057,3054.9,0.00010247,0.0035853,9.818e-05,-32.261,-0.00030623,-3070.9,0.82439
14595,11.163,2.5455,0,0.00030331,3031,0.00010157,0.0037823,9.7579e-05,-30.02,-0.00030381,-3045.9,0.83624
14596,11.07,2.5455,0.05,9.063e-07,9.0567,6.9593e-07,5.2289,-2.5626e-12,2.6719e-06,-6.9592e-07,-5.2289,0.82429
14597,11.07,2.8182,0,0.00030564,3054.3,0.00010249,0.0035032,9.8108e-05,-32.894,-0.00030618,-3070.6,0.82448
14598,11.163,2.7273,0,0.00030323,3030.2,0.00010159,0.0036846,9.7486e-05,-30.822,-0.00030374,-3045.5,0.83637
14599,11.07,2.7273,0.05,9.0661e-07,9.0599,6.9617e-07,5.2307,-2.6267e-12,2.1921e-06,-6.9616e-07,-5.2307,0.82442
14600,11.07,3,0,0.00030562,3054.1,0.00010249,0.003475,9.8083e-05,-33.106,-0.00030617,-3070.5,0.82452
14601,11.163,2.9091,0,0.00030319,3029.8,0.0001016,0.0036342,9.744e-05,-31.226,-0.00030371,-3045.3,0.83644
14602,11.07,2.9091,0.05,9.0677e-07,9.0614,6.9629e-07,5.2316,-8.7518e-13,1.9273e-06,-6.9629e-07,-5.2316,0.82448
14603,11.07,3.1818,0,0.00030564,3054.3,0.00010249,0.0035032,9.8108e-05,-32.894,-0.00030618,-3070.6,0.82448
14604,11.163,3.0909,0,0.00030319,3029.8,0.0001016,0.0036338,9.744e-05,-31.226,-0.00030371,-3045.3,0.83644
14605,11.07,3.0909,0.05,9.0677e-07,9.0614,6.9629e-07,5.2316,-3.4384e-14,6.9522e-07,-6.9629e-07,-5.2316,0.82448
14606,11.07,3.3636,0,0.0003057,3054.9,0.00010247,0.0035852,9.818e-05,-32.261,-0.00030623,-3070.9,0.82439
14607,11.163,3.2727,0,0.00030323,3030.2,0.00010159,0.0036848,9.7486e-05,-30.822,-0.00030374,-3045.5,0.83637
14608,11.07,3.2727,0.05,9.0661e-07,9.0599,6.9617e-07,5.2307,1.7171e-12,1.1396e-06,-6.9617e-07,-5.2307,0.82442
14609,11.07,3.5455,0,0.0003058,3055.9,0.00010246,0.0037161,9.83e-05,-31.218,-0.00030632,-3071.3,0.82422
14610,11.163,3.4545,0,0.00030331,3031,0.00010157,0.0037822,9.7579e-05,-30.02,-0.00030381,-3045.9,0.83624
14611,11.07,3.4545,0.05,9.063e-07,9.0567,6.9592e-07,5.2289,2.561e-12,-5.7182e-08,-6.9593e-07,-5.2289,0.82429
14612,11.07,3.7273,0,0.00030593,3057.2,0.00010243,0.00389,9.8466e-05,-29.778,-0.00030643,-3072,0.824
14613,11.163,3.6364,0,0.00030342,3032.1,0.00010155,0.0039211,9.7716e-05,-28.832,-0.0003039,-3046.4,0.83605
14614,11.07,3.6364,0.05,9.0583e-07,9.0521,6.9556e-07,5.2262,3.4118e-12,4.7347e-07,-6.9557e-07,-5.2262,0.82409
14615,11.07,3.9091,0,0.00030611,3059,0.0001024,0.0040977,9.8675e-05,-27.963,-0.00030657,-3072.8,0.82371
14616,11.163,3.8182,0,0.00030357,3033.6,0.00010153,0.0040958,9.7896e-05,-27.274,-0.00030403,-3047.2,0.83579
14617,11.07,3.8182,0.05,9.0523e-07,9.046,6.951e-07,5.2227,3.356e-12,1.0005e-06,-6.9511e-07,-5.2228,0.82383
14618,11.07,4.0909,0,0.00030631,3061,0.00010236,0.004328,9.8925e-05,-25.797,-0.00030675,-3073.8,0.82335
14619,11.163,4,0,0.00030375,3035.5,0.00010149,0.0042967,9.8117e-05,-25.367,-0.00030418,-3048.1,0.83547
14620,11.07,4,0.05,9.0448e-07,9.0386,6.9453e-07,5.2184,4.2292e-12,-3.0409e-07,-6.9453e-07,-5.2185,0.82351
14621,11.07,4.2727,0,0.00030655,3063.4,0.00010232,0.0045699,9.9213e-05,-23.309,-0.00030694,-3075,0.82293
14622,11.163,4.1818,0,0.00030397,3037.6,0.00010145,0.0045124,9.8375e-05,-23.136,-0.00030436,-3049.1,0.83508
14623,11.07,4.1818,0.05,9.0362e-07,9.0299,6.9386e-07,5.2134,4.1982e-12,-9.7915e-07,-6.9387e-07,-5.2135,0.82312
14624,11.07,4.4545,0,0.00030682,3066.1,0.00010227,0.0048118,9.9534e-05,-20.53,-0.00030717,-3076.3,0.82244
14625,11.163,4.3636,0,0.00030422,3040.1,0.00010141,0.0047338,9.8668e-05,-20.61,-0.00030456,-3050.3,0.83463
14626,11.07,4.3636,0.05,9.0264e-07,9.0202,6.9311e-07,5.2078,6.008e-12,1.8987e-07,-6.9312e-07,-5.2079,0.82266
14627,11.07,4.6364,0,0.00030712,3069.1,0.00010222,0.0050396,9.9886e-05,-17.493,-0.00030741,-3077.8,0.82188
14628,11.163,4.5455,0,0.00030449,3042.8,0.00010136,0.0049515,9.8992e-05,-17.819,-0.00030479,-3051.7,0.83411
14629,11.07,4.5455,0.05,9.0158e-07,9.0096,6.923e-07,5.2016,5.09e-12,-1.1242e-06,-6.9231e-07,-5.2018,0.82214
14630,11.07,4.8182,0,0.00030744,3072.3,0.00010216,0.0052542,0.00010027,-14.231,-0.00030768,-3079.4,0.82126
14631,11.163,4.7273,0,0.00030479,3045.8,0.00010131,0.0051499,9.9344e-05,-14.792,-0.00030504,-3053.2,0.83353
14632,11.07,4.7273,0.05,9.0044e-07,8.9982,6.9142e-07,5.195,6.9194e-12,-4.556e-07,-6.9144e-07,-5.1952,0.82155
14633,11.07,5,0,0.00030778,3075.7,0.0001021,0.0054035,0.00010067,-10.775,-0.00030797,-3081.1,0.82058
14634,11.163,4.9091,0,0.00030512,3049.1,0.00010126,0.0053497,9.9721e-05,-11.562,-0.00030531,-3054.8,0.83288
14635,11.07,4.9091,0.05,8.9926e-07,8.9864,6.9051e-07,5.1882,7.817e-12,-8.125e-08,-6.9053e-07,-5.1884,0.8209
14636,11.07,5.1818,0,0.00030815,3079.4,0.00010204,0.0056723,0.00010109,-7.1579,-0.00030827,-3082.9,0.81983
14637,11.163,5.0909,0,0.00030546,3052.5,0.00010121,0.0054394,0.00010012,-8.157,-0.0003056,-3056.6,0.83217
14638,11.07,5.0909,0.05,8.9803e-07,8.9741,6.8957e-07,5.1811,8.7727e-12,-1.0228e-06,-6.8958e-07,-5.1813,0.82018
14639,11.07,5.3636,0,0.00030853,3083.2,0.00010198,0.0052759,0.00010153,-3.405,-0.00030859,-3084.9,0.81901
14640,11.163,5.2727,0,0.00030582,3056.1,0.00010115,0.0059096,0.00010054,-4.6063,-0.0003059,-3058.4,0.83139
14641,11.07,5.2727,0.05,8.966e-07,8.9598,6.8847e-07,5.1728,8.8074e-12,-7.2618e-08,-6.8849e-07,-5.1731,0.8194
14642,11.07,5.5455,0,0.00030893,3087.2,0.00010199,0.49288,0.00010192,0.0078987,-0.00030892,-3086.9,0.81812
14643,11.163,5.4545,0,0.0003062,3059.9,0.00010109,0.0052379,0.00010097,-0.93282,-0.00030622,-3060.4,0.83054
14644,11.07,5.4545,0.05,8.9218e-07,8.9156,6.8507e-07,5.1473,9.7459e-12,4.8528e-07,-6.8509e-07,-5.1476,0.81855
14645,11.07,5.7273,0,0.00030943,3092.2,0.00010254,5.0594,0.00010186,-0.0011318,-0.00030935,-3089.7,0.81717
14646,11.163,5.6364,0,0.00030661,3064,0.00010142,2.912,0.00010104,0.010923,-0.00030656,-3062.5,0.82963
14647,11.07,5.6364,0.05,8.4175e-07,8.4117,6.4635e-07,4.8563,1.0722e-11,1.5465e-06,-6.4637e-07,-4.8566,0.81763
14648,11.163,5.8182,0,0.0003072,3069.9,0.00010204,7.9999,0.00010098,-0.012027,-0.00030706,-3065.9,0.82865
14649,11.07,5.8182,0.05,9.1793e-08,0.9173,7.0481e-08,0.52947,2.7172e-12,-6.3497e-05,-7.0491e-08,-0.52974,0.81664
14650,11.07,5.9091,0,0.00030935,3091.4,0.00010255,5.5793,0.00010181,-0.0022442,-0.00030925,-3088.6,0.81615
14651,11.255,0.27273,0,0.00030436,3041.5,0.00010092,5.7678,0.00010015,-0.00035566,-0.00030426,-3038.6,0.84118
14652,11.347,0.18182,0,0.00030212,3019.2,0.00010042,8.5767,9.9275e-05,-0.010192,-0.00030198,-3014.9,0.85277
14653,11.255,0.18182,0.05,8.1072e-08,0.81016,6.2258e-08,0.46788,-2.8411e-12,6.9331e-05,-6.2248e-08,-0.46761,0.84066
14654,11.255,0.090909,0,0.00030424,3040.3,0.00010089,5.9352,0.0001001,-0.001731,-0.00030414,-3037.3,0.84018
14655,11.255,0.45455,0,0.00030387,3036.6,0.0001004,1.4647,0.00010021,0.0067455,-0.00030385,-3035.9,0.84212
14656,11.347,0.36364,0,0.00030155,3013.4,9.9822e-05,3.7258,9.9327e-05,0.0096219,-0.00030148,-3011.5,0.85373
14657,11.255,0.36364,0.05,8.3714e-07,8.3656,6.4283e-07,4.83,-1.0726e-11,1.9375e-06,-6.4281e-07,-4.8297,0.84163
14658,11.255,0.63636,0,0.00030349,3032.8,0.00010026,0.0057622,9.9972e-05,-2.1539,-0.00030353,-3033.9,0.84299
14659,11.347,0.54545,0,0.00030116,3009.6,9.9398e-05,0.16662,9.9375e-05,-0.010875,-0.00030116,-3009.5,0.85463
14660,11.255,0.54545,0.05,8.8781e-07,8.872,6.8174e-07,5.1224,-8.8915e-12,3.3972e-06,-6.8172e-07,-5.1221,0.84253
14661,11.255,0.81818,0,0.00030313,3029.2,0.00010031,0.0057322,9.9563e-05,-5.6246,-0.00030323,-3032,0.8438
14662,11.347,0.72727,0,0.0003008,3006,9.9427e-05,0.0063029,9.8993e-05,-3.2515,-0.00030086,-3007.6,0.85547
14663,11.255,0.72727,0.05,8.9212e-07,8.9151,6.8505e-07,5.1473,-8.8276e-12,3.3971e-06,-6.8503e-07,-5.147,0.84337
14664,11.255,1,0,0.00030279,3025.8,0.00010036,0.0054206,9.9171e-05,-8.9617,-0.00030294,-3030.3,0.84454
14665,11.347,0.90909,0,0.00030046,3002.5,9.9476e-05,0.0055749,9.8606e-05,-6.5308,-0.00030057,-3005.8,0.85623
14666,11.255,0.90909,0.05,8.9341e-07,8.9279,6.8603e-07,5.1547,-8.8267e-12,3.1788e-06,-6.8602e-07,-5.1544,0.84415
14667,11.255,1.1818,0,0.00030246,3022.6,0.00010041,0.0052684,9.8798e-05,-12.141,-0.00030267,-3028.6,0.84521
14668,11.347,1.0909,0,0.00030014,2999.3,9.9524e-05,0.0054126,9.8237e-05,-9.6676,-0.0003003,-3004.1,0.85694
14669,11.255,1.0909,0.05,8.9448e-07,8.9386,6.8685e-07,5.1608,-6.9917e-12,4.6652e-06,-6.8684e-07,-5.1606,0.84486
14670,11.255,1.3636,0,0.00030216,3019.5,0.00010046,0.0050784,9.8448e-05,-15.135,-0.00030242,-3027.1,0.84582
14671,11.347,1.2727,0,0.00029983,2996.3,9.9571e-05,0.0052084,9.7888e-05,-12.637,-0.00030005,-3002.6,0.85758
14672,11.255,1.2727,0.05,8.955e-07,8.9488,6.8764e-07,5.1667,-6.0669e-12,4.6864e-06,-6.8763e-07,-5.1665,0.8455
14673,11.255,1.5455,0,0.00030189,3016.8,0.00010051,0.0048854,9.8123e-05,-17.916,-0.00030219,-3025.7,0.84637
14674,11.347,1.4545,0,0.00029955,2993.4,9.9615e-05,0.005028,9.7563e-05,-15.412,-0.00029981,-3001.1,0.85815
14675,11.255,1.4545,0.05,8.9647e-07,8.9586,6.8839e-07,5.1723,-5.1343e-12,4.9403e-06,-6.8837e-07,-5.1721,0.84608
14676,11.255,1.7273,0,0.00030163,3014.2,0.00010055,0.0046846,9.7828e-05,-20.455,-0.00030198,-3024.4,0.84685
14677,11.347,1.6364,0,0.00029929,2990.9,9.9656e-05,0.0048389,9.7264e-05,-17.966,-0.0002996,-2999.8,0.85866
14678,11.255,1.6364,0.05,8.9738e-07,8.9676,6.8908e-07,5.1776,-5.143e-12,5.0587e-06,-6.8907e-07,-5.1774,0.84659
14679,11.255,1.9091,0,0.00030141,3012,0.00010059,0.0044863,9.7564e-05,-22.723,-0.00030179,-3023.3,0.84727
14680,11.347,1.8182,0,0.00029906,2988.6,9.9694e-05,0.0046538,9.6995e-05,-20.273,-0.0002994,-2998.7,0.85911
14681,11.255,1.8182,0.05,8.9821e-07,8.9759,6.8972e-07,5.1823,-5.1619e-12,4.6002e-06,-6.8971e-07,-5.1821,0.84704
14682,11.255,2.0909,0,0.00030122,3010.1,0.00010062,0.0042976,9.7335e-05,-24.694,-0.00030163,-3022.3,0.84762
14683,11.347,2,0,0.00029886,2986.5,9.9727e-05,0.0044744,9.6758e-05,-22.305,-0.00029923,-2997.6,0.85949
14684,11.255,2,0.05,8.9894e-07,8.9832,6.9028e-07,5.1865,-3.3678e-12,4.3917e-06,-6.9027e-07,-5.1864,0.84743
14685,11.255,2.2727,0,0.00030105,3008.5,0.00010065,0.004128,9.7144e-05,-26.343,-0.00030149,-3021.6,0.84791
14686,11.347,2.1818,0,0.00029869,2984.8,9.9756e-05,0.0043095,9.6556e-05,-24.04,-0.00029909,-2996.8,0.85981
14687,11.255,2.1818,0.05,8.9957e-07,8.9895,6.9076e-07,5.1901,-3.4012e-12,4.1681e-06,-6.9075e-07,-5.19,0.84775
14688,11.255,2.4545,0,0.00030093,3007.2,0.00010067,0.0039869,9.6992e-05,-27.65,-0.00030139,-3020.9,0.84813
14689,11.347,2.3636,0,0.00029855,2983.4,9.978e-05,0.0041663,9.6391e-05,-25.456,-0.00029897,-2996.1,0.86006
14690,11.255,2.3636,0.05,9.0008e-07,8.9946,6.9115e-07,5.1931,-2.5355e-12,3.8208e-06,-6.9115e-07,-5.193,0.848
14691,11.255,2.6364,0,0.00030084,3006.3,0.00010069,0.0038807,9.6883e-05,-28.596,-0.00030131,-3020.5,0.84829
14692,11.347,2.5455,0,0.00029844,2982.4,9.9798e-05,0.0040533,9.6266e-05,-26.535,-0.00029889,-2995.6,0.86025
14693,11.255,2.5455,0.05,9.0047e-07,8.9985,6.9145e-07,5.1953,-1.6771e-12,3.4594e-06,-6.9145e-07,-5.1952,0.84819
14694,11.255,2.8182,0,0.00030078,3005.7,0.0001007,0.0038142,9.6816e-05,-29.17,-0.00030127,-3020.2,0.84839
14695,11.347,2.7273,0,0.00029837,2981.7,9.981e-05,0.003974,9.6182e-05,-27.262,-0.00029883,-2995.2,0.86038
14696,11.255,2.7273,0.05,9.0073e-07,9.0011,6.9165e-07,5.1968,-1.7312e-12,2.8065e-06,-6.9165e-07,-5.1968,0.84832
14697,11.255,3,0,0.00030076,3005.5,0.0001007,0.0037913,9.6794e-05,-29.362,-0.00030125,-3020.1,0.84842
14698,11.347,2.9091,0,0.00029834,2981.3,9.9817e-05,0.0039328,9.6139e-05,-27.629,-0.0002988,-2995,0.86044
14699,11.255,2.9091,0.05,9.0087e-07,9.0024,6.9176e-07,5.1976,2.9741e-14,2.6073e-06,-6.9175e-07,-5.1976,0.84839
14700,11.255,3.1818,0,0.00030078,3005.7,0.0001007,0.0038139,9.6816e-05,-29.17,-0.00030127,-3020.2,0.84839
14701,11.347,3.0909,0,0.00029834,2981.3,9.9817e-05,0.0039326,9.6139e-05,-27.629,-0.0002988,-2995,0.86044
14702,11.255,3.0909,0.05,9.0087e-07,9.0024,6.9175e-07,5.1976,-2.9825e-14,1.4455e-06,-6.9175e-07,-5.1976,0.84839
14703,11.255,3.3636,0,0.00030084,3006.3,0.00010069,0.0038808,9.6883e-05,-28.596,-0.00030131,-3020.5,0.84829
14704,11.347,3.2727,0,0.00029837,2981.7,9.981e-05,0.0039739,9.6182e-05,-27.262,-0.00029883,-2995.2,0.86038
14705,11.255,3.2727,0.05,9.0073e-07,9.0011,6.9165e-07,5.1968,1.7304e-12,1.2411e-06,-6.9165e-07,-5.1968,0.84832
14706,11.255,3.5455,0,0.00030093,3007.2,0.00010067,0.003987,9.6992e-05,-27.65,-0.00030139,-3020.9,0.84813
14707,11.347,3.4545,0,0.00029844,2982.4,9.9798e-05,0.0040533,9.6266e-05,-26.535,-0.00029889,-2995.6,0.86025
14708,11.255,3.4545,0.05,9.0047e-07,8.9985,6.9145e-07,5.1952,2.583e-12,1.3024e-06,-6.9145e-07,-5.1953,0.84819
14709,11.255,3.7273,0,0.00030105,3008.5,0.00010065,0.0041278,9.7144e-05,-26.343,-0.00030149,-3021.6,0.84791
14710,11.347,3.6364,0,0.00029855,2983.4,9.978e-05,0.0041661,9.6391e-05,-25.456,-0.00029897,-2996.1,0.86006
14711,11.255,3.6364,0.05,9.0008e-07,8.9946,6.9115e-07,5.193,2.5346e-12,9.141e-07,-6.9115e-07,-5.1931,0.848
14712,11.255,3.9091,0,0.00030122,3010.1,0.00010062,0.0042973,9.7335e-05,-24.694,-0.00030163,-3022.4,0.84762
14713,11.347,3.8182,0,0.00029869,2984.8,9.9756e-05,0.0043091,9.6556e-05,-24.04,-0.00029909,-2996.8,0.85981
14714,11.255,3.8182,0.05,8.9957e-07,8.9895,6.9075e-07,5.19,3.3964e-12,1.0345e-06,-6.9076e-07,-5.1901,0.84775
14715,11.255,4.0909,0,0.00030141,3012,0.00010059,0.0044856,9.7564e-05,-22.723,-0.00030179,-3023.3,0.84727
14716,11.347,4,0,0.00029886,2986.5,9.9727e-05,0.0044743,9.6758e-05,-22.305,-0.00029923,-2997.6,0.85949
14717,11.255,4,0.05,8.9894e-07,8.9832,6.9027e-07,5.1864,3.3644e-12,5.6419e-07,-6.9028e-07,-5.1865,0.84743
14718,11.255,4.2727,0,0.00030163,3014.2,0.00010055,0.0046833,9.7828e-05,-20.455,-0.00030198,-3024.4,0.84685
14719,11.347,4.1818,0,0.00029906,2988.6,9.9694e-05,0.0046528,9.6995e-05,-20.273,-0.0002994,-2998.7,0.85911
14720,11.255,4.1818,0.05,8.9821e-07,8.9759,6.8971e-07,5.1821,4.2467e-12,-1.0109e-07,-6.8972e-07,-5.1823,0.84704
14721,11.255,4.4545,0,0.00030189,3016.8,0.00010051,0.0048839,9.8123e-05,-17.916,-0.00030219,-3025.7,0.84637
14722,11.347,4.3636,0,0.00029929,2990.9,9.9656e-05,0.0048387,9.7264e-05,-17.966,-0.0002996,-2999.8,0.85866
14723,11.255,4.3636,0.05,8.9738e-07,8.9676,6.8907e-07,5.1774,5.1286e-12,6.8799e-07,-6.8908e-07,-5.1775,0.84659
14724,11.255,4.6364,0,0.00030216,3019.5,0.00010046,0.0050771,9.8448e-05,-15.135,-0.00030242,-3027.1,0.84582
14725,11.347,4.5455,0,0.00029955,2993.4,9.9615e-05,0.0050272,9.7563e-05,-15.412,-0.00029981,-3001.1,0.85815
14726,11.255,4.5455,0.05,8.9647e-07,8.9586,6.8837e-07,5.1721,6.9399e-12,-7.1882e-07,-6.8839e-07,-5.1723,0.84608
14727,11.255,4.8182,0,0.00030246,3022.6,0.00010041,0.0052676,9.8798e-05,-12.141,-0.00030267,-3028.6,0.84521
14728,11.347,4.7273,0,0.00029983,2996.3,9.9571e-05,0.0052075,9.7888e-05,-12.637,-0.00030005,-3002.6,0.85758
14729,11.255,4.7273,0.05,8.955e-07,8.9488,6.8763e-07,5.1665,6.0552e-12,1.9477e-07,-6.8764e-07,-5.1667,0.8455
14730,11.255,5,0,0.00030279,3025.8,0.00010036,0.0054193,9.9171e-05,-8.9617,-0.00030294,-3030.3,0.84454
14731,11.347,4.9091,0,0.00030014,2999.3,9.9524e-05,0.0054117,9.8237e-05,-9.6676,-0.0003003,-3004.1,0.85694
14732,11.255,4.9091,0.05,8.9448e-07,8.9386,6.8684e-07,5.1606,6.9917e-12,9.6349e-08,-6.8685e-07,-5.1608,0.84486
14733,11.255,5.1818,0,0.00030313,3029.2,0.00010031,0.0057307,9.9563e-05,-5.6245,-0.00030323,-3032,0.8438
14734,11.347,5.0909,0,0.00030046,3002.5,9.9476e-05,0.0055729,9.8606e-05,-6.5307,-0.00030057,-3005.8,0.85623
14735,11.255,5.0909,0.05,8.9341e-07,8.9279,6.8601e-07,5.1544,7.8834e-12,-1.5733e-07,-6.8604e-07,-5.1546,0.84415
14736,11.255,5.3636,0,0.00030349,3032.8,0.00010026,0.0057612,9.9972e-05,-2.1539,-0.00030353,-3033.9,0.84299
14737,11.347,5.2727,0,0.0003008,3006,9.9427e-05,0.006302,9.8993e-05,-3.2515,-0.00030086,-3007.6,0.85547
14738,11.255,5.2727,0.05,8.9212e-07,8.9151,6.8504e-07,5.147,8.8867e-12,8.7883e-07,-6.8505e-07,-5.1473,0.84337
14739,11.255,5.5455,0,0.00030387,3036.6,0.0001004,1.4648,0.00010021,0.0067451,-0.00030385,-3035.9,0.84212
14740,11.347,5.4545,0,0.00030116,3009.6,9.9398e-05,0.16665,9.9375e-05,-0.010871,-0.00030116,-3009.5,0.85463
14741,11.255,5.4545,0.05,8.8781e-07,8.872,6.8172e-07,5.1221,7.9834e-12,1.0086e-06,-6.8174e-07,-5.1224,0.84253
14742,11.255,5.7273,0,0.00030436,3041.5,0.00010092,5.7678,0.00010015,-0.00035582,-0.00030426,-3038.6,0.84118
14743,11.347,5.6364,0,0.00030155,3013.4,9.9822e-05,3.7258,9.9327e-05,0.0096216,-0.00030148,-3011.5,0.85373
14744,11.255,5.6364,0.05,8.3714e-07,8.3656,6.4281e-07,4.8297,9.8367e-12,2.1384e-06,-6.4283e-07,-4.83,0.84163
14745,11.347,5.8182,0,0.00030212,3019.2,0.00010042,8.5767,9.9275e-05,-0.010193,-0.00030198,-3014.9,0.85277
14746,11.255,5.8182,0.05,8.1071e-08,0.81016,6.2248e-08,0.46761,2.841e-12,-6.3647e-05,-6.2258e-08,-0.46788,0.84066
14747,11.255,5.9091,0,0.00030424,3040.3,0.00010089,5.9352,0.0001001,-0.001731,-0.00030414,-3037.3,0.84018
14748,11.44,0.27273,0,0.0002993,2991,9.9308e-05,6.4475,9.845e-05,-2.1301e-05,-0.00029919,-2987.7,0.86539
14749,11.532,0.18182,0,0.00029707,2968.7,9.8797e-05,9.133,9.758e-05,-0.008722,-0.00029692,-2964.1,0.87709
14750,11.44,0.18182,0.05,7.103e-08,0.70981,5.455e-08,0.40995,-7.2358e-13,6.9046e-05,-5.4535e-08,-0.40968,0.86488
14751,11.44,0.090909,0,0.00029915,2989.4,9.9244e-05,6.2792,9.8408e-05,-0.0014043,-0.00029904,-2986.3,0.8644
14752,11.44,0.45455,0,0.00029883,2986.3,9.8815e-05,2.3905,9.8497e-05,0.0056226,-0.00029879,-2985.1,0.86632
14753,11.532,0.36364,0,0.00029651,2963.1,9.8224e-05,4.503,9.7626e-05,0.0082388,-0.00029643,-2960.8,0.87804
14754,11.44,0.36364,0.05,8.3256e-07,8.3198,6.3931e-07,4.8036,-9.8517e-12,3.3463e-06,-6.3929e-07,-4.8033,0.86584
14755,11.44,0.63636,0,0.00029847,2982.7,9.8545e-05,0.008769,9.8414e-05,-0.97042,-0.00029849,-2983.1,0.86718
14756,11.532,0.54545,0,0.00029614,2959.4,9.7826e-05,1.1846,9.7669e-05,-8.4644e-05,-0.00029612,-2958.8,0.87893
14757,11.44,0.54545,0.05,8.8345e-07,8.8284,6.7839e-07,5.0972,-8.905e-12,2.0591e-06,-6.7837e-07,-5.097,0.86673
14758,11.44,0.81818,0,0.00029813,2979.3,9.8591e-05,0.006155,9.8034e-05,-4.1773,-0.0002982,-2981.3,0.86797
14759,11.532,0.72727,0,0.0002958,2956,9.7713e-05,0.0078749,9.745e-05,-1.9718,-0.00029584,-2957,0.87975
14760,11.44,0.72727,0.05,8.8767e-07,8.8706,6.8163e-07,5.1216,-9.7834e-12,2.4177e-06,-6.8161e-07,-5.1213,0.86756
14761,11.44,1,0,0.00029781,2976,9.8636e-05,0.0056029,9.767e-05,-7.2557,-0.00029793,-2979.6,0.8687
14762,11.532,0.90909,0,0.00029548,2952.7,9.7756e-05,0.0060124,9.709e-05,-4.9992,-0.00029556,-2955.2,0.88051
14763,11.44,0.90909,0.05,8.8883e-07,8.8822,6.8252e-07,5.1283,-7.9436e-12,3.6339e-06,-6.8251e-07,-5.128,0.86832
14764,11.44,1.1818,0,0.0002975,2973,9.868e-05,0.0053792,9.7324e-05,-10.182,-0.00029767,-2978,0.86937
14765,11.532,1.0909,0,0.00029517,2949.7,9.7798e-05,0.0056249,9.6747e-05,-7.8898,-0.00029531,-2953.6,0.8812
14766,11.44,1.0909,0.05,8.8977e-07,8.8916,6.8324e-07,5.1337,-7.0124e-12,4.6913e-06,-6.8323e-07,-5.1334,0.86902
14767,11.44,1.3636,0,0.00029722,2970.1,9.8722e-05,0.005177,9.7001e-05,-12.932,-0.00029744,-2976.6,0.86997
14768,11.532,1.2727,0,0.00029489,2946.8,9.7839e-05,0.0053548,9.6424e-05,-10.62,-0.00029507,-2952.1,0.88183
14769,11.44,1.2727,0.05,8.9066e-07,8.9005,6.8393e-07,5.1388,-7.0029e-12,4.6385e-06,-6.8391e-07,-5.1386,0.86965
14770,11.44,1.5455,0,0.00029696,2967.5,9.8762e-05,0.0049949,9.6701e-05,-15.48,-0.00029722,-2975.2,0.87051
14771,11.532,1.4545,0,0.00029462,2944.2,9.7877e-05,0.0051575,9.6124e-05,-13.166,-0.00029484,-2950.7,0.8824
14772,11.44,1.4545,0.05,8.915e-07,8.9089,6.8457e-07,5.1437,-6.0875e-12,5.0056e-06,-6.8456e-07,-5.1434,0.87022
14773,11.44,1.7273,0,0.00029672,2965.2,9.8799e-05,0.0048176,9.6429e-05,-17.801,-0.00029702,-2974,0.87099
14774,11.532,1.6364,0,0.00029438,2941.8,9.7913e-05,0.0049756,9.5849e-05,-15.505,-0.00029464,-2949.5,0.8829
14775,11.44,1.6364,0.05,8.9228e-07,8.9167,6.8517e-07,5.1482,-4.2765e-12,5.3478e-06,-6.8516e-07,-5.1479,0.87073
14776,11.44,1.9091,0,0.00029651,2963.1,9.8832e-05,0.0046482,9.6187e-05,-19.872,-0.00029685,-2973,0.8714
14777,11.532,1.8182,0,0.00029416,2939.6,9.7946e-05,0.004809,9.5601e-05,-17.613,-0.00029446,-2948.4,0.88334
14778,11.44,1.8182,0.05,8.9299e-07,8.9238,6.8571e-07,5.1522,-5.1926e-12,4.3703e-06,-6.857e-07,-5.152,0.87117
14779,11.44,2.0909,0,0.00029633,2961.3,9.8861e-05,0.0044903,9.5977e-05,-21.668,-0.00029669,-2972,0.87174
14780,11.532,2,0,0.00029397,2937.7,9.7975e-05,0.0046537,9.5383e-05,-19.468,-0.0002943,-2947.4,0.88372
14781,11.44,2,0.05,8.9362e-07,8.93,6.8619e-07,5.1558,-4.3099e-12,4.3849e-06,-6.8618e-07,-5.1557,0.87155
14782,11.44,2.2727,0,0.00029618,2959.8,9.8886e-05,0.0043502,9.5801e-05,-23.17,-0.00029657,-2971.3,0.87203
14783,11.532,2.1818,0,0.00029381,2936.1,9.8e-05,0.0045138,9.5198e-05,-21.049,-0.00029417,-2946.6,0.88403
14784,11.44,2.1818,0.05,8.9415e-07,8.9353,6.866e-07,5.1589,-3.4258e-12,4.6657e-06,-6.8659e-07,-5.1588,0.87187
14785,11.44,2.4545,0,0.00029606,2958.6,9.8905e-05,0.0042338,9.5663e-05,-24.357,-0.00029647,-2970.7,0.87225
14786,11.532,2.3636,0,0.00029368,2934.8,9.8021e-05,0.0043943,9.5047e-05,-22.338,-0.00029406,-2945.9,0.88428
14787,11.44,2.3636,0.05,8.9459e-07,8.9397,6.8694e-07,5.1614,-1.6478e-12,3.8927e-06,-6.8693e-07,-5.1613,0.87212
14788,11.44,2.6364,0,0.00029598,2957.7,9.8919e-05,0.0041468,9.5563e-05,-25.217,-0.0002964,-2970.3,0.87241
14789,11.532,2.5455,0,0.00029359,2933.8,9.8036e-05,0.0043002,9.4932e-05,-23.319,-0.00029398,-2945.4,0.88447
14790,11.44,2.5455,0.05,8.9492e-07,8.943,6.8719e-07,5.1633,1.2619e-13,3.7991e-06,-6.8718e-07,-5.1632,0.87231
14791,11.44,2.8182,0,0.00029593,2957.2,9.8928e-05,0.0040922,9.5502e-05,-25.737,-0.00029636,-2970,0.8725
14792,11.532,2.7273,0,0.00029352,2933.2,9.8047e-05,0.0042345,9.4855e-05,-23.98,-0.00029392,-2945.1,0.88459
14793,11.44,2.7273,0.05,8.9514e-07,8.9452,6.8736e-07,5.1646,-8.3174e-13,2.97e-06,-6.8736e-07,-5.1645,0.87244
14794,11.44,3,0,0.00029591,2957,9.8931e-05,0.0040735,9.5482e-05,-25.911,-0.00029634,-2969.9,0.87253
14795,11.532,2.9091,0,0.00029349,2932.8,9.8052e-05,0.0042005,9.4816e-05,-24.312,-0.00029389,-2944.9,0.88466
14796,11.44,2.9091,0.05,8.9525e-07,8.9464,6.8744e-07,5.1652,2.6216e-14,2.8194e-06,-6.8744e-07,-5.1652,0.8725
14797,11.44,3.1818,0,0.00029593,2957.2,9.8928e-05,0.0040922,9.5502e-05,-25.737,-0.00029636,-2970,0.8725
14798,11.532,3.0909,0,0.00029349,2932.8,9.8052e-05,0.0042001,9.4816e-05,-24.312,-0.00029389,-2944.9,0.88466
14799,11.44,3.0909,0.05,8.9525e-07,8.9464,6.8744e-07,5.1652,-2.628e-14,2.187e-06,-6.8744e-07,-5.1652,0.8725
14800,11.44,3.3636,0,0.00029598,2957.7,9.8919e-05,0.0041466,9.5563e-05,-25.217,-0.0002964,-2970.3,0.87241
14801,11.532,3.2727,0,0.00029352,2933.2,9.8047e-05,0.0042347,9.4855e-05,-23.98,-0.00029392,-2945.1,0.88459
14802,11.44,3.2727,0.05,8.9514e-07,8.9452,6.8736e-07,5.1645,8.3174e-13,2.0361e-06,-6.8736e-07,-5.1645,0.87244
14803,11.44,3.5455,0,0.00029606,2958.6,9.8905e-05,0.0042334,9.5663e-05,-24.357,-0.00029647,-2970.7,0.87225
14804,11.532,3.4545,0,0.00029359,2933.8,9.8036e-05,0.0043,9.4932e-05,-23.319,-0.00029398,-2945.4,0.88447
14805,11.44,3.4545,0.05,8.9492e-07,8.943,6.8718e-07,5.1633,-1.276e-13,1.4285e-06,-6.8719e-07,-5.1632,0.87231
14806,11.44,3.7273,0,0.00029618,2959.8,9.8886e-05,0.0043497,9.5801e-05,-23.17,-0.00029657,-2971.3,0.87203
14807,11.532,3.6364,0,0.00029368,2934.8,9.8021e-05,0.0043938,9.5047e-05,-22.338,-0.00029406,-2945.9,0.88428
14808,11.44,3.6364,0.05,8.9459e-07,8.9397,6.8693e-07,5.1613,2.5554e-12,1.8206e-06,-6.8694e-07,-5.1614,0.87212
14809,11.44,3.9091,0,0.00029633,2961.3,9.8861e-05,0.0044902,9.5977e-05,-21.668,-0.00029669,-2972,0.87174
14810,11.532,3.8182,0,0.00029381,2936.1,9.8e-05,0.0045134,9.5198e-05,-21.049,-0.00029417,-2946.6,0.88403
14811,11.44,3.8182,0.05,8.9415e-07,8.9353,6.8659e-07,5.1588,6.9822e-13,1.7622e-06,-6.866e-07,-5.1589,0.87187
14812,11.44,4.0909,0,0.00029651,2963.1,9.8832e-05,0.0046479,9.6187e-05,-19.872,-0.00029685,-2973,0.8714
14813,11.532,4,0,0.00029397,2937.7,9.7975e-05,0.0046537,9.5383e-05,-19.468,-0.0002943,-2947.4,0.88372
14814,11.44,4,0.05,8.9362e-07,8.93,6.8619e-07,5.1557,3.3969e-12,1.3133e-06,-6.8619e-07,-5.1558,0.87155
14815,11.44,4.2727,0,0.00029672,2965.2,9.8799e-05,0.0048176,9.6429e-05,-17.801,-0.00029702,-2974,0.87099
14816,11.532,4.1818,0,0.00029416,2939.6,9.7946e-05,0.0048085,9.5601e-05,-17.613,-0.00029446,-2948.4,0.88334
14817,11.44,4.1818,0.05,8.9299e-07,8.9238,6.857e-07,5.1521,6.1015e-12,6.72e-07,-6.8571e-07,-5.1522,0.87117
14818,11.44,4.4545,0,0.00029696,2967.5,9.8762e-05,0.0049953,9.6701e-05,-15.48,-0.00029722,-2975.2,0.87051
14819,11.532,4.3636,0,0.00029438,2941.8,9.7913e-05,0.0049762,9.5849e-05,-15.505,-0.00029464,-2949.5,0.8829
14820,11.44,4.3636,0.05,8.9228e-07,8.9167,6.8516e-07,5.148,3.3515e-12,1.3041e-06,-6.8517e-07,-5.1481,0.87073
14821,11.44,4.6364,0,0.00029722,2970.1,9.8722e-05,0.0051765,9.7001e-05,-12.932,-0.00029744,-2976.6,0.86997
14822,11.532,4.5455,0,0.00029462,2944.2,9.7877e-05,0.0051572,9.6124e-05,-13.166,-0.00029484,-2950.7,0.8824
14823,11.44,4.5455,0.05,8.915e-07,8.9089,6.8456e-07,5.1435,5.1717e-12,3.5188e-07,-6.8457e-07,-5.1436,0.87022
14824,11.44,4.8182,0,0.0002975,2973,9.868e-05,0.0053784,9.7324e-05,-10.182,-0.00029767,-2978,0.86937
14825,11.532,4.7273,0,0.00029489,2946.8,9.7839e-05,0.0053542,9.6424e-05,-10.62,-0.00029507,-2952.1,0.88183
14826,11.44,4.7273,0.05,8.9066e-07,8.9005,6.8391e-07,5.1386,6.9884e-12,7.2179e-07,-6.8393e-07,-5.1388,0.86965
14827,11.44,5,0,0.00029781,2976,9.8636e-05,0.0056014,9.767e-05,-7.2557,-0.00029793,-2979.6,0.8687
14828,11.532,4.9091,0,0.00029517,2949.7,9.7798e-05,0.0056237,9.6747e-05,-7.8897,-0.00029531,-2953.6,0.8812
14829,11.44,4.9091,0.05,8.8977e-07,8.8916,6.8323e-07,5.1335,7.0048e-12,1.0583e-06,-6.8324e-07,-5.1336,0.86902
14830,11.44,5.1818,0,0.00029813,2979.3,9.8591e-05,0.0061536,9.8034e-05,-4.1773,-0.0002982,-2981.3,0.86797
14831,11.532,5.0909,0,0.00029548,2952.7,9.7756e-05,0.0060111,9.709e-05,-4.9992,-0.00029556,-2955.2,0.88051
14832,11.44,5.0909,0.05,8.8883e-07,8.8822,6.8251e-07,5.128,7.0437e-12,5.1446e-08,-6.8252e-07,-5.1283,0.86832
14833,11.44,5.3636,0,0.00029847,2982.7,9.8545e-05,0.0087694,9.8414e-05,-0.97038,-0.00029849,-2983.1,0.86718
14834,11.532,5.2727,0,0.0002958,2956,9.7713e-05,0.0078744,9.745e-05,-1.9717,-0.00029584,-2957,0.87975
14835,11.44,5.2727,0.05,8.8767e-07,8.8706,6.8161e-07,5.1213,8.8908e-12,1.2138e-06,-6.8163e-07,-5.1216,0.86756
14836,11.44,5.5455,0,0.00029883,2986.3,9.8815e-05,2.3905,9.8497e-05,0.0056228,-0.00029879,-2985.1,0.86632
14837,11.532,5.4545,0,0.00029614,2959.4,9.7826e-05,1.1846,9.7669e-05,-8.3675e-05,-0.00029612,-2958.8,0.87893
14838,11.44,5.4545,0.05,8.8345e-07,8.8284,6.7837e-07,5.097,8.9209e-12,1.579e-06,-6.7839e-07,-5.0972,0.86673
14839,11.44,5.7273,0,0.0002993,2991,9.9308e-05,6.4476,9.845e-05,-2.2576e-05,-0.00029919,-2987.7,0.86539
14840,11.532,5.6364,0,0.00029651,2963.1,9.8224e-05,4.503,9.7626e-05,0.0082383,-0.00029643,-2960.8,0.87804
14841,11.44,5.6364,0.05,8.3256e-07,8.3198,6.3929e-07,4.8033,9.885e-12,2.2773e-06,-6.3931e-07,-4.8036,0.86584
14842,11.532,5.8182,0,0.00029707,2968.7,9.8797e-05,9.133,9.758e-05,-0.0087232,-0.00029692,-2964.1,0.87709
14843,11.44,5.8182,0.05,7.103e-08,0.70981,5.4532e-08,0.40967,1.5915e-12,-6.295e-05,-5.4552e-08,-0.40994,0.86488
14844,11.44,5.9091,0,0.00029915,2989.4,9.9244e-05,6.2792,9.8408e-05,-0.0014056,-0.00029904,-2986.3,0.8644
14845,11.624,0.27273,0,0.00029427,2940.6,9.7701e-05,7.0991,9.6756e-05,3.5881e-05,-0.00029415,-2937.1,0.88981
14846,11.717,0.18182,0,0.00029204,2918.4,9.7181e-05,9.6691,9.5894e-05,-0.0075363,-0.00029188,-2913.6,0.90162
14847,11.624,0.18182,0.05,6.1653e-08,0.6161,4.7347e-08,0.35584,-2.5738e-12,7.119e-05,-4.7337e-08,-0.35557,0.8893
14848,11.624,0.090909,0,0.00029408,2938.8,9.76e-05,6.6116,9.672e-05,-0.0012168,-0.00029397,-2935.5,0.88884
14849,11.624,0.45455,0,0.00029381,2936.1,9.7232e-05,3.271,9.6797e-05,0.0045619,-0.00029376,-2934.5,0.89072
14850,11.717,0.36364,0,0.00029149,2912.9,9.663e-05,5.2442,9.5933e-05,0.0068544,-0.0002914,-2910.3,0.90255
14851,11.624,0.36364,0.05,8.2802e-07,8.2745,6.3583e-07,4.7774,-1.081e-11,3.5929e-06,-6.3581e-07,-4.7772,0.89025
14852,11.624,0.63636,0,0.00029347,2932.7,9.6863e-05,0.19278,9.6833e-05,-0.031243,-0.00029347,-2932.6,0.89157
14853,11.717,0.54545,0,0.00029114,2909.4,9.6257e-05,2.1599,9.597e-05,0.00020879,-0.00029111,-2908.3,0.90343
14854,11.624,0.54545,0.05,8.7911e-07,8.785,6.7506e-07,5.0722,-9.8836e-12,1.9438e-06,-6.7504e-07,-5.0719,0.89113
14855,11.624,0.81818,0,0.00029315,2929.5,9.6879e-05,0.0073765,9.6503e-05,-2.8134,-0.0002932,-2930.9,0.89235
14856,11.717,0.72727,0,0.00029082,2906.2,9.601e-05,0.015676,9.5905e-05,-0.76955,-0.00029083,-2906.6,0.90423
14857,11.624,0.72727,0.05,8.8325e-07,8.8264,6.7824e-07,5.096,-8.9342e-12,2.8278e-06,-6.7821e-07,-5.0958,0.89194
14858,11.624,1,0,0.00029284,2926.4,9.6918e-05,0.0060517,9.6165e-05,-5.6529,-0.00029294,-2929.2,0.89307
14859,11.717,0.90909,0,0.00029051,2903.1,9.6046e-05,0.0070468,9.5571e-05,-3.5587,-0.00029057,-2904.9,0.90498
14860,11.624,0.90909,0.05,8.8431e-07,8.837,6.7905e-07,5.1022,-7.9938e-12,4.4016e-06,-6.7903e-07,-5.1019,0.89269
14861,11.624,1.1818,0,0.00029255,2923.5,9.6956e-05,0.0056277,9.5845e-05,-8.3469,-0.00029269,-2927.7,0.89373
14862,11.717,1.0909,0,0.00029022,2900.2,9.6082e-05,0.0060667,9.5253e-05,-6.2224,-0.00029033,-2903.3,0.90566
14863,11.624,1.0909,0.05,8.8514e-07,8.8453,6.7969e-07,5.107,-7.0545e-12,5.2926e-06,-6.7967e-07,-5.1067,0.89338
14864,11.624,1.3636,0,0.00029229,2920.9,9.6993e-05,0.0053568,9.5545e-05,-10.873,-0.00029247,-2926.3,0.89432
14865,11.717,1.2727,0,0.00028995,2897.5,9.6117e-05,0.0056225,9.4954e-05,-8.7338,-0.0002901,-2901.9,0.90628
14866,11.624,1.2727,0.05,8.8592e-07,8.8531,6.8029e-07,5.1114,-7.0264e-12,5.1122e-06,-6.8027e-07,-5.1112,0.89401
14867,11.624,1.5455,0,0.00029204,2918.4,9.7028e-05,0.005154,9.5269e-05,-13.21,-0.00029226,-2925,0.89485
14868,11.717,1.4545,0,0.0002897,2895,9.6151e-05,0.0053564,9.4676e-05,-11.072,-0.00028989,-2900.6,0.90684
14869,11.624,1.4545,0.05,8.8666e-07,8.8604,6.8084e-07,5.1156,-6.1228e-12,5.071e-06,-6.8084e-07,-5.1155,0.89457
14870,11.624,1.7273,0,0.00029182,2916.2,9.706e-05,0.0049784,9.5018e-05,-15.335,-0.00029208,-2923.8,0.89532
14871,11.717,1.6364,0,0.00028948,2892.8,9.6182e-05,0.0051517,9.4422e-05,-13.215,-0.0002897,-2899.4,0.90734
14872,11.624,1.6364,0.05,8.8733e-07,8.8672,6.8137e-07,5.1196,-5.2088e-12,5.5787e-06,-6.8136e-07,-5.1194,0.89507
14873,11.624,1.9091,0,0.00029162,2914.2,9.7088e-05,0.0048225,9.4795e-05,-17.227,-0.00029191,-2922.8,0.89573
14874,11.717,1.8182,0,0.00028927,2890.8,9.621e-05,0.0049828,9.4194e-05,-15.144,-0.00028953,-2898.3,0.90777
14875,11.624,1.8182,0.05,8.8794e-07,8.8733,6.8183e-07,5.1231,-4.3118e-12,4.7408e-06,-6.8183e-07,-5.1229,0.8955
14876,11.624,2.0909,0,0.00029146,2912.5,9.7114e-05,0.0046825,9.4602e-05,-18.866,-0.00029177,-2921.9,0.89607
14877,11.717,2,0,0.0002891,2889,9.6235e-05,0.004837,9.3994e-05,-16.838,-0.00028938,-2897.4,0.90814
14878,11.624,2,0.05,8.8848e-07,8.8787,6.8225e-07,5.1262,-3.424e-12,4.6785e-06,-6.8224e-07,-5.1261,0.89588
14879,11.624,2.2727,0,0.00029131,2911.1,9.7135e-05,0.0045613,9.4441e-05,-20.235,-0.00029165,-2921.2,0.89635
14880,11.717,2.1818,0,0.00028895,2887.5,9.6257e-05,0.0047101,9.3823e-05,-18.281,-0.00028925,-2896.6,0.90845
14881,11.624,2.1818,0.05,8.8894e-07,8.8833,6.826e-07,5.1288,-3.4512e-12,4.7009e-06,-6.8259e-07,-5.1287,0.89619
14882,11.624,2.4545,0,0.0002912,2910,9.7152e-05,0.0044627,9.4314e-05,-21.316,-0.00029156,-2920.6,0.89657
14883,11.717,2.3636,0,0.00028883,2886.3,9.6275e-05,0.0046049,9.3685e-05,-19.455,-0.00028915,-2895.9,0.9087
14884,11.624,2.3636,0.05,8.8931e-07,8.887,6.8288e-07,5.1309,-7.5729e-13,4.2504e-06,-6.8288e-07,-5.1309,0.89644
14885,11.624,2.6364,0,0.00029112,2909.2,9.7164e-05,0.004389,9.4222e-05,-22.098,-0.00029149,-2920.2,0.89672
14886,11.717,2.5455,0,0.00028873,2885.3,9.6289e-05,0.0045243,9.358e-05,-20.348,-0.00028907,-2895.5,0.90889
14887,11.624,2.5455,0.05,8.896e-07,8.8898,6.831e-07,5.1326,-1.7072e-12,3.9496e-06,-6.831e-07,-5.1325,0.89663
14888,11.624,2.8182,0,0.00029108,2908.8,9.7171e-05,0.0043432,9.4167e-05,-22.571,-0.00029145,-2920,0.89682
14889,11.717,2.7273,0,0.00028867,2884.7,9.6298e-05,0.0044675,9.3509e-05,-20.949,-0.00028902,-2895.1,0.90901
14890,11.624,2.7273,0.05,8.8979e-07,8.8918,6.8325e-07,5.1337,-1.7492e-12,3.3797e-06,-6.8325e-07,-5.1337,0.89675
14891,11.624,3,0,0.00029106,2908.6,9.7174e-05,0.0043273,9.4148e-05,-22.729,-0.00029144,-2919.9,0.89685
14892,11.717,2.9091,0,0.00028864,2884.4,9.6302e-05,0.0044388,9.3473e-05,-21.252,-0.000289,-2895,0.90907
14893,11.624,2.9091,0.05,8.8989e-07,8.8927,6.8332e-07,5.1342,2.3443e-14,3.0375e-06,-6.8332e-07,-5.1342,0.89681
14894,11.624,3.1818,0,0.00029108,2908.8,9.7171e-05,0.004343,9.4167e-05,-22.571,-0.00029145,-2920,0.89682
14895,11.717,3.0909,0,0.00028864,2884.4,9.6302e-05,0.0044385,9.3473e-05,-21.252,-0.000289,-2895,0.90907
14896,11.624,3.0909,0.05,8.8989e-07,8.8927,6.8332e-07,5.1342,-2.3498e-14,1.9688e-06,-6.8332e-07,-5.1342,0.89681
14897,11.624,3.3636,0,0.00029112,2909.2,9.7164e-05,0.0043891,9.4222e-05,-22.098,-0.00029149,-2920.2,0.89672
14898,11.717,3.2727,0,0.00028867,2884.7,9.6298e-05,0.0044674,9.3509e-05,-20.949,-0.00028902,-2895.1,0.90901
14899,11.624,3.2727,0.05,8.8979e-07,8.8918,6.8325e-07,5.1337,1.7491e-12,2.3367e-06,-6.8325e-07,-5.1337,0.89675
14900,11.624,3.5455,0,0.0002912,2910,9.7152e-05,0.0044623,9.4314e-05,-21.316,-0.00029156,-2920.6,0.89657
14901,11.717,3.4545,0,0.00028873,2885.3,9.6289e-05,0.004524,9.358e-05,-20.348,-0.00028907,-2895.5,0.90889
14902,11.624,3.4545,0.05,8.896e-07,8.8898,6.831e-07,5.1325,2.6148e-12,2.0059e-06,-6.831e-07,-5.1326,0.89663
14903,11.624,3.7273,0,0.00029131,2911.1,9.7135e-05,0.0045609,9.4441e-05,-20.235,-0.00029165,-2921.2,0.89635
14904,11.717,3.6364,0,0.00028883,2886.3,9.6275e-05,0.0046049,9.3685e-05,-19.455,-0.00028915,-2895.9,0.9087
14905,11.624,3.6364,0.05,8.8931e-07,8.887,6.8288e-07,5.1309,7.5433e-13,2.1734e-06,-6.8288e-07,-5.1309,0.89644
14906,11.624,3.9091,0,0.00029146,2912.5,9.7114e-05,0.0046823,9.4602e-05,-18.866,-0.00029177,-2921.9,0.89607
14907,11.717,3.8182,0,0.00028895,2887.5,9.6257e-05,0.0047099,9.3823e-05,-18.281,-0.00028925,-2896.6,0.90845
14908,11.624,3.8182,0.05,8.8894e-07,8.8833,6.8259e-07,5.1287,2.5392e-12,1.9263e-06,-6.826e-07,-5.1288,0.89619
14909,11.624,4.0909,0,0.00029162,2914.2,9.7088e-05,0.0048223,9.4795e-05,-17.227,-0.00029191,-2922.8,0.89573
14910,11.717,4,0,0.0002891,2889,9.6235e-05,0.0048365,9.3994e-05,-16.838,-0.00028938,-2897.4,0.90814
14911,11.624,4,0.05,8.8848e-07,8.8787,6.8224e-07,5.1261,3.4223e-12,1.4811e-06,-6.8225e-07,-5.1262,0.89588
14912,11.624,4.2727,0,0.00029182,2916.2,9.706e-05,0.0049784,9.5018e-05,-15.335,-0.00029208,-2923.8,0.89532
14913,11.717,4.1818,0,0.00028927,2890.8,9.621e-05,0.0049825,9.4194e-05,-15.144,-0.00028953,-2898.3,0.90777
14914,11.624,4.1818,0.05,8.8794e-07,8.8733,6.8183e-07,5.1229,5.2176e-12,1.0703e-06,-6.8183e-07,-5.1231,0.8955
14915,11.624,4.4545,0,0.00029204,2918.4,9.7028e-05,0.0051538,9.5269e-05,-13.21,-0.00029226,-2925,0.89485
14916,11.717,4.3636,0,0.00028948,2892.8,9.6182e-05,0.0051522,9.4422e-05,-13.215,-0.0002897,-2899.4,0.90734
14917,11.624,4.3636,0.05,8.8733e-07,8.8672,6.8136e-07,5.1194,6.12e-12,1.8546e-06,-6.8137e-07,-5.1196,0.89507
14918,11.624,4.6364,0,0.00029229,2920.9,9.6993e-05,0.0053563,9.5545e-05,-10.873,-0.00029247,-2926.3,0.89432
14919,11.717,4.5455,0,0.0002897,2895,9.6151e-05,0.0053559,9.4676e-05,-11.072,-0.00028989,-2900.6,0.90684
14920,11.624,4.5455,0.05,8.8666e-07,8.8604,6.8084e-07,5.1155,6.1108e-12,6.4702e-07,-6.8084e-07,-5.1156,0.89457
14921,11.624,4.8182,0,0.00029255,2923.5,9.6956e-05,0.0056268,9.5845e-05,-8.3469,-0.0002927,-2927.7,0.89373
14922,11.717,4.7273,0,0.00028995,2897.5,9.6117e-05,0.0056214,9.4954e-05,-8.7338,-0.0002901,-2901.9,0.90628
14923,11.624,4.7273,0.05,8.8592e-07,8.8531,6.8027e-07,5.1113,5.2117e-12,1.1833e-06,-6.8029e-07,-5.1114,0.89401
14924,11.624,5,0,0.00029284,2926.4,9.6918e-05,0.0060508,9.6165e-05,-5.6528,-0.00029294,-2929.2,0.89307
14925,11.717,4.9091,0,0.00029022,2900.2,9.6082e-05,0.0060664,9.5253e-05,-6.2224,-0.00029033,-2903.3,0.90566
14926,11.624,4.9091,0.05,8.8514e-07,8.8453,6.7967e-07,5.1067,6.1258e-12,1.1464e-06,-6.7969e-07,-5.107,0.89338
14927,11.624,5.1818,0,0.00029315,2929.5,9.6879e-05,0.0073761,9.6503e-05,-2.8133,-0.0002932,-2930.9,0.89235
14928,11.717,5.0909,0,0.00029051,2903.1,9.6046e-05,0.0070454,9.5571e-05,-3.5587,-0.00029057,-2904.9,0.90498
14929,11.624,5.0909,0.05,8.8431e-07,8.837,6.7903e-07,5.1019,7.0577e-12,6.0482e-07,-6.7905e-07,-5.1022,0.89269
14930,11.624,5.3636,0,0.00029347,2932.7,9.6863e-05,0.19281,9.6833e-05,-0.031237,-0.00029347,-2932.6,0.89157
14931,11.717,5.2727,0,0.00029082,2906.2,9.601e-05,0.015676,9.5905e-05,-0.7695,-0.00029083,-2906.6,0.90423
14932,11.624,5.2727,0.05,8.8325e-07,8.8264,6.7822e-07,5.0958,8.0185e-12,1.4673e-06,-6.7823e-07,-5.096,0.89194
14933,11.624,5.5455,0,0.00029381,2936.1,9.7232e-05,3.2711,9.6797e-05,0.0045621,-0.00029376,-2934.5,0.89072
14934,11.717,5.4545,0,0.00029114,2909.4,9.6257e-05,2.1599,9.597e-05,0.00020832,-0.00029111,-2908.3,0.90343
14935,11.624,5.4545,0.05,8.7911e-07,8.785,6.7504e-07,5.0719,9.8417e-12,1.8087e-06,-6.7506e-07,-5.0722,0.89113
14936,11.624,5.7273,0,0.00029427,2940.6,9.7701e-05,7.0991,9.6756e-05,3.5283e-05,-0.00029415,-2937.1,0.88981
14937,11.717,5.6364,0,0.00029149,2912.9,9.663e-05,5.2442,9.5933e-05,0.0068541,-0.0002914,-2910.3,0.90255
14938,11.624,5.6364,0.05,8.2802e-07,8.2745,6.3581e-07,4.7772,9.8761e-12,2.3019e-06,-6.3583e-07,-4.7774,0.89025
14939,11.717,5.8182,0,0.00029204,2918.4,9.7181e-05,9.6691,9.5894e-05,-0.0075368,-0.00029188,-2913.6,0.90162
14940,11.624,5.8182,0.05,6.1652e-08,0.6161,4.7336e-08,0.35557,2.931e-12,-6.8111e-05,-4.7346e-08,-0.35584,0.8893
14941,11.624,5.9091,0,0.00029408,2938.8,9.76e-05,6.6116,9.672e-05,-0.0012184,-0.00029397,-2935.5,0.88884
14942,11.809,0.27273,0,0.00028925,2890.5,9.6098e-05,7.7228,9.507e-05,-8.963e-05,-0.00028912,-2886.7,0.91443
14943,11.902,0.18182,0,0.00028703,2868.3,9.5571e-05,10.186,9.4215e-05,-0.0065469,-0.00028686,-2863.2,0.92634
14944,11.809,0.18182,0.05,5.2917e-08,0.5288,4.0641e-08,0.30544,-1.1546e-12,7.0997e-05,-4.0625e-08,-0.30517,0.91393
14945,11.809,0.090909,0,0.00028904,2888.4,9.5962e-05,6.9325,9.5039e-05,-0.0011474,-0.00028892,-2884.9,0.91347
14946,11.809,0.45455,0,0.00028881,2886.2,9.5652e-05,4.1075,9.5106e-05,0.0035562,-0.00028874,-2884.1,0.91532
14947,11.902,0.36364,0,0.00028649,2862.9,9.5039e-05,5.9505,9.4248e-05,0.0055306,-0.00028639,-2860,0.92726
14948,11.809,0.36364,0.05,8.2354e-07,8.2297,6.3239e-07,4.7516,-1.0806e-11,3.2298e-06,-6.3237e-07,-4.7513,0.91486
14949,11.809,0.63636,0,0.00028849,2882.9,9.5304e-05,1.2274,9.514e-05,-0.0038634,-0.00028847,-2882.3,0.91616
14950,11.902,0.54545,0,0.00028616,2859.6,9.469e-05,3.0844,9.428e-05,2.8939e-05,-0.00028611,-2858.1,0.92812
14951,11.809,0.54545,0.05,8.7479e-07,8.7419,6.7174e-07,5.0473,-1.0788e-11,3.0263e-06,-6.7172e-07,-5.047,0.91572
14952,11.809,0.81818,0,0.00028818,2879.8,9.5177e-05,0.011181,9.4971e-05,-1.5313,-0.00028821,-2880.6,0.91693
14953,11.902,0.72727,0,0.00028585,2856.6,9.4367e-05,0.41184,9.4309e-05,-0.023978,-0.00028585,-2856.4,0.92892
14954,11.809,0.72727,0.05,8.7886e-07,8.7826,6.7487e-07,5.0707,-8.0283e-12,4.4356e-06,-6.7485e-07,-5.0705,0.91653
14955,11.809,1,0,0.00028789,2876.9,9.521e-05,0.0069883,9.4657e-05,-4.1483,-0.00028796,-2879,0.91764
14956,11.902,0.90909,0,0.00028556,2853.7,9.4346e-05,0.0096684,9.4051e-05,-2.2058,-0.0002856,-2854.8,0.92965
14957,11.809,0.90909,0.05,8.7984e-07,8.7923,6.7561e-07,5.0763,-7.0978e-12,5.8495e-06,-6.756e-07,-5.0761,0.91727
14958,11.809,1.1818,0,0.00028762,2874.2,9.5243e-05,0.0060799,9.436e-05,-6.629,-0.00028773,-2877.5,0.91829
14959,11.902,1.0909,0,0.00028529,2850.9,9.4377e-05,0.0069496,9.3756e-05,-4.6596,-0.00028537,-2853.2,0.93033
14960,11.809,1.0909,0.05,8.8058e-07,8.7997,6.7618e-07,5.0806,-7.0681e-12,5.6778e-06,-6.7617e-07,-5.0804,0.91794
14961,11.809,1.3636,0,0.00028737,2871.7,9.5275e-05,0.005644,9.4083e-05,-8.9514,-0.00028752,-2876.2,0.91887
14962,11.902,1.2727,0,0.00028503,2848.4,9.4407e-05,0.0061032,9.3478e-05,-6.9703,-0.00028515,-2851.9,0.93094
14963,11.809,1.2727,0.05,8.8127e-07,8.8066,6.7671e-07,5.0846,-6.1539e-12,5.6795e-06,-6.767e-07,-5.0844,0.91856
14964,11.809,1.5455,0,0.00028714,2869.4,9.5305e-05,0.0053716,9.3827e-05,-11.096,-0.00028732,-2874.9,0.91939
14965,11.902,1.4545,0,0.0002848,2846,9.4436e-05,0.0056825,9.3221e-05,-9.1177,-0.00028495,-2850.6,0.93149
14966,11.809,1.4545,0.05,8.8191e-07,8.8131,6.772e-07,5.0883,-5.2355e-12,5.535e-06,-6.772e-07,-5.0881,0.91911
14967,11.809,1.7273,0,0.00028693,2867.3,9.5332e-05,0.005169,9.3596e-05,-13.042,-0.00028715,-2873.8,0.91986
14968,11.902,1.6364,0,0.00028459,2843.9,9.4462e-05,0.0054097,9.2986e-05,-11.083,-0.00028477,-2849.4,0.93197
14969,11.809,1.6364,0.05,8.8251e-07,8.819,6.7766e-07,5.0917,-6.1425e-12,5.5959e-06,-6.7765e-07,-5.0916,0.91961
14970,11.809,1.9091,0,0.00028675,2865.5,9.5357e-05,0.0050066,9.339e-05,-14.773,-0.00028699,-2872.8,0.92025
14971,11.902,1.8182,0,0.0002844,2842,9.4487e-05,0.0052115,9.2776e-05,-12.849,-0.00028461,-2848.4,0.9324
14972,11.809,1.8182,0.05,8.8304e-07,8.8243,6.7807e-07,5.0948,-3.4289e-12,4.8581e-06,-6.7806e-07,-5.0947,0.92004
14973,11.809,2.0909,0,0.00028659,2863.9,9.5379e-05,0.0048708,9.3213e-05,-16.27,-0.00028686,-2872,0.92059
14974,11.902,2,0,0.00028423,2840.3,9.4508e-05,0.005056,9.2591e-05,-14.399,-0.00028447,-2847.5,0.93277
14975,11.809,2,0.05,8.8351e-07,8.829,6.7843e-07,5.0975,-3.4439e-12,5.0168e-06,-6.7842e-07,-5.0973,0.9204
14976,11.809,2.2727,0,0.00028646,2862.6,9.5397e-05,0.0047578,9.3065e-05,-17.519,-0.00028675,-2871.3,0.92087
14977,11.902,2.1818,0,0.00028409,2838.9,9.4527e-05,0.0049295,9.2435e-05,-15.716,-0.00028435,-2846.7,0.93307
14978,11.809,2.1818,0.05,8.839e-07,8.8329,6.7873e-07,5.0998,-3.4685e-12,4.7342e-06,-6.7873e-07,-5.0996,0.92071
14979,11.809,2.4545,0,0.00028635,2861.5,9.5412e-05,0.004669,9.2948e-05,-18.504,-0.00028666,-2870.8,0.92108
14980,11.902,2.3636,0,0.00028397,2837.8,9.4542e-05,0.004829,9.2307e-05,-16.787,-0.00028426,-2846.1,0.93332
14981,11.809,2.3636,0.05,8.8423e-07,8.8362,6.7898e-07,5.1016,-1.6795e-12,4.4947e-06,-6.7898e-07,-5.1015,0.92096
14982,11.809,2.6364,0,0.00028628,2860.8,9.5422e-05,0.0046042,9.2864e-05,-19.217,-0.0002866,-2870.4,0.92124
14983,11.902,2.5455,0,0.00028389,2836.9,9.4554e-05,0.0047544,9.2211e-05,-17.602,-0.00028418,-2845.7,0.9335
14984,11.809,2.5455,0.05,8.8447e-07,8.8386,6.7917e-07,5.103,-1.7164e-12,4.3409e-06,-6.7916e-07,-5.103,0.92114
14985,11.809,2.8182,0,0.00028623,2860.4,9.5429e-05,0.0045639,9.2813e-05,-19.647,-0.00028656,-2870.1,0.92133
14986,11.902,2.7273,0,0.00028383,2836.3,9.4562e-05,0.0047034,9.2146e-05,-18.149,-0.00028413,-2845.4,0.93362
14987,11.809,2.7273,0.05,8.8464e-07,8.8403,6.7929e-07,5.104,-8.4644e-13,3.335e-06,-6.7929e-07,-5.1039,0.92126
14988,11.809,3,0,0.00028622,2860.2,9.5431e-05,0.0045505,9.2796e-05,-19.792,-0.00028655,-2870,0.92136
14989,11.902,2.9091,0,0.0002838,2836.1,9.4566e-05,0.004677,9.2113e-05,-18.425,-0.00028411,-2845.2,0.93368
14990,11.809,2.9091,0.05,8.8472e-07,8.8411,6.7936e-07,5.1044,2.1253e-14,3.7362e-06,-6.7936e-07,-5.1044,0.92133
14991,11.809,3.1818,0,0.00028623,2860.4,9.5429e-05,0.0045636,9.2813e-05,-19.647,-0.00028656,-2870.1,0.92133
14992,11.902,3.0909,0,0.0002838,2836.1,9.4566e-05,0.0046772,9.2113e-05,-18.425,-0.00028411,-2845.2,0.93368
14993,11.809,3.0909,0.05,8.8472e-07,8.8411,6.7936e-07,5.1044,-2.1303e-14,2.2239e-06,-6.7936e-07,-5.1044,0.92133
14994,11.809,3.3636,0,0.00028628,2860.8,9.5422e-05,0.0046037,9.2864e-05,-19.217,-0.0002866,-2870.4,0.92124
14995,11.902,3.2727,0,0.00028383,2836.3,9.4562e-05,0.0047027,9.2146e-05,-18.149,-0.00028413,-2845.4,0.93362
14996,11.809,3.2727,0.05,8.8464e-07,8.8403,6.7929e-07,5.1039,-6.3034e-14,2.1468e-06,-6.7929e-07,-5.1039,0.92126
14997,11.809,3.5455,0,0.00028635,2861.5,9.5412e-05,0.004669,9.2948e-05,-18.504,-0.00028666,-2870.8,0.92108
14998,11.902,3.4545,0,0.00028389,2836.9,9.4554e-05,0.0047542,9.2211e-05,-17.602,-0.00028418,-2845.7,0.9335
14999,11.809,3.4545,0.05,8.8447e-07,8.8386,6.7916e-07,5.103,1.7155e-12,2.0883e-06,-6.7917e-07,-5.103,0.92114
15000,11.809,3.7273,0,0.00028646,2862.6,9.5397e-05,0.004758,9.3065e-05,-17.519,-0.00028675,-2871.3,0.92087
15001,11.902,3.6364,0,0.00028397,2837.8,9.4542e-05,0.0048289,9.2307e-05,-16.787,-0.00028426,-2846.1,0.93332
15002,11.809,3.6364,0.05,8.8423e-07,8.8362,6.7898e-07,5.1016,2.5906e-12,2.1625e-06,-6.7898e-07,-5.1016,0.92096
15003,11.809,3.9091,0,0.00028659,2863.9,9.5379e-05,0.0048704,9.3213e-05,-16.27,-0.00028686,-2872,0.92059
15004,11.902,3.8182,0,0.00028409,2838.9,9.4527e-05,0.0049292,9.2435e-05,-15.716,-0.00028435,-2846.7,0.93307
15005,11.809,3.8182,0.05,8.839e-07,8.8329,6.7873e-07,5.0996,3.4653e-12,2.4032e-06,-6.7873e-07,-5.0998,0.92071
15006,11.809,4.0909,0,0.00028675,2865.5,9.5357e-05,0.0050059,9.339e-05,-14.773,-0.00028699,-2872.8,0.92025
15007,11.902,4,0,0.00028423,2840.3,9.4508e-05,0.0050557,9.2591e-05,-14.399,-0.00028447,-2847.5,0.93277
15008,11.809,4,0.05,8.8351e-07,8.829,6.7842e-07,5.0973,3.4411e-12,1.7438e-06,-6.7843e-07,-5.0975,0.9204
15009,11.809,4.2727,0,0.00028693,2867.3,9.5332e-05,0.0051691,9.3596e-05,-13.042,-0.00028715,-2873.8,0.91986
15010,11.902,4.1818,0,0.0002844,2842,9.4487e-05,0.0052111,9.2776e-05,-12.849,-0.00028461,-2848.4,0.9324
15011,11.809,4.1818,0.05,8.8304e-07,8.8243,6.7806e-07,5.0947,3.4201e-12,7.1423e-07,-6.7807e-07,-5.0948,0.92004
15012,11.809,4.4545,0,0.00028714,2869.4,9.5305e-05,0.0053718,9.3827e-05,-11.096,-0.00028732,-2874.9,0.91939
15013,11.902,4.3636,0,0.00028459,2843.9,9.4462e-05,0.0054098,9.2986e-05,-11.083,-0.00028477,-2849.4,0.93197
15014,11.809,4.3636,0.05,8.8251e-07,8.819,6.7765e-07,5.0916,5.2334e-12,1.9623e-06,-6.7766e-07,-5.0917,0.91961
15015,11.809,4.6364,0,0.00028737,2871.7,9.5275e-05,0.005643,9.4083e-05,-8.9513,-0.00028752,-2876.2,0.91887
15016,11.902,4.5455,0,0.0002848,2846,9.4436e-05,0.0056817,9.3221e-05,-9.1177,-0.00028495,-2850.6,0.93149
15017,11.809,4.5455,0.05,8.8191e-07,8.8131,6.772e-07,5.0881,4.3106e-12,9.4598e-07,-6.772e-07,-5.0883,0.91911
15018,11.809,4.8182,0,0.00028762,2874.2,9.5243e-05,0.0060795,9.436e-05,-6.629,-0.00028773,-2877.5,0.91829
15019,11.902,4.7273,0,0.00028503,2848.4,9.4407e-05,0.0061023,9.3478e-05,-6.9702,-0.00028515,-2851.9,0.93094
15020,11.809,4.7273,0.05,8.8127e-07,8.8066,6.767e-07,5.0844,5.2338e-12,1.4472e-06,-6.7671e-07,-5.0846,0.91856
15021,11.809,5,0,0.00028789,2876.9,9.521e-05,0.0069874,9.4657e-05,-4.1483,-0.00028796,-2879,0.91764
15022,11.902,4.9091,0,0.00028529,2850.9,9.4377e-05,0.00695,9.3756e-05,-4.6596,-0.00028537,-2853.2,0.93033
15023,11.809,4.9091,0.05,8.8058e-07,8.7997,6.7617e-07,5.0804,7.0612e-12,1.7986e-06,-6.7618e-07,-5.0806,0.91794
15024,11.809,5.1818,0,0.00028818,2879.8,9.5177e-05,0.01118,9.4971e-05,-1.5312,-0.00028821,-2880.6,0.91693
15025,11.902,5.0909,0,0.00028556,2853.7,9.4346e-05,0.0096661,9.4051e-05,-2.2057,-0.0002856,-2854.8,0.92965
15026,11.809,5.0909,0.05,8.7984e-07,8.7923,6.756e-07,5.0761,7.0619e-12,1.059e-06,-6.7561e-07,-5.0763,0.91727
15027,11.809,5.3636,0,0.00028849,2882.9,9.5304e-05,1.2274,9.514e-05,-0.003865,-0.00028847,-2882.3,0.91616
15028,11.902,5.2727,0,0.00028585,2856.6,9.4367e-05,0.41188,9.4309e-05,-0.023978,-0.00028585,-2856.4,0.92892
15029,11.809,5.2727,0.05,8.7886e-07,8.7826,6.7485e-07,5.0705,7.1074e-12,1.7168e-06,-6.7487e-07,-5.0707,0.91653
15030,11.809,5.5455,0,0.00028881,2886.2,9.5652e-05,4.1075,9.5106e-05,0.0035553,-0.00028874,-2884.1,0.91532
15031,11.902,5.4545,0,0.00028616,2859.6,9.469e-05,3.0844,9.428e-05,2.8088e-05,-0.00028611,-2858.1,0.92812
15032,11.809,5.4545,0.05,8.7479e-07,8.7419,6.7172e-07,5.047,7.1405e-12,1.93e-06,-6.7174e-07,-5.0472,0.91572
15033,11.809,5.7273,0,0.00028925,2890.5,9.6098e-05,7.7229,9.507e-05,-8.9842e-05,-0.00028912,-2886.7,0.91443
15034,11.902,5.6364,0,0.00028649,2862.9,9.5039e-05,5.9505,9.4248e-05,0.0055306,-0.00028639,-2860,0.92726
15035,11.809,5.6364,0.05,8.2354e-07,8.2297,6.3237e-07,4.7513,1.0794e-11,2.8167e-06,-6.3239e-07,-4.7516,0.91486
15036,11.902,5.8182,0,0.00028703,2868.3,9.5571e-05,10.186,9.4215e-05,-0.0065472,-0.00028686,-2863.2,0.92634
15037,11.809,5.8182,0.05,5.2916e-08,0.5288,4.0626e-08,0.30517,2.0289e-12,-6.6226e-05,-4.0639e-08,-0.30543,0.91393
15038,11.809,5.9091,0,0.00028904,2888.4,9.5962e-05,6.9325,9.5039e-05,-0.0011479,-0.00028892,-2884.9,0.91347
15039,11.994,0.27273,0,0.00028426,2840.6,9.45e-05,8.3199,9.3393e-05,-0.0002759,-0.00028411,-2836.4,0.93924
15040,12.086,0.18182,0,0.00028204,2818.5,9.3966e-05,10.683,9.2544e-05,-0.0056992,-0.00028186,-2813.1,0.95126
15041,11.994,0.18182,0.05,4.48e-08,0.44769,3.4407e-08,0.25861,-2.0219e-12,6.8328e-05,-3.4394e-08,-0.25834,0.93875
15042,11.994,0.090909,0,0.00028402,2838.2,9.433e-05,7.2425,9.3366e-05,-0.0011076,-0.00028389,-2834.6,0.9383
15043,11.994,0.45455,0,0.00028383,2836.4,9.4075e-05,4.9018,9.3423e-05,0.0026598,-0.00028375,-2833.9,0.94012
15044,12.086,0.36364,0,0.00028151,2813.2,9.3453e-05,6.6233,9.2572e-05,0.0042916,-0.0002814,-2809.9,0.95217
15045,11.994,0.36364,0.05,8.1912e-07,8.1855,6.2899e-07,4.7261,-9.9126e-12,2.9661e-06,-6.2897e-07,-4.7258,0.93966
15046,11.994,0.63636,0,0.00028352,2833.3,9.3749e-05,2.2291,9.3452e-05,-0.0019614,-0.00028348,-2832.2,0.94094
15047,12.086,0.54545,0,0.0002812,2810,9.3126e-05,3.9601,9.2599e-05,-0.00023678,-0.00028113,-2808,0.95301
15048,11.994,0.54545,0.05,8.705e-07,8.699,6.6845e-07,5.0225,-7.1731e-12,3.1243e-06,-6.6843e-07,-5.0223,0.94052
15049,11.994,0.81818,0,0.00028323,2830.4,9.3487e-05,0.04175,9.3435e-05,-0.35093,-0.00028324,-2830.5,0.9417
15050,12.086,0.72727,0,0.00028091,2807.1,9.2822e-05,1.4706,9.2625e-05,-0.0059028,-0.00028088,-2806.4,0.9538
15051,11.994,0.72727,0.05,8.7452e-07,8.7392,6.7153e-07,5.0457,-7.1314e-12,3.5373e-06,-6.7151e-07,-5.0454,0.94131
15052,11.994,1,0,0.00028296,2827.6,9.3512e-05,0.0091332,9.3147e-05,-2.7372,-0.000283,-2829,0.9424
15053,12.086,0.90909,0,0.00028063,2804.4,9.2656e-05,0.019699,9.2528e-05,-0.94146,-0.00028065,-2804.8,0.95452
15054,11.994,0.90909,0.05,8.7542e-07,8.7481,6.7222e-07,5.0509,-7.1077e-12,4.5604e-06,-6.7221e-07,-5.0506,0.94203
15055,11.994,1.1818,0,0.0002827,2825.1,9.354e-05,0.0069564,9.2871e-05,-5.0211,-0.00028279,-2827.6,0.94304
15056,12.086,1.0909,0,0.00028037,2801.8,9.2681e-05,0.0087747,9.2255e-05,-3.1956,-0.00028042,-2803.4,0.95518
15057,11.994,1.0909,0.05,8.7609e-07,8.7548,6.7273e-07,5.0547,-5.2854e-12,4.3708e-06,-6.7272e-07,-5.0545,0.9427
15058,11.994,1.3636,0,0.00028246,2822.7,9.3567e-05,0.0061598,9.2614e-05,-7.1564,-0.00028258,-2826.2,0.94362
15059,12.086,1.2727,0,0.00028013,2799.4,9.2707e-05,0.006947,9.1998e-05,-5.3215,-0.00028022,-2802,0.95578
15060,11.994,1.2727,0.05,8.767e-07,8.761,6.732e-07,5.0582,-7.0916e-12,4.3577e-06,-6.7319e-07,-5.058,0.94331
15061,11.994,1.5455,0,0.00028225,2820.5,9.3593e-05,0.0057388,9.2378e-05,-9.125,-0.0002824,-2825.1,0.94413
15062,12.086,1.4545,0,0.00027991,2797.1,9.2731e-05,0.006203,9.1759e-05,-7.2947,-0.00028003,-2800.8,0.95632
15063,11.994,1.4545,0.05,8.7727e-07,8.7667,6.7364e-07,5.0615,-7.075e-12,4.2084e-06,-6.7363e-07,-5.0613,0.94385
15064,11.994,1.7273,0,0.00028205,2818.5,9.3617e-05,0.0054663,9.2164e-05,-10.91,-0.00028223,-2824,0.94459
15065,12.086,1.6364,0,0.00027971,2795.1,9.2754e-05,0.005788,9.1542e-05,-9.0983,-0.00027986,-2799.7,0.95681
15066,11.994,1.6364,0.05,8.7779e-07,8.7719,6.7404e-07,5.0645,-4.3547e-12,4.322e-06,-6.7403e-07,-5.0644,0.94434
15067,11.994,1.9091,0,0.00028188,2816.8,9.3638e-05,0.0052712,9.1974e-05,-12.494,-0.00028209,-2823,0.94498
15068,12.086,1.8182,0,0.00027953,2793.3,9.2775e-05,0.0055199,9.1348e-05,-10.716,-0.00027971,-2798.7,0.95723
15069,11.994,1.8182,0.05,8.7826e-07,8.7766,6.744e-07,5.0672,-3.4494e-12,3.7644e-06,-6.7439e-07,-5.0671,0.94476
15070,11.994,2.0909,0,0.00028173,2815.3,9.3657e-05,0.0051216,9.1811e-05,-13.863,-0.00028196,-2822.2,0.94531
15071,12.086,2,0,0.00027937,2791.8,9.2793e-05,0.0053302,9.1178e-05,-12.134,-0.00027958,-2797.8,0.95759
15072,11.994,2,0.05,8.7867e-07,8.7807,6.7472e-07,5.0696,-3.469e-12,3.5133e-06,-6.7471e-07,-5.0695,0.94513
15073,11.994,2.2727,0,0.0002816,2814.1,9.3672e-05,0.0050052,9.1675e-05,-15.003,-0.00028186,-2821.6,0.94558
15074,12.086,2.1818,0,0.00027924,2790.5,9.2809e-05,0.0051873,9.1033e-05,-13.339,-0.00027946,-2797.1,0.95789
15075,11.994,2.1818,0.05,8.7902e-07,8.7841,6.7498e-07,5.0716,-3.4895e-12,3.6062e-06,-6.7498e-07,-5.0715,0.94543
15076,11.994,2.4545,0,0.00028151,2813.1,9.3685e-05,0.0049172,9.1568e-05,-15.903,-0.00028178,-2821.1,0.9458
15077,12.086,2.3636,0,0.00027913,2789.4,9.2822e-05,0.005081,9.0916e-05,-14.317,-0.00027937,-2796.5,0.95813
15078,11.994,2.3636,0.05,8.793e-07,8.787,6.7519e-07,5.0732,-1.6993e-12,3.4076e-06,-6.7519e-07,-5.0731,0.94567
15079,11.994,2.6364,0,0.00028144,2812.4,9.3694e-05,0.004855,9.149e-05,-16.552,-0.00028172,-2820.7,0.94595
15080,12.086,2.5455,0,0.00027905,2788.6,9.2832e-05,0.0050037,9.0827e-05,-15.06,-0.0002793,-2796.1,0.95831
15081,11.994,2.5455,0.05,8.7952e-07,8.7891,6.7536e-07,5.0744,-1.7301e-12,2.9346e-06,-6.7536e-07,-5.0744,0.94585
15082,11.994,2.8182,0,0.0002814,2812,9.3699e-05,0.0048172,9.1443e-05,-16.945,-0.00028168,-2820.5,0.94604
15083,12.086,2.7273,0,0.000279,2788,9.2839e-05,0.0049532,9.0768e-05,-15.56,-0.00027926,-2795.8,0.95843
15084,11.994,2.7273,0.05,8.7966e-07,8.7905,6.7547e-07,5.0752,-1.7641e-12,2.3202e-06,-6.7547e-07,-5.0752,0.94597
15085,11.994,3,0,0.00028138,2811.9,9.3701e-05,0.0048042,9.1428e-05,-17.076,-0.00028167,-2820.4,0.94607
15086,12.086,2.9091,0,0.00027897,2787.8,9.2843e-05,0.0049271,9.0738e-05,-15.811,-0.00027924,-2795.6,0.95849
15087,11.994,2.9091,0.05,8.7973e-07,8.7912,6.7552e-07,5.0757,1.8601e-14,1.8085e-06,-6.7552e-07,-5.0756,0.94603
15088,11.994,3.1818,0,0.0002814,2812,9.3699e-05,0.004817,9.1443e-05,-16.945,-0.00028168,-2820.5,0.94604
15089,12.086,3.0909,0,0.00027897,2787.8,9.2843e-05,0.0049276,9.0738e-05,-15.811,-0.00027924,-2795.6,0.95849
15090,11.994,3.0909,0.05,8.7973e-07,8.7912,6.7552e-07,5.0756,-1.8644e-14,1.5287e-06,-6.7552e-07,-5.0756,0.94603
15091,11.994,3.3636,0,0.00028144,2812.4,9.3694e-05,0.0048547,9.149e-05,-16.552,-0.00028172,-2820.7,0.94595
15092,12.086,3.2727,0,0.000279,2788,9.2839e-05,0.0049528,9.0768e-05,-15.56,-0.00027926,-2795.8,0.95843
15093,11.994,3.2727,0.05,8.7966e-07,8.7905,6.7547e-07,5.0752,8.5411e-13,1.255e-06,-6.7547e-07,-5.0752,0.94597
15094,11.994,3.5455,0,0.00028151,2813.1,9.3685e-05,0.0049168,9.1568e-05,-15.903,-0.00028178,-2821.1,0.9458
15095,12.086,3.4545,0,0.00027905,2788.6,9.2832e-05,0.0050039,9.0827e-05,-15.06,-0.0002793,-2796.1,0.95831
15096,11.994,3.4545,0.05,8.7952e-07,8.7891,6.7536e-07,5.0744,1.7284e-12,9.9043e-07,-6.7536e-07,-5.0744,0.94585
15097,11.994,3.7273,0,0.00028161,2814.1,9.3672e-05,0.0050046,9.1675e-05,-15.003,-0.00028186,-2821.6,0.94558
15098,12.086,3.6364,0,0.00027913,2789.4,9.2822e-05,0.00508,9.0916e-05,-14.317,-0.00027937,-2796.5,0.95813
15099,11.994,3.6364,0.05,8.793e-07,8.787,6.752e-07,5.0731,2.608e-12,7.5489e-07,-6.7519e-07,-5.0732,0.94567
15100,11.994,3.9091,0,0.00028173,2815.3,9.3657e-05,0.0051215,9.1811e-05,-13.863,-0.00028196,-2822.2,0.94531
15101,12.086,3.8182,0,0.00027924,2790.5,9.2809e-05,0.0051872,9.1033e-05,-13.338,-0.00027946,-2797.1,0.95789
15102,11.994,3.8182,0.05,8.7902e-07,8.7841,6.7498e-07,5.0715,3.4915e-12,1.2688e-06,-6.7498e-07,-5.0716,0.94543
15103,11.994,4.0909,0,0.00028188,2816.8,9.3638e-05,0.0052711,9.1974e-05,-12.494,-0.00028209,-2823,0.94498
15104,12.086,4,0,0.00027937,2791.8,9.2793e-05,0.0053304,9.1178e-05,-12.134,-0.00027958,-2797.8,0.95759
15105,11.994,4,0.05,8.7867e-07,8.7807,6.7471e-07,5.0695,3.4664e-12,3.635e-07,-6.7471e-07,-5.0696,0.94513
15106,11.994,4.2727,0,0.00028205,2818.5,9.3617e-05,0.0054659,9.2164e-05,-10.91,-0.00028223,-2824,0.94459
15107,12.086,4.1818,0,0.00027953,2793.3,9.2775e-05,0.00552,9.1348e-05,-10.716,-0.00027971,-2798.7,0.95723
15108,11.994,4.1818,0.05,8.7826e-07,8.7766,6.7439e-07,5.0671,4.3548e-12,-1.0204e-07,-6.744e-07,-5.0672,0.94476
15109,11.994,4.4545,0,0.00028225,2820.5,9.3593e-05,0.005738,9.2378e-05,-9.125,-0.0002824,-2825.1,0.94413
15110,12.086,4.3636,0,0.00027971,2795.1,9.2754e-05,0.0057877,9.1542e-05,-9.0983,-0.00027986,-2799.7,0.95681
15111,11.994,4.3636,0.05,8.7779e-07,8.7719,6.7403e-07,5.0644,5.2596e-12,8.3766e-07,-6.7404e-07,-5.0645,0.94434
15112,11.994,4.6364,0,0.00028246,2822.7,9.3567e-05,0.0061591,9.2614e-05,-7.1564,-0.00028258,-2826.2,0.94362
15113,12.086,4.5455,0,0.00027991,2797.1,9.2731e-05,0.0062024,9.176e-05,-7.2947,-0.00028003,-2800.8,0.95632
15114,11.994,4.5455,0.05,8.7727e-07,8.7667,6.7363e-07,5.0614,6.1705e-12,-8.9765e-08,-6.7364e-07,-5.0615,0.94385
15115,11.994,4.8182,0,0.0002827,2825.1,9.354e-05,0.0069563,9.2871e-05,-5.021,-0.00028279,-2827.6,0.94304
15116,12.086,4.7273,0,0.00028013,2799.4,9.2707e-05,0.0069467,9.1998e-05,-5.3214,-0.00028022,-2802,0.95578
15117,11.994,4.7273,0.05,8.767e-07,8.761,6.7319e-07,5.0581,6.1728e-12,4.4127e-07,-6.732e-07,-5.0582,0.94331
15118,11.994,5,0,0.00028296,2827.6,9.3512e-05,0.0091321,9.3147e-05,-2.7371,-0.000283,-2829,0.9424
15119,12.086,4.9091,0,0.00028037,2801.8,9.2681e-05,0.0087748,9.2255e-05,-3.1955,-0.00028042,-2803.4,0.95518
15120,11.994,4.9091,0.05,8.7608e-07,8.7548,6.7272e-07,5.0545,7.0901e-12,6.6806e-07,-6.7273e-07,-5.0547,0.9427
15121,11.994,5.1818,0,0.00028323,2830.4,9.3487e-05,0.041752,9.3435e-05,-0.35089,-0.00028324,-2830.5,0.9417
15122,12.086,5.0909,0,0.00028063,2804.4,9.2656e-05,0.019698,9.2528e-05,-0.94141,-0.00028065,-2804.8,0.95452
15123,11.994,5.0909,0.05,8.7542e-07,8.7481,6.7221e-07,5.0506,7.1077e-12,2.6794e-08,-6.7222e-07,-5.0509,0.94203
15124,11.994,5.3636,0,0.00028352,2833.3,9.3749e-05,2.2292,9.3452e-05,-0.0019622,-0.00028348,-2832.2,0.94094
15125,12.086,5.2727,0,0.00028091,2807.1,9.2822e-05,1.4707,9.2625e-05,-0.0059044,-0.00028088,-2806.4,0.9538
15126,11.994,5.2727,0.05,8.7452e-07,8.7392,6.7151e-07,5.0454,8.9618e-12,7.8344e-07,-6.7153e-07,-5.0457,0.94131
15127,11.994,5.5455,0,0.00028383,2836.4,9.4075e-05,4.9018,9.3423e-05,0.0026599,-0.00028375,-2833.9,0.94012
15128,12.086,5.4545,0,0.0002812,2810,9.3126e-05,3.9601,9.2599e-05,-0.00023639,-0.00028113,-2808,0.95301
15129,11.994,5.4545,0.05,8.705e-07,8.699,6.6843e-07,5.0223,1.0788e-11,1.1947e-06,-6.6845e-07,-5.0225,0.94052
15130,11.994,5.7273,0,0.00028426,2840.6,9.45e-05,8.32,9.3393e-05,-0.00027601,-0.00028412,-2836.4,0.93924
15131,12.086,5.6364,0,0.00028151,2813.2,9.3453e-05,6.6233,9.2572e-05,0.0042914,-0.0002814,-2809.9,0.95217
15132,11.994,5.6364,0.05,8.1912e-07,8.1855,6.2897e-07,4.7258,8.09e-12,2.2323e-06,-6.2899e-07,-4.7261,0.93966
15133,12.086,5.8182,0,0.00028204,2818.5,9.3966e-05,10.683,9.2544e-05,-0.0056997,-0.00028186,-2813.1,0.95126
15134,11.994,5.8182,0.05,4.4799e-08,0.44768,3.4393e-08,0.25835,2.7181e-12,-5.7885e-05,-3.4407e-08,-0.25859,0.93875
15135,11.994,5.9091,0,0.00028402,2838.2,9.433e-05,7.2425,9.3366e-05,-0.0011087,-0.00028389,-2834.6,0.9383
15136,12.179,0.27273,0,0.00027928,2790.9,9.2906e-05,8.8914,9.1723e-05,-0.00052396,-0.00027913,-2786.5,0.96425
15137,12.271,0.18182,0,0.00027707,2768.8,9.2367e-05,11.163,9.0881e-05,-0.0050033,-0.00027688,-2763.2,0.97637
15138,12.179,0.18182,0.05,3.7291e-08,0.37266,2.8641e-08,0.21527,-1.8812e-12,6.398e-05,-2.8629e-08,-0.21503,0.96377
15139,12.179,0.090909,0,0.00027901,2788.2,9.2705e-05,7.5419,9.1701e-05,-0.0011224,-0.00027889,-2784.4,0.96332
15140,12.179,0.45455,0,0.00027887,2786.8,9.25e-05,5.6558,9.1748e-05,0.0018297,-0.00027878,-2784,0.96512
15141,12.271,0.36364,0,0.00027656,2763.6,9.187e-05,7.2641,9.0904e-05,0.0030987,-0.00027643,-2760,0.97726
15142,12.179,0.36364,0.05,8.1478e-07,8.1422,6.2566e-07,4.701,-1.0824e-11,3.959e-06,-6.2564e-07,-4.7008,0.96466
15143,12.179,0.63636,0,0.00027858,2783.8,9.2196e-05,3.1768,9.1773e-05,-0.0014904,-0.00027852,-2782.2,0.96592
15144,12.271,0.54545,0,0.00027625,2760.6,9.1563e-05,4.7893,9.0926e-05,-0.00054951,-0.00027617,-2758.2,0.97809
15145,12.179,0.54545,0.05,8.6628e-07,8.6568,6.652e-07,4.9982,-7.1736e-12,3.7972e-06,-6.6518e-07,-4.9978,0.9655
15146,12.179,0.81818,0,0.0002783,2781.1,9.191e-05,0.84609,9.1796e-05,-0.015399,-0.00027829,-2780.7,0.96667
15147,12.271,0.72727,0,0.00027597,2757.8,9.1279e-05,2.4836,9.0948e-05,-0.0033555,-0.00027593,-2756.6,0.97886
15148,12.179,0.72727,0.05,8.7024e-07,8.6964,6.6824e-07,5.021,-8.0659e-12,3.6694e-06,-6.6823e-07,-5.0207,0.96628
15149,12.179,1,0,0.00027804,2778.5,9.1824e-05,0.015393,9.1634e-05,-1.417,-0.00027806,-2779.2,0.96736
15150,12.271,0.90909,0,0.00027571,2755.2,9.1015e-05,0.32659,9.0965e-05,-0.050504,-0.00027571,-2755.1,0.97958
15151,12.179,0.90909,0.05,8.7108e-07,8.7047,6.6888e-07,5.0258,-8.0519e-12,3.587e-06,-6.6887e-07,-5.0256,0.967
15152,12.179,1.1818,0,0.0002778,2776,9.1848e-05,0.0086228,9.1378e-05,-3.5165,-0.00027786,-2777.8,0.96799
15153,12.271,1.0909,0,0.00027547,2752.8,9.0996e-05,0.013347,9.0751e-05,-1.826,-0.0002755,-2753.7,0.98023
15154,12.179,1.0909,0.05,8.7168e-07,8.7108,6.6935e-07,5.0293,-6.2094e-12,4.1307e-06,-6.6933e-07,-5.0291,0.96765
15155,12.179,1.3636,0,0.00027757,2773.8,9.187e-05,0.006994,9.114e-05,-5.4801,-0.00027766,-2776.5,0.96855
15156,12.271,1.2727,0,0.00027524,2750.5,9.1017e-05,0.0084553,9.0513e-05,-3.7801,-0.0002753,-2752.4,0.98082
15157,12.179,1.2727,0.05,8.7223e-07,8.7163,6.6977e-07,5.0325,-6.2044e-12,3.9637e-06,-6.6976e-07,-5.0322,0.96825
15158,12.179,1.5455,0,0.00027737,2771.7,9.1892e-05,0.0062694,9.0921e-05,-7.2881,-0.00027749,-2775.4,0.96906
15159,12.271,1.4545,0,0.00027503,2748.4,9.1037e-05,0.0069937,9.0292e-05,-5.5934,-0.00027512,-2751.2,0.98135
15160,12.179,1.4545,0.05,8.7274e-07,8.7214,6.7016e-07,5.0354,-5.2926e-12,3.8878e-06,-6.7015e-07,-5.0352,0.96879
15161,12.179,1.7273,0,0.00027718,2769.9,9.1912e-05,0.0058567,9.0724e-05,-8.9249,-0.00027733,-2774.4,0.96951
15162,12.271,1.6364,0,0.00027484,2746.5,9.1057e-05,0.0062962,9.0091e-05,-7.249,-0.00027496,-2750.1,0.98183
15163,12.179,1.6364,0.05,8.732e-07,8.726,6.7052e-07,5.038,-5.2952e-12,3.7334e-06,-6.7051e-07,-5.0379,0.96927
15164,12.179,1.9091,0,0.00027702,2768.3,9.193e-05,0.00559,9.0548e-05,-10.376,-0.00027719,-2773.4,0.9699
15165,12.271,1.8182,0,0.00027467,2744.8,9.1074e-05,0.0058928,8.9911e-05,-8.7324,-0.00027482,-2749.2,0.98224
15166,12.179,1.8182,0.05,8.7362e-07,8.7302,6.7083e-07,5.0404,-4.3928e-12,3.2181e-06,-6.7083e-07,-5.0403,0.96968
15167,12.179,2.0909,0,0.00027688,2766.9,9.1946e-05,0.0054033,9.0398e-05,-11.629,-0.00027708,-2772.7,0.97022
15168,12.271,2,0,0.00027452,2743.3,9.109e-05,0.0056306,8.9754e-05,-10.031,-0.00027469,-2748.3,0.9826
15169,12.179,2,0.05,8.7398e-07,8.7338,6.7111e-07,5.0425,-3.4933e-12,3.0048e-06,-6.7111e-07,-5.0424,0.97004
15170,12.179,2.2727,0,0.00027676,2765.7,9.1959e-05,0.0052677,9.0272e-05,-12.671,-0.00027698,-2772,0.97049
15171,12.271,2.1818,0,0.0002744,2742.1,9.1103e-05,0.0054486,8.9621e-05,-11.132,-0.00027459,-2747.6,0.98289
15172,12.179,2.1818,0.05,8.7429e-07,8.7368,6.7135e-07,5.0443,-2.6028e-12,3.1056e-06,-6.7134e-07,-5.0442,0.97034
15173,12.179,2.4545,0,0.00027667,2764.8,9.197e-05,0.0051699,9.0173e-05,-13.493,-0.0002769,-2771.5,0.9707
15174,12.271,2.3636,0,0.0002743,2741.1,9.1114e-05,0.0053198,8.9513e-05,-12.027,-0.0002745,-2747.1,0.98313
15175,12.179,2.3636,0.05,8.7453e-07,8.7393,6.7154e-07,5.0457,-1.7156e-12,3.1737e-06,-6.7153e-07,-5.0456,0.97058
15176,12.179,2.6364,0,0.00027661,2764.2,9.1978e-05,0.0051029,9.0102e-05,-14.086,-0.00027684,-2771.2,0.97085
15177,12.271,2.5455,0,0.00027422,2740.3,9.1123e-05,0.0052318,8.9431e-05,-12.706,-0.00027444,-2746.7,0.9833
15178,12.179,2.5455,0.05,8.7472e-07,8.7412,6.7168e-07,5.0468,-2.6514e-12,2.7258e-06,-6.7168e-07,-5.0467,0.97076
15179,12.179,2.8182,0,0.00027657,2763.8,9.1982e-05,0.0050634,9.0059e-05,-14.444,-0.00027681,-2771,0.97094
15180,12.271,2.7273,0,0.00027417,2739.8,9.1128e-05,0.0051746,8.9376e-05,-13.162,-0.00027439,-2746.4,0.98342
15181,12.179,2.7273,0.05,8.7485e-07,8.7424,6.7178e-07,5.0475,-8.6187e-13,1.431e-06,-6.7177e-07,-5.0474,0.97087
15182,12.179,3,0,0.00027655,2763.6,9.1984e-05,0.0050504,9.0045e-05,-14.564,-0.0002768,-2770.9,0.97097
15183,12.271,2.9091,0,0.00027415,2739.6,9.1131e-05,0.0051464,8.9348e-05,-13.391,-0.00027437,-2746.2,0.98348
15184,12.179,2.9091,0.05,8.7491e-07,8.7431,6.7182e-07,5.0478,1.6093e-14,1.7898e-06,-6.7182e-07,-5.0478,0.97093
15185,12.179,3.1818,0,0.00027657,2763.8,9.1982e-05,0.0050636,9.0059e-05,-14.444,-0.00027681,-2771,0.97094
15186,12.271,3.0909,0,0.00027415,2739.6,9.1131e-05,0.0051471,8.9348e-05,-13.391,-0.00027437,-2746.2,0.98348
15187,12.179,3.0909,0.05,8.7491e-07,8.7431,6.7182e-07,5.0478,-1.6094e-14,9.5157e-07,-6.7182e-07,-5.0478,0.97093
15188,12.179,3.3636,0,0.00027661,2764.2,9.1978e-05,0.005103,9.0102e-05,-14.086,-0.00027684,-2771.2,0.97085
15189,12.271,3.2727,0,0.00027417,2739.8,9.1128e-05,0.0051745,8.9376e-05,-13.162,-0.00027439,-2746.4,0.98342
15190,12.179,3.2727,0.05,8.7485e-07,8.7424,6.7177e-07,5.0474,-4.7993e-14,1.0715e-06,-6.7177e-07,-5.0475,0.97087
15191,12.179,3.5455,0,0.00027667,2764.8,9.197e-05,0.0051696,9.0173e-05,-13.493,-0.0002769,-2771.5,0.9707
15192,12.271,3.4545,0,0.00027422,2740.3,9.1123e-05,0.0052316,8.9431e-05,-12.706,-0.00027444,-2746.7,0.9833
15193,12.179,3.4545,0.05,8.7472e-07,8.7412,6.7168e-07,5.0467,3.5603e-12,8.4145e-07,-6.7168e-07,-5.0468,0.97076
15194,12.179,3.7273,0,0.00027676,2765.7,9.1959e-05,0.0052672,9.0272e-05,-12.671,-0.00027698,-2772,0.97049
15195,12.271,3.6364,0,0.0002743,2741.1,9.1114e-05,0.0053197,8.9513e-05,-12.027,-0.0002745,-2747.1,0.98313
15196,12.179,3.6364,0.05,8.7453e-07,8.7393,6.7153e-07,5.0456,2.624e-12,1.122e-06,-6.7154e-07,-5.0457,0.97058
15197,12.179,3.9091,0,0.00027688,2766.9,9.1946e-05,0.0054036,9.0398e-05,-11.629,-0.00027708,-2772.7,0.97022
15198,12.271,3.8182,0,0.0002744,2742.1,9.1103e-05,0.0054485,8.9621e-05,-11.132,-0.00027459,-2747.6,0.98289
15199,12.179,3.8182,0.05,8.7429e-07,8.7368,6.7134e-07,5.0442,3.5085e-12,1.165e-06,-6.7135e-07,-5.0443,0.97034
15200,12.179,4.0909,0,0.00027702,2768.3,9.193e-05,0.0055904,9.0548e-05,-10.376,-0.00027719,-2773.4,0.9699
15201,12.271,4,0,0.00027452,2743.3,9.109e-05,0.0056304,8.9754e-05,-10.031,-0.00027469,-2748.3,0.9826
15202,12.179,4,0.05,8.7398e-07,8.7338,6.7111e-07,5.0424,3.4924e-12,4.3962e-07,-6.7111e-07,-5.0425,0.97004
15203,12.179,4.2727,0,0.00027718,2769.9,9.1912e-05,0.0058568,9.0724e-05,-8.9249,-0.00027733,-2774.4,0.96951
15204,12.271,4.1818,0,0.00027467,2744.8,9.1074e-05,0.0058919,8.9911e-05,-8.7324,-0.00027482,-2749.2,0.98224
15205,12.179,4.1818,0.05,8.7362e-07,8.7302,6.7083e-07,5.0403,4.3862e-12,6.2571e-09,-6.7083e-07,-5.0404,0.96968
15206,12.179,4.4545,0,0.00027737,2771.7,9.1892e-05,0.0062694,9.0921e-05,-7.288,-0.00027749,-2775.4,0.96906
15207,12.271,4.3636,0,0.00027484,2746.5,9.1057e-05,0.0062961,9.0091e-05,-7.2489,-0.00027496,-2750.1,0.98183
15208,12.179,4.3636,0.05,8.732e-07,8.726,6.7051e-07,5.0379,3.4731e-12,8.2443e-07,-6.7052e-07,-5.038,0.96927
15209,12.179,4.6364,0,0.00027757,2773.8,9.187e-05,0.0069937,9.114e-05,-5.4801,-0.00027766,-2776.5,0.96855
15210,12.271,4.5455,0,0.00027503,2748.4,9.1037e-05,0.0069925,9.0292e-05,-5.5934,-0.00027512,-2751.2,0.98135
15211,12.179,4.5455,0.05,8.7274e-07,8.7214,6.7015e-07,5.0352,7.1032e-12,-1.6686e-07,-6.7016e-07,-5.0354,0.96879
15212,12.179,4.8182,0,0.0002778,2776,9.1848e-05,0.0086225,9.1378e-05,-3.5165,-0.00027786,-2777.8,0.96799
15213,12.271,4.7273,0,0.00027524,2750.5,9.1017e-05,0.0084552,9.0513e-05,-3.7801,-0.0002753,-2752.4,0.98082
15214,12.179,4.7273,0.05,8.7223e-07,8.7163,6.6976e-07,5.0322,4.3789e-12,3.5112e-07,-6.6977e-07,-5.0325,0.96825
15215,12.179,5,0,0.00027804,2778.5,9.1824e-05,0.015392,9.1634e-05,-1.4169,-0.00027806,-2779.2,0.96736
15216,12.271,4.9091,0,0.00027547,2752.8,9.0996e-05,0.013346,9.0751e-05,-1.8259,-0.0002755,-2753.7,0.98023
15217,12.179,4.9091,0.05,8.7168e-07,8.7108,6.6934e-07,5.0291,6.212e-12,6.107e-07,-6.6934e-07,-5.0293,0.96765
15218,12.179,5.1818,0,0.0002783,2781.1,9.191e-05,0.84614,9.1796e-05,-0.015399,-0.00027829,-2780.7,0.96667
15219,12.271,5.0909,0,0.00027571,2755.2,9.1015e-05,0.32663,9.0965e-05,-0.050497,-0.00027571,-2755.1,0.97958
15220,12.179,5.0909,0.05,8.7108e-07,8.7047,6.6887e-07,5.0256,7.1427e-12,-2.9895e-07,-6.6888e-07,-5.0258,0.967
15221,12.179,5.3636,0,0.00027858,2783.8,9.2196e-05,3.1769,9.1773e-05,-0.001491,-0.00027852,-2782.2,0.96592
15222,12.271,5.2727,0,0.00027597,2757.8,9.1279e-05,2.4836,9.0948e-05,-0.0033573,-0.00027593,-2756.6,0.97886
15223,12.179,5.2727,0.05,8.7024e-07,8.6964,6.6823e-07,5.0207,7.1567e-12,7.8432e-07,-6.6824e-07,-5.021,0.96628
15224,12.179,5.5455,0,0.00027887,2786.8,9.25e-05,5.6558,9.1748e-05,0.0018298,-0.00027878,-2784,0.96512
15225,12.271,5.4545,0,0.00027625,2760.6,9.1563e-05,4.7893,9.0926e-05,-0.00054947,-0.00027617,-2758.2,0.97809
15226,12.179,5.4545,0.05,8.6628e-07,8.6568,6.6519e-07,4.9978,1.0829e-11,1.3974e-06,-6.652e-07,-4.9982,0.9655
15227,12.179,5.7273,0,0.00027928,2790.9,9.2906e-05,8.8914,9.1723e-05,-0.00052464,-0.00027913,-2786.5,0.96425
15228,12.271,5.6364,0,0.00027656,2763.6,9.187e-05,7.2641,9.0904e-05,0.0030981,-0.00027643,-2760,0.97726
15229,12.179,5.6364,0.05,8.1478e-07,8.1422,6.2564e-07,4.7008,1.0824e-11,2.3938e-06,-6.2566e-07,-4.701,0.96466
15230,12.271,5.8182,0,0.00027707,2768.8,9.2367e-05,11.163,9.0881e-05,-0.0050038,-0.00027688,-2763.2,0.97637
15231,12.179,5.8182,0.05,3.7291e-08,0.37265,2.863e-08,0.21503,2.7528e-12,-6.1973e-05,-2.864e-08,-0.21527,0.96377
15232,12.179,5.9091,0,0.00027901,2788.2,9.2705e-05,7.5419,9.1701e-05,-0.0011228,-0.00027889,-2784.4,0.96332
15233,12.363,0.27273,0,0.00027433,2741.4,9.1318e-05,9.4386,9.0061e-05,-0.00085542,-0.00027417,-2736.7,0.98944
15234,12.456,0.18182,0,0.00027213,2719.4,9.0773e-05,11.625,8.9225e-05,-0.0044167,-0.00027193,-2713.6,1.0017
15235,12.363,0.18182,0.05,3.0349e-08,0.30328,2.3309e-08,0.17521,-2.8491e-12,6.0862e-05,-2.3299e-08,-0.17499,0.98897
15236,12.363,0.090909,0,0.00027404,2738.5,9.1086e-05,7.8314,9.0044e-05,-0.0012214,-0.0002739,-2734.5,0.98853
15237,12.363,0.45455,0,0.00027393,2737.4,9.093e-05,6.3715,9.0082e-05,0.0010132,-0.00027382,-2734.2,0.9903
15238,12.456,0.36364,0,0.00027162,2714.3,9.0292e-05,7.8749,8.9244e-05,0.0019699,-0.00027148,-2710.4,1.0025
15239,12.363,0.36364,0.05,8.1051e-07,8.0995,6.2238e-07,4.6764,-8.13e-12,3.3833e-06,-6.2236e-07,-4.6761,0.98985
15240,12.363,0.63636,0,0.00027365,2734.6,9.0644e-05,4.0725,9.0102e-05,-0.0014422,-0.00027358,-2732.6,0.99109
15241,12.456,0.54545,0,0.00027133,2711.4,9.0004e-05,5.5747,8.9262e-05,-0.00086613,-0.00027123,-2708.6,1.0034
15242,12.363,0.54545,0.05,8.6209e-07,8.615,6.6199e-07,4.974,-9.0262e-12,4.2092e-06,-6.6197e-07,-4.9737,0.99068
15243,12.363,0.81818,0,0.00027339,2732,9.0377e-05,1.91,9.0122e-05,-0.006374,-0.00027335,-2731,0.99183
15244,12.456,0.72727,0,0.00027106,2708.8,8.9738e-05,3.4406,8.928e-05,-0.0025228,-0.000271,-2707,1.0041
15245,12.363,0.72727,0.05,8.6601e-07,8.6541,6.65e-07,4.9966,-7.1771e-12,5.1503e-06,-6.6498e-07,-4.9963,0.99144
15246,12.363,1,0,0.00027314,2729.5,9.0154e-05,0.08106,9.0112e-05,-0.23756,-0.00027314,-2729.6,0.99251
15247,12.456,0.90909,0,0.00027081,2706.3,8.9487e-05,1.4131,8.9298e-05,-0.01067,-0.00027079,-2705.6,1.0048
15248,12.363,0.90909,0.05,8.6679e-07,8.6619,6.6559e-07,5.0011,-7.1653e-12,4.9319e-06,-6.6558e-07,-5.0009,0.99215
15249,12.363,1.1818,0,0.00027291,2727.2,9.0165e-05,0.01243,8.9882e-05,-2.11,-0.00027294,-2728.2,0.99312
15250,12.456,1.0909,0,0.00027058,2703.9,8.9323e-05,0.037964,8.9243e-05,-0.5618,-0.00027059,-2704.2,1.0055
15251,12.363,1.0909,0.05,8.6734e-07,8.6674,6.6602e-07,5.0042,-7.1508e-12,5.2027e-06,-6.66e-07,-5.004,0.9928
15252,12.363,1.3636,0,0.00027269,2725.1,9.0184e-05,0.0084133,8.9662e-05,-3.9143,-0.00027276,-2727,0.99368
15253,12.456,1.2727,0,0.00027036,2701.8,8.9337e-05,0.011768,8.9024e-05,-2.3397,-0.0002704,-2702.9,1.006
15254,12.363,1.2727,0.05,8.6784e-07,8.6724,6.6639e-07,5.0071,-5.321e-12,4.8922e-06,-6.6638e-07,-5.0069,0.99338
15255,12.363,1.5455,0,0.0002725,2723.1,9.0202e-05,0.0070338,8.9459e-05,-5.575,-0.00027259,-2725.9,0.99418
15256,12.456,1.4545,0,0.00027017,2699.8,8.9354e-05,0.0083623,8.882e-05,-4.0052,-0.00027023,-2701.8,1.0066
15257,12.363,1.4545,0.05,8.6829e-07,8.6769,6.6675e-07,5.0097,-3.4956e-12,4.7041e-06,-6.6673e-07,-5.0096,0.99391
15258,12.363,1.7273,0,0.00027233,2721.4,9.0218e-05,0.0063484,8.9276e-05,-7.0769,-0.00027245,-2724.9,0.99462
15259,12.456,1.6364,0,0.00026999,2698,8.937e-05,0.0070659,8.8633e-05,-5.5249,-0.00027008,-2700.8,1.007
15260,12.363,1.6364,0.05,8.6871e-07,8.6811,6.6706e-07,5.0121,-5.3169e-12,4.8616e-06,-6.6706e-07,-5.0119,0.99438
15261,12.363,1.9091,0,0.00027217,2719.8,9.0234e-05,0.0059455,8.9114e-05,-8.4071,-0.00027231,-2724,0.995
15262,12.456,1.8182,0,0.00026983,2696.4,8.9384e-05,0.0063997,8.8467e-05,-6.8854,-0.00026994,-2699.8,1.0074
15263,12.363,1.8182,0.05,8.6908e-07,8.6848,6.6735e-07,5.0142,-5.3221e-12,4.2847e-06,-6.6734e-07,-5.0141,0.99479
15264,12.363,2.0909,0,0.00027204,2718.5,9.0247e-05,0.0056837,8.8975e-05,-9.5542,-0.0002722,-2723.3,0.99532
15265,12.456,2,0,0.00026969,2695,8.9397e-05,0.0060017,8.8322e-05,-8.075,-0.00026982,-2699,1.0078
15266,12.363,2,0.05,8.694e-07,8.688,6.676e-07,5.0161,-3.5131e-12,4.1523e-06,-6.6759e-07,-5.016,0.99514
15267,12.363,2.2727,0,0.00027193,2717.4,9.0258e-05,0.0055051,8.8859e-05,-10.508,-0.00027211,-2722.7,0.99559
15268,12.456,2.1818,0,0.00026957,2693.8,8.9408e-05,0.0057444,8.8199e-05,-9.0833,-0.00026972,-2698.4,1.0081
15269,12.363,2.1818,0.05,8.6967e-07,8.6907,6.678e-07,5.0176,-2.6206e-12,4.2665e-06,-6.678e-07,-5.0175,0.99544
15270,12.363,2.4545,0,0.00027185,2716.6,9.0267e-05,0.0053836,8.8768e-05,-11.259,-0.00027204,-2722.2,0.99579
15271,12.456,2.3636,0,0.00026948,2692.9,8.9418e-05,0.0055725,8.8099e-05,-9.9014,-0.00026964,-2697.8,1.0083
15272,12.363,2.3636,0.05,8.6989e-07,8.6929,6.6797e-07,5.0189,-2.6412e-12,3.8835e-06,-6.6797e-07,-5.0188,0.99567
15273,12.363,2.6364,0,0.00027179,2716,9.0274e-05,0.0053037,8.8702e-05,-11.801,-0.00027198,-2721.9,0.99594
15274,12.456,2.5455,0,0.0002694,2692.2,8.9425e-05,0.0054597,8.8024e-05,-10.522,-0.00026958,-2697.4,1.0085
15275,12.363,2.5455,0.05,8.7006e-07,8.6946,6.681e-07,5.0198,-1.7536e-12,3.7115e-06,-6.6809e-07,-5.0198,0.99585
15276,12.363,2.8182,0,0.00027175,2715.6,9.0277e-05,0.0052569,8.8663e-05,-12.128,-0.00027195,-2721.6,0.99603
15277,12.456,2.7273,0,0.00026936,2691.7,8.943e-05,0.0053882,8.7973e-05,-10.939,-0.00026954,-2697.2,1.0086
15278,12.363,2.7273,0.05,8.7017e-07,8.6957,6.6819e-07,5.0205,-8.6878e-13,2.8076e-06,-6.6818e-07,-5.0204,0.99597
15279,12.363,3,0,0.00027174,2715.5,9.0279e-05,0.0052419,8.8649e-05,-12.237,-0.00027194,-2721.6,0.99606
15280,12.456,2.9091,0,0.00026933,2691.5,8.9432e-05,0.0053547,8.7948e-05,-11.148,-0.00026952,-2697,1.0087
15281,12.363,2.9091,0.05,8.7023e-07,8.6962,6.6823e-07,5.0208,1.3732e-14,2.6066e-06,-6.6823e-07,-5.0208,0.99602
15282,12.363,3.1818,0,0.00027175,2715.6,9.0277e-05,0.0052571,8.8663e-05,-12.128,-0.00027195,-2721.6,0.99603
15283,12.456,3.0909,0,0.00026933,2691.5,8.9432e-05,0.0053548,8.7948e-05,-11.148,-0.00026952,-2697,1.0087
15284,12.363,3.0909,0.05,8.7023e-07,8.6962,6.6823e-07,5.0208,8.9575e-13,2.2808e-06,-6.6823e-07,-5.0208,0.99602
15285,12.363,3.3636,0,0.00027179,2716,9.0274e-05,0.0053032,8.8702e-05,-11.801,-0.00027198,-2721.9,0.99594
15286,12.456,3.2727,0,0.00026936,2691.7,8.943e-05,0.0053887,8.7973e-05,-10.939,-0.00026954,-2697.2,1.0086
15287,12.363,3.2727,0.05,8.7017e-07,8.6957,6.6818e-07,5.0204,8.6864e-13,2.0768e-06,-6.6818e-07,-5.0205,0.99597
15288,12.363,3.5455,0,0.00027185,2716.6,9.0267e-05,0.0053836,8.8768e-05,-11.259,-0.00027204,-2722.2,0.99579
15289,12.456,3.4545,0,0.0002694,2692.2,8.9425e-05,0.005459,8.8024e-05,-10.522,-0.00026958,-2697.4,1.0085
15290,12.363,3.4545,0.05,8.7006e-07,8.6946,6.681e-07,5.0198,8.4378e-13,1.7669e-06,-6.681e-07,-5.0198,0.99585
15291,12.363,3.7273,0,0.00027193,2717.4,9.0258e-05,0.0055055,8.8859e-05,-10.508,-0.00027211,-2722.7,0.99559
15292,12.456,3.6364,0,0.00026948,2692.9,8.9418e-05,0.0055734,8.8099e-05,-9.9014,-0.00026964,-2697.8,1.0083
15293,12.363,3.6364,0.05,8.6989e-07,8.6929,6.6797e-07,5.0188,8.1978e-13,1.959e-06,-6.6797e-07,-5.0189,0.99567
15294,12.363,3.9091,0,0.00027204,2718.5,9.0247e-05,0.0056832,8.8975e-05,-9.5542,-0.0002722,-2723.3,0.99532
15295,12.456,3.8182,0,0.00026957,2693.8,8.9408e-05,0.0057441,8.8199e-05,-9.0833,-0.00026972,-2698.4,1.0081
15296,12.363,3.8182,0.05,8.6967e-07,8.6907,6.678e-07,5.0176,2.6175e-12,2.405e-06,-6.678e-07,-5.0176,0.99544
15297,12.363,4.0909,0,0.00027217,2719.8,9.0234e-05,0.005944,8.9114e-05,-8.4071,-0.00027231,-2724,0.995
15298,12.456,4,0,0.00026969,2695,8.9397e-05,0.0060017,8.8322e-05,-8.075,-0.00026982,-2699,1.0078
15299,12.363,4,0.05,8.694e-07,8.688,6.6759e-07,5.016,3.516e-12,1.5131e-06,-6.6759e-07,-5.0161,0.99514
15300,12.363,4.2727,0,0.00027233,2721.4,9.0218e-05,0.0063473,8.9276e-05,-7.0768,-0.00027245,-2724.9,0.99462
15301,12.456,4.1818,0,0.00026983,2696.4,8.9384e-05,0.0063984,8.8467e-05,-6.8854,-0.00026994,-2699.8,1.0074
15302,12.363,4.1818,0.05,8.6908e-07,8.6848,6.6734e-07,5.0141,3.5073e-12,1.0318e-06,-6.6735e-07,-5.0142,0.99479
15303,12.363,4.4545,0,0.0002725,2723.1,9.0202e-05,0.0070324,8.9459e-05,-5.575,-0.00027259,-2725.9,0.99418
15304,12.456,4.3636,0,0.00026999,2698,8.937e-05,0.0070659,8.8633e-05,-5.5249,-0.00027008,-2700.8,1.007
15305,12.363,4.3636,0.05,8.6871e-07,8.6811,6.6706e-07,5.012,5.3138e-12,1.7982e-06,-6.6707e-07,-5.0121,0.99438
15306,12.363,4.6364,0,0.00027269,2725.1,9.0184e-05,0.0084122,8.9662e-05,-3.9143,-0.00027276,-2727,0.99368
15307,12.456,4.5455,0,0.00027017,2699.8,8.9354e-05,0.0083618,8.882e-05,-4.0051,-0.00027023,-2701.8,1.0066
15308,12.363,4.5455,0.05,8.6829e-07,8.6769,6.6673e-07,5.0096,6.2243e-12,8.7612e-07,-6.6675e-07,-5.0097,0.99391
15309,12.363,4.8182,0,0.00027291,2727.2,9.0165e-05,0.01243,8.9883e-05,-2.11,-0.00027294,-2728.2,0.99312
15310,12.456,4.7273,0,0.00027036,2701.8,8.9337e-05,0.011767,8.9024e-05,-2.3396,-0.0002704,-2702.9,1.006
15311,12.363,4.7273,0.05,8.6784e-07,8.6724,6.6638e-07,5.0069,6.2267e-12,1.9016e-06,-6.664e-07,-5.0071,0.99338
15312,12.363,5,0,0.00027314,2729.5,9.0154e-05,0.08107,9.0112e-05,-0.23752,-0.00027314,-2729.6,0.99251
15313,12.456,4.9091,0,0.00027058,2703.9,8.9323e-05,0.037965,8.9243e-05,-0.56176,-0.00027059,-2704.2,1.0055
15314,12.363,4.9091,0.05,8.6734e-07,8.6674,6.66e-07,5.004,6.2352e-12,1.9567e-06,-6.6601e-07,-5.0042,0.9928
15315,12.363,5.1818,0,0.00027339,2732,9.0377e-05,1.9101,9.0122e-05,-0.0063755,-0.00027335,-2731,0.99183
15316,12.456,5.0909,0,0.00027081,2706.3,8.9487e-05,1.4131,8.9298e-05,-0.010671,-0.00027079,-2705.6,1.0048
15317,12.363,5.0909,0.05,8.6679e-07,8.6619,6.6558e-07,5.0009,7.1578e-12,1.1759e-06,-6.6559e-07,-5.0011,0.99215
15318,12.363,5.3636,0,0.00027365,2734.6,9.0644e-05,4.0726,9.0102e-05,-0.0014434,-0.00027358,-2732.6,0.99109
15319,12.456,5.2727,0,0.00027106,2708.8,8.9738e-05,3.4406,8.928e-05,-0.0025239,-0.000271,-2707,1.0041
15320,12.363,5.2727,0.05,8.6601e-07,8.6541,6.6498e-07,4.9963,8.0863e-12,2.0376e-06,-6.65e-07,-4.9966,0.99144
15321,12.363,5.5455,0,0.00027393,2737.4,9.093e-05,6.3715,9.0082e-05,0.0010125,-0.00027382,-2734.2,0.9903
15322,12.456,5.4545,0,0.00027133,2711.4,9.0004e-05,5.5747,8.9262e-05,-0.00086677,-0.00027123,-2708.6,1.0034
15323,12.363,5.4545,0.05,8.6209e-07,8.615,6.6197e-07,4.9737,9.929e-12,2.4916e-06,-6.6199e-07,-4.974,0.99068
15324,12.363,5.7273,0,0.00027433,2741.4,9.1318e-05,9.4386,9.0061e-05,-0.00085601,-0.00027417,-2736.7,0.98944
15325,12.456,5.6364,0,0.00027162,2714.3,9.0292e-05,7.8749,8.9244e-05,0.0019694,-0.00027148,-2710.4,1.0025
15326,12.363,5.6364,0.05,8.1051e-07,8.0995,6.2236e-07,4.6761,9.0402e-12,3.6426e-06,-6.2238e-07,-4.6764,0.98985
15327,12.456,5.8182,0,0.00027213,2719.4,9.0773e-05,11.625,8.9225e-05,-0.0044163,-0.00027193,-2713.6,1.0017
15328,12.363,5.8182,0.05,3.0348e-08,0.30327,2.3297e-08,0.175,3.2044e-12,-4.5847e-05,-2.3311e-08,-0.17519,0.98897
15329,12.363,5.9091,0,0.00027404,2738.5,9.1086e-05,7.8314,9.0044e-05,-0.0012222,-0.0002739,-2734.5,0.98853
15330,12.548,0.27273,0,0.0002694,2692.1,8.9734e-05,9.963,8.8408e-05,-0.0011714,-0.00026923,-2687.1,1.0148
15331,12.64,0.18182,0,0.0002672,2670.2,8.9185e-05,12.072,8.7578e-05,-0.0038996,-0.000267,-2664.1,1.0271
15332,12.548,0.18182,0.05,2.3944e-08,0.23928,1.8393e-08,0.13827,-1.4667e-12,6.2279e-05,-1.838e-08,-0.13803,1.0144
15333,12.548,0.090909,0,0.00026908,2688.9,8.9474e-05,8.1116,8.8394e-05,-0.0013143,-0.00026894,-2684.9,1.0139
15334,12.548,0.45455,0,0.00026901,2688.2,8.9362e-05,7.0515,8.8424e-05,0.00028809,-0.00026889,-2684.7,1.0157
15335,12.64,0.36364,0,0.0002667,2665.2,8.8717e-05,8.4574,8.7592e-05,0.00092332,-0.00026656,-2660.9,1.028
15336,12.548,0.36364,0.05,8.0631e-07,8.0576,6.1916e-07,4.6522,-7.2396e-12,3.2049e-06,-6.1914e-07,-4.6519,1.0152
15337,12.548,0.63636,0,0.00026874,2685.5,8.9095e-05,4.9194,8.844e-05,-0.0014979,-0.00026865,-2683.1,1.0164
15338,12.64,0.54545,0,0.00026642,2662.4,8.8447e-05,6.3191,8.7606e-05,-0.0011578,-0.00026631,-2659.2,1.0288
15339,12.548,0.54545,0.05,8.5795e-07,8.5736,6.5881e-07,4.9501,-7.2164e-12,4.6598e-06,-6.5879e-07,-4.9498,1.016
15340,12.548,0.81818,0,0.00026849,2683,8.8845e-05,2.9184,8.8456e-05,-0.0040598,-0.00026844,-2681.6,1.0172
15341,12.64,0.72727,0,0.00026617,2659.9,8.8199e-05,4.3443,8.762e-05,-0.0021905,-0.0002661,-2657.7,1.0296
15342,12.548,0.72727,0.05,8.6183e-07,8.6123,6.6178e-07,4.9725,-8.1067e-12,5.7911e-06,-6.6177e-07,-4.9722,1.0168
15343,12.548,1,0,0.00026825,2680.7,8.861e-05,1.0298,8.8471e-05,-0.016785,-0.00026824,-2680.2,1.0178
15344,12.64,0.90909,0,0.00026593,2657.5,8.7964e-05,2.4678,8.7635e-05,-0.0057306,-0.00026589,-2656.3,1.0302
15345,12.548,0.90909,0.05,8.6256e-07,8.6197,6.6235e-07,4.9767,-7.1724e-12,5.3729e-06,-6.6233e-07,-4.9764,1.0175
15346,12.548,1.1818,0,0.00026803,2678.5,8.8493e-05,0.028318,8.8383e-05,-0.80422,-0.00026805,-2678.9,1.0184
15347,12.64,1.0909,0,0.00026571,2655.3,8.7745e-05,0.71206,8.7647e-05,-0.026402,-0.0002657,-2654.9,1.0309
15348,12.548,1.0909,0.05,8.6306e-07,8.6246,6.6273e-07,4.9796,-5.3519e-12,4.983e-06,-6.6271e-07,-4.9793,1.0181
15349,12.548,1.3636,0,0.00026783,2676.5,8.8507e-05,0.011502,8.8179e-05,-2.4517,-0.00026787,-2677.7,1.019
15350,12.64,1.2727,0,0.0002655,2653.2,8.7668e-05,0.023623,8.7532e-05,-0.99946,-0.00026552,-2653.7,1.0315
15351,12.548,1.2727,0.05,8.6351e-07,8.6292,6.6308e-07,4.9822,-5.3441e-12,4.9531e-06,-6.6306e-07,-4.9819,1.0187
15352,12.548,1.5455,0,0.00026765,2674.6,8.8522e-05,0.0083978,8.7991e-05,-3.9763,-0.00026772,-2676.6,1.0195
15353,12.64,1.4545,0,0.00026532,2651.3,8.768e-05,0.011242,8.7343e-05,-2.5221,-0.00026536,-2652.6,1.032
15354,12.548,1.4545,0.05,8.6393e-07,8.6333,6.6339e-07,4.9845,-5.3397e-12,4.6426e-06,-6.6338e-07,-4.9844,1.0192
15355,12.548,1.7273,0,0.00026748,2673,8.8535e-05,0.0071362,8.7822e-05,-5.3545,-0.00026757,-2675.7,1.0199
15356,12.64,1.6364,0,0.00026515,2649.6,8.7693e-05,0.008394,8.717e-05,-3.9165,-0.00026521,-2651.6,1.0324
15357,12.548,1.6364,0.05,8.643e-07,8.637,6.6368e-07,4.9867,-5.3402e-12,5.0703e-06,-6.6367e-07,-4.9865,1.0197
15358,12.548,1.9091,0,0.00026734,2671.5,8.8548e-05,0.0064706,8.7672e-05,-6.574,-0.00026745,-2674.8,1.0203
15359,12.64,1.8182,0,0.000265,2648.1,8.7705e-05,0.0071737,8.7016e-05,-5.1642,-0.00026508,-2650.7,1.0328
15360,12.548,1.8182,0.05,8.6463e-07,8.6404,6.6393e-07,4.9886,-3.5237e-12,4.3194e-06,-6.6393e-07,-4.9885,1.0201
15361,12.548,2.0909,0,0.00026721,2670.3,8.8559e-05,0.0060713,8.7543e-05,-7.6247,-0.00026734,-2674.1,1.0206
15362,12.64,2,0,0.00026486,2646.8,8.7715e-05,0.0065172,8.6882e-05,-6.2544,-0.00026497,-2649.9,1.0332
15363,12.548,2,0.05,8.6492e-07,8.6432,6.6416e-07,4.9902,-3.5331e-12,4.4168e-06,-6.6415e-07,-4.9901,1.0204
15364,12.548,2.2727,0,0.00026711,2669.3,8.8568e-05,0.005816,8.7436e-05,-8.4974,-0.00026726,-2673.5,1.0209
15365,12.64,2.1818,0,0.00026475,2645.7,8.7725e-05,0.0061225,8.6768e-05,-7.1776,-0.00026487,-2649.3,1.0335
15366,12.548,2.1818,0.05,8.6516e-07,8.6457,6.6434e-07,4.9916,-3.5478e-12,4.0803e-06,-6.6434e-07,-4.9915,1.0207
15367,12.548,2.4545,0,0.00026703,2668.5,8.8575e-05,0.0056495,8.7352e-05,-9.1845,-0.00026719,-2673,1.0211
15368,12.64,2.3636,0,0.00026466,2644.8,8.7732e-05,0.0058723,8.6676e-05,-7.9262,-0.0002648,-2648.8,1.0337
15369,12.548,2.3636,0.05,8.6536e-07,8.6476,6.6449e-07,4.9927,-8.3442e-13,4.0745e-06,-6.6449e-07,-4.9927,1.021
15370,12.548,2.6364,0,0.00026697,2667.9,8.8581e-05,0.0055429,8.7292e-05,-9.6798,-0.00026714,-2672.7,1.0212
15371,12.64,2.5455,0,0.0002646,2644.1,8.7738e-05,0.005713,8.6607e-05,-8.4935,-0.00026474,-2648.4,1.0339
15372,12.548,2.5455,0.05,8.6551e-07,8.6491,6.6461e-07,4.9936,-8.5374e-13,3.877e-06,-6.646e-07,-4.9935,1.0211
15373,12.548,2.8182,0,0.00026694,2667.5,8.8584e-05,0.0054834,8.7255e-05,-9.9788,-0.00026711,-2672.5,1.0213
15374,12.64,2.7273,0,0.00026455,2643.7,8.7742e-05,0.0056167,8.656e-05,-8.8745,-0.0002647,-2648.1,1.034
15375,12.548,2.7273,0.05,8.6561e-07,8.6501,6.6468e-07,4.9942,-1.7846e-12,2.9994e-06,-6.6468e-07,-4.9941,1.0212
15376,12.548,3,0,0.00026693,2667.4,8.8585e-05,0.0054645,8.7243e-05,-10.079,-0.0002671,-2672.5,1.0213
15377,12.64,2.9091,0,0.00026453,2643.5,8.7744e-05,0.0055719,8.6536e-05,-9.0659,-0.00026468,-2648,1.034
15378,12.548,2.9091,0.05,8.6566e-07,8.6506,6.6472e-07,4.9944,1.1639e-14,3.187e-06,-6.6472e-07,-4.9944,1.0213
15379,12.548,3.1818,0,0.00026694,2667.5,8.8584e-05,0.0054837,8.7255e-05,-9.9788,-0.00026711,-2672.5,1.0213
15380,12.64,3.0909,0,0.00026453,2643.5,8.7744e-05,0.0055717,8.6536e-05,-9.0659,-0.00026468,-2648,1.034
15381,12.548,3.0909,0.05,8.6566e-07,8.6506,6.6472e-07,4.9944,-1.1665e-14,2.4755e-06,-6.6472e-07,-4.9944,1.0213
15382,12.548,3.3636,0,0.00026697,2667.9,8.8581e-05,0.005543,8.7292e-05,-9.6798,-0.00026714,-2672.7,1.0212
15383,12.64,3.2727,0,0.00026455,2643.7,8.7742e-05,0.0056173,8.656e-05,-8.8745,-0.0002647,-2648.1,1.034
15384,12.548,3.2727,0.05,8.6561e-07,8.6501,6.6468e-07,4.9941,1.7843e-12,2.6015e-06,-6.6468e-07,-4.9942,1.0212
15385,12.548,3.5455,0,0.00026703,2668.5,8.8575e-05,0.0056496,8.7352e-05,-9.1845,-0.00026719,-2673,1.0211
15386,12.64,3.4545,0,0.0002646,2644.1,8.7738e-05,0.0057127,8.6607e-05,-8.4935,-0.00026474,-2648.4,1.0339
15387,12.548,3.4545,0.05,8.6551e-07,8.6491,6.646e-07,4.9935,1.7627e-12,2.1408e-06,-6.6461e-07,-4.9936,1.0211
15388,12.548,3.7273,0,0.00026711,2669.3,8.8568e-05,0.0058163,8.7436e-05,-8.4974,-0.00026726,-2673.5,1.0209
15389,12.64,3.6364,0,0.00026466,2644.8,8.7732e-05,0.0058726,8.6676e-05,-7.9262,-0.0002648,-2648.8,1.0337
15390,12.548,3.6364,0.05,8.6536e-07,8.6476,6.6449e-07,4.9927,1.7426e-12,2.5904e-06,-6.6449e-07,-4.9927,1.021
15391,12.548,3.9091,0,0.00026721,2670.3,8.8559e-05,0.0060716,8.7543e-05,-7.6247,-0.00026734,-2674.1,1.0206
15392,12.64,3.8182,0,0.00026475,2645.7,8.7725e-05,0.0061223,8.6768e-05,-7.1776,-0.00026487,-2649.3,1.0335
15393,12.548,3.8182,0.05,8.6516e-07,8.6457,6.6433e-07,4.9916,2.6366e-12,2.4648e-06,-6.6434e-07,-4.9916,1.0207
15394,12.548,4.0909,0,0.00026734,2671.5,8.8548e-05,0.0064707,8.7672e-05,-6.574,-0.00026745,-2674.8,1.0203
15395,12.64,4,0,0.00026486,2646.8,8.7715e-05,0.0065177,8.6882e-05,-6.2544,-0.00026497,-2649.9,1.0332
15396,12.548,4,0.05,8.6492e-07,8.6432,6.6415e-07,4.9902,2.6258e-12,2.0734e-06,-6.6416e-07,-4.9902,1.0204
15397,12.548,4.2727,0,0.00026748,2673,8.8535e-05,0.0071359,8.7822e-05,-5.3544,-0.00026757,-2675.7,1.0199
15398,12.64,4.1818,0,0.000265,2648.1,8.7705e-05,0.0071727,8.7016e-05,-5.1642,-0.00026508,-2650.7,1.0328
15399,12.548,4.1818,0.05,8.6463e-07,8.6404,6.6393e-07,4.9885,3.5237e-12,1.5212e-06,-6.6393e-07,-4.9886,1.0201
15400,12.548,4.4545,0,0.00026765,2674.6,8.8522e-05,0.0083986,8.7991e-05,-3.9763,-0.00026772,-2676.6,1.0195
15401,12.64,4.3636,0,0.00026515,2649.6,8.7693e-05,0.0083939,8.717e-05,-3.9165,-0.00026521,-2651.6,1.0324
15402,12.548,4.3636,0.05,8.643e-07,8.637,6.6367e-07,4.9865,3.5162e-12,2.4468e-06,-6.6368e-07,-4.9867,1.0197
15403,12.548,4.6364,0,0.00026783,2676.5,8.8507e-05,0.011502,8.8179e-05,-2.4517,-0.00026787,-2677.7,1.019
15404,12.64,4.5455,0,0.00026532,2651.3,8.768e-05,0.011244,8.7343e-05,-2.522,-0.00026536,-2652.6,1.032
15405,12.548,4.5455,0.05,8.6393e-07,8.6333,6.6338e-07,4.9844,4.4303e-12,1.5004e-06,-6.6339e-07,-4.9845,1.0192
15406,12.548,4.8182,0,0.00026803,2678.5,8.8493e-05,0.028317,8.8383e-05,-0.80418,-0.00026805,-2678.9,1.0184
15407,12.64,4.7273,0,0.0002655,2653.2,8.7668e-05,0.023623,8.7532e-05,-0.99943,-0.00026552,-2653.7,1.0315
15408,12.548,4.7273,0.05,8.6351e-07,8.6292,6.6306e-07,4.982,6.2563e-12,2.1788e-06,-6.6308e-07,-4.9821,1.0187
15409,12.548,5,0,0.00026825,2680.7,8.861e-05,1.0298,8.8471e-05,-0.016785,-0.00026824,-2680.2,1.0178
15410,12.64,4.9091,0,0.00026571,2655.3,8.7745e-05,0.7121,8.7647e-05,-0.026402,-0.0002657,-2654.9,1.0309
15411,12.548,4.9091,0.05,8.6306e-07,8.6246,6.6271e-07,4.9793,6.2583e-12,2.2169e-06,-6.6273e-07,-4.9795,1.0181
15412,12.548,5.1818,0,0.00026849,2683,8.8845e-05,2.9185,8.8456e-05,-0.0040607,-0.00026844,-2681.6,1.0172
15413,12.64,5.0909,0,0.00026593,2657.5,8.7964e-05,2.4679,8.7635e-05,-0.0057319,-0.00026589,-2656.3,1.0302
15414,12.548,5.0909,0.05,8.6256e-07,8.6197,6.6233e-07,4.9765,7.1792e-12,1.5468e-06,-6.6235e-07,-4.9767,1.0175
15415,12.548,5.3636,0,0.00026874,2685.5,8.9095e-05,4.9194,8.844e-05,-0.0014985,-0.00026865,-2683.1,1.0164
15416,12.64,5.2727,0,0.00026617,2659.9,8.8199e-05,4.3443,8.762e-05,-0.0021912,-0.0002661,-2657.7,1.0296
15417,12.548,5.2727,0.05,8.6183e-07,8.6123,6.6177e-07,4.9722,7.2034e-12,2.5536e-06,-6.6179e-07,-4.9724,1.0168
15418,12.548,5.5455,0,0.00026901,2688.2,8.9362e-05,7.0516,8.8424e-05,0.00028762,-0.00026889,-2684.7,1.0157
15419,12.64,5.4545,0,0.00026642,2662.4,8.8447e-05,6.3191,8.7606e-05,-0.0011579,-0.00026631,-2659.2,1.0288
15420,12.548,5.4545,0.05,8.5795e-07,8.5736,6.5879e-07,4.9498,1.0854e-11,3.0279e-06,-6.5881e-07,-4.9501,1.016
15421,12.548,5.7273,0,0.0002694,2692.1,8.9734e-05,9.963,8.8408e-05,-0.001171,-0.00026923,-2687.1,1.0148
15422,12.64,5.6364,0,0.0002667,2665.2,8.8717e-05,8.4574,8.7592e-05,0.00092294,-0.00026656,-2660.9,1.028
15423,12.548,5.6364,0.05,8.0631e-07,8.0576,6.1914e-07,4.6519,8.1489e-12,3.7822e-06,-6.1916e-07,-4.6522,1.0152
15424,12.64,5.8182,0,0.0002672,2670.2,8.9185e-05,12.072,8.7578e-05,-0.0038993,-0.000267,-2664.1,1.0271
15425,12.548,5.8182,0.05,2.3944e-08,0.23927,1.8379e-08,0.13803,1.5666e-12,-5.0391e-05,-1.8393e-08,-0.13825,1.0144
15426,12.548,5.9091,0,0.00026908,2688.9,8.9474e-05,8.1116,8.8394e-05,-0.0013147,-0.00026894,-2684.9,1.0139
15427,12.733,0.27273,0,0.00026449,2643.1,8.8155e-05,10.466,8.6762e-05,-0.0015021,-0.00026431,-2637.8,1.0404
15428,12.825,0.18182,0,0.0002623,2621.2,8.7603e-05,12.503,8.5938e-05,-0.0034582,-0.00026208,-2614.9,1.0528
15429,12.733,0.18182,0.05,1.806e-08,0.18047,1.3873e-08,0.10431,-2.5388e-12,5.5303e-05,-1.3862e-08,-0.10409,1.0399
15430,12.733,0.090909,0,0.00026414,2639.6,8.7868e-05,8.3831,8.6752e-05,-0.0014352,-0.000264,-2635.4,1.0395
15431,12.733,0.45455,0,0.00026411,2639.3,8.7799e-05,7.6981,8.6774e-05,-0.00039378,-0.00026398,-2635.4,1.0412
15432,12.825,0.36364,0,0.0002618,2616.2,8.7148e-05,9.0135,8.5948e-05,-6.6487e-05,-0.00026165,-2611.7,1.0537
15433,12.733,0.36364,0.05,8.022e-07,8.0164,6.16e-07,4.6284,-1.0878e-11,4.8794e-06,-6.1598e-07,-4.6281,1.0408
15434,12.733,0.63636,0,0.00026385,2636.7,8.7548e-05,5.7205,8.6786e-05,-0.0016235,-0.00026375,-2633.8,1.042
15435,12.825,0.54545,0,0.00026154,2613.6,8.6894e-05,7.0253,8.5958e-05,-0.0014421,-0.00026142,-2610,1.0544
15436,12.733,0.54545,0.05,8.5387e-07,8.5328,6.5567e-07,4.9265,-8.1402e-12,5.4103e-06,-6.5566e-07,-4.9263,1.0416
15437,12.733,0.81818,0,0.00026361,2634.3,8.7315e-05,3.8701,8.6799e-05,-0.0031012,-0.00026354,-2632.3,1.0427
15438,12.825,0.72727,0,0.00026129,2611.1,8.6661e-05,5.1981,8.5969e-05,-0.0020793,-0.00026121,-2608.5,1.0552
15439,12.733,0.72727,0.05,8.5771e-07,8.5711,6.5862e-07,4.9487,-8.1292e-12,6.1556e-06,-6.586e-07,-4.9484,1.0423
15440,12.733,1,0,0.00026339,2632,8.7095e-05,2.1197,8.6812e-05,-0.0074342,-0.00026335,-2631,1.0434
15441,12.825,0.90909,0,0.00026107,2608.9,8.6442e-05,3.4639,8.598e-05,-0.0039327,-0.00026101,-2607.1,1.0559
15442,12.733,0.90909,0.05,8.584e-07,8.5781,6.5915e-07,4.9527,-7.2138e-12,5.9694e-06,-6.5913e-07,-4.9524,1.043
15443,12.733,1.1818,0,0.00026318,2630,8.6892e-05,0.50275,8.682e-05,-0.03926,-0.00026317,-2629.7,1.0439
15444,12.825,1.0909,0,0.00026086,2606.8,8.6236e-05,1.8308,8.5991e-05,-0.0091107,-0.00026082,-2605.8,1.0565
15445,12.733,1.0909,0.05,8.5886e-07,8.5826,6.595e-07,4.9553,-5.3769e-12,5.4579e-06,-6.5949e-07,-4.9551,1.0436
15446,12.733,1.3636,0,0.00026299,2628,8.6841e-05,0.021864,8.6693e-05,-1.0903,-0.000263,-2628.6,1.0445
15447,12.825,1.2727,0,0.00026066,2604.8,8.605e-05,0.34898,8.5996e-05,-0.057483,-0.00026066,-2604.7,1.057
15448,12.733,1.2727,0.05,8.5927e-07,8.5867,6.5982e-07,4.9576,-6.2759e-12,5.4522e-06,-6.598e-07,-4.9575,1.0442
15449,12.733,1.5455,0,0.00026281,2626.3,8.6851e-05,0.011224,8.6519e-05,-2.484,-0.00026285,-2627.5,1.045
15450,12.825,1.4545,0,0.00026048,2603,8.6017e-05,0.020635,8.5863e-05,-1.141,-0.0002605,-2603.6,1.0576
15451,12.733,1.4545,0.05,8.5964e-07,8.5905,6.601e-07,4.9598,-4.45e-12,5.3242e-06,-6.601e-07,-4.9596,1.0447
15452,12.733,1.7273,0,0.00026265,2624.7,8.6862e-05,0.0084644,8.6362e-05,-3.7478,-0.00026272,-2626.6,1.0454
15453,12.825,1.6364,0,0.00026032,2601.4,8.6026e-05,0.011169,8.5703e-05,-2.4153,-0.00026036,-2602.6,1.058
15454,12.733,1.6364,0.05,8.5998e-07,8.5939,6.6037e-07,4.9618,-6.271e-12,5.3761e-06,-6.6035e-07,-4.9616,1.0452
15455,12.733,1.9091,0,0.00026252,2623.4,8.6872e-05,0.0072438,8.6224e-05,-4.8659,-0.0002626,-2625.8,1.0458
15456,12.825,1.8182,0,0.00026018,2600,8.6035e-05,0.0084939,8.5561e-05,-3.5588,-0.00026024,-2601.7,1.0584
15457,12.733,1.8182,0.05,8.6028e-07,8.5969,6.6059e-07,4.9635,-3.5477e-12,4.8498e-06,-6.6059e-07,-4.9633,1.0456
15458,12.733,2.0909,0,0.0002624,2622.2,8.6881e-05,0.0065813,8.6105e-05,-5.8285,-0.0002625,-2625.1,1.0461
15459,12.825,2,0,0.00026005,2598.7,8.6044e-05,0.0072816,8.5436e-05,-4.5576,-0.00026013,-2601,1.0587
15460,12.733,2,0.05,8.6054e-07,8.5995,6.608e-07,4.965,-3.5531e-12,4.8755e-06,-6.6079e-07,-4.9649,1.0459
15461,12.733,2.2727,0,0.0002623,2621.2,8.6889e-05,0.0061838,8.6006e-05,-6.6274,-0.00026242,-2624.5,1.0463
15462,12.825,2.1818,0,0.00025995,2597.7,8.6051e-05,0.0066187,8.5331e-05,-5.4031,-0.00026004,-2600.4,1.059
15463,12.733,2.1818,0.05,8.6076e-07,8.6017,6.6096e-07,4.9662,-3.5629e-12,4.6802e-06,-6.6096e-07,-4.9662,1.0462
15464,12.733,2.4545,0,0.00026223,2620.5,8.6895e-05,0.0059354,8.5928e-05,-7.2561,-0.00026235,-2624.1,1.0465
15465,12.825,2.3636,0,0.00025986,2596.8,8.6057e-05,0.0062241,8.5246e-05,-6.0881,-0.00025997,-2599.9,1.0592
15466,12.733,2.3636,0.05,8.6094e-07,8.6035,6.611e-07,4.9672,-8.4733e-13,4.8141e-06,-6.6109e-07,-4.9672,1.0464
15467,12.733,2.6364,0,0.00026217,2619.9,8.6899e-05,0.005783,8.5872e-05,-7.709,-0.0002623,-2623.8,1.0467
15468,12.825,2.5455,0,0.0002598,2596.2,8.6062e-05,0.0059835,8.5182e-05,-6.607,-0.00025991,-2599.5,1.0594
15469,12.733,2.5455,0.05,8.6107e-07,8.6048,6.612e-07,4.968,-8.6342e-13,4.2221e-06,-6.612e-07,-4.9679,1.0466
15470,12.733,2.8182,0,0.00026214,2619.6,8.6902e-05,0.0056995,8.5838e-05,-7.9824,-0.00026227,-2623.6,1.0468
15471,12.825,2.7273,0,0.00025976,2595.8,8.6065e-05,0.0058429,8.5138e-05,-6.9554,-0.00025988,-2599.3,1.0595
15472,12.733,2.7273,0.05,8.6116e-07,8.6057,6.6127e-07,4.9685,-8.8124e-13,3.5517e-06,-6.6126e-07,-4.9685,1.0467
15473,12.733,3,0,0.00026213,2619.5,8.6903e-05,0.0056727,8.5827e-05,-8.0738,-0.00026226,-2623.5,1.0468
15474,12.825,2.9091,0,0.00025974,2595.6,8.6067e-05,0.0057775,8.5117e-05,-7.1304,-0.00025986,-2599.1,1.0596
15475,12.733,2.9091,0.05,8.6121e-07,8.6061,6.613e-07,4.9687,9.6245e-15,3.7083e-06,-6.613e-07,-4.9687,1.0468
15476,12.733,3.1818,0,0.00026214,2619.6,8.6902e-05,0.0056996,8.5838e-05,-7.9824,-0.00026227,-2623.6,1.0468
15477,12.825,3.0909,0,0.00025974,2595.6,8.6067e-05,0.0057777,8.5117e-05,-7.1304,-0.00025986,-2599.1,1.0596
15478,12.733,3.0909,0.05,8.6121e-07,8.6061,6.613e-07,4.9687,-9.6587e-15,2.9672e-06,-6.613e-07,-4.9687,1.0468
15479,12.733,3.3636,0,0.00026217,2619.9,8.6899e-05,0.0057831,8.5872e-05,-7.709,-0.0002623,-2623.8,1.0467
15480,12.825,3.2727,0,0.00025976,2595.8,8.6065e-05,0.0058424,8.5138e-05,-6.9554,-0.00025988,-2599.3,1.0595
15481,12.733,3.2727,0.05,8.6116e-07,8.6057,6.6126e-07,4.9685,2.7e-12,3.0039e-06,-6.6127e-07,-4.9685,1.0467
15482,12.733,3.5455,0,0.00026223,2620.5,8.6895e-05,0.0059353,8.5928e-05,-7.2561,-0.00026235,-2624.1,1.0465
15483,12.825,3.4545,0,0.0002598,2596.2,8.6062e-05,0.0059833,8.5182e-05,-6.607,-0.00025991,-2599.5,1.0594
15484,12.733,3.4545,0.05,8.6107e-07,8.6048,6.612e-07,4.968,1.7727e-12,2.6906e-06,-6.6119e-07,-4.968,1.0466
15485,12.733,3.7273,0,0.0002623,2621.2,8.6889e-05,0.0061835,8.6006e-05,-6.6274,-0.00026242,-2624.5,1.0463
15486,12.825,3.6364,0,0.00025986,2596.8,8.6057e-05,0.0062236,8.5246e-05,-6.0881,-0.00025997,-2599.9,1.0592
15487,12.733,3.6364,0.05,8.6094e-07,8.6035,6.6109e-07,4.9672,8.4732e-13,3.159e-06,-6.611e-07,-4.9672,1.0464
15488,12.733,3.9091,0,0.0002624,2622.2,8.6881e-05,0.0065812,8.6105e-05,-5.8284,-0.0002625,-2625.1,1.0461
15489,12.825,3.8182,0,0.00025995,2597.7,8.6051e-05,0.0066188,8.5331e-05,-5.4031,-0.00026004,-2600.4,1.059
15490,12.733,3.8182,0.05,8.6076e-07,8.6017,6.6096e-07,4.9662,8.3382e-13,3.2956e-06,-6.6096e-07,-4.9662,1.0462
15491,12.733,4.0909,0,0.00026252,2623.4,8.6872e-05,0.0072432,8.6224e-05,-4.8659,-0.0002626,-2625.8,1.0458
15492,12.825,4,0,0.00026005,2598.7,8.6044e-05,0.0072812,8.5436e-05,-4.5576,-0.00026013,-2601,1.0587
15493,12.733,4,0.05,8.6054e-07,8.5995,6.6079e-07,4.9649,3.5514e-12,2.8655e-06,-6.608e-07,-4.965,1.0459
15494,12.733,4.2727,0,0.00026265,2624.7,8.6862e-05,0.0084637,8.6362e-05,-3.7478,-0.00026272,-2626.6,1.0454
15495,12.825,4.1818,0,0.00026018,2600,8.6035e-05,0.008493,8.5561e-05,-3.5587,-0.00026024,-2601.7,1.0584
15496,12.733,4.1818,0.05,8.6028e-07,8.5969,6.6059e-07,4.9634,3.5439e-12,2.1847e-06,-6.6059e-07,-4.9635,1.0456
15497,12.733,4.4545,0,0.00026281,2626.3,8.6851e-05,0.011225,8.6519e-05,-2.484,-0.00026285,-2627.5,1.045
15498,12.825,4.3636,0,0.00026032,2601.4,8.6026e-05,0.011169,8.5703e-05,-2.4152,-0.00026036,-2602.6,1.058
15499,12.733,4.3636,0.05,8.5998e-07,8.5939,6.6036e-07,4.9616,3.5434e-12,3.1791e-06,-6.6036e-07,-4.9617,1.0452
15500,12.733,4.6364,0,0.00026299,2628,8.6841e-05,0.021865,8.6693e-05,-1.0902,-0.000263,-2628.6,1.0445
15501,12.825,4.5455,0,0.00026048,2603,8.6017e-05,0.020635,8.5863e-05,-1.141,-0.0002605,-2603.6,1.0576
15502,12.733,4.5455,0.05,8.5964e-07,8.5905,6.6009e-07,4.9597,3.5429e-12,2.3671e-06,-6.6011e-07,-4.9598,1.0447
15503,12.733,4.8182,0,0.00026318,2630,8.6892e-05,0.50278,8.682e-05,-0.039257,-0.00026317,-2629.7,1.0439
15504,12.825,4.7273,0,0.00026066,2604.8,8.605e-05,0.34901,8.5996e-05,-0.057477,-0.00026066,-2604.7,1.057
15505,12.733,4.7273,0.05,8.5927e-07,8.5867,6.5981e-07,4.9575,6.2763e-12,3.0701e-06,-6.5981e-07,-4.9576,1.0442
15506,12.733,5,0,0.00026339,2632,8.7095e-05,2.1197,8.6812e-05,-0.0074354,-0.00026335,-2631,1.0434
15507,12.825,4.9091,0,0.00026086,2606.8,8.6236e-05,1.8308,8.5991e-05,-0.009111,-0.00026082,-2605.8,1.0565
15508,12.733,4.9091,0.05,8.5886e-07,8.5826,6.5949e-07,4.9551,5.3769e-12,3.2359e-06,-6.595e-07,-4.9553,1.0436
15509,12.733,5.1818,0,0.00026361,2634.3,8.7315e-05,3.8701,8.6799e-05,-0.0031024,-0.00026354,-2632.3,1.0427
15510,12.825,5.0909,0,0.00026107,2608.9,8.6442e-05,3.4639,8.598e-05,-0.0039342,-0.00026101,-2607.1,1.0559
15511,12.733,5.0909,0.05,8.584e-07,8.5781,6.5913e-07,4.9525,7.204e-12,2.5267e-06,-6.5915e-07,-4.9526,1.043
15512,12.733,5.3636,0,0.00026385,2636.7,8.7548e-05,5.7205,8.6786e-05,-0.0016238,-0.00026375,-2633.8,1.042
15513,12.825,5.2727,0,0.00026129,2611.1,8.6661e-05,5.1982,8.5969e-05,-0.0020802,-0.00026121,-2608.5,1.0552
15514,12.733,5.2727,0.05,8.5771e-07,8.5711,6.586e-07,4.9484,8.1248e-12,3.3056e-06,-6.5862e-07,-4.9487,1.0423
15515,12.733,5.5455,0,0.00026411,2639.3,8.7799e-05,7.6981,8.6774e-05,-0.00039381,-0.00026398,-2635.4,1.0412
15516,12.825,5.4545,0,0.00026154,2613.6,8.6894e-05,7.0253,8.5958e-05,-0.001442,-0.00026142,-2610,1.0544
15517,12.733,5.4545,0.05,8.5387e-07,8.5328,6.5566e-07,4.9263,9.959e-12,3.6904e-06,-6.5567e-07,-4.9265,1.0416
15518,12.733,5.7273,0,0.00026449,2643.1,8.8155e-05,10.466,8.6762e-05,-0.0015026,-0.00026431,-2637.8,1.0404
15519,12.825,5.6364,0,0.0002618,2616.2,8.7148e-05,9.0136,8.5948e-05,-6.6556e-05,-0.00026165,-2611.7,1.0537
15520,12.733,5.6364,0.05,8.022e-07,8.0164,6.1598e-07,4.6281,1.0883e-11,4.2626e-06,-6.16e-07,-4.6284,1.0408
15521,12.825,5.8182,0,0.0002623,2621.2,8.7603e-05,12.504,8.5938e-05,-0.0034584,-0.00026208,-2614.9,1.0528
15522,12.733,5.8182,0.05,1.8059e-08,0.18047,1.386e-08,0.10409,2.7103e-12,-3.9207e-05,-1.3875e-08,-0.1043,1.0399
15523,12.733,5.9091,0,0.00026414,2639.6,8.7868e-05,8.3832,8.6752e-05,-0.0014357,-0.000264,-2635.4,1.0395
15524,12.917,0.27273,0,0.0002596,2594.2,8.6582e-05,10.949,8.5124e-05,-0.0018421,-0.00025941,-2588.7,1.0661
15525,13.01,0.18182,0,0.00025742,2572.4,8.6026e-05,12.922,8.4306e-05,-0.003063,-0.00025719,-2565.9,1.0787
15526,12.917,0.18182,0.05,1.2663e-08,0.12654,9.7296e-09,0.07316,-2.7493e-12,4.6118e-05,-9.7177e-09,-0.072959,1.0657
15527,12.917,0.090909,0,0.00025923,2590.5,8.6269e-05,8.6468,8.5118e-05,-0.0015775,-0.00025908,-2586.2,1.0653
15528,12.917,0.45455,0,0.00025923,2590.5,8.6239e-05,8.3135,8.5132e-05,-0.0010368,-0.00025908,-2586.3,1.0669
15529,13.01,0.36364,0,0.00025693,2567.5,8.5583e-05,9.5454,8.4312e-05,-0.00098558,-0.00025676,-2562.7,1.0795
15530,12.917,0.36364,0.05,7.9815e-07,7.9759,6.1288e-07,4.6051,-9.9867e-12,4.2126e-06,-6.1287e-07,-4.6047,1.0665
15531,12.917,0.63636,0,0.00025898,2588,8.6004e-05,6.4791,8.5141e-05,-0.0017823,-0.00025887,-2584.7,1.0677
15532,13.01,0.54545,0,0.00025667,2564.9,8.5344e-05,7.696,8.4319e-05,-0.0016997,-0.00025654,-2561.1,1.0803
15533,12.917,0.54545,0.05,8.4983e-07,8.4924,6.5258e-07,4.9033,-8.15e-12,4.3668e-06,-6.5255e-07,-4.903,1.0673
15534,12.917,0.81818,0,0.00025875,2585.7,8.5785e-05,4.7684,8.5151e-05,-0.0026334,-0.00025867,-2583.3,1.0684
15535,13.01,0.72727,0,0.00025644,2562.6,8.5126e-05,6.0058,8.4327e-05,-0.0020605,-0.00025633,-2559.6,1.081
15536,12.917,0.72727,0.05,8.5363e-07,8.5305,6.5549e-07,4.9252,-7.2347e-12,4.5983e-06,-6.5548e-07,-4.9249,1.068
15537,12.917,1,0,0.00025853,2583.6,8.558e-05,3.151,8.516e-05,-0.0046373,-0.00025848,-2582,1.069
15538,13.01,0.90909,0,0.00025622,2560.4,8.4921e-05,4.4037,8.4334e-05,-0.0030382,-0.00025615,-2558.2,1.0816
15539,12.917,0.90909,0.05,8.5429e-07,8.537,6.5599e-07,4.929,-7.2189e-12,5.0256e-06,-6.5598e-07,-4.9287,1.0687
15540,12.917,1.1818,0,0.00025834,2581.6,8.5388e-05,1.6374,8.5169e-05,-0.010423,-0.00025831,-2580.8,1.0696
15541,13.01,1.0909,0,0.00025602,2558.4,8.4728e-05,2.8952,8.4342e-05,-0.0051338,-0.00025597,-2557,1.0823
15542,12.917,1.0909,0.05,8.5471e-07,8.5412,6.5632e-07,4.9314,-6.3001e-12,5.1942e-06,-6.563e-07,-4.9312,1.0693
15543,12.917,1.3636,0,0.00025815,2579.8,8.5218e-05,0.28624,8.5171e-05,-0.069194,-0.00025815,-2579.6,1.0702
15544,13.01,1.2727,0,0.00025583,2556.6,8.455e-05,1.4922,8.435e-05,-0.011267,-0.00025581,-2555.8,1.0828
15545,12.917,1.2727,0.05,8.5509e-07,8.545,6.566e-07,4.9335,-5.385e-12,4.7913e-06,-6.566e-07,-4.9333,1.0699
15546,12.917,1.5455,0,0.00025799,2578.1,8.5192e-05,0.020697,8.5043e-05,-1.0947,-0.00025801,-2578.6,1.0706
15547,13.01,1.4545,0,0.00025566,2554.9,8.4394e-05,0.25659,8.435e-05,-0.074139,-0.00025566,-2554.8,1.0833
15548,12.917,1.4545,0.05,8.5543e-07,8.5484,6.5687e-07,4.9355,-6.2895e-12,4.7839e-06,-6.5686e-07,-4.9353,1.0704
15549,12.917,1.7273,0,0.00025784,2576.6,8.5199e-05,0.011328,8.4899e-05,-2.2484,-0.00025788,-2577.7,1.0711
15550,13.01,1.6364,0,0.00025551,2553.3,8.437e-05,0.020971,8.4232e-05,-1.0178,-0.00025553,-2553.8,1.0838
15551,12.917,1.6364,0.05,8.5574e-07,8.5515,6.5711e-07,4.9373,-4.4702e-12,4.8238e-06,-6.571e-07,-4.9371,1.0708
15552,12.917,1.9091,0,0.00025771,2575.3,8.5207e-05,0.0085955,8.477e-05,-3.2724,-0.00025776,-2576.9,1.0714
15553,13.01,1.8182,0,0.00025537,2552,8.4376e-05,0.011476,8.41e-05,-2.0602,-0.00025541,-2553,1.0841
15554,12.917,1.8182,0.05,8.5601e-07,8.5542,6.5732e-07,4.9388,-3.5611e-12,4.3033e-06,-6.5731e-07,-4.9387,1.0712
15555,12.917,2.0909,0,0.0002576,2574.2,8.5214e-05,0.0073481,8.466e-05,-4.154,-0.00025767,-2576.3,1.0717
15556,13.01,2,0,0.00025526,2550.8,8.4382e-05,0.008676,8.3985e-05,-2.9742,-0.00025531,-2552.3,1.0845
15557,12.917,2,0.05,8.5625e-07,8.5566,6.575e-07,4.9402,-2.6591e-12,4.0756e-06,-6.5749e-07,-4.9401,1.0716
15558,12.917,2.2727,0,0.00025751,2573.3,8.522e-05,0.0066691,8.4568e-05,-4.8854,-0.00025759,-2575.7,1.072
15559,13.01,2.1818,0,0.00025516,2549.8,8.4388e-05,0.0073989,8.3888e-05,-3.7481,-0.00025522,-2551.7,1.0847
15560,12.917,2.1818,0.05,8.5645e-07,8.5586,6.5765e-07,4.9413,-2.6663e-12,4.0442e-06,-6.5764e-07,-4.9412,1.0718
15561,12.917,2.4545,0,0.00025743,2572.6,8.5224e-05,0.0062715,8.4497e-05,-5.4606,-0.00025753,-2575.3,1.0722
15562,13.01,2.3636,0,0.00025508,2549,8.4392e-05,0.0067101,8.3809e-05,-4.3749,-0.00025515,-2551.2,1.085
15563,12.917,2.3636,0.05,8.5661e-07,8.5602,6.5777e-07,4.9423,-8.5785e-13,3.8992e-06,-6.5777e-07,-4.9422,1.0721
15564,12.917,2.6364,0,0.00025738,2572.1,8.5228e-05,0.0060364,8.4445e-05,-5.8749,-0.00025748,-2575,1.0723
15565,13.01,2.5455,0,0.00025502,2548.4,8.4396e-05,0.0063156,8.375e-05,-4.8495,-0.0002551,-2550.8,1.0851
15566,12.917,2.5455,0.05,8.5673e-07,8.5614,6.5786e-07,4.9429,-2.6904e-12,3.7115e-06,-6.5786e-07,-4.9429,1.0722
15567,12.917,2.8182,0,0.00025735,2571.7,8.523e-05,0.0059105,8.4414e-05,-6.1248,-0.00025746,-2574.8,1.0724
15568,13.01,2.7273,0,0.00025498,2548,8.4398e-05,0.0060926,8.371e-05,-5.168,-0.00025506,-2550.6,1.0852
15569,12.917,2.7273,0.05,8.5681e-07,8.5622,6.5792e-07,4.9434,-8.8607e-13,2.7096e-06,-6.5792e-07,-4.9434,1.0723
15570,12.917,3,0,0.00025734,2571.6,8.5231e-05,0.005871,8.4403e-05,-6.2084,-0.00025745,-2574.7,1.0724
15571,13.01,2.9091,0,0.00025496,2547.8,8.44e-05,0.0059921,8.369e-05,-5.328,-0.00025505,-2550.5,1.0853
15572,12.917,2.9091,0.05,8.5685e-07,8.5626,6.5795e-07,4.9436,7.9609e-15,2.9804e-06,-6.5795e-07,-4.9436,1.0724
15573,12.917,3.1818,0,0.00025735,2571.7,8.523e-05,0.0059101,8.4414e-05,-6.1248,-0.00025746,-2574.8,1.0724
15574,13.01,3.0909,0,0.00025496,2547.8,8.44e-05,0.0059919,8.369e-05,-5.328,-0.00025505,-2550.5,1.0853
15575,12.917,3.0909,0.05,8.5685e-07,8.5626,6.5795e-07,4.9436,-7.9786e-15,2.2348e-06,-6.5795e-07,-4.9436,1.0724
15576,12.917,3.3636,0,0.00025738,2572.1,8.5228e-05,0.0060355,8.4445e-05,-5.8749,-0.00025748,-2575,1.0723
15577,13.01,3.2727,0,0.00025498,2548,8.4398e-05,0.0060924,8.371e-05,-5.168,-0.00025506,-2550.6,1.0852
15578,12.917,3.2727,0.05,8.5681e-07,8.5622,6.5792e-07,4.9434,1.7955e-12,2.3265e-06,-6.5792e-07,-4.9434,1.0723
15579,12.917,3.5455,0,0.00025743,2572.6,8.5224e-05,0.0062708,8.4497e-05,-5.4606,-0.00025753,-2575.3,1.0722
15580,13.01,3.4545,0,0.00025502,2548.4,8.4396e-05,0.006315,8.375e-05,-4.8495,-0.0002551,-2550.8,1.0851
15581,12.917,3.4545,0.05,8.5673e-07,8.5614,6.5786e-07,4.9429,1.7806e-12,2.3343e-06,-6.5786e-07,-4.9429,1.0722
15582,12.917,3.7273,0,0.00025751,2573.3,8.522e-05,0.006669,8.4569e-05,-4.8854,-0.00025759,-2575.7,1.072
15583,13.01,3.6364,0,0.00025508,2549,8.4392e-05,0.00671,8.3809e-05,-4.3749,-0.00025515,-2551.2,1.085
15584,12.917,3.6364,0.05,8.5661e-07,8.5602,6.5777e-07,4.9422,2.6768e-12,2.5385e-06,-6.5777e-07,-4.9422,1.0721
15585,12.917,3.9091,0,0.0002576,2574.2,8.5214e-05,0.007348,8.466e-05,-4.154,-0.00025767,-2576.3,1.0717
15586,13.01,3.8182,0,0.00025516,2549.8,8.4388e-05,0.0073984,8.3888e-05,-3.7481,-0.00025522,-2551.7,1.0847
15587,12.917,3.8182,0.05,8.5645e-07,8.5586,6.5764e-07,4.9413,2.6663e-12,2.637e-06,-6.5765e-07,-4.9413,1.0718
15588,12.917,4.0909,0,0.00025771,2575.3,8.5207e-05,0.0085947,8.477e-05,-3.2724,-0.00025776,-2576.9,1.0714
15589,13.01,4,0,0.00025526,2550.8,8.4382e-05,0.0086755,8.3985e-05,-2.9742,-0.00025531,-2552.3,1.0845
15590,12.917,4,0.05,8.5625e-07,8.5566,6.5749e-07,4.9401,3.5672e-12,2.2434e-06,-6.575e-07,-4.9402,1.0716
15591,12.917,4.2727,0,0.00025784,2576.6,8.5199e-05,0.011328,8.4899e-05,-2.2484,-0.00025788,-2577.7,1.0711
15592,13.01,4.1818,0,0.00025537,2552,8.4376e-05,0.011476,8.41e-05,-2.0601,-0.00025541,-2553,1.0841
15593,12.917,4.1818,0.05,8.5601e-07,8.5542,6.5731e-07,4.9387,3.5611e-12,1.8617e-06,-6.5732e-07,-4.9388,1.0712
15594,12.917,4.4545,0,0.00025799,2578.1,8.5192e-05,0.020696,8.5043e-05,-1.0946,-0.00025801,-2578.6,1.0706
15595,13.01,4.3636,0,0.00025551,2553.3,8.437e-05,0.020971,8.4232e-05,-1.0178,-0.00025553,-2553.8,1.0838
15596,12.917,4.3636,0.05,8.5574e-07,8.5515,6.571e-07,4.9371,5.378e-12,2.9119e-06,-6.5711e-07,-4.9373,1.0708
15597,12.917,4.6364,0,0.00025815,2579.8,8.5218e-05,0.28627,8.5171e-05,-0.069187,-0.00025815,-2579.6,1.0702
15598,13.01,4.5455,0,0.00025566,2554.9,8.4394e-05,0.25661,8.435e-05,-0.074133,-0.00025566,-2554.8,1.0833
15599,12.917,4.5455,0.05,8.5543e-07,8.5484,6.5686e-07,4.9354,4.4726e-12,1.8335e-06,-6.5687e-07,-4.9355,1.0704
15600,12.917,4.8182,0,0.00025834,2581.6,8.5388e-05,1.6374,8.5169e-05,-0.010423,-0.00025831,-2580.8,1.0696
15601,13.01,4.7273,0,0.00025583,2556.6,8.455e-05,1.4923,8.435e-05,-0.011267,-0.00025581,-2555.8,1.0828
15602,12.917,4.7273,0.05,8.5509e-07,8.545,6.566e-07,4.9334,5.3868e-12,2.6646e-06,-6.566e-07,-4.9335,1.0699
15603,12.917,5,0,0.00025853,2583.6,8.558e-05,3.1511,8.516e-05,-0.0046379,-0.00025848,-2582,1.069
15604,13.01,4.9091,0,0.00025602,2558.4,8.4728e-05,2.8953,8.4342e-05,-0.0051339,-0.00025597,-2557,1.0823
15605,12.917,4.9091,0.05,8.5471e-07,8.5412,6.563e-07,4.9312,7.2098e-12,2.932e-06,-6.5632e-07,-4.9314,1.0693
15606,12.917,5.1818,0,0.00025875,2585.7,8.5786e-05,4.7684,8.5151e-05,-0.0026346,-0.00025867,-2583.3,1.0684
15607,13.01,5.0909,0,0.00025622,2560.4,8.4921e-05,4.4037,8.4334e-05,-0.0030395,-0.00025615,-2558.2,1.0816
15608,12.917,5.0909,0.05,8.5429e-07,8.537,6.5598e-07,4.9287,7.2189e-12,1.9399e-06,-6.5599e-07,-4.9289,1.0687
15609,12.917,5.3636,0,0.00025898,2588,8.6004e-05,6.4791,8.5141e-05,-0.0017827,-0.00025887,-2584.7,1.0677
15610,13.01,5.2727,0,0.00025644,2562.6,8.5126e-05,6.0058,8.4327e-05,-0.002062,-0.00025633,-2559.6,1.081
15611,12.917,5.2727,0.05,8.5363e-07,8.5305,6.5548e-07,4.9249,7.2351e-12,3.0159e-06,-6.5549e-07,-4.9252,1.068
15612,12.917,5.5455,0,0.00025923,2590.5,8.6239e-05,8.3135,8.5132e-05,-0.0010367,-0.00025908,-2586.3,1.0669
15613,13.01,5.4545,0,0.00025667,2564.9,8.5344e-05,7.6961,8.4319e-05,-0.0016998,-0.00025654,-2561.1,1.0803
15614,12.917,5.4545,0.05,8.4983e-07,8.4924,6.5256e-07,4.903,7.2441e-12,3.1147e-06,-6.5257e-07,-4.9032,1.0673
15615,12.917,5.7273,0,0.0002596,2594.2,8.6582e-05,10.949,8.5124e-05,-0.0018419,-0.00025941,-2588.7,1.0661
15616,13.01,5.6364,0,0.00025693,2567.5,8.5583e-05,9.5454,8.4312e-05,-0.00098513,-0.00025676,-2562.7,1.0795
15617,12.917,5.6364,0.05,7.9815e-07,7.9759,6.1287e-07,4.6048,9.074e-12,3.6861e-06,-6.1288e-07,-4.605,1.0665
15618,13.01,5.8182,0,0.00025742,2572.4,8.6026e-05,12.922,8.4306e-05,-0.0030629,-0.00025719,-2565.9,1.0787
15619,12.917,5.8182,0.05,1.2663e-08,0.12654,9.7174e-09,0.072956,2.5853e-12,-3.9067e-05,-9.7291e-09,-0.073158,1.0657
15620,12.917,5.9091,0,0.00025923,2590.5,8.6269e-05,8.6468,8.5118e-05,-0.0015777,-0.00025908,-2586.2,1.0653
15621,13.102,0.27273,0,0.00025473,2545.5,8.5014e-05,11.415,8.3494e-05,-0.0021493,-0.00025453,-2539.8,1.0921
15622,13.194,0.18182,0,0.00025255,2523.8,8.4456e-05,13.328,8.2682e-05,-0.0027084,-0.00025233,-2517.1,1.1047
15623,13.102,0.18182,0.05,7.7527e-09,0.077474,5.9599e-09,0.044864,-4.5227e-12,3.9461e-05,-5.9463e-09,-0.044595,1.0916
15624,13.102,0.090909,0,0.00025434,2541.7,8.4676e-05,8.9032,8.3491e-05,-0.0017008,-0.00025419,-2537.2,1.0912
15625,13.102,0.45455,0,0.00025436,2541.9,8.4684e-05,8.9003,8.3499e-05,-0.0016087,-0.00025421,-2537.4,1.0929
15626,13.194,0.36364,0,0.00025207,2519,8.4023e-05,10.055,8.2684e-05,-0.0018416,-0.0002519,-2513.9,1.1055
15627,13.102,0.36364,0.05,7.9417e-07,7.9362,6.0983e-07,4.5821,-8.1715e-12,3.2598e-06,-6.0982e-07,-4.5818,1.0924
15628,13.102,0.63636,0,0.00025413,2539.5,8.4463e-05,7.1985,8.3504e-05,-0.0019235,-0.000254,-2535.9,1.0936
15629,13.194,0.54545,0,0.00025182,2516.5,8.3797e-05,8.3342,8.2688e-05,-0.0019359,-0.00025168,-2512.3,1.1062
15630,13.102,0.54545,0.05,8.4585e-07,8.4527,6.4952e-07,4.8803,-8.163e-12,3.2797e-06,-6.495e-07,-4.88,1.0932
15631,13.102,0.81818,0,0.00025391,2537.3,8.4258e-05,5.6173,8.351e-05,-0.0023597,-0.00025381,-2534.5,1.0943
15632,13.194,0.72727,0,0.0002516,2514.3,8.3593e-05,6.7708,8.2692e-05,-0.0020908,-0.00025148,-2510.9,1.107
15633,13.102,0.72727,0.05,8.4962e-07,8.4903,6.5241e-07,4.902,-7.2482e-12,3.0464e-06,-6.5239e-07,-4.9018,1.0939
15634,13.102,1,0,0.0002537,2535.3,8.4066e-05,4.1242,8.3517e-05,-0.0033101,-0.00025363,-2533.2,1.0949
15635,13.194,0.90909,0,0.00025139,2512.2,8.3401e-05,5.2914,8.2697e-05,-0.0025211,-0.0002513,-2509.5,1.1076
15636,13.102,0.90909,0.05,8.5024e-07,8.4965,6.5289e-07,4.9056,-7.2356e-12,3.8539e-06,-6.5287e-07,-4.9054,1.0946
15637,13.102,1.1818,0,0.00025351,2533.4,8.3887e-05,2.7262,8.3523e-05,-0.0053628,-0.00025347,-2532,1.0955
15638,13.194,1.0909,0,0.0002512,2510.3,8.3222e-05,3.8997,8.2702e-05,-0.0034038,-0.00025113,-2508.3,1.1082
15639,13.102,1.0909,0.05,8.5063e-07,8.5004,6.5319e-07,4.9078,-4.5001e-12,4.6758e-06,-6.5317e-07,-4.9076,1.0952
15640,13.102,1.3636,0,0.00025334,2531.6,8.3722e-05,1.4346,8.3529e-05,-0.011166,-0.00025331,-2530.9,1.096
15641,13.194,1.2727,0,0.00025102,2508.5,8.3055e-05,2.6043,8.2707e-05,-0.0052928,-0.00025098,-2507.2,1.1088
15642,13.102,1.2727,0.05,8.5098e-07,8.5039,6.5345e-07,4.9098,-5.4038e-12,4.2848e-06,-6.5344e-07,-4.9096,1.0957
15643,13.102,1.5455,0,0.00025318,2530.1,8.3577e-05,0.29643,8.353e-05,-0.059648,-0.00025318,-2529.9,1.0965
15644,13.194,1.4545,0,0.00025086,2506.9,8.2902e-05,1.4154,8.2712e-05,-0.010393,-0.00025083,-2506.2,1.1092
15645,13.102,1.4545,0.05,8.5129e-07,8.507,6.5369e-07,4.9116,-5.3981e-12,3.9322e-06,-6.5368e-07,-4.9115,1.0962
15646,13.102,1.7273,0,0.00025304,2528.6,8.3547e-05,0.022793,8.343e-05,-0.85388,-0.00025305,-2529.1,1.0969
15647,13.194,1.6364,0,0.00025071,2505.4,8.2768e-05,0.36545,8.2713e-05,-0.043506,-0.00025071,-2505.2,1.1097
15648,13.102,1.6364,0.05,8.5157e-07,8.5099,6.5391e-07,4.9132,-3.5769e-12,3.9692e-06,-6.539e-07,-4.9131,1.0967
15649,13.102,1.9091,0,0.00025292,2527.4,8.3551e-05,0.011901,8.3312e-05,-1.7848,-0.00025295,-2528.3,1.0972
15650,13.194,1.8182,0,0.00025058,2504.1,8.2728e-05,0.02574,8.2635e-05,-0.66883,-0.00025059,-2504.4,1.1101
15651,13.102,1.8182,0.05,8.5182e-07,8.5124,6.541e-07,4.9147,-3.5792e-12,3.3158e-06,-6.5409e-07,-4.9146,1.0971
15652,13.102,2.0909,0,0.00025281,2526.4,8.3556e-05,0.0088424,8.321e-05,-2.5907,-0.00025285,-2527.6,1.0976
15653,13.194,2,0,0.00025047,2503,8.2731e-05,0.012397,8.253e-05,-1.4959,-0.0002505,-2503.7,1.1104
15654,13.102,2,0.05,8.5204e-07,8.5145,6.5426e-07,4.9159,-3.5835e-12,3.1239e-06,-6.5426e-07,-4.9158,1.0974
15655,13.102,2.2727,0,0.00025272,2525.5,8.3561e-05,0.0074792,8.3126e-05,-3.2598,-0.00025278,-2527.1,1.0978
15656,13.194,2.1818,0,0.00025038,2502,8.2734e-05,0.0089874,8.244e-05,-2.2024,-0.00025041,-2503.1,1.1107
15657,13.102,2.1818,0.05,8.5222e-07,8.5163,6.544e-07,4.9169,-2.6792e-12,3.2424e-06,-6.544e-07,-4.9169,1.0977
15658,13.102,2.4545,0,0.00025265,2524.8,8.3564e-05,0.0067602,8.3059e-05,-3.7859,-0.00025272,-2526.7,1.098
15659,13.194,2.3636,0,0.0002503,2501.3,8.2738e-05,0.007523,8.2367e-05,-2.7753,-0.00025035,-2502.7,1.1109
15660,13.102,2.3636,0.05,8.5237e-07,8.5178,6.5451e-07,4.9178,-8.6813e-13,2.9035e-06,-6.5451e-07,-4.9177,1.0979
15661,13.102,2.6364,0,0.00025261,2524.3,8.3567e-05,0.0063616,8.3012e-05,-4.1647,-0.00025268,-2526.4,1.0981
15662,13.194,2.5455,0,0.00025024,2500.7,8.274e-05,0.0067773,8.2312e-05,-3.2091,-0.0002503,-2502.3,1.111
15663,13.102,2.5455,0.05,8.5248e-07,8.5189,6.546e-07,4.9184,-1.7886e-12,2.7016e-06,-6.5459e-07,-4.9184,1.098
15664,13.102,2.8182,0,0.00025258,2524,8.3568e-05,0.0061563,8.2983e-05,-4.3932,-0.00025265,-2526.2,1.0982
15665,13.194,2.7273,0,0.00025021,2500.3,8.2742e-05,0.0063846,8.2275e-05,-3.5002,-0.00025027,-2502.1,1.1111
15666,13.102,2.7273,0.05,8.5255e-07,8.5196,6.5465e-07,4.9188,-1.8001e-12,1.8704e-06,-6.5465e-07,-4.9187,1.0981
15667,13.102,3,0,0.00025257,2523.9,8.3569e-05,0.0060927,8.2973e-05,-4.4695,-0.00025264,-2526.2,1.0982
15668,13.194,2.9091,0,0.00025019,2500.1,8.2743e-05,0.0062137,8.2257e-05,-3.6463,-0.00025025,-2502,1.1112
15669,13.102,2.9091,0.05,8.5258e-07,8.52,6.5468e-07,4.919,6.3971e-15,1.9853e-06,-6.5468e-07,-4.919,1.0982
15670,13.102,3.1818,0,0.00025258,2524,8.3568e-05,0.0061562,8.2983e-05,-4.3932,-0.00025265,-2526.2,1.0982
15671,13.194,3.0909,0,0.00025019,2500.1,8.2743e-05,0.006213,8.2257e-05,-3.6463,-0.00025025,-2502,1.1112
15672,13.102,3.0909,0.05,8.5258e-07,8.52,6.5468e-07,4.919,9.0308e-13,1.5015e-06,-6.5468e-07,-4.919,1.0982
15673,13.102,3.3636,0,0.00025261,2524.3,8.3567e-05,0.0063616,8.3012e-05,-4.1647,-0.00025268,-2526.4,1.0981
15674,13.194,3.2727,0,0.00025021,2500.3,8.2742e-05,0.006385,8.2275e-05,-3.5002,-0.00025027,-2502.1,1.1111
15675,13.102,3.2727,0.05,8.5255e-07,8.5196,6.5465e-07,4.9187,1.8001e-12,1.7052e-06,-6.5465e-07,-4.9188,1.0981
15676,13.102,3.5455,0,0.00025265,2524.8,8.3564e-05,0.0067602,8.3059e-05,-3.7859,-0.00025272,-2526.7,1.098
15677,13.194,3.4545,0,0.00025024,2500.7,8.274e-05,0.0067768,8.2312e-05,-3.209,-0.0002503,-2502.3,1.111
15678,13.102,3.4545,0.05,8.5248e-07,8.5189,6.5459e-07,4.9184,1.7883e-12,1.5419e-06,-6.546e-07,-4.9184,1.098
15679,13.102,3.7273,0,0.00025272,2525.5,8.3561e-05,0.0074786,8.3126e-05,-3.2598,-0.00025278,-2527.1,1.0978
15680,13.194,3.6364,0,0.0002503,2501.3,8.2738e-05,0.0075228,8.2367e-05,-2.7753,-0.00025035,-2502.7,1.1109
15681,13.102,3.6364,0.05,8.5237e-07,8.5178,6.5451e-07,4.9177,-4.099e-14,1.8831e-06,-6.5451e-07,-4.9178,1.0979
15682,13.102,3.9091,0,0.00025281,2526.4,8.3556e-05,0.0088415,8.321e-05,-2.5907,-0.00025285,-2527.6,1.0976
15683,13.194,3.8182,0,0.00025038,2502,8.2734e-05,0.0089865,8.244e-05,-2.2024,-0.00025041,-2503.1,1.1107
15684,13.102,3.8182,0.05,8.5222e-07,8.5163,6.544e-07,4.9169,1.7703e-12,2.0931e-06,-6.544e-07,-4.9169,1.0977
15685,13.102,4.0909,0,0.00025292,2527.4,8.3551e-05,0.011901,8.3312e-05,-1.7848,-0.00025295,-2528.3,1.0972
15686,13.194,4,0,0.00025047,2503,8.2731e-05,0.012397,8.253e-05,-1.4959,-0.0002505,-2503.7,1.1104
15687,13.102,4,0.05,8.5204e-07,8.5145,6.5426e-07,4.9158,3.5824e-12,1.5729e-06,-6.5427e-07,-4.9159,1.0974
15688,13.102,4.2727,0,0.00025304,2528.6,8.3547e-05,0.022793,8.343e-05,-0.85386,-0.00025305,-2529.1,1.0969
15689,13.194,4.1818,0,0.00025058,2504.1,8.2728e-05,0.02574,8.2635e-05,-0.66881,-0.00025059,-2504.4,1.1101
15690,13.102,4.1818,0.05,8.5182e-07,8.5124,6.5409e-07,4.9146,3.5792e-12,1.1593e-06,-6.541e-07,-4.9147,1.0971
15691,13.102,4.4545,0,0.00025318,2530.1,8.3577e-05,0.29645,8.353e-05,-0.059644,-0.00025318,-2529.9,1.0965
15692,13.194,4.3636,0,0.00025071,2505.4,8.2768e-05,0.36548,8.2713e-05,-0.043504,-0.00025071,-2505.2,1.1097
15693,13.102,4.3636,0.05,8.5157e-07,8.5099,6.539e-07,4.9131,4.4864e-12,2.156e-06,-6.5391e-07,-4.9132,1.0967
15694,13.102,4.6364,0,0.00025334,2531.6,8.3722e-05,1.4346,8.3529e-05,-0.011167,-0.00025331,-2530.9,1.096
15695,13.194,4.5455,0,0.00025086,2506.9,8.2902e-05,1.4155,8.2712e-05,-0.010393,-0.00025083,-2506.2,1.1092
15696,13.102,4.5455,0.05,8.5129e-07,8.507,6.5368e-07,4.9115,5.3982e-12,1.1924e-06,-6.5369e-07,-4.9116,1.0962
15697,13.102,4.8182,0,0.00025351,2533.4,8.3887e-05,2.7263,8.3523e-05,-0.0053632,-0.00025347,-2532,1.0955
15698,13.194,4.7273,0,0.00025102,2508.5,8.3055e-05,2.6044,8.2707e-05,-0.005293,-0.00025098,-2507.2,1.1088
15699,13.102,4.7273,0.05,8.5098e-07,8.5039,6.5344e-07,4.9096,4.4957e-12,1.9921e-06,-6.5345e-07,-4.9098,1.0957
15700,13.102,5,0,0.0002537,2535.3,8.4066e-05,4.1242,8.3517e-05,-0.0033109,-0.00025363,-2533.2,1.0949
15701,13.194,4.9091,0,0.0002512,2510.3,8.3222e-05,3.8997,8.2702e-05,-0.0034044,-0.00025113,-2508.3,1.1082
15702,13.102,4.9091,0.05,8.5063e-07,8.5004,6.5317e-07,4.9076,7.2287e-12,2.2455e-06,-6.5319e-07,-4.9078,1.0952
15703,13.102,5.1818,0,0.00025391,2537.3,8.4258e-05,5.6174,8.351e-05,-0.0023613,-0.00025381,-2534.5,1.0943
15704,13.194,5.0909,0,0.00025139,2512.2,8.3401e-05,5.2914,8.2697e-05,-0.0025228,-0.0002513,-2509.5,1.1076
15705,13.102,5.0909,0.05,8.5024e-07,8.4965,6.5287e-07,4.9054,6.3235e-12,1.5301e-06,-6.5289e-07,-4.9056,1.0946
15706,13.102,5.3636,0,0.00025413,2539.5,8.4463e-05,7.1986,8.3504e-05,-0.0019246,-0.000254,-2535.9,1.0936
15707,13.194,5.2727,0,0.0002516,2514.3,8.3593e-05,6.7708,8.2692e-05,-0.0020924,-0.00025148,-2510.9,1.107
15708,13.102,5.2727,0.05,8.4962e-07,8.4903,6.5239e-07,4.9018,7.2433e-12,2.3485e-06,-6.5241e-07,-4.902,1.0939
15709,13.102,5.5455,0,0.00025436,2541.9,8.4684e-05,8.9003,8.3499e-05,-0.0016085,-0.00025421,-2537.4,1.0929
15710,13.194,5.4545,0,0.00025182,2516.5,8.3797e-05,8.3343,8.2688e-05,-0.0019361,-0.00025168,-2512.3,1.1062
15711,13.102,5.4545,0.05,8.4585e-07,8.4527,6.495e-07,4.88,8.163e-12,2.5589e-06,-6.4952e-07,-4.8802,1.0932
15712,13.102,5.7273,0,0.00025473,2545.5,8.5014e-05,11.415,8.3494e-05,-0.0021491,-0.00025453,-2539.8,1.0921
15713,13.194,5.6364,0,0.00025207,2519,8.4023e-05,10.055,8.2684e-05,-0.0018411,-0.0002519,-2513.9,1.1055
15714,13.102,5.6364,0.05,7.9417e-07,7.9362,6.0982e-07,4.5818,8.1735e-12,3.5488e-06,-6.0983e-07,-4.5821,1.0924
15715,13.194,5.8182,0,0.00025255,2523.8,8.4456e-05,13.328,8.2682e-05,-0.0027084,-0.00025233,-2517.1,1.1047
15716,13.102,5.8182,0.05,7.7522e-09,0.077469,5.9459e-09,0.044592,4.5227e-12,-3.4094e-05,-5.9595e-09,-0.044861,1.0916
15717,13.102,5.9091,0,0.00025434,2541.7,8.4676e-05,8.9032,8.3491e-05,-0.0017023,-0.00025419,-2537.2,1.0912
15718,13.287,0.27273,0,0.00024988,2497.1,8.3451e-05,11.863,8.1872e-05,-0.0024651,-0.00024968,-2491.1,1.1181
15719,13.379,0.18182,0,0.00024771,2475.4,8.2891e-05,13.723,8.1065e-05,-0.0024075,-0.00024748,-2468.5,1.1309
15720,13.287,0.18182,0.05,3.4123e-09,0.0341,2.6309e-09,0.019823,-6.8792e-12,6.5551e-06,-2.6095e-09,-0.019552,1.1177
15721,13.287,0.090909,0,0.00024947,2493,8.309e-05,9.1531,8.1872e-05,-0.0018476,-0.00024931,-2488.4,1.1173
15722,13.287,0.45455,0,0.00024952,2493.5,8.3133e-05,9.4606,8.1873e-05,-0.0021585,-0.00024936,-2488.8,1.1189
15723,13.379,0.36364,0,0.00024723,2470.6,8.2468e-05,10.544,8.1064e-05,-0.0026598,-0.00024705,-2465.3,1.1317
15724,13.287,0.36364,0.05,7.9027e-07,7.8972,6.0684e-07,4.5596,-8.1799e-12,2.6816e-06,-6.0682e-07,-4.5594,1.1185
15725,13.287,0.63636,0,0.00024929,2491.2,8.2925e-05,7.8819,8.1875e-05,-0.0020846,-0.00024916,-2487.3,1.1197
15726,13.379,0.54545,0,0.00024699,2468.2,8.2255e-05,8.9424,8.1064e-05,-0.0021729,-0.00024684,-2463.8,1.1324
15727,13.287,0.54545,0.05,8.4192e-07,8.4134,6.465e-07,4.8576,-8.1739e-12,1.4507e-06,-6.4648e-07,-4.8574,1.1193
15728,13.287,0.81818,0,0.00024908,2489.1,8.2733e-05,6.4207,8.1879e-05,-0.0022201,-0.00024897,-2485.9,1.1203
15729,13.379,0.72727,0,0.00024678,2466.1,8.2064e-05,7.4967,8.1066e-05,-0.0021661,-0.00024665,-2462.3,1.1331
15730,13.287,0.72727,0.05,8.4566e-07,8.4508,6.4937e-07,4.8792,-7.2581e-12,2.4927e-06,-6.4935e-07,-4.8789,1.12
15731,13.287,1,0,0.00024889,2487.1,8.2554e-05,5.0429,8.1882e-05,-0.0025703,-0.0002488,-2484.6,1.121
15732,13.379,0.90909,0,0.00024658,2464.1,8.1884e-05,6.1311,8.1068e-05,-0.0022133,-0.00024648,-2461,1.1337
15733,13.287,0.90909,0.05,8.4625e-07,8.4567,6.4982e-07,4.8826,-7.2486e-12,4.481e-06,-6.4981e-07,-4.8824,1.1206
15734,13.287,1.1818,0,0.0002487,2485.3,8.2386e-05,3.7541,8.1886e-05,-0.0033094,-0.00024864,-2483.5,1.1215
15735,13.379,1.0909,0,0.0002464,2462.3,8.1716e-05,4.8481,8.107e-05,-0.0024624,-0.00024631,-2459.8,1.1343
15736,13.287,1.0909,0.05,8.4661e-07,8.4603,6.501e-07,4.8846,-4.5165e-12,4.9612e-06,-6.5009e-07,-4.8845,1.1212
15737,13.287,1.3636,0,0.00024854,2483.7,8.2232e-05,2.5621,8.189e-05,-0.0048576,-0.00024849,-2482.4,1.122
15738,13.379,1.2727,0,0.00024623,2460.6,8.156e-05,3.6548,8.1073e-05,-0.003006,-0.00024616,-2458.7,1.1349
15739,13.287,1.2727,0.05,8.4693e-07,8.4635,6.5034e-07,4.8865,-5.4198e-12,4.3788e-06,-6.5034e-07,-4.8863,1.1218
15740,13.287,1.5455,0,0.00024839,2482.2,8.2092e-05,1.4756,8.1894e-05,-0.0087286,-0.00024836,-2481.4,1.1225
15741,13.379,1.4545,0,0.00024607,2459,8.1417e-05,2.5586,8.1076e-05,-0.0041426,-0.00024603,-2457.7,1.1353
15742,13.287,1.4545,0.05,8.4722e-07,8.4664,6.5057e-07,4.8882,-4.5062e-12,4.0408e-06,-6.5056e-07,-4.888,1.1222
15743,13.287,1.7273,0,0.00024825,2480.8,8.1968e-05,0.51328,8.1896e-05,-0.026466,-0.00024824,-2480.6,1.1229
15744,13.379,1.6364,0,0.00024593,2457.6,8.1289e-05,1.5669,8.1079e-05,-0.0067761,-0.0002459,-2456.8,1.1358
15745,13.287,1.6364,0.05,8.4748e-07,8.469,6.5077e-07,4.8896,-4.5046e-12,3.8452e-06,-6.5076e-07,-4.8895,1.1227
15746,13.287,1.9091,0,0.00024814,2479.6,8.1908e-05,0.035052,8.1849e-05,-0.41177,-0.00024814,-2479.8,1.1232
15747,13.379,1.8182,0,0.00024581,2456.4,8.1175e-05,0.69096,8.1081e-05,-0.015795,-0.0002458,-2456.1,1.1361
15748,13.287,1.8182,0.05,8.4771e-07,8.4713,6.5094e-07,4.8909,-3.5944e-12,3.0348e-06,-6.5094e-07,-4.8908,1.1231
15749,13.287,2.0909,0,0.00024804,2478.6,8.1909e-05,0.013544,8.1756e-05,-1.1314,-0.00024805,-2479.2,1.1235
15750,13.379,2,0,0.0002457,2455.3,8.1096e-05,0.069295,8.1065e-05,-0.16411,-0.0002457,-2455.4,1.1365
15751,13.287,2,0.05,8.4791e-07,8.4732,6.5109e-07,4.8921,-3.597e-12,2.9044e-06,-6.5109e-07,-4.892,1.1234
15752,13.287,2.2727,0,0.00024795,2477.8,8.1911e-05,0.0092865,8.1679e-05,-1.7409,-0.00024798,-2478.7,1.1238
15753,13.379,2.1818,0,0.00024561,2454.4,8.1091e-05,0.015647,8.0988e-05,-0.76035,-0.00024563,-2454.8,1.1367
15754,13.287,2.1818,0.05,8.4807e-07,8.4749,6.5122e-07,4.893,-1.7823e-12,3.202e-06,-6.5121e-07,-4.8929,1.1236
15755,13.287,2.4545,0,0.00024789,2477.2,8.1914e-05,0.0076056,8.1617e-05,-2.2212,-0.00024793,-2478.3,1.124
15756,13.379,2.3636,0,0.00024554,2453.7,8.1093e-05,0.009698,8.0921e-05,-1.2798,-0.00024556,-2454.3,1.1369
15757,13.287,2.3636,0.05,8.4821e-07,8.4762,6.5132e-07,4.8938,-1.7885e-12,2.8106e-06,-6.5132e-07,-4.8937,1.1239
15758,13.287,2.6364,0,0.00024784,2476.7,8.1916e-05,0.0067976,8.1573e-05,-2.5672,-0.00024789,-2478,1.1241
15759,13.379,2.5455,0,0.00024549,2453.2,8.1094e-05,0.0076727,8.087e-05,-1.6751,-0.00024551,-2454,1.1371
15760,13.287,2.5455,0.05,8.4831e-07,8.4772,6.514e-07,4.8944,-2.7055e-12,2.7902e-06,-6.514e-07,-4.8943,1.124
15761,13.287,2.8182,0,0.00024781,2476.4,8.1917e-05,0.0064123,8.1546e-05,-2.7759,-0.00024786,-2477.8,1.1242
15762,13.379,2.7273,0,0.00024545,2452.8,8.1095e-05,0.0067853,8.0836e-05,-1.9407,-0.00024548,-2453.8,1.1372
15763,13.287,2.7273,0.05,8.4837e-07,8.4779,6.5145e-07,4.8947,1.4262e-14,1.9772e-06,-6.5144e-07,-4.8947,1.1241
15764,13.287,3,0,0.0002478,2476.3,8.1917e-05,0.0062967,8.1537e-05,-2.8456,-0.00024785,-2477.8,1.1242
15765,13.379,2.9091,0,0.00024543,2452.6,8.1096e-05,0.0064298,8.0819e-05,-2.074,-0.00024547,-2453.7,1.1373
15766,13.287,2.9091,0.05,8.4841e-07,8.4782,6.5147e-07,4.8949,4.8393e-15,2.2529e-06,-6.5147e-07,-4.8949,1.1242
15767,13.287,3.1818,0,0.00024781,2476.4,8.1917e-05,0.006412,8.1546e-05,-2.7759,-0.00024786,-2477.8,1.1242
15768,13.379,3.0909,0,0.00024543,2452.6,8.1096e-05,0.0064299,8.0819e-05,-2.074,-0.00024547,-2453.7,1.1373
15769,13.287,3.0909,0.05,8.4841e-07,8.4782,6.5147e-07,4.8949,-4.839e-15,1.6661e-06,-6.5147e-07,-4.8949,1.1242
15770,13.287,3.3636,0,0.00024784,2476.7,8.1916e-05,0.0067976,8.1573e-05,-2.5672,-0.00024789,-2478,1.1241
15771,13.379,3.2727,0,0.00024545,2452.8,8.1095e-05,0.0067862,8.0836e-05,-1.9407,-0.00024548,-2453.8,1.1372
15772,13.287,3.2727,0.05,8.4837e-07,8.4779,6.5144e-07,4.8947,-1.4198e-14,1.8524e-06,-6.5145e-07,-4.8947,1.1241
15773,13.287,3.5455,0,0.00024789,2477.2,8.1914e-05,0.007605,8.1617e-05,-2.2212,-0.00024793,-2478.3,1.124
15774,13.379,3.4545,0,0.00024549,2453.2,8.1094e-05,0.0076717,8.087e-05,-1.6751,-0.00024551,-2454,1.1371
15775,13.287,3.4545,0.05,8.4831e-07,8.4772,6.514e-07,4.8943,2.7055e-12,1.5414e-06,-6.514e-07,-4.8944,1.124
15776,13.287,3.7273,0,0.00024795,2477.8,8.1911e-05,0.009286,8.1679e-05,-1.7409,-0.00024798,-2478.7,1.1238
15777,13.379,3.6364,0,0.00024554,2453.7,8.1093e-05,0.0096976,8.0921e-05,-1.2798,-0.00024556,-2454.3,1.1369
15778,13.287,3.6364,0.05,8.4821e-07,8.4762,6.5132e-07,4.8937,2.698e-12,1.9882e-06,-6.5132e-07,-4.8938,1.1239
15779,13.287,3.9091,0,0.00024804,2478.6,8.1909e-05,0.013544,8.1756e-05,-1.1314,-0.00024805,-2479.2,1.1235
15780,13.379,3.8182,0,0.00024561,2454.4,8.1091e-05,0.015648,8.0988e-05,-0.76034,-0.00024563,-2454.8,1.1367
15781,13.287,3.8182,0.05,8.4807e-07,8.4749,6.5121e-07,4.8929,2.6918e-12,2.5703e-06,-6.5122e-07,-4.893,1.1236
15782,13.287,4.0909,0,0.00024814,2479.6,8.1908e-05,0.035053,8.1849e-05,-0.41175,-0.00024814,-2479.8,1.1232
15783,13.379,4,0,0.0002457,2455.3,8.1096e-05,0.069298,8.1065e-05,-0.1641,-0.0002457,-2455.4,1.1365
15784,13.287,4,0.05,8.4791e-07,8.4732,6.5109e-07,4.892,2.6869e-12,1.9462e-06,-6.5109e-07,-4.8921,1.1234
15785,13.287,4.2727,0,0.00024825,2480.8,8.1968e-05,0.5133,8.1896e-05,-0.026465,-0.00024825,-2480.6,1.1229
15786,13.379,4.1818,0,0.00024581,2456.4,8.1175e-05,0.69098,8.1081e-05,-0.015793,-0.0002458,-2456.1,1.1361
15787,13.287,4.1818,0.05,8.4771e-07,8.4713,6.5094e-07,4.8908,3.5953e-12,1.3163e-06,-6.5094e-07,-4.8909,1.1231
15788,13.287,4.4545,0,0.00024839,2482.2,8.2092e-05,1.4757,8.1894e-05,-0.0087289,-0.00024836,-2481.4,1.1225
15789,13.379,4.3636,0,0.00024593,2457.6,8.1289e-05,1.5669,8.1079e-05,-0.0067764,-0.0002459,-2456.8,1.1358
15790,13.287,4.3636,0.05,8.4748e-07,8.469,6.5076e-07,4.8895,3.5942e-12,2.4726e-06,-6.5077e-07,-4.8896,1.1227
15791,13.287,4.6364,0,0.00024854,2483.7,8.2232e-05,2.5621,8.189e-05,-0.0048577,-0.00024849,-2482.4,1.122
15792,13.379,4.5455,0,0.00024607,2459,8.1417e-05,2.5586,8.1076e-05,-0.0041429,-0.00024603,-2457.7,1.1353
15793,13.287,4.5455,0.05,8.4722e-07,8.4664,6.5056e-07,4.888,6.3252e-12,1.7121e-06,-6.5057e-07,-4.8882,1.1222
15794,13.287,4.8182,0,0.0002487,2485.3,8.2386e-05,3.7541,8.1886e-05,-0.0033098,-0.00024864,-2483.5,1.1215
15795,13.379,4.7273,0,0.00024623,2460.6,8.156e-05,3.6549,8.1073e-05,-0.0030063,-0.00024616,-2458.7,1.1349
15796,13.287,4.7273,0.05,8.4693e-07,8.4635,6.5034e-07,4.8863,5.4189e-12,2.3266e-06,-6.5034e-07,-4.8865,1.1218
15797,13.287,5,0,0.00024889,2487.1,8.2554e-05,5.043,8.1882e-05,-0.0025719,-0.0002488,-2484.6,1.121
15798,13.379,4.9091,0,0.0002464,2462.3,8.1716e-05,4.8481,8.107e-05,-0.0024629,-0.00024631,-2459.8,1.1343
15799,13.287,4.9091,0.05,8.4661e-07,8.4603,6.5009e-07,4.8845,7.2449e-12,2.4148e-06,-6.501e-07,-4.8846,1.1212
15800,13.287,5.1818,0,0.00024908,2489.1,8.2733e-05,6.4207,8.1879e-05,-0.002222,-0.00024897,-2485.9,1.1203
15801,13.379,5.0909,0,0.00024658,2464.1,8.1884e-05,6.1311,8.1068e-05,-0.002215,-0.00024648,-2461,1.1337
15802,13.287,5.0909,0.05,8.4625e-07,8.4567,6.4981e-07,4.8824,6.3407e-12,1.7692e-06,-6.4982e-07,-4.8826,1.1206
15803,13.287,5.3636,0,0.00024929,2491.2,8.2925e-05,7.8819,8.1875e-05,-0.0020853,-0.00024916,-2487.3,1.1197
15804,13.379,5.2727,0,0.00024678,2466.1,8.2064e-05,7.4967,8.1066e-05,-0.002168,-0.00024665,-2462.3,1.1331
15805,13.287,5.2727,0.05,8.4566e-07,8.4508,6.4936e-07,4.8789,7.2595e-12,2.9244e-06,-6.4937e-07,-4.8792,1.12
15806,13.287,5.5455,0,0.00024952,2493.5,8.3133e-05,9.4607,8.1873e-05,-0.0021584,-0.00024936,-2488.8,1.1189
15807,13.379,5.4545,0,0.00024699,2468.2,8.2255e-05,8.9425,8.1064e-05,-0.0021725,-0.00024684,-2463.8,1.1324
15808,13.287,5.4545,0.05,8.4192e-07,8.4134,6.4649e-07,4.8574,8.1749e-12,3.0705e-06,-6.4649e-07,-4.8576,1.1193
15809,13.287,5.7273,0,0.00024988,2497.1,8.3451e-05,11.863,8.1872e-05,-0.002465,-0.00024968,-2491.1,1.1181
15810,13.379,5.6364,0,0.00024723,2470.6,8.2468e-05,10.544,8.1064e-05,-0.0026601,-0.00024705,-2465.3,1.1317
15811,13.287,5.6364,0.05,7.9027e-07,7.8972,6.0682e-07,4.5594,8.1799e-12,4.3517e-06,-6.0684e-07,-4.5596,1.1185
15812,13.379,5.8182,0,0.00024771,2475.4,8.2891e-05,13.723,8.1065e-05,-0.0024074,-0.00024748,-2468.5,1.1309
15813,13.287,5.8182,0.05,3.4117e-09,0.034094,2.6091e-09,0.019563,6.8398e-12,1.0732e-06,-2.6305e-09,-0.019805,1.1177
15814,13.287,5.9091,0,0.00024947,2493,8.309e-05,9.1531,8.1872e-05,-0.0018482,-0.00024931,-2488.4,1.1173
15815,13.472,0.27273,0,0.00024505,2448.8,8.1894e-05,12.297,8.0257e-05,-0.0027852,-0.00024484,-2442.7,1.1444
15816,13.564,0.18182,0,0.00024289,2427.3,8.1333e-05,14.107,7.9455e-05,-0.0021528,-0.00024265,-2420.2,1.1572
15817,13.472,0.18182,0.05,1.8295e-09,0.018282,1.3952e-09,0.010556,2.7153e-11,0.00027399,-1.4142e-09,-0.010552,1.144
15818,13.472,0.090909,0,0.00024462,2444.5,8.1511e-05,9.3972,8.026e-05,-0.0020094,-0.00024446,-2439.8,1.1436
15819,13.472,0.45455,0,0.0002447,2445.3,8.1586e-05,9.997,8.0255e-05,-0.002687,-0.00024453,-2440.3,1.1452
15820,13.564,0.36364,0,0.00024242,2422.5,8.0918e-05,11.014,7.9451e-05,-0.0034446,-0.00024223,-2417,1.158
15821,13.472,0.36364,0.05,7.8643e-07,7.8589,6.0389e-07,4.5375,-8.1878e-12,5.425e-07,-6.0387e-07,-4.5372,1.1448
15822,13.472,0.63636,0,0.00024448,2443.1,8.1391e-05,8.5323,8.0255e-05,-0.0022574,-0.00024433,-2438.8,1.1459
15823,13.564,0.54545,0,0.00024219,2420.2,8.0717e-05,9.5234,7.9449e-05,-0.0024088,-0.00024202,-2415.4,1.1587
15824,13.472,0.54545,0.05,8.3804e-07,8.3746,6.4352e-07,4.8352,-7.2761e-12,7.7346e-07,-6.435e-07,-4.835,1.1455
15825,13.472,0.81818,0,0.00024428,2441.1,8.1211e-05,7.1825,8.0255e-05,-0.0021619,-0.00024415,-2437.5,1.1466
15826,13.564,0.72727,0,0.00024198,2418.1,8.0537e-05,8.1869,7.9447e-05,-0.0022717,-0.00024184,-2414,1.1594
15827,13.472,0.72727,0.05,8.4175e-07,8.4117,6.4637e-07,4.8566,-7.2716e-12,2.4749e-06,-6.4635e-07,-4.8564,1.1462
15828,13.472,1,0,0.00024409,2439.2,8.1043e-05,5.9119,8.0256e-05,-0.0021183,-0.00024399,-2436.2,1.1472
15829,13.564,0.90909,0,0.00024179,2416.2,8.0369e-05,6.927,7.9447e-05,-0.0020296,-0.00024167,-2412.7,1.16
15830,13.472,0.90909,0.05,8.4231e-07,8.4173,6.468e-07,4.8598,-7.266e-12,3.7117e-06,-6.4679e-07,-4.8596,1.1468
15831,13.472,1.1818,0,0.00024391,2437.5,8.0886e-05,4.7247,8.0257e-05,-0.0022144,-0.00024383,-2435.1,1.1477
15832,13.564,1.0909,0,0.00024161,2414.4,8.0212e-05,5.745,7.9447e-05,-0.0018889,-0.00024151,-2411.6,1.1606
15833,13.472,1.0909,0.05,8.4265e-07,8.4207,6.4706e-07,4.8618,-4.5315e-12,3.6294e-06,-6.4704e-07,-4.8616,1.1474
15834,13.472,1.3636,0,0.00024376,2435.9,8.0742e-05,3.6276,8.0259e-05,-0.0025057,-0.00024369,-2434.1,1.1482
15835,13.564,1.2727,0,0.00024145,2412.8,8.0066e-05,4.647,7.9447e-05,-0.0018118,-0.00024137,-2410.5,1.1611
15836,13.472,1.2727,0.05,8.4294e-07,8.4236,6.4728e-07,4.8635,-6.3457e-12,3.2786e-06,-6.4727e-07,-4.8633,1.148
15837,13.472,1.5455,0,0.00024361,2434.4,8.0611e-05,2.627,8.0261e-05,-0.0031484,-0.00024357,-2433.1,1.1487
15838,13.564,1.4545,0,0.0002413,2411.3,7.9933e-05,3.6391,7.9448e-05,-0.0018405,-0.00024124,-2409.5,1.1616
15839,13.472,1.4545,0.05,8.4321e-07,8.4263,6.4749e-07,4.865,-4.5233e-12,2.8326e-06,-6.4748e-07,-4.8649,1.1484
15840,13.472,1.7273,0,0.00024348,2433.2,8.0494e-05,1.7294,8.0263e-05,-0.0045478,-0.00024345,-2432.3,1.1491
15841,13.564,1.6364,0,0.00024117,2410,7.9813e-05,2.7272,7.945e-05,-0.0020237,-0.00024112,-2408.6,1.162
15842,13.472,1.6364,0.05,8.4345e-07,8.4287,6.4767e-07,4.8664,-4.5211e-12,2.9747e-06,-6.4766e-07,-4.8663,1.1489
15843,13.472,1.9091,0,0.00024337,2432,8.0392e-05,0.94178,8.0265e-05,-0.0082312,-0.00024336,-2431.6,1.1494
15844,13.564,1.8182,0,0.00024105,2408.8,7.9706e-05,1.9167,7.9451e-05,-0.0024871,-0.00024102,-2407.9,1.1624
15845,13.472,1.8182,0.05,8.4366e-07,8.4308,6.4783e-07,4.8676,-3.6117e-12,2.08e-06,-6.4782e-07,-4.8675,1.1492
15846,13.472,2.0909,0,0.00024328,2431.1,8.0306e-05,0.28268,8.0265e-05,-0.027703,-0.00024327,-2430.9,1.1497
15847,13.564,2,0,0.00024095,2407.8,7.9614e-05,1.2129,7.9452e-05,-0.0035638,-0.00024093,-2407.2,1.1627
15848,13.472,2,0.05,8.4385e-07,8.4326,6.4797e-07,4.8686,-1.7931e-12,2.4014e-06,-6.4796e-07,-4.8685,1.1495
15849,13.472,2.2727,0,0.0002432,2430.3,8.0273e-05,0.024227,8.0226e-05,-0.33073,-0.0002432,-2430.4,1.1499
15850,13.564,2.1818,0,0.00024086,2407,7.9537e-05,0.6215,7.9453e-05,-0.0065967,-0.00024085,-2406.7,1.163
15851,13.472,2.1818,0.05,8.44e-07,8.4342,6.4809e-07,4.8695,-1.795e-12,2.2212e-06,-6.4808e-07,-4.8694,1.1498
15852,13.472,2.4545,0,0.00024314,2429.7,8.0273e-05,0.010854,8.0171e-05,-0.75803,-0.00024315,-2430.1,1.1501
15853,13.564,2.3636,0,0.00024079,2406.3,7.9477e-05,0.15976,7.9452e-05,-0.025125,-0.00024079,-2406.2,1.1632
15854,13.472,2.3636,0.05,8.4412e-07,8.4354,6.4818e-07,4.8702,-3.6179e-12,2.1623e-06,-6.4818e-07,-4.8701,1.15
15855,13.472,2.6364,0,0.00024309,2429.2,8.0274e-05,0.0078535,8.013e-05,-1.072,-0.00024311,-2429.8,1.1503
15856,13.564,2.5455,0,0.00024074,2405.8,7.9458e-05,0.016364,7.9424e-05,-0.24471,-0.00024075,-2405.9,1.1633
15857,13.472,2.5455,0.05,8.4421e-07,8.4363,6.4825e-07,4.8707,-8.9415e-13,2.1419e-06,-6.4825e-07,-4.8707,1.1502
15858,13.472,2.8182,0,0.00024306,2429,8.0274e-05,0.0067735,8.0106e-05,-1.2619,-0.00024309,-2429.6,1.1503
15859,13.564,2.7273,0,0.00024071,2405.4,7.9458e-05,0.0083823,7.9393e-05,-0.48006,-0.00024072,-2405.7,1.1635
15860,13.472,2.7273,0.05,8.4427e-07,8.4369,6.483e-07,4.8711,-8.9985e-13,1.2194e-06,-6.483e-07,-4.871,1.1503
15861,13.472,3,0,0.00024306,2428.9,8.0275e-05,0.006484,8.0097e-05,-1.3254,-0.00024308,-2429.5,1.1504
15862,13.564,2.9091,0,0.00024069,2405.2,7.9458e-05,0.0067301,7.9377e-05,-0.60048,-0.0002407,-2405.5,1.1635
15863,13.472,2.9091,0.05,8.4431e-07,8.4372,6.4832e-07,4.8713,3.2676e-15,1.2017e-06,-6.4832e-07,-4.8712,1.1503
15864,13.472,3.1818,0,0.00024306,2429,8.0274e-05,0.0067746,8.0106e-05,-1.2619,-0.00024309,-2429.6,1.1503
15865,13.564,3.0909,0,0.00024069,2405.2,7.9458e-05,0.0067302,7.9377e-05,-0.60048,-0.0002407,-2405.5,1.1635
15866,13.472,3.0909,0.05,8.4431e-07,8.4372,6.4832e-07,4.8712,-3.268e-15,8.546e-07,-6.4832e-07,-4.8712,1.1503
15867,13.472,3.3636,0,0.00024309,2429.2,8.0274e-05,0.0078535,8.013e-05,-1.072,-0.00024311,-2429.8,1.1503
15868,13.564,3.2727,0,0.00024071,2405.4,7.9458e-05,0.0083825,7.9393e-05,-0.48006,-0.00024072,-2405.7,1.1635
15869,13.472,3.2727,0.05,8.4427e-07,8.4369,6.483e-07,4.871,8.9989e-13,1.2689e-06,-6.483e-07,-4.8711,1.1503
15870,13.472,3.5455,0,0.00024314,2429.7,8.0273e-05,0.010853,8.0171e-05,-0.75802,-0.00024315,-2430.1,1.1501
15871,13.564,3.4545,0,0.00024074,2405.8,7.9458e-05,0.016364,7.9424e-05,-0.2447,-0.00024075,-2405.9,1.1633
15872,13.472,3.4545,0.05,8.4421e-07,8.4363,6.4825e-07,4.8707,8.9415e-13,1.1513e-06,-6.4825e-07,-4.8707,1.1502
15873,13.472,3.7273,0,0.0002432,2430.3,8.0273e-05,0.024228,8.0226e-05,-0.33072,-0.0002432,-2430.4,1.1499
15874,13.564,3.6364,0,0.00024079,2406.3,7.9477e-05,0.15977,7.9452e-05,-0.025122,-0.00024079,-2406.2,1.1632
15875,13.472,3.6364,0.05,8.4412e-07,8.4354,6.4818e-07,4.8702,3.6175e-12,1.5765e-06,-6.4818e-07,-4.8702,1.15
15876,13.472,3.9091,0,0.00024328,2431.1,8.0306e-05,0.28269,8.0265e-05,-0.027701,-0.00024327,-2430.9,1.1497
15877,13.564,3.8182,0,0.00024086,2407,7.9537e-05,0.62152,7.9453e-05,-0.006596,-0.00024085,-2406.7,1.163
15878,13.472,3.8182,0.05,8.44e-07,8.4342,6.4808e-07,4.8694,2.7042e-12,1.9046e-06,-6.4809e-07,-4.8695,1.1498
15879,13.472,4.0909,0,0.00024337,2432,8.0392e-05,0.9418,8.0265e-05,-0.0082306,-0.00024336,-2431.6,1.1494
15880,13.564,4,0,0.00024095,2407.8,7.9614e-05,1.2129,7.9452e-05,-0.003564,-0.00024093,-2407.2,1.1627
15881,13.472,4,0.05,8.4385e-07,8.4326,6.4797e-07,4.8685,3.6111e-12,1.3963e-06,-6.4797e-07,-4.8686,1.1495
15882,13.472,4.2727,0,0.00024348,2433.2,8.0494e-05,1.7294,8.0263e-05,-0.0045468,-0.00024345,-2432.3,1.1491
15883,13.564,4.1818,0,0.00024105,2408.8,7.9706e-05,1.9168,7.9451e-05,-0.002486,-0.00024102,-2407.9,1.1624
15884,13.472,4.1818,0.05,8.4366e-07,8.4308,6.4783e-07,4.8675,3.6106e-12,1.0688e-06,-6.4783e-07,-4.8676,1.1492
15885,13.472,4.4545,0,0.00024361,2434.4,8.0611e-05,2.627,8.0261e-05,-0.0031485,-0.00024357,-2433.1,1.1487
15886,13.564,4.3636,0,0.00024117,2410,7.9813e-05,2.7273,7.945e-05,-0.0020246,-0.00024112,-2408.6,1.162
15887,13.472,4.3636,0.05,8.4345e-07,8.4287,6.4766e-07,4.8663,6.34e-12,2.1353e-06,-6.4767e-07,-4.8664,1.1489
15888,13.472,4.6364,0,0.00024376,2435.9,8.0742e-05,3.6276,8.0259e-05,-0.0025061,-0.00024369,-2434.1,1.1482
15889,13.564,4.5455,0,0.0002413,2411.3,7.9933e-05,3.6392,7.9448e-05,-0.0018404,-0.00024124,-2409.5,1.1616
15890,13.472,4.5455,0.05,8.4321e-07,8.4263,6.4748e-07,4.8649,3.6149e-12,1.1058e-06,-6.4749e-07,-4.865,1.1484
15891,13.472,4.8182,0,0.00024391,2437.5,8.0886e-05,4.7247,8.0257e-05,-0.0022147,-0.00024383,-2435.1,1.1477
15892,13.564,4.7273,0,0.00024145,2412.8,8.0066e-05,4.647,7.9447e-05,-0.0018125,-0.00024137,-2410.5,1.1611
15893,13.472,4.7273,0.05,8.4294e-07,8.4236,6.4727e-07,4.8633,4.5282e-12,2.1156e-06,-6.4728e-07,-4.8635,1.148
15894,13.472,5,0,0.00024409,2439.2,8.1043e-05,5.9119,8.0256e-05,-0.0021189,-0.00024399,-2436.2,1.1472
15895,13.564,4.9091,0,0.00024161,2414.4,8.0212e-05,5.745,7.9447e-05,-0.0018892,-0.00024151,-2411.6,1.1606
15896,13.472,4.9091,0.05,8.4265e-07,8.4207,6.4705e-07,4.8616,6.3509e-12,2.2715e-06,-6.4705e-07,-4.8618,1.1474
15897,13.472,5.1818,0,0.00024428,2441.1,8.1211e-05,7.1826,8.0255e-05,-0.0021637,-0.00024415,-2437.5,1.1466
15898,13.564,5.0909,0,0.00024179,2416.2,8.0369e-05,6.927,7.9447e-05,-0.002031,-0.00024167,-2412.7,1.16
15899,13.472,5.0909,0.05,8.4231e-07,8.4173,6.4679e-07,4.8596,6.3571e-12,1.5063e-06,-6.468e-07,-4.8598,1.1468
15900,13.472,5.3636,0,0.00024448,2443.1,8.1391e-05,8.5323,8.0255e-05,-0.0022581,-0.00024433,-2438.8,1.1459
15901,13.564,5.2727,0,0.00024198,2418.1,8.0537e-05,8.187,7.9447e-05,-0.0022732,-0.00024184,-2414,1.1594
15902,13.472,5.2727,0.05,8.4175e-07,8.4117,6.4635e-07,4.8564,7.2716e-12,2.3205e-06,-6.4637e-07,-4.8566,1.1462
15903,13.472,5.5455,0,0.0002447,2445.3,8.1586e-05,9.997,8.0255e-05,-0.0026869,-0.00024453,-2440.3,1.1452
15904,13.564,5.4545,0,0.00024219,2420.2,8.0717e-05,9.5234,7.9449e-05,-0.002408,-0.00024202,-2415.4,1.1587
15905,13.472,5.4545,0.05,8.3804e-07,8.3746,6.435e-07,4.835,7.2761e-12,2.8628e-06,-6.4352e-07,-4.8352,1.1455
15906,13.472,5.7273,0,0.00024505,2448.8,8.1894e-05,12.297,8.0257e-05,-0.0027856,-0.00024484,-2442.7,1.1444
15907,13.564,5.6364,0,0.00024242,2422.5,8.0918e-05,11.014,7.9451e-05,-0.003445,-0.00024223,-2417,1.158
15908,13.472,5.6364,0.05,7.8643e-07,7.8589,6.0387e-07,4.5372,8.1883e-12,3.8981e-06,-6.0389e-07,-4.5375,1.1448
15909,13.564,5.8182,0,0.00024289,2427.3,8.1333e-05,14.107,7.9455e-05,-0.0021528,-0.00024265,-2420.2,1.1572
15910,13.472,5.8182,0.05,1.8297e-09,0.018285,1.4139e-09,0.010557,-2.5378e-11,-0.00027394,-1.3958e-09,-0.010554,1.144
15911,13.472,5.9091,0,0.00024462,2444.5,8.1511e-05,9.3972,8.026e-05,-0.0020092,-0.00024446,-2439.8,1.1436
15912,13.656,0.27273,0,0.00024024,2400.8,8.0343e-05,12.716,7.865e-05,-0.0031098,-0.00024003,-2394.4,1.1708
15913,13.749,0.18182,0,0.0002381,2379.3,7.9781e-05,14.483,7.7853e-05,-0.0019199,-0.00023785,-2372,1.1837
15914,13.656,0.18182,0.05,5.0605e-09,0.05057,3.8826e-09,0.029253,1.1798e-11,0.00016338,-3.889e-09,-0.02914,1.1704
15915,13.656,0.090909,0,0.0002398,2396.3,7.9938e-05,9.6361,7.8655e-05,-0.0021837,-0.00023963,-2391.5,1.17
15916,13.656,0.45455,0,0.0002399,2397.3,8.0044e-05,10.511,7.8645e-05,-0.0031974,-0.00023972,-2392.1,1.1716
15917,13.749,0.36364,0,0.00023762,2374.6,7.9373e-05,11.467,7.7846e-05,-0.0041799,-0.00023743,-2368.8,1.1845
15918,13.656,0.36364,0.05,7.8265e-07,7.8211,6.0099e-07,4.5157,-7.2866e-12,1.6357e-06,-6.0097e-07,-4.5154,1.1712
15919,13.656,0.63636,0,0.00023968,2395.2,7.986e-05,9.1526,7.8642e-05,-0.0024392,-0.00023953,-2390.6,1.1723
15920,13.749,0.54545,0,0.0002374,2372.3,7.9183e-05,10.08,7.7841e-05,-0.0026252,-0.00023722,-2367.3,1.1852
15921,13.656,0.54545,0.05,8.342e-07,8.3362,6.4056e-07,4.813,-7.2861e-12,9.8548e-07,-6.4055e-07,-4.8128,1.1719
15922,13.656,0.81818,0,0.00023949,2393.2,7.9692e-05,7.9064,7.8639e-05,-0.0021588,-0.00023935,-2389.3,1.1729
15923,13.749,0.72727,0,0.0002372,2370.4,7.9014e-05,8.8448,7.7837e-05,-0.0023782,-0.00023705,-2365.9,1.1859
15924,13.656,0.72727,0.05,8.3788e-07,8.373,6.4339e-07,4.8342,-7.2841e-12,2.8129e-06,-6.4338e-07,-4.8341,1.1726
15925,13.656,1,0,0.00023931,2391.4,7.9534e-05,6.7353,7.8638e-05,-0.0018325,-0.00023919,-2388.1,1.1735
15926,13.749,0.90909,0,0.00023701,2368.5,7.8857e-05,7.6831,7.7834e-05,-0.0019055,-0.00023688,-2364.7,1.1865
15927,13.656,0.90909,0.05,8.3842e-07,8.3784,6.4381e-07,4.8374,-7.2801e-12,4.4364e-06,-6.4379e-07,-4.8372,1.1732
15928,13.656,1.1818,0,0.00023914,2389.8,7.9388e-05,5.6427,7.8637e-05,-0.0015504,-0.00023904,-2386.9,1.1741
15929,13.749,1.0909,0,0.00023684,2366.8,7.8709e-05,6.5951,7.7831e-05,-0.0014991,-0.00023673,-2363.5,1.1871
15930,13.656,1.0909,0.05,8.3873e-07,8.3815,6.4405e-07,4.8392,-5.4576e-12,3.721e-06,-6.4404e-07,-4.839,1.1738
15931,13.656,1.3636,0,0.00023899,2388.2,7.9254e-05,4.6343,7.8637e-05,-0.0012855,-0.00023891,-2385.9,1.1746
15932,13.749,1.2727,0,0.00023669,2365.2,7.8573e-05,5.5859,7.783e-05,-0.0010704,-0.00023659,-2362.4,1.1876
15933,13.656,1.2727,0.05,8.3901e-07,8.3843,6.4426e-07,4.8408,-6.363e-12,3.7516e-06,-6.4425e-07,-4.8406,1.1743
15934,13.656,1.5455,0,0.00023885,2386.9,7.9131e-05,3.7154,7.8637e-05,-0.0010394,-0.00023879,-2385,1.175
15935,13.749,1.4545,0,0.00023655,2363.8,7.8449e-05,4.6607,7.7829e-05,-0.00062748,-0.00023647,-2361.5,1.1881
15936,13.656,1.4545,0.05,8.3926e-07,8.3868,6.4445e-07,4.8422,-3.6308e-12,3.5983e-06,-6.4444e-07,-4.842,1.1748
15937,13.656,1.7273,0,0.00023873,2385.6,7.9022e-05,2.8913,7.8637e-05,-0.00080372,-0.00023868,-2384.2,1.1754
15938,13.749,1.6364,0,0.00023642,2362.5,7.8337e-05,3.8243,7.7828e-05,-0.00014267,-0.00023635,-2360.6,1.1885
15939,13.656,1.6364,0.05,8.3948e-07,8.389,6.4462e-07,4.8435,-3.6283e-12,3.6805e-06,-6.4461e-07,-4.8433,1.1752
15940,13.656,1.9091,0,0.00023862,2384.6,7.8926e-05,2.1666,7.8638e-05,-0.00056572,-0.00023858,-2383.5,1.1758
15941,13.749,1.8182,0,0.00023631,2361.4,7.8238e-05,3.0815,7.7828e-05,0.00041026,-0.00023625,-2359.9,1.1888
15942,13.656,1.8182,0.05,8.3967e-07,8.3909,6.4477e-07,4.8446,-3.6262e-12,2.952e-06,-6.4476e-07,-4.8445,1.1756
15943,13.656,2.0909,0,0.00023853,2383.7,7.8844e-05,1.5457,7.8639e-05,-0.00030183,-0.0002385,-2382.9,1.176
15944,13.749,2,0,0.00023621,2360.5,7.8152e-05,2.4363,7.7828e-05,0.0010752,-0.00023617,-2359.2,1.1891
15945,13.656,2,0.05,8.3984e-07,8.3926,6.449e-07,4.8455,-3.6256e-12,3.0147e-06,-6.4489e-07,-4.8454,1.1759
15946,13.656,2.2727,0,0.00023846,2382.9,7.8777e-05,1.0322,7.8639e-05,3.5307e-05,-0.00023844,-2382.4,1.1763
15947,13.749,2.1818,0,0.00023613,2359.6,7.808e-05,1.8923,7.7828e-05,0.0019043,-0.00023609,-2358.7,1.1894
15948,13.656,2.1818,0.05,8.3998e-07,8.394,6.4501e-07,4.8463,-2.7164e-12,3.1302e-06,-6.45e-07,-4.8463,1.1761
15949,13.656,2.4545,0,0.0002384,2382.3,7.8724e-05,0.62913,7.864e-05,0.00056561,-0.00023839,-2382,1.1765
15950,13.749,2.3636,0,0.00023606,2359,7.8022e-05,1.4528,7.7829e-05,0.0029596,-0.00023604,-2358.3,1.1896
15951,13.656,2.3636,0.05,8.401e-07,8.3952,6.4509e-07,4.847,-1.8085e-12,3.0019e-06,-6.4509e-07,-4.8469,1.1763
15952,13.656,2.6364,0,0.00023836,2381.9,7.8685e-05,0.33875,7.8641e-05,0.00161,-0.00023835,-2381.7,1.1766
15953,13.749,2.5455,0,0.00023601,2358.5,7.7978e-05,1.1203,7.7829e-05,0.0042562,-0.00023599,-2357.9,1.1898
15954,13.656,2.5455,0.05,8.4018e-07,8.396,6.4516e-07,4.8475,-9.0124e-13,3.0121e-06,-6.4515e-07,-4.8474,1.1765
15955,13.656,2.8182,0,0.00023833,2381.7,7.8662e-05,0.16205,7.8641e-05,0.0039693,-0.00023833,-2381.6,1.1767
15956,13.749,2.7273,0,0.00023598,2358.2,7.7948e-05,0.897,7.7829e-05,0.0056347,-0.00023596,-2357.7,1.1899
15957,13.656,2.7273,0.05,8.4024e-07,8.3966,6.452e-07,4.8478,-1.8138e-12,2.3045e-06,-6.452e-07,-4.8477,1.1766
15958,13.656,3,0,0.00023832,2381.6,7.8654e-05,0.10112,7.8642e-05,0.0066573,-0.00023832,-2381.5,1.1767
15959,13.749,2.9091,0,0.00023596,2358,7.7933e-05,0.78471,7.783e-05,0.006613,-0.00023595,-2357.6,1.1899
15960,13.656,2.9091,0.05,8.4027e-07,8.3969,6.4522e-07,4.8479,1.7942e-15,2.6063e-06,-6.4522e-07,-4.8479,1.1767
15961,13.656,3.1818,0,0.00023833,2381.7,7.8662e-05,0.16205,7.8641e-05,0.0039685,-0.00023833,-2381.6,1.1767
15962,13.749,3.0909,0,0.00023596,2358,7.7933e-05,0.78471,7.783e-05,0.0066126,-0.00023595,-2357.6,1.1899
15963,13.656,3.0909,0.05,8.4027e-07,8.3969,6.4522e-07,4.8479,-1.7998e-15,1.9832e-06,-6.4522e-07,-4.8479,1.1767
15964,13.656,3.3636,0,0.00023836,2381.9,7.8685e-05,0.33876,7.8641e-05,0.0016092,-0.00023835,-2381.7,1.1766
15965,13.749,3.2727,0,0.00023598,2358.2,7.7948e-05,0.897,7.7829e-05,0.0056344,-0.00023596,-2357.7,1.1899
15966,13.656,3.2727,0.05,8.4024e-07,8.3966,6.452e-07,4.8477,1.8137e-12,2.4344e-06,-6.452e-07,-4.8478,1.1766
15967,13.656,3.5455,0,0.0002384,2382.3,7.8724e-05,0.62914,7.864e-05,0.00056577,-0.00023839,-2382,1.1765
15968,13.749,3.4545,0,0.00023601,2358.5,7.7978e-05,1.1203,7.7829e-05,0.0042559,-0.00023599,-2357.9,1.1898
15969,13.656,3.4545,0.05,8.4018e-07,8.396,6.4515e-07,4.8474,9.012e-13,1.9351e-06,-6.4516e-07,-4.8475,1.1765
15970,13.656,3.7273,0,0.00023846,2382.9,7.8777e-05,1.0322,7.8639e-05,3.5717e-05,-0.00023844,-2382.4,1.1763
15971,13.749,3.6364,0,0.00023606,2359,7.8022e-05,1.4528,7.7829e-05,0.00296,-0.00023604,-2358.3,1.1896
15972,13.656,3.6364,0.05,8.401e-07,8.3952,6.4509e-07,4.8469,1.8085e-12,2.8708e-06,-6.4509e-07,-4.847,1.1763
15973,13.656,3.9091,0,0.00023853,2383.7,7.8844e-05,1.5457,7.8639e-05,-0.00030169,-0.0002385,-2382.9,1.176
15974,13.749,3.8182,0,0.00023613,2359.6,7.808e-05,1.8924,7.7828e-05,0.0019042,-0.00023609,-2358.7,1.1894
15975,13.656,3.8182,0.05,8.3998e-07,8.394,6.45e-07,4.8463,8.9739e-13,3.2484e-06,-6.45e-07,-4.8463,1.1761
15976,13.656,4.0909,0,0.00023862,2384.6,7.8926e-05,2.1666,7.8638e-05,-0.00056533,-0.00023858,-2383.5,1.1758
15977,13.749,4,0,0.00023621,2360.5,7.8152e-05,2.4363,7.7828e-05,0.0010746,-0.00023617,-2359.2,1.1891
15978,13.656,4,0.05,8.3984e-07,8.3926,6.4489e-07,4.8454,2.7161e-12,2.7391e-06,-6.449e-07,-4.8455,1.1759
15979,13.656,4.2727,0,0.00023873,2385.6,7.9022e-05,2.8913,7.8637e-05,-0.00080443,-0.00023868,-2384.2,1.1754
15980,13.749,4.1818,0,0.00023631,2361.4,7.8238e-05,3.0815,7.7828e-05,0.00041092,-0.00023625,-2359.9,1.1888
15981,13.656,4.1818,0.05,8.3967e-07,8.3909,6.4476e-07,4.8445,3.6264e-12,2.1481e-06,-6.4477e-07,-4.8445,1.1756
15982,13.656,4.4545,0,0.00023885,2386.9,7.9131e-05,3.7154,7.8637e-05,-0.0010401,-0.00023879,-2385,1.175
15983,13.749,4.3636,0,0.00023642,2362.5,7.8337e-05,3.8244,7.7828e-05,-0.00014322,-0.00023635,-2360.6,1.1885
15984,13.656,4.3636,0.05,8.3948e-07,8.389,6.4461e-07,4.8433,5.4475e-12,3.2932e-06,-6.4462e-07,-4.8434,1.1752
15985,13.656,4.6364,0,0.00023899,2388.2,7.9254e-05,4.6343,7.8637e-05,-0.0012857,-0.00023891,-2385.9,1.1746
15986,13.749,4.5455,0,0.00023655,2363.8,7.8449e-05,4.6607,7.7829e-05,-0.00062654,-0.00023647,-2361.5,1.1881
15987,13.656,4.5455,0.05,8.3926e-07,8.3868,6.4444e-07,4.842,5.45e-12,2.4814e-06,-6.4445e-07,-4.8422,1.1748
15988,13.656,4.8182,0,0.00023914,2389.8,7.9388e-05,5.6428,7.8637e-05,-0.0015511,-0.00023904,-2386.9,1.1741
15989,13.749,4.7273,0,0.00023669,2365.2,7.8574e-05,5.5859,7.783e-05,-0.001071,-0.00023659,-2362.4,1.1876
15990,13.656,4.7273,0.05,8.3901e-07,8.3843,6.4425e-07,4.8406,3.6346e-12,3.3137e-06,-6.4426e-07,-4.8408,1.1743
15991,13.656,5,0,0.00023931,2391.4,7.9534e-05,6.7354,7.8638e-05,-0.0018338,-0.00023919,-2388.1,1.1735
15992,13.749,4.9091,0,0.00023684,2366.8,7.8709e-05,6.5952,7.7832e-05,-0.0014991,-0.00023673,-2363.5,1.1871
15993,13.656,4.9091,0.05,8.3873e-07,8.3815,6.4404e-07,4.839,5.4575e-12,3.5061e-06,-6.4405e-07,-4.8392,1.1738
15994,13.656,5.1818,0,0.00023949,2393.2,7.9692e-05,7.9065,7.8639e-05,-0.00216,-0.00023935,-2389.3,1.1729
15995,13.749,5.0909,0,0.00023701,2368.5,7.8857e-05,7.6832,7.7834e-05,-0.0019075,-0.00023688,-2364.7,1.1865
15996,13.656,5.0909,0.05,8.3842e-07,8.3784,6.4379e-07,4.8372,6.3707e-12,2.6255e-06,-6.4381e-07,-4.8373,1.1732
15997,13.656,5.3636,0,0.00023968,2395.2,7.986e-05,9.1527,7.8642e-05,-0.0024392,-0.00023953,-2390.6,1.1723
15998,13.749,5.2727,0,0.0002372,2370.4,7.9014e-05,8.8448,7.7837e-05,-0.0023807,-0.00023705,-2365.9,1.1859
15999,13.656,5.2727,0.05,8.3788e-07,8.373,6.4338e-07,4.8341,7.2835e-12,3.6787e-06,-6.4339e-07,-4.8342,1.1726
16000,13.656,5.5455,0,0.0002399,2397.3,8.0044e-05,10.511,7.8645e-05,-0.003197,-0.00023972,-2392.1,1.1716
16001,13.749,5.4545,0,0.0002374,2372.3,7.9183e-05,10.08,7.7841e-05,-0.0026249,-0.00023722,-2367.3,1.1852
16002,13.656,5.4545,0.05,8.342e-07,8.3362,6.4055e-07,4.8128,7.2851e-12,4.0315e-06,-6.4057e-07,-4.813,1.1719
16003,13.656,5.7273,0,0.00024024,2400.8,8.0343e-05,12.717,7.865e-05,-0.0031097,-0.00024003,-2394.4,1.1708
16004,13.749,5.6364,0,0.00023762,2374.6,7.9373e-05,11.467,7.7846e-05,-0.0041792,-0.00023743,-2368.8,1.1845
16005,13.656,5.6364,0.05,7.8265e-07,7.8211,6.0098e-07,4.5154,8.193e-12,4.7721e-06,-6.0099e-07,-4.5157,1.1712
16006,13.749,5.8182,0,0.0002381,2379.3,7.9781e-05,14.483,7.7853e-05,-0.00192,-0.00023785,-2372,1.1837
16007,13.656,5.8182,0.05,5.0611e-09,0.050576,3.8874e-09,0.029146,-1.1347e-11,-0.00016272,-3.8851e-09,-0.029254,1.1704
16008,13.656,5.9091,0,0.0002398,2396.3,7.9938e-05,9.6361,7.8655e-05,-0.0021854,-0.00023963,-2391.5,1.17
16009,13.841,0.27273,0,0.00023546,2353,7.8797e-05,13.124,7.705e-05,-0.0033975,-0.00023523,-2346.4,1.1974
16010,13.933,0.18182,0,0.00023332,2331.6,7.8235e-05,14.851,7.6258e-05,-0.0016993,-0.00023306,-2324.1,1.2104
16011,13.841,0.18182,0.05,8.3959e-09,0.083901,6.4463e-09,0.04852,8.6591e-12,0.00014823,-6.4477e-09,-0.048361,1.197
16012,13.841,0.090909,0,0.00023499,2348.3,7.8372e-05,9.8705,7.7058e-05,-0.0023371,-0.00023482,-2343.3,1.1966
16013,13.841,0.45455,0,0.00023512,2349.5,7.8508e-05,11.006,7.7042e-05,-0.0036532,-0.00023493,-2344,1.1982
16014,13.933,0.36364,0,0.00023285,2326.9,7.7834e-05,11.906,7.6249e-05,-0.0048643,-0.00023264,-2320.9,1.2112
16015,13.841,0.36364,0.05,7.7893e-07,7.7839,5.9813e-07,4.4942,-8.2001e-12,1.1417e-06,-5.9811e-07,-4.4939,1.1978
16016,13.841,0.63636,0,0.00023491,2347.5,7.8334e-05,9.746,7.7036e-05,-0.0025883,-0.00023474,-2342.6,1.1989
16017,13.933,0.54545,0,0.00023263,2324.7,7.7654e-05,10.614,7.6241e-05,-0.0028194,-0.00023245,-2319.4,1.2119
16018,13.841,0.54545,0.05,8.3039e-07,8.2982,6.3765e-07,4.7911,-7.2952e-12,1.257e-06,-6.3763e-07,-4.7908,1.1985
16019,13.841,0.81818,0,0.00023472,2345.6,7.8176e-05,8.5961,7.7031e-05,-0.0021524,-0.00023457,-2341.3,1.1995
16020,13.933,0.72727,0,0.00023244,2322.8,7.7495e-05,9.4735,7.6234e-05,-0.0024783,-0.00023227,-2318,1.2125
16021,13.841,0.72727,0.05,8.3405e-07,8.3347,6.4045e-07,4.8122,-7.2942e-12,1.7223e-06,-6.4044e-07,-4.8119,1.1992
16022,13.841,1,0,0.00023455,2343.8,7.8028e-05,7.5177,7.7028e-05,-0.0016101,-0.00023442,-2340.1,1.2001
16023,13.933,0.90909,0,0.00023226,2321,7.7347e-05,8.4035,7.6229e-05,-0.0018135,-0.00023212,-2316.8,1.2131
16024,13.841,0.90909,0.05,8.3457e-07,8.3399,6.4085e-07,4.8151,-5.4756e-12,3.4895e-06,-6.4084e-07,-4.8149,1.1998
16025,13.841,1.1818,0,0.00023439,2342.2,7.7892e-05,6.5133,7.7025e-05,-0.0010776,-0.00023427,-2339,1.2006
16026,13.933,1.0909,0,0.00023209,2319.3,7.721e-05,7.4031,7.6224e-05,-0.0012095,-0.00023197,-2315.6,1.2137
16027,13.841,1.0909,0.05,8.3486e-07,8.3428,6.4107e-07,4.8168,-5.4728e-12,3.1752e-06,-6.4106e-07,-4.8166,1.2003
16028,13.841,1.3636,0,0.00023424,2340.8,7.7766e-05,5.5875,7.7022e-05,-0.00050804,-0.00023414,-2338,1.2011
16029,13.933,1.2727,0,0.00023194,2317.8,7.7083e-05,6.4766,7.6221e-05,-0.00055342,-0.00023183,-2314.6,1.2142
16030,13.841,1.2727,0.05,8.3512e-07,8.3454,6.4127e-07,4.8183,-6.3783e-12,2.7566e-06,-6.4126e-07,-4.8182,1.2008
16031,13.841,1.5455,0,0.00023411,2339.5,7.7652e-05,4.745,7.702e-05,0.00010806,-0.00023403,-2337.1,1.2015
16032,13.933,1.4545,0,0.00023181,2316.5,7.6967e-05,5.6285,7.6218e-05,0.00014218,-0.00023171,-2313.7,1.2146
16033,13.841,1.4545,0.05,8.3535e-07,8.3477,6.4145e-07,4.8196,-4.5557e-12,2.6182e-06,-6.4144e-07,-4.8195,1.2013
16034,13.841,1.7273,0,0.00023399,2338.3,7.755e-05,3.9902,7.7019e-05,0.00079617,-0.00023392,-2336.3,1.2019
16035,13.933,1.6364,0,0.00023169,2315.3,7.6862e-05,4.8629,7.6215e-05,0.00089992,-0.0002316,-2312.8,1.2151
16036,13.841,1.6364,0.05,8.3555e-07,8.3498,6.4161e-07,4.8208,-3.6431e-12,2.7326e-06,-6.416e-07,-4.8207,1.2017
16037,13.841,1.9091,0,0.00023389,2337.3,7.7461e-05,3.3271,7.7018e-05,0.0015804,-0.00023383,-2335.6,1.2023
16038,13.933,1.8182,0,0.00023158,2314.2,7.677e-05,4.1837,7.6214e-05,0.0017323,-0.00023151,-2312.1,1.2154
16039,13.841,1.8182,0.05,8.3574e-07,8.3516,6.4174e-07,4.8219,-3.6403e-12,2.337e-06,-6.4174e-07,-4.8217,1.2021
16040,13.841,2.0909,0,0.0002338,2336.4,7.7385e-05,2.7593,7.7018e-05,0.0024823,-0.00023375,-2335,1.2025
16041,13.933,2,0,0.00023149,2313.3,7.669e-05,3.5944,7.6212e-05,0.0026483,-0.00023142,-2311.5,1.2157
16042,13.841,2,0.05,8.3589e-07,8.3532,6.4186e-07,4.8228,-2.7288e-12,2.4417e-06,-6.4186e-07,-4.8226,1.2024
16043,13.841,2.2727,0,0.00023373,2335.7,7.7322e-05,2.2899,7.7018e-05,0.0035103,-0.00023369,-2334.5,1.2028
16044,13.933,2.1818,0,0.00023141,2312.5,7.6623e-05,3.098,7.6211e-05,0.0036379,-0.00023135,-2310.9,1.216
16045,13.841,2.1818,0.05,8.3602e-07,8.3545,6.4196e-07,4.8235,-2.7274e-12,2.6157e-06,-6.4196e-07,-4.8234,1.2026
16046,13.841,2.4545,0,0.00023367,2335.1,7.7273e-05,1.9217,7.7018e-05,0.0046278,-0.00023364,-2334.2,1.2029
16047,13.933,2.3636,0,0.00023135,2311.9,7.6569e-05,2.6973,7.6211e-05,0.0046658,-0.0002313,-2310.5,1.2162
16048,13.841,2.3636,0.05,8.3613e-07,8.3555,6.4205e-07,4.8241,-1.8173e-12,2.6949e-06,-6.4204e-07,-4.824,1.2028
16049,13.841,2.6364,0,0.00023363,2334.7,7.7237e-05,1.6569,7.7018e-05,0.0057121,-0.00023361,-2333.9,1.2031
16050,13.933,2.5455,0,0.0002313,2311.4,7.6528e-05,2.3947,7.621e-05,0.0056452,-0.00023126,-2310.2,1.2163
16051,13.841,2.5455,0.05,8.3621e-07,8.3563,6.4211e-07,4.8245,-1.8173e-12,2.5312e-06,-6.421e-07,-4.8245,1.203
16052,13.841,2.8182,0,0.00023361,2334.5,7.7216e-05,1.4972,7.7018e-05,0.0065401,-0.00023358,-2333.7,1.2031
16053,13.933,2.7273,0,0.00023127,2311.1,7.6501e-05,2.1918,7.621e-05,0.0064397,-0.00023123,-2310,1.2164
16054,13.841,2.7273,0.05,8.3626e-07,8.3568,6.4215e-07,4.8248,-9.0826e-13,1.8867e-06,-6.4214e-07,-4.8248,1.2031
16055,13.841,3,0,0.0002336,2334.4,7.7209e-05,1.4438,7.7018e-05,0.0068559,-0.00023358,-2333.7,1.2032
16056,13.933,2.9091,0,0.00023125,2310.9,7.6487e-05,2.09,7.621e-05,0.006892,-0.00023122,-2309.9,1.2165
16057,13.841,2.9091,0.05,8.3629e-07,8.3571,6.4216e-07,4.825,-9.0905e-13,2.2534e-06,-6.4216e-07,-4.8249,1.2031
16058,13.841,3.1818,0,0.00023361,2334.5,7.7216e-05,1.4972,7.7018e-05,0.0065403,-0.00023358,-2333.7,1.2031
16059,13.933,3.0909,0,0.00023125,2310.9,7.6487e-05,2.09,7.621e-05,0.0068921,-0.00023122,-2309.9,1.2165
16060,13.841,3.0909,0.05,8.3629e-07,8.3571,6.4216e-07,4.825,9.0905e-13,1.7401e-06,-6.4216e-07,-4.825,1.2031
16061,13.841,3.3636,0,0.00023363,2334.7,7.7237e-05,1.6569,7.7018e-05,0.0057124,-0.00023361,-2333.9,1.2031
16062,13.933,3.2727,0,0.00023127,2311.1,7.6501e-05,2.1918,7.621e-05,0.0064396,-0.00023123,-2310,1.2164
16063,13.841,3.2727,0.05,8.3626e-07,8.3568,6.4214e-07,4.8248,-1.2273e-15,2.0918e-06,-6.4215e-07,-4.8248,1.2031
16064,13.841,3.5455,0,0.00023367,2335.1,7.7273e-05,1.9217,7.7018e-05,0.0046277,-0.00023364,-2334.2,1.2029
16065,13.933,3.4545,0,0.0002313,2311.4,7.6528e-05,2.3947,7.621e-05,0.0056448,-0.00023126,-2310.2,1.2163
16066,13.841,3.4545,0.05,8.3621e-07,8.3563,6.421e-07,4.8245,1.8173e-12,2.0137e-06,-6.4211e-07,-4.8245,1.203
16067,13.841,3.7273,0,0.00023373,2335.7,7.7322e-05,2.29,7.7018e-05,0.0035102,-0.00023369,-2334.5,1.2028
16068,13.933,3.6364,0,0.00023135,2311.9,7.6569e-05,2.6974,7.6211e-05,0.0046657,-0.0002313,-2310.5,1.2162
16069,13.841,3.6364,0.05,8.3613e-07,8.3555,6.4204e-07,4.824,2.7268e-12,2.5205e-06,-6.4204e-07,-4.8241,1.2028
16070,13.841,3.9091,0,0.0002338,2336.4,7.7385e-05,2.7593,7.7018e-05,0.0024816,-0.00023375,-2335,1.2025
16071,13.933,3.8182,0,0.00023141,2312.5,7.6623e-05,3.098,7.6211e-05,0.0036374,-0.00023135,-2310.9,1.216
16072,13.841,3.8182,0.05,8.3602e-07,8.3545,6.4196e-07,4.8234,2.7274e-12,2.9573e-06,-6.4196e-07,-4.8235,1.2026
16073,13.841,4.0909,0,0.00023389,2337.3,7.7461e-05,3.3271,7.7018e-05,0.0015801,-0.00023383,-2335.6,1.2023
16074,13.933,4,0,0.00023149,2313.3,7.669e-05,3.5944,7.6212e-05,0.0026476,-0.00023142,-2311.5,1.2157
16075,13.841,4,0.05,8.3589e-07,8.3532,6.4186e-07,4.8227,2.7288e-12,2.3118e-06,-6.4187e-07,-4.8227,1.2024
16076,13.841,4.2727,0,0.00023399,2338.3,7.755e-05,3.9902,7.7019e-05,0.00079699,-0.00023392,-2336.3,1.2019
16077,13.933,4.1818,0,0.00023158,2314.2,7.677e-05,4.1837,7.6214e-05,0.0017326,-0.00023151,-2312.1,1.2154
16078,13.841,4.1818,0.05,8.3574e-07,8.3516,6.4174e-07,4.8217,3.6403e-12,2.0439e-06,-6.4174e-07,-4.8219,1.2021
16079,13.841,4.4545,0,0.00023411,2339.5,7.7652e-05,4.745,7.702e-05,0.00010914,-0.00023403,-2337.1,1.2015
16080,13.933,4.3636,0,0.00023169,2315.3,7.6862e-05,4.863,7.6215e-05,0.00090018,-0.0002316,-2312.8,1.2151
16081,13.841,4.3636,0.05,8.3555e-07,8.3498,6.416e-07,4.8207,4.5523e-12,3.3173e-06,-6.4161e-07,-4.8208,1.2017
16082,13.841,4.6364,0,0.00023424,2340.8,7.7766e-05,5.5875,7.7022e-05,-0.00050752,-0.00023414,-2338,1.2011
16083,13.933,4.5455,0,0.00023181,2316.5,7.6967e-05,5.6286,7.6218e-05,0.00014242,-0.00023171,-2313.7,1.2146
16084,13.841,4.5455,0.05,8.3535e-07,8.3477,6.4144e-07,4.8195,5.4652e-12,2.2992e-06,-6.4145e-07,-4.8196,1.2013
16085,13.841,4.8182,0,0.00023439,2342.2,7.7892e-05,6.5133,7.7025e-05,-0.0010776,-0.00023427,-2339,1.2006
16086,13.933,4.7273,0,0.00023194,2317.8,7.7083e-05,6.4767,7.6221e-05,-0.00055353,-0.00023183,-2314.6,1.2142
16087,13.841,4.7273,0.05,8.3512e-07,8.3454,6.4126e-07,4.8182,4.559e-12,3.2163e-06,-6.4127e-07,-4.8183,1.2008
16088,13.841,5,0,0.00023455,2343.8,7.8028e-05,7.5178,7.7028e-05,-0.0016109,-0.00023442,-2340.1,1.2001
16089,13.933,4.9091,0,0.00023209,2319.3,7.721e-05,7.4031,7.6224e-05,-0.0012092,-0.00023197,-2315.6,1.2137
16090,13.841,4.9091,0.05,8.3486e-07,8.3428,6.4106e-07,4.8166,7.2909e-12,3.4189e-06,-6.4107e-07,-4.8168,1.2003
16091,13.841,5.1818,0,0.00023472,2345.6,7.8176e-05,8.5962,7.7032e-05,-0.0021557,-0.00023457,-2341.3,1.1995
16092,13.933,5.0909,0,0.00023226,2321,7.7347e-05,8.4036,7.6229e-05,-0.0018154,-0.00023212,-2316.8,1.2131
16093,13.841,5.0909,0.05,8.3457e-07,8.3399,6.4084e-07,4.815,7.2922e-12,2.3622e-06,-6.4085e-07,-4.8151,1.1998
16094,13.841,5.3636,0,0.00023491,2347.5,7.8334e-05,9.7461,7.7036e-05,-0.0025905,-0.00023474,-2342.6,1.1989
16095,13.933,5.2727,0,0.00023244,2322.8,7.7495e-05,9.4736,7.6234e-05,-0.0024816,-0.00023227,-2318,1.2125
16096,13.841,5.2727,0.05,8.3405e-07,8.3347,6.4044e-07,4.8119,7.2958e-12,3.3291e-06,-6.4045e-07,-4.8122,1.1992
16097,13.841,5.5455,0,0.00023512,2349.5,7.8508e-05,11.006,7.7042e-05,-0.0036527,-0.00023493,-2344,1.1982
16098,13.933,5.4545,0,0.00023263,2324.7,7.7654e-05,10.614,7.6241e-05,-0.0028196,-0.00023245,-2319.4,1.2119
16099,13.841,5.4545,0.05,8.3039e-07,8.2982,6.3763e-07,4.7908,7.2933e-12,3.6757e-06,-6.3764e-07,-4.7911,1.1985
16100,13.841,5.7273,0,0.00023546,2353,7.8797e-05,13.124,7.705e-05,-0.0033971,-0.00023523,-2346.4,1.1974
16101,13.933,5.6364,0,0.00023285,2326.9,7.7834e-05,11.906,7.6249e-05,-0.0048642,-0.00023264,-2320.9,1.2112
16102,13.841,5.6364,0.05,7.7893e-07,7.7839,5.9811e-07,4.4939,7.2907e-12,4.6619e-06,-5.9813e-07,-4.4942,1.1978
16103,13.933,5.8182,0,0.00023332,2331.6,7.8235e-05,14.851,7.6258e-05,-0.0016997,-0.00023306,-2324.1,1.2104
16104,13.841,5.8182,0.05,8.3961e-09,0.083903,6.449e-09,0.048371,-6.4841e-12,-0.00013094,-6.4453e-09,-0.048511,1.197
16105,13.841,5.9091,0,0.00023499,2348.3,7.8372e-05,9.8706,7.7058e-05,-0.002336,-0.00023482,-2343.3,1.1966
16106,14.026,0.27273,0,0.00023069,2305.3,7.7257e-05,13.521,7.5457e-05,-0.0036792,-0.00023046,-2298.5,1.2242
16107,14.118,0.18182,0,0.00022856,2284,7.6696e-05,15.213,7.4671e-05,-0.0015047,-0.0002283,-2276.4,1.2372
16108,14.026,0.18182,0.05,1.1456e-08,0.11448,8.7993e-09,0.066171,8.7054e-12,0.00012751,-8.7943e-09,-0.06602,1.2238
16109,14.026,0.090909,0,0.00023021,2300.5,7.6812e-05,10.101,7.5468e-05,-0.0024885,-0.00023003,-2295.4,1.2234
16110,14.026,0.45455,0,0.00023035,2302,7.6976e-05,11.483,7.5447e-05,-0.004088,-0.00023016,-2296.2,1.2249
16111,14.118,0.36364,0,0.00022809,2279.3,7.63e-05,12.331,7.4658e-05,-0.0055193,-0.00022788,-2273.2,1.238
16112,14.026,0.36364,0.05,7.7527e-07,7.7473,5.9532e-07,4.473,-8.2053e-12,3.1694e-06,-5.953e-07,-4.4728,1.2245
16113,14.026,0.63636,0,0.00023015,2299.9,7.6812e-05,10.315,7.5439e-05,-0.002738,-0.00022998,-2294.8,1.2256
16114,14.118,0.54545,0,0.00022788,2277.2,7.613e-05,11.128,7.4648e-05,-0.003008,-0.00022769,-2271.6,1.2387
16115,14.026,0.54545,0.05,8.2663e-07,8.2606,6.3476e-07,4.7694,-7.3067e-12,2.9347e-06,-6.3474e-07,-4.7691,1.2252
16116,14.026,0.81818,0,0.00022997,2298.1,7.6664e-05,9.2551,7.5432e-05,-0.00217,-0.00022981,-2293.5,1.2262
16117,14.118,0.72727,0,0.00022769,2275.4,7.5981e-05,10.076,7.4639e-05,-0.0025873,-0.00022752,-2270.3,1.2393
16118,14.026,0.72727,0.05,8.3026e-07,8.2969,6.3755e-07,4.7903,-6.3972e-12,3.2543e-06,-6.3753e-07,-4.7901,1.2259
16119,14.026,1,0,0.0002298,2296.5,7.6525e-05,8.2632,7.5425e-05,-0.0014507,-0.00022966,-2292.3,1.2268
16120,14.118,0.90909,0,0.00022752,2273.7,7.5842e-05,9.0918,7.4631e-05,-0.0017555,-0.00022737,-2269.1,1.2399
16121,14.026,0.90909,0.05,8.3076e-07,8.3019,6.3793e-07,4.7932,-7.3055e-12,3.3951e-06,-6.3792e-07,-4.793,1.2265
16122,14.026,1.1818,0,0.00022965,2294.9,7.6397e-05,7.341,7.542e-05,-0.00073532,-0.00022952,-2291.2,1.2273
16123,14.118,1.0909,0,0.00022736,2272.1,7.5713e-05,8.1732,7.4625e-05,-0.00099584,-0.00022722,-2268,1.2405
16124,14.026,1.0909,0.05,8.3104e-07,8.3046,6.3814e-07,4.7948,-6.3949e-12,3.6645e-06,-6.3813e-07,-4.7946,1.227
16125,14.026,1.3636,0,0.00022951,2293.5,7.628e-05,6.4924,7.5416e-05,2.8475e-05,-0.0002294,-2290.2,1.2278
16126,14.118,1.2727,0,0.00022722,2270.6,7.5594e-05,7.3242,7.4619e-05,-0.00017689,-0.00022709,-2267,1.241
16127,14.026,1.2727,0.05,8.3128e-07,8.307,6.3832e-07,4.7962,-6.3935e-12,3.4614e-06,-6.3831e-07,-4.796,1.2275
16128,14.026,1.5455,0,0.00022938,2292.2,7.6174e-05,5.7213,7.5412e-05,0.00084014,-0.00022928,-2289.4,1.2282
16129,14.118,1.4545,0,0.00022709,2269.3,7.5486e-05,6.5482,7.4614e-05,0.00067638,-0.00022698,-2266,1.2414
16130,14.026,1.4545,0.05,8.3149e-07,8.3092,6.3849e-07,4.7974,-5.4795e-12,3.4573e-06,-6.3848e-07,-4.7972,1.228
16131,14.026,1.7273,0,0.00022927,2291.1,7.6079e-05,5.0314,7.541e-05,0.0017095,-0.00022918,-2288.6,1.2286
16132,14.118,1.6364,0,0.00022697,2268.1,7.5389e-05,5.8488,7.461e-05,0.0015757,-0.00022687,-2265.2,1.2418
16133,14.026,1.6364,0.05,8.3169e-07,8.3111,6.3864e-07,4.7985,-3.6573e-12,4.1269e-06,-6.3863e-07,-4.7984,1.2284
16134,14.026,1.9091,0,0.00022917,2290.1,7.5996e-05,4.4261,7.5407e-05,0.0026376,-0.0002291,-2287.9,1.2289
16135,14.118,1.8182,0,0.00022687,2267.1,7.5303e-05,5.2291,7.4607e-05,0.0025169,-0.00022678,-2264.5,1.2421
16136,14.026,1.8182,0.05,8.3186e-07,8.3128,6.3877e-07,4.7995,-3.6537e-12,3.4678e-06,-6.3876e-07,-4.7993,1.2287
16137,14.026,2.0909,0,0.00022909,2289.3,7.5925e-05,3.9083,7.5406e-05,0.0036118,-0.00022902,-2287.3,1.2292
16138,14.118,2,0,0.00022678,2266.2,7.5229e-05,4.6921,7.4605e-05,0.0034873,-0.0002267,-2263.9,1.2424
16139,14.026,2,0.05,8.32e-07,8.3143,6.3888e-07,4.8003,-2.7405e-12,3.6639e-06,-6.3887e-07,-4.8002,1.229
16140,14.026,2.2727,0,0.00022902,2288.6,7.5867e-05,3.4807,7.5404e-05,0.0045977,-0.00022896,-2286.9,1.2294
16141,14.118,2.1818,0,0.0002267,2265.5,7.5166e-05,4.2403,7.4603e-05,0.0044561,-0.00022663,-2263.4,1.2427
16142,14.026,2.1818,0.05,8.3212e-07,8.3155,6.3897e-07,4.801,-2.7379e-12,3.813e-06,-6.3896e-07,-4.8009,1.2293
16143,14.026,2.4545,0,0.00022897,2288.1,7.5821e-05,3.1456,7.5403e-05,0.0055329,-0.00022891,-2286.5,1.2296
16144,14.118,2.3636,0,0.00022664,2264.9,7.5116e-05,3.876,7.4601e-05,0.0053765,-0.00022658,-2262.9,1.2429
16145,14.026,2.3636,0.05,8.3222e-07,8.3165,6.3904e-07,4.8015,-1.8258e-12,4.0173e-06,-6.3904e-07,-4.8015,1.2295
16146,14.026,2.6364,0,0.00022893,2287.7,7.5789e-05,2.9049,7.5403e-05,0.0063237,-0.00022888,-2286.2,1.2297
16147,14.118,2.5455,0,0.0002266,2264.4,7.5078e-05,3.6011,7.46e-05,0.0061784,-0.00022654,-2262.6,1.243
16148,14.026,2.5455,0.05,8.3229e-07,8.3172,6.391e-07,4.802,-1.8235e-12,3.9876e-06,-6.391e-07,-4.8019,1.2296
16149,14.026,2.8182,0,0.0002289,2287.5,7.5769e-05,2.7599,7.5402e-05,0.0068598,-0.00022886,-2286.1,1.2298
16150,14.118,2.7273,0,0.00022657,2264.1,7.5053e-05,3.4169,7.4599e-05,0.0067794,-0.00022651,-2262.4,1.2431
16151,14.026,2.7273,0.05,8.3234e-07,8.3177,6.3914e-07,4.8023,-9.1207e-13,3.512e-06,-6.3914e-07,-4.8022,1.2297
16152,14.026,3,0,0.0002289,2287.4,7.5762e-05,2.7114,7.5402e-05,0.0070503,-0.00022885,-2286,1.2298
16153,14.118,2.9091,0,0.00022655,2264,7.504e-05,3.3246,7.4599e-05,0.0071021,-0.0002265,-2262.3,1.2432
16154,14.026,2.9091,0.05,8.3237e-07,8.3179,6.3916e-07,4.8024,-8.4297e-16,3.7003e-06,-6.3916e-07,-4.8024,1.2298
16155,14.026,3.1818,0,0.0002289,2287.5,7.5769e-05,2.7599,7.5402e-05,0.0068596,-0.00022886,-2286.1,1.2298
16156,14.118,3.0909,0,0.00022655,2264,7.504e-05,3.3246,7.4599e-05,0.0071022,-0.0002265,-2262.3,1.2432
16157,14.026,3.0909,0.05,8.3237e-07,8.3179,6.3916e-07,4.8024,8.4131e-16,3.2846e-06,-6.3916e-07,-4.8024,1.2298
16158,14.026,3.3636,0,0.00022893,2287.7,7.5789e-05,2.9049,7.5403e-05,0.0063229,-0.00022888,-2286.2,1.2297
16159,14.118,3.2727,0,0.00022657,2264.1,7.5053e-05,3.4169,7.4599e-05,0.0067788,-0.00022651,-2262.4,1.2431
16160,14.026,3.2727,0.05,8.3234e-07,8.3177,6.3914e-07,4.8022,9.1208e-13,3.6906e-06,-6.3914e-07,-4.8022,1.2297
16161,14.026,3.5455,0,0.00022897,2288.1,7.5821e-05,3.1456,7.5403e-05,0.0055325,-0.00022891,-2286.5,1.2296
16162,14.118,3.4545,0,0.0002266,2264.4,7.5078e-05,3.6011,7.46e-05,0.0061778,-0.00022654,-2262.6,1.243
16163,14.026,3.4545,0.05,8.3229e-07,8.3172,6.391e-07,4.8019,1.8235e-12,3.4186e-06,-6.391e-07,-4.802,1.2296
16164,14.026,3.7273,0,0.00022902,2288.6,7.5867e-05,3.4807,7.5404e-05,0.0045973,-0.00022896,-2286.9,1.2294
16165,14.118,3.6364,0,0.00022664,2264.9,7.5116e-05,3.876,7.4601e-05,0.005377,-0.00022658,-2262.9,1.2429
16166,14.026,3.6364,0.05,8.3222e-07,8.3165,6.3904e-07,4.8015,1.8258e-12,4.1559e-06,-6.3904e-07,-4.8015,1.2295
16167,14.026,3.9091,0,0.00022909,2289.3,7.5925e-05,3.9083,7.5406e-05,0.0036115,-0.00022902,-2287.3,1.2292
16168,14.118,3.8182,0,0.0002267,2265.5,7.5166e-05,4.2403,7.4603e-05,0.0044555,-0.00022663,-2263.4,1.2427
16169,14.026,3.8182,0.05,8.3212e-07,8.3155,6.3896e-07,4.8009,2.7379e-12,4.7074e-06,-6.3897e-07,-4.801,1.2293
16170,14.026,4.0909,0,0.00022917,2290.1,7.5996e-05,4.4261,7.5407e-05,0.0026375,-0.0002291,-2287.9,1.2289
16171,14.118,4,0,0.00022678,2266.2,7.5229e-05,4.6921,7.4605e-05,0.003487,-0.0002267,-2263.9,1.2424
16172,14.026,4,0.05,8.32e-07,8.3143,6.3887e-07,4.8002,3.6503e-12,4.1417e-06,-6.3888e-07,-4.8003,1.229
16173,14.026,4.2727,0,0.00022927,2291.1,7.6079e-05,5.0314,7.541e-05,0.0017092,-0.00022918,-2288.6,1.2286
16174,14.118,4.1818,0,0.00022687,2267.1,7.5303e-05,5.2291,7.4607e-05,0.0025163,-0.00022678,-2264.5,1.2421
16175,14.026,4.1818,0.05,8.3186e-07,8.3128,6.3876e-07,4.7994,3.6537e-12,3.5958e-06,-6.3877e-07,-4.7994,1.2287
16176,14.026,4.4545,0,0.00022938,2292.2,7.6174e-05,5.7213,7.5412e-05,0.00083957,-0.00022928,-2289.4,1.2282
16177,14.118,4.3636,0,0.00022697,2268.1,7.5389e-05,5.8488,7.461e-05,0.0015754,-0.00022687,-2265.2,1.2418
16178,14.026,4.3636,0.05,8.3169e-07,8.3111,6.3863e-07,4.7984,3.6569e-12,4.8998e-06,-6.3863e-07,-4.7985,1.2284
16179,14.026,4.6364,0,0.00022951,2293.5,7.628e-05,6.4924,7.5416e-05,2.8097e-05,-0.0002294,-2290.2,1.2278
16180,14.118,4.5455,0,0.00022709,2269.3,7.5486e-05,6.5482,7.4614e-05,0.00067651,-0.00022698,-2266,1.2414
16181,14.026,4.5455,0.05,8.3149e-07,8.3092,6.3848e-07,4.7973,3.66e-12,3.7298e-06,-6.3849e-07,-4.7974,1.228
16182,14.026,4.8182,0,0.00022965,2294.9,7.6397e-05,7.341,7.542e-05,-0.00073515,-0.00022952,-2291.2,1.2273
16183,14.118,4.7273,0,0.00022722,2270.6,7.5594e-05,7.3242,7.4619e-05,-0.0001769,-0.00022709,-2267,1.241
16184,14.026,4.7273,0.05,8.3128e-07,8.307,6.3831e-07,4.796,4.5725e-12,4.9358e-06,-6.3832e-07,-4.7961,1.2275
16185,14.026,5,0,0.0002298,2296.5,7.6525e-05,8.2633,7.5425e-05,-0.0014515,-0.00022966,-2292.3,1.2268
16186,14.118,4.9091,0,0.00022736,2272.1,7.5713e-05,8.1733,7.4625e-05,-0.00099572,-0.00022722,-2268,1.2405
16187,14.026,4.9091,0.05,8.3104e-07,8.3046,6.3813e-07,4.7946,4.576e-12,4.9464e-06,-6.3814e-07,-4.7948,1.227
16188,14.026,5.1818,0,0.00022997,2298.1,7.6664e-05,9.2552,7.5432e-05,-0.0021719,-0.00022981,-2293.5,1.2262
16189,14.118,5.0909,0,0.00022752,2273.7,7.5842e-05,9.0918,7.4631e-05,-0.0017567,-0.00022737,-2269.1,1.2399
16190,14.026,5.0909,0.05,8.3076e-07,8.3019,6.3792e-07,4.793,5.4867e-12,3.7559e-06,-6.3793e-07,-4.7932,1.2265
16191,14.026,5.3636,0,0.00023015,2299.9,7.6812e-05,10.315,7.5439e-05,-0.0027393,-0.00022998,-2294.8,1.2256
16192,14.118,5.2727,0,0.00022769,2275.4,7.5981e-05,10.076,7.4639e-05,-0.0025889,-0.00022752,-2270.3,1.2393
16193,14.026,5.2727,0.05,8.3026e-07,8.2969,6.3753e-07,4.7901,6.3972e-12,4.8758e-06,-6.3755e-07,-4.7903,1.2259
16194,14.026,5.5455,0,0.00023035,2302,7.6976e-05,11.483,7.5447e-05,-0.0040885,-0.00023016,-2296.2,1.2249
16195,14.118,5.4545,0,0.00022788,2277.2,7.613e-05,11.128,7.4648e-05,-0.0030092,-0.00022769,-2271.6,1.2387
16196,14.026,5.4545,0.05,8.2663e-07,8.2606,6.3474e-07,4.7692,7.3038e-12,5.0641e-06,-6.3476e-07,-4.7694,1.2252
16197,14.026,5.7273,0,0.00023069,2305.3,7.7257e-05,13.521,7.5457e-05,-0.0036799,-0.00023046,-2298.5,1.2242
16198,14.118,5.6364,0,0.00022809,2279.3,7.63e-05,12.331,7.4658e-05,-0.0055195,-0.00022788,-2273.2,1.238
16199,14.026,5.6364,0.05,7.7527e-07,7.7473,5.953e-07,4.4728,7.2923e-12,5.7124e-06,-5.9532e-07,-4.473,1.2245
16200,14.118,5.8182,0,0.00022856,2284,7.6696e-05,15.213,7.4671e-05,-0.0015045,-0.0002283,-2276.4,1.2372
16201,14.026,5.8182,0.05,1.1456e-08,0.11449,8.7966e-09,0.06605,-5.3597e-12,-8.139e-05,-8.7976e-09,-0.066146,1.2238
16202,14.026,5.9091,0,0.00023021,2300.5,7.6812e-05,10.101,7.5468e-05,-0.0024886,-0.00023003,-2295.4,1.2234
16203,14.21,0.27273,0,0.00022595,2257.9,7.5724e-05,13.909,7.3872e-05,-0.0039591,-0.00022571,-2250.9,1.2511
16204,14.303,0.18182,0,0.00022383,2236.7,7.5163e-05,15.568,7.309e-05,-0.001318,-0.00022356,-2228.9,1.2642
16205,14.21,0.18182,0.05,1.4232e-08,0.14222,1.0931e-08,0.082198,8.0667e-12,0.00013569,-1.0926e-08,-0.082025,1.2507
16206,14.21,0.090909,0,0.00022545,2252.9,7.526e-05,10.329,7.3885e-05,-0.0026464,-0.00022527,-2247.7,1.2503
16207,14.21,0.45455,0,0.00022561,2254.6,7.545e-05,11.945,7.3859e-05,-0.0045065,-0.00022541,-2248.6,1.2518
16208,14.303,0.36364,0,0.00022336,2232,7.4772e-05,12.744,7.3075e-05,-0.0061334,-0.00022314,-2225.6,1.265
16209,14.21,0.36364,0.05,7.7166e-07,7.7112,5.9254e-07,4.4522,-7.305e-12,4.7819e-06,-5.9253e-07,-4.452,1.2514
16210,14.21,0.63636,0,0.00022542,2252.6,7.5295e-05,10.863,7.3849e-05,-0.0028881,-0.00022523,-2247.2,1.2525
16211,14.303,0.54545,0,0.00022315,2230,7.461e-05,11.625,7.3063e-05,-0.0031786,-0.00022295,-2224.1,1.2656
16212,14.21,0.54545,0.05,8.2291e-07,8.2234,6.319e-07,4.7479,-7.3116e-12,4.2406e-06,-6.3188e-07,-4.7477,1.2521
16213,14.21,0.81818,0,0.00022524,2250.9,7.5155e-05,9.8866,7.3839e-05,-0.0022038,-0.00022507,-2245.9,1.2531
16214,14.303,0.72727,0,0.00022297,2228.2,7.447e-05,10.656,7.3052e-05,-0.0026848,-0.00022279,-2222.8,1.2663
16215,14.21,0.72727,0.05,8.2651e-07,8.2594,6.3467e-07,4.7687,-7.3201e-12,3.007e-06,-6.3465e-07,-4.7685,1.2528
16216,14.21,1,0,0.00022508,2249.2,7.5026e-05,8.9757,7.3831e-05,-0.0013358,-0.00022493,-2244.7,1.2536
16217,14.303,0.90909,0,0.0002228,2226.5,7.434e-05,9.7516,7.3042e-05,-0.0017061,-0.00022264,-2221.6,1.2669
16218,14.21,0.90909,0.05,8.27e-07,8.2643,6.3504e-07,4.7715,-7.3199e-12,2.8341e-06,-6.3502e-07,-4.7712,1.2533
16219,14.21,1.1818,0,0.00022493,2247.7,7.4906e-05,8.1305,7.3824e-05,-0.00047898,-0.00022479,-2243.7,1.2542
16220,14.303,1.0909,0,0.00022265,2225,7.4219e-05,8.9098,7.3033e-05,-0.00081906,-0.0002225,-2220.5,1.2674
16221,14.21,1.0909,0.05,8.2726e-07,8.2668,6.3523e-07,4.7729,-6.4101e-12,3.2311e-06,-6.3522e-07,-4.7728,1.2539
16222,14.21,1.3636,0,0.00022479,2246.4,7.4796e-05,7.3542,7.3818e-05,0.00042137,-0.00022467,-2242.7,1.2546
16223,14.303,1.2727,0,0.00022251,2223.6,7.4108e-05,8.1333,7.3026e-05,0.00012546,-0.00022237,-2219.5,1.2679
16224,14.21,1.2727,0.05,8.2748e-07,8.2691,6.3541e-07,4.7743,-6.4075e-12,3.4018e-06,-6.354e-07,-4.7741,1.2544
16225,14.21,1.5455,0,0.00022467,2245.2,7.4697e-05,6.65,7.3812e-05,0.0013534,-0.00022456,-2241.8,1.255
16226,14.303,1.4545,0,0.00022239,2222.3,7.4007e-05,7.4251,7.3019e-05,0.0010888,-0.00022226,-2218.6,1.2683
16227,14.21,1.4545,0.05,8.2768e-07,8.2711,6.3556e-07,4.7754,-5.4931e-12,3.614e-06,-6.3555e-07,-4.7753,1.2548
16228,14.21,1.7273,0,0.00022456,2244.1,7.4609e-05,6.0209,7.3808e-05,0.0023167,-0.00022446,-2241.1,1.2554
16229,14.303,1.6364,0,0.00022227,2221.2,7.3917e-05,6.7877,7.3014e-05,0.0020746,-0.00022216,-2217.8,1.2687
16230,14.21,1.6364,0.05,8.2786e-07,8.2729,6.357e-07,4.7765,-3.6701e-12,3.869e-06,-6.3569e-07,-4.7763,1.2552
16231,14.21,1.9091,0,0.00022447,2243.2,7.4532e-05,5.4697,7.3805e-05,0.003297,-0.00022438,-2240.4,1.2557
16232,14.303,1.8182,0,0.00022217,2220.2,7.3837e-05,6.224,7.3009e-05,0.0030698,-0.00022207,-2217.1,1.269
16233,14.21,1.8182,0.05,8.2802e-07,8.2745,6.3582e-07,4.7774,-3.6665e-12,3.6891e-06,-6.3581e-07,-4.7772,1.2556
16234,14.21,2.0909,0,0.00022439,2242.4,7.4466e-05,4.9987,7.3802e-05,0.0042681,-0.00022431,-2239.9,1.256
16235,14.303,2,0,0.00022209,2219.4,7.3768e-05,5.7361,7.3005e-05,0.0040528,-0.00022199,-2216.5,1.2693
16236,14.21,2,0.05,8.2816e-07,8.2759,6.3593e-07,4.7781,-2.7526e-12,3.8773e-06,-6.3592e-07,-4.778,1.2558
16237,14.21,2.2727,0,0.00022433,2241.7,7.4412e-05,4.6103,7.3799e-05,0.0051912,-0.00022425,-2239.4,1.2562
16238,14.303,2.1818,0,0.00022202,2218.6,7.371e-05,5.3261,7.3002e-05,0.004988,-0.00022193,-2216,1.2696
16239,14.21,2.1818,0.05,8.2827e-07,8.277,6.3601e-07,4.7788,-3.657e-12,4.1486e-06,-6.3601e-07,-4.7787,1.2561
16240,14.21,2.4545,0,0.00022427,2241.2,7.437e-05,4.3061,7.3798e-05,0.006013,-0.0002242,-2239,1.2564
16241,14.303,2.3636,0,0.00022196,2218.1,7.3664e-05,4.9959,7.3e-05,0.0058345,-0.00022187,-2215.6,1.2698
16242,14.21,2.3636,0.05,8.2836e-07,8.2779,6.3608e-07,4.7793,-1.8337e-12,4.1817e-06,-6.3608e-07,-4.7792,1.2563
16243,14.21,2.6364,0,0.00022424,2240.8,7.434e-05,4.0878,7.3796e-05,0.0066682,-0.00022417,-2238.8,1.2565
16244,14.303,2.5455,0,0.00022192,2217.6,7.3629e-05,4.7468,7.2998e-05,0.0065393,-0.00022184,-2215.3,1.2699
16245,14.21,2.5455,0.05,8.2843e-07,8.2786,6.3613e-07,4.7797,-2.7389e-12,4.2581e-06,-6.3613e-07,-4.7796,1.2564
16246,14.21,2.8182,0,0.00022422,2240.6,7.4321e-05,3.9564,7.3796e-05,0.0070929,-0.00022415,-2238.6,1.2566
16247,14.303,2.7273,0,0.00022189,2217.4,7.3606e-05,4.5802,7.2997e-05,0.007047,-0.00022181,-2215.1,1.27
16248,14.21,2.7273,0.05,8.2848e-07,8.2791,6.3617e-07,4.7799,-6.2173e-15,3.8874e-06,-6.3617e-07,-4.7799,1.2565
16249,14.21,3,0,0.00022421,2240.5,7.4315e-05,3.9125,7.3796e-05,0.0072401,-0.00022414,-2238.6,1.2566
16250,14.303,2.9091,0,0.00022187,2217.2,7.3594e-05,4.4966,7.2996e-05,0.007313,-0.0002218,-2215,1.2701
16251,14.21,2.9091,0.05,8.285e-07,8.2793,6.3619e-07,4.7801,-2.0574e-15,4.1122e-06,-6.3619e-07,-4.7801,1.2566
16252,14.21,3.1818,0,0.00022422,2240.6,7.4321e-05,3.9564,7.3796e-05,0.0070927,-0.00022415,-2238.6,1.2566
16253,14.303,3.0909,0,0.00022187,2217.2,7.3594e-05,4.4966,7.2996e-05,0.007313,-0.0002218,-2215,1.2701
16254,14.21,3.0909,0.05,8.285e-07,8.2793,6.3619e-07,4.7801,2.0537e-15,3.8152e-06,-6.3619e-07,-4.7801,1.2566
16255,14.21,3.3636,0,0.00022424,2240.8,7.434e-05,4.0878,7.3796e-05,0.0066678,-0.00022417,-2238.8,1.2565
16256,14.303,3.2727,0,0.00022189,2217.4,7.3606e-05,4.5802,7.2997e-05,0.0070464,-0.00022181,-2215.1,1.27
16257,14.21,3.2727,0.05,8.2848e-07,8.2791,6.3617e-07,4.7799,6.1633e-15,4.2636e-06,-6.3617e-07,-4.7799,1.2565
16258,14.21,3.5455,0,0.00022427,2241.2,7.437e-05,4.3061,7.3798e-05,0.0060133,-0.0002242,-2239,1.2564
16259,14.303,3.4545,0,0.00022192,2217.6,7.3629e-05,4.7468,7.2998e-05,0.0065387,-0.00022184,-2215.3,1.2699
16260,14.21,3.4545,0.05,8.2843e-07,8.2786,6.3613e-07,4.7796,9.1987e-13,3.9972e-06,-6.3613e-07,-4.7797,1.2564
16261,14.21,3.7273,0,0.00022433,2241.7,7.4412e-05,4.6103,7.3799e-05,0.0051915,-0.00022425,-2239.4,1.2562
16262,14.303,3.6364,0,0.00022196,2218.1,7.3664e-05,4.9959,7.3e-05,0.0058346,-0.00022187,-2215.6,1.2698
16263,14.21,3.6364,0.05,8.2836e-07,8.2779,6.3608e-07,4.7792,1.8337e-12,4.743e-06,-6.3608e-07,-4.7793,1.2563
16264,14.21,3.9091,0,0.00022439,2242.4,7.4466e-05,4.9987,7.3802e-05,0.0042675,-0.00022431,-2239.9,1.256
16265,14.303,3.8182,0,0.00022202,2218.6,7.371e-05,5.3261,7.3002e-05,0.0049883,-0.00022193,-2216,1.2696
16266,14.21,3.8182,0.05,8.2827e-07,8.277,6.3601e-07,4.7787,2.7478e-12,5.0603e-06,-6.3601e-07,-4.7788,1.2561
16267,14.21,4.0909,0,0.00022447,2243.2,7.4532e-05,5.4697,7.3805e-05,0.0032962,-0.00022438,-2240.4,1.2557
16268,14.303,4,0,0.00022209,2219.4,7.3768e-05,5.7361,7.3005e-05,0.0040518,-0.00022199,-2216.5,1.2693
16269,14.21,4,0.05,8.2816e-07,8.2759,6.3592e-07,4.7781,3.6617e-12,4.693e-06,-6.3593e-07,-4.7781,1.2558
16270,14.21,4.2727,0,0.00022456,2244.1,7.4609e-05,6.0209,7.3808e-05,0.002316,-0.00022446,-2241.1,1.2554
16271,14.303,4.1818,0,0.00022217,2220.2,7.3837e-05,6.224,7.3009e-05,0.0030695,-0.00022207,-2217.1,1.269
16272,14.21,4.1818,0.05,8.2802e-07,8.2745,6.3582e-07,4.7772,2.7564e-12,4.1543e-06,-6.3582e-07,-4.7773,1.2556
16273,14.21,4.4545,0,0.00022467,2245.2,7.4697e-05,6.65,7.3812e-05,0.0013537,-0.00022456,-2241.8,1.255
16274,14.303,4.3636,0,0.00022227,2221.2,7.3917e-05,6.7878,7.3014e-05,0.0020744,-0.00022216,-2217.8,1.2687
16275,14.21,4.3636,0.05,8.2786e-07,8.2729,6.3569e-07,4.7763,3.6694e-12,5.4168e-06,-6.357e-07,-4.7764,1.2552
16276,14.21,4.6364,0,0.00022479,2246.4,7.4796e-05,7.3542,7.3818e-05,0.00042186,-0.00022467,-2242.7,1.2546
16277,14.303,4.5455,0,0.00022239,2222.3,7.4007e-05,7.4251,7.3019e-05,0.0010894,-0.00022226,-2218.6,1.2683
16278,14.21,4.5455,0.05,8.2768e-07,8.2711,6.3555e-07,4.7753,4.5837e-12,4.4929e-06,-6.3556e-07,-4.7754,1.2548
16279,14.21,4.8182,0,0.00022493,2247.7,7.4906e-05,8.1305,7.3824e-05,-0.00047904,-0.00022479,-2243.7,1.2542
16280,14.303,4.7273,0,0.00022251,2223.6,7.4108e-05,8.1334,7.3026e-05,0.00012549,-0.00022237,-2219.5,1.2679
16281,14.21,4.7273,0.05,8.2748e-07,8.2691,6.354e-07,4.7741,4.5846e-12,5.2216e-06,-6.3541e-07,-4.7742,1.2544
16282,14.21,5,0,0.00022508,2249.2,7.5026e-05,8.9758,7.3831e-05,-0.0013361,-0.00022493,-2244.7,1.2536
16283,14.303,4.9091,0,0.00022265,2225,7.4219e-05,8.9099,7.3033e-05,-0.00081984,-0.0002225,-2220.5,1.2674
16284,14.21,4.9091,0.05,8.2726e-07,8.2668,6.3522e-07,4.7728,4.5876e-12,5.407e-06,-6.3524e-07,-4.7729,1.2539
16285,14.21,5.1818,0,0.00022524,2250.9,7.5155e-05,9.8867,7.3839e-05,-0.0022047,-0.00022507,-2245.9,1.2531
16286,14.303,5.0909,0,0.0002228,2226.5,7.434e-05,9.7516,7.3042e-05,-0.0017068,-0.00022264,-2221.6,1.2669
16287,14.21,5.0909,0.05,8.27e-07,8.2643,6.3502e-07,4.7713,5.5011e-12,4.294e-06,-6.3504e-07,-4.7715,1.2533
16288,14.21,5.3636,0,0.00022542,2252.6,7.5295e-05,10.863,7.3849e-05,-0.0028897,-0.00022523,-2247.2,1.2525
16289,14.303,5.2727,0,0.00022297,2228.2,7.447e-05,10.656,7.3052e-05,-0.0026862,-0.00022279,-2222.8,1.2663
16290,14.21,5.2727,0.05,8.2651e-07,8.2594,6.3465e-07,4.7685,7.3137e-12,5.0622e-06,-6.3467e-07,-4.7687,1.2528
16291,14.21,5.5455,0,0.00022561,2254.6,7.545e-05,11.945,7.3859e-05,-0.0045074,-0.00022541,-2248.6,1.2518
16292,14.303,5.4545,0,0.00022315,2230,7.4611e-05,11.625,7.3063e-05,-0.00318,-0.00022295,-2224.1,1.2656
16293,14.21,5.4545,0.05,8.2291e-07,8.2234,6.3189e-07,4.7477,7.3045e-12,5.2806e-06,-6.319e-07,-4.7479,1.2521
16294,14.21,5.7273,0,0.00022595,2257.9,7.5724e-05,13.909,7.3872e-05,-0.0039585,-0.00022571,-2250.9,1.2511
16295,14.303,5.6364,0,0.00022336,2232,7.4772e-05,12.744,7.3075e-05,-0.0061331,-0.00022314,-2225.6,1.265
16296,14.21,5.6364,0.05,7.7166e-07,7.7112,5.9253e-07,4.452,7.3098e-12,5.9611e-06,-5.9254e-07,-4.4522,1.2514
16297,14.303,5.8182,0,0.00022383,2236.7,7.5163e-05,15.569,7.309e-05,-0.0013175,-0.00022356,-2228.9,1.2642
16298,14.21,5.8182,0.05,1.4232e-08,0.14223,1.0927e-08,0.082047,-7.0817e-12,-0.00010684,-1.0931e-08,-0.08218,1.2507
16299,14.21,5.9091,0,0.00022545,2252.9,7.526e-05,10.329,7.3885e-05,-0.0026458,-0.00022527,-2247.7,1.2503
16300,14.395,0.27273,0,0.00022122,2210.7,7.4196e-05,14.289,7.2294e-05,-0.0042038,-0.00022097,-2203.5,1.2781
16301,14.487,0.18182,0,0.00021911,2189.6,7.3636e-05,15.92,7.1517e-05,-0.0011398,-0.00021884,-2181.6,1.2914
16302,14.395,0.18182,0.05,1.6728e-08,0.16716,1.2845e-08,0.096579,6.0406e-12,0.00011437,-1.2845e-08,-0.096445,1.2778
16303,14.395,0.090909,0,0.0002207,2205.5,7.3714e-05,10.554,7.2309e-05,-0.0027761,-0.00022052,-2200.2,1.2774
16304,14.395,0.45455,0,0.00022089,2207.4,7.3929e-05,12.393,7.2279e-05,-0.0048807,-0.00022068,-2201.2,1.2788
16305,14.487,0.36364,0,0.00021864,2184.9,7.325e-05,13.148,7.15e-05,-0.0067141,-0.00021842,-2178.3,1.2921
16306,14.395,0.36364,0.05,7.681e-07,7.6757,5.8981e-07,4.4317,-7.3159e-12,5.2405e-06,-5.898e-07,-4.4314,1.2785
16307,14.395,0.63636,0,0.0002207,2205.5,7.3782e-05,11.391,7.2266e-05,-0.003007,-0.0002205,-2199.8,1.2795
16308,14.487,0.54545,0,0.00021844,2182.9,7.3097e-05,12.106,7.1485e-05,-0.0033366,-0.00021823,-2176.8,1.2927
16309,14.395,0.54545,0.05,8.1923e-07,8.1866,6.2907e-07,4.7267,-6.4096e-12,4.8685e-06,-6.2906e-07,-4.7264,1.2792
16310,14.395,0.81818,0,0.00022053,2203.8,7.3651e-05,10.494,7.2254e-05,-0.002217,-0.00022035,-2198.5,1.2801
16311,14.487,0.72727,0,0.00021827,2181.2,7.2965e-05,11.215,7.1472e-05,-0.0027752,-0.00021807,-2175.5,1.2934
16312,14.395,0.72727,0.05,8.2281e-07,8.2224,6.3182e-07,4.7473,-7.3224e-12,2.7294e-06,-6.3181e-07,-4.7471,1.2798
16313,14.395,1,0,0.00022037,2202.2,7.353e-05,9.6591,7.2244e-05,-0.0012209,-0.00022021,-2197.4,1.2806
16314,14.487,0.90909,0,0.00021811,2179.6,7.2842e-05,10.386,7.146e-05,-0.0016645,-0.00021793,-2174.3,1.2939
16315,14.395,0.90909,0.05,8.2327e-07,8.2271,6.3218e-07,4.75,-6.4148e-12,1.879e-06,-6.3217e-07,-4.7498,1.2804
16316,14.395,1.1818,0,0.00022023,2200.8,7.3418e-05,8.8863,7.2235e-05,-0.00024847,-0.00022008,-2196.3,1.2812
16317,14.487,1.0909,0,0.00021796,2178.1,7.2729e-05,9.6169,7.1449e-05,-0.00066776,-0.00021779,-2173.3,1.2945
16318,14.395,1.0909,0.05,8.2352e-07,8.2295,6.3237e-07,4.7514,-4.6025e-12,2.7866e-06,-6.3236e-07,-4.7512,1.2809
16319,14.395,1.3636,0,0.0002201,2199.5,7.3315e-05,8.1779,7.2227e-05,0.0007568,-0.00021996,-2195.4,1.2816
16320,14.487,1.2727,0,0.00021782,2176.7,7.2625e-05,8.9087,7.144e-05,0.00037811,-0.00021767,-2172.3,1.2949
16321,14.395,1.2727,0.05,8.2373e-07,8.2316,6.3253e-07,4.7526,-4.5979e-12,2.9176e-06,-6.3252e-07,-4.7525,1.2814
16322,14.395,1.5455,0,0.00021998,2198.3,7.3223e-05,7.5366,7.222e-05,0.0017728,-0.00021985,-2194.5,1.282
16323,14.487,1.4545,0,0.0002177,2175.5,7.2531e-05,8.2642,7.1432e-05,0.0014252,-0.00021756,-2171.4,1.2954
16324,14.395,1.4545,0.05,8.2392e-07,8.2335,6.3267e-07,4.7537,-4.5955e-12,3.1627e-06,-6.3267e-07,-4.7536,1.2818
16325,14.395,1.7273,0,0.00021988,2197.3,7.3141e-05,6.9647,7.2215e-05,0.002792,-0.00021976,-2193.8,1.2824
16326,14.487,1.6364,0,0.00021759,2174.4,7.2447e-05,7.6854,7.1425e-05,0.0024722,-0.00021746,-2170.6,1.2958
16327,14.395,1.6364,0.05,8.2409e-07,8.2352,6.328e-07,4.7547,-3.6836e-12,3.5995e-06,-6.328e-07,-4.7546,1.2822
16328,14.395,1.9091,0,0.00021979,2196.4,7.307e-05,6.4644,7.221e-05,0.0037957,-0.00021968,-2193.1,1.2827
16329,14.487,1.8182,0,0.0002175,2173.5,7.2373e-05,7.1743,7.1419e-05,0.0034998,-0.00021737,-2169.9,1.2961
16330,14.395,1.8182,0.05,8.2424e-07,8.2367,6.3292e-07,4.7555,-3.677e-12,3.187e-06,-6.3291e-07,-4.7554,1.2825
16331,14.395,2.0909,0,0.00021971,2195.6,7.3009e-05,6.0375,7.2206e-05,0.0047544,-0.00021961,-2192.6,1.283
16332,14.487,2,0,0.00021742,2172.7,7.2309e-05,6.7327,7.1414e-05,0.0044853,-0.0002173,-2169.3,1.2964
16333,14.395,2,0.05,8.2437e-07,8.238,6.3302e-07,4.7563,-3.6719e-12,3.7042e-06,-6.3301e-07,-4.7562,1.2828
16334,14.395,2.2727,0,0.00021965,2195,7.2958e-05,5.6858,7.2203e-05,0.005631,-0.00021955,-2192.1,1.2832
16335,14.487,2.1818,0,0.00021735,2172,7.2256e-05,6.3621,7.141e-05,0.0053952,-0.00021724,-2168.8,1.2966
16336,14.395,2.1818,0.05,8.2448e-07,8.2391,6.331e-07,4.7569,-1.8473e-12,4.0808e-06,-6.3309e-07,-4.7568,1.2831
16337,14.395,2.4545,0,0.0002196,2194.5,7.2919e-05,5.4107,7.22e-05,0.0063835,-0.00021951,-2191.8,1.2833
16338,14.487,2.3636,0,0.00021729,2171.4,7.2213e-05,6.064,7.1406e-05,0.0061918,-0.00021719,-2168.4,1.2968
16339,14.395,2.3636,0.05,8.2456e-07,8.2399,6.3317e-07,4.7574,-9.316e-13,4.1844e-06,-6.3316e-07,-4.7573,1.2832
16340,14.395,2.6364,0,0.00021956,2194.1,7.2891e-05,5.2133,7.2198e-05,0.0069642,-0.00021947,-2191.5,1.2835
16341,14.487,2.5455,0,0.00021725,2171,7.218e-05,5.8393,7.1404e-05,0.006838,-0.00021715,-2168.1,1.2969
16342,14.395,2.5455,0.05,8.2463e-07,8.2406,6.3321e-07,4.7577,-2.7444e-12,4.4999e-06,-6.3321e-07,-4.7577,1.2834
16343,14.395,2.8182,0,0.00021954,2193.9,7.2874e-05,5.0946,7.2197e-05,0.0073311,-0.00021946,-2191.4,1.2835
16344,14.487,2.7273,0,0.00021722,2170.7,7.2159e-05,5.6891,7.1403e-05,0.0072935,-0.00021713,-2167.9,1.297
16345,14.395,2.7273,0.05,8.2467e-07,8.241,6.3325e-07,4.758,-9.519e-15,3.6539e-06,-6.3324e-07,-4.7579,1.2835
16346,14.395,3,0,0.00021954,2193.8,7.2869e-05,5.055,7.2197e-05,0.0074566,-0.00021945,-2191.3,1.2836
16347,14.487,2.9091,0,0.00021721,2170.6,7.2148e-05,5.6138,7.1402e-05,0.0075282,-0.00021711,-2167.8,1.2971
16348,14.395,2.9091,0.05,8.2469e-07,8.2412,6.3326e-07,4.7581,-3.1706e-15,4.0591e-06,-6.3326e-07,-4.758,1.2835
16349,14.395,3.1818,0,0.00021954,2193.9,7.2874e-05,5.0946,7.2197e-05,0.0073306,-0.00021946,-2191.4,1.2835
16350,14.487,3.0909,0,0.00021721,2170.6,7.2148e-05,5.6138,7.1402e-05,0.0075281,-0.00021711,-2167.8,1.2971
16351,14.395,3.0909,0.05,8.2469e-07,8.2412,6.3326e-07,4.7581,3.1795e-15,3.6895e-06,-6.3326e-07,-4.7581,1.2835
16352,14.395,3.3636,0,0.00021956,2194.1,7.2891e-05,5.2133,7.2198e-05,0.0069633,-0.00021947,-2191.5,1.2835
16353,14.487,3.2727,0,0.00021722,2170.7,7.2159e-05,5.6891,7.1403e-05,0.0072925,-0.00021713,-2167.9,1.297
16354,14.395,3.2727,0.05,8.2467e-07,8.241,6.3324e-07,4.7579,9.5615e-15,4.0348e-06,-6.3324e-07,-4.758,1.2835
16355,14.395,3.5455,0,0.0002196,2194.5,7.2919e-05,5.4107,7.22e-05,0.0063827,-0.00021951,-2191.8,1.2833
16356,14.487,3.4545,0,0.00021725,2171,7.218e-05,5.8393,7.1404e-05,0.0068375,-0.00021715,-2168.1,1.2969
16357,14.395,3.4545,0.05,8.2463e-07,8.2406,6.3321e-07,4.7577,9.2528e-13,4.1428e-06,-6.3321e-07,-4.7577,1.2834
16358,14.395,3.7273,0,0.00021965,2195,7.2958e-05,5.6858,7.2203e-05,0.0056312,-0.00021955,-2192.1,1.2832
16359,14.487,3.6364,0,0.00021729,2171.4,7.2213e-05,6.064,7.1406e-05,0.0061916,-0.00021719,-2168.4,1.2968
16360,14.395,3.6364,0.05,8.2456e-07,8.2399,6.3316e-07,4.7573,1.8411e-12,4.9019e-06,-6.3316e-07,-4.7574,1.2832
16361,14.395,3.9091,0,0.00021971,2195.6,7.3009e-05,6.0375,7.2206e-05,0.0047544,-0.00021961,-2192.6,1.283
16362,14.487,3.8182,0,0.00021735,2172,7.2256e-05,6.3622,7.141e-05,0.0053946,-0.00021724,-2168.8,1.2966
16363,14.395,3.8182,0.05,8.2448e-07,8.2391,6.3309e-07,4.7568,2.7568e-12,5.486e-06,-6.331e-07,-4.7569,1.2831
16364,14.395,4.0909,0,0.00021979,2196.4,7.307e-05,6.4644,7.221e-05,0.0037953,-0.00021968,-2193.1,1.2827
16365,14.487,4,0,0.00021742,2172.7,7.2309e-05,6.7327,7.1414e-05,0.0044854,-0.0002173,-2169.3,1.2964
16366,14.395,4,0.05,8.2437e-07,8.238,6.3301e-07,4.7562,1.853e-12,4.5726e-06,-6.3302e-07,-4.7563,1.2828
16367,14.395,4.2727,0,0.00021988,2197.3,7.3141e-05,6.9648,7.2215e-05,0.0027922,-0.00021976,-2193.8,1.2824
16368,14.487,4.1818,0,0.0002175,2173.5,7.2373e-05,7.1744,7.1419e-05,0.0035002,-0.00021737,-2169.9,1.2961
16369,14.395,4.1818,0.05,8.2424e-07,8.2367,6.3291e-07,4.7555,3.677e-12,4.3843e-06,-6.3292e-07,-4.7555,1.2825
16370,14.395,4.4545,0,0.00021998,2198.3,7.3223e-05,7.5367,7.222e-05,0.0017729,-0.00021985,-2194.5,1.282
16371,14.487,4.3636,0,0.00021759,2174.4,7.2447e-05,7.6855,7.1425e-05,0.0024725,-0.00021746,-2170.6,1.2958
16372,14.395,4.3636,0.05,8.2409e-07,8.2352,6.328e-07,4.7546,3.6807e-12,5.6323e-06,-6.3281e-07,-4.7547,1.2822
16373,14.395,4.6364,0,0.0002201,2199.5,7.3315e-05,8.178,7.2227e-05,0.00075695,-0.00021996,-2195.4,1.2816
16374,14.487,4.5455,0,0.0002177,2175.5,7.2531e-05,8.2643,7.1432e-05,0.001425,-0.00021756,-2171.4,1.2954
16375,14.395,4.5455,0.05,8.2392e-07,8.2335,6.3267e-07,4.7536,3.6861e-12,4.5135e-06,-6.3267e-07,-4.7537,1.2818
16376,14.395,4.8182,0,0.00022023,2200.8,7.3418e-05,8.8863,7.2235e-05,-0.00024917,-0.00022008,-2196.3,1.2812
16377,14.487,4.7273,0,0.00021782,2176.7,7.2625e-05,8.9088,7.144e-05,0.00037836,-0.00021767,-2172.3,1.2949
16378,14.395,4.7273,0.05,8.2373e-07,8.2316,6.3252e-07,4.7525,4.5967e-12,5.4499e-06,-6.3253e-07,-4.7526,1.2814
16379,14.395,5,0,0.00022037,2202.2,7.353e-05,9.6592,7.2244e-05,-0.0012221,-0.00022021,-2197.4,1.2806
16380,14.487,4.9091,0,0.00021796,2178.1,7.2729e-05,9.6169,7.1449e-05,-0.00066878,-0.00021779,-2173.3,1.2945
16381,14.395,4.9091,0.05,8.2352e-07,8.2295,6.3236e-07,4.7513,6.4169e-12,5.0855e-06,-6.3237e-07,-4.7514,1.2809
16382,14.395,5.1818,0,0.00022053,2203.8,7.3651e-05,10.494,7.2254e-05,-0.0022183,-0.00022035,-2198.5,1.2801
16383,14.487,5.0909,0,0.00021811,2179.6,7.2842e-05,10.386,7.146e-05,-0.0016652,-0.00021793,-2174.3,1.2939
16384,14.395,5.0909,0.05,8.2328e-07,8.2271,6.3217e-07,4.7498,6.415e-12,4.3156e-06,-6.3218e-07,-4.75,1.2804
16385,14.395,5.3636,0,0.0002207,2205.5,7.3782e-05,11.391,7.2266e-05,-0.0030083,-0.0002205,-2199.8,1.2795
16386,14.487,5.2727,0,0.00021827,2181.2,7.2965e-05,11.215,7.1472e-05,-0.0027762,-0.00021807,-2175.5,1.2934
16387,14.395,5.2727,0.05,8.2281e-07,8.2224,6.3181e-07,4.7471,6.4091e-12,5.1766e-06,-6.3182e-07,-4.7473,1.2798
16388,14.395,5.5455,0,0.00022089,2207.4,7.3929e-05,12.393,7.2279e-05,-0.004881,-0.00022068,-2201.2,1.2788
16389,14.487,5.4545,0,0.00021844,2182.9,7.3097e-05,12.106,7.1485e-05,-0.0033368,-0.00021823,-2176.8,1.2927
16390,14.395,5.4545,0.05,8.1923e-07,8.1866,6.2906e-07,4.7264,7.3105e-12,4.9355e-06,-6.2907e-07,-4.7266,1.2792
16391,14.395,5.7273,0,0.00022122,2210.7,7.4196e-05,14.289,7.2294e-05,-0.0042037,-0.00022097,-2203.5,1.2781
16392,14.487,5.6364,0,0.00021864,2184.9,7.325e-05,13.148,7.15e-05,-0.0067141,-0.00021842,-2178.3,1.2921
16393,14.395,5.6364,0.05,7.681e-07,7.6757,5.898e-07,4.4315,7.3048e-12,5.8471e-06,-5.8981e-07,-4.4317,1.2785
16394,14.487,5.8182,0,0.00021911,2189.6,7.3636e-05,15.92,7.1517e-05,-0.0011394,-0.00021884,-2181.6,1.2914
16395,14.395,5.8182,0.05,1.6728e-08,0.16717,1.2844e-08,0.096448,-5.2787e-12,-0.00010695,-1.2846e-08,-0.096581,1.2778
16396,14.395,5.9091,0,0.0002207,2205.5,7.3714e-05,10.554,7.2309e-05,-0.0027761,-0.00022052,-2200.2,1.2774
16397,14.58,0.27273,0,0.00021652,2163.7,7.2675e-05,14.662,7.0723e-05,-0.0044552,-0.00021626,-2156.3,1.3054
16398,14.672,0.18182,0,0.00021442,2142.7,7.2116e-05,16.267,6.9951e-05,-0.00098717,-0.00021414,-2134.5,1.3187
16399,14.58,0.18182,0.05,1.896e-08,0.18946,1.456e-08,0.10945,6.7438e-12,0.00011383,-1.4557e-08,-0.10932,1.305
16400,14.58,0.090909,0,0.00021598,2158.3,7.2174e-05,10.777,7.074e-05,-0.0029169,-0.0002158,-2152.9,1.3046
16401,14.58,0.45455,0,0.00021619,2160.4,7.2414e-05,12.83,7.0706e-05,-0.005252,-0.00021597,-2154,1.306
16402,14.672,0.36364,0,0.00021395,2138,7.1734e-05,13.542,6.9931e-05,-0.0072835,-0.00021372,-2131.2,1.3194
16403,14.58,0.36364,0.05,7.646e-07,7.6407,5.8712e-07,4.4115,-7.3212e-12,3.2867e-06,-5.8711e-07,-4.4113,1.3057
16404,14.58,0.63636,0,0.000216,2158.5,7.2275e-05,11.903,7.0691e-05,-0.0031363,-0.0002158,-2152.6,1.3067
16405,14.672,0.54545,0,0.00021375,2136,7.1588e-05,12.575,6.9914e-05,-0.0034987,-0.00021354,-2129.7,1.32
16406,14.58,0.54545,0.05,8.1558e-07,8.1502,6.2628e-07,4.7057,-6.4114e-12,3.6487e-06,-6.2626e-07,-4.7054,1.3063
16407,14.58,0.81818,0,0.00021584,2156.9,7.2152e-05,11.08,7.0677e-05,-0.0022506,-0.00021565,-2151.3,1.3073
16408,14.672,0.72727,0,0.00021358,2134.4,7.1464e-05,11.757,6.9899e-05,-0.0028769,-0.00021338,-2128.4,1.3206
16409,14.58,0.72727,0.05,8.1915e-07,8.1858,6.2901e-07,4.7262,-6.4216e-12,2.3337e-06,-6.29e-07,-4.726,1.307
16410,14.58,1,0,0.00021569,2155.4,7.2038e-05,10.317,7.0665e-05,-0.0011388,-0.00021551,-2150.2,1.3078
16411,14.672,0.90909,0,0.00021343,2132.8,7.1349e-05,10.999,6.9885e-05,-0.0016446,-0.00021324,-2127.3,1.3212
16412,14.58,0.90909,0.05,8.196e-07,8.1903,6.2935e-07,4.7287,-5.524e-12,1.548e-06,-6.2934e-07,-4.7286,1.3075
16413,14.58,1.1818,0,0.00021555,2154,7.1933e-05,9.6125,7.0654e-05,-6.8137e-05,-0.00021538,-2149.2,1.3083
16414,14.672,1.0909,0,0.00021328,2131.4,7.1243e-05,10.298,6.9873e-05,-0.0005512,-0.00021311,-2126.2,1.3217
16415,14.58,1.0909,0.05,8.1983e-07,8.1926,6.2953e-07,4.7301,-5.5202e-12,2.1388e-06,-6.2952e-07,-4.7299,1.308
16416,14.58,1.3636,0,0.00021542,2152.7,7.1838e-05,8.9683,7.0644e-05,0.0010209,-0.00021527,-2148.2,1.3087
16417,14.672,1.2727,0,0.00021315,2130.1,7.1146e-05,9.6548,6.9862e-05,0.00058074,-0.00021299,-2125.2,1.3222
16418,14.58,1.2727,0.05,8.2003e-07,8.1946,6.2969e-07,4.7313,-6.4288e-12,2.4969e-06,-6.2968e-07,-4.7311,1.3085
16419,14.58,1.5455,0,0.00021531,2151.6,7.1752e-05,8.3864,7.0636e-05,0.0021018,-0.00021516,-2147.4,1.3092
16420,14.672,1.4545,0,0.00021303,2128.9,7.1059e-05,9.0707,6.9852e-05,0.0016964,-0.00021288,-2124.3,1.3226
16421,14.58,1.4545,0.05,8.2021e-07,8.1964,6.2982e-07,4.7323,-3.6982e-12,2.8935e-06,-6.2981e-07,-4.7321,1.3089
16422,14.58,1.7273,0,0.00021521,2150.6,7.1676e-05,7.8685,7.0629e-05,0.0031624,-0.00021507,-2146.6,1.3095
16423,14.672,1.6364,0,0.00021293,2127.8,7.0981e-05,8.5473,6.9843e-05,0.0027911,-0.00021278,-2123.5,1.323
16424,14.58,1.6364,0.05,8.2037e-07,8.198,6.2995e-07,4.7332,-3.6935e-12,3.5493e-06,-6.2994e-07,-4.7331,1.3093
16425,14.58,1.9091,0,0.00021512,2149.7,7.1609e-05,7.4162,7.0623e-05,0.0041801,-0.00021499,-2146,1.3098
16426,14.672,1.8182,0,0.00021284,2126.9,7.0912e-05,8.0861,6.9836e-05,0.0038436,-0.0002127,-2122.9,1.3233
16427,14.58,1.8182,0.05,8.2051e-07,8.1994,6.3005e-07,4.734,-1.8703e-12,3.0406e-06,-6.3005e-07,-4.7339,1.3096
16428,14.58,2.0909,0,0.00021505,2149,7.1553e-05,7.0309,7.0618e-05,0.0051286,-0.00021493,-2145.5,1.3101
16429,14.672,2,0,0.00021276,2126.1,7.0853e-05,7.6883,6.983e-05,0.0048304,-0.00021263,-2122.3,1.3236
16430,14.58,2,0.05,8.2063e-07,8.2007,6.3015e-07,4.7347,-3.683e-12,3.3383e-06,-6.3014e-07,-4.7346,1.3099
16431,14.58,2.2727,0,0.00021499,2148.4,7.1506e-05,6.7139,7.0614e-05,0.0059731,-0.00021487,-2145,1.3103
16432,14.672,2.1818,0,0.00021269,2125.5,7.0803e-05,7.355,6.9825e-05,0.0057212,-0.00021257,-2121.8,1.3238
16433,14.58,2.1818,0.05,8.2073e-07,8.2017,6.3022e-07,4.7353,-2.765e-12,4.047e-06,-6.3022e-07,-4.7352,1.3102
16434,14.58,2.4545,0,0.00021494,2147.9,7.147e-05,6.4662,7.061e-05,0.0066795,-0.00021483,-2144.7,1.3104
16435,14.672,2.3636,0,0.00021264,2125,7.0763e-05,7.0872,6.9821e-05,0.0064852,-0.00021252,-2121.4,1.324
16436,14.58,2.3636,0.05,8.2081e-07,8.2025,6.3029e-07,4.7357,-2.7573e-12,3.9849e-06,-6.3028e-07,-4.7357,1.3103
16437,14.58,2.6364,0,0.00021491,2147.6,7.1444e-05,6.2887,7.0608e-05,0.0072152,-0.0002148,-2144.4,1.3106
16438,14.672,2.5455,0,0.0002126,2124.6,7.0734e-05,6.8856,6.9818e-05,0.0070932,-0.00021248,-2121.1,1.3241
16439,14.58,2.5455,0.05,8.2087e-07,8.2031,6.3033e-07,4.7361,-9.307e-13,4.0739e-06,-6.3033e-07,-4.736,1.3105
16440,14.58,2.8182,0,0.00021489,2147.4,7.1429e-05,6.1819,7.0607e-05,0.0075492,-0.00021478,-2144.3,1.3106
16441,14.672,2.7273,0,0.00021258,2124.3,7.0714e-05,6.7509,6.9816e-05,0.0075165,-0.00021246,-2120.9,1.3242
16442,14.58,2.7273,0.05,8.2091e-07,8.2035,6.3036e-07,4.7363,-9.2223e-13,3.898e-06,-6.3036e-07,-4.7363,1.3106
16443,14.58,3,0,0.00021488,2147.3,7.1424e-05,6.1463,7.0607e-05,0.0076621,-0.00021478,-2144.2,1.3107
16444,14.672,2.9091,0,0.00021256,2124.2,7.0704e-05,6.6834,6.9815e-05,0.0077326,-0.00021245,-2120.8,1.3243
16445,14.58,2.9091,0.05,8.2094e-07,8.2037,6.3038e-07,4.7364,-4.2672e-15,4.2893e-06,-6.3037e-07,-4.7364,1.3106
16446,14.58,3.1818,0,0.00021489,2147.4,7.1429e-05,6.1819,7.0607e-05,0.0075485,-0.00021478,-2144.3,1.3106
16447,14.672,3.0909,0,0.00021256,2124.2,7.0704e-05,6.6834,6.9815e-05,0.0077321,-0.00021245,-2120.8,1.3243
16448,14.58,3.0909,0.05,8.2094e-07,8.2037,6.3038e-07,4.7364,4.2656e-15,3.7276e-06,-6.3038e-07,-4.7364,1.3106
16449,14.58,3.3636,0,0.00021491,2147.6,7.1444e-05,6.2887,7.0608e-05,0.0072146,-0.0002148,-2144.4,1.3106
16450,14.672,3.2727,0,0.00021258,2124.3,7.0714e-05,6.7509,6.9816e-05,0.0075158,-0.00021246,-2120.9,1.3242
16451,14.58,3.2727,0.05,8.2091e-07,8.2035,6.3036e-07,4.7363,9.2223e-13,4.327e-06,-6.3036e-07,-4.7363,1.3106
16452,14.58,3.5455,0,0.00021494,2147.9,7.147e-05,6.4662,7.061e-05,0.0066795,-0.00021483,-2144.7,1.3104
16453,14.672,3.4545,0,0.0002126,2124.6,7.0734e-05,6.8856,6.9818e-05,0.0070927,-0.00021248,-2121.1,1.3241
16454,14.58,3.4545,0.05,8.2087e-07,8.2031,6.3033e-07,4.736,9.3052e-13,4.3014e-06,-6.3033e-07,-4.7361,1.3105
16455,14.58,3.7273,0,0.00021499,2148.4,7.1506e-05,6.7139,7.0614e-05,0.0059722,-0.00021487,-2145,1.3103
16456,14.672,3.6364,0,0.00021264,2125,7.0763e-05,7.0872,6.9821e-05,0.0064853,-0.00021252,-2121.4,1.324
16457,14.58,3.6364,0.05,8.2081e-07,8.2025,6.3028e-07,4.7357,2.7576e-12,4.8093e-06,-6.3029e-07,-4.7357,1.3103
16458,14.58,3.9091,0,0.00021505,2149,7.1553e-05,7.0309,7.0618e-05,0.0051281,-0.00021493,-2145.5,1.3101
16459,14.672,3.8182,0,0.00021269,2125.5,7.0803e-05,7.355,6.9825e-05,0.0057201,-0.00021257,-2121.8,1.3238
16460,14.58,3.8182,0.05,8.2073e-07,8.2017,6.3022e-07,4.7352,2.7655e-12,5.5288e-06,-6.3022e-07,-4.7353,1.3102
16461,14.58,4.0909,0,0.00021512,2149.7,7.1609e-05,7.4162,7.0623e-05,0.0041811,-0.00021499,-2146,1.3098
16462,14.672,4,0,0.00021276,2126.1,7.0853e-05,7.6883,6.983e-05,0.0048304,-0.00021263,-2122.3,1.3236
16463,14.58,4,0.05,8.2063e-07,8.2007,6.3014e-07,4.7346,1.8624e-12,5.0736e-06,-6.3015e-07,-4.7347,1.3099
16464,14.58,4.2727,0,0.00021521,2150.6,7.1676e-05,7.8685,7.0629e-05,0.003163,-0.00021507,-2146.6,1.3095
16465,14.672,4.1818,0,0.00021284,2126.9,7.0912e-05,8.0861,6.9836e-05,0.0038437,-0.0002127,-2122.9,1.3233
16466,14.58,4.1818,0.05,8.2051e-07,8.1994,6.3005e-07,4.7339,3.6883e-12,4.3711e-06,-6.3005e-07,-4.734,1.3096
16467,14.58,4.4545,0,0.00021531,2151.6,7.1752e-05,8.3864,7.0636e-05,0.0021018,-0.00021516,-2147.4,1.3092
16468,14.672,4.3636,0,0.00021293,2127.8,7.0981e-05,8.5473,6.9843e-05,0.0027915,-0.00021278,-2123.5,1.323
16469,14.58,4.3636,0.05,8.2037e-07,8.198,6.2994e-07,4.7331,4.603e-12,5.7189e-06,-6.2995e-07,-4.7332,1.3093
16470,14.58,4.6364,0,0.00021542,2152.7,7.1838e-05,8.9683,7.0644e-05,0.0010207,-0.00021527,-2148.2,1.3087
16471,14.672,4.5455,0,0.00021303,2128.9,7.1059e-05,9.0707,6.9852e-05,0.0016957,-0.00021288,-2124.3,1.3226
16472,14.58,4.5455,0.05,8.2021e-07,8.1964,6.2981e-07,4.7322,4.6076e-12,4.409e-06,-6.2982e-07,-4.7323,1.3089
16473,14.58,4.8182,0,0.00021555,2154,7.1933e-05,9.6125,7.0654e-05,-6.8216e-05,-0.00021538,-2149.2,1.3083
16474,14.672,4.7273,0,0.00021315,2130.1,7.1146e-05,9.6549,6.9862e-05,0.00058131,-0.00021299,-2125.2,1.3222
16475,14.58,4.7273,0.05,8.2003e-07,8.1946,6.2968e-07,4.7311,3.6988e-12,5.3143e-06,-6.2969e-07,-4.7312,1.3085
16476,14.58,5,0,0.00021569,2155.4,7.2038e-05,10.317,7.0665e-05,-0.0011393,-0.00021551,-2150.2,1.3078
16477,14.672,4.9091,0,0.00021328,2131.4,7.1243e-05,10.298,6.9873e-05,-0.00055208,-0.00021311,-2126.2,1.3217
16478,14.58,4.9091,0.05,8.1983e-07,8.1926,6.2952e-07,4.7299,4.6071e-12,5.3549e-06,-6.2953e-07,-4.7301,1.308
16479,14.58,5.1818,0,0.00021584,2156.9,7.2152e-05,11.08,7.0677e-05,-0.002251,-0.00021565,-2151.3,1.3073
16480,14.672,5.0909,0,0.00021343,2132.8,7.1349e-05,10.999,6.9885e-05,-0.0016456,-0.00021324,-2127.3,1.3212
16481,14.58,5.0909,0.05,8.196e-07,8.1903,6.2934e-07,4.7286,6.4249e-12,4.1959e-06,-6.2935e-07,-4.7287,1.3075
16482,14.58,5.3636,0,0.000216,2158.5,7.2275e-05,11.903,7.0691e-05,-0.0031364,-0.0002158,-2152.6,1.3067
16483,14.672,5.2727,0,0.00021358,2134.4,7.1464e-05,11.757,6.9899e-05,-0.0028772,-0.00021338,-2128.4,1.3206
16484,14.58,5.2727,0.05,8.1915e-07,8.1858,6.29e-07,4.726,6.422e-12,4.9451e-06,-6.2901e-07,-4.7262,1.307
16485,14.58,5.5455,0,0.00021619,2160.4,7.2414e-05,12.83,7.0706e-05,-0.0052519,-0.00021597,-2154,1.306
16486,14.672,5.4545,0,0.00021375,2136,7.1588e-05,12.575,6.9914e-05,-0.0034993,-0.00021354,-2129.7,1.32
16487,14.58,5.4545,0.05,8.1558e-07,8.1502,6.2626e-07,4.7054,6.4062e-12,4.9223e-06,-6.2627e-07,-4.7056,1.3063
16488,14.58,5.7273,0,0.00021652,2163.7,7.2675e-05,14.662,7.0723e-05,-0.0044549,-0.00021626,-2156.3,1.3054
16489,14.672,5.6364,0,0.00021395,2138,7.1734e-05,13.542,6.9931e-05,-0.0072839,-0.00021372,-2131.2,1.3194
16490,14.58,5.6364,0.05,7.646e-07,7.6407,5.8711e-07,4.4113,7.3223e-12,5.401e-06,-5.8712e-07,-4.4115,1.3057
16491,14.672,5.8182,0,0.00021442,2142.7,7.2116e-05,16.267,6.9951e-05,-0.00098624,-0.00021414,-2134.5,1.3187
16492,14.58,5.8182,0.05,1.896e-08,0.18947,1.4558e-08,0.10933,-5.5646e-12,-9.2232e-05,-1.456e-08,-0.10945,1.305
16493,14.58,5.9091,0,0.00021598,2158.3,7.2174e-05,10.777,7.074e-05,-0.0029171,-0.0002158,-2152.9,1.3046
16494,14.765,0.27273,0,0.00021183,2116.9,7.116e-05,15.03,6.9159e-05,-0.0047108,-0.00021157,-2109.3,1.3327
16495,14.857,0.18182,0,0.00020974,2096,7.0602e-05,16.612,6.8391e-05,-0.00085616,-0.00020946,-2087.6,1.3461
16496,14.765,0.18182,0.05,2.0948e-08,0.20934,1.6087e-08,0.12092,7.9623e-12,0.00011562,-1.6084e-08,-0.12079,1.3323
16497,14.765,0.090909,0,0.00021128,2111.4,7.0642e-05,10.998,6.9178e-05,-0.0030651,-0.00021109,-2105.9,1.332
16498,14.765,0.45455,0,0.00021151,2113.6,7.0905e-05,13.256,6.914e-05,-0.0056181,-0.00021128,-2107,1.3334
16499,14.857,0.36364,0,0.00020928,2091.3,7.0224e-05,13.93,6.8369e-05,-0.0078449,-0.00020904,-2084.3,1.3468
16500,14.765,0.36364,0.05,7.6114e-07,7.6062,5.8447e-07,4.3915,-7.3118e-12,1.4976e-06,-5.8446e-07,-4.3913,1.333
16501,14.765,0.63636,0,0.00021133,2111.8,7.0773e-05,12.401,6.9122e-05,-0.00327,-0.00021111,-2105.6,1.334
16502,14.857,0.54545,0,0.00020908,2089.4,7.0086e-05,13.032,6.8351e-05,-0.0036666,-0.00020886,-2082.8,1.3474
16503,14.765,0.54545,0.05,8.1198e-07,8.1142,6.2351e-07,4.6848,-7.3204e-12,3.1666e-06,-6.2349e-07,-4.6846,1.3337
16504,14.765,0.81818,0,0.00021117,2110.2,7.0657e-05,11.648,6.9107e-05,-0.0022963,-0.00021097,-2104.4,1.3346
16505,14.857,0.72727,0,0.00020892,2087.7,6.9968e-05,12.284,6.8333e-05,-0.0029861,-0.00020871,-2081.6,1.348
16506,14.765,0.72727,0.05,8.1552e-07,8.1495,6.2622e-07,4.7053,-5.5144e-12,2.532e-06,-6.2621e-07,-4.705,1.3343
16507,14.765,1,0,0.00021102,2108.7,7.0551e-05,10.953,6.9093e-05,-0.0010803,-0.00021083,-2103.2,1.3351
16508,14.857,0.90909,0,0.00020877,2086.2,6.9861e-05,11.594,6.8317e-05,-0.0016419,-0.00020857,-2080.4,1.3486
16509,14.765,0.90909,0.05,8.1596e-07,8.1539,6.2656e-07,4.7078,-7.3483e-12,2.0541e-06,-6.2655e-07,-4.7076,1.3348
16510,14.765,1.1818,0,0.00021088,2107.4,7.0453e-05,10.313,6.908e-05,7.686e-05,-0.00021071,-2102.2,1.3356
16511,14.857,1.0909,0,0.00020863,2084.8,6.9762e-05,10.958,6.8303e-05,-0.00046214,-0.00020844,-2079.3,1.3491
16512,14.765,1.0909,0.05,8.1618e-07,8.1561,6.2673e-07,4.709,-6.4403e-12,2.7801e-06,-6.2672e-07,-4.7089,1.3353
16513,14.765,1.3636,0,0.00021076,2106.2,7.0364e-05,9.7299,6.9069e-05,0.0012389,-0.00021059,-2101.3,1.336
16514,14.857,1.2727,0,0.0002085,2083.6,6.9672e-05,10.376,6.8291e-05,0.00074652,-0.00020832,-2078.4,1.3495
16515,14.765,1.2727,0.05,8.1637e-07,8.158,6.2688e-07,4.7101,-6.4401e-12,2.9657e-06,-6.2686e-07,-4.71,1.3358
16516,14.765,1.5455,0,0.00021065,2105.1,7.0284e-05,9.2044,6.9059e-05,0.0023733,-0.00021049,-2100.5,1.3364
16517,14.857,1.4545,0,0.00020839,2082.4,6.959e-05,9.8491,6.8279e-05,0.0019217,-0.00020822,-2077.5,1.3499
16518,14.765,1.4545,0.05,8.1654e-07,8.1597,6.27e-07,4.7111,-3.7083e-12,3.3733e-06,-6.27e-07,-4.711,1.3362
16519,14.765,1.7273,0,0.00021056,2104.1,7.0213e-05,8.7378,6.9051e-05,0.0034666,-0.00021041,-2099.7,1.3368
16520,14.857,1.6364,0,0.00020829,2081.4,6.9517e-05,9.3785,6.827e-05,0.0030564,-0.00020813,-2076.7,1.3503
16521,14.765,1.6364,0.05,8.1669e-07,8.1613,6.2712e-07,4.712,-3.7049e-12,3.792e-06,-6.2711e-07,-4.7118,1.3366
16522,14.765,1.9091,0,0.00021047,2103.3,7.0152e-05,8.3312,6.9043e-05,0.004497,-0.00021033,-2099.1,1.3371
16523,14.857,1.8182,0,0.0002082,2080.5,6.9454e-05,8.9648,6.8261e-05,0.0041299,-0.00020804,-2076,1.3506
16524,14.765,1.8182,0.05,8.1682e-07,8.1626,6.2722e-07,4.7127,-3.6989e-12,3.4556e-06,-6.2721e-07,-4.7126,1.3369
16525,14.765,2.0909,0,0.0002104,2102.6,7.0099e-05,7.9854,6.9037e-05,0.0054368,-0.00021027,-2098.6,1.3373
16526,14.857,2,0,0.00020812,2079.8,6.9399e-05,8.6088,6.8254e-05,0.0051193,-0.00020797,-2075.5,1.3509
16527,14.765,2,0.05,8.1694e-07,8.1637,6.2731e-07,4.7134,-2.7826e-12,3.9743e-06,-6.273e-07,-4.7133,1.3372
16528,14.765,2.2727,0,0.00021034,2102,7.0057e-05,7.7014,6.9032e-05,0.0062589,-0.00021021,-2098.1,1.3375
16529,14.857,2.1818,0,0.00020806,2079.2,6.9353e-05,8.311,6.8248e-05,0.0059969,-0.00020792,-2075,1.3511
16530,14.765,2.1818,0.05,8.1703e-07,8.1647,6.2738e-07,4.714,-9.546e-13,4.2516e-06,-6.2738e-07,-4.7138,1.3374
16531,14.765,2.4545,0,0.0002103,2101.5,7.0023e-05,7.4797,6.9029e-05,0.0069364,-0.00021017,-2097.8,1.3377
16532,14.857,2.3636,0,0.00020801,2078.7,6.9317e-05,8.0722,6.8243e-05,0.0067393,-0.00020787,-2074.6,1.3513
16533,14.765,2.3636,0.05,8.1711e-07,8.1655,6.2744e-07,4.7144,-3.6743e-12,4.3773e-06,-6.2744e-07,-4.7143,1.3376
16534,14.765,2.6364,0,0.00021027,2101.2,6.9999e-05,7.321,6.9026e-05,0.0074422,-0.00021014,-2097.6,1.3378
16535,14.857,2.5455,0,0.00020797,2078.3,6.9289e-05,7.8926,6.824e-05,0.0073224,-0.00020784,-2074.3,1.3514
16536,14.765,2.5455,0.05,8.1717e-07,8.166,6.2748e-07,4.7147,-2.6145e-14,4.7503e-06,-6.2748e-07,-4.7147,1.3377
16537,14.765,2.8182,0,0.00021025,2101,6.9985e-05,7.2256,6.9024e-05,0.0077547,-0.00021012,-2097.4,1.3379
16538,14.857,2.7273,0,0.00020795,2078,6.9271e-05,7.7726,6.8238e-05,0.0077239,-0.00020781,-2074.1,1.3515
16539,14.765,2.7273,0.05,8.1721e-07,8.1664,6.2751e-07,4.7149,-1.5819e-14,4.1128e-06,-6.2751e-07,-4.7149,1.3378
16540,14.765,3,0,0.00021024,2101,6.998e-05,7.1938,6.9024e-05,0.0078599,-0.00021012,-2097.4,1.3379
16541,14.857,2.9091,0,0.00020793,2077.9,6.9262e-05,7.7126,6.8236e-05,0.0079282,-0.0002078,-2074,1.3516
16542,14.765,2.9091,0.05,8.1722e-07,8.1666,6.2753e-07,4.715,-5.3357e-15,4.5495e-06,-6.2753e-07,-4.715,1.3379
16543,14.765,3.1818,0,0.00021025,2101,6.9985e-05,7.2256,6.9024e-05,0.0077542,-0.00021012,-2097.4,1.3379
16544,14.857,3.0909,0,0.00020793,2077.9,6.9262e-05,7.7126,6.8236e-05,0.0079278,-0.0002078,-2074,1.3516
16545,14.765,3.0909,0.05,8.1722e-07,8.1666,6.2753e-07,4.715,5.3342e-15,4.0932e-06,-6.2753e-07,-4.715,1.3379
16546,14.765,3.3636,0,0.00021027,2101.2,6.9999e-05,7.321,6.9026e-05,0.0074417,-0.00021014,-2097.6,1.3378
16547,14.857,3.2727,0,0.00020795,2078,6.9271e-05,7.7727,6.8238e-05,0.0077246,-0.00020781,-2074.1,1.3515
16548,14.765,3.2727,0.05,8.1721e-07,8.1664,6.2751e-07,4.7149,1.5822e-14,4.7099e-06,-6.2751e-07,-4.7149,1.3378
16549,14.765,3.5455,0,0.0002103,2101.5,7.0023e-05,7.4797,6.9029e-05,0.0069359,-0.00021017,-2097.8,1.3377
16550,14.857,3.4545,0,0.00020797,2078.3,6.9289e-05,7.8926,6.824e-05,0.0073222,-0.00020784,-2074.3,1.3514
16551,14.765,3.4545,0.05,8.1717e-07,8.166,6.2748e-07,4.7147,2.6151e-14,4.7268e-06,-6.2748e-07,-4.7147,1.3377
16552,14.765,3.7273,0,0.00021034,2102,7.0057e-05,7.7014,6.9032e-05,0.0062588,-0.00021021,-2098.1,1.3375
16553,14.857,3.6364,0,0.00020801,2078.7,6.9317e-05,8.0722,6.8243e-05,0.0067393,-0.00020787,-2074.6,1.3513
16554,14.765,3.6364,0.05,8.1711e-07,8.1655,6.2744e-07,4.7143,3.674e-12,5.3387e-06,-6.2744e-07,-4.7143,1.3376
16555,14.765,3.9091,0,0.0002104,2102.6,7.0099e-05,7.9855,6.9037e-05,0.005436,-0.00021027,-2098.6,1.3373
16556,14.857,3.8182,0,0.00020806,2079.2,6.9353e-05,8.3111,6.8248e-05,0.0059965,-0.00020792,-2075,1.3511
16557,14.765,3.8182,0.05,8.1703e-07,8.1647,6.2738e-07,4.7138,1.8646e-12,6.0006e-06,-6.2738e-07,-4.7139,1.3374
16558,14.765,4.0909,0,0.00021047,2103.3,7.0152e-05,8.3312,6.9043e-05,0.0044961,-0.00021033,-2099.1,1.3371
16559,14.857,4,0,0.00020812,2079.8,6.9399e-05,8.6088,6.8254e-05,0.0051197,-0.00020797,-2075.5,1.3509
16560,14.765,4,0.05,8.1694e-07,8.1637,6.273e-07,4.7133,1.8711e-12,5.5876e-06,-6.2731e-07,-4.7134,1.3372
16561,14.765,4.2727,0,0.00021056,2104.1,7.0213e-05,8.7379,6.9051e-05,0.0034666,-0.00021041,-2099.7,1.3368
16562,14.857,4.1818,0,0.0002082,2080.5,6.9454e-05,8.9649,6.8261e-05,0.0041299,-0.00020804,-2076,1.3506
16563,14.765,4.1818,0.05,8.1682e-07,8.1626,6.2722e-07,4.7126,2.7909e-12,5.0592e-06,-6.2722e-07,-4.7127,1.3369
16564,14.765,4.4545,0,0.00021065,2105.1,7.0284e-05,9.2045,6.9059e-05,0.002373,-0.00021049,-2100.5,1.3364
16565,14.857,4.3636,0,0.00020829,2081.4,6.9517e-05,9.3785,6.827e-05,0.0030564,-0.00020813,-2076.7,1.3503
16566,14.765,4.3636,0.05,8.1669e-07,8.1613,6.2711e-07,4.7119,3.7081e-12,6.4311e-06,-6.2712e-07,-4.712,1.3366
16567,14.765,4.6364,0,0.00021076,2106.2,7.0364e-05,9.73,6.9069e-05,0.001239,-0.00021059,-2101.3,1.336
16568,14.857,4.5455,0,0.00020839,2082.4,6.959e-05,9.8492,6.8279e-05,0.0019214,-0.00020822,-2077.5,1.3499
16569,14.765,4.5455,0.05,8.1654e-07,8.1597,6.27e-07,4.711,4.6162e-12,4.9878e-06,-6.27e-07,-4.7111,1.3362
16570,14.765,4.8182,0,0.00021088,2107.4,7.0453e-05,10.313,6.908e-05,7.6626e-05,-0.00021071,-2102.2,1.3356
16571,14.857,4.7273,0,0.0002085,2083.6,6.9672e-05,10.376,6.8291e-05,0.00074687,-0.00020832,-2078.4,1.3495
16572,14.765,4.7273,0.05,8.1637e-07,8.158,6.2687e-07,4.71,3.7083e-12,5.9371e-06,-6.2687e-07,-4.7101,1.3358
16573,14.765,5,0,0.00021102,2108.7,7.0551e-05,10.953,6.9093e-05,-0.0010816,-0.00021083,-2103.2,1.3351
16574,14.857,4.9091,0,0.00020863,2084.8,6.9762e-05,10.958,6.8303e-05,-0.0004627,-0.00020844,-2079.3,1.3491
16575,14.765,4.9091,0.05,8.1618e-07,8.1561,6.2672e-07,4.7089,4.6175e-12,5.6999e-06,-6.2673e-07,-4.709,1.3353
16576,14.765,5.1818,0,0.00021117,2110.2,7.0657e-05,11.649,6.9107e-05,-0.0022973,-0.00021097,-2104.4,1.3346
16577,14.857,5.0909,0,0.00020877,2086.2,6.9861e-05,11.594,6.8317e-05,-0.0016429,-0.00020857,-2080.4,1.3486
16578,14.765,5.0909,0.05,8.1596e-07,8.1539,6.2655e-07,4.7076,3.6961e-12,4.4954e-06,-6.2656e-07,-4.7078,1.3348
16579,14.765,5.3636,0,0.00021133,2111.8,7.0773e-05,12.401,6.9122e-05,-0.0032709,-0.00021111,-2105.6,1.334
16580,14.857,5.2727,0,0.00020892,2087.7,6.9968e-05,12.284,6.8333e-05,-0.0029878,-0.00020871,-2081.6,1.348
16581,14.765,5.2727,0.05,8.1552e-07,8.1495,6.2621e-07,4.705,7.3278e-12,5.3839e-06,-6.2622e-07,-4.7052,1.3343
16582,14.765,5.5455,0,0.00021151,2113.6,7.0905e-05,13.256,6.914e-05,-0.0056191,-0.00021128,-2107,1.3334
16583,14.857,5.4545,0,0.00020908,2089.4,7.0086e-05,13.032,6.8351e-05,-0.0036669,-0.00020886,-2082.8,1.3474
16584,14.765,5.4545,0.05,8.1198e-07,8.1142,6.2349e-07,4.6846,6.4238e-12,5.294e-06,-6.2351e-07,-4.6848,1.3337
16585,14.765,5.7273,0,0.00021183,2116.9,7.116e-05,15.03,6.9159e-05,-0.0047106,-0.00021157,-2109.3,1.3327
16586,14.857,5.6364,0,0.00020928,2091.3,7.0224e-05,13.93,6.8369e-05,-0.0078448,-0.00020904,-2084.3,1.3468
16587,14.765,5.6364,0.05,7.6114e-07,7.6062,5.8446e-07,4.3913,6.4035e-12,5.7483e-06,-5.8447e-07,-4.3915,1.333
16588,14.857,5.8182,0,0.00020974,2096,7.0602e-05,16.612,6.8391e-05,-0.00085527,-0.00020946,-2087.6,1.3461
16589,14.765,5.8182,0.05,2.0948e-08,0.20934,1.6086e-08,0.12081,-5.1217e-12,-9.4738e-05,-1.6086e-08,-0.12092,1.3323
16590,14.765,5.9091,0,0.00021128,2111.4,7.0642e-05,10.998,6.9178e-05,-0.0030649,-0.00021109,-2105.9,1.332
16591,14.949,0.27273,0,0.00020717,2070.3,6.9651e-05,15.393,6.7602e-05,-0.0049731,-0.0002069,-2062.5,1.3602
16592,15.042,0.18182,0,0.00020509,2049.5,6.9095e-05,16.955,6.6839e-05,-0.00072925,-0.0002048,-2041,1.3737
16593,14.949,0.18182,0.05,2.2713e-08,0.22698,1.7442e-08,0.13111,6.3839e-12,0.00011433,-1.7441e-08,-0.13098,1.3598
16594,14.949,0.090909,0,0.0002066,2064.6,6.9116e-05,11.219,6.7623e-05,-0.003222,-0.00020641,-2059,1.3595
16595,14.949,0.45455,0,0.00020685,2067,6.9401e-05,13.674,6.758e-05,-0.0059863,-0.00020661,-2060.2,1.3609
16596,15.042,0.36364,0,0.00020462,2044.8,6.8721e-05,14.313,6.6815e-05,-0.0083845,-0.00020438,-2037.6,1.3743
16597,14.949,0.36364,0.05,7.5773e-07,7.5721,5.8185e-07,4.3719,-6.4063e-12,2.8723e-06,-5.8184e-07,-4.3716,1.3605
16598,14.949,0.63636,0,0.00020667,2065.3,6.9277e-05,12.887,6.7561e-05,-0.003412,-0.00020645,-2058.8,1.3615
16599,15.042,0.54545,0,0.00020443,2042.9,6.8589e-05,13.48,6.6794e-05,-0.0038243,-0.0002042,-2036.2,1.375
16600,14.949,0.54545,0.05,8.084e-07,8.0784,6.2076e-07,4.6642,-6.4228e-12,3.5305e-06,-6.2074e-07,-4.664,1.3612
16601,14.949,0.81818,0,0.00020651,2063.7,6.9168e-05,12.201,6.7544e-05,-0.0023543,-0.0002063,-2057.6,1.362
16602,15.042,0.72727,0,0.00020427,2041.3,6.8478e-05,12.798,6.6775e-05,-0.0030882,-0.00020405,-2034.9,1.3755
16603,14.949,0.72727,0.05,8.1192e-07,8.1136,6.2346e-07,4.6845,-5.5281e-12,2.9906e-06,-6.2345e-07,-4.6843,1.3617
16604,14.949,1,0,0.00020637,2062.3,6.9068e-05,11.571,6.7528e-05,-0.0010429,-0.00020617,-2056.5,1.3626
16605,15.042,0.90909,0,0.00020412,2039.8,6.8378e-05,12.173,6.6757e-05,-0.0016377,-0.00020392,-2033.7,1.3761
16606,14.949,0.90909,0.05,8.1235e-07,8.1179,6.2379e-07,4.687,-5.5334e-12,2.5795e-06,-6.2378e-07,-4.6867,1.3623
16607,14.949,1.1818,0,0.00020624,2061,6.8977e-05,10.992,6.7514e-05,0.00019221,-0.00020605,-2055.5,1.363
16608,15.042,1.0909,0,0.00020399,2038.5,6.8285e-05,11.599,6.6741e-05,-0.00037842,-0.00020379,-2032.7,1.3766
16609,14.949,1.0909,0.05,8.1256e-07,8.12,6.2395e-07,4.6881,-4.6324e-12,3.372e-06,-6.2394e-07,-4.688,1.3628
16610,14.949,1.3636,0,0.00020612,2059.8,6.8894e-05,10.467,6.7501e-05,0.0014188,-0.00020594,-2054.5,1.3635
16611,15.042,1.2727,0,0.00020387,2037.3,6.8201e-05,11.076,6.6727e-05,0.00089953,-0.00020368,-2031.7,1.377
16612,14.949,1.2727,0.05,8.1274e-07,8.1218,6.2409e-07,4.6892,-4.6346e-12,3.4069e-06,-6.2408e-07,-4.689,1.3632
16613,14.949,1.5455,0,0.00020602,2058.7,6.882e-05,9.9956,6.749e-05,0.0026003,-0.00020584,-2053.7,1.3638
16614,15.042,1.4545,0,0.00020376,2036.2,6.8125e-05,10.604,6.6714e-05,0.0021279,-0.00020358,-2030.9,1.3774
16615,14.949,1.4545,0.05,8.129e-07,8.1234,6.2421e-07,4.6901,-5.5362e-12,3.6928e-06,-6.242e-07,-4.69,1.3636
16616,14.949,1.7273,0,0.00020592,2057.8,6.8754e-05,9.5779,6.748e-05,0.0037223,-0.00020576,-2053,1.3642
16617,15.042,1.6364,0,0.00020366,2035.2,6.8058e-05,10.184,6.6703e-05,0.0032985,-0.00020349,-2030.1,1.3778
16618,14.949,1.6364,0.05,8.1305e-07,8.1249,6.2432e-07,4.6909,-3.7194e-12,4.1421e-06,-6.2432e-07,-4.6908,1.364
16619,14.949,1.9091,0,0.00020584,2057,6.8697e-05,9.2149,6.7472e-05,0.0047634,-0.00020568,-2052.4,1.3645
16620,15.042,1.8182,0,0.00020358,2034.4,6.7999e-05,9.816,6.6694e-05,0.0043908,-0.00020341,-2029.4,1.3781
16621,14.949,1.8182,0.05,8.1317e-07,8.1261,6.2442e-07,4.6917,-3.7095e-12,3.8016e-06,-6.2441e-07,-4.6916,1.3643
16622,14.949,2.0909,0,0.00020578,2056.3,6.8649e-05,8.907,6.7465e-05,0.0057,-0.00020562,-2051.9,1.3647
16623,15.042,2,0,0.0002035,2033.6,6.7949e-05,9.5,6.6685e-05,0.005385,-0.00020334,-2028.9,1.3784
16624,14.949,2,0.05,8.1328e-07,8.1272,6.245e-07,4.6923,-2.7935e-12,4.1607e-06,-6.245e-07,-4.6922,1.3646
16625,14.949,2.2727,0,0.00020572,2055.8,6.861e-05,8.6544,6.7459e-05,0.0065076,-0.00020557,-2051.4,1.3649
16626,15.042,2.1818,0,0.00020344,2033,6.7907e-05,9.2364,6.6679e-05,0.0062562,-0.00020328,-2028.4,1.3786
16627,14.949,2.1818,0.05,8.1337e-07,8.1281,6.2457e-07,4.6928,-2.7838e-12,4.6017e-06,-6.2457e-07,-4.6927,1.3648
16628,14.949,2.4545,0,0.00020568,2055.3,6.8579e-05,8.4576,6.7455e-05,0.0071649,-0.00020553,-2051.1,1.3651
16629,15.042,2.3636,0,0.00020339,2032.5,6.7873e-05,9.0252,6.6673e-05,0.006983,-0.00020324,-2028,1.3788
16630,14.949,2.3636,0.05,8.1345e-07,8.1288,6.2463e-07,4.6932,-1.863e-12,4.6174e-06,-6.2462e-07,-4.6932,1.365
16631,14.949,2.6364,0,0.00020565,2055,6.8557e-05,8.3169,6.7451e-05,0.0076513,-0.0002055,-2050.9,1.3652
16632,15.042,2.5455,0,0.00020336,2032.2,6.7848e-05,8.8667,6.6669e-05,0.0075503,-0.00020321,-2027.7,1.3789
16633,14.949,2.5455,0.05,8.135e-07,8.1294,6.2467e-07,4.6936,-3.1833e-14,4.9459e-06,-6.2467e-07,-4.6935,1.3651
16634,14.949,2.8182,0,0.00020563,2054.9,6.8544e-05,8.2324,6.745e-05,0.0079497,-0.00020549,-2050.7,1.3653
16635,15.042,2.7273,0,0.00020333,2031.9,6.7831e-05,8.761,6.6666e-05,0.0079365,-0.00020318,-2027.5,1.379
16636,14.949,2.7273,0.05,8.1354e-07,8.1298,6.247e-07,4.6937,-1.8383e-12,4.2654e-06,-6.2469e-07,-4.6937,1.3652
16637,14.949,3,0,0.00020562,2054.8,6.854e-05,8.2042,6.7449e-05,0.0080502,-0.00020548,-2050.7,1.3653
16638,15.042,2.9091,0,0.00020332,2031.8,6.7823e-05,8.7081,6.6665e-05,0.0081331,-0.00020317,-2027.4,1.379
16639,14.949,2.9091,0.05,8.1355e-07,8.1299,6.2471e-07,4.6938,-6.474e-15,5.0177e-06,-6.2471e-07,-4.6938,1.3653
16640,14.949,3.1818,0,0.00020563,2054.9,6.8544e-05,8.2324,6.745e-05,0.0079504,-0.00020549,-2050.7,1.3653
16641,15.042,3.0909,0,0.00020332,2031.8,6.7823e-05,8.7081,6.6665e-05,0.0081333,-0.00020317,-2027.4,1.379
16642,14.949,3.0909,0.05,8.1356e-07,8.1299,6.2471e-07,4.6938,6.4784e-15,4.4594e-06,-6.2471e-07,-4.6938,1.3653
16643,14.949,3.3636,0,0.00020565,2055,6.8557e-05,8.3169,6.7451e-05,0.0076523,-0.0002055,-2050.9,1.3652
16644,15.042,3.2727,0,0.00020333,2031.9,6.7831e-05,8.761,6.6666e-05,0.0079376,-0.00020318,-2027.5,1.379
16645,14.949,3.2727,0.05,8.1354e-07,8.1298,6.247e-07,4.6937,9.2886e-13,5.5687e-06,-6.247e-07,-4.6937,1.3652
16646,14.949,3.5455,0,0.00020568,2055.3,6.8579e-05,8.4576,6.7455e-05,0.0071651,-0.00020553,-2051.1,1.3651
16647,15.042,3.4545,0,0.00020336,2032.2,6.7848e-05,8.8667,6.6669e-05,0.0075503,-0.00020321,-2027.7,1.3789
16648,14.949,3.4545,0.05,8.135e-07,8.1294,6.2467e-07,4.6935,3.1853e-14,5.1266e-06,-6.2467e-07,-4.6935,1.3651
16649,14.949,3.7273,0,0.00020572,2055.8,6.861e-05,8.6544,6.7459e-05,0.0065074,-0.00020557,-2051.4,1.3649
16650,15.042,3.6364,0,0.00020339,2032.5,6.7873e-05,9.0252,6.6673e-05,0.0069833,-0.00020324,-2028,1.3788
16651,14.949,3.6364,0.05,8.1345e-07,8.1288,6.2462e-07,4.6932,1.8626e-12,5.9325e-06,-6.2463e-07,-4.6932,1.365
16652,14.949,3.9091,0,0.00020578,2056.3,6.8649e-05,8.907,6.7465e-05,0.0057009,-0.00020562,-2051.9,1.3647
16653,15.042,3.8182,0,0.00020344,2033,6.7907e-05,9.2364,6.6679e-05,0.0062556,-0.00020328,-2028.4,1.3786
16654,14.949,3.8182,0.05,8.1337e-07,8.1281,6.2457e-07,4.6928,1.8739e-12,6.3702e-06,-6.2457e-07,-4.6928,1.3648
16655,14.949,4.0909,0,0.00020584,2057,6.8697e-05,9.215,6.7472e-05,0.0047648,-0.00020568,-2052.4,1.3645
16656,15.042,4,0,0.0002035,2033.6,6.7949e-05,9.5,6.6685e-05,0.0053856,-0.00020334,-2028.9,1.3784
16657,14.949,4,0.05,8.1328e-07,8.1272,6.245e-07,4.6922,1.8842e-12,6.3298e-06,-6.245e-07,-4.6923,1.3646
16658,14.949,4.2727,0,0.00020592,2057.8,6.8754e-05,9.578,6.748e-05,0.0037224,-0.00020576,-2053,1.3642
16659,15.042,4.1818,0,0.00020358,2034.4,6.7999e-05,9.816,6.6694e-05,0.0043911,-0.00020341,-2029.4,1.3781
16660,14.949,4.1818,0.05,8.1317e-07,8.1261,6.2441e-07,4.6916,3.7126e-12,5.3784e-06,-6.2442e-07,-4.6917,1.3643
16661,14.949,4.4545,0,0.00020602,2058.7,6.882e-05,9.9956,6.749e-05,0.0026002,-0.00020584,-2053.7,1.3638
16662,15.042,4.3636,0,0.00020366,2035.2,6.8058e-05,10.184,6.6703e-05,0.0032981,-0.00020349,-2030.1,1.3778
16663,14.949,4.3636,0.05,8.1305e-07,8.1249,6.2432e-07,4.6908,3.7197e-12,6.7234e-06,-6.2432e-07,-4.6909,1.364
16664,14.949,4.6364,0,0.00020612,2059.8,6.8894e-05,10.467,6.7501e-05,0.0014189,-0.00020594,-2054.5,1.3635
16665,15.042,4.5455,0,0.00020376,2036.2,6.8125e-05,10.604,6.6714e-05,0.0021274,-0.00020358,-2030.9,1.3774
16666,14.949,4.5455,0.05,8.129e-07,8.1234,6.242e-07,4.69,3.7217e-12,5.7485e-06,-6.2421e-07,-4.6901,1.3636
16667,14.949,4.8182,0,0.00020624,2061,6.8977e-05,10.993,6.7514e-05,0.00019224,-0.00020605,-2055.5,1.363
16668,15.042,4.7273,0,0.00020387,2037.3,6.8201e-05,11.076,6.6727e-05,0.00089962,-0.00020368,-2031.7,1.377
16669,14.949,4.7273,0.05,8.1274e-07,8.1218,6.2408e-07,4.6891,4.6352e-12,6.183e-06,-6.2409e-07,-4.6892,1.3632
16670,14.949,5,0,0.00020637,2062.3,6.9068e-05,11.571,6.7528e-05,-0.0010432,-0.00020617,-2056.5,1.3626
16671,15.042,4.9091,0,0.00020399,2038.5,6.8285e-05,11.599,6.6741e-05,-0.0003783,-0.00020379,-2032.7,1.3766
16672,14.949,4.9091,0.05,8.1256e-07,8.12,6.2394e-07,4.688,5.5418e-12,6.4678e-06,-6.2395e-07,-4.6881,1.3628
16673,14.949,5.1818,0,0.00020651,2063.7,6.9168e-05,12.201,6.7544e-05,-0.0023561,-0.0002063,-2057.6,1.362
16674,15.042,5.0909,0,0.00020412,2039.8,6.8378e-05,12.173,6.6757e-05,-0.0016387,-0.00020392,-2033.7,1.3761
16675,14.949,5.0909,0.05,8.1235e-07,8.1179,6.2378e-07,4.6868,5.5454e-12,5.0626e-06,-6.2379e-07,-4.687,1.3623
16676,14.949,5.3636,0,0.00020667,2065.3,6.9277e-05,12.887,6.7561e-05,-0.0034132,-0.00020645,-2058.8,1.3615
16677,15.042,5.2727,0,0.00020427,2041.3,6.8478e-05,12.798,6.6775e-05,-0.003091,-0.00020405,-2034.9,1.3755
16678,14.949,5.2727,0.05,8.1192e-07,8.1136,6.2345e-07,4.6843,5.5288e-12,5.6946e-06,-6.2346e-07,-4.6845,1.3617
16679,14.949,5.5455,0,0.00020685,2067,6.9401e-05,13.674,6.758e-05,-0.0059854,-0.00020661,-2060.2,1.3609
16680,15.042,5.4545,0,0.00020443,2042.9,6.8589e-05,13.48,6.6794e-05,-0.0038245,-0.0002042,-2036.2,1.375
16681,14.949,5.4545,0.05,8.084e-07,8.0784,6.2075e-07,4.664,5.5148e-12,5.6109e-06,-6.2076e-07,-4.6642,1.3612
16682,14.949,5.7273,0,0.00020717,2070.3,6.9651e-05,15.393,6.7602e-05,-0.0049723,-0.0002069,-2062.5,1.3602
16683,15.042,5.6364,0,0.00020462,2044.8,6.8721e-05,14.313,6.6815e-05,-0.0083834,-0.00020438,-2037.6,1.3743
16684,14.949,5.6364,0.05,7.5773e-07,7.5721,5.8184e-07,4.3717,7.3167e-12,5.8827e-06,-5.8185e-07,-4.3718,1.3605
16685,15.042,5.8182,0,0.00020509,2049.5,6.9095e-05,16.955,6.6839e-05,-0.00072851,-0.0002048,-2041,1.3737
16686,14.949,5.8182,0.05,2.2714e-08,0.22698,1.7442e-08,0.131,-5.7846e-12,-8.6224e-05,-1.7441e-08,-0.13109,1.3598
16687,14.949,5.9091,0,0.0002066,2064.6,6.9116e-05,11.219,6.7623e-05,-0.0032218,-0.00020641,-2059,1.3595
16688,15.134,0.27273,0,0.00020253,2023.9,6.8149e-05,15.753,6.6052e-05,-0.0052087,-0.00020225,-2016,1.3878
16689,15.226,0.18182,0,0.00020046,2003.2,6.7595e-05,17.297,6.5293e-05,-0.00060083,-0.00020016,-1994.5,1.4014
16690,15.134,0.18182,0.05,2.4273e-08,0.24256,1.8639e-08,0.1401,8.0397e-12,0.00011404,-1.8638e-08,-0.13998,1.3875
16691,15.134,0.090909,0,0.00020195,2018.1,6.7598e-05,11.439,6.6075e-05,-0.0033557,-0.00020175,-2012.3,1.3872
16692,15.134,0.45455,0,0.00020221,2020.7,6.7904e-05,14.086,6.6028e-05,-0.0063198,-0.00020196,-2013.6,1.3885
16693,15.226,0.36364,0,0.00019999,1998.5,6.7223e-05,14.691,6.5267e-05,-0.0089004,-0.00019974,-1991.1,1.402
16694,15.134,0.36364,0.05,7.5436e-07,7.5384,5.7926e-07,4.3524,-6.4183e-12,4.0194e-06,-5.7925e-07,-4.3522,1.3881
16695,15.134,0.63636,0,0.00020203,2018.9,6.7786e-05,13.363,6.6007e-05,-0.0035282,-0.0002018,-2012.2,1.3891
16696,15.226,0.54545,0,0.0001998,1996.7,6.7098e-05,13.922,6.5244e-05,-0.0039683,-0.00019956,-1989.7,1.4027
16697,15.134,0.54545,0.05,8.0485e-07,8.043,6.1803e-07,4.6437,-6.4203e-12,4.4168e-06,-6.1802e-07,-4.6435,1.3888
16698,15.134,0.81818,0,0.00020188,2017.4,6.7684e-05,12.742,6.5988e-05,-0.0023913,-0.00020166,-2011,1.3896
16699,15.226,0.72727,0,0.00019965,1995.1,6.6994e-05,13.303,6.5223e-05,-0.0031795,-0.00019942,-1988.4,1.4032
16700,15.134,0.72727,0.05,8.0835e-07,8.0779,6.2072e-07,4.6639,-6.4377e-12,3.2353e-06,-6.2071e-07,-4.6637,1.3893
16701,15.134,1,0,0.00020174,2016,6.7591e-05,12.173,6.597e-05,-0.00098835,-0.00020153,-2009.9,1.3901
16702,15.226,0.90909,0,0.0001995,1993.7,6.69e-05,12.74,6.5204e-05,-0.0016279,-0.00019928,-1987.3,1.4037
16703,15.134,0.90909,0.05,8.0877e-07,8.0821,6.2104e-07,4.6663,-4.6331e-12,3.0888e-06,-6.2103e-07,-4.6661,1.3899
16704,15.134,1.1818,0,0.00020161,2014.8,6.7506e-05,11.654,6.5955e-05,0.0003186,-0.00020141,-2008.9,1.3906
16705,15.226,1.0909,0,0.00019937,1992.4,6.6814e-05,12.225,6.5186e-05,-0.00029247,-0.00019916,-1986.2,1.4042
16706,15.134,1.0909,0.05,8.0897e-07,8.0841,6.2119e-07,4.6675,-4.6424e-12,3.2085e-06,-6.2119e-07,-4.6673,1.3904
16707,15.134,1.3636,0,0.0002015,2013.6,6.7429e-05,11.185,6.594e-05,0.001604,-0.00020131,-2008,1.391
16708,15.226,1.2727,0,0.00019925,1991.2,6.6736e-05,11.759,6.5171e-05,0.00105,-0.00019905,-1985.3,1.4047
16709,15.134,1.2727,0.05,8.0914e-07,8.0859,6.2133e-07,4.6685,-4.6459e-12,2.9194e-06,-6.2132e-07,-4.6683,1.3908
16710,15.134,1.5455,0,0.0002014,2012.6,6.736e-05,10.765,6.5928e-05,0.002828,-0.00020121,-2007.2,1.3914
16711,15.226,1.4545,0,0.00019915,1990.1,6.6666e-05,11.34,6.5157e-05,0.0023273,-0.00019895,-1984.4,1.4051
16712,15.134,1.4545,0.05,8.093e-07,8.0874,6.2145e-07,4.6693,-4.6465e-12,3.2577e-06,-6.2144e-07,-4.6692,1.3912
16713,15.134,1.7273,0,0.00020131,2011.7,6.73e-05,10.394,6.5917e-05,0.0039761,-0.00020113,-2006.5,1.3917
16714,15.226,1.6364,0,0.00019905,1989.2,6.6604e-05,10.969,6.5144e-05,0.0035312,-0.00019887,-1983.7,1.4054
16715,15.134,1.6364,0.05,8.0944e-07,8.0888,6.2155e-07,4.6701,-3.7288e-12,3.357e-06,-6.2154e-07,-4.67,1.3916
16716,15.134,1.9091,0,0.00020123,2010.9,6.7247e-05,10.073,6.5907e-05,0.0050294,-0.00020106,-2005.9,1.392
16717,15.226,1.8182,0,0.00019897,1988.4,6.6549e-05,10.645,6.5133e-05,0.0046431,-0.00019879,-1983,1.4057
16718,15.134,1.8182,0.05,8.0956e-07,8.09,6.2165e-07,4.6708,-3.7214e-12,2.9483e-06,-6.2164e-07,-4.6707,1.3919
16719,15.134,2.0909,0,0.00020117,2010.3,6.7203e-05,9.8015,6.5899e-05,0.0059663,-0.000201,-2005.4,1.3923
16720,15.226,2,0,0.0001989,1987.7,6.6503e-05,10.368,6.5124e-05,0.0056431,-0.00019872,-1982.4,1.406
16721,15.134,2,0.05,8.0966e-07,8.0911,6.2172e-07,4.6714,-1.8922e-12,3.4403e-06,-6.2172e-07,-4.6713,1.3921
16722,15.134,2.2727,0,0.00020111,2009.7,6.7167e-05,9.5793,6.5893e-05,0.0067649,-0.00020095,-2004.9,1.3925
16723,15.226,2.1818,0,0.00019884,1987.1,6.6465e-05,10.137,6.5116e-05,0.0065109,-0.00019867,-1982,1.4062
16724,15.134,2.1818,0.05,8.0975e-07,8.0919,6.2179e-07,4.6719,-3.7005e-12,3.8104e-06,-6.2179e-07,-4.6718,1.3924
16725,15.134,2.4545,0,0.00020107,2009.3,6.7139e-05,9.4064,6.5888e-05,0.0074091,-0.00020091,-2004.6,1.3926
16726,15.226,2.3636,0,0.0001988,1986.6,6.6434e-05,9.9525,6.511e-05,0.0072296,-0.00019863,-1981.6,1.4064
16727,15.134,2.3636,0.05,8.0982e-07,8.0926,6.2184e-07,4.6723,-1.8693e-12,3.621e-06,-6.2184e-07,-4.6722,1.3925
16728,15.134,2.6364,0,0.00020104,2009,6.7119e-05,9.283,6.5884e-05,0.0078821,-0.00020088,-2004.4,1.3927
16729,15.226,2.5455,0,0.00019876,1986.3,6.6411e-05,9.8144,6.5106e-05,0.0077855,-0.00019859,-1981.3,1.4065
16730,15.134,2.5455,0.05,8.0987e-07,8.0931,6.2188e-07,4.6726,-9.4612e-13,4.1346e-06,-6.2188e-07,-4.6725,1.3927
16731,15.134,2.8182,0,0.00020102,2008.9,6.7107e-05,9.2089,6.5882e-05,0.0081704,-0.00020087,-2004.2,1.3928
16732,15.226,2.7273,0,0.00019874,1986,6.6396e-05,9.7224,6.5103e-05,0.0081616,-0.00019857,-1981.1,1.4066
16733,15.134,2.7273,0.05,8.0991e-07,8.0935,6.2191e-07,4.6728,-1.8414e-12,3.4085e-06,-6.219e-07,-4.6727,1.3928
16734,15.134,3,0,0.00020102,2008.8,6.7103e-05,9.1843,6.5881e-05,0.008268,-0.00020086,-2004.2,1.3928
16735,15.226,2.9091,0,0.00019873,1985.9,6.6388e-05,9.6764,6.5101e-05,0.0083526,-0.00019856,-1981.1,1.4066
16736,15.134,2.9091,0.05,8.0992e-07,8.0937,6.2192e-07,4.6729,-1.8265e-12,4.0563e-06,-6.2192e-07,-4.6729,1.3928
16737,15.134,3.1818,0,0.00020102,2008.9,6.7107e-05,9.2089,6.5882e-05,0.008171,-0.00020087,-2004.2,1.3928
16738,15.226,3.0909,0,0.00019873,1985.9,6.6388e-05,9.6764,6.5101e-05,0.008353,-0.00019856,-1981.1,1.4066
16739,15.134,3.0909,0.05,8.0992e-07,8.0937,6.2192e-07,4.6729,7.5231e-15,3.9309e-06,-6.2192e-07,-4.6729,1.3928
16740,15.134,3.3636,0,0.00020104,2009,6.7119e-05,9.283,6.5884e-05,0.0078823,-0.00020088,-2004.4,1.3927
16741,15.226,3.2727,0,0.00019874,1986,6.6396e-05,9.7224,6.5103e-05,0.0081618,-0.00019857,-1981.1,1.4066
16742,15.134,3.2727,0.05,8.0991e-07,8.0935,6.2191e-07,4.6728,9.3191e-13,4.5198e-06,-6.2191e-07,-4.6728,1.3928
16743,15.134,3.5455,0,0.00020107,2009.3,6.7139e-05,9.4065,6.5888e-05,0.0074093,-0.00020091,-2004.6,1.3926
16744,15.226,3.4545,0,0.00019876,1986.3,6.6411e-05,9.8144,6.5106e-05,0.0077852,-0.00019859,-1981.3,1.4065
16745,15.134,3.4545,0.05,8.0987e-07,8.0931,6.2188e-07,4.6726,9.4632e-13,4.5084e-06,-6.2188e-07,-4.6726,1.3927
16746,15.134,3.7273,0,0.00020111,2009.7,6.7167e-05,9.5793,6.5893e-05,0.006765,-0.00020095,-2004.9,1.3925
16747,15.226,3.6364,0,0.0001988,1986.6,6.6434e-05,9.9525,6.511e-05,0.0072298,-0.00019863,-1981.6,1.4064
16748,15.134,3.6364,0.05,8.0982e-07,8.0926,6.2184e-07,4.6723,9.6029e-13,5.0892e-06,-6.2184e-07,-4.6723,1.3925
16749,15.134,3.9091,0,0.00020117,2010.3,6.7203e-05,9.8015,6.5899e-05,0.0059656,-0.000201,-2005.4,1.3923
16750,15.226,3.8182,0,0.00019884,1987.1,6.6465e-05,10.137,6.5116e-05,0.006511,-0.00019867,-1982,1.4062
16751,15.134,3.8182,0.05,8.0975e-07,8.0919,6.2179e-07,4.6718,1.8822e-12,6.0093e-06,-6.2179e-07,-4.6719,1.3924
16752,15.134,4.0909,0,0.00020123,2010.9,6.7247e-05,10.073,6.5907e-05,0.0050289,-0.00020106,-2005.9,1.392
16753,15.226,4,0,0.0001989,1987.7,6.6503e-05,10.368,6.5124e-05,0.0056429,-0.00019872,-1982.4,1.406
16754,15.134,4,0.05,8.0966e-07,8.0911,6.2172e-07,4.6713,9.8434e-13,5.1442e-06,-6.2172e-07,-4.6714,1.3921
16755,15.134,4.2727,0,0.00020131,2011.7,6.73e-05,10.394,6.5917e-05,0.0039758,-0.00020113,-2006.5,1.3917
16756,15.226,4.1818,0,0.00019897,1988.4,6.6549e-05,10.645,6.5133e-05,0.0046425,-0.00019879,-1983,1.4057
16757,15.134,4.1818,0.05,8.0956e-07,8.09,6.2164e-07,4.6707,3.7216e-12,4.696e-06,-6.2165e-07,-4.6708,1.3919
16758,15.134,4.4545,0,0.0002014,2012.6,6.736e-05,10.765,6.5928e-05,0.002827,-0.00020121,-2007.2,1.3914
16759,15.226,4.3636,0,0.00019905,1989.2,6.6604e-05,10.969,6.5144e-05,0.003531,-0.00019887,-1983.7,1.4054
16760,15.134,4.3636,0.05,8.0944e-07,8.0888,6.2154e-07,4.67,3.7289e-12,5.8081e-06,-6.2155e-07,-4.6701,1.3916
16761,15.134,4.6364,0,0.0002015,2013.6,6.7429e-05,11.185,6.594e-05,0.0016034,-0.00020131,-2008,1.391
16762,15.226,4.5455,0,0.00019915,1990.1,6.6666e-05,11.34,6.5157e-05,0.002326,-0.00019895,-1984.4,1.4051
16763,15.134,4.5455,0.05,8.093e-07,8.0874,6.2144e-07,4.6692,3.7329e-12,4.8927e-06,-6.2145e-07,-4.6693,1.3912
16764,15.134,4.8182,0,0.00020161,2014.8,6.7506e-05,11.654,6.5955e-05,0.00031878,-0.00020141,-2008.9,1.3906
16765,15.226,4.7273,0,0.00019925,1991.2,6.6736e-05,11.759,6.5171e-05,0.0010507,-0.00019905,-1985.3,1.4047
16766,15.134,4.7273,0.05,8.0915e-07,8.0859,6.2132e-07,4.6683,4.6461e-12,5.4816e-06,-6.2133e-07,-4.6684,1.3908
16767,15.134,5,0,0.00020174,2016,6.7591e-05,12.173,6.597e-05,-0.000989,-0.00020153,-2009.9,1.3901
16768,15.226,4.9091,0,0.00019937,1992.4,6.6814e-05,12.226,6.5186e-05,-0.00029284,-0.00019916,-1986.2,1.4042
16769,15.134,4.9091,0.05,8.0897e-07,8.0841,6.2119e-07,4.6673,4.643e-12,5.3619e-06,-6.2119e-07,-4.6674,1.3904
16770,15.134,5.1818,0,0.00020188,2017.4,6.7684e-05,12.742,6.5988e-05,-0.0023932,-0.00020166,-2011,1.3896
16771,15.226,5.0909,0,0.0001995,1993.7,6.69e-05,12.74,6.5204e-05,-0.0016284,-0.00019928,-1987.3,1.4037
16772,15.134,5.0909,0.05,8.0877e-07,8.0821,6.2103e-07,4.6661,4.6466e-12,4.2802e-06,-6.2104e-07,-4.6663,1.3899
16773,15.134,5.3636,0,0.00020203,2018.9,6.7786e-05,13.363,6.6007e-05,-0.00353,-0.0002018,-2012.2,1.3891
16774,15.226,5.2727,0,0.00019965,1995.1,6.6994e-05,13.303,6.5223e-05,-0.0031822,-0.00019942,-1988.4,1.4032
16775,15.134,5.2727,0.05,8.0835e-07,8.0779,6.2071e-07,4.6637,4.6267e-12,4.8562e-06,-6.2072e-07,-4.6639,1.3893
16776,15.134,5.5455,0,0.00020221,2020.7,6.7904e-05,14.086,6.6028e-05,-0.0063196,-0.00020196,-2013.6,1.3885
16777,15.226,5.4545,0,0.0001998,1996.7,6.7098e-05,13.922,6.5244e-05,-0.0039682,-0.00019956,-1989.7,1.4027
16778,15.134,5.4545,0.05,8.0485e-07,8.043,6.1802e-07,4.6435,7.3384e-12,4.8042e-06,-6.1803e-07,-4.6437,1.3888
16779,15.134,5.7273,0,0.00020253,2023.9,6.8149e-05,15.753,6.6052e-05,-0.0052077,-0.00020225,-2016,1.3878
16780,15.226,5.6364,0,0.00019999,1998.5,6.7223e-05,14.691,6.5267e-05,-0.0088993,-0.00019974,-1991.1,1.402
16781,15.134,5.6364,0.05,7.5436e-07,7.5384,5.7925e-07,4.3522,6.4018e-12,5.1813e-06,-5.7926e-07,-4.3524,1.3881
16782,15.226,5.8182,0,0.00020046,2003.2,6.7595e-05,17.297,6.5293e-05,-0.00060093,-0.00020016,-1994.5,1.4014
16783,15.134,5.8182,0.05,2.4273e-08,0.24257,1.8639e-08,0.13999,-6.5448e-12,-0.00010102,-1.8638e-08,-0.1401,1.3875
16784,15.134,5.9091,0,0.00020195,2018.1,6.7598e-05,11.439,6.6075e-05,-0.0033553,-0.00020175,-2012.3,1.3872
16785,15.319,0.27273,0,0.0001979,1977.7,6.6653e-05,16.112,6.4508e-05,-0.0054441,-0.00019763,-1969.6,1.4156
16786,15.411,0.18182,0,0.00019585,1957.1,6.6102e-05,17.64,6.3754e-05,-0.00048398,-0.00019554,-1948.3,1.4292
16787,15.319,0.18182,0.05,2.5638e-08,0.2562,1.9687e-08,0.14798,7.852e-12,0.00011949,-1.9687e-08,-0.14786,1.4153
16788,15.319,0.090909,0,0.00019731,1971.7,6.6086e-05,11.66,6.4533e-05,-0.0034885,-0.00019711,-1965.9,1.415
16789,15.319,0.45455,0,0.00019758,1974.5,6.6413e-05,14.493,6.4483e-05,-0.00665,-0.00019733,-1967.2,1.4162
16790,15.411,0.36364,0,0.00019538,1952.4,6.5733e-05,15.066,6.3726e-05,-0.0094113,-0.00019512,-1944.9,1.4299
16791,15.319,0.36364,0.05,7.5104e-07,7.5052,5.7671e-07,4.3332,-7.2918e-12,5.299e-06,-5.767e-07,-4.333,1.4159
16792,15.319,0.63636,0,0.00019741,1972.8,6.6302e-05,13.832,6.446e-05,-0.0036453,-0.00019718,-1965.8,1.4168
16793,15.411,0.54545,0,0.0001952,1950.6,6.5613e-05,14.358,6.3702e-05,-0.0041132,-0.00019495,-1943.4,1.4305
16794,15.319,0.54545,0.05,8.0134e-07,8.0079,6.1534e-07,4.6235,-7.343e-12,5.8019e-06,-6.1532e-07,-4.6232,1.4165
16795,15.319,0.81818,0,0.00019727,1971.3,6.6206e-05,13.272,6.4439e-05,-0.0024327,-0.00019704,-1964.6,1.4174
16796,15.411,0.72727,0,0.00019504,1949.1,6.5516e-05,13.801,6.3679e-05,-0.0032737,-0.0001948,-1942.1,1.431
16797,15.319,0.72727,0.05,8.0482e-07,8.0426,6.1801e-07,4.6435,-6.4603e-12,5.0913e-06,-6.18e-07,-4.6433,1.4171
16798,15.319,1,0,0.00019713,1969.9,6.6119e-05,12.764,6.442e-05,-0.00094327,-0.00019691,-1963.5,1.4179
16799,15.411,0.90909,0,0.0001949,1947.7,6.5428e-05,13.297,6.3658e-05,-0.0016237,-0.00019467,-1941,1.4315
16800,15.319,0.90909,0.05,8.0523e-07,8.0467,6.1832e-07,4.6459,-4.6411e-12,4.4265e-06,-6.1831e-07,-4.6457,1.4176
16801,15.319,1.1818,0,0.00019701,1968.7,6.604e-05,12.302,6.4402e-05,0.00043321,-0.0001968,-1962.5,1.4183
16802,15.411,1.0909,0,0.00019477,1946.4,6.5348e-05,12.841,6.3638e-05,-0.00021613,-0.00019455,-1939.9,1.432
16803,15.319,1.0909,0.05,8.0542e-07,8.0487,6.1847e-07,4.647,-4.652e-12,3.5822e-06,-6.1846e-07,-4.6468,1.4181
16804,15.319,1.3636,0,0.0001969,1967.6,6.5968e-05,11.886,6.4387e-05,0.0017737,-0.00019669,-1961.6,1.4187
16805,15.411,1.2727,0,0.00019466,1945.3,6.5275e-05,12.429,6.3621e-05,0.0011886,-0.00019445,-1939,1.4324
16806,15.319,1.2727,0.05,8.0559e-07,8.0504,6.186e-07,4.648,-4.6567e-12,3.2933e-06,-6.1859e-07,-4.6478,1.4185
16807,15.319,1.5455,0,0.0001968,1966.6,6.5905e-05,11.516,6.4373e-05,0.0030375,-0.0001966,-1960.9,1.4191
16808,15.411,1.4545,0,0.00019456,1944.2,6.5211e-05,12.062,6.3606e-05,0.0025112,-0.00019435,-1938.2,1.4328
16809,15.319,1.4545,0.05,8.0574e-07,8.0518,6.1871e-07,4.6488,-4.6528e-12,3.095e-06,-6.187e-07,-4.6487,1.4189
16810,15.319,1.7273,0,0.00019671,1965.8,6.585e-05,11.191,6.4361e-05,0.0042123,-0.00019652,-1960.2,1.4194
16811,15.411,1.6364,0,0.00019447,1943.3,6.5154e-05,11.738,6.3592e-05,0.0037476,-0.00019426,-1937.4,1.4332
16812,15.319,1.6364,0.05,8.0587e-07,8.0532,6.1882e-07,4.6496,-2.8324e-12,3.4937e-06,-6.1881e-07,-4.6494,1.4193
16813,15.319,1.9091,0,0.00019664,1965,6.5801e-05,10.911,6.435e-05,0.0052782,-0.00019645,-1959.6,1.4197
16814,15.411,1.8182,0,0.00019439,1942.5,6.5104e-05,11.457,6.358e-05,0.0048792,-0.00019419,-1936.8,1.4335
16815,15.319,1.8182,0.05,8.0599e-07,8.0543,6.189e-07,4.6502,-3.7315e-12,2.972e-06,-6.189e-07,-4.6501,1.4196
16816,15.319,2.0909,0,0.00019658,1964.4,6.5761e-05,10.675,6.4341e-05,0.0062163,-0.00019639,-1959,1.42
16817,15.411,2,0,0.00019432,1941.9,6.5062e-05,11.217,6.357e-05,0.005887,-0.00019413,-1936.2,1.4337
16818,15.319,2,0.05,8.0609e-07,8.0553,6.1898e-07,4.6508,-2.8125e-12,3.3027e-06,-6.1897e-07,-4.6507,1.4198
16819,15.319,2.2727,0,0.00019652,1963.9,6.5728e-05,10.482,6.4334e-05,0.0070111,-0.00019634,-1958.6,1.4201
16820,15.411,2.1818,0,0.00019426,1941.3,6.5027e-05,11.018,6.3561e-05,0.0067546,-0.00019407,-1935.8,1.4339
16821,15.319,2.1818,0.05,8.0617e-07,8.0562,6.1904e-07,4.6513,-7.2692e-14,3.5761e-06,-6.1904e-07,-4.6512,1.42
16822,15.319,2.4545,0,0.00019649,1963.5,6.5702e-05,10.332,6.4328e-05,0.0076476,-0.00019631,-1958.3,1.4203
16823,15.411,2.3636,0,0.00019422,1940.9,6.4999e-05,10.86,6.3555e-05,0.007469,-0.00019403,-1935.4,1.4341
16824,15.319,2.3636,0.05,8.0624e-07,8.0568,6.1909e-07,4.6516,-2.7854e-12,3.9255e-06,-6.1909e-07,-4.6516,1.4202
16825,15.319,2.6364,0,0.00019646,1963.2,6.5684e-05,10.226,6.4324e-05,0.0081113,-0.00019628,-1958.1,1.4204
16826,15.411,2.5455,0,0.00019419,1940.5,6.4978e-05,10.742,6.355e-05,0.0080169,-0.000194,-1935.1,1.4342
16827,15.319,2.5455,0.05,8.0629e-07,8.0573,6.1913e-07,4.6519,-9.5135e-13,4.1561e-06,-6.1913e-07,-4.6519,1.4203
16828,15.319,2.8182,0,0.00019644,1963,6.5673e-05,10.162,6.4322e-05,0.0083931,-0.00019627,-1957.9,1.4205
16829,15.411,2.7273,0,0.00019416,1940.3,6.4964e-05,10.663,6.3546e-05,0.0083868,-0.00019398,-1935,1.4343
16830,15.319,2.7273,0.05,8.0632e-07,8.0577,6.1916e-07,4.6521,-1.8445e-12,3.4452e-06,-6.1915e-07,-4.6521,1.4204
16831,15.319,3,0,0.00019643,1963,6.567e-05,10.14,6.4321e-05,0.0084879,-0.00019626,-1957.9,1.4205
16832,15.411,2.9091,0,0.00019415,1940.2,6.4957e-05,10.624,6.3545e-05,0.0085738,-0.00019397,-1934.9,1.4344
16833,15.319,2.9091,0.05,8.0634e-07,8.0578,6.1917e-07,4.6522,-8.5561e-15,4.108e-06,-6.1917e-07,-4.6522,1.4205
16834,15.319,3.1818,0,0.00019644,1963,6.5673e-05,10.162,6.4322e-05,0.0083931,-0.00019627,-1957.9,1.4205
16835,15.411,3.0909,0,0.00019415,1940.2,6.4957e-05,10.624,6.3545e-05,0.0085737,-0.00019397,-1934.9,1.4344
16836,15.319,3.0909,0.05,8.0634e-07,8.0578,6.1917e-07,4.6522,8.5799e-15,3.8195e-06,-6.1917e-07,-4.6522,1.4205
16837,15.319,3.3636,0,0.00019646,1963.2,6.5684e-05,10.226,6.4324e-05,0.008111,-0.00019628,-1958.1,1.4204
16838,15.411,3.2727,0,0.00019416,1940.3,6.4964e-05,10.663,6.3546e-05,0.0083872,-0.00019398,-1935,1.4343
16839,15.319,3.2727,0.05,8.0632e-07,8.0577,6.1915e-07,4.6521,1.8444e-12,4.4828e-06,-6.1916e-07,-4.6521,1.4204
16840,15.319,3.5455,0,0.00019649,1963.5,6.5702e-05,10.332,6.4328e-05,0.0076473,-0.00019631,-1958.3,1.4203
16841,15.411,3.4545,0,0.00019419,1940.5,6.4978e-05,10.742,6.355e-05,0.0080164,-0.000194,-1935.1,1.4342
16842,15.319,3.4545,0.05,8.0629e-07,8.0573,6.1913e-07,4.6519,9.5139e-13,4.4854e-06,-6.1913e-07,-4.6519,1.4203
16843,15.319,3.7273,0,0.00019652,1963.9,6.5728e-05,10.482,6.4334e-05,0.0070113,-0.00019634,-1958.6,1.4201
16844,15.411,3.6364,0,0.00019422,1940.9,6.4999e-05,10.86,6.3555e-05,0.0074684,-0.00019403,-1935.4,1.4341
16845,15.319,3.6364,0.05,8.0624e-07,8.0568,6.1909e-07,4.6516,1.8765e-12,5.3733e-06,-6.1909e-07,-4.6516,1.4202
16846,15.319,3.9091,0,0.00019658,1964.4,6.5761e-05,10.675,6.4341e-05,0.006217,-0.00019639,-1959,1.42
16847,15.411,3.8182,0,0.00019426,1941.3,6.5027e-05,11.018,6.3561e-05,0.0067546,-0.00019407,-1935.8,1.4339
16848,15.319,3.8182,0.05,8.0617e-07,8.0562,6.1904e-07,4.6512,1.891e-12,6.028e-06,-6.1904e-07,-4.6512,1.42
16849,15.319,4.0909,0,0.00019664,1965,6.5802e-05,10.911,6.435e-05,0.0052779,-0.00019645,-1959.6,1.4197
16850,15.411,4,0,0.00019432,1941.9,6.5062e-05,11.217,6.357e-05,0.0058869,-0.00019413,-1936.2,1.4337
16851,15.319,4,0.05,8.0609e-07,8.0553,6.1898e-07,4.6507,2.8127e-12,5.5191e-06,-6.1898e-07,-4.6508,1.4198
16852,15.319,4.2727,0,0.00019671,1965.8,6.585e-05,11.191,6.4361e-05,0.0042117,-0.00019652,-1960.2,1.4194
16853,15.411,4.1818,0,0.00019439,1942.5,6.5104e-05,11.457,6.358e-05,0.004878,-0.00019419,-1936.8,1.4335
16854,15.319,4.1818,0.05,8.0599e-07,8.0543,6.189e-07,4.6501,3.7319e-12,4.762e-06,-6.189e-07,-4.6502,1.4196
16855,15.319,4.4545,0,0.0001968,1966.6,6.5905e-05,11.516,6.4373e-05,0.003037,-0.0001966,-1960.9,1.4191
16856,15.411,4.3636,0,0.00019447,1943.3,6.5154e-05,11.738,6.3592e-05,0.0037477,-0.00019426,-1937.4,1.4332
16857,15.319,4.3636,0.05,8.0587e-07,8.0532,6.1881e-07,4.6495,3.7399e-12,6.2473e-06,-6.1881e-07,-4.6495,1.4193
16858,15.319,4.6364,0,0.0001969,1967.6,6.5968e-05,11.886,6.4387e-05,0.0017736,-0.00019669,-1961.6,1.4187
16859,15.411,4.5455,0,0.00019456,1944.2,6.5211e-05,12.062,6.3606e-05,0.0025103,-0.00019435,-1938.2,1.4328
16860,15.319,4.5455,0.05,8.0574e-07,8.0518,6.1871e-07,4.6487,3.7464e-12,4.9398e-06,-6.1871e-07,-4.6488,1.4189
16861,15.319,4.8182,0,0.00019701,1968.7,6.604e-05,12.302,6.4402e-05,0.00043339,-0.0001968,-1962.5,1.4183
16862,15.411,4.7273,0,0.00019466,1945.3,6.5275e-05,12.429,6.3621e-05,0.0011885,-0.00019445,-1939,1.4324
16863,15.319,4.7273,0.05,8.0559e-07,8.0504,6.1859e-07,4.6478,3.748e-12,5.9867e-06,-6.186e-07,-4.6479,1.4185
16864,15.319,5,0,0.00019713,1970,6.6119e-05,12.764,6.442e-05,-0.00094346,-0.00019691,-1963.5,1.4179
16865,15.411,4.9091,0,0.00019477,1946.4,6.5348e-05,12.841,6.3639e-05,-0.00021661,-0.00019455,-1940,1.432
16866,15.319,4.9091,0.05,8.0542e-07,8.0487,6.1846e-07,4.6469,4.6527e-12,5.8186e-06,-6.1847e-07,-4.647,1.4181
16867,15.319,5.1818,0,0.00019727,1971.3,6.6206e-05,13.273,6.4439e-05,-0.0024339,-0.00019704,-1964.6,1.4174
16868,15.411,5.0909,0,0.0001949,1947.7,6.5428e-05,13.297,6.3658e-05,-0.0016246,-0.00019467,-1941,1.4315
16869,15.319,5.0909,0.05,8.0523e-07,8.0467,6.1831e-07,4.6457,5.5584e-12,4.456e-06,-6.1832e-07,-4.6459,1.4176
16870,15.319,5.3636,0,0.00019741,1972.8,6.6302e-05,13.832,6.446e-05,-0.0036461,-0.00019718,-1965.8,1.4168
16871,15.411,5.2727,0,0.00019504,1949.1,6.5516e-05,13.801,6.3679e-05,-0.0032762,-0.0001948,-1942.1,1.431
16872,15.319,5.2727,0.05,8.0482e-07,8.0426,6.18e-07,4.6433,6.4536e-12,5.4105e-06,-6.18e-07,-4.6435,1.4171
16873,15.319,5.5455,0,0.00019758,1974.5,6.6413e-05,14.493,6.4483e-05,-0.0066489,-0.00019733,-1967.2,1.4162
16874,15.411,5.4545,0,0.0001952,1950.6,6.5613e-05,14.358,6.3702e-05,-0.0041137,-0.00019495,-1943.4,1.4305
16875,15.319,5.4545,0.05,8.0134e-07,8.0079,6.1533e-07,4.6233,6.4357e-12,4.9659e-06,-6.1534e-07,-4.6234,1.4165
16876,15.319,5.7273,0,0.0001979,1977.7,6.6654e-05,16.112,6.4508e-05,-0.0054441,-0.00019763,-1969.6,1.4156
16877,15.411,5.6364,0,0.00019538,1952.4,6.5733e-05,15.066,6.3726e-05,-0.0094099,-0.00019512,-1944.9,1.4299
16878,15.319,5.6364,0.05,7.5104e-07,7.5052,5.767e-07,4.3331,7.3229e-12,5.6019e-06,-5.7671e-07,-4.3332,1.4159
16879,15.411,5.8182,0,0.00019585,1957.1,6.6102e-05,17.64,6.3754e-05,-0.00048506,-0.00019554,-1948.3,1.4292
16880,15.319,5.8182,0.05,2.5638e-08,0.25621,1.9688e-08,0.14788,-6.7318e-12,-9.6587e-05,-1.9686e-08,-0.14796,1.4153
16881,15.319,5.9091,0,0.00019731,1971.7,6.6086e-05,11.66,6.4533e-05,-0.0034891,-0.00019711,-1965.9,1.415
16882,15.503,0.27273,0,0.0001933,1931.7,6.5165e-05,16.469,6.2972e-05,-0.0056849,-0.00019302,-1923.4,1.4435
16883,15.596,0.18182,0,0.00019126,1911.3,6.4616e-05,17.983,6.2222e-05,-0.00036498,-0.00019095,-1902.2,1.4572
16884,15.503,0.18182,0.05,2.6832e-08,0.26813,2.0603e-08,0.15485,8.6239e-12,0.00011156,-2.0604e-08,-0.15476,1.4432
16885,15.503,0.090909,0,0.00019269,1925.6,6.458e-05,11.882,6.2999e-05,-0.0036269,-0.00019249,-1919.6,1.4429
16886,15.503,0.45455,0,0.00019298,1928.5,6.4928e-05,14.897,6.2945e-05,-0.0069789,-0.00019273,-1921,1.4441
16887,15.596,0.36364,0,0.00019079,1906.5,6.4248e-05,15.44,6.2192e-05,-0.009905,-0.00019052,-1898.8,1.4578
16888,15.503,0.36364,0.05,7.4776e-07,7.4724,5.7419e-07,4.3143,-7.345e-12,5.836e-06,-5.7418e-07,-4.3141,1.4438
16889,15.503,0.63636,0,0.00019282,1926.8,6.4823e-05,14.296,6.292e-05,-0.003765,-0.00019257,-1919.7,1.4447
16890,15.596,0.54545,0,0.00019061,1904.7,6.4135e-05,14.79,6.2166e-05,-0.0042458,-0.00019035,-1897.3,1.4584
16891,15.503,0.54545,0.05,7.9786e-07,7.9731,6.1266e-07,4.6034,-5.5296e-12,9.4744e-06,-6.1265e-07,-4.6031,1.4444
16892,15.503,0.81818,0,0.00019267,1925.4,6.4734e-05,13.796,6.2897e-05,-0.0024781,-0.00019243,-1918.5,1.4452
16893,15.596,0.72727,0,0.00019046,1903.2,6.4044e-05,14.293,6.2141e-05,-0.0033561,-0.00019021,-1896.1,1.459
16894,15.503,0.72727,0.05,8.0132e-07,8.0076,6.1532e-07,4.6233,-4.6491e-12,7.7726e-06,-6.153e-07,-4.6231,1.445
16895,15.503,1,0,0.00019254,1924.1,6.4652e-05,13.345,6.2876e-05,-0.00090407,-0.00019231,-1917.4,1.4457
16896,15.596,0.90909,0,0.00019032,1901.9,6.3961e-05,13.848,6.2118e-05,-0.00161,-0.00019008,-1894.9,1.4595
16897,15.503,0.90909,0.05,8.0172e-07,8.0117,6.1563e-07,4.6256,-4.6654e-12,5.6704e-06,-6.1561e-07,-4.6254,1.4455
16898,15.503,1.1818,0,0.00019242,1922.9,6.4579e-05,12.939,6.2857e-05,0.00053784,-0.0001922,-1916.4,1.4462
16899,15.596,1.0909,0,0.0001902,1900.6,6.3887e-05,13.448,6.2097e-05,-0.00013263,-0.00018996,-1893.9,1.4599
16900,15.503,1.0909,0.05,8.0191e-07,8.0136,6.1577e-07,4.6267,-3.7525e-12,5.1396e-06,-6.1576e-07,-4.6265,1.4459
16901,15.503,1.3636,0,0.00019231,1921.8,6.4514e-05,12.576,6.284e-05,0.001931,-0.0001921,-1915.5,1.4466
16902,15.596,1.2727,0,0.00019009,1899.5,6.3821e-05,13.09,6.2079e-05,0.0013322,-0.00018986,-1893,1.4604
16903,15.503,1.2727,0.05,8.0207e-07,8.0152,6.159e-07,4.6276,-5.5736e-12,4.8792e-06,-6.1588e-07,-4.6275,1.4464
16904,15.503,1.5455,0,0.00019222,1920.9,6.4455e-05,12.255,6.2825e-05,0.0032327,-0.00019201,-1914.7,1.4469
16905,15.596,1.4545,0,0.00018999,1898.5,6.3761e-05,12.773,6.2062e-05,0.0026985,-0.00018977,-1892.1,1.4607
16906,15.503,1.4545,0.05,8.0221e-07,8.0166,6.16e-07,4.6285,-4.6663e-12,4.3436e-06,-6.16e-07,-4.6283,1.4467
16907,15.503,1.7273,0,0.00019214,1920,6.4405e-05,11.974,6.2811e-05,0.0044327,-0.00019193,-1914,1.4473
16908,15.596,1.6364,0,0.0001899,1897.7,6.3709e-05,12.496,6.2047e-05,0.0039668,-0.00018968,-1891.4,1.4611
16909,15.503,1.6364,0.05,8.0234e-07,8.0179,6.161e-07,4.6292,-3.753e-12,4.6226e-06,-6.161e-07,-4.6291,1.4471
16910,15.503,1.9091,0,0.00019207,1919.3,6.4361e-05,11.734,6.28e-05,0.0055128,-0.00019186,-1913.4,1.4475
16911,15.596,1.8182,0,0.00018982,1896.9,6.3664e-05,12.256,6.2034e-05,0.0051175,-0.00018961,-1890.8,1.4614
16912,15.503,1.8182,0.05,8.0245e-07,8.019,6.1619e-07,4.6298,-3.7419e-12,4.0288e-06,-6.1618e-07,-4.6297,1.4474
16913,15.503,2.0909,0,0.000192,1918.7,6.4324e-05,11.532,6.279e-05,0.0064565,-0.00019181,-1912.9,1.4478
16914,15.596,2,0,0.00018976,1896.3,6.3626e-05,12.053,6.2023e-05,0.0061362,-0.00018955,-1890.2,1.4616
16915,15.503,2,0.05,8.0255e-07,8.02,6.1626e-07,4.6304,-3.7313e-12,4.4333e-06,-6.1626e-07,-4.6303,1.4476
16916,15.503,2.2727,0,0.00019196,1918.2,6.4294e-05,11.368,6.2782e-05,0.0072497,-0.00019176,-1912.5,1.448
16917,15.596,2.1818,0,0.0001897,1895.7,6.3594e-05,11.886,6.2013e-05,0.0070061,-0.0001895,-1889.8,1.4618
16918,15.503,2.1818,0.05,8.0263e-07,8.0208,6.1632e-07,4.6308,-3.7165e-12,4.7784e-06,-6.1632e-07,-4.6308,1.4478
16919,15.503,2.4545,0,0.00019192,1917.9,6.4271e-05,11.241,6.2776e-05,0.0078806,-0.00019172,-1912.2,1.4481
16920,15.596,2.3636,0,0.00018966,1895.3,6.3569e-05,11.754,6.2006e-05,0.0077184,-0.00018946,-1889.4,1.462
16921,15.503,2.3636,0.05,8.0269e-07,8.0214,6.1637e-07,4.6312,-1.8829e-12,5.248e-06,-6.1637e-07,-4.6311,1.448
16922,15.503,2.6364,0,0.00019189,1917.6,6.4254e-05,11.151,6.2771e-05,0.0083385,-0.0001917,-1912,1.4482
16923,15.596,2.5455,0,0.00018963,1895,6.355e-05,11.655,6.2e-05,0.0082613,-0.00018943,-1889.1,1.4621
16924,15.503,2.5455,0.05,8.0274e-07,8.0219,6.1641e-07,4.6315,-1.8653e-12,5.3748e-06,-6.164e-07,-4.6314,1.4481
16925,15.503,2.8182,0,0.00019187,1917.4,6.4245e-05,11.097,6.2769e-05,0.008616,-0.00019168,-1911.8,1.4483
16926,15.596,2.7273,0,0.00018961,1894.8,6.3538e-05,11.589,6.1997e-05,0.0086276,-0.00018941,-1889,1.4622
16927,15.503,2.7273,0.05,8.0277e-07,8.0222,6.1643e-07,4.6317,-2.815e-14,4.5555e-06,-6.1643e-07,-4.6316,1.4482
16928,15.503,3,0,0.00019187,1917.4,6.4241e-05,11.079,6.2768e-05,0.008709,-0.00019168,-1911.8,1.4483
16929,15.596,2.9091,0,0.0001896,1894.7,6.3532e-05,11.557,6.1995e-05,0.0088117,-0.0001894,-1888.9,1.4622
16930,15.503,2.9091,0.05,8.0279e-07,8.0224,6.1645e-07,4.6317,-9.1903e-13,5.1735e-06,-6.1644e-07,-4.6317,1.4483
16931,15.503,3.1818,0,0.00019187,1917.4,6.4245e-05,11.097,6.2769e-05,0.0086163,-0.00019168,-1911.8,1.4483
16932,15.596,3.0909,0,0.0001896,1894.7,6.3532e-05,11.557,6.1995e-05,0.0088118,-0.0001894,-1888.9,1.4622
16933,15.503,3.0909,0.05,8.0279e-07,8.0224,6.1644e-07,4.6317,9.5498e-15,4.8401e-06,-6.1644e-07,-4.6317,1.4483
16934,15.503,3.3636,0,0.00019189,1917.6,6.4254e-05,11.151,6.2771e-05,0.0083387,-0.0001917,-1912,1.4482
16935,15.596,3.2727,0,0.00018961,1894.8,6.3538e-05,11.589,6.1997e-05,0.0086284,-0.00018941,-1889,1.4622
16936,15.503,3.2727,0.05,8.0277e-07,8.0222,6.1643e-07,4.6316,2.8414e-14,5.5786e-06,-6.1643e-07,-4.6316,1.4482
16937,15.503,3.5455,0,0.00019192,1917.9,6.4271e-05,11.241,6.2776e-05,0.0078798,-0.00019172,-1912.2,1.4481
16938,15.596,3.4545,0,0.00018963,1895,6.355e-05,11.655,6.2e-05,0.0082615,-0.00018943,-1889.1,1.4621
16939,15.503,3.4545,0.05,8.0274e-07,8.0219,6.1641e-07,4.6314,4.654e-14,5.598e-06,-6.1641e-07,-4.6314,1.4481
16940,15.503,3.7273,0,0.00019196,1918.2,6.4294e-05,11.368,6.2782e-05,0.0072489,-0.00019176,-1912.5,1.448
16941,15.596,3.6364,0,0.00018966,1895.3,6.3569e-05,11.754,6.2006e-05,0.0077176,-0.00018946,-1889.4,1.462
16942,15.503,3.6364,0.05,8.0269e-07,8.0214,6.1637e-07,4.6312,1.8825e-12,6.5646e-06,-6.1637e-07,-4.6312,1.448
16943,15.503,3.9091,0,0.000192,1918.7,6.4324e-05,11.532,6.279e-05,0.006456,-0.00019181,-1912.9,1.4478
16944,15.596,3.8182,0,0.0001897,1895.7,6.3594e-05,11.886,6.2013e-05,0.007006,-0.0001895,-1889.8,1.4618
16945,15.503,3.8182,0.05,8.0263e-07,8.0208,6.1632e-07,4.6308,2.8079e-12,7.1606e-06,-6.1632e-07,-4.6308,1.4478
16946,15.503,4.0909,0,0.00019207,1919.3,6.4361e-05,11.734,6.28e-05,0.005512,-0.00019186,-1913.4,1.4475
16947,15.596,4,0,0.00018976,1896.3,6.3626e-05,12.053,6.2023e-05,0.0061354,-0.00018955,-1890.2,1.4616
16948,15.503,4,0.05,8.0255e-07,8.02,6.1626e-07,4.6303,1.9144e-12,6.7812e-06,-6.1626e-07,-4.6304,1.4476
16949,15.503,4.2727,0,0.00019214,1920,6.4405e-05,11.974,6.2811e-05,0.0044322,-0.00019193,-1914,1.4473
16950,15.596,4.1818,0,0.00018982,1896.9,6.3664e-05,12.256,6.2034e-05,0.0051169,-0.00018961,-1890.8,1.4614
16951,15.503,4.1818,0.05,8.0245e-07,8.019,6.1618e-07,4.6297,1.9254e-12,6.3456e-06,-6.1619e-07,-4.6298,1.4474
16952,15.503,4.4545,0,0.00019222,1920.9,6.4455e-05,12.255,6.2825e-05,0.0032325,-0.00019201,-1914.7,1.4469
16953,15.596,4.3636,0,0.0001899,1897.7,6.3709e-05,12.496,6.2047e-05,0.0039671,-0.00018968,-1891.4,1.4611
16954,15.503,4.3636,0.05,8.0234e-07,8.0179,6.161e-07,4.6291,2.8415e-12,7.7792e-06,-6.161e-07,-4.6292,1.4471
16955,15.503,4.6364,0,0.00019231,1921.8,6.4514e-05,12.576,6.284e-05,0.00193,-0.0001921,-1915.5,1.4466
16956,15.596,4.5455,0,0.00018999,1898.5,6.3761e-05,12.773,6.2062e-05,0.0026981,-0.00018977,-1892.1,1.4607
16957,15.503,4.5455,0.05,8.0221e-07,8.0166,6.16e-07,4.6283,3.7606e-12,6.3097e-06,-6.16e-07,-4.6284,1.4467
16958,15.503,4.8182,0,0.00019242,1922.9,6.4579e-05,12.939,6.2857e-05,0.00053703,-0.0001922,-1916.4,1.4462
16959,15.596,4.7273,0,0.00019009,1899.5,6.3821e-05,13.09,6.2079e-05,0.0013308,-0.00018986,-1893,1.4604
16960,15.503,4.7273,0.05,8.0207e-07,8.0152,6.1589e-07,4.6275,3.7595e-12,6.9858e-06,-6.1589e-07,-4.6276,1.4464
16961,15.503,5,0,0.00019254,1924.1,6.4652e-05,13.345,6.2876e-05,-0.00090519,-0.00019231,-1917.4,1.4457
16962,15.596,4.9091,0,0.0001902,1900.7,6.3887e-05,13.448,6.2097e-05,-0.00013249,-0.00018996,-1893.9,1.4599
16963,15.503,4.9091,0.05,8.0191e-07,8.0136,6.1576e-07,4.6266,5.5723e-12,7.1138e-06,-6.1577e-07,-4.6267,1.4459
16964,15.503,5.1818,0,0.00019267,1925.4,6.4734e-05,13.796,6.2897e-05,-0.0024803,-0.00019243,-1918.5,1.4452
16965,15.596,5.0909,0,0.00019032,1901.9,6.3961e-05,13.848,6.2118e-05,-0.0016106,-0.00019008,-1894.9,1.4595
16966,15.503,5.0909,0.05,8.0172e-07,8.0117,6.1562e-07,4.6255,3.7578e-12,5.6093e-06,-6.1562e-07,-4.6256,1.4455
16967,15.503,5.3636,0,0.00019282,1926.8,6.4823e-05,14.296,6.292e-05,-0.0037672,-0.00019257,-1919.7,1.4447
16968,15.596,5.2727,0,0.00019046,1903.2,6.4044e-05,14.293,6.2141e-05,-0.0033585,-0.00019021,-1896.1,1.459
16969,15.503,5.2727,0.05,8.0132e-07,8.0076,6.1531e-07,4.6231,6.4609e-12,6.4724e-06,-6.1531e-07,-4.6233,1.445
16970,15.503,5.5455,0,0.00019298,1928.5,6.4928e-05,14.897,6.2945e-05,-0.0069791,-0.00019273,-1921,1.4441
16971,15.596,5.4545,0,0.00019061,1904.7,6.4135e-05,14.79,6.2166e-05,-0.0042464,-0.00019035,-1897.3,1.4584
16972,15.503,5.4545,0.05,7.9786e-07,7.9731,6.1265e-07,4.6032,6.4487e-12,6.4791e-06,-6.1266e-07,-4.6033,1.4444
16973,15.503,5.7273,0,0.0001933,1931.7,6.5165e-05,16.469,6.2972e-05,-0.0056846,-0.00019302,-1923.4,1.4435
16974,15.596,5.6364,0,0.00019079,1906.5,6.4248e-05,15.44,6.2192e-05,-0.0099042,-0.00019052,-1898.8,1.4578
16975,15.503,5.6364,0.05,7.4776e-07,7.4724,5.7418e-07,4.3141,7.3277e-12,7.1012e-06,-5.7419e-07,-4.3143,1.4438
16976,15.596,5.8182,0,0.00019126,1911.3,6.4616e-05,17.983,6.2222e-05,-0.00036502,-0.00019095,-1902.2,1.4572
16977,15.503,5.8182,0.05,2.6832e-08,0.26814,2.0606e-08,0.15477,-6.4316e-12,-9.879e-05,-2.0602e-08,-0.15485,1.4432
16978,15.503,5.9091,0,0.00019269,1925.6,6.458e-05,11.882,6.2999e-05,-0.003628,-0.00019249,-1919.6,1.4429
16979,15.688,0.27273,0,0.00018872,1885.9,6.3682e-05,16.827,6.1442e-05,-0.0059004,-0.00018843,-1877.4,1.4716
16980,15.78,0.18182,0,0.00018669,1865.6,6.3136e-05,18.327,6.0697e-05,-0.00025416,-0.00018637,-1856.4,1.4853
16981,15.688,0.18182,0.05,2.7869e-08,0.2785,2.1399e-08,0.16083,1.0541e-11,0.00012047,-2.1401e-08,-0.16075,1.4712
16982,15.688,0.090909,0,0.0001881,1879.7,6.3082e-05,12.105,6.1471e-05,-0.0037408,-0.00018789,-1873.6,1.4709
16983,15.688,0.45455,0,0.0001884,1882.7,6.345e-05,15.299,6.1413e-05,-0.0072796,-0.00018814,-1875,1.4722
16984,15.78,0.36364,0,0.00018621,1860.9,6.2771e-05,15.814,6.0665e-05,-0.010398,-0.00018594,-1852.9,1.4859
16985,15.688,0.36364,0.05,7.4452e-07,7.4401,5.7171e-07,4.2956,-7.3387e-12,5.5749e-06,-5.717e-07,-4.2954,1.4719
16986,15.688,0.63636,0,0.00018824,1881.1,6.3351e-05,14.757,6.1386e-05,-0.0038581,-0.00018798,-1873.7,1.4727
16987,15.78,0.54545,0,0.00018604,1859.1,6.2663e-05,15.221,6.0636e-05,-0.0043803,-0.00018577,-1851.4,1.4865
16988,15.688,0.54545,0.05,7.9441e-07,7.9386,6.1002e-07,4.5835,-6.4535e-12,5.4842e-06,-6.1e-07,-4.5833,1.4724
16989,15.688,0.81818,0,0.0001881,1879.7,6.3267e-05,14.315,6.1362e-05,-0.0024982,-0.00018785,-1872.5,1.4732
16990,15.78,0.72727,0,0.00018589,1857.6,6.2578e-05,14.782,6.061e-05,-0.0034394,-0.00018563,-1850.2,1.487
16991,15.688,0.72727,0.05,7.9785e-07,7.973,6.1265e-07,4.6033,-3.7315e-12,5.8714e-06,-6.1264e-07,-4.6031,1.473
16992,15.688,1,0,0.00018797,1878.4,6.3192e-05,13.921,6.1339e-05,-0.0008423,-0.00018773,-1871.4,1.4737
16993,15.78,0.90909,0,0.00018576,1856.3,6.2502e-05,14.395,6.0585e-05,-0.001598,-0.00018551,-1849.1,1.4875
16994,15.688,0.90909,0.05,7.9825e-07,7.9769,6.1296e-07,4.6056,-4.675e-12,4.6457e-06,-6.1295e-07,-4.6054,1.4735
16995,15.688,1.1818,0,0.00018785,1877.3,6.3125e-05,13.569,6.1319e-05,0.00066436,-0.00018762,-1870.4,1.4742
16996,15.78,1.0909,0,0.00018564,1855.1,6.2433e-05,14.05,6.0563e-05,-5.3496e-05,-0.00018539,-1848,1.488
16997,15.688,1.0909,0.05,7.9843e-07,7.9788,6.131e-07,4.6066,-3.7626e-12,4.3729e-06,-6.1309e-07,-4.6065,1.4739
16998,15.688,1.3636,0,0.00018775,1876.2,6.3065e-05,13.258,6.13e-05,0.0021088,-0.00018752,-1869.6,1.4745
16999,15.78,1.2727,0,0.00018553,1854,6.2372e-05,13.745,6.0543e-05,0.0014695,-0.00018529,-1847.1,1.4884
17000,15.688,1.2727,0.05,7.9859e-07,7.9804,6.1322e-07,4.6075,-4.6815e-12,3.6113e-06,-6.1321e-07,-4.6074,1.4743
17001,15.688,1.5455,0,0.00018766,1875.3,6.3011e-05,12.985,6.1284e-05,0.0034481,-0.00018744,-1868.8,1.4749
17002,15.78,1.4545,0,0.00018543,1853.1,6.2318e-05,13.478,6.0525e-05,0.0028793,-0.0001852,-1846.3,1.4888
17003,15.688,1.4545,0.05,7.9873e-07,7.9818,6.1333e-07,4.6083,-4.6772e-12,3.1234e-06,-6.1332e-07,-4.6082,1.4747
17004,15.688,1.7273,0,0.00018758,1874.5,6.2965e-05,12.748,6.1269e-05,0.0046733,-0.00018736,-1868.1,1.4752
17005,15.78,1.6364,0,0.00018535,1852.2,6.2271e-05,13.247,6.0508e-05,0.0041804,-0.00018512,-1845.6,1.4891
17006,15.688,1.6364,0.05,7.9885e-07,7.983,6.1342e-07,4.6091,-3.7608e-12,3.0514e-06,-6.1341e-07,-4.6089,1.475
17007,15.688,1.9091,0,0.00018751,1873.8,6.2926e-05,12.547,6.1257e-05,0.0057688,-0.00018729,-1867.5,1.4755
17008,15.78,1.8182,0,0.00018528,1851.5,6.223e-05,13.049,6.0494e-05,0.0053506,-0.00018505,-1844.9,1.4894
17009,15.688,1.8182,0.05,7.9896e-07,7.9841,6.1351e-07,4.6097,-2.8422e-12,2.6999e-06,-6.135e-07,-4.6096,1.4753
17010,15.688,2.0909,0,0.00018745,1873.2,6.2892e-05,12.379,6.1246e-05,0.0067194,-0.00018724,-1867,1.4757
17011,15.78,2,0,0.00018521,1850.9,6.2196e-05,12.882,6.0482e-05,0.0063812,-0.00018499,-1844.4,1.4896
17012,15.688,2,0.05,7.9905e-07,7.985,6.1358e-07,4.6102,-1.9236e-12,3.0463e-06,-6.1357e-07,-4.6101,1.4756
17013,15.688,2.2727,0,0.00018741,1872.8,6.2866e-05,12.243,6.1237e-05,0.0075134,-0.00018719,-1866.6,1.4759
17014,15.78,2.1818,0,0.00018516,1850.4,6.2168e-05,12.746,6.0472e-05,0.0072558,-0.00018494,-1843.9,1.4898
17015,15.688,2.1818,0.05,7.9913e-07,7.9858,6.1364e-07,4.6106,-1.9063e-12,3.1559e-06,-6.1363e-07,-4.6106,1.4758
17016,15.688,2.4545,0,0.00018737,1872.4,6.2845e-05,12.138,6.123e-05,0.0081419,-0.00018716,-1866.3,1.476
17017,15.78,2.3636,0,0.00018512,1849.9,6.2145e-05,12.639,6.0464e-05,0.0079681,-0.0001849,-1843.6,1.49
17018,15.688,2.3636,0.05,7.9919e-07,7.9864,6.1369e-07,4.611,-2.7983e-12,3.6387e-06,-6.1368e-07,-4.6109,1.476
17019,15.688,2.6364,0,0.00018734,1872.1,6.283e-05,12.064,6.1226e-05,0.0085964,-0.00018714,-1866.1,1.4761
17020,15.78,2.5455,0,0.00018509,1849.6,6.2128e-05,12.559,6.0458e-05,0.0085094,-0.00018488,-1843.3,1.4901
17021,15.688,2.5455,0.05,7.9924e-07,7.9869,6.1372e-07,4.6112,-1.8707e-12,3.6657e-06,-6.1372e-07,-4.6112,1.4761
17022,15.688,2.8182,0,0.00018733,1872,6.2821e-05,12.02,6.1223e-05,0.0088713,-0.00018712,-1865.9,1.4762
17023,15.78,2.7273,0,0.00018507,1849.4,6.2117e-05,12.507,6.0454e-05,0.0088728,-0.00018486,-1843.2,1.4902
17024,15.688,2.7273,0.05,7.9927e-07,7.9872,6.1374e-07,4.6114,-1.8503e-12,3.1021e-06,-6.1374e-07,-4.6114,1.4762
17025,15.688,3,0,0.00018732,1871.9,6.2818e-05,12.005,6.1222e-05,0.0089631,-0.00018712,-1865.9,1.4762
17026,15.78,2.9091,0,0.00018506,1849.3,6.2112e-05,12.481,6.0452e-05,0.0090552,-0.00018485,-1843.1,1.4902
17027,15.688,2.9091,0.05,7.9929e-07,7.9874,6.1375e-07,4.6115,-1.0571e-14,3.6159e-06,-6.1375e-07,-4.6115,1.4762
17028,15.688,3.1818,0,0.00018733,1872,6.2821e-05,12.02,6.1223e-05,0.0088719,-0.00018712,-1865.9,1.4762
17029,15.78,3.0909,0,0.00018506,1849.3,6.2112e-05,12.481,6.0452e-05,0.0090557,-0.00018485,-1843.1,1.4902
17030,15.688,3.0909,0.05,7.9929e-07,7.9874,6.1375e-07,4.6115,1.0598e-14,3.5365e-06,-6.1375e-07,-4.6115,1.4762
17031,15.688,3.3636,0,0.00018734,1872.1,6.283e-05,12.064,6.1226e-05,0.0085972,-0.00018714,-1866.1,1.4761
17032,15.78,3.2727,0,0.00018507,1849.4,6.2117e-05,12.507,6.0454e-05,0.0088737,-0.00018486,-1843.2,1.4902
17033,15.688,3.2727,0.05,7.9927e-07,7.9872,6.1374e-07,4.6114,9.41e-13,4.6467e-06,-6.1374e-07,-4.6114,1.4762
17034,15.688,3.5455,0,0.00018737,1872.4,6.2845e-05,12.138,6.123e-05,0.0081421,-0.00018716,-1866.3,1.476
17035,15.78,3.4545,0,0.00018509,1849.6,6.2128e-05,12.559,6.0458e-05,0.0085099,-0.00018488,-1843.3,1.4901
17036,15.688,3.4545,0.05,7.9924e-07,7.9869,6.1372e-07,4.6112,1.8708e-12,4.2043e-06,-6.1372e-07,-4.6112,1.4761
17037,15.688,3.7273,0,0.00018741,1872.8,6.2866e-05,12.243,6.1237e-05,0.0075133,-0.00018719,-1866.6,1.4759
17038,15.78,3.6364,0,0.00018512,1849.9,6.2145e-05,12.639,6.0464e-05,0.0079678,-0.0001849,-1843.6,1.49
17039,15.688,3.6364,0.05,7.9919e-07,7.9864,6.1368e-07,4.6109,9.8017e-13,5.1776e-06,-6.1368e-07,-4.611,1.476
17040,15.688,3.9091,0,0.00018745,1873.2,6.2892e-05,12.379,6.1246e-05,0.006719,-0.00018724,-1867,1.4757
17041,15.78,3.8182,0,0.00018516,1850.4,6.2168e-05,12.746,6.0472e-05,0.0072563,-0.00018494,-1843.9,1.4898
17042,15.688,3.8182,0.05,7.9913e-07,7.9858,6.1363e-07,4.6106,2.8176e-12,5.905e-06,-6.1364e-07,-4.6106,1.4758
17043,15.688,4.0909,0,0.00018751,1873.8,6.2926e-05,12.547,6.1257e-05,0.0057682,-0.00018729,-1867.5,1.4755
17044,15.78,4,0,0.00018521,1850.9,6.2196e-05,12.882,6.0482e-05,0.0063807,-0.00018499,-1844.4,1.4896
17045,15.688,4,0.05,7.9905e-07,7.985,6.1357e-07,4.6101,3.7446e-12,5.4287e-06,-6.1358e-07,-4.6102,1.4756
17046,15.688,4.2727,0,0.00018758,1874.5,6.2965e-05,12.748,6.1269e-05,0.0046736,-0.00018736,-1868.1,1.4752
17047,15.78,4.1818,0,0.00018528,1851.5,6.223e-05,13.049,6.0494e-05,0.0053506,-0.00018505,-1844.9,1.4894
17048,15.688,4.1818,0.05,7.9896e-07,7.9841,6.135e-07,4.6096,1.9405e-12,4.4983e-06,-6.135e-07,-4.6097,1.4753
17049,15.688,4.4545,0,0.00018766,1875.3,6.3011e-05,12.985,6.1284e-05,0.0034482,-0.00018744,-1868.8,1.4749
17050,15.78,4.3636,0,0.00018535,1852.2,6.2271e-05,13.247,6.0508e-05,0.0041796,-0.00018512,-1845.6,1.4891
17051,15.688,4.3636,0.05,7.9885e-07,7.983,6.1342e-07,4.609,1.9429e-12,6.5501e-06,-6.1342e-07,-4.609,1.475
17052,15.688,4.6364,0,0.00018775,1876.2,6.3065e-05,13.258,6.13e-05,0.0021079,-0.00018752,-1869.6,1.4745
17053,15.78,4.5455,0,0.00018543,1853.1,6.2318e-05,13.478,6.0525e-05,0.00288,-0.0001852,-1846.3,1.4888
17054,15.688,4.5455,0.05,7.9873e-07,7.9818,6.1332e-07,4.6082,3.7685e-12,5.1734e-06,-6.1333e-07,-4.6083,1.4747
17055,15.688,4.8182,0,0.00018786,1877.3,6.3125e-05,13.569,6.1319e-05,0.0006639,-0.00018762,-1870.4,1.4742
17056,15.78,4.7273,0,0.00018553,1854,6.2372e-05,13.745,6.0543e-05,0.001469,-0.00018529,-1847.1,1.4884
17057,15.688,4.7273,0.05,7.9859e-07,7.9804,6.1321e-07,4.6074,3.7657e-12,5.9644e-06,-6.1322e-07,-4.6075,1.4743
17058,15.688,5,0,0.00018797,1878.4,6.3192e-05,13.921,6.1339e-05,-0.00084166,-0.00018773,-1871.4,1.4737
17059,15.78,4.9091,0,0.00018564,1855.1,6.2433e-05,14.05,6.0563e-05,-5.3431e-05,-0.00018539,-1848,1.488
17060,15.688,4.9091,0.05,7.9843e-07,7.9788,6.1309e-07,4.6065,3.7713e-12,6.2058e-06,-6.131e-07,-4.6066,1.4739
17061,15.688,5.1818,0,0.0001881,1879.7,6.3267e-05,14.315,6.1362e-05,-0.0024991,-0.00018785,-1872.5,1.4732
17062,15.78,5.0909,0,0.00018576,1856.3,6.2502e-05,14.395,6.0585e-05,-0.0015989,-0.00018551,-1849.1,1.4875
17063,15.688,5.0909,0.05,7.9825e-07,7.9769,6.1295e-07,4.6054,5.5764e-12,4.5702e-06,-6.1296e-07,-4.6056,1.4735
17064,15.688,5.3636,0,0.00018824,1881.1,6.3351e-05,14.757,6.1387e-05,-0.0038588,-0.00018798,-1873.7,1.4727
17065,15.78,5.2727,0,0.00018589,1857.6,6.2578e-05,14.782,6.061e-05,-0.0034418,-0.00018563,-1850.2,1.487
17066,15.688,5.2727,0.05,7.9785e-07,7.973,6.1264e-07,4.6031,5.5589e-12,5.8721e-06,-6.1265e-07,-4.6033,1.473
17067,15.688,5.5455,0,0.0001884,1882.7,6.345e-05,15.299,6.1413e-05,-0.0072791,-0.00018814,-1875,1.4722
17068,15.78,5.4545,0,0.00018604,1859.1,6.2663e-05,15.221,6.0636e-05,-0.0043802,-0.00018577,-1851.4,1.4865
17069,15.688,5.4545,0.05,7.9441e-07,7.9386,6.1e-07,4.5833,7.3552e-12,6.0043e-06,-6.1001e-07,-4.5834,1.4724
17070,15.688,5.7273,0,0.00018872,1885.9,6.3683e-05,16.827,6.1442e-05,-0.0058999,-0.00018843,-1877.4,1.4716
17071,15.78,5.6364,0,0.00018621,1860.9,6.2771e-05,15.814,6.0665e-05,-0.010397,-0.00018594,-1852.9,1.4859
17072,15.688,5.6364,0.05,7.4452e-07,7.4401,5.717e-07,4.2955,6.4321e-12,6.8021e-06,-5.7171e-07,-4.2956,1.4719
17073,15.78,5.8182,0,0.00018669,1865.6,6.3136e-05,18.327,6.0697e-05,-0.00025309,-0.00018637,-1856.4,1.4853
17074,15.688,5.8182,0.05,2.7869e-08,0.2785,2.1401e-08,0.16075,-8.3017e-12,-0.00010649,-2.1398e-08,-0.16082,1.4712
17075,15.688,5.9091,0,0.0001881,1879.7,6.3082e-05,12.105,6.1471e-05,-0.0037386,-0.00018789,-1873.6,1.4709
17076,15.873,0.27273,0,0.00018416,1840.3,6.2207e-05,17.186,5.9919e-05,-0.0061485,-0.00018386,-1831.7,1.4997
17077,15.965,0.18182,0,0.00018214,1820.1,6.1663e-05,18.674,5.9178e-05,-0.00016336,-0.00018181,-1810.7,1.5136
17078,15.873,0.18182,0.05,2.8767e-08,0.28748,2.2088e-08,0.16601,1.0016e-11,0.00012743,-2.2092e-08,-0.16593,1.4994
17079,15.873,0.090909,0,0.00018352,1833.9,6.1591e-05,12.329,5.9949e-05,-0.0038789,-0.00018331,-1827.7,1.4991
17080,15.873,0.45455,0,0.00018384,1837.2,6.1979e-05,15.701,5.9888e-05,-0.0076094,-0.00018357,-1829.3,1.5003
17081,15.965,0.36364,0,0.00018166,1815.4,6.13e-05,16.188,5.9144e-05,-0.010906,-0.00018138,-1807.2,1.5142
17082,15.873,0.36364,0.05,7.4133e-07,7.4082,5.6926e-07,4.2772,-5.5119e-12,6.943e-06,-5.6925e-07,-4.277,1.5
17083,15.873,0.63636,0,0.00018368,1835.6,6.1885e-05,15.216,5.986e-05,-0.0039803,-0.00018342,-1827.9,1.5009
17084,15.965,0.54545,0,0.00018149,1813.6,6.1198e-05,15.653,5.9114e-05,-0.0045282,-0.00018122,-1805.8,1.5147
17085,15.873,0.54545,0.05,7.9099e-07,7.9045,6.0739e-07,4.5638,-6.0065e-12,4.4457e-06,-6.0738e-07,-4.5636,1.5006
17086,15.873,0.81818,0,0.00018354,1834.2,6.1808e-05,14.832,5.9833e-05,-0.0025462,-0.00018329,-1826.7,1.5014
17087,15.965,0.72727,0,0.00018134,1812.2,6.1118e-05,15.271,5.9085e-05,-0.0035377,-0.00018108,-1804.5,1.5152
17088,15.873,0.72727,0.05,7.9442e-07,7.9387,6.1002e-07,4.5835,-5.1295e-12,4.431e-06,-6.1001e-07,-4.5833,1.5011
17089,15.873,1,0,0.00018342,1832.9,6.1738e-05,14.494,5.9809e-05,-0.00080932,-0.00018317,-1825.6,1.5018
17090,15.965,0.90909,0,0.00018122,1810.9,6.1048e-05,14.941,5.9059e-05,-0.0016001,-0.00018096,-1803.4,1.5157
17091,15.873,0.90909,0.05,7.9481e-07,7.9426,6.1032e-07,4.5857,-4.6754e-12,3.9753e-06,-6.1031e-07,-4.5856,1.5016
17092,15.873,1.1818,0,0.00018331,1831.8,6.1676e-05,14.196,5.9787e-05,0.00075805,-0.00018306,-1824.7,1.5023
17093,15.965,1.0909,0,0.0001811,1809.7,6.0985e-05,14.651,5.9035e-05,1.0938e-05,-0.00018085,-1802.4,1.5162
17094,15.873,1.0909,0.05,7.9499e-07,7.9444,6.1046e-07,4.5868,-5.145e-12,3.1036e-06,-6.1045e-07,-4.5866,1.502
17095,15.873,1.3636,0,0.00018321,1830.8,6.1622e-05,13.936,5.9767e-05,0.0022528,-0.00018297,-1823.8,1.5026
17096,15.965,1.2727,0,0.00018099,1808.7,6.093e-05,14.399,5.9014e-05,0.0015908,-0.00018075,-1801.5,1.5166
17097,15.873,1.2727,0.05,7.9514e-07,7.946,6.1057e-07,4.5877,-4.6896e-12,2.3682e-06,-6.1057e-07,-4.5875,1.5024
17098,15.873,1.5455,0,0.00018312,1829.9,6.1574e-05,13.71,5.9749e-05,0.0036307,-0.00018288,-1823,1.503
17099,15.965,1.4545,0,0.0001809,1807.8,6.0881e-05,14.181,5.8994e-05,0.0030453,-0.00018066,-1800.6,1.5169
17100,15.873,1.4545,0.05,7.9528e-07,7.9473,6.1068e-07,4.5884,-3.7817e-12,2.0555e-06,-6.1067e-07,-4.5883,1.5028
17101,15.873,1.7273,0,0.00018304,1829.2,6.1532e-05,13.517,5.9734e-05,0.0048827,-0.00018281,-1822.4,1.5033
17102,15.965,1.6364,0,0.00018082,1807,6.0839e-05,13.995,5.8977e-05,0.0043783,-0.00018058,-1799.9,1.5172
17103,15.873,1.6364,0.05,7.954e-07,7.9485,6.1077e-07,4.5891,-1.9471e-12,2.5753e-06,-6.1077e-07,-4.589,1.5031
17104,15.873,1.9091,0,0.00018298,1828.5,6.1497e-05,13.354,5.972e-05,0.0059935,-0.00018275,-1821.8,1.5036
17105,15.965,1.8182,0,0.00018075,1806.3,6.0803e-05,13.839,5.8962e-05,0.0055693,-0.00018051,-1799.3,1.5175
17106,15.873,1.8182,0.05,7.9551e-07,7.9496,6.1086e-07,4.5898,-3.7619e-12,1.5695e-06,-6.1085e-07,-4.5896,1.5034
17107,15.873,2.0909,0,0.00018292,1827.9,6.1467e-05,13.22,5.9708e-05,0.0069531,-0.00018269,-1821.3,1.5038
17108,15.965,2,0,0.00018069,1805.7,6.0772e-05,13.709,5.8948e-05,0.0066127,-0.00018045,-1798.8,1.5178
17109,15.873,2,0.05,7.956e-07,7.9505,6.1093e-07,4.5903,-1.0192e-12,1.9134e-06,-6.1092e-07,-4.5902,1.5037
17110,15.873,2.2727,0,0.00018288,1827.5,6.1443e-05,13.113,5.9699e-05,0.0077502,-0.00018265,-1820.9,1.504
17111,15.965,2.1818,0,0.00018064,1805.2,6.0747e-05,13.604,5.8938e-05,0.0074939,-0.00018041,-1798.3,1.518
17112,15.873,2.1818,0.05,7.9568e-07,7.9513,6.1098e-07,4.5907,-3.7324e-12,2.627e-06,-6.1098e-07,-4.5906,1.5039
17113,15.873,2.4545,0,0.00018284,1827.1,6.1425e-05,13.03,5.9692e-05,0.0083789,-0.00018262,-1820.6,1.5041
17114,15.965,2.3636,0,0.0001806,1804.8,6.0727e-05,13.522,5.8929e-05,0.0082082,-0.00018037,-1798,1.5181
17115,15.873,2.3636,0.05,7.9574e-07,7.9519,6.1103e-07,4.591,-9.8594e-13,2.4029e-06,-6.1103e-07,-4.591,1.504
17116,15.873,2.6364,0,0.00018282,1826.9,6.1412e-05,12.972,5.9686e-05,0.0088318,-0.00018259,-1820.4,1.5042
17117,15.965,2.5455,0,0.00018057,1804.5,6.0713e-05,13.461,5.8922e-05,0.0087499,-0.00018034,-1797.7,1.5182
17118,15.873,2.5455,0.05,7.9578e-07,7.9523,6.1106e-07,4.5913,-1.8746e-12,2.9188e-06,-6.1106e-07,-4.5912,1.5041
17119,15.873,2.8182,0,0.0001828,1826.8,6.1404e-05,12.938,5.9683e-05,0.0091045,-0.00018258,-1820.2,1.5043
17120,15.965,2.7273,0,0.00018056,1804.3,6.0703e-05,13.422,5.8918e-05,0.0091119,-0.00018032,-1797.6,1.5183
17121,15.873,2.7273,0.05,7.9581e-07,7.9526,6.1109e-07,4.5915,-3.3872e-14,2.3678e-06,-6.1108e-07,-4.5914,1.5042
17122,15.873,3,0,0.0001828,1826.7,6.1401e-05,12.927,5.9682e-05,0.009196,-0.00018257,-1820.2,1.5043
17123,15.965,2.9091,0,0.00018055,1804.2,6.0698e-05,13.402,5.8916e-05,0.0092935,-0.00018031,-1797.5,1.5184
17124,15.873,2.9091,0.05,7.9583e-07,7.9528,6.111e-07,4.5915,-1.1393e-14,3.133e-06,-6.1109e-07,-4.5915,1.5043
17125,15.873,3.1818,0,0.0001828,1826.8,6.1404e-05,12.938,5.9683e-05,0.0091053,-0.00018258,-1820.2,1.5043
17126,15.965,3.0909,0,0.00018055,1804.2,6.0698e-05,13.402,5.8916e-05,0.0092937,-0.00018031,-1797.5,1.5184
17127,15.873,3.0909,0.05,7.9583e-07,7.9528,6.1109e-07,4.5915,1.1434e-14,2.7085e-06,-6.111e-07,-4.5915,1.5043
17128,15.873,3.3636,0,0.00018282,1826.9,6.1412e-05,12.972,5.9686e-05,0.0088324,-0.00018259,-1820.4,1.5042
17129,15.965,3.2727,0,0.00018056,1804.3,6.0703e-05,13.422,5.8918e-05,0.0091122,-0.00018032,-1797.6,1.5183
17130,15.873,3.2727,0.05,7.9581e-07,7.9526,6.1108e-07,4.5914,3.4031e-14,3.5942e-06,-6.1109e-07,-4.5914,1.5042
17131,15.873,3.5455,0,0.00018284,1827.1,6.1425e-05,13.03,5.9692e-05,0.0083791,-0.00018262,-1820.6,1.5041
17132,15.965,3.4545,0,0.00018057,1804.5,6.0713e-05,13.461,5.8922e-05,0.0087492,-0.00018034,-1797.7,1.5182
17133,15.873,3.4545,0.05,7.9578e-07,7.9523,6.1106e-07,4.5913,5.6e-14,3.6384e-06,-6.1106e-07,-4.5913,1.5041
17134,15.873,3.7273,0,0.00018288,1827.5,6.1443e-05,13.113,5.9699e-05,0.0077507,-0.00018265,-1820.9,1.504
17135,15.965,3.6364,0,0.0001806,1804.8,6.0727e-05,13.522,5.8929e-05,0.0082091,-0.00018037,-1798,1.5181
17136,15.873,3.6364,0.05,7.9574e-07,7.9519,6.1103e-07,4.591,9.8545e-13,4.4953e-06,-6.1103e-07,-4.591,1.504
17137,15.873,3.9091,0,0.00018292,1827.9,6.1467e-05,13.22,5.9708e-05,0.0069534,-0.00018269,-1821.3,1.5038
17138,15.965,3.8182,0,0.00018064,1805.2,6.0747e-05,13.604,5.8938e-05,0.0074941,-0.00018041,-1798.3,1.518
17139,15.873,3.8182,0.05,7.9568e-07,7.9513,6.1098e-07,4.5906,2.8238e-12,5.4806e-06,-6.1098e-07,-4.5907,1.5039
17140,15.873,4.0909,0,0.00018298,1828.5,6.1497e-05,13.354,5.972e-05,0.0059936,-0.00018275,-1821.8,1.5036
17141,15.965,4,0,0.00018069,1805.7,6.0772e-05,13.709,5.8948e-05,0.0066124,-0.00018045,-1798.8,1.5178
17142,15.873,4,0.05,7.956e-07,7.9505,6.1092e-07,4.5902,1.0195e-12,4.7672e-06,-6.1092e-07,-4.5902,1.5037
17143,15.873,4.2727,0,0.00018304,1829.2,6.1532e-05,13.517,5.9734e-05,0.0048816,-0.00018281,-1822.4,1.5033
17144,15.965,4.1818,0,0.00018075,1806.3,6.0803e-05,13.839,5.8962e-05,0.0055699,-0.00018051,-1799.3,1.5175
17145,15.873,4.1818,0.05,7.9551e-07,7.9496,6.1085e-07,4.5897,1.0419e-12,4.396e-06,-6.1085e-07,-4.5897,1.5034
17146,15.873,4.4545,0,0.00018312,1829.9,6.1574e-05,13.71,5.9749e-05,0.0036304,-0.00018288,-1823,1.503
17147,15.965,4.3636,0,0.00018082,1807,6.0839e-05,13.995,5.8977e-05,0.0043768,-0.00018058,-1799.9,1.5172
17148,15.873,4.3636,0.05,7.954e-07,7.9485,6.1077e-07,4.589,3.7694e-12,5.5844e-06,-6.1077e-07,-4.5891,1.5031
17149,15.873,4.6364,0,0.00018321,1830.8,6.1622e-05,13.936,5.9767e-05,0.0022539,-0.00018297,-1823.8,1.5026
17150,15.965,4.5455,0,0.0001809,1807.8,6.0881e-05,14.181,5.8994e-05,0.0030455,-0.00018066,-1800.6,1.5169
17151,15.873,4.5455,0.05,7.9528e-07,7.9473,6.1068e-07,4.5883,3.7833e-12,4.4747e-06,-6.1068e-07,-4.5884,1.5028
17152,15.873,4.8182,0,0.00018331,1831.8,6.1676e-05,14.196,5.9787e-05,0.00075808,-0.00018306,-1824.7,1.5023
17153,15.965,4.7273,0,0.00018099,1808.7,6.093e-05,14.399,5.9014e-05,0.0015913,-0.00018075,-1801.5,1.5166
17154,15.873,4.7273,0.05,7.9514e-07,7.946,6.1057e-07,4.5875,3.7793e-12,5.5729e-06,-6.1058e-07,-4.5877,1.5024
17155,15.873,5,0,0.00018342,1832.9,6.1738e-05,14.494,5.9809e-05,-0.00081077,-0.00018317,-1825.6,1.5018
17156,15.965,4.9091,0,0.0001811,1809.7,6.0985e-05,14.651,5.9035e-05,1.0958e-05,-0.00018085,-1802.4,1.5162
17157,15.873,4.9091,0.05,7.9499e-07,7.9444,6.1045e-07,4.5867,4.6779e-12,5.4172e-06,-6.1046e-07,-4.5868,1.502
17158,15.873,5.1818,0,0.00018354,1834.2,6.1808e-05,14.832,5.9833e-05,-0.0025486,-0.00018329,-1826.7,1.5014
17159,15.965,5.0909,0,0.00018122,1810.9,6.1048e-05,14.941,5.9059e-05,-0.0016021,-0.00018096,-1803.4,1.5157
17160,15.873,5.0909,0.05,7.9481e-07,7.9426,6.1031e-07,4.5856,5.5852e-12,4.1425e-06,-6.1032e-07,-4.5857,1.5016
17161,15.873,5.3636,0,0.00018368,1835.6,6.1885e-05,15.216,5.986e-05,-0.0039818,-0.00018342,-1827.9,1.5009
17162,15.965,5.2727,0,0.00018134,1812.2,6.1118e-05,15.271,5.9085e-05,-0.0035391,-0.00018108,-1804.5,1.5152
17163,15.873,5.2727,0.05,7.9442e-07,7.9387,6.1001e-07,4.5833,5.1124e-12,5.2688e-06,-6.1002e-07,-4.5835,1.5011
17164,15.873,5.5455,0,0.00018384,1837.2,6.1979e-05,15.701,5.9888e-05,-0.0076089,-0.00018357,-1829.3,1.5003
17165,15.965,5.4545,0,0.00018149,1813.6,6.1198e-05,15.653,5.9114e-05,-0.004529,-0.00018122,-1805.8,1.5147
17166,15.873,5.4545,0.05,7.9099e-07,7.9045,6.0738e-07,4.5636,5.5423e-12,5.3042e-06,-6.0739e-07,-4.5637,1.5006
17167,15.873,5.7273,0,0.00018416,1840.3,6.2207e-05,17.186,5.9919e-05,-0.0061472,-0.00018386,-1831.7,1.4997
17168,15.965,5.6364,0,0.00018166,1815.4,6.13e-05,16.188,5.9144e-05,-0.010904,-0.00018138,-1807.2,1.5142
17169,15.873,5.6364,0.05,7.4134e-07,7.4082,5.6925e-07,4.2771,5.9703e-12,6.5775e-06,-5.6926e-07,-4.2772,1.5
17170,15.965,5.8182,0,0.00018214,1820.1,6.1663e-05,18.674,5.9178e-05,-0.00016149,-0.00018181,-1810.7,1.5136
17171,15.873,5.8182,0.05,2.8768e-08,0.28748,2.2092e-08,0.16595,-7.6199e-12,-0.00010391,-2.2089e-08,-0.16601,1.4994
17172,15.873,5.9091,0,0.00018352,1833.9,6.1591e-05,12.329,5.9949e-05,-0.00388,-0.00018331,-1827.7,1.4991
17173,16.057,0.27273,0,0.00017962,1795,6.0739e-05,17.546,5.8403e-05,-0.0063995,-0.00017931,-1786.1,1.528
17174,16.15,0.18182,0,0.00017761,1774.9,6.0198e-05,19.024,5.7666e-05,-6.2868e-05,-0.00017728,-1765.3,1.5419
17175,16.057,0.18182,0.05,2.9558e-08,0.29538,2.2695e-08,0.17058,1.2297e-11,0.00015081,-2.2699e-08,-0.17049,1.5277
17176,16.057,0.090909,0,0.00017896,1788.4,6.0106e-05,12.556,5.8435e-05,-0.0040198,-0.00017875,-1782.1,1.5274
17177,16.057,0.45455,0,0.0001793,1791.8,6.0514e-05,16.104,5.837e-05,-0.0079381,-0.00017902,-1783.7,1.5286
17178,16.15,0.36364,0,0.00017713,1770.1,5.9836e-05,16.565,5.763e-05,-0.011403,-0.00017684,-1761.7,1.5425
17179,16.057,0.36364,0.05,7.3818e-07,7.3767,5.6684e-07,4.2591,-5.9672e-12,5.6184e-06,-5.6682e-07,-4.2589,1.5283
17180,16.057,0.63636,0,0.00017915,1790.2,6.0426e-05,15.676,5.8339e-05,-0.0041015,-0.00017887,-1782.3,1.5291
17181,16.15,0.54545,0,0.00017696,1768.4,5.9739e-05,16.086,5.7598e-05,-0.0046617,-0.00017668,-1760.3,1.543
17182,16.057,0.54545,0.05,7.8761e-07,7.8706,6.0479e-07,4.5442,-5.5577e-12,6.6145e-06,-6.0478e-07,-4.544,1.5288
17183,16.057,0.81818,0,0.00017901,1788.9,6.0355e-05,15.349,5.8311e-05,-0.0025952,-0.00017874,-1781.2,1.5296
17184,16.15,0.72727,0,0.00017682,1767,5.9666e-05,15.762,5.7568e-05,-0.003622,-0.00017655,-1759,1.5436
17185,16.057,0.72727,0.05,7.9101e-07,7.9046,6.074e-07,4.5638,-5.1282e-12,5.2884e-06,-6.0739e-07,-4.5636,1.5294
17186,16.057,1,0,0.00017889,1787.7,6.0291e-05,15.067,5.8286e-05,-0.0007763,-0.00017863,-1780.1,1.5301
17187,16.15,0.90909,0,0.00017669,1765.7,5.9601e-05,15.488,5.754e-05,-0.0015891,-0.00017642,-1757.9,1.544
17188,16.057,0.90909,0.05,7.914e-07,7.9085,6.077e-07,4.5661,-5.6136e-12,2.5728e-06,-6.0769e-07,-4.5659,1.5298
17189,16.057,1.1818,0,0.00017878,1786.6,6.0235e-05,14.823,5.8262e-05,0.00085381,-0.00017852,-1779.1,1.5305
17190,16.15,1.0909,0,0.00017658,1764.6,5.9544e-05,15.254,5.7514e-05,9.0818e-05,-0.00017632,-1756.9,1.5445
17191,16.057,1.0909,0.05,7.9158e-07,7.9103,6.0784e-07,4.5671,-3.7916e-12,2.0667e-06,-6.0783e-07,-4.567,1.5303
17192,16.057,1.3636,0,0.00017868,1785.6,6.0185e-05,14.614,5.8241e-05,0.0023997,-0.00017843,-1778.3,1.5309
17193,16.15,1.2727,0,0.00017648,1763.6,5.9495e-05,15.054,5.7491e-05,0.0017281,-0.00017622,-1756,1.5448
17194,16.057,1.2727,0.05,7.9173e-07,7.9118,6.0795e-07,4.568,-3.794e-12,1.5326e-06,-6.0794e-07,-4.5678,1.5307
17195,16.057,1.5455,0,0.0001786,1784.8,6.0142e-05,14.436,5.8222e-05,0.0038153,-0.00017835,-1777.5,1.5312
17196,16.15,1.4545,0,0.00017639,1762.7,5.9451e-05,14.886,5.747e-05,0.0032268,-0.00017613,-1755.2,1.5452
17197,16.057,1.4545,0.05,7.9186e-07,7.9132,6.0806e-07,4.5687,-3.7829e-12,1.646e-06,-6.0805e-07,-4.5686,1.531
17198,16.057,1.7273,0,0.00017853,1784,6.0105e-05,14.286,5.8205e-05,0.0050928,-0.00017828,-1776.8,1.5315
17199,16.15,1.6364,0,0.00017631,1761.9,5.9414e-05,14.746,5.7452e-05,0.0045911,-0.00017606,-1754.5,1.5455
17200,16.057,1.6364,0.05,7.9198e-07,7.9144,6.0815e-07,4.5694,-3.3249e-12,1.9917e-06,-6.0814e-07,-4.5693,1.5313
17201,16.057,1.9091,0,0.00017846,1783.4,6.0074e-05,14.162,5.819e-05,0.0062213,-0.00017822,-1776.3,1.5318
17202,16.15,1.8182,0,0.00017625,1761.2,5.9382e-05,14.631,5.7435e-05,0.0058051,-0.00017599,-1753.9,1.5458
17203,16.057,1.8182,0.05,7.9209e-07,7.9154,6.0823e-07,4.57,-2.4052e-12,1.1334e-06,-6.0822e-07,-4.5699,1.5316
17204,16.057,2.0909,0,0.00017841,1782.9,6.0048e-05,14.062,5.8178e-05,0.0071907,-0.00017817,-1775.8,1.532
17205,16.15,2,0,0.00017619,1760.7,5.9355e-05,14.538,5.7421e-05,0.0068621,-0.00017594,-1753.4,1.546
17206,16.057,2,0.05,7.9218e-07,7.9163,6.083e-07,4.5705,-2.8473e-12,1.4854e-06,-6.0829e-07,-4.5704,1.5318
17207,16.057,2.2727,0,0.00017837,1782.4,6.0027e-05,13.982,5.8167e-05,0.0079928,-0.00017812,-1775.4,1.5322
17208,16.15,2.1818,0,0.00017614,1760.2,5.9333e-05,14.464,5.7409e-05,0.0077508,-0.00017589,-1752.9,1.5462
17209,16.057,2.1818,0.05,7.9225e-07,7.917,6.0835e-07,4.5709,-2.3772e-12,1.8598e-06,-6.0835e-07,-4.5709,1.532
17210,16.057,2.4545,0,0.00017833,1782.1,6.0011e-05,13.923,5.8159e-05,0.0086232,-0.00017809,-1775.1,1.5323
17211,16.15,2.3636,0,0.0001761,1759.8,5.9317e-05,14.408,5.74e-05,0.0084689,-0.00017585,-1752.6,1.5464
17212,16.057,2.3636,0.05,7.9231e-07,7.9176,6.084e-07,4.5713,-1.9011e-12,2.366e-06,-6.0839e-07,-4.5712,1.5322
17213,16.057,2.6364,0,0.00017831,1781.9,6e-05,13.881,5.8154e-05,0.0090762,-0.00017807,-1774.9,1.5324
17214,16.15,2.5455,0,0.00017608,1759.6,5.9304e-05,14.367,5.7393e-05,0.0090118,-0.00017583,-1752.3,1.5465
17215,16.057,2.5455,0.05,7.9235e-07,7.9181,6.0843e-07,4.5715,-1.4242e-12,2.7653e-06,-6.0843e-07,-4.5715,1.5323
17216,16.057,2.8182,0,0.00017829,1781.7,5.9993e-05,13.856,5.815e-05,0.0093486,-0.00017806,-1774.7,1.5324
17217,16.15,2.7273,0,0.00017606,1759.4,5.9296e-05,14.34,5.7388e-05,0.0093745,-0.00017581,-1752.2,1.5466
17218,16.057,2.7273,0.05,7.9238e-07,7.9184,6.0845e-07,4.5717,-1.8558e-12,2.4653e-06,-6.0845e-07,-4.5717,1.5324
17219,16.057,3,0,0.00017829,1781.7,5.9991e-05,13.848,5.8149e-05,0.0094392,-0.00017805,-1774.7,1.5325
17220,16.15,2.9091,0,0.00017605,1759.3,5.9292e-05,14.327,5.7386e-05,0.0095552,-0.0001758,-1752.1,1.5466
17221,16.057,2.9091,0.05,7.924e-07,7.9185,6.0846e-07,4.5718,-4.6714e-13,3.0065e-06,-6.0846e-07,-4.5717,1.5324
17222,16.057,3.1818,0,0.00017829,1781.7,5.9993e-05,13.856,5.815e-05,0.0093481,-0.00017806,-1774.7,1.5324
17223,16.15,3.0909,0,0.00017605,1759.3,5.9292e-05,14.327,5.7386e-05,0.0095553,-0.0001758,-1752.1,1.5466
17224,16.057,3.0909,0.05,7.924e-07,7.9185,6.0847e-07,4.5718,1.2407e-14,2.358e-06,-6.0846e-07,-4.5717,1.5324
17225,16.057,3.3636,0,0.00017831,1781.9,6e-05,13.881,5.8154e-05,0.0090751,-0.00017807,-1774.9,1.5324
17226,16.15,3.2727,0,0.00017606,1759.4,5.9296e-05,14.34,5.7388e-05,0.0093739,-0.00017581,-1752.2,1.5466
17227,16.057,3.2727,0.05,7.9238e-07,7.9184,6.0845e-07,4.5717,1.8557e-12,3.496e-06,-6.0845e-07,-4.5717,1.5324
17228,16.057,3.5455,0,0.00017833,1782.1,6.0011e-05,13.923,5.8159e-05,0.0086232,-0.00017809,-1775.1,1.5323
17229,16.15,3.4545,0,0.00017608,1759.6,5.9304e-05,14.367,5.7393e-05,0.0090109,-0.00017583,-1752.3,1.5465
17230,16.057,3.4545,0.05,7.9235e-07,7.9181,6.0843e-07,4.5715,9.7006e-13,3.4318e-06,-6.0843e-07,-4.5715,1.5323
17231,16.057,3.7273,0,0.00017837,1782.4,6.0027e-05,13.983,5.8167e-05,0.0079934,-0.00017812,-1775.4,1.5322
17232,16.15,3.6364,0,0.0001761,1759.8,5.9317e-05,14.408,5.74e-05,0.0084699,-0.00017585,-1752.6,1.5464
17233,16.057,3.6364,0.05,7.9231e-07,7.9176,6.084e-07,4.5712,1.4467e-12,4.6753e-06,-6.0839e-07,-4.5713,1.5322
17234,16.057,3.9091,0,0.00017841,1782.9,6.0048e-05,14.062,5.8178e-05,0.0071903,-0.00017817,-1775.8,1.532
17235,16.15,3.8182,0,0.00017614,1760.2,5.9333e-05,14.464,5.7409e-05,0.0077512,-0.00017589,-1752.9,1.5462
17236,16.057,3.8182,0.05,7.9225e-07,7.917,6.0835e-07,4.5709,1.922e-12,5.3014e-06,-6.0835e-07,-4.5709,1.532
17237,16.057,4.0909,0,0.00017846,1783.4,6.0074e-05,14.162,5.819e-05,0.0062216,-0.00017822,-1776.3,1.5318
17238,16.15,4,0,0.00017619,1760.7,5.9355e-05,14.538,5.7421e-05,0.0068617,-0.00017594,-1753.4,1.546
17239,16.057,4,0.05,7.9218e-07,7.9163,6.0829e-07,4.5705,1.9404e-12,4.8369e-06,-6.083e-07,-4.5705,1.5318
17240,16.057,4.2727,0,0.00017853,1784,6.0105e-05,14.286,5.8205e-05,0.005093,-0.00017828,-1776.8,1.5315
17241,16.15,4.1818,0,0.00017625,1761.2,5.9382e-05,14.631,5.7435e-05,0.0058052,-0.00017599,-1753.9,1.5458
17242,16.057,4.1818,0.05,7.9209e-07,7.9154,6.0822e-07,4.5699,3.3206e-12,4.4731e-06,-6.0823e-07,-4.57,1.5316
17243,16.057,4.4545,0,0.0001786,1784.8,6.0142e-05,14.436,5.8222e-05,0.0038143,-0.00017835,-1777.5,1.5312
17244,16.15,4.3636,0,0.00017631,1761.9,5.9414e-05,14.746,5.7452e-05,0.0045907,-0.00017606,-1754.5,1.5455
17245,16.057,4.3636,0.05,7.9198e-07,7.9144,6.0814e-07,4.5693,2.4224e-12,5.8537e-06,-6.0815e-07,-4.5694,1.5313
17246,16.057,4.6364,0,0.00017868,1785.6,6.0185e-05,14.614,5.8241e-05,0.0023994,-0.00017843,-1778.3,1.5309
17247,16.15,4.5455,0,0.00017639,1762.7,5.9451e-05,14.886,5.747e-05,0.0032265,-0.00017613,-1755.2,1.5452
17248,16.057,4.5455,0.05,7.9186e-07,7.9132,6.0805e-07,4.5686,3.7897e-12,4.4094e-06,-6.0806e-07,-4.5687,1.531
17249,16.057,4.8182,0,0.00017878,1786.6,6.0235e-05,14.823,5.8262e-05,0.00085433,-0.00017852,-1779.1,1.5305
17250,16.15,4.7273,0,0.00017648,1763.6,5.9495e-05,15.054,5.7491e-05,0.0017273,-0.00017622,-1756,1.5448
17251,16.057,4.7273,0.05,7.9173e-07,7.9118,6.0795e-07,4.5678,3.7876e-12,5.6481e-06,-6.0795e-07,-4.5679,1.5307
17252,16.057,5,0,0.00017889,1787.7,6.0291e-05,15.067,5.8286e-05,-0.00077685,-0.00017863,-1780.1,1.5301
17253,16.15,4.9091,0,0.00017658,1764.6,5.9544e-05,15.254,5.7514e-05,9.0529e-05,-0.00017632,-1756.9,1.5445
17254,16.057,4.9091,0.05,7.9158e-07,7.9103,6.0783e-07,4.567,3.7834e-12,5.7512e-06,-6.0784e-07,-4.5671,1.5303
17255,16.057,5.1818,0,0.00017901,1788.9,6.0355e-05,15.349,5.8311e-05,-0.0025962,-0.00017874,-1781.2,1.5296
17256,16.15,5.0909,0,0.00017669,1765.7,5.9601e-05,15.488,5.754e-05,-0.0015908,-0.00017642,-1757.9,1.544
17257,16.057,5.0909,0.05,7.914e-07,7.9085,6.0769e-07,4.5659,4.2321e-12,4.5227e-06,-6.077e-07,-4.566,1.5298
17258,16.057,5.3636,0,0.00017915,1790.2,6.0426e-05,15.677,5.8339e-05,-0.0041022,-0.00017887,-1782.3,1.5291
17259,16.15,5.2727,0,0.00017682,1767,5.9666e-05,15.762,5.7568e-05,-0.0036227,-0.00017655,-1759,1.5436
17260,16.057,5.2727,0.05,7.9101e-07,7.9046,6.0739e-07,4.5637,4.6651e-12,5.4297e-06,-6.074e-07,-4.5638,1.5294
17261,16.057,5.5455,0,0.0001793,1791.8,6.0514e-05,16.105,5.837e-05,-0.0079374,-0.00017902,-1783.7,1.5286
17262,16.15,5.4545,0,0.00017696,1768.4,5.9739e-05,16.086,5.7598e-05,-0.0046632,-0.00017668,-1760.3,1.543
17263,16.057,5.4545,0.05,7.8761e-07,7.8706,6.0478e-07,4.544,5.5451e-12,5.4374e-06,-6.0479e-07,-4.5442,1.5288
17264,16.057,5.7273,0,0.00017962,1795,6.0739e-05,17.546,5.8403e-05,-0.0063971,-0.00017931,-1786.1,1.528
17265,16.15,5.6364,0,0.00017713,1770.1,5.9836e-05,16.565,5.763e-05,-0.011402,-0.00017684,-1761.7,1.5425
17266,16.057,5.6364,0.05,7.3818e-07,7.3767,5.6683e-07,4.2589,5.9732e-12,6.6952e-06,-5.6684e-07,-4.259,1.5283
17267,16.15,5.8182,0,0.00017761,1774.9,6.0198e-05,19.024,5.7666e-05,-6.1166e-05,-0.00017728,-1765.3,1.5419
17268,16.057,5.8182,0.05,2.9558e-08,0.29538,2.2699e-08,0.17051,-8.4479e-12,-0.00010284,-2.2695e-08,-0.17057,1.5277
17269,16.057,5.9091,0,0.00017896,1788.4,6.0106e-05,12.556,5.8435e-05,-0.004019,-0.00017875,-1782.1,1.5274
17270,16.242,0.27273,0,0.0001751,1749.8,5.9277e-05,17.91,5.6893e-05,-0.0066278,-0.00017479,-1740.8,1.5564
17271,16.335,0.18182,0,0.0001731,1729.8,5.8739e-05,19.378,5.616e-05,4.1222e-05,-0.00017276,-1720,1.5704
17272,16.242,0.18182,0.05,3.0258e-08,0.30237,2.3232e-08,0.17461,1.1775e-11,0.00014728,-2.3236e-08,-0.17454,1.5561
17273,16.242,0.090909,0,0.00017443,1743.1,5.8628e-05,12.785,5.6926e-05,-0.004132,-0.00017421,-1736.6,1.5558
17274,16.242,0.45455,0,0.00017478,1746.6,5.9056e-05,16.511,5.6858e-05,-0.0082424,-0.0001745,-1738.3,1.557
17275,16.335,0.36364,0,0.00017262,1725,5.8379e-05,16.945,5.6122e-05,-0.011899,-0.00017232,-1716.5,1.571
17276,16.242,0.36364,0.05,7.3508e-07,7.3457,5.6445e-07,4.2411,-6.4147e-12,4.1689e-06,-5.6444e-07,-4.2409,1.5567
17277,16.242,0.63636,0,0.00017463,1745.1,5.8974e-05,16.14,5.6826e-05,-0.0041953,-0.00017435,-1737,1.5575
17278,16.335,0.54545,0,0.00017245,1723.3,5.8288e-05,16.522,5.6088e-05,-0.004791,-0.00017216,-1715,1.5715
17279,16.242,0.54545,0.05,7.8425e-07,7.8371,6.0221e-07,4.5248,-5.1076e-12,6.0728e-06,-6.022e-07,-4.5247,1.5572
17280,16.242,0.81818,0,0.0001745,1743.8,5.8908e-05,15.87,5.6796e-05,-0.0026161,-0.00017422,-1735.8,1.558
17281,16.335,0.72727,0,0.00017231,1722,5.822e-05,16.257,5.6056e-05,-0.003698,-0.00017203,-1713.8,1.572
17282,16.242,0.72727,0.05,7.8764e-07,7.8709,6.0481e-07,4.5444,-4.6826e-12,4.61e-06,-6.048e-07,-4.5442,1.5577
17283,16.242,1,0,0.00017438,1742.6,5.8851e-05,15.644,5.6769e-05,-0.00071484,-0.00017411,-1734.7,1.5584
17284,16.335,0.90909,0,0.00017219,1720.7,5.8162e-05,16.04,5.6027e-05,-0.0015687,-0.00017191,-1712.7,1.5724
17285,16.242,0.90909,0.05,7.8802e-07,7.8748,6.0511e-07,4.5466,-4.229e-12,1.0508e-06,-6.051e-07,-4.5465,1.5582
17286,16.242,1.1818,0,0.00017427,1741.5,5.88e-05,15.454,5.6743e-05,0.00097884,-0.00017401,-1733.8,1.5588
17287,16.335,1.0909,0,0.00017208,1719.6,5.8111e-05,15.861,5.6e-05,0.00017982,-0.00017181,-1711.6,1.5729
17288,16.242,1.0909,0.05,7.882e-07,7.8766,6.0525e-07,4.5476,-5.1609e-12,4.1713e-08,-6.0524e-07,-4.5475,1.5586
17289,16.242,1.3636,0,0.00017418,1740.6,5.8756e-05,15.296,5.6721e-05,0.002575,-0.00017392,-1732.9,1.5592
17290,16.335,1.2727,0,0.00017198,1718.7,5.8066e-05,15.715,5.5975e-05,0.0018743,-0.00017171,-1710.7,1.5732
17291,16.242,1.2727,0.05,7.8835e-07,7.8781,6.0536e-07,4.5485,-4.2552e-12,-6.9273e-08,-6.0535e-07,-4.5483,1.559
17292,16.242,1.5455,0,0.0001741,1739.8,5.8718e-05,15.166,5.67e-05,0.0040281,-0.00017384,-1732.2,1.5595
17293,16.335,1.4545,0,0.0001719,1717.8,5.8028e-05,15.597,5.5953e-05,0.0034169,-0.00017163,-1710,1.5736
17294,16.242,1.4545,0.05,7.8849e-07,7.8794,6.0546e-07,4.5492,-3.7979e-12,3.3867e-07,-6.0546e-07,-4.5491,1.5594
17295,16.242,1.7273,0,0.00017403,1739.1,5.8686e-05,15.06,5.6682e-05,0.0053339,-0.00017377,-1731.5,1.5598
17296,16.335,1.6364,0,0.00017182,1717.1,5.7996e-05,15.504,5.5933e-05,0.0048145,-0.00017156,-1709.3,1.5739
17297,16.242,1.6364,0.05,7.886e-07,7.8806,6.0555e-07,4.5499,-3.7967e-12,7.4936e-07,-6.0555e-07,-4.5498,1.5597
17298,16.242,1.9091,0,0.00017397,1738.5,5.8659e-05,14.975,5.6666e-05,0.0064809,-0.00017371,-1730.9,1.5601
17299,16.335,1.8182,0,0.00017176,1716.4,5.7968e-05,15.431,5.5915e-05,0.0060525,-0.00017149,-1708.6,1.5742
17300,16.242,1.8182,0.05,7.8871e-07,7.8816,6.0563e-07,4.5505,-3.7825e-12,3.9367e-07,-6.0563e-07,-4.5504,1.5599
17301,16.242,2.0909,0,0.00017392,1738,5.8636e-05,14.909,5.6653e-05,0.007461,-0.00017366,-1730.5,1.5603
17302,16.335,2,0,0.00017171,1715.9,5.7946e-05,15.375,5.59e-05,0.0071246,-0.00017144,-1708.1,1.5744
17303,16.242,2,0.05,7.8879e-07,7.8825,6.057e-07,4.551,-3.3102e-12,7.1282e-07,-6.0569e-07,-4.5509,1.5602
17304,16.242,2.2727,0,0.00017388,1737.6,5.8619e-05,14.858,5.6642e-05,0.008269,-0.00017362,-1730.1,1.5605
17305,16.335,2.1818,0,0.00017166,1715.4,5.7927e-05,15.333,5.5888e-05,0.0080231,-0.0001714,-1707.7,1.5746
17306,16.242,2.1818,0.05,7.8887e-07,7.8832,6.0575e-07,4.5514,-2.3843e-12,8.3714e-07,-6.0575e-07,-4.5513,1.5604
17307,16.242,2.4545,0,0.00017384,1737.2,5.8605e-05,14.821,5.6634e-05,0.0089022,-0.00017359,-1729.8,1.5606
17308,16.335,2.3636,0,0.00017163,1715.1,5.7913e-05,15.302,5.5878e-05,0.0087458,-0.00017136,-1707.4,1.5747
17309,16.242,2.3636,0.05,7.8893e-07,7.8838,6.058e-07,4.5518,-1.454e-12,1.3632e-06,-6.058e-07,-4.5517,1.5605
17310,16.242,2.6364,0,0.00017382,1737,5.8596e-05,14.796,5.6628e-05,0.0093566,-0.00017357,-1729.6,1.5607
17311,16.335,2.5455,0,0.0001716,1714.8,5.7903e-05,15.281,5.587e-05,0.0092904,-0.00017133,-1707.1,1.5749
17312,16.242,2.5455,0.05,7.8897e-07,7.8843,6.0583e-07,4.552,-1.8839e-12,1.7775e-06,-6.0583e-07,-4.552,1.5606
17313,16.242,2.8182,0,0.00017381,1736.9,5.859e-05,14.781,5.6624e-05,0.0096287,-0.00017355,-1729.4,1.5608
17314,16.335,2.7273,0,0.00017158,1714.6,5.7896e-05,15.268,5.5865e-05,0.0096543,-0.00017132,-1707,1.5749
17315,16.242,2.7273,0.05,7.89e-07,7.8845,6.0585e-07,4.5522,-3.9479e-14,1.3707e-06,-6.0585e-07,-4.5521,1.5607
17316,16.242,3,0,0.0001738,1736.8,5.8588e-05,14.776,5.6623e-05,0.0097193,-0.00017355,-1729.4,1.5608
17317,16.335,2.9091,0,0.00017157,1714.6,5.7893e-05,15.262,5.5863e-05,0.0098354,-0.00017131,-1706.9,1.575
17318,16.242,2.9091,0.05,7.8901e-07,7.8847,6.0586e-07,4.5522,-4.6811e-13,2.0455e-06,-6.0586e-07,-4.5522,1.5608
17319,16.242,3.1818,0,0.00017381,1736.9,5.859e-05,14.781,5.6624e-05,0.0096286,-0.00017355,-1729.4,1.5608
17320,16.335,3.0909,0,0.00017157,1714.6,5.7893e-05,15.262,5.5863e-05,0.0098351,-0.00017131,-1706.9,1.575
17321,16.242,3.0909,0.05,7.8901e-07,7.8847,6.0586e-07,4.5522,1.3386e-14,1.4118e-06,-6.0586e-07,-4.5522,1.5608
17322,16.242,3.3636,0,0.00017382,1737,5.8596e-05,14.796,5.6628e-05,0.0093561,-0.00017357,-1729.6,1.5607
17323,16.335,3.2727,0,0.00017158,1714.6,5.7896e-05,15.268,5.5865e-05,0.0096543,-0.00017132,-1707,1.5749
17324,16.242,3.2727,0.05,7.89e-07,7.8845,6.0585e-07,4.5521,3.9842e-14,2.6839e-06,-6.0585e-07,-4.5521,1.5607
17325,16.242,3.5455,0,0.00017384,1737.2,5.8605e-05,14.821,5.6634e-05,0.0089022,-0.00017359,-1729.8,1.5606
17326,16.335,3.4545,0,0.0001716,1714.8,5.7903e-05,15.281,5.587e-05,0.0092898,-0.00017133,-1707.1,1.5749
17327,16.242,3.4545,0.05,7.8897e-07,7.8843,6.0583e-07,4.552,1.8844e-12,2.6343e-06,-6.0583e-07,-4.552,1.5606
17328,16.242,3.7273,0,0.00017388,1737.6,5.8619e-05,14.858,5.6642e-05,0.0082697,-0.00017362,-1730.1,1.5605
17329,16.335,3.6364,0,0.00017163,1715.1,5.7913e-05,15.302,5.5878e-05,0.0087456,-0.00017136,-1707.4,1.5747
17330,16.242,3.6364,0.05,7.8893e-07,7.8838,6.058e-07,4.5517,1.0001e-12,3.6516e-06,-6.058e-07,-4.5517,1.5605
17331,16.242,3.9091,0,0.00017392,1738,5.8636e-05,14.909,5.6653e-05,0.0074614,-0.00017366,-1730.5,1.5603
17332,16.335,3.8182,0,0.00017166,1715.4,5.7927e-05,15.333,5.5888e-05,0.0080233,-0.0001714,-1707.7,1.5746
17333,16.242,3.8182,0.05,7.8887e-07,7.8832,6.0575e-07,4.5514,1.9287e-12,4.7678e-06,-6.0575e-07,-4.5514,1.5604
17334,16.242,4.0909,0,0.00017397,1738.5,5.8659e-05,14.976,5.6666e-05,0.0064803,-0.00017371,-1730.9,1.5601
17335,16.335,4,0,0.00017171,1715.9,5.7946e-05,15.375,5.59e-05,0.0071247,-0.00017144,-1708.1,1.5744
17336,16.242,4,0.05,7.8879e-07,7.8825,6.0569e-07,4.5509,1.9489e-12,4.3097e-06,-6.057e-07,-4.551,1.5602
17337,16.242,4.2727,0,0.00017403,1739.1,5.8686e-05,15.06,5.6682e-05,0.0053334,-0.00017377,-1731.5,1.5598
17338,16.335,4.1818,0,0.00017176,1716.4,5.7968e-05,15.431,5.5915e-05,0.0060529,-0.00017149,-1708.6,1.5742
17339,16.242,4.1818,0.05,7.8871e-07,7.8816,6.0563e-07,4.5504,1.9645e-12,3.3593e-06,-6.0563e-07,-4.5505,1.5599
17340,16.242,4.4545,0,0.0001741,1739.8,5.8718e-05,15.166,5.67e-05,0.0040283,-0.00017384,-1732.2,1.5595
17341,16.335,4.3636,0,0.00017182,1717.1,5.7996e-05,15.504,5.5933e-05,0.0048142,-0.00017156,-1709.3,1.5739
17342,16.242,4.3636,0.05,7.886e-07,7.8806,6.0555e-07,4.5498,3.3325e-12,5.1948e-06,-6.0555e-07,-4.5499,1.5597
17343,16.242,4.6364,0,0.00017418,1740.6,5.8756e-05,15.296,5.6721e-05,0.0025742,-0.00017392,-1732.9,1.5592
17344,16.335,4.5455,0,0.0001719,1717.8,5.8028e-05,15.597,5.5953e-05,0.0034171,-0.00017163,-1710,1.5736
17345,16.242,4.5455,0.05,7.8849e-07,7.8794,6.0546e-07,4.5491,3.3433e-12,4.047e-06,-6.0546e-07,-4.5492,1.5594
17346,16.242,4.8182,0,0.00017427,1741.5,5.88e-05,15.454,5.6743e-05,0.00097728,-0.00017401,-1733.8,1.5588
17347,16.335,4.7273,0,0.00017198,1718.7,5.8066e-05,15.715,5.5975e-05,0.0018738,-0.00017171,-1710.7,1.5732
17348,16.242,4.7273,0.05,7.8835e-07,7.8781,6.0535e-07,4.5484,3.7983e-12,4.8106e-06,-6.0536e-07,-4.5485,1.559
17349,16.242,5,0,0.00017438,1742.6,5.8851e-05,15.644,5.6769e-05,-0.00071624,-0.00017411,-1734.7,1.5584
17350,16.335,4.9091,0,0.00017208,1719.6,5.8111e-05,15.861,5.6e-05,0.00017852,-0.00017181,-1711.6,1.5729
17351,16.242,4.9091,0.05,7.882e-07,7.8766,6.0524e-07,4.5475,3.7846e-12,4.8433e-06,-6.0525e-07,-4.5476,1.5586
17352,16.242,5.1818,0,0.0001745,1743.8,5.8908e-05,15.87,5.6796e-05,-0.0026174,-0.00017422,-1735.8,1.558
17353,16.335,5.0909,0,0.00017219,1720.7,5.8162e-05,16.04,5.6027e-05,-0.0015705,-0.00017191,-1712.7,1.5724
17354,16.242,5.0909,0.05,7.8802e-07,7.8748,6.051e-07,4.5465,4.6959e-12,3.4568e-06,-6.0511e-07,-4.5466,1.5582
17355,16.242,5.3636,0,0.00017463,1745.1,5.8974e-05,16.14,5.6826e-05,-0.0041968,-0.00017435,-1737,1.5575
17356,16.335,5.2727,0,0.00017231,1722,5.822e-05,16.257,5.6056e-05,-0.0036995,-0.00017203,-1713.8,1.572
17357,16.242,5.2727,0.05,7.8764e-07,7.8709,6.048e-07,4.5442,5.1258e-12,4.2884e-06,-6.0481e-07,-4.5444,1.5577
17358,16.242,5.5455,0,0.00017478,1746.6,5.9056e-05,16.511,5.6858e-05,-0.008243,-0.0001745,-1738.3,1.557
17359,16.335,5.4545,0,0.00017245,1723.3,5.8288e-05,16.522,5.6088e-05,-0.0047916,-0.00017216,-1715,1.5715
17360,16.242,5.4545,0.05,7.8425e-07,7.8371,6.022e-07,4.5247,5.5402e-12,4.6218e-06,-6.0221e-07,-4.5248,1.5572
17361,16.242,5.7273,0,0.0001751,1749.8,5.9277e-05,17.91,5.6893e-05,-0.006627,-0.00017479,-1740.8,1.5564
17362,16.335,5.6364,0,0.00017262,1725,5.8379e-05,16.946,5.6122e-05,-0.011898,-0.00017232,-1716.5,1.571
17363,16.242,5.6364,0.05,7.3508e-07,7.3457,5.6444e-07,4.241,5.5321e-12,5.2692e-06,-5.6445e-07,-4.2411,1.5567
17364,16.335,5.8182,0,0.0001731,1729.8,5.8739e-05,19.378,5.616e-05,4.2048e-05,-0.00017276,-1720,1.5704
17365,16.242,5.8182,0.05,3.0258e-08,0.30237,2.3237e-08,0.17455,-8.2935e-12,-0.00012411,-2.3232e-08,-0.1746,1.5561
17366,16.242,5.9091,0,0.00017443,1743.1,5.8628e-05,12.785,5.6926e-05,-0.0041339,-0.00017421,-1736.6,1.5558
17367,16.427,0.27273,0,0.0001706,1704.8,5.7823e-05,18.279,5.5389e-05,-0.0068757,-0.00017028,-1695.6,1.585
17368,16.519,0.18182,0,0.00016861,1684.9,5.7287e-05,19.736,5.4661e-05,0.00013029,-0.00016827,-1675,1.599
17369,16.427,0.18182,0.05,3.0894e-08,0.30872,2.372e-08,0.17827,1.1823e-11,0.00014913,-2.3725e-08,-0.17821,1.5847
17370,16.427,0.090909,0,0.00016991,1698,5.7158e-05,13.018,5.5425e-05,-0.004261,-0.00016969,-1691.4,1.5844
17371,16.427,0.45455,0,0.00017028,1701.6,5.7605e-05,16.921,5.5352e-05,-0.0085658,-0.00016999,-1693.1,1.5855
17372,16.519,0.36364,0,0.00016813,1680.1,5.6929e-05,17.33,5.462e-05,-0.012415,-0.00016783,-1671.4,1.5995
17373,16.427,0.36364,0.05,7.3202e-07,7.3151,5.621e-07,4.2235,-5.1124e-12,4.8796e-06,-5.6209e-07,-4.2233,1.5852
17374,16.427,0.63636,0,0.00017013,1700.1,5.7529e-05,16.607,5.5318e-05,-0.0043039,-0.00016984,-1691.8,1.586
17375,16.519,0.54545,0,0.00016796,1678.5,5.6843e-05,16.964,5.4585e-05,-0.0049337,-0.00016767,-1669.9,1.6001
17376,16.427,0.54545,0.05,7.8093e-07,7.8039,5.9967e-07,4.5057,-4.6573e-12,5.0332e-06,-5.9965e-07,-4.5055,1.5857
17377,16.427,0.81818,0,0.00017,1698.9,5.7469e-05,16.395,5.5287e-05,-0.0026472,-0.00016972,-1690.6,1.5865
17378,16.519,0.72727,0,0.00016783,1677.1,5.6782e-05,16.757,5.4551e-05,-0.0037847,-0.00016754,-1668.7,1.6005
17379,16.427,0.72727,0.05,7.843e-07,7.8376,6.0225e-07,4.5251,-4.6785e-12,4.1889e-06,-6.0224e-07,-4.525,1.5862
17380,16.427,1,0,0.00016989,1697.7,5.7417e-05,16.226,5.5258e-05,-0.00066321,-0.00016961,-1689.6,1.5869
17381,16.519,0.90909,0,0.00016771,1675.9,5.6729e-05,16.599,5.452e-05,-0.0015567,-0.00016742,-1667.6,1.601
17382,16.427,0.90909,0.05,7.8469e-07,7.8415,6.0255e-07,4.5273,-4.7142e-12,2.2894e-06,-6.0254e-07,-4.5272,1.5867
17383,16.427,1.1818,0,0.00016979,1696.7,5.7373e-05,16.091,5.5231e-05,0.0010926,-0.00016951,-1688.6,1.5873
17384,16.519,1.0909,0,0.0001676,1674.9,5.6684e-05,16.477,5.4491e-05,0.00026063,-0.00016732,-1666.6,1.6014
17385,16.427,1.0909,0.05,7.8487e-07,7.8432,6.0268e-07,4.5284,-4.7329e-12,6.8962e-07,-6.0267e-07,-4.5282,1.5871
17386,16.427,1.3636,0,0.0001697,1695.8,5.7334e-05,15.985,5.5207e-05,0.0027394,-0.00016942,-1687.8,1.5877
17387,16.519,1.2727,0,0.00016751,1673.9,5.6645e-05,16.385,5.4465e-05,0.0020146,-0.00016723,-1665.7,1.6018
17388,16.427,1.2727,0.05,7.8501e-07,7.8447,6.028e-07,4.5292,-4.2722e-12,6.3284e-07,-6.0279e-07,-4.5291,1.5875
17389,16.427,1.5455,0,0.00016962,1695,5.7301e-05,15.904,5.5185e-05,0.0042318,-0.00016934,-1687,1.588
17390,16.519,1.4545,0,0.00016743,1673.1,5.6613e-05,16.319,5.4441e-05,0.003602,-0.00016714,-1664.9,1.6021
17391,16.427,1.4545,0.05,7.8515e-07,7.8461,6.029e-07,4.53,-3.8119e-12,9.3477e-07,-6.0289e-07,-4.5299,1.5878
17392,16.427,1.7273,0,0.00016955,1694.3,5.7274e-05,15.843,5.5166e-05,0.0055662,-0.00016928,-1686.4,1.5883
17393,16.519,1.6364,0,0.00016736,1672.4,5.6585e-05,16.273,5.442e-05,0.0050338,-0.00016707,-1664.2,1.6024
17394,16.427,1.6364,0.05,7.8527e-07,7.8472,6.0299e-07,4.5306,-3.8042e-12,1.613e-06,-6.0298e-07,-4.5306,1.5881
17395,16.427,1.9091,0,0.00016949,1693.8,5.7251e-05,15.799,5.5149e-05,0.0067333,-0.00016922,-1685.8,1.5885
17396,16.519,1.8182,0,0.0001673,1671.8,5.6562e-05,16.243,5.4402e-05,0.0062963,-0.00016701,-1663.6,1.6027
17397,16.427,1.8182,0.05,7.8537e-07,7.8483,6.0307e-07,4.5312,-3.3383e-12,1.1884e-06,-6.0306e-07,-4.5311,1.5884
17398,16.427,2.0909,0,0.00016945,1693.3,5.7232e-05,15.767,5.5135e-05,0.0077271,-0.00016917,-1685.3,1.5887
17399,16.519,2,0,0.00016724,1671.3,5.6544e-05,16.225,5.4386e-05,0.0073842,-0.00016696,-1663.1,1.6029
17400,16.427,2,0.05,7.8545e-07,7.8491,6.0313e-07,4.5317,-2.4126e-12,1.9401e-06,-6.0313e-07,-4.5317,1.5886
17401,16.427,2.2727,0,0.00016941,1692.9,5.7218e-05,15.745,5.5123e-05,0.0085431,-0.00016913,-1685,1.5889
17402,16.519,2.1818,0,0.0001672,1670.9,5.6529e-05,16.215,5.4372e-05,0.0082936,-0.00016692,-1662.7,1.6031
17403,16.427,2.1818,0.05,7.8553e-07,7.8499,6.0319e-07,4.5321,-2.3925e-12,2.1945e-06,-6.0318e-07,-4.5321,1.5888
17404,16.427,2.4545,0,0.00016938,1692.6,5.7207e-05,15.731,5.5114e-05,0.0091793,-0.0001691,-1684.7,1.589
17405,16.519,2.3636,0,0.00016717,1670.5,5.6518e-05,16.211,5.4362e-05,0.0090233,-0.00016689,-1662.4,1.6032
17406,16.427,2.3636,0.05,7.8559e-07,7.8504,6.0323e-07,4.5325,-1.9162e-12,2.7289e-06,-6.0323e-07,-4.5324,1.5889
17407,16.427,2.6364,0,0.00016936,1692.4,5.7199e-05,15.723,5.5108e-05,0.009635,-0.00016908,-1684.5,1.5891
17408,16.519,2.5455,0,0.00016714,1670.3,5.651e-05,16.211,5.4353e-05,0.0095697,-0.00016686,-1662.1,1.6033
17409,16.427,2.5455,0.05,7.8563e-07,7.8509,6.0326e-07,4.5327,-1.435e-12,3.1687e-06,-6.0327e-07,-4.5327,1.5891
17410,16.427,2.8182,0,0.00016934,1692.3,5.7194e-05,15.718,5.5104e-05,0.0099087,-0.00016907,-1684.3,1.5892
17411,16.519,2.7273,0,0.00016713,1670.1,5.6504e-05,16.211,5.4348e-05,0.0099353,-0.00016685,-1662,1.6034
17412,16.427,2.7273,0.05,7.8566e-07,7.8512,6.0329e-07,4.5329,-4.9798e-13,2.5376e-06,-6.0329e-07,-4.5329,1.5891
17413,16.427,3,0,0.00016934,1692.2,5.7193e-05,15.717,5.5103e-05,0.0099993,-0.00016907,-1684.3,1.5892
17414,16.519,2.9091,0,0.00016712,1670,5.6502e-05,16.212,5.4345e-05,0.010118,-0.00016684,-1661.9,1.6034
17415,16.427,2.9091,0.05,7.8567e-07,7.8513,6.033e-07,4.533,-1.4573e-14,3.7054e-06,-6.033e-07,-4.533,1.5892
17416,16.427,3.1818,0,0.00016934,1692.3,5.7194e-05,15.718,5.5104e-05,0.0099086,-0.00016907,-1684.3,1.5892
17417,16.519,3.0909,0,0.00016712,1670,5.6502e-05,16.212,5.4345e-05,0.010118,-0.00016684,-1661.9,1.6034
17418,16.427,3.0909,0.05,7.8567e-07,7.8513,6.033e-07,4.533,1.4556e-14,2.8511e-06,-6.033e-07,-4.533,1.5892
17419,16.427,3.3636,0,0.00016936,1692.4,5.7199e-05,15.723,5.5108e-05,0.0096349,-0.00016908,-1684.5,1.5891
17420,16.519,3.2727,0,0.00016713,1670.1,5.6504e-05,16.211,5.4348e-05,0.0099361,-0.00016685,-1662,1.6034
17421,16.427,3.2727,0.05,7.8566e-07,7.8512,6.0329e-07,4.5329,4.3461e-14,4.1392e-06,-6.0329e-07,-4.5329,1.5891
17422,16.427,3.5455,0,0.00016938,1692.6,5.7207e-05,15.731,5.5114e-05,0.0091786,-0.0001691,-1684.7,1.589
17423,16.519,3.4545,0,0.00016714,1670.3,5.651e-05,16.211,5.4353e-05,0.0095698,-0.00016686,-1662.1,1.6033
17424,16.427,3.4545,0.05,7.8563e-07,7.8509,6.0327e-07,4.5327,9.8058e-13,4.1152e-06,-6.0327e-07,-4.5327,1.5891
17425,16.427,3.7273,0,0.00016941,1692.9,5.7218e-05,15.745,5.5123e-05,0.0085424,-0.00016913,-1685,1.5889
17426,16.519,3.6364,0,0.00016717,1670.5,5.6518e-05,16.211,5.4362e-05,0.0090226,-0.00016689,-1662.4,1.6032
17427,16.427,3.6364,0.05,7.8559e-07,7.8504,6.0323e-07,4.5324,1.9163e-12,5.1265e-06,-6.0323e-07,-4.5325,1.5889
17428,16.427,3.9091,0,0.00016945,1693.3,5.7232e-05,15.767,5.5135e-05,0.0077269,-0.00016917,-1685.3,1.5887
17429,16.519,3.8182,0,0.0001672,1670.9,5.6529e-05,16.215,5.4372e-05,0.0082934,-0.00016692,-1662.7,1.6031
17430,16.427,3.8182,0.05,7.8553e-07,7.8499,6.0319e-07,4.5321,1.9382e-12,5.7946e-06,-6.0319e-07,-4.5321,1.5888
17431,16.427,4.0909,0,0.00016949,1693.8,5.7251e-05,15.799,5.5149e-05,0.0067344,-0.00016922,-1685.8,1.5885
17432,16.519,4,0,0.00016724,1671.3,5.6544e-05,16.225,5.4386e-05,0.0073849,-0.00016696,-1663.1,1.6029
17433,16.427,4,0.05,7.8545e-07,7.8491,6.0313e-07,4.5317,1.9598e-12,6.0752e-06,-6.0313e-07,-4.5317,1.5886
17434,16.427,4.2727,0,0.00016955,1694.3,5.7274e-05,15.843,5.5166e-05,0.0055668,-0.00016928,-1686.4,1.5883
17435,16.519,4.1818,0,0.0001673,1671.8,5.6562e-05,16.243,5.4402e-05,0.0062968,-0.00016701,-1663.6,1.6027
17436,16.427,4.1818,0.05,7.8537e-07,7.8483,6.0306e-07,4.5312,1.9779e-12,5.2537e-06,-6.0307e-07,-4.5312,1.5884
17437,16.427,4.4545,0,0.00016962,1695,5.7301e-05,15.904,5.5185e-05,0.0042314,-0.00016934,-1687,1.588
17438,16.519,4.3636,0,0.00016736,1672.4,5.6585e-05,16.273,5.442e-05,0.0050338,-0.00016707,-1664.2,1.6024
17439,16.427,4.3636,0.05,7.8527e-07,7.8472,6.0298e-07,4.5306,2.445e-12,6.7295e-06,-6.0299e-07,-4.5306,1.5881
17440,16.427,4.6364,0,0.0001697,1695.8,5.7334e-05,15.985,5.5207e-05,0.0027399,-0.00016942,-1687.8,1.5877
17441,16.519,4.5455,0,0.00016743,1673.1,5.6613e-05,16.319,5.4441e-05,0.0036017,-0.00016714,-1664.9,1.6021
17442,16.427,4.5455,0.05,7.8515e-07,7.8461,6.0289e-07,4.5299,2.904e-12,5.3616e-06,-6.029e-07,-4.53,1.5878
17443,16.427,4.8182,0,0.00016979,1696.7,5.7373e-05,16.091,5.5231e-05,0.0010924,-0.00016951,-1688.6,1.5873
17444,16.519,4.7273,0,0.00016751,1673.9,5.6645e-05,16.385,5.4465e-05,0.0020145,-0.00016723,-1665.7,1.6018
17445,16.427,4.7273,0.05,7.8501e-07,7.8447,6.0279e-07,4.5291,3.3538e-12,6.4699e-06,-6.028e-07,-4.5292,1.5875
17446,16.427,5,0,0.00016989,1697.7,5.7417e-05,16.226,5.5258e-05,-0.00066489,-0.00016961,-1689.6,1.5869
17447,16.519,4.9091,0,0.0001676,1674.9,5.6684e-05,16.477,5.4491e-05,0.00025999,-0.00016732,-1666.6,1.6014
17448,16.427,4.9091,0.05,7.8487e-07,7.8432,6.0268e-07,4.5282,3.8043e-12,6.3217e-06,-6.0268e-07,-4.5284,1.5871
17449,16.427,5.1818,0,0.00017,1698.9,5.7469e-05,16.395,5.5287e-05,-0.0026492,-0.00016972,-1690.6,1.5865
17450,16.519,5.0909,0,0.00016771,1675.9,5.6729e-05,16.599,5.452e-05,-0.0015587,-0.00016742,-1667.6,1.601
17451,16.427,5.0909,0.05,7.8469e-07,7.8415,6.0254e-07,4.5272,4.7052e-12,5.1916e-06,-6.0255e-07,-4.5273,1.5867
17452,16.427,5.3636,0,0.00017013,1700.1,5.7529e-05,16.607,5.5318e-05,-0.0043045,-0.00016984,-1691.8,1.586
17453,16.519,5.2727,0,0.00016783,1677.1,5.6782e-05,16.757,5.4551e-05,-0.0037865,-0.00016754,-1668.7,1.6005
17454,16.427,5.2727,0.05,7.843e-07,7.8376,6.0224e-07,4.525,4.6678e-12,6.0847e-06,-6.0225e-07,-4.5251,1.5862
17455,16.427,5.5455,0,0.00017028,1701.6,5.7605e-05,16.921,5.5352e-05,-0.0085648,-0.00016999,-1693.1,1.5855
17456,16.519,5.4545,0,0.00016796,1678.5,5.6843e-05,16.965,5.4585e-05,-0.0049327,-0.00016767,-1669.9,1.6001
17457,16.427,5.4545,0.05,7.8093e-07,7.8039,5.9965e-07,4.5055,5.1031e-12,5.7846e-06,-5.9966e-07,-4.5057,1.5857
17458,16.427,5.7273,0,0.0001706,1704.8,5.7823e-05,18.279,5.5389e-05,-0.0068747,-0.00017028,-1695.6,1.585
17459,16.519,5.6364,0,0.00016813,1680.1,5.6929e-05,17.33,5.462e-05,-0.012415,-0.00016783,-1671.4,1.5995
17460,16.427,5.6364,0.05,7.3202e-07,7.3151,5.6209e-07,4.2233,5.5391e-12,6.7907e-06,-5.621e-07,-4.2235,1.5852
17461,16.519,5.8182,0,0.00016861,1684.9,5.7287e-05,19.736,5.4661e-05,0.00013118,-0.00016827,-1675,1.599
17462,16.427,5.8182,0.05,3.0894e-08,0.30873,2.3726e-08,0.17822,-1.0605e-11,-0.00012283,-2.372e-08,-0.17826,1.5847
17463,16.427,5.9091,0,0.00016991,1698,5.7158e-05,13.018,5.5425e-05,-0.0042602,-0.00016969,-1691.4,1.5844
17464,16.612,0.27273,0,0.00016612,1660,5.6375e-05,18.652,5.3892e-05,-0.0071413,-0.00016579,-1650.6,1.6136
17465,16.704,0.18182,0,0.00016414,1640.3,5.5843e-05,20.099,5.3168e-05,0.0002075,-0.00016379,-1630.1,1.6277
17466,16.612,0.18182,0.05,3.1499e-08,0.31478,2.4184e-08,0.18176,1.3307e-11,0.00014474,-2.4191e-08,-0.18172,1.6133
17467,16.612,0.090909,0,0.00016542,1653,5.5694e-05,13.254,5.3929e-05,-0.0043969,-0.00016519,-1646.4,1.613
17468,16.612,0.45455,0,0.0001658,1656.9,5.6162e-05,17.337,5.3853e-05,-0.0089033,-0.0001655,-1648.1,1.6141
17469,16.704,0.36364,0,0.00016366,1635.4,5.5486e-05,17.721,5.3125e-05,-0.012954,-0.00016335,-1626.5,1.6282
17470,16.612,0.36364,0.05,7.29e-07,7.285,5.5979e-07,4.2061,-5.5561e-12,4.1741e-06,-5.5978e-07,-4.2059,1.6139
17471,16.612,0.63636,0,0.00016565,1655.4,5.6091e-05,17.082,5.3817e-05,-0.0044214,-0.00016536,-1646.8,1.6146
17472,16.704,0.54545,0,0.00016349,1633.8,5.5406e-05,17.413,5.3088e-05,-0.0050862,-0.00016319,-1625,1.6287
17473,16.612,0.54545,0.05,7.7765e-07,7.7711,5.9714e-07,4.4867,-5.1358e-12,2.754e-06,-5.9713e-07,-4.4866,1.6144
17474,16.612,0.81818,0,0.00016553,1654.2,5.6038e-05,16.929,5.3784e-05,-0.0026871,-0.00016524,-1645.6,1.6151
17475,16.704,0.72727,0,0.00016336,1632.5,5.5351e-05,17.266,5.3052e-05,-0.00388,-0.00016306,-1623.8,1.6292
17476,16.612,0.72727,0.05,7.81e-07,7.8046,5.9972e-07,4.5061,-5.6202e-12,1.6443e-06,-5.9971e-07,-4.5059,1.6148
17477,16.612,1,0,0.00016542,1653.1,5.5992e-05,16.818,5.3753e-05,-0.0006183,-0.00016513,-1644.6,1.6155
17478,16.704,0.90909,0,0.00016325,1631.4,5.5304e-05,17.168,5.3019e-05,-0.0015525,-0.00016295,-1622.7,1.6296
17479,16.612,0.90909,0.05,7.8139e-07,7.8085,6.0001e-07,4.5083,-5.1904e-12,1.968e-06,-6e-07,-4.5082,1.6153
17480,16.612,1.1818,0,0.00016532,1652.1,5.5953e-05,16.739,5.3725e-05,0.0012035,-0.00016503,-1643.6,1.6159
17481,16.704,1.0909,0,0.00016315,1630.3,5.5265e-05,17.104,5.2989e-05,0.00033685,-0.00016285,-1621.7,1.63
17482,16.612,1.0909,0.05,7.8156e-07,7.8103,6.0015e-07,4.5093,-5.1761e-12,1.7467e-06,-6.0014e-07,-4.5092,1.6157
17483,16.612,1.3636,0,0.00016524,1651.2,5.592e-05,16.687,5.3699e-05,0.0029037,-0.00016495,-1642.8,1.6162
17484,16.704,1.2727,0,0.00016306,1629.4,5.5233e-05,17.068,5.2961e-05,0.0021518,-0.00016276,-1620.8,1.6304
17485,16.612,1.2727,0.05,7.8171e-07,7.8117,6.0027e-07,4.5102,-3.8177e-12,2.0224e-06,-6.0025e-07,-4.5101,1.6161
17486,16.612,1.5455,0,0.00016516,1650.5,5.5892e-05,16.655,5.3676e-05,0.0044354,-0.00016487,-1642.1,1.6166
17487,16.704,1.4545,0,0.00016298,1628.7,5.5205e-05,17.054,5.2936e-05,0.003786,-0.00016268,-1620.1,1.6307
17488,16.612,1.4545,0.05,7.8185e-07,7.8131,6.0037e-07,4.5109,-3.3651e-12,1.919e-06,-6.0036e-07,-4.5108,1.6164
17489,16.612,1.7273,0,0.0001651,1649.8,5.587e-05,16.64,5.3656e-05,0.0057994,-0.00016481,-1641.4,1.6168
17490,16.704,1.6364,0,0.00016291,1628,5.5183e-05,17.057,5.2914e-05,0.0052525,-0.00016261,-1619.4,1.631
17491,16.612,1.6364,0.05,7.8197e-07,7.8143,6.0046e-07,4.5116,-2.4482e-12,2.7152e-06,-6.0045e-07,-4.5115,1.6167
17492,16.612,1.9091,0,0.00016504,1649.3,5.5851e-05,16.637,5.3638e-05,0.0069862,-0.00016475,-1640.9,1.6171
17493,16.704,1.8182,0,0.00016285,1627.4,5.5165e-05,17.072,5.2894e-05,0.00654,-0.00016255,-1618.8,1.6313
17494,16.612,1.8182,0.05,7.8207e-07,7.8153,6.0053e-07,4.5122,-3.8002e-12,2.59e-06,-6.0053e-07,-4.5121,1.6169
17495,16.612,2.0909,0,0.000165,1648.8,5.5837e-05,16.641,5.3623e-05,0.0079927,-0.00016471,-1640.4,1.6173
17496,16.704,2,0,0.0001628,1626.9,5.5151e-05,17.093,5.2877e-05,0.0076451,-0.00016251,-1618.3,1.6315
17497,16.612,2,0.05,7.8216e-07,7.8162,6.006e-07,4.5127,-2.8759e-12,2.9495e-06,-6.006e-07,-4.5126,1.6172
17498,16.612,2.2727,0,0.00016496,1648.5,5.5825e-05,16.65,5.361e-05,0.0088181,-0.00016467,-1640.1,1.6174
17499,16.704,2.1818,0,0.00016276,1626.5,5.514e-05,17.117,5.2863e-05,0.0085667,-0.00016247,-1617.9,1.6317
17500,16.612,2.1818,0.05,7.8223e-07,7.8169,6.0066e-07,4.5131,-2.3986e-12,3.4612e-06,-6.0065e-07,-4.513,1.6173
17501,16.612,2.4545,0,0.00016493,1648.2,5.5817e-05,16.659,5.3601e-05,0.0094597,-0.00016464,-1639.8,1.6176
17502,16.704,2.3636,0,0.00016273,1626.2,5.5131e-05,17.141,5.2851e-05,0.0093025,-0.00016243,-1617.6,1.6318
17503,16.612,2.3636,0.05,7.8229e-07,7.8175,6.007e-07,4.5134,-1.4647e-12,4.2339e-06,-6.007e-07,-4.5134,1.6175
17504,16.612,2.6364,0,0.00016491,1648,5.5811e-05,16.668,5.3594e-05,0.0099173,-0.00016462,-1639.6,1.6177
17505,16.704,2.5455,0,0.00016271,1626,5.5125e-05,17.161,5.2843e-05,0.0098544,-0.00016241,-1617.3,1.6319
17506,16.612,2.5455,0.05,7.8233e-07,7.8179,6.0073e-07,4.5137,-1.4382e-12,4.4485e-06,-6.0073e-07,-4.5137,1.6176
17507,16.612,2.8182,0,0.0001649,1647.9,5.5807e-05,16.673,5.359e-05,0.010192,-0.00016461,-1639.5,1.6177
17508,16.704,2.7273,0,0.00016269,1625.8,5.5122e-05,17.176,5.2837e-05,0.010221,-0.0001624,-1617.2,1.632
17509,16.612,2.7273,0.05,7.8236e-07,7.8182,6.0075e-07,4.5138,-9.5508e-13,3.3551e-06,-6.0075e-07,-4.5138,1.6177
17510,16.612,3,0,0.0001649,1647.8,5.5806e-05,16.676,5.3588e-05,0.010284,-0.00016461,-1639.4,1.6177
17511,16.704,2.9091,0,0.00016269,1625.7,5.512e-05,17.183,5.2834e-05,0.010404,-0.00016239,-1617.1,1.632
17512,16.612,2.9091,0.05,7.8237e-07,7.8183,6.0076e-07,4.5139,-9.2482e-13,4.5342e-06,-6.0077e-07,-4.5139,1.6177
17513,16.612,3.1818,0,0.0001649,1647.9,5.5807e-05,16.673,5.359e-05,0.010193,-0.00016461,-1639.5,1.6177
17514,16.704,3.0909,0,0.00016269,1625.7,5.512e-05,17.183,5.2834e-05,0.010405,-0.00016239,-1617.1,1.632
17515,16.612,3.0909,0.05,7.8237e-07,7.8183,6.0076e-07,4.5139,-4.3941e-13,4.4069e-06,-6.0076e-07,-4.5139,1.6177
17516,16.612,3.3636,0,0.00016491,1648,5.5811e-05,16.668,5.3594e-05,0.0099183,-0.00016462,-1639.6,1.6177
17517,16.704,3.2727,0,0.00016269,1625.8,5.5122e-05,17.176,5.2837e-05,0.010222,-0.0001624,-1617.2,1.632
17518,16.612,3.2727,0.05,7.8236e-07,7.8182,6.0075e-07,4.5138,5.004e-13,5.4674e-06,-6.0075e-07,-4.5138,1.6177
17519,16.612,3.5455,0,0.00016493,1648.2,5.5817e-05,16.659,5.3601e-05,0.0094599,-0.00016464,-1639.8,1.6176
17520,16.704,3.4545,0,0.00016271,1626,5.5125e-05,17.161,5.2843e-05,0.0098543,-0.00016241,-1617.3,1.6319
17521,16.612,3.4545,0.05,7.8233e-07,7.8179,6.0073e-07,4.5137,9.8442e-13,5.8059e-06,-6.0073e-07,-4.5137,1.6176
17522,16.612,3.7273,0,0.00016496,1648.5,5.5825e-05,16.65,5.361e-05,0.0088179,-0.00016467,-1640.1,1.6174
17523,16.704,3.6364,0,0.00016273,1626.2,5.5131e-05,17.141,5.2851e-05,0.0093027,-0.00016243,-1617.6,1.6318
17524,16.612,3.6364,0.05,7.8229e-07,7.8175,6.007e-07,4.5134,1.0123e-12,6.8392e-06,-6.007e-07,-4.5134,1.6175
17525,16.612,3.9091,0,0.000165,1648.8,5.5837e-05,16.641,5.3623e-05,0.0079933,-0.00016471,-1640.4,1.6173
17526,16.704,3.8182,0,0.00016276,1626.5,5.514e-05,17.117,5.2863e-05,0.0085659,-0.00016247,-1617.9,1.6317
17527,16.612,3.8182,0.05,7.8223e-07,7.8169,6.0065e-07,4.5131,1.9465e-12,7.6392e-06,-6.0066e-07,-4.5131,1.6173
17528,16.612,4.0909,0,0.00016504,1649.3,5.5851e-05,16.637,5.3638e-05,0.0069864,-0.00016475,-1640.9,1.6171
17529,16.704,4,0,0.0001628,1626.9,5.5151e-05,17.093,5.2877e-05,0.0076454,-0.00016251,-1618.3,1.6315
17530,16.612,4,0.05,7.8215e-07,7.8162,6.006e-07,4.5127,1.9671e-12,7.0725e-06,-6.006e-07,-4.5127,1.6172
17531,16.612,4.2727,0,0.0001651,1649.8,5.587e-05,16.64,5.3656e-05,0.0057994,-0.00016481,-1641.4,1.6168
17532,16.704,4.1818,0,0.00016285,1627.4,5.5165e-05,17.072,5.2894e-05,0.0065392,-0.00016255,-1618.8,1.6313
17533,16.612,4.1818,0.05,7.8207e-07,7.8153,6.0053e-07,4.5121,1.9825e-12,6.4713e-06,-6.0053e-07,-4.5122,1.6169
17534,16.612,4.4545,0,0.00016516,1650.5,5.5892e-05,16.655,5.3676e-05,0.0044355,-0.00016487,-1642.1,1.6166
17535,16.704,4.3636,0,0.00016291,1628,5.5183e-05,17.057,5.2914e-05,0.0052525,-0.00016261,-1619.4,1.631
17536,16.612,4.3636,0.05,7.8197e-07,7.8143,6.0045e-07,4.5115,2.9073e-12,8.4916e-06,-6.0045e-07,-4.5116,1.6167
17537,16.612,4.6364,0,0.00016524,1651.2,5.592e-05,16.687,5.3699e-05,0.0029029,-0.00016495,-1642.8,1.6162
17538,16.704,4.5455,0,0.00016298,1628.7,5.5205e-05,17.054,5.2936e-05,0.0037852,-0.00016268,-1620.1,1.6307
17539,16.612,4.5455,0.05,7.8185e-07,7.8131,6.0036e-07,4.5108,1.9938e-12,6.4411e-06,-6.0036e-07,-4.5109,1.6164
17540,16.612,4.8182,0,0.00016532,1652.1,5.5953e-05,16.739,5.3725e-05,0.001203,-0.00016503,-1643.6,1.6159
17541,16.704,4.7273,0,0.00016306,1629.4,5.5233e-05,17.068,5.2961e-05,0.0021508,-0.00016276,-1620.8,1.6304
17542,16.612,4.7273,0.05,7.8171e-07,7.8117,6.0026e-07,4.5101,3.8211e-12,7.5731e-06,-6.0026e-07,-4.5102,1.6161
17543,16.612,5,0,0.00016542,1653.1,5.5992e-05,16.818,5.3753e-05,-0.00061921,-0.00016513,-1644.6,1.6155
17544,16.704,4.9091,0,0.00016315,1630.3,5.5265e-05,17.104,5.2989e-05,0.00033711,-0.00016285,-1621.7,1.63
17545,16.612,4.9091,0.05,7.8156e-07,7.8103,6.0014e-07,4.5092,3.8093e-12,7.9756e-06,-6.0015e-07,-4.5093,1.6157
17546,16.612,5.1818,0,0.00016553,1654.2,5.6038e-05,16.929,5.3784e-05,-0.0026889,-0.00016524,-1645.6,1.6151
17547,16.704,5.0909,0,0.00016325,1631.4,5.5304e-05,17.168,5.3019e-05,-0.0015543,-0.00016295,-1622.7,1.6296
17548,16.612,5.0909,0.05,7.8139e-07,7.8085,6e-07,4.5082,3.794e-12,6.0934e-06,-6.0001e-07,-4.5083,1.6153
17549,16.612,5.3636,0,0.00016565,1655.4,5.6091e-05,17.082,5.3817e-05,-0.0044217,-0.00016536,-1646.8,1.6146
17550,16.704,5.2727,0,0.00016336,1632.5,5.5351e-05,17.266,5.3052e-05,-0.003882,-0.00016306,-1623.8,1.6292
17551,16.612,5.2727,0.05,7.81e-07,7.8046,5.9971e-07,4.5059,4.2343e-12,7.1466e-06,-5.9972e-07,-4.5061,1.6148
17552,16.612,5.5455,0,0.0001658,1656.9,5.6162e-05,17.337,5.3853e-05,-0.0089027,-0.0001655,-1648.1,1.6141
17553,16.704,5.4545,0,0.00016349,1633.8,5.5406e-05,17.413,5.3088e-05,-0.0050851,-0.00016319,-1625,1.6287
17554,16.612,5.4545,0.05,7.7765e-07,7.7711,5.9713e-07,4.4866,5.1099e-12,6.473e-06,-5.9714e-07,-4.4867,1.6144
17555,16.612,5.7273,0,0.00016612,1660,5.6375e-05,18.652,5.3892e-05,-0.0071407,-0.00016579,-1650.6,1.6136
17556,16.704,5.6364,0,0.00016366,1635.4,5.5486e-05,17.721,5.3125e-05,-0.012954,-0.00016335,-1626.5,1.6282
17557,16.612,5.6364,0.05,7.29e-07,7.285,5.5978e-07,4.2059,5.0593e-12,7.1486e-06,-5.5979e-07,-4.2061,1.6139
17558,16.704,5.8182,0,0.00016414,1640.3,5.5843e-05,20.099,5.3168e-05,0.0002078,-0.00016379,-1630.1,1.6277
17559,16.612,5.8182,0.05,3.15e-08,0.31478,2.4191e-08,0.18173,-1.1455e-11,-0.00011918,-2.4185e-08,-0.18175,1.6133
17560,16.612,5.9091,0,0.00016542,1653,5.5694e-05,13.254,5.3929e-05,-0.0043966,-0.00016519,-1646.4,1.613
17561,16.796,0.27273,0,0.00016166,1615.5,5.4935e-05,19.03,5.2401e-05,-0.0074268,-0.00016133,-1605.9,1.6424
17562,16.889,0.18182,0,0.00015969,1595.8,5.4405e-05,20.468,5.1681e-05,0.00028452,-0.00015933,-1585.5,1.6565
17563,16.796,0.18182,0.05,3.2113e-08,0.32091,2.4654e-08,0.18529,1.5767e-11,0.00015263,-2.4663e-08,-0.18526,1.6421
17564,16.796,0.090909,0,0.00016094,1608.3,5.4237e-05,13.493,5.244e-05,-0.0045444,-0.00016071,-1601.5,1.6418
17565,16.796,0.45455,0,0.00016134,1612.3,5.4725e-05,17.76,5.236e-05,-0.0092597,-0.00016103,-1603.4,1.6429
17566,16.889,0.36364,0,0.00015921,1591,5.405e-05,18.119,5.1637e-05,-0.013506,-0.00015889,-1581.8,1.657
17567,16.796,0.36364,0.05,7.2603e-07,7.2553,5.5751e-07,4.189,-6.0449e-12,2.6463e-06,-5.575e-07,-4.1888,1.6426
17568,16.796,0.63636,0,0.0001612,1610.9,5.4661e-05,17.565,5.2323e-05,-0.0045484,-0.00016089,-1602,1.6434
17569,16.889,0.54545,0,0.00015905,1589.4,5.3976e-05,17.871,5.1597e-05,-0.0052382,-0.00015873,-1580.4,1.6575
17570,16.796,0.54545,0.05,7.7439e-07,7.7386,5.9464e-07,4.468,-6.0328e-12,1.2416e-06,-5.9463e-07,-4.4678,1.6431
17571,16.796,0.81818,0,0.00016108,1609.7,5.4613e-05,17.472,5.2288e-05,-0.0027346,-0.00016077,-1600.9,1.6438
17572,16.889,0.72727,0,0.00015892,1588.1,5.3927e-05,17.786,5.156e-05,-0.0039729,-0.00015861,-1579.1,1.658
17573,16.796,0.72727,0.05,7.7773e-07,7.7719,5.9721e-07,4.4872,-4.702e-12,1.1929e-06,-5.9719e-07,-4.4871,1.6436
17574,16.796,1,0,0.00016097,1608.6,5.4574e-05,17.421,5.2255e-05,-0.00057899,-0.00016067,-1599.8,1.6442
17575,16.889,0.90909,0,0.00015881,1587,5.3887e-05,17.749,5.1525e-05,-0.0015416,-0.0001585,-1578,1.6584
17576,16.796,0.90909,0.05,7.7812e-07,7.7758,5.975e-07,4.4894,-4.7188e-12,3.2709e-06,-5.9749e-07,-4.4893,1.644
17577,16.796,1.1818,0,0.00016088,1607.7,5.4541e-05,17.4,5.2225e-05,0.0013097,-0.00016057,-1598.9,1.6446
17578,16.889,1.0909,0,0.00015871,1586,5.3855e-05,17.745,5.1493e-05,0.00042173,-0.0001584,-1577.1,1.6588
17579,16.796,1.0909,0.05,7.783e-07,7.7776,5.9764e-07,4.4905,-4.2775e-12,4.8873e-06,-5.9763e-07,-4.4903,1.6444
17580,16.796,1.3636,0,0.00016079,1606.8,5.4514e-05,17.403,5.2198e-05,0.0030639,-0.00016049,-1598.1,1.6449
17581,16.889,1.2727,0,0.00015862,1585.1,5.3828e-05,17.767,5.1463e-05,0.0022982,-0.00015831,-1576.2,1.6592
17582,16.796,1.2727,0.05,7.7845e-07,7.7791,5.9776e-07,4.4913,-3.8307e-12,4.6677e-06,-5.9775e-07,-4.4912,1.6447
17583,16.796,1.5455,0,0.00016072,1606.1,5.4492e-05,17.424,5.2173e-05,0.0046374,-0.00016042,-1597.3,1.6452
17584,16.889,1.4545,0,0.00015855,1584.4,5.3806e-05,17.809,5.1437e-05,0.0039811,-0.00015824,-1575.4,1.6595
17585,16.796,1.4545,0.05,7.7858e-07,7.7805,5.9786e-07,4.4921,-3.3703e-12,5.1319e-06,-5.9785e-07,-4.492,1.6451
17586,16.796,1.7273,0,0.00016066,1605.5,5.4474e-05,17.456,5.2152e-05,0.006031,-0.00016036,-1596.7,1.6455
17587,16.889,1.6364,0,0.00015848,1583.8,5.379e-05,17.862,5.1413e-05,0.0054834,-0.00015817,-1574.7,1.6598
17588,16.796,1.6364,0.05,7.787e-07,7.7816,5.9795e-07,4.4928,-2.4596e-12,5.5868e-06,-5.9794e-07,-4.4927,1.6454
17589,16.796,1.9091,0,0.00016061,1605,5.446e-05,17.496,5.2133e-05,0.0072399,-0.0001603,-1596.2,1.6457
17590,16.889,1.8182,0,0.00015843,1583.2,5.3777e-05,17.923,5.1392e-05,0.0067969,-0.00015812,-1574.2,1.66
17591,16.796,1.8182,0.05,7.788e-07,7.7827,5.9803e-07,4.4934,-2.4545e-12,4.8648e-06,-5.9802e-07,-4.4933,1.6456
17592,16.796,2.0909,0,0.00016057,1604.6,5.445e-05,17.537,5.2117e-05,0.0082625,-0.00016026,-1595.7,1.6459
17593,16.889,2,0,0.00015838,1582.8,5.3767e-05,17.985,5.1374e-05,0.0079222,-0.00015807,-1573.7,1.6602
17594,16.796,2,0.05,7.7889e-07,7.7836,5.981e-07,4.4939,-2.8871e-12,5.2641e-06,-5.9809e-07,-4.4938,1.6458
17595,16.796,2.2727,0,0.00016053,1604.2,5.4442e-05,17.576,5.2104e-05,0.0090965,-0.00016023,-1595.4,1.6461
17596,16.889,2.1818,0,0.00015835,1582.4,5.3759e-05,18.044,5.1359e-05,0.0088559,-0.00015803,-1573.3,1.6604
17597,16.796,2.1818,0.05,7.7897e-07,7.7843,5.9815e-07,4.4943,-1.9523e-12,6.1305e-06,-5.9815e-07,-4.4942,1.646
17598,16.796,2.4545,0,0.00016051,1604,5.4436e-05,17.611,5.2093e-05,0.009744,-0.0001602,-1595.1,1.6462
17599,16.889,2.3636,0,0.00015832,1582.1,5.3754e-05,18.097,5.1347e-05,0.0095995,-0.000158,-1573,1.6605
17600,16.796,2.3636,0.05,7.7902e-07,7.7849,5.982e-07,4.4946,-1.9293e-12,6.2066e-06,-5.9819e-07,-4.4946,1.6461
17601,16.796,2.6364,0,0.00016049,1603.8,5.4432e-05,17.637,5.2086e-05,0.010206,-0.00016018,-1594.9,1.6463
17602,16.889,2.5455,0,0.0001583,1581.9,5.3751e-05,18.138,5.1338e-05,0.010157,-0.00015798,-1572.7,1.6606
17603,16.796,2.5455,0.05,7.7907e-07,7.7853,5.9823e-07,4.4949,-1.4442e-12,7.0277e-06,-5.9822e-07,-4.4948,1.6463
17604,16.796,2.8182,0,0.00016048,1603.7,5.443e-05,17.654,5.2081e-05,0.010481,-0.00016017,-1594.8,1.6464
17605,16.889,2.7273,0,0.00015828,1581.7,5.3748e-05,18.168,5.1332e-05,0.010526,-0.00015797,-1572.6,1.6607
17606,16.796,2.7273,0.05,7.791e-07,7.7856,5.9825e-07,4.495,-1.4128e-12,6.6658e-06,-5.9825e-07,-4.495,1.6463
17607,16.796,3,0,0.00016047,1603.6,5.4429e-05,17.659,5.208e-05,0.010574,-0.00016017,-1594.7,1.6464
17608,16.889,2.9091,0,0.00015828,1581.7,5.3747e-05,18.183,5.1329e-05,0.010711,-0.00015796,-1572.5,1.6608
17609,16.796,2.9091,0.05,7.7911e-07,7.7857,5.9826e-07,4.4951,-1.6506e-14,7.3862e-06,-5.9826e-07,-4.4951,1.6464
17610,16.796,3.1818,0,0.00016048,1603.7,5.443e-05,17.654,5.2081e-05,0.010482,-0.00016017,-1594.8,1.6464
17611,16.889,3.0909,0,0.00015828,1581.7,5.3747e-05,18.183,5.1329e-05,0.010711,-0.00015796,-1572.5,1.6608
17612,16.796,3.0909,0.05,7.7911e-07,7.7857,5.9826e-07,4.4951,1.6497e-14,7.0383e-06,-5.9826e-07,-4.4951,1.6464
17613,16.796,3.3636,0,0.00016049,1603.8,5.4432e-05,17.637,5.2086e-05,0.010205,-0.00016018,-1594.9,1.6463
17614,16.889,3.2727,0,0.00015828,1581.7,5.3748e-05,18.168,5.1332e-05,0.010526,-0.00015797,-1572.6,1.6607
17615,16.796,3.2727,0.05,7.791e-07,7.7856,5.9825e-07,4.495,5.0383e-13,7.8797e-06,-5.9825e-07,-4.495,1.6463
17616,16.796,3.5455,0,0.00016051,1604,5.4436e-05,17.611,5.2093e-05,0.0097439,-0.0001602,-1595.1,1.6462
17617,16.889,3.4545,0,0.0001583,1581.9,5.3751e-05,18.138,5.1338e-05,0.010156,-0.00015798,-1572.7,1.6606
17618,16.796,3.4545,0.05,7.7907e-07,7.7853,5.9823e-07,4.4948,9.9003e-13,8.1143e-06,-5.9823e-07,-4.4948,1.6463
17619,16.796,3.7273,0,0.00016053,1604.2,5.4442e-05,17.577,5.2104e-05,0.009096,-0.00016023,-1595.4,1.6461
17620,16.889,3.6364,0,0.00015832,1582.1,5.3754e-05,18.097,5.1347e-05,0.0095996,-0.000158,-1573,1.6605
17621,16.796,3.6364,0.05,7.7902e-07,7.7849,5.9819e-07,4.4946,1.0193e-12,9.2929e-06,-5.9819e-07,-4.4946,1.6461
17622,16.796,3.9091,0,0.00016057,1604.6,5.445e-05,17.537,5.2117e-05,0.0082614,-0.00016026,-1595.7,1.6459
17623,16.889,3.8182,0,0.00015835,1582.4,5.3759e-05,18.044,5.1359e-05,0.0088554,-0.00015803,-1573.3,1.6604
17624,16.796,3.8182,0.05,7.7897e-07,7.7843,5.9815e-07,4.4942,1.5013e-12,1.0326e-05,-5.9815e-07,-4.4943,1.646
17625,16.796,4.0909,0,0.00016061,1605,5.446e-05,17.496,5.2133e-05,0.0072393,-0.0001603,-1596.2,1.6457
17626,16.889,4,0,0.00015838,1582.8,5.3767e-05,17.985,5.1374e-05,0.0079217,-0.00015807,-1573.7,1.6602
17627,16.796,4,0.05,7.7889e-07,7.7836,5.9809e-07,4.4938,1.9788e-12,1.0016e-05,-5.9809e-07,-4.4939,1.6458
17628,16.796,4.2727,0,0.00016066,1605.5,5.4474e-05,17.456,5.2152e-05,0.0060303,-0.00016036,-1596.7,1.6455
17629,16.889,4.1818,0,0.00015843,1583.2,5.3777e-05,17.923,5.1392e-05,0.006797,-0.00015812,-1574.2,1.66
17630,16.796,4.1818,0.05,7.788e-07,7.7827,5.9802e-07,4.4933,2.4481e-12,9.1793e-06,-5.9803e-07,-4.4934,1.6456
17631,16.796,4.4545,0,0.00016072,1606.1,5.4492e-05,17.424,5.2173e-05,0.0046365,-0.00016042,-1597.3,1.6452
17632,16.889,4.3636,0,0.00015848,1583.8,5.379e-05,17.862,5.1413e-05,0.0054838,-0.00015817,-1574.7,1.6598
17633,16.796,4.3636,0.05,7.787e-07,7.7816,5.9794e-07,4.4927,3.3785e-12,1.0844e-05,-5.9795e-07,-4.4928,1.6454
17634,16.796,4.6364,0,0.00016079,1606.8,5.4514e-05,17.403,5.2198e-05,0.003063,-0.00016049,-1598.1,1.6449
17635,16.889,4.5455,0,0.00015855,1584.4,5.3806e-05,17.809,5.1437e-05,0.0039785,-0.00015824,-1575.4,1.6595
17636,16.796,4.5455,0.05,7.7858e-07,7.7805,5.9785e-07,4.492,2.9237e-12,9.7035e-06,-5.9786e-07,-4.4921,1.6451
17637,16.796,4.8182,0,0.00016088,1607.7,5.4541e-05,17.4,5.2225e-05,0.0013095,-0.00016057,-1598.9,1.6446
17638,16.889,4.7273,0,0.00015862,1585.1,5.3828e-05,17.767,5.1463e-05,0.0022979,-0.00015831,-1576.2,1.6592
17639,16.796,4.7273,0.05,7.7845e-07,7.7791,5.9775e-07,4.4912,3.3834e-12,1.0973e-05,-5.9775e-07,-4.4913,1.6447
17640,16.796,5,0,0.00016097,1608.6,5.4574e-05,17.421,5.2255e-05,-0.00057959,-0.00016067,-1599.8,1.6442
17641,16.889,4.9091,0,0.00015871,1586,5.3855e-05,17.745,5.1493e-05,0.00042177,-0.0001584,-1577.1,1.6588
17642,16.796,4.9091,0.05,7.783e-07,7.7776,5.9763e-07,4.4904,3.822e-12,1.1067e-05,-5.9764e-07,-4.4904,1.6444
17643,16.796,5.1818,0,0.00016108,1609.7,5.4613e-05,17.473,5.2288e-05,-0.0027365,-0.00016077,-1600.9,1.6438
17644,16.889,5.0909,0,0.00015881,1587,5.3887e-05,17.749,5.1525e-05,-0.0015431,-0.0001585,-1578,1.6584
17645,16.796,5.0909,0.05,7.7812e-07,7.7758,5.9749e-07,4.4893,3.8016e-12,9.4434e-06,-5.975e-07,-4.4894,1.644
17646,16.796,5.3636,0,0.0001612,1610.9,5.4661e-05,17.565,5.2323e-05,-0.004549,-0.00016089,-1602,1.6434
17647,16.889,5.2727,0,0.00015892,1588.1,5.3927e-05,17.786,5.156e-05,-0.0039755,-0.00015861,-1579.1,1.658
17648,16.796,5.2727,0.05,7.7773e-07,7.7719,5.972e-07,4.4871,4.6949e-12,1.0144e-05,-5.972e-07,-4.4872,1.6436
17649,16.796,5.5455,0,0.00016134,1612.3,5.4725e-05,17.76,5.236e-05,-0.0092585,-0.00016103,-1603.4,1.6429
17650,16.889,5.4545,0,0.00015905,1589.4,5.3976e-05,17.871,5.1597e-05,-0.0052377,-0.00015873,-1580.4,1.6575
17651,16.796,5.4545,0.05,7.7439e-07,7.7386,5.9463e-07,4.4678,5.1007e-12,9.3977e-06,-5.9464e-07,-4.4679,1.6431
17652,16.796,5.7273,0,0.00016166,1615.5,5.4935e-05,19.03,5.2401e-05,-0.0074265,-0.00016133,-1605.9,1.6424
17653,16.889,5.6364,0,0.00015921,1591,5.405e-05,18.119,5.1637e-05,-0.013505,-0.00015889,-1581.8,1.657
17654,16.796,5.6364,0.05,7.2603e-07,7.2553,5.575e-07,4.1888,4.6402e-12,9.5782e-06,-5.5751e-07,-4.1889,1.6426
17655,16.889,5.8182,0,0.00015969,1595.8,5.4405e-05,20.468,5.1681e-05,0.00028475,-0.00015933,-1585.5,1.6565
17656,16.796,5.8182,0.05,3.2113e-08,0.32091,2.4662e-08,0.18527,-1.1191e-11,-0.00010151,-2.4656e-08,-0.18528,1.6421
17657,16.796,5.9091,0,0.00016094,1608.3,5.4237e-05,13.493,5.2441e-05,-0.004544,-0.00016071,-1601.5,1.6418
17658,16.981,0.27273,0,0.00015722,1571.1,5.3502e-05,19.416,5.0917e-05,-0.0077086,-0.00015688,-1561.3,1.6712
17659,17.073,0.18182,0,0.00015526,1551.6,5.2975e-05,20.843,5.0201e-05,0.00036326,-0.0001549,-1541,1.6854
17660,16.981,0.18182,0.05,3.2774e-08,0.32751,2.5162e-08,0.1891,1.3478e-11,0.0001594,-2.517e-08,-0.18907,1.6709
17661,16.981,0.090909,0,0.00015649,1563.8,5.2787e-05,13.737,5.0958e-05,-0.004679,-0.00015625,-1556.9,1.6707
17662,16.981,0.45455,0,0.0001569,1568,5.3296e-05,18.192,5.0874e-05,-0.009609,-0.00015659,-1558.8,1.6717
17663,17.073,0.36364,0,0.00015477,1546.7,5.2622e-05,18.525,5.0154e-05,-0.014071,-0.00015445,-1537.3,1.686
17664,16.981,0.36364,0.05,7.2311e-07,7.2261,5.5526e-07,4.1721,-5.4946e-12,-8.7088e-07,-5.5525e-07,-4.1719,1.6715
17665,16.981,0.63636,0,0.00015676,1566.5,5.3238e-05,18.058,5.0834e-05,-0.0046626,-0.00015645,-1557.4,1.6722
17666,17.073,0.54545,0,0.00015462,1545.1,5.2554e-05,18.339,5.0113e-05,-0.0053872,-0.0001543,-1535.9,1.6864
17667,16.981,0.54545,0.05,7.7117e-07,7.7064,5.9217e-07,4.4493,-5.5728e-12,-1.7704e-06,-5.9216e-07,-4.4492,1.6719
17668,16.981,0.81818,0,0.00015665,1565.4,5.3197e-05,18.029,5.0797e-05,-0.002765,-0.00015633,-1556.3,1.6726
17669,17.073,0.72727,0,0.0001545,1543.9,5.2512e-05,18.318,5.0073e-05,-0.0040615,-0.00015418,-1534.7,1.6869
17670,16.981,0.72727,0.05,7.7449e-07,7.7396,5.9472e-07,4.4685,-5.5951e-12,-6.9738e-07,-5.9471e-07,-4.4684,1.6724
17671,16.981,1,0,0.00015654,1564.3,5.3164e-05,18.04,5.0763e-05,-0.00051846,-0.00015623,-1555.2,1.673
17672,17.073,0.90909,0,0.00015439,1542.8,5.2478e-05,18.345,5.0036e-05,-0.0015203,-0.00015407,-1533.6,1.6873
17673,16.981,0.90909,0.05,7.7488e-07,7.7435,5.9502e-07,4.4708,-4.7328e-12,7.6718e-07,-5.9501e-07,-4.4706,1.6728
17674,16.981,1.1818,0,0.00015645,1563.4,5.3137e-05,18.079,5.0731e-05,0.0014386,-0.00015614,-1554.3,1.6734
17675,17.073,1.0909,0,0.00015429,1541.9,5.2452e-05,18.405,5.0003e-05,0.00051855,-0.00015397,-1532.6,1.6877
17676,16.981,1.0909,0.05,7.7506e-07,7.7453,5.9516e-07,4.4718,-4.2983e-12,2.7944e-06,-5.9515e-07,-4.4717,1.6732
17677,16.981,1.3636,0,0.00015637,1562.7,5.3116e-05,18.14,5.0702e-05,0.0032486,-0.00015606,-1553.5,1.6737
17678,17.073,1.2727,0,0.00015421,1541.1,5.2432e-05,18.487,4.9972e-05,0.0024606,-0.00015389,-1531.7,1.688
17679,16.981,1.2727,0.05,7.7522e-07,7.7468,5.9527e-07,4.4727,-3.8614e-12,1.9541e-06,-5.9527e-07,-4.4726,1.6736
17680,16.981,1.5455,0,0.00015631,1562,5.31e-05,18.214,5.0676e-05,0.0048643,-0.00015599,-1552.8,1.674
17681,17.073,1.4545,0,0.00015414,1540.3,5.2416e-05,18.586,4.9943e-05,0.0041914,-0.00015382,-1531,1.6883
17682,16.981,1.4545,0.05,7.7535e-07,7.7482,5.9538e-07,4.4735,-3.3919e-12,2.4992e-06,-5.9537e-07,-4.4734,1.6739
17683,16.981,1.7273,0,0.00015625,1561.4,5.3088e-05,18.296,5.0653e-05,0.0062898,-0.00015593,-1552.2,1.6743
17684,17.073,1.6364,0,0.00015408,1539.7,5.2405e-05,18.693,4.9918e-05,0.005733,-0.00015375,-1530.3,1.6886
17685,16.981,1.6364,0.05,7.7548e-07,7.7494,5.9547e-07,4.4742,-2.9357e-12,2.7684e-06,-5.9547e-07,-4.4741,1.6741
17686,16.981,1.9091,0,0.0001562,1560.9,5.3079e-05,18.38,5.0633e-05,0.0075223,-0.00015588,-1551.6,1.6745
17687,17.073,1.8182,0,0.00015403,1539.2,5.2397e-05,18.802,4.9896e-05,0.0070744,-0.0001537,-1529.7,1.6888
17688,16.981,1.8182,0.05,7.7558e-07,7.7504,5.9555e-07,4.4748,-2.4668e-12,1.8899e-06,-5.9555e-07,-4.4747,1.6744
17689,16.981,2.0909,0,0.00015616,1560.5,5.3072e-05,18.46,5.0616e-05,0.0085606,-0.00015584,-1551.2,1.6747
17690,17.073,2,0,0.00015399,1538.8,5.2392e-05,18.907,4.9877e-05,0.0082191,-0.00015366,-1529.3,1.689
17691,16.981,2,0.05,7.7567e-07,7.7513,5.9562e-07,4.4753,-1.9919e-12,3.2598e-06,-5.9562e-07,-4.4752,1.6746
17692,16.981,2.2727,0,0.00015613,1560.2,5.3068e-05,18.532,5.0602e-05,0.0094054,-0.0001558,-1550.9,1.6749
17693,17.073,2.1818,0,0.00015395,1538.5,5.2389e-05,19.003,4.9861e-05,0.0091658,-0.00015362,-1528.9,1.6892
17694,16.981,2.1818,0.05,7.7574e-07,7.7521,5.9568e-07,4.4757,-1.9669e-12,3.1768e-06,-5.9567e-07,-4.4756,1.6748
17695,16.981,2.4545,0,0.0001561,1560,5.3065e-05,18.592,5.0591e-05,0.01006,-0.00015578,-1550.6,1.675
17696,17.073,2.3636,0,0.00015393,1538.2,5.2387e-05,19.085,4.9848e-05,0.0099194,-0.00015359,-1528.6,1.6894
17697,16.981,2.3636,0.05,7.758e-07,7.7527,5.9572e-07,4.476,-1.4833e-12,4.2438e-06,-5.9572e-07,-4.476,1.6749
17698,16.981,2.6364,0,0.00015609,1559.8,5.3063e-05,18.637,5.0584e-05,0.010526,-0.00015576,-1550.4,1.6751
17699,17.073,2.5455,0,0.00015391,1538,5.2386e-05,19.149,4.9839e-05,0.010482,-0.00015357,-1528.3,1.6895
17700,16.981,2.5455,0.05,7.7585e-07,7.7531,5.9575e-07,4.4763,-8.696e-14,4.7092e-06,-5.9575e-07,-4.4762,1.675
17701,16.981,2.8182,0,0.00015608,1559.7,5.3062e-05,18.665,5.0579e-05,0.010805,-0.00015575,-1550.3,1.6751
17702,17.073,2.7273,0,0.00015389,1537.9,5.2385e-05,19.194,4.9832e-05,0.010854,-0.00015356,-1528.2,1.6895
17703,16.981,2.7273,0.05,7.7587e-07,7.7534,5.9578e-07,4.4764,-5.0799e-13,4.3677e-06,-5.9577e-07,-4.4764,1.6751
17704,16.981,3,0,0.00015607,1559.7,5.3061e-05,18.674,5.0577e-05,0.010897,-0.00015575,-1550.2,1.6752
17705,17.073,2.9091,0,0.00015389,1537.8,5.2385e-05,19.217,4.9829e-05,0.011041,-0.00015355,-1528.1,1.6896
17706,16.981,2.9091,0.05,7.7589e-07,7.7535,5.9579e-07,4.4765,-9.2745e-13,4.872e-06,-5.9578e-07,-4.4765,1.6751
17707,16.981,3.1818,0,0.00015608,1559.7,5.3062e-05,18.665,5.0579e-05,0.010804,-0.00015575,-1550.3,1.6751
17708,17.073,3.0909,0,0.00015389,1537.8,5.2385e-05,19.217,4.9829e-05,0.01104,-0.00015355,-1528.1,1.6896
17709,16.981,3.0909,0.05,7.7589e-07,7.7535,5.9579e-07,4.4765,1.8008e-14,4.6652e-06,-5.9579e-07,-4.4765,1.6751
17710,16.981,3.3636,0,0.00015609,1559.8,5.3063e-05,18.637,5.0584e-05,0.010526,-0.00015576,-1550.4,1.6751
17711,17.073,3.2727,0,0.00015389,1537.9,5.2385e-05,19.194,4.9832e-05,0.010855,-0.00015356,-1528.2,1.6895
17712,16.981,3.2727,0.05,7.7587e-07,7.7534,5.9577e-07,4.4764,5.3794e-14,6.124e-06,-5.9578e-07,-4.4764,1.6751
17713,16.981,3.5455,0,0.0001561,1560,5.3065e-05,18.592,5.0591e-05,0.01006,-0.00015578,-1550.6,1.675
17714,17.073,3.4545,0,0.00015391,1538,5.2386e-05,19.149,4.9839e-05,0.010482,-0.00015357,-1528.3,1.6895
17715,16.981,3.4545,0.05,7.7585e-07,7.7531,5.9575e-07,4.4763,8.7588e-14,5.9059e-06,-5.9575e-07,-4.4763,1.675
17716,16.981,3.7273,0,0.00015613,1560.2,5.3068e-05,18.532,5.0602e-05,0.0094055,-0.0001558,-1550.9,1.6749
17717,17.073,3.6364,0,0.00015393,1538.2,5.2387e-05,19.085,4.9848e-05,0.0099187,-0.00015359,-1528.6,1.6894
17718,16.981,3.6364,0.05,7.758e-07,7.7527,5.9572e-07,4.476,1.0291e-12,7.2302e-06,-5.9572e-07,-4.476,1.6749
17719,16.981,3.9091,0,0.00015616,1560.5,5.3072e-05,18.46,5.0616e-05,0.0085607,-0.00015584,-1551.2,1.6747
17720,17.073,3.8182,0,0.00015395,1538.5,5.2389e-05,19.003,4.9861e-05,0.009166,-0.00015362,-1528.9,1.6892
17721,16.981,3.8182,0.05,7.7574e-07,7.7521,5.9567e-07,4.4757,1.9676e-12,8.6435e-06,-5.9568e-07,-4.4757,1.6748
17722,16.981,4.0909,0,0.0001562,1560.9,5.3079e-05,18.38,5.0633e-05,0.0075224,-0.00015588,-1551.6,1.6745
17723,17.073,4,0,0.00015399,1538.8,5.2392e-05,18.907,4.9877e-05,0.0082185,-0.00015366,-1529.3,1.689
17724,16.981,4,0.05,7.7567e-07,7.7513,5.9562e-07,4.4752,1.9948e-12,8.0091e-06,-5.9562e-07,-4.4753,1.6746
17725,16.981,4.2727,0,0.00015625,1561.4,5.3088e-05,18.296,5.0653e-05,0.006291,-0.00015593,-1552.2,1.6743
17726,17.073,4.1818,0,0.00015403,1539.2,5.2397e-05,18.802,4.9896e-05,0.0070744,-0.0001537,-1529.7,1.6888
17727,16.981,4.1818,0.05,7.7558e-07,7.7504,5.9555e-07,4.4747,2.4707e-12,7.0334e-06,-5.9555e-07,-4.4747,1.6744
17728,16.981,4.4545,0,0.00015631,1562,5.31e-05,18.214,5.0676e-05,0.0048631,-0.00015599,-1552.8,1.674
17729,17.073,4.3636,0,0.00015408,1539.7,5.2405e-05,18.693,4.9918e-05,0.0057329,-0.00015375,-1530.3,1.6886
17730,16.981,4.3636,0.05,7.7548e-07,7.7494,5.9547e-07,4.4741,2.4788e-12,9.3047e-06,-5.9547e-07,-4.4742,1.6741
17731,16.981,4.6364,0,0.00015637,1562.7,5.3116e-05,18.14,5.0702e-05,0.0032466,-0.00015606,-1553.5,1.6737
17732,17.073,4.5455,0,0.00015414,1540.3,5.2416e-05,18.586,4.9943e-05,0.0041904,-0.00015382,-1531,1.6883
17733,16.981,4.5455,0.05,7.7535e-07,7.7482,5.9537e-07,4.4734,2.4814e-12,7.063e-06,-5.9538e-07,-4.4735,1.6739
17734,16.981,4.8182,0,0.00015645,1563.4,5.3137e-05,18.079,5.0731e-05,0.0014384,-0.00015614,-1554.3,1.6734
17735,17.073,4.7273,0,0.00015421,1541.1,5.2432e-05,18.487,4.9972e-05,0.0024603,-0.00015389,-1531.7,1.688
17736,16.981,4.7273,0.05,7.7522e-07,7.7468,5.9527e-07,4.4726,3.4002e-12,8.6391e-06,-5.9528e-07,-4.4727,1.6736
17737,16.981,5,0,0.00015654,1564.3,5.3164e-05,18.04,5.0763e-05,-0.00051939,-0.00015623,-1555.2,1.673
17738,17.073,4.9091,0,0.00015429,1541.9,5.2452e-05,18.405,5.0003e-05,0.00051772,-0.00015397,-1532.6,1.6877
17739,16.981,4.9091,0.05,7.7506e-07,7.7453,5.9515e-07,4.4717,3.8412e-12,8.9067e-06,-5.9516e-07,-4.4718,1.6732
17740,16.981,5.1818,0,0.00015665,1565.4,5.3197e-05,18.029,5.0797e-05,-0.0027672,-0.00015633,-1556.3,1.6726
17741,17.073,5.0909,0,0.00015439,1542.8,5.2478e-05,18.346,5.0036e-05,-0.0015219,-0.00015407,-1533.6,1.6873
17742,16.981,5.0909,0.05,7.7488e-07,7.7435,5.9501e-07,4.4706,3.8406e-12,7.1298e-06,-5.9502e-07,-4.4707,1.6728
17743,16.981,5.3636,0,0.00015676,1566.5,5.3238e-05,18.058,5.0834e-05,-0.0046642,-0.00015645,-1557.4,1.6722
17744,17.073,5.2727,0,0.0001545,1543.9,5.2512e-05,18.318,5.0073e-05,-0.0040628,-0.00015418,-1534.7,1.6869
17745,16.981,5.2727,0.05,7.7449e-07,7.7396,5.9471e-07,4.4684,4.7063e-12,7.7099e-06,-5.9472e-07,-4.4685,1.6724
17746,16.981,5.5455,0,0.0001569,1568,5.3296e-05,18.192,5.0874e-05,-0.0096088,-0.00015659,-1558.8,1.6717
17747,17.073,5.4545,0,0.00015462,1545.1,5.2554e-05,18.339,5.0113e-05,-0.0053876,-0.0001543,-1535.9,1.6864
17748,16.981,5.4545,0.05,7.7117e-07,7.7064,5.9216e-07,4.4492,4.684e-12,7.6433e-06,-5.9217e-07,-4.4493,1.6719
17749,16.981,5.7273,0,0.00015722,1571.1,5.3502e-05,19.416,5.0917e-05,-0.0077079,-0.00015688,-1561.3,1.6712
17750,17.073,5.6364,0,0.00015478,1546.7,5.2622e-05,18.525,5.0154e-05,-0.014071,-0.00015445,-1537.3,1.686
17751,16.981,5.6364,0.05,7.2311e-07,7.2261,5.5525e-07,4.1719,4.6641e-12,8.0674e-06,-5.5526e-07,-4.1721,1.6715
17752,17.073,5.8182,0,0.00015526,1551.6,5.2975e-05,20.843,5.0201e-05,0.0003639,-0.0001549,-1541,1.6854
17753,16.981,5.8182,0.05,3.2774e-08,0.32751,2.517e-08,0.18909,-1.2249e-11,-0.00011002,-2.5163e-08,-0.18909,1.6709
17754,16.981,5.9091,0,0.00015649,1563.8,5.2787e-05,13.737,5.0958e-05,-0.0046769,-0.00015625,-1556.9,1.6707
17755,17.166,0.27273,0,0.0001528,1526.9,5.2076e-05,19.809,4.9438e-05,-0.0080098,-0.00015245,-1516.9,1.7002
17756,17.258,0.18182,0,0.00015085,1507.5,5.1552e-05,21.225,4.8727e-05,0.00043416,-0.00015048,-1496.8,1.7145
17757,17.166,0.18182,0.05,3.3524e-08,0.33501,2.5737e-08,0.19343,1.6237e-11,0.00012727,-2.5748e-08,-0.19341,1.6999
17758,17.166,0.090909,0,0.00015205,1519.5,5.1344e-05,13.986,4.9482e-05,-0.0048152,-0.00015181,-1512.4,1.6997
17759,17.166,0.45455,0,0.00015248,1523.8,5.1874e-05,18.633,4.9393e-05,-0.0099755,-0.00015216,-1514.4,1.7007
17760,17.258,0.36364,0,0.00015036,1502.6,5.12e-05,18.939,4.8678e-05,-0.014665,-0.00015003,-1493.1,1.715
17761,17.166,0.36364,0.05,7.2024e-07,7.1974,5.5306e-07,4.1555,-5.5683e-12,1.4261e-07,-5.5305e-07,-4.1553,1.7004
17762,17.166,0.63636,0,0.00015235,1522.4,5.1823e-05,18.565,4.9352e-05,-0.0047821,-0.00015202,-1513,1.7011
17763,17.258,0.54545,0,0.00015021,1501.1,5.1139e-05,18.819,4.8634e-05,-0.0055456,-0.00014988,-1491.6,1.7154
17764,17.166,0.54545,0.05,7.6799e-07,7.6746,5.8972e-07,4.431,-5.1402e-12,1.018e-07,-5.8971e-07,-4.4308,1.7009
17765,17.166,0.81818,0,0.00015223,1521.3,5.1789e-05,18.601,4.9313e-05,-0.0027976,-0.00015191,-1511.9,1.7016
17766,17.258,0.72727,0,0.00015009,1499.9,5.1104e-05,18.866,4.8593e-05,-0.0041539,-0.00014976,-1490.4,1.7159
17767,17.166,0.72727,0.05,7.7129e-07,7.7076,5.9226e-07,4.4501,-4.2544e-12,-9.1385e-07,-5.9225e-07,-4.4499,1.7013
17768,17.166,1,0,0.00015213,1520.3,5.1762e-05,18.677,4.9276e-05,-0.00045673,-0.00015181,-1510.9,1.702
17769,17.258,0.90909,0,0.00014999,1498.8,5.1078e-05,18.96,4.8554e-05,-0.001499,-0.00014966,-1489.3,1.7163
17770,17.166,0.90909,0.05,7.7169e-07,7.7115,5.9256e-07,4.4523,-3.8343e-12,-4.5709e-07,-5.9256e-07,-4.4522,1.7017
17771,17.166,1.1818,0,0.00015205,1519.4,5.1742e-05,18.779,4.9243e-05,0.0015727,-0.00015172,-1510,1.7023
17772,17.258,1.0909,0,0.0001499,1498,5.1058e-05,19.085,4.8518e-05,0.00061925,-0.00014956,-1488.3,1.7166
17773,17.166,1.0909,0.05,7.7187e-07,7.7134,5.9271e-07,4.4534,-3.8528e-12,1.2626e-06,-5.927e-07,-4.4533,1.7021
17774,17.166,1.3636,0,0.00015197,1518.7,5.1728e-05,18.9,4.9213e-05,0.00344,-0.00015164,-1509.2,1.7026
17775,17.258,1.2727,0,0.00014982,1497.2,5.1045e-05,19.232,4.8485e-05,0.0026284,-0.00014948,-1487.5,1.717
17776,17.166,1.2727,0.05,7.7203e-07,7.715,5.9283e-07,4.4543,-3.8663e-12,1.0245e-06,-5.9282e-07,-4.4542,1.7025
17777,17.166,1.5455,0,0.00015191,1518.1,5.1717e-05,19.031,4.9185e-05,0.0051003,-0.00015158,-1508.4,1.7029
17778,17.258,1.4545,0,0.00014975,1496.5,5.1036e-05,19.39,4.8456e-05,0.004411,-0.00014941,-1486.7,1.7173
17779,17.166,1.4545,0.05,7.7217e-07,7.7164,5.9293e-07,4.4551,-3.862e-12,8.0289e-07,-5.9293e-07,-4.455,1.7028
17780,17.166,1.7273,0,0.00015186,1517.5,5.1711e-05,19.165,4.9161e-05,0.0065606,-0.00015152,-1507.8,1.7032
17781,17.258,1.6364,0,0.0001497,1495.9,5.1031e-05,19.553,4.8429e-05,0.0059917,-0.00014936,-1486.1,1.7175
17782,17.166,1.6364,0.05,7.7229e-07,7.7176,5.9303e-07,4.4558,-3.3985e-12,1.6472e-06,-5.9302e-07,-4.4557,1.703
17783,17.166,1.9091,0,0.00015181,1517.1,5.1707e-05,19.295,4.914e-05,0.0078162,-0.00015147,-1507.3,1.7034
17784,17.258,1.8182,0,0.00014965,1495.5,5.1028e-05,19.713,4.8406e-05,0.0073626,-0.00014931,-1485.5,1.7178
17785,17.166,1.8182,0.05,7.724e-07,7.7187,5.9311e-07,4.4564,-2.4701e-12,1.2624e-06,-5.931e-07,-4.4563,1.7033
17786,17.166,2.0909,0,0.00015177,1516.7,5.1705e-05,19.416,4.9122e-05,0.0088709,-0.00015144,-1506.9,1.7036
17787,17.258,2,0,0.00014961,1495.1,5.1028e-05,19.863,4.8385e-05,0.0085279,-0.00014926,-1485,1.718
17788,17.166,2,0.05,7.7249e-07,7.7196,5.9318e-07,4.4569,-2.4524e-12,1.7777e-06,-5.9318e-07,-4.4569,1.7035
17789,17.166,2.2727,0,0.00015175,1516.4,5.1704e-05,19.522,4.9107e-05,0.0097276,-0.0001514,-1506.6,1.7037
17790,17.258,2.1818,0,0.00014958,1494.8,5.1029e-05,19.998,4.8368e-05,0.0094892,-0.00014923,-1484.7,1.7181
17791,17.166,2.1818,0.05,7.7257e-07,7.7203,5.9324e-07,4.4574,-1.971e-12,2.4233e-06,-5.9323e-07,-4.4573,1.7037
17792,17.166,2.4545,0,0.00015172,1516.2,5.1704e-05,19.609,4.9095e-05,0.01039,-0.00015138,-1506.3,1.7039
17793,17.258,2.3636,0,0.00014956,1494.5,5.103e-05,20.111,4.8355e-05,0.010252,-0.0001492,-1484.4,1.7183
17794,17.166,2.3636,0.05,7.7263e-07,7.7209,5.9328e-07,4.4577,-1.4866e-12,2.8842e-06,-5.9328e-07,-4.4577,1.7038
17795,17.166,2.6364,0,0.00015171,1516,5.1704e-05,19.674,4.9087e-05,0.010859,-0.00015136,-1506.1,1.7039
17796,17.258,2.5455,0,0.00014954,1494.4,5.1032e-05,20.2,4.8345e-05,0.010821,-0.00014918,-1484.1,1.7184
17797,17.166,2.5455,0.05,7.7267e-07,7.7214,5.9332e-07,4.458,-1.9101e-12,3.8496e-06,-5.9332e-07,-4.4579,1.7039
17798,17.166,2.8182,0,0.0001517,1515.9,5.1704e-05,19.714,4.9082e-05,0.01114,-0.00015135,-1506,1.704
17799,17.258,2.7273,0,0.00014953,1494.2,5.1033e-05,20.261,4.8338e-05,0.011198,-0.00014917,-1484,1.7185
17800,17.166,2.7273,0.05,7.727e-07,7.7217,5.9334e-07,4.4581,-9.6539e-13,2.9208e-06,-5.9334e-07,-4.4581,1.704
17801,17.166,3,0,0.0001517,1515.9,5.1704e-05,19.727,4.908e-05,0.011234,-0.00015135,-1505.9,1.704
17802,17.258,2.9091,0,0.00014952,1494.2,5.1034e-05,20.292,4.8334e-05,0.011386,-0.00014917,-1483.9,1.7185
17803,17.166,2.9091,0.05,7.7272e-07,7.7218,5.9335e-07,4.4582,-1.8716e-14,4.1509e-06,-5.9335e-07,-4.4582,1.704
17804,17.166,3.1818,0,0.0001517,1515.9,5.1704e-05,19.714,4.9082e-05,0.011141,-0.00015135,-1506,1.704
17805,17.258,3.0909,0,0.00014952,1494.2,5.1034e-05,20.292,4.8334e-05,0.011385,-0.00014917,-1483.9,1.7185
17806,17.166,3.0909,0.05,7.7272e-07,7.7218,5.9335e-07,4.4582,1.8776e-14,3.4789e-06,-5.9335e-07,-4.4582,1.704
17807,17.166,3.3636,0,0.00015171,1516,5.1704e-05,19.674,4.9087e-05,0.01086,-0.00015136,-1506.1,1.7039
17808,17.258,3.2727,0,0.00014953,1494.2,5.1033e-05,20.261,4.8338e-05,0.011198,-0.00014917,-1484,1.7185
17809,17.166,3.2727,0.05,7.727e-07,7.7217,5.9334e-07,4.4581,5.6154e-14,5.1882e-06,-5.9334e-07,-4.4581,1.704
17810,17.166,3.5455,0,0.00015172,1516.2,5.1704e-05,19.609,4.9095e-05,0.010389,-0.00015138,-1506.3,1.7039
17811,17.258,3.4545,0,0.00014954,1494.4,5.1032e-05,20.2,4.8345e-05,0.010821,-0.00014918,-1484.1,1.7184
17812,17.166,3.4545,0.05,7.7267e-07,7.7214,5.9332e-07,4.4579,1.4564e-12,5.2209e-06,-5.9332e-07,-4.4579,1.7039
17813,17.166,3.7273,0,0.00015175,1516.4,5.1704e-05,19.522,4.9107e-05,0.0097268,-0.0001514,-1506.6,1.7037
17814,17.258,3.6364,0,0.00014956,1494.5,5.103e-05,20.111,4.8355e-05,0.010252,-0.0001492,-1484.4,1.7183
17815,17.166,3.6364,0.05,7.7263e-07,7.7209,5.9328e-07,4.4577,1.0334e-12,6.1889e-06,-5.9328e-07,-4.4577,1.7038
17816,17.166,3.9091,0,0.00015177,1516.7,5.1705e-05,19.416,4.9122e-05,0.0088703,-0.00015144,-1506.9,1.7036
17817,17.258,3.8182,0,0.00014958,1494.8,5.1029e-05,19.998,4.8368e-05,0.0094889,-0.00014923,-1484.7,1.7181
17818,17.166,3.8182,0.05,7.7257e-07,7.7203,5.9324e-07,4.4573,1.9777e-12,7.2411e-06,-5.9324e-07,-4.4573,1.7037
17819,17.166,4.0909,0,0.00015181,1517.1,5.1707e-05,19.295,4.914e-05,0.0078155,-0.00015147,-1507.3,1.7034
17820,17.258,4,0,0.00014961,1495.1,5.1028e-05,19.863,4.8385e-05,0.0085272,-0.00014926,-1485,1.718
17821,17.166,4,0.05,7.7249e-07,7.7196,5.9318e-07,4.4569,2.0009e-12,7.1011e-06,-5.9318e-07,-4.4569,1.7035
17822,17.166,4.2727,0,0.00015186,1517.5,5.1711e-05,19.165,4.9161e-05,0.0065593,-0.00015152,-1507.8,1.7032
17823,17.258,4.1818,0,0.00014965,1495.5,5.1028e-05,19.713,4.8406e-05,0.0073625,-0.00014931,-1485.5,1.7178
17824,17.166,4.1818,0.05,7.724e-07,7.7187,5.9311e-07,4.4564,2.4707e-12,6.047e-06,-5.9311e-07,-4.4564,1.7033
17825,17.166,4.4545,0,0.00015191,1518.1,5.1717e-05,19.031,4.9185e-05,0.0051004,-0.00015158,-1508.4,1.7029
17826,17.258,4.3636,0,0.0001497,1495.9,5.1031e-05,19.553,4.8429e-05,0.0059902,-0.00014936,-1486.1,1.7175
17827,17.166,4.3636,0.05,7.7229e-07,7.7176,5.9302e-07,4.4557,2.9399e-12,8.6939e-06,-5.9303e-07,-4.4558,1.703
17828,17.166,4.6364,0,0.00015197,1518.7,5.1728e-05,18.9,4.9213e-05,0.0034409,-0.00015164,-1509.2,1.7026
17829,17.258,4.5455,0,0.00014975,1496.5,5.1036e-05,19.39,4.8456e-05,0.0044118,-0.00014941,-1486.7,1.7173
17830,17.166,4.5455,0.05,7.7217e-07,7.7164,5.9293e-07,4.455,2.9487e-12,6.967e-06,-5.9293e-07,-4.4551,1.7028
17831,17.166,4.8182,0,0.00015205,1519.4,5.1742e-05,18.779,4.9243e-05,0.0015718,-0.00015172,-1510,1.7023
17832,17.258,4.7273,0,0.00014982,1497.2,5.1045e-05,19.232,4.8485e-05,0.0026279,-0.00014948,-1487.5,1.717
17833,17.166,4.7273,0.05,7.7203e-07,7.715,5.9282e-07,4.4542,3.4144e-12,8.1193e-06,-5.9283e-07,-4.4543,1.7025
17834,17.166,5,0,0.00015213,1520.3,5.1762e-05,18.677,4.9276e-05,-0.00045818,-0.00015181,-1510.9,1.702
17835,17.258,4.9091,0,0.0001499,1498,5.1058e-05,19.085,4.8518e-05,0.00061859,-0.00014956,-1488.3,1.7166
17836,17.166,4.9091,0.05,7.7187e-07,7.7134,5.927e-07,4.4533,3.8508e-12,7.8794e-06,-5.9271e-07,-4.4534,1.7021
17837,17.166,5.1818,0,0.00015223,1521.3,5.1789e-05,18.601,4.9313e-05,-0.0027982,-0.00015191,-1511.9,1.7016
17838,17.258,5.0909,0,0.00014999,1498.8,5.1078e-05,18.96,4.8554e-05,-0.0015009,-0.00014966,-1489.3,1.7163
17839,17.166,5.0909,0.05,7.7169e-07,7.7115,5.9256e-07,4.4522,3.8379e-12,6.4413e-06,-5.9256e-07,-4.4523,1.7017
17840,17.166,5.3636,0,0.00015235,1522.4,5.1823e-05,18.565,4.9352e-05,-0.0047821,-0.00015202,-1513,1.7011
17841,17.258,5.2727,0,0.00015009,1499.9,5.1104e-05,18.866,4.8593e-05,-0.0041547,-0.00014976,-1490.4,1.7159
17842,17.166,5.2727,0.05,7.7129e-07,7.7076,5.9225e-07,4.4499,5.1649e-12,7.608e-06,-5.9226e-07,-4.45,1.7013
17843,17.166,5.5455,0,0.00015248,1523.8,5.1874e-05,18.633,4.9393e-05,-0.0099759,-0.00015216,-1514.4,1.7007
17844,17.258,5.4545,0,0.00015021,1501.1,5.1139e-05,18.819,4.8634e-05,-0.005546,-0.00014988,-1491.6,1.7154
17845,17.166,5.4545,0.05,7.6799e-07,7.6746,5.8971e-07,4.4308,5.1262e-12,7.3248e-06,-5.8972e-07,-4.431,1.7009
17846,17.166,5.7273,0,0.0001528,1526.9,5.2076e-05,19.809,4.9438e-05,-0.0080098,-0.00015245,-1516.9,1.7002
17847,17.258,5.6364,0,0.00015036,1502.6,5.12e-05,18.939,4.8678e-05,-0.014664,-0.00015003,-1493.1,1.715
17848,17.166,5.6364,0.05,7.2024e-07,7.1974,5.5305e-07,4.1553,5.0835e-12,7.7177e-06,-5.5305e-07,-4.1555,1.7004
17849,17.258,5.8182,0,0.00015085,1507.5,5.1552e-05,21.225,4.8727e-05,0.00043465,-0.00015048,-1496.8,1.7145
17850,17.166,5.8182,0.05,3.3525e-08,0.33502,2.5747e-08,0.19342,-1.297e-11,-0.00011247,-2.574e-08,-0.19343,1.6999
17851,17.166,5.9091,0,0.00015205,1519.5,5.1344e-05,13.986,4.9482e-05,-0.0048167,-0.00015181,-1512.4,1.6997
17852,17.35,0.27273,0,0.0001484,1483,5.0657e-05,20.211,4.7966e-05,-0.008333,-0.00014804,-1472.8,1.7293
17853,17.443,0.18182,0,0.00014647,1463.6,5.0136e-05,21.615,4.7259e-05,0.00050558,-0.00014609,-1452.7,1.7436
17854,17.35,0.18182,0.05,3.442e-08,0.34396,2.6426e-08,0.19859,1.7192e-11,0.00015959,-2.6435e-08,-0.19858,1.729
17855,17.35,0.090909,0,0.00014763,1475.3,4.9907e-05,14.24,4.8012e-05,-0.0049627,-0.00014739,-1468.1,1.7288
17856,17.35,0.45455,0,0.00014808,1479.8,5.046e-05,19.086,4.7919e-05,-0.010363,-0.00014775,-1470.2,1.7297
17857,17.443,0.36364,0,0.00014597,1458.7,4.9787e-05,19.364,4.7207e-05,-0.01528,-0.00014563,-1449,1.7441
17858,17.35,0.36364,0.05,7.1741e-07,7.1692,5.5089e-07,4.1392,-4.629e-12,3.421e-06,-5.5088e-07,-4.139,1.7295
17859,17.35,0.63636,0,0.00014795,1478.5,5.0416e-05,19.085,4.7875e-05,-0.004909,-0.00014762,-1468.9,1.7302
17860,17.443,0.54545,0,0.00014582,1457.2,4.9733e-05,19.313,4.7161e-05,-0.0057048,-0.00014549,-1447.5,1.7445
17861,17.35,0.54545,0.05,7.6484e-07,7.6431,5.8731e-07,4.4128,-5.112e-12,2.0508e-06,-5.873e-07,-4.4127,1.73
17862,17.35,0.81818,0,0.00014784,1477.4,5.0388e-05,19.19,4.7834e-05,-0.0028314,-0.00014751,-1467.7,1.7306
17863,17.443,0.72727,0,0.00014571,1456.1,4.9704e-05,19.43,4.7118e-05,-0.0042406,-0.00014537,-1446.3,1.745
17864,17.35,0.72727,0.05,7.6813e-07,7.676,5.8983e-07,4.4318,-4.735e-12,-8.9832e-08,-5.8983e-07,-4.4317,1.7304
17865,17.35,1,0,0.00014775,1476.5,5.0369e-05,19.335,4.7796e-05,-0.00039202,-0.00014741,-1466.7,1.731
17866,17.443,0.90909,0,0.00014561,1455.1,4.9685e-05,19.596,4.7077e-05,-0.0014668,-0.00014527,-1445.2,1.7453
17867,17.35,0.90909,0.05,7.6853e-07,7.68,5.9014e-07,4.4341,-4.7554e-12,-1.0845e-06,-5.9013e-07,-4.434,1.7308
17868,17.35,1.1818,0,0.00014767,1475.6,5.0356e-05,19.504,4.7761e-05,0.0017112,-0.00014732,-1465.8,1.7313
17869,17.443,1.0909,0,0.00014552,1454.2,4.9673e-05,19.791,4.7039e-05,0.0007336,-0.00014518,-1444.2,1.7457
17870,17.35,1.0909,0.05,7.6872e-07,7.6819,5.9029e-07,4.4352,-3.858e-12,-2.5646e-07,-5.9028e-07,-4.4351,1.7311
17871,17.35,1.3636,0,0.0001476,1474.9,5.0348e-05,19.688,4.7728e-05,0.0036397,-0.00014725,-1465,1.7316
17872,17.443,1.2727,0,0.00014545,1453.5,4.9667e-05,20.004,4.7005e-05,0.0028128,-0.0001451,-1443.4,1.746
17873,17.35,1.2727,0.05,7.6889e-07,7.6835,5.9041e-07,4.4362,-3.4063e-12,1.3101e-07,-5.904e-07,-4.436,1.7315
17874,17.35,1.5455,0,0.00014754,1474.3,5.0345e-05,19.879,4.77e-05,0.0053457,-0.00014719,-1464.3,1.7319
17875,17.443,1.4545,0,0.00014539,1452.9,4.9665e-05,20.227,4.6973e-05,0.0046501,-0.00014503,-1442.7,1.7463
17876,17.35,1.4545,0.05,7.6903e-07,7.685,5.9052e-07,4.437,-3.4039e-12,7.2582e-07,-5.9052e-07,-4.4369,1.7318
17877,17.35,1.7273,0,0.00014749,1473.9,5.0344e-05,20.068,4.7674e-05,0.0068392,-0.00014714,-1463.7,1.7322
17878,17.443,1.6364,0,0.00014534,1452.4,4.9666e-05,20.449,4.6945e-05,0.0062705,-0.00014498,-1442,1.7466
17879,17.35,1.6364,0.05,7.6916e-07,7.6862,5.9062e-07,4.4377,-2.9419e-12,1.2008e-06,-5.9061e-07,-4.4376,1.732
17880,17.35,1.9091,0,0.00014745,1473.4,5.0345e-05,20.248,4.7651e-05,0.0081214,-0.00014709,-1463.2,1.7324
17881,17.443,1.8182,0,0.00014529,1451.9,4.967e-05,20.663,4.6921e-05,0.0076721,-0.00014493,-1441.5,1.7468
17882,17.35,1.8182,0.05,7.6927e-07,7.6873,5.907e-07,4.4383,-2.483e-12,9.2425e-07,-5.907e-07,-4.4383,1.7323
17883,17.35,2.0909,0,0.00014741,1473.1,5.0348e-05,20.411,4.7632e-05,0.0091945,-0.00014705,-1462.8,1.7326
17884,17.443,2,0,0.00014526,1451.6,4.9674e-05,20.861,4.6899e-05,0.0088598,-0.00014489,-1441,1.747
17885,17.35,2,0.05,7.6936e-07,7.6883,5.9077e-07,4.4389,-1.9996e-12,1.6025e-06,-5.9077e-07,-4.4388,1.7325
17886,17.35,2.2727,0,0.00014739,1472.8,5.0351e-05,20.553,4.7617e-05,0.010063,-0.00014703,-1462.5,1.7327
17887,17.443,2.1818,0,0.00014523,1451.3,4.968e-05,21.036,4.6881e-05,0.0098369,-0.00014486,-1440.7,1.7472
17888,17.35,2.1818,0.05,7.6944e-07,7.689,5.9083e-07,4.4393,-1.9745e-12,2.4146e-06,-5.9083e-07,-4.4392,1.7326
17889,17.35,2.4545,0,0.00014737,1472.6,5.0354e-05,20.669,4.7604e-05,0.010733,-0.000147,-1462.2,1.7328
17890,17.443,2.3636,0,0.00014521,1451.1,4.9685e-05,21.183,4.6867e-05,0.010611,-0.00014484,-1440.4,1.7473
17891,17.35,2.3636,0.05,7.695e-07,7.6897,5.9088e-07,4.4397,-5.8001e-13,2.6247e-06,-5.9088e-07,-4.4396,1.7328
17892,17.35,2.6364,0,0.00014735,1472.5,5.0356e-05,20.754,4.7596e-05,0.011209,-0.00014699,-1462,1.7329
17893,17.443,2.5455,0,0.00014519,1450.9,4.9689e-05,21.298,4.6856e-05,0.011186,-0.00014482,-1440.2,1.7474
17894,17.35,2.5455,0.05,7.6954e-07,7.6901,5.9091e-07,4.4399,-1.0027e-12,3.1145e-06,-5.9091e-07,-4.4399,1.7329
17895,17.35,2.8182,0,0.00014734,1472.4,5.0358e-05,20.807,4.759e-05,0.011493,-0.00014698,-1461.9,1.733
17896,17.443,2.7273,0,0.00014518,1450.8,4.9692e-05,21.376,4.6849e-05,0.011568,-0.00014481,-1440,1.7475
17897,17.35,2.7273,0.05,7.6957e-07,7.6904,5.9094e-07,4.4401,-9.661e-13,2.6737e-06,-5.9094e-07,-4.4401,1.7329
17898,17.35,3,0,0.00014734,1472.4,5.0359e-05,20.824,4.7589e-05,0.011587,-0.00014698,-1461.9,1.733
17899,17.443,2.9091,0,0.00014518,1450.8,4.9694e-05,21.415,4.6845e-05,0.011757,-0.0001448,-1440,1.7475
17900,17.35,2.9091,0.05,7.6959e-07,7.6906,5.9095e-07,4.4402,-1.9243e-14,4.1471e-06,-5.9095e-07,-4.4401,1.733
17901,17.35,3.1818,0,0.00014734,1472.4,5.0358e-05,20.807,4.759e-05,0.011493,-0.00014698,-1461.9,1.733
17902,17.443,3.0909,0,0.00014518,1450.8,4.9694e-05,21.415,4.6845e-05,0.011757,-0.0001448,-1440,1.7475
17903,17.35,3.0909,0.05,7.6959e-07,7.6906,5.9095e-07,4.4402,1.929e-14,3.9599e-06,-5.9095e-07,-4.4402,1.733
17904,17.35,3.3636,0,0.00014735,1472.5,5.0356e-05,20.754,4.7596e-05,0.011209,-0.00014699,-1462,1.7329
17905,17.443,3.2727,0,0.00014518,1450.8,4.9692e-05,21.376,4.6849e-05,0.011568,-0.00014481,-1440,1.7475
17906,17.35,3.2727,0.05,7.6957e-07,7.6904,5.9094e-07,4.4401,9.667e-13,4.7232e-06,-5.9094e-07,-4.4401,1.7329
17907,17.35,3.5455,0,0.00014737,1472.6,5.0354e-05,20.669,4.7604e-05,0.010733,-0.000147,-1462.2,1.7328
17908,17.443,3.4545,0,0.00014519,1450.9,4.9689e-05,21.298,4.6856e-05,0.011186,-0.00014482,-1440.2,1.7474
17909,17.35,3.4545,0.05,7.6954e-07,7.6901,5.9091e-07,4.4399,5.4934e-13,4.9976e-06,-5.9091e-07,-4.4399,1.7329
17910,17.35,3.7273,0,0.00014739,1472.8,5.0351e-05,20.553,4.7617e-05,0.010063,-0.00014703,-1462.5,1.7327
17911,17.443,3.6364,0,0.00014521,1451.1,4.9685e-05,21.183,4.6867e-05,0.010611,-0.00014484,-1440.4,1.7473
17912,17.35,3.6364,0.05,7.695e-07,7.6897,5.9088e-07,4.4396,5.8548e-13,6.4597e-06,-5.9088e-07,-4.4396,1.7328
17913,17.35,3.9091,0,0.00014741,1473.1,5.0348e-05,20.411,4.7632e-05,0.0091939,-0.00014705,-1462.8,1.7326
17914,17.443,3.8182,0,0.00014523,1451.3,4.968e-05,21.036,4.6881e-05,0.0098367,-0.00014486,-1440.7,1.7472
17915,17.35,3.8182,0.05,7.6944e-07,7.689,5.9083e-07,4.4392,1.5248e-12,7.626e-06,-5.9083e-07,-4.4393,1.7326
17916,17.35,4.0909,0,0.00014745,1473.4,5.0345e-05,20.248,4.7651e-05,0.0081213,-0.00014709,-1463.2,1.7324
17917,17.443,4,0,0.00014526,1451.6,4.9674e-05,20.861,4.6899e-05,0.0088594,-0.00014489,-1441,1.747
17918,17.35,4,0.05,7.6936e-07,7.6883,5.9077e-07,4.4388,2.0015e-12,7.1417e-06,-5.9077e-07,-4.4388,1.7325
17919,17.35,4.2727,0,0.00014749,1473.9,5.0344e-05,20.068,4.7674e-05,0.0068389,-0.00014714,-1463.7,1.7322
17920,17.443,4.1818,0,0.00014529,1451.9,4.967e-05,20.663,4.6921e-05,0.0076726,-0.00014493,-1441.5,1.7468
17921,17.35,4.1818,0.05,7.6927e-07,7.6873,5.907e-07,4.4383,2.0158e-12,6.5813e-06,-5.907e-07,-4.4383,1.7323
17922,17.35,4.4545,0,0.00014754,1474.3,5.0345e-05,19.879,4.77e-05,0.0053448,-0.00014719,-1464.3,1.7319
17923,17.443,4.3636,0,0.00014534,1452.4,4.9666e-05,20.449,4.6945e-05,0.0062701,-0.00014498,-1442,1.7466
17924,17.35,4.3636,0.05,7.6916e-07,7.6862,5.9061e-07,4.4376,3.4015e-12,8.0731e-06,-5.9062e-07,-4.4377,1.732
17925,17.35,4.6364,0,0.0001476,1474.9,5.0348e-05,19.688,4.7728e-05,0.003639,-0.00014725,-1465,1.7316
17926,17.443,4.5455,0,0.00014539,1452.9,4.9665e-05,20.227,4.6973e-05,0.0046493,-0.00014503,-1442.7,1.7463
17927,17.35,4.5455,0.05,7.6903e-07,7.685,5.9052e-07,4.4369,3.405e-12,6.8085e-06,-5.9052e-07,-4.437,1.7318
17928,17.35,4.8182,0,0.00014767,1475.6,5.0356e-05,19.504,4.7761e-05,0.0017109,-0.00014732,-1465.8,1.7313
17929,17.443,4.7273,0,0.00014545,1453.5,4.9667e-05,20.004,4.7005e-05,0.0028126,-0.0001451,-1443.4,1.746
17930,17.35,4.7273,0.05,7.6889e-07,7.6835,5.9041e-07,4.4361,2.5003e-12,7.8852e-06,-5.9041e-07,-4.4361,1.7315
17931,17.35,5,0,0.00014775,1476.5,5.0369e-05,19.335,4.7796e-05,-0.00039322,-0.00014741,-1466.7,1.731
17932,17.443,4.9091,0,0.00014552,1454.2,4.9673e-05,19.791,4.7039e-05,0.00073421,-0.00014518,-1444.2,1.7457
17933,17.35,4.9091,0.05,7.6872e-07,7.6819,5.9028e-07,4.4351,3.8492e-12,8.3537e-06,-5.9029e-07,-4.4352,1.7311
17934,17.35,5.1818,0,0.00014784,1477.4,5.0388e-05,19.191,4.7834e-05,-0.0028336,-0.00014751,-1467.7,1.7306
17935,17.443,5.0909,0,0.00014561,1455.1,4.9685e-05,19.596,4.7077e-05,-0.001469,-0.00014527,-1445.2,1.7453
17936,17.35,5.0909,0.05,7.6853e-07,7.68,5.9013e-07,4.434,3.8469e-12,6.5358e-06,-5.9014e-07,-4.4341,1.7308
17937,17.35,5.3636,0,0.00014795,1478.5,5.0416e-05,19.085,4.7875e-05,-0.0049102,-0.00014762,-1468.9,1.7302
17938,17.443,5.2727,0,0.00014571,1456.1,4.9704e-05,19.431,4.7118e-05,-0.0042433,-0.00014537,-1446.3,1.745
17939,17.35,5.2727,0.05,7.6813e-07,7.676,5.8983e-07,4.4317,3.7945e-12,7.7724e-06,-5.8983e-07,-4.4318,1.7304
17940,17.35,5.5455,0,0.00014808,1479.8,5.046e-05,19.086,4.7919e-05,-0.010362,-0.00014775,-1470.2,1.7297
17941,17.443,5.4545,0,0.00014582,1457.2,4.9733e-05,19.313,4.7161e-05,-0.005705,-0.00014549,-1447.5,1.7445
17942,17.35,5.4545,0.05,7.6484e-07,7.6431,5.873e-07,4.4127,4.695e-12,7.7663e-06,-5.8731e-07,-4.4128,1.73
17943,17.35,5.7273,0,0.0001484,1483,5.0657e-05,20.211,4.7966e-05,-0.0083316,-0.00014804,-1472.8,1.7293
17944,17.443,5.6364,0,0.00014597,1458.7,4.9787e-05,19.365,4.7207e-05,-0.015277,-0.00014563,-1449,1.7441
17945,17.35,5.6364,0.05,7.1741e-07,7.1692,5.5088e-07,4.1391,5.5596e-12,8.5627e-06,-5.5089e-07,-4.1392,1.7295
17946,17.443,5.8182,0,0.00014647,1463.6,5.0136e-05,21.615,4.7259e-05,0.00050648,-0.00014609,-1452.7,1.7436
17947,17.35,5.8182,0.05,3.442e-08,0.34397,2.6435e-08,0.19859,-1.367e-11,-0.0001303,-2.6426e-08,-0.19859,1.729
17948,17.35,5.9091,0,0.00014763,1475.3,4.9908e-05,14.24,4.8012e-05,-0.0049632,-0.00014739,-1468.1,1.7288
17949,17.535,0.27273,0,0.00014402,1439.2,4.9246e-05,20.621,4.65e-05,-0.0086605,-0.00014366,-1428.8,1.7584
17950,17.628,0.18182,0,0.0001421,1420,4.8727e-05,22.012,4.5797e-05,0.00057534,-0.00014171,-1408.8,1.7728
17951,17.535,0.18182,0.05,3.5513e-08,0.35489,2.7265e-08,0.2049,1.6056e-11,0.00013527,-2.7274e-08,-0.20489,1.7582
17952,17.535,0.090909,0,0.00014324,1431.4,4.8478e-05,14.498,4.6548e-05,-0.0050995,-0.00014298,-1424.1,1.7579
17953,17.535,0.45455,0,0.00014371,1436.1,4.9054e-05,19.551,4.645e-05,-0.010751,-0.00014336,-1426.2,1.7589
17954,17.628,0.36364,0,0.0001416,1415,4.8381e-05,19.801,4.5743e-05,-0.015924,-0.00014126,-1405,1.7733
17955,17.535,0.36364,0.05,7.1465e-07,7.1415,5.4877e-07,4.1233,-4.611e-12,2.977e-06,-5.4875e-07,-4.1231,1.7587
17956,17.535,0.63636,0,0.00014358,1434.8,4.9016e-05,19.622,4.6404e-05,-0.0050233,-0.00014323,-1424.9,1.7593
17957,17.628,0.54545,0,0.00014146,1413.6,4.8334e-05,19.822,4.5695e-05,-0.0058675,-0.00014111,-1403.6,1.7737
17958,17.535,0.54545,0.05,7.6173e-07,7.6121,5.8492e-07,4.3949,-5.6069e-12,3.6404e-06,-5.8491e-07,-4.3948,1.7591
17959,17.535,0.81818,0,0.00014347,1433.7,4.8997e-05,19.801,4.6361e-05,-0.0028472,-0.00014312,-1423.7,1.7597
17960,17.628,0.72727,0,0.00014135,1412.5,4.8313e-05,20.015,4.5649e-05,-0.0043261,-0.00014099,-1402.4,1.7741
17961,17.535,0.72727,0.05,7.6501e-07,7.6449,5.8744e-07,4.4138,-4.2589e-12,7.317e-07,-5.8743e-07,-4.4137,1.7595
17962,17.535,1,0,0.00014338,1432.8,4.8985e-05,20.017,4.6321e-05,-0.00030557,-0.00014303,-1422.7,1.7601
17963,17.628,0.90909,0,0.00014125,1411.5,4.8302e-05,20.256,4.5606e-05,-0.0014286,-0.0001409,-1401.3,1.7745
17964,17.535,0.90909,0.05,7.6542e-07,7.6489,5.8775e-07,4.4162,-3.8379e-12,-1.448e-06,-5.8774e-07,-4.416,1.7599
17965,17.535,1.1818,0,0.0001433,1432.1,4.8979e-05,20.257,4.6284e-05,0.0018756,-0.00014295,-1421.8,1.7604
17966,17.628,1.0909,0,0.00014117,1410.7,4.8298e-05,20.525,4.5566e-05,0.00086092,-0.00014081,-1400.4,1.7749
17967,17.535,1.0909,0.05,7.6562e-07,7.6509,5.879e-07,4.4173,-3.8609e-12,-5.8428e-07,-5.8789e-07,-4.4172,1.7603
17968,17.535,1.3636,0,0.00014324,1431.4,4.8979e-05,20.508,4.625e-05,0.0038671,-0.00014288,-1421,1.7607
17969,17.628,1.2727,0,0.0001411,1410.1,4.8299e-05,20.81,4.553e-05,0.003013,-0.00014074,-1399.5,1.7752
17970,17.535,1.2727,0.05,7.6579e-07,7.6526,5.8803e-07,4.4183,-3.875e-12,3.1779e-07,-5.8803e-07,-4.4182,1.7606
17971,17.535,1.5455,0,0.00014318,1430.9,4.8982e-05,20.763,4.6219e-05,0.0056213,-0.00014282,-1420.4,1.761
17972,17.628,1.4545,0,0.00014105,1409.5,4.8304e-05,21.1,4.5497e-05,0.0049057,-0.00014068,-1398.8,1.7755
17973,17.535,1.4545,0.05,7.6593e-07,7.6541,5.8815e-07,4.4191,-3.4169e-12,9.8563e-07,-5.8814e-07,-4.419,1.7609
17974,17.535,1.7273,0,0.00014314,1430.4,4.8987e-05,21.01,4.6192e-05,0.0071515,-0.00014277,-1419.8,1.7613
17975,17.628,1.6364,0,0.000141,1409,4.8312e-05,21.385,4.5467e-05,0.0065708,-0.00014062,-1398.2,1.7757
17976,17.535,1.6364,0.05,7.6607e-07,7.6554,5.8825e-07,4.4199,-2.0556e-12,1.7415e-06,-5.8824e-07,-4.4198,1.7611
17977,17.535,1.9091,0,0.0001431,1430,4.8994e-05,21.242,4.6168e-05,0.0084597,-0.00014273,-1419.3,1.7615
17978,17.628,1.8182,0,0.00014096,1408.6,4.8322e-05,21.657,4.5441e-05,0.0080039,-0.00014058,-1397.7,1.776
17979,17.535,1.8182,0.05,7.6618e-07,7.6565,5.8833e-07,4.4205,-3.3956e-12,1.2319e-06,-5.8833e-07,-4.4204,1.7614
17980,17.535,2.0909,0,0.00014307,1429.7,4.9002e-05,21.452,4.6148e-05,0.0095522,-0.0001427,-1418.9,1.7617
17981,17.628,2,0,0.00014093,1408.3,4.8332e-05,21.905,4.5418e-05,0.0092141,-0.00014054,-1397.2,1.7761
17982,17.535,2,0.05,7.6628e-07,7.6575,5.8841e-07,4.4211,-2.0129e-12,1.8737e-06,-5.884e-07,-4.421,1.7616
17983,17.535,2.2727,0,0.00014305,1429.5,4.9009e-05,21.632,4.6132e-05,0.010435,-0.00014267,-1418.6,1.7618
17984,17.628,2.1818,0,0.0001409,1408.1,4.8342e-05,22.124,4.5399e-05,0.010209,-0.00014051,-1396.9,1.7763
17985,17.535,2.1818,0.05,7.6636e-07,7.6583,5.8847e-07,4.4215,-1.9823e-12,2.804e-06,-5.8846e-07,-4.4215,1.7617
17986,17.535,2.4545,0,0.00014303,1429.3,4.9016e-05,21.778,4.6119e-05,0.011115,-0.00014265,-1418.3,1.7619
17987,17.628,2.3636,0,0.00014089,1407.9,4.8351e-05,22.307,4.5384e-05,0.010995,-0.00014049,-1396.6,1.7764
17988,17.535,2.3636,0.05,7.6642e-07,7.6589,5.8852e-07,4.4219,-1.0457e-12,3.0406e-06,-5.8851e-07,-4.4218,1.7618
17989,17.535,2.6364,0,0.00014302,1429.2,4.9021e-05,21.885,4.6109e-05,0.011596,-0.00014263,-1418.1,1.762
17990,17.628,2.5455,0,0.00014087,1407.8,4.8359e-05,22.449,4.5372e-05,0.011577,-0.00014048,-1396.4,1.7765
17991,17.535,2.5455,0.05,7.6647e-07,7.6594,5.8855e-07,4.4222,-1.918e-12,3.7925e-06,-5.8855e-07,-4.4221,1.7619
17992,17.535,2.8182,0,0.00014301,1429.1,4.9024e-05,21.951,4.6104e-05,0.011882,-0.00014263,-1418,1.762
17993,17.628,2.7273,0,0.00014086,1407.7,4.8364e-05,22.545,4.5365e-05,0.011963,-0.00014047,-1396.3,1.7766
17994,17.535,2.7273,0.05,7.665e-07,7.6597,5.8857e-07,4.4223,-9.6956e-13,3.3598e-06,-5.8858e-07,-4.4223,1.762
17995,17.535,3,0,0.00014301,1429.1,4.9025e-05,21.973,4.6102e-05,0.011977,-0.00014262,-1418,1.7621
17996,17.628,2.9091,0,0.00014086,1407.6,4.8366e-05,22.594,4.5361e-05,0.012154,-0.00014046,-1396.2,1.7766
17997,17.535,2.9091,0.05,7.6651e-07,7.6598,5.8859e-07,4.4224,-2.0424e-14,3.8996e-06,-5.8859e-07,-4.4224,1.762
17998,17.535,3.1818,0,0.00014301,1429.1,4.9024e-05,21.951,4.6104e-05,0.011882,-0.00014263,-1418,1.762
17999,17.628,3.0909,0,0.00014086,1407.6,4.8366e-05,22.594,4.5361e-05,0.012154,-0.00014046,-1396.2,1.7766
18000,17.535,3.0909,0.05,7.6651e-07,7.6598,5.8859e-07,4.4224,2.0518e-14,3.969e-06,-5.8859e-07,-4.4224,1.762
18001,17.535,3.3636,0,0.00014302,1429.2,4.9021e-05,21.885,4.6109e-05,0.011596,-0.00014263,-1418.1,1.762
18002,17.628,3.2727,0,0.00014086,1407.7,4.8364e-05,22.545,4.5365e-05,0.011962,-0.00014047,-1396.3,1.7766
18003,17.535,3.2727,0.05,7.665e-07,7.6597,5.8857e-07,4.4223,9.7068e-13,5.706e-06,-5.8857e-07,-4.4223,1.762
18004,17.535,3.5455,0,0.00014303,1429.3,4.9016e-05,21.778,4.6119e-05,0.011115,-0.00014265,-1418.3,1.7619
18005,17.628,3.4545,0,0.00014087,1407.8,4.8359e-05,22.449,4.5372e-05,0.011578,-0.00014048,-1396.4,1.7765
18006,17.535,3.4545,0.05,7.6647e-07,7.6594,5.8855e-07,4.4221,5.5556e-13,6.0016e-06,-5.8855e-07,-4.4221,1.7619
18007,17.535,3.7273,0,0.00014305,1429.5,4.9009e-05,21.632,4.6132e-05,0.010435,-0.00014267,-1418.6,1.7618
18008,17.628,3.6364,0,0.00014089,1407.9,4.8351e-05,22.307,4.5384e-05,0.010994,-0.00014049,-1396.6,1.7764
18009,17.535,3.6364,0.05,7.6642e-07,7.6589,5.8851e-07,4.4219,1.0488e-12,6.75e-06,-5.8851e-07,-4.4219,1.7618
18010,17.535,3.9091,0,0.00014307,1429.7,4.9002e-05,21.452,4.6148e-05,0.009552,-0.0001427,-1418.9,1.7617
18011,17.628,3.8182,0,0.0001409,1408.1,4.8342e-05,22.124,4.5399e-05,0.010209,-0.00014051,-1396.9,1.7763
18012,17.535,3.8182,0.05,7.6636e-07,7.6583,5.8846e-07,4.4215,1.988e-12,7.4629e-06,-5.8847e-07,-4.4215,1.7617
18013,17.535,4.0909,0,0.0001431,1430,4.8994e-05,21.242,4.6168e-05,0.0084599,-0.00014273,-1419.3,1.7615
18014,17.628,4,0,0.00014093,1408.3,4.8332e-05,21.905,4.5418e-05,0.0092153,-0.00014054,-1397.2,1.7761
18015,17.535,4,0.05,7.6628e-07,7.6575,5.884e-07,4.421,2.0186e-12,7.4433e-06,-5.884e-07,-4.4211,1.7616
18016,17.535,4.2727,0,0.00014314,1430.4,4.8987e-05,21.01,4.6192e-05,0.0071519,-0.00014277,-1419.8,1.7613
18017,17.628,4.1818,0,0.00014096,1408.6,4.8322e-05,21.657,4.5441e-05,0.0080042,-0.00014058,-1397.7,1.776
18018,17.535,4.1818,0.05,7.6618e-07,7.6565,5.8833e-07,4.4205,2.0468e-12,6.8108e-06,-5.8833e-07,-4.4205,1.7614
18019,17.535,4.4545,0,0.00014318,1430.9,4.8982e-05,20.763,4.6219e-05,0.005621,-0.00014282,-1420.4,1.761
18020,17.628,4.3636,0,0.000141,1409,4.8312e-05,21.385,4.5467e-05,0.0065699,-0.00014062,-1398.2,1.7757
18021,17.535,4.3636,0.05,7.6607e-07,7.6554,5.8824e-07,4.4198,2.0523e-12,8.9246e-06,-5.8825e-07,-4.4199,1.7611
18022,17.535,4.6364,0,0.00014324,1431.4,4.8979e-05,20.508,4.625e-05,0.0038669,-0.00014288,-1421,1.7607
18023,17.628,4.5455,0,0.00014105,1409.5,4.8304e-05,21.1,4.5497e-05,0.0049058,-0.00014068,-1398.8,1.7755
18024,17.535,4.5455,0.05,7.6593e-07,7.6541,5.8814e-07,4.419,2.9759e-12,7.3856e-06,-5.8815e-07,-4.4191,1.7609
18025,17.535,4.8182,0,0.0001433,1432.1,4.8979e-05,20.257,4.6284e-05,0.0018764,-0.00014295,-1421.8,1.7604
18026,17.628,4.7273,0,0.0001411,1410.1,4.8299e-05,20.81,4.553e-05,0.0030127,-0.00014074,-1399.5,1.7752
18027,17.535,4.7273,0.05,7.6579e-07,7.6526,5.8803e-07,4.4182,3.4155e-12,9.0552e-06,-5.8803e-07,-4.4183,1.7606
18028,17.535,5,0,0.00014338,1432.8,4.8985e-05,20.017,4.6321e-05,-0.00030597,-0.00014303,-1422.7,1.7601
18029,17.628,4.9091,0,0.00014117,1410.7,4.8298e-05,20.525,4.5566e-05,0.00086131,-0.00014081,-1400.4,1.7749
18030,17.535,4.9091,0.05,7.6562e-07,7.6509,5.879e-07,4.4172,2.9526e-12,8.8329e-06,-5.879e-07,-4.4173,1.7603
18031,17.535,5.1818,0,0.00014347,1433.7,4.8997e-05,19.801,4.6361e-05,-0.0028499,-0.00014312,-1423.7,1.7597
18032,17.628,5.0909,0,0.00014125,1411.5,4.8302e-05,20.256,4.5606e-05,-0.0014295,-0.0001409,-1401.3,1.7745
18033,17.535,5.0909,0.05,7.6542e-07,7.6489,5.8774e-07,4.4161,3.8467e-12,7.59e-06,-5.8775e-07,-4.4161,1.7599
18034,17.535,5.3636,0,0.00014358,1434.8,4.9016e-05,19.622,4.6404e-05,-0.005025,-0.00014323,-1424.9,1.7593
18035,17.628,5.2727,0,0.00014135,1412.5,4.8313e-05,20.015,4.5649e-05,-0.0043293,-0.00014099,-1402.4,1.7741
18036,17.535,5.2727,0.05,7.6501e-07,7.6449,5.8743e-07,4.4137,3.8022e-12,8.2299e-06,-5.8744e-07,-4.4138,1.7595
18037,17.535,5.5455,0,0.00014371,1436.1,4.9054e-05,19.551,4.645e-05,-0.01075,-0.00014336,-1426.2,1.7589
18038,17.628,5.4545,0,0.00014146,1413.6,4.8334e-05,19.822,4.5695e-05,-0.0058668,-0.00014111,-1403.6,1.7737
18039,17.535,5.4545,0.05,7.6173e-07,7.6121,5.8491e-07,4.3948,4.72e-12,8.7177e-06,-5.8492e-07,-4.3949,1.7591
18040,17.535,5.7273,0,0.00014402,1439.2,4.9246e-05,20.621,4.65e-05,-0.0086587,-0.00014366,-1428.8,1.7584
18041,17.628,5.6364,0,0.0001416,1415,4.8381e-05,19.801,4.5743e-05,-0.015922,-0.00014126,-1405,1.7733
18042,17.535,5.6364,0.05,7.1465e-07,7.1415,5.4876e-07,4.1231,4.6147e-12,1.0166e-05,-5.4876e-07,-4.1232,1.7587
18043,17.628,5.8182,0,0.0001421,1420,4.8727e-05,22.012,4.5797e-05,0.00057616,-0.00014171,-1408.8,1.7728
18044,17.535,5.8182,0.05,3.5513e-08,0.35489,2.7274e-08,0.2049,-1.2436e-11,-0.00012014,-2.7266e-08,-0.20489,1.7582
18045,17.535,5.9091,0,0.00014324,1431.4,4.8478e-05,14.498,4.6548e-05,-0.0050988,-0.00014298,-1424.1,1.7579
18046,17.72,0.27273,0,0.00013966,1395.6,4.7842e-05,21.042,4.504e-05,-0.0090212,-0.00013929,-1385,1.7877
18047,17.812,0.18182,0,0.00013775,1376.5,4.7325e-05,22.417,4.4341e-05,0.00062979,-0.00013735,-1365.2,1.8021
18048,17.72,0.18182,0.05,3.6862e-08,0.36837,2.83e-08,0.21268,1.4557e-11,0.00013729,-2.831e-08,-0.21267,1.7875
18049,17.72,0.090909,0,0.00013886,1387.6,4.7056e-05,14.763,4.509e-05,-0.0052478,-0.0001386,-1380.2,1.7872
18050,17.72,0.45455,0,0.00013935,1392.5,4.7655e-05,20.03,4.4988e-05,-0.011171,-0.00013899,-1382.4,1.7882
18051,17.812,0.36364,0,0.00013725,1371.6,4.6982e-05,20.25,4.4285e-05,-0.016615,-0.0001369,-1361.3,1.8026
18052,17.72,0.36364,0.05,7.1194e-07,7.1145,5.4669e-07,4.1076,-4.677e-12,3.6586e-06,-5.4668e-07,-4.1075,1.7879
18053,17.72,0.63636,0,0.00013922,1391.2,4.7625e-05,20.178,4.4939e-05,-0.005152,-0.00013887,-1381,1.7886
18054,17.812,0.54545,0,0.00013711,1370.1,4.6943e-05,20.348,4.4234e-05,-0.0060453,-0.00013675,-1359.9,1.803
18055,17.72,0.54545,0.05,7.5868e-07,7.5815,5.8257e-07,4.3773,-3.7977e-12,2.005e-06,-5.8256e-07,-4.3771,1.7884
18056,17.72,0.81818,0,0.00013912,1390.2,4.7614e-05,20.434,4.4894e-05,-0.0028734,-0.00013876,-1379.9,1.789
18057,17.812,0.72727,0,0.000137,1369.1,4.6931e-05,20.621,4.4185e-05,-0.0044243,-0.00013664,-1358.7,1.8034
18058,17.72,0.72727,0.05,7.6194e-07,7.6142,5.8508e-07,4.3961,-3.7743e-12,2.1396e-07,-5.8507e-07,-4.396,1.7888
18059,17.72,1,0,0.00013904,1389.4,4.761e-05,20.727,4.4851e-05,-0.00022152,-0.00013867,-1378.9,1.7893
18060,17.812,0.90909,0,0.00013691,1368.2,4.6928e-05,20.943,4.414e-05,-0.0013947,-0.00013655,-1357.6,1.8038
18061,17.72,0.90909,0.05,7.6235e-07,7.6183,5.854e-07,4.3985,-4.2796e-12,-7.8728e-07,-5.8539e-07,-4.3984,1.7891
18062,17.72,1.1818,0,0.00013896,1388.7,4.7613e-05,21.042,4.4812e-05,0.0020432,-0.00013859,-1378,1.7897
18063,17.812,1.0909,0,0.00013684,1367.5,4.6932e-05,21.29,4.4098e-05,0.00098963,-0.00013646,-1356.7,1.8041
18064,17.72,1.0909,0.05,7.6256e-07,7.6203,5.8556e-07,4.3997,-3.4054e-12,1.0395e-06,-5.8555e-07,-4.3996,1.7895
18065,17.72,1.3636,0,0.0001389,1388.1,4.762e-05,21.366,4.4777e-05,0.0040993,-0.00013853,-1377.3,1.79
18066,17.812,1.2727,0,0.00013678,1366.8,4.6941e-05,21.652,4.406e-05,0.0032185,-0.0001364,-1355.9,1.8044
18067,17.72,1.2727,0.05,7.6274e-07,7.6221,5.8569e-07,4.4007,-2.9729e-12,1.3521e-06,-5.8568e-07,-4.4006,1.7898
18068,17.72,1.5455,0,0.00013886,1387.6,4.763e-05,21.688,4.4744e-05,0.0059049,-0.00013847,-1376.6,1.7902
18069,17.812,1.4545,0,0.00013673,1366.3,4.6954e-05,22.015,4.4025e-05,0.0051694,-0.00013634,-1355.2,1.8047
18070,17.72,1.4545,0.05,7.6289e-07,7.6237,5.8581e-07,4.4016,-3.4242e-12,1.4013e-06,-5.858e-07,-4.4015,1.7901
18071,17.72,1.7273,0,0.00013881,1387.2,4.7642e-05,21.997,4.4716e-05,0.007474,-0.00013843,-1376.1,1.7905
18072,17.812,1.6364,0,0.00013668,1365.9,4.697e-05,22.367,4.3994e-05,0.0068808,-0.00013629,-1354.6,1.805
18073,17.72,1.6364,0.05,7.6303e-07,7.625,5.8591e-07,4.4023,-2.9685e-12,1.9864e-06,-5.8591e-07,-4.4023,1.7903
18074,17.72,1.9091,0,0.00013878,1386.9,4.7655e-05,22.285,4.469e-05,0.0088096,-0.00013839,-1375.6,1.7907
18075,17.812,1.8182,0,0.00013665,1365.6,4.6986e-05,22.7,4.3966e-05,0.0083469,-0.00013625,-1354.1,1.8052
18076,17.72,1.8182,0.05,7.6315e-07,7.6262,5.86e-07,4.403,-2.949e-12,1.441e-06,-5.86e-07,-4.4029,1.7905
18077,17.72,2.0909,0,0.00013876,1386.6,4.7668e-05,22.544,4.4669e-05,0.0099227,-0.00013836,-1375.2,1.7908
18078,17.812,2,0,0.00013662,1365.3,4.7002e-05,23.003,4.3942e-05,0.0095829,-0.00013622,-1353.6,1.8054
18079,17.72,2,0.05,7.6325e-07,7.6272,5.8608e-07,4.4036,-2.0228e-12,2.5335e-06,-5.8608e-07,-4.4035,1.7907
18080,17.72,2.2727,0,0.00013874,1386.4,4.768e-05,22.765,4.4652e-05,0.010821,-0.00013833,-1374.9,1.791
18081,17.812,2.1818,0,0.0001366,1365.1,4.7017e-05,23.269,4.3922e-05,0.010595,-0.00013619,-1353.3,1.8055
18082,17.72,2.1818,0.05,7.6333e-07,7.628,5.8614e-07,4.4041,-1.9965e-12,3.4554e-06,-5.8614e-07,-4.404,1.7909
18083,17.72,2.4545,0,0.00013872,1386.3,4.769e-05,22.944,4.4638e-05,0.01151,-0.00013832,-1374.6,1.7911
18084,17.812,2.3636,0,0.00013659,1364.9,4.7031e-05,23.49,4.3906e-05,0.011392,-0.00013617,-1353,1.8057
18085,17.72,2.3636,0.05,7.6339e-07,7.6287,5.862e-07,4.4044,-1.5072e-12,3.953e-06,-5.8619e-07,-4.4044,1.791
18086,17.72,2.6364,0,0.00013871,1386.2,4.7697e-05,23.075,4.4628e-05,0.011996,-0.0001383,-1374.5,1.7912
18087,17.812,2.5455,0,0.00013658,1364.8,4.7041e-05,23.661,4.3894e-05,0.011983,-0.00013616,-1352.8,1.8057
18088,17.72,2.5455,0.05,7.6344e-07,7.6292,5.8623e-07,4.4047,-1.4684e-12,4.2295e-06,-5.8623e-07,-4.4047,1.7911
18089,17.72,2.8182,0,0.00013871,1386.1,4.7702e-05,23.154,4.4622e-05,0.012286,-0.0001383,-1374.4,1.7912
18090,17.812,2.7273,0,0.00013657,1364.7,4.7048e-05,23.777,4.3886e-05,0.012374,-0.00013615,-1352.7,1.8058
18091,17.72,2.7273,0.05,7.6348e-07,7.6295,5.8626e-07,4.4049,-5.1834e-13,4.0526e-06,-5.8625e-07,-4.4049,1.7912
18092,17.72,3,0,0.0001387,1386.1,4.7704e-05,23.181,4.462e-05,0.012382,-0.00013829,-1374.3,1.7912
18093,17.812,2.9091,0,0.00013656,1364.7,4.7052e-05,23.836,4.3882e-05,0.012566,-0.00013614,-1352.6,1.8058
18094,17.72,2.9091,0.05,7.6349e-07,7.6297,5.8627e-07,4.405,-9.3102e-13,4.8455e-06,-5.8627e-07,-4.405,1.7912
18095,17.72,3.1818,0,0.00013871,1386.1,4.7702e-05,23.154,4.4622e-05,0.012286,-0.0001383,-1374.4,1.7912
18096,17.812,3.0909,0,0.00013656,1364.7,4.7052e-05,23.836,4.3882e-05,0.012567,-0.00013614,-1352.6,1.8058
18097,17.72,3.0909,0.05,7.6349e-07,7.6297,5.8627e-07,4.405,2.1645e-14,4.6924e-06,-5.8627e-07,-4.405,1.7912
18098,17.72,3.3636,0,0.00013871,1386.2,4.7697e-05,23.075,4.4628e-05,0.011996,-0.0001383,-1374.5,1.7912
18099,17.812,3.2727,0,0.00013657,1364.7,4.7048e-05,23.777,4.3886e-05,0.012373,-0.00013615,-1352.7,1.8058
18100,17.72,3.2727,0.05,7.6348e-07,7.6295,5.8625e-07,4.4049,6.4838e-14,5.7302e-06,-5.8626e-07,-4.4049,1.7912
18101,17.72,3.5455,0,0.00013872,1386.3,4.769e-05,22.944,4.4638e-05,0.011508,-0.00013832,-1374.6,1.7911
18102,17.812,3.4545,0,0.00013658,1364.8,4.7041e-05,23.661,4.3894e-05,0.011984,-0.00013616,-1352.8,1.8057
18103,17.72,3.4545,0.05,7.6344e-07,7.6292,5.8623e-07,4.4047,5.6054e-13,5.8033e-06,-5.8623e-07,-4.4047,1.7911
18104,17.72,3.7273,0,0.00013874,1386.4,4.768e-05,22.765,4.4652e-05,0.010819,-0.00013833,-1374.9,1.791
18105,17.812,3.6364,0,0.00013659,1364.9,4.7031e-05,23.49,4.3906e-05,0.011392,-0.00013617,-1353,1.8057
18106,17.72,3.6364,0.05,7.6339e-07,7.6287,5.8619e-07,4.4044,5.997e-13,7.0539e-06,-5.8619e-07,-4.4044,1.791
18107,17.72,3.9091,0,0.00013876,1386.6,4.7668e-05,22.544,4.4669e-05,0.0099239,-0.00013836,-1375.2,1.7908
18108,17.812,3.8182,0,0.0001366,1365.1,4.7017e-05,23.269,4.3922e-05,0.010595,-0.00013619,-1353.3,1.8055
18109,17.72,3.8182,0.05,7.6333e-07,7.628,5.8614e-07,4.404,1.5431e-12,8.5031e-06,-5.8614e-07,-4.404,1.7909
18110,17.72,4.0909,0,0.00013878,1386.9,4.7655e-05,22.285,4.469e-05,0.0088109,-0.00013839,-1375.6,1.7907
18111,17.812,4,0,0.00013662,1365.3,4.7002e-05,23.004,4.3942e-05,0.0095824,-0.00013622,-1353.6,1.8054
18112,17.72,4,0.05,7.6325e-07,7.6272,5.8608e-07,4.4035,1.5759e-12,8.0123e-06,-5.8608e-07,-4.4036,1.7907
18113,17.72,4.2727,0,0.00013881,1387.2,4.7642e-05,21.997,4.4716e-05,0.007473,-0.00013843,-1376.1,1.7905
18114,17.812,4.1818,0,0.00013665,1365.6,4.6986e-05,22.7,4.3966e-05,0.0083475,-0.00013625,-1354.1,1.8052
18115,17.72,4.1818,0.05,7.6315e-07,7.6262,5.86e-07,4.403,2.0467e-12,7.4688e-06,-5.86e-07,-4.403,1.7905
18116,17.72,4.4545,0,0.00013886,1387.6,4.763e-05,21.688,4.4744e-05,0.0059044,-0.00013847,-1376.6,1.7902
18117,17.812,4.3636,0,0.00013668,1365.9,4.697e-05,22.368,4.3994e-05,0.0068793,-0.00013629,-1354.6,1.805
18118,17.72,4.3636,0.05,7.6303e-07,7.625,5.8591e-07,4.4023,2.972e-12,9.4698e-06,-5.8591e-07,-4.4023,1.7903
18119,17.72,4.6364,0,0.0001389,1388.1,4.762e-05,21.366,4.4777e-05,0.0040994,-0.00013853,-1377.3,1.79
18120,17.812,4.5455,0,0.00013673,1366.3,4.6954e-05,22.015,4.4025e-05,0.0051712,-0.00013634,-1355.2,1.8047
18121,17.72,4.5455,0.05,7.6289e-07,7.6237,5.858e-07,4.4015,2.5262e-12,7.8488e-06,-5.8581e-07,-4.4015,1.7901
18122,17.72,4.8182,0,0.00013896,1388.7,4.7613e-05,21.042,4.4812e-05,0.0020425,-0.00013859,-1378,1.7897
18123,17.812,4.7273,0,0.00013678,1366.8,4.6941e-05,21.652,4.406e-05,0.0032175,-0.0001364,-1355.9,1.8044
18124,17.72,4.7273,0.05,7.6274e-07,7.6221,5.8568e-07,4.4006,3.4361e-12,8.9349e-06,-5.8569e-07,-4.4007,1.7898
18125,17.72,5,0,0.00013904,1389.4,4.761e-05,20.728,4.4851e-05,-0.00022162,-0.00013867,-1378.9,1.7893
18126,17.812,4.9091,0,0.00013684,1367.5,4.6932e-05,21.29,4.4098e-05,0.00098898,-0.00013647,-1356.7,1.8041
18127,17.72,4.9091,0.05,7.6256e-07,7.6203,5.8555e-07,4.3996,3.4195e-12,9.5033e-06,-5.8555e-07,-4.3996,1.7895
18128,17.72,5.1818,0,0.00013912,1390.2,4.7614e-05,20.434,4.4894e-05,-0.0028748,-0.00013876,-1379.9,1.789
18129,17.812,5.0909,0,0.00013691,1368.2,4.6928e-05,20.943,4.414e-05,-0.0013941,-0.00013655,-1357.6,1.8038
18130,17.72,5.0909,0.05,7.6235e-07,7.6183,5.8539e-07,4.3984,3.8581e-12,7.42e-06,-5.854e-07,-4.3985,1.7891
18131,17.72,5.3636,0,0.00013922,1391.2,4.7625e-05,20.178,4.4939e-05,-0.0051528,-0.00013887,-1381,1.7886
18132,17.812,5.2727,0,0.000137,1369.1,4.6931e-05,20.621,4.4185e-05,-0.0044263,-0.00013664,-1358.7,1.8034
18133,17.72,5.2727,0.05,7.6194e-07,7.6142,5.8507e-07,4.396,3.816e-12,8.8883e-06,-5.8508e-07,-4.3961,1.7888
18134,17.72,5.5455,0,0.00013935,1392.5,4.7655e-05,20.03,4.4988e-05,-0.011169,-0.00013899,-1382.4,1.7882
18135,17.812,5.4545,0,0.00013711,1370.1,4.6943e-05,20.348,4.4234e-05,-0.0060458,-0.00013675,-1359.9,1.803
18136,17.72,5.4545,0.05,7.5868e-07,7.5815,5.8256e-07,4.3771,3.785e-12,9.089e-06,-5.8257e-07,-4.3772,1.7884
18137,17.72,5.7273,0,0.00013966,1395.6,4.7842e-05,21.042,4.504e-05,-0.0090202,-0.00013929,-1385,1.7877
18138,17.812,5.6364,0,0.00013725,1371.6,4.6982e-05,20.25,4.4285e-05,-0.016612,-0.0001369,-1361.3,1.8026
18139,17.72,5.6364,0.05,7.1194e-07,7.1145,5.4668e-07,4.1075,5.0783e-12,1.0687e-05,-5.4669e-07,-4.1076,1.7879
18140,17.812,5.8182,0,0.00013775,1376.5,4.7325e-05,22.417,4.4341e-05,0.00062998,-0.00013735,-1365.2,1.8021
18141,17.72,5.8182,0.05,3.6863e-08,0.36837,2.831e-08,0.21268,-1.2711e-11,-0.00012199,-2.8302e-08,-0.21267,1.7875
18142,17.72,5.9091,0,0.00013886,1387.6,4.7056e-05,14.763,4.509e-05,-0.0052473,-0.0001386,-1380.2,1.7872
18143,17.905,0.27273,0,0.00013532,1352.2,4.6445e-05,21.473,4.3586e-05,-0.009418,-0.00013494,-1341.4,1.8171
18144,17.997,0.18182,0,0.00013342,1333.2,4.593e-05,22.831,4.2891e-05,0.00066716,-0.00013301,-1321.7,1.8316
18145,17.905,0.18182,0.05,3.8528e-08,0.38502,2.9581e-08,0.22229,1.4555e-11,0.00013735,-2.9588e-08,-0.22228,1.8168
18146,17.905,0.090909,0,0.0001345,1344.1,4.564e-05,15.033,4.3638e-05,-0.0054063,-0.00013424,-1336.5,1.8166
18147,17.905,0.45455,0,0.00013501,1349.1,4.6264e-05,20.525,4.3531e-05,-0.011621,-0.00013465,-1338.8,1.8175
18148,17.997,0.36364,0,0.00013292,1328.3,4.5591e-05,20.712,4.2832e-05,-0.017353,-0.00013255,-1317.8,1.832
18149,17.905,0.36364,0.05,7.093e-07,7.0881,5.4466e-07,4.0924,-4.1142e-12,7.3565e-06,-5.4465e-07,-4.0922,1.8173
18150,17.905,0.63636,0,0.00013489,1347.9,4.6243e-05,20.754,4.348e-05,-0.0052935,-0.00013452,-1337.4,1.8179
18151,17.997,0.54545,0,0.00013278,1326.9,4.556e-05,20.893,4.2778e-05,-0.00624,-0.00013241,-1316.3,1.8324
18152,17.905,0.54545,0.05,7.5566e-07,7.5514,5.8026e-07,4.3599,-3.775e-12,7.9888e-07,-5.8025e-07,-4.3597,1.8177
18153,17.905,0.81818,0,0.00013479,1347,4.624e-05,21.093,4.3432e-05,-0.0029057,-0.00013442,-1336.3,1.8183
18154,17.997,0.72727,0,0.00013268,1325.9,4.5557e-05,21.252,4.2728e-05,-0.0045319,-0.00013231,-1315.1,1.8328
18155,17.905,0.72727,0.05,7.5891e-07,7.5839,5.8276e-07,4.3786,-4.2884e-12,-2.3355e-06,-5.8275e-07,-4.3785,1.8181
18156,17.905,1,0,0.00013471,1346.2,4.6245e-05,21.469,4.3387e-05,-0.00013762,-0.00013433,-1335.3,1.8186
18157,17.997,0.90909,0,0.0001326,1325.1,4.5563e-05,21.66,4.268e-05,-0.0013606,-0.00013222,-1314.1,1.8332
18158,17.905,0.90909,0.05,7.5934e-07,7.5881,5.8308e-07,4.3811,-3.8617e-12,-2.3907e-06,-5.8307e-07,-4.3809,1.8185
18159,17.905,1.1818,0,0.00013465,1345.5,4.6256e-05,21.864,4.3346e-05,0.0022145,-0.00013426,-1334.5,1.819
18160,17.997,1.0909,0,0.00013253,1324.4,4.5576e-05,22.092,4.2636e-05,0.001121,-0.00013214,-1313.2,1.8335
18161,17.905,1.0909,0.05,7.5955e-07,7.5903,5.8325e-07,4.3823,-3.8821e-12,-7.5073e-07,-5.8324e-07,-4.3822,1.8188
18162,17.905,1.3636,0,0.00013459,1345,4.6271e-05,22.265,4.3308e-05,0.0043404,-0.0001342,-1333.7,1.8193
18163,17.997,1.2727,0,0.00013247,1323.8,4.5594e-05,22.535,4.2595e-05,0.003432,-0.00013208,-1312.4,1.8338
18164,17.905,1.2727,0.05,7.5974e-07,7.5921,5.8339e-07,4.3833,-3.4336e-12,-7.6561e-07,-5.8338e-07,-4.3833,1.8191
18165,17.905,1.5455,0,0.00013455,1344.6,4.6289e-05,22.659,4.3274e-05,0.0061984,-0.00013415,-1333.1,1.8195
18166,17.997,1.4545,0,0.00013243,1323.4,4.5616e-05,22.976,4.2558e-05,0.0054444,-0.00013202,-1311.7,1.8341
18167,17.905,1.4545,0.05,7.599e-07,7.5937,5.8351e-07,4.3843,-2.5296e-12,-9.2449e-07,-5.8351e-07,-4.3842,1.8194
18168,17.905,1.7273,0,0.00013451,1344.2,4.6309e-05,23.035,4.3244e-05,0.0078072,-0.00013411,-1332.5,1.8197
18169,17.997,1.6364,0,0.00013239,1323,4.5639e-05,23.401,4.2525e-05,0.007203,-0.00013198,-1311.1,1.8343
18170,17.905,1.6364,0.05,7.6004e-07,7.5952,5.8362e-07,4.3851,-2.5163e-12,1.1271e-07,-5.8361e-07,-4.385,1.8196
18171,17.905,1.9091,0,0.00013448,1343.9,4.6328e-05,23.384,4.3217e-05,0.0091738,-0.00013407,-1332.1,1.8199
18172,17.997,1.8182,0,0.00013236,1322.7,4.5662e-05,23.8,4.2496e-05,0.0087052,-0.00013194,-1310.6,1.8345
18173,17.905,1.8182,0.05,7.6017e-07,7.5964,5.8371e-07,4.3858,-2.0491e-12,-5.6017e-07,-5.8371e-07,-4.3858,1.8198
18174,17.905,2.0909,0,0.00013446,1343.7,4.6347e-05,23.694,4.3195e-05,0.010308,-0.00013404,-1331.7,1.8201
18175,17.997,2,0,0.00013234,1322.5,4.5685e-05,24.162,4.2471e-05,0.0099674,-0.00013191,-1310.2,1.8347
18176,17.905,2,0.05,7.6027e-07,7.5975,5.8379e-07,4.3864,-2.0293e-12,5.8991e-07,-5.8379e-07,-4.3864,1.82
18177,17.905,2.2727,0,0.00013445,1343.5,4.6364e-05,23.96,4.3176e-05,0.011219,-0.00013402,-1331.4,1.8202
18178,17.997,2.1818,0,0.00013232,1322.3,4.5706e-05,24.478,4.2449e-05,0.010997,-0.00013189,-1309.9,1.8348
18179,17.905,2.1818,0.05,7.6036e-07,7.5983,5.8386e-07,4.3869,-1.9977e-12,1.0211e-06,-5.8386e-07,-4.3869,1.8202
18180,17.905,2.4545,0,0.00013443,1343.4,4.6377e-05,24.173,4.3162e-05,0.011919,-0.00013401,-1331.2,1.8204
18181,17.997,2.3636,0,0.00013231,1322.2,4.5723e-05,24.74,4.2432e-05,0.011808,-0.00013187,-1309.6,1.835
18182,17.905,2.3636,0.05,7.6043e-07,7.599,5.8392e-07,4.3873,-1.0571e-12,1.0529e-06,-5.8391e-07,-4.3873,1.8203
18183,17.905,2.6364,0,0.00013443,1343.3,4.6388e-05,24.329,4.3151e-05,0.012414,-0.000134,-1331,1.8204
18184,17.997,2.5455,0,0.0001323,1322.1,4.5737e-05,24.942,4.242e-05,0.012408,-0.00013186,-1309.5,1.8351
18185,17.905,2.5455,0.05,7.6048e-07,7.5995,5.8395e-07,4.3876,-1.4715e-12,1.8036e-06,-5.8395e-07,-4.3876,1.8204
18186,17.905,2.8182,0,0.00013442,1343.3,4.6394e-05,24.424,4.3145e-05,0.012707,-0.00013399,-1330.9,1.8205
18187,17.997,2.7273,0,0.0001323,1322.1,4.5747e-05,25.079,4.2411e-05,0.012804,-0.00013185,-1309.3,1.8351
18188,17.905,2.7273,0.05,7.6051e-07,7.5999,5.8398e-07,4.3878,-5.2146e-13,1.4096e-06,-5.8398e-07,-4.3878,1.8204
18189,17.905,3,0,0.00013442,1343.3,4.6396e-05,24.456,4.3143e-05,0.012804,-0.00013399,-1330.9,1.8205
18190,17.997,2.9091,0,0.00013229,1322,4.5752e-05,25.149,4.2407e-05,0.013,-0.00013185,-1309.3,1.8352
18191,17.905,2.9091,0.05,7.6053e-07,7.6,5.8399e-07,4.3879,-4.7711e-13,2.4547e-06,-5.8399e-07,-4.3879,1.8205
18192,17.905,3.1818,0,0.00013442,1343.3,4.6394e-05,24.424,4.3145e-05,0.012707,-0.00013399,-1330.9,1.8205
18193,17.997,3.0909,0,0.00013229,1322,4.5752e-05,25.149,4.2407e-05,0.013,-0.00013185,-1309.3,1.8352
18194,17.905,3.0909,0.05,7.6053e-07,7.6,5.8399e-07,4.3879,2.2447e-14,2.7913e-06,-5.8399e-07,-4.3879,1.8205
18195,17.905,3.3636,0,0.00013443,1343.3,4.6388e-05,24.329,4.3151e-05,0.012414,-0.000134,-1331,1.8204
18196,17.997,3.2727,0,0.0001323,1322.1,4.5747e-05,25.079,4.2411e-05,0.012804,-0.00013185,-1309.3,1.8351
18197,17.905,3.2727,0.05,7.6051e-07,7.5999,5.8398e-07,4.3878,6.741e-14,3.8451e-06,-5.8398e-07,-4.3878,1.8204
18198,17.905,3.5455,0,0.00013443,1343.4,4.6377e-05,24.173,4.3162e-05,0.01192,-0.00013401,-1331.2,1.8204
18199,17.997,3.4545,0,0.0001323,1322.1,4.5737e-05,24.942,4.242e-05,0.012409,-0.00013186,-1309.5,1.8351
18200,17.905,3.4545,0.05,7.6048e-07,7.5995,5.8395e-07,4.3876,1.0204e-12,3.9368e-06,-5.8395e-07,-4.3876,1.8204
18201,17.905,3.7273,0,0.00013445,1343.5,4.6364e-05,23.96,4.3176e-05,0.011221,-0.00013402,-1331.4,1.8202
18202,17.997,3.6364,0,0.00013231,1322.2,4.5723e-05,24.74,4.2432e-05,0.011808,-0.00013187,-1309.6,1.835
18203,17.905,3.6364,0.05,7.6043e-07,7.599,5.8391e-07,4.3873,6.0596e-13,4.9509e-06,-5.8391e-07,-4.3873,1.8203
18204,17.905,3.9091,0,0.00013446,1343.7,4.6347e-05,23.694,4.3195e-05,0.010307,-0.00013404,-1331.7,1.8201
18205,17.997,3.8182,0,0.00013232,1322.3,4.5706e-05,24.478,4.2449e-05,0.010998,-0.00013189,-1309.9,1.8348
18206,17.905,3.8182,0.05,7.6036e-07,7.5983,5.8386e-07,4.3869,2.0057e-12,6.1765e-06,-5.8386e-07,-4.3869,1.8202
18207,17.905,4.0909,0,0.00013448,1343.9,4.6328e-05,23.384,4.3217e-05,0.0091726,-0.00013407,-1332.1,1.8199
18208,17.997,4,0,0.00013234,1322.5,4.5685e-05,24.162,4.2471e-05,0.0099656,-0.00013191,-1310.2,1.8347
18209,17.905,4,0.05,7.6027e-07,7.5975,5.8379e-07,4.3864,2.0346e-12,5.4625e-06,-5.8379e-07,-4.3864,1.82
18210,17.905,4.2727,0,0.00013451,1344.2,4.6309e-05,23.035,4.3244e-05,0.0078074,-0.00013411,-1332.5,1.8197
18211,17.997,4.1818,0,0.00013236,1322.7,4.5662e-05,23.8,4.2496e-05,0.0087054,-0.00013194,-1310.6,1.8345
18212,17.905,4.1818,0.05,7.6017e-07,7.5964,5.8371e-07,4.3858,1.6125e-12,5.5949e-06,-5.8371e-07,-4.3858,1.8198
18213,17.905,4.4545,0,0.00013455,1344.6,4.6289e-05,22.659,4.3274e-05,0.0061992,-0.00013415,-1333.1,1.8195
18214,17.997,4.3636,0,0.00013239,1323,4.5639e-05,23.402,4.2525e-05,0.0072025,-0.00013198,-1311.1,1.8343
18215,17.905,4.3636,0.05,7.6004e-07,7.5952,5.8362e-07,4.3851,2.9868e-12,7.1586e-06,-5.8362e-07,-4.3851,1.8196
18216,17.905,4.6364,0,0.00013459,1345,4.6271e-05,22.265,4.3308e-05,0.0043412,-0.0001342,-1333.7,1.8193
18217,17.997,4.5455,0,0.00013243,1323.4,4.5616e-05,22.976,4.2558e-05,0.0054456,-0.00013202,-1311.7,1.8341
18218,17.905,4.5455,0.05,7.599e-07,7.5937,5.8351e-07,4.3842,2.0922e-12,6.1168e-06,-5.8351e-07,-4.3843,1.8194
18219,17.905,4.8182,0,0.00013465,1345.5,4.6256e-05,21.864,4.3346e-05,0.0022137,-0.00013426,-1334.5,1.819
18220,17.997,4.7273,0,0.00013247,1323.8,4.5594e-05,22.536,4.2595e-05,0.003431,-0.00013208,-1312.4,1.8338
18221,17.905,4.7273,0.05,7.5974e-07,7.5921,5.8338e-07,4.3833,2.0804e-12,7.0431e-06,-5.8339e-07,-4.3834,1.8191
18222,17.905,5,0,0.00013471,1346.2,4.6245e-05,21.469,4.3387e-05,-0.00013755,-0.00013433,-1335.3,1.8186
18223,17.997,4.9091,0,0.00013253,1324.4,4.5576e-05,22.092,4.2636e-05,0.0011203,-0.00013214,-1313.2,1.8335
18224,17.905,4.9091,0.05,7.5955e-07,7.5903,5.8324e-07,4.3822,3.4057e-12,6.8524e-06,-5.8325e-07,-4.3823,1.8188
18225,17.905,5.1818,0,0.00013479,1347,4.624e-05,21.093,4.3432e-05,-0.0029057,-0.00013442,-1336.3,1.8183
18226,17.997,5.0909,0,0.0001326,1325.1,4.5563e-05,21.66,4.268e-05,-0.00136,-0.00013222,-1314.1,1.8332
18227,17.905,5.0909,0.05,7.5934e-07,7.5881,5.8307e-07,4.381,3.8406e-12,5.1238e-06,-5.8308e-07,-4.381,1.8185
18228,17.905,5.3636,0,0.00013489,1347.9,4.6243e-05,20.754,4.348e-05,-0.0052952,-0.00013452,-1337.4,1.8179
18229,17.997,5.2727,0,0.00013268,1325.9,4.5557e-05,21.252,4.2728e-05,-0.0045339,-0.00013231,-1315.1,1.8328
18230,17.905,5.2727,0.05,7.5891e-07,7.5839,5.8275e-07,4.3785,3.8091e-12,6.3727e-06,-5.8275e-07,-4.3786,1.8181
18231,17.905,5.5455,0,0.00013501,1349.1,4.6264e-05,20.525,4.3531e-05,-0.01162,-0.00013465,-1338.8,1.8175
18232,17.997,5.4545,0,0.00013278,1326.9,4.556e-05,20.893,4.2778e-05,-0.0062416,-0.00013241,-1316.3,1.8324
18233,17.905,5.4545,0.05,7.5566e-07,7.5514,5.8025e-07,4.3598,3.7511e-12,6.5337e-06,-5.8026e-07,-4.3599,1.8177
18234,17.905,5.7273,0,0.00013532,1352.2,4.6445e-05,21.473,4.3586e-05,-0.0094162,-0.00013494,-1341.4,1.8171
18235,17.997,5.6364,0,0.00013292,1328.3,4.5591e-05,20.712,4.2832e-05,-0.017351,-0.00013255,-1317.8,1.832
18236,17.905,5.6364,0.05,7.093e-07,7.0881,5.4465e-07,4.0923,4.5951e-12,7.0058e-06,-5.4466e-07,-4.0924,1.8173
18237,17.997,5.8182,0,0.00013342,1333.2,4.593e-05,22.831,4.2891e-05,0.00066788,-0.00013301,-1321.7,1.8316
18238,17.905,5.8182,0.05,3.8528e-08,0.38502,2.9589e-08,0.22229,-1.0921e-11,-0.00012213,-2.9581e-08,-0.22229,1.8168
18239,17.905,5.9091,0,0.0001345,1344.1,4.564e-05,15.033,4.3638e-05,-0.0054097,-0.00013424,-1336.5,1.8166
18240,18.089,0.27273,0,0.00013099,1309,4.5055e-05,21.915,4.2137e-05,-0.0098511,-0.00013061,-1298,1.8465
18241,18.182,0.18182,0,0.0001291,1290.2,4.4542e-05,23.254,4.1447e-05,0.00069795,-0.00012869,-1278.4,1.8611
18242,18.089,0.18182,0.05,4.0569e-08,0.40541,3.1148e-08,0.23407,1.4416e-11,0.00015148,-3.1157e-08,-0.23406,1.8463
18243,18.089,0.090909,0,0.00013016,1300.7,4.4231e-05,15.309,4.2193e-05,-0.0055867,-0.0001299,-1293,1.8461
18244,18.089,0.45455,0,0.00013069,1306,4.4881e-05,21.037,4.208e-05,-0.012104,-0.00013032,-1295.3,1.8469
18245,18.182,0.36364,0,0.00012861,1285.2,4.4207e-05,21.189,4.1385e-05,-0.018132,-0.00012823,-1274.5,1.8615
18246,18.089,0.36364,0.05,7.0672e-07,7.0623,5.4267e-07,4.0775,-3.7363e-12,9.1579e-06,-5.4267e-07,-4.0773,1.8467
18247,18.089,0.63636,0,0.00013057,1304.8,4.4869e-05,21.353,4.2026e-05,-0.0054479,-0.0001302,-1294,1.8473
18248,18.182,0.54545,0,0.00012847,1283.9,4.4185e-05,21.459,4.1329e-05,-0.0064429,-0.0001281,-1273,1.8619
18249,18.089,0.54545,0.05,7.5269e-07,7.5217,5.7798e-07,4.3427,-3.302e-12,6.861e-06,-5.7797e-07,-4.3426,1.8471
18250,18.089,0.81818,0,0.00013048,1303.9,4.4875e-05,21.781,4.1976e-05,-0.0029404,-0.0001301,-1292.9,1.8477
18251,18.182,0.72727,0,0.00012838,1282.9,4.4192e-05,21.91,4.1275e-05,-0.0046387,-0.00012799,-1271.8,1.8623
18252,18.089,0.72727,0.05,7.5593e-07,7.5541,5.8047e-07,4.3614,-3.3604e-12,1.7637e-06,-5.8046e-07,-4.3613,1.8475
18253,18.089,1,0,0.00013041,1303.2,4.4889e-05,22.246,4.1929e-05,-5.0181e-05,-0.00013002,-1291.9,1.848
18254,18.182,0.90909,0,0.0001283,1282.1,4.4208e-05,22.41,4.1225e-05,-0.0013155,-0.00012791,-1270.8,1.8626
18255,18.089,0.90909,0.05,7.5637e-07,7.5584,5.808e-07,4.3639,-3.8639e-12,3.9142e-07,-5.8079e-07,-4.3638,1.8479
18256,18.089,1.1818,0,0.00013035,1302.6,4.491e-05,22.727,4.1885e-05,0.0023932,-0.00012995,-1291.1,1.8484
18257,18.182,1.0909,0,0.00012824,1281.5,4.4231e-05,22.934,4.1178e-05,0.0012703,-0.00012784,-1269.9,1.8629
18258,18.089,1.0909,0.05,7.5659e-07,7.5607,5.8097e-07,4.3652,-3.4414e-12,3.2565e-07,-5.8097e-07,-4.3651,1.8482
18259,18.089,1.3636,0,0.0001303,1302.1,4.4934e-05,23.21,4.1845e-05,0.0045922,-0.00012989,-1290.4,1.8486
18260,18.182,1.2727,0,0.00012819,1281,4.4258e-05,23.465,4.1136e-05,0.0036654,-0.00012778,-1269.1,1.8632
18261,18.089,1.2727,0.05,7.5679e-07,7.5626,5.8112e-07,4.3663,-2.9799e-12,1.0679e-07,-5.8112e-07,-4.3663,1.8485
18262,18.089,1.5455,0,0.00013026,1301.7,4.496e-05,23.682,4.1809e-05,0.0065058,-0.00012984,-1289.7,1.8489
18263,18.182,1.4545,0,0.00012815,1280.6,4.4289e-05,23.99,4.1097e-05,0.0057436,-0.00012773,-1268.5,1.8635
18264,18.089,1.4545,0.05,7.5696e-07,7.5644,5.8125e-07,4.3673,-2.9916e-12,8.2764e-07,-5.8125e-07,-4.3672,1.8488
18265,18.089,1.7273,0,0.00013023,1301.4,4.4988e-05,24.131,4.1777e-05,0.0081575,-0.00012981,-1289.2,1.8491
18266,18.182,1.6364,0,0.00012812,1280.3,4.432e-05,24.493,4.1062e-05,0.0075523,-0.00012769,-1267.9,1.8637
18267,18.089,1.6364,0.05,7.5711e-07,7.5659,5.8137e-07,4.3682,-2.5244e-12,1.9227e-06,-5.8136e-07,-4.3681,1.849
18268,18.089,1.9091,0,0.00013021,1301.2,4.5014e-05,24.543,4.1749e-05,0.0095548,-0.00012978,-1288.8,1.8493
18269,18.182,1.8182,0,0.0001281,1280.1,4.4352e-05,24.963,4.1031e-05,0.0090922,-0.00012766,-1267.4,1.8639
18270,18.089,1.8182,0.05,7.5724e-07,7.5672,5.8147e-07,4.3689,-2.5109e-12,1.2863e-06,-5.8146e-07,-4.3689,1.8492
18271,18.089,2.0909,0,0.00013019,1301,4.5039e-05,24.91,4.1725e-05,0.010712,-0.00012975,-1288.4,1.8495
18272,18.182,2,0,0.00012808,1279.9,4.4381e-05,25.388,4.1004e-05,0.010381,-0.00012763,-1267,1.8641
18273,18.089,2,0.05,7.5735e-07,7.5683,5.8155e-07,4.3696,-2.0367e-12,1.9438e-06,-5.8155e-07,-4.3695,1.8494
18274,18.089,2.2727,0,0.00013018,1300.9,4.5061e-05,25.223,4.1706e-05,0.01164,-0.00012973,-1288.1,1.8496
18275,18.182,2.1818,0,0.00012807,1279.8,4.4408e-05,25.758,4.0981e-05,0.011431,-0.00012761,-1266.7,1.8643
18276,18.089,2.1818,0.05,7.5744e-07,7.5692,5.8162e-07,4.3701,-1.5543e-12,2.6284e-06,-5.8162e-07,-4.37,1.8495
18277,18.089,2.4545,0,0.00013017,1300.8,4.5079e-05,25.474,4.169e-05,0.012351,-0.00012972,-1287.9,1.8497
18278,18.182,2.3636,0,0.00012806,1279.7,4.4431e-05,26.064,4.0963e-05,0.012256,-0.0001276,-1266.5,1.8644
18279,18.089,2.3636,0.05,7.5751e-07,7.5699,5.8168e-07,4.3705,-1.5217e-12,3.6192e-06,-5.8167e-07,-4.3705,1.8496
18280,18.089,2.6364,0,0.00013017,1300.8,4.5092e-05,25.657,4.1679e-05,0.012852,-0.00012971,-1287.8,1.8498
18281,18.182,2.5455,0,0.00012805,1279.7,4.4448e-05,26.3,4.095e-05,0.012866,-0.00012759,-1266.3,1.8645
18282,18.089,2.5455,0.05,7.5757e-07,7.5704,5.8172e-07,4.3708,-1.1552e-13,3.6712e-06,-5.8172e-07,-4.3708,1.8497
18283,18.089,2.8182,0,0.00013016,1300.7,4.51e-05,25.769,4.1673e-05,0.01315,-0.00012971,-1287.7,1.8498
18284,18.182,2.7273,0,0.00012805,1279.6,4.446e-05,26.46,4.0941e-05,0.013267,-0.00012758,-1266.2,1.8645
18285,18.089,2.7273,0.05,7.576e-07,7.5708,5.8174e-07,4.371,-9.7962e-13,3.0509e-06,-5.8174e-07,-4.371,1.8498
18286,18.089,3,0,0.00013016,1300.7,4.5103e-05,25.806,4.167e-05,0.013249,-0.0001297,-1287.6,1.8498
18287,18.182,2.9091,0,0.00012805,1279.6,4.4467e-05,26.541,4.0936e-05,0.013467,-0.00012758,-1266.1,1.8645
18288,18.089,2.9091,0.05,7.5762e-07,7.571,5.8176e-07,4.3711,-4.7836e-13,4.3523e-06,-5.8176e-07,-4.3711,1.8498
18289,18.089,3.1818,0,0.00013016,1300.7,4.51e-05,25.769,4.1673e-05,0.01315,-0.00012971,-1287.7,1.8498
18290,18.182,3.0909,0,0.00012805,1279.6,4.4467e-05,26.541,4.0936e-05,0.013467,-0.00012758,-1266.1,1.8645
18291,18.089,3.0909,0.05,7.5762e-07,7.571,5.8176e-07,4.3711,4.7847e-13,4.2312e-06,-5.8176e-07,-4.3711,1.8498
18292,18.089,3.3636,0,0.00013017,1300.8,4.5092e-05,25.657,4.1679e-05,0.012853,-0.00012971,-1287.8,1.8498
18293,18.182,3.2727,0,0.00012805,1279.6,4.446e-05,26.46,4.0941e-05,0.013267,-0.00012758,-1266.2,1.8645
18294,18.089,3.2727,0.05,7.576e-07,7.5708,5.8174e-07,4.371,7.1051e-14,5.5422e-06,-5.8174e-07,-4.371,1.8498
18295,18.089,3.5455,0,0.00013017,1300.8,4.5079e-05,25.474,4.169e-05,0.012351,-0.00012972,-1287.9,1.8497
18296,18.182,3.4545,0,0.00012805,1279.7,4.4448e-05,26.3,4.095e-05,0.012866,-0.00012759,-1266.3,1.8645
18297,18.089,3.4545,0.05,7.5757e-07,7.5704,5.8172e-07,4.3708,1.168e-13,5.8895e-06,-5.8172e-07,-4.3708,1.8497
18298,18.089,3.7273,0,0.00013018,1300.9,4.5061e-05,25.223,4.1706e-05,0.011641,-0.00012973,-1288.1,1.8496
18299,18.182,3.6364,0,0.00012806,1279.7,4.4431e-05,26.064,4.0963e-05,0.012256,-0.0001276,-1266.5,1.8644
18300,18.089,3.6364,0.05,7.5751e-07,7.5699,5.8168e-07,4.3705,1.5255e-12,6.6887e-06,-5.8168e-07,-4.3705,1.8496
18301,18.089,3.9091,0,0.00013019,1301,4.5039e-05,24.91,4.1725e-05,0.010712,-0.00012975,-1288.4,1.8495
18302,18.182,3.8182,0,0.00012807,1279.8,4.4408e-05,25.758,4.0981e-05,0.011432,-0.00012761,-1266.7,1.8643
18303,18.089,3.8182,0.05,7.5744e-07,7.5692,5.8162e-07,4.3701,1.5599e-12,8.3948e-06,-5.8162e-07,-4.3701,1.8495
18304,18.089,4.0909,0,0.00013021,1301.2,4.5014e-05,24.543,4.1749e-05,0.0095544,-0.00012978,-1288.8,1.8493
18305,18.182,4,0,0.00012808,1279.9,4.4381e-05,25.388,4.1004e-05,0.010381,-0.00012763,-1267,1.8641
18306,18.089,4,0.05,7.5735e-07,7.5683,5.8155e-07,4.3695,1.5934e-12,7.9349e-06,-5.8155e-07,-4.3696,1.8494
18307,18.089,4.2727,0,0.00013023,1301.4,4.4988e-05,24.131,4.1777e-05,0.008157,-0.00012981,-1289.2,1.8491
18308,18.182,4.1818,0,0.0001281,1280.1,4.4352e-05,24.963,4.1031e-05,0.0090921,-0.00012766,-1267.4,1.8639
18309,18.089,4.1818,0.05,7.5724e-07,7.5672,5.8147e-07,4.3689,1.6177e-12,6.6714e-06,-5.8146e-07,-4.3689,1.8492
18310,18.089,4.4545,0,0.00013026,1301.7,4.496e-05,23.683,4.1809e-05,0.0065056,-0.00012984,-1289.7,1.8489
18311,18.182,4.3636,0,0.00012812,1280.3,4.432e-05,24.493,4.1062e-05,0.0075518,-0.00012769,-1267.9,1.8637
18312,18.089,4.3636,0.05,7.5711e-07,7.5659,5.8136e-07,4.3681,2.0894e-12,8.9304e-06,-5.8137e-07,-4.3682,1.849
18313,18.089,4.6364,0,0.0001303,1302.1,4.4934e-05,23.21,4.1845e-05,0.0045916,-0.00012989,-1290.4,1.8486
18314,18.182,4.5455,0,0.00012815,1280.6,4.4289e-05,23.99,4.1097e-05,0.0057454,-0.00012773,-1268.5,1.8635
18315,18.089,4.5455,0.05,7.5696e-07,7.5644,5.8125e-07,4.3673,3.0025e-12,7.081e-06,-5.8125e-07,-4.3673,1.8488
18316,18.089,4.8182,0,0.00013035,1302.6,4.491e-05,22.727,4.1885e-05,0.0023923,-0.00012995,-1291.1,1.8484
18317,18.182,4.7273,0,0.00012819,1281,4.4258e-05,23.465,4.1136e-05,0.0036644,-0.00012778,-1269.1,1.8632
18318,18.089,4.7273,0.05,7.5679e-07,7.5626,5.8112e-07,4.3663,3.4581e-12,8.6036e-06,-5.8112e-07,-4.3663,1.8485
18319,18.089,5,0,0.00013041,1303.2,4.4889e-05,22.246,4.1929e-05,-5.0367e-05,-0.00013002,-1291.9,1.848
18320,18.182,4.9091,0,0.00012824,1281.5,4.4231e-05,22.934,4.1178e-05,0.0012687,-0.00012784,-1269.9,1.8629
18321,18.089,4.9091,0.05,7.5659e-07,7.5607,5.8097e-07,4.3651,2.984e-12,8.1931e-06,-5.8097e-07,-4.3652,1.8482
18322,18.089,5.1818,0,0.00013048,1303.9,4.4875e-05,21.781,4.1976e-05,-0.0029419,-0.0001301,-1292.9,1.8477
18323,18.182,5.0909,0,0.0001283,1282.1,4.4208e-05,22.41,4.1225e-05,-0.0013151,-0.00012791,-1270.8,1.8626
18324,18.089,5.0909,0.05,7.5637e-07,7.5584,5.8079e-07,4.3638,2.9622e-12,6.4442e-06,-5.808e-07,-4.3639,1.8479
18325,18.089,5.3636,0,0.00013057,1304.8,4.4869e-05,21.353,4.2026e-05,-0.0054497,-0.0001302,-1294,1.8473
18326,18.182,5.2727,0,0.00012838,1282.9,4.4192e-05,21.911,4.1275e-05,-0.0046397,-0.00012799,-1271.8,1.8623
18327,18.089,5.2727,0.05,7.5593e-07,7.5541,5.8046e-07,4.3613,3.7977e-12,7.2885e-06,-5.8046e-07,-4.3614,1.8475
18328,18.089,5.5455,0,0.00013069,1306,4.4881e-05,21.037,4.208e-05,-0.012104,-0.00013032,-1295.3,1.8469
18329,18.182,5.4545,0,0.00012847,1283.9,4.4185e-05,21.459,4.1329e-05,-0.0064425,-0.0001281,-1273,1.8619
18330,18.089,5.4545,0.05,7.5269e-07,7.5217,5.7797e-07,4.3426,3.7812e-12,7.4803e-06,-5.7798e-07,-4.3427,1.8471
18331,18.089,5.7273,0,0.00013099,1309,4.5055e-05,21.915,4.2137e-05,-0.0098497,-0.00013061,-1298,1.8465
18332,18.182,5.6364,0,0.00012861,1285.2,4.4207e-05,21.189,4.1385e-05,-0.018133,-0.00012823,-1274.5,1.8615
18333,18.089,5.6364,0.05,7.0672e-07,7.0623,5.4267e-07,4.0774,3.6984e-12,6.8735e-06,-5.4267e-07,-4.0775,1.8467
18334,18.182,5.8182,0,0.0001291,1290.2,4.4542e-05,23.254,4.1447e-05,0.00069865,-0.00012869,-1278.4,1.8611
18335,18.089,5.8182,0.05,4.0569e-08,0.40541,3.1155e-08,0.23406,-1.0731e-11,-0.0001208,-3.1148e-08,-0.23406,1.8463
18336,18.089,5.9091,0,0.00013016,1300.7,4.4231e-05,15.309,4.2193e-05,-0.005583,-0.0001299,-1293,1.8461
18337,18.274,0.27273,0,0.00012669,1266,4.3673e-05,22.37,4.0695e-05,-0.010304,-0.0001263,-1254.7,1.8761
18338,18.366,0.18182,0,0.00012481,1247.3,4.3162e-05,23.686,4.0009e-05,0.00072208,-0.00012439,-1235.2,1.8906
18339,18.274,0.18182,0.05,4.3038e-08,0.43008,3.3044e-08,0.24831,1.389e-11,0.00014719,-3.3051e-08,-0.2483,1.8758
18340,18.274,0.090909,0,0.00012584,1257.6,4.2829e-05,15.591,4.0753e-05,-0.005752,-0.00012557,-1249.7,1.8756
18341,18.274,0.45455,0,0.00012639,1263,4.3506e-05,21.567,4.0634e-05,-0.012603,-0.00012601,-1252.1,1.8765
18342,18.366,0.36364,0,0.00012431,1242.3,4.2832e-05,21.681,3.9943e-05,-0.018961,-0.00012393,-1231.3,1.8911
18343,18.274,0.36364,0.05,7.042e-07,7.0371,5.4074e-07,4.063,-3.7897e-12,8.4382e-06,-5.4073e-07,-4.0628,1.8763
18344,18.274,0.63636,0,0.00012628,1261.9,4.3503e-05,21.977,4.0578e-05,-0.005596,-0.00012589,-1250.8,1.8769
18345,18.366,0.54545,0,0.00012419,1241,4.2819e-05,22.047,3.9884e-05,-0.0066508,-0.0001238,-1229.8,1.8915
18346,18.274,0.54545,0.05,7.4977e-07,7.4926,5.7573e-07,4.3259,-3.765e-12,8.2477e-06,-5.7573e-07,-4.3258,1.8766
18347,18.274,0.81818,0,0.00012619,1261.1,4.352e-05,22.501,4.0524e-05,-0.0029604,-0.0001258,-1249.7,1.8772
18348,18.366,0.72727,0,0.0001241,1240.1,4.2836e-05,22.598,3.9828e-05,-0.0047427,-0.0001237,-1228.7,1.8918
18349,18.274,0.72727,0.05,7.53e-07,7.5248,5.7822e-07,4.3445,-3.3652e-12,6.2436e-06,-5.7821e-07,-4.3444,1.877
18350,18.274,1,0,0.00012613,1260.4,4.3544e-05,23.061,4.0475e-05,6.3095e-05,-0.00012572,-1248.7,1.8775
18351,18.366,0.90909,0,0.00012403,1239.4,4.2863e-05,23.198,3.9775e-05,-0.0012567,-0.00012362,-1227.7,1.8922
18352,18.274,0.90909,0.05,7.5345e-07,7.5293,5.7856e-07,4.3471,-2.4541e-12,3.4124e-06,-5.7855e-07,-4.347,1.8774
18353,18.274,1.1818,0,0.00012608,1259.9,4.3574e-05,23.635,4.0429e-05,0.0026027,-0.00012566,-1247.9,1.8778
18354,18.366,1.0909,0,0.00012397,1238.9,4.2896e-05,23.82,3.9726e-05,0.001439,-0.00012355,-1226.8,1.8925
18355,18.274,1.0909,0.05,7.5369e-07,7.5317,5.7874e-07,4.3485,-3.4031e-12,2.7976e-06,-5.7873e-07,-4.3484,1.8777
18356,18.274,1.3636,0,0.00012603,1259.5,4.3608e-05,24.208,4.0387e-05,0.0048776,-0.00012561,-1247.2,1.8781
18357,18.366,1.2727,0,0.00012393,1238.5,4.2934e-05,24.447,3.9681e-05,0.0039242,-0.0001235,-1226.1,1.8928
18358,18.274,1.2727,0.05,7.5389e-07,7.5337,5.789e-07,4.3496,-3.4315e-12,1.7551e-06,-5.7889e-07,-4.3495,1.878
18359,18.274,1.5455,0,0.000126,1259.2,4.3644e-05,24.764,4.0349e-05,0.0068505,-0.00012556,-1246.6,1.8784
18360,18.366,1.4545,0,0.0001239,1238.1,4.2974e-05,25.062,3.9639e-05,0.0060724,-0.00012345,-1225.4,1.893
18361,18.274,1.4545,0.05,7.5407e-07,7.5355,5.7904e-07,4.3507,-2.5374e-12,2.6135e-06,-5.7903e-07,-4.3506,1.8782
18362,18.274,1.7273,0,0.00012598,1258.9,4.368e-05,25.29,4.0315e-05,0.0085466,-0.00012553,-1246.1,1.8786
18363,18.366,1.6364,0,0.00012388,1237.9,4.3015e-05,25.649,3.9602e-05,0.007933,-0.00012342,-1224.9,1.8932
18364,18.274,1.6364,0.05,7.5423e-07,7.5371,5.7916e-07,4.3516,-2.5378e-12,3.9966e-06,-5.7915e-07,-4.3515,1.8785
18365,18.274,1.9091,0,0.00012596,1258.8,4.3714e-05,25.772,4.0285e-05,0.0099773,-0.0001255,-1245.7,1.8788
18366,18.366,1.8182,0,0.00012386,1237.7,4.3055e-05,26.196,3.957e-05,0.0095124,-0.00012339,-1224.4,1.8934
18367,18.274,1.8182,0.05,7.5437e-07,7.5385,5.7926e-07,4.3524,-2.0709e-12,3.6187e-06,-5.7926e-07,-4.3523,1.8787
18368,18.274,2.0909,0,0.00012595,1258.6,4.3746e-05,26.2,4.026e-05,0.011158,-0.00012548,-1245.3,1.8789
18369,18.366,2,0,0.00012385,1237.6,4.3092e-05,26.689,3.9541e-05,0.010831,-0.00012337,-1224.1,1.8936
18370,18.274,2,0.05,7.5449e-07,7.5397,5.7935e-07,4.3531,-1.5914e-12,3.7567e-06,-5.7935e-07,-4.353,1.8788
18371,18.274,2.2727,0,0.00012594,1258.6,4.3773e-05,26.564,4.0239e-05,0.012104,-0.00012547,-1245.1,1.8791
18372,18.366,2.1818,0,0.00012384,1237.5,4.3125e-05,27.117,3.9518e-05,0.011902,-0.00012336,-1223.8,1.8938
18373,18.274,2.1818,0.05,7.5458e-07,7.5406,5.7943e-07,4.3536,-1.1094e-12,4.2174e-06,-5.7942e-07,-4.3536,1.879
18374,18.274,2.4545,0,0.00012594,1258.5,4.3795e-05,26.855,4.0223e-05,0.012826,-0.00012546,-1244.9,1.8792
18375,18.366,2.3636,0,0.00012384,1237.5,4.3153e-05,27.471,3.9498e-05,0.012741,-0.00012334,-1223.5,1.8939
18376,18.274,2.3636,0.05,7.5466e-07,7.5414,5.7949e-07,4.3541,-1.9773e-12,4.7246e-06,-5.7948e-07,-4.354,1.8791
18377,18.274,2.6364,0,0.00012593,1258.5,4.3812e-05,27.068,4.0211e-05,0.013335,-0.00012545,-1244.7,1.8792
18378,18.366,2.5455,0,0.00012383,1237.5,4.3175e-05,27.743,3.9484e-05,0.013361,-0.00012334,-1223.4,1.8939
18379,18.274,2.5455,0.05,7.5472e-07,7.542,5.7953e-07,4.3544,-1.0299e-12,5.5301e-06,-5.7953e-07,-4.3543,1.8792
18380,18.274,2.8182,0,0.00012593,1258.4,4.3822e-05,27.197,4.0204e-05,0.013638,-0.00012545,-1244.6,1.8793
18381,18.366,2.7273,0,0.00012383,1237.5,4.319e-05,27.928,3.9474e-05,0.013769,-0.00012333,-1223.3,1.894
18382,18.274,2.7273,0.05,7.5476e-07,7.5423,5.7956e-07,4.3546,-9.8321e-13,5.1675e-06,-5.7956e-07,-4.3546,1.8792
18383,18.274,3,0,0.00012593,1258.4,4.3826e-05,27.241,4.0202e-05,0.013739,-0.00012545,-1244.6,1.8793
18384,18.366,2.9091,0,0.00012383,1237.5,4.3197e-05,28.022,3.947e-05,0.013971,-0.00012333,-1223.2,1.894
18385,18.274,2.9091,0.05,7.5477e-07,7.5425,5.7957e-07,4.3547,-2.4963e-14,6.2502e-06,-5.7957e-07,-4.3547,1.8793
18386,18.274,3.1818,0,0.00012593,1258.4,4.3822e-05,27.197,4.0204e-05,0.013639,-0.00012545,-1244.6,1.8793
18387,18.366,3.0909,0,0.00012383,1237.5,4.3197e-05,28.022,3.947e-05,0.013971,-0.00012333,-1223.2,1.894
18388,18.274,3.0909,0.05,7.5477e-07,7.5425,5.7957e-07,4.3547,2.5099e-14,6.1485e-06,-5.7957e-07,-4.3547,1.8793
18389,18.274,3.3636,0,0.00012593,1258.5,4.3812e-05,27.068,4.0211e-05,0.013336,-0.00012545,-1244.7,1.8792
18390,18.366,3.2727,0,0.00012383,1237.5,4.319e-05,27.928,3.9474e-05,0.013768,-0.00012333,-1223.3,1.894
18391,18.274,3.2727,0.05,7.5476e-07,7.5423,5.7956e-07,4.3546,9.8478e-13,7.4799e-06,-5.7956e-07,-4.3546,1.8792
18392,18.274,3.5455,0,0.00012594,1258.5,4.3795e-05,26.855,4.0223e-05,0.012827,-0.00012546,-1244.9,1.8792
18393,18.366,3.4545,0,0.00012383,1237.5,4.3175e-05,27.743,3.9484e-05,0.013361,-0.00012334,-1223.4,1.8939
18394,18.274,3.4545,0.05,7.5472e-07,7.542,5.7953e-07,4.3544,5.7916e-13,7.8431e-06,-5.7953e-07,-4.3544,1.8792
18395,18.274,3.7273,0,0.00012594,1258.6,4.3773e-05,26.564,4.0239e-05,0.012104,-0.00012547,-1245.1,1.8791
18396,18.366,3.6364,0,0.00012384,1237.5,4.3153e-05,27.471,3.9498e-05,0.012742,-0.00012334,-1223.5,1.8939
18397,18.274,3.6364,0.05,7.5466e-07,7.5414,5.7948e-07,4.354,1.988e-12,8.8997e-06,-5.7949e-07,-4.354,1.8791
18398,18.274,3.9091,0,0.00012595,1258.6,4.3746e-05,26.2,4.026e-05,0.011159,-0.00012548,-1245.3,1.8789
18399,18.366,3.8182,0,0.00012384,1237.5,4.3125e-05,27.117,3.9518e-05,0.011902,-0.00012336,-1223.8,1.8938
18400,18.274,3.8182,0.05,7.5458e-07,7.5406,5.7943e-07,4.3536,1.1219e-12,1.0157e-05,-5.7943e-07,-4.3536,1.879
18401,18.274,4.0909,0,0.00012596,1258.8,4.3714e-05,25.772,4.0285e-05,0.0099775,-0.0001255,-1245.7,1.8788
18402,18.366,4,0,0.00012385,1237.6,4.3092e-05,26.689,3.9541e-05,0.010831,-0.00012337,-1224.1,1.8936
18403,18.274,4,0.05,7.5449e-07,7.5397,5.7935e-07,4.353,1.6061e-12,9.7049e-06,-5.7935e-07,-4.353,1.8788
18404,18.274,4.2727,0,0.00012598,1258.9,4.368e-05,25.29,4.0315e-05,0.0085465,-0.00012553,-1246.1,1.8786
18405,18.366,4.1818,0,0.00012386,1237.7,4.3055e-05,26.196,3.957e-05,0.0095122,-0.00012339,-1224.4,1.8934
18406,18.274,4.1818,0.05,7.5437e-07,7.5385,5.7926e-07,4.3523,2.0854e-12,9.1772e-06,-5.7926e-07,-4.3524,1.8787
18407,18.274,4.4545,0,0.000126,1259.2,4.3644e-05,24.764,4.0349e-05,0.006852,-0.00012556,-1246.6,1.8784
18408,18.366,4.3636,0,0.00012388,1237.9,4.3015e-05,25.649,3.9602e-05,0.0079325,-0.00012342,-1224.9,1.8932
18409,18.274,4.3636,0.05,7.5423e-07,7.5371,5.7916e-07,4.3515,2.1038e-12,1.1139e-05,-5.7916e-07,-4.3516,1.8785
18410,18.274,4.6364,0,0.00012603,1259.5,4.3608e-05,24.208,4.0387e-05,0.004879,-0.00012561,-1247.2,1.8781
18411,18.366,4.5455,0,0.0001239,1238.1,4.2974e-05,25.062,3.9639e-05,0.0060737,-0.00012345,-1225.4,1.893
18412,18.274,4.5455,0.05,7.5407e-07,7.5355,5.7903e-07,4.3506,2.1181e-12,9.2369e-06,-5.7904e-07,-4.3507,1.8782
18413,18.274,4.8182,0,0.00012608,1259.9,4.3574e-05,23.635,4.0429e-05,0.002601,-0.00012566,-1247.9,1.8778
18414,18.366,4.7273,0,0.00012393,1238.5,4.2934e-05,24.447,3.9681e-05,0.0039237,-0.0001235,-1226.1,1.8928
18415,18.274,4.7273,0.05,7.5389e-07,7.5337,5.7889e-07,4.3496,2.1056e-12,1.0382e-05,-5.789e-07,-4.3496,1.878
18416,18.274,5,0,0.00012613,1260.4,4.3544e-05,23.061,4.0475e-05,6.2016e-05,-0.00012572,-1248.7,1.8775
18417,18.366,4.9091,0,0.00012397,1238.9,4.2896e-05,23.82,3.9726e-05,0.001437,-0.00012355,-1226.8,1.8925
18418,18.274,4.9091,0.05,7.5369e-07,7.5317,5.7874e-07,4.3484,3.4461e-12,1.0322e-05,-5.7874e-07,-4.3484,1.8777
18419,18.274,5.1818,0,0.00012619,1261.1,4.352e-05,22.501,4.0524e-05,-0.0029597,-0.0001258,-1249.7,1.8772
18420,18.366,5.0909,0,0.00012403,1239.4,4.2863e-05,23.198,3.9775e-05,-0.001257,-0.00012362,-1227.7,1.8922
18421,18.274,5.0909,0.05,7.5345e-07,7.5293,5.7855e-07,4.347,3.4221e-12,8.1647e-06,-5.7855e-07,-4.3471,1.8774
18422,18.274,5.3636,0,0.00012628,1261.9,4.3503e-05,21.977,4.0578e-05,-0.0055948,-0.00012589,-1250.8,1.8769
18423,18.366,5.2727,0,0.0001241,1240.1,4.2836e-05,22.598,3.9828e-05,-0.0047423,-0.0001237,-1228.7,1.8918
18424,18.274,5.2727,0.05,7.53e-07,7.5248,5.7821e-07,4.3444,3.8695e-12,9.0526e-06,-5.7821e-07,-4.3445,1.877
18425,18.274,5.5455,0,0.00012639,1263,4.3506e-05,21.567,4.0634e-05,-0.012603,-0.00012601,-1252.1,1.8765
18426,18.366,5.4545,0,0.00012419,1241,4.2819e-05,22.047,3.9884e-05,-0.0066497,-0.0001238,-1229.8,1.8915
18427,18.274,5.4545,0.05,7.4977e-07,7.4926,5.7573e-07,4.3258,3.3386e-12,8.5736e-06,-5.7574e-07,-4.3259,1.8766
18428,18.274,5.7273,0,0.00012669,1266,4.3673e-05,22.37,4.0695e-05,-0.010306,-0.0001263,-1254.7,1.8761
18429,18.366,5.6364,0,0.00012431,1242.3,4.2832e-05,21.681,3.9943e-05,-0.018961,-0.00012393,-1231.3,1.8911
18430,18.274,5.6364,0.05,7.042e-07,7.0371,5.4073e-07,4.0629,3.694e-12,8.7233e-06,-5.4074e-07,-4.0629,1.8763
18431,18.366,5.8182,0,0.00012481,1247.3,4.3162e-05,23.686,4.0009e-05,0.0007223,-0.00012439,-1235.2,1.8906
18432,18.274,5.8182,0.05,4.3038e-08,0.43008,3.3051e-08,0.24831,-1.0342e-11,-0.00011772,-3.3044e-08,-0.24831,1.8758
18433,18.274,5.9091,0,0.00012584,1257.6,4.2829e-05,15.591,4.0753e-05,-0.0057515,-0.00012557,-1249.7,1.8756
18434,18.459,0.27273,0,0.00012241,1223.2,4.2298e-05,22.837,3.9258e-05,-0.010805,-0.000122,-1211.7,1.9057
18435,18.551,0.18182,0,0.00012054,1204.6,4.1788e-05,24.127,3.8577e-05,0.00072777,-0.00012011,-1192.3,1.9203
18436,18.459,0.18182,0.05,4.5987e-08,0.45956,3.531e-08,0.26533,1.3326e-11,0.00012641,-3.5316e-08,-0.26532,1.9055
18437,18.459,0.090909,0,0.00012154,1214.6,4.1433e-05,15.88,3.9319e-05,-0.0059286,-0.00012126,-1206.6,1.9053
18438,18.459,0.45455,0,0.00012211,1220.2,4.2139e-05,22.117,3.9194e-05,-0.013141,-0.00012172,-1209,1.9061
18439,18.551,0.36364,0,0.00012004,1199.6,4.1464e-05,22.19,3.8508e-05,-0.019853,-0.00011965,-1188.3,1.9207
18440,18.459,0.36364,0.05,7.0176e-07,7.0128,5.3887e-07,4.0489,-3.748e-12,4.9513e-06,-5.3886e-07,-4.0488,1.9059
18441,18.459,0.63636,0,0.000122,1219.2,4.2147e-05,22.629,3.9134e-05,-0.0057516,-0.0001216,-1207.7,1.9065
18442,18.551,0.54545,0,0.00011992,1198.4,4.1462e-05,22.66,3.8445e-05,-0.0068731,-0.00011952,-1186.9,1.9211
18443,18.459,0.54545,0.05,7.4691e-07,7.4639,5.7354e-07,4.3094,-3.7653e-12,7.9302e-06,-5.7353e-07,-4.3092,1.9063
18444,18.459,0.81818,0,0.00012193,1218.4,4.2174e-05,23.256,3.9078e-05,-0.002978,-0.00012152,-1206.6,1.9068
18445,18.551,0.72727,0,0.00011984,1197.6,4.149e-05,23.318,3.8386e-05,-0.0048518,-0.00011943,-1185.7,1.9215
18446,18.459,0.72727,0.05,7.5013e-07,7.4961,5.7601e-07,4.3279,-3.3739e-12,5.934e-06,-5.76e-07,-4.3278,1.9066
18447,18.459,1,0,0.00012187,1217.8,4.2209e-05,23.918,3.9026e-05,0.00018406,-0.00012144,-1205.7,1.9071
18448,18.551,0.90909,0,0.00011978,1196.9,4.1528e-05,24.026,3.833e-05,-0.0011919,-0.00011935,-1184.7,1.9218
18449,18.459,0.90909,0.05,7.5059e-07,7.5007,5.7636e-07,4.3306,-3.4167e-12,2.8005e-06,-5.7635e-07,-4.3305,1.9069
18450,18.459,1.1818,0,0.00012182,1217.4,4.225e-05,24.593,3.8978e-05,0.0028265,-0.00012139,-1204.9,1.9074
18451,18.551,1.0909,0,0.00011973,1196.5,4.1573e-05,24.755,3.8278e-05,0.00162,-0.00011929,-1183.9,1.9221
18452,18.459,1.0909,0.05,7.5084e-07,7.5032,5.7656e-07,4.332,-3.4445e-12,3.9546e-06,-5.7655e-07,-4.3319,1.9073
18453,18.459,1.3636,0,0.00012179,1217.1,4.2295e-05,25.263,3.8933e-05,0.0051848,-0.00012134,-1204.2,1.9077
18454,18.551,1.2727,0,0.00011969,1196.1,4.1622e-05,25.484,3.823e-05,0.0042017,-0.00011924,-1183.2,1.9224
18455,18.459,1.2727,0.05,7.5106e-07,7.5054,5.7672e-07,4.3333,-2.0988e-12,3.9059e-06,-5.7672e-07,-4.3332,1.9075
18456,18.459,1.5455,0,0.00012177,1216.8,4.234e-05,25.91,3.8893e-05,0.0072194,-0.0001213,-1203.7,1.9079
18457,18.551,1.4545,0,0.00011967,1195.9,4.1673e-05,26.197,3.8187e-05,0.0064237,-0.0001192,-1182.6,1.9226
18458,18.459,1.4545,0.05,7.5125e-07,7.5073,5.7687e-07,4.3344,-3.0163e-12,3.2475e-06,-5.7686e-07,-4.3343,1.9078
18459,18.459,1.7273,0,0.00012175,1216.6,4.2385e-05,26.519,3.8857e-05,0.0089618,-0.00012128,-1203.2,1.9081
18460,18.551,1.6364,0,0.00011965,1195.7,4.1723e-05,26.876,3.8148e-05,0.0083399,-0.00011917,-1182,1.9228
18461,18.459,1.6364,0.05,7.5142e-07,7.509,5.77e-07,4.3354,-2.1303e-12,3.6485e-06,-5.77e-07,-4.3353,1.908
18462,18.459,1.9091,0,0.00012174,1216.5,4.2428e-05,27.077,3.8826e-05,0.010428,-0.00012125,-1202.8,1.9083
18463,18.551,1.8182,0,0.00011964,1195.6,4.1772e-05,27.506,3.8113e-05,0.0099606,-0.00011915,-1181.6,1.923
18464,18.459,1.8182,0.05,7.5157e-07,7.5105,5.7711e-07,4.3362,-2.0998e-12,3.4243e-06,-5.7711e-07,-4.3361,1.9082
18465,18.459,2.0909,0,0.00012173,1216.5,4.2467e-05,27.571,3.8799e-05,0.011635,-0.00012124,-1202.4,1.9085
18466,18.551,2,0,0.00011964,1195.6,4.1818e-05,28.073,3.8083e-05,0.011311,-0.00011914,-1181.3,1.9232
18467,18.459,2,0.05,7.5169e-07,7.5117,5.7721e-07,4.3369,-2.0705e-12,3.5864e-06,-5.772e-07,-4.3369,1.9084
18468,18.459,2.2727,0,0.00012173,1216.4,4.25e-05,27.989,3.8777e-05,0.012598,-0.00012123,-1202.2,1.9086
18469,18.551,2.1818,0,0.00011964,1195.5,4.1858e-05,28.565,3.8058e-05,0.012404,-0.00011912,-1181,1.9233
18470,18.459,2.1818,0.05,7.518e-07,7.5128,5.7729e-07,4.3375,-1.1276e-12,3.8467e-06,-5.7728e-07,-4.3375,1.9085
18471,18.459,2.4545,0,0.00012173,1216.4,4.2528e-05,28.325,3.876e-05,0.013333,-0.00012122,-1202,1.9087
18472,18.551,2.3636,0,0.00011964,1195.5,4.1891e-05,28.97,3.8037e-05,0.013258,-0.00011912,-1180.8,1.9234
18473,18.459,2.3636,0.05,7.5188e-07,7.5136,5.7735e-07,4.338,-6.3289e-13,4.4079e-06,-5.7735e-07,-4.3379,1.9086
18474,18.459,2.6364,0,0.00012173,1216.4,4.2548e-05,28.569,3.8747e-05,0.013851,-0.00012121,-1201.9,1.9088
18475,18.551,2.5455,0,0.00011964,1195.5,4.1917e-05,29.282,3.8022e-05,0.013888,-0.00011911,-1180.6,1.9235
18476,18.459,2.5455,0.05,7.5194e-07,7.5142,5.774e-07,4.3383,-1.0408e-12,4.974e-06,-5.7739e-07,-4.3383,1.9087
18477,18.459,2.8182,0,0.00012173,1216.4,4.256e-05,28.718,3.874e-05,0.014158,-0.00012121,-1201.8,1.9088
18478,18.551,2.7273,0,0.00011964,1195.6,4.1935e-05,29.493,3.8012e-05,0.014303,-0.00011911,-1180.5,1.9236
18479,18.459,2.7273,0.05,7.5198e-07,7.5146,5.7743e-07,4.3386,-8.0699e-14,4.6381e-06,-5.7743e-07,-4.3385,1.9088
18480,18.459,3,0,0.00012173,1216.4,4.2564e-05,28.768,3.8737e-05,0.014259,-0.00012121,-1201.8,1.9088
18481,18.551,2.9091,0,0.00011964,1195.6,4.1944e-05,29.6,3.8007e-05,0.014508,-0.00011911,-1180.5,1.9236
18482,18.459,2.9091,0.05,7.52e-07,7.5148,5.7744e-07,4.3387,-2.724e-14,6.233e-06,-5.7744e-07,-4.3387,1.9088
18483,18.459,3.1818,0,0.00012173,1216.4,4.256e-05,28.718,3.874e-05,0.014156,-0.00012121,-1201.8,1.9088
18484,18.551,3.0909,0,0.00011964,1195.6,4.1944e-05,29.6,3.8007e-05,0.014508,-0.00011911,-1180.5,1.9236
18485,18.459,3.0909,0.05,7.52e-07,7.5148,5.7744e-07,4.3387,2.7345e-14,5.451e-06,-5.7744e-07,-4.3387,1.9088
18486,18.459,3.3636,0,0.00012173,1216.4,4.2548e-05,28.569,3.8747e-05,0.013849,-0.00012121,-1201.9,1.9088
18487,18.551,3.2727,0,0.00011964,1195.6,4.1935e-05,29.493,3.8012e-05,0.014303,-0.00011911,-1180.5,1.9236
18488,18.459,3.2727,0.05,7.5198e-07,7.5146,5.7743e-07,4.3386,8.2377e-14,6.338e-06,-5.7743e-07,-4.3386,1.9088
18489,18.459,3.5455,0,0.00012173,1216.4,4.2528e-05,28.325,3.876e-05,0.013333,-0.00012122,-1202,1.9087
18490,18.551,3.4545,0,0.00011964,1195.5,4.1917e-05,29.282,3.8022e-05,0.013889,-0.00011911,-1180.6,1.9235
18491,18.459,3.4545,0.05,7.5194e-07,7.5142,5.774e-07,4.3383,5.9157e-13,7.2246e-06,-5.774e-07,-4.3383,1.9087
18492,18.459,3.7273,0,0.00012173,1216.4,4.25e-05,27.989,3.8777e-05,0.012598,-0.00012123,-1202.2,1.9086
18493,18.551,3.6364,0,0.00011964,1195.5,4.1891e-05,28.97,3.8037e-05,0.013258,-0.00011912,-1180.8,1.9234
18494,18.459,3.6364,0.05,7.5188e-07,7.5136,5.7735e-07,4.338,6.4078e-13,8.7756e-06,-5.7735e-07,-4.338,1.9086
18495,18.459,3.9091,0,0.00012173,1216.5,4.2467e-05,27.571,3.8799e-05,0.011635,-0.00012124,-1202.4,1.9085
18496,18.551,3.8182,0,0.00011964,1195.5,4.1858e-05,28.565,3.8058e-05,0.012404,-0.00011912,-1181,1.9233
18497,18.459,3.8182,0.05,7.518e-07,7.5128,5.7728e-07,4.3375,1.1398e-12,1.0264e-05,-5.7729e-07,-4.3375,1.9085
18498,18.459,4.0909,0,0.00012174,1216.5,4.2428e-05,27.077,3.8826e-05,0.010427,-0.00012125,-1202.8,1.9083
18499,18.551,4,0,0.00011964,1195.6,4.1818e-05,28.073,3.8083e-05,0.01131,-0.00011914,-1181.3,1.9232
18500,18.459,4,0.05,7.5169e-07,7.5117,5.772e-07,4.3369,1.6284e-12,9.6281e-06,-5.7721e-07,-4.3369,1.9084
18501,18.459,4.2727,0,0.00012175,1216.6,4.2385e-05,26.519,3.8857e-05,0.0089612,-0.00012128,-1203.2,1.9081
18502,18.551,4.1818,0,0.00011964,1195.6,4.1772e-05,27.506,3.8113e-05,0.0099608,-0.00011915,-1181.6,1.923
18503,18.459,4.1818,0.05,7.5157e-07,7.5105,5.7711e-07,4.3362,1.661e-12,8.6304e-06,-5.7711e-07,-4.3362,1.9082
18504,18.459,4.4545,0,0.00012177,1216.8,4.234e-05,25.91,3.8893e-05,0.0072187,-0.0001213,-1203.7,1.9079
18505,18.551,4.3636,0,0.00011965,1195.7,4.1723e-05,26.876,3.8148e-05,0.0083389,-0.00011917,-1182,1.9228
18506,18.459,4.3636,0.05,7.5142e-07,7.509,5.77e-07,4.3353,2.1413e-12,1.0451e-05,-5.77e-07,-4.3354,1.908
18507,18.459,4.6364,0,0.00012179,1217.1,4.2295e-05,25.263,3.8933e-05,0.0051841,-0.00012134,-1204.2,1.9077
18508,18.551,4.5455,0,0.00011967,1195.9,4.1673e-05,26.197,3.8187e-05,0.0064247,-0.0001192,-1182.6,1.9226
18509,18.459,4.5455,0.05,7.5125e-07,7.5073,5.7687e-07,4.3343,2.1348e-12,8.8343e-06,-5.7687e-07,-4.3344,1.9078
18510,18.459,4.8182,0,0.00012182,1217.4,4.225e-05,24.593,3.8978e-05,0.0028258,-0.00012139,-1204.9,1.9074
18511,18.551,4.7273,0,0.00011969,1196.1,4.1622e-05,25.484,3.823e-05,0.0042014,-0.00011924,-1183.2,1.9224
18512,18.459,4.7273,0.05,7.5106e-07,7.5054,5.7672e-07,4.3332,2.6021e-12,9.8934e-06,-5.7672e-07,-4.3333,1.9075
18513,18.459,5,0,0.00012187,1217.8,4.2209e-05,23.919,3.9026e-05,0.00018284,-0.00012144,-1205.7,1.9071
18514,18.551,4.9091,0,0.00011973,1196.5,4.1573e-05,24.755,3.8278e-05,0.0016187,-0.00011929,-1183.9,1.9221
18515,18.459,4.9091,0.05,7.5084e-07,7.5032,5.7655e-07,4.332,3.0251e-12,1.0242e-05,-5.7655e-07,-4.332,1.9073
18516,18.459,5.1818,0,0.00012193,1218.4,4.2174e-05,23.256,3.9078e-05,-0.0029786,-0.00012152,-1206.6,1.9068
18517,18.551,5.0909,0,0.00011978,1196.9,4.1528e-05,24.026,3.833e-05,-0.0011931,-0.00011935,-1184.7,1.9218
18518,18.459,5.0909,0.05,7.5059e-07,7.5007,5.7635e-07,4.3305,3.0024e-12,7.4649e-06,-5.7636e-07,-4.3305,1.9069
18519,18.459,5.3636,0,0.000122,1219.2,4.2147e-05,22.629,3.9134e-05,-0.0057515,-0.0001216,-1207.7,1.9065
18520,18.551,5.2727,0,0.00011984,1197.6,4.149e-05,23.319,3.8386e-05,-0.0048513,-0.00011943,-1185.7,1.9215
18521,18.459,5.2727,0.05,7.5013e-07,7.4961,5.76e-07,4.3278,3.4054e-12,8.4944e-06,-5.7601e-07,-4.3279,1.9066
18522,18.459,5.5455,0,0.00012211,1220.2,4.2139e-05,22.117,3.9194e-05,-0.01314,-0.00012172,-1209,1.9061
18523,18.551,5.4545,0,0.00011992,1198.4,4.1462e-05,22.66,3.8445e-05,-0.006872,-0.00011952,-1186.9,1.9211
18524,18.459,5.4545,0.05,7.4691e-07,7.4639,5.7353e-07,4.3093,3.7994e-12,7.9945e-06,-5.7354e-07,-4.3093,1.9063
18525,18.459,5.7273,0,0.00012241,1223.2,4.2298e-05,22.837,3.9258e-05,-0.010804,-0.000122,-1211.7,1.9057
18526,18.551,5.6364,0,0.00012004,1199.6,4.1464e-05,22.19,3.8508e-05,-0.019852,-0.00011965,-1188.3,1.9207
18527,18.459,5.6364,0.05,7.0176e-07,7.0128,5.3886e-07,4.0488,3.7543e-12,8.6252e-06,-5.3887e-07,-4.0489,1.9059
18528,18.551,5.8182,0,0.00012054,1204.6,4.1788e-05,24.127,3.8577e-05,0.0007294,-0.00012011,-1192.3,1.9203
18529,18.459,5.8182,0.05,4.5987e-08,0.45956,3.5315e-08,0.26532,-9.7613e-12,-6.9022e-05,-3.531e-08,-0.26532,1.9055
18530,18.459,5.9091,0,0.00012154,1214.6,4.1433e-05,15.88,3.9319e-05,-0.0059269,-0.00012126,-1206.6,1.9053
18531,18.643,0.27273,0,0.00011815,1180.6,4.0931e-05,23.317,3.7826e-05,-0.011352,-0.00011773,-1168.8,1.9354
18532,18.736,0.18182,0,0.00011628,1162,4.0421e-05,24.577,3.715e-05,0.00071964,-0.00011585,-1149.6,1.9501
18533,18.643,0.18182,0.05,4.9461e-08,0.49427,3.7977e-08,0.28538,1.006e-11,0.00011105,-3.7983e-08,-0.28536,1.9352
18534,18.643,0.090909,0,0.00011726,1171.8,4.0044e-05,16.175,3.789e-05,-0.0061128,-0.00011697,-1163.6,1.935
18535,18.643,0.45455,0,0.00011785,1177.7,4.078e-05,22.688,3.7759e-05,-0.013716,-0.00011744,-1166.2,1.9358
18536,18.736,0.36364,0,0.00011579,1157.1,4.0103e-05,22.717,3.7077e-05,-0.020801,-0.00011538,-1145.6,1.9505
18537,18.643,0.36364,0.05,6.994e-07,6.9891,5.3705e-07,4.0352,-2.8099e-12,8.5198e-06,-5.3705e-07,-4.0351,1.9356
18538,18.643,0.63636,0,0.00011775,1176.7,4.08e-05,23.309,3.7696e-05,-0.0059183,-0.00011734,-1164.9,1.9361
18539,18.736,0.54545,0,0.00011567,1155.9,4.0113e-05,23.299,3.7011e-05,-0.0071014,-0.00011526,-1144.1,1.9508
18540,18.643,0.54545,0.05,7.441e-07,7.4359,5.7138e-07,4.2932,-2.8635e-12,8.0068e-06,-5.7137e-07,-4.293,1.9359
18541,18.643,0.81818,0,0.00011768,1176,4.0838e-05,24.049,3.7637e-05,-0.0029961,-0.00011725,-1163.8,1.9365
18542,18.736,0.72727,0,0.0001156,1155.2,4.0153e-05,24.074,3.6949e-05,-0.0049558,-0.00011517,-1143,1.9512
18543,18.643,0.72727,0.05,7.4731e-07,7.4679,5.7384e-07,4.3117,-2.476e-12,7.5462e-06,-5.7384e-07,-4.3116,1.9363
18544,18.643,1,0,0.00011763,1175.5,4.0886e-05,24.823,3.7582e-05,0.00031643,-0.00011719,-1162.9,1.9368
18545,18.736,0.90909,0,0.00011555,1154.7,4.0204e-05,24.899,3.689e-05,-0.0011113,-0.0001151,-1142,1.9515
18546,18.643,0.90909,0.05,7.4778e-07,7.4727,5.7421e-07,4.3144,-3.4309e-12,4.604e-06,-5.742e-07,-4.3143,1.9366
18547,18.643,1.1818,0,0.00011759,1175.1,4.0939e-05,25.607,3.7531e-05,0.0030676,-0.00011714,-1162.1,1.9371
18548,18.736,1.0909,0,0.00011551,1154.3,4.0261e-05,25.742,3.6835e-05,0.0018253,-0.00011505,-1141.2,1.9518
18549,18.643,1.0909,0.05,7.4806e-07,7.4754,5.7442e-07,4.316,-2.5636e-12,4.5862e-06,-5.7441e-07,-4.3159,1.9369
18550,18.643,1.3636,0,0.00011757,1174.9,4.0994e-05,26.381,3.7484e-05,0.0055116,-0.0001171,-1161.5,1.9373
18551,18.736,1.2727,0,0.00011548,1154,4.0322e-05,26.584,3.6784e-05,0.00451,-0.000115,-1140.5,1.9521
18552,18.643,1.2727,0.05,7.4829e-07,7.4777,5.746e-07,4.3173,-2.5784e-12,4.6867e-06,-5.7459e-07,-4.3172,1.9372
18553,18.643,1.5455,0,0.00011755,1174.7,4.1051e-05,27.126,3.7441e-05,0.007613,-0.00011707,-1160.9,1.9376
18554,18.736,1.4545,0,0.00011546,1153.8,4.0385e-05,27.403,3.6738e-05,0.0068099,-0.00011497,-1139.9,1.9523
18555,18.643,1.4545,0.05,7.485e-07,7.4798,5.7475e-07,4.3185,-2.5879e-12,4.3772e-06,-5.7475e-07,-4.3184,1.9374
18556,18.643,1.7273,0,0.00011754,1174.6,4.1106e-05,27.827,3.7403e-05,0.0094053,-0.00011704,-1160.4,1.9378
18557,18.736,1.6364,0,0.00011546,1153.8,4.0446e-05,28.182,3.6697e-05,0.0087851,-0.00011495,-1139.4,1.9525
18558,18.643,1.6364,0.05,7.4868e-07,7.4816,5.7489e-07,4.3195,-2.1183e-12,4.179e-06,-5.7489e-07,-4.3195,1.9376
18559,18.643,1.9091,0,0.00011754,1174.6,4.1157e-05,28.466,3.737e-05,0.010908,-0.00011703,-1160.1,1.9379
18560,18.736,1.8182,0,0.00011545,1153.7,4.0505e-05,28.902,3.666e-05,0.010449,-0.00011493,-1139,1.9527
18561,18.643,1.8182,0.05,7.4883e-07,7.4832,5.7501e-07,4.3204,-1.6417e-12,3.5505e-06,-5.7501e-07,-4.3204,1.9378
18562,18.643,2.0909,0,0.00011754,1174.6,4.1204e-05,29.031,3.7342e-05,0.012142,-0.00011702,-1159.8,1.9381
18563,18.736,2,0,0.00011546,1153.8,4.0559e-05,29.549,3.6628e-05,0.011831,-0.00011492,-1138.7,1.9529
18564,18.643,2,0.05,7.4897e-07,7.4845,5.7512e-07,4.3212,-1.1692e-12,4.0019e-06,-5.7511e-07,-4.3212,1.938
18565,18.643,2.2727,0,0.00011754,1174.6,4.1244e-05,29.51,3.7318e-05,0.013124,-0.00011701,-1159.5,1.9382
18566,18.736,2.1818,0,0.00011546,1153.8,4.0607e-05,30.109,3.6601e-05,0.012949,-0.00011492,-1138.4,1.953
18567,18.643,2.1818,0.05,7.4908e-07,7.4856,5.752e-07,4.3218,-6.8168e-13,4.7297e-06,-5.752e-07,-4.3218,1.9381
18568,18.643,2.4545,0,0.00011754,1174.6,4.1277e-05,29.892,3.73e-05,0.013873,-0.000117,-1159.4,1.9383
18569,18.736,2.3636,0,0.00011546,1153.8,4.0647e-05,30.571,3.658e-05,0.01382,-0.00011491,-1138.2,1.9531
18570,18.643,2.3636,0.05,7.4917e-07,7.4865,5.7527e-07,4.3224,-6.3868e-13,5.289e-06,-5.7527e-07,-4.3223,1.9382
18571,18.643,2.6364,0,0.00011754,1174.6,4.13e-05,30.171,3.7287e-05,0.014399,-0.000117,-1159.3,1.9384
18572,18.736,2.5455,0,0.00011547,1153.9,4.0678e-05,30.925,3.6564e-05,0.014462,-0.00011491,-1138.1,1.9532
18573,18.643,2.5455,0.05,7.4923e-07,7.4872,5.7532e-07,4.3227,-1.3595e-13,5.6551e-06,-5.7532e-07,-4.3227,1.9383
18574,18.643,2.8182,0,0.00011755,1174.7,4.1315e-05,30.341,3.7279e-05,0.01471,-0.000117,-1159.2,1.9384
18575,18.736,2.7273,0,0.00011547,1153.9,4.0699e-05,31.166,3.6553e-05,0.014883,-0.00011491,-1138,1.9532
18576,18.643,2.7273,0.05,7.4928e-07,7.4876,5.7535e-07,4.323,-9.9294e-13,6.0479e-06,-5.7535e-07,-4.3229,1.9384
18577,18.643,3,0,0.00011755,1174.7,4.132e-05,30.398,3.7276e-05,0.014815,-0.000117,-1159.2,1.9384
18578,18.736,2.9091,0,0.00011547,1153.9,4.0709e-05,31.287,3.6547e-05,0.015091,-0.00011491,-1138,1.9533
18579,18.643,2.9091,0.05,7.493e-07,7.4878,5.7537e-07,4.3231,-4.8304e-13,6.2243e-06,-5.7537e-07,-4.3231,1.9384
18580,18.643,3.1818,0,0.00011755,1174.7,4.1315e-05,30.341,3.7279e-05,0.014713,-0.000117,-1159.2,1.9384
18581,18.736,3.0909,0,0.00011547,1153.9,4.0709e-05,31.287,3.6547e-05,0.015093,-0.00011491,-1138,1.9533
18582,18.643,3.0909,0.05,7.493e-07,7.4878,5.7537e-07,4.3231,2.8482e-14,5.698e-06,-5.7537e-07,-4.3231,1.9384
18583,18.643,3.3636,0,0.00011754,1174.6,4.13e-05,30.171,3.7287e-05,0.014401,-0.000117,-1159.3,1.9384
18584,18.736,3.2727,0,0.00011547,1153.9,4.0699e-05,31.166,3.6553e-05,0.014884,-0.00011491,-1138,1.9532
18585,18.643,3.2727,0.05,7.4928e-07,7.4876,5.7535e-07,4.323,9.9479e-13,7.7939e-06,-5.7535e-07,-4.323,1.9384
18586,18.643,3.5455,0,0.00011754,1174.6,4.1277e-05,29.892,3.73e-05,0.013874,-0.000117,-1159.4,1.9383
18587,18.736,3.4545,0,0.00011547,1153.9,4.0678e-05,30.925,3.6564e-05,0.014462,-0.00011491,-1138.1,1.9532
18588,18.643,3.4545,0.05,7.4923e-07,7.4872,5.7532e-07,4.3227,5.9572e-13,7.9723e-06,-5.7532e-07,-4.3227,1.9383
18589,18.643,3.7273,0,0.00011754,1174.6,4.1244e-05,29.51,3.7318e-05,0.013124,-0.00011701,-1159.5,1.9382
18590,18.736,3.6364,0,0.00011546,1153.8,4.0647e-05,30.571,3.658e-05,0.01382,-0.00011491,-1138.2,1.9531
18591,18.643,3.6364,0.05,7.4917e-07,7.4865,5.7527e-07,4.3223,6.4902e-13,9.0717e-06,-5.7527e-07,-4.3223,1.9382
18592,18.643,3.9091,0,0.00011754,1174.6,4.1204e-05,29.031,3.7342e-05,0.012141,-0.00011702,-1159.8,1.9381
18593,18.736,3.8182,0,0.00011546,1153.8,4.0607e-05,30.109,3.6601e-05,0.012948,-0.00011492,-1138.4,1.953
18594,18.643,3.8182,0.05,7.4908e-07,7.4856,5.752e-07,4.3218,1.6047e-12,1.0378e-05,-5.752e-07,-4.3218,1.9381
18595,18.643,4.0909,0,0.00011754,1174.6,4.1157e-05,28.466,3.737e-05,0.010908,-0.00011703,-1160.1,1.9379
18596,18.736,4,0,0.00011546,1153.8,4.0559e-05,29.549,3.6628e-05,0.01183,-0.00011492,-1138.7,1.9529
18597,18.643,4,0.05,7.4897e-07,7.4845,5.7511e-07,4.3212,1.6399e-12,9.9202e-06,-5.7512e-07,-4.3212,1.938
18598,18.643,4.2727,0,0.00011754,1174.6,4.1106e-05,27.827,3.7403e-05,0.009405,-0.00011704,-1160.4,1.9378
18599,18.736,4.1818,0,0.00011545,1153.7,4.0505e-05,28.902,3.666e-05,0.01045,-0.00011493,-1139,1.9527
18600,18.643,4.1818,0.05,7.4883e-07,7.4832,5.7501e-07,4.3204,2.1212e-12,8.697e-06,-5.7501e-07,-4.3204,1.9378
18601,18.643,4.4545,0,0.00011755,1174.7,4.1051e-05,27.126,3.7441e-05,0.0076138,-0.00011707,-1160.9,1.9376
18602,18.736,4.3636,0,0.00011546,1153.8,4.0446e-05,28.182,3.6697e-05,0.0087843,-0.00011495,-1139.4,1.9525
18603,18.643,4.3636,0.05,7.4868e-07,7.4816,5.7489e-07,4.3195,2.138e-12,1.0978e-05,-5.7489e-07,-4.3195,1.9376
18604,18.643,4.6364,0,0.00011757,1174.9,4.0994e-05,26.381,3.7484e-05,0.005513,-0.0001171,-1161.5,1.9373
18605,18.736,4.5455,0,0.00011546,1153.8,4.0385e-05,27.403,3.6738e-05,0.00681,-0.00011497,-1139.9,1.9523
18606,18.643,4.5455,0.05,7.485e-07,7.4798,5.7475e-07,4.3184,2.1465e-12,9.072e-06,-5.7475e-07,-4.3185,1.9374
18607,18.643,4.8182,0,0.00011759,1175.1,4.0939e-05,25.607,3.7531e-05,0.0030666,-0.00011714,-1162.1,1.9371
18608,18.736,4.7273,0,0.00011548,1154,4.0322e-05,26.584,3.6784e-05,0.0045104,-0.000115,-1140.5,1.9521
18609,18.643,4.7273,0.05,7.4829e-07,7.4777,5.7459e-07,4.3172,2.1405e-12,9.912e-06,-5.7459e-07,-4.3173,1.9372
18610,18.643,5,0,0.00011763,1175.5,4.0886e-05,24.823,3.7582e-05,0.00031506,-0.00011719,-1162.9,1.9368
18611,18.736,4.9091,0,0.00011551,1154.3,4.0261e-05,25.743,3.6835e-05,0.0018259,-0.00011505,-1141.2,1.9518
18612,18.643,4.9091,0.05,7.4806e-07,7.4754,5.7441e-07,4.3159,3.51e-12,1.0165e-05,-5.7442e-07,-4.316,1.9369
18613,18.643,5.1818,0,0.00011768,1176,4.0838e-05,24.049,3.7637e-05,-0.0029962,-0.00011725,-1163.8,1.9365
18614,18.736,5.0909,0,0.00011555,1154.7,4.0204e-05,24.899,3.689e-05,-0.0011137,-0.0001151,-1142,1.9515
18615,18.643,5.0909,0.05,7.4778e-07,7.4727,5.742e-07,4.3143,3.4599e-12,8.4641e-06,-5.7421e-07,-4.3144,1.9366
18616,18.643,5.3636,0,0.00011775,1176.7,4.08e-05,23.309,3.7696e-05,-0.0059169,-0.00011734,-1164.9,1.9361
18617,18.736,5.2727,0,0.0001156,1155.2,4.0153e-05,24.074,3.6949e-05,-0.0049564,-0.00011517,-1143,1.9512
18618,18.643,5.2727,0.05,7.4731e-07,7.4679,5.7384e-07,4.3116,2.9635e-12,9.0437e-06,-5.7384e-07,-4.3117,1.9363
18619,18.643,5.5455,0,0.00011785,1177.7,4.078e-05,22.688,3.7759e-05,-0.013715,-0.00011744,-1166.2,1.9358
18620,18.736,5.4545,0,0.00011567,1155.9,4.0113e-05,23.299,3.7011e-05,-0.0071012,-0.00011526,-1144.1,1.9508
18621,18.643,5.4545,0.05,7.441e-07,7.4359,5.7138e-07,4.2931,3.379e-12,8.1446e-06,-5.7138e-07,-4.2931,1.9359
18622,18.643,5.7273,0,0.00011815,1180.6,4.0931e-05,23.317,3.7826e-05,-0.01135,-0.00011773,-1168.8,1.9354
18623,18.736,5.6364,0,0.00011579,1157.1,4.0103e-05,22.717,3.7077e-05,-0.0208,-0.00011538,-1145.6,1.9505
18624,18.643,5.6364,0.05,6.994e-07,6.9891,5.3705e-07,4.0351,3.7547e-12,8.5195e-06,-5.3705e-07,-4.0352,1.9356
18625,18.736,5.8182,0,0.00011628,1162,4.0421e-05,24.577,3.715e-05,0.00072178,-0.00011585,-1149.6,1.9501
18626,18.643,5.8182,0.05,4.9462e-08,0.49427,3.7982e-08,0.28537,-7.7298e-12,-7.9874e-05,-3.7978e-08,-0.28537,1.9352
18627,18.643,5.9091,0,0.00011726,1171.8,4.0044e-05,16.175,3.789e-05,-0.0061131,-0.00011697,-1163.6,1.935
18628,18.828,0.27273,0,0.0001139,1138.2,3.9571e-05,23.811,3.64e-05,-0.011935,-0.00011348,-1126.1,1.9652
18629,18.92,0.18182,0,0.00011205,1119.7,3.9061e-05,25.037,3.5729e-05,0.00068806,-0.0001116,-1107,1.9799
18630,18.828,0.18182,0.05,5.3503e-08,0.53466,4.1081e-08,0.3087,9.3423e-12,0.0001017,-4.1087e-08,-0.30867,1.965
18631,18.828,0.090909,0,0.00011299,1129.1,3.8662e-05,16.477,3.6468e-05,-0.0062939,-0.0001127,-1120.8,1.9648
18632,18.828,0.45455,0,0.00011361,1135.3,3.943e-05,23.281,3.6329e-05,-0.014315,-0.00011319,-1123.5,1.9655
18633,18.92,0.36364,0,0.00011155,1114.7,3.8751e-05,23.262,3.5652e-05,-0.021823,-0.00011114,-1102.9,1.9803
18634,18.828,0.36364,0.05,6.9712e-07,6.9664,5.3531e-07,4.0221,-3.2676e-12,7.8677e-06,-5.353e-07,-4.022,1.9653
18635,18.828,0.63636,0,0.00011352,1134.4,3.9461e-05,24.022,3.6263e-05,-0.0060737,-0.00011309,-1122.2,1.9659
18636,18.92,0.54545,0,0.00011144,1113.7,3.8773e-05,23.966,3.5583e-05,-0.0073458,-0.00011102,-1101.5,1.9806
18637,18.828,0.54545,0.05,7.4136e-07,7.4085,5.6928e-07,4.2773,-2.8688e-12,7.8776e-06,-5.6927e-07,-4.2772,1.9657
18638,18.828,0.81818,0,0.00011346,1133.8,3.9513e-05,24.883,3.6201e-05,-0.0029918,-0.00011301,-1121.1,1.9662
18639,18.92,0.72727,0,0.00011138,1113,3.8827e-05,24.868,3.5516e-05,-0.0050634,-0.00011094,-1100.4,1.981
18640,18.828,0.72727,0.05,7.4456e-07,7.4404,5.7173e-07,4.2958,-2.0072e-12,9.6127e-06,-5.7172e-07,-4.2957,1.966
18641,18.828,1,0,0.00011341,1133.4,3.9573e-05,25.778,3.6143e-05,0.00047816,-0.00011295,-1120.3,1.9665
18642,18.92,0.90909,0,0.00011134,1112.6,3.8891e-05,25.819,3.5454e-05,-0.0010201,-0.00011087,-1099.4,1.9813
18643,18.828,0.90909,0.05,7.4505e-07,7.4454,5.7211e-07,4.2986,-2.5344e-12,7.5124e-06,-5.721e-07,-4.2985,1.9664
18644,18.828,1.1818,0,0.00011339,1133.1,3.9639e-05,26.68,3.6089e-05,0.003347,-0.00011291,-1119.5,1.9668
18645,18.92,1.0909,0,0.00011131,1112.3,3.8961e-05,26.789,3.5396e-05,0.0020512,-0.00011083,-1098.7,1.9816
18646,18.828,1.0909,0.05,7.4534e-07,7.4483,5.7233e-07,4.3003,-2.5801e-12,6.8744e-06,-5.7233e-07,-4.3002,1.9666
18647,18.828,1.3636,0,0.00011337,1132.9,3.9707e-05,27.568,3.6039e-05,0.0058849,-0.00011288,-1118.9,1.967
18648,18.92,1.2727,0,0.00011129,1112.1,3.9036e-05,27.752,3.5343e-05,0.0048462,-0.00011079,-1098,1.9818
18649,18.828,1.2727,0.05,7.4559e-07,7.4508,5.7252e-07,4.3017,-2.1441e-12,5.4809e-06,-5.7252e-07,-4.3017,1.9669
18650,18.828,1.5455,0,0.00011336,1132.8,3.9775e-05,28.421,3.5994e-05,0.0080555,-0.00011285,-1118.4,1.9673
18651,18.92,1.4545,0,0.00011128,1112.1,3.9111e-05,28.687,3.5294e-05,0.0072277,-0.00011077,-1097.4,1.9821
18652,18.828,1.4545,0.05,7.4581e-07,7.453,5.7269e-07,4.303,-1.6803e-12,4.6901e-06,-5.7269e-07,-4.3029,1.9671
18653,18.828,1.7273,0,0.00011336,1132.8,3.9841e-05,29.22,3.5953e-05,0.0098996,-0.00011284,-1117.9,1.9675
18654,18.92,1.6364,0,0.00011128,1112.1,3.9184e-05,29.573,3.525e-05,0.0092643,-0.00011075,-1097,1.9823
18655,18.828,1.6364,0.05,7.4601e-07,7.4549,5.7284e-07,4.3041,-2.1284e-12,4.9934e-06,-5.7284e-07,-4.3041,1.9674
18656,18.828,1.9091,0,0.00011336,1132.9,3.9902e-05,29.948,3.5918e-05,0.01144,-0.00011283,-1117.6,1.9676
18657,18.92,1.8182,0,0.00011129,1112.1,3.9254e-05,30.391,3.5211e-05,0.010976,-0.00011074,-1096.6,1.9824
18658,18.828,1.8182,0.05,7.4618e-07,7.4566,5.7297e-07,4.3051,-2.1232e-12,4.4281e-06,-5.7297e-07,-4.3051,1.9675
18659,18.828,2.0909,0,0.00011337,1132.9,3.9958e-05,30.59,3.5888e-05,0.012703,-0.00011282,-1117.3,1.9678
18660,18.92,2,0,0.0001113,1112.2,3.9318e-05,31.125,3.5177e-05,0.012391,-0.00011074,-1096.3,1.9826
18661,18.828,2,0.05,7.4632e-07,7.4581,5.7308e-07,4.3059,-1.1826e-12,4.3805e-06,-5.7308e-07,-4.3059,1.9677
18662,18.828,2.2727,0,0.00011338,1133,4.0005e-05,31.134,3.5863e-05,0.013706,-0.00011282,-1117.1,1.9679
18663,18.92,2.1818,0,0.00011131,1112.3,3.9374e-05,31.76,3.5149e-05,0.013535,-0.00011073,-1096.1,1.9827
18664,18.828,2.1818,0.05,7.4644e-07,7.4593,5.7318e-07,4.3066,-1.6036e-12,5.6239e-06,-5.7317e-07,-4.3066,1.9678
18665,18.828,2.4545,0,0.00011339,1133.1,4.0043e-05,31.568,3.5844e-05,0.01447,-0.00011281,-1116.9,1.968
18666,18.92,2.3636,0,0.00011132,1112.4,3.942e-05,32.283,3.5126e-05,0.014423,-0.00011073,-1095.9,1.9828
18667,18.828,2.3636,0.05,7.4654e-07,7.4602,5.7325e-07,4.3072,-1.5578e-12,5.693e-06,-5.7325e-07,-4.3071,1.9679
18668,18.828,2.6364,0,0.00011339,1133.1,4.0071e-05,31.884,3.583e-05,0.015006,-0.00011281,-1116.8,1.9681
18669,18.92,2.5455,0,0.00011133,1112.5,3.9456e-05,32.684,3.5109e-05,0.015078,-0.00011074,-1095.8,1.9829
18670,18.828,2.5455,0.05,7.4661e-07,7.4609,5.733e-07,4.3076,-1.054e-12,6.5492e-06,-5.733e-07,-4.3075,1.968
18671,18.828,2.8182,0,0.00011339,1133.2,4.0088e-05,32.077,3.5821e-05,0.015322,-0.00011281,-1116.8,1.9681
18672,18.92,2.7273,0,0.00011133,1112.6,3.9481e-05,32.955,3.5097e-05,0.015506,-0.00011074,-1095.7,1.983
18673,18.828,2.7273,0.05,7.4666e-07,7.4614,5.7334e-07,4.3079,-1.4529e-12,5.7721e-06,-5.7334e-07,-4.3078,1.9681
18674,18.828,3,0,0.0001134,1133.2,4.0094e-05,32.141,3.5819e-05,0.015428,-0.00011281,-1116.8,1.9681
18675,18.92,2.9091,0,0.00011134,1112.6,3.9493e-05,33.093,3.5091e-05,0.015718,-0.00011074,-1095.7,1.983
18676,18.828,2.9091,0.05,7.4668e-07,7.4616,5.7336e-07,4.308,-4.8489e-13,6.6888e-06,-5.7336e-07,-4.308,1.9681
18677,18.828,3.1818,0,0.00011339,1133.2,4.0088e-05,32.077,3.5821e-05,0.015323,-0.00011281,-1116.8,1.9681
18678,18.92,3.0909,0,0.00011134,1112.6,3.9493e-05,33.093,3.5091e-05,0.015719,-0.00011074,-1095.7,1.983
18679,18.828,3.0909,0.05,7.4668e-07,7.4616,5.7336e-07,4.308,9.3986e-13,6.9037e-06,-5.7336e-07,-4.308,1.9681
18680,18.828,3.3636,0,0.00011339,1133.1,4.0071e-05,31.884,3.583e-05,0.015005,-0.00011281,-1116.8,1.9681
18681,18.92,3.2727,0,0.00011133,1112.6,3.9481e-05,32.955,3.5097e-05,0.015504,-0.00011074,-1095.7,1.983
18682,18.828,3.2727,0.05,7.4666e-07,7.4614,5.7334e-07,4.3078,1.4549e-12,8.3072e-06,-5.7334e-07,-4.3078,1.9681
18683,18.828,3.5455,0,0.00011339,1133.1,4.0043e-05,31.568,3.5844e-05,0.014469,-0.00011281,-1116.9,1.968
18684,18.92,3.4545,0,0.00011133,1112.5,3.9456e-05,32.684,3.5109e-05,0.015077,-0.00011074,-1095.8,1.9829
18685,18.828,3.4545,0.05,7.4661e-07,7.4609,5.733e-07,4.3076,1.0582e-12,8.0233e-06,-5.733e-07,-4.3076,1.968
18686,18.828,3.7273,0,0.00011338,1133,4.0005e-05,31.134,3.5863e-05,0.013707,-0.00011282,-1117.1,1.9679
18687,18.92,3.6364,0,0.00011132,1112.4,3.942e-05,32.283,3.5126e-05,0.014424,-0.00011073,-1095.9,1.9828
18688,18.828,3.6364,0.05,7.4654e-07,7.4602,5.7325e-07,4.3072,1.5691e-12,9.872e-06,-5.7325e-07,-4.3072,1.9679
18689,18.828,3.9091,0,0.00011337,1132.9,3.9958e-05,30.59,3.5888e-05,0.012702,-0.00011282,-1117.3,1.9678
18690,18.92,3.8182,0,0.00011131,1112.3,3.9374e-05,31.76,3.5149e-05,0.013535,-0.00011073,-1096.1,1.9827
18691,18.828,3.8182,0.05,7.4644e-07,7.4593,5.7317e-07,4.3066,1.6172e-12,1.097e-05,-5.7318e-07,-4.3066,1.9678
18692,18.828,4.0909,0,0.00011336,1132.9,3.9902e-05,29.948,3.5918e-05,0.01144,-0.00011283,-1117.6,1.9676
18693,18.92,4,0,0.0001113,1112.2,3.9318e-05,31.125,3.5177e-05,0.012391,-0.00011074,-1096.3,1.9826
18694,18.828,4,0.05,7.4632e-07,7.4581,5.7308e-07,4.3059,2.1126e-12,1.0517e-05,-5.7308e-07,-4.3059,1.9677
18695,18.828,4.2727,0,0.00011336,1132.8,3.9841e-05,29.22,3.5953e-05,0.0098999,-0.00011284,-1117.9,1.9675
18696,18.92,4.1818,0,0.00011129,1112.1,3.9254e-05,30.391,3.5211e-05,0.010976,-0.00011074,-1096.6,1.9824
18697,18.828,4.1818,0.05,7.4618e-07,7.4566,5.7297e-07,4.3051,2.1457e-12,9.8216e-06,-5.7297e-07,-4.3051,1.9675
18698,18.828,4.4545,0,0.00011336,1132.8,3.9775e-05,28.421,3.5994e-05,0.008054,-0.00011285,-1118.4,1.9673
18699,18.92,4.3636,0,0.00011128,1112.1,3.9184e-05,29.573,3.525e-05,0.0092643,-0.00011075,-1097,1.9823
18700,18.828,4.3636,0.05,7.4601e-07,7.4549,5.7284e-07,4.3041,2.6285e-12,1.1614e-05,-5.7284e-07,-4.3041,1.9674
18701,18.828,4.6364,0,0.00011337,1132.9,3.9707e-05,27.568,3.6039e-05,0.0058841,-0.00011288,-1118.9,1.967
18702,18.92,4.5455,0,0.00011128,1112.1,3.9111e-05,28.687,3.5294e-05,0.0072265,-0.00011077,-1097.4,1.9821
18703,18.828,4.5455,0.05,7.4581e-07,7.453,5.7269e-07,4.303,2.6326e-12,1.0009e-05,-5.7269e-07,-4.303,1.9671
18704,18.828,4.8182,0,0.00011339,1133.1,3.9639e-05,26.68,3.6089e-05,0.0033489,-0.00011291,-1119.5,1.9668
18705,18.92,4.7273,0,0.00011129,1112.1,3.9036e-05,27.752,3.5343e-05,0.0048468,-0.00011079,-1098,1.9818
18706,18.828,4.7273,0.05,7.4559e-07,7.4508,5.7252e-07,4.3017,2.6015e-12,1.0876e-05,-5.7252e-07,-4.3017,1.9669
18707,18.828,5,0,0.00011341,1133.4,3.9574e-05,25.778,3.6143e-05,0.00047773,-0.00011295,-1120.3,1.9665
18708,18.92,4.9091,0,0.00011131,1112.3,3.8961e-05,26.789,3.5396e-05,0.0020522,-0.00011083,-1098.7,1.9816
18709,18.828,4.9091,0.05,7.4534e-07,7.4483,5.7233e-07,4.3002,2.6086e-12,1.101e-05,-5.7233e-07,-4.3003,1.9666
18710,18.828,5.1818,0,0.00011346,1133.8,3.9513e-05,24.883,3.6201e-05,-0.0029948,-0.00011301,-1121.1,1.9662
18711,18.92,5.0909,0,0.00011134,1112.6,3.8891e-05,25.819,3.5454e-05,-0.0010214,-0.00011087,-1099.4,1.9813
18712,18.828,5.0909,0.05,7.4505e-07,7.4454,5.721e-07,4.2985,3.487e-12,8.98e-06,-5.7211e-07,-4.2986,1.9664
18713,18.828,5.3636,0,0.00011352,1134.4,3.9461e-05,24.022,3.6263e-05,-0.0060755,-0.00011309,-1122.2,1.9659
18714,18.92,5.2727,0,0.00011138,1113,3.8827e-05,24.868,3.5516e-05,-0.0050657,-0.00011094,-1100.4,1.981
18715,18.828,5.2727,0.05,7.4456e-07,7.4404,5.7172e-07,4.2957,3.4544e-12,9.6232e-06,-5.7173e-07,-4.2958,1.966
18716,18.828,5.5455,0,0.00011361,1135.3,3.943e-05,23.281,3.6329e-05,-0.014315,-0.00011319,-1123.5,1.9655
18717,18.92,5.4545,0,0.00011144,1113.7,3.8773e-05,23.966,3.5583e-05,-0.0073466,-0.00011102,-1101.5,1.9806
18718,18.828,5.4545,0.05,7.4136e-07,7.4085,5.6927e-07,4.2772,3.3616e-12,9.1511e-06,-5.6927e-07,-4.2773,1.9657
18719,18.828,5.7273,0,0.0001139,1138.2,3.9571e-05,23.811,3.64e-05,-0.011933,-0.00011348,-1126.1,1.9652
18720,18.92,5.6364,0,0.00011155,1114.7,3.8751e-05,23.262,3.5652e-05,-0.021823,-0.00011114,-1102.9,1.9803
18721,18.828,5.6364,0.05,6.9712e-07,6.9664,5.353e-07,4.022,3.7401e-12,9.7491e-06,-5.353e-07,-4.0221,1.9653
18722,18.92,5.8182,0,0.00011205,1119.7,3.9061e-05,25.037,3.5729e-05,0.00068878,-0.0001116,-1107,1.9799
18723,18.828,5.8182,0.05,5.3503e-08,0.53466,4.1086e-08,0.30868,-5.9377e-12,-6.0366e-05,-4.1081e-08,-0.30869,1.965
18724,18.828,5.9091,0,0.00011299,1129.1,3.8662e-05,16.477,3.6468e-05,-0.0062932,-0.0001127,-1120.8,1.9648
18725,19.013,0.27273,0,0.00010967,1096,3.8218e-05,24.318,3.498e-05,-0.012593,-0.00010924,-1083.6,1.995
18726,19.105,0.18182,0,0.00010783,1077.5,3.7707e-05,25.506,3.4313e-05,0.00062207,-0.00010737,-1064.6,2.0098
18727,19.013,0.18182,0.05,5.8149e-08,0.58109,4.465e-08,0.33551,9.2663e-12,9.764e-05,-4.4653e-08,-0.33548,1.9948
18728,19.013,0.090909,0,0.00010875,1086.7,3.7286e-05,16.785,3.5051e-05,-0.0064961,-0.00010845,-1078.2,1.9946
18729,19.013,0.45455,0,0.00010938,1093.1,3.8088e-05,23.899,3.4905e-05,-0.01498,-0.00010896,-1080.9,1.9954
18730,19.105,0.36364,0,0.00010733,1072.6,3.7406e-05,23.827,3.4232e-05,-0.022933,-0.00010691,-1060.5,2.0102
18731,19.013,0.36364,0.05,6.9493e-07,6.9446,5.3363e-07,4.0095,-2.3361e-12,7.1377e-06,-5.3362e-07,-4.0094,1.9952
18732,19.013,0.63636,0,0.0001093,1092.3,3.8133e-05,24.769,3.4835e-05,-0.0062586,-0.00010886,-1079.7,1.9957
18733,19.105,0.54545,0,0.00010724,1071.6,3.7442e-05,24.664,3.4159e-05,-0.0076158,-0.0001068,-1059.1,2.0105
18734,19.013,0.54545,0.05,7.3868e-07,7.3817,5.6722e-07,4.2619,-2.4853e-12,1.0857e-05,-5.6722e-07,-4.2618,1.9956
18735,19.013,0.81818,0,0.00010925,1091.8,3.8199e-05,25.762,3.4769e-05,-0.0030019,-0.00010879,-1078.7,1.996
18736,19.105,0.72727,0,0.00010718,1071.1,3.751e-05,25.702,3.4089e-05,-0.0051828,-0.00010672,-1058,2.0108
18737,19.013,0.72727,0.05,7.4187e-07,7.4136,5.6967e-07,4.2803,-2.1298e-12,1.1089e-05,-5.6966e-07,-4.2802,1.9959
18738,19.013,1,0,0.00010922,1091.4,3.8273e-05,26.789,3.4708e-05,0.0006426,-0.00010874,-1077.8,1.9963
18739,19.105,0.90909,0,0.00010715,1070.7,3.7589e-05,26.793,3.4023e-05,-0.00092246,-0.00010667,-1057.1,2.0111
18740,19.013,0.90909,0.05,7.4239e-07,7.4188,5.7006e-07,4.2833,-2.1816e-12,7.9109e-06,-5.7006e-07,-4.2832,1.9962
18741,19.013,1.1818,0,0.0001092,1091.3,3.8352e-05,27.82,3.465e-05,0.0036372,-0.0001087,-1077.1,1.9966
18742,19.105,1.0909,0,0.00010713,1070.5,3.7674e-05,27.899,3.3961e-05,0.0022947,-0.00010663,-1056.3,2.0114
18743,19.013,1.0909,0.05,7.427e-07,7.4219,5.703e-07,4.2851,-2.621e-12,5.4361e-06,-5.703e-07,-4.285,1.9965
18744,19.013,1.3636,0,0.0001092,1091.2,3.8434e-05,28.831,3.4598e-05,0.0062718,-0.00010868,-1076.5,1.9968
18745,19.105,1.2727,0,0.00010712,1070.5,3.7763e-05,28.994,3.3905e-05,0.0052055,-0.0001066,-1055.7,2.0117
18746,19.013,1.2727,0.05,7.4297e-07,7.4246,5.7051e-07,4.2866,-2.1761e-12,4.378e-06,-5.7051e-07,-4.2865,1.9967
18747,19.013,1.5455,0,0.0001092,1091.2,3.8515e-05,29.8,3.455e-05,0.008515,-0.00010866,-1076,1.9971
18748,19.105,1.4545,0,0.00010713,1070.5,3.7852e-05,30.055,3.3853e-05,0.0076729,-0.00010658,-1055.2,2.0119
18749,19.013,1.4545,0.05,7.4321e-07,7.427,5.707e-07,4.288,-2.1762e-12,3.7715e-06,-5.7069e-07,-4.2879,1.9969
18750,19.013,1.7273,0,0.00010921,1091.3,3.8592e-05,30.707,3.4507e-05,0.010415,-0.00010865,-1075.6,1.9973
18751,19.105,1.6364,0,0.00010714,1070.6,3.7938e-05,31.058,3.3806e-05,0.0097756,-0.00010657,-1054.8,2.0121
18752,19.013,1.6364,0.05,7.4342e-07,7.4291,5.7086e-07,4.2892,-1.7298e-12,4.5849e-06,-5.7085e-07,-4.2892,1.9971
18753,19.013,1.9091,0,0.00010922,1091.4,3.8665e-05,31.531,3.447e-05,0.011997,-0.00010865,-1075.3,1.9974
18754,19.105,1.8182,0,0.00010715,1070.8,3.802e-05,31.983,3.3765e-05,0.011537,-0.00010657,-1054.4,2.0123
18755,19.013,1.8182,0.05,7.4361e-07,7.4309,5.71e-07,4.2903,-1.2395e-12,3.7134e-06,-5.7099e-07,-4.2902,1.9973
18756,19.013,2.0909,0,0.00010923,1091.6,3.8729e-05,32.258,3.4438e-05,0.01329,-0.00010865,-1075.1,1.9976
18757,19.105,2,0,0.00010717,1070.9,3.8094e-05,32.812,3.3729e-05,0.012988,-0.00010657,-1054.2,2.0124
18758,19.013,2,0.05,7.4376e-07,7.4325,5.7112e-07,4.2912,-1.2058e-12,3.9433e-06,-5.7111e-07,-4.2911,1.9975
18759,19.013,2.2727,0,0.00010924,1091.7,3.8784e-05,32.872,3.4411e-05,0.014317,-0.00010865,-1074.9,1.9977
18760,19.105,2.1818,0,0.00010719,1071.1,3.8159e-05,33.528,3.3699e-05,0.014158,-0.00010658,-1054,2.0125
18761,19.013,2.1818,0.05,7.4389e-07,7.4338,5.7122e-07,4.2919,-7.1501e-13,5.1635e-06,-5.7122e-07,-4.2919,1.9976
18762,19.013,2.4545,0,0.00010926,1091.8,3.8829e-05,33.362,3.4391e-05,0.015094,-0.00010865,-1074.7,1.9978
18763,19.105,2.3636,0,0.0001072,1071.3,3.8213e-05,34.117,3.3675e-05,0.015066,-0.00010658,-1053.8,2.0126
18764,19.013,2.3636,0.05,7.44e-07,7.4348,5.713e-07,4.2925,-6.6785e-13,5.0804e-06,-5.713e-07,-4.2925,1.9977
18765,19.013,2.6364,0,0.00010927,1091.9,3.8861e-05,33.719,3.4376e-05,0.015639,-0.00010865,-1074.6,1.9978
18766,19.105,2.5455,0,0.00010722,1071.4,3.8255e-05,34.568,3.3656e-05,0.015732,-0.00010659,-1053.7,2.0127
18767,19.013,2.5455,0.05,7.4407e-07,7.4356,5.7136e-07,4.293,-6.1049e-13,6.221e-06,-5.7135e-07,-4.2929,1.9978
18768,19.013,2.8182,0,0.00010927,1092,3.8881e-05,33.936,3.4367e-05,0.015963,-0.00010865,-1074.6,1.9979
18769,19.105,2.7273,0,0.00010722,1071.5,3.8283e-05,34.874,3.3644e-05,0.016168,-0.00010659,-1053.6,2.0128
18770,19.013,2.7273,0.05,7.4413e-07,7.4361,5.714e-07,4.2933,-1.005e-12,5.7139e-06,-5.7139e-07,-4.2932,1.9978
18771,19.013,3,0,0.00010927,1092,3.8888e-05,34.009,3.4364e-05,0.01607,-0.00010865,-1074.6,1.9979
18772,19.105,2.9091,0,0.00010723,1071.6,3.8298e-05,35.028,3.3638e-05,0.016385,-0.00010659,-1053.6,2.0128
18773,19.013,2.9091,0.05,7.4415e-07,7.4364,5.7142e-07,4.2934,-3.2599e-14,6.6698e-06,-5.7141e-07,-4.2934,1.9979
18774,19.013,3.1818,0,0.00010927,1092,3.8881e-05,33.936,3.4367e-05,0.015961,-0.00010865,-1074.6,1.9979
18775,19.105,3.0909,0,0.00010723,1071.6,3.8298e-05,35.028,3.3638e-05,0.016383,-0.00010659,-1053.6,2.0128
18776,19.013,3.0909,0.05,7.4415e-07,7.4364,5.7142e-07,4.2934,4.8756e-13,6.6835e-06,-5.7141e-07,-4.2934,1.9979
18777,19.013,3.3636,0,0.00010927,1091.9,3.8861e-05,33.719,3.4376e-05,0.015638,-0.00010865,-1074.6,1.9978
18778,19.105,3.2727,0,0.00010722,1071.5,3.8283e-05,34.874,3.3644e-05,0.016167,-0.00010659,-1053.6,2.0128
18779,19.013,3.2727,0.05,7.4412e-07,7.4361,5.714e-07,4.2932,1.0074e-12,7.8895e-06,-5.714e-07,-4.2932,1.9978
18780,19.013,3.5455,0,0.00010926,1091.8,3.8829e-05,33.362,3.4391e-05,0.015094,-0.00010865,-1074.7,1.9978
18781,19.105,3.4545,0,0.00010722,1071.4,3.8255e-05,34.568,3.3656e-05,0.015732,-0.00010659,-1053.7,2.0127
18782,19.013,3.4545,0.05,7.4407e-07,7.4356,5.7136e-07,4.2929,1.5249e-12,8.3601e-06,-5.7136e-07,-4.2929,1.9978
18783,19.013,3.7273,0,0.00010924,1091.7,3.8784e-05,32.872,3.4411e-05,0.014317,-0.00010865,-1074.9,1.9977
18784,19.105,3.6364,0,0.0001072,1071.3,3.8213e-05,34.117,3.3675e-05,0.015066,-0.00010658,-1053.8,2.0126
18785,19.013,3.6364,0.05,7.44e-07,7.4348,5.713e-07,4.2925,6.7517e-13,9.7516e-06,-5.713e-07,-4.2925,1.9977
18786,19.013,3.9091,0,0.00010923,1091.6,3.8729e-05,32.258,3.4438e-05,0.013291,-0.00010865,-1075.1,1.9976
18787,19.105,3.8182,0,0.00010719,1071.1,3.8159e-05,33.528,3.3699e-05,0.014158,-0.00010658,-1054,2.0125
18788,19.013,3.8182,0.05,7.4389e-07,7.4338,5.7122e-07,4.2919,7.2573e-13,1.0626e-05,-5.7122e-07,-4.2919,1.9976
18789,19.013,4.0909,0,0.00010922,1091.4,3.8665e-05,31.531,3.447e-05,0.011998,-0.00010865,-1075.3,1.9974
18790,19.105,4,0,0.00010717,1070.9,3.8094e-05,32.812,3.3729e-05,0.012989,-0.00010657,-1054.2,2.0124
18791,19.013,4,0.05,7.4376e-07,7.4325,5.7112e-07,4.2911,2.1381e-12,1.0247e-05,-5.7112e-07,-4.2912,1.9975
18792,19.013,4.2727,0,0.00010921,1091.3,3.8592e-05,30.707,3.4507e-05,0.010415,-0.00010865,-1075.6,1.9973
18793,19.105,4.1818,0,0.00010715,1070.8,3.802e-05,31.983,3.3765e-05,0.011537,-0.00010657,-1054.4,2.0123
18794,19.013,4.1818,0.05,7.4361e-07,7.4309,5.7099e-07,4.2902,1.7056e-12,9.2929e-06,-5.71e-07,-4.2903,1.9973
18795,19.013,4.4545,0,0.0001092,1091.2,3.8515e-05,29.8,3.455e-05,0.0085153,-0.00010866,-1076,1.9971
18796,19.105,4.3636,0,0.00010714,1070.6,3.7938e-05,31.058,3.3806e-05,0.0097762,-0.00010657,-1054.8,2.0121
18797,19.013,4.3636,0.05,7.4342e-07,7.4291,5.7085e-07,4.2892,2.1879e-12,1.1297e-05,-5.7086e-07,-4.2892,1.9971
18798,19.013,4.6364,0,0.0001092,1091.2,3.8434e-05,28.831,3.4598e-05,0.0062721,-0.00010868,-1076.5,1.9968
18799,19.105,4.5455,0,0.00010713,1070.5,3.7852e-05,30.055,3.3853e-05,0.0076712,-0.00010658,-1055.2,2.0119
18800,19.013,4.5455,0.05,7.4321e-07,7.427,5.7069e-07,4.2879,2.2009e-12,1.0043e-05,-5.7069e-07,-4.288,1.9969
18801,19.013,4.8182,0,0.0001092,1091.3,3.8352e-05,27.82,3.465e-05,0.0036369,-0.0001087,-1077.1,1.9966
18802,19.105,4.7273,0,0.00010712,1070.5,3.7763e-05,28.994,3.3905e-05,0.0052052,-0.0001066,-1055.7,2.0117
18803,19.013,4.7273,0.05,7.4297e-07,7.4246,5.7051e-07,4.2865,2.6467e-12,1.1503e-05,-5.7051e-07,-4.2866,1.9967
18804,19.013,5,0,0.00010922,1091.4,3.8273e-05,26.789,3.4708e-05,0.00064276,-0.00010874,-1077.8,1.9963
18805,19.105,4.9091,0,0.00010713,1070.5,3.7674e-05,27.899,3.3961e-05,0.0022928,-0.00010663,-1056.3,2.0114
18806,19.013,4.9091,0.05,7.427e-07,7.4219,5.703e-07,4.285,2.6307e-12,1.0872e-05,-5.703e-07,-4.2851,1.9965
18807,19.013,5.1818,0,0.00010925,1091.8,3.8199e-05,25.762,3.4769e-05,-0.0030026,-0.00010879,-1078.7,1.996
18808,19.105,5.0909,0,0.00010715,1070.7,3.7589e-05,26.793,3.4023e-05,-0.00092316,-0.00010667,-1057.1,2.0111
18809,19.013,5.0909,0.05,7.4239e-07,7.4188,5.7006e-07,4.2832,3.5122e-12,9.2023e-06,-5.7006e-07,-4.2833,1.9962
18810,19.013,5.3636,0,0.0001093,1092.3,3.8133e-05,24.769,3.4835e-05,-0.0062599,-0.00010886,-1079.7,1.9957
18811,19.105,5.2727,0,0.00010718,1071.1,3.751e-05,25.703,3.4089e-05,-0.0051853,-0.00010672,-1058,2.0108
18812,19.013,5.2727,0.05,7.4187e-07,7.4136,5.6966e-07,4.2802,2.9888e-12,9.8726e-06,-5.6967e-07,-4.2803,1.9959
18813,19.013,5.5455,0,0.00010938,1093.1,3.8088e-05,23.899,3.4905e-05,-0.01498,-0.00010896,-1080.9,1.9954
18814,19.105,5.4545,0,0.00010724,1071.6,3.7442e-05,24.664,3.4159e-05,-0.007615,-0.0001068,-1059.1,2.0105
18815,19.013,5.4545,0.05,7.3868e-07,7.3817,5.6721e-07,4.2618,3.8229e-12,9.151e-06,-5.6722e-07,-4.2619,1.9956
18816,19.013,5.7273,0,0.00010967,1096,3.8218e-05,24.318,3.498e-05,-0.012594,-0.00010924,-1083.6,1.995
18817,19.105,5.6364,0,0.00010733,1072.6,3.7406e-05,23.827,3.4232e-05,-0.022933,-0.00010691,-1060.5,2.0102
18818,19.013,5.6364,0.05,6.9493e-07,6.9446,5.3362e-07,4.0094,3.7431e-12,9.9108e-06,-5.3363e-07,-4.0095,1.9952
18819,19.105,5.8182,0,0.00010783,1077.5,3.7707e-05,25.506,3.4313e-05,0.00062081,-0.00010737,-1064.6,2.0098
18820,19.013,5.8182,0.05,5.8149e-08,0.58109,4.4653e-08,0.33548,-6.2495e-12,-9.0676e-05,-4.465e-08,-0.3355,1.9948
18821,19.013,5.9091,0,0.00010875,1086.7,3.7286e-05,16.785,3.5051e-05,-0.006495,-0.00010845,-1078.2,1.9946
18822,19.198,0.27273,0,0.00010546,1053.9,3.6872e-05,24.841,3.3564e-05,-0.013315,-0.00010502,-1041.3,2.025
18823,19.29,0.18182,0,0.00010363,1035.6,3.636e-05,25.983,3.2902e-05,0.00052775,-0.00010316,-1022.3,2.0398
18824,19.198,0.18182,0.05,6.3432e-08,0.63388,4.8707e-08,0.36599,6.5583e-12,8.0742e-05,-4.8709e-08,-0.36595,2.0248
18825,19.198,0.090909,0,0.00010452,1044.4,3.5916e-05,17.099,3.364e-05,-0.0067041,-0.00010422,-1035.8,2.0246
18826,19.198,0.45455,0,0.00010518,1051.1,3.6754e-05,24.542,3.3485e-05,-0.015691,-0.00010474,-1038.6,2.0253
18827,19.29,0.36364,0,0.00010314,1030.7,3.6069e-05,24.412,3.2817e-05,-0.024122,-0.0001027,-1018.2,2.0401
18828,19.198,0.36364,0.05,6.9284e-07,6.9236,5.3202e-07,3.9974,-3.4463e-12,3.6612e-06,-5.3201e-07,-3.9973,2.0251
18829,19.198,0.63636,0,0.00010511,1050.4,3.6814e-05,25.553,3.3412e-05,-0.0064498,-0.00010465,-1037.4,2.0256
18830,19.29,0.54545,0,0.00010305,1029.8,3.612e-05,25.394,3.2739e-05,-0.0078918,-0.00010259,-1016.8,2.0405
18831,19.198,0.54545,0.05,7.3608e-07,7.3557,5.6522e-07,4.2468,-2.0727e-12,1.2833e-05,-5.6521e-07,-4.2468,2.0255
18832,19.198,0.81818,0,0.00010507,1050,3.6895e-05,26.69,3.3342e-05,-0.0030017,-0.00010459,-1036.4,2.0259
18833,19.29,0.72727,0,0.000103,1029.3,3.6204e-05,26.582,3.2665e-05,-0.0052935,-0.00010253,-1015.8,2.0408
18834,19.198,0.72727,0.05,7.3926e-07,7.3875,5.6766e-07,4.2652,-1.212e-12,1.2246e-05,-5.6766e-07,-4.2651,2.0258
18835,19.198,1,0,0.00010505,1049.8,3.6985e-05,27.86,3.3277e-05,0.00082924,-0.00010455,-1035.5,2.0262
18836,19.29,0.90909,0,0.00010298,1029.1,3.6299e-05,27.823,3.2596e-05,-0.00079836,-0.00010248,-1014.9,2.0411
18837,19.198,0.90909,0.05,7.398e-07,7.3929,5.6807e-07,4.2683,-2.1488e-12,6.7173e-06,-5.6807e-07,-4.2682,2.0261
18838,19.198,1.1818,0,0.00010504,1049.7,3.7079e-05,29.032,3.3216e-05,0.0039579,-0.00010452,-1034.9,2.0265
18839,19.29,1.0909,0,0.00010297,1029,3.64e-05,29.078,3.2531e-05,0.0025725,-0.00010245,-1014.2,2.0413
18840,19.198,1.0909,0.05,7.4013e-07,7.3962,5.6833e-07,4.2702,-2.6161e-12,3.1704e-06,-5.6833e-07,-4.2702,2.0263
18841,19.198,1.3636,0,0.00010505,1049.7,3.7176e-05,30.178,3.316e-05,0.0066961,-0.0001045,-1034.3,2.0267
18842,19.29,1.2727,0,0.00010298,1029.1,3.6505e-05,30.317,3.247e-05,0.0056077,-0.00010243,-1013.6,2.0416
18843,19.198,1.2727,0.05,7.4043e-07,7.3991,5.6856e-07,4.2719,-2.1975e-12,4.4602e-06,-5.6855e-07,-4.2719,2.0266
18844,19.198,1.5455,0,0.00010506,1049.9,3.727e-05,31.274,3.3109e-05,0.0090175,-0.00010449,-1033.9,2.0269
18845,19.29,1.4545,0,0.00010299,1029.2,3.6609e-05,31.515,3.2415e-05,0.0081697,-0.00010242,-1013.1,2.0418
18846,19.198,1.4545,0.05,7.4069e-07,7.4018,5.6876e-07,4.2734,-1.2698e-12,3.8144e-06,-5.6875e-07,-4.2734,2.0268
18847,19.198,1.7273,0,0.00010508,1050,3.7361e-05,32.297,3.3064e-05,0.010977,-0.00010449,-1033.5,2.0271
18848,19.29,1.6364,0,0.00010301,1029.4,3.6709e-05,32.646,3.2366e-05,0.010341,-0.00010242,-1012.7,2.042
18849,19.198,1.6364,0.05,7.4092e-07,7.4041,5.6893e-07,4.2748,-1.7262e-12,4.4236e-06,-5.6893e-07,-4.2747,2.027
18850,19.198,1.9091,0,0.0001051,1050.2,3.7445e-05,33.226,3.3024e-05,0.012602,-0.00010449,-1033.2,2.0273
18851,19.29,1.8182,0,0.00010304,1029.7,3.6804e-05,33.688,3.2322e-05,0.012156,-0.00010243,-1012.4,2.0422
18852,19.198,1.8182,0.05,7.4112e-07,7.4061,5.6909e-07,4.2759,-8.0056e-13,3.808e-06,-5.6908e-07,-4.2759,2.0272
18853,19.198,2.0909,0,0.00010512,1050.5,3.7519e-05,34.044,3.299e-05,0.013927,-0.0001045,-1033,2.0274
18854,19.29,2,0,0.00010307,1030,3.6889e-05,34.619,3.2284e-05,0.013644,-0.00010243,-1012.2,2.0423
18855,19.198,2,0.05,7.4129e-07,7.4078,5.6922e-07,4.2769,-1.2196e-12,4.5852e-06,-5.6922e-07,-4.2768,2.0273
18856,19.198,2.2727,0,0.00010514,1050.7,3.7583e-05,34.736,3.2962e-05,0.014975,-0.0001045,-1032.9,2.0275
18857,19.29,2.1818,0,0.00010309,1030.2,3.6964e-05,35.423,3.2252e-05,0.014842,-0.00010244,-1012,2.0424
18858,19.198,2.1818,0.05,7.4143e-07,7.4092,5.6933e-07,4.2777,-7.2969e-13,5.3541e-06,-5.6933e-07,-4.2777,2.0275
18859,19.198,2.4545,0,0.00010516,1050.8,3.7634e-05,35.287,3.294e-05,0.015768,-0.00010451,-1032.7,2.0276
18860,19.29,2.3636,0,0.00010311,1030.4,3.7026e-05,36.084,3.2226e-05,0.015769,-0.00010245,-1011.9,2.0425
18861,19.198,2.3636,0.05,7.4154e-07,7.4103,5.6942e-07,4.2784,-1.1274e-12,5.7127e-06,-5.6941e-07,-4.2783,2.0276
18862,19.198,2.6364,0,0.00010517,1051,3.7672e-05,35.687,3.2924e-05,0.016324,-0.00010452,-1032.7,2.0277
18863,19.29,2.5455,0,0.00010313,1030.6,3.7074e-05,36.591,3.2206e-05,0.016449,-0.00010246,-1011.8,2.0426
18864,19.198,2.5455,0.05,7.4163e-07,7.4112,5.6948e-07,4.2789,-1.0738e-12,5.446e-06,-5.6948e-07,-4.2788,2.0276
18865,19.198,2.8182,0,0.00010518,1051,3.7695e-05,35.931,3.2915e-05,0.016654,-0.00010452,-1032.6,2.0277
18866,19.29,2.7273,0,0.00010314,1030.7,3.7107e-05,36.934,3.2193e-05,0.016894,-0.00010247,-1011.8,2.0426
18867,19.198,2.7273,0.05,7.4169e-07,7.4118,5.6952e-07,4.2792,-5.5586e-13,5.4429e-06,-5.6952e-07,-4.2792,2.0277
18868,19.198,3,0,0.00010518,1051.1,3.7702e-05,36.013,3.2912e-05,0.016761,-0.00010452,-1032.6,2.0277
18869,19.29,2.9091,0,0.00010315,1030.8,3.7123e-05,37.107,3.2187e-05,0.017114,-0.00010247,-1011.7,2.0427
18870,19.198,2.9091,0.05,7.4172e-07,7.412,5.6955e-07,4.2793,-3.4316e-14,6.4183e-06,-5.6954e-07,-4.2793,2.0277
18871,19.198,3.1818,0,0.00010518,1051,3.7695e-05,35.931,3.2915e-05,0.016652,-0.00010452,-1032.6,2.0277
18872,19.29,3.0909,0,0.00010315,1030.8,3.7123e-05,37.107,3.2187e-05,0.017113,-0.00010247,-1011.7,2.0427
18873,19.198,3.0909,0.05,7.4172e-07,7.412,5.6955e-07,4.2793,3.4511e-14,5.0277e-06,-5.6954e-07,-4.2793,2.0277
18874,19.198,3.3636,0,0.00010517,1051,3.7672e-05,35.687,3.2924e-05,0.016325,-0.00010452,-1032.7,2.0277
18875,19.29,3.2727,0,0.00010314,1030.7,3.7107e-05,36.934,3.2193e-05,0.016894,-0.00010247,-1011.8,2.0426
18876,19.198,3.2727,0.05,7.4169e-07,7.4118,5.6952e-07,4.2792,5.576e-13,7.4474e-06,-5.6952e-07,-4.2792,2.0277
18877,19.198,3.5455,0,0.00010516,1050.8,3.7634e-05,35.287,3.294e-05,0.015769,-0.00010451,-1032.7,2.0276
18878,19.29,3.4545,0,0.00010313,1030.6,3.7074e-05,36.591,3.2206e-05,0.016449,-0.00010246,-1011.8,2.0426
18879,19.198,3.4545,0.05,7.4163e-07,7.4112,5.6948e-07,4.2788,1.0783e-12,8.4267e-06,-5.6948e-07,-4.2788,2.0276
18880,19.198,3.7273,0,0.00010514,1050.7,3.7583e-05,34.736,3.2962e-05,0.014974,-0.0001045,-1032.9,2.0275
18881,19.29,3.6364,0,0.00010311,1030.4,3.7026e-05,36.084,3.2226e-05,0.015769,-0.00010245,-1011.9,2.0425
18882,19.198,3.6364,0.05,7.4154e-07,7.4103,5.6941e-07,4.2784,2.0448e-12,1.0318e-05,-5.6941e-07,-4.2784,2.0276
18883,19.198,3.9091,0,0.00010512,1050.5,3.7519e-05,34.044,3.299e-05,0.013926,-0.0001045,-1033,2.0274
18884,19.29,3.8182,0,0.00010309,1030.2,3.6964e-05,35.423,3.2252e-05,0.01484,-0.00010244,-1012,2.0424
18885,19.198,3.8182,0.05,7.4143e-07,7.4092,5.6933e-07,4.2777,7.3954e-13,1.0702e-05,-5.6933e-07,-4.2777,2.0275
18886,19.198,4.0909,0,0.0001051,1050.2,3.7445e-05,33.226,3.3024e-05,0.012602,-0.00010449,-1033.2,2.0273
18887,19.29,4,0,0.00010307,1030,3.6889e-05,34.619,3.2284e-05,0.013645,-0.00010243,-1012.2,2.0423
18888,19.198,4,0.05,7.4129e-07,7.4078,5.6922e-07,4.2769,1.2432e-12,1.0864e-05,-5.6922e-07,-4.2769,2.0273
18889,19.198,4.2727,0,0.00010508,1050,3.7361e-05,32.297,3.3064e-05,0.010977,-0.00010449,-1033.5,2.0271
18890,19.29,4.1818,0,0.00010304,1029.7,3.6804e-05,33.688,3.2322e-05,0.012154,-0.00010243,-1012.4,2.0422
18891,19.198,4.1818,0.05,7.4112e-07,7.4061,5.6908e-07,4.2759,2.1888e-12,9.8528e-06,-5.6909e-07,-4.2759,2.0272
18892,19.198,4.4545,0,0.00010506,1049.9,3.727e-05,31.274,3.3109e-05,0.0090161,-0.00010449,-1033.9,2.0269
18893,19.29,4.3636,0,0.00010301,1029.4,3.6709e-05,32.646,3.2366e-05,0.010342,-0.00010242,-1012.7,2.042
18894,19.198,4.3636,0.05,7.4092e-07,7.4041,5.6893e-07,4.2747,2.2222e-12,1.1653e-05,-5.6893e-07,-4.2747,2.027
18895,19.198,4.6364,0,0.00010505,1049.7,3.7176e-05,30.178,3.316e-05,0.0066938,-0.0001045,-1034.3,2.0267
18896,19.29,4.5455,0,0.00010299,1029.2,3.6609e-05,31.515,3.2415e-05,0.0081681,-0.00010242,-1013.1,2.0418
18897,19.198,4.5455,0.05,7.4069e-07,7.4018,5.6875e-07,4.2734,2.2248e-12,9.7805e-06,-5.6876e-07,-4.2734,2.0268
18898,19.198,4.8182,0,0.00010504,1049.7,3.7079e-05,29.032,3.3216e-05,0.0039561,-0.00010452,-1034.9,2.0265
18899,19.29,4.7273,0,0.00010298,1029.1,3.6505e-05,30.317,3.247e-05,0.0056076,-0.00010243,-1013.6,2.0416
18900,19.198,4.7273,0.05,7.4043e-07,7.3991,5.6855e-07,4.2719,3.1231e-12,1.0555e-05,-5.6856e-07,-4.2719,2.0266
18901,19.198,5,0,0.00010505,1049.8,3.6985e-05,27.86,3.3277e-05,0.00082653,-0.00010455,-1035.5,2.0262
18902,19.29,4.9091,0,0.00010297,1029,3.64e-05,29.078,3.2531e-05,0.0025714,-0.00010245,-1014.2,2.0413
18903,19.198,4.9091,0.05,7.4013e-07,7.3962,5.6833e-07,4.2702,3.5588e-12,1.0454e-05,-5.6833e-07,-4.2702,2.0263
18904,19.198,5.1818,0,0.00010507,1050,3.6895e-05,26.69,3.3342e-05,-0.0030043,-0.00010459,-1036.4,2.0259
18905,19.29,5.0909,0,0.00010298,1029.1,3.6299e-05,27.823,3.2596e-05,-0.00080096,-0.00010248,-1014.9,2.0411
18906,19.198,5.0909,0.05,7.398e-07,7.3929,5.6807e-07,4.2682,3.0749e-12,8.7791e-06,-5.6808e-07,-4.2683,2.0261
18907,19.198,5.3636,0,0.00010511,1050.4,3.6814e-05,25.553,3.3412e-05,-0.0064503,-0.00010465,-1037.4,2.0256
18908,19.29,5.2727,0,0.000103,1029.3,3.6204e-05,26.582,3.2665e-05,-0.0052957,-0.00010253,-1015.8,2.0408
18909,19.198,5.2727,0.05,7.3926e-07,7.3875,5.6766e-07,4.2651,2.9883e-12,9.9867e-06,-5.6766e-07,-4.2652,2.0258
18910,19.198,5.5455,0,0.00010518,1051.1,3.6754e-05,24.542,3.3485e-05,-0.01569,-0.00010474,-1038.6,2.0253
18911,19.29,5.4545,0,0.00010305,1029.8,3.612e-05,25.394,3.2739e-05,-0.0078912,-0.00010259,-1016.8,2.0405
18912,19.198,5.4545,0.05,7.3608e-07,7.3557,5.6521e-07,4.2468,3.3483e-12,9.7004e-06,-5.6522e-07,-4.2468,2.0255
18913,19.198,5.7273,0,0.00010546,1053.9,3.6872e-05,24.841,3.3564e-05,-0.013316,-0.00010502,-1041.3,2.025
18914,19.29,5.6364,0,0.00010314,1030.7,3.6069e-05,24.412,3.2817e-05,-0.024121,-0.0001027,-1018.2,2.0401
18915,19.198,5.6364,0.05,6.9284e-07,6.9236,5.3201e-07,3.9973,3.7745e-12,1.0337e-05,-5.3202e-07,-3.9974,2.0251
18916,19.29,5.8182,0,0.00010363,1035.6,3.636e-05,25.983,3.2902e-05,0.00052683,-0.00010316,-1022.3,2.0398
18917,19.198,5.8182,0.05,6.3433e-08,0.63389,4.871e-08,0.36596,-5.8452e-12,-6.0358e-05,-4.8707e-08,-0.36599,2.0248
18918,19.198,5.9091,0,0.00010452,1044.4,3.5916e-05,17.099,3.364e-05,-0.0067055,-0.00010422,-1035.8,2.0246
18919,19.382,0.27273,0,0.00010127,1012,3.5534e-05,25.377,3.2154e-05,-0.014099,-0.00010082,-999.12,2.055
18920,19.475,0.18182,0,9.9445e-05,993.77,3.502e-05,26.469,3.1497e-05,0.00039418,-9.8968e-05,-980.27,2.0698
18921,19.382,0.18182,0.05,6.939e-08,0.69342,5.3283e-08,0.40037,4.7309e-12,6.3956e-05,-5.3283e-08,-0.40033,2.0548
18922,19.382,0.090909,0,0.00010031,1002.4,3.4553e-05,17.42,3.2234e-05,-0.0069052,-9.9998e-05,-993.54,2.0546
18923,19.382,0.45455,0,0.000101,1009.3,3.5429e-05,25.212,3.2071e-05,-0.016439,-0.00010054,-996.43,2.0553
18924,19.475,0.36364,0,9.8958e-05,988.89,3.474e-05,25.019,3.1407e-05,-0.025404,-9.8509e-05,-976.16,2.0702
18925,19.382,0.36364,0.05,6.9085e-07,6.9038,5.3049e-07,3.9859,-1.9762e-12,4.5473e-06,-5.3049e-07,-3.9858,2.0551
18926,19.382,0.63636,0,0.00010094,1008.7,3.5504e-05,26.377,3.1993e-05,-0.0066303,-0.00010046,-995.21,2.0556
18927,19.475,0.54545,0,9.8878e-05,988.1,3.4807e-05,26.158,3.1325e-05,-0.0081784,-9.8408e-05,-974.77,2.0705
18928,19.382,0.54545,0.05,7.3355e-07,7.3304,5.6328e-07,4.2323,-2.0851e-12,4.932e-06,-5.6327e-07,-4.2322,2.0555
18929,19.382,0.81818,0,0.00010091,1008.4,3.5602e-05,27.671,3.1919e-05,-0.0029753,-0.00010041,-994.26,2.0559
18930,19.475,0.72727,0,9.8846e-05,987.77,3.4908e-05,27.509,3.1246e-05,-0.0053982,-9.8349e-05,-973.73,2.0708
18931,19.382,0.72727,0.05,7.3672e-07,7.3622,5.6571e-07,4.2506,-2.1116e-12,5.3188e-06,-5.6571e-07,-4.2505,2.0558
18932,19.382,1,0,0.0001009,1008.3,3.5709e-05,28.997,3.185e-05,0.0010555,-0.00010037,-993.47,2.0562
18933,19.475,0.90909,0,9.8835e-05,987.66,3.5021e-05,28.915,3.1173e-05,-0.00065066,-9.8311e-05,-972.89,2.0711
18934,19.382,0.90909,0.05,7.3729e-07,7.3678,5.6615e-07,4.2538,-1.6719e-12,2.3613e-06,-5.6614e-07,-4.2538,2.056
18935,19.382,1.1818,0,0.0001009,1008.3,3.582e-05,30.322,3.1785e-05,0.0043262,-0.00010035,-992.83,2.0564
18936,19.475,1.0909,0,9.884e-05,987.72,3.514e-05,30.332,3.1104e-05,0.0028876,-9.8289e-05,-972.2,2.0713
18937,19.382,1.0909,0.05,7.3765e-07,7.3714,5.6643e-07,4.2559,-2.1858e-12,-1.6664e-07,-5.6642e-07,-4.2559,2.0563
18938,19.382,1.3636,0,0.00010092,1008.5,3.5933e-05,31.614,3.1726e-05,0.0071781,-0.00010034,-992.32,2.0567
18939,19.475,1.2727,0,9.8859e-05,987.91,3.5262e-05,31.729,3.104e-05,0.0060559,-9.8281e-05,-971.66,2.0716
18940,19.382,1.2727,0.05,7.3797e-07,7.3746,5.6667e-07,4.2578,-2.2134e-12,-3.0567e-07,-5.6667e-07,-4.2577,2.0565
18941,19.382,1.5455,0,0.00010094,1008.7,3.6043e-05,32.848,3.1672e-05,0.0095833,-0.00010034,-991.91,2.0569
18942,19.475,1.4545,0,9.8886e-05,988.18,3.5382e-05,33.076,3.0981e-05,0.0087179,-9.8282e-05,-971.22,2.0718
18943,19.382,1.4545,0.05,7.3826e-07,7.3775,5.6689e-07,4.2594,-1.7681e-12,5.0713e-07,-5.6689e-07,-4.2594,2.0568
18944,19.382,1.7273,0,0.00010097,1009,3.6147e-05,33.999,3.1624e-05,0.011604,-0.00010035,-991.6,2.057
18945,19.475,1.6364,0,9.892e-05,988.52,3.5498e-05,34.347,3.0928e-05,0.010963,-9.8291e-05,-970.89,2.072
18946,19.382,1.6364,0.05,7.3851e-07,7.38,5.6708e-07,4.2609,-1.2971e-12,4.9965e-07,-5.6708e-07,-4.2608,2.0569
18947,19.382,1.9091,0,0.000101,1009.3,3.6244e-05,35.043,3.1581e-05,0.013276,-0.00010036,-991.36,2.0572
18948,19.475,1.8182,0,9.8956e-05,988.88,3.5607e-05,35.515,3.0882e-05,0.012832,-9.8304e-05,-970.64,2.0721
18949,19.382,1.8182,0.05,7.3873e-07,7.3822,5.6725e-07,4.2621,-1.7368e-12,-1.2066e-07,-5.6725e-07,-4.2621,2.0571
18950,19.382,2.0909,0,0.00010103,1009.6,3.6329e-05,35.961,3.1545e-05,0.014634,-0.00010037,-991.17,2.0573
18951,19.475,2,0,9.8992e-05,989.24,3.5705e-05,36.559,3.0841e-05,0.014363,-9.8319e-05,-970.45,2.0723
18952,19.382,2,0.05,7.3892e-07,7.3841,5.674e-07,4.2632,-7.8657e-13,8.6002e-07,-5.6739e-07,-4.2632,2.0573
18953,19.382,2.2727,0,0.00010106,1009.9,3.6403e-05,36.735,3.1515e-05,0.015707,-0.00010039,-991.04,2.0574
18954,19.475,2.1818,0,9.9026e-05,989.58,3.579e-05,37.458,3.0807e-05,0.015588,-9.8335e-05,-970.31,2.0724
18955,19.382,2.1818,0.05,7.3907e-07,7.3856,5.6752e-07,4.2641,-7.4785e-13,1.6091e-06,-5.6752e-07,-4.2641,2.0574
18956,19.382,2.4545,0,0.00010108,1010.2,3.6461e-05,37.353,3.1492e-05,0.016518,-0.0001004,-990.95,2.0575
18957,19.475,2.3636,0,9.9056e-05,989.87,3.5861e-05,38.198,3.0779e-05,0.016537,-9.835e-05,-970.21,2.0725
18958,19.382,2.3636,0.05,7.392e-07,7.3869,5.6761e-07,4.2648,-6.9053e-13,2.043e-06,-5.6761e-07,-4.2648,2.0575
18959,19.382,2.6364,0,0.0001011,1010.3,3.6504e-05,37.801,3.1475e-05,0.017085,-0.00010041,-990.89,2.0576
18960,19.475,2.5455,0,9.9079e-05,990.11,3.5916e-05,38.764,3.0759e-05,0.017231,-9.8363e-05,-970.15,2.0725
18961,19.382,2.5455,0.05,7.3929e-07,7.3878,5.6769e-07,4.2654,-1.7312e-13,2.4981e-06,-5.6769e-07,-4.2654,2.0575
18962,19.382,2.8182,0,0.00010111,1010.4,3.653e-05,38.074,3.1465e-05,0.017419,-0.00010041,-990.85,2.0576
18963,19.475,2.7273,0,9.9096e-05,990.27,3.5953e-05,39.147,3.0745e-05,0.017685,-9.8371e-05,-970.11,2.0726
18964,19.382,2.7273,0.05,7.3936e-07,7.3885,5.6773e-07,4.2657,-5.6219e-13,2.0578e-06,-5.6773e-07,-4.2657,2.0576
18965,19.382,3,0,0.00010112,1010.5,3.6539e-05,38.165,3.1462e-05,0.01753,-0.00010041,-990.84,2.0576
18966,19.475,2.9091,0,9.9104e-05,990.36,3.5971e-05,39.34,3.0738e-05,0.017909,-9.8376e-05,-970.09,2.0726
18967,19.382,2.9091,0.05,7.3939e-07,7.3888,5.6776e-07,4.2659,4.1851e-13,3.5421e-06,-5.6776e-07,-4.2659,2.0576
18968,19.382,3.1818,0,0.00010111,1010.4,3.653e-05,38.074,3.1465e-05,0.017419,-0.00010041,-990.85,2.0576
18969,19.475,3.0909,0,9.9104e-05,990.36,3.5971e-05,39.34,3.0738e-05,0.017908,-9.8376e-05,-970.09,2.0726
18970,19.382,3.0909,0.05,7.3939e-07,7.3888,5.6776e-07,4.2659,9.4604e-13,3.6115e-06,-5.6776e-07,-4.2659,2.0576
18971,19.382,3.3636,0,0.0001011,1010.3,3.6504e-05,37.801,3.1475e-05,0.017084,-0.00010041,-990.89,2.0576
18972,19.475,3.2727,0,9.9096e-05,990.27,3.5953e-05,39.147,3.0745e-05,0.017684,-9.8371e-05,-970.11,2.0726
18973,19.382,3.2727,0.05,7.3936e-07,7.3885,5.6773e-07,4.2657,1.4731e-12,4.6296e-06,-5.6773e-07,-4.2657,2.0576
18974,19.382,3.5455,0,0.00010108,1010.2,3.6461e-05,37.353,3.1492e-05,0.016516,-0.0001004,-990.95,2.0575
18975,19.475,3.4545,0,9.9079e-05,990.11,3.5916e-05,38.764,3.0759e-05,0.017231,-9.8363e-05,-970.15,2.0725
18976,19.382,3.4545,0.05,7.3929e-07,7.3878,5.6768e-07,4.2654,1.7898e-13,5.1604e-06,-5.6769e-07,-4.2654,2.0575
18977,19.382,3.7273,0,0.00010106,1009.9,3.6403e-05,36.735,3.1515e-05,0.015705,-0.00010039,-991.04,2.0574
18978,19.475,3.6364,0,9.9056e-05,989.87,3.5861e-05,38.198,3.0779e-05,0.016537,-9.835e-05,-970.21,2.0725
18979,19.382,3.6364,0.05,7.392e-07,7.3869,5.6761e-07,4.2648,7.0061e-13,6.5903e-06,-5.6761e-07,-4.2648,2.0575
18980,19.382,3.9091,0,0.00010103,1009.6,3.6329e-05,35.961,3.1545e-05,0.014633,-0.00010037,-991.17,2.0573
18981,19.475,3.8182,0,9.9026e-05,989.58,3.579e-05,37.458,3.0807e-05,0.015587,-9.8335e-05,-970.31,2.0724
18982,19.382,3.8182,0.05,7.3907e-07,7.3856,5.6752e-07,4.2641,1.6598e-12,7.5015e-06,-5.6752e-07,-4.2641,2.0574
18983,19.382,4.0909,0,0.000101,1009.3,3.6244e-05,35.043,3.1581e-05,0.013276,-0.00010036,-991.36,2.0572
18984,19.475,4,0,9.8992e-05,989.24,3.5705e-05,36.559,3.0841e-05,0.014363,-9.8319e-05,-970.45,2.0723
18985,19.382,4,0.05,7.3892e-07,7.3841,5.674e-07,4.2632,8.0623e-13,7.4651e-06,-5.674e-07,-4.2632,2.0573
18986,19.382,4.2727,0,0.00010097,1009,3.6147e-05,33.999,3.1624e-05,0.011603,-0.00010035,-991.6,2.057
18987,19.475,4.1818,0,9.8956e-05,988.88,3.5607e-05,35.515,3.0882e-05,0.01283,-9.8304e-05,-970.64,2.0721
18988,19.382,4.1818,0.05,7.3873e-07,7.3822,5.6725e-07,4.2621,1.3002e-12,6.5302e-06,-5.6725e-07,-4.2621,2.0571
18989,19.382,4.4545,0,0.00010094,1008.7,3.6043e-05,32.848,3.1672e-05,0.009584,-0.00010034,-991.91,2.0569
18990,19.475,4.3636,0,9.892e-05,988.52,3.5498e-05,34.347,3.0928e-05,0.010964,-9.8291e-05,-970.89,2.072
18991,19.382,4.3636,0.05,7.3851e-07,7.38,5.6708e-07,4.2608,2.7003e-12,8.5721e-06,-5.6708e-07,-4.2609,2.0569
18992,19.382,4.6364,0,0.00010092,1008.5,3.5933e-05,31.614,3.1726e-05,0.0071788,-0.00010034,-992.32,2.0567
18993,19.475,4.5455,0,9.8886e-05,988.18,3.5382e-05,33.077,3.0981e-05,0.008719,-9.8282e-05,-971.22,2.0718
18994,19.382,4.5455,0.05,7.3826e-07,7.3775,5.6689e-07,4.2594,2.2283e-12,7.7479e-06,-5.6689e-07,-4.2594,2.0568
18995,19.382,4.8182,0,0.0001009,1008.3,3.582e-05,30.322,3.1785e-05,0.0043269,-0.00010035,-992.83,2.0564
18996,19.475,4.7273,0,9.8859e-05,987.91,3.5262e-05,31.729,3.104e-05,0.006057,-9.8281e-05,-971.66,2.0716
18997,19.382,4.7273,0.05,7.3797e-07,7.3746,5.6667e-07,4.2577,2.2256e-12,8.3557e-06,-5.6667e-07,-4.2578,2.0565
18998,19.382,5,0,0.0001009,1008.3,3.5709e-05,28.997,3.185e-05,0.0010545,-0.00010037,-993.47,2.0562
18999,19.475,4.9091,0,9.884e-05,987.72,3.514e-05,30.332,3.1104e-05,0.0028871,-9.8289e-05,-972.21,2.0713
19000,19.382,4.9091,0.05,7.3765e-07,7.3714,5.6642e-07,4.2559,2.1889e-12,8.0487e-06,-5.6643e-07,-4.2559,2.0563
19001,19.382,5.1818,0,0.00010091,1008.4,3.5602e-05,27.671,3.1919e-05,-0.0029775,-0.00010041,-994.26,2.0559
19002,19.475,5.0909,0,9.8835e-05,987.66,3.5021e-05,28.915,3.1173e-05,-0.00065188,-9.8311e-05,-972.89,2.0711
19003,19.382,5.0909,0.05,7.3729e-07,7.3678,5.6614e-07,4.2538,3.0735e-12,6.188e-06,-5.6615e-07,-4.2538,2.056
19004,19.382,5.3636,0,0.00010094,1008.7,3.5504e-05,26.377,3.1993e-05,-0.0066314,-0.00010046,-995.21,2.0556
19005,19.475,5.2727,0,9.8846e-05,987.77,3.4908e-05,27.509,3.1246e-05,-0.0053999,-9.8349e-05,-973.73,2.0708
19006,19.382,5.2727,0.05,7.3672e-07,7.3622,5.6571e-07,4.2505,3.9416e-12,6.7017e-06,-5.6571e-07,-4.2506,2.0558
19007,19.382,5.5455,0,0.000101,1009.3,3.5429e-05,25.212,3.2071e-05,-0.016438,-0.00010054,-996.43,2.0553
19008,19.475,5.4545,0,9.8878e-05,988.1,3.4807e-05,26.158,3.1325e-05,-0.0081798,-9.8408e-05,-974.77,2.0705
19009,19.382,5.4545,0.05,7.3355e-07,7.3304,5.6327e-07,4.2322,2.935e-12,6.6403e-06,-5.6328e-07,-4.2322,2.0555
19010,19.382,5.7273,0,0.00010127,1012,3.5534e-05,25.377,3.2154e-05,-0.014097,-0.00010082,-999.12,2.055
19011,19.475,5.6364,0,9.8958e-05,988.89,3.474e-05,25.019,3.1407e-05,-0.025401,-9.8509e-05,-976.16,2.0702
19012,19.382,5.6364,0.05,6.9085e-07,6.9038,5.3048e-07,3.9858,2.8634e-12,7.1353e-06,-5.3049e-07,-3.9859,2.0551
19013,19.475,5.8182,0,9.9445e-05,993.77,3.502e-05,26.469,3.1497e-05,0.00039488,-9.8968e-05,-980.27,2.0698
19014,19.382,5.8182,0.05,6.939e-08,0.69342,5.3284e-08,0.40034,-5.3553e-12,-4.8452e-05,-5.3282e-08,-0.40036,2.0548
19015,19.382,5.9091,0,0.00010031,1002.4,3.4553e-05,17.42,3.2234e-05,-0.0069049,-9.9998e-05,-993.54,2.0546
19016,19.567,0.27273,0,9.7101e-05,970.34,3.4202e-05,25.929,3.0749e-05,-0.014971,-9.6634e-05,-957.12,2.085
19017,19.659,0.18182,0,9.5279e-05,952.13,3.3686e-05,26.963,3.0097e-05,0.00020656,-9.4792e-05,-938.36,2.0999
19018,19.567,0.18182,0.05,7.6057e-08,0.76005,5.8402e-08,0.43883,4.1756e-12,5.5706e-05,-5.8404e-08,-0.4388,2.0848
19019,19.567,0.090909,0,9.6112e-05,960.45,3.3196e-05,17.746,3.0833e-05,-0.0071206,-9.5797e-05,-951.46,2.0847
19020,19.567,0.45455,0,9.6831e-05,967.65,3.4112e-05,25.911,3.0661e-05,-0.017251,-9.6365e-05,-954.44,2.0854
19021,19.659,0.36364,0,9.4796e-05,947.31,3.3419e-05,25.647,3.0001e-05,-0.026794,-9.4334e-05,-934.24,2.1003
19022,19.567,0.36364,0.05,6.8898e-07,6.885,5.2905e-07,3.9751,-2.4651e-12,4.5577e-06,-5.2905e-07,-3.975,2.0852
19023,19.567,0.63636,0,9.6782e-05,967.15,3.4205e-05,27.243,3.0578e-05,-0.0068238,-9.629e-05,-953.24,2.0857
19024,19.659,0.54545,0,9.4729e-05,946.63,3.3504e-05,26.958,2.9915e-05,-0.0084888,-9.4241e-05,-932.87,2.1006
19025,19.567,0.54545,0.05,7.311e-07,7.306,5.614e-07,4.2181,-2.0692e-12,6.8592e-06,-5.6139e-07,-4.2181,2.0855
19026,19.567,0.81818,0,9.6766e-05,967,3.4321e-05,28.708,3.05e-05,-0.0029438,-9.6246e-05,-952.32,2.086
19027,19.659,0.72727,0,9.4709e-05,946.43,3.3624e-05,28.488,2.9832e-05,-0.0055047,-9.4192e-05,-931.87,2.1009
19028,19.567,0.72727,0.05,7.3427e-07,7.3377,5.6383e-07,4.2364,-2.1389e-12,3.9949e-06,-5.6383e-07,-4.2364,2.0858
19029,19.567,1,0,9.677e-05,967.04,3.4446e-05,30.205,3.0426e-05,0.0013043,-9.6221e-05,-951.58,2.0862
19030,19.659,0.90909,0,9.4711e-05,946.46,3.3756e-05,30.073,2.9753e-05,-0.00048425,-9.4164e-05,-931.07,2.1011
19031,19.567,0.90909,0.05,7.3487e-07,7.3436,5.6429e-07,4.2399,-2.1915e-12,2.7662e-06,-5.6429e-07,-4.2398,2.0861
19032,19.567,1.1818,0,9.6789e-05,967.23,3.4576e-05,31.697,3.0358e-05,0.0047312,-9.6211e-05,-950.99,2.0865
19033,19.659,1.0909,0,9.4731e-05,946.66,3.3894e-05,31.668,2.968e-05,0.0032367,-9.4153e-05,-930.43,2.1014
19034,19.567,1.0909,0.05,7.3527e-07,7.3476,5.646e-07,4.2422,-2.1969e-12,2.7375e-06,-5.6459e-07,-4.2421,2.0863
19035,19.567,1.3636,0,9.6819e-05,967.52,3.4706e-05,33.15,3.0295e-05,0.0077005,-9.6213e-05,-950.52,2.0867
19036,19.659,1.2727,0,9.4764e-05,946.99,3.4035e-05,33.237,2.9612e-05,0.0065488,-9.4155e-05,-929.93,2.1016
19037,19.567,1.2727,0.05,7.3561e-07,7.3511,5.6486e-07,4.2442,-1.7916e-12,1.5673e-06,-5.6486e-07,-4.2441,2.0866
19038,19.567,1.5455,0,9.6856e-05,967.89,3.4832e-05,34.535,3.0238e-05,0.010194,-9.6222e-05,-950.16,2.0869
19039,19.659,1.4545,0,9.4806e-05,947.4,3.4173e-05,34.747,2.955e-05,0.0093134,-9.4166e-05,-929.55,2.1018
19040,19.567,1.4545,0.05,7.3593e-07,7.3542,5.651e-07,4.246,-8.7213e-13,1.3041e-06,-5.651e-07,-4.2459,2.0868
19041,19.567,1.7273,0,9.6897e-05,968.3,3.4952e-05,35.824,3.0186e-05,0.012281,-9.6238e-05,-949.89,2.087
19042,19.659,1.6364,0,9.4852e-05,947.87,3.4306e-05,36.17,2.9493e-05,0.01164,-9.4185e-05,-929.26,2.102
19043,19.567,1.6364,0.05,7.362e-07,7.357,5.6532e-07,4.2476,-1.7719e-12,2.3831e-06,-5.6531e-07,-4.2475,2.0869
19044,19.567,1.9091,0,9.6939e-05,968.72,3.5063e-05,36.992,3.0141e-05,0.014001,-9.6256e-05,-949.69,2.0872
19045,19.659,1.8182,0,9.49e-05,948.35,3.443e-05,37.476,2.9444e-05,0.013566,-9.4207e-05,-929.05,2.1021
19046,19.567,1.8182,0.05,7.3645e-07,7.3594,5.655e-07,4.249,-1.7519e-12,1.3253e-06,-5.655e-07,-4.2489,2.0871
19047,19.567,2.0909,0,9.6979e-05,969.12,3.5161e-05,38.019,3.0103e-05,0.015395,-9.6276e-05,-949.54,2.0873
19048,19.659,2,0,9.4948e-05,948.82,3.4541e-05,38.641,2.94e-05,0.01514,-9.4231e-05,-928.9,2.1023
19049,19.567,2,0.05,7.3666e-07,7.3615,5.6566e-07,4.2502,-8.1652e-13,2.0575e-06,-5.6566e-07,-4.2501,2.0872
19050,19.567,2.2727,0,9.7015e-05,969.48,3.5244e-05,38.884,3.0071e-05,0.016492,-9.6295e-05,-949.44,2.0874
19051,19.659,2.1818,0,9.4991e-05,949.25,3.4638e-05,39.645,2.9364e-05,0.016395,-9.4254e-05,-928.8,2.1024
19052,19.567,2.1818,0.05,7.3683e-07,7.3632,5.658e-07,4.2512,-1.6769e-12,2.9188e-06,-5.6579e-07,-4.2511,2.0874
19053,19.567,2.4545,0,9.7045e-05,969.78,3.5311e-05,39.573,3.0046e-05,0.017321,-9.6311e-05,-949.38,2.0875
19054,19.659,2.3636,0,9.5028e-05,949.62,3.4719e-05,40.47,2.9335e-05,0.017366,-9.4275e-05,-928.73,2.1025
19055,19.567,2.3636,0.05,7.3697e-07,7.3646,5.659e-07,4.252,-7.0944e-13,3.3391e-06,-5.659e-07,-4.252,2.0875
19056,19.567,2.6364,0,9.7067e-05,970,3.5359e-05,40.074,3.0028e-05,0.0179,-9.6323e-05,-949.33,2.0876
19057,19.659,2.5455,0,9.5058e-05,949.92,3.478e-05,41.101,2.9313e-05,0.018076,-9.4291e-05,-928.69,2.1026
19058,19.567,2.5455,0.05,7.3708e-07,7.3657,5.6598e-07,4.2526,-1.8666e-13,3.8453e-06,-5.6598e-07,-4.2526,2.0875
19059,19.567,2.8182,0,9.7081e-05,970.14,3.5389e-05,40.378,3.0017e-05,0.018242,-9.6331e-05,-949.31,2.0876
19060,19.659,2.7273,0,9.5078e-05,950.12,3.4822e-05,41.528,2.9298e-05,0.018538,-9.4303e-05,-928.67,2.1026
19061,19.567,2.7273,0.05,7.3715e-07,7.3664,5.6604e-07,4.253,-1.1484e-13,2.9516e-06,-5.6604e-07,-4.253,2.0876
19062,19.567,3,0,9.7086e-05,970.19,3.5399e-05,40.48,3.0014e-05,0.018355,-9.6333e-05,-949.3,2.0876
19063,19.659,2.9091,0,9.5088e-05,950.23,3.4843e-05,41.743,2.929e-05,0.018768,-9.4309e-05,-928.66,2.1026
19064,19.567,2.9091,0.05,7.3718e-07,7.3667,5.6606e-07,4.2532,4.1572e-13,4.4755e-06,-5.6606e-07,-4.2532,2.0876
19065,19.567,3.1818,0,9.7081e-05,970.14,3.5389e-05,40.378,3.0017e-05,0.01824,-9.6331e-05,-949.31,2.0876
19066,19.659,3.0909,0,9.5088e-05,950.23,3.4843e-05,41.743,2.929e-05,0.018766,-9.4309e-05,-928.66,2.1026
19067,19.567,3.0909,0.05,7.3718e-07,7.3667,5.6606e-07,4.2532,4.9406e-13,4.11e-06,-5.6606e-07,-4.2532,2.0876
19068,19.567,3.3636,0,9.7067e-05,970,3.5359e-05,40.074,3.0028e-05,0.0179,-9.6323e-05,-949.33,2.0876
19069,19.659,3.2727,0,9.5078e-05,950.12,3.4822e-05,41.528,2.9298e-05,0.018538,-9.4303e-05,-928.67,2.1026
19070,19.567,3.2727,0.05,7.3715e-07,7.3664,5.6604e-07,4.253,5.715e-13,6.1246e-06,-5.6604e-07,-4.253,2.0876
19071,19.567,3.5455,0,9.7045e-05,969.78,3.5311e-05,39.573,3.0046e-05,0.017323,-9.6311e-05,-949.38,2.0875
19072,19.659,3.4545,0,9.5058e-05,949.92,3.478e-05,41.101,2.9313e-05,0.018075,-9.4291e-05,-928.69,2.1026
19073,19.567,3.4545,0.05,7.3708e-07,7.3657,5.6598e-07,4.2526,1.5563e-12,6.6951e-06,-5.6598e-07,-4.2526,2.0875
19074,19.567,3.7273,0,9.7015e-05,969.48,3.5244e-05,38.884,3.0071e-05,0.016493,-9.6295e-05,-949.44,2.0874
19075,19.659,3.6364,0,9.5028e-05,949.62,3.4719e-05,40.47,2.9335e-05,0.017367,-9.4275e-05,-928.73,2.1025
19076,19.567,3.6364,0.05,7.3697e-07,7.3646,5.659e-07,4.252,7.2281e-13,8.6524e-06,-5.659e-07,-4.252,2.0875
19077,19.567,3.9091,0,9.6979e-05,969.12,3.5161e-05,38.019,3.0103e-05,0.015395,-9.6276e-05,-949.54,2.0873
19078,19.659,3.8182,0,9.4991e-05,949.25,3.4638e-05,39.645,2.9364e-05,0.016396,-9.4254e-05,-928.8,2.1024
19079,19.567,3.8182,0.05,7.3683e-07,7.3632,5.6579e-07,4.2511,1.6908e-12,9.6195e-06,-5.6579e-07,-4.2512,2.0874
19080,19.567,4.0909,0,9.6939e-05,968.72,3.5063e-05,36.992,3.0141e-05,0.014001,-9.6256e-05,-949.69,2.0872
19081,19.659,4,0,9.4948e-05,948.82,3.4541e-05,38.641,2.94e-05,0.015139,-9.4231e-05,-928.9,2.1023
19082,19.567,4,0.05,7.3666e-07,7.3615,5.6566e-07,4.2501,2.195e-12,9.525e-06,-5.6566e-07,-4.2502,2.0872
19083,19.567,4.2727,0,9.6897e-05,968.3,3.4952e-05,35.824,3.0186e-05,0.01228,-9.6238e-05,-949.89,2.087
19084,19.659,4.1818,0,9.49e-05,948.35,3.443e-05,37.476,2.9444e-05,0.013565,-9.4207e-05,-929.05,2.1021
19085,19.567,4.1818,0.05,7.3645e-07,7.3594,5.655e-07,4.2489,1.7844e-12,8.1522e-06,-5.655e-07,-4.249,2.0871
19086,19.567,4.4545,0,9.6856e-05,967.89,3.4832e-05,34.535,3.0238e-05,0.010195,-9.6222e-05,-950.16,2.0869
19087,19.659,4.3636,0,9.4852e-05,947.87,3.4306e-05,36.17,2.9493e-05,0.01164,-9.4185e-05,-929.26,2.102
19088,19.567,4.3636,0.05,7.362e-07,7.357,5.6531e-07,4.2475,2.2741e-12,1.0764e-05,-5.6531e-07,-4.2476,2.0869
19089,19.567,4.6364,0,9.6819e-05,967.52,3.4706e-05,33.15,3.0295e-05,0.0077021,-9.6213e-05,-950.52,2.0867
19090,19.659,4.5455,0,9.4806e-05,947.4,3.4173e-05,34.747,2.955e-05,0.0093161,-9.4166e-05,-929.55,2.1018
19091,19.567,4.5455,0.05,7.3593e-07,7.3542,5.651e-07,4.2459,2.29e-12,8.6269e-06,-5.651e-07,-4.246,2.0868
19092,19.567,4.8182,0,9.6789e-05,967.23,3.4576e-05,31.697,3.0358e-05,0.0047312,-9.6211e-05,-950.99,2.0865
19093,19.659,4.7273,0,9.4764e-05,946.99,3.4035e-05,33.237,2.9612e-05,0.0065491,-9.4155e-05,-929.93,2.1016
19094,19.567,4.7273,0.05,7.3561e-07,7.3511,5.6486e-07,4.2441,2.7331e-12,9.786e-06,-5.6486e-07,-4.2442,2.0866
19095,19.567,5,0,9.677e-05,967.04,3.4446e-05,30.205,3.0426e-05,0.0013036,-9.6221e-05,-951.58,2.0862
19096,19.659,4.9091,0,9.4731e-05,946.66,3.3894e-05,31.668,2.968e-05,0.0032354,-9.4153e-05,-930.43,2.1014
19097,19.567,4.9091,0.05,7.3527e-07,7.3476,5.6459e-07,4.2421,2.2463e-12,9.8787e-06,-5.646e-07,-4.2422,2.0863
19098,19.567,5.1818,0,9.6766e-05,967,3.4321e-05,28.708,3.05e-05,-0.0029445,-9.6246e-05,-952.32,2.086
19099,19.659,5.0909,0,9.4711e-05,946.46,3.3756e-05,30.073,2.9753e-05,-0.00048385,-9.4164e-05,-931.07,2.1011
19100,19.567,5.0909,0.05,7.3487e-07,7.3436,5.6429e-07,4.2398,3.1162e-12,8.1608e-06,-5.6429e-07,-4.2399,2.0861
19101,19.567,5.3636,0,9.6782e-05,967.15,3.4205e-05,27.243,3.0578e-05,-0.0068257,-9.629e-05,-953.24,2.0857
19102,19.659,5.2727,0,9.4709e-05,946.43,3.3624e-05,28.488,2.9832e-05,-0.0055071,-9.4192e-05,-931.87,2.1009
19103,19.567,5.2727,0.05,7.3427e-07,7.3377,5.6383e-07,4.2364,3.0414e-12,8.4425e-06,-5.6383e-07,-4.2364,2.0858
19104,19.567,5.5455,0,9.6831e-05,967.65,3.4112e-05,25.911,3.0661e-05,-0.017251,-9.6365e-05,-954.44,2.0854
19105,19.659,5.4545,0,9.4729e-05,946.63,3.3504e-05,26.959,2.9915e-05,-0.0084906,-9.4241e-05,-932.87,2.1006
19106,19.567,5.4545,0.05,7.311e-07,7.306,5.6139e-07,4.2181,2.9446e-12,8.394e-06,-5.614e-07,-4.2181,2.0855
19107,19.567,5.7273,0,9.7101e-05,970.34,3.4202e-05,25.929,3.0749e-05,-0.01497,-9.6634e-05,-957.12,2.085
19108,19.659,5.6364,0,9.4796e-05,947.31,3.3419e-05,25.647,3.0001e-05,-0.026793,-9.4334e-05,-934.24,2.1003
19109,19.567,5.6364,0.05,6.8898e-07,6.885,5.2904e-07,3.975,2.8791e-12,8.774e-06,-5.2905e-07,-3.9751,2.0852
19110,19.659,5.8182,0,9.5279e-05,952.13,3.3686e-05,26.963,3.0097e-05,0.00020739,-9.4792e-05,-938.37,2.0999
19111,19.567,5.8182,0.05,7.6057e-08,0.76005,5.8403e-08,0.4388,-3.5824e-12,-4.0219e-05,-5.8403e-08,-0.43883,2.0848
19112,19.567,5.9091,0,9.6112e-05,960.45,3.3196e-05,17.746,3.0833e-05,-0.007119,-9.5798e-05,-951.46,2.0847
19113,19.752,0.27273,0,9.2946e-05,928.81,3.2877e-05,26.495,2.9349e-05,-0.015941,-9.2467e-05,-915.29,2.1152
19114,19.844,0.18182,0,9.113e-05,910.67,3.2357e-05,27.463,2.8702e-05,-4.6389e-05,-9.0631e-05,-896.62,2.1301
19115,19.752,0.18182,0.05,8.3471e-08,0.83413,6.4095e-08,0.48161,4.8603e-12,5.584e-05,-6.4096e-08,-0.48157,2.115
19116,19.752,0.090909,0,9.1934e-05,918.71,3.1845e-05,18.078,2.9438e-05,-0.0073394,-9.1614e-05,-909.54,2.1148
19117,19.752,0.45455,0,9.2685e-05,926.21,3.2803e-05,26.64,2.9255e-05,-0.018131,-9.2203e-05,-912.61,2.1155
19118,19.844,0.36364,0,9.0653e-05,905.9,3.2105e-05,26.299,2.8601e-05,-0.028307,-9.0177e-05,-892.48,2.1304
19119,19.752,0.36364,0.05,6.8722e-07,6.8674,5.277e-07,3.965,-2.6248e-12,4.5364e-06,-5.2769e-07,-3.9649,2.1153
19120,19.752,0.63636,0,9.2648e-05,925.84,3.2916e-05,28.155,2.9168e-05,-0.0070274,-9.2137e-05,-911.45,2.1158
19121,19.844,0.54545,0,9.0598e-05,905.35,3.221e-05,27.798,2.8509e-05,-0.0088199,-9.0093e-05,-891.14,2.1307
19122,19.752,0.54545,0.05,7.2874e-07,7.2824,5.5959e-07,4.2045,-1.6351e-12,8.1061e-06,-5.5958e-07,-4.2044,2.1156
19123,19.752,0.81818,0,9.2647e-05,925.83,3.3052e-05,29.807,2.9085e-05,-0.0028985,-9.2104e-05,-910.57,2.1161
19124,19.844,0.72727,0,9.0592e-05,905.3,3.2351e-05,29.522,2.8421e-05,-0.0056108,-9.0054e-05,-890.18,2.131
19125,19.752,0.72727,0.05,7.3191e-07,7.3141,5.6202e-07,4.2228,-1.6628e-12,5.6461e-06,-5.6202e-07,-4.2227,2.1159
19126,19.752,1,0,9.2666e-05,926.02,3.3198e-05,31.49,2.9007e-05,0.0015848,-9.209e-05,-909.87,2.1163
19127,19.844,0.90909,0,9.061e-05,905.48,3.2504e-05,31.304,2.8337e-05,-0.00028884,-9.0037e-05,-889.42,2.1313
19128,19.752,0.90909,0.05,7.3255e-07,7.3204,5.6251e-07,4.2265,-2.2086e-12,2.7533e-06,-5.625e-07,-4.2264,2.1162
19129,19.752,1.1818,0,9.2699e-05,926.36,3.3347e-05,33.164,2.8934e-05,0.0051791,-9.2091e-05,-909.33,2.1165
19130,19.844,1.0909,0,9.0646e-05,905.83,3.2663e-05,33.092,2.8259e-05,0.0036264,-9.0038e-05,-888.83,2.1315
19131,19.752,1.0909,0.05,7.3298e-07,7.3247,5.6284e-07,4.229,-2.2687e-12,2.4299e-06,-5.6283e-07,-4.2289,2.1164
19132,19.752,1.3636,0,9.2744e-05,926.8,3.3496e-05,34.792,2.8867e-05,0.0082752,-9.2103e-05,-908.91,2.1168
19133,19.844,1.2727,0,9.0694e-05,906.32,3.2824e-05,34.849,2.8187e-05,0.0070923,-9.0051e-05,-888.39,2.1317
19134,19.752,1.2727,0.05,7.3336e-07,7.3285,5.6313e-07,4.2312,-1.8074e-12,2.5555e-06,-5.6313e-07,-4.2311,2.1166
19135,19.752,1.5455,0,9.2795e-05,927.31,3.3641e-05,36.342,2.8806e-05,0.010863,-9.2123e-05,-908.6,2.1169
19136,19.844,1.4545,0,9.0751e-05,906.89,3.2982e-05,36.538,2.8121e-05,0.0099698,-9.0074e-05,-888.06,2.1319
19137,19.752,1.4545,0.05,7.3371e-07,7.332,5.634e-07,4.2332,-1.8109e-12,1.445e-06,-5.6339e-07,-4.2331,2.1168
19138,19.752,1.7273,0,9.285e-05,927.85,3.3778e-05,37.782,2.8751e-05,0.01302,-9.2149e-05,-908.38,2.1171
19139,19.844,1.6364,0,9.0812e-05,907.5,3.3133e-05,38.126,2.8061e-05,0.012379,-9.0103e-05,-887.83,2.1321
19140,19.752,1.6364,0.05,7.3401e-07,7.3351,5.6363e-07,4.2349,-9.0675e-13,2.1629e-06,-5.6363e-07,-4.2349,2.117
19141,19.752,1.9091,0,9.2903e-05,928.39,3.3903e-05,39.086,2.8703e-05,0.014792,-9.2176e-05,-908.23,2.1173
19142,19.844,1.8182,0,9.0874e-05,908.11,3.3274e-05,39.582,2.8008e-05,0.014367,-9.0136e-05,-887.67,2.1322
19143,19.752,1.8182,0.05,7.3428e-07,7.3378,5.6384e-07,4.2365,-1.3336e-12,2.0386e-06,-5.6384e-07,-4.2364,2.1172
19144,19.752,2.0909,0,9.2954e-05,928.9,3.4014e-05,40.231,2.8662e-05,0.016222,-9.2204e-05,-908.12,2.1174
19145,19.844,2,0,9.0933e-05,908.7,3.34e-05,40.881,2.7961e-05,0.015985,-9.0168e-05,-887.56,2.1324
19146,19.752,2,0.05,7.3452e-07,7.3401,5.6402e-07,4.2378,-1.2918e-12,2.4341e-06,-5.6402e-07,-4.2378,2.1173
19147,19.752,2.2727,0,9.2999e-05,929.35,3.4108e-05,41.195,2.8628e-05,0.017347,-9.2229e-05,-908.06,2.1175
19148,19.844,2.1818,0,9.0987e-05,909.24,3.351e-05,41.998,2.7923e-05,0.017274,-9.0199e-05,-887.5,2.1325
19149,19.752,2.1818,0.05,7.3471e-07,7.342,5.6417e-07,4.2389,-3.2882e-13,3.2383e-06,-5.6417e-07,-4.2389,2.1174
19150,19.752,2.4545,0,9.3036e-05,929.72,3.4184e-05,41.962,2.8601e-05,0.018195,-9.2251e-05,-908.02,2.1176
19151,19.844,2.3636,0,9.1032e-05,909.69,3.3601e-05,42.916,2.7891e-05,0.018268,-9.0226e-05,-887.47,2.1326
19152,19.752,2.3636,0.05,7.3487e-07,7.3436,5.6429e-07,4.2398,-2.7176e-13,2.7588e-06,-5.6429e-07,-4.2398,2.1175
19153,19.752,2.6364,0,9.3063e-05,929.99,3.4239e-05,42.52,2.8582e-05,0.018786,-9.2267e-05,-907.99,2.1176
19154,19.844,2.5455,0,9.1068e-05,910.05,3.367e-05,43.617,2.7868e-05,0.018993,-9.0247e-05,-887.45,2.1326
19155,19.752,2.5455,0.05,7.3498e-07,7.3448,5.6438e-07,4.2405,-6.5201e-13,4.2281e-06,-5.6438e-07,-4.2405,2.1176
19156,19.752,2.8182,0,9.308e-05,930.16,3.4272e-05,42.858,2.8571e-05,0.019134,-9.2277e-05,-907.98,2.1177
19157,19.844,2.7273,0,9.1093e-05,910.3,3.3717e-05,44.091,2.7852e-05,0.019465,-9.0262e-05,-887.44,2.1327
19158,19.752,2.7273,0.05,7.3506e-07,7.3456,5.6444e-07,4.241,-1.216e-13,3.8503e-06,-5.6444e-07,-4.241,2.1176
19159,19.752,3,0,9.3086e-05,930.22,3.4283e-05,42.971,2.8567e-05,0.019249,-9.228e-05,-907.98,2.1177
19160,19.844,2.9091,0,9.1106e-05,910.43,3.3741e-05,44.33,2.7844e-05,0.019698,-9.027e-05,-887.44,2.1327
19161,19.752,2.9091,0.05,7.351e-07,7.346,5.6447e-07,4.2412,-4.1357e-14,5.8878e-06,-5.6447e-07,-4.2412,2.1176
19162,19.752,3.1818,0,9.308e-05,930.16,3.4272e-05,42.858,2.8571e-05,0.019134,-9.2277e-05,-907.98,2.1177
19163,19.844,3.0909,0,9.1106e-05,910.43,3.3741e-05,44.33,2.7844e-05,0.019698,-9.027e-05,-887.44,2.1327
19164,19.752,3.0909,0.05,7.351e-07,7.346,5.6447e-07,4.2412,4.964e-13,4.605e-06,-5.6447e-07,-4.2412,2.1176
19165,19.752,3.3636,0,9.3063e-05,929.99,3.4239e-05,42.52,2.8582e-05,0.018785,-9.2267e-05,-907.99,2.1176
19166,19.844,3.2727,0,9.1093e-05,910.3,3.3717e-05,44.091,2.7852e-05,0.019466,-9.0262e-05,-887.44,2.1327
19167,19.752,3.2727,0.05,7.3506e-07,7.3456,5.6444e-07,4.241,1.0339e-12,6.659e-06,-5.6444e-07,-4.241,2.1176
19168,19.752,3.5455,0,9.3036e-05,929.72,3.4184e-05,41.962,2.8601e-05,0.018194,-9.2251e-05,-908.02,2.1176
19169,19.844,3.4545,0,9.1068e-05,910.05,3.367e-05,43.617,2.7868e-05,0.018992,-9.0247e-05,-887.45,2.1326
19170,19.752,3.4545,0.05,7.3498e-07,7.3448,5.6438e-07,4.2405,6.5724e-13,6.7713e-06,-5.6438e-07,-4.2405,2.1176
19171,19.752,3.7273,0,9.2999e-05,929.35,3.4108e-05,41.195,2.8628e-05,0.017347,-9.2229e-05,-908.06,2.1175
19172,19.844,3.6364,0,9.1032e-05,909.69,3.3601e-05,42.916,2.7891e-05,0.018268,-9.0226e-05,-887.47,2.1326
19173,19.752,3.6364,0.05,7.3487e-07,7.3436,5.6429e-07,4.2398,7.345e-13,9.236e-06,-5.6429e-07,-4.2398,2.1175
19174,19.752,3.9091,0,9.2954e-05,928.9,3.4014e-05,40.231,2.8662e-05,0.016222,-9.2204e-05,-908.12,2.1174
19175,19.844,3.8182,0,9.0987e-05,909.24,3.351e-05,41.998,2.7923e-05,0.017275,-9.0199e-05,-887.5,2.1325
19176,19.752,3.8182,0.05,7.3471e-07,7.342,5.6417e-07,4.2389,1.7093e-12,1.0233e-05,-5.6417e-07,-4.2389,2.1174
19177,19.752,4.0909,0,9.2903e-05,928.39,3.3903e-05,39.086,2.8703e-05,0.014791,-9.2176e-05,-908.23,2.1173
19178,19.844,4,0,9.0933e-05,908.7,3.34e-05,40.881,2.7961e-05,0.015984,-9.0168e-05,-887.56,2.1324
19179,19.752,4,0.05,7.3452e-07,7.3401,5.6401e-07,4.2378,2.2243e-12,9.2189e-06,-5.6402e-07,-4.2378,2.1173
19180,19.752,4.2727,0,9.285e-05,927.85,3.3778e-05,37.782,2.8751e-05,0.01302,-9.2149e-05,-908.38,2.1171
19181,19.844,4.1818,0,9.0874e-05,908.11,3.3274e-05,39.582,2.8008e-05,0.014368,-9.0136e-05,-887.67,2.1322
19182,19.752,4.1818,0.05,7.3428e-07,7.3378,5.6384e-07,4.2364,1.8141e-12,9.5651e-06,-5.6384e-07,-4.2365,2.1172
19183,19.752,4.4545,0,9.2795e-05,927.31,3.3641e-05,36.342,2.8806e-05,0.010864,-9.2123e-05,-908.6,2.1169
19184,19.844,4.3636,0,9.0812e-05,907.5,3.3133e-05,38.126,2.8061e-05,0.012379,-9.0103e-05,-887.83,2.1321
19185,19.752,4.3636,0.05,7.3401e-07,7.3351,5.6363e-07,4.2349,2.2812e-12,1.1431e-05,-5.6363e-07,-4.2349,2.117
19186,19.752,4.6364,0,9.2744e-05,926.8,3.3496e-05,34.792,2.8867e-05,0.0082768,-9.2103e-05,-908.91,2.1168
19187,19.844,4.5455,0,9.0751e-05,906.89,3.2982e-05,36.538,2.8121e-05,0.009971,-9.0074e-05,-888.06,2.1319
19188,19.752,4.5455,0.05,7.3371e-07,7.332,5.6339e-07,4.2331,2.3078e-12,9.9029e-06,-5.634e-07,-4.2331,2.1168
19189,19.752,4.8182,0,9.2699e-05,926.36,3.3347e-05,33.164,2.8934e-05,0.0051782,-9.2091e-05,-909.33,2.1165
19190,19.844,4.7273,0,9.0694e-05,906.32,3.2824e-05,34.849,2.8187e-05,0.0070912,-9.0051e-05,-888.39,2.1317
19191,19.752,4.7273,0.05,7.3336e-07,7.3285,5.6313e-07,4.2311,2.762e-12,1.0832e-05,-5.6313e-07,-4.2312,2.1166
19192,19.752,5,0,9.2666e-05,926.02,3.3198e-05,31.49,2.9007e-05,0.0015846,-9.209e-05,-909.87,2.1163
19193,19.844,4.9091,0,9.0646e-05,905.83,3.2663e-05,33.092,2.8259e-05,0.0036262,-9.0038e-05,-888.83,2.1315
19194,19.752,4.9091,0.05,7.3298e-07,7.3247,5.6283e-07,4.2289,3.1932e-12,1.0659e-05,-5.6284e-07,-4.229,2.1164
19195,19.752,5.1818,0,9.2647e-05,925.83,3.3052e-05,29.807,2.9085e-05,-0.0028999,-9.2104e-05,-910.57,2.1161
19196,19.844,5.0909,0,9.061e-05,905.48,3.2504e-05,31.304,2.8337e-05,-0.00029003,-9.0037e-05,-889.42,2.1313
19197,19.752,5.0909,0.05,7.3255e-07,7.3204,5.625e-07,4.2264,2.7026e-12,8.2938e-06,-5.6251e-07,-4.2265,2.1162
19198,19.752,5.3636,0,9.2648e-05,925.84,3.2916e-05,28.155,2.9168e-05,-0.0070295,-9.2137e-05,-911.45,2.1158
19199,19.844,5.2727,0,9.0592e-05,905.3,3.2351e-05,29.522,2.8421e-05,-0.0056135,-9.0054e-05,-890.18,2.131
19200,19.752,5.2727,0.05,7.3191e-07,7.3141,5.6202e-07,4.2228,2.144e-12,8.6897e-06,-5.6202e-07,-4.2228,2.1159
19201,19.752,5.5455,0,9.2685e-05,926.21,3.2803e-05,26.64,2.9255e-05,-0.018131,-9.2203e-05,-912.61,2.1155
19202,19.844,5.4545,0,9.0598e-05,905.35,3.221e-05,27.798,2.8509e-05,-0.0088227,-9.0093e-05,-891.14,2.1307
19203,19.752,5.4545,0.05,7.2874e-07,7.2824,5.5958e-07,4.2045,2.9602e-12,8.8292e-06,-5.5959e-07,-4.2045,2.1156
19204,19.752,5.7273,0,9.2946e-05,928.81,3.2877e-05,26.495,2.9349e-05,-0.01594,-9.2467e-05,-915.29,2.1152
19205,19.844,5.6364,0,9.0653e-05,905.9,3.2105e-05,26.299,2.8601e-05,-0.028305,-9.0177e-05,-892.48,2.1304
19206,19.752,5.6364,0.05,6.8722e-07,6.8674,5.2769e-07,3.9649,3.3416e-12,8.968e-06,-5.277e-07,-3.9649,2.1153
19207,19.844,5.8182,0,9.113e-05,910.67,3.2357e-05,27.463,2.8702e-05,-4.5141e-05,-9.0631e-05,-896.62,2.1301
19208,19.752,5.8182,0.05,8.3471e-08,0.83413,6.4095e-08,0.48157,-3.1339e-12,-4.2395e-05,-6.4095e-08,-0.4816,2.115
19209,19.752,5.9091,0,9.1934e-05,918.71,3.1845e-05,18.078,2.9438e-05,-0.0073373,-9.1614e-05,-909.54,2.1148
19210,19.936,0.27273,0,8.8807e-05,887.46,3.1559e-05,27.077,2.7954e-05,-0.017025,-8.8316e-05,-873.62,2.1454
19211,20.029,0.18182,0,8.6996e-05,869.36,3.1035e-05,27.97,2.7312e-05,-0.0003706,-8.6487e-05,-855.04,2.1603
19212,19.936,0.18182,0.05,9.1669e-08,0.91605,7.039e-08,0.52891,2.4111e-12,4.8538e-05,-7.039e-08,-0.52886,2.1452
19213,19.936,0.090909,0,8.7774e-05,877.13,3.05e-05,18.415,2.8048e-05,-0.0075641,-8.7446e-05,-867.79,2.145
19214,19.936,0.45455,0,8.8557e-05,884.96,3.1504e-05,27.4,2.7854e-05,-0.019082,-8.8059e-05,-870.95,2.1457
19215,20.029,0.36364,0,8.6527e-05,864.67,3.0799e-05,26.974,2.7205e-05,-0.029945,-8.6037e-05,-850.89,2.1606
19216,19.936,0.36364,0.05,6.8558e-07,6.8511,5.2644e-07,3.9555,-2.0363e-12,6.1139e-06,-5.2644e-07,-3.9554,2.1455
19217,19.936,0.63636,0,8.8534e-05,884.73,3.1638e-05,29.116,2.7762e-05,-0.007238,-8.8003e-05,-869.82,2.146
19218,20.029,0.54545,0,8.6486e-05,864.26,3.0925e-05,28.679,2.7107e-05,-0.0091654,-8.5963e-05,-849.57,2.1609
19219,19.936,0.54545,0.05,7.2647e-07,7.2597,5.5784e-07,4.1914,-2.0616e-12,6.6157e-06,-5.5784e-07,-4.1914,2.1458
19220,19.936,0.81818,0,8.8548e-05,884.87,3.1796e-05,30.971,2.7673e-05,-0.0028354,-8.7981e-05,-868.98,2.1462
19221,20.029,0.72727,0,8.6496e-05,864.37,3.1089e-05,30.616,2.7013e-05,-0.0057047,-8.5935e-05,-848.65,2.1612
19222,19.936,0.72727,0.05,7.2965e-07,7.2914,5.6028e-07,4.2097,-1.3803e-12,7.5738e-06,-5.6028e-07,-4.2097,2.1461
19223,19.936,1,0,8.8584e-05,885.23,3.1963e-05,32.859,2.759e-05,0.0019047,-8.7979e-05,-868.34,2.1465
19224,20.029,0.90909,0,8.6531e-05,864.72,3.1265e-05,32.612,2.6925e-05,-5.2259e-05,-8.593e-05,-847.95,2.1614
19225,19.936,0.90909,0.05,7.3032e-07,7.2982,5.608e-07,4.2136,-8.2312e-13,6.5656e-06,-5.6079e-07,-4.2136,2.1463
19226,19.936,1.1818,0,8.8634e-05,885.73,3.2134e-05,34.732,2.7512e-05,0.0056766,-8.7992e-05,-867.85,2.1467
19227,20.029,1.0909,0,8.6584e-05,865.25,3.1448e-05,34.613,2.6842e-05,0.0040714,-8.5944e-05,-847.42,2.1617
19228,19.936,1.0909,0.05,7.3079e-07,7.3029,5.6116e-07,4.2164,-1.8072e-12,4.1576e-06,-5.6116e-07,-4.2163,2.1466
19229,19.936,1.3636,0,8.8695e-05,886.34,3.2304e-05,36.551,2.7441e-05,0.0089101,-8.8016e-05,-867.49,2.1469
19230,20.029,1.2727,0,8.665e-05,865.9,3.1631e-05,36.575,2.6764e-05,0.0077039,-8.597e-05,-847.03,2.1619
19231,19.936,1.2727,0.05,7.3122e-07,7.3071,5.6149e-07,4.2188,-1.839e-12,2.8161e-06,-5.6148e-07,-4.2187,2.1468
19232,19.936,1.5455,0,8.8762e-05,887.01,3.2469e-05,38.28,2.7376e-05,0.011598,-8.8049e-05,-867.24,2.1471
19233,20.029,1.4545,0,8.6724e-05,866.64,3.1811e-05,38.458,2.6694e-05,0.010702,-8.6005e-05,-846.77,2.1621
19234,19.936,1.4545,0.05,7.316e-07,7.3109,5.6178e-07,4.221,-1.3929e-12,1.6628e-06,-5.6178e-07,-4.221,2.147
19235,19.936,1.7273,0,8.8831e-05,887.69,3.2624e-05,39.886,2.7317e-05,0.013828,-8.8085e-05,-867.07,2.1472
19236,20.029,1.6364,0,8.6801e-05,867.41,3.1982e-05,40.227,2.663e-05,0.013201,-8.6046e-05,-846.59,2.1622
19237,19.936,1.6364,0.05,7.3194e-07,7.3144,5.6204e-07,4.223,-9.3403e-13,2.1095e-06,-5.6204e-07,-4.2229,2.1471
19238,19.936,1.9091,0,8.8898e-05,888.37,3.2766e-05,41.338,2.7266e-05,0.015653,-8.8122e-05,-866.97,2.1474
19239,20.029,1.8182,0,8.6877e-05,868.17,3.214e-05,41.847,2.6573e-05,0.015252,-8.609e-05,-846.49,2.1624
19240,19.936,1.8182,0.05,7.3224e-07,7.3174,5.6227e-07,4.2247,-9.0287e-13,1.9009e-06,-5.6227e-07,-4.2247,2.1473
19241,19.936,2.0909,0,8.896e-05,888.99,3.2891e-05,42.611,2.7222e-05,0.017124,-8.8158e-05,-866.91,2.1475
19242,20.029,2,0,8.695e-05,868.9,3.2283e-05,43.29,2.6524e-05,0.016918,-8.6132e-05,-846.43,2.1625
19243,19.936,2,0.05,7.325e-07,7.32,5.6247e-07,4.2262,-1.3208e-12,2.1562e-06,-5.6247e-07,-4.2262,2.1474
19244,19.936,2.2727,0,8.9015e-05,889.53,3.2997e-05,43.682,2.7186e-05,0.018277,-8.8191e-05,-866.88,2.1476
19245,20.029,2.1818,0,8.7014e-05,869.54,3.2407e-05,44.531,2.6482e-05,0.018241,-8.6171e-05,-846.41,2.1626
19246,19.936,2.1818,0.05,7.3272e-07,7.3222,5.6264e-07,4.2275,-8.1107e-13,3.0694e-06,-5.6264e-07,-4.2274,2.1475
19247,19.936,2.4545,0,8.906e-05,889.98,3.3082e-05,44.534,2.7158e-05,0.019144,-8.8218e-05,-866.87,2.1477
19248,20.029,2.3636,0,8.7069e-05,870.09,3.2508e-05,45.549,2.6449e-05,0.01926,-8.6205e-05,-846.41,2.1627
19249,19.936,2.3636,0.05,7.329e-07,7.3239,5.6278e-07,4.2285,-2.8805e-13,4.505e-06,-5.6278e-07,-4.2285,2.1476
19250,19.936,2.6364,0,8.9093e-05,890.31,3.3144e-05,45.153,2.7137e-05,0.019747,-8.8238e-05,-866.87,2.1477
19251,20.029,2.5455,0,8.7112e-05,870.52,3.2586e-05,46.327,2.6423e-05,0.019998,-8.6231e-05,-846.42,2.1628
19252,19.936,2.5455,0.05,7.3303e-07,7.3253,5.6288e-07,4.2293,-2.1371e-13,4.1367e-06,-5.6288e-07,-4.2292,2.1477
19253,19.936,2.8182,0,8.9113e-05,890.52,3.3182e-05,45.529,2.7125e-05,0.020102,-8.8251e-05,-866.87,2.1478
19254,20.029,2.7273,0,8.7142e-05,870.82,3.2639e-05,46.852,2.6407e-05,0.020483,-8.625e-05,-846.44,2.1628
19255,19.936,2.7273,0.05,7.3312e-07,7.3262,5.6295e-07,4.2298,-1.3062e-13,4.7451e-06,-5.6295e-07,-4.2298,2.1477
19256,19.936,3,0,8.912e-05,890.59,3.3194e-05,45.654,2.7121e-05,0.02022,-8.8255e-05,-866.87,2.1478
19257,20.029,2.9091,0,8.7157e-05,870.97,3.2666e-05,47.117,2.6398e-05,0.020719,-8.6259e-05,-846.44,2.1629
19258,19.936,2.9091,0.05,7.3317e-07,7.3266,5.6298e-07,4.23,4.1048e-13,5.3892e-06,-5.6298e-07,-4.23,2.1478
19259,19.936,3.1818,0,8.9113e-05,890.52,3.3182e-05,45.529,2.7125e-05,0.020104,-8.8251e-05,-866.87,2.1478
19260,20.029,3.0909,0,8.7157e-05,870.97,3.2666e-05,47.117,2.6398e-05,0.020719,-8.6259e-05,-846.44,2.1629
19261,19.936,3.0909,0.05,7.3317e-07,7.3266,5.6298e-07,4.23,4.4583e-14,5.5801e-06,-5.6298e-07,-4.23,2.1478
19262,19.936,3.3636,0,8.9093e-05,890.31,3.3144e-05,45.153,2.7137e-05,0.019748,-8.8238e-05,-866.87,2.1477
19263,20.029,3.2727,0,8.7142e-05,870.82,3.2639e-05,46.852,2.6407e-05,0.020481,-8.625e-05,-846.44,2.1628
19264,19.936,3.2727,0.05,7.3312e-07,7.3262,5.6295e-07,4.2298,1.0422e-12,7.195e-06,-5.6295e-07,-4.2298,2.1477
19265,19.936,3.5455,0,8.906e-05,889.98,3.3082e-05,44.534,2.7158e-05,0.019144,-8.8218e-05,-866.87,2.1477
19266,20.029,3.4545,0,8.7112e-05,870.52,3.2586e-05,46.327,2.6423e-05,0.019999,-8.6231e-05,-846.42,2.1628
19267,19.936,3.4545,0.05,7.3303e-07,7.3253,5.6288e-07,4.2292,1.1271e-12,8.7778e-06,-5.6288e-07,-4.2293,2.1477
19268,19.936,3.7273,0,8.9015e-05,889.53,3.2997e-05,43.682,2.7186e-05,0.018277,-8.8191e-05,-866.88,2.1476
19269,20.029,3.6364,0,8.7069e-05,870.09,3.2508e-05,45.549,2.6449e-05,0.019258,-8.6205e-05,-846.41,2.1627
19270,19.936,3.6364,0.05,7.329e-07,7.3239,5.6278e-07,4.2285,1.6608e-12,9.3809e-06,-5.6278e-07,-4.2285,2.1476
19271,19.936,3.9091,0,8.896e-05,888.99,3.2891e-05,42.611,2.7222e-05,0.017124,-8.8158e-05,-866.91,2.1475
19272,20.029,3.8182,0,8.7014e-05,869.54,3.2407e-05,44.531,2.6482e-05,0.018241,-8.6171e-05,-846.41,2.1626
19273,19.936,3.8182,0.05,7.3272e-07,7.3222,5.6264e-07,4.2275,2.1936e-12,1.1411e-05,-5.6264e-07,-4.2275,2.1475
19274,19.936,4.0909,0,8.8898e-05,888.37,3.2766e-05,41.338,2.7266e-05,0.015654,-8.8122e-05,-866.97,2.1474
19275,20.029,4,0,8.695e-05,868.9,3.2283e-05,43.29,2.6524e-05,0.016918,-8.6132e-05,-846.43,2.1625
19276,19.936,4,0.05,7.325e-07,7.32,5.6247e-07,4.2262,2.247e-12,1.0425e-05,-5.6247e-07,-4.2262,2.1474
19277,19.936,4.2727,0,8.8831e-05,887.69,3.2624e-05,39.886,2.7317e-05,0.013829,-8.8085e-05,-867.07,2.1472
19278,20.029,4.1818,0,8.6877e-05,868.17,3.214e-05,41.847,2.6573e-05,0.015253,-8.609e-05,-846.49,2.1624
19279,19.936,4.1818,0.05,7.3224e-07,7.3174,5.6227e-07,4.2247,1.3832e-12,1.0312e-05,-5.6227e-07,-4.2247,2.1473
19280,19.936,4.4545,0,8.8762e-05,887.01,3.2469e-05,38.28,2.7376e-05,0.011597,-8.8049e-05,-867.24,2.1471
19281,20.029,4.3636,0,8.6801e-05,867.41,3.1982e-05,40.227,2.663e-05,0.0132,-8.6046e-05,-846.59,2.1622
19282,19.936,4.3636,0.05,7.3194e-07,7.3144,5.6204e-07,4.2229,2.348e-12,1.2877e-05,-5.6204e-07,-4.223,2.1471
19283,19.936,4.6364,0,8.8695e-05,886.34,3.2304e-05,36.552,2.7441e-05,0.0089086,-8.8017e-05,-867.49,2.1469
19284,20.029,4.5455,0,8.6724e-05,866.64,3.1811e-05,38.458,2.6694e-05,0.010701,-8.6005e-05,-846.77,2.1621
19285,19.936,4.5455,0.05,7.316e-07,7.3109,5.6178e-07,4.221,2.3261e-12,1.0972e-05,-5.6178e-07,-4.221,2.147
19286,19.936,4.8182,0,8.8634e-05,885.73,3.2134e-05,34.732,2.7512e-05,0.0056761,-8.7992e-05,-867.85,2.1467
19287,20.029,4.7273,0,8.665e-05,865.9,3.1631e-05,36.575,2.6764e-05,0.0077029,-8.597e-05,-847.03,2.1619
19288,19.936,4.7273,0.05,7.3122e-07,7.3071,5.6148e-07,4.2188,2.3106e-12,1.097e-05,-5.6149e-07,-4.2188,2.1468
19289,19.936,5,0,8.8584e-05,885.23,3.1963e-05,32.859,2.759e-05,0.0019034,-8.7979e-05,-868.34,2.1465
19290,20.029,4.9091,0,8.6584e-05,865.25,3.1448e-05,34.613,2.6842e-05,0.0040723,-8.5944e-05,-847.42,2.1617
19291,19.936,4.9091,0.05,7.3079e-07,7.3029,5.6116e-07,4.2163,2.774e-12,1.1172e-05,-5.6116e-07,-4.2164,2.1466
19292,19.936,5.1818,0,8.8548e-05,884.87,3.1796e-05,30.971,2.7673e-05,-0.0028379,-8.7981e-05,-868.98,2.1462
19293,20.029,5.0909,0,8.6531e-05,864.72,3.1265e-05,32.612,2.6925e-05,-5.5633e-05,-8.593e-05,-847.95,2.1614
19294,19.936,5.0909,0.05,7.3032e-07,7.2982,5.6079e-07,4.2136,2.5125e-12,8.9895e-06,-5.608e-07,-4.2136,2.1463
19295,19.936,5.3636,0,8.8534e-05,884.73,3.1638e-05,29.116,2.7762e-05,-0.0072413,-8.8003e-05,-869.82,2.146
19296,20.029,5.2727,0,8.6496e-05,864.37,3.1089e-05,30.616,2.7013e-05,-0.0057054,-8.5935e-05,-848.65,2.1612
19297,19.936,5.2727,0.05,7.2965e-07,7.2914,5.6028e-07,4.2097,2.6069e-12,9.2302e-06,-5.6028e-07,-4.2097,2.1461
19298,19.936,5.5455,0,8.8557e-05,884.96,3.1504e-05,27.4,2.7854e-05,-0.019083,-8.8059e-05,-870.95,2.1457
19299,20.029,5.4545,0,8.6486e-05,864.26,3.0925e-05,28.679,2.7107e-05,-0.0091672,-8.5963e-05,-849.57,2.1609
19300,19.936,5.4545,0.05,7.2647e-07,7.2597,5.5784e-07,4.1914,2.9777e-12,8.4498e-06,-5.5784e-07,-4.1914,2.1458
19301,19.936,5.7273,0,8.8807e-05,887.46,3.1559e-05,27.077,2.7954e-05,-0.017022,-8.8316e-05,-873.62,2.1454
19302,20.029,5.6364,0,8.6527e-05,864.67,3.0799e-05,26.974,2.7205e-05,-0.029942,-8.6037e-05,-850.89,2.1606
19303,19.936,5.6364,0.05,6.8558e-07,6.8511,5.2644e-07,3.9554,2.8183e-12,9.0411e-06,-5.2644e-07,-3.9555,2.1455
19304,20.029,5.8182,0,8.6996e-05,869.36,3.1035e-05,27.97,2.7312e-05,-0.00036759,-8.6487e-05,-855.04,2.1603
19305,19.936,5.8182,0.05,9.1669e-08,0.91606,7.0391e-08,0.52887,-2.2403e-12,-2.7574e-05,-7.039e-08,-0.5289,2.1452
19306,19.936,5.9091,0,8.7774e-05,877.14,3.05e-05,18.415,2.8048e-05,-0.0075642,-8.7446e-05,-867.79,2.145
19307,20.121,0.27273,0,8.4686e-05,846.27,3.0248e-05,27.672,2.6563e-05,-0.018218,-8.4181e-05,-832.11,2.1756
19308,20.213,0.18182,0,8.2879e-05,828.22,2.9718e-05,28.48,2.5927e-05,-0.00077775,-8.2358e-05,-813.61,2.1906
19309,20.121,0.18182,0.05,1.007e-07,1.0063,7.7322e-08,0.58099,2.1761e-12,4.4015e-05,-7.7322e-08,-0.58094,2.1754
19310,20.121,0.090909,0,8.363e-05,835.72,2.916e-05,18.756,2.6663e-05,-0.007777,-8.3295e-05,-826.19,2.1753
19311,20.121,0.45455,0,8.4447e-05,843.89,3.0213e-05,28.194,2.6458e-05,-0.020098,-8.3932e-05,-829.45,2.1759
19312,20.213,0.36364,0,8.2419e-05,823.62,2.9501e-05,27.673,2.5813e-05,-0.031716,-8.1913e-05,-809.45,2.1909
19313,20.121,0.36364,0.05,6.8408e-07,6.8361,5.2529e-07,3.9468,-1.9451e-12,8.7716e-06,-5.2528e-07,-3.9468,2.1758
19314,20.121,0.63636,0,8.444e-05,843.82,3.037e-05,30.128,2.6359e-05,-0.0074405,-8.3888e-05,-828.36,2.1762
19315,20.213,0.54545,0,8.2393e-05,823.36,2.9651e-05,29.604,2.5709e-05,-0.009524,-8.185e-05,-808.17,2.1912
19316,20.121,0.54545,0.05,7.243e-07,7.238,5.5618e-07,4.1789,-1.9295e-12,8.9399e-06,-5.5617e-07,-4.1788,2.176
19317,20.121,0.81818,0,8.4472e-05,844.13,3.0552e-05,32.208,2.6265e-05,-0.0027344,-8.3878e-05,-827.57,2.1764
19318,20.213,0.72727,0,8.2421e-05,823.64,2.9839e-05,31.774,2.5609e-05,-0.0057774,-8.1835e-05,-807.3,2.1915
19319,20.121,0.72727,0.05,7.2748e-07,7.2698,5.5862e-07,4.1973,-1.1295e-12,1.0849e-05,-5.5861e-07,-4.1972,2.1763
19320,20.121,1,0,8.4525e-05,844.67,3.0743e-05,34.318,2.6176e-05,0.0022834,-8.3889e-05,-826.98,2.1767
19321,20.213,0.90909,0,8.2475e-05,824.18,3.0041e-05,34.005,2.5515e-05,0.00023371,-8.1844e-05,-806.65,2.1917
19322,20.121,0.90909,0.05,7.282e-07,7.277,5.5917e-07,4.2014,-1.2109e-12,1.0537e-05,-5.5917e-07,-4.2013,2.1765
19323,20.121,1.1818,0,8.4594e-05,845.35,3.0939e-05,36.41,2.6094e-05,0.0062491,-8.3915e-05,-826.56,2.1769
19324,20.213,1.0909,0,8.2547e-05,824.9,3.0249e-05,36.238,2.5426e-05,0.0045858,-8.1871e-05,-806.19,2.1919
19325,20.121,1.0909,0.05,7.2873e-07,7.2822,5.5957e-07,4.2044,-1.4784e-12,7.1254e-06,-5.5957e-07,-4.2044,2.1768
19326,20.121,1.3636,0,8.4673e-05,846.14,3.1132e-05,38.438,2.6017e-05,0.0096297,-8.3953e-05,-826.26,2.1771
19327,20.213,1.2727,0,8.2632e-05,825.75,3.0457e-05,38.424,2.5344e-05,0.0083975,-8.1912e-05,-805.87,2.1921
19328,20.121,1.2727,0.05,7.2919e-07,7.2869,5.5993e-07,4.2071,-1.4484e-12,5.2723e-06,-5.5993e-07,-4.2071,2.177
19329,20.121,1.5455,0,8.4757e-05,846.98,3.1318e-05,40.363,2.5948e-05,0.012425,-8.3998e-05,-826.07,2.1773
19330,20.213,1.4545,0,8.2725e-05,826.68,3.066e-05,40.52,2.5268e-05,0.011523,-8.1961e-05,-805.67,2.1923
19331,20.121,1.4545,0.05,7.2962e-07,7.2912,5.6026e-07,4.2096,-1.9066e-12,4.3157e-06,-5.6026e-07,-4.2095,2.1772
19332,20.121,1.7273,0,8.4842e-05,847.83,3.1493e-05,42.148,2.5885e-05,0.014733,-8.4046e-05,-825.97,2.1774
19333,20.213,1.6364,0,8.2819e-05,827.62,3.0853e-05,42.486,2.52e-05,0.014117,-8.2014e-05,-805.55,2.1925
19334,20.121,1.6364,0.05,7.3e-07,7.295,5.6055e-07,4.2118,-9.8462e-13,5.5025e-06,-5.6055e-07,-4.2117,2.1773
19335,20.121,1.9091,0,8.4923e-05,848.65,3.1653e-05,43.761,2.5831e-05,0.016616,-8.4094e-05,-825.91,2.1776
19336,20.213,1.8182,0,8.2912e-05,828.55,3.1031e-05,44.284,2.5139e-05,0.016237,-8.2069e-05,-805.51,2.1926
19337,20.121,1.8182,0.05,7.3034e-07,7.2984,5.6081e-07,4.2138,-4.9999e-13,4.8916e-06,-5.6081e-07,-4.2137,2.1775
19338,20.121,2.0909,0,8.4998e-05,849.4,3.1793e-05,45.173,2.5784e-05,0.018127,-8.414e-05,-825.9,2.1777
19339,20.213,2,0,8.2998e-05,829.41,3.1191e-05,45.885,2.5087e-05,0.017953,-8.2122e-05,-805.51,2.1927
19340,20.121,2,0.05,7.3064e-07,7.3013,5.6104e-07,4.2154,-4.506e-13,5.5899e-06,-5.6104e-07,-4.2154,2.1776
19341,20.121,2.2727,0,8.5064e-05,850.05,3.1913e-05,46.361,2.5745e-05,0.01931,-8.418e-05,-825.91,2.1778
19342,20.213,2.1818,0,8.3075e-05,830.18,3.1329e-05,47.259,2.5042e-05,0.019311,-8.217e-05,-805.53,2.1928
19343,20.121,2.1818,0.05,7.3089e-07,7.3038,5.6123e-07,4.2169,-3.8641e-13,6.6637e-06,-5.6123e-07,-4.2168,2.1777
19344,20.121,2.4545,0,8.5117e-05,850.58,3.2008e-05,47.305,2.5715e-05,0.020196,-8.4213e-05,-825.93,2.1779
19345,20.213,2.3636,0,8.314e-05,830.83,3.1443e-05,48.386,2.5006e-05,0.020354,-8.2211e-05,-805.57,2.1929
19346,20.121,2.3636,0.05,7.3109e-07,7.3058,5.6139e-07,4.218,-7.6956e-13,7.1484e-06,-5.6138e-07,-4.218,2.1778
19347,20.121,2.6364,0,8.5156e-05,850.98,3.2077e-05,47.99,2.5693e-05,0.020813,-8.4238e-05,-825.96,2.1779
19348,20.213,2.5455,0,8.3191e-05,831.34,3.1531e-05,49.246,2.4979e-05,0.02111,-8.2244e-05,-805.61,2.193
19349,20.121,2.5455,0.05,7.3124e-07,7.3073,5.615e-07,4.2189,-2.3348e-13,8.2754e-06,-5.615e-07,-4.2189,2.1779
19350,20.121,2.8182,0,8.5181e-05,851.22,3.2119e-05,48.406,2.568e-05,0.021177,-8.4254e-05,-825.97,2.1779
19351,20.213,2.7273,0,8.3226e-05,831.68,3.159e-05,49.827,2.4961e-05,0.021604,-8.2266e-05,-805.64,2.193
19352,20.121,2.7273,0.05,7.3134e-07,7.3084,5.6158e-07,4.2195,7.6699e-13,8.4589e-06,-5.6158e-07,-4.2195,2.1779
19353,20.121,3,0,8.5189e-05,851.3,3.2133e-05,48.545,2.5675e-05,0.021295,-8.4259e-05,-825.98,2.1779
19354,20.213,2.9091,0,8.3244e-05,831.86,3.162e-05,50.12,2.4952e-05,0.021845,-8.2277e-05,-805.66,2.1931
19355,20.121,2.9091,0.05,7.3139e-07,7.3089,5.6162e-07,4.2198,4.0622e-13,9.1715e-06,-5.6162e-07,-4.2198,2.1779
19356,20.121,3.1818,0,8.5181e-05,851.22,3.2119e-05,48.406,2.568e-05,0.021174,-8.4254e-05,-825.97,2.1779
19357,20.213,3.0909,0,8.3244e-05,831.86,3.162e-05,50.12,2.4952e-05,0.021846,-8.2277e-05,-805.66,2.1931
19358,20.121,3.0909,0.05,7.3139e-07,7.3089,5.6162e-07,4.2198,5.0357e-13,8.4731e-06,-5.6162e-07,-4.2198,2.1779
19359,20.121,3.3636,0,8.5156e-05,850.98,3.2077e-05,47.99,2.5693e-05,0.020811,-8.4238e-05,-825.96,2.1779
19360,20.213,3.2727,0,8.3226e-05,831.68,3.159e-05,49.827,2.4961e-05,0.021602,-8.2266e-05,-805.64,2.193
19361,20.121,3.2727,0.05,7.3134e-07,7.3084,5.6158e-07,4.2195,1.5097e-12,1.0156e-05,-5.6158e-07,-4.2195,2.1779
19362,20.121,3.5455,0,8.5117e-05,850.58,3.2008e-05,47.305,2.5715e-05,0.020195,-8.4213e-05,-825.93,2.1779
19363,20.213,3.4545,0,8.3191e-05,831.34,3.1531e-05,49.246,2.4979e-05,0.021111,-8.2244e-05,-805.61,2.193
19364,20.121,3.4545,0.05,7.3124e-07,7.3073,5.615e-07,4.2189,6.9443e-13,1.1339e-05,-5.615e-07,-4.2189,2.1779
19365,20.121,3.7273,0,8.5064e-05,850.05,3.1913e-05,46.361,2.5745e-05,0.019308,-8.418e-05,-825.91,2.1778
19366,20.213,3.6364,0,8.314e-05,830.83,3.1443e-05,48.386,2.5006e-05,0.020354,-8.2211e-05,-805.57,2.1929
19367,20.121,3.6364,0.05,7.3109e-07,7.3058,5.6138e-07,4.218,1.2364e-12,1.3893e-05,-5.6139e-07,-4.218,2.1778
19368,20.121,3.9091,0,8.4998e-05,849.4,3.1793e-05,45.173,2.5784e-05,0.018127,-8.414e-05,-825.9,2.1777
19369,20.213,3.8182,0,8.3075e-05,830.18,3.1329e-05,47.259,2.5042e-05,0.01931,-8.217e-05,-805.53,2.1928
19370,20.121,3.8182,0.05,7.3089e-07,7.3038,5.6123e-07,4.2169,1.3223e-12,1.545e-05,-5.6123e-07,-4.2169,2.1777
19371,20.121,4.0909,0,8.4923e-05,848.65,3.1653e-05,43.761,2.5831e-05,0.016616,-8.4094e-05,-825.91,2.1776
19372,20.213,4,0,8.2998e-05,829.41,3.1191e-05,45.885,2.5087e-05,0.017953,-8.2122e-05,-805.51,2.1927
19373,20.121,4,0.05,7.3064e-07,7.3013,5.6104e-07,4.2154,1.3861e-12,1.4048e-05,-5.6104e-07,-4.2154,2.1776
19374,20.121,4.2727,0,8.4842e-05,847.83,3.1493e-05,42.148,2.5885e-05,0.014733,-8.4046e-05,-825.97,2.1774
19375,20.213,4.1818,0,8.2912e-05,828.55,3.1031e-05,44.284,2.5139e-05,0.016239,-8.2069e-05,-805.51,2.1926
19376,20.121,4.1818,0.05,7.3034e-07,7.2984,5.6081e-07,4.2137,1.8961e-12,1.3954e-05,-5.6081e-07,-4.2137,2.1775
19377,20.121,4.4545,0,8.4757e-05,846.98,3.1318e-05,40.363,2.5948e-05,0.012424,-8.3998e-05,-826.07,2.1773
19378,20.213,4.3636,0,8.2819e-05,827.62,3.0853e-05,42.486,2.52e-05,0.014116,-8.2014e-05,-805.55,2.1925
19379,20.121,4.3636,0.05,7.3e-07,7.295,5.6055e-07,4.2118,2.3891e-12,1.5618e-05,-5.6055e-07,-4.2118,2.1773
19380,20.121,4.6364,0,8.4673e-05,846.14,3.1132e-05,38.438,2.6017e-05,0.0096296,-8.3953e-05,-826.26,2.1771
19381,20.213,4.5455,0,8.2725e-05,826.68,3.066e-05,40.52,2.5268e-05,0.011523,-8.1961e-05,-805.67,2.1923
19382,20.121,4.5455,0.05,7.2962e-07,7.2912,5.6026e-07,4.2096,2.392e-12,1.4213e-05,-5.6026e-07,-4.2096,2.1772
19383,20.121,4.8182,0,8.4594e-05,845.35,3.0939e-05,36.41,2.6094e-05,0.0062496,-8.3915e-05,-826.56,2.1769
19384,20.213,4.7273,0,8.2632e-05,825.75,3.0457e-05,38.424,2.5344e-05,0.0083963,-8.1912e-05,-805.87,2.1921
19385,20.121,4.7273,0.05,7.2919e-07,7.2869,5.5993e-07,4.2071,2.3826e-12,1.6125e-05,-5.5993e-07,-4.2071,2.177
19386,20.121,5,0,8.4525e-05,844.67,3.0743e-05,34.318,2.6176e-05,0.0022822,-8.3889e-05,-826.98,2.1767
19387,20.213,4.9091,0,8.2547e-05,824.9,3.0249e-05,36.238,2.5426e-05,0.0045863,-8.1871e-05,-806.19,2.1919
19388,20.121,4.9091,0.05,7.2873e-07,7.2822,5.5957e-07,4.2044,2.3759e-12,1.5663e-05,-5.5957e-07,-4.2044,2.1768
19389,20.121,5.1818,0,8.4472e-05,844.14,3.0552e-05,32.208,2.6265e-05,-0.0027359,-8.3878e-05,-827.57,2.1764
19390,20.213,5.0909,0,8.2475e-05,824.18,3.0041e-05,34.005,2.5515e-05,0.00023104,-8.1844e-05,-806.65,2.1917
19391,20.121,5.0909,0.05,7.282e-07,7.277,5.5917e-07,4.2014,3.0056e-12,1.3145e-05,-5.5917e-07,-4.2014,2.1765
19392,20.121,5.3636,0,8.444e-05,843.82,3.037e-05,30.128,2.6359e-05,-0.0074397,-8.3888e-05,-828.36,2.1762
19393,20.213,5.2727,0,8.2421e-05,823.64,2.9839e-05,31.774,2.5609e-05,-0.0057773,-8.1835e-05,-807.3,2.1915
19394,20.121,5.2727,0.05,7.2748e-07,7.2698,5.5861e-07,4.1972,2.6973e-12,1.3549e-05,-5.5862e-07,-4.1972,2.1763
19395,20.121,5.5455,0,8.4447e-05,843.89,3.0213e-05,28.194,2.6458e-05,-0.020096,-8.3933e-05,-829.45,2.1759
19396,20.213,5.4545,0,8.2393e-05,823.37,2.9651e-05,29.604,2.5709e-05,-0.0095225,-8.185e-05,-808.17,2.1912
19397,20.121,5.4545,0.05,7.243e-07,7.238,5.5617e-07,4.1789,2.3899e-12,1.291e-05,-5.5618e-07,-4.1789,2.176
19398,20.121,5.7273,0,8.4686e-05,846.27,3.0248e-05,27.672,2.6563e-05,-0.018215,-8.4181e-05,-832.11,2.1756
19399,20.213,5.6364,0,8.2419e-05,823.62,2.9501e-05,27.674,2.5813e-05,-0.031715,-8.1913e-05,-809.45,2.1909
19400,20.121,5.6364,0.05,6.8408e-07,6.8361,5.2529e-07,3.9468,2.8818e-12,1.2304e-05,-5.2529e-07,-3.9468,2.1758
19401,20.213,5.8182,0,8.2879e-05,828.22,2.9718e-05,28.48,2.5927e-05,-0.00077548,-8.2358e-05,-813.61,2.1906
19402,20.121,5.8182,0.05,1.007e-07,1.0063,7.7322e-08,0.58096,-1.8529e-12,-2.0052e-05,-7.7323e-08,-0.58098,2.1754
19403,20.121,5.9091,0,8.363e-05,835.72,2.916e-05,18.756,2.6663e-05,-0.0077763,-8.3295e-05,-826.19,2.1753
19404,20.306,0.27273,0,8.0581e-05,805.25,2.8943e-05,28.282,2.5177e-05,-0.019547,-8.0063e-05,-790.75,2.2059
19405,20.398,0.18182,0,7.8777e-05,787.23,2.8406e-05,28.994,2.4547e-05,-0.0012942,-7.8244e-05,-772.33,2.221
19406,20.306,0.18182,0.05,1.106e-07,1.1053,8.493e-08,0.63816,1.627e-12,4.1785e-05,-8.4929e-08,-0.6381,2.2058
19407,20.306,0.090909,0,7.9502e-05,794.47,2.7826e-05,19.101,2.5283e-05,-0.0079882,-7.916e-05,-784.75,2.2056
19408,20.306,0.45455,0,8.0355e-05,803,2.893e-05,29.022,2.5065e-05,-0.021191,-7.9823e-05,-788.11,2.2062
19409,20.398,0.36364,0,7.8327e-05,782.73,2.821e-05,28.398,2.4426e-05,-0.033642,-7.7806e-05,-768.16,2.2212
19410,20.306,0.36364,0.05,6.8272e-07,6.8225,5.2425e-07,3.939,-1.3302e-12,8.5488e-06,-5.2424e-07,-3.9389,2.2061
19411,20.306,0.63636,0,8.0366e-05,803.11,2.9113e-05,31.196,2.496e-05,-0.0076388,-7.979e-05,-787.06,2.2065
19412,20.398,0.54545,0,7.832e-05,782.65,2.8386e-05,30.575,2.4315e-05,-0.0098957,-7.7755e-05,-766.92,2.2215
19413,20.306,0.54545,0.05,7.2224e-07,7.2174,5.5459e-07,4.167,-1.1638e-12,1.188e-05,-5.5459e-07,-4.1669,2.2063
19414,20.306,0.81818,0,8.0417e-05,803.61,2.9321e-05,33.521,2.486e-05,-0.0025975,-7.9794e-05,-786.33,2.2067
19415,20.398,0.72727,0,7.8367e-05,783.13,2.8602e-05,33.001,2.4209e-05,-0.0058264,-7.7754e-05,-766.11,2.2218
19416,20.306,0.72727,0.05,7.2543e-07,7.2493,5.5704e-07,4.1854,-1.4453e-12,7.2176e-06,-5.5704e-07,-4.1853,2.2066
19417,20.306,1,0,8.049e-05,804.35,2.9539e-05,35.876,2.4765e-05,0.0027244,-7.982e-05,-785.81,2.2069
19418,20.398,0.90909,0,7.8442e-05,783.88,2.8831e-05,35.49,2.4108e-05,0.0005745,-7.7778e-05,-765.53,2.222
19419,20.306,0.90909,0.05,7.2621e-07,7.257,5.5764e-07,4.1899,-1.2832e-12,5.5538e-06,-5.5763e-07,-4.1898,2.2068
19420,20.306,1.1818,0,8.0579e-05,805.24,2.9761e-05,38.206,2.4677e-05,0.0068998,-7.9861e-05,-785.45,2.2072
19421,20.398,1.0909,0,7.8535e-05,784.81,2.9067e-05,37.977,2.4013e-05,0.005179,-7.782e-05,-765.13,2.2222
19422,20.306,1.0909,0.05,7.2678e-07,7.2628,5.5808e-07,4.1932,-1.7469e-12,3.4217e-06,-5.5808e-07,-4.1932,2.207
19423,20.306,1.3636,0,8.0678e-05,806.22,2.9979e-05,40.462,2.4595e-05,0.010437,-7.9913e-05,-785.22,2.2073
19424,20.398,1.2727,0,7.8642e-05,785.87,2.9302e-05,40.409,2.3925e-05,0.0091809,-7.7876e-05,-764.89,2.2224
19425,20.306,1.2727,0.05,7.2731e-07,7.2681,5.5848e-07,4.1962,-1.5222e-12,2.1617e-06,-5.5848e-07,-4.1962,2.2072
19426,20.306,1.5455,0,8.0781e-05,807.25,3.0189e-05,42.601,2.4521e-05,0.013345,-7.9972e-05,-785.1,2.2075
19427,20.398,1.4545,0,7.8754e-05,787,2.9531e-05,42.737,2.3844e-05,0.012443,-7.794e-05,-764.76,2.2226
19428,20.306,1.4545,0.05,7.2779e-07,7.2728,5.5885e-07,4.199,-1.5363e-12,2.1044e-06,-5.5885e-07,-4.1989,2.2074
19429,20.306,1.7273,0,8.0884e-05,808.28,3.0386e-05,44.582,2.4454e-05,0.015737,-8.0033e-05,-785.06,2.2077
19430,20.398,1.6364,0,7.8868e-05,788.14,2.9747e-05,44.917,2.3771e-05,0.015136,-7.8008e-05,-764.71,2.2227
19431,20.306,1.6364,0.05,7.2822e-07,7.2772,5.5918e-07,4.2015,-1.484e-12,3.6631e-06,-5.5918e-07,-4.2014,2.2076
19432,20.306,1.9091,0,8.0981e-05,809.25,3.0565e-05,46.37,2.4396e-05,0.01768,-8.0092e-05,-785.06,2.2078
19433,20.398,1.8182,0,7.8979e-05,789.24,2.9947e-05,46.909,2.3706e-05,0.017331,-7.8076e-05,-764.73,2.2229
19434,20.306,1.8182,0.05,7.286e-07,7.281,5.5948e-07,4.2037,-1.235e-12,2.4832e-06,-5.5947e-07,-4.2037,2.2077
19435,20.306,2.0909,0,8.107e-05,810.14,3.0722e-05,47.933,2.4345e-05,0.019235,-8.0148e-05,-785.1,2.2079
19436,20.398,2,0,7.9081e-05,790.26,3.0126e-05,48.68,2.365e-05,0.019097,-7.814e-05,-764.79,2.223
19437,20.306,2,0.05,7.2894e-07,7.2843,5.5973e-07,4.2056,-4.9193e-13,2.9279e-06,-5.5973e-07,-4.2056,2.2078
19438,20.306,2.2727,0,8.1147e-05,810.91,3.0856e-05,49.247,2.4304e-05,0.020447,-8.0197e-05,-785.16,2.208
19439,20.398,2.1818,0,7.9171e-05,791.17,3.0281e-05,50.199,2.3602e-05,0.020494,-7.8197e-05,-764.86,2.2231
19440,20.306,2.1818,0.05,7.2922e-07,7.2872,5.5995e-07,4.2073,-8.8702e-13,4.3803e-06,-5.5995e-07,-4.2072,2.208
19441,20.306,2.4545,0,8.121e-05,811.54,3.0962e-05,50.291,2.4271e-05,0.021355,-8.0237e-05,-785.21,2.2081
19442,20.398,2.3636,0,7.9247e-05,791.93,3.0408e-05,51.443,2.3564e-05,0.02156,-7.8246e-05,-764.94,2.2232
19443,20.306,2.3636,0.05,7.2945e-07,7.2895,5.6013e-07,4.2086,-3.4965e-13,4.9931e-06,-5.6013e-07,-4.2086,2.208
19444,20.306,2.6364,0,8.1256e-05,812,3.1039e-05,51.048,2.4248e-05,0.021986,-8.0267e-05,-785.26,2.2081
19445,20.398,2.5455,0,7.9306e-05,792.52,3.0505e-05,52.393,2.3535e-05,0.022336,-7.8285e-05,-765.01,2.2232
19446,20.306,2.5455,0.05,7.2962e-07,7.2912,5.6026e-07,4.2096,-2.5577e-13,6.65e-06,-5.6026e-07,-4.2096,2.2081
19447,20.306,2.8182,0,8.1284e-05,812.28,3.1086e-05,51.507,2.4234e-05,0.022354,-8.0285e-05,-785.29,2.2082
19448,20.398,2.7273,0,7.9347e-05,792.92,3.0571e-05,53.033,2.3515e-05,0.022838,-7.8311e-05,-765.06,2.2233
19449,20.306,2.7273,0.05,7.2974e-07,7.2924,5.6035e-07,4.2103,2.9715e-13,5.0128e-06,-5.6035e-07,-4.2102,2.2081
19450,20.306,3,0,8.1294e-05,812.38,3.1102e-05,51.66,2.4229e-05,0.022477,-8.0291e-05,-785.3,2.2082
19451,20.398,2.9091,0,7.9367e-05,793.12,3.0604e-05,53.356,2.3506e-05,0.023085,-7.8324e-05,-765.09,2.2233
19452,20.306,2.9091,0.05,7.298e-07,7.2929,5.6039e-07,4.2106,4.0142e-13,7.7053e-06,-5.6039e-07,-4.2106,2.2082
19453,20.306,3.1818,0,8.1284e-05,812.28,3.1086e-05,51.507,2.4234e-05,0.022355,-8.0285e-05,-785.29,2.2082
19454,20.398,3.0909,0,7.9367e-05,793.12,3.0604e-05,53.356,2.3506e-05,0.023085,-7.8324e-05,-765.09,2.2233
19455,20.306,3.0909,0.05,7.298e-07,7.2929,5.6039e-07,4.2106,5.0836e-13,7.556e-06,-5.6039e-07,-4.2106,2.2082
19456,20.306,3.3636,0,8.1256e-05,812,3.1039e-05,51.048,2.4248e-05,0.021985,-8.0267e-05,-785.26,2.2081
19457,20.398,3.2727,0,7.9347e-05,792.92,3.0571e-05,53.033,2.3515e-05,0.022837,-7.8311e-05,-765.06,2.2233
19458,20.306,3.2727,0.05,7.2974e-07,7.2924,5.6035e-07,4.2102,1.0697e-12,9.7833e-06,-5.6035e-07,-4.2102,2.2081
19459,20.306,3.5455,0,8.121e-05,811.54,3.0962e-05,50.291,2.4271e-05,0.021356,-8.0237e-05,-785.21,2.2081
19460,20.398,3.4545,0,7.9306e-05,792.52,3.0505e-05,52.393,2.3535e-05,0.022336,-7.8285e-05,-765.01,2.2232
19461,20.306,3.4545,0.05,7.2962e-07,7.2912,5.6026e-07,4.2096,2.082e-12,1.0549e-05,-5.6026e-07,-4.2096,2.2081
19462,20.306,3.7273,0,8.1147e-05,810.91,3.0856e-05,49.247,2.4304e-05,0.020447,-8.0197e-05,-785.16,2.208
19463,20.398,3.6364,0,7.9247e-05,791.93,3.0408e-05,51.443,2.3564e-05,0.021562,-7.8246e-05,-764.94,2.2232
19464,20.306,3.6364,0.05,7.2945e-07,7.2895,5.6013e-07,4.2086,1.2693e-12,1.2228e-05,-5.6013e-07,-4.2086,2.208
19465,20.306,3.9091,0,8.107e-05,810.14,3.0722e-05,47.933,2.4345e-05,0.019233,-8.0148e-05,-785.1,2.2079
19466,20.398,3.8182,0,7.9171e-05,791.17,3.0281e-05,50.199,2.3602e-05,0.020492,-7.8197e-05,-764.86,2.2231
19467,20.306,3.8182,0.05,7.2922e-07,7.2872,5.5995e-07,4.2072,2.2678e-12,1.4331e-05,-5.5995e-07,-4.2073,2.208
19468,20.306,4.0909,0,8.0981e-05,809.25,3.0565e-05,46.37,2.4396e-05,0.017681,-8.0092e-05,-785.06,2.2078
19469,20.398,4,0,7.9081e-05,790.26,3.0126e-05,48.68,2.365e-05,0.019097,-7.814e-05,-764.79,2.223
19470,20.306,4,0.05,7.2894e-07,7.2843,5.5973e-07,4.2056,2.1029e-12,1.3517e-05,-5.5973e-07,-4.2056,2.2078
19471,20.306,4.2727,0,8.0884e-05,808.28,3.0386e-05,44.582,2.4454e-05,0.015738,-8.0033e-05,-785.06,2.2077
19472,20.398,4.1818,0,7.8979e-05,789.24,2.9947e-05,46.909,2.3706e-05,0.017331,-7.8076e-05,-764.73,2.2229
19473,20.306,4.1818,0.05,7.286e-07,7.281,5.5947e-07,4.2037,2.1749e-12,1.2878e-05,-5.5948e-07,-4.2037,2.2077
19474,20.306,4.4545,0,8.0781e-05,807.25,3.0189e-05,42.601,2.4521e-05,0.013344,-7.9972e-05,-785.1,2.2075
19475,20.398,4.3636,0,7.8868e-05,788.14,2.9747e-05,44.917,2.3771e-05,0.015137,-7.8008e-05,-764.71,2.2227
19476,20.306,4.3636,0.05,7.2822e-07,7.2772,5.5918e-07,4.2015,2.4383e-12,1.5599e-05,-5.5918e-07,-4.2015,2.2076
19477,20.306,4.6364,0,8.0678e-05,806.22,2.9979e-05,40.463,2.4595e-05,0.010436,-7.9913e-05,-785.22,2.2073
19478,20.398,4.5455,0,7.8754e-05,787,2.9531e-05,42.737,2.3844e-05,0.012444,-7.794e-05,-764.76,2.2226
19479,20.306,4.5455,0.05,7.2779e-07,7.2728,5.5885e-07,4.199,2.4766e-12,1.4052e-05,-5.5885e-07,-4.199,2.2074
19480,20.306,4.8182,0,8.0579e-05,805.24,2.9761e-05,38.206,2.4677e-05,0.0068985,-7.9861e-05,-785.45,2.2072
19481,20.398,4.7273,0,7.8642e-05,785.87,2.9302e-05,40.409,2.3925e-05,0.0091782,-7.7876e-05,-764.89,2.2224
19482,20.306,4.7273,0.05,7.2731e-07,7.2681,5.5848e-07,4.1962,2.6798e-12,1.5136e-05,-5.5848e-07,-4.1962,2.2072
19483,20.306,5,0,8.049e-05,804.35,2.954e-05,35.876,2.4765e-05,0.0027234,-7.982e-05,-785.81,2.2069
19484,20.398,4.9091,0,7.8535e-05,784.81,2.9067e-05,37.977,2.4013e-05,0.0051776,-7.782e-05,-765.13,2.2222
19485,20.306,4.9091,0.05,7.2678e-07,7.2628,5.5808e-07,4.1932,2.8887e-12,1.443e-05,-5.5808e-07,-4.1932,2.207
19486,20.306,5.1818,0,8.0417e-05,803.61,2.9321e-05,33.521,2.486e-05,-0.0025985,-7.9794e-05,-786.33,2.2067
19487,20.398,5.0909,0,7.8442e-05,783.88,2.8831e-05,35.49,2.4108e-05,0.00057293,-7.7778e-05,-765.53,2.222
19488,20.306,5.0909,0.05,7.2621e-07,7.257,5.5763e-07,4.1898,2.6312e-12,1.2365e-05,-5.5764e-07,-4.1899,2.2068
19489,20.306,5.3636,0,8.0366e-05,803.11,2.9113e-05,31.196,2.496e-05,-0.0076381,-7.979e-05,-787.06,2.2065
19490,20.398,5.2727,0,7.8367e-05,783.13,2.8602e-05,33.001,2.4209e-05,-0.0058282,-7.7754e-05,-766.11,2.2218
19491,20.306,5.2727,0.05,7.2543e-07,7.2493,5.5704e-07,4.1854,2.7773e-12,1.2499e-05,-5.5704e-07,-4.1854,2.2066
19492,20.306,5.5455,0,8.0355e-05,803,2.893e-05,29.022,2.5065e-05,-0.02119,-7.9823e-05,-788.11,2.2062
19493,20.398,5.4545,0,7.832e-05,782.66,2.8386e-05,30.575,2.4315e-05,-0.009893,-7.7755e-05,-766.92,2.2215
19494,20.306,5.4545,0.05,7.2224e-07,7.2174,5.5459e-07,4.167,2.4228e-12,1.1258e-05,-5.5459e-07,-4.167,2.2063
19495,20.306,5.7273,0,8.0581e-05,805.25,2.8943e-05,28.282,2.5177e-05,-0.019548,-8.0063e-05,-790.75,2.2059
19496,20.398,5.6364,0,7.8327e-05,782.73,2.821e-05,28.398,2.4426e-05,-0.033643,-7.7806e-05,-768.16,2.2212
19497,20.306,5.6364,0.05,6.8272e-07,6.8225,5.2424e-07,3.9389,2.5126e-12,1.1229e-05,-5.2425e-07,-3.939,2.2061
19498,20.398,5.8182,0,7.8777e-05,787.23,2.8406e-05,28.994,2.4547e-05,-0.0012944,-7.8244e-05,-772.33,2.221
19499,20.306,5.8182,0.05,1.106e-07,1.1053,8.4929e-08,0.63811,-6.1724e-13,-1.9384e-05,-8.4931e-08,-0.63815,2.2058
19500,20.306,5.9091,0,7.9502e-05,794.47,2.7826e-05,19.101,2.5283e-05,-0.0079862,-7.916e-05,-784.75,2.2056
19501,20.491,0.27273,0,7.6492e-05,764.39,2.7645e-05,28.904,2.3795e-05,-0.021039,-7.5959e-05,-749.54,2.2363
19502,20.583,0.18182,0,7.469e-05,746.38,2.7099e-05,29.508,2.3171e-05,-0.00194,-7.4144e-05,-731.19,2.2513
19503,20.491,0.18182,0.05,1.2144e-07,1.2136,9.3254e-08,0.70069,1.1535e-12,2.1331e-05,-9.3252e-08,-0.70064,2.2361
19504,20.491,0.090909,0,7.539e-05,753.38,2.6498e-05,19.448,2.3908e-05,-0.0081819,-7.504e-05,-743.47,2.236
19505,20.491,0.45455,0,7.6282e-05,762.29,2.7657e-05,29.886,2.3676e-05,-0.022371,-7.573e-05,-746.92,2.2366
19506,20.583,0.36364,0,7.4253e-05,742.02,2.6927e-05,29.148,2.3042e-05,-0.035737,-7.3715e-05,-727.03,2.2516
19507,20.491,0.36364,0.05,6.8151e-07,6.8104,5.2332e-07,3.932,-1.3833e-12,6.5716e-06,-5.2332e-07,-3.932,2.2364
19508,20.491,0.63636,0,7.6312e-05,762.59,2.7867e-05,32.324,2.3564e-05,-0.0078258,-7.5711e-05,-745.92,2.2368
19509,20.583,0.54545,0,7.4265e-05,742.13,2.7131e-05,31.596,2.2925e-05,-0.010269,-7.3677e-05,-725.84,2.2519
19510,20.491,0.54545,0.05,7.2029e-07,7.1979,5.531e-07,4.1558,-1.6608e-12,8.091e-06,-5.5309e-07,-4.1557,2.2367
19511,20.491,0.81818,0,7.6384e-05,763.31,2.8105e-05,34.917,2.3457e-05,-0.0024145,-7.573e-05,-745.26,2.2371
19512,20.583,0.72727,0,7.4334e-05,742.83,2.7377e-05,34.302,2.2811e-05,-0.0058391,-7.3691e-05,-725.08,2.2521
19513,20.491,0.72727,0.05,7.2349e-07,7.2299,5.5556e-07,4.1742,-1.2359e-12,3.9864e-06,-5.5555e-07,-4.1742,2.2369
19514,20.491,1,0,7.6479e-05,764.27,2.8352e-05,37.54,2.3356e-05,0.0032391,-7.5772e-05,-744.8,2.2373
19515,20.583,0.90909,0,7.4432e-05,743.8,2.7637e-05,37.074,2.2703e-05,0.00099075,-7.3732e-05,-724.57,2.2523
19516,20.491,0.90909,0.05,7.2433e-07,7.2383,5.562e-07,4.1791,-1.5413e-12,2.072e-07,-5.562e-07,-4.179,2.2371
19517,20.491,1.1818,0,7.6591e-05,765.38,2.8602e-05,40.132,2.3262e-05,0.0076426,-7.5829e-05,-744.52,2.2375
19518,20.583,1.0909,0,7.4549e-05,744.98,2.7903e-05,39.84,2.2602e-05,0.0058683,-7.3791e-05,-724.26,2.2526
19519,20.491,1.0909,0.05,7.2498e-07,7.2448,5.567e-07,4.1828,-1.5741e-12,1.3576e-06,-5.5669e-07,-4.1828,2.2374
19520,20.491,1.3636,0,7.6712e-05,766.59,2.8848e-05,42.638,2.3174e-05,0.011347,-7.5897e-05,-744.37,2.2377
19521,20.583,1.2727,0,7.4679e-05,746.27,2.8168e-05,42.54,2.2508e-05,0.010076,-7.3864e-05,-724.09,2.2527
19522,20.491,1.2727,0.05,7.2557e-07,7.2507,5.5715e-07,4.1862,-1.3368e-12,1.0323e-06,-5.5714e-07,-4.1861,2.2376
19523,20.491,1.5455,0,7.6836e-05,767.83,2.9083e-05,45.01,2.3095e-05,0.014375,-7.5971e-05,-744.32,2.2378
19524,20.583,1.4545,0,7.4814e-05,747.63,2.8425e-05,45.121,2.2421e-05,0.013487,-7.3944e-05,-724.04,2.2529
19525,20.491,1.4545,0.05,7.2611e-07,7.256,5.5756e-07,4.1893,-1.3524e-12,7.7102e-07,-5.5756e-07,-4.1893,2.2377
19526,20.491,1.7273,0,7.6958e-05,769.04,2.9303e-05,47.203,2.3023e-05,0.016856,-7.6045e-05,-744.35,2.238
19527,20.583,1.6364,0,7.4949e-05,748.98,2.8667e-05,47.535,2.2343e-05,0.016285,-7.4027e-05,-724.07,2.2531
19528,20.491,1.6364,0.05,7.2659e-07,7.2609,5.5794e-07,4.1921,-1.3224e-12,2.2852e-06,-5.5793e-07,-4.1921,2.2379
19529,20.491,1.9091,0,7.7073e-05,770.19,2.9504e-05,49.181,2.2961e-05,0.018862,-7.6118e-05,-744.42,2.2381
19530,20.583,1.8182,0,7.5079e-05,750.27,2.889e-05,49.738,2.2273e-05,0.018557,-7.4109e-05,-724.15,2.2532
19531,20.491,1.8182,0.05,7.2703e-07,7.2653,5.5827e-07,4.1946,-8.3859e-13,1.6953e-06,-5.5827e-07,-4.1946,2.238
19532,20.491,2.0909,0,7.7177e-05,771.23,2.9679e-05,50.908,2.2907e-05,0.020461,-7.6184e-05,-744.51,2.2382
19533,20.583,2,0,7.5198e-05,751.46,2.909e-05,51.693,2.2212e-05,0.020376,-7.4185e-05,-724.27,2.2533
19534,20.491,2,0.05,7.2741e-07,7.2691,5.5856e-07,4.1968,-9.873e-13,2.0811e-06,-5.5856e-07,-4.1968,2.2381
19535,20.491,2.2727,0,7.7266e-05,772.13,2.9828e-05,52.359,2.2862e-05,0.021704,-7.6242e-05,-744.61,2.2383
19536,20.583,2.1818,0,7.5303e-05,752.51,2.9261e-05,53.368,2.2161e-05,0.021811,-7.4253e-05,-724.4,2.2534
19537,20.491,2.1818,0.05,7.2774e-07,7.2724,5.5881e-07,4.1987,-6.9331e-13,3.1641e-06,-5.5881e-07,-4.1987,2.2382
19538,20.491,2.4545,0,7.7339e-05,772.86,2.9946e-05,53.51,2.2827e-05,0.022636,-7.6289e-05,-744.7,2.2384
19539,20.583,2.3636,0,7.5391e-05,753.39,2.9403e-05,54.739,2.212e-05,0.022905,-7.431e-05,-724.52,2.2535
19540,20.491,2.3636,0.05,7.28e-07,7.275,5.5902e-07,4.2002,-3.7679e-13,4.325e-06,-5.5901e-07,-4.2002,2.2383
19541,20.491,2.6364,0,7.7392e-05,773.39,3.0032e-05,54.344,2.2802e-05,0.023278,-7.6324e-05,-744.78,2.2384
19542,20.583,2.5455,0,7.5459e-05,754.07,2.951e-05,55.785,2.2089e-05,0.023697,-7.4355e-05,-724.62,2.2536
19543,20.491,2.5455,0.05,7.282e-07,7.277,5.5917e-07,4.2014,-4.849e-14,5.5394e-06,-5.5917e-07,-4.2014,2.2384
19544,20.491,2.8182,0,7.7425e-05,773.72,3.0084e-05,54.849,2.2787e-05,0.023657,-7.6346e-05,-744.82,2.2384
19545,20.583,2.7273,0,7.5505e-05,754.53,2.9583e-05,56.49,2.2068e-05,0.02421,-7.4385e-05,-724.69,2.2536
19546,20.491,2.7273,0.05,7.2834e-07,7.2783,5.5927e-07,4.2022,5.7287e-14,5.4014e-06,-5.5927e-07,-4.2021,2.2384
19547,20.491,3,0,7.7436e-05,773.83,3.0102e-05,55.019,2.2782e-05,0.02378,-7.6353e-05,-744.84,2.2385
19548,20.583,2.9091,0,7.5529e-05,754.77,2.962e-05,56.845,2.2058e-05,0.024463,-7.4401e-05,-724.73,2.2536
19549,20.491,2.9091,0.05,7.284e-07,7.279,5.5932e-07,4.2025,6.2443e-13,7.1956e-06,-5.5932e-07,-4.2025,2.2384
19550,20.491,3.1818,0,7.7425e-05,773.72,3.0084e-05,54.849,2.2787e-05,0.023654,-7.6346e-05,-744.82,2.2384
19551,20.583,3.0909,0,7.5529e-05,754.77,2.962e-05,56.845,2.2058e-05,0.024461,-7.4401e-05,-724.73,2.2536
19552,20.491,3.0909,0.05,7.284e-07,7.279,5.5932e-07,4.2025,9.6746e-13,6.6342e-06,-5.5932e-07,-4.2025,2.2384
19553,20.491,3.3636,0,7.7392e-05,773.39,3.0032e-05,54.344,2.2802e-05,0.023277,-7.6324e-05,-744.78,2.2384
19554,20.583,3.2727,0,7.5505e-05,754.53,2.9583e-05,56.49,2.2068e-05,0.024208,-7.4385e-05,-724.69,2.2536
19555,20.491,3.2727,0.05,7.2834e-07,7.2783,5.5927e-07,4.2021,1.0825e-12,8.9301e-06,-5.5927e-07,-4.2022,2.2384
19556,20.491,3.5455,0,7.7339e-05,772.86,2.9946e-05,53.51,2.2827e-05,0.022636,-7.6289e-05,-744.7,2.2384
19557,20.583,3.4545,0,7.5459e-05,754.07,2.951e-05,55.785,2.2089e-05,0.023696,-7.4355e-05,-724.62,2.2536
19558,20.491,3.4545,0.05,7.282e-07,7.277,5.5917e-07,4.2014,1.1922e-12,9.2892e-06,-5.5917e-07,-4.2014,2.2384
19559,20.491,3.7273,0,7.7266e-05,772.13,2.9828e-05,52.359,2.2862e-05,0.021705,-7.6242e-05,-744.61,2.2383
19560,20.583,3.6364,0,7.5391e-05,753.39,2.9403e-05,54.739,2.212e-05,0.022905,-7.431e-05,-724.52,2.2535
19561,20.491,3.6364,0.05,7.28e-07,7.275,5.5901e-07,4.2002,1.2971e-12,1.1493e-05,-5.5902e-07,-4.2002,2.2383
19562,20.491,3.9091,0,7.7177e-05,771.23,2.9679e-05,50.908,2.2907e-05,0.020461,-7.6184e-05,-744.51,2.2382
19563,20.583,3.8182,0,7.5303e-05,752.51,2.9261e-05,53.368,2.2161e-05,0.021811,-7.4253e-05,-724.4,2.2534
19564,20.491,3.8182,0.05,7.2774e-07,7.2724,5.5881e-07,4.1987,2.0783e-12,1.3588e-05,-5.5881e-07,-4.1987,2.2382
19565,20.491,4.0909,0,7.7073e-05,770.19,2.9504e-05,49.181,2.2961e-05,0.018861,-7.6118e-05,-744.42,2.2381
19566,20.583,4,0,7.5198e-05,751.46,2.909e-05,51.693,2.2212e-05,0.020376,-7.4185e-05,-724.27,2.2533
19567,20.491,4,0.05,7.2741e-07,7.2691,5.5856e-07,4.1968,1.9246e-12,1.3299e-05,-5.5856e-07,-4.1968,2.2381
19568,20.491,4.2727,0,7.6958e-05,769.04,2.9303e-05,47.203,2.3023e-05,0.016855,-7.6045e-05,-744.35,2.238
19569,20.583,4.1818,0,7.5079e-05,750.27,2.889e-05,49.738,2.2273e-05,0.018555,-7.4109e-05,-724.15,2.2532
19570,20.491,4.1818,0.05,7.2703e-07,7.2653,5.5827e-07,4.1946,2.2244e-12,1.3386e-05,-5.5827e-07,-4.1946,2.238
19571,20.491,4.4545,0,7.6836e-05,767.83,2.9083e-05,45.01,2.3095e-05,0.014376,-7.5971e-05,-744.32,2.2378
19572,20.583,4.3636,0,7.4949e-05,748.98,2.8667e-05,47.535,2.2343e-05,0.016287,-7.4027e-05,-724.07,2.2531
19573,20.491,4.3636,0.05,7.2659e-07,7.2609,5.5793e-07,4.1921,2.5031e-12,1.61e-05,-5.5794e-07,-4.1921,2.2379
19574,20.491,4.6364,0,7.6712e-05,766.59,2.8848e-05,42.638,2.3174e-05,0.011346,-7.5897e-05,-744.37,2.2377
19575,20.583,4.5455,0,7.4814e-05,747.63,2.8425e-05,45.121,2.2421e-05,0.013485,-7.3944e-05,-724.04,2.2529
19576,20.491,4.5455,0.05,7.2611e-07,7.256,5.5756e-07,4.1893,2.5163e-12,1.4469e-05,-5.5756e-07,-4.1893,2.2377
19577,20.491,4.8182,0,7.6591e-05,765.38,2.8602e-05,40.132,2.3262e-05,0.0076398,-7.5829e-05,-744.52,2.2375
19578,20.583,4.7273,0,7.4679e-05,746.27,2.8168e-05,42.54,2.2508e-05,0.010075,-7.3864e-05,-724.09,2.2527
19579,20.491,4.7273,0.05,7.2557e-07,7.2507,5.5714e-07,4.1862,2.5265e-12,1.5545e-05,-5.5715e-07,-4.1862,2.2376
19580,20.491,5,0,7.6479e-05,764.27,2.8352e-05,37.54,2.3356e-05,0.0032371,-7.5772e-05,-744.8,2.2373
19581,20.583,4.9091,0,7.4549e-05,744.98,2.7903e-05,39.84,2.2602e-05,0.0058667,-7.3791e-05,-724.26,2.2526
19582,20.491,4.9091,0.05,7.2498e-07,7.2448,5.5669e-07,4.1828,2.9545e-12,1.5608e-05,-5.567e-07,-4.1828,2.2374
19583,20.491,5.1818,0,7.6384e-05,763.31,2.8105e-05,34.917,2.3457e-05,-0.0024168,-7.573e-05,-745.26,2.2371
19584,20.583,5.0909,0,7.4432e-05,743.8,2.7637e-05,37.074,2.2703e-05,0.00098911,-7.3732e-05,-724.57,2.2523
19585,20.491,5.0909,0.05,7.2433e-07,7.2383,5.562e-07,4.179,2.9357e-12,1.2744e-05,-5.562e-07,-4.1791,2.2371
19586,20.491,5.3636,0,7.6312e-05,762.59,2.7867e-05,32.324,2.3564e-05,-0.0078256,-7.5711e-05,-745.92,2.2368
19587,20.583,5.2727,0,7.4334e-05,742.83,2.7377e-05,34.302,2.2811e-05,-0.0058419,-7.3691e-05,-725.08,2.2521
19588,20.491,5.2727,0.05,7.2349e-07,7.2299,5.5555e-07,4.1742,3.0636e-12,1.3587e-05,-5.5556e-07,-4.1742,2.2369
19589,20.491,5.5455,0,7.6282e-05,762.29,2.7657e-05,29.886,2.3676e-05,-0.022369,-7.573e-05,-746.92,2.2366
19590,20.583,5.4545,0,7.4265e-05,742.13,2.7131e-05,31.596,2.2925e-05,-0.010266,-7.3677e-05,-725.84,2.2519
19591,20.491,5.4545,0.05,7.2029e-07,7.1979,5.5309e-07,4.1557,2.9637e-12,1.1811e-05,-5.531e-07,-4.1557,2.2367
19592,20.491,5.7273,0,7.6492e-05,764.39,2.7645e-05,28.904,2.3795e-05,-0.02104,-7.5959e-05,-749.54,2.2363
19593,20.583,5.6364,0,7.4253e-05,742.02,2.6927e-05,29.148,2.3042e-05,-0.035737,-7.3715e-05,-727.03,2.2516
19594,20.491,5.6364,0.05,6.8151e-07,6.8104,5.2331e-07,3.932,2.5725e-12,1.1755e-05,-5.2332e-07,-3.932,2.2364
19595,20.583,5.8182,0,7.469e-05,746.38,2.7099e-05,29.508,2.3171e-05,-0.0019409,-7.4144e-05,-731.19,2.2513
19596,20.491,5.8182,0.05,1.2144e-07,1.2136,9.3253e-08,0.70065,5.6007e-13,-6.9185e-06,-9.3254e-08,-0.70069,2.2361
19597,20.491,5.9091,0,7.539e-05,753.38,2.6498e-05,19.448,2.3908e-05,-0.0081837,-7.504e-05,-743.47,2.236
19598,20.675,0.27273,0,7.2418e-05,723.68,2.6352e-05,29.54,2.2418e-05,-0.022703,-7.1871e-05,-708.47,2.2667
19599,20.768,0.18182,0,7.0617e-05,705.68,2.5796e-05,30.021,2.18e-05,-0.0027469,-7.0058e-05,-690.19,2.2818
19600,20.675,0.18182,0.05,1.3328e-07,1.3318,1.0234e-07,0.76897,1.3438e-12,2.3949e-05,-1.0234e-07,-0.76892,2.2665
19601,20.675,0.090909,0,7.1293e-05,712.44,2.5174e-05,19.796,2.2539e-05,-0.0083543,-7.0936e-05,-702.34,2.2664
19602,20.675,0.45455,0,7.2226e-05,721.76,2.6392e-05,30.789,2.2291e-05,-0.023627,-7.1653e-05,-705.88,2.267
19603,20.768,0.36364,0,7.0195e-05,701.47,2.5651e-05,29.923,2.1663e-05,-0.038015,-6.9639e-05,-686.05,2.2821
19604,20.675,0.36364,0.05,6.8047e-07,6.8,5.2252e-07,3.926,-9.7462e-13,8.1345e-06,-5.2251e-07,-3.926,2.2668
19605,20.675,0.63636,0,7.2278e-05,722.28,2.6633e-05,33.516,2.2172e-05,-0.0079839,-7.1649e-05,-704.94,2.2672
19606,20.768,0.54545,0,7.0229e-05,701.8,2.5887e-05,32.669,2.1537e-05,-0.010641,-6.9616e-05,-684.9,2.2823
19607,20.675,0.54545,0.05,7.1846e-07,7.1797,5.5169e-07,4.1452,-1.595e-12,6.091e-06,-5.5169e-07,-4.1451,2.2671
19608,20.675,0.81818,0,7.2373e-05,723.23,2.6902e-05,36.404,2.2057e-05,-0.0021617,-7.1685e-05,-704.35,2.2674
19609,20.768,0.72727,0,7.0322e-05,702.74,2.6166e-05,35.684,2.1416e-05,-0.0058067,-6.9647e-05,-684.22,2.2825
19610,20.675,0.72727,0.05,7.2169e-07,7.2119,5.5417e-07,4.1638,-1.7289e-12,4.2974e-06,-5.5416e-07,-4.1638,2.2673
19611,20.675,1,0,7.2494e-05,724.44,2.7182e-05,39.321,2.1949e-05,0.0038547,-7.1745e-05,-703.97,2.2676
19612,20.768,0.90909,0,7.0446e-05,703.97,2.646e-05,38.767,2.1301e-05,0.0014988,-6.9706e-05,-683.79,2.2828
19613,20.675,0.90909,0.05,7.226e-07,7.221,5.5487e-07,4.1691,-1.5511e-12,2.2162e-06,-5.5487e-07,-4.169,2.2675
19614,20.675,1.1818,0,7.263e-05,725.8,2.7463e-05,42.199,2.1848e-05,0.0085031,-7.182e-05,-703.77,2.2678
19615,20.768,1.0909,0,7.0589e-05,705.41,2.6759e-05,41.838,2.1192e-05,0.0066723,-6.9784e-05,-683.55,2.283
19616,20.675,1.0909,0.05,7.2333e-07,7.2283,5.5543e-07,4.1733,-1.3845e-12,2.1558e-06,-5.5542e-07,-4.1732,2.2677
19617,20.675,1.3636,0,7.2775e-05,727.25,2.7739e-05,44.978,2.1754e-05,0.01239,-7.1905e-05,-703.71,2.268
19618,20.768,1.2727,0,7.0745e-05,706.96,2.7056e-05,44.832,2.1091e-05,0.011104,-6.9876e-05,-683.47,2.2831
19619,20.675,1.2727,0.05,7.2399e-07,7.2349,5.5593e-07,4.1771,-1.3804e-12,2.7052e-06,-5.5593e-07,-4.177,2.2679
19620,20.675,1.5455,0,7.2922e-05,728.71,2.8003e-05,47.603,2.1669e-05,0.015549,-7.1995e-05,-703.74,2.2682
19621,20.768,1.4545,0,7.0905e-05,708.56,2.7343e-05,47.689,2.0998e-05,0.014672,-6.9973e-05,-683.51,2.2833
19622,20.675,1.4545,0.05,7.246e-07,7.241,5.564e-07,4.1806,-1.3627e-12,2.4503e-06,-5.564e-07,-4.1806,2.2681
19623,20.675,1.7273,0,7.3065e-05,730.14,2.8248e-05,50.028,2.1592e-05,0.018122,-7.2085e-05,-703.84,2.2683
19624,20.768,1.6364,0,7.1064e-05,710.15,2.7614e-05,50.357,2.0914e-05,0.017585,-7.0073e-05,-683.62,2.2834
19625,20.675,1.6364,0.05,7.2516e-07,7.2466,5.5683e-07,4.1838,-1.1242e-12,3.6088e-06,-5.5683e-07,-4.1838,2.2682
19626,20.675,1.9091,0,7.3199e-05,731.48,2.8471e-05,52.211,2.1525e-05,0.020193,-7.2171e-05,-703.97,2.2684
19627,20.768,1.8182,0,7.1214e-05,711.65,2.7862e-05,52.788,2.0839e-05,0.019938,-7.0169e-05,-683.78,2.2836
19628,20.675,1.8182,0.05,7.2566e-07,7.2516,5.5722e-07,4.1867,-8.4301e-13,3.4587e-06,-5.5721e-07,-4.1867,2.2684
19629,20.675,2.0909,0,7.332e-05,732.69,2.8667e-05,54.116,2.1467e-05,0.021838,-7.2249e-05,-704.12,2.2686
19630,20.768,2,0,7.1352e-05,713.03,2.8083e-05,54.942,2.0774e-05,0.021811,-7.0258e-05,-683.96,2.2837
19631,20.675,2,0.05,7.261e-07,7.2559,5.5755e-07,4.1892,-5.6231e-13,4.4425e-06,-5.5755e-07,-4.1892,2.2685
19632,20.675,2.2727,0,7.3423e-05,733.72,2.8831e-05,55.713,2.1419e-05,0.023117,-7.2316e-05,-704.27,2.2686
19633,20.768,2.1818,0,7.1473e-05,714.24,2.8274e-05,56.786,2.0719e-05,0.023285,-7.0337e-05,-684.14,2.2838
19634,20.675,2.1818,0.05,7.2647e-07,7.2597,5.5784e-07,4.1914,-7.1258e-13,4.9476e-06,-5.5784e-07,-4.1914,2.2686
19635,20.675,2.4545,0,7.3507e-05,734.56,2.8962e-05,56.98,2.1382e-05,0.024068,-7.2371e-05,-704.4,2.2687
19636,20.768,2.3636,0,7.1574e-05,715.24,2.843e-05,58.293,2.0675e-05,0.024406,-7.0403e-05,-684.3,2.2839
19637,20.675,2.3636,0.05,7.2677e-07,7.2627,5.5807e-07,4.1931,-1.6443e-13,6.1049e-06,-5.5807e-07,-4.1931,2.2687
19638,20.675,2.6364,0,7.3568e-05,735.17,2.9057e-05,57.897,2.1355e-05,0.024724,-7.2411e-05,-704.5,2.2688
19639,20.768,2.5455,0,7.1651e-05,716.02,2.8549e-05,59.441,2.0642e-05,0.025215,-7.0455e-05,-684.44,2.2839
19640,20.675,2.5455,0.05,7.27e-07,7.265,5.5825e-07,4.1945,-6.1346e-14,6.9011e-06,-5.5825e-07,-4.1945,2.2687
19641,20.675,2.8182,0,7.3605e-05,735.54,2.9115e-05,58.452,2.1339e-05,0.02511,-7.2436e-05,-704.56,2.2688
19642,20.768,2.7273,0,7.1704e-05,716.55,2.863e-05,60.215,2.0619e-05,0.025738,-7.049e-05,-684.53,2.284
19643,20.675,2.7273,0.05,7.2716e-07,7.2666,5.5837e-07,4.1954,2.7665e-13,6.7721e-06,-5.5837e-07,-4.1953,2.2688
19644,20.675,3,0,7.3618e-05,735.67,2.9134e-05,58.638,2.1333e-05,0.025236,-7.2444e-05,-704.59,2.2688
19645,20.768,2.9091,0,7.1731e-05,716.82,2.867e-05,60.605,2.0608e-05,0.025996,-7.0507e-05,-684.58,2.284
19646,20.675,2.9091,0.05,7.2724e-07,7.2674,5.5843e-07,4.1958,8.4939e-13,9.085e-06,-5.5843e-07,-4.1958,2.2688
19647,20.675,3.1818,0,7.3605e-05,735.54,2.9115e-05,58.452,2.1339e-05,0.025109,-7.2436e-05,-704.56,2.2688
19648,20.768,3.0909,0,7.1731e-05,716.82,2.867e-05,60.605,2.0608e-05,0.025995,-7.0507e-05,-684.58,2.284
19649,20.675,3.0909,0.05,7.2724e-07,7.2674,5.5843e-07,4.1958,9.6988e-13,8.5599e-06,-5.5843e-07,-4.1958,2.2688
19650,20.675,3.3636,0,7.3568e-05,735.17,2.9057e-05,57.897,2.1355e-05,0.024724,-7.2411e-05,-704.5,2.2688
19651,20.768,3.2727,0,7.1704e-05,716.55,2.863e-05,60.215,2.0619e-05,0.025738,-7.049e-05,-684.53,2.284
19652,20.675,3.2727,0.05,7.2716e-07,7.2666,5.5837e-07,4.1954,1.09e-12,1.0889e-05,-5.5837e-07,-4.1954,2.2688
19653,20.675,3.5455,0,7.3507e-05,734.56,2.8962e-05,56.98,2.1382e-05,0.024066,-7.2371e-05,-704.4,2.2687
19654,20.768,3.4545,0,7.1651e-05,716.02,2.8549e-05,59.441,2.0642e-05,0.025213,-7.0455e-05,-684.44,2.2839
19655,20.675,3.4545,0.05,7.27e-07,7.265,5.5825e-07,4.1945,1.2028e-12,1.1745e-05,-5.5825e-07,-4.1945,2.2687
19656,20.675,3.7273,0,7.3423e-05,733.72,2.8831e-05,55.713,2.1419e-05,0.023116,-7.2316e-05,-704.27,2.2686
19657,20.768,3.6364,0,7.1574e-05,715.24,2.843e-05,58.293,2.0675e-05,0.024405,-7.0403e-05,-684.3,2.2839
19658,20.675,3.6364,0.05,7.2677e-07,7.2627,5.5807e-07,4.1931,1.5408e-12,1.3989e-05,-5.5807e-07,-4.1931,2.2687
19659,20.675,3.9091,0,7.332e-05,732.69,2.8667e-05,54.116,2.1467e-05,0.021839,-7.2249e-05,-704.12,2.2686
19660,20.768,3.8182,0,7.1473e-05,714.24,2.8274e-05,56.786,2.0719e-05,0.023285,-7.0337e-05,-684.14,2.2838
19661,20.675,3.8182,0.05,7.2647e-07,7.2597,5.5784e-07,4.1914,1.8704e-12,1.5712e-05,-5.5784e-07,-4.1914,2.2686
19662,20.675,4.0909,0,7.3199e-05,731.48,2.8471e-05,52.211,2.1525e-05,0.020193,-7.2171e-05,-703.97,2.2684
19663,20.768,4,0,7.1352e-05,713.03,2.8083e-05,54.942,2.0774e-05,0.021811,-7.0258e-05,-683.96,2.2837
19664,20.675,4,0.05,7.261e-07,7.2559,5.5755e-07,4.1892,2.1724e-12,1.5843e-05,-5.5755e-07,-4.1892,2.2685
19665,20.675,4.2727,0,7.3065e-05,730.14,2.8248e-05,50.028,2.1592e-05,0.018122,-7.2085e-05,-703.84,2.2683
19666,20.768,4.1818,0,7.1214e-05,711.65,2.7862e-05,52.788,2.0839e-05,0.019938,-7.0169e-05,-683.78,2.2836
19667,20.675,4.1818,0.05,7.2566e-07,7.2516,5.5721e-07,4.1867,2.0208e-12,1.5835e-05,-5.5722e-07,-4.1867,2.2684
19668,20.675,4.4545,0,7.2922e-05,728.71,2.8003e-05,47.603,2.1669e-05,0.015549,-7.1995e-05,-703.74,2.2682
19669,20.768,4.3636,0,7.1064e-05,710.15,2.7614e-05,50.357,2.0914e-05,0.017586,-7.0073e-05,-683.62,2.2834
19670,20.675,4.3636,0.05,7.2516e-07,7.2466,5.5683e-07,4.1838,2.753e-12,1.761e-05,-5.5683e-07,-4.1838,2.2682
19671,20.675,4.6364,0,7.2775e-05,727.25,2.7739e-05,44.978,2.1754e-05,0.012389,-7.1905e-05,-703.71,2.268
19672,20.768,4.5455,0,7.0905e-05,708.56,2.7343e-05,47.69,2.0998e-05,0.01467,-6.9973e-05,-683.51,2.2833
19673,20.675,4.5455,0.05,7.246e-07,7.241,5.564e-07,4.1806,2.5159e-12,1.6422e-05,-5.564e-07,-4.1806,2.2681
19674,20.675,4.8182,0,7.263e-05,725.8,2.7463e-05,42.199,2.1848e-05,0.0085033,-7.182e-05,-703.77,2.2678
19675,20.768,4.7273,0,7.0745e-05,706.96,2.7056e-05,44.832,2.1091e-05,0.011104,-6.9876e-05,-683.47,2.2831
19676,20.675,4.7273,0.05,7.2399e-07,7.2349,5.5593e-07,4.177,2.5483e-12,1.7464e-05,-5.5593e-07,-4.1771,2.2679
19677,20.675,5,0,7.2494e-05,724.44,2.7182e-05,39.321,2.1949e-05,0.0038535,-7.1745e-05,-703.97,2.2676
19678,20.768,4.9091,0,7.0589e-05,705.41,2.6759e-05,41.838,2.1192e-05,0.0066714,-6.9784e-05,-683.55,2.283
19679,20.675,4.9091,0.05,7.2333e-07,7.2283,5.5542e-07,4.1732,2.7395e-12,1.7489e-05,-5.5543e-07,-4.1733,2.2677
19680,20.675,5.1818,0,7.2373e-05,723.23,2.6902e-05,36.404,2.2057e-05,-0.0021639,-7.1685e-05,-704.35,2.2674
19681,20.768,5.0909,0,7.0446e-05,703.97,2.646e-05,38.767,2.1301e-05,0.0014975,-6.9706e-05,-683.79,2.2828
19682,20.675,5.0909,0.05,7.226e-07,7.221,5.5487e-07,4.1691,2.9109e-12,1.5732e-05,-5.5487e-07,-4.1691,2.2675
19683,20.675,5.3636,0,7.2278e-05,722.28,2.6633e-05,33.516,2.2172e-05,-0.0079837,-7.1649e-05,-704.94,2.2672
19684,20.768,5.2727,0,7.0322e-05,702.74,2.6166e-05,35.684,2.1416e-05,-0.0058089,-6.9647e-05,-684.22,2.2825
19685,20.675,5.2727,0.05,7.2169e-07,7.2119,5.5417e-07,4.1638,2.8496e-12,1.6631e-05,-5.5417e-07,-4.1638,2.2673
19686,20.675,5.5455,0,7.2226e-05,721.76,2.6392e-05,30.789,2.2291e-05,-0.023625,-7.1653e-05,-705.88,2.267
19687,20.768,5.4545,0,7.0229e-05,701.8,2.5887e-05,32.669,2.1537e-05,-0.01064,-6.9616e-05,-684.9,2.2823
19688,20.675,5.4545,0.05,7.1846e-07,7.1797,5.5169e-07,4.1452,2.5517e-12,1.5595e-05,-5.5169e-07,-4.1452,2.2671
19689,20.675,5.7273,0,7.2418e-05,723.68,2.6352e-05,29.54,2.2418e-05,-0.022704,-7.1871e-05,-708.47,2.2667
19690,20.768,5.6364,0,7.0195e-05,701.47,2.5651e-05,29.923,2.1663e-05,-0.038014,-6.9639e-05,-686.05,2.2821
19691,20.675,5.6364,0.05,6.8047e-07,6.8,5.2251e-07,3.926,3.045e-12,1.5447e-05,-5.2252e-07,-3.926,2.2668
19692,20.768,5.8182,0,7.0617e-05,705.68,2.5796e-05,30.021,2.18e-05,-0.0027461,-7.0058e-05,-690.19,2.2818
19693,20.675,5.8182,0.05,1.3328e-07,1.3318,1.0234e-07,0.76893,9.6611e-13,-2.2934e-06,-1.0234e-07,-0.76895,2.2665
19694,20.675,5.9091,0,7.1293e-05,712.44,2.5174e-05,19.796,2.2539e-05,-0.0083514,-7.0936e-05,-702.34,2.2664
19695,20.86,0.27273,0,6.836e-05,683.13,2.5066e-05,30.186,2.1045e-05,-0.02458,-6.7797e-05,-667.54,2.2972
19696,20.952,0.18182,0,6.6558e-05,665.12,2.4498e-05,30.529,2.0434e-05,-0.0037513,-6.5986e-05,-649.33,2.3123
19697,20.86,0.18182,0.05,1.4617e-07,1.4607,1.1224e-07,0.84335,6.0946e-13,1.6555e-05,-1.1224e-07,-0.84332,2.297
19698,20.86,0.090909,0,6.7211e-05,671.65,2.3856e-05,20.144,2.1174e-05,-0.0084977,-6.6846e-05,-661.35,2.2969
19699,20.86,0.45455,0,6.8187e-05,681.4,2.5136e-05,31.732,2.091e-05,-0.024978,-6.7592e-05,-664.99,2.2974
19700,20.952,0.36364,0,6.6154e-05,661.08,2.4382e-05,30.726,2.0288e-05,-0.040502,-6.5578e-05,-645.2,2.3125
19701,20.86,0.36364,0.05,6.796e-07,6.7913,5.2185e-07,3.921,-1.1681e-12,4.629e-06,-5.2185e-07,-3.9209,2.2973
19702,20.86,0.63636,0,6.8264e-05,682.17,2.5411e-05,34.776,2.0782e-05,-0.0081164,-6.7606e-05,-664.12,2.2976
19703,20.952,0.54545,0,6.6212e-05,661.66,2.4653e-05,33.8,2.0153e-05,-0.011012,-6.5572e-05,-644.12,2.3128
19704,20.86,0.54545,0.05,7.1676e-07,7.1627,5.5039e-07,4.1354,-6.1495e-13,6.8195e-06,-5.5038e-07,-4.1354,2.2975
19705,20.86,0.81818,0,6.8386e-05,683.39,2.5716e-05,37.989,2.0659e-05,-0.0018368,-6.766e-05,-663.6,2.2979
19706,20.952,0.72727,0,6.6332e-05,662.87,2.4969e-05,37.154,2.0023e-05,-0.0057152,-6.5622e-05,-643.51,2.313
19707,20.86,0.72727,0.05,7.2002e-07,7.1952,5.5289e-07,4.1542,-1.2374e-12,2.81e-06,-5.5289e-07,-4.1542,2.2977
19708,20.86,1,0,6.8534e-05,684.86,2.603e-05,41.23,2.0543e-05,0.0045795,-6.7739e-05,-663.31,2.2981
19709,20.952,0.90909,0,6.6485e-05,664.39,2.53e-05,40.578,1.9899e-05,0.0021149,-6.5701e-05,-643.17,2.3132
19710,20.86,0.90909,0.05,7.2103e-07,7.2053,5.5366e-07,4.16,-1.5788e-12,-1.0366e-06,-5.5366e-07,-4.1599,2.298
19711,20.86,1.1818,0,6.8697e-05,686.5,2.6346e-05,44.421,2.0435e-05,0.0094963,-6.7834e-05,-663.21,2.2983
19712,20.952,1.0909,0,6.6657e-05,666.11,2.5636e-05,43.985,1.9783e-05,0.0076144,-6.58e-05,-643.03,2.3134
19713,20.86,1.0909,0.05,7.2184e-07,7.2134,5.5428e-07,4.1647,-1.5611e-12,-1.3124e-06,-5.5428e-07,-4.1646,2.2982
19714,20.86,1.3636,0,6.8869e-05,688.21,2.6654e-05,47.497,2.0335e-05,0.013578,-6.7938e-05,-663.23,2.2984
19715,20.952,1.2727,0,6.6842e-05,667.96,2.5968e-05,47.3,1.9674e-05,0.012289,-6.5911e-05,-643.04,2.3136
19716,20.86,1.2727,0.05,7.2259e-07,7.2209,5.5486e-07,4.169,-1.3672e-12,-1.1683e-07,-5.5486e-07,-4.169,2.2983
19717,20.86,1.5455,0,6.9041e-05,689.93,2.6948e-05,50.399,2.0243e-05,0.016875,-6.8045e-05,-663.35,2.2986
19718,20.952,1.4545,0,6.7029e-05,669.83,2.6288e-05,50.458,1.9575e-05,0.016025,-6.6028e-05,-643.17,2.3137
19719,20.86,1.4545,0.05,7.2329e-07,7.2279,5.554e-07,4.173,-9.1979e-13,-4.5143e-07,-5.5539e-07,-4.173,2.2985
19720,20.86,1.7273,0,6.9207e-05,691.6,2.7222e-05,53.075,2.0161e-05,0.019546,-6.8151e-05,-663.52,2.2987
19721,20.952,1.6364,0,6.7213e-05,671.67,2.6589e-05,53.401,1.9484e-05,0.019056,-6.6145e-05,-643.36,2.3139
19722,20.86,1.6364,0.05,7.2393e-07,7.2343,5.5589e-07,4.1767,-8.8985e-13,3.3147e-07,-5.5588e-07,-4.1767,2.2986
19723,20.86,1.9091,0,6.9362e-05,693.14,2.7469e-05,55.48,2.0088e-05,0.021686,-6.8251e-05,-663.73,2.2988
19724,20.952,1.8182,0,6.7387e-05,673.4,2.6864e-05,56.079,1.9404e-05,0.02149,-6.6257e-05,-643.6,2.314
19725,20.86,1.8182,0.05,7.245e-07,7.24,5.5633e-07,4.18,-6.2213e-13,-3.5084e-09,-5.5632e-07,-4.18,2.2988
19726,20.86,2.0909,0,6.9501e-05,694.53,2.7686e-05,57.576,2.0026e-05,0.023379,-6.8342e-05,-663.94,2.2989
19727,20.952,2,0,6.7545e-05,674.98,2.711e-05,58.447,1.9334e-05,0.023424,-6.636e-05,-643.84,2.3141
19728,20.86,2,0.05,7.2501e-07,7.2451,5.5672e-07,4.1829,-5.6234e-13,1.0709e-06,-5.5671e-07,-4.1829,2.2989
19729,20.86,2.2727,0,6.9619e-05,695.71,2.7868e-05,59.331,1.9975e-05,0.024688,-6.8419e-05,-664.13,2.299
19730,20.952,2.1818,0,6.7682e-05,676.36,2.732e-05,60.472,1.9275e-05,0.024937,-6.645e-05,-644.08,2.3142
19731,20.86,2.1818,0.05,7.2544e-07,7.2494,5.5705e-07,4.1854,-4.8496e-13,2.0888e-06,-5.5705e-07,-4.1854,2.299
19732,20.86,2.4545,0,6.9714e-05,696.66,2.8013e-05,60.721,1.9935e-05,0.025661,-6.8482e-05,-664.3,2.2991
19733,20.952,2.3636,0,6.7797e-05,677.5,2.7492e-05,62.124,1.9227e-05,0.026082,-6.6526e-05,-644.29,2.3143
19734,20.86,2.3636,0.05,7.2579e-07,7.2529,5.5732e-07,4.1875,-1.6613e-13,2.7452e-06,-5.5731e-07,-4.1874,2.299
19735,20.86,2.6364,0,6.9784e-05,697.36,2.8117e-05,61.727,1.9906e-05,0.026332,-6.8528e-05,-664.43,2.2991
19736,20.952,2.5455,0,6.7885e-05,678.38,2.7623e-05,63.382,1.9191e-05,0.026911,-6.6584e-05,-644.46,2.3143
19737,20.86,2.5455,0.05,7.2606e-07,7.2556,5.5752e-07,4.189,-6.4295e-14,4.0209e-06,-5.5752e-07,-4.189,2.2991
19738,20.86,2.8182,0,6.9826e-05,697.78,2.8181e-05,62.335,1.9888e-05,0.026726,-6.8556e-05,-664.51,2.2992
19739,20.952,2.7273,0,6.7945e-05,678.98,2.7712e-05,64.229,1.9167e-05,0.027445,-6.6624e-05,-644.57,2.3144
19740,20.86,2.7273,0.05,7.2624e-07,7.2574,5.5766e-07,4.19,2.7583e-13,3.9013e-06,-5.5766e-07,-4.19,2.2991
19741,20.86,3,0,6.9841e-05,697.92,2.8202e-05,62.539,1.9882e-05,0.026856,-6.8566e-05,-664.54,2.2992
19742,20.952,2.9091,0,6.7975e-05,679.28,2.7757e-05,64.656,1.9155e-05,0.027707,-6.6644e-05,-644.63,2.3144
19743,20.86,2.9091,0.05,7.2633e-07,7.2583,5.5773e-07,4.1906,3.9406e-13,6.2197e-06,-5.5773e-07,-4.1906,2.2992
19744,20.86,3.1818,0,6.9826e-05,697.78,2.8181e-05,62.335,1.9888e-05,0.026725,-6.8556e-05,-664.51,2.2992
19745,20.952,3.0909,0,6.7975e-05,679.28,2.7757e-05,64.656,1.9155e-05,0.027706,-6.6644e-05,-644.63,2.3144
19746,20.86,3.0909,0.05,7.2633e-07,7.2583,5.5773e-07,4.1906,5.1568e-13,6.6568e-06,-5.5773e-07,-4.1906,2.2992
19747,20.86,3.3636,0,6.9784e-05,697.36,2.8117e-05,61.727,1.9906e-05,0.026331,-6.8528e-05,-664.43,2.2991
19748,20.952,3.2727,0,6.7945e-05,678.98,2.7712e-05,64.229,1.9167e-05,0.027445,-6.6624e-05,-644.57,2.3144
19749,20.86,3.2727,0.05,7.2624e-07,7.2574,5.5766e-07,4.19,1.0905e-12,7.5624e-06,-5.5766e-07,-4.19,2.2991
19750,20.86,3.5455,0,6.9714e-05,696.66,2.8013e-05,60.721,1.9935e-05,0.025661,-6.8482e-05,-664.3,2.2991
19751,20.952,3.4545,0,6.7885e-05,678.38,2.7623e-05,63.382,1.9191e-05,0.026908,-6.6584e-05,-644.46,2.3143
19752,20.86,3.4545,0.05,7.2606e-07,7.2556,5.5752e-07,4.189,1.2057e-12,8.441e-06,-5.5752e-07,-4.189,2.2991
19753,20.86,3.7273,0,6.9619e-05,695.71,2.7868e-05,59.331,1.9975e-05,0.024689,-6.8419e-05,-664.13,2.299
19754,20.952,3.6364,0,6.7797e-05,677.5,2.7492e-05,62.124,1.9227e-05,0.026084,-6.6526e-05,-644.29,2.3143
19755,20.86,3.6364,0.05,7.2579e-07,7.2529,5.5732e-07,4.1874,1.543e-12,1.0662e-05,-5.5732e-07,-4.1875,2.299
19756,20.86,3.9091,0,6.9501e-05,694.53,2.7686e-05,57.576,2.0026e-05,0.023379,-6.8342e-05,-663.94,2.2989
19757,20.952,3.8182,0,6.7682e-05,676.36,2.732e-05,60.472,1.9275e-05,0.024937,-6.645e-05,-644.08,2.3142
19758,20.86,3.8182,0.05,7.2544e-07,7.2494,5.5704e-07,4.1854,1.8667e-12,1.2871e-05,-5.5705e-07,-4.1854,2.299
19759,20.86,4.0909,0,6.9362e-05,693.14,2.7469e-05,55.48,2.0088e-05,0.021686,-6.8251e-05,-663.73,2.2988
19760,20.952,4,0,6.7545e-05,674.98,2.711e-05,58.447,1.9334e-05,0.023424,-6.636e-05,-643.84,2.3141
19761,20.86,4,0.05,7.2501e-07,7.2451,5.5671e-07,4.1829,2.178e-12,1.2554e-05,-5.5672e-07,-4.1829,2.2989
19762,20.86,4.2727,0,6.9207e-05,691.6,2.7222e-05,53.075,2.0161e-05,0.019546,-6.8151e-05,-663.52,2.2987
19763,20.952,4.1818,0,6.7387e-05,673.4,2.6864e-05,56.079,1.9404e-05,0.02149,-6.6257e-05,-643.6,2.314
19764,20.86,4.1818,0.05,7.245e-07,7.24,5.5632e-07,4.18,2.0103e-12,1.2502e-05,-5.5633e-07,-4.18,2.2988
19765,20.86,4.4545,0,6.9041e-05,689.93,2.6948e-05,50.4,2.0243e-05,0.016874,-6.8045e-05,-663.35,2.2986
19766,20.952,4.3636,0,6.7213e-05,671.67,2.6589e-05,53.401,1.9484e-05,0.019055,-6.6145e-05,-643.36,2.3139
19767,20.86,4.3636,0.05,7.2393e-07,7.2343,5.5588e-07,4.1767,2.7547e-12,1.4724e-05,-5.5589e-07,-4.1767,2.2986
19768,20.86,4.6364,0,6.8869e-05,688.21,2.6654e-05,47.497,2.0335e-05,0.013577,-6.7938e-05,-663.23,2.2984
19769,20.952,4.5455,0,6.7029e-05,669.83,2.6288e-05,50.458,1.9575e-05,0.016024,-6.6028e-05,-643.17,2.3137
19770,20.86,4.5455,0.05,7.2329e-07,7.2279,5.5539e-07,4.173,2.5382e-12,1.3607e-05,-5.554e-07,-4.173,2.2985
19771,20.86,4.8182,0,6.8697e-05,686.5,2.6346e-05,44.421,2.0435e-05,0.0094957,-6.7834e-05,-663.21,2.2983
19772,20.952,4.7273,0,6.6842e-05,667.96,2.5968e-05,47.3,1.9674e-05,0.012287,-6.5911e-05,-643.04,2.3136
19773,20.86,4.7273,0.05,7.2259e-07,7.2209,5.5486e-07,4.169,2.7669e-12,1.572e-05,-5.5486e-07,-4.169,2.2983
19774,20.86,5,0,6.8534e-05,684.86,2.603e-05,41.23,2.0543e-05,0.0045784,-6.7739e-05,-663.31,2.2981
19775,20.952,4.9091,0,6.6657e-05,666.11,2.5636e-05,43.985,1.9783e-05,0.0076147,-6.58e-05,-643.03,2.3134
19776,20.86,4.9091,0.05,7.2184e-07,7.2134,5.5428e-07,4.1646,2.4931e-12,1.5004e-05,-5.5428e-07,-4.1647,2.2982
19777,20.86,5.1818,0,6.8386e-05,683.39,2.5716e-05,37.99,2.0659e-05,-0.0018382,-6.766e-05,-663.6,2.2979
19778,20.952,5.0909,0,6.6485e-05,664.39,2.53e-05,40.578,1.9899e-05,0.0021152,-6.5701e-05,-643.17,2.3132
19779,20.86,5.0909,0.05,7.2103e-07,7.2053,5.5366e-07,4.16,2.454e-12,1.2708e-05,-5.5366e-07,-4.16,2.298
19780,20.86,5.3636,0,6.8264e-05,682.17,2.5411e-05,34.776,2.0782e-05,-0.0081179,-6.7606e-05,-664.12,2.2976
19781,20.952,5.2727,0,6.6332e-05,662.87,2.4969e-05,37.154,2.0023e-05,-0.0057171,-6.5622e-05,-643.51,2.313
19782,20.86,5.2727,0.05,7.2002e-07,7.1952,5.5289e-07,4.1541,2.8228e-12,1.3666e-05,-5.5289e-07,-4.1542,2.2977
19783,20.86,5.5455,0,6.8187e-05,681.4,2.5136e-05,31.732,2.091e-05,-0.024979,-6.7592e-05,-664.99,2.2974
19784,20.952,5.4545,0,6.6212e-05,661.66,2.4653e-05,33.8,2.0153e-05,-0.011013,-6.5572e-05,-644.12,2.3128
19785,20.86,5.4545,0.05,7.1676e-07,7.1627,5.5038e-07,4.1354,2.6988e-12,1.282e-05,-5.5039e-07,-4.1354,2.2975
19786,20.86,5.7273,0,6.836e-05,683.13,2.5066e-05,30.186,2.1045e-05,-0.024578,-6.7797e-05,-667.54,2.2972
19787,20.952,5.6364,0,6.6154e-05,661.08,2.4382e-05,30.726,2.0288e-05,-0.0405,-6.5578e-05,-645.2,2.3125
19788,20.86,5.6364,0.05,6.796e-07,6.7913,5.2185e-07,3.9209,2.5095e-12,1.4284e-05,-5.2185e-07,-3.921,2.2973
19789,20.952,5.8182,0,6.6558e-05,665.12,2.4498e-05,30.529,2.0434e-05,-0.0037492,-6.5986e-05,-649.33,2.3123
19790,20.86,5.8182,0.05,1.4617e-07,1.4607,1.1224e-07,0.84332,1.9612e-13,-5.0896e-06,-1.1224e-07,-0.84334,2.297
19791,20.86,5.9091,0,6.7211e-05,671.65,2.3856e-05,20.144,2.1174e-05,-0.0084944,-6.6846e-05,-661.35,2.2969
19792,21.045,0.27273,0,6.4317e-05,642.72,2.3785e-05,30.843,1.9676e-05,-0.026697,-6.3737e-05,-626.76,2.3277
19793,21.137,0.18182,0,6.2512e-05,624.69,2.3203e-05,31.03,1.9073e-05,-0.0049964,-6.1927e-05,-608.6,2.3428
19794,21.045,0.18182,0.05,1.602e-07,1.6009,1.2301e-07,0.92427,-2.7749e-13,8.4627e-06,-1.2301e-07,-0.92424,2.3275
19795,21.045,0.090909,0,6.3144e-05,631.01,2.2542e-05,20.49,1.9814e-05,-0.0085893,-6.2771e-05,-620.52,2.3274
19796,21.045,0.45455,0,6.4167e-05,641.22,2.3889e-05,32.718,1.9531e-05,-0.026433,-6.3548e-05,-624.25,2.3279
19797,21.137,0.36364,0,6.2129e-05,620.86,2.3121e-05,31.555,1.8916e-05,-0.043216,-6.1533e-05,-604.5,2.343
19798,21.045,0.36364,0.05,6.7891e-07,6.7844,5.2132e-07,3.917,-7.5025e-13,5.6606e-06,-5.2132e-07,-3.917,2.3278
19799,21.045,0.63636,0,6.427e-05,642.26,2.4202e-05,36.112,1.9395e-05,-0.0082064,-6.358e-05,-623.45,2.3281
19800,21.137,0.54545,0,6.2214e-05,621.71,2.343e-05,34.991,1.8772e-05,-0.011366,-6.1545e-05,-603.48,2.3433
19801,21.045,0.54545,0.05,7.152e-07,7.1471,5.4919e-07,4.1264,-1.1712e-12,1.3405e-06,-5.4918e-07,-4.1263,2.328
19802,21.045,0.81818,0,6.4422e-05,643.78,2.4545e-05,39.683,1.9263e-05,-0.001411,-6.3655e-05,-623.02,2.3283
19803,21.137,0.72727,0,6.2365e-05,623.22,2.3786e-05,38.72,1.8632e-05,-0.0055397,-6.1616e-05,-602.96,2.3435
19804,21.045,0.72727,0.05,7.185e-07,7.1801,5.5172e-07,4.1454,-9.6631e-13,7.9617e-07,-5.5172e-07,-4.1454,2.3282
19805,21.045,1,0,6.46e-05,645.56,2.4898e-05,43.278,1.9139e-05,0.0054454,-6.3755e-05,-622.83,2.3285
19806,21.137,0.90909,0,6.2549e-05,625.06,2.4158e-05,42.521,1.8499e-05,0.0028732,-6.1717e-05,-602.72,2.3437
19807,21.045,0.90909,0.05,7.1961e-07,7.1912,5.5257e-07,4.1518,-9.9376e-13,-1.5313e-06,-5.5257e-07,-4.1518,2.3284
19808,21.045,1.1818,0,6.4795e-05,647.5,2.5251e-05,46.813,1.9022e-05,0.010656,-6.3871e-05,-622.82,2.3287
19809,21.137,1.0909,0,6.2755e-05,627.11,2.4535e-05,46.295,1.8374e-05,0.0087284,-6.1839e-05,-602.68,2.3439
19810,21.045,1.0909,0.05,7.2053e-07,7.2004,5.5328e-07,4.1571,-1.3419e-12,-4.2526e-06,-5.5328e-07,-4.1571,2.3286
19811,21.045,1.3636,0,6.4996e-05,649.51,2.5595e-05,50.214,1.8914e-05,0.014948,-6.3995e-05,-622.94,2.3289
19812,21.137,1.2727,0,6.2971e-05,629.27,2.4905e-05,49.962,1.8257e-05,0.013665,-6.1972e-05,-602.8,2.3441
19813,21.045,1.2727,0.05,7.2139e-07,7.2089,5.5394e-07,4.1621,-9.51e-13,-1.9374e-06,-5.5394e-07,-4.1621,2.3288
19814,21.045,1.5455,0,6.5195e-05,651.5,2.5923e-05,53.417,1.8816e-05,0.018389,-6.4122e-05,-623.14,2.329
19815,21.137,1.4545,0,6.3188e-05,631.45,2.5261e-05,53.448,1.815e-05,0.017581,-6.2109e-05,-603.02,2.3442
19816,21.045,1.4545,0.05,7.2219e-07,7.2169,5.5455e-07,4.1667,-1.1945e-12,-2.5336e-06,-5.5455e-07,-4.1667,2.3289
19817,21.045,1.7273,0,6.5387e-05,653.42,2.6226e-05,56.364,1.8727e-05,0.021162,-6.4245e-05,-623.4,2.3292
19818,21.137,1.6364,0,6.34e-05,633.56,2.5595e-05,56.689,1.8053e-05,0.020737,-6.2245e-05,-603.3,2.3443
19819,21.045,1.6364,0.05,7.2292e-07,7.2242,5.5512e-07,4.1709,-7.249e-13,-2.5246e-06,-5.5511e-07,-4.1709,2.3291
19820,21.045,1.9091,0,6.5564e-05,655.19,2.65e-05,59.008,1.8649e-05,0.023374,-6.436e-05,-623.68,2.3293
19821,21.137,1.8182,0,6.3598e-05,635.54,2.59e-05,59.631,1.7966e-05,0.023257,-6.2373e-05,-603.62,2.3445
19822,21.045,1.8182,0.05,7.2359e-07,7.2309,5.5562e-07,4.1748,-1.1314e-12,-2.5771e-06,-5.5562e-07,-4.1747,2.3292
19823,21.045,2.0909,0,6.5722e-05,656.77,2.6739e-05,61.308,1.8583e-05,0.025116,-6.4464e-05,-623.95,2.3294
19824,21.137,2,0,6.3778e-05,637.34,2.617e-05,62.23,1.7891e-05,0.025252,-6.2491e-05,-603.93,2.3446
19825,21.045,2,0.05,7.2417e-07,7.2367,5.5607e-07,4.1781,-6.0513e-13,-2.0978e-06,-5.5607e-07,-4.1781,2.3293
19826,21.045,2.2727,0,6.5856e-05,658.11,2.6939e-05,63.231,1.8527e-05,0.026456,-6.4552e-05,-624.2,2.3295
19827,21.137,2.1818,0,6.3934e-05,638.9,2.6401e-05,64.447,1.7828e-05,0.026803,-6.2593e-05,-604.22,2.3447
19828,21.045,2.1818,0.05,7.2467e-07,7.2417,5.5646e-07,4.181,-5.1899e-13,-9.8777e-08,-5.5646e-07,-4.181,2.3294
19829,21.045,2.4545,0,6.5964e-05,659.19,2.7099e-05,64.753,1.8484e-05,0.027451,-6.4623e-05,-624.41,2.3295
19830,21.137,2.3636,0,6.4063e-05,640.19,2.6591e-05,66.254,1.7776e-05,0.027977,-6.2678e-05,-604.48,2.3447
19831,21.045,2.3636,0.05,7.2508e-07,7.2458,5.5677e-07,4.1834,2.619e-13,6.5162e-07,-5.5677e-07,-4.1833,2.3295
19832,21.045,2.6364,0,6.6043e-05,659.97,2.7214e-05,65.853,1.8453e-05,0.028137,-6.4675e-05,-624.57,2.3296
19833,21.137,2.5455,0,6.4163e-05,641.18,2.6735e-05,67.628,1.7738e-05,0.02882,-6.2744e-05,-604.68,2.3448
19834,21.045,2.5455,0.05,7.2539e-07,7.2489,5.5701e-07,4.1851,-8.3659e-14,1.9732e-06,-5.5701e-07,-4.1851,2.3295
19835,21.045,2.8182,0,6.6091e-05,660.45,2.7284e-05,66.519,1.8434e-05,0.028537,-6.4707e-05,-624.66,2.3296
19836,21.137,2.7273,0,6.423e-05,641.85,2.6832e-05,68.553,1.7712e-05,0.029365,-6.2788e-05,-604.81,2.3448
19837,21.045,2.7273,0.05,7.256e-07,7.251,5.5717e-07,4.1864,4.9167e-13,1.4306e-06,-5.5717e-07,-4.1864,2.3296
19838,21.045,3,0,6.6107e-05,660.61,2.7307e-05,66.741,1.8428e-05,0.028668,-6.4718e-05,-624.69,2.3296
19839,21.137,2.9091,0,6.4264e-05,642.19,2.6881e-05,69.018,1.7699e-05,0.029631,-6.281e-05,-604.89,2.3448
19840,21.045,2.9091,0.05,7.257e-07,7.252,5.5725e-07,4.187,3.9019e-13,2.3769e-06,-5.5725e-07,-4.187,2.3296
19841,21.045,3.1818,0,6.6091e-05,660.45,2.7284e-05,66.519,1.8434e-05,0.028537,-6.4707e-05,-624.66,2.3296
19842,21.137,3.0909,0,6.4264e-05,642.19,2.6881e-05,69.018,1.7699e-05,0.02963,-6.281e-05,-604.89,2.3448
19843,21.045,3.0909,0.05,7.257e-07,7.252,5.5725e-07,4.187,7.4682e-13,4.3007e-06,-5.5725e-07,-4.187,2.3296
19844,21.045,3.3636,0,6.6043e-05,659.97,2.7214e-05,65.853,1.8453e-05,0.028136,-6.4675e-05,-624.57,2.3296
19845,21.137,3.2727,0,6.423e-05,641.85,2.6832e-05,68.553,1.7712e-05,0.029365,-6.2788e-05,-604.81,2.3448
19846,21.045,3.2727,0.05,7.256e-07,7.251,5.5717e-07,4.1864,1.1025e-12,7.1701e-06,-5.5717e-07,-4.1864,2.3296
19847,21.045,3.5455,0,6.5964e-05,659.19,2.7099e-05,64.753,1.8484e-05,0.02745,-6.4623e-05,-624.41,2.3295
19848,21.137,3.4545,0,6.4163e-05,641.18,2.6735e-05,67.628,1.7738e-05,0.028819,-6.2744e-05,-604.68,2.3448
19849,21.045,3.4545,0.05,7.2539e-07,7.2489,5.5701e-07,4.1851,1.2244e-12,6.1739e-06,-5.5701e-07,-4.1852,2.3295
19850,21.045,3.7273,0,6.5856e-05,658.11,2.6939e-05,63.231,1.8527e-05,0.026457,-6.4552e-05,-624.2,2.3295
19851,21.137,3.6364,0,6.4063e-05,640.19,2.6591e-05,66.254,1.7776e-05,0.027977,-6.2678e-05,-604.48,2.3447
19852,21.045,3.6364,0.05,7.2508e-07,7.2458,5.5677e-07,4.1833,1.3356e-12,8.9333e-06,-5.5677e-07,-4.1834,2.3295
19853,21.045,3.9091,0,6.5722e-05,656.77,2.6739e-05,61.308,1.8583e-05,0.025115,-6.4464e-05,-623.95,2.3294
19854,21.137,3.8182,0,6.3934e-05,638.9,2.6401e-05,64.447,1.7828e-05,0.026804,-6.2593e-05,-604.22,2.3447
19855,21.045,3.8182,0.05,7.2467e-07,7.2417,5.5646e-07,4.181,1.9092e-12,1.0691e-05,-5.5646e-07,-4.181,2.3294
19856,21.045,4.0909,0,6.5564e-05,655.19,2.65e-05,59.008,1.8649e-05,0.023373,-6.436e-05,-623.68,2.3293
19857,21.137,4,0,6.3778e-05,637.34,2.617e-05,62.23,1.7891e-05,0.025251,-6.2491e-05,-603.93,2.3446
19858,21.045,4,0.05,7.2417e-07,7.2367,5.5607e-07,4.1781,1.9816e-12,1.1887e-05,-5.5608e-07,-4.1781,2.3293
19859,21.045,4.2727,0,6.5387e-05,653.42,2.6226e-05,56.364,1.8727e-05,0.021162,-6.4245e-05,-623.4,2.3292
19860,21.137,4.1818,0,6.3598e-05,635.54,2.59e-05,59.631,1.7966e-05,0.023258,-6.2373e-05,-603.62,2.3445
19861,21.045,4.1818,0.05,7.2359e-07,7.2309,5.5562e-07,4.1747,2.2845e-12,1.0835e-05,-5.5563e-07,-4.1748,2.3292
19862,21.045,4.4545,0,6.5195e-05,651.5,2.5923e-05,53.417,1.8816e-05,0.018389,-6.4122e-05,-623.14,2.329
19863,21.137,4.3636,0,6.34e-05,633.56,2.5595e-05,56.689,1.8053e-05,0.020737,-6.2245e-05,-603.3,2.3443
19864,21.045,4.3636,0.05,7.2292e-07,7.2242,5.5511e-07,4.1709,2.5386e-12,1.4053e-05,-5.5512e-07,-4.1709,2.3291
19865,21.045,4.6364,0,6.4996e-05,649.51,2.5595e-05,50.214,1.8914e-05,0.014946,-6.3995e-05,-622.94,2.3289
19866,21.137,4.5455,0,6.3188e-05,631.45,2.5261e-05,53.448,1.815e-05,0.017581,-6.2109e-05,-603.02,2.3442
19867,21.045,4.5455,0.05,7.2219e-07,7.2169,5.5455e-07,4.1667,2.3815e-12,1.1473e-05,-5.5455e-07,-4.1667,2.3289
19868,21.045,4.8182,0,6.4795e-05,647.5,2.5251e-05,46.813,1.9022e-05,0.010655,-6.3871e-05,-622.82,2.3287
19869,21.137,4.7273,0,6.2971e-05,629.27,2.4905e-05,49.962,1.8257e-05,0.013663,-6.1972e-05,-602.8,2.3441
19870,21.045,4.7273,0.05,7.2139e-07,7.2089,5.5394e-07,4.1621,2.7928e-12,1.3708e-05,-5.5394e-07,-4.1621,2.3288
19871,21.045,5,0,6.46e-05,645.56,2.4898e-05,43.278,1.9139e-05,0.0054471,-6.3755e-05,-622.83,2.3285
19872,21.137,4.9091,0,6.2755e-05,627.11,2.4535e-05,46.295,1.8374e-05,0.0087291,-6.1839e-05,-602.68,2.3439
19873,21.045,4.9091,0.05,7.2053e-07,7.2004,5.5328e-07,4.1571,2.5278e-12,1.4297e-05,-5.5328e-07,-4.1572,2.3286
19874,21.045,5.1818,0,6.4422e-05,643.78,2.4545e-05,39.683,1.9263e-05,-0.0014112,-6.3655e-05,-623.02,2.3283
19875,21.137,5.0909,0,6.2549e-05,625.06,2.4158e-05,42.521,1.8499e-05,0.0028727,-6.1717e-05,-602.72,2.3437
19876,21.045,5.0909,0.05,7.1961e-07,7.1912,5.5257e-07,4.1518,3.1701e-12,1.1925e-05,-5.5258e-07,-4.1518,2.3284
19877,21.045,5.3636,0,6.427e-05,642.26,2.4202e-05,36.112,1.9395e-05,-0.0082082,-6.358e-05,-623.45,2.3281
19878,21.137,5.2727,0,6.2365e-05,623.22,2.3786e-05,38.72,1.8632e-05,-0.0055413,-6.1616e-05,-602.96,2.3435
19879,21.045,5.2727,0.05,7.185e-07,7.1801,5.5172e-07,4.1454,2.6584e-12,1.223e-05,-5.5172e-07,-4.1454,2.3282
19880,21.045,5.5455,0,6.4167e-05,641.22,2.3889e-05,32.718,1.9531e-05,-0.026433,-6.3548e-05,-624.25,2.3279
19881,21.137,5.4545,0,6.2214e-05,621.71,2.343e-05,34.991,1.8772e-05,-0.011368,-6.1545e-05,-603.48,2.3433
19882,21.045,5.4545,0.05,7.152e-07,7.1471,5.4918e-07,4.1263,2.7218e-12,1.179e-05,-5.4919e-07,-4.1264,2.328
19883,21.045,5.7273,0,6.4317e-05,642.72,2.3785e-05,30.843,1.9676e-05,-0.026695,-6.3737e-05,-626.76,2.3277
19884,21.137,5.6364,0,6.2129e-05,620.86,2.3121e-05,31.555,1.8916e-05,-0.043212,-6.1533e-05,-604.5,2.343
19885,21.045,5.6364,0.05,6.7891e-07,6.7844,5.2132e-07,3.917,2.5395e-12,1.3013e-05,-5.2132e-07,-3.917,2.3278
19886,21.137,5.8182,0,6.2512e-05,624.69,2.3203e-05,31.03,1.9073e-05,-0.0049945,-6.1927e-05,-608.6,2.3428
19887,21.045,5.8182,0.05,1.602e-07,1.6009,1.2301e-07,0.92424,7.9826e-13,-7.4638e-06,-1.2301e-07,-0.92427,2.3275
19888,21.045,5.9091,0,6.3144e-05,631.01,2.2542e-05,20.49,1.9814e-05,-0.0085912,-6.2771e-05,-620.52,2.3274
19889,21.229,0.27273,0,6.0288e-05,602.46,2.2509e-05,31.507,1.8311e-05,-0.029093,-5.969e-05,-586.1,2.3582
19890,21.322,0.18182,0,5.848e-05,584.39,2.1911e-05,31.518,1.7715e-05,-0.0065347,-5.788e-05,-568,2.3734
19891,21.229,0.18182,0.05,1.7544e-07,1.7531,1.3471e-07,1.0122,1.8157e-13,9.9203e-06,-1.3471e-07,-1.0122,2.3581
19892,21.229,0.090909,0,5.9092e-05,590.52,2.1232e-05,20.831,1.8459e-05,-0.0086253,-5.8711e-05,-579.83,2.358
19893,21.229,0.45455,0,6.0164e-05,601.22,2.2652e-05,33.749,1.8157e-05,-0.027982,-5.9519e-05,-583.65,2.3584
19894,21.322,0.36364,0,5.812e-05,580.8,2.1868e-05,32.412,1.7548e-05,-0.046169,-5.7502e-05,-563.94,2.3736
19895,21.229,0.36364,0.05,6.7842e-07,6.7795,5.2094e-07,3.9142,-8.0465e-13,1.742e-06,-5.2094e-07,-3.9141,2.3583
19896,21.229,0.63636,0,6.0298e-05,602.57,2.3006e-05,37.53,1.801e-05,-0.0082277,-5.9572e-05,-582.93,2.3587
19897,21.322,0.54545,0,5.8236e-05,581.96,2.2219e-05,36.249,1.7393e-05,-0.011679,-5.7535e-05,-562.99,2.3738
19898,21.229,0.54545,0.05,7.1378e-07,7.1329,5.481e-07,4.1182,-1.3024e-12,-6.7464e-07,-5.4809e-07,-4.1182,2.3585
19899,21.229,0.81818,0,6.0483e-05,604.41,2.3391e-05,41.495,1.7869e-05,-0.00085257,-5.967e-05,-582.6,2.3589
19900,21.322,0.72727,0,5.8421e-05,583.81,2.262e-05,40.392,1.7243e-05,-0.0052434,-5.7629e-05,-562.57,2.374
19901,21.229,0.72727,0.05,7.1715e-07,7.1665,5.5068e-07,4.1376,-5.6e-13,-1.6824e-06,-5.5068e-07,-4.1376,2.3587
19902,21.229,1,0,6.0695e-05,606.53,2.3787e-05,45.481,1.7735e-05,0.0064895,-5.9793e-05,-582.51,2.359
19903,21.322,0.90909,0,5.8641e-05,586.01,2.3037e-05,44.608,1.71e-05,0.0038188,-5.7755e-05,-562.43,2.3742
19904,21.229,0.90909,0.05,7.1838e-07,7.1788,5.5163e-07,4.1447,-1.0216e-12,-1.8156e-07,-5.5162e-07,-4.1447,2.3589
19905,21.229,1.1818,0,6.0923e-05,608.81,2.4182e-05,49.392,1.7609e-05,0.012015,-5.9932e-05,-582.61,2.3592
19906,21.322,1.0909,0,5.8883e-05,588.42,2.3457e-05,48.787,1.6965e-05,0.010063,-5.7901e-05,-562.51,2.3744
19907,21.229,1.0909,0.05,7.1943e-07,7.1893,5.5243e-07,4.1508,-8.7835e-13,-4.5039e-07,-5.5243e-07,-4.1507,2.3591
19908,21.229,1.3636,0,6.1157e-05,611.15,2.4565e-05,53.148,1.7493e-05,0.016532,-6.0079e-05,-582.83,2.3594
19909,21.322,1.2727,0,5.9134e-05,590.93,2.387e-05,52.837,1.684e-05,0.015282,-5.8057e-05,-562.73,2.3746
19910,21.229,1.2727,0.05,7.2041e-07,7.1991,5.5319e-07,4.1564,-1.1268e-12,-1.28e-06,-5.5319e-07,-4.1564,2.3593
19911,21.229,1.5455,0,6.1387e-05,613.45,2.4927e-05,56.676,1.7387e-05,0.020131,-6.0226e-05,-583.13,2.3595
19912,21.322,1.4545,0,5.9385e-05,593.44,2.4265e-05,56.679,1.6724e-05,0.019391,-5.8217e-05,-563.06,2.3747
19913,21.229,1.4545,0.05,7.2133e-07,7.2083,5.5389e-07,4.1617,-7.1186e-13,-3.4431e-06,-5.5389e-07,-4.1617,2.3594
19914,21.229,1.7273,0,6.1606e-05,615.63,2.5263e-05,59.916,1.7292e-05,0.023011,-6.0367e-05,-583.48,2.3597
19915,21.322,1.6364,0,5.9626e-05,595.85,2.4634e-05,60.242,1.6619e-05,0.02268,-5.8372e-05,-563.43,2.3749
19916,21.229,1.6364,0.05,7.2218e-07,7.2168,5.5454e-07,4.1666,-1.1462e-12,-1.8051e-06,-5.5454e-07,-4.1666,2.3596
19917,21.229,1.9091,0,6.1807e-05,617.65,2.5565e-05,62.816,1.7208e-05,0.025295,-6.0498e-05,-583.83,2.3598
19918,21.322,1.8182,0,5.9852e-05,598.1,2.497e-05,63.469,1.6526e-05,0.025289,-5.8518e-05,-563.83,2.375
19919,21.229,1.8182,0.05,7.2295e-07,7.2245,5.5513e-07,4.1711,-6.5084e-13,-3.0392e-06,-5.5513e-07,-4.171,2.3597
19920,21.229,2.0909,0,6.1986e-05,619.43,2.5828e-05,65.334,1.7136e-05,0.027087,-6.0615e-05,-584.16,2.3599
19921,21.322,2,0,6.0055e-05,600.13,2.5267e-05,66.312,1.6445e-05,0.027345,-5.8651e-05,-564.21,2.3751
19922,21.229,2,0.05,7.2362e-07,7.2312,5.5565e-07,4.175,-3.7682e-13,-1.5682e-06,-5.5565e-07,-4.175,2.3598
19923,21.229,2.2727,0,6.2138e-05,620.95,2.6048e-05,67.437,1.7077e-05,0.028462,-6.0715e-05,-584.46,2.3599
19924,21.322,2.1818,0,6.023e-05,601.89,2.5521e-05,68.735,1.6376e-05,0.028935,-5.8766e-05,-564.56,2.3752
19925,21.229,2.1818,0.05,7.242e-07,7.237,5.561e-07,4.1783,-5.1465e-13,8.8253e-07,-5.561e-07,-4.1783,2.3599
19926,21.229,2.4545,0,6.2259e-05,622.16,2.6222e-05,69.098,1.703e-05,0.029478,-6.0794e-05,-584.71,2.36
19927,21.322,2.3636,0,6.0375e-05,603.33,2.5727e-05,70.705,1.6321e-05,0.030136,-5.886e-05,-564.85,2.3752
19928,21.229,2.3636,0.05,7.2468e-07,7.2418,5.5646e-07,4.181,-1.9344e-13,-2.5461e-07,-5.5646e-07,-4.181,2.36
19929,21.229,2.6364,0,6.2347e-05,623.04,2.6348e-05,70.298,1.6996e-05,0.030175,-6.0852e-05,-584.89,2.36
19930,21.322,2.5455,0,6.0486e-05,604.44,2.5885e-05,72.202,1.628e-05,0.030995,-5.8933e-05,-565.09,2.3753
19931,21.229,2.5455,0.05,7.2504e-07,7.2454,5.5674e-07,4.1831,1.4713e-13,1.5081e-06,-5.5674e-07,-4.1831,2.36
19932,21.229,2.8182,0,6.24e-05,623.57,2.6425e-05,71.023,1.6976e-05,0.030583,-6.0888e-05,-585.01,2.3601
19933,21.322,2.7273,0,6.0561e-05,605.19,2.5991e-05,73.208,1.6252e-05,0.031548,-5.8982e-05,-565.25,2.3753
19934,21.229,2.7273,0.05,7.2528e-07,7.2478,5.5693e-07,4.1845,4.9251e-13,1.4437e-06,-5.5693e-07,-4.1845,2.36
19935,21.229,3,0,6.2418e-05,623.75,2.645e-05,71.266,1.697e-05,0.030716,-6.0899e-05,-585.05,2.3601
19936,21.322,2.9091,0,6.0599e-05,605.57,2.6044e-05,73.714,1.6238e-05,0.03182,-5.9007e-05,-565.33,2.3753
19937,21.229,2.9091,0.05,7.254e-07,7.249,5.5702e-07,4.1852,6.1826e-13,1.4277e-06,-5.5702e-07,-4.1852,2.3601
19938,21.229,3.1818,0,6.24e-05,623.57,2.6425e-05,71.023,1.6976e-05,0.030582,-6.0888e-05,-585.01,2.3601
19939,21.322,3.0909,0,6.0599e-05,605.57,2.6044e-05,73.714,1.6238e-05,0.031818,-5.9007e-05,-565.33,2.3753
19940,21.229,3.0909,0.05,7.254e-07,7.249,5.5702e-07,4.1852,9.7349e-13,2.3885e-06,-5.5702e-07,-4.1852,2.3601
19941,21.229,3.3636,0,6.2347e-05,623.04,2.6348e-05,70.298,1.6996e-05,0.030175,-6.0852e-05,-584.89,2.36
19942,21.322,3.2727,0,6.0561e-05,605.19,2.5991e-05,73.208,1.6252e-05,0.031548,-5.8982e-05,-565.25,2.3753
19943,21.229,3.2727,0.05,7.2528e-07,7.2478,5.5693e-07,4.1845,1.1002e-12,7.1445e-06,-5.5693e-07,-4.1845,2.36
19944,21.229,3.5455,0,6.2259e-05,622.16,2.6222e-05,69.098,1.703e-05,0.029477,-6.0794e-05,-584.71,2.36
19945,21.322,3.4545,0,6.0486e-05,604.44,2.5885e-05,72.202,1.628e-05,0.030994,-5.8933e-05,-565.09,2.3753
19946,21.229,3.4545,0.05,7.2504e-07,7.2454,5.5674e-07,4.1831,1.2182e-12,6.1582e-06,-5.5674e-07,-4.1831,2.36
19947,21.229,3.7273,0,6.2138e-05,620.95,2.6048e-05,67.437,1.7077e-05,0.028462,-6.0715e-05,-584.46,2.3599
19948,21.322,3.6364,0,6.0375e-05,603.33,2.5727e-05,70.705,1.6321e-05,0.030136,-5.886e-05,-564.85,2.3752
19949,21.229,3.6364,0.05,7.2468e-07,7.2418,5.5646e-07,4.181,1.3307e-12,8.9021e-06,-5.5646e-07,-4.181,2.36
19950,21.229,3.9091,0,6.1986e-05,619.43,2.5828e-05,65.334,1.7136e-05,0.027087,-6.0615e-05,-584.16,2.3599
19951,21.322,3.8182,0,6.023e-05,601.89,2.5521e-05,68.735,1.6376e-05,0.028936,-5.8766e-05,-564.56,2.3752
19952,21.229,3.8182,0.05,7.242e-07,7.237,5.561e-07,4.1783,2.1134e-12,1.1113e-05,-5.561e-07,-4.1783,2.3599
19953,21.229,4.0909,0,6.1807e-05,617.65,2.5565e-05,62.816,1.7208e-05,0.025295,-6.0498e-05,-583.83,2.3598
19954,21.322,4,0,6.0055e-05,600.13,2.5267e-05,66.312,1.6445e-05,0.027345,-5.8651e-05,-564.21,2.3751
19955,21.229,4,0.05,7.2362e-07,7.2312,5.5565e-07,4.1749,2.1934e-12,1.0863e-05,-5.5565e-07,-4.175,2.3598
19956,21.229,4.2727,0,6.1606e-05,615.63,2.5263e-05,59.916,1.7292e-05,0.023011,-6.0367e-05,-583.48,2.3597
19957,21.322,4.1818,0,5.9852e-05,598.1,2.497e-05,63.469,1.6526e-05,0.025289,-5.8518e-05,-563.83,2.375
19958,21.229,4.1818,0.05,7.2295e-07,7.2245,5.5513e-07,4.171,2.4919e-12,1.0279e-05,-5.5513e-07,-4.1711,2.3597
19959,21.229,4.4545,0,6.1387e-05,613.45,2.4927e-05,56.676,1.7387e-05,0.020132,-6.0226e-05,-583.13,2.3595
19960,21.322,4.3636,0,5.9626e-05,595.85,2.4634e-05,60.242,1.6619e-05,0.022681,-5.8372e-05,-563.43,2.3749
19961,21.229,4.3636,0.05,7.2218e-07,7.2168,5.5454e-07,4.1666,2.542e-12,1.3542e-05,-5.5454e-07,-4.1666,2.3596
19962,21.229,4.6364,0,6.1157e-05,611.15,2.4565e-05,53.148,1.7493e-05,0.016534,-6.0079e-05,-582.83,2.3594
19963,21.322,4.5455,0,5.9385e-05,593.44,2.4265e-05,56.679,1.6724e-05,0.019392,-5.8217e-05,-563.06,2.3747
19964,21.229,4.5455,0.05,7.2133e-07,7.2083,5.5389e-07,4.1617,2.56e-12,1.1607e-05,-5.5389e-07,-4.1617,2.3594
19965,21.229,4.8182,0,6.0923e-05,608.81,2.4182e-05,49.392,1.7609e-05,0.012015,-5.9932e-05,-582.61,2.3592
19966,21.322,4.7273,0,5.9134e-05,590.93,2.387e-05,52.837,1.684e-05,0.015282,-5.8057e-05,-562.73,2.3746
19967,21.229,4.7273,0.05,7.2041e-07,7.1991,5.5318e-07,4.1564,2.546e-12,1.3599e-05,-5.5319e-07,-4.1564,2.3593
19968,21.229,5,0,6.0695e-05,606.53,2.3787e-05,45.481,1.7735e-05,0.0064881,-5.9793e-05,-582.51,2.359
19969,21.322,4.9091,0,5.8883e-05,588.42,2.3457e-05,48.787,1.6965e-05,0.010064,-5.7901e-05,-562.51,2.3744
19970,21.229,4.9091,0.05,7.1943e-07,7.1893,5.5243e-07,4.1507,2.6438e-12,1.2449e-05,-5.5243e-07,-4.1508,2.3591
19971,21.229,5.1818,0,6.0483e-05,604.41,2.3391e-05,41.495,1.7869e-05,-0.00085442,-5.967e-05,-582.6,2.3589
19972,21.322,5.0909,0,5.8641e-05,586.01,2.3037e-05,44.608,1.71e-05,0.0038161,-5.7755e-05,-562.43,2.3742
19973,21.229,5.0909,0.05,7.1838e-07,7.1788,5.5162e-07,4.1447,2.435e-12,1.1108e-05,-5.5163e-07,-4.1447,2.3589
19974,21.229,5.3636,0,6.0298e-05,602.57,2.3006e-05,37.53,1.801e-05,-0.0082294,-5.9572e-05,-582.93,2.3587
19975,21.322,5.2727,0,5.8421e-05,583.81,2.262e-05,40.392,1.7243e-05,-0.0052451,-5.7629e-05,-562.57,2.374
19976,21.229,5.2727,0.05,7.1715e-07,7.1665,5.5068e-07,4.1376,3.2274e-12,1.1517e-05,-5.5068e-07,-4.1376,2.3587
19977,21.229,5.5455,0,6.0164e-05,601.22,2.2652e-05,33.749,1.8157e-05,-0.02798,-5.9519e-05,-583.65,2.3584
19978,21.322,5.4545,0,5.8236e-05,581.96,2.2219e-05,36.249,1.7393e-05,-0.01168,-5.7535e-05,-562.99,2.3738
19979,21.229,5.4545,0.05,7.1378e-07,7.1329,5.4809e-07,4.1182,2.6466e-12,1.1178e-05,-5.481e-07,-4.1182,2.3585
19980,21.229,5.7273,0,6.0288e-05,602.46,2.2509e-05,31.507,1.8311e-05,-0.029089,-5.969e-05,-586.1,2.3582
19981,21.322,5.6364,0,5.812e-05,580.8,2.1868e-05,32.412,1.7548e-05,-0.046166,-5.7502e-05,-563.94,2.3736
19982,21.229,5.6364,0.05,6.7842e-07,6.7795,5.2094e-07,3.9141,2.4572e-12,1.198e-05,-5.2094e-07,-3.9142,2.3583
19983,21.322,5.8182,0,5.848e-05,584.39,2.1911e-05,31.518,1.7715e-05,-0.0065328,-5.788e-05,-568,2.3734
19984,21.229,5.8182,0.05,1.7544e-07,1.7531,1.3471e-07,1.0122,6.6837e-13,-4.8002e-06,-1.3471e-07,-1.0122,2.3581
19985,21.229,5.9091,0,5.9092e-05,590.52,2.1232e-05,20.831,1.8459e-05,-0.0086249,-5.8711e-05,-579.83,2.358
19986,21.414,0.27273,0,5.6273e-05,562.35,2.1238e-05,32.179,1.6951e-05,-0.031798,-5.5657e-05,-545.58,2.3888
19987,21.506,0.18182,0,5.4459e-05,544.22,2.0622e-05,31.989,1.6363e-05,-0.0084334,-5.3844e-05,-527.52,2.404
19988,21.414,0.18182,0.05,1.9198e-07,1.9185,1.4742e-07,1.1077,9.9514e-13,2.174e-05,-1.4742e-07,-1.1076,2.3887
19989,21.414,0.090909,0,5.5055e-05,550.17,1.9927e-05,21.165,1.7109e-05,-0.0085598,-5.4664e-05,-539.29,2.3886
19990,21.414,0.45455,0,5.6179e-05,561.4,2.1424e-05,34.828,1.6785e-05,-0.029616,-5.5506e-05,-543.19,2.389
19991,21.506,0.36364,0,5.4128e-05,540.91,2.0622e-05,33.299,1.6183e-05,-0.049386,-5.3485e-05,-523.51,2.4042
19992,21.414,0.36364,0.05,6.7813e-07,6.7766,5.2072e-07,3.9125,-1.0214e-12,4.3889e-06,-5.2071e-07,-3.9124,2.3889
19993,21.414,0.63636,0,5.6348e-05,563.09,2.1824e-05,39.039,1.6627e-05,-0.0081416,-5.5582e-05,-542.56,2.3892
19994,21.506,0.54545,0,5.4278e-05,542.41,2.102e-05,37.581,1.6017e-05,-0.011921,-5.3541e-05,-522.65,2.4044
19995,21.414,0.54545,0.05,7.1252e-07,7.1203,5.4713e-07,4.1109,-7.6227e-13,5.011e-06,-5.4712e-07,-4.1109,2.3891
19996,21.414,0.81818,0,5.657e-05,565.31,2.2256e-05,43.44,1.6475e-05,-0.00010956,-5.5706e-05,-542.34,2.3894
19997,21.506,0.72727,0,5.4502e-05,544.65,2.147e-05,42.183,1.5855e-05,-0.0047803,-5.3662e-05,-522.33,2.4046
19998,21.414,0.72727,0.05,7.1596e-07,7.1547,5.4977e-07,4.1308,-9.2619e-13,5.8821e-06,-5.4977e-07,-4.1307,2.3893
19999,21.414,1,0,5.682e-05,567.81,2.2699e-05,47.855,1.6331e-05,0.0077697,-5.5855e-05,-542.37,2.3896
20000,21.506,0.90909,0,5.4763e-05,547.25,2.1937e-05,46.858,1.5701e-05,0.0050042,-5.3815e-05,-522.31,2.4048
20001,21.414,0.90909,0.05,7.1735e-07,7.1685,5.5083e-07,4.1388,-5.5986e-13,4.2356e-06,-5.5083e-07,-4.1387,2.3895
20002,21.414,1.1818,0,5.7086e-05,570.47,2.3138e-05,52.179,1.6196e-05,0.013641,-5.6019e-05,-542.58,2.3898
20003,21.506,1.0909,0,5.5044e-05,550.07,2.2406e-05,51.481,1.5556e-05,0.011679,-5.3987e-05,-522.51,2.405
20004,21.414,1.0909,0.05,7.1855e-07,7.1805,5.5176e-07,4.1457,-8.5525e-13,4.9677e-06,-5.5176e-07,-4.1457,2.3897
20005,21.414,1.3636,0,5.7355e-05,573.16,2.3564e-05,56.32,1.607e-05,0.018403,-5.6189e-05,-542.91,2.3899
20006,21.506,1.2727,0,5.5334e-05,552.96,2.2864e-05,55.95,1.542e-05,0.017206,-5.4169e-05,-522.85,2.4051
20007,21.414,1.2727,0.05,7.1968e-07,7.1918,5.5263e-07,4.1522,-6.6237e-13,4.0714e-06,-5.5263e-07,-4.1522,2.3898
20008,21.414,1.5455,0,5.7618e-05,575.79,2.3965e-05,60.201,1.5956e-05,0.022166,-5.6357e-05,-543.31,2.3901
20009,21.506,1.4545,0,5.5621e-05,555.83,2.3301e-05,60.176,1.5295e-05,0.021519,-5.4352e-05,-523.28,2.4053
20010,21.414,1.4545,0.05,7.2074e-07,7.2025,5.5344e-07,4.1584,-6.9192e-13,3.5345e-06,-5.5344e-07,-4.1583,2.39
20011,21.414,1.7273,0,5.7867e-05,578.27,2.4335e-05,63.755,1.5853e-05,0.025158,-5.6518e-05,-543.74,2.3902
20012,21.506,1.6364,0,5.5896e-05,558.57,2.3708e-05,64.085,1.5182e-05,0.024945,-5.4529e-05,-523.75,2.4054
20013,21.414,1.6364,0.05,7.2173e-07,7.2123,5.542e-07,4.164,-6.7349e-13,3.5383e-06,-5.542e-07,-4.164,2.3901
20014,21.414,1.9091,0,5.8095e-05,580.55,2.4667e-05,66.929,1.5763e-05,0.027518,-5.6666e-05,-544.17,2.3903
20015,21.506,1.8182,0,5.615e-05,561.11,2.4077e-05,67.616,1.5081e-05,0.027647,-5.4693e-05,-524.23,2.4055
20016,21.414,1.8182,0.05,7.2262e-07,7.2212,5.5488e-07,4.1692,-3.9399e-13,2.8903e-06,-5.5488e-07,-4.1691,2.3902
20017,21.414,2.0909,0,5.8296e-05,582.55,2.4955e-05,69.679,1.5685e-05,0.029358,-5.6796e-05,-544.57,2.3904
20018,21.506,2,0,5.6378e-05,563.39,2.4402e-05,70.72,1.4994e-05,0.029761,-5.484e-05,-524.68,2.4056
20019,21.414,2,0.05,7.234e-07,7.229,5.5548e-07,4.1737,-3.4394e-13,4.2475e-06,-5.5548e-07,-4.1737,2.3903
20020,21.414,2.2727,0,5.8465e-05,584.25,2.5196e-05,71.971,1.5621e-05,0.030763,-5.6907e-05,-544.92,2.3905
20021,21.506,2.1818,0,5.6574e-05,565.35,2.4679e-05,73.357,1.492e-05,0.031393,-5.4968e-05,-525.08,2.4057
20022,21.414,2.1818,0.05,7.2407e-07,7.2357,5.56e-07,4.1776,-4.3641e-14,4.8444e-06,-5.56e-07,-4.1776,2.3904
20023,21.414,2.4545,0,5.86e-05,585.6,2.5386e-05,73.778,1.5571e-05,0.0318,-5.6995e-05,-545.2,2.3905
20024,21.506,2.3636,0,5.6736e-05,566.96,2.4905e-05,75.499,1.4861e-05,0.032617,-5.5072e-05,-525.42,2.4058
20025,21.414,2.3636,0.05,7.2462e-07,7.2412,5.5642e-07,4.1807,5.0329e-13,4.5817e-06,-5.5642e-07,-4.1807,2.3905
20026,21.414,2.6364,0,5.8699e-05,586.58,2.5523e-05,75.082,1.5535e-05,0.032511,-5.7059e-05,-545.41,2.3906
20027,21.506,2.5455,0,5.6859e-05,568.2,2.5076e-05,77.123,1.4816e-05,0.033493,-5.5152e-05,-525.68,2.4058
20028,21.414,2.5455,0.05,7.2504e-07,7.2454,5.5674e-07,4.1832,3.8192e-13,6.3429e-06,-5.5674e-07,-4.1831,2.3905
20029,21.414,2.8182,0,5.8758e-05,587.18,2.5606e-05,75.87,1.5513e-05,0.032925,-5.7098e-05,-545.54,2.3906
20030,21.506,2.7273,0,5.6942e-05,569.03,2.5191e-05,78.214,1.4786e-05,0.034054,-5.5206e-05,-525.86,2.4059
20031,21.414,2.7273,0.05,7.2532e-07,7.2482,5.5696e-07,4.1848,4.9855e-13,6.2546e-06,-5.5696e-07,-4.1848,2.3906
20032,21.414,3,0,5.8778e-05,587.38,2.5634e-05,76.133,1.5506e-05,0.033061,-5.7111e-05,-545.58,2.3906
20033,21.506,2.9091,0,5.6984e-05,569.45,2.5249e-05,78.762,1.4771e-05,0.03433,-5.5234e-05,-525.95,2.4059
20034,21.414,2.9091,0.05,7.2547e-07,7.2497,5.5707e-07,4.1856,6.1985e-13,8.1157e-06,-5.5707e-07,-4.1856,2.3906
20035,21.414,3.1818,0,5.8758e-05,587.18,2.5606e-05,75.87,1.5513e-05,0.032924,-5.7098e-05,-545.54,2.3906
20036,21.506,3.0909,0,5.6984e-05,569.45,2.5249e-05,78.762,1.4771e-05,0.03433,-5.5234e-05,-525.95,2.4059
20037,21.414,3.0909,0.05,7.2547e-07,7.2497,5.5707e-07,4.1856,7.4465e-13,8.0993e-06,-5.5707e-07,-4.1856,2.3906
20038,21.414,3.3636,0,5.8699e-05,586.58,2.5523e-05,75.082,1.5535e-05,0.03251,-5.7059e-05,-545.41,2.3906
20039,21.506,3.2727,0,5.6942e-05,569.03,2.5191e-05,78.214,1.4786e-05,0.034055,-5.5206e-05,-525.86,2.4059
20040,21.414,3.2727,0.05,7.2532e-07,7.2482,5.5696e-07,4.1848,8.6681e-13,9.9729e-06,-5.5696e-07,-4.1848,2.3906
20041,21.414,3.5455,0,5.86e-05,585.6,2.5386e-05,73.778,1.5571e-05,0.0318,-5.6995e-05,-545.2,2.3905
20042,21.506,3.4545,0,5.6859e-05,568.2,2.5076e-05,77.123,1.4816e-05,0.033492,-5.5152e-05,-525.68,2.4058
20043,21.414,3.4545,0.05,7.2504e-07,7.2454,5.5674e-07,4.1831,1.4393e-12,1.0859e-05,-5.5674e-07,-4.1831,2.3905
20044,21.414,3.7273,0,5.8465e-05,584.25,2.5196e-05,71.971,1.5621e-05,0.030764,-5.6907e-05,-544.92,2.3905
20045,21.506,3.6364,0,5.6736e-05,566.96,2.4905e-05,75.499,1.4861e-05,0.032618,-5.5072e-05,-525.42,2.4058
20046,21.414,3.6364,0.05,7.2462e-07,7.2412,5.5642e-07,4.1807,1.5534e-12,1.5506e-05,-5.5642e-07,-4.1807,2.3905
20047,21.414,3.9091,0,5.8296e-05,582.55,2.4955e-05,69.679,1.5685e-05,0.029357,-5.6796e-05,-544.57,2.3904
20048,21.506,3.8182,0,5.6574e-05,565.35,2.4679e-05,73.357,1.492e-05,0.031392,-5.4968e-05,-525.08,2.4057
20049,21.414,3.8182,0.05,7.2407e-07,7.2357,5.56e-07,4.1776,2.1092e-12,1.7182e-05,-5.56e-07,-4.1776,2.3904
20050,21.414,4.0909,0,5.8095e-05,580.55,2.4667e-05,66.929,1.5763e-05,0.027517,-5.6666e-05,-544.17,2.3903
20051,21.506,4,0,5.6378e-05,563.39,2.4402e-05,70.72,1.4994e-05,0.029762,-5.484e-05,-524.68,2.4056
20052,21.414,4,0.05,7.234e-07,7.229,5.5548e-07,4.1737,1.9558e-12,1.5881e-05,-5.5548e-07,-4.1737,2.3903
20053,21.414,4.2727,0,5.7867e-05,578.27,2.4335e-05,63.755,1.5853e-05,0.025157,-5.6518e-05,-543.74,2.3902
20054,21.506,4.1818,0,5.615e-05,561.11,2.4077e-05,67.616,1.5081e-05,0.027645,-5.4693e-05,-524.23,2.4055
20055,21.414,4.1818,0.05,7.2262e-07,7.2212,5.5488e-07,4.1691,2.2498e-12,1.4967e-05,-5.5488e-07,-4.1692,2.3902
20056,21.414,4.4545,0,5.7618e-05,575.79,2.3965e-05,60.201,1.5956e-05,0.022166,-5.6357e-05,-543.31,2.3901
20057,21.506,4.3636,0,5.5896e-05,558.57,2.3708e-05,64.085,1.5182e-05,0.024946,-5.4529e-05,-523.75,2.4054
20058,21.414,4.3636,0.05,7.2173e-07,7.2123,5.5419e-07,4.164,2.2829e-12,1.8427e-05,-5.542e-07,-4.164,2.3901
20059,21.414,4.6364,0,5.7355e-05,573.16,2.3564e-05,56.32,1.607e-05,0.018403,-5.6189e-05,-542.91,2.3899
20060,21.506,4.5455,0,5.5621e-05,555.83,2.3301e-05,60.176,1.5295e-05,0.021518,-5.4352e-05,-523.28,2.4053
20061,21.414,4.5455,0.05,7.2074e-07,7.2025,5.5344e-07,4.1583,2.2851e-12,1.6638e-05,-5.5344e-07,-4.1584,2.39
20062,21.414,4.8182,0,5.7086e-05,570.47,2.3138e-05,52.179,1.6196e-05,0.013643,-5.6019e-05,-542.58,2.3898
20063,21.506,4.7273,0,5.5334e-05,552.96,2.2864e-05,55.95,1.542e-05,0.017206,-5.4169e-05,-522.85,2.4051
20064,21.414,4.7273,0.05,7.1968e-07,7.1918,5.5262e-07,4.1522,2.4836e-12,1.7992e-05,-5.5263e-07,-4.1522,2.3898
20065,21.414,5,0,5.682e-05,567.81,2.2699e-05,47.855,1.6331e-05,0.0077691,-5.5855e-05,-542.37,2.3896
20066,21.506,4.9091,0,5.5044e-05,550.07,2.2406e-05,51.481,1.5556e-05,0.01168,-5.3987e-05,-522.51,2.405
20067,21.414,4.9091,0.05,7.1855e-07,7.1805,5.5175e-07,4.1457,2.4714e-12,1.8271e-05,-5.5176e-07,-4.1457,2.3897
20068,21.414,5.1818,0,5.657e-05,565.31,2.2256e-05,43.44,1.6475e-05,-0.00011224,-5.5706e-05,-542.34,2.3894
20069,21.506,5.0909,0,5.4763e-05,547.25,2.1937e-05,46.858,1.5701e-05,0.0050012,-5.3815e-05,-522.31,2.4048
20070,21.414,5.0909,0.05,7.1735e-07,7.1685,5.5083e-07,4.1387,2.3849e-12,1.5577e-05,-5.5083e-07,-4.1388,2.3895
20071,21.414,5.3636,0,5.6348e-05,563.09,2.1824e-05,39.039,1.6627e-05,-0.0081426,-5.5582e-05,-542.56,2.3892
20072,21.506,5.2727,0,5.4502e-05,544.65,2.147e-05,42.183,1.5855e-05,-0.0047834,-5.3662e-05,-522.33,2.4046
20073,21.414,5.2727,0.05,7.1596e-07,7.1547,5.4977e-07,4.1307,2.2414e-12,1.6157e-05,-5.4977e-07,-4.1308,2.3893
20074,21.414,5.5455,0,5.6179e-05,561.4,2.1424e-05,34.828,1.6785e-05,-0.029616,-5.5506e-05,-543.19,2.389
20075,21.506,5.4545,0,5.4278e-05,542.41,2.102e-05,37.581,1.6017e-05,-0.011922,-5.3541e-05,-522.65,2.4044
20076,21.414,5.4545,0.05,7.1252e-07,7.1203,5.4712e-07,4.1109,2.1168e-12,1.4681e-05,-5.4713e-07,-4.1109,2.3891
20077,21.414,5.7273,0,5.6273e-05,562.35,2.1238e-05,32.179,1.6951e-05,-0.031797,-5.5657e-05,-545.58,2.3888
20078,21.506,5.6364,0,5.4128e-05,540.91,2.0622e-05,33.299,1.6183e-05,-0.049385,-5.3485e-05,-523.51,2.4042
20079,21.414,5.6364,0.05,6.7813e-07,6.7766,5.2071e-07,3.9124,2.4328e-12,1.4232e-05,-5.2072e-07,-3.9125,2.3889
20080,21.506,5.8182,0,5.4459e-05,544.22,2.0622e-05,31.989,1.6363e-05,-0.0084303,-5.3844e-05,-527.52,2.404
20081,21.414,5.8182,0.05,1.9198e-07,1.9185,1.4742e-07,1.1076,5.3428e-13,1.4752e-06,-1.4742e-07,-1.1076,2.3887
20082,21.414,5.9091,0,5.5055e-05,550.17,1.9927e-05,21.165,1.7109e-05,-0.0085571,-5.4664e-05,-539.29,2.3886
20083,21.599,0.27273,0,5.2273e-05,522.37,1.9971e-05,32.854,1.5594e-05,-0.03488,-5.1637e-05,-505.19,2.4194
20084,21.691,0.18182,0,5.0451e-05,504.16,1.9334e-05,32.437,1.5015e-05,-0.010784,-4.9821e-05,-487.16,2.4346
20085,21.599,0.18182,0.05,2.0993e-07,2.0979,1.612e-07,1.2112,4.4339e-13,1.8206e-05,-1.612e-07,-1.2112,2.4193
20086,21.599,0.090909,0,5.1032e-05,509.97,1.8625e-05,21.489,1.5764e-05,-0.0083591,-5.0633e-05,-498.89,2.4192
20087,21.599,0.45455,0,5.2213e-05,521.77,2.0206e-05,35.96,1.5416e-05,-0.031336,-5.1509e-05,-502.88,2.4196
20088,21.691,0.36364,0,5.0153e-05,501.18,1.9383e-05,34.216,1.4822e-05,-0.052895,-4.9484e-05,-483.22,2.4348
20089,21.599,0.36364,0.05,6.7805e-07,6.7758,5.2066e-07,3.9121,-8.6218e-13,4.5679e-06,-5.2066e-07,-3.912,2.4195
20090,21.599,0.63636,0,5.2421e-05,523.85,2.0657e-05,40.648,1.5246e-05,-0.0079095,-5.1611e-05,-502.34,2.4198
20091,21.691,0.54545,0,5.0343e-05,503.08,1.9834e-05,38.994,1.4643e-05,-0.012056,-4.9566e-05,-482.45,2.435
20092,21.599,0.54545,0.05,7.1143e-07,7.1093,5.4629e-07,4.1046,-9.5134e-13,2.7017e-06,-5.4629e-07,-4.1046,2.4197
20093,21.599,0.81818,0,5.2685e-05,526.49,2.1142e-05,45.532,1.5082e-05,0.00086652,-5.1762e-05,-502.24,2.42
20094,21.691,0.72727,0,5.061e-05,505.75,2.0339e-05,44.107,1.4468e-05,-0.0040952,-4.9715e-05,-482.26,2.4352
20095,21.599,0.72727,0.05,7.1498e-07,7.1448,5.4901e-07,4.1251,-3.5646e-13,6.1487e-06,-5.4901e-07,-4.125,2.4199
20096,21.599,1,0,5.2978e-05,529.42,2.1636e-05,50.422,1.4926e-05,0.0093428,-5.194e-05,-502.4,2.4202
20097,21.691,0.90909,0,5.0916e-05,508.81,2.0861e-05,49.291,1.4302e-05,0.0064964,-4.9898e-05,-482.37,2.4354
20098,21.599,0.90909,0.05,7.1654e-07,7.1605,5.5021e-07,4.1341,-4.9625e-13,5.2123e-06,-5.5021e-07,-4.1341,2.4201
20099,21.599,1.1818,0,5.3285e-05,532.49,2.2125e-05,55.198,1.478e-05,0.015595,-5.2131e-05,-502.73,2.4204
20100,21.691,1.0909,0,5.1243e-05,512.07,2.1383e-05,54.402,1.4145e-05,0.013649,-5.01e-05,-482.7,2.4356
20101,21.599,1.0909,0.05,7.1793e-07,7.1743,5.5128e-07,4.1421,-3.4059e-13,3.9686e-06,-5.5128e-07,-4.1421,2.4203
20102,21.599,1.3636,0,5.3594e-05,535.57,2.2595e-05,59.758,1.4645e-05,0.020616,-5.2326e-05,-503.18,2.4205
20103,21.691,1.2727,0,5.1575e-05,515.4,2.1891e-05,59.327,1.3998e-05,0.019508,-5.0309e-05,-483.16,2.4357
20104,21.599,1.2727,0.05,7.1924e-07,7.1874,5.5229e-07,4.1497,-4.3618e-13,4.249e-06,-5.5228e-07,-4.1496,2.4204
20105,21.599,1.5455,0,5.3893e-05,538.56,2.3038e-05,64.017,1.4521e-05,0.024551,-5.2518e-05,-503.68,2.4206
20106,21.691,1.4545,0,5.1902e-05,518.66,2.2374e-05,63.969,1.3863e-05,0.024036,-5.0516e-05,-483.7,2.4359
20107,21.599,1.4545,0.05,7.2047e-07,7.1997,5.5323e-07,4.1568,-8.648e-13,2.2188e-06,-5.5323e-07,-4.1568,2.4206
20108,21.599,1.7273,0,5.4174e-05,541.37,2.3445e-05,67.908,1.441e-05,0.027658,-5.2698e-05,-504.2,2.4208
20109,21.691,1.6364,0,5.2212e-05,521.76,2.282e-05,68.248,1.3741e-05,0.027607,-5.0714e-05,-484.26,2.436
20110,21.599,1.6364,0.05,7.2161e-07,7.2111,5.5411e-07,4.1634,-4.2778e-13,1.827e-06,-5.5411e-07,-4.1633,2.4207
20111,21.599,1.9091,0,5.443e-05,543.92,2.3808e-05,71.372,1.4313e-05,0.030093,-5.2863e-05,-504.7,2.4209
20112,21.691,1.8182,0,5.2497e-05,524.61,2.3224e-05,72.101,1.3632e-05,0.0304,-5.0897e-05,-484.82,2.4361
20113,21.599,1.8182,0.05,7.2264e-07,7.2214,5.549e-07,4.1693,-5.8382e-13,3.0857e-06,-5.549e-07,-4.1693,2.4208
20114,21.599,2.0909,0,5.4654e-05,546.16,2.4122e-05,74.366,1.4229e-05,0.031983,-5.3007e-05,-505.16,2.4209
20115,21.691,2,0,5.2751e-05,527.15,2.3579e-05,75.478,1.3538e-05,0.032576,-5.106e-05,-485.33,2.4362
20116,21.599,2,0.05,7.2355e-07,7.2306,5.556e-07,4.1746,-5.5512e-13,4.3913e-06,-5.556e-07,-4.1746,2.4209
20117,21.599,2.2727,0,5.4843e-05,548.05,2.4384e-05,76.855,1.416e-05,0.033422,-5.3129e-05,-505.55,2.421
20118,21.691,2.1818,0,5.297e-05,529.33,2.388e-05,78.34,1.3458e-05,0.034246,-5.12e-05,-485.78,2.4363
20119,21.599,2.1818,0.05,7.2433e-07,7.2383,5.562e-07,4.1791,2.044e-13,4.0763e-06,-5.562e-07,-4.179,2.421
20120,21.599,2.4545,0,5.4993e-05,549.55,2.4591e-05,78.815,1.4106e-05,0.034479,-5.3226e-05,-505.87,2.4211
20121,21.691,2.3636,0,5.3148e-05,531.12,2.4125e-05,80.66,1.3394e-05,0.035496,-5.1314e-05,-486.16,2.4363
20122,21.599,2.3636,0.05,7.2497e-07,7.2447,5.5669e-07,4.1827,-1.6136e-13,6.6145e-06,-5.5668e-07,-4.1827,2.421
20123,21.599,2.6364,0,5.5101e-05,550.63,2.474e-05,80.228,1.4067e-05,0.0352,-5.3296e-05,-506.11,2.4211
20124,21.691,2.5455,0,5.3284e-05,532.48,2.431e-05,82.416,1.3346e-05,0.036387,-5.1401e-05,-486.45,2.4364
20125,21.599,2.5455,0.05,7.2545e-07,7.2495,5.5706e-07,4.1855,1.6769e-13,7.3612e-06,-5.5706e-07,-4.1855,2.4211
20126,21.599,2.8182,0,5.5167e-05,551.29,2.483e-05,81.08,1.4044e-05,0.03562,-5.3338e-05,-506.25,2.4211
20127,21.691,2.7273,0,5.3376e-05,533.39,2.4434e-05,83.594,1.3314e-05,0.036958,-5.146e-05,-486.65,2.4364
20128,21.599,2.7273,0.05,7.2578e-07,7.2527,5.5731e-07,4.1874,5.0525e-13,7.2555e-06,-5.573e-07,-4.1874,2.4211
20129,21.599,3,0,5.5189e-05,551.51,2.486e-05,81.365,1.4036e-05,0.035759,-5.3353e-05,-506.3,2.4212
20130,21.691,2.9091,0,5.3422e-05,533.85,2.4497e-05,84.185,1.3297e-05,0.037236,-5.1489e-05,-486.75,2.4364
20131,21.599,2.9091,0.05,7.2594e-07,7.2544,5.5743e-07,4.1883,6.2187e-13,8.1307e-06,-5.5743e-07,-4.1883,2.4211
20132,21.599,3.1818,0,5.5167e-05,551.29,2.483e-05,81.08,1.4044e-05,0.03562,-5.3338e-05,-506.25,2.4211
20133,21.691,3.0909,0,5.3422e-05,533.85,2.4497e-05,84.185,1.3297e-05,0.037238,-5.1489e-05,-486.75,2.4364
20134,21.599,3.0909,0.05,7.2594e-07,7.2544,5.5743e-07,4.1883,7.425e-13,8.0826e-06,-5.5743e-07,-4.1883,2.4211
20135,21.599,3.3636,0,5.5101e-05,550.63,2.474e-05,80.228,1.4067e-05,0.0352,-5.3296e-05,-506.11,2.4211
20136,21.691,3.2727,0,5.3376e-05,533.39,2.4434e-05,83.594,1.3314e-05,0.036957,-5.146e-05,-486.65,2.4364
20137,21.599,3.2727,0.05,7.2578e-07,7.2527,5.573e-07,4.1874,1.0888e-12,1.0883e-05,-5.5731e-07,-4.1874,2.4211
20138,21.599,3.5455,0,5.4993e-05,549.55,2.4591e-05,78.815,1.4106e-05,0.034478,-5.3226e-05,-505.87,2.4211
20139,21.691,3.4545,0,5.3284e-05,532.48,2.431e-05,82.416,1.3346e-05,0.036386,-5.1401e-05,-486.45,2.4364
20140,21.599,3.4545,0.05,7.2545e-07,7.2495,5.5706e-07,4.1855,1.2012e-12,1.0758e-05,-5.5706e-07,-4.1855,2.4211
20141,21.599,3.7273,0,5.4843e-05,548.05,2.4384e-05,76.855,1.416e-05,0.033421,-5.3129e-05,-505.55,2.421
20142,21.691,3.6364,0,5.3148e-05,531.12,2.4125e-05,80.66,1.3394e-05,0.035497,-5.1314e-05,-486.16,2.4363
20143,21.599,3.6364,0.05,7.2497e-07,7.2447,5.5668e-07,4.1827,1.7639e-12,1.2518e-05,-5.5669e-07,-4.1827,2.421
20144,21.599,3.9091,0,5.4654e-05,546.16,2.4122e-05,74.366,1.4229e-05,0.031983,-5.3007e-05,-505.16,2.4209
20145,21.691,3.8182,0,5.297e-05,529.33,2.388e-05,78.34,1.3458e-05,0.034247,-5.12e-05,-485.78,2.4363
20146,21.599,3.8182,0.05,7.2433e-07,7.2383,5.562e-07,4.179,1.6354e-12,1.5128e-05,-5.562e-07,-4.1791,2.421
20147,21.599,4.0909,0,5.443e-05,543.92,2.3808e-05,71.372,1.4313e-05,0.030091,-5.2863e-05,-504.7,2.4209
20148,21.691,4,0,5.2751e-05,527.15,2.3579e-05,75.478,1.3538e-05,0.032575,-5.106e-05,-485.33,2.4362
20149,21.599,4,0.05,7.2355e-07,7.2306,5.556e-07,4.1746,2.1691e-12,1.5667e-05,-5.556e-07,-4.1746,2.4209
20150,21.599,4.2727,0,5.4174e-05,541.37,2.3445e-05,67.908,1.441e-05,0.027657,-5.2698e-05,-504.2,2.4208
20151,21.691,4.1818,0,5.2497e-05,524.61,2.3224e-05,72.101,1.3632e-05,0.0304,-5.0897e-05,-484.82,2.4361
20152,21.599,4.1818,0.05,7.2264e-07,7.2214,5.549e-07,4.1693,1.7778e-12,1.5091e-05,-5.549e-07,-4.1693,2.4208
20153,21.599,4.4545,0,5.3893e-05,538.56,2.3038e-05,64.018,1.4521e-05,0.024551,-5.2518e-05,-503.68,2.4206
20154,21.691,4.3636,0,5.2212e-05,521.76,2.282e-05,68.248,1.3741e-05,0.027605,-5.0714e-05,-484.26,2.436
20155,21.599,4.3636,0.05,7.2161e-07,7.2111,5.5411e-07,4.1633,2.4765e-12,1.7851e-05,-5.5411e-07,-4.1634,2.4207
20156,21.599,4.6364,0,5.3594e-05,535.57,2.2595e-05,59.758,1.4645e-05,0.020616,-5.2326e-05,-503.18,2.4205
20157,21.691,4.5455,0,5.1902e-05,518.66,2.2374e-05,63.969,1.3863e-05,0.024034,-5.0516e-05,-483.7,2.4359
20158,21.599,4.5455,0.05,7.2047e-07,7.1997,5.5323e-07,4.1568,1.8007e-12,1.6465e-05,-5.5323e-07,-4.1568,2.4206
20159,21.599,4.8182,0,5.3285e-05,532.49,2.2125e-05,55.198,1.478e-05,0.015596,-5.2131e-05,-502.73,2.4204
20160,21.691,4.7273,0,5.1575e-05,515.4,2.1891e-05,59.327,1.3998e-05,0.019508,-5.0309e-05,-483.16,2.4357
20161,21.599,4.7273,0.05,7.1924e-07,7.1874,5.5228e-07,4.1496,2.2077e-12,1.7358e-05,-5.5229e-07,-4.1497,2.4204
20162,21.599,5,0,5.2978e-05,529.42,2.1636e-05,50.422,1.4926e-05,0.0093424,-5.194e-05,-502.4,2.4202
20163,21.691,4.9091,0,5.1243e-05,512.07,2.1383e-05,54.402,1.4145e-05,0.01365,-5.01e-05,-482.7,2.4356
20164,21.599,4.9091,0.05,7.1793e-07,7.1743,5.5128e-07,4.1421,2.3651e-12,1.7381e-05,-5.5128e-07,-4.1421,2.4203
20165,21.599,5.1818,0,5.2685e-05,526.49,2.1142e-05,45.532,1.5082e-05,0.00086318,-5.1762e-05,-502.24,2.42
20166,21.691,5.0909,0,5.0916e-05,508.81,2.0861e-05,49.291,1.4302e-05,0.0064959,-4.9898e-05,-482.37,2.4354
20167,21.599,5.0909,0.05,7.1654e-07,7.1605,5.5021e-07,4.1341,2.2924e-12,1.4919e-05,-5.5022e-07,-4.1341,2.4201
20168,21.599,5.3636,0,5.2421e-05,523.85,2.0657e-05,40.648,1.5246e-05,-0.0079121,-5.1611e-05,-502.34,2.4198
20169,21.691,5.2727,0,5.061e-05,505.75,2.0339e-05,44.107,1.4468e-05,-0.0040974,-4.9715e-05,-482.26,2.4352
20170,21.599,5.2727,0.05,7.1498e-07,7.1448,5.4901e-07,4.125,2.4651e-12,1.4213e-05,-5.4901e-07,-4.1251,2.4199
20171,21.599,5.5455,0,5.2213e-05,521.77,2.0206e-05,35.96,1.5416e-05,-0.031336,-5.1509e-05,-502.88,2.4196
20172,21.691,5.4545,0,5.0343e-05,503.08,1.9834e-05,38.994,1.4643e-05,-0.012055,-4.9566e-05,-482.45,2.435
20173,21.599,5.4545,0.05,7.1142e-07,7.1093,5.4628e-07,4.1046,2.3043e-12,1.4193e-05,-5.4629e-07,-4.1046,2.4197
20174,21.599,5.7273,0,5.2273e-05,522.37,1.9971e-05,32.854,1.5594e-05,-0.034878,-5.1637e-05,-505.19,2.4194
20175,21.691,5.6364,0,5.0153e-05,501.18,1.9383e-05,34.216,1.4822e-05,-0.052894,-4.9484e-05,-483.22,2.4348
20176,21.599,5.6364,0.05,6.7805e-07,6.7758,5.2066e-07,3.912,1.8644e-12,1.3437e-05,-5.2066e-07,-3.912,2.4195
20177,21.691,5.8182,0,5.0451e-05,504.16,1.9334e-05,32.437,1.5015e-05,-0.010782,-4.9821e-05,-487.16,2.4346
20178,21.599,5.8182,0.05,2.0993e-07,2.0979,1.612e-07,1.2112,-1.3841e-13,1.5626e-07,-1.612e-07,-1.2112,2.4193
20179,21.599,5.9091,0,5.1032e-05,509.97,1.8625e-05,21.489,1.5764e-05,-0.0083573,-5.0633e-05,-498.89,2.4192
20180,21.783,0.27273,0,4.8288e-05,482.54,1.871e-05,33.531,1.4242e-05,-0.038399,-4.763e-05,-464.92,2.4501
20181,21.876,0.18182,0,4.6454e-05,464.22,1.8047e-05,32.855,1.3672e-05,-0.013698,-4.5808e-05,-446.92,2.4653
20182,21.783,0.18182,0.05,2.2941e-07,2.2925,1.7616e-07,1.3236,5.3077e-13,1.256e-05,-1.7616e-07,-1.3236,2.4499
20183,21.783,0.090909,0,4.7024e-05,469.92,1.7327e-05,21.799,1.4425e-05,-0.0079736,-4.6615e-05,-458.64,2.4498
20184,21.783,0.45455,0,4.8267e-05,482.33,1.8998e-05,37.151,1.4049e-05,-0.033125,-4.7528e-05,-462.7,2.4503
20185,21.876,0.36364,0,4.6195e-05,461.63,1.8152e-05,35.166,1.3464e-05,-0.056714,-4.5497e-05,-443.07,2.4655
20186,21.783,0.36364,0.05,6.7821e-07,6.7774,5.2078e-07,3.913,-7.8269e-13,3.686e-06,-5.2078e-07,-3.9129,2.4501
20187,21.783,0.63636,0,4.8519e-05,484.86,1.9506e-05,42.371,1.3866e-05,-0.0074721,-4.7659e-05,-462.28,2.4505
20188,21.876,0.54545,0,4.643e-05,463.98,1.8663e-05,40.501,1.3271e-05,-0.012018,-4.5609e-05,-442.41,2.4657
20189,21.783,0.54545,0.05,7.1051e-07,7.1002,5.4559e-07,4.0993,-5.1105e-13,6.4292e-06,-5.4559e-07,-4.0993,2.4503
20190,21.783,0.81818,0,4.8831e-05,487.97,2.0049e-05,47.793,1.3689e-05,0.0021529,-4.7842e-05,-462.31,2.4506
20191,21.876,0.72727,0,4.6748e-05,467.15,1.9229e-05,46.185,1.3082e-05,-0.0030994,-4.579e-05,-442.35,2.4659
20192,21.783,0.72727,0.05,7.1421e-07,7.1371,5.4842e-07,4.1206,-1.9076e-13,7.362e-06,-5.4842e-07,-4.1206,2.4505
20193,21.783,1,0,4.9172e-05,491.38,2.06e-05,53.207,1.3521e-05,0.011295,-4.805e-05,-462.61,2.4508
20194,21.876,0.90909,0,4.7105e-05,470.73,1.9812e-05,51.932,1.2902e-05,0.0084043,-4.6006e-05,-442.6,2.4661
20195,21.783,0.90909,0.05,7.1599e-07,7.155,5.4979e-07,4.1309,-9.6224e-14,6.5751e-06,-5.4979e-07,-4.1309,2.4507
20196,21.783,1.1818,0,4.9525e-05,494.91,2.1143e-05,58.476,1.3363e-05,0.017963,-4.8271e-05,-463.07,2.451
20197,21.876,1.0909,0,4.7482e-05,474.49,2.0393e-05,57.58,1.2731e-05,0.016082,-4.6239e-05,-443.07,2.4662
20198,21.783,1.0909,0.05,7.176e-07,7.171,5.5103e-07,4.1402,-5.8491e-13,2.9512e-06,-5.5103e-07,-4.1402,2.4509
20199,21.783,1.3636,0,4.9877e-05,498.43,2.1663e-05,63.49,1.3216e-05,0.023262,-4.8493e-05,-463.63,2.4511
20200,21.876,1.2727,0,4.7862e-05,478.29,2.0955e-05,63.001,1.2573e-05,0.022296,-4.6478e-05,-443.66,2.4664
20201,21.783,1.2727,0.05,7.1912e-07,7.1863,5.522e-07,4.149,-8.2647e-13,1.126e-06,-5.522e-07,-4.149,2.451
20202,21.783,1.5455,0,5.0216e-05,501.81,2.215e-05,68.157,1.3082e-05,0.02738,-4.8708e-05,-464.24,2.4512
20203,21.876,1.4545,0,4.8231e-05,481.98,2.1485e-05,68.089,1.2426e-05,0.027053,-4.6711e-05,-444.31,2.4665
20204,21.783,1.4545,0.05,7.2056e-07,7.2006,5.533e-07,4.1573,-6.0391e-13,2.9592e-06,-5.533e-07,-4.1573,2.4512
20205,21.783,1.7273,0,5.0531e-05,504.97,2.2595e-05,72.403,1.2963e-05,0.030604,-4.8908e-05,-464.84,2.4514
20206,21.876,1.6364,0,4.858e-05,485.46,2.1974e-05,72.761,1.2294e-05,0.030772,-4.6931e-05,-444.96,2.4666
20207,21.783,1.6364,0.05,7.2188e-07,7.2138,5.5432e-07,4.1649,-6.2552e-13,5.5271e-06,-5.5431e-07,-4.1649,2.4513
20208,21.783,1.9091,0,5.0817e-05,507.82,2.2991e-05,76.172,1.2857e-05,0.033115,-4.909e-05,-465.41,2.4515
20209,21.876,1.8182,0,4.8898e-05,488.64,2.2414e-05,76.952,1.2177e-05,0.033659,-4.7132e-05,-445.59,2.4667
20210,21.783,1.8182,0.05,7.2308e-07,7.2258,5.5523e-07,4.1718,-1.4174e-13,3.1298e-06,-5.5523e-07,-4.1718,2.4514
20211,21.783,2.0909,0,5.1066e-05,510.3,2.3333e-05,79.421,1.2767e-05,0.035054,-4.9248e-05,-465.92,2.4515
20212,21.876,2,0,4.918e-05,491.46,2.2799e-05,80.613,1.2075e-05,0.035897,-4.731e-05,-446.16,2.4668
20213,21.783,2,0.05,7.2413e-07,7.2363,5.5604e-07,4.1779,1.394e-13,2.6271e-06,-5.5604e-07,-4.1779,2.4515
20214,21.783,2.2727,0,5.1274e-05,512.39,2.3617e-05,82.115,1.2693e-05,0.036523,-4.9381e-05,-466.36,2.4516
20215,21.876,2.1818,0,4.9421e-05,493.87,2.3125e-05,83.708,1.1989e-05,0.037606,-4.7462e-05,-446.65,2.4669
20216,21.783,2.1818,0.05,7.2503e-07,7.2453,5.5673e-07,4.1831,2.0982e-13,4.1052e-06,-5.5673e-07,-4.183,2.4516
20217,21.783,2.4545,0,5.144e-05,514.04,2.384e-05,84.233,1.2634e-05,0.0376,-4.9486e-05,-466.71,2.4517
20218,21.876,2.3636,0,4.9618e-05,495.83,2.3389e-05,86.21,1.192e-05,0.03888,-4.7585e-05,-447.06,2.467
20219,21.783,2.3636,0.05,7.2576e-07,7.2526,5.5729e-07,4.1873,6.4961e-14,6.6228e-06,-5.5729e-07,-4.1873,2.4516
20220,21.783,2.6364,0,5.1559e-05,515.24,2.4001e-05,85.756,1.2592e-05,0.038336,-4.9562e-05,-466.96,2.4517
20221,21.876,2.5455,0,4.9767e-05,497.33,2.3588e-05,88.101,1.1868e-05,0.039785,-4.7679e-05,-447.37,2.467
20222,21.783,2.5455,0.05,7.2631e-07,7.2581,5.5772e-07,4.1905,6.2513e-13,6.4325e-06,-5.5772e-07,-4.1905,2.4517
20223,21.783,2.8182,0,5.1631e-05,515.96,2.4098e-05,86.674,1.2567e-05,0.038762,-4.9607e-05,-467.12,2.4517
20224,21.876,2.7273,0,4.9867e-05,498.33,2.3722e-05,89.368,1.1833e-05,0.040368,-4.7742e-05,-447.58,2.467
20225,21.783,2.7273,0.05,7.2668e-07,7.2618,5.58e-07,4.1926,5.3462e-14,6.3153e-06,-5.58e-07,-4.1926,2.4517
20226,21.783,3,0,5.1656e-05,516.2,2.413e-05,86.981,1.2559e-05,0.038901,-4.9623e-05,-467.17,2.4517
20227,21.876,2.9091,0,4.9918e-05,498.83,2.3789e-05,90.003,1.1816e-05,0.040649,-4.7773e-05,-447.69,2.4671
20228,21.783,2.9091,0.05,7.2687e-07,7.2637,5.5815e-07,4.1937,3.9517e-13,9.0894e-06,-5.5815e-07,-4.1937,2.4517
20229,21.783,3.1818,0,5.1631e-05,515.96,2.4098e-05,86.674,1.2567e-05,0.038762,-4.9607e-05,-467.12,2.4517
20230,21.876,3.0909,0,4.9918e-05,498.83,2.3789e-05,90.003,1.1816e-05,0.040649,-4.7773e-05,-447.69,2.4671
20231,21.783,3.0909,0.05,7.2687e-07,7.2637,5.5815e-07,4.1937,5.1443e-13,8.0772e-06,-5.5815e-07,-4.1937,2.4517
20232,21.783,3.3636,0,5.1559e-05,515.24,2.4001e-05,85.756,1.2592e-05,0.038334,-4.9562e-05,-466.96,2.4517
20233,21.876,3.2727,0,4.9867e-05,498.33,2.3722e-05,89.368,1.1833e-05,0.040366,-4.7742e-05,-447.58,2.467
20234,21.783,3.2727,0.05,7.2668e-07,7.2618,5.58e-07,4.1926,1.0868e-12,8.9596e-06,-5.58e-07,-4.1926,2.4517
20235,21.783,3.5455,0,5.144e-05,514.04,2.384e-05,84.233,1.2634e-05,0.037601,-4.9486e-05,-466.71,2.4517
20236,21.876,3.4545,0,4.9767e-05,497.33,2.3588e-05,88.101,1.1868e-05,0.039784,-4.7679e-05,-447.37,2.467
20237,21.783,3.4545,0.05,7.2631e-07,7.2581,5.5772e-07,4.1905,1.1982e-12,9.7968e-06,-5.5772e-07,-4.1905,2.4517
20238,21.783,3.7273,0,5.1274e-05,512.39,2.3617e-05,82.115,1.2693e-05,0.036526,-4.9381e-05,-466.36,2.4516
20239,21.876,3.6364,0,4.9618e-05,495.83,2.3389e-05,86.21,1.192e-05,0.038882,-4.7585e-05,-447.06,2.467
20240,21.783,3.6364,0.05,7.2576e-07,7.2526,5.5729e-07,4.1873,1.3032e-12,1.4362e-05,-5.5729e-07,-4.1873,2.4516
20241,21.783,3.9091,0,5.1066e-05,510.3,2.3333e-05,79.421,1.2767e-05,0.035055,-4.9248e-05,-465.92,2.4515
20242,21.876,3.8182,0,4.9421e-05,493.87,2.3125e-05,83.708,1.1989e-05,0.037607,-4.7462e-05,-446.65,2.4669
20243,21.783,3.8182,0.05,7.2503e-07,7.2453,5.5673e-07,4.1831,2.073e-12,1.5073e-05,-5.5673e-07,-4.1831,2.4516
20244,21.783,4.0909,0,5.0817e-05,507.82,2.2991e-05,76.172,1.2857e-05,0.033115,-4.909e-05,-465.41,2.4515
20245,21.876,4,0,4.918e-05,491.46,2.2799e-05,80.613,1.2075e-05,0.035896,-4.731e-05,-446.16,2.4668
20246,21.783,4,0.05,7.2413e-07,7.2363,5.5604e-07,4.1779,2.373e-12,1.553e-05,-5.5604e-07,-4.1779,2.4515
20247,21.783,4.2727,0,5.0531e-05,504.97,2.2595e-05,72.403,1.2963e-05,0.030603,-4.8908e-05,-464.84,2.4514
20248,21.876,4.1818,0,4.8898e-05,488.64,2.2414e-05,76.952,1.2177e-05,0.03366,-4.7132e-05,-445.59,2.4667
20249,21.783,4.1818,0.05,7.2308e-07,7.2258,5.5523e-07,4.1718,1.7395e-12,1.4065e-05,-5.5523e-07,-4.1718,2.4514
20250,21.783,4.4545,0,5.0216e-05,501.81,2.215e-05,68.157,1.3082e-05,0.027377,-4.8708e-05,-464.24,2.4512
20251,21.876,4.3636,0,4.858e-05,485.46,2.1974e-05,72.761,1.2294e-05,0.030769,-4.6931e-05,-444.96,2.4666
20252,21.783,4.3636,0.05,7.2188e-07,7.2138,5.5431e-07,4.1649,2.4481e-12,1.719e-05,-5.5432e-07,-4.1649,2.4513
20253,21.783,4.6364,0,4.9877e-05,498.43,2.1663e-05,63.49,1.3216e-05,0.023261,-4.8493e-05,-463.63,2.4511
20254,21.876,4.5455,0,4.8231e-05,481.98,2.1485e-05,68.089,1.2426e-05,0.02705,-4.6711e-05,-444.31,2.4665
20255,21.783,4.5455,0.05,7.2056e-07,7.2006,5.533e-07,4.1573,2.4573e-12,1.5542e-05,-5.533e-07,-4.1573,2.4512
20256,21.783,4.8182,0,4.9525e-05,494.91,2.1143e-05,58.476,1.3363e-05,0.017963,-4.8271e-05,-463.07,2.451
20257,21.876,4.7273,0,4.7862e-05,478.29,2.0955e-05,63.001,1.2573e-05,0.022296,-4.6478e-05,-443.66,2.4664
20258,21.783,4.7273,0.05,7.1912e-07,7.1863,5.522e-07,4.149,2.4056e-12,1.7341e-05,-5.522e-07,-4.149,2.451
20259,21.783,5,0,4.9172e-05,491.38,2.0601e-05,53.207,1.3521e-05,0.011296,-4.805e-05,-462.61,2.4508
20260,21.876,4.9091,0,4.7482e-05,474.49,2.0393e-05,57.58,1.2731e-05,0.016079,-4.6239e-05,-443.07,2.4662
20261,21.783,4.9091,0.05,7.176e-07,7.171,5.5103e-07,4.1402,2.3215e-12,1.7804e-05,-5.5103e-07,-4.1402,2.4509
20262,21.783,5.1818,0,4.8831e-05,487.97,2.0049e-05,47.793,1.3689e-05,0.0021535,-4.7842e-05,-462.31,2.4506
20263,21.876,5.0909,0,4.7105e-05,470.73,1.9812e-05,51.932,1.2902e-05,0.0084049,-4.6006e-05,-442.6,2.4661
20264,21.783,5.0909,0.05,7.1599e-07,7.155,5.4979e-07,4.1309,2.2828e-12,1.4383e-05,-5.4979e-07,-4.1309,2.4507
20265,21.783,5.3636,0,4.8519e-05,484.86,1.9506e-05,42.371,1.3866e-05,-0.0074712,-4.7659e-05,-462.28,2.4505
20266,21.876,5.2727,0,4.6748e-05,467.15,1.9229e-05,46.185,1.3082e-05,-0.0031001,-4.579e-05,-442.35,2.4659
20267,21.783,5.2727,0.05,7.1421e-07,7.1371,5.4842e-07,4.1206,2.1111e-12,1.6183e-05,-5.4842e-07,-4.1206,2.4505
20268,21.783,5.5455,0,4.8267e-05,482.33,1.8998e-05,37.151,1.4049e-05,-0.033123,-4.7528e-05,-462.7,2.4503
20269,21.876,5.4545,0,4.643e-05,463.98,1.8663e-05,40.501,1.3271e-05,-0.012015,-4.5609e-05,-442.41,2.4657
20270,21.783,5.4545,0.05,7.1051e-07,7.1002,5.4559e-07,4.0993,2.0186e-12,1.4508e-05,-5.4559e-07,-4.0993,2.4503
20271,21.783,5.7273,0,4.8288e-05,482.54,1.871e-05,33.531,1.4242e-05,-0.038399,-4.763e-05,-464.92,2.4501
20272,21.876,5.6364,0,4.6195e-05,461.63,1.8152e-05,35.166,1.3464e-05,-0.056713,-4.5497e-05,-443.07,2.4655
20273,21.783,5.6364,0.05,6.7821e-07,6.7774,5.2078e-07,3.9129,1.8451e-12,1.3994e-05,-5.2078e-07,-3.913,2.4501
20274,21.876,5.8182,0,4.6454e-05,464.22,1.8047e-05,32.855,1.3672e-05,-0.013702,-4.5808e-05,-446.92,2.4653
20275,21.783,5.8182,0.05,2.2941e-07,2.2925,1.7616e-07,1.3236,5.7417e-13,2.539e-06,-1.7616e-07,-1.3236,2.4499
20276,21.783,5.9091,0,4.7024e-05,469.92,1.7327e-05,21.799,1.4425e-05,-0.0079728,-4.6615e-05,-458.64,2.4498
20277,21.968,0.27273,0,4.4316e-05,442.86,1.7452e-05,34.208,1.2894e-05,-0.042428,-4.3636e-05,-424.78,2.4807
20278,22.061,0.18182,0,4.2469e-05,424.39,1.676e-05,33.235,1.2335e-05,-0.017339,-4.1806e-05,-406.81,2.496
20279,21.968,0.18182,0.05,2.5055e-07,2.5038,1.9239e-07,1.4456,7.1839e-13,1.057e-05,-1.9239e-07,-1.4455,2.4806
20280,21.968,0.090909,0,4.3031e-05,430.02,1.6032e-05,22.09,1.3091e-05,-0.0073144,-4.2613e-05,-418.55,2.4805
20281,21.968,0.45455,0,4.4341e-05,443.11,1.7802e-05,38.408,1.2686e-05,-0.034941,-4.3563e-05,-422.67,2.4809
20282,22.061,0.36364,0,4.2256e-05,422.27,1.693e-05,36.153,1.211e-05,-0.060859,-4.1525e-05,-403.06,2.4962
20283,21.968,0.36364,0.05,6.7862e-07,6.7815,5.2109e-07,3.9153,1.8587e-13,5.9284e-06,-5.2109e-07,-3.9153,2.4808
20284,21.968,0.63636,0,4.4645e-05,446.14,1.8374e-05,44.227,1.2487e-05,-0.0067293,-4.3728e-05,-422.39,2.4811
20285,22.061,0.54545,0,4.2544e-05,425.14,1.7507e-05,42.117,1.19e-05,-0.011712,-4.1671e-05,-402.52,2.4964
20286,21.968,0.54545,0.05,7.0981e-07,7.0932,5.4505e-07,4.0953,1.981e-13,6.6284e-06,-5.4505e-07,-4.0953,2.481
20287,21.968,0.81818,0,4.5011e-05,449.8,1.8982e-05,50.248,1.2295e-05,0.003874,-4.3945e-05,-422.56,2.4813
20288,22.061,0.72727,0,4.2919e-05,428.89,1.8143e-05,48.442,1.1696e-05,-0.0016671,-4.1889e-05,-402.61,2.4966
20289,21.968,0.72727,0.05,7.1369e-07,7.132,5.4802e-07,4.1176,-4.0237e-13,3.4248e-06,-5.4802e-07,-4.1176,2.4812
20290,21.968,1,0,4.5406e-05,453.75,1.9596e-05,56.24,1.2113e-05,0.01376,-4.4187e-05,-423,2.4815
20291,22.061,0.90909,0,4.3334e-05,433.04,1.8794e-05,54.816,1.15e-05,0.010865,-4.2141e-05,-403.02,2.4967
20292,21.968,0.90909,0.05,7.1574e-07,7.1525,5.496e-07,4.1295,-1.8473e-13,-4.1548e-07,-5.496e-07,-4.1295,2.4814
20293,21.968,1.1818,0,4.5811e-05,457.8,2.0197e-05,62.049,1.1941e-05,0.020876,-4.4439e-05,-423.6,2.4816
20294,22.061,1.0909,0,4.3768e-05,437.37,1.9438e-05,61.052,1.1315e-05,0.019116,-4.2408e-05,-403.63,2.4969
20295,21.968,1.0909,0.05,7.1762e-07,7.1712,5.5104e-07,4.1403,-1.0818e-12,-5.0047e-06,-5.5104e-07,-4.1403,2.4815
20296,21.968,1.3636,0,4.6211e-05,461.79,2.077e-05,67.552,1.1783e-05,0.026472,-4.4689e-05,-424.28,2.4818
20297,22.061,1.2727,0,4.42e-05,441.69,2.0057e-05,67.01,1.1142e-05,0.025715,-4.2677e-05,-404.35,2.497
20298,21.968,1.2727,0.05,7.194e-07,7.189,5.5241e-07,4.1506,-1.1088e-12,-6.4845e-06,-5.5241e-07,-4.1506,2.4817
20299,21.968,1.5455,0,4.6592e-05,465.59,2.1303e-05,72.652,1.1638e-05,0.030778,-4.4928e-05,-424.99,2.4819
20300,22.061,1.4545,0,4.4616e-05,445.85,2.0639e-05,72.574,1.0984e-05,0.03071,-4.2936e-05,-405.1,2.4972
20301,21.968,1.4545,0.05,7.2107e-07,7.2057,5.5369e-07,4.1602,-5.9337e-13,-3.1941e-06,-5.5369e-07,-4.1602,2.4818
20302,21.968,1.7273,0,4.6944e-05,469.12,2.1788e-05,77.273,1.1508e-05,0.034124,-4.5149e-05,-425.67,2.482
20303,22.061,1.6364,0,4.5005e-05,449.74,2.1172e-05,77.66,1.0841e-05,0.034582,-4.3178e-05,-405.84,2.4973
20304,21.968,1.6364,0.05,7.226e-07,7.221,5.5487e-07,4.1691,-5.425e-13,-1.9756e-06,-5.5487e-07,-4.1691,2.4819
20305,21.968,1.9091,0,4.7261e-05,472.28,2.2218e-05,81.36,1.1395e-05,0.036712,-4.5347e-05,-426.3,2.4821
20306,22.061,1.8182,0,4.5359e-05,453.27,2.165e-05,82.202,1.0714e-05,0.037567,-4.3397e-05,-406.53,2.4974
20307,21.968,1.8182,0.05,7.2398e-07,7.2348,5.5593e-07,4.177,-4.7817e-13,-2.2239e-06,-5.5593e-07,-4.177,2.482
20308,21.968,2.0909,0,4.7536e-05,475.03,2.2588e-05,84.871,1.1297e-05,0.038703,-4.5519e-05,-426.86,2.4822
20309,22.061,2,0,4.567e-05,456.38,2.2065e-05,86.156,1.0604e-05,0.039868,-4.359e-05,-407.15,2.4975
20310,21.968,2,0.05,7.2519e-07,7.2469,5.5686e-07,4.184,-4.0604e-13,-9.1441e-07,-5.5686e-07,-4.184,2.4821
20311,21.968,2.2727,0,4.7765e-05,477.32,2.2894e-05,87.775,1.1217e-05,0.040204,-4.5662e-05,-427.33,2.4822
20312,22.061,2.1818,0,4.5934e-05,459.03,2.2416e-05,89.487,1.0512e-05,0.041616,-4.3753e-05,-407.68,2.4975
20313,21.968,2.1818,0.05,7.2622e-07,7.2572,5.5765e-07,4.1899,-8.4296e-14,-1.1471e-06,-5.5765e-07,-4.1899,2.4822
20314,21.968,2.4545,0,4.7946e-05,479.13,2.3134e-05,90.052,1.1154e-05,0.041298,-4.5775e-05,-427.7,2.4823
20315,22.061,2.3636,0,4.6149e-05,461.17,2.2699e-05,92.173,1.0437e-05,0.042916,-4.3884e-05,-408.11,2.4976
20316,21.968,2.3636,0.05,7.2705e-07,7.2655,5.5828e-07,4.1947,2.2793e-14,-4.4963e-07,-5.5828e-07,-4.1947,2.4823
20317,21.968,2.6364,0,4.8077e-05,480.43,2.3306e-05,91.688,1.1109e-05,0.042045,-4.5856e-05,-427.97,2.4823
20318,22.061,2.5455,0,4.6312e-05,462.8,2.2913e-05,94.199,1.0381e-05,0.043836,-4.3984e-05,-408.44,2.4976
20319,21.968,2.5455,0.05,7.2768e-07,7.2718,5.5877e-07,4.1984,3.6158e-13,3.3222e-06,-5.5877e-07,-4.1984,2.4823
20320,21.968,2.8182,0,4.8155e-05,481.22,2.341e-05,92.672,1.1082e-05,0.042479,-4.5904e-05,-428.13,2.4824
20321,22.061,2.7273,0,4.6421e-05,463.89,2.3056e-05,95.554,1.0344e-05,0.044426,-4.4051e-05,-408.66,2.4977
20322,21.968,2.7273,0.05,7.281e-07,7.276,5.5909e-07,4.2008,4.884e-13,2.3616e-06,-5.5909e-07,-4.2008,2.4823
20323,21.968,3,0,4.8182e-05,481.49,2.3445e-05,93.001,1.1073e-05,0.04262,-4.5921e-05,-428.19,2.4824
20324,22.061,2.9091,0,4.6476e-05,464.44,2.3127e-05,96.234,1.0325e-05,0.044714,-4.4084e-05,-408.77,2.4977
20325,21.968,2.9091,0.05,7.2831e-07,7.2781,5.5925e-07,4.202,6.1633e-13,3.3206e-06,-5.5926e-07,-4.202,2.4824
20326,21.968,3.1818,0,4.8155e-05,481.22,2.341e-05,92.672,1.1082e-05,0.042478,-4.5904e-05,-428.13,2.4824
20327,22.061,3.0909,0,4.6476e-05,464.44,2.3127e-05,96.234,1.0325e-05,0.044714,-4.4084e-05,-408.77,2.4977
20328,21.968,3.0909,0.05,7.2831e-07,7.2781,5.5925e-07,4.202,9.7541e-13,4.3102e-06,-5.5926e-07,-4.202,2.4824
20329,21.968,3.3636,0,4.8077e-05,480.43,2.3306e-05,91.688,1.1109e-05,0.042044,-4.5856e-05,-427.97,2.4823
20330,22.061,3.2727,0,4.6421e-05,463.89,2.3056e-05,95.554,1.0344e-05,0.044427,-4.4051e-05,-408.66,2.4977
20331,21.968,3.2727,0.05,7.281e-07,7.276,5.5909e-07,4.2008,1.1051e-12,6.2323e-06,-5.5909e-07,-4.2008,2.4823
20332,21.968,3.5455,0,4.7946e-05,479.13,2.3134e-05,90.052,1.1154e-05,0.041299,-4.5775e-05,-427.7,2.4823
20333,22.061,3.4545,0,4.6312e-05,462.8,2.2913e-05,94.199,1.0381e-05,0.043836,-4.3984e-05,-408.44,2.4976
20334,21.968,3.4545,0.05,7.2768e-07,7.2718,5.5877e-07,4.1984,1.2276e-12,7.1669e-06,-5.5877e-07,-4.1984,2.4823
20335,21.968,3.7273,0,4.7765e-05,477.32,2.2894e-05,87.775,1.1217e-05,0.040204,-4.5662e-05,-427.33,2.4822
20336,22.061,3.6364,0,4.6149e-05,461.17,2.2699e-05,92.173,1.0437e-05,0.042915,-4.3884e-05,-408.11,2.4976
20337,21.968,3.6364,0.05,7.2705e-07,7.2655,5.5828e-07,4.1947,1.3401e-12,9.9077e-06,-5.5829e-07,-4.1947,2.4823
20338,21.968,3.9091,0,4.7536e-05,475.03,2.2588e-05,84.871,1.1297e-05,0.038702,-4.5519e-05,-426.86,2.4822
20339,22.061,3.8182,0,4.5934e-05,459.03,2.2416e-05,89.487,1.0512e-05,0.041616,-4.3753e-05,-407.68,2.4975
20340,21.968,3.8182,0.05,7.2622e-07,7.2572,5.5765e-07,4.1899,1.6693e-12,1.1614e-05,-5.5765e-07,-4.1899,2.4822
20341,21.968,4.0909,0,4.7261e-05,472.28,2.2218e-05,81.36,1.1395e-05,0.036712,-4.5347e-05,-426.3,2.4821
20342,22.061,4,0,4.567e-05,456.38,2.2065e-05,86.156,1.0604e-05,0.039866,-4.359e-05,-407.15,2.4975
20343,21.968,4,0.05,7.2519e-07,7.2469,5.5686e-07,4.184,1.7494e-12,1.1277e-05,-5.5686e-07,-4.184,2.4821
20344,21.968,4.2727,0,4.6944e-05,469.12,2.1788e-05,77.273,1.1508e-05,0.034123,-4.5149e-05,-425.67,2.482
20345,22.061,4.1818,0,4.5359e-05,453.27,2.165e-05,82.202,1.0714e-05,0.037567,-4.3397e-05,-406.53,2.4974
20346,21.968,4.1818,0.05,7.2398e-07,7.2348,5.5593e-07,4.177,1.8026e-12,1.252e-05,-5.5593e-07,-4.177,2.482
20347,21.968,4.4545,0,4.6592e-05,465.59,2.1303e-05,72.652,1.1638e-05,0.030775,-4.4928e-05,-424.99,2.4819
20348,22.061,4.3636,0,4.5005e-05,449.74,2.1172e-05,77.66,1.0841e-05,0.034582,-4.3178e-05,-405.84,2.4973
20349,21.968,4.3636,0.05,7.226e-07,7.221,5.5487e-07,4.1691,2.2777e-12,1.4853e-05,-5.5487e-07,-4.1691,2.4819
20350,21.968,4.6364,0,4.6211e-05,461.79,2.077e-05,67.552,1.1783e-05,0.026471,-4.4689e-05,-424.28,2.4818
20351,22.061,4.5455,0,4.4616e-05,445.85,2.0639e-05,72.574,1.0984e-05,0.030709,-4.2936e-05,-405.1,2.4972
20352,21.968,4.5455,0.05,7.2107e-07,7.2057,5.5369e-07,4.1602,2.2748e-12,1.2787e-05,-5.5369e-07,-4.1602,2.4818
20353,21.968,4.8182,0,4.5811e-05,457.8,2.0197e-05,62.049,1.1941e-05,0.020874,-4.4439e-05,-423.6,2.4816
20354,22.061,4.7273,0,4.42e-05,441.69,2.0057e-05,67.01,1.1142e-05,0.025715,-4.2677e-05,-404.35,2.497
20355,21.968,4.7273,0.05,7.194e-07,7.189,5.5241e-07,4.1506,2.0111e-12,1.4337e-05,-5.5241e-07,-4.1506,2.4817
20356,21.968,5,0,4.5406e-05,453.75,1.9596e-05,56.24,1.2113e-05,0.013757,-4.4187e-05,-423,2.4815
20357,22.061,4.9091,0,4.3768e-05,437.37,1.9438e-05,61.052,1.1315e-05,0.019115,-4.2408e-05,-403.63,2.4969
20358,21.968,4.9091,0.05,7.1762e-07,7.1712,5.5104e-07,4.1403,2.379e-12,1.4025e-05,-5.5104e-07,-4.1403,2.4815
20359,21.968,5.1818,0,4.5011e-05,449.8,1.8982e-05,50.248,1.2295e-05,0.0038732,-4.3945e-05,-422.56,2.4813
20360,22.061,5.0909,0,4.3334e-05,433.04,1.8794e-05,54.816,1.15e-05,0.010863,-4.2141e-05,-403.02,2.4967
20361,21.968,5.0909,0.05,7.1574e-07,7.1525,5.496e-07,4.1295,2.3723e-12,1.1445e-05,-5.496e-07,-4.1295,2.4814
20362,21.968,5.3636,0,4.4645e-05,446.14,1.8374e-05,44.227,1.2487e-05,-0.006728,-4.3728e-05,-422.39,2.4811
20363,22.061,5.2727,0,4.2919e-05,428.89,1.8143e-05,48.442,1.1696e-05,-0.0016687,-4.1889e-05,-402.61,2.4966
20364,21.968,5.2727,0.05,7.1369e-07,7.132,5.4802e-07,4.1176,2.2276e-12,1.2039e-05,-5.4803e-07,-4.1177,2.4812
20365,21.968,5.5455,0,4.4341e-05,443.11,1.7802e-05,38.408,1.2686e-05,-0.03494,-4.3563e-05,-422.67,2.4809
20366,22.061,5.4545,0,4.2544e-05,425.14,1.7507e-05,42.117,1.19e-05,-0.011708,-4.1671e-05,-402.52,2.4964
20367,21.968,5.4545,0.05,7.0981e-07,7.0932,5.4504e-07,4.0952,2.1171e-12,1.1183e-05,-5.4505e-07,-4.0953,2.481
20368,21.968,5.7273,0,4.4316e-05,442.86,1.7452e-05,34.208,1.2894e-05,-0.042431,-4.3636e-05,-424.78,2.4807
20369,22.061,5.6364,0,4.2256e-05,422.27,1.693e-05,36.153,1.211e-05,-0.060856,-4.1525e-05,-403.06,2.4962
20370,21.968,5.6364,0.05,6.7862e-07,6.7815,5.2109e-07,3.9153,2.041e-12,1.0989e-05,-5.211e-07,-3.9153,2.4808
20371,22.061,5.8182,0,4.2469e-05,424.39,1.676e-05,33.235,1.2335e-05,-0.017343,-4.1806e-05,-406.81,2.496
20372,21.968,5.8182,0.05,2.5055e-07,2.5038,1.9239e-07,1.4455,8.5369e-13,4.9494e-08,-1.9239e-07,-1.4456,2.4806
20373,21.968,5.9091,0,4.3031e-05,430.02,1.6032e-05,22.09,1.3091e-05,-0.0073186,-4.2613e-05,-418.55,2.4805
20374,22.153,0.27273,0,4.036e-05,403.32,1.6198e-05,34.881,1.155e-05,-0.047076,-3.9654e-05,-384.77,2.5115
20375,22.245,0.18182,0,3.8495e-05,384.68,1.5473e-05,33.567,1.1002e-05,-0.021916,-3.7814e-05,-366.81,2.5267
20376,22.153,0.18182,0.05,2.735e-07,2.7332,2.1002e-07,1.578,-3.2467e-13,5.2043e-06,-2.1002e-07,-1.578,2.5113
20377,22.153,0.090909,0,3.9054e-05,390.28,1.4741e-05,22.357,1.1764e-05,-0.0062916,-3.8626e-05,-378.62,2.5113
20378,22.153,0.45455,0,4.044e-05,404.12,1.6619e-05,39.743,1.1325e-05,-0.036732,-3.9617e-05,-382.79,2.5116
20379,22.245,0.36364,0,3.8338e-05,383.11,1.5717e-05,37.183,1.0759e-05,-0.065333,-3.757e-05,-363.19,2.5269
20380,22.153,0.36364,0.05,6.793e-07,6.7883,5.2162e-07,3.9192,-1.9559e-13,3.3574e-06,-5.2161e-07,-3.9192,2.5115
20381,22.153,0.63636,0,4.0803e-05,407.74,1.7264e-05,46.237,1.1109e-05,-0.0055491,-3.9819e-05,-382.66,2.5118
20382,22.245,0.54545,0,3.8687e-05,386.6,1.6371e-05,43.863,1.0531e-05,-0.010997,-3.7754e-05,-362.81,2.5271
20383,22.153,0.54545,0.05,7.0934e-07,7.0885,5.4469e-07,4.0926,3.1824e-13,5.9399e-06,-5.4469e-07,-4.0926,2.5117
20384,22.153,0.81818,0,4.123e-05,412.02,1.7944e-05,52.93,1.09e-05,0.0061746,-4.0074e-05,-383,2.512
20385,22.245,0.72727,0,3.9129e-05,391.02,1.7084e-05,50.912,1.0308e-05,0.00037423,-3.8013e-05,-363.07,2.5273
20386,22.153,0.72727,0.05,7.1347e-07,7.1297,5.4785e-07,4.1164,-9.3172e-14,3.1445e-06,-5.4785e-07,-4.1164,2.5119
20387,22.153,1,0,4.1687e-05,416.58,1.8627e-05,59.561,1.0702e-05,0.016886,-4.0353e-05,-383.59,2.5122
20388,22.245,0.90909,0,3.9611e-05,395.84,1.781e-05,57.983,1.0095e-05,0.014068,-3.8305e-05,-363.64,2.5274
20389,22.153,0.90909,0.05,7.1586e-07,7.1536,5.4969e-07,4.1302,-9.5675e-13,-2.7497e-06,-5.4969e-07,-4.1301,2.5121
20390,22.153,1.1818,0,4.215e-05,421.21,1.9291e-05,65.957,1.0516e-05,0.024493,-4.0638e-05,-384.33,2.5123
20391,22.245,1.0909,0,4.0108e-05,400.8,1.8524e-05,64.864,9.8939e-06,0.022951,-3.8608e-05,-364.4,2.5276
20392,22.153,1.0909,0.05,7.1806e-07,7.1756,5.5138e-07,4.1428,-5.7275e-13,-4.9053e-06,-5.5138e-07,-4.1428,2.5122
20393,22.153,1.3636,0,4.2601e-05,425.72,1.992e-05,71.984,1.0344e-05,0.030405,-4.0917e-05,-385.12,2.5124
20394,22.245,1.2727,0,4.0597e-05,405.69,1.9205e-05,71.398,9.7066e-06,0.029962,-3.8908e-05,-365.24,2.5277
20395,22.153,1.2727,0.05,7.2014e-07,7.1964,5.5298e-07,4.1548,-8.6659e-13,-5.0734e-06,-5.5298e-07,-4.1548,2.5124
20396,22.153,1.5455,0,4.3028e-05,429.98,2.0502e-05,77.541,1.0187e-05,0.034907,-4.118e-05,-385.92,2.5126
20397,22.245,1.4545,0,4.1064e-05,410.36,1.984e-05,77.466,9.5348e-06,0.035208,-3.9194e-05,-366.09,2.5278
20398,22.153,1.4545,0.05,7.2208e-07,7.2158,5.5447e-07,4.166,-9.286e-13,-6.2104e-06,-5.5446e-07,-4.166,2.5125
20399,22.153,1.7273,0,4.3419e-05,433.89,2.1029e-05,82.553,1.0047e-05,0.038378,-4.1421e-05,-386.67,2.5127
20400,22.245,1.6364,0,4.1497e-05,414.68,2.0419e-05,82.981,9.3798e-06,0.039236,-3.9457e-05,-366.9,2.528
20401,22.153,1.6364,0.05,7.2385e-07,7.2335,5.5583e-07,4.1763,-4.578e-13,-3.2683e-06,-5.5583e-07,-4.1763,2.5126
20402,22.153,1.9091,0,4.3768e-05,437.38,2.1493e-05,86.966,9.9237e-06,0.041048,-4.1635e-05,-387.35,2.5128
20403,22.245,1.8182,0,4.1887e-05,418.58,2.0934e-05,87.885,9.2426e-06,0.042322,-3.9693e-05,-367.64,2.5281
20404,22.153,1.8182,0.05,7.2543e-07,7.2493,5.5704e-07,4.1854,-4.0501e-13,-1.998e-06,-5.5704e-07,-4.1854,2.5127
20405,22.153,2.0909,0,4.407e-05,440.4,2.189e-05,90.744,9.8187e-06,0.043088,-4.1819e-05,-387.94,2.5128
20406,22.245,2,0,4.2228e-05,421.99,2.138e-05,92.134,9.124e-06,0.044686,-3.9899e-05,-368.29,2.5281
20407,22.153,2,0.05,7.2681e-07,7.2631,5.581e-07,4.1934,1.0922e-13,-3.3908e-06,-5.581e-07,-4.1934,2.5128
20408,22.153,2.2727,0,4.4321e-05,442.9,2.2218e-05,93.859,9.7322e-06,0.044622,-4.1971e-05,-388.44,2.5129
20409,22.245,2.1818,0,4.2516e-05,424.87,2.1755e-05,95.702,9.0245e-06,0.046476,-4.0072e-05,-368.84,2.5282
20410,22.153,2.1818,0.05,7.2797e-07,7.2747,5.5899e-07,4.2001,-2.6239e-13,-1.7699e-06,-5.5899e-07,-4.2001,2.5129
20411,22.153,2.4545,0,4.4518e-05,444.87,2.2475e-05,96.296,9.6646e-06,0.04574,-4.2091e-05,-388.82,2.513
20412,22.245,2.3636,0,4.275e-05,427.2,2.2057e-05,98.571,8.9445e-06,0.047805,-4.0211e-05,-369.28,2.5283
20413,22.153,2.3636,0.05,7.2891e-07,7.2841,5.5971e-07,4.2055,-1.6983e-13,-1.0335e-06,-5.5971e-07,-4.2055,2.5129
20414,22.153,2.6364,0,4.466e-05,446.29,2.2659e-05,98.043,9.6162e-06,0.046498,-4.2176e-05,-389.1,2.513
20415,22.245,2.5455,0,4.2926e-05,428.96,2.2284e-05,100.73,8.8843e-06,0.048745,-4.0315e-05,-369.62,2.5283
20416,22.153,2.5455,0.05,7.2962e-07,7.2911,5.6026e-07,4.2095,1.6379e-13,6.7048e-07,-5.6026e-07,-4.2095,2.513
20417,22.153,2.8182,0,4.4745e-05,447.14,2.2769e-05,99.093,9.5871e-06,0.046938,-4.2228e-05,-389.27,2.513
20418,22.245,2.7273,0,4.3044e-05,430.14,2.2436e-05,102.17,8.8441e-06,0.049345,-4.0385e-05,-369.84,2.5284
20419,22.153,2.7273,0.05,7.3009e-07,7.2959,5.6062e-07,4.2123,7.3056e-13,5.6425e-07,-5.6062e-07,-4.2123,2.513
20420,22.153,3,0,4.4774e-05,447.43,2.2806e-05,99.444,9.5774e-06,0.047084,-4.2245e-05,-389.32,2.513
20421,22.245,2.9091,0,4.3103e-05,430.73,2.2512e-05,102.89,8.8239e-06,0.049639,-4.042e-05,-369.95,2.5284
20422,22.153,2.9091,0.05,7.3033e-07,7.2982,5.608e-07,4.2136,6.2188e-13,4.3156e-06,-5.608e-07,-4.2136,2.513
20423,22.153,3.1818,0,4.4745e-05,447.14,2.2769e-05,99.093,9.5871e-06,0.04694,-4.2228e-05,-389.27,2.513
20424,22.245,3.0909,0,4.3103e-05,430.73,2.2512e-05,102.89,8.8239e-06,0.049639,-4.042e-05,-369.95,2.5284
20425,22.153,3.0909,0.05,7.3033e-07,7.2982,5.608e-07,4.2136,9.6965e-13,3.313e-06,-5.608e-07,-4.2136,2.513
20426,22.153,3.3636,0,4.466e-05,446.29,2.2659e-05,98.043,9.6162e-06,0.046499,-4.2176e-05,-389.1,2.513
20427,22.245,3.2727,0,4.3044e-05,430.14,2.2436e-05,102.17,8.8441e-06,0.049346,-4.0385e-05,-369.84,2.5284
20428,22.153,3.2727,0.05,7.3009e-07,7.2959,5.6062e-07,4.2123,1.0865e-12,7.057e-06,-5.6062e-07,-4.2123,2.513
20429,22.153,3.5455,0,4.4518e-05,444.87,2.2475e-05,96.296,9.6646e-06,0.045738,-4.2091e-05,-388.82,2.513
20430,22.245,3.4545,0,4.2926e-05,428.96,2.2284e-05,100.73,8.8843e-06,0.048743,-4.0315e-05,-369.62,2.5283
20431,22.153,3.4545,0.05,7.2962e-07,7.2911,5.6025e-07,4.2095,1.1979e-12,7.8771e-06,-5.6026e-07,-4.2096,2.513
20432,22.153,3.7273,0,4.4321e-05,442.9,2.2218e-05,93.859,9.7322e-06,0.044622,-4.1971e-05,-388.44,2.5129
20433,22.245,3.6364,0,4.275e-05,427.2,2.2057e-05,98.571,8.9445e-06,0.047806,-4.0211e-05,-369.28,2.5283
20434,22.153,3.6364,0.05,7.2891e-07,7.2841,5.5971e-07,4.2055,1.2974e-12,8.6454e-06,-5.5971e-07,-4.2055,2.5129
20435,22.153,3.9091,0,4.407e-05,440.4,2.189e-05,90.744,9.8187e-06,0.043087,-4.1819e-05,-387.94,2.5128
20436,22.245,3.8182,0,4.2516e-05,424.87,2.1755e-05,95.702,9.0245e-06,0.046476,-4.0072e-05,-368.84,2.5282
20437,22.153,3.8182,0.05,7.2797e-07,7.2747,5.5899e-07,4.2001,1.8441e-12,9.3264e-06,-5.59e-07,-4.2001,2.5129
20438,22.153,4.0909,0,4.3768e-05,437.38,2.1493e-05,86.966,9.9237e-06,0.041046,-4.1635e-05,-387.35,2.5128
20439,22.245,4,0,4.2228e-05,421.99,2.138e-05,92.134,9.124e-06,0.044686,-3.9899e-05,-368.29,2.5281
20440,22.153,4,0.05,7.2681e-07,7.2631,5.581e-07,4.1933,1.9057e-12,1.0717e-05,-5.581e-07,-4.1934,2.5128
20441,22.153,4.2727,0,4.3419e-05,433.89,2.1029e-05,82.553,1.0047e-05,0.038379,-4.1421e-05,-386.67,2.5127
20442,22.245,4.1818,0,4.1887e-05,418.58,2.0934e-05,87.885,9.2426e-06,0.042321,-3.9693e-05,-367.64,2.5281
20443,22.153,4.1818,0.05,7.2543e-07,7.2493,5.5704e-07,4.1854,1.9608e-12,1.1042e-05,-5.5704e-07,-4.1854,2.5127
20444,22.153,4.4545,0,4.3028e-05,429.98,2.0502e-05,77.541,1.0187e-05,0.034909,-4.118e-05,-385.92,2.5126
20445,22.245,4.3636,0,4.1497e-05,414.68,2.0419e-05,82.981,9.3798e-06,0.039238,-3.9457e-05,-366.9,2.528
20446,22.153,4.3636,0.05,7.2385e-07,7.2335,5.5582e-07,4.1762,1.9727e-12,1.1333e-05,-5.5583e-07,-4.1763,2.5126
20447,22.153,4.6364,0,4.2601e-05,425.72,1.992e-05,71.984,1.0344e-05,0.030405,-4.0917e-05,-385.12,2.5124
20448,22.245,4.5455,0,4.1064e-05,410.36,1.984e-05,77.466,9.5348e-06,0.035207,-3.9194e-05,-366.09,2.5278
20449,22.153,4.5455,0.05,7.2208e-07,7.2158,5.5446e-07,4.166,1.7469e-12,1.2267e-05,-5.5447e-07,-4.166,2.5125
20450,22.153,4.8182,0,4.215e-05,421.21,1.9291e-05,65.957,1.0516e-05,0.024494,-4.0638e-05,-384.33,2.5123
20451,22.245,4.7273,0,4.0597e-05,405.69,1.9205e-05,71.398,9.7065e-06,0.029962,-3.8908e-05,-365.24,2.5277
20452,22.153,4.7273,0.05,7.2014e-07,7.1964,5.5297e-07,4.1548,2.3598e-12,1.1913e-05,-5.5298e-07,-4.1549,2.5124
20453,22.153,5,0,4.1687e-05,416.58,1.8627e-05,59.561,1.0702e-05,0.016887,-4.0353e-05,-383.59,2.5122
20454,22.245,4.9091,0,4.0108e-05,400.8,1.8524e-05,64.864,9.8939e-06,0.022953,-3.8608e-05,-364.4,2.5276
20455,22.153,4.9091,0.05,7.1806e-07,7.1756,5.5138e-07,4.1428,2.084e-12,1.1707e-05,-5.5138e-07,-4.1429,2.5122
20456,22.153,5.1818,0,4.123e-05,412.02,1.7944e-05,52.93,1.09e-05,0.0061725,-4.0074e-05,-383,2.512
20457,22.245,5.0909,0,3.9611e-05,395.84,1.781e-05,57.983,1.0095e-05,0.014066,-3.8305e-05,-363.64,2.5274
20458,22.153,5.0909,0.05,7.1586e-07,7.1536,5.4969e-07,4.1301,2.2174e-12,1.0251e-05,-5.4969e-07,-4.1302,2.5121
20459,22.153,5.3636,0,4.0803e-05,407.74,1.7264e-05,46.237,1.1109e-05,-0.0055484,-3.9819e-05,-382.66,2.5118
20460,22.245,5.2727,0,3.9129e-05,391.02,1.7084e-05,50.912,1.0308e-05,0.0003731,-3.8013e-05,-363.07,2.5273
20461,22.153,5.2727,0.05,7.1347e-07,7.1298,5.4785e-07,4.1163,2.0882e-12,1.0968e-05,-5.4786e-07,-4.1164,2.5119
20462,22.153,5.5455,0,4.044e-05,404.12,1.6619e-05,39.743,1.1325e-05,-0.036727,-3.9617e-05,-382.79,2.5116
20463,22.245,5.4545,0,3.8687e-05,386.6,1.6371e-05,43.863,1.0531e-05,-0.010995,-3.7754e-05,-362.81,2.5271
20464,22.153,5.4545,0.05,7.0934e-07,7.0885,5.4468e-07,4.0925,1.731e-12,8.5804e-06,-5.4469e-07,-4.0926,2.5117
20465,22.153,5.7273,0,4.036e-05,403.32,1.6198e-05,34.881,1.155e-05,-0.047074,-3.9654e-05,-384.77,2.5115
20466,22.245,5.6364,0,3.8338e-05,383.11,1.5717e-05,37.183,1.0759e-05,-0.06533,-3.757e-05,-363.19,2.5269
20467,22.153,5.6364,0.05,6.793e-07,6.7883,5.2161e-07,3.9192,1.8619e-12,9.5852e-06,-5.2162e-07,-3.9192,2.5115
20468,22.245,5.8182,0,3.8495e-05,384.68,1.5473e-05,33.567,1.1002e-05,-0.021916,-3.7814e-05,-366.81,2.5267
20469,22.153,5.8182,0.05,2.7351e-07,2.7332,2.1002e-07,1.578,3.911e-13,-2.3185e-06,-2.1002e-07,-1.578,2.5113
20470,22.153,5.9091,0,3.9054e-05,390.28,1.4741e-05,22.357,1.1764e-05,-0.0062923,-3.8626e-05,-378.62,2.5113
20471,22.338,0.27273,0,3.6421e-05,363.96,1.4949e-05,35.549,1.021e-05,-0.052447,-3.5686e-05,-344.9,2.5422
20472,22.43,0.18182,0,3.4534e-05,345.1,1.4184e-05,33.839,9.6763e-06,-0.027687,-3.3833e-05,-326.94,2.5575
20473,22.338,0.18182,0.05,2.9846e-07,2.9826,2.2918e-07,1.722,6.6357e-13,9.411e-06,-2.2918e-07,-1.722,2.5421
20474,22.338,0.090909,0,3.5095e-05,350.71,1.3451e-05,22.592,1.0444e-05,-0.0047207,-3.4656e-05,-338.86,2.542
20475,22.338,0.45455,0,3.6565e-05,365.39,1.5451e-05,41.173,9.9659e-06,-0.038392,-3.569e-05,-343.08,2.5424
20476,22.43,0.36364,0,3.4443e-05,344.19,1.4514e-05,38.267,9.4119e-06,-0.070092,-3.3633e-05,-323.49,2.5577
20477,22.338,0.36364,0.05,6.8028e-07,6.7981,5.2237e-07,3.9249,5.9923e-13,9.4971e-06,-5.2237e-07,-3.9249,2.5423
20478,22.338,0.63636,0,3.6997e-05,369.72,1.6178e-05,48.435,9.7308e-06,-0.0037389,-3.5934e-05,-343.11,2.5425
20479,22.43,0.54545,0,3.4866e-05,348.42,1.5256e-05,45.77,9.1631e-06,-0.009633,-3.3861e-05,-323.28,2.5578
20480,22.338,0.54545,0.05,7.0915e-07,7.0866,5.4454e-07,4.0915,1.1092e-13,2.3226e-06,-5.4454e-07,-4.0915,2.5424
20481,22.338,0.81818,0,3.7497e-05,374.71,1.6939e-05,55.881,9.5032e-06,0.0092823,-3.6232e-05,-343.63,2.5427
20482,22.43,0.72727,0,3.5386e-05,353.61,1.6058e-05,53.641,8.9193e-06,0.0033166,-3.4166e-05,-323.73,2.558
20483,22.338,0.72727,0.05,7.1361e-07,7.1312,5.4796e-07,4.1172,-4.1917e-13,-3.432e-06,-5.4796e-07,-4.1172,2.5426
20484,22.338,1,0,3.8023e-05,379.97,1.7698e-05,63.218,9.2871e-06,0.020922,-3.6551e-05,-344.39,2.5429
20485,22.43,0.90909,0,3.5945e-05,359.2,1.6868e-05,61.488,8.6866e-06,0.018327,-3.4502e-05,-324.48,2.5582
20486,22.338,0.90909,0.05,7.1641e-07,7.1592,5.5012e-07,4.1334,-1.1173e-12,-8.3753e-06,-5.5011e-07,-4.1333,2.5428
20487,22.338,1.1818,0,3.855e-05,385.23,1.843e-05,70.249,9.0846e-06,0.02906,-3.6871e-05,-345.26,2.543
20488,22.43,1.0909,0,3.6512e-05,364.87,1.7656e-05,69.072,8.4671e-06,0.027905,-3.4843e-05,-325.39,2.5583
20489,22.338,1.0909,0.05,7.19e-07,7.1851,5.521e-07,4.1483,-9.3256e-13,-1.039e-05,-5.521e-07,-4.1483,2.5429
20490,22.338,1.3636,0,3.9058e-05,390.31,1.9119e-05,76.834,8.8976e-06,0.035306,-3.7179e-05,-346.16,2.5431
20491,22.43,1.2727,0,3.7065e-05,370.39,1.8403e-05,76.22,8.2632e-06,0.035355,-3.5175e-05,-326.34,2.5584
20492,22.338,1.2727,0.05,7.2143e-07,7.2094,5.5397e-07,4.1623,-8.3513e-13,-7.1728e-06,-5.5397e-07,-4.1623,2.5431
20493,22.338,1.5455,0,3.9533e-05,395.06,1.9751e-05,82.867,8.7276e-06,0.040013,-3.7465e-05,-347.04,2.5433
20494,22.43,1.4545,0,3.7586e-05,375.6,1.9093e-05,82.813,8.0767e-06,0.040863,-3.5486e-05,-327.27,2.5586
20495,22.338,1.4545,0.05,7.2368e-07,7.2318,5.557e-07,4.1753,-7.5294e-13,-6.4257e-06,-5.557e-07,-4.1753,2.5432
20496,22.338,1.7273,0,3.9966e-05,399.38,2.0319e-05,88.279,8.5758e-06,0.043613,-3.7725e-05,-347.84,2.5434
20497,22.43,1.6364,0,3.8064e-05,380.38,1.9717e-05,88.768,7.9089e-06,0.045055,-3.5769e-05,-328.13,2.5587
20498,22.338,1.6364,0.05,7.2571e-07,7.2521,5.5726e-07,4.187,-6.9665e-13,-3.1159e-06,-5.5726e-07,-4.187,2.5433
20499,22.338,1.9091,0,4.0349e-05,403.21,2.0817e-05,93.023,8.443e-06,0.046364,-3.7953e-05,-348.55,2.5435
20500,22.43,1.8182,0,3.8492e-05,384.65,2.027e-05,94.034,7.7608e-06,0.048247,-3.602e-05,-328.9,2.5588
20501,22.338,1.8182,0.05,7.2751e-07,7.2701,5.5864e-07,4.1974,-4.2452e-13,-3.9262e-06,-5.5864e-07,-4.1974,2.5434
20502,22.338,2.0909,0,4.0678e-05,406.5,2.1242e-05,97.066,8.3299e-06,0.048459,-3.8148e-05,-349.16,2.5435
20503,22.43,2,0,3.8864e-05,388.37,2.0746e-05,98.577,7.633e-06,0.05068,-3.6236e-05,-329.57,2.5589
20504,22.338,2,0.05,7.2907e-07,7.2856,5.5983e-07,4.2064,-1.4012e-13,-3.4619e-06,-5.5983e-07,-4.2064,2.5435
20505,22.338,2.2727,0,4.095e-05,409.22,2.1591e-05,100.39,8.2368e-06,0.050031,-3.8308e-05,-349.67,2.5436
20506,22.43,2.1818,0,3.9177e-05,391.5,2.1145e-05,102.38,7.5259e-06,0.05252,-3.6417e-05,-330.12,2.5589
20507,22.338,2.1818,0.05,7.3036e-07,7.2986,5.6083e-07,4.2138,-2.6525e-13,-1.8719e-06,-5.6083e-07,-4.2138,2.5436
20508,22.338,2.4545,0,4.1163e-05,411.35,2.1864e-05,102.98,8.1642e-06,0.051174,-3.8432e-05,-350.06,2.5436
20509,22.43,2.3636,0,3.9428e-05,394.01,2.1464e-05,105.42,7.44e-06,0.053884,-3.6562e-05,-330.56,2.559
20510,22.338,2.3636,0.05,7.314e-07,7.309,5.6163e-07,4.2198,-1.7346e-13,-1.6211e-07,-5.6163e-07,-4.2198,2.5436
20511,22.338,2.6364,0,4.1316e-05,412.88,2.2058e-05,104.84,8.1122e-06,0.05195,-3.8522e-05,-350.34,2.5437
20512,22.43,2.5455,0,3.9618e-05,395.91,2.1704e-05,107.71,7.3754e-06,0.054847,-3.6671e-05,-330.89,2.559
20513,22.338,2.5455,0.05,7.3218e-07,7.3168,5.6222e-07,4.2243,1.6611e-13,1.621e-06,-5.6222e-07,-4.2243,2.5437
20514,22.338,2.8182,0,4.1408e-05,413.8,2.2176e-05,105.95,8.0809e-06,0.0524,-3.8575e-05,-350.5,2.5437
20515,22.43,2.7273,0,3.9745e-05,397.17,2.1864e-05,109.24,7.3323e-06,0.055463,-3.6743e-05,-331.11,2.5591
20516,22.338,2.7273,0.05,7.327e-07,7.3219,5.6262e-07,4.2273,2.7403e-13,5.467e-07,-5.6262e-07,-4.2273,2.5437
20517,22.338,3,0,4.1439e-05,414.1,2.2215e-05,106.33,8.0705e-06,0.052548,-3.8593e-05,-350.56,2.5437
20518,22.43,2.9091,0,3.9808e-05,397.81,2.1944e-05,110,7.3108e-06,0.055762,-3.6779e-05,-331.22,2.5591
20519,22.338,2.9091,0.05,7.3296e-07,7.3245,5.6282e-07,4.2288,6.214e-13,2.4049e-06,-5.6282e-07,-4.2288,2.5437
20520,22.338,3.1818,0,4.1408e-05,413.8,2.2176e-05,105.95,8.0809e-06,0.0524,-3.8575e-05,-350.5,2.5437
20521,22.43,3.0909,0,3.9808e-05,397.81,2.1944e-05,110,7.3108e-06,0.055762,-3.6779e-05,-331.22,2.5591
20522,22.338,3.0909,0.05,7.3296e-07,7.3245,5.6282e-07,4.2288,9.6996e-13,3.3155e-06,-5.6282e-07,-4.2288,2.5437
20523,22.338,3.3636,0,4.1316e-05,412.88,2.2058e-05,104.84,8.1122e-06,0.051948,-3.8522e-05,-350.34,2.5437
20524,22.43,3.2727,0,3.9745e-05,397.17,2.1864e-05,109.24,7.3323e-06,0.055462,-3.6743e-05,-331.11,2.5591
20525,22.338,3.2727,0.05,7.327e-07,7.3219,5.6262e-07,4.2273,1.0868e-12,5.1515e-06,-5.6262e-07,-4.2273,2.5437
20526,22.338,3.5455,0,4.1163e-05,411.35,2.1864e-05,102.98,8.1642e-06,0.051174,-3.8432e-05,-350.06,2.5436
20527,22.43,3.4545,0,3.9618e-05,395.91,2.1704e-05,107.71,7.3754e-06,0.054847,-3.6671e-05,-330.89,2.559
20528,22.338,3.4545,0.05,7.3218e-07,7.3168,5.6222e-07,4.2243,1.4233e-12,5.983e-06,-5.6222e-07,-4.2243,2.5437
20529,22.338,3.7273,0,4.095e-05,409.22,2.1591e-05,100.39,8.2368e-06,0.050032,-3.8308e-05,-349.67,2.5436
20530,22.43,3.6364,0,3.9428e-05,394.01,2.1464e-05,105.42,7.44e-06,0.053886,-3.6562e-05,-330.56,2.559
20531,22.338,3.6364,0.05,7.314e-07,7.309,5.6162e-07,4.2198,1.9777e-12,8.6742e-06,-5.6163e-07,-4.2198,2.5436
20532,22.338,3.9091,0,4.0678e-05,406.5,2.1242e-05,97.066,8.3298e-06,0.048459,-3.8148e-05,-349.16,2.5435
20533,22.43,3.8182,0,3.9177e-05,391.5,2.1145e-05,102.38,7.5259e-06,0.05252,-3.6417e-05,-330.12,2.5589
20534,22.338,3.8182,0.05,7.3036e-07,7.2986,5.6083e-07,4.2138,1.6226e-12,1.1289e-05,-5.6083e-07,-4.2139,2.5436
20535,22.338,4.0909,0,4.0349e-05,403.21,2.0817e-05,93.023,8.443e-06,0.046365,-3.7953e-05,-348.55,2.5435
20536,22.43,4,0,3.8864e-05,388.37,2.0746e-05,98.577,7.633e-06,0.050682,-3.6236e-05,-329.57,2.5589
20537,22.338,4,0.05,7.2907e-07,7.2856,5.5983e-07,4.2063,2.1345e-12,1.0785e-05,-5.5983e-07,-4.2064,2.5435
20538,22.338,4.2727,0,3.9966e-05,399.38,2.0319e-05,88.279,8.5758e-06,0.043613,-3.7725e-05,-347.84,2.5434
20539,22.43,4.1818,0,3.8492e-05,384.65,2.027e-05,94.034,7.7608e-06,0.048247,-3.602e-05,-328.9,2.5588
20540,22.338,4.1818,0.05,7.2751e-07,7.2701,5.5864e-07,4.1974,2.1931e-12,1.0138e-05,-5.5864e-07,-4.1974,2.5434
20541,22.338,4.4545,0,3.9533e-05,395.06,1.9751e-05,82.867,8.7276e-06,0.040012,-3.7465e-05,-347.04,2.5433
20542,22.43,4.3636,0,3.8064e-05,380.38,1.9717e-05,88.768,7.9089e-06,0.045056,-3.5769e-05,-328.13,2.5587
20543,22.338,4.3636,0.05,7.2571e-07,7.2521,5.5726e-07,4.187,2.4263e-12,1.3238e-05,-5.5726e-07,-4.187,2.5433
20544,22.338,4.6364,0,3.9058e-05,390.31,1.9119e-05,76.834,8.8976e-06,0.035306,-3.7179e-05,-346.16,2.5431
20545,22.43,4.5455,0,3.7586e-05,375.6,1.9093e-05,82.813,8.0767e-06,0.04086,-3.5486e-05,-327.27,2.5586
20546,22.338,4.5455,0.05,7.2368e-07,7.2318,5.557e-07,4.1753,2.2136e-12,1.2039e-05,-5.557e-07,-4.1753,2.5432
20547,22.338,4.8182,0,3.855e-05,385.23,1.843e-05,70.249,9.0846e-06,0.029061,-3.6871e-05,-345.26,2.543
20548,22.43,4.7273,0,3.7065e-05,370.39,1.8403e-05,76.22,8.2632e-06,0.035354,-3.5175e-05,-326.34,2.5584
20549,22.338,4.7273,0.05,7.2143e-07,7.2094,5.5397e-07,4.1623,2.2103e-12,1.2989e-05,-5.5397e-07,-4.1623,2.5431
20550,22.338,5,0,3.8023e-05,379.97,1.7698e-05,63.218,9.2871e-06,0.020921,-3.6551e-05,-344.39,2.5429
20551,22.43,4.9091,0,3.6512e-05,364.87,1.7656e-05,69.072,8.4671e-06,0.027905,-3.4843e-05,-325.39,2.5583
20552,22.338,4.9091,0.05,7.19e-07,7.1851,5.521e-07,4.1483,2.2625e-12,1.2882e-05,-5.5211e-07,-4.1483,2.5429
20553,22.338,5.1818,0,3.7497e-05,374.71,1.6939e-05,55.881,9.5032e-06,0.0092815,-3.6232e-05,-343.63,2.5427
20554,22.43,5.0909,0,3.5945e-05,359.2,1.6868e-05,61.488,8.6866e-06,0.018327,-3.4502e-05,-324.48,2.5582
20555,22.338,5.0909,0.05,7.1641e-07,7.1592,5.5011e-07,4.1333,2.2294e-12,1.0954e-05,-5.5012e-07,-4.1334,2.5428
20556,22.338,5.3636,0,3.6997e-05,369.72,1.6178e-05,48.435,9.7308e-06,-0.0037384,-3.5934e-05,-343.11,2.5425
20557,22.43,5.2727,0,3.5386e-05,353.61,1.6058e-05,53.641,8.9193e-06,0.0033156,-3.4166e-05,-323.73,2.558
20558,22.338,5.2727,0.05,7.1361e-07,7.1312,5.4796e-07,4.1172,2.0004e-12,1.0628e-05,-5.4796e-07,-4.1172,2.5426
20559,22.338,5.5455,0,3.6564e-05,365.39,1.5451e-05,41.173,9.9659e-06,-0.038391,-3.569e-05,-343.08,2.5424
20560,22.43,5.4545,0,3.4866e-05,348.42,1.5256e-05,45.77,9.1631e-06,-0.0096322,-3.3861e-05,-323.28,2.5578
20561,22.338,5.4545,0.05,7.0915e-07,7.0866,5.4454e-07,4.0915,1.8947e-12,1.0663e-05,-5.4454e-07,-4.0915,2.5424
20562,22.338,5.7273,0,3.6421e-05,363.96,1.4949e-05,35.549,1.021e-05,-0.052445,-3.5686e-05,-344.9,2.5422
20563,22.43,5.6364,0,3.4443e-05,344.19,1.4514e-05,38.267,9.4119e-06,-0.070089,-3.3633e-05,-323.49,2.5577
20564,22.338,5.6364,0.05,6.8028e-07,6.7981,5.2237e-07,3.9249,1.7308e-12,1.0643e-05,-5.2237e-07,-3.9249,2.5423
20565,22.43,5.8182,0,3.4534e-05,345.1,1.4184e-05,33.839,9.6763e-06,-0.027684,-3.3833e-05,-326.94,2.5575
20566,22.338,5.8182,0.05,2.9846e-07,2.9826,2.2918e-07,1.722,1.5598e-13,-2.5362e-06,-2.2918e-07,-1.722,2.5421
20567,22.338,5.9091,0,3.5095e-05,350.71,1.3451e-05,22.592,1.0444e-05,-0.0047221,-3.4656e-05,-338.86,2.542
20568,22.522,0.27273,0,3.25e-05,324.78,1.3703e-05,36.212,8.8761e-06,-0.058637,-3.1733e-05,-305.18,2.5729
20569,22.615,0.18182,0,3.0585e-05,305.64,1.2892e-05,34.037,8.3572e-06,-0.035082,-2.9864e-05,-287.22,2.5882
20570,22.522,0.18182,0.05,3.2565e-07,3.2543,2.5006e-07,1.8789,-6.122e-13,-3.6682e-07,-2.5006e-07,-1.8789,2.5728
20571,22.522,0.090909,0,3.1154e-05,311.32,1.2164e-05,22.787,9.1312e-06,-0.0023169,-3.0704e-05,-299.31,2.5728
20572,22.522,0.45455,0,3.2722e-05,326.99,1.43e-05,42.721,8.6092e-06,-0.039704,-3.1785e-05,-303.55,2.5731
20573,22.615,0.36364,0,3.0578e-05,305.57,1.3325e-05,39.423,8.0682e-06,-0.075097,-2.9716e-05,-283.97,2.5884
20574,22.522,0.36364,0.05,6.8161e-07,6.8114,5.2339e-07,3.9326,-1.4753e-13,9.307e-07,-5.2339e-07,-3.9326,2.573
20575,22.522,0.63636,0,3.3238e-05,332.15,1.5122e-05,50.866,8.3518e-06,-0.00093478,-3.2079e-05,-303.78,2.5733
20576,22.615,0.54545,0,3.109e-05,310.68,1.4169e-05,47.884,7.7952e-06,-0.007307,-2.9997e-05,-283.96,2.5886
20577,22.522,0.54545,0.05,7.0932e-07,7.0883,5.4467e-07,4.0924,-4.0404e-13,-2.5038e-06,-5.4467e-07,-4.0924,2.5732
20578,22.522,0.81818,0,3.3821e-05,337.98,1.5975e-05,59.161,8.1028e-06,0.013592,-3.2424e-05,-304.49,2.5734
20579,22.615,0.72727,0,3.1702e-05,316.8,1.5072e-05,56.692,7.5276e-06,0.007525,-3.0354e-05,-284.62,2.5887
20580,22.522,0.72727,0.05,7.1422e-07,7.1373,5.4843e-07,4.1207,-9.6351e-13,-7.4229e-06,-5.4843e-07,-4.1207,2.5734
20581,22.522,1,0,3.4426e-05,344.03,1.6817e-05,67.273,7.8666e-06,0.026266,-3.2785e-05,-305.41,2.5736
20582,22.615,0.90909,0,3.2349e-05,323.27,1.5974e-05,65.403,7.2726e-06,0.024026,-3.0736e-05,-285.56,2.5889
20583,22.522,0.90909,0.05,7.1754e-07,7.1704,5.5098e-07,4.1398,-1.2092e-12,-9.9206e-06,-5.5098e-07,-4.1398,2.5735
20584,22.522,1.1818,0,3.5024e-05,350,1.7621e-05,74.987,7.6458e-06,0.03498,-3.314e-05,-306.41,2.5737
20585,22.615,1.0909,0,3.2996e-05,329.73,1.6843e-05,73.744,7.0327e-06,0.034359,-3.1117e-05,-286.6,2.589
20586,22.522,1.0909,0.05,7.2059e-07,7.201,5.5333e-07,4.1575,-1.4937e-12,-7.8587e-06,-5.5333e-07,-4.1575,2.5737
20587,22.522,1.3636,0,3.5593e-05,355.68,1.8371e-05,82.155,7.4425e-06,0.04158,-3.3476e-05,-307.4,2.5739
20588,22.615,1.2727,0,3.3617e-05,335.94,1.7657e-05,81.538,6.8106e-06,0.042277,-3.1479e-05,-287.65,2.5892
20589,22.522,1.2727,0.05,7.2343e-07,7.2293,5.555e-07,4.1738,-9.7708e-13,-6.4577e-06,-5.555e-07,-4.1738,2.5738
20590,22.522,1.5455,0,3.612e-05,360.95,1.9054e-05,88.677,7.2582e-06,0.046501,-3.3784e-05,-308.33,2.574
20591,22.615,1.4545,0,3.4196e-05,341.72,1.8403e-05,88.668,6.6082e-06,0.048061,-3.1813e-05,-288.63,2.5893
20592,22.522,1.4545,0.05,7.2601e-07,7.2551,5.5749e-07,4.1887,-7.7757e-13,-6.777e-06,-5.5749e-07,-4.1887,2.5739
20593,22.522,1.7273,0,3.6595e-05,365.7,1.9663e-05,94.492,7.094e-06,0.05024,-3.406e-05,-309.16,2.5741
20594,22.615,1.6364,0,3.4721e-05,346.97,1.9072e-05,95.064,6.4266e-06,0.052434,-3.2113e-05,-289.52,2.5894
20595,22.522,1.6364,0.05,7.2832e-07,7.2781,5.5926e-07,4.202,-5.09e-13,-5.567e-06,-5.5926e-07,-4.202,2.574
20596,22.522,1.9091,0,3.7013e-05,369.87,2.0195e-05,99.561,6.9508e-06,0.053085,-3.43e-05,-309.89,2.5742
20597,22.615,1.8182,0,3.5187e-05,351.63,1.966e-05,100.69,6.2668e-06,0.055746,-3.2376e-05,-290.29,2.5895
20598,22.522,1.8182,0.05,7.3033e-07,7.2982,5.608e-07,4.2136,-6.9954e-13,-6.0304e-06,-5.608e-07,-4.2136,2.5741
20599,22.522,2.0909,0,3.737e-05,373.44,2.0645e-05,103.86,6.8291e-06,0.055244,-3.4503e-05,-310.5,2.5743
20600,22.615,2,0,3.559e-05,355.66,2.0165e-05,105.51,6.1293e-06,0.058265,-3.2601e-05,-290.95,2.5896
20601,22.522,2,0.05,7.3204e-07,7.3154,5.6212e-07,4.2235,-6.0345e-13,-4.6176e-06,-5.6212e-07,-4.2235,2.5742
20602,22.522,2.2727,0,3.7663e-05,376.37,2.1014e-05,107.39,6.7292e-06,0.056862,-3.4669e-05,-310.99,2.5743
20603,22.615,2.1818,0,3.5927e-05,359.03,2.0585e-05,109.54,6.0145e-06,0.060166,-3.2788e-05,-291.48,2.5897
20604,22.522,2.1818,0.05,7.3346e-07,7.3296,5.6321e-07,4.2317,1.4326e-13,-3.046e-06,-5.6321e-07,-4.2317,2.5743
20605,22.522,2.4545,0,3.7893e-05,378.66,2.1301e-05,110.13,6.6513e-06,0.058038,-3.4798e-05,-311.37,2.5744
20606,22.615,2.3636,0,3.6198e-05,361.73,2.092e-05,112.75,5.9225e-06,0.061575,-3.2936e-05,-291.91,2.5897
20607,22.522,2.3636,0.05,7.3459e-07,7.3408,5.6408e-07,4.2382,2.5704e-13,-1.3134e-06,-5.6408e-07,-4.2382,2.5743
20608,22.522,2.6364,0,3.8057e-05,380.3,2.1506e-05,112.09,6.5957e-06,0.058835,-3.4889e-05,-311.64,2.5744
20609,22.615,2.5455,0,3.6401e-05,363.76,2.1172e-05,115.16,5.8534e-06,0.062569,-3.3047e-05,-292.22,2.5897
20610,22.522,2.5455,0.05,7.3543e-07,7.3492,5.6472e-07,4.2431,1.478e-13,5.6651e-07,-5.6472e-07,-4.2431,2.5744
20611,22.522,2.8182,0,3.8155e-05,381.29,2.1629e-05,113.27,6.5622e-06,0.059298,-3.4944e-05,-311.81,2.5744
20612,22.615,2.7273,0,3.6536e-05,365.11,2.1339e-05,116.76,5.8073e-06,0.063205,-3.3121e-05,-292.43,2.5898
20613,22.522,2.7273,0.05,7.3599e-07,7.3548,5.6515e-07,4.2463,4.0643e-14,-4.6075e-07,-5.6515e-07,-4.2463,2.5744
20614,22.522,3,0,3.8188e-05,381.62,2.167e-05,113.66,6.5511e-06,0.059449,-3.4963e-05,-311.86,2.5744
20615,22.615,2.9091,0,3.6604e-05,365.79,2.1423e-05,117.57,5.7843e-06,0.063515,-3.3158e-05,-292.53,2.5898
20616,22.522,2.9091,0.05,7.3626e-07,7.3576,5.6536e-07,4.2479,6.1876e-13,2.3856e-06,-5.6536e-07,-4.2479,2.5744
20617,22.522,3.1818,0,3.8155e-05,381.29,2.1629e-05,113.27,6.5622e-06,0.059298,-3.4944e-05,-311.81,2.5744
20618,22.615,3.0909,0,3.6604e-05,365.79,2.1423e-05,117.57,5.7843e-06,0.063515,-3.3158e-05,-292.53,2.5898
20619,22.522,3.0909,0.05,7.3627e-07,7.3576,5.6536e-07,4.2479,7.4544e-13,2.3835e-06,-5.6536e-07,-4.2479,2.5744
20620,22.522,3.3636,0,3.8057e-05,380.3,2.1506e-05,112.09,6.5957e-06,0.058837,-3.4889e-05,-311.64,2.5744
20621,22.615,3.2727,0,3.6536e-05,365.11,2.1339e-05,116.76,5.8073e-06,0.063205,-3.3121e-05,-292.43,2.5898
20622,22.522,3.2727,0.05,7.3599e-07,7.3548,5.6515e-07,4.2463,1.0961e-12,5.2164e-06,-5.6515e-07,-4.2463,2.5744
20623,22.522,3.5455,0,3.7893e-05,378.66,2.1301e-05,110.13,6.6513e-06,0.05804,-3.4798e-05,-311.37,2.5744
20624,22.615,3.4545,0,3.6401e-05,363.76,2.1172e-05,115.16,5.8534e-06,0.062571,-3.3047e-05,-292.22,2.5897
20625,22.522,3.4545,0.05,7.3543e-07,7.3492,5.6472e-07,4.2431,1.2104e-12,7.0303e-06,-5.6472e-07,-4.2431,2.5744
20626,22.522,3.7273,0,3.7663e-05,376.37,2.1014e-05,107.39,6.7292e-06,0.056864,-3.4669e-05,-310.99,2.5743
20627,22.615,3.6364,0,3.6198e-05,361.73,2.092e-05,112.75,5.9225e-06,0.061575,-3.2936e-05,-291.91,2.5897
20628,22.522,3.6364,0.05,7.3459e-07,7.3408,5.6407e-07,4.2382,1.5492e-12,7.8409e-06,-5.6408e-07,-4.2383,2.5743
20629,22.522,3.9091,0,3.737e-05,373.44,2.0645e-05,103.86,6.8291e-06,0.055246,-3.4503e-05,-310.5,2.5743
20630,22.615,3.8182,0,3.5927e-05,359.03,2.0585e-05,109.54,6.0145e-06,0.060168,-3.2788e-05,-291.48,2.5897
20631,22.522,3.8182,0.05,7.3346e-07,7.3296,5.6321e-07,4.2317,1.6472e-12,1.1396e-05,-5.6321e-07,-4.2317,2.5743
20632,22.522,4.0909,0,3.7013e-05,369.87,2.0195e-05,99.561,6.9508e-06,0.053086,-3.43e-05,-309.89,2.5742
20633,22.615,4,0,3.559e-05,355.66,2.0165e-05,105.51,6.1293e-06,0.058266,-3.2601e-05,-290.95,2.5896
20634,22.522,4,0.05,7.3204e-07,7.3154,5.6212e-07,4.2235,1.9417e-12,1.1009e-05,-5.6212e-07,-4.2236,2.5742
20635,22.522,4.2727,0,3.6595e-05,365.7,1.9663e-05,94.492,7.094e-06,0.050241,-3.406e-05,-309.16,2.5741
20636,22.615,4.1818,0,3.5187e-05,351.63,1.966e-05,100.69,6.2668e-06,0.055745,-3.2376e-05,-290.29,2.5895
20637,22.522,4.1818,0.05,7.3033e-07,7.2982,5.608e-07,4.2136,1.7834e-12,9.5334e-06,-5.608e-07,-4.2137,2.5741
20638,22.522,4.4545,0,3.612e-05,360.95,1.9054e-05,88.677,7.2582e-06,0.046501,-3.3784e-05,-308.33,2.574
20639,22.615,4.3636,0,3.4721e-05,346.97,1.9072e-05,95.064,6.4266e-06,0.052435,-3.2113e-05,-289.52,2.5894
20640,22.522,4.3636,0.05,7.2832e-07,7.2781,5.5925e-07,4.202,2.2669e-12,1.3548e-05,-5.5926e-07,-4.202,2.574
20641,22.522,4.6364,0,3.5593e-05,355.68,1.8371e-05,82.155,7.4425e-06,0.041577,-3.3476e-05,-307.4,2.5739
20642,22.615,4.5455,0,3.4196e-05,341.72,1.8403e-05,88.668,6.6082e-06,0.04806,-3.1813e-05,-288.63,2.5893
20643,22.522,4.5455,0.05,7.2601e-07,7.2551,5.5748e-07,4.1887,1.9975e-12,1.2395e-05,-5.5749e-07,-4.1887,2.5739
20644,22.522,4.8182,0,3.5024e-05,350,1.7621e-05,74.987,7.6458e-06,0.034978,-3.314e-05,-306.41,2.5737
20645,22.615,4.7273,0,3.3617e-05,335.94,1.7657e-05,81.538,6.8106e-06,0.042275,-3.1479e-05,-287.65,2.5892
20646,22.522,4.7273,0.05,7.2343e-07,7.2293,5.555e-07,4.1738,1.9728e-12,1.4373e-05,-5.555e-07,-4.1738,2.5738
20647,22.522,5,0,3.4426e-05,344.03,1.6817e-05,67.273,7.8666e-06,0.026266,-3.2785e-05,-305.41,2.5736
20648,22.615,4.9091,0,3.2996e-05,329.73,1.6843e-05,73.744,7.0327e-06,0.034358,-3.1117e-05,-286.6,2.589
20649,22.522,4.9091,0.05,7.2059e-07,7.201,5.5332e-07,4.1575,2.0778e-12,1.3776e-05,-5.5333e-07,-4.1575,2.5737
20650,22.522,5.1818,0,3.3821e-05,337.98,1.5975e-05,59.161,8.1028e-06,0.013591,-3.2424e-05,-304.49,2.5734
20651,22.615,5.0909,0,3.2349e-05,323.27,1.5974e-05,65.403,7.2726e-06,0.024026,-3.0736e-05,-285.56,2.5889
20652,22.522,5.0909,0.05,7.1754e-07,7.1704,5.5098e-07,4.1398,2.0938e-12,1.1771e-05,-5.5098e-07,-4.1399,2.5735
20653,22.522,5.3636,0,3.3238e-05,332.15,1.5122e-05,50.866,8.3518e-06,-0.00093558,-3.2079e-05,-303.78,2.5733
20654,22.615,5.2727,0,3.1702e-05,316.8,1.5072e-05,56.692,7.5276e-06,0.0075233,-3.0354e-05,-284.62,2.5887
20655,22.522,5.2727,0.05,7.1422e-07,7.1373,5.4843e-07,4.1207,2.0013e-12,1.1366e-05,-5.4843e-07,-4.1207,2.5734
20656,22.522,5.5455,0,3.2722e-05,326.99,1.43e-05,42.721,8.6092e-06,-0.039702,-3.1785e-05,-303.55,2.5731
20657,22.615,5.4545,0,3.109e-05,310.68,1.4169e-05,47.884,7.7952e-06,-0.0073072,-2.9997e-05,-283.96,2.5886
20658,22.522,5.4545,0.05,7.0932e-07,7.0883,5.4467e-07,4.0924,1.978e-12,1.0796e-05,-5.4467e-07,-4.0924,2.5732
20659,22.522,5.7273,0,3.25e-05,324.78,1.3703e-05,36.212,8.8761e-06,-0.058633,-3.1733e-05,-305.18,2.5729
20660,22.615,5.6364,0,3.0578e-05,305.57,1.3325e-05,39.423,8.0682e-06,-0.075093,-2.9716e-05,-283.97,2.5884
20661,22.522,5.6364,0.05,6.8161e-07,6.8114,5.2339e-07,3.9326,1.7154e-12,9.5238e-06,-5.2339e-07,-3.9326,2.573
20662,22.615,5.8182,0,3.0585e-05,305.64,1.2892e-05,34.037,8.3572e-06,-0.03508,-2.9864e-05,-287.22,2.5882
20663,22.522,5.8182,0.05,3.2565e-07,3.2543,2.5006e-07,1.8789,4.279e-13,9.2205e-07,-2.5006e-07,-1.8789,2.5728
20664,22.522,5.9091,0,3.1154e-05,311.32,1.2164e-05,22.787,9.1312e-06,-0.0023184,-3.0704e-05,-299.31,2.5728
20665,22.707,0.27273,0,2.8602e-05,285.82,1.2463e-05,36.871,7.5473e-06,-0.065905,-2.7796e-05,-265.62,2.6037
20666,22.799,0.18182,0,2.6653e-05,266.34,1.1596e-05,34.142,7.046e-06,-0.044516,-2.5907e-05,-247.64,2.619
20667,22.707,0.18182,0.05,3.5537e-07,3.5513,2.7288e-07,2.0503,-3.6038e-13,3.6007e-06,-2.7288e-07,-2.0503,2.6036
20668,22.707,0.090909,0,2.7235e-05,272.16,1.088e-05,22.931,7.8279e-06,0.0012639,-2.6772e-05,-259.97,2.6035
20669,22.707,0.45455,0,2.892e-05,289,1.3173e-05,44.426,7.2544e-06,-0.040479,-2.7907e-05,-264.23,2.6039
20670,22.799,0.36364,0,2.675e-05,267.31,1.2153e-05,40.682,6.7283e-06,-0.079935,-2.5825e-05,-244.67,2.6192
20671,22.707,0.36364,0.05,6.8338e-07,6.8291,5.2475e-07,3.9428,-8.0084e-13,-1.806e-06,-5.2475e-07,-3.9428,2.6038
20672,22.707,0.63636,0,2.9536e-05,295.16,1.4104e-05,53.593,6.9713e-06,0.0032106,-2.8257e-05,-264.69,2.6041
20673,22.799,0.54545,0,2.7372e-05,273.53,1.3118e-05,50.274,6.4269e-06,-0.0032009,-2.6167e-05,-244.9,2.6194
20674,22.707,0.54545,0.05,7.0997e-07,7.0948,5.4517e-07,4.0962,-1.4901e-12,-9.7603e-06,-5.4516e-07,-4.0962,2.604
20675,22.707,0.81818,0,3.0218e-05,301.98,1.5059e-05,62.845,6.6976e-06,0.019483,-2.8655e-05,-265.6,2.6042
20676,22.799,0.72727,0,2.8094e-05,280.75,1.4136e-05,60.156,6.1316e-06,0.013894,-2.6583e-05,-245.79,2.6195
20677,22.707,0.72727,0.05,7.1547e-07,7.1497,5.4939e-07,4.1279,-1.7351e-12,-1.0413e-05,-5.4939e-07,-4.1279,2.6041
20678,22.707,1,0,3.0913e-05,308.92,1.5991e-05,71.805,6.4387e-06,0.033309,-2.9059e-05,-266.68,2.6044
20679,22.799,0.90909,0,2.8844e-05,288.24,1.5139e-05,69.819,5.8511e-06,0.032088,-2.7014e-05,-246.91,2.6197
20680,22.707,0.90909,0.05,7.1942e-07,7.1893,5.5243e-07,4.1507,-1.6994e-12,-1.2197e-05,-5.5243e-07,-4.1507,2.6043
20681,22.707,1.1818,0,3.1588e-05,315.67,1.6871e-05,80.242,6.1976e-06,0.042642,-2.9449e-05,-267.79,2.6045
20682,22.799,1.0909,0,2.9578e-05,295.58,1.6092e-05,78.966,5.5884e-06,0.043245,-2.7433e-05,-248.06,2.6198
20683,22.707,1.0909,0.05,7.2302e-07,7.2252,5.5519e-07,4.1715,-9.412e-13,-5.4145e-06,-5.5519e-07,-4.1715,2.6044
20684,22.707,1.3636,0,3.2223e-05,322.01,1.7683e-05,88.009,5.9764e-06,0.04962,-2.981e-05,-268.84,2.6046
20685,22.799,1.2727,0,3.0273e-05,302.52,1.6975e-05,87.423,5.3464e-06,0.051672,-2.7823e-05,-249.17,2.6199
20686,22.707,1.2727,0.05,7.263e-07,7.258,5.5771e-07,4.1904,-5.5011e-13,-3.4869e-06,-5.5771e-07,-4.1904,2.6045
20687,22.707,1.5455,0,3.2804e-05,327.81,1.8416e-05,95.021,5.7767e-06,0.054779,-3.0137e-05,-269.79,2.6047
20688,22.799,1.4545,0,3.0912e-05,308.9,1.7775e-05,95.089,5.1268e-06,0.057764,-2.8176e-05,-250.16,2.6201
20689,22.707,1.4545,0.05,7.2923e-07,7.2872,5.5996e-07,4.2073,-7.8219e-13,-3.8274e-06,-5.5995e-07,-4.2073,2.6047
20690,22.707,1.7273,0,3.3323e-05,333,1.9065e-05,101.23,5.5995e-06,0.058678,-3.0425e-05,-270.62,2.6048
20691,22.799,1.6364,0,3.1486e-05,314.64,1.8486e-05,101.91,4.9308e-06,0.062348,-2.8489e-05,-251.04,2.6202
20692,22.707,1.6364,0.05,7.3179e-07,7.3128,5.6192e-07,4.2221,-5.2077e-13,-8.3379e-07,-5.6192e-07,-4.2221,2.6048
20693,22.707,1.9091,0,3.3776e-05,337.52,1.9627e-05,106.61,5.4454e-06,0.061635,-3.0674e-05,-271.33,2.6049
20694,22.799,1.8182,0,3.1991e-05,319.69,1.9107e-05,107.87,4.7588e-06,0.065808,-2.876e-05,-251.78,2.6203
20695,22.707,1.8182,0.05,7.3399e-07,7.3349,5.6362e-07,4.2348,-2.4066e-13,-3.2482e-06,-5.6361e-07,-4.2348,2.6049
20696,22.707,2.0909,0,3.416e-05,341.36,2.0101e-05,111.16,5.3148e-06,0.063877,-3.0883e-05,-271.91,2.605
20697,22.799,2,0,3.2425e-05,324.02,1.9637e-05,112.97,4.6113e-06,0.068439,-2.899e-05,-252.4,2.6203
20698,22.707,2,0.05,7.3584e-07,7.3534,5.6504e-07,4.2455,-1.7201e-13,-1.8894e-06,-5.6504e-07,-4.2455,2.6049
20699,22.707,2.2727,0,3.4475e-05,344.51,2.0488e-05,114.88,5.2078e-06,0.065557,-3.1053e-05,-272.38,2.6051
20700,22.799,2.1818,0,3.2786e-05,327.63,2.0077e-05,117.2,4.4885e-06,0.070426,-2.918e-05,-252.9,2.6204
20701,22.707,2.1818,0.05,7.3736e-07,7.3685,5.662e-07,4.2542,-3.0534e-13,-1.8191e-07,-5.662e-07,-4.2542,2.605
20702,22.707,2.4545,0,3.472e-05,346.96,2.0788e-05,117.76,5.1246e-06,0.066777,-3.1184e-05,-272.74,2.6051
20703,22.799,2.3636,0,3.3074e-05,330.52,2.0427e-05,120.57,4.3903e-06,0.071898,-2.9331e-05,-253.29,2.6205
20704,22.707,2.3636,0.05,7.3855e-07,7.3804,5.6711e-07,4.2611,-2.041e-13,2.4942e-06,-5.6711e-07,-4.261,2.6051
20705,22.707,2.6364,0,3.4895e-05,348.71,2.1002e-05,119.81,5.0651e-06,0.067606,-3.1277e-05,-272.99,2.6051
20706,22.799,2.5455,0,3.3291e-05,332.68,2.0688e-05,123.08,4.3166e-06,0.072938,-2.9442e-05,-253.58,2.6205
20707,22.707,2.5455,0.05,7.3942e-07,7.3891,5.6779e-07,4.2661,1.4302e-13,3.3602e-06,-5.6779e-07,-4.2661,2.6051
20708,22.707,2.8182,0,3.5e-05,349.76,2.1131e-05,121.05,5.0295e-06,0.068087,-3.1333e-05,-273.14,2.6052
20709,22.799,2.7273,0,3.3434e-05,334.11,2.0862e-05,124.76,4.2676e-06,0.073604,-2.9517e-05,-253.77,2.6205
20710,22.707,2.7273,0.05,7.4e-07,7.3949,5.6823e-07,4.2695,3.6366e-14,3.3374e-06,-5.6823e-07,-4.2695,2.6051
20711,22.707,3,0,3.5035e-05,350.11,2.1173e-05,121.46,5.0176e-06,0.068245,-3.1351e-05,-273.19,2.6052
20712,22.799,2.9091,0,3.3506e-05,334.83,2.0949e-05,125.6,4.2431e-06,0.073929,-2.9554e-05,-253.86,2.6205
20713,22.707,2.9091,0.05,7.4029e-07,7.3978,5.6845e-07,4.2711,8.4474e-13,5.2356e-06,-5.6845e-07,-4.2711,2.6051
20714,22.707,3.1818,0,3.5e-05,349.76,2.1131e-05,121.05,5.0295e-06,0.068087,-3.1333e-05,-273.14,2.6052
20715,22.799,3.0909,0,3.3506e-05,334.83,2.0949e-05,125.6,4.2431e-06,0.07393,-2.9554e-05,-253.86,2.6205
20716,22.707,3.0909,0.05,7.4029e-07,7.3978,5.6845e-07,4.2711,7.4676e-13,7.1613e-06,-5.6845e-07,-4.2711,2.6051
20717,22.707,3.3636,0,3.4895e-05,348.71,2.1002e-05,119.81,5.0651e-06,0.067607,-3.1277e-05,-272.99,2.6051
20718,22.799,3.2727,0,3.3434e-05,334.11,2.0862e-05,124.76,4.2676e-06,0.073604,-2.9517e-05,-253.77,2.6205
20719,22.707,3.2727,0.05,7.4e-07,7.3949,5.6823e-07,4.2695,1.1002e-12,7.1618e-06,-5.6823e-07,-4.2695,2.6051
20720,22.707,3.5455,0,3.472e-05,346.96,2.0788e-05,117.76,5.1246e-06,0.066777,-3.1184e-05,-272.74,2.6051
20721,22.799,3.4545,0,3.3291e-05,332.68,2.0688e-05,123.08,4.3166e-06,0.072939,-2.9442e-05,-253.58,2.6205
20722,22.707,3.4545,0.05,7.3942e-07,7.3891,5.6779e-07,4.2661,1.4471e-12,9.9646e-06,-5.6779e-07,-4.2661,2.6051
20723,22.707,3.7273,0,3.4475e-05,344.51,2.0488e-05,114.88,5.2078e-06,0.065557,-3.1053e-05,-272.38,2.6051
20724,22.799,3.6364,0,3.3074e-05,330.52,2.0427e-05,120.57,4.3903e-06,0.071897,-2.9331e-05,-253.29,2.6205
20725,22.707,3.6364,0.05,7.3855e-07,7.3804,5.6711e-07,4.261,1.5547e-12,1.3662e-05,-5.6711e-07,-4.2611,2.6051
20726,22.707,3.9091,0,3.416e-05,341.36,2.0101e-05,111.16,5.3148e-06,0.063878,-3.0883e-05,-271.91,2.605
20727,22.799,3.8182,0,3.2786e-05,327.63,2.0077e-05,117.2,4.4885e-06,0.070427,-2.918e-05,-252.9,2.6204
20728,22.707,3.8182,0.05,7.3736e-07,7.3685,5.662e-07,4.2542,1.6627e-12,1.5451e-05,-5.662e-07,-4.2542,2.605
20729,22.707,4.0909,0,3.3776e-05,337.52,1.9627e-05,106.61,5.4454e-06,0.061634,-3.0674e-05,-271.33,2.6049
20730,22.799,4,0,3.2425e-05,324.02,1.9637e-05,112.97,4.6113e-06,0.06844,-2.899e-05,-252.4,2.6203
20731,22.707,4,0.05,7.3584e-07,7.3534,5.6504e-07,4.2455,1.7471e-12,1.5011e-05,-5.6504e-07,-4.2455,2.6049
20732,22.707,4.2727,0,3.3323e-05,333,1.9065e-05,101.23,5.5995e-06,0.058677,-3.0425e-05,-270.62,2.6048
20733,22.799,4.1818,0,3.1991e-05,319.69,1.9107e-05,107.87,4.7588e-06,0.065808,-2.876e-05,-251.78,2.6203
20734,22.707,4.1818,0.05,7.3399e-07,7.3349,5.6361e-07,4.2348,1.8146e-12,1.4514e-05,-5.6362e-07,-4.2348,2.6049
20735,22.707,4.4545,0,3.2804e-05,327.81,1.8416e-05,95.021,5.7767e-06,0.054779,-3.0137e-05,-269.79,2.6047
20736,22.799,4.3636,0,3.1486e-05,314.64,1.8486e-05,101.91,4.9308e-06,0.062349,-2.8489e-05,-251.04,2.6202
20737,22.707,4.3636,0.05,7.3179e-07,7.3128,5.6192e-07,4.2221,2.5053e-12,1.8347e-05,-5.6192e-07,-4.2221,2.6048
20738,22.707,4.6364,0,3.2223e-05,322.01,1.7683e-05,88.009,5.9764e-06,0.04962,-2.981e-05,-268.84,2.6046
20739,22.799,4.5455,0,3.0912e-05,308.9,1.7775e-05,95.089,5.1268e-06,0.057765,-2.8176e-05,-250.16,2.6201
20740,22.707,4.5455,0.05,7.2923e-07,7.2872,5.5995e-07,4.2073,1.845e-12,1.5888e-05,-5.5996e-07,-4.2073,2.6047
20741,22.707,4.8182,0,3.1588e-05,315.67,1.6871e-05,80.242,6.1976e-06,0.042641,-2.9449e-05,-267.79,2.6045
20742,22.799,4.7273,0,3.0273e-05,302.52,1.6975e-05,87.423,5.3464e-06,0.051671,-2.7823e-05,-249.17,2.6199
20743,22.707,4.7273,0.05,7.263e-07,7.258,5.5771e-07,4.1904,2.4669e-12,1.726e-05,-5.5771e-07,-4.1904,2.6045
20744,22.707,5,0,3.0913e-05,308.92,1.5991e-05,71.805,6.4387e-06,0.033308,-2.9059e-05,-266.68,2.6044
20745,22.799,4.9091,0,2.9578e-05,295.58,1.6092e-05,78.966,5.5884e-06,0.043244,-2.7433e-05,-248.06,2.6198
20746,22.707,4.9091,0.05,7.2302e-07,7.2252,5.5519e-07,4.1715,2.1968e-12,1.691e-05,-5.5519e-07,-4.1715,2.6044
20747,22.707,5.1818,0,3.0218e-05,301.98,1.5059e-05,62.845,6.6976e-06,0.019482,-2.8655e-05,-265.6,2.6042
20748,22.799,5.0909,0,2.8844e-05,288.24,1.5139e-05,69.819,5.8511e-06,0.032088,-2.7014e-05,-246.91,2.6197
20749,22.707,5.0909,0.05,7.1942e-07,7.1892,5.5243e-07,4.1507,2.1377e-12,1.44e-05,-5.5243e-07,-4.1507,2.6043
20750,22.707,5.3636,0,2.9536e-05,295.16,1.4104e-05,53.593,6.9713e-06,0.0032096,-2.8257e-05,-264.69,2.6041
20751,22.799,5.2727,0,2.8094e-05,280.75,1.4136e-05,60.156,6.1316e-06,0.013892,-2.6583e-05,-245.79,2.6195
20752,22.707,5.2727,0.05,7.1547e-07,7.1497,5.4939e-07,4.1279,2.0183e-12,1.6038e-05,-5.4939e-07,-4.1279,2.6041
20753,22.707,5.5455,0,2.892e-05,289,1.3173e-05,44.426,7.2544e-06,-0.040478,-2.7907e-05,-264.23,2.6039
20754,22.799,5.4545,0,2.7372e-05,273.53,1.3118e-05,50.274,6.4269e-06,-0.0031995,-2.6167e-05,-244.9,2.6194
20755,22.707,5.4545,0.05,7.0997e-07,7.0948,5.4516e-07,4.0962,2.0042e-12,1.4264e-05,-5.4517e-07,-4.0962,2.604
20756,22.707,5.7273,0,2.8601e-05,285.82,1.2463e-05,36.871,7.5473e-06,-0.065903,-2.7796e-05,-265.62,2.6037
20757,22.799,5.6364,0,2.675e-05,267.31,1.2153e-05,40.682,6.7283e-06,-0.07993,-2.5825e-05,-244.67,2.6192
20758,22.707,5.6364,0.05,6.8338e-07,6.8291,5.2475e-07,3.9428,1.6686e-12,1.3857e-05,-5.2475e-07,-3.9428,2.6038
20759,22.799,5.8182,0,2.6653e-05,266.34,1.1596e-05,34.142,7.046e-06,-0.044518,-2.5907e-05,-247.64,2.619
20760,22.707,5.8182,0.05,3.5537e-07,3.5513,2.7288e-07,2.0503,8.3605e-13,6.6934e-06,-2.7288e-07,-2.0503,2.6036
20761,22.707,5.9091,0,2.7235e-05,272.16,1.088e-05,22.93,7.8279e-06,0.0012637,-2.6772e-05,-259.97,2.6035
20762,22.892,0.27273,0,2.4732e-05,247.15,1.123e-05,37.535,6.2248e-06,-0.073901,-2.3879e-05,-226.26,2.6345
20763,22.984,0.18182,0,2.2739e-05,227.23,1.0295e-05,34.135,5.7443e-06,-0.057378,-2.1965e-05,-208.26,2.6498
20764,22.892,0.18182,0.05,3.8802e-07,3.8775,2.9795e-07,2.2387,8.0728e-13,8.3254e-06,-2.9795e-07,-2.2387,2.6344
20765,22.892,0.090909,0,2.3342e-05,233.26,9.5968e-06,23.007,6.5357e-06,0.0071231,-2.2865e-05,-220.9,2.6343
20766,22.892,0.45455,0,2.5173e-05,251.55,1.2075e-05,46.35,5.9011e-06,-0.039576,-2.4062e-05,-225.17,2.6347
20767,22.984,0.36364,0,2.2973e-05,229.57,1.1006e-05,42.098,5.3921e-06,-0.084851,-2.1966e-05,-205.64,2.65
20768,22.892,0.36364,0.05,6.8573e-07,6.8526,5.2655e-07,3.9563,-4.684e-13,-4.4055e-06,-5.2655e-07,-3.9563,2.6346
20769,22.892,0.63636,0,2.5912e-05,258.95,1.3134e-05,56.712,5.5876e-06,0.010126,-2.4477e-05,-225.89,2.6348
20770,22.984,0.54545,0,2.3734e-05,237.18,1.2116e-05,53.047,5.0566e-06,0.0029143,-2.2383e-05,-206.16,2.6502
20771,22.892,0.54545,0.05,7.1132e-07,7.1083,5.4621e-07,4.104,-1.3867e-12,-1.4751e-05,-5.462e-07,-4.104,2.6348
20772,22.892,0.81818,0,2.6711e-05,266.93,1.4204e-05,67.04,5.2855e-06,0.028449,-2.4931e-05,-227.01,2.635
20773,22.984,0.72727,0,2.4591e-05,245.74,1.3265e-05,64.157,4.729e-06,0.02267,-2.2863e-05,-207.29,2.6503
20774,22.892,0.72727,0.05,7.1763e-07,7.1714,5.5105e-07,4.1404,-1.4851e-12,-1.2884e-05,-5.5105e-07,-4.1404,2.6349
20775,22.892,1,0,2.7507e-05,274.88,1.5232e-05,76.914,5.001e-06,0.04357,-2.5379e-05,-228.22,2.6351
20776,22.984,0.90909,0,2.5457e-05,254.39,1.4376e-05,74.855,4.4194e-06,0.042796,-2.3343e-05,-208.56,2.6505
20777,22.892,0.90909,0.05,7.2236e-07,7.2186,5.5468e-07,4.1677,-1.0813e-12,-1.1205e-05,-5.5468e-07,-4.1677,2.635
20778,22.892,1.1818,0,2.8267e-05,282.48,1.6189e-05,86.098,4.7374e-06,0.053588,-2.58e-05,-229.4,2.6353
20779,22.984,1.0909,0,2.6288e-05,262.69,1.5415e-05,84.837,4.1314e-06,0.054856,-2.3796e-05,-209.78,2.6506
20780,22.892,1.0909,0.05,7.2657e-07,7.2607,5.5791e-07,4.1919,-1.0675e-12,-6.5477e-06,-5.5791e-07,-4.1919,2.6352
20781,22.892,1.3636,0,2.897e-05,289.5,1.7061e-05,94.464,4.497e-06,0.060996,-2.6183e-05,-230.46,2.6354
20782,22.984,1.2727,0,2.7059e-05,270.41,1.6364e-05,93.952,3.8679e-06,0.063858,-2.4208e-05,-210.89,2.6507
20783,22.892,1.2727,0.05,7.3029e-07,7.2978,5.6077e-07,4.2134,-1.1298e-12,-7.4598e-06,-5.6077e-07,-4.2134,2.6353
20784,22.892,1.5455,0,2.9606e-05,295.86,1.7841e-05,101.95,4.281e-06,0.066436,-2.6524e-05,-231.39,2.6355
20785,22.984,1.4545,0,2.776e-05,277.41,1.7214e-05,102.13,3.6301e-06,0.070318,-2.4574e-05,-211.85,2.6508
20786,22.892,1.4545,0.05,7.3353e-07,7.3302,5.6326e-07,4.2321,-6.6294e-13,-5.9134e-06,-5.6326e-07,-4.2321,2.6354
20787,22.892,1.7273,0,3.0169e-05,301.49,1.8526e-05,108.53,4.0902e-06,0.070535,-2.682e-05,-232.18,2.6356
20788,22.984,1.6364,0,2.8383e-05,283.63,1.7963e-05,109.36,3.419e-06,0.075165,-2.4895e-05,-212.66,2.6509
20789,22.892,1.6364,0.05,7.363e-07,7.3579,5.6538e-07,4.2481,-6.3754e-13,-4.6589e-06,-5.6538e-07,-4.2481,2.6355
20790,22.892,1.9091,0,3.0657e-05,306.36,1.9115e-05,114.21,3.9249e-06,0.073641,-2.7074e-05,-232.84,2.6357
20791,22.984,1.8182,0,2.8927e-05,289.07,1.8613e-05,115.63,3.2346e-06,0.078825,-2.517e-05,-213.34,2.651
20792,22.892,1.8182,0.05,7.3863e-07,7.3812,5.6718e-07,4.2615,-5.8872e-13,-5.2883e-06,-5.6718e-07,-4.2615,2.6356
20793,22.892,2.0909,0,3.1069e-05,310.48,1.9611e-05,118.98,3.7852e-06,0.076001,-2.7285e-05,-233.37,2.6358
20794,22.984,2,0,2.9391e-05,293.71,1.9165e-05,120.96,3.0771e-06,0.08161,-2.5401e-05,-213.89,2.6511
20795,22.892,2,0.05,7.4056e-07,7.4005,5.6866e-07,4.2727,-3.0902e-13,-3.0387e-06,-5.6866e-07,-4.2727,2.6357
20796,22.892,2.2727,0,3.1405e-05,313.83,2.0013e-05,122.87,3.671e-06,0.07777,-2.7456e-05,-233.8,2.6358
20797,22.984,2.1818,0,2.9776e-05,297.55,1.9621e-05,125.37,2.9462e-06,0.083718,-2.5591e-05,-214.34,2.6512
20798,22.892,2.1818,0.05,7.4211e-07,7.416,5.6985e-07,4.2816,-2.2885e-13,-2.4741e-06,-5.6985e-07,-4.2816,2.6358
20799,22.892,2.4545,0,3.1666e-05,316.44,2.0325e-05,125.87,3.5824e-06,0.079056,-2.7587e-05,-234.12,2.6359
20800,22.984,2.3636,0,3.0082e-05,300.61,1.9983e-05,128.88,2.8418e-06,0.085282,-2.5741e-05,-214.67,2.6512
20801,22.892,2.3636,0.05,7.4332e-07,7.4281,5.7078e-07,4.2886,5.382e-13,7.0072e-08,-5.7078e-07,-4.2886,2.6358
20802,22.892,2.6364,0,3.1851e-05,318.29,2.0546e-05,128.01,3.5192e-06,0.079931,-2.768e-05,-234.34,2.6359
20803,22.984,2.5455,0,3.0311e-05,302.9,2.0253e-05,131.49,2.7637e-06,0.086388,-2.5852e-05,-214.92,2.6513
20804,22.892,2.5455,0.05,7.4421e-07,7.4369,5.7146e-07,4.2937,4.1291e-13,8.4646e-07,-5.7146e-07,-4.2937,2.6359
20805,22.892,2.8182,0,3.1963e-05,319.4,2.0679e-05,129.29,3.4813e-06,0.08044,-2.7736e-05,-234.47,2.6359
20806,22.984,2.7273,0,3.0463e-05,304.42,2.0432e-05,133.23,2.7117e-06,0.087098,-2.5926e-05,-215.08,2.6513
20807,22.892,2.7273,0.05,7.4479e-07,7.4427,5.719e-07,4.2971,6.3689e-14,6.7359e-07,-5.719e-07,-4.2971,2.6359
20808,22.892,3,0,3.2e-05,319.77,2.0723e-05,129.72,3.4687e-06,0.080606,-2.7754e-05,-234.52,2.6359
20809,22.984,2.9091,0,3.0539e-05,305.18,2.0521e-05,134.1,2.6858e-06,0.087444,-2.5962e-05,-215.16,2.6513
20810,22.892,2.9091,0.05,7.4507e-07,7.4456,5.7212e-07,4.2987,6.2656e-13,2.4446e-06,-5.7212e-07,-4.2987,2.6359
20811,22.892,3.1818,0,3.1963e-05,319.4,2.0679e-05,129.29,3.4813e-06,0.080439,-2.7736e-05,-234.47,2.6359
20812,22.984,3.0909,0,3.0539e-05,305.18,2.0521e-05,134.1,2.6858e-06,0.087444,-2.5962e-05,-215.16,2.6513
20813,22.892,3.0909,0.05,7.4507e-07,7.4456,5.7212e-07,4.2987,5.103e-13,3.2784e-06,-5.7212e-07,-4.2987,2.6359
20814,22.892,3.3636,0,3.1851e-05,318.29,2.0546e-05,128.01,3.5192e-06,0.079931,-2.768e-05,-234.34,2.6359
20815,22.984,3.2727,0,3.0463e-05,304.42,2.0432e-05,133.23,2.7117e-06,0.087098,-2.5926e-05,-215.08,2.6513
20816,22.892,3.2727,0.05,7.4479e-07,7.4427,5.719e-07,4.2971,8.4473e-13,5.9925e-06,-5.719e-07,-4.2971,2.6359
20817,22.892,3.5455,0,3.1666e-05,316.44,2.0325e-05,125.87,3.5824e-06,0.079057,-2.7587e-05,-234.12,2.6359
20818,22.984,3.4545,0,3.0311e-05,302.9,2.0253e-05,131.49,2.7637e-06,0.086388,-2.5852e-05,-214.92,2.6513
20819,22.892,3.4545,0.05,7.4421e-07,7.4369,5.7146e-07,4.2937,1.1756e-12,6.7679e-06,-5.7146e-07,-4.2937,2.6359
20820,22.892,3.7273,0,3.1405e-05,313.83,2.0013e-05,122.87,3.671e-06,0.077771,-2.7456e-05,-233.8,2.6358
20821,22.984,3.6364,0,3.0082e-05,300.61,1.9983e-05,128.88,2.8418e-06,0.085282,-2.5741e-05,-214.67,2.6512
20822,22.892,3.6364,0.05,7.4332e-07,7.4281,5.7078e-07,4.2886,1.9458e-12,1.0275e-05,-5.7078e-07,-4.2886,2.6358
20823,22.892,3.9091,0,3.1069e-05,310.48,1.9611e-05,118.98,3.7852e-06,0.076002,-2.7285e-05,-233.37,2.6358
20824,22.984,3.8182,0,2.9776e-05,297.55,1.9621e-05,125.37,2.9462e-06,0.083717,-2.5591e-05,-214.34,2.6512
20825,22.892,3.8182,0.05,7.4211e-07,7.416,5.6985e-07,4.2816,1.814e-12,1.384e-05,-5.6985e-07,-4.2816,2.6358
20826,22.892,4.0909,0,3.0657e-05,306.36,1.9115e-05,114.21,3.9249e-06,0.073643,-2.7074e-05,-232.84,2.6357
20827,22.984,4,0,2.9391e-05,293.71,1.9165e-05,120.96,3.0771e-06,0.081613,-2.5401e-05,-213.89,2.6511
20828,22.892,4,0.05,7.4056e-07,7.4005,5.6865e-07,4.2726,1.6421e-12,1.3354e-05,-5.6866e-07,-4.2727,2.6357
20829,22.892,4.2727,0,3.0169e-05,301.49,1.8526e-05,108.53,4.0902e-06,0.070535,-2.682e-05,-232.18,2.6356
20830,22.984,4.1818,0,2.8927e-05,289.07,1.8613e-05,115.63,3.2346e-06,0.078824,-2.517e-05,-213.34,2.651
20831,22.892,4.1818,0.05,7.3863e-07,7.3812,5.6717e-07,4.2615,1.9131e-12,1.2619e-05,-5.6718e-07,-4.2615,2.6356
20832,22.892,4.4545,0,2.9606e-05,295.86,1.7841e-05,101.95,4.281e-06,0.066436,-2.6524e-05,-231.39,2.6355
20833,22.984,4.3636,0,2.8383e-05,283.63,1.7963e-05,109.36,3.419e-06,0.075166,-2.4895e-05,-212.66,2.6509
20834,22.892,4.3636,0.05,7.363e-07,7.3579,5.6538e-07,4.2481,2.3724e-12,1.4785e-05,-5.6538e-07,-4.2481,2.6355
20835,22.892,4.6364,0,2.897e-05,289.5,1.7061e-05,94.464,4.497e-06,0.060996,-2.6183e-05,-230.46,2.6354
20836,22.984,4.5455,0,2.776e-05,277.41,1.7214e-05,102.13,3.6301e-06,0.070319,-2.4574e-05,-211.85,2.6508
20837,22.892,4.5455,0.05,7.3353e-07,7.3302,5.6326e-07,4.2321,1.8916e-12,1.3668e-05,-5.6326e-07,-4.2321,2.6354
20838,22.892,4.8182,0,2.8267e-05,282.48,1.6189e-05,86.098,4.7374e-06,0.053588,-2.58e-05,-229.4,2.6353
20839,22.984,4.7273,0,2.7059e-05,270.41,1.6364e-05,93.952,3.8679e-06,0.063857,-2.4208e-05,-210.89,2.6507
20840,22.892,4.7273,0.05,7.3029e-07,7.2978,5.6077e-07,4.2134,1.6363e-12,1.6183e-05,-5.6077e-07,-4.2134,2.6353
20841,22.892,5,0,2.7507e-05,274.89,1.5232e-05,76.914,5.001e-06,0.04357,-2.5379e-05,-228.22,2.6351
20842,22.984,4.9091,0,2.6288e-05,262.69,1.5415e-05,84.837,4.1314e-06,0.054856,-2.3796e-05,-209.78,2.6506
20843,22.892,4.9091,0.05,7.2657e-07,7.2607,5.5791e-07,4.1919,2.2143e-12,1.6352e-05,-5.5791e-07,-4.192,2.6352
20844,22.892,5.1818,0,2.6711e-05,266.93,1.4204e-05,67.04,5.2855e-06,0.028449,-2.4931e-05,-227.01,2.635
20845,22.984,5.0909,0,2.5457e-05,254.39,1.4376e-05,74.855,4.4194e-06,0.042796,-2.3343e-05,-208.55,2.6505
20846,22.892,5.0909,0.05,7.2236e-07,7.2186,5.5468e-07,4.1677,1.6979e-12,1.2113e-05,-5.5468e-07,-4.1677,2.635
20847,22.892,5.3636,0,2.5912e-05,258.95,1.3134e-05,56.712,5.5876e-06,0.010127,-2.4477e-05,-225.89,2.6348
20848,22.984,5.2727,0,2.4591e-05,245.74,1.3265e-05,64.157,4.729e-06,0.022669,-2.2863e-05,-207.29,2.6503
20849,22.892,5.2727,0.05,7.1763e-07,7.1714,5.5105e-07,4.1404,1.8658e-12,1.2564e-05,-5.5105e-07,-4.1404,2.6349
20850,22.892,5.5455,0,2.5173e-05,251.55,1.2075e-05,46.35,5.9011e-06,-0.039571,-2.4062e-05,-225.17,2.6347
20851,22.984,5.4545,0,2.3734e-05,237.18,1.2116e-05,53.047,5.0566e-06,0.0029149,-2.2383e-05,-206.16,2.6502
20852,22.892,5.4545,0.05,7.1132e-07,7.1083,5.462e-07,4.104,1.4634e-12,1.1034e-05,-5.4621e-07,-4.104,2.6348
20853,22.892,5.7273,0,2.4732e-05,247.15,1.123e-05,37.535,6.2248e-06,-0.0739,-2.3879e-05,-226.26,2.6345
20854,22.984,5.6364,0,2.2973e-05,229.57,1.1006e-05,42.098,5.3921e-06,-0.084847,-2.1966e-05,-205.64,2.65
20855,22.892,5.6364,0.05,6.8573e-07,6.8526,5.2655e-07,3.9563,1.5186e-12,1.1497e-05,-5.2656e-07,-3.9563,2.6346
20856,22.984,5.8182,0,2.2739e-05,227.23,1.0295e-05,34.135,5.7443e-06,-0.057379,-2.1965e-05,-208.26,2.6498
20857,22.892,5.8182,0.05,3.8802e-07,3.8775,2.9795e-07,2.2387,5.3463e-13,2.1278e-06,-2.9795e-07,-2.2387,2.6344
20858,22.892,5.9091,0,2.3342e-05,233.26,9.5968e-06,23.007,6.5357e-06,0.0071197,-2.2865e-05,-220.9,2.6343
20859,23.076,0.27273,0,2.0902e-05,208.87,1.0008e-05,38.227,4.9094e-06,-0.084381,-1.9987e-05,-187.15,2.6653
20860,23.169,0.18182,0,1.8852e-05,188.39,8.9888e-06,33.996,4.4545e-06,-0.072716,-1.8043e-05,-169.11,2.6807
20861,23.076,0.18182,0.05,4.2414e-07,4.2385,3.2569e-07,2.4471,-2.2505e-13,-8.5181e-07,-3.2569e-07,-2.4471,2.6652
20862,23.076,0.090909,0,1.9482e-05,194.69,8.316e-06,22.994,5.2577e-06,0.01526,-1.8989e-05,-182.16,2.6652
20863,23.076,0.45455,0,2.1503e-05,214.88,1.1021e-05,48.594,4.5482e-06,-0.03797,-2.026e-05,-186.44,2.6655
20864,23.169,0.36364,0,1.9273e-05,192.6,9.8977e-06,43.78,4.0595e-06,-0.085819,-1.8151e-05,-166.97,2.6808
20865,23.076,0.36364,0.05,6.8896e-07,6.8849,5.2904e-07,3.975,-7.7691e-13,-5.1218e-06,-5.2904e-07,-3.975,2.6654
20866,23.076,0.63636,0,2.2398e-05,223.82,1.223e-05,60.363,4.1985e-06,0.018986,-2.0751e-05,-187.44,2.6656
20867,23.169,0.54545,0,2.0216e-05,202.02,1.1184e-05,56.377,3.6824e-06,0.016512,-1.8658e-05,-167.84,2.681
20868,23.076,0.54545,0.05,7.138e-07,7.1331,5.4811e-07,4.1183,-9.9932e-13,-6.8087e-06,-5.4811e-07,-4.1183,2.6656
20869,23.076,0.81818,0,2.3333e-05,233.17,1.3425e-05,71.885,3.8633e-06,0.039648,-2.1264e-05,-188.75,2.6658
20870,23.169,0.72727,0,2.1233e-05,212.19,1.2478e-05,68.875,3.3164e-06,0.03949,-1.9206e-05,-169.18,2.6811
20871,23.076,0.72727,0.05,7.2119e-07,7.2069,5.5379e-07,4.1609,-1.425e-12,-1.0119e-05,-5.5379e-07,-4.1609,2.6657
20872,23.076,1,0,2.4243e-05,242.26,1.4552e-05,82.718,3.5501e-06,0.056233,-2.1752e-05,-190.05,2.6659
20873,23.169,0.90909,0,2.223e-05,222.14,1.3701e-05,80.661,2.974e-06,0.0619,-1.9731e-05,-170.53,2.6813
20874,23.076,0.90909,0.05,7.268e-07,7.263,5.5809e-07,4.1933,-1.228e-12,-8.0446e-06,-5.5809e-07,-4.1933,2.6658
20875,23.076,1.1818,0,2.5092e-05,250.75,1.5584e-05,92.647,3.2621e-06,0.067021,-2.2198e-05,-191.23,2.6661
20876,23.169,1.0909,0,2.3163e-05,231.47,1.4822e-05,91.47,2.6583e-06,0.075071,-2.0209e-05,-171.74,2.6814
20877,23.076,1.0909,0.05,7.316e-07,7.311,5.6178e-07,4.221,-1.0266e-12,-3.4541e-06,-5.6178e-07,-4.221,2.666
20878,23.076,1.3636,0,2.5866e-05,258.48,1.6512e-05,101.59,3.0012e-06,0.074939,-2.2595e-05,-192.24,2.6662
20879,23.169,1.2727,0,2.4014e-05,239.97,1.583e-05,101.21,2.372e-06,0.084817,-2.0635e-05,-172.78,2.6815
20880,23.076,1.2727,0.05,7.3569e-07,7.3519,5.6492e-07,4.2446,-8.288e-13,-2.7209e-06,-5.6492e-07,-4.2446,2.6661
20881,23.076,1.5455,0,2.6558e-05,265.39,1.7333e-05,109.51,2.7683e-06,0.080733,-2.2942e-05,-193.1,2.6663
20882,23.169,1.4545,0,2.4776e-05,247.59,1.6724e-05,109.85,2.1155e-06,0.091792,-2.1007e-05,-173.64,2.6816
20883,23.076,1.4545,0.05,7.3913e-07,7.3862,5.6756e-07,4.2645,-8.6394e-13,-2.8962e-06,-5.6756e-07,-4.2644,2.6662
20884,23.076,1.7273,0,2.7164e-05,271.46,1.8048e-05,116.43,2.5636e-06,0.085102,-2.3242e-05,-193.8,2.6664
20885,23.169,1.6364,0,2.5447e-05,254.3,1.7506e-05,117.43,1.8891e-06,0.09703,-2.1328e-05,-174.35,2.6817
20886,23.076,1.6364,0.05,7.42e-07,7.4149,5.6976e-07,4.281,-8.5225e-13,-2.613e-06,-5.6976e-07,-4.281,2.6663
20887,23.076,1.9091,0,2.7686e-05,276.67,1.8661e-05,122.36,2.387e-06,0.08842,-2.3495e-05,-194.38,2.6665
20888,23.169,1.8182,0,2.6029e-05,260.11,1.8179e-05,123.97,1.6924e-06,0.101,-2.1601e-05,-174.92,2.6818
20889,23.076,1.8182,0.05,7.4436e-07,7.4384,5.7157e-07,4.2946,-8.0376e-13,-1.4431e-06,-5.7157e-07,-4.2946,2.6664
20890,23.076,2.0909,0,2.8125e-05,281.06,1.9174e-05,127.34,2.2383e-06,0.090944,-2.3705e-05,-194.84,2.6665
20891,23.169,2,0,2.6523e-05,265.04,1.8748e-05,129.51,1.525e-06,0.10402,-2.183e-05,-175.38,2.6819
20892,23.076,2,0.05,7.4627e-07,7.4575,5.7304e-07,4.3056,-5.0714e-13,8.7839e-07,-5.7304e-07,-4.3056,2.6665
20893,23.076,2.2727,0,2.8482e-05,284.62,1.9589e-05,131.37,2.1171e-06,0.092841,-2.3874e-05,-195.2,2.6666
20894,23.169,2.1818,0,2.6931e-05,269.12,1.9217e-05,134.08,1.3863e-06,0.10632,-2.2017e-05,-175.73,2.682
20895,23.076,2.1818,0.05,7.4778e-07,7.4727,5.7421e-07,4.3144,-2.1318e-13,4.9027e-07,-5.7421e-07,-4.3144,2.6666
20896,23.076,2.4545,0,2.8757e-05,287.38,1.9909e-05,134.48,2.0233e-06,0.094223,-2.4004e-05,-195.47,2.6666
20897,23.169,2.3636,0,2.7254e-05,272.36,1.9588e-05,137.69,1.276e-06,0.10803,-2.2164e-05,-176.01,2.682
20898,23.076,2.3636,0.05,7.4895e-07,7.4843,5.751e-07,4.3211,-1.3183e-13,1.1149e-06,-5.751e-07,-4.3211,2.6666
20899,23.076,2.6364,0,2.8953e-05,289.34,2.0137e-05,136.69,1.9564e-06,0.095164,-2.4096e-05,-195.65,2.6667
20900,23.169,2.5455,0,2.7496e-05,274.77,1.9864e-05,140.39,1.1936e-06,0.10924,-2.2272e-05,-176.2,2.6821
20901,23.076,2.5455,0.05,7.498e-07,7.4928,5.7575e-07,4.326,1.9192e-13,5.6525e-06,-5.7575e-07,-4.326,2.6666
20902,23.076,2.8182,0,2.9071e-05,290.51,2.0273e-05,138.02,1.9164e-06,0.095712,-2.415e-05,-195.76,2.6667
20903,23.169,2.7273,0,2.7656e-05,276.37,2.0047e-05,142.18,1.1389e-06,0.11002,-2.2344e-05,-176.33,2.6821
20904,23.076,2.7273,0.05,7.5035e-07,7.4983,5.7618e-07,4.3292,2.9527e-13,6.4332e-06,-5.7618e-07,-4.3292,2.6667
20905,23.076,3,0,2.911e-05,290.9,2.0318e-05,138.46,1.903e-06,0.095891,-2.4168e-05,-195.8,2.6667
20906,23.169,2.9091,0,2.7736e-05,277.17,2.0138e-05,143.07,1.1115e-06,0.1104,-2.238e-05,-176.39,2.6821
20907,23.076,2.9091,0.05,7.5062e-07,7.5011,5.7639e-07,4.3307,6.2791e-13,9.1294e-06,-5.7639e-07,-4.3307,2.6667
20908,23.076,3.1818,0,2.9071e-05,290.51,2.0273e-05,138.02,1.9164e-06,0.095712,-2.415e-05,-195.76,2.6667
20909,23.169,3.0909,0,2.7736e-05,277.17,2.0138e-05,143.07,1.1115e-06,0.11039,-2.238e-05,-176.39,2.6821
20910,23.076,3.0909,0.05,7.5062e-07,7.5011,5.7639e-07,4.3307,9.6408e-13,9.9473e-06,-5.7639e-07,-4.3307,2.6667
20911,23.076,3.3636,0,2.8953e-05,289.34,2.0137e-05,136.69,1.9564e-06,0.095165,-2.4096e-05,-195.65,2.6667
20912,23.169,3.2727,0,2.7656e-05,276.37,2.0047e-05,142.18,1.1389e-06,0.11002,-2.2344e-05,-176.33,2.6821
20913,23.076,3.2727,0.05,7.5035e-07,7.4983,5.7618e-07,4.3292,1.0707e-12,1.0742e-05,-5.7618e-07,-4.3292,2.6667
20914,23.076,3.5455,0,2.8757e-05,287.38,1.9909e-05,134.48,2.0233e-06,0.094223,-2.4004e-05,-195.47,2.6666
20915,23.169,3.4545,0,2.7496e-05,274.77,1.9864e-05,140.39,1.1936e-06,0.10924,-2.2272e-05,-176.2,2.6821
20916,23.076,3.4545,0.05,7.498e-07,7.4928,5.7575e-07,4.326,1.3974e-12,1.1513e-05,-5.7575e-07,-4.326,2.6666
20917,23.076,3.7273,0,2.8482e-05,284.62,1.9589e-05,131.37,2.1171e-06,0.09284,-2.3874e-05,-195.2,2.6666
20918,23.169,3.6364,0,2.7254e-05,272.36,1.9588e-05,137.69,1.276e-06,0.10803,-2.2164e-05,-176.01,2.682
20919,23.076,3.6364,0.05,7.4895e-07,7.4843,5.751e-07,4.3211,1.7183e-12,1.2232e-05,-5.751e-07,-4.3211,2.6666
20920,23.076,3.9091,0,2.8125e-05,281.06,1.9174e-05,127.34,2.2383e-06,0.090945,-2.3705e-05,-194.84,2.6665
20921,23.169,3.8182,0,2.6931e-05,269.12,1.9217e-05,134.08,1.3863e-06,0.10632,-2.2017e-05,-175.73,2.682
20922,23.076,3.8182,0.05,7.4778e-07,7.4727,5.7421e-07,4.3144,1.8115e-12,1.7628e-05,-5.7421e-07,-4.3144,2.6666
20923,23.076,4.0909,0,2.7686e-05,276.67,1.8661e-05,122.36,2.387e-06,0.088421,-2.3495e-05,-194.38,2.6665
20924,23.169,4,0,2.6523e-05,265.04,1.8748e-05,129.51,1.525e-06,0.10402,-2.183e-05,-175.38,2.6819
20925,23.076,4,0.05,7.4627e-07,7.4575,5.7304e-07,4.3056,2.1004e-12,1.818e-05,-5.7304e-07,-4.3056,2.6665
20926,23.076,4.2727,0,2.7164e-05,271.46,1.8048e-05,116.43,2.5636e-06,0.085102,-2.3242e-05,-193.8,2.6664
20927,23.169,4.1818,0,2.6029e-05,260.11,1.8179e-05,123.97,1.6924e-06,0.101,-2.1601e-05,-174.92,2.6818
20928,23.076,4.1818,0.05,7.4436e-07,7.4384,5.7157e-07,4.2946,1.9197e-12,1.6596e-05,-5.7157e-07,-4.2946,2.6664
20929,23.076,4.4545,0,2.6558e-05,265.39,1.7333e-05,109.51,2.7683e-06,0.080735,-2.2942e-05,-193.1,2.6663
20930,23.169,4.3636,0,2.5447e-05,254.3,1.7506e-05,117.43,1.8891e-06,0.097031,-2.1328e-05,-174.35,2.6817
20931,23.076,4.3636,0.05,7.42e-07,7.4149,5.6976e-07,4.281,2.1699e-12,2.0612e-05,-5.6976e-07,-4.281,2.6663
20932,23.076,4.6364,0,2.5866e-05,258.48,1.6512e-05,101.59,3.0012e-06,0.074939,-2.2595e-05,-192.24,2.6662
20933,23.169,4.5455,0,2.4776e-05,247.59,1.6724e-05,109.85,2.1155e-06,0.091792,-2.1007e-05,-173.64,2.6816
20934,23.076,4.5455,0.05,7.3913e-07,7.3862,5.6756e-07,4.2644,2.3895e-12,1.9636e-05,-5.6756e-07,-4.2645,2.6662
20935,23.076,4.8182,0,2.5092e-05,250.75,1.5584e-05,92.647,3.2621e-06,0.06702,-2.2198e-05,-191.23,2.6661
20936,23.169,4.7273,0,2.4014e-05,239.97,1.583e-05,101.21,2.372e-06,0.084818,-2.0635e-05,-172.78,2.6815
20937,23.076,4.7273,0.05,7.3569e-07,7.3519,5.6492e-07,4.2446,2.1387e-12,1.9528e-05,-5.6492e-07,-4.2446,2.6661
20938,23.076,5,0,2.4243e-05,242.26,1.4552e-05,82.718,3.5501e-06,0.056232,-2.1752e-05,-190.05,2.6659
20939,23.169,4.9091,0,2.3163e-05,231.47,1.4822e-05,91.47,2.6583e-06,0.075071,-2.0209e-05,-171.74,2.6814
20940,23.076,4.9091,0.05,7.316e-07,7.311,5.6178e-07,4.221,2.1936e-12,1.9875e-05,-5.6178e-07,-4.221,2.666
20941,23.076,5.1818,0,2.3333e-05,233.17,1.3425e-05,71.886,3.8633e-06,0.039648,-2.1264e-05,-188.75,2.6658
20942,23.169,5.0909,0,2.223e-05,222.14,1.3701e-05,80.661,2.974e-06,0.061898,-1.9731e-05,-170.53,2.6813
20943,23.076,5.0909,0.05,7.268e-07,7.263,5.5809e-07,4.1933,1.9329e-12,1.7404e-05,-5.5809e-07,-4.1933,2.6658
20944,23.076,5.3636,0,2.2398e-05,223.82,1.223e-05,60.363,4.1985e-06,0.018985,-2.0751e-05,-187.44,2.6656
20945,23.169,5.2727,0,2.1233e-05,212.19,1.2478e-05,68.875,3.3164e-06,0.039489,-1.9206e-05,-169.18,2.6811
20946,23.076,5.2727,0.05,7.2119e-07,7.2069,5.5379e-07,4.1609,1.7922e-12,1.7145e-05,-5.5379e-07,-4.1609,2.6657
20947,23.076,5.5455,0,2.1503e-05,214.88,1.1021e-05,48.594,4.5482e-06,-0.037969,-2.026e-05,-186.44,2.6655
20948,23.169,5.4545,0,2.0216e-05,202.02,1.1184e-05,56.377,3.6824e-06,0.016511,-1.8658e-05,-167.84,2.681
20949,23.076,5.4545,0.05,7.138e-07,7.1331,5.4811e-07,4.1183,1.367e-12,1.5306e-05,-5.4811e-07,-4.1183,2.6656
20950,23.076,5.7273,0,2.0902e-05,208.87,1.0008e-05,38.227,4.9094e-06,-0.084377,-1.9987e-05,-187.15,2.6653
20951,23.169,5.6364,0,1.9273e-05,192.6,9.8977e-06,43.78,4.0595e-06,-0.085817,-1.8151e-05,-166.97,2.6808
20952,23.076,5.6364,0.05,6.8896e-07,6.8849,5.2904e-07,3.975,1.6291e-12,1.5609e-05,-5.2904e-07,-3.975,2.6654
20953,23.169,5.8182,0,1.8852e-05,188.39,8.9888e-06,33.996,4.4545e-06,-0.072714,-1.8043e-05,-169.11,2.6807
20954,23.076,5.8182,0.05,4.2414e-07,4.2385,3.2569e-07,2.4471,1.0669e-12,1.0576e-05,-3.2569e-07,-2.4471,2.6652
20955,23.076,5.9091,0,1.9482e-05,194.69,8.316e-06,22.994,5.2577e-06,0.015261,-1.8989e-05,-182.16,2.6652
20956,23.261,0.27273,0,1.7133e-05,171.21,8.8062e-06,39.009,3.6025e-06,-0.090036,-1.6133e-05,-148.37,2.6962
20957,23.354,0.18182,0,1.5009e-05,149.98,7.6801e-06,33.72,3.1789e-06,-0.1005,-1.4148e-05,-130.29,2.7115
20958,23.261,0.18182,0.05,4.647e-07,4.6438,3.5683e-07,2.6811,1.4288e-12,1.1921e-05,-3.5684e-07,-2.6811,2.6961
20959,23.261,0.090909,0,1.5666e-05,156.56,7.0375e-06,22.867,3.9986e-06,0.033949,-1.5151e-05,-143.85,2.696
20960,23.261,0.45455,0,1.7954e-05,179.42,1.0031e-05,51.342,3.1946e-06,-0.024804,-1.652e-05,-148.16,2.6963
20961,23.354,0.36364,0,1.57e-05,156.9,8.854e-06,45.936,2.7281e-06,-0.091478,-1.4405e-05,-128.83,2.7116
20962,23.261,0.36364,0.05,6.9369e-07,6.9321,5.3267e-07,4.0023,-5.9204e-13,-6.3056e-06,-5.3267e-07,-4.0023,2.6962
20963,23.261,0.63636,0,1.9043e-05,190.3,1.1415e-05,64.761,2.801e-06,0.042032,-1.7096e-05,-149.45,2.6965
20964,23.354,0.54545,0,1.688e-05,168.69,1.0352e-05,60.539,2.2985e-06,0.027445,-1.5015e-05,-130.06,2.7118
20965,23.261,0.54545,0.05,7.1831e-07,7.1782,5.5158e-07,4.1443,-1.4699e-12,-1.4457e-05,-5.5157e-07,-4.1443,2.6964
20966,23.261,0.81818,0,2.0137e-05,201.23,1.2743e-05,77.571,2.4276e-06,0.065619,-1.7663e-05,-150.89,2.6966
20967,23.354,0.72727,0,1.8086e-05,180.74,1.1801e-05,74.543,1.8875e-06,0.054909,-1.5626e-05,-131.53,2.7119
20968,23.261,0.72727,0.05,7.2699e-07,7.2649,5.5824e-07,4.1944,-1.5742e-12,-1.4e-05,-5.5824e-07,-4.1944,2.6965
20969,23.261,1,0,2.1168e-05,211.53,1.3965e-05,89.36,2.0826e-06,0.084074,-1.8181e-05,-152.17,2.6967
20970,23.354,0.90909,0,1.9223e-05,192.09,1.3131e-05,87.404,1.5085e-06,0.07997,-1.6182e-05,-132.84,2.7121
20971,23.261,0.90909,0.05,7.3343e-07,7.3293,5.6319e-07,4.2315,-1.1701e-12,-1.2115e-05,-5.6318e-07,-4.2315,2.6967
20972,23.261,1.1818,0,2.211e-05,220.94,1.5064e-05,99.991,1.7686e-06,0.095947,-1.8641e-05,-153.26,2.6969
20973,23.354,1.0909,0,2.026e-05,202.46,1.4323e-05,98.972,1.1636e-06,0.094458,-1.6673e-05,-133.92,2.7122
20974,23.261,1.0909,0.05,7.3865e-07,7.3814,5.6719e-07,4.2617,-9.7275e-13,-8.3694e-06,-5.6719e-07,-4.2617,2.6968
20975,23.261,1.3636,0,2.2954e-05,229.38,1.6039e-05,109.45,1.4867e-06,0.10463,-1.9043e-05,-154.15,2.697
20976,23.354,1.2727,0,2.1188e-05,211.74,1.538e-05,109.25,8.5393e-07,0.10518,-1.71e-05,-134.79,2.7123
20977,23.261,1.2727,0.05,7.4288e-07,7.4237,5.7044e-07,4.2861,-1.0015e-12,-8.8029e-06,-5.7044e-07,-4.2861,2.6969
20978,23.261,1.5455,0,2.37e-05,236.83,1.6894e-05,117.75,1.2367e-06,0.111,-1.939e-05,-154.87,2.6971
20979,23.354,1.4545,0,2.201e-05,219.95,1.6308e-05,118.29,5.7894e-07,0.11286,-1.7468e-05,-135.48,2.7124
20980,23.261,1.4545,0.05,7.4631e-07,7.4579,5.7307e-07,4.3058,-7.0153e-13,-7.8396e-06,-5.7307e-07,-4.3058,2.697
20981,23.261,1.7273,0,2.4349e-05,243.32,1.7634e-05,124.96,1.0183e-06,0.11581,-1.9685e-05,-155.44,2.6972
20982,23.354,1.6364,0,2.2728e-05,227.12,1.7113e-05,126.16,3.3773e-07,0.11866,-1.7782e-05,-136.03,2.7125
20983,23.261,1.6364,0.05,7.4907e-07,7.4855,5.7519e-07,4.3218,-1.1043e-12,-6.8395e-06,-5.7519e-07,-4.3218,2.6971
20984,23.261,1.9091,0,2.4904e-05,248.87,1.8264e-05,131.1,8.3079e-07,0.11948,-1.9934e-05,-155.9,2.6973
20985,23.354,1.8182,0,2.3346e-05,233.3,1.7803e-05,132.92,1.2925e-07,0.12306,-1.8049e-05,-136.46,2.7126
20986,23.261,1.8182,0.05,7.5129e-07,7.5077,5.7689e-07,4.3346,-1.0592e-12,-4.5411e-06,-5.7689e-07,-4.3346,2.6972
20987,23.261,2.0909,0,2.5369e-05,253.51,1.8789e-05,136.24,6.7342e-07,0.12229,-2.014e-05,-156.26,2.6973
20988,23.354,2,0,2.3868e-05,238.52,1.8385e-05,138.62,-4.7512e-08,0.12644,-1.8271e-05,-136.8,2.7127
20989,23.261,2,0.05,7.5305e-07,7.5253,5.7825e-07,4.3447,-5.2803e-13,-4.0124e-06,-5.7825e-07,-4.3447,2.6973
20990,23.261,2.2727,0,2.5745e-05,257.27,1.9214e-05,140.39,5.4559e-07,0.1244,-2.0304e-05,-156.53,2.6974
20991,23.354,2.1818,0,2.4298e-05,242.82,1.8862e-05,143.3,-1.9344e-07,0.12901,-1.8452e-05,-137.06,2.7128
20992,23.261,2.1818,0.05,7.5442e-07,7.539,5.793e-07,4.3527,-2.2139e-13,-3.3435e-06,-5.793e-07,-4.3527,2.6973
20993,23.261,2.4545,0,2.6036e-05,260.18,1.9541e-05,143.59,4.4674e-07,0.12594,-2.043e-05,-156.74,2.6974
20994,23.354,2.3636,0,2.4639e-05,246.22,1.9239e-05,147.01,-3.0928e-07,0.13092,-1.8593e-05,-137.25,2.7128
20995,23.261,2.3636,0.05,7.5547e-07,7.5495,5.8011e-07,4.3587,-1.3135e-13,-2.7148e-06,-5.8011e-07,-4.3587,2.6974
20996,23.261,2.6364,0,2.6242e-05,262.24,1.9772e-05,145.86,3.7645e-07,0.127,-2.0519e-05,-156.88,2.6975
20997,23.354,2.5455,0,2.4893e-05,248.76,1.952e-05,149.77,-3.9564e-07,0.13229,-1.8698e-05,-137.39,2.7129
20998,23.261,2.5455,0.05,7.5622e-07,7.557,5.8068e-07,4.363,1.9133e-13,3.7225e-06,-5.8068e-07,-4.363,2.6974
20999,23.261,2.8182,0,2.6365e-05,263.47,1.9911e-05,147.22,3.344e-07,0.12761,-2.0572e-05,-156.96,2.6975
21000,23.354,2.7273,0,2.5061e-05,250.44,1.9705e-05,151.6,-4.5297e-07,0.13316,-1.8768e-05,-137.48,2.7129
21001,23.261,2.7273,0.05,7.5671e-07,7.5619,5.8106e-07,4.3658,2.9613e-13,4.5257e-06,-5.8106e-07,-4.3659,2.6975
21002,23.261,3,0,2.6406e-05,263.88,1.9957e-05,147.67,3.204e-07,0.12781,-2.059e-05,-156.98,2.6975
21003,23.354,2.9091,0,2.5145e-05,251.28,1.9798e-05,152.51,-4.8156e-07,0.13359,-1.8802e-05,-137.52,2.7129
21004,23.261,2.9091,0.05,7.5695e-07,7.5643,5.8124e-07,4.3672,8.5541e-13,5.3158e-06,-5.8124e-07,-4.3672,2.6975
21005,23.261,3.1818,0,2.6365e-05,263.47,1.9911e-05,147.22,3.344e-07,0.12761,-2.0572e-05,-156.96,2.6975
21006,23.354,3.0909,0,2.5145e-05,251.28,1.9798e-05,152.51,-4.8156e-07,0.13359,-1.8802e-05,-137.52,2.7129
21007,23.261,3.0909,0.05,7.5695e-07,7.5643,5.8124e-07,4.3672,7.3649e-13,6.1304e-06,-5.8124e-07,-4.3672,2.6975
21008,23.261,3.3636,0,2.6242e-05,262.24,1.9772e-05,145.86,3.7645e-07,0.127,-2.0519e-05,-156.88,2.6975
21009,23.354,3.2727,0,2.5061e-05,250.44,1.9705e-05,151.6,-4.5297e-07,0.13316,-1.8768e-05,-137.48,2.7129
21010,23.261,3.2727,0.05,7.5671e-07,7.5619,5.8106e-07,4.3658,1.0701e-12,8.8297e-06,-5.8106e-07,-4.3659,2.6975
21011,23.261,3.5455,0,2.6036e-05,260.18,1.9541e-05,143.59,4.4674e-07,0.12594,-2.043e-05,-156.74,2.6974
21012,23.354,3.4545,0,2.4893e-05,248.76,1.952e-05,149.77,-3.9564e-07,0.13229,-1.8698e-05,-137.39,2.7129
21013,23.261,3.4545,0.05,7.5622e-07,7.557,5.8068e-07,4.363,1.1693e-12,9.5965e-06,-5.8069e-07,-4.363,2.6974
21014,23.261,3.7273,0,2.5745e-05,257.27,1.9214e-05,140.39,5.4559e-07,0.1244,-2.0304e-05,-156.53,2.6974
21015,23.354,3.6364,0,2.4639e-05,246.22,1.9239e-05,147.01,-3.0928e-07,0.13092,-1.8593e-05,-137.25,2.7128
21016,23.261,3.6364,0.05,7.5547e-07,7.5495,5.8011e-07,4.3587,1.7073e-12,1.026e-05,-5.8011e-07,-4.3587,2.6974
21017,23.261,3.9091,0,2.5369e-05,253.51,1.8789e-05,136.24,6.7342e-07,0.12229,-2.014e-05,-156.26,2.6973
21018,23.354,3.8182,0,2.4298e-05,242.82,1.8862e-05,143.3,-1.9344e-07,0.12901,-1.8452e-05,-137.06,2.7128
21019,23.261,3.8182,0.05,7.5442e-07,7.539,5.793e-07,4.3527,2.2467e-12,1.6575e-05,-5.793e-07,-4.3527,2.6973
21020,23.261,4.0909,0,2.4904e-05,248.87,1.8264e-05,131.1,8.3079e-07,0.11948,-1.9934e-05,-155.9,2.6973
21021,23.354,4,0,2.3868e-05,238.52,1.8385e-05,138.62,-4.7512e-08,0.12644,-1.8271e-05,-136.8,2.7127
21022,23.261,4,0.05,7.5305e-07,7.5253,5.7825e-07,4.3447,1.426e-12,1.7108e-05,-5.7825e-07,-4.3447,2.6973
21023,23.261,4.2727,0,2.4349e-05,243.32,1.7634e-05,124.96,1.0183e-06,0.11581,-1.9685e-05,-155.44,2.6972
21024,23.354,4.1818,0,2.3346e-05,233.3,1.7803e-05,132.92,1.2925e-07,0.12306,-1.8049e-05,-136.46,2.7126
21025,23.261,4.1818,0.05,7.5129e-07,7.5077,5.7689e-07,4.3346,1.9195e-12,1.3778e-05,-5.769e-07,-4.3346,2.6972
21026,23.261,4.4545,0,2.37e-05,236.83,1.6894e-05,117.75,1.2367e-06,0.111,-1.939e-05,-154.87,2.6971
21027,23.354,4.3636,0,2.2728e-05,227.12,1.7113e-05,126.16,3.3773e-07,0.11866,-1.7782e-05,-136.03,2.7125
21028,23.261,4.3636,0.05,7.4907e-07,7.4855,5.7519e-07,4.3218,2.3852e-12,1.7663e-05,-5.7519e-07,-4.3218,2.6971
21029,23.261,4.6364,0,2.2954e-05,229.38,1.6039e-05,109.45,1.4867e-06,0.10463,-1.9043e-05,-154.15,2.697
21030,23.354,4.5455,0,2.201e-05,219.95,1.6308e-05,118.29,5.7894e-07,0.11286,-1.7468e-05,-135.48,2.7124
21031,23.261,4.5455,0.05,7.4631e-07,7.4579,5.7307e-07,4.3058,1.7346e-12,1.8661e-05,-5.7307e-07,-4.3058,2.697
21032,23.261,4.8182,0,2.211e-05,220.94,1.5064e-05,99.991,1.7686e-06,0.095948,-1.8641e-05,-153.26,2.6969
21033,23.354,4.7273,0,2.1188e-05,211.74,1.538e-05,109.25,8.5393e-07,0.10518,-1.71e-05,-134.79,2.7123
21034,23.261,4.7273,0.05,7.4288e-07,7.4237,5.7044e-07,4.2861,2.2484e-12,1.8333e-05,-5.7044e-07,-4.2861,2.6969
21035,23.261,5,0,2.1168e-05,211.53,1.3965e-05,89.361,2.0826e-06,0.084073,-1.8181e-05,-152.17,2.6967
21036,23.354,4.9091,0,2.026e-05,202.46,1.4323e-05,98.972,1.1636e-06,0.094457,-1.6673e-05,-133.92,2.7122
21037,23.261,4.9091,0.05,7.3865e-07,7.3814,5.6719e-07,4.2616,2.198e-12,1.8101e-05,-5.6719e-07,-4.2617,2.6968
21038,23.261,5.1818,0,2.0137e-05,201.23,1.2743e-05,77.571,2.4276e-06,0.065618,-1.7663e-05,-150.89,2.6966
21039,23.354,5.0909,0,1.9223e-05,192.09,1.3131e-05,87.404,1.5085e-06,0.079968,-1.6182e-05,-132.84,2.7121
21040,23.261,5.0909,0.05,7.3343e-07,7.3293,5.6318e-07,4.2315,1.808e-12,1.4678e-05,-5.6319e-07,-4.2316,2.6967
21041,23.261,5.3636,0,1.9043e-05,190.3,1.1415e-05,64.761,2.801e-06,0.042031,-1.7096e-05,-149.45,2.6965
21042,23.354,5.2727,0,1.8086e-05,180.74,1.1801e-05,74.543,1.8875e-06,0.054908,-1.5626e-05,-131.53,2.7119
21043,23.261,5.2727,0.05,7.2699e-07,7.2649,5.5824e-07,4.1944,1.8324e-12,1.466e-05,-5.5824e-07,-4.1944,2.6965
21044,23.261,5.5455,0,1.7954e-05,179.42,1.0031e-05,51.342,3.1946e-06,-0.024805,-1.652e-05,-148.16,2.6963
21045,23.354,5.4545,0,1.688e-05,168.69,1.0352e-05,60.539,2.2985e-06,0.027445,-1.5015e-05,-130.06,2.7118
21046,23.261,5.4545,0.05,7.1831e-07,7.1782,5.5157e-07,4.1443,1.5761e-12,1.3441e-05,-5.5158e-07,-4.1443,2.6964
21047,23.261,5.7273,0,1.7133e-05,171.21,8.8062e-06,39.009,3.6025e-06,-0.090035,-1.6133e-05,-148.37,2.6962
21048,23.354,5.6364,0,1.57e-05,156.9,8.854e-06,45.936,2.7281e-06,-0.091476,-1.4405e-05,-128.83,2.7116
21049,23.261,5.6364,0.05,6.9369e-07,6.9321,5.3267e-07,4.0023,1.5097e-12,1.1735e-05,-5.3267e-07,-4.0023,2.6962
21050,23.354,5.8182,0,1.5009e-05,149.98,7.6801e-06,33.72,3.1789e-06,-0.1005,-1.4148e-05,-130.29,2.7115
21051,23.261,5.8182,0.05,4.647e-07,4.6438,3.5683e-07,2.6811,8.8931e-13,7.0555e-06,-3.5683e-07,-2.6811,2.6961
21052,23.261,5.9091,0,1.5666e-05,156.56,7.0375e-06,22.867,3.9986e-06,0.033951,-1.5151e-05,-143.85,2.696
21053,23.446,0.27273,0,1.3471e-05,134.62,7.6445e-06,40.021,2.3027e-06,-0.11527,-1.2335e-05,-110.1,2.727
21054,23.538,0.18182,0,1.1251e-05,112.43,6.3819e-06,33.38,1.924e-06,-0.11551,-1.0304e-05,-91.992,2.7423
21055,23.446,0.18182,0.05,5.1101e-07,5.1066,3.9239e-07,2.9483,8.1391e-15,3.1974e-06,-3.9239e-07,-2.9483,2.7269
21056,23.446,0.090909,0,1.1914e-05,119.06,5.7621e-06,22.572,2.7643e-06,0.047374,-1.1368e-05,-106.14,2.7268
21057,23.446,0.45455,0,1.4602e-05,145.92,9.1447e-06,54.905,1.8334e-06,-0.028714,-1.2871e-05,-110.51,2.7271
21058,23.538,0.36364,0,1.2363e-05,123.55,7.9321e-06,49.055,1.3964e-06,-0.051084,-1.0774e-05,-91.497,2.7425
21059,23.446,0.36364,0.05,7.0175e-07,7.0126,5.3885e-07,4.0487,8.5895e-14,-7.6071e-07,-5.3885e-07,-4.0487,2.727
21060,23.446,0.63636,0,1.5932e-05,159.21,1.0723e-05,70.205,1.386e-06,0.048378,-1.3531e-05,-112.03,2.7273
21061,23.538,0.54545,0,1.3844e-05,138.34,9.671e-06,65.993,9.0133e-07,0.10136,-1.1487e-05,-92.98,2.7426
21062,23.446,0.54545,0.05,7.2669e-07,7.2619,5.5801e-07,4.1926,-4.0653e-13,-6.7336e-06,-5.5801e-07,-4.1927,2.7272
21063,23.446,0.81818,0,1.7199e-05,171.87,1.218e-05,84.309,9.6924e-07,0.075975,-1.4137e-05,-113.43,2.7274
21064,23.538,0.72727,0,1.5252e-05,152.42,1.1265e-05,81.475,4.3893e-07,0.13466,-1.2137e-05,-94.359,2.7428
21065,23.446,0.72727,0.05,7.3641e-07,7.3591,5.6548e-07,4.2488,-8.9804e-13,-1.1199e-05,-5.6547e-07,-4.2488,2.7273
21066,23.446,1,0,1.8353e-05,183.4,1.3484e-05,96.972,5.9025e-07,0.096551,-1.4669e-05,-114.55,2.7276
21067,23.538,0.90909,0,1.6527e-05,165.15,1.268e-05,95.278,2.1365e-08,0.16502,-1.2701e-05,-95.425,2.7429
21068,23.446,0.90909,0.05,7.432e-07,7.4268,5.7068e-07,4.2879,-9.6645e-13,-9.7775e-06,-5.7068e-07,-4.2879,2.7275
21069,23.446,1.1818,0,1.9384e-05,193.71,1.4636e-05,108.2,2.4971e-07,0.10971,-1.5128e-05,-115.43,2.7277
21070,23.538,1.0909,0,1.7661e-05,176.49,1.3926e-05,107.46,-3.5268e-07,0.18252,-1.3184e-05,-96.23,2.743
21071,23.446,1.0909,0.05,7.483e-07,7.4779,5.746e-07,4.3174,-6.9448e-13,-6.4226e-06,-5.746e-07,-4.3174,2.7276
21072,23.446,1.3636,0,2.0295e-05,202.81,1.5646e-05,118.08,-5.2997e-08,0.11938,-1.5522e-05,-116.11,2.7278
21073,23.538,1.2727,0,1.8662e-05,186.49,1.5016e-05,118.16,-6.8467e-07,0.19559,-1.3599e-05,-96.835,2.7431
21074,23.446,1.2727,0.05,7.5222e-07,7.517,5.7761e-07,4.3399,-7.2997e-13,-7.9821e-06,-5.7761e-07,-4.3399,2.7277
21075,23.446,1.5455,0,2.1092e-05,210.77,1.6524e-05,126.68,-3.1926e-07,0.1265,-1.5859e-05,-116.63,2.7279
21076,23.538,1.4545,0,1.9538e-05,195.24,1.5965e-05,127.5,-9.7697e-07,0.20505,-1.3953e-05,-97.291,2.7433
21077,23.446,1.4545,0.05,7.5525e-07,7.5473,5.7994e-07,4.3574,-8.5797e-13,-6.9952e-06,-5.7994e-07,-4.3574,2.7278
21078,23.446,1.7273,0,2.1781e-05,217.66,1.7281e-05,134.11,-5.5055e-07,0.13192,-1.6145e-05,-117.04,2.728
21079,23.538,1.6364,0,2.0298e-05,202.84,1.6784e-05,135.58,-1.2317e-06,0.21225,-1.4254e-05,-97.636,2.7434
21080,23.446,1.6364,0.05,7.5762e-07,7.571,5.8176e-07,4.3711,-6.5134e-13,-7.0778e-06,-5.8176e-07,-4.3711,2.7279
21081,23.446,1.9091,0,2.2368e-05,223.52,1.7922e-05,140.42,-7.4825e-07,0.13607,-1.6384e-05,-117.35,2.7281
21082,23.538,1.8182,0,2.0949e-05,209.35,1.7485e-05,142.49,-1.4508e-06,0.21778,-1.4509e-05,-97.897,2.7434
21083,23.446,1.8182,0.05,7.5947e-07,7.5894,5.8318e-07,4.3818,-4.0583e-13,-8.6545e-06,-5.8318e-07,-4.3818,2.728
21084,23.446,2.0909,0,2.2857e-05,228.41,1.8456e-05,145.67,-9.1356e-07,0.13926,-1.6582e-05,-117.59,2.7281
21085,23.538,2,0,2.1498e-05,214.83,1.8073e-05,148.3,-1.6359e-06,0.22204,-1.4721e-05,-98.094,2.7435
21086,23.446,2,0.05,7.609e-07,7.6038,5.8428e-07,4.3901,-3.5769e-13,-6.4773e-06,-5.8428e-07,-4.3901,2.7281
21087,23.446,2.2727,0,2.3252e-05,232.36,1.8886e-05,149.91,-1.0475e-06,0.14166,-1.674e-05,-117.76,2.7282
21088,23.538,2.1818,0,2.1949e-05,219.34,1.8555e-05,153.08,-1.7882e-06,0.2253,-1.4893e-05,-98.241,2.7436
21089,23.446,2.1818,0.05,7.6201e-07,7.6148,5.8513e-07,4.3964,-3.1238e-13,1.4197e-06,-5.8513e-07,-4.3964,2.7282
21090,23.446,2.4545,0,2.3557e-05,235.41,1.9217e-05,153.18,-1.1508e-06,0.14343,-1.6861e-05,-117.89,2.7282
21091,23.538,2.3636,0,2.2305e-05,222.9,1.8936e-05,156.84,-1.9089e-06,0.22775,-1.5029e-05,-98.348,2.7436
21092,23.446,2.3636,0.05,7.6284e-07,7.6231,5.8576e-07,4.4012,-2.511e-13,-5.6879e-06,-5.8576e-07,-4.4012,2.7282
21093,23.446,2.6364,0,2.3773e-05,237.57,1.9451e-05,155.49,-1.2242e-06,0.14463,-1.6946e-05,-117.98,2.7283
21094,23.538,2.5455,0,2.2571e-05,225.55,1.9218e-05,159.65,-1.9988e-06,0.22949,-1.5129e-05,-98.423,2.7437
21095,23.446,2.5455,0.05,7.6343e-07,7.629,5.8622e-07,4.4046,2.7132e-13,-1.3776e-06,-5.8622e-07,-4.4046,2.7282
21096,23.446,2.8182,0,2.3902e-05,238.86,1.9591e-05,156.87,-1.2681e-06,0.14533,-1.6997e-05,-118.03,2.7283
21097,23.538,2.7273,0,2.2746e-05,227.3,1.9405e-05,161.5,-2.0583e-06,0.23061,-1.5195e-05,-98.471,2.7437
21098,23.446,2.7273,0.05,7.6381e-07,7.6328,5.8651e-07,4.4068,1.1504e-13,2.9707e-06,-5.8651e-07,-4.4068,2.7283
21099,23.446,3,0,2.3945e-05,239.29,1.9638e-05,157.33,-1.2827e-06,0.14557,-1.7014e-05,-118.05,2.7283
21100,23.538,2.9091,0,2.2834e-05,228.18,1.9499e-05,162.42,-2.088e-06,0.23117,-1.5227e-05,-98.494,2.7437
21101,23.446,2.9091,0.05,7.6399e-07,7.6347,5.8665e-07,4.4079,4.1649e-13,5.4345e-06,-5.8665e-07,-4.4079,2.7283
21102,23.446,3.1818,0,2.3902e-05,238.86,1.9591e-05,156.87,-1.2681e-06,0.14533,-1.6997e-05,-118.03,2.7283
21103,23.538,3.0909,0,2.2834e-05,228.18,1.9499e-05,162.42,-2.088e-06,0.23117,-1.5227e-05,-98.494,2.7437
21104,23.446,3.0909,0.05,7.6399e-07,7.6347,5.8665e-07,4.4079,9.4755e-13,4.101e-06,-5.8665e-07,-4.4079,2.7283
21105,23.446,3.3636,0,2.3773e-05,237.57,1.9451e-05,155.49,-1.2242e-06,0.14463,-1.6946e-05,-117.98,2.7283
21106,23.538,3.2727,0,2.2746e-05,227.3,1.9405e-05,161.5,-2.0583e-06,0.23062,-1.5195e-05,-98.471,2.7437
21107,23.446,3.2727,0.05,7.6381e-07,7.6328,5.8651e-07,4.4068,1.02e-12,6.5556e-06,-5.8651e-07,-4.4068,2.7283
21108,23.446,3.5455,0,2.3557e-05,235.41,1.9217e-05,153.18,-1.1508e-06,0.14343,-1.6861e-05,-117.89,2.7282
21109,23.538,3.4545,0,2.2571e-05,225.55,1.9218e-05,159.65,-1.9988e-06,0.22949,-1.5129e-05,-98.423,2.7437
21110,23.446,3.4545,0.05,7.6343e-07,7.629,5.8622e-07,4.4046,1.3136e-12,8.9693e-06,-5.8622e-07,-4.4046,2.7282
21111,23.446,3.7273,0,2.3252e-05,232.36,1.8886e-05,149.91,-1.0475e-06,0.14166,-1.674e-05,-117.76,2.7282
21112,23.538,3.6364,0,2.2305e-05,222.9,1.8936e-05,156.84,-1.9089e-06,0.22775,-1.5029e-05,-98.348,2.7436
21113,23.446,3.6364,0.05,7.6284e-07,7.6231,5.8576e-07,4.4012,1.8285e-12,1.132e-05,-5.8576e-07,-4.4012,2.7282
21114,23.446,3.9091,0,2.2857e-05,228.41,1.8456e-05,145.67,-9.1356e-07,0.13926,-1.6582e-05,-117.59,2.7281
21115,23.538,3.8182,0,2.1949e-05,219.34,1.8555e-05,153.08,-1.7882e-06,0.2253,-1.4893e-05,-98.241,2.7436
21116,23.446,3.8182,0.05,7.6201e-07,7.6148,5.8513e-07,4.3964,1.8852e-12,1.3691e-05,-5.8513e-07,-4.3964,2.7282
21117,23.446,4.0909,0,2.2368e-05,223.52,1.7922e-05,140.42,-7.4825e-07,0.13607,-1.6384e-05,-117.35,2.7281
21118,23.538,4,0,2.1498e-05,214.83,1.8073e-05,148.3,-1.6359e-06,0.22204,-1.4721e-05,-98.094,2.7435
21119,23.446,4,0.05,7.609e-07,7.6038,5.8428e-07,4.39,1.7031e-12,1.2109e-05,-5.8428e-07,-4.3901,2.7281
21120,23.446,4.2727,0,2.1781e-05,217.66,1.7281e-05,134.11,-5.5055e-07,0.13192,-1.6145e-05,-117.04,2.728
21121,23.538,4.1818,0,2.0949e-05,209.35,1.7485e-05,142.49,-1.4508e-06,0.21777,-1.4509e-05,-97.897,2.7434
21122,23.446,4.1818,0.05,7.5947e-07,7.5894,5.8318e-07,4.3818,2.1705e-12,1.4171e-05,-5.8318e-07,-4.3818,2.728
21123,23.446,4.4545,0,2.1092e-05,210.77,1.6524e-05,126.68,-3.1926e-07,0.1265,-1.5859e-05,-116.63,2.7279
21124,23.538,4.3636,0,2.0298e-05,202.84,1.6784e-05,135.58,-1.2317e-06,0.21225,-1.4254e-05,-97.636,2.7434
21125,23.446,4.3636,0.05,7.5762e-07,7.571,5.8176e-07,4.3711,2.1706e-12,1.8926e-05,-5.8176e-07,-4.3711,2.7279
21126,23.446,4.6364,0,2.0295e-05,202.81,1.5646e-05,118.08,-5.2998e-08,0.11938,-1.5522e-05,-116.11,2.7278
21127,23.538,4.5455,0,1.9538e-05,195.24,1.5965e-05,127.5,-9.7697e-07,0.20505,-1.3953e-05,-97.291,2.7433
21128,23.446,4.5455,0.05,7.5525e-07,7.5473,5.7994e-07,4.3574,1.7124e-12,1.6932e-05,-5.7994e-07,-4.3575,2.7278
21129,23.446,4.8182,0,1.9384e-05,193.71,1.4636e-05,108.2,2.497e-07,0.1097,-1.5128e-05,-115.43,2.7277
21130,23.538,4.7273,0,1.8662e-05,186.49,1.5016e-05,118.16,-6.8467e-07,0.19559,-1.3599e-05,-96.835,2.7431
21131,23.446,4.7273,0.05,7.5222e-07,7.517,5.7761e-07,4.3399,2.0935e-12,1.6278e-05,-5.7761e-07,-4.3399,2.7277
21132,23.446,5,0,1.8353e-05,183.4,1.3484e-05,96.972,5.9024e-07,0.096549,-1.4669e-05,-114.55,2.7276
21133,23.538,4.9091,0,1.7661e-05,176.49,1.3926e-05,107.46,-3.5268e-07,0.18252,-1.3184e-05,-96.23,2.743
21134,23.446,4.9091,0.05,7.483e-07,7.4779,5.746e-07,4.3173,1.8911e-12,1.6469e-05,-5.746e-07,-4.3174,2.7276
21135,23.446,5.1818,0,1.7199e-05,171.87,1.218e-05,84.309,9.6924e-07,0.075974,-1.4137e-05,-113.43,2.7274
21136,23.538,5.0909,0,1.6527e-05,165.15,1.268e-05,95.278,2.1362e-08,0.16502,-1.2701e-05,-95.425,2.7429
21137,23.446,5.0909,0.05,7.432e-07,7.4268,5.7068e-07,4.2879,1.4776e-12,1.221e-05,-5.7068e-07,-4.2879,2.7275
21138,23.446,5.3636,0,1.5932e-05,159.21,1.0723e-05,70.205,1.386e-06,0.048378,-1.3531e-05,-112.03,2.7273
21139,23.538,5.2727,0,1.5252e-05,152.42,1.1265e-05,81.475,4.3893e-07,0.13465,-1.2137e-05,-94.359,2.7428
21140,23.446,5.2727,0.05,7.3641e-07,7.3591,5.6547e-07,4.2488,1.5048e-12,1.2194e-05,-5.6548e-07,-4.2488,2.7273
21141,23.446,5.5455,0,1.4602e-05,145.92,9.1447e-06,54.905,1.8334e-06,-0.028711,-1.2871e-05,-110.51,2.7271
21142,23.538,5.4545,0,1.3844e-05,138.34,9.671e-06,65.993,9.0133e-07,0.10136,-1.1487e-05,-92.98,2.7426
21143,23.446,5.4545,0.05,7.2669e-07,7.2619,5.5801e-07,4.1926,1.1112e-12,1.0572e-05,-5.5801e-07,-4.1927,2.7272
21144,23.446,5.7273,0,1.3471e-05,134.62,7.6445e-06,40.021,2.3027e-06,-0.11527,-1.2335e-05,-110.1,2.727
21145,23.538,5.6364,0,1.2363e-05,123.55,7.9321e-06,49.055,1.3964e-06,-0.05108,-1.0774e-05,-91.497,2.7425
21146,23.446,5.6364,0.05,7.0175e-07,7.0126,5.3885e-07,4.0487,9.6849e-13,8.424e-06,-5.3886e-07,-4.0487,2.727
21147,23.538,5.8182,0,1.1251e-05,112.43,6.3819e-06,33.38,1.924e-06,-0.11551,-1.0304e-05,-91.992,2.7423
21148,23.446,5.8182,0.05,5.1101e-07,5.1066,3.9239e-07,2.9483,4.0127e-13,3.7765e-06,-3.9239e-07,-2.9483,2.7269
21149,23.446,5.9091,0,1.1914e-05,119.06,5.7621e-06,22.572,2.7643e-06,0.047374,-1.1368e-05,-106.14,2.7268
21150,23.631,0.27273,0,1.0033e-05,100.26,6.5758e-06,41.71,1.0172e-06,-0.05483,-8.6486e-06,-72.68,2.7578
21151,23.723,0.18182,0,7.7611e-06,77.557,5.1994e-06,33.683,6.75e-07,-0.31084,-6.6124e-06,-55.066,2.7732
21152,23.631,0.18182,0.05,5.6905e-07,5.6866,4.3696e-07,3.2832,4.7774e-13,5.948e-06,-4.3696e-07,-3.2832,2.7577
21153,23.631,0.090909,0,8.2769e-06,82.711,4.5007e-06,22.138,1.5733e-06,0.14221,-7.6753e-06,-69.348,2.7577
21154,23.631,0.45455,0,1.161e-05,116.02,8.4314e-06,59.94,4.6705e-07,0.099077,-9.3661e-06,-73.783,2.758
21155,23.723,0.36364,0,9.5133e-06,95.068,7.2625e-06,54.173,3.0785e-08,-0.16356,-7.3474e-06,-55.6,2.7733
21156,23.631,0.36364,0.05,7.2018e-07,7.1968,5.5301e-07,4.1551,2.7273e-13,1.242e-06,-5.5301e-07,-4.1551,2.7579
21157,23.631,0.63636,0,1.3208e-05,131.99,1.0201e-05,77.174,-4.3542e-08,0.20437,-1.0084e-05,-75.236,2.7581
21158,23.723,0.54545,0,1.1309e-05,113.01,9.2137e-06,73.343,-5.4136e-07,0.047018,-8.1081e-06,-56.807,2.7735
21159,23.631,0.54545,0.05,7.4362e-07,7.4311,5.7101e-07,4.2903,-6.6565e-14,-1.807e-06,-5.7101e-07,-4.2903,2.758
21160,23.631,0.81818,0,1.4642e-05,146.32,1.1758e-05,92.395,-5.0687e-07,0.23933,-1.0696e-05,-76.321,2.7583
21161,23.723,0.72727,0,1.2897e-05,128.88,1.0905e-05,89.966,-1.0568e-06,0.089792,-8.7469e-06,-57.691,2.7736
21162,23.631,0.72727,0.05,7.5271e-07,7.5219,5.7799e-07,4.3428,-3.6973e-13,-4.1368e-06,-5.7799e-07,-4.3428,2.7582
21163,23.631,1,0,1.5906e-05,158.95,1.3118e-05,105.74,-9.195e-07,0.26647,-1.1214e-05,-77.085,2.7584
21164,23.723,0.90909,0,1.4284e-05,142.74,1.2368e-05,104.41,-1.5107e-06,0.13083,-9.2829e-06,-58.267,2.7737
21165,23.631,0.90909,0.05,7.5818e-07,7.5765,5.8219e-07,4.3743,-4.5642e-13,-4.6422e-06,-5.8219e-07,-4.3743,2.7583
21166,23.631,1.1818,0,1.7015e-05,170.03,1.4302e-05,117.4,-1.285e-06,0.28405,-1.1654e-05,-77.628,2.7585
21167,23.723,1.0909,0,1.5495e-05,154.84,1.3638e-05,116.98,-1.9108e-06,0.15531,-9.737e-06,-58.648,2.7739
21168,23.631,1.0909,0.05,7.6197e-07,7.6145,5.851e-07,4.3962,-5.9082e-13,-4.4587e-06,-5.851e-07,-4.3962,2.7584
21169,23.631,1.3636,0,1.7984e-05,179.71,1.5332e-05,127.57,-1.6065e-06,0.29715,-1.2029e-05,-78.016,2.7586
21170,23.723,1.2727,0,1.6551e-05,165.4,1.4741e-05,127.93,-2.262e-06,0.17401,-1.0124e-05,-58.9,2.774
21171,23.631,1.2727,0.05,7.6469e-07,7.6416,5.8719e-07,4.4119,-6.6778e-13,-5.5983e-06,-5.8719e-07,-4.4119,2.7585
21172,23.631,1.5455,0,1.8825e-05,188.12,1.6223e-05,136.38,-1.8873e-06,0.30695,-1.2349e-05,-78.296,2.7587
21173,23.723,1.4545,0,1.747e-05,174.58,1.5697e-05,137.43,-2.5688e-06,0.18795,-1.0455e-05,-59.067,2.7741
21174,23.631,1.4545,0.05,7.6667e-07,7.6614,5.8871e-07,4.4233,-5.986e-13,-3.0269e-06,-5.8871e-07,-4.4233,2.7587
21175,23.631,1.7273,0,1.9549e-05,195.35,1.6987e-05,143.95,-2.1298e-06,0.31449,-1.2619e-05,-78.5,2.7588
21176,23.723,1.6364,0,1.8263e-05,182.5,1.652e-05,145.62,-2.8348e-06,0.19881,-1.0737e-05,-59.176,2.7742
21177,23.631,1.6364,0.05,7.6814e-07,7.6761,5.8984e-07,4.4318,-8.4217e-13,-3.1496e-06,-5.8984e-07,-4.4318,2.7588
21178,23.631,1.9091,0,2.0163e-05,201.49,1.7633e-05,150.37,-2.3363e-06,0.32033,-1.2846e-05,-78.648,2.7589
21179,23.723,1.8182,0,1.894e-05,189.27,1.7222e-05,152.62,-3.0626e-06,0.20731,-1.0975e-05,-59.246,2.7743
21180,23.631,1.8182,0.05,7.6924e-07,7.6871,5.9068e-07,4.4382,-6.2715e-13,-3.2275e-06,-5.9068e-07,-4.4382,2.7588
21181,23.631,2.0909,0,2.0674e-05,206.59,1.817e-05,155.7,-2.5083e-06,0.32485,-1.3033e-05,-78.755,2.759
21182,23.723,2,0,1.951e-05,194.96,1.7811e-05,158.49,-3.2544e-06,0.21398,-1.1174e-05,-59.291,2.7743
21183,23.631,2,0.05,7.7007e-07,7.6954,5.9132e-07,4.4429,-4.0383e-13,-3.2117e-06,-5.9132e-07,-4.4429,2.7589
21184,23.631,2.2727,0,2.1086e-05,210.71,1.8603e-05,160,-2.6474e-06,0.32829,-1.3183e-05,-78.831,2.759
21185,23.723,2.1818,0,1.9976e-05,199.62,1.8293e-05,163.3,-3.4119e-06,0.21918,-1.1336e-05,-59.318,2.7744
21186,23.631,2.1818,0.05,7.7068e-07,7.7015,5.9179e-07,4.4465,-1.6396e-13,6.8377e-07,-5.9179e-07,-4.4465,2.759
21187,23.631,2.4545,0,2.1403e-05,213.88,1.8936e-05,163.3,-2.7546e-06,0.33083,-1.3298e-05,-78.885,2.7591
21188,23.723,2.3636,0,2.0345e-05,203.31,1.8674e-05,167.1,-3.5364e-06,0.22311,-1.1463e-05,-59.333,2.7745
21189,23.631,2.3636,0.05,7.7113e-07,7.7059,5.9213e-07,4.449,-1.4168e-13,-1.0492e-06,-5.9213e-07,-4.449,2.759
21190,23.631,2.6364,0,2.1627e-05,216.12,1.9171e-05,165.64,-2.8306e-06,0.33257,-1.3378e-05,-78.92,2.7591
21191,23.723,2.5455,0,2.0618e-05,206.04,1.8956e-05,169.92,-3.629e-06,0.22594,-1.1557e-05,-59.342,2.7745
21192,23.631,2.5455,0.05,7.7144e-07,7.7091,5.9237e-07,4.4508,-9.7456e-14,-7.2102e-07,-5.9237e-07,-4.4508,2.7591
21193,23.631,2.8182,0,2.1762e-05,217.46,1.9311e-05,167.04,-2.876e-06,0.33359,-1.3427e-05,-78.939,2.7591
21194,23.723,2.7273,0,2.08e-05,207.85,1.9143e-05,171.79,-3.6904e-06,0.22778,-1.1619e-05,-59.346,2.7745
21195,23.631,2.7273,0.05,7.7163e-07,7.711,5.9252e-07,4.452,3.898e-13,3.33e-06,-5.9252e-07,-4.452,2.7591
21196,23.631,3,0,2.1806e-05,217.91,1.9358e-05,167.51,-2.8911e-06,0.33392,-1.3443e-05,-78.946,2.7591
21197,23.723,2.9091,0,2.089e-05,208.76,1.9236e-05,172.72,-3.721e-06,0.22869,-1.165e-05,-59.348,2.7745
21198,23.631,2.9091,0.05,7.7173e-07,7.712,5.9259e-07,4.4525,6.599e-13,5.5555e-06,-5.9259e-07,-4.4525,2.7591
21199,23.631,3.1818,0,2.1762e-05,217.46,1.9311e-05,167.04,-2.876e-06,0.33359,-1.3427e-05,-78.939,2.7591
21200,23.723,3.0909,0,2.089e-05,208.76,1.9236e-05,172.72,-3.721e-06,0.22868,-1.165e-05,-59.348,2.7745
21201,23.631,3.0909,0.05,7.7173e-07,7.712,5.9259e-07,4.4525,4.7656e-13,5.8856e-06,-5.9259e-07,-4.4525,2.7591
21202,23.631,3.3636,0,2.1627e-05,216.12,1.9171e-05,165.64,-2.8306e-06,0.33257,-1.3378e-05,-78.92,2.7591
21203,23.723,3.2727,0,2.08e-05,207.85,1.9143e-05,171.79,-3.6904e-06,0.22778,-1.1619e-05,-59.346,2.7745
21204,23.631,3.2727,0.05,7.7163e-07,7.711,5.9252e-07,4.452,9.7148e-13,8.0972e-06,-5.9252e-07,-4.452,2.7591
21205,23.631,3.5455,0,2.1403e-05,213.88,1.8936e-05,163.3,-2.7546e-06,0.33083,-1.3298e-05,-78.885,2.7591
21206,23.723,3.4545,0,2.0618e-05,206.04,1.8956e-05,169.92,-3.629e-06,0.22594,-1.1557e-05,-59.342,2.7745
21207,23.631,3.4545,0.05,7.7144e-07,7.7091,5.9237e-07,4.4508,1.0059e-12,1.2169e-05,-5.9237e-07,-4.4508,2.7591
21208,23.631,3.7273,0,2.1086e-05,210.71,1.8603e-05,160,-2.6474e-06,0.32829,-1.3183e-05,-78.831,2.759
21209,23.723,3.6364,0,2.0345e-05,203.31,1.8674e-05,167.1,-3.5364e-06,0.22311,-1.1463e-05,-59.333,2.7745
21210,23.631,3.6364,0.05,7.7113e-07,7.7059,5.9213e-07,4.449,1.2683e-12,1.6207e-05,-5.9213e-07,-4.449,2.759
21211,23.631,3.9091,0,2.0674e-05,206.59,1.817e-05,155.7,-2.5083e-06,0.32485,-1.3033e-05,-78.755,2.759
21212,23.723,3.8182,0,1.9976e-05,199.62,1.8293e-05,163.3,-3.4119e-06,0.21917,-1.1336e-05,-59.318,2.7744
21213,23.631,3.8182,0.05,7.7068e-07,7.7015,5.9179e-07,4.4465,1.9789e-12,1.6482e-05,-5.9179e-07,-4.4465,2.759
21214,23.631,4.0909,0,2.0163e-05,201.49,1.7633e-05,150.37,-2.3363e-06,0.32033,-1.2846e-05,-78.648,2.7589
21215,23.723,4,0,1.951e-05,194.96,1.7811e-05,158.49,-3.2544e-06,0.21399,-1.1174e-05,-59.291,2.7743
21216,23.631,4,0.05,7.7007e-07,7.6954,5.9132e-07,4.4429,1.532e-12,1.6505e-05,-5.9132e-07,-4.4429,2.7589
21217,23.631,4.2727,0,1.9549e-05,195.35,1.6987e-05,143.95,-2.1298e-06,0.31449,-1.2619e-05,-78.5,2.7588
21218,23.723,4.1818,0,1.894e-05,189.27,1.7222e-05,152.62,-3.0626e-06,0.20731,-1.0975e-05,-59.246,2.7743
21219,23.631,4.1818,0.05,7.6924e-07,7.6871,5.9068e-07,4.4382,1.55e-12,2.0336e-05,-5.9068e-07,-4.4382,2.7588
21220,23.631,4.4545,0,1.8825e-05,188.12,1.6223e-05,136.38,-1.8873e-06,0.30695,-1.2349e-05,-78.296,2.7587
21221,23.723,4.3636,0,1.8263e-05,182.5,1.652e-05,145.62,-2.8348e-06,0.19881,-1.0737e-05,-59.176,2.7742
21222,23.631,4.3636,0.05,7.6814e-07,7.6761,5.8984e-07,4.4318,2.4072e-12,2.0205e-05,-5.8984e-07,-4.4318,2.7588
21223,23.631,4.6364,0,1.7984e-05,179.71,1.5332e-05,127.57,-1.6065e-06,0.29715,-1.2029e-05,-78.016,2.7586
21224,23.723,4.5455,0,1.747e-05,174.58,1.5697e-05,137.43,-2.5689e-06,0.18796,-1.0455e-05,-59.067,2.7741
21225,23.631,4.5455,0.05,7.6667e-07,7.6614,5.8871e-07,4.4233,1.9287e-12,1.6187e-05,-5.8871e-07,-4.4233,2.7587
21226,23.631,4.8182,0,1.7015e-05,170.03,1.4302e-05,117.4,-1.285e-06,0.28405,-1.1654e-05,-77.628,2.7585
21227,23.723,4.7273,0,1.6551e-05,165.4,1.4741e-05,127.93,-2.262e-06,0.17401,-1.0124e-05,-58.9,2.774
21228,23.631,4.7273,0.05,7.6469e-07,7.6416,5.8718e-07,4.4119,1.8105e-12,1.9161e-05,-5.8719e-07,-4.4119,2.7585
21229,23.631,5,0,1.5906e-05,158.95,1.3118e-05,105.74,-9.195e-07,0.26647,-1.1214e-05,-77.085,2.7584
21230,23.723,4.9091,0,1.5495e-05,154.84,1.3638e-05,116.98,-1.9108e-06,0.15531,-9.737e-06,-58.648,2.7739
21231,23.631,4.9091,0.05,7.6197e-07,7.6145,5.851e-07,4.3962,1.742e-12,1.8373e-05,-5.851e-07,-4.3962,2.7584
21232,23.631,5.1818,0,1.4642e-05,146.32,1.1758e-05,92.395,-5.0687e-07,0.23933,-1.0696e-05,-76.321,2.7583
21233,23.723,5.0909,0,1.4284e-05,142.74,1.2368e-05,104.41,-1.5107e-06,0.13083,-9.2829e-06,-58.267,2.7737
21234,23.631,5.0909,0.05,7.5818e-07,7.5765,5.8219e-07,4.3743,1.5658e-12,1.4039e-05,-5.8219e-07,-4.3743,2.7583
21235,23.631,5.3636,0,1.3208e-05,131.99,1.0201e-05,77.174,-4.3545e-08,0.20437,-1.0084e-05,-75.236,2.7581
21236,23.723,5.2727,0,1.2897e-05,128.88,1.0905e-05,89.966,-1.0568e-06,0.08979,-8.7469e-06,-57.691,2.7736
21237,23.631,5.2727,0.05,7.5271e-07,7.5219,5.7799e-07,4.3428,1.2592e-12,1.4497e-05,-5.7799e-07,-4.3428,2.7582
21238,23.631,5.5455,0,1.161e-05,116.02,8.4314e-06,59.94,4.6705e-07,0.099077,-9.3661e-06,-73.783,2.758
21239,23.723,5.4545,0,1.1309e-05,113.01,9.2137e-06,73.343,-5.4136e-07,0.047015,-8.1081e-06,-56.807,2.7735
21240,23.631,5.4545,0.05,7.4362e-07,7.4311,5.7101e-07,4.2903,9.4602e-13,1.1512e-05,-5.7101e-07,-4.2903,2.758
21241,23.631,5.7273,0,1.0033e-05,100.26,6.5758e-06,41.71,1.0172e-06,-0.054827,-8.6486e-06,-72.68,2.7578
21242,23.723,5.6364,0,9.5133e-06,95.068,7.2625e-06,54.173,3.0785e-08,-0.16356,-7.3474e-06,-55.6,2.7733
21243,23.631,5.6364,0.05,7.2018e-07,7.1968,5.5301e-07,4.1551,7.9067e-13,1.0381e-05,-5.5301e-07,-4.1551,2.7579
21244,23.723,5.8182,0,7.7611e-06,77.557,5.1994e-06,33.683,6.75e-07,-0.31084,-6.6124e-06,-55.066,2.7732
21245,23.631,5.8182,0.05,5.6905e-07,5.6866,4.3696e-07,3.2832,3.3154e-13,4.8912e-06,-4.3696e-07,-3.2832,2.7577
21246,23.631,5.9091,0,8.2769e-06,82.711,4.5007e-06,22.138,1.5733e-06,0.14221,-7.6753e-06,-69.348,2.7577
21247,23.815,0.27273,0,7.1951e-06,71.902,5.7996e-06,45.497,-3.0708e-07,-0.38667,-5.2292e-06,-37.369,2.7887
21248,23.815,0.18182,0.05,6.9312e-07,6.9264,5.3223e-07,3.999,8.1857e-13,1.1126e-05,-5.3223e-07,-3.999,2.7886
21249,23.815,0.090909,0,4.9017e-06,48.983,3.292e-06,21.452,4.2699e-07,-0.074323,-4.1691e-06,-34.608,2.7885
21250,23.908,0.18182,0,4.8653e-06,48.619,4.1759e-06,34.918,-4.7657e-07,-0.039016,-3.2137e-06,-20.605,2.804
21251,23.815,0.45455,0,9.2991e-06,92.927,8.0255e-06,67.43,-9.6943e-07,-0.15402,-6.0783e-06,-38.54,2.7888
21252,23.815,0.36364,0.05,7.8597e-07,7.8542,6.0352e-07,4.5346,-5.1214e-13,-2.5728e-06,-6.0352e-07,-4.5346,2.7887
21253,23.908,0.36364,0,7.3613e-06,73.562,6.753e-06,60.425,-1.2679e-06,0.15877,-4.157e-06,-21.549,2.8042
21254,23.815,0.63636,0,1.1111e-05,111.03,9.9095e-06,86.069,-1.5464e-06,-0.0054147,-6.7706e-06,-39.258,2.789
21255,23.815,0.54545,0.05,7.9564e-07,7.9509,6.1095e-07,4.5904,-1.1708e-12,-9.474e-06,-6.1095e-07,-4.5904,2.7889
21256,23.908,0.54545,0,9.4128e-06,94.063,8.8403e-06,81.172,-1.9161e-06,0.35284,-4.9015e-06,-22.078,2.8043
21257,23.815,0.81818,0,1.266e-05,126.51,1.1509e-05,101.94,-2.0519e-06,0.04654,-7.337e-06,-39.664,2.7891
21258,23.815,0.72727,0.05,7.9635e-07,7.958,6.115e-07,4.5946,-8.4682e-13,-7.3484e-06,-6.115e-07,-4.5946,2.789
21259,23.908,0.72727,0,1.114e-05,111.32,1.0589e-05,98.556,-2.4791e-06,0.36551,-5.506e-06,-22.377,2.8044
21260,23.815,1,0,1.3996e-05,139.87,1.2884e-05,115.63,-2.4928e-06,0.088515,-7.8113e-06,-39.873,2.7892
21261,23.815,0.90909,0.05,7.9569e-07,7.9514,6.1099e-07,4.5908,-5.5369e-13,-3.074e-06,-6.1099e-07,-4.5907,2.7891
21262,23.908,0.90909,0,1.2617e-05,126.08,1.2083e-05,113.44,-2.9636e-06,0.38888,-6.0125e-06,-22.519,2.8046
21263,23.815,1.1818,0,1.5155e-05,151.45,1.4074e-05,127.49,-2.8782e-06,0.11748,-8.214e-06,-39.974,2.7893
21264,23.815,1.0909,0.05,7.9421e-07,7.9367,6.0986e-07,4.5822,-3.0131e-13,-1.8618e-06,-6.0986e-07,-4.5822,2.7893
21265,23.908,1.0909,0,1.3893e-05,138.83,1.3372e-05,126.31,-3.3854e-06,0.39918,-6.4441e-06,-22.583,2.8047
21266,23.815,1.3636,0,1.6161e-05,161.5,1.5103e-05,137.77,-3.2143e-06,0.14003,-8.5582e-06,-40.012,2.7895
21267,23.815,1.2727,0.05,7.924e-07,7.9185,6.0846e-07,4.5717,-4.1739e-13,-5.2925e-06,-6.0846e-07,-4.5717,2.7894
21268,23.908,1.2727,0,1.5e-05,149.89,1.4489e-05,137.47,-3.7524e-06,0.40732,-6.8145e-06,-22.6,2.8048
21269,23.815,1.5455,0,1.703e-05,170.18,1.5992e-05,146.66,-3.506e-06,0.15766,-8.8523e-06,-40.012,2.7896
21270,23.815,1.4545,0.05,7.9046e-07,7.8992,6.0698e-07,4.5606,-9.1451e-13,-5.8664e-06,-6.0698e-07,-4.5606,2.7895
21271,23.908,1.4545,0,1.5958e-05,159.47,1.5455e-05,147.13,-4.0712e-06,0.41282,-7.133e-06,-22.593,2.8049
21272,23.815,1.7273,0,1.7775e-05,177.63,1.6754e-05,154.28,-3.7569e-06,0.17174,-9.1024e-06,-39.992,2.7896
21273,23.815,1.6364,0.05,7.8856e-07,7.8801,6.0551e-07,4.5496,-9.6606e-13,-2.4983e-06,-6.0551e-07,-4.5496,2.7896
21274,23.908,1.6364,0,1.6783e-05,167.71,1.6287e-05,155.45,-4.3463e-06,0.41693,-7.4058e-06,-22.571,2.805
21275,23.815,1.9091,0,1.8406e-05,183.93,1.7398e-05,160.73,-3.9698e-06,0.18301,-9.3127e-06,-39.962,2.7897
21276,23.815,1.8182,0.05,7.8677e-07,7.8623,6.0414e-07,4.5393,-1.0067e-12,-6.4547e-06,-6.0414e-07,-4.5393,2.7897
21277,23.908,1.8182,0,1.7486e-05,174.74,1.6996e-05,162.54,-4.5812e-06,0.41999,-7.6373e-06,-22.543,2.8051
21278,23.815,2.0909,0,1.893e-05,189.17,1.7932e-05,166.08,-4.1468e-06,0.19196,-9.4865e-06,-39.928,2.7898
21279,23.815,2,0.05,7.8517e-07,7.8463,6.0291e-07,4.5301,-5.6826e-13,-4.6126e-06,-6.0291e-07,-4.53,2.7897
21280,23.908,2,0,1.8076e-05,180.64,1.7591e-05,168.5,-4.7785e-06,0.4223,-7.831e-06,-22.513,2.8052
21281,23.815,2.2727,0,1.9352e-05,193.39,1.8362e-05,170.4,-4.2896e-06,0.19894,-9.6259e-06,-39.896,2.7898
21282,23.815,2.1818,0.05,7.8379e-07,7.8325,6.0185e-07,4.5221,-5.6981e-13,-8.8156e-07,-6.0185e-07,-4.5221,2.7898
21283,23.908,2.1818,0,1.856e-05,185.47,1.8078e-05,173.37,-4.9403e-06,0.42403,-7.9893e-06,-22.485,2.8052
21284,23.815,2.4545,0,1.9677e-05,196.63,1.8693e-05,173.71,-4.3994e-06,0.20417,-9.7328e-06,-39.868,2.7899
21285,23.815,2.3636,0.05,7.8265e-07,7.8211,6.0098e-07,4.5155,-1.0494e-13,3.0192e-06,-6.0098e-07,-4.5155,2.7899
21286,23.908,2.3636,0,1.8941e-05,189.28,1.8462e-05,177.22,-5.0681e-06,0.42531,-8.1139e-06,-22.46,2.8053
21287,23.815,2.6364,0,1.9906e-05,198.93,1.8927e-05,176.06,-4.4773e-06,0.20781,-9.8083e-06,-39.847,2.7899
21288,23.815,2.5455,0.05,7.8179e-07,7.8125,6.0032e-07,4.5105,3.7672e-13,5.121e-06,-6.0032e-07,-4.5105,2.7899
21289,23.908,2.5455,0,1.9224e-05,192.11,1.8747e-05,180.08,-5.163e-06,0.42621,-8.2063e-06,-22.44,2.8053
21290,23.815,2.8182,0,2.0043e-05,200.3,1.9067e-05,177.46,-4.5238e-06,0.20995,-9.8533e-06,-39.834,2.7899
21291,23.815,2.7273,0.05,7.8121e-07,7.8067,5.9987e-07,4.5072,1.7661e-13,5.3425e-06,-5.9987e-07,-4.5072,2.7899
21292,23.908,2.7273,0,1.9412e-05,193.98,1.8936e-05,181.97,-5.2258e-06,0.42678,-8.2675e-06,-22.427,2.8053
21293,23.815,3,0,2.0089e-05,200.75,1.9113e-05,177.93,-4.5392e-06,0.21066,-9.8683e-06,-39.83,2.7899
21294,23.815,2.9091,0.05,7.8091e-07,7.8037,5.9964e-07,4.5055,2.0907e-13,5.5841e-06,-5.9964e-07,-4.5055,2.7899
21295,23.908,2.9091,0,1.9505e-05,194.91,1.903e-05,182.91,-5.2571e-06,0.42706,-8.2979e-06,-22.42,2.8054
21296,23.815,3.1818,0,2.0043e-05,200.3,1.9067e-05,177.46,-4.5238e-06,0.20995,-9.8533e-06,-39.834,2.7899
21297,23.815,3.0909,0.05,7.8091e-07,7.8037,5.9964e-07,4.5055,4.7338e-13,9.6767e-06,-5.9964e-07,-4.5055,2.7899
21298,23.908,3.0909,0,1.9505e-05,194.91,1.903e-05,182.91,-5.2571e-06,0.42706,-8.2979e-06,-22.42,2.8054
21299,23.815,3.3636,0,1.9906e-05,198.93,1.8927e-05,176.06,-4.4773e-06,0.20781,-9.8083e-06,-39.847,2.7899
21300,23.815,3.2727,0.05,7.8121e-07,7.8067,5.9987e-07,4.5072,9.6063e-13,1.373e-05,-5.9987e-07,-4.5072,2.7899
21301,23.908,3.2727,0,1.9412e-05,193.98,1.8936e-05,181.97,-5.2258e-06,0.42678,-8.2675e-06,-22.427,2.8053
21302,23.815,3.5455,0,1.9677e-05,196.63,1.8693e-05,173.71,-4.3994e-06,0.20417,-9.7328e-06,-39.868,2.7899
21303,23.815,3.4545,0.05,7.8179e-07,7.8125,6.0032e-07,4.5105,1.2118e-12,1.5807e-05,-6.0032e-07,-4.5105,2.7899
21304,23.908,3.4545,0,1.9224e-05,192.11,1.8747e-05,180.08,-5.163e-06,0.42621,-8.2063e-06,-22.44,2.8053
21305,23.815,3.7273,0,1.9352e-05,193.39,1.8362e-05,170.4,-4.2896e-06,0.19894,-9.6259e-06,-39.896,2.7898
21306,23.815,3.6364,0.05,7.8265e-07,7.8211,6.0098e-07,4.5155,1.6883e-12,1.79e-05,-6.0098e-07,-4.5155,2.7899
21307,23.908,3.6364,0,1.8941e-05,189.28,1.8462e-05,177.22,-5.0681e-06,0.42531,-8.1139e-06,-22.46,2.8053
21308,23.815,3.9091,0,1.893e-05,189.17,1.7932e-05,166.08,-4.1468e-06,0.19196,-9.4865e-06,-39.928,2.7898
21309,23.815,3.8182,0.05,7.8379e-07,7.8325,6.0185e-07,4.5221,1.9407e-12,2.1877e-05,-6.0185e-07,-4.5221,2.7898
21310,23.908,3.8182,0,1.856e-05,185.47,1.8078e-05,173.37,-4.9403e-06,0.42403,-7.9893e-06,-22.485,2.8052
21311,23.815,4.0909,0,1.8406e-05,183.93,1.7398e-05,160.73,-3.9698e-06,0.18301,-9.3127e-06,-39.962,2.7897
21312,23.815,4,0.05,7.8517e-07,7.8463,6.0291e-07,4.5301,1.9356e-12,2.1882e-05,-6.0291e-07,-4.53,2.7897
21313,23.908,4,0,1.8076e-05,180.64,1.7591e-05,168.5,-4.7785e-06,0.4223,-7.831e-06,-22.513,2.8052
21314,23.815,4.2727,0,1.7775e-05,177.63,1.6754e-05,154.28,-3.7569e-06,0.17175,-9.1024e-06,-39.992,2.7896
21315,23.815,4.1818,0.05,7.8677e-07,7.8623,6.0414e-07,4.5393,1.9195e-12,2.1851e-05,-6.0414e-07,-4.5393,2.7897
21316,23.908,4.1818,0,1.7486e-05,174.74,1.6996e-05,162.54,-4.5812e-06,0.41999,-7.6373e-06,-22.543,2.8051
21317,23.815,4.4545,0,1.703e-05,170.18,1.5992e-05,146.66,-3.506e-06,0.15767,-8.8523e-06,-40.012,2.7896
21318,23.815,4.3636,0.05,7.8856e-07,7.8801,6.0551e-07,4.5496,2.1298e-12,2.528e-05,-6.0552e-07,-4.5496,2.7896
21319,23.908,4.3636,0,1.6783e-05,167.71,1.6287e-05,155.45,-4.3463e-06,0.41693,-7.4058e-06,-22.571,2.805
21320,23.815,4.6364,0,1.6161e-05,161.5,1.5103e-05,137.77,-3.2143e-06,0.14004,-8.5582e-06,-40.012,2.7895
21321,23.815,4.5455,0.05,7.9046e-07,7.8992,6.0698e-07,4.5606,2.2979e-12,2.3138e-05,-6.0698e-07,-4.5606,2.7895
21322,23.908,4.5455,0,1.5958e-05,159.47,1.5455e-05,147.13,-4.0712e-06,0.41282,-7.133e-06,-22.593,2.8049
21323,23.815,4.8182,0,1.5155e-05,151.45,1.4074e-05,127.49,-2.8782e-06,0.11748,-8.214e-06,-39.974,2.7893
21324,23.815,4.7273,0.05,7.924e-07,7.9185,6.0846e-07,4.5717,1.8041e-12,2.4285e-05,-6.0846e-07,-4.5717,2.7894
21325,23.908,4.7273,0,1.5e-05,149.89,1.4489e-05,137.47,-3.7524e-06,0.40732,-6.8145e-06,-22.6,2.8048
21326,23.815,5,0,1.3996e-05,139.87,1.2884e-05,115.63,-2.4928e-06,0.088513,-7.8113e-06,-39.873,2.7892
21327,23.815,4.9091,0.05,7.9421e-07,7.9367,6.0986e-07,4.5822,2.0085e-12,2.1733e-05,-6.0986e-07,-4.5822,2.7893
21328,23.908,4.9091,0,1.3893e-05,138.83,1.3372e-05,126.31,-3.3854e-06,0.39918,-6.4441e-06,-22.583,2.8047
21329,23.815,5.1818,0,1.266e-05,126.51,1.1509e-05,101.94,-2.0519e-06,0.046539,-7.337e-06,-39.664,2.7891
21330,23.815,5.0909,0.05,7.9569e-07,7.9514,6.1099e-07,4.5907,1.6611e-12,1.8505e-05,-6.1099e-07,-4.5907,2.7891
21331,23.908,5.0909,0,1.2617e-05,126.08,1.2083e-05,113.44,-2.9636e-06,0.38889,-6.0125e-06,-22.519,2.8046
21332,23.815,5.3636,0,1.1111e-05,111.03,9.9095e-06,86.07,-1.5464e-06,-0.0054161,-6.7706e-06,-39.258,2.789
21333,23.815,5.2727,0.05,7.9635e-07,7.958,6.115e-07,4.5946,1.4811e-12,1.7706e-05,-6.115e-07,-4.5945,2.789
21334,23.908,5.2727,0,1.114e-05,111.32,1.0589e-05,98.557,-2.4791e-06,0.36551,-5.506e-06,-22.377,2.8044
21335,23.815,5.5455,0,9.2991e-06,92.927,8.0255e-06,67.43,-9.6943e-07,-0.15402,-6.0783e-06,-38.54,2.7888
21336,23.815,5.4545,0.05,7.9564e-07,7.9509,6.1095e-07,4.5904,1.1926e-12,1.3619e-05,-6.1095e-07,-4.5904,2.7889
21337,23.908,5.4545,0,9.4128e-06,94.063,8.8403e-06,81.172,-1.9161e-06,0.35284,-4.9015e-06,-22.078,2.8043
21338,23.815,5.7273,0,7.1951e-06,71.902,5.7996e-06,45.497,-3.0708e-07,-0.38667,-5.2292e-06,-37.369,2.7887
21339,23.815,5.6364,0.05,7.8597e-07,7.8542,6.0352e-07,4.5346,9.5563e-13,1.334e-05,-6.0352e-07,-4.5346,2.7887
21340,23.908,5.6364,0,7.3613e-06,73.562,6.753e-06,60.425,-1.2679e-06,0.15877,-4.157e-06,-21.549,2.8042
21341,23.815,5.8182,0.05,6.9312e-07,6.9264,5.3223e-07,3.999,7.28e-13,1.1147e-05,-5.3223e-07,-3.999,2.7886
21342,23.908,5.8182,0,4.8653e-06,48.619,4.1759e-06,34.918,-4.7657e-07,-0.039019,-3.2137e-06,-20.605,2.804
21343,23.815,5.9091,0,4.9017e-06,48.983,3.292e-06,21.452,4.2699e-07,-0.074326,-4.1691e-06,-34.608,2.7885
21344,23.815,5.7273,0.1,7.1951e-06,71.902,5.2292e-06,37.369,3.0708e-07,0.38667,-5.7996e-06,-45.497,2.7887
21345,23.723,5.8182,0.1,7.7611e-06,77.557,6.6124e-06,55.066,-6.75e-07,0.31084,-5.1994e-06,-33.683,2.7732
21346,23.815,5.9091,0.1,4.9017e-06,48.983,4.1691e-06,34.608,-4.2699e-07,0.074326,-3.292e-06,-21.452,2.7885
21347,23.908,5.8182,0.1,4.8653e-06,48.619,3.2137e-06,20.605,4.7657e-07,0.039019,-4.1759e-06,-34.918,2.804
21348,23.815,5.5455,0.1,9.2991e-06,92.927,6.0783e-06,38.54,9.6943e-07,0.15402,-8.0255e-06,-67.43,2.7888
21349,23.723,5.6364,0.1,9.5133e-06,95.068,7.3474e-06,55.6,-3.0786e-08,0.16356,-7.2625e-06,-54.173,2.7733
21350,23.908,5.6364,0.1,7.3613e-06,73.562,4.157e-06,21.549,1.2679e-06,-0.15877,-6.753e-06,-60.425,2.8042
21351,23.815,5.3636,0.1,1.1111e-05,111.03,6.7706e-06,39.258,1.5464e-06,0.0054155,-9.9095e-06,-86.07,2.789
21352,23.723,5.4545,0.1,1.1309e-05,113.01,8.1081e-06,56.807,5.4136e-07,-0.047016,-9.2137e-06,-73.343,2.7735
21353,23.908,5.4545,0.1,9.4128e-06,94.063,4.9015e-06,22.078,1.9161e-06,-0.35284,-8.8403e-06,-81.172,2.8043
21354,23.815,5.1818,0.1,1.266e-05,126.51,7.337e-06,39.664,2.0519e-06,-0.04654,-1.1509e-05,-101.94,2.7891
21355,23.723,5.2727,0.1,1.2897e-05,128.88,8.7469e-06,57.691,1.0568e-06,-0.089789,-1.0905e-05,-89.966,2.7736
21356,23.908,5.2727,0.1,1.114e-05,111.32,5.506e-06,22.377,2.4791e-06,-0.36551,-1.0589e-05,-98.556,2.8044
21357,23.815,5,0.1,1.3996e-05,139.87,7.8113e-06,39.873,2.4928e-06,-0.088514,-1.2884e-05,-115.63,2.7892
21358,23.723,5.0909,0.1,1.4284e-05,142.74,9.2829e-06,58.267,1.5107e-06,-0.13083,-1.2368e-05,-104.41,2.7737
21359,23.908,5.0909,0.1,1.2617e-05,126.08,6.0125e-06,22.519,2.9636e-06,-0.38888,-1.2083e-05,-113.44,2.8046
21360,23.815,4.8182,0.1,1.5155e-05,151.45,8.214e-06,39.974,2.8782e-06,-0.11748,-1.4074e-05,-127.49,2.7893
21361,23.723,4.9091,0.1,1.5495e-05,154.84,9.737e-06,58.648,1.9108e-06,-0.15531,-1.3638e-05,-116.98,2.7739
21362,23.908,4.9091,0.1,1.3893e-05,138.83,6.4441e-06,22.583,3.3854e-06,-0.39918,-1.3372e-05,-126.31,2.8047
21363,23.815,4.6364,0.1,1.6161e-05,161.5,8.5582e-06,40.012,3.2143e-06,-0.14004,-1.5103e-05,-137.77,2.7895
21364,23.723,4.7273,0.1,1.6551e-05,165.4,1.0124e-05,58.9,2.262e-06,-0.17401,-1.4741e-05,-127.93,2.774
21365,23.908,4.7273,0.1,1.5e-05,149.89,6.8145e-06,22.6,3.7524e-06,-0.40732,-1.4489e-05,-137.47,2.8048
21366,23.815,4.4545,0.1,1.703e-05,170.18,8.8523e-06,40.012,3.506e-06,-0.15767,-1.5992e-05,-146.66,2.7896
21367,23.723,4.5455,0.1,1.747e-05,174.58,1.0455e-05,59.067,2.5688e-06,-0.18796,-1.5697e-05,-137.43,2.7741
21368,23.908,4.5455,0.1,1.5958e-05,159.47,7.133e-06,22.593,4.0712e-06,-0.41282,-1.5455e-05,-147.13,2.8049
21369,23.815,4.2727,0.1,1.7775e-05,177.63,9.1024e-06,39.992,3.7569e-06,-0.17174,-1.6754e-05,-154.28,2.7896
21370,23.723,4.3636,0.1,1.8263e-05,182.5,1.0737e-05,59.176,2.8348e-06,-0.19881,-1.652e-05,-145.62,2.7742
21371,23.908,4.3636,0.1,1.6783e-05,167.71,7.4058e-06,22.571,4.3463e-06,-0.41693,-1.6287e-05,-155.45,2.805
21372,23.815,4.0909,0.1,1.8406e-05,183.93,9.3127e-06,39.962,3.9698e-06,-0.18301,-1.7398e-05,-160.73,2.7897
21373,23.723,4.1818,0.1,1.894e-05,189.27,1.0975e-05,59.246,3.0626e-06,-0.20731,-1.7222e-05,-152.62,2.7743
21374,23.908,4.1818,0.1,1.7486e-05,174.74,7.6374e-06,22.543,4.5812e-06,-0.41999,-1.6996e-05,-162.54,2.8051
21375,23.815,3.9091,0.1,1.893e-05,189.17,9.4865e-06,39.928,4.1468e-06,-0.19196,-1.7932e-05,-166.08,2.7898
21376,23.723,4,0.1,1.951e-05,194.96,1.1174e-05,59.291,3.2544e-06,-0.21399,-1.7811e-05,-158.49,2.7743
21377,23.908,4,0.1,1.8076e-05,180.64,7.831e-06,22.513,4.7785e-06,-0.42229,-1.7591e-05,-168.5,2.8052
21378,23.815,3.7273,0.1,1.9352e-05,193.39,9.6259e-06,39.896,4.2896e-06,-0.19894,-1.8362e-05,-170.4,2.7898
21379,23.723,3.8182,0.1,1.9976e-05,199.62,1.1336e-05,59.318,3.4119e-06,-0.21917,-1.8293e-05,-163.3,2.7744
21380,23.908,3.8182,0.1,1.856e-05,185.47,7.9893e-06,22.485,4.9403e-06,-0.42403,-1.8078e-05,-173.37,2.8052
21381,23.815,3.5455,0.1,1.9677e-05,196.63,9.7328e-06,39.868,4.3994e-06,-0.20417,-1.8693e-05,-173.71,2.7899
21382,23.723,3.6364,0.1,2.0345e-05,203.31,1.1463e-05,59.333,3.5364e-06,-0.22311,-1.8674e-05,-167.1,2.7745
21383,23.908,3.6364,0.1,1.8941e-05,189.28,8.1139e-06,22.46,5.0681e-06,-0.42531,-1.8462e-05,-177.22,2.8053
21384,23.815,3.3636,0.1,1.9906e-05,198.93,9.8083e-06,39.847,4.4773e-06,-0.20781,-1.8927e-05,-176.06,2.7899
21385,23.723,3.4545,0.1,2.0618e-05,206.04,1.1557e-05,59.342,3.629e-06,-0.22594,-1.8956e-05,-169.92,2.7745
21386,23.908,3.4545,0.1,1.9224e-05,192.11,8.2063e-06,22.44,5.163e-06,-0.42621,-1.8747e-05,-180.08,2.8053
21387,23.815,3.1818,0.1,2.0043e-05,200.3,9.8533e-06,39.834,4.5238e-06,-0.20996,-1.9067e-05,-177.46,2.7899
21388,23.723,3.2727,0.1,2.08e-05,207.85,1.1619e-05,59.346,3.6904e-06,-0.22778,-1.9143e-05,-171.79,2.7745
21389,23.908,3.2727,0.1,1.9412e-05,193.98,8.2675e-06,22.427,5.2258e-06,-0.42678,-1.8936e-05,-181.97,2.8053
21390,23.815,3,0.1,2.0089e-05,200.75,9.8683e-06,39.83,4.5392e-06,-0.21067,-1.9113e-05,-177.93,2.7899
21391,23.723,3.0909,0.1,2.089e-05,208.75,1.165e-05,59.348,3.721e-06,-0.22869,-1.9236e-05,-172.72,2.7745
21392,23.908,3.0909,0.1,1.9505e-05,194.91,8.2979e-06,22.42,5.2571e-06,-0.42706,-1.903e-05,-182.91,2.8054
21393,23.815,2.8182,0.1,2.0043e-05,200.3,9.8533e-06,39.834,4.5238e-06,-0.20996,-1.9067e-05,-177.46,2.7899
21394,23.723,2.9091,0.1,2.089e-05,208.76,1.165e-05,59.348,3.721e-06,-0.22869,-1.9236e-05,-172.72,2.7745
21395,23.908,2.9091,0.1,1.9505e-05,194.91,8.2979e-06,22.42,5.2571e-06,-0.42706,-1.903e-05,-182.91,2.8054
21396,23.815,2.6364,0.1,1.9906e-05,198.93,9.8083e-06,39.847,4.4773e-06,-0.20781,-1.8927e-05,-176.06,2.7899
21397,23.723,2.7273,0.1,2.08e-05,207.85,1.1619e-05,59.346,3.6904e-06,-0.22778,-1.9143e-05,-171.79,2.7745
21398,23.908,2.7273,0.1,1.9412e-05,193.98,8.2675e-06,22.427,5.2258e-06,-0.42678,-1.8936e-05,-181.97,2.8053
21399,23.815,2.4545,0.1,1.9677e-05,196.63,9.7328e-06,39.868,4.3994e-06,-0.20417,-1.8693e-05,-173.71,2.7899
21400,23.723,2.5455,0.1,2.0618e-05,206.04,1.1557e-05,59.342,3.629e-06,-0.22594,-1.8956e-05,-169.92,2.7745
21401,23.908,2.5455,0.1,1.9224e-05,192.11,8.2063e-06,22.44,5.163e-06,-0.42621,-1.8747e-05,-180.08,2.8053
21402,23.815,2.2727,0.1,1.9352e-05,193.39,9.6259e-06,39.896,4.2896e-06,-0.19894,-1.8362e-05,-170.4,2.7898
21403,23.723,2.3636,0.1,2.0345e-05,203.31,1.1463e-05,59.333,3.5364e-06,-0.22311,-1.8674e-05,-167.1,2.7745
21404,23.908,2.3636,0.1,1.8941e-05,189.28,8.1139e-06,22.46,5.0681e-06,-0.42531,-1.8462e-05,-177.22,2.8053
21405,23.815,2.0909,0.1,1.893e-05,189.17,9.4865e-06,39.928,4.1468e-06,-0.19196,-1.7932e-05,-166.08,2.7898
21406,23.723,2.1818,0.1,1.9976e-05,199.62,1.1336e-05,59.318,3.4119e-06,-0.21917,-1.8293e-05,-163.3,2.7744
21407,23.908,2.1818,0.1,1.856e-05,185.47,7.9893e-06,22.485,4.9403e-06,-0.42403,-1.8078e-05,-173.37,2.8052
21408,23.815,1.9091,0.1,1.8406e-05,183.93,9.3127e-06,39.962,3.9698e-06,-0.18301,-1.7398e-05,-160.73,2.7897
21409,23.723,2,0.1,1.951e-05,194.96,1.1174e-05,59.291,3.2544e-06,-0.21399,-1.7811e-05,-158.49,2.7743
21410,23.908,2,0.1,1.8076e-05,180.64,7.831e-06,22.513,4.7785e-06,-0.4223,-1.7591e-05,-168.5,2.8052
21411,23.815,1.7273,0.1,1.7775e-05,177.63,9.1024e-06,39.992,3.7569e-06,-0.17175,-1.6754e-05,-154.28,2.7896
21412,23.723,1.8182,0.1,1.894e-05,189.27,1.0975e-05,59.246,3.0626e-06,-0.20731,-1.7222e-05,-152.62,2.7743
21413,23.908,1.8182,0.1,1.7486e-05,174.74,7.6374e-06,22.543,4.5812e-06,-0.41999,-1.6996e-05,-162.54,2.8051
21414,23.815,1.5455,0.1,1.703e-05,170.18,8.8523e-06,40.012,3.506e-06,-0.15766,-1.5992e-05,-146.66,2.7896
21415,23.723,1.6364,0.1,1.8263e-05,182.5,1.0737e-05,59.176,2.8348e-06,-0.19881,-1.652e-05,-145.62,2.7742
21416,23.908,1.6364,0.1,1.6783e-05,167.71,7.4058e-06,22.571,4.3463e-06,-0.41693,-1.6287e-05,-155.45,2.805
21417,23.815,1.3636,0.1,1.6161e-05,161.5,8.5582e-06,40.012,3.2143e-06,-0.14003,-1.5103e-05,-137.77,2.7895
21418,23.723,1.4545,0.1,1.747e-05,174.58,1.0455e-05,59.067,2.5688e-06,-0.18796,-1.5697e-05,-137.43,2.7741
21419,23.908,1.4545,0.1,1.5958e-05,159.47,7.133e-06,22.593,4.0712e-06,-0.41282,-1.5455e-05,-147.13,2.8049
21420,23.815,1.1818,0.1,1.5155e-05,151.45,8.214e-06,39.974,2.8782e-06,-0.11748,-1.4074e-05,-127.49,2.7893
21421,23.723,1.2727,0.1,1.6551e-05,165.4,1.0124e-05,58.9,2.262e-06,-0.17401,-1.4741e-05,-127.93,2.774
21422,23.908,1.2727,0.1,1.5e-05,149.89,6.8145e-06,22.6,3.7524e-06,-0.40732,-1.4489e-05,-137.47,2.8048
21423,23.815,1,0.1,1.3996e-05,139.87,7.8113e-06,39.873,2.4928e-06,-0.088514,-1.2884e-05,-115.63,2.7892
21424,23.723,1.0909,0.1,1.5495e-05,154.84,9.737e-06,58.648,1.9108e-06,-0.15531,-1.3638e-05,-116.98,2.7739
21425,23.908,1.0909,0.1,1.3893e-05,138.83,6.4441e-06,22.583,3.3854e-06,-0.39918,-1.3372e-05,-126.31,2.8047
21426,23.815,0.81818,0.1,1.266e-05,126.51,7.337e-06,39.664,2.0519e-06,-0.04654,-1.1509e-05,-101.94,2.7891
21427,23.723,0.90909,0.1,1.4284e-05,142.74,9.2829e-06,58.267,1.5107e-06,-0.13083,-1.2368e-05,-104.41,2.7737
21428,23.908,0.90909,0.1,1.2617e-05,126.08,6.0125e-06,22.519,2.9636e-06,-0.38888,-1.2083e-05,-113.44,2.8046
21429,23.815,0.63636,0.1,1.1111e-05,111.03,6.7706e-06,39.258,1.5464e-06,0.0054136,-9.9095e-06,-86.07,2.789
21430,23.723,0.72727,0.1,1.2897e-05,128.88,8.7469e-06,57.691,1.0568e-06,-0.089792,-1.0905e-05,-89.966,2.7736
21431,23.908,0.72727,0.1,1.114e-05,111.32,5.506e-06,22.377,2.4791e-06,-0.36551,-1.0589e-05,-98.556,2.8044
21432,23.815,0.45455,0.1,9.2991e-06,92.927,6.0783e-06,38.54,9.6943e-07,0.15402,-8.0255e-06,-67.43,2.7888
21433,23.723,0.54545,0.1,1.1309e-05,113.01,8.1081e-06,56.807,5.4136e-07,-0.047018,-9.2137e-06,-73.343,2.7735
21434,23.908,0.54545,0.1,9.4128e-06,94.063,4.9015e-06,22.078,1.9161e-06,-0.35284,-8.8403e-06,-81.172,2.8043
21435,23.815,0.27273,0.1,7.1951e-06,71.902,5.2292e-06,37.369,3.0708e-07,0.38667,-5.7996e-06,-45.497,2.7887
21436,23.723,0.36364,0.1,9.5133e-06,95.068,7.3474e-06,55.6,-3.0785e-08,0.16356,-7.2625e-06,-54.173,2.7733
21437,23.908,0.36364,0.1,7.3613e-06,73.562,4.157e-06,21.549,1.2679e-06,-0.15876,-6.753e-06,-60.425,2.8042
21438,23.723,0.18182,0.1,7.7611e-06,77.557,6.6124e-06,55.066,-6.75e-07,0.31084,-5.1994e-06,-33.683,2.7732
21439,23.908,0.18182,0.1,4.8653e-06,48.619,3.2137e-06,20.605,4.7657e-07,0.039016,-4.1759e-06,-34.918,2.804
21440,23.815,0.090909,0.1,4.9017e-06,48.983,4.1691e-06,34.608,-4.2699e-07,0.074326,-3.292e-06,-21.452,2.7885
21441,23.631,5.7273,0.1,1.0033e-05,100.26,8.6486e-06,72.68,-1.0172e-06,0.054827,-6.5758e-06,-41.71,2.7578
21442,23.538,5.8182,0.1,1.1251e-05,112.43,1.0304e-05,91.992,-1.924e-06,0.11551,-6.3819e-06,-33.38,2.7423
21443,23.631,5.9091,0.1,8.2769e-06,82.711,7.6753e-06,69.348,-1.5733e-06,-0.14221,-4.5007e-06,-22.138,2.7577
21444,23.631,5.5455,0.1,1.161e-05,116.02,9.3661e-06,73.783,-4.6705e-07,-0.099077,-8.4314e-06,-59.94,2.758
21445,23.538,5.6364,0.1,1.2363e-05,123.55,1.0774e-05,91.497,-1.3964e-06,0.05108,-7.9321e-06,-49.055,2.7425
21446,23.631,5.3636,0.1,1.3208e-05,131.99,1.0084e-05,75.236,4.3544e-08,-0.20437,-1.0201e-05,-77.174,2.7581
21447,23.538,5.4545,0.1,1.3844e-05,138.34,1.1487e-05,92.98,-9.0133e-07,-0.10136,-9.671e-06,-65.993,2.7426
21448,23.631,5.1818,0.1,1.4642e-05,146.32,1.0696e-05,76.321,5.0687e-07,-0.23933,-1.1758e-05,-92.395,2.7583
21449,23.538,5.2727,0.1,1.5252e-05,152.42,1.2137e-05,94.359,-4.3893e-07,-0.13465,-1.1265e-05,-81.475,2.7428
21450,23.631,5,0.1,1.5906e-05,158.95,1.1214e-05,77.085,9.195e-07,-0.26647,-1.3118e-05,-105.74,2.7584
21451,23.538,5.0909,0.1,1.6527e-05,165.15,1.2701e-05,95.425,-2.1363e-08,-0.16502,-1.268e-05,-95.278,2.7429
21452,23.631,4.8182,0.1,1.7015e-05,170.03,1.1654e-05,77.628,1.285e-06,-0.28405,-1.4302e-05,-117.4,2.7585
21453,23.538,4.9091,0.1,1.7661e-05,176.49,1.3184e-05,96.23,3.5268e-07,-0.18252,-1.3926e-05,-107.46,2.743
21454,23.631,4.6364,0.1,1.7984e-05,179.71,1.2029e-05,78.016,1.6065e-06,-0.29715,-1.5332e-05,-127.57,2.7586
21455,23.538,4.7273,0.1,1.8662e-05,186.49,1.3599e-05,96.835,6.8467e-07,-0.19559,-1.5016e-05,-118.16,2.7431
21456,23.631,4.4545,0.1,1.8825e-05,188.12,1.2349e-05,78.296,1.8873e-06,-0.30695,-1.6223e-05,-136.38,2.7587
21457,23.538,4.5455,0.1,1.9538e-05,195.24,1.3953e-05,97.291,9.7697e-07,-0.20505,-1.5965e-05,-127.5,2.7433
21458,23.631,4.2727,0.1,1.9549e-05,195.35,1.2619e-05,78.5,2.1298e-06,-0.31449,-1.6987e-05,-143.95,2.7588
21459,23.538,4.3636,0.1,2.0298e-05,202.84,1.4254e-05,97.636,1.2317e-06,-0.21225,-1.6784e-05,-135.58,2.7434
21460,23.631,4.0909,0.1,2.0163e-05,201.49,1.2846e-05,78.648,2.3363e-06,-0.32033,-1.7633e-05,-150.37,2.7589
21461,23.538,4.1818,0.1,2.0949e-05,209.35,1.4509e-05,97.897,1.4508e-06,-0.21778,-1.7485e-05,-142.49,2.7434
21462,23.631,3.9091,0.1,2.0674e-05,206.59,1.3033e-05,78.755,2.5083e-06,-0.32485,-1.817e-05,-155.7,2.759
21463,23.538,4,0.1,2.1498e-05,214.83,1.4721e-05,98.094,1.6359e-06,-0.22204,-1.8073e-05,-148.3,2.7435
21464,23.631,3.7273,0.1,2.1086e-05,210.71,1.3183e-05,78.831,2.6474e-06,-0.32829,-1.8603e-05,-160,2.759
21465,23.538,3.8182,0.1,2.1949e-05,219.34,1.4893e-05,98.241,1.7882e-06,-0.2253,-1.8555e-05,-153.08,2.7436
21466,23.631,3.5455,0.1,2.1403e-05,213.88,1.3298e-05,78.885,2.7546e-06,-0.33083,-1.8936e-05,-163.3,2.7591
21467,23.538,3.6364,0.1,2.2305e-05,222.9,1.5029e-05,98.348,1.9089e-06,-0.22775,-1.8936e-05,-156.84,2.7436
21468,23.631,3.3636,0.1,2.1627e-05,216.12,1.3378e-05,78.92,2.8306e-06,-0.33257,-1.9171e-05,-165.64,2.7591
21469,23.538,3.4545,0.1,2.2571e-05,225.55,1.5129e-05,98.423,1.9988e-06,-0.22949,-1.9218e-05,-159.65,2.7437
21470,23.631,3.1818,0.1,2.1762e-05,217.46,1.3427e-05,78.939,2.876e-06,-0.33359,-1.9311e-05,-167.04,2.7591
21471,23.538,3.2727,0.1,2.2746e-05,227.3,1.5195e-05,98.471,2.0583e-06,-0.23062,-1.9405e-05,-161.5,2.7437
21472,23.631,3,0.1,2.1806e-05,217.91,1.3443e-05,78.946,2.8911e-06,-0.33392,-1.9358e-05,-167.51,2.7591
21473,23.538,3.0909,0.1,2.2834e-05,228.18,1.5227e-05,98.494,2.088e-06,-0.23117,-1.9499e-05,-162.42,2.7437
21474,23.631,2.8182,0.1,2.1762e-05,217.46,1.3427e-05,78.939,2.876e-06,-0.33359,-1.9311e-05,-167.04,2.7591
21475,23.538,2.9091,0.1,2.2834e-05,228.18,1.5227e-05,98.494,2.088e-06,-0.23117,-1.9499e-05,-162.42,2.7437
21476,23.631,2.6364,0.1,2.1627e-05,216.12,1.3378e-05,78.92,2.8306e-06,-0.33257,-1.9171e-05,-165.64,2.7591
21477,23.538,2.7273,0.1,2.2746e-05,227.3,1.5195e-05,98.471,2.0583e-06,-0.23062,-1.9405e-05,-161.5,2.7437
21478,23.631,2.4545,0.1,2.1403e-05,213.88,1.3298e-05,78.885,2.7546e-06,-0.33083,-1.8936e-05,-163.3,2.7591
21479,23.538,2.5455,0.1,2.2571e-05,225.55,1.5129e-05,98.423,1.9988e-06,-0.22949,-1.9218e-05,-159.65,2.7437
21480,23.631,2.2727,0.1,2.1086e-05,210.71,1.3183e-05,78.831,2.6474e-06,-0.32829,-1.8603e-05,-160,2.759
21481,23.538,2.3636,0.1,2.2305e-05,222.9,1.5029e-05,98.348,1.9089e-06,-0.22775,-1.8936e-05,-156.84,2.7436
21482,23.631,2.0909,0.1,2.0674e-05,206.59,1.3033e-05,78.755,2.5083e-06,-0.32485,-1.817e-05,-155.7,2.759
21483,23.538,2.1818,0.1,2.1949e-05,219.34,1.4893e-05,98.241,1.7882e-06,-0.2253,-1.8555e-05,-153.08,2.7436
21484,23.631,1.9091,0.1,2.0163e-05,201.49,1.2846e-05,78.648,2.3363e-06,-0.32033,-1.7633e-05,-150.37,2.7589
21485,23.538,2,0.1,2.1498e-05,214.83,1.4721e-05,98.094,1.6359e-06,-0.22204,-1.8073e-05,-148.3,2.7435
21486,23.631,1.7273,0.1,1.9549e-05,195.35,1.2619e-05,78.5,2.1298e-06,-0.31449,-1.6987e-05,-143.95,2.7588
21487,23.538,1.8182,0.1,2.0949e-05,209.35,1.4509e-05,97.897,1.4508e-06,-0.21778,-1.7485e-05,-142.49,2.7434
21488,23.631,1.5455,0.1,1.8825e-05,188.12,1.2349e-05,78.296,1.8873e-06,-0.30695,-1.6223e-05,-136.38,2.7587
21489,23.538,1.6364,0.1,2.0298e-05,202.84,1.4254e-05,97.636,1.2317e-06,-0.21225,-1.6784e-05,-135.58,2.7434
21490,23.631,1.3636,0.1,1.7984e-05,179.71,1.2029e-05,78.016,1.6065e-06,-0.29715,-1.5332e-05,-127.57,2.7586
21491,23.538,1.4545,0.1,1.9538e-05,195.24,1.3953e-05,97.291,9.7697e-07,-0.20505,-1.5965e-05,-127.5,2.7433
21492,23.631,1.1818,0.1,1.7015e-05,170.03,1.1654e-05,77.628,1.285e-06,-0.28405,-1.4302e-05,-117.4,2.7585
21493,23.538,1.2727,0.1,1.8662e-05,186.49,1.3599e-05,96.835,6.8467e-07,-0.19559,-1.5016e-05,-118.16,2.7431
21494,23.631,1,0.1,1.5906e-05,158.95,1.1214e-05,77.085,9.195e-07,-0.26647,-1.3118e-05,-105.74,2.7584
21495,23.538,1.0909,0.1,1.7661e-05,176.49,1.3184e-05,96.23,3.5268e-07,-0.18252,-1.3926e-05,-107.46,2.743
21496,23.631,0.81818,0.1,1.4642e-05,146.32,1.0696e-05,76.321,5.0687e-07,-0.23933,-1.1758e-05,-92.395,2.7583
21497,23.538,0.90909,0.1,1.6527e-05,165.15,1.2701e-05,95.425,-2.1365e-08,-0.16502,-1.268e-05,-95.278,2.7429
21498,23.631,0.63636,0.1,1.3208e-05,131.99,1.0084e-05,75.236,4.3542e-08,-0.20437,-1.0201e-05,-77.174,2.7581
21499,23.538,0.72727,0.1,1.5252e-05,152.42,1.2137e-05,94.359,-4.3893e-07,-0.13466,-1.1265e-05,-81.475,2.7428
21500,23.631,0.45455,0.1,1.161e-05,116.02,9.3661e-06,73.783,-4.6705e-07,-0.099078,-8.4314e-06,-59.94,2.758
21501,23.538,0.54545,0.1,1.3844e-05,138.34,1.1487e-05,92.98,-9.0133e-07,-0.10137,-9.671e-06,-65.993,2.7426
21502,23.631,0.27273,0.1,1.0033e-05,100.26,8.6486e-06,72.68,-1.0172e-06,0.054829,-6.5758e-06,-41.71,2.7578
21503,23.538,0.36364,0.1,1.2363e-05,123.55,1.0774e-05,91.497,-1.3964e-06,0.051082,-7.9321e-06,-49.055,2.7425
21504,23.538,0.18182,0.1,1.1251e-05,112.43,1.0304e-05,91.992,-1.924e-06,0.11551,-6.3819e-06,-33.38,2.7423
21505,23.631,0.090909,0.1,8.2769e-06,82.711,7.6753e-06,69.348,-1.5733e-06,-0.14221,-4.5007e-06,-22.138,2.7577
21506,23.446,5.7273,0.1,1.3471e-05,134.62,1.2335e-05,110.1,-2.3027e-06,0.11527,-7.6445e-06,-40.021,2.727
21507,23.354,5.8182,0.1,1.5009e-05,149.98,1.4148e-05,130.29,-3.1789e-06,0.1005,-7.6801e-06,-33.72,2.7115
21508,23.446,5.9091,0.1,1.1914e-05,119.06,1.1368e-05,106.14,-2.7643e-06,-0.047373,-5.7621e-06,-22.572,2.7268
21509,23.446,5.5455,0.1,1.4602e-05,145.92,1.2871e-05,110.51,-1.8334e-06,0.028711,-9.1447e-06,-54.905,2.7271
21510,23.354,5.6364,0.1,1.57e-05,156.9,1.4405e-05,128.83,-2.7281e-06,0.091476,-8.854e-06,-45.936,2.7116
21511,23.446,5.3636,0.1,1.5932e-05,159.21,1.3531e-05,112.03,-1.386e-06,-0.048379,-1.0723e-05,-70.205,2.7273
21512,23.354,5.4545,0.1,1.688e-05,168.69,1.5015e-05,130.06,-2.2985e-06,-0.027444,-1.0352e-05,-60.539,2.7118
21513,23.446,5.1818,0.1,1.7199e-05,171.87,1.4137e-05,113.43,-9.6924e-07,-0.075975,-1.218e-05,-84.309,2.7274
21514,23.354,5.2727,0.1,1.8086e-05,180.74,1.5626e-05,131.53,-1.8875e-06,-0.054909,-1.1801e-05,-74.543,2.7119
21515,23.446,5,0.1,1.8353e-05,183.4,1.4669e-05,114.55,-5.9024e-07,-0.09655,-1.3484e-05,-96.972,2.7276
21516,23.354,5.0909,0.1,1.9223e-05,192.09,1.6182e-05,132.84,-1.5085e-06,-0.079968,-1.3131e-05,-87.404,2.7121
21517,23.446,4.8182,0.1,1.9384e-05,193.71,1.5128e-05,115.43,-2.497e-07,-0.1097,-1.4636e-05,-108.2,2.7277
21518,23.354,4.9091,0.1,2.026e-05,202.46,1.6673e-05,133.92,-1.1636e-06,-0.094456,-1.4323e-05,-98.972,2.7122
21519,23.446,4.6364,0.1,2.0295e-05,202.81,1.5522e-05,116.11,5.2997e-08,-0.11938,-1.5646e-05,-118.07,2.7278
21520,23.354,4.7273,0.1,2.1188e-05,211.74,1.71e-05,134.79,-8.5393e-07,-0.10518,-1.538e-05,-109.25,2.7123
21521,23.446,4.4545,0.1,2.1092e-05,210.77,1.5859e-05,116.63,3.1926e-07,-0.12651,-1.6524e-05,-126.68,2.7279
21522,23.354,4.5455,0.1,2.201e-05,219.95,1.7468e-05,135.48,-5.7894e-07,-0.11286,-1.6308e-05,-118.29,2.7124
21523,23.446,4.2727,0.1,2.1781e-05,217.66,1.6145e-05,117.04,5.5055e-07,-0.13192,-1.7281e-05,-134.11,2.728
21524,23.354,4.3636,0.1,2.2728e-05,227.12,1.7782e-05,136.03,-3.3773e-07,-0.11866,-1.7113e-05,-126.16,2.7125
21525,23.446,4.0909,0.1,2.2368e-05,223.52,1.6384e-05,117.35,7.4825e-07,-0.13607,-1.7922e-05,-140.42,2.7281
21526,23.354,4.1818,0.1,2.3346e-05,233.3,1.8049e-05,136.46,-1.2925e-07,-0.12306,-1.7803e-05,-132.92,2.7126
21527,23.446,3.9091,0.1,2.2857e-05,228.41,1.6582e-05,117.59,9.1356e-07,-0.13926,-1.8456e-05,-145.67,2.7281
21528,23.354,4,0.1,2.3868e-05,238.52,1.8271e-05,136.8,4.7512e-08,-0.12644,-1.8385e-05,-138.62,2.7127
21529,23.446,3.7273,0.1,2.3252e-05,232.36,1.674e-05,117.76,1.0475e-06,-0.14166,-1.8886e-05,-149.91,2.7282
21530,23.354,3.8182,0.1,2.4298e-05,242.82,1.8452e-05,137.06,1.9344e-07,-0.12901,-1.8862e-05,-143.3,2.7128
21531,23.446,3.5455,0.1,2.3557e-05,235.41,1.6861e-05,117.89,1.1508e-06,-0.14343,-1.9217e-05,-153.18,2.7282
21532,23.354,3.6364,0.1,2.4639e-05,246.22,1.8593e-05,137.25,3.0928e-07,-0.13092,-1.9239e-05,-147.01,2.7128
21533,23.446,3.3636,0.1,2.3773e-05,237.57,1.6946e-05,117.98,1.2242e-06,-0.14463,-1.9451e-05,-155.49,2.7283
21534,23.354,3.4545,0.1,2.4893e-05,248.76,1.8698e-05,137.39,3.9564e-07,-0.13229,-1.952e-05,-149.77,2.7129
21535,23.446,3.1818,0.1,2.3902e-05,238.86,1.6997e-05,118.03,1.2681e-06,-0.14533,-1.9591e-05,-156.87,2.7283
21536,23.354,3.2727,0.1,2.5061e-05,250.44,1.8768e-05,137.48,4.5297e-07,-0.13316,-1.9705e-05,-151.6,2.7129
21537,23.446,3,0.1,2.3945e-05,239.29,1.7014e-05,118.05,1.2827e-06,-0.14557,-1.9638e-05,-157.33,2.7283
21538,23.354,3.0909,0.1,2.5145e-05,251.28,1.8802e-05,137.52,4.8156e-07,-0.13359,-1.9798e-05,-152.51,2.7129
21539,23.446,2.8182,0.1,2.3902e-05,238.86,1.6997e-05,118.03,1.2681e-06,-0.14533,-1.9591e-05,-156.87,2.7283
21540,23.354,2.9091,0.1,2.5145e-05,251.28,1.8802e-05,137.52,4.8156e-07,-0.13359,-1.9798e-05,-152.51,2.7129
21541,23.446,2.6364,0.1,2.3773e-05,237.57,1.6946e-05,117.98,1.2242e-06,-0.14463,-1.9451e-05,-155.49,2.7283
21542,23.354,2.7273,0.1,2.5061e-05,250.44,1.8768e-05,137.48,4.5297e-07,-0.13316,-1.9705e-05,-151.6,2.7129
21543,23.446,2.4545,0.1,2.3557e-05,235.41,1.6861e-05,117.89,1.1508e-06,-0.14343,-1.9217e-05,-153.18,2.7282
21544,23.354,2.5455,0.1,2.4893e-05,248.76,1.8698e-05,137.39,3.9564e-07,-0.13229,-1.952e-05,-149.77,2.7129
21545,23.446,2.2727,0.1,2.3252e-05,232.36,1.674e-05,117.76,1.0475e-06,-0.14166,-1.8886e-05,-149.91,2.7282
21546,23.354,2.3636,0.1,2.4639e-05,246.22,1.8593e-05,137.25,3.0928e-07,-0.13092,-1.9239e-05,-147.01,2.7128
21547,23.446,2.0909,0.1,2.2857e-05,228.41,1.6582e-05,117.59,9.1356e-07,-0.13926,-1.8456e-05,-145.67,2.7281
21548,23.354,2.1818,0.1,2.4298e-05,242.82,1.8452e-05,137.06,1.9344e-07,-0.12901,-1.8862e-05,-143.3,2.7128
21549,23.446,1.9091,0.1,2.2368e-05,223.52,1.6384e-05,117.35,7.4825e-07,-0.13607,-1.7922e-05,-140.42,2.7281
21550,23.354,2,0.1,2.3868e-05,238.52,1.8271e-05,136.8,4.7512e-08,-0.12644,-1.8385e-05,-138.62,2.7127
21551,23.446,1.7273,0.1,2.1781e-05,217.66,1.6145e-05,117.04,5.5055e-07,-0.13192,-1.7281e-05,-134.11,2.728
21552,23.354,1.8182,0.1,2.3346e-05,233.3,1.8049e-05,136.46,-1.2925e-07,-0.12306,-1.7803e-05,-132.92,2.7126
21553,23.446,1.5455,0.1,2.1092e-05,210.77,1.5859e-05,116.63,3.1926e-07,-0.1265,-1.6524e-05,-126.68,2.7279
21554,23.354,1.6364,0.1,2.2728e-05,227.12,1.7782e-05,136.03,-3.3773e-07,-0.11866,-1.7113e-05,-126.16,2.7125
21555,23.446,1.3636,0.1,2.0295e-05,202.81,1.5522e-05,116.11,5.2997e-08,-0.11938,-1.5646e-05,-118.08,2.7278
21556,23.354,1.4545,0.1,2.201e-05,219.95,1.7468e-05,135.48,-5.7894e-07,-0.11286,-1.6308e-05,-118.29,2.7124
21557,23.446,1.1818,0.1,1.9384e-05,193.71,1.5128e-05,115.43,-2.4971e-07,-0.10971,-1.4636e-05,-108.2,2.7277
21558,23.354,1.2727,0.1,2.1188e-05,211.74,1.71e-05,134.79,-8.5393e-07,-0.10518,-1.538e-05,-109.25,2.7123
21559,23.446,1,0.1,1.8353e-05,183.4,1.4669e-05,114.55,-5.9024e-07,-0.096551,-1.3484e-05,-96.972,2.7276
21560,23.354,1.0909,0.1,2.026e-05,202.46,1.6673e-05,133.92,-1.1636e-06,-0.094457,-1.4323e-05,-98.972,2.7122
21561,23.446,0.81818,0.1,1.7199e-05,171.87,1.4137e-05,113.43,-9.6924e-07,-0.075977,-1.218e-05,-84.309,2.7274
21562,23.354,0.90909,0.1,1.9223e-05,192.09,1.6182e-05,132.84,-1.5085e-06,-0.079971,-1.3131e-05,-87.404,2.7121
21563,23.446,0.63636,0.1,1.5932e-05,159.21,1.3531e-05,112.03,-1.386e-06,-0.048381,-1.0723e-05,-70.205,2.7273
21564,23.354,0.72727,0.1,1.8086e-05,180.74,1.5626e-05,131.53,-1.8875e-06,-0.054909,-1.1801e-05,-74.543,2.7119
21565,23.446,0.45455,0.1,1.4602e-05,145.92,1.2871e-05,110.51,-1.8334e-06,0.028712,-9.1447e-06,-54.905,2.7271
21566,23.354,0.54545,0.1,1.688e-05,168.69,1.5015e-05,130.06,-2.2985e-06,-0.027447,-1.0352e-05,-60.539,2.7118
21567,23.446,0.27273,0.1,1.3471e-05,134.62,1.2335e-05,110.1,-2.3027e-06,0.11527,-7.6445e-06,-40.021,2.727
21568,23.354,0.36364,0.1,1.57e-05,156.9,1.4405e-05,128.83,-2.7281e-06,0.091477,-8.854e-06,-45.936,2.7116
21569,23.354,0.18182,0.1,1.5009e-05,149.98,1.4148e-05,130.29,-3.1789e-06,0.1005,-7.6801e-06,-33.72,2.7115
21570,23.446,0.090909,0.1,1.1914e-05,119.06,1.1368e-05,106.14,-2.7643e-06,-0.047376,-5.7621e-06,-22.572,2.7268
21571,23.261,5.7273,0.1,1.7133e-05,171.21,1.6133e-05,148.37,-3.6025e-06,0.090034,-8.8062e-06,-39.009,2.6962
21572,23.169,5.8182,0.1,1.8852e-05,188.39,1.8043e-05,169.11,-4.4545e-06,0.072713,-8.9888e-06,-33.996,2.6807
21573,23.261,5.9091,0.1,1.5666e-05,156.56,1.5151e-05,143.85,-3.9986e-06,-0.03395,-7.0375e-06,-22.867,2.696
21574,23.261,5.5455,0.1,1.7954e-05,179.42,1.652e-05,148.16,-3.1946e-06,0.024806,-1.0031e-05,-51.342,2.6963
21575,23.169,5.6364,0.1,1.9273e-05,192.6,1.8151e-05,166.97,-4.0595e-06,0.085817,-9.8977e-06,-43.78,2.6808
21576,23.261,5.3636,0.1,1.9043e-05,190.3,1.7096e-05,149.45,-2.801e-06,-0.042031,-1.1415e-05,-64.761,2.6965
21577,23.169,5.4545,0.1,2.0216e-05,202.02,1.8658e-05,167.84,-3.6824e-06,-0.016509,-1.1184e-05,-56.377,2.681
21578,23.261,5.1818,0.1,2.0137e-05,201.23,1.7663e-05,150.89,-2.4276e-06,-0.065618,-1.2743e-05,-77.571,2.6966
21579,23.169,5.2727,0.1,2.1233e-05,212.19,1.9206e-05,169.18,-3.3164e-06,-0.039489,-1.2478e-05,-68.875,2.6811
21580,23.261,5,0.1,2.1168e-05,211.53,1.8181e-05,152.17,-2.0826e-06,-0.084072,-1.3965e-05,-89.361,2.6967
21581,23.169,5.0909,0.1,2.223e-05,222.14,1.9731e-05,170.53,-2.974e-06,-0.061897,-1.3701e-05,-80.661,2.6813
21582,23.261,4.8182,0.1,2.211e-05,220.94,1.8641e-05,153.26,-1.7686e-06,-0.095948,-1.5064e-05,-99.991,2.6969
21583,23.169,4.9091,0.1,2.3163e-05,231.47,2.0209e-05,171.74,-2.6583e-06,-0.07507,-1.4822e-05,-91.47,2.6814
21584,23.261,4.6364,0.1,2.2954e-05,229.38,1.9043e-05,154.15,-1.4867e-06,-0.10463,-1.6039e-05,-109.45,2.697
21585,23.169,4.7273,0.1,2.4014e-05,239.97,2.0635e-05,172.78,-2.372e-06,-0.084818,-1.583e-05,-101.21,2.6815
21586,23.261,4.4545,0.1,2.37e-05,236.83,1.939e-05,154.87,-1.2367e-06,-0.111,-1.6894e-05,-117.75,2.6971
21587,23.169,4.5455,0.1,2.4776e-05,247.59,2.1007e-05,173.64,-2.1155e-06,-0.09179,-1.6724e-05,-109.85,2.6816
21588,23.261,4.2727,0.1,2.4349e-05,243.32,1.9685e-05,155.44,-1.0183e-06,-0.11581,-1.7634e-05,-124.96,2.6972
21589,23.169,4.3636,0.1,2.5447e-05,254.3,2.1328e-05,174.35,-1.8891e-06,-0.09703,-1.7506e-05,-117.43,2.6817
21590,23.261,4.0909,0.1,2.4904e-05,248.87,1.9934e-05,155.9,-8.3079e-07,-0.11948,-1.8264e-05,-131.1,2.6973
21591,23.169,4.1818,0.1,2.6029e-05,260.11,2.1601e-05,174.92,-1.6924e-06,-0.101,-1.8179e-05,-123.97,2.6818
21592,23.261,3.9091,0.1,2.5369e-05,253.51,2.014e-05,156.26,-6.7342e-07,-0.12229,-1.8789e-05,-136.24,2.6973
21593,23.169,4,0.1,2.6523e-05,265.04,2.183e-05,175.38,-1.525e-06,-0.10402,-1.8748e-05,-129.51,2.6819
21594,23.261,3.7273,0.1,2.5745e-05,257.27,2.0304e-05,156.53,-5.4559e-07,-0.1244,-1.9214e-05,-140.39,2.6974
21595,23.169,3.8182,0.1,2.6931e-05,269.12,2.2017e-05,175.73,-1.3863e-06,-0.10632,-1.9217e-05,-134.08,2.682
21596,23.261,3.5455,0.1,2.6036e-05,260.18,2.043e-05,156.74,-4.4674e-07,-0.12594,-1.9541e-05,-143.59,2.6974
21597,23.169,3.6364,0.1,2.7254e-05,272.36,2.2164e-05,176.01,-1.276e-06,-0.10803,-1.9588e-05,-137.69,2.682
21598,23.261,3.3636,0.1,2.6242e-05,262.24,2.0519e-05,156.88,-3.7645e-07,-0.127,-1.9772e-05,-145.86,2.6975
21599,23.169,3.4545,0.1,2.7496e-05,274.77,2.2272e-05,176.2,-1.1936e-06,-0.10924,-1.9864e-05,-140.39,2.6821
21600,23.261,3.1818,0.1,2.6365e-05,263.47,2.0572e-05,156.96,-3.344e-07,-0.12761,-1.9911e-05,-147.22,2.6975
21601,23.169,3.2727,0.1,2.7656e-05,276.37,2.2344e-05,176.33,-1.1389e-06,-0.11002,-2.0047e-05,-142.18,2.6821
21602,23.261,3,0.1,2.6406e-05,263.88,2.059e-05,156.98,-3.204e-07,-0.12781,-1.9957e-05,-147.67,2.6975
21603,23.169,3.0909,0.1,2.7736e-05,277.17,2.238e-05,176.39,-1.1115e-06,-0.11039,-2.0138e-05,-143.07,2.6821
21604,23.261,2.8182,0.1,2.6365e-05,263.47,2.0572e-05,156.96,-3.344e-07,-0.12761,-1.9911e-05,-147.22,2.6975
21605,23.169,2.9091,0.1,2.7736e-05,277.17,2.238e-05,176.39,-1.1115e-06,-0.1104,-2.0138e-05,-143.07,2.6821
21606,23.261,2.6364,0.1,2.6242e-05,262.24,2.0519e-05,156.88,-3.7645e-07,-0.127,-1.9772e-05,-145.86,2.6975
21607,23.169,2.7273,0.1,2.7656e-05,276.37,2.2344e-05,176.33,-1.1389e-06,-0.11002,-2.0047e-05,-142.18,2.6821
21608,23.261,2.4545,0.1,2.6036e-05,260.18,2.043e-05,156.74,-4.4674e-07,-0.12594,-1.9541e-05,-143.59,2.6974
21609,23.169,2.5455,0.1,2.7496e-05,274.77,2.2272e-05,176.2,-1.1936e-06,-0.10924,-1.9864e-05,-140.39,2.6821
21610,23.261,2.2727,0.1,2.5745e-05,257.27,2.0304e-05,156.53,-5.4559e-07,-0.1244,-1.9214e-05,-140.39,2.6974
21611,23.169,2.3636,0.1,2.7254e-05,272.36,2.2164e-05,176.01,-1.276e-06,-0.10803,-1.9588e-05,-137.69,2.682
21612,23.261,2.0909,0.1,2.5369e-05,253.51,2.014e-05,156.26,-6.7342e-07,-0.12229,-1.8789e-05,-136.24,2.6973
21613,23.169,2.1818,0.1,2.6931e-05,269.12,2.2017e-05,175.73,-1.3863e-06,-0.10632,-1.9217e-05,-134.08,2.682
21614,23.261,1.9091,0.1,2.4904e-05,248.87,1.9934e-05,155.9,-8.3079e-07,-0.11948,-1.8264e-05,-131.1,2.6973
21615,23.169,2,0.1,2.6523e-05,265.04,2.183e-05,175.38,-1.525e-06,-0.10402,-1.8748e-05,-129.51,2.6819
21616,23.261,1.7273,0.1,2.4349e-05,243.32,1.9685e-05,155.44,-1.0183e-06,-0.11581,-1.7634e-05,-124.96,2.6972
21617,23.169,1.8182,0.1,2.6029e-05,260.11,2.1601e-05,174.92,-1.6924e-06,-0.10099,-1.8179e-05,-123.97,2.6818
21618,23.261,1.5455,0.1,2.37e-05,236.83,1.939e-05,154.87,-1.2367e-06,-0.111,-1.6894e-05,-117.75,2.6971
21619,23.169,1.6364,0.1,2.5447e-05,254.3,2.1328e-05,174.35,-1.8891e-06,-0.097031,-1.7506e-05,-117.43,2.6817
21620,23.261,1.3636,0.1,2.2954e-05,229.38,1.9043e-05,154.15,-1.4867e-06,-0.10463,-1.6039e-05,-109.45,2.697
21621,23.169,1.4545,0.1,2.4776e-05,247.59,2.1007e-05,173.64,-2.1155e-06,-0.091792,-1.6724e-05,-109.85,2.6816
21622,23.261,1.1818,0.1,2.211e-05,220.94,1.8641e-05,153.26,-1.7686e-06,-0.095947,-1.5064e-05,-99.991,2.6969
21623,23.169,1.2727,0.1,2.4014e-05,239.97,2.0635e-05,172.78,-2.372e-06,-0.084816,-1.583e-05,-101.21,2.6815
21624,23.261,1,0.1,2.1168e-05,211.53,1.8181e-05,152.17,-2.0826e-06,-0.084074,-1.3965e-05,-89.36,2.6967
21625,23.169,1.0909,0.1,2.3163e-05,231.47,2.0209e-05,171.74,-2.6583e-06,-0.075071,-1.4822e-05,-91.47,2.6814
21626,23.261,0.81818,0.1,2.0137e-05,201.23,1.7663e-05,150.89,-2.4276e-06,-0.065618,-1.2743e-05,-77.571,2.6966
21627,23.169,0.90909,0.1,2.223e-05,222.14,1.9731e-05,170.53,-2.974e-06,-0.061898,-1.3701e-05,-80.661,2.6813
21628,23.261,0.63636,0.1,1.9043e-05,190.3,1.7096e-05,149.45,-2.801e-06,-0.042032,-1.1415e-05,-64.761,2.6965
21629,23.169,0.72727,0.1,2.1233e-05,212.19,1.9206e-05,169.18,-3.3164e-06,-0.03949,-1.2478e-05,-68.875,2.6811
21630,23.261,0.45455,0.1,1.7954e-05,179.42,1.652e-05,148.16,-3.1946e-06,0.024804,-1.0031e-05,-51.342,2.6963
21631,23.169,0.54545,0.1,2.0216e-05,202.02,1.8658e-05,167.84,-3.6824e-06,-0.016512,-1.1184e-05,-56.377,2.681
21632,23.261,0.27273,0.1,1.7133e-05,171.21,1.6133e-05,148.37,-3.6025e-06,0.090036,-8.8062e-06,-39.009,2.6962
21633,23.169,0.36364,0.1,1.9273e-05,192.6,1.8151e-05,166.97,-4.0595e-06,0.085819,-9.8977e-06,-43.78,2.6808
21634,23.169,0.18182,0.1,1.8852e-05,188.39,1.8043e-05,169.11,-4.4545e-06,0.072716,-8.9888e-06,-33.996,2.6807
21635,23.261,0.090909,0.1,1.5666e-05,156.56,1.5151e-05,143.85,-3.9986e-06,-0.033945,-7.0375e-06,-22.867,2.696
21636,23.076,5.7273,0.1,2.0902e-05,208.87,1.9987e-05,187.15,-4.9094e-06,0.084378,-1.0008e-05,-38.227,2.6653
21637,22.984,5.8182,0.1,2.2739e-05,227.23,2.1965e-05,208.26,-5.7443e-06,0.057379,-1.0295e-05,-34.135,2.6498
21638,23.076,5.9091,0.1,1.9482e-05,194.69,1.8989e-05,182.16,-5.2577e-06,-0.01526,-8.316e-06,-22.994,2.6652
21639,23.076,5.5455,0.1,2.1503e-05,214.88,2.026e-05,186.44,-4.5482e-06,0.03797,-1.1021e-05,-48.594,2.6655
21640,22.984,5.6364,0.1,2.2973e-05,229.57,2.1966e-05,205.64,-5.3921e-06,0.084848,-1.1006e-05,-42.098,2.65
21641,23.076,5.3636,0.1,2.2398e-05,223.82,2.0751e-05,187.44,-4.1985e-06,-0.018985,-1.223e-05,-60.363,2.6656
21642,22.984,5.4545,0.1,2.3734e-05,237.18,2.2382e-05,206.16,-5.0566e-06,-0.0029146,-1.2116e-05,-53.047,2.6502
21643,23.076,5.1818,0.1,2.3333e-05,233.17,2.1264e-05,188.75,-3.8633e-06,-0.039647,-1.3425e-05,-71.886,2.6658
21644,22.984,5.2727,0.1,2.4591e-05,245.74,2.2863e-05,207.29,-4.729e-06,-0.022669,-1.3265e-05,-64.157,2.6503
21645,23.076,5,0.1,2.4243e-05,242.26,2.1752e-05,190.05,-3.5501e-06,-0.05623,-1.4552e-05,-82.718,2.6659
21646,22.984,5.0909,0.1,2.5457e-05,254.39,2.3343e-05,208.55,-4.4194e-06,-0.042795,-1.4376e-05,-74.855,2.6505
21647,23.076,4.8182,0.1,2.5092e-05,250.75,2.2198e-05,191.23,-3.2621e-06,-0.067019,-1.5584e-05,-92.647,2.6661
21648,22.984,4.9091,0.1,2.6288e-05,262.69,2.3796e-05,209.78,-4.1314e-06,-0.054854,-1.5415e-05,-84.837,2.6506
21649,23.076,4.6364,0.1,2.5866e-05,258.48,2.2595e-05,192.24,-3.0012e-06,-0.074938,-1.6512e-05,-101.59,2.6662
21650,22.984,4.7273,0.1,2.7059e-05,270.41,2.4208e-05,210.89,-3.8679e-06,-0.063858,-1.6364e-05,-93.952,2.6507
21651,23.076,4.4545,0.1,2.6558e-05,265.39,2.2942e-05,193.1,-2.7683e-06,-0.080733,-1.7333e-05,-109.51,2.6663
21652,22.984,4.5455,0.1,2.776e-05,277.41,2.4574e-05,211.85,-3.6301e-06,-0.070318,-1.7214e-05,-102.13,2.6508
21653,23.076,4.2727,0.1,2.7164e-05,271.46,2.3242e-05,193.8,-2.5636e-06,-0.085102,-1.8048e-05,-116.43,2.6664
21654,22.984,4.3636,0.1,2.8383e-05,283.63,2.4895e-05,212.66,-3.419e-06,-0.075165,-1.7963e-05,-109.36,2.6509
21655,23.076,4.0909,0.1,2.7686e-05,276.67,2.3495e-05,194.38,-2.387e-06,-0.088419,-1.8661e-05,-122.36,2.6665
21656,22.984,4.1818,0.1,2.8927e-05,289.07,2.517e-05,213.34,-3.2346e-06,-0.078825,-1.8613e-05,-115.63,2.651
21657,23.076,3.9091,0.1,2.8125e-05,281.06,2.3705e-05,194.84,-2.2383e-06,-0.090942,-1.9174e-05,-127.34,2.6665
21658,22.984,4,0.1,2.9391e-05,293.71,2.5401e-05,213.89,-3.0771e-06,-0.08161,-1.9165e-05,-120.96,2.6511
21659,23.076,3.7273,0.1,2.8482e-05,284.62,2.3874e-05,195.2,-2.1171e-06,-0.09284,-1.9589e-05,-131.37,2.6666
21660,22.984,3.8182,0.1,2.9776e-05,297.55,2.5591e-05,214.34,-2.9462e-06,-0.083717,-1.9621e-05,-125.37,2.6512
21661,23.076,3.5455,0.1,2.8757e-05,287.38,2.4004e-05,195.47,-2.0233e-06,-0.094222,-1.9909e-05,-134.48,2.6666
21662,22.984,3.6364,0.1,3.0082e-05,300.61,2.5741e-05,214.67,-2.8418e-06,-0.085282,-1.9983e-05,-128.88,2.6512
21663,23.076,3.3636,0.1,2.8953e-05,289.34,2.4096e-05,195.65,-1.9564e-06,-0.095163,-2.0137e-05,-136.69,2.6667
21664,22.984,3.4545,0.1,3.0311e-05,302.9,2.5852e-05,214.92,-2.7637e-06,-0.086387,-2.0253e-05,-131.49,2.6513
21665,23.076,3.1818,0.1,2.9071e-05,290.51,2.415e-05,195.76,-1.9164e-06,-0.09571,-2.0273e-05,-138.02,2.6667
21666,22.984,3.2727,0.1,3.0463e-05,304.42,2.5926e-05,215.08,-2.7117e-06,-0.087098,-2.0432e-05,-133.23,2.6513
21667,23.076,3,0.1,2.911e-05,290.9,2.4168e-05,195.8,-1.903e-06,-0.09589,-2.0318e-05,-138.46,2.6667
21668,22.984,3.0909,0.1,3.0539e-05,305.18,2.5962e-05,215.16,-2.6858e-06,-0.087443,-2.0521e-05,-134.1,2.6513
21669,23.076,2.8182,0.1,2.9071e-05,290.51,2.415e-05,195.76,-1.9164e-06,-0.095711,-2.0273e-05,-138.02,2.6667
21670,22.984,2.9091,0.1,3.0539e-05,305.18,2.5962e-05,215.16,-2.6858e-06,-0.087442,-2.0521e-05,-134.1,2.6513
21671,23.076,2.6364,0.1,2.8953e-05,289.34,2.4096e-05,195.65,-1.9564e-06,-0.095164,-2.0137e-05,-136.69,2.6667
21672,22.984,2.7273,0.1,3.0463e-05,304.42,2.5926e-05,215.08,-2.7117e-06,-0.087097,-2.0432e-05,-133.23,2.6513
21673,23.076,2.4545,0.1,2.8757e-05,287.38,2.4004e-05,195.47,-2.0233e-06,-0.094222,-1.9909e-05,-134.48,2.6666
21674,22.984,2.5455,0.1,3.0311e-05,302.9,2.5852e-05,214.92,-2.7637e-06,-0.086388,-2.0253e-05,-131.49,2.6513
21675,23.076,2.2727,0.1,2.8482e-05,284.62,2.3874e-05,195.2,-2.1171e-06,-0.09284,-1.9589e-05,-131.37,2.6666
21676,22.984,2.3636,0.1,3.0082e-05,300.61,2.5741e-05,214.67,-2.8418e-06,-0.085281,-1.9983e-05,-128.88,2.6512
21677,23.076,2.0909,0.1,2.8125e-05,281.06,2.3705e-05,194.84,-2.2383e-06,-0.090943,-1.9174e-05,-127.34,2.6665
21678,22.984,2.1818,0.1,2.9776e-05,297.55,2.5591e-05,214.34,-2.9462e-06,-0.083718,-1.9621e-05,-125.37,2.6512
21679,23.076,1.9091,0.1,2.7686e-05,276.67,2.3495e-05,194.38,-2.387e-06,-0.088419,-1.8661e-05,-122.36,2.6665
21680,22.984,2,0.1,2.9391e-05,293.71,2.5401e-05,213.89,-3.0771e-06,-0.08161,-1.9165e-05,-120.96,2.6511
21681,23.076,1.7273,0.1,2.7164e-05,271.46,2.3242e-05,193.8,-2.5636e-06,-0.085102,-1.8048e-05,-116.43,2.6664
21682,22.984,1.8182,0.1,2.8927e-05,289.07,2.517e-05,213.34,-3.2346e-06,-0.078824,-1.8613e-05,-115.63,2.651
21683,23.076,1.5455,0.1,2.6558e-05,265.39,2.2942e-05,193.1,-2.7683e-06,-0.080734,-1.7333e-05,-109.51,2.6663
21684,22.984,1.6364,0.1,2.8383e-05,283.63,2.4895e-05,212.66,-3.419e-06,-0.075165,-1.7963e-05,-109.36,2.6509
21685,23.076,1.3636,0.1,2.5866e-05,258.48,2.2595e-05,192.24,-3.0012e-06,-0.074938,-1.6512e-05,-101.59,2.6662
21686,22.984,1.4545,0.1,2.776e-05,277.41,2.4574e-05,211.85,-3.6301e-06,-0.070319,-1.7214e-05,-102.13,2.6508
21687,23.076,1.1818,0.1,2.5092e-05,250.75,2.2198e-05,191.23,-3.2621e-06,-0.06702,-1.5584e-05,-92.647,2.6661
21688,22.984,1.2727,0.1,2.7059e-05,270.41,2.4208e-05,210.89,-3.8679e-06,-0.063857,-1.6364e-05,-93.952,2.6507
21689,23.076,1,0.1,2.4243e-05,242.26,2.1752e-05,190.05,-3.5501e-06,-0.056231,-1.4552e-05,-82.718,2.6659
21690,22.984,1.0909,0.1,2.6288e-05,262.69,2.3796e-05,209.78,-4.1314e-06,-0.054856,-1.5415e-05,-84.837,2.6506
21691,23.076,0.81818,0.1,2.3333e-05,233.17,2.1264e-05,188.75,-3.8633e-06,-0.039648,-1.3425e-05,-71.885,2.6658
21692,22.984,0.90909,0.1,2.5457e-05,254.39,2.3343e-05,208.56,-4.4194e-06,-0.042795,-1.4376e-05,-74.855,2.6505
21693,23.076,0.63636,0.1,2.2398e-05,223.82,2.0751e-05,187.44,-4.1985e-06,-0.018987,-1.223e-05,-60.363,2.6656
21694,22.984,0.72727,0.1,2.4591e-05,245.74,2.2863e-05,207.29,-4.729e-06,-0.022671,-1.3265e-05,-64.157,2.6503
21695,23.076,0.45455,0.1,2.1503e-05,214.88,2.026e-05,186.44,-4.5482e-06,0.03797,-1.1021e-05,-48.594,2.6655
21696,22.984,0.54545,0.1,2.3734e-05,237.18,2.2383e-05,206.16,-5.0566e-06,-0.0029147,-1.2116e-05,-53.047,2.6502
21697,23.076,0.27273,0.1,2.0902e-05,208.87,1.9987e-05,187.15,-4.9094e-06,0.08438,-1.0008e-05,-38.227,2.6653
21698,22.984,0.36364,0.1,2.2973e-05,229.57,2.1966e-05,205.64,-5.3921e-06,0.08485,-1.1006e-05,-42.098,2.65
21699,22.984,0.18182,0.1,2.2739e-05,227.23,2.1965e-05,208.26,-5.7443e-06,0.057379,-1.0295e-05,-34.135,2.6498
21700,23.076,0.090909,0.1,1.9482e-05,194.69,1.8989e-05,182.16,-5.2577e-06,-0.015262,-8.316e-06,-22.994,2.6652
21701,22.892,5.7273,0.1,2.4732e-05,247.15,2.3879e-05,226.26,-6.2248e-06,0.0739,-1.123e-05,-37.535,2.6345
21702,22.799,5.8182,0.1,2.6653e-05,266.34,2.5907e-05,247.64,-7.046e-06,0.044518,-1.1596e-05,-34.142,2.619
21703,22.892,5.9091,0.1,2.3342e-05,233.26,2.2865e-05,220.9,-6.5357e-06,-0.00712,-9.5968e-06,-23.007,2.6343
21704,22.892,5.5455,0.1,2.5173e-05,251.55,2.4062e-05,225.17,-5.9011e-06,0.039572,-1.2075e-05,-46.35,2.6347
21705,22.799,5.6364,0.1,2.675e-05,267.31,2.5825e-05,244.67,-6.7283e-06,0.079931,-1.2153e-05,-40.682,2.6192
21706,22.892,5.3636,0.1,2.5912e-05,258.95,2.4477e-05,225.89,-5.5876e-06,-0.010127,-1.3134e-05,-56.712,2.6348
21707,22.799,5.4545,0.1,2.7372e-05,273.53,2.6167e-05,244.9,-6.4269e-06,0.0031998,-1.3118e-05,-50.274,2.6194
21708,22.892,5.1818,0.1,2.6711e-05,266.93,2.4931e-05,227.01,-5.2855e-06,-0.028449,-1.4204e-05,-67.04,2.635
21709,22.799,5.2727,0.1,2.8094e-05,280.75,2.6583e-05,245.79,-6.1316e-06,-0.013893,-1.4136e-05,-60.156,2.6195
21710,22.892,5,0.1,2.7507e-05,274.88,2.5379e-05,228.22,-5.001e-06,-0.043569,-1.5232e-05,-76.914,2.6351
21711,22.799,5.0909,0.1,2.8844e-05,288.24,2.7014e-05,246.91,-5.8511e-06,-0.032088,-1.5139e-05,-69.819,2.6197
21712,22.892,4.8182,0.1,2.8267e-05,282.48,2.58e-05,229.4,-4.7374e-06,-0.053588,-1.6189e-05,-86.098,2.6353
21713,22.799,4.9091,0.1,2.9578e-05,295.58,2.7433e-05,248.06,-5.5884e-06,-0.043243,-1.6092e-05,-78.966,2.6198
21714,22.892,4.6364,0.1,2.897e-05,289.5,2.6183e-05,230.46,-4.497e-06,-0.060997,-1.7061e-05,-94.464,2.6354
21715,22.799,4.7273,0.1,3.0273e-05,302.52,2.7823e-05,249.17,-5.3464e-06,-0.051672,-1.6975e-05,-87.423,2.6199
21716,22.892,4.4545,0.1,2.9606e-05,295.86,2.6524e-05,231.39,-4.281e-06,-0.066436,-1.7841e-05,-101.95,2.6355
21717,22.799,4.5455,0.1,3.0912e-05,308.9,2.8176e-05,250.16,-5.1268e-06,-0.057765,-1.7775e-05,-95.089,2.6201
21718,22.892,4.2727,0.1,3.0169e-05,301.49,2.682e-05,232.18,-4.0902e-06,-0.070535,-1.8526e-05,-108.53,2.6356
21719,22.799,4.3636,0.1,3.1486e-05,314.64,2.8489e-05,251.04,-4.9308e-06,-0.062348,-1.8486e-05,-101.91,2.6202
21720,22.892,4.0909,0.1,3.0657e-05,306.36,2.7074e-05,232.84,-3.9249e-06,-0.073642,-1.9115e-05,-114.21,2.6357
21721,22.799,4.1818,0.1,3.1991e-05,319.69,2.876e-05,251.78,-4.7588e-06,-0.065808,-1.9107e-05,-107.87,2.6203
21722,22.892,3.9091,0.1,3.1069e-05,310.48,2.7285e-05,233.37,-3.7852e-06,-0.076001,-1.9611e-05,-118.98,2.6358
21723,22.799,4,0.1,3.2425e-05,324.02,2.899e-05,252.4,-4.6113e-06,-0.068439,-1.9637e-05,-112.97,2.6203
21724,22.892,3.7273,0.1,3.1405e-05,313.83,2.7456e-05,233.8,-3.671e-06,-0.07777,-2.0013e-05,-122.87,2.6358
21725,22.799,3.8182,0.1,3.2786e-05,327.63,2.918e-05,252.9,-4.4885e-06,-0.070426,-2.0077e-05,-117.2,2.6204
21726,22.892,3.5455,0.1,3.1666e-05,316.44,2.7587e-05,234.12,-3.5824e-06,-0.079056,-2.0325e-05,-125.87,2.6359
21727,22.799,3.6364,0.1,3.3074e-05,330.52,2.9331e-05,253.29,-4.3903e-06,-0.071898,-2.0427e-05,-120.57,2.6205
21728,22.892,3.3636,0.1,3.1851e-05,318.29,2.768e-05,234.34,-3.5192e-06,-0.079931,-2.0546e-05,-128.01,2.6359
21729,22.799,3.4545,0.1,3.3291e-05,332.68,2.9442e-05,253.58,-4.3166e-06,-0.072937,-2.0688e-05,-123.08,2.6205
21730,22.892,3.1818,0.1,3.1963e-05,319.4,2.7736e-05,234.47,-3.4813e-06,-0.08044,-2.0679e-05,-129.29,2.6359
21731,22.799,3.2727,0.1,3.3434e-05,334.11,2.9517e-05,253.77,-4.2676e-06,-0.073605,-2.0862e-05,-124.76,2.6205
21732,22.892,3,0.1,3.2e-05,319.77,2.7754e-05,234.52,-3.4687e-06,-0.080605,-2.0723e-05,-129.72,2.6359
21733,22.799,3.0909,0.1,3.3506e-05,334.83,2.9554e-05,253.86,-4.2431e-06,-0.073928,-2.0949e-05,-125.6,2.6205
21734,22.892,2.8182,0.1,3.1963e-05,319.4,2.7736e-05,234.47,-3.4813e-06,-0.080438,-2.0679e-05,-129.29,2.6359
21735,22.799,2.9091,0.1,3.3506e-05,334.83,2.9554e-05,253.86,-4.2431e-06,-0.073929,-2.0949e-05,-125.6,2.6205
21736,22.892,2.6364,0.1,3.1851e-05,318.29,2.768e-05,234.34,-3.5192e-06,-0.079931,-2.0546e-05,-128.01,2.6359
21737,22.799,2.7273,0.1,3.3434e-05,334.11,2.9517e-05,253.77,-4.2676e-06,-0.073603,-2.0862e-05,-124.76,2.6205
21738,22.892,2.4545,0.1,3.1666e-05,316.44,2.7587e-05,234.12,-3.5824e-06,-0.079056,-2.0325e-05,-125.87,2.6359
21739,22.799,2.5455,0.1,3.3291e-05,332.68,2.9442e-05,253.58,-4.3166e-06,-0.072938,-2.0688e-05,-123.08,2.6205
21740,22.892,2.2727,0.1,3.1405e-05,313.83,2.7456e-05,233.8,-3.671e-06,-0.07777,-2.0013e-05,-122.87,2.6358
21741,22.799,2.3636,0.1,3.3074e-05,330.52,2.9331e-05,253.29,-4.3903e-06,-0.071897,-2.0427e-05,-120.57,2.6205
21742,22.892,2.0909,0.1,3.1069e-05,310.48,2.7285e-05,233.37,-3.7852e-06,-0.076001,-1.9611e-05,-118.98,2.6358
21743,22.799,2.1818,0.1,3.2786e-05,327.63,2.918e-05,252.9,-4.4885e-06,-0.070426,-2.0077e-05,-117.2,2.6204
21744,22.892,1.9091,0.1,3.0657e-05,306.36,2.7074e-05,232.84,-3.9249e-06,-0.073642,-1.9115e-05,-114.21,2.6357
21745,22.799,2,0.1,3.2425e-05,324.02,2.899e-05,252.4,-4.6113e-06,-0.068439,-1.9637e-05,-112.97,2.6203
21746,22.892,1.7273,0.1,3.0169e-05,301.49,2.682e-05,232.18,-4.0902e-06,-0.070535,-1.8526e-05,-108.53,2.6356
21747,22.799,1.8182,0.1,3.1991e-05,319.69,2.876e-05,251.78,-4.7588e-06,-0.065808,-1.9107e-05,-107.87,2.6203
21748,22.892,1.5455,0.1,2.9606e-05,295.86,2.6524e-05,231.39,-4.281e-06,-0.066436,-1.7841e-05,-101.95,2.6355
21749,22.799,1.6364,0.1,3.1486e-05,314.64,2.8489e-05,251.04,-4.9308e-06,-0.062348,-1.8486e-05,-101.91,2.6202
21750,22.892,1.3636,0.1,2.897e-05,289.5,2.6183e-05,230.46,-4.497e-06,-0.060996,-1.7061e-05,-94.464,2.6354
21751,22.799,1.4545,0.1,3.0912e-05,308.9,2.8176e-05,250.16,-5.1268e-06,-0.057764,-1.7775e-05,-95.089,2.6201
21752,22.892,1.1818,0.1,2.8267e-05,282.48,2.58e-05,229.4,-4.7374e-06,-0.053588,-1.6189e-05,-86.098,2.6353
21753,22.799,1.2727,0.1,3.0273e-05,302.52,2.7823e-05,249.17,-5.3464e-06,-0.051672,-1.6975e-05,-87.423,2.6199
21754,22.892,1,0.1,2.7507e-05,274.88,2.5379e-05,228.22,-5.001e-06,-0.04357,-1.5232e-05,-76.914,2.6351
21755,22.799,1.0909,0.1,2.9578e-05,295.58,2.7433e-05,248.06,-5.5884e-06,-0.043245,-1.6092e-05,-78.966,2.6198
21756,22.892,0.81818,0.1,2.6711e-05,266.93,2.4931e-05,227.01,-5.2855e-06,-0.02845,-1.4204e-05,-67.04,2.635
21757,22.799,0.90909,0.1,2.8844e-05,288.24,2.7014e-05,246.91,-5.8511e-06,-0.032088,-1.5139e-05,-69.819,2.6197
21758,22.892,0.63636,0.1,2.5912e-05,258.95,2.4477e-05,225.89,-5.5876e-06,-0.010127,-1.3134e-05,-56.712,2.6348
21759,22.799,0.72727,0.1,2.8094e-05,280.75,2.6583e-05,245.79,-6.1316e-06,-0.013893,-1.4136e-05,-60.156,2.6195
21760,22.892,0.45455,0.1,2.5173e-05,251.55,2.4062e-05,225.17,-5.9011e-06,0.039573,-1.2075e-05,-46.35,2.6347
21761,22.799,0.54545,0.1,2.7372e-05,273.53,2.6167e-05,244.9,-6.4269e-06,0.0032008,-1.3118e-05,-50.274,2.6194
21762,22.892,0.27273,0.1,2.4732e-05,247.15,2.3879e-05,226.26,-6.2248e-06,0.0739,-1.123e-05,-37.535,2.6345
21763,22.799,0.36364,0.1,2.675e-05,267.31,2.5825e-05,244.67,-6.7283e-06,0.079933,-1.2153e-05,-40.682,2.6192
21764,22.799,0.18182,0.1,2.6653e-05,266.34,2.5907e-05,247.64,-7.046e-06,0.044517,-1.1596e-05,-34.142,2.619
21765,22.892,0.090909,0.1,2.3342e-05,233.26,2.2865e-05,220.9,-6.5357e-06,-0.0071196,-9.5968e-06,-23.007,2.6343
21766,22.707,5.7273,0.1,2.8601e-05,285.82,2.7796e-05,265.62,-7.5473e-06,0.065903,-1.2463e-05,-36.871,2.6037
21767,22.615,5.8182,0.1,3.0585e-05,305.64,2.9864e-05,287.22,-8.3572e-06,0.03508,-1.2892e-05,-34.037,2.5882
21768,22.707,5.9091,0.1,2.7235e-05,272.16,2.6772e-05,259.97,-7.8279e-06,-0.001262,-1.088e-05,-22.93,2.6035
21769,22.707,5.5455,0.1,2.892e-05,289,2.7907e-05,264.23,-7.2544e-06,0.040478,-1.3173e-05,-44.426,2.6039
21770,22.615,5.6364,0.1,3.0578e-05,305.57,2.9716e-05,283.97,-8.0682e-06,0.075093,-1.3325e-05,-39.423,2.5884
21771,22.707,5.3636,0.1,2.9536e-05,295.16,2.8257e-05,264.69,-6.9713e-06,-0.0032093,-1.4104e-05,-53.593,2.6041
21772,22.615,5.4545,0.1,3.109e-05,310.68,2.9997e-05,283.96,-7.7952e-06,0.0073064,-1.4169e-05,-47.884,2.5886
21773,22.707,5.1818,0.1,3.0218e-05,301.98,2.8655e-05,265.6,-6.6976e-06,-0.019483,-1.5059e-05,-62.845,2.6042
21774,22.615,5.2727,0.1,3.1702e-05,316.8,3.0354e-05,284.62,-7.5276e-06,-0.0075233,-1.5072e-05,-56.692,2.5887
21775,22.707,5,0.1,3.0913e-05,308.92,2.9059e-05,266.68,-6.4387e-06,-0.033308,-1.5991e-05,-71.805,2.6044
21776,22.615,5.0909,0.1,3.2349e-05,323.27,3.0736e-05,285.56,-7.2726e-06,-0.024027,-1.5974e-05,-65.403,2.5889
21777,22.707,4.8182,0.1,3.1588e-05,315.67,2.9449e-05,267.79,-6.1976e-06,-0.042641,-1.6871e-05,-80.242,2.6045
21778,22.615,4.9091,0.1,3.2996e-05,329.73,3.1117e-05,286.6,-7.0327e-06,-0.034357,-1.6843e-05,-73.744,2.589
21779,22.707,4.6364,0.1,3.2223e-05,322.01,2.981e-05,268.84,-5.9764e-06,-0.04962,-1.7683e-05,-88.009,2.6046
21780,22.615,4.7273,0.1,3.3617e-05,335.94,3.1479e-05,287.65,-6.8106e-06,-0.042276,-1.7657e-05,-81.538,2.5892
21781,22.707,4.4545,0.1,3.2804e-05,327.81,3.0137e-05,269.79,-5.7767e-06,-0.054779,-1.8416e-05,-95.021,2.6047
21782,22.615,4.5455,0.1,3.4196e-05,341.72,3.1813e-05,288.63,-6.6082e-06,-0.04806,-1.8403e-05,-88.668,2.5893
21783,22.707,4.2727,0.1,3.3323e-05,333,3.0425e-05,270.62,-5.5995e-06,-0.058678,-1.9065e-05,-101.23,2.6048
21784,22.615,4.3636,0.1,3.4721e-05,346.97,3.2113e-05,289.52,-6.4266e-06,-0.052435,-1.9072e-05,-95.064,2.5894
21785,22.707,4.0909,0.1,3.3776e-05,337.52,3.0674e-05,271.33,-5.4454e-06,-0.061634,-1.9627e-05,-106.61,2.6049
21786,22.615,4.1818,0.1,3.5187e-05,351.63,3.2376e-05,290.29,-6.2668e-06,-0.055746,-1.966e-05,-100.69,2.5895
21787,22.707,3.9091,0.1,3.416e-05,341.36,3.0883e-05,271.91,-5.3148e-06,-0.063877,-2.0101e-05,-111.16,2.605
21788,22.615,4,0.1,3.559e-05,355.66,3.2601e-05,290.95,-6.1293e-06,-0.058265,-2.0164e-05,-105.51,2.5896
21789,22.707,3.7273,0.1,3.4475e-05,344.51,3.1053e-05,272.38,-5.2078e-06,-0.065557,-2.0488e-05,-114.88,2.6051
21790,22.615,3.8182,0.1,3.5927e-05,359.03,3.2788e-05,291.48,-6.0145e-06,-0.060167,-2.0585e-05,-109.54,2.5897
21791,22.707,3.5455,0.1,3.472e-05,346.96,3.1184e-05,272.74,-5.1246e-06,-0.066777,-2.0788e-05,-117.76,2.6051
21792,22.615,3.6364,0.1,3.6198e-05,361.73,3.2936e-05,291.91,-5.9225e-06,-0.061575,-2.092e-05,-112.75,2.5897
21793,22.707,3.3636,0.1,3.4895e-05,348.71,3.1277e-05,272.99,-5.0651e-06,-0.067606,-2.1002e-05,-119.81,2.6051
21794,22.615,3.4545,0.1,3.6401e-05,363.76,3.3047e-05,292.22,-5.8534e-06,-0.06257,-2.1172e-05,-115.16,2.5897
21795,22.707,3.1818,0.1,3.5e-05,349.76,3.1333e-05,273.14,-5.0295e-06,-0.068086,-2.1131e-05,-121.05,2.6052
21796,22.615,3.2727,0.1,3.6536e-05,365.11,3.3121e-05,292.43,-5.8073e-06,-0.063205,-2.1339e-05,-116.76,2.5898
21797,22.707,3,0.1,3.5035e-05,350.11,3.1351e-05,273.19,-5.0176e-06,-0.068244,-2.1173e-05,-121.46,2.6052
21798,22.615,3.0909,0.1,3.6604e-05,365.79,3.3158e-05,292.53,-5.7843e-06,-0.063515,-2.1423e-05,-117.57,2.5898
21799,22.707,2.8182,0.1,3.5e-05,349.76,3.1333e-05,273.14,-5.0295e-06,-0.068086,-2.1131e-05,-121.05,2.6052
21800,22.615,2.9091,0.1,3.6604e-05,365.79,3.3158e-05,292.53,-5.7843e-06,-0.063515,-2.1423e-05,-117.57,2.5898
21801,22.707,2.6364,0.1,3.4895e-05,348.71,3.1277e-05,272.99,-5.0651e-06,-0.067605,-2.1002e-05,-119.81,2.6051
21802,22.615,2.7273,0.1,3.6536e-05,365.11,3.3121e-05,292.43,-5.8073e-06,-0.063206,-2.1339e-05,-116.76,2.5898
21803,22.707,2.4545,0.1,3.472e-05,346.96,3.1184e-05,272.74,-5.1246e-06,-0.066777,-2.0788e-05,-117.76,2.6051
21804,22.615,2.5455,0.1,3.6401e-05,363.76,3.3047e-05,292.22,-5.8534e-06,-0.062569,-2.1172e-05,-115.16,2.5897
21805,22.707,2.2727,0.1,3.4475e-05,344.51,3.1053e-05,272.38,-5.2078e-06,-0.065556,-2.0488e-05,-114.88,2.6051
21806,22.615,2.3636,0.1,3.6198e-05,361.73,3.2936e-05,291.91,-5.9225e-06,-0.061575,-2.092e-05,-112.75,2.5897
21807,22.707,2.0909,0.1,3.416e-05,341.36,3.0883e-05,271.91,-5.3148e-06,-0.063876,-2.0101e-05,-111.16,2.605
21808,22.615,2.1818,0.1,3.5927e-05,359.03,3.2788e-05,291.48,-6.0145e-06,-0.060166,-2.0585e-05,-109.54,2.5897
21809,22.707,1.9091,0.1,3.3776e-05,337.52,3.0674e-05,271.33,-5.4454e-06,-0.061635,-1.9627e-05,-106.61,2.6049
21810,22.615,2,0.1,3.559e-05,355.66,3.2601e-05,290.95,-6.1293e-06,-0.058266,-2.0164e-05,-105.51,2.5896
21811,22.707,1.7273,0.1,3.3323e-05,333,3.0425e-05,270.62,-5.5995e-06,-0.058678,-1.9065e-05,-101.23,2.6048
21812,22.615,1.8182,0.1,3.5187e-05,351.63,3.2376e-05,290.29,-6.2668e-06,-0.055746,-1.966e-05,-100.69,2.5895
21813,22.707,1.5455,0.1,3.2804e-05,327.81,3.0137e-05,269.79,-5.7767e-06,-0.054778,-1.8416e-05,-95.021,2.6047
21814,22.615,1.6364,0.1,3.4721e-05,346.97,3.2113e-05,289.52,-6.4266e-06,-0.052433,-1.9072e-05,-95.064,2.5894
21815,22.707,1.3636,0.1,3.2223e-05,322.01,2.981e-05,268.84,-5.9764e-06,-0.04962,-1.7683e-05,-88.009,2.6046
21816,22.615,1.4545,0.1,3.4196e-05,341.72,3.1813e-05,288.63,-6.6082e-06,-0.04806,-1.8403e-05,-88.668,2.5893
21817,22.707,1.1818,0.1,3.1588e-05,315.67,2.9449e-05,267.79,-6.1976e-06,-0.042642,-1.6871e-05,-80.242,2.6045
21818,22.615,1.2727,0.1,3.3617e-05,335.94,3.1479e-05,287.65,-6.8106e-06,-0.042277,-1.7657e-05,-81.538,2.5892
21819,22.707,1,0.1,3.0913e-05,308.92,2.9059e-05,266.68,-6.4387e-06,-0.033308,-1.5991e-05,-71.805,2.6044
21820,22.615,1.0909,0.1,3.2996e-05,329.73,3.1117e-05,286.6,-7.0327e-06,-0.034359,-1.6843e-05,-73.744,2.589
21821,22.707,0.81818,0.1,3.0218e-05,301.98,2.8655e-05,265.6,-6.6976e-06,-0.019482,-1.5059e-05,-62.845,2.6042
21822,22.615,0.90909,0.1,3.2349e-05,323.27,3.0736e-05,285.56,-7.2726e-06,-0.024027,-1.5974e-05,-65.403,2.5889
21823,22.707,0.63636,0.1,2.9536e-05,295.16,2.8257e-05,264.69,-6.9713e-06,-0.0032094,-1.4104e-05,-53.593,2.6041
21824,22.615,0.72727,0.1,3.1702e-05,316.8,3.0354e-05,284.62,-7.5276e-06,-0.0075244,-1.5072e-05,-56.692,2.5887
21825,22.707,0.45455,0.1,2.892e-05,289,2.7907e-05,264.23,-7.2544e-06,0.04048,-1.3173e-05,-44.426,2.6039
21826,22.615,0.54545,0.1,3.109e-05,310.68,2.9997e-05,283.96,-7.7952e-06,0.007307,-1.4169e-05,-47.884,2.5886
21827,22.707,0.27273,0.1,2.8601e-05,285.82,2.7796e-05,265.62,-7.5473e-06,0.065905,-1.2463e-05,-36.871,2.6037
21828,22.615,0.36364,0.1,3.0578e-05,305.57,2.9716e-05,283.97,-8.0682e-06,0.075096,-1.3325e-05,-39.423,2.5884
21829,22.615,0.18182,0.1,3.0585e-05,305.64,2.9864e-05,287.22,-8.3572e-06,0.035083,-1.2892e-05,-34.037,2.5882
21830,22.707,0.090909,0.1,2.7235e-05,272.16,2.6772e-05,259.97,-7.8279e-06,-0.0012634,-1.088e-05,-22.93,2.6035
21831,22.522,5.7273,0.1,3.25e-05,324.78,3.1733e-05,305.18,-8.8761e-06,0.058634,-1.3703e-05,-36.212,2.5729
21832,22.43,5.8182,0.1,3.4534e-05,345.1,3.3833e-05,326.94,-9.6763e-06,0.027684,-1.4184e-05,-33.839,2.5575
21833,22.522,5.9091,0.1,3.1154e-05,311.32,3.0704e-05,299.31,-9.1312e-06,0.002318,-1.2164e-05,-22.787,2.5728
21834,22.522,5.5455,0.1,3.2722e-05,326.99,3.1785e-05,303.55,-8.6092e-06,0.039701,-1.43e-05,-42.721,2.5731
21835,22.43,5.6364,0.1,3.4443e-05,344.19,3.3633e-05,323.49,-9.4119e-06,0.070089,-1.4514e-05,-38.267,2.5577
21836,22.522,5.3636,0.1,3.3238e-05,332.15,3.2079e-05,303.78,-8.3518e-06,0.00093453,-1.5122e-05,-50.866,2.5733
21837,22.43,5.4545,0.1,3.4866e-05,348.42,3.3861e-05,323.28,-9.1631e-06,0.0096315,-1.5256e-05,-45.77,2.5578
21838,22.522,5.1818,0.1,3.3821e-05,337.98,3.2424e-05,304.49,-8.1028e-06,-0.013591,-1.5975e-05,-59.161,2.5734
21839,22.43,5.2727,0.1,3.5386e-05,353.61,3.4166e-05,323.73,-8.9193e-06,-0.0033164,-1.6058e-05,-53.641,2.558
21840,22.522,5,0.1,3.4426e-05,344.03,3.2785e-05,305.41,-7.8666e-06,-0.026265,-1.6817e-05,-67.273,2.5736
21841,22.43,5.0909,0.1,3.5945e-05,359.2,3.4502e-05,324.48,-8.6866e-06,-0.018327,-1.6868e-05,-61.488,2.5582
21842,22.522,4.8182,0.1,3.5024e-05,350,3.314e-05,306.41,-7.6458e-06,-0.034978,-1.7621e-05,-74.987,2.5737
21843,22.43,4.9091,0.1,3.6512e-05,364.87,3.4843e-05,325.39,-8.4671e-06,-0.027904,-1.7656e-05,-69.072,2.5583
21844,22.522,4.6364,0.1,3.5593e-05,355.68,3.3476e-05,307.4,-7.4425e-06,-0.041578,-1.8371e-05,-82.155,2.5739
21845,22.43,4.7273,0.1,3.7065e-05,370.39,3.5175e-05,326.34,-8.2632e-06,-0.035354,-1.8403e-05,-76.22,2.5584
21846,22.522,4.4545,0.1,3.612e-05,360.95,3.3784e-05,308.33,-7.2582e-06,-0.046501,-1.9054e-05,-88.677,2.574
21847,22.43,4.5455,0.1,3.7586e-05,375.6,3.5486e-05,327.27,-8.0767e-06,-0.040861,-1.9093e-05,-82.813,2.5586
21848,22.522,4.2727,0.1,3.6595e-05,365.7,3.406e-05,309.16,-7.094e-06,-0.050241,-1.9663e-05,-94.492,2.5741
21849,22.43,4.3636,0.1,3.8064e-05,380.38,3.5769e-05,328.13,-7.9089e-06,-0.045056,-1.9717e-05,-88.768,2.5587
21850,22.522,4.0909,0.1,3.7013e-05,369.87,3.43e-05,309.89,-6.9508e-06,-0.053085,-2.0195e-05,-99.561,2.5742
21851,22.43,4.1818,0.1,3.8492e-05,384.65,3.602e-05,328.9,-7.7608e-06,-0.048247,-2.027e-05,-94.034,2.5588
21852,22.522,3.9091,0.1,3.737e-05,373.44,3.4503e-05,310.5,-6.8291e-06,-0.055245,-2.0645e-05,-103.86,2.5743
21853,22.43,4,0.1,3.8864e-05,388.37,3.6236e-05,329.57,-7.633e-06,-0.050681,-2.0746e-05,-98.577,2.5589
21854,22.522,3.7273,0.1,3.7663e-05,376.37,3.4669e-05,310.99,-6.7292e-06,-0.056864,-2.1014e-05,-107.39,2.5743
21855,22.43,3.8182,0.1,3.9177e-05,391.5,3.6417e-05,330.12,-7.5259e-06,-0.052522,-2.1145e-05,-102.38,2.5589
21856,22.522,3.5455,0.1,3.7893e-05,378.66,3.4798e-05,311.37,-6.6513e-06,-0.058039,-2.1301e-05,-110.13,2.5744
21857,22.43,3.6364,0.1,3.9428e-05,394.01,3.6562e-05,330.56,-7.44e-06,-0.053885,-2.1464e-05,-105.42,2.559
21858,22.522,3.3636,0.1,3.8057e-05,380.3,3.4889e-05,311.64,-6.5957e-06,-0.058836,-2.1506e-05,-112.09,2.5744
21859,22.43,3.4545,0.1,3.9618e-05,395.91,3.6671e-05,330.89,-7.3754e-06,-0.054847,-2.1704e-05,-107.71,2.559
21860,22.522,3.1818,0.1,3.8155e-05,381.29,3.4944e-05,311.81,-6.5622e-06,-0.059299,-2.1629e-05,-113.27,2.5744
21861,22.43,3.2727,0.1,3.9745e-05,397.17,3.6743e-05,331.11,-7.3323e-06,-0.055462,-2.1864e-05,-109.24,2.5591
21862,22.522,3,0.1,3.8188e-05,381.62,3.4963e-05,311.86,-6.5511e-06,-0.05945,-2.167e-05,-113.66,2.5744
21863,22.43,3.0909,0.1,3.9808e-05,397.81,3.6779e-05,331.22,-7.3108e-06,-0.055763,-2.1944e-05,-110,2.5591
21864,22.522,2.8182,0.1,3.8155e-05,381.29,3.4944e-05,311.81,-6.5622e-06,-0.059299,-2.1629e-05,-113.27,2.5744
21865,22.43,2.9091,0.1,3.9808e-05,397.81,3.6779e-05,331.22,-7.3108e-06,-0.055762,-2.1944e-05,-110,2.5591
21866,22.522,2.6364,0.1,3.8057e-05,380.3,3.4889e-05,311.64,-6.5957e-06,-0.058837,-2.1506e-05,-112.09,2.5744
21867,22.43,2.7273,0.1,3.9745e-05,397.17,3.6743e-05,331.11,-7.3323e-06,-0.055463,-2.1864e-05,-109.24,2.5591
21868,22.522,2.4545,0.1,3.7893e-05,378.66,3.4798e-05,311.37,-6.6513e-06,-0.058039,-2.1301e-05,-110.13,2.5744
21869,22.43,2.5455,0.1,3.9618e-05,395.91,3.6671e-05,330.89,-7.3754e-06,-0.054847,-2.1704e-05,-107.71,2.559
21870,22.522,2.2727,0.1,3.7663e-05,376.37,3.4669e-05,310.99,-6.7292e-06,-0.056864,-2.1014e-05,-107.39,2.5743
21871,22.43,2.3636,0.1,3.9428e-05,394.01,3.6562e-05,330.56,-7.44e-06,-0.053885,-2.1464e-05,-105.42,2.559
21872,22.522,2.0909,0.1,3.737e-05,373.44,3.4503e-05,310.5,-6.8291e-06,-0.055246,-2.0645e-05,-103.86,2.5743
21873,22.43,2.1818,0.1,3.9177e-05,391.5,3.6417e-05,330.12,-7.5259e-06,-0.052522,-2.1145e-05,-102.38,2.5589
21874,22.522,1.9091,0.1,3.7013e-05,369.87,3.43e-05,309.89,-6.9508e-06,-0.053086,-2.0195e-05,-99.561,2.5742
21875,22.43,2,0.1,3.8864e-05,388.37,3.6236e-05,329.57,-7.633e-06,-0.050683,-2.0746e-05,-98.577,2.5589
21876,22.522,1.7273,0.1,3.6595e-05,365.7,3.406e-05,309.16,-7.094e-06,-0.05024,-1.9663e-05,-94.492,2.5741
21877,22.43,1.8182,0.1,3.8492e-05,384.65,3.602e-05,328.9,-7.7608e-06,-0.048247,-2.027e-05,-94.034,2.5588
21878,22.522,1.5455,0.1,3.612e-05,360.95,3.3784e-05,308.33,-7.2582e-06,-0.046501,-1.9054e-05,-88.677,2.574
21879,22.43,1.6364,0.1,3.8064e-05,380.38,3.5769e-05,328.13,-7.9089e-06,-0.045055,-1.9717e-05,-88.768,2.5587
21880,22.522,1.3636,0.1,3.5593e-05,355.68,3.3476e-05,307.4,-7.4425e-06,-0.041579,-1.8371e-05,-82.155,2.5739
21881,22.43,1.4545,0.1,3.7586e-05,375.6,3.5486e-05,327.27,-8.0767e-06,-0.040862,-1.9093e-05,-82.813,2.5586
21882,22.522,1.1818,0.1,3.5024e-05,350,3.314e-05,306.41,-7.6458e-06,-0.03498,-1.7621e-05,-74.987,2.5737
21883,22.43,1.2727,0.1,3.7065e-05,370.39,3.5175e-05,326.34,-8.2632e-06,-0.035355,-1.8403e-05,-76.22,2.5584
21884,22.522,1,0.1,3.4426e-05,344.03,3.2785e-05,305.41,-7.8666e-06,-0.026267,-1.6817e-05,-67.273,2.5736
21885,22.43,1.0909,0.1,3.6512e-05,364.87,3.4843e-05,325.39,-8.4671e-06,-0.027906,-1.7656e-05,-69.072,2.5583
21886,22.522,0.81818,0.1,3.3821e-05,337.98,3.2424e-05,304.49,-8.1028e-06,-0.013593,-1.5975e-05,-59.161,2.5734
21887,22.43,0.90909,0.1,3.5945e-05,359.2,3.4502e-05,324.48,-8.6866e-06,-0.018329,-1.6868e-05,-61.488,2.5582
21888,22.522,0.63636,0.1,3.3238e-05,332.15,3.2079e-05,303.78,-8.3518e-06,0.00093417,-1.5122e-05,-50.866,2.5733
21889,22.43,0.72727,0.1,3.5386e-05,353.61,3.4166e-05,323.73,-8.9193e-06,-0.0033177,-1.6058e-05,-53.641,2.558
21890,22.522,0.45455,0.1,3.2722e-05,326.99,3.1785e-05,303.55,-8.6092e-06,0.039702,-1.43e-05,-42.721,2.5731
21891,22.43,0.54545,0.1,3.4866e-05,348.42,3.3861e-05,323.28,-9.1631e-06,0.0096323,-1.5256e-05,-45.77,2.5578
21892,22.522,0.27273,0.1,3.25e-05,324.78,3.1733e-05,305.18,-8.8761e-06,0.058637,-1.3703e-05,-36.212,2.5729
21893,22.43,0.36364,0.1,3.4443e-05,344.19,3.3633e-05,323.49,-9.4119e-06,0.070092,-1.4514e-05,-38.267,2.5577
21894,22.43,0.18182,0.1,3.4534e-05,345.1,3.3833e-05,326.94,-9.6763e-06,0.027687,-1.4184e-05,-33.839,2.5575
21895,22.522,0.090909,0.1,3.1154e-05,311.32,3.0704e-05,299.31,-9.1312e-06,0.0023178,-1.2164e-05,-22.787,2.5728
21896,22.338,5.7273,0.1,3.6421e-05,363.96,3.5686e-05,344.9,-1.021e-05,0.052444,-1.4949e-05,-35.549,2.5422
21897,22.245,5.8182,0.1,3.8495e-05,384.68,3.7814e-05,366.81,-1.1002e-05,0.021916,-1.5473e-05,-33.567,2.5267
21898,22.338,5.9091,0.1,3.5095e-05,350.7,3.4656e-05,338.86,-1.0444e-05,0.0047234,-1.3451e-05,-22.592,2.542
21899,22.338,5.5455,0.1,3.6564e-05,365.39,3.569e-05,343.08,-9.9659e-06,0.038391,-1.5451e-05,-41.173,2.5424
21900,22.245,5.6364,0.1,3.8338e-05,383.11,3.757e-05,363.19,-1.0759e-05,0.06533,-1.5717e-05,-37.183,2.5269
21901,22.338,5.3636,0.1,3.6997e-05,369.72,3.5934e-05,343.11,-9.7307e-06,0.0037379,-1.6178e-05,-48.435,2.5425
21902,22.245,5.4545,0.1,3.8687e-05,386.6,3.7754e-05,362.81,-1.0531e-05,0.010996,-1.6371e-05,-43.863,2.5271
21903,22.338,5.1818,0.1,3.7497e-05,374.71,3.6232e-05,343.63,-9.5032e-06,-0.0092825,-1.6939e-05,-55.881,2.5427
21904,22.245,5.2727,0.1,3.9129e-05,391.02,3.8013e-05,363.07,-1.0308e-05,-0.00037328,-1.7084e-05,-50.912,2.5273
21905,22.338,5,0.1,3.8023e-05,379.97,3.6551e-05,344.39,-9.2871e-06,-0.020921,-1.7698e-05,-63.218,2.5429
21906,22.245,5.0909,0.1,3.9611e-05,395.84,3.8305e-05,363.64,-1.0095e-05,-0.014067,-1.781e-05,-57.983,2.5274
21907,22.338,4.8182,0.1,3.855e-05,385.23,3.6871e-05,345.26,-9.0846e-06,-0.029059,-1.843e-05,-70.249,2.543
21908,22.245,4.9091,0.1,4.0108e-05,400.8,3.8608e-05,364.4,-9.8939e-06,-0.022952,-1.8524e-05,-64.864,2.5276
21909,22.338,4.6364,0.1,3.9058e-05,390.31,3.7179e-05,346.16,-8.8976e-06,-0.035305,-1.9119e-05,-76.834,2.5431
21910,22.245,4.7273,0.1,4.0597e-05,405.69,3.8908e-05,365.24,-9.7065e-06,-0.029961,-1.9205e-05,-71.398,2.5277
21911,22.338,4.4545,0.1,3.9533e-05,395.06,3.7465e-05,347.04,-8.7276e-06,-0.040013,-1.9751e-05,-82.867,2.5433
21912,22.245,4.5455,0.1,4.1064e-05,410.36,3.9194e-05,366.09,-9.5347e-06,-0.035208,-1.984e-05,-77.466,2.5278
21913,22.338,4.2727,0.1,3.9966e-05,399.38,3.7725e-05,347.84,-8.5758e-06,-0.043613,-2.0319e-05,-88.279,2.5434
21914,22.245,4.3636,0.1,4.1497e-05,414.68,3.9457e-05,366.9,-9.3798e-06,-0.039237,-2.0419e-05,-82.981,2.528
21915,22.338,4.0909,0.1,4.0349e-05,403.21,3.7953e-05,348.55,-8.443e-06,-0.046365,-2.0817e-05,-93.023,2.5435
21916,22.245,4.1818,0.1,4.1887e-05,418.58,3.9693e-05,367.64,-9.2426e-06,-0.042322,-2.0934e-05,-87.885,2.5281
21917,22.338,3.9091,0.1,4.0678e-05,406.5,3.8148e-05,349.16,-8.3298e-06,-0.04846,-2.1242e-05,-97.066,2.5435
21918,22.245,4,0.1,4.2228e-05,421.99,3.9899e-05,368.29,-9.124e-06,-0.044685,-2.138e-05,-92.134,2.5281
21919,22.338,3.7273,0.1,4.095e-05,409.22,3.8308e-05,349.67,-8.2368e-06,-0.050032,-2.1591e-05,-100.39,2.5436
21920,22.245,3.8182,0.1,4.2516e-05,424.87,4.0072e-05,368.84,-9.0245e-06,-0.046478,-2.1755e-05,-95.702,2.5282
21921,22.338,3.5455,0.1,4.1163e-05,411.35,3.8432e-05,350.06,-8.1642e-06,-0.051174,-2.1864e-05,-102.98,2.5436
21922,22.245,3.6364,0.1,4.275e-05,427.2,4.0211e-05,369.28,-8.9445e-06,-0.047805,-2.2057e-05,-98.571,2.5283
21923,22.338,3.3636,0.1,4.1316e-05,412.88,3.8522e-05,350.34,-8.1122e-06,-0.051949,-2.2058e-05,-104.84,2.5437
21924,22.245,3.4545,0.1,4.2926e-05,428.96,4.0315e-05,369.62,-8.8843e-06,-0.048745,-2.2284e-05,-100.73,2.5283
21925,22.338,3.1818,0.1,4.1408e-05,413.8,3.8575e-05,350.5,-8.0809e-06,-0.052399,-2.2176e-05,-105.95,2.5437
21926,22.245,3.2727,0.1,4.3044e-05,430.14,4.0385e-05,369.84,-8.8441e-06,-0.049345,-2.2436e-05,-102.17,2.5284
21927,22.338,3,0.1,4.1439e-05,414.1,3.8593e-05,350.56,-8.0705e-06,-0.052548,-2.2215e-05,-106.33,2.5437
21928,22.245,3.0909,0.1,4.3103e-05,430.73,4.042e-05,369.95,-8.8239e-06,-0.049638,-2.2512e-05,-102.89,2.5284
21929,22.338,2.8182,0.1,4.1408e-05,413.8,3.8575e-05,350.5,-8.0809e-06,-0.0524,-2.2176e-05,-105.95,2.5437
21930,22.245,2.9091,0.1,4.3103e-05,430.73,4.042e-05,369.95,-8.8239e-06,-0.049639,-2.2512e-05,-102.89,2.5284
21931,22.338,2.6364,0.1,4.1316e-05,412.88,3.8522e-05,350.34,-8.1122e-06,-0.05195,-2.2058e-05,-104.84,2.5437
21932,22.245,2.7273,0.1,4.3044e-05,430.14,4.0385e-05,369.84,-8.8441e-06,-0.049346,-2.2436e-05,-102.17,2.5284
21933,22.338,2.4545,0.1,4.1163e-05,411.35,3.8432e-05,350.06,-8.1642e-06,-0.051174,-2.1864e-05,-102.98,2.5436
21934,22.245,2.5455,0.1,4.2926e-05,428.96,4.0315e-05,369.62,-8.8843e-06,-0.048745,-2.2284e-05,-100.73,2.5283
21935,22.338,2.2727,0.1,4.095e-05,409.22,3.8308e-05,349.67,-8.2368e-06,-0.050032,-2.1591e-05,-100.39,2.5436
21936,22.245,2.3636,0.1,4.275e-05,427.2,4.0211e-05,369.28,-8.9445e-06,-0.047806,-2.2057e-05,-98.571,2.5283
21937,22.338,2.0909,0.1,4.0678e-05,406.5,3.8148e-05,349.16,-8.3299e-06,-0.04846,-2.1242e-05,-97.066,2.5435
21938,22.245,2.1818,0.1,4.2516e-05,424.87,4.0072e-05,368.84,-9.0245e-06,-0.046477,-2.1755e-05,-95.702,2.5282
21939,22.338,1.9091,0.1,4.0349e-05,403.21,3.7953e-05,348.55,-8.443e-06,-0.046365,-2.0817e-05,-93.023,2.5435
21940,22.245,2,0.1,4.2228e-05,421.99,3.9899e-05,368.29,-9.124e-06,-0.044686,-2.138e-05,-92.134,2.5281
21941,22.338,1.7273,0.1,3.9966e-05,399.38,3.7725e-05,347.84,-8.5758e-06,-0.043613,-2.0319e-05,-88.279,2.5434
21942,22.245,1.8182,0.1,4.1887e-05,418.58,3.9693e-05,367.64,-9.2426e-06,-0.042322,-2.0934e-05,-87.884,2.5281
21943,22.338,1.5455,0.1,3.9533e-05,395.06,3.7465e-05,347.04,-8.7276e-06,-0.040013,-1.9751e-05,-82.867,2.5433
21944,22.245,1.6364,0.1,4.1497e-05,414.68,3.9457e-05,366.9,-9.3798e-06,-0.039237,-2.0419e-05,-82.981,2.528
21945,22.338,1.3636,0.1,3.9058e-05,390.31,3.7179e-05,346.16,-8.8976e-06,-0.035306,-1.9119e-05,-76.833,2.5431
21946,22.245,1.4545,0.1,4.1064e-05,410.36,3.9194e-05,366.09,-9.5348e-06,-0.035209,-1.984e-05,-77.466,2.5278
21947,22.338,1.1818,0.1,3.855e-05,385.23,3.6871e-05,345.26,-9.0846e-06,-0.02906,-1.843e-05,-70.249,2.543
21948,22.245,1.2727,0.1,4.0597e-05,405.69,3.8908e-05,365.24,-9.7066e-06,-0.029963,-1.9205e-05,-71.398,2.5277
21949,22.338,1,0.1,3.8023e-05,379.97,3.6551e-05,344.39,-9.2871e-06,-0.020922,-1.7698e-05,-63.218,2.5429
21950,22.245,1.0909,0.1,4.0108e-05,400.8,3.8608e-05,364.4,-9.8939e-06,-0.022952,-1.8524e-05,-64.864,2.5276
21951,22.338,0.81818,0.1,3.7497e-05,374.71,3.6232e-05,343.63,-9.5032e-06,-0.0092835,-1.6939e-05,-55.881,2.5427
21952,22.245,0.90909,0.1,3.9611e-05,395.84,3.8305e-05,363.64,-1.0095e-05,-0.014069,-1.781e-05,-57.983,2.5274
21953,22.338,0.63636,0.1,3.6997e-05,369.72,3.5934e-05,343.11,-9.7308e-06,0.0037377,-1.6178e-05,-48.435,2.5425
21954,22.245,0.72727,0.1,3.9129e-05,391.02,3.8013e-05,363.07,-1.0308e-05,-0.00037545,-1.7084e-05,-50.912,2.5273
21955,22.338,0.45455,0.1,3.6564e-05,365.39,3.569e-05,343.08,-9.9659e-06,0.038393,-1.5451e-05,-41.173,2.5424
21956,22.245,0.54545,0.1,3.8687e-05,386.6,3.7754e-05,362.81,-1.0531e-05,0.010996,-1.6371e-05,-43.863,2.5271
21957,22.338,0.27273,0.1,3.6421e-05,363.96,3.5686e-05,344.9,-1.021e-05,0.052446,-1.4949e-05,-35.549,2.5422
21958,22.245,0.36364,0.1,3.8338e-05,383.11,3.757e-05,363.19,-1.0759e-05,0.065333,-1.5717e-05,-37.183,2.5269
21959,22.245,0.18182,0.1,3.8495e-05,384.68,3.7814e-05,366.81,-1.1002e-05,0.021915,-1.5473e-05,-33.567,2.5267
21960,22.338,0.090909,0.1,3.5095e-05,350.71,3.4656e-05,338.86,-1.0444e-05,0.004723,-1.3451e-05,-22.592,2.542
21961,22.153,5.7273,0.1,4.036e-05,403.32,3.9654e-05,384.77,-1.155e-05,0.047075,-1.6198e-05,-34.881,2.5115
21962,22.061,5.8182,0.1,4.2469e-05,424.39,4.1806e-05,406.81,-1.2335e-05,0.017344,-1.676e-05,-33.235,2.496
21963,22.153,5.9091,0.1,3.9054e-05,390.28,3.8626e-05,378.62,-1.1764e-05,0.0062939,-1.4741e-05,-22.357,2.5113
21964,22.153,5.5455,0.1,4.044e-05,404.12,3.9617e-05,382.79,-1.1325e-05,0.036728,-1.6619e-05,-39.743,2.5116
21965,22.061,5.6364,0.1,4.2256e-05,422.27,4.1525e-05,403.06,-1.211e-05,0.060856,-1.693e-05,-36.153,2.4962
21966,22.153,5.3636,0.1,4.0803e-05,407.74,3.9819e-05,382.66,-1.1109e-05,0.0055492,-1.7264e-05,-46.237,2.5118
21967,22.061,5.4545,0.1,4.2544e-05,425.14,4.1671e-05,402.52,-1.19e-05,0.011708,-1.7507e-05,-42.117,2.4964
21968,22.153,5.1818,0.1,4.123e-05,412.02,4.0074e-05,383,-1.09e-05,-0.0061729,-1.7944e-05,-52.93,2.512
21969,22.061,5.2727,0.1,4.2919e-05,428.89,4.1889e-05,402.61,-1.1696e-05,0.0016686,-1.8143e-05,-48.442,2.4966
21970,22.153,5,0.1,4.1687e-05,416.58,4.0353e-05,383.59,-1.0702e-05,-0.016887,-1.8627e-05,-59.561,2.5122
21971,22.061,5.0909,0.1,4.3334e-05,433.04,4.2141e-05,403.02,-1.15e-05,-0.010864,-1.8794e-05,-54.816,2.4967
21972,22.153,4.8182,0.1,4.215e-05,421.21,4.0638e-05,384.33,-1.0516e-05,-0.024493,-1.9291e-05,-65.957,2.5123
21973,22.061,4.9091,0.1,4.3768e-05,437.37,4.2408e-05,403.63,-1.1315e-05,-0.019115,-1.9438e-05,-61.052,2.4969
21974,22.153,4.6364,0.1,4.2601e-05,425.72,4.0917e-05,385.12,-1.0344e-05,-0.030405,-1.992e-05,-71.984,2.5124
21975,22.061,4.7273,0.1,4.42e-05,441.69,4.2677e-05,404.35,-1.1142e-05,-0.025715,-2.0057e-05,-67.01,2.497
21976,22.153,4.4545,0.1,4.3028e-05,429.98,4.118e-05,385.92,-1.0187e-05,-0.034908,-2.0502e-05,-77.541,2.5126
21977,22.061,4.5455,0.1,4.4616e-05,445.85,4.2936e-05,405.1,-1.0984e-05,-0.03071,-2.0639e-05,-72.574,2.4972
21978,22.153,4.2727,0.1,4.3419e-05,433.89,4.1421e-05,386.67,-1.0047e-05,-0.038378,-2.1029e-05,-82.553,2.5127
21979,22.061,4.3636,0.1,4.5005e-05,449.74,4.3178e-05,405.84,-1.0841e-05,-0.034581,-2.1172e-05,-77.66,2.4973
21980,22.153,4.0909,0.1,4.3768e-05,437.38,4.1635e-05,387.35,-9.9237e-06,-0.041046,-2.1493e-05,-86.966,2.5128
21981,22.061,4.1818,0.1,4.5359e-05,453.27,4.3397e-05,406.53,-1.0714e-05,-0.037567,-2.165e-05,-82.202,2.4974
21982,22.153,3.9091,0.1,4.407e-05,440.4,4.1819e-05,387.94,-9.8187e-06,-0.043088,-2.189e-05,-90.744,2.5128
21983,22.061,4,0.1,4.567e-05,456.38,4.359e-05,407.15,-1.0604e-05,-0.039866,-2.2065e-05,-86.156,2.4975
21984,22.153,3.7273,0.1,4.4321e-05,442.9,4.1971e-05,388.44,-9.7322e-06,-0.044623,-2.2218e-05,-93.859,2.5129
21985,22.061,3.8182,0.1,4.5934e-05,459.03,4.3753e-05,407.68,-1.0512e-05,-0.041616,-2.2416e-05,-89.487,2.4975
21986,22.153,3.5455,0.1,4.4518e-05,444.87,4.2091e-05,388.82,-9.6646e-06,-0.045739,-2.2475e-05,-96.296,2.513
21987,22.061,3.6364,0.1,4.6149e-05,461.17,4.3884e-05,408.11,-1.0437e-05,-0.042915,-2.2699e-05,-92.173,2.4976
21988,22.153,3.3636,0.1,4.466e-05,446.29,4.2176e-05,389.1,-9.6162e-06,-0.046498,-2.2659e-05,-98.043,2.513
21989,22.061,3.4545,0.1,4.6312e-05,462.8,4.3984e-05,408.44,-1.0381e-05,-0.043837,-2.2913e-05,-94.199,2.4976
21990,22.153,3.1818,0.1,4.4745e-05,447.14,4.2228e-05,389.27,-9.5871e-06,-0.046939,-2.2769e-05,-99.093,2.513
21991,22.061,3.2727,0.1,4.6421e-05,463.89,4.4051e-05,408.66,-1.0344e-05,-0.044427,-2.3056e-05,-95.554,2.4977
21992,22.153,3,0.1,4.4774e-05,447.43,4.2245e-05,389.32,-9.5774e-06,-0.047083,-2.2806e-05,-99.444,2.513
21993,22.061,3.0909,0.1,4.6476e-05,464.44,4.4084e-05,408.77,-1.0325e-05,-0.044714,-2.3127e-05,-96.234,2.4977
21994,22.153,2.8182,0.1,4.4745e-05,447.14,4.2228e-05,389.27,-9.5871e-06,-0.046939,-2.2769e-05,-99.093,2.513
21995,22.061,2.9091,0.1,4.6476e-05,464.44,4.4084e-05,408.77,-1.0325e-05,-0.044713,-2.3127e-05,-96.234,2.4977
21996,22.153,2.6364,0.1,4.466e-05,446.29,4.2176e-05,389.1,-9.6162e-06,-0.046499,-2.2659e-05,-98.043,2.513
21997,22.061,2.7273,0.1,4.6421e-05,463.89,4.4051e-05,408.66,-1.0344e-05,-0.044426,-2.3056e-05,-95.554,2.4977
21998,22.153,2.4545,0.1,4.4518e-05,444.87,4.2091e-05,388.82,-9.6646e-06,-0.04574,-2.2475e-05,-96.296,2.513
21999,22.061,2.5455,0.1,4.6312e-05,462.8,4.3984e-05,408.44,-1.0381e-05,-0.043837,-2.2913e-05,-94.199,2.4976
22000,22.153,2.2727,0.1,4.4321e-05,442.9,4.1971e-05,388.44,-9.7322e-06,-0.044623,-2.2218e-05,-93.859,2.5129
22001,22.061,2.3636,0.1,4.6149e-05,461.17,4.3884e-05,408.11,-1.0437e-05,-0.042916,-2.2699e-05,-92.173,2.4976
22002,22.153,2.0909,0.1,4.407e-05,440.4,4.1819e-05,387.94,-9.8187e-06,-0.043088,-2.189e-05,-90.744,2.5128
22003,22.061,2.1818,0.1,4.5934e-05,459.03,4.3753e-05,407.68,-1.0512e-05,-0.041616,-2.2416e-05,-89.487,2.4975
22004,22.153,1.9091,0.1,4.3768e-05,437.38,4.1635e-05,387.35,-9.9237e-06,-0.041047,-2.1493e-05,-86.966,2.5128
22005,22.061,2,0.1,4.567e-05,456.38,4.359e-05,407.15,-1.0604e-05,-0.039867,-2.2065e-05,-86.156,2.4975
22006,22.153,1.7273,0.1,4.3419e-05,433.89,4.1421e-05,386.67,-1.0047e-05,-0.038379,-2.1029e-05,-82.553,2.5127
22007,22.061,1.8182,0.1,4.5359e-05,453.27,4.3397e-05,406.53,-1.0714e-05,-0.037567,-2.165e-05,-82.202,2.4974
22008,22.153,1.5455,0.1,4.3028e-05,429.98,4.118e-05,385.92,-1.0187e-05,-0.034909,-2.0502e-05,-77.541,2.5126
22009,22.061,1.6364,0.1,4.5005e-05,449.74,4.3178e-05,405.84,-1.0841e-05,-0.034582,-2.1172e-05,-77.66,2.4973
22010,22.153,1.3636,0.1,4.2601e-05,425.72,4.0917e-05,385.12,-1.0344e-05,-0.030407,-1.992e-05,-71.984,2.5124
22011,22.061,1.4545,0.1,4.4616e-05,445.85,4.2936e-05,405.1,-1.0984e-05,-0.030711,-2.0639e-05,-72.574,2.4972
22012,22.153,1.1818,0.1,4.215e-05,421.21,4.0638e-05,384.33,-1.0516e-05,-0.024494,-1.9291e-05,-65.957,2.5123
22013,22.061,1.2727,0.1,4.42e-05,441.69,4.2677e-05,404.35,-1.1142e-05,-0.025716,-2.0057e-05,-67.01,2.497
22014,22.153,1,0.1,4.1687e-05,416.58,4.0353e-05,383.59,-1.0702e-05,-0.016887,-1.8627e-05,-59.561,2.5122
22015,22.061,1.0909,0.1,4.3768e-05,437.37,4.2408e-05,403.63,-1.1315e-05,-0.019116,-1.9438e-05,-61.052,2.4969
22016,22.153,0.81818,0.1,4.123e-05,412.02,4.0074e-05,383,-1.09e-05,-0.0061756,-1.7944e-05,-52.93,2.512
22017,22.061,0.90909,0.1,4.3334e-05,433.04,4.2141e-05,403.02,-1.15e-05,-0.010865,-1.8794e-05,-54.816,2.4967
22018,22.153,0.63636,0.1,4.0803e-05,407.74,3.9819e-05,382.66,-1.1109e-05,0.0055479,-1.7264e-05,-46.237,2.5118
22019,22.061,0.72727,0.1,4.2919e-05,428.89,4.1889e-05,402.61,-1.1696e-05,0.0016666,-1.8143e-05,-48.442,2.4966
22020,22.153,0.45455,0.1,4.044e-05,404.12,3.9617e-05,382.79,-1.1325e-05,0.036731,-1.6619e-05,-39.743,2.5116
22021,22.061,0.54545,0.1,4.2544e-05,425.14,4.1671e-05,402.52,-1.19e-05,0.011711,-1.7507e-05,-42.117,2.4964
22022,22.153,0.27273,0.1,4.036e-05,403.32,3.9654e-05,384.77,-1.155e-05,0.047076,-1.6198e-05,-34.881,2.5115
22023,22.061,0.36364,0.1,4.2256e-05,422.27,4.1525e-05,403.06,-1.211e-05,0.060859,-1.693e-05,-36.153,2.4962
22024,22.061,0.18182,0.1,4.2469e-05,424.39,4.1806e-05,406.81,-1.2335e-05,0.017338,-1.676e-05,-33.235,2.496
22025,22.153,0.090909,0.1,3.9054e-05,390.28,3.8626e-05,378.62,-1.1764e-05,0.0062912,-1.4741e-05,-22.357,2.5113
22026,21.968,5.7273,0.1,4.4316e-05,442.86,4.3636e-05,424.78,-1.2894e-05,0.042431,-1.7452e-05,-34.208,2.4807
22027,21.876,5.8182,0.1,4.6454e-05,464.22,4.5808e-05,446.92,-1.3672e-05,0.013703,-1.8047e-05,-32.855,2.4653
22028,21.968,5.9091,0.1,4.3031e-05,430.02,4.2613e-05,418.55,-1.3091e-05,0.0073187,-1.6032e-05,-22.09,2.4805
22029,21.968,5.5455,0.1,4.4341e-05,443.11,4.3563e-05,422.67,-1.2686e-05,0.034938,-1.7802e-05,-38.408,2.4809
22030,21.876,5.6364,0.1,4.6195e-05,461.63,4.5497e-05,443.07,-1.3464e-05,0.056713,-1.8152e-05,-35.166,2.4655
22031,21.968,5.3636,0.1,4.4645e-05,446.14,4.3728e-05,422.39,-1.2487e-05,0.0067272,-1.8374e-05,-44.227,2.4811
22032,21.876,5.4545,0.1,4.643e-05,463.98,4.5609e-05,442.41,-1.3271e-05,0.012016,-1.8663e-05,-40.501,2.4657
22033,21.968,5.1818,0.1,4.5011e-05,449.8,4.3945e-05,422.56,-1.2295e-05,-0.0038735,-1.8982e-05,-50.248,2.4813
22034,21.876,5.2727,0.1,4.6748e-05,467.15,4.579e-05,442.35,-1.3082e-05,0.003101,-1.9229e-05,-46.185,2.4659
22035,21.968,5,0.1,4.5406e-05,453.75,4.4187e-05,423,-1.2113e-05,-0.013757,-1.9596e-05,-56.24,2.4815
22036,21.876,5.0909,0.1,4.7105e-05,470.73,4.6006e-05,442.6,-1.2902e-05,-0.0084046,-1.9812e-05,-51.932,2.4661
22037,21.968,4.8182,0.1,4.5811e-05,457.8,4.4439e-05,423.6,-1.1941e-05,-0.020874,-2.0197e-05,-62.049,2.4816
22038,21.876,4.9091,0.1,4.7482e-05,474.49,4.6239e-05,443.07,-1.2731e-05,-0.016079,-2.0393e-05,-57.58,2.4662
22039,21.968,4.6364,0.1,4.6211e-05,461.79,4.4689e-05,424.28,-1.1783e-05,-0.026471,-2.077e-05,-67.552,2.4818
22040,21.876,4.7273,0.1,4.7862e-05,478.29,4.6478e-05,443.66,-1.2573e-05,-0.022296,-2.0955e-05,-63.001,2.4664
22041,21.968,4.4545,0.1,4.6592e-05,465.59,4.4928e-05,424.99,-1.1638e-05,-0.030776,-2.1303e-05,-72.652,2.4819
22042,21.876,4.5455,0.1,4.8231e-05,481.98,4.6711e-05,444.31,-1.2426e-05,-0.027051,-2.1485e-05,-68.089,2.4665
22043,21.968,4.2727,0.1,4.6944e-05,469.12,4.5149e-05,425.67,-1.1508e-05,-0.034123,-2.1788e-05,-77.273,2.482
22044,21.876,4.3636,0.1,4.858e-05,485.46,4.6931e-05,444.96,-1.2294e-05,-0.030769,-2.1974e-05,-72.761,2.4666
22045,21.968,4.0909,0.1,4.7261e-05,472.28,4.5347e-05,426.3,-1.1395e-05,-0.036713,-2.2218e-05,-81.36,2.4821
22046,21.876,4.1818,0.1,4.8898e-05,488.64,4.7132e-05,445.59,-1.2177e-05,-0.03366,-2.2414e-05,-76.952,2.4667
22047,21.968,3.9091,0.1,4.7536e-05,475.03,4.5519e-05,426.86,-1.1297e-05,-0.038702,-2.2588e-05,-84.871,2.4822
22048,21.876,4,0.1,4.918e-05,491.46,4.731e-05,446.16,-1.2075e-05,-0.035896,-2.2799e-05,-80.613,2.4668
22049,21.968,3.7273,0.1,4.7765e-05,477.32,4.5662e-05,427.33,-1.1217e-05,-0.040204,-2.2894e-05,-87.775,2.4822
22050,21.876,3.8182,0.1,4.9421e-05,493.87,4.7462e-05,446.65,-1.1989e-05,-0.037606,-2.3125e-05,-83.708,2.4669
22051,21.968,3.5455,0.1,4.7946e-05,479.13,4.5775e-05,427.7,-1.1154e-05,-0.041299,-2.3134e-05,-90.052,2.4823
22052,21.876,3.6364,0.1,4.9618e-05,495.83,4.7585e-05,447.06,-1.192e-05,-0.038881,-2.3389e-05,-86.21,2.467
22053,21.968,3.3636,0.1,4.8077e-05,480.43,4.5856e-05,427.97,-1.1109e-05,-0.042046,-2.3306e-05,-91.688,2.4823
22054,21.876,3.4545,0.1,4.9767e-05,497.33,4.7679e-05,447.37,-1.1868e-05,-0.039785,-2.3588e-05,-88.101,2.467
22055,21.968,3.1818,0.1,4.8155e-05,481.22,4.5904e-05,428.13,-1.1082e-05,-0.042479,-2.341e-05,-92.672,2.4824
22056,21.876,3.2727,0.1,4.9867e-05,498.33,4.7742e-05,447.58,-1.1833e-05,-0.040366,-2.3722e-05,-89.368,2.467
22057,21.968,3,0.1,4.8182e-05,481.49,4.5921e-05,428.19,-1.1073e-05,-0.04262,-2.3445e-05,-93.001,2.4824
22058,21.876,3.0909,0.1,4.9918e-05,498.83,4.7773e-05,447.69,-1.1816e-05,-0.040649,-2.3789e-05,-90.003,2.4671
22059,21.968,2.8182,0.1,4.8155e-05,481.22,4.5904e-05,428.13,-1.1082e-05,-0.042478,-2.341e-05,-92.672,2.4824
22060,21.876,2.9091,0.1,4.9918e-05,498.83,4.7773e-05,447.69,-1.1816e-05,-0.040648,-2.3789e-05,-90.003,2.4671
22061,21.968,2.6364,0.1,4.8077e-05,480.43,4.5856e-05,427.97,-1.1109e-05,-0.042045,-2.3306e-05,-91.688,2.4823
22062,21.876,2.7273,0.1,4.9867e-05,498.33,4.7742e-05,447.58,-1.1833e-05,-0.040367,-2.3722e-05,-89.368,2.467
22063,21.968,2.4545,0.1,4.7946e-05,479.13,4.5775e-05,427.7,-1.1154e-05,-0.041299,-2.3134e-05,-90.052,2.4823
22064,21.876,2.5455,0.1,4.9767e-05,497.33,4.7679e-05,447.37,-1.1868e-05,-0.039785,-2.3588e-05,-88.101,2.467
22065,21.968,2.2727,0.1,4.7765e-05,477.32,4.5662e-05,427.33,-1.1217e-05,-0.040204,-2.2894e-05,-87.775,2.4822
22066,21.876,2.3636,0.1,4.9618e-05,495.83,4.7585e-05,447.06,-1.192e-05,-0.03888,-2.3389e-05,-86.21,2.467
22067,21.968,2.0909,0.1,4.7536e-05,475.03,4.5519e-05,426.86,-1.1297e-05,-0.038702,-2.2588e-05,-84.871,2.4822
22068,21.876,2.1818,0.1,4.9421e-05,493.87,4.7462e-05,446.65,-1.1989e-05,-0.037606,-2.3125e-05,-83.708,2.4669
22069,21.968,1.9091,0.1,4.7261e-05,472.28,4.5347e-05,426.3,-1.1395e-05,-0.036713,-2.2218e-05,-81.36,2.4821
22070,21.876,2,0.1,4.918e-05,491.46,4.731e-05,446.16,-1.2075e-05,-0.035897,-2.2799e-05,-80.613,2.4668
22071,21.968,1.7273,0.1,4.6944e-05,469.12,4.5149e-05,425.67,-1.1508e-05,-0.034124,-2.1788e-05,-77.273,2.482
22072,21.876,1.8182,0.1,4.8898e-05,488.64,4.7132e-05,445.59,-1.2177e-05,-0.033659,-2.2414e-05,-76.952,2.4667
22073,21.968,1.5455,0.1,4.6592e-05,465.59,4.4928e-05,424.99,-1.1638e-05,-0.030778,-2.1303e-05,-72.652,2.4819
22074,21.876,1.6364,0.1,4.858e-05,485.46,4.6931e-05,444.96,-1.2294e-05,-0.03077,-2.1974e-05,-72.761,2.4666
22075,21.968,1.3636,0.1,4.6211e-05,461.79,4.4689e-05,424.28,-1.1783e-05,-0.026472,-2.077e-05,-67.552,2.4818
22076,21.876,1.4545,0.1,4.8231e-05,481.98,4.6711e-05,444.31,-1.2426e-05,-0.027052,-2.1485e-05,-68.089,2.4665
22077,21.968,1.1818,0.1,4.5811e-05,457.8,4.4439e-05,423.6,-1.1941e-05,-0.020876,-2.0197e-05,-62.049,2.4816
22078,21.876,1.2727,0.1,4.7862e-05,478.29,4.6478e-05,443.66,-1.2573e-05,-0.022296,-2.0954e-05,-63.001,2.4664
22079,21.968,1,0.1,4.5406e-05,453.75,4.4187e-05,423,-1.2113e-05,-0.01376,-1.9596e-05,-56.24,2.4815
22080,21.876,1.0909,0.1,4.7482e-05,474.49,4.6239e-05,443.07,-1.2731e-05,-0.016082,-2.0393e-05,-57.58,2.4662
22081,21.968,0.81818,0.1,4.5011e-05,449.8,4.3945e-05,422.56,-1.2295e-05,-0.0038739,-1.8982e-05,-50.248,2.4813
22082,21.876,0.90909,0.1,4.7105e-05,470.73,4.6006e-05,442.6,-1.2902e-05,-0.0084048,-1.9812e-05,-51.932,2.4661
22083,21.968,0.63636,0.1,4.4645e-05,446.14,4.3728e-05,422.39,-1.2487e-05,0.0067297,-1.8374e-05,-44.227,2.4811
22084,21.876,0.72727,0.1,4.6748e-05,467.15,4.579e-05,442.35,-1.3082e-05,0.0031005,-1.9229e-05,-46.185,2.4659
22085,21.968,0.45455,0.1,4.4341e-05,443.11,4.3563e-05,422.67,-1.2686e-05,0.034942,-1.7802e-05,-38.408,2.4809
22086,21.876,0.54545,0.1,4.643e-05,463.98,4.5609e-05,442.41,-1.3271e-05,0.012019,-1.8663e-05,-40.501,2.4657
22087,21.968,0.27273,0.1,4.4316e-05,442.86,4.3636e-05,424.78,-1.2894e-05,0.042427,-1.7452e-05,-34.208,2.4807
22088,21.876,0.36364,0.1,4.6195e-05,461.63,4.5497e-05,443.07,-1.3464e-05,0.056715,-1.8152e-05,-35.166,2.4655
22089,21.876,0.18182,0.1,4.6454e-05,464.22,4.5808e-05,446.92,-1.3672e-05,0.013697,-1.8047e-05,-32.855,2.4653
22090,21.968,0.090909,0.1,4.3031e-05,430.02,4.2613e-05,418.55,-1.3091e-05,0.0073158,-1.6032e-05,-22.09,2.4805
22091,21.783,5.7273,0.1,4.8288e-05,482.54,4.763e-05,464.92,-1.4242e-05,0.0384,-1.871e-05,-33.531,2.4501
22092,21.691,5.8182,0.1,5.0451e-05,504.16,4.9821e-05,487.16,-1.5015e-05,0.010784,-1.9334e-05,-32.437,2.4346
22093,21.783,5.9091,0.1,4.7024e-05,469.92,4.6615e-05,458.64,-1.4425e-05,0.0079731,-1.7327e-05,-21.799,2.4498
22094,21.783,5.5455,0.1,4.8267e-05,482.33,4.7528e-05,462.7,-1.4049e-05,0.033125,-1.8998e-05,-37.151,2.4503
22095,21.691,5.6364,0.1,5.0153e-05,501.18,4.9484e-05,483.22,-1.4822e-05,0.052896,-1.9383e-05,-34.216,2.4348
22096,21.783,5.3636,0.1,4.8519e-05,484.86,4.7659e-05,462.28,-1.3866e-05,0.0074736,-1.9506e-05,-42.371,2.4505
22097,21.691,5.4545,0.1,5.0343e-05,503.08,4.9566e-05,482.45,-1.4643e-05,0.012057,-1.9834e-05,-38.994,2.435
22098,21.783,5.1818,0.1,4.8831e-05,487.97,4.7842e-05,462.31,-1.3689e-05,-0.002152,-2.0049e-05,-47.793,2.4506
22099,21.691,5.2727,0.1,5.061e-05,505.75,4.9715e-05,482.26,-1.4468e-05,0.0040981,-2.0339e-05,-44.107,2.4352
22100,21.783,5,0.1,4.9172e-05,491.38,4.805e-05,462.61,-1.3521e-05,-0.011295,-2.06e-05,-53.207,2.4508
22101,21.691,5.0909,0.1,5.0916e-05,508.81,4.9898e-05,482.37,-1.4302e-05,-0.0064955,-2.0861e-05,-49.291,2.4354
22102,21.783,4.8182,0.1,4.9525e-05,494.91,4.8271e-05,463.07,-1.3363e-05,-0.017961,-2.1143e-05,-58.476,2.451
22103,21.691,4.9091,0.1,5.1243e-05,512.07,5.01e-05,482.7,-1.4145e-05,-0.013648,-2.1383e-05,-54.402,2.4356
22104,21.783,4.6364,0.1,4.9877e-05,498.43,4.8493e-05,463.63,-1.3216e-05,-0.023261,-2.1663e-05,-63.49,2.4511
22105,21.691,4.7273,0.1,5.1575e-05,515.4,5.0309e-05,483.16,-1.3998e-05,-0.019506,-2.1891e-05,-59.327,2.4357
22106,21.783,4.4545,0.1,5.0216e-05,501.81,4.8708e-05,464.24,-1.3082e-05,-0.027378,-2.215e-05,-68.157,2.4512
22107,21.691,4.5455,0.1,5.1902e-05,518.66,5.0516e-05,483.7,-1.3863e-05,-0.024035,-2.2374e-05,-63.969,2.4359
22108,21.783,4.2727,0.1,5.0531e-05,504.97,4.8908e-05,464.84,-1.2963e-05,-0.030603,-2.2595e-05,-72.403,2.4514
22109,21.691,4.3636,0.1,5.2212e-05,521.76,5.0714e-05,484.26,-1.3741e-05,-0.027605,-2.282e-05,-68.248,2.436
22110,21.783,4.0909,0.1,5.0817e-05,507.82,4.909e-05,465.41,-1.2857e-05,-0.033114,-2.2991e-05,-76.172,2.4515
22111,21.691,4.1818,0.1,5.2497e-05,524.61,5.0897e-05,484.82,-1.3632e-05,-0.030399,-2.3224e-05,-72.101,2.4361
22112,21.783,3.9091,0.1,5.1066e-05,510.3,4.9248e-05,465.92,-1.2767e-05,-0.035054,-2.3333e-05,-79.421,2.4515
22113,21.691,4,0.1,5.2751e-05,527.15,5.106e-05,485.33,-1.3538e-05,-0.032574,-2.3579e-05,-75.478,2.4362
22114,21.783,3.7273,0.1,5.1274e-05,512.39,4.9381e-05,466.36,-1.2693e-05,-0.036525,-2.3617e-05,-82.115,2.4516
22115,21.691,3.8182,0.1,5.297e-05,529.33,5.12e-05,485.78,-1.3458e-05,-0.034247,-2.388e-05,-78.34,2.4363
22116,21.783,3.5455,0.1,5.144e-05,514.04,4.9486e-05,466.71,-1.2634e-05,-0.0376,-2.384e-05,-84.233,2.4517
22117,21.691,3.6364,0.1,5.3148e-05,531.12,5.1314e-05,486.16,-1.3394e-05,-0.035496,-2.4125e-05,-80.66,2.4363
22118,21.783,3.3636,0.1,5.1559e-05,515.24,4.9562e-05,466.96,-1.2592e-05,-0.038334,-2.4001e-05,-85.756,2.4517
22119,21.691,3.4545,0.1,5.3284e-05,532.48,5.1401e-05,486.45,-1.3346e-05,-0.036385,-2.431e-05,-82.416,2.4364
22120,21.783,3.1818,0.1,5.1631e-05,515.96,4.9607e-05,467.12,-1.2567e-05,-0.038761,-2.4098e-05,-86.674,2.4517
22121,21.691,3.2727,0.1,5.3376e-05,533.39,5.146e-05,486.65,-1.3314e-05,-0.036957,-2.4434e-05,-83.594,2.4364
22122,21.783,3,0.1,5.1656e-05,516.2,4.9623e-05,467.17,-1.2559e-05,-0.038901,-2.413e-05,-86.981,2.4517
22123,21.691,3.0909,0.1,5.3422e-05,533.85,5.1489e-05,486.75,-1.3297e-05,-0.037236,-2.4497e-05,-84.185,2.4364
22124,21.783,2.8182,0.1,5.1631e-05,515.96,4.9607e-05,467.12,-1.2567e-05,-0.038761,-2.4098e-05,-86.674,2.4517
22125,21.691,2.9091,0.1,5.3422e-05,533.85,5.1489e-05,486.75,-1.3297e-05,-0.037235,-2.4497e-05,-84.185,2.4364
22126,21.783,2.6364,0.1,5.1559e-05,515.24,4.9562e-05,466.96,-1.2592e-05,-0.038335,-2.4001e-05,-85.756,2.4517
22127,21.691,2.7273,0.1,5.3376e-05,533.39,5.146e-05,486.65,-1.3314e-05,-0.036958,-2.4434e-05,-83.594,2.4364
22128,21.783,2.4545,0.1,5.144e-05,514.04,4.9486e-05,466.71,-1.2634e-05,-0.037599,-2.384e-05,-84.233,2.4517
22129,21.691,2.5455,0.1,5.3284e-05,532.48,5.1401e-05,486.45,-1.3346e-05,-0.036385,-2.431e-05,-82.416,2.4364
22130,21.783,2.2727,0.1,5.1274e-05,512.39,4.9381e-05,466.36,-1.2693e-05,-0.036524,-2.3617e-05,-82.115,2.4516
22131,21.691,2.3636,0.1,5.3148e-05,531.12,5.1314e-05,486.16,-1.3394e-05,-0.035495,-2.4125e-05,-80.66,2.4363
22132,21.783,2.0909,0.1,5.1066e-05,510.3,4.9248e-05,465.92,-1.2767e-05,-0.035054,-2.3333e-05,-79.421,2.4515
22133,21.691,2.1818,0.1,5.297e-05,529.33,5.12e-05,485.78,-1.3458e-05,-0.034246,-2.388e-05,-78.34,2.4363
22134,21.783,1.9091,0.1,5.0817e-05,507.82,4.909e-05,465.41,-1.2857e-05,-0.033114,-2.2991e-05,-76.172,2.4515
22135,21.691,2,0.1,5.2751e-05,527.15,5.106e-05,485.33,-1.3538e-05,-0.032575,-2.3579e-05,-75.478,2.4362
22136,21.783,1.7273,0.1,5.0531e-05,504.97,4.8908e-05,464.84,-1.2963e-05,-0.030602,-2.2595e-05,-72.403,2.4514
22137,21.691,1.8182,0.1,5.2497e-05,524.61,5.0897e-05,484.82,-1.3632e-05,-0.030399,-2.3224e-05,-72.101,2.4361
22138,21.783,1.5455,0.1,5.0216e-05,501.81,4.8708e-05,464.24,-1.3082e-05,-0.027378,-2.215e-05,-68.157,2.4512
22139,21.691,1.6364,0.1,5.2212e-05,521.76,5.0714e-05,484.26,-1.3741e-05,-0.027605,-2.282e-05,-68.248,2.436
22140,21.783,1.3636,0.1,4.9877e-05,498.43,4.8493e-05,463.63,-1.3216e-05,-0.023261,-2.1663e-05,-63.49,2.4511
22141,21.691,1.4545,0.1,5.1902e-05,518.66,5.0516e-05,483.7,-1.3863e-05,-0.024035,-2.2374e-05,-63.969,2.4359
22142,21.783,1.1818,0.1,4.9525e-05,494.91,4.8271e-05,463.07,-1.3363e-05,-0.017962,-2.1143e-05,-58.476,2.451
22143,21.691,1.2727,0.1,5.1575e-05,515.4,5.0309e-05,483.16,-1.3998e-05,-0.019506,-2.1891e-05,-59.327,2.4357
22144,21.783,1,0.1,4.9172e-05,491.38,4.805e-05,462.61,-1.3521e-05,-0.011296,-2.06e-05,-53.207,2.4508
22145,21.691,1.0909,0.1,5.1243e-05,512.07,5.01e-05,482.7,-1.4145e-05,-0.013649,-2.1383e-05,-54.402,2.4356
22146,21.783,0.81818,0.1,4.8831e-05,487.97,4.7842e-05,462.31,-1.3689e-05,-0.0021524,-2.0049e-05,-47.793,2.4506
22147,21.691,0.90909,0.1,5.0916e-05,508.81,4.9898e-05,482.37,-1.4302e-05,-0.0064974,-2.0861e-05,-49.291,2.4354
22148,21.783,0.63636,0.1,4.8519e-05,484.86,4.7659e-05,462.28,-1.3866e-05,0.0074736,-1.9506e-05,-42.371,2.4505
22149,21.691,0.72727,0.1,5.061e-05,505.75,4.9715e-05,482.26,-1.4468e-05,0.0040971,-2.0339e-05,-44.107,2.4352
22150,21.783,0.45455,0.1,4.8267e-05,482.33,4.7528e-05,462.7,-1.4049e-05,0.033126,-1.8998e-05,-37.151,2.4503
22151,21.691,0.54545,0.1,5.0343e-05,503.08,4.9566e-05,482.45,-1.4643e-05,0.012055,-1.9834e-05,-38.994,2.435
22152,21.783,0.27273,0.1,4.8288e-05,482.54,4.763e-05,464.92,-1.4242e-05,0.038399,-1.871e-05,-33.531,2.4501
22153,21.691,0.36364,0.1,5.0153e-05,501.18,4.9484e-05,483.22,-1.4822e-05,0.052897,-1.9383e-05,-34.216,2.4348
22154,21.691,0.18182,0.1,5.0451e-05,504.16,4.9821e-05,487.16,-1.5015e-05,0.010783,-1.9334e-05,-32.437,2.4346
22155,21.783,0.090909,0.1,4.7024e-05,469.92,4.6615e-05,458.64,-1.4425e-05,0.0079721,-1.7327e-05,-21.799,2.4498
22156,21.599,5.7273,0.1,5.2273e-05,522.37,5.1637e-05,505.19,-1.5594e-05,0.03488,-1.9971e-05,-32.854,2.4194
22157,21.506,5.8182,0.1,5.4459e-05,544.22,5.3844e-05,527.52,-1.6363e-05,0.0084303,-2.0622e-05,-31.989,2.404
22158,21.599,5.9091,0.1,5.1032e-05,509.97,5.0633e-05,498.89,-1.5764e-05,0.0083597,-1.8625e-05,-21.489,2.4192
22159,21.599,5.5455,0.1,5.2213e-05,521.77,5.1509e-05,502.88,-1.5416e-05,0.031338,-2.0206e-05,-35.96,2.4196
22160,21.506,5.6364,0.1,5.4128e-05,540.91,5.3485e-05,523.51,-1.6183e-05,0.049386,-2.0622e-05,-33.299,2.4042
22161,21.599,5.3636,0.1,5.2421e-05,523.85,5.1611e-05,502.34,-1.5246e-05,0.0079122,-2.0657e-05,-40.648,2.4198
22162,21.506,5.4545,0.1,5.4278e-05,542.41,5.3541e-05,522.65,-1.6017e-05,0.011923,-2.102e-05,-37.581,2.4044
22163,21.599,5.1818,0.1,5.2685e-05,526.49,5.1762e-05,502.24,-1.5082e-05,-0.00086348,-2.1142e-05,-45.532,2.42
22164,21.506,5.2727,0.1,5.4502e-05,544.65,5.3662e-05,522.33,-1.5855e-05,0.0047825,-2.147e-05,-42.183,2.4046
22165,21.599,5,0.1,5.2978e-05,529.42,5.194e-05,502.4,-1.4926e-05,-0.0093409,-2.1636e-05,-50.422,2.4202
22166,21.506,5.0909,0.1,5.4763e-05,547.25,5.3815e-05,522.31,-1.5701e-05,-0.005001,-2.1937e-05,-46.858,2.4048
22167,21.599,4.8182,0.1,5.3285e-05,532.49,5.2131e-05,502.73,-1.478e-05,-0.015594,-2.2125e-05,-55.198,2.4204
22168,21.506,4.9091,0.1,5.5044e-05,550.07,5.3987e-05,522.51,-1.5556e-05,-0.011678,-2.2406e-05,-51.481,2.405
22169,21.599,4.6364,0.1,5.3594e-05,535.57,5.2326e-05,503.18,-1.4645e-05,-0.020615,-2.2595e-05,-59.758,2.4205
22170,21.506,4.7273,0.1,5.5334e-05,552.96,5.4169e-05,522.85,-1.542e-05,-0.017205,-2.2864e-05,-55.95,2.4051
22171,21.599,4.4545,0.1,5.3893e-05,538.56,5.2518e-05,503.68,-1.4521e-05,-0.02455,-2.3038e-05,-64.017,2.4206
22172,21.506,4.5455,0.1,5.5621e-05,555.83,5.4352e-05,523.28,-1.5295e-05,-0.021517,-2.3301e-05,-60.176,2.4053
22173,21.599,4.2727,0.1,5.4174e-05,541.37,5.2698e-05,504.2,-1.441e-05,-0.027657,-2.3445e-05,-67.908,2.4208
22174,21.506,4.3636,0.1,5.5896e-05,558.57,5.4529e-05,523.75,-1.5182e-05,-0.024945,-2.3708e-05,-64.085,2.4054
22175,21.599,4.0909,0.1,5.443e-05,543.92,5.2863e-05,504.7,-1.4313e-05,-0.030091,-2.3808e-05,-71.372,2.4209
22176,21.506,4.1818,0.1,5.615e-05,561.11,5.4693e-05,524.23,-1.5081e-05,-0.027645,-2.4077e-05,-67.616,2.4055
22177,21.599,3.9091,0.1,5.4654e-05,546.16,5.3007e-05,505.16,-1.4229e-05,-0.031983,-2.4122e-05,-74.366,2.4209
22178,21.506,4,0.1,5.6378e-05,563.39,5.484e-05,524.68,-1.4994e-05,-0.02976,-2.4402e-05,-70.72,2.4056
22179,21.599,3.7273,0.1,5.4843e-05,548.05,5.3129e-05,505.55,-1.416e-05,-0.033421,-2.4384e-05,-76.855,2.421
22180,21.506,3.8182,0.1,5.6574e-05,565.35,5.4968e-05,525.08,-1.492e-05,-0.031392,-2.4679e-05,-73.357,2.4057
22181,21.599,3.5455,0.1,5.4993e-05,549.55,5.3226e-05,505.87,-1.4106e-05,-0.034476,-2.4591e-05,-78.815,2.4211
22182,21.506,3.6364,0.1,5.6736e-05,566.96,5.5072e-05,525.42,-1.4861e-05,-0.032617,-2.4905e-05,-75.499,2.4058
22183,21.599,3.3636,0.1,5.5101e-05,550.63,5.3296e-05,506.11,-1.4067e-05,-0.035199,-2.474e-05,-80.228,2.4211
22184,21.506,3.4545,0.1,5.6859e-05,568.2,5.5152e-05,525.68,-1.4816e-05,-0.03349,-2.5076e-05,-77.123,2.4058
22185,21.599,3.1818,0.1,5.5167e-05,551.29,5.3338e-05,506.25,-1.4044e-05,-0.03562,-2.483e-05,-81.08,2.4211
22186,21.506,3.2727,0.1,5.6942e-05,569.03,5.5206e-05,525.86,-1.4786e-05,-0.034055,-2.5191e-05,-78.214,2.4059
22187,21.599,3,0.1,5.5189e-05,551.51,5.3353e-05,506.3,-1.4036e-05,-0.035757,-2.486e-05,-81.365,2.4212
22188,21.506,3.0909,0.1,5.6984e-05,569.45,5.5234e-05,525.95,-1.4771e-05,-0.034329,-2.5249e-05,-78.762,2.4059
22189,21.599,2.8182,0.1,5.5167e-05,551.29,5.3338e-05,506.25,-1.4044e-05,-0.03562,-2.483e-05,-81.08,2.4211
22190,21.506,2.9091,0.1,5.6984e-05,569.45,5.5234e-05,525.95,-1.4771e-05,-0.034329,-2.5249e-05,-78.762,2.4059
22191,21.599,2.6364,0.1,5.5101e-05,550.63,5.3296e-05,506.11,-1.4067e-05,-0.035199,-2.474e-05,-80.228,2.4211
22192,21.506,2.7273,0.1,5.6942e-05,569.03,5.5206e-05,525.86,-1.4786e-05,-0.034055,-2.5191e-05,-78.214,2.4059
22193,21.599,2.4545,0.1,5.4993e-05,549.55,5.3226e-05,505.87,-1.4106e-05,-0.034476,-2.4591e-05,-78.815,2.4211
22194,21.506,2.5455,0.1,5.6859e-05,568.2,5.5152e-05,525.68,-1.4816e-05,-0.033492,-2.5076e-05,-77.123,2.4058
22195,21.599,2.2727,0.1,5.4843e-05,548.05,5.3129e-05,505.55,-1.416e-05,-0.03342,-2.4384e-05,-76.855,2.421
22196,21.506,2.3636,0.1,5.6736e-05,566.96,5.5072e-05,525.42,-1.4861e-05,-0.032616,-2.4905e-05,-75.499,2.4058
22197,21.599,2.0909,0.1,5.4654e-05,546.16,5.3007e-05,505.16,-1.4229e-05,-0.031982,-2.4122e-05,-74.366,2.4209
22198,21.506,2.1818,0.1,5.6574e-05,565.35,5.4968e-05,525.08,-1.492e-05,-0.031392,-2.4679e-05,-73.357,2.4057
22199,21.599,1.9091,0.1,5.443e-05,543.92,5.2863e-05,504.7,-1.4313e-05,-0.030092,-2.3808e-05,-71.372,2.4209
22200,21.506,2,0.1,5.6378e-05,563.39,5.484e-05,524.68,-1.4994e-05,-0.02976,-2.4402e-05,-70.72,2.4056
22201,21.599,1.7273,0.1,5.4174e-05,541.37,5.2698e-05,504.2,-1.441e-05,-0.027656,-2.3445e-05,-67.908,2.4208
22202,21.506,1.8182,0.1,5.615e-05,561.11,5.4693e-05,524.23,-1.5081e-05,-0.027646,-2.4077e-05,-67.616,2.4055
22203,21.599,1.5455,0.1,5.3893e-05,538.56,5.2518e-05,503.68,-1.4521e-05,-0.02455,-2.3038e-05,-64.017,2.4206
22204,21.506,1.6364,0.1,5.5896e-05,558.57,5.4529e-05,523.75,-1.5182e-05,-0.024944,-2.3708e-05,-64.085,2.4054
22205,21.599,1.3636,0.1,5.3594e-05,535.57,5.2326e-05,503.18,-1.4645e-05,-0.020615,-2.2595e-05,-59.758,2.4205
22206,21.506,1.4545,0.1,5.5621e-05,555.83,5.4352e-05,523.28,-1.5295e-05,-0.021518,-2.3301e-05,-60.176,2.4053
22207,21.599,1.1818,0.1,5.3285e-05,532.49,5.2131e-05,502.73,-1.478e-05,-0.015594,-2.2125e-05,-55.198,2.4204
22208,21.506,1.2727,0.1,5.5334e-05,552.96,5.4169e-05,522.85,-1.542e-05,-0.017204,-2.2864e-05,-55.95,2.4051
22209,21.599,1,0.1,5.2978e-05,529.42,5.194e-05,502.4,-1.4926e-05,-0.0093427,-2.1636e-05,-50.422,2.4202
22210,21.506,1.0909,0.1,5.5044e-05,550.07,5.3987e-05,522.51,-1.5556e-05,-0.011679,-2.2406e-05,-51.481,2.405
22211,21.599,0.81818,0.1,5.2685e-05,526.49,5.1762e-05,502.24,-1.5082e-05,-0.00086612,-2.1142e-05,-45.532,2.42
22212,21.506,0.90909,0.1,5.4763e-05,547.25,5.3815e-05,522.31,-1.5701e-05,-0.0050034,-2.1937e-05,-46.858,2.4048
22213,21.599,0.63636,0.1,5.2421e-05,523.85,5.1611e-05,502.34,-1.5246e-05,0.0079093,-2.0657e-05,-40.648,2.4198
22214,21.506,0.72727,0.1,5.4502e-05,544.65,5.3662e-05,522.33,-1.5855e-05,0.0047812,-2.147e-05,-42.183,2.4046
22215,21.599,0.45455,0.1,5.2213e-05,521.77,5.1509e-05,502.88,-1.5416e-05,0.031336,-2.0206e-05,-35.96,2.4196
22216,21.506,0.54545,0.1,5.4278e-05,542.41,5.3542e-05,522.65,-1.6017e-05,0.01192,-2.102e-05,-37.581,2.4044
22217,21.599,0.27273,0.1,5.2273e-05,522.37,5.1637e-05,505.19,-1.5594e-05,0.034881,-1.9971e-05,-32.854,2.4194
22218,21.506,0.36364,0.1,5.4128e-05,540.91,5.3485e-05,523.51,-1.6183e-05,0.049388,-2.0622e-05,-33.299,2.4042
22219,21.506,0.18182,0.1,5.4459e-05,544.22,5.3844e-05,527.52,-1.6363e-05,0.0084334,-2.0622e-05,-31.989,2.404
22220,21.599,0.090909,0.1,5.1032e-05,509.97,5.0633e-05,498.89,-1.5764e-05,0.0083597,-1.8625e-05,-21.489,2.4192
22221,21.414,5.7273,0.1,5.6273e-05,562.35,5.5657e-05,545.58,-1.6951e-05,0.031796,-2.1238e-05,-32.179,2.3888
22222,21.322,5.8182,0.1,5.848e-05,584.39,5.788e-05,568,-1.7715e-05,0.0065316,-2.1911e-05,-31.518,2.3734
22223,21.414,5.9091,0.1,5.5055e-05,550.17,5.4664e-05,539.29,-1.7109e-05,0.0085571,-1.9927e-05,-21.165,2.3886
22224,21.414,5.5455,0.1,5.6179e-05,561.4,5.5506e-05,543.19,-1.6785e-05,0.029617,-2.1424e-05,-34.828,2.389
22225,21.322,5.6364,0.1,5.812e-05,580.8,5.7502e-05,563.94,-1.7548e-05,0.046167,-2.1868e-05,-32.412,2.3736
22226,21.414,5.3636,0.1,5.6348e-05,563.09,5.5582e-05,542.56,-1.6627e-05,0.0081432,-2.1824e-05,-39.039,2.3892
22227,21.322,5.4545,0.1,5.8236e-05,581.96,5.7535e-05,562.99,-1.7393e-05,0.011681,-2.2219e-05,-36.249,2.3738
22228,21.414,5.1818,0.1,5.657e-05,565.31,5.5706e-05,542.34,-1.6475e-05,0.00011187,-2.2256e-05,-43.44,2.3894
22229,21.322,5.2727,0.1,5.8421e-05,583.81,5.7629e-05,562.57,-1.7243e-05,0.0052434,-2.262e-05,-40.392,2.374
22230,21.414,5,0.1,5.682e-05,567.81,5.5855e-05,542.37,-1.6331e-05,-0.0077682,-2.2699e-05,-47.855,2.3896
22231,21.322,5.0909,0.1,5.8641e-05,586.01,5.7755e-05,562.43,-1.71e-05,-0.0038163,-2.3037e-05,-44.608,2.3742
22232,21.414,4.8182,0.1,5.7086e-05,570.47,5.6019e-05,542.58,-1.6196e-05,-0.013642,-2.3138e-05,-52.179,2.3898
22233,21.322,4.9091,0.1,5.8883e-05,588.42,5.7901e-05,562.51,-1.6965e-05,-0.010063,-2.3457e-05,-48.787,2.3744
22234,21.414,4.6364,0.1,5.7355e-05,573.16,5.6189e-05,542.91,-1.607e-05,-0.018402,-2.3564e-05,-56.32,2.3899
22235,21.322,4.7273,0.1,5.9134e-05,590.93,5.8057e-05,562.73,-1.684e-05,-0.015283,-2.387e-05,-52.837,2.3746
22236,21.414,4.4545,0.1,5.7618e-05,575.79,5.6357e-05,543.31,-1.5956e-05,-0.022165,-2.3965e-05,-60.201,2.3901
22237,21.322,4.5455,0.1,5.9385e-05,593.44,5.8217e-05,563.06,-1.6724e-05,-0.019391,-2.4265e-05,-56.679,2.3747
22238,21.414,4.2727,0.1,5.7867e-05,578.27,5.6518e-05,543.74,-1.5853e-05,-0.025156,-2.4335e-05,-63.755,2.3902
22239,21.322,4.3636,0.1,5.9626e-05,595.85,5.8372e-05,563.43,-1.6619e-05,-0.022681,-2.4634e-05,-60.242,2.3749
22240,21.414,4.0909,0.1,5.8095e-05,580.55,5.6666e-05,544.17,-1.5763e-05,-0.027515,-2.4667e-05,-66.929,2.3903
22241,21.322,4.1818,0.1,5.9852e-05,598.1,5.8518e-05,563.83,-1.6526e-05,-0.025289,-2.497e-05,-63.469,2.375
22242,21.414,3.9091,0.1,5.8296e-05,582.55,5.6796e-05,544.57,-1.5685e-05,-0.029356,-2.4955e-05,-69.679,2.3904
22243,21.322,4,0.1,6.0055e-05,600.13,5.8651e-05,564.21,-1.6445e-05,-0.027344,-2.5267e-05,-66.312,2.3751
22244,21.414,3.7273,0.1,5.8465e-05,584.25,5.6907e-05,544.92,-1.5621e-05,-0.030763,-2.5196e-05,-71.971,2.3905
22245,21.322,3.8182,0.1,6.023e-05,601.89,5.8766e-05,564.56,-1.6376e-05,-0.028935,-2.5521e-05,-68.735,2.3752
22246,21.414,3.5455,0.1,5.86e-05,585.6,5.6995e-05,545.2,-1.5571e-05,-0.031799,-2.5386e-05,-73.778,2.3905
22247,21.322,3.6364,0.1,6.0375e-05,603.33,5.886e-05,564.85,-1.6321e-05,-0.030135,-2.5727e-05,-70.705,2.3752
22248,21.414,3.3636,0.1,5.8699e-05,586.58,5.7059e-05,545.41,-1.5535e-05,-0.032509,-2.5523e-05,-75.082,2.3906
22249,21.322,3.4545,0.1,6.0486e-05,604.44,5.8933e-05,565.09,-1.628e-05,-0.030995,-2.5885e-05,-72.202,2.3753
22250,21.414,3.1818,0.1,5.8758e-05,587.18,5.7098e-05,545.54,-1.5513e-05,-0.032924,-2.5606e-05,-75.87,2.3906
22251,21.322,3.2727,0.1,6.0561e-05,605.19,5.8982e-05,565.25,-1.6252e-05,-0.031548,-2.5991e-05,-73.208,2.3753
22252,21.414,3,0.1,5.8778e-05,587.38,5.7111e-05,545.58,-1.5506e-05,-0.03306,-2.5634e-05,-76.133,2.3906
22253,21.322,3.0909,0.1,6.0599e-05,605.57,5.9007e-05,565.33,-1.6238e-05,-0.03182,-2.6044e-05,-73.714,2.3753
22254,21.414,2.8182,0.1,5.8758e-05,587.18,5.7098e-05,545.54,-1.5513e-05,-0.032925,-2.5606e-05,-75.87,2.3906
22255,21.322,2.9091,0.1,6.0599e-05,605.57,5.9007e-05,565.33,-1.6238e-05,-0.03182,-2.6044e-05,-73.714,2.3753
22256,21.414,2.6364,0.1,5.8699e-05,586.58,5.7059e-05,545.41,-1.5535e-05,-0.032511,-2.5523e-05,-75.082,2.3906
22257,21.322,2.7273,0.1,6.0561e-05,605.19,5.8982e-05,565.25,-1.6252e-05,-0.031549,-2.5991e-05,-73.208,2.3753
22258,21.414,2.4545,0.1,5.86e-05,585.6,5.6995e-05,545.2,-1.5571e-05,-0.0318,-2.5386e-05,-73.778,2.3905
22259,21.322,2.5455,0.1,6.0486e-05,604.44,5.8933e-05,565.09,-1.628e-05,-0.030995,-2.5885e-05,-72.202,2.3753
22260,21.414,2.2727,0.1,5.8465e-05,584.25,5.6907e-05,544.92,-1.5621e-05,-0.030763,-2.5196e-05,-71.971,2.3905
22261,21.322,2.3636,0.1,6.0375e-05,603.33,5.886e-05,564.85,-1.6321e-05,-0.030135,-2.5727e-05,-70.705,2.3752
22262,21.414,2.0909,0.1,5.8296e-05,582.55,5.6796e-05,544.57,-1.5685e-05,-0.029357,-2.4955e-05,-69.679,2.3904
22263,21.322,2.1818,0.1,6.023e-05,601.89,5.8766e-05,564.56,-1.6376e-05,-0.028936,-2.5521e-05,-68.735,2.3752
22264,21.414,1.9091,0.1,5.8095e-05,580.55,5.6666e-05,544.17,-1.5763e-05,-0.027516,-2.4667e-05,-66.929,2.3903
22265,21.322,2,0.1,6.0055e-05,600.13,5.8651e-05,564.21,-1.6445e-05,-0.027344,-2.5267e-05,-66.312,2.3751
22266,21.414,1.7273,0.1,5.7867e-05,578.27,5.6518e-05,543.74,-1.5853e-05,-0.025157,-2.4335e-05,-63.755,2.3902
22267,21.322,1.8182,0.1,5.9852e-05,598.1,5.8518e-05,563.83,-1.6526e-05,-0.02529,-2.497e-05,-63.469,2.375
22268,21.414,1.5455,0.1,5.7618e-05,575.79,5.6357e-05,543.31,-1.5956e-05,-0.022165,-2.3965e-05,-60.201,2.3901
22269,21.322,1.6364,0.1,5.9626e-05,595.85,5.8372e-05,563.43,-1.6619e-05,-0.022681,-2.4634e-05,-60.242,2.3749
22270,21.414,1.3636,0.1,5.7355e-05,573.16,5.6189e-05,542.91,-1.607e-05,-0.018402,-2.3564e-05,-56.32,2.3899
22271,21.322,1.4545,0.1,5.9385e-05,593.44,5.8217e-05,563.06,-1.6724e-05,-0.019392,-2.4265e-05,-56.679,2.3747
22272,21.414,1.1818,0.1,5.7086e-05,570.47,5.6019e-05,542.58,-1.6196e-05,-0.013641,-2.3138e-05,-52.179,2.3898
22273,21.322,1.2727,0.1,5.9134e-05,590.93,5.8057e-05,562.73,-1.684e-05,-0.015282,-2.387e-05,-52.837,2.3746
22274,21.414,1,0.1,5.682e-05,567.81,5.5855e-05,542.37,-1.6331e-05,-0.0077692,-2.2699e-05,-47.855,2.3896
22275,21.322,1.0909,0.1,5.8883e-05,588.42,5.7901e-05,562.51,-1.6965e-05,-0.010064,-2.3457e-05,-48.787,2.3744
22276,21.414,0.81818,0.1,5.657e-05,565.31,5.5706e-05,542.34,-1.6475e-05,0.00011088,-2.2256e-05,-43.44,2.3894
22277,21.322,0.90909,0.1,5.8641e-05,586.01,5.7755e-05,562.43,-1.71e-05,-0.0038188,-2.3037e-05,-44.608,2.3742
22278,21.414,0.63636,0.1,5.6348e-05,563.09,5.5582e-05,542.56,-1.6627e-05,0.0081419,-2.1824e-05,-39.039,2.3892
22279,21.322,0.72727,0.1,5.8421e-05,583.81,5.7629e-05,562.57,-1.7243e-05,0.0052427,-2.262e-05,-40.392,2.374
22280,21.414,0.45455,0.1,5.6179e-05,561.4,5.5506e-05,543.19,-1.6785e-05,0.029617,-2.1424e-05,-34.828,2.389
22281,21.322,0.54545,0.1,5.8236e-05,581.96,5.7535e-05,562.99,-1.7393e-05,0.011679,-2.2219e-05,-36.249,2.3738
22282,21.414,0.27273,0.1,5.6273e-05,562.35,5.5657e-05,545.58,-1.6951e-05,0.0318,-2.1238e-05,-32.179,2.3888
22283,21.322,0.36364,0.1,5.812e-05,580.8,5.7502e-05,563.94,-1.7548e-05,0.046169,-2.1868e-05,-32.412,2.3736
22284,21.322,0.18182,0.1,5.848e-05,584.39,5.788e-05,568,-1.7715e-05,0.0065351,-2.1911e-05,-31.518,2.3734
22285,21.414,0.090909,0.1,5.5055e-05,550.17,5.4664e-05,539.29,-1.7109e-05,0.008563,-1.9927e-05,-21.165,2.3886
22286,21.229,5.7273,0.1,6.0288e-05,602.46,5.969e-05,586.1,-1.8311e-05,0.029089,-2.2509e-05,-31.507,2.3582
22287,21.137,5.8182,0.1,6.2512e-05,624.69,6.1927e-05,608.6,-1.9073e-05,0.0049939,-2.3203e-05,-31.03,2.3428
22288,21.229,5.9091,0.1,5.9092e-05,590.52,5.8711e-05,579.83,-1.8459e-05,0.0086264,-2.1232e-05,-20.831,2.358
22289,21.229,5.5455,0.1,6.0164e-05,601.22,5.9519e-05,583.65,-1.8157e-05,0.027981,-2.2652e-05,-33.749,2.3584
22290,21.137,5.6364,0.1,6.2129e-05,620.86,6.1533e-05,604.5,-1.8916e-05,0.043213,-2.3121e-05,-31.555,2.343
22291,21.229,5.3636,0.1,6.0298e-05,602.57,5.9572e-05,582.93,-1.801e-05,0.008228,-2.3006e-05,-37.53,2.3587
22292,21.137,5.4545,0.1,6.2214e-05,621.71,6.1545e-05,603.48,-1.8772e-05,0.011368,-2.343e-05,-34.991,2.3433
22293,21.229,5.1818,0.1,6.0483e-05,604.41,5.967e-05,582.6,-1.7869e-05,0.00085284,-2.3391e-05,-41.495,2.3589
22294,21.137,5.2727,0.1,6.2365e-05,623.22,6.1616e-05,602.96,-1.8632e-05,0.0055395,-2.3786e-05,-38.72,2.3435
22295,21.229,5,0.1,6.0695e-05,606.53,5.9793e-05,582.51,-1.7735e-05,-0.0064884,-2.3787e-05,-45.481,2.359
22296,21.137,5.0909,0.1,6.2549e-05,625.06,6.1717e-05,602.72,-1.8499e-05,-0.0028724,-2.4158e-05,-42.521,2.3437
22297,21.229,4.8182,0.1,6.0923e-05,608.81,5.9932e-05,582.61,-1.7609e-05,-0.012016,-2.4182e-05,-49.392,2.3592
22298,21.137,4.9091,0.1,6.2755e-05,627.11,6.1839e-05,602.68,-1.8374e-05,-0.0087291,-2.4535e-05,-46.295,2.3439
22299,21.229,4.6364,0.1,6.1157e-05,611.15,6.0079e-05,582.83,-1.7493e-05,-0.016534,-2.4565e-05,-53.148,2.3594
22300,21.137,4.7273,0.1,6.2971e-05,629.27,6.1972e-05,602.8,-1.8257e-05,-0.013664,-2.4905e-05,-49.962,2.3441
22301,21.229,4.4545,0.1,6.1387e-05,613.45,6.0226e-05,583.13,-1.7387e-05,-0.020132,-2.4927e-05,-56.676,2.3595
22302,21.137,4.5455,0.1,6.3188e-05,631.45,6.2109e-05,603.02,-1.815e-05,-0.017581,-2.5261e-05,-53.448,2.3442
22303,21.229,4.2727,0.1,6.1606e-05,615.63,6.0367e-05,583.48,-1.7292e-05,-0.023012,-2.5263e-05,-59.916,2.3597
22304,21.137,4.3636,0.1,6.34e-05,633.56,6.2245e-05,603.3,-1.8053e-05,-0.020738,-2.5595e-05,-56.689,2.3443
22305,21.229,4.0909,0.1,6.1807e-05,617.65,6.0498e-05,583.83,-1.7208e-05,-0.025297,-2.5565e-05,-62.816,2.3598
22306,21.137,4.1818,0.1,6.3598e-05,635.54,6.2373e-05,603.62,-1.7966e-05,-0.023258,-2.59e-05,-59.631,2.3445
22307,21.229,3.9091,0.1,6.1986e-05,619.43,6.0615e-05,584.16,-1.7136e-05,-0.027088,-2.5828e-05,-65.334,2.3599
22308,21.137,4,0.1,6.3778e-05,637.34,6.2491e-05,603.93,-1.7891e-05,-0.025252,-2.617e-05,-62.23,2.3446
22309,21.229,3.7273,0.1,6.2138e-05,620.95,6.0715e-05,584.46,-1.7077e-05,-0.028462,-2.6048e-05,-67.437,2.3599
22310,21.137,3.8182,0.1,6.3934e-05,638.9,6.2593e-05,604.22,-1.7828e-05,-0.026804,-2.6401e-05,-64.447,2.3447
22311,21.229,3.5455,0.1,6.2259e-05,622.16,6.0794e-05,584.71,-1.703e-05,-0.029478,-2.6222e-05,-69.098,2.36
22312,21.137,3.6364,0.1,6.4063e-05,640.19,6.2678e-05,604.48,-1.7776e-05,-0.027977,-2.6591e-05,-66.254,2.3447
22313,21.229,3.3636,0.1,6.2347e-05,623.04,6.0852e-05,584.89,-1.6996e-05,-0.030176,-2.6348e-05,-70.298,2.36
22314,21.137,3.4545,0.1,6.4163e-05,641.18,6.2744e-05,604.68,-1.7738e-05,-0.028821,-2.6735e-05,-67.628,2.3448
22315,21.229,3.1818,0.1,6.24e-05,623.57,6.0888e-05,585.01,-1.6976e-05,-0.030583,-2.6425e-05,-71.023,2.3601
22316,21.137,3.2727,0.1,6.423e-05,641.85,6.2788e-05,604.81,-1.7712e-05,-0.029365,-2.6832e-05,-68.553,2.3448
22317,21.229,3,0.1,6.2418e-05,623.75,6.0899e-05,585.05,-1.697e-05,-0.030718,-2.645e-05,-71.266,2.3601
22318,21.137,3.0909,0.1,6.4264e-05,642.19,6.281e-05,604.89,-1.7699e-05,-0.029632,-2.6881e-05,-69.018,2.3448
22319,21.229,2.8182,0.1,6.24e-05,623.57,6.0888e-05,585.01,-1.6976e-05,-0.030584,-2.6425e-05,-71.023,2.3601
22320,21.137,2.9091,0.1,6.4264e-05,642.19,6.281e-05,604.89,-1.7699e-05,-0.029632,-2.6881e-05,-69.018,2.3448
22321,21.229,2.6364,0.1,6.2347e-05,623.04,6.0852e-05,584.89,-1.6996e-05,-0.030176,-2.6348e-05,-70.298,2.36
22322,21.137,2.7273,0.1,6.423e-05,641.85,6.2788e-05,604.81,-1.7712e-05,-0.029366,-2.6832e-05,-68.553,2.3448
22323,21.229,2.4545,0.1,6.2259e-05,622.16,6.0794e-05,584.71,-1.703e-05,-0.029478,-2.6222e-05,-69.098,2.36
22324,21.137,2.5455,0.1,6.4163e-05,641.18,6.2744e-05,604.68,-1.7738e-05,-0.028822,-2.6735e-05,-67.628,2.3448
22325,21.229,2.2727,0.1,6.2138e-05,620.95,6.0715e-05,584.46,-1.7077e-05,-0.028462,-2.6048e-05,-67.437,2.3599
22326,21.137,2.3636,0.1,6.4063e-05,640.19,6.2678e-05,604.48,-1.7776e-05,-0.027977,-2.6591e-05,-66.254,2.3447
22327,21.229,2.0909,0.1,6.1986e-05,619.43,6.0615e-05,584.16,-1.7136e-05,-0.027088,-2.5828e-05,-65.334,2.3599
22328,21.137,2.1818,0.1,6.3934e-05,638.9,6.2593e-05,604.22,-1.7828e-05,-0.026804,-2.6401e-05,-64.447,2.3447
22329,21.229,1.9091,0.1,6.1807e-05,617.65,6.0498e-05,583.83,-1.7208e-05,-0.025297,-2.5565e-05,-62.816,2.3598
22330,21.137,2,0.1,6.3778e-05,637.34,6.2491e-05,603.93,-1.7891e-05,-0.025252,-2.617e-05,-62.23,2.3446
22331,21.229,1.7273,0.1,6.1606e-05,615.63,6.0367e-05,583.48,-1.7292e-05,-0.023012,-2.5263e-05,-59.916,2.3597
22332,21.137,1.8182,0.1,6.3598e-05,635.54,6.2373e-05,603.62,-1.7966e-05,-0.023258,-2.59e-05,-59.631,2.3445
22333,21.229,1.5455,0.1,6.1387e-05,613.45,6.0226e-05,583.13,-1.7387e-05,-0.020133,-2.4927e-05,-56.676,2.3595
22334,21.137,1.6364,0.1,6.34e-05,633.56,6.2245e-05,603.3,-1.8053e-05,-0.020739,-2.5595e-05,-56.689,2.3443
22335,21.229,1.3636,0.1,6.1157e-05,611.15,6.0079e-05,582.83,-1.7493e-05,-0.016534,-2.4565e-05,-53.148,2.3594
22336,21.137,1.4545,0.1,6.3188e-05,631.45,6.2109e-05,603.02,-1.815e-05,-0.017581,-2.5261e-05,-53.448,2.3442
22337,21.229,1.1818,0.1,6.0923e-05,608.81,5.9932e-05,582.61,-1.7609e-05,-0.012016,-2.4182e-05,-49.392,2.3592
22338,21.137,1.2727,0.1,6.2971e-05,629.27,6.1972e-05,602.8,-1.8257e-05,-0.013665,-2.4905e-05,-49.962,2.3441
22339,21.229,1,0.1,6.0695e-05,606.53,5.9793e-05,582.51,-1.7735e-05,-0.006491,-2.3787e-05,-45.481,2.359
22340,21.137,1.0909,0.1,6.2755e-05,627.11,6.1839e-05,602.68,-1.8374e-05,-0.00873,-2.4535e-05,-46.295,2.3439
22341,21.229,0.81818,0.1,6.0483e-05,604.41,5.967e-05,582.6,-1.7869e-05,0.00085056,-2.3391e-05,-41.495,2.3589
22342,21.137,0.90909,0.1,6.2549e-05,625.06,6.1717e-05,602.72,-1.8499e-05,-0.0028739,-2.4158e-05,-42.521,2.3437
22343,21.229,0.63636,0.1,6.0298e-05,602.57,5.9572e-05,582.93,-1.801e-05,0.0082267,-2.3006e-05,-37.53,2.3587
22344,21.137,0.72727,0.1,6.2365e-05,623.22,6.1616e-05,602.96,-1.8632e-05,0.0055375,-2.3786e-05,-38.72,2.3435
22345,21.229,0.45455,0.1,6.0164e-05,601.22,5.9519e-05,583.65,-1.8157e-05,0.027981,-2.2652e-05,-33.749,2.3584
22346,21.137,0.54545,0.1,6.2214e-05,621.71,6.1545e-05,603.48,-1.8772e-05,0.011366,-2.343e-05,-34.991,2.3433
22347,21.229,0.27273,0.1,6.0288e-05,602.46,5.969e-05,586.1,-1.8311e-05,0.029091,-2.2509e-05,-31.507,2.3582
22348,21.137,0.36364,0.1,6.2129e-05,620.86,6.1533e-05,604.5,-1.8916e-05,0.043214,-2.3121e-05,-31.555,2.343
22349,21.137,0.18182,0.1,6.2512e-05,624.69,6.1927e-05,608.6,-1.9073e-05,0.0049974,-2.3203e-05,-31.03,2.3428
22350,21.229,0.090909,0.1,5.9092e-05,590.52,5.8711e-05,579.83,-1.8459e-05,0.0086248,-2.1232e-05,-20.831,2.358
22351,21.045,5.7273,0.1,6.4317e-05,642.72,6.3737e-05,626.76,-1.9676e-05,0.026695,-2.3785e-05,-30.843,2.3277
22352,20.952,5.8182,0.1,6.6558e-05,665.12,6.5986e-05,649.33,-2.0434e-05,0.0037485,-2.4498e-05,-30.529,2.3123
22353,21.045,5.9091,0.1,6.3144e-05,631.01,6.2771e-05,620.52,-1.9814e-05,0.0085915,-2.2542e-05,-20.49,2.3274
22354,21.045,5.5455,0.1,6.4167e-05,641.22,6.3548e-05,624.25,-1.9531e-05,0.026432,-2.3889e-05,-32.718,2.3279
22355,20.952,5.6364,0.1,6.6154e-05,661.08,6.5578e-05,645.2,-2.0288e-05,0.040501,-2.4382e-05,-30.726,2.3125
22356,21.045,5.3636,0.1,6.427e-05,642.26,6.358e-05,623.45,-1.9395e-05,0.0082072,-2.4202e-05,-36.112,2.3281
22357,20.952,5.4545,0.1,6.6212e-05,661.66,6.5572e-05,644.12,-2.0153e-05,0.011013,-2.4653e-05,-33.8,2.3128
22358,21.045,5.1818,0.1,6.4422e-05,643.78,6.3655e-05,623.02,-1.9263e-05,0.0014114,-2.4545e-05,-39.683,2.3283
22359,20.952,5.2727,0.1,6.6332e-05,662.87,6.5622e-05,643.51,-2.0023e-05,0.0057162,-2.4969e-05,-37.154,2.313
22360,21.045,5,0.1,6.46e-05,645.56,6.3755e-05,622.83,-1.9139e-05,-0.0054464,-2.4898e-05,-43.278,2.3285
22361,20.952,5.0909,0.1,6.6485e-05,664.39,6.5701e-05,643.17,-1.9899e-05,-0.0021145,-2.53e-05,-40.578,2.3132
22362,21.045,4.8182,0.1,6.4795e-05,647.5,6.3871e-05,622.82,-1.9022e-05,-0.010655,-2.5251e-05,-46.813,2.3287
22363,20.952,4.9091,0.1,6.6657e-05,666.11,6.58e-05,643.03,-1.9783e-05,-0.0076141,-2.5636e-05,-43.985,2.3134
22364,21.045,4.6364,0.1,6.4996e-05,649.51,6.3995e-05,622.94,-1.8914e-05,-0.014946,-2.5595e-05,-50.214,2.3289
22365,20.952,4.7273,0.1,6.6842e-05,667.96,6.5911e-05,643.04,-1.9674e-05,-0.012287,-2.5968e-05,-47.3,2.3136
22366,21.045,4.4545,0.1,6.5195e-05,651.5,6.4122e-05,623.14,-1.8816e-05,-0.01839,-2.5923e-05,-53.417,2.329
22367,20.952,4.5455,0.1,6.7029e-05,669.83,6.6028e-05,643.17,-1.9575e-05,-0.016024,-2.6288e-05,-50.458,2.3137
22368,21.045,4.2727,0.1,6.5387e-05,653.42,6.4245e-05,623.4,-1.8727e-05,-0.021162,-2.6226e-05,-56.364,2.3292
22369,20.952,4.3636,0.1,6.7213e-05,671.67,6.6145e-05,643.36,-1.9484e-05,-0.019057,-2.6589e-05,-53.401,2.3139
22370,21.045,4.0909,0.1,6.5564e-05,655.19,6.436e-05,623.68,-1.8649e-05,-0.023374,-2.65e-05,-59.008,2.3293
22371,20.952,4.1818,0.1,6.7387e-05,673.4,6.6257e-05,643.6,-1.9404e-05,-0.02149,-2.6864e-05,-56.079,2.314
22372,21.045,3.9091,0.1,6.5722e-05,656.77,6.4464e-05,623.95,-1.8583e-05,-0.025116,-2.6739e-05,-61.308,2.3294
22373,20.952,4,0.1,6.7545e-05,674.98,6.636e-05,643.84,-1.9334e-05,-0.023425,-2.711e-05,-58.447,2.3141
22374,21.045,3.7273,0.1,6.5856e-05,658.11,6.4552e-05,624.2,-1.8527e-05,-0.026457,-2.6939e-05,-63.231,2.3295
22375,20.952,3.8182,0.1,6.7682e-05,676.36,6.645e-05,644.08,-1.9275e-05,-0.024936,-2.732e-05,-60.472,2.3142
22376,21.045,3.5455,0.1,6.5964e-05,659.19,6.4623e-05,624.41,-1.8484e-05,-0.027451,-2.7099e-05,-64.753,2.3295
22377,20.952,3.6364,0.1,6.7797e-05,677.5,6.6526e-05,644.29,-1.9227e-05,-0.026083,-2.7492e-05,-62.124,2.3143
22378,21.045,3.3636,0.1,6.6043e-05,659.97,6.4675e-05,624.57,-1.8453e-05,-0.028137,-2.7214e-05,-65.853,2.3296
22379,20.952,3.4545,0.1,6.7885e-05,678.38,6.6584e-05,644.46,-1.9191e-05,-0.02691,-2.7623e-05,-63.382,2.3143
22380,21.045,3.1818,0.1,6.6091e-05,660.45,6.4707e-05,624.66,-1.8434e-05,-0.028537,-2.7284e-05,-66.519,2.3296
22381,20.952,3.2727,0.1,6.7945e-05,678.98,6.6624e-05,644.57,-1.9167e-05,-0.027445,-2.7712e-05,-64.229,2.3144
22382,21.045,3,0.1,6.6107e-05,660.61,6.4718e-05,624.69,-1.8428e-05,-0.028668,-2.7307e-05,-66.741,2.3296
22383,20.952,3.0909,0.1,6.7975e-05,679.28,6.6644e-05,644.63,-1.9155e-05,-0.027706,-2.7757e-05,-64.656,2.3144
22384,21.045,2.8182,0.1,6.6091e-05,660.45,6.4707e-05,624.66,-1.8434e-05,-0.028537,-2.7284e-05,-66.519,2.3296
22385,20.952,2.9091,0.1,6.7975e-05,679.28,6.6644e-05,644.63,-1.9155e-05,-0.027706,-2.7757e-05,-64.656,2.3144
22386,21.045,2.6364,0.1,6.6043e-05,659.97,6.4675e-05,624.57,-1.8453e-05,-0.028138,-2.7214e-05,-65.853,2.3296
22387,20.952,2.7273,0.1,6.7945e-05,678.98,6.6624e-05,644.57,-1.9167e-05,-0.027444,-2.7712e-05,-64.229,2.3144
22388,21.045,2.4545,0.1,6.5964e-05,659.19,6.4623e-05,624.41,-1.8484e-05,-0.027451,-2.7099e-05,-64.753,2.3295
22389,20.952,2.5455,0.1,6.7885e-05,678.38,6.6584e-05,644.46,-1.9191e-05,-0.026911,-2.7623e-05,-63.382,2.3143
22390,21.045,2.2727,0.1,6.5856e-05,658.11,6.4552e-05,624.2,-1.8527e-05,-0.026457,-2.6939e-05,-63.231,2.3295
22391,20.952,2.3636,0.1,6.7797e-05,677.5,6.6526e-05,644.29,-1.9227e-05,-0.026083,-2.7492e-05,-62.124,2.3143
22392,21.045,2.0909,0.1,6.5722e-05,656.77,6.4464e-05,623.95,-1.8583e-05,-0.025115,-2.6739e-05,-61.308,2.3294
22393,20.952,2.1818,0.1,6.7682e-05,676.36,6.645e-05,644.08,-1.9275e-05,-0.024937,-2.732e-05,-60.472,2.3142
22394,21.045,1.9091,0.1,6.5564e-05,655.19,6.436e-05,623.68,-1.8649e-05,-0.023374,-2.65e-05,-59.008,2.3293
22395,20.952,2,0.1,6.7545e-05,674.98,6.636e-05,643.84,-1.9334e-05,-0.023424,-2.711e-05,-58.447,2.3141
22396,21.045,1.7273,0.1,6.5387e-05,653.42,6.4245e-05,623.4,-1.8727e-05,-0.021163,-2.6226e-05,-56.364,2.3292
22397,20.952,1.8182,0.1,6.7387e-05,673.4,6.6257e-05,643.6,-1.9404e-05,-0.02149,-2.6864e-05,-56.079,2.314
22398,21.045,1.5455,0.1,6.5195e-05,651.5,6.4122e-05,623.14,-1.8816e-05,-0.018389,-2.5923e-05,-53.417,2.329
22399,20.952,1.6364,0.1,6.7213e-05,671.67,6.6145e-05,643.36,-1.9484e-05,-0.019057,-2.6589e-05,-53.401,2.3139
22400,21.045,1.3636,0.1,6.4996e-05,649.51,6.3995e-05,622.94,-1.8914e-05,-0.014946,-2.5595e-05,-50.214,2.3289
22401,20.952,1.4545,0.1,6.7029e-05,669.83,6.6028e-05,643.17,-1.9575e-05,-0.016024,-2.6288e-05,-50.458,2.3137
22402,21.045,1.1818,0.1,6.4795e-05,647.5,6.3871e-05,622.82,-1.9022e-05,-0.010656,-2.5251e-05,-46.813,2.3287
22403,20.952,1.2727,0.1,6.6842e-05,667.96,6.5911e-05,643.04,-1.9674e-05,-0.012288,-2.5968e-05,-47.3,2.3136
22404,21.045,1,0.1,6.46e-05,645.56,6.3755e-05,622.83,-1.9139e-05,-0.0054463,-2.4898e-05,-43.278,2.3285
22405,20.952,1.0909,0.1,6.6657e-05,666.11,6.58e-05,643.03,-1.9783e-05,-0.0076157,-2.5636e-05,-43.985,2.3134
22406,21.045,0.81818,0.1,6.4422e-05,643.78,6.3655e-05,623.02,-1.9263e-05,0.00141,-2.4545e-05,-39.683,2.3283
22407,20.952,0.90909,0.1,6.6485e-05,664.39,6.5701e-05,643.17,-1.9899e-05,-0.0021145,-2.53e-05,-40.578,2.3132
22408,21.045,0.63636,0.1,6.427e-05,642.26,6.358e-05,623.45,-1.9395e-05,0.0082043,-2.4202e-05,-36.112,2.3281
22409,20.952,0.72727,0.1,6.6332e-05,662.87,6.5622e-05,643.51,-2.0023e-05,0.0057145,-2.4969e-05,-37.154,2.313
22410,21.045,0.45455,0.1,6.4167e-05,641.22,6.3548e-05,624.25,-1.9531e-05,0.026432,-2.3889e-05,-32.718,2.3279
22411,20.952,0.54545,0.1,6.6212e-05,661.66,6.5572e-05,644.12,-2.0153e-05,0.011011,-2.4653e-05,-33.8,2.3128
22412,21.045,0.27273,0.1,6.4317e-05,642.72,6.3737e-05,626.76,-1.9676e-05,0.026697,-2.3785e-05,-30.843,2.3277
22413,20.952,0.36364,0.1,6.6154e-05,661.08,6.5578e-05,645.2,-2.0288e-05,0.040503,-2.4382e-05,-30.726,2.3125
22414,20.952,0.18182,0.1,6.6558e-05,665.12,6.5986e-05,649.33,-2.0434e-05,0.0037514,-2.4498e-05,-30.529,2.3123
22415,21.045,0.090909,0.1,6.3144e-05,631.01,6.2771e-05,620.52,-1.9814e-05,0.0085918,-2.2542e-05,-20.49,2.3274
22416,20.86,5.7273,0.1,6.836e-05,683.13,6.7797e-05,667.54,-2.1045e-05,0.024578,-2.5066e-05,-30.186,2.2972
22417,20.768,5.8182,0.1,7.0617e-05,705.68,7.0058e-05,690.19,-2.18e-05,0.0027459,-2.5796e-05,-30.021,2.2818
22418,20.86,5.9091,0.1,6.7211e-05,671.65,6.6846e-05,661.35,-2.1174e-05,0.008495,-2.3856e-05,-20.144,2.2969
22419,20.86,5.5455,0.1,6.8187e-05,681.4,6.7592e-05,664.99,-2.091e-05,0.024979,-2.5136e-05,-31.732,2.2974
22420,20.768,5.6364,0.1,7.0195e-05,701.47,6.9639e-05,686.05,-2.1663e-05,0.038015,-2.5651e-05,-29.923,2.2821
22421,20.86,5.3636,0.1,6.8264e-05,682.17,6.7606e-05,664.12,-2.0782e-05,0.0081172,-2.5411e-05,-34.776,2.2976
22422,20.768,5.4545,0.1,7.0229e-05,701.8,6.9616e-05,684.9,-2.1537e-05,0.010641,-2.5887e-05,-32.669,2.2823
22423,20.86,5.1818,0.1,6.8386e-05,683.39,6.766e-05,663.6,-2.0659e-05,0.0018378,-2.5716e-05,-37.99,2.2979
22424,20.768,5.2727,0.1,7.0322e-05,702.74,6.9647e-05,684.22,-2.1416e-05,0.0058094,-2.6166e-05,-35.684,2.2825
22425,20.86,5,0.1,6.8534e-05,684.86,6.7739e-05,663.31,-2.0543e-05,-0.0045778,-2.603e-05,-41.23,2.2981
22426,20.768,5.0909,0.1,7.0446e-05,703.97,6.9706e-05,683.79,-2.1301e-05,-0.0014969,-2.646e-05,-38.767,2.2828
22427,20.86,4.8182,0.1,6.8697e-05,686.5,6.7834e-05,663.21,-2.0435e-05,-0.0094952,-2.6346e-05,-44.421,2.2983
22428,20.768,4.9091,0.1,7.0589e-05,705.41,6.9784e-05,683.55,-2.1192e-05,-0.0066705,-2.6759e-05,-41.838,2.283
22429,20.86,4.6364,0.1,6.8869e-05,688.21,6.7938e-05,663.23,-2.0335e-05,-0.013577,-2.6654e-05,-47.497,2.2984
22430,20.768,4.7273,0.1,7.0745e-05,706.96,6.9876e-05,683.47,-2.1091e-05,-0.011104,-2.7056e-05,-44.832,2.2831
22431,20.86,4.4545,0.1,6.9041e-05,689.93,6.8045e-05,663.35,-2.0243e-05,-0.016875,-2.6948e-05,-50.4,2.2986
22432,20.768,4.5455,0.1,7.0905e-05,708.56,6.9973e-05,683.51,-2.0998e-05,-0.014671,-2.7343e-05,-47.69,2.2833
22433,20.86,4.2727,0.1,6.9207e-05,691.6,6.8151e-05,663.52,-2.0161e-05,-0.019546,-2.7222e-05,-53.075,2.2987
22434,20.768,4.3636,0.1,7.1064e-05,710.15,7.0073e-05,683.62,-2.0914e-05,-0.017585,-2.7614e-05,-50.357,2.2834
22435,20.86,4.0909,0.1,6.9362e-05,693.14,6.8251e-05,663.73,-2.0088e-05,-0.021686,-2.7469e-05,-55.48,2.2988
22436,20.768,4.1818,0.1,7.1214e-05,711.65,7.0169e-05,683.78,-2.0839e-05,-0.019938,-2.7862e-05,-52.788,2.2836
22437,20.86,3.9091,0.1,6.9501e-05,694.53,6.8342e-05,663.94,-2.0026e-05,-0.023378,-2.7686e-05,-57.576,2.2989
22438,20.768,4,0.1,7.1352e-05,713.03,7.0258e-05,683.96,-2.0774e-05,-0.021811,-2.8083e-05,-54.942,2.2837
22439,20.86,3.7273,0.1,6.9619e-05,695.71,6.8419e-05,664.13,-1.9975e-05,-0.024687,-2.7868e-05,-59.331,2.299
22440,20.768,3.8182,0.1,7.1473e-05,714.24,7.0337e-05,684.14,-2.0719e-05,-0.023283,-2.8274e-05,-56.786,2.2838
22441,20.86,3.5455,0.1,6.9714e-05,696.66,6.8482e-05,664.3,-1.9935e-05,-0.025661,-2.8013e-05,-60.721,2.2991
22442,20.768,3.6364,0.1,7.1574e-05,715.24,7.0403e-05,684.3,-2.0675e-05,-0.024404,-2.843e-05,-58.293,2.2839
22443,20.86,3.3636,0.1,6.9784e-05,697.36,6.8528e-05,664.43,-1.9906e-05,-0.026332,-2.8117e-05,-61.727,2.2991
22444,20.768,3.4545,0.1,7.1651e-05,716.02,7.0455e-05,684.44,-2.0642e-05,-0.025213,-2.8549e-05,-59.441,2.2839
22445,20.86,3.1818,0.1,6.9826e-05,697.78,6.8556e-05,664.51,-1.9888e-05,-0.026725,-2.8181e-05,-62.335,2.2992
22446,20.768,3.2727,0.1,7.1704e-05,716.55,7.049e-05,684.53,-2.0619e-05,-0.025737,-2.863e-05,-60.215,2.284
22447,20.86,3,0.1,6.9841e-05,697.92,6.8566e-05,664.54,-1.9882e-05,-0.026855,-2.8202e-05,-62.539,2.2992
22448,20.768,3.0909,0.1,7.1731e-05,716.82,7.0507e-05,684.58,-2.0608e-05,-0.025994,-2.867e-05,-60.605,2.284
22449,20.86,2.8182,0.1,6.9826e-05,697.78,6.8556e-05,664.51,-1.9888e-05,-0.026725,-2.8181e-05,-62.335,2.2992
22450,20.768,2.9091,0.1,7.1731e-05,716.82,7.0507e-05,684.58,-2.0608e-05,-0.025995,-2.867e-05,-60.605,2.284
22451,20.86,2.6364,0.1,6.9784e-05,697.36,6.8528e-05,664.43,-1.9906e-05,-0.026331,-2.8117e-05,-61.727,2.2991
22452,20.768,2.7273,0.1,7.1704e-05,716.55,7.049e-05,684.53,-2.0619e-05,-0.025736,-2.863e-05,-60.215,2.284
22453,20.86,2.4545,0.1,6.9714e-05,696.66,6.8482e-05,664.3,-1.9935e-05,-0.02566,-2.8013e-05,-60.721,2.2991
22454,20.768,2.5455,0.1,7.1651e-05,716.02,7.0455e-05,684.44,-2.0642e-05,-0.025213,-2.8549e-05,-59.441,2.2839
22455,20.86,2.2727,0.1,6.9619e-05,695.71,6.8419e-05,664.13,-1.9975e-05,-0.024688,-2.7868e-05,-59.331,2.299
22456,20.768,2.3636,0.1,7.1574e-05,715.24,7.0403e-05,684.3,-2.0675e-05,-0.024404,-2.843e-05,-58.293,2.2839
22457,20.86,2.0909,0.1,6.9501e-05,694.53,6.8342e-05,663.94,-2.0026e-05,-0.023379,-2.7686e-05,-57.576,2.2989
22458,20.768,2.1818,0.1,7.1473e-05,714.24,7.0337e-05,684.14,-2.0719e-05,-0.023284,-2.8274e-05,-56.786,2.2838
22459,20.86,1.9091,0.1,6.9362e-05,693.14,6.8251e-05,663.73,-2.0088e-05,-0.021685,-2.7469e-05,-55.48,2.2988
22460,20.768,2,0.1,7.1352e-05,713.03,7.0258e-05,683.96,-2.0774e-05,-0.02181,-2.8083e-05,-54.942,2.2837
22461,20.86,1.7273,0.1,6.9207e-05,691.6,6.8151e-05,663.52,-2.0161e-05,-0.019545,-2.7222e-05,-53.075,2.2987
22462,20.768,1.8182,0.1,7.1214e-05,711.65,7.0169e-05,683.78,-2.0839e-05,-0.019938,-2.7862e-05,-52.788,2.2836
22463,20.86,1.5455,0.1,6.9041e-05,689.93,6.8045e-05,663.35,-2.0243e-05,-0.016875,-2.6948e-05,-50.399,2.2986
22464,20.768,1.6364,0.1,7.1064e-05,710.15,7.0073e-05,683.62,-2.0914e-05,-0.017585,-2.7614e-05,-50.357,2.2834
22465,20.86,1.3636,0.1,6.8869e-05,688.21,6.7938e-05,663.23,-2.0335e-05,-0.013577,-2.6654e-05,-47.497,2.2984
22466,20.768,1.4545,0.1,7.0905e-05,708.56,6.9973e-05,683.51,-2.0998e-05,-0.014672,-2.7343e-05,-47.689,2.2833
22467,20.86,1.1818,0.1,6.8697e-05,686.5,6.7834e-05,663.21,-2.0435e-05,-0.009496,-2.6346e-05,-44.421,2.2983
22468,20.768,1.2727,0.1,7.0745e-05,706.96,6.9876e-05,683.47,-2.1091e-05,-0.011103,-2.7056e-05,-44.832,2.2831
22469,20.86,1,0.1,6.8534e-05,684.86,6.7739e-05,663.31,-2.0543e-05,-0.0045795,-2.603e-05,-41.23,2.2981
22470,20.768,1.0909,0.1,7.0589e-05,705.41,6.9784e-05,683.55,-2.1192e-05,-0.0066726,-2.6759e-05,-41.838,2.283
22471,20.86,0.81818,0.1,6.8386e-05,683.39,6.766e-05,663.6,-2.0659e-05,0.0018374,-2.5716e-05,-37.989,2.2979
22472,20.768,0.90909,0.1,7.0446e-05,703.97,6.9706e-05,683.79,-2.1301e-05,-0.0014978,-2.646e-05,-38.767,2.2828
22473,20.86,0.63636,0.1,6.8264e-05,682.17,6.7606e-05,664.12,-2.0782e-05,0.0081164,-2.5411e-05,-34.776,2.2976
22474,20.768,0.72727,0.1,7.0322e-05,702.74,6.9647e-05,684.22,-2.1416e-05,0.0058075,-2.6166e-05,-35.684,2.2825
22475,20.86,0.45455,0.1,6.8187e-05,681.4,6.7592e-05,664.99,-2.091e-05,0.02498,-2.5136e-05,-31.732,2.2974
22476,20.768,0.54545,0.1,7.0229e-05,701.8,6.9616e-05,684.9,-2.1537e-05,0.01064,-2.5887e-05,-32.669,2.2823
22477,20.86,0.27273,0.1,6.836e-05,683.13,6.7797e-05,667.54,-2.1045e-05,0.024581,-2.5066e-05,-30.186,2.2972
22478,20.768,0.36364,0.1,7.0195e-05,701.47,6.9639e-05,686.05,-2.1663e-05,0.038016,-2.5651e-05,-29.923,2.2821
22479,20.768,0.18182,0.1,7.0617e-05,705.68,7.0058e-05,690.19,-2.18e-05,0.0027468,-2.5796e-05,-30.021,2.2818
22480,20.86,0.090909,0.1,6.7211e-05,671.65,6.6846e-05,661.35,-2.1174e-05,0.0084958,-2.3856e-05,-20.144,2.2969
22481,20.675,5.7273,0.1,7.2418e-05,723.68,7.1871e-05,708.47,-2.2418e-05,0.022704,-2.6352e-05,-29.54,2.2667
22482,20.583,5.8182,0.1,7.469e-05,746.38,7.4144e-05,731.19,-2.3171e-05,0.0019406,-2.7099e-05,-29.508,2.2513
22483,20.675,5.9091,0.1,7.1293e-05,712.44,7.0936e-05,702.34,-2.2539e-05,0.0083535,-2.5174e-05,-19.796,2.2664
22484,20.675,5.5455,0.1,7.2226e-05,721.76,7.1653e-05,705.88,-2.2291e-05,0.023626,-2.6392e-05,-30.789,2.267
22485,20.583,5.6364,0.1,7.4253e-05,742.02,7.3715e-05,727.03,-2.3042e-05,0.035738,-2.6927e-05,-29.148,2.2516
22486,20.675,5.3636,0.1,7.2278e-05,722.28,7.1649e-05,704.94,-2.2172e-05,0.0079855,-2.6633e-05,-33.516,2.2672
22487,20.583,5.4545,0.1,7.4265e-05,742.13,7.3677e-05,725.84,-2.2925e-05,0.010266,-2.7131e-05,-31.596,2.2519
22488,20.675,5.1818,0.1,7.2373e-05,723.23,7.1685e-05,704.35,-2.2057e-05,0.0021653,-2.6902e-05,-36.404,2.2674
22489,20.583,5.2727,0.1,7.4334e-05,742.83,7.3691e-05,725.08,-2.2811e-05,0.005843,-2.7377e-05,-34.302,2.2521
22490,20.675,5,0.1,7.2494e-05,724.44,7.1745e-05,703.97,-2.1949e-05,-0.0038527,-2.7182e-05,-39.321,2.2676
22491,20.583,5.0909,0.1,7.4432e-05,743.8,7.3732e-05,724.57,-2.2703e-05,-0.00098893,-2.7637e-05,-37.074,2.2523
22492,20.675,4.8182,0.1,7.263e-05,725.8,7.182e-05,703.77,-2.1848e-05,-0.0085024,-2.7463e-05,-42.199,2.2678
22493,20.583,4.9091,0.1,7.4549e-05,744.98,7.3791e-05,724.26,-2.2602e-05,-0.0058661,-2.7903e-05,-39.84,2.2526
22494,20.675,4.6364,0.1,7.2775e-05,727.25,7.1905e-05,703.71,-2.1754e-05,-0.012389,-2.7739e-05,-44.978,2.268
22495,20.583,4.7273,0.1,7.4679e-05,746.27,7.3864e-05,724.09,-2.2508e-05,-0.010075,-2.8168e-05,-42.54,2.2527
22496,20.675,4.4545,0.1,7.2922e-05,728.71,7.1995e-05,703.74,-2.1669e-05,-0.015548,-2.8003e-05,-47.603,2.2682
22497,20.583,4.5455,0.1,7.4814e-05,747.63,7.3944e-05,724.04,-2.2421e-05,-0.013485,-2.8425e-05,-45.121,2.2529
22498,20.675,4.2727,0.1,7.3065e-05,730.14,7.2085e-05,703.84,-2.1592e-05,-0.018121,-2.8248e-05,-50.028,2.2683
22499,20.583,4.3636,0.1,7.4949e-05,748.98,7.4027e-05,724.07,-2.2343e-05,-0.016286,-2.8667e-05,-47.535,2.2531
22500,20.675,4.0909,0.1,7.3199e-05,731.48,7.2171e-05,703.97,-2.1525e-05,-0.020192,-2.8471e-05,-52.211,2.2684
22501,20.583,4.1818,0.1,7.5079e-05,750.27,7.4109e-05,724.15,-2.2273e-05,-0.018554,-2.889e-05,-49.738,2.2532
22502,20.675,3.9091,0.1,7.332e-05,732.69,7.2249e-05,704.12,-2.1467e-05,-0.021838,-2.8667e-05,-54.116,2.2686
22503,20.583,4,0.1,7.5198e-05,751.46,7.4185e-05,724.27,-2.2212e-05,-0.020376,-2.909e-05,-51.693,2.2533
22504,20.675,3.7273,0.1,7.3423e-05,733.72,7.2316e-05,704.27,-2.1419e-05,-0.023114,-2.8831e-05,-55.713,2.2686
22505,20.583,3.8182,0.1,7.5303e-05,752.51,7.4253e-05,724.4,-2.2161e-05,-0.021811,-2.9261e-05,-53.368,2.2534
22506,20.675,3.5455,0.1,7.3507e-05,734.56,7.2371e-05,704.4,-2.1382e-05,-0.024065,-2.8962e-05,-56.98,2.2687
22507,20.583,3.6364,0.1,7.5391e-05,753.39,7.431e-05,724.52,-2.212e-05,-0.022904,-2.9403e-05,-54.739,2.2535
22508,20.675,3.3636,0.1,7.3568e-05,735.17,7.2411e-05,704.5,-2.1355e-05,-0.024723,-2.9057e-05,-57.897,2.2688
22509,20.583,3.4545,0.1,7.5459e-05,754.07,7.4355e-05,724.62,-2.2089e-05,-0.023695,-2.951e-05,-55.785,2.2536
22510,20.675,3.1818,0.1,7.3605e-05,735.54,7.2436e-05,704.56,-2.1339e-05,-0.025109,-2.9115e-05,-58.452,2.2688
22511,20.583,3.2727,0.1,7.5505e-05,754.53,7.4385e-05,724.69,-2.2068e-05,-0.024209,-2.9583e-05,-56.49,2.2536
22512,20.675,3,0.1,7.3618e-05,735.67,7.2444e-05,704.59,-2.1333e-05,-0.025236,-2.9134e-05,-58.638,2.2688
22513,20.583,3.0909,0.1,7.5529e-05,754.77,7.4401e-05,724.73,-2.2058e-05,-0.024461,-2.962e-05,-56.845,2.2536
22514,20.675,2.8182,0.1,7.3605e-05,735.54,7.2436e-05,704.56,-2.1339e-05,-0.025108,-2.9115e-05,-58.452,2.2688
22515,20.583,2.9091,0.1,7.5529e-05,754.77,7.4401e-05,724.73,-2.2058e-05,-0.024462,-2.962e-05,-56.845,2.2536
22516,20.675,2.6364,0.1,7.3568e-05,735.17,7.2411e-05,704.5,-2.1355e-05,-0.024723,-2.9057e-05,-57.897,2.2688
22517,20.583,2.7273,0.1,7.5505e-05,754.53,7.4385e-05,724.69,-2.2068e-05,-0.024209,-2.9583e-05,-56.49,2.2536
22518,20.675,2.4545,0.1,7.3507e-05,734.56,7.2371e-05,704.4,-2.1382e-05,-0.024066,-2.8962e-05,-56.98,2.2687
22519,20.583,2.5455,0.1,7.5459e-05,754.07,7.4355e-05,724.62,-2.2089e-05,-0.023696,-2.951e-05,-55.785,2.2536
22520,20.675,2.2727,0.1,7.3423e-05,733.72,7.2316e-05,704.27,-2.1419e-05,-0.023114,-2.8831e-05,-55.713,2.2686
22521,20.583,2.3636,0.1,7.5391e-05,753.39,7.431e-05,724.52,-2.212e-05,-0.022904,-2.9403e-05,-54.739,2.2535
22522,20.675,2.0909,0.1,7.332e-05,732.69,7.2249e-05,704.12,-2.1467e-05,-0.021837,-2.8667e-05,-54.116,2.2686
22523,20.583,2.1818,0.1,7.5303e-05,752.51,7.4253e-05,724.4,-2.2161e-05,-0.021811,-2.9261e-05,-53.368,2.2534
22524,20.675,1.9091,0.1,7.3199e-05,731.48,7.2171e-05,703.97,-2.1525e-05,-0.020192,-2.8471e-05,-52.211,2.2684
22525,20.583,2,0.1,7.5198e-05,751.46,7.4185e-05,724.27,-2.2212e-05,-0.020376,-2.909e-05,-51.693,2.2533
22526,20.675,1.7273,0.1,7.3065e-05,730.14,7.2085e-05,703.84,-2.1592e-05,-0.018121,-2.8248e-05,-50.028,2.2683
22527,20.583,1.8182,0.1,7.5079e-05,750.27,7.4109e-05,724.15,-2.2273e-05,-0.018556,-2.889e-05,-49.738,2.2532
22528,20.675,1.5455,0.1,7.2922e-05,728.71,7.1995e-05,703.74,-2.1669e-05,-0.015549,-2.8003e-05,-47.603,2.2682
22529,20.583,1.6364,0.1,7.4949e-05,748.98,7.4027e-05,724.07,-2.2343e-05,-0.016285,-2.8667e-05,-47.535,2.2531
22530,20.675,1.3636,0.1,7.2775e-05,727.25,7.1905e-05,703.71,-2.1754e-05,-0.012389,-2.7739e-05,-44.978,2.268
22531,20.583,1.4545,0.1,7.4814e-05,747.63,7.3944e-05,724.04,-2.2421e-05,-0.013486,-2.8425e-05,-45.121,2.2529
22532,20.675,1.1818,0.1,7.263e-05,725.8,7.182e-05,703.77,-2.1848e-05,-0.0085031,-2.7463e-05,-42.199,2.2678
22533,20.583,1.2727,0.1,7.4679e-05,746.27,7.3864e-05,724.09,-2.2508e-05,-0.010075,-2.8168e-05,-42.54,2.2527
22534,20.675,1,0.1,7.2494e-05,724.44,7.1745e-05,703.97,-2.1949e-05,-0.0038539,-2.7182e-05,-39.321,2.2676
22535,20.583,1.0909,0.1,7.4549e-05,744.98,7.3791e-05,724.26,-2.2602e-05,-0.0058674,-2.7903e-05,-39.84,2.2526
22536,20.675,0.81818,0.1,7.2373e-05,723.23,7.1685e-05,704.35,-2.2057e-05,0.002163,-2.6902e-05,-36.404,2.2674
22537,20.583,0.90909,0.1,7.4432e-05,743.8,7.3732e-05,724.57,-2.2703e-05,-0.00099095,-2.7637e-05,-37.074,2.2523
22538,20.675,0.63636,0.1,7.2278e-05,722.28,7.1649e-05,704.94,-2.2172e-05,0.0079839,-2.6633e-05,-33.515,2.2672
22539,20.583,0.72727,0.1,7.4334e-05,742.83,7.3691e-05,725.08,-2.2811e-05,0.0058404,-2.7377e-05,-34.302,2.2521
22540,20.675,0.45455,0.1,7.2226e-05,721.76,7.1653e-05,705.88,-2.2291e-05,0.023626,-2.6392e-05,-30.789,2.267
22541,20.583,0.54545,0.1,7.4265e-05,742.13,7.3677e-05,725.84,-2.2925e-05,0.010269,-2.7131e-05,-31.596,2.2519
22542,20.675,0.27273,0.1,7.2418e-05,723.68,7.1871e-05,708.47,-2.2418e-05,0.022704,-2.6352e-05,-29.54,2.2667
22543,20.583,0.36364,0.1,7.4253e-05,742.02,7.3715e-05,727.03,-2.3042e-05,0.035738,-2.6927e-05,-29.148,2.2516
22544,20.583,0.18182,0.1,7.469e-05,746.38,7.4144e-05,731.19,-2.3171e-05,0.0019402,-2.7099e-05,-29.508,2.2513
22545,20.675,0.090909,0.1,7.1293e-05,712.44,7.0936e-05,702.34,-2.2539e-05,0.0083554,-2.5174e-05,-19.796,2.2664
22546,20.491,5.7273,0.1,7.6492e-05,764.39,7.5959e-05,749.54,-2.3795e-05,0.02104,-2.7645e-05,-28.904,2.2363
22547,20.398,5.8182,0.1,7.8777e-05,787.23,7.8244e-05,772.33,-2.4547e-05,0.0012938,-2.8406e-05,-28.994,2.221
22548,20.491,5.9091,0.1,7.539e-05,753.38,7.504e-05,743.47,-2.3908e-05,0.0081841,-2.6498e-05,-19.448,2.236
22549,20.491,5.5455,0.1,7.6282e-05,762.29,7.573e-05,746.92,-2.3676e-05,0.022368,-2.7657e-05,-29.886,2.2366
22550,20.398,5.6364,0.1,7.8327e-05,782.73,7.7806e-05,768.16,-2.4426e-05,0.033644,-2.821e-05,-28.398,2.2212
22551,20.491,5.3636,0.1,7.6312e-05,762.59,7.5711e-05,745.92,-2.3564e-05,0.0078247,-2.7867e-05,-32.324,2.2368
22552,20.398,5.4545,0.1,7.832e-05,782.65,7.7755e-05,766.92,-2.4315e-05,0.0098919,-2.8386e-05,-30.575,2.2215
22553,20.491,5.1818,0.1,7.6384e-05,763.31,7.573e-05,745.26,-2.3457e-05,0.0024166,-2.8105e-05,-34.917,2.2371
22554,20.398,5.2727,0.1,7.8367e-05,783.13,7.7754e-05,766.11,-2.4209e-05,0.0058281,-2.8602e-05,-33.001,2.2218
22555,20.491,5,0.1,7.6479e-05,764.27,7.5772e-05,744.8,-2.3356e-05,-0.0032371,-2.8352e-05,-37.54,2.2373
22556,20.398,5.0909,0.1,7.8442e-05,783.88,7.7778e-05,765.53,-2.4108e-05,-0.00057213,-2.8831e-05,-35.49,2.222
22557,20.491,4.8182,0.1,7.6591e-05,765.38,7.5829e-05,744.52,-2.3262e-05,-0.00764,-2.8602e-05,-40.132,2.2375
22558,20.398,4.9091,0.1,7.8535e-05,784.81,7.782e-05,765.13,-2.4013e-05,-0.0051777,-2.9067e-05,-37.977,2.2222
22559,20.491,4.6364,0.1,7.6712e-05,766.59,7.5897e-05,744.37,-2.3174e-05,-0.011346,-2.8848e-05,-42.638,2.2377
22560,20.398,4.7273,0.1,7.8642e-05,785.87,7.7876e-05,764.89,-2.3925e-05,-0.0091789,-2.9302e-05,-40.409,2.2224
22561,20.491,4.4545,0.1,7.6836e-05,767.83,7.5971e-05,744.32,-2.3095e-05,-0.014376,-2.9083e-05,-45.01,2.2378
22562,20.398,4.5455,0.1,7.8754e-05,787,7.794e-05,764.76,-2.3844e-05,-0.012443,-2.9531e-05,-42.737,2.2226
22563,20.491,4.2727,0.1,7.6958e-05,769.04,7.6045e-05,744.35,-2.3023e-05,-0.016855,-2.9303e-05,-47.203,2.238
22564,20.398,4.3636,0.1,7.8868e-05,788.14,7.8008e-05,764.71,-2.3771e-05,-0.015137,-2.9747e-05,-44.917,2.2227
22565,20.491,4.0909,0.1,7.7073e-05,770.19,7.6118e-05,744.42,-2.2961e-05,-0.018861,-2.9504e-05,-49.181,2.2381
22566,20.398,4.1818,0.1,7.8979e-05,789.24,7.8076e-05,764.73,-2.3706e-05,-0.01733,-2.9947e-05,-46.909,2.2229
22567,20.491,3.9091,0.1,7.7177e-05,771.23,7.6184e-05,744.51,-2.2907e-05,-0.020461,-2.9679e-05,-50.908,2.2382
22568,20.398,4,0.1,7.9081e-05,790.26,7.814e-05,764.79,-2.365e-05,-0.019097,-3.0126e-05,-48.68,2.223
22569,20.491,3.7273,0.1,7.7266e-05,772.13,7.6242e-05,744.61,-2.2862e-05,-0.021705,-2.9828e-05,-52.359,2.2383
22570,20.398,3.8182,0.1,7.9171e-05,791.17,7.8197e-05,764.86,-2.3602e-05,-0.020492,-3.0281e-05,-50.199,2.2231
22571,20.491,3.5455,0.1,7.7339e-05,772.86,7.6289e-05,744.7,-2.2827e-05,-0.022636,-2.9946e-05,-53.51,2.2384
22572,20.398,3.6364,0.1,7.9247e-05,791.93,7.8246e-05,764.94,-2.3564e-05,-0.02156,-3.0408e-05,-51.443,2.2232
22573,20.491,3.3636,0.1,7.7392e-05,773.39,7.6324e-05,744.78,-2.2802e-05,-0.023278,-3.0032e-05,-54.344,2.2384
22574,20.398,3.4545,0.1,7.9306e-05,792.52,7.8285e-05,765.01,-2.3535e-05,-0.022334,-3.0505e-05,-52.393,2.2232
22575,20.491,3.1818,0.1,7.7425e-05,773.72,7.6346e-05,744.82,-2.2787e-05,-0.023655,-3.0084e-05,-54.849,2.2384
22576,20.398,3.2727,0.1,7.9347e-05,792.92,7.8311e-05,765.06,-2.3515e-05,-0.022838,-3.0571e-05,-53.033,2.2233
22577,20.491,3,0.1,7.7436e-05,773.83,7.6353e-05,744.84,-2.2782e-05,-0.02378,-3.0102e-05,-55.019,2.2385
22578,20.398,3.0909,0.1,7.9367e-05,793.12,7.8324e-05,765.09,-2.3506e-05,-0.023085,-3.0604e-05,-53.356,2.2233
22579,20.491,2.8182,0.1,7.7425e-05,773.72,7.6346e-05,744.82,-2.2787e-05,-0.023657,-3.0084e-05,-54.849,2.2384
22580,20.398,2.9091,0.1,7.9367e-05,793.12,7.8324e-05,765.09,-2.3506e-05,-0.023085,-3.0604e-05,-53.356,2.2233
22581,20.491,2.6364,0.1,7.7392e-05,773.39,7.6324e-05,744.78,-2.2802e-05,-0.023279,-3.0032e-05,-54.344,2.2384
22582,20.398,2.7273,0.1,7.9347e-05,792.92,7.8311e-05,765.06,-2.3515e-05,-0.022838,-3.0571e-05,-53.033,2.2233
22583,20.491,2.4545,0.1,7.7339e-05,772.86,7.6289e-05,744.7,-2.2827e-05,-0.022636,-2.9946e-05,-53.51,2.2384
22584,20.398,2.5455,0.1,7.9306e-05,792.52,7.8285e-05,765.01,-2.3535e-05,-0.022335,-3.0505e-05,-52.393,2.2232
22585,20.491,2.2727,0.1,7.7266e-05,772.13,7.6242e-05,744.61,-2.2862e-05,-0.021705,-2.9828e-05,-52.359,2.2383
22586,20.398,2.3636,0.1,7.9247e-05,791.93,7.8246e-05,764.94,-2.3564e-05,-0.02156,-3.0408e-05,-51.443,2.2232
22587,20.491,2.0909,0.1,7.7177e-05,771.23,7.6184e-05,744.51,-2.2907e-05,-0.020462,-2.9679e-05,-50.908,2.2382
22588,20.398,2.1818,0.1,7.9171e-05,791.17,7.8197e-05,764.86,-2.3602e-05,-0.020493,-3.0281e-05,-50.199,2.2231
22589,20.491,1.9091,0.1,7.7073e-05,770.19,7.6118e-05,744.42,-2.2961e-05,-0.018862,-2.9504e-05,-49.181,2.2381
22590,20.398,2,0.1,7.9081e-05,790.26,7.814e-05,764.79,-2.365e-05,-0.019098,-3.0126e-05,-48.68,2.223
22591,20.491,1.7273,0.1,7.6958e-05,769.04,7.6045e-05,744.35,-2.3023e-05,-0.016856,-2.9303e-05,-47.203,2.238
22592,20.398,1.8182,0.1,7.8979e-05,789.24,7.8076e-05,764.73,-2.3706e-05,-0.017331,-2.9947e-05,-46.909,2.2229
22593,20.491,1.5455,0.1,7.6836e-05,767.83,7.5971e-05,744.32,-2.3095e-05,-0.014375,-2.9083e-05,-45.01,2.2378
22594,20.398,1.6364,0.1,7.8868e-05,788.14,7.8008e-05,764.71,-2.3771e-05,-0.015136,-2.9747e-05,-44.917,2.2227
22595,20.491,1.3636,0.1,7.6712e-05,766.59,7.5897e-05,744.37,-2.3174e-05,-0.011345,-2.8848e-05,-42.638,2.2377
22596,20.398,1.4545,0.1,7.8754e-05,787,7.794e-05,764.76,-2.3844e-05,-0.012443,-2.9531e-05,-42.737,2.2226
22597,20.491,1.1818,0.1,7.6591e-05,765.38,7.5829e-05,744.52,-2.3262e-05,-0.0076405,-2.8602e-05,-40.132,2.2375
22598,20.398,1.2727,0.1,7.8642e-05,785.87,7.7876e-05,764.89,-2.3925e-05,-0.0091791,-2.9302e-05,-40.409,2.2224
22599,20.491,1,0.1,7.6479e-05,764.27,7.5772e-05,744.8,-2.3356e-05,-0.0032392,-2.8352e-05,-37.54,2.2373
22600,20.398,1.0909,0.1,7.8535e-05,784.81,7.782e-05,765.13,-2.4013e-05,-0.0051781,-2.9067e-05,-37.977,2.2222
22601,20.491,0.81818,0.1,7.6384e-05,763.31,7.573e-05,745.26,-2.3457e-05,0.0024143,-2.8105e-05,-34.917,2.2371
22602,20.398,0.90909,0.1,7.8442e-05,783.88,7.7778e-05,765.53,-2.4108e-05,-0.00057544,-2.8831e-05,-35.49,2.222
22603,20.491,0.63636,0.1,7.6312e-05,762.59,7.5711e-05,745.92,-2.3564e-05,0.0078264,-2.7867e-05,-32.324,2.2368
22604,20.398,0.72727,0.1,7.8367e-05,783.13,7.7754e-05,766.11,-2.4209e-05,0.0058265,-2.8602e-05,-33.001,2.2218
22605,20.491,0.45455,0.1,7.6282e-05,762.29,7.573e-05,746.92,-2.3676e-05,0.022371,-2.7657e-05,-29.886,2.2366
22606,20.398,0.54545,0.1,7.832e-05,782.66,7.7755e-05,766.92,-2.4315e-05,0.0098961,-2.8386e-05,-30.575,2.2215
22607,20.491,0.27273,0.1,7.6492e-05,764.39,7.5959e-05,749.54,-2.3795e-05,0.021039,-2.7645e-05,-28.904,2.2363
22608,20.398,0.36364,0.1,7.8327e-05,782.73,7.7806e-05,768.16,-2.4426e-05,0.033644,-2.821e-05,-28.398,2.2212
22609,20.398,0.18182,0.1,7.8777e-05,787.23,7.8244e-05,772.33,-2.4547e-05,0.0012927,-2.8406e-05,-28.994,2.221
22610,20.491,0.090909,0.1,7.539e-05,753.38,7.504e-05,743.47,-2.3908e-05,0.0081832,-2.6498e-05,-19.448,2.236
22611,20.306,5.7273,0.1,8.0581e-05,805.25,8.0063e-05,790.75,-2.5177e-05,0.019548,-2.8943e-05,-28.282,2.2059
22612,20.213,5.8182,0.1,8.2879e-05,828.22,8.2358e-05,813.61,-2.5927e-05,0.00077594,-2.9718e-05,-28.48,2.1906
22613,20.306,5.9091,0.1,7.9502e-05,794.47,7.916e-05,784.75,-2.5283e-05,0.0079869,-2.7826e-05,-19.101,2.2056
22614,20.306,5.5455,0.1,8.0355e-05,803,7.9823e-05,788.11,-2.5065e-05,0.021191,-2.893e-05,-29.022,2.2062
22615,20.213,5.6364,0.1,8.2419e-05,823.62,8.1913e-05,809.45,-2.5813e-05,0.031716,-2.9501e-05,-27.673,2.1909
22616,20.306,5.3636,0.1,8.0366e-05,803.11,7.979e-05,787.06,-2.496e-05,0.0076378,-2.9113e-05,-31.196,2.2065
22617,20.213,5.4545,0.1,8.2393e-05,823.36,8.185e-05,808.17,-2.5709e-05,0.0095236,-2.9651e-05,-29.604,2.1912
22618,20.306,5.1818,0.1,8.0417e-05,803.61,7.9794e-05,786.33,-2.486e-05,0.0025994,-2.9321e-05,-33.521,2.2067
22619,20.213,5.2727,0.1,8.2421e-05,823.64,8.1835e-05,807.3,-2.5609e-05,0.0057776,-2.9839e-05,-31.774,2.1915
22620,20.306,5,0.1,8.049e-05,804.35,7.982e-05,785.81,-2.4765e-05,-0.0027228,-2.954e-05,-35.876,2.2069
22621,20.213,5.0909,0.1,8.2475e-05,824.18,8.1844e-05,806.65,-2.5515e-05,-0.00023037,-3.0041e-05,-34.005,2.1917
22622,20.306,4.8182,0.1,8.0579e-05,805.24,7.9861e-05,785.45,-2.4677e-05,-0.0068992,-2.9761e-05,-38.206,2.2072
22623,20.213,4.9091,0.1,8.2547e-05,824.9,8.1871e-05,806.19,-2.5426e-05,-0.0045865,-3.0249e-05,-36.238,2.1919
22624,20.306,4.6364,0.1,8.0678e-05,806.22,7.9913e-05,785.22,-2.4595e-05,-0.010436,-2.9979e-05,-40.463,2.2073
22625,20.213,4.7273,0.1,8.2632e-05,825.75,8.1912e-05,805.87,-2.5344e-05,-0.0083963,-3.0457e-05,-38.424,2.1921
22626,20.306,4.4545,0.1,8.0781e-05,807.25,7.9972e-05,785.1,-2.4521e-05,-0.013344,-3.0189e-05,-42.601,2.2075
22627,20.213,4.5455,0.1,8.2725e-05,826.68,8.1961e-05,805.67,-2.5268e-05,-0.011522,-3.066e-05,-40.52,2.1923
22628,20.306,4.2727,0.1,8.0884e-05,808.28,8.0033e-05,785.06,-2.4454e-05,-0.015737,-3.0386e-05,-44.582,2.2077
22629,20.213,4.3636,0.1,8.2819e-05,827.62,8.2014e-05,805.55,-2.52e-05,-0.014115,-3.0853e-05,-42.486,2.1925
22630,20.306,4.0909,0.1,8.0981e-05,809.25,8.0092e-05,785.06,-2.4396e-05,-0.017679,-3.0565e-05,-46.37,2.2078
22631,20.213,4.1818,0.1,8.2912e-05,828.55,8.2069e-05,805.51,-2.5139e-05,-0.016237,-3.1031e-05,-44.284,2.1926
22632,20.306,3.9091,0.1,8.107e-05,810.14,8.0148e-05,785.1,-2.4345e-05,-0.019233,-3.0722e-05,-47.933,2.2079
22633,20.213,4,0.1,8.2998e-05,829.41,8.2122e-05,805.51,-2.5087e-05,-0.017951,-3.1191e-05,-45.885,2.1927
22634,20.306,3.7273,0.1,8.1147e-05,810.91,8.0197e-05,785.16,-2.4304e-05,-0.020446,-3.0856e-05,-49.247,2.208
22635,20.213,3.8182,0.1,8.3075e-05,830.18,8.217e-05,805.53,-2.5042e-05,-0.019309,-3.1329e-05,-47.259,2.1928
22636,20.306,3.5455,0.1,8.121e-05,811.54,8.0237e-05,785.21,-2.4271e-05,-0.021354,-3.0962e-05,-50.291,2.2081
22637,20.213,3.6364,0.1,8.314e-05,830.83,8.2211e-05,805.57,-2.5006e-05,-0.020353,-3.1443e-05,-48.386,2.1929
22638,20.306,3.3636,0.1,8.1256e-05,812,8.0267e-05,785.26,-2.4248e-05,-0.021984,-3.1039e-05,-51.048,2.2081
22639,20.213,3.4545,0.1,8.3191e-05,831.34,8.2244e-05,805.61,-2.4979e-05,-0.02111,-3.1531e-05,-49.246,2.193
22640,20.306,3.1818,0.1,8.1284e-05,812.28,8.0285e-05,785.29,-2.4234e-05,-0.022355,-3.1086e-05,-51.507,2.2082
22641,20.213,3.2727,0.1,8.3226e-05,831.68,8.2266e-05,805.64,-2.4961e-05,-0.021602,-3.159e-05,-49.827,2.193
22642,20.306,3,0.1,8.1294e-05,812.38,8.0291e-05,785.3,-2.4229e-05,-0.022477,-3.1102e-05,-51.66,2.2082
22643,20.213,3.0909,0.1,8.3244e-05,831.86,8.2277e-05,805.66,-2.4952e-05,-0.021845,-3.162e-05,-50.12,2.1931
22644,20.306,2.8182,0.1,8.1284e-05,812.28,8.0285e-05,785.29,-2.4234e-05,-0.022355,-3.1086e-05,-51.507,2.2082
22645,20.213,2.9091,0.1,8.3244e-05,831.86,8.2277e-05,805.66,-2.4952e-05,-0.021844,-3.162e-05,-50.12,2.1931
22646,20.306,2.6364,0.1,8.1256e-05,812,8.0267e-05,785.26,-2.4248e-05,-0.021984,-3.1039e-05,-51.048,2.2081
22647,20.213,2.7273,0.1,8.3226e-05,831.68,8.2266e-05,805.64,-2.4961e-05,-0.021604,-3.159e-05,-49.827,2.193
22648,20.306,2.4545,0.1,8.121e-05,811.54,8.0237e-05,785.21,-2.4271e-05,-0.021354,-3.0962e-05,-50.291,2.2081
22649,20.213,2.5455,0.1,8.3191e-05,831.34,8.2244e-05,805.61,-2.4979e-05,-0.021109,-3.1531e-05,-49.246,2.193
22650,20.306,2.2727,0.1,8.1147e-05,810.91,8.0197e-05,785.16,-2.4304e-05,-0.020446,-3.0856e-05,-49.247,2.208
22651,20.213,2.3636,0.1,8.314e-05,830.83,8.2211e-05,805.57,-2.5006e-05,-0.020353,-3.1443e-05,-48.386,2.1929
22652,20.306,2.0909,0.1,8.107e-05,810.14,8.0148e-05,785.1,-2.4345e-05,-0.019234,-3.0722e-05,-47.933,2.2079
22653,20.213,2.1818,0.1,8.3075e-05,830.18,8.217e-05,805.53,-2.5042e-05,-0.01931,-3.1329e-05,-47.259,2.1928
22654,20.306,1.9091,0.1,8.0981e-05,809.25,8.0092e-05,785.06,-2.4396e-05,-0.01768,-3.0565e-05,-46.369,2.2078
22655,20.213,2,0.1,8.2998e-05,829.41,8.2122e-05,805.51,-2.5087e-05,-0.017952,-3.1191e-05,-45.885,2.1927
22656,20.306,1.7273,0.1,8.0884e-05,808.28,8.0033e-05,785.06,-2.4454e-05,-0.015737,-3.0386e-05,-44.582,2.2077
22657,20.213,1.8182,0.1,8.2912e-05,828.55,8.2069e-05,805.51,-2.5139e-05,-0.016237,-3.1031e-05,-44.284,2.1926
22658,20.306,1.5455,0.1,8.0781e-05,807.25,7.9972e-05,785.1,-2.4521e-05,-0.013345,-3.0189e-05,-42.601,2.2075
22659,20.213,1.6364,0.1,8.2819e-05,827.62,8.2015e-05,805.55,-2.52e-05,-0.014115,-3.0853e-05,-42.486,2.1925
22660,20.306,1.3636,0.1,8.0678e-05,806.22,7.9913e-05,785.22,-2.4595e-05,-0.010436,-2.9979e-05,-40.462,2.2073
22661,20.213,1.4545,0.1,8.2725e-05,826.68,8.1961e-05,805.67,-2.5268e-05,-0.011523,-3.066e-05,-40.52,2.1923
22662,20.306,1.1818,0.1,8.0579e-05,805.24,7.9861e-05,785.45,-2.4677e-05,-0.0068992,-2.9761e-05,-38.206,2.2072
22663,20.213,1.2727,0.1,8.2632e-05,825.75,8.1912e-05,805.87,-2.5344e-05,-0.008396,-3.0457e-05,-38.424,2.1921
22664,20.306,1,0.1,8.049e-05,804.35,7.982e-05,785.81,-2.4765e-05,-0.0027244,-2.9539e-05,-35.876,2.2069
22665,20.213,1.0909,0.1,8.2547e-05,824.9,8.1871e-05,806.19,-2.5426e-05,-0.004586,-3.0249e-05,-36.238,2.1919
22666,20.306,0.81818,0.1,8.0417e-05,803.61,7.9794e-05,786.33,-2.486e-05,0.0025968,-2.9321e-05,-33.521,2.2067
22667,20.213,0.90909,0.1,8.2475e-05,824.18,8.1844e-05,806.65,-2.5515e-05,-0.00023341,-3.0041e-05,-34.005,2.1917
22668,20.306,0.63636,0.1,8.0366e-05,803.11,7.979e-05,787.06,-2.496e-05,0.0076387,-2.9113e-05,-31.196,2.2065
22669,20.213,0.72727,0.1,8.2421e-05,823.64,8.1835e-05,807.3,-2.5609e-05,0.005777,-2.9839e-05,-31.774,2.1915
22670,20.306,0.45455,0.1,8.0355e-05,803,7.9823e-05,788.11,-2.5065e-05,0.021193,-2.893e-05,-29.022,2.2062
22671,20.213,0.54545,0.1,8.2393e-05,823.37,8.185e-05,808.17,-2.5709e-05,0.0095247,-2.9651e-05,-29.604,2.1912
22672,20.306,0.27273,0.1,8.0581e-05,805.25,8.0063e-05,790.75,-2.5177e-05,0.019548,-2.8943e-05,-28.282,2.2059
22673,20.213,0.36364,0.1,8.2419e-05,823.62,8.1913e-05,809.45,-2.5813e-05,0.031717,-2.9501e-05,-27.673,2.1909
22674,20.213,0.18182,0.1,8.2879e-05,828.22,8.2358e-05,813.61,-2.5927e-05,0.00077712,-2.9718e-05,-28.48,2.1906
22675,20.306,0.090909,0.1,7.9502e-05,794.47,7.916e-05,784.75,-2.5283e-05,0.0079866,-2.7826e-05,-19.101,2.2056
22676,20.121,5.7273,0.1,8.4686e-05,846.27,8.4181e-05,832.11,-2.6563e-05,0.018215,-3.0248e-05,-27.672,2.1756
22677,20.029,5.8182,0.1,8.6996e-05,869.36,8.6487e-05,855.04,-2.7312e-05,0.00036778,-3.1035e-05,-27.97,2.1603
22678,20.121,5.9091,0.1,8.363e-05,835.72,8.3295e-05,826.19,-2.6663e-05,0.0077781,-2.916e-05,-18.756,2.1753
22679,20.121,5.5455,0.1,8.4447e-05,843.89,8.3933e-05,829.45,-2.6458e-05,0.020098,-3.0213e-05,-28.194,2.1759
22680,20.029,5.6364,0.1,8.6527e-05,864.67,8.6037e-05,850.89,-2.7205e-05,0.029942,-3.0799e-05,-26.974,2.1606
22681,20.121,5.3636,0.1,8.444e-05,843.82,8.3888e-05,828.36,-2.6359e-05,0.0074414,-3.037e-05,-30.128,2.1762
22682,20.029,5.4545,0.1,8.6486e-05,864.26,8.5963e-05,849.57,-2.7107e-05,0.009168,-3.0925e-05,-28.679,2.1609
22683,20.121,5.1818,0.1,8.4472e-05,844.13,8.3878e-05,827.57,-2.6265e-05,0.002736,-3.0552e-05,-32.208,2.1764
22684,20.029,5.2727,0.1,8.6496e-05,864.37,8.5935e-05,848.65,-2.7013e-05,0.0057055,-3.1089e-05,-30.616,2.1612
22685,20.121,5,0.1,8.4525e-05,844.67,8.3889e-05,826.98,-2.6176e-05,-0.0022823,-3.0743e-05,-34.318,2.1767
22686,20.029,5.0909,0.1,8.6531e-05,864.72,8.593e-05,847.95,-2.6925e-05,5.512e-05,-3.1265e-05,-32.612,2.1614
22687,20.121,4.8182,0.1,8.4594e-05,845.35,8.3915e-05,826.56,-2.6094e-05,-0.0062491,-3.0939e-05,-36.41,2.1769
22688,20.029,4.9091,0.1,8.6584e-05,865.25,8.5944e-05,847.42,-2.6842e-05,-0.0040716,-3.1448e-05,-34.613,2.1617
22689,20.121,4.6364,0.1,8.4673e-05,846.14,8.3953e-05,826.26,-2.6017e-05,-0.0096289,-3.1132e-05,-38.438,2.1771
22690,20.029,4.7273,0.1,8.665e-05,865.9,8.597e-05,847.03,-2.6764e-05,-0.0077032,-3.1631e-05,-36.575,2.1619
22691,20.121,4.4545,0.1,8.4757e-05,846.98,8.3998e-05,826.07,-2.5948e-05,-0.012423,-3.1318e-05,-40.363,2.1773
22692,20.029,4.5455,0.1,8.6724e-05,866.64,8.6005e-05,846.77,-2.6694e-05,-0.010701,-3.1811e-05,-38.458,2.1621
22693,20.121,4.2727,0.1,8.4842e-05,847.83,8.4046e-05,825.97,-2.5885e-05,-0.014732,-3.1493e-05,-42.148,2.1774
22694,20.029,4.3636,0.1,8.6801e-05,867.41,8.6046e-05,846.59,-2.663e-05,-0.013199,-3.1982e-05,-40.227,2.1622
22695,20.121,4.0909,0.1,8.4923e-05,848.65,8.4094e-05,825.91,-2.5831e-05,-0.016615,-3.1653e-05,-43.761,2.1776
22696,20.029,4.1818,0.1,8.6877e-05,868.17,8.609e-05,846.49,-2.6573e-05,-0.015252,-3.214e-05,-41.847,2.1624
22697,20.121,3.9091,0.1,8.4998e-05,849.4,8.414e-05,825.9,-2.5784e-05,-0.018125,-3.1793e-05,-45.173,2.1777
22698,20.029,4,0.1,8.695e-05,868.9,8.6132e-05,846.43,-2.6524e-05,-0.016918,-3.2283e-05,-43.29,2.1625
22699,20.121,3.7273,0.1,8.5064e-05,850.05,8.418e-05,825.91,-2.5745e-05,-0.019308,-3.1913e-05,-46.361,2.1778
22700,20.029,3.8182,0.1,8.7014e-05,869.54,8.6171e-05,846.41,-2.6482e-05,-0.01824,-3.2407e-05,-44.531,2.1626
22701,20.121,3.5455,0.1,8.5117e-05,850.58,8.4213e-05,825.93,-2.5715e-05,-0.020196,-3.2008e-05,-47.305,2.1779
22702,20.029,3.6364,0.1,8.7069e-05,870.09,8.6205e-05,846.41,-2.6449e-05,-0.019259,-3.2508e-05,-45.549,2.1627
22703,20.121,3.3636,0.1,8.5156e-05,850.98,8.4238e-05,825.96,-2.5693e-05,-0.020812,-3.2077e-05,-47.99,2.1779
22704,20.029,3.4545,0.1,8.7112e-05,870.52,8.6231e-05,846.42,-2.6423e-05,-0.019999,-3.2586e-05,-46.327,2.1628
22705,20.121,3.1818,0.1,8.5181e-05,851.22,8.4254e-05,825.97,-2.568e-05,-0.021174,-3.2119e-05,-48.406,2.1779
22706,20.029,3.2727,0.1,8.7142e-05,870.82,8.625e-05,846.44,-2.6407e-05,-0.02048,-3.2639e-05,-46.852,2.1628
22707,20.121,3,0.1,8.5189e-05,851.3,8.4259e-05,825.98,-2.5675e-05,-0.021294,-3.2133e-05,-48.545,2.1779
22708,20.029,3.0909,0.1,8.7157e-05,870.97,8.6259e-05,846.44,-2.6398e-05,-0.020719,-3.2666e-05,-47.117,2.1629
22709,20.121,2.8182,0.1,8.5181e-05,851.22,8.4254e-05,825.97,-2.568e-05,-0.021176,-3.2119e-05,-48.406,2.1779
22710,20.029,2.9091,0.1,8.7157e-05,870.97,8.6259e-05,846.44,-2.6398e-05,-0.020718,-3.2666e-05,-47.117,2.1629
22711,20.121,2.6364,0.1,8.5157e-05,850.98,8.4238e-05,825.96,-2.5693e-05,-0.020813,-3.2077e-05,-47.99,2.1779
22712,20.029,2.7273,0.1,8.7142e-05,870.82,8.625e-05,846.44,-2.6407e-05,-0.020482,-3.2639e-05,-46.852,2.1628
22713,20.121,2.4545,0.1,8.5117e-05,850.58,8.4213e-05,825.93,-2.5715e-05,-0.020196,-3.2008e-05,-47.305,2.1779
22714,20.029,2.5455,0.1,8.7112e-05,870.52,8.6231e-05,846.42,-2.6423e-05,-0.019999,-3.2586e-05,-46.327,2.1628
22715,20.121,2.2727,0.1,8.5064e-05,850.05,8.418e-05,825.91,-2.5745e-05,-0.019309,-3.1913e-05,-46.361,2.1778
22716,20.029,2.3636,0.1,8.7069e-05,870.09,8.6205e-05,846.41,-2.6449e-05,-0.019259,-3.2508e-05,-45.549,2.1627
22717,20.121,2.0909,0.1,8.4998e-05,849.4,8.414e-05,825.9,-2.5784e-05,-0.018126,-3.1793e-05,-45.173,2.1777
22718,20.029,2.1818,0.1,8.7014e-05,869.54,8.6171e-05,846.41,-2.6482e-05,-0.018241,-3.2407e-05,-44.531,2.1626
22719,20.121,1.9091,0.1,8.4923e-05,848.65,8.4094e-05,825.91,-2.5831e-05,-0.016615,-3.1653e-05,-43.761,2.1776
22720,20.029,2,0.1,8.695e-05,868.9,8.6132e-05,846.43,-2.6524e-05,-0.016917,-3.2283e-05,-43.29,2.1625
22721,20.121,1.7273,0.1,8.4842e-05,847.83,8.4046e-05,825.97,-2.5885e-05,-0.014732,-3.1493e-05,-42.148,2.1774
22722,20.029,1.8182,0.1,8.6877e-05,868.17,8.609e-05,846.49,-2.6573e-05,-0.015253,-3.214e-05,-41.847,2.1624
22723,20.121,1.5455,0.1,8.4757e-05,846.98,8.3998e-05,826.07,-2.5948e-05,-0.012423,-3.1318e-05,-40.363,2.1773
22724,20.029,1.6364,0.1,8.6801e-05,867.41,8.6046e-05,846.59,-2.663e-05,-0.013199,-3.1982e-05,-40.227,2.1622
22725,20.121,1.3636,0.1,8.4673e-05,846.14,8.3953e-05,826.26,-2.6017e-05,-0.0096285,-3.1132e-05,-38.438,2.1771
22726,20.029,1.4545,0.1,8.6724e-05,866.64,8.6005e-05,846.77,-2.6694e-05,-0.010702,-3.1811e-05,-38.458,2.1621
22727,20.121,1.1818,0.1,8.4594e-05,845.35,8.3915e-05,826.56,-2.6094e-05,-0.0062485,-3.0939e-05,-36.41,2.1769
22728,20.029,1.2727,0.1,8.665e-05,865.9,8.597e-05,847.03,-2.6764e-05,-0.0077027,-3.1631e-05,-36.575,2.1619
22729,20.121,1,0.1,8.4525e-05,844.67,8.3889e-05,826.98,-2.6176e-05,-0.0022833,-3.0743e-05,-34.318,2.1767
22730,20.029,1.0909,0.1,8.6584e-05,865.25,8.5944e-05,847.42,-2.6842e-05,-0.0040718,-3.1448e-05,-34.613,2.1617
22731,20.121,0.81818,0.1,8.4472e-05,844.14,8.3878e-05,827.57,-2.6265e-05,0.0027349,-3.0552e-05,-32.207,2.1764
22732,20.029,0.90909,0.1,8.6531e-05,864.72,8.593e-05,847.95,-2.6925e-05,5.3146e-05,-3.1265e-05,-32.612,2.1614
22733,20.121,0.63636,0.1,8.444e-05,843.82,8.3888e-05,828.36,-2.6359e-05,0.0074409,-3.037e-05,-30.128,2.1762
22734,20.029,0.72727,0.1,8.6496e-05,864.37,8.5935e-05,848.65,-2.7013e-05,0.0057041,-3.1089e-05,-30.616,2.1612
22735,20.121,0.45455,0.1,8.4447e-05,843.89,8.3933e-05,829.45,-2.6458e-05,0.020098,-3.0213e-05,-28.194,2.1759
22736,20.029,0.54545,0.1,8.6486e-05,864.26,8.5963e-05,849.57,-2.7107e-05,0.0091651,-3.0925e-05,-28.679,2.1609
22737,20.121,0.27273,0.1,8.4686e-05,846.27,8.4181e-05,832.11,-2.6563e-05,0.018218,-3.0248e-05,-27.672,2.1756
22738,20.029,0.36364,0.1,8.6527e-05,864.67,8.6037e-05,850.89,-2.7205e-05,0.029945,-3.0799e-05,-26.974,2.1606
22739,20.029,0.18182,0.1,8.6996e-05,869.36,8.6487e-05,855.04,-2.7312e-05,0.0003702,-3.1035e-05,-27.97,2.1603
22740,20.121,0.090909,0.1,8.363e-05,835.72,8.3295e-05,826.19,-2.6663e-05,0.0077791,-2.916e-05,-18.756,2.1753
22741,19.936,5.7273,0.1,8.8807e-05,887.46,8.8316e-05,873.62,-2.7954e-05,0.017022,-3.1559e-05,-27.077,2.1454
22742,19.844,5.8182,0.1,9.113e-05,910.67,9.0631e-05,896.62,-2.8702e-05,4.4382e-05,-3.2357e-05,-27.463,2.1301
22743,19.936,5.9091,0.1,8.7774e-05,877.13,8.7446e-05,867.79,-2.8048e-05,0.0075646,-3.05e-05,-18.415,2.145
22744,19.936,5.5455,0.1,8.8557e-05,884.96,8.8059e-05,870.95,-2.7854e-05,0.019082,-3.1504e-05,-27.4,2.1457
22745,19.844,5.6364,0.1,9.0653e-05,905.9,9.0177e-05,892.48,-2.8601e-05,0.028305,-3.2105e-05,-26.299,2.1304
22746,19.936,5.3636,0.1,8.8534e-05,884.73,8.8003e-05,869.82,-2.7762e-05,0.0072405,-3.1638e-05,-29.116,2.146
22747,19.844,5.4545,0.1,9.0598e-05,905.35,9.0093e-05,891.14,-2.8509e-05,0.0088226,-3.221e-05,-27.798,2.1307
22748,19.936,5.1818,0.1,8.8548e-05,884.87,8.7981e-05,868.98,-2.7673e-05,0.0028373,-3.1796e-05,-30.971,2.1462
22749,19.844,5.2727,0.1,9.0592e-05,905.3,9.0054e-05,890.18,-2.8421e-05,0.0056133,-3.2351e-05,-29.522,2.131
22750,19.936,5,0.1,8.8584e-05,885.23,8.7979e-05,868.34,-2.759e-05,-0.0019032,-3.1963e-05,-32.859,2.1465
22751,19.844,5.0909,0.1,9.061e-05,905.48,9.0037e-05,889.42,-2.8337e-05,0.00028955,-3.2504e-05,-31.304,2.1313
22752,19.936,4.8182,0.1,8.8634e-05,885.73,8.7992e-05,867.85,-2.7512e-05,-0.0056762,-3.2134e-05,-34.732,2.1467
22753,19.844,4.9091,0.1,9.0646e-05,905.83,9.0038e-05,888.83,-2.8259e-05,-0.0036254,-3.2663e-05,-33.092,2.1315
22754,19.936,4.6364,0.1,8.8695e-05,886.34,8.8016e-05,867.49,-2.7441e-05,-0.0089092,-3.2304e-05,-36.552,2.1469
22755,19.844,4.7273,0.1,9.0694e-05,906.32,9.0051e-05,888.39,-2.8187e-05,-0.0070915,-3.2824e-05,-34.849,2.1317
22756,19.936,4.4545,0.1,8.8762e-05,887.01,8.8049e-05,867.24,-2.7376e-05,-0.011597,-3.2469e-05,-38.28,2.1471
22757,19.844,4.5455,0.1,9.0751e-05,906.89,9.0074e-05,888.06,-2.8121e-05,-0.0099698,-3.2982e-05,-36.538,2.1319
22758,19.936,4.2727,0.1,8.8831e-05,887.69,8.8085e-05,867.07,-2.7317e-05,-0.013828,-3.2624e-05,-39.886,2.1472
22759,19.844,4.3636,0.1,9.0812e-05,907.5,9.0103e-05,887.83,-2.8061e-05,-0.012379,-3.3133e-05,-38.126,2.1321
22760,19.936,4.0909,0.1,8.8898e-05,888.37,8.8122e-05,866.97,-2.7266e-05,-0.015654,-3.2766e-05,-41.338,2.1474
22761,19.844,4.1818,0.1,9.0874e-05,908.11,9.0136e-05,887.67,-2.8008e-05,-0.014367,-3.3274e-05,-39.582,2.1322
22762,19.936,3.9091,0.1,8.896e-05,888.99,8.8158e-05,866.91,-2.7222e-05,-0.017124,-3.2891e-05,-42.611,2.1475
22763,19.844,4,0.1,9.0933e-05,908.7,9.0168e-05,887.56,-2.7961e-05,-0.015985,-3.34e-05,-40.881,2.1324
22764,19.936,3.7273,0.1,8.9015e-05,889.53,8.8191e-05,866.88,-2.7186e-05,-0.018278,-3.2997e-05,-43.682,2.1476
22765,19.844,3.8182,0.1,9.0987e-05,909.24,9.0199e-05,887.5,-2.7923e-05,-0.017275,-3.351e-05,-41.998,2.1325
22766,19.936,3.5455,0.1,8.906e-05,889.98,8.8218e-05,866.87,-2.7158e-05,-0.019144,-3.3082e-05,-44.534,2.1477
22767,19.844,3.6364,0.1,9.1032e-05,909.69,9.0226e-05,887.47,-2.7891e-05,-0.018268,-3.3601e-05,-42.916,2.1326
22768,19.936,3.3636,0.1,8.9093e-05,890.31,8.8238e-05,866.87,-2.7137e-05,-0.019747,-3.3144e-05,-45.153,2.1477
22769,19.844,3.4545,0.1,9.1068e-05,910.05,9.0247e-05,887.45,-2.7868e-05,-0.018992,-3.367e-05,-43.617,2.1326
22770,19.936,3.1818,0.1,8.9113e-05,890.52,8.8251e-05,866.87,-2.7125e-05,-0.020102,-3.3182e-05,-45.528,2.1478
22771,19.844,3.2727,0.1,9.1093e-05,910.3,9.0262e-05,887.44,-2.7852e-05,-0.019465,-3.3717e-05,-44.091,2.1327
22772,19.936,3,0.1,8.912e-05,890.59,8.8255e-05,866.87,-2.7121e-05,-0.02022,-3.3194e-05,-45.654,2.1478
22773,19.844,3.0909,0.1,9.1106e-05,910.43,9.027e-05,887.44,-2.7844e-05,-0.019698,-3.3741e-05,-44.33,2.1327
22774,19.936,2.8182,0.1,8.9113e-05,890.52,8.8251e-05,866.87,-2.7125e-05,-0.020102,-3.3182e-05,-45.528,2.1478
22775,19.844,2.9091,0.1,9.1106e-05,910.43,9.027e-05,887.44,-2.7844e-05,-0.019698,-3.3741e-05,-44.33,2.1327
22776,19.936,2.6364,0.1,8.9093e-05,890.31,8.8238e-05,866.87,-2.7137e-05,-0.019747,-3.3144e-05,-45.153,2.1477
22777,19.844,2.7273,0.1,9.1093e-05,910.3,9.0262e-05,887.44,-2.7852e-05,-0.019465,-3.3717e-05,-44.091,2.1327
22778,19.936,2.4545,0.1,8.906e-05,889.98,8.8218e-05,866.87,-2.7158e-05,-0.019144,-3.3082e-05,-44.534,2.1477
22779,19.844,2.5455,0.1,9.1068e-05,910.05,9.0247e-05,887.45,-2.7868e-05,-0.018992,-3.367e-05,-43.617,2.1326
22780,19.936,2.2727,0.1,8.9015e-05,889.53,8.8191e-05,866.88,-2.7186e-05,-0.018277,-3.2997e-05,-43.682,2.1476
22781,19.844,2.3636,0.1,9.1032e-05,909.69,9.0226e-05,887.47,-2.7891e-05,-0.018269,-3.3601e-05,-42.916,2.1326
22782,19.936,2.0909,0.1,8.896e-05,888.99,8.8158e-05,866.91,-2.7222e-05,-0.017124,-3.2891e-05,-42.611,2.1475
22783,19.844,2.1818,0.1,9.0987e-05,909.24,9.0199e-05,887.5,-2.7923e-05,-0.017275,-3.351e-05,-41.998,2.1325
22784,19.936,1.9091,0.1,8.8898e-05,888.37,8.8122e-05,866.97,-2.7266e-05,-0.015654,-3.2766e-05,-41.338,2.1474
22785,19.844,2,0.1,9.0933e-05,908.7,9.0168e-05,887.56,-2.7961e-05,-0.015985,-3.34e-05,-40.881,2.1324
22786,19.936,1.7273,0.1,8.8831e-05,887.69,8.8085e-05,867.07,-2.7317e-05,-0.013828,-3.2624e-05,-39.886,2.1472
22787,19.844,1.8182,0.1,9.0874e-05,908.11,9.0136e-05,887.67,-2.8008e-05,-0.014367,-3.3274e-05,-39.582,2.1322
22788,19.936,1.5455,0.1,8.8762e-05,887.01,8.8049e-05,867.24,-2.7376e-05,-0.011598,-3.2469e-05,-38.28,2.1471
22789,19.844,1.6364,0.1,9.0812e-05,907.5,9.0103e-05,887.83,-2.8061e-05,-0.01238,-3.3133e-05,-38.126,2.1321
22790,19.936,1.3636,0.1,8.8695e-05,886.34,8.8017e-05,867.49,-2.7441e-05,-0.00891,-3.2304e-05,-36.551,2.1469
22791,19.844,1.4545,0.1,9.0751e-05,906.89,9.0074e-05,888.06,-2.8121e-05,-0.0099701,-3.2982e-05,-36.538,2.1319
22792,19.936,1.1818,0.1,8.8634e-05,885.73,8.7992e-05,867.85,-2.7512e-05,-0.0056764,-3.2134e-05,-34.732,2.1467
22793,19.844,1.2727,0.1,9.0694e-05,906.32,9.0051e-05,888.39,-2.8187e-05,-0.0070918,-3.2824e-05,-34.849,2.1317
22794,19.936,1,0.1,8.8584e-05,885.23,8.7979e-05,868.34,-2.759e-05,-0.0019042,-3.1963e-05,-32.859,2.1465
22795,19.844,1.0909,0.1,9.0646e-05,905.83,9.0038e-05,888.83,-2.8259e-05,-0.0036261,-3.2663e-05,-33.092,2.1315
22796,19.936,0.81818,0.1,8.8548e-05,884.87,8.7981e-05,868.98,-2.7673e-05,0.0028351,-3.1796e-05,-30.971,2.1462
22797,19.844,0.90909,0.1,9.061e-05,905.48,9.0037e-05,889.42,-2.8337e-05,0.00028865,-3.2504e-05,-31.304,2.1313
22798,19.936,0.63636,0.1,8.8534e-05,884.73,8.8003e-05,869.82,-2.7762e-05,0.0072367,-3.1638e-05,-29.116,2.146
22799,19.844,0.72727,0.1,9.0592e-05,905.3,9.0054e-05,890.18,-2.8421e-05,0.00561,-3.2351e-05,-29.522,2.131
22800,19.936,0.45455,0.1,8.8557e-05,884.96,8.8059e-05,870.95,-2.7854e-05,0.019082,-3.1504e-05,-27.4,2.1457
22801,19.844,0.54545,0.1,9.0598e-05,905.35,9.0093e-05,891.14,-2.8509e-05,0.0088192,-3.221e-05,-27.798,2.1307
22802,19.936,0.27273,0.1,8.8807e-05,887.46,8.8316e-05,873.62,-2.7954e-05,0.017024,-3.1559e-05,-27.077,2.1454
22803,19.844,0.36364,0.1,9.0653e-05,905.9,9.0177e-05,892.48,-2.8601e-05,0.028307,-3.2105e-05,-26.299,2.1304
22804,19.844,0.18182,0.1,9.113e-05,910.67,9.0631e-05,896.62,-2.8702e-05,4.5858e-05,-3.2357e-05,-27.463,2.1301
22805,19.936,0.090909,0.1,8.7774e-05,877.14,8.7446e-05,867.79,-2.8048e-05,0.0075631,-3.05e-05,-18.415,2.145
22806,19.752,5.7273,0.1,9.2946e-05,928.81,9.2467e-05,915.29,-2.9349e-05,0.01594,-3.2877e-05,-26.495,2.1152
22807,19.659,5.8182,0.1,9.5279e-05,952.13,9.4792e-05,938.36,-3.0097e-05,-0.00020792,-3.3686e-05,-26.963,2.0999
22808,19.752,5.9091,0.1,9.1934e-05,918.71,9.1614e-05,909.54,-2.9438e-05,0.0073383,-3.1845e-05,-18.078,2.1148
22809,19.752,5.5455,0.1,9.2685e-05,926.21,9.2203e-05,912.61,-2.9255e-05,0.018131,-3.2803e-05,-26.64,2.1155
22810,19.659,5.6364,0.1,9.4796e-05,947.31,9.4334e-05,934.24,-3.0001e-05,0.026793,-3.3419e-05,-25.647,2.1003
22811,19.752,5.3636,0.1,9.2648e-05,925.84,9.2137e-05,911.45,-2.9168e-05,0.0070302,-3.2916e-05,-28.155,2.1158
22812,19.659,5.4545,0.1,9.4729e-05,946.63,9.4241e-05,932.87,-2.9915e-05,0.0084907,-3.3504e-05,-26.959,2.1006
22813,19.752,5.1818,0.1,9.2647e-05,925.83,9.2104e-05,910.57,-2.9085e-05,0.0028999,-3.3052e-05,-29.807,2.1161
22814,19.659,5.2727,0.1,9.4709e-05,946.43,9.4192e-05,931.87,-2.9832e-05,0.005507,-3.3624e-05,-28.488,2.1009
22815,19.752,5,0.1,9.2666e-05,926.02,9.209e-05,909.87,-2.9007e-05,-0.0015845,-3.3198e-05,-31.49,2.1163
22816,19.659,5.0909,0.1,9.4711e-05,946.46,9.4164e-05,931.07,-2.9753e-05,0.00048395,-3.3756e-05,-30.073,2.1011
22817,19.752,4.8182,0.1,9.2699e-05,926.36,9.2091e-05,909.33,-2.8934e-05,-0.0051777,-3.3347e-05,-33.164,2.1165
22818,19.659,4.9091,0.1,9.4731e-05,946.66,9.4153e-05,930.43,-2.968e-05,-0.0032358,-3.3894e-05,-31.668,2.1014
22819,19.752,4.6364,0.1,9.2744e-05,926.8,9.2103e-05,908.91,-2.8867e-05,-0.0082753,-3.3496e-05,-34.792,2.1168
22820,19.659,4.7273,0.1,9.4764e-05,946.99,9.4155e-05,929.93,-2.9612e-05,-0.0065486,-3.4035e-05,-33.237,2.1016
22821,19.752,4.4545,0.1,9.2795e-05,927.31,9.2123e-05,908.6,-2.8806e-05,-0.010864,-3.3641e-05,-36.342,2.1169
22822,19.659,4.5455,0.1,9.4806e-05,947.4,9.4166e-05,929.55,-2.955e-05,-0.0093153,-3.4173e-05,-34.747,2.1018
22823,19.752,4.2727,0.1,9.285e-05,927.85,9.2149e-05,908.38,-2.8751e-05,-0.01302,-3.3778e-05,-37.782,2.1171
22824,19.659,4.3636,0.1,9.4852e-05,947.87,9.4185e-05,929.26,-2.9493e-05,-0.01164,-3.4306e-05,-36.17,2.102
22825,19.752,4.0909,0.1,9.2903e-05,928.39,9.2176e-05,908.23,-2.8703e-05,-0.014791,-3.3903e-05,-39.086,2.1173
22826,19.659,4.1818,0.1,9.49e-05,948.35,9.4207e-05,929.05,-2.9444e-05,-0.013565,-3.443e-05,-37.476,2.1021
22827,19.752,3.9091,0.1,9.2954e-05,928.9,9.2204e-05,908.12,-2.8662e-05,-0.016222,-3.4014e-05,-40.231,2.1174
22828,19.659,4,0.1,9.4948e-05,948.82,9.4231e-05,928.9,-2.94e-05,-0.01514,-3.4541e-05,-38.641,2.1023
22829,19.752,3.7273,0.1,9.2999e-05,929.35,9.2229e-05,908.06,-2.8628e-05,-0.017346,-3.4108e-05,-41.195,2.1175
22830,19.659,3.8182,0.1,9.4991e-05,949.25,9.4254e-05,928.8,-2.9364e-05,-0.016396,-3.4638e-05,-39.645,2.1024
22831,19.752,3.5455,0.1,9.3036e-05,929.72,9.2251e-05,908.02,-2.8601e-05,-0.018194,-3.4184e-05,-41.962,2.1176
22832,19.659,3.6364,0.1,9.5028e-05,949.62,9.4275e-05,928.73,-2.9335e-05,-0.017367,-3.4719e-05,-40.47,2.1025
22833,19.752,3.3636,0.1,9.3063e-05,929.99,9.2267e-05,907.99,-2.8582e-05,-0.018785,-3.4239e-05,-42.52,2.1176
22834,19.659,3.4545,0.1,9.5058e-05,949.92,9.4291e-05,928.69,-2.9313e-05,-0.018075,-3.478e-05,-41.101,2.1026
22835,19.752,3.1818,0.1,9.308e-05,930.16,9.2277e-05,907.98,-2.8571e-05,-0.019134,-3.4272e-05,-42.858,2.1177
22836,19.659,3.2727,0.1,9.5078e-05,950.12,9.4303e-05,928.67,-2.9298e-05,-0.018538,-3.4822e-05,-41.528,2.1026
22837,19.752,3,0.1,9.3086e-05,930.22,9.228e-05,907.98,-2.8567e-05,-0.019249,-3.4283e-05,-42.971,2.1177
22838,19.659,3.0909,0.1,9.5088e-05,950.23,9.4309e-05,928.66,-2.929e-05,-0.018767,-3.4843e-05,-41.743,2.1026
22839,19.752,2.8182,0.1,9.308e-05,930.16,9.2277e-05,907.98,-2.8571e-05,-0.019134,-3.4272e-05,-42.858,2.1177
22840,19.659,2.9091,0.1,9.5088e-05,950.23,9.4309e-05,928.66,-2.929e-05,-0.018767,-3.4843e-05,-41.743,2.1026
22841,19.752,2.6364,0.1,9.3063e-05,929.99,9.2267e-05,907.99,-2.8582e-05,-0.018785,-3.4239e-05,-42.52,2.1176
22842,19.659,2.7273,0.1,9.5078e-05,950.12,9.4303e-05,928.67,-2.9298e-05,-0.018539,-3.4822e-05,-41.528,2.1026
22843,19.752,2.4545,0.1,9.3036e-05,929.72,9.2251e-05,908.02,-2.8601e-05,-0.018195,-3.4184e-05,-41.962,2.1176
22844,19.659,2.5455,0.1,9.5058e-05,949.92,9.4291e-05,928.69,-2.9313e-05,-0.018075,-3.478e-05,-41.101,2.1026
22845,19.752,2.2727,0.1,9.2999e-05,929.35,9.2229e-05,908.06,-2.8628e-05,-0.017348,-3.4108e-05,-41.195,2.1175
22846,19.659,2.3636,0.1,9.5028e-05,949.62,9.4275e-05,928.73,-2.9335e-05,-0.017367,-3.4719e-05,-40.47,2.1025
22847,19.752,2.0909,0.1,9.2954e-05,928.9,9.2204e-05,908.12,-2.8662e-05,-0.016222,-3.4014e-05,-40.231,2.1174
22848,19.659,2.1818,0.1,9.4991e-05,949.25,9.4254e-05,928.8,-2.9364e-05,-0.016396,-3.4638e-05,-39.645,2.1024
22849,19.752,1.9091,0.1,9.2903e-05,928.39,9.2176e-05,908.23,-2.8703e-05,-0.014791,-3.3903e-05,-39.086,2.1173
22850,19.659,2,0.1,9.4948e-05,948.82,9.4231e-05,928.9,-2.94e-05,-0.015139,-3.4541e-05,-38.641,2.1023
22851,19.752,1.7273,0.1,9.285e-05,927.85,9.2149e-05,908.38,-2.8751e-05,-0.01302,-3.3778e-05,-37.782,2.1171
22852,19.659,1.8182,0.1,9.49e-05,948.35,9.4207e-05,929.05,-2.9444e-05,-0.013566,-3.443e-05,-37.476,2.1021
22853,19.752,1.5455,0.1,9.2795e-05,927.31,9.2123e-05,908.6,-2.8806e-05,-0.010864,-3.3641e-05,-36.342,2.1169
22854,19.659,1.6364,0.1,9.4852e-05,947.87,9.4185e-05,929.26,-2.9493e-05,-0.011641,-3.4306e-05,-36.17,2.102
22855,19.752,1.3636,0.1,9.2744e-05,926.8,9.2103e-05,908.91,-2.8867e-05,-0.0082752,-3.3496e-05,-34.792,2.1168
22856,19.659,1.4545,0.1,9.4806e-05,947.4,9.4166e-05,929.55,-2.955e-05,-0.0093143,-3.4173e-05,-34.747,2.1018
22857,19.752,1.1818,0.1,9.2699e-05,926.36,9.2091e-05,909.33,-2.8934e-05,-0.0051785,-3.3347e-05,-33.164,2.1165
22858,19.659,1.2727,0.1,9.4764e-05,946.99,9.4155e-05,929.93,-2.9612e-05,-0.0065489,-3.4035e-05,-33.237,2.1016
22859,19.752,1,0.1,9.2666e-05,926.02,9.209e-05,909.87,-2.9007e-05,-0.0015851,-3.3198e-05,-31.49,2.1163
22860,19.659,1.0909,0.1,9.4731e-05,946.66,9.4153e-05,930.43,-2.968e-05,-0.0032361,-3.3894e-05,-31.668,2.1014
22861,19.752,0.81818,0.1,9.2647e-05,925.83,9.2104e-05,910.57,-2.9085e-05,0.0028979,-3.3052e-05,-29.807,2.1161
22862,19.659,0.90909,0.1,9.4711e-05,946.46,9.4164e-05,931.07,-2.9753e-05,0.00048286,-3.3756e-05,-30.073,2.1011
22863,19.752,0.63636,0.1,9.2648e-05,925.84,9.2137e-05,911.45,-2.9168e-05,0.0070272,-3.2916e-05,-28.155,2.1158
22864,19.659,0.72727,0.1,9.4709e-05,946.43,9.4192e-05,931.87,-2.9832e-05,0.0055042,-3.3624e-05,-28.488,2.1009
22865,19.752,0.45455,0.1,9.2685e-05,926.21,9.2203e-05,912.61,-2.9255e-05,0.018131,-3.2803e-05,-26.64,2.1155
22866,19.659,0.54545,0.1,9.4729e-05,946.63,9.4241e-05,932.87,-2.9915e-05,0.008489,-3.3504e-05,-26.958,2.1006
22867,19.752,0.27273,0.1,9.2946e-05,928.81,9.2467e-05,915.29,-2.9349e-05,0.015941,-3.2877e-05,-26.495,2.1152
22868,19.659,0.36364,0.1,9.4796e-05,947.31,9.4334e-05,934.24,-3.0001e-05,0.026794,-3.3419e-05,-25.647,2.1003
22869,19.659,0.18182,0.1,9.5279e-05,952.13,9.4792e-05,938.37,-3.0097e-05,-0.0002073,-3.3686e-05,-26.963,2.0999
22870,19.752,0.090909,0.1,9.1934e-05,918.71,9.1614e-05,909.54,-2.9438e-05,0.0073393,-3.1845e-05,-18.078,2.1148
22871,19.567,5.7273,0.1,9.7101e-05,970.34,9.6634e-05,957.12,-3.0749e-05,0.014969,-3.4202e-05,-25.929,2.085
22872,19.475,5.8182,0.1,9.9445e-05,993.77,9.8968e-05,980.27,-3.1497e-05,-0.00039557,-3.502e-05,-26.469,2.0698
22873,19.567,5.9091,0.1,9.6112e-05,960.45,9.5797e-05,951.46,-3.0833e-05,0.0071191,-3.3196e-05,-17.746,2.0847
22874,19.567,5.5455,0.1,9.6831e-05,967.65,9.6365e-05,954.44,-3.0661e-05,0.017251,-3.4112e-05,-25.911,2.0854
22875,19.475,5.6364,0.1,9.8958e-05,988.89,9.8509e-05,976.16,-3.1407e-05,0.0254,-3.474e-05,-25.019,2.0702
22876,19.567,5.3636,0.1,9.6782e-05,967.15,9.629e-05,953.24,-3.0578e-05,0.0068251,-3.4205e-05,-27.243,2.0857
22877,19.475,5.4545,0.1,9.8878e-05,988.1,9.8408e-05,974.77,-3.1325e-05,0.00818,-3.4807e-05,-26.158,2.0705
22878,19.567,5.1818,0.1,9.6766e-05,967,9.6246e-05,952.32,-3.05e-05,0.0029445,-3.4321e-05,-28.708,2.086
22879,19.475,5.2727,0.1,9.8846e-05,987.77,9.8349e-05,973.73,-3.1246e-05,0.005399,-3.4908e-05,-27.509,2.0708
22880,19.567,5,0.1,9.677e-05,967.04,9.6221e-05,951.58,-3.0426e-05,-0.0013039,-3.4446e-05,-30.205,2.0862
22881,19.475,5.0909,0.1,9.8835e-05,987.66,9.8311e-05,972.89,-3.1173e-05,0.00065259,-3.5021e-05,-28.915,2.0711
22882,19.567,4.8182,0.1,9.6789e-05,967.23,9.6211e-05,950.99,-3.0358e-05,-0.0047315,-3.4576e-05,-31.697,2.0865
22883,19.475,4.9091,0.1,9.884e-05,987.72,9.8289e-05,972.2,-3.1104e-05,-0.0028876,-3.514e-05,-30.332,2.0713
22884,19.567,4.6364,0.1,9.6819e-05,967.52,9.6213e-05,950.52,-3.0295e-05,-0.0077022,-3.4706e-05,-33.15,2.0867
22885,19.475,4.7273,0.1,9.8859e-05,987.91,9.8281e-05,971.66,-3.104e-05,-0.0060571,-3.5262e-05,-31.729,2.0716
22886,19.567,4.4545,0.1,9.6856e-05,967.89,9.6222e-05,950.16,-3.0238e-05,-0.010195,-3.4832e-05,-34.535,2.0869
22887,19.475,4.5455,0.1,9.8886e-05,988.18,9.8282e-05,971.22,-3.0981e-05,-0.008718,-3.5382e-05,-33.077,2.0718
22888,19.567,4.2727,0.1,9.6897e-05,968.3,9.6238e-05,949.89,-3.0186e-05,-0.012281,-3.4952e-05,-35.824,2.087
22889,19.475,4.3636,0.1,9.892e-05,988.52,9.8291e-05,970.89,-3.0928e-05,-0.010964,-3.5498e-05,-34.347,2.072
22890,19.567,4.0909,0.1,9.6939e-05,968.72,9.6256e-05,949.69,-3.0141e-05,-0.014002,-3.5063e-05,-36.992,2.0872
22891,19.475,4.1818,0.1,9.8956e-05,988.88,9.8304e-05,970.64,-3.0882e-05,-0.012832,-3.5607e-05,-35.515,2.0721
22892,19.567,3.9091,0.1,9.6979e-05,969.12,9.6276e-05,949.54,-3.0103e-05,-0.015395,-3.5161e-05,-38.019,2.0873
22893,19.475,4,0.1,9.8992e-05,989.24,9.8319e-05,970.45,-3.0841e-05,-0.014364,-3.5705e-05,-36.559,2.0723
22894,19.567,3.7273,0.1,9.7015e-05,969.48,9.6295e-05,949.44,-3.0071e-05,-0.016493,-3.5244e-05,-38.884,2.0874
22895,19.475,3.8182,0.1,9.9026e-05,989.58,9.8335e-05,970.31,-3.0807e-05,-0.015588,-3.579e-05,-37.458,2.0724
22896,19.567,3.5455,0.1,9.7045e-05,969.78,9.6311e-05,949.38,-3.0046e-05,-0.017322,-3.5311e-05,-39.573,2.0875
22897,19.475,3.6364,0.1,9.9056e-05,989.87,9.835e-05,970.21,-3.0779e-05,-0.016538,-3.5861e-05,-38.198,2.0725
22898,19.567,3.3636,0.1,9.7067e-05,970,9.6323e-05,949.33,-3.0028e-05,-0.0179,-3.5359e-05,-40.074,2.0876
22899,19.475,3.4545,0.1,9.9079e-05,990.11,9.8363e-05,970.15,-3.0759e-05,-0.017231,-3.5916e-05,-38.764,2.0725
22900,19.567,3.1818,0.1,9.7081e-05,970.14,9.6331e-05,949.31,-3.0017e-05,-0.018241,-3.5389e-05,-40.378,2.0876
22901,19.475,3.2727,0.1,9.9096e-05,990.27,9.8371e-05,970.11,-3.0745e-05,-0.017685,-3.5953e-05,-39.147,2.0726
22902,19.567,3,0.1,9.7086e-05,970.19,9.6333e-05,949.3,-3.0014e-05,-0.018355,-3.5399e-05,-40.48,2.0876
22903,19.475,3.0909,0.1,9.9104e-05,990.36,9.8376e-05,970.09,-3.0738e-05,-0.017909,-3.5971e-05,-39.34,2.0726
22904,19.567,2.8182,0.1,9.7081e-05,970.14,9.6331e-05,949.31,-3.0017e-05,-0.018242,-3.5389e-05,-40.378,2.0876
22905,19.475,2.9091,0.1,9.9104e-05,990.36,9.8376e-05,970.09,-3.0738e-05,-0.017909,-3.5971e-05,-39.34,2.0726
22906,19.567,2.6364,0.1,9.7067e-05,970,9.6323e-05,949.33,-3.0028e-05,-0.017901,-3.5359e-05,-40.074,2.0876
22907,19.475,2.7273,0.1,9.9096e-05,990.27,9.8371e-05,970.11,-3.0745e-05,-0.017685,-3.5953e-05,-39.147,2.0726
22908,19.567,2.4545,0.1,9.7045e-05,969.78,9.6311e-05,949.38,-3.0046e-05,-0.017322,-3.5311e-05,-39.573,2.0875
22909,19.475,2.5455,0.1,9.9079e-05,990.11,9.8363e-05,970.15,-3.0759e-05,-0.017231,-3.5916e-05,-38.764,2.0725
22910,19.567,2.2727,0.1,9.7015e-05,969.48,9.6295e-05,949.44,-3.0071e-05,-0.016493,-3.5244e-05,-38.884,2.0874
22911,19.475,2.3636,0.1,9.9056e-05,989.87,9.835e-05,970.21,-3.0779e-05,-0.016537,-3.5861e-05,-38.198,2.0725
22912,19.567,2.0909,0.1,9.6979e-05,969.12,9.6276e-05,949.54,-3.0103e-05,-0.015395,-3.5161e-05,-38.019,2.0873
22913,19.475,2.1818,0.1,9.9026e-05,989.58,9.8335e-05,970.31,-3.0807e-05,-0.015588,-3.579e-05,-37.458,2.0724
22914,19.567,1.9091,0.1,9.6939e-05,968.72,9.6256e-05,949.69,-3.0141e-05,-0.014002,-3.5063e-05,-36.992,2.0872
22915,19.475,2,0.1,9.8992e-05,989.24,9.8319e-05,970.45,-3.0841e-05,-0.014363,-3.5705e-05,-36.558,2.0723
22916,19.567,1.7273,0.1,9.6897e-05,968.3,9.6238e-05,949.89,-3.0186e-05,-0.012281,-3.4952e-05,-35.824,2.087
22917,19.475,1.8182,0.1,9.8956e-05,988.88,9.8304e-05,970.64,-3.0882e-05,-0.012832,-3.5607e-05,-35.515,2.0721
22918,19.567,1.5455,0.1,9.6856e-05,967.89,9.6222e-05,950.16,-3.0238e-05,-0.010195,-3.4832e-05,-34.534,2.0869
22919,19.475,1.6364,0.1,9.892e-05,988.52,9.8291e-05,970.89,-3.0928e-05,-0.010964,-3.5498e-05,-34.347,2.072
22920,19.567,1.3636,0.1,9.6819e-05,967.52,9.6213e-05,950.52,-3.0295e-05,-0.0077016,-3.4706e-05,-33.15,2.0867
22921,19.475,1.4545,0.1,9.8886e-05,988.18,9.8282e-05,971.22,-3.0981e-05,-0.0087185,-3.5382e-05,-33.076,2.0718
22922,19.567,1.1818,0.1,9.6789e-05,967.23,9.6211e-05,950.99,-3.0358e-05,-0.0047314,-3.4576e-05,-31.696,2.0865
22923,19.475,1.2727,0.1,9.8859e-05,987.91,9.8281e-05,971.66,-3.104e-05,-0.0060569,-3.5262e-05,-31.729,2.0716
22924,19.567,1,0.1,9.677e-05,967.04,9.6221e-05,951.58,-3.0426e-05,-0.0013048,-3.4446e-05,-30.205,2.0862
22925,19.475,1.0909,0.1,9.884e-05,987.72,9.8289e-05,972.21,-3.1104e-05,-0.0028881,-3.514e-05,-30.332,2.0713
22926,19.567,0.81818,0.1,9.6766e-05,967,9.6246e-05,952.32,-3.05e-05,0.0029425,-3.4321e-05,-28.708,2.086
22927,19.475,0.90909,0.1,9.8835e-05,987.66,9.8311e-05,972.89,-3.1173e-05,0.00065009,-3.5021e-05,-28.915,2.0711
22928,19.567,0.63636,0.1,9.6782e-05,967.15,9.629e-05,953.24,-3.0578e-05,0.0068234,-3.4205e-05,-27.243,2.0857
22929,19.475,0.72727,0.1,9.8846e-05,987.77,9.8349e-05,973.73,-3.1246e-05,0.0053967,-3.4908e-05,-27.509,2.0708
22930,19.567,0.45455,0.1,9.6831e-05,967.65,9.6365e-05,954.44,-3.0661e-05,0.017251,-3.4112e-05,-25.911,2.0854
22931,19.475,0.54545,0.1,9.8878e-05,988.1,9.8408e-05,974.77,-3.1325e-05,0.008179,-3.4807e-05,-26.158,2.0705
22932,19.567,0.27273,0.1,9.7101e-05,970.34,9.6634e-05,957.12,-3.0749e-05,0.01497,-3.4202e-05,-25.929,2.085
22933,19.475,0.36364,0.1,9.8958e-05,988.89,9.8509e-05,976.16,-3.1407e-05,0.025403,-3.474e-05,-25.019,2.0702
22934,19.475,0.18182,0.1,9.9445e-05,993.77,9.8968e-05,980.27,-3.1497e-05,-0.00039536,-3.502e-05,-26.469,2.0698
22935,19.567,0.090909,0.1,9.6112e-05,960.45,9.5798e-05,951.46,-3.0833e-05,0.0071196,-3.3196e-05,-17.746,2.0847
22936,19.382,5.7273,0.1,0.00010127,1012,0.00010082,999.12,-3.2154e-05,0.014096,-3.5534e-05,-25.377,2.055
22937,19.29,5.8182,0.1,0.00010363,1035.6,0.00010316,1022.3,-3.2902e-05,-0.00052721,-3.636e-05,-25.983,2.0398
22938,19.382,5.9091,0.1,0.00010031,1002.4,9.9998e-05,993.54,-3.2234e-05,0.0069056,-3.4553e-05,-17.42,2.0546
22939,19.382,5.5455,0.1,0.000101,1009.3,0.00010054,996.43,-3.2071e-05,0.016438,-3.5429e-05,-25.212,2.0553
22940,19.29,5.6364,0.1,0.00010314,1030.7,0.0001027,1018.2,-3.2817e-05,0.024121,-3.6069e-05,-24.412,2.0401
22941,19.382,5.3636,0.1,0.00010094,1008.7,0.00010046,995.21,-3.1993e-05,0.0066312,-3.5504e-05,-26.377,2.0556
22942,19.29,5.4545,0.1,0.00010305,1029.8,0.00010259,1016.8,-3.2739e-05,0.0078923,-3.612e-05,-25.394,2.0405
22943,19.382,5.1818,0.1,0.00010091,1008.4,0.00010041,994.26,-3.1919e-05,0.0029773,-3.5602e-05,-27.671,2.0559
22944,19.29,5.2727,0.1,0.000103,1029.3,0.00010253,1015.8,-3.2665e-05,0.005295,-3.6204e-05,-26.582,2.0408
22945,19.382,5,0.1,0.0001009,1008.3,0.00010037,993.47,-3.185e-05,-0.001054,-3.5709e-05,-28.997,2.0562
22946,19.29,5.0909,0.1,0.00010298,1029.1,0.00010248,1014.9,-3.2596e-05,0.00080058,-3.6299e-05,-27.823,2.0411
22947,19.382,4.8182,0.1,0.0001009,1008.3,0.00010035,992.83,-3.1785e-05,-0.0043271,-3.582e-05,-30.322,2.0564
22948,19.29,4.9091,0.1,0.00010297,1029,0.00010245,1014.2,-3.2531e-05,-0.0025714,-3.64e-05,-29.078,2.0413
22949,19.382,4.6364,0.1,0.00010092,1008.5,0.00010034,992.32,-3.1726e-05,-0.0071777,-3.5933e-05,-31.614,2.0567
22950,19.29,4.7273,0.1,0.00010298,1029.1,0.00010243,1013.6,-3.247e-05,-0.0056082,-3.6505e-05,-30.317,2.0416
22951,19.382,4.4545,0.1,0.00010094,1008.7,0.00010034,991.91,-3.1672e-05,-0.0095833,-3.6043e-05,-32.848,2.0569
22952,19.29,4.5455,0.1,0.00010299,1029.2,0.00010242,1013.1,-3.2415e-05,-0.0081681,-3.6609e-05,-31.515,2.0418
22953,19.382,4.2727,0.1,0.00010097,1009,0.00010035,991.6,-3.1624e-05,-0.011605,-3.6147e-05,-33.999,2.057
22954,19.29,4.3636,0.1,0.00010301,1029.4,0.00010242,1012.7,-3.2366e-05,-0.010342,-3.6709e-05,-32.646,2.042
22955,19.382,4.0909,0.1,0.000101,1009.3,0.00010036,991.36,-3.1581e-05,-0.013277,-3.6244e-05,-35.043,2.0572
22956,19.29,4.1818,0.1,0.00010304,1029.7,0.00010243,1012.4,-3.2322e-05,-0.012155,-3.6804e-05,-33.688,2.0422
22957,19.382,3.9091,0.1,0.00010103,1009.6,0.00010037,991.17,-3.1545e-05,-0.014634,-3.6329e-05,-35.961,2.0573
22958,19.29,4,0.1,0.00010307,1030,0.00010243,1012.2,-3.2284e-05,-0.013645,-3.6889e-05,-34.619,2.0423
22959,19.382,3.7273,0.1,0.00010106,1009.9,0.00010039,991.04,-3.1515e-05,-0.015706,-3.6403e-05,-36.735,2.0574
22960,19.29,3.8182,0.1,0.00010309,1030.2,0.00010244,1012,-3.2252e-05,-0.014841,-3.6964e-05,-35.423,2.0424
22961,19.382,3.5455,0.1,0.00010108,1010.2,0.0001004,990.95,-3.1492e-05,-0.016517,-3.6461e-05,-37.353,2.0575
22962,19.29,3.6364,0.1,0.00010311,1030.4,0.00010245,1011.9,-3.2226e-05,-0.01577,-3.7026e-05,-36.084,2.0425
22963,19.382,3.3636,0.1,0.0001011,1010.3,0.00010041,990.89,-3.1475e-05,-0.017084,-3.6504e-05,-37.801,2.0576
22964,19.29,3.4545,0.1,0.00010313,1030.6,0.00010246,1011.8,-3.2206e-05,-0.016448,-3.7074e-05,-36.591,2.0426
22965,19.382,3.1818,0.1,0.00010111,1010.4,0.00010041,990.85,-3.1465e-05,-0.017419,-3.653e-05,-38.074,2.0576
22966,19.29,3.2727,0.1,0.00010314,1030.7,0.00010247,1011.8,-3.2193e-05,-0.016894,-3.7107e-05,-36.934,2.0426
22967,19.382,3,0.1,0.00010112,1010.5,0.00010041,990.84,-3.1462e-05,-0.01753,-3.6539e-05,-38.165,2.0576
22968,19.29,3.0909,0.1,0.00010315,1030.8,0.00010247,1011.7,-3.2187e-05,-0.017114,-3.7123e-05,-37.107,2.0427
22969,19.382,2.8182,0.1,0.00010111,1010.4,0.00010041,990.85,-3.1465e-05,-0.017419,-3.653e-05,-38.074,2.0576
22970,19.29,2.9091,0.1,0.00010315,1030.8,0.00010247,1011.7,-3.2187e-05,-0.017114,-3.7123e-05,-37.107,2.0427
22971,19.382,2.6364,0.1,0.0001011,1010.3,0.00010041,990.89,-3.1475e-05,-0.017084,-3.6504e-05,-37.801,2.0576
22972,19.29,2.7273,0.1,0.00010314,1030.7,0.00010247,1011.8,-3.2193e-05,-0.016893,-3.7107e-05,-36.934,2.0426
22973,19.382,2.4545,0.1,0.00010108,1010.2,0.0001004,990.95,-3.1492e-05,-0.016518,-3.6461e-05,-37.353,2.0575
22974,19.29,2.5455,0.1,0.00010313,1030.6,0.00010246,1011.8,-3.2206e-05,-0.016449,-3.7074e-05,-36.591,2.0426
22975,19.382,2.2727,0.1,0.00010106,1009.9,0.00010039,991.04,-3.1515e-05,-0.015706,-3.6403e-05,-36.735,2.0574
22976,19.29,2.3636,0.1,0.00010311,1030.4,0.00010245,1011.9,-3.2226e-05,-0.015769,-3.7026e-05,-36.084,2.0425
22977,19.382,2.0909,0.1,0.00010103,1009.6,0.00010037,991.17,-3.1545e-05,-0.014634,-3.6329e-05,-35.961,2.0573
22978,19.29,2.1818,0.1,0.00010309,1030.2,0.00010244,1012,-3.2252e-05,-0.014841,-3.6964e-05,-35.423,2.0424
22979,19.382,1.9091,0.1,0.000101,1009.3,0.00010036,991.36,-3.1581e-05,-0.013276,-3.6244e-05,-35.043,2.0572
22980,19.29,2,0.1,0.00010307,1030,0.00010243,1012.2,-3.2284e-05,-0.013644,-3.6889e-05,-34.619,2.0423
22981,19.382,1.7273,0.1,0.00010097,1009,0.00010035,991.6,-3.1624e-05,-0.011604,-3.6147e-05,-33.999,2.057
22982,19.29,1.8182,0.1,0.00010304,1029.7,0.00010243,1012.4,-3.2322e-05,-0.012155,-3.6804e-05,-33.688,2.0422
22983,19.382,1.5455,0.1,0.00010094,1008.7,0.00010034,991.91,-3.1672e-05,-0.0095841,-3.6043e-05,-32.848,2.0569
22984,19.29,1.6364,0.1,0.00010301,1029.4,0.00010242,1012.7,-3.2366e-05,-0.010342,-3.6709e-05,-32.646,2.042
22985,19.382,1.3636,0.1,0.00010092,1008.5,0.00010034,992.32,-3.1726e-05,-0.0071786,-3.5933e-05,-31.614,2.0567
22986,19.29,1.4545,0.1,0.00010299,1029.2,0.00010242,1013.1,-3.2415e-05,-0.0081699,-3.6609e-05,-31.515,2.0418
22987,19.382,1.1818,0.1,0.0001009,1008.3,0.00010035,992.83,-3.1785e-05,-0.0043275,-3.582e-05,-30.321,2.0564
22988,19.29,1.2727,0.1,0.00010298,1029.1,0.00010243,1013.6,-3.247e-05,-0.0056073,-3.6505e-05,-30.317,2.0416
22989,19.382,1,0.1,0.0001009,1008.3,0.00010037,993.47,-3.185e-05,-0.0010562,-3.5709e-05,-28.997,2.0562
22990,19.29,1.0909,0.1,0.00010297,1029,0.00010245,1014.2,-3.2531e-05,-0.0025733,-3.64e-05,-29.078,2.0413
22991,19.382,0.81818,0.1,0.00010091,1008.4,0.00010041,994.26,-3.1919e-05,0.0029745,-3.5602e-05,-27.671,2.0559
22992,19.29,0.90909,0.1,0.00010298,1029.1,0.00010248,1014.9,-3.2596e-05,0.00079837,-3.6299e-05,-27.823,2.0411
22993,19.382,0.63636,0.1,0.00010094,1008.7,0.00010046,995.21,-3.1993e-05,0.0066297,-3.5504e-05,-26.377,2.0556
22994,19.29,0.72727,0.1,0.000103,1029.3,0.00010253,1015.8,-3.2665e-05,0.0052933,-3.6204e-05,-26.582,2.0408
22995,19.382,0.45455,0.1,0.000101,1009.3,0.00010054,996.43,-3.2071e-05,0.016439,-3.5429e-05,-25.212,2.0553
22996,19.29,0.54545,0.1,0.00010305,1029.8,0.00010259,1016.8,-3.2739e-05,0.0078926,-3.612e-05,-25.394,2.0405
22997,19.382,0.27273,0.1,0.00010127,1012,0.00010082,999.12,-3.2154e-05,0.014098,-3.5534e-05,-25.377,2.055
22998,19.29,0.36364,0.1,0.00010314,1030.7,0.0001027,1018.2,-3.2817e-05,0.024123,-3.6069e-05,-24.412,2.0401
22999,19.29,0.18182,0.1,0.00010363,1035.6,0.00010316,1022.3,-3.2902e-05,-0.0005279,-3.636e-05,-25.983,2.0398
23000,19.382,0.090909,0.1,0.00010031,1002.4,9.9998e-05,993.54,-3.2234e-05,0.0069069,-3.4553e-05,-17.42,2.0546
23001,19.198,5.7273,0.1,0.00010546,1053.9,0.00010502,1041.3,-3.3564e-05,0.013316,-3.6872e-05,-24.841,2.025
23002,19.105,5.8182,0.1,0.00010783,1077.5,0.00010737,1064.6,-3.4313e-05,-0.00062118,-3.7707e-05,-25.506,2.0098
23003,19.198,5.9091,0.1,0.00010452,1044.4,0.00010422,1035.8,-3.364e-05,0.0067069,-3.5916e-05,-17.099,2.0246
23004,19.198,5.5455,0.1,0.00010518,1051.1,0.00010474,1038.6,-3.3485e-05,0.015691,-3.6754e-05,-24.542,2.0253
23005,19.105,5.6364,0.1,0.00010733,1072.6,0.00010691,1060.5,-3.4232e-05,0.022933,-3.7406e-05,-23.827,2.0102
23006,19.198,5.3636,0.1,0.00010511,1050.4,0.00010465,1037.4,-3.3412e-05,0.0064507,-3.6814e-05,-25.553,2.0256
23007,19.105,5.4545,0.1,0.00010724,1071.6,0.0001068,1059.1,-3.4159e-05,0.0076158,-3.7442e-05,-24.664,2.0105
23008,19.198,5.1818,0.1,0.00010507,1050,0.00010459,1036.4,-3.3342e-05,0.0030034,-3.6895e-05,-26.69,2.0259
23009,19.105,5.2727,0.1,0.00010718,1071.1,0.00010672,1058,-3.4089e-05,0.0051852,-3.751e-05,-25.703,2.0108
23010,19.198,5,0.1,0.00010505,1049.8,0.00010455,1035.5,-3.3277e-05,-0.00082752,-3.6985e-05,-27.86,2.0262
23011,19.105,5.0909,0.1,0.00010715,1070.7,0.00010667,1057.1,-3.4023e-05,0.0009234,-3.7589e-05,-26.793,2.0111
23012,19.198,4.8182,0.1,0.00010504,1049.7,0.00010452,1034.9,-3.3216e-05,-0.0039566,-3.7079e-05,-29.032,2.0265
23013,19.105,4.9091,0.1,0.00010713,1070.5,0.00010663,1056.3,-3.3961e-05,-0.0022929,-3.7674e-05,-27.899,2.0114
23014,19.198,4.6364,0.1,0.00010505,1049.7,0.0001045,1034.3,-3.316e-05,-0.0066955,-3.7176e-05,-30.178,2.0267
23015,19.105,4.7273,0.1,0.00010712,1070.5,0.0001066,1055.7,-3.3905e-05,-0.0052047,-3.7763e-05,-28.994,2.0117
23016,19.198,4.4545,0.1,0.00010506,1049.9,0.00010449,1033.9,-3.3109e-05,-0.0090167,-3.727e-05,-31.274,2.0269
23017,19.105,4.5455,0.1,0.00010713,1070.5,0.00010658,1055.2,-3.3853e-05,-0.0076724,-3.7852e-05,-30.055,2.0119
23018,19.198,4.2727,0.1,0.00010508,1050,0.00010449,1033.5,-3.3064e-05,-0.010976,-3.7361e-05,-32.297,2.0271
23019,19.105,4.3636,0.1,0.00010714,1070.6,0.00010657,1054.8,-3.3806e-05,-0.0097752,-3.7938e-05,-31.058,2.0121
23020,19.198,4.0909,0.1,0.0001051,1050.2,0.00010449,1033.2,-3.3024e-05,-0.012602,-3.7445e-05,-33.226,2.0273
23021,19.105,4.1818,0.1,0.00010715,1070.8,0.00010657,1054.4,-3.3765e-05,-0.011537,-3.802e-05,-31.983,2.0123
23022,19.198,3.9091,0.1,0.00010512,1050.5,0.0001045,1033,-3.299e-05,-0.013926,-3.7519e-05,-34.044,2.0274
23023,19.105,4,0.1,0.00010717,1070.9,0.00010657,1054.2,-3.3729e-05,-0.012988,-3.8094e-05,-32.812,2.0124
23024,19.198,3.7273,0.1,0.00010514,1050.7,0.0001045,1032.9,-3.2962e-05,-0.014975,-3.7583e-05,-34.736,2.0275
23025,19.105,3.8182,0.1,0.00010719,1071.1,0.00010658,1054,-3.3699e-05,-0.014157,-3.8159e-05,-33.528,2.0125
23026,19.198,3.5455,0.1,0.00010516,1050.8,0.00010451,1032.7,-3.294e-05,-0.015769,-3.7634e-05,-35.287,2.0276
23027,19.105,3.6364,0.1,0.0001072,1071.3,0.00010658,1053.8,-3.3675e-05,-0.015066,-3.8213e-05,-34.117,2.0126
23028,19.198,3.3636,0.1,0.00010517,1051,0.00010452,1032.7,-3.2924e-05,-0.016324,-3.7672e-05,-35.687,2.0277
23029,19.105,3.4545,0.1,0.00010722,1071.4,0.00010659,1053.7,-3.3656e-05,-0.015731,-3.8255e-05,-34.568,2.0127
23030,19.198,3.1818,0.1,0.00010518,1051,0.00010452,1032.6,-3.2915e-05,-0.016653,-3.7695e-05,-35.931,2.0277
23031,19.105,3.2727,0.1,0.00010722,1071.5,0.00010659,1053.6,-3.3644e-05,-0.016167,-3.8283e-05,-34.874,2.0128
23032,19.198,3,0.1,0.00010518,1051.1,0.00010452,1032.6,-3.2912e-05,-0.016762,-3.7702e-05,-36.013,2.0277
23033,19.105,3.0909,0.1,0.00010723,1071.6,0.00010659,1053.6,-3.3638e-05,-0.016384,-3.8298e-05,-35.028,2.0128
23034,19.198,2.8182,0.1,0.00010518,1051,0.00010452,1032.6,-3.2915e-05,-0.016653,-3.7695e-05,-35.931,2.0277
23035,19.105,2.9091,0.1,0.00010723,1071.6,0.00010659,1053.6,-3.3638e-05,-0.016384,-3.8298e-05,-35.028,2.0128
23036,19.198,2.6364,0.1,0.00010517,1051,0.00010452,1032.7,-3.2924e-05,-0.016324,-3.7672e-05,-35.687,2.0277
23037,19.105,2.7273,0.1,0.00010722,1071.5,0.00010659,1053.6,-3.3644e-05,-0.016168,-3.8283e-05,-34.874,2.0128
23038,19.198,2.4545,0.1,0.00010516,1050.8,0.00010451,1032.7,-3.294e-05,-0.015768,-3.7634e-05,-35.287,2.0276
23039,19.105,2.5455,0.1,0.00010722,1071.4,0.00010659,1053.7,-3.3656e-05,-0.015732,-3.8255e-05,-34.568,2.0127
23040,19.198,2.2727,0.1,0.00010514,1050.7,0.0001045,1032.9,-3.2962e-05,-0.014975,-3.7583e-05,-34.735,2.0275
23041,19.105,2.3636,0.1,0.0001072,1071.3,0.00010658,1053.8,-3.3675e-05,-0.015066,-3.8213e-05,-34.117,2.0126
23042,19.198,2.0909,0.1,0.00010512,1050.5,0.0001045,1033,-3.299e-05,-0.013926,-3.7519e-05,-34.044,2.0274
23043,19.105,2.1818,0.1,0.00010719,1071.1,0.00010658,1054,-3.3699e-05,-0.014157,-3.8159e-05,-33.528,2.0125
23044,19.198,1.9091,0.1,0.0001051,1050.2,0.00010449,1033.2,-3.3024e-05,-0.012601,-3.7445e-05,-33.226,2.0273
23045,19.105,2,0.1,0.00010717,1070.9,0.00010657,1054.2,-3.3729e-05,-0.012988,-3.8094e-05,-32.812,2.0124
23046,19.198,1.7273,0.1,0.00010508,1050,0.00010449,1033.5,-3.3064e-05,-0.010976,-3.7361e-05,-32.297,2.0271
23047,19.105,1.8182,0.1,0.00010715,1070.8,0.00010657,1054.4,-3.3765e-05,-0.011538,-3.802e-05,-31.983,2.0123
23048,19.198,1.5455,0.1,0.00010506,1049.9,0.00010449,1033.9,-3.3109e-05,-0.0090173,-3.727e-05,-31.273,2.0269
23049,19.105,1.6364,0.1,0.00010714,1070.6,0.00010657,1054.8,-3.3806e-05,-0.0097751,-3.7938e-05,-31.058,2.0121
23050,19.198,1.3636,0.1,0.00010505,1049.7,0.0001045,1034.3,-3.316e-05,-0.0066955,-3.7176e-05,-30.178,2.0267
23051,19.105,1.4545,0.1,0.00010713,1070.5,0.00010658,1055.2,-3.3853e-05,-0.0076734,-3.7852e-05,-30.055,2.0119
23052,19.198,1.1818,0.1,0.00010504,1049.7,0.00010452,1034.9,-3.3216e-05,-0.0039572,-3.7079e-05,-29.032,2.0265
23053,19.105,1.2727,0.1,0.00010712,1070.5,0.0001066,1055.7,-3.3905e-05,-0.0052045,-3.7763e-05,-28.994,2.0117
23054,19.198,1,0.1,0.00010505,1049.8,0.00010455,1035.5,-3.3277e-05,-0.00082944,-3.6985e-05,-27.86,2.0262
23055,19.105,1.0909,0.1,0.00010713,1070.5,0.00010663,1056.3,-3.3961e-05,-0.0022948,-3.7674e-05,-27.899,2.0114
23056,19.198,0.81818,0.1,0.00010507,1050,0.00010459,1036.4,-3.3342e-05,0.0030023,-3.6895e-05,-26.69,2.0259
23057,19.105,0.90909,0.1,0.00010715,1070.7,0.00010667,1057.1,-3.4023e-05,0.00092223,-3.7589e-05,-26.793,2.0111
23058,19.198,0.63636,0.1,0.00010511,1050.4,0.00010465,1037.4,-3.3412e-05,0.0064509,-3.6814e-05,-25.553,2.0256
23059,19.105,0.72727,0.1,0.00010718,1071.1,0.00010672,1058,-3.4089e-05,0.0051838,-3.751e-05,-25.702,2.0108
23060,19.198,0.45455,0.1,0.00010518,1051.1,0.00010474,1038.6,-3.3485e-05,0.015693,-3.6754e-05,-24.542,2.0253
23061,19.105,0.54545,0.1,0.00010724,1071.6,0.0001068,1059.1,-3.4159e-05,0.0076171,-3.7442e-05,-24.664,2.0105
23062,19.198,0.27273,0.1,0.00010546,1053.9,0.00010502,1041.3,-3.3564e-05,0.013316,-3.6872e-05,-24.84,2.025
23063,19.105,0.36364,0.1,0.00010733,1072.6,0.00010691,1060.5,-3.4232e-05,0.022934,-3.7406e-05,-23.827,2.0102
23064,19.105,0.18182,0.1,0.00010783,1077.5,0.00010737,1064.6,-3.4313e-05,-0.00062224,-3.7707e-05,-25.506,2.0098
23065,19.198,0.090909,0.1,0.00010452,1044.4,0.00010422,1035.8,-3.364e-05,0.0067023,-3.5916e-05,-17.099,2.0246
23066,19.013,5.7273,0.1,0.00010967,1096,0.00010924,1083.6,-3.498e-05,0.012593,-3.8218e-05,-24.318,1.995
23067,18.92,5.8182,0.1,0.00011205,1119.7,0.0001116,1107,-3.5729e-05,-0.00068996,-3.9061e-05,-25.037,1.9799
23068,19.013,5.9091,0.1,0.00010875,1086.7,0.00010845,1078.2,-3.5051e-05,0.0064966,-3.7286e-05,-16.785,1.9946
23069,19.013,5.5455,0.1,0.00010938,1093.1,0.00010896,1080.9,-3.4905e-05,0.01498,-3.8088e-05,-23.899,1.9954
23070,18.92,5.6364,0.1,0.00011155,1114.7,0.00011114,1102.9,-3.5652e-05,0.021823,-3.8751e-05,-23.262,1.9803
23071,19.013,5.3636,0.1,0.0001093,1092.3,0.00010886,1079.7,-3.4835e-05,0.0062601,-3.8133e-05,-24.769,1.9957
23072,18.92,5.4545,0.1,0.00011144,1113.7,0.00011102,1101.5,-3.5583e-05,0.0073473,-3.8773e-05,-23.966,1.9806
23073,19.013,5.1818,0.1,0.00010925,1091.8,0.00010879,1078.7,-3.4769e-05,0.0030036,-3.8199e-05,-25.762,1.996
23074,18.92,5.2727,0.1,0.00011138,1113,0.00011094,1100.4,-3.5516e-05,0.0050663,-3.8827e-05,-24.868,1.981
23075,19.013,5,0.1,0.00010922,1091.4,0.00010874,1077.8,-3.4708e-05,-0.00064162,-3.8273e-05,-26.789,1.9963
23076,18.92,5.0909,0.1,0.00011134,1112.6,0.00011087,1099.4,-3.5454e-05,0.0010215,-3.8891e-05,-25.819,1.9813
23077,19.013,4.8182,0.1,0.0001092,1091.3,0.0001087,1077.1,-3.465e-05,-0.0036361,-3.8352e-05,-27.82,1.9966
23078,18.92,4.9091,0.1,0.00011131,1112.3,0.00011083,1098.7,-3.5396e-05,-0.0020515,-3.8961e-05,-26.789,1.9816
23079,19.013,4.6364,0.1,0.0001092,1091.2,0.00010868,1076.5,-3.4598e-05,-0.0062712,-3.8434e-05,-28.831,1.9968
23080,18.92,4.7273,0.1,0.00011129,1112.1,0.00011079,1098,-3.5343e-05,-0.0048457,-3.9036e-05,-27.752,1.9818
23081,19.013,4.4545,0.1,0.0001092,1091.2,0.00010866,1076,-3.455e-05,-0.0085149,-3.8515e-05,-29.8,1.9971
23082,18.92,4.5455,0.1,0.00011128,1112.1,0.00011077,1097.4,-3.5294e-05,-0.0072268,-3.9111e-05,-28.687,1.9821
23083,19.013,4.2727,0.1,0.00010921,1091.3,0.00010865,1075.6,-3.4507e-05,-0.010415,-3.8592e-05,-30.707,1.9973
23084,18.92,4.3636,0.1,0.00011128,1112.1,0.00011075,1097,-3.525e-05,-0.0092638,-3.9184e-05,-29.573,1.9823
23085,19.013,4.0909,0.1,0.00010922,1091.4,0.00010865,1075.3,-3.447e-05,-0.011998,-3.8665e-05,-31.531,1.9974
23086,18.92,4.1818,0.1,0.00011129,1112.1,0.00011074,1096.6,-3.5211e-05,-0.010977,-3.9254e-05,-30.391,1.9824
23087,19.013,3.9091,0.1,0.00010923,1091.6,0.00010865,1075.1,-3.4438e-05,-0.01329,-3.8729e-05,-32.258,1.9976
23088,18.92,4,0.1,0.0001113,1112.2,0.00011074,1096.3,-3.5177e-05,-0.012391,-3.9318e-05,-31.125,1.9826
23089,19.013,3.7273,0.1,0.00010924,1091.7,0.00010865,1074.9,-3.4411e-05,-0.014316,-3.8784e-05,-32.872,1.9977
23090,18.92,3.8182,0.1,0.00011131,1112.3,0.00011073,1096.1,-3.5149e-05,-0.013534,-3.9374e-05,-31.76,1.9827
23091,19.013,3.5455,0.1,0.00010926,1091.8,0.00010865,1074.7,-3.4391e-05,-0.015093,-3.8829e-05,-33.362,1.9978
23092,18.92,3.6364,0.1,0.00011132,1112.4,0.00011073,1095.9,-3.5126e-05,-0.014424,-3.942e-05,-32.283,1.9828
23093,19.013,3.3636,0.1,0.00010927,1091.9,0.00010865,1074.6,-3.4376e-05,-0.015638,-3.8861e-05,-33.719,1.9978
23094,18.92,3.4545,0.1,0.00011133,1112.5,0.00011074,1095.8,-3.5109e-05,-0.015077,-3.9456e-05,-32.684,1.9829
23095,19.013,3.1818,0.1,0.00010927,1092,0.00010865,1074.6,-3.4367e-05,-0.015961,-3.8881e-05,-33.936,1.9979
23096,18.92,3.2727,0.1,0.00011133,1112.6,0.00011074,1095.7,-3.5097e-05,-0.015505,-3.9481e-05,-32.955,1.983
23097,19.013,3,0.1,0.00010927,1092,0.00010865,1074.6,-3.4364e-05,-0.016069,-3.8888e-05,-34.009,1.9979
23098,18.92,3.0909,0.1,0.00011134,1112.6,0.00011074,1095.7,-3.5091e-05,-0.015718,-3.9493e-05,-33.092,1.983
23099,19.013,2.8182,0.1,0.00010927,1092,0.00010865,1074.6,-3.4367e-05,-0.015962,-3.8881e-05,-33.936,1.9979
23100,18.92,2.9091,0.1,0.00011134,1112.6,0.00011074,1095.7,-3.5091e-05,-0.015718,-3.9493e-05,-33.092,1.983
23101,19.013,2.6364,0.1,0.00010927,1091.9,0.00010865,1074.6,-3.4376e-05,-0.015639,-3.8861e-05,-33.719,1.9978
23102,18.92,2.7273,0.1,0.00011133,1112.6,0.00011074,1095.7,-3.5097e-05,-0.015506,-3.9481e-05,-32.955,1.983
23103,19.013,2.4545,0.1,0.00010926,1091.8,0.00010865,1074.7,-3.4391e-05,-0.015094,-3.8829e-05,-33.362,1.9978
23104,18.92,2.5455,0.1,0.00011133,1112.5,0.00011074,1095.8,-3.5109e-05,-0.015078,-3.9456e-05,-32.684,1.9829
23105,19.013,2.2727,0.1,0.00010924,1091.7,0.00010865,1074.9,-3.4411e-05,-0.014316,-3.8784e-05,-32.872,1.9977
23106,18.92,2.3636,0.1,0.00011132,1112.4,0.00011073,1095.9,-3.5126e-05,-0.014423,-3.942e-05,-32.283,1.9828
23107,19.013,2.0909,0.1,0.00010923,1091.6,0.00010865,1075.1,-3.4438e-05,-0.01329,-3.8729e-05,-32.258,1.9976
23108,18.92,2.1818,0.1,0.00011131,1112.3,0.00011073,1096.1,-3.5149e-05,-0.013534,-3.9374e-05,-31.76,1.9827
23109,19.013,1.9091,0.1,0.00010922,1091.4,0.00010865,1075.3,-3.447e-05,-0.011998,-3.8665e-05,-31.531,1.9974
23110,18.92,2,0.1,0.0001113,1112.2,0.00011074,1096.3,-3.5177e-05,-0.012391,-3.9318e-05,-31.125,1.9826
23111,19.013,1.7273,0.1,0.00010921,1091.3,0.00010865,1075.6,-3.4507e-05,-0.010416,-3.8592e-05,-30.707,1.9973
23112,18.92,1.8182,0.1,0.00011129,1112.1,0.00011074,1096.6,-3.5211e-05,-0.010976,-3.9254e-05,-30.391,1.9824
23113,19.013,1.5455,0.1,0.0001092,1091.2,0.00010866,1076,-3.455e-05,-0.0085152,-3.8515e-05,-29.8,1.9971
23114,18.92,1.6364,0.1,0.00011128,1112.1,0.00011075,1097,-3.525e-05,-0.0092641,-3.9184e-05,-29.573,1.9823
23115,19.013,1.3636,0.1,0.0001092,1091.2,0.00010868,1076.5,-3.4598e-05,-0.0062719,-3.8434e-05,-28.831,1.9968
23116,18.92,1.4545,0.1,0.00011128,1112.1,0.00011077,1097.4,-3.5294e-05,-0.0072277,-3.9111e-05,-28.687,1.9821
23117,19.013,1.1818,0.1,0.0001092,1091.3,0.0001087,1077.1,-3.465e-05,-0.0036371,-3.8352e-05,-27.82,1.9966
23118,18.92,1.2727,0.1,0.00011129,1112.1,0.00011079,1098,-3.5343e-05,-0.0048464,-3.9036e-05,-27.752,1.9818
23119,19.013,1,0.1,0.00010922,1091.4,0.00010874,1077.8,-3.4708e-05,-0.00064274,-3.8273e-05,-26.789,1.9963
23120,18.92,1.0909,0.1,0.00011131,1112.3,0.00011083,1098.7,-3.5396e-05,-0.0020511,-3.8961e-05,-26.789,1.9816
23121,19.013,0.81818,0.1,0.00010925,1091.8,0.00010879,1078.7,-3.4769e-05,0.0030022,-3.8199e-05,-25.762,1.996
23122,18.92,0.90909,0.1,0.00011134,1112.6,0.00011087,1099.4,-3.5454e-05,0.0010195,-3.8891e-05,-25.819,1.9813
23123,19.013,0.63636,0.1,0.0001093,1092.3,0.00010886,1079.7,-3.4835e-05,0.0062599,-3.8133e-05,-24.769,1.9957
23124,18.92,0.72727,0.1,0.00011138,1113,0.00011094,1100.4,-3.5516e-05,0.0050641,-3.8827e-05,-24.868,1.981
23125,19.013,0.45455,0.1,0.00010938,1093.1,0.00010896,1080.9,-3.4905e-05,0.014981,-3.8088e-05,-23.899,1.9954
23126,18.92,0.54545,0.1,0.00011144,1113.7,0.00011102,1101.5,-3.5583e-05,0.007347,-3.8773e-05,-23.966,1.9806
23127,19.013,0.27273,0.1,0.00010967,1096,0.00010924,1083.6,-3.498e-05,0.012593,-3.8218e-05,-24.318,1.995
23128,18.92,0.36364,0.1,0.00011155,1114.7,0.00011114,1102.9,-3.5652e-05,0.021823,-3.8751e-05,-23.262,1.9803
23129,18.92,0.18182,0.1,0.00011205,1119.7,0.0001116,1107,-3.5729e-05,-0.00068851,-3.9061e-05,-25.037,1.9799
23130,19.013,0.090909,0.1,0.00010875,1086.7,0.00010845,1078.2,-3.5051e-05,0.0064967,-3.7286e-05,-16.785,1.9946
23131,18.828,5.7273,0.1,0.0001139,1138.2,0.00011348,1126.1,-3.64e-05,0.011933,-3.9571e-05,-23.811,1.9652
23132,18.736,5.8182,0.1,0.00011628,1162,0.00011585,1149.6,-3.715e-05,-0.00072216,-4.0421e-05,-24.577,1.9501
23133,18.828,5.9091,0.1,0.00011299,1129.1,0.0001127,1120.8,-3.6468e-05,0.0062927,-3.8662e-05,-16.477,1.9648
23134,18.828,5.5455,0.1,0.00011361,1135.3,0.00011319,1123.5,-3.6329e-05,0.014316,-3.943e-05,-23.281,1.9655
23135,18.736,5.6364,0.1,0.00011579,1157.1,0.00011538,1145.6,-3.7077e-05,0.020802,-4.0103e-05,-22.717,1.9505
23136,18.828,5.3636,0.1,0.00011352,1134.4,0.00011309,1122.2,-3.6263e-05,0.0060766,-3.9461e-05,-24.022,1.9659
23137,18.736,5.4545,0.1,0.00011567,1155.9,0.00011526,1144.1,-3.7011e-05,0.0071021,-4.0113e-05,-23.299,1.9508
23138,18.828,5.1818,0.1,0.00011346,1133.8,0.00011301,1121.1,-3.6201e-05,0.0029945,-3.9513e-05,-24.883,1.9662
23139,18.736,5.2727,0.1,0.0001156,1155.2,0.00011517,1143,-3.6949e-05,0.0049573,-4.0153e-05,-24.074,1.9512
23140,18.828,5,0.1,0.00011341,1133.4,0.00011295,1120.3,-3.6143e-05,-0.00047807,-3.9573e-05,-25.778,1.9665
23141,18.736,5.0909,0.1,0.00011555,1154.7,0.0001151,1142,-3.689e-05,0.0011131,-4.0204e-05,-24.899,1.9515
23142,18.828,4.8182,0.1,0.00011339,1133.1,0.00011291,1119.5,-3.6089e-05,-0.003348,-3.9639e-05,-26.68,1.9668
23143,18.736,4.9091,0.1,0.00011551,1154.3,0.00011505,1141.2,-3.6835e-05,-0.0018249,-4.0261e-05,-25.743,1.9518
23144,18.828,4.6364,0.1,0.00011337,1132.9,0.00011288,1118.9,-3.6039e-05,-0.0058842,-3.9707e-05,-27.568,1.967
23145,18.736,4.7273,0.1,0.00011548,1154,0.000115,1140.5,-3.6784e-05,-0.00451,-4.0322e-05,-26.584,1.9521
23146,18.828,4.4545,0.1,0.00011336,1132.8,0.00011285,1118.4,-3.5994e-05,-0.0080543,-3.9775e-05,-28.421,1.9673
23147,18.736,4.5455,0.1,0.00011546,1153.8,0.00011497,1139.9,-3.6738e-05,-0.0068104,-4.0385e-05,-27.403,1.9523
23148,18.828,4.2727,0.1,0.00011336,1132.8,0.00011284,1117.9,-3.5953e-05,-0.0098998,-3.9841e-05,-29.22,1.9675
23149,18.736,4.3636,0.1,0.00011546,1153.8,0.00011495,1139.4,-3.6697e-05,-0.0087841,-4.0446e-05,-28.182,1.9525
23150,18.828,4.0909,0.1,0.00011336,1132.9,0.00011283,1117.6,-3.5918e-05,-0.011441,-3.9902e-05,-29.948,1.9676
23151,18.736,4.1818,0.1,0.00011545,1153.7,0.00011493,1139,-3.666e-05,-0.01045,-4.0505e-05,-28.902,1.9527
23152,18.828,3.9091,0.1,0.00011337,1132.9,0.00011282,1117.3,-3.5888e-05,-0.012702,-3.9958e-05,-30.59,1.9678
23153,18.736,4,0.1,0.00011546,1153.8,0.00011492,1138.7,-3.6628e-05,-0.01183,-4.0559e-05,-29.549,1.9529
23154,18.828,3.7273,0.1,0.00011338,1133,0.00011282,1117.1,-3.5863e-05,-0.013707,-4.0005e-05,-31.134,1.9679
23155,18.736,3.8182,0.1,0.00011546,1153.8,0.00011492,1138.4,-3.6601e-05,-0.012948,-4.0607e-05,-30.109,1.953
23156,18.828,3.5455,0.1,0.00011339,1133.1,0.00011281,1116.9,-3.5844e-05,-0.01447,-4.0043e-05,-31.568,1.968
23157,18.736,3.6364,0.1,0.00011546,1153.8,0.00011491,1138.2,-3.658e-05,-0.01382,-4.0647e-05,-30.571,1.9531
23158,18.828,3.3636,0.1,0.00011339,1133.1,0.00011281,1116.8,-3.583e-05,-0.015005,-4.0071e-05,-31.884,1.9681
23159,18.736,3.4545,0.1,0.00011547,1153.9,0.00011491,1138.1,-3.6564e-05,-0.014462,-4.0678e-05,-30.925,1.9532
23160,18.828,3.1818,0.1,0.00011339,1133.2,0.00011281,1116.8,-3.5821e-05,-0.015322,-4.0088e-05,-32.077,1.9681
23161,18.736,3.2727,0.1,0.00011547,1153.9,0.00011491,1138,-3.6553e-05,-0.014883,-4.0699e-05,-31.166,1.9532
23162,18.828,3,0.1,0.0001134,1133.2,0.00011281,1116.8,-3.5819e-05,-0.015427,-4.0094e-05,-32.141,1.9681
23163,18.736,3.0909,0.1,0.00011547,1153.9,0.00011491,1138,-3.6547e-05,-0.015092,-4.0709e-05,-31.287,1.9533
23164,18.828,2.8182,0.1,0.00011339,1133.2,0.00011281,1116.8,-3.5821e-05,-0.015322,-4.0088e-05,-32.077,1.9681
23165,18.736,2.9091,0.1,0.00011547,1153.9,0.00011491,1138,-3.6547e-05,-0.015091,-4.0709e-05,-31.287,1.9533
23166,18.828,2.6364,0.1,0.00011339,1133.1,0.00011281,1116.8,-3.583e-05,-0.015006,-4.0071e-05,-31.884,1.9681
23167,18.736,2.7273,0.1,0.00011547,1153.9,0.00011491,1138,-3.6553e-05,-0.014883,-4.0699e-05,-31.166,1.9532
23168,18.828,2.4545,0.1,0.00011339,1133.1,0.00011281,1116.9,-3.5844e-05,-0.014469,-4.0043e-05,-31.568,1.968
23169,18.736,2.5455,0.1,0.00011547,1153.9,0.00011491,1138.1,-3.6564e-05,-0.014463,-4.0678e-05,-30.925,1.9532
23170,18.828,2.2727,0.1,0.00011338,1133,0.00011282,1117.1,-3.5863e-05,-0.013706,-4.0005e-05,-31.134,1.9679
23171,18.736,2.3636,0.1,0.00011546,1153.8,0.00011491,1138.2,-3.658e-05,-0.01382,-4.0647e-05,-30.571,1.9531
23172,18.828,2.0909,0.1,0.00011337,1132.9,0.00011282,1117.3,-3.5888e-05,-0.012703,-3.9958e-05,-30.59,1.9678
23173,18.736,2.1818,0.1,0.00011546,1153.8,0.00011492,1138.4,-3.6601e-05,-0.012949,-4.0607e-05,-30.109,1.953
23174,18.828,1.9091,0.1,0.00011336,1132.9,0.00011283,1117.6,-3.5918e-05,-0.01144,-3.9902e-05,-29.948,1.9676
23175,18.736,2,0.1,0.00011546,1153.8,0.00011492,1138.7,-3.6628e-05,-0.011831,-4.0559e-05,-29.549,1.9529
23176,18.828,1.7273,0.1,0.00011336,1132.8,0.00011284,1117.9,-3.5953e-05,-0.0098991,-3.9841e-05,-29.22,1.9675
23177,18.736,1.8182,0.1,0.00011545,1153.7,0.00011493,1139,-3.666e-05,-0.010449,-4.0505e-05,-28.902,1.9527
23178,18.828,1.5455,0.1,0.00011336,1132.8,0.00011285,1118.4,-3.5994e-05,-0.0080552,-3.9775e-05,-28.421,1.9673
23179,18.736,1.6364,0.1,0.00011546,1153.8,0.00011495,1139.4,-3.6697e-05,-0.0087845,-4.0446e-05,-28.182,1.9525
23180,18.828,1.3636,0.1,0.00011337,1132.9,0.00011288,1118.9,-3.6039e-05,-0.0058851,-3.9707e-05,-27.568,1.967
23181,18.736,1.4545,0.1,0.00011546,1153.8,0.00011497,1139.9,-3.6738e-05,-0.0068101,-4.0385e-05,-27.403,1.9523
23182,18.828,1.1818,0.1,0.00011339,1133.1,0.00011291,1119.5,-3.6089e-05,-0.0033472,-3.9639e-05,-26.68,1.9668
23183,18.736,1.2727,0.1,0.00011548,1154,0.000115,1140.5,-3.6784e-05,-0.0045112,-4.0322e-05,-26.584,1.9521
23184,18.828,1,0.1,0.00011341,1133.4,0.00011295,1120.3,-3.6143e-05,-0.00047852,-3.9573e-05,-25.778,1.9665
23185,18.736,1.0909,0.1,0.00011551,1154.3,0.00011505,1141.2,-3.6835e-05,-0.0018247,-4.0261e-05,-25.742,1.9518
23186,18.828,0.81818,0.1,0.00011346,1133.8,0.00011301,1121.1,-3.6201e-05,0.0029916,-3.9513e-05,-24.883,1.9662
23187,18.736,0.90909,0.1,0.00011555,1154.7,0.0001151,1142,-3.689e-05,0.0011104,-4.0204e-05,-24.899,1.9515
23188,18.828,0.63636,0.1,0.00011352,1134.4,0.00011309,1122.2,-3.6263e-05,0.0060744,-3.9461e-05,-24.022,1.9659
23189,18.736,0.72727,0.1,0.0001156,1155.2,0.00011517,1143,-3.6949e-05,0.0049558,-4.0153e-05,-24.074,1.9512
23190,18.828,0.45455,0.1,0.00011361,1135.3,0.00011319,1123.5,-3.6329e-05,0.014316,-3.943e-05,-23.281,1.9655
23191,18.736,0.54545,0.1,0.00011567,1155.9,0.00011526,1144.1,-3.7011e-05,0.0071014,-4.0113e-05,-23.299,1.9508
23192,18.828,0.27273,0.1,0.0001139,1138.2,0.00011348,1126.1,-3.64e-05,0.011935,-3.9571e-05,-23.81,1.9652
23193,18.736,0.36364,0.1,0.00011579,1157.1,0.00011538,1145.6,-3.7077e-05,0.020801,-4.0103e-05,-22.717,1.9505
23194,18.736,0.18182,0.1,0.00011628,1162,0.00011585,1149.6,-3.715e-05,-0.00071957,-4.0421e-05,-24.577,1.9501
23195,18.828,0.090909,0.1,0.00011299,1129.1,0.0001127,1120.8,-3.6468e-05,0.0062951,-3.8662e-05,-16.477,1.9648
23196,18.643,5.7273,0.1,0.00011815,1180.6,0.00011773,1168.8,-3.7826e-05,0.011351,-4.0931e-05,-23.317,1.9354
23197,18.551,5.8182,0.1,0.00012054,1204.6,0.00012011,1192.3,-3.8577e-05,-0.00072926,-4.1788e-05,-24.127,1.9203
23198,18.643,5.9091,0.1,0.00011726,1171.8,0.00011697,1163.6,-3.789e-05,0.0061137,-4.0044e-05,-16.175,1.935
23199,18.643,5.5455,0.1,0.00011785,1177.7,0.00011744,1166.2,-3.7759e-05,0.013716,-4.078e-05,-22.688,1.9358
23200,18.551,5.6364,0.1,0.00012004,1199.6,0.00011965,1188.3,-3.8508e-05,0.019852,-4.1464e-05,-22.19,1.9207
23201,18.643,5.3636,0.1,0.00011775,1176.7,0.00011734,1164.9,-3.7696e-05,0.0059176,-4.08e-05,-23.309,1.9361
23202,18.551,5.4545,0.1,0.00011992,1198.4,0.00011952,1186.9,-3.8445e-05,0.0068727,-4.1462e-05,-22.66,1.9211
23203,18.643,5.1818,0.1,0.00011768,1176,0.00011725,1163.8,-3.7637e-05,0.0029968,-4.0838e-05,-24.049,1.9365
23204,18.551,5.2727,0.1,0.00011984,1197.6,0.00011943,1185.7,-3.8386e-05,0.0048515,-4.149e-05,-23.319,1.9215
23205,18.643,5,0.1,0.00011763,1175.5,0.00011719,1162.9,-3.7582e-05,-0.00031433,-4.0886e-05,-24.823,1.9368
23206,18.551,5.0909,0.1,0.00011978,1196.9,0.00011935,1184.7,-3.833e-05,0.0011932,-4.1528e-05,-24.026,1.9218
23207,18.643,4.8182,0.1,0.00011759,1175.1,0.00011714,1162.1,-3.7531e-05,-0.0030662,-4.0939e-05,-25.607,1.9371
23208,18.551,4.9091,0.1,0.00011973,1196.5,0.00011929,1183.9,-3.8278e-05,-0.0016183,-4.1573e-05,-24.755,1.9221
23209,18.643,4.6364,0.1,0.00011757,1174.9,0.0001171,1161.5,-3.7484e-05,-0.0055129,-4.0994e-05,-26.381,1.9373
23210,18.551,4.7273,0.1,0.00011969,1196.1,0.00011924,1183.2,-3.823e-05,-0.0042014,-4.1622e-05,-25.484,1.9224
23211,18.643,4.4545,0.1,0.00011755,1174.7,0.00011707,1160.9,-3.7441e-05,-0.0076137,-4.1051e-05,-27.126,1.9376
23212,18.551,4.5455,0.1,0.00011967,1195.9,0.0001192,1182.6,-3.8187e-05,-0.0064247,-4.1673e-05,-26.197,1.9226
23213,18.643,4.2727,0.1,0.00011754,1174.6,0.00011704,1160.4,-3.7403e-05,-0.009405,-4.1106e-05,-27.827,1.9378
23214,18.551,4.3636,0.1,0.00011965,1195.7,0.00011917,1182,-3.8148e-05,-0.008339,-4.1723e-05,-26.876,1.9228
23215,18.643,4.0909,0.1,0.00011754,1174.6,0.00011703,1160.1,-3.737e-05,-0.010907,-4.1157e-05,-28.466,1.9379
23216,18.551,4.1818,0.1,0.00011964,1195.6,0.00011915,1181.6,-3.8113e-05,-0.009961,-4.1772e-05,-27.506,1.923
23217,18.643,3.9091,0.1,0.00011754,1174.6,0.00011702,1159.8,-3.7342e-05,-0.01214,-4.1204e-05,-29.031,1.9381
23218,18.551,4,0.1,0.00011964,1195.6,0.00011914,1181.3,-3.8083e-05,-0.011308,-4.1818e-05,-28.073,1.9232
23219,18.643,3.7273,0.1,0.00011754,1174.6,0.00011701,1159.5,-3.7318e-05,-0.013124,-4.1244e-05,-29.51,1.9382
23220,18.551,3.8182,0.1,0.00011964,1195.5,0.00011912,1181,-3.8058e-05,-0.012403,-4.1858e-05,-28.565,1.9233
23221,18.643,3.5455,0.1,0.00011754,1174.6,0.000117,1159.4,-3.73e-05,-0.013873,-4.1277e-05,-29.892,1.9383
23222,18.551,3.6364,0.1,0.00011964,1195.5,0.00011912,1180.8,-3.8037e-05,-0.013259,-4.1891e-05,-28.97,1.9234
23223,18.643,3.3636,0.1,0.00011754,1174.6,0.000117,1159.3,-3.7287e-05,-0.0144,-4.13e-05,-30.171,1.9384
23224,18.551,3.4545,0.1,0.00011964,1195.5,0.00011911,1180.6,-3.8022e-05,-0.013889,-4.1917e-05,-29.282,1.9235
23225,18.643,3.1818,0.1,0.00011755,1174.7,0.000117,1159.2,-3.7279e-05,-0.014712,-4.1315e-05,-30.341,1.9384
23226,18.551,3.2727,0.1,0.00011964,1195.6,0.00011911,1180.5,-3.8012e-05,-0.014304,-4.1935e-05,-29.493,1.9236
23227,18.643,3,0.1,0.00011755,1174.7,0.000117,1159.2,-3.7276e-05,-0.014815,-4.132e-05,-30.398,1.9384
23228,18.551,3.0909,0.1,0.00011964,1195.6,0.00011911,1180.5,-3.8007e-05,-0.014508,-4.1944e-05,-29.6,1.9236
23229,18.643,2.8182,0.1,0.00011755,1174.7,0.000117,1159.2,-3.7279e-05,-0.01471,-4.1315e-05,-30.341,1.9384
23230,18.551,2.9091,0.1,0.00011964,1195.6,0.00011911,1180.5,-3.8007e-05,-0.014508,-4.1944e-05,-29.6,1.9236
23231,18.643,2.6364,0.1,0.00011754,1174.6,0.000117,1159.3,-3.7287e-05,-0.014399,-4.13e-05,-30.171,1.9384
23232,18.551,2.7273,0.1,0.00011964,1195.6,0.00011911,1180.5,-3.8012e-05,-0.014303,-4.1935e-05,-29.493,1.9236
23233,18.643,2.4545,0.1,0.00011754,1174.6,0.000117,1159.4,-3.73e-05,-0.013874,-4.1277e-05,-29.892,1.9383
23234,18.551,2.5455,0.1,0.00011964,1195.5,0.00011911,1180.6,-3.8022e-05,-0.013889,-4.1917e-05,-29.282,1.9235
23235,18.643,2.2727,0.1,0.00011754,1174.6,0.00011701,1159.5,-3.7318e-05,-0.013124,-4.1244e-05,-29.51,1.9382
23236,18.551,2.3636,0.1,0.00011964,1195.5,0.00011912,1180.8,-3.8037e-05,-0.013259,-4.1891e-05,-28.97,1.9234
23237,18.643,2.0909,0.1,0.00011754,1174.6,0.00011702,1159.8,-3.7342e-05,-0.012141,-4.1204e-05,-29.031,1.9381
23238,18.551,2.1818,0.1,0.00011964,1195.5,0.00011912,1181,-3.8058e-05,-0.012403,-4.1858e-05,-28.565,1.9233
23239,18.643,1.9091,0.1,0.00011754,1174.6,0.00011703,1160.1,-3.737e-05,-0.010908,-4.1157e-05,-28.466,1.9379
23240,18.551,2,0.1,0.00011964,1195.6,0.00011914,1181.3,-3.8083e-05,-0.01131,-4.1818e-05,-28.073,1.9232
23241,18.643,1.7273,0.1,0.00011754,1174.6,0.00011704,1160.4,-3.7403e-05,-0.0094052,-4.1106e-05,-27.827,1.9378
23242,18.551,1.8182,0.1,0.00011964,1195.6,0.00011915,1181.6,-3.8113e-05,-0.0099607,-4.1772e-05,-27.506,1.923
23243,18.643,1.5455,0.1,0.00011755,1174.7,0.00011707,1160.9,-3.7441e-05,-0.0076129,-4.1051e-05,-27.126,1.9376
23244,18.551,1.6364,0.1,0.00011965,1195.7,0.00011917,1182,-3.8148e-05,-0.0083393,-4.1723e-05,-26.876,1.9228
23245,18.643,1.3636,0.1,0.00011757,1174.9,0.0001171,1161.5,-3.7484e-05,-0.0055128,-4.0994e-05,-26.381,1.9373
23246,18.551,1.4545,0.1,0.00011967,1195.9,0.0001192,1182.6,-3.8187e-05,-0.0064241,-4.1673e-05,-26.197,1.9226
23247,18.643,1.1818,0.1,0.00011759,1175.1,0.00011714,1162.1,-3.7531e-05,-0.003068,-4.0939e-05,-25.607,1.9371
23248,18.551,1.2727,0.1,0.00011969,1196.1,0.00011924,1183.2,-3.823e-05,-0.0042023,-4.1622e-05,-25.484,1.9224
23249,18.643,1,0.1,0.00011763,1175.5,0.00011719,1162.9,-3.7582e-05,-0.00031633,-4.0886e-05,-24.823,1.9368
23250,18.551,1.0909,0.1,0.00011973,1196.5,0.00011929,1183.9,-3.8278e-05,-0.0016193,-4.1573e-05,-24.754,1.9221
23251,18.643,0.81818,0.1,0.00011768,1176,0.00011725,1163.8,-3.7637e-05,0.0029955,-4.0838e-05,-24.049,1.9365
23252,18.551,0.90909,0.1,0.00011978,1196.9,0.00011935,1184.7,-3.833e-05,0.0011911,-4.1528e-05,-24.026,1.9218
23253,18.643,0.63636,0.1,0.00011775,1176.7,0.00011734,1164.9,-3.7696e-05,0.0059176,-4.08e-05,-23.309,1.9361
23254,18.551,0.72727,0.1,0.00011984,1197.6,0.00011943,1185.7,-3.8386e-05,0.0048515,-4.149e-05,-23.318,1.9215
23255,18.643,0.45455,0.1,0.00011785,1177.7,0.00011744,1166.2,-3.7759e-05,0.013716,-4.078e-05,-22.688,1.9358
23256,18.551,0.54545,0.1,0.00011992,1198.4,0.00011952,1186.9,-3.8445e-05,0.0068721,-4.1462e-05,-22.66,1.9211
23257,18.643,0.27273,0.1,0.00011815,1180.6,0.00011773,1168.8,-3.7826e-05,0.011352,-4.0931e-05,-23.317,1.9354
23258,18.551,0.36364,0.1,0.00012004,1199.6,0.00011965,1188.3,-3.8508e-05,0.019853,-4.1464e-05,-22.19,1.9207
23259,18.551,0.18182,0.1,0.00012054,1204.6,0.00012011,1192.3,-3.8577e-05,-0.00072764,-4.1788e-05,-24.127,1.9203
23260,18.643,0.090909,0.1,0.00011726,1171.8,0.00011697,1163.6,-3.789e-05,0.0061152,-4.0044e-05,-16.175,1.935
23261,18.459,5.7273,0.1,0.00012241,1223.2,0.000122,1211.7,-3.9258e-05,0.010803,-4.2298e-05,-22.837,1.9057
23262,18.366,5.8182,0.1,0.00012481,1247.3,0.00012439,1235.2,-4.0009e-05,-0.00072338,-4.3162e-05,-23.686,1.8906
23263,18.459,5.9091,0.1,0.00012154,1214.6,0.00012126,1206.6,-3.9319e-05,0.0059278,-4.1433e-05,-15.88,1.9053
23264,18.459,5.5455,0.1,0.00012211,1220.2,0.00012172,1209,-3.9194e-05,0.013139,-4.2139e-05,-22.117,1.9061
23265,18.366,5.6364,0.1,0.00012431,1242.3,0.00012393,1231.3,-3.9943e-05,0.018962,-4.2832e-05,-21.681,1.8911
23266,18.459,5.3636,0.1,0.000122,1219.2,0.0001216,1207.7,-3.9134e-05,0.0057517,-4.2147e-05,-22.629,1.9065
23267,18.366,5.4545,0.1,0.00012419,1241,0.0001238,1229.8,-3.9884e-05,0.0066511,-4.2819e-05,-22.047,1.8915
23268,18.459,5.1818,0.1,0.00012193,1218.4,0.00012152,1206.6,-3.9078e-05,0.0029783,-4.2174e-05,-23.256,1.9068
23269,18.366,5.2727,0.1,0.0001241,1240.1,0.0001237,1228.7,-3.9828e-05,0.0047429,-4.2836e-05,-22.598,1.8918
23270,18.459,5,0.1,0.00012187,1217.8,0.00012144,1205.7,-3.9026e-05,-0.00018315,-4.2209e-05,-23.919,1.9071
23271,18.366,5.0909,0.1,0.00012403,1239.4,0.00012362,1227.7,-3.9775e-05,0.0012569,-4.2863e-05,-23.198,1.8922
23272,18.459,4.8182,0.1,0.00012182,1217.4,0.00012139,1204.9,-3.8978e-05,-0.0028258,-4.225e-05,-24.593,1.9074
23273,18.366,4.9091,0.1,0.00012397,1238.9,0.00012355,1226.8,-3.9726e-05,-0.0014367,-4.2896e-05,-23.82,1.8925
23274,18.459,4.6364,0.1,0.00012179,1217.1,0.00012134,1204.2,-3.8933e-05,-0.0051842,-4.2295e-05,-25.263,1.9077
23275,18.366,4.7273,0.1,0.00012393,1238.5,0.0001235,1226.1,-3.9681e-05,-0.0039234,-4.2934e-05,-24.447,1.8928
23276,18.459,4.4545,0.1,0.00012177,1216.8,0.0001213,1203.7,-3.8893e-05,-0.0072189,-4.234e-05,-25.91,1.9079
23277,18.366,4.5455,0.1,0.0001239,1238.1,0.00012345,1225.4,-3.9639e-05,-0.0060729,-4.2974e-05,-25.062,1.893
23278,18.459,4.2727,0.1,0.00012175,1216.6,0.00012128,1203.2,-3.8857e-05,-0.0089616,-4.2385e-05,-26.519,1.9081
23279,18.366,4.3636,0.1,0.00012388,1237.9,0.00012342,1224.9,-3.9602e-05,-0.0079317,-4.3015e-05,-25.649,1.8932
23280,18.459,4.0909,0.1,0.00012174,1216.5,0.00012125,1202.8,-3.8826e-05,-0.010426,-4.2428e-05,-27.077,1.9083
23281,18.366,4.1818,0.1,0.00012386,1237.7,0.00012339,1224.4,-3.957e-05,-0.0095122,-4.3055e-05,-26.196,1.8934
23282,18.459,3.9091,0.1,0.00012173,1216.5,0.00012124,1202.4,-3.8799e-05,-0.011633,-4.2467e-05,-27.571,1.9085
23283,18.366,4,0.1,0.00012385,1237.6,0.00012337,1224.1,-3.9541e-05,-0.01083,-4.3092e-05,-26.689,1.8936
23284,18.459,3.7273,0.1,0.00012173,1216.4,0.00012123,1202.2,-3.8777e-05,-0.012598,-4.25e-05,-27.989,1.9086
23285,18.366,3.8182,0.1,0.00012384,1237.5,0.00012336,1223.8,-3.9518e-05,-0.011902,-4.3125e-05,-27.117,1.8938
23286,18.459,3.5455,0.1,0.00012173,1216.4,0.00012122,1202,-3.876e-05,-0.013334,-4.2528e-05,-28.325,1.9087
23287,18.366,3.6364,0.1,0.00012384,1237.5,0.00012334,1223.5,-3.9498e-05,-0.012742,-4.3153e-05,-27.471,1.8939
23288,18.459,3.3636,0.1,0.00012173,1216.4,0.00012121,1201.9,-3.8747e-05,-0.013851,-4.2548e-05,-28.569,1.9088
23289,18.366,3.4545,0.1,0.00012383,1237.5,0.00012334,1223.4,-3.9484e-05,-0.013361,-4.3175e-05,-27.743,1.8939
23290,18.459,3.1818,0.1,0.00012173,1216.4,0.00012121,1201.8,-3.874e-05,-0.014158,-4.256e-05,-28.718,1.9088
23291,18.366,3.2727,0.1,0.00012383,1237.5,0.00012333,1223.3,-3.9474e-05,-0.013769,-4.319e-05,-27.928,1.894
23292,18.459,3,0.1,0.00012173,1216.4,0.00012121,1201.8,-3.8737e-05,-0.014259,-4.2564e-05,-28.768,1.9088
23293,18.366,3.0909,0.1,0.00012383,1237.5,0.00012333,1223.2,-3.947e-05,-0.01397,-4.3197e-05,-28.022,1.894
23294,18.459,2.8182,0.1,0.00012173,1216.4,0.00012121,1201.8,-3.874e-05,-0.014158,-4.256e-05,-28.718,1.9088
23295,18.366,2.9091,0.1,0.00012383,1237.5,0.00012333,1223.2,-3.947e-05,-0.01397,-4.3197e-05,-28.022,1.894
23296,18.459,2.6364,0.1,0.00012173,1216.4,0.00012121,1201.9,-3.8747e-05,-0.013851,-4.2548e-05,-28.569,1.9088
23297,18.366,2.7273,0.1,0.00012383,1237.5,0.00012333,1223.3,-3.9474e-05,-0.013769,-4.319e-05,-27.928,1.894
23298,18.459,2.4545,0.1,0.00012173,1216.4,0.00012122,1202,-3.876e-05,-0.013333,-4.2528e-05,-28.325,1.9087
23299,18.366,2.5455,0.1,0.00012383,1237.5,0.00012334,1223.4,-3.9484e-05,-0.013361,-4.3175e-05,-27.743,1.8939
23300,18.459,2.2727,0.1,0.00012173,1216.4,0.00012123,1202.2,-3.8777e-05,-0.012598,-4.25e-05,-27.989,1.9086
23301,18.366,2.3636,0.1,0.00012384,1237.5,0.00012334,1223.5,-3.9498e-05,-0.012741,-4.3153e-05,-27.471,1.8939
23302,18.459,2.0909,0.1,0.00012173,1216.5,0.00012124,1202.4,-3.8799e-05,-0.011634,-4.2467e-05,-27.571,1.9085
23303,18.366,2.1818,0.1,0.00012384,1237.5,0.00012336,1223.8,-3.9518e-05,-0.011902,-4.3125e-05,-27.117,1.8938
23304,18.459,1.9091,0.1,0.00012174,1216.5,0.00012125,1202.8,-3.8826e-05,-0.010427,-4.2428e-05,-27.077,1.9083
23305,18.366,2,0.1,0.00012385,1237.6,0.00012337,1224.1,-3.9541e-05,-0.010831,-4.3092e-05,-26.689,1.8936
23306,18.459,1.7273,0.1,0.00012175,1216.6,0.00012128,1203.2,-3.8857e-05,-0.0089614,-4.2385e-05,-26.519,1.9081
23307,18.366,1.8182,0.1,0.00012386,1237.7,0.00012339,1224.4,-3.957e-05,-0.0095122,-4.3055e-05,-26.196,1.8934
23308,18.459,1.5455,0.1,0.00012177,1216.8,0.0001213,1203.7,-3.8893e-05,-0.0072194,-4.234e-05,-25.91,1.9079
23309,18.366,1.6364,0.1,0.00012388,1237.9,0.00012342,1224.9,-3.9602e-05,-0.0079322,-4.3015e-05,-25.649,1.8932
23310,18.459,1.3636,0.1,0.00012179,1217.1,0.00012134,1204.2,-3.8933e-05,-0.0051845,-4.2295e-05,-25.263,1.9077
23311,18.366,1.4545,0.1,0.0001239,1238.1,0.00012345,1225.4,-3.9639e-05,-0.006073,-4.2974e-05,-25.061,1.893
23312,18.459,1.1818,0.1,0.00012182,1217.4,0.00012139,1204.9,-3.8978e-05,-0.002826,-4.225e-05,-24.593,1.9074
23313,18.366,1.2727,0.1,0.00012393,1238.5,0.0001235,1226.1,-3.9681e-05,-0.0039243,-4.2934e-05,-24.447,1.8928
23314,18.459,1,0.1,0.00012187,1217.8,0.00012144,1205.7,-3.9026e-05,-0.00018428,-4.2209e-05,-23.918,1.9071
23315,18.366,1.0909,0.1,0.00012397,1238.9,0.00012355,1226.8,-3.9726e-05,-0.0014378,-4.2896e-05,-23.82,1.8925
23316,18.459,0.81818,0.1,0.00012193,1218.4,0.00012152,1206.6,-3.9078e-05,0.0029775,-4.2174e-05,-23.256,1.9068
23317,18.366,0.90909,0.1,0.00012403,1239.4,0.00012362,1227.7,-3.9775e-05,0.0012557,-4.2863e-05,-23.198,1.8922
23318,18.459,0.63636,0.1,0.000122,1219.2,0.0001216,1207.7,-3.9134e-05,0.0057511,-4.2147e-05,-22.629,1.9065
23319,18.366,0.72727,0.1,0.0001241,1240.1,0.0001237,1228.7,-3.9828e-05,0.0047427,-4.2836e-05,-22.598,1.8918
23320,18.459,0.45455,0.1,0.00012211,1220.2,0.00012172,1209,-3.9194e-05,0.01314,-4.2139e-05,-22.117,1.9061
23321,18.366,0.54545,0.1,0.00012419,1241,0.0001238,1229.8,-3.9884e-05,0.0066505,-4.2819e-05,-22.047,1.8915
23322,18.459,0.27273,0.1,0.00012241,1223.2,0.000122,1211.7,-3.9258e-05,0.010804,-4.2298e-05,-22.837,1.9057
23323,18.366,0.36364,0.1,0.00012431,1242.3,0.00012393,1231.3,-3.9943e-05,0.018961,-4.2832e-05,-21.681,1.8911
23324,18.366,0.18182,0.1,0.00012481,1247.3,0.00012439,1235.2,-4.0009e-05,-0.00072273,-4.3162e-05,-23.686,1.8906
23325,18.459,0.090909,0.1,0.00012154,1214.6,0.00012126,1206.6,-3.9319e-05,0.0059268,-4.1433e-05,-15.88,1.9053
23326,18.274,5.7273,0.1,0.00012669,1266,0.0001263,1254.7,-4.0695e-05,0.010306,-4.3673e-05,-22.37,1.8761
23327,18.182,5.8182,0.1,0.0001291,1290.2,0.00012869,1278.4,-4.1447e-05,-0.00069912,-4.4542e-05,-23.254,1.8611
23328,18.274,5.9091,0.1,0.00012584,1257.6,0.00012557,1249.7,-4.0753e-05,0.0057513,-4.2829e-05,-15.591,1.8756
23329,18.274,5.5455,0.1,0.00012639,1263,0.00012601,1252.1,-4.0634e-05,0.012605,-4.3506e-05,-21.567,1.8765
23330,18.182,5.6364,0.1,0.00012861,1285.2,0.00012823,1274.5,-4.1385e-05,0.018134,-4.4207e-05,-21.189,1.8615
23331,18.274,5.3636,0.1,0.00012628,1261.9,0.00012589,1250.8,-4.0578e-05,0.0055965,-4.3503e-05,-21.977,1.8769
23332,18.182,5.4545,0.1,0.00012847,1283.9,0.0001281,1273,-4.1329e-05,0.0064442,-4.4185e-05,-21.459,1.8619
23333,18.274,5.1818,0.1,0.00012619,1261.1,0.0001258,1249.7,-4.0524e-05,0.0029605,-4.352e-05,-22.501,1.8772
23334,18.182,5.2727,0.1,0.00012838,1282.9,0.00012799,1271.8,-4.1275e-05,0.0046398,-4.4192e-05,-21.911,1.8623
23335,18.274,5,0.1,0.00012613,1260.4,0.00012572,1248.7,-4.0475e-05,-6.1586e-05,-4.3544e-05,-23.061,1.8775
23336,18.182,5.0909,0.1,0.0001283,1282.1,0.00012791,1270.8,-4.1225e-05,0.0013152,-4.4208e-05,-22.41,1.8626
23337,18.274,4.8182,0.1,0.00012608,1259.9,0.00012566,1247.9,-4.0429e-05,-0.0026004,-4.3574e-05,-23.635,1.8778
23338,18.182,4.9091,0.1,0.00012824,1281.5,0.00012784,1269.9,-4.1178e-05,-0.0012686,-4.4231e-05,-22.934,1.8629
23339,18.274,4.6364,0.1,0.00012603,1259.5,0.00012561,1247.2,-4.0387e-05,-0.0048778,-4.3608e-05,-24.208,1.8781
23340,18.182,4.7273,0.1,0.00012819,1281,0.00012778,1269.1,-4.1136e-05,-0.003664,-4.4258e-05,-23.465,1.8632
23341,18.274,4.4545,0.1,0.000126,1259.2,0.00012556,1246.6,-4.0349e-05,-0.0068502,-4.3644e-05,-24.764,1.8784
23342,18.182,4.5455,0.1,0.00012815,1280.6,0.00012773,1268.5,-4.1097e-05,-0.0057452,-4.4289e-05,-23.99,1.8635
23343,18.274,4.2727,0.1,0.00012598,1258.9,0.00012553,1246.1,-4.0315e-05,-0.0085453,-4.368e-05,-25.29,1.8786
23344,18.182,4.3636,0.1,0.00012812,1280.3,0.00012769,1267.9,-4.1062e-05,-0.0075506,-4.432e-05,-24.493,1.8637
23345,18.274,4.0909,0.1,0.00012596,1258.8,0.0001255,1245.7,-4.0285e-05,-0.0099769,-4.3714e-05,-25.772,1.8788
23346,18.182,4.1818,0.1,0.0001281,1280.1,0.00012766,1267.4,-4.1031e-05,-0.009092,-4.4352e-05,-24.963,1.8639
23347,18.274,3.9091,0.1,0.00012595,1258.6,0.00012548,1245.3,-4.026e-05,-0.011158,-4.3746e-05,-26.2,1.8789
23348,18.182,4,0.1,0.00012808,1279.9,0.00012763,1267,-4.1004e-05,-0.010381,-4.4381e-05,-25.388,1.8641
23349,18.274,3.7273,0.1,0.00012594,1258.6,0.00012547,1245.1,-4.0239e-05,-0.012104,-4.3773e-05,-26.564,1.8791
23350,18.182,3.8182,0.1,0.00012807,1279.8,0.00012761,1266.7,-4.0981e-05,-0.011431,-4.4408e-05,-25.758,1.8643
23351,18.274,3.5455,0.1,0.00012594,1258.5,0.00012546,1244.9,-4.0223e-05,-0.012827,-4.3795e-05,-26.855,1.8792
23352,18.182,3.6364,0.1,0.00012806,1279.7,0.0001276,1266.5,-4.0963e-05,-0.012256,-4.4431e-05,-26.064,1.8644
23353,18.274,3.3636,0.1,0.00012593,1258.5,0.00012545,1244.7,-4.0211e-05,-0.013336,-4.3812e-05,-27.068,1.8792
23354,18.182,3.4545,0.1,0.00012805,1279.7,0.00012759,1266.3,-4.095e-05,-0.012866,-4.4448e-05,-26.3,1.8645
23355,18.274,3.1818,0.1,0.00012593,1258.4,0.00012545,1244.6,-4.0204e-05,-0.013638,-4.3822e-05,-27.197,1.8793
23356,18.182,3.2727,0.1,0.00012805,1279.6,0.00012758,1266.2,-4.0941e-05,-0.013267,-4.446e-05,-26.46,1.8645
23357,18.274,3,0.1,0.00012593,1258.4,0.00012545,1244.6,-4.0202e-05,-0.013737,-4.3826e-05,-27.241,1.8793
23358,18.182,3.0909,0.1,0.00012805,1279.6,0.00012758,1266.1,-4.0936e-05,-0.013466,-4.4467e-05,-26.541,1.8645
23359,18.274,2.8182,0.1,0.00012593,1258.4,0.00012545,1244.6,-4.0204e-05,-0.013637,-4.3822e-05,-27.197,1.8793
23360,18.182,2.9091,0.1,0.00012805,1279.6,0.00012758,1266.1,-4.0936e-05,-0.013466,-4.4467e-05,-26.541,1.8645
23361,18.274,2.6364,0.1,0.00012593,1258.5,0.00012545,1244.7,-4.0211e-05,-0.013336,-4.3812e-05,-27.068,1.8792
23362,18.182,2.7273,0.1,0.00012805,1279.6,0.00012758,1266.2,-4.0941e-05,-0.013267,-4.446e-05,-26.46,1.8645
23363,18.274,2.4545,0.1,0.00012594,1258.5,0.00012546,1244.9,-4.0223e-05,-0.012827,-4.3795e-05,-26.855,1.8792
23364,18.182,2.5455,0.1,0.00012805,1279.7,0.00012759,1266.3,-4.095e-05,-0.012866,-4.4448e-05,-26.3,1.8645
23365,18.274,2.2727,0.1,0.00012594,1258.6,0.00012547,1245.1,-4.0239e-05,-0.012104,-4.3773e-05,-26.564,1.8791
23366,18.182,2.3636,0.1,0.00012806,1279.7,0.0001276,1266.5,-4.0963e-05,-0.012256,-4.4431e-05,-26.064,1.8644
23367,18.274,2.0909,0.1,0.00012595,1258.6,0.00012548,1245.3,-4.026e-05,-0.011159,-4.3746e-05,-26.2,1.8789
23368,18.182,2.1818,0.1,0.00012807,1279.8,0.00012761,1266.7,-4.0981e-05,-0.011432,-4.4408e-05,-25.758,1.8643
23369,18.274,1.9091,0.1,0.00012596,1258.8,0.0001255,1245.7,-4.0285e-05,-0.0099772,-4.3714e-05,-25.772,1.8788
23370,18.182,2,0.1,0.00012808,1279.9,0.00012763,1267,-4.1004e-05,-0.010381,-4.4381e-05,-25.388,1.8641
23371,18.274,1.7273,0.1,0.00012598,1258.9,0.00012553,1246.1,-4.0315e-05,-0.008546,-4.368e-05,-25.29,1.8786
23372,18.182,1.8182,0.1,0.0001281,1280.1,0.00012766,1267.4,-4.1031e-05,-0.009092,-4.4352e-05,-24.963,1.8639
23373,18.274,1.5455,0.1,0.000126,1259.2,0.00012556,1246.6,-4.0349e-05,-0.0068503,-4.3644e-05,-24.764,1.8784
23374,18.182,1.6364,0.1,0.00012812,1280.3,0.00012769,1267.9,-4.1062e-05,-0.0075513,-4.432e-05,-24.493,1.8637
23375,18.274,1.3636,0.1,0.00012603,1259.5,0.00012561,1247.2,-4.0387e-05,-0.0048784,-4.3608e-05,-24.208,1.8781
23376,18.182,1.4545,0.1,0.00012815,1280.6,0.00012773,1268.5,-4.1097e-05,-0.0057446,-4.4289e-05,-23.99,1.8635
23377,18.274,1.1818,0.1,0.00012608,1259.9,0.00012566,1247.9,-4.0429e-05,-0.0026021,-4.3574e-05,-23.635,1.8778
23378,18.182,1.2727,0.1,0.00012819,1281,0.00012778,1269.1,-4.1136e-05,-0.0036649,-4.4258e-05,-23.465,1.8632
23379,18.274,1,0.1,0.00012613,1260.4,0.00012572,1248.7,-4.0475e-05,-6.2769e-05,-4.3544e-05,-23.061,1.8775
23380,18.182,1.0909,0.1,0.00012824,1281.5,0.00012784,1269.9,-4.1178e-05,-0.0012696,-4.4231e-05,-22.934,1.8629
23381,18.274,0.81818,0.1,0.00012619,1261.1,0.0001258,1249.7,-4.0524e-05,0.0029599,-4.352e-05,-22.501,1.8772
23382,18.182,0.90909,0.1,0.0001283,1282.1,0.00012791,1270.8,-4.1225e-05,0.0013142,-4.4208e-05,-22.41,1.8626
23383,18.274,0.63636,0.1,0.00012628,1261.9,0.00012589,1250.8,-4.0578e-05,0.0055964,-4.3503e-05,-21.977,1.8769
23384,18.182,0.72727,0.1,0.00012838,1282.9,0.00012799,1271.8,-4.1275e-05,0.0046388,-4.4192e-05,-21.91,1.8623
23385,18.274,0.45455,0.1,0.00012639,1263,0.00012601,1252.1,-4.0634e-05,0.012604,-4.3506e-05,-21.567,1.8765
23386,18.182,0.54545,0.1,0.00012847,1283.9,0.0001281,1273,-4.1329e-05,0.006443,-4.4185e-05,-21.459,1.8619
23387,18.274,0.27273,0.1,0.00012669,1266,0.0001263,1254.7,-4.0695e-05,0.010305,-4.3673e-05,-22.37,1.8761
23388,18.182,0.36364,0.1,0.00012861,1285.2,0.00012823,1274.5,-4.1385e-05,0.018132,-4.4207e-05,-21.189,1.8615
23389,18.182,0.18182,0.1,0.0001291,1290.2,0.00012869,1278.4,-4.1447e-05,-0.00069853,-4.4542e-05,-23.254,1.8611
23390,18.274,0.090909,0.1,0.00012584,1257.6,0.00012557,1249.7,-4.0753e-05,0.0057543,-4.2829e-05,-15.591,1.8756
23391,18.089,5.7273,0.1,0.00013099,1309,0.00013061,1298,-4.2137e-05,0.0098506,-4.5055e-05,-21.915,1.8465
23392,17.997,5.8182,0.1,0.00013342,1333.2,0.00013301,1321.7,-4.2891e-05,-0.00066792,-4.593e-05,-22.831,1.8316
23393,18.089,5.9091,0.1,0.00013016,1300.7,0.0001299,1293,-4.2193e-05,0.0055847,-4.4231e-05,-15.309,1.8461
23394,18.089,5.5455,0.1,0.00013069,1306,0.00013032,1295.3,-4.208e-05,0.012105,-4.4881e-05,-21.037,1.8469
23395,17.997,5.6364,0.1,0.00013292,1328.3,0.00013255,1317.8,-4.2832e-05,0.017351,-4.5591e-05,-20.712,1.832
23396,18.089,5.3636,0.1,0.00013057,1304.8,0.0001302,1294,-4.2026e-05,0.0054497,-4.4869e-05,-21.353,1.8473
23397,17.997,5.4545,0.1,0.00013278,1326.9,0.00013241,1316.3,-4.2778e-05,0.0062416,-4.556e-05,-20.893,1.8324
23398,18.089,5.1818,0.1,0.00013048,1303.9,0.0001301,1292.9,-4.1976e-05,0.0029412,-4.4875e-05,-21.781,1.8477
23399,17.997,5.2727,0.1,0.00013268,1325.9,0.00013231,1315.1,-4.2728e-05,0.0045333,-4.5557e-05,-21.252,1.8328
23400,18.089,5,0.1,0.00013041,1303.2,0.00013002,1291.9,-4.1929e-05,5.016e-05,-4.4889e-05,-22.246,1.848
23401,17.997,5.0909,0.1,0.0001326,1325.1,0.00013222,1314.1,-4.268e-05,0.0013598,-4.5563e-05,-21.66,1.8332
23402,18.089,4.8182,0.1,0.00013035,1302.6,0.00012995,1291.1,-4.1885e-05,-0.0023924,-4.491e-05,-22.727,1.8484
23403,17.997,4.9091,0.1,0.00013253,1324.4,0.00013214,1313.2,-4.2636e-05,-0.0011202,-4.5576e-05,-22.092,1.8335
23404,18.089,4.6364,0.1,0.0001303,1302.1,0.00012989,1290.4,-4.1845e-05,-0.0045922,-4.4934e-05,-23.21,1.8486
23405,17.997,4.7273,0.1,0.00013247,1323.8,0.00013208,1312.4,-4.2595e-05,-0.0034308,-4.5594e-05,-22.535,1.8338
23406,18.089,4.4545,0.1,0.00013026,1301.7,0.00012984,1289.7,-4.1809e-05,-0.0065061,-4.496e-05,-23.683,1.8489
23407,17.997,4.5455,0.1,0.00013243,1323.4,0.00013202,1311.7,-4.2558e-05,-0.0054461,-4.5616e-05,-22.976,1.8341
23408,18.089,4.2727,0.1,0.00013023,1301.4,0.00012981,1289.2,-4.1777e-05,-0.0081571,-4.4988e-05,-24.131,1.8491
23409,17.997,4.3636,0.1,0.00013239,1323,0.00013198,1311.1,-4.2525e-05,-0.0072025,-4.5639e-05,-23.401,1.8343
23410,18.089,4.0909,0.1,0.00013021,1301.2,0.00012978,1288.8,-4.1749e-05,-0.0095547,-4.5014e-05,-24.543,1.8493
23411,17.997,4.1818,0.1,0.00013236,1322.7,0.00013194,1310.6,-4.2496e-05,-0.0087056,-4.5662e-05,-23.8,1.8345
23412,18.089,3.9091,0.1,0.00013019,1301,0.00012975,1288.4,-4.1725e-05,-0.010711,-4.5039e-05,-24.91,1.8495
23413,17.997,4,0.1,0.00013234,1322.5,0.00013191,1310.2,-4.2471e-05,-0.0099666,-4.5685e-05,-24.162,1.8347
23414,18.089,3.7273,0.1,0.00013018,1300.9,0.00012973,1288.1,-4.1706e-05,-0.01164,-4.5061e-05,-25.223,1.8496
23415,17.997,3.8182,0.1,0.00013232,1322.3,0.00013189,1309.9,-4.2449e-05,-0.010997,-4.5706e-05,-24.478,1.8348
23416,18.089,3.5455,0.1,0.00013017,1300.8,0.00012972,1287.9,-4.169e-05,-0.012351,-4.5079e-05,-25.474,1.8497
23417,17.997,3.6364,0.1,0.00013231,1322.2,0.00013187,1309.6,-4.2432e-05,-0.011808,-4.5723e-05,-24.74,1.835
23418,18.089,3.3636,0.1,0.00013017,1300.8,0.00012971,1287.8,-4.1679e-05,-0.012852,-4.5092e-05,-25.657,1.8498
23419,17.997,3.4545,0.1,0.0001323,1322.1,0.00013186,1309.5,-4.242e-05,-0.012408,-4.5737e-05,-24.942,1.8351
23420,18.089,3.1818,0.1,0.00013016,1300.7,0.00012971,1287.7,-4.1673e-05,-0.01315,-4.51e-05,-25.769,1.8498
23421,17.997,3.2727,0.1,0.0001323,1322.1,0.00013185,1309.3,-4.2411e-05,-0.012804,-4.5747e-05,-25.079,1.8351
23422,18.089,3,0.1,0.00013016,1300.7,0.0001297,1287.6,-4.167e-05,-0.013249,-4.5103e-05,-25.806,1.8498
23423,17.997,3.0909,0.1,0.00013229,1322,0.00013185,1309.3,-4.2407e-05,-0.013,-4.5752e-05,-25.149,1.8352
23424,18.089,2.8182,0.1,0.00013016,1300.7,0.00012971,1287.7,-4.1673e-05,-0.013151,-4.51e-05,-25.769,1.8498
23425,17.997,2.9091,0.1,0.00013229,1322,0.00013185,1309.3,-4.2407e-05,-0.013001,-4.5752e-05,-25.149,1.8352
23426,18.089,2.6364,0.1,0.00013017,1300.8,0.00012971,1287.8,-4.1679e-05,-0.012853,-4.5092e-05,-25.657,1.8498
23427,17.997,2.7273,0.1,0.0001323,1322.1,0.00013185,1309.3,-4.2411e-05,-0.012805,-4.5747e-05,-25.079,1.8351
23428,18.089,2.4545,0.1,0.00013017,1300.8,0.00012972,1287.9,-4.169e-05,-0.012351,-4.5079e-05,-25.474,1.8497
23429,17.997,2.5455,0.1,0.0001323,1322.1,0.00013186,1309.5,-4.242e-05,-0.012409,-4.5737e-05,-24.942,1.8351
23430,18.089,2.2727,0.1,0.00013018,1300.9,0.00012973,1288.1,-4.1706e-05,-0.01164,-4.5061e-05,-25.223,1.8496
23431,17.997,2.3636,0.1,0.00013231,1322.2,0.00013187,1309.6,-4.2432e-05,-0.011808,-4.5723e-05,-24.74,1.835
23432,18.089,2.0909,0.1,0.00013019,1301,0.00012975,1288.4,-4.1725e-05,-0.010712,-4.5039e-05,-24.91,1.8495
23433,17.997,2.1818,0.1,0.00013232,1322.3,0.00013189,1309.9,-4.2449e-05,-0.010998,-4.5706e-05,-24.478,1.8348
23434,18.089,1.9091,0.1,0.00013021,1301.2,0.00012978,1288.8,-4.1749e-05,-0.0095548,-4.5014e-05,-24.543,1.8493
23435,17.997,2,0.1,0.00013234,1322.5,0.00013191,1310.2,-4.2471e-05,-0.0099672,-4.5685e-05,-24.162,1.8347
23436,18.089,1.7273,0.1,0.00013023,1301.4,0.00012981,1289.2,-4.1777e-05,-0.0081569,-4.4988e-05,-24.131,1.8491
23437,17.997,1.8182,0.1,0.00013236,1322.7,0.00013194,1310.6,-4.2496e-05,-0.0087056,-4.5662e-05,-23.8,1.8345
23438,18.089,1.5455,0.1,0.00013026,1301.7,0.00012984,1289.7,-4.1809e-05,-0.006506,-4.496e-05,-23.682,1.8489
23439,17.997,1.6364,0.1,0.00013239,1323,0.00013198,1311.1,-4.2525e-05,-0.0072023,-4.5639e-05,-23.401,1.8343
23440,18.089,1.3636,0.1,0.0001303,1302.1,0.00012989,1290.4,-4.1845e-05,-0.0045918,-4.4934e-05,-23.21,1.8486
23441,17.997,1.4545,0.1,0.00013243,1323.4,0.00013202,1311.7,-4.2558e-05,-0.0054451,-4.5616e-05,-22.976,1.8341
23442,18.089,1.1818,0.1,0.00013035,1302.6,0.00012995,1291.1,-4.1885e-05,-0.0023925,-4.491e-05,-22.727,1.8484
23443,17.997,1.2727,0.1,0.00013247,1323.8,0.00013208,1312.4,-4.2595e-05,-0.003431,-4.5594e-05,-22.535,1.8338
23444,18.089,1,0.1,0.00013041,1303.2,0.00013002,1291.9,-4.1929e-05,4.9345e-05,-4.4889e-05,-22.246,1.848
23445,17.997,1.0909,0.1,0.00013253,1324.4,0.00013214,1313.2,-4.2636e-05,-0.0011214,-4.5576e-05,-22.092,1.8335
23446,18.089,0.81818,0.1,0.00013048,1303.9,0.0001301,1292.9,-4.1976e-05,0.0029399,-4.4875e-05,-21.781,1.8477
23447,17.997,0.90909,0.1,0.0001326,1325.1,0.00013222,1314.1,-4.268e-05,0.0013594,-4.5563e-05,-21.66,1.8332
23448,18.089,0.63636,0.1,0.00013057,1304.8,0.0001302,1294,-4.2026e-05,0.0054478,-4.4869e-05,-21.353,1.8473
23449,17.997,0.72727,0.1,0.00013268,1325.9,0.00013231,1315.1,-4.2728e-05,0.0045312,-4.5557e-05,-21.252,1.8328
23450,18.089,0.45455,0.1,0.00013069,1306,0.00013032,1295.3,-4.208e-05,0.012104,-4.4881e-05,-21.037,1.8469
23451,17.997,0.54545,0.1,0.00013278,1326.9,0.00013241,1316.3,-4.2778e-05,0.0062399,-4.556e-05,-20.893,1.8324
23452,18.089,0.27273,0.1,0.00013099,1309,0.00013061,1298,-4.2137e-05,0.0098508,-4.5055e-05,-21.915,1.8465
23453,17.997,0.36364,0.1,0.00013292,1328.3,0.00013255,1317.8,-4.2832e-05,0.017352,-4.5591e-05,-20.712,1.832
23454,17.997,0.18182,0.1,0.00013342,1333.2,0.00013301,1321.7,-4.2891e-05,-0.0006678,-4.593e-05,-22.831,1.8316
23455,18.089,0.090909,0.1,0.00013016,1300.7,0.0001299,1293,-4.2193e-05,0.0055858,-4.4231e-05,-15.309,1.8461
23456,17.905,5.7273,0.1,0.00013532,1352.2,0.00013494,1341.4,-4.3586e-05,0.0094161,-4.6445e-05,-21.473,1.8171
23457,17.812,5.8182,0.1,0.00013775,1376.5,0.00013735,1365.2,-4.4341e-05,-0.00063009,-4.7325e-05,-22.417,1.8021
23458,17.905,5.9091,0.1,0.0001345,1344.1,0.00013424,1336.5,-4.3638e-05,0.0054096,-4.564e-05,-15.033,1.8166
23459,17.905,5.5455,0.1,0.00013501,1349.1,0.00013465,1338.8,-4.3531e-05,0.01162,-4.6264e-05,-20.525,1.8175
23460,17.812,5.6364,0.1,0.00013725,1371.6,0.0001369,1361.3,-4.4285e-05,0.016613,-4.6982e-05,-20.25,1.8026
23461,17.905,5.3636,0.1,0.00013489,1347.9,0.00013452,1337.4,-4.348e-05,0.0052947,-4.6243e-05,-20.754,1.8179
23462,17.812,5.4545,0.1,0.00013711,1370.1,0.00013675,1359.9,-4.4234e-05,0.0060459,-4.6943e-05,-20.348,1.803
23463,17.905,5.1818,0.1,0.00013479,1347,0.00013442,1336.3,-4.3432e-05,0.0029056,-4.624e-05,-21.093,1.8183
23464,17.812,5.2727,0.1,0.000137,1369.1,0.00013664,1358.7,-4.4185e-05,0.0044267,-4.6931e-05,-20.621,1.8034
23465,17.905,5,0.1,0.00013471,1346.2,0.00013433,1335.3,-4.3387e-05,0.00013762,-4.6245e-05,-21.469,1.8186
23466,17.812,5.0909,0.1,0.00013691,1368.2,0.00013655,1357.6,-4.414e-05,0.0013937,-4.6928e-05,-20.943,1.8038
23467,17.905,4.8182,0.1,0.00013465,1345.5,0.00013426,1334.5,-4.3346e-05,-0.0022133,-4.6256e-05,-21.864,1.819
23468,17.812,4.9091,0.1,0.00013684,1367.5,0.00013646,1356.7,-4.4098e-05,-0.00098812,-4.6932e-05,-21.29,1.8041
23469,17.905,4.6364,0.1,0.00013459,1345,0.0001342,1333.7,-4.3308e-05,-0.0043409,-4.6271e-05,-22.265,1.8193
23470,17.812,4.7273,0.1,0.00013678,1366.8,0.0001364,1355.9,-4.406e-05,-0.0032177,-4.6941e-05,-21.652,1.8044
23471,17.905,4.4545,0.1,0.00013455,1344.6,0.00013415,1333.1,-4.3274e-05,-0.0061991,-4.6289e-05,-22.659,1.8195
23472,17.812,4.5455,0.1,0.00013673,1366.3,0.00013634,1355.2,-4.4025e-05,-0.0051701,-4.6954e-05,-22.015,1.8047
23473,17.905,4.2727,0.1,0.00013451,1344.2,0.00013411,1332.5,-4.3244e-05,-0.0078075,-4.6309e-05,-23.035,1.8197
23474,17.812,4.3636,0.1,0.00013668,1365.9,0.00013629,1354.6,-4.3994e-05,-0.0068791,-4.697e-05,-22.368,1.805
23475,17.905,4.0909,0.1,0.00013448,1343.9,0.00013407,1332.1,-4.3217e-05,-0.0091736,-4.6328e-05,-23.384,1.8199
23476,17.812,4.1818,0.1,0.00013665,1365.6,0.00013625,1354.1,-4.3966e-05,-0.008347,-4.6986e-05,-22.7,1.8052
23477,17.905,3.9091,0.1,0.00013446,1343.7,0.00013404,1331.7,-4.3195e-05,-0.010308,-4.6347e-05,-23.694,1.8201
23478,17.812,4,0.1,0.00013662,1365.3,0.00013622,1353.6,-4.3942e-05,-0.0095826,-4.7002e-05,-23.004,1.8054
23479,17.905,3.7273,0.1,0.00013445,1343.5,0.00013402,1331.4,-4.3176e-05,-0.011221,-4.6364e-05,-23.96,1.8202
23480,17.812,3.8182,0.1,0.0001366,1365.1,0.00013619,1353.3,-4.3922e-05,-0.010595,-4.7017e-05,-23.269,1.8055
23481,17.905,3.5455,0.1,0.00013443,1343.4,0.00013401,1331.2,-4.3162e-05,-0.01192,-4.6377e-05,-24.173,1.8204
23482,17.812,3.6364,0.1,0.00013659,1364.9,0.00013617,1353,-4.3906e-05,-0.011392,-4.7031e-05,-23.49,1.8057
23483,17.905,3.3636,0.1,0.00013443,1343.3,0.000134,1331,-4.3151e-05,-0.012414,-4.6388e-05,-24.329,1.8204
23484,17.812,3.4545,0.1,0.00013658,1364.8,0.00013616,1352.8,-4.3894e-05,-0.011984,-4.7041e-05,-23.661,1.8057
23485,17.905,3.1818,0.1,0.00013442,1343.3,0.00013399,1330.9,-4.3145e-05,-0.012708,-4.6394e-05,-24.424,1.8205
23486,17.812,3.2727,0.1,0.00013657,1364.7,0.00013615,1352.7,-4.3886e-05,-0.012373,-4.7048e-05,-23.777,1.8058
23487,17.905,3,0.1,0.00013442,1343.3,0.00013399,1330.9,-4.3143e-05,-0.012805,-4.6396e-05,-24.456,1.8205
23488,17.812,3.0909,0.1,0.00013656,1364.7,0.00013614,1352.6,-4.3882e-05,-0.012568,-4.7052e-05,-23.836,1.8058
23489,17.905,2.8182,0.1,0.00013442,1343.3,0.00013399,1330.9,-4.3145e-05,-0.012708,-4.6394e-05,-24.424,1.8205
23490,17.812,2.9091,0.1,0.00013656,1364.7,0.00013614,1352.6,-4.3882e-05,-0.012567,-4.7052e-05,-23.836,1.8058
23491,17.905,2.6364,0.1,0.00013443,1343.3,0.000134,1331,-4.3151e-05,-0.012415,-4.6388e-05,-24.329,1.8204
23492,17.812,2.7273,0.1,0.00013657,1364.7,0.00013615,1352.7,-4.3886e-05,-0.012374,-4.7048e-05,-23.777,1.8058
23493,17.905,2.4545,0.1,0.00013443,1343.4,0.00013401,1331.2,-4.3162e-05,-0.01192,-4.6377e-05,-24.173,1.8204
23494,17.812,2.5455,0.1,0.00013658,1364.8,0.00013616,1352.8,-4.3894e-05,-0.011983,-4.7041e-05,-23.661,1.8057
23495,17.905,2.2727,0.1,0.00013445,1343.5,0.00013402,1331.4,-4.3176e-05,-0.01122,-4.6364e-05,-23.96,1.8202
23496,17.812,2.3636,0.1,0.00013659,1364.9,0.00013617,1353,-4.3906e-05,-0.011392,-4.7031e-05,-23.49,1.8057
23497,17.905,2.0909,0.1,0.00013446,1343.7,0.00013404,1331.7,-4.3195e-05,-0.010308,-4.6347e-05,-23.694,1.8201
23498,17.812,2.1818,0.1,0.0001366,1365.1,0.00013619,1353.3,-4.3922e-05,-0.010594,-4.7017e-05,-23.269,1.8055
23499,17.905,1.9091,0.1,0.00013448,1343.9,0.00013407,1332.1,-4.3217e-05,-0.009174,-4.6328e-05,-23.384,1.8199
23500,17.812,2,0.1,0.00013662,1365.3,0.00013622,1353.6,-4.3942e-05,-0.0095823,-4.7002e-05,-23.003,1.8054
23501,17.905,1.7273,0.1,0.00013451,1344.2,0.00013411,1332.5,-4.3244e-05,-0.0078076,-4.6309e-05,-23.035,1.8197
23502,17.812,1.8182,0.1,0.00013665,1365.6,0.00013625,1354.1,-4.3966e-05,-0.0083477,-4.6986e-05,-22.7,1.8052
23503,17.905,1.5455,0.1,0.00013455,1344.6,0.00013415,1333.1,-4.3274e-05,-0.0061981,-4.6289e-05,-22.659,1.8195
23504,17.812,1.6364,0.1,0.00013668,1365.9,0.00013629,1354.6,-4.3994e-05,-0.0068797,-4.697e-05,-22.367,1.805
23505,17.905,1.3636,0.1,0.00013459,1345,0.0001342,1333.7,-4.3308e-05,-0.0043404,-4.6271e-05,-22.265,1.8193
23506,17.812,1.4545,0.1,0.00013673,1366.3,0.00013634,1355.2,-4.4025e-05,-0.0051697,-4.6954e-05,-22.015,1.8047
23507,17.905,1.1818,0.1,0.00013465,1345.5,0.00013426,1334.5,-4.3346e-05,-0.0022146,-4.6256e-05,-21.864,1.819
23508,17.812,1.2727,0.1,0.00013678,1366.8,0.0001364,1355.9,-4.406e-05,-0.0032179,-4.6941e-05,-21.652,1.8044
23509,17.905,1,0.1,0.00013471,1346.2,0.00013433,1335.3,-4.3387e-05,0.00013687,-4.6245e-05,-21.469,1.8186
23510,17.812,1.0909,0.1,0.00013684,1367.5,0.00013647,1356.7,-4.4098e-05,-0.00098942,-4.6932e-05,-21.29,1.8041
23511,17.905,0.81818,0.1,0.00013479,1347,0.00013442,1336.3,-4.3432e-05,0.0029045,-4.624e-05,-21.093,1.8183
23512,17.812,0.90909,0.1,0.00013691,1368.2,0.00013655,1357.6,-4.414e-05,0.0013943,-4.6928e-05,-20.943,1.8038
23513,17.905,0.63636,0.1,0.00013489,1347.9,0.00013452,1337.4,-4.348e-05,0.0052928,-4.6243e-05,-20.754,1.8179
23514,17.812,0.72727,0.1,0.000137,1369.1,0.00013664,1358.7,-4.4185e-05,0.0044233,-4.6931e-05,-20.621,1.8034
23515,17.905,0.45455,0.1,0.00013501,1349.1,0.00013465,1338.8,-4.3531e-05,0.01162,-4.6264e-05,-20.525,1.8175
23516,17.812,0.54545,0.1,0.00013711,1370.1,0.00013675,1359.9,-4.4234e-05,0.0060454,-4.6943e-05,-20.348,1.803
23517,17.905,0.27273,0.1,0.00013532,1352.2,0.00013494,1341.4,-4.3586e-05,0.0094167,-4.6445e-05,-21.473,1.8171
23518,17.812,0.36364,0.1,0.00013725,1371.6,0.0001369,1361.3,-4.4285e-05,0.016615,-4.6982e-05,-20.25,1.8026
23519,17.812,0.18182,0.1,0.00013775,1376.5,0.00013735,1365.2,-4.4341e-05,-0.00063001,-4.7325e-05,-22.417,1.8021
23520,17.905,0.090909,0.1,0.0001345,1344.1,0.00013424,1336.5,-4.3638e-05,0.0054086,-4.564e-05,-15.033,1.8166
23521,17.72,5.7273,0.1,0.00013966,1395.6,0.00013929,1385,-4.504e-05,0.0090203,-4.7842e-05,-21.042,1.7877
23522,17.628,5.8182,0.1,0.0001421,1420,0.00014171,1408.8,-4.5797e-05,-0.0005761,-4.8727e-05,-22.012,1.7728
23523,17.72,5.9091,0.1,0.00013886,1387.6,0.0001386,1380.2,-4.509e-05,0.0052494,-4.7056e-05,-14.763,1.7872
23524,17.72,5.5455,0.1,0.00013935,1392.5,0.00013899,1382.4,-4.4988e-05,0.01117,-4.7655e-05,-20.03,1.7882
23525,17.628,5.6364,0.1,0.0001416,1415,0.00014126,1405,-4.5743e-05,0.015923,-4.8381e-05,-19.801,1.7733
23526,17.72,5.3636,0.1,0.00013922,1391.2,0.00013887,1381,-4.4939e-05,0.0051539,-4.7625e-05,-20.178,1.7886
23527,17.628,5.4545,0.1,0.00014146,1413.6,0.00014111,1403.6,-4.5695e-05,0.0058671,-4.8334e-05,-19.822,1.7737
23528,17.72,5.1818,0.1,0.00013912,1390.2,0.00013876,1379.9,-4.4894e-05,0.002875,-4.7614e-05,-20.434,1.789
23529,17.628,5.2727,0.1,0.00014135,1412.5,0.00014099,1402.4,-4.5649e-05,0.0043295,-4.8313e-05,-20.015,1.7741
23530,17.72,5,0.1,0.00013904,1389.4,0.00013867,1378.9,-4.4851e-05,0.00022199,-4.761e-05,-20.728,1.7893
23531,17.628,5.0909,0.1,0.00014125,1411.5,0.0001409,1401.3,-4.5606e-05,0.0014297,-4.8302e-05,-20.256,1.7745
23532,17.72,4.8182,0.1,0.00013896,1388.7,0.00013859,1378,-4.4812e-05,-0.0020421,-4.7613e-05,-21.042,1.7897
23533,17.628,4.9091,0.1,0.00014117,1410.7,0.00014081,1400.4,-4.5566e-05,-0.00086038,-4.8298e-05,-20.525,1.7749
23534,17.72,4.6364,0.1,0.0001389,1388.1,0.00013853,1377.3,-4.4777e-05,-0.0040988,-4.762e-05,-21.366,1.79
23535,17.628,4.7273,0.1,0.0001411,1410.1,0.00014074,1399.5,-4.553e-05,-0.003012,-4.8299e-05,-20.81,1.7752
23536,17.72,4.4545,0.1,0.00013886,1387.6,0.00013847,1376.6,-4.4744e-05,-0.0059032,-4.763e-05,-21.688,1.7902
23537,17.628,4.5455,0.1,0.00014105,1409.5,0.00014068,1398.8,-4.5497e-05,-0.0049055,-4.8304e-05,-21.1,1.7755
23538,17.72,4.2727,0.1,0.00013881,1387.2,0.00013843,1376.1,-4.4716e-05,-0.0074722,-4.7642e-05,-21.997,1.7905
23539,17.628,4.3636,0.1,0.000141,1409,0.00014062,1398.2,-4.5467e-05,-0.0065696,-4.8312e-05,-21.385,1.7757
23540,17.72,4.0909,0.1,0.00013878,1386.9,0.00013839,1375.6,-4.469e-05,-0.0088096,-4.7655e-05,-22.285,1.7907
23541,17.628,4.1818,0.1,0.00014096,1408.6,0.00014058,1397.7,-4.5441e-05,-0.0080036,-4.8322e-05,-21.657,1.776
23542,17.72,3.9091,0.1,0.00013876,1386.6,0.00013836,1375.2,-4.4669e-05,-0.0099224,-4.7668e-05,-22.544,1.7908
23543,17.628,4,0.1,0.00014093,1408.3,0.00014054,1397.2,-4.5418e-05,-0.0092145,-4.8332e-05,-21.905,1.7761
23544,17.72,3.7273,0.1,0.00013874,1386.4,0.00013833,1374.9,-4.4652e-05,-0.010819,-4.768e-05,-22.765,1.791
23545,17.628,3.8182,0.1,0.0001409,1408.1,0.00014051,1396.9,-4.5399e-05,-0.010209,-4.8342e-05,-22.124,1.7763
23546,17.72,3.5455,0.1,0.00013872,1386.3,0.00013832,1374.6,-4.4638e-05,-0.011508,-4.769e-05,-22.944,1.7911
23547,17.628,3.6364,0.1,0.00014089,1407.9,0.00014049,1396.6,-4.5384e-05,-0.010994,-4.8351e-05,-22.307,1.7764
23548,17.72,3.3636,0.1,0.00013871,1386.2,0.0001383,1374.5,-4.4628e-05,-0.011995,-4.7697e-05,-23.075,1.7912
23549,17.628,3.4545,0.1,0.00014087,1407.8,0.00014048,1396.4,-4.5372e-05,-0.011578,-4.8359e-05,-22.449,1.7765
23550,17.72,3.1818,0.1,0.00013871,1386.1,0.0001383,1374.4,-4.4622e-05,-0.012286,-4.7702e-05,-23.154,1.7912
23551,17.628,3.2727,0.1,0.00014086,1407.7,0.00014047,1396.3,-4.5365e-05,-0.011962,-4.8364e-05,-22.545,1.7766
23552,17.72,3,0.1,0.0001387,1386.1,0.00013829,1374.3,-4.462e-05,-0.012382,-4.7704e-05,-23.181,1.7912
23553,17.628,3.0909,0.1,0.00014086,1407.6,0.00014046,1396.2,-4.5361e-05,-0.012154,-4.8366e-05,-22.594,1.7766
23554,17.72,2.8182,0.1,0.00013871,1386.1,0.0001383,1374.4,-4.4622e-05,-0.012285,-4.7702e-05,-23.154,1.7912
23555,17.628,2.9091,0.1,0.00014086,1407.6,0.00014046,1396.2,-4.5361e-05,-0.012154,-4.8366e-05,-22.594,1.7766
23556,17.72,2.6364,0.1,0.00013871,1386.2,0.0001383,1374.5,-4.4628e-05,-0.011995,-4.7697e-05,-23.075,1.7912
23557,17.628,2.7273,0.1,0.00014086,1407.7,0.00014047,1396.3,-4.5365e-05,-0.011962,-4.8364e-05,-22.545,1.7766
23558,17.72,2.4545,0.1,0.00013872,1386.3,0.00013832,1374.6,-4.4638e-05,-0.011508,-4.769e-05,-22.944,1.7911
23559,17.628,2.5455,0.1,0.00014087,1407.8,0.00014048,1396.4,-4.5372e-05,-0.011577,-4.8359e-05,-22.449,1.7765
23560,17.72,2.2727,0.1,0.00013874,1386.4,0.00013833,1374.9,-4.4652e-05,-0.010819,-4.768e-05,-22.765,1.791
23561,17.628,2.3636,0.1,0.00014089,1407.9,0.00014049,1396.6,-4.5384e-05,-0.010994,-4.8351e-05,-22.307,1.7764
23562,17.72,2.0909,0.1,0.00013876,1386.6,0.00013836,1375.2,-4.4669e-05,-0.0099217,-4.7668e-05,-22.544,1.7908
23563,17.628,2.1818,0.1,0.0001409,1408.1,0.00014052,1396.9,-4.5399e-05,-0.010208,-4.8342e-05,-22.124,1.7763
23564,17.72,1.9091,0.1,0.00013878,1386.9,0.00013839,1375.6,-4.469e-05,-0.0088096,-4.7655e-05,-22.285,1.7907
23565,17.628,2,0.1,0.00014093,1408.3,0.00014054,1397.2,-4.5418e-05,-0.0092143,-4.8332e-05,-21.905,1.7761
23566,17.72,1.7273,0.1,0.00013881,1387.2,0.00013843,1376.1,-4.4716e-05,-0.0074733,-4.7642e-05,-21.997,1.7905
23567,17.628,1.8182,0.1,0.00014096,1408.6,0.00014058,1397.7,-4.5441e-05,-0.0080041,-4.8322e-05,-21.657,1.776
23568,17.72,1.5455,0.1,0.00013886,1387.6,0.00013847,1376.6,-4.4744e-05,-0.0059044,-4.763e-05,-21.688,1.7902
23569,17.628,1.6364,0.1,0.000141,1409,0.00014062,1398.2,-4.5467e-05,-0.0065706,-4.8312e-05,-21.385,1.7757
23570,17.72,1.3636,0.1,0.0001389,1388.1,0.00013853,1377.3,-4.4777e-05,-0.0040991,-4.762e-05,-21.366,1.79
23571,17.628,1.4545,0.1,0.00014105,1409.5,0.00014068,1398.8,-4.5497e-05,-0.0049058,-4.8304e-05,-21.1,1.7755
23572,17.72,1.1818,0.1,0.00013896,1388.7,0.00013859,1378,-4.4812e-05,-0.0020423,-4.7613e-05,-21.042,1.7897
23573,17.628,1.2727,0.1,0.0001411,1410.1,0.00014074,1399.5,-4.553e-05,-0.0030122,-4.8299e-05,-20.81,1.7752
23574,17.72,1,0.1,0.00013904,1389.4,0.00013867,1378.9,-4.4851e-05,0.00022204,-4.761e-05,-20.727,1.7893
23575,17.628,1.0909,0.1,0.00014117,1410.7,0.00014081,1400.4,-4.5566e-05,-0.00086065,-4.8298e-05,-20.525,1.7749
23576,17.72,0.81818,0.1,0.00013912,1390.2,0.00013876,1379.9,-4.4894e-05,0.0028732,-4.7614e-05,-20.434,1.789
23577,17.628,0.90909,0.1,0.00014125,1411.5,0.0001409,1401.3,-4.5606e-05,0.0014289,-4.8302e-05,-20.256,1.7745
23578,17.72,0.63636,0.1,0.00013922,1391.2,0.00013887,1381,-4.4939e-05,0.0051518,-4.7625e-05,-20.178,1.7886
23579,17.628,0.72727,0.1,0.00014135,1412.5,0.00014099,1402.4,-4.5649e-05,0.0043261,-4.8313e-05,-20.015,1.7741
23580,17.72,0.45455,0.1,0.00013935,1392.5,0.00013899,1382.4,-4.4988e-05,0.011171,-4.7655e-05,-20.03,1.7882
23581,17.628,0.54545,0.1,0.00014146,1413.6,0.00014111,1403.6,-4.5695e-05,0.0058679,-4.8334e-05,-19.822,1.7737
23582,17.72,0.27273,0.1,0.00013966,1395.6,0.00013929,1385,-4.504e-05,0.009022,-4.7842e-05,-21.042,1.7877
23583,17.628,0.36364,0.1,0.0001416,1415,0.00014126,1405,-4.5743e-05,0.015924,-4.8381e-05,-19.801,1.7733
23584,17.628,0.18182,0.1,0.0001421,1420,0.00014171,1408.8,-4.5797e-05,-0.00057525,-4.8727e-05,-22.012,1.7728
23585,17.72,0.090909,0.1,0.00013886,1387.6,0.0001386,1380.2,-4.509e-05,0.005249,-4.7056e-05,-14.763,1.7872
23586,17.535,5.7273,0.1,0.00014402,1439.2,0.00014366,1428.8,-4.65e-05,0.0086596,-4.9246e-05,-20.621,1.7584
23587,17.443,5.8182,0.1,0.00014647,1463.6,0.00014609,1452.7,-4.7259e-05,-0.00050684,-5.0136e-05,-21.615,1.7436
23588,17.535,5.9091,0.1,0.00014324,1431.4,0.00014298,1424.1,-4.6548e-05,0.0050991,-4.8478e-05,-14.498,1.7579
23589,17.535,5.5455,0.1,0.00014371,1436.1,0.00014336,1426.2,-4.645e-05,0.010751,-4.9054e-05,-19.551,1.7589
23590,17.443,5.6364,0.1,0.00014597,1458.7,0.00014563,1449,-4.7207e-05,0.015279,-4.9787e-05,-19.364,1.7441
23591,17.535,5.3636,0.1,0.00014358,1434.8,0.00014323,1424.9,-4.6404e-05,0.0050244,-4.9016e-05,-19.622,1.7593
23592,17.443,5.4545,0.1,0.00014582,1457.2,0.00014549,1447.5,-4.7161e-05,0.0057049,-4.9733e-05,-19.313,1.7445
23593,17.535,5.1818,0.1,0.00014347,1433.7,0.00014312,1423.7,-4.6361e-05,0.0028502,-4.8997e-05,-19.801,1.7597
23594,17.443,5.2727,0.1,0.00014571,1456.1,0.00014537,1446.3,-4.7118e-05,0.0042428,-4.9704e-05,-19.431,1.745
23595,17.535,5,0.1,0.00014338,1432.8,0.00014303,1422.7,-4.6321e-05,0.00030674,-4.8985e-05,-20.017,1.7601
23596,17.443,5.0909,0.1,0.00014561,1455.1,0.00014527,1445.2,-4.7077e-05,0.0014695,-4.9685e-05,-19.596,1.7453
23597,17.535,4.8182,0.1,0.0001433,1432.1,0.00014295,1421.8,-4.6284e-05,-0.0018752,-4.8979e-05,-20.257,1.7604
23598,17.443,4.9091,0.1,0.00014552,1454.2,0.00014518,1444.2,-4.7039e-05,-0.0007334,-4.9673e-05,-19.791,1.7457
23599,17.535,4.6364,0.1,0.00014324,1431.4,0.00014288,1421,-4.625e-05,-0.0038665,-4.8979e-05,-20.508,1.7607
23600,17.443,4.7273,0.1,0.00014545,1453.5,0.0001451,1443.4,-4.7005e-05,-0.0028118,-4.9667e-05,-20.004,1.746
23601,17.535,4.4545,0.1,0.00014318,1430.9,0.00014282,1420.4,-4.6219e-05,-0.0056216,-4.8982e-05,-20.763,1.761
23602,17.443,4.5455,0.1,0.00014539,1452.9,0.00014503,1442.7,-4.6973e-05,-0.0046498,-4.9665e-05,-20.227,1.7463
23603,17.535,4.2727,0.1,0.00014314,1430.4,0.00014277,1419.8,-4.6192e-05,-0.0071518,-4.8987e-05,-21.01,1.7613
23604,17.443,4.3636,0.1,0.00014534,1452.4,0.00014498,1442,-4.6945e-05,-0.0062704,-4.9666e-05,-20.449,1.7466
23605,17.535,4.0909,0.1,0.0001431,1430,0.00014273,1419.3,-4.6168e-05,-0.0084599,-4.8994e-05,-21.242,1.7615
23606,17.443,4.1818,0.1,0.00014529,1451.9,0.00014493,1441.5,-4.6921e-05,-0.0076726,-4.967e-05,-20.663,1.7468
23607,17.535,3.9091,0.1,0.00014307,1429.7,0.0001427,1418.9,-4.6148e-05,-0.0095524,-4.9002e-05,-21.452,1.7617
23608,17.443,4,0.1,0.00014526,1451.6,0.00014489,1441,-4.6899e-05,-0.0088592,-4.9674e-05,-20.861,1.747
23609,17.535,3.7273,0.1,0.00014305,1429.5,0.00014267,1418.6,-4.6132e-05,-0.010435,-4.9009e-05,-21.632,1.7618
23610,17.443,3.8182,0.1,0.00014523,1451.3,0.00014486,1440.7,-4.6881e-05,-0.0098366,-4.968e-05,-21.036,1.7472
23611,17.535,3.5455,0.1,0.00014303,1429.3,0.00014265,1418.3,-4.6119e-05,-0.011115,-4.9016e-05,-21.778,1.7619
23612,17.443,3.6364,0.1,0.00014521,1451.1,0.00014484,1440.4,-4.6867e-05,-0.010611,-4.9685e-05,-21.183,1.7473
23613,17.535,3.3636,0.1,0.00014302,1429.2,0.00014263,1418.1,-4.6109e-05,-0.011596,-4.9021e-05,-21.885,1.762
23614,17.443,3.4545,0.1,0.00014519,1450.9,0.00014482,1440.2,-4.6856e-05,-0.011186,-4.9689e-05,-21.298,1.7474
23615,17.535,3.1818,0.1,0.00014301,1429.1,0.00014263,1418,-4.6104e-05,-0.011882,-4.9024e-05,-21.951,1.762
23616,17.443,3.2727,0.1,0.00014518,1450.8,0.00014481,1440,-4.6849e-05,-0.011567,-4.9692e-05,-21.376,1.7475
23617,17.535,3,0.1,0.00014301,1429.1,0.00014262,1418,-4.6102e-05,-0.011978,-4.9025e-05,-21.973,1.7621
23618,17.443,3.0909,0.1,0.00014518,1450.8,0.0001448,1440,-4.6845e-05,-0.011757,-4.9694e-05,-21.415,1.7475
23619,17.535,2.8182,0.1,0.00014301,1429.1,0.00014263,1418,-4.6104e-05,-0.011883,-4.9024e-05,-21.951,1.762
23620,17.443,2.9091,0.1,0.00014518,1450.8,0.0001448,1440,-4.6845e-05,-0.011757,-4.9694e-05,-21.415,1.7475
23621,17.535,2.6364,0.1,0.00014302,1429.2,0.00014263,1418.1,-4.6109e-05,-0.011596,-4.9021e-05,-21.885,1.762
23622,17.443,2.7273,0.1,0.00014518,1450.8,0.00014481,1440,-4.6849e-05,-0.011568,-4.9692e-05,-21.376,1.7475
23623,17.535,2.4545,0.1,0.00014303,1429.3,0.00014265,1418.3,-4.6119e-05,-0.011115,-4.9016e-05,-21.778,1.7619
23624,17.443,2.5455,0.1,0.00014519,1450.9,0.00014482,1440.2,-4.6856e-05,-0.011187,-4.9689e-05,-21.298,1.7474
23625,17.535,2.2727,0.1,0.00014305,1429.5,0.00014267,1418.6,-4.6132e-05,-0.010435,-4.9009e-05,-21.632,1.7618
23626,17.443,2.3636,0.1,0.00014521,1451.1,0.00014484,1440.4,-4.6867e-05,-0.010611,-4.9685e-05,-21.183,1.7473
23627,17.535,2.0909,0.1,0.00014307,1429.7,0.0001427,1418.9,-4.6148e-05,-0.0095527,-4.9002e-05,-21.452,1.7617
23628,17.443,2.1818,0.1,0.00014523,1451.3,0.00014486,1440.7,-4.6881e-05,-0.0098368,-4.968e-05,-21.036,1.7472
23629,17.535,1.9091,0.1,0.0001431,1430,0.00014273,1419.3,-4.6168e-05,-0.0084602,-4.8994e-05,-21.242,1.7615
23630,17.443,2,0.1,0.00014526,1451.6,0.00014489,1441,-4.6899e-05,-0.0088604,-4.9674e-05,-20.861,1.747
23631,17.535,1.7273,0.1,0.00014314,1430.4,0.00014277,1419.8,-4.6192e-05,-0.0071521,-4.8987e-05,-21.01,1.7613
23632,17.443,1.8182,0.1,0.00014529,1451.9,0.00014493,1441.5,-4.6921e-05,-0.0076725,-4.967e-05,-20.663,1.7468
23633,17.535,1.5455,0.1,0.00014318,1430.9,0.00014282,1420.4,-4.6219e-05,-0.0056216,-4.8982e-05,-20.763,1.761
23634,17.443,1.6364,0.1,0.00014534,1452.4,0.00014498,1442,-4.6945e-05,-0.0062713,-4.9666e-05,-20.449,1.7466
23635,17.535,1.3636,0.1,0.00014324,1431.4,0.00014288,1421,-4.625e-05,-0.0038666,-4.8979e-05,-20.508,1.7607
23636,17.443,1.4545,0.1,0.00014539,1452.9,0.00014503,1442.7,-4.6973e-05,-0.0046495,-4.9665e-05,-20.227,1.7463
23637,17.535,1.1818,0.1,0.0001433,1432.1,0.00014295,1421.8,-4.6284e-05,-0.0018754,-4.8979e-05,-20.257,1.7604
23638,17.443,1.2727,0.1,0.00014545,1453.5,0.0001451,1443.4,-4.7005e-05,-0.0028126,-4.9667e-05,-20.004,1.746
23639,17.535,1,0.1,0.00014338,1432.8,0.00014303,1422.7,-4.6321e-05,0.00030555,-4.8985e-05,-20.017,1.7601
23640,17.443,1.0909,0.1,0.00014552,1454.2,0.00014518,1444.2,-4.7039e-05,-0.00073405,-4.9673e-05,-19.791,1.7457
23641,17.535,0.81818,0.1,0.00014347,1433.7,0.00014312,1423.7,-4.6361e-05,0.0028477,-4.8997e-05,-19.801,1.7597
23642,17.443,0.90909,0.1,0.00014561,1455.1,0.00014527,1445.2,-4.7077e-05,0.0014669,-4.9685e-05,-19.596,1.7453
23643,17.535,0.63636,0.1,0.00014358,1434.8,0.00014323,1424.9,-4.6404e-05,0.0050239,-4.9016e-05,-19.622,1.7593
23644,17.443,0.72727,0.1,0.00014571,1456.1,0.00014537,1446.3,-4.7118e-05,0.0042405,-4.9704e-05,-19.43,1.745
23645,17.535,0.45455,0.1,0.00014371,1436.1,0.00014336,1426.2,-4.645e-05,0.010751,-4.9054e-05,-19.551,1.7589
23646,17.443,0.54545,0.1,0.00014582,1457.2,0.00014549,1447.5,-4.7161e-05,0.005705,-4.9733e-05,-19.313,1.7445
23647,17.535,0.27273,0.1,0.00014402,1439.2,0.00014366,1428.8,-4.65e-05,0.0086601,-4.9246e-05,-20.621,1.7584
23648,17.443,0.36364,0.1,0.00014597,1458.7,0.00014563,1449,-4.7207e-05,0.01528,-4.9787e-05,-19.364,1.7441
23649,17.443,0.18182,0.1,0.00014647,1463.6,0.00014609,1452.7,-4.7259e-05,-0.0005058,-5.0136e-05,-21.615,1.7436
23650,17.535,0.090909,0.1,0.00014324,1431.4,0.00014298,1424.1,-4.6548e-05,0.0050991,-4.8478e-05,-14.498,1.7579
23651,17.35,5.7273,0.1,0.0001484,1483,0.00014804,1472.8,-4.7966e-05,0.008332,-5.0657e-05,-20.211,1.7293
23652,17.258,5.8182,0.1,0.00015085,1507.5,0.00015048,1496.8,-4.8727e-05,-0.0004351,-5.1552e-05,-21.225,1.7145
23653,17.35,5.9091,0.1,0.00014763,1475.3,0.00014739,1468.1,-4.8012e-05,0.0049639,-4.9907e-05,-14.24,1.7288
23654,17.35,5.5455,0.1,0.00014808,1479.8,0.00014775,1470.2,-4.7919e-05,0.010363,-5.046e-05,-19.086,1.7297
23655,17.258,5.6364,0.1,0.00015036,1502.6,0.00015003,1493.1,-4.8678e-05,0.014665,-5.12e-05,-18.939,1.715
23656,17.35,5.3636,0.1,0.00014795,1478.5,0.00014762,1468.9,-4.7875e-05,0.0049102,-5.0416e-05,-19.085,1.7302
23657,17.258,5.4545,0.1,0.00015021,1501.1,0.00014988,1491.6,-4.8634e-05,0.0055461,-5.1139e-05,-18.819,1.7154
23658,17.35,5.1818,0.1,0.00014784,1477.4,0.00014751,1467.7,-4.7834e-05,0.0028335,-5.0388e-05,-19.191,1.7306
23659,17.258,5.2727,0.1,0.00015009,1499.9,0.00014976,1490.4,-4.8593e-05,0.0041551,-5.1104e-05,-18.866,1.7159
23660,17.35,5,0.1,0.00014775,1476.5,0.00014741,1466.7,-4.7796e-05,0.00039375,-5.0369e-05,-19.335,1.731
23661,17.258,5.0909,0.1,0.00014999,1498.8,0.00014966,1489.3,-4.8554e-05,0.0015008,-5.1078e-05,-18.96,1.7163
23662,17.35,4.8182,0.1,0.00014767,1475.6,0.00014732,1465.8,-4.7761e-05,-0.0017105,-5.0356e-05,-19.504,1.7313
23663,17.258,4.9091,0.1,0.0001499,1498,0.00014956,1488.3,-4.8518e-05,-0.00061871,-5.1058e-05,-19.085,1.7166
23664,17.35,4.6364,0.1,0.0001476,1474.9,0.00014725,1465,-4.7728e-05,-0.0036391,-5.0348e-05,-19.688,1.7316
23665,17.258,4.7273,0.1,0.00014982,1497.2,0.00014948,1487.5,-4.8485e-05,-0.0026277,-5.1045e-05,-19.232,1.717
23666,17.35,4.4545,0.1,0.00014754,1474.3,0.00014719,1464.3,-4.77e-05,-0.005345,-5.0345e-05,-19.879,1.7319
23667,17.258,4.5455,0.1,0.00014975,1496.5,0.00014941,1486.7,-4.8456e-05,-0.0044111,-5.1036e-05,-19.39,1.7173
23668,17.35,4.2727,0.1,0.00014749,1473.9,0.00014714,1463.7,-4.7674e-05,-0.0068392,-5.0344e-05,-20.068,1.7322
23669,17.258,4.3636,0.1,0.0001497,1495.9,0.00014936,1486.1,-4.8429e-05,-0.0059907,-5.1031e-05,-19.553,1.7175
23670,17.35,4.0909,0.1,0.00014745,1473.4,0.00014709,1463.2,-4.7651e-05,-0.008121,-5.0345e-05,-20.248,1.7324
23671,17.258,4.1818,0.1,0.00014965,1495.5,0.00014931,1485.5,-4.8406e-05,-0.0073625,-5.1028e-05,-19.713,1.7178
23672,17.35,3.9091,0.1,0.00014741,1473.1,0.00014705,1462.8,-4.7632e-05,-0.0091933,-5.0348e-05,-20.411,1.7326
23673,17.258,4,0.1,0.00014961,1495.1,0.00014926,1485,-4.8385e-05,-0.0085269,-5.1028e-05,-19.863,1.718
23674,17.35,3.7273,0.1,0.00014739,1472.8,0.00014703,1462.5,-4.7617e-05,-0.010063,-5.0351e-05,-20.553,1.7327
23675,17.258,3.8182,0.1,0.00014958,1494.8,0.00014923,1484.7,-4.8368e-05,-0.0094887,-5.1029e-05,-19.998,1.7181
23676,17.35,3.5455,0.1,0.00014737,1472.6,0.000147,1462.2,-4.7604e-05,-0.010733,-5.0354e-05,-20.669,1.7328
23677,17.258,3.6364,0.1,0.00014956,1494.5,0.0001492,1484.4,-4.8355e-05,-0.010252,-5.103e-05,-20.111,1.7183
23678,17.35,3.3636,0.1,0.00014735,1472.5,0.00014699,1462,-4.7596e-05,-0.011209,-5.0356e-05,-20.754,1.7329
23679,17.258,3.4545,0.1,0.00014954,1494.4,0.00014918,1484.1,-4.8345e-05,-0.010821,-5.1032e-05,-20.2,1.7184
23680,17.35,3.1818,0.1,0.00014734,1472.4,0.00014698,1461.9,-4.759e-05,-0.011493,-5.0358e-05,-20.807,1.733
23681,17.258,3.2727,0.1,0.00014953,1494.2,0.00014917,1484,-4.8338e-05,-0.011198,-5.1033e-05,-20.261,1.7185
23682,17.35,3,0.1,0.00014734,1472.4,0.00014698,1461.9,-4.7589e-05,-0.011587,-5.0359e-05,-20.824,1.733
23683,17.258,3.0909,0.1,0.00014952,1494.2,0.00014917,1483.9,-4.8334e-05,-0.011386,-5.1034e-05,-20.292,1.7185
23684,17.35,2.8182,0.1,0.00014734,1472.4,0.00014698,1461.9,-4.759e-05,-0.011493,-5.0358e-05,-20.807,1.733
23685,17.258,2.9091,0.1,0.00014952,1494.2,0.00014917,1483.9,-4.8334e-05,-0.011385,-5.1034e-05,-20.292,1.7185
23686,17.35,2.6364,0.1,0.00014735,1472.5,0.00014699,1462,-4.7596e-05,-0.011209,-5.0356e-05,-20.754,1.7329
23687,17.258,2.7273,0.1,0.00014953,1494.2,0.00014917,1484,-4.8338e-05,-0.011198,-5.1033e-05,-20.261,1.7185
23688,17.35,2.4545,0.1,0.00014737,1472.6,0.000147,1462.2,-4.7604e-05,-0.010733,-5.0354e-05,-20.669,1.7328
23689,17.258,2.5455,0.1,0.00014954,1494.4,0.00014918,1484.1,-4.8345e-05,-0.010821,-5.1032e-05,-20.2,1.7184
23690,17.35,2.2727,0.1,0.00014739,1472.8,0.00014703,1462.5,-4.7617e-05,-0.010063,-5.0351e-05,-20.553,1.7327
23691,17.258,2.3636,0.1,0.00014956,1494.5,0.0001492,1484.4,-4.8355e-05,-0.010253,-5.103e-05,-20.111,1.7183
23692,17.35,2.0909,0.1,0.00014741,1473.1,0.00014705,1462.8,-4.7632e-05,-0.0091944,-5.0348e-05,-20.411,1.7326
23693,17.258,2.1818,0.1,0.00014958,1494.8,0.00014923,1484.7,-4.8368e-05,-0.0094889,-5.1029e-05,-19.998,1.7181
23694,17.35,1.9091,0.1,0.00014745,1473.4,0.00014709,1463.2,-4.7651e-05,-0.0081218,-5.0345e-05,-20.247,1.7324
23695,17.258,2,0.1,0.00014961,1495.1,0.00014926,1485,-4.8385e-05,-0.0085283,-5.1028e-05,-19.863,1.718
23696,17.35,1.7273,0.1,0.00014749,1473.9,0.00014714,1463.7,-4.7674e-05,-0.0068397,-5.0344e-05,-20.068,1.7322
23697,17.258,1.8182,0.1,0.00014965,1495.5,0.00014931,1485.5,-4.8406e-05,-0.0073626,-5.1028e-05,-19.713,1.7178
23698,17.35,1.5455,0.1,0.00014754,1474.3,0.00014719,1464.3,-4.77e-05,-0.0053455,-5.0345e-05,-19.879,1.7319
23699,17.258,1.6364,0.1,0.0001497,1495.9,0.00014936,1486.1,-4.8429e-05,-0.0059918,-5.1031e-05,-19.553,1.7175
23700,17.35,1.3636,0.1,0.0001476,1474.9,0.00014725,1465,-4.7728e-05,-0.0036393,-5.0348e-05,-19.688,1.7316
23701,17.258,1.4545,0.1,0.00014975,1496.5,0.00014941,1486.7,-4.8456e-05,-0.0044111,-5.1036e-05,-19.39,1.7173
23702,17.35,1.1818,0.1,0.00014767,1475.6,0.00014732,1465.8,-4.7761e-05,-0.0017116,-5.0356e-05,-19.504,1.7313
23703,17.258,1.2727,0.1,0.00014982,1497.2,0.00014948,1487.5,-4.8485e-05,-0.0026278,-5.1045e-05,-19.232,1.717
23704,17.35,1,0.1,0.00014775,1476.5,0.00014741,1466.7,-4.7796e-05,0.00039163,-5.0369e-05,-19.334,1.731
23705,17.258,1.0909,0.1,0.0001499,1498,0.00014956,1488.3,-4.8518e-05,-0.00061988,-5.1058e-05,-19.085,1.7166
23706,17.35,0.81818,0.1,0.00014784,1477.4,0.00014751,1467.7,-4.7834e-05,0.002831,-5.0388e-05,-19.19,1.7306
23707,17.258,0.90909,0.1,0.00014999,1498.8,0.00014966,1489.3,-4.8554e-05,0.0014982,-5.1078e-05,-18.96,1.7163
23708,17.35,0.63636,0.1,0.00014795,1478.5,0.00014762,1468.9,-4.7875e-05,0.0049085,-5.0416e-05,-19.085,1.7302
23709,17.258,0.72727,0.1,0.00015009,1499.9,0.00014976,1490.4,-4.8593e-05,0.0041537,-5.1104e-05,-18.866,1.7159
23710,17.35,0.45455,0.1,0.00014808,1479.8,0.00014775,1470.2,-4.7919e-05,0.010362,-5.046e-05,-19.086,1.7297
23711,17.258,0.54545,0.1,0.00015021,1501.1,0.00014988,1491.6,-4.8634e-05,0.0055452,-5.1139e-05,-18.819,1.7154
23712,17.35,0.27273,0.1,0.0001484,1483,0.00014804,1472.8,-4.7966e-05,0.008333,-5.0657e-05,-20.211,1.7293
23713,17.258,0.36364,0.1,0.00015036,1502.6,0.00015003,1493.1,-4.8678e-05,0.014665,-5.12e-05,-18.939,1.715
23714,17.258,0.18182,0.1,0.00015085,1507.5,0.00015048,1496.8,-4.8727e-05,-0.00043361,-5.1552e-05,-21.225,1.7145
23715,17.35,0.090909,0.1,0.00014763,1475.3,0.00014739,1468.1,-4.8012e-05,0.004964,-4.9908e-05,-14.24,1.7288
23716,17.166,5.7273,0.1,0.0001528,1526.9,0.00015245,1516.9,-4.9438e-05,0.0080097,-5.2076e-05,-19.809,1.7002
23717,17.073,5.8182,0.1,0.00015526,1551.6,0.0001549,1541,-5.0201e-05,-0.00036315,-5.2975e-05,-20.843,1.6854
23718,17.166,5.9091,0.1,0.00015205,1519.5,0.00015181,1512.4,-4.9482e-05,0.0048166,-5.1344e-05,-13.986,1.6997
23719,17.166,5.5455,0.1,0.00015248,1523.8,0.00015216,1514.4,-4.9393e-05,0.0099758,-5.1874e-05,-18.633,1.7007
23720,17.073,5.6364,0.1,0.00015477,1546.7,0.00015445,1537.3,-5.0154e-05,0.014072,-5.2622e-05,-18.525,1.686
23721,17.166,5.3636,0.1,0.00015235,1522.4,0.00015202,1513,-4.9352e-05,0.0047826,-5.1823e-05,-18.565,1.7011
23722,17.073,5.4545,0.1,0.00015462,1545.1,0.0001543,1535.9,-5.0113e-05,0.0053872,-5.2554e-05,-18.339,1.6864
23723,17.166,5.1818,0.1,0.00015223,1521.3,0.00015191,1511.9,-4.9313e-05,0.0027987,-5.1789e-05,-18.601,1.7016
23724,17.073,5.2727,0.1,0.0001545,1543.9,0.00015418,1534.7,-5.0073e-05,0.0040632,-5.2512e-05,-18.318,1.6869
23725,17.166,5,0.1,0.00015213,1520.3,0.00015181,1510.9,-4.9276e-05,0.00045743,-5.1762e-05,-18.677,1.702
23726,17.073,5.0909,0.1,0.00015439,1542.8,0.00015407,1533.6,-5.0036e-05,0.0015218,-5.2478e-05,-18.346,1.6873
23727,17.166,4.8182,0.1,0.00015205,1519.4,0.00015172,1510,-4.9243e-05,-0.0015722,-5.1742e-05,-18.779,1.7023
23728,17.073,4.9091,0.1,0.00015429,1541.9,0.00015397,1532.6,-5.0003e-05,-0.00051792,-5.2452e-05,-18.405,1.6877
23729,17.166,4.6364,0.1,0.00015197,1518.7,0.00015164,1509.2,-4.9213e-05,-0.00344,-5.1728e-05,-18.9,1.7026
23730,17.073,4.7273,0.1,0.00015421,1541.1,0.00015389,1531.7,-4.9972e-05,-0.0024602,-5.2432e-05,-18.487,1.688
23731,17.166,4.4545,0.1,0.00015191,1518.1,0.00015158,1508.4,-4.9185e-05,-0.0051,-5.1717e-05,-19.031,1.7029
23732,17.073,4.5455,0.1,0.00015414,1540.3,0.00015382,1531,-4.9943e-05,-0.0041914,-5.2416e-05,-18.586,1.6883
23733,17.166,4.2727,0.1,0.00015186,1517.5,0.00015152,1507.8,-4.9161e-05,-0.0065595,-5.1711e-05,-19.165,1.7032
23734,17.073,4.3636,0.1,0.00015408,1539.7,0.00015375,1530.3,-4.9918e-05,-0.0057324,-5.2405e-05,-18.693,1.6886
23735,17.166,4.0909,0.1,0.00015181,1517.1,0.00015147,1507.3,-4.914e-05,-0.0078155,-5.1707e-05,-19.295,1.7034
23736,17.073,4.1818,0.1,0.00015403,1539.2,0.0001537,1529.7,-4.9896e-05,-0.0070743,-5.2397e-05,-18.802,1.6888
23737,17.166,3.9091,0.1,0.00015177,1516.7,0.00015144,1506.9,-4.9122e-05,-0.0088705,-5.1705e-05,-19.416,1.7036
23738,17.073,4,0.1,0.00015399,1538.8,0.00015366,1529.3,-4.9877e-05,-0.0082181,-5.2392e-05,-18.907,1.689
23739,17.166,3.7273,0.1,0.00015175,1516.4,0.0001514,1506.6,-4.9107e-05,-0.0097275,-5.1704e-05,-19.522,1.7037
23740,17.073,3.8182,0.1,0.00015395,1538.5,0.00015362,1528.9,-4.9861e-05,-0.0091656,-5.2389e-05,-19.003,1.6892
23741,17.166,3.5455,0.1,0.00015172,1516.2,0.00015138,1506.3,-4.9095e-05,-0.01039,-5.1704e-05,-19.609,1.7039
23742,17.073,3.6364,0.1,0.00015393,1538.2,0.00015359,1528.6,-4.9848e-05,-0.009919,-5.2387e-05,-19.085,1.6894
23743,17.166,3.3636,0.1,0.00015171,1516,0.00015136,1506.1,-4.9087e-05,-0.01086,-5.1704e-05,-19.674,1.7039
23744,17.073,3.4545,0.1,0.00015391,1538,0.00015357,1528.3,-4.9839e-05,-0.010482,-5.2386e-05,-19.149,1.6895
23745,17.166,3.1818,0.1,0.0001517,1515.9,0.00015135,1506,-4.9082e-05,-0.011141,-5.1704e-05,-19.714,1.704
23746,17.073,3.2727,0.1,0.00015389,1537.9,0.00015356,1528.2,-4.9832e-05,-0.010854,-5.2385e-05,-19.194,1.6895
23747,17.166,3,0.1,0.0001517,1515.9,0.00015135,1505.9,-4.908e-05,-0.011234,-5.1704e-05,-19.727,1.704
23748,17.073,3.0909,0.1,0.00015389,1537.8,0.00015355,1528.1,-4.9829e-05,-0.011041,-5.2385e-05,-19.217,1.6896
23749,17.166,2.8182,0.1,0.0001517,1515.9,0.00015135,1506,-4.9082e-05,-0.011141,-5.1704e-05,-19.714,1.704
23750,17.073,2.9091,0.1,0.00015389,1537.8,0.00015355,1528.1,-4.9829e-05,-0.01104,-5.2385e-05,-19.217,1.6896
23751,17.166,2.6364,0.1,0.00015171,1516,0.00015136,1506.1,-4.9087e-05,-0.01086,-5.1704e-05,-19.674,1.7039
23752,17.073,2.7273,0.1,0.00015389,1537.9,0.00015356,1528.2,-4.9832e-05,-0.010855,-5.2385e-05,-19.194,1.6895
23753,17.166,2.4545,0.1,0.00015172,1516.2,0.00015138,1506.3,-4.9095e-05,-0.01039,-5.1704e-05,-19.609,1.7039
23754,17.073,2.5455,0.1,0.00015391,1538,0.00015357,1528.3,-4.9839e-05,-0.010481,-5.2386e-05,-19.149,1.6895
23755,17.166,2.2727,0.1,0.00015175,1516.4,0.0001514,1506.6,-4.9107e-05,-0.0097276,-5.1704e-05,-19.522,1.7037
23756,17.073,2.3636,0.1,0.00015393,1538.2,0.00015359,1528.6,-4.9848e-05,-0.0099191,-5.2387e-05,-19.085,1.6894
23757,17.166,2.0909,0.1,0.00015177,1516.7,0.00015144,1506.9,-4.9122e-05,-0.008871,-5.1705e-05,-19.416,1.7036
23758,17.073,2.1818,0.1,0.00015395,1538.5,0.00015362,1528.9,-4.9861e-05,-0.0091656,-5.2389e-05,-19.003,1.6892
23759,17.166,1.9091,0.1,0.00015181,1517.1,0.00015147,1507.3,-4.914e-05,-0.0078162,-5.1707e-05,-19.295,1.7034
23760,17.073,2,0.1,0.00015399,1538.8,0.00015366,1529.3,-4.9877e-05,-0.0082189,-5.2392e-05,-18.907,1.689
23761,17.166,1.7273,0.1,0.00015186,1517.5,0.00015152,1507.8,-4.9161e-05,-0.0065602,-5.1711e-05,-19.165,1.7032
23762,17.073,1.8182,0.1,0.00015403,1539.2,0.0001537,1529.7,-4.9896e-05,-0.0070744,-5.2397e-05,-18.802,1.6888
23763,17.166,1.5455,0.1,0.00015191,1518.1,0.00015158,1508.4,-4.9185e-05,-0.0051007,-5.1717e-05,-19.031,1.7029
23764,17.073,1.6364,0.1,0.00015408,1539.7,0.00015375,1530.3,-4.9918e-05,-0.005733,-5.2405e-05,-18.693,1.6886
23765,17.166,1.3636,0.1,0.00015197,1518.7,0.00015164,1509.2,-4.9213e-05,-0.0034399,-5.1728e-05,-18.9,1.7026
23766,17.073,1.4545,0.1,0.00015414,1540.3,0.00015382,1531,-4.9943e-05,-0.0041913,-5.2416e-05,-18.586,1.6883
23767,17.166,1.1818,0.1,0.00015205,1519.4,0.00015172,1510,-4.9243e-05,-0.0015723,-5.1742e-05,-18.779,1.7023
23768,17.073,1.2727,0.1,0.00015421,1541.1,0.00015389,1531.7,-4.9972e-05,-0.00246,-5.2432e-05,-18.487,1.688
23769,17.166,1,0.1,0.00015213,1520.3,0.00015181,1510.9,-4.9276e-05,0.00045578,-5.1762e-05,-18.676,1.702
23770,17.073,1.0909,0.1,0.00015429,1541.9,0.00015397,1532.6,-5.0003e-05,-0.00051866,-5.2452e-05,-18.405,1.6877
23771,17.166,0.81818,0.1,0.00015223,1521.3,0.00015191,1511.9,-4.9313e-05,0.0027972,-5.1789e-05,-18.601,1.7016
23772,17.073,0.90909,0.1,0.00015439,1542.8,0.00015407,1533.6,-5.0036e-05,0.0015203,-5.2478e-05,-18.345,1.6873
23773,17.166,0.63636,0.1,0.00015235,1522.4,0.00015202,1513,-4.9352e-05,0.004782,-5.1823e-05,-18.565,1.7011
23774,17.073,0.72727,0.1,0.0001545,1543.9,0.00015418,1534.7,-5.0073e-05,0.0040619,-5.2512e-05,-18.318,1.6869
23775,17.166,0.45455,0.1,0.00015248,1523.8,0.00015216,1514.4,-4.9393e-05,0.0099755,-5.1874e-05,-18.633,1.7007
23776,17.073,0.54545,0.1,0.00015462,1545.1,0.0001543,1535.9,-5.0113e-05,0.005388,-5.2554e-05,-18.339,1.6864
23777,17.166,0.27273,0.1,0.0001528,1526.9,0.00015245,1516.9,-4.9438e-05,0.0080104,-5.2076e-05,-19.809,1.7002
23778,17.073,0.36364,0.1,0.00015478,1546.7,0.00015445,1537.3,-5.0154e-05,0.014071,-5.2622e-05,-18.525,1.686
23779,17.073,0.18182,0.1,0.00015526,1551.6,0.0001549,1541,-5.0201e-05,-0.00036292,-5.2975e-05,-20.843,1.6854
23780,17.166,0.090909,0.1,0.00015205,1519.5,0.00015181,1512.4,-4.9482e-05,0.0048156,-5.1344e-05,-13.986,1.6997
23781,16.981,5.7273,0.1,0.00015722,1571.1,0.00015688,1561.3,-5.0917e-05,0.0077096,-5.3502e-05,-19.416,1.6712
23782,16.889,5.8182,0.1,0.00015969,1595.8,0.00015933,1585.5,-5.1681e-05,-0.00028425,-5.4405e-05,-20.468,1.6565
23783,16.981,5.9091,0.1,0.00015649,1563.8,0.00015625,1556.9,-5.0958e-05,0.004678,-5.2787e-05,-13.737,1.6707
23784,16.981,5.5455,0.1,0.0001569,1568,0.00015659,1558.8,-5.0874e-05,0.0096093,-5.3296e-05,-18.192,1.6717
23785,16.889,5.6364,0.1,0.00015921,1591,0.00015889,1581.8,-5.1637e-05,0.013507,-5.405e-05,-18.119,1.657
23786,16.981,5.3636,0.1,0.00015676,1566.5,0.00015645,1557.4,-5.0834e-05,0.0046639,-5.3238e-05,-18.058,1.6722
23787,16.889,5.4545,0.1,0.00015905,1589.4,0.00015873,1580.4,-5.1597e-05,0.005238,-5.3976e-05,-17.871,1.6575
23788,16.981,5.1818,0.1,0.00015665,1565.4,0.00015633,1556.3,-5.0797e-05,0.0027672,-5.3197e-05,-18.029,1.6726
23789,16.889,5.2727,0.1,0.00015892,1588.1,0.00015861,1579.1,-5.156e-05,0.0039758,-5.3927e-05,-17.786,1.658
23790,16.981,5,0.1,0.00015654,1564.3,0.00015623,1555.2,-5.0763e-05,0.00051994,-5.3164e-05,-18.04,1.673
23791,16.889,5.0909,0.1,0.00015881,1587,0.0001585,1578,-5.1525e-05,0.0015438,-5.3887e-05,-17.749,1.6584
23792,16.981,4.8182,0.1,0.00015645,1563.4,0.00015614,1554.3,-5.0731e-05,-0.0014382,-5.3137e-05,-18.079,1.6734
23793,16.889,4.9091,0.1,0.00015871,1586,0.0001584,1577.1,-5.1493e-05,-0.00042045,-5.3855e-05,-17.745,1.6588
23794,16.981,4.6364,0.1,0.00015637,1562.7,0.00015606,1553.5,-5.0702e-05,-0.0032483,-5.3116e-05,-18.14,1.6737
23795,16.889,4.7273,0.1,0.00015862,1585.1,0.00015831,1576.2,-5.1463e-05,-0.0022977,-5.3828e-05,-17.767,1.6592
23796,16.981,4.4545,0.1,0.00015631,1562,0.00015599,1552.8,-5.0676e-05,-0.004864,-5.31e-05,-18.214,1.674
23797,16.889,4.5455,0.1,0.00015855,1584.4,0.00015824,1575.4,-5.1437e-05,-0.0039799,-5.3806e-05,-17.809,1.6595
23798,16.981,4.2727,0.1,0.00015625,1561.4,0.00015593,1552.2,-5.0653e-05,-0.0062901,-5.3088e-05,-18.296,1.6743
23799,16.889,4.3636,0.1,0.00015848,1583.8,0.00015817,1574.7,-5.1413e-05,-0.0054827,-5.379e-05,-17.862,1.6598
23800,16.981,4.0909,0.1,0.0001562,1560.9,0.00015588,1551.6,-5.0633e-05,-0.0075219,-5.3079e-05,-18.38,1.6745
23801,16.889,4.1818,0.1,0.00015843,1583.2,0.00015812,1574.2,-5.1392e-05,-0.0067969,-5.3777e-05,-17.923,1.66
23802,16.981,3.9091,0.1,0.00015616,1560.5,0.00015584,1551.2,-5.0616e-05,-0.0085598,-5.3072e-05,-18.46,1.6747
23803,16.889,4,0.1,0.00015838,1582.8,0.00015807,1573.7,-5.1374e-05,-0.007921,-5.3767e-05,-17.985,1.6602
23804,16.981,3.7273,0.1,0.00015613,1560.2,0.0001558,1550.9,-5.0602e-05,-0.0094048,-5.3068e-05,-18.532,1.6749
23805,16.889,3.8182,0.1,0.00015835,1582.4,0.00015803,1573.3,-5.1359e-05,-0.008855,-5.3759e-05,-18.044,1.6604
23806,16.981,3.5455,0.1,0.0001561,1560,0.00015578,1550.6,-5.0591e-05,-0.010059,-5.3065e-05,-18.592,1.675
23807,16.889,3.6364,0.1,0.00015832,1582.1,0.000158,1573,-5.1347e-05,-0.0095991,-5.3754e-05,-18.097,1.6605
23808,16.981,3.3636,0.1,0.00015609,1559.8,0.00015576,1550.4,-5.0584e-05,-0.010525,-5.3063e-05,-18.637,1.6751
23809,16.889,3.4545,0.1,0.0001583,1581.9,0.00015798,1572.7,-5.1338e-05,-0.010156,-5.3751e-05,-18.138,1.6606
23810,16.981,3.1818,0.1,0.00015608,1559.7,0.00015575,1550.3,-5.0579e-05,-0.010804,-5.3062e-05,-18.665,1.6751
23811,16.889,3.2727,0.1,0.00015828,1581.7,0.00015797,1572.6,-5.1332e-05,-0.010526,-5.3748e-05,-18.168,1.6607
23812,16.981,3,0.1,0.00015607,1559.7,0.00015575,1550.2,-5.0577e-05,-0.010896,-5.3061e-05,-18.674,1.6752
23813,16.889,3.0909,0.1,0.00015828,1581.7,0.00015796,1572.5,-5.1329e-05,-0.01071,-5.3747e-05,-18.183,1.6608
23814,16.981,2.8182,0.1,0.00015608,1559.7,0.00015575,1550.3,-5.0579e-05,-0.010804,-5.3062e-05,-18.665,1.6751
23815,16.889,2.9091,0.1,0.00015828,1581.7,0.00015796,1572.5,-5.1329e-05,-0.01071,-5.3747e-05,-18.183,1.6608
23816,16.981,2.6364,0.1,0.00015609,1559.8,0.00015576,1550.4,-5.0584e-05,-0.010525,-5.3063e-05,-18.637,1.6751
23817,16.889,2.7273,0.1,0.00015828,1581.7,0.00015797,1572.6,-5.1332e-05,-0.010526,-5.3748e-05,-18.168,1.6607
23818,16.981,2.4545,0.1,0.0001561,1560,0.00015578,1550.6,-5.0591e-05,-0.01006,-5.3065e-05,-18.592,1.675
23819,16.889,2.5455,0.1,0.0001583,1581.9,0.00015798,1572.7,-5.1338e-05,-0.010156,-5.3751e-05,-18.138,1.6606
23820,16.981,2.2727,0.1,0.00015613,1560.2,0.0001558,1550.9,-5.0602e-05,-0.0094049,-5.3068e-05,-18.532,1.6749
23821,16.889,2.3636,0.1,0.00015832,1582.1,0.000158,1573,-5.1347e-05,-0.009599,-5.3754e-05,-18.097,1.6605
23822,16.981,2.0909,0.1,0.00015616,1560.5,0.00015584,1551.2,-5.0616e-05,-0.0085602,-5.3072e-05,-18.46,1.6747
23823,16.889,2.1818,0.1,0.00015835,1582.4,0.00015803,1573.3,-5.1359e-05,-0.0088544,-5.3759e-05,-18.044,1.6604
23824,16.981,1.9091,0.1,0.0001562,1560.9,0.00015588,1551.6,-5.0633e-05,-0.0075222,-5.3079e-05,-18.38,1.6745
23825,16.889,2,0.1,0.00015838,1582.8,0.00015807,1573.7,-5.1374e-05,-0.0079213,-5.3767e-05,-17.985,1.6602
23826,16.981,1.7273,0.1,0.00015625,1561.4,0.00015593,1552.2,-5.0653e-05,-0.0062901,-5.3088e-05,-18.296,1.6743
23827,16.889,1.8182,0.1,0.00015843,1583.2,0.00015812,1574.2,-5.1392e-05,-0.0067967,-5.3777e-05,-17.923,1.66
23828,16.981,1.5455,0.1,0.00015631,1562,0.00015599,1552.8,-5.0676e-05,-0.0048638,-5.31e-05,-18.214,1.674
23829,16.889,1.6364,0.1,0.00015848,1583.8,0.00015817,1574.7,-5.1413e-05,-0.0054826,-5.379e-05,-17.862,1.6598
23830,16.981,1.3636,0.1,0.00015637,1562.7,0.00015606,1553.5,-5.0702e-05,-0.0032482,-5.3116e-05,-18.14,1.6737
23831,16.889,1.4545,0.1,0.00015855,1584.4,0.00015824,1575.4,-5.1437e-05,-0.0039796,-5.3806e-05,-17.809,1.6595
23832,16.981,1.1818,0.1,0.00015645,1563.4,0.00015614,1554.3,-5.0731e-05,-0.0014386,-5.3137e-05,-18.079,1.6734
23833,16.889,1.2727,0.1,0.00015862,1585.1,0.00015831,1576.2,-5.1463e-05,-0.002298,-5.3828e-05,-17.767,1.6592
23834,16.981,1,0.1,0.00015654,1564.3,0.00015623,1555.2,-5.0763e-05,0.00051929,-5.3164e-05,-18.04,1.673
23835,16.889,1.0909,0.1,0.00015871,1586,0.0001584,1577.1,-5.1493e-05,-0.00042086,-5.3855e-05,-17.745,1.6588
23836,16.981,0.81818,0.1,0.00015665,1565.4,0.00015633,1556.3,-5.0797e-05,0.0027658,-5.3197e-05,-18.029,1.6726
23837,16.889,0.90909,0.1,0.00015881,1587,0.0001585,1578,-5.1525e-05,0.0015421,-5.3887e-05,-17.749,1.6584
23838,16.981,0.63636,0.1,0.00015676,1566.5,0.00015645,1557.4,-5.0834e-05,0.0046638,-5.3238e-05,-18.058,1.6722
23839,16.889,0.72727,0.1,0.00015892,1588.1,0.00015861,1579.1,-5.156e-05,0.0039741,-5.3927e-05,-17.786,1.658
23840,16.981,0.45455,0.1,0.0001569,1568,0.00015659,1558.8,-5.0874e-05,0.0096099,-5.3296e-05,-18.192,1.6717
23841,16.889,0.54545,0.1,0.00015905,1589.4,0.00015873,1580.4,-5.1597e-05,0.0052394,-5.3976e-05,-17.871,1.6575
23842,16.981,0.27273,0.1,0.00015722,1571.1,0.00015688,1561.3,-5.0917e-05,0.0077086,-5.3502e-05,-19.416,1.6712
23843,16.889,0.36364,0.1,0.00015921,1591,0.00015889,1581.8,-5.1637e-05,0.013506,-5.405e-05,-18.119,1.657
23844,16.889,0.18182,0.1,0.00015969,1595.8,0.00015933,1585.5,-5.1681e-05,-0.00028471,-5.4405e-05,-20.468,1.6565
23845,16.981,0.090909,0.1,0.00015649,1563.8,0.00015625,1556.9,-5.0958e-05,0.0046788,-5.2787e-05,-13.737,1.6707
23846,16.796,5.7273,0.1,0.00016166,1615.5,0.00016133,1605.9,-5.2401e-05,0.0074266,-5.4935e-05,-19.03,1.6424
23847,16.704,5.8182,0.1,0.00016414,1640.3,0.00016379,1630.1,-5.3168e-05,-0.00020847,-5.5843e-05,-20.099,1.6277
23848,16.796,5.9091,0.1,0.00016094,1608.3,0.00016071,1601.5,-5.244e-05,0.0045442,-5.4237e-05,-13.493,1.6418
23849,16.796,5.5455,0.1,0.00016134,1612.3,0.00016103,1603.4,-5.236e-05,0.0092595,-5.4725e-05,-17.76,1.6429
23850,16.704,5.6364,0.1,0.00016366,1635.4,0.00016335,1626.5,-5.3125e-05,0.012955,-5.5486e-05,-17.721,1.6282
23851,16.796,5.3636,0.1,0.0001612,1610.9,0.00016089,1602,-5.2323e-05,0.0045499,-5.4661e-05,-17.565,1.6434
23852,16.704,5.4545,0.1,0.00016349,1633.8,0.00016319,1625,-5.3088e-05,0.0050855,-5.5406e-05,-17.413,1.6287
23853,16.796,5.1818,0.1,0.00016108,1609.7,0.00016077,1600.9,-5.2288e-05,0.0027375,-5.4613e-05,-17.473,1.6438
23854,16.704,5.2727,0.1,0.00016336,1632.5,0.00016306,1623.8,-5.3052e-05,0.0038826,-5.5351e-05,-17.266,1.6292
23855,16.796,5,0.1,0.00016097,1608.6,0.00016067,1599.8,-5.2255e-05,0.00058104,-5.4574e-05,-17.421,1.6442
23856,16.704,5.0909,0.1,0.00016325,1631.4,0.00016295,1622.7,-5.3019e-05,0.0015545,-5.5304e-05,-17.168,1.6296
23857,16.796,4.8182,0.1,0.00016088,1607.7,0.00016057,1598.9,-5.2225e-05,-0.0013083,-5.4541e-05,-17.4,1.6446
23858,16.704,4.9091,0.1,0.00016315,1630.3,0.00016285,1621.7,-5.2989e-05,-0.00033522,-5.5265e-05,-17.104,1.63
23859,16.796,4.6364,0.1,0.00016079,1606.8,0.00016049,1598.1,-5.2198e-05,-0.0030626,-5.4514e-05,-17.403,1.6449
23860,16.704,4.7273,0.1,0.00016306,1629.4,0.00016276,1620.8,-5.2961e-05,-0.0021511,-5.5233e-05,-17.068,1.6304
23861,16.796,4.4545,0.1,0.00016072,1606.1,0.00016042,1597.3,-5.2173e-05,-0.0046359,-5.4492e-05,-17.424,1.6452
23862,16.704,4.5455,0.1,0.00016298,1628.7,0.00016268,1620.1,-5.2936e-05,-0.0037851,-5.5205e-05,-17.054,1.6307
23863,16.796,4.2727,0.1,0.00016066,1605.5,0.00016036,1596.7,-5.2152e-05,-0.00603,-5.4474e-05,-17.456,1.6455
23864,16.704,4.3636,0.1,0.00016291,1628,0.00016261,1619.4,-5.2914e-05,-0.0052514,-5.5183e-05,-17.057,1.631
23865,16.796,4.0909,0.1,0.00016061,1605,0.0001603,1596.2,-5.2133e-05,-0.007239,-5.446e-05,-17.496,1.6457
23866,16.704,4.1818,0.1,0.00016285,1627.4,0.00016255,1618.8,-5.2894e-05,-0.0065392,-5.5165e-05,-17.072,1.6313
23867,16.796,3.9091,0.1,0.00016057,1604.6,0.00016026,1595.7,-5.2117e-05,-0.0082613,-5.445e-05,-17.537,1.6459
23868,16.704,4,0.1,0.0001628,1626.9,0.00016251,1618.3,-5.2877e-05,-0.0076447,-5.5151e-05,-17.093,1.6315
23869,16.796,3.7273,0.1,0.00016053,1604.2,0.00016023,1595.4,-5.2104e-05,-0.0090959,-5.4442e-05,-17.576,1.6461
23870,16.704,3.8182,0.1,0.00016276,1626.5,0.00016247,1617.9,-5.2863e-05,-0.008566,-5.514e-05,-17.117,1.6317
23871,16.796,3.5455,0.1,0.00016051,1604,0.0001602,1595.1,-5.2093e-05,-0.0097436,-5.4436e-05,-17.611,1.6462
23872,16.704,3.6364,0.1,0.00016273,1626.2,0.00016243,1617.6,-5.2851e-05,-0.0093018,-5.5131e-05,-17.141,1.6318
23873,16.796,3.3636,0.1,0.00016049,1603.8,0.00016018,1594.9,-5.2086e-05,-0.010205,-5.4432e-05,-17.637,1.6463
23874,16.704,3.4545,0.1,0.00016271,1626,0.00016241,1617.3,-5.2843e-05,-0.0098542,-5.5125e-05,-17.161,1.6319
23875,16.796,3.1818,0.1,0.00016048,1603.7,0.00016017,1594.8,-5.2081e-05,-0.010481,-5.443e-05,-17.654,1.6464
23876,16.704,3.2727,0.1,0.00016269,1625.8,0.0001624,1617.2,-5.2837e-05,-0.010221,-5.5122e-05,-17.176,1.632
23877,16.796,3,0.1,0.00016047,1603.6,0.00016017,1594.7,-5.208e-05,-0.010573,-5.4429e-05,-17.659,1.6464
23878,16.704,3.0909,0.1,0.00016269,1625.7,0.00016239,1617.1,-5.2834e-05,-0.010404,-5.512e-05,-17.183,1.632
23879,16.796,2.8182,0.1,0.00016048,1603.7,0.00016017,1594.8,-5.2081e-05,-0.010481,-5.443e-05,-17.654,1.6464
23880,16.704,2.9091,0.1,0.00016269,1625.7,0.00016239,1617.1,-5.2834e-05,-0.010405,-5.512e-05,-17.183,1.632
23881,16.796,2.6364,0.1,0.00016049,1603.8,0.00016018,1594.9,-5.2086e-05,-0.010205,-5.4432e-05,-17.637,1.6463
23882,16.704,2.7273,0.1,0.00016269,1625.8,0.0001624,1617.2,-5.2837e-05,-0.010221,-5.5122e-05,-17.176,1.632
23883,16.796,2.4545,0.1,0.00016051,1604,0.0001602,1595.1,-5.2093e-05,-0.0097432,-5.4436e-05,-17.611,1.6462
23884,16.704,2.5455,0.1,0.00016271,1626,0.00016241,1617.3,-5.2843e-05,-0.0098537,-5.5125e-05,-17.161,1.6319
23885,16.796,2.2727,0.1,0.00016053,1604.2,0.00016023,1595.4,-5.2104e-05,-0.0090951,-5.4442e-05,-17.576,1.6461
23886,16.704,2.3636,0.1,0.00016273,1626.2,0.00016243,1617.6,-5.2851e-05,-0.009302,-5.5131e-05,-17.141,1.6318
23887,16.796,2.0909,0.1,0.00016057,1604.6,0.00016026,1595.7,-5.2117e-05,-0.0082606,-5.445e-05,-17.537,1.6459
23888,16.704,2.1818,0.1,0.00016276,1626.5,0.00016247,1617.9,-5.2863e-05,-0.0085652,-5.514e-05,-17.117,1.6317
23889,16.796,1.9091,0.1,0.00016061,1605,0.0001603,1596.2,-5.2133e-05,-0.0072389,-5.446e-05,-17.496,1.6457
23890,16.704,2,0.1,0.0001628,1626.9,0.00016251,1618.3,-5.2877e-05,-0.0076445,-5.5151e-05,-17.093,1.6315
23891,16.796,1.7273,0.1,0.00016066,1605.5,0.00016036,1596.7,-5.2152e-05,-0.0060297,-5.4474e-05,-17.456,1.6455
23892,16.704,1.8182,0.1,0.00016285,1627.4,0.00016255,1618.8,-5.2894e-05,-0.0065393,-5.5165e-05,-17.072,1.6313
23893,16.796,1.5455,0.1,0.00016072,1606.1,0.00016042,1597.3,-5.2173e-05,-0.0046356,-5.4492e-05,-17.424,1.6452
23894,16.704,1.6364,0.1,0.00016291,1628,0.00016261,1619.4,-5.2914e-05,-0.0052515,-5.5183e-05,-17.057,1.631
23895,16.796,1.3636,0.1,0.00016079,1606.8,0.00016049,1598.1,-5.2198e-05,-0.0030627,-5.4514e-05,-17.403,1.6449
23896,16.704,1.4545,0.1,0.00016298,1628.7,0.00016268,1620.1,-5.2936e-05,-0.0037858,-5.5205e-05,-17.054,1.6307
23897,16.796,1.1818,0.1,0.00016088,1607.7,0.00016057,1598.9,-5.2225e-05,-0.0013086,-5.4541e-05,-17.4,1.6446
23898,16.704,1.2727,0.1,0.00016306,1629.4,0.00016276,1620.8,-5.2961e-05,-0.0021508,-5.5233e-05,-17.068,1.6304
23899,16.796,1,0.1,0.00016097,1608.6,0.00016067,1599.8,-5.2255e-05,0.00057961,-5.4574e-05,-17.421,1.6442
23900,16.704,1.0909,0.1,0.00016315,1630.3,0.00016285,1621.7,-5.2989e-05,-0.00033648,-5.5265e-05,-17.104,1.63
23901,16.796,0.81818,0.1,0.00016108,1609.7,0.00016077,1600.9,-5.2288e-05,0.0027355,-5.4613e-05,-17.472,1.6438
23902,16.704,0.90909,0.1,0.00016325,1631.4,0.00016295,1622.7,-5.3019e-05,0.0015526,-5.5304e-05,-17.168,1.6296
23903,16.796,0.63636,0.1,0.0001612,1610.9,0.00016089,1602,-5.2323e-05,0.0045495,-5.4661e-05,-17.565,1.6434
23904,16.704,0.72727,0.1,0.00016336,1632.5,0.00016306,1623.8,-5.3052e-05,0.0038805,-5.5351e-05,-17.266,1.6292
23905,16.796,0.45455,0.1,0.00016134,1612.3,0.00016103,1603.4,-5.236e-05,0.0092602,-5.4725e-05,-17.76,1.6429
23906,16.704,0.54545,0.1,0.00016349,1633.8,0.00016319,1625,-5.3088e-05,0.005086,-5.5406e-05,-17.413,1.6287
23907,16.796,0.27273,0.1,0.00016166,1615.5,0.00016133,1605.9,-5.2401e-05,0.007427,-5.4935e-05,-19.03,1.6424
23908,16.704,0.36364,0.1,0.00016366,1635.4,0.00016335,1626.5,-5.3125e-05,0.012955,-5.5486e-05,-17.721,1.6282
23909,16.704,0.18182,0.1,0.00016414,1640.3,0.00016379,1630.1,-5.3168e-05,-0.00020756,-5.5843e-05,-20.099,1.6277
23910,16.796,0.090909,0.1,0.00016094,1608.3,0.00016071,1601.5,-5.2441e-05,0.0045451,-5.4237e-05,-13.493,1.6418
23911,16.612,5.7273,0.1,0.00016612,1660,0.00016579,1650.6,-5.3892e-05,0.007141,-5.6375e-05,-18.652,1.6136
23912,16.519,5.8182,0.1,0.00016861,1684.9,0.00016827,1675,-5.4661e-05,-0.00013152,-5.7287e-05,-19.736,1.599
23913,16.612,5.9091,0.1,0.00016542,1653,0.00016519,1646.4,-5.3929e-05,0.0043972,-5.5694e-05,-13.254,1.613
23914,16.612,5.5455,0.1,0.0001658,1656.9,0.0001655,1648.1,-5.3853e-05,0.0089031,-5.6162e-05,-17.337,1.6141
23915,16.519,5.6364,0.1,0.00016813,1680.1,0.00016783,1671.4,-5.462e-05,0.012415,-5.6929e-05,-17.33,1.5995
23916,16.612,5.3636,0.1,0.00016565,1655.4,0.00016536,1646.8,-5.3817e-05,0.0044218,-5.6091e-05,-17.082,1.6146
23917,16.519,5.4545,0.1,0.00016796,1678.5,0.00016767,1669.9,-5.4585e-05,0.0049329,-5.6843e-05,-16.965,1.6001
23918,16.612,5.1818,0.1,0.00016553,1654.2,0.00016524,1645.6,-5.3784e-05,0.0026888,-5.6038e-05,-16.929,1.6151
23919,16.519,5.2727,0.1,0.00016783,1677.1,0.00016754,1668.7,-5.4551e-05,0.0037869,-5.6782e-05,-16.757,1.6005
23920,16.612,5,0.1,0.00016542,1653.1,0.00016513,1644.6,-5.3753e-05,0.00061987,-5.5992e-05,-16.818,1.6155
23921,16.519,5.0909,0.1,0.00016771,1675.9,0.00016742,1667.6,-5.452e-05,0.0015585,-5.6729e-05,-16.599,1.601
23922,16.612,4.8182,0.1,0.00016532,1652.1,0.00016503,1643.6,-5.3725e-05,-0.0012026,-5.5953e-05,-16.739,1.6159
23923,16.519,4.9091,0.1,0.0001676,1674.9,0.00016732,1666.6,-5.4491e-05,-0.00025961,-5.6684e-05,-16.477,1.6014
23924,16.612,4.6364,0.1,0.00016524,1651.2,0.00016495,1642.8,-5.3699e-05,-0.0029035,-5.592e-05,-16.687,1.6162
23925,16.519,4.7273,0.1,0.00016751,1673.9,0.00016723,1665.7,-5.4465e-05,-0.0020149,-5.6645e-05,-16.385,1.6018
23926,16.612,4.4545,0.1,0.00016516,1650.5,0.00016487,1642.1,-5.3676e-05,-0.004435,-5.5892e-05,-16.655,1.6166
23927,16.519,4.5455,0.1,0.00016743,1673.1,0.00016714,1664.9,-5.4441e-05,-0.0036019,-5.6613e-05,-16.319,1.6021
23928,16.612,4.2727,0.1,0.0001651,1649.8,0.00016481,1641.4,-5.3656e-05,-0.0057987,-5.587e-05,-16.64,1.6168
23929,16.519,4.3636,0.1,0.00016736,1672.4,0.00016707,1664.2,-5.442e-05,-0.0050339,-5.6585e-05,-16.273,1.6024
23930,16.612,4.0909,0.1,0.00016504,1649.3,0.00016475,1640.9,-5.3638e-05,-0.0069859,-5.5851e-05,-16.637,1.6171
23931,16.519,4.1818,0.1,0.0001673,1671.8,0.00016701,1663.6,-5.4402e-05,-0.0062965,-5.6562e-05,-16.243,1.6027
23932,16.612,3.9091,0.1,0.000165,1648.8,0.00016471,1640.4,-5.3623e-05,-0.0079928,-5.5837e-05,-16.641,1.6173
23933,16.519,4,0.1,0.00016724,1671.3,0.00016696,1663.1,-5.4386e-05,-0.0073844,-5.6544e-05,-16.225,1.6029
23934,16.612,3.7273,0.1,0.00016496,1648.5,0.00016467,1640.1,-5.361e-05,-0.0088173,-5.5825e-05,-16.65,1.6174
23935,16.519,3.8182,0.1,0.0001672,1670.9,0.00016692,1662.7,-5.4372e-05,-0.0082936,-5.6529e-05,-16.215,1.6031
23936,16.612,3.5455,0.1,0.00016493,1648.2,0.00016464,1639.8,-5.3601e-05,-0.0094592,-5.5817e-05,-16.659,1.6176
23937,16.519,3.6364,0.1,0.00016717,1670.5,0.00016689,1662.4,-5.4362e-05,-0.0090226,-5.6518e-05,-16.211,1.6032
23938,16.612,3.3636,0.1,0.00016491,1648,0.00016462,1639.6,-5.3594e-05,-0.009918,-5.5811e-05,-16.668,1.6177
23939,16.519,3.4545,0.1,0.00016714,1670.3,0.00016686,1662.1,-5.4353e-05,-0.0095698,-5.651e-05,-16.211,1.6033
23940,16.612,3.1818,0.1,0.0001649,1647.9,0.00016461,1639.5,-5.359e-05,-0.010193,-5.5807e-05,-16.673,1.6177
23941,16.519,3.2727,0.1,0.00016713,1670.1,0.00016685,1662,-5.4348e-05,-0.0099355,-5.6504e-05,-16.211,1.6034
23942,16.612,3,0.1,0.0001649,1647.8,0.00016461,1639.4,-5.3588e-05,-0.010284,-5.5806e-05,-16.676,1.6177
23943,16.519,3.0909,0.1,0.00016712,1670,0.00016684,1661.9,-5.4345e-05,-0.010118,-5.6502e-05,-16.212,1.6034
23944,16.612,2.8182,0.1,0.0001649,1647.9,0.00016461,1639.5,-5.359e-05,-0.010193,-5.5807e-05,-16.673,1.6177
23945,16.519,2.9091,0.1,0.00016712,1670,0.00016684,1661.9,-5.4345e-05,-0.010117,-5.6502e-05,-16.212,1.6034
23946,16.612,2.6364,0.1,0.00016491,1648,0.00016462,1639.6,-5.3594e-05,-0.0099176,-5.5811e-05,-16.668,1.6177
23947,16.519,2.7273,0.1,0.00016713,1670.1,0.00016685,1662,-5.4348e-05,-0.0099356,-5.6504e-05,-16.211,1.6034
23948,16.612,2.4545,0.1,0.00016493,1648.2,0.00016464,1639.8,-5.3601e-05,-0.0094593,-5.5817e-05,-16.659,1.6176
23949,16.519,2.5455,0.1,0.00016714,1670.3,0.00016686,1662.1,-5.4353e-05,-0.0095702,-5.651e-05,-16.211,1.6033
23950,16.612,2.2727,0.1,0.00016496,1648.5,0.00016467,1640.1,-5.361e-05,-0.0088176,-5.5825e-05,-16.65,1.6174
23951,16.519,2.3636,0.1,0.00016717,1670.5,0.00016689,1662.4,-5.4362e-05,-0.0090228,-5.6518e-05,-16.211,1.6032
23952,16.612,2.0909,0.1,0.000165,1648.8,0.00016471,1640.4,-5.3623e-05,-0.0079927,-5.5837e-05,-16.641,1.6173
23953,16.519,2.1818,0.1,0.0001672,1670.9,0.00016692,1662.7,-5.4372e-05,-0.0082936,-5.6529e-05,-16.215,1.6031
23954,16.612,1.9091,0.1,0.00016504,1649.3,0.00016475,1640.9,-5.3638e-05,-0.006986,-5.5851e-05,-16.637,1.6171
23955,16.519,2,0.1,0.00016724,1671.3,0.00016696,1663.1,-5.4386e-05,-0.0073845,-5.6544e-05,-16.225,1.6029
23956,16.612,1.7273,0.1,0.0001651,1649.8,0.00016481,1641.4,-5.3656e-05,-0.0057991,-5.587e-05,-16.64,1.6168
23957,16.519,1.8182,0.1,0.0001673,1671.8,0.00016701,1663.6,-5.4402e-05,-0.006296,-5.6562e-05,-16.243,1.6027
23958,16.612,1.5455,0.1,0.00016516,1650.5,0.00016487,1642.1,-5.3676e-05,-0.004436,-5.5892e-05,-16.655,1.6166
23959,16.519,1.6364,0.1,0.00016736,1672.4,0.00016707,1664.2,-5.442e-05,-0.0050343,-5.6585e-05,-16.273,1.6024
23960,16.612,1.3636,0.1,0.00016524,1651.2,0.00016495,1642.8,-5.3699e-05,-0.0029038,-5.592e-05,-16.686,1.6162
23961,16.519,1.4545,0.1,0.00016743,1673.1,0.00016714,1664.9,-5.4441e-05,-0.003603,-5.6613e-05,-16.319,1.6021
23962,16.612,1.1818,0.1,0.00016532,1652.1,0.00016503,1643.6,-5.3725e-05,-0.0012032,-5.5953e-05,-16.739,1.6159
23963,16.519,1.2727,0.1,0.00016751,1673.9,0.00016723,1665.7,-5.4465e-05,-0.0020146,-5.6645e-05,-16.385,1.6018
23964,16.612,1,0.1,0.00016542,1653.1,0.00016513,1644.6,-5.3753e-05,0.00061815,-5.5992e-05,-16.818,1.6155
23965,16.519,1.0909,0.1,0.0001676,1674.9,0.00016732,1666.6,-5.4491e-05,-0.00026046,-5.6684e-05,-16.477,1.6014
23966,16.612,0.81818,0.1,0.00016553,1654.2,0.00016524,1645.6,-5.3784e-05,0.0026868,-5.6038e-05,-16.929,1.6151
23967,16.519,0.90909,0.1,0.00016771,1675.9,0.00016742,1667.6,-5.452e-05,0.0015562,-5.6729e-05,-16.599,1.601
23968,16.612,0.63636,0.1,0.00016565,1655.4,0.00016536,1646.8,-5.3817e-05,0.0044206,-5.6091e-05,-17.082,1.6146
23969,16.519,0.72727,0.1,0.00016783,1677.1,0.00016754,1668.7,-5.4551e-05,0.0037847,-5.6782e-05,-16.757,1.6005
23970,16.612,0.45455,0.1,0.0001658,1656.9,0.0001655,1648.1,-5.3853e-05,0.0089032,-5.6162e-05,-17.337,1.6141
23971,16.519,0.54545,0.1,0.00016796,1678.5,0.00016767,1669.9,-5.4585e-05,0.0049328,-5.6843e-05,-16.964,1.6001
23972,16.612,0.27273,0.1,0.00016612,1660,0.00016579,1650.6,-5.3892e-05,0.0071417,-5.6375e-05,-18.652,1.6136
23973,16.519,0.36364,0.1,0.00016813,1680.1,0.00016783,1671.4,-5.462e-05,0.012416,-5.6929e-05,-17.33,1.5995
23974,16.519,0.18182,0.1,0.00016861,1684.9,0.00016827,1675,-5.4661e-05,-0.00013025,-5.7287e-05,-19.736,1.599
23975,16.612,0.090909,0.1,0.00016542,1653,0.00016519,1646.4,-5.3929e-05,0.0043975,-5.5694e-05,-13.254,1.613
23976,16.427,5.7273,0.1,0.0001706,1704.8,0.00017028,1695.6,-5.5389e-05,0.0068748,-5.7823e-05,-18.279,1.585
23977,16.335,5.8182,0.1,0.0001731,1729.8,0.00017276,1720,-5.616e-05,-4.2499e-05,-5.8739e-05,-19.378,1.5704
23978,16.427,5.9091,0.1,0.00016991,1698,0.00016969,1691.4,-5.5425e-05,0.0042611,-5.7158e-05,-13.018,1.5844
23979,16.427,5.5455,0.1,0.00017028,1701.6,0.00016999,1693.1,-5.5352e-05,0.0085653,-5.7605e-05,-16.921,1.5855
23980,16.335,5.6364,0.1,0.00017262,1725,0.00017232,1716.5,-5.6122e-05,0.011898,-5.8379e-05,-16.946,1.571
23981,16.427,5.3636,0.1,0.00017013,1700.1,0.00016984,1691.8,-5.5318e-05,0.0043049,-5.7529e-05,-16.607,1.586
23982,16.335,5.4545,0.1,0.00017245,1723.3,0.00017216,1715,-5.6088e-05,0.0047918,-5.8288e-05,-16.522,1.5715
23983,16.427,5.1818,0.1,0.00017,1698.9,0.00016972,1690.6,-5.5287e-05,0.0026496,-5.7469e-05,-16.395,1.5865
23984,16.335,5.2727,0.1,0.00017231,1722,0.00017203,1713.8,-5.6056e-05,0.0036991,-5.822e-05,-16.257,1.572
23985,16.427,5,0.1,0.00016989,1697.7,0.00016961,1689.6,-5.5258e-05,0.00066449,-5.7417e-05,-16.226,1.5869
23986,16.335,5.0909,0.1,0.00017219,1720.7,0.00017191,1712.7,-5.6027e-05,0.0015701,-5.8162e-05,-16.04,1.5724
23987,16.427,4.8182,0.1,0.00016979,1696.7,0.00016951,1688.6,-5.5231e-05,-0.0010929,-5.7373e-05,-16.091,1.5873
23988,16.335,4.9091,0.1,0.00017208,1719.6,0.00017181,1711.6,-5.6e-05,-0.00017954,-5.8111e-05,-15.861,1.5729
23989,16.427,4.6364,0.1,0.0001697,1695.8,0.00016942,1687.8,-5.5207e-05,-0.0027399,-5.7334e-05,-15.985,1.5877
23990,16.335,4.7273,0.1,0.00017198,1718.7,0.00017171,1710.7,-5.5975e-05,-0.0018744,-5.8066e-05,-15.715,1.5732
23991,16.427,4.4545,0.1,0.00016962,1695,0.00016934,1687,-5.5185e-05,-0.0042323,-5.7301e-05,-15.904,1.588
23992,16.335,4.5455,0.1,0.0001719,1717.8,0.00017163,1710,-5.5953e-05,-0.0034167,-5.8028e-05,-15.597,1.5736
23993,16.427,4.2727,0.1,0.00016955,1694.3,0.00016928,1686.4,-5.5166e-05,-0.0055673,-5.7274e-05,-15.843,1.5883
23994,16.335,4.3636,0.1,0.00017182,1717.1,0.00017156,1709.3,-5.5933e-05,-0.0048149,-5.7996e-05,-15.504,1.5739
23995,16.427,4.0909,0.1,0.00016949,1693.8,0.00016922,1685.8,-5.5149e-05,-0.006734,-5.7251e-05,-15.799,1.5885
23996,16.335,4.1818,0.1,0.00017176,1716.4,0.00017149,1708.6,-5.5915e-05,-0.0060528,-5.7968e-05,-15.431,1.5742
23997,16.427,3.9091,0.1,0.00016945,1693.3,0.00016917,1685.3,-5.5135e-05,-0.0077271,-5.7232e-05,-15.767,1.5887
23998,16.335,4,0.1,0.00017171,1715.9,0.00017144,1708.1,-5.59e-05,-0.0071245,-5.7946e-05,-15.375,1.5744
23999,16.427,3.7273,0.1,0.00016941,1692.9,0.00016913,1685,-5.5123e-05,-0.0085432,-5.7218e-05,-15.745,1.5889
24000,16.335,3.8182,0.1,0.00017166,1715.4,0.0001714,1707.7,-5.5888e-05,-0.0080233,-5.7927e-05,-15.333,1.5746
24001,16.427,3.5455,0.1,0.00016938,1692.6,0.0001691,1684.7,-5.5114e-05,-0.0091793,-5.7207e-05,-15.731,1.589
24002,16.335,3.6364,0.1,0.00017163,1715.1,0.00017136,1707.4,-5.5878e-05,-0.0087462,-5.7913e-05,-15.302,1.5747
24003,16.427,3.3636,0.1,0.00016936,1692.4,0.00016908,1684.5,-5.5108e-05,-0.0096346,-5.7199e-05,-15.723,1.5891
24004,16.335,3.4545,0.1,0.0001716,1714.8,0.00017133,1707.1,-5.587e-05,-0.0092906,-5.7903e-05,-15.281,1.5749
24005,16.427,3.1818,0.1,0.00016934,1692.3,0.00016907,1684.3,-5.5104e-05,-0.0099089,-5.7194e-05,-15.718,1.5892
24006,16.335,3.2727,0.1,0.00017158,1714.6,0.00017132,1707,-5.5865e-05,-0.0096538,-5.7896e-05,-15.268,1.5749
24007,16.427,3,0.1,0.00016934,1692.2,0.00016907,1684.3,-5.5103e-05,-0.0099996,-5.7193e-05,-15.717,1.5892
24008,16.335,3.0909,0.1,0.00017157,1714.6,0.00017131,1706.9,-5.5863e-05,-0.0098366,-5.7893e-05,-15.262,1.575
24009,16.427,2.8182,0.1,0.00016934,1692.3,0.00016907,1684.3,-5.5104e-05,-0.0099083,-5.7194e-05,-15.718,1.5892
24010,16.335,2.9091,0.1,0.00017157,1714.6,0.00017131,1706.9,-5.5863e-05,-0.0098348,-5.7893e-05,-15.262,1.575
24011,16.427,2.6364,0.1,0.00016936,1692.4,0.00016908,1684.5,-5.5108e-05,-0.0096355,-5.7199e-05,-15.723,1.5891
24012,16.335,2.7273,0.1,0.00017158,1714.6,0.00017132,1707,-5.5865e-05,-0.0096544,-5.7896e-05,-15.268,1.5749
24013,16.427,2.4545,0.1,0.00016938,1692.6,0.0001691,1684.7,-5.5114e-05,-0.0091797,-5.7207e-05,-15.731,1.589
24014,16.335,2.5455,0.1,0.0001716,1714.8,0.00017133,1707.1,-5.587e-05,-0.0092906,-5.7903e-05,-15.281,1.5749
24015,16.427,2.2727,0.1,0.00016941,1692.9,0.00016913,1685,-5.5123e-05,-0.0085431,-5.7218e-05,-15.745,1.5889
24016,16.335,2.3636,0.1,0.00017163,1715.1,0.00017136,1707.4,-5.5878e-05,-0.0087462,-5.7913e-05,-15.302,1.5747
24017,16.427,2.0909,0.1,0.00016945,1693.3,0.00016917,1685.3,-5.5135e-05,-0.0077273,-5.7232e-05,-15.767,1.5887
24018,16.335,2.1818,0.1,0.00017166,1715.4,0.0001714,1707.7,-5.5888e-05,-0.0080235,-5.7927e-05,-15.333,1.5746
24019,16.427,1.9091,0.1,0.00016949,1693.8,0.00016922,1685.8,-5.5149e-05,-0.0067335,-5.7251e-05,-15.799,1.5885
24020,16.335,2,0.1,0.00017171,1715.9,0.00017144,1708.1,-5.59e-05,-0.0071251,-5.7946e-05,-15.375,1.5744
24021,16.427,1.7273,0.1,0.00016955,1694.3,0.00016928,1686.4,-5.5166e-05,-0.0055667,-5.7274e-05,-15.843,1.5883
24022,16.335,1.8182,0.1,0.00017176,1716.4,0.00017149,1708.6,-5.5915e-05,-0.0060526,-5.7968e-05,-15.431,1.5742
24023,16.427,1.5455,0.1,0.00016962,1695,0.00016934,1687,-5.5185e-05,-0.0042327,-5.7301e-05,-15.904,1.588
24024,16.335,1.6364,0.1,0.00017182,1717.1,0.00017156,1709.3,-5.5933e-05,-0.0048151,-5.7996e-05,-15.504,1.5739
24025,16.427,1.3636,0.1,0.0001697,1695.8,0.00016942,1687.8,-5.5207e-05,-0.0027404,-5.7334e-05,-15.985,1.5877
24026,16.335,1.4545,0.1,0.0001719,1717.8,0.00017163,1710,-5.5953e-05,-0.0034173,-5.8028e-05,-15.597,1.5736
24027,16.427,1.1818,0.1,0.00016979,1696.7,0.00016951,1688.6,-5.5231e-05,-0.0010928,-5.7373e-05,-16.091,1.5873
24028,16.335,1.2727,0.1,0.00017198,1718.7,0.00017171,1710.7,-5.5975e-05,-0.001875,-5.8066e-05,-15.715,1.5732
24029,16.427,1,0.1,0.00016989,1697.7,0.00016961,1689.6,-5.5258e-05,0.00066305,-5.7417e-05,-16.226,1.5869
24030,16.335,1.0909,0.1,0.00017208,1719.6,0.00017181,1711.6,-5.6e-05,-0.00017983,-5.8111e-05,-15.861,1.5729
24031,16.427,0.81818,0.1,0.00017,1698.9,0.00016972,1690.6,-5.5287e-05,0.0026471,-5.7469e-05,-16.395,1.5865
24032,16.335,0.90909,0.1,0.00017219,1720.7,0.00017191,1712.7,-5.6027e-05,0.0015675,-5.8162e-05,-16.04,1.5724
24033,16.427,0.63636,0.1,0.00017013,1700.1,0.00016984,1691.8,-5.5318e-05,0.0043039,-5.7529e-05,-16.607,1.586
24034,16.335,0.72727,0.1,0.00017231,1722,0.00017203,1713.8,-5.6056e-05,0.0036982,-5.822e-05,-16.257,1.572
24035,16.427,0.45455,0.1,0.00017028,1701.6,0.00016999,1693.1,-5.5352e-05,0.0085656,-5.7605e-05,-16.921,1.5855
24036,16.335,0.54545,0.1,0.00017245,1723.3,0.00017216,1715,-5.6088e-05,0.0047903,-5.8288e-05,-16.522,1.5715
24037,16.427,0.27273,0.1,0.0001706,1704.8,0.00017028,1695.6,-5.5389e-05,0.0068758,-5.7823e-05,-18.278,1.585
24038,16.335,0.36364,0.1,0.00017262,1725,0.00017232,1716.5,-5.6122e-05,0.011899,-5.8379e-05,-16.945,1.571
24039,16.335,0.18182,0.1,0.0001731,1729.8,0.00017276,1720,-5.616e-05,-4.0946e-05,-5.8739e-05,-19.378,1.5704
24040,16.427,0.090909,0.1,0.00016991,1698,0.00016969,1691.4,-5.5425e-05,0.0042612,-5.7158e-05,-13.018,1.5844
24041,16.242,5.7273,0.1,0.0001751,1749.8,0.00017479,1740.8,-5.6893e-05,0.0066261,-5.9277e-05,-17.91,1.5564
24042,16.15,5.8182,0.1,0.00017761,1774.9,0.00017728,1765.3,-5.7666e-05,6.0976e-05,-6.0198e-05,-19.024,1.5419
24043,16.242,5.9091,0.1,0.00017443,1743.1,0.00017421,1736.6,-5.6926e-05,0.0041338,-5.8628e-05,-12.785,1.5558
24044,16.242,5.5455,0.1,0.00017478,1746.6,0.0001745,1738.3,-5.6858e-05,0.0082423,-5.9056e-05,-16.511,1.557
24045,16.15,5.6364,0.1,0.00017713,1770.1,0.00017684,1761.7,-5.763e-05,0.011401,-5.9836e-05,-16.565,1.5425
24046,16.242,5.3636,0.1,0.00017463,1745.1,0.00017435,1737,-5.6826e-05,0.0041962,-5.8974e-05,-16.14,1.5575
24047,16.15,5.4545,0.1,0.00017696,1768.4,0.00017668,1760.3,-5.7598e-05,0.0046626,-5.9739e-05,-16.086,1.543
24048,16.242,5.1818,0.1,0.0001745,1743.8,0.00017422,1735.8,-5.6796e-05,0.0026163,-5.8908e-05,-15.87,1.558
24049,16.15,5.2727,0.1,0.00017682,1767,0.00017655,1759,-5.7568e-05,0.0036224,-5.9666e-05,-15.762,1.5436
24050,16.242,5,0.1,0.00017438,1742.6,0.00017411,1734.7,-5.6769e-05,0.00071526,-5.8851e-05,-15.644,1.5584
24051,16.15,5.0909,0.1,0.00017669,1765.7,0.00017642,1757.9,-5.754e-05,0.0015905,-5.9601e-05,-15.488,1.544
24052,16.242,4.8182,0.1,0.00017427,1741.5,0.00017401,1733.8,-5.6743e-05,-0.00097836,-5.88e-05,-15.454,1.5588
24053,16.15,4.9091,0.1,0.00017658,1764.6,0.00017632,1756.9,-5.7514e-05,-9.0859e-05,-5.9544e-05,-15.254,1.5445
24054,16.242,4.6364,0.1,0.00017418,1740.6,0.00017392,1732.9,-5.6721e-05,-0.0025744,-5.8756e-05,-15.296,1.5592
24055,16.15,4.7273,0.1,0.00017648,1763.6,0.00017622,1756,-5.7491e-05,-0.001728,-5.9495e-05,-15.054,1.5448
24056,16.242,4.4545,0.1,0.0001741,1739.8,0.00017384,1732.2,-5.67e-05,-0.0040278,-5.8718e-05,-15.166,1.5595
24057,16.15,4.5455,0.1,0.00017639,1762.7,0.00017613,1755.2,-5.747e-05,-0.0032263,-5.9451e-05,-14.886,1.5452
24058,16.242,4.2727,0.1,0.00017403,1739.1,0.00017377,1731.5,-5.6682e-05,-0.0053336,-5.8686e-05,-15.06,1.5598
24059,16.15,4.3636,0.1,0.00017631,1761.9,0.00017606,1754.5,-5.7452e-05,-0.0045909,-5.9414e-05,-14.746,1.5455
24060,16.242,4.0909,0.1,0.00017397,1738.5,0.00017371,1730.9,-5.6666e-05,-0.0064804,-5.8659e-05,-14.976,1.5601
24061,16.15,4.1818,0.1,0.00017625,1761.2,0.00017599,1753.9,-5.7435e-05,-0.005805,-5.9382e-05,-14.631,1.5458
24062,16.242,3.9091,0.1,0.00017392,1738,0.00017366,1730.5,-5.6653e-05,-0.0074611,-5.8636e-05,-14.909,1.5603
24063,16.15,4,0.1,0.00017619,1760.7,0.00017594,1753.4,-5.7421e-05,-0.0068619,-5.9355e-05,-14.538,1.546
24064,16.242,3.7273,0.1,0.00017388,1737.6,0.00017362,1730.1,-5.6642e-05,-0.0082696,-5.8619e-05,-14.858,1.5605
24065,16.15,3.8182,0.1,0.00017614,1760.2,0.00017589,1752.9,-5.7409e-05,-0.0077512,-5.9333e-05,-14.464,1.5462
24066,16.242,3.5455,0.1,0.00017384,1737.2,0.00017359,1729.8,-5.6634e-05,-0.0089028,-5.8605e-05,-14.821,1.5606
24067,16.15,3.6364,0.1,0.0001761,1759.8,0.00017585,1752.6,-5.74e-05,-0.0084695,-5.9317e-05,-14.408,1.5464
24068,16.242,3.3636,0.1,0.00017382,1737,0.00017357,1729.6,-5.6628e-05,-0.0093566,-5.8596e-05,-14.796,1.5607
24069,16.15,3.4545,0.1,0.00017608,1759.6,0.00017583,1752.3,-5.7393e-05,-0.0090119,-5.9304e-05,-14.367,1.5465
24070,16.242,3.1818,0.1,0.00017381,1736.9,0.00017355,1729.4,-5.6624e-05,-0.0096292,-5.859e-05,-14.781,1.5608
24071,16.15,3.2727,0.1,0.00017606,1759.4,0.00017581,1752.2,-5.7388e-05,-0.0093736,-5.9296e-05,-14.34,1.5466
24072,16.242,3,0.1,0.0001738,1736.8,0.00017355,1729.4,-5.6623e-05,-0.0097199,-5.8588e-05,-14.776,1.5608
24073,16.15,3.0909,0.1,0.00017605,1759.3,0.0001758,1752.1,-5.7386e-05,-0.0095558,-5.9292e-05,-14.327,1.5466
24074,16.242,2.8182,0.1,0.00017381,1736.9,0.00017355,1729.4,-5.6624e-05,-0.0096287,-5.859e-05,-14.781,1.5608
24075,16.15,2.9091,0.1,0.00017605,1759.3,0.0001758,1752.1,-5.7386e-05,-0.0095553,-5.9292e-05,-14.327,1.5466
24076,16.242,2.6364,0.1,0.00017382,1737,0.00017357,1729.6,-5.6628e-05,-0.0093564,-5.8596e-05,-14.796,1.5607
24077,16.15,2.7273,0.1,0.00017606,1759.4,0.00017581,1752.2,-5.7388e-05,-0.0093745,-5.9296e-05,-14.34,1.5466
24078,16.242,2.4545,0.1,0.00017384,1737.2,0.00017359,1729.8,-5.6634e-05,-0.0089024,-5.8605e-05,-14.821,1.5606
24079,16.15,2.5455,0.1,0.00017608,1759.6,0.00017583,1752.3,-5.7393e-05,-0.0090116,-5.9304e-05,-14.367,1.5465
24080,16.242,2.2727,0.1,0.00017388,1737.6,0.00017362,1730.1,-5.6642e-05,-0.0082698,-5.8619e-05,-14.858,1.5605
24081,16.15,2.3636,0.1,0.0001761,1759.8,0.00017585,1752.6,-5.74e-05,-0.0084695,-5.9317e-05,-14.408,1.5464
24082,16.242,2.0909,0.1,0.00017392,1738,0.00017366,1730.5,-5.6653e-05,-0.0074616,-5.8636e-05,-14.909,1.5603
24083,16.15,2.1818,0.1,0.00017614,1760.2,0.00017589,1752.9,-5.7409e-05,-0.0077518,-5.9333e-05,-14.464,1.5462
24084,16.242,1.9091,0.1,0.00017397,1738.5,0.00017371,1730.9,-5.6666e-05,-0.0064812,-5.8659e-05,-14.975,1.5601
24085,16.15,2,0.1,0.00017619,1760.7,0.00017594,1753.4,-5.7421e-05,-0.0068625,-5.9355e-05,-14.538,1.546
24086,16.242,1.7273,0.1,0.00017403,1739.1,0.00017377,1731.5,-5.6682e-05,-0.005334,-5.8686e-05,-15.06,1.5598
24087,16.15,1.8182,0.1,0.00017625,1761.2,0.00017599,1753.9,-5.7435e-05,-0.0058055,-5.9382e-05,-14.631,1.5458
24088,16.242,1.5455,0.1,0.0001741,1739.8,0.00017384,1732.2,-5.67e-05,-0.0040281,-5.8718e-05,-15.166,1.5595
24089,16.15,1.6364,0.1,0.00017631,1761.9,0.00017606,1754.5,-5.7452e-05,-0.0045909,-5.9414e-05,-14.746,1.5455
24090,16.242,1.3636,0.1,0.00017418,1740.6,0.00017392,1732.9,-5.6721e-05,-0.002575,-5.8756e-05,-15.296,1.5592
24091,16.15,1.4545,0.1,0.00017639,1762.7,0.00017613,1755.2,-5.747e-05,-0.0032263,-5.9451e-05,-14.886,1.5452
24092,16.242,1.1818,0.1,0.00017427,1741.5,0.00017401,1733.8,-5.6743e-05,-0.00097935,-5.88e-05,-15.454,1.5588
24093,16.15,1.2727,0.1,0.00017648,1763.6,0.00017622,1756,-5.7491e-05,-0.0017287,-5.9495e-05,-15.054,1.5448
24094,16.242,1,0.1,0.00017438,1742.6,0.00017411,1734.7,-5.6769e-05,0.00071382,-5.8851e-05,-15.644,1.5584
24095,16.15,1.0909,0.1,0.00017658,1764.6,0.00017632,1756.9,-5.7514e-05,-9.1479e-05,-5.9544e-05,-15.254,1.5445
24096,16.242,0.81818,0.1,0.0001745,1743.8,0.00017422,1735.8,-5.6796e-05,0.0026153,-5.8908e-05,-15.87,1.558
24097,16.15,0.90909,0.1,0.00017669,1765.7,0.00017642,1757.9,-5.754e-05,0.0015882,-5.9601e-05,-15.488,1.544
24098,16.242,0.63636,0.1,0.00017463,1745.1,0.00017435,1737,-5.6826e-05,0.0041948,-5.8974e-05,-16.14,1.5575
24099,16.15,0.72727,0.1,0.00017682,1767,0.00017655,1759,-5.7568e-05,0.0036219,-5.9666e-05,-15.762,1.5436
24100,16.242,0.45455,0.1,0.00017478,1746.6,0.0001745,1738.3,-5.6858e-05,0.0082417,-5.9056e-05,-16.511,1.557
24101,16.15,0.54545,0.1,0.00017696,1768.4,0.00017668,1760.3,-5.7598e-05,0.0046613,-5.9739e-05,-16.086,1.543
24102,16.242,0.27273,0.1,0.0001751,1749.8,0.00017479,1740.8,-5.6893e-05,0.0066277,-5.9277e-05,-17.91,1.5564
24103,16.15,0.36364,0.1,0.00017713,1770.1,0.00017684,1761.7,-5.763e-05,0.011402,-5.9836e-05,-16.565,1.5425
24104,16.15,0.18182,0.1,0.00017761,1774.9,0.00017728,1765.3,-5.7666e-05,6.2259e-05,-6.0198e-05,-19.024,1.5419
24105,16.242,0.090909,0.1,0.00017443,1743.1,0.00017421,1736.6,-5.6926e-05,0.0041333,-5.8628e-05,-12.785,1.5558
24106,16.057,5.7273,0.1,0.00017962,1795,0.00017931,1786.1,-5.8403e-05,0.0063975,-6.0739e-05,-17.546,1.528
24107,15.965,5.8182,0.1,0.00018214,1820.1,0.00018181,1810.7,-5.9178e-05,0.00016181,-6.1663e-05,-18.674,1.5136
24108,16.057,5.9091,0.1,0.00017896,1788.4,0.00017875,1782.1,-5.8435e-05,0.0040189,-6.0106e-05,-12.556,1.5274
24109,16.057,5.5455,0.1,0.0001793,1791.8,0.00017902,1783.7,-5.837e-05,0.0079372,-6.0514e-05,-16.105,1.5286
24110,15.965,5.6364,0.1,0.00018166,1815.4,0.00018138,1807.2,-5.9144e-05,0.010904,-6.13e-05,-16.188,1.5142
24111,16.057,5.3636,0.1,0.00017915,1790.2,0.00017887,1782.3,-5.8339e-05,0.004102,-6.0426e-05,-15.677,1.5291
24112,15.965,5.4545,0.1,0.00018149,1813.6,0.00018122,1805.8,-5.9114e-05,0.0045284,-6.1198e-05,-15.653,1.5147
24113,16.057,5.1818,0.1,0.00017901,1788.9,0.00017874,1781.2,-5.8311e-05,0.0025969,-6.0355e-05,-15.349,1.5296
24114,15.965,5.2727,0.1,0.00018134,1812.2,0.00018108,1804.5,-5.9085e-05,0.0035396,-6.1118e-05,-15.271,1.5152
24115,16.057,5,0.1,0.00017889,1787.7,0.00017863,1780.1,-5.8286e-05,0.00077724,-6.0291e-05,-15.067,1.5301
24116,15.965,5.0909,0.1,0.00018122,1810.9,0.00018096,1803.4,-5.9059e-05,0.0016025,-6.1048e-05,-14.941,1.5157
24117,16.057,4.8182,0.1,0.00017878,1786.6,0.00017852,1779.1,-5.8262e-05,-0.00085424,-6.0235e-05,-14.823,1.5305
24118,15.965,4.9091,0.1,0.0001811,1809.7,0.00018085,1802.4,-5.9035e-05,-1.1406e-05,-6.0985e-05,-14.651,1.5162
24119,16.057,4.6364,0.1,0.00017868,1785.6,0.00017843,1778.3,-5.8241e-05,-0.0023998,-6.0185e-05,-14.614,1.5309
24120,15.965,4.7273,0.1,0.00018099,1808.7,0.00018075,1801.5,-5.9014e-05,-0.0015911,-6.093e-05,-14.399,1.5166
24121,16.057,4.4545,0.1,0.0001786,1784.8,0.00017835,1777.5,-5.8222e-05,-0.0038148,-6.0142e-05,-14.436,1.5312
24122,15.965,4.5455,0.1,0.0001809,1807.8,0.00018066,1800.6,-5.8994e-05,-0.0030457,-6.0881e-05,-14.181,1.5169
24123,16.057,4.2727,0.1,0.00017853,1784,0.00017828,1776.8,-5.8205e-05,-0.0050928,-6.0105e-05,-14.286,1.5315
24124,15.965,4.3636,0.1,0.00018082,1807,0.00018058,1799.9,-5.8977e-05,-0.0043777,-6.0839e-05,-13.995,1.5172
24125,16.057,4.0909,0.1,0.00017846,1783.4,0.00017822,1776.3,-5.819e-05,-0.0062215,-6.0074e-05,-14.162,1.5318
24126,15.965,4.1818,0.1,0.00018075,1806.3,0.00018051,1799.3,-5.8962e-05,-0.0055697,-6.0803e-05,-13.839,1.5175
24127,16.057,3.9091,0.1,0.00017841,1782.9,0.00017817,1775.8,-5.8178e-05,-0.0071908,-6.0048e-05,-14.062,1.532
24128,15.965,4,0.1,0.00018069,1805.7,0.00018045,1798.8,-5.8948e-05,-0.0066123,-6.0772e-05,-13.709,1.5178
24129,16.057,3.7273,0.1,0.00017837,1782.4,0.00017812,1775.4,-5.8167e-05,-0.0079932,-6.0027e-05,-13.983,1.5322
24130,15.965,3.8182,0.1,0.00018064,1805.2,0.00018041,1798.3,-5.8938e-05,-0.0074938,-6.0747e-05,-13.604,1.518
24131,16.057,3.5455,0.1,0.00017833,1782.1,0.00017809,1775.1,-5.8159e-05,-0.0086232,-6.0011e-05,-13.923,1.5323
24132,15.965,3.6364,0.1,0.0001806,1804.8,0.00018037,1798,-5.8929e-05,-0.0082086,-6.0727e-05,-13.522,1.5181
24133,16.057,3.3636,0.1,0.00017831,1781.9,0.00017807,1774.9,-5.8154e-05,-0.0090754,-6e-05,-13.881,1.5324
24134,15.965,3.4545,0.1,0.00018057,1804.5,0.00018034,1797.7,-5.8922e-05,-0.0087496,-6.0713e-05,-13.461,1.5182
24135,16.057,3.1818,0.1,0.00017829,1781.7,0.00017806,1774.7,-5.815e-05,-0.0093479,-5.9993e-05,-13.856,1.5324
24136,15.965,3.2727,0.1,0.00018056,1804.3,0.00018032,1797.6,-5.8918e-05,-0.0091119,-6.0703e-05,-13.422,1.5183
24137,16.057,3,0.1,0.00017829,1781.7,0.00017805,1774.7,-5.8149e-05,-0.0094392,-5.9991e-05,-13.848,1.5325
24138,15.965,3.0909,0.1,0.00018055,1804.2,0.00018031,1797.5,-5.8916e-05,-0.0092937,-6.0698e-05,-13.402,1.5184
24139,16.057,2.8182,0.1,0.00017829,1781.7,0.00017806,1774.7,-5.815e-05,-0.0093487,-5.9993e-05,-13.856,1.5324
24140,15.965,2.9091,0.1,0.00018055,1804.2,0.00018031,1797.5,-5.8916e-05,-0.0092936,-6.0698e-05,-13.402,1.5184
24141,16.057,2.6364,0.1,0.00017831,1781.9,0.00017807,1774.9,-5.8154e-05,-0.0090762,-6e-05,-13.881,1.5324
24142,15.965,2.7273,0.1,0.00018056,1804.3,0.00018032,1797.6,-5.8918e-05,-0.009112,-6.0703e-05,-13.422,1.5183
24143,16.057,2.4545,0.1,0.00017833,1782.1,0.00017809,1775.1,-5.8159e-05,-0.0086233,-6.0011e-05,-13.923,1.5323
24144,15.965,2.5455,0.1,0.00018057,1804.5,0.00018034,1797.7,-5.8922e-05,-0.0087496,-6.0713e-05,-13.461,1.5182
24145,16.057,2.2727,0.1,0.00017837,1782.4,0.00017812,1775.4,-5.8167e-05,-0.0079936,-6.0027e-05,-13.982,1.5322
24146,15.965,2.3636,0.1,0.0001806,1804.8,0.00018037,1798,-5.8929e-05,-0.0082086,-6.0727e-05,-13.522,1.5181
24147,16.057,2.0909,0.1,0.00017841,1782.9,0.00017817,1775.8,-5.8178e-05,-0.0071915,-6.0048e-05,-14.062,1.532
24148,15.965,2.1818,0.1,0.00018064,1805.2,0.00018041,1798.3,-5.8938e-05,-0.0074943,-6.0747e-05,-13.604,1.518
24149,16.057,1.9091,0.1,0.00017846,1783.4,0.00017822,1776.3,-5.819e-05,-0.0062218,-6.0074e-05,-14.162,1.5318
24150,15.965,2,0.1,0.00018069,1805.7,0.00018045,1798.8,-5.8948e-05,-0.0066125,-6.0772e-05,-13.709,1.5178
24151,16.057,1.7273,0.1,0.00017853,1784,0.00017828,1776.8,-5.8205e-05,-0.0050929,-6.0105e-05,-14.286,1.5315
24152,15.965,1.8182,0.1,0.00018075,1806.3,0.00018051,1799.3,-5.8962e-05,-0.0055701,-6.0803e-05,-13.838,1.5175
24153,16.057,1.5455,0.1,0.0001786,1784.8,0.00017835,1777.5,-5.8222e-05,-0.0038146,-6.0142e-05,-14.436,1.5312
24154,15.965,1.6364,0.1,0.00018082,1807,0.00018058,1799.9,-5.8977e-05,-0.0043778,-6.0839e-05,-13.995,1.5172
24155,16.057,1.3636,0.1,0.00017868,1785.6,0.00017843,1778.3,-5.8241e-05,-0.0023998,-6.0185e-05,-14.614,1.5309
24156,15.965,1.4545,0.1,0.0001809,1807.8,0.00018066,1800.6,-5.8994e-05,-0.0030451,-6.0881e-05,-14.181,1.5169
24157,16.057,1.1818,0.1,0.00017878,1786.6,0.00017852,1779.1,-5.8262e-05,-0.00085456,-6.0235e-05,-14.823,1.5305
24158,15.965,1.2727,0.1,0.00018099,1808.7,0.00018075,1801.5,-5.9014e-05,-0.0015915,-6.093e-05,-14.399,1.5166
24159,16.057,1,0.1,0.00017889,1787.7,0.00017863,1780.1,-5.8286e-05,0.00077578,-6.0291e-05,-15.067,1.5301
24160,15.965,1.0909,0.1,0.0001811,1809.7,0.00018085,1802.4,-5.9035e-05,-1.1601e-05,-6.0985e-05,-14.651,1.5162
24161,16.057,0.81818,0.1,0.00017901,1788.9,0.00017874,1781.2,-5.8311e-05,0.002595,-6.0355e-05,-15.349,1.5296
24162,15.965,0.90909,0.1,0.00018122,1810.9,0.00018096,1803.4,-5.9059e-05,0.0016001,-6.1048e-05,-14.941,1.5157
24163,16.057,0.63636,0.1,0.00017915,1790.2,0.00017887,1782.3,-5.8339e-05,0.0041014,-6.0426e-05,-15.676,1.5291
24164,15.965,0.72727,0.1,0.00018134,1812.2,0.00018108,1804.5,-5.9085e-05,0.0035376,-6.1118e-05,-15.271,1.5152
24165,16.057,0.45455,0.1,0.0001793,1791.8,0.00017902,1783.7,-5.837e-05,0.0079376,-6.0514e-05,-16.104,1.5286
24166,15.965,0.54545,0.1,0.00018149,1813.6,0.00018122,1805.8,-5.9114e-05,0.0045282,-6.1198e-05,-15.653,1.5147
24167,16.057,0.27273,0.1,0.00017962,1795,0.00017931,1786.1,-5.8403e-05,0.0063982,-6.0739e-05,-17.546,1.528
24168,15.965,0.36364,0.1,0.00018166,1815.4,0.00018138,1807.2,-5.9144e-05,0.010906,-6.13e-05,-16.188,1.5142
24169,15.965,0.18182,0.1,0.00018214,1820.1,0.00018181,1810.7,-5.9178e-05,0.00016245,-6.1663e-05,-18.674,1.5136
24170,16.057,0.090909,0.1,0.00017896,1788.4,0.00017875,1782.1,-5.8435e-05,0.0040185,-6.0106e-05,-12.556,1.5274
24171,15.873,5.7273,0.1,0.00018416,1840.3,0.00018386,1831.7,-5.9919e-05,0.0061473,-6.2207e-05,-17.186,1.4997
24172,15.78,5.8182,0.1,0.00018669,1865.6,0.00018637,1856.4,-6.0697e-05,0.00025364,-6.3136e-05,-18.327,1.4853
24173,15.873,5.9091,0.1,0.00018352,1833.9,0.00018331,1827.7,-5.9949e-05,0.0038807,-6.1591e-05,-12.329,1.4991
24174,15.873,5.5455,0.1,0.00018384,1837.2,0.00018357,1829.3,-5.9888e-05,0.0076088,-6.1979e-05,-15.701,1.5003
24175,15.78,5.6364,0.1,0.00018621,1860.9,0.00018594,1852.9,-6.0665e-05,0.010398,-6.2771e-05,-15.814,1.4859
24176,15.873,5.3636,0.1,0.00018368,1835.6,0.00018342,1827.9,-5.986e-05,0.003982,-6.1885e-05,-15.216,1.5009
24177,15.78,5.4545,0.1,0.00018604,1859.1,0.00018577,1851.4,-6.0636e-05,0.0043809,-6.2663e-05,-15.221,1.4865
24178,15.873,5.1818,0.1,0.00018354,1834.2,0.00018329,1826.7,-5.9833e-05,0.0025488,-6.1808e-05,-14.832,1.5014
24179,15.78,5.2727,0.1,0.00018589,1857.6,0.00018563,1850.2,-6.061e-05,0.0034422,-6.2578e-05,-14.782,1.487
24180,15.873,5,0.1,0.00018342,1832.9,0.00018317,1825.6,-5.9809e-05,0.00081027,-6.1738e-05,-14.494,1.5018
24181,15.78,5.0909,0.1,0.00018576,1856.3,0.00018551,1849.1,-6.0585e-05,0.0015991,-6.2502e-05,-14.395,1.4875
24182,15.873,4.8182,0.1,0.00018331,1831.8,0.00018306,1824.7,-5.9787e-05,-0.00075837,-6.1676e-05,-14.196,1.5023
24183,15.78,4.9091,0.1,0.00018564,1855.1,0.00018539,1848,-6.0563e-05,5.3493e-05,-6.2433e-05,-14.05,1.488
24184,15.873,4.6364,0.1,0.00018321,1830.8,0.00018297,1823.8,-5.9767e-05,-0.0022534,-6.1622e-05,-13.936,1.5026
24185,15.78,4.7273,0.1,0.00018553,1854,0.00018529,1847.1,-6.0543e-05,-0.0014691,-6.2372e-05,-13.745,1.4884
24186,15.873,4.4545,0.1,0.00018312,1829.9,0.00018288,1823,-5.9749e-05,-0.0036309,-6.1574e-05,-13.71,1.503
24187,15.78,4.5455,0.1,0.00018543,1853.1,0.0001852,1846.3,-6.0525e-05,-0.0028793,-6.2318e-05,-13.478,1.4888
24188,15.873,4.2727,0.1,0.00018304,1829.2,0.00018281,1822.4,-5.9734e-05,-0.0048825,-6.1532e-05,-13.517,1.5033
24189,15.78,4.3636,0.1,0.00018535,1852.2,0.00018512,1845.6,-6.0508e-05,-0.00418,-6.2271e-05,-13.247,1.4891
24190,15.873,4.0909,0.1,0.00018298,1828.5,0.00018275,1821.8,-5.972e-05,-0.0059933,-6.1497e-05,-13.354,1.5036
24191,15.78,4.1818,0.1,0.00018528,1851.5,0.00018505,1844.9,-6.0494e-05,-0.0053513,-6.223e-05,-13.049,1.4894
24192,15.873,3.9091,0.1,0.00018292,1827.9,0.00018269,1821.3,-5.9708e-05,-0.0069525,-6.1467e-05,-13.22,1.5038
24193,15.78,4,0.1,0.00018521,1850.9,0.00018499,1844.4,-6.0482e-05,-0.0063802,-6.2196e-05,-12.882,1.4896
24194,15.873,3.7273,0.1,0.00018288,1827.5,0.00018265,1820.9,-5.9699e-05,-0.0077503,-6.1443e-05,-13.113,1.504
24195,15.78,3.8182,0.1,0.00018516,1850.4,0.00018494,1843.9,-6.0472e-05,-0.007256,-6.2168e-05,-12.746,1.4898
24196,15.873,3.5455,0.1,0.00018284,1827.1,0.00018262,1820.6,-5.9692e-05,-0.0083791,-6.1425e-05,-13.03,1.5041
24197,15.78,3.6364,0.1,0.00018512,1849.9,0.0001849,1843.6,-6.0464e-05,-0.0079677,-6.2145e-05,-12.639,1.49
24198,15.873,3.3636,0.1,0.00018282,1826.9,0.00018259,1820.4,-5.9686e-05,-0.0088323,-6.1412e-05,-12.972,1.5042
24199,15.78,3.4545,0.1,0.00018509,1849.6,0.00018488,1843.3,-6.0458e-05,-0.0085098,-6.2128e-05,-12.559,1.4901
24200,15.873,3.1818,0.1,0.0001828,1826.8,0.00018258,1820.2,-5.9683e-05,-0.0091053,-6.1404e-05,-12.938,1.5043
24201,15.78,3.2727,0.1,0.00018507,1849.4,0.00018486,1843.2,-6.0454e-05,-0.0088729,-6.2117e-05,-12.507,1.4902
24202,15.873,3,0.1,0.0001828,1826.7,0.00018257,1820.2,-5.9682e-05,-0.0091961,-6.1401e-05,-12.927,1.5043
24203,15.78,3.0909,0.1,0.00018506,1849.3,0.00018485,1843.1,-6.0452e-05,-0.0090557,-6.2112e-05,-12.481,1.4902
24204,15.873,2.8182,0.1,0.0001828,1826.8,0.00018258,1820.2,-5.9683e-05,-0.0091045,-6.1404e-05,-12.938,1.5043
24205,15.78,2.9091,0.1,0.00018506,1849.3,0.00018485,1843.1,-6.0452e-05,-0.0090556,-6.2112e-05,-12.481,1.4902
24206,15.873,2.6364,0.1,0.00018282,1826.9,0.00018259,1820.4,-5.9686e-05,-0.0088316,-6.1412e-05,-12.972,1.5042
24207,15.78,2.7273,0.1,0.00018507,1849.4,0.00018486,1843.2,-6.0454e-05,-0.0088729,-6.2117e-05,-12.507,1.4902
24208,15.873,2.4545,0.1,0.00018284,1827.1,0.00018262,1820.6,-5.9692e-05,-0.0083789,-6.1425e-05,-13.03,1.5041
24209,15.78,2.5455,0.1,0.00018509,1849.6,0.00018488,1843.3,-6.0458e-05,-0.0085096,-6.2128e-05,-12.559,1.4901
24210,15.873,2.2727,0.1,0.00018288,1827.5,0.00018265,1820.9,-5.9699e-05,-0.0077503,-6.1443e-05,-13.113,1.504
24211,15.78,2.3636,0.1,0.00018512,1849.9,0.0001849,1843.6,-6.0464e-05,-0.0079677,-6.2145e-05,-12.639,1.49
24212,15.873,2.0909,0.1,0.00018292,1827.9,0.00018269,1821.3,-5.9708e-05,-0.0069525,-6.1467e-05,-13.22,1.5038
24213,15.78,2.1818,0.1,0.00018516,1850.4,0.00018494,1843.9,-6.0472e-05,-0.0072561,-6.2168e-05,-12.746,1.4898
24214,15.873,1.9091,0.1,0.00018298,1828.5,0.00018275,1821.8,-5.972e-05,-0.0059936,-6.1497e-05,-13.354,1.5036
24215,15.78,2,0.1,0.00018521,1850.9,0.00018499,1844.4,-6.0482e-05,-0.0063803,-6.2196e-05,-12.882,1.4896
24216,15.873,1.7273,0.1,0.00018304,1829.2,0.00018281,1822.4,-5.9734e-05,-0.0048827,-6.1532e-05,-13.517,1.5033
24217,15.78,1.8182,0.1,0.00018528,1851.5,0.00018505,1844.9,-6.0494e-05,-0.0053509,-6.223e-05,-13.049,1.4894
24218,15.873,1.5455,0.1,0.00018312,1829.9,0.00018288,1823,-5.9749e-05,-0.0036306,-6.1574e-05,-13.71,1.503
24219,15.78,1.6364,0.1,0.00018535,1852.2,0.00018512,1845.6,-6.0508e-05,-0.0041808,-6.2271e-05,-13.247,1.4891
24220,15.873,1.3636,0.1,0.00018321,1830.8,0.00018297,1823.8,-5.9767e-05,-0.0022533,-6.1622e-05,-13.936,1.5026
24221,15.78,1.4545,0.1,0.00018543,1853.1,0.0001852,1846.3,-6.0525e-05,-0.0028794,-6.2318e-05,-13.478,1.4888
24222,15.873,1.1818,0.1,0.00018331,1831.8,0.00018306,1824.7,-5.9787e-05,-0.00075871,-6.1676e-05,-14.196,1.5023
24223,15.78,1.2727,0.1,0.00018553,1854,0.00018529,1847.1,-6.0543e-05,-0.001469,-6.2372e-05,-13.745,1.4884
24224,15.873,1,0.1,0.00018342,1832.9,0.00018317,1825.6,-5.9809e-05,0.00080915,-6.1738e-05,-14.494,1.5018
24225,15.78,1.0909,0.1,0.00018564,1855.1,0.00018539,1848,-6.0563e-05,5.3185e-05,-6.2433e-05,-14.05,1.488
24226,15.873,0.81818,0.1,0.00018354,1834.2,0.00018329,1826.7,-5.9833e-05,0.0025462,-6.1808e-05,-14.832,1.5014
24227,15.78,0.90909,0.1,0.00018576,1856.3,0.00018551,1849.1,-6.0585e-05,0.0015973,-6.2502e-05,-14.395,1.4875
24228,15.873,0.63636,0.1,0.00018368,1835.6,0.00018342,1827.9,-5.986e-05,0.0039802,-6.1885e-05,-15.216,1.5009
24229,15.78,0.72727,0.1,0.00018589,1857.6,0.00018563,1850.2,-6.061e-05,0.0034392,-6.2578e-05,-14.782,1.487
24230,15.873,0.45455,0.1,0.00018384,1837.2,0.00018357,1829.3,-5.9888e-05,0.0076093,-6.1979e-05,-15.701,1.5003
24231,15.78,0.54545,0.1,0.00018604,1859.1,0.00018577,1851.4,-6.0636e-05,0.0043803,-6.2663e-05,-15.221,1.4865
24232,15.873,0.27273,0.1,0.00018416,1840.3,0.00018386,1831.7,-5.9919e-05,0.0061484,-6.2207e-05,-17.186,1.4997
24233,15.78,0.36364,0.1,0.00018621,1860.9,0.00018594,1852.9,-6.0665e-05,0.010397,-6.2771e-05,-15.814,1.4859
24234,15.78,0.18182,0.1,0.00018669,1865.6,0.00018637,1856.4,-6.0697e-05,0.00025417,-6.3136e-05,-18.327,1.4853
24235,15.873,0.090909,0.1,0.00018352,1833.9,0.00018331,1827.7,-5.9949e-05,0.0038806,-6.1591e-05,-12.329,1.4991
24236,15.688,5.7273,0.1,0.00018872,1885.9,0.00018843,1877.4,-6.1442e-05,0.0059007,-6.3682e-05,-16.827,1.4716
24237,15.596,5.8182,0.1,0.00019126,1911.3,0.00019095,1902.2,-6.2222e-05,0.000365,-6.4616e-05,-17.983,1.4572
24238,15.688,5.9091,0.1,0.0001881,1879.7,0.00018789,1873.6,-6.1471e-05,0.0037396,-6.3082e-05,-12.105,1.4709
24239,15.688,5.5455,0.1,0.0001884,1882.7,0.00018814,1875,-6.1413e-05,0.0072802,-6.345e-05,-15.299,1.4722
24240,15.596,5.6364,0.1,0.00019079,1906.5,0.00019052,1898.8,-6.2192e-05,0.0099048,-6.4248e-05,-15.44,1.4578
24241,15.688,5.3636,0.1,0.00018824,1881.1,0.00018798,1873.7,-6.1386e-05,0.0038598,-6.3351e-05,-14.757,1.4727
24242,15.596,5.4545,0.1,0.00019061,1904.7,0.00019035,1897.3,-6.2166e-05,0.0042468,-6.4135e-05,-14.79,1.4584
24243,15.688,5.1818,0.1,0.0001881,1879.7,0.00018785,1872.5,-6.1362e-05,0.0024994,-6.3267e-05,-14.315,1.4732
24244,15.596,5.2727,0.1,0.00019046,1903.2,0.00019021,1896.1,-6.2141e-05,0.0033587,-6.4044e-05,-14.293,1.459
24245,15.688,5,0.1,0.00018797,1878.4,0.00018773,1871.4,-6.1339e-05,0.00084237,-6.3192e-05,-13.921,1.4737
24246,15.596,5.0909,0.1,0.00019032,1901.9,0.00019008,1894.9,-6.2118e-05,0.0016103,-6.3961e-05,-13.848,1.4595
24247,15.688,4.8182,0.1,0.00018786,1877.3,0.00018762,1870.4,-6.1319e-05,-0.00066363,-6.3125e-05,-13.569,1.4742
24248,15.596,4.9091,0.1,0.0001902,1900.6,0.00018996,1893.9,-6.2097e-05,0.00013337,-6.3887e-05,-13.448,1.4599
24249,15.688,4.6364,0.1,0.00018775,1876.2,0.00018752,1869.6,-6.13e-05,-0.0021078,-6.3065e-05,-13.258,1.4745
24250,15.596,4.7273,0.1,0.00019009,1899.5,0.00018986,1893,-6.2079e-05,-0.001331,-6.3821e-05,-13.09,1.4604
24251,15.688,4.4545,0.1,0.00018766,1875.3,0.00018744,1868.8,-6.1284e-05,-0.0034474,-6.3011e-05,-12.985,1.4749
24252,15.596,4.5455,0.1,0.00018999,1898.5,0.00018977,1892.1,-6.2062e-05,-0.0026975,-6.3761e-05,-12.773,1.4607
24253,15.688,4.2727,0.1,0.00018758,1874.5,0.00018736,1868.1,-6.1269e-05,-0.0046737,-6.2965e-05,-12.748,1.4752
24254,15.596,4.3636,0.1,0.0001899,1897.7,0.00018968,1891.4,-6.2047e-05,-0.0039661,-6.3709e-05,-12.496,1.4611
24255,15.688,4.0909,0.1,0.00018751,1873.8,0.00018729,1867.5,-6.1257e-05,-0.0057687,-6.2926e-05,-12.547,1.4755
24256,15.596,4.1818,0.1,0.00018982,1896.9,0.00018961,1890.8,-6.2034e-05,-0.0051173,-6.3664e-05,-12.256,1.4614
24257,15.688,3.9091,0.1,0.00018745,1873.2,0.00018724,1867,-6.1246e-05,-0.0067192,-6.2892e-05,-12.379,1.4757
24258,15.596,4,0.1,0.00018976,1896.3,0.00018955,1890.2,-6.2023e-05,-0.006135,-6.3626e-05,-12.053,1.4616
24259,15.688,3.7273,0.1,0.00018741,1872.8,0.00018719,1866.6,-6.1237e-05,-0.0075133,-6.2866e-05,-12.243,1.4759
24260,15.596,3.8182,0.1,0.0001897,1895.7,0.0001895,1889.8,-6.2013e-05,-0.0070059,-6.3594e-05,-11.886,1.4618
24261,15.688,3.5455,0.1,0.00018737,1872.4,0.00018716,1866.3,-6.123e-05,-0.0081419,-6.2845e-05,-12.138,1.476
24262,15.596,3.6364,0.1,0.00018966,1895.3,0.00018946,1889.4,-6.2006e-05,-0.0077176,-6.3569e-05,-11.754,1.462
24263,15.688,3.3636,0.1,0.00018734,1872.1,0.00018714,1866.1,-6.1226e-05,-0.0085965,-6.283e-05,-12.064,1.4761
24264,15.596,3.4545,0.1,0.00018963,1895,0.00018943,1889.1,-6.2e-05,-0.0082614,-6.355e-05,-11.655,1.4621
24265,15.688,3.1818,0.1,0.00018733,1872,0.00018712,1865.9,-6.1223e-05,-0.008871,-6.2821e-05,-12.02,1.4762
24266,15.596,3.2727,0.1,0.00018961,1894.8,0.00018941,1889,-6.1997e-05,-0.0086271,-6.3538e-05,-11.589,1.4622
24267,15.688,3,0.1,0.00018732,1871.9,0.00018712,1865.9,-6.1222e-05,-0.0089634,-6.2818e-05,-12.005,1.4762
24268,15.596,3.0909,0.1,0.0001896,1894.7,0.0001894,1888.9,-6.1995e-05,-0.0088118,-6.3532e-05,-11.557,1.4622
24269,15.688,2.8182,0.1,0.00018733,1872,0.00018712,1865.9,-6.1223e-05,-0.0088717,-6.2821e-05,-12.02,1.4762
24270,15.596,2.9091,0.1,0.0001896,1894.7,0.0001894,1888.9,-6.1995e-05,-0.0088118,-6.3532e-05,-11.557,1.4622
24271,15.688,2.6364,0.1,0.00018734,1872.1,0.00018714,1866.1,-6.1226e-05,-0.0085969,-6.283e-05,-12.064,1.4761
24272,15.596,2.7273,0.1,0.00018961,1894.8,0.00018941,1889,-6.1997e-05,-0.0086273,-6.3538e-05,-11.589,1.4622
24273,15.688,2.4545,0.1,0.00018737,1872.4,0.00018716,1866.3,-6.123e-05,-0.0081418,-6.2845e-05,-12.138,1.476
24274,15.596,2.5455,0.1,0.00018963,1895,0.00018943,1889.1,-6.2e-05,-0.0082612,-6.355e-05,-11.655,1.4621
24275,15.688,2.2727,0.1,0.00018741,1872.8,0.00018719,1866.6,-6.1237e-05,-0.0075134,-6.2866e-05,-12.243,1.4759
24276,15.596,2.3636,0.1,0.00018966,1895.3,0.00018946,1889.4,-6.2006e-05,-0.0077171,-6.3569e-05,-11.754,1.462
24277,15.688,2.0909,0.1,0.00018745,1873.2,0.00018724,1867,-6.1246e-05,-0.0067194,-6.2892e-05,-12.379,1.4757
24278,15.596,2.1818,0.1,0.0001897,1895.7,0.0001895,1889.8,-6.2013e-05,-0.0070063,-6.3594e-05,-11.886,1.4618
24279,15.688,1.9091,0.1,0.00018751,1873.8,0.00018729,1867.5,-6.1257e-05,-0.0057681,-6.2926e-05,-12.547,1.4755
24280,15.596,2,0.1,0.00018976,1896.3,0.00018955,1890.2,-6.2023e-05,-0.0061357,-6.3626e-05,-12.053,1.4616
24281,15.688,1.7273,0.1,0.00018758,1874.5,0.00018736,1868.1,-6.1269e-05,-0.0046739,-6.2965e-05,-12.748,1.4752
24282,15.596,1.8182,0.1,0.00018982,1896.9,0.00018961,1890.8,-6.2034e-05,-0.005117,-6.3664e-05,-12.256,1.4614
24283,15.688,1.5455,0.1,0.00018766,1875.3,0.00018744,1868.8,-6.1284e-05,-0.0034486,-6.3011e-05,-12.985,1.4749
24284,15.596,1.6364,0.1,0.0001899,1897.7,0.00018968,1891.4,-6.2047e-05,-0.0039674,-6.3709e-05,-12.496,1.4611
24285,15.688,1.3636,0.1,0.00018775,1876.2,0.00018752,1869.6,-6.13e-05,-0.0021079,-6.3065e-05,-13.258,1.4745
24286,15.596,1.4545,0.1,0.00018999,1898.5,0.00018977,1892.1,-6.2062e-05,-0.0026981,-6.3761e-05,-12.773,1.4607
24287,15.688,1.1818,0.1,0.00018786,1877.3,0.00018762,1870.4,-6.1319e-05,-0.00066354,-6.3125e-05,-13.569,1.4742
24288,15.596,1.2727,0.1,0.00019009,1899.5,0.00018986,1893,-6.2079e-05,-0.001331,-6.3821e-05,-13.09,1.4604
24289,15.688,1,0.1,0.00018797,1878.4,0.00018773,1871.4,-6.1339e-05,0.00084144,-6.3192e-05,-13.921,1.4737
24290,15.596,1.0909,0.1,0.0001902,1900.7,0.00018996,1893.9,-6.2097e-05,0.00013289,-6.3887e-05,-13.448,1.4599
24291,15.688,0.81818,0.1,0.0001881,1879.7,0.00018785,1872.5,-6.1362e-05,0.0024973,-6.3267e-05,-14.315,1.4732
24292,15.596,0.90909,0.1,0.00019032,1901.9,0.00019008,1894.9,-6.2118e-05,0.0016095,-6.3961e-05,-13.848,1.4595
24293,15.688,0.63636,0.1,0.00018824,1881.1,0.00018798,1873.7,-6.1387e-05,0.0038579,-6.3351e-05,-14.757,1.4727
24294,15.596,0.72727,0.1,0.00019046,1903.2,0.00019021,1896.1,-6.2141e-05,0.0033564,-6.4044e-05,-14.293,1.459
24295,15.688,0.45455,0.1,0.0001884,1882.7,0.00018814,1875,-6.1413e-05,0.0072789,-6.345e-05,-15.299,1.4722
24296,15.596,0.54545,0.1,0.00019061,1904.7,0.00019035,1897.3,-6.2166e-05,0.0042462,-6.4135e-05,-14.79,1.4584
24297,15.688,0.27273,0.1,0.00018872,1885.9,0.00018843,1877.4,-6.1442e-05,0.0059,-6.3683e-05,-16.827,1.4716
24298,15.596,0.36364,0.1,0.00019079,1906.5,0.00019052,1898.8,-6.2192e-05,0.0099049,-6.4248e-05,-15.44,1.4578
24299,15.596,0.18182,0.1,0.00019126,1911.3,0.00019095,1902.2,-6.2222e-05,0.00036497,-6.4616e-05,-17.983,1.4572
24300,15.688,0.090909,0.1,0.0001881,1879.7,0.00018789,1873.6,-6.1471e-05,0.0037412,-6.3082e-05,-12.105,1.4709
24301,15.503,5.7273,0.1,0.0001933,1931.7,0.00019302,1923.4,-6.2972e-05,0.0056845,-6.5165e-05,-16.469,1.4435
24302,15.411,5.8182,0.1,0.00019585,1957.1,0.00019554,1948.3,-6.3754e-05,0.00048451,-6.6102e-05,-17.64,1.4292
24303,15.503,5.9091,0.1,0.00019269,1925.6,0.00019249,1919.6,-6.2999e-05,0.0036285,-6.458e-05,-11.882,1.4429
24304,15.503,5.5455,0.1,0.00019298,1928.5,0.00019273,1921,-6.2945e-05,0.006979,-6.4928e-05,-14.897,1.4441
24305,15.411,5.6364,0.1,0.00019538,1952.4,0.00019512,1944.9,-6.3726e-05,0.0094099,-6.5733e-05,-15.066,1.4299
24306,15.503,5.3636,0.1,0.00019282,1926.8,0.00019257,1919.7,-6.292e-05,0.0037669,-6.4823e-05,-14.296,1.4447
24307,15.411,5.4545,0.1,0.0001952,1950.6,0.00019495,1943.4,-6.3702e-05,0.0041134,-6.5613e-05,-14.358,1.4305
24308,15.503,5.1818,0.1,0.00019267,1925.4,0.00019243,1918.5,-6.2897e-05,0.0024798,-6.4734e-05,-13.796,1.4452
24309,15.411,5.2727,0.1,0.00019504,1949.1,0.0001948,1942.1,-6.3679e-05,0.0032763,-6.5516e-05,-13.801,1.431
24310,15.503,5,0.1,0.00019254,1924.1,0.00019231,1917.4,-6.2876e-05,0.00090503,-6.4652e-05,-13.345,1.4457
24311,15.411,5.0909,0.1,0.0001949,1947.7,0.00019467,1941,-6.3658e-05,0.0016239,-6.5428e-05,-13.297,1.4315
24312,15.503,4.8182,0.1,0.00019242,1922.9,0.0001922,1916.4,-6.2857e-05,-0.00053661,-6.4579e-05,-12.939,1.4462
24313,15.411,4.9091,0.1,0.00019477,1946.4,0.00019455,1939.9,-6.3638e-05,0.00021676,-6.5348e-05,-12.841,1.432
24314,15.503,4.6364,0.1,0.00019231,1921.8,0.0001921,1915.5,-6.284e-05,-0.0019298,-6.4514e-05,-12.576,1.4466
24315,15.411,4.7273,0.1,0.00019466,1945.3,0.00019445,1939,-6.3621e-05,-0.0011882,-6.5275e-05,-12.429,1.4324
24316,15.503,4.4545,0.1,0.00019222,1920.9,0.00019201,1914.7,-6.2825e-05,-0.0032317,-6.4455e-05,-12.255,1.4469
24317,15.411,4.5455,0.1,0.00019456,1944.2,0.00019435,1938.2,-6.3606e-05,-0.0025107,-6.5211e-05,-12.062,1.4328
24318,15.503,4.2727,0.1,0.00019214,1920,0.00019193,1914,-6.2811e-05,-0.0044314,-6.4405e-05,-11.974,1.4473
24319,15.411,4.3636,0.1,0.00019447,1943.3,0.00019426,1937.4,-6.3592e-05,-0.0037471,-6.5154e-05,-11.738,1.4332
24320,15.503,4.0909,0.1,0.00019207,1919.3,0.00019186,1913.4,-6.28e-05,-0.0055114,-6.4361e-05,-11.734,1.4475
24321,15.411,4.1818,0.1,0.00019439,1942.5,0.00019419,1936.8,-6.358e-05,-0.0048782,-6.5104e-05,-11.457,1.4335
24322,15.503,3.9091,0.1,0.000192,1918.7,0.00019181,1912.9,-6.279e-05,-0.0064553,-6.4324e-05,-11.532,1.4478
24323,15.411,4,0.1,0.00019432,1941.9,0.00019413,1936.2,-6.357e-05,-0.0058866,-6.5062e-05,-11.217,1.4337
24324,15.503,3.7273,0.1,0.00019196,1918.2,0.00019176,1912.5,-6.2782e-05,-0.0072489,-6.4294e-05,-11.368,1.448
24325,15.411,3.8182,0.1,0.00019426,1941.3,0.00019407,1935.8,-6.3561e-05,-0.0067543,-6.5027e-05,-11.018,1.4339
24326,15.503,3.5455,0.1,0.00019192,1917.9,0.00019172,1912.2,-6.2776e-05,-0.00788,-6.4271e-05,-11.241,1.4481
24327,15.411,3.6364,0.1,0.00019422,1940.9,0.00019403,1935.4,-6.3555e-05,-0.0074686,-6.4999e-05,-10.86,1.4341
24328,15.503,3.3636,0.1,0.00019189,1917.6,0.0001917,1912,-6.2771e-05,-0.0083379,-6.4254e-05,-11.151,1.4482
24329,15.411,3.4545,0.1,0.00019419,1940.5,0.000194,1935.1,-6.355e-05,-0.0080164,-6.4978e-05,-10.742,1.4342
24330,15.503,3.1818,0.1,0.00019187,1917.4,0.00019168,1911.8,-6.2769e-05,-0.0086158,-6.4245e-05,-11.097,1.4483
24331,15.411,3.2727,0.1,0.00019416,1940.3,0.00019398,1935,-6.3546e-05,-0.0083868,-6.4964e-05,-10.663,1.4343
24332,15.503,3,0.1,0.00019187,1917.4,0.00019168,1911.8,-6.2768e-05,-0.0087088,-6.4241e-05,-11.079,1.4483
24333,15.411,3.0909,0.1,0.00019415,1940.2,0.00019397,1934.9,-6.3545e-05,-0.0085738,-6.4957e-05,-10.624,1.4344
24334,15.503,2.8182,0.1,0.00019187,1917.4,0.00019168,1911.8,-6.2769e-05,-0.0086153,-6.4245e-05,-11.097,1.4483
24335,15.411,2.9091,0.1,0.00019415,1940.2,0.00019397,1934.9,-6.3545e-05,-0.0085736,-6.4957e-05,-10.624,1.4344
24336,15.503,2.6364,0.1,0.00019189,1917.6,0.0001917,1912,-6.2771e-05,-0.0083375,-6.4254e-05,-11.151,1.4482
24337,15.411,2.7273,0.1,0.00019416,1940.3,0.00019398,1935,-6.3546e-05,-0.0083868,-6.4964e-05,-10.663,1.4343
24338,15.503,2.4545,0.1,0.00019192,1917.9,0.00019172,1912.2,-6.2776e-05,-0.0078793,-6.4271e-05,-11.241,1.4481
24339,15.411,2.5455,0.1,0.00019419,1940.5,0.000194,1935.1,-6.355e-05,-0.0080167,-6.4978e-05,-10.742,1.4342
24340,15.503,2.2727,0.1,0.00019196,1918.2,0.00019176,1912.5,-6.2782e-05,-0.0072486,-6.4294e-05,-11.368,1.448
24341,15.411,2.3636,0.1,0.00019422,1940.9,0.00019403,1935.4,-6.3555e-05,-0.007468,-6.4999e-05,-10.86,1.4341
24342,15.503,2.0909,0.1,0.000192,1918.7,0.00019181,1912.9,-6.279e-05,-0.0064561,-6.4324e-05,-11.532,1.4478
24343,15.411,2.1818,0.1,0.00019426,1941.3,0.00019407,1935.8,-6.3561e-05,-0.006755,-6.5027e-05,-11.018,1.4339
24344,15.503,1.9091,0.1,0.00019207,1919.3,0.00019186,1913.4,-6.28e-05,-0.0055125,-6.4361e-05,-11.734,1.4475
24345,15.411,2,0.1,0.00019432,1941.9,0.00019413,1936.2,-6.357e-05,-0.0058869,-6.5062e-05,-11.217,1.4337
24346,15.503,1.7273,0.1,0.00019214,1920,0.00019193,1914,-6.2811e-05,-0.0044324,-6.4405e-05,-11.974,1.4473
24347,15.411,1.8182,0.1,0.00019439,1942.5,0.00019419,1936.8,-6.358e-05,-0.0048788,-6.5104e-05,-11.457,1.4335
24348,15.503,1.5455,0.1,0.00019222,1920.9,0.00019201,1914.7,-6.2825e-05,-0.0032323,-6.4455e-05,-12.255,1.4469
24349,15.411,1.6364,0.1,0.00019447,1943.3,0.00019426,1937.4,-6.3592e-05,-0.0037477,-6.5154e-05,-11.738,1.4332
24350,15.503,1.3636,0.1,0.00019231,1921.8,0.0001921,1915.5,-6.284e-05,-0.0019302,-6.4514e-05,-12.576,1.4466
24351,15.411,1.4545,0.1,0.00019456,1944.2,0.00019435,1938.2,-6.3606e-05,-0.0025116,-6.5211e-05,-12.062,1.4328
24352,15.503,1.1818,0.1,0.00019242,1922.9,0.0001922,1916.4,-6.2857e-05,-0.00053717,-6.4579e-05,-12.939,1.4462
24353,15.411,1.2727,0.1,0.00019466,1945.3,0.00019445,1939,-6.3621e-05,-0.0011883,-6.5275e-05,-12.429,1.4324
24354,15.503,1,0.1,0.00019254,1924.1,0.00019231,1917.4,-6.2876e-05,0.0009047,-6.4652e-05,-13.345,1.4457
24355,15.411,1.0909,0.1,0.00019477,1946.4,0.00019455,1940,-6.3639e-05,0.00021597,-6.5348e-05,-12.841,1.432
24356,15.503,0.81818,0.1,0.00019267,1925.4,0.00019243,1918.5,-6.2897e-05,0.0024789,-6.4734e-05,-13.796,1.4452
24357,15.411,0.90909,0.1,0.0001949,1947.7,0.00019467,1941,-6.3658e-05,0.0016238,-6.5428e-05,-13.297,1.4315
24358,15.503,0.63636,0.1,0.00019282,1926.8,0.00019257,1919.7,-6.292e-05,0.0037659,-6.4823e-05,-14.296,1.4447
24359,15.411,0.72727,0.1,0.00019504,1949.1,0.0001948,1942.1,-6.3679e-05,0.0032737,-6.5516e-05,-13.801,1.431
24360,15.503,0.45455,0.1,0.00019298,1928.5,0.00019273,1921,-6.2945e-05,0.0069799,-6.4928e-05,-14.897,1.4441
24361,15.411,0.54545,0.1,0.0001952,1950.6,0.00019495,1943.4,-6.3702e-05,0.0041132,-6.5613e-05,-14.358,1.4305
24362,15.503,0.27273,0.1,0.0001933,1931.7,0.00019302,1923.4,-6.2972e-05,0.0056852,-6.5165e-05,-16.469,1.4435
24363,15.411,0.36364,0.1,0.00019538,1952.4,0.00019512,1944.9,-6.3726e-05,0.0094116,-6.5733e-05,-15.066,1.4299
24364,15.411,0.18182,0.1,0.00019585,1957.1,0.00019554,1948.3,-6.3754e-05,0.00048373,-6.6102e-05,-17.64,1.4292
24365,15.503,0.090909,0.1,0.00019269,1925.6,0.00019249,1919.6,-6.2999e-05,0.0036275,-6.458e-05,-11.882,1.4429
24366,15.319,5.7273,0.1,0.0001979,1977.7,0.00019763,1969.6,-6.4508e-05,0.0054438,-6.6653e-05,-16.112,1.4156
24367,15.226,5.8182,0.1,0.00020046,2003.2,0.00020016,1994.5,-6.5293e-05,0.00060041,-6.7595e-05,-17.297,1.4014
24368,15.319,5.9091,0.1,0.00019731,1971.7,0.00019711,1965.9,-6.4533e-05,0.0034895,-6.6086e-05,-11.66,1.415
24369,15.319,5.5455,0.1,0.00019758,1974.5,0.00019733,1967.2,-6.4483e-05,0.0066488,-6.6413e-05,-14.493,1.4162
24370,15.226,5.6364,0.1,0.00019999,1998.5,0.00019974,1991.1,-6.5267e-05,0.0088994,-6.7223e-05,-14.691,1.402
24371,15.319,5.3636,0.1,0.00019741,1972.8,0.00019718,1965.8,-6.446e-05,0.0036463,-6.6302e-05,-13.832,1.4168
24372,15.226,5.4545,0.1,0.0001998,1996.7,0.00019956,1989.7,-6.5244e-05,0.0039681,-6.7098e-05,-13.922,1.4027
24373,15.319,5.1818,0.1,0.00019727,1971.3,0.00019704,1964.6,-6.4439e-05,0.0024338,-6.6206e-05,-13.273,1.4174
24374,15.226,5.2727,0.1,0.00019965,1995.1,0.00019942,1988.4,-6.5223e-05,0.0031818,-6.6994e-05,-13.303,1.4032
24375,15.319,5,0.1,0.00019713,1969.9,0.00019691,1963.5,-6.442e-05,0.0009431,-6.6119e-05,-12.764,1.4179
24376,15.226,5.0909,0.1,0.0001995,1993.7,0.00019928,1987.3,-6.5204e-05,0.0016286,-6.69e-05,-12.74,1.4037
24377,15.319,4.8182,0.1,0.00019701,1968.7,0.0001968,1962.5,-6.4402e-05,-0.00043335,-6.604e-05,-12.302,1.4183
24378,15.226,4.9091,0.1,0.00019937,1992.4,0.00019916,1986.2,-6.5186e-05,0.0002929,-6.6814e-05,-12.226,1.4042
24379,15.319,4.6364,0.1,0.0001969,1967.6,0.00019669,1961.6,-6.4387e-05,-0.0017739,-6.5968e-05,-11.886,1.4187
24380,15.226,4.7273,0.1,0.00019925,1991.2,0.00019905,1985.3,-6.5171e-05,-0.0010511,-6.6736e-05,-11.759,1.4047
24381,15.319,4.4545,0.1,0.0001968,1966.6,0.0001966,1960.9,-6.4373e-05,-0.0030375,-6.5905e-05,-11.516,1.4191
24382,15.226,4.5455,0.1,0.00019915,1990.1,0.00019895,1984.4,-6.5157e-05,-0.0023262,-6.6666e-05,-11.34,1.4051
24383,15.319,4.2727,0.1,0.00019671,1965.8,0.00019652,1960.2,-6.4361e-05,-0.0042121,-6.585e-05,-11.191,1.4194
24384,15.226,4.3636,0.1,0.00019905,1989.2,0.00019887,1983.7,-6.5144e-05,-0.0035315,-6.6604e-05,-10.969,1.4054
24385,15.319,4.0909,0.1,0.00019664,1965,0.00019645,1959.6,-6.435e-05,-0.0052783,-6.5802e-05,-10.911,1.4197
24386,15.226,4.1818,0.1,0.00019897,1988.4,0.00019879,1983,-6.5133e-05,-0.0046431,-6.6549e-05,-10.645,1.4057
24387,15.319,3.9091,0.1,0.00019658,1964.4,0.00019639,1959,-6.4341e-05,-0.006217,-6.5761e-05,-10.675,1.42
24388,15.226,4,0.1,0.0001989,1987.7,0.00019872,1982.4,-6.5124e-05,-0.0056431,-6.6503e-05,-10.368,1.406
24389,15.319,3.7273,0.1,0.00019652,1963.9,0.00019634,1958.6,-6.4334e-05,-0.0070112,-6.5728e-05,-10.482,1.4201
24390,15.226,3.8182,0.1,0.00019884,1987.1,0.00019867,1982,-6.5116e-05,-0.0065108,-6.6465e-05,-10.137,1.4062
24391,15.319,3.5455,0.1,0.00019649,1963.5,0.00019631,1958.3,-6.4328e-05,-0.0076472,-6.5702e-05,-10.332,1.4203
24392,15.226,3.6364,0.1,0.0001988,1986.6,0.00019863,1981.6,-6.511e-05,-0.00723,-6.6434e-05,-9.9525,1.4064
24393,15.319,3.3636,0.1,0.00019646,1963.2,0.00019628,1958.1,-6.4324e-05,-0.0081113,-6.5684e-05,-10.226,1.4204
24394,15.226,3.4545,0.1,0.00019876,1986.3,0.00019859,1981.3,-6.5106e-05,-0.0077852,-6.6411e-05,-9.8144,1.4065
24395,15.319,3.1818,0.1,0.00019644,1963,0.00019627,1957.9,-6.4322e-05,-0.0083932,-6.5673e-05,-10.162,1.4205
24396,15.226,3.2727,0.1,0.00019874,1986,0.00019857,1981.1,-6.5103e-05,-0.0081617,-6.6396e-05,-9.7224,1.4066
24397,15.319,3,0.1,0.00019643,1963,0.00019626,1957.9,-6.4321e-05,-0.0084879,-6.567e-05,-10.14,1.4205
24398,15.226,3.0909,0.1,0.00019873,1985.9,0.00019856,1981.1,-6.5101e-05,-0.0083529,-6.6388e-05,-9.6764,1.4066
24399,15.319,2.8182,0.1,0.00019644,1963,0.00019627,1957.9,-6.4322e-05,-0.0083936,-6.5673e-05,-10.162,1.4205
24400,15.226,2.9091,0.1,0.00019873,1985.9,0.00019856,1981.1,-6.5101e-05,-0.0083528,-6.6388e-05,-9.6764,1.4066
24401,15.319,2.6364,0.1,0.00019646,1963.2,0.00019628,1958.1,-6.4324e-05,-0.0081121,-6.5684e-05,-10.226,1.4204
24402,15.226,2.7273,0.1,0.00019874,1986,0.00019857,1981.1,-6.5103e-05,-0.0081624,-6.6396e-05,-9.7224,1.4066
24403,15.319,2.4545,0.1,0.00019649,1963.5,0.00019631,1958.3,-6.4328e-05,-0.0076476,-6.5702e-05,-10.332,1.4203
24404,15.226,2.5455,0.1,0.00019876,1986.3,0.00019859,1981.3,-6.5106e-05,-0.0077855,-6.6411e-05,-9.8144,1.4065
24405,15.319,2.2727,0.1,0.00019652,1963.9,0.00019634,1958.6,-6.4334e-05,-0.0070115,-6.5728e-05,-10.482,1.4201
24406,15.226,2.3636,0.1,0.0001988,1986.6,0.00019863,1981.6,-6.511e-05,-0.00723,-6.6434e-05,-9.9525,1.4064
24407,15.319,2.0909,0.1,0.00019658,1964.4,0.00019639,1959,-6.4341e-05,-0.0062171,-6.5761e-05,-10.675,1.42
24408,15.226,2.1818,0.1,0.00019884,1987.1,0.00019867,1982,-6.5116e-05,-0.0065113,-6.6465e-05,-10.137,1.4062
24409,15.319,1.9091,0.1,0.00019664,1965,0.00019645,1959.6,-6.435e-05,-0.0052781,-6.5802e-05,-10.911,1.4197
24410,15.226,2,0.1,0.0001989,1987.7,0.00019872,1982.4,-6.5124e-05,-0.0056427,-6.6503e-05,-10.368,1.406
24411,15.319,1.7273,0.1,0.00019671,1965.8,0.00019652,1960.2,-6.4361e-05,-0.0042123,-6.585e-05,-11.191,1.4194
24412,15.226,1.8182,0.1,0.00019897,1988.4,0.00019879,1983,-6.5133e-05,-0.0046431,-6.6549e-05,-10.645,1.4057
24413,15.319,1.5455,0.1,0.0001968,1966.6,0.0001966,1960.9,-6.4373e-05,-0.0030384,-6.5905e-05,-11.516,1.4191
24414,15.226,1.6364,0.1,0.00019905,1989.2,0.00019887,1983.7,-6.5144e-05,-0.0035313,-6.6604e-05,-10.969,1.4054
24415,15.319,1.3636,0.1,0.0001969,1967.6,0.00019669,1961.6,-6.4387e-05,-0.0017746,-6.5968e-05,-11.886,1.4187
24416,15.226,1.4545,0.1,0.00019915,1990.1,0.00019895,1984.4,-6.5157e-05,-0.0023277,-6.6666e-05,-11.34,1.4051
24417,15.319,1.1818,0.1,0.00019701,1968.7,0.0001968,1962.5,-6.4402e-05,-0.00043368,-6.604e-05,-12.302,1.4183
24418,15.226,1.2727,0.1,0.00019925,1991.2,0.00019905,1985.3,-6.5171e-05,-0.0010507,-6.6736e-05,-11.759,1.4047
24419,15.319,1,0.1,0.00019713,1970,0.00019691,1963.5,-6.442e-05,0.00094249,-6.6119e-05,-12.763,1.4179
24420,15.226,1.0909,0.1,0.00019937,1992.4,0.00019916,1986.2,-6.5186e-05,0.00029227,-6.6814e-05,-12.225,1.4042
24421,15.319,0.81818,0.1,0.00019727,1971.3,0.00019704,1964.6,-6.4439e-05,0.002432,-6.6206e-05,-13.272,1.4174
24422,15.226,0.90909,0.1,0.0001995,1993.7,0.00019928,1987.3,-6.5204e-05,0.0016276,-6.69e-05,-12.74,1.4037
24423,15.319,0.63636,0.1,0.00019741,1972.8,0.00019718,1965.8,-6.446e-05,0.0036445,-6.6302e-05,-13.832,1.4168
24424,15.226,0.72727,0.1,0.00019965,1995.1,0.00019942,1988.4,-6.5223e-05,0.0031796,-6.6994e-05,-13.303,1.4032
24425,15.319,0.45455,0.1,0.00019758,1974.5,0.00019733,1967.2,-6.4483e-05,0.0066494,-6.6413e-05,-14.493,1.4162
24426,15.226,0.54545,0.1,0.0001998,1996.7,0.00019956,1989.7,-6.5244e-05,0.0039675,-6.7098e-05,-13.922,1.4027
24427,15.319,0.27273,0.1,0.0001979,1977.7,0.00019763,1969.6,-6.4508e-05,0.0054438,-6.6654e-05,-16.112,1.4156
24428,15.226,0.36364,0.1,0.00019999,1998.5,0.00019974,1991.1,-6.5267e-05,0.0089006,-6.7223e-05,-14.691,1.402
24429,15.226,0.18182,0.1,0.00020046,2003.2,0.00020016,1994.5,-6.5293e-05,0.00060016,-6.7595e-05,-17.297,1.4014
24430,15.319,0.090909,0.1,0.00019731,1971.7,0.00019711,1965.9,-6.4533e-05,0.0034889,-6.6086e-05,-11.66,1.415
24431,15.134,5.7273,0.1,0.00020253,2023.9,0.00020225,2016,-6.6052e-05,0.0052077,-6.8149e-05,-15.753,1.3878
24432,15.042,5.8182,0.1,0.00020509,2049.5,0.0002048,2041,-6.6839e-05,0.00072831,-6.9095e-05,-16.955,1.3737
24433,15.134,5.9091,0.1,0.00020195,2018.1,0.00020175,2012.3,-6.6075e-05,0.0033552,-6.7598e-05,-11.439,1.3872
24434,15.134,5.5455,0.1,0.00020221,2020.7,0.00020196,2013.6,-6.6028e-05,0.0063198,-6.7904e-05,-14.086,1.3885
24435,15.042,5.6364,0.1,0.00020462,2044.8,0.00020438,2037.6,-6.6815e-05,0.0083836,-6.8721e-05,-14.313,1.3743
24436,15.134,5.3636,0.1,0.00020203,2018.9,0.0002018,2012.2,-6.6007e-05,0.0035294,-6.7786e-05,-13.363,1.3891
24437,15.042,5.4545,0.1,0.00020443,2042.9,0.0002042,2036.2,-6.6794e-05,0.0038246,-6.8589e-05,-13.48,1.375
24438,15.134,5.1818,0.1,0.00020188,2017.4,0.00020166,2011,-6.5988e-05,0.0023931,-6.7684e-05,-12.742,1.3896
24439,15.042,5.2727,0.1,0.00020427,2041.3,0.00020405,2034.9,-6.6775e-05,0.0030903,-6.8478e-05,-12.798,1.3755
24440,15.134,5,0.1,0.00020174,2016,0.00020153,2009.9,-6.597e-05,0.00098961,-6.7591e-05,-12.173,1.3901
24441,15.042,5.0909,0.1,0.00020412,2039.8,0.00020392,2033.7,-6.6757e-05,0.0016394,-6.8378e-05,-12.173,1.3761
24442,15.134,4.8182,0.1,0.00020161,2014.8,0.00020141,2008.9,-6.5955e-05,-0.00031911,-6.7506e-05,-11.654,1.3906
24443,15.042,4.9091,0.1,0.00020399,2038.5,0.00020379,2032.7,-6.6741e-05,0.00037888,-6.8285e-05,-11.599,1.3766
24444,15.134,4.6364,0.1,0.0002015,2013.6,0.00020131,2008,-6.594e-05,-0.0016037,-6.7429e-05,-11.185,1.391
24445,15.042,4.7273,0.1,0.00020387,2037.3,0.00020368,2031.7,-6.6727e-05,-0.00090031,-6.8201e-05,-11.076,1.377
24446,15.134,4.4545,0.1,0.0002014,2012.6,0.00020121,2007.2,-6.5928e-05,-0.0028272,-6.736e-05,-10.765,1.3914
24447,15.042,4.5455,0.1,0.00020376,2036.2,0.00020358,2030.9,-6.6714e-05,-0.0021269,-6.8125e-05,-10.604,1.3774
24448,15.134,4.2727,0.1,0.00020131,2011.7,0.00020113,2006.5,-6.5917e-05,-0.0039766,-6.73e-05,-10.394,1.3917
24449,15.042,4.3636,0.1,0.00020366,2035.2,0.00020349,2030.1,-6.6703e-05,-0.0032984,-6.8058e-05,-10.184,1.3778
24450,15.134,4.0909,0.1,0.00020123,2010.9,0.00020106,2005.9,-6.5907e-05,-0.0050292,-6.7247e-05,-10.073,1.392
24451,15.042,4.1818,0.1,0.00020358,2034.4,0.00020341,2029.4,-6.6694e-05,-0.0043915,-6.7999e-05,-9.816,1.3781
24452,15.134,3.9091,0.1,0.00020117,2010.3,0.000201,2005.4,-6.5899e-05,-0.0059655,-6.7203e-05,-9.8015,1.3923
24453,15.042,4,0.1,0.0002035,2033.6,0.00020334,2028.9,-6.6685e-05,-0.0053849,-6.7949e-05,-9.5,1.3784
24454,15.134,3.7273,0.1,0.00020111,2009.7,0.00020095,2004.9,-6.5893e-05,-0.0067651,-6.7167e-05,-9.5793,1.3925
24455,15.042,3.8182,0.1,0.00020344,2033,0.00020328,2028.4,-6.6679e-05,-0.0062555,-6.7907e-05,-9.2364,1.3786
24456,15.134,3.5455,0.1,0.00020107,2009.3,0.00020091,2004.6,-6.5888e-05,-0.0074096,-6.7139e-05,-9.4064,1.3926
24457,15.042,3.6364,0.1,0.00020339,2032.5,0.00020324,2028,-6.6673e-05,-0.0069838,-6.7873e-05,-9.0252,1.3788
24458,15.134,3.3636,0.1,0.00020104,2009,0.00020088,2004.4,-6.5884e-05,-0.007882,-6.7119e-05,-9.283,1.3927
24459,15.042,3.4545,0.1,0.00020336,2032.2,0.00020321,2027.7,-6.6669e-05,-0.0075502,-6.7848e-05,-8.8667,1.3789
24460,15.134,3.1818,0.1,0.00020102,2008.9,0.00020087,2004.2,-6.5882e-05,-0.0081707,-6.7107e-05,-9.2089,1.3928
24461,15.042,3.2727,0.1,0.00020333,2031.9,0.00020318,2027.5,-6.6666e-05,-0.0079367,-6.7831e-05,-8.761,1.379
24462,15.134,3,0.1,0.00020102,2008.8,0.00020086,2004.2,-6.5881e-05,-0.0082681,-6.7103e-05,-9.1842,1.3928
24463,15.042,3.0909,0.1,0.00020332,2031.8,0.00020317,2027.4,-6.6665e-05,-0.0081336,-6.7823e-05,-8.7081,1.379
24464,15.134,2.8182,0.1,0.00020102,2008.9,0.00020087,2004.2,-6.5882e-05,-0.0081709,-6.7107e-05,-9.2089,1.3928
24465,15.042,2.9091,0.1,0.00020332,2031.8,0.00020317,2027.4,-6.6665e-05,-0.008133,-6.7823e-05,-8.7081,1.379
24466,15.134,2.6364,0.1,0.00020104,2009,0.00020088,2004.4,-6.5884e-05,-0.0078822,-6.7119e-05,-9.283,1.3927
24467,15.042,2.7273,0.1,0.00020333,2031.9,0.00020318,2027.5,-6.6666e-05,-0.0079372,-6.7831e-05,-8.761,1.379
24468,15.134,2.4545,0.1,0.00020107,2009.3,0.00020091,2004.6,-6.5888e-05,-0.0074095,-6.7139e-05,-9.4064,1.3926
24469,15.042,2.5455,0.1,0.00020336,2032.2,0.00020321,2027.7,-6.6669e-05,-0.00755,-6.7848e-05,-8.8667,1.3789
24470,15.134,2.2727,0.1,0.00020111,2009.7,0.00020095,2004.9,-6.5893e-05,-0.0067653,-6.7167e-05,-9.5793,1.3925
24471,15.042,2.3636,0.1,0.00020339,2032.5,0.00020324,2028,-6.6673e-05,-0.0069843,-6.7873e-05,-9.0252,1.3788
24472,15.134,2.0909,0.1,0.00020117,2010.3,0.000201,2005.4,-6.5899e-05,-0.0059656,-6.7203e-05,-9.8015,1.3923
24473,15.042,2.1818,0.1,0.00020344,2033,0.00020328,2028.4,-6.6679e-05,-0.0062555,-6.7907e-05,-9.2363,1.3786
24474,15.134,1.9091,0.1,0.00020123,2010.9,0.00020106,2005.9,-6.5907e-05,-0.0050291,-6.7247e-05,-10.073,1.392
24475,15.042,2,0.1,0.0002035,2033.6,0.00020334,2028.9,-6.6685e-05,-0.0053844,-6.7949e-05,-9.5,1.3784
24476,15.134,1.7273,0.1,0.00020131,2011.7,0.00020113,2006.5,-6.5917e-05,-0.0039762,-6.73e-05,-10.394,1.3917
24477,15.042,1.8182,0.1,0.00020358,2034.4,0.00020341,2029.4,-6.6694e-05,-0.0043908,-6.7999e-05,-9.816,1.3781
24478,15.134,1.5455,0.1,0.0002014,2012.6,0.00020121,2007.2,-6.5928e-05,-0.0028276,-6.736e-05,-10.765,1.3914
24479,15.042,1.6364,0.1,0.00020366,2035.2,0.00020349,2030.1,-6.6703e-05,-0.0032984,-6.8058e-05,-10.184,1.3778
24480,15.134,1.3636,0.1,0.0002015,2013.6,0.00020131,2008,-6.594e-05,-0.0016042,-6.7429e-05,-11.185,1.391
24481,15.042,1.4545,0.1,0.00020376,2036.2,0.00020358,2030.9,-6.6714e-05,-0.0021276,-6.8125e-05,-10.604,1.3774
24482,15.134,1.1818,0.1,0.00020161,2014.8,0.00020141,2008.9,-6.5955e-05,-0.00031904,-6.7506e-05,-11.654,1.3906
24483,15.042,1.2727,0.1,0.00020387,2037.3,0.00020368,2031.7,-6.6727e-05,-0.00090028,-6.8201e-05,-11.076,1.377
24484,15.134,1,0.1,0.00020174,2016,0.00020153,2009.9,-6.597e-05,0.00098861,-6.7591e-05,-12.173,1.3901
24485,15.042,1.0909,0.1,0.00020399,2038.5,0.00020379,2032.7,-6.6741e-05,0.00037845,-6.8285e-05,-11.599,1.3766
24486,15.134,0.81818,0.1,0.00020188,2017.4,0.00020166,2011,-6.5988e-05,0.0023917,-6.7684e-05,-12.742,1.3896
24487,15.042,0.90909,0.1,0.00020412,2039.8,0.00020392,2033.7,-6.6757e-05,0.0016381,-6.8378e-05,-12.173,1.3761
24488,15.134,0.63636,0.1,0.00020203,2018.9,0.0002018,2012.2,-6.6007e-05,0.0035283,-6.7786e-05,-13.363,1.3891
24489,15.042,0.72727,0.1,0.00020427,2041.3,0.00020405,2034.9,-6.6775e-05,0.0030884,-6.8478e-05,-12.798,1.3755
24490,15.134,0.45455,0.1,0.00020221,2020.7,0.00020196,2013.6,-6.6028e-05,0.0063197,-6.7904e-05,-14.086,1.3885
24491,15.042,0.54545,0.1,0.00020443,2042.9,0.0002042,2036.2,-6.6794e-05,0.003824,-6.8589e-05,-13.48,1.375
24492,15.134,0.27273,0.1,0.00020253,2023.9,0.00020225,2016,-6.6052e-05,0.0052084,-6.8149e-05,-15.753,1.3878
24493,15.042,0.36364,0.1,0.00020462,2044.8,0.00020438,2037.6,-6.6815e-05,0.0083842,-6.8721e-05,-14.313,1.3743
24494,15.042,0.18182,0.1,0.00020509,2049.5,0.0002048,2041,-6.6839e-05,0.00072873,-6.9095e-05,-16.955,1.3737
24495,15.134,0.090909,0.1,0.00020195,2018.1,0.00020175,2012.3,-6.6075e-05,0.0033558,-6.7598e-05,-11.439,1.3872
24496,14.949,5.7273,0.1,0.00020717,2070.3,0.0002069,2062.5,-6.7602e-05,0.0049723,-6.9651e-05,-15.393,1.3602
24497,14.857,5.8182,0.1,0.00020974,2096,0.00020946,2087.6,-6.8391e-05,0.00085522,-7.0602e-05,-16.612,1.3461
24498,14.949,5.9091,0.1,0.0002066,2064.6,0.00020641,2059,-6.7623e-05,0.0032226,-6.9116e-05,-11.219,1.3595
24499,14.949,5.5455,0.1,0.00020685,2067,0.00020661,2060.2,-6.758e-05,0.0059856,-6.9401e-05,-13.674,1.3609
24500,14.857,5.6364,0.1,0.00020928,2091.3,0.00020904,2084.3,-6.8369e-05,0.0078447,-7.0224e-05,-13.93,1.3468
24501,14.949,5.3636,0.1,0.00020667,2065.3,0.00020645,2058.8,-6.7561e-05,0.0034133,-6.9277e-05,-12.887,1.3615
24502,14.857,5.4545,0.1,0.00020908,2089.4,0.00020886,2082.8,-6.8351e-05,0.0036675,-7.0086e-05,-13.032,1.3474
24503,14.949,5.1818,0.1,0.00020651,2063.7,0.0002063,2057.6,-6.7544e-05,0.0023563,-6.9168e-05,-12.201,1.362
24504,14.857,5.2727,0.1,0.00020892,2087.7,0.00020871,2081.6,-6.8333e-05,0.002988,-6.9968e-05,-12.284,1.348
24505,14.949,5,0.1,0.00020637,2062.3,0.00020617,2056.5,-6.7528e-05,0.0010439,-6.9068e-05,-11.571,1.3626
24506,14.857,5.0909,0.1,0.00020877,2086.2,0.00020857,2080.4,-6.8317e-05,0.0016433,-6.9861e-05,-11.594,1.3486
24507,14.949,4.8182,0.1,0.00020624,2061,0.00020605,2055.5,-6.7514e-05,-0.00019203,-6.8977e-05,-10.993,1.363
24508,14.857,4.9091,0.1,0.00020863,2084.8,0.00020844,2079.3,-6.8303e-05,0.0004627,-6.9762e-05,-10.958,1.3491
24509,14.949,4.6364,0.1,0.00020612,2059.8,0.00020594,2054.5,-6.7501e-05,-0.0014189,-6.8894e-05,-10.467,1.3635
24510,14.857,4.7273,0.1,0.0002085,2083.6,0.00020832,2078.4,-6.8291e-05,-0.00074664,-6.9672e-05,-10.376,1.3495
24511,14.949,4.4545,0.1,0.00020602,2058.7,0.00020584,2053.7,-6.749e-05,-0.0025999,-6.882e-05,-9.9956,1.3638
24512,14.857,4.5455,0.1,0.00020839,2082.4,0.00020822,2077.5,-6.8279e-05,-0.0019212,-6.959e-05,-9.8492,1.3499
24513,14.949,4.2727,0.1,0.00020592,2057.8,0.00020576,2053,-6.748e-05,-0.0037224,-6.8754e-05,-9.578,1.3642
24514,14.857,4.3636,0.1,0.00020829,2081.4,0.00020813,2076.7,-6.827e-05,-0.0030559,-6.9517e-05,-9.3785,1.3503
24515,14.949,4.0909,0.1,0.00020584,2057,0.00020568,2052.4,-6.7472e-05,-0.0047642,-6.8697e-05,-9.215,1.3645
24516,14.857,4.1818,0.1,0.0002082,2080.5,0.00020804,2076,-6.8261e-05,-0.0041296,-6.9454e-05,-8.9649,1.3506
24517,14.949,3.9091,0.1,0.00020578,2056.3,0.00020562,2051.9,-6.7465e-05,-0.0057001,-6.8649e-05,-8.907,1.3647
24518,14.857,4,0.1,0.00020812,2079.8,0.00020797,2075.5,-6.8254e-05,-0.0051185,-6.9399e-05,-8.6088,1.3509
24519,14.949,3.7273,0.1,0.00020572,2055.8,0.00020557,2051.4,-6.7459e-05,-0.0065076,-6.861e-05,-8.6544,1.3649
24520,14.857,3.8182,0.1,0.00020806,2079.2,0.00020792,2075,-6.8248e-05,-0.0059964,-6.9353e-05,-8.3111,1.3511
24521,14.949,3.5455,0.1,0.00020568,2055.3,0.00020553,2051.1,-6.7455e-05,-0.0071652,-6.8579e-05,-8.4576,1.3651
24522,14.857,3.6364,0.1,0.00020801,2078.7,0.00020787,2074.6,-6.8243e-05,-0.0067394,-6.9317e-05,-8.0722,1.3513
24523,14.949,3.3636,0.1,0.00020565,2055,0.0002055,2050.9,-6.7451e-05,-0.0076516,-6.8557e-05,-8.3169,1.3652
24524,14.857,3.4545,0.1,0.00020797,2078.3,0.00020784,2074.3,-6.824e-05,-0.0073224,-6.9289e-05,-7.8926,1.3514
24525,14.949,3.1818,0.1,0.00020563,2054.9,0.00020549,2050.7,-6.745e-05,-0.0079501,-6.8544e-05,-8.2324,1.3653
24526,14.857,3.2727,0.1,0.00020795,2078,0.00020781,2074.1,-6.8238e-05,-0.0077237,-6.9271e-05,-7.7726,1.3515
24527,14.949,3,0.1,0.00020562,2054.8,0.00020548,2050.7,-6.7449e-05,-0.0080502,-6.854e-05,-8.2042,1.3653
24528,14.857,3.0909,0.1,0.00020793,2077.9,0.0002078,2074,-6.8236e-05,-0.0079281,-6.9262e-05,-7.7126,1.3516
24529,14.949,2.8182,0.1,0.00020563,2054.9,0.00020549,2050.7,-6.745e-05,-0.0079497,-6.8544e-05,-8.2323,1.3653
24530,14.857,2.9091,0.1,0.00020793,2077.9,0.0002078,2074,-6.8236e-05,-0.0079279,-6.9262e-05,-7.7126,1.3516
24531,14.949,2.6364,0.1,0.00020565,2055,0.0002055,2050.9,-6.7451e-05,-0.0076517,-6.8557e-05,-8.3169,1.3652
24532,14.857,2.7273,0.1,0.00020795,2078,0.00020781,2074.1,-6.8238e-05,-0.007724,-6.9271e-05,-7.7726,1.3515
24533,14.949,2.4545,0.1,0.00020568,2055.3,0.00020553,2051.1,-6.7455e-05,-0.0071656,-6.8579e-05,-8.4576,1.3651
24534,14.857,2.5455,0.1,0.00020797,2078.3,0.00020784,2074.3,-6.824e-05,-0.0073222,-6.9289e-05,-7.8926,1.3514
24535,14.949,2.2727,0.1,0.00020572,2055.8,0.00020557,2051.4,-6.7459e-05,-0.0065079,-6.861e-05,-8.6544,1.3649
24536,14.857,2.3636,0.1,0.00020801,2078.7,0.00020787,2074.6,-6.8243e-05,-0.0067397,-6.9317e-05,-8.0721,1.3513
24537,14.949,2.0909,0.1,0.00020578,2056.3,0.00020562,2051.9,-6.7465e-05,-0.0056995,-6.8649e-05,-8.9069,1.3647
24538,14.857,2.1818,0.1,0.00020806,2079.2,0.00020792,2075,-6.8248e-05,-0.0059966,-6.9353e-05,-8.311,1.3511
24539,14.949,1.9091,0.1,0.00020584,2057,0.00020568,2052.4,-6.7472e-05,-0.0047631,-6.8697e-05,-9.2149,1.3645
24540,14.857,2,0.1,0.00020812,2079.8,0.00020797,2075.5,-6.8254e-05,-0.0051187,-6.9399e-05,-8.6088,1.3509
24541,14.949,1.7273,0.1,0.00020592,2057.8,0.00020576,2053,-6.748e-05,-0.0037221,-6.8754e-05,-9.5779,1.3642
24542,14.857,1.8182,0.1,0.0002082,2080.5,0.00020804,2076,-6.8261e-05,-0.0041295,-6.9454e-05,-8.9648,1.3506
24543,14.949,1.5455,0.1,0.00020602,2058.7,0.00020584,2053.7,-6.749e-05,-0.0026002,-6.882e-05,-9.9955,1.3638
24544,14.857,1.6364,0.1,0.00020829,2081.4,0.00020813,2076.7,-6.827e-05,-0.0030563,-6.9517e-05,-9.3785,1.3503
24545,14.949,1.3636,0.1,0.00020612,2059.8,0.00020594,2054.5,-6.7501e-05,-0.001419,-6.8894e-05,-10.467,1.3635
24546,14.857,1.4545,0.1,0.00020839,2082.4,0.00020822,2077.5,-6.8279e-05,-0.0019215,-6.959e-05,-9.8491,1.3499
24547,14.949,1.1818,0.1,0.00020624,2061,0.00020605,2055.5,-6.7514e-05,-0.0001925,-6.8977e-05,-10.992,1.363
24548,14.857,1.2727,0.1,0.0002085,2083.6,0.00020832,2078.4,-6.8291e-05,-0.00074651,-6.9672e-05,-10.376,1.3495
24549,14.949,1,0.1,0.00020637,2062.3,0.00020617,2056.5,-6.7528e-05,0.0010431,-6.9068e-05,-11.571,1.3626
24550,14.857,1.0909,0.1,0.00020863,2084.8,0.00020844,2079.3,-6.8303e-05,0.0004623,-6.9762e-05,-10.958,1.3491
24551,14.949,0.81818,0.1,0.00020651,2063.7,0.0002063,2057.6,-6.7544e-05,0.0023545,-6.9168e-05,-12.201,1.362
24552,14.857,0.90909,0.1,0.00020877,2086.2,0.00020857,2080.4,-6.8317e-05,0.0016416,-6.9861e-05,-11.594,1.3486
24553,14.949,0.63636,0.1,0.00020667,2065.3,0.00020645,2058.8,-6.7561e-05,0.0034118,-6.9277e-05,-12.887,1.3615
24554,14.857,0.72727,0.1,0.00020892,2087.7,0.00020871,2081.6,-6.8333e-05,0.0029858,-6.9968e-05,-12.284,1.348
24555,14.949,0.45455,0.1,0.00020685,2067,0.00020661,2060.2,-6.758e-05,0.0059856,-6.9401e-05,-13.674,1.3609
24556,14.857,0.54545,0.1,0.00020908,2089.4,0.00020886,2082.8,-6.8351e-05,0.0036669,-7.0086e-05,-13.032,1.3474
24557,14.949,0.27273,0.1,0.00020717,2070.3,0.0002069,2062.5,-6.7602e-05,0.0049725,-6.9651e-05,-15.393,1.3602
24558,14.857,0.36364,0.1,0.00020928,2091.3,0.00020904,2084.3,-6.8369e-05,0.0078449,-7.0224e-05,-13.93,1.3468
24559,14.857,0.18182,0.1,0.00020974,2096,0.00020946,2087.6,-6.8391e-05,0.00085572,-7.0602e-05,-16.612,1.3461
24560,14.949,0.090909,0.1,0.0002066,2064.6,0.00020641,2059,-6.7623e-05,0.0032225,-6.9116e-05,-11.219,1.3595
24561,14.765,5.7273,0.1,0.00021183,2116.9,0.00021157,2109.3,-6.9159e-05,0.0047104,-7.116e-05,-15.03,1.3327
24562,14.672,5.8182,0.1,0.00021442,2142.7,0.00021414,2134.5,-6.9951e-05,0.00098649,-7.2116e-05,-16.267,1.3187
24563,14.765,5.9091,0.1,0.00021128,2111.4,0.00021109,2105.9,-6.9178e-05,0.0030647,-7.0642e-05,-10.998,1.332
24564,14.765,5.5455,0.1,0.00021151,2113.6,0.00021128,2107,-6.914e-05,0.0056194,-7.0905e-05,-13.256,1.3334
24565,14.672,5.6364,0.1,0.00021395,2138,0.00021372,2131.2,-6.9931e-05,0.0072834,-7.1734e-05,-13.542,1.3194
24566,14.765,5.3636,0.1,0.00021133,2111.8,0.00021111,2105.6,-6.9122e-05,0.0032716,-7.0773e-05,-12.401,1.334
24567,14.672,5.4545,0.1,0.00021375,2136,0.00021354,2129.7,-6.9914e-05,0.0034998,-7.1588e-05,-12.575,1.32
24568,14.765,5.1818,0.1,0.00021117,2110.2,0.00021097,2104.4,-6.9107e-05,0.0022977,-7.0657e-05,-11.649,1.3346
24569,14.672,5.2727,0.1,0.00021358,2134.4,0.00021338,2128.4,-6.9899e-05,0.0028775,-7.1464e-05,-11.757,1.3206
24570,14.765,5,0.1,0.00021102,2108.7,0.00021083,2103.2,-6.9093e-05,0.0010813,-7.0551e-05,-10.953,1.3351
24571,14.672,5.0909,0.1,0.00021343,2132.8,0.00021324,2127.3,-6.9885e-05,0.0016457,-7.1349e-05,-10.999,1.3212
24572,14.765,4.8182,0.1,0.00021088,2107.4,0.00021071,2102.2,-6.908e-05,-7.6609e-05,-7.0453e-05,-10.313,1.3356
24573,14.672,4.9091,0.1,0.00021328,2131.4,0.00021311,2126.2,-6.9873e-05,0.00055178,-7.1243e-05,-10.298,1.3217
24574,14.765,4.6364,0.1,0.00021076,2106.2,0.00021059,2101.3,-6.9069e-05,-0.0012385,-7.0364e-05,-9.73,1.336
24575,14.672,4.7273,0.1,0.00021315,2130.1,0.00021299,2125.2,-6.9862e-05,-0.00058092,-7.1146e-05,-9.6549,1.3222
24576,14.765,4.4545,0.1,0.00021065,2105.1,0.00021049,2100.5,-6.9059e-05,-0.0023727,-7.0284e-05,-9.2045,1.3364
24577,14.672,4.5455,0.1,0.00021303,2128.9,0.00021288,2124.3,-6.9852e-05,-0.0016961,-7.1059e-05,-9.0707,1.3226
24578,14.765,4.2727,0.1,0.00021056,2104.1,0.00021041,2099.7,-6.9051e-05,-0.0034658,-7.0213e-05,-8.7379,1.3368
24579,14.672,4.3636,0.1,0.00021293,2127.8,0.00021278,2123.5,-6.9843e-05,-0.002791,-7.0981e-05,-8.5473,1.323
24580,14.765,4.0909,0.1,0.00021047,2103.3,0.00021033,2099.1,-6.9043e-05,-0.0044952,-7.0152e-05,-8.3312,1.3371
24581,14.672,4.1818,0.1,0.00021284,2126.9,0.0002127,2122.9,-6.9836e-05,-0.0038436,-7.0912e-05,-8.0861,1.3233
24582,14.765,3.9091,0.1,0.0002104,2102.6,0.00021027,2098.6,-6.9037e-05,-0.0054355,-7.0099e-05,-7.9855,1.3373
24583,14.672,4,0.1,0.00021276,2126.1,0.00021263,2122.3,-6.983e-05,-0.0048296,-7.0853e-05,-7.6883,1.3236
24584,14.765,3.7273,0.1,0.00021034,2102,0.00021021,2098.1,-6.9032e-05,-0.0062585,-7.0057e-05,-7.7014,1.3375
24585,14.672,3.8182,0.1,0.00021269,2125.5,0.00021257,2121.8,-6.9825e-05,-0.0057203,-7.0803e-05,-7.355,1.3238
24586,14.765,3.5455,0.1,0.0002103,2101.5,0.00021017,2097.8,-6.9029e-05,-0.0069361,-7.0023e-05,-7.4797,1.3377
24587,14.672,3.6364,0.1,0.00021264,2125,0.00021252,2121.4,-6.9821e-05,-0.0064852,-7.0763e-05,-7.0872,1.324
24588,14.765,3.3636,0.1,0.00021027,2101.2,0.00021014,2097.6,-6.9026e-05,-0.0074417,-6.9999e-05,-7.321,1.3378
24589,14.672,3.4545,0.1,0.0002126,2124.6,0.00021248,2121.1,-6.9818e-05,-0.0070933,-7.0734e-05,-6.8856,1.3241
24590,14.765,3.1818,0.1,0.00021025,2101,0.00021012,2097.4,-6.9024e-05,-0.0077541,-6.9985e-05,-7.2256,1.3379
24591,14.672,3.2727,0.1,0.00021258,2124.3,0.00021246,2120.9,-6.9816e-05,-0.0075154,-7.0714e-05,-6.7509,1.3242
24592,14.765,3,0.1,0.00021024,2101,0.00021012,2097.4,-6.9024e-05,-0.0078598,-6.998e-05,-7.1938,1.3379
24593,14.672,3.0909,0.1,0.00021256,2124.2,0.00021245,2120.8,-6.9815e-05,-0.0077327,-7.0704e-05,-6.6834,1.3243
24594,14.765,2.8182,0.1,0.00021025,2101,0.00021012,2097.4,-6.9024e-05,-0.0077544,-6.9985e-05,-7.2256,1.3379
24595,14.672,2.9091,0.1,0.00021256,2124.2,0.00021245,2120.8,-6.9815e-05,-0.0077322,-7.0704e-05,-6.6834,1.3243
24596,14.765,2.6364,0.1,0.00021027,2101.2,0.00021014,2097.6,-6.9026e-05,-0.0074417,-6.9999e-05,-7.321,1.3378
24597,14.672,2.7273,0.1,0.00021258,2124.3,0.00021246,2120.9,-6.9816e-05,-0.0075157,-7.0714e-05,-6.7509,1.3242
24598,14.765,2.4545,0.1,0.0002103,2101.5,0.00021017,2097.8,-6.9029e-05,-0.0069359,-7.0023e-05,-7.4797,1.3377
24599,14.672,2.5455,0.1,0.0002126,2124.6,0.00021248,2121.1,-6.9818e-05,-0.0070931,-7.0734e-05,-6.8856,1.3241
24600,14.765,2.2727,0.1,0.00021034,2102,0.00021021,2098.1,-6.9032e-05,-0.0062588,-7.0057e-05,-7.7014,1.3375
24601,14.672,2.3636,0.1,0.00021264,2125,0.00021252,2121.4,-6.9821e-05,-0.0064852,-7.0763e-05,-7.0872,1.324
24602,14.765,2.0909,0.1,0.0002104,2102.6,0.00021027,2098.6,-6.9037e-05,-0.0054364,-7.0099e-05,-7.9854,1.3373
24603,14.672,2.1818,0.1,0.00021269,2125.5,0.00021257,2121.8,-6.9825e-05,-0.0057207,-7.0803e-05,-7.355,1.3238
24604,14.765,1.9091,0.1,0.00021047,2103.3,0.00021033,2099.1,-6.9043e-05,-0.0044964,-7.0152e-05,-8.3312,1.3371
24605,14.672,2,0.1,0.00021276,2126.1,0.00021263,2122.3,-6.983e-05,-0.0048307,-7.0853e-05,-7.6883,1.3236
24606,14.765,1.7273,0.1,0.00021056,2104.1,0.00021041,2099.7,-6.9051e-05,-0.0034664,-7.0213e-05,-8.7378,1.3368
24607,14.672,1.8182,0.1,0.00021284,2126.9,0.0002127,2122.9,-6.9836e-05,-0.0038437,-7.0912e-05,-8.0861,1.3233
24608,14.765,1.5455,0.1,0.00021065,2105.1,0.00021049,2100.5,-6.9059e-05,-0.002373,-7.0284e-05,-9.2044,1.3364
24609,14.672,1.6364,0.1,0.00021293,2127.8,0.00021278,2123.5,-6.9843e-05,-0.0027911,-7.0981e-05,-8.5473,1.323
24610,14.765,1.3636,0.1,0.00021076,2106.2,0.00021059,2101.3,-6.9069e-05,-0.0012385,-7.0364e-05,-9.7299,1.336
24611,14.672,1.4545,0.1,0.00021303,2128.9,0.00021288,2124.3,-6.9852e-05,-0.0016965,-7.1059e-05,-9.0707,1.3226
24612,14.765,1.1818,0.1,0.00021088,2107.4,0.00021071,2102.2,-6.908e-05,-7.6419e-05,-7.0453e-05,-10.313,1.3356
24613,14.672,1.2727,0.1,0.00021315,2130.1,0.00021299,2125.2,-6.9862e-05,-0.00058061,-7.1146e-05,-9.6548,1.3222
24614,14.765,1,0.1,0.00021102,2108.7,0.00021083,2103.2,-6.9093e-05,0.00108,-7.0551e-05,-10.953,1.3351
24615,14.672,1.0909,0.1,0.00021328,2131.4,0.00021311,2126.2,-6.9873e-05,0.00055112,-7.1243e-05,-10.298,1.3217
24616,14.765,0.81818,0.1,0.00021117,2110.2,0.00021097,2104.4,-6.9107e-05,0.0022956,-7.0657e-05,-11.648,1.3346
24617,14.672,0.90909,0.1,0.00021343,2132.8,0.00021324,2127.3,-6.9885e-05,0.001644,-7.1349e-05,-10.999,1.3212
24618,14.765,0.63636,0.1,0.00021133,2111.8,0.00021111,2105.6,-6.9122e-05,0.0032702,-7.0773e-05,-12.401,1.334
24619,14.672,0.72727,0.1,0.00021358,2134.4,0.00021338,2128.4,-6.9899e-05,0.0028762,-7.1464e-05,-11.757,1.3206
24620,14.765,0.45455,0.1,0.00021151,2113.6,0.00021128,2107,-6.914e-05,0.005619,-7.0905e-05,-13.256,1.3334
24621,14.672,0.54545,0.1,0.00021375,2136,0.00021354,2129.7,-6.9914e-05,0.0034992,-7.1588e-05,-12.575,1.32
24622,14.765,0.27273,0.1,0.00021183,2116.9,0.00021157,2109.3,-6.9159e-05,0.0047109,-7.116e-05,-15.03,1.3327
24623,14.672,0.36364,0.1,0.00021395,2138,0.00021372,2131.2,-6.9931e-05,0.0072838,-7.1734e-05,-13.542,1.3194
24624,14.672,0.18182,0.1,0.00021442,2142.7,0.00021414,2134.5,-6.9951e-05,0.00098662,-7.2116e-05,-16.267,1.3187
24625,14.765,0.090909,0.1,0.00021128,2111.4,0.00021109,2105.9,-6.9178e-05,0.0030651,-7.0642e-05,-10.998,1.332
24626,14.58,5.7273,0.1,0.00021652,2163.7,0.00021626,2156.3,-7.0723e-05,0.0044548,-7.2675e-05,-14.662,1.3054
24627,14.487,5.8182,0.1,0.00021911,2189.6,0.00021884,2181.6,-7.1517e-05,0.0011396,-7.3636e-05,-15.92,1.2914
24628,14.58,5.9091,0.1,0.00021598,2158.3,0.0002158,2152.9,-7.074e-05,0.0029182,-7.2174e-05,-10.777,1.3046
24629,14.58,5.5455,0.1,0.00021619,2160.4,0.00021597,2154,-7.0706e-05,0.0052516,-7.2414e-05,-12.83,1.306
24630,14.487,5.6364,0.1,0.00021864,2184.9,0.00021842,2178.3,-7.15e-05,0.0067142,-7.325e-05,-13.148,1.2921
24631,14.58,5.3636,0.1,0.000216,2158.5,0.0002158,2152.6,-7.0691e-05,0.0031364,-7.2275e-05,-11.903,1.3067
24632,14.487,5.4545,0.1,0.00021844,2182.9,0.00021823,2176.8,-7.1485e-05,0.0033367,-7.3097e-05,-12.106,1.2927
24633,14.58,5.1818,0.1,0.00021584,2156.9,0.00021565,2151.3,-7.0677e-05,0.002251,-7.2152e-05,-11.08,1.3073
24634,14.487,5.2727,0.1,0.00021827,2181.2,0.00021807,2175.5,-7.1472e-05,0.0027765,-7.2965e-05,-11.215,1.2934
24635,14.58,5,0.1,0.00021569,2155.4,0.00021551,2150.2,-7.0665e-05,0.0011394,-7.2038e-05,-10.317,1.3078
24636,14.487,5.0909,0.1,0.00021811,2179.6,0.00021793,2174.3,-7.146e-05,0.0016658,-7.2842e-05,-10.386,1.2939
24637,14.58,4.8182,0.1,0.00021555,2154,0.00021538,2149.2,-7.0654e-05,6.8283e-05,-7.1933e-05,-9.6125,1.3083
24638,14.487,4.9091,0.1,0.00021796,2178.1,0.00021779,2173.3,-7.1449e-05,0.00066807,-7.2729e-05,-9.6169,1.2945
24639,14.58,4.6364,0.1,0.00021542,2152.7,0.00021527,2148.2,-7.0644e-05,-0.0010212,-7.1838e-05,-8.9683,1.3087
24640,14.487,4.7273,0.1,0.00021782,2176.7,0.00021767,2172.3,-7.144e-05,-0.00037783,-7.2625e-05,-8.9088,1.2949
24641,14.58,4.4545,0.1,0.00021531,2151.6,0.00021516,2147.4,-7.0636e-05,-0.0021019,-7.1752e-05,-8.3864,1.3092
24642,14.487,4.5455,0.1,0.0002177,2175.5,0.00021756,2171.4,-7.1432e-05,-0.0014249,-7.2531e-05,-8.2643,1.2954
24643,14.58,4.2727,0.1,0.00021521,2150.6,0.00021507,2146.6,-7.0629e-05,-0.003163,-7.1676e-05,-7.8685,1.3095
24644,14.487,4.3636,0.1,0.00021759,2174.4,0.00021746,2170.6,-7.1425e-05,-0.0024722,-7.2447e-05,-7.6855,1.2958
24645,14.58,4.0909,0.1,0.00021512,2149.7,0.00021499,2146,-7.0623e-05,-0.004181,-7.1609e-05,-7.4162,1.3098
24646,14.487,4.1818,0.1,0.0002175,2173.5,0.00021737,2169.9,-7.1419e-05,-0.0035003,-7.2373e-05,-7.1744,1.2961
24647,14.58,3.9091,0.1,0.00021505,2149,0.00021493,2145.5,-7.0618e-05,-0.0051281,-7.1553e-05,-7.0309,1.3101
24648,14.487,4,0.1,0.00021742,2172.7,0.0002173,2169.3,-7.1414e-05,-0.0044855,-7.2309e-05,-6.7327,1.2964
24649,14.58,3.7273,0.1,0.00021499,2148.4,0.00021487,2145,-7.0614e-05,-0.0059726,-7.1506e-05,-6.7139,1.3103
24650,14.487,3.8182,0.1,0.00021735,2172,0.00021724,2168.8,-7.141e-05,-0.0053944,-7.2256e-05,-6.3622,1.2966
24651,14.58,3.5455,0.1,0.00021494,2147.9,0.00021483,2144.7,-7.061e-05,-0.0066799,-7.147e-05,-6.4662,1.3104
24652,14.487,3.6364,0.1,0.00021729,2171.4,0.00021719,2168.4,-7.1406e-05,-0.0061914,-7.2213e-05,-6.064,1.2968
24653,14.58,3.3636,0.1,0.00021491,2147.6,0.0002148,2144.4,-7.0608e-05,-0.0072147,-7.1444e-05,-6.2887,1.3106
24654,14.487,3.4545,0.1,0.00021725,2171,0.00021715,2168.1,-7.1404e-05,-0.0068375,-7.218e-05,-5.8393,1.2969
24655,14.58,3.1818,0.1,0.00021489,2147.4,0.00021478,2144.3,-7.0607e-05,-0.0075488,-7.1429e-05,-6.1819,1.3106
24656,14.487,3.2727,0.1,0.00021722,2170.7,0.00021713,2167.9,-7.1403e-05,-0.0072929,-7.2159e-05,-5.6891,1.297
24657,14.58,3,0.1,0.00021488,2147.3,0.00021478,2144.2,-7.0607e-05,-0.0076624,-7.1424e-05,-6.1463,1.3107
24658,14.487,3.0909,0.1,0.00021721,2170.6,0.00021711,2167.8,-7.1402e-05,-0.0075287,-7.2148e-05,-5.6138,1.2971
24659,14.58,2.8182,0.1,0.00021489,2147.4,0.00021478,2144.3,-7.0607e-05,-0.0075484,-7.1429e-05,-6.1819,1.3106
24660,14.487,2.9091,0.1,0.00021721,2170.6,0.00021711,2167.8,-7.1402e-05,-0.0075283,-7.2148e-05,-5.6138,1.2971
24661,14.58,2.6364,0.1,0.00021491,2147.6,0.0002148,2144.4,-7.0608e-05,-0.0072149,-7.1444e-05,-6.2887,1.3106
24662,14.487,2.7273,0.1,0.00021722,2170.7,0.00021713,2167.9,-7.1403e-05,-0.0072926,-7.2159e-05,-5.6891,1.297
24663,14.58,2.4545,0.1,0.00021494,2147.9,0.00021483,2144.7,-7.061e-05,-0.0066799,-7.147e-05,-6.4662,1.3104
24664,14.487,2.5455,0.1,0.00021725,2171,0.00021715,2168.1,-7.1404e-05,-0.0068378,-7.218e-05,-5.8393,1.2969
24665,14.58,2.2727,0.1,0.00021499,2148.4,0.00021487,2145,-7.0614e-05,-0.0059727,-7.1506e-05,-6.7139,1.3103
24666,14.487,2.3636,0.1,0.00021729,2171.4,0.00021719,2168.4,-7.1406e-05,-0.0061916,-7.2213e-05,-6.064,1.2968
24667,14.58,2.0909,0.1,0.00021505,2149,0.00021493,2145.5,-7.0618e-05,-0.0051287,-7.1553e-05,-7.0309,1.3101
24668,14.487,2.1818,0.1,0.00021735,2172,0.00021724,2168.8,-7.141e-05,-0.0053946,-7.2256e-05,-6.3621,1.2966
24669,14.58,1.9091,0.1,0.00021512,2149.7,0.00021499,2146,-7.0623e-05,-0.0041811,-7.1609e-05,-7.4162,1.3098
24670,14.487,2,0.1,0.00021742,2172.7,0.0002173,2169.3,-7.1414e-05,-0.0044857,-7.2309e-05,-6.7327,1.2964
24671,14.58,1.7273,0.1,0.00021521,2150.6,0.00021507,2146.6,-7.0629e-05,-0.0031627,-7.1676e-05,-7.8685,1.3095
24672,14.487,1.8182,0.1,0.0002175,2173.5,0.00021737,2169.9,-7.1419e-05,-0.0035002,-7.2373e-05,-7.1743,1.2961
24673,14.58,1.5455,0.1,0.00021531,2151.6,0.00021516,2147.4,-7.0636e-05,-0.0021021,-7.1752e-05,-8.3864,1.3092
24674,14.487,1.6364,0.1,0.00021759,2174.4,0.00021746,2170.6,-7.1425e-05,-0.0024722,-7.2447e-05,-7.6854,1.2958
24675,14.58,1.3636,0.1,0.00021542,2152.7,0.00021527,2148.2,-7.0644e-05,-0.0010213,-7.1838e-05,-8.9683,1.3087
24676,14.487,1.4545,0.1,0.0002177,2175.5,0.00021756,2171.4,-7.1432e-05,-0.0014251,-7.2531e-05,-8.2642,1.2954
24677,14.58,1.1818,0.1,0.00021555,2154,0.00021538,2149.2,-7.0654e-05,6.775e-05,-7.1933e-05,-9.6124,1.3083
24678,14.487,1.2727,0.1,0.00021782,2176.7,0.00021767,2172.3,-7.144e-05,-0.00037788,-7.2625e-05,-8.9087,1.2949
24679,14.58,1,0.1,0.00021569,2155.4,0.00021551,2150.2,-7.0665e-05,0.0011385,-7.2038e-05,-10.317,1.3078
24680,14.487,1.0909,0.1,0.00021796,2178.1,0.00021779,2173.3,-7.1449e-05,0.00066783,-7.2729e-05,-9.6168,1.2945
24681,14.58,0.81818,0.1,0.00021584,2156.9,0.00021565,2151.3,-7.0677e-05,0.0022501,-7.2152e-05,-11.08,1.3073
24682,14.487,0.90909,0.1,0.00021811,2179.6,0.00021793,2174.3,-7.146e-05,0.0016644,-7.2842e-05,-10.386,1.2939
24683,14.58,0.63636,0.1,0.000216,2158.5,0.0002158,2152.6,-7.0691e-05,0.003136,-7.2275e-05,-11.903,1.3067
24684,14.487,0.72727,0.1,0.00021827,2181.2,0.00021807,2175.5,-7.1472e-05,0.0027748,-7.2965e-05,-11.215,1.2934
24685,14.58,0.45455,0.1,0.00021619,2160.4,0.00021597,2154,-7.0706e-05,0.0052518,-7.2414e-05,-12.83,1.306
24686,14.487,0.54545,0.1,0.00021844,2182.9,0.00021823,2176.8,-7.1485e-05,0.0033364,-7.3097e-05,-12.106,1.2927
24687,14.58,0.27273,0.1,0.00021652,2163.7,0.00021626,2156.3,-7.0723e-05,0.0044547,-7.2675e-05,-14.662,1.3054
24688,14.487,0.36364,0.1,0.00021864,2184.9,0.00021842,2178.3,-7.15e-05,0.006714,-7.325e-05,-13.148,1.2921
24689,14.487,0.18182,0.1,0.00021911,2189.6,0.00021884,2181.6,-7.1517e-05,0.0011394,-7.3636e-05,-15.92,1.2914
24690,14.58,0.090909,0.1,0.00021598,2158.3,0.0002158,2152.9,-7.074e-05,0.0029169,-7.2174e-05,-10.777,1.3046
24691,14.395,5.7273,0.1,0.00022122,2210.7,0.00022097,2203.5,-7.2294e-05,0.0042041,-7.4196e-05,-14.289,1.2781
24692,14.303,5.8182,0.1,0.00022383,2236.7,0.00022356,2228.9,-7.309e-05,0.0013172,-7.5163e-05,-15.569,1.2642
24693,14.395,5.9091,0.1,0.0002207,2205.5,0.00022052,2200.2,-7.2309e-05,0.0027762,-7.3714e-05,-10.554,1.2774
24694,14.395,5.5455,0.1,0.00022089,2207.4,0.00022068,2201.2,-7.2279e-05,0.0048814,-7.3929e-05,-12.393,1.2788
24695,14.303,5.6364,0.1,0.00022336,2232,0.00022314,2225.6,-7.3075e-05,0.0061338,-7.4772e-05,-12.744,1.265
24696,14.395,5.3636,0.1,0.0002207,2205.5,0.0002205,2199.8,-7.2266e-05,0.0030084,-7.3782e-05,-11.391,1.2795
24697,14.303,5.4545,0.1,0.00022315,2230,0.00022295,2224.1,-7.3063e-05,0.0031799,-7.461e-05,-11.625,1.2656
24698,14.395,5.1818,0.1,0.00022053,2203.8,0.00022035,2198.5,-7.2254e-05,0.0022193,-7.3651e-05,-10.494,1.2801
24699,14.303,5.2727,0.1,0.00022297,2228.2,0.00022279,2222.8,-7.3052e-05,0.0026864,-7.447e-05,-10.656,1.2663
24700,14.395,5,0.1,0.00022037,2202.2,0.00022021,2197.4,-7.2244e-05,0.0012219,-7.353e-05,-9.6592,1.2806
24701,14.303,5.0909,0.1,0.0002228,2226.5,0.00022264,2221.6,-7.3042e-05,0.0017076,-7.434e-05,-9.7516,1.2669
24702,14.395,4.8182,0.1,0.00022023,2200.8,0.00022008,2196.3,-7.2235e-05,0.00024891,-7.3418e-05,-8.8863,1.2812
24703,14.303,4.9091,0.1,0.00022265,2225,0.0002225,2220.5,-7.3033e-05,0.00081918,-7.4219e-05,-8.9099,1.2674
24704,14.395,4.6364,0.1,0.0002201,2199.5,0.00021996,2195.4,-7.2227e-05,-0.0007559,-7.3315e-05,-8.178,1.2816
24705,14.303,4.7273,0.1,0.00022251,2223.6,0.00022237,2219.5,-7.3026e-05,-0.00012488,-7.4108e-05,-8.1334,1.2679
24706,14.395,4.4545,0.1,0.00021998,2198.3,0.00021985,2194.5,-7.222e-05,-0.0017724,-7.3223e-05,-7.5367,1.282
24707,14.303,4.5455,0.1,0.00022239,2222.3,0.00022226,2218.6,-7.3019e-05,-0.0010885,-7.4007e-05,-7.4251,1.2683
24708,14.395,4.2727,0.1,0.00021988,2197.3,0.00021976,2193.8,-7.2215e-05,-0.002792,-7.3141e-05,-6.9647,1.2824
24709,14.303,4.3636,0.1,0.00022227,2221.2,0.00022216,2217.8,-7.3014e-05,-0.0020743,-7.3917e-05,-6.7878,1.2687
24710,14.395,4.0909,0.1,0.00021979,2196.4,0.00021968,2193.1,-7.221e-05,-0.0037956,-7.307e-05,-6.4644,1.2827
24711,14.303,4.1818,0.1,0.00022217,2220.2,0.00022207,2217.1,-7.3009e-05,-0.0030694,-7.3837e-05,-6.224,1.269
24712,14.395,3.9091,0.1,0.00021971,2195.6,0.00021961,2192.6,-7.2206e-05,-0.0047543,-7.3009e-05,-6.0375,1.283
24713,14.303,4,0.1,0.00022209,2219.4,0.00022199,2216.5,-7.3005e-05,-0.0040524,-7.3768e-05,-5.7361,1.2693
24714,14.395,3.7273,0.1,0.00021965,2195,0.00021955,2192.1,-7.2203e-05,-0.0056304,-7.2958e-05,-5.6858,1.2832
24715,14.303,3.8182,0.1,0.00022202,2218.6,0.00022193,2216,-7.3002e-05,-0.004988,-7.371e-05,-5.3261,1.2696
24716,14.395,3.5455,0.1,0.0002196,2194.5,0.00021951,2191.8,-7.22e-05,-0.0063822,-7.2919e-05,-5.4107,1.2833
24717,14.303,3.6364,0.1,0.00022196,2218.1,0.00022187,2215.6,-7.3e-05,-0.0058338,-7.3664e-05,-4.9959,1.2698
24718,14.395,3.3636,0.1,0.00021956,2194.1,0.00021947,2191.5,-7.2198e-05,-0.0069636,-7.2891e-05,-5.2133,1.2835
24719,14.303,3.4545,0.1,0.00022192,2217.6,0.00022184,2215.3,-7.2998e-05,-0.0065385,-7.3629e-05,-4.7468,1.2699
24720,14.395,3.1818,0.1,0.00021954,2193.9,0.00021946,2191.4,-7.2197e-05,-0.0073312,-7.2874e-05,-5.0946,1.2835
24721,14.303,3.2727,0.1,0.00022189,2217.4,0.00022181,2215.1,-7.2997e-05,-0.0070467,-7.3606e-05,-4.5802,1.27
24722,14.395,3,0.1,0.00021954,2193.8,0.00021945,2191.3,-7.2197e-05,-0.007457,-7.2869e-05,-5.0549,1.2836
24723,14.303,3.0909,0.1,0.00022187,2217.2,0.0002218,2215,-7.2996e-05,-0.007313,-7.3594e-05,-4.4966,1.2701
24724,14.395,2.8182,0.1,0.00021954,2193.9,0.00021946,2191.4,-7.2197e-05,-0.0073311,-7.2874e-05,-5.0946,1.2835
24725,14.303,2.9091,0.1,0.00022187,2217.2,0.0002218,2215,-7.2996e-05,-0.0073131,-7.3594e-05,-4.4966,1.2701
24726,14.395,2.6364,0.1,0.00021956,2194.1,0.00021947,2191.5,-7.2198e-05,-0.0069635,-7.2891e-05,-5.2133,1.2835
24727,14.303,2.7273,0.1,0.00022189,2217.4,0.00022181,2215.1,-7.2997e-05,-0.0070465,-7.3606e-05,-4.5802,1.27
24728,14.395,2.4545,0.1,0.0002196,2194.5,0.00021951,2191.8,-7.22e-05,-0.0063827,-7.2919e-05,-5.4107,1.2833
24729,14.303,2.5455,0.1,0.00022192,2217.6,0.00022184,2215.3,-7.2998e-05,-0.006539,-7.3629e-05,-4.7468,1.2699
24730,14.395,2.2727,0.1,0.00021965,2195,0.00021955,2192.1,-7.2203e-05,-0.0056307,-7.2958e-05,-5.6858,1.2832
24731,14.303,2.3636,0.1,0.00022196,2218.1,0.00022187,2215.6,-7.3e-05,-0.0058339,-7.3664e-05,-4.9958,1.2698
24732,14.395,2.0909,0.1,0.00021971,2195.6,0.00021961,2192.6,-7.2206e-05,-0.004754,-7.3009e-05,-6.0375,1.283
24733,14.303,2.1818,0.1,0.00022202,2218.6,0.00022193,2216,-7.3002e-05,-0.0049879,-7.371e-05,-5.3261,1.2696
24734,14.395,1.9091,0.1,0.00021979,2196.4,0.00021968,2193.1,-7.221e-05,-0.0037955,-7.307e-05,-6.4644,1.2827
24735,14.303,2,0.1,0.00022209,2219.4,0.00022199,2216.5,-7.3005e-05,-0.0040524,-7.3768e-05,-5.7361,1.2693
24736,14.395,1.7273,0.1,0.00021988,2197.3,0.00021976,2193.8,-7.2215e-05,-0.0027921,-7.3141e-05,-6.9647,1.2824
24737,14.303,1.8182,0.1,0.00022217,2220.2,0.00022207,2217.1,-7.3009e-05,-0.0030695,-7.3837e-05,-6.224,1.269
24738,14.395,1.5455,0.1,0.00021998,2198.3,0.00021985,2194.5,-7.222e-05,-0.0017724,-7.3223e-05,-7.5366,1.282
24739,14.303,1.6364,0.1,0.00022227,2221.2,0.00022216,2217.8,-7.3014e-05,-0.0020749,-7.3917e-05,-6.7877,1.2687
24740,14.395,1.3636,0.1,0.0002201,2199.5,0.00021996,2195.4,-7.2227e-05,-0.00075602,-7.3315e-05,-8.1779,1.2816
24741,14.303,1.4545,0.1,0.00022239,2222.3,0.00022226,2218.6,-7.3019e-05,-0.0010882,-7.4007e-05,-7.425,1.2683
24742,14.395,1.1818,0.1,0.00022023,2200.8,0.00022008,2196.3,-7.2235e-05,0.00024916,-7.3418e-05,-8.8862,1.2812
24743,14.303,1.2727,0.1,0.00022251,2223.6,0.00022237,2219.5,-7.3026e-05,-0.0001251,-7.4108e-05,-8.1333,1.2679
24744,14.395,1,0.1,0.00022037,2202.2,0.00022021,2197.4,-7.2244e-05,0.0012212,-7.353e-05,-9.6591,1.2806
24745,14.303,1.0909,0.1,0.00022265,2225,0.0002225,2220.5,-7.3033e-05,0.00081928,-7.4219e-05,-8.9098,1.2674
24746,14.395,0.81818,0.1,0.00022053,2203.8,0.00022035,2198.5,-7.2254e-05,0.002217,-7.3651e-05,-10.494,1.2801
24747,14.303,0.90909,0.1,0.0002228,2226.5,0.00022264,2221.6,-7.3042e-05,0.0017062,-7.434e-05,-9.7516,1.2669
24748,14.395,0.63636,0.1,0.0002207,2205.5,0.0002205,2199.8,-7.2266e-05,0.0030068,-7.3782e-05,-11.391,1.2795
24749,14.303,0.72727,0.1,0.00022297,2228.2,0.00022279,2222.8,-7.3052e-05,0.0026843,-7.447e-05,-10.656,1.2663
24750,14.395,0.45455,0.1,0.00022089,2207.4,0.00022068,2201.2,-7.2279e-05,0.0048805,-7.3929e-05,-12.393,1.2788
24751,14.303,0.54545,0.1,0.00022315,2230,0.00022295,2224.1,-7.3063e-05,0.003179,-7.4611e-05,-11.625,1.2656
24752,14.395,0.27273,0.1,0.00022122,2210.7,0.00022097,2203.5,-7.2294e-05,0.0042037,-7.4196e-05,-14.289,1.2781
24753,14.303,0.36364,0.1,0.00022336,2232,0.00022314,2225.6,-7.3075e-05,0.0061335,-7.4772e-05,-12.744,1.265
24754,14.303,0.18182,0.1,0.00022383,2236.7,0.00022356,2228.9,-7.309e-05,0.0013172,-7.5163e-05,-15.568,1.2642
24755,14.395,0.090909,0.1,0.0002207,2205.5,0.00022052,2200.2,-7.2309e-05,0.0027767,-7.3714e-05,-10.554,1.2774
24756,14.21,5.7273,0.1,0.00022595,2257.9,0.00022571,2250.9,-7.3872e-05,0.0039584,-7.5724e-05,-13.909,1.2511
24757,14.118,5.8182,0.1,0.00022856,2284,0.0002283,2276.4,-7.4671e-05,0.0015046,-7.6696e-05,-15.213,1.2372
24758,14.21,5.9091,0.1,0.00022545,2252.9,0.00022527,2247.7,-7.3885e-05,0.0026465,-7.526e-05,-10.329,1.2503
24759,14.21,5.5455,0.1,0.00022561,2254.6,0.00022541,2248.6,-7.3859e-05,0.0045076,-7.545e-05,-11.945,1.2518
24760,14.118,5.6364,0.1,0.00022809,2279.3,0.00022788,2273.2,-7.4658e-05,0.0055194,-7.63e-05,-12.331,1.238
24761,14.21,5.3636,0.1,0.00022542,2252.6,0.00022523,2247.2,-7.3849e-05,0.0028897,-7.5295e-05,-10.863,1.2525
24762,14.118,5.4545,0.1,0.00022788,2277.2,0.00022769,2271.6,-7.4648e-05,0.0030097,-7.613e-05,-11.128,1.2387
24763,14.21,5.1818,0.1,0.00022524,2250.9,0.00022507,2245.9,-7.3839e-05,0.0022047,-7.5155e-05,-9.8867,1.2531
24764,14.118,5.2727,0.1,0.00022769,2275.4,0.00022752,2270.3,-7.4639e-05,0.0025889,-7.5981e-05,-10.076,1.2393
24765,14.21,5,0.1,0.00022508,2249.2,0.00022493,2244.7,-7.3831e-05,0.0013365,-7.5026e-05,-8.9758,1.2536
24766,14.118,5.0909,0.1,0.00022752,2273.7,0.00022737,2269.1,-7.4631e-05,0.0017565,-7.5842e-05,-9.0918,1.2399
24767,14.21,4.8182,0.1,0.00022493,2247.7,0.00022479,2243.7,-7.3824e-05,0.00047925,-7.4906e-05,-8.1305,1.2542
24768,14.118,4.9091,0.1,0.00022736,2272.1,0.00022722,2268,-7.4625e-05,0.00099625,-7.5713e-05,-8.1733,1.2405
24769,14.21,4.6364,0.1,0.00022479,2246.4,0.00022467,2242.7,-7.3818e-05,-0.00042142,-7.4796e-05,-7.3542,1.2546
24770,14.118,4.7273,0.1,0.00022722,2270.6,0.00022709,2267,-7.4619e-05,0.00017743,-7.5594e-05,-7.3242,1.241
24771,14.21,4.4545,0.1,0.00022467,2245.2,0.00022456,2241.8,-7.3812e-05,-0.0013532,-7.4697e-05,-6.65,1.255
24772,14.118,4.5455,0.1,0.00022709,2269.3,0.00022698,2266,-7.4614e-05,-0.00067605,-7.5486e-05,-6.5482,1.2414
24773,14.21,4.2727,0.1,0.00022456,2244.1,0.00022446,2241.1,-7.3808e-05,-0.0023161,-7.4609e-05,-6.0209,1.2554
24774,14.118,4.3636,0.1,0.00022697,2268.1,0.00022687,2265.2,-7.461e-05,-0.0015752,-7.5389e-05,-5.8488,1.2418
24775,14.21,4.0909,0.1,0.00022447,2243.2,0.00022438,2240.4,-7.3805e-05,-0.0032963,-7.4532e-05,-5.4697,1.2557
24776,14.118,4.1818,0.1,0.00022687,2267.1,0.00022678,2264.5,-7.4607e-05,-0.0025165,-7.5303e-05,-5.2291,1.2421
24777,14.21,3.9091,0.1,0.00022439,2242.4,0.00022431,2239.9,-7.3802e-05,-0.0042679,-7.4466e-05,-4.9987,1.256
24778,14.118,4,0.1,0.00022678,2266.2,0.0002267,2263.9,-7.4605e-05,-0.0034868,-7.5229e-05,-4.6921,1.2424
24779,14.21,3.7273,0.1,0.00022433,2241.7,0.00022425,2239.4,-7.3799e-05,-0.0051914,-7.4412e-05,-4.6103,1.2562
24780,14.118,3.8182,0.1,0.0002267,2265.5,0.00022663,2263.4,-7.4603e-05,-0.0044556,-7.5166e-05,-4.2403,1.2427
24781,14.21,3.5455,0.1,0.00022427,2241.2,0.0002242,2239,-7.3798e-05,-0.0060128,-7.437e-05,-4.3061,1.2564
24782,14.118,3.6364,0.1,0.00022664,2264.9,0.00022658,2262.9,-7.4601e-05,-0.0053763,-7.5116e-05,-3.876,1.2429
24783,14.21,3.3636,0.1,0.00022424,2240.8,0.00022417,2238.8,-7.3796e-05,-0.0066677,-7.434e-05,-4.0878,1.2565
24784,14.118,3.4545,0.1,0.0002266,2264.4,0.00022654,2262.6,-7.46e-05,-0.0061782,-7.5078e-05,-3.6011,1.243
24785,14.21,3.1818,0.1,0.00022422,2240.6,0.00022415,2238.6,-7.3796e-05,-0.0070924,-7.4321e-05,-3.9563,1.2566
24786,14.118,3.2727,0.1,0.00022657,2264.1,0.00022651,2262.4,-7.4599e-05,-0.0067785,-7.5053e-05,-3.4169,1.2431
24787,14.21,3,0.1,0.00022421,2240.5,0.00022414,2238.6,-7.3796e-05,-0.0072399,-7.4315e-05,-3.9125,1.2566
24788,14.118,3.0909,0.1,0.00022655,2264,0.0002265,2262.3,-7.4599e-05,-0.0071017,-7.504e-05,-3.3246,1.2432
24789,14.21,2.8182,0.1,0.00022422,2240.6,0.00022415,2238.6,-7.3796e-05,-0.0070925,-7.4321e-05,-3.9563,1.2566
24790,14.118,2.9091,0.1,0.00022655,2264,0.0002265,2262.3,-7.4599e-05,-0.007102,-7.504e-05,-3.3246,1.2432
24791,14.21,2.6364,0.1,0.00022424,2240.8,0.00022417,2238.8,-7.3796e-05,-0.0066681,-7.434e-05,-4.0878,1.2565
24792,14.118,2.7273,0.1,0.00022657,2264.1,0.00022651,2262.4,-7.4599e-05,-0.0067785,-7.5053e-05,-3.4169,1.2431
24793,14.21,2.4545,0.1,0.00022427,2241.2,0.0002242,2239,-7.3798e-05,-0.0060129,-7.437e-05,-4.3061,1.2564
24794,14.118,2.5455,0.1,0.0002266,2264.4,0.00022654,2262.6,-7.46e-05,-0.0061785,-7.5078e-05,-3.6011,1.243
24795,14.21,2.2727,0.1,0.00022433,2241.7,0.00022425,2239.4,-7.3799e-05,-0.005191,-7.4412e-05,-4.6103,1.2562
24796,14.118,2.3636,0.1,0.00022664,2264.9,0.00022658,2262.9,-7.4601e-05,-0.0053759,-7.5116e-05,-3.876,1.2429
24797,14.21,2.0909,0.1,0.00022439,2242.4,0.00022431,2239.9,-7.3802e-05,-0.0042681,-7.4466e-05,-4.9987,1.256
24798,14.118,2.1818,0.1,0.0002267,2265.5,0.00022663,2263.4,-7.4603e-05,-0.0044561,-7.5166e-05,-4.2403,1.2427
24799,14.21,1.9091,0.1,0.00022447,2243.2,0.00022438,2240.4,-7.3805e-05,-0.0032966,-7.4532e-05,-5.4696,1.2557
24800,14.118,2,0.1,0.00022678,2266.2,0.0002267,2263.9,-7.4605e-05,-0.003487,-7.5229e-05,-4.6921,1.2424
24801,14.21,1.7273,0.1,0.00022456,2244.1,0.00022446,2241.1,-7.3808e-05,-0.0023167,-7.4609e-05,-6.0209,1.2554
24802,14.118,1.8182,0.1,0.00022687,2267.1,0.00022678,2264.5,-7.4607e-05,-0.0025165,-7.5303e-05,-5.2291,1.2421
24803,14.21,1.5455,0.1,0.00022467,2245.2,0.00022456,2241.8,-7.3812e-05,-0.0013536,-7.4697e-05,-6.65,1.255
24804,14.118,1.6364,0.1,0.00022697,2268.1,0.00022687,2265.2,-7.461e-05,-0.0015757,-7.5389e-05,-5.8488,1.2418
24805,14.21,1.3636,0.1,0.00022479,2246.4,0.00022467,2242.7,-7.3818e-05,-0.00042126,-7.4796e-05,-7.3541,1.2546
24806,14.118,1.4545,0.1,0.00022709,2269.3,0.00022698,2266,-7.4614e-05,-0.00067671,-7.5486e-05,-6.5482,1.2414
24807,14.21,1.1818,0.1,0.00022493,2247.7,0.00022479,2243.7,-7.3824e-05,0.00047888,-7.4906e-05,-8.1304,1.2542
24808,14.118,1.2727,0.1,0.00022722,2270.6,0.00022709,2267,-7.4619e-05,0.00017654,-7.5594e-05,-7.3241,1.241
24809,14.21,1,0.1,0.00022508,2249.2,0.00022493,2244.7,-7.3831e-05,0.0013359,-7.5026e-05,-8.9757,1.2536
24810,14.118,1.0909,0.1,0.00022736,2272.1,0.00022722,2268,-7.4625e-05,0.00099571,-7.5713e-05,-8.1732,1.2405
24811,14.21,0.81818,0.1,0.00022524,2250.9,0.00022507,2245.9,-7.3839e-05,0.0022035,-7.5155e-05,-9.8866,1.2531
24812,14.118,0.90909,0.1,0.00022752,2273.7,0.00022737,2269.1,-7.4631e-05,0.0017557,-7.5842e-05,-9.0918,1.2399
24813,14.21,0.63636,0.1,0.00022542,2252.6,0.00022523,2247.2,-7.3849e-05,0.0028883,-7.5295e-05,-10.863,1.2525
24814,14.118,0.72727,0.1,0.00022769,2275.4,0.00022752,2270.3,-7.4639e-05,0.0025866,-7.5981e-05,-10.076,1.2393
24815,14.21,0.45455,0.1,0.00022561,2254.6,0.00022541,2248.6,-7.3859e-05,0.0045072,-7.545e-05,-11.945,1.2518
24816,14.118,0.54545,0.1,0.00022788,2277.2,0.00022769,2271.6,-7.4648e-05,0.0030089,-7.613e-05,-11.128,1.2387
24817,14.21,0.27273,0.1,0.00022595,2257.9,0.00022571,2250.9,-7.3872e-05,0.0039586,-7.5724e-05,-13.909,1.2511
24818,14.118,0.36364,0.1,0.00022809,2279.3,0.00022788,2273.2,-7.4658e-05,0.0055191,-7.63e-05,-12.331,1.238
24819,14.118,0.18182,0.1,0.00022856,2284,0.0002283,2276.4,-7.4671e-05,0.0015043,-7.6696e-05,-15.213,1.2372
24820,14.21,0.090909,0.1,0.00022545,2252.9,0.00022527,2247.7,-7.3885e-05,0.0026463,-7.526e-05,-10.329,1.2503
24821,14.026,5.7273,0.1,0.00023069,2305.3,0.00023046,2298.5,-7.5457e-05,0.00368,-7.7257e-05,-13.521,1.2242
24822,13.933,5.8182,0.1,0.00023332,2331.6,0.00023306,2324.1,-7.6258e-05,0.0016997,-7.8235e-05,-14.851,1.2104
24823,14.026,5.9091,0.1,0.00023021,2300.5,0.00023003,2295.4,-7.5468e-05,0.0024897,-7.6812e-05,-10.101,1.2234
24824,14.026,5.5455,0.1,0.00023035,2302,0.00023016,2296.2,-7.5447e-05,0.0040887,-7.6976e-05,-11.483,1.2249
24825,13.933,5.6364,0.1,0.00023285,2326.9,0.00023264,2320.9,-7.6249e-05,0.0048645,-7.7834e-05,-11.906,1.2112
24826,14.026,5.3636,0.1,0.00023015,2299.9,0.00022998,2294.8,-7.5439e-05,0.0027399,-7.6812e-05,-10.315,1.2256
24827,13.933,5.4545,0.1,0.00023263,2324.7,0.00023245,2319.4,-7.6241e-05,0.0028197,-7.7654e-05,-10.614,1.2119
24828,14.026,5.1818,0.1,0.00022997,2298.1,0.00022981,2293.5,-7.5432e-05,0.0021718,-7.6664e-05,-9.2552,1.2262
24829,13.933,5.2727,0.1,0.00023244,2322.8,0.00023227,2318,-7.6234e-05,0.0024814,-7.7495e-05,-9.4736,1.2125
24830,14.026,5,0.1,0.0002298,2296.5,0.00022966,2292.3,-7.5425e-05,0.0014516,-7.6525e-05,-8.2633,1.2268
24831,13.933,5.0909,0.1,0.00023226,2321,0.00023212,2316.8,-7.6229e-05,0.001815,-7.7347e-05,-8.4036,1.2131
24832,14.026,4.8182,0.1,0.00022965,2294.9,0.00022952,2291.2,-7.542e-05,0.000736,-7.6397e-05,-7.341,1.2273
24833,13.933,4.9091,0.1,0.00023209,2319.3,0.00023197,2315.6,-7.6224e-05,0.0012098,-7.721e-05,-7.4031,1.2137
24834,14.026,4.6364,0.1,0.00022951,2293.5,0.0002294,2290.2,-7.5416e-05,-2.7543e-05,-7.628e-05,-6.4924,1.2278
24835,13.933,4.7273,0.1,0.00023194,2317.8,0.00023183,2314.6,-7.6221e-05,0.00055404,-7.7083e-05,-6.4767,1.2142
24836,14.026,4.4545,0.1,0.00022938,2292.2,0.00022928,2289.4,-7.5412e-05,-0.00083938,-7.6174e-05,-5.7213,1.2282
24837,13.933,4.5455,0.1,0.00023181,2316.5,0.00023171,2313.7,-7.6218e-05,-0.00014252,-7.6967e-05,-5.6286,1.2146
24838,14.026,4.2727,0.1,0.00022927,2291.1,0.00022918,2288.6,-7.541e-05,-0.0017092,-7.6079e-05,-5.0314,1.2286
24839,13.933,4.3636,0.1,0.00023169,2315.3,0.0002316,2312.8,-7.6215e-05,-0.00089988,-7.6862e-05,-4.863,1.2151
24840,14.026,4.0909,0.1,0.00022917,2290.1,0.0002291,2287.9,-7.5407e-05,-0.0026374,-7.5996e-05,-4.4261,1.2289
24841,13.933,4.1818,0.1,0.00023158,2314.2,0.00023151,2312.1,-7.6214e-05,-0.0017325,-7.677e-05,-4.1837,1.2154
24842,14.026,3.9091,0.1,0.00022909,2289.3,0.00022902,2287.3,-7.5406e-05,-0.003611,-7.5925e-05,-3.9083,1.2292
24843,13.933,4,0.1,0.00023149,2313.3,0.00023142,2311.5,-7.6212e-05,-0.0026481,-7.669e-05,-3.5944,1.2157
24844,14.026,3.7273,0.1,0.00022902,2288.6,0.00022896,2286.9,-7.5404e-05,-0.0045969,-7.5867e-05,-3.4807,1.2294
24845,13.933,3.8182,0.1,0.00023141,2312.5,0.00023135,2310.9,-7.6211e-05,-0.0036374,-7.6623e-05,-3.098,1.216
24846,14.026,3.5455,0.1,0.00022897,2288.1,0.00022891,2286.5,-7.5403e-05,-0.0055327,-7.5821e-05,-3.1456,1.2296
24847,13.933,3.6364,0.1,0.00023135,2311.9,0.0002313,2310.5,-7.6211e-05,-0.0046656,-7.6569e-05,-2.6973,1.2162
24848,14.026,3.3636,0.1,0.00022893,2287.7,0.00022888,2286.2,-7.5403e-05,-0.0063231,-7.5789e-05,-2.9049,1.2297
24849,13.933,3.4545,0.1,0.0002313,2311.4,0.00023126,2310.2,-7.621e-05,-0.0056453,-7.6528e-05,-2.3947,1.2163
24850,14.026,3.1818,0.1,0.0002289,2287.5,0.00022886,2286.1,-7.5402e-05,-0.006859,-7.5769e-05,-2.7599,1.2298
24851,13.933,3.2727,0.1,0.00023127,2311.1,0.00023123,2310,-7.621e-05,-0.0064397,-7.6501e-05,-2.1918,1.2164
24852,14.026,3,0.1,0.0002289,2287.4,0.00022885,2286,-7.5402e-05,-0.0070499,-7.5762e-05,-2.7114,1.2298
24853,13.933,3.0909,0.1,0.00023125,2310.9,0.00023122,2309.9,-7.621e-05,-0.0068917,-7.6487e-05,-2.09,1.2165
24854,14.026,2.8182,0.1,0.0002289,2287.5,0.00022886,2286.1,-7.5402e-05,-0.0068592,-7.5769e-05,-2.7599,1.2298
24855,13.933,2.9091,0.1,0.00023125,2310.9,0.00023122,2309.9,-7.621e-05,-0.0068916,-7.6487e-05,-2.09,1.2165
24856,14.026,2.6364,0.1,0.00022893,2287.7,0.00022888,2286.2,-7.5403e-05,-0.006323,-7.5789e-05,-2.9049,1.2297
24857,13.933,2.7273,0.1,0.00023127,2311.1,0.00023123,2310,-7.621e-05,-0.0064395,-7.6501e-05,-2.1918,1.2164
24858,14.026,2.4545,0.1,0.00022897,2288.1,0.00022891,2286.5,-7.5403e-05,-0.0055326,-7.5821e-05,-3.1456,1.2296
24859,13.933,2.5455,0.1,0.0002313,2311.4,0.00023126,2310.2,-7.621e-05,-0.0056453,-7.6528e-05,-2.3947,1.2163
24860,14.026,2.2727,0.1,0.00022902,2288.6,0.00022896,2286.9,-7.5404e-05,-0.0045974,-7.5867e-05,-3.4807,1.2294
24861,13.933,2.3636,0.1,0.00023135,2311.9,0.0002313,2310.5,-7.6211e-05,-0.0046653,-7.6569e-05,-2.6973,1.2162
24862,14.026,2.0909,0.1,0.00022909,2289.3,0.00022902,2287.3,-7.5406e-05,-0.0036115,-7.5925e-05,-3.9083,1.2292
24863,13.933,2.1818,0.1,0.00023141,2312.5,0.00023135,2310.9,-7.6211e-05,-0.0036378,-7.6623e-05,-3.098,1.216
24864,14.026,1.9091,0.1,0.00022917,2290.1,0.0002291,2287.9,-7.5407e-05,-0.0026374,-7.5996e-05,-4.426,1.2289
24865,13.933,2,0.1,0.00023149,2313.3,0.00023142,2311.5,-7.6212e-05,-0.0026479,-7.669e-05,-3.5943,1.2157
24866,14.026,1.7273,0.1,0.00022927,2291.1,0.00022918,2288.6,-7.541e-05,-0.0017091,-7.6079e-05,-5.0314,1.2286
24867,13.933,1.8182,0.1,0.00023158,2314.2,0.00023151,2312.1,-7.6214e-05,-0.0017326,-7.677e-05,-4.1837,1.2154
24868,14.026,1.5455,0.1,0.00022938,2292.2,0.00022928,2289.4,-7.5412e-05,-0.00084015,-7.6174e-05,-5.7213,1.2282
24869,13.933,1.6364,0.1,0.00023169,2315.3,0.0002316,2312.8,-7.6215e-05,-0.00089991,-7.6862e-05,-4.8629,1.2151
24870,14.026,1.3636,0.1,0.00022951,2293.5,0.0002294,2290.2,-7.5416e-05,-2.9261e-05,-7.628e-05,-6.4924,1.2278
24871,13.933,1.4545,0.1,0.00023181,2316.5,0.00023171,2313.7,-7.6218e-05,-0.0001429,-7.6967e-05,-5.6285,1.2146
24872,14.026,1.1818,0.1,0.00022965,2294.9,0.00022952,2291.2,-7.542e-05,0.00073495,-7.6397e-05,-7.341,1.2273
24873,13.933,1.2727,0.1,0.00023194,2317.8,0.00023183,2314.6,-7.6221e-05,0.00055316,-7.7083e-05,-6.4766,1.2142
24874,14.026,1,0.1,0.0002298,2296.5,0.00022966,2292.3,-7.5425e-05,0.0014508,-7.6525e-05,-8.2632,1.2268
24875,13.933,1.0909,0.1,0.00023209,2319.3,0.00023197,2315.6,-7.6224e-05,0.0012095,-7.721e-05,-7.4031,1.2137
24876,14.026,0.81818,0.1,0.00022997,2298.1,0.00022981,2293.5,-7.5432e-05,0.0021699,-7.6664e-05,-9.2551,1.2262
24877,13.933,0.90909,0.1,0.00023226,2321,0.00023212,2316.8,-7.6229e-05,0.0018138,-7.7347e-05,-8.4035,1.2131
24878,14.026,0.63636,0.1,0.00023015,2299.9,0.00022998,2294.8,-7.5439e-05,0.0027381,-7.6812e-05,-10.315,1.2256
24879,13.933,0.72727,0.1,0.00023244,2322.8,0.00023227,2318,-7.6234e-05,0.0024786,-7.7495e-05,-9.4735,1.2125
24880,14.026,0.45455,0.1,0.00023035,2302,0.00023016,2296.2,-7.5447e-05,0.0040879,-7.6976e-05,-11.483,1.2249
24881,13.933,0.54545,0.1,0.00023263,2324.7,0.00023245,2319.4,-7.6241e-05,0.0028198,-7.7654e-05,-10.614,1.2119
24882,14.026,0.27273,0.1,0.00023069,2305.3,0.00023046,2298.5,-7.5457e-05,0.0036792,-7.7257e-05,-13.521,1.2242
24883,13.933,0.36364,0.1,0.00023285,2326.9,0.00023264,2320.9,-7.6249e-05,0.0048642,-7.7834e-05,-11.906,1.2112
24884,13.933,0.18182,0.1,0.00023332,2331.6,0.00023306,2324.1,-7.6258e-05,0.0016994,-7.8235e-05,-14.851,1.2104
24885,14.026,0.090909,0.1,0.00023021,2300.5,0.00023003,2295.4,-7.5468e-05,0.00249,-7.6812e-05,-10.101,1.2234
24886,13.841,5.7273,0.1,0.00023546,2353,0.00023523,2346.4,-7.705e-05,0.0033973,-7.8797e-05,-13.124,1.1974
24887,13.749,5.8182,0.1,0.0002381,2379.3,0.00023785,2372,-7.7853e-05,0.0019195,-7.9781e-05,-14.483,1.1837
24888,13.841,5.9091,0.1,0.00023499,2348.3,0.00023482,2343.3,-7.7058e-05,0.0023362,-7.8372e-05,-9.8705,1.1966
24889,13.841,5.5455,0.1,0.00023512,2349.5,0.00023493,2344,-7.7042e-05,0.0036529,-7.8508e-05,-11.006,1.1982
24890,13.749,5.6364,0.1,0.00023762,2374.6,0.00023743,2368.8,-7.7846e-05,0.0041793,-7.9373e-05,-11.467,1.1845
24891,13.841,5.3636,0.1,0.00023491,2347.5,0.00023474,2342.6,-7.7036e-05,0.0025898,-7.8334e-05,-9.7461,1.1989
24892,13.749,5.4545,0.1,0.0002374,2372.3,0.00023722,2367.3,-7.7841e-05,0.0026248,-7.9183e-05,-10.08,1.1852
24893,13.841,5.1818,0.1,0.00023472,2345.6,0.00023457,2341.3,-7.7031e-05,0.0021551,-7.8176e-05,-8.5962,1.1995
24894,13.749,5.2727,0.1,0.0002372,2370.4,0.00023705,2365.9,-7.7837e-05,0.0023802,-7.9014e-05,-8.8448,1.1859
24895,13.841,5,0.1,0.00023455,2343.8,0.00023442,2340.1,-7.7028e-05,0.0016111,-7.8028e-05,-7.5178,1.2001
24896,13.749,5.0909,0.1,0.00023701,2368.5,0.00023688,2364.7,-7.7834e-05,0.0019073,-7.8857e-05,-7.6832,1.1865
24897,13.841,4.8182,0.1,0.00023439,2342.2,0.00023427,2339,-7.7025e-05,0.0010778,-7.7892e-05,-6.5133,1.2006
24898,13.749,4.9091,0.1,0.00023684,2366.8,0.00023673,2363.5,-7.7831e-05,0.0014994,-7.8709e-05,-6.5952,1.1871
24899,13.841,4.6364,0.1,0.00023424,2340.8,0.00023414,2338,-7.7022e-05,0.00050737,-7.7766e-05,-5.5875,1.2011
24900,13.749,4.7273,0.1,0.00023669,2365.2,0.00023659,2362.4,-7.783e-05,0.001071,-7.8573e-05,-5.5859,1.1876
24901,13.841,4.4545,0.1,0.00023411,2339.5,0.00023403,2337.1,-7.702e-05,-0.00010913,-7.7652e-05,-4.745,1.2015
24902,13.749,4.5455,0.1,0.00023655,2363.8,0.00023647,2361.5,-7.7829e-05,0.00062647,-7.8449e-05,-4.6607,1.1881
24903,13.841,4.2727,0.1,0.00023399,2338.3,0.00023392,2336.3,-7.7019e-05,-0.00079661,-7.755e-05,-3.9902,1.2019
24904,13.749,4.3636,0.1,0.00023642,2362.5,0.00023635,2360.6,-7.7828e-05,0.00014331,-7.8337e-05,-3.8244,1.1885
24905,13.841,4.0909,0.1,0.00023389,2337.3,0.00023383,2335.6,-7.7018e-05,-0.0015806,-7.7461e-05,-3.3271,1.2023
24906,13.749,4.1818,0.1,0.00023631,2361.4,0.00023625,2359.9,-7.7828e-05,-0.00041086,-7.8238e-05,-3.0815,1.1888
24907,13.841,3.9091,0.1,0.0002338,2336.4,0.00023375,2335,-7.7018e-05,-0.0024825,-7.7385e-05,-2.7593,1.2025
24908,13.749,4,0.1,0.00023621,2360.5,0.00023617,2359.2,-7.7828e-05,-0.0010751,-7.8152e-05,-2.4363,1.1891
24909,13.841,3.7273,0.1,0.00023373,2335.7,0.00023369,2334.5,-7.7018e-05,-0.0035105,-7.7322e-05,-2.29,1.2028
24910,13.749,3.8182,0.1,0.00023613,2359.6,0.00023609,2358.7,-7.7828e-05,-0.0019041,-7.808e-05,-1.8924,1.1894
24911,13.841,3.5455,0.1,0.00023367,2335.1,0.00023364,2334.2,-7.7018e-05,-0.0046279,-7.7273e-05,-1.9217,1.2029
24912,13.749,3.6364,0.1,0.00023606,2359,0.00023604,2358.3,-7.7829e-05,-0.0029598,-7.8022e-05,-1.4528,1.1896
24913,13.841,3.3636,0.1,0.00023363,2334.7,0.00023361,2333.9,-7.7018e-05,-0.0057127,-7.7237e-05,-1.6569,1.2031
24914,13.749,3.4545,0.1,0.00023601,2358.5,0.00023599,2357.9,-7.7829e-05,-0.0042567,-7.7978e-05,-1.1203,1.1898
24915,13.841,3.1818,0.1,0.00023361,2334.5,0.00023358,2333.7,-7.7018e-05,-0.0065406,-7.7216e-05,-1.4972,1.2031
24916,13.749,3.2727,0.1,0.00023598,2358.2,0.00023596,2357.7,-7.7829e-05,-0.0056344,-7.7948e-05,-0.897,1.1899
24917,13.841,3,0.1,0.0002336,2334.4,0.00023358,2333.7,-7.7018e-05,-0.0068555,-7.7209e-05,-1.4438,1.2032
24918,13.749,3.0909,0.1,0.00023596,2358,0.00023595,2357.6,-7.783e-05,-0.0066128,-7.7933e-05,-0.78471,1.1899
24919,13.841,2.8182,0.1,0.00023361,2334.5,0.00023358,2333.7,-7.7018e-05,-0.00654,-7.7216e-05,-1.4972,1.2031
24920,13.749,2.9091,0.1,0.00023596,2358,0.00023595,2357.6,-7.783e-05,-0.0066123,-7.7933e-05,-0.7847,1.1899
24921,13.841,2.6364,0.1,0.00023363,2334.7,0.00023361,2333.9,-7.7018e-05,-0.0057127,-7.7237e-05,-1.6569,1.2031
24922,13.749,2.7273,0.1,0.00023598,2358.2,0.00023596,2357.7,-7.7829e-05,-0.0056347,-7.7948e-05,-0.89699,1.1899
24923,13.841,2.4545,0.1,0.00023367,2335.1,0.00023364,2334.2,-7.7018e-05,-0.0046278,-7.7273e-05,-1.9217,1.2029
24924,13.749,2.5455,0.1,0.00023601,2358.5,0.00023599,2357.9,-7.7829e-05,-0.0042563,-7.7978e-05,-1.1203,1.1898
24925,13.841,2.2727,0.1,0.00023373,2335.7,0.00023369,2334.5,-7.7018e-05,-0.0035101,-7.7322e-05,-2.2899,1.2028
24926,13.749,2.3636,0.1,0.00023606,2359,0.00023604,2358.3,-7.7829e-05,-0.0029594,-7.8022e-05,-1.4528,1.1896
24927,13.841,2.0909,0.1,0.0002338,2336.4,0.00023375,2335,-7.7018e-05,-0.0024822,-7.7385e-05,-2.7593,1.2025
24928,13.749,2.1818,0.1,0.00023613,2359.6,0.00023609,2358.7,-7.7828e-05,-0.0019043,-7.808e-05,-1.8923,1.1894
24929,13.841,1.9091,0.1,0.00023389,2337.3,0.00023383,2335.6,-7.7018e-05,-0.0015806,-7.7461e-05,-3.3271,1.2023
24930,13.749,2,0.1,0.00023621,2360.5,0.00023617,2359.2,-7.7828e-05,-0.0010751,-7.8152e-05,-2.4363,1.1891
24931,13.841,1.7273,0.1,0.00023399,2338.3,0.00023392,2336.3,-7.7019e-05,-0.00079685,-7.755e-05,-3.9902,1.2019
24932,13.749,1.8182,0.1,0.00023631,2361.4,0.00023625,2359.9,-7.7828e-05,-0.00041093,-7.8238e-05,-3.0815,1.1888
24933,13.841,1.5455,0.1,0.00023411,2339.5,0.00023403,2337.1,-7.702e-05,-0.00010875,-7.7652e-05,-4.745,1.2015
24934,13.749,1.6364,0.1,0.00023642,2362.5,0.00023635,2360.6,-7.7828e-05,0.00014244,-7.8337e-05,-3.8243,1.1885
24935,13.841,1.3636,0.1,0.00023424,2340.8,0.00023414,2338,-7.7022e-05,0.00050784,-7.7766e-05,-5.5874,1.2011
24936,13.749,1.4545,0.1,0.00023655,2363.8,0.00023647,2361.5,-7.7829e-05,0.00062745,-7.8449e-05,-4.6606,1.1881
24937,13.841,1.1818,0.1,0.00023439,2342.2,0.00023427,2339,-7.7025e-05,0.0010777,-7.7892e-05,-6.5132,1.2006
24938,13.749,1.2727,0.1,0.00023669,2365.2,0.00023659,2362.4,-7.783e-05,0.0010708,-7.8573e-05,-5.5859,1.1876
24939,13.841,1,0.1,0.00023455,2343.8,0.00023442,2340.1,-7.7028e-05,0.0016103,-7.8028e-05,-7.5177,1.2001
24940,13.749,1.0909,0.1,0.00023684,2366.8,0.00023673,2363.5,-7.7832e-05,0.001499,-7.8709e-05,-6.5951,1.1871
24941,13.841,0.81818,0.1,0.00023472,2345.6,0.00023457,2341.3,-7.7032e-05,0.0021531,-7.8176e-05,-8.5961,1.1995
24942,13.749,0.90909,0.1,0.00023701,2368.5,0.00023688,2364.7,-7.7834e-05,0.0019054,-7.8857e-05,-7.6831,1.1865
24943,13.841,0.63636,0.1,0.00023491,2347.5,0.00023474,2342.6,-7.7036e-05,0.0025889,-7.8334e-05,-9.746,1.1989
24944,13.749,0.72727,0.1,0.0002372,2370.4,0.00023705,2365.9,-7.7837e-05,0.0023782,-7.9014e-05,-8.8448,1.1859
24945,13.841,0.45455,0.1,0.00023512,2349.5,0.00023493,2344,-7.7042e-05,0.0036535,-7.8508e-05,-11.006,1.1982
24946,13.749,0.54545,0.1,0.0002374,2372.3,0.00023722,2367.3,-7.7841e-05,0.002625,-7.9183e-05,-10.08,1.1852
24947,13.841,0.27273,0.1,0.00023546,2353,0.00023523,2346.4,-7.705e-05,0.0033975,-7.8797e-05,-13.124,1.1974
24948,13.749,0.36364,0.1,0.00023762,2374.6,0.00023743,2368.8,-7.7846e-05,0.00418,-7.9373e-05,-11.467,1.1845
24949,13.749,0.18182,0.1,0.0002381,2379.3,0.00023785,2372,-7.7853e-05,0.0019198,-7.9781e-05,-14.483,1.1837
24950,13.841,0.090909,0.1,0.00023499,2348.3,0.00023482,2343.3,-7.7058e-05,0.0023365,-7.8372e-05,-9.8705,1.1966
24951,13.656,5.7273,0.1,0.00024024,2400.8,0.00024003,2394.4,-7.865e-05,0.003109,-8.0343e-05,-12.717,1.1708
24952,13.564,5.8182,0.1,0.00024289,2427.3,0.00024265,2420.2,-7.9455e-05,0.0021527,-8.1333e-05,-14.107,1.1572
24953,13.656,5.9091,0.1,0.0002398,2396.3,0.00023963,2391.5,-7.8655e-05,0.0021852,-7.9938e-05,-9.6361,1.17
24954,13.656,5.5455,0.1,0.0002399,2397.3,0.00023972,2392.1,-7.8645e-05,0.0031968,-8.0044e-05,-10.511,1.1716
24955,13.564,5.6364,0.1,0.00024242,2422.5,0.00024223,2417,-7.9451e-05,0.0034444,-8.0918e-05,-11.014,1.158
24956,13.656,5.3636,0.1,0.00023968,2395.2,0.00023953,2390.6,-7.8642e-05,0.0024393,-7.986e-05,-9.1527,1.1723
24957,13.564,5.4545,0.1,0.00024219,2420.2,0.00024202,2415.4,-7.9449e-05,0.0024078,-8.0717e-05,-9.5234,1.1587
24958,13.656,5.1818,0.1,0.00023949,2393.2,0.00023935,2389.3,-7.8639e-05,0.0021598,-7.9692e-05,-7.9065,1.1729
24959,13.564,5.2727,0.1,0.00024198,2418.1,0.00024184,2414,-7.9447e-05,0.0022726,-8.0537e-05,-8.187,1.1594
24960,13.656,5,0.1,0.00023931,2391.4,0.00023919,2388.1,-7.8638e-05,0.0018337,-7.9534e-05,-6.7354,1.1735
24961,13.564,5.0909,0.1,0.00024179,2416.2,0.00024167,2412.7,-7.9447e-05,0.0020309,-8.0369e-05,-6.927,1.16
24962,13.656,4.8182,0.1,0.00023914,2389.8,0.00023904,2386.9,-7.8637e-05,0.0015511,-7.9388e-05,-5.6428,1.1741
24963,13.564,4.9091,0.1,0.00024161,2414.4,0.00024151,2411.6,-7.9447e-05,0.0018895,-8.0212e-05,-5.745,1.1606
24964,13.656,4.6364,0.1,0.00023899,2388.2,0.00023891,2385.9,-7.8637e-05,0.0012857,-7.9254e-05,-4.6343,1.1746
24965,13.564,4.7273,0.1,0.00024145,2412.8,0.00024137,2410.5,-7.9447e-05,0.0018125,-8.0066e-05,-4.647,1.1611
24966,13.656,4.4545,0.1,0.00023885,2386.9,0.00023879,2385,-7.8637e-05,0.0010401,-7.9131e-05,-3.7154,1.175
24967,13.564,4.5455,0.1,0.0002413,2411.3,0.00024124,2409.5,-7.9448e-05,0.0018402,-7.9933e-05,-3.6392,1.1616
24968,13.656,4.2727,0.1,0.00023873,2385.6,0.00023868,2384.2,-7.8637e-05,0.0008042,-7.9022e-05,-2.8913,1.1754
24969,13.564,4.3636,0.1,0.00024117,2410,0.00024112,2408.6,-7.945e-05,0.0020243,-7.9813e-05,-2.7273,1.162
24970,13.656,4.0909,0.1,0.00023862,2384.6,0.00023858,2383.5,-7.8638e-05,0.00056545,-7.8926e-05,-2.1666,1.1758
24971,13.564,4.1818,0.1,0.00024105,2408.8,0.00024102,2407.9,-7.9451e-05,0.002486,-7.9706e-05,-1.9168,1.1624
24972,13.656,3.9091,0.1,0.00023853,2383.7,0.0002385,2382.9,-7.8639e-05,0.00030221,-7.8844e-05,-1.5457,1.176
24973,13.564,4,0.1,0.00024095,2407.8,0.00024093,2407.2,-7.9452e-05,0.0035639,-7.9614e-05,-1.2129,1.1627
24974,13.656,3.7273,0.1,0.00023846,2382.9,0.00023844,2382.4,-7.8639e-05,-3.5233e-05,-7.8777e-05,-1.0322,1.1763
24975,13.564,3.8182,0.1,0.00024086,2407,0.00024085,2406.7,-7.9453e-05,0.006596,-7.9537e-05,-0.62151,1.163
24976,13.656,3.5455,0.1,0.0002384,2382.3,0.00023839,2382,-7.864e-05,-0.00056634,-7.8724e-05,-0.62914,1.1765
24977,13.564,3.6364,0.1,0.00024079,2406.3,0.00024079,2406.2,-7.9452e-05,0.025122,-7.9477e-05,-0.15977,1.1632
24978,13.656,3.3636,0.1,0.00023836,2381.9,0.00023835,2381.7,-7.8641e-05,-0.0016098,-7.8685e-05,-0.33875,1.1766
24979,13.564,3.4545,0.1,0.00024074,2405.8,0.00024075,2405.9,-7.9424e-05,0.2447,-7.9458e-05,-0.016364,1.1633
24980,13.656,3.1818,0.1,0.00023833,2381.7,0.00023833,2381.6,-7.8641e-05,-0.0039684,-7.8662e-05,-0.16205,1.1767
24981,13.564,3.2727,0.1,0.00024071,2405.4,0.00024072,2405.7,-7.9393e-05,0.48006,-7.9458e-05,-0.0083825,1.1635
24982,13.656,3,0.1,0.00023832,2381.6,0.00023832,2381.5,-7.8642e-05,-0.0066571,-7.8654e-05,-0.10111,1.1767
24983,13.564,3.0909,0.1,0.00024069,2405.2,0.0002407,2405.5,-7.9377e-05,0.60048,-7.9458e-05,-0.0067307,1.1635
24984,13.656,2.8182,0.1,0.00023833,2381.7,0.00023833,2381.6,-7.8641e-05,-0.0039685,-7.8662e-05,-0.16204,1.1767
24985,13.564,2.9091,0.1,0.00024069,2405.2,0.0002407,2405.5,-7.9377e-05,0.60048,-7.9458e-05,-0.0067302,1.1635
24986,13.656,2.6364,0.1,0.00023836,2381.9,0.00023835,2381.7,-7.8641e-05,-0.0016093,-7.8685e-05,-0.33874,1.1766
24987,13.564,2.7273,0.1,0.00024071,2405.4,0.00024072,2405.7,-7.9393e-05,0.48007,-7.9458e-05,-0.0083825,1.1635
24988,13.656,2.4545,0.1,0.0002384,2382.3,0.00023839,2382,-7.864e-05,-0.00056537,-7.8724e-05,-0.62912,1.1765
24989,13.564,2.5455,0.1,0.00024074,2405.8,0.00024075,2405.9,-7.9424e-05,0.24472,-7.9458e-05,-0.016364,1.1633
24990,13.656,2.2727,0.1,0.00023846,2382.9,0.00023844,2382.4,-7.8639e-05,-3.532e-05,-7.8777e-05,-1.0322,1.1763
24991,13.564,2.3636,0.1,0.00024079,2406.3,0.00024079,2406.2,-7.9452e-05,0.025126,-7.9477e-05,-0.15975,1.1632
24992,13.656,2.0909,0.1,0.00023853,2383.7,0.0002385,2382.9,-7.8639e-05,0.00030176,-7.8844e-05,-1.5457,1.176
24993,13.564,2.1818,0.1,0.00024086,2407,0.00024085,2406.7,-7.9453e-05,0.0065963,-7.9537e-05,-0.62149,1.163
24994,13.656,1.9091,0.1,0.00023862,2384.6,0.00023858,2383.5,-7.8638e-05,0.00056538,-7.8926e-05,-2.1666,1.1758
24995,13.564,2,0.1,0.00024095,2407.8,0.00024093,2407.2,-7.9452e-05,0.0035641,-7.9614e-05,-1.2129,1.1627
24996,13.656,1.7273,0.1,0.00023873,2385.6,0.00023868,2384.2,-7.8637e-05,0.0008035,-7.9022e-05,-2.8912,1.1754
24997,13.564,1.8182,0.1,0.00024105,2408.8,0.00024102,2407.9,-7.9451e-05,0.002486,-7.9706e-05,-1.9167,1.1624
24998,13.656,1.5455,0.1,0.00023885,2386.9,0.00023879,2385,-7.8637e-05,0.0010398,-7.9131e-05,-3.7154,1.175
24999,13.564,1.6364,0.1,0.00024117,2410,0.00024112,2408.6,-7.945e-05,0.0020237,-7.9813e-05,-2.7272,1.162
25000,13.656,1.3636,0.1,0.00023899,2388.2,0.00023891,2385.9,-7.8637e-05,0.001286,-7.9254e-05,-4.6342,1.1746
25001,13.564,1.4545,0.1,0.0002413,2411.3,0.00024124,2409.5,-7.9448e-05,0.0018402,-7.9933e-05,-3.6391,1.1616
25002,13.656,1.1818,0.1,0.00023914,2389.8,0.00023904,2386.9,-7.8637e-05,0.0015506,-7.9388e-05,-5.6427,1.1741
25003,13.564,1.2727,0.1,0.00024145,2412.8,0.00024137,2410.5,-7.9447e-05,0.0018122,-8.0066e-05,-4.647,1.1611
25004,13.656,1,0.1,0.00023931,2391.4,0.00023919,2388.1,-7.8638e-05,0.0018321,-7.9534e-05,-6.7353,1.1735
25005,13.564,1.0909,0.1,0.00024161,2414.4,0.00024151,2411.6,-7.9447e-05,0.0018888,-8.0212e-05,-5.745,1.1606
25006,13.656,0.81818,0.1,0.00023949,2393.2,0.00023935,2389.3,-7.8639e-05,0.0021579,-7.9692e-05,-7.9064,1.1729
25007,13.564,0.90909,0.1,0.00024179,2416.2,0.00024167,2412.7,-7.9447e-05,0.002029,-8.0369e-05,-6.927,1.16
25008,13.656,0.63636,0.1,0.00023968,2395.2,0.00023953,2390.6,-7.8642e-05,0.0024383,-7.986e-05,-9.1526,1.1723
25009,13.564,0.72727,0.1,0.00024198,2418.1,0.00024184,2414,-7.9447e-05,0.0022714,-8.0537e-05,-8.1869,1.1594
25010,13.656,0.45455,0.1,0.0002399,2397.3,0.00023972,2392.1,-7.8645e-05,0.0031971,-8.0044e-05,-10.511,1.1716
25011,13.564,0.54545,0.1,0.00024219,2420.2,0.00024202,2415.4,-7.9449e-05,0.0024076,-8.0717e-05,-9.5234,1.1587
25012,13.656,0.27273,0.1,0.00024024,2400.8,0.00024003,2394.4,-7.865e-05,0.0031098,-8.0343e-05,-12.716,1.1708
25013,13.564,0.36364,0.1,0.00024242,2422.5,0.00024223,2417,-7.9451e-05,0.0034447,-8.0918e-05,-11.014,1.158
25014,13.564,0.18182,0.1,0.00024289,2427.3,0.00024265,2420.2,-7.9455e-05,0.0021528,-8.1333e-05,-14.107,1.1572
25015,13.656,0.090909,0.1,0.0002398,2396.3,0.00023963,2391.5,-7.8655e-05,0.0021849,-7.9938e-05,-9.6361,1.17
25016,13.472,5.7273,0.1,0.00024505,2448.8,0.00024484,2442.7,-8.0257e-05,0.0027856,-8.1894e-05,-12.297,1.1444
25017,13.379,5.8182,0.1,0.00024771,2475.4,0.00024748,2468.5,-8.1065e-05,0.0024074,-8.2891e-05,-13.723,1.1309
25018,13.472,5.9091,0.1,0.00024462,2444.5,0.00024446,2439.8,-8.026e-05,0.0020098,-8.1511e-05,-9.3972,1.1436
25019,13.472,5.5455,0.1,0.0002447,2445.3,0.00024453,2440.3,-8.0255e-05,0.0026864,-8.1586e-05,-9.997,1.1452
25020,13.379,5.6364,0.1,0.00024723,2470.6,0.00024705,2465.3,-8.1064e-05,0.0026601,-8.2468e-05,-10.544,1.1317
25021,13.472,5.3636,0.1,0.00024448,2443.1,0.00024433,2438.8,-8.0255e-05,0.0022572,-8.1391e-05,-8.5323,1.1459
25022,13.379,5.4545,0.1,0.00024699,2468.2,0.00024684,2463.8,-8.1064e-05,0.0021719,-8.2255e-05,-8.9425,1.1324
25023,13.472,5.1818,0.1,0.00024428,2441.1,0.00024415,2437.5,-8.0255e-05,0.0021632,-8.1211e-05,-7.1826,1.1466
25024,13.379,5.2727,0.1,0.00024678,2466.1,0.00024665,2462.3,-8.1066e-05,0.0021677,-8.2064e-05,-7.4967,1.1331
25025,13.472,5,0.1,0.00024409,2439.2,0.00024399,2436.2,-8.0256e-05,0.0021191,-8.1043e-05,-5.9119,1.1472
25026,13.379,5.0909,0.1,0.00024658,2464.1,0.00024648,2461,-8.1068e-05,0.0022149,-8.1884e-05,-6.1311,1.1337
25027,13.472,4.8182,0.1,0.00024391,2437.5,0.00024383,2435.1,-8.0257e-05,0.002215,-8.0886e-05,-4.7247,1.1477
25028,13.379,4.9091,0.1,0.0002464,2462.3,0.00024631,2459.8,-8.107e-05,0.0024625,-8.1716e-05,-4.8481,1.1343
25029,13.472,4.6364,0.1,0.00024376,2435.9,0.00024369,2434.1,-8.0259e-05,0.0025059,-8.0742e-05,-3.6276,1.1482
25030,13.379,4.7273,0.1,0.00024623,2460.6,0.00024616,2458.7,-8.1073e-05,0.0030061,-8.156e-05,-3.6549,1.1349
25031,13.472,4.4545,0.1,0.00024361,2434.4,0.00024357,2433.1,-8.0261e-05,0.003148,-8.0611e-05,-2.627,1.1487
25032,13.379,4.5455,0.1,0.00024607,2459,0.00024603,2457.7,-8.1076e-05,0.0041428,-8.1417e-05,-2.5586,1.1353
25033,13.472,4.2727,0.1,0.00024348,2433.2,0.00024345,2432.3,-8.0263e-05,0.0045468,-8.0494e-05,-1.7294,1.1491
25034,13.379,4.3636,0.1,0.00024593,2457.6,0.0002459,2456.8,-8.1079e-05,0.0067762,-8.1289e-05,-1.5669,1.1358
25035,13.472,4.0909,0.1,0.00024337,2432,0.00024336,2431.6,-8.0265e-05,0.0082303,-8.0392e-05,-0.9418,1.1494
25036,13.379,4.1818,0.1,0.00024581,2456.4,0.0002458,2456.1,-8.1081e-05,0.015793,-8.1175e-05,-0.69098,1.1361
25037,13.472,3.9091,0.1,0.00024328,2431.1,0.00024327,2430.9,-8.0265e-05,0.027701,-8.0306e-05,-0.28269,1.1497
25038,13.379,4,0.1,0.0002457,2455.3,0.0002457,2455.4,-8.1065e-05,0.1641,-8.1096e-05,-0.069299,1.1365
25039,13.472,3.7273,0.1,0.0002432,2430.3,0.0002432,2430.4,-8.0226e-05,0.33072,-8.0273e-05,-0.024228,1.1499
25040,13.379,3.8182,0.1,0.00024561,2454.4,0.00024563,2454.8,-8.0988e-05,0.76034,-8.1091e-05,-0.015648,1.1367
25041,13.472,3.5455,0.1,0.00024314,2429.7,0.00024315,2430.1,-8.0171e-05,0.75802,-8.0273e-05,-0.010853,1.1501
25042,13.379,3.6364,0.1,0.00024554,2453.7,0.00024556,2454.3,-8.0921e-05,1.2798,-8.1093e-05,-0.0096978,1.1369
25043,13.472,3.3636,0.1,0.00024309,2429.2,0.00024311,2429.8,-8.013e-05,1.072,-8.0274e-05,-0.0078534,1.1503
25044,13.379,3.4545,0.1,0.00024549,2453.2,0.00024551,2454,-8.087e-05,1.6751,-8.1094e-05,-0.0076718,1.1371
25045,13.472,3.1818,0.1,0.00024306,2429,0.00024309,2429.6,-8.0106e-05,1.2619,-8.0274e-05,-0.0067752,1.1503
25046,13.379,3.2727,0.1,0.00024545,2452.8,0.00024548,2453.8,-8.0836e-05,1.9407,-8.1095e-05,-0.0067863,1.1372
25047,13.472,3,0.1,0.00024306,2428.9,0.00024308,2429.5,-8.0097e-05,1.3254,-8.0275e-05,-0.0064847,1.1504
25048,13.379,3.0909,0.1,0.00024543,2452.6,0.00024547,2453.7,-8.0819e-05,2.074,-8.1096e-05,-0.0064301,1.1373
25049,13.472,2.8182,0.1,0.00024306,2429,0.00024309,2429.6,-8.0106e-05,1.2619,-8.0274e-05,-0.0067744,1.1503
25050,13.379,2.9091,0.1,0.00024543,2452.6,0.00024547,2453.7,-8.0819e-05,2.074,-8.1096e-05,-0.0064297,1.1373
25051,13.472,2.6364,0.1,0.00024309,2429.2,0.00024311,2429.8,-8.013e-05,1.072,-8.0274e-05,-0.0078538,1.1503
25052,13.379,2.7273,0.1,0.00024545,2452.8,0.00024548,2453.8,-8.0836e-05,1.9407,-8.1095e-05,-0.0067861,1.1372
25053,13.472,2.4545,0.1,0.00024314,2429.7,0.00024315,2430.1,-8.0171e-05,0.75804,-8.0273e-05,-0.010853,1.1501
25054,13.379,2.5455,0.1,0.00024549,2453.2,0.00024551,2454,-8.087e-05,1.6751,-8.1094e-05,-0.0076724,1.1371
25055,13.472,2.2727,0.1,0.0002432,2430.3,0.0002432,2430.4,-8.0226e-05,0.33074,-8.0273e-05,-0.024226,1.1499
25056,13.379,2.3636,0.1,0.00024554,2453.7,0.00024556,2454.3,-8.0921e-05,1.2798,-8.1093e-05,-0.0096983,1.1369
25057,13.472,2.0909,0.1,0.00024328,2431.1,0.00024327,2430.9,-8.0265e-05,0.027704,-8.0306e-05,-0.28267,1.1497
25058,13.379,2.1818,0.1,0.00024561,2454.4,0.00024563,2454.8,-8.0988e-05,0.76036,-8.1091e-05,-0.015647,1.1367
25059,13.472,1.9091,0.1,0.00024337,2432,0.00024336,2431.6,-8.0265e-05,0.0082309,-8.0392e-05,-0.94177,1.1494
25060,13.379,2,0.1,0.0002457,2455.3,0.0002457,2455.4,-8.1065e-05,0.16412,-8.1096e-05,-0.069292,1.1365
25061,13.472,1.7273,0.1,0.00024348,2433.2,0.00024345,2432.3,-8.0263e-05,0.004547,-8.0494e-05,-1.7294,1.1491
25062,13.379,1.8182,0.1,0.00024581,2456.4,0.0002458,2456.1,-8.1081e-05,0.015794,-8.1175e-05,-0.69095,1.1361
25063,13.472,1.5455,0.1,0.00024361,2434.4,0.00024357,2433.1,-8.0261e-05,0.0031477,-8.0611e-05,-2.627,1.1487
25064,13.379,1.6364,0.1,0.00024593,2457.6,0.0002459,2456.8,-8.1079e-05,0.0067763,-8.1289e-05,-1.5669,1.1358
25065,13.472,1.3636,0.1,0.00024376,2435.9,0.00024369,2434.1,-8.0259e-05,0.0025053,-8.0742e-05,-3.6276,1.1482
25066,13.379,1.4545,0.1,0.00024607,2459,0.00024603,2457.7,-8.1076e-05,0.0041425,-8.1417e-05,-2.5586,1.1353
25067,13.472,1.1818,0.1,0.00024391,2437.5,0.00024383,2435.1,-8.0257e-05,0.0022145,-8.0886e-05,-4.7247,1.1477
25068,13.379,1.2727,0.1,0.00024623,2460.6,0.00024616,2458.7,-8.1073e-05,0.0030062,-8.156e-05,-3.6548,1.1349
25069,13.472,1,0.1,0.00024409,2439.2,0.00024399,2436.2,-8.0256e-05,0.0021182,-8.1043e-05,-5.9119,1.1472
25070,13.379,1.0909,0.1,0.0002464,2462.3,0.00024631,2459.8,-8.107e-05,0.0024617,-8.1716e-05,-4.8481,1.1343
25071,13.472,0.81818,0.1,0.00024428,2441.1,0.00024415,2437.5,-8.0255e-05,0.0021621,-8.1211e-05,-7.1825,1.1466
25072,13.379,0.90909,0.1,0.00024658,2464.1,0.00024648,2461,-8.1068e-05,0.0022136,-8.1884e-05,-6.131,1.1337
25073,13.472,0.63636,0.1,0.00024448,2443.1,0.00024433,2438.8,-8.0255e-05,0.0022568,-8.1391e-05,-8.5323,1.1459
25074,13.379,0.72727,0.1,0.00024678,2466.1,0.00024665,2462.3,-8.1066e-05,0.0021664,-8.2064e-05,-7.4967,1.1331
25075,13.472,0.45455,0.1,0.0002447,2445.3,0.00024453,2440.3,-8.0255e-05,0.0026861,-8.1586e-05,-9.997,1.1452
25076,13.379,0.54545,0.1,0.00024699,2468.2,0.00024684,2463.8,-8.1064e-05,0.0021717,-8.2255e-05,-8.9424,1.1324
25077,13.472,0.27273,0.1,0.00024505,2448.8,0.00024484,2442.7,-8.0257e-05,0.0027852,-8.1894e-05,-12.297,1.1444
25078,13.379,0.36364,0.1,0.00024723,2470.6,0.00024705,2465.3,-8.1064e-05,0.0026602,-8.2468e-05,-10.544,1.1317
25079,13.379,0.18182,0.1,0.00024771,2475.4,0.00024748,2468.5,-8.1065e-05,0.0024073,-8.2891e-05,-13.723,1.1309
25080,13.472,0.090909,0.1,0.00024462,2444.5,0.00024446,2439.8,-8.026e-05,0.0020086,-8.1511e-05,-9.3972,1.1436
25081,13.287,5.7273,0.1,0.00024988,2497.1,0.00024968,2491.1,-8.1872e-05,0.002465,-8.3451e-05,-11.863,1.1181
25082,13.194,5.8182,0.1,0.00025255,2523.8,0.00025233,2517.1,-8.2682e-05,0.0027082,-8.4456e-05,-13.328,1.1047
25083,13.287,5.9091,0.1,0.00024947,2493,0.00024931,2488.4,-8.1872e-05,0.0018488,-8.309e-05,-9.1531,1.1173
25084,13.287,5.5455,0.1,0.00024952,2493.5,0.00024936,2488.8,-8.1873e-05,0.0021583,-8.3133e-05,-9.4607,1.1189
25085,13.194,5.6364,0.1,0.00025207,2519,0.0002519,2513.9,-8.2684e-05,0.0018414,-8.4023e-05,-10.055,1.1055
25086,13.287,5.3636,0.1,0.00024929,2491.2,0.00024916,2487.3,-8.1875e-05,0.0020853,-8.2925e-05,-7.8819,1.1197
25087,13.194,5.4545,0.1,0.00025182,2516.5,0.00025168,2512.3,-8.2688e-05,0.0019357,-8.3797e-05,-8.3343,1.1062
25088,13.287,5.1818,0.1,0.00024908,2489.1,0.00024897,2485.9,-8.1879e-05,0.0022221,-8.2733e-05,-6.4207,1.1203
25089,13.194,5.2727,0.1,0.0002516,2514.3,0.00025148,2510.9,-8.2692e-05,0.0020923,-8.3593e-05,-6.7708,1.107
25090,13.287,5,0.1,0.00024889,2487.1,0.0002488,2484.6,-8.1882e-05,0.0025712,-8.2554e-05,-5.043,1.121
25091,13.194,5.0909,0.1,0.00025139,2512.2,0.0002513,2509.5,-8.2697e-05,0.0025229,-8.3401e-05,-5.2914,1.1076
25092,13.287,4.8182,0.1,0.0002487,2485.3,0.00024864,2483.5,-8.1886e-05,0.003309,-8.2386e-05,-3.7541,1.1215
25093,13.194,4.9091,0.1,0.0002512,2510.3,0.00025113,2508.3,-8.2702e-05,0.0034038,-8.3222e-05,-3.8997,1.1082
25094,13.287,4.6364,0.1,0.00024854,2483.7,0.00024849,2482.4,-8.189e-05,0.0048578,-8.2232e-05,-2.5621,1.122
25095,13.194,4.7273,0.1,0.00025102,2508.5,0.00025098,2507.2,-8.2707e-05,0.0052925,-8.3055e-05,-2.6044,1.1088
25096,13.287,4.4545,0.1,0.00024839,2482.2,0.00024836,2481.4,-8.1894e-05,0.0087292,-8.2092e-05,-1.4757,1.1225
25097,13.194,4.5455,0.1,0.00025086,2506.9,0.00025083,2506.2,-8.2712e-05,0.010393,-8.2902e-05,-1.4155,1.1092
25098,13.287,4.2727,0.1,0.00024825,2480.8,0.00024824,2480.6,-8.1896e-05,0.026465,-8.1968e-05,-0.5133,1.1229
25099,13.194,4.3636,0.1,0.00025071,2505.4,0.00025071,2505.2,-8.2713e-05,0.043503,-8.2768e-05,-0.36548,1.1097
25100,13.287,4.0909,0.1,0.00024814,2479.6,0.00024814,2479.8,-8.1849e-05,0.41175,-8.1908e-05,-0.035053,1.1232
25101,13.194,4.1818,0.1,0.00025058,2504.1,0.00025059,2504.4,-8.2635e-05,0.66881,-8.2728e-05,-0.02574,1.1101
25102,13.287,3.9091,0.1,0.00024804,2478.6,0.00024805,2479.2,-8.1756e-05,1.1314,-8.1909e-05,-0.013543,1.1235
25103,13.194,4,0.1,0.00025047,2503,0.0002505,2503.7,-8.253e-05,1.4959,-8.2731e-05,-0.012397,1.1104
25104,13.287,3.7273,0.1,0.00024795,2477.8,0.00024798,2478.7,-8.1679e-05,1.7409,-8.1911e-05,-0.0092858,1.1238
25105,13.194,3.8182,0.1,0.00025038,2502,0.00025041,2503.1,-8.244e-05,2.2024,-8.2734e-05,-0.0089864,1.1107
25106,13.287,3.5455,0.1,0.00024789,2477.2,0.00024793,2478.3,-8.1617e-05,2.2212,-8.1914e-05,-0.0076053,1.124
25107,13.194,3.6364,0.1,0.0002503,2501.3,0.00025035,2502.7,-8.2367e-05,2.7753,-8.2738e-05,-0.0075229,1.1109
25108,13.287,3.3636,0.1,0.00024784,2476.7,0.00024789,2478,-8.1573e-05,2.5672,-8.1916e-05,-0.0067977,1.1241
25109,13.194,3.4545,0.1,0.00025024,2500.7,0.0002503,2502.3,-8.2312e-05,3.209,-8.274e-05,-0.006777,1.111
25110,13.287,3.1818,0.1,0.00024781,2476.4,0.00024786,2477.8,-8.1546e-05,2.7759,-8.1917e-05,-0.0064117,1.1242
25111,13.194,3.2727,0.1,0.00025021,2500.3,0.00025027,2502.1,-8.2275e-05,3.5002,-8.2742e-05,-0.0063849,1.1111
25112,13.287,3,0.1,0.0002478,2476.3,0.00024785,2477.8,-8.1537e-05,2.8456,-8.1917e-05,-0.0062962,1.1242
25113,13.194,3.0909,0.1,0.00025019,2500.1,0.00025025,2502,-8.2257e-05,3.6463,-8.2743e-05,-0.0062132,1.1112
25114,13.287,2.8182,0.1,0.00024781,2476.4,0.00024786,2477.8,-8.1546e-05,2.7759,-8.1917e-05,-0.0064121,1.1242
25115,13.194,2.9091,0.1,0.00025019,2500.1,0.00025025,2502,-8.2257e-05,3.6463,-8.2743e-05,-0.0062133,1.1112
25116,13.287,2.6364,0.1,0.00024784,2476.7,0.00024789,2478,-8.1573e-05,2.5672,-8.1916e-05,-0.0067977,1.1241
25117,13.194,2.7273,0.1,0.00025021,2500.3,0.00025027,2502.1,-8.2275e-05,3.5002,-8.2742e-05,-0.0063849,1.1111
25118,13.287,2.4545,0.1,0.00024789,2477.2,0.00024793,2478.3,-8.1617e-05,2.2212,-8.1914e-05,-0.0076059,1.124
25119,13.194,2.5455,0.1,0.00025024,2500.7,0.0002503,2502.3,-8.2312e-05,3.2091,-8.274e-05,-0.0067773,1.111
25120,13.287,2.2727,0.1,0.00024795,2477.8,0.00024798,2478.7,-8.1679e-05,1.7409,-8.1911e-05,-0.0092867,1.1238
25121,13.194,2.3636,0.1,0.0002503,2501.3,0.00025035,2502.7,-8.2367e-05,2.7753,-8.2738e-05,-0.0075234,1.1109
25122,13.287,2.0909,0.1,0.00024804,2478.6,0.00024805,2479.2,-8.1756e-05,1.1314,-8.1909e-05,-0.013544,1.1235
25123,13.194,2.1818,0.1,0.00025038,2502,0.00025041,2503.1,-8.244e-05,2.2024,-8.2734e-05,-0.0089868,1.1107
25124,13.287,1.9091,0.1,0.00024814,2479.6,0.00024814,2479.8,-8.1849e-05,0.41178,-8.1908e-05,-0.035052,1.1232
25125,13.194,2,0.1,0.00025047,2503,0.0002505,2503.7,-8.253e-05,1.4959,-8.2731e-05,-0.012398,1.1104
25126,13.287,1.7273,0.1,0.00024825,2480.8,0.00024825,2480.6,-8.1896e-05,0.026466,-8.1968e-05,-0.51327,1.1229
25127,13.194,1.8182,0.1,0.00025058,2504.1,0.00025059,2504.4,-8.2635e-05,0.66884,-8.2728e-05,-0.02574,1.1101
25128,13.287,1.5455,0.1,0.00024839,2482.2,0.00024836,2481.4,-8.1894e-05,0.0087294,-8.2092e-05,-1.4756,1.1225
25129,13.194,1.6364,0.1,0.00025071,2505.4,0.00025071,2505.2,-8.2713e-05,0.043508,-8.2768e-05,-0.36544,1.1097
25130,13.287,1.3636,0.1,0.00024854,2483.7,0.00024849,2482.4,-8.189e-05,0.0048581,-8.2232e-05,-2.5621,1.122
25131,13.194,1.4545,0.1,0.00025086,2506.9,0.00025083,2506.2,-8.2712e-05,0.010393,-8.2902e-05,-1.4154,1.1092
25132,13.287,1.1818,0.1,0.0002487,2485.3,0.00024864,2483.5,-8.1886e-05,0.0033088,-8.2386e-05,-3.7541,1.1215
25133,13.194,1.2727,0.1,0.00025102,2508.5,0.00025098,2507.2,-8.2707e-05,0.005293,-8.3055e-05,-2.6043,1.1088
25134,13.287,1,0.1,0.00024889,2487.1,0.0002488,2484.6,-8.1882e-05,0.00257,-8.2554e-05,-5.0429,1.121
25135,13.194,1.0909,0.1,0.0002512,2510.3,0.00025113,2508.3,-8.2702e-05,0.003403,-8.3222e-05,-3.8997,1.1082
25136,13.287,0.81818,0.1,0.00024908,2489.1,0.00024897,2485.9,-8.1879e-05,0.0022206,-8.2733e-05,-6.4207,1.1203
25137,13.194,0.90909,0.1,0.00025139,2512.2,0.0002513,2509.5,-8.2697e-05,0.0025212,-8.3401e-05,-5.2913,1.1076
25138,13.287,0.63636,0.1,0.00024929,2491.2,0.00024916,2487.3,-8.1875e-05,0.0020842,-8.2925e-05,-7.8819,1.1197
25139,13.194,0.72727,0.1,0.0002516,2514.3,0.00025148,2510.9,-8.2692e-05,0.0020908,-8.3593e-05,-6.7708,1.107
25140,13.287,0.45455,0.1,0.00024952,2493.5,0.00024936,2488.8,-8.1873e-05,0.0021585,-8.3133e-05,-9.4606,1.1189
25141,13.194,0.54545,0.1,0.00025182,2516.5,0.00025168,2512.3,-8.2688e-05,0.0019357,-8.3797e-05,-8.3342,1.1062
25142,13.287,0.27273,0.1,0.00024988,2497.1,0.00024968,2491.1,-8.1872e-05,0.0024654,-8.3451e-05,-11.863,1.1181
25143,13.194,0.36364,0.1,0.00025207,2519,0.0002519,2513.9,-8.2684e-05,0.0018418,-8.4023e-05,-10.055,1.1055
25144,13.194,0.18182,0.1,0.00025255,2523.8,0.00025233,2517.1,-8.2682e-05,0.0027082,-8.4456e-05,-13.328,1.1047
25145,13.287,0.090909,0.1,0.00024947,2493,0.00024931,2488.4,-8.1872e-05,0.0018484,-8.309e-05,-9.1531,1.1173
25146,13.102,5.7273,0.1,0.00025473,2545.5,0.00025453,2539.8,-8.3494e-05,0.0021492,-8.5014e-05,-11.415,1.0921
25147,13.01,5.8182,0.1,0.00025742,2572.4,0.00025719,2565.9,-8.4306e-05,0.0030628,-8.6026e-05,-12.922,1.0787
25148,13.102,5.9091,0.1,0.00025434,2541.7,0.00025419,2537.2,-8.3491e-05,0.0017022,-8.4676e-05,-8.9032,1.0912
25149,13.102,5.5455,0.1,0.00025436,2541.9,0.00025421,2537.4,-8.3499e-05,0.0016085,-8.4684e-05,-8.9003,1.0929
25150,13.01,5.6364,0.1,0.00025693,2567.5,0.00025676,2562.7,-8.4312e-05,0.00098552,-8.5583e-05,-9.5454,1.0795
25151,13.102,5.3636,0.1,0.00025413,2539.5,0.000254,2535.9,-8.3504e-05,0.0019241,-8.4463e-05,-7.1986,1.0936
25152,13.01,5.4545,0.1,0.00025667,2564.9,0.00025654,2561.1,-8.4319e-05,0.0016997,-8.5344e-05,-7.6961,1.0803
25153,13.102,5.1818,0.1,0.00025391,2537.3,0.00025381,2534.5,-8.351e-05,0.0023612,-8.4258e-05,-5.6174,1.0943
25154,13.01,5.2727,0.1,0.00025644,2562.6,0.00025633,2559.6,-8.4327e-05,0.002062,-8.5126e-05,-6.0058,1.081
25155,13.102,5,0.1,0.0002537,2535.3,0.00025363,2533.2,-8.3517e-05,0.0033111,-8.4066e-05,-4.1242,1.0949
25156,13.01,5.0909,0.1,0.00025622,2560.4,0.00025615,2558.2,-8.4334e-05,0.0030395,-8.4921e-05,-4.4037,1.0816
25157,13.102,4.8182,0.1,0.00025351,2533.4,0.00025347,2532,-8.3523e-05,0.005363,-8.3887e-05,-2.7263,1.0955
25158,13.01,4.9091,0.1,0.00025602,2558.4,0.00025597,2557,-8.4342e-05,0.0051343,-8.4728e-05,-2.8953,1.0823
25159,13.102,4.6364,0.1,0.00025334,2531.6,0.00025331,2530.9,-8.3529e-05,0.011166,-8.3722e-05,-1.4346,1.096
25160,13.01,4.7273,0.1,0.00025583,2556.6,0.00025581,2555.8,-8.435e-05,0.011266,-8.455e-05,-1.4923,1.0828
25161,13.102,4.4545,0.1,0.00025318,2530.1,0.00025318,2529.9,-8.353e-05,0.059643,-8.3577e-05,-0.29645,1.0965
25162,13.01,4.5455,0.1,0.00025566,2554.9,0.00025566,2554.8,-8.435e-05,0.074132,-8.4394e-05,-0.25661,1.0833
25163,13.102,4.2727,0.1,0.00025304,2528.6,0.00025305,2529.1,-8.343e-05,0.85386,-8.3547e-05,-0.022793,1.0969
25164,13.01,4.3636,0.1,0.00025551,2553.3,0.00025553,2553.8,-8.4232e-05,1.0178,-8.437e-05,-0.020971,1.0838
25165,13.102,4.0909,0.1,0.00025292,2527.4,0.00025295,2528.3,-8.3312e-05,1.7848,-8.3551e-05,-0.011901,1.0972
25166,13.01,4.1818,0.1,0.00025537,2552,0.00025541,2553,-8.41e-05,2.0601,-8.4376e-05,-0.011476,1.0841
25167,13.102,3.9091,0.1,0.00025281,2526.4,0.00025285,2527.6,-8.321e-05,2.5907,-8.3556e-05,-0.0088419,1.0976
25168,13.01,4,0.1,0.00025526,2550.8,0.00025531,2552.3,-8.3985e-05,2.9742,-8.4382e-05,-0.0086756,1.0845
25169,13.102,3.7273,0.1,0.00025272,2525.5,0.00025278,2527.1,-8.3126e-05,3.2598,-8.3561e-05,-0.007479,1.0978
25170,13.01,3.8182,0.1,0.00025516,2549.8,0.00025522,2551.7,-8.3888e-05,3.7481,-8.4388e-05,-0.0073987,1.0847
25171,13.102,3.5455,0.1,0.00025265,2524.8,0.00025272,2526.7,-8.3059e-05,3.7859,-8.3564e-05,-0.0067601,1.098
25172,13.01,3.6364,0.1,0.00025508,2549,0.00025515,2551.2,-8.3809e-05,4.3749,-8.4392e-05,-0.0067102,1.085
25173,13.102,3.3636,0.1,0.00025261,2524.3,0.00025268,2526.4,-8.3012e-05,4.1647,-8.3567e-05,-0.0063615,1.0981
25174,13.01,3.4545,0.1,0.00025502,2548.4,0.0002551,2550.8,-8.375e-05,4.8495,-8.4396e-05,-0.0063147,1.0851
25175,13.102,3.1818,0.1,0.00025258,2524,0.00025265,2526.2,-8.2983e-05,4.3932,-8.3568e-05,-0.0061566,1.0982
25176,13.01,3.2727,0.1,0.00025498,2548,0.00025506,2550.6,-8.371e-05,5.168,-8.4398e-05,-0.0060926,1.0852
25177,13.102,3,0.1,0.00025257,2523.9,0.00025264,2526.2,-8.2973e-05,4.4695,-8.3569e-05,-0.0060932,1.0982
25178,13.01,3.0909,0.1,0.00025496,2547.8,0.00025505,2550.5,-8.369e-05,5.328,-8.44e-05,-0.0059921,1.0853
25179,13.102,2.8182,0.1,0.00025258,2524,0.00025265,2526.2,-8.2983e-05,4.3932,-8.3568e-05,-0.0061564,1.0982
25180,13.01,2.9091,0.1,0.00025496,2547.8,0.00025505,2550.5,-8.369e-05,5.328,-8.44e-05,-0.0059918,1.0853
25181,13.102,2.6364,0.1,0.00025261,2524.3,0.00025268,2526.4,-8.3012e-05,4.1647,-8.3567e-05,-0.0063618,1.0981
25182,13.01,2.7273,0.1,0.00025498,2548,0.00025506,2550.6,-8.371e-05,5.168,-8.4398e-05,-0.006093,1.0852
25183,13.102,2.4545,0.1,0.00025265,2524.8,0.00025272,2526.7,-8.3059e-05,3.7859,-8.3564e-05,-0.0067603,1.098
25184,13.01,2.5455,0.1,0.00025502,2548.4,0.0002551,2550.8,-8.375e-05,4.8495,-8.4396e-05,-0.0063155,1.0851
25185,13.102,2.2727,0.1,0.00025272,2525.5,0.00025278,2527.1,-8.3126e-05,3.2598,-8.3561e-05,-0.0074789,1.0978
25186,13.01,2.3636,0.1,0.00025508,2549,0.00025515,2551.2,-8.3809e-05,4.3749,-8.4392e-05,-0.0067097,1.085
25187,13.102,2.0909,0.1,0.00025281,2526.4,0.00025285,2527.6,-8.321e-05,2.5908,-8.3556e-05,-0.0088421,1.0976
25188,13.01,2.1818,0.1,0.00025516,2549.8,0.00025522,2551.7,-8.3888e-05,3.7481,-8.4388e-05,-0.0073987,1.0847
25189,13.102,1.9091,0.1,0.00025292,2527.4,0.00025295,2528.3,-8.3312e-05,1.7848,-8.3551e-05,-0.011901,1.0972
25190,13.01,2,0.1,0.00025526,2550.8,0.00025531,2552.3,-8.3985e-05,2.9742,-8.4382e-05,-0.0086759,1.0845
25191,13.102,1.7273,0.1,0.00025304,2528.6,0.00025305,2529.1,-8.343e-05,0.85389,-8.3547e-05,-0.022793,1.0969
25192,13.01,1.8182,0.1,0.00025537,2552,0.00025541,2553,-8.41e-05,2.0602,-8.4376e-05,-0.011476,1.0841
25193,13.102,1.5455,0.1,0.00025318,2530.1,0.00025318,2529.9,-8.353e-05,0.059651,-8.3577e-05,-0.29642,1.0965
25194,13.01,1.6364,0.1,0.00025551,2553.3,0.00025553,2553.8,-8.4232e-05,1.0178,-8.437e-05,-0.020971,1.0838
25195,13.102,1.3636,0.1,0.00025334,2531.6,0.00025331,2530.9,-8.3529e-05,0.011167,-8.3722e-05,-1.4346,1.096
25196,13.01,1.4545,0.1,0.00025566,2554.9,0.00025566,2554.8,-8.435e-05,0.074143,-8.4394e-05,-0.25658,1.0833
25197,13.102,1.1818,0.1,0.00025351,2533.4,0.00025347,2532,-8.3523e-05,0.0053629,-8.3887e-05,-2.7262,1.0955
25198,13.01,1.2727,0.1,0.00025583,2556.6,0.00025581,2555.8,-8.435e-05,0.011267,-8.455e-05,-1.4922,1.0828
25199,13.102,1,0.1,0.0002537,2535.3,0.00025363,2533.2,-8.3517e-05,0.0033097,-8.4066e-05,-4.1242,1.0949
25200,13.01,1.0909,0.1,0.00025602,2558.4,0.00025597,2557,-8.4342e-05,0.0051338,-8.4728e-05,-2.8952,1.0823
25201,13.102,0.81818,0.1,0.00025391,2537.3,0.00025381,2534.5,-8.351e-05,0.0023595,-8.4258e-05,-5.6173,1.0943
25202,13.01,0.90909,0.1,0.00025622,2560.4,0.00025615,2558.2,-8.4334e-05,0.003038,-8.4921e-05,-4.4037,1.0816
25203,13.102,0.63636,0.1,0.00025413,2539.5,0.000254,2535.9,-8.3504e-05,0.0019236,-8.4463e-05,-7.1985,1.0936
25204,13.01,0.72727,0.1,0.00025644,2562.6,0.00025633,2559.6,-8.4327e-05,0.0020604,-8.5126e-05,-6.0058,1.081
25205,13.102,0.45455,0.1,0.00025436,2541.9,0.00025421,2537.4,-8.3499e-05,0.0016087,-8.4684e-05,-8.9003,1.0929
25206,13.01,0.54545,0.1,0.00025667,2564.9,0.00025654,2561.1,-8.4319e-05,0.0016997,-8.5344e-05,-7.696,1.0803
25207,13.102,0.27273,0.1,0.00025473,2545.5,0.00025453,2539.8,-8.3494e-05,0.0021492,-8.5014e-05,-11.415,1.0921
25208,13.01,0.36364,0.1,0.00025693,2567.5,0.00025676,2562.7,-8.4312e-05,0.00098523,-8.5583e-05,-9.5454,1.0795
25209,13.01,0.18182,0.1,0.00025742,2572.4,0.00025719,2565.9,-8.4306e-05,0.0030628,-8.6026e-05,-12.922,1.0787
25210,13.102,0.090909,0.1,0.00025434,2541.7,0.00025419,2537.2,-8.3491e-05,0.0017015,-8.4676e-05,-8.9032,1.0912
25211,12.917,5.7273,0.1,0.0002596,2594.2,0.00025941,2588.7,-8.5124e-05,0.001842,-8.6582e-05,-10.949,1.0661
25212,12.825,5.8182,0.1,0.0002623,2621.2,0.00026208,2614.9,-8.5938e-05,0.0034582,-8.7603e-05,-12.504,1.0528
25213,12.917,5.9091,0.1,0.00025923,2590.5,0.00025908,2586.2,-8.5118e-05,0.0015779,-8.6269e-05,-8.6468,1.0653
25214,12.917,5.5455,0.1,0.00025923,2590.5,0.00025908,2586.3,-8.5132e-05,0.0010369,-8.6239e-05,-8.3135,1.0669
25215,12.825,5.6364,0.1,0.0002618,2616.2,0.00026165,2611.7,-8.5948e-05,6.7051e-05,-8.7148e-05,-9.0136,1.0537
25216,12.917,5.3636,0.1,0.00025898,2588,0.00025887,2584.7,-8.5141e-05,0.0017831,-8.6004e-05,-6.4791,1.0677
25217,12.825,5.4545,0.1,0.00026154,2613.6,0.00026142,2610,-8.5958e-05,0.0014424,-8.6894e-05,-7.0253,1.0544
25218,12.917,5.1818,0.1,0.00025875,2585.7,0.00025867,2583.3,-8.5151e-05,0.0026347,-8.5786e-05,-4.7684,1.0684
25219,12.825,5.2727,0.1,0.00026129,2611.1,0.00026121,2608.5,-8.5969e-05,0.0020807,-8.6661e-05,-5.1982,1.0552
25220,12.917,5,0.1,0.00025853,2583.6,0.00025848,2582,-8.516e-05,0.0046381,-8.558e-05,-3.1511,1.069
25221,12.825,5.0909,0.1,0.00026107,2608.9,0.00026101,2607.1,-8.598e-05,0.0039342,-8.6442e-05,-3.4639,1.0559
25222,12.917,4.8182,0.1,0.00025834,2581.6,0.00025831,2580.8,-8.5169e-05,0.010423,-8.5388e-05,-1.6374,1.0696
25223,12.825,4.9091,0.1,0.00026086,2606.8,0.00026082,2605.8,-8.5991e-05,0.0091117,-8.6236e-05,-1.8308,1.0565
25224,12.917,4.6364,0.1,0.00025815,2579.8,0.00025815,2579.6,-8.5171e-05,0.069187,-8.5218e-05,-0.28627,1.0702
25225,12.825,4.7273,0.1,0.00026066,2604.8,0.00026066,2604.7,-8.5996e-05,0.057477,-8.605e-05,-0.34901,1.057
25226,12.917,4.4545,0.1,0.00025799,2578.1,0.00025801,2578.6,-8.5043e-05,1.0946,-8.5192e-05,-0.020696,1.0706
25227,12.825,4.5455,0.1,0.00026048,2603,0.0002605,2603.6,-8.5863e-05,1.141,-8.6017e-05,-0.020635,1.0576
25228,12.917,4.2727,0.1,0.00025784,2576.6,0.00025788,2577.7,-8.4899e-05,2.2484,-8.5199e-05,-0.011327,1.0711
25229,12.825,4.3636,0.1,0.00026032,2601.4,0.00026036,2602.6,-8.5703e-05,2.4152,-8.6026e-05,-0.011169,1.058
25230,12.917,4.0909,0.1,0.00025771,2575.3,0.00025776,2576.9,-8.477e-05,3.2724,-8.5207e-05,-0.0085945,1.0714
25231,12.825,4.1818,0.1,0.00026018,2600,0.00026024,2601.7,-8.5561e-05,3.5588,-8.6035e-05,-0.0084931,1.0584
25232,12.917,3.9091,0.1,0.0002576,2574.2,0.00025767,2576.3,-8.466e-05,4.154,-8.5214e-05,-0.007348,1.0717
25233,12.825,4,0.1,0.00026005,2598.7,0.00026013,2601,-8.5436e-05,4.5576,-8.6044e-05,-0.0072812,1.0587
25234,12.917,3.7273,0.1,0.00025751,2573.3,0.00025759,2575.7,-8.4568e-05,4.8854,-8.522e-05,-0.0066692,1.072
25235,12.825,3.8182,0.1,0.00025995,2597.7,0.00026004,2600.4,-8.5331e-05,5.4031,-8.6051e-05,-0.0066183,1.059
25236,12.917,3.5455,0.1,0.00025743,2572.6,0.00025753,2575.3,-8.4497e-05,5.4606,-8.5224e-05,-0.0062708,1.0722
25237,12.825,3.6364,0.1,0.00025986,2596.8,0.00025997,2599.9,-8.5246e-05,6.0881,-8.6057e-05,-0.0062237,1.0592
25238,12.917,3.3636,0.1,0.00025738,2572.1,0.00025748,2575,-8.4445e-05,5.8749,-8.5228e-05,-0.0060356,1.0723
25239,12.825,3.4545,0.1,0.0002598,2596.2,0.00025991,2599.5,-8.5182e-05,6.607,-8.6062e-05,-0.0059831,1.0594
25240,12.917,3.1818,0.1,0.00025735,2571.7,0.00025746,2574.8,-8.4414e-05,6.1248,-8.523e-05,-0.0059102,1.0724
25241,12.825,3.2727,0.1,0.00025976,2595.8,0.00025988,2599.3,-8.5138e-05,6.9554,-8.6065e-05,-0.0058426,1.0595
25242,12.917,3,0.1,0.00025734,2571.6,0.00025745,2574.7,-8.4403e-05,6.2084,-8.5231e-05,-0.0058705,1.0724
25243,12.825,3.0909,0.1,0.00025974,2595.6,0.00025986,2599.1,-8.5117e-05,7.1304,-8.6067e-05,-0.0057775,1.0596
25244,12.917,2.8182,0.1,0.00025735,2571.7,0.00025746,2574.8,-8.4414e-05,6.1248,-8.523e-05,-0.0059105,1.0724
25245,12.825,2.9091,0.1,0.00025974,2595.6,0.00025986,2599.1,-8.5117e-05,7.1304,-8.6067e-05,-0.0057771,1.0596
25246,12.917,2.6364,0.1,0.00025738,2572.1,0.00025748,2575,-8.4445e-05,5.8749,-8.5228e-05,-0.0060365,1.0723
25247,12.825,2.7273,0.1,0.00025976,2595.8,0.00025988,2599.3,-8.5138e-05,6.9555,-8.6065e-05,-0.005843,1.0595
25248,12.917,2.4545,0.1,0.00025743,2572.6,0.00025753,2575.3,-8.4497e-05,5.4606,-8.5224e-05,-0.0062709,1.0722
25249,12.825,2.5455,0.1,0.0002598,2596.2,0.00025991,2599.5,-8.5182e-05,6.607,-8.6062e-05,-0.0059835,1.0594
25250,12.917,2.2727,0.1,0.00025751,2573.3,0.00025759,2575.7,-8.4568e-05,4.8854,-8.522e-05,-0.0066687,1.072
25251,12.825,2.3636,0.1,0.00025986,2596.8,0.00025997,2599.9,-8.5246e-05,6.0881,-8.6057e-05,-0.0062232,1.0592
25252,12.917,2.0909,0.1,0.0002576,2574.2,0.00025767,2576.3,-8.466e-05,4.154,-8.5214e-05,-0.0073481,1.0717
25253,12.825,2.1818,0.1,0.00025995,2597.7,0.00026004,2600.4,-8.5331e-05,5.4031,-8.6051e-05,-0.0066186,1.059
25254,12.917,1.9091,0.1,0.00025771,2575.3,0.00025776,2576.9,-8.477e-05,3.2724,-8.5207e-05,-0.0085949,1.0714
25255,12.825,2,0.1,0.00026005,2598.7,0.00026013,2601,-8.5436e-05,4.5576,-8.6044e-05,-0.0072815,1.0587
25256,12.917,1.7273,0.1,0.00025784,2576.6,0.00025788,2577.7,-8.4899e-05,2.2484,-8.5199e-05,-0.011327,1.0711
25257,12.825,1.8182,0.1,0.00026018,2600,0.00026024,2601.7,-8.5561e-05,3.5588,-8.6035e-05,-0.0084935,1.0584
25258,12.917,1.5455,0.1,0.00025799,2578.1,0.00025801,2578.6,-8.5043e-05,1.0947,-8.5192e-05,-0.020696,1.0706
25259,12.825,1.6364,0.1,0.00026032,2601.4,0.00026036,2602.6,-8.5703e-05,2.4153,-8.6026e-05,-0.011169,1.058
25260,12.917,1.3636,0.1,0.00025815,2579.8,0.00025815,2579.6,-8.5171e-05,0.069197,-8.5218e-05,-0.28623,1.0702
25261,12.825,1.4545,0.1,0.00026048,2603,0.0002605,2603.6,-8.5863e-05,1.141,-8.6017e-05,-0.020635,1.0576
25262,12.917,1.1818,0.1,0.00025834,2581.6,0.00025831,2580.8,-8.5169e-05,0.010423,-8.5388e-05,-1.6374,1.0696
25263,12.825,1.2727,0.1,0.00026066,2604.8,0.00026066,2604.7,-8.5996e-05,0.057485,-8.605e-05,-0.34897,1.057
25264,12.917,1,0.1,0.00025853,2583.6,0.00025848,2582,-8.516e-05,0.0046375,-8.558e-05,-3.151,1.069
25265,12.825,1.0909,0.1,0.00026086,2606.8,0.00026082,2605.8,-8.5991e-05,0.0091109,-8.6236e-05,-1.8308,1.0565
25266,12.917,0.81818,0.1,0.00025875,2585.7,0.00025867,2583.3,-8.5151e-05,0.0026333,-8.5786e-05,-4.7683,1.0684
25267,12.825,0.90909,0.1,0.00026107,2608.9,0.00026101,2607.1,-8.598e-05,0.0039332,-8.6442e-05,-3.4638,1.0559
25268,12.917,0.63636,0.1,0.00025898,2588,0.00025887,2584.7,-8.5141e-05,0.001782,-8.6004e-05,-6.479,1.0677
25269,12.825,0.72727,0.1,0.00026129,2611.1,0.00026121,2608.5,-8.5969e-05,0.0020794,-8.6661e-05,-5.1981,1.0552
25270,12.917,0.45455,0.1,0.00025923,2590.5,0.00025908,2586.3,-8.5132e-05,0.0010365,-8.6239e-05,-8.3135,1.0669
25271,12.825,0.54545,0.1,0.00026154,2613.6,0.00026142,2610,-8.5958e-05,0.0014422,-8.6894e-05,-7.0252,1.0544
25272,12.917,0.27273,0.1,0.0002596,2594.2,0.00025941,2588.7,-8.5124e-05,0.0018418,-8.6582e-05,-10.949,1.0661
25273,12.825,0.36364,0.1,0.0002618,2616.2,0.00026165,2611.7,-8.5948e-05,6.6749e-05,-8.7148e-05,-9.0135,1.0537
25274,12.825,0.18182,0.1,0.0002623,2621.2,0.00026208,2614.9,-8.5938e-05,0.0034578,-8.7603e-05,-12.503,1.0528
25275,12.917,0.090909,0.1,0.00025923,2590.5,0.00025908,2586.2,-8.5118e-05,0.0015783,-8.6269e-05,-8.6468,1.0653
25276,12.733,5.7273,0.1,0.00026449,2643.1,0.00026431,2637.8,-8.6762e-05,0.0015028,-8.8155e-05,-10.466,1.0404
25277,12.64,5.8182,0.1,0.0002672,2670.2,0.000267,2664.1,-8.7578e-05,0.0038993,-8.9185e-05,-12.072,1.0271
25278,12.733,5.9091,0.1,0.00026414,2639.6,0.000264,2635.4,-8.6752e-05,0.0014362,-8.7868e-05,-8.3832,1.0395
25279,12.733,5.5455,0.1,0.00026411,2639.3,0.00026398,2635.4,-8.6774e-05,0.00039455,-8.7799e-05,-7.6981,1.0412
25280,12.64,5.6364,0.1,0.0002667,2665.2,0.00026656,2660.9,-8.7592e-05,-0.00092263,-8.8717e-05,-8.4574,1.028
25281,12.733,5.3636,0.1,0.00026385,2636.7,0.00026375,2633.8,-8.6786e-05,0.0016243,-8.7548e-05,-5.7205,1.042
25282,12.64,5.4545,0.1,0.00026642,2662.4,0.00026631,2659.2,-8.7606e-05,0.0011585,-8.8447e-05,-6.3191,1.0288
25283,12.733,5.1818,0.1,0.00026361,2634.3,0.00026354,2632.3,-8.6799e-05,0.0031028,-8.7315e-05,-3.8701,1.0427
25284,12.64,5.2727,0.1,0.00026617,2659.9,0.0002661,2657.7,-8.762e-05,0.0021914,-8.8199e-05,-4.3443,1.0296
25285,12.733,5,0.1,0.00026339,2632,0.00026335,2631,-8.6812e-05,0.007436,-8.7095e-05,-2.1197,1.0434
25286,12.64,5.0909,0.1,0.00026593,2657.5,0.00026589,2656.3,-8.7635e-05,0.0057323,-8.7964e-05,-2.4679,1.0302
25287,12.733,4.8182,0.1,0.00026318,2630,0.00026317,2629.7,-8.682e-05,0.039257,-8.6892e-05,-0.50278,1.0439
25288,12.64,4.9091,0.1,0.00026571,2655.3,0.0002657,2654.9,-8.7647e-05,0.026402,-8.7745e-05,-0.7121,1.0309
25289,12.733,4.6364,0.1,0.00026299,2628,0.000263,2628.6,-8.6693e-05,1.0902,-8.6841e-05,-0.021864,1.0445
25290,12.64,4.7273,0.1,0.0002655,2653.2,0.00026552,2653.7,-8.7532e-05,0.99943,-8.7668e-05,-0.023622,1.0315
25291,12.733,4.4545,0.1,0.00026281,2626.3,0.00026285,2627.5,-8.6519e-05,2.484,-8.6851e-05,-0.011224,1.045
25292,12.64,4.5455,0.1,0.00026532,2651.3,0.00026536,2652.6,-8.7343e-05,2.522,-8.768e-05,-0.011243,1.032
25293,12.733,4.2727,0.1,0.00026265,2624.7,0.00026272,2626.6,-8.6362e-05,3.7478,-8.6862e-05,-0.0084638,1.0454
25294,12.64,4.3636,0.1,0.00026515,2649.6,0.00026521,2651.6,-8.717e-05,3.9165,-8.7693e-05,-0.0083935,1.0324
25295,12.733,4.0909,0.1,0.00026252,2623.4,0.0002626,2625.8,-8.6224e-05,4.8659,-8.6872e-05,-0.0072435,1.0458
25296,12.64,4.1818,0.1,0.000265,2648.1,0.00026508,2650.7,-8.7016e-05,5.1642,-8.7705e-05,-0.0071729,1.0328
25297,12.733,3.9091,0.1,0.0002624,2622.2,0.0002625,2625.1,-8.6105e-05,5.8285,-8.6881e-05,-0.0065807,1.0461
25298,12.64,4,0.1,0.00026486,2646.8,0.00026497,2649.9,-8.6882e-05,6.2544,-8.7715e-05,-0.0065176,1.0332
25299,12.733,3.7273,0.1,0.0002623,2621.2,0.00026242,2624.5,-8.6006e-05,6.6274,-8.6889e-05,-0.006183,1.0463
25300,12.64,3.8182,0.1,0.00026475,2645.7,0.00026487,2649.3,-8.6768e-05,7.1776,-8.7725e-05,-0.0061222,1.0335
25301,12.733,3.5455,0.1,0.00026223,2620.5,0.00026235,2624.1,-8.5928e-05,7.2561,-8.6895e-05,-0.0059353,1.0465
25302,12.64,3.6364,0.1,0.00026466,2644.8,0.0002648,2648.8,-8.6676e-05,7.9262,-8.7732e-05,-0.0058722,1.0337
25303,12.733,3.3636,0.1,0.00026217,2619.9,0.0002623,2623.8,-8.5872e-05,7.709,-8.6899e-05,-0.005783,1.0467
25304,12.64,3.4545,0.1,0.0002646,2644.1,0.00026474,2648.4,-8.6607e-05,8.4935,-8.7738e-05,-0.0057128,1.0339
25305,12.733,3.1818,0.1,0.00026214,2619.6,0.00026227,2623.6,-8.5838e-05,7.9824,-8.6902e-05,-0.0056994,1.0468
25306,12.64,3.2727,0.1,0.00026455,2643.7,0.0002647,2648.1,-8.656e-05,8.8745,-8.7742e-05,-0.0056169,1.034
25307,12.733,3,0.1,0.00026213,2619.5,0.00026226,2623.5,-8.5827e-05,8.0738,-8.6903e-05,-0.0056726,1.0468
25308,12.64,3.0909,0.1,0.00026453,2643.5,0.00026468,2648,-8.6536e-05,9.0659,-8.7744e-05,-0.0055714,1.034
25309,12.733,2.8182,0.1,0.00026214,2619.6,0.00026227,2623.6,-8.5838e-05,7.9824,-8.6902e-05,-0.0056992,1.0468
25310,12.64,2.9091,0.1,0.00026453,2643.5,0.00026468,2648,-8.6536e-05,9.0659,-8.7744e-05,-0.0055713,1.034
25311,12.733,2.6364,0.1,0.00026217,2619.9,0.0002623,2623.8,-8.5872e-05,7.709,-8.6899e-05,-0.0057829,1.0467
25312,12.64,2.7273,0.1,0.00026455,2643.7,0.0002647,2648.1,-8.656e-05,8.8745,-8.7742e-05,-0.005617,1.034
25313,12.733,2.4545,0.1,0.00026223,2620.5,0.00026235,2624.1,-8.5928e-05,7.2561,-8.6895e-05,-0.0059351,1.0465
25314,12.64,2.5455,0.1,0.0002646,2644.1,0.00026474,2648.4,-8.6607e-05,8.4935,-8.7738e-05,-0.005713,1.0339
25315,12.733,2.2727,0.1,0.0002623,2621.2,0.00026242,2624.5,-8.6006e-05,6.6274,-8.6889e-05,-0.0061832,1.0463
25316,12.64,2.3636,0.1,0.00026466,2644.8,0.0002648,2648.8,-8.6676e-05,7.9262,-8.7732e-05,-0.0058717,1.0337
25317,12.733,2.0909,0.1,0.0002624,2622.2,0.0002625,2625.1,-8.6105e-05,5.8285,-8.6881e-05,-0.0065811,1.0461
25318,12.64,2.1818,0.1,0.00026475,2645.7,0.00026487,2649.3,-8.6768e-05,7.1777,-8.7725e-05,-0.0061228,1.0335
25319,12.733,1.9091,0.1,0.00026252,2623.4,0.0002626,2625.8,-8.6224e-05,4.8659,-8.6872e-05,-0.0072438,1.0458
25320,12.64,2,0.1,0.00026486,2646.8,0.00026497,2649.9,-8.6882e-05,6.2544,-8.7715e-05,-0.0065175,1.0332
25321,12.733,1.7273,0.1,0.00026265,2624.7,0.00026272,2626.6,-8.6362e-05,3.7479,-8.6862e-05,-0.0084645,1.0454
25322,12.64,1.8182,0.1,0.000265,2648.1,0.00026508,2650.7,-8.7016e-05,5.1643,-8.7705e-05,-0.0071736,1.0328
25323,12.733,1.5455,0.1,0.00026281,2626.3,0.00026285,2627.5,-8.6519e-05,2.484,-8.6851e-05,-0.011224,1.045
25324,12.64,1.6364,0.1,0.00026515,2649.6,0.00026521,2651.6,-8.717e-05,3.9165,-8.7693e-05,-0.0083937,1.0324
25325,12.733,1.3636,0.1,0.00026299,2628,0.000263,2628.6,-8.6693e-05,1.0903,-8.6841e-05,-0.021864,1.0445
25326,12.64,1.4545,0.1,0.00026532,2651.3,0.00026536,2652.6,-8.7343e-05,2.5221,-8.768e-05,-0.011243,1.032
25327,12.733,1.1818,0.1,0.00026318,2630,0.00026317,2629.7,-8.682e-05,0.039261,-8.6892e-05,-0.50273,1.0439
25328,12.64,1.2727,0.1,0.0002655,2653.2,0.00026552,2653.7,-8.7532e-05,0.99948,-8.7668e-05,-0.023622,1.0315
25329,12.733,1,0.1,0.00026339,2632,0.00026335,2631,-8.6812e-05,0.0074346,-8.7095e-05,-2.1196,1.0434
25330,12.64,1.0909,0.1,0.00026571,2655.3,0.0002657,2654.9,-8.7647e-05,0.026403,-8.7745e-05,-0.71204,1.0309
25331,12.733,0.81818,0.1,0.00026361,2634.3,0.00026354,2632.3,-8.6799e-05,0.0031018,-8.7315e-05,-3.8701,1.0427
25332,12.64,0.90909,0.1,0.00026593,2657.5,0.00026589,2656.3,-8.7635e-05,0.005731,-8.7964e-05,-2.4678,1.0302
25333,12.733,0.63636,0.1,0.00026385,2636.7,0.00026375,2633.8,-8.6786e-05,0.0016238,-8.7548e-05,-5.7204,1.042
25334,12.64,0.72727,0.1,0.00026617,2659.9,0.0002661,2657.7,-8.762e-05,0.0021909,-8.8199e-05,-4.3443,1.0296
25335,12.733,0.45455,0.1,0.00026411,2639.3,0.00026398,2635.4,-8.6774e-05,0.00039442,-8.7799e-05,-7.6981,1.0412
25336,12.64,0.54545,0.1,0.00026642,2662.4,0.00026631,2659.2,-8.7606e-05,0.0011579,-8.8447e-05,-6.3191,1.0288
25337,12.733,0.27273,0.1,0.00026449,2643.1,0.00026431,2637.8,-8.6762e-05,0.0015024,-8.8155e-05,-10.466,1.0404
25338,12.64,0.36364,0.1,0.0002667,2665.2,0.00026656,2660.9,-8.7592e-05,-0.00092275,-8.8717e-05,-8.4574,1.028
25339,12.64,0.18182,0.1,0.0002672,2670.2,0.000267,2664.1,-8.7578e-05,0.0038993,-8.9185e-05,-12.072,1.0271
25340,12.733,0.090909,0.1,0.00026414,2639.6,0.000264,2635.4,-8.6752e-05,0.0014361,-8.7868e-05,-8.3831,1.0395
25341,12.548,5.7273,0.1,0.0002694,2692.1,0.00026923,2687.1,-8.8408e-05,0.0011711,-8.9734e-05,-9.963,1.0148
25342,12.456,5.8182,0.1,0.00027213,2719.4,0.00027193,2713.6,-8.9225e-05,0.0044164,-9.0773e-05,-11.625,1.0017
25343,12.548,5.9091,0.1,0.00026908,2688.9,0.00026894,2684.9,-8.8394e-05,0.0013151,-8.9474e-05,-8.1116,1.0139
25344,12.548,5.5455,0.1,0.00026901,2688.2,0.00026889,2684.7,-8.8424e-05,-0.00028741,-8.9362e-05,-7.0516,1.0157
25345,12.456,5.6364,0.1,0.00027162,2714.3,0.00027148,2710.4,-8.9244e-05,-0.0019695,-9.0292e-05,-7.8749,1.0025
25346,12.548,5.3636,0.1,0.00026874,2685.5,0.00026865,2683.1,-8.844e-05,0.0014988,-8.9095e-05,-4.9194,1.0164
25347,12.456,5.4545,0.1,0.00027133,2711.4,0.00027123,2708.6,-8.9262e-05,0.00086683,-9.0004e-05,-5.5747,1.0034
25348,12.548,5.1818,0.1,0.00026849,2683,0.00026844,2681.6,-8.8456e-05,0.0040608,-8.8845e-05,-2.9185,1.0172
25349,12.456,5.2727,0.1,0.00027106,2708.8,0.000271,2707,-8.928e-05,0.0025235,-8.9738e-05,-3.4406,1.0041
25350,12.548,5,0.1,0.00026825,2680.7,0.00026824,2680.2,-8.8471e-05,0.016785,-8.861e-05,-1.0298,1.0178
25351,12.456,5.0909,0.1,0.00027081,2706.3,0.00027079,2705.6,-8.9298e-05,0.010671,-8.9487e-05,-1.4131,1.0048
25352,12.548,4.8182,0.1,0.00026803,2678.5,0.00026805,2678.9,-8.8383e-05,0.80418,-8.8493e-05,-0.028317,1.0184
25353,12.456,4.9091,0.1,0.00027058,2703.9,0.00027059,2704.2,-8.9243e-05,0.56176,-8.9323e-05,-0.037965,1.0055
25354,12.548,4.6364,0.1,0.00026783,2676.5,0.00026787,2677.7,-8.8179e-05,2.4517,-8.8507e-05,-0.011502,1.019
25355,12.456,4.7273,0.1,0.00027036,2701.8,0.0002704,2702.9,-8.9024e-05,2.3396,-8.9337e-05,-0.011767,1.006
25356,12.548,4.4545,0.1,0.00026765,2674.6,0.00026772,2676.6,-8.7991e-05,3.9763,-8.8522e-05,-0.0083981,1.0195
25357,12.456,4.5455,0.1,0.00027017,2699.8,0.00027023,2701.8,-8.882e-05,4.0051,-8.9354e-05,-0.0083623,1.0066
25358,12.548,4.2727,0.1,0.00026748,2673,0.00026757,2675.7,-8.7822e-05,5.3544,-8.8535e-05,-0.0071355,1.0199
25359,12.456,4.3636,0.1,0.00026999,2698,0.00027008,2700.8,-8.8633e-05,5.5249,-8.937e-05,-0.0070657,1.007
25360,12.548,4.0909,0.1,0.00026734,2671.5,0.00026745,2674.8,-8.7672e-05,6.574,-8.8548e-05,-0.0064706,1.0203
25361,12.456,4.1818,0.1,0.00026983,2696.4,0.00026994,2699.8,-8.8467e-05,6.8854,-8.9384e-05,-0.0063985,1.0074
25362,12.548,3.9091,0.1,0.00026721,2670.3,0.00026734,2674.1,-8.7543e-05,7.6247,-8.8559e-05,-0.006072,1.0206
25363,12.456,4,0.1,0.00026969,2695,0.00026982,2699,-8.8322e-05,8.075,-8.9397e-05,-0.0060017,1.0078
25364,12.548,3.7273,0.1,0.00026711,2669.3,0.00026726,2673.5,-8.7436e-05,8.4974,-8.8568e-05,-0.0058163,1.0209
25365,12.456,3.8182,0.1,0.00026957,2693.8,0.00026972,2698.4,-8.8199e-05,9.0833,-8.9408e-05,-0.0057445,1.0081
25366,12.548,3.5455,0.1,0.00026703,2668.5,0.00026719,2673,-8.7352e-05,9.1845,-8.8575e-05,-0.0056492,1.0211
25367,12.456,3.6364,0.1,0.00026948,2692.9,0.00026964,2697.8,-8.8099e-05,9.9014,-8.9418e-05,-0.0055729,1.0083
25368,12.548,3.3636,0.1,0.00026697,2667.9,0.00026714,2672.7,-8.7292e-05,9.6798,-8.8581e-05,-0.0055429,1.0212
25369,12.456,3.4545,0.1,0.0002694,2692.2,0.00026958,2697.4,-8.8024e-05,10.522,-8.9425e-05,-0.0054592,1.0085
25370,12.548,3.1818,0.1,0.00026694,2667.5,0.00026711,2672.5,-8.7255e-05,9.9788,-8.8584e-05,-0.0054832,1.0213
25371,12.456,3.2727,0.1,0.00026936,2691.7,0.00026954,2697.2,-8.7973e-05,10.939,-8.943e-05,-0.0053886,1.0086
25372,12.548,3,0.1,0.00026693,2667.4,0.0002671,2672.5,-8.7243e-05,10.079,-8.8585e-05,-0.0054638,1.0213
25373,12.456,3.0909,0.1,0.00026933,2691.5,0.00026952,2697,-8.7948e-05,11.148,-8.9432e-05,-0.0053544,1.0087
25374,12.548,2.8182,0.1,0.00026694,2667.5,0.00026711,2672.5,-8.7255e-05,9.9788,-8.8584e-05,-0.0054834,1.0213
25375,12.456,2.9091,0.1,0.00026933,2691.5,0.00026952,2697,-8.7948e-05,11.148,-8.9432e-05,-0.0053545,1.0087
25376,12.548,2.6364,0.1,0.00026697,2667.9,0.00026714,2672.7,-8.7292e-05,9.6798,-8.8581e-05,-0.0055433,1.0212
25377,12.456,2.7273,0.1,0.00026936,2691.7,0.00026954,2697.2,-8.7973e-05,10.939,-8.943e-05,-0.0053887,1.0086
25378,12.548,2.4545,0.1,0.00026703,2668.5,0.00026719,2673,-8.7352e-05,9.1845,-8.8575e-05,-0.0056492,1.0211
25379,12.456,2.5455,0.1,0.0002694,2692.2,0.00026958,2697.4,-8.8024e-05,10.522,-8.9425e-05,-0.0054594,1.0085
25380,12.548,2.2727,0.1,0.00026711,2669.3,0.00026726,2673.5,-8.7436e-05,8.4974,-8.8568e-05,-0.0058162,1.0209
25381,12.456,2.3636,0.1,0.00026948,2692.9,0.00026964,2697.8,-8.8099e-05,9.9014,-8.9418e-05,-0.0055723,1.0083
25382,12.548,2.0909,0.1,0.00026721,2670.3,0.00026734,2674.1,-8.7543e-05,7.6247,-8.8559e-05,-0.006072,1.0206
25383,12.456,2.1818,0.1,0.00026957,2693.8,0.00026972,2698.4,-8.8199e-05,9.0833,-8.9408e-05,-0.0057445,1.0081
25384,12.548,1.9091,0.1,0.00026734,2671.5,0.00026745,2674.8,-8.7672e-05,6.5741,-8.8548e-05,-0.0064708,1.0203
25385,12.456,2,0.1,0.00026969,2695,0.00026982,2699,-8.8322e-05,8.075,-8.9397e-05,-0.0060019,1.0078
25386,12.548,1.7273,0.1,0.00026748,2673,0.00026757,2675.7,-8.7822e-05,5.3545,-8.8535e-05,-0.0071357,1.0199
25387,12.456,1.8182,0.1,0.00026983,2696.4,0.00026994,2699.8,-8.8467e-05,6.8854,-8.9384e-05,-0.0063995,1.0074
25388,12.548,1.5455,0.1,0.00026765,2674.6,0.00026772,2676.6,-8.7991e-05,3.9763,-8.8522e-05,-0.0083981,1.0195
25389,12.456,1.6364,0.1,0.00026999,2698,0.00027008,2700.8,-8.8633e-05,5.5249,-8.937e-05,-0.0070656,1.007
25390,12.548,1.3636,0.1,0.00026783,2676.5,0.00026787,2677.7,-8.8179e-05,2.4517,-8.8507e-05,-0.011502,1.019
25391,12.456,1.4545,0.1,0.00027017,2699.8,0.00027023,2701.8,-8.882e-05,4.0052,-8.9354e-05,-0.0083628,1.0066
25392,12.548,1.1818,0.1,0.00026803,2678.5,0.00026805,2678.9,-8.8383e-05,0.80423,-8.8493e-05,-0.028317,1.0184
25393,12.456,1.2727,0.1,0.00027036,2701.8,0.0002704,2702.9,-8.9024e-05,2.3397,-8.9337e-05,-0.011767,1.006
25394,12.548,1,0.1,0.00026825,2680.7,0.00026824,2680.2,-8.8471e-05,0.016785,-8.861e-05,-1.0298,1.0178
25395,12.456,1.0909,0.1,0.00027058,2703.9,0.00027059,2704.2,-8.9243e-05,0.56181,-8.9323e-05,-0.037963,1.0055
25396,12.548,0.81818,0.1,0.00026849,2683,0.00026844,2681.6,-8.8456e-05,0.0040601,-8.8845e-05,-2.9184,1.0172
25397,12.456,0.90909,0.1,0.00027081,2706.3,0.00027079,2705.6,-8.9298e-05,0.01067,-8.9487e-05,-1.413,1.0048
25398,12.548,0.63636,0.1,0.00026874,2685.5,0.00026865,2683.1,-8.844e-05,0.0014982,-8.9095e-05,-4.9193,1.0164
25399,12.456,0.72727,0.1,0.00027106,2708.8,0.000271,2707,-8.928e-05,0.002523,-8.9738e-05,-3.4406,1.0041
25400,12.548,0.45455,0.1,0.00026901,2688.2,0.00026889,2684.7,-8.8424e-05,-0.00028802,-8.9362e-05,-7.0515,1.0157
25401,12.456,0.54545,0.1,0.00027133,2711.4,0.00027123,2708.6,-8.9262e-05,0.00086621,-9.0004e-05,-5.5746,1.0034
25402,12.548,0.27273,0.1,0.0002694,2692.1,0.00026923,2687.1,-8.8408e-05,0.0011714,-8.9734e-05,-9.963,1.0148
25403,12.456,0.36364,0.1,0.00027162,2714.3,0.00027148,2710.4,-8.9244e-05,-0.0019697,-9.0292e-05,-7.8749,1.0025
25404,12.456,0.18182,0.1,0.00027213,2719.4,0.00027193,2713.6,-8.9225e-05,0.0044166,-9.0773e-05,-11.625,1.0017
25405,12.548,0.090909,0.1,0.00026908,2688.9,0.00026894,2684.9,-8.8394e-05,0.0013136,-8.9474e-05,-8.1116,1.0139
25406,12.363,5.7273,0.1,0.00027433,2741.4,0.00027417,2736.7,-9.0061e-05,0.00085595,-9.1318e-05,-9.4386,0.98944
25407,12.271,5.8182,0.1,0.00027707,2768.8,0.00027688,2763.2,-9.0881e-05,0.0050037,-9.2367e-05,-11.163,0.97637
25408,12.363,5.9091,0.1,0.00027404,2738.5,0.0002739,2734.5,-9.0044e-05,0.0012224,-9.1086e-05,-7.8314,0.98853
25409,12.363,5.5455,0.1,0.00027393,2737.4,0.00027382,2734.2,-9.0082e-05,-0.0010128,-9.093e-05,-6.3715,0.9903
25410,12.271,5.6364,0.1,0.00027656,2763.6,0.00027643,2760,-9.0904e-05,-0.0030987,-9.187e-05,-7.2641,0.97726
25411,12.363,5.3636,0.1,0.00027365,2734.6,0.00027358,2732.6,-9.0102e-05,0.0014428,-9.0644e-05,-4.0726,0.99109
25412,12.271,5.4545,0.1,0.00027625,2760.6,0.00027617,2758.2,-9.0926e-05,0.00054991,-9.1563e-05,-4.7893,0.97809
25413,12.363,5.1818,0.1,0.00027339,2732,0.00027335,2731,-9.0122e-05,0.0063749,-9.0377e-05,-1.9101,0.99183
25414,12.271,5.2727,0.1,0.00027597,2757.8,0.00027593,2756.6,-9.0948e-05,0.0033566,-9.1279e-05,-2.4836,0.97886
25415,12.363,5,0.1,0.00027314,2729.5,0.00027314,2729.6,-9.0112e-05,0.23752,-9.0154e-05,-0.08107,0.99251
25416,12.271,5.0909,0.1,0.00027571,2755.2,0.00027571,2755.1,-9.0965e-05,0.050497,-9.1015e-05,-0.32663,0.97958
25417,12.363,4.8182,0.1,0.00027291,2727.2,0.00027294,2728.2,-8.9882e-05,2.11,-9.0165e-05,-0.012429,0.99312
25418,12.271,4.9091,0.1,0.00027547,2752.8,0.0002755,2753.7,-9.0751e-05,1.8259,-9.0996e-05,-0.013346,0.98023
25419,12.363,4.6364,0.1,0.00027269,2725.1,0.00027276,2727,-8.9662e-05,3.9143,-9.0184e-05,-0.0084123,0.99368
25420,12.271,4.7273,0.1,0.00027524,2750.5,0.0002753,2752.4,-9.0513e-05,3.7801,-9.1017e-05,-0.0084548,0.98082
25421,12.363,4.4545,0.1,0.0002725,2723.1,0.00027259,2725.9,-8.9459e-05,5.575,-9.0202e-05,-0.0070332,0.99418
25422,12.271,4.5455,0.1,0.00027503,2748.4,0.00027512,2751.2,-9.0292e-05,5.5934,-9.1037e-05,-0.0069929,0.98135
25423,12.363,4.2727,0.1,0.00027233,2721.4,0.00027245,2724.9,-8.9276e-05,7.0768,-9.0218e-05,-0.0063476,0.99462
25424,12.271,4.3636,0.1,0.00027484,2746.5,0.00027496,2750.1,-9.0091e-05,7.2489,-9.1057e-05,-0.0062965,0.98183
25425,12.363,4.0909,0.1,0.00027217,2719.8,0.00027231,2724,-8.9114e-05,8.4071,-9.0234e-05,-0.0059443,0.995
25426,12.271,4.1818,0.1,0.00027467,2744.8,0.00027482,2749.2,-8.9911e-05,8.7324,-9.1074e-05,-0.0058924,0.98224
25427,12.363,3.9091,0.1,0.00027204,2718.5,0.0002722,2723.3,-8.8975e-05,9.5542,-9.0247e-05,-0.0056831,0.99532
25428,12.271,4,0.1,0.00027452,2743.3,0.00027469,2748.3,-8.9754e-05,10.031,-9.109e-05,-0.0056306,0.9826
25429,12.363,3.7273,0.1,0.00027193,2717.4,0.00027211,2722.7,-8.8859e-05,10.508,-9.0258e-05,-0.0055053,0.99559
25430,12.271,3.8182,0.1,0.0002744,2742.1,0.00027459,2747.6,-8.9621e-05,11.132,-9.1103e-05,-0.0054481,0.98289
25431,12.363,3.5455,0.1,0.00027185,2716.6,0.00027204,2722.2,-8.8768e-05,11.259,-9.0267e-05,-0.0053837,0.99579
25432,12.271,3.6364,0.1,0.0002743,2741.1,0.0002745,2747.1,-8.9513e-05,12.027,-9.1114e-05,-0.0053197,0.98313
25433,12.363,3.3636,0.1,0.00027179,2716,0.00027198,2721.9,-8.8702e-05,11.801,-9.0274e-05,-0.0053035,0.99594
25434,12.271,3.4545,0.1,0.00027422,2740.3,0.00027444,2746.7,-8.9431e-05,12.706,-9.1123e-05,-0.0052315,0.9833
25435,12.363,3.1818,0.1,0.00027175,2715.6,0.00027195,2721.6,-8.8663e-05,12.128,-9.0277e-05,-0.005257,0.99603
25436,12.271,3.2727,0.1,0.00027417,2739.8,0.00027439,2746.4,-8.9376e-05,13.162,-9.1128e-05,-0.0051748,0.98342
25437,12.363,3,0.1,0.00027174,2715.5,0.00027194,2721.6,-8.8649e-05,12.237,-9.0279e-05,-0.0052419,0.99606
25438,12.271,3.0909,0.1,0.00027415,2739.6,0.00027437,2746.2,-8.9348e-05,13.391,-9.1131e-05,-0.0051468,0.98348
25439,12.363,2.8182,0.1,0.00027175,2715.6,0.00027195,2721.6,-8.8663e-05,12.128,-9.0277e-05,-0.0052571,0.99603
25440,12.271,2.9091,0.1,0.00027415,2739.6,0.00027437,2746.2,-8.9348e-05,13.391,-9.1131e-05,-0.0051468,0.98348
25441,12.363,2.6364,0.1,0.00027179,2716,0.00027198,2721.9,-8.8702e-05,11.801,-9.0274e-05,-0.0053034,0.99594
25442,12.271,2.7273,0.1,0.00027417,2739.8,0.00027439,2746.4,-8.9376e-05,13.162,-9.1128e-05,-0.005175,0.98342
25443,12.363,2.4545,0.1,0.00027185,2716.6,0.00027204,2722.2,-8.8768e-05,11.259,-9.0267e-05,-0.0053834,0.99579
25444,12.271,2.5455,0.1,0.00027422,2740.3,0.00027444,2746.7,-8.9431e-05,12.706,-9.1123e-05,-0.0052315,0.9833
25445,12.363,2.2727,0.1,0.00027193,2717.4,0.00027211,2722.7,-8.8859e-05,10.508,-9.0258e-05,-0.0055049,0.99559
25446,12.271,2.3636,0.1,0.0002743,2741.1,0.0002745,2747.1,-8.9513e-05,12.027,-9.1114e-05,-0.0053197,0.98313
25447,12.363,2.0909,0.1,0.00027204,2718.5,0.0002722,2723.3,-8.8975e-05,9.5542,-9.0247e-05,-0.0056833,0.99532
25448,12.271,2.1818,0.1,0.0002744,2742.1,0.00027459,2747.6,-8.9621e-05,11.132,-9.1103e-05,-0.0054484,0.98289
25449,12.363,1.9091,0.1,0.00027217,2719.8,0.00027231,2724,-8.9114e-05,8.4071,-9.0234e-05,-0.0059453,0.995
25450,12.271,2,0.1,0.00027452,2743.3,0.00027469,2748.3,-8.9754e-05,10.031,-9.109e-05,-0.005631,0.9826
25451,12.363,1.7273,0.1,0.00027233,2721.4,0.00027245,2724.9,-8.9276e-05,7.0769,-9.0218e-05,-0.0063483,0.99462
25452,12.271,1.8182,0.1,0.00027467,2744.8,0.00027482,2749.2,-8.9911e-05,8.7325,-9.1074e-05,-0.005893,0.98224
25453,12.363,1.5455,0.1,0.0002725,2723.1,0.00027259,2725.9,-8.9459e-05,5.575,-9.0202e-05,-0.0070336,0.99418
25454,12.271,1.6364,0.1,0.00027484,2746.5,0.00027496,2750.1,-9.0091e-05,7.249,-9.1057e-05,-0.0062966,0.98183
25455,12.363,1.3636,0.1,0.00027269,2725.1,0.00027276,2727,-8.9662e-05,3.9143,-9.0184e-05,-0.008413,0.99368
25456,12.271,1.4545,0.1,0.00027503,2748.4,0.00027512,2751.2,-9.0292e-05,5.5935,-9.1037e-05,-0.0069934,0.98135
25457,12.363,1.1818,0.1,0.00027291,2727.2,0.00027294,2728.2,-8.9882e-05,2.11,-9.0165e-05,-0.01243,0.99312
25458,12.271,1.2727,0.1,0.00027524,2750.5,0.0002753,2752.4,-9.0513e-05,3.7801,-9.1017e-05,-0.0084552,0.98082
25459,12.363,1,0.1,0.00027314,2729.5,0.00027314,2729.6,-9.0112e-05,0.23757,-9.0154e-05,-0.081057,0.99251
25460,12.271,1.0909,0.1,0.00027547,2752.8,0.0002755,2753.7,-9.0751e-05,1.826,-9.0996e-05,-0.013347,0.98023
25461,12.363,0.81818,0.1,0.00027339,2732,0.00027335,2731,-9.0122e-05,0.0063738,-9.0377e-05,-1.91,0.99183
25462,12.271,0.90909,0.1,0.00027571,2755.2,0.00027571,2755.1,-9.0965e-05,0.050505,-9.1015e-05,-0.32658,0.97958
25463,12.363,0.63636,0.1,0.00027365,2734.6,0.00027358,2732.6,-9.0102e-05,0.0014422,-9.0644e-05,-4.0725,0.99109
25464,12.271,0.72727,0.1,0.00027597,2757.8,0.00027593,2756.6,-9.0948e-05,0.0033549,-9.1279e-05,-2.4835,0.97886
25465,12.363,0.45455,0.1,0.00027393,2737.4,0.00027382,2734.2,-9.0082e-05,-0.001013,-9.093e-05,-6.3715,0.9903
25466,12.271,0.54545,0.1,0.00027625,2760.6,0.00027617,2758.2,-9.0926e-05,0.00054953,-9.1563e-05,-4.7892,0.97809
25467,12.363,0.27273,0.1,0.00027433,2741.4,0.00027417,2736.7,-9.0061e-05,0.00085556,-9.1318e-05,-9.4385,0.98944
25468,12.271,0.36364,0.1,0.00027656,2763.6,0.00027643,2760,-9.0904e-05,-0.0030988,-9.187e-05,-7.2641,0.97726
25469,12.271,0.18182,0.1,0.00027707,2768.8,0.00027688,2763.2,-9.0881e-05,0.005003,-9.2367e-05,-11.163,0.97637
25470,12.363,0.090909,0.1,0.00027404,2738.5,0.0002739,2734.5,-9.0044e-05,0.0012219,-9.1086e-05,-7.8313,0.98853
25471,12.179,5.7273,0.1,0.00027928,2790.9,0.00027913,2786.5,-9.1723e-05,0.00052399,-9.2906e-05,-8.8914,0.96425
25472,12.086,5.8182,0.1,0.00028204,2818.5,0.00028186,2813.1,-9.2544e-05,0.0056991,-9.3966e-05,-10.683,0.95126
25473,12.179,5.9091,0.1,0.00027901,2788.2,0.00027889,2784.4,-9.1701e-05,0.0011231,-9.2705e-05,-7.5419,0.96332
25474,12.179,5.5455,0.1,0.00027887,2786.8,0.00027878,2784,-9.1748e-05,-0.0018297,-9.25e-05,-5.6558,0.96512
25475,12.086,5.6364,0.1,0.00028151,2813.2,0.0002814,2809.9,-9.2572e-05,-0.0042919,-9.3453e-05,-6.6233,0.95217
25476,12.179,5.3636,0.1,0.00027858,2783.8,0.00027852,2782.2,-9.1773e-05,0.0014913,-9.2196e-05,-3.1769,0.96592
25477,12.086,5.4545,0.1,0.0002812,2810,0.00028113,2808,-9.2599e-05,0.00023686,-9.3126e-05,-3.9601,0.95301
25478,12.179,5.1818,0.1,0.0002783,2781.1,0.00027829,2780.7,-9.1796e-05,0.015398,-9.191e-05,-0.84614,0.96667
25479,12.086,5.2727,0.1,0.00028091,2807.1,0.00028088,2806.4,-9.2625e-05,0.0059041,-9.2822e-05,-1.4707,0.9538
25480,12.179,5,0.1,0.00027804,2778.5,0.00027806,2779.2,-9.1634e-05,1.4169,-9.1824e-05,-0.015392,0.96736
25481,12.086,5.0909,0.1,0.00028063,2804.4,0.00028065,2804.8,-9.2528e-05,0.94141,-9.2656e-05,-0.019698,0.95452
25482,12.179,4.8182,0.1,0.0002778,2776,0.00027786,2777.8,-9.1378e-05,3.5165,-9.1848e-05,-0.0086227,0.96799
25483,12.086,4.9091,0.1,0.00028037,2801.8,0.00028042,2803.4,-9.2255e-05,3.1955,-9.2681e-05,-0.0087748,0.95518
25484,12.179,4.6364,0.1,0.00027757,2773.8,0.00027766,2776.5,-9.114e-05,5.4801,-9.187e-05,-0.0069936,0.96855
25485,12.086,4.7273,0.1,0.00028013,2799.4,0.00028022,2802,-9.1998e-05,5.3214,-9.2707e-05,-0.0069466,0.95578
25486,12.179,4.4545,0.1,0.00027737,2771.7,0.00027749,2775.4,-9.0921e-05,7.288,-9.1892e-05,-0.0062694,0.96906
25487,12.086,4.5455,0.1,0.00027991,2797.1,0.00028003,2800.8,-9.1759e-05,7.2947,-9.2731e-05,-0.0062024,0.95632
25488,12.179,4.2727,0.1,0.00027718,2769.9,0.00027733,2774.4,-9.0724e-05,8.9249,-9.1912e-05,-0.0058574,0.96951
25489,12.086,4.3636,0.1,0.00027971,2795.1,0.00027986,2799.7,-9.1542e-05,9.0983,-9.2754e-05,-0.0057879,0.95681
25490,12.179,4.0909,0.1,0.00027702,2768.3,0.00027719,2773.4,-9.0548e-05,10.376,-9.193e-05,-0.0055909,0.9699
25491,12.086,4.1818,0.1,0.00027953,2793.3,0.00027971,2798.7,-9.1348e-05,10.716,-9.2775e-05,-0.0055203,0.95723
25492,12.179,3.9091,0.1,0.00027688,2766.9,0.00027708,2772.7,-9.0398e-05,11.629,-9.1946e-05,-0.0054035,0.97022
25493,12.086,4,0.1,0.00027937,2791.8,0.00027958,2797.8,-9.1178e-05,12.134,-9.2793e-05,-0.0053304,0.95759
25494,12.179,3.7273,0.1,0.00027676,2765.7,0.00027698,2772,-9.0272e-05,12.671,-9.1959e-05,-0.005267,0.97049
25495,12.086,3.8182,0.1,0.00027924,2790.5,0.00027946,2797.1,-9.1033e-05,13.338,-9.2809e-05,-0.0051872,0.95789
25496,12.179,3.5455,0.1,0.00027667,2764.8,0.0002769,2771.5,-9.0173e-05,13.493,-9.197e-05,-0.0051693,0.9707
25497,12.086,3.6364,0.1,0.00027913,2789.4,0.00027937,2796.5,-9.0916e-05,14.317,-9.2822e-05,-0.0050806,0.95813
25498,12.179,3.3636,0.1,0.00027661,2764.2,0.00027684,2771.2,-9.0102e-05,14.086,-9.1978e-05,-0.005103,0.97085
25499,12.086,3.4545,0.1,0.00027905,2788.6,0.0002793,2796.1,-9.0827e-05,15.06,-9.2832e-05,-0.0050037,0.95831
25500,12.179,3.1818,0.1,0.00027657,2763.8,0.00027681,2771,-9.0059e-05,14.444,-9.1982e-05,-0.0050638,0.97094
25501,12.086,3.2727,0.1,0.000279,2788,0.00027926,2795.8,-9.0768e-05,15.56,-9.2839e-05,-0.0049531,0.95843
25502,12.179,3,0.1,0.00027655,2763.6,0.0002768,2770.9,-9.0045e-05,14.564,-9.1984e-05,-0.0050505,0.97097
25503,12.086,3.0909,0.1,0.00027897,2787.8,0.00027924,2795.6,-9.0738e-05,15.811,-9.2843e-05,-0.0049275,0.95849
25504,12.179,2.8182,0.1,0.00027657,2763.8,0.00027681,2771,-9.0059e-05,14.444,-9.1982e-05,-0.0050638,0.97094
25505,12.086,2.9091,0.1,0.00027897,2787.8,0.00027924,2795.6,-9.0738e-05,15.811,-9.2843e-05,-0.0049275,0.95849
25506,12.179,2.6364,0.1,0.00027661,2764.2,0.00027684,2771.2,-9.0102e-05,14.086,-9.1978e-05,-0.0051033,0.97085
25507,12.086,2.7273,0.1,0.000279,2788,0.00027926,2795.8,-9.0768e-05,15.56,-9.2839e-05,-0.0049532,0.95843
25508,12.179,2.4545,0.1,0.00027667,2764.8,0.0002769,2771.5,-9.0173e-05,13.493,-9.197e-05,-0.0051697,0.9707
25509,12.086,2.5455,0.1,0.00027905,2788.6,0.0002793,2796.1,-9.0827e-05,15.06,-9.2832e-05,-0.005004,0.95831
25510,12.179,2.2727,0.1,0.00027676,2765.7,0.00027698,2772,-9.0272e-05,12.671,-9.1959e-05,-0.0052676,0.97049
25511,12.086,2.3636,0.1,0.00027913,2789.4,0.00027937,2796.5,-9.0916e-05,14.317,-9.2822e-05,-0.0050806,0.95813
25512,12.179,2.0909,0.1,0.00027688,2766.9,0.00027708,2772.7,-9.0398e-05,11.629,-9.1946e-05,-0.0054039,0.97022
25513,12.086,2.1818,0.1,0.00027924,2790.5,0.00027946,2797.1,-9.1033e-05,13.339,-9.2809e-05,-0.0051878,0.95789
25514,12.179,1.9091,0.1,0.00027702,2768.3,0.00027719,2773.4,-9.0548e-05,10.376,-9.193e-05,-0.0055908,0.9699
25515,12.086,2,0.1,0.00027937,2791.8,0.00027958,2797.8,-9.1178e-05,12.134,-9.2793e-05,-0.0053306,0.95759
25516,12.179,1.7273,0.1,0.00027718,2769.9,0.00027733,2774.4,-9.0724e-05,8.9249,-9.1912e-05,-0.0058574,0.96951
25517,12.086,1.8182,0.1,0.00027953,2793.3,0.00027971,2798.7,-9.1348e-05,10.716,-9.2775e-05,-0.0055203,0.95723
25518,12.179,1.5455,0.1,0.00027737,2771.7,0.00027749,2775.4,-9.0921e-05,7.2881,-9.1892e-05,-0.0062697,0.96906
25519,12.086,1.6364,0.1,0.00027971,2795.1,0.00027986,2799.7,-9.1542e-05,9.0983,-9.2754e-05,-0.0057884,0.95681
25520,12.179,1.3636,0.1,0.00027757,2773.8,0.00027766,2776.5,-9.114e-05,5.4801,-9.187e-05,-0.0069939,0.96855
25521,12.086,1.4545,0.1,0.00027991,2797.1,0.00028003,2800.8,-9.176e-05,7.2947,-9.2731e-05,-0.0062024,0.95632
25522,12.179,1.1818,0.1,0.0002778,2776,0.00027786,2777.8,-9.1378e-05,3.5166,-9.1848e-05,-0.008623,0.96799
25523,12.086,1.2727,0.1,0.00028013,2799.4,0.00028022,2802,-9.1998e-05,5.3215,-9.2707e-05,-0.0069472,0.95578
25524,12.179,1,0.1,0.00027804,2778.5,0.00027806,2779.2,-9.1634e-05,1.417,-9.1824e-05,-0.015393,0.96736
25525,12.086,1.0909,0.1,0.00028037,2801.8,0.00028042,2803.4,-9.2255e-05,3.1956,-9.2681e-05,-0.0087753,0.95518
25526,12.179,0.81818,0.1,0.0002783,2781.1,0.00027829,2780.7,-9.1796e-05,0.015398,-9.191e-05,-0.84608,0.96667
25527,12.086,0.90909,0.1,0.00028063,2804.4,0.00028065,2804.8,-9.2528e-05,0.94147,-9.2656e-05,-0.019699,0.95452
25528,12.179,0.63636,0.1,0.00027858,2783.8,0.00027852,2782.2,-9.1773e-05,0.0014899,-9.2196e-05,-3.1768,0.96592
25529,12.086,0.72727,0.1,0.00028091,2807.1,0.00028088,2806.4,-9.2625e-05,0.0059021,-9.2822e-05,-1.4706,0.9538
25530,12.179,0.45455,0.1,0.00027887,2786.8,0.00027878,2784,-9.1748e-05,-0.0018299,-9.25e-05,-5.6557,0.96512
25531,12.086,0.54545,0.1,0.0002812,2810,0.00028113,2808,-9.2599e-05,0.00023642,-9.3126e-05,-3.9601,0.95301
25532,12.179,0.27273,0.1,0.00027928,2790.9,0.00027913,2786.5,-9.1723e-05,0.00052358,-9.2906e-05,-8.8914,0.96425
25533,12.086,0.36364,0.1,0.00028151,2813.2,0.0002814,2809.9,-9.2572e-05,-0.0042918,-9.3453e-05,-6.6233,0.95217
25534,12.086,0.18182,0.1,0.00028204,2818.5,0.00028186,2813.1,-9.2544e-05,0.0056988,-9.3966e-05,-10.683,0.95126
25535,12.179,0.090909,0.1,0.00027901,2788.2,0.00027889,2784.4,-9.1701e-05,0.0011232,-9.2705e-05,-7.5419,0.96332
25536,11.994,5.7273,0.1,0.00028426,2840.6,0.00028411,2836.4,-9.3393e-05,0.00027563,-9.45e-05,-8.3199,0.93924
25537,11.902,5.8182,0.1,0.00028703,2868.3,0.00028686,2863.2,-9.4215e-05,0.006547,-9.5571e-05,-10.186,0.92634
25538,11.994,5.9091,0.1,0.00028402,2838.2,0.00028389,2834.6,-9.3366e-05,0.0011088,-9.433e-05,-7.2425,0.9383
25539,11.994,5.5455,0.1,0.00028383,2836.4,0.00028375,2833.9,-9.3423e-05,-0.0026599,-9.4075e-05,-4.9018,0.94012
25540,11.902,5.6364,0.1,0.00028649,2862.9,0.00028639,2860,-9.4248e-05,-0.0055304,-9.5039e-05,-5.9505,0.92726
25541,11.994,5.3636,0.1,0.00028352,2833.3,0.00028348,2832.2,-9.3452e-05,0.0019621,-9.3749e-05,-2.2292,0.94094
25542,11.902,5.4545,0.1,0.00028616,2859.6,0.00028611,2858.1,-9.428e-05,-2.796e-05,-9.469e-05,-3.0844,0.92812
25543,11.994,5.1818,0.1,0.00028323,2830.4,0.00028324,2830.5,-9.3435e-05,0.35089,-9.3487e-05,-0.041752,0.9417
25544,11.902,5.2727,0.1,0.00028585,2856.6,0.00028585,2856.4,-9.4309e-05,0.023977,-9.4367e-05,-0.41188,0.92892
25545,11.994,5,0.1,0.00028296,2827.6,0.000283,2829,-9.3147e-05,2.7371,-9.3512e-05,-0.0091324,0.9424
25546,11.902,5.0909,0.1,0.00028556,2853.7,0.0002856,2854.8,-9.4051e-05,2.2057,-9.4346e-05,-0.0096664,0.92965
25547,11.994,4.8182,0.1,0.0002827,2825.1,0.00028279,2827.6,-9.2871e-05,5.021,-9.354e-05,-0.0069561,0.94304
25548,11.902,4.9091,0.1,0.00028529,2850.9,0.00028537,2853.2,-9.3756e-05,4.6596,-9.4377e-05,-0.0069498,0.93033
25549,11.994,4.6364,0.1,0.00028246,2822.7,0.00028258,2826.2,-9.2614e-05,7.1564,-9.3567e-05,-0.0061591,0.94362
25550,11.902,4.7273,0.1,0.00028503,2848.4,0.00028515,2851.9,-9.3478e-05,6.9702,-9.4407e-05,-0.0061021,0.93094
25551,11.994,4.4545,0.1,0.00028225,2820.5,0.0002824,2825.1,-9.2378e-05,9.125,-9.3593e-05,-0.0057382,0.94413
25552,11.902,4.5455,0.1,0.0002848,2846,0.00028495,2850.6,-9.3221e-05,9.1177,-9.4436e-05,-0.0056816,0.93149
25553,11.994,4.2727,0.1,0.00028205,2818.5,0.00028223,2824,-9.2164e-05,10.91,-9.3617e-05,-0.0054659,0.94459
25554,11.902,4.3636,0.1,0.00028459,2843.9,0.00028477,2849.4,-9.2986e-05,11.083,-9.4462e-05,-0.0054095,0.93197
25555,11.994,4.0909,0.1,0.00028188,2816.8,0.00028209,2823,-9.1974e-05,12.494,-9.3638e-05,-0.0052708,0.94498
25556,11.902,4.1818,0.1,0.0002844,2842,0.00028461,2848.4,-9.2776e-05,12.849,-9.4487e-05,-0.0052111,0.9324
25557,11.994,3.9091,0.1,0.00028173,2815.3,0.00028196,2822.2,-9.1811e-05,13.863,-9.3657e-05,-0.0051216,0.94531
25558,11.902,4,0.1,0.00028423,2840.3,0.00028447,2847.5,-9.2591e-05,14.399,-9.4508e-05,-0.0050556,0.93277
25559,11.994,3.7273,0.1,0.0002816,2814.1,0.00028186,2821.6,-9.1675e-05,15.003,-9.3672e-05,-0.0050055,0.94558
25560,11.902,3.8182,0.1,0.00028409,2838.9,0.00028435,2846.7,-9.2435e-05,15.716,-9.4527e-05,-0.0049291,0.93307
25561,11.994,3.5455,0.1,0.00028151,2813.1,0.00028178,2821.1,-9.1568e-05,15.903,-9.3685e-05,-0.0049175,0.9458
25562,11.902,3.6364,0.1,0.00028397,2837.8,0.00028426,2846.1,-9.2307e-05,16.787,-9.4542e-05,-0.0048293,0.93332
25563,11.994,3.3636,0.1,0.00028144,2812.4,0.00028172,2820.7,-9.149e-05,16.552,-9.3694e-05,-0.004855,0.94595
25564,11.902,3.4545,0.1,0.00028389,2836.9,0.00028418,2845.7,-9.2211e-05,17.602,-9.4554e-05,-0.0047542,0.9335
25565,11.994,3.1818,0.1,0.0002814,2812,0.00028168,2820.5,-9.1443e-05,16.945,-9.3699e-05,-0.0048171,0.94604
25566,11.902,3.2727,0.1,0.00028383,2836.3,0.00028413,2845.4,-9.2146e-05,18.149,-9.4562e-05,-0.0047029,0.93362
25567,11.994,3,0.1,0.00028138,2811.9,0.00028167,2820.4,-9.1428e-05,17.076,-9.3701e-05,-0.0048045,0.94607
25568,11.902,3.0909,0.1,0.0002838,2836.1,0.00028411,2845.2,-9.2113e-05,18.425,-9.4566e-05,-0.004677,0.93368
25569,11.994,2.8182,0.1,0.0002814,2812,0.00028168,2820.5,-9.1443e-05,16.945,-9.3699e-05,-0.0048172,0.94604
25570,11.902,2.9091,0.1,0.0002838,2836.1,0.00028411,2845.2,-9.2113e-05,18.425,-9.4566e-05,-0.004677,0.93368
25571,11.994,2.6364,0.1,0.00028144,2812.4,0.00028172,2820.7,-9.149e-05,16.552,-9.3694e-05,-0.004855,0.94595
25572,11.902,2.7273,0.1,0.00028383,2836.3,0.00028413,2845.4,-9.2146e-05,18.149,-9.4562e-05,-0.0047031,0.93362
25573,11.994,2.4545,0.1,0.00028151,2813.1,0.00028178,2821.1,-9.1568e-05,15.903,-9.3685e-05,-0.0049174,0.9458
25574,11.902,2.5455,0.1,0.00028389,2836.9,0.00028418,2845.7,-9.2211e-05,17.602,-9.4554e-05,-0.0047545,0.9335
25575,11.994,2.2727,0.1,0.00028161,2814.1,0.00028186,2821.6,-9.1675e-05,15.003,-9.3672e-05,-0.0050054,0.94558
25576,11.902,2.3636,0.1,0.00028397,2837.8,0.00028426,2846.1,-9.2307e-05,16.787,-9.4542e-05,-0.0048289,0.93332
25577,11.994,2.0909,0.1,0.00028173,2815.3,0.00028196,2822.2,-9.1811e-05,13.863,-9.3657e-05,-0.0051219,0.94531
25578,11.902,2.1818,0.1,0.00028409,2838.9,0.00028435,2846.7,-9.2435e-05,15.716,-9.4527e-05,-0.0049296,0.93307
25579,11.994,1.9091,0.1,0.00028188,2816.8,0.00028209,2823,-9.1974e-05,12.494,-9.3638e-05,-0.0052711,0.94498
25580,11.902,2,0.1,0.00028423,2840.3,0.00028447,2847.5,-9.2591e-05,14.399,-9.4508e-05,-0.0050556,0.93277
25581,11.994,1.7273,0.1,0.00028205,2818.5,0.00028223,2824,-9.2164e-05,10.91,-9.3617e-05,-0.0054664,0.94459
25582,11.902,1.8182,0.1,0.0002844,2842,0.00028461,2848.4,-9.2776e-05,12.849,-9.4487e-05,-0.0052114,0.9324
25583,11.994,1.5455,0.1,0.00028225,2820.5,0.0002824,2825.1,-9.2378e-05,9.125,-9.3593e-05,-0.0057384,0.94413
25584,11.902,1.6364,0.1,0.00028459,2843.9,0.00028477,2849.4,-9.2986e-05,11.083,-9.4462e-05,-0.0054101,0.93197
25585,11.994,1.3636,0.1,0.00028246,2822.7,0.00028258,2826.2,-9.2614e-05,7.1564,-9.3568e-05,-0.0061595,0.94362
25586,11.902,1.4545,0.1,0.0002848,2846,0.00028495,2850.6,-9.3221e-05,9.1177,-9.4436e-05,-0.0056819,0.93149
25587,11.994,1.1818,0.1,0.0002827,2825.1,0.00028279,2827.6,-9.2871e-05,5.0211,-9.354e-05,-0.0069569,0.94304
25588,11.902,1.2727,0.1,0.00028503,2848.4,0.00028515,2851.9,-9.3478e-05,6.9703,-9.4407e-05,-0.006103,0.93094
25589,11.994,1,0.1,0.00028296,2827.6,0.000283,2829,-9.3147e-05,2.7372,-9.3512e-05,-0.0091334,0.9424
25590,11.902,1.0909,0.1,0.00028529,2850.9,0.00028537,2853.2,-9.3756e-05,4.6597,-9.4377e-05,-0.00695,0.93033
25591,11.994,0.81818,0.1,0.00028323,2830.4,0.00028324,2830.5,-9.3435e-05,0.35094,-9.3487e-05,-0.041749,0.9417
25592,11.902,0.90909,0.1,0.00028556,2853.7,0.0002856,2854.8,-9.4051e-05,2.2058,-9.4346e-05,-0.0096681,0.92965
25593,11.994,0.63636,0.1,0.00028352,2833.3,0.00028348,2832.2,-9.3452e-05,0.0019609,-9.3749e-05,-2.2291,0.94094
25594,11.902,0.72727,0.1,0.00028585,2856.6,0.00028585,2856.4,-9.4309e-05,0.02398,-9.4367e-05,-0.41183,0.92892
25595,11.994,0.45455,0.1,0.00028383,2836.4,0.00028375,2833.9,-9.3423e-05,-0.00266,-9.4075e-05,-4.9018,0.94012
25596,11.902,0.54545,0.1,0.00028616,2859.6,0.00028611,2858.1,-9.428e-05,-2.8742e-05,-9.469e-05,-3.0844,0.92812
25597,11.994,0.27273,0.1,0.00028426,2840.6,0.00028412,2836.4,-9.3393e-05,0.00027581,-9.45e-05,-8.3199,0.93924
25598,11.902,0.36364,0.1,0.00028649,2862.9,0.00028639,2860,-9.4248e-05,-0.0055304,-9.5039e-05,-5.9505,0.92726
25599,11.902,0.18182,0.1,0.00028703,2868.3,0.00028686,2863.2,-9.4215e-05,0.0065469,-9.5571e-05,-10.186,0.92634
25600,11.994,0.090909,0.1,0.00028402,2838.2,0.00028389,2834.6,-9.3366e-05,0.0011083,-9.433e-05,-7.2425,0.9383
25601,11.809,5.7273,0.1,0.00028925,2890.5,0.00028912,2886.7,-9.507e-05,9.0225e-05,-9.6098e-05,-7.7229,0.91443
25602,11.717,5.8182,0.1,0.00029204,2918.4,0.00029188,2913.6,-9.5894e-05,0.0075372,-9.7181e-05,-9.6691,0.90162
25603,11.809,5.9091,0.1,0.00028904,2888.4,0.00028892,2884.9,-9.5039e-05,0.0011479,-9.5962e-05,-6.9325,0.91347
25604,11.809,5.5455,0.1,0.00028881,2886.2,0.00028874,2884.1,-9.5106e-05,-0.0035548,-9.5652e-05,-4.1075,0.91532
25605,11.717,5.6364,0.1,0.00029149,2912.9,0.0002914,2910.3,-9.5933e-05,-0.0068538,-9.663e-05,-5.2442,0.90255
25606,11.809,5.3636,0.1,0.00028849,2882.9,0.00028847,2882.3,-9.514e-05,0.0038653,-9.5304e-05,-1.2274,0.91616
25607,11.717,5.4545,0.1,0.00029114,2909.4,0.00029111,2908.3,-9.597e-05,-0.00020785,-9.6257e-05,-2.1599,0.90343
25608,11.809,5.1818,0.1,0.00028818,2879.8,0.00028821,2880.6,-9.4971e-05,1.5312,-9.5177e-05,-0.011179,0.91693
25609,11.717,5.2727,0.1,0.00029082,2906.2,0.00029083,2906.6,-9.5905e-05,0.7695,-9.601e-05,-0.015675,0.90423
25610,11.809,5,0.1,0.00028789,2876.9,0.00028796,2879,-9.4657e-05,4.1483,-9.521e-05,-0.0069872,0.91764
25611,11.717,5.0909,0.1,0.00029051,2903.1,0.00029057,2904.9,-9.5571e-05,3.5587,-9.6046e-05,-0.0070453,0.90498
25612,11.809,4.8182,0.1,0.00028762,2874.2,0.00028773,2877.5,-9.436e-05,6.629,-9.5243e-05,-0.0060792,0.91829
25613,11.717,4.9091,0.1,0.00029022,2900.2,0.00029033,2903.3,-9.5253e-05,6.2224,-9.6082e-05,-0.006066,0.90566
25614,11.809,4.6364,0.1,0.00028737,2871.7,0.00028752,2876.2,-9.4083e-05,8.9513,-9.5275e-05,-0.0056427,0.91887
25615,11.717,4.7273,0.1,0.00028995,2897.5,0.0002901,2901.9,-9.4954e-05,8.7338,-9.6117e-05,-0.0056212,0.90628
25616,11.809,4.4545,0.1,0.00028714,2869.4,0.00028732,2874.9,-9.3827e-05,11.096,-9.5305e-05,-0.0053711,0.91939
25617,11.717,4.5455,0.1,0.0002897,2895,0.00028989,2900.6,-9.4676e-05,11.072,-9.6151e-05,-0.0053556,0.90684
25618,11.809,4.2727,0.1,0.00028693,2867.3,0.00028715,2873.8,-9.3596e-05,13.042,-9.5332e-05,-0.0051688,0.91986
25619,11.717,4.3636,0.1,0.00028948,2892.8,0.0002897,2899.4,-9.4422e-05,13.215,-9.6182e-05,-0.0051517,0.90734
25620,11.809,4.0909,0.1,0.00028675,2865.5,0.00028699,2872.8,-9.339e-05,14.773,-9.5357e-05,-0.005006,0.92025
25621,11.717,4.1818,0.1,0.00028927,2890.8,0.00028953,2898.3,-9.4194e-05,15.144,-9.621e-05,-0.0049825,0.90777
25622,11.809,3.9091,0.1,0.00028659,2863.9,0.00028686,2872,-9.3213e-05,16.27,-9.5379e-05,-0.00487,0.92059
25623,11.717,4,0.1,0.0002891,2889,0.00028938,2897.4,-9.3994e-05,16.838,-9.6235e-05,-0.0048366,0.90814
25624,11.809,3.7273,0.1,0.00028646,2862.6,0.00028675,2871.3,-9.3065e-05,17.519,-9.5397e-05,-0.0047574,0.92087
25625,11.717,3.8182,0.1,0.00028895,2887.5,0.00028925,2896.6,-9.3823e-05,18.281,-9.6257e-05,-0.0047095,0.90845
25626,11.809,3.5455,0.1,0.00028635,2861.5,0.00028666,2870.8,-9.2948e-05,18.504,-9.5412e-05,-0.0046687,0.92108
25627,11.717,3.6364,0.1,0.00028883,2886.3,0.00028915,2895.9,-9.3685e-05,19.455,-9.6275e-05,-0.0046044,0.9087
25628,11.809,3.3636,0.1,0.00028628,2860.8,0.0002866,2870.4,-9.2864e-05,19.217,-9.5422e-05,-0.0046036,0.92124
25629,11.717,3.4545,0.1,0.00028873,2885.3,0.00028907,2895.5,-9.358e-05,20.348,-9.6289e-05,-0.0045238,0.90889
25630,11.809,3.1818,0.1,0.00028623,2860.4,0.00028656,2870.1,-9.2813e-05,19.647,-9.5429e-05,-0.0045636,0.92133
25631,11.717,3.2727,0.1,0.00028867,2884.7,0.00028902,2895.1,-9.3509e-05,20.949,-9.6298e-05,-0.0044674,0.90901
25632,11.809,3,0.1,0.00028622,2860.2,0.00028655,2870,-9.2796e-05,19.792,-9.5431e-05,-0.0045501,0.92136
25633,11.717,3.0909,0.1,0.00028864,2884.4,0.000289,2895,-9.3473e-05,21.252,-9.6302e-05,-0.0044386,0.90907
25634,11.809,2.8182,0.1,0.00028623,2860.4,0.00028656,2870.1,-9.2813e-05,19.647,-9.5429e-05,-0.0045638,0.92133
25635,11.717,2.9091,0.1,0.00028864,2884.4,0.000289,2895,-9.3473e-05,21.252,-9.6302e-05,-0.0044386,0.90907
25636,11.809,2.6364,0.1,0.00028628,2860.8,0.0002866,2870.4,-9.2864e-05,19.217,-9.5422e-05,-0.0046041,0.92124
25637,11.717,2.7273,0.1,0.00028867,2884.7,0.00028902,2895.1,-9.3509e-05,20.949,-9.6298e-05,-0.0044678,0.90901
25638,11.809,2.4545,0.1,0.00028635,2861.5,0.00028666,2870.8,-9.2948e-05,18.505,-9.5412e-05,-0.0046687,0.92108
25639,11.717,2.5455,0.1,0.00028873,2885.3,0.00028907,2895.5,-9.358e-05,20.348,-9.6289e-05,-0.004524,0.90889
25640,11.809,2.2727,0.1,0.00028646,2862.6,0.00028675,2871.3,-9.3065e-05,17.519,-9.5397e-05,-0.0047576,0.92087
25641,11.717,2.3636,0.1,0.00028883,2886.3,0.00028915,2895.9,-9.3685e-05,19.455,-9.6275e-05,-0.004605,0.9087
25642,11.809,2.0909,0.1,0.00028659,2863.9,0.00028686,2872,-9.3213e-05,16.27,-9.5379e-05,-0.0048702,0.92059
25643,11.717,2.1818,0.1,0.00028895,2887.5,0.00028925,2896.6,-9.3823e-05,18.281,-9.6257e-05,-0.0047101,0.90845
25644,11.809,1.9091,0.1,0.00028675,2865.5,0.00028699,2872.8,-9.339e-05,14.773,-9.5357e-05,-0.005006,0.92025
25645,11.717,2,0.1,0.0002891,2889,0.00028938,2897.4,-9.3994e-05,16.838,-9.6235e-05,-0.0048364,0.90814
25646,11.809,1.7273,0.1,0.00028693,2867.3,0.00028715,2873.8,-9.3596e-05,13.042,-9.5332e-05,-0.0051692,0.91986
25647,11.717,1.8182,0.1,0.00028927,2890.8,0.00028953,2898.3,-9.4194e-05,15.144,-9.621e-05,-0.0049825,0.90777
25648,11.809,1.5455,0.1,0.00028714,2869.4,0.00028732,2874.9,-9.3827e-05,11.096,-9.5305e-05,-0.0053718,0.91939
25649,11.717,1.6364,0.1,0.00028948,2892.8,0.0002897,2899.4,-9.4422e-05,13.215,-9.6182e-05,-0.0051519,0.90734
25650,11.809,1.3636,0.1,0.00028737,2871.7,0.00028752,2876.2,-9.4083e-05,8.9514,-9.5275e-05,-0.0056436,0.91887
25651,11.717,1.4545,0.1,0.0002897,2895,0.00028989,2900.6,-9.4676e-05,11.072,-9.6151e-05,-0.0053564,0.90684
25652,11.809,1.1818,0.1,0.00028762,2874.2,0.00028773,2877.5,-9.436e-05,6.629,-9.5243e-05,-0.0060797,0.91829
25653,11.717,1.2727,0.1,0.00028995,2897.5,0.0002901,2901.9,-9.4954e-05,8.7339,-9.6117e-05,-0.005622,0.90628
25654,11.809,1,0.1,0.00028789,2876.9,0.00028796,2879,-9.4657e-05,4.1483,-9.521e-05,-0.0069881,0.91764
25655,11.717,1.0909,0.1,0.00029022,2900.2,0.00029033,2903.3,-9.5253e-05,6.2225,-9.6082e-05,-0.0060665,0.90566
25656,11.809,0.81818,0.1,0.00028818,2879.8,0.00028821,2880.6,-9.4971e-05,1.5313,-9.5177e-05,-0.011181,0.91693
25657,11.717,0.90909,0.1,0.00029051,2903.1,0.00029057,2904.9,-9.5571e-05,3.5587,-9.6046e-05,-0.0070468,0.90498
25658,11.809,0.63636,0.1,0.00028849,2882.9,0.00028847,2882.3,-9.514e-05,0.0038648,-9.5304e-05,-1.2273,0.91616
25659,11.717,0.72727,0.1,0.00029082,2906.2,0.00029083,2906.6,-9.5905e-05,0.76956,-9.601e-05,-0.015676,0.90423
25660,11.809,0.45455,0.1,0.00028881,2886.2,0.00028874,2884.1,-9.5106e-05,-0.0035556,-9.5652e-05,-4.1075,0.91532
25661,11.717,0.54545,0.1,0.00029114,2909.4,0.00029111,2908.3,-9.597e-05,-0.00020852,-9.6257e-05,-2.1599,0.90343
25662,11.809,0.27273,0.1,0.00028925,2890.5,0.00028912,2886.7,-9.507e-05,8.9753e-05,-9.6098e-05,-7.7228,0.91443
25663,11.717,0.36364,0.1,0.00029149,2912.9,0.0002914,2910.3,-9.5933e-05,-0.0068544,-9.663e-05,-5.2442,0.90255
25664,11.717,0.18182,0.1,0.00029204,2918.4,0.00029188,2913.6,-9.5894e-05,0.0075364,-9.7181e-05,-9.6691,0.90162
25665,11.809,0.090909,0.1,0.00028904,2888.4,0.00028892,2884.9,-9.5039e-05,0.0011475,-9.5962e-05,-6.9325,0.91347
25666,11.624,5.7273,0.1,0.00029427,2940.6,0.00029415,2937.1,-9.6756e-05,-3.4897e-05,-9.7701e-05,-7.0991,0.88981
25667,11.532,5.8182,0.1,0.00029707,2968.7,0.00029692,2964.1,-9.758e-05,0.0087235,-9.8797e-05,-9.133,0.87709
25668,11.624,5.9091,0.1,0.00029408,2938.8,0.00029397,2935.5,-9.672e-05,0.0012189,-9.76e-05,-6.6116,0.88884
25669,11.624,5.5455,0.1,0.00029381,2936.1,0.00029376,2934.5,-9.6797e-05,-0.0045617,-9.7232e-05,-3.2711,0.89072
25670,11.532,5.6364,0.1,0.00029651,2963.1,0.00029643,2960.8,-9.7626e-05,-0.008238,-9.8224e-05,-4.503,0.87804
25671,11.624,5.3636,0.1,0.00029347,2932.7,0.00029347,2932.6,-9.6833e-05,0.031237,-9.6863e-05,-0.19281,0.89157
25672,11.532,5.4545,0.1,0.00029614,2959.4,0.00029612,2958.8,-9.7669e-05,8.3693e-05,-9.7826e-05,-1.1846,0.87893
25673,11.624,5.1818,0.1,0.00029315,2929.5,0.0002932,2930.9,-9.6503e-05,2.8133,-9.6879e-05,-0.0073757,0.89235
25674,11.532,5.2727,0.1,0.0002958,2956,0.00029584,2957,-9.745e-05,1.9717,-9.7713e-05,-0.0078738,0.87975
25675,11.624,5,0.1,0.00029284,2926.4,0.00029294,2929.2,-9.6165e-05,5.6528,-9.6918e-05,-0.0060506,0.89307
25676,11.532,5.0909,0.1,0.00029548,2952.7,0.00029556,2955.2,-9.709e-05,4.9992,-9.7756e-05,-0.0060114,0.88051
25677,11.624,4.8182,0.1,0.00029255,2923.5,0.00029269,2927.7,-9.5845e-05,8.3469,-9.6956e-05,-0.0056265,0.89373
25678,11.532,4.9091,0.1,0.00029517,2949.7,0.00029531,2953.6,-9.6747e-05,7.8897,-9.7798e-05,-0.0056233,0.8812
25679,11.624,4.6364,0.1,0.00029229,2920.9,0.00029247,2926.3,-9.5545e-05,10.873,-9.6993e-05,-0.0053562,0.89432
25680,11.532,4.7273,0.1,0.00029489,2946.8,0.00029507,2952.1,-9.6424e-05,10.62,-9.7839e-05,-0.0053543,0.88183
25681,11.624,4.4545,0.1,0.00029204,2918.4,0.00029226,2925,-9.5269e-05,13.21,-9.7028e-05,-0.0051537,0.89485
25682,11.532,4.5455,0.1,0.00029462,2944.2,0.00029484,2950.7,-9.6124e-05,13.166,-9.7877e-05,-0.005157,0.8824
25683,11.624,4.2727,0.1,0.00029182,2916.2,0.00029208,2923.8,-9.5018e-05,15.335,-9.706e-05,-0.0049783,0.89532
25684,11.532,4.3636,0.1,0.00029438,2941.8,0.00029464,2949.5,-9.5849e-05,15.505,-9.7913e-05,-0.0049757,0.8829
25685,11.624,4.0909,0.1,0.00029162,2914.2,0.00029191,2922.8,-9.4795e-05,17.227,-9.7088e-05,-0.0048223,0.89573
25686,11.532,4.1818,0.1,0.00029416,2939.6,0.00029446,2948.4,-9.5601e-05,17.613,-9.7946e-05,-0.0048083,0.88334
25687,11.624,3.9091,0.1,0.00029146,2912.5,0.00029177,2921.9,-9.4602e-05,18.866,-9.7114e-05,-0.0046824,0.89607
25688,11.532,4,0.1,0.00029397,2937.7,0.0002943,2947.4,-9.5383e-05,19.468,-9.7975e-05,-0.0046537,0.88372
25689,11.624,3.7273,0.1,0.00029131,2911.1,0.00029165,2921.2,-9.4441e-05,20.235,-9.7135e-05,-0.0045606,0.89635
25690,11.532,3.8182,0.1,0.00029381,2936.1,0.00029417,2946.6,-9.5198e-05,21.049,-9.8e-05,-0.0045135,0.88403
25691,11.624,3.5455,0.1,0.0002912,2910,0.00029156,2920.6,-9.4314e-05,21.316,-9.7152e-05,-0.004462,0.89657
25692,11.532,3.6364,0.1,0.00029368,2934.8,0.00029406,2945.9,-9.5047e-05,22.338,-9.8021e-05,-0.0043937,0.88428
25693,11.624,3.3636,0.1,0.00029112,2909.2,0.00029149,2920.2,-9.4222e-05,22.098,-9.7164e-05,-0.004389,0.89672
25694,11.532,3.4545,0.1,0.00029359,2933.8,0.00029398,2945.4,-9.4932e-05,23.319,-9.8036e-05,-0.0042999,0.88447
25695,11.624,3.1818,0.1,0.00029108,2908.8,0.00029145,2920,-9.4167e-05,22.571,-9.7171e-05,-0.0043432,0.89682
25696,11.532,3.2727,0.1,0.00029352,2933.2,0.00029392,2945.1,-9.4855e-05,23.98,-9.8047e-05,-0.0042345,0.88459
25697,11.624,3,0.1,0.00029106,2908.6,0.00029144,2919.9,-9.4148e-05,22.729,-9.7174e-05,-0.0043276,0.89685
25698,11.532,3.0909,0.1,0.00029349,2932.8,0.00029389,2944.9,-9.4816e-05,24.312,-9.8052e-05,-0.0042002,0.88466
25699,11.624,2.8182,0.1,0.00029108,2908.8,0.00029145,2920,-9.4167e-05,22.571,-9.7171e-05,-0.0043434,0.89682
25700,11.532,2.9091,0.1,0.00029349,2932.8,0.00029389,2944.9,-9.4816e-05,24.312,-9.8052e-05,-0.0042006,0.88466
25701,11.624,2.6364,0.1,0.00029112,2909.2,0.00029149,2920.2,-9.4222e-05,22.098,-9.7164e-05,-0.0043892,0.89672
25702,11.532,2.7273,0.1,0.00029352,2933.2,0.00029392,2945.1,-9.4855e-05,23.98,-9.8047e-05,-0.0042345,0.88459
25703,11.624,2.4545,0.1,0.0002912,2910,0.00029156,2920.6,-9.4314e-05,21.316,-9.7152e-05,-0.0044628,0.89657
25704,11.532,2.5455,0.1,0.00029359,2933.8,0.00029398,2945.4,-9.4932e-05,23.319,-9.8036e-05,-0.0043003,0.88447
25705,11.624,2.2727,0.1,0.00029131,2911.1,0.00029165,2921.2,-9.4441e-05,20.235,-9.7135e-05,-0.0045616,0.89635
25706,11.532,2.3636,0.1,0.00029368,2934.8,0.00029406,2945.9,-9.5047e-05,22.338,-9.8021e-05,-0.004394,0.88428
25707,11.624,2.0909,0.1,0.00029146,2912.5,0.00029177,2921.9,-9.4602e-05,18.867,-9.7114e-05,-0.0046825,0.89607
25708,11.532,2.1818,0.1,0.00029381,2936.1,0.00029417,2946.6,-9.5198e-05,21.049,-9.8e-05,-0.004514,0.88403
25709,11.624,1.9091,0.1,0.00029162,2914.2,0.00029191,2922.8,-9.4795e-05,17.227,-9.7088e-05,-0.0048221,0.89573
25710,11.532,2,0.1,0.00029397,2937.7,0.0002943,2947.4,-9.5383e-05,19.468,-9.7975e-05,-0.0046534,0.88372
25711,11.624,1.7273,0.1,0.00029182,2916.2,0.00029208,2923.8,-9.5018e-05,15.335,-9.706e-05,-0.0049781,0.89532
25712,11.532,1.8182,0.1,0.00029416,2939.6,0.00029446,2948.4,-9.5601e-05,17.613,-9.7946e-05,-0.004809,0.88334
25713,11.624,1.5455,0.1,0.00029204,2918.4,0.00029226,2925,-9.5269e-05,13.21,-9.7028e-05,-0.0051539,0.89485
25714,11.532,1.6364,0.1,0.00029438,2941.8,0.00029464,2949.5,-9.5849e-05,15.505,-9.7913e-05,-0.0049758,0.8829
25715,11.624,1.3636,0.1,0.00029229,2920.9,0.00029247,2926.3,-9.5545e-05,10.873,-9.6993e-05,-0.0053568,0.89432
25716,11.532,1.4545,0.1,0.00029462,2944.2,0.00029484,2950.7,-9.6124e-05,13.167,-9.7877e-05,-0.0051578,0.8824
25717,11.624,1.1818,0.1,0.00029255,2923.5,0.0002927,2927.7,-9.5845e-05,8.3469,-9.6956e-05,-0.0056273,0.89373
25718,11.532,1.2727,0.1,0.00029489,2946.8,0.00029507,2952.1,-9.6424e-05,10.62,-9.7839e-05,-0.0053547,0.88183
25719,11.624,1,0.1,0.00029284,2926.4,0.00029294,2929.2,-9.6165e-05,5.6529,-9.6918e-05,-0.0060517,0.89307
25720,11.532,1.0909,0.1,0.00029517,2949.7,0.00029531,2953.6,-9.6747e-05,7.8898,-9.7798e-05,-0.0056245,0.8812
25721,11.624,0.81818,0.1,0.00029315,2929.5,0.0002932,2930.9,-9.6503e-05,2.8134,-9.6879e-05,-0.0073768,0.89235
25722,11.532,0.90909,0.1,0.00029548,2952.7,0.00029556,2955.2,-9.709e-05,4.9992,-9.7756e-05,-0.0060128,0.88051
25723,11.624,0.63636,0.1,0.00029347,2932.7,0.00029347,2932.6,-9.6833e-05,0.031244,-9.6863e-05,-0.19277,0.89157
25724,11.532,0.72727,0.1,0.0002958,2956,0.00029584,2957,-9.745e-05,1.9718,-9.7713e-05,-0.0078748,0.87975
25725,11.624,0.45455,0.1,0.00029381,2936.1,0.00029376,2934.5,-9.6797e-05,-0.0045623,-9.7232e-05,-3.271,0.89072
25726,11.532,0.54545,0.1,0.00029614,2959.4,0.00029612,2958.8,-9.7669e-05,8.4171e-05,-9.7826e-05,-1.1846,0.87893
25727,11.624,0.27273,0.1,0.00029427,2940.6,0.00029415,2937.1,-9.6756e-05,-3.588e-05,-9.7701e-05,-7.0991,0.88981
25728,11.532,0.36364,0.1,0.00029651,2963.1,0.00029643,2960.8,-9.7626e-05,-0.0082388,-9.8224e-05,-4.503,0.87804
25729,11.532,0.18182,0.1,0.00029707,2968.7,0.00029692,2964.1,-9.758e-05,0.0087221,-9.8797e-05,-9.133,0.87709
25730,11.624,0.090909,0.1,0.00029408,2938.8,0.00029397,2935.5,-9.672e-05,0.0012178,-9.76e-05,-6.6116,0.88884
25731,11.44,5.7273,0.1,0.0002993,2991,0.00029919,2987.7,-9.845e-05,2.2801e-05,-9.9308e-05,-6.4476,0.86539
25732,11.347,5.8182,0.1,0.00030212,3019.2,0.00030198,3014.9,-9.9275e-05,0.010193,-0.00010042,-8.5767,0.85277
25733,11.44,5.9091,0.1,0.00029915,2989.4,0.00029904,2986.3,-9.8408e-05,0.0014057,-9.9244e-05,-6.2792,0.8644
25734,11.44,5.5455,0.1,0.00029883,2986.3,0.00029879,2985.1,-9.8497e-05,-0.0056228,-9.8815e-05,-2.3905,0.86632
25735,11.347,5.6364,0.1,0.00030155,3013.4,0.00030148,3011.5,-9.9327e-05,-0.0096214,-9.9822e-05,-3.7258,0.85373
25736,11.44,5.3636,0.1,0.00029847,2982.7,0.00029849,2983.1,-9.8414e-05,0.97038,-9.8545e-05,-0.0087692,0.86718
25737,11.347,5.4545,0.1,0.00030116,3009.6,0.00030116,3009.5,-9.9375e-05,0.010871,-9.9398e-05,-0.16665,0.85463
25738,11.44,5.1818,0.1,0.00029813,2979.3,0.0002982,2981.3,-9.8034e-05,4.1773,-9.8591e-05,-0.0061538,0.86797
25739,11.347,5.2727,0.1,0.0003008,3006,0.00030086,3007.6,-9.8993e-05,3.2515,-9.9427e-05,-0.0063016,0.85547
25740,11.44,5,0.1,0.00029781,2976,0.00029793,2979.6,-9.767e-05,7.2557,-9.8636e-05,-0.0056015,0.8687
25741,11.347,5.0909,0.1,0.00030046,3002.5,0.00030057,3005.8,-9.8606e-05,6.5307,-9.9476e-05,-0.0055731,0.85623
25742,11.44,4.8182,0.1,0.0002975,2973,0.00029767,2978,-9.7324e-05,10.182,-9.868e-05,-0.0053784,0.86937
25743,11.347,4.9091,0.1,0.00030014,2999.3,0.0003003,3004.1,-9.8237e-05,9.6676,-9.9524e-05,-0.0054114,0.85694
25744,11.44,4.6364,0.1,0.00029722,2970.1,0.00029744,2976.6,-9.7001e-05,12.932,-9.8722e-05,-0.0051766,0.86997
25745,11.347,4.7273,0.1,0.00029983,2996.3,0.00030005,3002.6,-9.7888e-05,12.637,-9.9571e-05,-0.0052077,0.85758
25746,11.44,4.4545,0.1,0.00029696,2967.5,0.00029722,2975.2,-9.6701e-05,15.48,-9.8762e-05,-0.0049947,0.87051
25747,11.347,4.5455,0.1,0.00029955,2993.4,0.00029981,3001.1,-9.7563e-05,15.412,-9.9615e-05,-0.0050272,0.85815
25748,11.44,4.2727,0.1,0.00029672,2965.2,0.00029702,2974,-9.6429e-05,17.801,-9.8799e-05,-0.004817,0.87099
25749,11.347,4.3636,0.1,0.00029929,2990.9,0.0002996,2999.8,-9.7264e-05,17.966,-9.9656e-05,-0.0048383,0.85866
25750,11.44,4.0909,0.1,0.00029651,2963.1,0.00029685,2973,-9.6187e-05,19.872,-9.8832e-05,-0.0046477,0.8714
25751,11.347,4.1818,0.1,0.00029906,2988.6,0.0002994,2998.7,-9.6995e-05,20.273,-9.9694e-05,-0.0046528,0.85911
25752,11.44,3.9091,0.1,0.00029633,2961.3,0.00029669,2972,-9.5977e-05,21.668,-9.8861e-05,-0.0044902,0.87174
25753,11.347,4,0.1,0.00029886,2986.5,0.00029923,2997.6,-9.6758e-05,22.305,-9.9727e-05,-0.0044742,0.85949
25754,11.44,3.7273,0.1,0.00029618,2959.8,0.00029657,2971.3,-9.5801e-05,23.17,-9.8886e-05,-0.00435,0.87203
25755,11.347,3.8182,0.1,0.00029869,2984.8,0.00029909,2996.8,-9.6556e-05,24.04,-9.9756e-05,-0.0043091,0.85981
25756,11.44,3.5455,0.1,0.00029606,2958.6,0.00029647,2970.7,-9.5663e-05,24.357,-9.8905e-05,-0.0042336,0.87225
25757,11.347,3.6364,0.1,0.00029855,2983.4,0.00029897,2996.1,-9.6391e-05,25.456,-9.978e-05,-0.0041663,0.86006
25758,11.44,3.3636,0.1,0.00029598,2957.7,0.0002964,2970.3,-9.5563e-05,25.217,-9.8919e-05,-0.0041464,0.87241
25759,11.347,3.4545,0.1,0.00029844,2982.4,0.00029889,2995.6,-9.6266e-05,26.535,-9.9798e-05,-0.004053,0.86025
25760,11.44,3.1818,0.1,0.00029593,2957.2,0.00029636,2970,-9.5502e-05,25.737,-9.8928e-05,-0.004092,0.8725
25761,11.347,3.2727,0.1,0.00029837,2981.7,0.00029883,2995.2,-9.6182e-05,27.262,-9.981e-05,-0.0039736,0.86038
25762,11.44,3,0.1,0.00029591,2957,0.00029634,2969.9,-9.5482e-05,25.911,-9.8931e-05,-0.0040735,0.87253
25763,11.347,3.0909,0.1,0.00029834,2981.3,0.0002988,2995,-9.6139e-05,27.629,-9.9817e-05,-0.0039325,0.86044
25764,11.44,2.8182,0.1,0.00029593,2957.2,0.00029636,2970,-9.5502e-05,25.737,-9.8928e-05,-0.0040921,0.8725
25765,11.347,2.9091,0.1,0.00029834,2981.3,0.0002988,2995,-9.6139e-05,27.629,-9.9817e-05,-0.0039327,0.86044
25766,11.44,2.6364,0.1,0.00029598,2957.7,0.0002964,2970.3,-9.5563e-05,25.217,-9.8919e-05,-0.0041466,0.87241
25767,11.347,2.7273,0.1,0.00029837,2981.7,0.00029883,2995.2,-9.6182e-05,27.262,-9.981e-05,-0.0039739,0.86038
25768,11.44,2.4545,0.1,0.00029606,2958.6,0.00029647,2970.7,-9.5663e-05,24.357,-9.8905e-05,-0.0042335,0.87225
25769,11.347,2.5455,0.1,0.00029844,2982.4,0.00029889,2995.6,-9.6266e-05,26.535,-9.9798e-05,-0.0040532,0.86025
25770,11.44,2.2727,0.1,0.00029618,2959.8,0.00029657,2971.3,-9.5801e-05,23.17,-9.8886e-05,-0.0043498,0.87203
25771,11.347,2.3636,0.1,0.00029855,2983.4,0.00029897,2996.1,-9.6391e-05,25.456,-9.978e-05,-0.0041662,0.86006
25772,11.44,2.0909,0.1,0.00029633,2961.3,0.00029669,2972,-9.5977e-05,21.668,-9.8861e-05,-0.0044902,0.87174
25773,11.347,2.1818,0.1,0.00029869,2984.8,0.00029909,2996.8,-9.6556e-05,24.04,-9.9756e-05,-0.0043093,0.85981
25774,11.44,1.9091,0.1,0.00029651,2963.1,0.00029685,2973,-9.6187e-05,19.872,-9.8832e-05,-0.0046482,0.8714
25775,11.347,2,0.1,0.00029886,2986.5,0.00029923,2997.6,-9.6758e-05,22.305,-9.9727e-05,-0.0044744,0.85949
25776,11.44,1.7273,0.1,0.00029672,2965.2,0.00029702,2974,-9.6429e-05,17.802,-9.8799e-05,-0.004818,0.87099
25777,11.347,1.8182,0.1,0.00029906,2988.6,0.0002994,2998.7,-9.6995e-05,20.273,-9.9694e-05,-0.0046535,0.85911
25778,11.44,1.5455,0.1,0.00029696,2967.5,0.00029722,2975.2,-9.6701e-05,15.48,-9.8762e-05,-0.0049954,0.87051
25779,11.347,1.6364,0.1,0.00029929,2990.9,0.0002996,2999.8,-9.7264e-05,17.966,-9.9656e-05,-0.0048391,0.85866
25780,11.44,1.3636,0.1,0.00029722,2970.1,0.00029744,2976.6,-9.7001e-05,12.932,-9.8722e-05,-0.0051772,0.86997
25781,11.347,1.4545,0.1,0.00029955,2993.4,0.00029981,3001.1,-9.7563e-05,15.412,-9.9615e-05,-0.0050278,0.85815
25782,11.44,1.1818,0.1,0.0002975,2973,0.00029767,2978,-9.7324e-05,10.182,-9.868e-05,-0.0053792,0.86937
25783,11.347,1.2727,0.1,0.00029983,2996.3,0.00030005,3002.6,-9.7888e-05,12.637,-9.9571e-05,-0.0052083,0.85758
25784,11.44,1,0.1,0.00029781,2976,0.00029793,2979.6,-9.767e-05,7.2557,-9.8636e-05,-0.005603,0.8687
25785,11.347,1.0909,0.1,0.00030014,2999.3,0.0003003,3004.1,-9.8237e-05,9.6676,-9.9524e-05,-0.0054126,0.85694
25786,11.44,0.81818,0.1,0.00029813,2979.3,0.0002982,2981.3,-9.8034e-05,4.1773,-9.8591e-05,-0.0061551,0.86797
25787,11.347,0.90909,0.1,0.00030046,3002.5,0.00030057,3005.8,-9.8606e-05,6.5308,-9.9476e-05,-0.0055748,0.85623
25788,11.44,0.63636,0.1,0.00029847,2982.7,0.00029849,2983.1,-9.8414e-05,0.97043,-9.8545e-05,-0.0087693,0.86718
25789,11.347,0.72727,0.1,0.0003008,3006,0.00030086,3007.6,-9.8993e-05,3.2516,-9.9427e-05,-0.0063028,0.85547
25790,11.44,0.45455,0.1,0.00029883,2986.3,0.00029879,2985.1,-9.8497e-05,-0.0056228,-9.8815e-05,-2.3905,0.86632
25791,11.347,0.54545,0.1,0.00030116,3009.6,0.00030116,3009.5,-9.9375e-05,0.010875,-9.9398e-05,-0.16661,0.85463
25792,11.44,0.27273,0.1,0.0002993,2991,0.00029919,2987.7,-9.845e-05,2.1561e-05,-9.9308e-05,-6.4475,0.86539
25793,11.347,0.36364,0.1,0.00030155,3013.4,0.00030148,3011.5,-9.9327e-05,-0.0096218,-9.9822e-05,-3.7258,0.85373
25794,11.347,0.18182,0.1,0.00030212,3019.2,0.00030198,3014.9,-9.9275e-05,0.010192,-0.00010042,-8.5767,0.85277
25795,11.44,0.090909,0.1,0.00029915,2989.4,0.00029904,2986.3,-9.8408e-05,0.0014048,-9.9244e-05,-6.2792,0.8644
25796,11.255,5.7273,0.1,0.00030436,3041.5,0.00030426,3038.6,-0.00010015,0.00035608,-0.00010092,-5.7678,0.84118
25797,11.163,5.8182,0.1,0.0003072,3069.9,0.00030706,3065.9,-0.00010098,0.012027,-0.00010204,-7.9999,0.82865
25798,11.255,5.9091,0.1,0.00030424,3040.3,0.00030414,3037.3,-0.0001001,0.0017322,-0.00010089,-5.9352,0.84018
25799,11.255,5.5455,0.1,0.00030387,3036.6,0.00030385,3035.9,-0.00010021,-0.0067451,-0.0001004,-1.4648,0.84212
25800,11.163,5.6364,0.1,0.00030661,3064,0.00030656,3062.5,-0.00010104,-0.010923,-0.00010142,-2.912,0.82963
25801,11.255,5.3636,0.1,0.00030349,3032.8,0.00030353,3033.9,-9.9972e-05,2.1539,-0.00010026,-0.005761,0.84299
25802,11.163,5.4545,0.1,0.0003062,3059.9,0.00030622,3060.4,-0.00010097,0.93282,-0.00010109,-0.0052381,0.83054
25803,11.255,5.1818,0.1,0.00030313,3029.2,0.00030323,3032,-9.9563e-05,5.6245,-0.00010031,-0.0057303,0.8438
25804,11.163,5.2727,0.1,0.00030582,3056.1,0.0003059,3058.4,-0.00010054,4.6063,-0.00010115,-0.0059093,0.83139
25805,11.255,5,0.1,0.00030279,3025.8,0.00030294,3030.3,-9.9171e-05,8.9617,-0.00010036,-0.0054191,0.84454
25806,11.163,5.0909,0.1,0.00030546,3052.5,0.0003056,3056.6,-0.00010012,8.157,-0.00010121,-0.0054393,0.83217
25807,11.255,4.8182,0.1,0.00030246,3022.6,0.00030267,3028.6,-9.8798e-05,12.141,-0.00010041,-0.0052674,0.84521
25808,11.163,4.9091,0.1,0.00030512,3049.1,0.00030531,3054.8,-9.9721e-05,11.562,-0.00010126,-0.0053495,0.83288
25809,11.255,4.6364,0.1,0.00030216,3019.5,0.00030242,3027.1,-9.8448e-05,15.135,-0.00010046,-0.0050773,0.84582
25810,11.163,4.7273,0.1,0.00030479,3045.8,0.00030504,3053.2,-9.9344e-05,14.792,-0.00010131,-0.0051499,0.83353
25811,11.255,4.4545,0.1,0.00030189,3016.8,0.00030219,3025.7,-9.8123e-05,17.916,-0.00010051,-0.0048842,0.84637
25812,11.163,4.5455,0.1,0.00030449,3042.8,0.00030479,3051.7,-9.8992e-05,17.819,-0.00010136,-0.0049517,0.83411
25813,11.255,4.2727,0.1,0.00030163,3014.2,0.00030198,3024.4,-9.7828e-05,20.455,-0.00010055,-0.0046835,0.84685
25814,11.163,4.3636,0.1,0.00030422,3040.1,0.00030456,3050.3,-9.8668e-05,20.61,-0.00010141,-0.0047335,0.83463
25815,11.255,4.0909,0.1,0.00030141,3012,0.00030179,3023.3,-9.7564e-05,22.723,-0.00010059,-0.0044857,0.84727
25816,11.163,4.1818,0.1,0.00030397,3037.6,0.00030436,3049.1,-9.8375e-05,23.136,-0.00010145,-0.0045127,0.83508
25817,11.255,3.9091,0.1,0.00030122,3010.1,0.00030163,3022.3,-9.7335e-05,24.694,-0.00010062,-0.0042971,0.84762
25818,11.163,4,0.1,0.00030375,3035.5,0.00030418,3048.1,-9.8117e-05,25.367,-0.00010149,-0.0042968,0.83547
25819,11.255,3.7273,0.1,0.00030105,3008.5,0.00030149,3021.6,-9.7144e-05,26.343,-0.00010065,-0.0041277,0.84791
25820,11.163,3.8182,0.1,0.00030357,3033.6,0.00030403,3047.2,-9.7896e-05,27.274,-0.00010153,-0.0040957,0.83579
25821,11.255,3.5455,0.1,0.00030093,3007.2,0.00030139,3020.9,-9.6992e-05,27.65,-0.00010067,-0.0039868,0.84813
25822,11.163,3.6364,0.1,0.00030342,3032.1,0.0003039,3046.4,-9.7716e-05,28.832,-0.00010155,-0.0039208,0.83605
25823,11.255,3.3636,0.1,0.00030084,3006.3,0.00030131,3020.5,-9.6883e-05,28.596,-0.00010069,-0.0038804,0.84829
25824,11.163,3.4545,0.1,0.00030331,3031,0.00030381,3045.9,-9.7579e-05,30.02,-0.00010157,-0.0037822,0.83624
25825,11.255,3.1818,0.1,0.00030078,3005.7,0.00030127,3020.2,-9.6816e-05,29.17,-0.0001007,-0.0038138,0.84839
25826,11.163,3.2727,0.1,0.00030323,3030.2,0.00030374,3045.5,-9.7486e-05,30.822,-0.00010159,-0.0036845,0.83637
25827,11.255,3,0.1,0.00030076,3005.5,0.00030125,3020.1,-9.6794e-05,29.362,-0.0001007,-0.0037913,0.84842
25828,11.163,3.0909,0.1,0.00030319,3029.8,0.00030371,3045.3,-9.744e-05,31.226,-0.0001016,-0.0036344,0.83644
25829,11.255,2.8182,0.1,0.00030078,3005.7,0.00030127,3020.2,-9.6816e-05,29.17,-0.0001007,-0.0038142,0.84839
25830,11.163,2.9091,0.1,0.00030319,3029.8,0.00030371,3045.3,-9.744e-05,31.226,-0.0001016,-0.0036341,0.83644
25831,11.255,2.6364,0.1,0.00030084,3006.3,0.00030131,3020.5,-9.6883e-05,28.596,-0.00010069,-0.0038807,0.84829
25832,11.163,2.7273,0.1,0.00030323,3030.2,0.00030374,3045.5,-9.7486e-05,30.822,-0.00010159,-0.0036846,0.83637
25833,11.255,2.4545,0.1,0.00030093,3007.2,0.00030139,3020.9,-9.6992e-05,27.65,-0.00010067,-0.0039871,0.84813
25834,11.163,2.5455,0.1,0.00030331,3031,0.00030381,3045.9,-9.7579e-05,30.02,-0.00010157,-0.0037823,0.83624
25835,11.255,2.2727,0.1,0.00030105,3008.5,0.00030149,3021.6,-9.7144e-05,26.343,-0.00010065,-0.004128,0.84791
25836,11.163,2.3636,0.1,0.00030342,3032.1,0.0003039,3046.4,-9.7716e-05,28.832,-0.00010155,-0.0039213,0.83605
25837,11.255,2.0909,0.1,0.00030122,3010.1,0.00030163,3022.4,-9.7335e-05,24.694,-0.00010062,-0.0042976,0.84762
25838,11.163,2.1818,0.1,0.00030357,3033.6,0.00030403,3047.2,-9.7896e-05,27.274,-0.00010153,-0.0040957,0.83579
25839,11.255,1.9091,0.1,0.00030141,3012,0.00030179,3023.3,-9.7564e-05,22.723,-0.00010059,-0.004486,0.84727
25840,11.163,2,0.1,0.00030375,3035.5,0.00030418,3048.1,-9.8117e-05,25.367,-0.00010149,-0.0042972,0.83547
25841,11.255,1.7273,0.1,0.00030163,3014.2,0.00030198,3024.4,-9.7828e-05,20.455,-0.00010055,-0.004684,0.84685
25842,11.163,1.8182,0.1,0.00030397,3037.6,0.00030436,3049.1,-9.8375e-05,23.136,-0.00010145,-0.0045128,0.83508
25843,11.255,1.5455,0.1,0.00030189,3016.8,0.00030219,3025.7,-9.8123e-05,17.916,-0.00010051,-0.0048849,0.84637
25844,11.163,1.6364,0.1,0.00030422,3040.1,0.00030456,3050.3,-9.8668e-05,20.61,-0.00010141,-0.0047341,0.83463
25845,11.255,1.3636,0.1,0.00030216,3019.5,0.00030242,3027.1,-9.8448e-05,15.135,-0.00010046,-0.0050778,0.84582
25846,11.163,1.4545,0.1,0.00030449,3042.8,0.00030479,3051.7,-9.8992e-05,17.819,-0.00010136,-0.0049525,0.83411
25847,11.255,1.1818,0.1,0.00030246,3022.6,0.00030267,3028.6,-9.8798e-05,12.141,-0.00010041,-0.0052684,0.84521
25848,11.163,1.2727,0.1,0.00030479,3045.8,0.00030504,3053.2,-9.9344e-05,14.792,-0.00010131,-0.0051503,0.83353
25849,11.255,1,0.1,0.00030279,3025.8,0.00030294,3030.3,-9.9171e-05,8.9617,-0.00010036,-0.0054204,0.84454
25850,11.163,1.0909,0.1,0.00030512,3049.1,0.00030531,3054.8,-9.9721e-05,11.562,-0.00010126,-0.0053506,0.83288
25851,11.255,0.81818,0.1,0.00030313,3029.2,0.00030323,3032,-9.9563e-05,5.6246,-0.00010031,-0.0057319,0.8438
25852,11.163,0.90909,0.1,0.00030546,3052.5,0.0003056,3056.6,-0.00010012,8.157,-0.00010121,-0.0054411,0.83217
25853,11.255,0.63636,0.1,0.00030349,3032.8,0.00030353,3033.9,-9.9972e-05,2.1539,-0.00010026,-0.0057624,0.84299
25854,11.163,0.72727,0.1,0.00030582,3056.1,0.0003059,3058.4,-0.00010054,4.6064,-0.00010115,-0.0059107,0.83139
25855,11.255,0.45455,0.1,0.00030387,3036.6,0.00030385,3035.9,-0.00010021,-0.0067457,-0.0001004,-1.4647,0.84212
25856,11.163,0.54545,0.1,0.0003062,3059.9,0.00030622,3060.4,-0.00010097,0.93286,-0.00010109,-0.0052389,0.83054
25857,11.255,0.27273,0.1,0.00030436,3041.5,0.00030426,3038.6,-0.00010015,0.00035553,-0.00010092,-5.7677,0.84118
25858,11.163,0.36364,0.1,0.00030661,3064,0.00030656,3062.5,-0.00010104,-0.010923,-0.00010142,-2.912,0.82963
25859,11.163,0.18182,0.1,0.0003072,3069.9,0.00030706,3065.9,-0.00010098,0.012026,-0.00010204,-7.9998,0.82865
25860,11.255,0.090909,0.1,0.00030424,3040.3,0.00030414,3037.3,-0.0001001,0.0017307,-0.00010089,-5.9351,0.84018
25861,11.07,5.7273,0.1,0.00030943,3092.2,0.00030935,3089.7,-0.00010186,0.0011319,-0.00010254,-5.0594,0.81717
25862,10.978,5.8182,0.1,0.00031229,3120.8,0.00031217,3117.1,-0.00010269,0.014311,-0.00010368,-7.4027,0.80474
25863,11.07,5.9091,0.1,0.00030935,3091.3,0.00030925,3088.6,-0.00010181,0.0022446,-0.00010255,-5.5793,0.81615
25864,11.07,5.5455,0.1,0.00030893,3087.2,0.00030892,3086.9,-0.00010192,-0.0078987,-0.00010199,-0.49287,0.81812
25865,10.978,5.6364,0.1,0.00031168,3114.7,0.00031165,3113.7,-0.00010275,-0.011929,-0.00010303,-2.0618,0.80573
25866,11.07,5.3636,0.1,0.00030853,3083.2,0.00030859,3084.9,-0.00010153,3.405,-0.00010198,-0.005276,0.81901
25867,10.978,5.4545,0.1,0.00031126,3110.4,0.00031129,3111.5,-0.00010254,2.0708,-0.00010282,-0.0046419,0.80666
25868,11.07,5.1818,0.1,0.00030815,3079.3,0.00030827,3082.9,-0.00010109,7.1579,-0.00010204,-0.0056723,0.81983
25869,10.978,5.2727,0.1,0.00031086,3106.4,0.00031096,3109.4,-0.00010208,6.0372,-0.00010288,-0.005994,0.80752
25870,11.07,5,0.1,0.00030778,3075.7,0.00030797,3081.1,-0.00010067,10.775,-0.0001021,-0.0054034,0.82058
25871,10.978,5.0909,0.1,0.00031047,3102.6,0.00031064,3107.5,-0.00010163,9.8812,-0.00010295,-0.0055189,0.80831
25872,11.07,4.8182,0.1,0.00030744,3072.3,0.00030768,3079.4,-0.00010027,14.231,-0.00010216,-0.0052543,0.82126
25873,10.978,4.9091,0.1,0.00031011,3098.9,0.00031034,3105.7,-0.0001012,13.577,-0.00010301,-0.0054236,0.80903
25874,11.07,4.6364,0.1,0.00030712,3069.1,0.00030741,3077.8,-9.9886e-05,17.493,-0.00010222,-0.0050396,0.82188
25875,10.978,4.7273,0.1,0.00030977,3095.5,0.00031005,3104,-0.00010079,17.094,-0.00010307,-0.0051894,0.80969
25876,11.07,4.4545,0.1,0.00030682,3066.1,0.00030717,3076.3,-9.9534e-05,20.53,-0.00010227,-0.0048115,0.82244
25877,10.978,4.5455,0.1,0.00030945,3092.3,0.00030979,3102.5,-0.00010041,20.397,-0.00010313,-0.0049491,0.81028
25878,11.07,4.2727,0.1,0.00030655,3063.4,0.00030694,3075,-9.9213e-05,23.309,-0.00010232,-0.0045698,0.82293
25879,10.978,4.3636,0.1,0.00030915,3089.4,0.00030954,3101,-0.00010006,23.451,-0.00010318,-0.0046827,0.8108
25880,11.07,4.0909,0.1,0.00030631,3061,0.00030675,3073.8,-9.8925e-05,25.797,-0.00010236,-0.0043283,0.82335
25881,10.978,4.1818,0.1,0.00030889,3086.7,0.00030933,3099.8,-9.9739e-05,26.221,-0.00010323,-0.0044112,0.81126
25882,11.07,3.9091,0.1,0.00030611,3059,0.00030657,3072.8,-9.8675e-05,27.963,-0.0001024,-0.0040979,0.82371
25883,10.978,4,0.1,0.00030866,3084.4,0.00030913,3098.7,-9.9457e-05,28.672,-0.00010327,-0.0041453,0.81165
25884,11.07,3.7273,0.1,0.00030593,3057.2,0.00030643,3072,-9.8466e-05,29.778,-0.00010243,-0.0038897,0.824
25885,10.978,3.8182,0.1,0.00030846,3082.4,0.00030897,3097.7,-9.9216e-05,30.771,-0.00010331,-0.0038978,0.81198
25886,11.07,3.5455,0.1,0.0003058,3055.9,0.00030632,3071.3,-9.83e-05,31.218,-0.00010246,-0.003716,0.82422
25887,10.978,3.6364,0.1,0.0003083,3080.8,0.00030884,3097,-9.9019e-05,32.489,-0.00010334,-0.0036818,0.81224
25888,11.07,3.3636,0.1,0.0003057,3054.9,0.00030623,3070.9,-9.818e-05,32.261,-0.00010247,-0.0035853,0.82439
25889,10.978,3.4545,0.1,0.00030817,3079.6,0.00030873,3096.4,-9.8868e-05,33.8,-0.00010337,-0.0035103,0.81244
25890,11.07,3.1818,0.1,0.00030564,3054.3,0.00030618,3070.6,-9.8108e-05,32.894,-0.00010249,-0.0035036,0.82448
25891,10.978,3.2727,0.1,0.00030809,3078.8,0.00030867,3096,-9.8767e-05,34.686,-0.00010338,-0.0033903,0.81257
25892,11.07,3,0.1,0.00030562,3054.1,0.00030617,3070.5,-9.8083e-05,33.106,-0.00010249,-0.0034756,0.82452
25893,10.978,3.0909,0.1,0.00030805,3078.4,0.00030863,3095.8,-9.8716e-05,35.132,-0.00010339,-0.0033282,0.81263
25894,11.07,2.8182,0.1,0.00030564,3054.3,0.00030618,3070.6,-9.8108e-05,32.894,-0.00010249,-0.0035031,0.82448
25895,10.978,2.9091,0.1,0.00030805,3078.4,0.00030863,3095.8,-9.8716e-05,35.132,-0.00010339,-0.003328,0.81263
25896,11.07,2.6364,0.1,0.0003057,3054.9,0.00030623,3070.9,-9.818e-05,32.261,-0.00010247,-0.0035852,0.82439
25897,10.978,2.7273,0.1,0.00030809,3078.8,0.00030867,3096,-9.8767e-05,34.686,-0.00010338,-0.0033901,0.81257
25898,11.07,2.4545,0.1,0.0003058,3055.9,0.00030632,3071.3,-9.83e-05,31.218,-0.00010246,-0.0037163,0.82422
25899,10.978,2.5455,0.1,0.00030817,3079.6,0.00030873,3096.4,-9.8868e-05,33.8,-0.00010337,-0.0035107,0.81244
25900,11.07,2.2727,0.1,0.00030593,3057.2,0.00030643,3072,-9.8466e-05,29.778,-0.00010243,-0.00389,0.824
25901,10.978,2.3636,0.1,0.0003083,3080.8,0.00030884,3097,-9.9019e-05,32.489,-0.00010334,-0.0036821,0.81224
25902,11.07,2.0909,0.1,0.00030611,3059,0.00030657,3072.8,-9.8675e-05,27.963,-0.0001024,-0.0040978,0.82371
25903,10.978,2.1818,0.1,0.00030846,3082.5,0.00030897,3097.7,-9.9216e-05,30.771,-0.00010331,-0.0038978,0.81198
25904,11.07,1.9091,0.1,0.00030631,3061,0.00030675,3073.8,-9.8925e-05,25.797,-0.00010236,-0.0043284,0.82335
25905,10.978,2,0.1,0.00030866,3084.4,0.00030913,3098.7,-9.9457e-05,28.672,-0.00010327,-0.0041452,0.81165
25906,11.07,1.7273,0.1,0.00030655,3063.4,0.00030694,3075,-9.9213e-05,23.309,-0.00010232,-0.00457,0.82293
25907,10.978,1.8182,0.1,0.00030889,3086.7,0.00030933,3099.8,-9.9739e-05,26.221,-0.00010323,-0.0044114,0.81126
25908,11.07,1.5455,0.1,0.00030682,3066.1,0.00030717,3076.3,-9.9534e-05,20.53,-0.00010227,-0.0048123,0.82244
25909,10.978,1.6364,0.1,0.00030915,3089.4,0.00030954,3101,-0.00010006,23.451,-0.00010318,-0.0046831,0.8108
25910,11.07,1.3636,0.1,0.00030712,3069.1,0.00030741,3077.8,-9.9886e-05,17.493,-0.00010222,-0.0050402,0.82188
25911,10.978,1.4545,0.1,0.00030945,3092.3,0.00030979,3102.5,-0.00010041,20.397,-0.00010313,-0.0049499,0.81028
25912,11.07,1.1818,0.1,0.00030744,3072.3,0.00030768,3079.4,-0.00010027,14.231,-0.00010216,-0.0052547,0.82126
25913,10.978,1.2727,0.1,0.00030977,3095.5,0.00031005,3104,-0.00010079,17.094,-0.00010307,-0.0051898,0.80969
25914,11.07,1,0.1,0.00030778,3075.7,0.00030797,3081.1,-0.00010067,10.776,-0.0001021,-0.005405,0.82058
25915,10.978,1.0909,0.1,0.00031011,3098.9,0.00031034,3105.7,-0.0001012,13.577,-0.00010301,-0.0054243,0.80903
25916,11.07,0.81818,0.1,0.00030815,3079.4,0.00030827,3082.9,-0.00010109,7.1579,-0.00010204,-0.005674,0.81983
25917,10.978,0.90909,0.1,0.00031047,3102.6,0.00031064,3107.5,-0.00010163,9.8812,-0.00010295,-0.0055211,0.80831
25918,11.07,0.63636,0.1,0.00030853,3083.2,0.00030859,3084.9,-0.00010153,3.405,-0.00010198,-0.0052769,0.81901
25919,10.978,0.72727,0.1,0.00031086,3106.4,0.00031096,3109.4,-0.00010208,6.0373,-0.00010288,-0.0059949,0.80752
25920,11.07,0.45455,0.1,0.00030893,3087.2,0.00030892,3086.9,-0.00010192,-0.0078987,-0.00010199,-0.49284,0.81812
25921,10.978,0.54545,0.1,0.00031126,3110.4,0.00031129,3111.5,-0.00010254,2.0709,-0.00010282,-0.0046425,0.80666
25922,11.07,0.27273,0.1,0.00030943,3092.2,0.00030935,3089.7,-0.00010186,0.0011307,-0.00010254,-5.0594,0.81717
25923,10.978,0.36364,0.1,0.00031168,3114.7,0.00031165,3113.7,-0.00010275,-0.01193,-0.00010303,-2.0618,0.80573
25924,10.978,0.18182,0.1,0.00031229,3120.8,0.00031217,3117.1,-0.00010269,0.014311,-0.00010368,-7.4027,0.80474
25925,11.07,0.090909,0.1,0.00030935,3091.4,0.00030925,3088.6,-0.00010181,0.0022434,-0.00010255,-5.5792,0.81615
25926,10.886,5.7273,0.1,0.00031453,3143.1,0.00031446,3141,-0.00010358,0.0025872,-0.00010416,-4.3233,0.79337
25927,10.793,5.8182,0.1,0.00031741,3171.9,0.00031729,3168.5,-0.00010441,0.017198,-0.00010531,-6.786,0.78104
25928,10.886,5.9091,0.1,0.00031448,3142.6,0.00031439,3140,-0.00010352,0.0029434,-0.00010421,-5.2118,0.79234
25929,10.886,5.5455,0.1,0.00031401,3137.9,0.00031402,3138.2,-0.00010358,0.52517,-0.00010365,-0.0093452,0.79434
25930,10.793,5.6364,0.1,0.00031678,3165.6,0.00031676,3165,-0.00010448,-0.011639,-0.00010464,-1.1768,0.78205
25931,10.886,5.3636,0.1,0.00031358,3133.7,0.00031366,3136,-0.00010309,4.7225,-0.00010372,-0.0054467,0.79524
25932,10.793,5.4545,0.1,0.00031633,3161.1,0.00031639,3162.8,-0.00010412,3.2648,-0.00010455,-0.0050193,0.78299
25933,10.886,5.1818,0.1,0.00031318,3129.6,0.00031333,3134,-0.00010262,8.7791,-0.00010378,-0.0058807,0.79607
25934,10.793,5.2727,0.1,0.00031591,3156.9,0.00031604,3160.7,-0.00010362,7.5447,-0.00010462,-0.0063532,0.78386
25935,10.886,5,0.1,0.0003128,3125.8,0.00031301,3132.1,-0.00010216,12.701,-0.00010385,-0.0055632,0.79683
25936,10.793,5.0909,0.1,0.0003155,3152.8,0.0003157,3158.7,-0.00010314,11.706,-0.0001047,-0.0057679,0.78466
25937,10.886,4.8182,0.1,0.00031243,3122.1,0.00031271,3130.3,-0.00010173,16.458,-0.00010392,-0.0053747,0.79752
25938,10.793,4.9091,0.1,0.00031512,3149,0.00031538,3156.8,-0.00010267,15.719,-0.00010477,-0.0056228,0.78539
25939,10.886,4.6364,0.1,0.00031209,3118.7,0.00031242,3128.7,-0.00010131,20.014,-0.00010398,-0.0051097,0.79815
25940,10.793,4.7273,0.1,0.00031475,3145.3,0.00031508,3155.1,-0.00010223,19.549,-0.00010483,-0.0053263,0.78606
25941,10.886,4.4545,0.1,0.00031177,3115.6,0.00031216,3127.2,-0.00010093,23.334,-0.00010404,-0.0048274,0.79871
25942,10.793,4.5455,0.1,0.00031441,3141.9,0.0003148,3153.4,-0.00010182,23.157,-0.0001049,-0.0050249,0.78666
25943,10.886,4.2727,0.1,0.00031148,3112.7,0.00031192,3125.8,-0.00010058,26.38,-0.00010409,-0.0045286,0.79921
25944,10.793,4.3636,0.1,0.0003141,3138.8,0.00031454,3152,-0.00010143,26.503,-0.00010496,-0.0046932,0.78719
25945,10.886,4.0909,0.1,0.00031123,3110.1,0.00031171,3124.6,-0.00010027,29.112,-0.00010414,-0.0042305,0.79964
25946,10.793,4.1818,0.1,0.00031381,3136,0.0003143,3150.6,-0.00010109,29.544,-0.00010502,-0.0043569,0.78765
25947,10.886,3.9091,0.1,0.000311,3107.9,0.00031153,3123.5,-9.9996e-05,31.495,-0.00010419,-0.0039458,0.8
25948,10.793,4,0.1,0.00031356,3133.5,0.0003141,3149.5,-0.00010078,32.241,-0.00010507,-0.0040278,0.78805
25949,10.886,3.7273,0.1,0.00031082,3106,0.00031137,3122.6,-9.9766e-05,33.496,-0.00010423,-0.0036891,0.80029
25950,10.793,3.8182,0.1,0.00031335,3131.3,0.00031392,3148.5,-0.00010051,34.555,-0.00010511,-0.0037221,0.78838
25951,10.886,3.5455,0.1,0.00031067,3104.6,0.00031125,3122,-9.9585e-05,35.086,-0.00010425,-0.0034743,0.80052
25952,10.793,3.6364,0.1,0.00031318,3129.6,0.00031378,3147.7,-0.0001003,36.452,-0.00010515,-0.0034562,0.78865
25953,10.886,3.3636,0.1,0.00031056,3103.5,0.00031116,3121.5,-9.9453e-05,36.239,-0.00010428,-0.0033128,0.80069
25954,10.793,3.4545,0.1,0.00031304,3128.3,0.00031367,3147.1,-0.00010013,37.902,-0.00010518,-0.0032443,0.78884
25955,10.886,3.1818,0.1,0.0003105,3102.9,0.00031111,3121.2,-9.9373e-05,36.938,-0.00010429,-0.0032119,0.80079
25956,10.793,3.2727,0.1,0.00031295,3127.4,0.0003136,3146.6,-0.00010002,38.882,-0.0001052,-0.003096,0.78898
25957,10.886,3,0.1,0.00031048,3102.6,0.00031109,3121.1,-9.9346e-05,37.172,-0.00010429,-0.0031774,0.80082
25958,10.793,3.0909,0.1,0.00031291,3126.9,0.00031356,3146.4,-9.9964e-05,39.376,-0.0001052,-0.0030194,0.78904
25959,10.886,2.8182,0.1,0.0003105,3102.9,0.00031111,3121.2,-9.9373e-05,36.938,-0.00010429,-0.003212,0.80079
25960,10.793,2.9091,0.1,0.00031291,3126.9,0.00031356,3146.4,-9.9964e-05,39.376,-0.0001052,-0.0030194,0.78904
25961,10.886,2.6364,0.1,0.00031056,3103.5,0.00031116,3121.5,-9.9453e-05,36.239,-0.00010428,-0.0033131,0.80069
25962,10.793,2.7273,0.1,0.00031295,3127.4,0.0003136,3146.6,-0.00010002,38.882,-0.0001052,-0.0030962,0.78898
25963,10.886,2.4545,0.1,0.00031067,3104.6,0.00031125,3122,-9.9585e-05,35.086,-0.00010425,-0.0034746,0.80052
25964,10.793,2.5455,0.1,0.00031304,3128.3,0.00031367,3147.1,-0.00010013,37.902,-0.00010518,-0.0032446,0.78884
25965,10.886,2.2727,0.1,0.00031082,3106,0.00031137,3122.6,-9.9766e-05,33.496,-0.00010423,-0.0036891,0.80029
25966,10.793,2.3636,0.1,0.00031318,3129.6,0.00031378,3147.7,-0.0001003,36.452,-0.00010515,-0.0034565,0.78865
25967,10.886,2.0909,0.1,0.000311,3107.9,0.00031153,3123.5,-9.9996e-05,31.495,-0.00010419,-0.0039458,0.8
25968,10.793,2.1818,0.1,0.00031335,3131.3,0.00031392,3148.5,-0.00010051,34.555,-0.00010511,-0.0037223,0.78838
25969,10.886,1.9091,0.1,0.00031123,3110.1,0.00031171,3124.6,-0.00010027,29.112,-0.00010414,-0.0042305,0.79964
25970,10.793,2,0.1,0.00031356,3133.5,0.0003141,3149.5,-0.00010078,32.241,-0.00010507,-0.0040279,0.78805
25971,10.886,1.7273,0.1,0.00031148,3112.7,0.00031192,3125.8,-0.00010058,26.38,-0.00010409,-0.0045289,0.79921
25972,10.793,1.8182,0.1,0.00031381,3136,0.0003143,3150.6,-0.00010109,29.544,-0.00010502,-0.004357,0.78765
25973,10.886,1.5455,0.1,0.00031177,3115.6,0.00031216,3127.2,-0.00010093,23.334,-0.00010404,-0.0048279,0.79871
25974,10.793,1.6364,0.1,0.0003141,3138.8,0.00031454,3152,-0.00010143,26.503,-0.00010496,-0.0046937,0.78719
25975,10.886,1.3636,0.1,0.00031209,3118.7,0.00031242,3128.7,-0.00010131,20.014,-0.00010398,-0.0051102,0.79815
25976,10.793,1.4545,0.1,0.00031441,3141.9,0.0003148,3153.4,-0.00010182,23.157,-0.0001049,-0.0050254,0.78666
25977,10.886,1.1818,0.1,0.00031243,3122.1,0.00031271,3130.3,-0.00010173,16.458,-0.00010392,-0.0053753,0.79752
25978,10.793,1.2727,0.1,0.00031475,3145.3,0.00031508,3155.1,-0.00010223,19.549,-0.00010483,-0.0053273,0.78606
25979,10.886,1,0.1,0.0003128,3125.8,0.00031301,3132.1,-0.00010216,12.701,-0.00010385,-0.0055646,0.79683
25980,10.793,1.0909,0.1,0.00031512,3149,0.00031538,3156.8,-0.00010267,15.719,-0.00010477,-0.0056233,0.78539
25981,10.886,0.81818,0.1,0.00031318,3129.6,0.00031333,3134,-0.00010262,8.7792,-0.00010378,-0.0058822,0.79607
25982,10.793,0.90909,0.1,0.0003155,3152.8,0.0003157,3158.7,-0.00010314,11.706,-0.0001047,-0.0057696,0.78466
25983,10.886,0.63636,0.1,0.00031358,3133.7,0.00031366,3136,-0.00010309,4.7225,-0.00010372,-0.0054473,0.79524
25984,10.793,0.72727,0.1,0.00031591,3156.9,0.00031604,3160.7,-0.00010362,7.5448,-0.00010462,-0.0063543,0.78386
25985,10.886,0.45455,0.1,0.00031401,3137.9,0.00031402,3138.2,-0.00010358,0.5252,-0.00010365,-0.0093462,0.79434
25986,10.793,0.54545,0.1,0.00031633,3161.1,0.00031639,3162.8,-0.00010412,3.2648,-0.00010455,-0.0050198,0.78299
25987,10.886,0.27273,0.1,0.00031453,3143.1,0.00031446,3141,-0.00010358,0.0025866,-0.00010416,-4.3233,0.79337
25988,10.793,0.36364,0.1,0.00031678,3165.6,0.00031676,3165,-0.00010448,-0.01164,-0.00010464,-1.1768,0.78205
25989,10.793,0.18182,0.1,0.00031741,3171.9,0.00031729,3168.5,-0.00010441,0.017198,-0.00010531,-6.7859,0.78104
25990,10.886,0.090909,0.1,0.00031448,3142.6,0.00031439,3140,-0.00010352,0.0029428,-0.00010421,-5.2118,0.79234
25991,10.701,5.7273,0.1,0.00031964,3194.2,0.00031958,3192.5,-0.00010531,0.005327,-0.00010578,-3.5607,0.76979
25992,10.609,5.8182,0.1,0.00032254,3223.2,0.00032243,3220.1,-0.00010613,0.020936,-0.00010695,-6.1508,0.75756
25993,10.701,5.9091,0.1,0.00031963,3194.1,0.00031955,3191.7,-0.00010524,0.0039391,-0.00010588,-4.8333,0.76874
25994,10.701,5.5455,0.1,0.0003191,3188.8,0.00031913,3189.6,-0.00010517,1.5883,-0.00010538,-0.010729,0.77077
25995,10.609,5.6364,0.1,0.0003219,3216.7,0.00032189,3216.6,-0.00010621,0.0053513,-0.00010625,-0.27398,0.75858
25996,10.701,5.3636,0.1,0.00031866,3184.4,0.00031876,3187.4,-0.00010465,6.1059,-0.00010546,-0.0058974,0.77168
25997,10.609,5.4545,0.1,0.00032142,3212,0.0003215,3214.3,-0.00010569,4.5127,-0.00010629,-0.0056677,0.75953
25998,10.701,5.1818,0.1,0.00031823,3180.1,0.00031841,3185.3,-0.00010414,10.489,-0.00010554,-0.0062539,0.77252
25999,10.609,5.2727,0.1,0.00032098,3207.6,0.00032113,3212.1,-0.00010516,9.1285,-0.00010637,-0.0068896,0.76041
26000,10.701,5,0.1,0.00031782,3176,0.00031807,3183.4,-0.00010365,14.741,-0.00010561,-0.0058394,0.77329
26001,10.609,5.0909,0.1,0.00032055,3203.3,0.00032078,3210,-0.00010464,13.632,-0.00010646,-0.0061435,0.76123
26002,10.701,4.8182,0.1,0.00031743,3172.1,0.00031775,3181.5,-0.00010318,18.827,-0.00010568,-0.0055832,0.774
26003,10.609,4.9091,0.1,0.00032014,3199.1,0.00032044,3208.1,-0.00010414,17.99,-0.00010654,-0.0059209,0.76197
26004,10.701,4.6364,0.1,0.00031707,3168.5,0.00031745,3179.8,-0.00010273,22.708,-0.00010576,-0.0052473,0.77463
26005,10.609,4.7273,0.1,0.00031975,3195.3,0.00032012,3206.3,-0.00010366,22.164,-0.00010661,-0.0055419,0.76264
26006,10.701,4.4545,0.1,0.00031673,3165.1,0.00031717,3178.2,-0.00010232,26.341,-0.00010582,-0.0048941,0.7752
26007,10.609,4.5455,0.1,0.00031938,3191.6,0.00031982,3204.6,-0.00010321,26.109,-0.00010669,-0.0051614,0.76325
26008,10.701,4.2727,0.1,0.00031642,3162,0.00031692,3176.8,-0.00010194,29.682,-0.00010589,-0.004523,0.7757
26009,10.609,4.3636,0.1,0.00031905,3188.3,0.00031954,3203.1,-0.00010279,29.778,-0.00010676,-0.0047492,0.76379
26010,10.701,4.0909,0.1,0.00031615,3159.3,0.00031669,3175.5,-0.00010159,32.688,-0.00010594,-0.004154,0.77614
26011,10.609,4.1818,0.1,0.00031874,3185.2,0.00031929,3201.7,-0.00010241,33.123,-0.00010682,-0.0043327,0.76426
26012,10.701,3.9091,0.1,0.00031591,3156.9,0.00031649,3174.4,-0.00010129,35.315,-0.00010599,-0.0038025,0.7765
26013,10.609,4,0.1,0.00031848,3182.6,0.00031907,3200.5,-0.00010208,36.096,-0.00010688,-0.0039269,0.76466
26014,10.701,3.7273,0.1,0.00031571,3154.9,0.00031633,3173.5,-0.00010104,37.525,-0.00010604,-0.0034863,0.7768
26015,10.609,3.8182,0.1,0.00031825,3180.3,0.00031889,3199.4,-0.00010179,38.652,-0.00010693,-0.0035503,0.765
26016,10.701,3.5455,0.1,0.00031555,3153.3,0.0003162,3172.8,-0.00010084,39.282,-0.00010607,-0.0032223,0.77704
26017,10.609,3.6364,0.1,0.00031806,3178.4,0.00031873,3198.6,-0.00010155,40.751,-0.00010697,-0.0032236,0.76526
26018,10.701,3.3636,0.1,0.00031543,3152.1,0.0003161,3172.2,-0.0001007,40.559,-0.0001061,-0.0030229,0.7772
26019,10.609,3.4545,0.1,0.00031792,3177,0.00031862,3197.9,-0.00010137,42.358,-0.000107,-0.0029632,0.76546
26020,10.701,3.1818,0.1,0.00031536,3151.5,0.00031605,3171.9,-0.00010061,41.334,-0.00010611,-0.0028985,0.7773
26021,10.609,3.2727,0.1,0.00031782,3176,0.00031854,3197.5,-0.00010124,43.445,-0.00010703,-0.0027804,0.7656
26022,10.701,3,0.1,0.00031534,3151.2,0.00031603,3171.8,-0.00010058,41.594,-0.00010612,-0.0028562,0.77733
26023,10.609,3.0909,0.1,0.00031777,3175.5,0.0003185,3197.3,-0.00010118,43.993,-0.00010704,-0.0026864,0.76566
26024,10.701,2.8182,0.1,0.00031536,3151.5,0.00031605,3171.9,-0.00010061,41.334,-0.00010611,-0.0028985,0.7773
26025,10.609,2.9091,0.1,0.00031777,3175.5,0.0003185,3197.3,-0.00010118,43.993,-0.00010704,-0.0026868,0.76566
26026,10.701,2.6364,0.1,0.00031543,3152.1,0.0003161,3172.2,-0.0001007,40.559,-0.0001061,-0.0030231,0.7772
26027,10.609,2.7273,0.1,0.00031782,3176,0.00031854,3197.5,-0.00010124,43.445,-0.00010703,-0.0027806,0.7656
26028,10.701,2.4545,0.1,0.00031555,3153.3,0.0003162,3172.8,-0.00010084,39.282,-0.00010607,-0.0032225,0.77704
26029,10.609,2.5455,0.1,0.00031792,3177,0.00031862,3197.9,-0.00010137,42.358,-0.000107,-0.0029632,0.76546
26030,10.701,2.2727,0.1,0.00031571,3154.9,0.00031633,3173.5,-0.00010104,37.525,-0.00010604,-0.0034867,0.7768
26031,10.609,2.3636,0.1,0.00031806,3178.4,0.00031873,3198.6,-0.00010155,40.751,-0.00010697,-0.0032238,0.76526
26032,10.701,2.0909,0.1,0.00031591,3156.9,0.00031649,3174.4,-0.00010129,35.315,-0.00010599,-0.0038027,0.7765
26033,10.609,2.1818,0.1,0.00031825,3180.3,0.00031889,3199.4,-0.00010179,38.652,-0.00010693,-0.0035507,0.765
26034,10.701,1.9091,0.1,0.00031615,3159.3,0.00031669,3175.5,-0.00010159,32.688,-0.00010594,-0.0041541,0.77614
26035,10.609,2,0.1,0.00031848,3182.6,0.00031907,3200.5,-0.00010208,36.096,-0.00010688,-0.0039271,0.76466
26036,10.701,1.7273,0.1,0.00031642,3162,0.00031692,3176.8,-0.00010194,29.682,-0.00010589,-0.0045233,0.7757
26037,10.609,1.8182,0.1,0.00031874,3185.2,0.00031929,3201.7,-0.00010241,33.123,-0.00010682,-0.0043329,0.76426
26038,10.701,1.5455,0.1,0.00031673,3165.1,0.00031717,3178.2,-0.00010232,26.341,-0.00010582,-0.0048947,0.7752
26039,10.609,1.6364,0.1,0.00031905,3188.3,0.00031954,3203.1,-0.00010279,29.778,-0.00010676,-0.0047498,0.76379
26040,10.701,1.3636,0.1,0.00031707,3168.5,0.00031745,3179.8,-0.00010273,22.708,-0.00010576,-0.0052483,0.77463
26041,10.609,1.4545,0.1,0.00031938,3191.6,0.00031982,3204.6,-0.00010321,26.109,-0.00010669,-0.0051619,0.76325
26042,10.701,1.1818,0.1,0.00031743,3172.1,0.00031775,3181.5,-0.00010318,18.827,-0.00010568,-0.005584,0.774
26043,10.609,1.2727,0.1,0.00031975,3195.3,0.00032012,3206.3,-0.00010366,22.164,-0.00010661,-0.0055428,0.76264
26044,10.701,1,0.1,0.00031782,3176,0.00031807,3183.4,-0.00010365,14.741,-0.00010561,-0.0058403,0.77329
26045,10.609,1.0909,0.1,0.00032014,3199.1,0.00032044,3208.1,-0.00010414,17.991,-0.00010654,-0.0059213,0.76197
26046,10.701,0.81818,0.1,0.00031823,3180.1,0.00031841,3185.3,-0.00010414,10.489,-0.00010554,-0.0062552,0.77252
26047,10.609,0.90909,0.1,0.00032055,3203.3,0.00032078,3210,-0.00010464,13.632,-0.00010646,-0.0061451,0.76123
26048,10.701,0.63636,0.1,0.00031866,3184.4,0.00031876,3187.4,-0.00010465,6.106,-0.00010546,-0.0058984,0.77168
26049,10.609,0.72727,0.1,0.00032098,3207.6,0.00032113,3212.1,-0.00010516,9.1285,-0.00010637,-0.0068911,0.76041
26050,10.701,0.45455,0.1,0.0003191,3188.8,0.00031913,3189.6,-0.00010517,1.5884,-0.00010538,-0.010729,0.77077
26051,10.609,0.54545,0.1,0.00032142,3212,0.0003215,3214.3,-0.00010569,4.5128,-0.00010629,-0.0056681,0.75953
26052,10.701,0.27273,0.1,0.00031964,3194.2,0.00031958,3192.5,-0.00010531,0.0053263,-0.00010578,-3.5607,0.76979
26053,10.609,0.36364,0.1,0.0003219,3216.7,0.00032189,3216.6,-0.00010621,0.0053505,-0.00010625,-0.27396,0.75858
26054,10.609,0.18182,0.1,0.00032254,3223.2,0.00032243,3220.1,-0.00010613,0.020936,-0.00010695,-6.1508,0.75756
26055,10.701,0.090909,0.1,0.00031963,3194.1,0.00031955,3191.7,-0.00010524,0.0039382,-0.00010588,-4.8333,0.76874
26056,10.516,5.7273,0.1,0.00032478,3245.5,0.00032473,3244.1,-0.00010704,0.010594,-0.00010741,-2.7747,0.74643
26057,10.424,5.8182,0.1,0.00032769,3274.6,0.0003276,3271.9,-0.00010786,0.025841,-0.0001086,-5.4996,0.7343
26058,10.516,5.9091,0.1,0.0003248,3245.8,0.00032473,3243.6,-0.00010696,0.0053274,-0.00010756,-4.4444,0.74536
26059,10.516,5.5455,0.1,0.00032421,3239.9,0.00032426,3241.2,-0.00010676,2.6947,-0.00010713,-0.012239,0.74742
26060,10.424,5.6364,0.1,0.00032703,3268,0.00032704,3268.4,-0.00010786,0.71291,-0.00010796,-0.030049,0.73533
26061,10.516,5.3636,0.1,0.00032374,3235.2,0.00032387,3239,-0.0001062,7.5536,-0.00010721,-0.0065279,0.74834
26062,10.424,5.4545,0.1,0.00032653,3263.1,0.00032663,3266,-0.00010727,5.8115,-0.00010804,-0.0065023,0.7363
26063,10.516,5.1818,0.1,0.00032329,3230.7,0.0003235,3236.8,-0.00010566,12.288,-0.0001073,-0.0067639,0.74919
26064,10.424,5.2727,0.1,0.00032606,3258.4,0.00032624,3263.7,-0.0001067,10.786,-0.00010813,-0.0076008,0.73719
26065,10.516,5,0.1,0.00032286,3226.4,0.00032314,3234.8,-0.00010513,16.898,-0.00010738,-0.0062235,0.74997
26066,10.424,5.0909,0.1,0.00032561,3253.8,0.00032587,3261.6,-0.00010614,15.659,-0.00010823,-0.0066662,0.73801
26067,10.516,4.8182,0.1,0.00032245,3222.2,0.00032281,3232.9,-0.00010462,21.344,-0.00010746,-0.0058804,0.75069
26068,10.424,4.9091,0.1,0.00032517,3249.4,0.00032551,3259.6,-0.0001056,20.394,-0.00010831,-0.0063475,0.73876
26069,10.516,4.6364,0.1,0.00032206,3218.4,0.00032249,3231.1,-0.00010414,25.581,-0.00010754,-0.0054564,0.75133
26070,10.424,4.7273,0.1,0.00032476,3245.3,0.00032517,3257.7,-0.00010508,24.946,-0.0001084,-0.005869,0.73945
26071,10.516,4.4545,0.1,0.0003217,3214.8,0.00032219,3229.4,-0.00010369,29.561,-0.00010762,-0.0050158,0.75191
26072,10.424,4.5455,0.1,0.00032437,3241.4,0.00032485,3256,-0.00010459,29.263,-0.00010849,-0.0053933,0.74006
26073,10.516,4.2727,0.1,0.00032137,3211.5,0.00032192,3227.9,-0.00010327,33.233,-0.00010769,-0.0045569,0.75241
26074,10.424,4.3636,0.1,0.00032401,3237.8,0.00032456,3254.4,-0.00010414,33.292,-0.00010857,-0.0048841,0.7406
26075,10.516,4.0909,0.1,0.00032107,3208.5,0.00032168,3226.6,-0.00010289,36.544,-0.00010776,-0.0041023,0.75285
26076,10.424,4.1818,0.1,0.00032368,3234.6,0.0003243,3252.9,-0.00010372,36.976,-0.00010864,-0.004372,0.74108
26077,10.516,3.9091,0.1,0.00032081,3205.9,0.00032147,3225.5,-0.00010257,39.446,-0.00010782,-0.0036703,0.75322
26078,10.424,4,0.1,0.00032339,3231.7,0.00032406,3251.6,-0.00010335,40.259,-0.00010871,-0.003874,0.74149
26079,10.516,3.7273,0.1,0.0003206,3203.8,0.00032129,3224.5,-0.00010229,41.891,-0.00010787,-0.0032821,0.75353
26080,10.424,3.8182,0.1,0.00032315,3229.2,0.00032386,3250.6,-0.00010303,43.088,-0.00010877,-0.003413,0.74183
26081,10.516,3.5455,0.1,0.00032043,3202.1,0.00032115,3223.7,-0.00010207,43.839,-0.00010791,-0.0029581,0.75376
26082,10.424,3.6364,0.1,0.00032295,3227.2,0.00032369,3249.7,-0.00010277,45.416,-0.00010881,-0.0030121,0.7421
26083,10.516,3.3636,0.1,0.0003203,3200.8,0.00032105,3223.2,-0.00010191,45.256,-0.00010793,-0.0027136,0.75393
26084,10.424,3.4545,0.1,0.00032279,3225.7,0.00032357,3249,-0.00010257,47.2,-0.00010885,-0.0026936,0.7423
26085,10.516,3.1818,0.1,0.00032023,3200.1,0.00032099,3222.9,-0.00010181,46.116,-0.00010795,-0.0025608,0.75403
26086,10.424,3.2727,0.1,0.00032269,3224.6,0.00032348,3248.6,-0.00010243,48.408,-0.00010888,-0.0024698,0.74244
26087,10.516,3,0.1,0.0003202,3199.8,0.00032097,3222.8,-0.00010178,46.405,-0.00010796,-0.0025094,0.75407
26088,10.424,3.0909,0.1,0.00032263,3224.1,0.00032344,3248.3,-0.00010236,49.018,-0.00010889,-0.0023548,0.7425
26089,10.516,2.8182,0.1,0.00032023,3200.1,0.00032099,3222.9,-0.00010181,46.116,-0.00010795,-0.0025614,0.75403
26090,10.424,2.9091,0.1,0.00032263,3224.1,0.00032344,3248.3,-0.00010236,49.018,-0.00010889,-0.002355,0.7425
26091,10.516,2.6364,0.1,0.0003203,3200.8,0.00032105,3223.2,-0.00010191,45.256,-0.00010793,-0.0027137,0.75393
26092,10.424,2.7273,0.1,0.00032269,3224.6,0.00032348,3248.6,-0.00010243,48.408,-0.00010888,-0.00247,0.74244
26093,10.516,2.4545,0.1,0.00032043,3202.1,0.00032115,3223.7,-0.00010207,43.839,-0.00010791,-0.0029581,0.75376
26094,10.424,2.5455,0.1,0.00032279,3225.7,0.00032357,3249,-0.00010257,47.2,-0.00010885,-0.0026935,0.7423
26095,10.516,2.2727,0.1,0.0003206,3203.8,0.00032129,3224.5,-0.00010229,41.891,-0.00010787,-0.0032823,0.75353
26096,10.424,2.3636,0.1,0.00032295,3227.2,0.00032369,3249.7,-0.00010277,45.416,-0.00010881,-0.0030126,0.7421
26097,10.516,2.0909,0.1,0.00032081,3205.9,0.00032147,3225.5,-0.00010257,39.446,-0.00010782,-0.0036707,0.75322
26098,10.424,2.1818,0.1,0.00032315,3229.2,0.00032386,3250.6,-0.00010303,43.088,-0.00010877,-0.0034133,0.74183
26099,10.516,1.9091,0.1,0.00032107,3208.5,0.00032168,3226.6,-0.00010289,36.544,-0.00010776,-0.0041026,0.75285
26100,10.424,2,0.1,0.00032339,3231.7,0.00032406,3251.7,-0.00010335,40.259,-0.00010871,-0.0038744,0.74149
26101,10.516,1.7273,0.1,0.00032137,3211.5,0.00032192,3227.9,-0.00010327,33.233,-0.00010769,-0.0045574,0.75241
26102,10.424,1.8182,0.1,0.00032368,3234.6,0.0003243,3252.9,-0.00010372,36.976,-0.00010864,-0.0043721,0.74108
26103,10.516,1.5455,0.1,0.0003217,3214.8,0.00032219,3229.4,-0.00010369,29.562,-0.00010762,-0.0050164,0.75191
26104,10.424,1.6364,0.1,0.00032401,3237.8,0.00032456,3254.4,-0.00010414,33.292,-0.00010857,-0.004885,0.7406
26105,10.516,1.3636,0.1,0.00032206,3218.4,0.00032249,3231.1,-0.00010414,25.582,-0.00010754,-0.0054568,0.75133
26106,10.424,1.4545,0.1,0.00032437,3241.4,0.00032485,3256,-0.00010459,29.263,-0.00010849,-0.0053937,0.74006
26107,10.516,1.1818,0.1,0.00032245,3222.2,0.00032281,3232.9,-0.00010462,21.344,-0.00010746,-0.0058809,0.75069
26108,10.424,1.2727,0.1,0.00032476,3245.3,0.00032517,3257.7,-0.00010508,24.946,-0.0001084,-0.0058697,0.73945
26109,10.516,1,0.1,0.00032286,3226.4,0.00032314,3234.8,-0.00010513,16.898,-0.00010738,-0.0062247,0.74997
26110,10.424,1.0909,0.1,0.00032517,3249.4,0.00032551,3259.6,-0.0001056,20.394,-0.00010832,-0.0063478,0.73876
26111,10.516,0.81818,0.1,0.00032329,3230.7,0.0003235,3236.8,-0.00010566,12.289,-0.0001073,-0.0067657,0.74919
26112,10.424,0.90909,0.1,0.00032561,3253.8,0.00032587,3261.6,-0.00010614,15.659,-0.00010823,-0.0066684,0.73801
26113,10.516,0.63636,0.1,0.00032374,3235.2,0.00032387,3239,-0.0001062,7.5537,-0.00010721,-0.0065289,0.74834
26114,10.424,0.72727,0.1,0.00032606,3258.4,0.00032624,3263.7,-0.0001067,10.786,-0.00010813,-0.0076022,0.73719
26115,10.516,0.45455,0.1,0.00032421,3239.9,0.00032426,3241.2,-0.00010676,2.6947,-0.00010713,-0.01224,0.74742
26116,10.424,0.54545,0.1,0.00032653,3263.1,0.00032663,3266,-0.00010727,5.8116,-0.00010804,-0.0065025,0.7363
26117,10.516,0.27273,0.1,0.00032478,3245.5,0.00032473,3244.2,-0.00010704,0.010593,-0.00010741,-2.7747,0.74643
26118,10.424,0.36364,0.1,0.00032703,3268,0.00032704,3268.4,-0.00010786,0.71293,-0.00010796,-0.030049,0.73533
26119,10.424,0.18182,0.1,0.00032769,3274.6,0.0003276,3271.9,-0.00010786,0.025841,-0.0001086,-5.4995,0.7343
26120,10.516,0.090909,0.1,0.0003248,3245.8,0.00032473,3243.6,-0.00010696,0.0053267,-0.00010756,-4.4444,0.74536
26121,10.331,5.7273,0.1,0.00032993,3297,0.00032989,3296,-0.00010878,0.021647,-0.00010904,-1.9715,0.72328
26122,10.239,5.8182,0.1,0.00033286,3326.3,0.00033277,3323.9,-0.0001096,0.032458,-0.00011025,-4.8354,0.71126
26123,10.331,5.9091,0.1,0.00032999,3297.6,0.00032992,3295.6,-0.0001087,0.0071835,-0.00010924,-4.0468,0.7222
26124,10.331,5.5455,0.1,0.00032934,3291.2,0.00032941,3293.1,-0.00010836,3.8405,-0.00010887,-0.013917,0.72429
26125,10.239,5.6364,0.1,0.00033218,3319.5,0.00033221,3320.3,-0.00010948,1.6894,-0.0001097,-0.027648,0.71231
26126,10.331,5.3636,0.1,0.00032885,3286.2,0.000329,3290.7,-0.00010776,9.0619,-0.00010897,-0.0073604,0.72522
26127,10.239,5.4545,0.1,0.00033166,3314.3,0.00033178,3317.8,-0.00010885,7.1564,-0.0001098,-0.0074828,0.71328
26128,10.331,5.1818,0.1,0.00032837,3281.4,0.00032861,3288.5,-0.00010718,14.174,-0.00010906,-0.0074591,0.72608
26129,10.239,5.2727,0.1,0.00033116,3309.3,0.00033137,3315.5,-0.00010824,12.514,-0.0001099,-0.0084637,0.71419
26130,10.331,5,0.1,0.00032791,3276.9,0.00032823,3286.4,-0.00010661,19.172,-0.00010916,-0.0067747,0.72687
26131,10.239,5.0909,0.1,0.00033068,3304.5,0.00033098,3313.3,-0.00010764,17.786,-0.00011,-0.0073262,0.71502
26132,10.331,4.8182,0.1,0.00032747,3272.5,0.00032788,3284.4,-0.00010606,24.012,-0.00010925,-0.0063284,0.7276
26133,10.239,4.9091,0.1,0.00033022,3299.9,0.0003306,3311.3,-0.00010705,22.931,-0.00011011,-0.0068965,0.71578
26134,10.331,4.6364,0.1,0.00032706,3268.4,0.00032754,3282.6,-0.00010553,28.643,-0.00010935,-0.0058005,0.72825
26135,10.239,4.7273,0.1,0.00032978,3295.5,0.00033024,3309.3,-0.00010649,27.898,-0.00011021,-0.006304,0.71647
26136,10.331,4.4545,0.1,0.00032667,3264.5,0.00032722,3280.9,-0.00010504,33.008,-0.00010943,-0.0052563,0.72883
26137,10.239,4.5455,0.1,0.00032936,3291.3,0.0003299,3307.5,-0.00010596,32.628,-0.0001103,-0.0057172,0.71709
26138,10.331,4.2727,0.1,0.00032632,3261,0.00032694,3279.3,-0.00010458,37.049,-0.00010952,-0.0046934,0.72934
26139,10.239,4.3636,0.1,0.00032898,3287.5,0.00032959,3305.9,-0.00010546,37.059,-0.00011039,-0.0050947,0.71764
26140,10.331,4.0909,0.1,0.000326,3257.8,0.00032668,3277.9,-0.00010417,40.703,-0.00010959,-0.0041369,0.72979
26141,10.239,4.1818,0.1,0.00032863,3284,0.00032931,3304.4,-0.000105,41.123,-0.00011048,-0.0044691,0.71813
26142,10.331,3.9091,0.1,0.00032573,3255,0.00032645,3276.7,-0.00010381,43.914,-0.00010966,-0.0036089,0.73016
26143,10.239,4,0.1,0.00032832,3280.9,0.00032906,3303.1,-0.0001046,44.756,-0.00011055,-0.0038615,0.71854
26144,10.331,3.7273,0.1,0.00032549,3252.7,0.00032626,3275.7,-0.00010351,46.625,-0.00010971,-0.0031343,0.73047
26145,10.239,3.8182,0.1,0.00032805,3278.2,0.00032884,3301.9,-0.00010425,47.894,-0.00011062,-0.0032997,0.71888
26146,10.331,3.5455,0.1,0.00032531,3250.8,0.00032611,3274.9,-0.00010327,48.789,-0.00010976,-0.002738,0.73071
26147,10.239,3.6364,0.1,0.00032783,3276.1,0.00032866,3301,-0.00010396,50.481,-0.00011068,-0.0028109,0.71915
26148,10.331,3.3636,0.1,0.00032517,3249.5,0.000326,3274.4,-0.00010309,50.365,-0.00010979,-0.0024396,0.73088
26149,10.239,3.4545,0.1,0.00032767,3274.4,0.00032853,3300.3,-0.00010374,52.467,-0.00011072,-0.0024219,0.71936
26150,10.331,3.1818,0.1,0.00032509,3248.7,0.00032593,3274,-0.00010298,51.322,-0.00010981,-0.0022533,0.73098
26151,10.239,3.2727,0.1,0.00032755,3273.3,0.00032843,3299.8,-0.00010358,53.814,-0.00011075,-0.0021495,0.7195
26152,10.331,3,0.1,0.00032506,3248.4,0.00032591,3273.9,-0.00010295,51.644,-0.00010982,-0.0021898,0.73102
26153,10.239,3.0909,0.1,0.0003275,3272.7,0.00032839,3299.6,-0.00010351,54.494,-0.00011076,-0.0020091,0.71957
26154,10.331,2.8182,0.1,0.00032509,3248.7,0.00032593,3274,-0.00010298,51.322,-0.00010981,-0.0022531,0.73098
26155,10.239,2.9091,0.1,0.0003275,3272.7,0.00032839,3299.6,-0.00010351,54.494,-0.00011076,-0.0020089,0.71957
26156,10.331,2.6364,0.1,0.00032517,3249.5,0.000326,3274.4,-0.00010309,50.365,-0.00010979,-0.0024397,0.73088
26157,10.239,2.7273,0.1,0.00032755,3273.3,0.00032843,3299.8,-0.00010358,53.814,-0.00011075,-0.0021495,0.7195
26158,10.331,2.4545,0.1,0.00032531,3250.8,0.00032611,3274.9,-0.00010327,48.789,-0.00010976,-0.0027385,0.73071
26159,10.239,2.5455,0.1,0.00032767,3274.4,0.00032853,3300.3,-0.00010374,52.467,-0.00011072,-0.0024221,0.71936
26160,10.331,2.2727,0.1,0.00032549,3252.7,0.00032626,3275.7,-0.00010351,46.625,-0.00010971,-0.0031348,0.73047
26161,10.239,2.3636,0.1,0.00032783,3276.1,0.00032866,3301,-0.00010396,50.481,-0.00011068,-0.0028114,0.71915
26162,10.331,2.0909,0.1,0.00032573,3255,0.00032645,3276.7,-0.00010381,43.914,-0.00010966,-0.0036092,0.73016
26163,10.239,2.1818,0.1,0.00032805,3278.2,0.00032884,3301.9,-0.00010425,47.894,-0.00011062,-0.0033,0.71888
26164,10.331,1.9091,0.1,0.000326,3257.8,0.00032668,3277.9,-0.00010417,40.703,-0.00010959,-0.0041372,0.72979
26165,10.239,2,0.1,0.00032832,3280.9,0.00032906,3303.1,-0.0001046,44.756,-0.00011055,-0.003862,0.71854
26166,10.331,1.7273,0.1,0.00032632,3261,0.00032694,3279.3,-0.00010458,37.049,-0.00010952,-0.0046939,0.72934
26167,10.239,1.8182,0.1,0.00032863,3284,0.00032931,3304.4,-0.000105,41.123,-0.00011048,-0.0044695,0.71813
26168,10.331,1.5455,0.1,0.00032667,3264.5,0.00032722,3280.9,-0.00010504,33.008,-0.00010943,-0.0052572,0.72883
26169,10.239,1.6364,0.1,0.00032898,3287.5,0.00032959,3305.9,-0.00010546,37.059,-0.00011039,-0.0050954,0.71764
26170,10.331,1.3636,0.1,0.00032706,3268.4,0.00032754,3282.6,-0.00010553,28.643,-0.00010935,-0.0058011,0.72825
26171,10.239,1.4545,0.1,0.00032936,3291.3,0.0003299,3307.5,-0.00010596,32.628,-0.0001103,-0.0057179,0.71709
26172,10.331,1.1818,0.1,0.00032747,3272.5,0.00032788,3284.4,-0.00010606,24.012,-0.00010925,-0.006329,0.7276
26173,10.239,1.2727,0.1,0.00032978,3295.5,0.00033024,3309.3,-0.00010649,27.898,-0.00011021,-0.0063047,0.71647
26174,10.331,1,0.1,0.00032791,3276.9,0.00032823,3286.4,-0.00010661,19.172,-0.00010916,-0.0067761,0.72687
26175,10.239,1.0909,0.1,0.00033022,3299.9,0.0003306,3311.3,-0.00010705,22.931,-0.00011011,-0.006897,0.71578
26176,10.331,0.81818,0.1,0.00032837,3281.4,0.00032861,3288.5,-0.00010718,14.174,-0.00010906,-0.007461,0.72608
26177,10.239,0.90909,0.1,0.00033068,3304.5,0.00033098,3313.3,-0.00010764,17.786,-0.00011,-0.0073279,0.71502
26178,10.331,0.63636,0.1,0.00032885,3286.2,0.000329,3290.7,-0.00010776,9.062,-0.00010897,-0.0073611,0.72522
26179,10.239,0.72727,0.1,0.00033116,3309.3,0.00033137,3315.5,-0.00010824,12.514,-0.0001099,-0.0084651,0.71419
26180,10.331,0.45455,0.1,0.00032934,3291.2,0.00032941,3293.1,-0.00010836,3.8405,-0.00010887,-0.013917,0.72429
26181,10.239,0.54545,0.1,0.00033166,3314.3,0.00033178,3317.8,-0.00010885,7.1564,-0.0001098,-0.0074831,0.71328
26182,10.331,0.27273,0.1,0.00032993,3297,0.00032989,3296,-0.00010878,0.021647,-0.00010904,-1.9714,0.72328
26183,10.239,0.36364,0.1,0.00033218,3319.5,0.00033221,3320.3,-0.00010948,1.6894,-0.0001097,-0.027648,0.71231
26184,10.239,0.18182,0.1,0.00033286,3326.3,0.00033277,3323.9,-0.0001096,0.032458,-0.00011025,-4.8353,0.71126
26185,10.331,0.090909,0.1,0.00032999,3297.6,0.00032992,3295.6,-0.0001087,0.0071824,-0.00010924,-4.0467,0.7222
26186,10.147,5.7273,0.1,0.00033509,3348.6,0.00033508,3348.1,-0.00011052,0.050841,-0.00011068,-1.1673,0.70036
26187,10.054,5.8182,0.1,0.00033804,3378.1,0.00033797,3376,-0.00011134,0.041673,-0.0001119,-4.1629,0.68845
26188,10.147,5.9091,0.1,0.0003352,3349.7,0.00033513,3347.8,-0.00011043,0.0097683,-0.00011092,-3.6421,0.69927
26189,10.147,5.5455,0.1,0.00033449,3342.6,0.00033457,3345.1,-0.00010996,5.0205,-0.00011063,-0.015678,0.70138
26190,10.054,5.6364,0.1,0.00033734,3371.1,0.00033739,3372.4,-0.0001111,2.6909,-0.00011146,-0.028872,0.68951
26191,10.147,5.3636,0.1,0.00033397,3337.4,0.00033414,3342.6,-0.00010932,10.626,-0.00011074,-0.0083023,0.70232
26192,10.054,5.4545,0.1,0.0003368,3365.6,0.00033694,3369.9,-0.00011043,8.5401,-0.00011157,-0.0085764,0.69049
26193,10.147,5.1818,0.1,0.00033346,3332.3,0.00033373,3340.4,-0.00010869,16.142,-0.00011084,-0.0082588,0.7032
26194,10.054,5.2727,0.1,0.00033627,3360.4,0.00033651,3367.5,-0.00010977,14.305,-0.00011168,-0.0094508,0.69141
26195,10.147,5,0.1,0.00033298,3327.5,0.00033334,3338.2,-0.00010808,21.561,-0.00011095,-0.0074181,0.704
26196,10.054,5.0909,0.1,0.00033576,3355.3,0.0003361,3365.3,-0.00010913,20.006,-0.00011179,-0.0081032,0.69225
26197,10.147,4.8182,0.1,0.00033251,3322.8,0.00033296,3336.2,-0.00010748,26.832,-0.00011106,-0.0068554,0.70473
26198,10.054,4.9091,0.1,0.00033527,3350.4,0.0003357,3363.1,-0.0001085,25.599,-0.00011191,-0.0075521,0.69302
26199,10.147,4.6364,0.1,0.00033207,3318.4,0.0003326,3334.3,-0.00010691,31.898,-0.00011116,-0.0062088,0.70539
26200,10.054,4.7273,0.1,0.00033481,3345.8,0.00033532,3361.2,-0.00010789,31.023,-0.00011202,-0.0068323,0.69372
26201,10.147,4.4545,0.1,0.00033166,3314.3,0.00033227,3332.5,-0.00010638,36.692,-0.00011126,-0.0055452,0.70598
26202,10.054,4.5455,0.1,0.00033436,3341.3,0.00033497,3359.3,-0.00010731,36.212,-0.00011213,-0.0061182,0.69435
26203,10.147,4.2727,0.1,0.00033128,3310.5,0.00033196,3330.9,-0.00010588,41.146,-0.00011135,-0.0048601,0.7065
26204,10.054,4.3636,0.1,0.00033395,3337.2,0.00033463,3357.6,-0.00010676,41.092,-0.00011223,-0.0053638,0.69491
26205,10.147,4.0909,0.1,0.00033094,3307.1,0.00033169,3329.5,-0.00010543,45.188,-0.00011144,-0.0041828,0.70695
26206,10.054,4.1818,0.1,0.00033358,3333.5,0.00033433,3356,-0.00010626,45.584,-0.00011233,-0.004605,0.69539
26207,10.147,3.9091,0.1,0.00033064,3304.1,0.00033144,3328.2,-0.00010503,48.748,-0.00011152,-0.0035407,0.70733
26208,10.054,4,0.1,0.00033324,3330.1,0.00033406,3354.7,-0.00010582,49.612,-0.00011242,-0.0038681,0.69581
26209,10.147,3.7273,0.1,0.00033039,3301.6,0.00033124,3327.2,-0.00010469,51.761,-0.00011158,-0.0029638,0.70764
26210,10.054,3.8182,0.1,0.00033296,3327.3,0.00033383,3353.5,-0.00010543,53.101,-0.0001125,-0.0031859,0.69616
26211,10.147,3.5455,0.1,0.00033019,3299.6,0.00033108,3326.4,-0.00010442,54.17,-0.00011163,-0.0024814,0.70788
26212,10.054,3.6364,0.1,0.00033272,3324.9,0.00033364,3352.6,-0.00010511,55.983,-0.00011256,-0.0025926,0.69644
26213,10.147,3.3636,0.1,0.00033004,3298.2,0.00033096,3325.8,-0.00010423,55.927,-0.00011167,-0.0021178,0.70805
26214,10.054,3.4545,0.1,0.00033254,3323.1,0.00033349,3351.8,-0.00010486,58.199,-0.00011261,-0.0021192,0.69664
26215,10.147,3.1818,0.1,0.00032996,3297.3,0.00033089,3325.4,-0.00010411,56.996,-0.0001117,-0.0018909,0.70815
26216,10.054,3.2727,0.1,0.00033242,3321.9,0.00033339,3351.3,-0.0001047,59.704,-0.00011264,-0.0017882,0.69678
26217,10.147,3,0.1,0.00032993,3297,0.00033086,3325.3,-0.00010407,57.354,-0.0001117,-0.0018137,0.70819
26218,10.054,3.0909,0.1,0.00033236,3321.3,0.00033334,3351.1,-0.00010461,60.464,-0.00011266,-0.0016176,0.69685
26219,10.147,2.8182,0.1,0.00032996,3297.3,0.00033089,3325.4,-0.00010411,56.996,-0.0001117,-0.001891,0.70815
26220,10.054,2.9091,0.1,0.00033236,3321.3,0.00033334,3351.1,-0.00010461,60.464,-0.00011266,-0.0016176,0.69685
26221,10.147,2.6364,0.1,0.00033004,3298.2,0.00033096,3325.8,-0.00010423,55.927,-0.00011167,-0.002118,0.70805
26222,10.054,2.7273,0.1,0.00033242,3321.9,0.00033339,3351.3,-0.0001047,59.704,-0.00011264,-0.0017884,0.69678
26223,10.147,2.4545,0.1,0.00033019,3299.6,0.00033108,3326.4,-0.00010442,54.17,-0.00011163,-0.0024817,0.70788
26224,10.054,2.5455,0.1,0.00033254,3323.1,0.00033349,3351.8,-0.00010486,58.199,-0.00011261,-0.0021195,0.69664
26225,10.147,2.2727,0.1,0.00033039,3301.6,0.00033124,3327.2,-0.00010469,51.761,-0.00011158,-0.0029641,0.70764
26226,10.054,2.3636,0.1,0.00033272,3324.9,0.00033364,3352.6,-0.00010511,55.983,-0.00011256,-0.0025929,0.69644
26227,10.147,2.0909,0.1,0.00033064,3304.1,0.00033144,3328.2,-0.00010503,48.748,-0.00011152,-0.0035412,0.70733
26228,10.054,2.1818,0.1,0.00033296,3327.3,0.00033383,3353.5,-0.00010543,53.101,-0.0001125,-0.0031862,0.69616
26229,10.147,1.9091,0.1,0.00033094,3307.1,0.00033169,3329.5,-0.00010543,45.188,-0.00011144,-0.0041836,0.70695
26230,10.054,2,0.1,0.00033324,3330.1,0.00033406,3354.7,-0.00010582,49.612,-0.00011242,-0.0038687,0.69581
26231,10.147,1.7273,0.1,0.00033128,3310.5,0.00033196,3330.9,-0.00010588,41.146,-0.00011135,-0.0048608,0.7065
26232,10.054,1.8182,0.1,0.00033358,3333.5,0.00033433,3356,-0.00010626,45.585,-0.00011233,-0.0046059,0.69539
26233,10.147,1.5455,0.1,0.00033166,3314.3,0.00033227,3332.5,-0.00010638,36.692,-0.00011126,-0.0055458,0.70598
26234,10.054,1.6364,0.1,0.00033395,3337.2,0.00033463,3357.6,-0.00010676,41.092,-0.00011223,-0.0053643,0.69491
26235,10.147,1.3636,0.1,0.00033207,3318.4,0.0003326,3334.3,-0.00010691,31.898,-0.00011116,-0.0062095,0.70539
26236,10.054,1.4545,0.1,0.00033436,3341.3,0.00033497,3359.3,-0.00010731,36.212,-0.00011213,-0.0061191,0.69435
26237,10.147,1.1818,0.1,0.00033251,3322.8,0.00033296,3336.2,-0.00010748,26.832,-0.00011106,-0.006856,0.70473
26238,10.054,1.2727,0.1,0.00033481,3345.8,0.00033532,3361.2,-0.00010789,31.023,-0.00011202,-0.0068326,0.69372
26239,10.147,1,0.1,0.00033298,3327.5,0.00033334,3338.2,-0.00010808,21.561,-0.00011095,-0.0074189,0.704
26240,10.054,1.0909,0.1,0.00033527,3350.4,0.0003357,3363.1,-0.0001085,25.599,-0.00011191,-0.0075525,0.69302
26241,10.147,0.81818,0.1,0.00033346,3332.3,0.00033373,3340.4,-0.00010869,16.142,-0.00011084,-0.0082601,0.7032
26242,10.054,0.90909,0.1,0.00033576,3355.3,0.0003361,3365.3,-0.00010913,20.006,-0.00011179,-0.008104,0.69225
26243,10.147,0.63636,0.1,0.00033397,3337.4,0.00033415,3342.6,-0.00010932,10.626,-0.00011074,-0.0083033,0.70232
26244,10.054,0.72727,0.1,0.00033627,3360.4,0.00033651,3367.5,-0.00010977,14.305,-0.00011168,-0.0094522,0.69141
26245,10.147,0.45455,0.1,0.00033449,3342.6,0.00033457,3345.1,-0.00010996,5.0205,-0.00011063,-0.015679,0.70138
26246,10.054,0.54545,0.1,0.0003368,3365.6,0.00033694,3369.9,-0.00011043,8.5401,-0.00011157,-0.0085771,0.69049
26247,10.147,0.27273,0.1,0.00033509,3348.6,0.00033508,3348.1,-0.00011052,0.05084,-0.00011068,-1.1673,0.70036
26248,10.054,0.36364,0.1,0.00033734,3371.1,0.00033739,3372.4,-0.0001111,2.6909,-0.00011146,-0.028872,0.68951
26249,10.054,0.18182,0.1,0.00033804,3378.1,0.00033797,3376,-0.00011134,0.041672,-0.0001119,-4.1629,0.68845
26250,10.147,0.090909,0.1,0.0003352,3349.7,0.00033513,3347.8,-0.00011043,0.0097674,-0.00011092,-3.6421,0.69927
26251,9.9621,5.7273,0.1,0.00034027,3400.4,0.00034027,3400.3,-0.00011225,0.17773,-0.00011234,-0.44776,0.67767
26252,9.8697,5.8182,0.1,0.00034323,3430,0.00034318,3428.3,-0.00011309,0.054904,-0.00011356,-3.489,0.66586
26253,9.9621,5.9091,0.1,0.00034042,3401.8,0.00034036,3400.2,-0.00011218,0.013311,-0.00011261,-3.2332,0.67656
26254,9.9621,5.5455,0.1,0.00033965,3394.1,0.00033975,3397.2,-0.00011156,6.2265,-0.00011239,-0.017552,0.6787
26255,9.8697,5.6364,0.1,0.00034252,3422.8,0.00034258,3424.6,-0.00011272,3.7059,-0.00011322,-0.03096,0.66694
26256,9.9621,5.3636,0.1,0.0003391,3388.6,0.0003393,3394.7,-0.00011088,12.236,-0.00011251,-0.0093805,0.67966
26257,9.8697,5.4545,0.1,0.00034195,3417.1,0.00034211,3422.1,-0.00011201,9.9523,-0.00011334,-0.0098346,0.66794
26258,9.9621,5.1818,0.1,0.00033857,3383.4,0.00033887,3392.4,-0.00011021,18.185,-0.00011263,-0.0091958,0.68054
26259,9.8697,5.2727,0.1,0.0003414,3411.6,0.00034167,3419.7,-0.00011131,16.148,-0.00011346,-0.010615,0.66886
26260,9.9621,5,0.1,0.00033806,3378.2,0.00033846,3390.2,-0.00010955,24.059,-0.00011275,-0.0081923,0.68135
26261,9.8697,5.0909,0.1,0.00034086,3406.3,0.00034124,3417.4,-0.00011062,22.312,-0.00011359,-0.0090558,0.66971
26262,9.9621,4.8182,0.1,0.00033756,3373.3,0.00033806,3388.1,-0.0001089,29.804,-0.00011287,-0.0075026,0.68209
26263,9.8697,4.9091,0.1,0.00034034,3401.1,0.00034082,3415.2,-0.00010994,28.393,-0.00011372,-0.0083758,0.67049
26264,9.9621,4.6364,0.1,0.0003371,3368.6,0.00033768,3386.2,-0.00010828,35.351,-0.00011299,-0.0067226,0.68276
26265,9.8697,4.7273,0.1,0.00033985,3396.1,0.00034042,3413.2,-0.00010928,34.322,-0.00011385,-0.0075161,0.6712
26266,9.9621,4.4545,0.1,0.00033665,3364.2,0.00033733,3384.4,-0.0001077,40.625,-0.0001131,-0.0059206,0.68335
26267,9.8697,4.5455,0.1,0.00033938,3391.4,0.00034004,3411.3,-0.00010864,40.022,-0.00011397,-0.0066579,0.67184
26268,9.9621,4.2727,0.1,0.00033625,3360.2,0.000337,3382.7,-0.00010715,45.542,-0.00011321,-0.0050932,0.68388
26269,9.8697,4.3636,0.1,0.00033894,3387,0.00033969,3409.5,-0.00010805,45.405,-0.00011409,-0.0057503,0.6724
26270,9.9621,4.0909,0.1,0.00033588,3356.5,0.0003367,3381.2,-0.00010665,50.021,-0.00011331,-0.0042746,0.68433
26271,9.8697,4.1818,0.1,0.00033854,3383,0.00033936,3407.9,-0.0001075,50.381,-0.0001142,-0.0048361,0.67289
26272,9.9621,3.9091,0.1,0.00033556,3353.3,0.00033645,3379.9,-0.00010621,53.977,-0.0001134,-0.003497,0.68472
26273,9.8697,4,0.1,0.00033818,3379.4,0.00033908,3406.5,-0.000107,54.856,-0.0001143,-0.0039461,0.67331
26274,9.9621,3.7273,0.1,0.00033529,3350.6,0.00033623,3378.9,-0.00010584,57.334,-0.00011347,-0.0027976,0.68503
26275,9.8697,3.8182,0.1,0.00033787,3376.3,0.00033883,3405.3,-0.00010657,58.744,-0.00011439,-0.0031209,0.67366
26276,9.9621,3.5455,0.1,0.00033507,3348.4,0.00033605,3378,-0.00010554,60.023,-0.00011353,-0.0022124,0.68527
26277,9.8697,3.6364,0.1,0.00033761,3373.8,0.00033862,3404.3,-0.00010622,61.963,-0.00011447,-0.0024027,0.67394
26278,9.9621,3.3636,0.1,0.00033491,3346.8,0.00033593,3377.4,-0.00010533,61.986,-0.00011358,-0.0017709,0.68545
26279,9.8697,3.4545,0.1,0.00033742,3371.8,0.00033847,3403.6,-0.00010595,64.443,-0.00011452,-0.0018285,0.67415
26280,9.9621,3.1818,0.1,0.00033482,3345.9,0.00033585,3377,-0.0001052,63.182,-0.00011361,-0.0014958,0.68555
26281,9.8697,3.2727,0.1,0.00033728,3370.5,0.00033836,3403.1,-0.00010576,66.128,-0.00011456,-0.001427,0.67429
26282,9.9621,3,0.1,0.00033479,3345.6,0.00033582,3376.9,-0.00010515,63.584,-0.00011361,-0.0014023,0.68559
26283,9.8697,3.0909,0.1,0.00033722,3369.8,0.00033831,3402.8,-0.00010567,66.981,-0.00011458,-0.0012206,0.67436
26284,9.9621,2.8182,0.1,0.00033482,3345.9,0.00033585,3377,-0.0001052,63.182,-0.00011361,-0.001496,0.68555
26285,9.8697,2.9091,0.1,0.00033722,3369.8,0.00033831,3402.8,-0.00010567,66.981,-0.00011458,-0.0012205,0.67436
26286,9.9621,2.6364,0.1,0.00033491,3346.8,0.00033593,3377.4,-0.00010533,61.986,-0.00011358,-0.0017713,0.68545
26287,9.8697,2.7273,0.1,0.00033728,3370.5,0.00033836,3403.1,-0.00010576,66.128,-0.00011456,-0.0014274,0.67429
26288,9.9621,2.4545,0.1,0.00033507,3348.4,0.00033605,3378,-0.00010554,60.023,-0.00011353,-0.0022127,0.68527
26289,9.8697,2.5455,0.1,0.00033742,3371.8,0.00033847,3403.6,-0.00010595,64.443,-0.00011452,-0.0018289,0.67415
26290,9.9621,2.2727,0.1,0.00033529,3350.6,0.00033623,3378.9,-0.00010584,57.334,-0.00011347,-0.0027978,0.68503
26291,9.8697,2.3636,0.1,0.00033761,3373.8,0.00033862,3404.3,-0.00010622,61.963,-0.00011447,-0.0024028,0.67394
26292,9.9621,2.0909,0.1,0.00033556,3353.3,0.00033645,3379.9,-0.00010621,53.977,-0.0001134,-0.0034974,0.68472
26293,9.8697,2.1818,0.1,0.00033787,3376.3,0.00033883,3405.3,-0.00010657,58.744,-0.00011439,-0.0031213,0.67366
26294,9.9621,1.9091,0.1,0.00033588,3356.5,0.0003367,3381.2,-0.00010665,50.021,-0.00011331,-0.0042753,0.68433
26295,9.8697,2,0.1,0.00033818,3379.4,0.00033908,3406.5,-0.000107,54.856,-0.0001143,-0.0039465,0.67331
26296,9.9621,1.7273,0.1,0.00033625,3360.2,0.000337,3382.7,-0.00010715,45.542,-0.00011321,-0.005094,0.68388
26297,9.8697,1.8182,0.1,0.00033854,3383,0.00033936,3407.9,-0.0001075,50.381,-0.0001142,-0.0048365,0.67289
26298,9.9621,1.5455,0.1,0.00033665,3364.2,0.00033733,3384.4,-0.0001077,40.625,-0.0001131,-0.0059214,0.68335
26299,9.8697,1.6364,0.1,0.00033894,3387,0.00033969,3409.5,-0.00010805,45.405,-0.00011409,-0.0057511,0.6724
26300,9.9621,1.3636,0.1,0.0003371,3368.6,0.00033768,3386.2,-0.00010828,35.351,-0.00011299,-0.0067232,0.68276
26301,9.8697,1.4545,0.1,0.00033938,3391.4,0.00034004,3411.3,-0.00010864,40.022,-0.00011397,-0.0066586,0.67184
26302,9.9621,1.1818,0.1,0.00033756,3373.3,0.00033806,3388.1,-0.0001089,29.804,-0.00011287,-0.0075028,0.68209
26303,9.8697,1.2727,0.1,0.00033985,3396.1,0.00034042,3413.2,-0.00010928,34.322,-0.00011385,-0.0075163,0.6712
26304,9.9621,1,0.1,0.00033806,3378.2,0.00033846,3390.2,-0.00010955,24.06,-0.00011275,-0.0081927,0.68135
26305,9.8697,1.0909,0.1,0.00034034,3401.1,0.00034082,3415.2,-0.00010994,28.393,-0.00011372,-0.0083764,0.67049
26306,9.9621,0.81818,0.1,0.00033857,3383.4,0.00033887,3392.4,-0.00011021,18.185,-0.00011263,-0.0091967,0.68054
26307,9.8697,0.90909,0.1,0.00034086,3406.3,0.00034124,3417.4,-0.00011062,22.312,-0.00011359,-0.0090567,0.66971
26308,9.9621,0.63636,0.1,0.0003391,3388.6,0.0003393,3394.7,-0.00011088,12.236,-0.00011251,-0.0093815,0.67966
26309,9.8697,0.72727,0.1,0.0003414,3411.6,0.00034167,3419.7,-0.00011131,16.148,-0.00011346,-0.010616,0.66886
26310,9.9621,0.45455,0.1,0.00033965,3394.1,0.00033975,3397.2,-0.00011156,6.2266,-0.00011239,-0.017553,0.6787
26311,9.8697,0.54545,0.1,0.00034195,3417.1,0.00034211,3422.1,-0.00011201,9.9524,-0.00011334,-0.009835,0.66794
26312,9.9621,0.27273,0.1,0.00034027,3400.4,0.00034027,3400.3,-0.00011225,0.17774,-0.00011234,-0.44774,0.67767
26313,9.8697,0.36364,0.1,0.00034252,3422.8,0.00034258,3424.6,-0.00011272,3.7059,-0.00011322,-0.030961,0.66694
26314,9.8697,0.18182,0.1,0.00034323,3430,0.00034318,3428.3,-0.00011309,0.054904,-0.00011356,-3.489,0.66586
26315,9.9621,0.090909,0.1,0.00034042,3401.8,0.00034036,3400.2,-0.00011218,0.01331,-0.00011261,-3.2332,0.67656
26316,9.7774,5.7273,0.1,0.00034547,3452.3,0.00034548,3452.6,-0.00011394,0.72442,-0.00011405,-0.14297,0.65521
26317,9.685,5.8182,0.1,0.00034844,3482,0.00034839,3480.6,-0.00011484,0.074784,-0.00011522,-2.8232,0.64351
26318,9.7774,5.9091,0.1,0.00034565,3454.1,0.0003456,3452.7,-0.00011392,0.018117,-0.0001143,-2.824,0.65409
26319,9.7774,5.5455,0.1,0.00034482,3445.8,0.00034494,3449.5,-0.00011317,7.4478,-0.00011416,-0.019604,0.65625
26320,9.685,5.6364,0.1,0.0003477,3474.6,0.00034778,3477,-0.00011435,4.7225,-0.00011498,-0.033465,0.6446
26321,9.7774,5.3636,0.1,0.00034424,3440.1,0.00034448,3447,-0.00011244,13.881,-0.00011429,-0.010669,0.65722
26322,9.685,5.4545,0.1,0.00034711,3468.7,0.0003473,3474.4,-0.00011359,11.379,-0.00011511,-0.011289,0.64561
26323,9.7774,5.1818,0.1,0.00034369,3434.5,0.00034403,3444.6,-0.00011172,20.292,-0.00011442,-0.010348,0.65811
26324,9.685,5.2727,0.1,0.00034653,3462.9,0.00034684,3471.9,-0.00011285,18.031,-0.00011525,-0.01199,0.64655
26325,9.7774,5,0.1,0.00034315,3429.1,0.00034359,3442.4,-0.00011101,26.66,-0.00011456,-0.0091789,0.65893
26326,9.685,5.0909,0.1,0.00034597,3457.3,0.00034639,3469.6,-0.0001121,24.692,-0.00011539,-0.010224,0.64741
26327,9.7774,4.8182,0.1,0.00034263,3423.9,0.00034317,3440.2,-0.00011031,32.924,-0.00011469,-0.0083526,0.65968
26328,9.685,4.9091,0.1,0.00034543,3451.9,0.00034595,3467.4,-0.00011137,31.305,-0.00011554,-0.009411,0.6482
26329,9.7774,4.6364,0.1,0.00034213,3418.9,0.00034277,3438.2,-0.00010964,39.005,-0.00011483,-0.0074244,0.66036
26330,9.685,4.7273,0.1,0.0003449,3446.6,0.00034553,3465.4,-0.00011065,37.792,-0.00011568,-0.0083987,0.64891
26331,9.7774,4.4545,0.1,0.00034166,3414.2,0.0003424,3436.4,-0.000109,44.814,-0.00011496,-0.0064647,0.66096
26332,9.685,4.5455,0.1,0.0003444,3441.6,0.00034513,3463.4,-0.00010996,44.061,-0.00011583,-0.0073774,0.64955
26333,9.7774,4.2727,0.1,0.00034122,3409.9,0.00034205,3434.7,-0.0001084,50.254,-0.00011508,-0.0054717,0.66149
26334,9.685,4.3636,0.1,0.00034393,3436.9,0.00034475,3461.7,-0.00010931,50.01,-0.00011597,-0.0062937,0.65012
26335,9.7774,4.0909,0.1,0.00034083,3405.9,0.00034174,3433.2,-0.00010785,55.227,-0.0001152,-0.0044863,0.66195
26336,9.685,4.1818,0.1,0.0003435,3432.6,0.00034441,3460.1,-0.0001087,55.532,-0.0001161,-0.0051966,0.65062
26337,9.7774,3.9091,0.1,0.00034048,3402.5,0.00034146,3431.9,-0.00010736,59.634,-0.0001153,-0.003548,0.66233
26338,9.685,4,0.1,0.00034311,3428.8,0.0003441,3458.6,-0.00010816,60.517,-0.00011621,-0.0041257,0.65105
26339,9.7774,3.7273,0.1,0.00034019,3399.6,0.00034122,3430.8,-0.00010695,63.383,-0.00011539,-0.0027032,0.66265
26340,9.685,3.8182,0.1,0.00034278,3425.4,0.00034384,3457.4,-0.00010768,64.86,-0.00011632,-0.0031305,0.6514
26341,9.7774,3.5455,0.1,0.00033996,3397.2,0.00034104,3429.9,-0.00010662,66.392,-0.00011546,-0.0019951,0.6629
26342,9.685,3.6364,0.1,0.00034251,3422.7,0.00034362,3456.4,-0.00010729,68.465,-0.0001164,-0.002263,0.65168
26343,9.7774,3.3636,0.1,0.00033979,3395.5,0.0003409,3429.3,-0.00010638,68.593,-0.00011551,-0.0014601,0.66307
26344,9.685,3.4545,0.1,0.00034229,3420.6,0.00034345,3455.6,-0.00010699,71.246,-0.00011647,-0.0015684,0.65189
26345,9.7774,3.1818,0.1,0.00033968,3394.5,0.00034082,3428.9,-0.00010623,69.935,-0.00011554,-0.0011269,0.66318
26346,9.685,3.2727,0.1,0.00034215,3419.1,0.00034334,3455.1,-0.00010678,73.14,-0.00011651,-0.0010823,0.65204
26347,9.7774,3,0.1,0.00033965,3394.1,0.00034079,3428.8,-0.00010618,70.386,-0.00011555,-0.0010138,0.66321
26348,9.685,3.0909,0.1,0.00034208,3418.4,0.00034328,3454.9,-0.00010667,74.098,-0.00011654,-0.00083224,0.65211
26349,9.7774,2.8182,0.1,0.00033968,3394.5,0.00034082,3428.9,-0.00010623,69.935,-0.00011554,-0.001127,0.66318
26350,9.685,2.9091,0.1,0.00034208,3418.4,0.00034328,3454.9,-0.00010667,74.098,-0.00011654,-0.00083221,0.65211
26351,9.7774,2.6364,0.1,0.00033979,3395.5,0.0003409,3429.3,-0.00010638,68.593,-0.00011551,-0.0014606,0.66307
26352,9.685,2.7273,0.1,0.00034215,3419.1,0.00034334,3455.1,-0.00010678,73.14,-0.00011651,-0.0010825,0.65204
26353,9.7774,2.4545,0.1,0.00033996,3397.2,0.00034104,3429.9,-0.00010662,66.392,-0.00011546,-0.0019953,0.6629
26354,9.685,2.5455,0.1,0.00034229,3420.6,0.00034345,3455.6,-0.00010699,71.246,-0.00011647,-0.0015687,0.65189
26355,9.7774,2.2727,0.1,0.00034019,3399.6,0.00034122,3430.8,-0.00010695,63.383,-0.00011539,-0.0027034,0.66265
26356,9.685,2.3636,0.1,0.00034251,3422.7,0.00034362,3456.4,-0.00010729,68.465,-0.0001164,-0.002263,0.65168
26357,9.7774,2.0909,0.1,0.00034048,3402.5,0.00034146,3431.9,-0.00010736,59.634,-0.0001153,-0.0035484,0.66233
26358,9.685,2.1818,0.1,0.00034278,3425.4,0.00034384,3457.4,-0.00010768,64.86,-0.00011632,-0.0031309,0.6514
26359,9.7774,1.9091,0.1,0.00034083,3405.9,0.00034174,3433.2,-0.00010785,55.227,-0.0001152,-0.0044863,0.66195
26360,9.685,2,0.1,0.00034311,3428.8,0.0003441,3458.6,-0.00010816,60.517,-0.00011621,-0.0041263,0.65105
26361,9.7774,1.7273,0.1,0.00034122,3409.9,0.00034205,3434.7,-0.0001084,50.254,-0.00011508,-0.0054721,0.66149
26362,9.685,1.8182,0.1,0.0003435,3432.6,0.00034441,3460.1,-0.0001087,55.532,-0.0001161,-0.0051968,0.65062
26363,9.7774,1.5455,0.1,0.00034166,3414.2,0.0003424,3436.4,-0.000109,44.814,-0.00011496,-0.0064653,0.66096
26364,9.685,1.6364,0.1,0.00034393,3436.9,0.00034475,3461.7,-0.00010931,50.01,-0.00011597,-0.0062942,0.65012
26365,9.7774,1.3636,0.1,0.00034213,3418.9,0.00034277,3438.2,-0.00010964,39.005,-0.00011483,-0.0074248,0.66036
26366,9.685,1.4545,0.1,0.0003444,3441.6,0.00034513,3463.4,-0.00010996,44.061,-0.00011583,-0.0073779,0.64955
26367,9.7774,1.1818,0.1,0.00034263,3423.9,0.00034317,3440.2,-0.00011031,32.924,-0.00011469,-0.0083533,0.65968
26368,9.685,1.2727,0.1,0.0003449,3446.6,0.00034553,3465.4,-0.00011065,37.792,-0.00011568,-0.0083993,0.64891
26369,9.7774,1,0.1,0.00034315,3429.1,0.00034359,3442.4,-0.00011101,26.66,-0.00011456,-0.00918,0.65893
26370,9.685,1.0909,0.1,0.00034543,3451.9,0.00034595,3467.4,-0.00011137,31.305,-0.00011554,-0.0094115,0.6482
26371,9.7774,0.81818,0.1,0.00034369,3434.5,0.00034403,3444.6,-0.00011172,20.292,-0.00011442,-0.010349,0.65811
26372,9.685,0.90909,0.1,0.00034597,3457.3,0.00034639,3469.6,-0.0001121,24.692,-0.00011539,-0.010226,0.64741
26373,9.7774,0.63636,0.1,0.00034424,3440.1,0.00034448,3447,-0.00011244,13.881,-0.00011429,-0.010669,0.65722
26374,9.685,0.72727,0.1,0.00034653,3462.9,0.00034684,3471.9,-0.00011285,18.031,-0.00011525,-0.011992,0.64655
26375,9.7774,0.45455,0.1,0.00034482,3445.8,0.00034494,3449.5,-0.00011317,7.4479,-0.00011416,-0.019605,0.65625
26376,9.685,0.54545,0.1,0.00034711,3468.7,0.0003473,3474.4,-0.00011359,11.379,-0.00011511,-0.011289,0.64561
26377,9.7774,0.27273,0.1,0.00034547,3452.3,0.00034548,3452.6,-0.00011394,0.72444,-0.00011405,-0.14297,0.65521
26378,9.685,0.36364,0.1,0.0003477,3474.6,0.00034778,3477,-0.00011435,4.7226,-0.00011498,-0.033466,0.6446
26379,9.685,0.18182,0.1,0.00034844,3482,0.00034839,3480.6,-0.00011484,0.074784,-0.00011522,-2.8232,0.64351
26380,9.7774,0.090909,0.1,0.00034565,3454.1,0.0003456,3452.7,-0.00011392,0.018117,-0.0001143,-2.824,0.65409
26381,9.5927,5.7273,0.1,0.00035066,3504.2,0.00035069,3504.9,-0.00011559,1.5144,-0.0001158,-0.086802,0.63298
26382,9.5003,5.8182,0.1,0.00035365,3534,0.00035361,3533,-0.00011659,0.1065,-0.00011689,-2.1797,0.6214
26383,9.5927,5.9091,0.1,0.00035088,3506.4,0.00035084,3505.2,-0.00011567,0.024742,-0.000116,-2.4191,0.63185
26384,9.5927,5.5455,0.1,0.00034999,3497.5,0.00035014,3501.8,-0.00011477,8.67,-0.00011593,-0.021811,0.63404
26385,9.5003,5.6364,0.1,0.0003529,3526.5,0.00035299,3529.4,-0.00011598,5.7258,-0.00011674,-0.03622,0.6225
26386,9.5927,5.3636,0.1,0.0003494,3491.6,0.00034966,3499.3,-0.000114,15.545,-0.00011607,-0.012157,0.63502
26387,9.5003,5.4545,0.1,0.00035228,3520.4,0.0003525,3526.7,-0.00011518,12.802,-0.00011689,-0.012948,0.62352
26388,9.5927,5.1818,0.1,0.00034882,3485.8,0.00034919,3496.9,-0.00011323,22.447,-0.00011622,-0.011712,0.63592
26389,9.5003,5.2727,0.1,0.00035168,3514.4,0.00035201,3524.3,-0.00011439,19.933,-0.00011704,-0.013587,0.62447
26390,9.5927,5,0.1,0.00034825,3480.1,0.00034874,3494.7,-0.00011247,29.351,-0.00011637,-0.01038,0.63675
26391,9.5003,5.0909,0.1,0.00035109,3508.5,0.00035155,3522,-0.00011359,27.128,-0.0001172,-0.011627,0.62534
26392,9.5927,4.8182,0.1,0.0003477,3474.6,0.0003483,3492.5,-0.00011171,36.185,-0.00011653,-0.0094091,0.6375
26393,9.5003,4.9091,0.1,0.00035052,3502.8,0.00035109,3519.8,-0.0001128,34.322,-0.00011737,-0.010678,0.62614
26394,9.5927,4.6364,0.1,0.00034717,3469.3,0.00034788,3490.5,-0.00011098,42.859,-0.00011668,-0.0083158,0.63819
26395,9.5003,4.7273,0.1,0.00034996,3497.2,0.00035065,3517.7,-0.00011202,41.425,-0.00011753,-0.0095004,0.62686
26396,9.5927,4.4545,0.1,0.00034667,3464.3,0.00034748,3488.7,-0.00011028,49.268,-0.00011683,-0.0071758,0.6388
26397,9.5003,4.5455,0.1,0.00034943,3491.9,0.00035023,3515.8,-0.00011127,48.331,-0.0001177,-0.0082949,0.62751
26398,9.5927,4.2727,0.1,0.00034621,3459.7,0.00034711,3487,-0.00010962,55.298,-0.00011698,-0.0059899,0.63933
26399,9.5003,4.3636,0.1,0.00034893,3486.9,0.00034983,3514,-0.00011055,54.918,-0.00011786,-0.0070076,0.62808
26400,9.5927,4.0909,0.1,0.00034578,3455.4,0.00034678,3485.5,-0.00010901,60.832,-0.00011711,-0.0048077,0.6398
26401,9.5003,4.1818,0.1,0.00034847,3482.3,0.00034947,3512.4,-0.00010988,61.06,-0.00011801,-0.0056958,0.62858
26402,9.5927,3.9091,0.1,0.00034541,3451.7,0.00034648,3484.1,-0.00010848,65.753,-0.00011723,-0.0036792,0.64019
26403,9.5003,4,0.1,0.00034806,3478.2,0.00034914,3511,-0.00010928,66.625,-0.00011814,-0.0044106,0.62901
26404,9.5927,3.7273,0.1,0.00034509,3448.6,0.00034623,3483,-0.00010802,69.951,-0.00011733,-0.0026604,0.64051
26405,9.5003,3.8182,0.1,0.0003477,3474.6,0.00034886,3509.8,-0.00010875,71.489,-0.00011826,-0.0032129,0.62937
26406,9.5927,3.5455,0.1,0.00034484,3446,0.00034603,3482.1,-0.00010765,73.327,-0.00011741,-0.0018055,0.64075
26407,9.5003,3.6364,0.1,0.0003474,3471.6,0.00034863,3508.8,-0.00010831,75.536,-0.00011836,-0.0021663,0.62966
26408,9.5927,3.3636,0.1,0.00034466,3444.2,0.00034588,3481.5,-0.00010738,75.801,-0.00011747,-0.001159,0.64093
26409,9.5003,3.4545,0.1,0.00034717,3469.3,0.00034844,3508,-0.00010797,78.666,-0.00011844,-0.0013274,0.62987
26410,9.5927,3.1818,0.1,0.00034454,3443.1,0.00034579,3481.1,-0.00010722,77.311,-0.00011751,-0.00075546,0.64104
26411,9.5003,3.2727,0.1,0.00034702,3467.8,0.00034832,3507.5,-0.00010774,80.798,-0.00011849,-0.00073976,0.63001
26412,9.5927,3,0.1,0.00034451,3442.7,0.00034576,3480.9,-0.00010716,77.818,-0.00011752,-0.0006184,0.64107
26413,9.5003,3.0909,0.1,0.00034694,3467,0.00034826,3507.2,-0.00010762,81.879,-0.00011852,-0.00043733,0.63008
26414,9.5927,2.8182,0.1,0.00034454,3443.1,0.00034579,3481.1,-0.00010722,77.311,-0.00011751,-0.00075564,0.64104
26415,9.5003,2.9091,0.1,0.00034694,3467,0.00034826,3507.2,-0.00010762,81.879,-0.00011852,-0.00043712,0.63008
26416,9.5927,2.6364,0.1,0.00034466,3444.2,0.00034588,3481.5,-0.00010738,75.801,-0.00011747,-0.001159,0.64093
26417,9.5003,2.7273,0.1,0.00034702,3467.8,0.00034832,3507.5,-0.00010774,80.798,-0.00011849,-0.00073994,0.63001
26418,9.5927,2.4545,0.1,0.00034484,3446,0.00034603,3482.1,-0.00010765,73.327,-0.00011741,-0.0018056,0.64075
26419,9.5003,2.5455,0.1,0.00034717,3469.3,0.00034844,3508,-0.00010797,78.666,-0.00011844,-0.0013276,0.62987
26420,9.5927,2.2727,0.1,0.00034509,3448.6,0.00034623,3483,-0.00010802,69.951,-0.00011733,-0.0026607,0.64051
26421,9.5003,2.3636,0.1,0.0003474,3471.6,0.00034863,3508.8,-0.00010831,75.536,-0.00011836,-0.0021665,0.62966
26422,9.5927,2.0909,0.1,0.00034541,3451.7,0.00034648,3484.1,-0.00010848,65.753,-0.00011723,-0.0036799,0.64019
26423,9.5003,2.1818,0.1,0.0003477,3474.6,0.00034886,3509.8,-0.00010875,71.489,-0.00011826,-0.0032132,0.62937
26424,9.5927,1.9091,0.1,0.00034578,3455.4,0.00034678,3485.5,-0.00010901,60.832,-0.00011711,-0.0048084,0.6398
26425,9.5003,2,0.1,0.00034806,3478.2,0.00034914,3511,-0.00010928,66.625,-0.00011814,-0.0044113,0.62901
26426,9.5927,1.7273,0.1,0.00034621,3459.7,0.00034711,3487,-0.00010962,55.298,-0.00011698,-0.0059903,0.63933
26427,9.5003,1.8182,0.1,0.00034847,3482.3,0.00034947,3512.4,-0.00010988,61.06,-0.00011801,-0.0056963,0.62858
26428,9.5927,1.5455,0.1,0.00034667,3464.3,0.00034748,3488.7,-0.00011028,49.268,-0.00011683,-0.0071762,0.6388
26429,9.5003,1.6364,0.1,0.00034893,3486.9,0.00034983,3514,-0.00011055,54.918,-0.00011786,-0.0070081,0.62808
26430,9.5927,1.3636,0.1,0.00034717,3469.3,0.00034788,3490.5,-0.00011098,42.859,-0.00011668,-0.0083166,0.63819
26431,9.5003,1.4545,0.1,0.00034943,3491.9,0.00035023,3515.8,-0.00011127,48.331,-0.0001177,-0.0082956,0.62751
26432,9.5927,1.1818,0.1,0.0003477,3474.6,0.0003483,3492.5,-0.00011171,36.185,-0.00011653,-0.0094095,0.6375
26433,9.5003,1.2727,0.1,0.00034996,3497.2,0.00035065,3517.7,-0.00011202,41.425,-0.00011753,-0.0095014,0.62686
26434,9.5927,1,0.1,0.00034825,3480.1,0.00034874,3494.7,-0.00011247,29.351,-0.00011637,-0.010381,0.63675
26435,9.5003,1.0909,0.1,0.00035052,3502.8,0.00035109,3519.8,-0.0001128,34.322,-0.00011737,-0.010678,0.62614
26436,9.5927,0.81818,0.1,0.00034882,3485.8,0.00034919,3496.9,-0.00011323,22.447,-0.00011622,-0.011714,0.63592
26437,9.5003,0.90909,0.1,0.00035109,3508.5,0.00035155,3522,-0.00011359,27.128,-0.0001172,-0.011629,0.62534
26438,9.5927,0.63636,0.1,0.0003494,3491.6,0.00034966,3499.3,-0.000114,15.545,-0.00011607,-0.012158,0.63502
26439,9.5003,0.72727,0.1,0.00035168,3514.4,0.00035202,3524.3,-0.00011439,19.933,-0.00011704,-0.013589,0.62447
26440,9.5927,0.45455,0.1,0.00034999,3497.5,0.00035014,3501.8,-0.00011477,8.67,-0.00011593,-0.021811,0.63404
26441,9.5003,0.54545,0.1,0.00035228,3520.4,0.0003525,3526.7,-0.00011518,12.802,-0.00011689,-0.012948,0.62352
26442,9.5927,0.27273,0.1,0.00035066,3504.2,0.00035069,3504.9,-0.00011559,1.5145,-0.0001158,-0.086803,0.63298
26443,9.5003,0.36364,0.1,0.0003529,3526.5,0.00035299,3529.4,-0.00011598,5.7259,-0.00011674,-0.03622,0.6225
26444,9.5003,0.18182,0.1,0.00035365,3534,0.00035361,3533,-0.00011659,0.1065,-0.00011689,-2.1797,0.6214
26445,9.5927,0.090909,0.1,0.00035088,3506.4,0.00035084,3505.2,-0.00011567,0.024741,-0.000116,-2.4191,0.63185
26446,9.408,5.7273,0.1,0.00035587,3556.2,0.00035591,3557.3,-0.00011724,2.3253,-0.00011756,-0.070154,0.61099
26447,9.3156,5.8182,0.1,0.00035885,3586.1,0.00035883,3585.4,-0.00011833,0.16084,-0.00011856,-1.5806,0.59953
26448,9.408,5.9091,0.1,0.00035612,3558.8,0.00035609,3557.8,-0.00011742,0.033965,-0.00011769,-2.0252,0.60985
26449,9.408,5.5455,0.1,0.00035518,3549.3,0.00035535,3554.3,-0.00011638,9.874,-0.0001177,-0.024176,0.61206
26450,9.3156,5.6364,0.1,0.00035809,3578.4,0.0003582,3581.8,-0.00011761,6.6966,-0.0001185,-0.03916,0.60064
26451,9.408,5.3636,0.1,0.00035456,3543.2,0.00035485,3551.7,-0.00011557,17.206,-0.00011786,-0.013872,0.61305
26452,9.3156,5.4545,0.1,0.00035745,3572.1,0.00035769,3579.1,-0.00011677,14.198,-0.00011866,-0.014855,0.60167
26453,9.408,5.1818,0.1,0.00035395,3537.1,0.00035437,3549.3,-0.00011474,24.629,-0.00011802,-0.01332,0.61397
26454,9.3156,5.2727,0.1,0.00035683,3565.9,0.0003572,3576.7,-0.00011593,21.829,-0.00011884,-0.015455,0.60263
26455,9.408,5,0.1,0.00035336,3531.2,0.0003539,3547.1,-0.00011392,32.113,-0.0001182,-0.011831,0.6148
26456,9.3156,5.0909,0.1,0.00035622,3559.8,0.00035672,3574.5,-0.00011508,29.597,-0.00011902,-0.013321,0.60351
26457,9.408,4.8182,0.1,0.00035278,3525.4,0.00035344,3545,-0.00011311,39.575,-0.00011837,-0.010709,0.61557
26458,9.3156,4.9091,0.1,0.00035562,3553.8,0.00035624,3572.3,-0.00011422,37.425,-0.0001192,-0.012235,0.60431
26459,9.408,4.6364,0.1,0.00035222,3519.8,0.000353,3543,-0.00011231,46.909,-0.00011855,-0.0094336,0.61626
26460,9.3156,4.7273,0.1,0.00035504,3547.9,0.00035578,3570.3,-0.00011338,45.212,-0.0001194,-0.01088,0.60504
26461,9.408,4.4545,0.1,0.00035169,3514.5,0.00035258,3541.2,-0.00011154,53.992,-0.00011872,-0.0080872,0.61687
26462,9.3156,4.5455,0.1,0.00035447,3542.3,0.00035534,3568.4,-0.00011255,52.83,-0.00011958,-0.009467,0.6057
26463,9.408,4.2727,0.1,0.0003512,3509.5,0.00035219,3539.5,-0.00011081,60.689,-0.00011889,-0.0066764,0.61741
26464,9.3156,4.3636,0.1,0.00035394,3537,0.00035493,3566.7,-0.00011176,60.138,-0.00011977,-0.0079431,0.60628
26465,9.408,4.0909,0.1,0.00035075,3505,0.00035183,3538,-0.00011014,66.862,-0.00011904,-0.0052621,0.61788
26466,9.3156,4.1818,0.1,0.00035345,3532.1,0.00035454,3565.1,-0.00011103,66.984,-0.00011994,-0.0063788,0.60679
26467,9.408,3.9091,0.1,0.00035035,3501,0.00035152,3536.7,-0.00010955,72.37,-0.00011918,-0.0039069,0.61827
26468,9.3156,4,0.1,0.00035301,3527.7,0.0003542,3563.7,-0.00011036,73.213,-0.0001201,-0.0048381,0.60722
26469,9.408,3.7273,0.1,0.00035,3497.6,0.00035125,3535.5,-0.00010904,77.083,-0.0001193,-0.0026803,0.6186
26470,9.3156,3.8182,0.1,0.00035262,3523.8,0.0003539,3562.5,-0.00010977,78.674,-0.00012024,-0.0033982,0.60758
26471,9.408,3.5455,0.1,0.00034973,3494.9,0.00035104,3534.6,-0.00010863,80.882,-0.00011939,-0.0016487,0.61885
26472,9.3156,3.6364,0.1,0.0003523,3520.6,0.00035365,3561.5,-0.00010928,83.23,-0.00012036,-0.0021367,0.60787
26473,9.408,3.3636,0.1,0.00034953,3492.9,0.00035088,3534,-0.00010833,83.67,-0.00011947,-0.00086765,0.61903
26474,9.3156,3.4545,0.1,0.00035206,3518.1,0.00035345,3560.7,-0.0001089,86.76,-0.00012045,-0.001124,0.60808
26475,9.408,3.1818,0.1,0.00034941,3491.7,0.00035078,3533.6,-0.00010815,85.373,-0.00011951,-0.00038053,0.61913
26476,9.3156,3.2727,0.1,0.00035189,3516.5,0.00035332,3560.2,-0.00010864,89.169,-0.00012051,-0.0004141,0.60823
26477,9.408,3,0.1,0.00034937,3491.3,0.00035075,3533.5,-0.00010808,85.946,-0.00011952,-0.00021474,0.61917
26478,9.3156,3.0909,0.1,0.0003518,3515.6,0.00035325,3559.9,-0.00010851,90.391,-0.00012054,-4.8967e-05,0.6083
26479,9.408,2.8182,0.1,0.00034941,3491.7,0.00035078,3533.6,-0.00010815,85.373,-0.00011951,-0.00038032,0.61913
26480,9.3156,2.9091,0.1,0.0003518,3515.6,0.00035325,3559.9,-0.00010851,90.391,-0.00012054,-4.8431e-05,0.6083
26481,9.408,2.6364,0.1,0.00034953,3492.9,0.00035088,3534,-0.00010833,83.67,-0.00011947,-0.00086807,0.61903
26482,9.3156,2.7273,0.1,0.00035189,3516.5,0.00035332,3560.2,-0.00010864,89.169,-0.00012051,-0.0004147,0.60823
26483,9.408,2.4545,0.1,0.00034973,3494.9,0.00035104,3534.6,-0.00010863,80.882,-0.00011939,-0.0016489,0.61885
26484,9.3156,2.5455,0.1,0.00035206,3518.1,0.00035345,3560.7,-0.0001089,86.76,-0.00012045,-0.0011242,0.60808
26485,9.408,2.2727,0.1,0.00035,3497.6,0.00035125,3535.5,-0.00010904,77.083,-0.0001193,-0.0026805,0.6186
26486,9.3156,2.3636,0.1,0.0003523,3520.6,0.00035365,3561.5,-0.00010928,83.23,-0.00012036,-0.0021369,0.60787
26487,9.408,2.0909,0.1,0.00035035,3501,0.00035152,3536.7,-0.00010955,72.37,-0.00011918,-0.0039073,0.61827
26488,9.3156,2.1818,0.1,0.00035262,3523.8,0.0003539,3562.5,-0.00010977,78.674,-0.00012024,-0.0033985,0.60758
26489,9.408,1.9091,0.1,0.00035075,3505,0.00035183,3538,-0.00011014,66.862,-0.00011904,-0.0052625,0.61788
26490,9.3156,2,0.1,0.00035301,3527.7,0.0003542,3563.7,-0.00011036,73.213,-0.0001201,-0.0048387,0.60722
26491,9.408,1.7273,0.1,0.0003512,3509.5,0.00035219,3539.5,-0.00011081,60.689,-0.00011889,-0.006677,0.61741
26492,9.3156,1.8182,0.1,0.00035345,3532.1,0.00035454,3565.1,-0.00011103,66.984,-0.00011994,-0.0063789,0.60679
26493,9.408,1.5455,0.1,0.00035169,3514.5,0.00035258,3541.2,-0.00011154,53.992,-0.00011872,-0.008088,0.61687
26494,9.3156,1.6364,0.1,0.00035394,3537,0.00035493,3566.7,-0.00011176,60.138,-0.00011977,-0.0079437,0.60628
26495,9.408,1.3636,0.1,0.00035222,3519.8,0.000353,3543,-0.00011231,46.909,-0.00011855,-0.0094345,0.61626
26496,9.3156,1.4545,0.1,0.00035448,3542.3,0.00035534,3568.4,-0.00011255,52.83,-0.00011958,-0.0094674,0.6057
26497,9.408,1.1818,0.1,0.00035278,3525.4,0.00035344,3545,-0.00011311,39.575,-0.00011837,-0.010709,0.61557
26498,9.3156,1.2727,0.1,0.00035504,3547.9,0.00035578,3570.3,-0.00011338,45.212,-0.0001194,-0.010881,0.60504
26499,9.408,1,0.1,0.00035336,3531.2,0.0003539,3547.1,-0.00011392,32.113,-0.0001182,-0.011832,0.6148
26500,9.3156,1.0909,0.1,0.00035562,3553.8,0.00035624,3572.3,-0.00011422,37.425,-0.0001192,-0.012236,0.60431
26501,9.408,0.81818,0.1,0.00035395,3537.1,0.00035437,3549.3,-0.00011474,24.629,-0.00011802,-0.013321,0.61397
26502,9.3156,0.90909,0.1,0.00035622,3559.8,0.00035672,3574.5,-0.00011508,29.597,-0.00011902,-0.013322,0.60351
26503,9.408,0.63636,0.1,0.00035456,3543.2,0.00035485,3551.7,-0.00011557,17.206,-0.00011786,-0.013872,0.61305
26504,9.3156,0.72727,0.1,0.00035683,3565.9,0.0003572,3576.7,-0.00011593,21.829,-0.00011884,-0.015456,0.60263
26505,9.408,0.45455,0.1,0.00035518,3549.3,0.00035535,3554.3,-0.00011638,9.8741,-0.0001177,-0.024176,0.61206
26506,9.3156,0.54545,0.1,0.00035745,3572.1,0.00035769,3579.2,-0.00011677,14.198,-0.00011866,-0.014856,0.60167
26507,9.408,0.27273,0.1,0.00035587,3556.2,0.00035591,3557.3,-0.00011724,2.3253,-0.00011756,-0.070154,0.61099
26508,9.3156,0.36364,0.1,0.00035809,3578.4,0.0003582,3581.8,-0.00011761,6.6966,-0.0001185,-0.039161,0.60064
26509,9.3156,0.18182,0.1,0.00035885,3586.1,0.00035883,3585.4,-0.00011833,0.16084,-0.00011856,-1.5806,0.59953
26510,9.408,0.090909,0.1,0.00035612,3558.8,0.00035609,3557.8,-0.00011742,0.033964,-0.00011769,-2.0252,0.60985
26511,9.2232,5.7273,0.1,0.00036107,3608.2,0.00036112,3609.7,-0.00011889,3.1105,-0.00011931,-0.063743,0.58925
26512,9.1309,5.8182,0.1,0.00036405,3638,0.00036404,3637.6,-0.00012006,0.26048,-0.00012024,-1.0631,0.5779
26513,9.2232,5.9091,0.1,0.00036136,3611.1,0.00036133,3610.3,-0.00011916,0.046907,-0.00011939,-1.6503,0.58809
26514,9.2232,5.5455,0.1,0.00036036,3601.2,0.00036055,3606.6,-0.000118,11.036,-0.00011947,-0.026734,0.59033
26515,9.1309,5.6364,0.1,0.00036328,3630.3,0.00036341,3634.1,-0.00011924,7.6104,-0.00012026,-0.042261,0.57902
26516,9.2232,5.3636,0.1,0.00035973,3594.8,0.00036004,3604.1,-0.00011713,18.836,-0.00011964,-0.015878,0.59133
26517,9.1309,5.4545,0.1,0.00036263,3623.8,0.00036289,3631.5,-0.00011837,15.535,-0.00012044,-0.017075,0.58007
26518,9.2232,5.1818,0.1,0.0003591,3588.5,0.00035955,3601.8,-0.00011626,26.811,-0.00011983,-0.015243,0.59225
26519,9.1309,5.2727,0.1,0.00036199,3617.4,0.00036239,3629.2,-0.00011747,23.687,-0.00012063,-0.017662,0.58103
26520,9.2232,5,0.1,0.00035848,3582.3,0.00035906,3599.6,-0.00011538,34.922,-0.00012003,-0.013612,0.5931
26521,9.1309,5.0909,0.1,0.00036136,3611.1,0.00036189,3627,-0.00011656,32.067,-0.00012083,-0.015386,0.58192
26522,9.2232,4.8182,0.1,0.00035787,3576.3,0.00035859,3597.6,-0.00011449,43.075,-0.00012023,-0.012332,0.59387
26523,9.1309,4.9091,0.1,0.00036073,3604.8,0.0003614,3624.9,-0.00011564,40.589,-0.00012105,-0.014167,0.58274
26524,9.2232,4.6364,0.1,0.00035729,3570.4,0.00035813,3595.7,-0.00011362,51.144,-0.00012043,-0.010856,0.59457
26525,9.1309,4.7273,0.1,0.00036012,3598.7,0.00036093,3623,-0.00011473,49.133,-0.00012127,-0.012622,0.58347
26526,9.2232,4.4545,0.1,0.00035673,3564.8,0.00035769,3593.9,-0.00011278,58.986,-0.00012063,-0.0092727,0.59519
26527,9.1309,4.5455,0.1,0.00035953,3592.8,0.00036047,3621.2,-0.00011382,57.552,-0.00012148,-0.010972,0.58413
26528,9.2232,4.2727,0.1,0.0003562,3559.5,0.00035728,3592.3,-0.00011198,66.442,-0.00012082,-0.0075981,0.59573
26529,9.1309,4.3636,0.1,0.00035897,3587.2,0.00036004,3619.6,-0.00011296,65.675,-0.0001217,-0.0091724,0.58472
26530,9.2232,4.0909,0.1,0.00035572,3554.7,0.00035691,3590.8,-0.00011124,73.343,-0.000121,-0.0059078,0.5962
26531,9.1309,4.1818,0.1,0.00035845,3582,0.00035964,3618.1,-0.00011214,73.324,-0.0001219,-0.0073085,0.58523
26532,9.2232,3.9091,0.1,0.00035529,3550.4,0.00035657,3589.5,-0.00011058,79.524,-0.00012116,-0.0042815,0.5966
26533,9.1309,4,0.1,0.00035797,3577.3,0.00035927,3616.7,-0.0001114,80.312,-0.00012209,-0.0054629,0.58567
26534,9.2232,3.7273,0.1,0.00035492,3546.8,0.00035629,3588.4,-0.00011001,84.828,-0.0001213,-0.0028054,0.59693
26535,9.1309,3.8182,0.1,0.00035756,3573.1,0.00035895,3615.6,-0.00011074,86.46,-0.00012225,-0.003732,0.58603
26536,9.2232,3.5455,0.1,0.00035463,3543.8,0.00035606,3587.6,-0.00010955,89.115,-0.00012141,-0.0015616,0.59718
26537,9.1309,3.6364,0.1,0.00035722,3569.7,0.00035869,3614.6,-0.0001102,91.603,-0.00012239,-0.002212,0.58632
26538,9.2232,3.3636,0.1,0.00035441,3541.7,0.00035589,3586.9,-0.00010922,92.266,-0.0001215,-0.00061879,0.59736
26539,9.1309,3.4545,0.1,0.00035695,3567,0.00035848,3613.9,-0.00010977,95.596,-0.0001225,-0.00098949,0.58654
26540,9.2232,3.1818,0.1,0.00035428,3540.4,0.00035579,3586.5,-0.00010901,94.193,-0.00012155,-3.0169e-05,0.59747
26541,9.1309,3.2727,0.1,0.00035677,3565.2,0.00035834,3613.4,-0.00010948,98.325,-0.00012257,-0.00013186,0.58668
26542,9.2232,3,0.1,0.00035424,3539.9,0.00035576,3586.4,-0.00010894,94.841,-0.00012156,0.00016997,0.5975
26543,9.1309,3.0909,0.1,0.00035668,3564.3,0.00035827,3613.1,-0.00010934,99.71,-0.00012261,0.00030962,0.58675
26544,9.2232,2.8182,0.1,0.00035428,3540.4,0.00035579,3586.5,-0.00010901,94.193,-0.00012155,-3.0437e-05,0.59747
26545,9.1309,2.9091,0.1,0.00035668,3564.3,0.00035827,3613.1,-0.00010934,99.71,-0.00012261,0.00030977,0.58675
26546,9.2232,2.6364,0.1,0.00035441,3541.7,0.00035589,3586.9,-0.00010922,92.266,-0.0001215,-0.00061921,0.59736
26547,9.1309,2.7273,0.1,0.00035677,3565.2,0.00035834,3613.4,-0.00010948,98.325,-0.00012257,-0.00013231,0.58668
26548,9.2232,2.4545,0.1,0.00035463,3543.8,0.00035606,3587.6,-0.00010955,89.115,-0.00012141,-0.0015617,0.59718
26549,9.1309,2.5455,0.1,0.00035695,3567,0.00035848,3613.9,-0.00010977,95.596,-0.0001225,-0.00098955,0.58654
26550,9.2232,2.2727,0.1,0.00035492,3546.8,0.00035629,3588.4,-0.00011001,84.828,-0.0001213,-0.0028058,0.59693
26551,9.1309,2.3636,0.1,0.00035722,3569.7,0.00035869,3614.6,-0.0001102,91.603,-0.00012239,-0.0022122,0.58632
26552,9.2232,2.0909,0.1,0.00035529,3550.4,0.00035657,3589.5,-0.00011058,79.524,-0.00012116,-0.0042821,0.5966
26553,9.1309,2.1818,0.1,0.00035756,3573.1,0.00035895,3615.6,-0.00011074,86.46,-0.00012225,-0.0037325,0.58603
26554,9.2232,1.9091,0.1,0.00035572,3554.7,0.00035691,3590.8,-0.00011124,73.343,-0.000121,-0.005908,0.5962
26555,9.1309,2,0.1,0.00035797,3577.3,0.00035927,3616.7,-0.0001114,80.312,-0.00012209,-0.0054634,0.58567
26556,9.2232,1.7273,0.1,0.0003562,3559.5,0.00035728,3592.3,-0.00011198,66.442,-0.00012082,-0.0075981,0.59573
26557,9.1309,1.8182,0.1,0.00035845,3582,0.00035964,3618.1,-0.00011214,73.324,-0.0001219,-0.0073087,0.58523
26558,9.2232,1.5455,0.1,0.00035673,3564.8,0.00035769,3593.9,-0.00011278,58.986,-0.00012063,-0.009273,0.59519
26559,9.1309,1.6364,0.1,0.00035897,3587.2,0.00036004,3619.6,-0.00011296,65.675,-0.0001217,-0.0091725,0.58472
26560,9.2232,1.3636,0.1,0.00035729,3570.4,0.00035813,3595.7,-0.00011362,51.144,-0.00012043,-0.010856,0.59457
26561,9.1309,1.4545,0.1,0.00035953,3592.8,0.00036047,3621.2,-0.00011382,57.552,-0.00012148,-0.010972,0.58413
26562,9.2232,1.1818,0.1,0.00035787,3576.3,0.00035859,3597.6,-0.00011449,43.075,-0.00012023,-0.012333,0.59387
26563,9.1309,1.2727,0.1,0.00036012,3598.7,0.00036093,3623,-0.00011473,49.133,-0.00012127,-0.012623,0.58347
26564,9.2232,1,0.1,0.00035848,3582.3,0.00035906,3599.6,-0.00011538,34.922,-0.00012003,-0.013612,0.5931
26565,9.1309,1.0909,0.1,0.00036073,3604.8,0.0003614,3624.9,-0.00011564,40.589,-0.00012105,-0.014167,0.58274
26566,9.2232,0.81818,0.1,0.0003591,3588.5,0.00035955,3601.8,-0.00011626,26.811,-0.00011983,-0.015244,0.59225
26567,9.1309,0.90909,0.1,0.00036136,3611.1,0.00036189,3627,-0.00011656,32.067,-0.00012083,-0.015387,0.58192
26568,9.2232,0.63636,0.1,0.00035973,3594.8,0.00036004,3604.1,-0.00011713,18.836,-0.00011964,-0.015879,0.59133
26569,9.1309,0.72727,0.1,0.00036199,3617.4,0.00036239,3629.2,-0.00011747,23.687,-0.00012063,-0.017664,0.58103
26570,9.2232,0.45455,0.1,0.00036036,3601.2,0.00036055,3606.6,-0.000118,11.036,-0.00011947,-0.026735,0.59033
26571,9.1309,0.54545,0.1,0.00036263,3623.8,0.00036289,3631.5,-0.00011837,15.535,-0.00012044,-0.017076,0.58007
26572,9.2232,0.27273,0.1,0.00036107,3608.2,0.00036112,3609.7,-0.00011889,3.1105,-0.00011931,-0.063744,0.58925
26573,9.1309,0.36364,0.1,0.00036328,3630.3,0.00036341,3634.1,-0.00011924,7.6105,-0.00012026,-0.042262,0.57902
26574,9.1309,0.18182,0.1,0.00036405,3638,0.00036404,3637.6,-0.00012006,0.26049,-0.00012024,-1.0631,0.5779
26575,9.2232,0.090909,0.1,0.00036136,3611.1,0.00036133,3610.3,-0.00011916,0.046907,-0.00011939,-1.6503,0.58809
26576,9.0385,5.7273,0.1,0.00036626,3660,0.00036632,3661.9,-0.00012054,3.8424,-0.00012106,-0.061484,0.56775
26577,8.9462,5.8182,0.1,0.00036923,3689.8,0.00036923,3689.7,-0.00012178,0.44039,-0.00012193,-0.67988,0.55652
26578,9.0385,5.9091,0.1,0.00036657,3663.2,0.00036655,3662.6,-0.0001209,0.065156,-0.00012108,-1.305,0.56658
26579,9.0385,5.5455,0.1,0.00036554,3652.9,0.00036575,3658.9,-0.00011961,12.125,-0.00012123,-0.029516,0.56884
26580,8.9462,5.6364,0.1,0.00036846,3682,0.0003686,3686.2,-0.00012088,8.4372,-0.00012201,-0.045504,0.55765
26581,9.0385,5.3636,0.1,0.00036489,3646.4,0.00036523,3656.5,-0.00011871,20.401,-0.00012142,-0.018244,0.56985
26582,8.9462,5.4545,0.1,0.0003678,3675.4,0.00036808,3683.8,-0.00011997,16.776,-0.0001222,-0.019685,0.55871
26583,9.0385,5.1818,0.1,0.00036425,3639.9,0.00036473,3654.3,-0.00011778,28.957,-0.00012163,-0.017561,0.57078
26584,8.9462,5.2727,0.1,0.00036714,3668.9,0.00036757,3681.6,-0.00011903,25.464,-0.00012242,-0.020295,0.55968
26585,9.0385,5,0.1,0.00036361,3633.5,0.00036423,3652.3,-0.00011683,37.747,-0.00012186,-0.015807,0.57164
26586,8.9462,5.0909,0.1,0.00036649,3662.4,0.00036707,3679.5,-0.00011806,34.499,-0.00012265,-0.017919,0.56058
26587,9.0385,4.8182,0.1,0.00036297,3627.2,0.00036375,3650.3,-0.00011587,46.66,-0.00012209,-0.014366,0.57242
26588,8.9462,4.9091,0.1,0.00036585,3656,0.00036657,3677.6,-0.00011706,43.779,-0.00012289,-0.016574,0.5614
26589,9.0385,4.6364,0.1,0.00036236,3621.1,0.00036327,3648.5,-0.00011493,55.551,-0.00012232,-0.012666,0.57312
26590,8.9462,4.7273,0.1,0.00036521,3649.6,0.00036609,3675.9,-0.00011607,53.166,-0.00012315,-0.014823,0.56215
26591,9.0385,4.4545,0.1,0.00036177,3615.2,0.00036282,3646.9,-0.000114,64.25,-0.00012255,-0.010809,0.57375
26592,8.9462,4.5455,0.1,0.00036459,3643.4,0.00036562,3674.3,-0.00011508,62.483,-0.0001234,-0.012903,0.56281
26593,9.0385,4.2727,0.1,0.00036121,3609.6,0.00036239,3645.4,-0.00011312,72.566,-0.00012278,-0.0088227,0.5743
26594,8.9462,4.3636,0.1,0.000364,3637.5,0.00036517,3672.8,-0.00011413,71.532,-0.00012365,-0.010778,0.5634
26595,9.0385,4.0909,0.1,0.0003607,3604.5,0.000362,3644,-0.0001123,80.3,-0.00012299,-0.0068036,0.57477
26596,8.9462,4.1818,0.1,0.00036345,3632,0.00036475,3671.4,-0.00011322,80.097,-0.00012389,-0.0085572,0.56392
26597,9.0385,3.9091,0.1,0.00036024,3599.9,0.00036165,3642.8,-0.00011156,87.255,-0.00012318,-0.0048524,0.57517
26598,8.9462,4,0.1,0.00036295,3627,0.00036437,3670.2,-0.0001124,87.957,-0.0001241,-0.0063457,0.56436
26599,9.0385,3.7273,0.1,0.00035985,3596,0.00036135,3641.7,-0.00011093,93.241,-0.00012334,-0.0030759,0.5755
26600,8.9462,3.8182,0.1,0.00036251,3622.6,0.00036403,3669.1,-0.00011167,94.896,-0.0001243,-0.004264,0.56473
26601,9.0385,3.5455,0.1,0.00035954,3592.9,0.00036111,3640.9,-0.00011042,98.09,-0.00012347,-0.0015756,0.57576
26602,8.9462,3.6364,0.1,0.00036214,3618.9,0.00036375,3668.2,-0.00011106,100.72,-0.00012446,-0.0024313,0.56502
26603,9.0385,3.3636,0.1,0.00035931,3590.6,0.00036093,3640.3,-0.00011004,101.66,-0.00012357,-0.00043688,0.57594
26604,8.9462,3.4545,0.1,0.00036186,3616.1,0.00036353,3667.6,-0.00011058,105.25,-0.00012459,-0.00095465,0.56524
26605,9.0385,3.1818,0.1,0.00035916,3589.2,0.00036082,3640,-0.00010981,103.85,-0.00012363,0.00027448,0.57605
26606,8.9462,3.2727,0.1,0.00036166,3614.1,0.00036338,3667.1,-0.00011026,108.34,-0.00012468,8.1723e-05,0.56538
26607,9.0385,3,0.1,0.00035912,3588.7,0.00036078,3639.8,-0.00010973,104.58,-0.00012365,0.00051628,0.57608
26608,8.9462,3.0909,0.1,0.00036156,3613.2,0.00036331,3666.9,-0.00011009,109.92,-0.00012472,0.00061592,0.56545
26609,9.0385,2.8182,0.1,0.00035916,3589.2,0.00036082,3640,-0.00010981,103.85,-0.00012363,0.00027445,0.57605
26610,8.9462,2.9091,0.1,0.00036156,3613.2,0.00036331,3666.9,-0.00011009,109.92,-0.00012472,0.00061583,0.56545
26611,9.0385,2.6364,0.1,0.00035931,3590.6,0.00036093,3640.3,-0.00011004,101.66,-0.00012357,-0.00043697,0.57594
26612,8.9462,2.7273,0.1,0.00036166,3614.1,0.00036338,3667.1,-0.00011026,108.34,-0.00012468,8.1753e-05,0.56538
26613,9.0385,2.4545,0.1,0.00035954,3592.9,0.00036111,3640.9,-0.00011042,98.09,-0.00012347,-0.0015758,0.57576
26614,8.9462,2.5455,0.1,0.00036186,3616.1,0.00036353,3667.6,-0.00011058,105.25,-0.00012459,-0.00095468,0.56524
26615,9.0385,2.2727,0.1,0.00035985,3596,0.00036135,3641.7,-0.00011093,93.241,-0.00012334,-0.0030763,0.5755
26616,8.9462,2.3636,0.1,0.00036214,3618.9,0.00036375,3668.2,-0.00011106,100.72,-0.00012446,-0.0024314,0.56502
26617,9.0385,2.0909,0.1,0.00036024,3599.9,0.00036165,3642.8,-0.00011156,87.255,-0.00012318,-0.0048528,0.57517
26618,8.9462,2.1818,0.1,0.00036251,3622.6,0.00036403,3669.1,-0.00011167,94.896,-0.0001243,-0.0042644,0.56473
26619,9.0385,1.9091,0.1,0.0003607,3604.5,0.000362,3644,-0.0001123,80.3,-0.00012299,-0.0068041,0.57477
26620,8.9462,2,0.1,0.00036295,3627,0.00036437,3670.2,-0.0001124,87.957,-0.0001241,-0.0063459,0.56436
26621,9.0385,1.7273,0.1,0.00036121,3609.6,0.00036239,3645.4,-0.00011312,72.566,-0.00012278,-0.008823,0.5743
26622,8.9462,1.8182,0.1,0.00036345,3632,0.00036475,3671.4,-0.00011322,80.097,-0.00012389,-0.0085579,0.56392
26623,9.0385,1.5455,0.1,0.00036177,3615.2,0.00036282,3646.9,-0.000114,64.25,-0.00012255,-0.010809,0.57375
26624,8.9462,1.6364,0.1,0.000364,3637.5,0.00036517,3672.8,-0.00011413,71.532,-0.00012365,-0.010779,0.5634
26625,9.0385,1.3636,0.1,0.00036236,3621.1,0.00036327,3648.6,-0.00011493,55.551,-0.00012232,-0.012667,0.57312
26626,8.9462,1.4545,0.1,0.00036459,3643.4,0.00036562,3674.3,-0.00011508,62.484,-0.0001234,-0.012903,0.56281
26627,9.0385,1.1818,0.1,0.00036297,3627.2,0.00036375,3650.3,-0.00011587,46.66,-0.00012209,-0.014367,0.57242
26628,8.9462,1.2727,0.1,0.00036521,3649.6,0.00036609,3675.9,-0.00011607,53.166,-0.00012315,-0.014824,0.56215
26629,9.0385,1,0.1,0.00036361,3633.5,0.00036423,3652.3,-0.00011683,37.747,-0.00012186,-0.015808,0.57164
26630,8.9462,1.0909,0.1,0.00036585,3656,0.00036657,3677.6,-0.00011706,43.779,-0.00012289,-0.016574,0.5614
26631,9.0385,0.81818,0.1,0.00036425,3639.9,0.00036473,3654.3,-0.00011778,28.957,-0.00012163,-0.017562,0.57078
26632,8.9462,0.90909,0.1,0.00036649,3662.4,0.00036707,3679.5,-0.00011806,34.499,-0.00012265,-0.017921,0.56058
26633,9.0385,0.63636,0.1,0.00036489,3646.4,0.00036523,3656.5,-0.00011871,20.401,-0.00012142,-0.018245,0.56985
26634,8.9462,0.72727,0.1,0.00036714,3668.9,0.00036757,3681.6,-0.00011903,25.464,-0.00012242,-0.020296,0.55968
26635,9.0385,0.45455,0.1,0.00036554,3652.9,0.00036575,3658.9,-0.00011961,12.125,-0.00012123,-0.029517,0.56884
26636,8.9462,0.54545,0.1,0.0003678,3675.4,0.00036808,3683.8,-0.00011997,16.776,-0.0001222,-0.019686,0.55871
26637,9.0385,0.27273,0.1,0.00036626,3660,0.00036632,3661.9,-0.00012054,3.8425,-0.00012106,-0.061485,0.56775
26638,8.9462,0.36364,0.1,0.00036846,3682,0.0003686,3686.2,-0.00012088,8.4372,-0.00012201,-0.045505,0.55765
26639,8.9462,0.18182,0.1,0.00036923,3689.8,0.00036923,3689.7,-0.00012178,0.4404,-0.00012193,-0.67987,0.55652
26640,9.0385,0.090909,0.1,0.00036657,3663.2,0.00036655,3662.6,-0.0001209,0.065156,-0.00012108,-1.305,0.56658
26641,8.8538,5.7273,0.1,0.00037142,3711.7,0.0003715,3713.9,-0.00012219,4.4927,-0.0001228,-0.061434,0.5465
26642,8.7615,5.8182,0.1,0.00037438,3741.2,0.00037438,3741.3,-0.00012346,0.70343,-0.00012362,-0.45581,0.53539
26643,8.8538,5.9091,0.1,0.00037176,3715,0.00037175,3714.6,-0.00012262,0.090515,-0.00012277,-1.0021,0.54532
26644,8.8538,5.5455,0.1,0.00037071,3704.5,0.00037093,3711,-0.00012124,13.103,-0.00012298,-0.032564,0.5476
26645,8.7615,5.6364,0.1,0.00037361,3733.5,0.00037377,3738.1,-0.00012253,9.1394,-0.00012375,-0.048891,0.53653
26646,8.8538,5.3636,0.1,0.00037005,3697.9,0.00037041,3708.8,-0.00012029,21.855,-0.0001232,-0.021062,0.54862
26647,8.7615,5.4545,0.1,0.00037295,3726.9,0.00037325,3735.8,-0.00012158,17.873,-0.00012396,-0.022795,0.5376
26648,8.8538,5.1818,0.1,0.00036939,3691.4,0.00036991,3706.8,-0.0001193,31.021,-0.00012343,-0.020376,0.54957
26649,8.7615,5.2727,0.1,0.00037229,3720.3,0.00037274,3733.8,-0.00012059,27.111,-0.0001242,-0.023472,0.53859
26650,8.8538,5,0.1,0.00036873,3684.8,0.00036941,3704.9,-0.00011829,40.544,-0.00012369,-0.018529,0.55043
26651,8.7615,5.0909,0.1,0.00037163,3713.7,0.00037224,3732,-0.00011955,36.842,-0.00012446,-0.021056,0.53949
26652,8.8538,4.8182,0.1,0.00036808,3678.3,0.00036891,3703.2,-0.00011726,50.297,-0.00012395,-0.016923,0.55121
26653,8.7615,4.9091,0.1,0.00037097,3707.1,0.00037175,3730.4,-0.00011849,46.952,-0.00012474,-0.019593,0.54032
26654,8.8538,4.6364,0.1,0.00036744,3671.9,0.00036843,3701.6,-0.00011622,60.108,-0.00012422,-0.014972,0.55192
26655,8.7615,4.7273,0.1,0.00037031,3700.6,0.00037126,3728.9,-0.00011741,57.275,-0.00012503,-0.017618,0.54107
26656,8.8538,4.4545,0.1,0.00036683,3665.7,0.00036796,3700.1,-0.00011521,69.775,-0.00012449,-0.012793,0.55255
26657,8.7615,4.5455,0.1,0.00036967,3694.2,0.00037078,3727.5,-0.00011633,67.606,-0.00012533,-0.015383,0.54174
26658,8.8538,4.2727,0.1,0.00036624,3659.9,0.00036752,3698.8,-0.00011423,79.071,-0.00012476,-0.010437,0.55311
26659,8.7615,4.3636,0.1,0.00036906,3688,0.00037032,3726.3,-0.00011527,77.706,-0.00012562,-0.012872,0.54234
26660,8.8538,4.0909,0.1,0.0003657,3654.5,0.00036711,3697.6,-0.00011332,87.76,-0.000125,-0.0080232,0.55359
26661,8.7615,4.1818,0.1,0.00036848,3682.2,0.00036988,3725.1,-0.00011427,87.319,-0.0001259,-0.010222,0.54286
26662,8.8538,3.9091,0.1,0.00036522,3649.6,0.00036675,3696.5,-0.0001125,95.603,-0.00012523,-0.0056797,0.55399
26663,8.7615,4,0.1,0.00036795,3676.9,0.00036949,3724.1,-0.00011335,96.18,-0.00012616,-0.0075675,0.5433
26664,8.8538,3.7273,0.1,0.0003648,3645.5,0.00036643,3695.6,-0.00011179,102.38,-0.00012542,-0.0035397,0.55432
26665,8.7615,3.8182,0.1,0.00036748,3672.3,0.00036914,3723.2,-0.00011254,104.03,-0.00012639,-0.0050604,0.54367
26666,8.8538,3.5455,0.1,0.00036446,3642.1,0.00036618,3694.9,-0.00011122,107.88,-0.00012558,-0.0017286,0.55458
26667,8.7615,3.6364,0.1,0.00036709,3668.4,0.00036885,3722.4,-0.00011185,110.64,-0.00012658,-0.0028482,0.54396
26668,8.8538,3.3636,0.1,0.00036422,3639.6,0.00036599,3694.3,-0.0001108,111.93,-0.00012569,-0.00035262,0.55476
26669,8.7615,3.4545,0.1,0.00036679,3665.3,0.00036862,3721.9,-0.00011132,115.79,-0.00012673,-0.0010631,0.54418
26670,8.8538,3.1818,0.1,0.00036406,3638.1,0.00036588,3694,-0.00011054,114.42,-0.00012576,0.00050764,0.55487
26671,8.7615,3.2727,0.1,0.00036658,3663.3,0.00036846,3721.5,-0.00011095,119.31,-0.00012683,0.00019064,0.54433
26672,8.8538,3,0.1,0.00036401,3637.6,0.00036584,3693.9,-0.00011045,115.26,-0.00012579,0.00080032,0.55491
26673,8.7615,3.0909,0.1,0.00036647,3662.2,0.00036838,3721.3,-0.00011077,121.11,-0.00012689,0.00083732,0.5444
26674,8.8538,2.8182,0.1,0.00036406,3638.1,0.00036588,3694,-0.00011054,114.42,-0.00012576,0.00050761,0.55487
26675,8.7615,2.9091,0.1,0.00036647,3662.2,0.00036838,3721.3,-0.00011077,121.11,-0.00012689,0.00083711,0.5444
26676,8.8538,2.6364,0.1,0.00036422,3639.6,0.00036599,3694.3,-0.0001108,111.93,-0.00012569,-0.00035253,0.55476
26677,8.7615,2.7273,0.1,0.00036658,3663.3,0.00036846,3721.5,-0.00011095,119.31,-0.00012683,0.00019067,0.54433
26678,8.8538,2.4545,0.1,0.00036446,3642.1,0.00036618,3694.9,-0.00011122,107.88,-0.00012558,-0.0017285,0.55458
26679,8.7615,2.5455,0.1,0.00036679,3665.3,0.00036862,3721.9,-0.00011132,115.79,-0.00012673,-0.001063,0.54418
26680,8.8538,2.2727,0.1,0.0003648,3645.5,0.00036643,3695.6,-0.00011179,102.38,-0.00012542,-0.0035398,0.55432
26681,8.7615,2.3636,0.1,0.00036709,3668.4,0.00036885,3722.4,-0.00011185,110.64,-0.00012658,-0.0028484,0.54396
26682,8.8538,2.0909,0.1,0.00036522,3649.6,0.00036675,3696.5,-0.0001125,95.603,-0.00012523,-0.0056798,0.55399
26683,8.7615,2.1818,0.1,0.00036748,3672.3,0.00036914,3723.2,-0.00011254,104.03,-0.00012639,-0.0050608,0.54367
26684,8.8538,1.9091,0.1,0.0003657,3654.5,0.00036711,3697.6,-0.00011332,87.76,-0.000125,-0.0080236,0.55359
26685,8.7615,2,0.1,0.00036795,3676.9,0.00036949,3724.1,-0.00011335,96.18,-0.00012616,-0.0075679,0.5433
26686,8.8538,1.7273,0.1,0.00036624,3659.9,0.00036752,3698.8,-0.00011423,79.071,-0.00012476,-0.010438,0.55311
26687,8.7615,1.8182,0.1,0.00036848,3682.2,0.00036988,3725.1,-0.00011427,87.319,-0.0001259,-0.010222,0.54286
26688,8.8538,1.5455,0.1,0.00036683,3665.7,0.00036796,3700.1,-0.00011521,69.775,-0.00012449,-0.012794,0.55255
26689,8.7615,1.6364,0.1,0.00036906,3688,0.00037032,3726.3,-0.00011527,77.706,-0.00012562,-0.012873,0.54234
26690,8.8538,1.3636,0.1,0.00036744,3671.9,0.00036843,3701.6,-0.00011622,60.108,-0.00012422,-0.014973,0.55192
26691,8.7615,1.4545,0.1,0.00036967,3694.2,0.00037078,3727.5,-0.00011633,67.606,-0.00012533,-0.015383,0.54174
26692,8.8538,1.1818,0.1,0.00036808,3678.3,0.00036891,3703.2,-0.00011726,50.297,-0.00012395,-0.016923,0.55121
26693,8.7615,1.2727,0.1,0.00037031,3700.6,0.00037126,3728.9,-0.00011741,57.275,-0.00012503,-0.017619,0.54107
26694,8.8538,1,0.1,0.00036873,3684.8,0.00036941,3704.9,-0.00011829,40.544,-0.00012369,-0.01853,0.55043
26695,8.7615,1.0909,0.1,0.00037097,3707.1,0.00037175,3730.4,-0.00011849,46.952,-0.00012474,-0.019593,0.54032
26696,8.8538,0.81818,0.1,0.00036939,3691.4,0.00036991,3706.8,-0.0001193,31.021,-0.00012343,-0.020377,0.54957
26697,8.7615,0.90909,0.1,0.00037163,3713.7,0.00037224,3732,-0.00011955,36.842,-0.00012446,-0.021058,0.53949
26698,8.8538,0.63636,0.1,0.00037005,3697.9,0.00037041,3708.8,-0.00012029,21.855,-0.0001232,-0.021063,0.54862
26699,8.7615,0.72727,0.1,0.00037229,3720.3,0.00037274,3733.8,-0.00012059,27.111,-0.0001242,-0.023473,0.53859
26700,8.8538,0.45455,0.1,0.00037071,3704.5,0.00037093,3711,-0.00012124,13.103,-0.00012298,-0.032564,0.5476
26701,8.7615,0.54545,0.1,0.00037295,3726.9,0.00037325,3735.8,-0.00012158,17.873,-0.00012396,-0.022795,0.5376
26702,8.8538,0.27273,0.1,0.00037142,3711.7,0.0003715,3713.9,-0.00012219,4.4927,-0.0001228,-0.061435,0.5465
26703,8.7615,0.36364,0.1,0.00037361,3733.5,0.00037377,3738.1,-0.00012253,9.1394,-0.00012375,-0.048892,0.53653
26704,8.7615,0.18182,0.1,0.00037438,3741.2,0.00037438,3741.3,-0.00012346,0.70343,-0.00012362,-0.45581,0.53539
26705,8.8538,0.090909,0.1,0.00037176,3715,0.00037175,3714.6,-0.00012262,0.090515,-0.00012277,-1.0021,0.54532
26706,8.6691,5.7273,0.1,0.00037656,3763,0.00037664,3765.5,-0.00012384,5.0277,-0.00012452,-0.062854,0.52551
26707,8.5768,5.8182,0.1,0.00037948,3792.2,0.00037949,3792.5,-0.00012513,0.97852,-0.00012531,-0.34651,0.51451
26708,8.6691,5.9091,0.1,0.00037691,3766.5,0.0003769,3766.2,-0.00012433,0.12342,-0.00012445,-0.75539,0.52431
26709,8.6691,5.5455,0.1,0.00037585,3755.9,0.00037608,3762.8,-0.00012286,13.924,-0.00012472,-0.035951,0.52662
26710,8.5768,5.6364,0.1,0.00037873,3784.7,0.00037889,3789.5,-0.00012417,9.6712,-0.00012546,-0.052461,0.51567
26711,8.6691,5.3636,0.1,0.00037519,3749.3,0.00037558,3760.8,-0.00012188,23.144,-0.00012496,-0.024467,0.52765
26712,8.5768,5.4545,0.1,0.00037807,3778.1,0.00037839,3787.5,-0.00012319,18.768,-0.00012569,-0.026567,0.51675
26713,8.6691,5.1818,0.1,0.00037453,3742.7,0.00037508,3759,-0.00012084,32.946,-0.00012522,-0.023838,0.5286
26714,8.5768,5.2727,0.1,0.00037742,3771.6,0.0003779,3785.8,-0.00012216,28.561,-0.00012596,-0.027367,0.51774
26715,8.6691,5,0.1,0.00037386,3736,0.00037458,3757.5,-0.00011975,43.262,-0.00012551,-0.021937,0.52947
26716,8.5768,5.0909,0.1,0.00037676,3765,0.00037741,3784.3,-0.00012106,39.033,-0.00012626,-0.024986,0.51866
26717,8.6691,4.8182,0.1,0.0003732,3729.4,0.00037409,3756.1,-0.00011864,53.942,-0.00012582,-0.020158,0.53026
26718,8.5768,4.9091,0.1,0.00037609,3758.3,0.00037692,3783.1,-0.00011992,50.05,-0.00012658,-0.023412,0.51949
26719,8.6691,4.6364,0.1,0.00037254,3722.8,0.0003736,3754.8,-0.00011751,64.783,-0.00012614,-0.017921,0.53097
26720,8.5768,4.7273,0.1,0.00037543,3751.7,0.00037643,3782,-0.00011874,61.418,-0.00012692,-0.021188,0.52025
26721,8.6691,4.4545,0.1,0.0003719,3716.4,0.00037313,3753.6,-0.0001164,75.546,-0.00012645,-0.015363,0.53161
26722,8.5768,4.5455,0.1,0.00037477,3745.1,0.00037595,3781,-0.00011756,72.892,-0.00012727,-0.018579,0.52093
26723,8.6691,4.2727,0.1,0.00037129,3710.3,0.00037268,3752.6,-0.00011532,85.961,-0.00012676,-0.012561,0.53217
26724,8.5768,4.3636,0.1,0.00037413,3738.7,0.00037549,3780.1,-0.0001164,84.188,-0.00012761,-0.015603,0.52152
26725,8.6691,4.0909,0.1,0.00037072,3704.7,0.00037226,3751.6,-0.00011431,95.744,-0.00012705,-0.0096696,0.53265
26726,8.5768,4.1818,0.1,0.00037353,3732.7,0.00037505,3779.3,-0.0001153,95.001,-0.00012794,-0.012431,0.52205
26727,8.6691,3.9091,0.1,0.00037021,3699.6,0.00037188,3750.8,-0.00011339,104.61,-0.00012732,-0.0068494,0.53306
26728,8.5768,4,0.1,0.00037297,3727.2,0.00037465,3778.5,-0.00011427,105.01,-0.00012825,-0.0092374,0.52249
26729,8.6691,3.7273,0.1,0.00036977,3695.2,0.00037155,3750,-0.0001126,112.29,-0.00012755,-0.0042675,0.53339
26730,8.5768,3.8182,0.1,0.00037248,3722.3,0.00037429,3777.9,-0.00011336,113.92,-0.00012852,-0.0062116,0.52286
26731,8.6691,3.5455,0.1,0.00036942,3691.6,0.00037129,3749.4,-0.00011195,118.55,-0.00012773,-0.0020787,0.53365
26732,8.5768,3.6364,0.1,0.00037207,3718.1,0.00037399,3777.4,-0.00011259,121.43,-0.00012875,-0.0035365,0.52316
26733,8.6691,3.3636,0.1,0.00036915,3689,0.00037109,3749,-0.00011148,123.17,-0.00012787,-0.00041383,0.53383
26734,8.5768,3.4545,0.1,0.00037175,3714.9,0.00037375,3777,-0.00011199,127.3,-0.00012893,-0.0013754,0.52338
26735,8.6691,3.1818,0.1,0.00036899,3687.4,0.00037097,3748.8,-0.00011119,126.01,-0.00012796,0.00062756,0.53394
26736,8.5768,3.2727,0.1,0.00037153,3712.8,0.00037359,3776.7,-0.00011157,131.33,-0.00012905,0.00014351,0.52353
26737,8.6691,3,0.1,0.00036894,3686.8,0.00037093,3748.7,-0.00011109,126.96,-0.00012798,0.00098179,0.53398
26738,8.5768,3.0909,0.1,0.00037142,3711.6,0.00037351,3776.5,-0.00011136,133.38,-0.00012912,0.00092676,0.5236
26739,8.6691,2.8182,0.1,0.00036899,3687.4,0.00037097,3748.8,-0.00011119,126.01,-0.00012796,0.00062741,0.53394
26740,8.5768,2.9091,0.1,0.00037142,3711.6,0.00037351,3776.5,-0.00011136,133.38,-0.00012912,0.00092676,0.5236
26741,8.6691,2.6364,0.1,0.00036915,3689,0.00037109,3749,-0.00011148,123.17,-0.00012787,-0.00041383,0.53383
26742,8.5768,2.7273,0.1,0.00037153,3712.8,0.00037359,3776.7,-0.00011157,131.33,-0.00012905,0.00014336,0.52353
26743,8.6691,2.4545,0.1,0.00036942,3691.6,0.00037129,3749.4,-0.00011195,118.55,-0.00012773,-0.0020789,0.53365
26744,8.5768,2.5455,0.1,0.00037175,3714.9,0.00037375,3777,-0.00011199,127.3,-0.00012893,-0.0013755,0.52338
26745,8.6691,2.2727,0.1,0.00036977,3695.2,0.00037155,3750,-0.0001126,112.29,-0.00012755,-0.004268,0.53339
26746,8.5768,2.3636,0.1,0.00037207,3718.1,0.00037399,3777.4,-0.00011259,121.43,-0.00012875,-0.0035369,0.52316
26747,8.6691,2.0909,0.1,0.00037021,3699.6,0.00037188,3750.8,-0.00011339,104.61,-0.00012732,-0.0068501,0.53306
26748,8.5768,2.1818,0.1,0.00037248,3722.3,0.00037429,3777.9,-0.00011336,113.92,-0.00012852,-0.0062121,0.52286
26749,8.6691,1.9091,0.1,0.00037072,3704.7,0.00037226,3751.6,-0.00011431,95.744,-0.00012705,-0.0096701,0.53265
26750,8.5768,2,0.1,0.00037297,3727.2,0.00037465,3778.5,-0.00011427,105.01,-0.00012825,-0.009238,0.52249
26751,8.6691,1.7273,0.1,0.00037129,3710.3,0.00037268,3752.6,-0.00011532,85.961,-0.00012676,-0.012562,0.53217
26752,8.5768,1.8182,0.1,0.00037353,3732.7,0.00037505,3779.3,-0.0001153,95.001,-0.00012794,-0.012432,0.52205
26753,8.6691,1.5455,0.1,0.0003719,3716.4,0.00037313,3753.6,-0.0001164,75.546,-0.00012645,-0.015363,0.53161
26754,8.5768,1.6364,0.1,0.00037413,3738.7,0.00037549,3780.1,-0.0001164,84.188,-0.00012761,-0.015603,0.52152
26755,8.6691,1.3636,0.1,0.00037254,3722.8,0.0003736,3754.8,-0.00011751,64.783,-0.00012614,-0.017922,0.53097
26756,8.5768,1.4545,0.1,0.00037477,3745.1,0.00037595,3781,-0.00011756,72.892,-0.00012727,-0.018579,0.52093
26757,8.6691,1.1818,0.1,0.0003732,3729.4,0.00037409,3756.1,-0.00011864,53.942,-0.00012582,-0.020159,0.53026
26758,8.5768,1.2727,0.1,0.00037543,3751.7,0.00037643,3782,-0.00011874,61.418,-0.00012692,-0.021188,0.52025
26759,8.6691,1,0.1,0.00037386,3736,0.00037458,3757.5,-0.00011975,43.262,-0.00012551,-0.021938,0.52947
26760,8.5768,1.0909,0.1,0.00037609,3758.3,0.00037692,3783.1,-0.00011992,50.05,-0.00012658,-0.023413,0.51949
26761,8.6691,0.81818,0.1,0.00037453,3742.7,0.00037508,3759,-0.00012084,32.946,-0.00012522,-0.023839,0.5286
26762,8.5768,0.90909,0.1,0.00037676,3765,0.00037741,3784.3,-0.00012106,39.033,-0.00012626,-0.024987,0.51866
26763,8.6691,0.63636,0.1,0.00037519,3749.3,0.00037558,3760.8,-0.00012188,23.144,-0.00012496,-0.024468,0.52765
26764,8.5768,0.72727,0.1,0.00037742,3771.6,0.0003779,3785.8,-0.00012216,28.561,-0.00012596,-0.027369,0.51774
26765,8.6691,0.45455,0.1,0.00037585,3755.9,0.00037608,3762.8,-0.00012286,13.924,-0.00012472,-0.035952,0.52662
26766,8.5768,0.54545,0.1,0.00037807,3778.1,0.00037839,3787.5,-0.00012319,18.768,-0.00012569,-0.026567,0.51675
26767,8.6691,0.27273,0.1,0.00037656,3763,0.00037664,3765.5,-0.00012384,5.0277,-0.00012452,-0.062855,0.52551
26768,8.5768,0.36364,0.1,0.00037873,3784.7,0.00037889,3789.5,-0.00012417,9.6712,-0.00012546,-0.052462,0.51567
26769,8.5768,0.18182,0.1,0.00037948,3792.2,0.00037949,3792.5,-0.00012513,0.97853,-0.00012531,-0.34651,0.51451
26770,8.6691,0.090909,0.1,0.00037691,3766.5,0.0003769,3766.2,-0.00012433,0.12342,-0.00012445,-0.75538,0.52431
26771,8.4844,5.7273,0.1,0.00038164,3813.8,0.00038173,3816.4,-0.00012549,5.4075,-0.00012621,-0.065506,0.50477
26772,8.392,5.8182,0.1,0.00038451,3842.4,0.00038452,3842.9,-0.00012677,1.1804,-0.00012697,-0.29889,0.4939
26773,8.4844,5.9091,0.1,0.00038199,3817.3,0.00038198,3817,-0.00012601,0.15832,-0.00012611,-0.57559,0.50356
26774,8.4844,5.5455,0.1,0.00038095,3806.9,0.00038119,3814.1,-0.0001245,14.53,-0.00012644,-0.039799,0.50589
26775,8.392,5.6364,0.1,0.00038379,3835.2,0.00038395,3840.2,-0.00012581,9.9774,-0.00012715,-0.05632,0.49507
26776,8.4844,5.3636,0.1,0.0003803,3800.4,0.00038071,3812.4,-0.00012347,24.2,-0.0001267,-0.028657,0.50693
26777,8.392,5.4545,0.1,0.00038316,3828.9,0.00038348,3838.6,-0.00012482,19.389,-0.0001274,-0.031246,0.49615
26778,8.4844,5.1818,0.1,0.00037965,3793.9,0.00038023,3811.1,-0.00012238,34.663,-0.000127,-0.028157,0.50789
26779,8.392,5.2727,0.1,0.00038252,3822.6,0.00038302,3837.3,-0.00012374,29.738,-0.0001277,-0.032236,0.49716
26780,8.4844,5,0.1,0.00037899,3787.2,0.00037974,3809.9,-0.00012123,45.834,-0.00012733,-0.026247,0.50877
26781,8.392,5.0909,0.1,0.00038187,3816.1,0.00038255,3836.4,-0.00012259,40.996,-0.00012805,-0.029975,0.49808
26782,8.4844,4.8182,0.1,0.00037832,3780.6,0.00037926,3809,-0.00012002,57.538,-0.00012769,-0.024284,0.50956
26783,8.392,4.9091,0.1,0.00038121,3809.5,0.00038208,3835.7,-0.00012136,53.005,-0.00012842,-0.028294,0.49892
26784,8.4844,4.6364,0.1,0.00037765,3773.9,0.00037878,3808.2,-0.0001188,69.536,-0.00012805,-0.021712,0.51028
26785,8.392,4.7273,0.1,0.00038054,3802.8,0.00038162,3835.1,-0.00012009,65.538,-0.00012881,-0.025777,0.49968
26786,8.4844,4.4545,0.1,0.00037699,3767.3,0.00037831,3807.4,-0.00011757,81.542,-0.00012843,-0.018695,0.51092
26787,8.392,4.5455,0.1,0.00037988,3796.2,0.00038115,3834.7,-0.0001188,78.302,-0.00012922,-0.022714,0.50036
26788,8.4844,4.2727,0.1,0.00037636,3761,0.00037786,3806.8,-0.00011638,93.234,-0.00012879,-0.015351,0.51149
26789,8.392,4.3636,0.1,0.00037923,3789.7,0.00038069,3834.3,-0.00011752,90.962,-0.00012963,-0.019167,0.50097
26790,8.4844,4.0909,0.1,0.00037578,3755.2,0.00037744,3806.2,-0.00011526,104.28,-0.00012914,-0.011876,0.51197
26791,8.392,4.1818,0.1,0.00037861,3783.5,0.00038026,3834,-0.00011629,103.15,-0.00013002,-0.015355,0.50149
26792,8.4844,3.9091,0.1,0.00037524,3749.8,0.00037706,3805.7,-0.00011423,114.32,-0.00012945,-0.0084733,0.51238
26793,8.392,4,0.1,0.00037804,3777.8,0.00037985,3833.7,-0.00011514,114.49,-0.00013038,-0.011499,0.50194
26794,8.4844,3.7273,0.1,0.00037478,3745.2,0.00037672,3805.2,-0.00011335,123.06,-0.00012972,-0.0053511,0.51272
26795,8.392,3.8182,0.1,0.00037753,3772.7,0.00037949,3833.4,-0.00011412,124.61,-0.00013071,-0.0078362,0.50232
26796,8.4844,3.5455,0.1,0.00037441,3741.5,0.00037645,3804.9,-0.00011262,130.18,-0.00012995,-0.0027006,0.51298
26797,8.392,3.6364,0.1,0.0003771,3768.4,0.00037919,3833.2,-0.00011326,133.17,-0.00013098,-0.0045939,0.50261
26798,8.4844,3.3636,0.1,0.00037413,3738.7,0.00037625,3804.6,-0.00011208,135.46,-0.00013011,-0.00068324,0.51316
26799,8.392,3.4545,0.1,0.00037676,3765,0.00037895,3833,-0.00011258,139.88,-0.0001312,-0.0019727,0.50284
26800,8.4844,3.1818,0.1,0.00037396,3737,0.00037613,3804.5,-0.00011175,138.7,-0.00013021,0.00057897,0.51327
26801,8.392,3.2727,0.1,0.00037654,3762.8,0.00037878,3832.9,-0.00011211,144.49,-0.00013134,-0.0001297,0.50298
26802,8.4844,3,0.1,0.0003739,3736.5,0.00037609,3804.4,-0.00011164,139.8,-0.00013025,0.0010085,0.51331
26803,8.392,3.0909,0.1,0.00037642,3761.6,0.0003787,3832.9,-0.00011188,146.83,-0.00013142,0.00082071,0.50306
26804,8.4844,2.8182,0.1,0.00037396,3737,0.00037613,3804.5,-0.00011175,138.7,-0.00013021,0.00057897,0.51327
26805,8.392,2.9091,0.1,0.00037642,3761.6,0.0003787,3832.9,-0.00011188,146.83,-0.00013142,0.00082068,0.50306
26806,8.4844,2.6364,0.1,0.00037413,3738.7,0.00037625,3804.6,-0.00011208,135.46,-0.00013011,-0.00068345,0.51316
26807,8.392,2.7273,0.1,0.00037654,3762.8,0.00037878,3832.9,-0.00011211,144.49,-0.00013134,-0.00012994,0.50298
26808,8.4844,2.4545,0.1,0.00037441,3741.5,0.00037645,3804.9,-0.00011262,130.18,-0.00012995,-0.002701,0.51298
26809,8.392,2.5455,0.1,0.00037676,3765,0.00037895,3833,-0.00011258,139.88,-0.0001312,-0.0019728,0.50284
26810,8.4844,2.2727,0.1,0.00037478,3745.2,0.00037672,3805.2,-0.00011335,123.06,-0.00012972,-0.0053515,0.51272
26811,8.392,2.3636,0.1,0.0003771,3768.4,0.00037919,3833.2,-0.00011326,133.17,-0.00013098,-0.0045943,0.50261
26812,8.4844,2.0909,0.1,0.00037524,3749.8,0.00037706,3805.7,-0.00011423,114.32,-0.00012945,-0.0084737,0.51238
26813,8.392,2.1818,0.1,0.00037753,3772.7,0.00037949,3833.4,-0.00011412,124.61,-0.00013071,-0.0078366,0.50232
26814,8.4844,1.9091,0.1,0.00037578,3755.2,0.00037744,3806.2,-0.00011526,104.28,-0.00012914,-0.011876,0.51197
26815,8.392,2,0.1,0.00037804,3777.8,0.00037985,3833.7,-0.00011514,114.49,-0.00013038,-0.011499,0.50194
26816,8.4844,1.7273,0.1,0.00037636,3761,0.00037786,3806.8,-0.00011638,93.234,-0.00012879,-0.015351,0.51149
26817,8.392,1.8182,0.1,0.00037861,3783.5,0.00038026,3834,-0.00011629,103.15,-0.00013002,-0.015355,0.50149
26818,8.4844,1.5455,0.1,0.00037699,3767.3,0.00037831,3807.4,-0.00011757,81.542,-0.00012843,-0.018695,0.51092
26819,8.392,1.6364,0.1,0.00037923,3789.7,0.00038069,3834.3,-0.00011752,90.962,-0.00012963,-0.019168,0.50097
26820,8.4844,1.3636,0.1,0.00037765,3773.9,0.00037878,3808.2,-0.0001188,69.536,-0.00012805,-0.021712,0.51028
26821,8.392,1.4545,0.1,0.00037988,3796.2,0.00038115,3834.7,-0.0001188,78.302,-0.00012922,-0.022715,0.50036
26822,8.4844,1.1818,0.1,0.00037832,3780.6,0.00037926,3809,-0.00012002,57.538,-0.00012769,-0.024285,0.50956
26823,8.392,1.2727,0.1,0.00038054,3802.8,0.00038162,3835.1,-0.00012009,65.538,-0.00012881,-0.025778,0.49968
26824,8.4844,1,0.1,0.00037899,3787.2,0.00037974,3809.9,-0.00012123,45.835,-0.00012733,-0.026248,0.50877
26825,8.392,1.0909,0.1,0.00038121,3809.5,0.00038208,3835.7,-0.00012136,53.005,-0.00012842,-0.028295,0.49892
26826,8.4844,0.81818,0.1,0.00037965,3793.9,0.00038023,3811.1,-0.00012238,34.663,-0.000127,-0.028158,0.50789
26827,8.392,0.90909,0.1,0.00038187,3816.1,0.00038255,3836.4,-0.00012259,40.996,-0.00012805,-0.029977,0.49808
26828,8.4844,0.63636,0.1,0.0003803,3800.4,0.00038071,3812.4,-0.00012347,24.2,-0.0001267,-0.028658,0.50693
26829,8.392,0.72727,0.1,0.00038252,3822.6,0.00038302,3837.3,-0.00012374,29.738,-0.0001277,-0.032237,0.49716
26830,8.4844,0.45455,0.1,0.00038095,3806.9,0.00038119,3814.1,-0.0001245,14.53,-0.00012644,-0.039799,0.50589
26831,8.392,0.54545,0.1,0.00038316,3828.9,0.00038348,3838.6,-0.00012482,19.389,-0.0001274,-0.031246,0.49615
26832,8.4844,0.27273,0.1,0.00038164,3813.8,0.00038173,3816.4,-0.00012549,5.4075,-0.00012621,-0.065507,0.50477
26833,8.392,0.36364,0.1,0.00038379,3835.2,0.00038395,3840.2,-0.00012581,9.9774,-0.00012715,-0.05632,0.49507
26834,8.392,0.18182,0.1,0.00038451,3842.4,0.00038452,3842.9,-0.00012677,1.1804,-0.00012697,-0.29889,0.4939
26835,8.4844,0.090909,0.1,0.00038199,3817.3,0.00038198,3817,-0.00012601,0.15832,-0.00012611,-0.57558,0.50356
26836,8.2997,5.7273,0.1,0.00038665,3863.8,0.00038674,3866.6,-0.00012712,5.5842,-0.00012788,-0.0695,0.48429
26837,8.2073,5.8182,0.1,0.00038944,3891.7,0.00038946,3892.2,-0.0001284,1.2459,-0.0001286,-0.28851,0.47354
26838,8.2997,5.9091,0.1,0.00038698,3867.1,0.00038698,3867,-0.00012767,0.1778,-0.00012775,-0.46481,0.48307
26839,8.2997,5.5455,0.1,0.00038599,3857.2,0.00038624,3864.6,-0.00012613,14.852,-0.00012812,-0.044322,0.48542
26840,8.2073,5.6364,0.1,0.00038877,3885,0.00038893,3889.9,-0.00012745,9.9915,-0.00012879,-0.060727,0.47472
26841,8.2997,5.3636,0.1,0.00038537,3851.1,0.00038579,3863.4,-0.00012508,24.943,-0.00012841,-0.03393,0.48647
26842,8.2073,5.4545,0.1,0.00038818,3879.1,0.00038851,3888.9,-0.00012645,19.653,-0.00012907,-0.037231,0.47582
26843,8.2997,5.1818,0.1,0.00038474,3844.8,0.00038534,3862.7,-0.00012394,36.086,-0.00012875,-0.033644,0.48744
26844,8.2073,5.2727,0.1,0.00038758,3873.1,0.00038809,3888.3,-0.00012534,30.548,-0.00012941,-0.038471,0.47683
26845,8.2997,5,0.1,0.00038409,3838.3,0.00038489,3862.1,-0.00012272,48.18,-0.00012913,-0.031769,0.48832
26846,8.2073,5.0909,0.1,0.00038696,3866.9,0.00038767,3888,-0.00012413,42.635,-0.00012981,-0.036421,0.47776
26847,8.2997,4.8182,0.1,0.00038344,3831.7,0.00038444,3861.8,-0.00012142,61.017,-0.00012955,-0.029595,0.48912
26848,8.2073,4.9091,0.1,0.00038632,3860.5,0.00038724,3888.1,-0.00012282,55.731,-0.00013024,-0.034613,0.47861
26849,8.2997,4.6364,0.1,0.00038277,3825.1,0.00038398,3861.7,-0.00012009,74.314,-0.00012998,-0.026613,0.48985
26850,8.2073,4.7273,0.1,0.00038567,3854,0.0003868,3888.3,-0.00012144,69.564,-0.0001307,-0.031731,0.47938
26851,8.2997,4.4545,0.1,0.00038211,3818.5,0.00038353,3861.6,-0.00011874,87.73,-0.00013042,-0.023029,0.49049
26852,8.2073,4.5455,0.1,0.00038501,3847.4,0.00038636,3888.6,-0.00012003,83.788,-0.00013118,-0.028097,0.48006
26853,8.2997,4.2727,0.1,0.00038147,3812.1,0.00038309,3861.5,-0.00011742,100.88,-0.00013085,-0.019015,0.49106
26854,8.2073,4.3636,0.1,0.00038436,3840.9,0.00038593,3889,-0.00011862,98.001,-0.00013166,-0.023835,0.48067
26855,8.2997,4.0909,0.1,0.00038087,3806.1,0.00038267,3861.5,-0.00011617,113.37,-0.00013126,-0.014819,0.49155
26856,8.2073,4.1818,0.1,0.00038373,3834.7,0.00038551,3889.3,-0.00011725,111.77,-0.00013213,-0.019223,0.4812
26857,8.2997,3.9091,0.1,0.00038032,3800.6,0.00038229,3861.4,-0.00011503,124.78,-0.00013164,-0.010699,0.49196
26858,8.2073,4,0.1,0.00038315,3828.9,0.00038512,3889.7,-0.00011597,124.63,-0.00013256,-0.014544,0.48165
26859,8.2997,3.7273,0.1,0.00037984,3795.8,0.00038196,3861.4,-0.00011403,134.73,-0.00013196,-0.006913,0.4923
26860,8.2073,3.8182,0.1,0.00038263,3823.7,0.00038477,3889.9,-0.00011483,136.16,-0.00013295,-0.010096,0.48203
26861,8.2997,3.5455,0.1,0.00037946,3791.9,0.00038169,3861.4,-0.00011322,142.87,-0.00013223,-0.0036966,0.49256
26862,8.2073,3.6364,0.1,0.00038219,3819.3,0.00038447,3890.2,-0.00011386,145.94,-0.00013328,-0.0061551,0.48232
26863,8.2997,3.3636,0.1,0.00037917,3789.1,0.00038148,3861.3,-0.00011261,148.91,-0.00013243,-0.0012473,0.49274
26864,8.2073,3.4545,0.1,0.00038185,3815.9,0.00038423,3890.3,-0.0001131,153.61,-0.00013354,-0.0029685,0.48255
26865,8.2997,3.1818,0.1,0.00037899,3787.3,0.00038136,3861.3,-0.00011224,152.62,-0.00013255,0.00028543,0.49285
26866,8.2073,3.2727,0.1,0.00038161,3813.5,0.00038407,3890.5,-0.00011257,158.9,-0.00013372,-0.00072861,0.4827
26867,8.2997,3,0.1,0.00037893,3786.7,0.00038132,3861.3,-0.00011211,153.87,-0.00013259,0.00080682,0.49289
26868,8.2073,3.0909,0.1,0.00038149,3812.3,0.00038398,3890.5,-0.00011231,161.59,-0.00013381,0.0004266,0.48277
26869,8.2997,2.8182,0.1,0.00037899,3787.3,0.00038136,3861.3,-0.00011224,152.62,-0.00013255,0.00028516,0.49285
26870,8.2073,2.9091,0.1,0.00038149,3812.3,0.00038398,3890.5,-0.00011231,161.59,-0.00013381,0.00042646,0.48277
26871,8.2997,2.6364,0.1,0.00037917,3789.1,0.00038148,3861.3,-0.00011261,148.91,-0.00013243,-0.0012474,0.49274
26872,8.2073,2.7273,0.1,0.00038161,3813.5,0.00038407,3890.5,-0.00011257,158.9,-0.00013372,-0.00072882,0.4827
26873,8.2997,2.4545,0.1,0.00037946,3791.9,0.00038169,3861.4,-0.00011322,142.87,-0.00013223,-0.0036968,0.49256
26874,8.2073,2.5455,0.1,0.00038185,3815.9,0.00038423,3890.3,-0.0001131,153.61,-0.00013354,-0.0029685,0.48255
26875,8.2997,2.2727,0.1,0.00037985,3795.8,0.00038196,3861.4,-0.00011403,134.73,-0.00013196,-0.0069134,0.4923
26876,8.2073,2.3636,0.1,0.00038219,3819.3,0.00038447,3890.2,-0.00011386,145.94,-0.00013328,-0.0061553,0.48232
26877,8.2997,2.0909,0.1,0.00038032,3800.6,0.00038229,3861.4,-0.00011503,124.78,-0.00013164,-0.0107,0.49196
26878,8.2073,2.1818,0.1,0.00038263,3823.7,0.00038477,3889.9,-0.00011483,136.16,-0.00013295,-0.010096,0.48203
26879,8.2997,1.9091,0.1,0.00038087,3806.1,0.00038267,3861.5,-0.00011617,113.37,-0.00013126,-0.014819,0.49155
26880,8.2073,2,0.1,0.00038315,3828.9,0.00038512,3889.7,-0.00011597,124.63,-0.00013256,-0.014545,0.48165
26881,8.2997,1.7273,0.1,0.00038147,3812.1,0.00038309,3861.5,-0.00011742,100.88,-0.00013085,-0.019015,0.49106
26882,8.2073,1.8182,0.1,0.00038373,3834.7,0.00038551,3889.3,-0.00011725,111.77,-0.00013213,-0.019223,0.4812
26883,8.2997,1.5455,0.1,0.00038211,3818.5,0.00038353,3861.6,-0.00011874,87.73,-0.00013042,-0.02303,0.49049
26884,8.2073,1.6364,0.1,0.00038436,3840.9,0.00038593,3889,-0.00011862,98.001,-0.00013166,-0.023835,0.48067
26885,8.2997,1.3636,0.1,0.00038277,3825.1,0.00038398,3861.7,-0.00012009,74.314,-0.00012998,-0.026614,0.48985
26886,8.2073,1.4545,0.1,0.00038501,3847.4,0.00038636,3888.6,-0.00012003,83.788,-0.00013118,-0.028098,0.48006
26887,8.2997,1.1818,0.1,0.00038344,3831.7,0.00038444,3861.8,-0.00012142,61.017,-0.00012955,-0.029596,0.48912
26888,8.2073,1.2727,0.1,0.00038567,3854,0.0003868,3888.3,-0.00012144,69.564,-0.0001307,-0.031731,0.47938
26889,8.2997,1,0.1,0.0003841,3838.3,0.00038489,3862.1,-0.00012272,48.18,-0.00012913,-0.03177,0.48832
26890,8.2073,1.0909,0.1,0.00038632,3860.5,0.00038724,3888.1,-0.00012282,55.731,-0.00013024,-0.034614,0.47861
26891,8.2997,0.81818,0.1,0.00038474,3844.8,0.00038534,3862.7,-0.00012394,36.086,-0.00012875,-0.033645,0.48744
26892,8.2073,0.90909,0.1,0.00038696,3866.9,0.00038767,3888,-0.00012413,42.635,-0.00012981,-0.036423,0.47776
26893,8.2997,0.63636,0.1,0.00038537,3851.1,0.00038579,3863.4,-0.00012508,24.943,-0.00012841,-0.03393,0.48647
26894,8.2073,0.72727,0.1,0.00038758,3873.1,0.00038809,3888.3,-0.00012534,30.548,-0.00012941,-0.038472,0.47683
26895,8.2997,0.45455,0.1,0.00038599,3857.2,0.00038624,3864.6,-0.00012613,14.852,-0.00012812,-0.044323,0.48542
26896,8.2073,0.54545,0.1,0.00038818,3879.1,0.00038851,3888.9,-0.00012645,19.653,-0.00012907,-0.037231,0.47582
26897,8.2997,0.27273,0.1,0.00038665,3863.8,0.00038674,3866.6,-0.00012712,5.5842,-0.00012788,-0.069501,0.48429
26898,8.2073,0.36364,0.1,0.00038877,3885,0.00038893,3889.9,-0.00012745,9.9915,-0.00012879,-0.060729,0.47472
26899,8.2073,0.18182,0.1,0.00038944,3891.7,0.00038946,3892.2,-0.0001284,1.2459,-0.0001286,-0.28851,0.47354
26900,8.2997,0.090909,0.1,0.00038698,3867.1,0.00038698,3867,-0.00012767,0.1778,-0.00012775,-0.46481,0.48307
26901,8.115,5.7273,0.1,0.00039155,3912.8,0.00039164,3915.5,-0.00012875,5.5013,-0.00012949,-0.075406,0.46407
26902,8.0226,5.8182,0.1,0.00039424,3939.7,0.00039425,3940.1,-0.00012999,1.1295,-0.00013018,-0.31549,0.45346
26903,8.115,5.9091,0.1,0.00039185,3915.8,0.00039185,3915.7,-0.00012928,0.15642,-0.00012935,-0.4209,0.46284
26904,8.115,5.5455,0.1,0.00039095,3906.8,0.0003912,3914.1,-0.00012777,14.808,-0.00012975,-0.049927,0.46521
26905,8.0226,5.6364,0.1,0.00039364,3933.6,0.0003938,3938.4,-0.00012909,9.6351,-0.00013038,-0.066283,0.45465
26906,8.115,5.3636,0.1,0.00039038,3901.1,0.0003908,3913.7,-0.00012671,25.274,-0.00013008,-0.040769,0.46627
26907,8.0226,5.4545,0.1,0.00039311,3928.4,0.00039344,3938.1,-0.0001281,19.458,-0.00013069,-0.045196,0.45575
26908,8.115,5.1818,0.1,0.00038979,3895.2,0.00039041,3913.6,-0.00012552,37.113,-0.00013047,-0.040774,0.46725
26909,8.0226,5.2727,0.1,0.00039257,3923,0.00039309,3938.3,-0.00012696,30.879,-0.00013108,-0.046704,0.45677
26910,8.115,5,0.1,0.00038918,3889.1,0.00039001,3914,-0.00012423,50.2,-0.00013091,-0.038962,0.46814
26911,8.0226,5.0909,0.1,0.00039201,3917.3,0.00039273,3939.1,-0.00012569,43.84,-0.00013153,-0.044922,0.45771
26912,8.115,4.8182,0.1,0.00038855,3882.8,0.0003896,3914.5,-0.00012283,64.29,-0.0001314,-0.036512,0.46895
26913,8.0226,4.9091,0.1,0.00039141,3911.4,0.00039237,3940.1,-0.0001243,58.124,-0.00013204,-0.042913,0.45856
26914,8.115,4.6364,0.1,0.0003879,3876.3,0.00038919,3915.2,-0.00012138,79.048,-0.00013191,-0.033003,0.46968
26915,8.0226,4.7273,0.1,0.00039079,3905.2,0.00039199,3941.4,-0.00012281,73.409,-0.00013258,-0.039533,0.45934
26916,8.115,4.4545,0.1,0.00038725,3869.9,0.00038877,3916,-0.0001199,94.066,-0.00013243,-0.028699,0.47033
26917,8.0226,4.5455,0.1,0.00039016,3898.9,0.0003916,3942.8,-0.00012127,89.283,-0.00013315,-0.035149,0.46003
26918,8.115,4.2727,0.1,0.00038662,3863.5,0.00038835,3916.8,-0.00011845,108.89,-0.00013294,-0.02384,0.4709
26919,8.0226,4.3636,0.1,0.00038953,3892.6,0.00039121,3944.1,-0.00011971,105.27,-0.00013373,-0.029968,0.46064
26920,8.115,4.0909,0.1,0.00038602,3857.5,0.00038796,3917.5,-0.00011705,123.04,-0.00013343,-0.018742,0.47139
26921,8.0226,4.1818,0.1,0.00038891,3886.4,0.00039083,3945.4,-0.0001182,120.84,-0.00013428,-0.024342,0.46117
26922,8.115,3.9091,0.1,0.00038546,3852,0.0003876,3918.2,-0.00011578,136.02,-0.00013388,-0.013731,0.4718
26923,8.0226,4,0.1,0.00038834,3880.7,0.00039046,3946.6,-0.00011677,135.47,-0.0001348,-0.018633,0.46162
26924,8.115,3.7273,0.1,0.00038498,3847.2,0.00038728,3918.7,-0.00011466,147.38,-0.00013427,-0.0091239,0.47214
26925,8.0226,3.8182,0.1,0.00038782,3875.5,0.00039013,3947.7,-0.00011549,148.62,-0.00013527,-0.013205,0.462
26926,8.115,3.5455,0.1,0.00038459,3843.2,0.00038701,3919.2,-0.00011374,156.69,-0.0001346,-0.0052098,0.4724
26927,8.0226,3.6364,0.1,0.00038738,3871.1,0.00038985,3948.6,-0.0001144,159.81,-0.00013567,-0.0083996,0.4623
26928,8.115,3.3636,0.1,0.00038429,3840.3,0.00038681,3919.5,-0.00011306,163.61,-0.00013483,-0.0022302,0.47259
26929,8.0226,3.4545,0.1,0.00038703,3867.7,0.00038963,3949.2,-0.00011354,168.6,-0.00013598,-0.0045165,0.46252
26930,8.115,3.1818,0.1,0.00038411,3838.5,0.00038669,3919.7,-0.00011264,167.87,-0.00013498,-0.00036637,0.4727
26931,8.0226,3.2727,0.1,0.0003868,3865.3,0.00038947,3949.7,-0.00011295,174.67,-0.0001362,-0.001789,0.46267
26932,8.115,3,0.1,0.00038405,3837.9,0.00038665,3919.7,-0.0001125,169.31,-0.00013503,0.00026781,0.47273
26933,8.0226,3.0909,0.1,0.00038667,3864.1,0.00038939,3949.9,-0.00011265,177.76,-0.00013631,-0.00038311,0.46275
26934,8.115,2.8182,0.1,0.00038411,3838.5,0.00038669,3919.7,-0.00011264,167.87,-0.00013498,-0.00036646,0.4727
26935,8.0226,2.9091,0.1,0.00038667,3864.1,0.00038939,3949.9,-0.00011265,177.76,-0.00013631,-0.00038293,0.46275
26936,8.115,2.6364,0.1,0.00038429,3840.3,0.00038681,3919.5,-0.00011306,163.61,-0.00013483,-0.0022304,0.47259
26937,8.0226,2.7273,0.1,0.0003868,3865.3,0.00038947,3949.7,-0.00011295,174.67,-0.0001362,-0.0017893,0.46267
26938,8.115,2.4545,0.1,0.00038459,3843.2,0.00038701,3919.2,-0.00011374,156.69,-0.0001346,-0.00521,0.4724
26939,8.0226,2.5455,0.1,0.00038703,3867.7,0.00038963,3949.2,-0.00011354,168.6,-0.00013598,-0.0045166,0.46252
26940,8.115,2.2727,0.1,0.00038498,3847.2,0.00038728,3918.7,-0.00011466,147.38,-0.00013427,-0.0091241,0.47214
26941,8.0226,2.3636,0.1,0.00038738,3871.1,0.00038985,3948.6,-0.0001144,159.81,-0.00013567,-0.0083999,0.4623
26942,8.115,2.0909,0.1,0.00038546,3852,0.0003876,3918.2,-0.00011578,136.02,-0.00013388,-0.013732,0.4718
26943,8.0226,2.1818,0.1,0.00038782,3875.5,0.00039013,3947.7,-0.00011549,148.62,-0.00013527,-0.013205,0.462
26944,8.115,1.9091,0.1,0.00038602,3857.5,0.00038796,3917.5,-0.00011705,123.04,-0.00013343,-0.018743,0.47139
26945,8.0226,2,0.1,0.00038834,3880.7,0.00039046,3946.6,-0.00011677,135.47,-0.0001348,-0.018633,0.46162
26946,8.115,1.7273,0.1,0.00038662,3863.5,0.00038835,3916.8,-0.00011845,108.89,-0.00013294,-0.02384,0.4709
26947,8.0226,1.8182,0.1,0.00038891,3886.4,0.00039083,3945.4,-0.0001182,120.84,-0.00013428,-0.024343,0.46117
26948,8.115,1.5455,0.1,0.00038725,3869.9,0.00038877,3916,-0.0001199,94.066,-0.00013243,-0.0287,0.47033
26949,8.0226,1.6364,0.1,0.00038953,3892.6,0.00039121,3944.1,-0.00011971,105.27,-0.00013373,-0.029968,0.46064
26950,8.115,1.3636,0.1,0.0003879,3876.3,0.00038919,3915.2,-0.00012138,79.048,-0.00013191,-0.033004,0.46968
26951,8.0226,1.4545,0.1,0.00039016,3898.9,0.0003916,3942.8,-0.00012127,89.283,-0.00013315,-0.03515,0.46003
26952,8.115,1.1818,0.1,0.00038855,3882.8,0.0003896,3914.5,-0.00012283,64.29,-0.0001314,-0.036512,0.46895
26953,8.0226,1.2727,0.1,0.00039079,3905.2,0.00039199,3941.4,-0.00012281,73.409,-0.00013258,-0.039534,0.45934
26954,8.115,1,0.1,0.00038918,3889.1,0.00039001,3914,-0.00012423,50.2,-0.00013091,-0.038963,0.46814
26955,8.0226,1.0909,0.1,0.00039141,3911.4,0.00039237,3940.1,-0.0001243,58.124,-0.00013204,-0.042913,0.45856
26956,8.115,0.81818,0.1,0.00038979,3895.2,0.00039041,3913.6,-0.00012552,37.113,-0.00013047,-0.040775,0.46725
26957,8.0226,0.90909,0.1,0.00039201,3917.3,0.00039273,3939.1,-0.00012569,43.84,-0.00013153,-0.044924,0.45771
26958,8.115,0.63636,0.1,0.00039038,3901.1,0.0003908,3913.7,-0.00012671,25.274,-0.00013008,-0.04077,0.46627
26959,8.0226,0.72727,0.1,0.00039257,3923,0.00039309,3938.3,-0.00012696,30.879,-0.00013108,-0.046705,0.45677
26960,8.115,0.45455,0.1,0.00039095,3906.8,0.0003912,3914.2,-0.00012777,14.808,-0.00012975,-0.049928,0.46521
26961,8.0226,0.54545,0.1,0.00039311,3928.4,0.00039344,3938.1,-0.0001281,19.458,-0.00013069,-0.045196,0.45575
26962,8.115,0.27273,0.1,0.00039155,3912.8,0.00039164,3915.5,-0.00012875,5.5013,-0.00012949,-0.075408,0.46407
26963,8.0226,0.36364,0.1,0.00039364,3933.6,0.0003938,3938.4,-0.00012909,9.6351,-0.00013038,-0.066284,0.45465
26964,8.0226,0.18182,0.1,0.00039424,3939.7,0.00039425,3940.1,-0.00012999,1.1295,-0.00013018,-0.31549,0.45346
26965,8.115,0.090909,0.1,0.00039185,3915.8,0.00039185,3915.7,-0.00012928,0.15642,-0.00012935,-0.42089,0.46284
26966,7.9303,5.7273,0.1,0.00039631,3960.4,0.0003964,3962.9,-0.00013035,5.0924,-0.00013104,-0.084745,0.44412
26967,7.8379,5.8182,0.1,0.00039886,3985.8,0.00039886,3986,-0.00013153,0.81516,-0.0001317,-0.4178,0.43364
26968,7.9303,5.9091,0.1,0.00039656,3962.8,0.00039655,3962.6,-0.00013083,0.083912,-0.00013091,-0.4611,0.44288
26969,7.9303,5.5455,0.1,0.00039579,3955.2,0.00039603,3962.3,-0.00012941,14.3,-0.00013132,-0.057395,0.44527
26970,7.8379,5.6364,0.1,0.00039835,3980.8,0.0003985,3985.1,-0.00013072,8.8168,-0.0001319,-0.074424,0.43484
26971,7.9303,5.3636,0.1,0.0003953,3950.3,0.00039572,3962.7,-0.00012835,25.079,-0.00013169,-0.049978,0.44634
26972,7.8379,5.4545,0.1,0.00039792,3976.5,0.00039824,3985.8,-0.00012975,18.686,-0.00013224,-0.056374,0.43595
26973,7.9303,5.1818,0.1,0.00039478,3945.1,0.00039541,3963.7,-0.00012713,37.622,-0.00013214,-0.050289,0.44732
26974,7.8379,5.2727,0.1,0.00039747,3972,0.00039798,3987.2,-0.0001286,30.599,-0.00013268,-0.058002,0.43698
26975,7.9303,5,0.1,0.00039423,3939.6,0.00039509,3965.2,-0.00012576,51.778,-0.00013266,-0.048499,0.44822
26976,7.8379,5.0909,0.1,0.00039699,3967.2,0.00039773,3989.2,-0.00012728,44.476,-0.00013321,-0.056405,0.43792
26977,7.9303,4.8182,0.1,0.00039365,3933.8,0.00039475,3967,-0.00012427,67.255,-0.00013323,-0.045632,0.44904
26978,7.8379,4.9091,0.1,0.00039647,3962,0.00039746,3991.6,-0.0001258,60.06,-0.0001338,-0.053994,0.43878
26979,7.9303,4.6364,0.1,0.00039305,3927.7,0.0003944,3968.9,-0.00012269,83.654,-0.00013383,-0.041403,0.44977
26980,7.8379,4.7273,0.1,0.00039591,3956.4,0.00039717,3994.3,-0.0001242,76.966,-0.00013445,-0.049868,0.43956
26981,7.9303,4.4545,0.1,0.00039243,3921.6,0.00039404,3970.9,-0.00012107,100.49,-0.00013445,-0.03615,0.45042
26982,7.8379,4.5455,0.1,0.00039533,3950.6,0.00039686,3997.1,-0.00012252,94.706,-0.00013513,-0.04445,0.44026
26983,7.9303,4.2727,0.1,0.00039182,3915.5,0.00039368,3972.8,-0.00011946,117.23,-0.00013507,-0.030203,0.451
26984,7.8379,4.3636,0.1,0.00039475,3944.7,0.00039654,3999.9,-0.00012081,112.71,-0.00013581,-0.038052,0.44087
26985,7.9303,4.0909,0.1,0.00039123,3909.6,0.00039333,3974.6,-0.00011791,133.28,-0.00013565,-0.023963,0.45149
26986,7.8379,4.1818,0.1,0.00039417,3938.9,0.00039622,4002.5,-0.00011913,130.36,-0.00013648,-0.031119,0.4414
26987,7.9303,3.9091,0.1,0.00039069,3904.2,0.000393,3976.2,-0.00011649,148.07,-0.0001362,-0.017833,0.45191
26988,7.8379,4,0.1,0.00039362,3933.5,0.00039591,4004.9,-0.00011754,147.01,-0.00013711,-0.0241,0.44186
26989,7.9303,3.7273,0.1,0.00039022,3899.5,0.00039271,3977.5,-0.00011523,161.06,-0.00013667,-0.012203,0.45224
26990,7.8379,3.8182,0.1,0.00039312,3928.5,0.00039563,4007,-0.00011611,162.04,-0.00013767,-0.017442,0.44224
26991,7.9303,3.5455,0.1,0.00038983,3895.6,0.00039246,3978.6,-0.0001142,171.73,-0.00013706,-0.0074269,0.45251
26992,7.8379,3.6364,0.1,0.00039269,3924.2,0.00039538,4008.7,-0.00011488,174.85,-0.00013815,-0.011562,0.44254
26993,7.9303,3.3636,0.1,0.00038954,3892.7,0.00039228,3979.4,-0.00011343,179.67,-0.00013734,-0.0037941,0.45269
26994,7.8379,3.4545,0.1,0.00039236,3920.9,0.00039518,4010.1,-0.00011392,184.95,-0.00013853,-0.0068176,0.44276
26995,7.9303,3.1818,0.1,0.00038936,3890.9,0.00039217,3979.9,-0.00011296,184.56,-0.00013752,-0.0015233,0.45281
26996,7.8379,3.2727,0.1,0.00039212,3918.5,0.00039504,4011,-0.00011325,191.92,-0.00013879,-0.0034898,0.44291
26997,7.9303,3,0.1,0.0003893,3890.3,0.00039213,3980,-0.0001128,186.22,-0.00013758,-0.00075101,0.45284
26998,7.8379,3.0909,0.1,0.000392,3917.3,0.00039496,4011.4,-0.00011291,195.47,-0.00013892,-0.0017762,0.44299
26999,7.9303,2.8182,0.1,0.00038936,3890.9,0.00039217,3979.9,-0.00011296,184.56,-0.00013752,-0.0015233,0.45281
27000,7.8379,2.9091,0.1,0.000392,3917.3,0.00039496,4011.4,-0.00011291,195.47,-0.00013892,-0.0017762,0.44299
27001,7.9303,2.6364,0.1,0.00038954,3892.7,0.00039228,3979.4,-0.00011343,179.67,-0.00013734,-0.0037942,0.45269
27002,7.8379,2.7273,0.1,0.00039212,3918.5,0.00039504,4011,-0.00011325,191.91,-0.00013879,-0.0034903,0.44291
27003,7.9303,2.4545,0.1,0.00038983,3895.6,0.00039246,3978.6,-0.0001142,171.73,-0.00013706,-0.0074271,0.45251
27004,7.8379,2.5455,0.1,0.00039236,3920.9,0.00039518,4010.1,-0.00011392,184.95,-0.00013853,-0.0068178,0.44276
27005,7.9303,2.2727,0.1,0.00039022,3899.5,0.00039271,3977.5,-0.00011523,161.06,-0.00013667,-0.012204,0.45224
27006,7.8379,2.3636,0.1,0.00039269,3924.2,0.00039538,4008.7,-0.00011488,174.85,-0.00013815,-0.011562,0.44254
27007,7.9303,2.0909,0.1,0.00039069,3904.2,0.000393,3976.2,-0.00011649,148.07,-0.0001362,-0.017833,0.45191
27008,7.8379,2.1818,0.1,0.00039312,3928.5,0.00039563,4007,-0.00011611,162.04,-0.00013767,-0.017443,0.44224
27009,7.9303,1.9091,0.1,0.00039123,3909.6,0.00039333,3974.6,-0.00011791,133.28,-0.00013565,-0.023963,0.45149
27010,7.8379,2,0.1,0.00039362,3933.5,0.00039591,4004.9,-0.00011754,147.01,-0.00013711,-0.0241,0.44186
27011,7.9303,1.7273,0.1,0.00039182,3915.5,0.00039368,3972.8,-0.00011946,117.23,-0.00013507,-0.030203,0.451
27012,7.8379,1.8182,0.1,0.00039417,3938.9,0.00039622,4002.5,-0.00011913,130.36,-0.00013648,-0.031119,0.4414
27013,7.9303,1.5455,0.1,0.00039243,3921.6,0.00039404,3970.9,-0.00012107,100.49,-0.00013445,-0.03615,0.45042
27014,7.8379,1.6364,0.1,0.00039475,3944.7,0.00039654,3999.9,-0.00012081,112.71,-0.00013581,-0.038053,0.44087
27015,7.9303,1.3636,0.1,0.00039305,3927.7,0.0003944,3968.9,-0.00012269,83.654,-0.00013383,-0.041404,0.44977
27016,7.8379,1.4545,0.1,0.00039533,3950.6,0.00039686,3997.1,-0.00012252,94.706,-0.00013513,-0.044451,0.44026
27017,7.9303,1.1818,0.1,0.00039365,3933.8,0.00039475,3967,-0.00012427,67.255,-0.00013323,-0.045632,0.44904
27018,7.8379,1.2727,0.1,0.00039591,3956.4,0.00039717,3994.3,-0.0001242,76.966,-0.00013445,-0.049869,0.43956
27019,7.9303,1,0.1,0.00039423,3939.6,0.00039509,3965.2,-0.00012576,51.778,-0.00013266,-0.0485,0.44822
27020,7.8379,1.0909,0.1,0.00039647,3962,0.00039746,3991.6,-0.0001258,60.06,-0.0001338,-0.053995,0.43878
27021,7.9303,0.81818,0.1,0.00039478,3945.1,0.00039541,3963.7,-0.00012713,37.622,-0.00013214,-0.050291,0.44732
27022,7.8379,0.90909,0.1,0.00039699,3967.2,0.00039773,3989.2,-0.00012728,44.476,-0.00013321,-0.056406,0.43792
27023,7.9303,0.63636,0.1,0.0003953,3950.3,0.00039572,3962.7,-0.00012835,25.079,-0.00013169,-0.049978,0.44634
27024,7.8379,0.72727,0.1,0.00039747,3972,0.00039798,3987.2,-0.0001286,30.599,-0.00013268,-0.058002,0.43698
27025,7.9303,0.45455,0.1,0.00039579,3955.2,0.00039603,3962.3,-0.00012941,14.3,-0.00013132,-0.057396,0.44527
27026,7.8379,0.54545,0.1,0.00039792,3976.5,0.00039824,3985.8,-0.00012975,18.686,-0.00013224,-0.056373,0.43595
27027,7.9303,0.27273,0.1,0.00039631,3960.4,0.0003964,3962.9,-0.00013035,5.0924,-0.00013104,-0.084746,0.44412
27028,7.8379,0.36364,0.1,0.00039835,3980.8,0.0003985,3985.1,-0.00013072,8.8168,-0.0001319,-0.074425,0.43484
27029,7.8379,0.18182,0.1,0.00039886,3985.8,0.00039886,3986,-0.00013153,0.81516,-0.0001317,-0.4178,0.43364
27030,7.9303,0.090909,0.1,0.00039656,3962.8,0.00039655,3962.6,-0.00013083,0.083913,-0.00013091,-0.4611,0.44288
27031,7.7456,5.7273,0.1,0.00040089,4006.1,0.00040096,4008.2,-0.00013193,4.2827,-0.00013251,-0.10182,0.42444
27032,7.6532,5.8182,0.1,0.00040324,4029.6,0.00040323,4029.4,-0.000133,0.40608,-0.00013315,-0.76174,0.41409
27033,7.7456,5.9091,0.1,0.00040104,4007.6,0.00040103,4007.3,-0.00013231,-0.00096195,-0.0001324,-0.65644,0.42319
27034,7.7456,5.5455,0.1,0.00040048,4002,0.0004007,4008.6,-0.00013105,13.217,-0.00013282,-0.068396,0.4256
27035,7.6532,5.6364,0.1,0.00040287,4025.9,0.00040299,4029.6,-0.00013232,7.4324,-0.00013332,-0.089084,0.4153
27036,7.7456,5.3636,0.1,0.00040009,3998.2,0.0004005,4010.2,-0.00013,24.223,-0.00013323,-0.062994,0.42668
27037,7.6532,5.4545,0.1,0.00040257,4022.9,0.00040286,4031.5,-0.00013141,17.202,-0.00013371,-0.073258,0.41642
27038,7.7456,5.1818,0.1,0.00039968,3994,0.0004003,4012.6,-0.00012876,37.471,-0.00013375,-0.063406,0.42767
27039,7.6532,5.2727,0.1,0.00040225,4019.7,0.00040274,4034.4,-0.00013027,29.558,-0.00013421,-0.074188,0.41746
27040,7.7456,5,0.1,0.00039923,3989.5,0.0004001,4015.6,-0.00012732,52.774,-0.00013436,-0.061418,0.42858
27041,7.6532,5.0909,0.1,0.00040189,4016.1,0.00040263,4038.1,-0.0001289,44.39,-0.00013482,-0.072382,0.41841
27042,7.7456,4.8182,0.1,0.00039873,3984.6,0.00039987,4019,-0.00012573,69.785,-0.00013503,-0.057828,0.4294
27043,7.6532,4.9091,0.1,0.00040148,4012,0.00040249,4042.4,-0.00012734,61.393,-0.00013552,-0.069078,0.41928
27044,7.7456,4.6364,0.1,0.0003982,3979.3,0.00039962,4022.5,-0.00012402,88.029,-0.00013575,-0.052543,0.43013
27045,7.6532,4.7273,0.1,0.00040103,4007.5,0.00040233,4046.9,-0.00012562,80.108,-0.00013629,-0.063733,0.42006
27046,7.7456,4.4545,0.1,0.00039765,3973.7,0.00039936,4026.1,-0.00012225,106.93,-0.00013649,-0.045991,0.43079
27047,7.6532,4.5455,0.1,0.00040054,4002.6,0.00040214,4051.6,-0.00012379,99.956,-0.0001371,-0.056815,0.42076
27048,7.7456,4.2727,0.1,0.00039709,3968.2,0.00039908,4029.6,-0.00012047,125.85,-0.00013723,-0.03861,0.43137
27049,7.6532,4.3636,0.1,0.00040003,3997.5,0.00040194,4056.3,-0.00012191,120.26,-0.00013793,-0.048757,0.42137
27050,7.7456,4.0909,0.1,0.00039655,3962.7,0.0003988,4032.8,-0.00011875,144.09,-0.00013794,-0.030897,0.43186
27051,7.6532,4.1818,0.1,0.00039952,3992.4,0.00040172,4060.7,-0.00012006,140.28,-0.00013873,-0.0401,0.42191
27052,7.7456,3.9091,0.1,0.00039604,3957.7,0.00039853,4035.7,-0.00011716,160.97,-0.00013859,-0.02335,0.43228
27053,7.6532,4,0.1,0.00039902,3987.5,0.00040149,4064.7,-0.00011829,159.26,-0.00013949,-0.031396,0.42237
27054,7.7456,3.7273,0.1,0.00039559,3953.2,0.00039829,4038.2,-0.00011576,175.83,-0.00013916,-0.01644,0.43262
27055,7.6532,3.8182,0.1,0.00039857,3983,0.00040128,4068.2,-0.00011669,176.44,-0.00014017,-0.023182,0.42275
27056,7.7456,3.5455,0.1,0.00039522,3949.5,0.00039809,4040.2,-0.0001146,188.07,-0.00013963,-0.010591,0.43288
27057,7.6532,3.6364,0.1,0.00039818,3979,0.00040109,4071.2,-0.00011531,191.13,-0.00014075,-0.015956,0.42305
27058,7.7456,3.3636,0.1,0.00039494,3946.7,0.00039793,4041.6,-0.00011373,197.19,-0.00013998,-0.0061518,0.43307
27059,7.6532,3.4545,0.1,0.00039787,3975.9,0.00040093,4073.4,-0.00011423,202.73,-0.00014121,-0.010144,0.42327
27060,7.7456,3.1818,0.1,0.00039477,3945,0.00039783,4042.5,-0.0001132,202.82,-0.00014019,-0.003381,0.43318
27061,7.6532,3.2727,0.1,0.00039765,3973.8,0.00040082,4075,-0.00011348,210.74,-0.00014153,-0.006077,0.42342
27062,7.7456,3,0.1,0.00039471,3944.4,0.0003978,4042.8,-0.00011302,204.73,-0.00014027,-0.0024396,0.43322
27063,7.6532,3.0909,0.1,0.00039754,3972.7,0.00040076,4075.7,-0.00011309,214.84,-0.00014169,-0.0039854,0.4235
27064,7.7456,2.8182,0.1,0.00039477,3945,0.00039783,4042.5,-0.0001132,202.82,-0.00014019,-0.0033814,0.43318
27065,7.6532,2.9091,0.1,0.00039754,3972.7,0.00040076,4075.7,-0.00011309,214.84,-0.00014169,-0.0039856,0.4235
27066,7.7456,2.6364,0.1,0.00039494,3946.7,0.00039793,4041.6,-0.00011373,197.19,-0.00013998,-0.0061523,0.43307
27067,7.6532,2.7273,0.1,0.00039765,3973.8,0.00040082,4075,-0.00011348,210.74,-0.00014153,-0.0060773,0.42342
27068,7.7456,2.4545,0.1,0.00039522,3949.5,0.00039809,4040.2,-0.0001146,188.07,-0.00013963,-0.010592,0.43288
27069,7.6532,2.5455,0.1,0.00039787,3975.9,0.00040093,4073.4,-0.00011423,202.73,-0.00014121,-0.010144,0.42327
27070,7.7456,2.2727,0.1,0.00039559,3953.2,0.00039829,4038.2,-0.00011576,175.83,-0.00013916,-0.01644,0.43262
27071,7.6532,2.3636,0.1,0.00039818,3979,0.00040109,4071.2,-0.00011531,191.13,-0.00014075,-0.015956,0.42305
27072,7.7456,2.0909,0.1,0.00039604,3957.7,0.00039853,4035.7,-0.00011716,160.97,-0.00013859,-0.02335,0.43228
27073,7.6532,2.1818,0.1,0.00039857,3983,0.00040128,4068.2,-0.00011669,176.44,-0.00014017,-0.023182,0.42275
27074,7.7456,1.9091,0.1,0.00039655,3962.7,0.0003988,4032.8,-0.00011875,144.09,-0.00013794,-0.030898,0.43186
27075,7.6532,2,0.1,0.00039902,3987.5,0.00040149,4064.7,-0.00011829,159.26,-0.00013949,-0.031396,0.42237
27076,7.7456,1.7273,0.1,0.00039709,3968.2,0.00039908,4029.6,-0.00012047,125.85,-0.00013723,-0.03861,0.43137
27077,7.6532,1.8182,0.1,0.00039952,3992.4,0.00040172,4060.7,-0.00012006,140.28,-0.00013873,-0.040101,0.42191
27078,7.7456,1.5455,0.1,0.00039765,3973.7,0.00039936,4026.1,-0.00012225,106.93,-0.00013649,-0.045992,0.43079
27079,7.6532,1.6364,0.1,0.00040003,3997.5,0.00040194,4056.3,-0.00012191,120.26,-0.00013793,-0.048757,0.42137
27080,7.7456,1.3636,0.1,0.0003982,3979.3,0.00039962,4022.5,-0.00012402,88.029,-0.00013575,-0.052544,0.43013
27081,7.6532,1.4545,0.1,0.00040054,4002.6,0.00040214,4051.6,-0.00012379,99.956,-0.0001371,-0.056816,0.42076
27082,7.7456,1.1818,0.1,0.00039873,3984.6,0.00039987,4019,-0.00012573,69.784,-0.00013503,-0.057829,0.4294
27083,7.6532,1.2727,0.1,0.00040103,4007.5,0.00040233,4046.9,-0.00012562,80.108,-0.00013629,-0.063734,0.42006
27084,7.7456,1,0.1,0.00039923,3989.5,0.0004001,4015.6,-0.00012732,52.774,-0.00013436,-0.061419,0.42858
27085,7.6532,1.0909,0.1,0.00040148,4012,0.00040249,4042.4,-0.00012734,61.393,-0.00013552,-0.069079,0.41928
27086,7.7456,0.81818,0.1,0.00039968,3994,0.0004003,4012.6,-0.00012876,37.471,-0.00013375,-0.063407,0.42767
27087,7.6532,0.90909,0.1,0.00040189,4016.1,0.00040263,4038.1,-0.0001289,44.39,-0.00013482,-0.072384,0.41841
27088,7.7456,0.63636,0.1,0.00040009,3998.2,0.0004005,4010.2,-0.00013,24.223,-0.00013323,-0.062994,0.42668
27089,7.6532,0.72727,0.1,0.00040225,4019.7,0.00040274,4034.4,-0.00013027,29.558,-0.00013421,-0.074188,0.41746
27090,7.7456,0.45455,0.1,0.00040048,4002,0.0004007,4008.6,-0.00013105,13.217,-0.00013282,-0.068396,0.4256
27091,7.6532,0.54545,0.1,0.00040257,4022.9,0.00040286,4031.5,-0.00013141,17.202,-0.00013371,-0.073257,0.41642
27092,7.7456,0.27273,0.1,0.00040089,4006.1,0.00040096,4008.2,-0.00013193,4.2827,-0.00013251,-0.10183,0.42444
27093,7.6532,0.36364,0.1,0.00040287,4025.9,0.00040299,4029.6,-0.00013232,7.4324,-0.00013332,-0.089085,0.4153
27094,7.6532,0.18182,0.1,0.00040324,4029.6,0.00040323,4029.4,-0.000133,0.40608,-0.00013315,-0.76173,0.41409
27095,7.7456,0.090909,0.1,0.00040104,4007.6,0.00040103,4007.3,-0.00013231,-0.0009635,-0.0001324,-0.65643,0.42319
27096,7.5609,5.7273,0.1,0.00040521,4049.3,0.00040526,4050.8,-0.00013346,2.9964,-0.00013388,-0.14282,0.40504
27097,7.4685,5.8182,0.1,0.00040731,4070.3,0.00040728,4069.5,-0.00013432,0.15553,-0.00013456,-1.6734,0.39482
27098,7.5609,5.9091,0.1,0.00040524,4049.6,0.00040522,4049,-0.00013368,-0.048835,-0.00013382,-1.0938,0.40378
27099,7.5609,5.5455,0.1,0.00040496,4046.8,0.00040515,4052.4,-0.00013268,11.429,-0.00013421,-0.086992,0.40621
27100,7.4685,5.6364,0.1,0.00040712,4068.4,0.00040721,4071,-0.00013389,5.3723,-0.00013462,-0.12412,0.39604
27101,7.5609,5.3636,0.1,0.00040472,4044.4,0.0004051,4055.6,-0.00013167,22.553,-0.00013468,-0.082644,0.40729
27102,7.4685,5.4545,0.1,0.000407,4067.2,0.00040725,4074.5,-0.00013306,14.853,-0.00013505,-0.10168,0.39717
27103,7.5609,5.1818,0.1,0.00040446,4041.8,0.00040506,4059.9,-0.00013041,36.495,-0.00013528,-0.082251,0.40829
27104,7.4685,5.2727,0.1,0.00040686,4065.8,0.00040732,4079.4,-0.00013195,27.581,-0.00013563,-0.099024,0.39821
27105,7.5609,5,0.1,0.00040414,4038.6,0.00040502,4064.8,-0.00012892,53.025,-0.00013599,-0.079379,0.4092
27106,7.4685,5.0909,0.1,0.00040667,4063.9,0.00040739,4085.3,-0.00013056,43.403,-0.00013635,-0.095454,0.39917
27107,7.5609,4.8182,0.1,0.00040377,4035,0.00040495,4070.3,-0.00012723,71.731,-0.00013679,-0.074419,0.41003
27108,7.4685,4.9091,0.1,0.00040642,4061.4,0.00040744,4092,-0.00012893,61.952,-0.00013718,-0.090097,0.40004
27109,7.5609,4.6364,0.1,0.00040336,4030.8,0.00040485,4076,-0.00012539,92.047,-0.00013765,-0.067483,0.41077
27110,7.4685,4.7273,0.1,0.00040612,4058.4,0.00040746,4099.1,-0.00012709,82.684,-0.0001381,-0.082611,0.40083
27111,7.5609,4.4545,0.1,0.00040292,4026.4,0.00040472,4081.8,-0.00012345,113.29,-0.00013854,-0.059079,0.41143
27112,7.4685,4.5455,0.1,0.00040577,4054.9,0.00040745,4106.3,-0.0001251,104.91,-0.00013907,-0.073409,0.40153
27113,7.5609,4.2727,0.1,0.00040245,4021.7,0.00040457,4087.4,-0.0001215,134.7,-0.00013943,-0.049757,0.41201
27114,7.4685,4.3636,0.1,0.00040539,4051.1,0.00040741,4113.5,-0.00012304,127.83,-0.00014007,-0.063008,0.40215
27115,7.5609,4.0909,0.1,0.00040199,4017.1,0.00040441,4092.6,-0.00011959,155.45,-0.00014028,-0.040116,0.4125
27116,7.4685,4.1818,0.1,0.00040499,4047.1,0.00040734,4120.2,-0.00012099,150.56,-0.00014104,-0.052033,0.40269
27117,7.5609,3.9091,0.1,0.00040155,4012.7,0.00040423,4097.2,-0.00011782,174.73,-0.00014107,-0.030751,0.41292
27118,7.4685,4,0.1,0.00040459,4043.1,0.00040725,4126.5,-0.00011903,172.2,-0.00014196,-0.041127,0.40315
27119,7.5609,3.7273,0.1,0.00040115,4008.8,0.00040407,4101.2,-0.00011624,191.75,-0.00014177,-0.022225,0.41326
27120,7.4685,3.8182,0.1,0.00040422,4039.4,0.00040714,4131.9,-0.00011725,191.86,-0.00014279,-0.030924,0.40353
27121,7.5609,3.5455,0.1,0.00040083,4005.5,0.00040393,4104.4,-0.00011495,205.79,-0.00014234,-0.01504,0.41353
27122,7.4685,3.6364,0.1,0.0004039,4036.2,0.00040704,4136.5,-0.00011571,208.72,-0.00014349,-0.022006,0.40383
27123,7.5609,3.3636,0.1,0.00040058,4003,0.00040382,4106.8,-0.00011397,216.28,-0.00014276,-0.009603,0.41371
27124,7.4685,3.4545,0.1,0.00040364,4033.6,0.00040696,4140,-0.0001145,222.04,-0.00014405,-0.014868,0.40406
27125,7.5609,3.1818,0.1,0.00040042,4001.5,0.00040375,4108.2,-0.00011337,222.76,-0.00014302,-0.0062171,0.41383
27126,7.4685,3.2727,0.1,0.00040346,4031.8,0.00040689,4142.4,-0.00011365,231.26,-0.00014443,-0.0098905,0.40421
27127,7.5609,3,0.1,0.00040037,4001,0.00040372,4108.7,-0.00011317,224.95,-0.00014311,-0.0050677,0.41386
27128,7.4685,3.0909,0.1,0.00040336,4030.8,0.00040686,4143.6,-0.00011322,235.97,-0.00014463,-0.0073363,0.40428
27129,7.5609,2.8182,0.1,0.00040042,4001.5,0.00040375,4108.2,-0.00011337,222.76,-0.00014302,-0.0062172,0.41383
27130,7.4685,2.9091,0.1,0.00040336,4030.8,0.00040686,4143.6,-0.00011322,235.97,-0.00014463,-0.0073363,0.40428
27131,7.5609,2.6364,0.1,0.00040058,4003,0.00040382,4106.8,-0.00011397,216.28,-0.00014276,-0.0096031,0.41371
27132,7.4685,2.7273,0.1,0.00040346,4031.8,0.00040689,4142.4,-0.00011365,231.26,-0.00014443,-0.0098907,0.40421
27133,7.5609,2.4545,0.1,0.00040083,4005.5,0.00040393,4104.4,-0.00011495,205.79,-0.00014234,-0.01504,0.41353
27134,7.4685,2.5455,0.1,0.00040364,4033.6,0.00040696,4140,-0.0001145,222.04,-0.00014405,-0.014868,0.40406
27135,7.5609,2.2727,0.1,0.00040116,4008.8,0.00040407,4101.2,-0.00011624,191.75,-0.00014177,-0.022225,0.41326
27136,7.4685,2.3636,0.1,0.0004039,4036.2,0.00040704,4136.5,-0.00011571,208.72,-0.00014349,-0.022006,0.40383
27137,7.5609,2.0909,0.1,0.00040155,4012.7,0.00040423,4097.2,-0.00011782,174.73,-0.00014107,-0.030751,0.41292
27138,7.4685,2.1818,0.1,0.00040422,4039.4,0.00040714,4131.9,-0.00011725,191.86,-0.00014279,-0.030924,0.40353
27139,7.5609,1.9091,0.1,0.00040199,4017.1,0.00040441,4092.6,-0.00011959,155.45,-0.00014028,-0.040117,0.4125
27140,7.4685,2,0.1,0.00040459,4043.1,0.00040725,4126.5,-0.00011903,172.2,-0.00014196,-0.041127,0.40315
27141,7.5609,1.7273,0.1,0.00040245,4021.7,0.00040457,4087.4,-0.0001215,134.7,-0.00013943,-0.049758,0.41201
27142,7.4685,1.8182,0.1,0.00040499,4047.1,0.00040734,4120.2,-0.00012099,150.56,-0.00014104,-0.052034,0.40269
27143,7.5609,1.5455,0.1,0.00040292,4026.4,0.00040472,4081.8,-0.00012345,113.29,-0.00013854,-0.05908,0.41143
27144,7.4685,1.6364,0.1,0.00040539,4051.1,0.00040741,4113.5,-0.00012304,127.83,-0.00014007,-0.063009,0.40215
27145,7.5609,1.3636,0.1,0.00040336,4030.8,0.00040485,4076,-0.00012539,92.047,-0.00013765,-0.067484,0.41077
27146,7.4685,1.4545,0.1,0.00040577,4054.9,0.00040745,4106.3,-0.0001251,104.91,-0.00013907,-0.07341,0.40153
27147,7.5609,1.1818,0.1,0.00040378,4035,0.00040495,4070.3,-0.00012723,71.731,-0.00013679,-0.074419,0.41003
27148,7.4685,1.2727,0.1,0.00040612,4058.4,0.00040746,4099.1,-0.00012709,82.684,-0.0001381,-0.082612,0.40083
27149,7.5609,1,0.1,0.00040414,4038.6,0.00040502,4064.8,-0.00012892,53.025,-0.00013599,-0.07938,0.4092
27150,7.4685,1.0909,0.1,0.00040642,4061.4,0.00040744,4092,-0.00012893,61.952,-0.00013718,-0.090097,0.40004
27151,7.5609,0.81818,0.1,0.00040446,4041.8,0.00040506,4059.9,-0.00013041,36.495,-0.00013528,-0.082252,0.40829
27152,7.4685,0.90909,0.1,0.00040667,4063.9,0.00040739,4085.3,-0.00013056,43.403,-0.00013635,-0.095455,0.39917
27153,7.5609,0.63636,0.1,0.00040472,4044.4,0.0004051,4055.6,-0.00013167,22.553,-0.00013468,-0.082645,0.40729
27154,7.4685,0.72727,0.1,0.00040686,4065.8,0.00040732,4079.4,-0.00013195,27.581,-0.00013563,-0.099025,0.39821
27155,7.5609,0.45455,0.1,0.00040496,4046.8,0.00040515,4052.4,-0.00013268,11.429,-0.00013421,-0.086993,0.40621
27156,7.4685,0.54545,0.1,0.000407,4067.2,0.00040725,4074.5,-0.00013306,14.853,-0.00013505,-0.10168,0.39717
27157,7.5609,0.27273,0.1,0.00040521,4049.3,0.00040526,4050.8,-0.00013346,2.9964,-0.00013388,-0.14282,0.40504
27158,7.4685,0.36364,0.1,0.00040712,4068.4,0.00040721,4071,-0.00013389,5.3723,-0.00013462,-0.12412,0.39604
27159,7.4685,0.18182,0.1,0.00040731,4070.3,0.00040728,4069.5,-0.00013432,0.15553,-0.00013456,-1.6734,0.39482
27160,7.5609,0.090909,0.1,0.00040524,4049.6,0.00040522,4049,-0.00013368,-0.048836,-0.00013382,-1.0938,0.40378
27161,7.3761,5.7273,0.1,0.00040921,4089.2,0.00040922,4089.7,-0.00013492,1.2493,-0.00013513,-0.32818,0.38591
27162,7.2838,5.8182,0.1,0.00041097,4106.9,0.00041092,4105.3,-0.00013546,0.059327,-0.00013589,-3.2322,0.37582
27163,7.3761,5.9091,0.1,0.00040906,4087.7,0.00040903,4086.8,-0.0001349,-0.066211,-0.00013514,-1.8099,0.38464
27164,7.3761,5.5455,0.1,0.00040916,4088.7,0.0004093,4093.1,-0.00013428,8.8008,-0.00013547,-0.12548,0.38709
27165,7.2838,5.6364,0.1,0.00041101,4107.3,0.00041105,4108.5,-0.0001354,2.586,-0.00013578,-0.26818,0.37705
27166,7.3761,5.3636,0.1,0.00040913,4088.4,0.00040946,4098.3,-0.00013334,19.897,-0.00013601,-0.11518,0.38818
27167,7.2838,5.4545,0.1,0.00041113,4108.5,0.00041132,4114.1,-0.00013471,11.478,-0.00013625,-0.15862,0.37819
27168,7.3761,5.1818,0.1,0.00040906,4087.8,0.00040964,4104.9,-0.0001321,34.508,-0.00013671,-0.1108,0.38919
27169,7.2838,5.2727,0.1,0.00041123,4109.5,0.00041164,4121.6,-0.00013365,24.48,-0.00013693,-0.1404,0.37925
27170,7.3761,5,0.1,0.00040894,4086.6,0.00040981,4112.5,-0.00013056,52.347,-0.00013755,-0.10516,0.3901
27171,7.2838,5.0909,0.1,0.00041128,4109.9,0.00041196,4130.4,-0.00013226,41.316,-0.00013777,-0.13036,0.38021
27172,7.3761,4.8182,0.1,0.00040877,4084.8,0.00040995,4120.8,-0.00012878,72.92,-0.0001385,-0.09744,0.39094
27173,7.2838,4.9091,0.1,0.00041126,4109.8,0.00041227,4140.2,-0.00013056,61.542,-0.00013876,-0.12021,0.38109
27174,7.3761,4.6364,0.1,0.00040853,4082.5,0.00041007,4129.4,-0.0001268,95.558,-0.00013953,-0.08777,0.39168
27175,7.2838,4.7273,0.1,0.00041118,4109,0.00041255,4150.5,-0.0001286,84.513,-0.00013986,-0.10876,0.38188
27176,7.3761,4.4545,0.1,0.00040824,4079.6,0.00041014,4138,-0.00012469,119.45,-0.0001406,-0.07662,0.39234
27177,7.2838,4.5455,0.1,0.00041104,4107.6,0.00041279,4161.1,-0.00012646,109.41,-0.00014103,-0.095912,0.38259
27178,7.3761,4.2727,0.1,0.00040792,4076.4,0.00041018,4146.3,-0.00012254,143.69,-0.00014167,-0.064599,0.39292
27179,7.2838,4.3636,0.1,0.00041085,4105.6,0.00041298,4171.6,-0.00012422,135.29,-0.00014223,-0.082098,0.38321
27180,7.3761,4.0909,0.1,0.00040759,4073.1,0.00041018,4154.1,-0.00012044,167.31,-0.00014271,-0.052384,0.39342
27181,7.2838,4.1818,0.1,0.00041062,4103.4,0.00041312,4181.5,-0.00012196,161.12,-0.00014341,-0.067929,0.38375
27182,7.3761,3.9091,0.1,0.00040726,4069.8,0.00041015,4161.2,-0.00011847,189.34,-0.00014367,-0.04066,0.39384
27183,7.2838,4,0.1,0.00041038,4100.9,0.00041322,4190.7,-0.00011979,185.8,-0.00014453,-0.054103,0.38421
27184,7.3761,3.7273,0.1,0.00040696,4066.8,0.00041011,4167.2,-0.00011671,208.83,-0.00014451,-0.03008,0.39418
27185,7.2838,3.8182,0.1,0.00041014,4098.6,0.00041329,4198.7,-0.00011781,208.3,-0.00014554,-0.041332,0.38459
27186,7.3761,3.5455,0.1,0.00040671,4064.3,0.00041007,4172.1,-0.00011526,224.96,-0.0001452,-0.021222,0.39445
27187,7.2838,3.6364,0.1,0.00040993,4096.4,0.00041332,4205.5,-0.0001161,227.63,-0.0001464,-0.030275,0.38489
27188,7.3761,3.3636,0.1,0.00040652,4062.4,0.00041003,4175.7,-0.00011417,237.01,-0.00014572,-0.014552,0.39464
27189,7.2838,3.4545,0.1,0.00040975,4094.7,0.00041334,4210.7,-0.00011474,242.93,-0.00014707,-0.021488,0.38512
27190,7.3761,3.1818,0.1,0.0004064,4061.2,0.00041,4177.9,-0.0001135,244.47,-0.00014604,-0.010412,0.39475
27191,7.2838,3.2727,0.1,0.00040963,4093.5,0.00041335,4214.3,-0.0001138,253.53,-0.00014754,-0.015394,0.38527
27192,7.3761,3,0.1,0.00040636,4060.7,0.00040999,4178.6,-0.00011327,246.99,-0.00014615,-0.0090096,0.39479
27193,7.2838,3.0909,0.1,0.00040956,4092.8,0.00041335,4216.1,-0.00011331,258.95,-0.00014778,-0.012276,0.38534
27194,7.3761,2.8182,0.1,0.0004064,4061.2,0.00041,4177.9,-0.0001135,244.47,-0.00014604,-0.010413,0.39475
27195,7.2838,2.9091,0.1,0.00040956,4092.8,0.00041335,4216.1,-0.00011331,258.95,-0.00014778,-0.012276,0.38534
27196,7.3761,2.6364,0.1,0.00040652,4062.4,0.00041003,4175.7,-0.00011417,237.01,-0.00014572,-0.014552,0.39464
27197,7.2838,2.7273,0.1,0.00040963,4093.5,0.00041335,4214.3,-0.0001138,253.53,-0.00014754,-0.015394,0.38527
27198,7.3761,2.4545,0.1,0.00040671,4064.3,0.00041007,4172.1,-0.00011526,224.96,-0.0001452,-0.021222,0.39445
27199,7.2838,2.5455,0.1,0.00040975,4094.7,0.00041334,4210.7,-0.00011474,242.93,-0.00014707,-0.021488,0.38512
27200,7.3761,2.2727,0.1,0.00040696,4066.8,0.00041011,4167.2,-0.00011671,208.83,-0.00014451,-0.030081,0.39418
27201,7.2838,2.3636,0.1,0.00040993,4096.4,0.00041332,4205.5,-0.0001161,227.63,-0.0001464,-0.030276,0.38489
27202,7.3761,2.0909,0.1,0.00040726,4069.8,0.00041015,4161.2,-0.00011847,189.34,-0.00014367,-0.04066,0.39384
27203,7.2838,2.1818,0.1,0.00041014,4098.6,0.00041329,4198.7,-0.00011781,208.3,-0.00014554,-0.041333,0.38459
27204,7.3761,1.9091,0.1,0.00040759,4073.1,0.00041018,4154.1,-0.00012044,167.31,-0.00014271,-0.052384,0.39342
27205,7.2838,2,0.1,0.00041038,4100.9,0.00041322,4190.7,-0.00011979,185.8,-0.00014453,-0.054104,0.38421
27206,7.3761,1.7273,0.1,0.00040792,4076.4,0.00041018,4146.3,-0.00012254,143.69,-0.00014167,-0.0646,0.39292
27207,7.2838,1.8182,0.1,0.00041062,4103.4,0.00041312,4181.5,-0.00012196,161.12,-0.00014341,-0.067929,0.38375
27208,7.3761,1.5455,0.1,0.00040824,4079.6,0.00041014,4138,-0.00012469,119.45,-0.0001406,-0.076621,0.39234
27209,7.2838,1.6364,0.1,0.00041085,4105.6,0.00041298,4171.6,-0.00012422,135.29,-0.00014223,-0.082099,0.38321
27210,7.3761,1.3636,0.1,0.00040853,4082.5,0.00041007,4129.4,-0.0001268,95.558,-0.00013953,-0.087771,0.39168
27211,7.2838,1.4545,0.1,0.00041104,4107.6,0.00041279,4161.1,-0.00012646,109.41,-0.00014103,-0.095913,0.38259
27212,7.3761,1.1818,0.1,0.00040877,4084.8,0.00040995,4120.8,-0.00012878,72.92,-0.0001385,-0.097441,0.39094
27213,7.2838,1.2727,0.1,0.00041118,4109,0.00041255,4150.5,-0.0001286,84.513,-0.00013986,-0.10876,0.38188
27214,7.3761,1,0.1,0.00040894,4086.6,0.00040981,4112.5,-0.00013056,52.347,-0.00013755,-0.10516,0.3901
27215,7.2838,1.0909,0.1,0.00041126,4109.8,0.00041227,4140.2,-0.00013056,61.542,-0.00013876,-0.12021,0.38109
27216,7.3761,0.81818,0.1,0.00040906,4087.8,0.00040964,4104.9,-0.0001321,34.508,-0.00013671,-0.1108,0.38919
27217,7.2838,0.90909,0.1,0.00041128,4109.9,0.00041196,4130.4,-0.00013226,41.315,-0.00013777,-0.13036,0.38021
27218,7.3761,0.63636,0.1,0.00040913,4088.4,0.00040946,4098.3,-0.00013334,19.897,-0.00013601,-0.11518,0.38818
27219,7.2838,0.72727,0.1,0.00041123,4109.5,0.00041164,4121.6,-0.00013365,24.48,-0.00013693,-0.1404,0.37925
27220,7.3761,0.45455,0.1,0.00040916,4088.7,0.0004093,4093.1,-0.00013428,8.8008,-0.00013547,-0.12548,0.38709
27221,7.2838,0.54545,0.1,0.00041113,4108.5,0.00041132,4114.1,-0.00013471,11.478,-0.00013625,-0.15862,0.37819
27222,7.3761,0.27273,0.1,0.00040921,4089.2,0.00040922,4089.7,-0.00013492,1.2493,-0.00013513,-0.32818,0.38591
27223,7.2838,0.36364,0.1,0.00041101,4107.3,0.00041105,4108.5,-0.0001354,2.586,-0.00013578,-0.26818,0.37705
27224,7.2838,0.18182,0.1,0.00041097,4106.9,0.00041092,4105.3,-0.00013546,0.059326,-0.00013589,-3.2322,0.37582
27225,7.3761,0.090909,0.1,0.00040906,4087.8,0.00040903,4086.8,-0.0001349,-0.066212,-0.00013514,-1.8099,0.38464
27226,7.1914,5.7273,0.1,0.00041277,4124.9,0.00041274,4124,-0.0001361,0.20154,-0.00013639,-1.9365,0.36706
27227,7.0991,5.8182,0.1,0.00041412,4138.3,0.00041402,4135.6,-0.00013639,0.018864,-0.00013711,-5.4338,0.3571
27228,7.1914,5.9091,0.1,0.00041239,4121.1,0.00041234,4119.6,-0.00013596,-0.069856,-0.00013632,-2.8371,0.36578
27229,7.1914,5.5455,0.1,0.00041299,4127,0.00041307,4129.5,-0.00013584,5.2208,-0.00013656,-0.24111,0.36825
27230,7.0991,5.6364,0.1,0.00041445,4141.6,0.00041442,4140.8,-0.00013664,0.39373,-0.00013695,-1.9949,0.35835
27231,7.1914,5.3636,0.1,0.00041323,4129.5,0.0004135,4137.4,-0.00013501,16.073,-0.00013718,-0.1772,0.36935
27232,7.0991,5.4545,0.1,0.00041488,4145.9,0.00041499,4149.2,-0.00013631,6.9592,-0.00013728,-0.31912,0.3595
27233,7.1914,5.1818,0.1,0.00041344,4131.5,0.00041396,4147,-0.00013381,31.303,-0.000138,-0.1572,0.37036
27234,7.0991,5.2727,0.1,0.00041529,4150.1,0.00041563,4159.9,-0.00013536,20.053,-0.00013806,-0.21872,0.36056
27235,7.1914,5,0.1,0.00041359,4133.1,0.00041443,4158,-0.00013225,50.527,-0.00013899,-0.14363,0.37129
27236,7.0991,5.0909,0.1,0.00041566,4153.7,0.00041629,4172.5,-0.00013399,37.905,-0.00013906,-0.18652,0.36153
27237,7.1914,4.8182,0.1,0.00041367,4133.9,0.00041487,4169.9,-0.00013038,73.15,-0.00014013,-0.13013,0.37212
27238,7.0991,4.9091,0.1,0.00041596,4156.7,0.00041695,4186.3,-0.00013224,59.94,-0.00014024,-0.16483,0.36241
27239,7.1914,4.6364,0.1,0.00041369,4134,0.00041527,4182.3,-0.00012826,98.382,-0.00014137,-0.11571,0.37287
27240,7.0991,4.7273,0.1,0.00041619,4159,0.00041757,4201,-0.00013018,85.388,-0.00014156,-0.14569,0.36321
27241,7.1914,4.4545,0.1,0.00041364,4133.5,0.00041563,4194.7,-0.00012598,125.26,-0.00014267,-0.10033,0.37354
27242,7.0991,4.5455,0.1,0.00041634,4160.5,0.00041815,4216,-0.00012788,113.29,-0.00014298,-0.1268,0.36392
27243,7.1914,4.2727,0.1,0.00041354,4132.5,0.00041592,4206.7,-0.00012363,152.72,-0.00014397,-0.084449,0.37412
27244,7.0991,4.3636,0.1,0.00041643,4161.4,0.00041867,4230.8,-0.00012545,142.51,-0.00014443,-0.10785,0.36455
27245,7.1914,4.0909,0.1,0.0004134,4131.2,0.00041617,4218,-0.00012132,179.61,-0.00014523,-0.068732,0.37462
27246,7.0991,4.1818,0.1,0.00041646,4161.7,0.00041911,4244.9,-0.00012298,171.84,-0.00014586,-0.089176,0.36509
27247,7.1914,3.9091,0.1,0.00041325,4129.7,0.00041635,4228.2,-0.00011913,204.77,-0.0001464,-0.053908,0.37504
27248,7.0991,4,0.1,0.00041645,4161.6,0.00041949,4257.9,-0.00012059,200,-0.00014722,-0.071415,0.36555
27249,7.1914,3.7273,0.1,0.0004131,4128.2,0.0004165,4237,-0.00011719,227.1,-0.00014742,-0.040697,0.37539
27250,7.0991,3.8182,0.1,0.00041641,4161.3,0.00041979,4269.5,-0.0001184,225.73,-0.00014845,-0.055294,0.36593
27251,7.1914,3.5455,0.1,0.00041297,4126.8,0.0004166,4244.1,-0.00011557,245.6,-0.00014827,-0.029739,0.37565
27252,7.0991,3.6364,0.1,0.00041637,4160.8,0.00042003,4279.2,-0.0001165,247.88,-0.0001495,-0.041519,0.36623
27253,7.1914,3.3636,0.1,0.00041286,4125.8,0.00041666,4249.4,-0.00011436,259.45,-0.0001489,-0.021547,0.37584
27254,7.0991,3.4545,0.1,0.00041633,4160.4,0.0004202,4286.7,-0.000115,265.44,-0.00015033,-0.030683,0.36646
27255,7.1914,3.1818,0.1,0.0004128,4125.1,0.0004167,4252.6,-0.00011361,268.02,-0.00014928,-0.016488,0.37595
27256,7.0991,3.2727,0.1,0.00041629,4160.1,0.00042032,4291.9,-0.00011395,277.61,-0.0001509,-0.023223,0.36661
27257,7.1914,3,0.1,0.00041277,4124.9,0.00041671,4253.7,-0.00011336,270.92,-0.00014942,-0.014777,0.37599
27258,7.0991,3.0909,0.1,0.00041628,4159.9,0.00042038,4294.5,-0.00011341,283.84,-0.00015119,-0.019426,0.36669
27259,7.1914,2.8182,0.1,0.0004128,4125.1,0.0004167,4252.6,-0.00011361,268.02,-0.00014928,-0.016488,0.37595
27260,7.0991,2.9091,0.1,0.00041628,4159.9,0.00042038,4294.5,-0.00011341,283.84,-0.00015119,-0.019426,0.36669
27261,7.1914,2.6364,0.1,0.00041286,4125.8,0.00041666,4249.4,-0.00011436,259.45,-0.0001489,-0.021548,0.37584
27262,7.0991,2.7273,0.1,0.00041629,4160.1,0.00042032,4291.9,-0.00011395,277.61,-0.0001509,-0.023224,0.36661
27263,7.1914,2.4545,0.1,0.00041297,4126.8,0.0004166,4244.1,-0.00011558,245.6,-0.00014827,-0.029739,0.37565
27264,7.0991,2.5455,0.1,0.00041633,4160.4,0.0004202,4286.7,-0.000115,265.44,-0.00015033,-0.030683,0.36646
27265,7.1914,2.2727,0.1,0.0004131,4128.2,0.0004165,4237,-0.00011719,227.1,-0.00014742,-0.040697,0.37539
27266,7.0991,2.3636,0.1,0.00041637,4160.8,0.00042003,4279.2,-0.0001165,247.88,-0.0001495,-0.041519,0.36623
27267,7.1914,2.0909,0.1,0.00041325,4129.7,0.00041635,4228.2,-0.00011914,204.77,-0.0001464,-0.053908,0.37504
27268,7.0991,2.1818,0.1,0.00041641,4161.3,0.00041979,4269.5,-0.0001184,225.73,-0.00014845,-0.055295,0.36593
27269,7.1914,1.9091,0.1,0.0004134,4131.2,0.00041617,4218,-0.00012132,179.61,-0.00014523,-0.068733,0.37462
27270,7.0991,2,0.1,0.00041645,4161.6,0.00041949,4257.9,-0.00012059,200,-0.00014722,-0.071416,0.36555
27271,7.1914,1.7273,0.1,0.00041354,4132.5,0.00041592,4206.7,-0.00012363,152.72,-0.00014397,-0.08445,0.37412
27272,7.0991,1.8182,0.1,0.00041646,4161.7,0.00041911,4244.9,-0.00012298,171.84,-0.00014586,-0.089177,0.36509
27273,7.1914,1.5455,0.1,0.00041364,4133.5,0.00041563,4194.7,-0.00012598,125.26,-0.00014267,-0.10033,0.37354
27274,7.0991,1.6364,0.1,0.00041643,4161.4,0.00041867,4230.8,-0.00012545,142.51,-0.00014443,-0.10785,0.36455
27275,7.1914,1.3636,0.1,0.00041369,4134,0.00041527,4182.3,-0.00012826,98.382,-0.00014137,-0.11571,0.37287
27276,7.0991,1.4545,0.1,0.00041634,4160.5,0.00041815,4216,-0.00012788,113.29,-0.00014298,-0.1268,0.36392
27277,7.1914,1.1818,0.1,0.00041367,4133.9,0.00041487,4169.9,-0.00013038,73.15,-0.00014013,-0.13013,0.37212
27278,7.0991,1.2727,0.1,0.00041619,4159,0.00041757,4201,-0.00013018,85.388,-0.00014156,-0.14569,0.36321
27279,7.1914,1,0.1,0.00041359,4133.1,0.00041443,4158,-0.00013225,50.527,-0.00013899,-0.14363,0.37129
27280,7.0991,1.0909,0.1,0.00041596,4156.7,0.00041695,4186.3,-0.00013224,59.94,-0.00014024,-0.16483,0.36241
27281,7.1914,0.81818,0.1,0.00041344,4131.5,0.00041396,4147,-0.00013381,31.303,-0.000138,-0.1572,0.37036
27282,7.0991,0.90909,0.1,0.00041566,4153.7,0.00041629,4172.5,-0.00013399,37.905,-0.00013906,-0.18652,0.36153
27283,7.1914,0.63636,0.1,0.00041323,4129.5,0.0004135,4137.4,-0.00013501,16.072,-0.00013718,-0.1772,0.36935
27284,7.0991,0.72727,0.1,0.00041529,4150.1,0.00041563,4159.9,-0.00013536,20.053,-0.00013806,-0.21872,0.36056
27285,7.1914,0.45455,0.1,0.00041299,4127,0.00041307,4129.5,-0.00013584,5.2207,-0.00013656,-0.24111,0.36825
27286,7.0991,0.54545,0.1,0.00041488,4145.9,0.00041499,4149.2,-0.00013631,6.9591,-0.00013728,-0.31912,0.3595
27287,7.1914,0.27273,0.1,0.00041277,4124.9,0.00041274,4124,-0.0001361,0.20154,-0.00013639,-1.9365,0.36706
27288,7.0991,0.36364,0.1,0.00041445,4141.6,0.00041442,4140.8,-0.00013664,0.39373,-0.00013695,-1.9949,0.35835
27289,7.0991,0.18182,0.1,0.00041412,4138.3,0.00041402,4135.6,-0.00013639,0.018863,-0.00013711,-5.4338,0.3571
27290,7.1914,0.090909,0.1,0.00041239,4121.1,0.00041234,4119.6,-0.00013596,-0.069857,-0.00013632,-2.8371,0.36578
27291,7.0067,5.7273,0.1,0.00041579,4155,0.0004157,4152.4,-0.00013694,0.072326,-0.00013766,-5.3169,0.34849
27292,6.9144,5.8182,0.1,0.00041659,4163,0.00041644,4158.8,-0.00013706,-0.0012404,-0.00013817,-8.3476,0.33867
27293,7.0067,5.9091,0.1,0.00041511,4148.2,0.00041504,4146.1,-0.00013678,-0.06725,-0.00013734,-4.2233,0.3472
27294,7.0067,5.5455,0.1,0.00041634,4160.5,0.00041634,4160.6,-0.00013723,1.263,-0.00013755,-1.1895,0.34969
27295,6.9144,5.6364,0.1,0.00041729,4170.1,0.00041718,4166.7,-0.00013736,0.14885,-0.00013828,-6.8221,0.33992
27296,7.0067,5.3636,0.1,0.00041694,4166.5,0.00041712,4171.8,-0.00013666,10.923,-0.00013816,-0.32906,0.3508
27297,6.9144,5.4545,0.1,0.00041812,4178.3,0.00041813,4178.5,-0.00013775,1.9319,-0.00013819,-1.4286,0.34108
27298,7.0067,5.1818,0.1,0.00041751,4172.2,0.00041795,4185.4,-0.00013554,26.664,-0.00013912,-0.24058,0.35182
27299,6.9144,5.2727,0.1,0.00041894,4186.6,0.00041918,4193.4,-0.00013705,14.133,-0.00013898,-0.40303,0.34215
27300,7.0067,5,0.1,0.00041802,4177.4,0.00041881,4200.7,-0.00013398,47.331,-0.0001403,-0.20398,0.35275
27301,6.9144,5.0909,0.1,0.00041973,4194.5,0.00042028,4210.7,-0.00013574,32.939,-0.00014016,-0.28496,0.34313
27302,7.0067,4.8182,0.1,0.00041847,4181.8,0.00041965,4217.3,-0.00013204,72.191,-0.00014167,-0.17787,0.35359
27303,6.9144,4.9091,0.1,0.00042046,4201.7,0.0004214,4229.8,-0.00013398,56.897,-0.00014158,-0.23382,0.34402
27304,7.0067,4.6364,0.1,0.00041883,4185.5,0.00042045,4234.6,-0.0001298,100.3,-0.00014317,-0.15483,0.35435
27305,6.9144,4.7273,0.1,0.00042111,4208.2,0.00042249,4250,-0.00013183,85.063,-0.00014318,-0.19911,0.34483
27306,7.0067,4.4545,0.1,0.00041912,4188.3,0.00042119,4252,-0.00012735,130.54,-0.00014474,-0.13269,0.35502
27307,6.9144,4.5455,0.1,0.00042168,4213.9,0.00042353,4270.7,-0.00012939,116.3,-0.00014489,-0.16978,0.34554
27308,7.0067,4.2727,0.1,0.00041934,4190.5,0.00042185,4268.9,-0.00012479,161.64,-0.00014632,-0.11115,0.3556
27309,6.9144,4.3636,0.1,0.00042216,4218.7,0.00042449,4291.2,-0.00012676,149.29,-0.00014665,-0.14287,0.34617
27310,7.0067,4.0909,0.1,0.00041949,4192.1,0.00042243,4284.8,-0.00012226,192.23,-0.00014785,-0.090568,0.35611
27311,6.9144,4.1818,0.1,0.00042256,4222.6,0.00042536,4310.9,-0.00012408,182.58,-0.0001484,-0.11769,0.34671
27312,7.0067,3.9091,0.1,0.0004196,4193.1,0.00042292,4299.2,-0.00011986,220.96,-0.00014928,-0.071611,0.35653
27313,6.9144,4,0.1,0.00042288,4225.9,0.00042612,4329.1,-0.00012147,214.67,-0.00015006,-0.094532,0.34718
27314,7.0067,3.7273,0.1,0.00041968,4193.9,0.00042333,4311.7,-0.00011771,246.51,-0.00015053,-0.055001,0.35687
27315,6.9144,3.8182,0.1,0.00042315,4228.6,0.00042677,4345.3,-0.00011907,244.07,-0.00015156,-0.073988,0.34756
27316,7.0067,3.5455,0.1,0.00041973,4194.4,0.00042364,4321.8,-0.00011593,267.72,-0.00015156,-0.041404,0.35714
27317,6.9144,3.6364,0.1,0.00042336,4230.6,0.00042729,4358.9,-0.00011698,269.42,-0.00015284,-0.056742,0.34786
27318,7.0067,3.3636,0.1,0.00041976,4194.7,0.00042386,4329.2,-0.00011458,283.6,-0.00015233,-0.031341,0.35732
27319,6.9144,3.4545,0.1,0.00042351,4232.2,0.00042769,4369.5,-0.00011532,289.54,-0.00015386,-0.043364,0.34809
27320,7.0067,3.1818,0.1,0.00041977,4194.8,0.00042399,4333.8,-0.00011375,293.44,-0.00015281,-0.025168,0.35744
27321,6.9144,3.2727,0.1,0.00042361,4233.2,0.00042796,4376.8,-0.00011416,303.49,-0.00015456,-0.034255,0.34824
27322,7.0067,3,0.1,0.00041978,4194.9,0.00042404,4335.4,-0.00011347,296.76,-0.00015297,-0.023089,0.35748
27323,6.9144,3.0909,0.1,0.00042367,4233.7,0.00042809,4380.5,-0.00011357,310.62,-0.00015492,-0.02965,0.34832
27324,7.0067,2.8182,0.1,0.00041977,4194.8,0.00042399,4333.8,-0.00011375,293.44,-0.00015281,-0.025168,0.35744
27325,6.9144,2.9091,0.1,0.00042367,4233.7,0.00042809,4380.5,-0.00011357,310.62,-0.00015492,-0.02965,0.34832
27326,7.0067,2.6364,0.1,0.00041976,4194.7,0.00042386,4329.2,-0.00011458,283.6,-0.00015233,-0.031341,0.35732
27327,6.9144,2.7273,0.1,0.00042361,4233.2,0.00042796,4376.8,-0.00011416,303.49,-0.00015456,-0.034256,0.34824
27328,7.0067,2.4545,0.1,0.00041973,4194.4,0.00042364,4321.8,-0.00011593,267.72,-0.00015156,-0.041405,0.35714
27329,6.9144,2.5455,0.1,0.00042351,4232.2,0.00042769,4369.5,-0.00011532,289.54,-0.00015386,-0.043365,0.34809
27330,7.0067,2.2727,0.1,0.00041968,4193.9,0.00042333,4311.7,-0.00011771,246.51,-0.00015053,-0.055002,0.35687
27331,6.9144,2.3636,0.1,0.00042336,4230.6,0.00042729,4358.9,-0.00011698,269.42,-0.00015284,-0.056742,0.34786
27332,7.0067,2.0909,0.1,0.0004196,4193.1,0.00042292,4299.2,-0.00011986,220.96,-0.00014928,-0.071611,0.35653
27333,6.9144,2.1818,0.1,0.00042315,4228.6,0.00042677,4345.3,-0.00011907,244.07,-0.00015156,-0.073989,0.34756
27334,7.0067,1.9091,0.1,0.00041949,4192.1,0.00042243,4284.8,-0.00012226,192.23,-0.00014785,-0.090568,0.35611
27335,6.9144,2,0.1,0.00042288,4225.9,0.00042612,4329.1,-0.00012147,214.67,-0.00015006,-0.094532,0.34718
27336,7.0067,1.7273,0.1,0.00041934,4190.5,0.00042185,4268.9,-0.00012479,161.64,-0.00014632,-0.11115,0.3556
27337,6.9144,1.8182,0.1,0.00042256,4222.6,0.00042536,4310.9,-0.00012408,182.58,-0.0001484,-0.1177,0.34671
27338,7.0067,1.5455,0.1,0.00041912,4188.3,0.00042119,4252,-0.00012735,130.54,-0.00014474,-0.13269,0.35502
27339,6.9144,1.6364,0.1,0.00042216,4218.7,0.00042449,4291.2,-0.00012676,149.29,-0.00014665,-0.14287,0.34617
27340,7.0067,1.3636,0.1,0.00041883,4185.5,0.00042045,4234.6,-0.0001298,100.3,-0.00014317,-0.15483,0.35435
27341,6.9144,1.4545,0.1,0.00042168,4213.9,0.00042353,4270.7,-0.00012939,116.3,-0.00014489,-0.16978,0.34554
27342,7.0067,1.1818,0.1,0.00041847,4181.8,0.00041965,4217.3,-0.00013204,72.19,-0.00014167,-0.17787,0.35359
27343,6.9144,1.2727,0.1,0.00042111,4208.2,0.00042249,4250,-0.00013183,85.063,-0.00014318,-0.19911,0.34483
27344,7.0067,1,0.1,0.00041802,4177.4,0.00041881,4200.7,-0.00013398,47.331,-0.0001403,-0.20398,0.35275
27345,6.9144,1.0909,0.1,0.00042046,4201.7,0.0004214,4229.8,-0.00013398,56.897,-0.00014158,-0.23382,0.34402
27346,7.0067,0.81818,0.1,0.00041751,4172.2,0.00041795,4185.4,-0.00013554,26.664,-0.00013912,-0.24058,0.35182
27347,6.9144,0.90909,0.1,0.00041973,4194.5,0.00042028,4210.7,-0.00013574,32.939,-0.00014016,-0.28496,0.34313
27348,7.0067,0.63636,0.1,0.00041694,4166.5,0.00041712,4171.8,-0.00013666,10.923,-0.00013816,-0.32906,0.3508
27349,6.9144,0.72727,0.1,0.00041894,4186.6,0.00041918,4193.4,-0.00013705,14.133,-0.00013898,-0.40303,0.34215
27350,7.0067,0.45455,0.1,0.00041634,4160.5,0.00041634,4160.6,-0.00013723,1.263,-0.00013755,-1.1895,0.34969
27351,6.9144,0.54545,0.1,0.00041812,4178.3,0.00041813,4178.5,-0.00013775,1.9319,-0.00013819,-1.4286,0.34108
27352,7.0067,0.27273,0.1,0.00041579,4155,0.0004157,4152.4,-0.00013694,0.072325,-0.00013766,-5.317,0.34849
27353,6.9144,0.36364,0.1,0.00041729,4170.1,0.00041718,4166.7,-0.00013736,0.14884,-0.00013828,-6.8221,0.33992
27354,6.9144,0.18182,0.1,0.00041659,4163,0.00041644,4158.8,-0.00013706,-0.0012416,-0.00013817,-8.3476,0.33867
27355,7.0067,0.090909,0.1,0.00041511,4148.2,0.00041504,4146.1,-0.00013678,-0.067251,-0.00013734,-4.2233,0.3472
27356,6.822,5.7273,0.1,0.00041809,4178,0.00041792,4173.1,-0.00013748,0.042721,-0.00013879,-9.7907,0.3302
27357,6.7297,5.8182,0.1,0.0004182,4179.1,0.00041799,4173.1,-0.00013741,-0.012951,-0.00013901,-12.076,0.32052
27358,6.822,5.9091,0.1,0.00041703,4167.5,0.00041693,4164.4,-0.00013733,-0.061241,-0.00013812,-6.0264,0.3289
27359,6.822,5.5455,0.1,0.00041907,4187.8,0.00041896,4184.7,-0.00013795,0.29254,-0.00013885,-6.5276,0.33141
27360,6.7297,5.6364,0.1,0.00041937,4190.8,0.00041915,4184.3,-0.00013773,0.11362,-0.0001395,-13.181,0.32179
27361,6.822,5.3636,0.1,0.00042012,4198.3,0.00042018,4200.1,-0.0001382,4.6453,-0.00013895,-0.99685,0.33253
27362,6.7297,5.4545,0.1,0.0004207,4204.1,0.00042057,4200.4,-0.00013841,0.45393,-0.0001395,-7.7583,0.32296
27363,6.822,5.1818,0.1,0.00042117,4208.8,0.0004215,4218.7,-0.00013726,20.388,-0.00014003,-0.41639,0.33356
27364,6.7297,5.2727,0.1,0.00042205,4217.6,0.00042215,4220.5,-0.00013865,6.8748,-0.00013971,-1.0985,0.32404
27365,6.822,5,0.1,0.00042217,4218.8,0.00042287,4239.7,-0.00013574,42.507,-0.00014144,-0.30521,0.3345
27366,6.7297,5.0909,0.1,0.0004234,4231.1,0.00042383,4243.9,-0.00013751,26.195,-0.00014106,-0.48174,0.32502
27367,6.822,4.8182,0.1,0.0004231,4228.1,0.00042424,4262.4,-0.00013377,69.775,-0.00014309,-0.25,0.33535
27368,6.7297,4.9091,0.1,0.0004247,4244,0.00042555,4269.7,-0.00013577,52.137,-0.00014275,-0.34656,0.32592
27369,6.822,4.6364,0.1,0.00042395,4236.6,0.00042557,4286.1,-0.00013142,101.07,-0.0001449,-0.21067,0.33611
27370,6.7297,4.7273,0.1,0.00042592,4256.3,0.00042727,4297.1,-0.00013356,83.249,-0.00014468,-0.27863,0.32673
27371,6.822,4.4545,0.1,0.00042471,4244.1,0.00042684,4309.9,-0.00012881,135.05,-0.0001468,-0.17737,0.33678
27372,6.7297,4.5455,0.1,0.00042705,4267.5,0.00042893,4325.3,-0.000131,118.18,-0.00014676,-0.23058,0.32745
27373,6.822,4.2727,0.1,0.00042537,4250.7,0.00042801,4333.2,-0.00012606,170.23,-0.00014873,-0.14728,0.33737
27374,6.7297,4.3636,0.1,0.00042807,4277.8,0.0004305,4353.3,-0.0001282,155.37,-0.00014891,-0.19094,0.32808
27375,6.822,4.0909,0.1,0.00042594,4256.5,0.00042905,4355.2,-0.0001233,205.02,-0.0001506,-0.11981,0.33788
27376,6.7297,4.1818,0.1,0.00042899,4286.9,0.00043195,4380.2,-0.00012531,193.12,-0.00015104,-0.15616,0.32863
27377,6.822,3.9091,0.1,0.00042642,4261.3,0.00042997,4375.2,-0.00012068,237.78,-0.00015234,-0.095257,0.3383
27378,6.7297,4,0.1,0.0004298,4295,0.00043324,4405.1,-0.00012249,229.64,-0.00015307,-0.12544,0.3291
27379,6.822,3.7273,0.1,0.00042682,4265.3,0.00043074,4392.5,-0.00011833,266.98,-0.00015388,-0.07422,0.33865
27380,6.7297,3.8182,0.1,0.00043049,4301.9,0.00043436,4427.4,-0.00011987,263.18,-0.00015491,-0.09898,0.32948
27381,6.822,3.5455,0.1,0.00042714,4268.5,0.00043135,4406.6,-0.00011637,291.24,-0.00015514,-0.0573,0.33891
27382,6.7297,3.6364,0.1,0.00043106,4307.6,0.00043528,4446.2,-0.00011759,292.13,-0.00015648,-0.077275,0.32979
27383,6.822,3.3636,0.1,0.00042737,4270.8,0.00043179,4417,-0.0001149,309.42,-0.00015608,-0.044951,0.3391
27384,6.7297,3.4545,0.1,0.0004315,4312.1,0.000436,4460.9,-0.00011578,315.11,-0.00015772,-0.060762,0.33001
27385,6.822,3.1818,0.1,0.00042751,4272.2,0.00043206,4423.4,-0.00011398,320.67,-0.00015667,-0.037453,0.33921
27386,6.7297,3.2727,0.1,0.00043181,4315.1,0.00043648,4471.1,-0.00011452,331.05,-0.00015858,-0.04969,0.33016
27387,6.822,3,0.1,0.00042756,4272.6,0.00043215,4425.6,-0.00011367,324.48,-0.00015686,-0.034941,0.33925
27388,6.7297,3.0909,0.1,0.00043196,4316.7,0.00043673,4476.2,-0.00011387,339.2,-0.00015902,-0.044149,0.33024
27389,6.822,2.8182,0.1,0.00042751,4272.2,0.00043206,4423.4,-0.00011398,320.67,-0.00015667,-0.037453,0.33921
27390,6.7297,2.9091,0.1,0.00043196,4316.7,0.00043673,4476.2,-0.00011387,339.2,-0.00015902,-0.044149,0.33024
27391,6.822,2.6364,0.1,0.00042737,4270.8,0.00043179,4417,-0.0001149,309.42,-0.00015608,-0.044951,0.3391
27392,6.7297,2.7273,0.1,0.00043181,4315.1,0.00043648,4471.1,-0.00011452,331.05,-0.00015858,-0.04969,0.33016
27393,6.822,2.4545,0.1,0.00042714,4268.5,0.00043135,4406.6,-0.00011637,291.24,-0.00015514,-0.0573,0.33891
27394,6.7297,2.5455,0.1,0.0004315,4312.1,0.000436,4460.9,-0.00011578,315.11,-0.00015772,-0.060763,0.33001
27395,6.822,2.2727,0.1,0.00042682,4265.3,0.00043074,4392.5,-0.00011833,266.98,-0.00015388,-0.074221,0.33865
27396,6.7297,2.3636,0.1,0.00043106,4307.6,0.00043528,4446.2,-0.00011759,292.13,-0.00015648,-0.077276,0.32979
27397,6.822,2.0909,0.1,0.00042642,4261.3,0.00042997,4375.2,-0.00012068,237.78,-0.00015234,-0.095258,0.3383
27398,6.7297,2.1818,0.1,0.00043049,4301.9,0.00043436,4427.4,-0.00011987,263.18,-0.00015491,-0.098981,0.32948
27399,6.822,1.9091,0.1,0.00042594,4256.5,0.00042905,4355.2,-0.0001233,205.02,-0.0001506,-0.11981,0.33788
27400,6.7297,2,0.1,0.0004298,4295,0.00043324,4405.1,-0.00012249,229.64,-0.00015307,-0.12544,0.3291
27401,6.822,1.7273,0.1,0.00042537,4250.7,0.00042801,4333.2,-0.00012606,170.23,-0.00014873,-0.14728,0.33737
27402,6.7297,1.8182,0.1,0.00042899,4287,0.00043195,4380.2,-0.00012531,193.12,-0.00015104,-0.15616,0.32863
27403,6.822,1.5455,0.1,0.00042471,4244.1,0.00042684,4309.9,-0.00012881,135.05,-0.0001468,-0.17737,0.33678
27404,6.7297,1.6364,0.1,0.00042807,4277.8,0.0004305,4353.3,-0.0001282,155.37,-0.00014891,-0.19094,0.32808
27405,6.822,1.3636,0.1,0.00042395,4236.6,0.00042557,4286.1,-0.00013142,101.07,-0.0001449,-0.21067,0.33611
27406,6.7297,1.4545,0.1,0.00042705,4267.5,0.00042893,4325.3,-0.000131,118.18,-0.00014676,-0.23058,0.32745
27407,6.822,1.1818,0.1,0.0004231,4228.1,0.00042424,4262.4,-0.00013377,69.775,-0.00014309,-0.25,0.33535
27408,6.7297,1.2727,0.1,0.00042592,4256.3,0.00042727,4297.1,-0.00013356,83.249,-0.00014468,-0.27863,0.32673
27409,6.822,1,0.1,0.00042217,4218.8,0.00042287,4239.7,-0.00013574,42.507,-0.00014144,-0.30521,0.3345
27410,6.7297,1.0909,0.1,0.0004247,4244,0.00042555,4269.7,-0.00013577,52.137,-0.00014275,-0.34657,0.32592
27411,6.822,0.81818,0.1,0.00042117,4208.8,0.0004215,4218.7,-0.00013726,20.388,-0.00014003,-0.41639,0.33356
27412,6.7297,0.90909,0.1,0.0004234,4231.1,0.00042383,4243.9,-0.00013751,26.195,-0.00014106,-0.48175,0.32502
27413,6.822,0.63636,0.1,0.00042012,4198.3,0.00042018,4200.2,-0.0001382,4.6453,-0.00013895,-0.99686,0.33253
27414,6.7297,0.72727,0.1,0.00042205,4217.6,0.00042215,4220.5,-0.00013865,6.8747,-0.00013971,-1.0985,0.32404
27415,6.822,0.45455,0.1,0.00041907,4187.8,0.00041896,4184.7,-0.00013795,0.29254,-0.00013885,-6.5276,0.33141
27416,6.7297,0.54545,0.1,0.0004207,4204.1,0.00042057,4200.4,-0.00013841,0.45392,-0.0001395,-7.7583,0.32296
27417,6.822,0.27273,0.1,0.00041809,4178,0.00041792,4173.1,-0.00013748,0.042719,-0.00013879,-9.7907,0.3302
27418,6.7297,0.36364,0.1,0.00041937,4190.8,0.00041915,4184.3,-0.00013773,0.11362,-0.0001395,-13.181,0.32179
27419,6.7297,0.18182,0.1,0.0004182,4179.1,0.00041799,4173.1,-0.00013741,-0.012952,-0.00013901,-12.076,0.32052
27420,6.822,0.090909,0.1,0.00041703,4167.5,0.00041693,4164.4,-0.00013733,-0.061242,-0.00013812,-6.0264,0.3289
27421,6.6373,5.7273,0.1,0.00041948,4191.9,0.00041922,4184.2,-0.00013766,0.034182,-0.00013972,-15.424,0.3122
27422,6.545,5.8182,0.1,0.00041873,4184.4,0.00041844,4176,-0.00013735,-0.021732,-0.00013958,-16.733,0.30266
27423,6.6373,5.9091,0.1,0.00041795,4176.6,0.00041781,4172.4,-0.00013752,-0.053005,-0.00013862,-8.3108,0.31089
27424,6.6373,5.5455,0.1,0.000421,4207.1,0.00042075,4200,-0.0001382,0.18165,-0.00014013,-14.32,0.31342
27425,6.545,5.6364,0.1,0.00042046,4201.7,0.0004201,4191.2,-0.0001377,0.11398,-0.00014052,-21.06,0.30393
27426,6.6373,5.3636,0.1,0.00042263,4223.4,0.00042254,4220.8,-0.00013908,0.99163,-0.00014003,-6.1699,0.31455
27427,6.545,5.4545,0.1,0.00042242,4221.3,0.00042213,4212.7,-0.00013852,0.26923,-0.00014085,-17.259,0.30512
27428,6.6373,5.1818,0.1,0.00042429,4239.9,0.00042448,4245.7,-0.00013893,12.436,-0.00014071,-0.91885,0.31559
27429,6.545,5.2727,0.1,0.00042446,4241.6,0.00042438,4239.5,-0.00013963,1.7101,-0.00014066,-5.9903,0.30621
27430,6.6373,5,0.1,0.00042593,4256.3,0.00042651,4273.9,-0.00013754,35.795,-0.00014237,-0.49235,0.31654
27431,6.545,5.0909,0.1,0.00042652,4262.3,0.0004268,4270.6,-0.00013923,17.575,-0.0001417,-0.97867,0.3072
27432,6.6373,4.8182,0.1,0.00042751,4272.2,0.00042858,4304.4,-0.00013557,65.601,-0.00014435,-0.36389,0.3174
27433,6.545,4.9091,0.1,0.00042857,4282.8,0.00042932,4305,-0.00013761,45.363,-0.00014372,-0.54589,0.30811
27434,6.6373,4.6364,0.1,0.00042901,4287.2,0.00043063,4336.3,-0.00013315,100.36,-0.00014654,-0.29229,0.31816
27435,6.545,4.7273,0.1,0.00043056,4302.6,0.00043185,4341.7,-0.0001354,79.603,-0.00014604,-0.40145,0.30893
27436,6.6373,4.4545,0.1,0.00043041,4301.1,0.0004326,4368.6,-0.0001304,138.49,-0.00014886,-0.2399,0.31884
27437,6.545,4.5455,0.1,0.00043245,4321.6,0.00043434,4379.5,-0.00013275,118.57,-0.00014857,-0.31841,0.30965
27438,6.6373,4.2727,0.1,0.00043169,4313.9,0.00043444,4400.2,-0.00012746,178.25,-0.00015121,-0.19656,0.31943
27439,6.545,4.3636,0.1,0.00043423,4339.3,0.00043673,4417.1,-0.0001298,160.42,-0.00015119,-0.25778,0.31029
27440,6.6373,4.0909,0.1,0.00043284,4325.4,0.00043613,4430.1,-0.0001245,217.73,-0.0001535,-0.1591,0.31994
27441,6.545,4.1818,0.1,0.00043586,4355.6,0.00043895,4453.5,-0.00012673,203.15,-0.0001538,-0.20842,0.31084
27442,6.6373,3.9091,0.1,0.00043386,4335.6,0.00043763,4457.4,-0.00012167,255.03,-0.00015563,-0.12685,0.32037
27443,6.545,4,0.1,0.00043733,4370.3,0.00044097,4487.4,-0.0001237,244.64,-0.00015628,-0.16689,0.31131
27444,6.6373,3.7273,0.1,0.00043472,4344.2,0.00043891,4481.1,-0.00011912,288.33,-0.00015751,-0.099976,0.32071
27445,6.545,3.8182,0.1,0.00043862,4383.2,0.00044274,4517.7,-0.00012088,282.82,-0.00015854,-0.13237,0.3117
27446,6.6373,3.5455,0.1,0.00043542,4351.2,0.00043993,4500.6,-0.000117,316,-0.00015906,-0.078868,0.32098
27447,6.545,3.6364,0.1,0.00043971,4394,0.00044422,4543.4,-0.00011843,315.78,-0.00016047,-0.1049,0.312
27448,6.6373,3.3636,0.1,0.00043594,4356.4,0.00044069,4515,-0.0001154,336.74,-0.00016022,-0.063764,0.32117
27449,6.545,3.4545,0.1,0.00044056,4402.6,0.00044538,4563.5,-0.00011648,341.94,-0.000162,-0.084543,0.31223
27450,6.6373,3.1818,0.1,0.00043626,4359.6,0.00044115,4523.8,-0.00011441,349.58,-0.00016094,-0.054727,0.32128
27451,6.545,3.2727,0.1,0.00044115,4408.5,0.00044617,4577.4,-0.00011513,360.06,-0.00016306,-0.071198,0.31238
27452,6.6373,3,0.1,0.00043637,4360.7,0.00044131,4526.8,-0.00011407,353.92,-0.00016118,-0.051724,0.32132
27453,6.545,3.0909,0.1,0.00044146,4411.5,0.00044658,4584.5,-0.00011443,369.33,-0.0001636,-0.064622,0.31246
27454,6.6373,2.8182,0.1,0.00043626,4359.6,0.00044115,4523.8,-0.00011441,349.58,-0.00016094,-0.054727,0.32128
27455,6.545,2.9091,0.1,0.00044146,4411.5,0.00044658,4584.5,-0.00011443,369.33,-0.0001636,-0.064622,0.31246
27456,6.6373,2.6364,0.1,0.00043594,4356.4,0.00044069,4515,-0.0001154,336.74,-0.00016022,-0.063764,0.32117
27457,6.545,2.7273,0.1,0.00044115,4408.5,0.00044617,4577.4,-0.00011513,360.06,-0.00016306,-0.071198,0.31238
27458,6.6373,2.4545,0.1,0.00043542,4351.2,0.00043994,4500.6,-0.000117,316,-0.00015906,-0.078869,0.32098
27459,6.545,2.5455,0.1,0.00044056,4402.6,0.00044538,4563.5,-0.00011648,341.94,-0.000162,-0.084543,0.31223
27460,6.6373,2.2727,0.1,0.00043472,4344.2,0.00043891,4481.1,-0.00011912,288.33,-0.00015751,-0.099977,0.32071
27461,6.545,2.3636,0.1,0.00043971,4394,0.00044422,4543.4,-0.00011843,315.78,-0.00016047,-0.1049,0.312
27462,6.6373,2.0909,0.1,0.00043386,4335.6,0.00043763,4457.4,-0.00012167,255.03,-0.00015563,-0.12685,0.32037
27463,6.545,2.1818,0.1,0.00043862,4383.2,0.00044274,4517.7,-0.00012088,282.82,-0.00015854,-0.13237,0.3117
27464,6.6373,1.9091,0.1,0.00043284,4325.4,0.00043613,4430.1,-0.0001245,217.73,-0.0001535,-0.15911,0.31994
27465,6.545,2,0.1,0.00043733,4370.3,0.00044097,4487.4,-0.0001237,244.64,-0.00015628,-0.16689,0.31131
27466,6.6373,1.7273,0.1,0.00043169,4313.9,0.00043444,4400.2,-0.00012746,178.25,-0.00015121,-0.19656,0.31943
27467,6.545,1.8182,0.1,0.00043586,4355.6,0.00043895,4453.5,-0.00012673,203.15,-0.0001538,-0.20842,0.31084
27468,6.6373,1.5455,0.1,0.00043041,4301.1,0.0004326,4368.6,-0.0001304,138.49,-0.00014886,-0.23991,0.31884
27469,6.545,1.6364,0.1,0.00043423,4339.3,0.00043673,4417.1,-0.0001298,160.42,-0.00015119,-0.25778,0.31029
27470,6.6373,1.3636,0.1,0.00042901,4287.2,0.00043063,4336.3,-0.00013315,100.36,-0.00014654,-0.29229,0.31816
27471,6.545,1.4545,0.1,0.00043245,4321.6,0.00043434,4379.5,-0.00013275,118.57,-0.00014857,-0.31841,0.30965
27472,6.6373,1.1818,0.1,0.00042751,4272.2,0.00042858,4304.4,-0.00013557,65.601,-0.00014435,-0.36389,0.3174
27473,6.545,1.2727,0.1,0.00043056,4302.6,0.00043185,4341.7,-0.0001354,79.603,-0.00014604,-0.40145,0.30893
27474,6.6373,1,0.1,0.00042593,4256.3,0.00042651,4273.9,-0.00013754,35.795,-0.00014237,-0.49235,0.31654
27475,6.545,1.0909,0.1,0.00042857,4282.8,0.00042932,4305,-0.00013761,45.363,-0.00014372,-0.54589,0.30811
27476,6.6373,0.81818,0.1,0.00042429,4239.9,0.00042448,4245.7,-0.00013893,12.436,-0.00014071,-0.91886,0.31559
27477,6.545,0.90909,0.1,0.00042652,4262.3,0.0004268,4270.6,-0.00013923,17.575,-0.0001417,-0.97868,0.3072
27478,6.6373,0.63636,0.1,0.00042263,4223.4,0.00042254,4220.8,-0.00013908,0.99162,-0.00014003,-6.1699,0.31455
27479,6.545,0.72727,0.1,0.00042446,4241.6,0.00042438,4239.5,-0.00013963,1.7101,-0.00014066,-5.9903,0.30621
27480,6.6373,0.45455,0.1,0.000421,4207.1,0.00042075,4200,-0.0001382,0.18165,-0.00014013,-14.32,0.31342
27481,6.545,0.54545,0.1,0.00042242,4221.3,0.00042213,4212.8,-0.00013852,0.26923,-0.00014085,-17.259,0.30512
27482,6.6373,0.27273,0.1,0.00041948,4191.9,0.00041922,4184.2,-0.00013766,0.034181,-0.00013972,-15.424,0.3122
27483,6.545,0.36364,0.1,0.00042046,4201.7,0.0004201,4191.2,-0.0001377,0.11397,-0.00014052,-21.06,0.30393
27484,6.545,0.18182,0.1,0.00041873,4184.4,0.00041844,4176,-0.00013735,-0.021733,-0.00013958,-16.733,0.30266
27485,6.6373,0.090909,0.1,0.00041795,4176.6,0.00041781,4172.4,-0.00013752,-0.053006,-0.00013862,-8.3108,0.31089
27486,6.4526,5.7273,0.1,0.00041971,4194.2,0.00041933,4183,-0.00013739,0.033757,-0.00014037,-22.343,0.29449
27487,6.3602,5.8182,0.1,0.00041789,4176,0.0004175,4164.7,-0.00013679,-0.031233,-0.00013978,-22.435,0.28508
27488,6.4526,5.9091,0.1,0.0004176,4173.1,0.00041741,4167.5,-0.00013726,-0.043185,-0.00013874,-11.143,0.29316
27489,6.4526,5.5455,0.1,0.00042189,4216,0.00042148,4204,-0.00013802,0.15703,-0.00014123,-23.974,0.29572
27490,6.3602,5.6364,0.1,0.00042031,4200.2,0.00041978,4184.9,-0.00013717,0.12941,-0.00014126,-30.577,0.28637
27491,6.4526,5.3636,0.1,0.00042425,4239.6,0.00042397,4231.5,-0.00013914,0.50068,-0.00014141,-16.615,0.29686
27492,6.3602,5.4545,0.1,0.00042304,4227.5,0.00042254,4213,-0.00013815,0.21997,-0.00014203,-28.955,0.28756
27493,6.4526,5.1818,0.1,0.0004267,4264,0.00042671,4264.4,-0.00014027,4.365,-0.00014133,-3.5888,0.29791
27494,6.3602,5.2727,0.1,0.00042594,4256.4,0.00042565,4248.1,-0.00013962,0.81316,-0.00014206,-17.497,0.28867
27495,6.4526,5,0.1,0.00042917,4288.7,0.00042961,4301.7,-0.00013932,26.987,-0.00014304,-0.8973,0.29887
27496,6.3602,5.0909,0.1,0.00042894,4286.4,0.00042902,4288.9,-0.00014074,7.9658,-0.00014219,-2.9854,0.28968
27497,6.4526,4.8182,0.1,0.00043162,4313.2,0.00043259,4342.3,-0.00013744,59.317,-0.00014541,-0.55486,0.29974
27498,6.3602,4.9091,0.1,0.00043197,4316.7,0.00043256,4334.3,-0.00013947,36.289,-0.00014442,-0.94387,0.29059
27499,6.4526,4.6364,0.1,0.000434,4337,0.00043557,4384.8,-0.000135,97.781,-0.00014807,-0.4153,0.30051
27500,6.3602,4.7273,0.1,0.00043497,4346.7,0.00043617,4382.8,-0.00013734,73.7,-0.00014723,-0.60095,0.29142
27501,6.4526,4.4545,0.1,0.00043626,4359.6,0.00043848,4428,-0.00013216,140.47,-0.0001509,-0.32903,0.30119
27502,6.3602,4.5455,0.1,0.00043789,4375.9,0.00043976,4433,-0.00013467,117,-0.0001503,-0.44874,0.29215
27503,6.4526,4.2727,0.1,0.00043839,4380.9,0.00044124,4470.4,-0.00012907,185.3,-0.00015377,-0.26453,0.30179
27504,6.3602,4.3636,0.1,0.00044068,4403.7,0.00044323,4483.2,-0.00013163,163.98,-0.0001535,-0.35223,0.29279
27505,6.4526,4.0909,0.1,0.00044034,4400.3,0.0004438,4510.7,-0.00012593,230.04,-0.00015657,-0.21222,0.3023
27506,6.3602,4.1818,0.1,0.00044328,4429.7,0.0004465,4531.9,-0.00012841,212.24,-0.00015669,-0.28008,0.29335
27507,6.4526,3.9091,0.1,0.00044209,4417.8,0.00044609,4547.6,-0.00012291,272.41,-0.00015919,-0.16911,0.30273
27508,6.3602,4,0.1,0.00044566,4453.5,0.0004495,4577.4,-0.00012521,259.28,-0.00015974,-0.22269,0.29383
27509,6.4526,3.7273,0.1,0.0004436,4433,0.00044806,4579.9,-0.00012019,310.26,-0.0001615,-0.13446,0.30308
27510,6.3602,3.8182,0.1,0.00044778,4474.7,0.00045216,4618.3,-0.00012222,302.6,-0.00016252,-0.17699,0.29422
27511,6.4526,3.5455,0.1,0.00044485,4445.4,0.00044967,4606.3,-0.00011791,341.72,-0.00016341,-0.10806,0.30335
27512,6.3602,3.6364,0.1,0.00044959,4492.8,0.0004544,4653,-0.00011963,340,-0.0001649,-0.14197,0.29453
27513,6.4526,3.3636,0.1,0.00044577,4454.7,0.00045086,4626,-0.00011621,365.26,-0.00016483,-0.089697,0.30354
27514,6.3602,3.4545,0.1,0.00045102,4507.1,0.00045617,4680.4,-0.00011757,369.61,-0.00016678,-0.11696,0.29476
27515,6.4526,3.1818,0.1,0.00044635,4460.4,0.00045159,4638.1,-0.00011515,379.82,-0.00016571,-0.078949,0.30366
27516,6.3602,3.2727,0.1,0.00045202,4517.1,0.00045739,4699.4,-0.00011615,390.09,-0.00016808,-0.1011,0.29491
27517,6.4526,3,0.1,0.00044655,4462.4,0.00045184,4642.2,-0.0001148,384.74,-0.00016601,-0.075422,0.30369
27518,6.3602,3.0909,0.1,0.00045253,4522.2,0.00045801,4709.1,-0.00011542,400.54,-0.00016874,-0.093466,0.29499
27519,6.4526,2.8182,0.1,0.00044635,4460.4,0.00045159,4638.1,-0.00011515,379.82,-0.00016571,-0.078949,0.30366
27520,6.3602,2.9091,0.1,0.00045253,4522.2,0.00045801,4709.1,-0.00011542,400.54,-0.00016874,-0.093466,0.29499
27521,6.4526,2.6364,0.1,0.00044577,4454.7,0.00045086,4626,-0.00011621,365.26,-0.00016483,-0.089698,0.30354
27522,6.3602,2.7273,0.1,0.00045202,4517.1,0.00045739,4699.4,-0.00011615,390.09,-0.00016808,-0.1011,0.29491
27523,6.4526,2.4545,0.1,0.00044485,4445.4,0.00044967,4606.3,-0.00011791,341.72,-0.00016341,-0.10806,0.30335
27524,6.3602,2.5455,0.1,0.00045102,4507.1,0.00045617,4680.4,-0.00011757,369.61,-0.00016678,-0.11696,0.29476
27525,6.4526,2.2727,0.1,0.0004436,4433,0.00044806,4579.9,-0.00012019,310.26,-0.0001615,-0.13446,0.30308
27526,6.3602,2.3636,0.1,0.00044959,4492.8,0.0004544,4653,-0.00011963,340,-0.0001649,-0.14197,0.29453
27527,6.4526,2.0909,0.1,0.00044209,4417.8,0.00044609,4547.6,-0.00012291,272.41,-0.00015919,-0.16912,0.30273
27528,6.3602,2.1818,0.1,0.00044778,4474.7,0.00045216,4618.3,-0.00012222,302.6,-0.00016252,-0.17699,0.29422
27529,6.4526,1.9091,0.1,0.00044034,4400.3,0.0004438,4510.7,-0.00012593,230.04,-0.00015657,-0.21222,0.3023
27530,6.3602,2,0.1,0.00044566,4453.5,0.0004495,4577.4,-0.00012521,259.27,-0.00015974,-0.22269,0.29383
27531,6.4526,1.7273,0.1,0.00043839,4380.9,0.00044124,4470.4,-0.00012907,185.3,-0.00015377,-0.26453,0.30179
27532,6.3602,1.8182,0.1,0.00044328,4429.7,0.0004465,4531.9,-0.00012841,212.24,-0.00015669,-0.28008,0.29335
27533,6.4526,1.5455,0.1,0.00043626,4359.6,0.00043848,4428,-0.00013216,140.47,-0.0001509,-0.32903,0.30119
27534,6.3602,1.6364,0.1,0.00044068,4403.7,0.00044323,4483.2,-0.00013163,163.97,-0.0001535,-0.35223,0.29279
27535,6.4526,1.3636,0.1,0.000434,4337,0.00043557,4384.8,-0.000135,97.781,-0.00014807,-0.4153,0.30051
27536,6.3602,1.4545,0.1,0.00043789,4375.9,0.00043976,4433,-0.00013467,117,-0.0001503,-0.44875,0.29215
27537,6.4526,1.1818,0.1,0.00043162,4313.2,0.00043259,4342.3,-0.00013744,59.316,-0.00014541,-0.55486,0.29974
27538,6.3602,1.2727,0.1,0.00043497,4346.7,0.00043617,4382.8,-0.00013734,73.7,-0.00014723,-0.60095,0.29142
27539,6.4526,1,0.1,0.00042917,4288.7,0.00042961,4301.7,-0.00013932,26.987,-0.00014304,-0.8973,0.29887
27540,6.3602,1.0909,0.1,0.00043197,4316.7,0.00043256,4334.3,-0.00013947,36.289,-0.00014442,-0.94388,0.29059
27541,6.4526,0.81818,0.1,0.0004267,4264,0.00042671,4264.4,-0.00014027,4.365,-0.00014133,-3.5888,0.29791
27542,6.3602,0.90909,0.1,0.00042894,4286.4,0.00042902,4288.9,-0.00014074,7.9657,-0.00014219,-2.9855,0.28968
27543,6.4526,0.63636,0.1,0.00042425,4239.6,0.00042397,4231.5,-0.00013914,0.50067,-0.00014142,-16.615,0.29686
27544,6.3602,0.72727,0.1,0.00042594,4256.4,0.00042565,4248.1,-0.00013962,0.81315,-0.00014206,-17.497,0.28867
27545,6.4526,0.45455,0.1,0.00042189,4216,0.00042148,4204,-0.00013802,0.15703,-0.00014123,-23.974,0.29572
27546,6.3602,0.54545,0.1,0.00042304,4227.5,0.00042254,4213,-0.00013815,0.21997,-0.00014203,-28.955,0.28756
27547,6.4526,0.27273,0.1,0.00041971,4194.2,0.00041933,4183.1,-0.00013739,0.033755,-0.00014037,-22.343,0.29449
27548,6.3602,0.36364,0.1,0.00042031,4200.2,0.00041978,4184.9,-0.00013717,0.12941,-0.00014126,-30.577,0.28637
27549,6.3602,0.18182,0.1,0.00041789,4176,0.0004175,4164.7,-0.00013679,-0.031234,-0.00013978,-22.435,0.28508
27550,6.4526,0.090909,0.1,0.0004176,4173.1,0.00041741,4167.5,-0.00013726,-0.043186,-0.00013874,-11.143,0.29316
27551,6.2679,5.7273,0.1,0.00041849,4182,0.00041796,4166.6,-0.00013658,0.037172,-0.00014066,-30.666,0.27706
27552,6.1755,5.8182,0.1,0.00041534,4150.5,0.00041483,4135.8,-0.00013561,-0.044834,-0.0001395,-29.286,0.26778
27553,6.2679,5.9091,0.1,0.00041566,4153.7,0.00041541,4146.4,-0.00013645,-0.032334,-0.00013838,-14.588,0.27571
27554,6.2679,5.5455,0.1,0.00042147,4211.8,0.00042085,4193.9,-0.0001373,0.15969,-0.00014206,-35.574,0.27831
27555,6.1755,5.6364,0.1,0.00041857,4182.8,0.00041784,4161.8,-0.00013604,0.15481,-0.00014162,-41.814,0.26909
27556,6.2679,5.3636,0.1,0.00042474,4244.4,0.00042423,4229.7,-0.00013865,0.39165,-0.00014267,-29.754,0.27946
27557,6.1755,5.4545,0.1,0.00042225,4219.6,0.00042151,4198.1,-0.0001372,0.21164,-0.00014293,-42.877,0.2703
27558,6.2679,5.1818,0.1,0.00042819,4278.9,0.00042797,4272.6,-0.00014047,1.5522,-0.00014256,-14.095,0.28052
27559,6.1755,5.2727,0.1,0.00042623,4259.4,0.00042568,4243.5,-0.000139,0.62622,-0.00014338,-32.282,0.27142
27560,6.2679,5,0.1,0.00043174,4314.4,0.00043198,4321.5,-0.00014101,16.244,-0.00014345,-2.0723,0.28149
27561,6.1755,5.0909,0.1,0.00043043,4301.3,0.00043026,4296.5,-0.00014121,2.7302,-0.0001432,-12.217,0.27244
27562,6.2679,4.8182,0.1,0.00043533,4350.3,0.00043615,4374.9,-0.00013938,50.525,-0.00014623,-0.90491,0.28237
27563,6.1755,4.9091,0.1,0.00043474,4344.4,0.00043513,4355.8,-0.00014129,24.809,-0.00014485,-1.9273,0.27337
27564,6.2679,4.6364,0.1,0.00043887,4385.7,0.00044037,4431,-0.00013702,92.83,-0.00014945,-0.60855,0.28315
27565,6.1755,4.7273,0.1,0.00043909,4387.9,0.00044014,4419.5,-0.00013941,65.006,-0.00014819,-0.94994,0.2742
27566,6.2679,4.4545,0.1,0.0004423,4420,0.00044451,4488.3,-0.00013415,140.44,-0.0001529,-0.45912,0.28385
27567,6.1755,4.5455,0.1,0.00044337,4430.6,0.00044517,4485.6,-0.00013682,112.83,-0.00015192,-0.64965,0.27495
27568,6.2679,4.2727,0.1,0.00044556,4452.6,0.0004485,4544.7,-0.00013097,190.86,-0.00015642,-0.3596,0.28445
27569,6.1755,4.3636,0.1,0.0004475,4471.9,0.00045008,4552.1,-0.00013376,165.37,-0.00015583,-0.48881,0.2756
27570,6.2679,4.0909,0.1,0.0004486,4482.9,0.00045221,4598.6,-0.00012769,241.43,-0.00015986,-0.28455,0.28497
27571,6.1755,4.1818,0.1,0.00045142,4511,0.00045474,4616.7,-0.00013045,219.76,-0.00015975,-0.37976,0.27617
27572,6.2679,3.9091,0.1,0.00045135,4510.4,0.00045557,4648,-0.00012452,289.44,-0.00016307,-0.22579,0.2854
27573,6.1755,4,0.1,0.00045504,4547.2,0.00045906,4677.4,-0.00012714,272.95,-0.0001635,-0.29836,0.27665
27574,6.2679,3.7273,0.1,0.00045377,4534.5,0.0004585,4691.4,-0.00012166,332.32,-0.00016592,-0.18054,0.28576
27575,6.1755,3.8182,0.1,0.00045829,4579.7,0.00046291,4732.1,-0.00012404,321.96,-0.00016692,-0.23668,0.27704
27576,6.2679,3.5455,0.1,0.00045576,4554.5,0.0004609,4727.2,-0.00011929,367.88,-0.00016827,-0.14747,0.28603
27577,6.1755,3.6364,0.1,0.00046108,4607.7,0.00046619,4778.8,-0.00012136,364.16,-0.00016986,-0.19161,0.27736
27578,6.2679,3.3636,0.1,0.00045726,4569.5,0.00046269,4753.8,-0.00011751,394.44,-0.00017002,-0.12536,0.28622
27579,6.1755,3.4545,0.1,0.00046332,4630,0.00046879,4815.8,-0.00011925,397.46,-0.00017217,-0.16102,0.27759
27580,6.2679,3.1818,0.1,0.0004582,4578.8,0.0004638,4770.3,-0.00011642,410.82,-0.00017111,-0.11285,0.28634
27581,6.1755,3.2727,0.1,0.00046488,4645.6,0.0004706,4841.4,-0.0001178,420.39,-0.00017377,-0.14258,0.27775
27582,6.2679,3,0.1,0.00045852,4582,0.00046418,4775.9,-0.00011605,416.36,-0.00017147,-0.10883,0.28637
27583,6.1755,3.0909,0.1,0.00046569,4653.7,0.00047153,4854.6,-0.00011707,432.06,-0.00017459,-0.13405,0.27782
27584,6.2679,2.8182,0.1,0.0004582,4578.8,0.0004638,4770.3,-0.00011642,410.82,-0.00017111,-0.11285,0.28634
27585,6.1755,2.9091,0.1,0.00046569,4653.7,0.00047153,4854.6,-0.00011707,432.06,-0.00017459,-0.13405,0.27782
27586,6.2679,2.6364,0.1,0.00045726,4569.5,0.00046269,4753.8,-0.00011751,394.44,-0.00017002,-0.12536,0.28622
27587,6.1755,2.7273,0.1,0.00046488,4645.6,0.0004706,4841.4,-0.0001178,420.39,-0.00017377,-0.14258,0.27775
27588,6.2679,2.4545,0.1,0.00045576,4554.5,0.0004609,4727.2,-0.00011929,367.88,-0.00016827,-0.14747,0.28603
27589,6.1755,2.5455,0.1,0.00046332,4630,0.00046879,4815.8,-0.00011925,397.46,-0.00017217,-0.16102,0.27759
27590,6.2679,2.2727,0.1,0.00045377,4534.5,0.0004585,4691.4,-0.00012166,332.32,-0.00016592,-0.18054,0.28576
27591,6.1755,2.3636,0.1,0.00046108,4607.7,0.00046619,4778.8,-0.00012136,364.16,-0.00016986,-0.19161,0.27736
27592,6.2679,2.0909,0.1,0.00045135,4510.4,0.00045557,4648,-0.00012452,289.44,-0.00016307,-0.22579,0.2854
27593,6.1755,2.1818,0.1,0.00045829,4579.7,0.00046291,4732.1,-0.00012404,321.96,-0.00016692,-0.23668,0.27704
27594,6.2679,1.9091,0.1,0.0004486,4482.9,0.00045221,4598.6,-0.00012769,241.43,-0.00015986,-0.28455,0.28497
27595,6.1755,2,0.1,0.00045504,4547.2,0.00045906,4677.4,-0.00012714,272.95,-0.0001635,-0.29836,0.27665
27596,6.2679,1.7273,0.1,0.00044556,4452.6,0.0004485,4544.7,-0.00013097,190.86,-0.00015642,-0.3596,0.28445
27597,6.1755,1.8182,0.1,0.00045142,4511,0.00045474,4616.7,-0.00013045,219.76,-0.00015975,-0.37976,0.27617
27598,6.2679,1.5455,0.1,0.0004423,4420,0.00044451,4488.3,-0.00013415,140.44,-0.0001529,-0.45912,0.28385
27599,6.1755,1.6364,0.1,0.0004475,4471.9,0.00045008,4552.1,-0.00013376,165.37,-0.00015583,-0.48881,0.2756
27600,6.2679,1.3636,0.1,0.00043887,4385.7,0.00044037,4431,-0.00013702,92.83,-0.00014945,-0.60855,0.28315
27601,6.1755,1.4545,0.1,0.00044337,4430.6,0.00044517,4485.6,-0.00013682,112.83,-0.00015192,-0.64966,0.27495
27602,6.2679,1.1818,0.1,0.00043533,4350.3,0.00043615,4374.9,-0.00013938,50.524,-0.00014623,-0.90491,0.28237
27603,6.1755,1.2727,0.1,0.00043909,4387.9,0.00044014,4419.5,-0.00013941,65.006,-0.00014819,-0.94995,0.2742
27604,6.2679,1,0.1,0.00043174,4314.4,0.00043198,4321.5,-0.00014101,16.244,-0.00014345,-2.0723,0.28149
27605,6.1755,1.0909,0.1,0.00043474,4344.4,0.00043513,4355.8,-0.00014129,24.809,-0.00014485,-1.9273,0.27337
27606,6.2679,0.81818,0.1,0.00042819,4278.9,0.00042797,4272.6,-0.00014047,1.5522,-0.00014256,-14.095,0.28052
27607,6.1755,0.90909,0.1,0.00043043,4301.3,0.00043026,4296.5,-0.00014121,2.7301,-0.0001432,-12.217,0.27244
27608,6.2679,0.63636,0.1,0.00042474,4244.4,0.00042423,4229.7,-0.00013865,0.39165,-0.00014267,-29.754,0.27946
27609,6.1755,0.72727,0.1,0.00042623,4259.4,0.00042568,4243.5,-0.000139,0.62622,-0.00014338,-32.282,0.27142
27610,6.2679,0.45455,0.1,0.00042147,4211.8,0.00042085,4193.9,-0.0001373,0.15969,-0.00014206,-35.574,0.27831
27611,6.1755,0.54545,0.1,0.00042225,4219.6,0.00042151,4198.1,-0.0001372,0.21164,-0.00014293,-42.877,0.2703
27612,6.2679,0.27273,0.1,0.00041849,4182,0.00041796,4166.6,-0.00013658,0.037171,-0.00014066,-30.666,0.27706
27613,6.1755,0.36364,0.1,0.00041857,4182.8,0.00041784,4161.8,-0.00013604,0.15481,-0.00014162,-41.814,0.26909
27614,6.1755,0.18182,0.1,0.00041534,4150.5,0.00041483,4135.8,-0.00013561,-0.044835,-0.0001395,-29.286,0.26778
27615,6.2679,0.090909,0.1,0.00041566,4153.7,0.00041541,4146.4,-0.00013645,-0.032335,-0.00013838,-14.588,0.27571
27616,6.0832,5.7273,0.1,0.00041542,4151.4,0.00041472,4131,-0.00013508,0.042149,-0.00014047,-40.469,0.25991
27617,5.9908,5.8182,0.1,0.00041065,4103.7,0.00041,4084.8,-0.00013367,-0.066148,-0.00013863,-37.361,0.25077
27618,6.0832,5.9091,0.1,0.00041174,4114.5,0.00041142,4105.1,-0.00013495,-0.021174,-0.00013743,-18.698,0.25855
27619,6.0832,5.5455,0.1,0.00041937,4190.8,0.00041851,4166.1,-0.00013593,0.17818,-0.0001425,-49.186,0.26118
27620,5.9908,5.6364,0.1,0.00041483,4145.4,0.00041387,4117.9,-0.00013416,0.18848,-0.00014147,-54.767,0.25209
27621,6.0832,5.3636,0.1,0.00042377,4234.7,0.00042298,4212,-0.00013755,0.3696,-0.00014365,-45.446,0.26235
27622,5.9908,5.4545,0.1,0.00041967,4193.9,0.00041864,4164.1,-0.00013554,0.22683,-0.00014343,-59.043,0.25332
27623,6.0832,5.1818,0.1,0.00042849,4281.9,0.00042799,4267.5,-0.00013984,1.0447,-0.00014394,-29.778,0.26343
27624,5.9908,5.2727,0.1,0.000425,4247.1,0.00042414,4222.2,-0.00013772,0.58676,-0.00014445,-49.961,0.25446
27625,6.0832,5,0.1,0.00043344,4331.4,0.00043343,4331,-0.00014213,6.4369,-0.00014397,-7.3544,0.26441
27626,5.9908,5.0909,0.1,0.00043072,4304.3,0.00043025,4290.6,-0.00014057,1.6441,-0.00014463,-28.847,0.25549
27627,6.0832,4.8182,0.1,0.00043852,4382.1,0.00043914,4400.6,-0.00014138,38.826,-0.00014677,-1.6483,0.2653
27628,5.9908,4.9091,0.1,0.00043671,4364.1,0.00043682,4367.4,-0.00014282,12.272,-0.00014518,-5.4886,0.25644
27629,6.0832,4.6364,0.1,0.0004436,4432.9,0.00044496,4474.2,-0.00013923,84.81,-0.00015065,-0.93127,0.2661
27630,5.9908,4.7273,0.1,0.00044282,4425.1,0.00044366,4450.5,-0.00014162,52.859,-0.00014888,-1.6389,0.25729
27631,6.0832,4.4545,0.1,0.00044858,4482.7,0.00045075,4549.6,-0.00013645,137.62,-0.00015485,-0.65562,0.2668
27632,5.9908,4.5455,0.1,0.0004489,4485.9,0.00045058,4537,-0.00013927,105.13,-0.0001534,-0.97749,0.25805
27633,6.0832,4.2727,0.1,0.00045336,4530.5,0.00045634,4624.2,-0.00013326,194.15,-0.00015916,-0.49551,0.26742
27634,5.9908,4.3636,0.1,0.00045483,4545.2,0.00045738,4624.4,-0.00013631,163.62,-0.00015818,-0.6931,0.25872
27635,6.0832,4.0909,0.1,0.00045785,4575.4,0.0004616,4695.6,-0.00012991,251.18,-0.00016339,-0.38434,0.26794
27636,5.9908,4.1818,0.1,0.00046049,4601.7,0.00046389,4709.7,-0.00013302,224.75,-0.000163,-0.52127,0.25929
27637,6.0832,3.9091,0.1,0.00046197,4616.5,0.0004664,4761.5,-0.00012667,305.4,-0.00016735,-0.30224,0.26839
27638,5.9908,4,0.1,0.00046577,4654.5,0.00046995,4790.1,-0.00012967,284.76,-0.00016763,-0.40193,0.25978
27639,6.0832,3.7273,0.1,0.00046561,4652.9,0.00047061,4819.5,-0.00012374,353.76,-0.00017086,-0.24215,0.26874
27640,5.9908,3.8182,0.1,0.00047055,4702.3,0.00047541,4862.9,-0.00012655,340.01,-0.00017185,-0.31659,0.26019
27641,6.0832,3.5455,0.1,0.00046864,4683.2,0.00047409,4867.5,-0.00012133,393.72,-0.00017376,-0.20053,0.26902
27642,5.9908,3.6364,0.1,0.0004747,4743.7,0.00048009,4925.4,-0.00012388,387.35,-0.00017547,-0.25789,0.26051
27643,6.0832,3.3636,0.1,0.00047093,4706.1,0.0004767,4903.4,-0.00011955,423.42,-0.00017592,-0.17429,0.26922
27644,5.9908,3.4545,0.1,0.00047803,4777,0.00048383,4974.9,-0.00012181,424.44,-0.00017832,-0.22073,0.26075
27645,6.0832,3.1818,0.1,0.00047237,4720.4,0.00047832,4925.6,-0.00011846,441.65,-0.00017726,-0.16023,0.26933
27646,5.9908,3.2727,0.1,0.00048038,4800.5,0.00048644,5009.4,-0.00012041,449.79,-0.0001803,-0.20002,0.2609
27647,6.0832,3,0.1,0.00047286,4725.3,0.00047888,4933.2,-0.00011809,447.79,-0.00017771,-0.15587,0.26937
27648,5.9908,3.0909,0.1,0.00048159,4812.6,0.00048779,5027.1,-0.00011971,462.61,-0.0001813,-0.1911,0.26098
27649,6.0832,2.8182,0.1,0.00047237,4720.4,0.00047832,4925.6,-0.00011846,441.65,-0.00017726,-0.16023,0.26933
27650,5.9908,2.9091,0.1,0.00048159,4812.6,0.00048779,5027.1,-0.00011971,462.61,-0.0001813,-0.1911,0.26098
27651,6.0832,2.6364,0.1,0.00047093,4706.1,0.0004767,4903.4,-0.00011955,423.42,-0.00017592,-0.17429,0.26922
27652,5.9908,2.7273,0.1,0.00048038,4800.5,0.00048644,5009.4,-0.00012041,449.79,-0.0001803,-0.20002,0.2609
27653,6.0832,2.4545,0.1,0.00046864,4683.2,0.00047409,4867.5,-0.00012133,393.72,-0.00017376,-0.20053,0.26902
27654,5.9908,2.5455,0.1,0.00047803,4777,0.00048383,4974.9,-0.00012181,424.44,-0.00017832,-0.22073,0.26075
27655,6.0832,2.2727,0.1,0.00046561,4652.9,0.00047061,4819.5,-0.00012374,353.76,-0.00017086,-0.24215,0.26874
27656,5.9908,2.3636,0.1,0.0004747,4743.7,0.00048009,4925.4,-0.00012388,387.35,-0.00017547,-0.25789,0.26051
27657,6.0832,2.0909,0.1,0.00046197,4616.5,0.0004664,4761.5,-0.00012667,305.4,-0.00016735,-0.30224,0.26839
27658,5.9908,2.1818,0.1,0.00047055,4702.3,0.00047541,4862.9,-0.00012655,340.01,-0.00017185,-0.31659,0.26019
27659,6.0832,1.9091,0.1,0.00045785,4575.4,0.0004616,4695.6,-0.00012991,251.18,-0.00016339,-0.38434,0.26794
27660,5.9908,2,0.1,0.00046577,4654.5,0.00046995,4790.1,-0.00012967,284.76,-0.00016763,-0.40194,0.25978
27661,6.0832,1.7273,0.1,0.00045336,4530.5,0.00045634,4624.2,-0.00013326,194.15,-0.00015916,-0.49551,0.26742
27662,5.9908,1.8182,0.1,0.00046049,4601.7,0.00046389,4709.7,-0.00013302,224.75,-0.000163,-0.52128,0.25929
27663,6.0832,1.5455,0.1,0.00044858,4482.7,0.00045075,4549.6,-0.00013645,137.62,-0.00015485,-0.65562,0.2668
27664,5.9908,1.6364,0.1,0.00045483,4545.2,0.00045738,4624.4,-0.00013631,163.62,-0.00015818,-0.6931,0.25872
27665,6.0832,1.3636,0.1,0.0004436,4432.9,0.00044496,4474.2,-0.00013923,84.81,-0.00015065,-0.93128,0.2661
27666,5.9908,1.4545,0.1,0.0004489,4485.9,0.00045058,4537,-0.00013927,105.13,-0.0001534,-0.97749,0.25805
27667,6.0832,1.1818,0.1,0.00043852,4382.1,0.00043914,4400.6,-0.00014138,38.826,-0.00014677,-1.6483,0.2653
27668,5.9908,1.2727,0.1,0.00044282,4425.1,0.00044366,4450.5,-0.00014162,52.859,-0.00014888,-1.6389,0.25729
27669,6.0832,1,0.1,0.00043344,4331.4,0.00043343,4331,-0.00014213,6.4369,-0.00014397,-7.3545,0.26441
27670,5.9908,1.0909,0.1,0.00043671,4364.1,0.00043682,4367.4,-0.00014282,12.272,-0.00014518,-5.4887,0.25644
27671,6.0832,0.81818,0.1,0.00042849,4281.9,0.00042799,4267.5,-0.00013984,1.0446,-0.00014394,-29.778,0.26343
27672,5.9908,0.90909,0.1,0.00043072,4304.3,0.00043025,4290.6,-0.00014057,1.6441,-0.00014463,-28.847,0.25549
27673,6.0832,0.63636,0.1,0.00042377,4234.7,0.00042298,4212,-0.00013755,0.3696,-0.00014365,-45.446,0.26235
27674,5.9908,0.72727,0.1,0.000425,4247.1,0.00042414,4222.2,-0.00013772,0.58676,-0.00014445,-49.961,0.25446
27675,6.0832,0.45455,0.1,0.00041937,4190.8,0.00041851,4166.1,-0.00013593,0.17818,-0.0001425,-49.186,0.26118
27676,5.9908,0.54545,0.1,0.00041968,4193.9,0.00041864,4164.1,-0.00013554,0.22683,-0.00014343,-59.043,0.25332
27677,6.0832,0.27273,0.1,0.00041542,4151.4,0.00041472,4131,-0.00013508,0.042147,-0.00014047,-40.469,0.25991
27678,5.9908,0.36364,0.1,0.00041483,4145.4,0.00041387,4117.9,-0.00013416,0.18848,-0.00014147,-54.767,0.25209
27679,5.9908,0.18182,0.1,0.00041065,4103.7,0.00041,4084.8,-0.00013367,-0.06615,-0.00013863,-37.361,0.25077
27680,6.0832,0.090909,0.1,0.00041174,4114.5,0.00041142,4105.1,-0.00013495,-0.021175,-0.00013743,-18.698,0.25855
27681,5.8985,5.7273,0.1,0.00041007,4097.9,0.00040917,4071.8,-0.00013275,0.047048,-0.00013964,-51.752,0.24305
27682,5.8061,5.8182,0.1,0.00040334,4030.6,0.00040252,4007,-0.00013079,-0.098818,-0.00013699,-46.675,0.23404
27683,5.8985,5.9091,0.1,0.00040536,4050.8,0.00040496,4039,-0.00013261,-0.010795,-0.00013573,-23.501,0.24167
27684,5.8985,5.5455,0.1,0.00041516,4148.8,0.00041403,4116.1,-0.00013377,0.2102,-0.00014241,-64.769,0.24433
27685,5.8061,5.6364,0.1,0.0004086,4083.2,0.00040738,4048.2,-0.00013137,0.22999,-0.00014062,-69.284,0.23538
27686,5.8985,5.3636,0.1,0.00042095,4206.6,0.00041983,4174.5,-0.00013571,0.38959,-0.00014424,-63.721,0.24552
27687,5.8061,5.4545,0.1,0.00041484,4145.5,0.00041347,4106.4,-0.00013303,0.26299,-0.00014335,-77.34,0.23663
27688,5.8985,5.1818,0.1,0.00042728,4269.8,0.00042644,4245.6,-0.00013849,0.91743,-0.00014514,-49.016,0.24662
27689,5.8061,5.2727,0.1,0.00042184,4215.5,0.00042061,4180.1,-0.00013565,0.61273,-0.00014512,-70.572,0.23778
27690,5.8985,5,0.1,0.00043403,4337.3,0.00043369,4327.3,-0.00014185,2.961,-0.00014527,-22.74,0.24762
27691,5.8061,5.0909,0.1,0.00042951,4292.1,0.00042866,4267.6,-0.00013914,1.3657,-0.00014598,-50.023,0.23884
27692,5.8985,4.8182,0.1,0.00044104,4407.4,0.00044139,4417.6,-0.00014333,24.264,-0.00014706,-3.7205,0.24853
27693,5.8061,4.9091,0.1,0.00043766,4373.5,0.00043741,4366.6,-0.00014306,5.0611,-0.00014626,-18.919,0.23981
27694,5.8985,4.6364,0.1,0.00044815,4478.4,0.00044931,4513.6,-0.00014172,72.754,-0.00015161,-1.526,0.24934
27695,5.8061,4.7273,0.1,0.00044607,4457.6,0.00044662,4474.1,-0.00014397,36.653,-0.00014929,-3.3379,0.24068
27696,5.8985,4.4545,0.1,0.00045518,4548.6,0.00045724,4612.1,-0.00013918,130.85,-0.00015672,-0.96828,0.25006
27697,5.8061,4.5455,0.1,0.00045453,4542.2,0.000456,4586.9,-0.00014216,92.548,-0.00015469,-1.5649,0.24146
27698,5.8985,4.2727,0.1,0.00046198,4616.6,0.00046496,4710.1,-0.00013611,193.99,-0.00016202,-0.69596,0.25069
27699,5.8061,4.3636,0.1,0.00046283,4625.1,0.00046529,4701.2,-0.00013948,157.23,-0.00016054,-1.0157,0.24214
27700,5.8985,4.0909,0.1,0.00046842,4680.9,0.00047226,4804.4,-0.0001328,258.15,-0.00016723,-0.52433,0.25123
27701,5.8061,4.1818,0.1,0.00047081,4704.8,0.00047422,4813.2,-0.00013633,225.76,-0.00016647,-0.72941,0.24273
27702,5.8985,3.9091,0.1,0.00047436,4740.3,0.00047898,4891.7,-0.00012958,319.23,-0.00017212,-0.40578,0.25168
27703,5.8061,4,0.1,0.0004783,4779.7,0.0004826,4919.3,-0.00013307,293.38,-0.00017219,-0.54707,0.24324
27704,5.8985,3.7273,0.1,0.00047965,4793.2,0.0004849,4968.8,-0.0001267,373.51,-0.00017645,-0.32427,0.25205
27705,5.8061,3.8182,0.1,0.00048513,4848,0.00049019,5015.7,-0.00013005,355.45,-0.00017741,-0.42482,0.24365
27706,5.8985,3.5455,0.1,0.00048409,4837.5,0.00048984,5032.8,-0.00012436,418.03,-0.00018003,-0.27169,0.25233
27707,5.8061,3.6364,0.1,0.00049109,4907.6,0.00049675,5098.7,-0.00012752,408.16,-0.00018189,-0.34634,0.24398
27708,5.8985,3.3636,0.1,0.00048747,4871.3,0.00049356,5080.9,-0.00012267,450.82,-0.0001827,-0.24123,0.25254
27709,5.8061,3.4545,0.1,0.00049592,4955.8,0.00050202,5164.8,-0.00012562,448.93,-0.00018541,-0.3013,0.24423
27710,5.8985,3.1818,0.1,0.00048959,4892.5,0.00049589,5110.8,-0.00012165,470.8,-0.00018434,-0.22636,0.25266
27711,5.8061,3.2727,0.1,0.00049934,4989.9,0.00050573,5210.9,-0.00012439,476.43,-0.00018784,-0.27931,0.24439
27712,5.8985,3,0.1,0.00049032,4899.8,0.00049669,5120.9,-0.00012132,477.5,-0.0001849,-0.22205,0.2527
27713,5.8061,3.0909,0.1,0.00050111,5007.7,0.00050764,5234.6,-0.0001238,490.21,-0.00018908,-0.27108,0.24448
27714,5.8985,2.8182,0.1,0.00048959,4892.5,0.00049589,5110.8,-0.00012165,470.8,-0.00018434,-0.22636,0.25266
27715,5.8061,2.9091,0.1,0.00050111,5007.7,0.00050764,5234.6,-0.0001238,490.21,-0.00018908,-0.27108,0.24448
27716,5.8985,2.6364,0.1,0.00048747,4871.3,0.00049356,5080.9,-0.00012267,450.82,-0.0001827,-0.24123,0.25254
27717,5.8061,2.7273,0.1,0.00049934,4989.9,0.00050573,5210.9,-0.00012439,476.43,-0.00018784,-0.27931,0.24439
27718,5.8985,2.4545,0.1,0.00048409,4837.5,0.00048984,5032.8,-0.00012436,418.03,-0.00018003,-0.27169,0.25233
27719,5.8061,2.5455,0.1,0.00049592,4955.8,0.00050202,5164.8,-0.00012562,448.93,-0.00018541,-0.3013,0.24423
27720,5.8985,2.2727,0.1,0.00047965,4793.2,0.0004849,4968.8,-0.0001267,373.51,-0.00017645,-0.32427,0.25205
27721,5.8061,2.3636,0.1,0.00049109,4907.6,0.00049675,5098.7,-0.00012752,408.16,-0.00018189,-0.34634,0.24398
27722,5.8985,2.0909,0.1,0.00047436,4740.3,0.00047898,4891.7,-0.00012958,319.23,-0.00017212,-0.40578,0.25168
27723,5.8061,2.1818,0.1,0.00048513,4848,0.00049019,5015.7,-0.00013005,355.45,-0.00017741,-0.42482,0.24365
27724,5.8985,1.9091,0.1,0.00046842,4680.9,0.00047226,4804.4,-0.0001328,258.15,-0.00016723,-0.52433,0.25123
27725,5.8061,2,0.1,0.0004783,4779.7,0.0004826,4919.3,-0.00013307,293.38,-0.00017219,-0.54707,0.24324
27726,5.8985,1.7273,0.1,0.00046198,4616.6,0.00046496,4710.1,-0.00013611,193.99,-0.00016202,-0.69596,0.25069
27727,5.8061,1.8182,0.1,0.00047081,4704.8,0.00047422,4813.2,-0.00013633,225.76,-0.00016647,-0.72942,0.24273
27728,5.8985,1.5455,0.1,0.00045518,4548.6,0.00045724,4612.1,-0.00013918,130.85,-0.00015672,-0.96828,0.25006
27729,5.8061,1.6364,0.1,0.00046283,4625.1,0.00046529,4701.2,-0.00013948,157.23,-0.00016054,-1.0157,0.24214
27730,5.8985,1.3636,0.1,0.00044815,4478.4,0.00044931,4513.6,-0.00014172,72.754,-0.00015161,-1.526,0.24934
27731,5.8061,1.4545,0.1,0.00045453,4542.2,0.000456,4586.9,-0.00014216,92.547,-0.00015469,-1.5649,0.24146
27732,5.8985,1.1818,0.1,0.00044104,4407.4,0.00044139,4417.6,-0.00014333,24.264,-0.00014706,-3.7205,0.24853
27733,5.8061,1.2727,0.1,0.00044607,4457.6,0.00044662,4474.1,-0.00014397,36.653,-0.00014929,-3.3379,0.24068
27734,5.8985,1,0.1,0.00043403,4337.3,0.00043369,4327.3,-0.00014185,2.961,-0.00014527,-22.74,0.24762
27735,5.8061,1.0909,0.1,0.00043766,4373.5,0.00043741,4366.6,-0.00014306,5.0611,-0.00014626,-18.919,0.23981
27736,5.8985,0.81818,0.1,0.00042728,4269.8,0.00042644,4245.6,-0.00013849,0.91742,-0.00014514,-49.016,0.24662
27737,5.8061,0.90909,0.1,0.00042951,4292.1,0.00042866,4267.6,-0.00013914,1.3657,-0.00014598,-50.023,0.23884
27738,5.8985,0.63636,0.1,0.00042095,4206.6,0.00041983,4174.5,-0.00013571,0.38959,-0.00014424,-63.721,0.24552
27739,5.8061,0.72727,0.1,0.00042184,4215.5,0.00042061,4180.1,-0.00013565,0.61273,-0.00014512,-70.572,0.23778
27740,5.8985,0.45455,0.1,0.00041516,4148.8,0.00041403,4116.1,-0.00013377,0.2102,-0.00014241,-64.769,0.24433
27741,5.8061,0.54545,0.1,0.00041484,4145.5,0.00041347,4106.4,-0.00013303,0.26299,-0.00014335,-77.34,0.23663
27742,5.8985,0.27273,0.1,0.00041007,4097.9,0.00040917,4071.8,-0.00013275,0.047046,-0.00013964,-51.752,0.24305
27743,5.8061,0.36364,0.1,0.0004086,4083.2,0.00040738,4048.2,-0.00013137,0.22999,-0.00014062,-69.284,0.23538
27744,5.8061,0.18182,0.1,0.00040334,4030.6,0.00040252,4007,-0.00013079,-0.098819,-0.00013699,-46.675,0.23404
27745,5.8985,0.090909,0.1,0.00040536,4050.8,0.00040496,4039,-0.00013261,-0.010796,-0.00013573,-23.501,0.24167
27746,5.7138,5.7273,0.1,0.00040189,4016.2,0.00040076,3983.6,-0.00012942,0.050898,-0.00013799,-64.389,0.22646
27747,5.6214,5.8182,0.1,0.00039282,3925.4,0.00039181,3896.5,-0.0001268,-0.14508,-0.00013439,-57.139,0.21758
27748,5.7138,5.9091,0.1,0.00039599,3957.2,0.00039549,3942.6,-0.00012924,-0.0029039,-0.0001331,-28.978,0.22507
27749,5.7138,5.5455,0.1,0.00040832,4080.4,0.00040686,4038.8,-0.00013064,0.25699,-0.0001416,-82.116,0.22777
27750,5.6214,5.6364,0.1,0.00039928,3990.1,0.00039777,3947,-0.00012751,0.28009,-0.00013886,-84.993,0.21894
27751,5.7138,5.3636,0.1,0.00041579,4155.1,0.0004143,4112.4,-0.00013297,0.44286,-0.00014428,-84.529,0.22898
27752,5.6214,5.4545,0.1,0.00040717,4068.9,0.00040543,4019.5,-0.00012948,0.32375,-0.0001425,-97.46,0.22022
27753,5.7138,5.1818,0.1,0.00042415,4238.5,0.00042289,4202.6,-0.00013631,0.91749,-0.00014601,-71.896,0.2301
27754,5.6214,5.2727,0.1,0.00041626,4159.7,0.00041458,4112.1,-0.00013262,0.68662,-0.00014524,-94.157,0.2214
27755,5.7138,5,0.1,0.00043321,4329.1,0.00043245,4307.3,-0.00014053,2.1341,-0.00014685,-45.384,0.23113
27756,5.6214,5.0909,0.1,0.00042639,4261,0.00042507,4223.2,-0.00013683,1.3138,-0.00014709,-75.824,0.22248
27757,5.7138,4.8182,0.1,0.00044275,4424.5,0.00044272,4423.6,-0.00014462,10.552,-0.00014765,-12.17,0.23206
27758,5.6214,4.9091,0.1,0.00043733,4370.3,0.00043663,4349.9,-0.00014189,3.1554,-0.00014811,-43.561,0.22348
27759,5.7138,4.6364,0.1,0.00045251,4522,0.00045338,4548,-0.00014455,55.39,-0.0001523,-2.8357,0.2329
27760,5.6214,4.7273,0.1,0.00044877,4484.6,0.0004489,4488.7,-0.00014611,18.013,-0.00014979,-9.6675,0.22437
27761,5.7138,4.4545,0.1,0.00046224,4619.2,0.00046411,4676.4,-0.00014254,118.35,-0.00015849,-1.5109,0.23364
27762,5.6214,4.5455,0.1,0.00046035,4600.3,0.0004615,4635,-0.00014566,73.07,-0.00015575,-2.8115,0.22518
27763,5.7138,4.2727,0.1,0.0004717,4713.8,0.00047461,4804.7,-0.00013976,188.56,-0.00016499,-1.0081,0.23429
27764,5.6214,4.3636,0.1,0.00047178,4714.5,0.00047403,4784,-0.00014354,143.82,-0.00016289,-1.5713,0.22588
27765,5.7138,4.0909,0.1,0.00048072,4803.9,0.0004846,4928.5,-0.00013665,260.64,-0.00017143,-0.72841,0.23484
27766,5.6214,4.1818,0.1,0.0004828,4824.7,0.00048616,4930.6,-0.00014072,220.54,-0.00017021,-1.0511,0.2265
27767,5.7138,3.9091,0.1,0.00048909,4887.5,0.00049385,5043.6,-0.00013358,329.34,-0.00017748,-0.54986,0.23531
27768,5.6214,4,0.1,0.00049321,4928.7,0.00049758,5070,-0.0001377,296.75,-0.0001773,-0.75405,0.22702
27769,5.7138,3.7273,0.1,0.00049659,4962.5,0.00050206,5145.7,-0.00013089,389.94,-0.00018285,-0.43499,0.23569
27770,5.6214,3.8182,0.1,0.00050277,5024.3,0.00050799,5197.1,-0.00013494,366.33,-0.00018378,-0.57063,0.22745
27771,5.7138,3.5455,0.1,0.00050293,5025.8,0.00050895,5230.7,-0.00012879,439.01,-0.00018727,-0.36699,0.23598
27772,5.6214,3.6364,0.1,0.00051117,5108.2,0.00051705,5306.9,-0.00013275,424.51,-0.00018931,-0.46369,0.2278
27773,5.7138,3.3636,0.1,0.00050778,5074.3,0.00051418,5294.7,-0.00012734,474.59,-0.00019055,-0.33246,0.23619
27774,5.6214,3.4545,0.1,0.00051801,5176.5,0.00052438,5394.6,-0.00013125,468.52,-0.00019366,-0.40951,0.22806
27775,5.7138,3.1818,0.1,0.00051084,5104.9,0.00051746,5334.6,-0.00012652,495.96,-0.00019257,-0.31834,0.23632
27776,5.6214,3.2727,0.1,0.00052287,5225.1,0.00052954,5455.9,-0.00013037,497.53,-0.00019664,-0.38811,0.22823
27777,5.7138,3,0.1,0.00051189,5115.3,0.00051858,5348.1,-0.00012626,503.07,-0.00019325,-0.31484,0.23636
27778,5.6214,3.0909,0.1,0.0005254,5250.4,0.00053223,5487.4,-0.00012998,511.81,-0.00019815,-0.38247,0.22831
27779,5.7138,2.8182,0.1,0.00051084,5104.9,0.00051746,5334.6,-0.00012652,495.96,-0.00019257,-0.31834,0.23632
27780,5.6214,2.9091,0.1,0.0005254,5250.4,0.00053223,5487.4,-0.00012998,511.81,-0.00019815,-0.38247,0.22831
27781,5.7138,2.6364,0.1,0.00050778,5074.3,0.00051418,5294.7,-0.00012734,474.59,-0.00019055,-0.33246,0.23619
27782,5.6214,2.7273,0.1,0.00052287,5225.1,0.00052955,5455.9,-0.00013037,497.53,-0.00019664,-0.38811,0.22823
27783,5.7138,2.4545,0.1,0.00050293,5025.8,0.00050895,5230.7,-0.00012879,439,-0.00018727,-0.36699,0.23598
27784,5.6214,2.5455,0.1,0.00051801,5176.5,0.00052438,5394.6,-0.00013125,468.52,-0.00019366,-0.40951,0.22806
27785,5.7138,2.2727,0.1,0.00049659,4962.5,0.00050206,5145.7,-0.00013089,389.94,-0.00018285,-0.43499,0.23569
27786,5.6214,2.3636,0.1,0.00051117,5108.2,0.00051705,5306.9,-0.00013275,424.51,-0.00018931,-0.46369,0.2278
27787,5.7138,2.0909,0.1,0.00048909,4887.5,0.00049385,5043.6,-0.00013358,329.33,-0.00017748,-0.54987,0.23531
27788,5.6214,2.1818,0.1,0.00050277,5024.3,0.00050799,5197.1,-0.00013494,366.33,-0.00018378,-0.57063,0.22745
27789,5.7138,1.9091,0.1,0.00048072,4803.9,0.00048461,4928.5,-0.00013665,260.64,-0.00017143,-0.72842,0.23484
27790,5.6214,2,0.1,0.00049321,4928.7,0.00049758,5070,-0.0001377,296.75,-0.0001773,-0.75405,0.22702
27791,5.7138,1.7273,0.1,0.0004717,4713.8,0.00047461,4804.7,-0.00013976,188.56,-0.00016499,-1.0081,0.23429
27792,5.6214,1.8182,0.1,0.0004828,4824.7,0.00048616,4930.6,-0.00014072,220.54,-0.00017021,-1.0511,0.2265
27793,5.7138,1.5455,0.1,0.00046224,4619.2,0.00046411,4676.5,-0.00014254,118.35,-0.00015849,-1.5109,0.23364
27794,5.6214,1.6364,0.1,0.00047178,4714.5,0.00047403,4784,-0.00014354,143.82,-0.00016289,-1.5713,0.22588
27795,5.7138,1.3636,0.1,0.00045251,4522,0.00045338,4548,-0.00014455,55.39,-0.0001523,-2.8358,0.2329
27796,5.6214,1.4545,0.1,0.00046035,4600.3,0.0004615,4635,-0.00014566,73.07,-0.00015575,-2.8116,0.22518
27797,5.7138,1.1818,0.1,0.00044275,4424.5,0.00044272,4423.6,-0.00014462,10.551,-0.00014765,-12.17,0.23206
27798,5.6214,1.2727,0.1,0.00044877,4484.6,0.0004489,4488.7,-0.00014611,18.013,-0.00014979,-9.6676,0.22437
27799,5.7138,1,0.1,0.00043321,4329.1,0.00043245,4307.3,-0.00014053,2.1341,-0.00014685,-45.384,0.23113
27800,5.6214,1.0909,0.1,0.00043733,4370.3,0.00043663,4349.9,-0.00014189,3.1554,-0.00014811,-43.561,0.22348
27801,5.7138,0.81818,0.1,0.00042415,4238.5,0.00042289,4202.6,-0.00013631,0.91748,-0.00014601,-71.896,0.2301
27802,5.6214,0.90909,0.1,0.00042639,4261,0.00042507,4223.2,-0.00013683,1.3138,-0.00014709,-75.824,0.22248
27803,5.7138,0.63636,0.1,0.00041579,4155.1,0.0004143,4112.4,-0.00013297,0.44285,-0.00014428,-84.529,0.22898
27804,5.6214,0.72727,0.1,0.00041626,4159.7,0.00041458,4112.1,-0.00013262,0.68662,-0.00014524,-94.157,0.2214
27805,5.7138,0.45455,0.1,0.00040832,4080.4,0.00040686,4038.8,-0.00013064,0.25699,-0.0001416,-82.116,0.22777
27806,5.6214,0.54545,0.1,0.00040717,4068.9,0.00040543,4019.5,-0.00012948,0.32375,-0.0001425,-97.46,0.22022
27807,5.7138,0.27273,0.1,0.00040189,4016.2,0.00040076,3983.6,-0.00012942,0.050897,-0.00013799,-64.389,0.22646
27808,5.6214,0.36364,0.1,0.00039928,3990.1,0.00039777,3947,-0.00012751,0.28009,-0.00013886,-84.993,0.21894
27809,5.6214,0.18182,0.1,0.00039282,3925.4,0.00039181,3896.5,-0.0001268,-0.14508,-0.00013439,-57.139,0.21758
27810,5.7138,0.090909,0.1,0.00039599,3957.2,0.00039549,3942.6,-0.00012924,-0.0029051,-0.0001331,-28.978,0.22507
27811,5.5291,5.7273,0.1,0.00039026,3899.9,0.00038887,3860.3,-0.00012489,0.054917,-0.00013529,-78.059,0.21015
27812,5.4367,5.8182,0.1,0.00037843,3781.7,0.00037722,3746.9,-0.00012149,-0.20248,-0.00013058,-68.501,0.20139
27813,5.5291,5.9091,0.1,0.00038298,3827.2,0.00038237,3809.5,-0.00012464,0.00023474,-0.00012931,-35.031,0.20873
27814,5.5291,5.5455,0.1,0.00039821,3979.4,0.00039641,3928.2,-0.00012636,0.32303,-0.00013981,-100.78,0.21148
27815,5.4367,5.6364,0.1,0.00038619,3859.3,0.00038438,3807.8,-0.00012237,0.34181,-0.00013589,-101.22,0.20278
27816,5.5291,5.3636,0.1,0.00040774,4074.5,0.0004058,4019.9,-0.00012914,0.53226,-0.00014354,-107.7,0.21272
27817,5.4367,5.4545,0.1,0.00039602,3957.5,0.00039387,3896.9,-0.00012472,0.41772,-0.00014059,-118.84,0.20408
27818,5.5291,5.1818,0.1,0.00041862,4183.3,0.00041687,4133.5,-0.00013314,0.99205,-0.00014642,-98.802,0.21387
27819,5.4367,5.2727,0.1,0.00040765,4073.7,0.00040548,4012.4,-0.00012843,0.80844,-0.00014461,-120.74,0.20529
27820,5.5291,5,0.1,0.00043065,4303.6,0.00042937,4266.8,-0.00013825,1.8923,-0.00014842,-74.483,0.21493
27821,5.4367,5.0909,0.1,0.00042092,4206.3,0.00041902,4152.4,-0.00013345,1.3718,-0.00014789,-107.13,0.20641
27822,5.5291,4.8182,0.1,0.00044349,4431.8,0.00044294,4416,-0.00014412,5.0582,-0.00014964,-36.471,0.21589
27823,5.4367,4.9091,0.1,0.00043548,4351.8,0.00043415,4313.8,-0.00013963,2.5723,-0.0001503,-77.589,0.20744
27824,5.5291,4.6364,0.1,0.00045673,4564.2,0.00045715,4576.6,-0.00014769,32.088,-0.00015289,-6.9832,0.21676
27825,5.4367,4.7273,0.1,0.00045087,4505.6,0.0004504,4492,-0.00014648,7.3179,-0.00015201,-34.236,0.20837
27826,5.5291,4.4545,0.1,0.00047,4696.8,0.00047154,4743.4,-0.00014681,97.41,-0.00016012,-2.6081,0.21753
27827,5.4367,4.5455,0.1,0.00046656,4662.4,0.00046719,4681.2,-0.0001499,44.653,-0.00015672,-6.593,0.20921
27828,5.5291,4.2727,0.1,0.00048297,4826.4,0.00048568,4910.7,-0.0001446,174.99,-0.0001681,-1.5344,0.2182
27829,5.4367,4.3636,0.1,0.00048211,4817.7,0.00048398,4875.1,-0.00014892,119.67,-0.00016521,-2.6993,0.20995
27830,5.5291,4.0909,0.1,0.00049537,4950.3,0.00049921,5072.8,-0.00014186,256.02,-0.00017607,-1.0359,0.21878
27831,5.4367,4.1818,0.1,0.00049714,4967.9,0.00050028,5066.7,-0.0001467,205.5,-0.00017426,-1.6014,0.21059
27832,5.5291,3.9091,0.1,0.00050694,5066,0.00051177,5224,-0.00013913,333.3,-0.00018359,-0.74862,0.21927
27833,5.4367,4,0.1,0.00051138,5110.3,0.0005157,5249.3,-0.00014412,291.76,-0.00018309,-1.0768,0.21114
27834,5.5291,3.7273,0.1,0.00051738,5170.2,0.00052302,5358.6,-0.00013684,400.64,-0.00019024,-0.58117,0.21967
27835,5.4367,3.8182,0.1,0.00052453,5241.7,0.00052983,5416.4,-0.00014183,369.8,-0.00019115,-0.78201,0.2116
27836,5.5291,3.5455,0.1,0.00052625,5258.9,0.00053249,5470.9,-0.00013522,453.96,-0.0001957,-0.49341,0.21998
27837,5.4367,3.6364,0.1,0.00053615,5357.8,0.00054219,5561,-0.00014025,433.34,-0.00019801,-0.62158,0.21197
27838,5.5291,3.3636,0.1,0.00053308,5327.1,0.00053973,5555.6,-0.00013425,491.58,-0.00019974,-0.45601,0.2202
27839,5.4367,3.4545,0.1,0.00054566,5452.9,0.00055222,5676.5,-0.00013944,479.6,-0.00020335,-0.55331,0.21224
27840,5.5291,3.1818,0.1,0.0005374,5370.3,0.00054428,5608.4,-0.00013379,513.63,-0.00020221,-0.44525,0.22034
27841,5.4367,3.2727,0.1,0.00055244,5520.6,0.00055932,5757.1,-0.00013918,508.85,-0.00020697,-0.53561,0.21242
27842,5.5291,3,0.1,0.00053887,5385,0.00054583,5626.3,-0.00013366,520.85,-0.00020304,-0.44383,0.22038
27843,5.4367,3.0909,0.1,0.00055598,5555.9,0.00056301,5798.5,-0.00013915,522.79,-0.0002088,-0.53527,0.21252
27844,5.5291,2.8182,0.1,0.0005374,5370.3,0.00054428,5608.4,-0.00013379,513.63,-0.00020221,-0.44525,0.22034
27845,5.4367,2.9091,0.1,0.00055598,5555.9,0.00056301,5798.5,-0.00013915,522.78,-0.0002088,-0.53527,0.21252
27846,5.5291,2.6364,0.1,0.00053308,5327.1,0.00053973,5555.6,-0.00013425,491.58,-0.00019974,-0.45601,0.2202
27847,5.4367,2.7273,0.1,0.00055244,5520.6,0.00055932,5757.1,-0.00013918,508.85,-0.00020697,-0.53561,0.21242
27848,5.5291,2.4545,0.1,0.00052625,5258.9,0.00053249,5470.9,-0.00013522,453.96,-0.0001957,-0.49341,0.21998
27849,5.4367,2.5455,0.1,0.00054566,5452.9,0.00055222,5676.5,-0.00013944,479.6,-0.00020335,-0.55331,0.21224
27850,5.5291,2.2727,0.1,0.00051738,5170.2,0.00052302,5358.6,-0.00013684,400.64,-0.00019024,-0.58117,0.21967
27851,5.4367,2.3636,0.1,0.00053615,5357.8,0.00054219,5561,-0.00014025,433.34,-0.00019801,-0.62158,0.21197
27852,5.5291,2.0909,0.1,0.00050695,5066,0.00051178,5224,-0.00013913,333.3,-0.00018359,-0.74862,0.21927
27853,5.4367,2.1818,0.1,0.00052453,5241.7,0.00052983,5416.4,-0.00014183,369.8,-0.00019115,-0.78201,0.2116
27854,5.5291,1.9091,0.1,0.00049537,4950.3,0.00049921,5072.8,-0.00014186,256.02,-0.00017607,-1.0359,0.21878
27855,5.4367,2,0.1,0.00051138,5110.3,0.0005157,5249.3,-0.00014412,291.76,-0.00018309,-1.0768,0.21114
27856,5.5291,1.7273,0.1,0.00048297,4826.4,0.00048568,4910.7,-0.0001446,174.99,-0.0001681,-1.5344,0.2182
27857,5.4367,1.8182,0.1,0.00049714,4967.9,0.00050028,5066.7,-0.0001467,205.5,-0.00017426,-1.6014,0.21059
27858,5.5291,1.5455,0.1,0.00047,4696.8,0.00047154,4743.4,-0.00014681,97.409,-0.00016012,-2.6081,0.21753
27859,5.4367,1.6364,0.1,0.00048211,4817.7,0.00048398,4875.1,-0.00014892,119.67,-0.00016521,-2.6993,0.20995
27860,5.5291,1.3636,0.1,0.00045673,4564.2,0.00045715,4576.6,-0.00014769,32.088,-0.00015289,-6.9832,0.21676
27861,5.4367,1.4545,0.1,0.00046657,4662.4,0.00046719,4681.3,-0.0001499,44.653,-0.00015672,-6.593,0.20921
27862,5.5291,1.1818,0.1,0.00044349,4431.8,0.00044294,4416,-0.00014412,5.0582,-0.00014964,-36.471,0.21589
27863,5.4367,1.2727,0.1,0.00045087,4505.6,0.0004504,4492,-0.00014648,7.3178,-0.00015201,-34.236,0.20837
27864,5.5291,1,0.1,0.00043065,4303.6,0.00042937,4266.8,-0.00013825,1.8923,-0.00014842,-74.483,0.21493
27865,5.4367,1.0909,0.1,0.00043548,4351.8,0.00043415,4313.8,-0.00013963,2.5723,-0.0001503,-77.589,0.20744
27866,5.5291,0.81818,0.1,0.00041862,4183.3,0.00041687,4133.5,-0.00013314,0.99205,-0.00014642,-98.802,0.21387
27867,5.4367,0.90909,0.1,0.00042092,4206.3,0.00041902,4152.4,-0.00013345,1.3718,-0.00014789,-107.13,0.20641
27868,5.5291,0.63636,0.1,0.00040774,4074.5,0.0004058,4019.9,-0.00012914,0.53226,-0.00014354,-107.7,0.21272
27869,5.4367,0.72727,0.1,0.00040765,4073.7,0.00040548,4012.4,-0.00012843,0.80844,-0.00014461,-120.74,0.20529
27870,5.5291,0.45455,0.1,0.00039821,3979.4,0.00039641,3928.2,-0.00012636,0.32303,-0.00013981,-100.78,0.21148
27871,5.4367,0.54545,0.1,0.00039602,3957.5,0.00039387,3896.9,-0.00012472,0.41771,-0.00014059,-118.84,0.20408
27872,5.5291,0.27273,0.1,0.00039026,3899.9,0.00038887,3860.3,-0.00012489,0.054915,-0.00013529,-78.059,0.21015
27873,5.4367,0.36364,0.1,0.00038619,3859.3,0.00038438,3807.8,-0.00012237,0.34181,-0.00013589,-101.22,0.20278
27874,5.4367,0.18182,0.1,0.00037843,3781.7,0.00037722,3746.9,-0.00012149,-0.20248,-0.00013058,-68.501,0.20139
27875,5.5291,0.090909,0.1,0.00038298,3827.2,0.00038237,3809.5,-0.00012464,0.00023318,-0.00012931,-35.031,0.20873
27876,5.3443,5.7273,0.1,0.00037445,3741.9,0.0003728,3695,-0.00011897,0.065402,-0.00013124,-92.166,0.1941
27877,5.252,5.8182,0.1,0.00035947,3592.2,0.00035803,3551.3,-0.00011465,-0.25459,-0.0001253,-80.267,0.18545
27878,5.3443,5.9091,0.1,0.00036564,3653.8,0.00036491,3632.9,-0.0001186,-0.0050681,-0.00012412,-41.436,0.19265
27879,5.3443,5.5455,0.1,0.00038412,3838.6,0.00038194,3777.4,-0.00012073,0.41706,-0.00013676,-119.99,0.19546
27880,5.252,5.6364,0.1,0.00036857,3683.1,0.00036645,3623.5,-0.00011576,0.42596,-0.00013137,-116.88,0.18687
27881,5.3443,5.3636,0.1,0.00039611,3958.4,0.00039369,3890.5,-0.00012402,0.66706,-0.0001418,-132.92,0.19674
27882,5.252,5.4545,0.1,0.00038064,3803.8,0.00037806,3731.8,-0.00011853,0.56203,-0.00013733,-140.63,0.18821
27883,5.3443,5.1818,0.1,0.00041017,4098.9,0.00040781,4032.6,-0.00012875,1.1291,-0.00014626,-130.4,0.19792
27884,5.252,5.2727,0.1,0.00039539,3951.2,0.00039263,3874.3,-0.00012287,0.98799,-0.00014302,-150.42,0.18946
27885,5.3443,5,0.1,0.000426,4257.1,0.00042402,4201,-0.00013486,1.8604,-0.00014997,-111.68,0.19902
27886,5.252,5.0909,0.1,0.00041262,4123.4,0.00040997,4049.4,-0.00012876,1.5089,-0.00014834,-145.54,0.19062
27887,5.3443,4.8182,0.1,0.00044313,4428.2,0.00044184,4391.5,-0.00014216,3.5424,-0.00015272,-75.8,0.20002
27888,5.252,4.9091,0.1,0.00043186,4315.6,0.00042966,4253.7,-0.00013615,2.3819,-0.00015291,-123.57,0.1917
27889,5.3443,4.6364,0.1,0.00046095,4606.3,0.00046067,4598.3,-0.00014976,11.795,-0.00015499,-27.447,0.20093
27890,5.252,4.7273,0.1,0.00045243,4521.2,0.00045104,4481.7,-0.00014484,4.456,-0.00015637,-82.234,0.19267
27891,5.3443,4.4545,0.1,0.00047888,4785.5,0.00047984,4814.4,-0.00015236,64.384,-0.00016168,-5.6777,0.20173
27892,5.252,4.5455,0.1,0.00047355,4732.2,0.00047333,4726,-0.0001536,15.503,-0.00015935,-27.648,0.19356
27893,5.3443,4.2727,0.1,0.00049644,4961,0.00049876,5032.3,-0.00015122,148.71,-0.00017135,-2.5838,0.20245
27894,5.252,4.3636,0.1,0.00049452,4941.8,0.00049571,4978,-0.00015624,79.505,-0.0001676,-5.8804,0.19434
27895,5.3443,4.0909,0.1,0.00051328,5129.2,0.00051691,5244.3,-0.0001491,240.13,-0.00018127,-1.5654,0.20306
27896,5.252,4.1818,0.1,0.00051481,5144.5,0.00051751,5228.3,-0.00015506,174.89,-0.0001787,-2.6862,0.19503
27897,5.3443,3.9091,0.1,0.00052906,5286.9,0.00053384,5442.5,-0.00014692,327.49,-0.00019065,-1.0652,0.20358
27898,5.252,4,0.1,0.00053407,5337,0.00053816,5467.7,-0.00015313,273.54,-0.00018975,-1.579,0.19562
27899,5.3443,3.7273,0.1,0.00054335,5429.8,0.00054905,5619.2,-0.0001453,402.07,-0.00019892,-0.79335,0.20401
27900,5.252,3.8182,0.1,0.00055192,5515.4,0.00055716,5686.8,-0.00015157,361.58,-0.00019984,-1.0568,0.19611
27901,5.3443,3.5455,0.1,0.00055556,5551.8,0.00056193,5766.6,-0.00014448,458.93,-0.00020565,-0.66267,0.20434
27902,5.252,3.6364,0.1,0.00056776,5673.7,0.00057384,5876.1,-0.00015097,430.18,-0.00020833,-0.82946,0.1965
27903,5.3443,3.3636,0.1,0.00056498,5645.9,0.00057178,5877.7,-0.00014433,497.16,-0.00021058,-0.62087,0.20458
27904,5.252,3.4545,0.1,0.00058075,5803.5,0.00058737,6026.8,-0.00015128,476.85,-0.00021484,-0.74558,0.1968
27905,5.3443,3.1818,0.1,0.00057095,5705.5,0.00057798,5946.7,-0.00014447,518.54,-0.00021356,-0.61743,0.20472
27906,5.252,3.2727,0.1,0.00058999,5895.9,0.00059693,6131.3,-0.000152,504.13,-0.00021919,-0.73099,0.197
27907,5.3443,3,0.1,0.00057299,5725.9,0.0005801,5970.2,-0.00014456,525.34,-0.00021456,-0.61974,0.20477
27908,5.252,3.0909,0.1,0.0005948,5943.9,0.00060188,6184.8,-0.00015255,516.29,-0.00022136,-0.73821,0.1971
27909,5.3443,2.8182,0.1,0.00057095,5705.5,0.00057798,5946.7,-0.00014447,518.54,-0.00021356,-0.61744,0.20472
27910,5.252,2.9091,0.1,0.0005948,5943.9,0.00060188,6184.8,-0.00015255,516.29,-0.00022136,-0.73821,0.1971
27911,5.3443,2.6364,0.1,0.00056498,5645.9,0.00057178,5877.7,-0.00014433,497.16,-0.00021058,-0.62087,0.20458
27912,5.252,2.7273,0.1,0.00058999,5895.9,0.00059693,6131.3,-0.000152,504.13,-0.00021919,-0.73099,0.197
27913,5.3443,2.4545,0.1,0.00055556,5551.8,0.00056193,5766.6,-0.00014448,458.93,-0.00020565,-0.66267,0.20434
27914,5.252,2.5455,0.1,0.00058075,5803.5,0.00058737,6026.8,-0.00015128,476.85,-0.00021484,-0.74559,0.1968
27915,5.3443,2.2727,0.1,0.00054335,5429.8,0.00054905,5619.2,-0.0001453,402.07,-0.00019892,-0.79335,0.20401
27916,5.252,2.3636,0.1,0.00056777,5673.7,0.00057384,5876.1,-0.00015097,430.18,-0.00020833,-0.82946,0.1965
27917,5.3443,2.0909,0.1,0.00052906,5286.9,0.00053384,5442.5,-0.00014692,327.49,-0.00019065,-1.0652,0.20358
27918,5.252,2.1818,0.1,0.00055192,5515.4,0.00055716,5686.8,-0.00015157,361.58,-0.00019984,-1.0568,0.19611
27919,5.3443,1.9091,0.1,0.00051328,5129.2,0.00051691,5244.3,-0.0001491,240.13,-0.00018127,-1.5654,0.20306
27920,5.252,2,0.1,0.00053407,5337,0.00053816,5467.7,-0.00015313,273.54,-0.00018975,-1.579,0.19562
27921,5.3443,1.7273,0.1,0.00049644,4961,0.00049876,5032.3,-0.00015122,148.71,-0.00017135,-2.5838,0.20245
27922,5.252,1.8182,0.1,0.00051481,5144.5,0.00051751,5228.3,-0.00015506,174.89,-0.0001787,-2.6862,0.19503
27923,5.3443,1.5455,0.1,0.00047888,4785.5,0.00047984,4814.4,-0.00015236,64.383,-0.00016168,-5.6777,0.20173
27924,5.252,1.6364,0.1,0.00049452,4941.8,0.00049571,4978,-0.00015624,79.504,-0.0001676,-5.8804,0.19434
27925,5.3443,1.3636,0.1,0.00046095,4606.3,0.00046067,4598.3,-0.00014976,11.795,-0.00015499,-27.447,0.20093
27926,5.252,1.4545,0.1,0.00047355,4732.2,0.00047333,4726,-0.0001536,15.503,-0.00015935,-27.649,0.19356
27927,5.3443,1.1818,0.1,0.00044313,4428.2,0.00044184,4391.5,-0.00014216,3.5424,-0.00015272,-75.8,0.20002
27928,5.252,1.2727,0.1,0.00045243,4521.2,0.00045104,4481.7,-0.00014484,4.456,-0.00015637,-82.234,0.19267
27929,5.3443,1,0.1,0.000426,4257.1,0.00042402,4201,-0.00013486,1.8604,-0.00014997,-111.68,0.19902
27930,5.252,1.0909,0.1,0.00043186,4315.6,0.00042966,4253.7,-0.00013615,2.3819,-0.00015291,-123.57,0.1917
27931,5.3443,0.81818,0.1,0.00041017,4098.9,0.00040781,4032.6,-0.00012875,1.1291,-0.00014626,-130.4,0.19792
27932,5.252,0.90909,0.1,0.00041262,4123.4,0.00040997,4049.4,-0.00012876,1.5089,-0.00014834,-145.54,0.19062
27933,5.3443,0.63636,0.1,0.00039611,3958.4,0.00039369,3890.5,-0.00012402,0.66706,-0.0001418,-132.92,0.19674
27934,5.252,0.72727,0.1,0.00039539,3951.2,0.00039263,3874.3,-0.00012287,0.98799,-0.00014302,-150.42,0.18946
27935,5.3443,0.45455,0.1,0.00038412,3838.6,0.00038194,3777.4,-0.00012073,0.41706,-0.00013676,-119.99,0.19546
27936,5.252,0.54545,0.1,0.00038064,3803.8,0.00037806,3731.8,-0.00011853,0.56203,-0.00013733,-140.63,0.18821
27937,5.3443,0.27273,0.1,0.00037445,3741.9,0.0003728,3695,-0.00011897,0.0654,-0.00013124,-92.166,0.1941
27938,5.252,0.36364,0.1,0.00036857,3683.1,0.00036645,3623.5,-0.00011576,0.42595,-0.00013137,-116.88,0.18687
27939,5.252,0.18182,0.1,0.00035947,3592.2,0.00035803,3551.3,-0.00011465,-0.2546,-0.0001253,-80.267,0.18545
27940,5.3443,0.090909,0.1,0.00036564,3653.8,0.00036491,3632.9,-0.0001186,-0.0050694,-0.00012412,-41.436,0.19265
27941,5.1596,5.7273,0.1,0.0003537,3534.6,0.00035179,3480.6,-0.00011143,0.10582,-0.00012553,-105.76,0.1783
27942,5.0673,5.8182,0.1,0.00033519,3349.6,0.00033353,3302.7,-0.00010606,-0.25816,-0.00011822,-91.624,0.16975
27943,5.1596,5.9091,0.1,0.00034321,3429.8,0.00034238,3405.6,-0.00011089,-0.019726,-0.00011724,-47.782,0.17682
27944,5.1596,5.5455,0.1,0.00036526,3650.1,0.00036272,3579.1,-0.00011356,0.56074,-0.00013208,-138.65,0.1797
27945,5.0673,5.6364,0.1,0.00034561,3453.7,0.00034321,3386.8,-0.00010748,0.55792,-0.00012492,-130.53,0.17121
27946,5.1596,5.3636,0.1,0.0003802,3799.4,0.00037724,3717.3,-0.00011739,0.86739,-0.00013878,-159.88,0.18102
27947,5.0673,5.4545,0.1,0.00036027,3600.2,0.00035725,3516.9,-0.00011071,0.78346,-0.00013236,-161.85,0.17259
27948,5.1596,5.1818,0.1,0.00039822,3979.4,0.00039511,3893.5,-0.00012289,1.3337,-0.00014542,-167.91,0.18225
27949,5.0673,5.2727,0.1,0.00037882,3785.6,0.00037538,3691,-0.0001157,1.2372,-0.00014031,-183.68,0.17389
27950,5.1596,5,0.1,0.00041893,4186.4,0.000416,4104.9,-0.00013007,1.9451,-0.00015165,-160.21,0.18339
27951,5.0673,5.0909,0.1,0.00040104,4007.7,0.00039742,3908,-0.00012248,1.7118,-0.00014851,-193.83,0.17511
27952,5.1596,4.8182,0.1,0.00044164,4413.3,0.00043927,4346.9,-0.00013886,3.0047,-0.00015693,-132.78,0.18445
27953,5.0673,4.9091,0.1,0.00042631,4260.2,0.00042286,4164.7,-0.00013112,2.3677,-0.00015632,-186.99,0.17624
27954,5.1596,4.6364,0.1,0.00046548,4651.6,0.0004641,4612.3,-0.000149,5.7582,-0.00016081,-83.001,0.1854
27955,5.0673,4.7273,0.1,0.00045368,4533.7,0.00045087,4455.1,-0.0001416,3.5195,-0.00016289,-156.48,0.17728
27956,5.1596,4.4545,0.1,0.00048957,4892.3,0.00048956,4892.2,-0.00015847,23.21,-0.00016463,-23.078,0.18627
27957,5.0673,4.5455,0.1,0.000482,4816.7,0.00048037,4770.2,-0.00015363,6.5545,-0.00016754,-97.941,0.17822
27958,5.1596,4.2727,0.1,0.00051318,5128.3,0.00051476,5176.2,-0.00016046,102.9,-0.00017487,-5.3862,0.18703
27959,5.0673,4.3636,0.1,0.00051018,5098.3,0.00051017,5098.4,-0.00016483,26.683,-0.00017186,-26.144,0.17906
27960,5.1596,4.0909,0.1,0.00053583,5354.6,0.00053899,5453.5,-0.00015935,206.44,-0.00018716,-2.5292,0.18769
27961,5.0673,4.1818,0.1,0.00053742,5370.5,0.00053925,5426.5,-0.000167,119.95,-0.00018374,-5.7683,0.17981
27962,5.1596,3.9091,0.1,0.00055709,5567.1,0.00056164,5713.1,-0.00015795,306.39,-0.00019893,-1.4847,0.18826
27963,5.0673,4,0.1,0.00056327,5628.8,0.00056684,5740.9,-0.00016603,234.45,-0.00019759,-2.6999,0.18045
27964,5.1596,3.7273,0.1,0.00057642,5760.2,0.00058202,5944.3,-0.00015733,389.05,-0.00020925,-1.043,0.18872
27965,5.0673,3.8182,0.1,0.00058725,5868.5,0.0005922,6028.1,-0.00016546,335.27,-0.0002103,-1.6307,0.18099
27966,5.1596,3.5455,0.1,0.00059295,5925.4,0.00059928,6136.2,-0.00015776,448.12,-0.00021752,-0.88379,0.18909
27967,5.0673,3.6364,0.1,0.00060852,6081,0.00061441,6274.3,-0.00016629,408.42,-0.0002208,-1.1254,0.18143
27968,5.1596,3.3636,0.1,0.00060567,6052.5,0.00061244,6279.7,-0.00015887,484.45,-0.00022346,-0.84021,0.18935
27969,5.0673,3.4545,0.1,0.00062585,6254.2,0.0006323,6467.6,-0.00016827,452.42,-0.00022862,-0.98528,0.18176
27970,5.1596,3.1818,0.1,0.0006137,6132.7,0.00062068,6368.3,-0.00015994,502.95,-0.00022699,-0.843,0.18951
27971,5.0673,3.2727,0.1,0.00063806,6376.2,0.00064478,6599.6,-0.00017045,474.23,-0.00023369,-0.98214,0.18198
27972,5.1596,3,0.1,0.00061644,6160.1,0.00062349,6398.1,-0.00016037,508.47,-0.00022816,-0.8499,0.18956
27973,5.0673,3.0909,0.1,0.00064435,6439,0.00065118,6666.2,-0.00017182,482.48,-0.00023617,-0.98958,0.1821
27974,5.1596,2.8182,0.1,0.0006137,6132.7,0.00062068,6368.3,-0.00015994,502.95,-0.00022699,-0.843,0.18951
27975,5.0673,2.9091,0.1,0.00064435,6439,0.00065118,6666.2,-0.00017182,482.48,-0.00023617,-0.98958,0.1821
27976,5.1596,2.6364,0.1,0.00060567,6052.5,0.00061244,6279.7,-0.00015887,484.45,-0.00022346,-0.84021,0.18935
27977,5.0673,2.7273,0.1,0.00063806,6376.2,0.00064478,6599.6,-0.00017045,474.23,-0.00023369,-0.98214,0.18198
27978,5.1596,2.4545,0.1,0.00059295,5925.4,0.00059928,6136.2,-0.00015776,448.12,-0.00021752,-0.88379,0.18909
27979,5.0673,2.5455,0.1,0.00062585,6254.2,0.0006323,6467.6,-0.00016827,452.42,-0.00022862,-0.98528,0.18176
27980,5.1596,2.2727,0.1,0.00057642,5760.2,0.00058202,5944.3,-0.00015733,389.05,-0.00020925,-1.043,0.18872
27981,5.0673,2.3636,0.1,0.00060852,6081,0.00061441,6274.3,-0.00016629,408.42,-0.0002208,-1.1254,0.18143
27982,5.1596,2.0909,0.1,0.00055709,5567.1,0.00056164,5713.1,-0.00015796,306.38,-0.00019893,-1.4847,0.18826
27983,5.0673,2.1818,0.1,0.00058725,5868.5,0.0005922,6028.1,-0.00016546,335.27,-0.0002103,-1.6307,0.18099
27984,5.1596,1.9091,0.1,0.00053583,5354.6,0.00053899,5453.5,-0.00015935,206.44,-0.00018716,-2.5292,0.18769
27985,5.0673,2,0.1,0.00056327,5628.8,0.00056684,5740.9,-0.00016603,234.45,-0.00019759,-2.6999,0.18045
27986,5.1596,1.7273,0.1,0.00051318,5128.3,0.00051476,5176.2,-0.00016046,102.9,-0.00017487,-5.3862,0.18703
27987,5.0673,1.8182,0.1,0.00053742,5370.5,0.00053925,5426.5,-0.000167,119.95,-0.00018374,-5.7683,0.17981
27988,5.1596,1.5455,0.1,0.00048957,4892.3,0.00048956,4892.2,-0.00015847,23.21,-0.00016463,-23.079,0.18627
27989,5.0673,1.6364,0.1,0.00051018,5098.3,0.00051017,5098.4,-0.00016483,26.683,-0.00017186,-26.144,0.17906
27990,5.1596,1.3636,0.1,0.00046548,4651.6,0.0004641,4612.3,-0.000149,5.7582,-0.00016081,-83.001,0.1854
27991,5.0673,1.4545,0.1,0.000482,4816.7,0.00048037,4770.2,-0.00015363,6.5544,-0.00016754,-97.942,0.17822
27992,5.1596,1.1818,0.1,0.00044164,4413.3,0.00043927,4346.9,-0.00013886,3.0047,-0.00015693,-132.78,0.18445
27993,5.0673,1.2727,0.1,0.00045368,4533.7,0.00045087,4455.1,-0.0001416,3.5195,-0.00016289,-156.48,0.17728
27994,5.1596,1,0.1,0.00041893,4186.4,0.000416,4104.9,-0.00013007,1.9451,-0.00015165,-160.21,0.18339
27995,5.0673,1.0909,0.1,0.00042631,4260.2,0.00042286,4164.7,-0.00013112,2.3677,-0.00015632,-186.99,0.17624
27996,5.1596,0.81818,0.1,0.00039822,3979.4,0.00039511,3893.5,-0.00012289,1.3337,-0.00014542,-167.91,0.18225
27997,5.0673,0.90909,0.1,0.00040104,4007.7,0.00039742,3908,-0.00012248,1.7118,-0.00014851,-193.83,0.17511
27998,5.1596,0.63636,0.1,0.0003802,3799.4,0.00037724,3717.3,-0.00011739,0.86739,-0.00013878,-159.88,0.18102
27999,5.0673,0.72727,0.1,0.00037882,3785.6,0.00037538,3691,-0.0001157,1.2372,-0.00014031,-183.68,0.17389
28000,5.1596,0.45455,0.1,0.00036526,3650.1,0.00036272,3579.1,-0.00011356,0.56074,-0.00013208,-138.65,0.1797
28001,5.0673,0.54545,0.1,0.00036027,3600.2,0.00035725,3516.9,-0.00011071,0.78346,-0.00013236,-161.85,0.17259
28002,5.1596,0.27273,0.1,0.0003537,3534.6,0.00035179,3480.6,-0.00011143,0.10582,-0.00012553,-105.76,0.1783
28003,5.0673,0.36364,0.1,0.00034561,3453.7,0.00034321,3386.8,-0.00010748,0.55792,-0.00012492,-130.53,0.17121
28004,5.0673,0.18182,0.1,0.00033519,3349.6,0.00033353,3302.7,-0.00010606,-0.25817,-0.00011822,-91.624,0.16975
28005,5.1596,0.090909,0.1,0.00034321,3429.8,0.00034238,3405.6,-0.00011089,-0.019727,-0.00011724,-47.782,0.17682
28006,4.9749,5.7273,0.1,0.00032726,3270.3,0.0003251,3210.1,-0.0001021,0.22575,-0.00011778,-117.53,0.16274
28007,4.8826,5.8182,0.1,0.00030491,3047,0.00030306,2995,-9.5565e-05,-0.086681,-0.00010904,-101.36,0.15428
28008,4.9749,5.9091,0.1,0.00031499,3147.7,0.00031405,3120.7,-0.0001013,-0.052941,-0.0001084,-53.407,0.16122
28009,4.9749,5.5455,0.1,0.00034088,3406.4,0.00033798,3326.4,-0.00010463,0.78872,-0.00012543,-155.47,0.16418
28010,4.8826,5.6364,0.1,0.00031659,3163.7,0.00031398,3091.5,-9.7372e-05,0.82532,-0.00011617,-140.41,0.15578
28011,4.9749,5.3636,0.1,0.00035935,3591,0.00035578,3493.5,-0.00010902,1.1532,-0.00013427,-188.56,0.16555
28012,4.8826,5.4545,0.1,0.00033426,3340.3,0.00033081,3246.2,-0.00010108,1.1528,-0.00012543,-181.78,0.15721
28013,4.9749,5.1818,0.1,0.0003823,3820.3,0.00037823,3709.7,-0.00011529,1.6021,-0.00014394,-213.69,0.16683
28014,4.8826,5.2727,0.1,0.00035748,3572.3,0.0003532,3456.8,-0.00010666,1.5896,-0.00013643,-222.09,0.15857
28015,4.9749,5,0.1,0.00040922,4089.4,0.00040494,3972.9,-0.00012354,2.1045,-0.00015384,-225.59,0.16804
28016,4.8826,5.0909,0.1,0.00038595,3856.8,0.00038096,3722.8,-0.00011426,1.9959,-0.00014871,-256.88,0.15985
28017,4.9749,4.8182,0.1,0.0004392,4389,0.00043517,4278.3,-0.00013387,2.823,-0.00016299,-216.02,0.16916
28018,4.8826,4.9091,0.1,0.00041891,4186.2,0.00041354,4042,-0.00012408,2.4943,-0.00016127,-276.93,0.16106
28019,4.9749,4.6364,0.1,0.00047101,4706.8,0.00046782,4618.1,-0.00014626,4.1325,-0.00017029,-176.41,0.17019
28020,4.8826,4.7273,0.1,0.00045517,4548.6,0.00045002,4409.1,-0.00013637,3.2095,-0.0001727,-269.76,0.16217
28021,4.9749,4.4545,0.1,0.0005033,5029.5,0.00050158,4980.8,-0.00016029,7.8369,-0.00017508,-103.3,0.17112
28022,4.8826,4.5455,0.1,0.00049314,4928,0.00048904,4815,-0.00015119,4.5863,-0.00018144,-222.7,0.1632
28023,4.9749,4.2727,0.1,0.00053494,5345.7,0.00053515,5352.3,-0.00017235,36.446,-0.00018024,-22.84,0.17195
28024,4.8826,4.3636,0.1,0.00053105,5306.8,0.00052884,5244.5,-0.00016802,8.5492,-0.00018653,-130.52,0.16412
28025,4.9749,4.0909,0.1,0.00056524,5648.5,0.00056746,5716.7,-0.00017412,144.74,-0.0001941,-5.3943,0.17268
28026,4.8826,4.1818,0.1,0.00056763,5672.4,0.00056781,5678.3,-0.00018271,39.138,-0.00019149,-26.796,0.16495
28027,4.9749,3.9091,0.1,0.00059368,5932.7,0.00059764,6057.6,-0.0001738,261.39,-0.00020894,-2.6496,0.17331
28028,4.8826,4,0.1,0.00060217,6017.6,0.00060468,6094.8,-0.00018479,162.95,-0.00020715,-5.047,0.16566
28029,4.9749,3.7273,0.1,0.00061947,6190.4,0.00062469,6358.8,-0.00017453,353.81,-0.00022183,-1.6173,0.17383
28030,4.8826,3.8182,0.1,0.00063415,6337.1,0.00063842,6472.1,-0.00018549,281.51,-0.00022323,-2.0291,0.16627
28031,4.9749,3.5455,0.1,0.00064139,6409.5,0.00064739,6605.4,-0.00017676,413.03,-0.00023189,-1.1817,0.17424
28032,4.8826,3.6364,0.1,0.00066224,6617.8,0.00066758,6788.9,-0.00018828,358.33,-0.00023618,-1.5629,0.16677
28033,4.9749,3.3636,0.1,0.00065807,6576.1,0.00066447,6786.1,-0.00017967,443.54,-0.00023885,-1.1086,0.17453
28034,4.8826,3.4545,0.1,0.00068459,6841.2,0.00069043,7029.4,-0.00019257,394.84,-0.0002453,-1.3353,0.16715
28035,4.9749,3.1818,0.1,0.00066844,6679.8,0.000675,6895.4,-0.00018205,455.82,-0.00024287,-1.1213,0.17471
28036,4.8826,3.2727,0.1,0.00069986,6993.7,0.00070586,7187.4,-0.00019664,406.37,-0.00025089,-1.2624,0.16741
28037,4.9749,3,0.1,0.00067195,6714.8,0.00067855,6931.8,-0.00018296,458.8,-0.00024417,-1.1245,0.17477
28038,4.8826,3.0909,0.1,0.00070751,7070.2,0.00071354,7264.7,-0.00019902,408.08,-0.0002535,-1.2612,0.16754
28039,4.9749,2.8182,0.1,0.00066844,6679.8,0.000675,6895.4,-0.00018205,455.82,-0.00024287,-1.1213,0.17471
28040,4.8826,2.9091,0.1,0.00070751,7070.2,0.00071354,7264.7,-0.00019902,408.08,-0.0002535,-1.2612,0.16754
28041,4.9749,2.6364,0.1,0.00065807,6576.2,0.00066447,6786.1,-0.00017967,443.54,-0.00023885,-1.1086,0.17453
28042,4.8826,2.7273,0.1,0.00069986,6993.7,0.00070586,7187.4,-0.00019664,406.37,-0.00025089,-1.2624,0.16741
28043,4.9749,2.4545,0.1,0.00064139,6409.5,0.00064739,6605.4,-0.00017676,413.03,-0.00023189,-1.1817,0.17424
28044,4.8826,2.5455,0.1,0.00068459,6841.2,0.00069043,7029.4,-0.00019257,394.84,-0.0002453,-1.3353,0.16715
28045,4.9749,2.2727,0.1,0.00061947,6190.4,0.00062469,6358.8,-0.00017453,353.81,-0.00022183,-1.6173,0.17383
28046,4.8826,2.3636,0.1,0.00066224,6617.8,0.00066758,6788.9,-0.00018828,358.33,-0.00023618,-1.5629,0.16677
28047,4.9749,2.0909,0.1,0.00059368,5932.7,0.00059764,6057.6,-0.0001738,261.39,-0.00020894,-2.6496,0.17331
28048,4.8826,2.1818,0.1,0.00063415,6337.1,0.00063842,6472.1,-0.00018549,281.51,-0.00022323,-2.0291,0.16627
28049,4.9749,1.9091,0.1,0.00056524,5648.5,0.00056746,5716.7,-0.00017412,144.74,-0.0001941,-5.3943,0.17268
28050,4.8826,2,0.1,0.00060217,6017.6,0.00060468,6094.8,-0.00018479,162.95,-0.00020715,-5.047,0.16566
28051,4.9749,1.7273,0.1,0.00053494,5345.7,0.00053515,5352.3,-0.00017235,36.446,-0.00018024,-22.84,0.17195
28052,4.8826,1.8182,0.1,0.00056763,5672.4,0.00056781,5678.3,-0.00018271,39.138,-0.00019149,-26.796,0.16495
28053,4.9749,1.5455,0.1,0.0005033,5029.5,0.00050158,4980.8,-0.00016029,7.8369,-0.00017508,-103.3,0.17112
28054,4.8826,1.6364,0.1,0.00053105,5306.8,0.00052884,5244.5,-0.00016802,8.5491,-0.00018653,-130.52,0.16412
28055,4.9749,1.3636,0.1,0.00047101,4706.8,0.00046782,4618.1,-0.00014626,4.1324,-0.00017029,-176.41,0.17019
28056,4.8826,1.4545,0.1,0.00049314,4928,0.00048904,4815,-0.00015119,4.5863,-0.00018144,-222.71,0.1632
28057,4.9749,1.1818,0.1,0.0004392,4389,0.00043517,4278.3,-0.00013387,2.823,-0.00016299,-216.02,0.16916
28058,4.8826,1.2727,0.1,0.00045517,4548.6,0.00045002,4409.1,-0.00013637,3.2095,-0.0001727,-269.76,0.16217
28059,4.9749,1,0.1,0.00040922,4089.4,0.00040494,3972.9,-0.00012354,2.1045,-0.00015384,-225.59,0.16804
28060,4.8826,1.0909,0.1,0.00041891,4186.2,0.00041354,4042,-0.00012408,2.4943,-0.00016127,-276.93,0.16106
28061,4.9749,0.81818,0.1,0.0003823,3820.3,0.00037823,3709.7,-0.00011529,1.6021,-0.00014394,-213.69,0.16683
28062,4.8826,0.90909,0.1,0.00038595,3856.8,0.00038096,3722.8,-0.00011426,1.9959,-0.00014871,-256.88,0.15985
28063,4.9749,0.63636,0.1,0.00035935,3591,0.00035578,3493.5,-0.00010902,1.1532,-0.00013427,-188.56,0.16555
28064,4.8826,0.72727,0.1,0.00035748,3572.3,0.0003532,3456.8,-0.00010666,1.5896,-0.00013643,-222.09,0.15857
28065,4.9749,0.45455,0.1,0.00034088,3406.4,0.00033798,3326.4,-0.00010463,0.78872,-0.00012543,-155.47,0.16418
28066,4.8826,0.54545,0.1,0.00033426,3340.3,0.00033081,3246.2,-0.00010108,1.1528,-0.00012543,-181.78,0.15721
28067,4.9749,0.27273,0.1,0.00032726,3270.3,0.0003251,3210.1,-0.0001021,0.22575,-0.00011778,-117.53,0.16274
28068,4.8826,0.36364,0.1,0.00031659,3163.7,0.00031398,3091.5,-9.7372e-05,0.82532,-0.00011617,-140.41,0.15578
28069,4.8826,0.18182,0.1,0.00030491,3047,0.00030306,2995,-9.5565e-05,-0.086683,-0.00010904,-101.36,0.15428
28070,4.9749,0.090909,0.1,0.00031499,3147.7,0.00031405,3120.7,-0.0001013,-0.052942,-0.0001084,-53.407,0.16122
28071,4.7902,5.7273,0.1,0.00029447,2942.7,0.00029214,2878,-9.0823e-05,0.60108,-0.00010766,-125.89,0.14739
28072,4.6979,5.8182,0.1,0.0002681,2679.2,0.00026611,2623.8,-8.3032e-05,0.47635,-9.7462e-05,-107.95,0.13901
28073,4.7902,5.9091,0.1,0.00028035,2801.6,0.00027933,2772.4,-8.9666e-05,-0.055368,-9.7287e-05,-57.313,0.14584
28074,4.7902,5.5455,0.1,0.00031039,3101.8,0.00030718,3014.1,-9.3815e-05,1.2305,-0.00011654,-169.49,0.14888
28075,4.6979,5.6364,0.1,0.00028108,2808.8,0.00027834,2734,-8.5353e-05,1.3698,-0.00010486,-145.22,0.14055
28076,4.7902,5.3636,0.1,0.00033316,3329.3,0.00032889,3214.4,-9.8717e-05,1.6052,-0.00012824,-220.21,0.15031
28077,4.6979,5.4545,0.1,0.00030245,3022.4,0.00029854,2917.5,-8.9522e-05,1.7197,-0.00011655,-201.35,0.14204
28078,4.7902,5.1818,0.1,0.00036225,3620,0.00035687,3477,-0.00010563,1.9818,-0.00014214,-272.35,0.15166
28079,4.6979,5.2727,0.1,0.00033146,3312.3,0.00032606,3169.9,-9.5562e-05,2.0052,-0.00013176,-269.98,0.14347
28080,4.7902,5,0.1,0.00039703,3967.5,0.00039071,3800.6,-0.0001148,2.3825,-0.0001573,-316.92,0.15295
28081,4.6979,5.0909,0.1,0.00036764,3673.8,0.00036061,3491.1,-0.00010372,2.2773,-0.00014971,-343.25,0.14484
28082,4.7902,4.8182,0.1,0.00043639,4360.9,0.00042964,4182.2,-0.00012659,2.891,-0.00017223,-340.06,0.15416
28083,4.6979,4.9091,0.1,0.0004102,4099.2,0.00040177,3881.3,-0.00011445,2.6273,-0.00016904,-407.49,0.14614
28084,4.7902,4.6364,0.1,0.00047874,4784.1,0.00047242,4615,-0.0001413,3.7031,-0.00018504,-325,0.15528
28085,4.6979,4.7273,0.1,0.00045793,4576.2,0.0004488,4339.7,-0.00012834,3.2314,-0.00018779,-443.46,0.14736
28086,4.7902,4.4545,0.1,0.00052208,5217.2,0.00051729,5086.2,-0.00015891,5.4114,-0.00019391,-257.54,0.15631
28087,4.6979,4.5455,0.1,0.00050892,5085.7,0.00050035,4860.4,-0.00014597,4.2104,-0.0002034,-427.28,0.14849
28088,4.7902,4.2727,0.1,0.0005646,5642.1,0.00056226,5576.2,-0.00017858,9.7909,-0.00019835,-138.75,0.15723
28089,4.6979,4.3636,0.1,0.00056059,5602,0.00055414,5427.9,-0.0001676,4.9602,-0.00021318,-337.48,0.14953
28090,4.7902,4.0909,0.1,0.00060514,6047.2,0.00060557,6060.3,-0.00019444,49.394,-0.00020401,-22.501,0.15805
28091,4.6979,4.1818,0.1,0.00061012,6097,0.00060707,6011.6,-0.00019174,9.6026,-0.00021647,-176.22,0.15046
28092,4.7902,3.9091,0.1,0.00064299,6425.4,0.00064579,6511.6,-0.00019689,180.07,-0.00022136,-3.8043,0.15876
28093,4.6979,4,0.1,0.00065664,6561.9,0.00065703,6573.9,-0.0002112,50.391,-0.00022133,-25.729,0.15128
28094,4.7902,3.7273,0.1,0.00067703,6765.6,0.00068139,6902.7,-0.00019935,285.19,-0.00023754,-1.7548,0.15935
28095,4.6979,3.8182,0.1,0.00069907,6985.8,0.00070192,7073.5,-0.0002149,184.88,-0.00024026,-5.6538,0.15198
28096,4.7902,3.5455,0.1,0.0007053,7048.1,0.00071045,7211.7,-0.00020394,341.28,-0.00024958,-1.6415,0.15983
28097,4.6979,3.6364,0.1,0.00073501,7345.1,0.00073913,7473.1,-0.00022019,265.1,-0.00025572,-1.838,0.15256
28098,4.7902,3.3636,0.1,0.00072602,7255.2,0.00073145,7427.9,-0.00020917,360.42,-0.00025734,-1.4727,0.16017
28099,4.6979,3.4545,0.1,0.00076199,7614.7,0.00076644,7753.5,-0.0002272,287.6,-0.00026572,-1.768,0.153
28100,4.7902,3.1818,0.1,0.00073843,7379.2,0.00074389,7552.9,-0.00021311,362.37,-0.00026153,-1.4008,0.16038
28101,4.6979,3.2727,0.1,0.00077899,7784.5,0.0007834,7921.9,-0.00023312,284.07,-0.00027114,-1.5575,0.15331
28102,4.7902,3,0.1,0.00074253,7420.1,0.00074798,7593.5,-0.00021454,361.42,-0.00026283,-1.3974,0.16045
28103,4.6979,3.0909,0.1,0.00078699,7864.4,0.00079131,7998.8,-0.00023632,277.55,-0.00027345,-1.4436,0.15346
28104,4.7902,2.8182,0.1,0.00073843,7379.2,0.00074389,7552.9,-0.00021311,362.37,-0.00026153,-1.4008,0.16038
28105,4.6979,2.9091,0.1,0.00078699,7864.4,0.00079131,7998.8,-0.00023632,277.55,-0.00027345,-1.4436,0.15346
28106,4.7902,2.6364,0.1,0.00072602,7255.2,0.00073145,7427.9,-0.00020917,360.42,-0.00025734,-1.4727,0.16017
28107,4.6979,2.7273,0.1,0.00077899,7784.5,0.0007834,7921.9,-0.00023312,284.07,-0.00027114,-1.5575,0.15331
28108,4.7902,2.4545,0.1,0.0007053,7048.1,0.00071045,7211.7,-0.00020394,341.28,-0.00024958,-1.6415,0.15983
28109,4.6979,2.5455,0.1,0.00076199,7614.7,0.00076644,7753.5,-0.0002272,287.6,-0.00026572,-1.768,0.153
28110,4.7902,2.2727,0.1,0.00067703,6765.6,0.00068139,6902.7,-0.00019935,285.19,-0.00023754,-1.7548,0.15935
28111,4.6979,2.3636,0.1,0.00073501,7345.1,0.00073913,7473.1,-0.00022019,265.1,-0.00025572,-1.838,0.15256
28112,4.7902,2.0909,0.1,0.00064299,6425.4,0.00064579,6511.6,-0.00019689,180.07,-0.00022136,-3.8044,0.15876
28113,4.6979,2.1818,0.1,0.00069907,6985.8,0.00070192,7073.5,-0.0002149,184.88,-0.00024026,-5.6538,0.15198
28114,4.7902,1.9091,0.1,0.00060514,6047.2,0.00060557,6060.4,-0.00019444,49.394,-0.00020401,-22.501,0.15805
28115,4.6979,2,0.1,0.00065664,6561.9,0.00065703,6573.9,-0.0002112,50.391,-0.00022133,-25.729,0.15128
28116,4.7902,1.7273,0.1,0.0005646,5642.1,0.00056226,5576.2,-0.00017858,9.7909,-0.00019835,-138.75,0.15723
28117,4.6979,1.8182,0.1,0.00061012,6097,0.00060707,6011.6,-0.00019174,9.6026,-0.00021647,-176.22,0.15046
28118,4.7902,1.5455,0.1,0.00052208,5217.2,0.00051729,5086.2,-0.00015891,5.4114,-0.00019391,-257.54,0.15631
28119,4.6979,1.6364,0.1,0.00056059,5602,0.00055414,5427.9,-0.0001676,4.9602,-0.00021318,-337.48,0.14953
28120,4.7902,1.3636,0.1,0.00047874,4784.1,0.00047242,4615,-0.0001413,3.7031,-0.00018504,-325,0.15528
28121,4.6979,1.4545,0.1,0.00050892,5085.7,0.00050035,4860.4,-0.00014597,4.2104,-0.0002034,-427.28,0.14849
28122,4.7902,1.1818,0.1,0.00043639,4360.9,0.00042964,4182.2,-0.00012659,2.891,-0.00017223,-340.06,0.15416
28123,4.6979,1.2727,0.1,0.00045793,4576.2,0.0004488,4339.7,-0.00012834,3.2314,-0.00018779,-443.46,0.14736
28124,4.7902,1,0.1,0.00039703,3967.5,0.00039071,3800.6,-0.0001148,2.3825,-0.0001573,-316.92,0.15295
28125,4.6979,1.0909,0.1,0.0004102,4099.2,0.00040177,3881.3,-0.00011445,2.6273,-0.00016904,-407.49,0.14614
28126,4.7902,0.81818,0.1,0.00036225,3620,0.00035687,3477,-0.00010563,1.9818,-0.00014214,-272.35,0.15166
28127,4.6979,0.90909,0.1,0.00036764,3673.8,0.00036061,3491.1,-0.00010372,2.2773,-0.00014971,-343.25,0.14484
28128,4.7902,0.63636,0.1,0.00033316,3329.3,0.00032889,3214.4,-9.8717e-05,1.6052,-0.00012824,-220.21,0.15031
28129,4.6979,0.72727,0.1,0.00033146,3312.3,0.00032606,3169.9,-9.5562e-05,2.0052,-0.00013176,-269.98,0.14347
28130,4.7902,0.45455,0.1,0.00031039,3101.8,0.00030718,3014.1,-9.3815e-05,1.2305,-0.00011654,-169.49,0.14888
28131,4.6979,0.54545,0.1,0.00030245,3022.4,0.00029854,2917.5,-8.9522e-05,1.7197,-0.00011655,-201.35,0.14204
28132,4.7902,0.27273,0.1,0.00029447,2942.7,0.00029214,2878,-9.0823e-05,0.60108,-0.00010766,-125.89,0.14739
28133,4.6979,0.36364,0.1,0.00028108,2808.8,0.00027834,2734,-8.5353e-05,1.3698,-0.00010486,-145.22,0.14055
28134,4.6979,0.18182,0.1,0.0002681,2679.2,0.00026611,2623.8,-8.3032e-05,0.47635,-9.7462e-05,-107.95,0.13901
28135,4.7902,0.090909,0.1,0.00028035,2801.6,0.00027933,2772.4,-8.9666e-05,-0.05537,-9.7287e-05,-57.313,0.14584
28136,4.6055,5.7273,0.1,0.00025504,2548.6,0.0002526,2482,-7.7535e-05,1.4473,-9.4984e-05,-129.65,0.13223
28137,4.5132,5.8182,0.1,0.00022452,2243.7,0.00022249,2187.9,-6.8402e-05,2.2907,-8.3295e-05,-109.61,0.12391
28138,4.6055,5.9091,0.1,0.00023889,2387.3,0.00023785,2357.6,-7.5943e-05,-0.11083,-8.3677e-05,-58.22,0.13063
28139,4.6055,5.5455,0.1,0.00027383,2736.4,0.00027031,2641.9,-8.105e-05,1.9429,-0.00010549,-181.68,0.13378
28140,4.5132,5.6364,0.1,0.00023936,2392,0.00023658,2317,-7.1411e-05,2.8677,-9.1203e-05,-145.83,0.12551
28141,4.6055,5.3636,0.1,0.00030207,3018.6,0.00029684,2881.4,-8.6366e-05,2.1293,-0.0001212,-259.59,0.13527
28142,4.5132,5.4545,0.1,0.00026583,2656.4,0.00026128,2537.3,-7.6033e-05,2.8391,-0.00010652,-226.26,0.12706
28143,4.6055,5.1818,0.1,0.0003388,3385.6,0.00033143,3196.2,-9.366e-05,2.287,-0.00014095,-353.07,0.13672
28144,4.5132,5.2727,0.1,0.0003022,3020,0.00029506,2838,-8.2294e-05,2.7266,-0.00012761,-337.73,0.12857
28145,4.6055,5,0.1,0.00038325,3829.8,0.00037366,3586.7,-0.00010337,2.5201,-0.00016343,-448.73,0.1381
28146,4.5132,5.0909,0.1,0.00034765,3474.1,0.00033735,3217.9,-9.0553e-05,2.7859,-0.00015312,-467.31,0.13004
28147,4.6055,4.8182,0.1,0.00043442,4341.2,0.00042307,4054.9,-0.0001162,2.9962,-0.00018674,-526.97,0.13942
28148,4.5132,4.9091,0.1,0.00040163,4013.5,0.0003881,3681.9,-0.0001015,3.1789,-0.00018158,-598.49,0.13145
28149,4.6055,4.6364,0.1,0.00049068,4903.5,0.00047876,4600.4,-0.00013301,3.8014,-0.00020818,-561.03,0.14066
28150,4.5132,4.7273,0.1,0.00046359,4632.7,0.00044751,4239.7,-0.00011627,3.7689,-0.00021093,-707.45,0.13281
28151,4.6055,4.4545,0.1,0.00054952,5491.4,0.00053886,5214.7,-0.00015466,3.8234,-0.00022434,-519.77,0.14182
28152,4.5132,4.5455,0.1,0.00053245,5320.8,0.00051547,4902,-0.00013635,4.4831,-0.00023803,-759.5,0.13408
28153,4.6055,4.2727,0.1,0.00060752,6071,0.00060013,5872.1,-0.00018074,4.9121,-0.0002325,-383.94,0.14287
28154,4.5132,4.3636,0.1,0.00060402,6036.1,0.00058916,5659.8,-0.00016292,8.939,-0.00025715,-699.1,0.13527
28155,4.6055,4.0909,0.1,0.00066244,6619.8,0.00065927,6530.6,-0.0002089,7.5223,-0.00023411,-181.87,0.14381
28156,4.5132,4.1818,0.1,0.00067356,6730.9,0.00066392,6474.9,-0.00019673,8.2825,-0.00026336,-492.3,0.13635
28157,4.6055,3.9091,0.1,0.00071309,7126,0.00071349,7138.3,-0.00023017,47.985,-0.0002396,-22.87,0.14464
28158,4.5132,4,0.1,0.00073753,7370.2,0.00073392,7269.4,-0.00023155,15.183,-0.00026172,-211.53,0.13731
28159,4.6055,3.7273,0.1,0.00075702,7564.9,0.00075959,7643.3,-0.00023576,164.66,-0.00025835,-5.0875,0.14533
28160,4.5132,3.8182,0.1,0.00079333,7927.8,0.00079368,7938.3,-0.00025811,35.574,-0.00026475,-14.265,0.13814
28161,4.6055,3.5455,0.1,0.00079126,7907.2,0.00079466,8011.4,-0.00024301,214.75,-0.00027183,-1.8434,0.1459
28162,4.5132,3.6364,0.1,0.00083742,8368.4,0.00083907,8417.9,-0.00026729,105.14,-0.00028196,-5.0625,0.13884
28163,4.6055,3.3636,0.1,0.00081425,8136.8,0.00081768,8242,-0.00025043,216.69,-0.00027952,-1.8842,0.14631
28164,4.5132,3.4545,0.1,0.00086454,8639.4,0.00086629,8691.9,-0.00027612,108.32,-0.00029084,-2.2631,0.13937
28165,4.6055,3.1818,0.1,0.00082671,8261.4,0.00082999,8361.4,-0.00025549,205.57,-0.00028307,-1.621,0.14656
28166,4.5132,3.2727,0.1,0.0008783,8777,0.00087978,8821.1,-0.0002821,91.193,-0.00029452,-2.1215,0.13974
28167,4.6055,3,0.1,0.00083058,8300,0.00083377,8397.6,-0.00025723,200.2,-0.00028407,-1.4886,0.14664
28168,4.5132,3.0909,0.1,0.00088368,8830.7,0.00088497,8869.1,-0.00028496,78.722,-0.00029562,-1.429,0.13993
28169,4.6055,2.8182,0.1,0.00082671,8261.4,0.00082999,8361.4,-0.00025549,205.57,-0.00028307,-1.621,0.14656
28170,4.5132,2.9091,0.1,0.00088368,8830.7,0.00088497,8869.1,-0.00028496,78.722,-0.00029562,-1.4289,0.13993
28171,4.6055,2.6364,0.1,0.00081425,8136.8,0.00081768,8242,-0.00025043,216.69,-0.00027952,-1.8842,0.14631
28172,4.5132,2.7273,0.1,0.0008783,8777,0.00087978,8821.1,-0.0002821,91.193,-0.00029452,-2.1215,0.13974
28173,4.6055,2.4545,0.1,0.00079126,7907.2,0.00079466,8011.4,-0.00024301,214.75,-0.00027183,-1.8434,0.1459
28174,4.5132,2.5455,0.1,0.00086454,8639.4,0.00086629,8691.9,-0.00027612,108.32,-0.00029084,-2.2631,0.13937
28175,4.6055,2.2727,0.1,0.00075702,7564.9,0.00075959,7643.3,-0.00023576,164.66,-0.00025835,-5.0875,0.14533
28176,4.5132,2.3636,0.1,0.00083742,8368.4,0.00083907,8417.9,-0.00026729,105.14,-0.00028196,-5.0625,0.13884
28177,4.6055,2.0909,0.1,0.00071309,7126,0.00071349,7138.3,-0.00023017,47.985,-0.0002396,-22.87,0.14464
28178,4.5132,2.1818,0.1,0.00079333,7927.8,0.00079368,7938.3,-0.00025811,35.574,-0.00026475,-14.265,0.13814
28179,4.6055,1.9091,0.1,0.00066244,6619.8,0.00065927,6530.6,-0.0002089,7.5222,-0.00023411,-181.87,0.14381
28180,4.5132,2,0.1,0.00073753,7370.2,0.00073392,7269.4,-0.00023155,15.183,-0.00026172,-211.53,0.13731
28181,4.6055,1.7273,0.1,0.00060752,6071,0.00060013,5872.1,-0.00018074,4.9121,-0.0002325,-383.94,0.14287
28182,4.5132,1.8182,0.1,0.00067356,6730.9,0.00066392,6474.9,-0.00019673,8.2825,-0.00026336,-492.3,0.13635
28183,4.6055,1.5455,0.1,0.00054952,5491.4,0.00053886,5214.7,-0.00015466,3.8234,-0.00022434,-519.77,0.14182
28184,4.5132,1.6364,0.1,0.00060402,6036.1,0.00058916,5659.8,-0.00016292,8.939,-0.00025715,-699.1,0.13527
28185,4.6055,1.3636,0.1,0.00049068,4903.5,0.00047876,4600.4,-0.00013301,3.8014,-0.00020818,-561.03,0.14066
28186,4.5132,1.4545,0.1,0.00053245,5320.8,0.00051547,4902,-0.00013635,4.4831,-0.00023803,-759.5,0.13408
28187,4.6055,1.1818,0.1,0.00043442,4341.2,0.00042307,4054.9,-0.0001162,2.9962,-0.00018674,-526.97,0.13942
28188,4.5132,1.2727,0.1,0.00046359,4632.7,0.00044751,4239.7,-0.00011627,3.7688,-0.00021093,-707.45,0.13281
28189,4.6055,1,0.1,0.00038325,3829.8,0.00037366,3586.7,-0.00010337,2.5201,-0.00016343,-448.73,0.1381
28190,4.5132,1.0909,0.1,0.00040163,4013.5,0.0003881,3681.9,-0.0001015,3.1789,-0.00018158,-598.49,0.13145
28191,4.6055,0.81818,0.1,0.0003388,3385.6,0.00033143,3196.2,-9.366e-05,2.287,-0.00014095,-353.07,0.13672
28192,4.5132,0.90909,0.1,0.00034765,3474.1,0.00033735,3217.9,-9.0553e-05,2.7859,-0.00015312,-467.31,0.13004
28193,4.6055,0.63636,0.1,0.00030207,3018.6,0.00029684,2881.4,-8.6366e-05,2.1293,-0.0001212,-259.59,0.13527
28194,4.5132,0.72727,0.1,0.0003022,3020,0.00029506,2838,-8.2294e-05,2.7266,-0.00012761,-337.73,0.12857
28195,4.6055,0.45455,0.1,0.00027383,2736.4,0.00027031,2641.9,-8.105e-05,1.9429,-0.00010549,-181.68,0.13378
28196,4.5132,0.54545,0.1,0.00026583,2656.4,0.00026128,2537.3,-7.6033e-05,2.8391,-0.00010652,-226.26,0.12706
28197,4.6055,0.27273,0.1,0.00025504,2548.6,0.0002526,2482,-7.7535e-05,1.4473,-9.4984e-05,-129.65,0.13223
28198,4.5132,0.36364,0.1,0.00023936,2392,0.00023658,2317,-7.1411e-05,2.8677,-9.1203e-05,-145.83,0.12551
28199,4.5132,0.18182,0.1,0.00022452,2243.7,0.00022249,2187.9,-6.8402e-05,2.2907,-8.3295e-05,-109.61,0.12391
28200,4.6055,0.090909,0.1,0.00023889,2387.3,0.00023785,2357.6,-7.5943e-05,-0.11083,-8.3677e-05,-58.22,0.13063
28201,4.4208,5.7273,0.1,0.00020936,2092.2,0.00020691,2026.3,-6.2221e-05,4.146,-8.0014e-05,-129.55,0.11723
28202,4.3284,5.8182,0.1,0.00017459,1744.7,0.00017259,1691.3,-5.1719e-05,5.943,-6.6772e-05,-107.16,0.10896
28203,4.4208,5.9091,0.1,0.00019054,1904,0.00018956,1876.6,-6.011e-05,0.64647,-6.7432e-05,-54.365,0.11559
28204,4.4208,5.5455,0.1,0.00023266,2325,0.00022868,2220.9,-6.6391e-05,3.79,-9.3367e-05,-198.89,0.11884
28205,4.3284,5.6364,0.1,0.00019372,1935.9,0.00019073,1857.2,-5.5789e-05,5.0031,-7.6774e-05,-152.67,0.11061
28206,4.4208,5.3636,0.1,0.00026837,2681.9,0.00026153,2509.1,-7.1973e-05,3.3428,-0.00011494,-319.52,0.12042
28207,4.3284,5.4545,0.1,0.0002283,2281.4,0.00022236,2131.9,-6.0914e-05,3.4759,-9.8206e-05,-276.72,0.11223
28208,4.4208,5.1818,0.1,0.00031444,3142.3,0.00030374,2880.4,-7.9196e-05,3.1555,-0.00014252,-472.61,0.12196
28209,4.3284,5.2727,0.1,0.00027418,2739.9,0.00026375,2488,-6.7052e-05,2.4578,-0.00012727,-450.02,0.11384
28210,4.4208,5,0.1,0.00037017,3699.1,0.00035506,3337.6,-8.8686e-05,3.4189,-0.00017453,-641.61,0.12346
28211,4.3284,5.0909,0.1,0.00033011,3298.8,0.00031407,2923.2,-7.4702e-05,2.1237,-0.00016211,-654.62,0.11542
28212,4.4208,4.8182,0.1,0.00043541,4351.1,0.00041608,3893.4,-0.00010157,3.9665,-0.00020932,-805.62,0.12492
28213,4.3284,4.9091,0.1,0.00039651,3962.4,0.00037423,3451,-8.4778e-05,2.1405,-0.00020181,-877.23,0.11698
28214,4.4208,4.6364,0.1,0.00050995,5096,0.00048767,4567.3,-0.0001196,4.5066,-0.00024423,-931.93,0.12632
28215,4.3284,4.7273,0.1,0.00047501,4746.8,0.00044657,4100,-9.8753e-05,2.6142,-0.00024572,-1101.6,0.1185
28216,4.4208,4.4545,0.1,0.0005908,5903.9,0.00056861,5368.5,-0.0001446,9.6848,-0.0002737,-960.31,0.12764
28217,4.3284,4.5455,0.1,0.0005668,5664.1,0.00053384,4911.4,-0.00011936,3.4535,-0.00029104,-1286.5,0.11996
28218,4.4208,4.2727,0.1,0.00067235,6718.8,0.00065471,6275.8,-0.00017891,12.351,-0.00028978,-820.73,0.12887
28219,4.3284,4.3636,0.1,0.00067209,6716.3,0.00063871,5937.5,-0.00015075,5.7579,-0.00033185,-1354.9,0.12135
28220,4.4208,4.0909,0.1,0.00074966,7491.4,0.00073944,7220.2,-0.00021931,16.513,-0.00029192,-529.03,0.12999
28221,4.3284,4.1818,0.1,0.00078186,7813.2,0.00075545,7164.1,-0.00019812,-0.68077,-0.00035329,-1166.5,0.12264
28222,4.4208,3.9091,0.1,0.00081788,8173.1,0.0008142,8070.1,-0.00025736,18.785,-0.0002891,-219.64,0.13097
28223,4.3284,4,0.1,0.00087222,8716.2,0.00085913,8361.8,-0.00025877,-37.672,-0.00033891,-639.8,0.12381
28224,4.4208,3.7273,0.1,0.00087309,8724.9,0.00087251,8708.1,-0.00028616,2.2691,-0.00029121,-35.626,0.13182
28225,4.3284,3.8182,0.1,0.00094702,9463.6,0.00094198,9320.3,-0.00030086,-17.954,-0.0003336,-263.97,0.12482
28226,4.4208,3.5455,0.1,0.0009095,9088.7,0.00090953,9089.7,-0.00029856,12.556,-0.00030164,-10.542,0.1325
28227,4.3284,3.6364,0.1,0.00098659,9859,0.00098376,9777.9,-0.00031725,2.6922,-0.00033928,-162.89,0.12567
28228,4.4208,3.3636,0.1,0.00092728,9266.4,0.00092711,9261.4,-0.00030463,6.5831,-0.00030772,-16.603,0.133
28229,4.3284,3.4545,0.1,0.000998,9973.1,0.000995,9887.1,-0.00032081,0.58543,-0.00034357,-170.41,0.12632
28230,4.4208,3.1818,0.1,0.00093401,9333.7,0.00093353,9319.5,-0.00030681,0.10557,-0.0003106,-28.394,0.1333
28231,4.3284,3.2727,0.1,0.00099619,9955,0.00099304,9864.7,-0.00031988,-0.042162,-0.0003436,-178.28,0.12677
28232,4.4208,3,0.1,0.00093556,9349.1,0.00093496,9331.5,-0.00030716,-1.2281,-0.0003115,-33.839,0.13341
28233,4.3284,3.0909,0.1,0.00099318,9925,0.00098992,9831.6,-0.00031866,-0.54385,-0.00034303,-183.66,0.12699
28234,4.4208,2.8182,0.1,0.00093401,9333.7,0.00093353,9319.5,-0.00030681,0.10557,-0.0003106,-28.393,0.1333
28235,4.3284,2.9091,0.1,0.00099318,9925,0.00098992,9831.6,-0.00031866,-0.54385,-0.00034303,-183.66,0.12699
28236,4.4208,2.6364,0.1,0.00092728,9266.4,0.00092711,9261.4,-0.00030463,6.5831,-0.00030772,-16.603,0.133
28237,4.3284,2.7273,0.1,0.00099619,9955,0.00099304,9864.7,-0.00031988,-0.042161,-0.0003436,-178.28,0.12677
28238,4.4208,2.4545,0.1,0.0009095,9088.7,0.00090953,9089.7,-0.00029856,12.556,-0.00030164,-10.542,0.1325
28239,4.3284,2.5455,0.1,0.000998,9973.1,0.000995,9887.1,-0.00032081,0.58543,-0.00034357,-170.41,0.12632
28240,4.4208,2.2727,0.1,0.00087309,8724.9,0.00087252,8708.1,-0.00028616,2.2691,-0.00029121,-35.626,0.13182
28241,4.3284,2.3636,0.1,0.00098659,9859.1,0.00098376,9777.9,-0.00031725,2.6922,-0.00033928,-162.89,0.12567
28242,4.4208,2.0909,0.1,0.00081788,8173.1,0.0008142,8070.1,-0.00025736,18.785,-0.0002891,-219.64,0.13097
28243,4.3284,2.1818,0.1,0.00094702,9463.6,0.00094198,9320.3,-0.00030086,-17.954,-0.0003336,-263.97,0.12482
28244,4.4208,1.9091,0.1,0.00074966,7491.4,0.00073944,7220.2,-0.00021931,16.513,-0.00029192,-529.03,0.12999
28245,4.3284,2,0.1,0.00087222,8716.2,0.00085913,8361.8,-0.00025877,-37.672,-0.00033891,-639.8,0.12381
28246,4.4208,1.7273,0.1,0.00067235,6718.9,0.00065471,6275.8,-0.00017891,12.351,-0.00028978,-820.73,0.12887
28247,4.3284,1.8182,0.1,0.00078186,7813.2,0.00075545,7164.1,-0.00019812,-0.68077,-0.00035329,-1166.5,0.12264
28248,4.4208,1.5455,0.1,0.0005908,5903.9,0.00056861,5368.5,-0.0001446,9.6848,-0.0002737,-960.31,0.12764
28249,4.3284,1.6364,0.1,0.00067209,6716.3,0.00063871,5937.5,-0.00015075,5.7579,-0.00033185,-1354.9,0.12135
28250,4.4208,1.3636,0.1,0.00050995,5096,0.00048767,4567.3,-0.0001196,4.5066,-0.00024423,-931.93,0.12632
28251,4.3284,1.4545,0.1,0.0005668,5664.1,0.00053384,4911.4,-0.00011936,3.4535,-0.00029104,-1286.5,0.11996
28252,4.4208,1.1818,0.1,0.00043541,4351.1,0.00041608,3893.4,-0.00010157,3.9665,-0.00020932,-805.62,0.12492
28253,4.3284,1.2727,0.1,0.00047501,4746.8,0.00044657,4100,-9.8753e-05,2.6142,-0.00024572,-1101.6,0.1185
28254,4.4208,1,0.1,0.00037017,3699.1,0.00035506,3337.6,-8.8686e-05,3.4189,-0.00017453,-641.61,0.12346
28255,4.3284,1.0909,0.1,0.00039651,3962.4,0.00037423,3451,-8.4778e-05,2.1405,-0.00020181,-877.23,0.11698
28256,4.4208,0.81818,0.1,0.00031444,3142.3,0.00030374,2880.4,-7.9196e-05,3.1555,-0.00014252,-472.61,0.12196
28257,4.3284,0.90909,0.1,0.00033011,3298.8,0.00031407,2923.2,-7.4702e-05,2.1237,-0.00016211,-654.62,0.11542
28258,4.4208,0.63636,0.1,0.00026837,2681.9,0.00026153,2509.1,-7.1973e-05,3.3428,-0.00011494,-319.52,0.12042
28259,4.3284,0.72727,0.1,0.00027418,2739.9,0.00026375,2488,-6.7052e-05,2.4577,-0.00012727,-450.02,0.11384
28260,4.4208,0.45455,0.1,0.00023266,2325,0.00022868,2220.9,-6.6391e-05,3.79,-9.3367e-05,-198.89,0.11884
28261,4.3284,0.54545,0.1,0.0002283,2281.4,0.00022236,2131.9,-6.0914e-05,3.4759,-9.8206e-05,-276.72,0.11223
28262,4.4208,0.27273,0.1,0.00020936,2092.2,0.00020691,2026.3,-6.2221e-05,4.146,-8.0014e-05,-129.55,0.11723
28263,4.3284,0.36364,0.1,0.00019372,1935.9,0.00019073,1857.2,-5.5789e-05,5.0031,-7.6774e-05,-152.67,0.11061
28264,4.3284,0.18182,0.1,0.00017459,1744.7,0.00017259,1691.3,-5.1719e-05,5.943,-6.6772e-05,-107.16,0.10896
28265,4.4208,0.090909,0.1,0.00019054,1904,0.00018956,1876.6,-6.011e-05,0.64647,-6.7432e-05,-54.365,0.11559
28266,4.2361,5.7273,0.1,0.00016009,1599.7,0.00015737,1529.5,-4.5213e-05,7.3572,-6.4562e-05,-138.02,0.10236
28267,4.1437,5.8182,0.1,0.00012153,1214.5,0.00011928,1159.8,-3.241e-05,20.063,-5.0731e-05,-117.59,0.094105
28268,4.2361,5.9091,0.1,0.00013585,1357.5,0.000135,1333.8,-4.2388e-05,0.99085,-4.8802e-05,-47.201,0.10067
28269,4.2361,5.5455,0.1,0.00019233,1922,0.00018691,1787.1,-5.0401e-05,4.0113,-8.4035e-05,-248.69,0.10403
28270,4.1437,5.6364,0.1,0.00015442,1543.2,0.00014958,1426,-3.8725e-05,11.181,-6.9424e-05,-219.47,0.09581
28271,4.2361,5.3636,0.1,0.00023866,2384.9,0.00022828,2138.5,-5.6047e-05,2.1887,-0.00011419,-434.66,0.10569
28272,4.1437,5.4545,0.1,0.0002033,2031.6,0.00019272,1788.2,-4.4273e-05,7.5111,-0.0001018,-424.75,0.097515
28273,4.2361,5.1818,0.1,0.0002955,2953,0.00027851,2564.1,-6.2583e-05,1.2383,-0.00015127,-665.15,0.10735
28274,4.1437,5.2727,0.1,0.00026166,2614.8,0.00024324,2207.3,-4.9746e-05,5.9292,-0.00014143,-682.93,0.099224
28275,4.2361,5,0.1,0.00036305,3628,0.00033825,3074.2,-7.0805e-05,0.76022,-0.00019439,-927.79,0.10899
28276,4.1437,5.0909,0.1,0.00032956,3293.3,0.00030161,2691.6,-5.5876e-05,5.5416,-0.00018741,-982.75,0.10094
28277,4.2361,4.8182,0.1,0.00044365,4433.5,0.0004103,3699.5,-8.1965e-05,0.76134,-0.00024378,-1215.1,0.11061
28278,4.1437,4.9091,0.1,0.0004096,4093.2,0.00037056,3267.7,-6.3483e-05,6.502,-0.00024078,-1325.6,0.10266
28279,4.2361,4.6364,0.1,0.00054021,5398.4,0.00049876,4489.3,-9.8513e-05,1.5644,-0.00029854,-1501.3,0.11221
28280,4.1437,4.7273,0.1,0.00050685,5065,0.00045512,3982.4,-7.4145e-05,5.6887,-0.0003038,-1719.9,0.10438
28281,4.2361,4.4545,0.1,0.00065564,6551.9,0.00060919,5519.8,-0.00012551,-0.46101,-0.00035443,-1720.5,0.11377
28282,4.1437,4.5455,0.1,0.00062866,6282.3,0.00056349,4926,-8.979e-05,17.476,-0.00037879,-2154,0.10608
28283,4.2361,4.2727,0.1,0.0007867,7861.6,0.00074298,6852.3,-0.0001701,-8.2346,-0.00039876,-1726.3,0.11525
28284,4.1437,4.3636,0.1,0.00078946,7889.2,0.00071063,6226.2,-0.00011924,-9.1304,-0.00046979,-2643,0.10775
28285,4.2361,4.0909,0.1,0.00090419,9035.6,0.00087527,8306.7,-0.00023761,-55.061,-0.0004004,-1278.1,0.11661
28286,4.1437,4.1818,0.1,0.0010129,10122,0.00093521,8450.3,-0.00017747,90.1,-0.00056254,-2803.2,0.10935
28287,4.2361,3.9091,0.1,0.00099977,9990.8,0.00098566,9602.6,-0.00030208,-72.972,-0.00038236,-676.18,0.11782
28288,4.1437,4,0.1,0.0011937,11929,0.0011555,11073,-0.00027481,326.04,-0.00055282,-1762.8,0.1108
28289,4.2361,3.7273,0.1,0.0010577,10569,0.0010506,10370,-0.00033208,-18.595,-0.00037892,-370.48,0.11887
28290,4.1437,3.8182,0.1,0.0012279,12271,0.0012132,11869,-0.00036999,-26.593,-0.00046568,-745.56,0.11208
28291,4.2361,3.5455,0.1,0.0010725,10717,0.0010668,10557,-0.00033748,5.8875,-0.00038077,-319.41,0.1197
28292,4.1437,3.6364,0.1,0.0012038,12030,0.0011927,11726,-0.00036563,17.285,-0.00044801,-601.69,0.11313
28293,4.2361,3.3636,0.1,0.001065,10643,0.0010591,10477,-0.00033525,0.056216,-0.00037844,-324.46,0.12031
28294,4.1437,3.4545,0.1,0.0011545,11537,0.0011447,11265,-0.000355,-2.8205,-0.00042432,-523.63,0.11393
28295,4.2361,3.1818,0.1,0.0010539,10531,0.001048,10366,-0.00033162,0.095478,-0.00037469,-323.49,0.12068
28296,4.1437,3.2727,0.1,0.0011193,11185,0.0011103,10936,-0.00034488,2.1961,-0.00040978,-485.41,0.11447
28297,4.2361,3,0.1,0.0010494,10487,0.0010436,10322,-0.00033019,-0.083733,-0.0003732,-323.31,0.12081
28298,4.1437,3.0909,0.1,0.0011014,11006,0.0010927,10766,-0.0003401,0.23609,-0.00040214,-465.91,0.11474
28299,4.2361,2.8182,0.1,0.0010539,10531,0.001048,10366,-0.00033162,0.095479,-0.00037469,-323.49,0.12068
28300,4.1437,2.9091,0.1,0.0011014,11006,0.0010927,10766,-0.0003401,0.23609,-0.00040214,-465.91,0.11474
28301,4.2361,2.6364,0.1,0.001065,10643,0.0010591,10477,-0.00033525,0.05622,-0.00037844,-324.46,0.12031
28302,4.1437,2.7273,0.1,0.0011193,11185,0.0011103,10936,-0.00034488,2.1961,-0.00040978,-485.41,0.11447
28303,4.2361,2.4545,0.1,0.0010725,10717,0.0010668,10557,-0.00033748,5.8876,-0.00038077,-319.41,0.1197
28304,4.1437,2.5455,0.1,0.0011545,11537,0.0011447,11265,-0.000355,-2.8205,-0.00042432,-523.63,0.11393
28305,4.2361,2.2727,0.1,0.0010577,10569,0.0010506,10370,-0.00033208,-18.595,-0.00037892,-370.48,0.11887
28306,4.1437,2.3636,0.1,0.0012038,12030,0.0011927,11726,-0.00036563,17.285,-0.00044801,-601.69,0.11313
28307,4.2361,2.0909,0.1,0.00099977,9990.8,0.00098566,9602.6,-0.00030208,-72.972,-0.00038236,-676.18,0.11782
28308,4.1437,2.1818,0.1,0.0012279,12271,0.0012132,11869,-0.00036999,-26.593,-0.00046568,-745.56,0.11208
28309,4.2361,1.9091,0.1,0.00090419,9035.6,0.00087527,8306.7,-0.00023761,-55.061,-0.0004004,-1278.1,0.11661
28310,4.1437,2,0.1,0.0011937,11929,0.0011555,11073,-0.00027481,326.04,-0.00055282,-1762.8,0.1108
28311,4.2361,1.7273,0.1,0.0007867,7861.6,0.00074298,6852.3,-0.0001701,-8.2346,-0.00039876,-1726.3,0.11525
28312,4.1437,1.8182,0.1,0.0010129,10122,0.00093521,8450.3,-0.00017747,90.1,-0.00056254,-2803.2,0.10935
28313,4.2361,1.5455,0.1,0.00065564,6551.9,0.00060919,5519.8,-0.00012551,-0.46102,-0.00035443,-1720.5,0.11377
28314,4.1437,1.6364,0.1,0.00078946,7889.2,0.00071063,6226.2,-0.00011924,-9.1304,-0.00046979,-2643,0.10775
28315,4.2361,1.3636,0.1,0.00054021,5398.4,0.00049876,4489.3,-9.8513e-05,1.5644,-0.00029854,-1501.3,0.11221
28316,4.1437,1.4545,0.1,0.00062866,6282.3,0.00056349,4926,-8.979e-05,17.476,-0.00037879,-2154,0.10608
28317,4.2361,1.1818,0.1,0.00044365,4433.5,0.0004103,3699.5,-8.1965e-05,0.76133,-0.00024378,-1215.1,0.11061
28318,4.1437,1.2727,0.1,0.00050685,5065,0.00045512,3982.4,-7.4145e-05,5.6887,-0.0003038,-1719.9,0.10438
28319,4.2361,1,0.1,0.00036305,3628,0.00033825,3074.2,-7.0805e-05,0.76022,-0.00019439,-927.79,0.10899
28320,4.1437,1.0909,0.1,0.0004096,4093.2,0.00037056,3267.7,-6.3483e-05,6.502,-0.00024078,-1325.6,0.10266
28321,4.2361,0.81818,0.1,0.0002955,2953,0.00027851,2564.1,-6.2583e-05,1.2383,-0.00015127,-665.15,0.10735
28322,4.1437,0.90909,0.1,0.00032956,3293.3,0.00030161,2691.6,-5.5876e-05,5.5416,-0.00018741,-982.75,0.10094
28323,4.2361,0.63636,0.1,0.00023866,2384.9,0.00022828,2138.5,-5.6047e-05,2.1887,-0.00011419,-434.66,0.10569
28324,4.1437,0.72727,0.1,0.00026166,2614.8,0.00024324,2207.3,-4.9746e-05,5.9292,-0.00014143,-682.93,0.099224
28325,4.2361,0.45455,0.1,0.00019233,1922,0.00018691,1787.1,-5.0401e-05,4.0113,-8.4035e-05,-248.69,0.10403
28326,4.1437,0.54545,0.1,0.0002033,2031.6,0.00019272,1788.2,-4.4273e-05,7.5111,-0.0001018,-424.75,0.097515
28327,4.2361,0.27273,0.1,0.00016009,1599.7,0.00015737,1529.5,-4.5213e-05,7.3572,-6.4562e-05,-138.02,0.10236
28328,4.1437,0.36364,0.1,0.00015442,1543.2,0.00014958,1426,-3.8725e-05,11.181,-6.9424e-05,-219.47,0.09581
28329,4.1437,0.18182,0.1,0.00012153,1214.5,0.00011928,1159.8,-3.241e-05,20.063,-5.0731e-05,-117.59,0.094105
28330,4.2361,0.090909,0.1,0.00013585,1357.5,0.000135,1333.8,-4.2388e-05,0.99085,-4.8802e-05,-47.201,0.10067
28331,4.0514,5.7273,0.1,0.00012094,1208.6,0.00011556,1086.9,-2.6453e-05,19.897,-5.9122e-05,-225.56,0.087571
28332,3.959,5.8182,0.1,6.8903e-05,688.56,6.7479e-05,651.6,-1.9291e-05,-0.3496,-2.8361e-05,-68.497,0.079317
28333,4.0514,5.9091,0.1,7.7597e-05,775.44,7.6644e-05,752.67,-2.1236e-05,17.229,-3.1166e-05,-57.377,0.085841
28334,4.0514,5.5455,0.1,0.00017307,1729.5,0.00016139,1472.2,-3.299e-05,11.727,-9.28e-05,-437.66,0.089308
28335,3.959,5.6364,0.1,0.00011332,1132.4,0.00010783,1002.3,-2.6093e-05,-3.8914,-5.5387e-05,-224,0.081074
28336,4.0514,5.3636,0.1,0.00023458,2344.2,0.00021388,1903.6,-3.8151e-05,9.9076,-0.00013507,-718.28,0.09106
28337,3.959,5.4545,0.1,0.00016222,1621.1,0.00015039,1358.6,-3.0748e-05,-2.4383,-8.8301e-05,-434.87,0.082858
28338,4.0514,5.1818,0.1,0.00030448,3042.7,0.00027272,2382.7,-4.3145e-05,9.4246,-0.00018383,-1047.6,0.092834
28339,3.959,5.2727,0.1,0.0002156,2154.5,0.00019578,1730.8,-3.4889e-05,-2.3782,-0.00012527,-681.47,0.084675
28340,4.0514,5,0.1,0.00038588,3856.1,0.00034087,2937.3,-4.8631e-05,10.7,-0.00024067,-1432.2,0.094631
28341,3.959,5.0909,0.1,0.00027592,2757.3,0.00024637,2141.3,-3.8989e-05,-2.7911,-0.00016759,-969.06,0.086532
28342,4.0514,4.8182,0.1,0.00048451,4841.7,0.00042359,3612.4,-5.572e-05,11.002,-0.00030895,-1891.7,0.096451
28343,3.959,4.9091,0.1,0.00034695,3467.1,0.0003055,2619.7,-4.3276e-05,-0.83145,-0.00021775,-1311.7,0.088432
28344,4.0514,4.6364,0.1,0.0006103,6098.7,0.00053018,4496.7,-6.5475e-05,21.202,-0.00039434,-2449.8,0.098289
28345,3.959,4.7273,0.1,0.00043498,4346.8,0.0003788,3210.5,-4.9527e-05,-7.7638,-0.00027931,-1734.2,0.090377
28346,4.0514,4.4545,0.1,0.00078469,7841.4,0.00068,5745.6,-8.3556e-05,8.5523,-0.00050918,-3189.4,0.10013
28347,3.959,4.5455,0.1,0.00055244,5520.6,0.00047603,4006.9,-5.441e-05,21.408,-0.00036262,-2294.4,0.092367
28348,4.0514,4.2727,0.1,0.0010353,10346,0.00091524,7917.2,-0.00012668,88.659,-0.00064588,-3812.4,0.10196
28349,3.959,4.3636,0.1,0.00071132,7108.3,0.00061524,5147.2,-8.1513e-05,-87.885,-0.00046179,-2945.2,0.094396
28350,4.0514,4.0909,0.1,0.0012999,12990,0.0012116,11187,-0.00021452,472.26,-0.00071126,-3260,0.10371
28351,3.959,4.1818,0.1,0.001028,10273,0.00086184,7230.8,-4.7775e-05,396.29,-0.0007105,-4583.1,0.096446
28352,4.0514,3.9091,0.1,0.0014045,14035,0.0013704,13245,-0.0003495,321.53,-0.00061677,-1686.6,0.10527
28353,3.959,4,0.1,0.0021035,21021,0.0020449,19694,-0.0005016,560.06,-0.00094975,-2807.2,0.098412
28354,4.0514,3.7273,0.1,0.0013665,13656,0.0013485,13173,-0.00040338,10.469,-0.00052809,-926.55,0.1066
28355,3.959,3.8182,0.1,0.001659,16578,0.001634,15903,-0.00049126,-65.187,-0.00064552,-1224.2,0.10008
28356,4.0514,3.5455,0.1,0.0012831,12822,0.0012681,12415,-0.00038315,8.6062,-0.00048896,-786.44,0.10762
28357,3.959,3.6364,0.1,0.0014305,14295,0.0014103,13760,-0.00041619,36.621,-0.00056027,-1045.9,0.10138
28358,4.0514,3.3636,0.1,0.0012075,12067,0.0011946,11715,-0.00036468,-0.973,-0.00045433,-674.55,0.10835
28359,3.959,3.4545,0.1,0.0012928,12919,0.0012764,12477,-0.00038465,-3.6461,-0.00049598,-840.12,0.10232
28360,4.0514,3.1818,0.1,0.0011658,11649,0.001154,11328,-0.00035339,2.1974,-0.00043621,-620.11,0.10877
28361,3.959,3.2727,0.1,0.0012174,12166,0.0012034,11785,-0.00036452,4.7482,-0.00046263,-732.37,0.10292
28362,4.0514,3,0.1,0.0011522,11515,0.0011408,11202,-0.00035005,0.38592,-0.0004301,-601.08,0.10892
28363,3.959,3.0909,0.1,0.0011836,11828,0.0011706,11475,-0.00035635,1.5609,-0.00044693,-679,0.10322
28364,4.0514,2.8182,0.1,0.0011658,11649,0.001154,11328,-0.00035339,2.1974,-0.00043621,-620.11,0.10877
28365,3.959,2.9091,0.1,0.0011836,11828,0.0011706,11475,-0.00035635,1.5609,-0.00044693,-679,0.10322
28366,4.0514,2.6364,0.1,0.0012075,12067,0.0011946,11715,-0.00036468,-0.97299,-0.00045433,-674.55,0.10835
28367,3.959,2.7273,0.1,0.0012174,12166,0.0012034,11785,-0.00036452,4.7482,-0.00046263,-732.36,0.10292
28368,4.0514,2.4545,0.1,0.0012831,12822,0.0012681,12415,-0.00038315,8.6062,-0.00048896,-786.43,0.10762
28369,3.959,2.5455,0.1,0.0012928,12919,0.0012764,12477,-0.00038465,-3.6461,-0.00049598,-840.12,0.10232
28370,4.0514,2.2727,0.1,0.0013665,13656,0.0013485,13173,-0.00040338,10.469,-0.00052809,-926.55,0.1066
28371,3.959,2.3636,0.1,0.0014305,14295,0.0014103,13760,-0.00041619,36.621,-0.00056027,-1045.9,0.10138
28372,4.0514,2.0909,0.1,0.0014045,14035,0.0013704,13245,-0.0003495,321.53,-0.00061677,-1686.6,0.10527
28373,3.959,2.1818,0.1,0.001659,16578,0.001634,15903,-0.00049126,-65.187,-0.00064552,-1224.2,0.10008
28374,4.0514,1.9091,0.1,0.0012999,12990,0.0012116,11187,-0.00021452,472.26,-0.00071126,-3260,0.10371
28375,3.959,2,0.1,0.0021035,21021,0.0020449,19694,-0.0005016,560.06,-0.00094975,-2807.2,0.098412
28376,4.0514,1.7273,0.1,0.0010353,10346,0.00091524,7917.2,-0.00012668,88.659,-0.00064588,-3812.4,0.10196
28377,3.959,1.8182,0.1,0.001028,10273,0.00086184,7230.8,-4.7775e-05,396.29,-0.0007105,-4583.1,0.096446
28378,4.0514,1.5455,0.1,0.00078469,7841.4,0.00068,5745.6,-8.3556e-05,8.5523,-0.00050918,-3189.4,0.10013
28379,3.959,1.6364,0.1,0.00071132,7108.3,0.00061524,5147.2,-8.1513e-05,-87.885,-0.00046179,-2945.2,0.094396
28380,4.0514,1.3636,0.1,0.0006103,6098.7,0.00053018,4496.7,-6.5475e-05,21.202,-0.00039434,-2449.8,0.098289
28381,3.959,1.4545,0.1,0.00055244,5520.6,0.00047603,4006.9,-5.441e-05,21.408,-0.00036262,-2294.4,0.092367
28382,4.0514,1.1818,0.1,0.00048451,4841.7,0.00042359,3612.4,-5.572e-05,11.002,-0.00030895,-1891.7,0.096451
28383,3.959,1.2727,0.1,0.00043498,4346.8,0.0003788,3210.5,-4.9527e-05,-7.7637,-0.00027931,-1734.2,0.090377
28384,4.0514,1,0.1,0.00038588,3856.1,0.00034087,2937.3,-4.8631e-05,10.7,-0.00024067,-1432.2,0.094631
28385,3.959,1.0909,0.1,0.00034695,3467.1,0.0003055,2619.7,-4.3276e-05,-0.83145,-0.00021775,-1311.7,0.088432
28386,4.0514,0.81818,0.1,0.00030448,3042.7,0.00027272,2382.7,-4.3145e-05,9.4246,-0.00018383,-1047.6,0.092834
28387,3.959,0.90909,0.1,0.00027592,2757.3,0.00024637,2141.3,-3.8989e-05,-2.7911,-0.00016759,-969.06,0.086532
28388,4.0514,0.63636,0.1,0.00023458,2344.2,0.00021388,1903.6,-3.8151e-05,9.9076,-0.00013507,-718.28,0.09106
28389,3.959,0.72727,0.1,0.0002156,2154.5,0.00019578,1730.8,-3.4889e-05,-2.3782,-0.00012527,-681.47,0.084675
28390,4.0514,0.45455,0.1,0.00017307,1729.5,0.00016139,1472.2,-3.299e-05,11.727,-9.28e-05,-437.66,0.089308
28391,3.959,0.54545,0.1,0.00016222,1621.1,0.00015039,1358.6,-3.0748e-05,-2.4383,-8.8301e-05,-434.87,0.082858
28392,4.0514,0.27273,0.1,0.00012094,1208.6,0.00011556,1086.9,-2.6453e-05,19.897,-5.9122e-05,-225.56,0.087571
28393,3.959,0.36364,0.1,0.00011332,1132.4,0.00010783,1002.3,-2.6093e-05,-3.8914,-5.5387e-05,-224,0.081074
28394,3.959,0.18182,0.1,6.8903e-05,688.56,6.7479e-05,651.6,-1.9291e-05,-0.3496,-2.8361e-05,-68.497,0.079317
28395,4.0514,0.090909,0.1,7.7597e-05,775.44,7.6644e-05,752.67,-2.1236e-05,17.229,-3.1166e-05,-57.377,0.085841
28396,0.185,0.27273,0.1,0.00043486,4345.6,0.00042717,4258.7,-8.124e-05,438.74,-0.00020206,-469.09,0.0001227
28397,0.2775,0.18182,0.1,0.00045963,4593.1,0.0004569,4518.3,-0.00014181,19.825,-0.00016626,-163.89,0.00021825
28398,0.0925,0.18182,0.1,0.00027923,2790.4,0.00029683,3317.2,-6.1205e-05,627.03,-8.6587e-05,436.32,2.8024e-05
28399,0.185,0.090909,0.1,0.00039404,3937.7,0.00038858,3779.7,-0.00012754,-98.26,-0.0001431,-215.2,5.7378e-05
28400,0.185,0.45455,0.1,0.00049659,4962.5,0.00047883,4908,-3.223e-05,1068,-0.00026694,-695.46,0.00016091
28401,0.2775,0.36364,0.1,0.00047024,4699.1,0.00047092,4878.4,-7.6412e-05,765.98,-0.00021075,-243.35,0.00031222
28402,0.0925,0.36364,0.1,0.00034922,3489.8,0.00038509,4664.3,-2.0829e-05,1614.4,-0.00012143,858.51,4.5255e-05
28403,0.185,0.63636,0.1,0.00055575,5553.7,0.00053206,5515,-1.5257e-05,1402.6,-0.00030875,-802.6,0.00018393
28404,0.2775,0.54545,0.1,0.000506,5056.5,0.00050449,5363.5,-4.1349e-05,1262.3,-0.00024744,-286.17,0.00037101
28405,0.0925,0.54545,0.1,0.00040644,4061.6,0.00044983,5529.7,-8.9086e-06,2083,-0.00014611,1052,5.4619e-05
28406,0.185,0.81818,0.1,0.0006004,5999.9,0.00057332,5970.4,-8.1785e-06,1601.2,-0.00033715,-870.53,0.00019904
28407,0.2775,0.72727,0.1,0.00054166,5412.9,0.00053773,5786.7,-2.3683e-05,1568.5,-0.00027457,-316.64,0.00040967
28408,0.0925,0.72727,0.1,0.00044712,4468.1,0.00049496,6107.8,-4.5204e-06,2355,-0.00016286,1165.3,6.0441e-05
28409,0.185,1,0.1,0.00063349,6330.5,0.00060441,6308.9,-4.9599e-06,1730.4,-0.00035706,-915.21,0.00020953
28410,0.2775,0.90909,0.1,0.00057174,5713.5,0.00056628,6130.9,-1.4657e-05,1765.9,-0.00029437,-335.76,0.00043645
28411,0.0925,0.90909,0.1,0.00047604,4757.1,0.00052688,6509.8,-2.6749e-06,2530.9,-0.0001744,1240.7,6.4315e-05
28412,0.185,1.1818,0.1,0.00065813,6576.7,0.00062775,6561.5,-3.2447e-06,1820.5,-0.00037153,-946.63,0.00021702
28413,0.2775,1.0909,0.1,0.00059587,5954.6,0.00058945,6402.5,-9.6583e-06,1901,-0.00030916,-349.34,0.00045563
28414,0.0925,1.0909,0.1,0.00049705,4967.1,0.00055,6798.4,-1.7184e-06,2653,-0.00018273,1293,6.7021e-05
28415,0.185,1.3636,0.1,0.0006766,6761.3,0.00064535,6751.6,-2.2419e-06,1885.9,-0.00038219,-968.89,0.00022246
28416,0.2775,1.2727,0.1,0.00061489,6144.6,0.00060786,6615.2,-6.6856e-06,1997.8,-0.00032034,-358.9,0.00046962
28417,0.0925,1.2727,0.1,0.00051252,5121.7,0.00056699,7009.3,-1.1784e-06,2740.3,-0.00018884,1330.3,6.8957e-05
28418,0.185,1.5455,0.1,0.00069048,6900.1,0.00065863,6895.1,-1.6022e-06,1934.4,-0.00039012,-984.76,0.00022642
28419,0.2775,1.4545,0.1,0.00062977,6293.3,0.00062234,6781.3,-4.7926e-06,2069.2,-0.00032887,-365.74,0.0004799
28420,0.0925,1.4545,0.1,0.00052398,5236.2,0.00057955,7164.6,-8.3967e-07,2803.8,-0.00019338,1357.1,7.0352e-05
28421,0.185,1.7273,0.1,0.00070089,7004.1,0.00066862,7003.3,-1.1669e-06,1970.7,-0.00039601,-995.95,0.00022928
28422,0.2775,1.6364,0.1,0.00064134,6409,0.00063365,6910.4,-3.5155e-06,2123,-0.00033539,-370.59,0.00048745
28423,0.0925,1.6364,0.1,0.00053247,5321,0.00058882,7278.9,-6.1221e-07,2850.1,-0.00019676,1376.4,7.1354e-05
28424,0.185,1.9091,0.1,0.00070864,7081.5,0.00067608,7084.2,-8.5534e-07,1998,-0.00040036,-1003.7,0.00023133
28425,0.2775,1.8182,0.1,0.00065028,6498.3,0.0006424,7010.3,-2.6117e-06,2163.9,-0.00034038,-373.99,0.00049295
28426,0.0925,1.8182,0.1,0.0005387,5383.3,0.00059562,7362.4,-4.5036e-07,2883.8,-0.00019926,1390,7.2065e-05
28427,0.185,2.0909,0.1,0.00071432,7138.3,0.00068157,7144.1,-6.2519e-07,2018.4,-0.00040354,-1009,0.00023276
28428,0.2775,2,0.1,0.00065709,6566.4,0.0006491,7086.6,-1.95e-06,2194.9,-0.00034416,-376.31,0.00049691
28429,0.0925,2,0.1,0.00054322,5428.4,0.00060053,7422.6,-3.3067e-07,2908,-0.0002011,1399.4,7.256e-05
28430,0.185,2.2727,0.1,0.00071841,7179.2,0.00068554,7187.5,-4.535e-07,2033.3,-0.0004058,-1012.4,0.00023374
28431,0.2775,2.1818,0.1,0.00066221,6617.5,0.00065413,7144.1,-1.4571e-06,2218.3,-0.00034698,-377.84,0.0004997
28432,0.0925,2.1818,0.1,0.00054644,5460.6,0.00060402,7465.2,-2.4046e-07,2925,-0.00020243,1405.8,7.2896e-05
28433,0.185,2.4545,0.1,0.00072125,7207.5,0.0006883,7217.9,-3.2777e-07,2043.8,-0.00040737,-1014.5,0.00023438
28434,0.2775,2.3636,0.1,0.00066594,6654.8,0.0006578,7186.2,-1.0922e-06,2235.5,-0.00034904,-378.81,0.0005016
28435,0.0925,2.3636,0.1,0.00054867,5482.9,0.00060642,7494.4,-1.729e-07,2936.7,-0.00020337,1410,7.3116e-05
28436,0.185,2.6364,0.1,0.0007231,7226,0.0006901,7237.9,-2.4127e-07,2050.9,-0.00040839,-1015.8,0.00023478
28437,0.2775,2.5455,0.1,0.00066853,6680.7,0.00066036,7215.5,-8.3198e-07,2247.6,-0.00035046,-379.4,0.00050285
28438,0.0925,2.5455,0.1,0.00055014,5497.6,0.00060801,7513.7,-1.2428e-07,2944.4,-0.000204,1412.6,7.3254e-05
28439,0.185,2.8182,0.1,0.00072414,7236.5,0.00069112,7249.1,-1.9047e-07,2054.9,-0.00040896,-1016.4,0.00023499
28440,0.2775,2.7273,0.1,0.00067016,6697,0.00066197,7234,-6.6391e-07,2255.3,-0.00035136,-379.72,0.0005036
28441,0.0925,2.7273,0.1,0.00055103,5506.5,0.00060896,7525.2,-9.2659e-08,2949,-0.00020439,1414,7.3332e-05
28442,0.185,3,0.1,0.00072448,7239.8,0.00069145,7252.8,-1.737e-07,2056.2,-0.00040914,-1016.6,0.00023506
28443,0.2775,2.9091,0.1,0.00067095,6704.9,0.00066274,7243,-5.813e-07,2259,-0.00035179,-379.86,0.00050395
28444,0.0925,2.9091,0.1,0.00055145,5510.7,0.00060941,7530.6,-7.7048e-08,2951.2,-0.00020457,1414.7,7.3368e-05
28445,0.185,3.1818,0.1,0.00072414,7236.5,0.00069112,7249.1,-1.9046e-07,2054.9,-0.00040896,-1016.4,0.00023499
28446,0.2775,3.0909,0.1,0.00067095,6704.9,0.00066274,7243,-5.813e-07,2259,-0.00035179,-379.86,0.00050395
28447,0.0925,3.0909,0.1,0.00055145,5510.7,0.00060941,7530.6,-7.7047e-08,2951.2,-0.00020457,1414.7,7.3368e-05
28448,0.185,3.3636,0.1,0.0007231,7226,0.0006901,7237.9,-2.4126e-07,2050.9,-0.00040839,-1015.8,0.00023478
28449,0.2775,3.2727,0.1,0.00067016,6697,0.00066197,7234,-6.6391e-07,2255.3,-0.00035136,-379.72,0.0005036
28450,0.0925,3.2727,0.1,0.00055103,5506.5,0.00060896,7525.2,-9.2657e-08,2949,-0.00020439,1414,7.3332e-05
28451,0.185,3.5455,0.1,0.00072125,7207.5,0.0006883,7217.9,-3.2776e-07,2043.8,-0.00040737,-1014.5,0.00023438
28452,0.2775,3.4545,0.1,0.00066853,6680.7,0.00066036,7215.5,-8.3197e-07,2247.6,-0.00035046,-379.4,0.00050285
28453,0.0925,3.4545,0.1,0.00055014,5497.6,0.00060801,7513.7,-1.2428e-07,2944.4,-0.000204,1412.6,7.3254e-05
28454,0.185,3.7273,0.1,0.00071841,7179.2,0.00068554,7187.5,-4.5349e-07,2033.3,-0.0004058,-1012.4,0.00023374
28455,0.2775,3.6364,0.1,0.00066594,6654.8,0.0006578,7186.2,-1.0921e-06,2235.5,-0.00034904,-378.81,0.0005016
28456,0.0925,3.6364,0.1,0.00054867,5482.9,0.00060642,7494.4,-1.729e-07,2936.7,-0.00020337,1410,7.3116e-05
28457,0.185,3.9091,0.1,0.00071432,7138.3,0.00068157,7144.1,-6.2518e-07,2018.4,-0.00040354,-1009,0.00023276
28458,0.2775,3.8182,0.1,0.00066221,6617.5,0.00065413,7144.1,-1.4571e-06,2218.3,-0.00034698,-377.84,0.0004997
28459,0.0925,3.8182,0.1,0.00054644,5460.6,0.00060402,7465.2,-2.4046e-07,2925,-0.00020243,1405.8,7.2896e-05
28460,0.185,4.0909,0.1,0.00070864,7081.5,0.00067608,7084.2,-8.5533e-07,1998,-0.00040036,-1003.7,0.00023133
28461,0.2775,4,0.1,0.00065709,6566.4,0.0006491,7086.6,-1.95e-06,2194.9,-0.00034416,-376.31,0.00049691
28462,0.0925,4,0.1,0.00054322,5428.4,0.00060053,7422.6,-3.3066e-07,2908,-0.0002011,1399.4,7.256e-05
28463,0.185,4.2727,0.1,0.00070089,7004.1,0.00066862,7003.3,-1.1669e-06,1970.7,-0.00039601,-995.95,0.00022928
28464,0.2775,4.1818,0.1,0.00065028,6498.3,0.0006424,7010.3,-2.6117e-06,2163.9,-0.00034038,-373.99,0.00049295
28465,0.0925,4.1818,0.1,0.0005387,5383.3,0.00059562,7362.4,-4.5036e-07,2883.8,-0.00019926,1390,7.2065e-05
28466,0.185,4.4545,0.1,0.00069048,6900.1,0.00065863,6895.1,-1.6022e-06,1934.4,-0.00039012,-984.76,0.00022642
28467,0.2775,4.3636,0.1,0.00064134,6409,0.00063365,6910.4,-3.5155e-06,2123,-0.00033539,-370.59,0.00048745
28468,0.0925,4.3636,0.1,0.00053247,5321,0.00058882,7278.9,-6.122e-07,2850.1,-0.00019676,1376.4,7.1354e-05
28469,0.185,4.6364,0.1,0.0006766,6761.3,0.00064535,6751.6,-2.2419e-06,1885.9,-0.00038219,-968.89,0.00022246
28470,0.2775,4.5455,0.1,0.00062977,6293.3,0.00062234,6781.3,-4.7926e-06,2069.2,-0.00032887,-365.74,0.0004799
28471,0.0925,4.5455,0.1,0.00052398,5236.2,0.00057955,7164.6,-8.3967e-07,2803.8,-0.00019338,1357.1,7.0352e-05
28472,0.185,4.8182,0.1,0.00065813,6576.7,0.00062775,6561.5,-3.2447e-06,1820.5,-0.00037153,-946.63,0.00021702
28473,0.2775,4.7273,0.1,0.00061489,6144.6,0.00060786,6615.2,-6.6856e-06,1997.8,-0.00032034,-358.9,0.00046962
28474,0.0925,4.7273,0.1,0.00051252,5121.7,0.00056699,7009.3,-1.1784e-06,2740.3,-0.00018884,1330.3,6.8957e-05
28475,0.185,5,0.1,0.00063349,6330.5,0.00060441,6308.9,-4.9598e-06,1730.4,-0.00035706,-915.21,0.00020953
28476,0.2775,4.9091,0.1,0.00059587,5954.6,0.00058945,6402.5,-9.6583e-06,1901,-0.00030916,-349.34,0.00045563
28477,0.0925,4.9091,0.1,0.00049705,4967.1,0.00055,6798.4,-1.7184e-06,2653,-0.00018273,1293,6.7021e-05
28478,0.185,5.1818,0.1,0.0006004,5999.9,0.00057332,5970.4,-8.1784e-06,1601.2,-0.00033715,-870.53,0.00019904
28479,0.2775,5.0909,0.1,0.00057174,5713.5,0.00056628,6130.9,-1.4657e-05,1765.9,-0.00029437,-335.76,0.00043645
28480,0.0925,5.0909,0.1,0.00047604,4757.1,0.00052688,6509.8,-2.6749e-06,2530.9,-0.0001744,1240.7,6.4315e-05
28481,0.185,5.3636,0.1,0.00055575,5553.7,0.00053206,5515,-1.5257e-05,1402.6,-0.00030875,-802.6,0.00018393
28482,0.2775,5.2727,0.1,0.00054166,5412.9,0.00053773,5786.7,-2.3683e-05,1568.5,-0.00027457,-316.64,0.00040967
28483,0.0925,5.2727,0.1,0.00044712,4468.1,0.00049496,6107.8,-4.5204e-06,2355,-0.00016286,1165.3,6.0441e-05
28484,0.185,5.5455,0.1,0.00049659,4962.5,0.00047883,4908,-3.223e-05,1068,-0.00026694,-695.46,0.00016091
28485,0.2775,5.4545,0.1,0.000506,5056.5,0.00050449,5363.5,-4.1349e-05,1262.3,-0.00024744,-286.17,0.00037101
28486,0.0925,5.4545,0.1,0.00040644,4061.6,0.00044983,5529.7,-8.9086e-06,2083,-0.00014611,1052,5.4619e-05
28487,0.185,5.7273,0.1,0.00043486,4345.6,0.00042717,4258.7,-8.124e-05,438.74,-0.00020206,-469.09,0.0001227
28488,0.2775,5.6364,0.1,0.00047024,4699.1,0.00047092,4878.4,-7.6412e-05,765.98,-0.00021075,-243.35,0.00031222
28489,0.0925,5.6364,0.1,0.00034922,3489.8,0.00038509,4664.3,-2.0829e-05,1614.4,-0.00012143,858.51,4.5255e-05
28490,0.2775,5.8182,0.1,0.00045963,4593.1,0.0004569,4518.3,-0.00014181,19.825,-0.00016626,-163.89,0.00021825
28491,0.0925,5.8182,0.1,0.00027923,2790.4,0.00029683,3317.2,-6.1205e-05,627.03,-8.6587e-05,436.32,2.8024e-05
28492,0.185,5.9091,0.1,0.00039404,3937.7,0.00038858,3779.7,-0.00012754,-98.26,-0.0001431,-215.2,5.7378e-05
28493,0.37,0.27273,0.1,0.00049193,4915.9,0.00049872,5123.5,-0.0001396,327.4,-0.00017039,96.024,0.00049033
28494,0.4625,0.18182,0.1,0.00053016,5297.9,0.0005294,5278.1,-0.00016691,46.285,-0.00018419,-83.54,0.00068035
28495,0.37,0.090909,0.1,0.00049555,4952.1,0.00049396,4908.4,-0.00015549,28.657,-0.00017434,-112.97,0.0003143
28496,0.37,0.45455,0.1,0.00048236,4820.2,0.00049659,5334.1,-8.5633e-05,959.48,-0.00019116,166.57,0.00060761
28497,0.4625,0.36364,0.1,0.00050682,5064.7,0.00051515,5345.1,-0.00012348,546.68,-0.00018949,50.683,0.00087691
28498,0.37,0.63636,0.1,0.00049498,4946.4,0.00051111,5642.4,-5.0735e-05,1420.9,-0.00021326,199.81,0.00068652
28499,0.4625,0.54545,0.1,0.00050664,5062.9,0.00051848,5548.9,-8.092e-05,1045.3,-0.00021085,69.003,0.0010143
28500,0.37,0.81818,0.1,0.00051534,5149.8,0.00053156,5953.7,-3.1019e-05,1726.7,-0.00023181,218.08,0.00074146
28501,0.4625,0.72727,0.1,0.00051844,5180.8,0.00053074,5794.9,-5.2811e-05,1410.3,-0.00023013,78.003,0.0011117
28502,0.37,1,0.1,0.00053582,5354.6,0.0005519,6228.8,-1.9934e-05,1932.2,-0.00024648,230.07,0.00078091
28503,0.4625,0.90909,0.1,0.00053452,5341.5,0.00054638,6038,-3.5242e-05,1668,-0.00024611,83.603,0.0011822
28504,0.37,1.1818,0.1,0.00055393,5535.5,0.00056992,6458.8,-1.3459e-05,2075.6,-0.00025798,238.37,0.00080982
28505,0.4625,1.0909,0.1,0.00055084,5504.6,0.00056219,6257.6,-2.43e-05,1851,-0.00025903,87.383,0.0012341
28506,0.37,1.3636,0.1,0.00056911,5687.2,0.00058507,6646.5,-9.4525e-06,2179.5,-0.00026702,244.23,0.00083124
28507,0.4625,1.2727,0.1,0.0005657,5653.1,0.00057664,6447.1,-1.7287e-05,1984.5,-0.00026942,90.024,0.001273
28508,0.37,1.5455,0.1,0.00058154,5811.3,0.00059749,6797.6,-6.8335e-06,2256.9,-0.00027415,248.41,0.00084715
28509,0.4625,1.4545,0.1,0.00057856,5781.6,0.00058922,6606.2,-1.2619e-05,2084.3,-0.00027779,91.905,0.0013021
28510,0.37,1.7273,0.1,0.00059154,5911.3,0.00060751,6918,-5.0343e-06,2315.6,-0.00027977,251.36,0.00085892
28511,0.4625,1.6364,0.1,0.00058937,5889.6,0.00059982,6737.7,-9.3873e-06,2160.4,-0.00028451,93.245,0.0013239
28512,0.37,1.9091,0.1,0.00059949,5990.7,0.00061547,7013,-3.7482e-06,2360.5,-0.00028418,253.41,0.00086755
28513,0.4625,1.8182,0.1,0.00059826,5978.5,0.00060856,6844.9,-7.0707e-06,2219.2,-0.0002899,94.188,0.0013401
28514,0.37,2.0909,0.1,0.00060569,6052.7,0.00062167,7086.8,-2.8048e-06,2394.7,-0.00028761,254.8,0.00087378
28515,0.4625,2,0.1,0.00060543,6050.2,0.00061563,6930.7,-5.3666e-06,2264.8,-0.00029417,94.84,0.0013521
28516,0.37,2.2727,0.1,0.00061042,6100,0.0006264,7142.8,-2.1075e-06,2420.5,-0.00029022,255.72,0.00087818
28517,0.4625,2.1818,0.1,0.00061109,6106.7,0.0006212,6998.2,-4.0982e-06,2299.9,-0.00029751,95.278,0.0013608
28518,0.37,2.4545,0.1,0.00061388,6134.6,0.00062986,7183.8,-1.6017e-06,2439.2,-0.00029213,256.3,0.00088117
28519,0.4625,2.3636,0.1,0.0006154,6149.8,0.00062545,7049.4,-3.1617e-06,2326.2,-0.00030005,95.562,0.0013669
28520,0.37,2.6364,0.1,0.00061625,6158.2,0.00063222,7211.7,-1.2564e-06,2452,-0.00029344,256.64,0.00088309
28521,0.4625,2.5455,0.1,0.00061851,6180.9,0.00062852,7086.3,-2.4969e-06,2345.1,-0.00030187,95.737,0.001371
28522,0.37,2.8182,0.1,0.00061762,6171.9,0.00063359,7227.9,-1.0548e-06,2459.4,-0.0002942,256.82,0.00088416
28523,0.4625,2.7273,0.1,0.00062053,6201,0.0006305,7110.2,-2.0689e-06,2357.3,-0.00030305,95.836,0.0013735
28524,0.37,3,0.1,0.00061807,6176.4,0.00063404,7233.2,-9.8843e-07,2461.8,-0.00029445,256.87,0.0008845
28525,0.4625,2.9091,0.1,0.00062152,6210.9,0.00063147,7121.9,-1.859e-06,2363.3,-0.00030363,95.88,0.0013747
28526,0.37,3.1818,0.1,0.00061762,6171.9,0.00063359,7227.9,-1.0548e-06,2459.4,-0.0002942,256.82,0.00088416
28527,0.4625,3.0909,0.1,0.00062152,6210.9,0.00063147,7121.9,-1.859e-06,2363.3,-0.00030363,95.88,0.0013747
28528,0.37,3.3636,0.1,0.00061625,6158.2,0.00063222,7211.7,-1.2564e-06,2452,-0.00029344,256.64,0.00088309
28529,0.4625,3.2727,0.1,0.00062053,6201,0.0006305,7110.2,-2.0689e-06,2357.3,-0.00030305,95.836,0.0013735
28530,0.37,3.5455,0.1,0.00061388,6134.6,0.00062986,7183.8,-1.6017e-06,2439.2,-0.00029213,256.3,0.00088117
28531,0.4625,3.4545,0.1,0.00061851,6180.9,0.00062852,7086.3,-2.4968e-06,2345.1,-0.00030187,95.737,0.001371
28532,0.37,3.7273,0.1,0.00061042,6100,0.0006264,7142.8,-2.1075e-06,2420.5,-0.00029022,255.72,0.00087818
28533,0.4625,3.6364,0.1,0.0006154,6149.8,0.00062545,7049.4,-3.1617e-06,2326.2,-0.00030005,95.562,0.0013669
28534,0.37,3.9091,0.1,0.00060569,6052.7,0.00062167,7086.8,-2.8047e-06,2394.7,-0.00028761,254.8,0.00087378
28535,0.4625,3.8182,0.1,0.00061109,6106.7,0.0006212,6998.2,-4.0982e-06,2299.9,-0.00029751,95.278,0.0013608
28536,0.37,4.0909,0.1,0.00059949,5990.7,0.00061547,7013,-3.7482e-06,2360.5,-0.00028418,253.41,0.00086755
28537,0.4625,4,0.1,0.00060543,6050.2,0.00061563,6930.7,-5.3666e-06,2264.8,-0.00029417,94.84,0.0013521
28538,0.37,4.2727,0.1,0.00059154,5911.3,0.00060751,6918,-5.0342e-06,2315.6,-0.00027977,251.36,0.00085892
28539,0.4625,4.1818,0.1,0.00059826,5978.5,0.00060856,6844.9,-7.0707e-06,2219.2,-0.0002899,94.188,0.0013401
28540,0.37,4.4545,0.1,0.00058154,5811.3,0.00059749,6797.6,-6.8334e-06,2256.9,-0.00027415,248.41,0.00084715
28541,0.4625,4.3636,0.1,0.00058937,5889.6,0.00059982,6737.7,-9.3873e-06,2160.4,-0.00028451,93.245,0.0013239
28542,0.37,4.6364,0.1,0.00056911,5687.2,0.00058507,6646.5,-9.4524e-06,2179.5,-0.00026702,244.23,0.00083124
28543,0.4625,4.5455,0.1,0.00057856,5781.6,0.00058922,6606.2,-1.2619e-05,2084.3,-0.00027779,91.905,0.0013021
28544,0.37,4.8182,0.1,0.00055393,5535.5,0.00056992,6458.8,-1.3459e-05,2075.6,-0.00025798,238.37,0.00080982
28545,0.4625,4.7273,0.1,0.0005657,5653.1,0.00057664,6447.1,-1.7287e-05,1984.5,-0.00026942,90.024,0.001273
28546,0.37,5,0.1,0.00053582,5354.6,0.0005519,6228.8,-1.9934e-05,1932.2,-0.00024648,230.07,0.00078091
28547,0.4625,4.9091,0.1,0.00055084,5504.6,0.00056219,6257.6,-2.43e-05,1851,-0.00025903,87.383,0.0012341
28548,0.37,5.1818,0.1,0.00051534,5149.8,0.00053156,5953.7,-3.1019e-05,1726.7,-0.00023181,218.08,0.00074146
28549,0.4625,5.0909,0.1,0.00053451,5341.5,0.00054638,6038,-3.5242e-05,1668,-0.00024611,83.603,0.0011822
28550,0.37,5.3636,0.1,0.00049498,4946.4,0.00051111,5642.4,-5.0735e-05,1420.9,-0.00021326,199.81,0.00068652
28551,0.4625,5.2727,0.1,0.00051844,5180.8,0.00053074,5794.9,-5.2811e-05,1410.3,-0.00023013,78.003,0.0011117
28552,0.37,5.5455,0.1,0.00048236,4820.2,0.00049659,5334.1,-8.5633e-05,959.48,-0.00019116,166.57,0.00060761
28553,0.4625,5.4545,0.1,0.00050664,5062.9,0.00051848,5548.9,-8.092e-05,1045.3,-0.00021085,69.003,0.0010143
28554,0.37,5.7273,0.1,0.00049193,4915.9,0.00049872,5123.5,-0.0001396,327.4,-0.00017039,96.024,0.00049033
28555,0.4625,5.6364,0.1,0.00050682,5064.7,0.00051515,5345.1,-0.00012348,546.68,-0.00018949,50.683,0.00087691
28556,0.4625,5.8182,0.1,0.00053016,5297.9,0.0005294,5278.1,-0.00016691,46.285,-0.00018419,-83.54,0.00068035
28557,0.37,5.9091,0.1,0.00049555,4952.1,0.00049396,4908.4,-0.00015549,28.657,-0.00017434,-112.97,0.0003143
28558,0.555,0.27273,0.1,0.00054356,5431.9,0.00054562,5498.1,-0.00016301,173.71,-0.00019083,-35.35,0.0011662
28559,0.6475,0.18182,0.1,0.00056533,5649.4,0.00056398,5610.9,-0.0001814,10.434,-0.00019426,-86.236,0.001469
28560,0.555,0.090909,0.1,0.00054481,5444.3,0.00054287,5388.6,-0.00017571,-10.545,-0.00018758,-99.737,0.00087469
28561,0.555,0.45455,0.1,0.0005298,5294.4,0.00053653,5556.1,-0.00011839,635.29,-0.00020905,-45.877,0.0013792
28562,0.6475,0.36364,0.1,0.00054347,5431,0.00054839,5595.6,-0.00014735,368.08,-0.00019875,-18.098,0.0017713
28563,0.555,0.63636,0.1,0.00052944,5290.7,0.0005377,5698.3,-8.2618e-05,1037.5,-0.00022769,-52.581,0.0015342
28564,0.6475,0.54545,0.1,0.00053502,5346.5,0.00054338,5677.8,-0.00010975,770.42,-0.00021492,-19.844,0.0019983
28565,0.555,0.81818,0.1,0.00053743,5370.6,0.00054542,5878.2,-5.6913e-05,1352.5,-0.00024442,-56.399,0.0016481
28566,0.6475,0.72727,0.1,0.00053559,5352.2,0.00054507,5807.6,-7.9597e-05,1114.1,-0.00023069,-21.163,0.0021685
28567,0.555,1,0.1,0.00054953,5491.5,0.00055669,6067.1,-3.9642e-05,1586.5,-0.00025865,-59.057,0.0017329
28568,0.6475,0.90909,0.1,0.00054227,5419,0.00055157,5961.8,-5.751e-05,1385.4,-0.00024483,-22.084,0.002297
28569,0.555,1.1818,0.1,0.00056267,5622.8,0.00056899,6246.5,-2.821e-05,1759.3,-0.00027047,-60.952,0.0017968
28570,0.6475,1.0909,0.1,0.00055204,5516.6,0.00056069,6121.3,-4.1949e-05,1593.3,-0.00025704,-22.805,0.0023948
28571,0.555,1.3636,0.1,0.00057521,5748.1,0.00058087,6407.4,-2.0533e-05,1888.7,-0.00028019,-62.299,0.0018451
28572,0.6475,1.2727,0.1,0.00056276,5623.7,0.00057073,6273.9,-3.1057e-05,1752.3,-0.00026738,-23.325,0.0024697
28573,0.555,1.5455,0.1,0.00058644,5860.4,0.0005916,6546.9,-1.5236e-05,1987.3,-0.00028815,-63.255,0.0018818
28574,0.6475,1.4545,0.1,0.00057322,5728.3,0.00058059,6412.9,-2.3341e-05,1875.2,-0.00027607,-23.699,0.002527
28575,0.555,1.7273,0.1,0.00059613,5957.2,0.00060091,6664.9,-1.1468e-05,2063.7,-0.00029464,-63.924,0.0019095
28576,0.6475,1.6364,0.1,0.0005828,5823.9,0.00058968,6535.3,-1.7765e-05,1971.2,-0.00028331,-23.96,0.0025708
28577,0.555,1.9091,0.1,0.00060424,6038.3,0.00060876,6762.8,-8.7182e-06,2123.4,-0.00029989,-64.383,0.0019302
28578,0.6475,1.8182,0.1,0.0005912,5908,0.00059771,6640.5,-1.3653e-05,2047,-0.0002893,-24.137,0.002604
28579,0.555,2.0909,0.1,0.00061087,6104.5,0.00061518,6842.2,-6.6776e-06,2169.9,-0.00030408,-64.688,0.0019455
28580,0.6475,2,0.1,0.00059835,5979.4,0.00060456,6728.7,-1.0574e-05,2106.8,-0.0002942,-24.253,0.002629
28581,0.555,2.2727,0.1,0.00061611,6156.9,0.00062026,6904.8,-5.1618e-06,2205.6,-0.00030734,-64.883,0.0019565
28582,0.6475,2.1818,0.1,0.00060422,6038,0.00061021,6800.5,-8.2582e-06,2153.6,-0.00029812,-24.325,0.0026474
28583,0.555,2.4545,0.1,0.00062007,6196.4,0.00062411,6951.9,-4.0607e-06,2232.1,-0.00030979,-65.002,0.0019642
28584,0.6475,2.3636,0.1,0.00060885,6084.3,0.00061466,6856.8,-6.5404e-06,2189.4,-0.00030117,-24.368,0.0026607
28585,0.555,2.6364,0.1,0.00062283,6224,0.00062679,6984.8,-3.3096e-06,2250.4,-0.00031148,-65.07,0.0019693
28586,0.6475,2.5455,0.1,0.00061227,6118.5,0.00061797,6898.4,-5.3186e-06,2215.3,-0.0003034,-24.39,0.0026698
28587,0.555,2.8182,0.1,0.00062446,6240.3,0.00062838,7004.2,-2.8715e-06,2261.2,-0.00031248,-65.104,0.0019721
28588,0.6475,2.7273,0.1,0.00061453,6141.1,0.00062015,6925.7,-4.532e-06,2232.2,-0.00030486,-24.402,0.0026754
28589,0.555,3,0.1,0.000625,6245.7,0.0006289,7010.6,-2.7274e-06,2264.8,-0.00031281,-65.114,0.001973
28590,0.6475,2.9091,0.1,0.00061566,6152.3,0.00062123,6939.3,-4.1464e-06,2240.5,-0.00030558,-24.406,0.0026781
28591,0.555,3.1818,0.1,0.00062446,6240.3,0.00062838,7004.2,-2.8715e-06,2261.2,-0.00031248,-65.104,0.0019721
28592,0.6475,3.0909,0.1,0.00061566,6152.3,0.00062123,6939.3,-4.1464e-06,2240.5,-0.00030558,-24.406,0.0026781
28593,0.555,3.3636,0.1,0.00062283,6224,0.00062679,6984.8,-3.3096e-06,2250.4,-0.00031148,-65.07,0.0019693
28594,0.6475,3.2727,0.1,0.00061453,6141.1,0.00062015,6925.7,-4.532e-06,2232.2,-0.00030486,-24.402,0.0026754
28595,0.555,3.5455,0.1,0.00062007,6196.4,0.00062411,6951.9,-4.0607e-06,2232.1,-0.00030979,-65.002,0.0019642
28596,0.6475,3.4545,0.1,0.00061227,6118.5,0.00061797,6898.4,-5.3186e-06,2215.3,-0.0003034,-24.39,0.0026698
28597,0.555,3.7273,0.1,0.00061611,6156.9,0.00062026,6904.8,-5.1618e-06,2205.6,-0.00030734,-64.883,0.0019565
28598,0.6475,3.6364,0.1,0.00060885,6084.3,0.00061466,6856.8,-6.5404e-06,2189.4,-0.00030117,-24.368,0.0026607
28599,0.555,3.9091,0.1,0.00061087,6104.5,0.00061518,6842.2,-6.6776e-06,2169.9,-0.00030408,-64.688,0.0019455
28600,0.6475,3.8182,0.1,0.00060422,6038,0.00061021,6800.5,-8.2582e-06,2153.6,-0.00029812,-24.325,0.0026474
28601,0.555,4.0909,0.1,0.00060424,6038.3,0.00060876,6762.8,-8.7182e-06,2123.4,-0.00029989,-64.383,0.0019302
28602,0.6475,4,0.1,0.00059835,5979.4,0.00060456,6728.7,-1.0574e-05,2106.8,-0.0002942,-24.253,0.002629
28603,0.555,4.2727,0.1,0.00059613,5957.2,0.00060091,6664.9,-1.1468e-05,2063.7,-0.00029464,-63.924,0.0019095
28604,0.6475,4.1818,0.1,0.0005912,5908,0.00059771,6640.5,-1.3653e-05,2047,-0.0002893,-24.137,0.002604
28605,0.555,4.4545,0.1,0.00058644,5860.4,0.0005916,6546.9,-1.5236e-05,1987.3,-0.00028815,-63.255,0.0018818
28606,0.6475,4.3636,0.1,0.0005828,5823.9,0.00058968,6535.3,-1.7765e-05,1971.2,-0.00028331,-23.96,0.0025708
28607,0.555,4.6364,0.1,0.00057521,5748.1,0.00058087,6407.4,-2.0533e-05,1888.7,-0.00028019,-62.3,0.0018451
28608,0.6475,4.5455,0.1,0.00057322,5728.3,0.00058059,6412.9,-2.3341e-05,1875.2,-0.00027607,-23.699,0.002527
28609,0.555,4.8182,0.1,0.00056267,5622.8,0.00056899,6246.5,-2.821e-05,1759.3,-0.00027047,-60.952,0.0017968
28610,0.6475,4.7273,0.1,0.00056276,5623.7,0.00057073,6273.9,-3.1057e-05,1752.3,-0.00026738,-23.325,0.0024697
28611,0.555,5,0.1,0.00054953,5491.5,0.00055669,6067.1,-3.9642e-05,1586.5,-0.00025865,-59.057,0.0017329
28612,0.6475,4.9091,0.1,0.00055204,5516.6,0.00056069,6121.3,-4.1949e-05,1593.3,-0.00025704,-22.805,0.0023948
28613,0.555,5.1818,0.1,0.00053743,5370.6,0.00054542,5878.2,-5.6913e-05,1352.5,-0.00024442,-56.399,0.0016481
28614,0.6475,5.0909,0.1,0.00054227,5419,0.00055157,5961.8,-5.751e-05,1385.4,-0.00024483,-22.084,0.002297
28615,0.555,5.3636,0.1,0.00052944,5290.7,0.0005377,5698.3,-8.2618e-05,1037.5,-0.00022769,-52.581,0.0015342
28616,0.6475,5.2727,0.1,0.00053559,5352.2,0.00054507,5807.6,-7.9597e-05,1114.1,-0.00023069,-21.163,0.0021685
28617,0.555,5.5455,0.1,0.0005298,5294.4,0.00053653,5556.1,-0.00011839,635.29,-0.00020905,-45.877,0.0013792
28618,0.6475,5.4545,0.1,0.00053502,5346.5,0.00054338,5677.8,-0.00010975,770.42,-0.00021492,-19.844,0.0019983
28619,0.555,5.7273,0.1,0.00054356,5431.9,0.00054562,5498.1,-0.00016301,173.71,-0.00019083,-35.35,0.0011662
28620,0.6475,5.6364,0.1,0.00054347,5431,0.00054839,5595.6,-0.00014735,368.08,-0.00019875,-18.098,0.0017713
28621,0.6475,5.8182,0.1,0.00056533,5649.4,0.00056398,5610.9,-0.0001814,10.434,-0.00019426,-86.236,0.001469
28622,0.555,5.9091,0.1,0.00054481,5444.3,0.00054287,5388.6,-0.00017571,-10.545,-0.00018758,-99.737,0.00087469
28623,0.74,0.27273,0.1,0.00056455,5641.6,0.00056674,5708.3,-0.00017476,137.05,-0.00019314,-1.0646,0.002184
28624,0.8325,0.18182,0.1,0.00058014,5797.4,0.00057914,5769,-0.00018665,15.164,-0.00019811,-70.951,0.0026137
28625,0.74,0.090909,0.1,0.00056756,5671.7,0.00056633,5636,-0.00018361,1.3354,-0.00019336,-71.955,0.0017822
28626,0.74,0.45455,0.1,0.00054809,5477.1,0.00055512,5716.3,-0.00013866,503.57,-0.00020454,8.5404,0.0024951
28627,0.8325,0.36364,0.1,0.00055988,5594.9,0.00056421,5732.9,-0.0001606,287,-0.00019878,0.13043,0.0030183
28628,0.74,0.63636,0.1,0.00054075,5403.8,0.0005505,5785.2,-0.0001065,848.75,-0.0002179,11.727,0.0027341
28629,0.8325,0.54545,0.1,0.00054871,5483.3,0.00055666,5766.8,-0.00012899,615.13,-0.00021043,3.2275,0.0033368
28630,0.74,0.81818,0.1,0.00054027,5399,0.000551,5889.6,-7.9993e-05,1148.5,-0.0002311,13.21,0.0029176
28631,0.8325,0.72727,0.1,0.00054374,5433.6,0.00055364,5837.7,-0.00010079,920.59,-0.00022276,4.1544,0.0035861
28632,0.74,1,0.1,0.00054479,5444.1,0.00055546,6015.2,-5.971e-05,1393,-0.00024322,14.192,0.003059
28633,0.8325,0.90909,0.1,0.00054417,5438,0.00055471,5935.6,-7.7683e-05,1184,-0.00023463,4.7938,0.0037811
28634,0.74,1.1818,0.1,0.00055221,5518.3,0.00056239,6148.5,-4.4764e-05,1586.6,-0.00025395,14.832,0.0031684
28635,0.8325,1.0909,0.1,0.00054848,5481,0.0005589,6049.3,-5.9693e-05,1401.5,-0.00024553,5.1659,0.0039338
28636,0.74,1.3636,0.1,0.00056087,5604.8,0.00057045,6279.4,-3.3872e-05,1738.8,-0.00026325,15.279,0.0032531
28637,0.8325,1.2727,0.1,0.00055507,5546.9,0.00056502,6168.6,-4.603e-05,1577.5,-0.00025526,5.418,0.0040533
28638,0.74,1.5455,0.1,0.00056966,5692.7,0.00057869,6401.5,-2.5893e-05,1858.9,-0.00027122,15.598,0.0033186
28639,0.8325,1.4545,0.1,0.00056268,5622.9,0.00057207,6285.9,-3.5715e-05,1719.3,-0.00026379,5.5922,0.0041468
28640,0.74,1.7273,0.1,0.00057794,5775.4,0.0005865,6511.1,-1.9973e-05,1954.3,-0.00027797,15.828,0.003369
28641,0.8325,1.6364,0.1,0.00057043,5700.4,0.00057929,6395.9,-2.7899e-05,1833.7,-0.00027119,5.7192,0.0042196
28642,0.74,1.9091,0.1,0.00058536,5849.6,0.00059354,6606.5,-1.5527e-05,2030.3,-0.00028361,15.993,0.0034074
28643,0.8325,1.8182,0.1,0.0005778,5774,0.00058618,6495.3,-2.1932e-05,1926.2,-0.00027752,5.813,0.0042758
28644,0.74,2.0909,0.1,0.00059173,5913.3,0.0005996,6687.1,-1.2166e-05,2090.5,-0.00028825,16.11,0.0034362
28645,0.8325,2,0.1,0.00058443,5840.2,0.00059241,6582.2,-1.7356e-05,2000.6,-0.00028284,5.8824,0.0043188
28646,0.74,2.2727,0.1,0.00059698,5965.7,0.00060461,6752.6,-9.6424e-06,2137.3,-0.00029195,16.191,0.0034575
28647,0.8325,2.1818,0.1,0.00059013,5897.2,0.00059779,6655.4,-1.3862e-05,2059.7,-0.0002872,5.933,0.0043511
28648,0.74,2.4545,0.1,0.00060107,6006.6,0.00060852,6803.3,-7.7988e-06,2172.5,-0.00029478,16.245,0.0034725
28649,0.8325,2.3636,0.1,0.00059478,5943.7,0.00060218,6714.4,-1.1246e-05,2105.3,-0.00029066,5.9689,0.0043746
28650,0.74,2.6364,0.1,0.00060399,6035.7,0.00061131,6839.3,-6.5378e-06,2197,-0.00029678,16.278,0.0034826
28651,0.8325,2.5455,0.1,0.00059831,5979,0.00060553,6758.9,-9.3758e-06,2138.7,-0.00029322,5.993,0.004391
28652,0.74,2.8182,0.1,0.00060574,6053.2,0.00061299,6860.8,-5.8016e-06,2211.5,-0.00029796,16.297,0.0034883
28653,0.8325,2.7273,0.1,0.00060068,6002.7,0.00060778,6788.6,-8.1692e-06,2160.6,-0.00029493,6.0077,0.0044013
28654,0.74,3,0.1,0.00060632,6059,0.00061355,6868,-5.5594e-06,2216.3,-0.00029836,16.302,0.0034901
28655,0.8325,2.9091,0.1,0.00060187,6014.6,0.00060891,6803.5,-7.5773e-06,2171.4,-0.00029577,6.0147,0.0044063
28656,0.74,3.1818,0.1,0.00060574,6053.2,0.00061299,6860.8,-5.8016e-06,2211.5,-0.00029796,16.297,0.0034883
28657,0.8325,3.0909,0.1,0.00060187,6014.6,0.00060891,6803.5,-7.5773e-06,2171.4,-0.00029577,6.0147,0.0044063
28658,0.74,3.3636,0.1,0.00060399,6035.7,0.00061131,6839.3,-6.5378e-06,2197,-0.00029678,16.278,0.0034826
28659,0.8325,3.2727,0.1,0.00060068,6002.7,0.00060778,6788.6,-8.1692e-06,2160.6,-0.00029493,6.0077,0.0044013
28660,0.74,3.5455,0.1,0.00060107,6006.6,0.00060852,6803.3,-7.7988e-06,2172.5,-0.00029478,16.245,0.0034725
28661,0.8325,3.4545,0.1,0.00059831,5979,0.00060553,6758.9,-9.3758e-06,2138.7,-0.00029322,5.993,0.004391
28662,0.74,3.7273,0.1,0.00059698,5965.7,0.00060461,6752.6,-9.6424e-06,2137.3,-0.00029195,16.191,0.0034575
28663,0.8325,3.6364,0.1,0.00059478,5943.7,0.00060218,6714.4,-1.1246e-05,2105.3,-0.00029066,5.9689,0.0043746
28664,0.74,3.9091,0.1,0.00059173,5913.3,0.0005996,6687.1,-1.2166e-05,2090.5,-0.00028825,16.11,0.0034362
28665,0.8325,3.8182,0.1,0.00059013,5897.2,0.00059779,6655.4,-1.3862e-05,2059.7,-0.0002872,5.933,0.0043511
28666,0.74,4.0909,0.1,0.00058536,5849.6,0.00059354,6606.5,-1.5527e-05,2030.3,-0.00028361,15.993,0.0034074
28667,0.8325,4,0.1,0.00058443,5840.2,0.00059241,6582.2,-1.7356e-05,2000.6,-0.00028284,5.8824,0.0043188
28668,0.74,4.2727,0.1,0.00057794,5775.4,0.0005865,6511.1,-1.9973e-05,1954.3,-0.00027797,15.828,0.003369
28669,0.8325,4.1818,0.1,0.0005778,5774,0.00058618,6495.3,-2.1932e-05,1926.2,-0.00027752,5.813,0.0042758
28670,0.74,4.4545,0.1,0.00056966,5692.7,0.00057869,6401.5,-2.5893e-05,1858.9,-0.00027122,15.598,0.0033186
28671,0.8325,4.3636,0.1,0.00057043,5700.4,0.00057929,6395.9,-2.7899e-05,1833.7,-0.00027119,5.7192,0.0042196
28672,0.74,4.6364,0.1,0.00056087,5604.8,0.00057045,6279.4,-3.3872e-05,1738.8,-0.00026325,15.279,0.0032531
28673,0.8325,4.5455,0.1,0.00056268,5622.9,0.00057207,6285.9,-3.5715e-05,1719.3,-0.00026379,5.5922,0.0041468
28674,0.74,4.8182,0.1,0.00055221,5518.3,0.00056239,6148.5,-4.4764e-05,1586.6,-0.00025395,14.832,0.0031684
28675,0.8325,4.7273,0.1,0.00055507,5546.9,0.00056502,6168.6,-4.6029e-05,1577.5,-0.00025526,5.418,0.0040533
28676,0.74,5,0.1,0.00054479,5444.1,0.00055546,6015.2,-5.971e-05,1393,-0.00024322,14.192,0.003059
28677,0.8325,4.9091,0.1,0.00054848,5481,0.0005589,6049.3,-5.9693e-05,1401.5,-0.00024553,5.1659,0.0039338
28678,0.74,5.1818,0.1,0.00054027,5399,0.000551,5889.6,-7.9992e-05,1148.5,-0.0002311,13.21,0.0029176
28679,0.8325,5.0909,0.1,0.00054417,5438,0.00055471,5935.6,-7.7683e-05,1184,-0.00023463,4.7938,0.0037811
28680,0.74,5.3636,0.1,0.00054075,5403.8,0.0005505,5785.2,-0.0001065,848.75,-0.0002179,11.727,0.0027341
28681,0.8325,5.2727,0.1,0.00054374,5433.6,0.00055364,5837.7,-0.00010079,920.59,-0.00022276,4.1544,0.0035861
28682,0.74,5.5455,0.1,0.00054809,5477.1,0.00055512,5716.3,-0.00013866,503.57,-0.00020454,8.5404,0.0024951
28683,0.8325,5.4545,0.1,0.00054871,5483.3,0.00055666,5766.8,-0.00012899,615.13,-0.00021043,3.2275,0.0033368
28684,0.74,5.7273,0.1,0.00056455,5641.6,0.00056674,5708.3,-0.00017476,137.05,-0.00019314,-1.0646,0.002184
28685,0.8325,5.6364,0.1,0.00055988,5594.9,0.00056421,5732.9,-0.0001606,287,-0.00019878,0.13043,0.0030183
28686,0.8325,5.8182,0.1,0.00058014,5797.4,0.00057914,5769,-0.00018665,15.164,-0.00019811,-70.951,0.0026137
28687,0.74,5.9091,0.1,0.00056756,5671.7,0.00056633,5636,-0.00018361,1.3354,-0.00019336,-71.955,0.0017822
28688,0.925,0.27273,0.1,0.00057511,5747.1,0.00057665,5793.9,-0.00018064,103.94,-0.00019564,-8.8158,0.0035638
28689,1.0175,0.18182,0.1,0.00058484,5844.4,0.00058392,5818.1,-0.00018892,11.241,-0.00019882,-63.141,0.0041297
28690,0.925,0.090909,0.1,0.00057748,5770.8,0.00057643,5740.4,-0.00018781,-1.7482,-0.00019537,-58.573,0.0030588
28691,0.925,0.45455,0.1,0.00056014,5597.6,0.00056575,5783.4,-0.000151,398.02,-0.00020459,-4.6337,0.0039706
28692,1.0175,0.36364,0.1,0.00056753,5671.4,0.00057097,5779.2,-0.00016804,226.64,-0.00019872,-3.9073,0.0046312
28693,0.925,0.63636,0.1,0.00055133,5509.5,0.00055969,5818.5,-0.0001232,687.61,-0.00021527,-4.2185,0.0042953
28694,1.0175,0.54545,0.1,0.00055678,5563.9,0.0005635,5794,-0.00014162,496.07,-0.00020795,-2.3405,0.0050395
28695,0.925,0.81818,0.1,0.00054737,5469.9,0.0005572,5882.6,-9.8339e-05,957.16,-0.00022629,-4.2104,0.0045534
28696,1.0175,0.72727,0.1,0.00055016,5497.8,0.00055907,5837.2,-0.00011657,760.74,-0.00021809,-2.0993,0.0053695
28697,0.925,1,0.1,0.0005477,5473.3,0.00055801,5968.7,-7.7534e-05,1193.5,-0.00023694,-4.2078,0.0047583
28698,1.0175,0.90909,0.1,0.00054767,5472.9,0.00055773,5904.3,-9.4417e-05,1004.3,-0.00022833,-1.9167,0.0056351
28699,0.925,1.1818,0.1,0.00055127,5508.9,0.00056143,6068.7,-6.0866e-05,1393,-0.00024683,-4.2365,0.0049206
28700,1.0175,1.0909,0.1,0.00054875,5483.7,0.00055916,5989.1,-7.5821e-05,1218.1,-0.00023819,-1.8414,0.0058484
28701,0.925,1.3636,0.1,0.00055686,5564.7,0.00056658,6174.7,-4.782e-05,1558.4,-0.0002558,-4.2635,0.005049
28702,1.0175,1.2727,0.1,0.00055244,5520.6,0.00056271,6084.9,-6.0698e-05,1400.8,-0.00024738,-1.7974,0.006019
28703,0.925,1.5455,0.1,0.00056346,5630.7,0.00057264,6280.1,-3.7696e-05,1694.3,-0.00026377,-4.2835,0.0051502
28704,1.0175,1.4545,0.1,0.00055778,5574,0.00056765,6185,-4.8602e-05,1554.8,-0.00025577,-1.7713,0.006155
28705,0.925,1.7273,0.1,0.0005703,5699.1,0.00057895,6380,-2.9847e-05,1805.7,-0.00027074,-4.2941,0.0052294
28706,1.0175,1.6364,0.1,0.00056394,5635.5,0.00057331,6284.1,-3.8996e-05,1683.5,-0.00026329,-1.7507,0.0062629
28707,0.925,1.9091,0.1,0.00057688,5764.8,0.00058505,6470.9,-2.3757e-05,1896.6,-0.00027675,-4.2968,0.0052908
28708,1.0175,1.8182,0.1,0.00057027,5698.8,0.00057914,6377.7,-3.1394e-05,1790.3,-0.0002699,-1.7323,0.0063476
28709,0.925,2.0909,0.1,0.00058283,5824.3,0.00059059,6550.5,-1.9049e-05,1969.9,-0.0002818,-4.2941,0.0053377
28710,1.0175,2,0.1,0.00057632,5759.3,0.00058474,6462.6,-2.5408e-05,1878.2,-0.00027561,-1.715,0.0064133
28711,0.925,2.2727,0.1,0.00058792,5875.2,0.00059535,6617.2,-1.5461e-05,2027.8,-0.00028591,-4.2886,0.0053728
28712,1.0175,2.1818,0.1,0.00058176,5813.6,0.00058978,6536.4,-2.0752e-05,1949.1,-0.00028038,-1.6996,0.0064634
28713,0.925,2.4545,0.1,0.00059201,5916.1,0.00059919,6670,-1.2815e-05,2071.6,-0.0002891,-4.2825,0.005398
28714,1.0175,2.3636,0.1,0.00058635,5859.4,0.00059405,6597.3,-1.7224e-05,2004.4,-0.00028422,-1.6866,0.0065005
28715,0.925,2.6364,0.1,0.000595,5945.9,0.00060199,6708.1,-1.0997e-05,2102.4,-0.00029137,-4.2772,0.005415
28716,1.0175,2.5455,0.1,0.00058992,5895.1,0.00059738,6644.1,-1.4686e-05,2045.2,-0.00028711,-1.6768,0.0065266
28717,0.925,2.8182,0.1,0.00059681,5964,0.00060369,6731.2,-9.933e-06,2120.6,-0.00029274,-4.2738,0.0054247
28718,1.0175,2.7273,0.1,0.00059236,5919.6,0.00059967,6675.8,-1.3042e-05,2072.1,-0.00028905,-1.6702,0.0065432
28719,0.925,3,0.1,0.00059742,5970.1,0.00060427,6738.9,-9.5826e-06,2126.7,-0.00029319,-4.2726,0.0054279
28720,1.0175,2.9091,0.1,0.0005936,5931.9,0.00060083,6691.8,-1.2234e-05,2085.5,-0.00029002,-1.667,0.0065513
28721,0.925,3.1818,0.1,0.00059681,5964,0.00060369,6731.2,-9.933e-06,2120.6,-0.00029274,-4.2738,0.0054247
28722,1.0175,3.0909,0.1,0.0005936,5931.9,0.00060083,6691.8,-1.2234e-05,2085.5,-0.00029002,-1.667,0.0065513
28723,0.925,3.3636,0.1,0.000595,5945.9,0.00060199,6708.1,-1.0997e-05,2102.4,-0.00029137,-4.2772,0.005415
28724,1.0175,3.2727,0.1,0.00059236,5919.6,0.00059967,6675.8,-1.3042e-05,2072.1,-0.00028905,-1.6702,0.0065432
28725,0.925,3.5455,0.1,0.00059201,5916.1,0.00059919,6670,-1.2815e-05,2071.6,-0.0002891,-4.2825,0.005398
28726,1.0175,3.4545,0.1,0.00058992,5895.1,0.00059738,6644.1,-1.4686e-05,2045.2,-0.00028711,-1.6768,0.0065266
28727,0.925,3.7273,0.1,0.00058792,5875.2,0.00059535,6617.2,-1.5461e-05,2027.8,-0.00028591,-4.2886,0.0053728
28728,1.0175,3.6364,0.1,0.00058635,5859.4,0.00059405,6597.3,-1.7224e-05,2004.4,-0.00028422,-1.6866,0.0065005
28729,0.925,3.9091,0.1,0.00058283,5824.3,0.00059059,6550.5,-1.9049e-05,1969.9,-0.0002818,-4.2941,0.0053377
28730,1.0175,3.8182,0.1,0.00058176,5813.6,0.00058978,6536.4,-2.0752e-05,1949.1,-0.00028038,-1.6996,0.0064634
28731,0.925,4.0909,0.1,0.00057688,5764.8,0.00058505,6470.9,-2.3757e-05,1896.6,-0.00027675,-4.2968,0.0052908
28732,1.0175,4,0.1,0.00057632,5759.3,0.00058474,6462.6,-2.5408e-05,1878.2,-0.00027561,-1.715,0.0064133
28733,0.925,4.2727,0.1,0.0005703,5699.1,0.00057895,6380,-2.9847e-05,1805.7,-0.00027074,-4.2941,0.0052294
28734,1.0175,4.1818,0.1,0.00057027,5698.8,0.00057914,6377.7,-3.1394e-05,1790.3,-0.0002699,-1.7323,0.0063476
28735,0.925,4.4545,0.1,0.00056346,5630.7,0.00057264,6280.1,-3.7696e-05,1694.3,-0.00026377,-4.2835,0.0051502
28736,1.0175,4.3636,0.1,0.00056394,5635.5,0.00057331,6284.1,-3.8996e-05,1683.5,-0.00026329,-1.7507,0.0062629
28737,0.925,4.6364,0.1,0.00055686,5564.7,0.00056658,6174.7,-4.782e-05,1558.4,-0.0002558,-4.2635,0.005049
28738,1.0175,4.5455,0.1,0.00055778,5574,0.00056765,6185,-4.8602e-05,1554.8,-0.00025577,-1.7713,0.006155
28739,0.925,4.8182,0.1,0.00055127,5508.9,0.00056143,6068.7,-6.0866e-05,1393,-0.00024683,-4.2365,0.0049206
28740,1.0175,4.7273,0.1,0.00055244,5520.6,0.00056271,6084.9,-6.0698e-05,1400.8,-0.00024738,-1.7974,0.006019
28741,0.925,5,0.1,0.0005477,5473.3,0.00055801,5968.7,-7.7534e-05,1193.5,-0.00023694,-4.2078,0.0047583
28742,1.0175,4.9091,0.1,0.00054875,5483.7,0.00055916,5989.1,-7.5821e-05,1218.1,-0.00023819,-1.8414,0.0058484
28743,0.925,5.1818,0.1,0.00054737,5469.9,0.0005572,5882.6,-9.8339e-05,957.16,-0.00022629,-4.2104,0.0045534
28744,1.0175,5.0909,0.1,0.00054767,5472.9,0.00055773,5904.3,-9.4417e-05,1004.3,-0.00022833,-1.9167,0.0056351
28745,0.925,5.3636,0.1,0.00055133,5509.5,0.00055969,5818.5,-0.0001232,687.61,-0.00021527,-4.2185,0.0042953
28746,1.0175,5.2727,0.1,0.00055016,5497.8,0.00055907,5837.2,-0.00011657,760.74,-0.00021809,-2.0993,0.0053695
28747,0.925,5.5455,0.1,0.00056014,5597.6,0.00056575,5783.4,-0.000151,398.02,-0.00020459,-4.6337,0.0039706
28748,1.0175,5.4545,0.1,0.00055678,5563.9,0.0005635,5794,-0.00014162,496.07,-0.00020795,-2.3405,0.0050395
28749,0.925,5.7273,0.1,0.00057511,5747.1,0.00057665,5793.9,-0.00018064,103.94,-0.00019564,-8.8158,0.0035638
28750,1.0175,5.6364,0.1,0.00056753,5671.4,0.00057097,5779.2,-0.00016804,226.64,-0.00019872,-3.9073,0.0046312
28751,1.0175,5.8182,0.1,0.00058484,5844.4,0.00058392,5818.1,-0.00018892,11.241,-0.00019882,-63.141,0.0041297
28752,0.925,5.9091,0.1,0.00057748,5770.8,0.00057643,5740.4,-0.00018781,-1.7482,-0.00019537,-58.573,0.0030588
28753,1.11,0.27273,0.1,0.00057703,5766.4,0.00057827,5803.6,-0.00018322,82.114,-0.00019502,-6.5909,0.0053161
28754,1.2025,0.18182,0.1,0.00058249,5820.9,0.00058163,5796.3,-0.0001885,9.8174,-0.00019758,-58.427,0.0060239
28755,1.11,0.090909,0.1,0.00057872,5783.2,0.00057786,5758.2,-0.00018862,-0.84341,-0.00019502,-48.91,0.004715
28756,1.11,0.45455,0.1,0.00056395,5635.6,0.00056874,5790,-0.00015874,324.03,-0.00020202,-1.1299,0.0058143
28757,1.2025,0.36364,0.1,0.00056797,5675.8,0.00057078,5762.8,-0.0001721,181.06,-0.00019655,-2.6881,0.0066168
28758,1.11,0.63636,0.1,0.00055536,5549.8,0.00056285,5812.5,-0.00013496,569.36,-0.00021076,-0.11701,0.0062237
28759,1.2025,0.54545,0.1,0.00055857,5581.9,0.00056435,5773.2,-0.00015001,405.76,-0.00020413,-0.88545,0.0071118
28760,1.11,0.81818,0.1,0.00055025,5498.7,0.00055953,5858.3,-0.00011257,808.42,-0.00022013,0.2362,0.0065582
28761,1.2025,0.72727,0.1,0.00055208,5516.9,0.00056011,5806.5,-0.00012822,634.65,-0.00021276,-0.49437,0.007522
28762,1.11,1,0.1,0.00054856,5481.8,0.00055878,5923.9,-9.2606e-05,1029.6,-0.00022958,0.46998,0.0068302
28763,1.2025,0.90909,0.1,0.00054868,5483,0.00055819,5860.3,-0.00010792,855.4,-0.00022179,-0.21948,0.0078602
28764,1.11,1.1818,0.1,0.00054983,5494.5,0.00056034,6004.5,-7.5563e-05,1226.6,-0.00023873,0.60826,0.0070505
28765,1.2025,1.0909,0.1,0.00054826,5478.8,0.00055854,5931,-8.9868e-05,1059.2,-0.00023084,-0.070118,0.0081375
28766,1.11,1.3636,0.1,0.00055332,5529.4,0.0005637,6094.6,-6.1412e-05,1397.8,-0.00024735,0.70052,0.0072282
28767,1.2025,1.2727,0.1,0.00055034,5499.6,0.00056084,6014.3,-7.4355e-05,1241.7,-0.00023961,0.029348,0.0083639
28768,1.11,1.5455,0.1,0.00055825,5578.6,0.00056827,6188.6,-4.9855e-05,1544.3,-0.00025529,0.76475,0.0073708
28769,1.2025,1.4545,0.1,0.00055425,5538.7,0.00056462,6105,-6.1309e-05,1402,-0.00024789,0.096019,0.0085476
28770,1.11,1.7273,0.1,0.0005639,5635.2,0.00057347,6281.5,-4.0512e-05,1668.3,-0.00026245,0.81298,0.0074842
28771,1.2025,1.6364,0.1,0.00055931,5589.2,0.00056935,6198.1,-5.0494e-05,1540.8,-0.00025555,0.14535,0.0086956
28772,1.11,1.9091,0.1,0.00056972,5693.3,0.00057881,6369.2,-3.3023e-05,1772.1,-0.00026876,0.85062,0.0075736
28773,1.2025,1.8182,0.1,0.00056491,5645.2,0.00057453,6289,-4.163e-05,1659.4,-0.00026246,0.18386,0.0088138
28774,1.11,2.0909,0.1,0.00057526,5748.6,0.00058391,6448.4,-2.7094e-05,1857.5,-0.0002742,0.88028,0.0076428
28775,1.2025,2,0.1,0.00057055,5701.5,0.00057974,6373.9,-3.4461e-05,1759.1,-0.00026855,0.21475,0.0089068
28776,1.11,2.2727,0.1,0.00058019,5797.9,0.00058846,6516.4,-2.2499e-05,1925.9,-0.0002787,0.90306,0.0076953
28777,1.2025,2.1818,0.1,0.00057582,5754.2,0.0005846,6449.6,-2.8777e-05,1840.9,-0.00027375,0.23909,0.0089787
28778,1.11,2.4545,0.1,0.00058426,5838.5,0.00059223,6571.3,-1.9077e-05,1978.2,-0.00028224,0.91968,0.0077336
28779,1.2025,2.3636,0.1,0.0005804,5800,0.00058884,6513.3,-2.4417e-05,1905.5,-0.00027798,0.25733,0.0090326
28780,1.11,2.6364,0.1,0.00058729,5868.8,0.00059504,6611.6,-1.6711e-05,2015.1,-0.00028479,0.93079,0.0077595
28781,1.2025,2.5455,0.1,0.00058406,5836.5,0.00059223,6562.9,-2.1256e-05,1953.4,-0.00028121,0.26996,0.0090709
28782,1.11,2.8182,0.1,0.00058915,5887.5,0.00059678,6636.2,-1.5322e-05,2037.1,-0.00028632,0.93709,0.0077746
28783,1.2025,2.7273,0.1,0.0005866,5861.9,0.00059458,6596.9,-1.9202e-05,1985.2,-0.00028338,0.27769,0.0090955
28784,1.11,3,0.1,0.00058978,5893.8,0.00059736,6644.5,-1.4865e-05,2044.4,-0.00028684,0.93912,0.0077795
28785,1.2025,2.9091,0.1,0.00058789,5874.9,0.00059579,6614.2,-1.8192e-05,2001,-0.00028447,0.28131,0.0091075
28786,1.11,3.1818,0.1,0.00058915,5887.5,0.00059678,6636.2,-1.5322e-05,2037.1,-0.00028632,0.93709,0.0077746
28787,1.2025,3.0909,0.1,0.00058789,5874.9,0.00059579,6614.2,-1.8192e-05,2001,-0.00028447,0.28131,0.0091075
28788,1.11,3.3636,0.1,0.00058729,5868.8,0.00059504,6611.6,-1.6711e-05,2015.1,-0.00028479,0.93079,0.0077595
28789,1.2025,3.2727,0.1,0.0005866,5861.9,0.00059458,6596.9,-1.9202e-05,1985.2,-0.00028338,0.27769,0.0090955
28790,1.11,3.5455,0.1,0.00058426,5838.5,0.00059223,6571.3,-1.9077e-05,1978.2,-0.00028224,0.91968,0.0077336
28791,1.2025,3.4545,0.1,0.00058406,5836.5,0.00059223,6562.9,-2.1256e-05,1953.4,-0.00028121,0.26996,0.0090709
28792,1.11,3.7273,0.1,0.00058019,5797.9,0.00058846,6516.4,-2.2499e-05,1925.9,-0.0002787,0.90306,0.0076953
28793,1.2025,3.6364,0.1,0.0005804,5800,0.00058884,6513.3,-2.4417e-05,1905.5,-0.00027798,0.25733,0.0090326
28794,1.11,3.9091,0.1,0.00057526,5748.6,0.00058391,6448.4,-2.7094e-05,1857.5,-0.0002742,0.88028,0.0076428
28795,1.2025,3.8182,0.1,0.00057582,5754.2,0.0005846,6449.6,-2.8777e-05,1840.9,-0.00027375,0.23909,0.0089787
28796,1.11,4.0909,0.1,0.00056972,5693.3,0.00057881,6369.2,-3.3023e-05,1772.1,-0.00026876,0.85062,0.0075736
28797,1.2025,4,0.1,0.00057055,5701.5,0.00057974,6373.9,-3.4461e-05,1759.1,-0.00026855,0.21475,0.0089068
28798,1.11,4.2727,0.1,0.0005639,5635.2,0.00057347,6281.5,-4.0512e-05,1668.3,-0.00026245,0.81298,0.0074842
28799,1.2025,4.1818,0.1,0.00056491,5645.2,0.00057453,6289,-4.163e-05,1659.4,-0.00026246,0.18387,0.0088138
28800,1.11,4.4545,0.1,0.00055825,5578.6,0.00056827,6188.6,-4.9855e-05,1544.3,-0.00025529,0.76475,0.0073708
28801,1.2025,4.3636,0.1,0.00055931,5589.2,0.00056935,6198.1,-5.0494e-05,1540.8,-0.00025555,0.14535,0.0086956
28802,1.11,4.6364,0.1,0.00055332,5529.4,0.0005637,6094.6,-6.1412e-05,1397.8,-0.00024735,0.70052,0.0072282
28803,1.2025,4.5455,0.1,0.00055425,5538.7,0.00056462,6105,-6.1309e-05,1402,-0.00024789,0.096019,0.0085476
28804,1.11,4.8182,0.1,0.00054983,5494.5,0.00056034,6004.5,-7.5563e-05,1226.6,-0.00023873,0.60826,0.0070505
28805,1.2025,4.7273,0.1,0.00055034,5499.6,0.00056084,6014.3,-7.4355e-05,1241.7,-0.00023961,0.029348,0.0083639
28806,1.11,5,0.1,0.00054856,5481.8,0.00055878,5923.9,-9.2606e-05,1029.6,-0.00022958,0.46998,0.0068302
28807,1.2025,4.9091,0.1,0.00054826,5478.8,0.00055854,5931,-8.9868e-05,1059.2,-0.00023084,-0.070118,0.0081375
28808,1.11,5.1818,0.1,0.00055025,5498.7,0.00055953,5858.3,-0.00011257,808.42,-0.00022013,0.2362,0.0065582
28809,1.2025,5.0909,0.1,0.00054868,5483,0.00055819,5860.3,-0.00010792,855.4,-0.00022179,-0.21948,0.0078602
28810,1.11,5.3636,0.1,0.00055536,5549.8,0.00056285,5812.5,-0.00013496,569.36,-0.00021076,-0.11701,0.0062237
28811,1.2025,5.2727,0.1,0.00055208,5516.9,0.00056011,5806.5,-0.00012822,634.65,-0.00021276,-0.49437,0.007522
28812,1.11,5.5455,0.1,0.00056395,5635.6,0.00056874,5790,-0.00015874,324.03,-0.00020202,-1.1299,0.0058143
28813,1.2025,5.4545,0.1,0.00055857,5581.9,0.00056435,5773.2,-0.00015001,405.76,-0.00020413,-0.88545,0.0071118
28814,1.11,5.7273,0.1,0.00057703,5766.4,0.00057827,5803.6,-0.00018322,82.114,-0.00019502,-6.5909,0.0053161
28815,1.2025,5.6364,0.1,0.00056797,5675.8,0.00057078,5762.8,-0.0001721,181.06,-0.00019655,-2.6881,0.0066168
28816,1.2025,5.8182,0.1,0.00058249,5820.9,0.00058163,5796.3,-0.0001885,9.8174,-0.00019758,-58.427,0.0060239
28817,1.11,5.9091,0.1,0.00057872,5783.2,0.00057786,5758.2,-0.00018862,-0.84341,-0.00019502,-48.91,0.004715
28818,1.295,0.27273,0.1,0.00057327,5728.8,0.00057416,5755.5,-0.00018365,61.653,-0.00019285,-7.5135,0.0074449
28819,1.3875,0.18182,0.1,0.00057496,5745.6,0.00057407,5720.1,-0.0001862,7.7662,-0.00019497,-58.187,0.0082977
28820,1.295,0.090909,0.1,0.00057389,5735,0.00057311,5712.3,-0.00018728,-1.0584,-0.00019301,-44.112,0.0067541
28821,1.295,0.45455,0.1,0.00056245,5620.6,0.00056641,5746.1,-0.00016345,262.17,-0.00019861,-1.9639,0.0080302
28822,1.3875,0.36364,0.1,0.0005632,5628.2,0.00056541,5695.8,-0.00017388,141.04,-0.00019305,-3.0334,0.0089768
28823,1.295,0.63636,0.1,0.00055512,5547.3,0.0005616,5767.2,-0.00014327,471.04,-0.00020612,-1.1668,0.0085223
28824,1.3875,0.54545,0.1,0.00055569,5553.1,0.00056054,5709.9,-0.00015552,329.73,-0.00019958,-1.3125,0.0095553
28825,1.295,0.81818,0.1,0.00055034,5499.6,0.00055873,5808.2,-0.00012354,681.91,-0.00021441,-0.91296,0.0089332
28826,1.3875,0.72727,0.1,0.00055036,5499.8,0.00055741,5744.1,-0.00013684,527.79,-0.00020721,-0.95157,0.010045
28827,1.295,1,0.1,0.00054824,5478.6,0.00055789,5867,-0.00010512,885.41,-0.00022306,-0.74148,0.0092745
28828,1.3875,0.90909,0.1,0.00054741,5470.3,0.00055611,5796.7,-0.00011874,726.09,-0.00021547,-0.70519,0.010456
28829,1.295,1.1818,0.1,0.00054867,5482.9,0.00055897,5940.3,-8.8591e-05,1074.8,-0.00023172,-0.63926,0.0095563
28830,1.3875,1.0909,0.1,0.00054689,5465.1,0.00055667,5865.2,-0.00010193,916.77,-0.00022402,-0.56679,0.0108
28831,1.295,1.3636,0.1,0.0005512,5508.2,0.0005617,6024.2,-7.4189e-05,1246.4,-0.00024015,-0.56955,0.0097878
28832,1.3875,1.2727,0.1,0.00054858,5482,0.00055892,5946.4,-8.6804e-05,1094.7,-0.00023257,-0.4714,0.011086
28833,1.295,1.5455,0.1,0.00055527,5548.8,0.00056565,6114.1,-6.1895e-05,1398.9,-0.00024815,-0.51999,0.0099765
28834,1.3875,1.4545,0.1,0.00055203,5516.5,0.00056254,6036.2,-7.3524e-05,1257.1,-0.00024089,-0.40499,0.011321
28835,1.295,1.7273,0.1,0.00056029,5599,0.00057037,6205.3,-5.157e-05,1532.2,-0.00025556,-0.48156,0.010129
28836,1.3875,1.6364,0.1,0.00055672,5563.4,0.00056714,6130.1,-6.2079e-05,1402.5,-0.00024878,-0.35439,0.011514
28837,1.295,1.9091,0.1,0.00056572,5653.3,0.00057542,6293.5,-4.3034e-05,1646.7,-0.00026225,-0.45046,0.010251
28838,1.3875,1.8182,0.1,0.00056212,5617.3,0.00057228,6223.7,-5.2386e-05,1530.2,-0.00025609,-0.31397,0.011671
28839,1.295,2.0909,0.1,0.0005711,5707,0.0005804,6374.9,-3.6115e-05,1742.7,-0.00026811,-0.42524,0.010347
28840,1.3875,2,0.1,0.00056774,5673.5,0.00057755,6312.6,-4.4343e-05,1639.9,-0.00026264,-0.28124,0.011795
28841,1.295,2.2727,0.1,0.00057603,5756.3,0.00058495,6446.2,-3.0667e-05,1820.7,-0.00027303,-0.40565,0.01042
28842,1.3875,2.1818,0.1,0.00057314,5727.4,0.00058259,6393.2,-3.7848e-05,1731.4,-0.00026832,-0.25565,0.011893
28843,1.295,2.4545,0.1,0.0005802,5798,0.00058881,6504.6,-2.6566e-05,1880.9,-0.00027695,-0.39152,0.010475
28844,1.3875,2.3636,0.1,0.00057793,5775.4,0.00058706,6462,-3.2808e-05,1804.5,-0.00027301,-0.23709,0.011967
28845,1.295,2.6364,0.1,0.00058336,5829.6,0.00059174,6548,-2.3716e-05,1923.7,-0.0002798,-0.38236,0.010512
28846,1.3875,2.5455,0.1,0.00058183,5814.2,0.00059069,6516.3,-2.9132e-05,1859.2,-0.0002766,-0.22501,0.01202
28847,1.295,2.8182,0.1,0.00058533,5849.2,0.00059356,6574.7,-2.2038e-05,1949.3,-0.00028152,-0.37737,0.010533
28848,1.3875,2.7273,0.1,0.00058456,5841.6,0.00059324,6553.8,-2.6737e-05,1895.5,-0.00027904,-0.2182,0.012055
28849,1.295,3,0.1,0.000586,5855.9,0.00059418,6583.7,-2.1485e-05,1957.8,-0.0002821,-0.3758,0.01054
28850,1.3875,2.9091,0.1,0.00058597,5855.7,0.00059456,6572.9,-2.5558e-05,1913.6,-0.00028027,-0.21526,0.012071
28851,1.295,3.1818,0.1,0.00058533,5849.2,0.00059356,6574.7,-2.2038e-05,1949.3,-0.00028152,-0.37737,0.010533
28852,1.3875,3.0909,0.1,0.00058597,5855.7,0.00059456,6572.9,-2.5558e-05,1913.6,-0.00028027,-0.21526,0.012071
28853,1.295,3.3636,0.1,0.00058336,5829.6,0.00059174,6548,-2.3716e-05,1923.7,-0.0002798,-0.38236,0.010512
28854,1.3875,3.2727,0.1,0.00058456,5841.6,0.00059324,6553.8,-2.6737e-05,1895.5,-0.00027904,-0.2182,0.012055
28855,1.295,3.5455,0.1,0.0005802,5798,0.00058881,6504.6,-2.6566e-05,1880.9,-0.00027695,-0.39152,0.010475
28856,1.3875,3.4545,0.1,0.00058183,5814.2,0.00059069,6516.3,-2.9131e-05,1859.2,-0.0002766,-0.22501,0.01202
28857,1.295,3.7273,0.1,0.00057603,5756.3,0.00058495,6446.2,-3.0666e-05,1820.7,-0.00027303,-0.40565,0.01042
28858,1.3875,3.6364,0.1,0.00057793,5775.4,0.00058706,6462,-3.2808e-05,1804.5,-0.00027301,-0.23709,0.011967
28859,1.295,3.9091,0.1,0.0005711,5707,0.0005804,6374.9,-3.6115e-05,1742.7,-0.00026811,-0.42524,0.010347
28860,1.3875,3.8182,0.1,0.00057314,5727.4,0.00058259,6393.2,-3.7848e-05,1731.4,-0.00026832,-0.25565,0.011893
28861,1.295,4.0909,0.1,0.00056572,5653.3,0.00057542,6293.5,-4.3034e-05,1646.7,-0.00026225,-0.45046,0.010251
28862,1.3875,4,0.1,0.00056774,5673.5,0.00057755,6312.6,-4.4343e-05,1639.9,-0.00026264,-0.28124,0.011795
28863,1.295,4.2727,0.1,0.00056029,5599,0.00057037,6205.3,-5.157e-05,1532.2,-0.00025556,-0.48156,0.010129
28864,1.3875,4.1818,0.1,0.00056212,5617.3,0.00057227,6223.7,-5.2386e-05,1530.2,-0.00025609,-0.31397,0.011671
28865,1.295,4.4545,0.1,0.00055527,5548.8,0.00056565,6114.1,-6.1895e-05,1398.9,-0.00024815,-0.51999,0.0099765
28866,1.3875,4.3636,0.1,0.00055672,5563.4,0.00056714,6130.1,-6.2079e-05,1402.5,-0.00024878,-0.35439,0.011514
28867,1.295,4.6364,0.1,0.0005512,5508.2,0.0005617,6024.2,-7.4189e-05,1246.4,-0.00024015,-0.56955,0.0097878
28868,1.3875,4.5455,0.1,0.00055203,5516.5,0.00056254,6036.2,-7.3524e-05,1257.1,-0.00024089,-0.40499,0.011321
28869,1.295,4.8182,0.1,0.00054867,5482.9,0.00055897,5940.3,-8.8591e-05,1074.8,-0.00023172,-0.63926,0.0095563
28870,1.3875,4.7273,0.1,0.00054858,5482,0.00055892,5946.4,-8.6804e-05,1094.7,-0.00023257,-0.4714,0.011086
28871,1.295,5,0.1,0.00054824,5478.6,0.00055789,5867,-0.00010512,885.41,-0.00022306,-0.74148,0.0092745
28872,1.3875,4.9091,0.1,0.00054689,5465.1,0.00055667,5865.2,-0.00010193,916.77,-0.00022402,-0.56679,0.0108
28873,1.295,5.1818,0.1,0.00055034,5499.6,0.00055873,5808.2,-0.00012354,681.91,-0.00021441,-0.91296,0.0089332
28874,1.3875,5.0909,0.1,0.00054741,5470.3,0.00055611,5796.7,-0.00011874,726.09,-0.00021547,-0.70519,0.010456
28875,1.295,5.3636,0.1,0.00055512,5547.3,0.0005616,5767.2,-0.00014327,471.04,-0.00020612,-1.1668,0.0085223
28876,1.3875,5.2727,0.1,0.00055036,5499.8,0.00055741,5744.1,-0.00013684,527.79,-0.00020721,-0.95157,0.010045
28877,1.295,5.5455,0.1,0.00056245,5620.6,0.00056641,5746.1,-0.00016345,262.17,-0.00019861,-1.9639,0.0080302
28878,1.3875,5.4545,0.1,0.00055569,5553.1,0.00056054,5709.9,-0.00015552,329.73,-0.00019958,-1.3125,0.0095553
28879,1.295,5.7273,0.1,0.00057327,5728.8,0.00057416,5755.5,-0.00018365,61.653,-0.00019285,-7.5135,0.0074449
28880,1.3875,5.6364,0.1,0.0005632,5628.2,0.00056541,5695.8,-0.00017388,141.04,-0.00019305,-3.0334,0.0089768
28881,1.3875,5.8182,0.1,0.00057496,5745.6,0.00057407,5720.1,-0.0001862,7.7663,-0.00019497,-58.187,0.0082977
28882,1.295,5.9091,0.1,0.00057389,5735,0.00057311,5712.3,-0.00018728,-1.0584,-0.00019301,-44.111,0.0067541
28883,1.48,0.27273,0.1,0.00056478,5643.9,0.00056533,5660.4,-0.00018239,42.321,-0.00018921,-8.8954,0.0099497
28884,1.5725,0.18182,0.1,0.00056301,5626.2,0.00056202,5597.9,-0.00018221,6.0065,-0.00019125,-61.931,0.010948
28885,1.48,0.090909,0.1,0.0005641,5637.1,0.00056335,5615.2,-0.00018411,-0.96237,-0.00018967,-42.713,0.0091747
28886,1.48,0.45455,0.1,0.00055634,5559.5,0.00055955,5659.6,-0.00016602,208.01,-0.00019395,-1.8627,0.010618
28887,1.5725,0.36364,0.1,0.00055393,5535.5,0.00055556,5585,-0.00017391,104.01,-0.0001882,-3.3531,0.011709
28888,1.48,0.63636,0.1,0.00055081,5504.3,0.00055634,5686.8,-0.00014909,386.41,-0.00020065,-1.0033,0.011191
28889,1.5725,0.54545,0.1,0.00054862,5482.4,0.00055258,5608.1,-0.00015889,262.45,-0.000194,-1.395,0.012368
28890,1.48,0.81818,0.1,0.0005473,5469.3,0.00055477,5732.4,-0.00013203,572.09,-0.00020826,-0.70972,0.011678
28891,1.5725,0.72727,0.1,0.00054513,5447.5,0.00055118,5650.8,-0.00014317,433.73,-0.00020103,-0.96744,0.012936
28892,1.48,1,0.1,0.00054594,5455.7,0.00055486,5794.6,-0.00011551,757.71,-0.00021643,-0.51445,0.01209
28893,1.5725,0.90909,0.1,0.00054358,5432.1,0.00055137,5711.3,-0.00012745,610.84,-0.00020884,-0.69796,0.013421
28894,1.48,1.1818,0.1,0.00054671,5463.3,0.00055657,5871,-0.00010009,937.06,-0.00022486,-0.39029,0.012436
28895,1.5725,1.0909,0.1,0.00054408,5437,0.00055316,5787.4,-0.00011231,787.31,-0.00021717,-0.53899,0.013834
28896,1.48,1.3636,0.1,0.00054934,5489.6,0.00055971,5958.1,-8.609e-05,1105.8,-0.0002333,-0.3017,0.012725
28897,1.5725,1.2727,0.1,0.00054647,5460.9,0.00055641,5876.3,-9.8158e-05,958.13,-0.00022573,-0.42634,0.014182
28898,1.48,1.5455,0.1,0.00055343,5530.5,0.00056398,6052,-7.3661e-05,1261,-0.00024152,-0.23603,0.012965
28899,1.5725,1.4545,0.1,0.00055045,5500.7,0.00056087,5974.2,-8.5236e-05,1119.6,-0.00023429,-0.3443,0.014474
28900,1.48,1.7273,0.1,0.00055853,5581.4,0.000569,6148.2,-6.2853e-05,1400.8,-0.00024931,-0.18436,0.013161
28901,1.5725,1.6364,0.1,0.00055562,5552.4,0.00056621,6076.8,-7.3691e-05,1268.9,-0.0002426,-0.27991,0.014717
28902,1.48,1.9091,0.1,0.00056412,5637.3,0.00057437,6242.5,-5.3657e-05,1523.8,-0.00025648,-0.14283,0.01332
28903,1.5725,1.8182,0.1,0.00056152,5611.3,0.00057205,6179.7,-6.3604e-05,1403.6,-0.00025045,-0.22759,0.014916
28904,1.48,2.0909,0.1,0.00056977,5693.7,0.00057971,6330.6,-4.6039e-05,1629,-0.00026286,-0.11003,0.013447
28905,1.5725,2,0.1,0.00056768,5672.8,0.00057802,6278.4,-5.5027e-05,1521.9,-0.00025761,-0.18532,0.015077
28906,1.48,2.2727,0.1,0.00057503,5746.3,0.00058466,6408.7,-3.995e-05,1715.6,-0.00026829,-0.085693,0.013545
28907,1.5725,2.1818,0.1,0.00057365,5732.5,0.00058374,6368.6,-4.7987e-05,1622.1,-0.00026389,-0.15322,0.015205
28908,1.48,2.4545,0.1,0.00057955,5791.5,0.0005889,6473.3,-3.533e-05,1783.1,-0.00027266,-0.069366,0.013618
28909,1.5725,2.3636,0.1,0.00057901,5786.2,0.00058886,6446.4,-4.2473e-05,1702.8,-0.00026912,-0.13144,0.015302
28910,1.48,2.6364,0.1,0.00058301,5826.1,0.00059215,6521.7,-3.2106e-05,1831.3,-0.00027585,-0.059793,0.013669
28911,1.5725,2.5455,0.1,0.00058341,5830.1,0.00059303,6508.2,-3.844e-05,1763.5,-0.00027317,-0.11876,0.015373
28912,1.48,2.8182,0.1,0.00058519,5847.9,0.00059419,6551.7,-3.0207e-05,1860.2,-0.00027779,-0.055147,0.013699
28913,1.5725,2.7273,0.1,0.00058653,5861.3,0.000596,6551.1,-3.5815e-05,1803.9,-0.00027592,-0.11278,0.01542
28914,1.48,3,0.1,0.00058594,5855.3,0.00059489,6561.8,-2.9581e-05,1869.8,-0.00027844,-0.053812,0.013708
28915,1.5725,2.9091,0.1,0.00058815,5877.4,0.00059753,6573.1,-3.4526e-05,1824.1,-0.00027731,-0.11071,0.015442
28916,1.48,3.1818,0.1,0.00058519,5847.9,0.00059419,6551.7,-3.0207e-05,1860.2,-0.00027779,-0.055147,0.013699
28917,1.5725,3.0909,0.1,0.00058815,5877.4,0.00059753,6573.1,-3.4526e-05,1824.1,-0.00027731,-0.11071,0.015442
28918,1.48,3.3636,0.1,0.00058301,5826.1,0.00059215,6521.7,-3.2106e-05,1831.3,-0.00027585,-0.059792,0.013669
28919,1.5725,3.2727,0.1,0.00058653,5861.3,0.000596,6551.1,-3.5815e-05,1803.9,-0.00027592,-0.11278,0.01542
28920,1.48,3.5455,0.1,0.00057955,5791.5,0.0005889,6473.3,-3.533e-05,1783.1,-0.00027266,-0.069366,0.013618
28921,1.5725,3.4545,0.1,0.00058341,5830.1,0.00059303,6508.2,-3.844e-05,1763.5,-0.00027317,-0.11876,0.015373
28922,1.48,3.7273,0.1,0.00057503,5746.3,0.00058466,6408.7,-3.995e-05,1715.6,-0.00026829,-0.085693,0.013545
28923,1.5725,3.6364,0.1,0.00057901,5786.2,0.00058886,6446.4,-4.2473e-05,1702.8,-0.00026912,-0.13143,0.015302
28924,1.48,3.9091,0.1,0.00056976,5693.7,0.00057971,6330.6,-4.6039e-05,1629,-0.00026286,-0.11003,0.013447
28925,1.5725,3.8182,0.1,0.00057365,5732.5,0.00058374,6368.6,-4.7987e-05,1622.1,-0.00026389,-0.15322,0.015205
28926,1.48,4.0909,0.1,0.00056412,5637.3,0.00057437,6242.5,-5.3657e-05,1523.8,-0.00025648,-0.14282,0.01332
28927,1.5725,4,0.1,0.00056768,5672.8,0.00057802,6278.4,-5.5027e-05,1521.9,-0.00025761,-0.18531,0.015077
28928,1.48,4.2727,0.1,0.00055853,5581.4,0.000569,6148.2,-6.2853e-05,1400.8,-0.00024931,-0.18436,0.013161
28929,1.5725,4.1818,0.1,0.00056152,5611.3,0.00057205,6179.7,-6.3604e-05,1403.6,-0.00025045,-0.22759,0.014916
28930,1.48,4.4545,0.1,0.00055343,5530.5,0.00056398,6052,-7.3661e-05,1261,-0.00024152,-0.23603,0.012965
28931,1.5725,4.3636,0.1,0.00055562,5552.4,0.00056621,6076.8,-7.369e-05,1268.9,-0.0002426,-0.27991,0.014717
28932,1.48,4.6364,0.1,0.00054934,5489.6,0.00055971,5958.1,-8.609e-05,1105.8,-0.0002333,-0.3017,0.012725
28933,1.5725,4.5455,0.1,0.00055045,5500.7,0.00056087,5974.2,-8.5236e-05,1119.6,-0.00023429,-0.3443,0.014474
28934,1.48,4.8182,0.1,0.00054671,5463.3,0.00055657,5871,-0.00010009,937.06,-0.00022486,-0.39029,0.012436
28935,1.5725,4.7273,0.1,0.00054647,5460.9,0.00055641,5876.3,-9.8158e-05,958.14,-0.00022573,-0.42633,0.014182
28936,1.48,5,0.1,0.00054594,5455.7,0.00055486,5794.6,-0.00011551,757.71,-0.00021643,-0.51444,0.01209
28937,1.5725,4.9091,0.1,0.00054408,5437,0.00055316,5787.4,-0.00011231,787.31,-0.00021717,-0.53899,0.013834
28938,1.48,5.1818,0.1,0.0005473,5469.3,0.00055477,5732.4,-0.00013203,572.09,-0.00020826,-0.70972,0.011678
28939,1.5725,5.0909,0.1,0.00054358,5432.1,0.00055137,5711.3,-0.00012745,610.84,-0.00020884,-0.69796,0.013421
28940,1.48,5.3636,0.1,0.00055081,5504.3,0.00055634,5686.8,-0.00014909,386.41,-0.00020065,-1.0033,0.011191
28941,1.5725,5.2727,0.1,0.00054513,5447.5,0.00055118,5650.8,-0.00014317,433.73,-0.00020103,-0.96744,0.012936
28942,1.48,5.5455,0.1,0.00055634,5559.5,0.00055955,5659.6,-0.00016602,208.01,-0.00019395,-1.8627,0.010618
28943,1.5725,5.4545,0.1,0.00054862,5482.4,0.00055258,5608.1,-0.00015889,262.45,-0.000194,-1.395,0.012368
28944,1.48,5.7273,0.1,0.00056478,5643.9,0.00056533,5660.4,-0.00018239,42.321,-0.00018921,-8.8953,0.0099497
28945,1.5725,5.6364,0.1,0.00055393,5535.4,0.00055556,5585,-0.00017391,104.01,-0.0001882,-3.3531,0.011709
28946,1.5725,5.8182,0.1,0.00056301,5626.2,0.00056202,5597.9,-0.00018221,6.0065,-0.00019125,-61.931,0.010948
28947,1.48,5.9091,0.1,0.0005641,5637.1,0.00056335,5615.2,-0.00018411,-0.96236,-0.00018967,-42.713,0.0091747
28948,1.665,0.27273,0.1,0.00055207,5516.9,0.00055225,5522.5,-0.00017948,24.52,-0.0001845,-13.189,0.012826
28949,1.7575,0.18182,0.1,0.00054688,5465,0.00054574,5432.2,-0.00017664,4.5235,-0.00018649,-69.484,0.013968
28950,1.665,0.090909,0.1,0.00054983,5494.5,0.00054905,5471.8,-0.00017932,-0.91438,-0.00018509,-44.262,0.011971
28951,1.665,0.45455,0.1,0.00054613,5457.5,0.0005486,5533.5,-0.00016687,157.79,-0.00018817,-2.2314,0.013575
28952,1.7575,0.36364,0.1,0.00054044,5400.7,0.00054149,5432.4,-0.00017237,68.668,-0.00018211,-4.4691,0.014808
28953,1.665,0.63636,0.1,0.00054284,5424.7,0.00054742,5572.2,-0.00015298,309.67,-0.00019436,-1.2592,0.014226
28954,1.7575,0.54545,0.1,0.00053761,5372.4,0.0005407,5468.8,-0.00016049,200.27,-0.00018738,-1.775,0.015546
28955,1.665,0.81818,0.1,0.00054132,5409.5,0.00054778,5629.7,-0.0001386,472.49,-0.0002016,-0.92326,0.01479
28956,1.7575,0.72727,0.1,0.00053651,5361.4,0.00054155,5526,-0.00014768,347.41,-0.00019408,-1.2134,0.016191
28957,1.665,1,0.1,0.00054164,5412.6,0.00054966,5704,-0.00012424,640.54,-0.00020958,-0.70851,0.015274
28958,1.7575,0.90909,0.1,0.00053719,5368.2,0.00054397,5602.1,-0.0001345,504.3,-0.00020174,-0.89716,0.016752
28959,1.665,1.1818,0.1,0.00054377,5433.9,0.00055297,5792.6,-0.00011036,808.55,-0.00021804,-0.56785,0.015687
28960,1.7575,1.0909,0.1,0.00053968,5393,0.00054789,5694.6,-0.0001214,665.88,-0.00021011,-0.7076,0.017236
28961,1.665,1.3636,0.1,0.00054753,5471.5,0.00055753,5892.2,-9.7276e-05,972.17,-0.00022673,-0.46458,0.016038
28962,1.7575,1.2727,0.1,0.00054382,5434.5,0.00055314,5800.5,-0.00010869,827.83,-0.00021894,-0.5726,0.017651
28963,1.665,1.5455,0.1,0.0005526,5522.2,0.00056306,5998.8,-8.5233e-05,1127.7,-0.00023538,-0.38504,0.016333
28964,1.7575,1.4545,0.1,0.00054937,5489.9,0.00055944,5915.9,-9.6646e-05,986.3,-0.00022798,-0.47147,0.018004
28965,1.665,1.7273,0.1,0.00055859,5582,0.00056923,6108.1,-7.4406e-05,1272,-0.00024374,-0.3205,0.016578
28966,1.7575,1.6364,0.1,0.00055595,5555.7,0.00056648,6036.2,-8.5482e-05,1137.6,-0.00023694,-0.38987,0.018301
28967,1.665,1.9091,0.1,0.00056505,5646.6,0.00057567,6215.4,-6.4936e-05,1402.1,-0.00025158,-0.26769,0.016779
28968,1.7575,1.8182,0.1,0.00056317,5627.8,0.0005739,6156.7,-7.5416e-05,1277.9,-0.00024554,-0.32192,0.018548
28969,1.665,2.0909,0.1,0.00057154,5711.5,0.00058202,6316.2,-5.6933e-05,1515.3,-0.00025864,-0.22631,0.016941
28970,1.7575,2,0.1,0.00057057,5701.8,0.00058133,6272.4,-6.6654e-05,1403.7,-0.00025351,-0.26675,0.018751
28971,1.665,2.2727,0.1,0.00057761,5772.2,0.00058789,6406,-5.046e-05,1609.7,-0.00026472,-0.197,0.017069
28972,1.7575,2.1818,0.1,0.00057772,5773.2,0.00058838,6378.5,-5.936e-05,1511.7,-0.00026058,-0.22572,0.018914
28973,1.665,2.4545,0.1,0.00058286,5824.6,0.00059293,6480.8,-4.5525e-05,1683.7,-0.00026963,-0.17915,0.017165
28974,1.7575,2.3636,0.1,0.00058416,5837.6,0.00059468,6470.4,-5.3623e-05,1599.3,-0.0002665,-0.19974,0.01904
28975,1.665,2.6364,0.1,0.0005869,5865,0.00059682,6537.1,-4.2084e-05,1736.6,-0.00027324,-0.17036,0.017232
28976,1.7575,2.5455,0.1,0.00058945,5890.4,0.00059983,6543.7,-4.9442e-05,1665.3,-0.0002711,-0.18726,0.019132
28977,1.665,2.8182,0.1,0.00058946,5890.5,0.00059927,6572,-4.0063e-05,1768.4,-0.00027544,-0.16717,0.017271
28978,1.7575,2.7273,0.1,0.00059322,5928.1,0.00060349,6594.7,-4.6742e-05,1709.1,-0.00027423,-0.18365,0.019192
28979,1.665,3,0.1,0.00059033,5899.2,0.0006001,6583.9,-3.9398e-05,1778.9,-0.00027618,-0.16651,0.017284
28980,1.7575,2.9091,0.1,0.00059517,5947.6,0.0006054,6621,-4.5425e-05,1730.9,-0.00027582,-0.18356,0.019222
28981,1.665,3.1818,0.1,0.00058946,5890.5,0.00059927,6572,-4.0063e-05,1768.4,-0.00027544,-0.16716,0.017271
28982,1.7575,3.0909,0.1,0.00059517,5947.6,0.0006054,6621,-4.5425e-05,1730.9,-0.00027582,-0.18356,0.019222
28983,1.665,3.3636,0.1,0.0005869,5865,0.00059682,6537.1,-4.2084e-05,1736.6,-0.00027324,-0.17036,0.017232
28984,1.7575,3.2727,0.1,0.00059322,5928.1,0.00060349,6594.7,-4.6742e-05,1709.1,-0.00027423,-0.18365,0.019192
28985,1.665,3.5455,0.1,0.00058286,5824.6,0.00059293,6480.8,-4.5525e-05,1683.7,-0.00026963,-0.17915,0.017165
28986,1.7575,3.4545,0.1,0.00058945,5890.4,0.00059983,6543.7,-4.9442e-05,1665.3,-0.0002711,-0.18726,0.019132
28987,1.665,3.7273,0.1,0.00057761,5772.2,0.00058789,6406,-5.046e-05,1609.7,-0.00026472,-0.197,0.017069
28988,1.7575,3.6364,0.1,0.00058416,5837.6,0.00059468,6470.4,-5.3623e-05,1599.3,-0.0002665,-0.19974,0.01904
28989,1.665,3.9091,0.1,0.00057154,5711.5,0.00058202,6316.1,-5.6933e-05,1515.3,-0.00025864,-0.22631,0.016941
28990,1.7575,3.8182,0.1,0.00057772,5773.2,0.00058838,6378.5,-5.936e-05,1511.7,-0.00026058,-0.22572,0.018914
28991,1.665,4.0909,0.1,0.00056505,5646.6,0.00057567,6215.4,-6.4936e-05,1402.1,-0.00025158,-0.26769,0.016779
28992,1.7575,4,0.1,0.00057057,5701.8,0.00058133,6272.4,-6.6654e-05,1403.7,-0.00025351,-0.26675,0.018751
28993,1.665,4.2727,0.1,0.00055859,5582,0.00056923,6108.1,-7.4406e-05,1272,-0.00024374,-0.3205,0.016578
28994,1.7575,4.1818,0.1,0.00056317,5627.8,0.0005739,6156.7,-7.5416e-05,1277.9,-0.00024554,-0.32192,0.018548
28995,1.665,4.4545,0.1,0.0005526,5522.2,0.00056306,5998.8,-8.5233e-05,1127.7,-0.00023538,-0.38504,0.016333
28996,1.7575,4.3636,0.1,0.00055595,5555.7,0.00056648,6036.2,-8.5482e-05,1137.6,-0.00023694,-0.38987,0.018301
28997,1.665,4.6364,0.1,0.00054753,5471.5,0.00055753,5892.2,-9.7276e-05,972.17,-0.00022673,-0.46458,0.016038
28998,1.7575,4.5455,0.1,0.00054937,5489.9,0.00055944,5915.9,-9.6645e-05,986.3,-0.00022798,-0.47147,0.018004
28999,1.665,4.8182,0.1,0.00054377,5433.9,0.00055297,5792.6,-0.00011036,808.55,-0.00021804,-0.56785,0.015687
29000,1.7575,4.7273,0.1,0.00054382,5434.5,0.00055314,5800.5,-0.00010869,827.83,-0.00021894,-0.5726,0.017651
29001,1.665,5,0.1,0.00054164,5412.6,0.00054966,5704,-0.00012424,640.54,-0.00020958,-0.70851,0.015274
29002,1.7575,4.9091,0.1,0.00053968,5393,0.00054789,5694.6,-0.0001214,665.88,-0.00021011,-0.7076,0.017236
29003,1.665,5.1818,0.1,0.00054132,5409.5,0.00054778,5629.7,-0.0001386,472.49,-0.0002016,-0.92326,0.01479
29004,1.7575,5.0909,0.1,0.00053719,5368.2,0.00054397,5602.1,-0.0001345,504.3,-0.00020174,-0.89716,0.016752
29005,1.665,5.3636,0.1,0.00054284,5424.7,0.00054742,5572.2,-0.00015298,309.67,-0.00019436,-1.2592,0.014226
29006,1.7575,5.2727,0.1,0.00053651,5361.4,0.00054155,5526,-0.00014768,347.41,-0.00019408,-1.2134,0.016191
29007,1.665,5.5455,0.1,0.00054613,5457.5,0.0005486,5533.5,-0.00016687,157.79,-0.00018817,-2.2314,0.013575
29008,1.7575,5.4545,0.1,0.00053761,5372.4,0.0005407,5468.8,-0.00016049,200.27,-0.00018738,-1.775,0.015546
29009,1.665,5.7273,0.1,0.00055207,5516.9,0.00055225,5522.4,-0.00017948,24.52,-0.0001845,-13.189,0.012826
29010,1.7575,5.6364,0.1,0.00054044,5400.7,0.00054149,5432.4,-0.00017237,68.668,-0.00018211,-4.4691,0.014808
29011,1.7575,5.8182,0.1,0.00054688,5465,0.00054574,5432.2,-0.00017664,4.5235,-0.00018649,-69.484,0.013968
29012,1.665,5.9091,0.1,0.00054983,5494.5,0.00054905,5471.8,-0.00017932,-0.91438,-0.00018509,-44.262,0.011971
29013,1.85,0.27273,0.1,0.00053519,5348.2,0.00053497,5342.1,-0.00017441,12.038,-0.00017922,-24.092,0.016066
29014,1.9425,0.18182,0.1,0.00052647,5261,0.00052511,5222.1,-0.00016945,3.4538,-0.0001806,-80.328,0.017348
29015,1.85,0.090909,0.1,0.00053115,5307.8,0.0005303,5283.1,-0.00017296,-0.82061,-0.00017926,-48.168,0.015135
29016,1.85,0.45455,0.1,0.00053186,5314.9,0.00053359,5367.6,-0.00016613,110.13,-0.00018119,-2.9733,0.016892
29017,1.9425,0.36364,0.1,0.00052264,5222.8,0.00052311,5236.9,-0.00016905,36.235,-0.00017492,-7.9035,0.018263
29018,1.85,0.63636,0.1,0.00053122,5308.6,0.00053484,5422.6,-0.00015522,237.85,-0.00018709,-1.6126,0.017622
29019,1.9425,0.54545,0.1,0.00052258,5222.2,0.00052479,5290.2,-0.00016044,141.61,-0.00017963,-2.5294,0.01908
29020,1.85,0.81818,0.1,0.00053234,5319.7,0.00053775,5498.5,-0.0001436,379.11,-0.00019421,-1.1575,0.018263
29021,1.9425,0.72727,0.1,0.00052442,5240.6,0.00052841,5367.6,-0.0001506,265.86,-0.0001862,-1.6273,0.019804
29022,1.85,1,0.1,0.0005352,5348.3,0.00054221,5592.8,-0.00013167,529.54,-0.00020227,-0.88633,0.018822
29023,1.9425,0.90909,0.1,0.00052812,5277.6,0.00053379,5466.6,-0.0001402,402.53,-0.00019394,-1.1908,0.020442
29024,1.85,1.1818,0.1,0.0005397,5393.3,0.00054806,5702.7,-0.00011974,685.1,-0.00021101,-0.7083,0.019307
29025,1.9425,1.0909,0.1,0.00053358,5332.1,0.00054076,5584.4,-0.00012954,548.08,-0.00020261,-0.93383,0.021001
29026,1.85,1.3636,0.1,0.00054564,5452.6,0.00055505,5824.3,-0.00010806,841.95,-0.0002202,-0.57701,0.019724
29027,1.9425,1.2727,0.1,0.00054057,5401.9,0.00054903,5717.1,-0.00011878,699.38,-0.00021197,-0.75459,0.021487
29028,1.85,1.5455,0.1,0.0005527,5523.2,0.00056285,5953.2,-9.6886e-05,996.22,-0.00022954,-0.47392,0.020079
29029,1.9425,1.4545,0.1,0.00054877,5483.9,0.00055826,5860.1,-0.00010813,853.09,-0.00022175,-0.61972,0.021907
29030,1.85,1.7273,0.1,0.00056052,5601.3,0.00057113,6084.6,-8.6474e-05,1143.7,-0.00023874,-0.38857,0.020379
29031,1.9425,1.6364,0.1,0.00055782,5574.4,0.00056806,6008.2,-9.7815e-05,1005.1,-0.00023165,-0.50934,0.022266
29032,1.85,1.9091,0.1,0.00056868,5682.9,0.00057952,6213.4,-7.7104e-05,1279.8,-0.00024748,-0.31795,0.020628
29033,1.9425,1.8182,0.1,0.00056733,5669.3,0.00057805,6156,-8.8168e-05,1150.3,-0.00024132,-0.41578,0.022568
29034,1.85,2.0909,0.1,0.00057675,5763.5,0.00058765,6334.4,-6.9037e-05,1400.4,-0.00025545,-0.26307,0.020832
29035,1.9425,2,0.1,0.00057685,5764.5,0.00058785,6297.7,-7.9557e-05,1283.1,-0.00025037,-0.3387,0.022819
29036,1.85,2.2727,0.1,0.00058425,5838.5,0.00059511,6442.5,-6.2464e-05,1501.7,-0.00026236,-0.22561,0.020994
29037,1.9425,2.1818,0.1,0.00058594,5855.3,0.00059704,6427.7,-7.2317e-05,1398.4,-0.00025847,-0.2836,0.023023
29038,1.85,2.4545,0.1,0.00059072,5903.1,0.0006015,6532.7,-5.7465e-05,1581.5,-0.00026797,-0.20546,0.021117
29039,1.9425,2.3636,0.1,0.00059408,5936.7,0.00060521,6540.3,-6.6648e-05,1492.2,-0.00026528,-0.25312,0.023182
29040,1.85,2.6364,0.1,0.00059572,5953.1,0.00060642,6600.6,-5.4009e-05,1638.4,-0.0002721,-0.1987,0.021203
29041,1.9425,2.5455,0.1,0.00060077,6003.6,0.00061189,6630.2,-6.2583e-05,1562.5,-0.00027057,-0.24253,0.0233
29042,1.85,2.8182,0.1,0.00059889,5984.7,0.00060953,6642.9,-5.2001e-05,1672.4,-0.00027462,-0.1986,0.021254
29043,1.9425,2.7273,0.1,0.00060554,6051.2,0.00061663,6692.9,-6.0013e-05,1608.9,-0.00027417,-0.24363,0.023378
29044,1.85,3,0.1,0.00059997,5995.5,0.00061059,6657.2,-5.1345e-05,1683.7,-0.00027546,-0.19932,0.021271
29045,1.9425,2.9091,0.1,0.00060802,6076,0.0006191,6725.1,-5.8782e-05,1631.8,-0.00027599,-0.24723,0.023416
29046,1.85,3.1818,0.1,0.00059889,5984.7,0.00060953,6642.9,-5.2001e-05,1672.4,-0.00027462,-0.1986,0.021254
29047,1.9425,3.0909,0.1,0.00060802,6076,0.0006191,6725.1,-5.8782e-05,1631.8,-0.00027599,-0.24723,0.023416
29048,1.85,3.3636,0.1,0.00059572,5953.1,0.00060642,6600.6,-5.4009e-05,1638.4,-0.0002721,-0.1987,0.021203
29049,1.9425,3.2727,0.1,0.00060554,6051.2,0.00061663,6692.9,-6.0013e-05,1608.9,-0.00027417,-0.24363,0.023378
29050,1.85,3.5455,0.1,0.00059072,5903.1,0.0006015,6532.7,-5.7465e-05,1581.5,-0.00026797,-0.20546,0.021117
29051,1.9425,3.4545,0.1,0.00060077,6003.6,0.00061189,6630.2,-6.2583e-05,1562.5,-0.00027057,-0.24253,0.0233
29052,1.85,3.7273,0.1,0.00058425,5838.5,0.00059511,6442.5,-6.2464e-05,1501.7,-0.00026236,-0.22561,0.020994
29053,1.9425,3.6364,0.1,0.00059408,5936.7,0.00060521,6540.3,-6.6648e-05,1492.2,-0.00026528,-0.25312,0.023182
29054,1.85,3.9091,0.1,0.00057674,5763.5,0.00058765,6334.4,-6.9037e-05,1400.4,-0.00025545,-0.26306,0.020832
29055,1.9425,3.8182,0.1,0.00058594,5855.3,0.00059704,6427.7,-7.2317e-05,1398.4,-0.00025847,-0.2836,0.023023
29056,1.85,4.0909,0.1,0.00056868,5682.9,0.00057952,6213.4,-7.7104e-05,1279.8,-0.00024748,-0.31795,0.020628
29057,1.9425,4,0.1,0.00057685,5764.5,0.00058785,6297.7,-7.9557e-05,1283.1,-0.00025037,-0.3387,0.022819
29058,1.85,4.2727,0.1,0.00056052,5601.3,0.00057113,6084.6,-8.6473e-05,1143.7,-0.00023874,-0.38857,0.020379
29059,1.9425,4.1818,0.1,0.00056733,5669.3,0.00057805,6156,-8.8168e-05,1150.3,-0.00024132,-0.41578,0.022568
29060,1.85,4.4545,0.1,0.0005527,5523.2,0.00056285,5953.2,-9.6886e-05,996.22,-0.00022954,-0.47392,0.020079
29061,1.9425,4.3636,0.1,0.00055782,5574.4,0.00056806,6008.2,-9.7815e-05,1005.1,-0.00023165,-0.50934,0.022266
29062,1.85,4.6364,0.1,0.00054564,5452.6,0.00055505,5824.3,-0.00010806,841.95,-0.0002202,-0.57701,0.019724
29063,1.9425,4.5455,0.1,0.00054877,5483.9,0.00055826,5860.1,-0.00010813,853.09,-0.00022175,-0.61972,0.021907
29064,1.85,4.8182,0.1,0.0005397,5393.3,0.00054806,5702.7,-0.00011974,685.1,-0.00021101,-0.7083,0.019307
29065,1.9425,4.7273,0.1,0.00054056,5401.9,0.00054903,5717.1,-0.00011878,699.38,-0.00021197,-0.75459,0.021487
29066,1.85,5,0.1,0.0005352,5348.3,0.00054221,5592.8,-0.00013167,529.54,-0.00020227,-0.88633,0.018822
29067,1.9425,4.9091,0.1,0.00053358,5332.1,0.00054076,5584.4,-0.00012954,548.08,-0.00020261,-0.93383,0.021001
29068,1.85,5.1818,0.1,0.00053234,5319.7,0.00053775,5498.5,-0.0001436,379.11,-0.00019421,-1.1575,0.018263
29069,1.9425,5.0909,0.1,0.00052812,5277.6,0.00053379,5466.6,-0.0001402,402.53,-0.00019394,-1.1908,0.020442
29070,1.85,5.3636,0.1,0.00053122,5308.6,0.00053484,5422.6,-0.00015522,237.85,-0.00018709,-1.6126,0.017622
29071,1.9425,5.2727,0.1,0.00052442,5240.6,0.00052841,5367.6,-0.0001506,265.86,-0.0001862,-1.6273,0.019804
29072,1.85,5.5455,0.1,0.00053186,5314.9,0.00053359,5367.6,-0.00016613,110.13,-0.00018119,-2.9733,0.016892
29073,1.9425,5.4545,0.1,0.00052258,5222.2,0.00052479,5290.2,-0.00016044,141.61,-0.00017963,-2.5294,0.01908
29074,1.85,5.7273,0.1,0.00053519,5348.2,0.00053497,5342.1,-0.00017441,12.038,-0.00017922,-24.092,0.016066
29075,1.9425,5.6364,0.1,0.00052264,5222.8,0.00052311,5236.9,-0.00016905,36.235,-0.00017492,-7.9035,0.018263
29076,1.9425,5.8182,0.1,0.00052647,5261,0.00052511,5222.1,-0.00016945,3.4538,-0.0001806,-80.328,0.017348
29077,1.85,5.9091,0.1,0.00053115,5307.8,0.0005303,5283.1,-0.00017296,-0.82061,-0.00017926,-48.168,0.015135
29078,2.035,0.27273,0.1,0.00051389,5135.3,0.00051325,5116.9,-0.00016691,6.4285,-0.00017348,-42.917,0.019658
29079,2.1275,0.18182,0.1,0.00050141,5010.7,0.0004998,4964.5,-0.00016057,2.7719,-0.00017341,-93.67,0.021073
29080,2.035,0.090909,0.1,0.0005078,5074.5,0.00050685,5047,-0.00016496,-0.72251,-0.00017203,-53.882,0.018653
29081,2.035,0.45455,0.1,0.00051333,5129.7,0.00051431,5159.5,-0.00016368,65.263,-0.00017304,-5.0245,0.020561
29082,2.1275,0.36364,0.1,0.0005002,4998.5,0.00050007,4995.1,-0.00016287,14.022,-0.00016748,-20.662,0.022064
29083,2.035,0.63636,0.1,0.00051577,5154.1,0.00051839,5235.4,-0.00015587,169.28,-0.00017872,-2.392,0.02137
29084,2.1275,0.54545,0.1,0.00050321,5028.6,0.00050454,5069,-0.00015859,86.535,-0.0001707,-4.4513,0.022959
29085,2.035,0.81818,0.1,0.00052022,5198.6,0.00052449,5336.1,-0.00014725,288.92,-0.00018592,-1.6416,0.02209
29086,2.1275,0.72727,0.1,0.0005086,5082.5,0.00051148,5172.2,-0.00015198,187.27,-0.00017724,-2.5257,0.023763
29087,2.035,1,0.1,0.00052653,5261.7,0.00053239,5458.6,-0.00013813,420.64,-0.00019427,-1.2404,0.022728
29088,2.1275,0.90909,0.1,0.00051619,5158.3,0.00052062,5301.8,-0.00014478,302.18,-0.00018524,-1.7778,0.024483
29089,2.035,1.1818,0.1,0.00053448,5341.1,0.00054179,5599.3,-0.00012864,561.93,-0.00020356,-0.98486,0.023289
29090,2.1275,1.0909,0.1,0.0005257,5253.4,0.00053166,5454.1,-0.00013711,429.24,-0.00019442,-1.3643,0.025123
29091,2.035,1.3636,0.1,0.00054374,5433.6,0.0005523,5753.3,-0.0001189,710.15,-0.00021352,-0.8002,0.023779
29092,2.1275,1.2727,0.1,0.00053676,5363.9,0.00054413,5624.3,-0.00012893,567.22,-0.00020457,-1.0895,0.025688
29093,2.035,1.5455,0.1,0.00055393,5535.4,0.00056351,5915.4,-0.00010909,861.7,-0.00022386,-0.65529,0.024202
29094,2.1275,1.4545,0.1,0.00054889,5485.2,0.00055752,5806.7,-0.00012027,714.07,-0.00021542,-0.88798,0.026182
29095,2.035,1.7273,0.1,0.00056465,5642.6,0.000575,6079.7,-9.9521e-05,1011.6,-0.00023423,-0.53426,0.024564
29096,2.1275,1.6364,0.1,0.00056165,5612.6,0.00057132,5994.7,-0.0001113,865.75,-0.00022662,-0.7258,0.02661
29097,2.035,1.9091,0.1,0.00057551,5751.1,0.00058637,6240.2,-9.0609e-05,1153.6,-0.00024421,-0.43258,0.024869
29098,2.1275,1.8182,0.1,0.00057458,5741.8,0.00058506,6181.6,-0.00010246,1015.8,-0.00023774,-0.5872,0.026976
29099,2.035,2.0909,0.1,0.00058604,5856.3,0.00059721,6390.7,-8.2799e-05,1281.4,-0.00025339,-0.35462,0.025121
29100,2.1275,2,0.1,0.00058727,5868.6,0.00059831,6360.4,-9.4321e-05,1156.2,-0.00024827,-0.47618,0.027284
29101,2.035,2.2727,0.1,0.00059575,5953.4,0.00060708,6525,-7.6433e-05,1389.3,-0.00026138,-0.30674,0.025324
29102,2.1275,2.1818,0.1,0.00059923,5988.1,0.00061063,6524,-8.7443e-05,1279,-0.00025772,-0.39633,0.027537
29103,2.035,2.4545,0.1,0.00060409,6036.8,0.0006155,6637.1,-7.1668e-05,1474,-0.00026788,-0.28666,0.025479
29104,2.1275,2.3636,0.1,0.00060989,6094.7,0.00062151,6665.6,-8.2174e-05,1378.3,-0.00026567,-0.35161,0.027737
29105,2.035,2.6364,0.1,0.00061053,6101.1,0.00062197,6721.5,-6.8459e-05,1533.9,-0.00027264,-0.28495,0.025589
29106,2.1275,2.5455,0.1,0.00061862,6181.9,0.00063037,6778.3,-7.8556e-05,1451.7,-0.00027181,-0.34236,0.027886
29107,2.035,2.8182,0.1,0.0006146,6141.8,0.00062605,6774,-6.6645e-05,1569.3,-0.00027555,-0.29053,0.025655
29108,2.1275,2.7273,0.1,0.00062482,6243.9,0.00063666,6856.8,-7.6389e-05,1499.3,-0.00027598,-0.35156,0.027985
29109,2.035,3,0.1,0.00061599,6155.7,0.00062745,6791.8,-6.6063e-05,1581,-0.00027652,-0.2937,0.025677
29110,2.1275,2.9091,0.1,0.00062805,6276.1,0.00063992,6897.1,-7.5399e-05,1522.4,-0.00027807,-0.36098,0.028034
29111,2.035,3.1818,0.1,0.0006146,6141.8,0.00062605,6774,-6.6645e-05,1569.3,-0.00027555,-0.29053,0.025655
29112,2.1275,3.0909,0.1,0.00062805,6276.1,0.00063992,6897.1,-7.5399e-05,1522.4,-0.00027807,-0.36098,0.028034
29113,2.035,3.3636,0.1,0.00061053,6101.1,0.00062197,6721.5,-6.8459e-05,1533.9,-0.00027264,-0.28495,0.025589
29114,2.1275,3.2727,0.1,0.00062482,6243.9,0.00063666,6856.8,-7.6389e-05,1499.3,-0.00027598,-0.35156,0.027985
29115,2.035,3.5455,0.1,0.00060409,6036.8,0.0006155,6637.1,-7.1668e-05,1474,-0.00026788,-0.28666,0.025479
29116,2.1275,3.4545,0.1,0.00061862,6181.9,0.00063037,6778.3,-7.8556e-05,1451.7,-0.00027181,-0.34236,0.027886
29117,2.035,3.7273,0.1,0.00059575,5953.4,0.00060708,6525,-7.6433e-05,1389.3,-0.00026138,-0.30674,0.025324
29118,2.1275,3.6364,0.1,0.00060989,6094.7,0.00062151,6665.6,-8.2174e-05,1378.3,-0.00026567,-0.35161,0.027737
29119,2.035,3.9091,0.1,0.00058604,5856.3,0.00059721,6390.7,-8.2799e-05,1281.4,-0.00025339,-0.35462,0.025121
29120,2.1275,3.8182,0.1,0.00059923,5988.1,0.00061063,6524,-8.7443e-05,1279,-0.00025772,-0.39632,0.027537
29121,2.035,4.0909,0.1,0.00057551,5751.1,0.00058637,6240.2,-9.0609e-05,1153.6,-0.00024421,-0.43258,0.024869
29122,2.1275,4,0.1,0.00058727,5868.6,0.00059831,6360.4,-9.4321e-05,1156.2,-0.00024827,-0.47617,0.027284
29123,2.035,4.2727,0.1,0.00056465,5642.6,0.000575,6079.7,-9.9521e-05,1011.6,-0.00023423,-0.53426,0.024564
29124,2.1275,4.1818,0.1,0.00057458,5741.8,0.00058506,6181.6,-0.00010246,1015.8,-0.00023774,-0.5872,0.026976
29125,2.035,4.4545,0.1,0.00055393,5535.4,0.00056351,5915.4,-0.00010909,861.7,-0.00022386,-0.65529,0.024202
29126,2.1275,4.3636,0.1,0.00056165,5612.6,0.00057132,5994.7,-0.0001113,865.75,-0.00022662,-0.72579,0.02661
29127,2.035,4.6364,0.1,0.00054374,5433.6,0.0005523,5753.3,-0.0001189,710.15,-0.00021352,-0.80019,0.023779
29128,2.1275,4.5455,0.1,0.00054889,5485.2,0.00055752,5806.7,-0.00012027,714.07,-0.00021542,-0.88798,0.026182
29129,2.035,4.8182,0.1,0.00053448,5341.1,0.00054179,5599.3,-0.00012864,561.93,-0.00020356,-0.98486,0.023289
29130,2.1275,4.7273,0.1,0.00053676,5363.9,0.00054413,5624.3,-0.00012893,567.22,-0.00020457,-1.0895,0.025688
29131,2.035,5,0.1,0.00052653,5261.6,0.00053239,5458.6,-0.00013813,420.64,-0.00019427,-1.2404,0.022728
29132,2.1275,4.9091,0.1,0.0005257,5253.4,0.00053166,5454.1,-0.00013711,429.24,-0.00019442,-1.3643,0.025123
29133,2.035,5.1818,0.1,0.00052022,5198.6,0.00052449,5336.1,-0.00014725,288.92,-0.00018592,-1.6416,0.02209
29134,2.1275,5.0909,0.1,0.00051619,5158.3,0.00052062,5301.8,-0.00014478,302.18,-0.00018524,-1.7778,0.024483
29135,2.035,5.3636,0.1,0.00051577,5154.1,0.00051839,5235.4,-0.00015587,169.28,-0.00017872,-2.392,0.02137
29136,2.1275,5.2727,0.1,0.0005086,5082.5,0.00051148,5172.2,-0.00015198,187.27,-0.00017724,-2.5257,0.023763
29137,2.035,5.5455,0.1,0.00051333,5129.7,0.00051431,5159.5,-0.00016368,65.263,-0.00017304,-5.0245,0.020561
29138,2.1275,5.4545,0.1,0.00050321,5028.6,0.00050454,5069,-0.00015859,86.535,-0.0001707,-4.4513,0.022959
29139,2.035,5.7273,0.1,0.00051389,5135.3,0.00051325,5116.9,-0.00016691,6.4285,-0.00017348,-42.917,0.019658
29140,2.1275,5.6364,0.1,0.0005002,4998.5,0.00050007,4995.1,-0.00016287,14.022,-0.00016748,-20.662,0.022064
29141,2.1275,5.8182,0.1,0.00050141,5010.7,0.0004998,4964.5,-0.00016057,2.7719,-0.00017341,-93.67,0.021073
29142,2.035,5.9091,0.1,0.0005078,5074.5,0.00050685,5047,-0.00016496,-0.72251,-0.00017203,-53.882,0.018653
29143,2.22,0.27273,0.1,0.00048771,4873.8,0.00048664,4842.8,-0.00015733,4.3228,-0.00016662,-65.473,0.023587
29144,2.3125,0.18182,0.1,0.00047118,4708.6,0.00046928,4654.6,-0.00014989,2.4449,-0.00016464,-108.37,0.025127
29145,2.22,0.090909,0.1,0.00047936,4790.3,0.00047828,4759.3,-0.00015522,-0.62799,-0.00016322,-60.74,0.02251
29146,2.22,0.45455,0.1,0.00049008,4897.4,0.00049032,4904.8,-0.00015877,27.801,-0.00016416,-12.742,0.024567
29147,2.3125,0.36364,0.1,0.00047255,4722.2,0.00047185,4702.2,-0.00015305,6.8896,-0.00016016,-46.532,0.026193
29148,2.22,0.63636,0.1,0.00049609,4957.5,0.0004977,5006.3,-0.00015479,103.81,-0.00016919,-4.3688,0.025457
29149,2.3125,0.54545,0.1,0.000479,4786.7,0.00047945,4800.4,-0.00015424,39.022,-0.00016095,-11.342,0.027168
29150,2.22,0.81818,0.1,0.00050467,5043.3,0.00050772,5138.7,-0.00014962,199.73,-0.00017656,-2.7011,0.026261
29151,2.3125,0.72727,0.1,0.00048865,4883.1,0.00049036,4935.3,-0.00015168,111.23,-0.00016714,-4.9399,0.028057
29152,2.22,1,0.1,0.0005155,5151.5,0.00052003,5298.3,-0.0001439,309.77,-0.00018539,-1.9506,0.026983
29153,2.3125,0.90909,0.1,0.00050116,5008.1,0.0005042,5103.6,-0.00014839,200.25,-0.00017546,-3.1649,0.028863
29154,2.22,1.1818,0.1,0.00052814,5277.8,0.00053415,5480.3,-0.00013755,433.45,-0.00019544,-1.5046,0.027627
29155,2.3125,1.0909,0.1,0.00051604,5156.8,0.00052049,5300.9,-0.00014455,304,-0.00018532,-2.3032,0.029592
29156,2.22,1.3636,0.1,0.00054207,5416.9,0.00054948,5678.8,-0.00013043,570.16,-0.00020648,-1.1984,0.028199
29157,2.3125,1.2727,0.1,0.00053264,5322.7,0.00053854,5521.1,-0.00013983,424.02,-0.0001965,-1.7698,0.030245
29158,2.22,1.5455,0.1,0.00055674,5563.5,0.00056543,5886.8,-0.00012258,717.35,-0.00021818,-0.96756,0.0287
29159,2.3125,1.4545,0.1,0.00055024,5498.6,0.0005576,5756.7,-0.00013394,560.75,-0.00020876,-1.3946,0.030825
29160,2.22,1.7273,0.1,0.00057166,5712.7,0.00058144,6097.1,-0.00011431,869.49,-0.00023013,-0.77901,0.029134
29161,2.3125,1.6364,0.1,0.00056819,5678,0.00057691,5999.4,-0.00012692,711.09,-0.00022171,-1.1024,0.031334
29162,2.22,1.9091,0.1,0.0005864,5859.9,0.00059702,6301.9,-0.00010619,1018.2,-0.00024179,-0.62563,0.029504
29163,2.3125,1.8182,0.1,0.00058596,5855.5,0.00059585,6240.2,-0.00011927,867.09,-0.00023479,-0.86714,0.031775
29164,2.22,2.0909,0.1,0.00060048,6000.6,0.00061171,6493.5,-9.894e-05,1154,-0.00025259,-0.51041,0.029815
29165,2.3125,2,0.1,0.00060309,6026.7,0.00061389,6470.1,-0.00011187,1016.9,-0.00024731,-0.66562,0.032151
29166,2.22,2.2727,0.1,0.00061335,6129.3,0.00062498,6664,-9.3107e-05,1268.6,-0.000262,-0.43394,0.030066
29167,2.3125,2.1818,0.1,0.00061907,6186.4,0.00063054,6679.8,-0.00010565,1148.4,-0.00025856,-0.53522,0.032463
29168,2.22,2.4545,0.1,0.00062436,6239.3,0.00063625,6805.9,-8.8931e-05,1357.1,-0.0002696,-0.40178,0.030262
29169,2.3125,2.3636,0.1,0.00063322,6327.9,0.00064514,6860.3,-0.00010115,1252.9,-0.00026797,-0.49174,0.032713
29170,2.22,2.6364,0.1,0.00063282,6323.8,0.00064488,6912.3,-8.6303e-05,1418.5,-0.00027515,-0.40551,0.030401
29171,2.3125,2.5455,0.1,0.00064475,6443,0.00065697,7003.1,-9.8393e-05,1327.6,-0.00027515,-0.48929,0.032901
29172,2.22,2.8182,0.1,0.00063815,6377.1,0.0006503,6978.3,-8.4923e-05,1454,-0.0002785,-0.42006,0.030485
29173,2.3125,2.7273,0.1,0.00065288,6524.3,0.00066529,7101.7,-9.6981e-05,1374.2,-0.00027995,-0.5052,0.033027
29174,2.22,3,0.1,0.00063997,6395.3,0.00065216,7000.6,-8.4501e-05,1465.6,-0.00027962,-0.42684,0.030513
29175,2.3125,2.9091,0.1,0.00065709,6566.4,0.00066959,7151.9,-9.6431e-05,1396.3,-0.00028234,-0.52129,0.03309
29176,2.22,3.1818,0.1,0.00063815,6377.1,0.0006503,6978.3,-8.4923e-05,1454,-0.0002785,-0.42006,0.030485
29177,2.3125,3.0909,0.1,0.00065709,6566.4,0.00066959,7151.9,-9.6431e-05,1396.3,-0.00028234,-0.52129,0.03309
29178,2.22,3.3636,0.1,0.00063282,6323.8,0.00064488,6912.3,-8.6303e-05,1418.5,-0.00027515,-0.40551,0.030401
29179,2.3125,3.2727,0.1,0.00065288,6524.3,0.00066529,7101.7,-9.6981e-05,1374.2,-0.00027995,-0.5052,0.033027
29180,2.22,3.5455,0.1,0.00062436,6239.3,0.00063625,6805.9,-8.8931e-05,1357.1,-0.0002696,-0.40178,0.030262
29181,2.3125,3.4545,0.1,0.00064475,6443,0.00065697,7003.1,-9.8393e-05,1327.6,-0.00027515,-0.48929,0.032901
29182,2.22,3.7273,0.1,0.00061335,6129.3,0.00062498,6664,-9.3107e-05,1268.6,-0.000262,-0.43394,0.030066
29183,2.3125,3.6364,0.1,0.00063322,6327.9,0.00064514,6860.3,-0.00010115,1252.9,-0.00026797,-0.49174,0.032713
29184,2.22,3.9091,0.1,0.00060048,6000.6,0.00061171,6493.5,-9.894e-05,1154,-0.00025259,-0.51041,0.029815
29185,2.3125,3.8182,0.1,0.00061907,6186.4,0.00063054,6679.8,-0.00010565,1148.4,-0.00025856,-0.53522,0.032463
29186,2.22,4.0909,0.1,0.0005864,5859.9,0.00059702,6301.9,-0.00010619,1018.2,-0.00024179,-0.62563,0.029504
29187,2.3125,4,0.1,0.00060309,6026.7,0.00061389,6470.1,-0.00011187,1016.9,-0.00024731,-0.66562,0.032151
29188,2.22,4.2727,0.1,0.00057166,5712.7,0.00058144,6097.1,-0.00011431,869.49,-0.00023013,-0.77901,0.029134
29189,2.3125,4.1818,0.1,0.00058596,5855.5,0.00059585,6240.2,-0.00011927,867.09,-0.00023479,-0.86714,0.031775
29190,2.22,4.4545,0.1,0.00055674,5563.5,0.00056543,5886.8,-0.00012258,717.36,-0.00021818,-0.96756,0.0287
29191,2.3125,4.3636,0.1,0.00056819,5678,0.00057691,5999.4,-0.00012692,711.09,-0.00022171,-1.1024,0.031334
29192,2.22,4.6364,0.1,0.00054207,5416.9,0.00054948,5678.8,-0.00013043,570.16,-0.00020648,-1.1984,0.028199
29193,2.3125,4.5455,0.1,0.00055024,5498.6,0.0005576,5756.7,-0.00013394,560.75,-0.00020876,-1.3946,0.030825
29194,2.22,4.8182,0.1,0.00052814,5277.8,0.00053415,5480.3,-0.00013755,433.45,-0.00019544,-1.5046,0.027627
29195,2.3125,4.7273,0.1,0.00053264,5322.7,0.00053854,5521.1,-0.00013983,424.02,-0.0001965,-1.7698,0.030245
29196,2.22,5,0.1,0.0005155,5151.5,0.00052003,5298.3,-0.0001439,309.77,-0.00018539,-1.9506,0.026983
29197,2.3125,4.9091,0.1,0.00051604,5156.8,0.00052049,5300.9,-0.00014455,304,-0.00018532,-2.3032,0.029592
29198,2.22,5.1818,0.1,0.00050467,5043.3,0.00050772,5138.7,-0.00014962,199.73,-0.00017656,-2.7011,0.026261
29199,2.3125,5.0909,0.1,0.00050116,5008.1,0.0005042,5103.6,-0.00014839,200.25,-0.00017546,-3.1649,0.028863
29200,2.22,5.3636,0.1,0.00049609,4957.5,0.0004977,5006.3,-0.00015479,103.81,-0.00016919,-4.3687,0.025457
29201,2.3125,5.2727,0.1,0.00048865,4883.1,0.00049036,4935.3,-0.00015168,111.23,-0.00016714,-4.9399,0.028057
29202,2.22,5.5455,0.1,0.00049008,4897.4,0.00049032,4904.8,-0.00015877,27.801,-0.00016416,-12.742,0.024567
29203,2.3125,5.4545,0.1,0.000479,4786.7,0.00047945,4800.4,-0.00015424,39.022,-0.00016095,-11.342,0.027168
29204,2.22,5.7273,0.1,0.00048771,4873.8,0.00048664,4842.8,-0.00015733,4.3228,-0.00016662,-65.473,0.023587
29205,2.3125,5.6364,0.1,0.00047255,4722.2,0.00047185,4702.2,-0.00015305,6.8897,-0.00016016,-46.532,0.026193
29206,2.3125,5.8182,0.1,0.00047118,4708.6,0.00046928,4654.6,-0.00014989,2.4449,-0.00016464,-108.37,0.025127
29207,2.22,5.9091,0.1,0.00047936,4790.3,0.00047828,4759.3,-0.00015522,-0.62798,-0.00016322,-60.74,0.02251
29208,2.405,0.27273,0.1,0.00045605,4557.3,0.00045454,4514.3,-0.0001458,3.6073,-0.00015803,-88.303,0.027834
29209,2.4975,0.18182,0.1,0.00043515,4348.5,0.00043296,4286.9,-0.00013726,2.475,-0.00015395,-122.92,0.029489
29210,2.405,0.090909,0.1,0.00044525,4449.4,0.00044405,4414.8,-0.0001436,-0.54457,-0.00015257,-67.893,0.026686
29211,2.405,0.45455,0.1,0.00046153,4612.1,0.00046104,4598.2,-0.0001495,10.846,-0.00015603,-38.287,0.028893
29212,2.4975,0.36364,0.1,0.00043905,4387.5,0.00043783,4352.5,-0.00014076,5.2372,-0.00015133,-74.19,0.030629
29213,2.405,0.63636,0.1,0.00047172,4713.9,0.00047226,4730.4,-0.00015127,45.387,-0.00015891,-11.954,0.029867
29214,2.4975,0.54545,0.1,0.00044939,4490.8,0.00044897,4478.8,-0.00014521,14.404,-0.00015217,-37.854,0.031687
29215,2.405,0.81818,0.1,0.0004854,4850.6,0.00048707,4901.9,-0.00015062,110.47,-0.00016611,-5.8992,0.030759
29216,2.4975,0.72727,0.1,0.00046416,4638.4,0.0004646,4651.8,-0.00014877,43.188,-0.00015662,-15.765,0.032666
29217,2.405,1,0.1,0.00050204,5016.9,0.00050496,5108.4,-0.0001493,192.56,-0.00017544,-3.8348,0.031574
29218,2.4975,0.90909,0.1,0.00048285,4825.2,0.00048425,4867.8,-0.00015093,95.342,-0.00016473,-8.3276,0.033568
29219,2.405,1.1818,0.1,0.0005209,5205.5,0.0005252,5344,-0.00014712,292.39,-0.0001864,-2.7568,0.032313
29220,2.4975,1.0909,0.1,0.0005047,5043.5,0.00050722,5121.7,-0.00015233,166.21,-0.00017516,-5.3337,0.034396
29221,2.405,1.3636,0.1,0.00054116,5407.9,0.00054695,5601.2,-0.00014361,412.55,-0.0001988,-2.0688,0.032978
29222,2.4975,1.2727,0.1,0.0005287,5283.3,0.00053256,5406.4,-0.00015243,259.64,-0.00018748,-3.6986,0.03515
29223,2.405,1.5455,0.1,0.00056198,5616,0.0005693,5871,-0.0001385,552.82,-0.00021229,-1.5765,0.033569
29224,2.4975,1.4545,0.1,0.00055375,5533.6,0.00055917,5712.5,-0.0001505,380.26,-0.00020147,-2.6818,0.03583
29225,2.405,1.7273,0.1,0.0005827,5823,0.00059147,6143.7,-0.00013204,707.55,-0.00022637,-1.2033,0.034089
29226,2.4975,1.6364,0.1,0.00057883,5784.3,0.00058595,6028.9,-0.00014623,527.56,-0.00021671,-2.005,0.036436
29227,2.405,1.9091,0.1,0.00060278,6023.7,0.0006128,6409,-0.00012503,865.26,-0.00024031,-0.90108,0.034539
29228,2.4975,1.8182,0.1,0.00060321,6027.9,0.00061195,6343.2,-0.00014016,692.12,-0.00023247,-1.4718,0.036969
29229,2.405,2.0909,0.1,0.00062174,6213.1,0.00063272,6656.4,-0.00011858,1011.4,-0.00025328,-0.67698,0.034919
29230,2.4975,2,0.1,0.00062638,6259.5,0.0006365,6642.7,-0.00013367,855.95,-0.00024774,-1.1443,0.037427
29231,2.405,2.2727,0.1,0.00063893,6384.9,0.0006506,6875.4,-0.0001136,1133.5,-0.00026453,-0.57985,0.035232
29232,2.4975,2.1818,0.1,0.00064779,6473.4,0.00065895,6914.3,-0.00012831,999.2,-0.00026142,-0.91128,0.037813
29233,2.405,2.4545,0.1,0.00065353,6530.8,0.00066567,7056.1,-0.00011043,1224.8,-0.00027352,-0.5701,0.035477
29234,2.4975,2.3636,0.1,0.00066657,6661.1,0.00067844,7145.4,-0.00012499,1108.7,-0.00027265,-0.71996,0.038125
29235,2.405,2.6364,0.1,0.00066466,6642,0.00067711,7190.4,-0.0001088,1285.4,-0.00027995,-0.5842,0.035654
29236,2.4975,2.5455,0.1,0.00068167,6812,0.00069401,7325.2,-0.00012358,1182.1,-0.000281,-0.68975,0.038363
29237,2.405,2.8182,0.1,0.00067162,6711.6,0.00068424,7272.8,-0.00010816,1319,-0.00028379,-0.60449,0.035761
29238,2.4975,2.7273,0.1,0.00069217,6916.9,0.0007048,7447,-0.00012334,1224.7,-0.00028644,-0.71812,0.038523
29239,2.405,3,0.1,0.00067399,6735.3,0.00068667,7300.5,-0.00010801,1329.7,-0.00028505,-0.61471,0.035797
29240,2.4975,2.9091,0.1,0.00069753,6970.5,0.00071029,7508.2,-0.00012346,1243.7,-0.00028908,-0.731,0.038604
29241,2.405,3.1818,0.1,0.00067162,6711.6,0.00068424,7272.8,-0.00010816,1319,-0.00028379,-0.60449,0.035761
29242,2.4975,3.0909,0.1,0.00069753,6970.5,0.00071029,7508.2,-0.00012346,1243.7,-0.00028908,-0.731,0.038604
29243,2.405,3.3636,0.1,0.00066466,6642,0.00067711,7190.4,-0.0001088,1285.4,-0.00027995,-0.5842,0.035654
29244,2.4975,3.2727,0.1,0.00069217,6916.9,0.0007048,7447,-0.00012334,1224.7,-0.00028644,-0.71812,0.038523
29245,2.405,3.5455,0.1,0.00065353,6530.8,0.00066567,7056.1,-0.00011043,1224.8,-0.00027352,-0.5701,0.035477
29246,2.4975,3.4545,0.1,0.00068167,6812,0.00069401,7325.2,-0.00012358,1182.1,-0.000281,-0.68975,0.038363
29247,2.405,3.7273,0.1,0.00063893,6384.9,0.0006506,6875.4,-0.0001136,1133.5,-0.00026453,-0.57985,0.035232
29248,2.4975,3.6364,0.1,0.00066657,6661.1,0.00067844,7145.4,-0.00012499,1108.7,-0.00027265,-0.71996,0.038125
29249,2.405,3.9091,0.1,0.00062174,6213.1,0.00063272,6656.4,-0.00011858,1011.4,-0.00025328,-0.67698,0.034919
29250,2.4975,3.8182,0.1,0.00064779,6473.4,0.00065895,6914.3,-0.00012831,999.2,-0.00026142,-0.91128,0.037813
29251,2.405,4.0909,0.1,0.00060278,6023.7,0.00061279,6409,-0.00012503,865.26,-0.00024031,-0.90108,0.034539
29252,2.4975,4,0.1,0.00062638,6259.5,0.0006365,6642.7,-0.00013367,855.95,-0.00024774,-1.1443,0.037427
29253,2.405,4.2727,0.1,0.0005827,5823,0.00059147,6143.7,-0.00013204,707.55,-0.00022637,-1.2033,0.034089
29254,2.4975,4.1818,0.1,0.00060321,6027.9,0.00061195,6343.2,-0.00014016,692.12,-0.00023247,-1.4718,0.036969
29255,2.405,4.4545,0.1,0.00056198,5615.9,0.0005693,5871,-0.0001385,552.82,-0.00021229,-1.5765,0.033569
29256,2.4975,4.3636,0.1,0.00057883,5784.3,0.00058595,6028.9,-0.00014623,527.56,-0.00021671,-2.005,0.036436
29257,2.405,4.6364,0.1,0.00054116,5407.9,0.00054695,5601.2,-0.00014361,412.55,-0.0001988,-2.0688,0.032978
29258,2.4975,4.5455,0.1,0.00055375,5533.6,0.00055917,5712.5,-0.0001505,380.26,-0.00020147,-2.6818,0.03583
29259,2.405,4.8182,0.1,0.0005209,5205.4,0.0005252,5344,-0.00014712,292.39,-0.0001864,-2.7568,0.032313
29260,2.4975,4.7273,0.1,0.0005287,5283.3,0.00053256,5406.4,-0.00015243,259.64,-0.00018748,-3.6986,0.03515
29261,2.405,5,0.1,0.00050204,5016.9,0.00050496,5108.4,-0.0001493,192.56,-0.00017544,-3.8348,0.031574
29262,2.4975,4.9091,0.1,0.0005047,5043.5,0.00050721,5121.7,-0.00015233,166.21,-0.00017516,-5.3337,0.034396
29263,2.405,5.1818,0.1,0.0004854,4850.6,0.00048707,4901.9,-0.00015062,110.47,-0.00016611,-5.8992,0.030759
29264,2.4975,5.0909,0.1,0.00048285,4825.2,0.00048425,4867.8,-0.00015093,95.342,-0.00016473,-8.3276,0.033568
29265,2.405,5.3636,0.1,0.00047172,4713.9,0.00047226,4730.4,-0.00015127,45.387,-0.00015891,-11.954,0.029867
29266,2.4975,5.2727,0.1,0.00046416,4638.4,0.0004646,4651.8,-0.00014877,43.188,-0.00015662,-15.765,0.032666
29267,2.405,5.5455,0.1,0.00046153,4612.1,0.00046104,4598.2,-0.0001495,10.846,-0.00015603,-38.287,0.028893
29268,2.4975,5.4545,0.1,0.00044939,4490.8,0.00044897,4478.8,-0.00014521,14.404,-0.00015217,-37.854,0.031687
29269,2.405,5.7273,0.1,0.00045605,4557.3,0.00045454,4514.3,-0.0001458,3.6073,-0.00015803,-88.303,0.027834
29270,2.4975,5.6364,0.1,0.00043905,4387.5,0.00043783,4352.5,-0.00014076,5.2372,-0.00015133,-74.19,0.030629
29271,2.4975,5.8182,0.1,0.00043515,4348.5,0.00043296,4286.9,-0.00013726,2.475,-0.00015395,-122.92,0.029489
29272,2.405,5.9091,0.1,0.00044525,4449.4,0.00044405,4414.8,-0.0001436,-0.54457,-0.00015257,-67.893,0.026686
29273,2.59,0.27273,0.1,0.00041822,4179.4,0.00041632,4125.6,-0.00013228,3.6547,-0.00014726,-108.89,0.032376
29274,2.6825,0.18182,0.1,0.00039265,3923.8,0.00039022,3855.8,-0.00012256,2.9915,-0.00014097,-135.33,0.034131
29275,2.59,0.090909,0.1,0.00040485,4045.7,0.00040353,4007.9,-0.00012995,-0.48228,-0.00013976,-74.203,0.031157
29276,2.59,0.45455,0.1,0.00042705,4267.6,0.00042587,4234.1,-0.00013668,7.212,-0.00014737,-73.102,0.033515
29277,2.6825,0.36364,0.1,0.00039908,3988.1,0.00039741,3940.9,-0.00012638,5.2824,-0.00014009,-97.674,0.035348
29278,2.59,0.63636,0.1,0.00044217,4418.6,0.0004416,4402.5,-0.00014235,14.889,-0.00015053,-46.571,0.034578
29279,2.6825,0.54545,0.1,0.00041389,4136.1,0.00041262,4100,-0.00013185,9.0297,-0.00014367,-79.787,0.036493
29280,2.59,0.81818,0.1,0.00046216,4618.4,0.00046224,4621.3,-0.00014852,32.298,-0.00015627,-25.953,0.035568
29281,2.6825,0.72727,0.1,0.00043489,4345.9,0.00043391,4318.2,-0.00013904,13.275,-0.0001498,-67.598,0.037569
29282,2.59,1,0.1,0.00048621,4858.8,0.00048709,4885.6,-0.000154,68.734,-0.000165,-13.973,0.036486
29283,2.6825,0.90909,0.1,0.00046132,4610,0.00046066,4591.4,-0.00014788,19.098,-0.00015779,-55.337,0.038577
29284,2.59,1.1818,0.1,0.00051325,5128.9,0.00051519,5188.8,-0.00015801,130.66,-0.00017647,-8.1144,0.037333
29285,2.6825,1.0909,0.1,0.0004921,4917.6,0.00049197,4914.3,-0.00015786,31.826,-0.0001671,-37.648,0.039519
29286,2.59,1.3636,0.1,0.00054199,5416.1,0.00054534,5521.9,-0.00015977,223.92,-0.00019025,-5.0866,0.038108
29287,2.6825,1.2727,0.1,0.00052587,5255.1,0.00052667,5279.8,-0.00016677,69.571,-0.00017855,-18.986,0.040392
29288,2.59,1.5455,0.1,0.00057116,5707.7,0.00057626,5873.6,-0.00015863,351.99,-0.00020593,-3.4071,0.038808
29289,2.6825,1.4545,0.1,0.000561,5606.2,0.00056332,5677.6,-0.00017162,155.63,-0.00019354,-9.0439,0.041192
29290,2.59,1.7273,0.1,0.00059974,5993.3,0.00060673,6230.6,-0.00015464,509.99,-0.00022283,-2.3596,0.039432
29291,2.6825,1.6364,0.1,0.00059584,5954.3,0.0006002,6093.3,-0.00017165,293.95,-0.0002114,-4.7257,0.041916
29292,2.59,1.9091,0.1,0.00062705,6266.2,0.00063582,6578.1,-0.00014896,681.65,-0.00023991,-1.7143,0.039978
29293,2.6825,1.8182,0.1,0.00062925,6288.1,0.00063587,6508.9,-0.00016768,471.32,-0.0002308,-2.8827,0.042561
29294,2.59,2.0909,0.1,0.00065254,6520.9,0.00066275,6900.8,-0.00014343,843.56,-0.00025588,-1.3506,0.040447
29295,2.6825,2,0.1,0.00066052,6600.6,0.00066921,6904.4,-0.00016204,658.63,-0.00024991,-1.5669,0.043124
29296,2.59,2.2727,0.1,0.0006754,6749.4,0.00068666,7183.4,-0.00013957,975.4,-0.00026953,-1.0245,0.040837
29297,2.6825,2.1818,0.1,0.00068908,6886.1,0.00069934,7259,-0.00015757,820.52,-0.0002669,-0.94929,0.043602
29298,2.59,2.4545,0.1,0.00069456,6940.8,0.00070651,7412.4,-0.00013787,1068.1,-0.00028013,-0.82375,0.041145
29299,2.6825,2.3636,0.1,0.00071373,7132.3,0.00072499,7553.2,-0.00015579,935.43,-0.00028043,-1.091,0.043994
29300,2.59,2.6364,0.1,0.00070891,7084.2,0.00072129,7578.7,-0.00013771,1124.5,-0.00028749,-0.81749,0.04137
29301,2.6825,2.5455,0.1,0.00073293,7324.3,0.0007448,7773.7,-0.00015624,1003.6,-0.00028995,-1.0167,0.044295
29302,2.59,2.8182,0.1,0.00071773,7172.3,0.00073033,7678.5,-0.00013814,1153.2,-0.00029173,-0.8434,0.041506
29303,2.6825,2.7273,0.1,0.0007458,7452.9,0.00075799,7916.9,-0.00015754,1037.9,-0.00029581,-0.96487,0.0445
29304,2.59,3,0.1,0.00072069,7201.9,0.00073336,7711.7,-0.00013837,1161.8,-0.00029311,-0.84735,0.041552
29305,2.6825,2.9091,0.1,0.00075217,7516.5,0.00076449,7986.3,-0.00015847,1051.5,-0.00029855,-0.96352,0.044603
29306,2.59,3.1818,0.1,0.00071773,7172.3,0.00073033,7678.5,-0.00013814,1153.2,-0.00029173,-0.8434,0.041506
29307,2.6825,3.0909,0.1,0.00075217,7516.5,0.00076449,7986.3,-0.00015847,1051.5,-0.00029855,-0.96352,0.044603
29308,2.59,3.3636,0.1,0.00070891,7084.2,0.00072129,7578.7,-0.00013771,1124.5,-0.00028749,-0.81749,0.04137
29309,2.6825,3.2727,0.1,0.0007458,7452.9,0.00075799,7916.9,-0.00015754,1037.9,-0.00029581,-0.96487,0.0445
29310,2.59,3.5455,0.1,0.00069456,6940.8,0.00070651,7412.4,-0.00013787,1068.1,-0.00028013,-0.82375,0.041145
29311,2.6825,3.4545,0.1,0.00073293,7324.3,0.0007448,7773.7,-0.00015624,1003.6,-0.00028995,-1.0167,0.044295
29312,2.59,3.7273,0.1,0.0006754,6749.4,0.00068666,7183.4,-0.00013957,975.4,-0.00026953,-1.0245,0.040837
29313,2.6825,3.6364,0.1,0.00071373,7132.3,0.00072499,7553.2,-0.00015579,935.43,-0.00028043,-1.091,0.043994
29314,2.59,3.9091,0.1,0.00065254,6520.9,0.00066275,6900.8,-0.00014343,843.56,-0.00025588,-1.3506,0.040447
29315,2.6825,3.8182,0.1,0.00068908,6886.1,0.00069934,7259,-0.00015757,820.52,-0.0002669,-0.94929,0.043602
29316,2.59,4.0909,0.1,0.00062705,6266.2,0.00063582,6578.1,-0.00014896,681.65,-0.00023991,-1.7143,0.039978
29317,2.6825,4,0.1,0.00066052,6600.6,0.00066921,6904.4,-0.00016204,658.63,-0.00024991,-1.5669,0.043124
29318,2.59,4.2727,0.1,0.00059974,5993.3,0.00060673,6230.6,-0.00015464,509.99,-0.00022283,-2.3596,0.039432
29319,2.6825,4.1818,0.1,0.00062925,6288.1,0.00063587,6508.9,-0.00016768,471.32,-0.0002308,-2.8827,0.042561
29320,2.59,4.4545,0.1,0.00057116,5707.7,0.00057626,5873.6,-0.00015863,351.99,-0.00020593,-3.4071,0.038808
29321,2.6825,4.3636,0.1,0.00059584,5954.3,0.0006002,6093.3,-0.00017165,293.95,-0.0002114,-4.7257,0.041916
29322,2.59,4.6364,0.1,0.00054199,5416.1,0.00054534,5521.9,-0.00015977,223.92,-0.00019025,-5.0866,0.038108
29323,2.6825,4.5455,0.1,0.000561,5606.2,0.00056332,5677.6,-0.00017162,155.63,-0.00019354,-9.0439,0.041192
29324,2.59,4.8182,0.1,0.00051325,5128.9,0.00051519,5188.8,-0.00015801,130.66,-0.00017647,-8.1144,0.037333
29325,2.6825,4.7273,0.1,0.00052587,5255.1,0.00052667,5279.8,-0.00016677,69.571,-0.00017855,-18.986,0.040392
29326,2.59,5,0.1,0.00048621,4858.8,0.00048709,4885.6,-0.000154,68.734,-0.000165,-13.973,0.036486
29327,2.6825,4.9091,0.1,0.0004921,4917.6,0.00049197,4914.3,-0.00015786,31.826,-0.0001671,-37.648,0.039519
29328,2.59,5.1818,0.1,0.00046216,4618.4,0.00046224,4621.3,-0.00014852,32.298,-0.00015627,-25.953,0.035568
29329,2.6825,5.0909,0.1,0.00046132,4610,0.00046066,4591.4,-0.00014788,19.098,-0.00015779,-55.337,0.038577
29330,2.59,5.3636,0.1,0.00044217,4418.6,0.0004416,4402.5,-0.00014235,14.889,-0.00015053,-46.571,0.034578
29331,2.6825,5.2727,0.1,0.00043489,4345.9,0.00043391,4318.2,-0.00013904,13.275,-0.0001498,-67.598,0.037569
29332,2.59,5.5455,0.1,0.00042705,4267.6,0.00042587,4234.1,-0.00013668,7.212,-0.00014737,-73.102,0.033515
29333,2.6825,5.4545,0.1,0.00041389,4136.1,0.00041262,4100,-0.00013185,9.0297,-0.00014367,-79.786,0.036493
29334,2.59,5.7273,0.1,0.00041822,4179.4,0.00041632,4125.6,-0.00013228,3.6547,-0.00014726,-108.89,0.032376
29335,2.6825,5.6364,0.1,0.00039908,3988.1,0.00039741,3940.9,-0.00012638,5.2824,-0.00014009,-97.674,0.035348
29336,2.6825,5.8182,0.1,0.00039265,3923.8,0.00039022,3855.8,-0.00012256,2.9915,-0.00014097,-135.33,0.034131
29337,2.59,5.9091,0.1,0.00040485,4045.7,0.00040353,4007.9,-0.00012995,-0.48228,-0.00013976,-74.203,0.031157
29338,2.775,0.27273,0.1,0.00037364,3733.8,0.00037142,3671.9,-0.00011669,4.4884,-0.0001339,-124.85,0.037185
29339,2.8675,0.18182,0.1,0.00034315,3429.1,0.00034055,3357.3,-0.00010571,4.2645,-0.00012534,-143.25,0.039023
29340,2.775,0.090909,0.1,0.00035759,3573.5,0.00035619,3533.6,-0.00011415,-0.37346,-0.00012449,-78.133,0.035894
29341,2.775,0.45455,0.1,0.00038621,3859.4,0.0003844,3808.6,-0.00012159,6.8535,-0.0001366,-105.97,0.038407
29342,2.8675,0.36364,0.1,0.00035229,3520.5,0.00035029,3464.8,-0.00010998,6.4731,-0.00012611,-114.67,0.040318
29343,2.775,0.63636,0.1,0.00040729,4070.1,0.00040551,4020,-0.00012834,8.8762,-0.00014371,-106.58,0.039565
29344,2.8675,0.54545,0.1,0.00037256,3723.1,0.00037042,3663.5,-0.00011607,8.1671,-0.00013364,-123.81,0.041554
29345,2.775,0.81818,0.1,0.00043512,4348.2,0.00043322,4295,-0.00013707,10.079,-0.00015354,-113.68,0.040662
29346,2.8675,0.72727,0.1,0.00040129,4010.2,0.00039859,3935.4,-0.0001241,8.1292,-0.00014552,-152.79,0.042736
29347,2.775,1,0.1,0.00046856,4682.3,0.00046664,4628.4,-0.00014785,11.453,-0.00016489,-116.56,0.041698
29348,2.8675,0.90909,0.1,0.00043731,4370,0.00043385,4275,-0.00013409,7.743,-0.00016054,-191.03,0.043864
29349,2.775,1.1818,0.1,0.00050618,5058.3,0.0005046,5014,-0.00016074,14.87,-0.00017621,-101.32,0.042672
29350,2.8675,1.0909,0.1,0.00047931,4789.8,0.00047524,4678.1,-0.00014635,7.7357,-0.00017704,-222.84,0.044938
29351,2.775,1.3636,0.1,0.00054623,5458.5,0.00054568,5443.3,-0.000175,28.414,-0.00018648,-57.839,0.043577
29352,2.8675,1.2727,0.1,0.00052576,5254,0.00052164,5140.7,-0.00016138,8.7488,-0.00019279,-227.24,0.045952
29353,2.775,1.5455,0.1,0.00058675,5863.4,0.00058805,5903.2,-0.00018453,98.406,-0.0001999,-17.102,0.04441
29354,2.8675,1.4545,0.1,0.00057461,5742.1,0.00057151,5655.7,-0.00017958,12.358,-0.00020522,-180.27,0.0469
29355,2.775,1.7273,0.1,0.00062606,6256.3,0.00062985,6375.4,-0.00018506,252.47,-0.00021949,-6.2372,0.045163
29356,2.8675,1.6364,0.1,0.00062332,6228.9,0.00062255,6207.5,-0.00019948,31.077,-0.00021329,-72.72,0.047771
29357,2.775,1.9091,0.1,0.00066312,6626.6,0.00066952,6837,-0.000181,446.51,-0.0002408,-2.8179,0.045832
29358,2.8675,1.8182,0.1,0.00066928,6688.2,0.00067185,6767.5,-0.0002056,174.72,-0.00023046,-12.105,0.048559
29359,2.775,2.0909,0.1,0.00069722,6967.4,0.00070583,7262.7,-0.00017622,635.37,-0.00026093,-1.096,0.046412
29360,2.8675,2,0.1,0.00071171,7112.2,0.00071755,7300.8,-0.00020084,400.35,-0.00025489,-5.7344,0.049254
29361,2.775,2.2727,0.1,0.00072733,7268.3,0.00073745,7627.2,-0.00017357,782.14,-0.0002778,-0.95157,0.046901
29362,2.8675,2.1818,0.1,0.00074956,7490.5,0.00075782,7768.2,-0.00019684,595.18,-0.00027656,-3.8052,0.049853
29363,2.775,2.4545,0.1,0.00075181,7512.9,0.00076282,7911.1,-0.0001737,874.39,-0.00029025,-1.256,0.047291
29364,2.8675,2.3636,0.1,0.00078077,7802.3,0.00079046,8135.6,-0.00019678,717.91,-0.0002925,-1.3546,0.050348
29365,2.775,2.6364,0.1,0.00076935,7688.2,0.00078084,8106.9,-0.00017541,922.02,-0.00029828,-1.1588,0.047577
29366,2.8675,2.5455,0.1,0.00080347,8029.2,0.00081382,8388.2,-0.0001993,776.02,-0.00030277,-1.4347,0.050731
29367,2.775,2.8182,0.1,0.00077966,7791.2,0.00079137,8218.8,-0.00017709,942.15,-0.00030263,-1.0863,0.047752
29368,2.8675,2.7273,0.1,0.00081732,8167.6,0.00082794,8536.6,-0.00020201,797.97,-0.00030837,-1.2237,0.050993
29369,2.775,3,0.1,0.00078302,7824.8,0.0007948,8254.8,-0.00017775,947.44,-0.00030399,-1.0816,0.047811
29370,2.8675,2.9091,0.1,0.00082367,8231,0.00083437,8603.1,-0.00020355,804.62,-0.00031078,-1.115,0.051126
29371,2.775,3.1818,0.1,0.00077966,7791.2,0.00079137,8218.8,-0.00017709,942.15,-0.00030263,-1.0863,0.047752
29372,2.8675,3.0909,0.1,0.00082367,8231,0.00083437,8603.1,-0.00020355,804.62,-0.00031078,-1.115,0.051126
29373,2.775,3.3636,0.1,0.00076935,7688.2,0.00078084,8106.9,-0.00017541,922.02,-0.00029828,-1.1588,0.047577
29374,2.8675,3.2727,0.1,0.00081732,8167.6,0.00082794,8536.6,-0.00020201,797.97,-0.00030837,-1.2237,0.050993
29375,2.775,3.5455,0.1,0.00075181,7512.9,0.00076282,7911.1,-0.0001737,874.39,-0.00029025,-1.256,0.047291
29376,2.8675,3.4545,0.1,0.00080347,8029.2,0.00081382,8388.2,-0.0001993,776.02,-0.00030277,-1.4347,0.050731
29377,2.775,3.7273,0.1,0.00072733,7268.3,0.00073745,7627.2,-0.00017357,782.14,-0.0002778,-0.95157,0.046901
29378,2.8675,3.6364,0.1,0.00078077,7802.3,0.00079046,8135.6,-0.00019678,717.91,-0.0002925,-1.3546,0.050348
29379,2.775,3.9091,0.1,0.00069722,6967.4,0.00070583,7262.7,-0.00017622,635.37,-0.00026093,-1.096,0.046412
29380,2.8675,3.8182,0.1,0.00074956,7490.5,0.00075782,7768.2,-0.00019684,595.18,-0.00027656,-3.8052,0.049853
29381,2.775,4.0909,0.1,0.00066312,6626.6,0.00066952,6837,-0.000181,446.51,-0.0002408,-2.8179,0.045832
29382,2.8675,4,0.1,0.00071171,7112.1,0.00071755,7300.8,-0.00020084,400.35,-0.00025489,-5.7344,0.049254
29383,2.775,4.2727,0.1,0.00062606,6256.3,0.00062985,6375.4,-0.00018506,252.47,-0.00021949,-6.2372,0.045163
29384,2.8675,4.1818,0.1,0.00066928,6688.2,0.00067185,6767.5,-0.0002056,174.72,-0.00023046,-12.105,0.048559
29385,2.775,4.4545,0.1,0.00058675,5863.4,0.00058805,5903.2,-0.00018453,98.407,-0.0001999,-17.102,0.04441
29386,2.8675,4.3636,0.1,0.00062332,6228.9,0.00062255,6207.4,-0.00019948,31.077,-0.00021329,-72.719,0.047771
29387,2.775,4.6364,0.1,0.00054623,5458.5,0.00054568,5443.3,-0.000175,28.414,-0.00018648,-57.839,0.043577
29388,2.8675,4.5455,0.1,0.00057461,5742.1,0.00057151,5655.7,-0.00017958,12.358,-0.00020522,-180.27,0.0469
29389,2.775,4.8182,0.1,0.00050618,5058.3,0.0005046,5014,-0.00016074,14.87,-0.00017621,-101.32,0.042672
29390,2.8675,4.7273,0.1,0.00052576,5254,0.00052164,5140.7,-0.00016138,8.7488,-0.00019279,-227.24,0.045952
29391,2.775,5,0.1,0.00046855,4682.3,0.00046664,4628.4,-0.00014785,11.453,-0.00016489,-116.56,0.041698
29392,2.8675,4.9091,0.1,0.00047931,4789.8,0.00047524,4678.1,-0.00014635,7.7357,-0.00017704,-222.84,0.044938
29393,2.775,5.1818,0.1,0.00043512,4348.2,0.00043322,4295,-0.00013707,10.079,-0.00015354,-113.68,0.040662
29394,2.8675,5.0909,0.1,0.00043731,4370,0.00043385,4275,-0.00013409,7.743,-0.00016054,-191.03,0.043864
29395,2.775,5.3636,0.1,0.00040729,4070.1,0.00040551,4020,-0.00012834,8.8762,-0.00014371,-106.58,0.039565
29396,2.8675,5.2727,0.1,0.00040129,4010.2,0.00039859,3935.4,-0.0001241,8.1292,-0.00014552,-152.79,0.042736
29397,2.775,5.5455,0.1,0.00038621,3859.4,0.0003844,3808.6,-0.00012159,6.8535,-0.0001366,-105.97,0.038407
29398,2.8675,5.4545,0.1,0.00037256,3723.1,0.00037042,3663.5,-0.00011607,8.1671,-0.00013364,-123.81,0.041554
29399,2.775,5.7273,0.1,0.00037364,3733.8,0.00037142,3671.9,-0.00011669,4.4884,-0.0001339,-124.85,0.037185
29400,2.8675,5.6364,0.1,0.00035229,3520.5,0.00035029,3464.8,-0.00010998,6.4731,-0.00012611,-114.67,0.040318
29401,2.8675,5.8182,0.1,0.00034315,3429.1,0.00034055,3357.3,-0.00010571,4.2645,-0.00012534,-143.25,0.039023
29402,2.775,5.9091,0.1,0.00035759,3573.5,0.00035619,3533.6,-0.00011415,-0.37346,-0.00012449,-78.133,0.035894
29403,2.96,0.27273,0.1,0.000322,3217.8,0.00031959,3151.4,-9.8989e-05,6.3762,-0.00011774,-134.51,0.042226
29404,3.0525,0.18182,0.1,0.00028634,2861.4,0.00028371,2790,-8.6634e-05,7.3934,-0.0001068,-144.14,0.04413
29405,2.96,0.090909,0.1,0.00030306,3028.5,0.00030165,2988.7,-9.6156e-05,-0.30745,-0.00010647,-77.808,0.040865
29406,2.96,0.45455,0.1,0.00033922,3389.9,0.00033681,3323.4,-0.00010447,7.7749,-0.00012364,-136.23,0.043534
29407,3.0525,0.36364,0.1,0.00029914,2989.4,0.00029692,2928.6,-9.1594e-05,9.4649,-0.00010966,-126.28,0.045503
29408,2.96,0.63636,0.1,0.00036787,3676.2,0.00036461,3587.2,-0.00011181,7.5257,-0.00013656,-178.42,0.044794
29409,3.0525,0.54545,0.1,0.00032682,3266,0.00032363,3179.6,-9.8367e-05,8.8535,-0.0001227,-173.98,0.046835
29410,2.96,0.81818,0.1,0.00040547,4051.9,0.00040086,3927.7,-0.00012101,6.6281,-0.00015427,-243.34,0.04601
29411,3.0525,0.72727,0.1,0.00036539,3651.3,0.00036027,3515.7,-0.0001067,7.0249,-0.00014267,-263.25,0.048131
29412,2.96,1,0.1,0.00045053,4502.2,0.00044443,4339.6,-0.00013232,6.0848,-0.00017496,-314.29,0.047181
29413,3.0525,0.90909,0.1,0.00041299,4127,0.00040534,3928.2,-0.00011668,5.9136,-0.00016763,-376.88,0.049395
29414,2.96,1.1818,0.1,0.00050156,5012.1,0.00049433,4820.3,-0.00014638,6.1756,-0.00019629,-368.8,0.048304
29415,3.0525,1.0909,0.1,0.00046845,4681.3,0.00045812,4416.6,-0.00012895,5.5995,-0.00019554,-494.72,0.050622
29416,2.96,1.3636,0.1,0.00055662,5562.4,0.00054931,5367,-0.00016404,7.1302,-0.00021529,-377.92,0.04937
29417,3.0525,1.2727,0.1,0.00053079,5304.2,0.00051833,4986.9,-0.00014462,5.8245,-0.00022392,-590.04,0.051807
29418,2.96,1.5455,0.1,0.00061311,6126.9,0.00060737,5970.1,-0.00018609,8.4346,-0.0002284,-309.5,0.050369
29419,3.0525,1.4545,0.1,0.0005986,5981.9,0.00058556,5647.2,-0.00016519,6.4184,-0.0002493,-625.54,0.052937
29420,2.96,1.7273,0.1,0.00066773,6672.7,0.00066534,6605.5,-0.00021151,17.186,-0.00023355,-148.4,0.051287
29421,3.0525,1.6364,0.1,0.00066753,6670.7,0.00065676,6387.6,-0.00019185,11.523,-0.00026566,-543.02,0.053997
29422,2.96,1.9091,0.1,0.00071841,7179.2,0.00072019,7233.6,-0.00022528,129.73,-0.00024501,-18.522,0.052112
29423,3.0525,1.8182,0.1,0.00073285,7323.4,0.00072733,7171.3,-0.00022532,13.461,-0.000268,-307.22,0.054969
29424,2.96,2.0909,0.1,0.00076413,7636,0.00076946,7805.6,-0.00022142,360.53,-0.00027048,-8.1351,0.052837
29425,3.0525,2,0.1,0.00079139,7908.4,0.00079192,7925.1,-0.00025408,65.817,-0.00026704,-31.589,0.055838
29426,2.96,2.2727,0.1,0.0008027,8021.4,0.00081036,8273,-0.0002196,534.33,-0.00029125,-4.0283,0.053453
29427,3.0525,2.1818,0.1,0.00084065,8400.7,0.00084537,8547.1,-0.00025215,300.81,-0.00029218,-0.011652,0.056594
29428,2.96,2.4545,0.1,0.00083178,8312.1,0.00084062,8606.5,-0.00022154,625.78,-0.00030502,-1.4914,0.05395
29429,3.0525,2.3636,0.1,0.0008781,8774.9,0.00088457,8981.2,-0.00025305,433.54,-0.00031137,-4.6717,0.057224
29430,2.96,2.6364,0.1,0.00085058,8499.9,0.00085984,8809.8,-0.00022483,660.01,-0.00031287,-1.5105,0.054316
29431,3.0525,2.5455,0.1,0.00089955,8989.3,0.00090669,9217.9,-0.00025653,477.84,-0.00032033,-1.4769,0.057713
29432,2.96,2.8182,0.1,0.00086038,8597.8,0.00086977,8912.2,-0.0002273,669.21,-0.00031653,-1.2602,0.054541
29433,3.0525,2.7273,0.1,0.00090941,9087.8,0.00091671,9321.8,-0.00025882,489.3,-0.00032413,-1.3865,0.058049
29434,2.96,3,0.1,0.00086334,8627.4,0.00087276,8942.6,-0.00022815,670.74,-0.00031757,-1.1506,0.054616
29435,3.0525,2.9091,0.1,0.00091284,9122.1,0.00092018,9357.3,-0.0002598,491.39,-0.00032533,-1.0211,0.058219
29436,2.96,3.1818,0.1,0.00086038,8597.8,0.00086977,8912.2,-0.0002273,669.21,-0.00031653,-1.2602,0.054541
29437,3.0525,3.0909,0.1,0.00091284,9122.1,0.00092018,9357.3,-0.0002598,491.39,-0.00032533,-1.0211,0.058219
29438,2.96,3.3636,0.1,0.00085058,8499.9,0.00085984,8809.8,-0.00022483,660.01,-0.00031287,-1.5105,0.054316
29439,3.0525,3.2727,0.1,0.00090941,9087.8,0.00091671,9321.8,-0.00025882,489.3,-0.00032413,-1.3865,0.058049
29440,2.96,3.5455,0.1,0.00083178,8312.1,0.00084062,8606.5,-0.00022154,625.78,-0.00030502,-1.4914,0.05395
29441,3.0525,3.4545,0.1,0.00089955,8989.3,0.00090669,9217.9,-0.00025653,477.83,-0.00032033,-1.4769,0.057713
29442,2.96,3.7273,0.1,0.0008027,8021.4,0.00081036,8273,-0.0002196,534.33,-0.00029125,-4.0283,0.053453
29443,3.0525,3.6364,0.1,0.0008781,8774.9,0.00088457,8981.2,-0.00025305,433.54,-0.00031137,-4.6717,0.057224
29444,2.96,3.9091,0.1,0.00076413,7636,0.00076946,7805.6,-0.00022142,360.53,-0.00027048,-8.1351,0.052837
29445,3.0525,3.8182,0.1,0.00084065,8400.7,0.00084537,8547.1,-0.00025215,300.82,-0.00029218,-0.011649,0.056594
29446,2.96,4.0909,0.1,0.00071841,7179.2,0.00072019,7233.6,-0.00022528,129.73,-0.00024501,-18.522,0.052112
29447,3.0525,4,0.1,0.00079139,7908.4,0.00079192,7925.1,-0.00025408,65.817,-0.00026704,-31.589,0.055838
29448,2.96,4.2727,0.1,0.00066773,6672.7,0.00066534,6605.5,-0.00021151,17.186,-0.00023355,-148.4,0.051287
29449,3.0525,4.1818,0.1,0.00073285,7323.4,0.00072732,7171.3,-0.00022532,13.461,-0.000268,-307.22,0.054969
29450,2.96,4.4545,0.1,0.00061311,6126.9,0.00060737,5970.1,-0.00018609,8.4346,-0.0002284,-309.5,0.050369
29451,3.0525,4.3636,0.1,0.00066753,6670.7,0.00065676,6387.6,-0.00019185,11.523,-0.00026566,-543.02,0.053997
29452,2.96,4.6364,0.1,0.00055662,5562.4,0.00054931,5366.9,-0.00016404,7.1302,-0.00021529,-377.92,0.04937
29453,3.0525,4.5455,0.1,0.0005986,5981.9,0.00058556,5647.2,-0.00016519,6.4184,-0.0002493,-625.54,0.052937
29454,2.96,4.8182,0.1,0.00050156,5012.1,0.00049433,4820.3,-0.00014638,6.1756,-0.00019629,-368.8,0.048304
29455,3.0525,4.7273,0.1,0.00053079,5304.2,0.00051833,4986.9,-0.00014462,5.8245,-0.00022392,-590.04,0.051807
29456,2.96,5,0.1,0.00045053,4502.2,0.00044443,4339.6,-0.00013232,6.0848,-0.00017496,-314.29,0.047181
29457,3.0525,4.9091,0.1,0.00046845,4681.3,0.00045812,4416.6,-0.00012895,5.5995,-0.00019554,-494.72,0.050622
29458,2.96,5.1818,0.1,0.00040547,4051.9,0.00040086,3927.7,-0.00012101,6.6281,-0.00015427,-243.34,0.04601
29459,3.0525,5.0909,0.1,0.00041299,4127,0.00040534,3928.2,-0.00011668,5.9136,-0.00016763,-376.88,0.049395
29460,2.96,5.3636,0.1,0.00036787,3676.2,0.00036461,3587.2,-0.00011181,7.5257,-0.00013656,-178.42,0.044794
29461,3.0525,5.2727,0.1,0.00036539,3651.3,0.00036027,3515.7,-0.0001067,7.0249,-0.00014267,-263.25,0.048131
29462,2.96,5.5455,0.1,0.00033922,3389.9,0.00033681,3323.4,-0.00010447,7.7749,-0.00012364,-136.23,0.043534
29463,3.0525,5.4545,0.1,0.00032682,3266,0.00032363,3179.6,-9.8367e-05,8.8535,-0.0001227,-173.98,0.046835
29464,2.96,5.7273,0.1,0.000322,3217.8,0.00031959,3151.4,-9.8989e-05,6.3762,-0.00011774,-134.51,0.042226
29465,3.0525,5.6364,0.1,0.00029914,2989.4,0.00029692,2928.6,-9.1594e-05,9.4649,-0.00010966,-126.28,0.045503
29466,3.0525,5.8182,0.1,0.00028634,2861.4,0.00028371,2790,-8.6634e-05,7.3934,-0.0001068,-144.14,0.04413
29467,2.96,5.9091,0.1,0.00030306,3028.5,0.00030165,2988.7,-9.6156e-05,-0.30745,-0.00010647,-77.808,0.040865
29468,3.145,0.27273,0.1,0.00026383,2636.5,0.00026134,2569.4,-7.9166e-05,11.033,-9.9093e-05,-138.68,0.047461
29469,3.2375,0.18182,0.1,0.0002226,2224.4,0.00022007,2157.6,-6.5341e-05,13.211,-8.5594e-05,-138.97,0.049408
29470,3.145,0.090909,0.1,0.00024107,2409.1,0.0002398,2373.3,-7.595e-05,0.85082,-8.5485e-05,-70.796,0.04603
29471,3.145,0.45455,0.1,0.00028802,2878.2,0.00028483,2793,-8.5538e-05,10.193,-0.00010977,-171.88,0.048856
29472,3.2375,0.36364,0.1,0.00024252,2423.5,0.00023988,2353.5,-7.1593e-05,13.238,-9.2707e-05,-145.4,0.050858
29473,3.145,0.63636,0.1,0.00032689,3266.6,0.00032144,3124.2,-9.3328e-05,7.8066,-0.00013088,-274.37,0.050225
29474,3.2375,0.54545,0.1,0.00028158,2813.9,0.00027647,2681.6,-7.927e-05,8.7514,-0.00011433,-254.65,0.05229
29475,3.145,0.81818,0.1,0.00037649,3762.3,0.00036767,3538.1,-0.0001024,6.1623,-0.00015892,-418.55,0.051572
29476,3.2375,0.72727,0.1,0.0003327,3324.7,0.00032344,3093.4,-8.7526e-05,5.5709,-0.00014497,-426.04,0.05371
29477,3.145,1,0.1,0.0004352,4349,0.00042239,4030.5,-0.0001133,5.5971,-0.0001916,-582.75,0.052898
29478,3.2375,0.90909,0.1,0.00039348,3932.1,0.00037884,3577.7,-9.6765e-05,4.1796,-0.0001818,-634.77,0.055124
29479,3.145,1.1818,0.1,0.00050234,5020,0.00048561,4609.5,-0.00012713,5.6609,-0.00022672,-742.59,0.054197
29480,3.2375,1.0909,0.1,0.00046377,4634.5,0.000443,4142.9,-0.00010792,3.5998,-0.0002234,-864.09,0.056529
29481,3.145,1.3636,0.1,0.00057727,5768.7,0.00055777,5291.2,-0.00014566,5.8723,-0.00026122,-862.41,0.05546
29482,3.2375,1.2727,0.1,0.00054483,5444.5,0.00051785,4814.6,-0.00012244,3.6779,-0.00026876,-1095.7,0.057919
29483,3.145,1.5455,0.1,0.00065662,6561.6,0.00063732,6082.5,-0.00017074,11.139,-0.00028914,-878.52,0.056669
29484,3.2375,1.4545,0.1,0.00063745,6370.1,0.00060577,5630.7,-0.00014305,4.2932,-0.00031474,-1285.7,0.059278
29485,3.145,1.7273,0.1,0.00073456,7340.5,0.00071987,6961.9,-0.00020483,14.05,-0.00030207,-716.59,0.057802
29486,3.2375,1.6364,0.1,0.0007411,7405.9,0.00070883,6639.6,-0.00017403,6.1947,-0.00035465,-1350.9,0.060583
29487,3.145,1.9091,0.1,0.00080637,8058.1,0.00079925,7864.2,-0.00024485,19.178,-0.0002995,-391.37,0.058836
29488,3.2375,1.8182,0.1,0.00084644,8458.6,0.00082114,7827.9,-0.00022074,-0.41244,-0.00037302,-1144.5,0.061803
29489,3.145,2.0909,0.1,0.00086756,8669.6,0.0008673,8662.6,-0.00028071,36.876,-0.00029231,-50.228,0.059752
29490,3.2375,2,0.1,0.00092799,9273.5,0.00091661,8961,-0.00028086,-36.269,-0.00035136,-565.98,0.062906
29491,3.145,2.2727,0.1,0.00091504,9144.1,0.0009184,9246.4,-0.00028456,207.79,-0.00031216,0.40859,0.060536
29492,3.2375,2.1818,0.1,0.00099256,9918.7,0.00099012,9848,-0.00032279,-16.695,-0.00033705,-123.8,0.063871
29493,3.145,2.4545,0.1,0.00094441,9437.6,0.00094903,9580.5,-0.00028641,297.87,-0.0003267,-4.8567,0.061172
29494,3.2375,2.3636,0.1,0.0010223,10216,0.0010231,10239,-0.00033224,56.103,-0.00034083,-8.5051,0.064678
29495,3.145,2.6364,0.1,0.00095689,9562.3,0.0009619,9717.4,-0.00028884,319.78,-0.00033161,-1.5314,0.06164
29496,3.2375,2.5455,0.1,0.0010264,10257,0.0010278,10300,-0.00033056,93.636,-0.00034386,-6.2817,0.065303
29497,3.145,2.8182,0.1,0.00096047,9598,0.00096554,9755,-0.00028974,323.41,-0.00033294,-1.1872,0.061925
29498,3.2375,2.7273,0.1,0.0010202,10195,0.001022,10249,-0.00032723,111.44,-0.00034235,-2.1675,0.065727
29499,3.145,3,0.1,0.00096098,9603.2,0.00096606,9760.4,-0.0002899,323.62,-0.00033309,-0.87609,0.062021
29500,3.2375,2.9091,0.1,0.0010151,10144,0.0010171,10202,-0.00032508,118.15,-0.00034087,-0.48949,0.065941
29501,3.145,3.1818,0.1,0.00096047,9598,0.00096554,9755,-0.00028974,323.41,-0.00033294,-1.1872,0.061925
29502,3.2375,3.0909,0.1,0.0010151,10144,0.0010171,10202,-0.00032508,118.15,-0.00034087,-0.48949,0.065941
29503,3.145,3.3636,0.1,0.00095689,9562.3,0.0009619,9717.4,-0.00028884,319.78,-0.00033161,-1.5314,0.06164
29504,3.2375,3.2727,0.1,0.0010202,10195,0.001022,10249,-0.00032723,111.44,-0.00034235,-2.1675,0.065727
29505,3.145,3.5455,0.1,0.00094441,9437.6,0.00094903,9580.5,-0.00028641,297.87,-0.0003267,-4.8567,0.061172
29506,3.2375,3.4545,0.1,0.0010264,10257,0.0010278,10300,-0.00033056,93.635,-0.00034386,-6.2818,0.065303
29507,3.145,3.7273,0.1,0.00091504,9144.1,0.0009184,9246.4,-0.00028456,207.79,-0.00031216,0.40858,0.060536
29508,3.2375,3.6364,0.1,0.0010223,10216,0.0010231,10239,-0.00033224,56.103,-0.00034083,-8.5052,0.064678
29509,3.145,3.9091,0.1,0.00086756,8669.6,0.0008673,8662.6,-0.00028071,36.876,-0.00029231,-50.228,0.059752
29510,3.2375,3.8182,0.1,0.00099256,9918.7,0.00099012,9848,-0.00032279,-16.695,-0.00033705,-123.8,0.063871
29511,3.145,4.0909,0.1,0.00080637,8058.1,0.00079925,7864.2,-0.00024485,19.179,-0.0002995,-391.37,0.058836
29512,3.2375,4,0.1,0.00092799,9273.5,0.00091661,8961,-0.00028086,-36.269,-0.00035136,-565.98,0.062906
29513,3.145,4.2727,0.1,0.00073456,7340.5,0.00071987,6961.9,-0.00020483,14.05,-0.00030207,-716.59,0.057802
29514,3.2375,4.1818,0.1,0.00084644,8458.6,0.00082114,7827.9,-0.00022074,-0.41245,-0.00037302,-1144.5,0.061803
29515,3.145,4.4545,0.1,0.00065662,6561.6,0.00063732,6082.5,-0.00017074,11.139,-0.00028914,-878.52,0.056669
29516,3.2375,4.3636,0.1,0.0007411,7405.8,0.00070883,6639.6,-0.00017403,6.1947,-0.00035465,-1350.9,0.060583
29517,3.145,4.6364,0.1,0.00057727,5768.7,0.00055777,5291.2,-0.00014566,5.8723,-0.00026122,-862.41,0.05546
29518,3.2375,4.5455,0.1,0.00063745,6370.1,0.00060577,5630.7,-0.00014305,4.2932,-0.00031474,-1285.7,0.059278
29519,3.145,4.8182,0.1,0.00050234,5020,0.00048561,4609.5,-0.00012713,5.6609,-0.00022672,-742.59,0.054197
29520,3.2375,4.7273,0.1,0.00054483,5444.5,0.00051785,4814.6,-0.00012244,3.6779,-0.00026876,-1095.7,0.057919
29521,3.145,5,0.1,0.0004352,4349,0.00042239,4030.5,-0.0001133,5.5971,-0.0001916,-582.75,0.052898
29522,3.2375,4.9091,0.1,0.00046377,4634.5,0.000443,4142.9,-0.00010792,3.5998,-0.0002234,-864.09,0.056529
29523,3.145,5.1818,0.1,0.00037649,3762.3,0.00036767,3538.1,-0.0001024,6.1623,-0.00015892,-418.55,0.051572
29524,3.2375,5.0909,0.1,0.00039348,3932.1,0.00037884,3577.7,-9.6765e-05,4.1796,-0.0001818,-634.77,0.055124
29525,3.145,5.3636,0.1,0.00032689,3266.6,0.00032144,3124.2,-9.3328e-05,7.8066,-0.00013088,-274.37,0.050225
29526,3.2375,5.2727,0.1,0.0003327,3324.7,0.00032344,3093.4,-8.7526e-05,5.5709,-0.00014497,-426.04,0.05371
29527,3.145,5.5455,0.1,0.00028802,2878.2,0.00028483,2793,-8.5538e-05,10.193,-0.00010977,-171.88,0.048856
29528,3.2375,5.4545,0.1,0.00028158,2813.9,0.00027647,2681.6,-7.927e-05,8.7514,-0.00011433,-254.65,0.05229
29529,3.145,5.7273,0.1,0.00026383,2636.5,0.00026134,2569.4,-7.9166e-05,11.033,-9.9093e-05,-138.68,0.047461
29530,3.2375,5.6364,0.1,0.00024252,2423.5,0.00023988,2353.5,-7.1593e-05,13.238,-9.2707e-05,-145.4,0.050858
29531,3.2375,5.8182,0.1,0.0002226,2224.4,0.00022007,2157.6,-6.5341e-05,13.211,-8.5594e-05,-138.97,0.049408
29532,3.145,5.9091,0.1,0.00024107,2409.1,0.0002398,2373.3,-7.595e-05,0.85082,-8.5485e-05,-70.796,0.04603
29533,3.33,0.27273,0.1,0.00020227,2021.4,0.00019942,1947.8,-5.7646e-05,16.329,-8.0145e-05,-152.72,0.052843
29534,3.4225,0.18182,0.1,0.00015588,1557.7,0.00015307,1490.7,-4.1087e-05,31.874,-6.528e-05,-149.91,0.054811
29535,3.33,0.090909,0.1,0.0001721,1719.8,0.00017105,1690.4,-5.3684e-05,1.8566,-6.1795e-05,-59.087,0.051347
29536,3.33,0.45455,0.1,0.00023931,2391.5,0.00023425,2262.7,-6.5598e-05,9.7521,-9.9725e-05,-246.66,0.054326
29537,3.4225,0.36364,0.1,0.00019521,1950.8,0.00019021,1828.5,-5.059e-05,19.223,-8.4855e-05,-238.23,0.056335
29538,3.33,0.63636,0.1,0.00029239,2921.8,0.00028255,2681.5,-7.3618e-05,5.3912,-0.00013235,-435.86,0.055808
29539,3.4225,0.54545,0.1,0.00025315,2529.8,0.00024239,2276.3,-5.8961e-05,12.104,-0.00012102,-454.17,0.057867
29540,3.33,0.81818,0.1,0.00035576,3555.1,0.00033936,3168.7,-8.1949e-05,3.1603,-0.00017255,-677.55,0.057298
29541,3.4225,0.72727,0.1,0.00032021,3199.9,0.00030142,2773.6,-6.6551e-05,8.8259,-0.00016509,-731.54,0.059418
29542,3.33,1,0.1,0.00042892,4286.3,0.00040462,3729,-9.1406e-05,2.036,-0.00021876,-954.85,0.058797
29543,3.4225,0.90909,0.1,0.00039582,3955.5,0.00036717,3323.8,-7.4182e-05,7.6574,-0.00021551,-1054.2,0.060996
29544,3.33,1.1818,0.1,0.00051388,5135.2,0.00048076,4389.4,-0.00010323,1.6216,-0.00027095,-1258.6,0.060302
29545,3.4225,1.0909,0.1,0.00048243,4821,0.00044214,3951.4,-8.2672e-05,8.1678,-0.00027317,-1423.2,0.062602
29546,3.33,1.3636,0.1,0.00061319,6127.7,0.0005715,5196.5,-0.00011982,2.1976,-0.00032794,-1561.5,0.061804
29547,3.4225,1.2727,0.1,0.00058506,5846.6,0.00053124,4701.4,-9.354e-05,6.984,-0.00034037,-1847.6,0.064231
29548,3.33,1.5455,0.1,0.00072895,7284.5,0.00068174,6221.3,-0.00014632,-0.47991,-0.00038473,-1791.8,0.063282
29549,3.4225,1.4545,0.1,0.00071088,7103.9,0.0006424,5661.5,-0.0001086,18.791,-0.00041933,-2315.9,0.065872
29550,3.33,1.7273,0.1,0.00085725,8566.6,0.00081245,7523.3,-0.00019005,-9.1163,-0.00042783,-1795.7,0.064705
29551,3.4225,1.6364,0.1,0.00087432,8737.2,0.00079052,6957.8,-0.00013677,-9.5018,-0.00051415,-2845,0.067499
29552,3.33,1.9091,0.1,0.00096676,9660.9,0.00093736,8916.2,-0.00025664,-55.072,-0.00042385,-1311.4,0.066025
29553,3.4225,1.8182,0.1,0.0010958,10950,0.0010122,9147.2,-0.00019306,91.652,-0.00060761,-3023.1,0.069065
29554,3.33,2.0909,0.1,0.0010505,10498,0.0010372,10130,-0.00032059,-72.237,-0.00039625,-640.71,0.067205
29555,3.4225,2,0.1,0.0012622,12614,0.0012207,11682,-0.00028984,332.67,-0.00058664,-1897.4,0.070505
29556,3.33,2.2727,0.1,0.0010965,10957,0.0010916,10817,-0.00035043,-17.81,-0.00038252,-258.96,0.068214
29557,3.4225,2.1818,0.1,0.0012718,12710,0.0012573,12312,-0.00038476,-25.823,-0.00047968,-739.03,0.07176
29558,3.33,2.4545,0.1,0.0011014,11007,0.001099,10938,-0.00035535,9.9753,-0.00037619,-146.57,0.069026
29559,3.4225,2.3636,0.1,0.0012325,12317,0.0012235,12068,-0.00038013,18.927,-0.00044915,-499.62,0.072796
29560,3.33,2.6364,0.1,0.0010876,10869,0.0010858,10816,-0.00035323,3.3935,-0.00036817,-108.85,0.069614
29561,3.4225,2.5455,0.1,0.0011753,11744,0.0011685,11555,-0.0003695,-1.351,-0.0004185,-369.52,0.073578
29562,3.33,2.8182,0.1,0.0010732,10725,0.0010718,10683,-0.0003499,1.3669,-0.00036119,-83.467,0.06997
29563,3.4225,2.7273,0.1,0.0011359,11351,0.0011305,11198,-0.00035949,2.8674,-0.0004002,-303.02,0.074099
29564,3.33,3,0.1,0.0010677,10670,0.0010664,10632,-0.0003486,0.16672,-0.00035865,-75.313,0.070088
29565,3.4225,2.9091,0.1,0.0011161,11153,0.0011113,11016,-0.00035476,0.57632,-0.00039091,-271.05,0.074359
29566,3.33,3.1818,0.1,0.0010732,10725,0.0010718,10683,-0.0003499,1.3668,-0.00036119,-83.468,0.06997
29567,3.4225,3.0909,0.1,0.0011161,11153,0.0011113,11016,-0.00035476,0.57632,-0.00039091,-271.05,0.074359
29568,3.33,3.3636,0.1,0.0010876,10869,0.0010858,10816,-0.00035323,3.3934,-0.00036817,-108.85,0.069614
29569,3.4225,3.2727,0.1,0.0011359,11351,0.0011305,11198,-0.00035949,2.8674,-0.0004002,-303.02,0.074099
29570,3.33,3.5455,0.1,0.0011014,11007,0.001099,10938,-0.00035535,9.9752,-0.00037619,-146.57,0.069026
29571,3.4225,3.4545,0.1,0.0011753,11744,0.0011685,11555,-0.0003695,-1.351,-0.0004185,-369.52,0.073578
29572,3.33,3.7273,0.1,0.0010965,10957,0.0010916,10817,-0.00035043,-17.81,-0.00038252,-258.96,0.068214
29573,3.4225,3.6364,0.1,0.0012325,12317,0.0012235,12068,-0.00038013,18.927,-0.00044915,-499.62,0.072796
29574,3.33,3.9091,0.1,0.0010505,10498,0.0010372,10130,-0.00032059,-72.237,-0.00039625,-640.71,0.067205
29575,3.4225,3.8182,0.1,0.0012718,12710,0.0012573,12312,-0.00038476,-25.823,-0.00047968,-739.03,0.07176
29576,3.33,4.0909,0.1,0.00096676,9660.9,0.00093736,8916.2,-0.00025664,-55.072,-0.00042385,-1311.4,0.066025
29577,3.4225,4,0.1,0.0012622,12614,0.0012207,11682,-0.00028984,332.67,-0.00058664,-1897.4,0.070505
29578,3.33,4.2727,0.1,0.00085725,8566.5,0.00081245,7523.3,-0.00019005,-9.1163,-0.00042783,-1795.7,0.064705
29579,3.4225,4.1818,0.1,0.0010958,10950,0.0010122,9147.2,-0.00019306,91.652,-0.00060761,-3023.1,0.069065
29580,3.33,4.4545,0.1,0.00072895,7284.5,0.00068174,6221.3,-0.00014632,-0.4799,-0.00038473,-1791.8,0.063282
29581,3.4225,4.3636,0.1,0.00087432,8737.2,0.00079052,6957.8,-0.00013677,-9.5018,-0.00051415,-2845,0.067499
29582,3.33,4.6364,0.1,0.00061319,6127.7,0.0005715,5196.5,-0.00011982,2.1976,-0.00032794,-1561.5,0.061804
29583,3.4225,4.5455,0.1,0.00071088,7103.9,0.0006424,5661.5,-0.0001086,18.791,-0.00041933,-2315.9,0.065872
29584,3.33,4.8182,0.1,0.00051388,5135.2,0.00048076,4389.4,-0.00010323,1.6216,-0.00027095,-1258.6,0.060302
29585,3.4225,4.7273,0.1,0.00058506,5846.6,0.00053124,4701.4,-9.354e-05,6.984,-0.00034037,-1847.6,0.064231
29586,3.33,5,0.1,0.00042892,4286.3,0.00040462,3729,-9.1406e-05,2.036,-0.00021876,-954.85,0.058797
29587,3.4225,4.9091,0.1,0.00048243,4821,0.00044214,3951.4,-8.2672e-05,8.1678,-0.00027317,-1423.2,0.062602
29588,3.33,5.1818,0.1,0.00035576,3555.1,0.00033936,3168.7,-8.1949e-05,3.1603,-0.00017255,-677.55,0.057298
29589,3.4225,5.0909,0.1,0.00039582,3955.5,0.00036717,3323.8,-7.4182e-05,7.6574,-0.00021551,-1054.2,0.060996
29590,3.33,5.3636,0.1,0.00029239,2921.8,0.00028255,2681.5,-7.3618e-05,5.3912,-0.00013235,-435.86,0.055808
29591,3.4225,5.2727,0.1,0.00032021,3199.9,0.00030142,2773.6,-6.6551e-05,8.8259,-0.00016509,-731.54,0.059418
29592,3.33,5.5455,0.1,0.00023931,2391.5,0.00023425,2262.7,-6.5598e-05,9.7521,-9.9725e-05,-246.66,0.054326
29593,3.4225,5.4545,0.1,0.00025315,2529.8,0.00024239,2276.3,-5.8961e-05,12.104,-0.00012102,-454.17,0.057867
29594,3.33,5.7273,0.1,0.00020227,2021.4,0.00019942,1947.8,-5.7646e-05,16.329,-8.0145e-05,-152.72,0.052843
29595,3.4225,5.6364,0.1,0.00019521,1950.8,0.00019021,1828.5,-5.059e-05,19.223,-8.4855e-05,-238.23,0.056335
29596,3.4225,5.8182,0.1,0.00015588,1557.7,0.00015307,1490.7,-4.1087e-05,31.874,-6.528e-05,-149.91,0.054811
29597,3.33,5.9091,0.1,0.0001721,1719.8,0.00017105,1690.4,-5.3684e-05,1.8566,-6.1795e-05,-59.087,0.051347
29598,3.515,0.27273,0.1,0.00015435,1542.4,0.00014827,1404.5,-3.4703e-05,29.719,-7.3732e-05,-263.53,0.05832
29599,3.6075,0.18182,0.1,8.9551e-05,894.89,8.7968e-05,853.82,-2.5324e-05,2.5901,-3.6199e-05,-79.121,0.060284
29600,3.515,0.090909,0.1,9.9209e-05,991.41,9.8083e-05,964.84,-2.7144e-05,23.937,-3.9691e-05,-70.338,0.056767
29601,3.515,0.45455,0.1,0.00021761,2174.6,0.00020504,1892.4,-4.4592e-05,16.781,-0.00011221,-491.25,0.059888
29602,3.6075,0.36364,0.1,0.00014575,1456.5,0.00014001,1316.7,-3.5903e-05,-5.0954,-6.7815e-05,-244.87,0.061875
29603,3.515,0.63636,0.1,0.00028994,2897.4,0.00026794,2418.7,-5.2186e-05,13.347,-0.00016016,-797.9,0.061487
29604,3.6075,0.54545,0.1,0.00020528,2051.4,0.00019302,1770.9,-4.3092e-05,-3.0984,-0.00010595,-475.4,0.063507
29605,3.515,0.81818,0.1,0.00036945,3692,0.00033583,2978.3,-5.896e-05,12.001,-0.00021448,-1156.5,0.063127
29606,3.6075,0.72727,0.1,0.00026774,2675.6,0.00024726,2224.7,-4.923e-05,-3.0111,-0.00014772,-743.03,0.065193
29607,3.515,1,0.1,0.00045925,4589.3,0.00041163,3598.4,-6.5575e-05,12.83,-0.00027673,-1573.7,0.064815
29608,3.6075,0.90909,0.1,0.00033578,3355.4,0.00030521,2701.1,-5.4727e-05,-3.3351,-0.00019455,-1053.9,0.066943
29609,3.515,1.1818,0.1,0.00056521,5648.2,0.00050057,4323,-7.3085e-05,12.797,-0.00035043,-2071.1,0.066551
29610,3.6075,1.0909,0.1,0.00041336,4130.8,0.00037027,3229.7,-5.9735e-05,-1.26,-0.00024917,-1424.6,0.068764
29611,3.515,1.3636,0.1,0.00069727,6967.9,0.00061183,5239.2,-8.2409e-05,22.953,-0.00044136,-2674.1,0.068333
29612,3.6075,1.2727,0.1,0.00050703,5066.8,0.00044813,3854.1,-6.5923e-05,-8.2497,-0.00031542,-1882.8,0.07066
29613,3.515,1.5455,0.1,0.00087734,8767.4,0.00076493,6501.3,-9.91e-05,9.3735,-0.00056244,-3472,0.070147
29614,3.6075,1.4545,0.1,0.00062945,6290.2,0.00054854,4666.4,-6.9645e-05,21.63,-0.00040417,-2491.9,0.072628
29615,3.515,1.7273,0.1,0.0011303,11295,0.001,8655.2,-0.00013983,90.836,-0.00070365,-4145.4,0.071964
29616,3.6075,1.6364,0.1,0.00079282,7922.7,0.00068926,5800,-9.4532e-05,-89.146,-0.00050955,-3207.5,0.074662
29617,3.515,1.9091,0.1,0.0013854,13845,0.0012882,11859,-0.0002261,480.63,-0.0007633,-3555.7,0.07372
29618,3.6075,1.8182,0.1,0.0011191,11183,0.00093898,7871.3,-5.4742e-05,404.94,-0.00077231,-4986.6,0.076738
29619,3.515,2.0909,0.1,0.0014642,14631,0.0014264,13756,-0.00036058,329.7,-0.00064909,-1838.1,0.075283
29620,3.6075,2,0.1,0.0021817,21802,0.0021156,20311,-0.00051038,580.85,-0.00099969,-3095.7,0.078738
29621,3.515,2.2727,0.1,0.0014003,13994,0.0013824,13512,-0.00041446,10.959,-0.0005394,-927.74,0.076598
29622,3.6075,2.1818,0.1,0.0016876,16865,0.0016616,16162,-0.00049903,-72.502,-0.00065837,-1269.7,0.080418
29623,3.515,2.4545,0.1,0.0013036,13027,0.0012904,12665,-0.00039399,9.7811,-0.00048909,-704.76,0.077611
29624,3.6075,2.3636,0.1,0.0014471,14461,0.0014277,13945,-0.00042354,35.677,-0.00056288,-1011.2,0.08171
29625,3.515,2.6364,0.1,0.0012221,12212,0.0012117,11926,-0.00037554,-0.20505,-0.00044928,-554.3,0.078324
29626,3.6075,2.5455,0.1,0.0013038,13030,0.001289,12626,-0.00039179,-2.8551,-0.00049394,-770.44,0.08264
29627,3.515,2.8182,0.1,0.0011776,11768,0.0011687,11521,-0.00036428,2.6161,-0.00042876,-481.9,0.078745
29628,3.6075,2.7273,0.1,0.0012259,12250,0.0012137,11917,-0.0003717,4.9564,-0.00045833,-645.97,0.083242
29629,3.515,3,0.1,0.0011633,11625,0.0011549,11390,-0.00036094,0.74967,-0.00042194,-457.56,0.078885
29630,3.6075,2.9091,0.1,0.001191,11902,0.00118,11599,-0.00036352,1.7962,-0.0004417,-585.55,0.083538
29631,3.515,3.1818,0.1,0.0011776,11768,0.0011687,11521,-0.00036428,2.6161,-0.00042876,-481.9,0.078745
29632,3.6075,3.0909,0.1,0.001191,11902,0.00118,11599,-0.00036352,1.7962,-0.0004417,-585.55,0.083538
29633,3.515,3.3636,0.1,0.0012221,12212,0.0012117,11926,-0.00037553,-0.20506,-0.00044928,-554.31,0.078324
29634,3.6075,3.2727,0.1,0.0012259,12250,0.0012137,11917,-0.0003717,4.9564,-0.00045833,-645.97,0.083242
29635,3.515,3.5455,0.1,0.0013036,13027,0.0012904,12665,-0.00039399,9.7811,-0.00048909,-704.76,0.077611
29636,3.6075,3.4545,0.1,0.0013038,13030,0.001289,12626,-0.00039179,-2.8551,-0.00049394,-770.44,0.08264
29637,3.515,3.7273,0.1,0.0014003,13994,0.0013824,13512,-0.00041446,10.959,-0.0005394,-927.74,0.076598
29638,3.6075,3.6364,0.1,0.0014471,14461,0.0014277,13945,-0.00042354,35.677,-0.00056288,-1011.2,0.08171
29639,3.515,3.9091,0.1,0.0014642,14631,0.0014264,13756,-0.00036058,329.7,-0.00064909,-1838.1,0.075283
29640,3.6075,3.8182,0.1,0.0016876,16865,0.0016616,16162,-0.00049903,-72.502,-0.00065837,-1269.7,0.080418
29641,3.515,4.0909,0.1,0.0013854,13845,0.0012882,11859,-0.0002261,480.63,-0.0007633,-3555.7,0.07372
29642,3.6075,4,0.1,0.0021817,21802,0.0021156,20311,-0.00051038,580.85,-0.00099969,-3095.7,0.078738
29643,3.515,4.2727,0.1,0.0011303,11295,0.001,8655.2,-0.00013983,90.836,-0.00070365,-4145.4,0.071964
29644,3.6075,4.1818,0.1,0.0011191,11183,0.00093898,7871.3,-5.4742e-05,404.94,-0.00077231,-4986.6,0.076738
29645,3.515,4.4545,0.1,0.00087734,8767.4,0.00076493,6501.3,-9.91e-05,9.3735,-0.00056244,-3472,0.070147
29646,3.6075,4.3636,0.1,0.00079282,7922.7,0.00068926,5800,-9.4532e-05,-89.146,-0.00050955,-3207.5,0.074662
29647,3.515,4.6364,0.1,0.00069727,6967.9,0.00061183,5239.2,-8.2409e-05,22.953,-0.00044136,-2674.1,0.068333
29648,3.6075,4.5455,0.1,0.00062945,6290.2,0.00054854,4666.4,-6.9645e-05,21.63,-0.00040417,-2491.9,0.072628
29649,3.515,4.8182,0.1,0.00056521,5648.2,0.00050057,4323,-7.3085e-05,12.797,-0.00035043,-2071.1,0.066551
29650,3.6075,4.7273,0.1,0.00050703,5066.8,0.00044813,3854.1,-6.5923e-05,-8.2497,-0.00031542,-1882.8,0.07066
29651,3.515,5,0.1,0.00045925,4589.3,0.00041163,3598.4,-6.5575e-05,12.83,-0.00027673,-1573.7,0.064815
29652,3.6075,4.9091,0.1,0.00041336,4130.8,0.00037027,3229.7,-5.9735e-05,-1.26,-0.00024917,-1424.6,0.068764
29653,3.515,5.1818,0.1,0.00036945,3692,0.00033583,2978.3,-5.896e-05,12.001,-0.00021448,-1156.5,0.063127
29654,3.6075,5.0909,0.1,0.00033578,3355.4,0.00030521,2701.1,-5.4727e-05,-3.3351,-0.00019455,-1053.9,0.066943
29655,3.515,5.3636,0.1,0.00028994,2897.4,0.00026794,2418.7,-5.2186e-05,13.347,-0.00016016,-797.9,0.061487
29656,3.6075,5.2727,0.1,0.00026774,2675.6,0.00024726,2224.7,-4.923e-05,-3.0111,-0.00014772,-743.03,0.065193
29657,3.515,5.5455,0.1,0.00021761,2174.6,0.00020504,1892.4,-4.4592e-05,16.781,-0.00011221,-491.25,0.059888
29658,3.6075,5.4545,0.1,0.00020528,2051.4,0.00019302,1770.9,-4.3092e-05,-3.0984,-0.00010595,-475.4,0.063507
29659,3.515,5.7273,0.1,0.00015435,1542.4,0.00014827,1404.5,-3.4703e-05,29.719,-7.3732e-05,-263.53,0.05832
29660,3.6075,5.6364,0.1,0.00014575,1456.5,0.00014001,1316.7,-3.5903e-05,-5.0954,-6.7815e-05,-244.87,0.061875
29661,3.6075,5.8182,0.1,8.9551e-05,894.89,8.7968e-05,853.82,-2.5324e-05,2.5901,-3.6199e-05,-79.121,0.060284
29662,3.515,5.9091,0.1,9.9209e-05,991.41,9.8083e-05,964.84,-2.7144e-05,23.937,-3.9691e-05,-70.338,0.056767
29663,3.8667,3.7273,0.1,0.0017392,17380,0.0017097,16595,-0.00050526,-47.931,-0.00069048,-1439.6,0.09521
29664,3.7833,3.8182,0.1,0.001923,19217,0.0018921,18376,-0.0005728,-144.79,-0.00074901,-1468.7,0.089659
29665,3.8667,3.9091,0.1,0.0023257,23241,0.0022751,22102,-0.00057324,700.17,-0.0010153,-2621.2,0.093583
29666,3.8667,3.5455,0.1,0.0014453,14443,0.0014229,13854,-0.00041774,24.03,-0.00057151,-1131.3,0.096383
29667,3.7833,3.6364,0.1,0.0015346,15335,0.0015107,14710,-0.00044058,48.939,-0.0006095,-1220.3,0.091077
29668,3.8667,3.3636,0.1,0.0013043,13034,0.0012865,12557,-0.00038451,2.006,-0.00050554,-907.38,0.097182
29669,3.7833,3.4545,0.1,0.0013532,13522,0.0013343,13018,-0.00039836,-0.8641,-0.00052565,-957.27,0.092068
29670,3.8667,3.1818,0.1,0.0012354,12345,0.00122,11932,-0.00036751,3.9575,-0.00047335,-791.26,0.097648
29671,3.7833,3.2727,0.1,0.0012576,12567,0.001242,12148,-0.00037406,5.4125,-0.00048184,-804.38,0.092702
29672,3.8667,3,0.1,0.0012147,12139,0.0012002,11745,-0.00036268,2.5854,-0.00046345,-754.56,0.097801
29673,3.7833,3.0909,0.1,0.0012165,12157,0.0012024,11775,-0.00036439,2.7039,-0.00046224,-732.47,0.093012
29674,3.8667,2.8182,0.1,0.0012354,12345,0.00122,11932,-0.00036751,3.9575,-0.00047335,-791.26,0.097648
29675,3.7833,2.9091,0.1,0.0012165,12157,0.0012024,11775,-0.00036439,2.7039,-0.00046224,-732.47,0.093012
29676,3.8667,2.6364,0.1,0.0013043,13034,0.0012865,12557,-0.00038451,2.006,-0.00050554,-907.37,0.097182
29677,3.7833,2.7273,0.1,0.0012576,12567,0.001242,12148,-0.00037406,5.4125,-0.00048184,-804.37,0.092702
29678,3.8667,2.4545,0.1,0.0014453,14443,0.0014229,13854,-0.00041774,24.03,-0.00057151,-1131.3,0.096383
29679,3.7833,2.5455,0.1,0.0013532,13522,0.0013343,13018,-0.00039836,-0.86412,-0.00052565,-957.27,0.092068
29680,3.8667,2.2727,0.1,0.0017392,17380,0.0017097,16595,-0.00050526,-47.93,-0.00069048,-1439.6,0.09521
29681,3.7833,2.3636,0.1,0.0015346,15335,0.0015107,14710,-0.00044058,48.939,-0.0006095,-1220.3,0.091077
29682,3.7833,2.1818,0.1,0.001923,19217,0.0018921,18376,-0.00057281,-144.79,-0.00074901,-1468.7,0.089659
29683,3.8667,2.0909,0.1,0.0023257,23241,0.0022751,22102,-0.00057324,700.17,-0.0010153,-2621.2,0.093583
29684,3.7,3.7273,0.1,0.0017534,17522,0.0017232,16717,-0.0005089,-53.75,-0.00069733,-1469.5,0.085885
29685,3.7,3.9091,0.1,0.0023781,23765,0.0023219,22500,-0.00057838,707.96,-0.0010506,-2839.8,0.084255
29686,3.7,3.5455,0.1,0.0014528,14518,0.0014309,13940,-0.00042135,22.955,-0.00057231,-1111.3,0.087055
29687,3.7,3.3636,0.1,0.0013092,13083,0.0012922,12626,-0.00038794,2.3831,-0.00050425,-871.54,0.087851
29688,3.7,3.1818,0.1,0.0012393,12384,0.0012249,11995,-0.00037097,4.0016,-0.00047117,-748.87,0.088315
29689,3.7,3,0.1,0.0012183,12175,0.0012047,11806,-0.00036613,2.6901,-0.00046102,-710.3,0.088467
29690,3.7,2.8182,0.1,0.0012393,12384,0.0012249,11995,-0.00037097,4.0016,-0.00047117,-748.87,0.088315
29691,3.7,2.6364,0.1,0.0013092,13083,0.0012922,12626,-0.00038794,2.3831,-0.00050425,-871.54,0.087851
29692,3.7,2.4545,0.1,0.0014528,14518,0.0014309,13940,-0.00042135,22.955,-0.00057231,-1111.3,0.087055
29693,3.7,2.2727,0.1,0.0017534,17522,0.0017232,16717,-0.0005089,-53.75,-0.00069733,-1469.5,0.085885
29694,3.7,2.0909,0.1,0.0023781,23765,0.0023219,22500,-0.00057838,707.96,-0.0010506,-2839.8,0.084255
29695,3.8667,5.7273,0.1,7.6828e-05,767.75,7.25e-05,662.83,-1.7991e-05,-17.086,-3.8316e-05,-169.8,0.07282
29696,3.8667,5.9091,0.1,2.7764e-05,277.44,2.7162e-05,261.68,-7.8375e-06,-1.2962,-1.1427e-05,-28.269,0.071054
29697,3.8667,5.8182,0.05,1.9918e-05,199.04,1.5294e-05,114.91,-4.2505e-13,6.7195e-07,-1.5294e-05,-114.91,0.07182
29698,3.8667,5.5455,0.1,0.00012096,1208.8,0.00011188,1001.8,-2.4042e-05,-19.501,-6.5743e-05,-332.83,0.07462
29699,3.8667,5.6364,0.05,4.2443e-05,424.14,3.2591e-05,244.88,-1.0324e-12,-1.5646e-06,-3.2591e-05,-244.88,0.073604
29700,3.8667,5.3636,0.1,0.00016528,1651.6,0.00015008,1319.4,-2.8289e-05,-20.762,-9.5493e-05,-525.71,0.076465
29701,3.8667,5.4545,0.05,6.477e-05,647.26,4.9736e-05,373.69,-2.623e-12,6.4345e-07,-4.9736e-05,-373.69,0.07543
29702,3.8667,5.1818,0.1,0.0002137,2135.6,0.00019085,1650.3,-3.1943e-05,-23.683,-0.00012925,-754.78,0.078365
29703,3.8667,5.2727,0.05,8.8922e-05,888.6,6.8281e-05,513.04,-2.6464e-12,6.3547e-07,-6.8281e-05,-513.04,0.077305
29704,3.8667,5,0.1,0.0002696,2694.1,0.00023712,2020,-3.5327e-05,-27.042,-0.0001691,-1032.2,0.080325
29705,3.8667,5.0909,0.05,0.00011617,1160.9,8.9207e-05,670.26,-3.1264e-12,4.9714e-07,-8.9207e-05,-670.26,0.079238
29706,3.8667,4.8182,0.1,0.00033785,3376.1,0.00029298,2460.4,-3.9181e-05,-35.368,-0.00021828,-1381.1,0.082352
29707,3.8667,4.9091,0.05,0.00014839,1482.9,0.00011394,856.13,-3.5753e-12,6.0045e-07,-0.00011394,-856.13,0.081236
29708,3.8667,4.6364,0.1,0.00042854,4282.5,0.0003662,3032.9,-4.2749e-05,-39.772,-0.00028486,-1858.9,0.084452
29709,3.8667,4.7273,0.05,0.00018877,1886.4,0.00014495,1089.1,-4.5271e-12,4.4824e-07,-0.00014495,-1089.1,0.083303
29710,3.8667,4.4545,0.1,0.00054762,5472.4,0.00046546,3815.7,-5.4902e-05,-94.081,-0.00036689,-2438.3,0.086634
29711,3.8667,4.5455,0.05,0.00024276,2425.9,0.00018641,1400.6,2.0518e-12,7.3546e-05,-0.00018641,-1400.6,0.085449
29712,3.8667,4.2727,0.1,0.00084099,8404.1,0.00068162,5360.7,-4.2144e-05,-77.33,-0.00060666,-4318.8,0.088902
29713,3.8667,4.3636,0.05,0.00032911,3288.9,0.00025272,1898.8,-1.2381e-11,-0.0001316,-0.00025272,-1898.8,0.08768
29714,3.8667,4.0909,0.1,0.0016859,16847,0.0015647,14756,-0.00019262,1552.7,-0.00096067,-4218.1,0.091315
29715,3.8667,4.1818,0.05,0.00054653,5461.5,0.00041966,3153.2,1.0157e-10,0.00091963,-0.00041966,-3153.2,0.090003
29716,3.7833,4,0.1,0.0024238,24222,0.0023756,23751,-0.0004113,2811.5,-0.001155,-2776.1,0.087689
29717,3.8667,4,0.05,0.00047056,4702.4,0.00036133,2714.9,-5.6117e-10,-0.0067679,-0.00036133,-2714.9,0.092484
29718,3.7,4.0909,0.1,0.001758,17568,0.001624,15255,-0.00019086,1618.4,-0.0010146,-4570.7,0.081932
29719,3.7,4,0.05,0.00050823,5078.8,0.00039026,2932.3,-4.9204e-10,-0.0066624,-0.00039026,-2932.3,0.083154
29720,3.7,4.2727,0.1,0.00092438,9237.5,0.00075301,5953.7,-5.0115e-05,-80.663,-0.00066232,-4680.6,0.079451
29721,3.7,4.1818,0.05,0.00059494,5945.3,0.00045684,3432.5,1.1661e-10,0.00094894,-0.00045684,-3432.5,0.080619
29722,3.7,4.4545,0.1,0.00062054,6201.1,0.00053271,4414.7,-6.7823e-05,-97.518,-0.00040839,-2656.4,0.077139
29723,3.7,4.3636,0.05,0.00036778,3675.2,0.00028241,2121.9,-7.944e-12,-0.00013894,-0.00028241,-2121.9,0.078254
29724,3.7,4.6364,0.1,0.00049716,4968.1,0.00043166,3633.1,-5.7606e-05,-42.988,-0.00032059,-2019,0.074942
29725,3.7,4.5455,0.05,0.00027618,2759.9,0.00021207,1593.4,6.3122e-12,7.7777e-05,-0.00021207,-1593.4,0.076
29726,3.7,4.8182,0.1,0.00040174,4014.7,0.00035508,3040.6,-5.4727e-05,-38.49,-0.00024925,-1500,0.072856
29727,3.7,4.7273,0.05,0.00021802,2178.7,0.00016741,1257.9,-1.78e-12,2.6139e-07,-0.00016741,-1257.9,0.073861
29728,3.7,5,0.1,0.00032812,3278.9,0.00029455,2563,-5.0578e-05,-30.136,-0.00019599,-1122.7,0.070875
29729,3.7,4.9091,0.05,0.00017372,1736,0.0001334,1002.3,-1.7795e-12,3.9796e-07,-0.0001334,-1002.3,0.07183
29730,3.7,5.1818,0.1,0.00026584,2656.6,0.00024222,2139.7,-4.6131e-05,-26.871,-0.00015225,-824.19,0.068992
29731,3.7,5.0909,0.05,0.00013768,1375.8,0.00010572,794.35,-2.6796e-12,-3.8078e-06,-0.00010572,-794.35,0.0699
29732,3.7,5.3636,0.1,0.00020972,2095.8,0.00019391,1739.1,-4.0744e-05,-24.033,-0.00011448,-578.05,0.067198
29733,3.7,5.2727,0.05,0.00010655,1064.7,8.1816e-05,614.73,-1.7378e-12,3.8933e-07,-8.1816e-05,-614.73,0.068064
29734,3.7,5.5455,0.1,0.00015609,1559.8,0.00014648,1334.1,-3.4153e-05,-23.093,-8.0307e-05,-369.88,0.065483
29735,3.7,5.4545,0.05,7.8358e-05,783.04,6.0169e-05,452.09,-2.0895e-12,-2.421e-06,-6.0169e-05,-452.09,0.066312
29736,3.7,5.7273,0.1,0.00010026,1001.9,9.5552e-05,885,-2.493e-05,-20.254,-4.7713e-05,-191.44,0.063834
29737,3.7,5.6364,0.05,5.1735e-05,516.99,3.9726e-05,298.49,-1.7834e-12,9.7814e-07,-3.9726e-05,-298.49,0.064632
29738,3.7,5.9091,0.1,3.6395e-05,363.7,3.5768e-05,347.78,-1.0114e-05,3.04,-1.4817e-05,-32.297,0.062234
29739,3.7,5.8182,0.05,2.4198e-05,241.81,1.8581e-05,139.61,-8.5286e-13,6.8871e-07,-1.8581e-05,-139.61,0.06301
29740,3.8667,0.27273,0.1,7.6828e-05,767.75,7.25e-05,662.83,-1.7991e-05,-17.086,-3.8316e-05,-169.8,0.07282
29741,3.8667,0.090909,0.1,2.7764e-05,277.44,2.7162e-05,261.68,-7.8375e-06,-1.2962,-1.1427e-05,-28.269,0.071054
29742,3.8667,0.18182,0.05,1.9918e-05,199.04,1.5294e-05,114.91,3.7464e-13,3.6524e-06,-1.5294e-05,-114.91,0.07182
29743,3.8667,0.45455,0.1,0.00012096,1208.8,0.00011188,1001.8,-2.4042e-05,-19.501,-6.5743e-05,-332.83,0.07462
29744,3.8667,0.36364,0.05,4.2443e-05,424.14,3.2591e-05,244.88,1.2985e-12,-6.6785e-07,-3.2591e-05,-244.88,0.073604
29745,3.8667,0.63636,0.1,0.00016528,1651.6,0.00015008,1319.4,-2.8289e-05,-20.762,-9.5493e-05,-525.71,0.076465
29746,3.8667,0.54545,0.05,6.477e-05,647.26,4.9736e-05,373.69,2.0947e-12,-9.6518e-07,-4.9736e-05,-373.69,0.07543
29747,3.8667,0.81818,0.1,0.0002137,2135.6,0.00019085,1650.3,-3.1943e-05,-23.683,-0.00012925,-754.78,0.078365
29748,3.8667,0.72727,0.05,8.8922e-05,888.6,6.8281e-05,513.04,2.6464e-12,-6.3547e-07,-6.8281e-05,-513.04,0.077305
29749,3.8667,1,0.1,0.0002696,2694.1,0.00023712,2020,-3.5327e-05,-27.042,-0.0001691,-1032.2,0.080325
29750,3.8667,0.90909,0.05,0.00011617,1160.9,8.9207e-05,670.26,3.559e-12,-6.6286e-07,-8.9207e-05,-670.26,0.079238
29751,3.8667,1.1818,0.1,0.00033785,3376.1,0.00029298,2460.4,-3.9181e-05,-35.368,-0.00021828,-1381.1,0.082352
29752,3.8667,1.0909,0.05,0.00014839,1482.9,0.00011394,856.13,3.5664e-12,-5.2539e-07,-0.00011394,-856.13,0.081236
29753,3.8667,1.3636,0.1,0.00042854,4282.5,0.0003662,3032.9,-4.2749e-05,-39.772,-0.00028486,-1858.9,0.084452
29754,3.8667,1.2727,0.05,0.00018877,1886.4,0.00014495,1089.1,4.5271e-12,3.7373e-06,-0.00014495,-1089.1,0.083303
29755,3.8667,1.5455,0.1,0.00054762,5472.4,0.00046546,3815.7,-5.4902e-05,-94.081,-0.00036689,-2438.3,0.086634
29756,3.8667,1.4545,0.05,0.00024276,2425.9,0.00018641,1400.6,-2.0632e-12,-7.5632e-05,-0.00018641,-1400.6,0.085449
29757,3.8667,1.7273,0.1,0.00084099,8404.1,0.00068162,5360.7,-4.2144e-05,-77.33,-0.00060666,-4318.8,0.088902
29758,3.8667,1.6364,0.05,0.00032911,3288.9,0.00025272,1898.8,1.2752e-11,0.00013913,-0.00025272,-1898.8,0.08768
29759,3.8667,1.9091,0.1,0.0016859,16847,0.0015647,14756,-0.00019262,1552.7,-0.00096067,-4218.1,0.091315
29760,3.8667,1.8182,0.05,0.00054653,5461.5,0.00041966,3153.2,-1.0516e-10,-0.00094982,-0.00041966,-3153.2,0.090003
29761,3.7833,2,0.1,0.0024238,24222,0.0023756,23751,-0.0004113,2811.5,-0.001155,-2776.1,0.087689
29762,3.8667,2,0.05,0.00047056,4702.4,0.00036133,2714.9,5.4218e-10,0.0067488,-0.00036133,-2714.9,0.092484
29763,3.7,1.9091,0.1,0.001758,17568,0.001624,15255,-0.00019086,1618.4,-0.0010146,-4570.7,0.081932
29764,3.7,2,0.05,0.00050823,5078.8,0.00039026,2932.3,5.1413e-10,0.0073474,-0.00039026,-2932.3,0.083154
29765,3.7,1.7273,0.1,0.00092438,9237.5,0.00075301,5953.7,-5.0115e-05,-80.663,-0.00066232,-4680.6,0.079451
29766,3.7,1.8182,0.05,0.00059494,5945.3,0.00045684,3432.5,-1.1071e-10,-0.00097965,-0.00045684,-3432.5,0.080619
29767,3.7,1.5455,0.1,0.00062054,6201.1,0.00053271,4414.7,-6.7823e-05,-97.518,-0.00040839,-2656.4,0.077139
29768,3.7,1.6364,0.05,0.00036778,3675.2,0.00028241,2121.9,8.3551e-12,0.00013172,-0.00028241,-2121.9,0.078253
29769,3.7,1.3636,0.1,0.00049716,4968.1,0.00043166,3633.1,-5.7606e-05,-42.988,-0.00032059,-2019,0.074942
29770,3.7,1.4545,0.05,0.00027618,2759.9,0.00021207,1593.4,-6.3122e-12,-7.9674e-05,-0.00021207,-1593.4,0.076
29771,3.7,1.1818,0.1,0.00040174,4014.7,0.00035508,3040.6,-5.4727e-05,-38.49,-0.00024925,-1500,0.072856
29772,3.7,1.2727,0.05,0.00021802,2178.7,0.00016741,1257.9,1.7956e-12,-2.6139e-07,-0.00016741,-1257.9,0.073861
29773,3.7,1,0.1,0.00032812,3278.9,0.00029455,2563,-5.0578e-05,-30.136,-0.00019599,-1122.7,0.070875
29774,3.7,1.0909,0.05,0.00017372,1736,0.0001334,1002.3,1.7795e-12,-3.9796e-07,-0.0001334,-1002.3,0.07183
29775,3.7,0.81818,0.1,0.00026584,2656.6,0.00024222,2139.7,-4.6131e-05,-26.871,-0.00015225,-824.19,0.068992
29776,3.7,0.90909,0.05,0.00013768,1375.8,0.00010572,794.35,3.5669e-12,3.6588e-06,-0.00010572,-794.35,0.0699
29777,3.7,0.63636,0.1,0.00020972,2095.8,0.00019391,1739.1,-4.0744e-05,-24.033,-0.00011448,-578.05,0.067198
29778,3.7,0.72727,0.05,0.00010655,1064.7,8.1816e-05,614.73,2.6647e-12,-5.8399e-07,-8.1816e-05,-614.73,0.068064
29779,3.7,0.45455,0.1,0.00015609,1559.8,0.00014648,1334.1,-3.4153e-05,-23.093,-8.0307e-05,-369.88,0.065483
29780,3.7,0.54545,0.05,7.8358e-05,783.04,6.0169e-05,452.09,2.0895e-12,2.2693e-06,-6.0169e-05,-452.09,0.066312
29781,3.7,0.27273,0.1,0.00010026,1001.9,9.5552e-05,885,-2.493e-05,-20.254,-4.7713e-05,-191.44,0.063834
29782,3.7,0.36364,0.05,5.1735e-05,516.99,3.9726e-05,298.49,1.7834e-12,-6.521e-07,-3.9726e-05,-298.49,0.064632
29783,3.7,0.090909,0.1,3.6395e-05,363.7,3.5768e-05,347.78,-1.0114e-05,3.04,-1.4817e-05,-32.297,0.062234
29784,3.7,0.18182,0.05,2.4198e-05,241.81,1.8581e-05,139.61,2.495e-13,-1.3774e-06,-1.8581e-05,-139.61,0.06301
29785,3.959,6,0.1,3.4019e-05,339.96,3.418e-05,346.6,-8.9403e-06,22.615,-1.2927e-05,-7.3419,0.077573
29786,3.8667,6,0.05,6.1949e-06,61.906,4.7569e-06,35.742,-3.4215e-13,-3.8615e-06,-4.7569e-06,-35.742,0.070063
29787,4.1437,6,0.1,9.7258e-05,971.91,9.6854e-05,960.41,-3.0981e-05,-0.089294,-3.3966e-05,-22.52,0.092389
29788,4.0514,6,0.05,4.4046e-06,44.015,3.3822e-06,25.412,1.6372e-13,-5.7547e-07,-3.3822e-06,-25.412,0.084878
29789,4.3284,6,0.1,0.00015646,1563.5,0.00015596,1549,-5.0493e-05,-2.1514,-5.3734e-05,-26.505,0.10728
29790,4.2361,6,0.05,1.1573e-05,115.65,8.8867e-06,66.771,-1.8364e-12,2.0331e-06,-8.8867e-06,-66.771,0.099737
29791,4.5132,6,0.1,0.00020847,2083.2,0.00020798,2069.2,-6.7457e-05,-0.29707,-7.1065e-05,-27.411,0.12227
29792,4.4208,6,0.05,1.499e-05,149.79,1.151e-05,86.483,-9.0466e-13,1.2623e-06,-1.151e-05,-86.483,0.11468
29793,4.6979,6,0.1,0.0002538,2536.2,0.00025335,2523.4,-8.2429e-05,0.47026,-8.5934e-05,-25.863,0.13741
29794,4.6055,6,0.05,1.6575e-05,165.64,1.2728e-05,95.63,-1.8187e-12,2.3841e-06,-1.2728e-05,-95.63,0.12975
29795,4.8826,6,0.1,0.00029238,2921.8,0.000292,2910.7,-9.5248e-05,1.0952,-9.8463e-05,-23.061,0.15271
29796,4.7902,6,0.05,1.687e-05,168.58,1.2954e-05,97.332,-3.6362e-12,1.9367e-06,-1.2954e-05,-97.332,0.14497
29797,5.0673,6,0.1,0.00032442,3242,0.0003241,3232.7,-0.00010596,1.3922,-0.00010879,-19.876,0.16822
29798,4.9749,6,0.05,1.6376e-05,163.64,1.2574e-05,94.479,-2.6672e-21,1.6672e-06,-1.2574e-05,-94.479,0.16038
29799,5.252,6,0.1,0.00035039,3501.5,0.00035013,3493.8,-0.00011467,1.4857,-0.0001171,-16.739,0.18395
29800,5.1596,6,0.05,1.5437e-05,154.27,1.1854e-05,89.065,3.6121e-12,9.5232e-07,-1.1854e-05,-89.065,0.176
29801,5.4367,6,0.1,0.00037091,3706.5,0.00037069,3700.3,-0.00012159,1.4314,-0.00012363,-13.881,0.19991
29802,5.3443,6,0.05,1.4306e-05,142.96,1.0985e-05,82.541,3.5722e-12,-9.8313e-08,-1.0986e-05,-82.541,0.19185
29803,5.6214,6,0.1,0.00038667,3864.1,0.0003865,3859,-0.00012693,1.2906,-0.00012862,-11.391,0.21613
29804,5.5291,6,0.05,1.3151e-05,131.42,1.0099e-05,75.878,3.5723e-12,-1.9622e-07,-1.0099e-05,-75.878,0.20794
29805,5.8061,6,0.1,0.00039839,3981.2,0.00039825,3977.1,-0.00013092,1.1057,-0.0001323,-9.2877,0.23261
29806,5.7138,6,0.05,1.2077e-05,120.69,9.274e-06,69.681,7.2337e-12,-3.544e-07,-9.274e-06,-69.681,0.22429
29807,5.9908,6,0.1,0.00040673,4064.5,0.00040662,4061.2,-0.00013377,0.90664,-0.0001349,-7.5474,0.24936
29808,5.8985,6,0.05,1.1142e-05,111.35,8.5559e-06,64.286,7.201e-12,-2.9212e-07,-8.556e-06,-64.286,0.2409
29809,6.1755,6,0.1,0.00041228,4119.9,0.00041218,4117.2,-0.00013569,0.71224,-0.0001366,-6.1311,0.26639
29810,6.0832,6,0.05,1.0371e-05,103.64,7.964e-06,59.838,7.2432e-12,-2.1973e-07,-7.964e-06,-59.838,0.2578
29811,6.3602,6,0.1,0.00041554,4152.5,0.00041547,4150.3,-0.00013684,0.53341,-0.00013757,-4.995,0.2837
29812,6.2679,6,0.05,9.7687e-06,97.619,7.5011e-06,56.36,1.0878e-11,-1.4985e-07,-7.5011e-06,-56.361,0.27496
29813,6.545,6,0.1,0.00041696,4166.8,0.0004169,4164.9,-0.00013736,0.37558,-0.00013796,-4.0974,0.30129
29814,6.4526,6,0.05,9.325e-06,93.186,7.1604e-06,53.801,1.0908e-11,-1.3713e-07,-7.1605e-06,-53.801,0.29242
29815,6.7297,6,0.1,0.0004169,4166.2,0.00041685,4164.6,-0.00013739,0.24065,-0.00013787,-3.4008,0.31917
29816,6.6373,6,0.05,9.0243e-06,90.181,6.9295e-06,52.066,1.4534e-11,-1.2677e-07,-6.9296e-06,-52.066,0.31015
29817,6.9144,6,0.1,0.00041567,4153.8,0.00041562,4152.4,-0.00013702,0.12828,-0.00013742,-2.8728,0.33733
29818,6.822,6,0.05,8.8473e-06,88.412,6.7936e-06,51.044,1.4551e-11,5.1459e-07,-6.7936e-06,-51.045,0.32817
29819,7.0991,6,0.1,0.00041349,4132,0.00041345,4130.8,-0.00013633,0.036936,-0.00013666,-2.486,0.35577
29820,7.0067,6,0.05,8.7739e-06,87.678,6.7372e-06,50.621,1.091e-11,6.0081e-07,-6.7373e-06,-50.621,0.34648
29821,7.2838,6,0.1,0.00041057,4102.9,0.00041054,4101.8,-0.00013538,-0.035581,-0.00013567,-2.2171,0.3745
29822,7.1914,6,0.05,8.785e-06,87.79,6.7458e-06,50.685,1.4551e-11,7.5053e-07,-6.7458e-06,-50.686,0.36506
29823,7.4685,6,0.1,0.00040708,4068,0.00040704,4066.9,-0.00013424,-0.091664,-0.0001345,-2.0464,0.39351
29824,7.3761,6,0.05,8.8632e-06,88.571,6.8058e-06,51.136,1.4552e-11,9.8042e-07,-6.8058e-06,-51.137,0.38393
29825,7.6532,6,0.1,0.00040313,4028.6,0.0004031,4027.5,-0.00013295,-0.1337,-0.00013319,-1.9573,0.41279
29826,7.5609,6,0.05,8.993e-06,89.868,6.9055e-06,51.885,1.455e-11,1.1397e-06,-6.9055e-06,-51.885,0.40308
29827,7.8379,6,0.1,0.00039884,3985.6,0.0003988,3984.6,-0.00013153,-0.16394,-0.00013177,-1.9355,0.43235
29828,7.7456,6,0.05,9.161e-06,91.547,7.0345e-06,52.855,1.4553e-11,1.1681e-06,-7.0346e-06,-52.855,0.4225
29829,8.0226,6,0.1,0.00039427,3940,0.00039424,3938.9,-0.00013003,-0.18445,-0.00013027,-1.969,0.45218
29830,7.9303,6,0.05,9.3562e-06,93.498,7.1844e-06,53.981,1.4548e-11,9.8152e-07,-7.1844e-06,-53.981,0.44219
29831,8.2073,6,0.1,0.0003895,3892.3,0.00038946,3891.2,-0.00012845,-0.19704,-0.0001287,-2.0474,0.47228
29832,8.115,6,0.05,9.5692e-06,95.626,7.348e-06,55.21,1.4553e-11,1.2382e-06,-7.348e-06,-55.21,0.46216
29833,8.392,6,0.1,0.00038458,3843.1,0.00038454,3842,-0.00012682,-0.2033,-0.00012708,-2.1618,0.49265
29834,8.2997,6,0.05,9.7924e-06,97.857,7.5194e-06,56.497,1.4553e-11,1.5552e-06,-7.5194e-06,-56.498,0.4824
29835,8.5768,6,0.1,0.00037954,3792.8,0.0003795,3791.5,-0.00012515,-0.2046,-0.00012543,-2.3047,0.51327
29836,8.4844,6,0.05,1.002e-05,100.13,7.694e-06,57.809,1.455e-11,1.5734e-06,-7.694e-06,-57.81,0.50289
29837,8.7615,6,0.1,0.00037442,3741.6,0.00037437,3740.3,-0.00012345,-0.20204,-0.00012376,-2.4696,0.53416
29838,8.6691,6,0.05,1.0247e-05,102.39,7.8681e-06,59.117,1.0912e-11,1.8574e-06,-7.8681e-06,-59.118,0.52365
29839,8.9462,6,0.1,0.00036924,3689.9,0.00036919,3688.4,-0.00012173,-0.19658,-0.00012206,-2.6512,0.5553
29840,8.8538,6,0.05,1.0469e-05,104.62,8.0388e-06,60.4,1.455e-11,1.4761e-06,-8.0388e-06,-60.401,0.54467
29841,9.1309,6,0.1,0.00036402,3637.7,0.00036397,3636.2,-0.00012,-0.18897,-0.00012036,-2.845,0.5767
29842,9.0385,6,0.05,1.0684e-05,106.77,8.204e-06,61.642,1.2731e-11,1.7176e-06,-8.204e-06,-61.642,0.56593
29843,9.3156,6,0.1,0.00035878,3585.3,0.00035873,3583.7,-0.00011826,-0.17983,-0.00011864,-3.0472,0.59834
29844,9.2232,6,0.05,1.089e-05,108.82,8.3621e-06,62.83,1.0912e-11,2.1744e-06,-8.3621e-06,-62.83,0.58745
29845,9.5003,6,0.1,0.00035353,3532.8,0.00035347,3531.1,-0.00011652,-0.16966,-0.00011693,-3.2546,0.62022
29846,9.408,6,0.05,1.1085e-05,110.77,8.512e-06,63.956,1.4551e-11,1.8974e-06,-8.512e-06,-63.956,0.60922
29847,9.685,6,0.1,0.00034827,3480.3,0.00034821,3478.5,-0.00011477,-0.15884,-0.00011521,-3.4649,0.64235
29848,9.5927,6,0.05,1.1269e-05,112.61,8.6529e-06,65.014,1.273e-11,2.018e-06,-8.6529e-06,-65.015,0.63123
29849,9.8697,6,0.1,0.00034301,3427.8,0.00034295,3425.9,-0.00011303,-0.14768,-0.00011349,-3.6759,0.66471
29850,9.7774,6,0.05,1.144e-05,114.32,8.7844e-06,66.002,1.2732e-11,1.9597e-06,-8.7844e-06,-66.003,0.65347
29851,10.054,6,0.1,0.00033777,3375.4,0.0003377,3373.3,-0.00011128,-0.13644,-0.00011178,-3.8861,0.68731
29852,9.9621,6,0.05,1.1599e-05,115.91,8.9062e-06,66.918,1.4551e-11,2.4377e-06,-8.9063e-06,-66.918,0.67595
29853,10.239,6,0.1,0.00033253,3323.1,0.00033246,3320.9,-0.00010954,-0.12529,-0.00011007,-4.0943,0.71014
29854,10.147,6,0.05,1.1745e-05,117.37,9.0184e-06,67.761,1.2731e-11,2.2606e-06,-9.0185e-06,-67.761,0.69867
29855,10.424,6,0.1,0.00032732,3270.9,0.00032724,3268.7,-0.00010781,-0.11434,-0.00010837,-4.2993,0.7332
29856,10.331,6,0.05,1.1878e-05,118.7,9.1211e-06,68.532,1.4553e-11,2.4998e-06,-9.1211e-06,-68.533,0.72161
29857,10.609,6,0.1,0.00032212,3218.9,0.00032204,3216.6,-0.00010608,-0.10371,-0.00010667,-4.5007,0.75647
29858,10.516,6,0.05,1.2e-05,119.92,9.2144e-06,69.234,1.2733e-11,2.5112e-06,-9.2145e-06,-69.234,0.74478
29859,10.793,6,0.1,0.00031693,3167.2,0.00031685,3164.8,-0.00010436,-0.09349,-0.00010498,-4.698,0.77997
29860,10.701,6,0.05,1.211e-05,121.01,9.2988e-06,69.867,1.2732e-11,2.6206e-06,-9.2988e-06,-69.867,0.76817
29861,10.978,6,0.1,0.00031177,3115.6,0.00031169,3113.1,-0.00010265,-0.083703,-0.00010329,-4.8907,0.80368
29862,10.886,6,0.05,1.2208e-05,122,9.3744e-06,70.435,1.2733e-11,2.3141e-06,-9.3744e-06,-70.436,0.79177
29863,11.163,6,0.1,0.00030663,3064.2,0.00030655,3061.6,-0.00010094,-0.074394,-0.00010161,-5.0788,0.82761
29864,11.07,6,0.05,1.2296e-05,122.87,9.4417e-06,70.941,1.4552e-11,2.8002e-06,-9.4418e-06,-70.942,0.81559
29865,11.347,6,0.1,0.00030152,3013.1,0.00030143,3010.4,-9.9245e-05,-0.065571,-9.9937e-05,-5.2623,0.85174
29866,11.255,6,0.05,1.2373e-05,123.65,9.5012e-06,71.388,1.2734e-11,3.2242e-06,-9.5012e-06,-71.389,0.83962
29867,11.532,6,0.1,0.00029642,2962.2,0.00029633,2959.4,-9.7554e-05,-0.057217,-9.8271e-05,-5.4411,0.87608
29868,11.44,6,0.05,1.2441e-05,124.32,9.5532e-06,71.779,1.0915e-11,2.747e-06,-9.5532e-06,-71.779,0.86386
29869,11.717,6,0.1,0.00029135,2911.5,0.00029125,2908.6,-9.5871e-05,-0.049325,-9.6612e-05,-5.6155,0.90062
29870,11.624,6,0.05,1.25e-05,124.91,9.5981e-06,72.116,1.2733e-11,2.6221e-06,-9.5981e-06,-72.117,0.8883
29871,11.902,6,0.1,0.0002863,2861,0.0002862,2858.1,-9.4195e-05,-0.041907,-9.496e-05,-5.7854,0.92536
29872,11.809,6,0.05,1.2549e-05,125.41,9.6363e-06,72.404,1.0913e-11,3.333e-06,-9.6364e-06,-72.404,0.91294
29873,12.086,6,0.1,0.00028127,2810.8,0.00028117,2807.8,-9.2527e-05,-0.034955,-9.3315e-05,-5.9514,0.95029
29874,11.994,6,0.05,1.2591e-05,125.82,9.6683e-06,72.644,1.0914e-11,2.4435e-06,-9.6684e-06,-72.644,0.93778
29875,12.271,6,0.1,0.00027627,2760.8,0.00027616,2757.7,-9.0867e-05,-0.028412,-9.1677e-05,-6.1135,0.97542
29876,12.179,6,0.05,1.2625e-05,126.16,9.6944e-06,72.84,1.0914e-11,3.0992e-06,-9.6945e-06,-72.841,0.96281
29877,12.456,6,0.1,0.00027128,2711,0.00027118,2707.8,-8.9215e-05,-0.022271,-9.0047e-05,-6.272,1.0007
29878,12.363,6,0.05,1.2652e-05,126.43,9.715e-06,72.995,1.0914e-11,3.6406e-06,-9.7151e-06,-72.995,0.98803
29879,12.64,6,0.1,0.00026633,2661.4,0.00026622,2658.2,-8.757e-05,-0.016525,-8.8423e-05,-6.4273,1.0262
29880,12.548,6,0.05,1.2672e-05,126.63,9.7304e-06,73.111,9.0949e-12,3.0994e-06,-9.7305e-06,-73.111,1.0134
29881,12.825,6,0.1,0.00026139,2612.1,0.00026128,2608.8,-8.5933e-05,-0.011131,-8.6807e-05,-6.5796,1.0519
29882,12.733,6,0.05,1.2686e-05,126.77,9.741e-06,73.19,1.0914e-11,3.9935e-06,-9.741e-06,-73.19,1.039
29883,13.01,6,0.1,0.00025647,2563,0.00025636,2559.6,-8.4303e-05,-0.0060785,-8.5198e-05,-6.7294,1.0778
29884,12.917,6,0.05,1.2693e-05,126.85,9.747e-06,73.235,9.0949e-12,3.159e-06,-9.747e-06,-73.235,1.0648
29885,13.194,6,0.1,0.00025158,2514.1,0.00025146,2510.6,-8.2681e-05,-0.001339,-8.3596e-05,-6.8769,1.1038
29886,13.102,6,0.05,1.2696e-05,126.87,9.7487e-06,73.248,9.0949e-12,3.2778e-06,-9.7487e-06,-73.248,1.0907
29887,13.379,6,0.1,0.00024671,2465.4,0.00024659,2461.9,-8.1066e-05,0.003128,-8.2001e-05,-7.0223,1.13
29888,13.287,6,0.05,1.2693e-05,126.84,9.7465e-06,73.231,1.0914e-11,3.9935e-06,-9.7465e-06,-73.231,1.1168
29889,13.564,6,0.1,0.00024186,2417,0.00024174,2413.4,-7.9459e-05,0.007345,-8.0413e-05,-7.1661,1.1564
29890,13.472,6,0.05,1.2685e-05,126.76,9.7404e-06,73.186,7.2759e-12,3.6955e-06,-9.7404e-06,-73.186,1.1431
29891,13.749,6,0.1,0.00023704,2368.7,0.00023691,2365.1,-7.7858e-05,0.011321,-7.8833e-05,-7.3086,1.1829
29892,13.656,6,0.05,1.2672e-05,126.64,9.7308e-06,73.113,9.0948e-12,3.3975e-06,-9.7308e-06,-73.114,1.1696
29893,13.933,6,0.1,0.00023223,2320.7,0.0002321,2317,-7.6265e-05,0.015073,-7.7259e-05,-7.45,1.2096
29894,13.841,6,0.05,1.2655e-05,126.47,9.7178e-06,73.016,9.0948e-12,4.0519e-06,-9.7179e-06,-73.016,1.1962
29895,14.118,6,0.1,0.00022745,2272.9,0.00022732,2269.1,-7.4679e-05,0.018636,-7.5692e-05,-7.5907,1.2364
29896,14.026,6,0.05,1.2635e-05,126.26,9.7017e-06,72.895,1.0914e-11,4.5284e-06,-9.7017e-06,-72.895,1.223
29897,14.303,6,0.1,0.00022268,2225.3,0.00022255,2221.4,-7.3101e-05,0.022019,-7.4132e-05,-7.731,1.2634
29898,14.21,6,0.05,1.261e-05,126.01,9.6826e-06,72.751,7.2757e-12,4.3511e-06,-9.6826e-06,-72.751,1.2499
29899,14.487,6,0.1,0.00021794,2177.9,0.00021781,2174,-7.1529e-05,0.025246,-7.258e-05,-7.8711,1.2906
29900,14.395,6,0.05,1.2581e-05,125.72,9.6606e-06,72.586,7.2757e-12,4.053e-06,-9.6606e-06,-72.586,1.277
29901,14.672,6,0.1,0.00021322,2130.8,0.00021309,2126.8,-6.9964e-05,0.028351,-7.1034e-05,-8.0113,1.3179
29902,14.58,6,0.05,1.2549e-05,125.4,9.6359e-06,72.4,7.2759e-12,4.7087e-06,-9.6359e-06,-72.4,1.3042
29903,14.857,6,0.1,0.00020852,2083.8,0.00020838,2079.7,-6.8406e-05,0.031353,-6.9495e-05,-8.1519,1.3454
29904,14.765,6,0.05,1.2513e-05,125.05,9.6085e-06,72.195,9.0949e-12,4.4106e-06,-9.6085e-06,-72.195,1.3316
29905,15.042,6,0.1,0.00020384,2037,0.0002037,2032.9,-6.6855e-05,0.034257,-6.7963e-05,-8.2932,1.373
29906,14.949,6,0.05,1.2474e-05,124.66,9.5787e-06,71.97,1.0914e-11,4.7683e-06,-9.5787e-06,-71.97,1.3591
29907,15.226,6,0.1,0.00019919,1990.5,0.00019904,1986.3,-6.531e-05,0.037076,-6.6438e-05,-8.4355,1.4007
29908,15.134,6,0.05,1.2432e-05,124.24,9.5463e-06,71.727,7.2763e-12,3.8179e-06,-9.5464e-06,-71.728,1.3868
29909,15.411,6,0.1,0.00019455,1944.2,0.0001944,1939.9,-6.3773e-05,0.039841,-6.492e-05,-8.5788,1.4285
29910,15.319,6,0.05,1.2387e-05,123.78,9.5116e-06,71.467,7.2755e-12,3.5129e-06,-9.5117e-06,-71.467,1.4146
29911,15.596,6,0.1,0.00018993,1898,0.00018978,1893.7,-6.2242e-05,0.042557,-6.3409e-05,-8.7236,1.4565
29912,15.503,6,0.05,1.2339e-05,123.3,9.4746e-06,71.188,5.4569e-12,5.5988e-06,-9.4746e-06,-71.189,1.4425
29913,15.78,6,0.1,0.00018534,1852.1,0.00018519,1847.7,-6.0718e-05,0.04525,-6.1904e-05,-8.8701,1.4847
29914,15.688,6,0.05,1.2288e-05,122.79,9.4353e-06,70.893,7.2759e-12,5.5471e-06,-9.4353e-06,-70.893,1.4706
29915,15.965,6,0.1,0.00018076,1806.4,0.00018061,1801.9,-5.92e-05,0.047949,-6.0407e-05,-9.0183,1.5129
29916,15.873,6,0.05,1.2233e-05,122.25,9.3937e-06,70.58,5.4564e-12,4.5252e-06,-9.3937e-06,-70.58,1.4988
29917,16.15,6,0.1,0.00017621,1760.9,0.00017605,1756.3,-5.7689e-05,0.050648,-5.8916e-05,-9.1687,1.5413
29918,16.057,6,0.05,1.2176e-05,121.68,9.3498e-06,70.251,5.4569e-12,5.4237e-06,-9.3498e-06,-70.251,1.5271
29919,16.335,6,0.1,0.00017167,1715.5,0.00017151,1710.9,-5.6185e-05,0.05337,-5.7433e-05,-9.3214,1.5698
29920,16.242,6,0.05,1.2116e-05,121.08,9.3036e-06,69.904,6.3658e-12,4.2912e-06,-9.3036e-06,-69.904,1.5555
29921,16.519,6,0.1,0.00016716,1670.4,0.00016699,1665.7,-5.4687e-05,0.056145,-5.5956e-05,-9.4764,1.5984
29922,16.427,6,0.05,1.2053e-05,120.45,9.2552e-06,69.54,5.4563e-12,5.2991e-06,-9.2552e-06,-69.54,1.5841
29923,16.704,6,0.1,0.00016266,1625.5,0.0001625,1620.7,-5.3195e-05,0.058992,-5.4485e-05,-9.6342,1.6271
29924,16.612,6,0.05,1.1987e-05,119.79,9.2043e-06,69.158,6.3651e-12,5.1144e-06,-9.2044e-06,-69.158,1.6127
29925,16.889,6,0.1,0.00015819,1580.8,0.00015802,1575.9,-5.171e-05,0.061916,-5.3022e-05,-9.7947,1.656
29926,16.796,6,0.05,1.1917e-05,119.09,9.1511e-06,68.758,6.3657e-12,7.0866e-06,-9.1512e-06,-68.758,1.6415
29927,17.073,6,0.1,0.00015373,1536.2,0.00015356,1531.3,-5.0231e-05,0.064934,-5.1565e-05,-9.9583,1.6849
29928,16.981,6,0.05,1.1845e-05,118.37,9.0955e-06,68.34,5.4584e-12,4.4762e-06,-9.0955e-06,-68.34,1.6704
29929,17.258,6,0.1,0.00014929,1491.9,0.00014912,1486.8,-4.8759e-05,0.068075,-5.0115e-05,-10.125,1.7139
29930,17.166,6,0.05,1.1769e-05,117.61,9.0372e-06,67.902,5.4569e-12,5.96e-06,-9.0373e-06,-67.902,1.6994
29931,17.443,6,0.1,0.00014488,1447.8,0.0001447,1442.6,-4.7292e-05,0.071351,-4.8672e-05,-10.295,1.7431
29932,17.35,6,0.05,1.169e-05,116.82,8.9764e-06,67.445,5.4569e-12,5.1256e-06,-8.9764e-06,-67.445,1.7285
29933,17.628,6,0.1,0.00014048,1403.8,0.0001403,1398.6,-4.5832e-05,0.074786,-4.7235e-05,-10.468,1.7723
29934,17.535,6,0.05,1.1607e-05,115.99,8.9127e-06,66.967,3.637e-12,5.4162e-06,-8.9127e-06,-66.967,1.7577
29935,17.812,6,0.1,0.0001361,1360.1,0.00013592,1354.7,-4.4378e-05,0.07841,-4.5805e-05,-10.645,1.8017
29936,17.72,6,0.05,1.152e-05,115.12,8.8462e-06,66.467,5.4569e-12,1.4976e-05,-8.8462e-06,-66.467,1.787
29937,17.997,6,0.1,0.00013174,1316.5,0.00013155,1311.1,-4.293e-05,0.082244,-4.4382e-05,-10.825,1.8311
29938,17.905,6,0.05,1.143e-05,114.22,8.7766e-06,65.944,4.5494e-12,4.6055e-06,-8.7766e-06,-65.944,1.8163
29939,18.182,6,0.1,0.0001274,1273.1,0.00012721,1267.6,-4.1488e-05,0.086308,-4.2964e-05,-11.008,1.8606
29940,18.089,6,0.05,1.1335e-05,113.27,8.7038e-06,65.397,3.6368e-12,-2.2147e-06,-8.7038e-06,-65.397,1.8458
29941,18.366,6,0.1,0.00012308,1229.9,0.00012288,1224.3,-4.0052e-05,0.090624,-4.1554e-05,-11.196,1.8902
29942,18.274,6,0.05,1.1236e-05,112.28,8.6275e-06,64.824,4.5452e-12,8.4035e-06,-8.6275e-06,-64.824,1.8754
29943,18.551,6,0.1,0.00011877,1186.9,0.00011858,1181.2,-3.8621e-05,0.095228,-4.0149e-05,-11.386,1.9199
29944,18.459,6,0.05,1.1131e-05,111.24,8.5476e-06,64.223,4.5497e-12,5.9794e-06,-8.5476e-06,-64.223,1.905
29945,18.736,6,0.1,0.00011449,1144.1,0.00011429,1138.3,-3.7197e-05,0.10014,-3.8751e-05,-11.58,1.9497
29946,18.643,6,0.05,1.1022e-05,110.15,8.4638e-06,63.594,4.5486e-12,6.4366e-06,-8.4638e-06,-63.594,1.9347
29947,18.92,6,0.1,0.00011022,1101.4,0.00011001,1095.5,-3.5778e-05,0.1054,-3.736e-05,-11.778,1.9795
29948,18.828,6,0.05,1.0908e-05,109,8.3759e-06,62.933,3.6352e-12,6.3658e-06,-8.3759e-06,-62.933,1.9645
29949,19.105,6,0.1,0.00010597,1058.9,0.00010576,1053,-3.4365e-05,0.11105,-3.5974e-05,-11.978,2.0094
29950,19.013,6,0.05,1.0788e-05,107.8,8.2835e-06,62.239,3.6393e-12,7.4018e-06,-8.2835e-06,-62.239,1.9944
29951,19.29,6,0.1,0.00010173,1016.6,0.00010152,1010.6,-3.2957e-05,0.11711,-3.4594e-05,-12.182,2.0394
29952,19.198,6,0.05,1.0661e-05,106.54,8.1863e-06,61.509,3.6408e-12,7.7133e-06,-8.1863e-06,-61.509,2.0244
29953,19.475,6,0.1,9.7519e-05,974.51,9.7304e-05,968.32,-3.1555e-05,0.12363,-3.322e-05,-12.388,2.0695
29954,19.382,6,0.05,1.0528e-05,105.21,8.0841e-06,60.741,3.6394e-12,5.3901e-06,-8.0841e-06,-60.741,2.0544
29955,19.659,6,0.1,9.332e-05,932.55,9.3101e-05,926.26,-3.0158e-05,0.13065,-3.1852e-05,-12.596,2.0996
29956,19.567,6,0.05,1.0388e-05,103.8,7.9763e-06,59.931,3.6378e-12,6.6603e-06,-7.9763e-06,-59.931,2.0845
29957,19.844,6,0.1,8.9138e-05,890.76,8.8915e-05,884.36,-2.8767e-05,0.13823,-3.049e-05,-12.806,2.1298
29958,19.752,6,0.05,1.0239e-05,102.32,7.8626e-06,59.077,3.6378e-12,7.3896e-06,-7.8626e-06,-59.077,2.1146
29959,20.029,6,0.1,8.4972e-05,849.13,8.4745e-05,842.62,-2.7381e-05,0.14641,-2.9133e-05,-13.018,2.16
29960,19.936,6,0.05,1.0083e-05,100.76,7.7425e-06,58.174,3.1811e-12,7.6711e-06,-7.7425e-06,-58.174,2.1449
29961,20.213,6,0.1,8.0822e-05,807.67,8.0592e-05,801.05,-2.6e-05,0.15525,-2.7782e-05,-13.23,2.1903
29962,20.121,6,0.05,9.9177e-06,99.108,7.6155e-06,57.22,2.7304e-12,8.7424e-06,-7.6155e-06,-57.22,2.1751
29963,20.398,6,0.1,7.6689e-05,766.36,7.6454e-05,759.63,-2.4625e-05,0.16482,-2.6436e-05,-13.441,2.2207
29964,20.306,6,0.05,9.7426e-06,97.358,7.4811e-06,56.21,2.7305e-12,4.6962e-06,-7.4811e-06,-56.21,2.2055
29965,20.583,6,0.1,7.2571e-05,725.21,7.2332e-05,718.37,-2.3254e-05,0.17519,-2.5094e-05,-13.651,2.2511
29966,20.491,6,0.05,9.5569e-06,95.503,7.3385e-06,55.139,2.7307e-12,7.8569e-06,-7.3385e-06,-55.139,2.2358
29967,20.768,6,0.1,6.8468e-05,684.21,6.8225e-05,677.26,-2.1889e-05,0.18645,-2.3758e-05,-13.859,2.2815
29968,20.675,6,0.05,9.3599e-06,93.534,7.1872e-06,54.002,1.8215e-12,8.4327e-06,-7.1872e-06,-54.002,2.2663
29969,20.952,6,0.1,6.4381e-05,643.36,6.4133e-05,636.31,-2.0529e-05,0.1987,-2.2427e-05,-14.063,2.312
29970,20.86,6,0.05,9.1504e-06,91.441,7.0264e-06,52.793,1.8247e-12,8.3876e-06,-7.0264e-06,-52.793,2.2967
29971,21.137,6,0.1,6.0309e-05,602.67,6.0057e-05,595.52,-1.9173e-05,0.21205,-2.11e-05,-14.262,2.3425
29972,21.045,6,0.05,8.9274e-06,89.213,6.8552e-06,51.507,2.2799e-12,8.2192e-06,-6.8552e-06,-51.507,2.3273
29973,21.322,6,0.1,5.6252e-05,562.13,5.5996e-05,554.88,-1.7824e-05,0.22663,-1.9777e-05,-14.453,2.3731
29974,21.229,6,0.05,8.6898e-06,86.838,6.6727e-06,50.136,1.3604e-12,4.9451e-06,-6.6727e-06,-50.136,2.3578
29975,21.506,6,0.1,5.2211e-05,521.75,5.195e-05,514.39,-1.6479e-05,0.24261,-1.8459e-05,-14.635,2.4037
29976,21.414,6,0.05,8.436e-06,84.302,6.4778e-06,48.672,1.8148e-12,9.7722e-06,-6.4778e-06,-48.672,2.3884
29977,21.691,6,0.1,4.8185e-05,481.52,4.792e-05,474.07,-1.514e-05,0.26018,-1.7145e-05,-14.804,2.4344
29978,21.599,6,0.05,8.1646e-06,81.589,6.2694e-06,47.106,9.0485e-13,8.3716e-06,-6.2694e-06,-47.106,2.419
29979,21.876,6,0.1,4.4175e-05,441.45,4.3906e-05,433.91,-1.3807e-05,0.27959,-1.5835e-05,-14.957,2.4651
29980,21.783,6,0.05,7.8737e-06,78.683,6.046e-06,45.428,1.3687e-12,7.1097e-06,-6.046e-06,-45.428,2.4497
29981,22.061,6,0.1,4.0183e-05,401.55,3.9909e-05,393.93,-1.248e-05,0.30114,-1.4529e-05,-15.09,2.4958
29982,21.968,6,0.05,7.5613e-06,75.561,5.8062e-06,43.625,1.3744e-12,7.5141e-06,-5.8062e-06,-43.625,2.4804
29983,22.245,6,0.1,3.6209e-05,361.84,3.5931e-05,354.15,-1.1161e-05,0.32525,-1.3227e-05,-15.198,2.5265
29984,22.153,6,0.05,7.225e-06,72.2,5.5479e-06,41.685,1.8182e-12,8.8202e-06,-5.5479e-06,-41.685,2.5111
29985,22.43,6,0.1,3.2255e-05,322.33,3.1973e-05,314.59,-9.8489e-06,0.35245,-1.1928e-05,-15.273,2.5573
29986,22.338,6,0.05,6.8618e-06,68.571,5.269e-06,39.589,1.367e-12,9.5582e-06,-5.269e-06,-39.589,2.5419
29987,22.615,6,0.1,2.8325e-05,283.06,2.8039e-05,275.27,-8.5463e-06,0.38349,-1.0635e-05,-15.307,2.5881
29988,22.522,6,0.05,6.4682e-06,64.637,4.9668e-06,37.318,1.359e-12,5.8527e-06,-4.9668e-06,-37.318,2.5727
29989,22.799,6,0.1,2.4423e-05,244.06,2.4132e-05,236.25,-7.2548e-06,0.41935,-9.3451e-06,-15.286,2.6189
29990,22.707,6,0.05,6.0396e-06,60.354,4.6377e-06,34.846,1.136e-12,9.8009e-06,-4.6377e-06,-34.846,2.6034
29991,22.984,6,0.1,2.0555e-05,205.4,2.0259e-05,197.59,-5.9771e-06,0.46194,-8.0607e-06,-15.193,2.6497
29992,22.892,6,0.05,5.5702e-06,55.664,4.2772e-06,32.137,7.8402e-13,6.5746e-06,-4.2772e-06,-32.137,2.6342
29993,23.169,6,0.1,1.673e-05,167.19,1.643e-05,159.41,-4.7174e-06,0.51216,-6.7819e-06,-14.999,2.6805
29994,23.076,6,0.05,5.052e-06,50.485,3.8793e-06,29.148,1.0223e-12,1.0428e-05,-3.8793e-06,-29.148,2.6651
29995,23.354,6,0.1,1.2965e-05,129.56,1.2659e-05,121.86,-3.4825e-06,0.5815,-5.5085e-06,-14.641,2.7113
29996,23.261,6,0.05,4.4734e-06,44.703,3.435e-06,25.809,9.5863e-13,9.8498e-06,-3.435e-06,-25.809,2.6959
29997,23.538,6,0.1,9.2908e-06,92.844,8.9747e-06,85.263,-2.285e-06,0.66166,-4.2448e-06,-14.064,2.7422
29998,23.446,6,0.05,3.8163e-06,38.136,2.9304e-06,22.018,9.5033e-13,7.4398e-06,-2.9304e-06,-22.018,2.7267
29999,23.723,6,0.1,5.7345e-06,57.305,5.4165e-06,50.276,-1.1576e-06,0.8812,-2.9455e-06,-12.553,2.773
30000,23.631,6,0.05,3.0459e-06,30.438,2.3389e-06,17.573,7.7933e-13,9.9428e-06,-2.3389e-06,-17.573,2.7576
30001,23.908,6,0.1,2.4023e-06,24.006,2.1287e-06,18.648,-2.6556e-07,0.65871,-1.4992e-06,-8.6105,2.8039
30002,23.815,6,0.05,2.0529e-06,20.515,1.5764e-06,11.844,4.3918e-13,7.5847e-06,-1.5764e-06,-11.844,2.7884
30003,24,5.9091,0.1,2.3238e-06,23.221,1.3394e-06,5.8934,2.3947e-07,-2.371,-2.1507e-06,-20.33,2.8194
30004,24,6,0.05,7.8682e-07,7.8628,6.0418e-07,4.5396,3.4442e-12,3.6519e-05,-6.0418e-07,-4.5396,2.8193
30005,24,5.7273,0.1,5.3342e-06,53.305,2.4287e-06,6.942,1.2151e-06,-2.1764,-5.1942e-06,-50.334,2.8195
30006,24,5.8182,0.05,7.0043e-07,6.9994,5.3784e-07,4.0411,9.3071e-13,1.3566e-05,-5.3784e-07,-4.0411,2.8194
30007,24,5.5455,0.1,7.7632e-06,77.579,3.2616e-06,7.2008,2.0012e-06,-2.2688,-7.6358e-06,-74.678,2.8197
30008,24,5.6364,0.05,8.0222e-07,8.0166,6.16e-07,4.6284,8.9412e-13,1.5249e-05,-6.16e-07,-4.6284,2.8196
30009,24,5.3636,0.1,9.6964e-06,96.897,3.9146e-06,7.2843,2.6277e-06,-2.385,-9.5768e-06,-94.085,2.8198
30010,24,5.4545,0.05,8.9071e-07,8.9009,6.8395e-07,5.139,1.1985e-12,1.593e-05,-6.8395e-07,-5.1389,2.8197
30011,24,5.1818,0.1,1.1324e-05,113.16,4.4559e-06,7.2948,3.1629e-06,-2.4198,-1.1209e-05,-110.41,2.8199
30012,24,5.2727,0.05,9.3868e-07,9.3803,7.2079e-07,5.4157,1.276e-12,1.9373e-05,-7.2079e-07,-5.4157,2.8199
30013,24,5,0.1,1.2718e-05,127.1,4.9163e-06,7.265,3.6234e-06,-2.4493,-1.2609e-05,-124.41,2.8201
30014,24,5.0909,0.05,9.6052e-07,9.5985,7.3756e-07,5.5417,9.2896e-13,1.7144e-05,-7.3756e-07,-5.5417,2.82
30015,24,4.8182,0.1,1.3924e-05,139.15,5.3123e-06,7.2203,4.0227e-06,-2.469,-1.3818e-05,-136.52,2.8202
30016,24,4.9091,0.05,9.6429e-07,9.6362,7.4045e-07,5.5635,1.194e-12,1.749e-05,-7.4045e-07,-5.5635,2.8201
30017,24,4.6364,0.1,1.4968e-05,149.58,5.6539e-06,7.1692,4.3692e-06,-2.4842,-1.4865e-05,-147,2.8203
30018,24,4.7273,0.05,9.5543e-07,9.5477,7.3365e-07,5.5124,1.2655e-12,2.1362e-05,-7.3365e-07,-5.5123,2.8202
30019,24,4.4545,0.1,1.587e-05,158.59,5.9482e-06,7.1175,4.6687e-06,-2.4959,-1.5769e-05,-156.06,2.8204
30020,24,4.5455,0.05,9.3794e-07,9.3729,7.2022e-07,5.4115,1.3173e-12,2.1415e-05,-7.2022e-07,-5.4115,2.8203
30021,24,4.2727,0.1,1.6642e-05,166.31,6.1999e-06,7.0683,4.9257e-06,-2.505,-1.6544e-05,-163.82,2.8205
30022,24,4.3636,0.05,9.1492e-07,9.1429,7.0255e-07,5.2787,1.6302e-12,2.0042e-05,-7.0255e-07,-5.2786,2.8204
30023,24,4.0909,0.1,1.7296e-05,172.84,6.4125e-06,7.0235,5.1434e-06,-2.5122,-1.72e-05,-170.39,2.8206
30024,24,4.1818,0.05,8.889e-07,8.8829,6.8257e-07,5.1285,1.1242e-12,1.761e-05,-6.8257e-07,-5.1285,2.8205
30025,24,3.9091,0.1,1.7838e-05,178.26,6.5887e-06,6.9843,5.3241e-06,-2.5178,-1.7743e-05,-175.84,2.8206
30026,24,4,0.05,8.6205e-07,8.6146,6.6195e-07,4.9736,1.4763e-12,2.0874e-05,-6.6195e-07,-4.9736,2.8206
30027,24,3.7273,0.1,1.8275e-05,182.63,6.7306e-06,6.9515,5.4697e-06,-2.5221,-1.8182e-05,-180.23,2.8207
30028,24,3.8182,0.05,8.3629e-07,8.3571,6.4217e-07,4.825,1.3575e-12,1.937e-05,-6.4217e-07,-4.825,2.8206
30029,24,3.5455,0.1,1.8611e-05,185.98,6.8395e-06,6.9256,5.5817e-06,-2.5253,-1.8518e-05,-183.6,2.8207
30030,24,3.6364,0.05,8.1332e-07,8.1276,6.2453e-07,4.6925,1.1083e-12,1.7114e-05,-6.2453e-07,-4.6925,2.8207
30031,24,3.3636,0.1,1.8849e-05,188.36,6.9166e-06,6.9069,5.661e-06,-2.5275,-1.8757e-05,-185.99,2.8208
30032,24,3.4545,0.05,7.9463e-07,7.9408,6.1017e-07,4.5846,1.1562e-12,1.3808e-05,-6.1017e-07,-4.5846,2.8207
30033,24,3.1818,0.1,1.8991e-05,189.78,6.9626e-06,6.8956,5.7083e-06,-2.5288,-1.8899e-05,-187.42,2.8208
30034,24,3.2727,0.05,7.8143e-07,7.8089,6.0004e-07,4.5085,8.1616e-13,1.4513e-05,-6.0004e-07,-4.5085,2.8208
30035,24,3,0.1,1.9038e-05,190.25,6.9779e-06,6.8918,5.724e-06,-2.5292,-1.8946e-05,-187.89,2.8208
30036,24,3.0909,0.05,7.746e-07,7.7406,5.948e-07,4.4691,4.2446e-13,7.4037e-06,-5.948e-07,-4.4691,2.8208
30037,24,2.8182,0.1,1.8991e-05,189.78,6.9626e-06,6.8956,5.7083e-06,-2.5288,-1.8899e-05,-187.42,2.8208
30038,24,2.9091,0.05,7.746e-07,7.7406,5.948e-07,4.4691,3.4336e-14,7.8819e-06,-5.948e-07,-4.4691,2.8208
30039,24,2.6364,0.1,1.8849e-05,188.36,6.9166e-06,6.9069,5.661e-06,-2.5275,-1.8757e-05,-185.99,2.8208
30040,24,2.7273,0.05,7.8143e-07,7.8089,6.0004e-07,4.5085,1.2002e-13,9.8551e-07,-6.0004e-07,-4.5085,2.8208
30041,24,2.4545,0.1,1.8611e-05,185.98,6.8395e-06,6.9256,5.5817e-06,-2.5253,-1.8518e-05,-183.6,2.8207
30042,24,2.5455,0.05,7.9463e-07,7.9408,6.1018e-07,4.5846,2.304e-13,5.6231e-06,-6.1017e-07,-4.5846,2.8207
30043,24,2.2727,0.1,1.8275e-05,182.63,6.7306e-06,6.9515,5.4697e-06,-2.5221,-1.8182e-05,-180.23,2.8207
30044,24,2.3636,0.05,8.1332e-07,8.1276,6.2453e-07,4.6925,3.1767e-13,2.7211e-06,-6.2453e-07,-4.6925,2.8207
30045,24,2.0909,0.1,1.7838e-05,178.26,6.5887e-06,6.9843,5.3241e-06,-2.5178,-1.7743e-05,-175.84,2.8206
30046,24,2.1818,0.05,8.3629e-07,8.3571,6.4217e-07,4.825,4.0085e-13,3.3912e-06,-6.4217e-07,-4.825,2.8206
30047,24,1.9091,0.1,1.7296e-05,172.84,6.4125e-06,7.0235,5.1434e-06,-2.5122,-1.72e-05,-170.39,2.8206
30048,24,2,0.05,8.6205e-07,8.6146,6.6195e-07,4.9736,-2.7141e-13,3.9781e-06,-6.6195e-07,-4.9736,2.8206
30049,24,1.7273,0.1,1.6642e-05,166.31,6.1999e-06,7.0683,4.9257e-06,-2.505,-1.6544e-05,-163.82,2.8205
30050,24,1.8182,0.05,8.889e-07,8.8829,6.8257e-07,5.1285,-5.1344e-14,-4.2555e-07,-6.8257e-07,-5.1285,2.8205
30051,24,1.5455,0.1,1.587e-05,158.59,5.9482e-06,7.1175,4.6687e-06,-2.4959,-1.5769e-05,-156.06,2.8204
30052,24,1.6364,0.05,9.1492e-07,9.1429,7.0255e-07,5.2787,4.6467e-14,5.5725e-07,-7.0255e-07,-5.2787,2.8204
30053,24,1.3636,0.1,1.4968e-05,149.58,5.6539e-06,7.1692,4.3692e-06,-2.4842,-1.4865e-05,-147,2.8203
30054,24,1.4545,0.05,9.3794e-07,9.373,7.2022e-07,5.4115,1.3358e-13,1.1943e-06,-7.2022e-07,-5.4115,2.8203
30055,24,1.1818,0.1,1.3924e-05,139.15,5.3123e-06,7.2203,4.0227e-06,-2.469,-1.3818e-05,-136.52,2.8202
30056,24,1.2727,0.05,9.5543e-07,9.5477,7.3365e-07,5.5124,2.9825e-13,4.2575e-06,-7.3365e-07,-5.5124,2.8202
30057,24,1,0.1,1.2718e-05,127.1,4.9163e-06,7.265,3.6234e-06,-2.4493,-1.2609e-05,-124.41,2.8201
30058,24,1.0909,0.05,9.6429e-07,9.6362,7.4045e-07,5.5635,3.3954e-13,3.36e-06,-7.4045e-07,-5.5635,2.8201
30059,24,0.81818,0.1,1.1324e-05,113.16,4.4559e-06,7.2948,3.1629e-06,-2.4198,-1.1209e-05,-110.41,2.8199
30060,24,0.90909,0.05,9.6052e-07,9.5985,7.3756e-07,5.5417,1.005e-13,1.8811e-06,-7.3756e-07,-5.5417,2.82
30061,24,0.63636,0.1,9.6964e-06,96.897,3.9146e-06,7.2843,2.6277e-06,-2.385,-9.5768e-06,-94.085,2.8198
30062,24,0.72727,0.05,9.3868e-07,9.3803,7.2079e-07,5.4157,-2.0435e-13,1.2036e-07,-7.2079e-07,-5.4157,2.8199
30063,24,0.45455,0.1,7.7632e-06,77.579,3.2616e-06,7.2008,2.0012e-06,-2.2688,-7.6358e-06,-74.678,2.8197
30064,24,0.54545,0.05,8.9071e-07,8.9009,6.8395e-07,5.1389,-3.6841e-13,-2.01e-06,-6.8395e-07,-5.1389,2.8197
30065,24,0.27273,0.1,5.3342e-06,53.305,2.4287e-06,6.942,1.2151e-06,-2.1764,-5.1942e-06,-50.334,2.8195
30066,24,0.36364,0.05,8.0222e-07,8.0166,6.16e-07,4.6284,-3.7797e-13,2.6011e-06,-6.16e-07,-4.6284,2.8196
30067,24,0.090909,0.1,2.3237e-06,23.221,1.3394e-06,5.8933,2.3946e-07,-2.371,-2.1507e-06,-20.33,2.8194
30068,24,0.18182,0.05,7.0043e-07,6.9994,5.3784e-07,4.0411,1.0545e-12,1.1671e-05,-5.3784e-07,-4.0411,2.8194
30069,2.3842e-15,0.27273,0.1,0.00019113,1910,0.00025196,3701.8,4.6963e-06,1843.9,-8.6477e-06,1743.7,0
30070,7.9472e-16,0.090909,0.1,0.00014296,1428.6,0.00014389,1579.3,-5.4072e-06,457.53,-7.0172e-05,-29.087,0
30071,1.6109e-15,0.18182,0.05,1.5032e-05,150.22,1.1543e-05,86.73,1.0475e-11,0.00036352,-1.1543e-05,-86.729,0
30072,3.9736e-15,0.45455,0.1,0.00026947,2692.8,0.00035822,5302.1,3.3101e-06,2635.4,-3.5579e-06,2583.8,0
30073,3.2219e-15,0.36364,0.05,9.4469e-06,94.404,7.254e-06,54.504,2.9499e-11,0.00056331,-7.254e-06,-54.504,0
30074,5.563e-15,0.63636,0.1,0.00031101,3108,0.00041386,6131.2,2.2996e-06,3038.8,-1.8319e-06,3007.8,0
30075,4.8328e-15,0.54545,0.05,8.5536e-06,85.477,6.5681e-06,49.351,1.6155e-11,0.00035287,-6.5681e-06,-49.35,0
30076,7.1525e-15,0.81818,0.1,0.00033754,3373.1,0.00044908,6651.5,1.4523e-06,3288.2,-1.133e-06,3268.8,0
30077,6.4438e-15,0.72727,0.05,7.5314e-06,75.262,5.7832e-06,43.453,8.2301e-12,0.00030727,-5.7831e-06,-43.452,0
30078,8.7419e-15,1,0.1,0.00035538,3551.3,0.00047276,7001.5,9.803e-07,3456.7,-7.5801e-07,3443.6,0
30079,8.0547e-15,0.90909,0.05,6.3943e-06,63.899,4.91e-06,36.892,5.7036e-12,0.0002272,-4.91e-06,-36.892,0
30080,1.0331e-14,1.1818,0.1,0.00036791,3676.5,0.0004894,7247.3,6.8736e-07,3575.3,-5.2535e-07,3566.2,0
30081,9.6657e-15,1.0909,0.05,5.3651e-06,53.614,4.1198e-06,30.955,3.7193e-12,0.00027284,-4.1197e-06,-30.954,0
30082,1.1921e-14,1.3636,0.1,0.00037685,3765.9,0.00050127,7422.9,4.8914e-07,3660.2,-3.6821e-07,3653.7,0
30083,1.1277e-14,1.2727,0.05,4.4677e-06,44.646,3.4306e-06,25.777,2.4971e-12,0.0002036,-3.4306e-06,-25.776,0
30084,1.351e-14,1.5455,0.1,0.00038326,3830,0.00050979,7548.7,3.4978e-07,3721,-2.5695e-07,3716.4,0
30085,1.2888e-14,1.4545,0.05,3.6743e-06,36.717,2.8214e-06,21.199,1.5614e-12,0.00019616,-2.8214e-06,-21.199,0
30086,1.51e-14,1.7273,0.1,0.00038782,3875.5,0.00051584,7638.2,2.4891e-07,3764.2,-1.7646e-07,3761,0
30087,1.4498e-14,1.6364,0.05,2.9705e-06,29.684,2.281e-06,17.138,6.3254e-13,0.00018888,-2.281e-06,-17.138,0
30088,1.6689e-14,1.9091,0.1,0.00039102,3907.5,0.00052008,7700.8,1.7505e-07,3794.5,-1.1803e-07,3792.3,0
30089,1.6109e-14,1.8182,0.05,2.3484e-06,23.468,1.8033e-06,13.549,2.0724e-13,0.00012301,-1.8033e-06,-13.549,0
30090,1.8279e-14,2.0909,0.1,0.0003932,3929.3,0.00052298,7743.7,1.2106e-07,3815.1,-7.6042e-08,3813.7,0
30091,1.772e-14,2,0.05,1.8057e-06,18.045,1.3866e-06,10.418,-2.3882e-13,0.00011986,-1.3865e-06,-10.418,0
30092,1.9868e-14,2.2727,0.1,0.00039465,3943.8,0.0005249,7772.1,8.2133e-08,3828.8,-4.6481e-08,3827.8,0
30093,1.9331e-14,2.1818,0.05,1.344e-06,13.43,1.032e-06,7.7542,-6.359e-13,0.0001176,-1.032e-06,-7.7538,0
30094,2.1457e-14,2.4545,0.1,0.00039558,3953,0.00052613,7790.2,5.4722e-08,3837.5,-2.6192e-08,3836.9,0
30095,2.0942e-14,2.3636,0.05,9.6681e-07,9.6614,7.424e-07,5.5782,-8.147e-13,5.5425e-05,-7.4238e-07,-5.5779,0
30096,2.3047e-14,2.6364,0.1,0.00039613,3958.5,0.00052686,7801,3.6074e-08,3842.6,-1.2586e-08,3842.3,0
30097,2.2553e-14,2.5455,0.05,6.7873e-07,6.7826,5.2118e-07,3.916,-9.0341e-13,5.4591e-05,-5.2118e-07,-3.9159,0
30098,2.4636e-14,2.8182,0.1,0.00039642,3961.4,0.00052724,7806.6,2.427e-08,3845.3,-3.8017e-09,3845.1,0
30099,2.4164e-14,2.7273,0.05,4.8391e-07,4.8357,3.716e-07,2.7919,-6.9817e-13,5.5485e-05,-3.7157e-07,-2.7919,0
30100,2.6226e-14,3,0.1,0.00039651,3962.3,0.00052736,7808.4,1.9628e-08,3846.1,-1.662e-10,3846,0
30101,2.5775e-14,2.9091,0.05,3.856e-07,3.8533,2.9609e-07,2.2247,-3.0382e-13,-2.2394e-06,-2.9609e-07,-2.2247,0
30102,2.7815e-14,3.1818,0.1,0.00039642,3961.4,0.00052724,7806.6,2.427e-08,3845.3,-3.8016e-09,3845.1,0
30103,2.7386e-14,3.0909,0.05,3.856e-07,3.8533,2.9609e-07,2.2247,3.0397e-13,2.2539e-06,-2.9609e-07,-2.2247,0
30104,2.9405e-14,3.3636,0.1,0.00039613,3958.5,0.00052686,7801,3.6073e-08,3842.6,-1.2586e-08,3842.3,0
30105,2.8997e-14,3.2727,0.05,4.8391e-07,4.8357,3.7157e-07,2.7919,7.1138e-13,-5.5373e-05,-3.716e-07,-2.792,0
30106,3.0994e-14,3.5455,0.1,0.00039558,3953,0.00052613,7790.2,5.4722e-08,3837.5,-2.6191e-08,3836.9,0
30107,3.0608e-14,3.4545,0.05,6.7873e-07,6.7826,5.2116e-07,3.9159,8.5315e-13,6.5256e-06,-5.2119e-07,-3.916,0
30108,3.2583e-14,3.7273,0.1,0.00039465,3943.8,0.0005249,7772.1,8.2133e-08,3828.8,-4.6481e-08,3827.8,0
30109,3.2219e-14,3.6364,0.05,9.6681e-07,9.6614,7.4238e-07,5.5779,8.6885e-13,-5.4515e-05,-7.424e-07,-5.5781,0
30110,3.4173e-14,3.9091,0.1,0.0003932,3929.3,0.00052298,7743.7,1.2106e-07,3815.1,-7.6042e-08,3813.7,0
30111,3.383e-14,3.8182,0.05,1.344e-06,13.43,1.032e-06,7.7539,7.1373e-13,-0.000117,-1.032e-06,-7.7541,0
30112,3.5762e-14,4.0909,0.1,0.00039102,3907.5,0.00052008,7700.8,1.7505e-07,3794.5,-1.1803e-07,3792.3,0
30113,3.5441e-14,4,0.05,1.8057e-06,18.045,1.3865e-06,10.418,3.456e-13,-0.00011906,-1.3866e-06,-10.418,0
30114,3.7352e-14,4.2727,0.1,0.00038782,3875.5,0.00051584,7638.2,2.4891e-07,3764.2,-1.7646e-07,3761,0
30115,3.7052e-14,4.1818,0.05,2.3484e-06,23.468,1.8033e-06,13.549,-7.1961e-14,-0.00012306,-1.8033e-06,-13.549,0
30116,3.8941e-14,4.4545,0.1,0.00038326,3830,0.00050979,7548.7,3.4978e-07,3721,-2.5695e-07,3716.4,0
30117,3.8663e-14,4.3636,0.05,2.9705e-06,29.684,2.2809e-06,17.138,-6.2633e-13,-0.00012725,-2.281e-06,-17.138,0
30118,4.0531e-14,4.6364,0.1,0.00037685,3765.9,0.00050127,7422.9,4.8914e-07,3660.2,-3.6821e-07,3653.7,0
30119,4.0274e-14,4.5455,0.05,3.6743e-06,36.717,2.8214e-06,21.199,-1.3511e-12,-0.00019275,-2.8214e-06,-21.199,0
30120,4.212e-14,4.8182,0.1,0.00036791,3676.5,0.0004894,7247.3,6.8736e-07,3575.3,-5.2535e-07,3566.2,0
30121,4.1885e-14,4.7273,0.05,4.4677e-06,44.646,3.4306e-06,25.776,-2.2506e-12,-0.00019923,-3.4306e-06,-25.777,0
30122,4.371e-14,5,0.1,0.00035538,3551.3,0.00047276,7001.5,9.803e-07,3456.7,-7.5801e-07,3443.6,0
30123,4.3495e-14,4.9091,0.05,5.3651e-06,53.614,4.1197e-06,30.954,-3.4119e-12,-0.00020777,-4.1198e-06,-30.954,0
30124,4.5299e-14,5.1818,0.1,0.00033754,3373.1,0.00044908,6651.5,1.4523e-06,3288.2,-1.133e-06,3268.8,0
30125,4.5106e-14,5.0909,0.05,6.3943e-06,63.899,4.91e-06,36.892,-5.3463e-12,-0.0002244,-4.91e-06,-36.892,0
30126,4.6888e-14,5.3636,0.1,0.00031101,3108,0.00041386,6131.2,2.2996e-06,3038.8,-1.8319e-06,3007.8,0
30127,4.6717e-14,5.2727,0.05,7.5314e-06,75.262,5.7831e-06,43.452,-7.8322e-12,-0.00030372,-5.7832e-06,-43.453,0
30128,4.8478e-14,5.5455,0.1,0.00026947,2692.8,0.00035822,5302.1,3.3101e-06,2635.4,-3.5579e-06,2583.8,0
30129,4.8328e-14,5.4545,0.05,8.5536e-06,85.477,6.5681e-06,49.35,-1.5461e-11,-0.00034826,-6.5682e-06,-49.351,0
30130,5.0067e-14,5.7273,0.1,0.00019113,1910,0.00025196,3701.8,4.6963e-06,1843.9,-8.6477e-06,1743.7,0
30131,4.9939e-14,5.6364,0.05,9.4469e-06,94.404,7.254e-06,54.504,-2.8866e-11,-0.00055269,-7.254e-06,-54.504,0
30132,5.1657e-14,5.9091,0.1,0.00014296,1428.6,0.00014389,1579.3,-5.4072e-06,457.53,-7.0172e-05,-29.088,0
30133,5.155e-14,5.8182,0.05,1.5032e-05,150.22,1.1543e-05,86.729,-7.0174e-12,-0.00033433,-1.1543e-05,-86.73,0
30134,23.908,0,0.1,2.4023e-06,24.006,2.1287e-06,18.648,-2.6556e-07,0.65871,-1.4992e-06,-8.6104,2.8039
30135,24,0,0.05,7.8682e-07,7.8628,6.0418e-07,4.5396,3.3527e-12,3.0168e-05,-6.0418e-07,-4.5396,2.8193
30136,23.723,0,0.1,5.7345e-06,57.305,5.4165e-06,50.276,-1.1576e-06,0.8812,-2.9455e-06,-12.553,2.773
30137,23.815,0,0.05,2.0529e-06,20.515,1.5764e-06,11.844,3.9599e-13,6.0237e-06,-1.5764e-06,-11.844,2.7884
30138,23.538,0,0.1,9.2908e-06,92.844,8.9747e-06,85.263,-2.285e-06,0.66166,-4.2448e-06,-14.064,2.7422
30139,23.631,0,0.05,3.0459e-06,30.438,2.3389e-06,17.573,8.6958e-13,1.1813e-05,-2.3389e-06,-17.573,2.7576
30140,23.354,0,0.1,1.2965e-05,129.56,1.2659e-05,121.86,-3.4825e-06,0.5815,-5.5085e-06,-14.641,2.7113
30141,23.446,0,0.05,3.8163e-06,38.136,2.9304e-06,22.018,9.5203e-13,1.1326e-05,-2.9304e-06,-22.018,2.7267
30142,23.169,0,0.1,1.673e-05,167.19,1.643e-05,159.41,-4.7174e-06,0.51216,-6.7819e-06,-14.999,2.6805
30143,23.261,0,0.05,4.4734e-06,44.703,3.435e-06,25.809,8.9056e-13,9.94e-06,-3.435e-06,-25.809,2.6959
30144,22.984,0,0.1,2.0555e-05,205.4,2.0259e-05,197.59,-5.9771e-06,0.46194,-8.0607e-06,-15.193,2.6497
30145,23.076,0,0.05,5.052e-06,50.485,3.8793e-06,29.148,1.2617e-12,8.4135e-06,-3.8793e-06,-29.148,2.6651
30146,22.799,0,0.1,2.4423e-05,244.06,2.4132e-05,236.25,-7.2548e-06,0.41935,-9.3451e-06,-15.286,2.6189
30147,22.892,0,0.05,5.5702e-06,55.664,4.2772e-06,32.137,8.0639e-13,9.6988e-06,-4.2772e-06,-32.137,2.6342
30148,22.615,0,0.1,2.8325e-05,283.06,2.8039e-05,275.27,-8.5463e-06,0.38349,-1.0635e-05,-15.307,2.5881
30149,22.707,0,0.05,6.0396e-06,60.354,4.6377e-06,34.846,6.8146e-13,7.1182e-06,-4.6377e-06,-34.846,2.6034
30150,22.43,0,0.1,3.2255e-05,322.33,3.1973e-05,314.59,-9.8489e-06,0.35245,-1.1928e-05,-15.273,2.5573
30151,22.522,0,0.05,6.4682e-06,64.637,4.9668e-06,37.318,4.5119e-13,9.5051e-06,-4.9668e-06,-37.318,2.5727
30152,22.245,0,0.1,3.6209e-05,361.84,3.5931e-05,354.15,-1.1161e-05,0.32526,-1.3227e-05,-15.198,2.5265
30153,22.338,0,0.05,6.8618e-06,68.571,5.269e-06,39.589,-6.4931e-15,7.0378e-06,-5.269e-06,-39.589,2.5419
30154,22.061,0,0.1,4.0183e-05,401.55,3.9909e-05,393.93,-1.248e-05,0.30115,-1.4529e-05,-15.09,2.4958
30155,22.153,0,0.05,7.225e-06,72.2,5.5479e-06,41.685,4.5483e-13,1.111e-05,-5.5479e-06,-41.685,2.5111
30156,21.876,0,0.1,4.4175e-05,441.45,4.3906e-05,433.91,-1.3807e-05,0.27959,-1.5835e-05,-14.957,2.4651
30157,21.968,0,0.05,7.5613e-06,75.561,5.8062e-06,43.625,-2.2158e-13,9.1379e-06,-5.8062e-06,-43.625,2.4804
30158,21.691,0,0.1,4.8185e-05,481.52,4.792e-05,474.07,-1.514e-05,0.26018,-1.7145e-05,-14.804,2.4344
30159,21.783,0,0.05,7.8737e-06,78.683,6.046e-06,45.428,2.2755e-13,7.7205e-06,-6.046e-06,-45.428,2.4497
30160,21.506,0,0.1,5.2211e-05,521.75,5.195e-05,514.39,-1.6479e-05,0.24261,-1.8459e-05,-14.635,2.4037
30161,21.599,0,0.05,8.1646e-06,81.589,6.2694e-06,47.106,-3.9909e-15,1.0992e-05,-6.2694e-06,-47.106,2.419
30162,21.322,0,0.1,5.6252e-05,562.13,5.5996e-05,554.88,-1.7824e-05,0.22663,-1.9777e-05,-14.453,2.3731
30163,21.414,0,0.05,8.436e-06,84.302,6.4778e-06,48.672,-4.6225e-13,8.8452e-06,-6.4778e-06,-48.672,2.3884
30164,21.137,0,0.1,6.0309e-05,602.67,6.0057e-05,595.52,-1.9173e-05,0.21205,-2.11e-05,-14.262,2.3425
30165,21.229,0,0.05,8.6898e-06,86.838,6.6727e-06,50.136,-9.1287e-13,6.0812e-06,-6.6727e-06,-50.136,2.3578
30166,20.952,0,0.1,6.4381e-05,643.37,6.4133e-05,636.31,-2.0529e-05,0.1987,-2.2427e-05,-14.063,2.312
30167,21.045,0,0.05,8.9274e-06,89.213,6.8552e-06,51.507,-9.1245e-13,7.9924e-06,-6.8552e-06,-51.507,2.3273
30168,20.768,0,0.1,6.8468e-05,684.21,6.8225e-05,677.26,-2.1889e-05,0.18645,-2.3758e-05,-13.859,2.2815
30169,20.86,0,0.05,9.1504e-06,91.441,7.0264e-06,52.793,-9.0923e-13,7.3025e-06,-7.0264e-06,-52.793,2.2967
30170,20.583,0,0.1,7.2571e-05,725.21,7.2332e-05,718.37,-2.3254e-05,0.17519,-2.5094e-05,-13.651,2.2511
30171,20.675,0,0.05,9.3599e-06,93.534,7.1872e-06,54.002,-9.1205e-13,7.0049e-06,-7.1872e-06,-54.002,2.2663
30172,20.398,0,0.1,7.6689e-05,766.36,7.6454e-05,759.63,-2.4625e-05,0.16482,-2.6436e-05,-13.441,2.2207
30173,20.491,0,0.05,9.5569e-06,95.503,7.3385e-06,55.139,-1.8162e-12,5.3782e-06,-7.3385e-06,-55.139,2.2358
30174,20.213,0,0.1,8.0822e-05,807.67,8.0592e-05,801.05,-2.6e-05,0.15525,-2.7782e-05,-13.23,2.1903
30175,20.306,0,0.05,9.7426e-06,97.358,7.4811e-06,56.21,-1.8187e-12,9.7475e-06,-7.4811e-06,-56.21,2.2055
30176,20.029,0,0.1,8.4972e-05,849.13,8.4745e-05,842.62,-2.7381e-05,0.14641,-2.9133e-05,-13.018,2.16
30177,20.121,0,0.05,9.9177e-06,99.108,7.6155e-06,57.22,-2.7282e-12,5.7835e-06,-7.6155e-06,-57.22,2.1751
30178,19.844,0,0.1,8.9138e-05,890.76,8.8915e-05,884.36,-2.8767e-05,0.13823,-3.049e-05,-12.806,2.1298
30179,19.936,0,0.05,1.0083e-05,100.76,7.7425e-06,58.174,-2.7283e-12,6.0982e-06,-7.7425e-06,-58.174,2.1449
30180,19.659,0,0.1,9.332e-05,932.55,9.3101e-05,926.26,-3.0158e-05,0.13065,-3.1852e-05,-12.596,2.0996
30181,19.752,0,0.05,1.0239e-05,102.32,7.8626e-06,59.077,-2.2754e-12,7.3924e-06,-7.8626e-06,-59.077,2.1146
30182,19.475,0,0.1,9.7519e-05,974.51,9.7304e-05,968.32,-3.1555e-05,0.12363,-3.322e-05,-12.388,2.0695
30183,19.567,0,0.05,1.0388e-05,103.8,7.9763e-06,59.931,-2.7266e-12,7.3326e-06,-7.9763e-06,-59.931,2.0845
30184,19.29,0,0.1,0.00010173,1016.6,0.00010152,1010.6,-3.2957e-05,0.11711,-3.4594e-05,-12.182,2.0394
30185,19.382,0,0.05,1.0528e-05,105.21,8.0841e-06,60.741,-3.6362e-12,5.2734e-06,-8.0841e-06,-60.741,2.0544
30186,19.105,0,0.1,0.00010597,1058.9,0.00010576,1053,-3.4365e-05,0.11105,-3.5974e-05,-11.978,2.0094
30187,19.198,0,0.05,1.0661e-05,106.54,8.1863e-06,61.509,-2.7253e-12,8.3709e-06,-8.1863e-06,-61.509,2.0244
30188,18.92,0,0.1,0.00011022,1101.4,0.00011001,1095.5,-3.5778e-05,0.1054,-3.736e-05,-11.778,1.9795
30189,19.013,0,0.05,1.0788e-05,107.8,8.2835e-06,62.239,-3.6364e-12,6.6172e-06,-8.2835e-06,-62.239,1.9944
30190,18.736,0,0.1,0.00011449,1144.1,0.00011429,1138.3,-3.7197e-05,0.10014,-3.8751e-05,-11.58,1.9497
30191,18.828,0,0.05,1.0908e-05,109,8.3759e-06,62.933,-3.6378e-12,6.6989e-06,-8.3759e-06,-62.933,1.9645
30192,18.551,0,0.1,0.00011877,1186.9,0.00011858,1181.2,-3.8621e-05,0.095229,-4.0149e-05,-11.386,1.9199
30193,18.643,0,0.05,1.1022e-05,110.15,8.4638e-06,63.594,-3.6391e-12,6.6768e-06,-8.4638e-06,-63.594,1.9347
30194,18.366,0,0.1,0.00012308,1229.9,0.00012288,1224.3,-4.0052e-05,0.090626,-4.1554e-05,-11.196,1.8902
30195,18.459,0,0.05,1.1131e-05,111.24,8.5476e-06,64.223,-3.639e-12,5.1766e-06,-8.5476e-06,-64.223,1.905
30196,18.182,0,0.1,0.0001274,1273.1,0.00012721,1267.6,-4.1488e-05,0.08631,-4.2964e-05,-11.008,1.8606
30197,18.274,0,0.05,1.1236e-05,112.28,8.6275e-06,64.824,-3.6379e-12,7.6804e-06,-8.6275e-06,-64.824,1.8754
30198,17.997,0,0.1,0.00013174,1316.5,0.00013155,1311.1,-4.293e-05,0.082243,-4.4382e-05,-10.825,1.8311
30199,18.089,0,0.05,1.1335e-05,113.27,8.7038e-06,65.397,-5.4579e-12,-5.3723e-06,-8.7038e-06,-65.397,1.8458
30200,17.812,0,0.1,0.0001361,1360.1,0.00013592,1354.7,-4.4378e-05,0.078408,-4.5805e-05,-10.645,1.8017
30201,17.905,0,0.05,1.143e-05,114.22,8.7766e-06,65.944,-3.6369e-12,1.5395e-05,-8.7766e-06,-65.944,1.8163
30202,17.628,0,0.1,0.00014048,1403.8,0.0001403,1398.6,-4.5832e-05,0.074787,-4.7235e-05,-10.468,1.7723
30203,17.72,0,0.05,1.152e-05,115.12,8.8462e-06,66.467,-4.5455e-12,3.5173e-06,-8.8462e-06,-66.467,1.787
30204,17.443,0,0.1,0.00014488,1447.8,0.0001447,1442.6,-4.7292e-05,0.071352,-4.8672e-05,-10.295,1.7431
30205,17.535,0,0.05,1.1607e-05,115.99,8.9127e-06,66.967,-5.4569e-12,7.265e-06,-8.9127e-06,-66.967,1.7577
30206,17.258,0,0.1,0.00014929,1491.9,0.00014912,1486.8,-4.8759e-05,0.068076,-5.0115e-05,-10.125,1.7139
30207,17.35,0,0.05,1.169e-05,116.82,8.9764e-06,67.445,-5.4569e-12,5.6104e-06,-8.9764e-06,-67.445,1.7285
30208,17.073,0,0.1,0.00015373,1536.2,0.00015356,1531.3,-5.0231e-05,0.064935,-5.1565e-05,-9.9583,1.6849
30209,17.166,0,0.05,1.1769e-05,117.61,9.0373e-06,67.902,-4.549e-12,7.0273e-06,-9.0372e-06,-67.902,1.6994
30210,16.889,0,0.1,0.00015819,1580.8,0.00015802,1575.9,-5.171e-05,0.061917,-5.3022e-05,-9.7947,1.656
30211,16.981,0,0.05,1.1845e-05,118.37,9.0955e-06,68.34,-5.4577e-12,4.8222e-06,-9.0955e-06,-68.34,1.6704
30212,16.704,0,0.1,0.00016266,1625.5,0.0001625,1620.7,-5.3195e-05,0.058992,-5.4485e-05,-9.6342,1.6271
30213,16.796,0,0.05,1.1917e-05,119.09,9.1511e-06,68.758,-6.3664e-12,3.8211e-06,-9.1511e-06,-68.758,1.6415
30214,16.519,0,0.1,0.00016716,1670.4,0.00016699,1665.7,-5.4687e-05,0.056146,-5.5956e-05,-9.4764,1.5984
30215,16.612,0,0.05,1.1987e-05,119.78,9.2044e-06,69.158,-6.3657e-12,6.557e-06,-9.2043e-06,-69.158,1.6127
30216,16.335,0,0.1,0.00017167,1715.5,0.00017151,1710.9,-5.6185e-05,0.053369,-5.7433e-05,-9.3213,1.5698
30217,16.427,0,0.05,1.2053e-05,120.45,9.2552e-06,69.54,-7.2765e-12,5.4191e-06,-9.2552e-06,-69.54,1.5841
30218,16.15,0,0.1,0.00017621,1760.9,0.00017605,1756.3,-5.7689e-05,0.050647,-5.8916e-05,-9.1687,1.5413
30219,16.242,0,0.05,1.2116e-05,121.08,9.3036e-06,69.904,-6.3658e-12,5.8417e-06,-9.3036e-06,-69.904,1.5555
30220,15.965,0,0.1,0.00018076,1806.4,0.00018061,1801.9,-5.92e-05,0.047949,-6.0407e-05,-9.0183,1.5129
30221,16.057,0,0.05,1.2176e-05,121.68,9.3498e-06,70.251,-6.3664e-12,5.0024e-06,-9.3498e-06,-70.25,1.5271
30222,15.78,0,0.1,0.00018534,1852.1,0.00018519,1847.7,-6.0718e-05,0.04525,-6.1904e-05,-8.8701,1.4847
30223,15.873,0,0.05,1.2233e-05,122.25,9.3937e-06,70.58,-7.2764e-12,4.4662e-06,-9.3937e-06,-70.58,1.4988
30224,15.596,0,0.1,0.00018993,1898,0.00018978,1893.7,-6.2242e-05,0.042557,-6.3409e-05,-8.7236,1.4565
30225,15.688,0,0.05,1.2287e-05,122.79,9.4353e-06,70.893,-7.2759e-12,5.3689e-06,-9.4353e-06,-70.893,1.4706
30226,15.411,0,0.1,0.00019455,1944.2,0.0001944,1939.9,-6.3773e-05,0.039842,-6.492e-05,-8.5788,1.4285
30227,15.503,0,0.05,1.2339e-05,123.3,9.4746e-06,71.189,-7.2764e-12,6.1952e-06,-9.4746e-06,-71.188,1.4425
30228,15.226,0,0.1,0.00019919,1990.5,0.00019904,1986.3,-6.531e-05,0.037077,-6.6438e-05,-8.4354,1.4007
30229,15.319,0,0.05,1.2387e-05,123.78,9.5116e-06,71.467,-7.2764e-12,4.1129e-06,-9.5116e-06,-71.467,1.4146
30230,15.042,0,0.1,0.00020385,2037,0.0002037,2032.9,-6.6855e-05,0.034258,-6.7963e-05,-8.2932,1.373
30231,15.134,0,0.05,1.2432e-05,124.24,9.5464e-06,71.728,-9.0945e-12,3.7586e-06,-9.5463e-06,-71.727,1.3868
30232,14.857,0,0.1,0.00020852,2083.8,0.00020838,2079.7,-6.8406e-05,0.031354,-6.9495e-05,-8.1519,1.3454
30233,14.949,0,0.05,1.2474e-05,124.66,9.5787e-06,71.97,-7.2759e-12,4.9504e-06,-9.5787e-06,-71.97,1.3591
30234,14.672,0,0.1,0.00021322,2130.8,0.00021309,2126.8,-6.9964e-05,0.028352,-7.1034e-05,-8.0113,1.3179
30235,14.765,0,0.05,1.2513e-05,125.05,9.6085e-06,72.195,-7.2759e-12,3.8176e-06,-9.6085e-06,-72.195,1.3316
30236,14.487,0,0.1,0.00021794,2177.9,0.00021781,2174,-7.1529e-05,0.025246,-7.258e-05,-7.8711,1.2906
30237,14.58,0,0.05,1.2549e-05,125.4,9.6359e-06,72.4,-7.2759e-12,5.6601e-06,-9.6359e-06,-72.4,1.3042
30238,14.303,0,0.1,0.00022268,2225.3,0.00022255,2221.4,-7.3101e-05,0.022019,-7.4132e-05,-7.731,1.2634
30239,14.395,0,0.05,1.2581e-05,125.72,9.6606e-06,72.586,-9.0955e-12,3.1591e-06,-9.6606e-06,-72.586,1.277
30240,14.118,0,0.1,0.00022745,2272.9,0.00022732,2269.1,-7.4679e-05,0.018637,-7.5692e-05,-7.5907,1.2364
30241,14.21,0,0.05,1.261e-05,126.01,9.6826e-06,72.751,-7.2762e-12,4.0532e-06,-9.6826e-06,-72.751,1.2499
30242,13.933,0,0.1,0.00023223,2320.7,0.0002321,2317,-7.6265e-05,0.015074,-7.7259e-05,-7.45,1.2096
30243,14.026,0,0.05,1.2634e-05,126.26,9.7017e-06,72.895,-1.0914e-11,3.3379e-06,-9.7017e-06,-72.895,1.223
30244,13.749,0,0.1,0.00023704,2368.7,0.00023691,2365.1,-7.7858e-05,0.011322,-7.8833e-05,-7.3086,1.1829
30245,13.841,0,0.05,1.2655e-05,126.47,9.7179e-06,73.016,-9.0949e-12,5.0068e-06,-9.7178e-06,-73.016,1.1962
30246,13.564,0,0.1,0.00024186,2417,0.00024174,2413.4,-7.9459e-05,0.0073452,-8.0413e-05,-7.1661,1.1564
30247,13.656,0,0.05,1.2672e-05,126.64,9.7308e-06,73.114,-9.0949e-12,3.4571e-06,-9.7308e-06,-73.113,1.1696
30248,13.379,0,0.1,0.00024671,2465.4,0.00024659,2461.9,-8.1066e-05,0.0031278,-8.2001e-05,-7.0223,1.13
30249,13.472,0,0.05,1.2685e-05,126.76,9.7404e-06,73.186,-7.2759e-12,4.3516e-06,-9.7404e-06,-73.185,1.1431
30250,13.194,0,0.1,0.00025158,2514.1,0.00025146,2510.6,-8.2681e-05,-0.00134,-8.3596e-05,-6.8768,1.1038
30251,13.287,0,0.05,1.2693e-05,126.84,9.7465e-06,73.231,-1.0914e-11,3.2187e-06,-9.7464e-06,-73.231,1.1168
30252,13.01,0,0.1,0.00025647,2563,0.00025636,2559.6,-8.4303e-05,-0.0060785,-8.5198e-05,-6.7294,1.0778
30253,13.102,0,0.05,1.2696e-05,126.87,9.7487e-06,73.248,-9.0949e-12,3.6359e-06,-9.7487e-06,-73.248,1.0907
30254,12.825,0,0.1,0.00026139,2612.1,0.00026128,2608.8,-8.5933e-05,-0.01113,-8.6807e-05,-6.5796,1.0519
30255,12.917,0,0.05,1.2693e-05,126.85,9.747e-06,73.235,-9.0949e-12,3.7551e-06,-9.747e-06,-73.235,1.0648
30256,12.64,0,0.1,0.00026633,2661.4,0.00026622,2658.2,-8.757e-05,-0.016526,-8.8423e-05,-6.4273,1.0262
30257,12.733,0,0.05,1.2686e-05,126.77,9.741e-06,73.19,-1.0914e-11,3.6359e-06,-9.741e-06,-73.19,1.039
30258,12.456,0,0.1,0.00027128,2711,0.00027118,2707.8,-8.9215e-05,-0.022272,-9.0047e-05,-6.272,1.0007
30259,12.548,0,0.05,1.2672e-05,126.63,9.7305e-06,73.111,-9.0949e-12,2.5035e-06,-9.7304e-06,-73.111,1.0134
30260,12.271,0,0.1,0.00027627,2760.8,0.00027616,2757.7,-9.0867e-05,-0.028412,-9.1677e-05,-6.1135,0.97542
30261,12.363,0,0.05,1.2652e-05,126.43,9.7151e-06,72.995,-1.0914e-11,3.6956e-06,-9.715e-06,-72.995,0.98803
30262,12.086,0,0.1,0.00028127,2810.8,0.00028117,2807.8,-9.2527e-05,-0.034955,-9.3315e-05,-5.9514,0.95029
30263,12.179,0,0.05,1.2625e-05,126.16,9.6945e-06,72.84,-1.0914e-11,3.04e-06,-9.6944e-06,-72.84,0.96281
30264,11.902,0,0.1,0.0002863,2861,0.0002862,2858.1,-9.4195e-05,-0.041907,-9.496e-05,-5.7854,0.92536
30265,11.994,0,0.05,1.2591e-05,125.82,9.6684e-06,72.644,-1.0915e-11,2.9172e-06,-9.6683e-06,-72.644,0.93778
30266,11.717,0,0.1,0.00029135,2911.5,0.00029125,2908.6,-9.5871e-05,-0.049326,-9.6612e-05,-5.6154,0.90062
30267,11.809,0,0.05,1.2549e-05,125.41,9.6364e-06,72.404,-1.0914e-11,3.8195e-06,-9.6363e-06,-72.404,0.91294
30268,11.532,0,0.1,0.00029642,2962.2,0.00029633,2959.4,-9.7554e-05,-0.057218,-9.8271e-05,-5.4411,0.87608
30269,11.624,0,0.05,1.25e-05,124.91,9.5981e-06,72.117,-1.2733e-11,2.8071e-06,-9.5981e-06,-72.116,0.8883
30270,11.347,0,0.1,0.00030152,3013.1,0.00030143,3010.4,-9.9245e-05,-0.065572,-9.9937e-05,-5.2623,0.85174
30271,11.44,0,0.05,1.2441e-05,124.32,9.5532e-06,71.779,-1.0914e-11,2.0274e-06,-9.5532e-06,-71.779,0.86386
30272,11.163,0,0.1,0.00030663,3064.2,0.00030655,3061.6,-0.00010094,-0.074394,-0.00010161,-5.0788,0.82761
30273,11.255,0,0.05,1.2373e-05,123.65,9.5012e-06,71.388,-1.2733e-11,3.213e-06,-9.5012e-06,-71.388,0.83962
30274,10.978,0,0.1,0.00031177,3115.6,0.00031169,3113.1,-0.00010265,-0.083703,-0.00010329,-4.8907,0.80368
30275,11.07,0,0.05,1.2296e-05,122.87,9.4417e-06,70.942,-1.4552e-11,2.7433e-06,-9.4417e-06,-70.941,0.81559
30276,10.793,0,0.1,0.00031693,3167.2,0.00031685,3164.8,-0.00010436,-0.09349,-0.00010498,-4.698,0.77997
30277,10.886,0,0.05,1.2208e-05,122,9.3744e-06,70.436,-1.0914e-11,2.4966e-06,-9.3744e-06,-70.435,0.79177
30278,10.609,0,0.1,0.00032212,3218.9,0.00032204,3216.6,-0.00010608,-0.10371,-0.00010667,-4.5007,0.75647
30279,10.701,0,0.05,1.211e-05,121.01,9.2988e-06,69.867,-1.2733e-11,2.6845e-06,-9.2988e-06,-69.867,0.76817
30280,10.424,0,0.1,0.00032732,3270.9,0.00032724,3268.7,-0.00010781,-0.11434,-0.00010837,-4.2993,0.7332
30281,10.516,0,0.05,1.2e-05,119.92,9.2145e-06,69.234,-1.2733e-11,2.4955e-06,-9.2144e-06,-69.234,0.74478
30282,10.239,0,0.1,0.00033253,3323.1,0.00033246,3320.9,-0.00010954,-0.12529,-0.00011007,-4.0942,0.71014
30283,10.331,0,0.05,1.1878e-05,118.7,9.1211e-06,68.533,-1.4551e-11,2.3281e-06,-9.1211e-06,-68.532,0.72161
30284,10.054,0,0.1,0.00033777,3375.4,0.0003377,3373.3,-0.00011128,-0.13644,-0.00011178,-3.8861,0.68731
30285,10.147,0,0.05,1.1745e-05,117.37,9.0185e-06,67.761,-1.2732e-11,2.3885e-06,-9.0184e-06,-67.761,0.69867
30286,9.8697,0,0.1,0.00034301,3427.8,0.00034295,3425.9,-0.00011303,-0.14768,-0.00011349,-3.6759,0.66471
30287,9.9621,0,0.05,1.1599e-05,115.91,8.9063e-06,66.918,-1.2732e-11,2.3306e-06,-8.9062e-06,-66.918,0.67595
30288,9.685,0,0.1,0.00034827,3480.3,0.00034821,3478.5,-0.00011477,-0.15884,-0.00011521,-3.4649,0.64235
30289,9.7774,0,0.05,1.144e-05,114.32,8.7844e-06,66.003,-1.4549e-11,2.3307e-06,-8.7844e-06,-66.002,0.65347
30290,9.5003,0,0.1,0.00035353,3532.8,0.00035347,3531.1,-0.00011652,-0.16966,-0.00011693,-3.2546,0.62022
30291,9.5927,0,0.05,1.1269e-05,112.61,8.6529e-06,65.015,-1.2732e-11,1.72e-06,-8.6529e-06,-65.014,0.63123
30292,9.3156,0,0.1,0.00035878,3585.3,0.00035873,3583.7,-0.00011826,-0.17983,-0.00011864,-3.0472,0.59834
30293,9.408,0,0.05,1.1085e-05,110.77,8.512e-06,63.956,-1.4553e-11,2.1983e-06,-8.512e-06,-63.956,0.60922
30294,9.1309,0,0.1,0.00036402,3637.7,0.00036397,3636.2,-0.00012,-0.18897,-0.00012036,-2.845,0.5767
30295,9.2232,0,0.05,1.089e-05,108.82,8.3621e-06,62.83,-1.2731e-11,1.9978e-06,-8.3621e-06,-62.829,0.58745
30296,8.9462,0,0.1,0.00036924,3689.9,0.00036919,3688.4,-0.00012173,-0.19658,-0.00012206,-2.6512,0.5553
30297,9.0385,0,0.05,1.0684e-05,106.77,8.204e-06,61.642,-1.2731e-11,1.78e-06,-8.204e-06,-61.642,0.56593
30298,8.7615,0,0.1,0.00037442,3741.6,0.00037437,3740.3,-0.00012345,-0.20204,-0.00012376,-2.4696,0.53416
30299,8.8538,0,0.05,1.0469e-05,104.62,8.0388e-06,60.401,-1.4553e-11,1.8636e-06,-8.0388e-06,-60.4,0.54467
30300,8.5768,0,0.1,0.00037954,3792.8,0.0003795,3791.5,-0.00012515,-0.2046,-0.00012543,-2.3047,0.51327
30301,8.6691,0,0.05,1.0247e-05,102.39,7.8681e-06,59.118,-1.455e-11,1.8625e-06,-7.868e-06,-59.117,0.52365
30302,8.392,0,0.1,0.00038458,3843.1,0.00038454,3842,-0.00012682,-0.2033,-0.00012708,-2.1618,0.49265
30303,8.4844,0,0.05,1.002e-05,100.13,7.694e-06,57.81,-1.4553e-11,1.6863e-06,-7.694e-06,-57.809,0.50289
30304,8.2073,0,0.1,0.0003895,3892.3,0.00038946,3891.2,-0.00012845,-0.19704,-0.0001287,-2.0474,0.47228
30305,8.2997,0,0.05,9.7924e-06,97.857,7.5194e-06,56.498,-1.455e-11,1.6634e-06,-7.5194e-06,-56.497,0.4824
30306,8.0226,0,0.1,0.00039427,3940,0.00039424,3938.9,-0.00013003,-0.18445,-0.00013027,-1.969,0.45218
30307,8.115,0,0.05,9.5692e-06,95.626,7.348e-06,55.21,-1.4553e-11,2.0614e-06,-7.348e-06,-55.21,0.46216
30308,7.8379,0,0.1,0.00039884,3985.6,0.0003988,3984.6,-0.00013153,-0.16394,-0.00013177,-1.9355,0.43235
30309,7.9303,0,0.05,9.3562e-06,93.498,7.1844e-06,53.981,-1.455e-11,-9.4274e-07,-7.1844e-06,-53.981,0.44219
30310,7.6532,0,0.1,0.00040313,4028.6,0.0004031,4027.5,-0.00013295,-0.1337,-0.00013319,-1.9573,0.41279
30311,7.7456,0,0.05,9.161e-06,91.547,7.0345e-06,52.855,-1.4551e-11,4.1209e-06,-7.0345e-06,-52.855,0.4225
30312,7.4685,0,0.1,0.00040708,4068,0.00040704,4066.9,-0.00013424,-0.091664,-0.0001345,-2.0464,0.39351
30313,7.5609,0,0.05,8.993e-06,89.867,6.9055e-06,51.885,-1.4551e-11,1.2548e-06,-6.9055e-06,-51.885,0.40308
30314,7.2838,0,0.1,0.00041057,4102.9,0.00041054,4101.8,-0.00013538,-0.035581,-0.00013567,-2.2171,0.3745
30315,7.3761,0,0.05,8.8632e-06,88.571,6.8058e-06,51.137,-1.4552e-11,1.821e-06,-6.8058e-06,-51.136,0.38393
30316,7.0991,0,0.1,0.00041349,4132,0.00041345,4130.8,-0.00013633,0.036935,-0.00013666,-2.486,0.35577
30317,7.1914,0,0.05,8.785e-06,87.79,6.7458e-06,50.686,-1.4551e-11,1.5515e-06,-6.7458e-06,-50.685,0.36506
30318,6.9144,0,0.1,0.00041567,4153.8,0.00041562,4152.4,-0.00013702,0.12828,-0.00013742,-2.8728,0.33733
30319,7.0067,0,0.05,8.7739e-06,87.678,6.7373e-06,50.621,-1.4548e-11,1.6973e-06,-6.7372e-06,-50.621,0.34648
30320,6.7297,0,0.1,0.0004169,4166.2,0.00041685,4164.6,-0.00013739,0.24065,-0.00013787,-3.4008,0.31917
30321,6.822,0,0.05,8.8473e-06,88.412,6.7936e-06,51.045,-1.4547e-11,1.7027e-06,-6.7936e-06,-51.044,0.32817
30322,6.545,0,0.1,0.00041696,4166.8,0.0004169,4164.9,-0.00013736,0.37558,-0.00013796,-4.0974,0.30129
30323,6.6373,0,0.05,9.0243e-06,90.181,6.9296e-06,52.066,-1.454e-11,1.7117e-06,-6.9295e-06,-52.066,0.31015
30324,6.3602,0,0.1,0.00041554,4152.5,0.00041547,4150.3,-0.00013684,0.53341,-0.00013757,-4.995,0.2837
30325,6.4526,0,0.05,9.325e-06,93.186,7.1604e-06,53.801,-1.4527e-11,1.7607e-06,-7.1604e-06,-53.801,0.29242
30326,6.1755,0,0.1,0.00041228,4119.9,0.00041218,4117.2,-0.00013569,0.71224,-0.0001366,-6.131,0.26639
30327,6.2679,0,0.05,9.7687e-06,97.619,7.5011e-06,56.361,-1.4521e-11,1.7312e-06,-7.5011e-06,-56.36,0.27496
30328,5.9908,0,0.1,0.00040673,4064.5,0.00040662,4061.2,-0.00013377,0.90664,-0.0001349,-7.5474,0.24936
30329,6.0832,0,0.05,1.0371e-05,103.64,7.964e-06,59.838,-7.2296e-12,1.7782e-06,-7.964e-06,-59.838,0.2578
30330,5.8061,0,0.1,0.00039839,3981.2,0.00039825,3977.1,-0.00013092,1.1057,-0.0001323,-9.2877,0.23261
30331,5.8985,0,0.05,1.1142e-05,111.35,8.556e-06,64.286,-7.2324e-12,1.8102e-06,-8.5559e-06,-64.286,0.2409
30332,5.6214,0,0.1,0.00038667,3864.1,0.0003865,3859,-0.00012693,1.2906,-0.00012862,-11.391,0.21613
30333,5.7138,0,0.05,1.2077e-05,120.69,9.274e-06,69.681,-7.2337e-12,1.4257e-06,-9.274e-06,-69.681,0.22429
30334,5.4367,0,0.1,0.00037091,3706.5,0.00037069,3700.3,-0.00012159,1.4314,-0.00012363,-13.881,0.19991
30335,5.5291,0,0.05,1.3151e-05,131.42,1.0099e-05,75.878,-3.5723e-12,1.9622e-07,-1.0099e-05,-75.877,0.20794
30336,5.252,0,0.1,0.00035039,3501.5,0.00035013,3493.8,-0.00011467,1.4857,-0.0001171,-16.739,0.18395
30337,5.3443,0,0.05,1.4306e-05,142.96,1.0985e-05,82.541,-3.6087e-12,9.8313e-08,-1.0985e-05,-82.541,0.19185
30338,5.0673,0,0.1,0.00032442,3242,0.0003241,3232.7,-0.00010596,1.3922,-0.00010879,-19.876,0.16822
30339,5.1596,0,0.05,1.5437e-05,154.27,1.1854e-05,89.065,-3.6121e-12,-1.8892e-14,-1.1854e-05,-89.065,0.176
30340,4.8826,0,0.1,0.00029238,2921.8,0.000292,2910.7,-9.5248e-05,1.0952,-9.8463e-05,-23.061,0.15271
30341,4.9749,0,0.05,1.6376e-05,163.64,1.2574e-05,94.479,-2.6672e-21,-2.004e-14,-1.2574e-05,-94.479,0.16038
30342,4.6979,0,0.1,0.0002538,2536.2,0.00025335,2523.4,-8.2429e-05,0.47025,-8.5934e-05,-25.863,0.13741
30343,4.7902,0,0.05,1.687e-05,168.58,1.2954e-05,97.332,3.6564e-12,-1.4298e-06,-1.2954e-05,-97.332,0.14497
30344,4.5132,0,0.1,0.00020847,2083.2,0.00020798,2069.2,-6.7457e-05,-0.29707,-7.1065e-05,-27.411,0.12227
30345,4.6055,0,0.05,1.6575e-05,165.64,1.2728e-05,95.63,1.8187e-12,-1.4322e-06,-1.2728e-05,-95.63,0.12975
30346,4.3284,0,0.1,0.00015646,1563.5,0.00015596,1549,-5.0493e-05,-2.1514,-5.3734e-05,-26.505,0.10728
30347,4.4208,0,0.05,1.499e-05,149.79,1.151e-05,86.483,1.8357e-12,-1.4657e-06,-1.151e-05,-86.483,0.11468
30348,4.1437,0,0.1,9.7258e-05,971.91,9.6854e-05,960.41,-3.0981e-05,-0.089294,-3.3966e-05,-22.52,0.092389
30349,4.2361,0,0.05,1.1573e-05,115.65,8.8867e-06,66.771,8.8191e-13,-3.4633e-08,-8.8867e-06,-66.771,0.099737
30350,3.959,0,0.1,3.4019e-05,339.96,3.418e-05,346.6,-8.9403e-06,22.615,-1.2927e-05,-7.3419,0.077573
30351,4.0514,0,0.05,4.4046e-06,44.015,3.3822e-06,25.412,2.199e-14,3.91e-07,-3.3822e-06,-25.412,0.084878
30352,3.8667,0,0.05,6.1949e-06,61.906,4.7569e-06,35.742,3.5629e-13,4.6497e-06,-4.7569e-06,-35.742,0.070063
30353,3.6075,-1.5969e-30,0.1,4.3431e-05,434.01,4.3597e-05,441.62,-1.1292e-05,29.208,-1.6665e-05,-11.163,0.058713
30354,3.7,-1.6378e-30,0.05,8.0346e-06,80.291,6.1696e-06,46.356,3.5697e-13,4.6844e-06,-6.1696e-06,-46.356,0.061425
30355,3.4225,-1.515e-30,0.1,0.00012363,1235.4,0.00012295,1216.3,-3.9138e-05,-1.551,-4.3703e-05,-35.851,0.053279
30356,3.515,0,0.05,7.619e-06,76.137,5.8504e-06,43.958,7.0963e-13,8.7124e-07,-5.8504e-06,-43.958,0.055967
30357,3.2375,-1.4331e-30,0.1,0.00019817,1980.3,0.00019728,1954.9,-6.3506e-05,-4.5856,-6.8973e-05,-45.663,0.047928
30358,3.33,0,0.05,1.889e-05,188.77,1.4505e-05,108.98,1.0562e-12,-4.7733e-07,-1.4505e-05,-108.98,0.050566
30359,3.0525,-1.3512e-30,0.1,0.00026428,2641,0.00026334,2614,-8.4903e-05,-2.5807,-9.1313e-05,-50.743,0.042708
30360,3.145,0,0.05,2.5644e-05,256.26,1.9691e-05,147.95,1.7976e-12,-3.1419e-06,-1.9691e-05,-147.95,0.045273
30361,2.8675,-1.2693e-30,0.1,0.00032309,3228.7,0.00032214,3201.4,-0.00010419,-1.9281,-0.00011087,-52.093,0.037665
30362,2.96,0,0.05,3.0381e-05,303.6,2.3329e-05,175.28,1.8132e-12,-2.9366e-06,-2.3329e-05,-175.28,0.040134
30363,2.6825,-1.1874e-30,0.1,0.00037469,3744.4,0.00037377,3717.7,-0.00012121,-1.4251,-0.00012787,-51.447,0.032837
30364,2.775,0,0.05,3.3775e-05,337.52,2.5935e-05,194.86,-1.8794e-20,-4.1334e-14,-2.5935e-05,-194.86,0.035193
30365,2.4975,-1.1055e-30,0.1,0.00041935,4190.6,0.00041845,4164.6,-0.000136,-1.3152,-0.00014251,-50.173,0.028261
30366,2.59,0,0.05,3.645e-05,364.25,2.7989e-05,210.3,-1.8022e-14,5.992e-09,-2.7989e-05,-210.3,0.030485
30367,2.3125,-1.0236e-30,0.1,0.00045748,4571.6,0.0004566,4546.1,-0.00014865,-1.458,-0.00015499,-49.086,0.023967
30368,2.405,0,0.05,3.8842e-05,388.16,2.9826e-05,224.1,-7.2741e-12,1.0253e-08,-2.9826e-05,-224.1,0.026045
30369,2.1275,-9.4173e-31,0.1,0.00048961,4892.7,0.00048873,4867.2,-0.0001593,-1.8014,-0.00016555,-48.773,0.019982
30370,2.22,0,0.05,4.1282e-05,412.54,3.17e-05,238.18,-3.636e-12,-1.3328e-07,-3.17e-05,-238.18,0.021902
30371,1.9425,-8.5984e-31,0.1,0.00051629,5159.4,0.00051539,5133.2,-0.0001681,-2.2849,-0.00017441,-49.672,0.016327
30372,2.035,0,0.05,4.4012e-05,439.82,3.3796e-05,253.93,-7.2699e-12,4.0505e-08,-3.3796e-05,-253.93,0.018078
30373,1.7575,-7.7795e-31,0.1,0.000538,5376.3,0.00053705,5348.6,-0.00017519,-2.8731,-0.00018175,-52.175,0.01302
30374,1.85,0,0.05,4.7213e-05,471.8,3.6253e-05,272.39,-1.0904e-11,-1.7881e-07,-3.6253e-05,-272.39,0.014594
30375,1.5725,-6.9606e-31,0.1,0.00055505,5546.7,0.00055401,5516.4,-0.00018065,-3.5397,-0.00018772,-56.705,0.010077
30376,1.665,0,0.05,5.1023e-05,509.87,3.9179e-05,294.38,-7.2638e-12,1.2278e-07,-3.9179e-05,-294.38,0.011467
30377,1.3875,-6.1417e-31,0.1,0.00056752,5671.3,0.00056634,5637,-0.00018447,-4.2996,-0.00019239,-63.819,0.0075076
30378,1.48,0,0.05,5.5565e-05,555.26,4.2667e-05,320.58,-1.4533e-11,1.5676e-07,-4.2667e-05,-320.58,0.0087086
30379,1.2025,-5.3228e-31,0.1,0.00057512,5747.2,0.00057374,5707.2,-0.00018653,-5.0959,-0.00019573,-74.268,0.0053209
30380,1.295,0,0.05,6.0964e-05,609.22,4.6813e-05,351.73,-1.4522e-11,2.5072e-07,-4.6813e-05,-351.73,0.0063295
30381,1.0175,-4.5039e-31,0.1,0.00057702,5766.2,0.00057535,5718,-0.00018649,-6.1766,-0.00019757,-89.466,0.0035207
30382,1.11,0,0.05,6.7384e-05,673.38,5.1743e-05,388.77,-1.8154e-11,2.8576e-07,-5.1743e-05,-388.77,0.0043353
30383,0.8325,-3.685e-31,0.1,0.00057142,5710.2,0.00056934,5650.4,-0.00018361,-6.8998,-0.0001975,-111.26,0.002107
30384,0.925,0,0.05,7.504e-05,749.88,5.7621e-05,432.94,-1.4505e-11,3.1199e-07,-5.7621e-05,-432.94,0.0027282
30385,0.6475,-2.8661e-31,0.1,0.00055455,5541.7,0.0005518,5463.2,-0.00017652,-9.1118,-0.00019466,-145.41,0.0010742
30386,0.74,0,0.05,8.4377e-05,843.19,6.4791e-05,486.82,-1.4504e-11,3.23e-07,-6.4791e-05,-486.82,0.0015054
30387,0.4625,-2.0472e-31,0.1,0.00051867,5183.1,0.00051479,5074.2,-0.00016214,-12.035,-0.00018724,-200.59,0.00040899
30388,0.555,0,0.05,9.5977e-05,959.1,7.3698e-05,553.74,-1.814e-11,-6.2709e-06,-7.3698e-05,-553.74,0.00065729
30389,0.2775,-1.2283e-31,0.1,0.00043944,4391.4,0.0004332,4226.5,-0.00012768,12.338,-0.00017228,-322.83,9.0635e-05
30390,0.37,0,0.05,0.00011207,1120,8.6059e-05,646.61,-1.8035e-11,8.9206e-06,-8.6059e-05,-646.61,0.0001626
30391,0.0925,-4.0945e-32,0.1,0.00026223,2620.5,0.00023857,2063.8,-5.3988e-05,-134.36,-0.00014738,-836.1,2.8398e-05
30392,0.185,0,0.05,0.00014414,1440.4,0.00011068,831.61,-3.2743e-11,-7.0579e-05,-0.00011068,-831.61,2.1945e-05
30393,0,0,0.05,0.00019463,1945,0.00014945,1122.9,-5.1554e-12,0.00057816,-0.00014945,-1122.9,0
30394,0.0925,6,0.1,0.00026223,2620.5,0.00023857,2063.8,-5.3988e-05,-134.36,-0.00014738,-836.1,2.8398e-05
30395,5.2451e-14,6,0.05,0.00019463,1945,0.00014945,1122.9,4.854e-12,-0.00055527,-0.00014945,-1122.9,0
30396,0.2775,6,0.1,0.00043944,4391.4,0.0004332,4226.5,-0.00012768,12.338,-0.00017228,-322.83,9.0635e-05
30397,0.185,6,0.05,0.00014414,1440.4,0.00011068,831.61,3.0924e-11,6.7711e-05,-0.00011068,-831.61,2.1945e-05
30398,0.4625,6,0.1,0.00051867,5183.1,0.00051479,5074.2,-0.00016214,-12.035,-0.00018724,-200.59,0.00040899
30399,0.37,6,0.05,0.00011207,1120,8.6059e-05,646.61,1.804e-11,-9.0065e-06,-8.6059e-05,-646.61,0.0001626
30400,0.6475,6,0.1,0.00055455,5541.7,0.0005518,5463.2,-0.00017652,-9.1118,-0.00019466,-145.41,0.0010742
30401,0.555,6,0.05,9.5977e-05,959.1,7.3698e-05,553.74,1.814e-11,6.2709e-06,-7.3698e-05,-553.74,0.00065729
30402,0.8325,6,0.1,0.00057142,5710.2,0.00056934,5650.4,-0.00018361,-6.8998,-0.0001975,-111.26,0.002107
30403,0.74,6,0.05,8.4377e-05,843.19,6.4791e-05,486.82,2.1775e-11,-3.23e-07,-6.4791e-05,-486.82,0.0015054
30404,1.0175,6,0.1,0.00057702,5766.2,0.00057535,5718,-0.00018649,-6.1766,-0.00019757,-89.466,0.0035207
30405,0.925,6,0.05,7.504e-05,749.88,5.7621e-05,432.94,2.1786e-11,-3.1199e-07,-5.7621e-05,-432.94,0.0027282
30406,1.2025,6,0.1,0.00057512,5747.2,0.00057374,5707.2,-0.00018653,-5.0959,-0.00019573,-74.268,0.0053209
30407,1.11,6,0.05,6.7384e-05,673.38,5.1743e-05,388.77,1.4509e-11,-2.8576e-07,-5.1743e-05,-388.77,0.0043353
30408,1.3875,6,0.1,0.00056752,5671.3,0.00056634,5637,-0.00018447,-4.2996,-0.00019239,-63.819,0.0075076
30409,1.295,6,0.05,6.0964e-05,609.22,4.6813e-05,351.73,1.4522e-11,-1.8804e-07,-4.6813e-05,-351.73,0.0063295
30410,1.5725,6,0.1,0.00055505,5546.7,0.00055401,5516.4,-0.00018065,-3.5397,-0.00018772,-56.705,0.010077
30411,1.48,6,0.05,5.5565e-05,555.26,4.2667e-05,320.58,1.4527e-11,-1.5676e-07,-4.2667e-05,-320.58,0.0087086
30412,1.7575,6,0.1,0.000538,5376.3,0.00053705,5348.6,-0.00017519,-2.8731,-0.00018175,-52.175,0.01302
30413,1.665,6,0.05,5.1023e-05,509.87,3.9179e-05,294.38,1.0896e-11,-1.2278e-07,-3.9179e-05,-294.38,0.011467
30414,1.9425,6,0.1,0.00051629,5159.4,0.00051539,5133.2,-0.0001681,-2.2849,-0.00017441,-49.672,0.016327
30415,1.85,6,0.05,4.7213e-05,471.8,3.6253e-05,272.39,7.2671e-12,-5.9629e-08,-3.6253e-05,-272.39,0.014594
30416,2.1275,6,0.1,0.00048961,4892.7,0.00048873,4867.2,-0.0001593,-1.8014,-0.00016555,-48.773,0.019982
30417,2.035,6,0.05,4.4012e-05,439.82,3.3796e-05,253.93,7.2699e-12,1.7627e-07,-3.3796e-05,-253.93,0.018078
30418,2.3125,6,0.1,0.00045748,4571.6,0.0004566,4546.1,-0.00014865,-1.458,-0.00015499,-49.086,0.023967
30419,2.22,6,0.05,4.1282e-05,412.54,3.17e-05,238.18,-1.6038e-15,-1.3454e-08,-3.17e-05,-238.18,0.021902
30420,2.4975,6,0.1,0.00041935,4190.6,0.00041845,4164.6,-0.000136,-1.3151,-0.00014251,-50.173,0.028261
30421,2.405,6,0.05,3.8842e-05,388.16,2.9826e-05,224.1,3.6371e-12,-1.0253e-08,-2.9826e-05,-224.1,0.026045
30422,2.6825,6,0.1,0.00037469,3744.4,0.00037377,3717.7,-0.00012121,-1.4251,-0.00012787,-51.447,0.032837
30423,2.59,6,0.05,3.645e-05,364.25,2.7989e-05,210.3,-5.9369e-21,-4.4608e-14,-2.7989e-05,-210.3,0.030485
30424,2.8675,6,0.1,0.00032309,3228.7,0.00032214,3201.4,-0.00010419,-1.9281,-0.00011087,-52.093,0.037665
30425,2.775,6,0.05,3.3775e-05,337.52,2.5935e-05,194.86,-5.5012e-21,-4.1334e-14,-2.5935e-05,-194.86,0.035193
30426,3.0525,6,0.1,0.00026428,2641,0.00026334,2614,-8.4903e-05,-2.5807,-9.1313e-05,-50.743,0.042708
30427,2.96,6,0.05,3.0381e-05,303.6,2.3329e-05,175.28,4.6125e-15,2.4214e-06,-2.3329e-05,-175.28,0.040134
30428,3.2375,6,0.1,0.00019817,1980.3,0.00019728,1954.9,-6.3506e-05,-4.5856,-6.8973e-05,-45.663,0.047928
30429,3.145,6,0.05,2.5644e-05,256.26,1.9691e-05,147.95,-1.7976e-12,2.4021e-06,-1.9691e-05,-147.95,0.045273
30430,3.4225,6,0.1,0.00012363,1235.4,0.00012295,1216.3,-3.9138e-05,-1.551,-4.3703e-05,-35.851,0.053279
30431,3.33,6,0.05,1.889e-05,188.77,1.4505e-05,108.98,-8.5066e-13,7.8964e-07,-1.4505e-05,-108.98,0.050566
30432,3.6075,6,0.1,4.3431e-05,434.01,4.3597e-05,441.62,-1.1292e-05,29.208,-1.6665e-05,-11.163,0.058713
30433,3.515,6,0.05,7.619e-06,76.137,5.8504e-06,43.958,-3.8823e-13,1.8248e-06,-5.8504e-06,-43.958,0.055967
30434,3.7,6,0.05,8.0346e-06,80.291,6.1696e-06,46.356,-4.012e-13,-3.7742e-06,-6.1696e-06,-46.356,0.061425
30435,3.4225,6,0,0.00012363,1235.4,4.3703e-05,35.851,3.9138e-05,1.551,-0.00012295,-1216.3,0.053279
30436,3.6075,6,0,4.3431e-05,434.01,1.6665e-05,11.163,1.1292e-05,-29.208,-4.3597e-05,-441.62,0.058713
30437,3.2375,6,0,0.00019817,1980.3,6.8973e-05,45.663,6.3506e-05,4.5856,-0.00019728,-1954.9,0.047928
30438,3.0525,6,0,0.00026428,2641,9.1313e-05,50.743,8.4903e-05,2.5807,-0.00026334,-2614,0.042708
30439,2.8675,6,0,0.00032309,3228.7,0.00011087,52.093,0.00010419,1.9281,-0.00032214,-3201.4,0.037665
30440,2.6825,6,0,0.00037469,3744.4,0.00012787,51.447,0.00012121,1.4251,-0.00037377,-3717.7,0.032837
30441,2.4975,6,0,0.00041935,4190.6,0.00014251,50.173,0.000136,1.3152,-0.00041845,-4164.6,0.028261
30442,2.3125,6,0,0.00045748,4571.6,0.00015499,49.086,0.00014865,1.458,-0.0004566,-4546.1,0.023967
30443,2.1275,6,0,0.00048961,4892.7,0.00016555,48.773,0.0001593,1.8014,-0.00048873,-4867.2,0.019982
30444,1.9425,6,0,0.00051629,5159.4,0.00017441,49.672,0.0001681,2.2849,-0.00051539,-5133.2,0.016327
30445,1.7575,6,0,0.000538,5376.3,0.00018175,52.175,0.00017519,2.8731,-0.00053705,-5348.6,0.01302
30446,1.5725,6,0,0.00055505,5546.7,0.00018772,56.705,0.00018065,3.5397,-0.00055401,-5516.4,0.010077
30447,1.3875,6,0,0.00056752,5671.3,0.00019239,63.819,0.00018447,4.2996,-0.00056634,-5637,0.0075076
30448,1.2025,6,0,0.00057512,5747.2,0.00019573,74.268,0.00018653,5.0959,-0.00057374,-5707.2,0.0053209
30449,1.0175,6,0,0.00057702,5766.2,0.00019757,89.466,0.00018649,6.1766,-0.00057535,-5718,0.0035207
30450,0.8325,6,0,0.00057142,5710.2,0.0001975,111.26,0.00018361,6.8998,-0.00056934,-5650.4,0.002107
30451,0.6475,6,0,0.00055455,5541.7,0.00019466,145.41,0.00017652,9.1118,-0.0005518,-5463.2,0.0010742
30452,0.4625,6,0,0.00051867,5183.1,0.00018724,200.59,0.00016214,12.035,-0.00051479,-5074.2,0.00040899
30453,0.2775,6,0,0.00043944,4391.4,0.00017228,322.83,0.00012768,-12.338,-0.0004332,-4226.5,9.0635e-05
30454,0.0925,6,0,0.00026223,2620.5,0.00014738,836.1,5.3988e-05,134.36,-0.00023857,-2063.8,2.8398e-05
30455,3.7,5.9091,0,3.6395e-05,363.7,1.4817e-05,32.297,1.0114e-05,-3.04,-3.5768e-05,-347.78,0.062234
30456,5.1657e-14,5.9091,0,0.00014296,1428.6,7.0172e-05,29.087,5.4072e-06,-457.53,-0.00014389,-1579.3,0
30457,0.2775,-1.2283e-31,0,0.00043944,4391.4,0.00017228,322.83,0.00012768,-12.338,-0.0004332,-4226.5,9.0635e-05
30458,0.0925,-4.0945e-32,0,0.00026223,2620.5,0.00014738,836.1,5.3988e-05,134.36,-0.00023857,-2063.8,2.8398e-05
30459,0.4625,-2.0472e-31,0,0.00051867,5183.1,0.00018724,200.59,0.00016214,12.035,-0.00051479,-5074.2,0.00040899
30460,0.6475,-2.8661e-31,0,0.00055455,5541.7,0.00019466,145.41,0.00017652,9.1118,-0.0005518,-5463.2,0.0010742
30461,0.8325,-3.685e-31,0,0.00057142,5710.2,0.0001975,111.26,0.00018361,6.8998,-0.00056934,-5650.4,0.002107
30462,1.0175,-4.5039e-31,0,0.00057702,5766.2,0.00019757,89.466,0.00018649,6.1766,-0.00057535,-5718,0.0035207
30463,1.2025,-5.3228e-31,0,0.00057512,5747.2,0.00019573,74.268,0.00018653,5.0959,-0.00057374,-5707.2,0.0053209
30464,1.3875,-6.1417e-31,0,0.00056752,5671.3,0.00019239,63.819,0.00018447,4.2996,-0.00056634,-5637,0.0075076
30465,1.5725,-6.9606e-31,0,0.00055505,5546.7,0.00018772,56.705,0.00018065,3.5397,-0.00055401,-5516.4,0.010077
30466,1.7575,-7.7795e-31,0,0.000538,5376.3,0.00018175,52.175,0.00017519,2.8731,-0.00053705,-5348.6,0.01302
30467,1.9425,-8.5984e-31,0,0.00051629,5159.4,0.00017441,49.672,0.0001681,2.2849,-0.00051539,-5133.2,0.016327
30468,2.1275,-9.4173e-31,0,0.00048961,4892.7,0.00016555,48.773,0.0001593,1.8014,-0.00048873,-4867.2,0.019982
30469,2.3125,-1.0236e-30,0,0.00045748,4571.6,0.00015499,49.086,0.00014865,1.458,-0.0004566,-4546.1,0.023967
30470,2.4975,-1.1055e-30,0,0.00041935,4190.6,0.00014251,50.173,0.000136,1.3152,-0.00041845,-4164.6,0.028261
30471,2.6825,-1.1874e-30,0,0.00037469,3744.4,0.00012787,51.447,0.00012121,1.4251,-0.00037377,-3717.7,0.032837
30472,2.8675,-1.2693e-30,0,0.00032309,3228.7,0.00011087,52.093,0.00010419,1.9281,-0.00032214,-3201.4,0.037665
30473,3.0525,-1.3512e-30,0,0.00026428,2641,9.1313e-05,50.743,8.4903e-05,2.5807,-0.00026334,-2614,0.042708
30474,3.2375,-1.4331e-30,0,0.00019817,1980.3,6.8973e-05,45.663,6.3506e-05,4.5856,-0.00019728,-1954.9,0.047928
30475,3.4225,-1.515e-30,0,0.00012363,1235.4,4.3703e-05,35.851,3.9138e-05,1.551,-0.00012295,-1216.3,0.053279
30476,3.6075,-1.5969e-30,0,4.3431e-05,434.01,1.6665e-05,11.163,1.1292e-05,-29.208,-4.3597e-05,-441.62,0.058713
30477,3.7,0.090909,0,3.6395e-05,363.7,1.4817e-05,32.297,1.0114e-05,-3.04,-3.5768e-05,-347.78,0.062234
30478,7.9472e-16,0.090909,0,0.00014296,1428.6,7.0172e-05,29.089,5.4072e-06,-457.53,-0.00014389,-1579.3,0
30479,4.1437,0,0,9.7258e-05,971.91,3.3966e-05,22.52,3.0981e-05,0.089296,-9.6854e-05,-960.41,0.092389
30480,3.959,0,0,3.4019e-05,339.96,1.2927e-05,7.3419,8.9403e-06,-22.615,-3.418e-05,-346.6,0.077573
30481,4.3284,0,0,0.00015646,1563.5,5.3734e-05,26.505,5.0493e-05,2.1514,-0.00015596,-1549,0.10728
30482,4.5132,0,0,0.00020847,2083.2,7.1065e-05,27.411,6.7457e-05,0.29707,-0.00020798,-2069.2,0.12227
30483,4.6979,0,0,0.0002538,2536.2,8.5934e-05,25.863,8.2429e-05,-0.47026,-0.00025335,-2523.4,0.13741
30484,4.8826,0,0,0.00029238,2921.8,9.8463e-05,23.061,9.5248e-05,-1.0952,-0.000292,-2910.7,0.15271
30485,5.0673,0,0,0.00032442,3242,0.00010879,19.876,0.00010596,-1.3922,-0.0003241,-3232.7,0.16822
30486,5.252,0,0,0.00035039,3501.5,0.0001171,16.739,0.00011467,-1.4857,-0.00035013,-3493.8,0.18395
30487,5.4367,0,0,0.00037091,3706.5,0.00012363,13.881,0.00012159,-1.4314,-0.00037069,-3700.3,0.19991
30488,5.6214,0,0,0.00038667,3864.1,0.00012862,11.391,0.00012693,-1.2906,-0.0003865,-3859,0.21613
30489,5.8061,0,0,0.00039839,3981.2,0.0001323,9.2877,0.00013092,-1.1057,-0.00039825,-3977.1,0.23261
30490,5.9908,0,0,0.00040673,4064.5,0.0001349,7.5474,0.00013377,-0.90664,-0.00040662,-4061.2,0.24936
30491,6.1755,0,0,0.00041228,4119.9,0.0001366,6.131,0.00013569,-0.71224,-0.00041218,-4117.2,0.26639
30492,6.3602,0,0,0.00041554,4152.5,0.00013757,4.995,0.00013684,-0.53341,-0.00041547,-4150.3,0.2837
30493,6.545,0,0,0.00041696,4166.8,0.00013796,4.0974,0.00013736,-0.37558,-0.0004169,-4164.9,0.30129
30494,6.7297,0,0,0.0004169,4166.2,0.00013787,3.4008,0.00013739,-0.24065,-0.00041685,-4164.6,0.31917
30495,6.9144,0,0,0.00041567,4153.8,0.00013742,2.8728,0.00013702,-0.12828,-0.00041562,-4152.4,0.33733
30496,7.0991,0,0,0.00041349,4132,0.00013666,2.486,0.00013633,-0.036935,-0.00041345,-4130.8,0.35577
30497,7.2838,0,0,0.00041057,4102.9,0.00013567,2.2171,0.00013538,0.035582,-0.00041054,-4101.8,0.3745
30498,7.4685,0,0,0.00040708,4068,0.0001345,2.0464,0.00013424,0.091665,-0.00040704,-4066.9,0.39351
30499,7.6532,0,0,0.00040313,4028.6,0.00013319,1.9573,0.00013295,0.1337,-0.0004031,-4027.5,0.41279
30500,7.8379,0,0,0.00039884,3985.6,0.00013177,1.9355,0.00013153,0.16394,-0.0003988,-3984.6,0.43235
30501,8.0226,0,0,0.00039427,3940,0.00013027,1.969,0.00013003,0.18445,-0.00039424,-3938.9,0.45218
30502,8.2073,0,0,0.0003895,3892.3,0.0001287,2.0474,0.00012845,0.19704,-0.00038946,-3891.2,0.47228
30503,8.392,0,0,0.00038458,3843.1,0.00012708,2.1618,0.00012682,0.20331,-0.00038454,-3842,0.49265
30504,8.5768,0,0,0.00037954,3792.8,0.00012543,2.3047,0.00012515,0.2046,-0.0003795,-3791.5,0.51327
30505,8.7615,0,0,0.00037442,3741.6,0.00012376,2.4696,0.00012345,0.20204,-0.00037437,-3740.3,0.53416
30506,8.9462,0,0,0.00036924,3689.9,0.00012206,2.6512,0.00012173,0.19658,-0.00036919,-3688.4,0.5553
30507,9.1309,0,0,0.00036402,3637.7,0.00012036,2.845,0.00012,0.18897,-0.00036397,-3636.2,0.5767
30508,9.3156,0,0,0.00035878,3585.3,0.00011864,3.0472,0.00011826,0.17983,-0.00035873,-3583.7,0.59834
30509,9.5003,0,0,0.00035353,3532.8,0.00011693,3.2546,0.00011652,0.16966,-0.00035347,-3531.1,0.62022
30510,9.685,0,0,0.00034827,3480.3,0.00011521,3.4649,0.00011477,0.15884,-0.00034821,-3478.5,0.64235
30511,9.8697,0,0,0.00034301,3427.8,0.00011349,3.6759,0.00011303,0.14768,-0.00034295,-3425.9,0.66471
30512,10.054,0,0,0.00033777,3375.4,0.00011178,3.8861,0.00011128,0.13644,-0.0003377,-3373.3,0.68731
30513,10.239,0,0,0.00033253,3323.1,0.00011007,4.0943,0.00010954,0.12529,-0.00033246,-3320.9,0.71014
30514,10.424,0,0,0.00032732,3270.9,0.00010837,4.2993,0.00010781,0.11434,-0.00032724,-3268.7,0.7332
30515,10.609,0,0,0.00032212,3218.9,0.00010667,4.5007,0.00010608,0.10371,-0.00032204,-3216.6,0.75647
30516,10.793,0,0,0.00031693,3167.2,0.00010498,4.698,0.00010436,0.093491,-0.00031685,-3164.8,0.77997
30517,10.978,0,0,0.00031177,3115.6,0.00010329,4.8907,0.00010265,0.083704,-0.00031169,-3113.1,0.80368
30518,11.163,0,0,0.00030663,3064.2,0.00010161,5.0788,0.00010094,0.074395,-0.00030655,-3061.6,0.82761
30519,11.347,0,0,0.00030152,3013.1,9.9937e-05,5.2623,9.9245e-05,0.065571,-0.00030143,-3010.4,0.85174
30520,11.532,0,0,0.00029642,2962.2,9.8271e-05,5.4411,9.7554e-05,0.057217,-0.00029633,-2959.4,0.87608
30521,11.717,0,0,0.00029135,2911.5,9.6612e-05,5.6155,9.5871e-05,0.049326,-0.00029125,-2908.6,0.90062
30522,11.902,0,0,0.0002863,2861,9.496e-05,5.7854,9.4195e-05,0.041908,-0.0002862,-2858.1,0.92536
30523,12.086,0,0,0.00028127,2810.8,9.3315e-05,5.9514,9.2527e-05,0.034956,-0.00028117,-2807.8,0.95029
30524,12.271,0,0,0.00027627,2760.8,9.1677e-05,6.1135,9.0867e-05,0.028413,-0.00027616,-2757.7,0.97542
30525,12.456,0,0,0.00027128,2711,9.0047e-05,6.272,8.9215e-05,0.022272,-0.00027118,-2707.8,1.0007
30526,12.64,0,0,0.00026633,2661.4,8.8423e-05,6.4273,8.757e-05,0.016526,-0.00026622,-2658.2,1.0262
30527,12.825,0,0,0.00026139,2612.1,8.6807e-05,6.5796,8.5933e-05,0.011131,-0.00026128,-2608.8,1.0519
30528,13.01,0,0,0.00025647,2563,8.5198e-05,6.7294,8.4303e-05,0.006079,-0.00025636,-2559.6,1.0778
30529,13.194,0,0,0.00025158,2514.1,8.3596e-05,6.8769,8.2681e-05,0.0013399,-0.00025146,-2510.6,1.1038
30530,13.379,0,0,0.00024671,2465.4,8.2001e-05,7.0223,8.1066e-05,-0.0031272,-0.00024659,-2461.9,1.13
30531,13.564,0,0,0.00024186,2417,8.0413e-05,7.1661,7.9459e-05,-0.007344,-0.00024174,-2413.4,1.1564
30532,13.749,0,0,0.00023704,2368.7,7.8833e-05,7.3086,7.7858e-05,-0.01132,-0.00023691,-2365.1,1.1829
30533,13.933,0,0,0.00023223,2320.7,7.7259e-05,7.45,7.6265e-05,-0.015073,-0.0002321,-2317,1.2096
30534,14.118,0,0,0.00022745,2272.9,7.5692e-05,7.5907,7.4679e-05,-0.018637,-0.00022732,-2269.1,1.2364
30535,14.303,0,0,0.00022268,2225.3,7.4132e-05,7.731,7.3101e-05,-0.02202,-0.00022255,-2221.4,1.2634
30536,14.487,0,0,0.00021794,2177.9,7.258e-05,7.8711,7.1529e-05,-0.025246,-0.00021781,-2174,1.2906
30537,14.672,0,0,0.00021322,2130.8,7.1034e-05,8.0113,6.9964e-05,-0.028351,-0.00021309,-2126.8,1.3179
30538,14.857,0,0,0.00020852,2083.8,6.9495e-05,8.1519,6.8406e-05,-0.031353,-0.00020838,-2079.7,1.3454
30539,15.042,0,0,0.00020384,2037,6.7963e-05,8.2932,6.6855e-05,-0.034257,-0.0002037,-2032.9,1.373
30540,15.226,0,0,0.00019919,1990.5,6.6438e-05,8.4355,6.531e-05,-0.037076,-0.00019904,-1986.3,1.4007
30541,15.411,0,0,0.00019455,1944.2,6.492e-05,8.5788,6.3773e-05,-0.03984,-0.0001944,-1939.9,1.4285
30542,15.596,0,0,0.00018993,1898,6.3409e-05,8.7236,6.2242e-05,-0.042556,-0.00018978,-1893.7,1.4565
30543,15.78,0,0,0.00018534,1852.1,6.1904e-05,8.8701,6.0718e-05,-0.045249,-0.00018519,-1847.7,1.4847
30544,15.965,0,0,0.00018076,1806.4,6.0407e-05,9.0183,5.92e-05,-0.047948,-0.00018061,-1801.9,1.5129
30545,16.15,0,0,0.00017621,1760.9,5.8916e-05,9.1687,5.7689e-05,-0.050646,-0.00017605,-1756.3,1.5413
30546,16.335,0,0,0.00017167,1715.5,5.7433e-05,9.3214,5.6185e-05,-0.053368,-0.00017151,-1710.9,1.5698
30547,16.519,0,0,0.00016716,1670.4,5.5956e-05,9.4765,5.4687e-05,-0.056145,-0.00016699,-1665.7,1.5984
30548,16.704,0,0,0.00016266,1625.5,5.4485e-05,9.6342,5.3195e-05,-0.058992,-0.0001625,-1620.7,1.6271
30549,16.889,0,0,0.00015819,1580.8,5.3022e-05,9.7947,5.171e-05,-0.061918,-0.00015802,-1575.9,1.656
30550,17.073,0,0,0.00015373,1536.2,5.1565e-05,9.9583,5.0231e-05,-0.064935,-0.00015356,-1531.3,1.6849
30551,17.258,0,0,0.00014929,1491.9,5.0115e-05,10.125,4.8759e-05,-0.068074,-0.00014912,-1486.8,1.7139
30552,17.443,0,0,0.00014488,1447.8,4.8672e-05,10.295,4.7292e-05,-0.07135,-0.0001447,-1442.6,1.7431
30553,17.628,0,0,0.00014048,1403.8,4.7235e-05,10.468,4.5832e-05,-0.074786,-0.0001403,-1398.6,1.7723
30554,17.812,0,0,0.0001361,1360.1,4.5805e-05,10.645,4.4378e-05,-0.078408,-0.00013592,-1354.7,1.8017
30555,17.997,0,0,0.00013174,1316.5,4.4382e-05,10.825,4.293e-05,-0.082244,-0.00013155,-1311.1,1.8311
30556,18.182,0,0,0.0001274,1273.1,4.2964e-05,11.008,4.1488e-05,-0.086313,-0.00012721,-1267.6,1.8606
30557,18.366,0,0,0.00012308,1229.9,4.1554e-05,11.196,4.0052e-05,-0.090627,-0.00012288,-1224.3,1.8902
30558,18.551,0,0,0.00011877,1186.9,4.0149e-05,11.386,3.8621e-05,-0.095228,-0.00011858,-1181.2,1.9199
30559,18.736,0,0,0.00011449,1144.1,3.8751e-05,11.58,3.7197e-05,-0.10014,-0.00011429,-1138.3,1.9497
30560,18.92,0,0,0.00011022,1101.4,3.736e-05,11.778,3.5778e-05,-0.1054,-0.00011001,-1095.5,1.9795
30561,19.105,0,0,0.00010597,1058.9,3.5974e-05,11.978,3.4365e-05,-0.11105,-0.00010576,-1053,2.0094
30562,19.29,0,0,0.00010173,1016.6,3.4594e-05,12.182,3.2957e-05,-0.11711,-0.00010152,-1010.6,2.0394
30563,19.475,0,0,9.7519e-05,974.51,3.322e-05,12.388,3.1555e-05,-0.12363,-9.7304e-05,-968.32,2.0695
30564,19.659,0,0,9.332e-05,932.55,3.1852e-05,12.596,3.0158e-05,-0.13065,-9.3101e-05,-926.26,2.0996
30565,19.844,0,0,8.9138e-05,890.76,3.049e-05,12.806,2.8767e-05,-0.13823,-8.8915e-05,-884.36,2.1298
30566,20.029,0,0,8.4972e-05,849.13,2.9133e-05,13.018,2.7381e-05,-0.14641,-8.4745e-05,-842.62,2.16
30567,20.213,0,0,8.0822e-05,807.67,2.7782e-05,13.23,2.6e-05,-0.15525,-8.0592e-05,-801.05,2.1903
30568,20.398,0,0,7.6689e-05,766.36,2.6436e-05,13.441,2.4625e-05,-0.16482,-7.6454e-05,-759.63,2.2207
30569,20.583,0,0,7.2571e-05,725.21,2.5094e-05,13.651,2.3254e-05,-0.17519,-7.2332e-05,-718.37,2.2511
30570,20.768,0,0,6.8468e-05,684.21,2.3758e-05,13.859,2.1889e-05,-0.18645,-6.8225e-05,-677.26,2.2815
30571,20.952,0,0,6.4381e-05,643.37,2.2427e-05,14.063,2.0529e-05,-0.1987,-6.4133e-05,-636.31,2.312
30572,21.137,0,0,6.0309e-05,602.67,2.11e-05,14.262,1.9173e-05,-0.21205,-6.0057e-05,-595.52,2.3425
30573,21.322,0,0,5.6252e-05,562.13,1.9777e-05,14.453,1.7824e-05,-0.22663,-5.5996e-05,-554.88,2.3731
30574,21.506,0,0,5.2211e-05,521.75,1.8459e-05,14.635,1.6479e-05,-0.24261,-5.195e-05,-514.39,2.4037
30575,21.691,0,0,4.8185e-05,481.52,1.7145e-05,14.804,1.514e-05,-0.26018,-4.792e-05,-474.07,2.4344
30576,21.876,0,0,4.4175e-05,441.45,1.5835e-05,14.957,1.3807e-05,-0.27959,-4.3906e-05,-433.91,2.4651
30577,22.061,0,0,4.0183e-05,401.55,1.4529e-05,15.09,1.248e-05,-0.30114,-3.9909e-05,-393.93,2.4958
30578,22.245,0,0,3.6209e-05,361.84,1.3227e-05,15.198,1.1161e-05,-0.32525,-3.5931e-05,-354.15,2.5265
30579,22.43,0,0,3.2255e-05,322.33,1.1928e-05,15.273,9.8489e-06,-0.35245,-3.1973e-05,-314.59,2.5573
30580,22.615,0,0,2.8325e-05,283.06,1.0635e-05,15.307,8.5463e-06,-0.38349,-2.8039e-05,-275.27,2.5881
30581,22.799,0,0,2.4423e-05,244.06,9.3451e-06,15.287,7.2548e-06,-0.41935,-2.4132e-05,-236.25,2.6189
30582,22.984,0,0,2.0555e-05,205.4,8.0607e-06,15.193,5.9771e-06,-0.46194,-2.0259e-05,-197.59,2.6497
30583,23.169,0,0,1.673e-05,167.19,6.7819e-06,14.999,4.7174e-06,-0.51216,-1.643e-05,-159.41,2.6805
30584,23.354,0,0,1.2965e-05,129.56,5.5085e-06,14.641,3.4825e-06,-0.5815,-1.2659e-05,-121.86,2.7113
30585,23.538,0,0,9.2908e-06,92.844,4.2448e-06,14.064,2.285e-06,-0.66166,-8.9747e-06,-85.263,2.7422
30586,23.723,0,0,5.7345e-06,57.305,2.9455e-06,12.553,1.1576e-06,-0.88119,-5.4165e-06,-50.276,2.773
30587,23.908,0,0,2.4023e-06,24.006,1.4992e-06,8.6105,2.6556e-07,-0.6587,-2.1287e-06,-18.648,2.8039
30588,3.8667,0.090909,0,2.7764e-05,277.44,1.1427e-05,28.269,7.8375e-06,1.2962,-2.7162e-05,-261.68,0.071054
30589,24,0.090909,0,2.3238e-06,23.221,2.1507e-06,20.33,-2.3947e-07,2.3711,-1.3394e-06,-5.8933,2.8194
30590,5.0067e-14,5.7273,0,0.00019113,1910,8.6477e-06,-1743.7,-4.6963e-06,-1843.9,-0.00025196,-3701.8,0
30591,4.8478e-14,5.5455,0,0.00026947,2692.8,3.5579e-06,-2583.8,-3.3101e-06,-2635.4,-0.00035822,-5302.1,0
30592,4.6888e-14,5.3636,0,0.00031101,3108,1.8319e-06,-3007.8,-2.2996e-06,-3038.8,-0.00041386,-6131.2,0
30593,4.5299e-14,5.1818,0,0.00033754,3373.1,1.133e-06,-3268.8,-1.4523e-06,-3288.2,-0.00044908,-6651.5,0
30594,4.371e-14,5,0,0.00035538,3551.3,7.5801e-07,-3443.6,-9.803e-07,-3456.7,-0.00047276,-7001.5,0
30595,4.212e-14,4.8182,0,0.00036791,3676.5,5.2535e-07,-3566.2,-6.8736e-07,-3575.3,-0.0004894,-7247.3,0
30596,4.0531e-14,4.6364,0,0.00037685,3765.9,3.6821e-07,-3653.7,-4.8914e-07,-3660.2,-0.00050127,-7422.9,0
30597,3.8941e-14,4.4545,0,0.00038326,3830,2.5695e-07,-3716.4,-3.4978e-07,-3721,-0.00050979,-7548.7,0
30598,3.7352e-14,4.2727,0,0.00038782,3875.5,1.7646e-07,-3761,-2.4891e-07,-3764.2,-0.00051584,-7638.2,0
30599,3.5762e-14,4.0909,0,0.00039102,3907.5,1.1803e-07,-3792.3,-1.7505e-07,-3794.5,-0.00052008,-7700.8,0
30600,3.4173e-14,3.9091,0,0.0003932,3929.3,7.6042e-08,-3813.7,-1.2106e-07,-3815.1,-0.00052298,-7743.7,0
30601,3.2583e-14,3.7273,0,0.00039465,3943.8,4.6481e-08,-3827.8,-8.2133e-08,-3828.8,-0.0005249,-7772.1,0
30602,3.0994e-14,3.5455,0,0.00039558,3953,2.6191e-08,-3836.9,-5.4722e-08,-3837.5,-0.00052613,-7790.2,0
30603,2.9405e-14,3.3636,0,0.00039613,3958.5,1.2586e-08,-3842.3,-3.6074e-08,-3842.6,-0.00052686,-7801,0
30604,2.7815e-14,3.1818,0,0.00039642,3961.4,3.8017e-09,-3845.1,-2.427e-08,-3845.3,-0.00052724,-7806.6,0
30605,2.6226e-14,3,0,0.00039651,3962.3,1.662e-10,-3846,-1.9628e-08,-3846.1,-0.00052736,-7808.4,0
30606,2.4636e-14,2.8182,0,0.00039642,3961.4,3.8016e-09,-3845.1,-2.427e-08,-3845.3,-0.00052724,-7806.6,0
30607,2.3047e-14,2.6364,0,0.00039613,3958.5,1.2586e-08,-3842.3,-3.6074e-08,-3842.6,-0.00052686,-7801,0
30608,2.1457e-14,2.4545,0,0.00039558,3953,2.6191e-08,-3836.9,-5.4722e-08,-3837.5,-0.00052613,-7790.2,0
30609,1.9868e-14,2.2727,0,0.00039465,3943.8,4.6481e-08,-3827.8,-8.2133e-08,-3828.8,-0.0005249,-7772.1,0
30610,1.8279e-14,2.0909,0,0.0003932,3929.3,7.6042e-08,-3813.7,-1.2106e-07,-3815.1,-0.00052298,-7743.7,0
30611,1.6689e-14,1.9091,0,0.00039102,3907.5,1.1803e-07,-3792.3,-1.7505e-07,-3794.5,-0.00052008,-7700.8,0
30612,1.51e-14,1.7273,0,0.00038782,3875.5,1.7646e-07,-3761,-2.4891e-07,-3764.2,-0.00051584,-7638.2,0
30613,1.351e-14,1.5455,0,0.00038326,3830,2.5695e-07,-3716.4,-3.4978e-07,-3721,-0.00050979,-7548.7,0
30614,1.1921e-14,1.3636,0,0.00037685,3765.9,3.6821e-07,-3653.7,-4.8914e-07,-3660.2,-0.00050127,-7422.9,0
30615,1.0331e-14,1.1818,0,0.00036791,3676.5,5.2535e-07,-3566.2,-6.8736e-07,-3575.3,-0.0004894,-7247.3,0
30616,8.7419e-15,1,0,0.00035538,3551.3,7.5801e-07,-3443.6,-9.803e-07,-3456.7,-0.00047276,-7001.5,0
30617,7.1525e-15,0.81818,0,0.00033754,3373.1,1.133e-06,-3268.8,-1.4523e-06,-3288.2,-0.00044908,-6651.5,0
30618,5.563e-15,0.63636,0,0.00031101,3108,1.8319e-06,-3007.8,-2.2996e-06,-3038.8,-0.00041386,-6131.2,0
30619,3.9736e-15,0.45455,0,0.00026947,2692.8,3.5579e-06,-2583.8,-3.3101e-06,-2635.4,-0.00035822,-5302.1,0
30620,2.3842e-15,0.27273,0,0.00019113,1910,8.6477e-06,-1743.7,-4.6963e-06,-1843.9,-0.00025196,-3701.8,0
30621,24,0.27273,0,5.3342e-06,53.305,5.1942e-06,50.334,-1.2151e-06,2.1764,-2.4287e-06,-6.942,2.8195
30622,24,0.45455,0,7.7632e-06,77.579,7.6358e-06,74.678,-2.0012e-06,2.2688,-3.2616e-06,-7.2008,2.8197
30623,24,0.63636,0,9.6964e-06,96.897,9.5768e-06,94.085,-2.6277e-06,2.385,-3.9146e-06,-7.2843,2.8198
30624,24,0.81818,0,1.1324e-05,113.16,1.1209e-05,110.41,-3.1629e-06,2.4198,-4.4559e-06,-7.2947,2.8199
30625,24,1,0,1.2718e-05,127.1,1.2609e-05,124.41,-3.6234e-06,2.4493,-4.9163e-06,-7.265,2.8201
30626,24,1.1818,0,1.3924e-05,139.15,1.3818e-05,136.52,-4.0227e-06,2.469,-5.3123e-06,-7.2203,2.8202
30627,24,1.3636,0,1.4968e-05,149.58,1.4865e-05,147,-4.3692e-06,2.4842,-5.6539e-06,-7.1692,2.8203
30628,24,1.5455,0,1.587e-05,158.59,1.5769e-05,156.06,-4.6687e-06,2.4959,-5.9482e-06,-7.1175,2.8204
30629,24,1.7273,0,1.6642e-05,166.31,1.6544e-05,163.82,-4.9257e-06,2.505,-6.1999e-06,-7.0683,2.8205
30630,24,1.9091,0,1.7296e-05,172.84,1.72e-05,170.39,-5.1434e-06,2.5122,-6.4125e-06,-7.0235,2.8206
30631,24,2.0909,0,1.7838e-05,178.26,1.7743e-05,175.84,-5.3241e-06,2.5178,-6.5887e-06,-6.9843,2.8206
30632,24,2.2727,0,1.8275e-05,182.63,1.8182e-05,180.23,-5.4697e-06,2.5221,-6.7306e-06,-6.9515,2.8207
30633,24,2.4545,0,1.8611e-05,185.98,1.8518e-05,183.6,-5.5817e-06,2.5253,-6.8395e-06,-6.9256,2.8207
30634,24,2.6364,0,1.8849e-05,188.36,1.8757e-05,185.99,-5.661e-06,2.5275,-6.9166e-06,-6.9069,2.8208
30635,24,2.8182,0,1.8991e-05,189.78,1.8899e-05,187.42,-5.7083e-06,2.5288,-6.9626e-06,-6.8956,2.8208
30636,24,3,0,1.9038e-05,190.25,1.8946e-05,187.89,-5.724e-06,2.5292,-6.9779e-06,-6.8918,2.8208
30637,24,3.1818,0,1.8991e-05,189.78,1.8899e-05,187.42,-5.7083e-06,2.5288,-6.9626e-06,-6.8956,2.8208
30638,24,3.3636,0,1.8849e-05,188.36,1.8757e-05,185.99,-5.661e-06,2.5275,-6.9166e-06,-6.9069,2.8208
30639,24,3.5455,0,1.8611e-05,185.98,1.8518e-05,183.6,-5.5817e-06,2.5253,-6.8395e-06,-6.9256,2.8207
30640,24,3.7273,0,1.8275e-05,182.63,1.8182e-05,180.23,-5.4697e-06,2.5221,-6.7306e-06,-6.9515,2.8207
30641,24,3.9091,0,1.7838e-05,178.26,1.7743e-05,175.84,-5.3241e-06,2.5178,-6.5887e-06,-6.9843,2.8206
30642,24,4.0909,0,1.7296e-05,172.84,1.72e-05,170.39,-5.1434e-06,2.5122,-6.4125e-06,-7.0235,2.8206
30643,24,4.2727,0,1.6642e-05,166.31,1.6544e-05,163.82,-4.9257e-06,2.505,-6.1998e-06,-7.0683,2.8205
30644,24,4.4545,0,1.587e-05,158.59,1.5769e-05,156.06,-4.6687e-06,2.4959,-5.9482e-06,-7.1175,2.8204
30645,24,4.6364,0,1.4968e-05,149.58,1.4865e-05,147,-4.3692e-06,2.4842,-5.6539e-06,-7.1692,2.8203
30646,24,4.8182,0,1.3924e-05,139.15,1.3818e-05,136.52,-4.0227e-06,2.469,-5.3123e-06,-7.2203,2.8202
30647,24,5,0,1.2718e-05,127.1,1.2609e-05,124.41,-3.6234e-06,2.4493,-4.9163e-06,-7.265,2.8201
30648,24,5.1818,0,1.1324e-05,113.16,1.1209e-05,110.41,-3.1629e-06,2.4198,-4.4559e-06,-7.2947,2.8199
30649,24,5.3636,0,9.6964e-06,96.897,9.5768e-06,94.085,-2.6277e-06,2.385,-3.9146e-06,-7.2843,2.8198
30650,24,5.5455,0,7.7632e-06,77.579,7.6358e-06,74.678,-2.0012e-06,2.2688,-3.2616e-06,-7.2008,2.8197
30651,24,5.7273,0,5.3342e-06,53.305,5.1942e-06,50.334,-1.2151e-06,2.1764,-2.4287e-06,-6.942,2.8195
30652,24,5.9091,0,2.3238e-06,23.221,2.1507e-06,20.33,-2.3947e-07,2.371,-1.3394e-06,-5.8933,2.8194
30653,23.908,6,0,2.4023e-06,24.006,1.4992e-06,8.6105,2.6556e-07,-0.6587,-2.1287e-06,-18.648,2.8039
30654,23.723,6,0,5.7345e-06,57.305,2.9455e-06,12.553,1.1576e-06,-0.88119,-5.4165e-06,-50.276,2.773
30655,23.538,6,0,9.2908e-06,92.844,4.2448e-06,14.064,2.285e-06,-0.66166,-8.9747e-06,-85.263,2.7422
30656,23.354,6,0,1.2965e-05,129.56,5.5085e-06,14.641,3.4825e-06,-0.5815,-1.2659e-05,-121.86,2.7113
30657,23.169,6,0,1.673e-05,167.19,6.7819e-06,14.999,4.7174e-06,-0.51216,-1.643e-05,-159.41,2.6805
30658,22.984,6,0,2.0555e-05,205.4,8.0607e-06,15.193,5.9771e-06,-0.46193,-2.0259e-05,-197.59,2.6497
30659,22.799,6,0,2.4423e-05,244.06,9.3451e-06,15.287,7.2548e-06,-0.41935,-2.4132e-05,-236.25,2.6189
30660,22.615,6,0,2.8325e-05,283.06,1.0635e-05,15.307,8.5463e-06,-0.38349,-2.8039e-05,-275.27,2.5881
30661,22.43,6,0,3.2255e-05,322.33,1.1928e-05,15.273,9.8489e-06,-0.35245,-3.1973e-05,-314.59,2.5573
30662,22.245,6,0,3.6209e-05,361.84,1.3227e-05,15.198,1.1161e-05,-0.32525,-3.5931e-05,-354.15,2.5265
30663,22.061,6,0,4.0183e-05,401.55,1.4529e-05,15.09,1.248e-05,-0.30114,-3.9909e-05,-393.93,2.4958
30664,21.876,6,0,4.4175e-05,441.45,1.5835e-05,14.957,1.3807e-05,-0.27959,-4.3906e-05,-433.91,2.4651
30665,21.691,6,0,4.8185e-05,481.52,1.7145e-05,14.804,1.514e-05,-0.26018,-4.792e-05,-474.07,2.4344
30666,21.506,6,0,5.2211e-05,521.75,1.8459e-05,14.635,1.6479e-05,-0.24261,-5.195e-05,-514.39,2.4037
30667,21.322,6,0,5.6252e-05,562.13,1.9777e-05,14.453,1.7824e-05,-0.22663,-5.5996e-05,-554.88,2.3731
30668,21.137,6,0,6.0309e-05,602.67,2.11e-05,14.262,1.9173e-05,-0.21205,-6.0057e-05,-595.52,2.3425
30669,20.952,6,0,6.4381e-05,643.37,2.2427e-05,14.063,2.0529e-05,-0.1987,-6.4133e-05,-636.31,2.312
30670,20.768,6,0,6.8468e-05,684.21,2.3758e-05,13.859,2.1889e-05,-0.18645,-6.8225e-05,-677.26,2.2815
30671,20.583,6,0,7.2571e-05,725.21,2.5094e-05,13.651,2.3254e-05,-0.17519,-7.2332e-05,-718.37,2.2511
30672,20.398,6,0,7.6689e-05,766.36,2.6436e-05,13.441,2.4625e-05,-0.16482,-7.6454e-05,-759.63,2.2207
30673,20.213,6,0,8.0822e-05,807.67,2.7782e-05,13.23,2.6e-05,-0.15525,-8.0592e-05,-801.05,2.1903
30674,20.029,6,0,8.4972e-05,849.13,2.9133e-05,13.018,2.7381e-05,-0.14641,-8.4745e-05,-842.62,2.16
30675,19.844,6,0,8.9138e-05,890.76,3.049e-05,12.806,2.8767e-05,-0.13823,-8.8915e-05,-884.36,2.1298
30676,19.659,6,0,9.332e-05,932.55,3.1852e-05,12.596,3.0158e-05,-0.13065,-9.3101e-05,-926.26,2.0996
30677,19.475,6,0,9.7519e-05,974.51,3.322e-05,12.388,3.1555e-05,-0.12363,-9.7304e-05,-968.32,2.0695
30678,19.29,6,0,0.00010173,1016.6,3.4594e-05,12.182,3.2957e-05,-0.11711,-0.00010152,-1010.6,2.0394
30679,19.105,6,0,0.00010597,1058.9,3.5974e-05,11.978,3.4365e-05,-0.11105,-0.00010576,-1053,2.0094
30680,18.92,6,0,0.00011022,1101.4,3.736e-05,11.778,3.5778e-05,-0.1054,-0.00011001,-1095.5,1.9795
30681,18.736,6,0,0.00011449,1144.1,3.8751e-05,11.58,3.7197e-05,-0.10014,-0.00011429,-1138.3,1.9497
30682,18.551,6,0,0.00011877,1186.9,4.0149e-05,11.386,3.8621e-05,-0.095227,-0.00011858,-1181.2,1.9199
30683,18.366,6,0,0.00012308,1229.9,4.1554e-05,11.196,4.0052e-05,-0.090624,-0.00012288,-1224.3,1.8902
30684,18.182,6,0,0.0001274,1273.1,4.2964e-05,11.008,4.1488e-05,-0.086308,-0.00012721,-1267.6,1.8606
30685,17.997,6,0,0.00013174,1316.5,4.4382e-05,10.825,4.293e-05,-0.082244,-0.00013155,-1311.1,1.8311
30686,17.812,6,0,0.0001361,1360.1,4.5805e-05,10.645,4.4378e-05,-0.078408,-0.00013592,-1354.7,1.8017
30687,17.628,6,0,0.00014048,1403.8,4.7235e-05,10.468,4.5832e-05,-0.074784,-0.0001403,-1398.6,1.7723
30688,17.443,6,0,0.00014488,1447.8,4.8672e-05,10.295,4.7292e-05,-0.071351,-0.0001447,-1442.6,1.7431
30689,17.258,6,0,0.00014929,1491.9,5.0115e-05,10.125,4.8759e-05,-0.068076,-0.00014912,-1486.8,1.7139
30690,17.073,6,0,0.00015373,1536.2,5.1565e-05,9.9583,5.0231e-05,-0.064934,-0.00015356,-1531.3,1.6849
30691,16.889,6,0,0.00015819,1580.8,5.3022e-05,9.7947,5.171e-05,-0.061915,-0.00015802,-1575.9,1.656
30692,16.704,6,0,0.00016266,1625.5,5.4485e-05,9.6342,5.3195e-05,-0.05899,-0.0001625,-1620.7,1.6271
30693,16.519,6,0,0.00016716,1670.4,5.5956e-05,9.4765,5.4687e-05,-0.056144,-0.00016699,-1665.7,1.5984
30694,16.335,6,0,0.00017167,1715.5,5.7433e-05,9.3214,5.6185e-05,-0.053369,-0.00017151,-1710.9,1.5698
30695,16.15,6,0,0.00017621,1760.9,5.8916e-05,9.1687,5.7689e-05,-0.050648,-0.00017605,-1756.3,1.5413
30696,15.965,6,0,0.00018076,1806.4,6.0407e-05,9.0184,5.92e-05,-0.047949,-0.00018061,-1801.9,1.5129
30697,15.78,6,0,0.00018534,1852.1,6.1904e-05,8.8701,6.0718e-05,-0.045249,-0.00018519,-1847.7,1.4847
30698,15.596,6,0,0.00018993,1898,6.3409e-05,8.7236,6.2242e-05,-0.042556,-0.00018978,-1893.7,1.4565
30699,15.411,6,0,0.00019455,1944.2,6.492e-05,8.5788,6.3773e-05,-0.039841,-0.0001944,-1939.9,1.4285
30700,15.226,6,0,0.00019919,1990.5,6.6438e-05,8.4355,6.531e-05,-0.037076,-0.00019904,-1986.3,1.4007
30701,15.042,6,0,0.00020384,2037,6.7963e-05,8.2932,6.6855e-05,-0.034256,-0.0002037,-2032.9,1.373
30702,14.857,6,0,0.00020852,2083.8,6.9495e-05,8.152,6.8406e-05,-0.031353,-0.00020838,-2079.7,1.3454
30703,14.672,6,0,0.00021322,2130.8,7.1034e-05,8.0113,6.9964e-05,-0.028351,-0.00021309,-2126.8,1.3179
30704,14.487,6,0,0.00021794,2177.9,7.258e-05,7.8711,7.1529e-05,-0.025246,-0.00021781,-2174,1.2906
30705,14.303,6,0,0.00022268,2225.3,7.4132e-05,7.731,7.3101e-05,-0.022019,-0.00022255,-2221.4,1.2634
30706,14.118,6,0,0.00022745,2272.9,7.5692e-05,7.5907,7.4679e-05,-0.018636,-0.00022732,-2269.1,1.2364
30707,13.933,6,0,0.00023223,2320.7,7.7259e-05,7.45,7.6265e-05,-0.015072,-0.0002321,-2317,1.2096
30708,13.749,6,0,0.00023704,2368.7,7.8833e-05,7.3086,7.7858e-05,-0.011321,-0.00023691,-2365.1,1.1829
30709,13.564,6,0,0.00024186,2417,8.0413e-05,7.1661,7.9459e-05,-0.0073447,-0.00024174,-2413.4,1.1564
30710,13.379,6,0,0.00024671,2465.4,8.2001e-05,7.0223,8.1066e-05,-0.003127,-0.00024659,-2461.9,1.13
30711,13.194,6,0,0.00025158,2514.1,8.3596e-05,6.8769,8.2681e-05,0.0013397,-0.00025146,-2510.6,1.1038
30712,13.01,6,0,0.00025647,2563,8.5198e-05,6.7294,8.4303e-05,0.0060786,-0.00025636,-2559.6,1.0778
30713,12.825,6,0,0.00026139,2612.1,8.6807e-05,6.5797,8.5933e-05,0.011131,-0.00026128,-2608.8,1.0519
30714,12.64,6,0,0.00026633,2661.4,8.8423e-05,6.4273,8.757e-05,0.016525,-0.00026622,-2658.2,1.0262
30715,12.456,6,0,0.00027128,2711,9.0047e-05,6.272,8.9215e-05,0.022271,-0.00027118,-2707.8,1.0007
30716,12.271,6,0,0.00027627,2760.8,9.1677e-05,6.1135,9.0867e-05,0.028413,-0.00027616,-2757.7,0.97542
30717,12.086,6,0,0.00028127,2810.8,9.3315e-05,5.9514,9.2527e-05,0.034956,-0.00028117,-2807.8,0.95029
30718,11.902,6,0,0.0002863,2861,9.496e-05,5.7855,9.4195e-05,0.041907,-0.0002862,-2858.1,0.92536
30719,11.717,6,0,0.00029135,2911.5,9.6612e-05,5.6155,9.5871e-05,0.049326,-0.00029125,-2908.6,0.90062
30720,11.532,6,0,0.00029642,2962.2,9.8271e-05,5.4411,9.7554e-05,0.057217,-0.00029633,-2959.4,0.87608
30721,11.347,6,0,0.00030152,3013.1,9.9937e-05,5.2623,9.9245e-05,0.065572,-0.00030143,-3010.4,0.85174
30722,11.163,6,0,0.00030663,3064.2,0.00010161,5.0789,0.00010094,0.074395,-0.00030655,-3061.6,0.82761
30723,10.978,6,0,0.00031177,3115.6,0.00010329,4.8907,0.00010265,0.083703,-0.00031169,-3113.1,0.80368
30724,10.793,6,0,0.00031693,3167.2,0.00010498,4.698,0.00010436,0.09349,-0.00031685,-3164.8,0.77997
30725,10.609,6,0,0.00032212,3218.9,0.00010667,4.5007,0.00010608,0.10371,-0.00032204,-3216.6,0.75647
30726,10.424,6,0,0.00032732,3270.9,0.00010837,4.2993,0.00010781,0.11434,-0.00032724,-3268.7,0.7332
30727,10.239,6,0,0.00033253,3323.1,0.00011007,4.0943,0.00010954,0.12529,-0.00033246,-3320.9,0.71014
30728,10.054,6,0,0.00033777,3375.4,0.00011178,3.8861,0.00011128,0.13644,-0.0003377,-3373.3,0.68731
30729,9.8697,6,0,0.00034301,3427.8,0.00011349,3.6759,0.00011303,0.14768,-0.00034295,-3425.9,0.66471
30730,9.685,6,0,0.00034827,3480.3,0.00011521,3.4649,0.00011477,0.15884,-0.00034821,-3478.5,0.64235
30731,9.5003,6,0,0.00035353,3532.8,0.00011693,3.2546,0.00011652,0.16966,-0.00035347,-3531.1,0.62022
30732,9.3156,6,0,0.00035878,3585.3,0.00011864,3.0472,0.00011826,0.17983,-0.00035873,-3583.7,0.59834
30733,9.1309,6,0,0.00036402,3637.7,0.00012036,2.845,0.00012,0.18897,-0.00036397,-3636.2,0.5767
30734,8.9462,6,0,0.00036924,3689.9,0.00012206,2.6512,0.00012173,0.19658,-0.00036919,-3688.4,0.5553
30735,8.7615,6,0,0.00037442,3741.6,0.00012376,2.4696,0.00012345,0.20204,-0.00037437,-3740.3,0.53416
30736,8.5768,6,0,0.00037954,3792.8,0.00012543,2.3047,0.00012515,0.2046,-0.0003795,-3791.5,0.51327
30737,8.392,6,0,0.00038458,3843.1,0.00012708,2.1618,0.00012682,0.2033,-0.00038454,-3842,0.49265
30738,8.2073,6,0,0.0003895,3892.3,0.0001287,2.0474,0.00012845,0.19704,-0.00038946,-3891.2,0.47228
30739,8.0226,6,0,0.00039427,3940,0.00013027,1.969,0.00013003,0.18445,-0.00039424,-3938.9,0.45218
30740,7.8379,6,0,0.00039884,3985.6,0.00013177,1.9355,0.00013153,0.16394,-0.0003988,-3984.6,0.43235
30741,7.6532,6,0,0.00040313,4028.6,0.00013319,1.9573,0.00013295,0.1337,-0.0004031,-4027.5,0.41279
30742,7.4685,6,0,0.00040708,4068,0.0001345,2.0464,0.00013424,0.091664,-0.00040704,-4066.9,0.39351
30743,7.2838,6,0,0.00041057,4102.9,0.00013567,2.2171,0.00013538,0.035581,-0.00041054,-4101.8,0.3745
30744,7.0991,6,0,0.00041349,4132,0.00013666,2.486,0.00013633,-0.036936,-0.00041345,-4130.8,0.35577
30745,6.9144,6,0,0.00041567,4153.8,0.00013742,2.8728,0.00013702,-0.12828,-0.00041562,-4152.4,0.33733
30746,6.7297,6,0,0.0004169,4166.2,0.00013787,3.4008,0.00013739,-0.24065,-0.00041685,-4164.6,0.31917
30747,6.545,6,0,0.00041696,4166.8,0.00013796,4.0974,0.00013736,-0.37558,-0.0004169,-4164.9,0.30129
30748,6.3602,6,0,0.00041554,4152.5,0.00013757,4.995,0.00013684,-0.53341,-0.00041547,-4150.3,0.2837
30749,6.1755,6,0,0.00041228,4119.9,0.0001366,6.1311,0.00013569,-0.71224,-0.00041218,-4117.2,0.26639
30750,5.9908,6,0,0.00040673,4064.5,0.0001349,7.5474,0.00013377,-0.90664,-0.00040662,-4061.2,0.24936
30751,5.8061,6,0,0.00039839,3981.2,0.0001323,9.2877,0.00013092,-1.1057,-0.00039825,-3977.1,0.23261
30752,5.6214,6,0,0.00038667,3864.1,0.00012862,11.391,0.00012693,-1.2906,-0.0003865,-3859,0.21613
30753,5.4367,6,0,0.00037091,3706.5,0.00012363,13.881,0.00012159,-1.4314,-0.00037069,-3700.3,0.19991
30754,5.252,6,0,0.00035039,3501.5,0.0001171,16.739,0.00011467,-1.4857,-0.00035013,-3493.8,0.18395
30755,5.0673,6,0,0.00032442,3242,0.00010879,19.876,0.00010596,-1.3922,-0.0003241,-3232.7,0.16822
30756,4.8826,6,0,0.00029238,2921.8,9.8463e-05,23.061,9.5248e-05,-1.0952,-0.000292,-2910.7,0.15271
30757,4.6979,6,0,0.0002538,2536.2,8.5934e-05,25.863,8.2429e-05,-0.47026,-0.00025335,-2523.4,0.13741
30758,4.5132,6,0,0.00020847,2083.2,7.1065e-05,27.411,6.7457e-05,0.29707,-0.00020798,-2069.2,0.12227
30759,4.3284,6,0,0.00015646,1563.5,5.3734e-05,26.505,5.0493e-05,2.1514,-0.00015596,-1549,0.10728
30760,4.1437,6,0,9.7258e-05,971.91,3.3966e-05,22.52,3.0981e-05,0.089295,-9.6854e-05,-960.41,0.092389
30761,3.959,6,0,3.4019e-05,339.96,1.2927e-05,7.3419,8.9403e-06,-22.615,-3.418e-05,-346.6,0.077573
30762,3.8667,5.9091,0,2.7764e-05,277.44,1.1427e-05,28.269,7.8375e-06,1.2962,-2.7162e-05,-261.68,0.071054
30763,3.7,1.7273,0,0.00092438,9237.5,0.00066232,4680.6,5.0115e-05,80.663,-0.00075301,-5953.7,0.079451
30764,3.7,1.9091,0,0.001758,17568,0.0010146,4570.7,0.00019086,-1618.4,-0.001624,-15255,0.081932
30765,3.7,1.5455,0,0.00062054,6201.1,0.00040839,2656.4,6.7823e-05,97.518,-0.00053271,-4414.7,0.077139
30766,3.7,1.3636,0,0.00049716,4968.1,0.00032059,2019,5.7606e-05,42.988,-0.00043166,-3633.1,0.074942
30767,3.7,1.1818,0,0.00040174,4014.7,0.00024925,1500,5.4727e-05,38.49,-0.00035508,-3040.6,0.072856
30768,3.7,1,0,0.00032812,3278.9,0.00019599,1122.7,5.0578e-05,30.136,-0.00029455,-2563,0.070875
30769,3.7,0.81818,0,0.00026584,2656.6,0.00015225,824.19,4.6131e-05,26.871,-0.00024222,-2139.7,0.068992
30770,3.7,0.63636,0,0.00020972,2095.8,0.00011448,578.05,4.0744e-05,24.033,-0.00019391,-1739.1,0.067198
30771,3.7,0.45455,0,0.00015609,1559.8,8.0307e-05,369.88,3.4153e-05,23.093,-0.00014648,-1334.1,0.065483
30772,3.7,0.27273,0,0.00010026,1001.9,4.7713e-05,191.44,2.493e-05,20.254,-9.5552e-05,-885,0.063834
30773,3.7833,2,0,0.0024238,24222,0.001155,2776.1,0.0004113,-2811.5,-0.0023756,-23751,0.087689
30774,3.8667,0.27273,0,7.6828e-05,767.75,3.8316e-05,169.8,1.7991e-05,17.086,-7.25e-05,-662.83,0.07282
30775,3.8667,0.45455,0,0.00012096,1208.8,6.5743e-05,332.83,2.4042e-05,19.501,-0.00011188,-1001.8,0.07462
30776,3.8667,0.63636,0,0.00016528,1651.6,9.5493e-05,525.71,2.8289e-05,20.762,-0.00015008,-1319.4,0.076465
30777,3.8667,0.81818,0,0.0002137,2135.6,0.00012925,754.78,3.1943e-05,23.683,-0.00019085,-1650.3,0.078365
30778,3.8667,1,0,0.0002696,2694.1,0.0001691,1032.2,3.5327e-05,27.042,-0.00023712,-2020,0.080325
30779,3.8667,1.1818,0,0.00033785,3376.1,0.00021828,1381.1,3.9181e-05,35.368,-0.00029298,-2460.4,0.082352
30780,3.8667,1.3636,0,0.00042854,4282.5,0.00028486,1858.9,4.2749e-05,39.772,-0.0003662,-3032.9,0.084452
30781,3.8667,1.5455,0,0.00054762,5472.4,0.00036689,2438.3,5.4902e-05,94.081,-0.00046546,-3815.7,0.086634
30782,3.8667,1.7273,0,0.00084099,8404.1,0.00060666,4318.8,4.2144e-05,77.33,-0.00068162,-5360.7,0.088902
30783,3.8667,1.9091,0,0.0016859,16847,0.00096067,4218.1,0.00019262,-1552.7,-0.0015647,-14756,0.091315
30784,3.7,4.2727,0,0.00092438,9237.5,0.00066232,4680.6,5.0115e-05,80.663,-0.00075301,-5953.7,0.079451
30785,3.7,4.0909,0,0.001758,17568,0.0010146,4570.7,0.00019086,-1618.4,-0.001624,-15255,0.081932
30786,3.7,4.4545,0,0.00062054,6201.1,0.00040839,2656.4,6.7823e-05,97.518,-0.00053271,-4414.7,0.077139
30787,3.7,4.6364,0,0.00049716,4968.1,0.00032059,2019,5.7606e-05,42.988,-0.00043166,-3633.1,0.074942
30788,3.7,4.8182,0,0.00040174,4014.7,0.00024925,1500,5.4727e-05,38.49,-0.00035508,-3040.6,0.072856
30789,3.7,5,0,0.00032812,3278.9,0.00019599,1122.7,5.0578e-05,30.136,-0.00029455,-2563,0.070875
30790,3.7,5.1818,0,0.00026584,2656.6,0.00015225,824.19,4.6131e-05,26.871,-0.00024222,-2139.7,0.068992
30791,3.7,5.3636,0,0.00020972,2095.8,0.00011448,578.05,4.0744e-05,24.033,-0.00019391,-1739.1,0.067198
30792,3.7,5.5455,0,0.00015609,1559.8,8.0307e-05,369.88,3.4153e-05,23.093,-0.00014648,-1334.1,0.065483
30793,3.7,5.7273,0,0.00010026,1001.9,4.7713e-05,191.44,2.493e-05,20.254,-9.5552e-05,-885,0.063834
30794,3.7833,4,0,0.0024238,24222,0.001155,2776.1,0.0004113,-2811.5,-0.0023756,-23751,0.087689
30795,3.8667,5.7273,0,7.6828e-05,767.75,3.8316e-05,169.8,1.7991e-05,17.086,-7.25e-05,-662.83,0.07282
30796,3.8667,5.5455,0,0.00012096,1208.8,6.5743e-05,332.83,2.4042e-05,19.501,-0.00011188,-1001.8,0.07462
30797,3.8667,5.3636,0,0.00016528,1651.6,9.5493e-05,525.71,2.8289e-05,20.762,-0.00015008,-1319.4,0.076465
30798,3.8667,5.1818,0,0.0002137,2135.6,0.00012925,754.78,3.1943e-05,23.683,-0.00019085,-1650.3,0.078365
30799,3.8667,5,0,0.0002696,2694.1,0.0001691,1032.2,3.5327e-05,27.042,-0.00023712,-2020,0.080325
30800,3.8667,4.8182,0,0.00033785,3376.1,0.00021828,1381.1,3.9181e-05,35.368,-0.00029298,-2460.4,0.082352
30801,3.8667,4.6364,0,0.00042854,4282.5,0.00028486,1858.9,4.2749e-05,39.772,-0.0003662,-3032.9,0.084452
30802,3.8667,4.4545,0,0.00054762,5472.4,0.00036689,2438.3,5.4902e-05,94.081,-0.00046546,-3815.7,0.086634
30803,3.8667,4.2727,0,0.00084099,8404.1,0.00060666,4318.8,4.2144e-05,77.33,-0.00068162,-5360.7,0.088902
30804,3.8667,4.0909,0,0.0016859,16847,0.00096067,4218.1,0.00019262,-1552.7,-0.0015647,-14756,0.091315
