Node Number	X Location (in)	Y Location (in)	Z Location (in)	Minimum Principal Stress (psi)
1	3.7	2.1818	0.	-18633
2	3.7	2.3636	0.	-14815
3	3.7	2.5455	0.	-13070
4	3.7	2.7273	0.	-12184
5	3.7	2.9091	0.	-11806
6	3.7	3.0909	0.	-11806
7	3.7	3.2727	0.	-12184
8	3.7	3.4545	0.	-13070
9	3.7	3.6364	0.	-14815
10	3.7	3.8182	0.	-18633
11	3.8667	2.1818	0.	-18488
12	3.8667	2.3636	0.	-14718
13	3.8667	2.5455	0.	-12996
14	3.8667	2.7273	0.	-12120
15	3.8667	2.9091	0.	-11745
16	3.8667	3.0909	0.	-11745
17	3.8667	3.2727	0.	-12120
18	3.8667	3.4545	0.	-12996
19	3.8667	3.6364	0.	-14718
20	3.8667	3.8182	0.	-18488
21	3.515	5.8182	0.	-1185.6
22	3.515	5.6364	0.	-1636.7
23	3.515	5.4545	0.	-2149.8
24	3.515	5.2727	0.	-2687.6
25	3.515	5.0909	0.	-3269.1
26	3.515	4.9091	0.	-3928.1
27	3.515	4.7273	0.	-4719.1
28	3.515	4.5455	0.	-5763.1
29	3.515	4.3636	0.	-7246.9
30	3.515	4.1818	0.	-10143
31	3.515	4.	0.	-13796
32	3.515	3.8182	0.	-13951
33	3.515	3.6364	0.	-13151
34	3.515	3.4545	0.	-12208
35	3.515	3.2727	0.	-11656
36	3.515	3.0909	0.	-11393
37	3.515	2.9091	0.	-11393
38	3.515	2.7273	0.	-11656
39	3.515	2.5455	0.	-12208
40	3.515	2.3636	0.	-13151
41	3.515	2.1818	0.	-13951
42	3.515	2.	0.	-13796
43	3.515	1.8182	0.	-10143
44	3.515	1.6364	0.	-7246.9
45	3.515	1.4545	0.	-5763.1
46	3.515	1.2727	0.	-4719.1
47	3.515	1.0909	0.	-3928.1
48	3.515	0.90909	0.	-3269.1
49	3.515	0.72727	0.	-2687.6
50	3.515	0.54545	0.	-2149.8
51	3.515	0.36364	0.	-1636.7
52	3.515	0.18182	0.	-1185.6
53	3.33	5.8182	0.	-1832.8
54	3.33	5.6364	0.	-2076.4
55	3.33	5.4545	0.	-2455.8
56	3.33	5.2727	0.	-2909.2
57	3.33	5.0909	0.	-3428.5
58	3.33	4.9091	0.	-4029.6
59	3.33	4.7273	0.	-4750.5
60	3.33	4.5455	0.	-5646.9
61	3.33	4.3636	0.	-6811.
62	3.33	4.1818	0.	-8261.6
63	3.33	4.	0.	-9617.4
64	3.33	3.8182	0.	-10676
65	3.33	3.6364	0.	-10994
66	3.33	3.4545	0.	-10908
67	3.33	3.2727	0.	-10741
68	3.33	3.0909	0.	-10638
69	3.33	2.9091	0.	-10638
70	3.33	2.7273	0.	-10741
71	3.33	2.5455	0.	-10908
72	3.33	2.3636	0.	-10994
73	3.33	2.1818	0.	-10676
74	3.33	2.	0.	-9617.4
75	3.33	1.8182	0.	-8261.6
76	3.33	1.6364	0.	-6811.
77	3.33	1.4545	0.	-5646.9
78	3.33	1.2727	0.	-4750.5
79	3.33	1.0909	0.	-4029.6
80	3.33	0.90909	0.	-3428.5
81	3.33	0.72727	0.	-2909.2
82	3.33	0.54545	0.	-2455.8
83	3.33	0.36364	0.	-2076.4
84	3.33	0.18182	0.	-1832.8
85	3.145	5.8182	0.	-2492.2
86	3.145	5.6364	0.	-2653.5
87	3.145	5.4545	0.	-2938.7
88	3.145	5.2727	0.	-3312.6
89	3.145	5.0909	0.	-3764.3
90	3.145	4.9091	0.	-4296.7
91	3.145	4.7273	0.	-4923.
92	3.145	4.5455	0.	-5662.6
93	3.145	4.3636	0.	-6510.1
94	3.145	4.1818	0.	-7426.5
95	3.145	4.	0.	-8315.2
96	3.145	3.8182	0.	-9024.1
97	3.145	3.6364	0.	-9484.4
98	3.145	3.4545	0.	-9693.1
99	3.145	3.2727	0.	-9756.6
100	3.145	3.0909	0.	-9766.8
101	3.145	2.9091	0.	-9766.8
102	3.145	2.7273	0.	-9756.6
103	3.145	2.5455	0.	-9693.1
104	3.145	2.3636	0.	-9484.4
105	3.145	2.1818	0.	-9024.1
106	3.145	2.	0.	-8315.2
107	3.145	1.8182	0.	-7426.5
108	3.145	1.6364	0.	-6510.1
109	3.145	1.4545	0.	-5662.6
110	3.145	1.2727	0.	-4923.
111	3.145	1.0909	0.	-4296.7
112	3.145	0.90909	0.	-3764.3
113	3.145	0.72727	0.	-3312.6
114	3.145	0.54545	0.	-2938.7
115	3.145	0.36364	0.	-2653.5
116	3.145	0.18182	0.	-2492.2
117	2.96	5.8182	0.	-3092.2
118	2.96	5.6364	0.	-3213.9
119	2.96	5.4545	0.	-3436.8
120	2.96	5.2727	0.	-3739.9
121	2.96	5.0909	0.	-4116.4
122	2.96	4.9091	0.	-4562.8
123	2.96	4.7273	0.	-5078.
124	2.96	4.5455	0.	-5657.6
125	2.96	4.3636	0.	-6286.5
126	2.96	4.1818	0.	-6930.1
127	2.96	4.	0.	-7543.5
128	2.96	3.8182	0.	-8074.6
129	2.96	3.6364	0.	-8479.6
130	2.96	3.4545	0.	-8743.
131	2.96	3.2727	0.	-8887.1
132	2.96	3.0909	0.	-8947.8
133	2.96	2.9091	0.	-8947.8
134	2.96	2.7273	0.	-8887.1
135	2.96	2.5455	0.	-8743.
136	2.96	2.3636	0.	-8479.6
137	2.96	2.1818	0.	-8074.6
138	2.96	2.	0.	-7543.5
139	2.96	1.8182	0.	-6930.
140	2.96	1.6364	0.	-6286.5
141	2.96	1.4545	0.	-5657.6
142	2.96	1.2727	0.	-5078.
143	2.96	1.0909	0.	-4562.8
144	2.96	0.90909	0.	-4116.4
145	2.96	0.72727	0.	-3739.9
146	2.96	0.54545	0.	-3436.8
147	2.96	0.36364	0.	-3213.9
148	2.96	0.18182	0.	-3092.2
149	2.775	5.8182	0.	-3624.7
150	2.775	5.6364	0.	-3720.7
151	2.775	5.4545	0.	-3898.7
152	2.775	5.2727	0.	-4142.7
153	2.775	5.0909	0.	-4447.9
154	2.775	4.9091	0.	-4809.
155	2.775	4.7273	0.	-5219.2
156	2.775	4.5455	0.	-5668.3
157	2.775	4.3636	0.	-6140.1
158	2.775	4.1818	0.	-6613.5
159	2.775	4.	0.	-7063.9
160	2.775	3.8182	0.	-7465.4
161	2.775	3.6364	0.	-7793.8
162	2.775	3.4545	0.	-8034.3
163	2.775	3.2727	0.	-8186.3
164	2.775	3.0909	0.	-8258.5
165	2.775	2.9091	0.	-8258.5
166	2.775	2.7273	0.	-8186.3
167	2.775	2.5455	0.	-8034.3
168	2.775	2.3636	0.	-7793.8
169	2.775	2.1818	0.	-7465.4
170	2.775	2.	0.	-7063.9
171	2.775	1.8182	0.	-6613.5
172	2.775	1.6364	0.	-6140.1
173	2.775	1.4545	0.	-5668.3
174	2.775	1.2727	0.	-5219.2
175	2.775	1.0909	0.	-4809.
176	2.775	0.90909	0.	-4447.9
177	2.775	0.72727	0.	-4142.7
178	2.775	0.54545	0.	-3898.7
179	2.775	0.36364	0.	-3720.7
180	2.775	0.18182	0.	-3624.7
181	2.59	5.8182	0.	-4088.3
182	2.59	5.6364	0.	-4163.6
183	2.59	5.4545	0.	-4305.7
184	2.59	5.2727	0.	-4500.
185	2.59	5.0909	0.	-4742.8
186	2.59	4.9091	0.	-5028.4
187	2.59	4.7273	0.	-5349.2
188	2.59	4.5455	0.	-5695.1
189	2.59	4.3636	0.	-6053.3
190	2.59	4.1818	0.	-6409.6
191	2.59	4.	0.	-6748.7
192	2.59	3.8182	0.	-7055.3
193	2.59	3.6364	0.	-7314.4
194	2.59	3.4545	0.	-7514.1
195	2.59	3.2727	0.	-7647.7
196	2.59	3.0909	0.	-7714.2
197	2.59	2.9091	0.	-7714.2
198	2.59	2.7273	0.	-7647.7
199	2.59	2.5455	0.	-7514.1
200	2.59	2.3636	0.	-7314.4
201	2.59	2.1818	0.	-7055.3
202	2.59	2.	0.	-6748.7
203	2.59	1.8182	0.	-6409.5
204	2.59	1.6364	0.	-6053.3
205	2.59	1.4545	0.	-5695.1
206	2.59	1.2727	0.	-5349.2
207	2.59	1.0909	0.	-5028.4
208	2.59	0.90909	0.	-4742.8
209	2.59	0.72727	0.	-4500.
210	2.59	0.54545	0.	-4305.7
211	2.59	0.36364	0.	-4163.6
212	2.59	0.18182	0.	-4088.3
213	2.405	5.8182	0.	-4486.2
214	2.405	5.6364	0.	-4542.7
215	2.405	5.4545	0.	-4654.2
216	2.405	5.2727	0.	-4806.9
217	2.405	5.0909	0.	-4997.
218	2.405	4.9091	0.	-5219.7
219	2.405	4.7273	0.	-5468.3
220	2.405	4.5455	0.	-5734.4
221	2.405	4.3636	0.	-6008.3
222	2.405	4.1818	0.	-6280.1
223	2.405	4.	0.	-6539.2
224	2.405	3.8182	0.	-6775.2
225	2.405	3.6364	0.	-6977.6
226	2.405	3.4545	0.	-7137.
227	2.405	3.2727	0.	-7246.6
228	2.405	3.0909	0.	-7302.1
229	2.405	2.9091	0.	-7302.1
230	2.405	2.7273	0.	-7246.6
231	2.405	2.5455	0.	-7137.
232	2.405	2.3636	0.	-6977.6
233	2.405	2.1818	0.	-6775.2
234	2.405	2.	0.	-6539.2
235	2.405	1.8182	0.	-6280.1
236	2.405	1.6364	0.	-6008.3
237	2.405	1.4545	0.	-5734.4
238	2.405	1.2727	0.	-5468.3
239	2.405	1.0909	0.	-5219.7
240	2.405	0.90909	0.	-4997.
241	2.405	0.72727	0.	-4806.9
242	2.405	0.54545	0.	-4654.2
243	2.405	0.36364	0.	-4542.7
244	2.405	0.18182	0.	-4486.2
245	2.22	5.8182	0.	-4823.4
246	2.22	5.6364	0.	-4862.3
247	2.22	5.4545	0.	-4947.6
248	2.22	5.2727	0.	-5065.3
249	2.22	5.0909	0.	-5212.2
250	2.22	4.9091	0.	-5384.4
251	2.22	4.7273	0.	-5576.3
252	2.22	4.5455	0.	-5781.5
253	2.22	4.3636	0.	-5992.7
254	2.22	4.1818	0.	-6202.2
255	2.22	4.	0.	-6402.5
256	2.22	3.8182	0.	-6585.6
257	2.22	3.6364	0.	-6743.8
258	2.22	3.4545	0.	-6869.6
259	2.22	3.2727	0.	-6956.9
260	2.22	3.0909	0.	-7001.6
261	2.22	2.9091	0.	-7001.6
262	2.22	2.7273	0.	-6956.9
263	2.22	2.5455	0.	-6869.6
264	2.22	2.3636	0.	-6743.8
265	2.22	2.1818	0.	-6585.6
266	2.22	2.	0.	-6402.5
267	2.22	1.8182	0.	-6202.2
268	2.22	1.6364	0.	-5992.7
269	2.22	1.4545	0.	-5781.5
270	2.22	1.2727	0.	-5576.3
271	2.22	1.0909	0.	-5384.4
272	2.22	0.90909	0.	-5212.2
273	2.22	0.72727	0.	-5065.3
274	2.22	0.54545	0.	-4947.6
275	2.22	0.36364	0.	-4862.3
276	2.22	0.18182	0.	-4823.4
277	2.035	5.8182	0.	-5105.7
278	2.035	5.6364	0.	-5128.1
279	2.035	5.4545	0.	-5190.9
280	2.035	5.2727	0.	-5279.9
281	2.035	5.0909	0.	-5392.3
282	2.035	4.9091	0.	-5525.
283	2.035	4.7273	0.	-5673.6
284	2.035	4.5455	0.	-5833.2
285	2.035	4.3636	0.	-5998.
286	2.035	4.1818	0.	-6162.
287	2.035	4.	0.	-6319.1
288	2.035	3.8182	0.	-6463.1
289	2.035	3.6364	0.	-6587.9
290	2.035	3.4545	0.	-6687.4
291	2.035	3.2727	0.	-6756.8
292	2.035	3.0909	0.	-6792.5
293	2.035	2.9091	0.	-6792.5
294	2.035	2.7273	0.	-6756.8
295	2.035	2.5455	0.	-6687.4
296	2.035	2.3636	0.	-6587.9
297	2.035	2.1818	0.	-6463.1
298	2.035	2.	0.	-6319.1
299	2.035	1.8182	0.	-6162.
300	2.035	1.6364	0.	-5998.
301	2.035	1.4545	0.	-5833.2
302	2.035	1.2727	0.	-5673.6
303	2.035	1.0909	0.	-5525.
304	2.035	0.90909	0.	-5392.3
305	2.035	0.72727	0.	-5279.9
306	2.035	0.54545	0.	-5190.9
307	2.035	0.36364	0.	-5128.1
308	2.035	0.18182	0.	-5105.7
309	1.85	5.8182	0.	-5338.5
310	1.85	5.6364	0.	-5345.7
311	1.85	5.4545	0.	-5389.6
312	1.85	5.2727	0.	-5455.6
313	1.85	5.0909	0.	-5541.4
314	1.85	4.9091	0.	-5644.4
315	1.85	4.7273	0.	-5761.2
316	1.85	4.5455	0.	-5887.7
317	1.85	4.3636	0.	-6019.2
318	1.85	4.1818	0.	-6150.6
319	1.85	4.	0.	-6276.9
320	1.85	3.8182	0.	-6392.7
321	1.85	3.6364	0.	-6493.
322	1.85	3.4545	0.	-6573.1
323	1.85	3.2727	0.	-6629.
324	1.85	3.0909	0.	-6657.7
325	1.85	2.9091	0.	-6657.7
326	1.85	2.7273	0.	-6629.
327	1.85	2.5455	0.	-6573.1
328	1.85	2.3636	0.	-6493.
329	1.85	2.1818	0.	-6392.7
330	1.85	2.	0.	-6276.9
331	1.85	1.8182	0.	-6150.6
332	1.85	1.6364	0.	-6019.2
333	1.85	1.4545	0.	-5887.7
334	1.85	1.2727	0.	-5761.2
335	1.85	1.0909	0.	-5644.4
336	1.85	0.90909	0.	-5541.4
337	1.85	0.72727	0.	-5455.6
338	1.85	0.54545	0.	-5389.6
339	1.85	0.36364	0.	-5345.7
340	1.85	0.18182	0.	-5338.5
341	1.665	5.8182	0.	-5525.8
342	1.665	5.6364	0.	-5519.1
343	1.665	5.4545	0.	-5547.9
344	1.665	5.2727	0.	-5596.5
345	1.665	5.0909	0.	-5662.9
346	1.665	4.9091	0.	-5745.1
347	1.665	4.7273	0.	-5840.2
348	1.665	4.5455	0.	-5944.5
349	1.665	4.3636	0.	-6053.6
350	1.665	4.1818	0.	-6163.1
351	1.665	4.	0.	-6268.3
352	1.665	3.8182	0.	-6364.6
353	1.665	3.6364	0.	-6447.9
354	1.665	3.4545	0.	-6514.3
355	1.665	3.2727	0.	-6560.5
356	1.665	3.0909	0.	-6584.2
357	1.665	2.9091	0.	-6584.2
358	1.665	2.7273	0.	-6560.5
359	1.665	2.5455	0.	-6514.3
360	1.665	2.3636	0.	-6447.9
361	1.665	2.1818	0.	-6364.6
362	1.665	2.	0.	-6268.3
363	1.665	1.8182	0.	-6163.1
364	1.665	1.6364	0.	-6053.6
365	1.665	1.4545	0.	-5944.5
366	1.665	1.2727	0.	-5840.2
367	1.665	1.0909	0.	-5745.1
368	1.665	0.90909	0.	-5662.9
369	1.665	0.72727	0.	-5596.5
370	1.665	0.54545	0.	-5547.9
371	1.665	0.36364	0.	-5519.1
372	1.665	0.18182	0.	-5525.8
373	1.48	5.8182	0.	-5670.
374	1.48	5.6364	0.	-5650.9
375	1.48	5.4545	0.	-5668.4
376	1.48	5.2727	0.	-5705.2
377	1.48	5.0909	0.	-5759.7
378	1.48	4.9091	0.	-5829.8
379	1.48	4.7273	0.	-5912.5
380	1.48	4.5455	0.	-6004.1
381	1.48	4.3636	0.	-6100.3
382	1.48	4.1818	0.	-6196.7
383	1.48	4.	0.	-6288.9
384	1.48	3.8182	0.	-6372.8
385	1.48	3.6364	0.	-6445.
386	1.48	3.4545	0.	-6502.1
387	1.48	3.2727	0.	-6541.8
388	1.48	3.0909	0.	-6562.
389	1.48	2.9091	0.	-6562.
390	1.48	2.7273	0.	-6541.8
391	1.48	2.5455	0.	-6502.1
392	1.48	2.3636	0.	-6445.
393	1.48	2.1818	0.	-6372.8
394	1.48	2.	0.	-6288.9
395	1.48	1.8182	0.	-6196.7
396	1.48	1.6364	0.	-6100.3
397	1.48	1.4545	0.	-6004.1
398	1.48	1.2727	0.	-5912.5
399	1.48	1.0909	0.	-5829.8
400	1.48	0.90909	0.	-5759.7
401	1.48	0.72727	0.	-5705.2
402	1.48	0.54545	0.	-5668.4
403	1.48	0.36364	0.	-5650.9
404	1.48	0.18182	0.	-5670.
405	1.295	5.8182	0.	-5770.4
406	1.295	5.6364	0.	-5740.8
407	1.295	5.4545	0.	-5751.4
408	1.295	5.2727	0.	-5783.
409	1.295	5.0909	0.	-5833.6
410	1.295	4.9091	0.	-5900.7
411	1.295	4.7273	0.	-5980.5
412	1.295	4.5455	0.	-6068.5
413	1.295	4.3636	0.	-6160.2
414	1.295	4.1818	0.	-6250.9
415	1.295	4.	0.	-6336.6
416	1.295	3.8182	0.	-6413.7
417	1.295	3.6364	0.	-6479.1
418	1.295	3.4545	0.	-6530.5
419	1.295	3.2727	0.	-6565.8
420	1.295	3.0909	0.	-6583.9
421	1.295	2.9091	0.	-6583.9
422	1.295	2.7273	0.	-6565.8
423	1.295	2.5455	0.	-6530.5
424	1.295	2.3636	0.	-6479.1
425	1.295	2.1818	0.	-6413.7
426	1.295	2.	0.	-6336.6
427	1.295	1.8182	0.	-6250.9
428	1.295	1.6364	0.	-6160.2
429	1.295	1.4545	0.	-6068.5
430	1.295	1.2727	0.	-5980.5
431	1.295	1.0909	0.	-5900.7
432	1.295	0.90909	0.	-5833.6
433	1.295	0.72727	0.	-5783.
434	1.295	0.54545	0.	-5751.4
435	1.295	0.36364	0.	-5740.8
436	1.295	0.18182	0.	-5770.4
437	1.11	5.8182	0.	-5822.5
438	1.11	5.6364	0.	-5785.
439	1.11	5.4545	0.	-5795.1
440	1.11	5.2727	0.	-5830.1
441	1.11	5.0909	0.	-5886.9
442	1.11	4.9091	0.	-5961.5
443	1.11	4.7273	0.	-6048.3
444	1.11	4.5455	0.	-6141.7
445	1.11	4.3636	0.	-6236.2
446	1.11	4.1818	0.	-6327.4
447	1.11	4.	0.	-6411.5
448	1.11	3.8182	0.	-6485.6
449	1.11	3.6364	0.	-6547.5
450	1.11	3.4545	0.	-6595.4
451	1.11	3.2727	0.	-6628.
452	1.11	3.0909	0.	-6644.6
453	1.11	2.9091	0.	-6644.6
454	1.11	2.7273	0.	-6628.
455	1.11	2.5455	0.	-6595.4
456	1.11	2.3636	0.	-6547.5
457	1.11	2.1818	0.	-6485.6
458	1.11	2.	0.	-6411.5
459	1.11	1.8182	0.	-6327.4
460	1.11	1.6364	0.	-6236.2
461	1.11	1.4545	0.	-6141.7
462	1.11	1.2727	0.	-6048.3
463	1.11	1.0909	0.	-5961.5
464	1.11	0.90909	0.	-5886.9
465	1.11	0.72727	0.	-5830.1
466	1.11	0.54545	0.	-5795.1
467	1.11	0.36364	0.	-5785.
468	1.11	0.18182	0.	-5822.5
469	0.925	5.8182	0.	-5814.4
470	0.925	5.6364	0.	-5773.8
471	0.925	5.4545	0.	-5793.1
472	0.925	5.2727	0.	-5844.4
473	0.925	5.0909	0.	-5921.6
474	0.925	4.9091	0.	-6016.8
475	0.925	4.7273	0.	-6121.6
476	0.925	4.5455	0.	-6228.7
477	0.925	4.3636	0.	-6332.3
478	0.925	4.1818	0.	-6428.3
479	0.925	4.	0.	-6513.9
480	0.925	3.8182	0.	-6587.3
481	0.925	3.6364	0.	-6647.2
482	0.925	3.4545	0.	-6692.8
483	0.925	3.2727	0.	-6723.5
484	0.925	3.0909	0.	-6739.
485	0.925	2.9091	0.	-6739.
486	0.925	2.7273	0.	-6723.5
487	0.925	2.5455	0.	-6692.8
488	0.925	2.3636	0.	-6647.2
489	0.925	2.1818	0.	-6587.3
490	0.925	2.	0.	-6513.9
491	0.925	1.8182	0.	-6428.3
492	0.925	1.6364	0.	-6332.3
493	0.925	1.4545	0.	-6228.7
494	0.925	1.2727	0.	-6121.6
495	0.925	1.0909	0.	-6016.8
496	0.925	0.90909	0.	-5921.6
497	0.925	0.72727	0.	-5844.4
498	0.925	0.54545	0.	-5793.1
499	0.925	0.36364	0.	-5773.8
500	0.925	0.18182	0.	-5814.4
501	0.74	5.8182	0.	-5724.8
502	0.74	5.6364	0.	-5692.7
503	0.74	5.4545	0.	-5740.6
504	0.74	5.2727	0.	-5831.
505	0.74	5.0909	0.	-5949.7
506	0.74	4.9091	0.	-6082.1
507	0.74	4.7273	0.	-6216.1
508	0.74	4.5455	0.	-6343.6
509	0.74	4.3636	0.	-6460.
510	0.74	4.1818	0.	-6562.7
511	0.74	4.	0.	-6650.7
512	0.74	3.8182	0.	-6723.7
513	0.74	3.6364	0.	-6781.7
514	0.74	3.4545	0.	-6825.
515	0.74	3.2727	0.	-6853.7
516	0.74	3.0909	0.	-6868.
517	0.74	2.9091	0.	-6868.
518	0.74	2.7273	0.	-6853.7
519	0.74	2.5455	0.	-6825.
520	0.74	2.3636	0.	-6781.7
521	0.74	2.1818	0.	-6723.7
522	0.74	2.	0.	-6650.7
523	0.74	1.8182	0.	-6562.7
524	0.74	1.6364	0.	-6460.
525	0.74	1.4545	0.	-6343.6
526	0.74	1.2727	0.	-6216.1
527	0.74	1.0909	0.	-6082.1
528	0.74	0.90909	0.	-5949.7
529	0.74	0.72727	0.	-5831.
530	0.74	0.54545	0.	-5740.6
531	0.74	0.36364	0.	-5692.7
532	0.74	0.18182	0.	-5724.8
533	0.555	5.8182	0.	-5498.8
534	0.555	5.6364	0.	-5499.3
535	0.555	5.4545	0.	-5614.9
536	0.555	5.2727	0.	-5784.3
537	0.555	5.0909	0.	-5974.5
538	0.555	4.9091	0.	-6161.5
539	0.555	4.7273	0.	-6332.6
540	0.555	4.5455	0.	-6482.9
541	0.555	4.3636	0.	-6611.3
542	0.555	4.1818	0.	-6718.8
543	0.555	4.	0.	-6807.
544	0.555	3.8182	0.	-6877.6
545	0.555	3.6364	0.	-6932.1
546	0.555	3.4545	0.	-6971.8
547	0.555	3.2727	0.	-6997.8
548	0.555	3.0909	0.	-7010.6
549	0.555	2.9091	0.	-7010.6
550	0.555	2.7273	0.	-6997.8
551	0.555	2.5455	0.	-6971.8
552	0.555	2.3636	0.	-6932.1
553	0.555	2.1818	0.	-6877.6
554	0.555	2.	0.	-6807.
555	0.555	1.8182	0.	-6718.8
556	0.555	1.6364	0.	-6611.3
557	0.555	1.4545	0.	-6482.9
558	0.555	1.2727	0.	-6332.6
559	0.555	1.0909	0.	-6161.5
560	0.555	0.90909	0.	-5974.5
561	0.555	0.72727	0.	-5784.3
562	0.555	0.54545	0.	-5614.9
563	0.555	0.36364	0.	-5499.3
564	0.555	0.18182	0.	-5498.8
565	0.37	5.8182	0.	-5061.5
566	0.37	5.6364	0.	-5191.5
567	0.37	5.4545	0.	-5483.2
568	0.37	5.2727	0.	-5806.9
569	0.37	5.0909	0.	-6103.5
570	0.37	4.9091	0.	-6355.6
571	0.37	4.7273	0.	-6562.9
572	0.37	4.5455	0.	-6730.6
573	0.37	4.3636	0.	-6864.8
574	0.37	4.1818	0.	-6971.3
575	0.37	4.	0.	-7054.7
576	0.37	3.8182	0.	-7118.9
577	0.37	3.6364	0.	-7166.8
578	0.37	3.4545	0.	-7200.8
579	0.37	3.2727	0.	-7222.6
580	0.37	3.0909	0.	-7233.2
581	0.37	2.9091	0.	-7233.2
582	0.37	2.7273	0.	-7222.6
583	0.37	2.5455	0.	-7200.8
584	0.37	2.3636	0.	-7166.8
585	0.37	2.1818	0.	-7118.9
586	0.37	2.	0.	-7054.7
587	0.37	1.8182	0.	-6971.3
588	0.37	1.6364	0.	-6864.8
589	0.37	1.4545	0.	-6730.6
590	0.37	1.2727	0.	-6562.9
591	0.37	1.0909	0.	-6355.6
592	0.37	0.90909	0.	-6103.5
593	0.37	0.72727	0.	-5806.9
594	0.37	0.54545	0.	-5483.1
595	0.37	0.36364	0.	-5191.5
596	0.37	0.18182	0.	-5061.5
597	0.185	5.8182	0.	-3976.7
598	0.185	5.6364	0.	-4571.3
599	0.185	5.4545	0.	-5256.5
600	0.185	5.2727	0.	-5777.
601	0.185	5.0909	0.	-6165.
602	0.185	4.9091	0.	-6453.4
603	0.185	4.7273	0.	-6669.9
604	0.185	4.5455	0.	-6833.4
605	0.185	4.3636	0.	-6956.9
606	0.185	4.1818	0.	-7049.7
607	0.185	4.	0.	-7118.8
608	0.185	3.8182	0.	-7169.4
609	0.185	3.6364	0.	-7205.6
610	0.185	3.4545	0.	-7230.2
611	0.185	3.2727	0.	-7245.5
612	0.185	3.0909	0.	-7252.8
613	0.185	2.9091	0.	-7252.8
614	0.185	2.7273	0.	-7245.5
615	0.185	2.5455	0.	-7230.2
616	0.185	2.3636	0.	-7205.6
617	0.185	2.1818	0.	-7169.4
618	0.185	2.	0.	-7118.8
619	0.185	1.8182	0.	-7049.7
620	0.185	1.6364	0.	-6956.9
621	0.185	1.4545	0.	-6833.4
622	0.185	1.2727	0.	-6669.9
623	0.185	1.0909	0.	-6453.3
624	0.185	0.90909	0.	-6165.
625	0.185	0.72727	0.	-5777.
626	0.185	0.54545	0.	-5256.5
627	0.185	0.36364	0.	-4571.3
628	0.185	0.18182	0.	-3976.7
629	4.0514	0.18182	0.	-916.35
630	4.0514	0.36364	0.	-1267.
631	4.0514	0.54545	0.	-1678.7
632	4.0514	0.72727	0.	-2128.6
633	4.0514	0.90909	0.	-2636.8
634	4.0514	1.0909	0.	-3238.
635	4.0514	1.2727	0.	-3987.4
636	4.0514	1.4545	0.	-5008.4
637	4.0514	1.6364	0.	-6487.4
638	4.0514	1.8182	0.	-9413.7
639	4.0514	2.	0.	-13159
640	4.0514	2.1818	0.	-13551
641	4.0514	2.3636	0.	-12873
642	4.0514	2.5455	0.	-11984
643	4.0514	2.7273	0.	-11458
644	4.0514	2.9091	0.	-11205
645	4.0514	3.0909	0.	-11205
646	4.0514	3.2727	0.	-11458
647	4.0514	3.4545	0.	-11984
648	4.0514	3.6364	0.	-12873
649	4.0514	3.8182	0.	-13551
650	4.0514	4.	0.	-13159
651	4.0514	4.1818	0.	-9413.7
652	4.0514	4.3636	0.	-6487.4
653	4.0514	4.5455	0.	-5008.4
654	4.0514	4.7273	0.	-3987.4
655	4.0514	4.9091	0.	-3238.
656	4.0514	5.0909	0.	-2636.8
657	4.0514	5.2727	0.	-2128.6
658	4.0514	5.4545	0.	-1678.7
659	4.0514	5.6364	0.	-1267.
660	4.0514	5.8182	0.	-916.35
661	4.2361	0.18182	0.	-1434.7
662	4.2361	0.36364	0.	-1633.6
663	4.2361	0.54545	0.	-1945.7
664	4.2361	0.72727	0.	-2333.
665	4.2361	0.90909	0.	-2795.4
666	4.2361	1.0909	0.	-3353.
667	4.2361	1.2727	0.	-4046.6
668	4.2361	1.4545	0.	-4934.9
669	4.2361	1.6364	0.	-6116.4
670	4.2361	1.8182	0.	-7608.6
671	4.2361	2.	0.	-9044.2
672	4.2361	2.1818	0.	-10188
673	4.2361	2.3636	0.	-10585
674	4.2361	2.5455	0.	-10552
675	4.2361	2.7273	0.	-10416
676	4.2361	2.9091	0.	-10327
677	4.2361	3.0909	0.	-10327
678	4.2361	3.2727	0.	-10416
679	4.2361	3.4545	0.	-10552
680	4.2361	3.6364	0.	-10585
681	4.2361	3.8182	0.	-10188
682	4.2361	4.	0.	-9044.2
683	4.2361	4.1818	0.	-7608.6
684	4.2361	4.3636	0.	-6116.5
685	4.2361	4.5455	0.	-4934.9
686	4.2361	4.7273	0.	-4046.6
687	4.2361	4.9091	0.	-3353.
688	4.2361	5.0909	0.	-2795.4
689	4.2361	5.2727	0.	-2333.
690	4.2361	5.4545	0.	-1945.7
691	4.2361	5.6364	0.	-1633.6
692	4.2361	5.8182	0.	-1434.7
693	4.4208	0.18182	0.	-1956.7
694	4.4208	0.36364	0.	-2100.5
695	4.4208	0.54545	0.	-2345.6
696	4.4208	0.72727	0.	-2675.
697	4.4208	0.90909	0.	-3086.5
698	4.4208	1.0909	0.	-3588.7
699	4.4208	1.2727	0.	-4198.5
700	4.4208	1.4545	0.	-4938.3
701	4.4208	1.6364	0.	-5804.2
702	4.4208	1.8182	0.	-6757.1
703	4.4208	2.	0.	-7693.2
704	4.4208	2.1818	0.	-8457.6
705	4.4208	2.3636	0.	-8971.1
706	4.4208	2.5455	0.	-9221.9
707	4.4208	2.7273	0.	-9313.1
708	4.4208	2.9091	0.	-9336.6
709	4.4208	3.0909	0.	-9336.6
710	4.4208	3.2727	0.	-9313.1
711	4.4208	3.4545	0.	-9221.9
712	4.4208	3.6364	0.	-8971.1
713	4.4208	3.8182	0.	-8457.6
714	4.4208	4.	0.	-7693.2
715	4.4208	4.1818	0.	-6757.1
716	4.4208	4.3636	0.	-5804.2
717	4.4208	4.5455	0.	-4938.3
718	4.4208	4.7273	0.	-4198.5
719	4.4208	4.9091	0.	-3588.7
720	4.4208	5.0909	0.	-3086.5
721	4.4208	5.2727	0.	-2675.
722	4.4208	5.4545	0.	-2345.6
723	4.4208	5.6364	0.	-2100.5
724	4.4208	5.8182	0.	-1956.7
725	4.6055	0.18182	0.	-2423.5
726	4.6055	0.36364	0.	-2542.7
727	4.6055	0.54545	0.	-2743.8
728	4.6055	0.72727	0.	-3020.6
729	4.6055	0.90909	0.	-3372.4
730	4.6055	1.0909	0.	-3801.1
731	4.6055	1.2727	0.	-4308.8
732	4.6055	1.4545	0.	-4893.
733	4.6055	1.6364	0.	-5538.8
734	4.6055	1.8182	0.	-6209.1
735	4.6055	2.	0.	-6856.2
736	4.6055	2.1818	0.	-7425.
737	4.6055	2.3636	0.	-7867.3
738	4.6055	2.5455	0.	-8162.6
739	4.6055	2.7273	0.	-8329.3
740	4.6055	2.9091	0.	-8401.5
741	4.6055	3.0909	0.	-8401.5
742	4.6055	3.2727	0.	-8329.3
743	4.6055	3.4545	0.	-8162.6
744	4.6055	3.6364	0.	-7867.3
745	4.6055	3.8182	0.	-7425.
746	4.6055	4.	0.	-6856.2
747	4.6055	4.1818	0.	-6209.1
748	4.6055	4.3636	0.	-5538.8
749	4.6055	4.5455	0.	-4893.
750	4.6055	4.7273	0.	-4308.8
751	4.6055	4.9091	0.	-3801.1
752	4.6055	5.0909	0.	-3372.4
753	4.6055	5.2727	0.	-3020.6
754	4.6055	5.4545	0.	-2743.8
755	4.6055	5.6364	0.	-2542.7
756	4.6055	5.8182	0.	-2423.5
757	4.7902	0.18182	0.	-2826.7
758	4.7902	0.36364	0.	-2930.4
759	4.7902	0.54545	0.	-3099.3
760	4.7902	0.72727	0.	-3330.6
761	4.7902	0.90909	0.	-3623.9
762	4.7902	1.0909	0.	-3977.4
763	4.7902	1.2727	0.	-4387.
764	4.7902	1.4545	0.	-4843.4
765	4.7902	1.6364	0.	-5330.
766	4.7902	1.8182	0.	-5823.9
767	4.7902	2.	0.	-6298.7
768	4.7902	2.1818	0.	-6726.7
769	4.7902	2.3636	0.	-7081.6
770	4.7902	2.5455	0.	-7345.5
771	4.7902	2.7273	0.	-7514.8
772	4.7902	2.9091	0.	-7596.1
773	4.7902	3.0909	0.	-7596.1
774	4.7902	3.2727	0.	-7514.8
775	4.7902	3.4545	0.	-7345.5
776	4.7902	3.6364	0.	-7081.6
777	4.7902	3.8182	0.	-6726.7
778	4.7902	4.	0.	-6298.7
779	4.7902	4.1818	0.	-5823.9
780	4.7902	4.3636	0.	-5330.
781	4.7902	4.5455	0.	-4843.4
782	4.7902	4.7273	0.	-4387.
783	4.7902	4.9091	0.	-3977.4
784	4.7902	5.0909	0.	-3623.9
785	4.7902	5.2727	0.	-3330.6
786	4.7902	5.4545	0.	-3099.3
787	4.7902	5.6364	0.	-2930.4
788	4.7902	5.8182	0.	-2826.7
789	4.9749	0.18182	0.	-3165.
790	4.9749	0.36364	0.	-3255.6
791	4.9749	0.54545	0.	-3397.9
792	4.9749	0.72727	0.	-3589.6
793	4.9749	0.90909	0.	-3830.
794	4.9749	1.0909	0.	-4115.8
795	4.9749	1.2727	0.	-4440.9
796	4.9749	1.4545	0.	-4795.5
797	4.9749	1.6364	0.	-5166.6
798	4.9749	1.8182	0.	-5538.7
799	4.9749	2.	0.	-5895.6
800	4.9749	2.1818	0.	-6220.8
801	4.9749	2.3636	0.	-6498.4
802	4.9749	2.5455	0.	-6714.4
803	4.9749	2.7273	0.	-6860.3
804	4.9749	2.9091	0.	-6933.4
805	4.9749	3.0909	0.	-6933.4
806	4.9749	3.2727	0.	-6860.3
807	4.9749	3.4545	0.	-6714.4
808	4.9749	3.6364	0.	-6498.4
809	4.9749	3.8182	0.	-6220.8
810	4.9749	4.	0.	-5895.6
811	4.9749	4.1818	0.	-5538.7
812	4.9749	4.3636	0.	-5166.6
813	4.9749	4.5455	0.	-4795.5
814	4.9749	4.7273	0.	-4440.9
815	4.9749	4.9091	0.	-4115.8
816	4.9749	5.0909	0.	-3830.
817	4.9749	5.2727	0.	-3589.6
818	4.9749	5.4545	0.	-3397.9
819	4.9749	5.6364	0.	-3255.6
820	4.9749	5.8182	0.	-3165.
821	5.1596	0.18182	0.	-3441.5
822	5.1596	0.36364	0.	-3519.8
823	5.1596	0.54545	0.	-3638.7
824	5.1596	0.72727	0.	-3796.2
825	5.1596	0.90909	0.	-3990.8
826	5.1596	1.0909	0.	-4219.
827	5.1596	1.2727	0.	-4474.8
828	5.1596	1.4545	0.	-4750.
829	5.1596	1.6364	0.	-5034.7
830	5.1596	1.8182	0.	-5318.1
831	5.1596	2.	0.	-5589.3
832	5.1596	2.1818	0.	-5837.6
833	5.1596	2.3636	0.	-6051.8
834	5.1596	2.5455	0.	-6221.7
835	5.1596	2.7273	0.	-6339.1
836	5.1596	2.9091	0.	-6399.
837	5.1596	3.0909	0.	-6399.
838	5.1596	3.2727	0.	-6339.1
839	5.1596	3.4545	0.	-6221.7
840	5.1596	3.6364	0.	-6051.8
841	5.1596	3.8182	0.	-5837.6
842	5.1596	4.	0.	-5589.3
843	5.1596	4.1818	0.	-5318.1
844	5.1596	4.3636	0.	-5034.7
845	5.1596	4.5455	0.	-4750.
846	5.1596	4.7273	0.	-4474.8
847	5.1596	4.9091	0.	-4219.
848	5.1596	5.0909	0.	-3990.8
849	5.1596	5.2727	0.	-3796.2
850	5.1596	5.4545	0.	-3638.7
851	5.1596	5.6364	0.	-3519.8
852	5.1596	5.8182	0.	-3441.5
853	5.3443	0.18182	0.	-3661.7
854	5.3443	0.36364	0.	-3728.3
855	5.3443	0.54545	0.	-3826.5
856	5.3443	0.72727	0.	-3954.6
857	5.3443	0.90909	0.	-4110.7
858	5.3443	1.0909	0.	-4291.4
859	5.3443	1.2727	0.	-4491.7
860	5.3443	1.4545	0.	-4705.
861	5.3443	1.6364	0.	-4924.
862	5.3443	1.8182	0.	-5140.9
863	5.3443	2.	0.	-5347.9
864	5.3443	2.1818	0.	-5537.4
865	5.3443	2.3636	0.	-5701.4
866	5.3443	2.5455	0.	-5832.4
867	5.3443	2.7273	0.	-5923.7
868	5.3443	2.9091	0.	-5970.6
869	5.3443	3.0909	0.	-5970.6
870	5.3443	3.2727	0.	-5923.7
871	5.3443	3.4545	0.	-5832.4
872	5.3443	3.6364	0.	-5701.4
873	5.3443	3.8182	0.	-5537.4
874	5.3443	4.	0.	-5347.9
875	5.3443	4.1818	0.	-5140.9
876	5.3443	4.3636	0.	-4924.
877	5.3443	4.5455	0.	-4705.
878	5.3443	4.7273	0.	-4491.7
879	5.3443	4.9091	0.	-4291.4
880	5.3443	5.0909	0.	-4110.7
881	5.3443	5.2727	0.	-3954.6
882	5.3443	5.4545	0.	-3826.5
883	5.3443	5.6364	0.	-3728.3
884	5.3443	5.8182	0.	-3661.7
885	5.5291	0.18182	0.	-3832.5
886	5.5291	0.36364	0.	-3888.1
887	5.5291	0.54545	0.	-3968.3
888	5.5291	0.72727	0.	-4071.5
889	5.5291	0.90909	0.	-4195.6
890	5.5291	1.0909	0.	-4337.9
891	5.5291	1.2727	0.	-4494.1
892	5.5291	1.4545	0.	-4659.2
893	5.5291	1.6364	0.	-4827.7
894	5.5291	1.8182	0.	-4993.8
895	5.5291	2.	0.	-5151.9
896	5.5291	2.1818	0.	-5296.2
897	5.5291	2.3636	0.	-5421.1
898	5.5291	2.5455	0.	-5520.9
899	5.5291	2.7273	0.	-5590.6
900	5.5291	2.9091	0.	-5626.5
901	5.5291	3.0909	0.	-5626.5
902	5.5291	3.2727	0.	-5590.6
903	5.5291	3.4545	0.	-5520.9
904	5.5291	3.6364	0.	-5421.1
905	5.5291	3.8182	0.	-5296.2
906	5.5291	4.	0.	-5151.9
907	5.5291	4.1818	0.	-4993.8
908	5.5291	4.3636	0.	-4827.7
909	5.5291	4.5455	0.	-4659.2
910	5.5291	4.7273	0.	-4494.1
911	5.5291	4.9091	0.	-4337.9
912	5.5291	5.0909	0.	-4195.6
913	5.5291	5.2727	0.	-4071.5
914	5.5291	5.4545	0.	-3968.3
915	5.5291	5.6364	0.	-3888.1
916	5.5291	5.8182	0.	-3832.5
917	5.7138	0.18182	0.	-3960.8
918	5.7138	0.36364	0.	-4006.4
919	5.7138	0.54545	0.	-4071.2
920	5.7138	0.72727	0.	-4153.5
921	5.7138	0.90909	0.	-4251.6
922	5.7138	1.0909	0.	-4363.
923	5.7138	1.2727	0.	-4484.3
924	5.7138	1.4545	0.	-4611.8
925	5.7138	1.6364	0.	-4741.2
926	5.7138	1.8182	0.	-4868.3
927	5.7138	2.	0.	-4988.8
928	5.7138	2.1818	0.	-5098.4
929	5.7138	2.3636	0.	-5193.
930	5.7138	2.5455	0.	-5268.5
931	5.7138	2.7273	0.	-5321.1
932	5.7138	2.9091	0.	-5348.2
933	5.7138	3.0909	0.	-5348.2
934	5.7138	3.2727	0.	-5321.1
935	5.7138	3.4545	0.	-5268.5
936	5.7138	3.6364	0.	-5193.1
937	5.7138	3.8182	0.	-5098.4
938	5.7138	4.	0.	-4988.8
939	5.7138	4.1818	0.	-4868.3
940	5.7138	4.3636	0.	-4741.2
941	5.7138	4.5455	0.	-4611.8
942	5.7138	4.7273	0.	-4484.3
943	5.7138	4.9091	0.	-4363.
944	5.7138	5.0909	0.	-4251.6
945	5.7138	5.2727	0.	-4153.5
946	5.7138	5.4545	0.	-4071.2
947	5.7138	5.6364	0.	-4006.4
948	5.7138	5.8182	0.	-3960.8
949	5.8985	0.18182	0.	-4053.4
950	5.8985	0.36364	0.	-4090.2
951	5.8985	0.54545	0.	-4142.
952	5.8985	0.72727	0.	-4207.1
953	5.8985	0.90909	0.	-4284.
954	5.8985	1.0909	0.	-4370.7
955	5.8985	1.2727	0.	-4464.5
956	5.8985	1.4545	0.	-4562.6
957	5.8985	1.6364	0.	-4661.7
958	5.8985	1.8182	0.	-4758.6
959	5.8985	2.	0.	-4850.2
960	5.8985	2.1818	0.	-4933.2
961	5.8985	2.3636	0.	-5004.5
962	5.8985	2.5455	0.	-5061.2
963	5.8985	2.7273	0.	-5100.7
964	5.8985	2.9091	0.	-5121.
965	5.8985	3.0909	0.	-5121.
966	5.8985	3.2727	0.	-5100.7
967	5.8985	3.4545	0.	-5061.2
968	5.8985	3.6364	0.	-5004.5
969	5.8985	3.8182	0.	-4933.2
970	5.8985	4.	0.	-4850.2
971	5.8985	4.1818	0.	-4758.6
972	5.8985	4.3636	0.	-4661.7
973	5.8985	4.5455	0.	-4562.6
974	5.8985	4.7273	0.	-4464.5
975	5.8985	4.9091	0.	-4370.7
976	5.8985	5.0909	0.	-4284.
977	5.8985	5.2727	0.	-4207.1
978	5.8985	5.4545	0.	-4142.
979	5.8985	5.6364	0.	-4090.2
980	5.8985	5.8182	0.	-4053.4
981	6.0832	0.18182	0.	-4116.4
982	6.0832	0.36364	0.	-4145.6
983	6.0832	0.54545	0.	-4186.5
984	6.0832	0.72727	0.	-4237.6
985	6.0832	0.90909	0.	-4297.4
986	6.0832	1.0909	0.	-4364.5
987	6.0832	1.2727	0.	-4436.7
988	6.0832	1.4545	0.	-4511.8
989	6.0832	1.6364	0.	-4587.4
990	6.0832	1.8182	0.	-4661.
991	6.0832	2.	0.	-4730.2
992	6.0832	2.1818	0.	-4792.8
993	6.0832	2.3636	0.	-4846.3
994	6.0832	2.5455	0.	-4888.7
995	6.0832	2.7273	0.	-4918.1
996	6.0832	2.9091	0.	-4933.2
997	6.0832	3.0909	0.	-4933.2
998	6.0832	3.2727	0.	-4918.1
999	6.0832	3.4545	0.	-4888.7
1000	6.0832	3.6364	0.	-4846.3
1001	6.0832	3.8182	0.	-4792.8
1002	6.0832	4.	0.	-4730.2
1003	6.0832	4.1818	0.	-4661.
1004	6.0832	4.3636	0.	-4587.4
1005	6.0832	4.5455	0.	-4511.8
1006	6.0832	4.7273	0.	-4436.7
1007	6.0832	4.9091	0.	-4364.5
1008	6.0832	5.0909	0.	-4297.4
1009	6.0832	5.2727	0.	-4237.6
1010	6.0832	5.4545	0.	-4186.5
1011	6.0832	5.6364	0.	-4145.6
1012	6.0832	5.8182	0.	-4116.4
1013	6.2679	0.18182	0.	-4155.2
1014	6.2679	0.36364	0.	-4178.
1015	6.2679	0.54545	0.	-4209.9
1016	6.2679	0.72727	0.	-4249.5
1017	6.2679	0.90909	0.	-4295.7
1018	6.2679	1.0909	0.	-4347.3
1019	6.2679	1.2727	0.	-4402.5
1020	6.2679	1.4545	0.	-4459.6
1021	6.2679	1.6364	0.	-4516.9
1022	6.2679	1.8182	0.	-4572.5
1023	6.2679	2.	0.	-4624.6
1024	6.2679	2.1818	0.	-4671.5
1025	6.2679	2.3636	0.	-4711.4
1026	6.2679	2.5455	0.	-4742.9
1027	6.2679	2.7273	0.	-4764.8
1028	6.2679	2.9091	0.	-4775.9
1029	6.2679	3.0909	0.	-4775.9
1030	6.2679	3.2727	0.	-4764.8
1031	6.2679	3.4545	0.	-4742.9
1032	6.2679	3.6364	0.	-4711.4
1033	6.2679	3.8182	0.	-4671.5
1034	6.2679	4.	0.	-4624.6
1035	6.2679	4.1818	0.	-4572.5
1036	6.2679	4.3636	0.	-4516.9
1037	6.2679	4.5455	0.	-4459.6
1038	6.2679	4.7273	0.	-4402.5
1039	6.2679	4.9091	0.	-4347.3
1040	6.2679	5.0909	0.	-4295.7
1041	6.2679	5.2727	0.	-4249.5
1042	6.2679	5.4545	0.	-4209.9
1043	6.2679	5.6364	0.	-4178.
1044	6.2679	5.8182	0.	-4155.2
1045	6.4526	0.18182	0.	-4174.3
1046	6.4526	0.36364	0.	-4191.8
1047	6.4526	0.54545	0.	-4216.3
1048	6.4526	0.72727	0.	-4246.7
1049	6.4526	0.90909	0.	-4282.1
1050	6.4526	1.0909	0.	-4321.4
1051	6.4526	1.2727	0.	-4363.2
1052	6.4526	1.4545	0.	-4406.4
1053	6.4526	1.6364	0.	-4449.6
1054	6.4526	1.8182	0.	-4491.3
1055	6.4526	2.	0.	-4530.2
1056	6.4526	2.1818	0.	-4565.1
1057	6.4526	2.3636	0.	-4594.7
1058	6.4526	2.5455	0.	-4618.
1059	6.4526	2.7273	0.	-4634.
1060	6.4526	2.9091	0.	-4642.2
1061	6.4526	3.0909	0.	-4642.2
1062	6.4526	3.2727	0.	-4634.
1063	6.4526	3.4545	0.	-4618.
1064	6.4526	3.6364	0.	-4594.7
1065	6.4526	3.8182	0.	-4565.1
1066	6.4526	4.	0.	-4530.2
1067	6.4526	4.1818	0.	-4491.3
1068	6.4526	4.3636	0.	-4449.6
1069	6.4526	4.5455	0.	-4406.4
1070	6.4526	4.7273	0.	-4363.2
1071	6.4526	4.9091	0.	-4321.4
1072	6.4526	5.0909	0.	-4282.1
1073	6.4526	5.2727	0.	-4246.7
1074	6.4526	5.4545	0.	-4216.3
1075	6.4526	5.6364	0.	-4191.8
1076	6.4526	5.8182	0.	-4174.3
1077	6.6373	0.18182	0.	-4177.7
1078	6.6373	0.36364	0.	-4190.7
1079	6.6373	0.54545	0.	-4209.2
1080	6.6373	0.72727	0.	-4232.3
1081	6.6373	0.90909	0.	-4259.1
1082	6.6373	1.0909	0.	-4288.7
1083	6.6373	1.2727	0.	-4320.1
1084	6.6373	1.4545	0.	-4352.5
1085	6.6373	1.6364	0.	-4384.7
1086	6.6373	1.8182	0.	-4415.7
1087	6.6373	2.	0.	-4444.5
1088	6.6373	2.1818	0.	-4470.3
1089	6.6373	2.3636	0.	-4492.
1090	6.6373	2.5455	0.	-4509.1
1091	6.6373	2.7273	0.	-4520.9
1092	6.6373	2.9091	0.	-4526.8
1093	6.6373	3.0909	0.	-4526.8
1094	6.6373	3.2727	0.	-4520.9
1095	6.6373	3.4545	0.	-4509.1
1096	6.6373	3.6364	0.	-4492.
1097	6.6373	3.8182	0.	-4470.3
1098	6.6373	4.	0.	-4444.5
1099	6.6373	4.1818	0.	-4415.7
1100	6.6373	4.3636	0.	-4384.7
1101	6.6373	4.5455	0.	-4352.5
1102	6.6373	4.7273	0.	-4320.1
1103	6.6373	4.9091	0.	-4288.7
1104	6.6373	5.0909	0.	-4259.1
1105	6.6373	5.2727	0.	-4232.3
1106	6.6373	5.4545	0.	-4209.2
1107	6.6373	5.6364	0.	-4190.7
1108	6.6373	5.8182	0.	-4177.7
1109	6.822	0.18182	0.	-4168.4
1110	6.822	0.36364	0.	-4177.8
1111	6.822	0.54545	0.	-4191.6
1112	6.822	0.72727	0.	-4208.8
1113	6.822	0.90909	0.	-4228.7
1114	6.822	1.0909	0.	-4250.7
1115	6.822	1.2727	0.	-4274.1
1116	6.822	1.4545	0.	-4298.1
1117	6.822	1.6364	0.	-4321.8
1118	6.822	1.8182	0.	-4344.6
1119	6.822	2.	0.	-4365.8
1120	6.822	2.1818	0.	-4384.6
1121	6.822	2.3636	0.	-4400.4
1122	6.822	2.5455	0.	-4412.8
1123	6.822	2.7273	0.	-4421.3
1124	6.822	2.9091	0.	-4425.6
1125	6.822	3.0909	0.	-4425.6
1126	6.822	3.2727	0.	-4421.3
1127	6.822	3.4545	0.	-4412.8
1128	6.822	3.6364	0.	-4400.4
1129	6.822	3.8182	0.	-4384.6
1130	6.822	4.	0.	-4365.8
1131	6.822	4.1818	0.	-4344.6
1132	6.822	4.3636	0.	-4321.8
1133	6.822	4.5455	0.	-4298.1
1134	6.822	4.7273	0.	-4274.1
1135	6.822	4.9091	0.	-4250.7
1136	6.822	5.0909	0.	-4228.7
1137	6.822	5.2727	0.	-4208.8
1138	6.822	5.4545	0.	-4191.6
1139	6.822	5.6364	0.	-4177.8
1140	6.822	5.8182	0.	-4168.4
1141	7.0067	0.18182	0.	-4149.2
1142	7.0067	0.36364	0.	-4155.6
1143	7.0067	0.54545	0.	-4165.5
1144	7.0067	0.72727	0.	-4178.1
1145	7.0067	0.90909	0.	-4192.7
1146	7.0067	1.0909	0.	-4208.8
1147	7.0067	1.2727	0.	-4225.9
1148	7.0067	1.4545	0.	-4243.4
1149	7.0067	1.6364	0.	-4260.6
1150	7.0067	1.8182	0.	-4277.2
1151	7.0067	2.	0.	-4292.4
1152	7.0067	2.1818	0.	-4306.
1153	7.0067	2.3636	0.	-4317.3
1154	7.0067	2.5455	0.	-4326.2
1155	7.0067	2.7273	0.	-4332.3
1156	7.0067	2.9091	0.	-4335.4
1157	7.0067	3.0909	0.	-4335.4
1158	7.0067	3.2727	0.	-4332.3
1159	7.0067	3.4545	0.	-4326.2
1160	7.0067	3.6364	0.	-4317.3
1161	7.0067	3.8182	0.	-4306.
1162	7.0067	4.	0.	-4292.4
1163	7.0067	4.1818	0.	-4277.2
1164	7.0067	4.3636	0.	-4260.6
1165	7.0067	4.5455	0.	-4243.4
1166	7.0067	4.7273	0.	-4225.9
1167	7.0067	4.9091	0.	-4208.8
1168	7.0067	5.0909	0.	-4192.7
1169	7.0067	5.2727	0.	-4178.1
1170	7.0067	5.4545	0.	-4165.5
1171	7.0067	5.6364	0.	-4155.6
1172	7.0067	5.8182	0.	-4149.2
1173	7.1914	0.18182	0.	-4122.
1174	7.1914	0.36364	0.	-4126.1
1175	7.1914	0.54545	0.	-4133.
1176	7.1914	0.72727	0.	-4141.8
1177	7.1914	0.90909	0.	-4152.3
1178	7.1914	1.0909	0.	-4163.8
1179	7.1914	1.2727	0.	-4176.
1180	7.1914	1.4545	0.	-4188.5
1181	7.1914	1.6364	0.	-4200.9
1182	7.1914	1.8182	0.	-4212.6
1183	7.1914	2.	0.	-4223.4
1184	7.1914	2.1818	0.	-4233.
1185	7.1914	2.3636	0.	-4241.
1186	7.1914	2.5455	0.	-4247.3
1187	7.1914	2.7273	0.	-4251.5
1188	7.1914	2.9091	0.	-4253.7
1189	7.1914	3.0909	0.	-4253.7
1190	7.1914	3.2727	0.	-4251.5
1191	7.1914	3.4545	0.	-4247.3
1192	7.1914	3.6364	0.	-4241.
1193	7.1914	3.8182	0.	-4233.
1194	7.1914	4.	0.	-4223.4
1195	7.1914	4.1818	0.	-4212.6
1196	7.1914	4.3636	0.	-4200.9
1197	7.1914	4.5455	0.	-4188.5
1198	7.1914	4.7273	0.	-4176.
1199	7.1914	4.9091	0.	-4163.8
1200	7.1914	5.0909	0.	-4152.3
1201	7.1914	5.2727	0.	-4141.8
1202	7.1914	5.4545	0.	-4133.
1203	7.1914	5.6364	0.	-4126.1
1204	7.1914	5.8182	0.	-4122.
1205	7.3761	0.18182	0.	-4088.6
1206	7.3761	0.36364	0.	-4090.8
1207	7.3761	0.54545	0.	-4095.3
1208	7.3761	0.72727	0.	-4101.3
1209	7.3761	0.90909	0.	-4108.5
1210	7.3761	1.0909	0.	-4116.5
1211	7.3761	1.2727	0.	-4125.
1212	7.3761	1.4545	0.	-4133.7
1213	7.3761	1.6364	0.	-4142.3
1214	7.3761	1.8182	0.	-4150.4
1215	7.3761	2.	0.	-4157.9
1216	7.3761	2.1818	0.	-4164.5
1217	7.3761	2.3636	0.	-4170.
1218	7.3761	2.5455	0.	-4174.2
1219	7.3761	2.7273	0.	-4177.1
1220	7.3761	2.9091	0.	-4178.6
1221	7.3761	3.0909	0.	-4178.6
1222	7.3761	3.2727	0.	-4177.1
1223	7.3761	3.4545	0.	-4174.2
1224	7.3761	3.6364	0.	-4170.
1225	7.3761	3.8182	0.	-4164.5
1226	7.3761	4.	0.	-4157.9
1227	7.3761	4.1818	0.	-4150.4
1228	7.3761	4.3636	0.	-4142.3
1229	7.3761	4.5455	0.	-4133.7
1230	7.3761	4.7273	0.	-4125.
1231	7.3761	4.9091	0.	-4116.5
1232	7.3761	5.0909	0.	-4108.5
1233	7.3761	5.2727	0.	-4101.3
1234	7.3761	5.4545	0.	-4095.3
1235	7.3761	5.6364	0.	-4090.8
1236	7.3761	5.8182	0.	-4088.6
1237	7.5609	0.18182	0.	-4050.4
1238	7.5609	0.36364	0.	-4051.1
1239	7.5609	0.54545	0.	-4053.7
1240	7.5609	0.72727	0.	-4057.5
1241	7.5609	0.90909	0.	-4062.2
1242	7.5609	1.0909	0.	-4067.5
1243	7.5609	1.2727	0.	-4073.2
1244	7.5609	1.4545	0.	-4078.9
1245	7.5609	1.6364	0.	-4084.7
1246	7.5609	1.8182	0.	-4090.1
1247	7.5609	2.	0.	-4095.
1248	7.5609	2.1818	0.	-4099.4
1249	7.5609	2.3636	0.	-4103.
1250	7.5609	2.5455	0.	-4105.8
1251	7.5609	2.7273	0.	-4107.7
1252	7.5609	2.9091	0.	-4108.7
1253	7.5609	3.0909	0.	-4108.7
1254	7.5609	3.2727	0.	-4107.7
1255	7.5609	3.4545	0.	-4105.8
1256	7.5609	3.6364	0.	-4103.
1257	7.5609	3.8182	0.	-4099.4
1258	7.5609	4.	0.	-4095.
1259	7.5609	4.1818	0.	-4090.1
1260	7.5609	4.3636	0.	-4084.7
1261	7.5609	4.5455	0.	-4078.9
1262	7.5609	4.7273	0.	-4073.2
1263	7.5609	4.9091	0.	-4067.5
1264	7.5609	5.0909	0.	-4062.2
1265	7.5609	5.2727	0.	-4057.5
1266	7.5609	5.4545	0.	-4053.7
1267	7.5609	5.6364	0.	-4051.1
1268	7.5609	5.8182	0.	-4050.4
1269	7.7456	0.18182	0.	-4008.4
1270	7.7456	0.36364	0.	-4008.
1271	7.7456	0.54545	0.	-4009.2
1272	7.7456	0.72727	0.	-4011.3
1273	7.7456	0.90909	0.	-4014.
1274	7.7456	1.0909	0.	-4017.2
1275	7.7456	1.2727	0.	-4020.7
1276	7.7456	1.4545	0.	-4024.3
1277	7.7456	1.6364	0.	-4027.9
1278	7.7456	1.8182	0.	-4031.3
1279	7.7456	2.	0.	-4034.4
1280	7.7456	2.1818	0.	-4037.1
1281	7.7456	2.3636	0.	-4039.3
1282	7.7456	2.5455	0.	-4041.
1283	7.7456	2.7273	0.	-4042.2
1284	7.7456	2.9091	0.	-4042.8
1285	7.7456	3.0909	0.	-4042.8
1286	7.7456	3.2727	0.	-4042.2
1287	7.7456	3.4545	0.	-4041.
1288	7.7456	3.6364	0.	-4039.3
1289	7.7456	3.8182	0.	-4037.1
1290	7.7456	4.	0.	-4034.4
1291	7.7456	4.1818	0.	-4031.3
1292	7.7456	4.3636	0.	-4027.9
1293	7.7456	4.5455	0.	-4024.3
1294	7.7456	4.7273	0.	-4020.7
1295	7.7456	4.9091	0.	-4017.2
1296	7.7456	5.0909	0.	-4014.
1297	7.7456	5.2727	0.	-4011.3
1298	7.7456	5.4545	0.	-4009.2
1299	7.7456	5.6364	0.	-4008.
1300	7.7456	5.8182	0.	-4008.4
1301	7.9303	0.18182	0.	-3963.6
1302	7.9303	0.36364	0.	-3962.3
1303	7.9303	0.54545	0.	-3962.3
1304	7.9303	0.72727	0.	-3963.1
1305	7.9303	0.90909	0.	-3964.4
1306	7.9303	1.0909	0.	-3966.
1307	7.9303	1.2727	0.	-3967.9
1308	7.9303	1.4545	0.	-3969.9
1309	7.9303	1.6364	0.	-3971.8
1310	7.9303	1.8182	0.	-3973.7
1311	7.9303	2.	0.	-3975.4
1312	7.9303	2.1818	0.	-3976.9
1313	7.9303	2.3636	0.	-3978.1
1314	7.9303	2.5455	0.	-3979.1
1315	7.9303	2.7273	0.	-3979.7
1316	7.9303	2.9091	0.	-3980.
1317	7.9303	3.0909	0.	-3980.
1318	7.9303	3.2727	0.	-3979.7
1319	7.9303	3.4545	0.	-3979.1
1320	7.9303	3.6364	0.	-3978.1
1321	7.9303	3.8182	0.	-3976.9
1322	7.9303	4.	0.	-3975.4
1323	7.9303	4.1818	0.	-3973.7
1324	7.9303	4.3636	0.	-3971.8
1325	7.9303	4.5455	0.	-3969.9
1326	7.9303	4.7273	0.	-3967.9
1327	7.9303	4.9091	0.	-3966.
1328	7.9303	5.0909	0.	-3964.4
1329	7.9303	5.2727	0.	-3963.1
1330	7.9303	5.4545	0.	-3962.3
1331	7.9303	5.6364	0.	-3962.3
1332	7.9303	5.8182	0.	-3963.6
1333	8.115	0.18182	0.	-3916.6
1334	8.115	0.36364	0.	-3914.5
1335	8.115	0.54545	0.	-3913.8
1336	8.115	0.72727	0.	-3913.6
1337	8.115	0.90909	0.	-3913.7
1338	8.115	1.0909	0.	-3914.2
1339	8.115	1.2727	0.	-3914.9
1340	8.115	1.4545	0.	-3915.6
1341	8.115	1.6364	0.	-3916.4
1342	8.115	1.8182	0.	-3917.2
1343	8.115	2.	0.	-3917.9
1344	8.115	2.1818	0.	-3918.5
1345	8.115	2.3636	0.	-3919.
1346	8.115	2.5455	0.	-3919.3
1347	8.115	2.7273	0.	-3919.6
1348	8.115	2.9091	0.	-3919.7
1349	8.115	3.0909	0.	-3919.7
1350	8.115	3.2727	0.	-3919.6
1351	8.115	3.4545	0.	-3919.3
1352	8.115	3.6364	0.	-3919.
1353	8.115	3.8182	0.	-3918.5
1354	8.115	4.	0.	-3917.9
1355	8.115	4.1818	0.	-3917.2
1356	8.115	4.3636	0.	-3916.4
1357	8.115	4.5455	0.	-3915.6
1358	8.115	4.7273	0.	-3914.9
1359	8.115	4.9091	0.	-3914.2
1360	8.115	5.0909	0.	-3913.7
1361	8.115	5.2727	0.	-3913.6
1362	8.115	5.4545	0.	-3913.8
1363	8.115	5.6364	0.	-3914.5
1364	8.115	5.8182	0.	-3916.6
1365	8.2997	0.18182	0.	-3867.9
1366	8.2997	0.36364	0.	-3865.3
1367	8.2997	0.54545	0.	-3863.9
1368	8.2997	0.72727	0.	-3863.
1369	8.2997	0.90909	0.	-3862.4
1370	8.2997	1.0909	0.	-3862.
1371	8.2997	1.2727	0.	-3861.7
1372	8.2997	1.4545	0.	-3861.6
1373	8.2997	1.6364	0.	-3861.5
1374	8.2997	1.8182	0.	-3861.5
1375	8.2997	2.	0.	-3861.4
1376	8.2997	2.1818	0.	-3861.4
1377	8.2997	2.3636	0.	-3861.4
1378	8.2997	2.5455	0.	-3861.3
1379	8.2997	2.7273	0.	-3861.3
1380	8.2997	2.9091	0.	-3861.3
1381	8.2997	3.0909	0.	-3861.3
1382	8.2997	3.2727	0.	-3861.3
1383	8.2997	3.4545	0.	-3861.3
1384	8.2997	3.6364	0.	-3861.4
1385	8.2997	3.8182	0.	-3861.4
1386	8.2997	4.	0.	-3861.4
1387	8.2997	4.1818	0.	-3861.5
1388	8.2997	4.3636	0.	-3861.5
1389	8.2997	4.5455	0.	-3861.6
1390	8.2997	4.7273	0.	-3861.7
1391	8.2997	4.9091	0.	-3862.
1392	8.2997	5.0909	0.	-3862.4
1393	8.2997	5.2727	0.	-3863.
1394	8.2997	5.4545	0.	-3863.9
1395	8.2997	5.6364	0.	-3865.3
1396	8.2997	5.8182	0.	-3867.9
1397	8.4844	0.18182	0.	-3817.9
1398	8.4844	0.36364	0.	-3815.
1399	8.4844	0.54545	0.	-3813.2
1400	8.4844	0.72727	0.	-3811.7
1401	8.4844	0.90909	0.	-3810.5
1402	8.4844	1.0909	0.	-3809.4
1403	8.4844	1.2727	0.	-3808.6
1404	8.4844	1.4545	0.	-3807.8
1405	8.4844	1.6364	0.	-3807.1
1406	8.4844	1.8182	0.	-3806.5
1407	8.4844	2.	0.	-3805.9
1408	8.4844	2.1818	0.	-3805.4
1409	8.4844	2.3636	0.	-3805.
1410	8.4844	2.5455	0.	-3804.7
1411	8.4844	2.7273	0.	-3804.5
1412	8.4844	2.9091	0.	-3804.4
1413	8.4844	3.0909	0.	-3804.4
1414	8.4844	3.2727	0.	-3804.5
1415	8.4844	3.4545	0.	-3804.7
1416	8.4844	3.6364	0.	-3805.
1417	8.4844	3.8182	0.	-3805.4
1418	8.4844	4.	0.	-3805.9
1419	8.4844	4.1818	0.	-3806.5
1420	8.4844	4.3636	0.	-3807.1
1421	8.4844	4.5455	0.	-3807.8
1422	8.4844	4.7273	0.	-3808.6
1423	8.4844	4.9091	0.	-3809.4
1424	8.4844	5.0909	0.	-3810.5
1425	8.4844	5.2727	0.	-3811.7
1426	8.4844	5.4545	0.	-3813.2
1427	8.4844	5.6364	0.	-3815.
1428	8.4844	5.8182	0.	-3817.9
1429	8.6691	0.18182	0.	-3767.1
1430	8.6691	0.36364	0.	-3763.9
1431	8.6691	0.54545	0.	-3761.7
1432	8.6691	0.72727	0.	-3759.9
1433	8.6691	0.90909	0.	-3758.2
1434	8.6691	1.0909	0.	-3756.8
1435	8.6691	1.2727	0.	-3755.4
1436	8.6691	1.4545	0.	-3754.2
1437	8.6691	1.6364	0.	-3753.1
1438	8.6691	1.8182	0.	-3752.1
1439	8.6691	2.	0.	-3751.2
1440	8.6691	2.1818	0.	-3750.4
1441	8.6691	2.3636	0.	-3749.7
1442	8.6691	2.5455	0.	-3749.2
1443	8.6691	2.7273	0.	-3748.8
1444	8.6691	2.9091	0.	-3748.7
1445	8.6691	3.0909	0.	-3748.7
1446	8.6691	3.2727	0.	-3748.8
1447	8.6691	3.4545	0.	-3749.2
1448	8.6691	3.6364	0.	-3749.7
1449	8.6691	3.8182	0.	-3750.4
1450	8.6691	4.	0.	-3751.2
1451	8.6691	4.1818	0.	-3752.1
1452	8.6691	4.3636	0.	-3753.1
1453	8.6691	4.5455	0.	-3754.2
1454	8.6691	4.7273	0.	-3755.4
1455	8.6691	4.9091	0.	-3756.8
1456	8.6691	5.0909	0.	-3758.2
1457	8.6691	5.2727	0.	-3759.9
1458	8.6691	5.4545	0.	-3761.7
1459	8.6691	5.6364	0.	-3763.9
1460	8.6691	5.8182	0.	-3767.1
1461	8.8538	0.18182	0.	-3715.6
1462	8.8538	0.36364	0.	-3712.2
1463	8.8538	0.54545	0.	-3709.9
1464	8.8538	0.72727	0.	-3707.7
1465	8.8538	0.90909	0.	-3705.8
1466	8.8538	1.0909	0.	-3704.
1467	8.8538	1.2727	0.	-3702.4
1468	8.8538	1.4545	0.	-3700.8
1469	8.8538	1.6364	0.	-3699.4
1470	8.8538	1.8182	0.	-3698.1
1471	8.8538	2.	0.	-3697.
1472	8.8538	2.1818	0.	-3696.
1473	8.8538	2.3636	0.	-3695.2
1474	8.8538	2.5455	0.	-3694.5
1475	8.8538	2.7273	0.	-3694.1
1476	8.8538	2.9091	0.	-3693.9
1477	8.8538	3.0909	0.	-3693.9
1478	8.8538	3.2727	0.	-3694.1
1479	8.8538	3.4545	0.	-3694.5
1480	8.8538	3.6364	0.	-3695.2
1481	8.8538	3.8182	0.	-3696.
1482	8.8538	4.	0.	-3697.
1483	8.8538	4.1818	0.	-3698.1
1484	8.8538	4.3636	0.	-3699.4
1485	8.8538	4.5455	0.	-3700.8
1486	8.8538	4.7273	0.	-3702.4
1487	8.8538	4.9091	0.	-3704.
1488	8.8538	5.0909	0.	-3705.8
1489	8.8538	5.2727	0.	-3707.7
1490	8.8538	5.4545	0.	-3709.9
1491	8.8538	5.6364	0.	-3712.2
1492	8.8538	5.8182	0.	-3715.6
1493	9.0385	0.18182	0.	-3663.7
1494	9.0385	0.36364	0.	-3660.2
1495	9.0385	0.54545	0.	-3657.7
1496	9.0385	0.72727	0.	-3655.4
1497	9.0385	0.90909	0.	-3653.3
1498	9.0385	1.0909	0.	-3651.3
1499	9.0385	1.2727	0.	-3649.4
1500	9.0385	1.4545	0.	-3647.7
1501	9.0385	1.6364	0.	-3646.1
1502	9.0385	1.8182	0.	-3644.6
1503	9.0385	2.	0.	-3643.3
1504	9.0385	2.1818	0.	-3642.2
1505	9.0385	2.3636	0.	-3641.3
1506	9.0385	2.5455	0.	-3640.6
1507	9.0385	2.7273	0.	-3640.1
1508	9.0385	2.9091	0.	-3639.8
1509	9.0385	3.0909	0.	-3639.8
1510	9.0385	3.2727	0.	-3640.1
1511	9.0385	3.4545	0.	-3640.6
1512	9.0385	3.6364	0.	-3641.3
1513	9.0385	3.8182	0.	-3642.2
1514	9.0385	4.	0.	-3643.3
1515	9.0385	4.1818	0.	-3644.6
1516	9.0385	4.3636	0.	-3646.1
1517	9.0385	4.5455	0.	-3647.7
1518	9.0385	4.7273	0.	-3649.4
1519	9.0385	4.9091	0.	-3651.3
1520	9.0385	5.0909	0.	-3653.3
1521	9.0385	5.2727	0.	-3655.4
1522	9.0385	5.4545	0.	-3657.7
1523	9.0385	5.6364	0.	-3660.2
1524	9.0385	5.8182	0.	-3663.7
1525	9.2232	0.18182	0.	-3611.5
1526	9.2232	0.36364	0.	-3608.
1527	9.2232	0.54545	0.	-3605.4
1528	9.2232	0.72727	0.	-3603.
1529	9.2232	0.90909	0.	-3600.7
1530	9.2232	1.0909	0.	-3598.6
1531	9.2232	1.2727	0.	-3596.6
1532	9.2232	1.4545	0.	-3594.8
1533	9.2232	1.6364	0.	-3593.1
1534	9.2232	1.8182	0.	-3591.5
1535	9.2232	2.	0.	-3590.1
1536	9.2232	2.1818	0.	-3588.9
1537	9.2232	2.3636	0.	-3587.9
1538	9.2232	2.5455	0.	-3587.2
1539	9.2232	2.7273	0.	-3586.7
1540	9.2232	2.9091	0.	-3586.4
1541	9.2232	3.0909	0.	-3586.4
1542	9.2232	3.2727	0.	-3586.7
1543	9.2232	3.4545	0.	-3587.2
1544	9.2232	3.6364	0.	-3587.9
1545	9.2232	3.8182	0.	-3588.9
1546	9.2232	4.	0.	-3590.1
1547	9.2232	4.1818	0.	-3591.5
1548	9.2232	4.3636	0.	-3593.1
1549	9.2232	4.5455	0.	-3594.8
1550	9.2232	4.7273	0.	-3596.6
1551	9.2232	4.9091	0.	-3598.6
1552	9.2232	5.0909	0.	-3600.7
1553	9.2232	5.2727	0.	-3603.
1554	9.2232	5.4545	0.	-3605.4
1555	9.2232	5.6364	0.	-3608.
1556	9.2232	5.8182	0.	-3611.5
1557	9.408	0.18182	0.	-3559.2
1558	9.408	0.36364	0.	-3555.6
1559	9.408	0.54545	0.	-3552.9
1560	9.408	0.72727	0.	-3550.5
1561	9.408	0.90909	0.	-3548.2
1562	9.408	1.0909	0.	-3546.
1563	9.408	1.2727	0.	-3544.
1564	9.408	1.4545	0.	-3542.1
1565	9.408	1.6364	0.	-3540.3
1566	9.408	1.8182	0.	-3538.7
1567	9.408	2.	0.	-3537.3
1568	9.408	2.1818	0.	-3536.
1569	9.408	2.3636	0.	-3535.
1570	9.408	2.5455	0.	-3534.3
1571	9.408	2.7273	0.	-3533.7
1572	9.408	2.9091	0.	-3533.5
1573	9.408	3.0909	0.	-3533.5
1574	9.408	3.2727	0.	-3533.7
1575	9.408	3.4545	0.	-3534.3
1576	9.408	3.6364	0.	-3535.
1577	9.408	3.8182	0.	-3536.
1578	9.408	4.	0.	-3537.3
1579	9.408	4.1818	0.	-3538.7
1580	9.408	4.3636	0.	-3540.3
1581	9.408	4.5455	0.	-3542.1
1582	9.408	4.7273	0.	-3544.
1583	9.408	4.9091	0.	-3546.
1584	9.408	5.0909	0.	-3548.2
1585	9.408	5.2727	0.	-3550.5
1586	9.408	5.4545	0.	-3552.9
1587	9.408	5.6364	0.	-3555.6
1588	9.408	5.8182	0.	-3559.2
1589	9.5927	0.18182	0.	-3506.8
1590	9.5927	0.36364	0.	-3503.2
1591	9.5927	0.54545	0.	-3500.5
1592	9.5927	0.72727	0.	-3498.1
1593	9.5927	0.90909	0.	-3495.8
1594	9.5927	1.0909	0.	-3493.6
1595	9.5927	1.2727	0.	-3491.5
1596	9.5927	1.4545	0.	-3489.6
1597	9.5927	1.6364	0.	-3487.8
1598	9.5927	1.8182	0.	-3486.2
1599	9.5927	2.	0.	-3484.8
1600	9.5927	2.1818	0.	-3483.5
1601	9.5927	2.3636	0.	-3482.5
1602	9.5927	2.5455	0.	-3481.7
1603	9.5927	2.7273	0.	-3481.2
1604	9.5927	2.9091	0.	-3480.9
1605	9.5927	3.0909	0.	-3480.9
1606	9.5927	3.2727	0.	-3481.2
1607	9.5927	3.4545	0.	-3481.7
1608	9.5927	3.6364	0.	-3482.5
1609	9.5927	3.8182	0.	-3483.5
1610	9.5927	4.	0.	-3484.8
1611	9.5927	4.1818	0.	-3486.2
1612	9.5927	4.3636	0.	-3487.8
1613	9.5927	4.5455	0.	-3489.6
1614	9.5927	4.7273	0.	-3491.5
1615	9.5927	4.9091	0.	-3493.6
1616	9.5927	5.0909	0.	-3495.8
1617	9.5927	5.2727	0.	-3498.1
1618	9.5927	5.4545	0.	-3500.5
1619	9.5927	5.6364	0.	-3503.2
1620	9.5927	5.8182	0.	-3506.8
1621	9.7774	0.18182	0.	-3454.4
1622	9.7774	0.36364	0.	-3450.8
1623	9.7774	0.54545	0.	-3448.2
1624	9.7774	0.72727	0.	-3445.8
1625	9.7774	0.90909	0.	-3443.5
1626	9.7774	1.0909	0.	-3441.3
1627	9.7774	1.2727	0.	-3439.2
1628	9.7774	1.4545	0.	-3437.3
1629	9.7774	1.6364	0.	-3435.5
1630	9.7774	1.8182	0.	-3433.9
1631	9.7774	2.	0.	-3432.5
1632	9.7774	2.1818	0.	-3431.3
1633	9.7774	2.3636	0.	-3430.3
1634	9.7774	2.5455	0.	-3429.5
1635	9.7774	2.7273	0.	-3429.
1636	9.7774	2.9091	0.	-3428.8
1637	9.7774	3.0909	0.	-3428.8
1638	9.7774	3.2727	0.	-3429.
1639	9.7774	3.4545	0.	-3429.5
1640	9.7774	3.6364	0.	-3430.3
1641	9.7774	3.8182	0.	-3431.3
1642	9.7774	4.	0.	-3432.5
1643	9.7774	4.1818	0.	-3433.9
1644	9.7774	4.3636	0.	-3435.5
1645	9.7774	4.5455	0.	-3437.3
1646	9.7774	4.7273	0.	-3439.2
1647	9.7774	4.9091	0.	-3441.3
1648	9.7774	5.0909	0.	-3443.5
1649	9.7774	5.2727	0.	-3445.8
1650	9.7774	5.4545	0.	-3448.2
1651	9.7774	5.6364	0.	-3450.8
1652	9.7774	5.8182	0.	-3454.4
1653	9.9621	0.18182	0.	-3402.1
1654	9.9621	0.36364	0.	-3398.5
1655	9.9621	0.54545	0.	-3395.9
1656	9.9621	0.72727	0.	-3393.6
1657	9.9621	0.90909	0.	-3391.3
1658	9.9621	1.0909	0.	-3389.1
1659	9.9621	1.2727	0.	-3387.1
1660	9.9621	1.4545	0.	-3385.2
1661	9.9621	1.6364	0.	-3383.5
1662	9.9621	1.8182	0.	-3381.9
1663	9.9621	2.	0.	-3380.5
1664	9.9621	2.1818	0.	-3379.4
1665	9.9621	2.3636	0.	-3378.4
1666	9.9621	2.5455	0.	-3377.6
1667	9.9621	2.7273	0.	-3377.1
1668	9.9621	2.9091	0.	-3376.9
1669	9.9621	3.0909	0.	-3376.9
1670	9.9621	3.2727	0.	-3377.1
1671	9.9621	3.4545	0.	-3377.6
1672	9.9621	3.6364	0.	-3378.4
1673	9.9621	3.8182	0.	-3379.4
1674	9.9621	4.	0.	-3380.5
1675	9.9621	4.1818	0.	-3381.9
1676	9.9621	4.3636	0.	-3383.5
1677	9.9621	4.5455	0.	-3385.2
1678	9.9621	4.7273	0.	-3387.1
1679	9.9621	4.9091	0.	-3389.1
1680	9.9621	5.0909	0.	-3391.3
1681	9.9621	5.2727	0.	-3393.6
1682	9.9621	5.4545	0.	-3395.9
1683	9.9621	5.6364	0.	-3398.5
1684	9.9621	5.8182	0.	-3402.1
1685	10.147	0.18182	0.	-3349.9
1686	10.147	0.36364	0.	-3346.3
1687	10.147	0.54545	0.	-3343.8
1688	10.147	0.72727	0.	-3341.5
1689	10.147	0.90909	0.	-3339.3
1690	10.147	1.0909	0.	-3337.2
1691	10.147	1.2727	0.	-3335.2
1692	10.147	1.4545	0.	-3333.4
1693	10.147	1.6364	0.	-3331.7
1694	10.147	1.8182	0.	-3330.1
1695	10.147	2.	0.	-3328.8
1696	10.147	2.1818	0.	-3327.7
1697	10.147	2.3636	0.	-3326.7
1698	10.147	2.5455	0.	-3326.
1699	10.147	2.7273	0.	-3325.5
1700	10.147	2.9091	0.	-3325.3
1701	10.147	3.0909	0.	-3325.3
1702	10.147	3.2727	0.	-3325.5
1703	10.147	3.4545	0.	-3326.
1704	10.147	3.6364	0.	-3326.7
1705	10.147	3.8182	0.	-3327.7
1706	10.147	4.	0.	-3328.8
1707	10.147	4.1818	0.	-3330.1
1708	10.147	4.3636	0.	-3331.7
1709	10.147	4.5455	0.	-3333.4
1710	10.147	4.7273	0.	-3335.2
1711	10.147	4.9091	0.	-3337.2
1712	10.147	5.0909	0.	-3339.3
1713	10.147	5.2727	0.	-3341.5
1714	10.147	5.4545	0.	-3343.8
1715	10.147	5.6364	0.	-3346.3
1716	10.147	5.8182	0.	-3349.9
1717	10.331	0.18182	0.	-3297.8
1718	10.331	0.36364	0.	-3294.3
1719	10.331	0.54545	0.	-3291.9
1720	10.331	0.72727	0.	-3289.6
1721	10.331	0.90909	0.	-3287.4
1722	10.331	1.0909	0.	-3285.4
1723	10.331	1.2727	0.	-3283.5
1724	10.331	1.4545	0.	-3281.7
1725	10.331	1.6364	0.	-3280.1
1726	10.331	1.8182	0.	-3278.6
1727	10.331	2.	0.	-3277.3
1728	10.331	2.1818	0.	-3276.2
1729	10.331	2.3636	0.	-3275.3
1730	10.331	2.5455	0.	-3274.6
1731	10.331	2.7273	0.	-3274.1
1732	10.331	2.9091	0.	-3273.9
1733	10.331	3.0909	0.	-3273.9
1734	10.331	3.2727	0.	-3274.1
1735	10.331	3.4545	0.	-3274.6
1736	10.331	3.6364	0.	-3275.3
1737	10.331	3.8182	0.	-3276.2
1738	10.331	4.	0.	-3277.3
1739	10.331	4.1818	0.	-3278.6
1740	10.331	4.3636	0.	-3280.1
1741	10.331	4.5455	0.	-3281.7
1742	10.331	4.7273	0.	-3283.5
1743	10.331	4.9091	0.	-3285.4
1744	10.331	5.0909	0.	-3287.4
1745	10.331	5.2727	0.	-3289.6
1746	10.331	5.4545	0.	-3291.9
1747	10.331	5.6364	0.	-3294.3
1748	10.331	5.8182	0.	-3297.8
1749	10.516	0.18182	0.	-3245.9
1750	10.516	0.36364	0.	-3242.4
1751	10.516	0.54545	0.	-3240.1
1752	10.516	0.72727	0.	-3237.9
1753	10.516	0.90909	0.	-3235.8
1754	10.516	1.0909	0.	-3233.8
1755	10.516	1.2727	0.	-3231.9
1756	10.516	1.4545	0.	-3230.2
1757	10.516	1.6364	0.	-3228.7
1758	10.516	1.8182	0.	-3227.2
1759	10.516	2.	0.	-3226.
1760	10.516	2.1818	0.	-3224.9
1761	10.516	2.3636	0.	-3224.1
1762	10.516	2.5455	0.	-3223.4
1763	10.516	2.7273	0.	-3223.
1764	10.516	2.9091	0.	-3222.8
1765	10.516	3.0909	0.	-3222.8
1766	10.516	3.2727	0.	-3223.
1767	10.516	3.4545	0.	-3223.4
1768	10.516	3.6364	0.	-3224.1
1769	10.516	3.8182	0.	-3224.9
1770	10.516	4.	0.	-3226.
1771	10.516	4.1818	0.	-3227.2
1772	10.516	4.3636	0.	-3228.7
1773	10.516	4.5455	0.	-3230.2
1774	10.516	4.7273	0.	-3231.9
1775	10.516	4.9091	0.	-3233.8
1776	10.516	5.0909	0.	-3235.8
1777	10.516	5.2727	0.	-3237.9
1778	10.516	5.4545	0.	-3240.1
1779	10.516	5.6364	0.	-3242.4
1780	10.516	5.8182	0.	-3245.9
1781	10.701	0.18182	0.	-3194.2
1782	10.701	0.36364	0.	-3190.8
1783	10.701	0.54545	0.	-3188.5
1784	10.701	0.72727	0.	-3186.3
1785	10.701	0.90909	0.	-3184.3
1786	10.701	1.0909	0.	-3182.4
1787	10.701	1.2727	0.	-3180.6
1788	10.701	1.4545	0.	-3179.
1789	10.701	1.6364	0.	-3177.5
1790	10.701	1.8182	0.	-3176.1
1791	10.701	2.	0.	-3174.9
1792	10.701	2.1818	0.	-3173.9
1793	10.701	2.3636	0.	-3173.1
1794	10.701	2.5455	0.	-3172.4
1795	10.701	2.7273	0.	-3172.
1796	10.701	2.9091	0.	-3171.8
1797	10.701	3.0909	0.	-3171.8
1798	10.701	3.2727	0.	-3172.
1799	10.701	3.4545	0.	-3172.4
1800	10.701	3.6364	0.	-3173.1
1801	10.701	3.8182	0.	-3173.9
1802	10.701	4.	0.	-3174.9
1803	10.701	4.1818	0.	-3176.1
1804	10.701	4.3636	0.	-3177.5
1805	10.701	4.5455	0.	-3179.
1806	10.701	4.7273	0.	-3180.6
1807	10.701	4.9091	0.	-3182.4
1808	10.701	5.0909	0.	-3184.3
1809	10.701	5.2727	0.	-3186.3
1810	10.701	5.4545	0.	-3188.5
1811	10.701	5.6364	0.	-3190.8
1812	10.701	5.8182	0.	-3194.2
1813	10.886	0.18182	0.	-3142.7
1814	10.886	0.36364	0.	-3139.3
1815	10.886	0.54545	0.	-3137.1
1816	10.886	0.72727	0.	-3135.
1817	10.886	0.90909	0.	-3133.1
1818	10.886	1.0909	0.	-3131.2
1819	10.886	1.2727	0.	-3129.5
1820	10.886	1.4545	0.	-3127.9
1821	10.886	1.6364	0.	-3126.4
1822	10.886	1.8182	0.	-3125.2
1823	10.886	2.	0.	-3124.
1824	10.886	2.1818	0.	-3123.
1825	10.886	2.3636	0.	-3122.3
1826	10.886	2.5455	0.	-3121.7
1827	10.886	2.7273	0.	-3121.3
1828	10.886	2.9091	0.	-3121.1
1829	10.886	3.0909	0.	-3121.1
1830	10.886	3.2727	0.	-3121.3
1831	10.886	3.4545	0.	-3121.7
1832	10.886	3.6364	0.	-3122.3
1833	10.886	3.8182	0.	-3123.
1834	10.886	4.	0.	-3124.
1835	10.886	4.1818	0.	-3125.2
1836	10.886	4.3636	0.	-3126.4
1837	10.886	4.5455	0.	-3127.9
1838	10.886	4.7273	0.	-3129.5
1839	10.886	4.9091	0.	-3131.2
1840	10.886	5.0909	0.	-3133.1
1841	10.886	5.2727	0.	-3135.
1842	10.886	5.4545	0.	-3137.1
1843	10.886	5.6364	0.	-3139.3
1844	10.886	5.8182	0.	-3142.7
1845	11.07	0.18182	0.	-3091.4
1846	11.07	0.36364	0.	-3088.
1847	11.07	0.54545	0.	-3085.9
1848	11.07	0.72727	0.	-3083.9
1849	11.07	0.90909	0.	-3082.
1850	11.07	1.0909	0.	-3080.2
1851	11.07	1.2727	0.	-3078.6
1852	11.07	1.4545	0.	-3077.
1853	11.07	1.6364	0.	-3075.6
1854	11.07	1.8182	0.	-3074.4
1855	11.07	2.	0.	-3073.3
1856	11.07	2.1818	0.	-3072.4
1857	11.07	2.3636	0.	-3071.6
1858	11.07	2.5455	0.	-3071.1
1859	11.07	2.7273	0.	-3070.7
1860	11.07	2.9091	0.	-3070.5
1861	11.07	3.0909	0.	-3070.5
1862	11.07	3.2727	0.	-3070.7
1863	11.07	3.4545	0.	-3071.1
1864	11.07	3.6364	0.	-3071.6
1865	11.07	3.8182	0.	-3072.4
1866	11.07	4.	0.	-3073.3
1867	11.07	4.1818	0.	-3074.4
1868	11.07	4.3636	0.	-3075.6
1869	11.07	4.5455	0.	-3077.
1870	11.07	4.7273	0.	-3078.6
1871	11.07	4.9091	0.	-3080.2
1872	11.07	5.0909	0.	-3082.
1873	11.07	5.2727	0.	-3083.9
1874	11.07	5.4545	0.	-3085.9
1875	11.07	5.6364	0.	-3088.
1876	11.07	5.8182	0.	-3091.4
1877	11.255	0.18182	0.	-3040.3
1878	11.255	0.36364	0.	-3037.
1879	11.255	0.54545	0.	-3034.9
1880	11.255	0.72727	0.	-3032.9
1881	11.255	0.90909	0.	-3031.1
1882	11.255	1.0909	0.	-3029.4
1883	11.255	1.2727	0.	-3027.8
1884	11.255	1.4545	0.	-3026.4
1885	11.255	1.6364	0.	-3025.
1886	11.255	1.8182	0.	-3023.8
1887	11.255	2.	0.	-3022.8
1888	11.255	2.1818	0.	-3021.9
1889	11.255	2.3636	0.	-3021.2
1890	11.255	2.5455	0.	-3020.7
1891	11.255	2.7273	0.	-3020.3
1892	11.255	2.9091	0.	-3020.1
1893	11.255	3.0909	0.	-3020.1
1894	11.255	3.2727	0.	-3020.3
1895	11.255	3.4545	0.	-3020.7
1896	11.255	3.6364	0.	-3021.2
1897	11.255	3.8182	0.	-3021.9
1898	11.255	4.	0.	-3022.8
1899	11.255	4.1818	0.	-3023.8
1900	11.255	4.3636	0.	-3025.
1901	11.255	4.5455	0.	-3026.4
1902	11.255	4.7273	0.	-3027.8
1903	11.255	4.9091	0.	-3029.4
1904	11.255	5.0909	0.	-3031.1
1905	11.255	5.2727	0.	-3032.9
1906	11.255	5.4545	0.	-3034.9
1907	11.255	5.6364	0.	-3037.
1908	11.255	5.8182	0.	-3040.3
1909	11.44	0.18182	0.	-2989.4
1910	11.44	0.36364	0.	-2986.1
1911	11.44	0.54545	0.	-2984.1
1912	11.44	0.72727	0.	-2982.2
1913	11.44	0.90909	0.	-2980.5
1914	11.44	1.0909	0.	-2978.8
1915	11.44	1.2727	0.	-2977.3
1916	11.44	1.4545	0.	-2975.9
1917	11.44	1.6364	0.	-2974.6
1918	11.44	1.8182	0.	-2973.5
1919	11.44	2.	0.	-2972.5
1920	11.44	2.1818	0.	-2971.6
1921	11.44	2.3636	0.	-2971.
1922	11.44	2.5455	0.	-2970.4
1923	11.44	2.7273	0.	-2970.1
1924	11.44	2.9091	0.	-2969.9
1925	11.44	3.0909	0.	-2969.9
1926	11.44	3.2727	0.	-2970.1
1927	11.44	3.4545	0.	-2970.4
1928	11.44	3.6364	0.	-2971.
1929	11.44	3.8182	0.	-2971.6
1930	11.44	4.	0.	-2972.5
1931	11.44	4.1818	0.	-2973.5
1932	11.44	4.3636	0.	-2974.6
1933	11.44	4.5455	0.	-2975.9
1934	11.44	4.7273	0.	-2977.3
1935	11.44	4.9091	0.	-2978.8
1936	11.44	5.0909	0.	-2980.5
1937	11.44	5.2727	0.	-2982.2
1938	11.44	5.4545	0.	-2984.1
1939	11.44	5.6364	0.	-2986.1
1940	11.44	5.8182	0.	-2989.4
1941	11.624	0.18182	0.	-2938.8
1942	11.624	0.36364	0.	-2935.5
1943	11.624	0.54545	0.	-2933.5
1944	11.624	0.72727	0.	-2931.7
1945	11.624	0.90909	0.	-2930.
1946	11.624	1.0909	0.	-2928.4
1947	11.624	1.2727	0.	-2927.
1948	11.624	1.4545	0.	-2925.6
1949	11.624	1.6364	0.	-2924.4
1950	11.624	1.8182	0.	-2923.3
1951	11.624	2.	0.	-2922.3
1952	11.624	2.1818	0.	-2921.5
1953	11.624	2.3636	0.	-2920.9
1954	11.624	2.5455	0.	-2920.4
1955	11.624	2.7273	0.	-2920.1
1956	11.624	2.9091	0.	-2919.9
1957	11.624	3.0909	0.	-2919.9
1958	11.624	3.2727	0.	-2920.1
1959	11.624	3.4545	0.	-2920.4
1960	11.624	3.6364	0.	-2920.9
1961	11.624	3.8182	0.	-2921.5
1962	11.624	4.	0.	-2922.3
1963	11.624	4.1818	0.	-2923.3
1964	11.624	4.3636	0.	-2924.4
1965	11.624	4.5455	0.	-2925.6
1966	11.624	4.7273	0.	-2927.
1967	11.624	4.9091	0.	-2928.4
1968	11.624	5.0909	0.	-2930.
1969	11.624	5.2727	0.	-2931.7
1970	11.624	5.4545	0.	-2933.5
1971	11.624	5.6364	0.	-2935.5
1972	11.624	5.8182	0.	-2938.8
1973	11.809	0.18182	0.	-2888.3
1974	11.809	0.36364	0.	-2885.1
1975	11.809	0.54545	0.	-2883.2
1976	11.809	0.72727	0.	-2881.4
1977	11.809	0.90909	0.	-2879.8
1978	11.809	1.0909	0.	-2878.2
1979	11.809	1.2727	0.	-2876.8
1980	11.809	1.4545	0.	-2875.5
1981	11.809	1.6364	0.	-2874.3
1982	11.809	1.8182	0.	-2873.3
1983	11.809	2.	0.	-2872.4
1984	11.809	2.1818	0.	-2871.6
1985	11.809	2.3636	0.	-2871.
1986	11.809	2.5455	0.	-2870.5
1987	11.809	2.7273	0.	-2870.2
1988	11.809	2.9091	0.	-2870.1
1989	11.809	3.0909	0.	-2870.1
1990	11.809	3.2727	0.	-2870.2
1991	11.809	3.4545	0.	-2870.5
1992	11.809	3.6364	0.	-2871.
1993	11.809	3.8182	0.	-2871.6
1994	11.809	4.	0.	-2872.4
1995	11.809	4.1818	0.	-2873.3
1996	11.809	4.3636	0.	-2874.3
1997	11.809	4.5455	0.	-2875.5
1998	11.809	4.7273	0.	-2876.8
1999	11.809	4.9091	0.	-2878.2
2000	11.809	5.0909	0.	-2879.8
2001	11.809	5.2727	0.	-2881.4
2002	11.809	5.4545	0.	-2883.2
2003	11.809	5.6364	0.	-2885.1
2004	11.809	5.8182	0.	-2888.3
2005	11.994	0.18182	0.	-2838.1
2006	11.994	0.36364	0.	-2834.9
2007	11.994	0.54545	0.	-2833.
2008	11.994	0.72727	0.	-2831.3
2009	11.994	0.90909	0.	-2829.7
2010	11.994	1.0909	0.	-2828.3
2011	11.994	1.2727	0.	-2826.9
2012	11.994	1.4545	0.	-2825.6
2013	11.994	1.6364	0.	-2824.5
2014	11.994	1.8182	0.	-2823.5
2015	11.994	2.	0.	-2822.6
2016	11.994	2.1818	0.	-2821.9
2017	11.994	2.3636	0.	-2821.3
2018	11.994	2.5455	0.	-2820.8
2019	11.994	2.7273	0.	-2820.5
2020	11.994	2.9091	0.	-2820.4
2021	11.994	3.0909	0.	-2820.4
2022	11.994	3.2727	0.	-2820.5
2023	11.994	3.4545	0.	-2820.8
2024	11.994	3.6364	0.	-2821.3
2025	11.994	3.8182	0.	-2821.9
2026	11.994	4.	0.	-2822.6
2027	11.994	4.1818	0.	-2823.5
2028	11.994	4.3636	0.	-2824.5
2029	11.994	4.5455	0.	-2825.6
2030	11.994	4.7273	0.	-2826.9
2031	11.994	4.9091	0.	-2828.3
2032	11.994	5.0909	0.	-2829.7
2033	11.994	5.2727	0.	-2831.3
2034	11.994	5.4545	0.	-2833.
2035	11.994	5.6364	0.	-2834.9
2036	11.994	5.8182	0.	-2838.1
2037	12.179	0.18182	0.	-2788.1
2038	12.179	0.36364	0.	-2784.9
2039	12.179	0.54545	0.	-2783.1
2040	12.179	0.72727	0.	-2781.4
2041	12.179	0.90909	0.	-2779.9
2042	12.179	1.0909	0.	-2778.5
2043	12.179	1.2727	0.	-2777.1
2044	12.179	1.4545	0.	-2775.9
2045	12.179	1.6364	0.	-2774.8
2046	12.179	1.8182	0.	-2773.9
2047	12.179	2.	0.	-2773.
2048	12.179	2.1818	0.	-2772.3
2049	12.179	2.3636	0.	-2771.8
2050	12.179	2.5455	0.	-2771.3
2051	12.179	2.7273	0.	-2771.
2052	12.179	2.9091	0.	-2770.9
2053	12.179	3.0909	0.	-2770.9
2054	12.179	3.2727	0.	-2771.
2055	12.179	3.4545	0.	-2771.3
2056	12.179	3.6364	0.	-2771.8
2057	12.179	3.8182	0.	-2772.3
2058	12.179	4.	0.	-2773.
2059	12.179	4.1818	0.	-2773.9
2060	12.179	4.3636	0.	-2774.8
2061	12.179	4.5455	0.	-2775.9
2062	12.179	4.7273	0.	-2777.1
2063	12.179	4.9091	0.	-2778.5
2064	12.179	5.0909	0.	-2779.9
2065	12.179	5.2727	0.	-2781.4
2066	12.179	5.4545	0.	-2783.1
2067	12.179	5.6364	0.	-2784.9
2068	12.179	5.8182	0.	-2788.1
2069	12.363	0.18182	0.	-2738.3
2070	12.363	0.36364	0.	-2735.1
2071	12.363	0.54545	0.	-2733.4
2072	12.363	0.72727	0.	-2731.8
2073	12.363	0.90909	0.	-2730.3
2074	12.363	1.0909	0.	-2728.9
2075	12.363	1.2727	0.	-2727.6
2076	12.363	1.4545	0.	-2726.4
2077	12.363	1.6364	0.	-2725.4
2078	12.363	1.8182	0.	-2724.5
2079	12.363	2.	0.	-2723.6
2080	12.363	2.1818	0.	-2723.
2081	12.363	2.3636	0.	-2722.4
2082	12.363	2.5455	0.	-2722.
2083	12.363	2.7273	0.	-2721.7
2084	12.363	2.9091	0.	-2721.6
2085	12.363	3.0909	0.	-2721.6
2086	12.363	3.2727	0.	-2721.7
2087	12.363	3.4545	0.	-2722.
2088	12.363	3.6364	0.	-2722.4
2089	12.363	3.8182	0.	-2723.
2090	12.363	4.	0.	-2723.6
2091	12.363	4.1818	0.	-2724.5
2092	12.363	4.3636	0.	-2725.4
2093	12.363	4.5455	0.	-2726.4
2094	12.363	4.7273	0.	-2727.6
2095	12.363	4.9091	0.	-2728.9
2096	12.363	5.0909	0.	-2730.3
2097	12.363	5.2727	0.	-2731.8
2098	12.363	5.4545	0.	-2733.4
2099	12.363	5.6364	0.	-2735.1
2100	12.363	5.8182	0.	-2738.3
2101	12.548	0.18182	0.	-2688.8
2102	12.548	0.36364	0.	-2685.6
2103	12.548	0.54545	0.	-2683.9
2104	12.548	0.72727	0.	-2682.3
2105	12.548	0.90909	0.	-2680.9
2106	12.548	1.0909	0.	-2679.5
2107	12.548	1.2727	0.	-2678.3
2108	12.548	1.4545	0.	-2677.1
2109	12.548	1.6364	0.	-2676.1
2110	12.548	1.8182	0.	-2675.2
2111	12.548	2.	0.	-2674.4
2112	12.548	2.1818	0.	-2673.8
2113	12.548	2.3636	0.	-2673.3
2114	12.548	2.5455	0.	-2672.9
2115	12.548	2.7273	0.	-2672.6
2116	12.548	2.9091	0.	-2672.5
2117	12.548	3.0909	0.	-2672.5
2118	12.548	3.2727	0.	-2672.6
2119	12.548	3.4545	0.	-2672.9
2120	12.548	3.6364	0.	-2673.3
2121	12.548	3.8182	0.	-2673.8
2122	12.548	4.	0.	-2674.4
2123	12.548	4.1818	0.	-2675.2
2124	12.548	4.3636	0.	-2676.1
2125	12.548	4.5455	0.	-2677.1
2126	12.548	4.7273	0.	-2678.3
2127	12.548	4.9091	0.	-2679.5
2128	12.548	5.0909	0.	-2680.9
2129	12.548	5.2727	0.	-2682.3
2130	12.548	5.4545	0.	-2683.9
2131	12.548	5.6364	0.	-2685.6
2132	12.548	5.8182	0.	-2688.8
2133	12.733	0.18182	0.	-2639.5
2134	12.733	0.36364	0.	-2636.3
2135	12.733	0.54545	0.	-2634.6
2136	12.733	0.72727	0.	-2633.1
2137	12.733	0.90909	0.	-2631.6
2138	12.733	1.0909	0.	-2630.3
2139	12.733	1.2727	0.	-2629.1
2140	12.733	1.4545	0.	-2628.
2141	12.733	1.6364	0.	-2627.
2142	12.733	1.8182	0.	-2626.2
2143	12.733	2.	0.	-2625.4
2144	12.733	2.1818	0.	-2624.8
2145	12.733	2.3636	0.	-2624.3
2146	12.733	2.5455	0.	-2623.9
2147	12.733	2.7273	0.	-2623.6
2148	12.733	2.9091	0.	-2623.5
2149	12.733	3.0909	0.	-2623.5
2150	12.733	3.2727	0.	-2623.6
2151	12.733	3.4545	0.	-2623.9
2152	12.733	3.6364	0.	-2624.3
2153	12.733	3.8182	0.	-2624.8
2154	12.733	4.	0.	-2625.4
2155	12.733	4.1818	0.	-2626.2
2156	12.733	4.3636	0.	-2627.
2157	12.733	4.5455	0.	-2628.
2158	12.733	4.7273	0.	-2629.1
2159	12.733	4.9091	0.	-2630.3
2160	12.733	5.0909	0.	-2631.6
2161	12.733	5.2727	0.	-2633.1
2162	12.733	5.4545	0.	-2634.6
2163	12.733	5.6364	0.	-2636.3
2164	12.733	5.8182	0.	-2639.5
2165	12.917	0.18182	0.	-2590.3
2166	12.917	0.36364	0.	-2587.2
2167	12.917	0.54545	0.	-2585.5
2168	12.917	0.72727	0.	-2584.
2169	12.917	0.90909	0.	-2582.6
2170	12.917	1.0909	0.	-2581.4
2171	12.917	1.2727	0.	-2580.2
2172	12.917	1.4545	0.	-2579.1
2173	12.917	1.6364	0.	-2578.2
2174	12.917	1.8182	0.	-2577.3
2175	12.917	2.	0.	-2576.6
2176	12.917	2.1818	0.	-2576.
2177	12.917	2.3636	0.	-2575.5
2178	12.917	2.5455	0.	-2575.1
2179	12.917	2.7273	0.	-2574.9
2180	12.917	2.9091	0.	-2574.7
2181	12.917	3.0909	0.	-2574.7
2182	12.917	3.2727	0.	-2574.9
2183	12.917	3.4545	0.	-2575.1
2184	12.917	3.6364	0.	-2575.5
2185	12.917	3.8182	0.	-2576.
2186	12.917	4.	0.	-2576.6
2187	12.917	4.1818	0.	-2577.3
2188	12.917	4.3636	0.	-2578.2
2189	12.917	4.5455	0.	-2579.1
2190	12.917	4.7273	0.	-2580.2
2191	12.917	4.9091	0.	-2581.4
2192	12.917	5.0909	0.	-2582.6
2193	12.917	5.2727	0.	-2584.
2194	12.917	5.4545	0.	-2585.5
2195	12.917	5.6364	0.	-2587.2
2196	12.917	5.8182	0.	-2590.3
2197	13.102	0.18182	0.	-2541.5
2198	13.102	0.36364	0.	-2538.3
2199	13.102	0.54545	0.	-2536.6
2200	13.102	0.72727	0.	-2535.2
2201	13.102	0.90909	0.	-2533.8
2202	13.102	1.0909	0.	-2532.6
2203	13.102	1.2727	0.	-2531.4
2204	13.102	1.4545	0.	-2530.4
2205	13.102	1.6364	0.	-2529.5
2206	13.102	1.8182	0.	-2528.7
2207	13.102	2.	0.	-2528.
2208	13.102	2.1818	0.	-2527.4
2209	13.102	2.3636	0.	-2526.9
2210	13.102	2.5455	0.	-2526.5
2211	13.102	2.7273	0.	-2526.3
2212	13.102	2.9091	0.	-2526.2
2213	13.102	3.0909	0.	-2526.2
2214	13.102	3.2727	0.	-2526.3
2215	13.102	3.4545	0.	-2526.5
2216	13.102	3.6364	0.	-2526.9
2217	13.102	3.8182	0.	-2527.4
2218	13.102	4.	0.	-2528.
2219	13.102	4.1818	0.	-2528.7
2220	13.102	4.3636	0.	-2529.5
2221	13.102	4.5455	0.	-2530.4
2222	13.102	4.7273	0.	-2531.4
2223	13.102	4.9091	0.	-2532.6
2224	13.102	5.0909	0.	-2533.8
2225	13.102	5.2727	0.	-2535.2
2226	13.102	5.4545	0.	-2536.6
2227	13.102	5.6364	0.	-2538.3
2228	13.102	5.8182	0.	-2541.5
2229	13.287	0.18182	0.	-2492.8
2230	13.287	0.36364	0.	-2489.6
2231	13.287	0.54545	0.	-2488.
2232	13.287	0.72727	0.	-2486.6
2233	13.287	0.90909	0.	-2485.2
2234	13.287	1.0909	0.	-2484.
2235	13.287	1.2727	0.	-2482.9
2236	13.287	1.4545	0.	-2481.9
2237	13.287	1.6364	0.	-2481.
2238	13.287	1.8182	0.	-2480.2
2239	13.287	2.	0.	-2479.5
2240	13.287	2.1818	0.	-2478.9
2241	13.287	2.3636	0.	-2478.5
2242	13.287	2.5455	0.	-2478.1
2243	13.287	2.7273	0.	-2477.9
2244	13.287	2.9091	0.	-2477.8
2245	13.287	3.0909	0.	-2477.8
2246	13.287	3.2727	0.	-2477.9
2247	13.287	3.4545	0.	-2478.1
2248	13.287	3.6364	0.	-2478.5
2249	13.287	3.8182	0.	-2478.9
2250	13.287	4.	0.	-2479.5
2251	13.287	4.1818	0.	-2480.2
2252	13.287	4.3636	0.	-2481.
2253	13.287	4.5455	0.	-2481.9
2254	13.287	4.7273	0.	-2482.9
2255	13.287	4.9091	0.	-2484.
2256	13.287	5.0909	0.	-2485.2
2257	13.287	5.2727	0.	-2486.6
2258	13.287	5.4545	0.	-2488.
2259	13.287	5.6364	0.	-2489.6
2260	13.287	5.8182	0.	-2492.8
2261	13.472	0.18182	0.	-2444.3
2262	13.472	0.36364	0.	-2441.1
2263	13.472	0.54545	0.	-2439.5
2264	13.472	0.72727	0.	-2438.1
2265	13.472	0.90909	0.	-2436.8
2266	13.472	1.0909	0.	-2435.7
2267	13.472	1.2727	0.	-2434.6
2268	13.472	1.4545	0.	-2433.6
2269	13.472	1.6364	0.	-2432.7
2270	13.472	1.8182	0.	-2431.9
2271	13.472	2.	0.	-2431.2
2272	13.472	2.1818	0.	-2430.7
2273	13.472	2.3636	0.	-2430.2
2274	13.472	2.5455	0.	-2429.9
2275	13.472	2.7273	0.	-2429.7
2276	13.472	2.9091	0.	-2429.6
2277	13.472	3.0909	0.	-2429.6
2278	13.472	3.2727	0.	-2429.7
2279	13.472	3.4545	0.	-2429.9
2280	13.472	3.6364	0.	-2430.2
2281	13.472	3.8182	0.	-2430.7
2282	13.472	4.	0.	-2431.2
2283	13.472	4.1818	0.	-2431.9
2284	13.472	4.3636	0.	-2432.7
2285	13.472	4.5455	0.	-2433.6
2286	13.472	4.7273	0.	-2434.6
2287	13.472	4.9091	0.	-2435.7
2288	13.472	5.0909	0.	-2436.8
2289	13.472	5.2727	0.	-2438.1
2290	13.472	5.4545	0.	-2439.5
2291	13.472	5.6364	0.	-2441.1
2292	13.472	5.8182	0.	-2444.3
2293	13.656	0.18182	0.	-2396.1
2294	13.656	0.36364	0.	-2392.9
2295	13.656	0.54545	0.	-2391.3
2296	13.656	0.72727	0.	-2389.9
2297	13.656	0.90909	0.	-2388.7
2298	13.656	1.0909	0.	-2387.5
2299	13.656	1.2727	0.	-2386.4
2300	13.656	1.4545	0.	-2385.4
2301	13.656	1.6364	0.	-2384.6
2302	13.656	1.8182	0.	-2383.8
2303	13.656	2.	0.	-2383.2
2304	13.656	2.1818	0.	-2382.6
2305	13.656	2.3636	0.	-2382.2
2306	13.656	2.5455	0.	-2381.9
2307	13.656	2.7273	0.	-2381.6
2308	13.656	2.9091	0.	-2381.5
2309	13.656	3.0909	0.	-2381.5
2310	13.656	3.2727	0.	-2381.6
2311	13.656	3.4545	0.	-2381.9
2312	13.656	3.6364	0.	-2382.2
2313	13.656	3.8182	0.	-2382.6
2314	13.656	4.	0.	-2383.2
2315	13.656	4.1818	0.	-2383.8
2316	13.656	4.3636	0.	-2384.6
2317	13.656	4.5455	0.	-2385.5
2318	13.656	4.7273	0.	-2386.4
2319	13.656	4.9091	0.	-2387.5
2320	13.656	5.0909	0.	-2388.7
2321	13.656	5.2727	0.	-2389.9
2322	13.656	5.4545	0.	-2391.3
2323	13.656	5.6364	0.	-2392.9
2324	13.656	5.8182	0.	-2396.1
2325	13.841	0.18182	0.	-2348.
2326	13.841	0.36364	0.	-2344.8
2327	13.841	0.54545	0.	-2343.3
2328	13.841	0.72727	0.	-2341.9
2329	13.841	0.90909	0.	-2340.7
2330	13.841	1.0909	0.	-2339.5
2331	13.841	1.2727	0.	-2338.5
2332	13.841	1.4545	0.	-2337.5
2333	13.841	1.6364	0.	-2336.7
2334	13.841	1.8182	0.	-2335.9
2335	13.841	2.	0.	-2335.3
2336	13.841	2.1818	0.	-2334.8
2337	13.841	2.3636	0.	-2334.3
2338	13.841	2.5455	0.	-2334.
2339	13.841	2.7273	0.	-2333.8
2340	13.841	2.9091	0.	-2333.7
2341	13.841	3.0909	0.	-2333.7
2342	13.841	3.2727	0.	-2333.8
2343	13.841	3.4545	0.	-2334.
2344	13.841	3.6364	0.	-2334.3
2345	13.841	3.8182	0.	-2334.8
2346	13.841	4.	0.	-2335.3
2347	13.841	4.1818	0.	-2335.9
2348	13.841	4.3636	0.	-2336.7
2349	13.841	4.5455	0.	-2337.5
2350	13.841	4.7273	0.	-2338.5
2351	13.841	4.9091	0.	-2339.5
2352	13.841	5.0909	0.	-2340.7
2353	13.841	5.2727	0.	-2341.9
2354	13.841	5.4545	0.	-2343.3
2355	13.841	5.6364	0.	-2344.8
2356	13.841	5.8182	0.	-2348.
2357	14.026	0.18182	0.	-2300.2
2358	14.026	0.36364	0.	-2297.
2359	14.026	0.54545	0.	-2295.4
2360	14.026	0.72727	0.	-2294.1
2361	14.026	0.90909	0.	-2292.9
2362	14.026	1.0909	0.	-2291.8
2363	14.026	1.2727	0.	-2290.7
2364	14.026	1.4545	0.	-2289.8
2365	14.026	1.6364	0.	-2289.
2366	14.026	1.8182	0.	-2288.2
2367	14.026	2.	0.	-2287.6
2368	14.026	2.1818	0.	-2287.1
2369	14.026	2.3636	0.	-2286.7
2370	14.026	2.5455	0.	-2286.4
2371	14.026	2.7273	0.	-2286.2
2372	14.026	2.9091	0.	-2286.
2373	14.026	3.0909	0.	-2286.
2374	14.026	3.2727	0.	-2286.2
2375	14.026	3.4545	0.	-2286.4
2376	14.026	3.6364	0.	-2286.7
2377	14.026	3.8182	0.	-2287.1
2378	14.026	4.	0.	-2287.6
2379	14.026	4.1818	0.	-2288.2
2380	14.026	4.3636	0.	-2289.
2381	14.026	4.5455	0.	-2289.8
2382	14.026	4.7273	0.	-2290.7
2383	14.026	4.9091	0.	-2291.8
2384	14.026	5.0909	0.	-2292.9
2385	14.026	5.2727	0.	-2294.1
2386	14.026	5.4545	0.	-2295.4
2387	14.026	5.6364	0.	-2297.
2388	14.026	5.8182	0.	-2300.2
2389	14.21	0.18182	0.	-2252.6
2390	14.21	0.36364	0.	-2249.3
2391	14.21	0.54545	0.	-2247.8
2392	14.21	0.72727	0.	-2246.5
2393	14.21	0.90909	0.	-2245.3
2394	14.21	1.0909	0.	-2244.2
2395	14.21	1.2727	0.	-2243.2
2396	14.21	1.4545	0.	-2242.3
2397	14.21	1.6364	0.	-2241.5
2398	14.21	1.8182	0.	-2240.7
2399	14.21	2.	0.	-2240.1
2400	14.21	2.1818	0.	-2239.6
2401	14.21	2.3636	0.	-2239.2
2402	14.21	2.5455	0.	-2238.9
2403	14.21	2.7273	0.	-2238.7
2404	14.21	2.9091	0.	-2238.6
2405	14.21	3.0909	0.	-2238.6
2406	14.21	3.2727	0.	-2238.7
2407	14.21	3.4545	0.	-2238.9
2408	14.21	3.6364	0.	-2239.2
2409	14.21	3.8182	0.	-2239.6
2410	14.21	4.	0.	-2240.1
2411	14.21	4.1818	0.	-2240.7
2412	14.21	4.3636	0.	-2241.5
2413	14.21	4.5455	0.	-2242.3
2414	14.21	4.7273	0.	-2243.2
2415	14.21	4.9091	0.	-2244.2
2416	14.21	5.0909	0.	-2245.3
2417	14.21	5.2727	0.	-2246.5
2418	14.21	5.4545	0.	-2247.8
2419	14.21	5.6364	0.	-2249.4
2420	14.21	5.8182	0.	-2252.6
2421	14.395	0.18182	0.	-2205.2
2422	14.395	0.36364	0.	-2201.9
2423	14.395	0.54545	0.	-2200.4
2424	14.395	0.72727	0.	-2199.1
2425	14.395	0.90909	0.	-2197.9
2426	14.395	1.0909	0.	-2196.8
2427	14.395	1.2727	0.	-2195.8
2428	14.395	1.4545	0.	-2194.9
2429	14.395	1.6364	0.	-2194.1
2430	14.395	1.8182	0.	-2193.4
2431	14.395	2.	0.	-2192.8
2432	14.395	2.1818	0.	-2192.3
2433	14.395	2.3636	0.	-2191.9
2434	14.395	2.5455	0.	-2191.6
2435	14.395	2.7273	0.	-2191.4
2436	14.395	2.9091	0.	-2191.3
2437	14.395	3.0909	0.	-2191.3
2438	14.395	3.2727	0.	-2191.4
2439	14.395	3.4545	0.	-2191.6
2440	14.395	3.6364	0.	-2191.9
2441	14.395	3.8182	0.	-2192.3
2442	14.395	4.	0.	-2192.8
2443	14.395	4.1818	0.	-2193.4
2444	14.395	4.3636	0.	-2194.1
2445	14.395	4.5455	0.	-2194.9
2446	14.395	4.7273	0.	-2195.8
2447	14.395	4.9091	0.	-2196.8
2448	14.395	5.0909	0.	-2197.9
2449	14.395	5.2727	0.	-2199.1
2450	14.395	5.4545	0.	-2200.4
2451	14.395	5.6364	0.	-2201.9
2452	14.395	5.8182	0.	-2205.2
2453	14.58	0.18182	0.	-2158.
2454	14.58	0.36364	0.	-2154.7
2455	14.58	0.54545	0.	-2153.2
2456	14.58	0.72727	0.	-2151.9
2457	14.58	0.90909	0.	-2150.8
2458	14.58	1.0909	0.	-2149.7
2459	14.58	1.2727	0.	-2148.7
2460	14.58	1.4545	0.	-2147.8
2461	14.58	1.6364	0.	-2147.
2462	14.58	1.8182	0.	-2146.3
2463	14.58	2.	0.	-2145.7
2464	14.58	2.1818	0.	-2145.2
2465	14.58	2.3636	0.	-2144.8
2466	14.58	2.5455	0.	-2144.5
2467	14.58	2.7273	0.	-2144.4
2468	14.58	2.9091	0.	-2144.3
2469	14.58	3.0909	0.	-2144.3
2470	14.58	3.2727	0.	-2144.4
2471	14.58	3.4545	0.	-2144.5
2472	14.58	3.6364	0.	-2144.8
2473	14.58	3.8182	0.	-2145.2
2474	14.58	4.	0.	-2145.7
2475	14.58	4.1818	0.	-2146.3
2476	14.58	4.3636	0.	-2147.
2477	14.58	4.5455	0.	-2147.8
2478	14.58	4.7273	0.	-2148.7
2479	14.58	4.9091	0.	-2149.7
2480	14.58	5.0909	0.	-2150.8
2481	14.58	5.2727	0.	-2151.9
2482	14.58	5.4545	0.	-2153.2
2483	14.58	5.6364	0.	-2154.7
2484	14.58	5.8182	0.	-2158.
2485	14.765	0.18182	0.	-2111.
2486	14.765	0.36364	0.	-2107.7
2487	14.765	0.54545	0.	-2106.2
2488	14.765	0.72727	0.	-2105.
2489	14.765	0.90909	0.	-2103.8
2490	14.765	1.0909	0.	-2102.7
2491	14.765	1.2727	0.	-2101.7
2492	14.765	1.4545	0.	-2100.9
2493	14.765	1.6364	0.	-2100.1
2494	14.765	1.8182	0.	-2099.4
2495	14.765	2.	0.	-2098.8
2496	14.765	2.1818	0.	-2098.3
2497	14.765	2.3636	0.	-2098.
2498	14.765	2.5455	0.	-2097.7
2499	14.765	2.7273	0.	-2097.5
2500	14.765	2.9091	0.	-2097.4
2501	14.765	3.0909	0.	-2097.4
2502	14.765	3.2727	0.	-2097.5
2503	14.765	3.4545	0.	-2097.7
2504	14.765	3.6364	0.	-2098.
2505	14.765	3.8182	0.	-2098.3
2506	14.765	4.	0.	-2098.8
2507	14.765	4.1818	0.	-2099.4
2508	14.765	4.3636	0.	-2100.1
2509	14.765	4.5455	0.	-2100.9
2510	14.765	4.7273	0.	-2101.7
2511	14.765	4.9091	0.	-2102.7
2512	14.765	5.0909	0.	-2103.8
2513	14.765	5.2727	0.	-2105.
2514	14.765	5.4545	0.	-2106.2
2515	14.765	5.6364	0.	-2107.7
2516	14.765	5.8182	0.	-2111.
2517	14.949	0.18182	0.	-2064.3
2518	14.949	0.36364	0.	-2060.9
2519	14.949	0.54545	0.	-2059.4
2520	14.949	0.72727	0.	-2058.2
2521	14.949	0.90909	0.	-2057.
2522	14.949	1.0909	0.	-2055.9
2523	14.949	1.2727	0.	-2055.
2524	14.949	1.4545	0.	-2054.1
2525	14.949	1.6364	0.	-2053.4
2526	14.949	1.8182	0.	-2052.7
2527	14.949	2.	0.	-2052.1
2528	14.949	2.1818	0.	-2051.6
2529	14.949	2.3636	0.	-2051.3
2530	14.949	2.5455	0.	-2051.
2531	14.949	2.7273	0.	-2050.8
2532	14.949	2.9091	0.	-2050.7
2533	14.949	3.0909	0.	-2050.7
2534	14.949	3.2727	0.	-2050.8
2535	14.949	3.4545	0.	-2051.
2536	14.949	3.6364	0.	-2051.3
2537	14.949	3.8182	0.	-2051.6
2538	14.949	4.	0.	-2052.1
2539	14.949	4.1818	0.	-2052.7
2540	14.949	4.3636	0.	-2053.4
2541	14.949	4.5455	0.	-2054.1
2542	14.949	4.7273	0.	-2055.
2543	14.949	4.9091	0.	-2055.9
2544	14.949	5.0909	0.	-2057.
2545	14.949	5.2727	0.	-2058.2
2546	14.949	5.4545	0.	-2059.4
2547	14.949	5.6364	0.	-2060.9
2548	14.949	5.8182	0.	-2064.3
2549	15.134	0.18182	0.	-2017.7
2550	15.134	0.36364	0.	-2014.3
2551	15.134	0.54545	0.	-2012.9
2552	15.134	0.72727	0.	-2011.6
2553	15.134	0.90909	0.	-2010.4
2554	15.134	1.0909	0.	-2009.4
2555	15.134	1.2727	0.	-2008.4
2556	15.134	1.4545	0.	-2007.6
2557	15.134	1.6364	0.	-2006.8
2558	15.134	1.8182	0.	-2006.2
2559	15.134	2.	0.	-2005.6
2560	15.134	2.1818	0.	-2005.1
2561	15.134	2.3636	0.	-2004.8
2562	15.134	2.5455	0.	-2004.5
2563	15.134	2.7273	0.	-2004.3
2564	15.134	2.9091	0.	-2004.2
2565	15.134	3.0909	0.	-2004.2
2566	15.134	3.2727	0.	-2004.3
2567	15.134	3.4545	0.	-2004.5
2568	15.134	3.6364	0.	-2004.8
2569	15.134	3.8182	0.	-2005.1
2570	15.134	4.	0.	-2005.6
2571	15.134	4.1818	0.	-2006.2
2572	15.134	4.3636	0.	-2006.8
2573	15.134	4.5455	0.	-2007.6
2574	15.134	4.7273	0.	-2008.4
2575	15.134	4.9091	0.	-2009.4
2576	15.134	5.0909	0.	-2010.4
2577	15.134	5.2727	0.	-2011.6
2578	15.134	5.4545	0.	-2012.9
2579	15.134	5.6364	0.	-2014.3
2580	15.134	5.8182	0.	-2017.7
2581	15.319	0.18182	0.	-1971.3
2582	15.319	0.36364	0.	-1968.
2583	15.319	0.54545	0.	-1966.5
2584	15.319	0.72727	0.	-1965.2
2585	15.319	0.90909	0.	-1964.1
2586	15.319	1.0909	0.	-1963.
2587	15.319	1.2727	0.	-1962.1
2588	15.319	1.4545	0.	-1961.2
2589	15.319	1.6364	0.	-1960.5
2590	15.319	1.8182	0.	-1959.8
2591	15.319	2.	0.	-1959.3
2592	15.319	2.1818	0.	-1958.8
2593	15.319	2.3636	0.	-1958.5
2594	15.319	2.5455	0.	-1958.2
2595	15.319	2.7273	0.	-1958.
2596	15.319	2.9091	0.	-1957.9
2597	15.319	3.0909	0.	-1957.9
2598	15.319	3.2727	0.	-1958.
2599	15.319	3.4545	0.	-1958.2
2600	15.319	3.6364	0.	-1958.5
2601	15.319	3.8182	0.	-1958.8
2602	15.319	4.	0.	-1959.3
2603	15.319	4.1818	0.	-1959.8
2604	15.319	4.3636	0.	-1960.5
2605	15.319	4.5455	0.	-1961.2
2606	15.319	4.7273	0.	-1962.1
2607	15.319	4.9091	0.	-1963.
2608	15.319	5.0909	0.	-1964.1
2609	15.319	5.2727	0.	-1965.2
2610	15.319	5.4545	0.	-1966.5
2611	15.319	5.6364	0.	-1968.
2612	15.319	5.8182	0.	-1971.3
2613	15.503	0.18182	0.	-1925.2
2614	15.503	0.36364	0.	-1921.8
2615	15.503	0.54545	0.	-1920.3
2616	15.503	0.72727	0.	-1919.
2617	15.503	0.90909	0.	-1917.9
2618	15.503	1.0909	0.	-1916.9
2619	15.503	1.2727	0.	-1915.9
2620	15.503	1.4545	0.	-1915.1
2621	15.503	1.6364	0.	-1914.4
2622	15.503	1.8182	0.	-1913.7
2623	15.503	2.	0.	-1913.2
2624	15.503	2.1818	0.	-1912.7
2625	15.503	2.3636	0.	-1912.4
2626	15.503	2.5455	0.	-1912.1
2627	15.503	2.7273	0.	-1911.9
2628	15.503	2.9091	0.	-1911.8
2629	15.503	3.0909	0.	-1911.8
2630	15.503	3.2727	0.	-1911.9
2631	15.503	3.4545	0.	-1912.1
2632	15.503	3.6364	0.	-1912.4
2633	15.503	3.8182	0.	-1912.7
2634	15.503	4.	0.	-1913.2
2635	15.503	4.1818	0.	-1913.7
2636	15.503	4.3636	0.	-1914.4
2637	15.503	4.5455	0.	-1915.1
2638	15.503	4.7273	0.	-1915.9
2639	15.503	4.9091	0.	-1916.9
2640	15.503	5.0909	0.	-1917.9
2641	15.503	5.2727	0.	-1919.
2642	15.503	5.4545	0.	-1920.3
2643	15.503	5.6364	0.	-1921.8
2644	15.503	5.8182	0.	-1925.2
2645	15.688	0.18182	0.	-1879.2
2646	15.688	0.36364	0.	-1875.8
2647	15.688	0.54545	0.	-1874.3
2648	15.688	0.72727	0.	-1873.1
2649	15.688	0.90909	0.	-1871.9
2650	15.688	1.0909	0.	-1870.9
2651	15.688	1.2727	0.	-1870.
2652	15.688	1.4545	0.	-1869.2
2653	15.688	1.6364	0.	-1868.4
2654	15.688	1.8182	0.	-1867.8
2655	15.688	2.	0.	-1867.3
2656	15.688	2.1818	0.	-1866.8
2657	15.688	2.3636	0.	-1866.4
2658	15.688	2.5455	0.	-1866.2
2659	15.688	2.7273	0.	-1866.
2660	15.688	2.9091	0.	-1865.9
2661	15.688	3.0909	0.	-1865.9
2662	15.688	3.2727	0.	-1866.
2663	15.688	3.4545	0.	-1866.2
2664	15.688	3.6364	0.	-1866.4
2665	15.688	3.8182	0.	-1866.8
2666	15.688	4.	0.	-1867.3
2667	15.688	4.1818	0.	-1867.8
2668	15.688	4.3636	0.	-1868.4
2669	15.688	4.5455	0.	-1869.2
2670	15.688	4.7273	0.	-1870.
2671	15.688	4.9091	0.	-1870.9
2672	15.688	5.0909	0.	-1871.9
2673	15.688	5.2727	0.	-1873.1
2674	15.688	5.4545	0.	-1874.3
2675	15.688	5.6364	0.	-1875.8
2676	15.688	5.8182	0.	-1879.2
2677	15.873	0.18182	0.	-1833.5
2678	15.873	0.36364	0.	-1830.
2679	15.873	0.54545	0.	-1828.5
2680	15.873	0.72727	0.	-1827.3
2681	15.873	0.90909	0.	-1826.2
2682	15.873	1.0909	0.	-1825.2
2683	15.873	1.2727	0.	-1824.2
2684	15.873	1.4545	0.	-1823.4
2685	15.873	1.6364	0.	-1822.7
2686	15.873	1.8182	0.	-1822.1
2687	15.873	2.	0.	-1821.5
2688	15.873	2.1818	0.	-1821.1
2689	15.873	2.3636	0.	-1820.7
2690	15.873	2.5455	0.	-1820.5
2691	15.873	2.7273	0.	-1820.3
2692	15.873	2.9091	0.	-1820.2
2693	15.873	3.0909	0.	-1820.2
2694	15.873	3.2727	0.	-1820.3
2695	15.873	3.4545	0.	-1820.5
2696	15.873	3.6364	0.	-1820.7
2697	15.873	3.8182	0.	-1821.1
2698	15.873	4.	0.	-1821.5
2699	15.873	4.1818	0.	-1822.1
2700	15.873	4.3636	0.	-1822.7
2701	15.873	4.5455	0.	-1823.4
2702	15.873	4.7273	0.	-1824.2
2703	15.873	4.9091	0.	-1825.2
2704	15.873	5.0909	0.	-1826.2
2705	15.873	5.2727	0.	-1827.3
2706	15.873	5.4545	0.	-1828.5
2707	15.873	5.6364	0.	-1830.
2708	15.873	5.8182	0.	-1833.5
2709	16.057	0.18182	0.	-1787.9
2710	16.057	0.36364	0.	-1784.4
2711	16.057	0.54545	0.	-1783.
2712	16.057	0.72727	0.	-1781.7
2713	16.057	0.90909	0.	-1780.6
2714	16.057	1.0909	0.	-1779.6
2715	16.057	1.2727	0.	-1778.7
2716	16.057	1.4545	0.	-1777.9
2717	16.057	1.6364	0.	-1777.2
2718	16.057	1.8182	0.	-1776.5
2719	16.057	2.	0.	-1776.
2720	16.057	2.1818	0.	-1775.6
2721	16.057	2.3636	0.	-1775.2
2722	16.057	2.5455	0.	-1775.
2723	16.057	2.7273	0.	-1774.8
2724	16.057	2.9091	0.	-1774.7
2725	16.057	3.0909	0.	-1774.7
2726	16.057	3.2727	0.	-1774.8
2727	16.057	3.4545	0.	-1775.
2728	16.057	3.6364	0.	-1775.2
2729	16.057	3.8182	0.	-1775.6
2730	16.057	4.	0.	-1776.
2731	16.057	4.1818	0.	-1776.5
2732	16.057	4.3636	0.	-1777.2
2733	16.057	4.5455	0.	-1777.9
2734	16.057	4.7273	0.	-1778.7
2735	16.057	4.9091	0.	-1779.6
2736	16.057	5.0909	0.	-1780.6
2737	16.057	5.2727	0.	-1781.7
2738	16.057	5.4545	0.	-1783.
2739	16.057	5.6364	0.	-1784.4
2740	16.057	5.8182	0.	-1787.9
2741	16.242	0.18182	0.	-1742.6
2742	16.242	0.36364	0.	-1739.1
2743	16.242	0.54545	0.	-1737.6
2744	16.242	0.72727	0.	-1736.4
2745	16.242	0.90909	0.	-1735.2
2746	16.242	1.0909	0.	-1734.2
2747	16.242	1.2727	0.	-1733.3
2748	16.242	1.4545	0.	-1732.5
2749	16.242	1.6364	0.	-1731.8
2750	16.242	1.8182	0.	-1731.2
2751	16.242	2.	0.	-1730.7
2752	16.242	2.1818	0.	-1730.3
2753	16.242	2.3636	0.	-1729.9
2754	16.242	2.5455	0.	-1729.7
2755	16.242	2.7273	0.	-1729.5
2756	16.242	2.9091	0.	-1729.4
2757	16.242	3.0909	0.	-1729.4
2758	16.242	3.2727	0.	-1729.5
2759	16.242	3.4545	0.	-1729.7
2760	16.242	3.6364	0.	-1729.9
2761	16.242	3.8182	0.	-1730.3
2762	16.242	4.	0.	-1730.7
2763	16.242	4.1818	0.	-1731.2
2764	16.242	4.3636	0.	-1731.8
2765	16.242	4.5455	0.	-1732.5
2766	16.242	4.7273	0.	-1733.3
2767	16.242	4.9091	0.	-1734.2
2768	16.242	5.0909	0.	-1735.2
2769	16.242	5.2727	0.	-1736.4
2770	16.242	5.4545	0.	-1737.6
2771	16.242	5.6364	0.	-1739.1
2772	16.242	5.8182	0.	-1742.6
2773	16.427	0.18182	0.	-1697.5
2774	16.427	0.36364	0.	-1693.9
2775	16.427	0.54545	0.	-1692.4
2776	16.427	0.72727	0.	-1691.2
2777	16.427	0.90909	0.	-1690.1
2778	16.427	1.0909	0.	-1689.1
2779	16.427	1.2727	0.	-1688.2
2780	16.427	1.4545	0.	-1687.4
2781	16.427	1.6364	0.	-1686.7
2782	16.427	1.8182	0.	-1686.1
2783	16.427	2.	0.	-1685.6
2784	16.427	2.1818	0.	-1685.2
2785	16.427	2.3636	0.	-1684.8
2786	16.427	2.5455	0.	-1684.6
2787	16.427	2.7273	0.	-1684.4
2788	16.427	2.9091	0.	-1684.3
2789	16.427	3.0909	0.	-1684.3
2790	16.427	3.2727	0.	-1684.4
2791	16.427	3.4545	0.	-1684.6
2792	16.427	3.6364	0.	-1684.8
2793	16.427	3.8182	0.	-1685.2
2794	16.427	4.	0.	-1685.6
2795	16.427	4.1818	0.	-1686.1
2796	16.427	4.3636	0.	-1686.7
2797	16.427	4.5455	0.	-1687.4
2798	16.427	4.7273	0.	-1688.2
2799	16.427	4.9091	0.	-1689.1
2800	16.427	5.0909	0.	-1690.1
2801	16.427	5.2727	0.	-1691.2
2802	16.427	5.4545	0.	-1692.4
2803	16.427	5.6364	0.	-1693.9
2804	16.427	5.8182	0.	-1697.5
2805	16.612	0.18182	0.	-1652.5
2806	16.612	0.36364	0.	-1648.9
2807	16.612	0.54545	0.	-1647.4
2808	16.612	0.72727	0.	-1646.2
2809	16.612	0.90909	0.	-1645.1
2810	16.612	1.0909	0.	-1644.1
2811	16.612	1.2727	0.	-1643.2
2812	16.612	1.4545	0.	-1642.4
2813	16.612	1.6364	0.	-1641.7
2814	16.612	1.8182	0.	-1641.2
2815	16.612	2.	0.	-1640.7
2816	16.612	2.1818	0.	-1640.2
2817	16.612	2.3636	0.	-1639.9
2818	16.612	2.5455	0.	-1639.7
2819	16.612	2.7273	0.	-1639.5
2820	16.612	2.9091	0.	-1639.4
2821	16.612	3.0909	0.	-1639.4
2822	16.612	3.2727	0.	-1639.5
2823	16.612	3.4545	0.	-1639.7
2824	16.612	3.6364	0.	-1639.9
2825	16.612	3.8182	0.	-1640.2
2826	16.612	4.	0.	-1640.7
2827	16.612	4.1818	0.	-1641.2
2828	16.612	4.3636	0.	-1641.7
2829	16.612	4.5455	0.	-1642.4
2830	16.612	4.7273	0.	-1643.2
2831	16.612	4.9091	0.	-1644.1
2832	16.612	5.0909	0.	-1645.1
2833	16.612	5.2727	0.	-1646.2
2834	16.612	5.4545	0.	-1647.4
2835	16.612	5.6364	0.	-1648.9
2836	16.612	5.8182	0.	-1652.5
2837	16.796	0.18182	0.	-1607.8
2838	16.796	0.36364	0.	-1604.1
2839	16.796	0.54545	0.	-1602.7
2840	16.796	0.72727	0.	-1601.4
2841	16.796	0.90909	0.	-1600.3
2842	16.796	1.0909	0.	-1599.3
2843	16.796	1.2727	0.	-1598.5
2844	16.796	1.4545	0.	-1597.7
2845	16.796	1.6364	0.	-1597.
2846	16.796	1.8182	0.	-1596.4
2847	16.796	2.	0.	-1595.9
2848	16.796	2.1818	0.	-1595.5
2849	16.796	2.3636	0.	-1595.2
2850	16.796	2.5455	0.	-1595.
2851	16.796	2.7273	0.	-1594.8
2852	16.796	2.9091	0.	-1594.7
2853	16.796	3.0909	0.	-1594.7
2854	16.796	3.2727	0.	-1594.8
2855	16.796	3.4545	0.	-1595.
2856	16.796	3.6364	0.	-1595.2
2857	16.796	3.8182	0.	-1595.5
2858	16.796	4.	0.	-1595.9
2859	16.796	4.1818	0.	-1596.4
2860	16.796	4.3636	0.	-1597.
2861	16.796	4.5455	0.	-1597.7
2862	16.796	4.7273	0.	-1598.5
2863	16.796	4.9091	0.	-1599.3
2864	16.796	5.0909	0.	-1600.3
2865	16.796	5.2727	0.	-1601.4
2866	16.796	5.4545	0.	-1602.7
2867	16.796	5.6364	0.	-1604.1
2868	16.796	5.8182	0.	-1607.8
2869	16.981	0.18182	0.	-1563.2
2870	16.981	0.36364	0.	-1559.5
2871	16.981	0.54545	0.	-1558.1
2872	16.981	0.72727	0.	-1556.8
2873	16.981	0.90909	0.	-1555.8
2874	16.981	1.0909	0.	-1554.8
2875	16.981	1.2727	0.	-1553.9
2876	16.981	1.4545	0.	-1553.1
2877	16.981	1.6364	0.	-1552.5
2878	16.981	1.8182	0.	-1551.9
2879	16.981	2.	0.	-1551.4
2880	16.981	2.1818	0.	-1551.
2881	16.981	2.3636	0.	-1550.7
2882	16.981	2.5455	0.	-1550.5
2883	16.981	2.7273	0.	-1550.3
2884	16.981	2.9091	0.	-1550.2
2885	16.981	3.0909	0.	-1550.2
2886	16.981	3.2727	0.	-1550.3
2887	16.981	3.4545	0.	-1550.5
2888	16.981	3.6364	0.	-1550.7
2889	16.981	3.8182	0.	-1551.
2890	16.981	4.	0.	-1551.4
2891	16.981	4.1818	0.	-1551.9
2892	16.981	4.3636	0.	-1552.5
2893	16.981	4.5455	0.	-1553.1
2894	16.981	4.7273	0.	-1553.9
2895	16.981	4.9091	0.	-1554.8
2896	16.981	5.0909	0.	-1555.8
2897	16.981	5.2727	0.	-1556.8
2898	16.981	5.4545	0.	-1558.1
2899	16.981	5.6364	0.	-1559.5
2900	16.981	5.8182	0.	-1563.2
2901	17.166	0.18182	0.	-1518.9
2902	17.166	0.36364	0.	-1515.2
2903	17.166	0.54545	0.	-1513.7
2904	17.166	0.72727	0.	-1512.5
2905	17.166	0.90909	0.	-1511.4
2906	17.166	1.0909	0.	-1510.4
2907	17.166	1.2727	0.	-1509.5
2908	17.166	1.4545	0.	-1508.8
2909	17.166	1.6364	0.	-1508.1
2910	17.166	1.8182	0.	-1507.6
2911	17.166	2.	0.	-1507.1
2912	17.166	2.1818	0.	-1506.7
2913	17.166	2.3636	0.	-1506.4
2914	17.166	2.5455	0.	-1506.2
2915	17.166	2.7273	0.	-1506.
2916	17.166	2.9091	0.	-1506.
2917	17.166	3.0909	0.	-1506.
2918	17.166	3.2727	0.	-1506.
2919	17.166	3.4545	0.	-1506.2
2920	17.166	3.6364	0.	-1506.4
2921	17.166	3.8182	0.	-1506.7
2922	17.166	4.	0.	-1507.1
2923	17.166	4.1818	0.	-1507.6
2924	17.166	4.3636	0.	-1508.1
2925	17.166	4.5455	0.	-1508.8
2926	17.166	4.7273	0.	-1509.5
2927	17.166	4.9091	0.	-1510.4
2928	17.166	5.0909	0.	-1511.4
2929	17.166	5.2727	0.	-1512.5
2930	17.166	5.4545	0.	-1513.7
2931	17.166	5.6364	0.	-1515.2
2932	17.166	5.8182	0.	-1518.9
2933	17.35	0.18182	0.	-1474.7
2934	17.35	0.36364	0.	-1471.
2935	17.35	0.54545	0.	-1469.5
2936	17.35	0.72727	0.	-1468.3
2937	17.35	0.90909	0.	-1467.2
2938	17.35	1.0909	0.	-1466.2
2939	17.35	1.2727	0.	-1465.4
2940	17.35	1.4545	0.	-1464.6
2941	17.35	1.6364	0.	-1464.
2942	17.35	1.8182	0.	-1463.5
2943	17.35	2.	0.	-1463.
2944	17.35	2.1818	0.	-1462.6
2945	17.35	2.3636	0.	-1462.3
2946	17.35	2.5455	0.	-1462.1
2947	17.35	2.7273	0.	-1462.
2948	17.35	2.9091	0.	-1461.9
2949	17.35	3.0909	0.	-1461.9
2950	17.35	3.2727	0.	-1462.
2951	17.35	3.4545	0.	-1462.1
2952	17.35	3.6364	0.	-1462.3
2953	17.35	3.8182	0.	-1462.6
2954	17.35	4.	0.	-1463.
2955	17.35	4.1818	0.	-1463.5
2956	17.35	4.3636	0.	-1464.
2957	17.35	4.5455	0.	-1464.6
2958	17.35	4.7273	0.	-1465.4
2959	17.35	4.9091	0.	-1466.2
2960	17.35	5.0909	0.	-1467.2
2961	17.35	5.2727	0.	-1468.3
2962	17.35	5.4545	0.	-1469.5
2963	17.35	5.6364	0.	-1471.
2964	17.35	5.8182	0.	-1474.7
2965	17.535	0.18182	0.	-1430.7
2966	17.535	0.36364	0.	-1427.
2967	17.535	0.54545	0.	-1425.5
2968	17.535	0.72727	0.	-1424.3
2969	17.535	0.90909	0.	-1423.2
2970	17.535	1.0909	0.	-1422.3
2971	17.535	1.2727	0.	-1421.4
2972	17.535	1.4545	0.	-1420.7
2973	17.535	1.6364	0.	-1420.1
2974	17.535	1.8182	0.	-1419.5
2975	17.535	2.	0.	-1419.1
2976	17.535	2.1818	0.	-1418.7
2977	17.535	2.3636	0.	-1418.4
2978	17.535	2.5455	0.	-1418.2
2979	17.535	2.7273	0.	-1418.1
2980	17.535	2.9091	0.	-1418.
2981	17.535	3.0909	0.	-1418.
2982	17.535	3.2727	0.	-1418.1
2983	17.535	3.4545	0.	-1418.2
2984	17.535	3.6364	0.	-1418.4
2985	17.535	3.8182	0.	-1418.7
2986	17.535	4.	0.	-1419.1
2987	17.535	4.1818	0.	-1419.5
2988	17.535	4.3636	0.	-1420.1
2989	17.535	4.5455	0.	-1420.7
2990	17.535	4.7273	0.	-1421.4
2991	17.535	4.9091	0.	-1422.3
2992	17.535	5.0909	0.	-1423.2
2993	17.535	5.2727	0.	-1424.3
2994	17.535	5.4545	0.	-1425.5
2995	17.535	5.6364	0.	-1427.
2996	17.535	5.8182	0.	-1430.7
2997	17.72	0.18182	0.	-1387.
2998	17.72	0.36364	0.	-1383.1
2999	17.72	0.54545	0.	-1381.7
3000	17.72	0.72727	0.	-1380.5
3001	17.72	0.90909	0.	-1379.4
3002	17.72	1.0909	0.	-1378.5
3003	17.72	1.2727	0.	-1377.7
3004	17.72	1.4545	0.	-1376.9
3005	17.72	1.6364	0.	-1376.3
3006	17.72	1.8182	0.	-1375.8
3007	17.72	2.	0.	-1375.4
3008	17.72	2.1818	0.	-1375.
3009	17.72	2.3636	0.	-1374.8
3010	17.72	2.5455	0.	-1374.6
3011	17.72	2.7273	0.	-1374.4
3012	17.72	2.9091	0.	-1374.4
3013	17.72	3.0909	0.	-1374.4
3014	17.72	3.2727	0.	-1374.4
3015	17.72	3.4545	0.	-1374.6
3016	17.72	3.6364	0.	-1374.8
3017	17.72	3.8182	0.	-1375.
3018	17.72	4.	0.	-1375.4
3019	17.72	4.1818	0.	-1375.8
3020	17.72	4.3636	0.	-1376.3
3021	17.72	4.5455	0.	-1376.9
3022	17.72	4.7273	0.	-1377.7
3023	17.72	4.9091	0.	-1378.5
3024	17.72	5.0909	0.	-1379.4
3025	17.72	5.2727	0.	-1380.5
3026	17.72	5.4545	0.	-1381.7
3027	17.72	5.6364	0.	-1383.1
3028	17.72	5.8182	0.	-1387.
3029	17.905	0.18182	0.	-1343.4
3030	17.905	0.36364	0.	-1339.5
3031	17.905	0.54545	0.	-1338.
3032	17.905	0.72727	0.	-1336.9
3033	17.905	0.90909	0.	-1335.8
3034	17.905	1.0909	0.	-1334.9
3035	17.905	1.2727	0.	-1334.1
3036	17.905	1.4545	0.	-1333.4
3037	17.905	1.6364	0.	-1332.8
3038	17.905	1.8182	0.	-1332.3
3039	17.905	2.	0.	-1331.9
3040	17.905	2.1818	0.	-1331.5
3041	17.905	2.3636	0.	-1331.3
3042	17.905	2.5455	0.	-1331.1
3043	17.905	2.7273	0.	-1331.
3044	17.905	2.9091	0.	-1330.9
3045	17.905	3.0909	0.	-1330.9
3046	17.905	3.2727	0.	-1331.
3047	17.905	3.4545	0.	-1331.1
3048	17.905	3.6364	0.	-1331.3
3049	17.905	3.8182	0.	-1331.5
3050	17.905	4.	0.	-1331.9
3051	17.905	4.1818	0.	-1332.3
3052	17.905	4.3636	0.	-1332.8
3053	17.905	4.5455	0.	-1333.4
3054	17.905	4.7273	0.	-1334.1
3055	17.905	4.9091	0.	-1334.9
3056	17.905	5.0909	0.	-1335.8
3057	17.905	5.2727	0.	-1336.9
3058	17.905	5.4545	0.	-1338.
3059	17.905	5.6364	0.	-1339.5
3060	17.905	5.8182	0.	-1343.4
3061	18.089	0.18182	0.	-1300.
3062	18.089	0.36364	0.	-1296.1
3063	18.089	0.54545	0.	-1294.6
3064	18.089	0.72727	0.	-1293.4
3065	18.089	0.90909	0.	-1292.4
3066	18.089	1.0909	0.	-1291.5
3067	18.089	1.2727	0.	-1290.7
3068	18.089	1.4545	0.	-1290.
3069	18.089	1.6364	0.	-1289.5
3070	18.089	1.8182	0.	-1289.
3071	18.089	2.	0.	-1288.6
3072	18.089	2.1818	0.	-1288.3
3073	18.089	2.3636	0.	-1288.
3074	18.089	2.5455	0.	-1287.8
3075	18.089	2.7273	0.	-1287.7
3076	18.089	2.9091	0.	-1287.6
3077	18.089	3.0909	0.	-1287.6
3078	18.089	3.2727	0.	-1287.7
3079	18.089	3.4545	0.	-1287.8
3080	18.089	3.6364	0.	-1288.
3081	18.089	3.8182	0.	-1288.3
3082	18.089	4.	0.	-1288.6
3083	18.089	4.1818	0.	-1289.
3084	18.089	4.3636	0.	-1289.5
3085	18.089	4.5455	0.	-1290.
3086	18.089	4.7273	0.	-1290.7
3087	18.089	4.9091	0.	-1291.5
3088	18.089	5.0909	0.	-1292.4
3089	18.089	5.2727	0.	-1293.4
3090	18.089	5.4545	0.	-1294.6
3091	18.089	5.6364	0.	-1296.1
3092	18.089	5.8182	0.	-1300.
3093	18.274	0.18182	0.	-1256.8
3094	18.274	0.36364	0.	-1252.8
3095	18.274	0.54545	0.	-1251.4
3096	18.274	0.72727	0.	-1250.2
3097	18.274	0.90909	0.	-1249.2
3098	18.274	1.0909	0.	-1248.3
3099	18.274	1.2727	0.	-1247.5
3100	18.274	1.4545	0.	-1246.9
3101	18.274	1.6364	0.	-1246.3
3102	18.274	1.8182	0.	-1245.9
3103	18.274	2.	0.	-1245.5
3104	18.274	2.1818	0.	-1245.2
3105	18.274	2.3636	0.	-1245.
3106	18.274	2.5455	0.	-1244.8
3107	18.274	2.7273	0.	-1244.7
3108	18.274	2.9091	0.	-1244.6
3109	18.274	3.0909	0.	-1244.6
3110	18.274	3.2727	0.	-1244.7
3111	18.274	3.4545	0.	-1244.8
3112	18.274	3.6364	0.	-1245.
3113	18.274	3.8182	0.	-1245.2
3114	18.274	4.	0.	-1245.5
3115	18.274	4.1818	0.	-1245.9
3116	18.274	4.3636	0.	-1246.3
3117	18.274	4.5455	0.	-1246.9
3118	18.274	4.7273	0.	-1247.5
3119	18.274	4.9091	0.	-1248.3
3120	18.274	5.0909	0.	-1249.2
3121	18.274	5.2727	0.	-1250.2
3122	18.274	5.4545	0.	-1251.4
3123	18.274	5.6364	0.	-1252.8
3124	18.274	5.8182	0.	-1256.8
3125	18.459	0.18182	0.	-1213.7
3126	18.459	0.36364	0.	-1209.8
3127	18.459	0.54545	0.	-1208.3
3128	18.459	0.72727	0.	-1207.2
3129	18.459	0.90909	0.	-1206.2
3130	18.459	1.0909	0.	-1205.3
3131	18.459	1.2727	0.	-1204.6
3132	18.459	1.4545	0.	-1203.9
3133	18.459	1.6364	0.	-1203.4
3134	18.459	1.8182	0.	-1203.
3135	18.459	2.	0.	-1202.6
3136	18.459	2.1818	0.	-1202.3
3137	18.459	2.3636	0.	-1202.1
3138	18.459	2.5455	0.	-1201.9
3139	18.459	2.7273	0.	-1201.8
3140	18.459	2.9091	0.	-1201.8
3141	18.459	3.0909	0.	-1201.8
3142	18.459	3.2727	0.	-1201.8
3143	18.459	3.4545	0.	-1201.9
3144	18.459	3.6364	0.	-1202.1
3145	18.459	3.8182	0.	-1202.3
3146	18.459	4.	0.	-1202.6
3147	18.459	4.1818	0.	-1203.
3148	18.459	4.3636	0.	-1203.4
3149	18.459	4.5455	0.	-1203.9
3150	18.459	4.7273	0.	-1204.6
3151	18.459	4.9091	0.	-1205.3
3152	18.459	5.0909	0.	-1206.2
3153	18.459	5.2727	0.	-1207.2
3154	18.459	5.4545	0.	-1208.3
3155	18.459	5.6364	0.	-1209.8
3156	18.459	5.8182	0.	-1213.7
3157	18.643	0.18182	0.	-1170.9
3158	18.643	0.36364	0.	-1166.9
3159	18.643	0.54545	0.	-1165.4
3160	18.643	0.72727	0.	-1164.3
3161	18.643	0.90909	0.	-1163.3
3162	18.643	1.0909	0.	-1162.5
3163	18.643	1.2727	0.	-1161.8
3164	18.643	1.4545	0.	-1161.2
3165	18.643	1.6364	0.	-1160.7
3166	18.643	1.8182	0.	-1160.3
3167	18.643	2.	0.	-1159.9
3168	18.643	2.1818	0.	-1159.7
3169	18.643	2.3636	0.	-1159.5
3170	18.643	2.5455	0.	-1159.3
3171	18.643	2.7273	0.	-1159.2
3172	18.643	2.9091	0.	-1159.2
3173	18.643	3.0909	0.	-1159.2
3174	18.643	3.2727	0.	-1159.2
3175	18.643	3.4545	0.	-1159.3
3176	18.643	3.6364	0.	-1159.5
3177	18.643	3.8182	0.	-1159.7
3178	18.643	4.	0.	-1159.9
3179	18.643	4.1818	0.	-1160.3
3180	18.643	4.3636	0.	-1160.7
3181	18.643	4.5455	0.	-1161.2
3182	18.643	4.7273	0.	-1161.8
3183	18.643	4.9091	0.	-1162.5
3184	18.643	5.0909	0.	-1163.3
3185	18.643	5.2727	0.	-1164.3
3186	18.643	5.4545	0.	-1165.4
3187	18.643	5.6364	0.	-1166.9
3188	18.643	5.8182	0.	-1170.9
3189	18.828	0.18182	0.	-1128.2
3190	18.828	0.36364	0.	-1124.2
3191	18.828	0.54545	0.	-1122.8
3192	18.828	0.72727	0.	-1121.6
3193	18.828	0.90909	0.	-1120.7
3194	18.828	1.0909	0.	-1119.9
3195	18.828	1.2727	0.	-1119.2
3196	18.828	1.4545	0.	-1118.6
3197	18.828	1.6364	0.	-1118.1
3198	18.828	1.8182	0.	-1117.8
3199	18.828	2.	0.	-1117.5
3200	18.828	2.1818	0.	-1117.2
3201	18.828	2.3636	0.	-1117.
3202	18.828	2.5455	0.	-1116.9
3203	18.828	2.7273	0.	-1116.8
3204	18.828	2.9091	0.	-1116.8
3205	18.828	3.0909	0.	-1116.8
3206	18.828	3.2727	0.	-1116.8
3207	18.828	3.4545	0.	-1116.9
3208	18.828	3.6364	0.	-1117.
3209	18.828	3.8182	0.	-1117.2
3210	18.828	4.	0.	-1117.5
3211	18.828	4.1818	0.	-1117.8
3212	18.828	4.3636	0.	-1118.1
3213	18.828	4.5455	0.	-1118.6
3214	18.828	4.7273	0.	-1119.2
3215	18.828	4.9091	0.	-1119.9
3216	18.828	5.0909	0.	-1120.7
3217	18.828	5.2727	0.	-1121.6
3218	18.828	5.4545	0.	-1122.8
3219	18.828	5.6364	0.	-1124.2
3220	18.828	5.8182	0.	-1128.2
3221	19.013	0.18182	0.	-1085.7
3222	19.013	0.36364	0.	-1081.7
3223	19.013	0.54545	0.	-1080.3
3224	19.013	0.72727	0.	-1079.1
3225	19.013	0.90909	0.	-1078.2
3226	19.013	1.0909	0.	-1077.4
3227	19.013	1.2727	0.	-1076.8
3228	19.013	1.4545	0.	-1076.3
3229	19.013	1.6364	0.	-1075.8
3230	19.013	1.8182	0.	-1075.5
3231	19.013	2.	0.	-1075.2
3232	19.013	2.1818	0.	-1075.
3233	19.013	2.3636	0.	-1074.8
3234	19.013	2.5455	0.	-1074.7
3235	19.013	2.7273	0.	-1074.6
3236	19.013	2.9091	0.	-1074.6
3237	19.013	3.0909	0.	-1074.6
3238	19.013	3.2727	0.	-1074.6
3239	19.013	3.4545	0.	-1074.7
3240	19.013	3.6364	0.	-1074.8
3241	19.013	3.8182	0.	-1075.
3242	19.013	4.	0.	-1075.2
3243	19.013	4.1818	0.	-1075.5
3244	19.013	4.3636	0.	-1075.8
3245	19.013	4.5455	0.	-1076.3
3246	19.013	4.7273	0.	-1076.8
3247	19.013	4.9091	0.	-1077.4
3248	19.013	5.0909	0.	-1078.2
3249	19.013	5.2727	0.	-1079.1
3250	19.013	5.4545	0.	-1080.3
3251	19.013	5.6364	0.	-1081.7
3252	19.013	5.8182	0.	-1085.7
3253	19.198	0.18182	0.	-1043.4
3254	19.198	0.36364	0.	-1039.3
3255	19.198	0.54545	0.	-1037.9
3256	19.198	0.72727	0.	-1036.8
3257	19.198	0.90909	0.	-1035.9
3258	19.198	1.0909	0.	-1035.2
3259	19.198	1.2727	0.	-1034.6
3260	19.198	1.4545	0.	-1034.1
3261	19.198	1.6364	0.	-1033.7
3262	19.198	1.8182	0.	-1033.4
3263	19.198	2.	0.	-1033.1
3264	19.198	2.1818	0.	-1032.9
3265	19.198	2.3636	0.	-1032.8
3266	19.198	2.5455	0.	-1032.7
3267	19.198	2.7273	0.	-1032.6
3268	19.198	2.9091	0.	-1032.6
3269	19.198	3.0909	0.	-1032.6
3270	19.198	3.2727	0.	-1032.6
3271	19.198	3.4545	0.	-1032.7
3272	19.198	3.6364	0.	-1032.8
3273	19.198	3.8182	0.	-1032.9
3274	19.198	4.	0.	-1033.1
3275	19.198	4.1818	0.	-1033.4
3276	19.198	4.3636	0.	-1033.7
3277	19.198	4.5455	0.	-1034.1
3278	19.198	4.7273	0.	-1034.6
3279	19.198	4.9091	0.	-1035.2
3280	19.198	5.0909	0.	-1035.9
3281	19.198	5.2727	0.	-1036.8
3282	19.198	5.4545	0.	-1037.9
3283	19.198	5.6364	0.	-1039.3
3284	19.198	5.8182	0.	-1043.4
3285	19.382	0.18182	0.	-1001.3
3286	19.382	0.36364	0.	-997.16
3287	19.382	0.54545	0.	-995.76
3288	19.382	0.72727	0.	-994.71
3289	19.382	0.90909	0.	-993.85
3290	19.382	1.0909	0.	-993.14
3291	19.382	1.2727	0.	-992.57
3292	19.382	1.4545	0.	-992.11
3293	19.382	1.6364	0.	-991.76
3294	19.382	1.8182	0.	-991.48
3295	19.382	2.	0.	-991.27
3296	19.382	2.1818	0.	-991.12
3297	19.382	2.3636	0.	-991.01
3298	19.382	2.5455	0.	-990.93
3299	19.382	2.7273	0.	-990.88
3300	19.382	2.9091	0.	-990.86
3301	19.382	3.0909	0.	-990.86
3302	19.382	3.2727	0.	-990.88
3303	19.382	3.4545	0.	-990.93
3304	19.382	3.6364	0.	-991.01
3305	19.382	3.8182	0.	-991.12
3306	19.382	4.	0.	-991.27
3307	19.382	4.1818	0.	-991.48
3308	19.382	4.3636	0.	-991.76
3309	19.382	4.5455	0.	-992.11
3310	19.382	4.7273	0.	-992.57
3311	19.382	4.9091	0.	-993.14
3312	19.382	5.0909	0.	-993.85
3313	19.382	5.2727	0.	-994.71
3314	19.382	5.4545	0.	-995.76
3315	19.382	5.6364	0.	-997.16
3316	19.382	5.8182	0.	-1001.3
3317	19.567	0.18182	0.	-959.28
3318	19.567	0.36364	0.	-955.16
3319	19.567	0.54545	0.	-953.78
3320	19.567	0.72727	0.	-952.76
3321	19.567	0.90909	0.	-951.93
3322	19.567	1.0909	0.	-951.27
3323	19.567	1.2727	0.	-950.75
3324	19.567	1.4545	0.	-950.34
3325	19.567	1.6364	0.	-950.03
3326	19.567	1.8182	0.	-949.79
3327	19.567	2.	0.	-949.62
3328	19.567	2.1818	0.	-949.5
3329	19.567	2.3636	0.	-949.42
3330	19.567	2.5455	0.	-949.37
3331	19.567	2.7273	0.	-949.34
3332	19.567	2.9091	0.	-949.32
3333	19.567	3.0909	0.	-949.32
3334	19.567	3.2727	0.	-949.34
3335	19.567	3.4545	0.	-949.37
3336	19.567	3.6364	0.	-949.42
3337	19.567	3.8182	0.	-949.5
3338	19.567	4.	0.	-949.62
3339	19.567	4.1818	0.	-949.79
3340	19.567	4.3636	0.	-950.03
3341	19.567	4.5455	0.	-950.34
3342	19.567	4.7273	0.	-950.75
3343	19.567	4.9091	0.	-951.27
3344	19.567	5.0909	0.	-951.93
3345	19.567	5.2727	0.	-952.76
3346	19.567	5.4545	0.	-953.78
3347	19.567	5.6364	0.	-955.16
3348	19.567	5.8182	0.	-959.28
3349	19.752	0.18182	0.	-917.46
3350	19.752	0.36364	0.	-913.32
3351	19.752	0.54545	0.	-911.96
3352	19.752	0.72727	0.	-910.98
3353	19.752	0.90909	0.	-910.2
3354	19.752	1.0909	0.	-909.59
3355	19.752	1.2727	0.	-909.11
3356	19.752	1.4545	0.	-908.75
3357	19.752	1.6364	0.	-908.49
3358	19.752	1.8182	0.	-908.31
3359	19.752	2.	0.	-908.18
3360	19.752	2.1818	0.	-908.1
3361	19.752	2.3636	0.	-908.05
3362	19.752	2.5455	0.	-908.02
3363	19.752	2.7273	0.	-908.
3364	19.752	2.9091	0.	-908.
3365	19.752	3.0909	0.	-908.
3366	19.752	3.2727	0.	-908.
3367	19.752	3.4545	0.	-908.02
3368	19.752	3.6364	0.	-908.05
3369	19.752	3.8182	0.	-908.1
3370	19.752	4.	0.	-908.18
3371	19.752	4.1818	0.	-908.31
3372	19.752	4.3636	0.	-908.49
3373	19.752	4.5455	0.	-908.75
3374	19.752	4.7273	0.	-909.11
3375	19.752	4.9091	0.	-909.59
3376	19.752	5.0909	0.	-910.2
3377	19.752	5.2727	0.	-910.98
3378	19.752	5.4545	0.	-911.96
3379	19.752	5.6364	0.	-913.32
3380	19.752	5.8182	0.	-917.46
3381	19.936	0.18182	0.	-875.8
3382	19.936	0.36364	0.	-871.65
3383	19.936	0.54545	0.	-870.32
3384	19.936	0.72727	0.	-869.38
3385	19.936	0.90909	0.	-868.64
3386	19.936	1.0909	0.	-868.08
3387	19.936	1.2727	0.	-867.66
3388	19.936	1.4545	0.	-867.37
3389	19.936	1.6364	0.	-867.16
3390	19.936	1.8182	0.	-867.03
3391	19.936	2.	0.	-866.95
3392	19.936	2.1818	0.	-866.91
3393	19.936	2.3636	0.	-866.89
3394	19.936	2.5455	0.	-866.88
3395	19.936	2.7273	0.	-866.89
3396	19.936	2.9091	0.	-866.89
3397	19.936	3.0909	0.	-866.89
3398	19.936	3.2727	0.	-866.89
3399	19.936	3.4545	0.	-866.88
3400	19.936	3.6364	0.	-866.89
3401	19.936	3.8182	0.	-866.91
3402	19.936	4.	0.	-866.95
3403	19.936	4.1818	0.	-867.03
3404	19.936	4.3636	0.	-867.16
3405	19.936	4.5455	0.	-867.37
3406	19.936	4.7273	0.	-867.66
3407	19.936	4.9091	0.	-868.08
3408	19.936	5.0909	0.	-868.64
3409	19.936	5.2727	0.	-869.38
3410	19.936	5.4545	0.	-870.32
3411	19.936	5.6364	0.	-871.65
3412	19.936	5.8182	0.	-875.8
3413	20.121	0.18182	0.	-834.29
3414	20.121	0.36364	0.	-830.13
3415	20.121	0.54545	0.	-828.83
3416	20.121	0.72727	0.	-827.94
3417	20.121	0.90909	0.	-827.26
3418	20.121	1.0909	0.	-826.76
3419	20.121	1.2727	0.	-826.41
3420	20.121	1.4545	0.	-826.17
3421	20.121	1.6364	0.	-826.02
3422	20.121	1.8182	0.	-825.95
3423	20.121	2.	0.	-825.92
3424	20.121	2.1818	0.	-825.92
3425	20.121	2.3636	0.	-825.94
3426	20.121	2.5455	0.	-825.96
3427	20.121	2.7273	0.	-825.98
3428	20.121	2.9091	0.	-826.
3429	20.121	3.0909	0.	-826.
3430	20.121	3.2727	0.	-825.98
3431	20.121	3.4545	0.	-825.96
3432	20.121	3.6364	0.	-825.94
3433	20.121	3.8182	0.	-825.92
3434	20.121	4.	0.	-825.92
3435	20.121	4.1818	0.	-825.95
3436	20.121	4.3636	0.	-826.02
3437	20.121	4.5455	0.	-826.17
3438	20.121	4.7273	0.	-826.41
3439	20.121	4.9091	0.	-826.76
3440	20.121	5.0909	0.	-827.26
3441	20.121	5.2727	0.	-827.94
3442	20.121	5.4545	0.	-828.83
3443	20.121	5.6364	0.	-830.13
3444	20.121	5.8182	0.	-834.29
3445	20.306	0.18182	0.	-792.94
3446	20.306	0.36364	0.	-788.77
3447	20.306	0.54545	0.	-787.51
3448	20.306	0.72727	0.	-786.67
3449	20.306	0.90909	0.	-786.05
3450	20.306	1.0909	0.	-785.62
3451	20.306	1.2727	0.	-785.33
3452	20.306	1.4545	0.	-785.16
3453	20.306	1.6364	0.	-785.09
3454	20.306	1.8182	0.	-785.07
3455	20.306	2.	0.	-785.1
3456	20.306	2.1818	0.	-785.15
3457	20.306	2.3636	0.	-785.2
3458	20.306	2.5455	0.	-785.26
3459	20.306	2.7273	0.	-785.3
3460	20.306	2.9091	0.	-785.32
3461	20.306	3.0909	0.	-785.32
3462	20.306	3.2727	0.	-785.3
3463	20.306	3.4545	0.	-785.26
3464	20.306	3.6364	0.	-785.2
3465	20.306	3.8182	0.	-785.15
3466	20.306	4.	0.	-785.1
3467	20.306	4.1818	0.	-785.07
3468	20.306	4.3636	0.	-785.09
3469	20.306	4.5455	0.	-785.16
3470	20.306	4.7273	0.	-785.33
3471	20.306	4.9091	0.	-785.62
3472	20.306	5.0909	0.	-786.05
3473	20.306	5.2727	0.	-786.67
3474	20.306	5.4545	0.	-787.51
3475	20.306	5.6364	0.	-788.77
3476	20.306	5.8182	0.	-792.94
3477	20.491	0.18182	0.	-751.73
3478	20.491	0.36364	0.	-747.56
3479	20.491	0.54545	0.	-746.34
3480	20.491	0.72727	0.	-745.56
3481	20.491	0.90909	0.	-745.01
3482	20.491	1.0909	0.	-744.65
3483	20.491	1.2727	0.	-744.44
3484	20.491	1.4545	0.	-744.35
3485	20.491	1.6364	0.	-744.34
3486	20.491	1.8182	0.	-744.39
3487	20.491	2.	0.	-744.48
3488	20.491	2.1818	0.	-744.58
3489	20.491	2.3636	0.	-744.68
3490	20.491	2.5455	0.	-744.76
3491	20.491	2.7273	0.	-744.82
3492	20.491	2.9091	0.	-744.86
3493	20.491	3.0909	0.	-744.86
3494	20.491	3.2727	0.	-744.82
3495	20.491	3.4545	0.	-744.76
3496	20.491	3.6364	0.	-744.68
3497	20.491	3.8182	0.	-744.58
3498	20.491	4.	0.	-744.48
3499	20.491	4.1818	0.	-744.39
3500	20.491	4.3636	0.	-744.34
3501	20.491	4.5455	0.	-744.35
3502	20.491	4.7273	0.	-744.44
3503	20.491	4.9091	0.	-744.65
3504	20.491	5.0909	0.	-745.01
3505	20.491	5.2727	0.	-745.56
3506	20.491	5.4545	0.	-746.34
3507	20.491	5.6364	0.	-747.56
3508	20.491	5.8182	0.	-751.73
3509	20.675	0.18182	0.	-710.66
3510	20.675	0.36364	0.	-706.51
3511	20.675	0.54545	0.	-705.33
3512	20.675	0.72727	0.	-704.61
3513	20.675	0.90909	0.	-704.14
3514	20.675	1.0909	0.	-703.86
3515	20.675	1.2727	0.	-703.74
3516	20.675	1.4545	0.	-703.73
3517	20.675	1.6364	0.	-703.8
3518	20.675	1.8182	0.	-703.92
3519	20.675	2.	0.	-704.06
3520	20.675	2.1818	0.	-704.22
3521	20.675	2.3636	0.	-704.36
3522	20.675	2.5455	0.	-704.48
3523	20.675	2.7273	0.	-704.56
3524	20.675	2.9091	0.	-704.6
3525	20.675	3.0909	0.	-704.6
3526	20.675	3.2727	0.	-704.56
3527	20.675	3.4545	0.	-704.48
3528	20.675	3.6364	0.	-704.36
3529	20.675	3.8182	0.	-704.22
3530	20.675	4.	0.	-704.06
3531	20.675	4.1818	0.	-703.92
3532	20.675	4.3636	0.	-703.8
3533	20.675	4.5455	0.	-703.73
3534	20.675	4.7273	0.	-703.74
3535	20.675	4.9091	0.	-703.86
3536	20.675	5.0909	0.	-704.14
3537	20.675	5.2727	0.	-704.61
3538	20.675	5.4545	0.	-705.33
3539	20.675	5.6364	0.	-706.51
3540	20.675	5.8182	0.	-710.66
3541	20.86	0.18182	0.	-669.74
3542	20.86	0.36364	0.	-665.59
3543	20.86	0.54545	0.	-664.47
3544	20.86	0.72727	0.	-663.83
3545	20.86	0.90909	0.	-663.44
3546	20.86	1.0909	0.	-663.25
3547	20.86	1.2727	0.	-663.21
3548	20.86	1.4545	0.	-663.29
3549	20.86	1.6364	0.	-663.44
3550	20.86	1.8182	0.	-663.64
3551	20.86	2.	0.	-663.85
3552	20.86	2.1818	0.	-664.06
3553	20.86	2.3636	0.	-664.24
3554	20.86	2.5455	0.	-664.4
3555	20.86	2.7273	0.	-664.5
3556	20.86	2.9091	0.	-664.55
3557	20.86	3.0909	0.	-664.55
3558	20.86	3.2727	0.	-664.5
3559	20.86	3.4545	0.	-664.4
3560	20.86	3.6364	0.	-664.24
3561	20.86	3.8182	0.	-664.06
3562	20.86	4.	0.	-663.85
3563	20.86	4.1818	0.	-663.64
3564	20.86	4.3636	0.	-663.44
3565	20.86	4.5455	0.	-663.29
3566	20.86	4.7273	0.	-663.21
3567	20.86	4.9091	0.	-663.25
3568	20.86	5.0909	0.	-663.44
3569	20.86	5.2727	0.	-663.83
3570	20.86	5.4545	0.	-664.47
3571	20.86	5.6364	0.	-665.59
3572	20.86	5.8182	0.	-669.74
3573	21.045	0.18182	0.	-628.94
3574	21.045	0.36364	0.	-624.82
3575	21.045	0.54545	0.	-623.76
3576	21.045	0.72727	0.	-623.2
3577	21.045	0.90909	0.	-622.9
3578	21.045	1.0909	0.	-622.81
3579	21.045	1.2727	0.	-622.87
3580	21.045	1.4545	0.	-623.05
3581	21.045	1.6364	0.	-623.29
3582	21.045	1.8182	0.	-623.56
3583	21.045	2.	0.	-623.84
3584	21.045	2.1818	0.	-624.1
3585	21.045	2.3636	0.	-624.33
3586	21.045	2.5455	0.	-624.52
3587	21.045	2.7273	0.	-624.64
3588	21.045	2.9091	0.	-624.71
3589	21.045	3.0909	0.	-624.71
3590	21.045	3.2727	0.	-624.64
3591	21.045	3.4545	0.	-624.52
3592	21.045	3.6364	0.	-624.33
3593	21.045	3.8182	0.	-624.1
3594	21.045	4.	0.	-623.84
3595	21.045	4.1818	0.	-623.56
3596	21.045	4.3636	0.	-623.29
3597	21.045	4.5455	0.	-623.05
3598	21.045	4.7273	0.	-622.87
3599	21.045	4.9091	0.	-622.81
3600	21.045	5.0909	0.	-622.9
3601	21.045	5.2727	0.	-623.2
3602	21.045	5.4545	0.	-623.76
3603	21.045	5.6364	0.	-624.82
3604	21.045	5.8182	0.	-628.94
3605	21.229	0.18182	0.	-588.28
3606	21.229	0.36364	0.	-584.19
3607	21.229	0.54545	0.	-583.2
3608	21.229	0.72727	0.	-582.73
3609	21.229	0.90909	0.	-582.53
3610	21.229	1.0909	0.	-582.55
3611	21.229	1.2727	0.	-582.72
3612	21.229	1.4545	0.	-582.99
3613	21.229	1.6364	0.	-583.32
3614	21.229	1.8182	0.	-583.67
3615	21.229	2.	0.	-584.02
3616	21.229	2.1818	0.	-584.34
3617	21.229	2.3636	0.	-584.62
3618	21.229	2.5455	0.	-584.83
3619	21.229	2.7273	0.	-584.98
3620	21.229	2.9091	0.	-585.06
3621	21.229	3.0909	0.	-585.06
3622	21.229	3.2727	0.	-584.98
3623	21.229	3.4545	0.	-584.83
3624	21.229	3.6364	0.	-584.62
3625	21.229	3.8182	0.	-584.34
3626	21.229	4.	0.	-584.02
3627	21.229	4.1818	0.	-583.67
3628	21.229	4.3636	0.	-583.32
3629	21.229	4.5455	0.	-582.99
3630	21.229	4.7273	0.	-582.72
3631	21.229	4.9091	0.	-582.55
3632	21.229	5.0909	0.	-582.53
3633	21.229	5.2727	0.	-582.73
3634	21.229	5.4545	0.	-583.2
3635	21.229	5.6364	0.	-584.19
3636	21.229	5.8182	0.	-588.28
3637	21.414	0.18182	0.	-547.74
3638	21.414	0.36364	0.	-543.7
3639	21.414	0.54545	0.	-542.79
3640	21.414	0.72727	0.	-542.41
3641	21.414	0.90909	0.	-542.33
3642	21.414	1.0909	0.	-542.46
3643	21.414	1.2727	0.	-542.75
3644	21.414	1.4545	0.	-543.12
3645	21.414	1.6364	0.	-543.55
3646	21.414	1.8182	0.	-543.98
3647	21.414	2.	0.	-544.4
3648	21.414	2.1818	0.	-544.77
3649	21.414	2.3636	0.	-545.09
3650	21.414	2.5455	0.	-545.34
3651	21.414	2.7273	0.	-545.51
3652	21.414	2.9091	0.	-545.6
3653	21.414	3.0909	0.	-545.6
3654	21.414	3.2727	0.	-545.51
3655	21.414	3.4545	0.	-545.34
3656	21.414	3.6364	0.	-545.09
3657	21.414	3.8182	0.	-544.77
3658	21.414	4.	0.	-544.4
3659	21.414	4.1818	0.	-543.98
3660	21.414	4.3636	0.	-543.55
3661	21.414	4.5455	0.	-543.12
3662	21.414	4.7273	0.	-542.75
3663	21.414	4.9091	0.	-542.46
3664	21.414	5.0909	0.	-542.33
3665	21.414	5.2727	0.	-542.41
3666	21.414	5.4545	0.	-542.79
3667	21.414	5.6364	0.	-543.7
3668	21.414	5.8182	0.	-547.74
3669	21.599	0.18182	0.	-507.32
3670	21.599	0.36364	0.	-503.34
3671	21.599	0.54545	0.	-502.52
3672	21.599	0.72727	0.	-502.25
3673	21.599	0.90909	0.	-502.3
3674	21.599	1.0909	0.	-502.56
3675	21.599	1.2727	0.	-502.96
3676	21.599	1.4545	0.	-503.44
3677	21.599	1.6364	0.	-503.96
3678	21.599	1.8182	0.	-504.48
3679	21.599	2.	0.	-504.96
3680	21.599	2.1818	0.	-505.39
3681	21.599	2.3636	0.	-505.75
3682	21.599	2.5455	0.	-506.02
3683	21.599	2.7273	0.	-506.21
3684	21.599	2.9091	0.	-506.31
3685	21.599	3.0909	0.	-506.31
3686	21.599	3.2727	0.	-506.21
3687	21.599	3.4545	0.	-506.02
3688	21.599	3.6364	0.	-505.75
3689	21.599	3.8182	0.	-505.39
3690	21.599	4.	0.	-504.96
3691	21.599	4.1818	0.	-504.48
3692	21.599	4.3636	0.	-503.96
3693	21.599	4.5455	0.	-503.44
3694	21.599	4.7273	0.	-502.96
3695	21.599	4.9091	0.	-502.56
3696	21.599	5.0909	0.	-502.3
3697	21.599	5.2727	0.	-502.25
3698	21.599	5.4545	0.	-502.52
3699	21.599	5.6364	0.	-503.34
3700	21.599	5.8182	0.	-507.32
3701	21.783	0.18182	0.	-467.02
3702	21.783	0.36364	0.	-463.11
3703	21.783	0.54545	0.	-462.4
3704	21.783	0.72727	0.	-462.26
3705	21.783	0.90909	0.	-462.44
3706	21.783	1.0909	0.	-462.83
3707	21.783	1.2727	0.	-463.36
3708	21.783	1.4545	0.	-463.95
3709	21.783	1.6364	0.	-464.57
3710	21.783	1.8182	0.	-465.16
3711	21.783	2.	0.	-465.7
3712	21.783	2.1818	0.	-466.18
3713	21.783	2.3636	0.	-466.57
3714	21.783	2.5455	0.	-466.87
3715	21.783	2.7273	0.	-467.08
3716	21.783	2.9091	0.	-467.18
3717	21.783	3.0909	0.	-467.18
3718	21.783	3.2727	0.	-467.08
3719	21.783	3.4545	0.	-466.87
3720	21.783	3.6364	0.	-466.57
3721	21.783	3.8182	0.	-466.18
3722	21.783	4.	0.	-465.7
3723	21.783	4.1818	0.	-465.16
3724	21.783	4.3636	0.	-464.57
3725	21.783	4.5455	0.	-463.95
3726	21.783	4.7273	0.	-463.36
3727	21.783	4.9091	0.	-462.83
3728	21.783	5.0909	0.	-462.44
3729	21.783	5.2727	0.	-462.26
3730	21.783	5.4545	0.	-462.4
3731	21.783	5.6364	0.	-463.11
3732	21.783	5.8182	0.	-467.02
3733	21.968	0.18182	0.	-426.84
3734	21.968	0.36364	0.	-423.03
3735	21.968	0.54545	0.	-422.43
3736	21.968	0.72727	0.	-422.44
3737	21.968	0.90909	0.	-422.77
3738	21.968	1.0909	0.	-423.3
3739	21.968	1.2727	0.	-423.95
3740	21.968	1.4545	0.	-424.66
3741	21.968	1.6364	0.	-425.36
3742	21.968	1.8182	0.	-426.02
3743	21.968	2.	0.	-426.62
3744	21.968	2.1818	0.	-427.13
3745	21.968	2.3636	0.	-427.55
3746	21.968	2.5455	0.	-427.87
3747	21.968	2.7273	0.	-428.09
3748	21.968	2.9091	0.	-428.2
3749	21.968	3.0909	0.	-428.2
3750	21.968	3.2727	0.	-428.09
3751	21.968	3.4545	0.	-427.87
3752	21.968	3.6364	0.	-427.55
3753	21.968	3.8182	0.	-427.13
3754	21.968	4.	0.	-426.61
3755	21.968	4.1818	0.	-426.02
3756	21.968	4.3636	0.	-425.36
3757	21.968	4.5455	0.	-424.66
3758	21.968	4.7273	0.	-423.95
3759	21.968	4.9091	0.	-423.3
3760	21.968	5.0909	0.	-422.77
3761	21.968	5.2727	0.	-422.44
3762	21.968	5.4545	0.	-422.43
3763	21.968	5.6364	0.	-423.03
3764	21.968	5.8182	0.	-426.84
3765	22.153	0.18182	0.	-386.79
3766	22.153	0.36364	0.	-383.09
3767	22.153	0.54545	0.	-382.62
3768	22.153	0.72727	0.	-382.79
3769	22.153	0.90909	0.	-383.28
3770	22.153	1.0909	0.	-383.97
3771	22.153	1.2727	0.	-384.75
3772	22.153	1.4545	0.	-385.55
3773	22.153	1.6364	0.	-386.33
3774	22.153	1.8182	0.	-387.05
3775	22.153	2.	0.	-387.69
3776	22.153	2.1818	0.	-388.23
3777	22.153	2.3636	0.	-388.67
3778	22.153	2.5455	0.	-389.
3779	22.153	2.7273	0.	-389.22
3780	22.153	2.9091	0.	-389.33
3781	22.153	3.0909	0.	-389.33
3782	22.153	3.2727	0.	-389.22
3783	22.153	3.4545	0.	-389.
3784	22.153	3.6364	0.	-388.67
3785	22.153	3.8182	0.	-388.23
3786	22.153	4.	0.	-387.69
3787	22.153	4.1818	0.	-387.05
3788	22.153	4.3636	0.	-386.33
3789	22.153	4.5455	0.	-385.55
3790	22.153	4.7273	0.	-384.75
3791	22.153	4.9091	0.	-383.97
3792	22.153	5.0909	0.	-383.28
3793	22.153	5.2727	0.	-382.79
3794	22.153	5.4545	0.	-382.62
3795	22.153	5.6364	0.	-383.09
3796	22.153	5.8182	0.	-386.79
3797	22.338	0.18182	0.	-346.86
3798	22.338	0.36364	0.	-343.3
3799	22.338	0.54545	0.	-342.99
3800	22.338	0.72727	0.	-343.34
3801	22.338	0.90909	0.	-344.01
3802	22.338	1.0909	0.	-344.84
3803	22.338	1.2727	0.	-345.74
3804	22.338	1.4545	0.	-346.63
3805	22.338	1.6364	0.	-347.48
3806	22.338	1.8182	0.	-348.24
3807	22.338	2.	0.	-348.9
3808	22.338	2.1818	0.	-349.46
3809	22.338	2.3636	0.	-349.9
3810	22.338	2.5455	0.	-350.23
3811	22.338	2.7273	0.	-350.46
3812	22.338	2.9091	0.	-350.57
3813	22.338	3.0909	0.	-350.57
3814	22.338	3.2727	0.	-350.46
3815	22.338	3.4545	0.	-350.23
3816	22.338	3.6364	0.	-349.9
3817	22.338	3.8182	0.	-349.46
3818	22.338	4.	0.	-348.9
3819	22.338	4.1818	0.	-348.24
3820	22.338	4.3636	0.	-347.48
3821	22.338	4.5455	0.	-346.63
3822	22.338	4.7273	0.	-345.74
3823	22.338	4.9091	0.	-344.84
3824	22.338	5.0909	0.	-344.
3825	22.338	5.2727	0.	-343.34
3826	22.338	5.4545	0.	-342.99
3827	22.338	5.6364	0.	-343.3
3828	22.338	5.8182	0.	-346.86
3829	22.522	0.18182	0.	-307.05
3830	22.522	0.36364	0.	-303.69
3831	22.522	0.54545	0.	-303.56
3832	22.522	0.72727	0.	-304.11
3833	22.522	0.90909	0.	-304.96
3834	22.522	1.0909	0.	-305.94
3835	22.522	1.2727	0.	-306.94
3836	22.522	1.4545	0.	-307.91
3837	22.522	1.6364	0.	-308.79
3838	22.522	1.8182	0.	-309.57
3839	22.522	2.	0.	-310.23
3840	22.522	2.1818	0.	-310.78
3841	22.522	2.3636	0.	-311.22
3842	22.522	2.5455	0.	-311.55
3843	22.522	2.7273	0.	-311.76
3844	22.522	2.9091	0.	-311.87
3845	22.522	3.0909	0.	-311.87
3846	22.522	3.2727	0.	-311.76
3847	22.522	3.4545	0.	-311.55
3848	22.522	3.6364	0.	-311.22
3849	22.522	3.8182	0.	-310.78
3850	22.522	4.	0.	-310.23
3851	22.522	4.1818	0.	-309.57
3852	22.522	4.3636	0.	-308.79
3853	22.522	4.5455	0.	-307.91
3854	22.522	4.7273	0.	-306.94
3855	22.522	4.9091	0.	-305.94
3856	22.522	5.0909	0.	-304.96
3857	22.522	5.2727	0.	-304.11
3858	22.522	5.4545	0.	-303.56
3859	22.522	5.6364	0.	-303.69
3860	22.522	5.8182	0.	-307.05
3861	22.707	0.18182	0.	-267.4
3862	22.707	0.36364	0.	-264.27
3863	22.707	0.54545	0.	-264.36
3864	22.707	0.72727	0.	-265.13
3865	22.707	0.90909	0.	-266.16
3866	22.707	1.0909	0.	-267.27
3867	22.707	1.2727	0.	-268.36
3868	22.707	1.4545	0.	-269.36
3869	22.707	1.6364	0.	-270.25
3870	22.707	1.8182	0.	-271.01
3871	22.707	2.	0.	-271.66
3872	22.707	2.1818	0.	-272.19
3873	22.707	2.3636	0.	-272.6
3874	22.707	2.5455	0.	-272.9
3875	22.707	2.7273	0.	-273.1
3876	22.707	2.9091	0.	-273.2
3877	22.707	3.0909	0.	-273.2
3878	22.707	3.2727	0.	-273.1
3879	22.707	3.4545	0.	-272.9
3880	22.707	3.6364	0.	-272.6
3881	22.707	3.8182	0.	-272.19
3882	22.707	4.	0.	-271.66
3883	22.707	4.1818	0.	-271.01
3884	22.707	4.3636	0.	-270.25
3885	22.707	4.5455	0.	-269.36
3886	22.707	4.7273	0.	-268.36
3887	22.707	4.9091	0.	-267.27
3888	22.707	5.0909	0.	-266.16
3889	22.707	5.2727	0.	-265.13
3890	22.707	5.4545	0.	-264.36
3891	22.707	5.6364	0.	-264.27
3892	22.707	5.8182	0.	-267.4
3893	22.892	0.18182	0.	-227.91
3894	22.892	0.36364	0.	-225.08
3895	22.892	0.54545	0.	-225.44
3896	22.892	0.72727	0.	-226.45
3897	22.892	0.90909	0.	-227.65
3898	22.892	1.0909	0.	-228.86
3899	22.892	1.2727	0.	-229.98
3900	22.892	1.4545	0.	-230.97
3901	22.892	1.6364	0.	-231.83
3902	22.892	1.8182	0.	-232.55
3903	22.892	2.	0.	-233.14
3904	22.892	2.1818	0.	-233.62
3905	22.892	2.3636	0.	-233.99
3906	22.892	2.5455	0.	-234.26
3907	22.892	2.7273	0.	-234.44
3908	22.892	2.9091	0.	-234.52
3909	22.892	3.0909	0.	-234.52
3910	22.892	3.2727	0.	-234.44
3911	22.892	3.4545	0.	-234.26
3912	22.892	3.6364	0.	-233.99
3913	22.892	3.8182	0.	-233.62
3914	22.892	4.	0.	-233.14
3915	22.892	4.1818	0.	-232.55
3916	22.892	4.3636	0.	-231.83
3917	22.892	4.5455	0.	-230.97
3918	22.892	4.7273	0.	-229.98
3919	22.892	4.9091	0.	-228.86
3920	22.892	5.0909	0.	-227.65
3921	22.892	5.2727	0.	-226.45
3922	22.892	5.4545	0.	-225.44
3923	22.892	5.6364	0.	-225.08
3924	22.892	5.8182	0.	-227.91
3925	23.076	0.18182	0.	-188.63
3926	23.076	0.36364	0.	-186.2
3927	23.076	0.54545	0.	-186.88
3928	23.076	0.72727	0.	-188.13
3929	23.076	0.90909	0.	-189.46
3930	23.076	1.0909	0.	-190.7
3931	23.076	1.2727	0.	-191.79
3932	23.076	1.4545	0.	-192.72
3933	23.076	1.6364	0.	-193.5
3934	23.076	1.8182	0.	-194.13
3935	23.076	2.	0.	-194.65
3936	23.076	2.1818	0.	-195.05
3937	23.076	2.3636	0.	-195.36
3938	23.076	2.5455	0.	-195.58
3939	23.076	2.7273	0.	-195.73
3940	23.076	2.9091	0.	-195.8
3941	23.076	3.0909	0.	-195.8
3942	23.076	3.2727	0.	-195.73
3943	23.076	3.4545	0.	-195.58
3944	23.076	3.6364	0.	-195.36
3945	23.076	3.8182	0.	-195.05
3946	23.076	4.	0.	-194.65
3947	23.076	4.1818	0.	-194.13
3948	23.076	4.3636	0.	-193.5
3949	23.076	4.5455	0.	-192.72
3950	23.076	4.7273	0.	-191.79
3951	23.076	4.9091	0.	-190.7
3952	23.076	5.0909	0.	-189.46
3953	23.076	5.2727	0.	-188.13
3954	23.076	5.4545	0.	-186.88
3955	23.076	5.6364	0.	-186.2
3956	23.076	5.8182	0.	-188.63
3957	23.261	0.18182	0.	-149.61
3958	23.261	0.36364	0.	-147.74
3959	23.261	0.54545	0.	-148.79
3960	23.261	0.72727	0.	-150.24
3961	23.261	0.90909	0.	-151.61
3962	23.261	1.0909	0.	-152.79
3963	23.261	1.2727	0.	-153.76
3964	23.261	1.4545	0.	-154.56
3965	23.261	1.6364	0.	-155.2
3966	23.261	1.8182	0.	-155.71
3967	23.261	2.	0.	-156.11
3968	23.261	2.1818	0.	-156.42
3969	23.261	2.3636	0.	-156.66
3970	23.261	2.5455	0.	-156.83
3971	23.261	2.7273	0.	-156.94
3972	23.261	2.9091	0.	-156.99
3973	23.261	3.0909	0.	-156.99
3974	23.261	3.2727	0.	-156.94
3975	23.261	3.4545	0.	-156.83
3976	23.261	3.6364	0.	-156.66
3977	23.261	3.8182	0.	-156.42
3978	23.261	4.	0.	-156.11
3979	23.261	4.1818	0.	-155.71
3980	23.261	4.3636	0.	-155.2
3981	23.261	4.5455	0.	-154.56
3982	23.261	4.7273	0.	-153.76
3983	23.261	4.9091	0.	-152.79
3984	23.261	5.0909	0.	-151.61
3985	23.261	5.2727	0.	-150.24
3986	23.261	5.4545	0.	-148.79
3987	23.261	5.6364	0.	-147.74
3988	23.261	5.8182	0.	-149.61
3989	23.446	0.18182	0.	-110.98
3990	23.446	0.36364	0.	-109.91
3991	23.446	0.54545	0.	-111.33
3992	23.446	0.72727	0.	-112.84
3993	23.446	0.90909	0.	-114.08
3994	23.446	1.0909	0.	-115.06
3995	23.446	1.2727	0.	-115.82
3996	23.446	1.4545	0.	-116.41
3997	23.446	1.6364	0.	-116.87
3998	23.446	1.8182	0.	-117.22
3999	23.446	2.	0.	-117.49
4000	23.446	2.1818	0.	-117.69
4001	23.446	2.3636	0.	-117.85
4002	23.446	2.5455	0.	-117.95
4003	23.446	2.7273	0.	-118.02
4004	23.446	2.9091	0.	-118.05
4005	23.446	3.0909	0.	-118.05
4006	23.446	3.2727	0.	-118.02
4007	23.446	3.4545	0.	-117.95
4008	23.446	3.6364	0.	-117.85
4009	23.446	3.8182	0.	-117.69
4010	23.446	4.	0.	-117.49
4011	23.446	4.1818	0.	-117.22
4012	23.446	4.3636	0.	-116.87
4013	23.446	4.5455	0.	-116.41
4014	23.446	4.7273	0.	-115.82
4015	23.446	4.9091	0.	-115.06
4016	23.446	5.0909	0.	-114.08
4017	23.446	5.2727	0.	-112.84
4018	23.446	5.4545	0.	-111.33
4019	23.446	5.6364	0.	-109.91
4020	23.446	5.8182	0.	-110.98
4021	23.631	0.18182	0.	-73.008
4022	23.631	0.36364	0.	-73.097
4023	23.631	0.54545	0.	-74.65
4024	23.631	0.72727	0.	-75.9
4025	23.631	0.90909	0.	-76.785
4026	23.631	1.0909	0.	-77.414
4027	23.631	1.2727	0.	-77.862
4028	23.631	1.4545	0.	-78.186
4029	23.631	1.6364	0.	-78.42
4030	23.631	1.8182	0.	-78.591
4031	23.631	2.	0.	-78.715
4032	23.631	2.1818	0.	-78.804
4033	23.631	2.3636	0.	-78.867
4034	23.631	2.5455	0.	-78.91
4035	23.631	2.7273	0.	-78.937
4036	23.631	2.9091	0.	-78.949
4037	23.631	3.0909	0.	-78.949
4038	23.631	3.2727	0.	-78.937
4039	23.631	3.4545	0.	-78.91
4040	23.631	3.6364	0.	-78.867
4041	23.631	3.8182	0.	-78.804
4042	23.631	4.	0.	-78.715
4043	23.631	4.1818	0.	-78.591
4044	23.631	4.3636	0.	-78.42
4045	23.631	4.5455	0.	-78.186
4046	23.631	4.7273	0.	-77.862
4047	23.631	4.9091	0.	-77.414
4048	23.631	5.0909	0.	-76.785
4049	23.631	5.2727	0.	-75.9
4050	23.631	5.4545	0.	-74.65
4051	23.631	5.6364	0.	-73.097
4052	23.631	5.8182	0.	-73.008
4053	23.815	0.18182	0.	-37.141
4054	23.815	0.36364	0.	-38.16
4055	23.815	0.54545	0.	-39.021
4056	23.815	0.72727	0.	-39.542
4057	23.815	0.90909	0.	-39.814
4058	23.815	1.0909	0.	-39.952
4059	23.815	1.2727	0.	-40.012
4060	23.815	1.4545	0.	-40.025
4061	23.815	1.6364	0.	-40.011
4062	23.815	1.8182	0.	-39.983
4063	23.815	2.	0.	-39.95
4064	23.815	2.1818	0.	-39.915
4065	23.815	2.3636	0.	-39.885
4066	23.815	2.5455	0.	-39.86
4067	23.815	2.7273	0.	-39.842
4068	23.815	2.9091	0.	-39.833
4069	23.815	3.0909	0.	-39.833
4070	23.815	3.2727	0.	-39.842
4071	23.815	3.4545	0.	-39.86
4072	23.815	3.6364	0.	-39.885
4073	23.815	3.8182	0.	-39.915
4074	23.815	4.	0.	-39.95
4075	23.815	4.1818	0.	-39.983
4076	23.815	4.3636	0.	-40.011
4077	23.815	4.5455	0.	-40.025
4078	23.815	4.7273	0.	-40.012
4079	23.815	4.9091	0.	-39.952
4080	23.815	5.0909	0.	-39.814
4081	23.815	5.2727	0.	-39.542
4082	23.815	5.4545	0.	-39.021
4083	23.815	5.6364	0.	-38.16
4084	23.815	5.8182	0.	-37.141
4085	23.815	5.8182	0.1	-34.171
4086	23.815	5.6364	0.1	-57.41
4087	23.815	5.4545	0.1	-77.567
4088	23.815	5.2727	0.1	-94.625
4089	23.815	5.0909	0.1	-109.29
4090	23.815	4.9091	0.1	-121.99
4091	23.815	4.7273	0.1	-133.01
4092	23.815	4.5455	0.1	-142.55
4093	23.815	4.3636	0.1	-150.78
4094	23.815	4.1818	0.1	-157.79
4095	23.815	4.	0.1	-163.68
4096	23.815	3.8182	0.1	-168.5
4097	23.815	3.6364	0.1	-172.3
4098	23.815	3.4545	0.1	-175.13
4099	23.815	3.2727	0.1	-177.
4100	23.815	3.0909	0.1	-177.93
4101	23.815	2.9091	0.1	-177.93
4102	23.815	2.7273	0.1	-177.
4103	23.815	2.5455	0.1	-175.13
4104	23.815	2.3636	0.1	-172.3
4105	23.815	2.1818	0.1	-168.5
4106	23.815	2.	0.1	-163.68
4107	23.815	1.8182	0.1	-157.79
4108	23.815	1.6364	0.1	-150.78
4109	23.815	1.4545	0.1	-142.55
4110	23.815	1.2727	0.1	-133.01
4111	23.815	1.0909	0.1	-121.99
4112	23.815	0.90909	0.1	-109.29
4113	23.815	0.72727	0.1	-94.625
4114	23.815	0.54545	0.1	-77.567
4115	23.815	0.36364	0.1	-57.41
4116	23.815	0.18182	0.1	-34.171
4117	23.631	5.8182	0.1	-33.212
4118	23.631	5.6364	0.1	-50.949
4119	23.631	5.4545	0.1	-69.123
4120	23.631	5.2727	0.1	-85.308
4121	23.631	5.0909	0.1	-99.529
4122	23.631	4.9091	0.1	-111.98
4123	23.631	4.7273	0.1	-122.85
4124	23.631	4.5455	0.1	-132.3
4125	23.631	4.3636	0.1	-140.47
4126	23.631	4.1818	0.1	-147.44
4127	23.631	4.	0.1	-153.3
4128	23.631	3.8182	0.1	-158.1
4129	23.631	3.6364	0.1	-161.9
4130	23.631	3.4545	0.1	-164.72
4131	23.631	3.2727	0.1	-166.58
4132	23.631	3.0909	0.1	-167.51
4133	23.631	2.9091	0.1	-167.51
4134	23.631	2.7273	0.1	-166.58
4135	23.631	2.5455	0.1	-164.72
4136	23.631	2.3636	0.1	-161.9
4137	23.631	2.1818	0.1	-158.1
4138	23.631	2.	0.1	-153.3
4139	23.631	1.8182	0.1	-147.44
4140	23.631	1.6364	0.1	-140.47
4141	23.631	1.4545	0.1	-132.3
4142	23.631	1.2727	0.1	-122.85
4143	23.631	1.0909	0.1	-111.98
4144	23.631	0.90909	0.1	-99.529
4145	23.631	0.72727	0.1	-85.308
4146	23.631	0.54545	0.1	-69.123
4147	23.631	0.36364	0.1	-50.949
4148	23.631	0.18182	0.1	-33.212
4149	23.446	5.8182	0.1	-33.555
4150	23.446	5.6364	0.1	-47.168
4151	23.446	5.4545	0.1	-62.872
4152	23.446	5.2727	0.1	-77.649
4153	23.446	5.0909	0.1	-91.032
4154	23.446	4.9091	0.1	-102.95
4155	23.446	4.7273	0.1	-113.48
4156	23.446	4.5455	0.1	-122.69
4157	23.446	4.3636	0.1	-130.69
4158	23.446	4.1818	0.1	-137.54
4159	23.446	4.	0.1	-143.31
4160	23.446	3.8182	0.1	-148.05
4161	23.446	3.6364	0.1	-151.79
4162	23.446	3.4545	0.1	-154.58
4163	23.446	3.2727	0.1	-156.42
4164	23.446	3.0909	0.1	-157.34
4165	23.446	2.9091	0.1	-157.34
4166	23.446	2.7273	0.1	-156.42
4167	23.446	2.5455	0.1	-154.58
4168	23.446	2.3636	0.1	-151.79
4169	23.446	2.1818	0.1	-148.05
4170	23.446	2.	0.1	-143.31
4171	23.446	1.8182	0.1	-137.54
4172	23.446	1.6364	0.1	-130.69
4173	23.446	1.4545	0.1	-122.69
4174	23.446	1.2727	0.1	-113.48
4175	23.446	1.0909	0.1	-102.95
4176	23.446	0.90909	0.1	-91.032
4177	23.446	0.72727	0.1	-77.649
4178	23.446	0.54545	0.1	-62.872
4179	23.446	0.36364	0.1	-47.168
4180	23.446	0.18182	0.1	-33.555
4181	23.261	5.8182	0.1	-33.904
4182	23.261	5.6364	0.1	-44.705
4183	23.261	5.4545	0.1	-58.209
4184	23.261	5.2727	0.1	-71.441
4185	23.261	5.0909	0.1	-83.779
4186	23.261	4.9091	0.1	-94.993
4187	23.261	4.7273	0.1	-105.03
4188	23.261	4.5455	0.1	-113.89
4189	23.261	4.3636	0.1	-121.63
4190	23.261	4.1818	0.1	-128.3
4191	23.261	4.	0.1	-133.93
4192	23.261	3.8182	0.1	-138.56
4193	23.261	3.6364	0.1	-142.23
4194	23.261	3.4545	0.1	-144.96
4195	23.261	3.2727	0.1	-146.77
4196	23.261	3.0909	0.1	-147.67
4197	23.261	2.9091	0.1	-147.67
4198	23.261	2.7273	0.1	-146.77
4199	23.261	2.5455	0.1	-144.96
4200	23.261	2.3636	0.1	-142.23
4201	23.261	2.1818	0.1	-138.56
4202	23.261	2.	0.1	-133.93
4203	23.261	1.8182	0.1	-128.3
4204	23.261	1.6364	0.1	-121.63
4205	23.261	1.4545	0.1	-113.89
4206	23.261	1.2727	0.1	-105.03
4207	23.261	1.0909	0.1	-94.993
4208	23.261	0.90909	0.1	-83.779
4209	23.261	0.72727	0.1	-71.441
4210	23.261	0.54545	0.1	-58.209
4211	23.261	0.36364	0.1	-44.705
4212	23.261	0.18182	0.1	-33.904
4213	23.076	5.8182	0.1	-34.113
4214	23.076	5.6364	0.1	-42.857
4215	23.076	5.4545	0.1	-54.545
4216	23.076	5.2727	0.1	-66.311
4217	23.076	5.0909	0.1	-77.546
4218	23.076	4.9091	0.1	-87.949
4219	23.076	4.7273	0.1	-97.388
4220	23.076	4.5455	0.1	-105.82
4221	23.076	4.3636	0.1	-113.23
4222	23.076	4.1818	0.1	-119.65
4223	23.076	4.	0.1	-125.1
4224	23.076	3.8182	0.1	-129.59
4225	23.076	3.6364	0.1	-133.16
4226	23.076	3.4545	0.1	-135.82
4227	23.076	3.2727	0.1	-137.58
4228	23.076	3.0909	0.1	-138.46
4229	23.076	2.9091	0.1	-138.46
4230	23.076	2.7273	0.1	-137.58
4231	23.076	2.5455	0.1	-135.82
4232	23.076	2.3636	0.1	-133.16
4233	23.076	2.1818	0.1	-129.59
4234	23.076	2.	0.1	-125.1
4235	23.076	1.8182	0.1	-119.65
4236	23.076	1.6364	0.1	-113.23
4237	23.076	1.4545	0.1	-105.82
4238	23.076	1.2727	0.1	-97.388
4239	23.076	1.0909	0.1	-87.949
4240	23.076	0.90909	0.1	-77.546
4241	23.076	0.72727	0.1	-66.311
4242	23.076	0.54545	0.1	-54.545
4243	23.076	0.36364	0.1	-42.857
4244	23.076	0.18182	0.1	-34.113
4245	22.892	5.8182	0.1	-34.182
4246	22.892	5.6364	0.1	-41.344
4247	22.892	5.4545	0.1	-51.548
4248	22.892	5.2727	0.1	-62.004
4249	22.892	5.0909	0.1	-72.165
4250	22.892	4.9091	0.1	-81.726
4251	22.892	4.7273	0.1	-90.517
4252	22.892	4.5455	0.1	-98.448
4253	22.892	4.3636	0.1	-105.48
4254	22.892	4.1818	0.1	-111.61
4255	22.892	4.	0.1	-116.83
4256	22.892	3.8182	0.1	-121.15
4257	22.892	3.6364	0.1	-124.6
4258	22.892	3.4545	0.1	-127.17
4259	22.892	3.2727	0.1	-128.88
4260	22.892	3.0909	0.1	-129.73
4261	22.892	2.9091	0.1	-129.73
4262	22.892	2.7273	0.1	-128.88
4263	22.892	2.5455	0.1	-127.17
4264	22.892	2.3636	0.1	-124.6
4265	22.892	2.1818	0.1	-121.15
4266	22.892	2.	0.1	-116.83
4267	22.892	1.8182	0.1	-111.61
4268	22.892	1.6364	0.1	-105.48
4269	22.892	1.4545	0.1	-98.448
4270	22.892	1.2727	0.1	-90.517
4271	22.892	1.0909	0.1	-81.726
4272	22.892	0.90909	0.1	-72.165
4273	22.892	0.72727	0.1	-62.004
4274	22.892	0.54545	0.1	-51.548
4275	22.892	0.36364	0.1	-41.344
4276	22.892	0.18182	0.1	-34.182
4277	22.707	5.8182	0.1	-34.127
4278	22.707	5.6364	0.1	-40.025
4279	22.707	5.4545	0.1	-49.
4280	22.707	5.2727	0.1	-58.308
4281	22.707	5.0909	0.1	-67.472
4282	22.707	4.9091	0.1	-76.206
4283	22.707	4.7273	0.1	-84.329
4284	22.707	4.5455	0.1	-91.73
4285	22.707	4.3636	0.1	-98.345
4286	22.707	4.1818	0.1	-104.14
4287	22.707	4.	0.1	-109.11
4288	22.707	3.8182	0.1	-113.24
4289	22.707	3.6364	0.1	-116.53
4290	22.707	3.4545	0.1	-119.
4291	22.707	3.2727	0.1	-120.64
4292	22.707	3.0909	0.1	-121.46
4293	22.707	2.9091	0.1	-121.46
4294	22.707	2.7273	0.1	-120.64
4295	22.707	2.5455	0.1	-119.
4296	22.707	2.3636	0.1	-116.53
4297	22.707	2.1818	0.1	-113.24
4298	22.707	2.	0.1	-109.11
4299	22.707	1.8182	0.1	-104.14
4300	22.707	1.6364	0.1	-98.345
4301	22.707	1.4545	0.1	-91.73
4302	22.707	1.2727	0.1	-84.329
4303	22.707	1.0909	0.1	-76.206
4304	22.707	0.90909	0.1	-67.472
4305	22.707	0.72727	0.1	-58.308
4306	22.707	0.54545	0.1	-49.
4307	22.707	0.36364	0.1	-40.025
4308	22.707	0.18182	0.1	-34.127
4309	22.522	5.8182	0.1	-33.97
4310	22.522	5.6364	0.1	-38.829
4311	22.522	5.4545	0.1	-46.77
4312	22.522	5.2727	0.1	-55.077
4313	22.522	5.0909	0.1	-63.333
4314	22.522	4.9091	0.1	-71.282
4315	22.522	4.7273	0.1	-78.747
4316	22.522	4.5455	0.1	-85.607
4317	22.522	4.3636	0.1	-91.784
4318	22.522	4.1818	0.1	-97.23
4319	22.522	4.	0.1	-101.92
4320	22.522	3.8182	0.1	-105.83
4321	22.522	3.6364	0.1	-108.97
4322	22.522	3.4545	0.1	-111.32
4323	22.522	3.2727	0.1	-112.88
4324	22.522	3.0909	0.1	-113.67
4325	22.522	2.9091	0.1	-113.67
4326	22.522	2.7273	0.1	-112.88
4327	22.522	2.5455	0.1	-111.32
4328	22.522	2.3636	0.1	-108.97
4329	22.522	2.1818	0.1	-105.83
4330	22.522	2.	0.1	-101.92
4331	22.522	1.8182	0.1	-97.23
4332	22.522	1.6364	0.1	-91.784
4333	22.522	1.4545	0.1	-85.607
4334	22.522	1.2727	0.1	-78.747
4335	22.522	1.0909	0.1	-71.282
4336	22.522	0.90909	0.1	-63.333
4337	22.522	0.72727	0.1	-55.077
4338	22.522	0.54545	0.1	-46.77
4339	22.522	0.36364	0.1	-38.829
4340	22.522	0.18182	0.1	-33.97
4341	22.338	5.8182	0.1	-33.731
4342	22.338	5.6364	0.1	-37.715
4343	22.338	5.4545	0.1	-44.773
4344	22.338	5.2727	0.1	-52.206
4345	22.338	5.0909	0.1	-59.643
4346	22.338	4.9091	0.1	-66.861
4347	22.338	4.7273	0.1	-73.694
4348	22.338	4.5455	0.1	-80.019
4349	22.338	4.3636	0.1	-85.753
4350	22.338	4.1818	0.1	-90.838
4351	22.338	4.	0.1	-95.236
4352	22.338	3.8182	0.1	-98.922
4353	22.338	3.6364	0.1	-101.88
4354	22.338	3.4545	0.1	-104.11
4355	22.338	3.2727	0.1	-105.59
4356	22.338	3.0909	0.1	-106.34
4357	22.338	2.9091	0.1	-106.34
4358	22.338	2.7273	0.1	-105.59
4359	22.338	2.5455	0.1	-104.11
4360	22.338	2.3636	0.1	-101.88
4361	22.338	2.1818	0.1	-98.922
4362	22.338	2.	0.1	-95.235
4363	22.338	1.8182	0.1	-90.838
4364	22.338	1.6364	0.1	-85.753
4365	22.338	1.4545	0.1	-80.019
4366	22.338	1.2727	0.1	-73.694
4367	22.338	1.0909	0.1	-66.861
4368	22.338	0.90909	0.1	-59.643
4369	22.338	0.72727	0.1	-52.206
4370	22.338	0.54545	0.1	-44.773
4371	22.338	0.36364	0.1	-37.715
4372	22.338	0.18182	0.1	-33.731
4373	22.153	5.8182	0.1	-33.425
4374	22.153	5.6364	0.1	-36.661
4375	22.153	5.4545	0.1	-42.956
4376	22.153	5.2727	0.1	-49.62
4377	22.153	5.0909	0.1	-56.323
4378	22.153	4.9091	0.1	-62.867
4379	22.153	4.7273	0.1	-69.103
4380	22.153	4.5455	0.1	-74.913
4381	22.153	4.3636	0.1	-80.21
4382	22.153	4.1818	0.1	-84.931
4383	22.153	4.	0.1	-89.032
4384	22.153	3.8182	0.1	-92.482
4385	22.153	3.6364	0.1	-95.261
4386	22.153	3.4545	0.1	-97.354
4387	22.153	3.2727	0.1	-98.754
4388	22.153	3.0909	0.1	-99.455
4389	22.153	2.9091	0.1	-99.455
4390	22.153	2.7273	0.1	-98.754
4391	22.153	2.5455	0.1	-97.354
4392	22.153	2.3636	0.1	-95.261
4393	22.153	2.1818	0.1	-92.482
4394	22.153	2.	0.1	-89.032
4395	22.153	1.8182	0.1	-84.931
4396	22.153	1.6364	0.1	-80.21
4397	22.153	1.4545	0.1	-74.912
4398	22.153	1.2727	0.1	-69.103
4399	22.153	1.0909	0.1	-62.867
4400	22.153	0.90909	0.1	-56.323
4401	22.153	0.72727	0.1	-49.62
4402	22.153	0.54545	0.1	-42.956
4403	22.153	0.36364	0.1	-36.661
4404	22.153	0.18182	0.1	-33.425
4405	21.968	5.8182	0.1	-33.066
4406	21.968	5.6364	0.1	-35.654
4407	21.968	5.4545	0.1	-41.282
4408	21.968	5.2727	0.1	-47.267
4409	21.968	5.0909	0.1	-53.309
4410	21.968	4.9091	0.1	-59.238
4411	21.968	4.7273	0.1	-64.916
4412	21.968	4.5455	0.1	-70.235
4413	21.968	4.3636	0.1	-75.109
4414	21.968	4.1818	0.1	-79.474
4415	21.968	4.	0.1	-83.279
4416	21.968	3.8182	0.1	-86.492
4417	21.968	3.6364	0.1	-89.086
4418	21.968	3.4545	0.1	-91.044
4419	21.968	3.2727	0.1	-92.355
4420	21.968	3.0909	0.1	-93.013
4421	21.968	2.9091	0.1	-93.013
4422	21.968	2.7273	0.1	-92.355
4423	21.968	2.5455	0.1	-91.044
4424	21.968	2.3636	0.1	-89.086
4425	21.968	2.1818	0.1	-86.492
4426	21.968	2.	0.1	-83.279
4427	21.968	1.8182	0.1	-79.474
4428	21.968	1.6364	0.1	-75.109
4429	21.968	1.4545	0.1	-70.235
4430	21.968	1.2727	0.1	-64.916
4431	21.968	1.0909	0.1	-59.238
4432	21.968	0.90909	0.1	-53.309
4433	21.968	0.72727	0.1	-47.267
4434	21.968	0.54545	0.1	-41.282
4435	21.968	0.36364	0.1	-35.654
4436	21.968	0.18182	0.1	-33.066
4437	21.783	5.8182	0.1	-32.663
4438	21.783	5.6364	0.1	-34.687
4439	21.783	5.4545	0.1	-39.725
4440	21.783	5.2727	0.1	-45.107
4441	21.783	5.0909	0.1	-50.556
4442	21.783	4.9091	0.1	-55.923
4443	21.783	4.7273	0.1	-61.086
4444	21.783	4.5455	0.1	-65.943
4445	21.783	4.3636	0.1	-70.413
4446	21.783	4.1818	0.1	-74.431
4447	21.783	4.	0.1	-77.947
4448	21.783	3.8182	0.1	-80.925
4449	21.783	3.6364	0.1	-83.335
4450	21.783	3.4545	0.1	-85.158
4451	21.783	3.2727	0.1	-86.38
4452	21.783	3.0909	0.1	-86.993
4453	21.783	2.9091	0.1	-86.993
4454	21.783	2.7273	0.1	-86.38
4455	21.783	2.5455	0.1	-85.158
4456	21.783	2.3636	0.1	-83.335
4457	21.783	2.1818	0.1	-80.925
4458	21.783	2.	0.1	-77.947
4459	21.783	1.8182	0.1	-74.431
4460	21.783	1.6364	0.1	-70.413
4461	21.783	1.4545	0.1	-65.943
4462	21.783	1.2727	0.1	-61.086
4463	21.783	1.0909	0.1	-55.923
4464	21.783	0.90909	0.1	-50.556
4465	21.783	0.72727	0.1	-45.107
4466	21.783	0.54545	0.1	-39.725
4467	21.783	0.36364	0.1	-34.687
4468	21.783	0.18182	0.1	-32.663
4469	21.599	5.8182	0.1	-32.228
4470	21.599	5.6364	0.1	-33.754
4471	21.599	5.4545	0.1	-38.269
4472	21.599	5.2727	0.1	-43.111
4473	21.599	5.0909	0.1	-48.026
4474	21.599	4.9091	0.1	-52.882
4475	21.599	4.7273	0.1	-57.569
4476	21.599	4.5455	0.1	-61.995
4477	21.599	4.3636	0.1	-66.083
4478	21.599	4.1818	0.1	-69.771
4479	21.599	4.	0.1	-73.008
4480	21.599	3.8182	0.1	-75.756
4481	21.599	3.6364	0.1	-77.985
4482	21.599	3.4545	0.1	-79.674
4483	21.599	3.2727	0.1	-80.808
4484	21.599	3.0909	0.1	-81.378
4485	21.599	2.9091	0.1	-81.378
4486	21.599	2.7273	0.1	-80.808
4487	21.599	2.5455	0.1	-79.674
4488	21.599	2.3636	0.1	-77.985
4489	21.599	2.1818	0.1	-75.756
4490	21.599	2.	0.1	-73.008
4491	21.599	1.8182	0.1	-69.771
4492	21.599	1.6364	0.1	-66.083
4493	21.599	1.4545	0.1	-61.995
4494	21.599	1.2727	0.1	-57.569
4495	21.599	1.0909	0.1	-52.882
4496	21.599	0.90909	0.1	-48.026
4497	21.599	0.72727	0.1	-43.111
4498	21.599	0.54545	0.1	-38.269
4499	21.599	0.36364	0.1	-33.754
4500	21.599	0.18182	0.1	-32.228
4501	21.414	5.8182	0.1	-31.766
4502	21.414	5.6364	0.1	-32.853
4503	21.414	5.4545	0.1	-36.899
4504	21.414	5.2727	0.1	-41.258
4505	21.414	5.0909	0.1	-45.691
4506	21.414	4.9091	0.1	-50.081
4507	21.414	4.7273	0.1	-54.332
4508	21.414	4.5455	0.1	-58.358
4509	21.414	4.3636	0.1	-62.088
4510	21.414	4.1818	0.1	-65.462
4511	21.414	4.	0.1	-68.432
4512	21.414	3.8182	0.1	-70.959
4513	21.414	3.6364	0.1	-73.013
4514	21.414	3.4545	0.1	-74.573
4515	21.414	3.2727	0.1	-75.62
4516	21.414	3.0909	0.1	-76.147
4517	21.414	2.9091	0.1	-76.147
4518	21.414	2.7273	0.1	-75.62
4519	21.414	2.5455	0.1	-74.573
4520	21.414	2.3636	0.1	-73.013
4521	21.414	2.1818	0.1	-70.959
4522	21.414	2.	0.1	-68.432
4523	21.414	1.8182	0.1	-65.462
4524	21.414	1.6364	0.1	-62.087
4525	21.414	1.4545	0.1	-58.358
4526	21.414	1.2727	0.1	-54.332
4527	21.414	1.0909	0.1	-50.081
4528	21.414	0.90909	0.1	-45.691
4529	21.414	0.72727	0.1	-41.258
4530	21.414	0.54545	0.1	-36.899
4531	21.414	0.36364	0.1	-32.853
4532	21.414	0.18182	0.1	-31.766
4533	21.229	5.8182	0.1	-31.285
4534	21.229	5.6364	0.1	-31.981
4535	21.229	5.4545	0.1	-35.606
4536	21.229	5.2727	0.1	-39.53
4537	21.229	5.0909	0.1	-43.528
4538	21.229	4.9091	0.1	-47.494
4539	21.229	4.7273	0.1	-51.344
4540	21.229	4.5455	0.1	-55.
4541	21.229	4.3636	0.1	-58.396
4542	21.229	4.1818	0.1	-61.476
4543	21.229	4.	0.1	-64.193
4544	21.229	3.8182	0.1	-66.51
4545	21.229	3.6364	0.1	-68.397
4546	21.229	3.4545	0.1	-69.831
4547	21.229	3.2727	0.1	-70.795
4548	21.229	3.0909	0.1	-71.28
4549	21.229	2.9091	0.1	-71.28
4550	21.229	2.7273	0.1	-70.795
4551	21.229	2.5455	0.1	-69.831
4552	21.229	2.3636	0.1	-68.397
4553	21.229	2.1818	0.1	-66.51
4554	21.229	2.	0.1	-64.193
4555	21.229	1.8182	0.1	-61.476
4556	21.229	1.6364	0.1	-58.396
4557	21.229	1.4545	0.1	-55.
4558	21.229	1.2727	0.1	-51.344
4559	21.229	1.0909	0.1	-47.494
4560	21.229	0.90909	0.1	-43.527
4561	21.229	0.72727	0.1	-39.53
4562	21.229	0.54545	0.1	-35.606
4563	21.229	0.36364	0.1	-31.981
4564	21.229	0.18182	0.1	-31.285
4565	21.045	5.8182	0.1	-30.789
4566	21.045	5.6364	0.1	-31.138
4567	21.045	5.4545	0.1	-34.382
4568	21.045	5.2727	0.1	-37.914
4569	21.045	5.0909	0.1	-41.517
4570	21.045	4.9091	0.1	-45.098
4571	21.045	4.7273	0.1	-48.581
4572	21.045	4.5455	0.1	-51.896
4573	21.045	4.3636	0.1	-54.982
4574	21.045	4.1818	0.1	-57.787
4575	21.045	4.	0.1	-60.266
4576	21.045	3.8182	0.1	-62.385
4577	21.045	3.6364	0.1	-64.112
4578	21.045	3.4545	0.1	-65.426
4579	21.045	3.2727	0.1	-66.311
4580	21.045	3.0909	0.1	-66.756
4581	21.045	2.9091	0.1	-66.756
4582	21.045	2.7273	0.1	-66.311
4583	21.045	2.5455	0.1	-65.426
4584	21.045	2.3636	0.1	-64.112
4585	21.045	2.1818	0.1	-62.384
4586	21.045	2.	0.1	-60.266
4587	21.045	1.8182	0.1	-57.787
4588	21.045	1.6364	0.1	-54.982
4589	21.045	1.4545	0.1	-51.896
4590	21.045	1.2727	0.1	-48.581
4591	21.045	1.0909	0.1	-45.098
4592	21.045	0.90909	0.1	-41.516
4593	21.045	0.72727	0.1	-37.914
4594	21.045	0.54545	0.1	-34.382
4595	21.045	0.36364	0.1	-31.138
4596	21.045	0.18182	0.1	-30.789
4597	20.86	5.8182	0.1	-30.283
4598	20.86	5.6364	0.1	-30.322
4599	20.86	5.4545	0.1	-33.223
4600	20.86	5.2727	0.1	-36.398
4601	20.86	5.0909	0.1	-39.643
4602	20.86	4.9091	0.1	-42.873
4603	20.86	4.7273	0.1	-46.021
4604	20.86	4.5455	0.1	-49.022
4605	20.86	4.3636	0.1	-51.821
4606	20.86	4.1818	0.1	-54.371
4607	20.86	4.	0.1	-56.628
4608	20.86	3.8182	0.1	-58.559
4609	20.86	3.6364	0.1	-60.137
4610	20.86	3.4545	0.1	-61.338
4611	20.86	3.2727	0.1	-62.147
4612	20.86	3.0909	0.1	-62.555
4613	20.86	2.9091	0.1	-62.555
4614	20.86	2.7273	0.1	-62.147
4615	20.86	2.5455	0.1	-61.338
4616	20.86	2.3636	0.1	-60.137
4617	20.86	2.1818	0.1	-58.559
4618	20.86	2.	0.1	-56.628
4619	20.86	1.8182	0.1	-54.371
4620	20.86	1.6364	0.1	-51.821
4621	20.86	1.4545	0.1	-49.022
4622	20.86	1.2727	0.1	-46.021
4623	20.86	1.0909	0.1	-42.873
4624	20.86	0.90909	0.1	-39.643
4625	20.86	0.72727	0.1	-36.398
4626	20.86	0.54545	0.1	-33.223
4627	20.86	0.36364	0.1	-30.322
4628	20.86	0.18182	0.1	-30.283
4629	20.675	5.8182	0.1	-29.772
4630	20.675	5.6364	0.1	-29.533
4631	20.675	5.4545	0.1	-32.122
4632	20.675	5.2727	0.1	-34.974
4633	20.675	5.0909	0.1	-37.894
4634	20.675	4.9091	0.1	-40.804
4635	20.675	4.7273	0.1	-43.645
4636	20.675	4.5455	0.1	-46.358
4637	20.675	4.3636	0.1	-48.893
4638	20.675	4.1818	0.1	-51.205
4639	20.675	4.	0.1	-53.256
4640	20.675	3.8182	0.1	-55.013
4641	20.675	3.6364	0.1	-56.449
4642	20.675	3.4545	0.1	-57.544
4643	20.675	3.2727	0.1	-58.283
4644	20.675	3.0909	0.1	-58.654
4645	20.675	2.9091	0.1	-58.654
4646	20.675	2.7273	0.1	-58.283
4647	20.675	2.5455	0.1	-57.544
4648	20.675	2.3636	0.1	-56.449
4649	20.675	2.1818	0.1	-55.013
4650	20.675	2.	0.1	-53.256
4651	20.675	1.8182	0.1	-51.205
4652	20.675	1.6364	0.1	-48.893
4653	20.675	1.4545	0.1	-46.358
4654	20.675	1.2727	0.1	-43.645
4655	20.675	1.0909	0.1	-40.804
4656	20.675	0.90909	0.1	-37.893
4657	20.675	0.72727	0.1	-34.974
4658	20.675	0.54545	0.1	-32.122
4659	20.675	0.36364	0.1	-29.533
4660	20.675	0.18182	0.1	-29.772
4661	20.491	5.8182	0.1	-29.257
4662	20.491	5.6364	0.1	-28.77
4663	20.491	5.4545	0.1	-31.075
4664	20.491	5.2727	0.1	-33.634
4665	20.491	5.0909	0.1	-36.258
4666	20.491	4.9091	0.1	-38.877
4667	20.491	4.7273	0.1	-41.437
4668	20.491	4.5455	0.1	-43.886
4669	20.491	4.3636	0.1	-46.177
4670	20.491	4.1818	0.1	-48.271
4671	20.491	4.	0.1	-50.13
4672	20.491	3.8182	0.1	-51.724
4673	20.491	3.6364	0.1	-53.029
4674	20.491	3.4545	0.1	-54.025
4675	20.491	3.2727	0.1	-54.697
4676	20.491	3.0909	0.1	-55.035
4677	20.491	2.9091	0.1	-55.035
4678	20.491	2.7273	0.1	-54.697
4679	20.491	2.5455	0.1	-54.025
4680	20.491	2.3636	0.1	-53.029
4681	20.491	2.1818	0.1	-51.724
4682	20.491	2.	0.1	-50.13
4683	20.491	1.8182	0.1	-48.271
4684	20.491	1.6364	0.1	-46.177
4685	20.491	1.4545	0.1	-43.886
4686	20.491	1.2727	0.1	-41.437
4687	20.491	1.0909	0.1	-38.877
4688	20.491	0.90909	0.1	-36.257
4689	20.491	0.72727	0.1	-33.634
4690	20.491	0.54545	0.1	-31.075
4691	20.491	0.36364	0.1	-28.77
4692	20.491	0.18182	0.1	-29.257
4693	20.306	5.8182	0.1	-28.742
4694	20.306	5.6364	0.1	-28.033
4695	20.306	5.4545	0.1	-30.08
4696	20.306	5.2727	0.1	-32.372
4697	20.306	5.0909	0.1	-34.725
4698	20.306	4.9091	0.1	-37.079
4699	20.306	4.7273	0.1	-39.382
4700	20.306	4.5455	0.1	-41.589
4701	20.306	4.3636	0.1	-43.657
4702	20.306	4.1818	0.1	-45.548
4703	20.306	4.	0.1	-47.23
4704	20.306	3.8182	0.1	-48.674
4705	20.306	3.6364	0.1	-49.857
4706	20.306	3.4545	0.1	-50.76
4707	20.306	3.2727	0.1	-51.37
4708	20.306	3.0909	0.1	-51.677
4709	20.306	2.9091	0.1	-51.677
4710	20.306	2.7273	0.1	-51.37
4711	20.306	2.5455	0.1	-50.76
4712	20.306	2.3636	0.1	-49.857
4713	20.306	2.1818	0.1	-48.674
4714	20.306	2.	0.1	-47.23
4715	20.306	1.8182	0.1	-45.548
4716	20.306	1.6364	0.1	-43.657
4717	20.306	1.4545	0.1	-41.589
4718	20.306	1.2727	0.1	-39.382
4719	20.306	1.0909	0.1	-37.079
4720	20.306	0.90909	0.1	-34.725
4721	20.306	0.72727	0.1	-32.372
4722	20.306	0.54545	0.1	-30.08
4723	20.306	0.36364	0.1	-28.033
4724	20.306	0.18182	0.1	-28.742
4725	20.121	5.8182	0.1	-28.229
4726	20.121	5.6364	0.1	-27.321
4727	20.121	5.4545	0.1	-29.133
4728	20.121	5.2727	0.1	-31.181
4729	20.121	5.0909	0.1	-33.288
4730	20.121	4.9091	0.1	-35.399
4731	20.121	4.7273	0.1	-37.468
4732	20.121	4.5455	0.1	-39.453
4733	20.121	4.3636	0.1	-41.315
4734	20.121	4.1818	0.1	-43.021
4735	20.121	4.	0.1	-44.539
4736	20.121	3.8182	0.1	-45.844
4737	20.121	3.6364	0.1	-46.914
4738	20.121	3.4545	0.1	-47.732
4739	20.121	3.2727	0.1	-48.284
4740	20.121	3.0909	0.1	-48.562
4741	20.121	2.9091	0.1	-48.562
4742	20.121	2.7273	0.1	-48.284
4743	20.121	2.5455	0.1	-47.732
4744	20.121	2.3636	0.1	-46.914
4745	20.121	2.1818	0.1	-45.844
4746	20.121	2.	0.1	-44.539
4747	20.121	1.8182	0.1	-43.021
4748	20.121	1.6364	0.1	-41.315
4749	20.121	1.4545	0.1	-39.453
4750	20.121	1.2727	0.1	-37.468
4751	20.121	1.0909	0.1	-35.399
4752	20.121	0.90909	0.1	-33.288
4753	20.121	0.72727	0.1	-31.18
4754	20.121	0.54545	0.1	-29.133
4755	20.121	0.36364	0.1	-27.321
4756	20.121	0.18182	0.1	-28.229
4757	19.936	5.8182	0.1	-27.72
4758	19.936	5.6364	0.1	-26.634
4759	19.936	5.4545	0.1	-28.231
4760	19.936	5.2727	0.1	-30.056
4761	19.936	5.0909	0.1	-31.939
4762	19.936	4.9091	0.1	-33.828
4763	19.936	4.7273	0.1	-35.683
4764	19.936	4.5455	0.1	-37.465
4765	19.936	4.3636	0.1	-39.139
4766	19.936	4.1818	0.1	-40.674
4767	19.936	4.	0.1	-42.041
4768	19.936	3.8182	0.1	-43.218
4769	19.936	3.6364	0.1	-44.183
4770	19.936	3.4545	0.1	-44.921
4771	19.936	3.2727	0.1	-45.42
4772	19.936	3.0909	0.1	-45.672
4773	19.936	2.9091	0.1	-45.672
4774	19.936	2.7273	0.1	-45.42
4775	19.936	2.5455	0.1	-44.921
4776	19.936	2.3636	0.1	-44.183
4777	19.936	2.1818	0.1	-43.218
4778	19.936	2.	0.1	-42.041
4779	19.936	1.8182	0.1	-40.674
4780	19.936	1.6364	0.1	-39.139
4781	19.936	1.4545	0.1	-37.465
4782	19.936	1.2727	0.1	-35.683
4783	19.936	1.0909	0.1	-33.828
4784	19.936	0.90909	0.1	-31.939
4785	19.936	0.72727	0.1	-30.056
4786	19.936	0.54545	0.1	-28.23
4787	19.936	0.36364	0.1	-26.634
4788	19.936	0.18182	0.1	-27.72
4789	19.752	5.8182	0.1	-27.216
4790	19.752	5.6364	0.1	-25.971
4791	19.752	5.4545	0.1	-27.371
4792	19.752	5.2727	0.1	-28.993
4793	19.752	5.0909	0.1	-30.671
4794	19.752	4.9091	0.1	-32.358
4795	19.752	4.7273	0.1	-34.016
4796	19.752	4.5455	0.1	-35.612
4797	19.752	4.3636	0.1	-37.113
4798	19.752	4.1818	0.1	-38.491
4799	19.752	4.	0.1	-39.72
4800	19.752	3.8182	0.1	-40.779
4801	19.752	3.6364	0.1	-41.648
4802	19.752	3.4545	0.1	-42.313
4803	19.752	3.2727	0.1	-42.762
4804	19.752	3.0909	0.1	-42.989
4805	19.752	2.9091	0.1	-42.989
4806	19.752	2.7273	0.1	-42.762
4807	19.752	2.5455	0.1	-42.313
4808	19.752	2.3636	0.1	-41.648
4809	19.752	2.1818	0.1	-40.779
4810	19.752	2.	0.1	-39.72
4811	19.752	1.8182	0.1	-38.491
4812	19.752	1.6364	0.1	-37.113
4813	19.752	1.4545	0.1	-35.612
4814	19.752	1.2727	0.1	-34.016
4815	19.752	1.0909	0.1	-32.358
4816	19.752	0.90909	0.1	-30.671
4817	19.752	0.72727	0.1	-28.993
4818	19.752	0.54545	0.1	-27.371
4819	19.752	0.36364	0.1	-25.971
4820	19.752	0.18182	0.1	-27.216
4821	19.567	5.8182	0.1	-26.719
4822	19.567	5.6364	0.1	-25.331
4823	19.567	5.4545	0.1	-26.551
4824	19.567	5.2727	0.1	-27.987
4825	19.567	5.0909	0.1	-29.478
4826	19.567	4.9091	0.1	-30.98
4827	19.567	4.7273	0.1	-32.459
4828	19.567	4.5455	0.1	-33.884
4829	19.567	4.3636	0.1	-35.227
4830	19.567	4.1818	0.1	-36.461
4831	19.567	4.	0.1	-37.563
4832	19.567	3.8182	0.1	-38.512
4833	19.567	3.6364	0.1	-39.293
4834	19.567	3.4545	0.1	-39.89
4835	19.567	3.2727	0.1	-40.294
4836	19.567	3.0909	0.1	-40.498
4837	19.567	2.9091	0.1	-40.498
4838	19.567	2.7273	0.1	-40.294
4839	19.567	2.5455	0.1	-39.89
4840	19.567	2.3636	0.1	-39.293
4841	19.567	2.1818	0.1	-38.512
4842	19.567	2.	0.1	-37.563
4843	19.567	1.8182	0.1	-36.461
4844	19.567	1.6364	0.1	-35.227
4845	19.567	1.4545	0.1	-33.884
4846	19.567	1.2727	0.1	-32.459
4847	19.567	1.0909	0.1	-30.98
4848	19.567	0.90909	0.1	-29.478
4849	19.567	0.72727	0.1	-27.987
4850	19.567	0.54545	0.1	-26.551
4851	19.567	0.36364	0.1	-25.331
4852	19.567	0.18182	0.1	-26.719
4853	19.382	5.8182	0.1	-26.228
4854	19.382	5.6364	0.1	-24.713
4855	19.382	5.4545	0.1	-25.769
4856	19.382	5.2727	0.1	-27.035
4857	19.382	5.0909	0.1	-28.354
4858	19.382	4.9091	0.1	-29.686
4859	19.382	4.7273	0.1	-31.001
4860	19.382	4.5455	0.1	-32.27
4861	19.382	4.3636	0.1	-33.468
4862	19.382	4.1818	0.1	-34.57
4863	19.382	4.	0.1	-35.555
4864	19.382	3.8182	0.1	-36.404
4865	19.382	3.6364	0.1	-37.103
4866	19.382	3.4545	0.1	-37.638
4867	19.382	3.2727	0.1	-38.
4868	19.382	3.0909	0.1	-38.183
4869	19.382	2.9091	0.1	-38.183
4870	19.382	2.7273	0.1	-38.
4871	19.382	2.5455	0.1	-37.638
4872	19.382	2.3636	0.1	-37.103
4873	19.382	2.1818	0.1	-36.404
4874	19.382	2.	0.1	-35.555
4875	19.382	1.8182	0.1	-34.57
4876	19.382	1.6364	0.1	-33.468
4877	19.382	1.4545	0.1	-32.27
4878	19.382	1.2727	0.1	-31.001
4879	19.382	1.0909	0.1	-29.686
4880	19.382	0.90909	0.1	-28.354
4881	19.382	0.72727	0.1	-27.035
4882	19.382	0.54545	0.1	-25.769
4883	19.382	0.36364	0.1	-24.713
4884	19.382	0.18182	0.1	-26.228
4885	19.198	5.8182	0.1	-25.746
4886	19.198	5.6364	0.1	-24.117
4887	19.198	5.4545	0.1	-25.023
4888	19.198	5.2727	0.1	-26.133
4889	19.198	5.0909	0.1	-27.294
4890	19.198	4.9091	0.1	-28.471
4891	19.198	4.7273	0.1	-29.635
4892	19.198	4.5455	0.1	-30.762
4893	19.198	4.3636	0.1	-31.826
4894	19.198	4.1818	0.1	-32.807
4895	19.198	4.	0.1	-33.684
4896	19.198	3.8182	0.1	-34.442
4897	19.198	3.6364	0.1	-35.066
4898	19.198	3.4545	0.1	-35.544
4899	19.198	3.2727	0.1	-35.867
4900	19.198	3.0909	0.1	-36.03
4901	19.198	2.9091	0.1	-36.03
4902	19.198	2.7273	0.1	-35.867
4903	19.198	2.5455	0.1	-35.544
4904	19.198	2.3636	0.1	-35.066
4905	19.198	2.1818	0.1	-34.442
4906	19.198	2.	0.1	-33.684
4907	19.198	1.8182	0.1	-32.807
4908	19.198	1.6364	0.1	-31.826
4909	19.198	1.4545	0.1	-30.762
4910	19.198	1.2727	0.1	-29.635
4911	19.198	1.0909	0.1	-28.471
4912	19.198	0.90909	0.1	-27.294
4913	19.198	0.72727	0.1	-26.132
4914	19.198	0.54545	0.1	-25.023
4915	19.198	0.36364	0.1	-24.117
4916	19.198	0.18182	0.1	-25.746
4917	19.013	5.8182	0.1	-25.273
4918	19.013	5.6364	0.1	-23.542
4919	19.013	5.4545	0.1	-24.309
4920	19.013	5.2727	0.1	-25.276
4921	19.013	5.0909	0.1	-26.294
4922	19.013	4.9091	0.1	-27.328
4923	19.013	4.7273	0.1	-28.355
4924	19.013	4.5455	0.1	-29.349
4925	19.013	4.3636	0.1	-30.292
4926	19.013	4.1818	0.1	-31.161
4927	19.013	4.	0.1	-31.94
4928	19.013	3.8182	0.1	-32.613
4929	19.013	3.6364	0.1	-33.168
4930	19.013	3.4545	0.1	-33.593
4931	19.013	3.2727	0.1	-33.881
4932	19.013	3.0909	0.1	-34.026
4933	19.013	2.9091	0.1	-34.026
4934	19.013	2.7273	0.1	-33.881
4935	19.013	2.5455	0.1	-33.593
4936	19.013	2.3636	0.1	-33.168
4937	19.013	2.1818	0.1	-32.613
4938	19.013	2.	0.1	-31.94
4939	19.013	1.8182	0.1	-31.161
4940	19.013	1.6364	0.1	-30.291
4941	19.013	1.4545	0.1	-29.349
4942	19.013	1.2727	0.1	-28.354
4943	19.013	1.0909	0.1	-27.328
4944	19.013	0.90909	0.1	-26.294
4945	19.013	0.72727	0.1	-25.276
4946	19.013	0.54545	0.1	-24.309
4947	19.013	0.36364	0.1	-23.542
4948	19.013	0.18182	0.1	-25.273
4949	18.828	5.8182	0.1	-24.808
4950	18.828	5.6364	0.1	-22.988
4951	18.828	5.4545	0.1	-23.627
4952	18.828	5.2727	0.1	-24.463
4953	18.828	5.0909	0.1	-25.348
4954	18.828	4.9091	0.1	-26.252
4955	18.828	4.7273	0.1	-27.151
4956	18.828	4.5455	0.1	-28.026
4957	18.828	4.3636	0.1	-28.855
4958	18.828	4.1818	0.1	-29.623
4959	18.828	4.	0.1	-30.311
4960	18.828	3.8182	0.1	-30.907
4961	18.828	3.6364	0.1	-31.398
4962	18.828	3.4545	0.1	-31.774
4963	18.828	3.2727	0.1	-32.03
4964	18.828	3.0909	0.1	-32.159
4965	18.828	2.9091	0.1	-32.159
4966	18.828	2.7273	0.1	-32.03
4967	18.828	2.5455	0.1	-31.774
4968	18.828	2.3636	0.1	-31.398
4969	18.828	2.1818	0.1	-30.907
4970	18.828	2.	0.1	-30.311
4971	18.828	1.8182	0.1	-29.622
4972	18.828	1.6364	0.1	-28.855
4973	18.828	1.4545	0.1	-28.026
4974	18.828	1.2727	0.1	-27.151
4975	18.828	1.0909	0.1	-26.251
4976	18.828	0.90909	0.1	-25.348
4977	18.828	0.72727	0.1	-24.462
4978	18.828	0.54545	0.1	-23.627
4979	18.828	0.36364	0.1	-22.988
4980	18.828	0.18182	0.1	-24.808
4981	18.643	5.8182	0.1	-24.353
4982	18.643	5.6364	0.1	-22.452
4983	18.643	5.4545	0.1	-22.975
4984	18.643	5.2727	0.1	-23.689
4985	18.643	5.0909	0.1	-24.452
4986	18.643	4.9091	0.1	-25.236
4987	18.643	4.7273	0.1	-26.019
4988	18.643	4.5455	0.1	-26.783
4989	18.643	4.3636	0.1	-27.509
4990	18.643	4.1818	0.1	-28.182
4991	18.643	4.	0.1	-28.787
4992	18.643	3.8182	0.1	-29.311
4993	18.643	3.6364	0.1	-29.744
4994	18.643	3.4545	0.1	-30.076
4995	18.643	3.2727	0.1	-30.302
4996	18.643	3.0909	0.1	-30.415
4997	18.643	2.9091	0.1	-30.415
4998	18.643	2.7273	0.1	-30.302
4999	18.643	2.5455	0.1	-30.076
5000	18.643	2.3636	0.1	-29.744
5001	18.643	2.1818	0.1	-29.311
5002	18.643	2.	0.1	-28.787
5003	18.643	1.8182	0.1	-28.182
5004	18.643	1.6364	0.1	-27.509
5005	18.643	1.4545	0.1	-26.782
5006	18.643	1.2727	0.1	-26.019
5007	18.643	1.0909	0.1	-25.236
5008	18.643	0.90909	0.1	-24.452
5009	18.643	0.72727	0.1	-23.689
5010	18.643	0.54545	0.1	-22.975
5011	18.643	0.36364	0.1	-22.452
5012	18.643	0.18182	0.1	-24.353
5013	18.459	5.8182	0.1	-23.907
5014	18.459	5.6364	0.1	-21.934
5015	18.459	5.4545	0.1	-22.349
5016	18.459	5.2727	0.1	-22.952
5017	18.459	5.0909	0.1	-23.603
5018	18.459	4.9091	0.1	-24.276
5019	18.459	4.7273	0.1	-24.951
5020	18.459	4.5455	0.1	-25.613
5021	18.459	4.3636	0.1	-26.245
5022	18.459	4.1818	0.1	-26.831
5023	18.459	4.	0.1	-27.36
5024	18.459	3.8182	0.1	-27.818
5025	18.459	3.6364	0.1	-28.197
5026	18.459	3.4545	0.1	-28.488
5027	18.459	3.2727	0.1	-28.685
5028	18.459	3.0909	0.1	-28.785
5029	18.459	2.9091	0.1	-28.785
5030	18.459	2.7273	0.1	-28.685
5031	18.459	2.5455	0.1	-28.488
5032	18.459	2.3636	0.1	-28.197
5033	18.459	2.1818	0.1	-27.818
5034	18.459	2.	0.1	-27.359
5035	18.459	1.8182	0.1	-26.831
5036	18.459	1.6364	0.1	-26.245
5037	18.459	1.4545	0.1	-25.613
5038	18.459	1.2727	0.1	-24.951
5039	18.459	1.0909	0.1	-24.275
5040	18.459	0.90909	0.1	-23.603
5041	18.459	0.72727	0.1	-22.951
5042	18.459	0.54545	0.1	-22.349
5043	18.459	0.36364	0.1	-21.934
5044	18.459	0.18182	0.1	-23.907
5045	18.274	5.8182	0.1	-23.471
5046	18.274	5.6364	0.1	-21.433
5047	18.274	5.4545	0.1	-21.749
5048	18.274	5.2727	0.1	-22.248
5049	18.274	5.0909	0.1	-22.796
5050	18.274	4.9091	0.1	-23.366
5051	18.274	4.7273	0.1	-23.943
5052	18.274	4.5455	0.1	-24.511
5053	18.274	4.3636	0.1	-25.055
5054	18.274	4.1818	0.1	-25.562
5055	18.274	4.	0.1	-26.019
5056	18.274	3.8182	0.1	-26.417
5057	18.274	3.6364	0.1	-26.746
5058	18.274	3.4545	0.1	-26.999
5059	18.274	3.2727	0.1	-27.171
5060	18.274	3.0909	0.1	-27.258
5061	18.274	2.9091	0.1	-27.258
5062	18.274	2.7273	0.1	-27.171
5063	18.274	2.5455	0.1	-26.999
5064	18.274	2.3636	0.1	-26.746
5065	18.274	2.1818	0.1	-26.417
5066	18.274	2.	0.1	-26.019
5067	18.274	1.8182	0.1	-25.562
5068	18.274	1.6364	0.1	-25.055
5069	18.274	1.4545	0.1	-24.511
5070	18.274	1.2727	0.1	-23.943
5071	18.274	1.0909	0.1	-23.366
5072	18.274	0.90909	0.1	-22.796
5073	18.274	0.72727	0.1	-22.248
5074	18.274	0.54545	0.1	-21.749
5075	18.274	0.36364	0.1	-21.433
5076	18.274	0.18182	0.1	-23.471
5077	18.089	5.8182	0.1	-23.043
5078	18.089	5.6364	0.1	-20.949
5079	18.089	5.4545	0.1	-21.172
5080	18.089	5.2727	0.1	-21.576
5081	18.089	5.0909	0.1	-22.027
5082	18.089	4.9091	0.1	-22.504
5083	18.089	4.7273	0.1	-22.989
5084	18.089	4.5455	0.1	-23.47
5085	18.089	4.3636	0.1	-23.933
5086	18.089	4.1818	0.1	-24.365
5087	18.089	4.	0.1	-24.757
5088	18.089	3.8182	0.1	-25.099
5089	18.089	3.6364	0.1	-25.382
5090	18.089	3.4545	0.1	-25.6
5091	18.089	3.2727	0.1	-25.749
5092	18.089	3.0909	0.1	-25.824
5093	18.089	2.9091	0.1	-25.824
5094	18.089	2.7273	0.1	-25.749
5095	18.089	2.5455	0.1	-25.6
5096	18.089	2.3636	0.1	-25.382
5097	18.089	2.1818	0.1	-25.099
5098	18.089	2.	0.1	-24.757
5099	18.089	1.8182	0.1	-24.365
5100	18.089	1.6364	0.1	-23.933
5101	18.089	1.4545	0.1	-23.47
5102	18.089	1.2727	0.1	-22.989
5103	18.089	1.0909	0.1	-22.503
5104	18.089	0.90909	0.1	-22.027
5105	18.089	0.72727	0.1	-21.576
5106	18.089	0.54545	0.1	-21.172
5107	18.089	0.36364	0.1	-20.949
5108	18.089	0.18182	0.1	-23.043
5109	17.905	5.8182	0.1	-22.625
5110	17.905	5.6364	0.1	-20.48
5111	17.905	5.4545	0.1	-20.617
5112	17.905	5.2727	0.1	-20.932
5113	17.905	5.0909	0.1	-21.294
5114	17.905	4.9091	0.1	-21.683
5115	17.905	4.7273	0.1	-22.083
5116	17.905	4.5455	0.1	-22.484
5117	17.905	4.3636	0.1	-22.871
5118	17.905	4.1818	0.1	-23.236
5119	17.905	4.	0.1	-23.567
5120	17.905	3.8182	0.1	-23.857
5121	17.905	3.6364	0.1	-24.097
5122	17.905	3.4545	0.1	-24.283
5123	17.905	3.2727	0.1	-24.409
5124	17.905	3.0909	0.1	-24.473
5125	17.905	2.9091	0.1	-24.473
5126	17.905	2.7273	0.1	-24.409
5127	17.905	2.5455	0.1	-24.283
5128	17.905	2.3636	0.1	-24.097
5129	17.905	2.1818	0.1	-23.857
5130	17.905	2.	0.1	-23.567
5131	17.905	1.8182	0.1	-23.236
5132	17.905	1.6364	0.1	-22.871
5133	17.905	1.4545	0.1	-22.483
5134	17.905	1.2727	0.1	-22.083
5135	17.905	1.0909	0.1	-21.683
5136	17.905	0.90909	0.1	-21.294
5137	17.905	0.72727	0.1	-20.932
5138	17.905	0.54545	0.1	-20.617
5139	17.905	0.36364	0.1	-20.479
5140	17.905	0.18182	0.1	-22.625
5141	17.72	5.8182	0.1	-22.215
5142	17.72	5.6364	0.1	-20.024
5143	17.72	5.4545	0.1	-20.082
5144	17.72	5.2727	0.1	-20.314
5145	17.72	5.0909	0.1	-20.593
5146	17.72	4.9091	0.1	-20.9
5147	17.72	4.7273	0.1	-21.222
5148	17.72	4.5455	0.1	-21.547
5149	17.72	4.3636	0.1	-21.865
5150	17.72	4.1818	0.1	-22.165
5151	17.72	4.	0.1	-22.44
5152	17.72	3.8182	0.1	-22.682
5153	17.72	3.6364	0.1	-22.883
5154	17.72	3.4545	0.1	-23.039
5155	17.72	3.2727	0.1	-23.145
5156	17.72	3.0909	0.1	-23.198
5157	17.72	2.9091	0.1	-23.198
5158	17.72	2.7273	0.1	-23.145
5159	17.72	2.5455	0.1	-23.039
5160	17.72	2.3636	0.1	-22.883
5161	17.72	2.1818	0.1	-22.682
5162	17.72	2.	0.1	-22.44
5163	17.72	1.8182	0.1	-22.165
5164	17.72	1.6364	0.1	-21.865
5165	17.72	1.4545	0.1	-21.547
5166	17.72	1.2727	0.1	-21.222
5167	17.72	1.0909	0.1	-20.9
5168	17.72	0.90909	0.1	-20.593
5169	17.72	0.72727	0.1	-20.314
5170	17.72	0.54545	0.1	-20.082
5171	17.72	0.36364	0.1	-20.024
5172	17.72	0.18182	0.1	-22.215
5173	17.535	5.8182	0.1	-21.814
5174	17.535	5.6364	0.1	-19.582
5175	17.535	5.4545	0.1	-19.565
5176	17.535	5.2727	0.1	-19.719
5177	17.535	5.0909	0.1	-19.921
5178	17.535	4.9091	0.1	-20.151
5179	17.535	4.7273	0.1	-20.399
5180	17.535	4.5455	0.1	-20.654
5181	17.535	4.3636	0.1	-20.907
5182	17.535	4.1818	0.1	-21.148
5183	17.535	4.	0.1	-21.371
5184	17.535	3.8182	0.1	-21.567
5185	17.535	3.6364	0.1	-21.731
5186	17.535	3.4545	0.1	-21.859
5187	17.535	3.2727	0.1	-21.946
5188	17.535	3.0909	0.1	-21.99
5189	17.535	2.9091	0.1	-21.99
5190	17.535	2.7273	0.1	-21.946
5191	17.535	2.5455	0.1	-21.859
5192	17.535	2.3636	0.1	-21.731
5193	17.535	2.1818	0.1	-21.567
5194	17.535	2.	0.1	-21.371
5195	17.535	1.8182	0.1	-21.148
5196	17.535	1.6364	0.1	-20.907
5197	17.535	1.4545	0.1	-20.654
5198	17.535	1.2727	0.1	-20.399
5199	17.535	1.0909	0.1	-20.151
5200	17.535	0.90909	0.1	-19.921
5201	17.535	0.72727	0.1	-19.719
5202	17.535	0.54545	0.1	-19.565
5203	17.535	0.36364	0.1	-19.582
5204	17.535	0.18182	0.1	-21.814
5205	17.35	5.8182	0.1	-21.421
5206	17.35	5.6364	0.1	-19.151
5207	17.35	5.4545	0.1	-19.064
5208	17.35	5.2727	0.1	-19.145
5209	17.35	5.0909	0.1	-19.274
5210	17.35	4.9091	0.1	-19.432
5211	17.35	4.7273	0.1	-19.611
5212	17.35	4.5455	0.1	-19.801
5213	17.35	4.3636	0.1	-19.992
5214	17.35	4.1818	0.1	-20.178
5215	17.35	4.	0.1	-20.351
5216	17.35	3.8182	0.1	-20.505
5217	17.35	3.6364	0.1	-20.635
5218	17.35	3.4545	0.1	-20.736
5219	17.35	3.2727	0.1	-20.806
5220	17.35	3.0909	0.1	-20.841
5221	17.35	2.9091	0.1	-20.841
5222	17.35	2.7273	0.1	-20.806
5223	17.35	2.5455	0.1	-20.736
5224	17.35	2.3636	0.1	-20.635
5225	17.35	2.1818	0.1	-20.505
5226	17.35	2.	0.1	-20.351
5227	17.35	1.8182	0.1	-20.178
5228	17.35	1.6364	0.1	-19.992
5229	17.35	1.4545	0.1	-19.8
5230	17.35	1.2727	0.1	-19.611
5231	17.35	1.0909	0.1	-19.432
5232	17.35	0.90909	0.1	-19.273
5233	17.35	0.72727	0.1	-19.145
5234	17.35	0.54545	0.1	-19.064
5235	17.35	0.36364	0.1	-19.151
5236	17.35	0.18182	0.1	-21.421
5237	17.166	5.8182	0.1	-21.035
5238	17.166	5.6364	0.1	-18.731
5239	17.166	5.4545	0.1	-18.577
5240	17.166	5.2727	0.1	-18.589
5241	17.166	5.0909	0.1	-18.649
5242	17.166	4.9091	0.1	-18.74
5243	17.166	4.7273	0.1	-18.854
5244	17.166	4.5455	0.1	-18.981
5245	17.166	4.3636	0.1	-19.115
5246	17.166	4.1818	0.1	-19.249
5247	17.166	4.	0.1	-19.376
5248	17.166	3.8182	0.1	-19.49
5249	17.166	3.6364	0.1	-19.588
5250	17.166	3.4545	0.1	-19.664
5251	17.166	3.2727	0.1	-19.717
5252	17.166	3.0909	0.1	-19.743
5253	17.166	2.9091	0.1	-19.743
5254	17.166	2.7273	0.1	-19.717
5255	17.166	2.5455	0.1	-19.664
5256	17.166	2.3636	0.1	-19.588
5257	17.166	2.1818	0.1	-19.49
5258	17.166	2.	0.1	-19.376
5259	17.166	1.8182	0.1	-19.249
5260	17.166	1.6364	0.1	-19.115
5261	17.166	1.4545	0.1	-18.981
5262	17.166	1.2727	0.1	-18.854
5263	17.166	1.0909	0.1	-18.74
5264	17.166	0.90909	0.1	-18.649
5265	17.166	0.72727	0.1	-18.589
5266	17.166	0.54545	0.1	-18.577
5267	17.166	0.36364	0.1	-18.731
5268	17.166	0.18182	0.1	-21.035
5269	16.981	5.8182	0.1	-20.656
5270	16.981	5.6364	0.1	-18.321
5271	16.981	5.4545	0.1	-18.104
5272	16.981	5.2727	0.1	-18.05
5273	16.981	5.0909	0.1	-18.044
5274	16.981	4.9091	0.1	-18.071
5275	16.981	4.7273	0.1	-18.122
5276	16.981	4.5455	0.1	-18.191
5277	16.981	4.3636	0.1	-18.271
5278	16.981	4.1818	0.1	-18.355
5279	16.981	4.	0.1	-18.438
5280	16.981	3.8182	0.1	-18.515
5281	16.981	3.6364	0.1	-18.582
5282	16.981	3.4545	0.1	-18.635
5283	16.981	3.2727	0.1	-18.672
5284	16.981	3.0909	0.1	-18.69
5285	16.981	2.9091	0.1	-18.69
5286	16.981	2.7273	0.1	-18.672
5287	16.981	2.5455	0.1	-18.635
5288	16.981	2.3636	0.1	-18.582
5289	16.981	2.1818	0.1	-18.515
5290	16.981	2.	0.1	-18.438
5291	16.981	1.8182	0.1	-18.355
5292	16.981	1.6364	0.1	-18.271
5293	16.981	1.4545	0.1	-18.191
5294	16.981	1.2727	0.1	-18.122
5295	16.981	1.0909	0.1	-18.071
5296	16.981	0.90909	0.1	-18.044
5297	16.981	0.72727	0.1	-18.05
5298	16.981	0.54545	0.1	-18.104
5299	16.981	0.36364	0.1	-18.321
5300	16.981	0.18182	0.1	-20.656
5301	16.796	5.8182	0.1	-20.284
5302	16.796	5.6364	0.1	-17.92
5303	16.796	5.4545	0.1	-17.641
5304	16.796	5.2727	0.1	-17.524
5305	16.796	5.0909	0.1	-17.456
5306	16.796	4.9091	0.1	-17.421
5307	16.796	4.7273	0.1	-17.414
5308	16.796	4.5455	0.1	-17.427
5309	16.796	4.3636	0.1	-17.455
5310	16.796	4.1818	0.1	-17.492
5311	16.796	4.	0.1	-17.533
5312	16.796	3.8182	0.1	-17.574
5313	16.796	3.6364	0.1	-17.611
5314	16.796	3.4545	0.1	-17.642
5315	16.796	3.2727	0.1	-17.664
5316	16.796	3.0909	0.1	-17.675
5317	16.796	2.9091	0.1	-17.675
5318	16.796	2.7273	0.1	-17.664
5319	16.796	2.5455	0.1	-17.642
5320	16.796	2.3636	0.1	-17.611
5321	16.796	2.1818	0.1	-17.574
5322	16.796	2.	0.1	-17.533
5323	16.796	1.8182	0.1	-17.491
5324	16.796	1.6364	0.1	-17.455
5325	16.796	1.4545	0.1	-17.427
5326	16.796	1.2727	0.1	-17.414
5327	16.796	1.0909	0.1	-17.421
5328	16.796	0.90909	0.1	-17.456
5329	16.796	0.72727	0.1	-17.524
5330	16.796	0.54545	0.1	-17.641
5331	16.796	0.36364	0.1	-17.92
5332	16.796	0.18182	0.1	-20.284
5333	16.612	5.8182	0.1	-19.918
5334	16.612	5.6364	0.1	-17.526
5335	16.612	5.4545	0.1	-17.188
5336	16.612	5.2727	0.1	-17.011
5337	16.612	5.0909	0.1	-16.882
5338	16.612	4.9091	0.1	-16.788
5339	16.612	4.7273	0.1	-16.724
5340	16.612	4.5455	0.1	-16.683
5341	16.612	4.3636	0.1	-16.661
5342	16.612	4.1818	0.1	-16.653
5343	16.612	4.	0.1	-16.654
5344	16.612	3.8182	0.1	-16.661
5345	16.612	3.6364	0.1	-16.67
5346	16.612	3.4545	0.1	-16.68
5347	16.612	3.2727	0.1	-16.687
5348	16.612	3.0909	0.1	-16.691
5349	16.612	2.9091	0.1	-16.691
5350	16.612	2.7273	0.1	-16.687
5351	16.612	2.5455	0.1	-16.68
5352	16.612	2.3636	0.1	-16.67
5353	16.612	2.1818	0.1	-16.661
5354	16.612	2.	0.1	-16.654
5355	16.612	1.8182	0.1	-16.653
5356	16.612	1.6364	0.1	-16.661
5357	16.612	1.4545	0.1	-16.683
5358	16.612	1.2727	0.1	-16.723
5359	16.612	1.0909	0.1	-16.788
5360	16.612	0.90909	0.1	-16.881
5361	16.612	0.72727	0.1	-17.011
5362	16.612	0.54545	0.1	-17.188
5363	16.612	0.36364	0.1	-17.526
5364	16.612	0.18182	0.1	-19.918
5365	16.427	5.8182	0.1	-19.558
5366	16.427	5.6364	0.1	-17.138
5367	16.427	5.4545	0.1	-16.743
5368	16.427	5.2727	0.1	-16.506
5369	16.427	5.0909	0.1	-16.318
5370	16.427	4.9091	0.1	-16.167
5371	16.427	4.7273	0.1	-16.048
5372	16.427	4.5455	0.1	-15.955
5373	16.427	4.3636	0.1	-15.885
5374	16.427	4.1818	0.1	-15.833
5375	16.427	4.	0.1	-15.796
5376	16.427	3.8182	0.1	-15.77
5377	16.427	3.6364	0.1	-15.753
5378	16.427	3.4545	0.1	-15.741
5379	16.427	3.2727	0.1	-15.735
5380	16.427	3.0909	0.1	-15.732
5381	16.427	2.9091	0.1	-15.732
5382	16.427	2.7273	0.1	-15.735
5383	16.427	2.5455	0.1	-15.741
5384	16.427	2.3636	0.1	-15.753
5385	16.427	2.1818	0.1	-15.77
5386	16.427	2.	0.1	-15.796
5387	16.427	1.8182	0.1	-15.833
5388	16.427	1.6364	0.1	-15.885
5389	16.427	1.4545	0.1	-15.955
5390	16.427	1.2727	0.1	-16.048
5391	16.427	1.0909	0.1	-16.167
5392	16.427	0.90909	0.1	-16.318
5393	16.427	0.72727	0.1	-16.506
5394	16.427	0.54545	0.1	-16.743
5395	16.427	0.36364	0.1	-17.138
5396	16.427	0.18182	0.1	-19.558
5397	16.242	5.8182	0.1	-19.202
5398	16.242	5.6364	0.1	-16.756
5399	16.242	5.4545	0.1	-16.304
5400	16.242	5.2727	0.1	-16.009
5401	16.242	5.0909	0.1	-15.764
5402	16.242	4.9091	0.1	-15.557
5403	16.242	4.7273	0.1	-15.384
5404	16.242	4.5455	0.1	-15.24
5405	16.242	4.3636	0.1	-15.123
5406	16.242	4.1818	0.1	-15.029
5407	16.242	4.	0.1	-14.954
5408	16.242	3.8182	0.1	-14.896
5409	16.242	3.6364	0.1	-14.852
5410	16.242	3.4545	0.1	-14.821
5411	16.242	3.2727	0.1	-14.801
5412	16.242	3.0909	0.1	-14.791
5413	16.242	2.9091	0.1	-14.791
5414	16.242	2.7273	0.1	-14.801
5415	16.242	2.5455	0.1	-14.821
5416	16.242	2.3636	0.1	-14.852
5417	16.242	2.1818	0.1	-14.896
5418	16.242	2.	0.1	-14.954
5419	16.242	1.8182	0.1	-15.029
5420	16.242	1.6364	0.1	-15.123
5421	16.242	1.4545	0.1	-15.24
5422	16.242	1.2727	0.1	-15.383
5423	16.242	1.0909	0.1	-15.557
5424	16.242	0.90909	0.1	-15.764
5425	16.242	0.72727	0.1	-16.009
5426	16.242	0.54545	0.1	-16.304
5427	16.242	0.36364	0.1	-16.756
5428	16.242	0.18182	0.1	-19.202
5429	16.057	5.8182	0.1	-18.85
5430	16.057	5.6364	0.1	-16.377
5431	16.057	5.4545	0.1	-15.87
5432	16.057	5.2727	0.1	-15.517
5433	16.057	5.0909	0.1	-15.215
5434	16.057	4.9091	0.1	-14.952
5435	16.057	4.7273	0.1	-14.726
5436	16.057	4.5455	0.1	-14.533
5437	16.057	4.3636	0.1	-14.37
5438	16.057	4.1818	0.1	-14.234
5439	16.057	4.	0.1	-14.122
5440	16.057	3.8182	0.1	-14.032
5441	16.057	3.6364	0.1	-13.963
5442	16.057	3.4545	0.1	-13.913
5443	16.057	3.2727	0.1	-13.88
5444	16.057	3.0909	0.1	-13.863
5445	16.057	2.9091	0.1	-13.863
5446	16.057	2.7273	0.1	-13.88
5447	16.057	2.5455	0.1	-13.913
5448	16.057	2.3636	0.1	-13.963
5449	16.057	2.1818	0.1	-14.032
5450	16.057	2.	0.1	-14.122
5451	16.057	1.8182	0.1	-14.234
5452	16.057	1.6364	0.1	-14.37
5453	16.057	1.4545	0.1	-14.533
5454	16.057	1.2727	0.1	-14.726
5455	16.057	1.0909	0.1	-14.952
5456	16.057	0.90909	0.1	-15.215
5457	16.057	0.72727	0.1	-15.517
5458	16.057	0.54545	0.1	-15.87
5459	16.057	0.36364	0.1	-16.377
5460	16.057	0.18182	0.1	-18.85
5461	15.873	5.8182	0.1	-18.502
5462	15.873	5.6364	0.1	-16.002
5463	15.873	5.4545	0.1	-15.438
5464	15.873	5.2727	0.1	-15.028
5465	15.873	5.0909	0.1	-14.669
5466	15.873	4.9091	0.1	-14.351
5467	15.873	4.7273	0.1	-14.073
5468	15.873	4.5455	0.1	-13.83
5469	15.873	4.3636	0.1	-13.621
5470	15.873	4.1818	0.1	-13.444
5471	15.873	4.	0.1	-13.296
5472	15.873	3.8182	0.1	-13.175
5473	15.873	3.6364	0.1	-13.08
5474	15.873	3.4545	0.1	-13.01
5475	15.873	3.2727	0.1	-12.964
5476	15.873	3.0909	0.1	-12.941
5477	15.873	2.9091	0.1	-12.941
5478	15.873	2.7273	0.1	-12.964
5479	15.873	2.5455	0.1	-13.01
5480	15.873	2.3636	0.1	-13.08
5481	15.873	2.1818	0.1	-13.175
5482	15.873	2.	0.1	-13.296
5483	15.873	1.8182	0.1	-13.444
5484	15.873	1.6364	0.1	-13.621
5485	15.873	1.4545	0.1	-13.83
5486	15.873	1.2727	0.1	-14.073
5487	15.873	1.0909	0.1	-14.351
5488	15.873	0.90909	0.1	-14.669
5489	15.873	0.72727	0.1	-15.028
5490	15.873	0.54545	0.1	-15.438
5491	15.873	0.36364	0.1	-16.002
5492	15.873	0.18182	0.1	-18.502
5493	15.688	5.8182	0.1	-18.156
5494	15.688	5.6364	0.1	-15.628
5495	15.688	5.4545	0.1	-15.007
5496	15.688	5.2727	0.1	-14.539
5497	15.688	5.0909	0.1	-14.123
5498	15.688	4.9091	0.1	-13.75
5499	15.688	4.7273	0.1	-13.419
5500	15.688	4.5455	0.1	-13.127
5501	15.688	4.3636	0.1	-12.873
5502	15.688	4.1818	0.1	-12.654
5503	15.688	4.	0.1	-12.469
5504	15.688	3.8182	0.1	-12.318
5505	15.688	3.6364	0.1	-12.198
5506	15.688	3.4545	0.1	-12.109
5507	15.688	3.2727	0.1	-12.05
5508	15.688	3.0909	0.1	-12.02
5509	15.688	2.9091	0.1	-12.02
5510	15.688	2.7273	0.1	-12.05
5511	15.688	2.5455	0.1	-12.109
5512	15.688	2.3636	0.1	-12.198
5513	15.688	2.1818	0.1	-12.318
5514	15.688	2.	0.1	-12.469
5515	15.688	1.8182	0.1	-12.654
5516	15.688	1.6364	0.1	-12.873
5517	15.688	1.4545	0.1	-13.127
5518	15.688	1.2727	0.1	-13.419
5519	15.688	1.0909	0.1	-13.75
5520	15.688	0.90909	0.1	-14.123
5521	15.688	0.72727	0.1	-14.539
5522	15.688	0.54545	0.1	-15.007
5523	15.688	0.36364	0.1	-15.628
5524	15.688	0.18182	0.1	-18.156
5525	15.503	5.8182	0.1	-17.812
5526	15.503	5.6364	0.1	-15.254
5527	15.503	5.4545	0.1	-14.576
5528	15.503	5.2727	0.1	-14.049
5529	15.503	5.0909	0.1	-13.575
5530	15.503	4.9091	0.1	-13.146
5531	15.503	4.7273	0.1	-12.762
5532	15.503	4.5455	0.1	-12.42
5533	15.503	4.3636	0.1	-12.12
5534	15.503	4.1818	0.1	-11.859
5535	15.503	4.	0.1	-11.638
5536	15.503	3.8182	0.1	-11.455
5537	15.503	3.6364	0.1	-11.31
5538	15.503	3.4545	0.1	-11.201
5539	15.503	3.2727	0.1	-11.129
5540	15.503	3.0909	0.1	-11.093
5541	15.503	2.9091	0.1	-11.093
5542	15.503	2.7273	0.1	-11.129
5543	15.503	2.5455	0.1	-11.201
5544	15.503	2.3636	0.1	-11.31
5545	15.503	2.1818	0.1	-11.455
5546	15.503	2.	0.1	-11.638
5547	15.503	1.8182	0.1	-11.859
5548	15.503	1.6364	0.1	-12.119
5549	15.503	1.4545	0.1	-12.42
5550	15.503	1.2727	0.1	-12.762
5551	15.503	1.0909	0.1	-13.146
5552	15.503	0.90909	0.1	-13.575
5553	15.503	0.72727	0.1	-14.049
5554	15.503	0.54545	0.1	-14.576
5555	15.503	0.36364	0.1	-15.254
5556	15.503	0.18182	0.1	-17.812
5557	15.319	5.8182	0.1	-17.47
5558	15.319	5.6364	0.1	-14.88
5559	15.319	5.4545	0.1	-14.142
5560	15.319	5.2727	0.1	-13.554
5561	15.319	5.0909	0.1	-13.021
5562	15.319	4.9091	0.1	-12.536
5563	15.319	4.7273	0.1	-12.097
5564	15.319	4.5455	0.1	-11.705
5565	15.319	4.3636	0.1	-11.357
5566	15.319	4.1818	0.1	-11.055
5567	15.319	4.	0.1	-10.796
5568	15.319	3.8182	0.1	-10.582
5569	15.319	3.6364	0.1	-10.411
5570	15.319	3.4545	0.1	-10.282
5571	15.319	3.2727	0.1	-10.197
5572	15.319	3.0909	0.1	-10.155
5573	15.319	2.9091	0.1	-10.155
5574	15.319	2.7273	0.1	-10.197
5575	15.319	2.5455	0.1	-10.282
5576	15.319	2.3636	0.1	-10.411
5577	15.319	2.1818	0.1	-10.582
5578	15.319	2.	0.1	-10.796
5579	15.319	1.8182	0.1	-11.055
5580	15.319	1.6364	0.1	-11.357
5581	15.319	1.4545	0.1	-11.705
5582	15.319	1.2727	0.1	-12.097
5583	15.319	1.0909	0.1	-12.536
5584	15.319	0.90909	0.1	-13.021
5585	15.319	0.72727	0.1	-13.554
5586	15.319	0.54545	0.1	-14.142
5587	15.319	0.36364	0.1	-14.88
5588	15.319	0.18182	0.1	-17.47
5589	15.134	5.8182	0.1	-17.128
5590	15.134	5.6364	0.1	-14.504
5591	15.134	5.4545	0.1	-13.704
5592	15.134	5.2727	0.1	-13.054
5593	15.134	5.0909	0.1	-12.46
5594	15.134	4.9091	0.1	-11.916
5595	15.134	4.7273	0.1	-11.422
5596	15.134	4.5455	0.1	-10.977
5597	15.134	4.3636	0.1	-10.582
5598	15.134	4.1818	0.1	-10.236
5599	15.134	4.	0.1	-9.9392
5600	15.134	3.8182	0.1	-9.6922
5601	15.134	3.6364	0.1	-9.4946
5602	15.134	3.4545	0.1	-9.3464
5603	15.134	3.2727	0.1	-9.2477
5604	15.134	3.0909	0.1	-9.1983
5605	15.134	2.9091	0.1	-9.1983
5606	15.134	2.7273	0.1	-9.2476
5607	15.134	2.5455	0.1	-9.3464
5608	15.134	2.3636	0.1	-9.4946
5609	15.134	2.1818	0.1	-9.6922
5610	15.134	2.	0.1	-9.9392
5611	15.134	1.8182	0.1	-10.236
5612	15.134	1.6364	0.1	-10.581
5613	15.134	1.4545	0.1	-10.977
5614	15.134	1.2727	0.1	-11.422
5615	15.134	1.0909	0.1	-11.916
5616	15.134	0.90909	0.1	-12.46
5617	15.134	0.72727	0.1	-13.054
5618	15.134	0.54545	0.1	-13.704
5619	15.134	0.36364	0.1	-14.504
5620	15.134	0.18182	0.1	-17.128
5621	14.949	5.8182	0.1	-16.785
5622	14.949	5.6364	0.1	-14.124
5623	14.949	5.4545	0.1	-13.259
5624	14.949	5.2727	0.1	-12.545
5625	14.949	5.0909	0.1	-11.888
5626	14.949	4.9091	0.1	-11.283
5627	14.949	4.7273	0.1	-10.731
5628	14.949	4.5455	0.1	-10.232
5629	14.949	4.3636	0.1	-9.7874
5630	14.949	4.1818	0.1	-9.3969
5631	14.949	4.	0.1	-9.0612
5632	14.949	3.8182	0.1	-8.7807
5633	14.949	3.6364	0.1	-8.5559
5634	14.949	3.4545	0.1	-8.3871
5635	14.949	3.2727	0.1	-8.2743
5636	14.949	3.0909	0.1	-8.2179
5637	14.949	2.9091	0.1	-8.2179
5638	14.949	2.7273	0.1	-8.2743
5639	14.949	2.5455	0.1	-8.387
5640	14.949	2.3636	0.1	-8.5559
5641	14.949	2.1818	0.1	-8.7807
5642	14.949	2.	0.1	-9.0611
5643	14.949	1.8182	0.1	-9.3968
5644	14.949	1.6364	0.1	-9.7874
5645	14.949	1.4545	0.1	-10.232
5646	14.949	1.2727	0.1	-10.731
5647	14.949	1.0909	0.1	-11.283
5648	14.949	0.90909	0.1	-11.888
5649	14.949	0.72727	0.1	-12.545
5650	14.949	0.54545	0.1	-13.259
5651	14.949	0.36364	0.1	-14.124
5652	14.949	0.18182	0.1	-16.785
5653	14.765	5.8182	0.1	-16.442
5654	14.765	5.6364	0.1	-13.739
5655	14.765	5.4545	0.1	-12.807
5656	14.765	5.2727	0.1	-12.025
5657	14.765	5.0909	0.1	-11.302
5658	14.765	4.9091	0.1	-10.634
5659	14.765	4.7273	0.1	-10.022
5660	14.765	4.5455	0.1	-9.4667
5661	14.765	4.3636	0.1	-8.9703
5662	14.765	4.1818	0.1	-8.5333
5663	14.765	4.	0.1	-8.1568
5664	14.765	3.8182	0.1	-7.8416
5665	14.765	3.6364	0.1	-7.5885
5666	14.765	3.4545	0.1	-7.3982
5667	14.765	3.2727	0.1	-7.271
5668	14.765	3.0909	0.1	-7.2073
5669	14.765	2.9091	0.1	-7.2073
5670	14.765	2.7273	0.1	-7.271
5671	14.765	2.5455	0.1	-7.3981
5672	14.765	2.3636	0.1	-7.5885
5673	14.765	2.1818	0.1	-7.8416
5674	14.765	2.	0.1	-8.1567
5675	14.765	1.8182	0.1	-8.5332
5676	14.765	1.6364	0.1	-8.9702
5677	14.765	1.4545	0.1	-9.4667
5678	14.765	1.2727	0.1	-10.022
5679	14.765	1.0909	0.1	-10.634
5680	14.765	0.90909	0.1	-11.302
5681	14.765	0.72727	0.1	-12.025
5682	14.765	0.54545	0.1	-12.807
5683	14.765	0.36364	0.1	-13.739
5684	14.765	0.18182	0.1	-16.442
5685	14.58	5.8182	0.1	-16.096
5686	14.58	5.6364	0.1	-13.348
5687	14.58	5.4545	0.1	-12.345
5688	14.58	5.2727	0.1	-11.491
5689	14.58	5.0909	0.1	-10.699
5690	14.58	4.9091	0.1	-9.9641
5691	14.58	4.7273	0.1	-9.2891
5692	14.58	4.5455	0.1	-8.6754
5693	14.58	4.3636	0.1	-8.125
5694	14.58	4.1818	0.1	-7.6394
5695	14.58	4.	0.1	-7.2202
5696	14.58	3.8182	0.1	-6.8687
5697	14.58	3.6364	0.1	-6.586
5698	14.58	3.4545	0.1	-6.3732
5699	14.58	3.2727	0.1	-6.2309
5700	14.58	3.0909	0.1	-6.1596
5701	14.58	2.9091	0.1	-6.1596
5702	14.58	2.7273	0.1	-6.2309
5703	14.58	2.5455	0.1	-6.3732
5704	14.58	2.3636	0.1	-6.586
5705	14.58	2.1818	0.1	-6.8686
5706	14.58	2.	0.1	-7.2202
5707	14.58	1.8182	0.1	-7.6394
5708	14.58	1.6364	0.1	-8.1249
5709	14.58	1.4545	0.1	-8.6754
5710	14.58	1.2727	0.1	-9.289
5711	14.58	1.0909	0.1	-9.964
5712	14.58	0.90909	0.1	-10.699
5713	14.58	0.72727	0.1	-11.491
5714	14.58	0.54545	0.1	-12.344
5715	14.58	0.36364	0.1	-13.348
5716	14.58	0.18182	0.1	-16.096
5717	14.395	5.8182	0.1	-15.747
5718	14.395	5.6364	0.1	-12.949
5719	14.395	5.4545	0.1	-11.87
5720	14.395	5.2727	0.1	-10.941
5721	14.395	5.0909	0.1	-10.076
5722	14.395	4.9091	0.1	-9.2709
5723	14.395	4.7273	0.1	-8.5294
5724	14.395	4.5455	0.1	-7.8539
5725	14.395	4.3636	0.1	-7.2466
5726	14.395	4.1818	0.1	-6.7098
5727	14.395	4.	0.1	-6.2456
5728	14.395	3.8182	0.1	-5.8559
5729	14.395	3.6364	0.1	-5.5421
5730	14.395	3.4545	0.1	-5.3055
5731	14.395	3.2727	0.1	-5.1473
5732	14.395	3.0909	0.1	-5.068
5733	14.395	2.9091	0.1	-5.068
5734	14.395	2.7273	0.1	-5.1473
5735	14.395	2.5455	0.1	-5.3055
5736	14.395	2.3636	0.1	-5.542
5737	14.395	2.1818	0.1	-5.8558
5738	14.395	2.	0.1	-6.2456
5739	14.395	1.8182	0.1	-6.7098
5740	14.395	1.6364	0.1	-7.2465
5741	14.395	1.4545	0.1	-7.8538
5742	14.395	1.2727	0.1	-8.5294
5743	14.395	1.0909	0.1	-9.2708
5744	14.395	0.90909	0.1	-10.075
5745	14.395	0.72727	0.1	-10.941
5746	14.395	0.54545	0.1	-11.87
5747	14.395	0.36364	0.1	-12.949
5748	14.395	0.18182	0.1	-15.747
5749	14.21	5.8182	0.1	-15.393
5750	14.21	5.6364	0.1	-12.541
5751	14.21	5.4545	0.1	-11.381
5752	14.21	5.2727	0.1	-10.372
5753	14.21	5.0909	0.1	-9.4291
5754	14.21	4.9091	0.1	-8.55
5755	14.21	4.7273	0.1	-7.7382
5756	14.21	4.5455	0.1	-6.9971
5757	14.21	4.3636	0.1	-6.3296
5758	14.21	4.1818	0.1	-5.7386
5759	14.21	4.	0.1	-5.2269
5760	14.21	3.8182	0.1	-4.7966
5761	14.21	3.6364	0.1	-4.4498
5762	14.21	3.4545	0.1	-4.1882
5763	14.21	3.2727	0.1	-4.0131
5764	14.21	3.0909	0.1	-3.9253
5765	14.21	2.9091	0.1	-3.9253
5766	14.21	2.7273	0.1	-4.013
5767	14.21	2.5455	0.1	-4.1882
5768	14.21	2.3636	0.1	-4.4498
5769	14.21	2.1818	0.1	-4.7966
5770	14.21	2.	0.1	-5.2268
5771	14.21	1.8182	0.1	-5.7386
5772	14.21	1.6364	0.1	-6.3295
5773	14.21	1.4545	0.1	-6.997
5774	14.21	1.2727	0.1	-7.7382
5775	14.21	1.0909	0.1	-8.5499
5776	14.21	0.90909	0.1	-9.429
5777	14.21	0.72727	0.1	-10.372
5778	14.21	0.54545	0.1	-11.381
5779	14.21	0.36364	0.1	-12.541
5780	14.21	0.18182	0.1	-15.393
5781	14.026	5.8182	0.1	-15.035
5782	14.026	5.6364	0.1	-12.122
5783	14.026	5.4545	0.1	-10.877
5784	14.026	5.2727	0.1	-9.7819
5785	14.026	5.0909	0.1	-8.7559
5786	14.026	4.9091	0.1	-7.7977
5787	14.026	4.7273	0.1	-6.9111
5788	14.026	4.5455	0.1	-6.1002
5789	14.026	4.3636	0.1	-5.3686
5790	14.026	4.1818	0.1	-4.7201
5791	14.026	4.	0.1	-4.1577
5792	14.026	3.8182	0.1	-3.6843
5793	14.026	3.6364	0.1	-3.3024
5794	14.026	3.4545	0.1	-3.0141
5795	14.026	3.2727	0.1	-2.8209
5796	14.026	3.0909	0.1	-2.724
5797	14.026	2.9091	0.1	-2.724
5798	14.026	2.7273	0.1	-2.8209
5799	14.026	2.5455	0.1	-3.014
5800	14.026	2.3636	0.1	-3.3024
5801	14.026	2.1818	0.1	-3.6843
5802	14.026	2.	0.1	-4.1577
5803	14.026	1.8182	0.1	-4.7201
5804	14.026	1.6364	0.1	-5.3686
5805	14.026	1.4545	0.1	-6.1001
5806	14.026	1.2727	0.1	-6.911
5807	14.026	1.0909	0.1	-7.7976
5808	14.026	0.90909	0.1	-8.7559
5809	14.026	0.72727	0.1	-9.7818
5810	14.026	0.54545	0.1	-10.876
5811	14.026	0.36364	0.1	-12.122
5812	14.026	0.18182	0.1	-15.035
5813	13.841	5.8182	0.1	-14.67
5814	13.841	5.6364	0.1	-11.691
5815	13.841	5.4545	0.1	-10.353
5816	13.841	5.2727	0.1	-9.1669
5817	13.841	5.0909	0.1	-8.0525
5818	13.841	4.9091	0.1	-7.0097
5819	13.841	4.7273	0.1	-6.0432
5820	13.841	4.5455	0.1	-5.1578
5821	13.841	4.3636	0.1	-4.3579
5822	13.841	4.1818	0.1	-3.6479
5823	13.841	4.	0.1	-3.0315
5824	13.841	3.8182	0.1	-2.5121
5825	13.841	3.6364	0.1	-2.0926
5826	13.841	3.4545	0.1	-1.7755
5827	13.841	3.2727	0.1	-1.5629
5828	13.841	3.0909	0.1	-1.4561
5829	13.841	2.9091	0.1	-1.4561
5830	13.841	2.7273	0.1	-1.5629
5831	13.841	2.5455	0.1	-1.7755
5832	13.841	2.3636	0.1	-2.0926
5833	13.841	2.1818	0.1	-2.5121
5834	13.841	2.	0.1	-3.0315
5835	13.841	1.8182	0.1	-3.6479
5836	13.841	1.6364	0.1	-4.3579
5837	13.841	1.4545	0.1	-5.1577
5838	13.841	1.2727	0.1	-6.0431
5839	13.841	1.0909	0.1	-7.0097
5840	13.841	0.90909	0.1	-8.0525
5841	13.841	0.72727	0.1	-9.1668
5842	13.841	0.54545	0.1	-10.353
5843	13.841	0.36364	0.1	-11.691
5844	13.841	0.18182	0.1	-14.67
5845	13.656	5.8182	0.1	-14.299
5846	13.656	5.6364	0.1	-11.246
5847	13.656	5.4545	0.1	-9.8083
5848	13.656	5.2727	0.1	-8.5243
5849	13.656	5.0909	0.1	-7.3152
5850	13.656	4.9091	0.1	-6.1818
5851	13.656	4.7273	0.1	-5.1296
5852	13.656	4.5455	0.1	-4.1645
5853	13.656	4.3636	0.1	-3.2916
5854	13.656	4.1818	0.1	-2.5159
5855	13.656	4.	0.1	-1.842
5856	13.656	3.8182	0.1	-1.2738
5857	13.656	3.6364	0.1	-0.81478
5858	13.656	3.4545	0.1	-0.46754
5859	13.656	3.2727	0.1	-0.23374
5860	13.656	3.0909	0.1	-0.11407
5861	13.656	2.9091	0.1	-0.11406
5862	13.656	2.7273	0.1	-0.23373
5863	13.656	2.5455	0.1	-0.46753
5864	13.656	2.3636	0.1	-0.81476
5865	13.656	2.1818	0.1	-1.2738
5866	13.656	2.	0.1	-1.842
5867	13.656	1.8182	0.1	-2.5159
5868	13.656	1.6364	0.1	-3.2915
5869	13.656	1.4545	0.1	-4.1644
5870	13.656	1.2727	0.1	-5.1296
5871	13.656	1.0909	0.1	-6.1817
5872	13.656	0.90909	0.1	-7.3151
5873	13.656	0.72727	0.1	-8.5243
5874	13.656	0.54545	0.1	-9.8083
5875	13.656	0.36364	0.1	-11.245
5876	13.656	0.18182	0.1	-14.299
5877	13.472	5.8182	0.1	-13.919
5878	13.472	5.6364	0.1	-10.784
5879	13.472	5.4545	0.1	-9.2404
5880	13.472	5.2727	0.1	-7.8511
5881	13.472	5.0909	0.1	-6.5402
5882	13.472	4.9091	0.1	-5.3094
5883	13.472	4.7273	0.1	-4.1655
5884	13.472	4.5455	0.1	-3.1149
5885	13.472	4.3636	0.1	-2.1641
5886	13.472	4.1818	0.1	-1.3197
5887	13.472	4.	0.1	-0.59069
5888	13.472	3.8182	0.1	-6.9833e-002
5889	13.472	3.6364	0.1	-1.4524e-002
5890	13.472	3.4545	0.1	-8.9379e-003
5891	13.472	3.2727	0.1	-7.1777e-003
5892	13.472	3.0909	0.1	-6.5536e-003
5893	13.472	2.9091	0.1	-6.5525e-003
5894	13.472	2.7273	0.1	-7.177e-003
5895	13.472	2.5455	0.1	-8.9393e-003
5896	13.472	2.3636	0.1	-1.4523e-002
5897	13.472	2.1818	0.1	-6.9824e-002
5898	13.472	2.	0.1	-0.59067
5899	13.472	1.8182	0.1	-1.3196
5900	13.472	1.6364	0.1	-2.164
5901	13.472	1.4545	0.1	-3.1148
5902	13.472	1.2727	0.1	-4.1654
5903	13.472	1.0909	0.1	-5.3094
5904	13.472	0.90909	0.1	-6.5401
5905	13.472	0.72727	0.1	-7.8511
5906	13.472	0.54545	0.1	-9.2403
5907	13.472	0.36364	0.1	-10.784
5908	13.472	0.18182	0.1	-13.919
5909	13.287	5.8182	0.1	-13.529
5910	13.287	5.6364	0.1	-10.305
5911	13.287	5.4545	0.1	-8.6464
5912	13.287	5.2727	0.1	-7.1439
5913	13.287	5.0909	0.1	-5.7234
5914	13.287	4.9091	0.1	-4.388
5915	13.287	4.7273	0.1	-3.1454
5916	13.287	4.5455	0.1	-2.0039
5917	13.287	4.3636	0.1	-0.97409
5918	13.287	4.1818	0.1	-0.13827
5919	13.287	4.	0.1	-1.8947e-002
5920	13.287	3.8182	0.1	-1.083e-002
5921	13.287	3.6364	0.1	-8.2738e-003
5922	13.287	3.4545	0.1	-7.1277e-003
5923	13.287	3.2727	0.1	-6.5628e-003
5924	13.287	3.0909	0.1	-6.3229e-003
5925	13.287	2.9091	0.1	-6.3233e-003
5926	13.287	2.7273	0.1	-6.5631e-003
5927	13.287	2.5455	0.1	-7.1275e-003
5928	13.287	2.3636	0.1	-8.2752e-003
5929	13.287	2.1818	0.1	-1.083e-002
5930	13.287	2.	0.1	-1.8947e-002
5931	13.287	1.8182	0.1	-0.13825
5932	13.287	1.6364	0.1	-0.97405
5933	13.287	1.4545	0.1	-2.0038
5934	13.287	1.2727	0.1	-3.1453
5935	13.287	1.0909	0.1	-4.3879
5936	13.287	0.90909	0.1	-5.7233
5937	13.287	0.72727	0.1	-7.1438
5938	13.287	0.54545	0.1	-8.6463
5939	13.287	0.36364	0.1	-10.305
5940	13.287	0.18182	0.1	-13.529
5941	13.102	5.8182	0.1	-13.129
5942	13.102	5.6364	0.1	-9.8065
5943	13.102	5.4545	0.1	-8.0239
5944	13.102	5.2727	0.1	-6.3993
5945	13.102	5.0909	0.1	-4.8608
5946	13.102	4.9091	0.1	-3.4128
5947	13.102	4.7273	0.1	-2.065
5948	13.102	4.5455	0.1	-0.8335
5949	13.102	4.3636	0.1	-5.0621e-002
5950	13.102	4.1818	0.1	-1.522e-002
5951	13.102	4.	0.1	-1.0005e-002
5952	13.102	3.8182	0.1	-8.0351e-003
5953	13.102	3.6364	0.1	-7.0616e-003
5954	13.102	3.4545	0.1	-6.5283e-003
5955	13.102	3.2727	0.1	-6.2372e-003
5956	13.102	3.0909	0.1	-6.1073e-003
5957	13.102	2.9091	0.1	-6.1073e-003
5958	13.102	2.7273	0.1	-6.2369e-003
5959	13.102	2.5455	0.1	-6.5292e-003
5960	13.102	2.3636	0.1	-7.0611e-003
5961	13.102	2.1818	0.1	-8.0353e-003
5962	13.102	2.	0.1	-1.0005e-002
5963	13.102	1.8182	0.1	-1.522e-002
5964	13.102	1.6364	0.1	-5.0617e-002
5965	13.102	1.4545	0.1	-0.83346
5966	13.102	1.2727	0.1	-2.0649
5967	13.102	1.0909	0.1	-3.4127
5968	13.102	0.90909	0.1	-4.8607
5969	13.102	0.72727	0.1	-6.3993
5970	13.102	0.54545	0.1	-8.0238
5971	13.102	0.36364	0.1	-9.8065
5972	13.102	0.18182	0.1	-13.129
5973	12.917	5.8182	0.1	-12.717
5974	12.917	5.6364	0.1	-9.2863
5975	12.917	5.4545	0.1	-7.3701
5976	12.917	5.2727	0.1	-5.6139
5977	12.917	5.0909	0.1	-3.9481
5978	12.917	4.9091	0.1	-2.3793
5979	12.917	4.7273	0.1	-0.92524
5980	12.917	4.5455	0.1	-4.3218e-002
5981	12.917	4.3636	0.1	-1.4234e-002
5982	12.917	4.1818	0.1	-9.6397e-003
5983	12.917	4.	0.1	-7.8598e-003
5984	12.917	3.8182	0.1	-6.9563e-003
5985	12.917	3.6364	0.1	-6.4407e-003
5986	12.917	3.4545	0.1	-6.1346e-003
5987	12.917	3.2727	0.1	-5.9592e-003
5988	12.917	3.0909	0.1	-5.8789e-003
5989	12.917	2.9091	0.1	-5.8783e-003
5990	12.917	2.7273	0.1	-5.9602e-003
5991	12.917	2.5455	0.1	-6.1354e-003
5992	12.917	2.3636	0.1	-6.4401e-003
5993	12.917	2.1818	0.1	-6.956e-003
5994	12.917	2.	0.1	-7.8604e-003
5995	12.917	1.8182	0.1	-9.6399e-003
5996	12.917	1.6364	0.1	-1.4234e-002
5997	12.917	1.4545	0.1	-4.3216e-002
5998	12.917	1.2727	0.1	-0.92519
5999	12.917	1.0909	0.1	-2.3792
6000	12.917	0.90909	0.1	-3.948
6001	12.917	0.72727	0.1	-5.6138
6002	12.917	0.54545	0.1	-7.37
6003	12.917	0.36364	0.1	-9.2863
6004	12.917	0.18182	0.1	-12.717
6005	12.733	5.8182	0.1	-12.292
6006	12.733	5.6364	0.1	-8.7428
6007	12.733	5.4545	0.1	-6.6823
6008	12.733	5.2727	0.1	-4.7841
6009	12.733	5.0909	0.1	-2.9812
6010	12.733	4.9091	0.1	-1.2857
6011	12.733	4.7273	0.1	-5.7451e-002
6012	12.733	4.5455	0.1	-1.432e-002
6013	12.733	4.3636	0.1	-9.5033e-003
6014	12.733	4.1818	0.1	-7.7417e-003
6015	12.733	4.	0.1	-6.8616e-003
6016	12.733	3.8182	0.1	-6.3538e-003
6017	12.733	3.6364	0.1	-6.0417e-003
6018	12.733	3.4545	0.1	-5.8471e-003
6019	12.733	3.2727	0.1	-5.7317e-003
6020	12.733	3.0909	0.1	-5.6774e-003
6021	12.733	2.9091	0.1	-5.6772e-003
6022	12.733	2.7273	0.1	-5.7314e-003
6023	12.733	2.5455	0.1	-5.8472e-003
6024	12.733	2.3636	0.1	-6.0412e-003
6025	12.733	2.1818	0.1	-6.3547e-003
6026	12.733	2.	0.1	-6.8616e-003
6027	12.733	1.8182	0.1	-7.7424e-003
6028	12.733	1.6364	0.1	-9.5039e-003
6029	12.733	1.4545	0.1	-1.432e-002
6030	12.733	1.2727	0.1	-5.7446e-002
6031	12.733	1.0909	0.1	-1.2856
6032	12.733	0.90909	0.1	-2.9812
6033	12.733	0.72727	0.1	-4.784
6034	12.733	0.54545	0.1	-6.6823
6035	12.733	0.36364	0.1	-8.7428
6036	12.733	0.18182	0.1	-12.292
6037	12.548	5.8182	0.1	-11.853
6038	12.548	5.6364	0.1	-8.174
6039	12.548	5.4545	0.1	-5.9577
6040	12.548	5.2727	0.1	-3.9062
6041	12.548	5.0909	0.1	-1.9565
6042	12.548	4.9091	0.1	-0.20039
6043	12.548	4.7273	0.1	-1.5496e-002
6044	12.548	4.5455	0.1	-9.524e-003
6045	12.548	4.3636	0.1	-7.6437e-003
6046	12.548	4.1818	0.1	-6.7504e-003
6047	12.548	4.	0.1	-6.2441e-003
6048	12.548	3.8182	0.1	-5.9269e-003
6049	12.548	3.6364	0.1	-5.7212e-003
6050	12.548	3.4545	0.1	-5.5872e-003
6051	12.548	3.2727	0.1	-5.5057e-003
6052	12.548	3.0909	0.1	-5.4666e-003
6053	12.548	2.9091	0.1	-5.4664e-003
6054	12.548	2.7273	0.1	-5.5062e-003
6055	12.548	2.5455	0.1	-5.5876e-003
6056	12.548	2.3636	0.1	-5.7208e-003
6057	12.548	2.1818	0.1	-5.9272e-003
6058	12.548	2.	0.1	-6.2439e-003
6059	12.548	1.8182	0.1	-6.7509e-003
6060	12.548	1.6364	0.1	-7.6435e-003
6061	12.548	1.4545	0.1	-9.5241e-003
6062	12.548	1.2727	0.1	-1.5497e-002
6063	12.548	1.0909	0.1	-0.20035
6064	12.548	0.90909	0.1	-1.9564
6065	12.548	0.72727	0.1	-3.9062
6066	12.548	0.54545	0.1	-5.9577
6067	12.548	0.36364	0.1	-8.174
6068	12.548	0.18182	0.1	-11.853
6069	12.363	5.8182	0.1	-11.399
6070	12.363	5.6364	0.1	-7.5778
6071	12.363	5.4545	0.1	-5.1935
6072	12.363	5.2727	0.1	-2.9767
6073	12.363	5.0909	0.1	-0.87518
6074	12.363	4.9091	0.1	-1.9494e-002
6075	12.363	4.7273	0.1	-9.7553e-003
6076	12.363	4.5455	0.1	-7.5748e-003
6077	12.363	4.3636	0.1	-6.6335e-003
6078	12.363	4.1818	0.1	-6.1176e-003
6079	12.363	4.	0.1	-5.7972e-003
6080	12.363	3.8182	0.1	-5.583e-003
6081	12.363	3.6364	0.1	-5.4359e-003
6082	12.363	3.4545	0.1	-5.3368e-003
6083	12.363	3.2727	0.1	-5.2739e-003
6084	12.363	3.0909	0.1	-5.2432e-003
6085	12.363	2.9091	0.1	-5.2435e-003
6086	12.363	2.7273	0.1	-5.2738e-003
6087	12.363	2.5455	0.1	-5.3368e-003
6088	12.363	2.3636	0.1	-5.4352e-003
6089	12.363	2.1818	0.1	-5.5827e-003
6090	12.363	2.	0.1	-5.7979e-003
6091	12.363	1.8182	0.1	-6.119e-003
6092	12.363	1.6364	0.1	-6.6334e-003
6093	12.363	1.4545	0.1	-7.5757e-003
6094	12.363	1.2727	0.1	-9.7559e-003
6095	12.363	1.0909	0.1	-1.9495e-002
6096	12.363	0.90909	0.1	-0.87512
6097	12.363	0.72727	0.1	-2.9767
6098	12.363	0.54545	0.1	-5.1934
6099	12.363	0.36364	0.1	-7.5778
6100	12.363	0.18182	0.1	-11.399
6101	12.179	5.8182	0.1	-10.929
6102	12.179	5.6364	0.1	-6.9526
6103	12.179	5.4545	0.1	-4.387
6104	12.179	5.2727	0.1	-1.9925
6105	12.179	5.0909	0.1	-4.9366e-002
6106	12.179	4.9091	0.1	-1.0499e-002
6107	12.179	4.7273	0.1	-7.6013e-003
6108	12.179	4.5455	0.1	-6.5671e-003
6109	12.179	4.3636	0.1	-6.0337e-003
6110	12.179	4.1818	0.1	-5.7076e-003
6111	12.179	4.	0.1	-5.4871e-003
6112	12.179	3.8182	0.1	-5.3268e-003
6113	12.179	3.6364	0.1	-5.2111e-003
6114	12.179	3.4545	0.1	-5.13e-003
6115	12.179	3.2727	0.1	-5.0776e-003
6116	12.179	3.0909	0.1	-5.0513e-003
6117	12.179	2.9091	0.1	-5.0509e-003
6118	12.179	2.7273	0.1	-5.0781e-003
6119	12.179	2.5455	0.1	-5.1302e-003
6120	12.179	2.3636	0.1	-5.2117e-003
6121	12.179	2.1818	0.1	-5.3276e-003
6122	12.179	2.	0.1	-5.4873e-003
6123	12.179	1.8182	0.1	-5.7073e-003
6124	12.179	1.6364	0.1	-6.0342e-003
6125	12.179	1.4545	0.1	-6.5674e-003
6126	12.179	1.2727	0.1	-7.6015e-003
6127	12.179	1.0909	0.1	-1.05e-002
6128	12.179	0.90909	0.1	-4.936e-002
6129	12.179	0.72727	0.1	-1.9924
6130	12.179	0.54545	0.1	-4.3869
6131	12.179	0.36364	0.1	-6.9526
6132	12.179	0.18182	0.1	-10.929
6133	11.994	5.8182	0.1	-10.44
6134	11.994	5.6364	0.1	-6.2962
6135	11.994	5.4545	0.1	-3.5352
6136	11.994	5.2727	0.1	-0.95261
6137	11.994	5.0909	0.1	-1.2771e-002
6138	11.994	4.9091	0.1	-7.705e-003
6139	11.994	4.7273	0.1	-6.4737e-003
6140	11.994	4.5455	0.1	-5.9186e-003
6141	11.994	4.3636	0.1	-5.5858e-003
6142	11.994	4.1818	0.1	-5.3585e-003
6143	11.994	4.	0.1	-5.1891e-003
6144	11.994	3.8182	0.1	-5.057e-003
6145	11.994	3.6364	0.1	-4.9555e-003
6146	11.994	3.4545	0.1	-4.8804e-003
6147	11.994	3.2727	0.1	-4.8301e-003
6148	11.994	3.0909	0.1	-4.8044e-003
6149	11.994	2.9091	0.1	-4.8049e-003
6150	11.994	2.7273	0.1	-4.8298e-003
6151	11.994	2.5455	0.1	-4.8808e-003
6152	11.994	2.3636	0.1	-4.955e-003
6153	11.994	2.1818	0.1	-5.0574e-003
6154	11.994	2.	0.1	-5.1894e-003
6155	11.994	1.8182	0.1	-5.3589e-003
6156	11.994	1.6364	0.1	-5.5864e-003
6157	11.994	1.4545	0.1	-5.9185e-003
6158	11.994	1.2727	0.1	-6.4746e-003
6159	11.994	1.0909	0.1	-7.7056e-003
6160	11.994	0.90909	0.1	-1.2772e-002
6161	11.994	0.72727	0.1	-0.95255
6162	11.994	0.54545	0.1	-3.5351
6163	11.994	0.36364	0.1	-6.2961
6164	11.994	0.18182	0.1	-10.44
6165	11.809	5.8182	0.1	-9.9335
6166	11.809	5.6364	0.1	-5.607
6167	11.809	5.4545	0.1	-2.6356
6168	11.809	5.2727	0.1	-5.0145e-002
6169	11.809	5.0909	0.1	-8.0429e-003
6170	11.809	4.9091	0.1	-6.4318e-003
6171	11.809	4.7273	0.1	-5.8232e-003
6172	11.809	4.5455	0.1	-5.4928e-003
6173	11.809	4.3636	0.1	-5.2615e-003
6174	11.809	4.1818	0.1	-5.0812e-003
6175	11.809	4.	0.1	-4.933e-003
6176	11.809	3.8182	0.1	-4.808e-003
6177	11.809	3.6364	0.1	-4.7073e-003
6178	11.809	3.4545	0.1	-4.6304e-003
6179	11.809	3.2727	0.1	-4.5769e-003
6180	11.809	3.0909	0.1	-4.5503e-003
6181	11.809	2.9091	0.1	-4.5499e-003
6182	11.809	2.7273	0.1	-4.5777e-003
6183	11.809	2.5455	0.1	-4.6305e-003
6184	11.809	2.3636	0.1	-4.707e-003
6185	11.809	2.1818	0.1	-4.8086e-003
6186	11.809	2.	0.1	-4.9328e-003
6187	11.809	1.8182	0.1	-5.0814e-003
6188	11.809	1.6364	0.1	-5.2621e-003
6189	11.809	1.4545	0.1	-5.4935e-003
6190	11.809	1.2727	0.1	-5.8243e-003
6191	11.809	1.0909	0.1	-6.4316e-003
6192	11.809	0.90909	0.1	-8.0449e-003
6193	11.809	0.72727	0.1	-5.0139e-002
6194	11.809	0.54545	0.1	-2.6356
6195	11.809	0.36364	0.1	-5.607
6196	11.809	0.18182	0.1	-9.9335
6197	11.624	5.8182	0.1	-9.4075
6198	11.624	5.6364	0.1	-4.8837
6199	11.624	5.4545	0.1	-1.6863
6200	11.624	5.2727	0.1	-1.0069e-002
6201	11.624	5.0909	0.1	-6.4324e-003
6202	11.624	4.9091	0.1	-5.8139e-003
6203	11.624	4.7273	0.1	-5.4739e-003
6204	11.624	4.5455	0.1	-5.2499e-003
6205	11.624	4.3636	0.1	-5.0617e-003
6206	11.624	4.1818	0.1	-4.8964e-003
6207	11.624	4.	0.1	-4.7486e-003
6208	11.624	3.8182	0.1	-4.6163e-003
6209	11.624	3.6364	0.1	-4.5048e-003
6210	11.624	3.4545	0.1	-4.4191e-003
6211	11.624	3.2727	0.1	-4.359e-003
6212	11.624	3.0909	0.1	-4.3275e-003
6213	11.624	2.9091	0.1	-4.3279e-003
6214	11.624	2.7273	0.1	-4.359e-003
6215	11.624	2.5455	0.1	-4.4194e-003
6216	11.624	2.3636	0.1	-4.5063e-003
6217	11.624	2.1818	0.1	-4.6169e-003
6218	11.624	2.	0.1	-4.7483e-003
6219	11.624	1.8182	0.1	-4.8964e-003
6220	11.624	1.6364	0.1	-5.0613e-003
6221	11.624	1.4545	0.1	-5.2507e-003
6222	11.624	1.2727	0.1	-5.4743e-003
6223	11.624	1.0909	0.1	-5.8151e-003
6224	11.624	0.90909	0.1	-6.4335e-003
6225	11.624	0.72727	0.1	-1.007e-002
6226	11.624	0.54545	0.1	-1.6862
6227	11.624	0.36364	0.1	-4.8836
6228	11.624	0.18182	0.1	-9.4075
6229	11.44	5.8182	0.1	-8.8614
6230	11.44	5.6364	0.1	-4.1247
6231	11.44	5.4545	0.1	-0.68584
6232	11.44	5.2727	0.1	-6.8553e-003
6233	11.44	5.0909	0.1	-5.747e-003
6234	11.44	4.9091	0.1	-5.4971e-003
6235	11.44	4.7273	0.1	-5.2702e-003
6236	11.44	4.5455	0.1	-5.0861e-003
6237	11.44	4.3636	0.1	-4.9042e-003
6238	11.44	4.1818	0.1	-4.7299e-003
6239	11.44	4.	0.1	-4.5655e-003
6240	11.44	3.8182	0.1	-4.415e-003
6241	11.44	3.6364	0.1	-4.2852e-003
6242	11.44	3.4545	0.1	-4.1823e-003
6243	11.44	3.2727	0.1	-4.111e-003
6244	11.44	3.0909	0.1	-4.0736e-003
6245	11.44	2.9091	0.1	-4.0739e-003
6246	11.44	2.7273	0.1	-4.1108e-003
6247	11.44	2.5455	0.1	-4.1829e-003
6248	11.44	2.3636	0.1	-4.2844e-003
6249	11.44	2.1818	0.1	-4.4154e-003
6250	11.44	2.	0.1	-4.565e-003
6251	11.44	1.8182	0.1	-4.7314e-003
6252	11.44	1.6364	0.1	-4.9048e-003
6253	11.44	1.4545	0.1	-5.0869e-003
6254	11.44	1.2727	0.1	-5.2707e-003
6255	11.44	1.0909	0.1	-5.4982e-003
6256	11.44	0.90909	0.1	-5.7488e-003
6257	11.44	0.72727	0.1	-6.8562e-003
6258	11.44	0.54545	0.1	-0.68581
6259	11.44	0.36364	0.1	-4.1246
6260	11.44	0.18182	0.1	-8.8614
6261	11.255	5.8182	0.1	-8.2949
6262	11.255	5.6364	0.1	-3.3293
6263	11.255	5.4545	0.1	-8.2918e-003
6264	11.255	5.2727	0.1	-6.0297e-003
6265	11.255	5.0909	0.1	-5.4797e-003
6266	11.255	4.9091	0.1	-5.3665e-003
6267	11.255	4.7273	0.1	-5.1701e-003
6268	11.255	4.5455	0.1	-4.9848e-003
6269	11.255	4.3636	0.1	-4.7837e-003
6270	11.255	4.1818	0.1	-4.5835e-003
6271	11.255	4.	0.1	-4.3883e-003
6272	11.255	3.8182	0.1	-4.2067e-003
6273	11.255	3.6364	0.1	-4.0497e-003
6274	11.255	3.4545	0.1	-3.9251e-003
6275	11.255	3.2727	0.1	-3.837e-003
6276	11.255	3.0909	0.1	-3.792e-003
6277	11.255	2.9091	0.1	-3.792e-003
6278	11.255	2.7273	0.1	-3.8377e-003
6279	11.255	2.5455	0.1	-3.925e-003
6280	11.255	2.3636	0.1	-4.0503e-003
6281	11.255	2.1818	0.1	-4.2067e-003
6282	11.255	2.	0.1	-4.3891e-003
6283	11.255	1.8182	0.1	-4.5834e-003
6284	11.255	1.6364	0.1	-4.7848e-003
6285	11.255	1.4545	0.1	-4.9851e-003
6286	11.255	1.2727	0.1	-5.1708e-003
6287	11.255	1.0909	0.1	-5.3677e-003
6288	11.255	0.90909	0.1	-5.4811e-003
6289	11.255	0.72727	0.1	-6.0314e-003
6290	11.255	0.54545	0.1	-8.2928e-003
6291	11.255	0.36364	0.1	-3.3293
6292	11.255	0.18182	0.1	-8.2949
6293	11.07	5.8182	0.1	-7.7079
6294	11.07	5.6364	0.1	-2.4972
6295	11.07	5.4545	0.1	-4.6922e-003
6296	11.07	5.2727	0.1	-5.9003e-003
6297	11.07	5.0909	0.1	-5.4467e-003
6298	11.07	4.9091	0.1	-5.3606e-003
6299	11.07	4.7273	0.1	-5.1483e-003
6300	11.07	4.5455	0.1	-4.9315e-003
6301	11.07	4.3636	0.1	-4.6925e-003
6302	11.07	4.1818	0.1	-4.4484e-003
6303	11.07	4.	0.1	-4.2099e-003
6304	11.07	3.8182	0.1	-3.9878e-003
6305	11.07	3.6364	0.1	-3.7939e-003
6306	11.07	3.4545	0.1	-3.6405e-003
6307	11.07	3.2727	0.1	-3.5326e-003
6308	11.07	3.0909	0.1	-3.4772e-003
6309	11.07	2.9091	0.1	-3.4767e-003
6310	11.07	2.7273	0.1	-3.5322e-003
6311	11.07	2.5455	0.1	-3.6408e-003
6312	11.07	2.3636	0.1	-3.7943e-003
6313	11.07	2.1818	0.1	-3.9878e-003
6314	11.07	2.	0.1	-4.2098e-003
6315	11.07	1.8182	0.1	-4.4488e-003
6316	11.07	1.6364	0.1	-4.6926e-003
6317	11.07	1.4545	0.1	-4.9329e-003
6318	11.07	1.2727	0.1	-5.1483e-003
6319	11.07	1.0909	0.1	-5.3615e-003
6320	11.07	0.90909	0.1	-5.4488e-003
6321	11.07	0.72727	0.1	-5.9015e-003
6322	11.07	0.54545	0.1	-4.6926e-003
6323	11.07	0.36364	0.1	-2.4972
6324	11.07	0.18182	0.1	-7.7079
6325	10.886	5.8182	0.1	-7.1008
6326	10.886	5.6364	0.1	-1.6292
6327	10.886	5.4545	0.1	-4.7773e-003
6328	10.886	5.2727	0.1	-6.1445e-003
6329	10.886	5.0909	0.1	-5.6226e-003
6330	10.886	4.9091	0.1	-5.5073e-003
6331	10.886	4.7273	0.1	-5.245e-003
6332	10.886	4.5455	0.1	-4.9773e-003
6333	10.886	4.3636	0.1	-4.6806e-003
6334	10.886	4.1818	0.1	-4.3797e-003
6335	10.886	4.	0.1	-4.0847e-003
6336	10.886	3.8182	0.1	-3.8105e-003
6337	10.886	3.6364	0.1	-3.5715e-003
6338	10.886	3.4545	0.1	-3.3813e-003
6339	10.886	3.2727	0.1	-3.2487e-003
6340	10.886	3.0909	0.1	-3.1795e-003
6341	10.886	2.9091	0.1	-3.1797e-003
6342	10.886	2.7273	0.1	-3.2487e-003
6343	10.886	2.5455	0.1	-3.3817e-003
6344	10.886	2.3636	0.1	-3.5717e-003
6345	10.886	2.1818	0.1	-3.8105e-003
6346	10.886	2.	0.1	-4.0847e-003
6347	10.886	1.8182	0.1	-4.3797e-003
6348	10.886	1.6364	0.1	-4.6813e-003
6349	10.886	1.4545	0.1	-4.9775e-003
6350	10.886	1.2727	0.1	-5.2459e-003
6351	10.886	1.0909	0.1	-5.5077e-003
6352	10.886	0.90909	0.1	-5.6249e-003
6353	10.886	0.72727	0.1	-6.145e-003
6354	10.886	0.54545	0.1	-4.778e-003
6355	10.886	0.36364	0.1	-1.6292
6356	10.886	0.18182	0.1	-7.1008
6357	10.701	5.8182	0.1	-6.4745
6358	10.701	5.6364	0.1	-0.72897
6359	10.701	5.4545	0.1	-5.3138e-003
6360	10.701	5.2727	0.1	-6.5958e-003
6361	10.701	5.0909	0.1	-5.9358e-003
6362	10.701	4.9091	0.1	-5.7546e-003
6363	10.701	4.7273	0.1	-5.4196e-003
6364	10.701	4.5455	0.1	-5.0816e-003
6365	10.701	4.3636	0.1	-4.7127e-003
6366	10.701	4.1818	0.1	-4.3392e-003
6367	10.701	4.	0.1	-3.9747e-003
6368	10.701	3.8182	0.1	-3.6363e-003
6369	10.701	3.6364	0.1	-3.3425e-003
6370	10.701	3.4545	0.1	-3.1084e-003
6371	10.701	3.2727	0.1	-2.944e-003
6372	10.701	3.0909	0.1	-2.8596e-003
6373	10.701	2.9091	0.1	-2.8594e-003
6374	10.701	2.7273	0.1	-2.9442e-003
6375	10.701	2.5455	0.1	-3.1084e-003
6376	10.701	2.3636	0.1	-3.343e-003
6377	10.701	2.1818	0.1	-3.6366e-003
6378	10.701	2.	0.1	-3.9747e-003
6379	10.701	1.8182	0.1	-4.3394e-003
6380	10.701	1.6364	0.1	-4.713e-003
6381	10.701	1.4545	0.1	-5.0825e-003
6382	10.701	1.2727	0.1	-5.4208e-003
6383	10.701	1.0909	0.1	-5.7552e-003
6384	10.701	0.90909	0.1	-5.9369e-003
6385	10.701	0.72727	0.1	-6.5975e-003
6386	10.701	0.54545	0.1	-5.3141e-003
6387	10.701	0.36364	0.1	-0.72895
6388	10.701	0.18182	0.1	-6.4745
6389	10.516	5.8182	0.1	-5.8307
6390	10.516	5.6364	0.1	-4.4103e-002
6391	10.516	5.4545	0.1	-6.045e-003
6392	10.516	5.2727	0.1	-7.2063e-003
6393	10.516	5.0909	0.1	-6.3687e-003
6394	10.516	4.9091	0.1	-6.1007e-003
6395	10.516	4.7273	0.1	-5.6746e-003
6396	10.516	4.5455	0.1	-5.2494e-003
6397	10.516	4.3636	0.1	-4.7921e-003
6398	10.516	4.1818	0.1	-4.3309e-003
6399	10.516	4.	0.1	-3.8827e-003
6400	10.516	3.8182	0.1	-3.4668e-003
6401	10.516	3.6364	0.1	-3.1063e-003
6402	10.516	3.4545	0.1	-2.819e-003
6403	10.516	3.2727	0.1	-2.6173e-003
6404	10.516	3.0909	0.1	-2.5135e-003
6405	10.516	2.9091	0.1	-2.5145e-003
6406	10.516	2.7273	0.1	-2.6175e-003
6407	10.516	2.5455	0.1	-2.819e-003
6408	10.516	2.3636	0.1	-3.1063e-003
6409	10.516	2.1818	0.1	-3.4673e-003
6410	10.516	2.	0.1	-3.8829e-003
6411	10.516	1.8182	0.1	-4.3311e-003
6412	10.516	1.6364	0.1	-4.7929e-003
6413	10.516	1.4545	0.1	-5.2496e-003
6414	10.516	1.2727	0.1	-5.6753e-003
6415	10.516	1.0909	0.1	-6.101e-003
6416	10.516	0.90909	0.1	-6.3708e-003
6417	10.516	0.72727	0.1	-7.2078e-003
6418	10.516	0.54545	0.1	-6.0455e-003
6419	10.516	0.36364	0.1	-4.4101e-002
6420	10.516	0.18182	0.1	-5.8307
6421	10.331	5.8182	0.1	-5.1722
6422	10.331	5.6364	0.1	-2.7879e-002
6423	10.331	5.4545	0.1	-6.9732e-003
6424	10.331	5.2727	0.1	-8.0124e-003
6425	10.331	5.0909	0.1	-6.9782e-003
6426	10.331	4.9091	0.1	-6.606e-003
6427	10.331	4.7273	0.1	-6.073e-003
6428	10.331	4.5455	0.1	-5.545e-003
6429	10.331	4.3636	0.1	-4.9822e-003
6430	10.331	4.1818	0.1	-4.4178e-003
6431	10.331	4.	0.1	-3.8688e-003
6432	10.331	3.8182	0.1	-3.3616e-003
6433	10.331	3.6364	0.1	-2.9195e-003
6434	10.331	3.4545	0.1	-2.569e-003
6435	10.331	3.2727	0.1	-2.3228e-003
6436	10.331	3.0909	0.1	-2.1964e-003
6437	10.331	2.9091	0.1	-2.1958e-003
6438	10.331	2.7273	0.1	-2.3229e-003
6439	10.331	2.5455	0.1	-2.569e-003
6440	10.331	2.3636	0.1	-2.9204e-003
6441	10.331	2.1818	0.1	-3.3616e-003
6442	10.331	2.	0.1	-3.8692e-003
6443	10.331	1.8182	0.1	-4.4178e-003
6444	10.331	1.6364	0.1	-4.9833e-003
6445	10.331	1.4545	0.1	-5.5456e-003
6446	10.331	1.2727	0.1	-6.0737e-003
6447	10.331	1.0909	0.1	-6.6066e-003
6448	10.331	0.90909	0.1	-6.9804e-003
6449	10.331	0.72727	0.1	-8.0138e-003
6450	10.331	0.54545	0.1	-6.9733e-003
6451	10.331	0.36364	0.1	-2.7879e-002
6452	10.331	0.18182	0.1	-5.1722
6453	10.147	5.8182	0.1	-4.5027
6454	10.147	5.6364	0.1	-2.808e-002
6455	10.147	5.4545	0.1	-8.0021e-003
6456	10.147	5.2727	0.1	-8.9289e-003
6457	10.147	5.0909	0.1	-7.687e-003
6458	10.147	4.9091	0.1	-7.198e-003
6459	10.147	4.7273	0.1	-6.5443e-003
6460	10.147	4.5455	0.1	-5.8971e-003
6461	10.147	4.3636	0.1	-5.2133e-003
6462	10.147	4.1818	0.1	-4.5251e-003
6463	10.147	4.	0.1	-3.8578e-003
6464	10.147	3.8182	0.1	-3.2404e-003
6465	10.147	3.6364	0.1	-2.7039e-003
6466	10.147	3.4545	0.1	-2.2757e-003
6467	10.147	3.2727	0.1	-1.9766e-003
6468	10.147	3.0909	0.1	-1.822e-003
6469	10.147	2.9091	0.1	-1.8221e-003
6470	10.147	2.7273	0.1	-1.9766e-003
6471	10.147	2.5455	0.1	-2.2761e-003
6472	10.147	2.3636	0.1	-2.7039e-003
6473	10.147	2.1818	0.1	-3.2409e-003
6474	10.147	2.	0.1	-3.8584e-003
6475	10.147	1.8182	0.1	-4.526e-003
6476	10.147	1.6364	0.1	-5.2137e-003
6477	10.147	1.4545	0.1	-5.898e-003
6478	10.147	1.2727	0.1	-6.5449e-003
6479	10.147	1.0909	0.1	-7.1985e-003
6480	10.147	0.90909	0.1	-7.6881e-003
6481	10.147	0.72727	0.1	-8.9303e-003
6482	10.147	0.54545	0.1	-8.0027e-003
6483	10.147	0.36364	0.1	-2.8081e-002
6484	10.147	0.18182	0.1	-4.5027
6485	9.9621	5.8182	0.1	-3.8278
6486	9.9621	5.6364	0.1	-2.9822e-002
6487	9.9621	5.4545	0.1	-9.1589e-003
6488	9.9621	5.2727	0.1	-9.9852e-003
6489	9.9621	5.0909	0.1	-8.5314e-003
6490	9.9621	4.9091	0.1	-7.9171e-003
6491	9.9621	4.7273	0.1	-7.1297e-003
6492	9.9621	4.5455	0.1	-6.3472e-003
6493	9.9621	4.3636	0.1	-5.5208e-003
6494	9.9621	4.1818	0.1	-4.6899e-003
6495	9.9621	4.	0.1	-3.8821e-003
6496	9.9621	3.8182	0.1	-3.1341e-003
6497	9.9621	3.6364	0.1	-2.4831e-003
6498	9.9621	3.4545	0.1	-1.9635e-003
6499	9.9621	3.2727	0.1	-1.6003e-003
6500	9.9621	3.0909	0.1	-1.4133e-003
6501	9.9621	2.9091	0.1	-1.4134e-003
6502	9.9621	2.7273	0.1	-1.6007e-003
6503	9.9621	2.5455	0.1	-1.9638e-003
6504	9.9621	2.3636	0.1	-2.4835e-003
6505	9.9621	2.1818	0.1	-3.1342e-003
6506	9.9621	2.	0.1	-3.8829e-003
6507	9.9621	1.8182	0.1	-4.6908e-003
6508	9.9621	1.6364	0.1	-5.5214e-003
6509	9.9621	1.4545	0.1	-6.3483e-003
6510	9.9621	1.2727	0.1	-7.1298e-003
6511	9.9621	1.0909	0.1	-7.9174e-003
6512	9.9621	0.90909	0.1	-8.532e-003
6513	9.9621	0.72727	0.1	-9.9865e-003
6514	9.9621	0.54545	0.1	-9.1597e-003
6515	9.9621	0.36364	0.1	-2.9823e-002
6516	9.9621	0.18182	0.1	-3.8278
6517	9.7774	5.8182	0.1	-3.1556
6518	9.7774	5.6364	0.1	-3.2155e-002
6519	9.7774	5.4545	0.1	-1.0518e-002
6520	9.7774	5.2727	0.1	-1.1257e-002
6521	9.7774	5.0909	0.1	-9.5923e-003
6522	9.7774	4.9091	0.1	-8.846e-003
6523	9.7774	4.7273	0.1	-7.9126e-003
6524	9.7774	4.5455	0.1	-6.9773e-003
6525	9.7774	4.3636	0.1	-5.9869e-003
6526	9.7774	4.1818	0.1	-4.988e-003
6527	9.7774	4.	0.1	-4.0143e-003
6528	9.7774	3.8182	0.1	-3.1107e-003
6529	9.7774	3.6364	0.1	-2.3242e-003
6530	9.7774	3.4545	0.1	-1.6944e-003
6531	9.7774	3.2727	0.1	-1.2541e-003
6532	9.7774	3.0909	0.1	-1.0281e-003
6533	9.7774	2.9091	0.1	-1.0278e-003
6534	9.7774	2.7273	0.1	-1.2545e-003
6535	9.7774	2.5455	0.1	-1.6951e-003
6536	9.7774	2.3636	0.1	-2.3239e-003
6537	9.7774	2.1818	0.1	-3.1113e-003
6538	9.7774	2.	0.1	-4.0145e-003
6539	9.7774	1.8182	0.1	-4.9879e-003
6540	9.7774	1.6364	0.1	-5.9879e-003
6541	9.7774	1.4545	0.1	-6.9776e-003
6542	9.7774	1.2727	0.1	-7.913e-003
6543	9.7774	1.0909	0.1	-8.8468e-003
6544	9.7774	0.90909	0.1	-9.5937e-003
6545	9.7774	0.72727	0.1	-1.1258e-002
6546	9.7774	0.54545	0.1	-1.0518e-002
6547	9.7774	0.36364	0.1	-3.2156e-002
6548	9.7774	0.18182	0.1	-3.1556
6549	9.5927	5.8182	0.1	-2.4976
6550	9.5927	5.6364	0.1	-3.48e-002
6551	9.5927	5.4545	0.1	-1.2069e-002
6552	9.5927	5.2727	0.1	-1.2736e-002
6553	9.5927	5.0909	0.1	-1.087e-002
6554	9.5927	4.9091	0.1	-9.9886e-003
6555	9.5927	4.7273	0.1	-8.8962e-003
6556	9.5927	4.5455	0.1	-7.7874e-003
6557	9.5927	4.3636	0.1	-6.6087e-003
6558	9.5927	4.1818	0.1	-5.4116e-003
6559	9.5927	4.	0.1	-4.242e-003
6560	9.5927	3.8182	0.1	-3.1536e-003
6561	9.5927	3.6364	0.1	-2.2039e-003
6562	9.5927	3.4545	0.1	-1.4435e-003
6563	9.5927	3.2727	0.1	-9.1086e-004
6564	9.5927	3.0909	0.1	-6.3643e-004
6565	9.5927	2.9091	0.1	-6.3673e-004
6566	9.5927	2.7273	0.1	-9.1092e-004
6567	9.5927	2.5455	0.1	-1.4434e-003
6568	9.5927	2.3636	0.1	-2.2042e-003
6569	9.5927	2.1818	0.1	-3.1539e-003
6570	9.5927	2.	0.1	-4.2429e-003
6571	9.5927	1.8182	0.1	-5.4122e-003
6572	9.5927	1.6364	0.1	-6.6088e-003
6573	9.5927	1.4545	0.1	-7.7881e-003
6574	9.5927	1.2727	0.1	-8.8969e-003
6575	9.5927	1.0909	0.1	-9.9887e-003
6576	9.5927	0.90909	0.1	-1.0872e-002
6577	9.5927	0.72727	0.1	-1.2738e-002
6578	9.5927	0.54545	0.1	-1.2069e-002
6579	9.5927	0.36364	0.1	-3.4801e-002
6580	9.5927	0.18182	0.1	-2.4976
6581	9.408	5.8182	0.1	-1.8714
6582	9.408	5.6364	0.1	-3.7651e-002
6583	9.408	5.4545	0.1	-1.3837e-002
6584	9.408	5.2727	0.1	-1.4453e-002
6585	9.408	5.0909	0.1	-1.24e-002
6586	9.408	4.9091	0.1	-1.1381e-002
6587	9.408	4.7273	0.1	-1.0118e-002
6588	9.408	4.5455	0.1	-8.8142e-003
6589	9.408	4.3636	0.1	-7.4163e-003
6590	9.408	4.1818	0.1	-5.9879e-003
6591	9.408	4.	0.1	-4.5851e-003
6592	9.408	3.8182	0.1	-3.2762e-003
6593	9.408	3.6364	0.1	-2.1313e-003
6594	9.408	3.4545	0.1	-1.2126e-003
6595	9.408	3.2727	0.1	-5.6915e-004
6596	9.408	3.0909	0.1	-2.3829e-004
6597	9.408	2.9091	0.1	-2.3758e-004
6598	9.408	2.7273	0.1	-5.6945e-004
6599	9.408	2.5455	0.1	-1.2131e-003
6600	9.408	2.3636	0.1	-2.1313e-003
6601	9.408	2.1818	0.1	-3.2765e-003
6602	9.408	2.	0.1	-4.5855e-003
6603	9.408	1.8182	0.1	-5.9882e-003
6604	9.408	1.6364	0.1	-7.4172e-003
6605	9.408	1.4545	0.1	-8.8149e-003
6606	9.408	1.2727	0.1	-1.0119e-002
6607	9.408	1.0909	0.1	-1.1382e-002
6608	9.408	0.90909	0.1	-1.2402e-002
6609	9.408	0.72727	0.1	-1.4454e-002
6610	9.408	0.54545	0.1	-1.3837e-002
6611	9.408	0.36364	0.1	-3.7651e-002
6612	9.408	0.18182	0.1	-1.8713
6613	9.2232	5.8182	0.1	-1.3057
6614	9.2232	5.6364	0.1	-4.0676e-002
6615	9.2232	5.4545	0.1	-1.5886e-002
6616	9.2232	5.2727	0.1	-1.6474e-002
6617	9.2232	5.0909	0.1	-1.426e-002
6618	9.2232	4.9091	0.1	-1.3106e-002
6619	9.2232	4.7273	0.1	-1.1659e-002
6620	9.2232	4.5455	0.1	-1.0134e-002
6621	9.2232	4.3636	0.1	-8.482e-003
6622	9.2232	4.1818	0.1	-6.7795e-003
6623	9.2232	4.	0.1	-5.0983e-003
6624	9.2232	3.8182	0.1	-3.5251e-003
6625	9.2232	3.6364	0.1	-2.1453e-003
6626	9.2232	3.4545	0.1	-1.037e-003
6627	9.2232	3.2727	0.1	-2.5964e-004
6628	9.2232	3.0909	0.1	1.4029e-004
6629	9.2232	2.9091	0.1	1.4065e-004
6630	9.2232	2.7273	0.1	-2.6054e-004
6631	9.2232	2.5455	0.1	-1.037e-003
6632	9.2232	2.3636	0.1	-2.1456e-003
6633	9.2232	2.1818	0.1	-3.5256e-003
6634	9.2232	2.	0.1	-5.099e-003
6635	9.2232	1.8182	0.1	-6.7792e-003
6636	9.2232	1.6364	0.1	-8.4823e-003
6637	9.2232	1.4545	0.1	-1.0134e-002
6638	9.2232	1.2727	0.1	-1.1659e-002
6639	9.2232	1.0909	0.1	-1.3107e-002
6640	9.2232	0.90909	0.1	-1.4261e-002
6641	9.2232	0.72727	0.1	-1.6475e-002
6642	9.2232	0.54545	0.1	-1.5886e-002
6643	9.2232	0.36364	0.1	-4.0677e-002
6644	9.2232	0.18182	0.1	-1.3056
6645	9.0385	5.8182	0.1	-0.84751
6646	9.0385	5.6364	0.1	-4.3851e-002
6647	9.0385	5.4545	0.1	-1.8281e-002
6648	9.0385	5.2727	0.1	-1.8872e-002
6649	9.0385	5.0909	0.1	-1.6535e-002
6650	9.0385	4.9091	0.1	-1.525e-002
6651	9.0385	4.7273	0.1	-1.3606e-002
6652	9.0385	4.5455	0.1	-1.1828e-002
6653	9.0385	4.3636	0.1	-9.8784e-003
6654	9.0385	4.1818	0.1	-7.8498e-003
6655	9.0385	4.	0.1	-5.8366e-003
6656	9.0385	3.8182	0.1	-3.9452e-003
6657	9.0385	3.6364	0.1	-2.2825e-003
6658	9.0385	3.4545	0.1	-9.4402e-004
6659	9.0385	3.2727	0.1	-4.854e-006
6660	9.0385	3.0909	0.1	4.7883e-004
6661	9.0385	2.9091	0.1	4.7877e-004
6662	9.0385	2.7273	0.1	-4.8538e-006
6663	9.0385	2.5455	0.1	-9.442e-004
6664	9.0385	2.3636	0.1	-2.2827e-003
6665	9.0385	2.1818	0.1	-3.9458e-003
6666	9.0385	2.	0.1	-5.8369e-003
6667	9.0385	1.8182	0.1	-7.8504e-003
6668	9.0385	1.6364	0.1	-9.8783e-003
6669	9.0385	1.4545	0.1	-1.1829e-002
6670	9.0385	1.2727	0.1	-1.3607e-002
6671	9.0385	1.0909	0.1	-1.5251e-002
6672	9.0385	0.90909	0.1	-1.6537e-002
6673	9.0385	0.72727	0.1	-1.8874e-002
6674	9.0385	0.54545	0.1	-1.8282e-002
6675	9.0385	0.36364	0.1	-4.3852e-002
6676	9.0385	0.18182	0.1	-0.84749
6677	8.8538	5.8182	0.1	-0.54546
6678	8.8538	5.6364	0.1	-4.7164e-002
6679	8.8538	5.4545	0.1	-2.1113e-002
6680	8.8538	5.2727	0.1	-2.1747e-002
6681	8.8538	5.0909	0.1	-1.9335e-002
6682	8.8538	4.9091	0.1	-1.7928e-002
6683	8.8538	4.7273	0.1	-1.6069e-002
6684	8.8538	4.5455	0.1	-1.4001e-002
6685	8.8538	4.3636	0.1	-1.1698e-002
6686	8.8538	4.1818	0.1	-9.2807e-003
6687	8.8538	4.	0.1	-6.8667e-003
6688	8.8538	3.8182	0.1	-4.591e-003
6689	8.8538	3.6364	0.1	-2.5852e-003
6690	8.8538	3.4545	0.1	-9.68e-004
6691	8.8538	3.2727	0.1	1.6723e-004
6692	8.8538	3.0909	0.1	7.5277e-004
6693	8.8538	2.9091	0.1	7.5265e-004
6694	8.8538	2.7273	0.1	1.6729e-004
6695	8.8538	2.5455	0.1	-9.6788e-004
6696	8.8538	2.3636	0.1	-2.5852e-003
6697	8.8538	2.1818	0.1	-4.5912e-003
6698	8.8538	2.	0.1	-6.8668e-003
6699	8.8538	1.8182	0.1	-9.2814e-003
6700	8.8538	1.6364	0.1	-1.1699e-002
6701	8.8538	1.4545	0.1	-1.4002e-002
6702	8.8538	1.2727	0.1	-1.607e-002
6703	8.8538	1.0909	0.1	-1.7928e-002
6704	8.8538	0.90909	0.1	-1.9337e-002
6705	8.8538	0.72727	0.1	-2.1748e-002
6706	8.8538	0.54545	0.1	-2.1113e-002
6707	8.8538	0.36364	0.1	-4.7164e-002
6708	8.8538	0.18182	0.1	-0.54545
6709	8.6691	5.8182	0.1	-0.38723
6710	8.6691	5.6364	0.1	-5.0633e-002
6711	8.6691	5.4545	0.1	-2.4512e-002
6712	8.6691	5.2727	0.1	-2.524e-002
6713	8.6691	5.0909	0.1	-2.2822e-002
6714	8.6691	4.9091	0.1	-2.13e-002
6715	8.6691	4.7273	0.1	-1.9206e-002
6716	8.6691	4.5455	0.1	-1.6797e-002
6717	8.6691	4.3636	0.1	-1.4073e-002
6718	8.6691	4.1818	0.1	-1.1185e-002
6719	8.6691	4.	0.1	-8.2842e-003
6720	8.6691	3.8182	0.1	-5.5408e-003
6721	8.6691	3.6364	0.1	-3.1181e-003
6722	8.6691	3.4545	0.1	-1.1619e-003
6723	8.6691	3.2727	0.1	2.1249e-004
6724	8.6691	3.0909	0.1	9.2139e-004
6725	8.6691	2.9091	0.1	9.2109e-004
6726	8.6691	2.7273	0.1	2.125e-004
6727	8.6691	2.5455	0.1	-1.1619e-003
6728	8.6691	2.3636	0.1	-3.1184e-003
6729	8.6691	2.1818	0.1	-5.5414e-003
6730	8.6691	2.	0.1	-8.2849e-003
6731	8.6691	1.8182	0.1	-1.1185e-002
6732	8.6691	1.6364	0.1	-1.4073e-002
6733	8.6691	1.4545	0.1	-1.6798e-002
6734	8.6691	1.2727	0.1	-1.9207e-002
6735	8.6691	1.0909	0.1	-2.1301e-002
6736	8.6691	0.90909	0.1	-2.2823e-002
6737	8.6691	0.72727	0.1	-2.5241e-002
6738	8.6691	0.54545	0.1	-2.4513e-002
6739	8.6691	0.36364	0.1	-5.0634e-002
6740	8.6691	0.18182	0.1	-0.38723
6741	8.4844	5.8182	0.1	-0.31387
6742	8.4844	5.6364	0.1	-5.432e-002
6743	8.4844	5.4545	0.1	-2.8676e-002
6744	8.4844	5.2727	0.1	-2.9558e-002
6745	8.4844	5.0909	0.1	-2.7214e-002
6746	8.4844	4.9091	0.1	-2.5585e-002
6747	8.4844	4.7273	0.1	-2.3223e-002
6748	8.4844	4.5455	0.1	-2.0406e-002
6749	8.4844	4.3636	0.1	-1.717e-002
6750	8.4844	4.1818	0.1	-1.3707e-002
6751	8.4844	4.	0.1	-1.0212e-002
6752	8.4844	3.8182	0.1	-6.8972e-003
6753	8.4844	3.6364	0.1	-3.9641e-003
6754	8.4844	3.4545	0.1	-1.594e-003
6755	8.4844	3.2727	0.1	7.2203e-005
6756	8.4844	3.0909	0.1	9.3121e-004
6757	8.4844	2.9091	0.1	9.3151e-004
6758	8.4844	2.7273	0.1	7.1905e-005
6759	8.4844	2.5455	0.1	-1.5942e-003
6760	8.4844	2.3636	0.1	-3.9647e-003
6761	8.4844	2.1818	0.1	-6.8974e-003
6762	8.4844	2.	0.1	-1.0212e-002
6763	8.4844	1.8182	0.1	-1.3707e-002
6764	8.4844	1.6364	0.1	-1.7171e-002
6765	8.4844	1.4545	0.1	-2.0407e-002
6766	8.4844	1.2727	0.1	-2.3224e-002
6767	8.4844	1.0909	0.1	-2.5586e-002
6768	8.4844	0.90909	0.1	-2.7215e-002
6769	8.4844	0.72727	0.1	-2.956e-002
6770	8.4844	0.54545	0.1	-2.8676e-002
6771	8.4844	0.36364	0.1	-5.4321e-002
6772	8.4844	0.18182	0.1	-0.31387
6773	8.2997	5.8182	0.1	-0.286
6774	8.2997	5.6364	0.1	-5.8388e-002
6775	8.2997	5.4545	0.1	-3.3909e-002
6776	8.2997	5.2727	0.1	-3.5013e-002
6777	8.2997	5.0909	0.1	-3.2834e-002
6778	8.2997	4.9091	0.1	-3.1092e-002
6779	8.2997	4.7273	0.1	-2.8408e-002
6780	8.2997	4.5455	0.1	-2.5087e-002
6781	8.2997	4.3636	0.1	-2.1217e-002
6782	8.2997	4.1818	0.1	-1.7042e-002
6783	8.2997	4.	0.1	-1.2814e-002
6784	8.2997	3.8182	0.1	-8.7951e-003
6785	8.2997	3.6364	0.1	-5.2363e-003
6786	8.2997	3.4545	0.1	-2.3585e-003
6787	8.2997	3.2727	0.1	-3.3511e-004
6788	8.2997	3.0909	0.1	7.0853e-004
6789	8.2997	2.9091	0.1	7.0818e-004
6790	8.2997	2.7273	0.1	-3.3529e-004
6791	8.2997	2.5455	0.1	-2.3585e-003
6792	8.2997	2.3636	0.1	-5.2365e-003
6793	8.2997	2.1818	0.1	-8.7956e-003
6794	8.2997	2.	0.1	-1.2814e-002
6795	8.2997	1.8182	0.1	-1.7043e-002
6796	8.2997	1.6364	0.1	-2.1217e-002
6797	8.2997	1.4545	0.1	-2.5087e-002
6798	8.2997	1.2727	0.1	-2.8409e-002
6799	8.2997	1.0909	0.1	-3.1093e-002
6800	8.2997	0.90909	0.1	-3.2835e-002
6801	8.2997	0.72727	0.1	-3.5014e-002
6802	8.2997	0.54545	0.1	-3.3909e-002
6803	8.2997	0.36364	0.1	-5.8389e-002
6804	8.2997	0.18182	0.1	-0.28599
6805	8.115	5.8182	0.1	-0.29154
6806	8.115	5.6364	0.1	-6.3221e-002
6807	8.115	5.4545	0.1	-4.0719e-002
6808	8.115	5.2727	0.1	-4.2095e-002
6809	8.115	5.0909	0.1	-4.0162e-002
6810	8.115	4.9091	0.1	-3.8269e-002
6811	8.115	4.7273	0.1	-3.5167e-002
6812	8.115	4.5455	0.1	-3.1199e-002
6813	8.115	4.3636	0.1	-2.6526e-002
6814	8.115	4.1818	0.1	-2.1458e-002
6815	8.115	4.	0.1	-1.6314e-002
6816	8.115	3.8182	0.1	-1.1423e-002
6817	8.115	3.6364	0.1	-7.0912e-003
6818	8.115	3.4545	0.1	-3.5886e-003
6819	8.115	3.2727	0.1	-1.1274e-003
6820	8.115	3.0909	0.1	1.4173e-004
6821	8.115	2.9091	0.1	1.4179e-004
6822	8.115	2.7273	0.1	-1.1277e-003
6823	8.115	2.5455	0.1	-3.5887e-003
6824	8.115	2.3636	0.1	-7.0914e-003
6825	8.115	2.1818	0.1	-1.1423e-002
6826	8.115	2.	0.1	-1.6315e-002
6827	8.115	1.8182	0.1	-2.1458e-002
6828	8.115	1.6364	0.1	-2.6526e-002
6829	8.115	1.4545	0.1	-3.12e-002
6830	8.115	1.2727	0.1	-3.5167e-002
6831	8.115	1.0909	0.1	-3.8269e-002
6832	8.115	0.90909	0.1	-4.0163e-002
6833	8.115	0.72727	0.1	-4.2096e-002
6834	8.115	0.54545	0.1	-4.0719e-002
6835	8.115	0.36364	0.1	-6.3223e-002
6836	8.115	0.18182	0.1	-0.29154
6837	7.9303	5.8182	0.1	-0.34364
6838	7.9303	5.6364	0.1	-6.9708e-002
6839	7.9303	5.4545	0.1	-4.9991e-002
6840	7.9303	5.2727	0.1	-5.16e-002
6841	7.9303	5.0909	0.1	-4.9931e-002
6842	7.9303	4.9091	0.1	-4.7802e-002
6843	7.9303	4.7273	0.1	-4.4069e-002
6844	7.9303	4.5455	0.1	-3.9232e-002
6845	7.9303	4.3636	0.1	-3.3512e-002
6846	7.9303	4.1818	0.1	-2.7303e-002
6847	7.9303	4.	0.1	-2.1006e-002
6848	7.9303	3.8182	0.1	-1.5023e-002
6849	7.9303	3.6364	0.1	-9.7321e-003
6850	7.9303	3.4545	0.1	-5.4589e-003
6851	7.9303	3.2727	0.1	-2.4588e-003
6852	7.9303	3.0909	0.1	-9.1296e-004
6853	7.9303	2.9091	0.1	-9.1266e-004
6854	7.9303	2.7273	0.1	-2.4591e-003
6855	7.9303	2.5455	0.1	-5.4589e-003
6856	7.9303	2.3636	0.1	-9.7326e-003
6857	7.9303	2.1818	0.1	-1.5024e-002
6858	7.9303	2.	0.1	-2.1006e-002
6859	7.9303	1.8182	0.1	-2.7304e-002
6860	7.9303	1.6364	0.1	-3.3513e-002
6861	7.9303	1.4545	0.1	-3.9233e-002
6862	7.9303	1.2727	0.1	-4.4069e-002
6863	7.9303	1.0909	0.1	-4.7802e-002
6864	7.9303	0.90909	0.1	-4.9932e-002
6865	7.9303	0.72727	0.1	-5.1601e-002
6866	7.9303	0.54545	0.1	-4.9991e-002
6867	7.9303	0.36364	0.1	-6.971e-002
6868	7.9303	0.18182	0.1	-0.34364
6869	7.7456	5.8182	0.1	-0.51996
6870	7.7456	5.6364	0.1	-8.0095e-002
6871	7.7456	5.4545	0.1	-6.3412e-002
6872	7.7456	5.2727	0.1	-6.4897e-002
6873	7.7456	5.0909	0.1	-6.3298e-002
6874	7.7456	4.9091	0.1	-6.0553e-002
6875	7.7456	4.7273	0.1	-5.5926e-002
6876	7.7456	4.5455	0.1	-4.9864e-002
6877	7.7456	4.3636	0.1	-4.2739e-002
6878	7.7456	4.1818	0.1	-3.5042e-002
6879	7.7456	4.	0.1	-2.727e-002
6880	7.7456	3.8182	0.1	-1.9913e-002
6881	7.7456	3.6364	0.1	-1.3425e-002
6882	7.7456	3.4545	0.1	-8.1968e-003
6883	7.7456	3.2727	0.1	-4.5332e-003
6884	7.7456	3.0909	0.1	-2.6478e-003
6885	7.7456	2.9091	0.1	-2.6481e-003
6886	7.7456	2.7273	0.1	-4.5338e-003
6887	7.7456	2.5455	0.1	-8.1973e-003
6888	7.7456	2.3636	0.1	-1.3425e-002
6889	7.7456	2.1818	0.1	-1.9913e-002
6890	7.7456	2.	0.1	-2.727e-002
6891	7.7456	1.8182	0.1	-3.5042e-002
6892	7.7456	1.6364	0.1	-4.274e-002
6893	7.7456	1.4545	0.1	-4.9865e-002
6894	7.7456	1.2727	0.1	-5.5926e-002
6895	7.7456	1.0909	0.1	-6.0555e-002
6896	7.7456	0.90909	0.1	-6.33e-002
6897	7.7456	0.72727	0.1	-6.4898e-002
6898	7.7456	0.54545	0.1	-6.3411e-002
6899	7.7456	0.36364	0.1	-8.0096e-002
6900	7.7456	0.18182	0.1	-0.51996
6901	7.5609	5.8182	0.1	-1.0904
6902	7.5609	5.6364	0.1	-0.10114
6903	7.5609	5.4545	0.1	-8.4618e-002
6904	7.5609	5.2727	0.1	-8.4556e-002
6905	7.5609	5.0909	0.1	-8.2207e-002
6906	7.5609	4.9091	0.1	-7.8145e-002
6907	7.5609	4.7273	0.1	-7.194e-002
6908	7.5609	4.5455	0.1	-6.4058e-002
6909	7.5609	4.3636	0.1	-5.4987e-002
6910	7.5609	4.1818	0.1	-4.531e-002
6911	7.5609	4.	0.1	-3.5628e-002
6912	7.5609	3.8182	0.1	-2.6523e-002
6913	7.5609	3.6364	0.1	-1.8534e-002
6914	7.5609	3.4545	0.1	-1.2121e-002
6915	7.5609	3.2727	0.1	-7.6395e-003
6916	7.5609	3.0909	0.1	-5.3366e-003
6917	7.5609	2.9091	0.1	-5.3366e-003
6918	7.5609	2.7273	0.1	-7.6396e-003
6919	7.5609	2.5455	0.1	-1.2121e-002
6920	7.5609	2.3636	0.1	-1.8534e-002
6921	7.5609	2.1818	0.1	-2.6523e-002
6922	7.5609	2.	0.1	-3.5628e-002
6923	7.5609	1.8182	0.1	-4.5311e-002
6924	7.5609	1.6364	0.1	-5.4987e-002
6925	7.5609	1.4545	0.1	-6.406e-002
6926	7.5609	1.2727	0.1	-7.194e-002
6927	7.5609	1.0909	0.1	-7.8146e-002
6928	7.5609	0.90909	0.1	-8.2208e-002
6929	7.5609	0.72727	0.1	-8.4557e-002
6930	7.5609	0.54545	0.1	-8.4618e-002
6931	7.5609	0.36364	0.1	-0.10115
6932	7.5609	0.18182	0.1	-1.0904
6933	7.3761	5.8182	0.1	-2.3111
6934	7.3761	5.6364	0.1	-0.16223
6935	7.3761	5.4545	0.1	-0.1229
6936	7.3761	5.2727	0.1	-0.11572
6937	7.3761	5.0909	0.1	-0.11008
6938	7.3761	4.9091	0.1	-0.10297
6939	7.3761	4.7273	0.1	-9.3915e-002
6940	7.3761	4.5455	0.1	-8.3201e-002
6941	7.3761	4.3636	0.1	-7.134e-002
6942	7.3761	4.1818	0.1	-5.8971e-002
6943	7.3761	4.	0.1	-4.6775e-002
6944	7.3761	3.8182	0.1	-3.5425e-002
6945	7.3761	3.6364	0.1	-2.5543e-002
6946	7.3761	3.4545	0.1	-1.7657e-002
6947	7.3761	3.2727	0.1	-1.217e-002
6948	7.3761	3.0909	0.1	-9.3577e-003
6949	7.3761	2.9091	0.1	-9.3578e-003
6950	7.3761	2.7273	0.1	-1.217e-002
6951	7.3761	2.5455	0.1	-1.7657e-002
6952	7.3761	2.3636	0.1	-2.5544e-002
6953	7.3761	2.1818	0.1	-3.5426e-002
6954	7.3761	2.	0.1	-4.6775e-002
6955	7.3761	1.8182	0.1	-5.8971e-002
6956	7.3761	1.6364	0.1	-7.134e-002
6957	7.3761	1.4545	0.1	-8.3202e-002
6958	7.3761	1.2727	0.1	-9.3916e-002
6959	7.3761	1.0909	0.1	-0.10297
6960	7.3761	0.90909	0.1	-0.11008
6961	7.3761	0.72727	0.1	-0.11572
6962	7.3761	0.54545	0.1	-0.1229
6963	7.3761	0.36364	0.1	-0.16223
6964	7.3761	0.18182	0.1	-2.3111
6965	7.1914	5.8182	0.1	-4.1713
6966	7.1914	5.6364	0.1	-0.59536
6967	7.1914	5.4545	0.1	-0.21001
6968	7.1914	5.2727	0.1	-0.17052
6969	7.1914	5.0909	0.1	-0.15339
6970	7.1914	4.9091	0.1	-0.13907
6971	7.1914	4.7273	0.1	-0.12462
6972	7.1914	4.5455	0.1	-0.1093
6973	7.1914	4.3636	0.1	-9.3313e-002
6974	7.1914	4.1818	0.1	-7.7195e-002
6975	7.1914	4.	0.1	-6.1624e-002
6976	7.1914	3.8182	0.1	-4.7379e-002
6977	7.1914	3.6364	0.1	-3.5099e-002
6978	7.1914	3.4545	0.1	-2.5381e-002
6979	7.1914	3.2727	0.1	-1.866e-002
6980	7.1914	3.0909	0.1	-1.5229e-002
6981	7.1914	2.9091	0.1	-1.5229e-002
6982	7.1914	2.7273	0.1	-1.866e-002
6983	7.1914	2.5455	0.1	-2.5381e-002
6984	7.1914	2.3636	0.1	-3.5099e-002
6985	7.1914	2.1818	0.1	-4.738e-002
6986	7.1914	2.	0.1	-6.1624e-002
6987	7.1914	1.8182	0.1	-7.7195e-002
6988	7.1914	1.6364	0.1	-9.3314e-002
6989	7.1914	1.4545	0.1	-0.1093
6990	7.1914	1.2727	0.1	-0.12463
6991	7.1914	1.0909	0.1	-0.13907
6992	7.1914	0.90909	0.1	-0.15339
6993	7.1914	0.72727	0.1	-0.17052
6994	7.1914	0.54545	0.1	-0.21001
6995	7.1914	0.36364	0.1	-0.59536
6996	7.1914	0.18182	0.1	-4.1713
6997	7.0067	5.8182	0.1	-6.7037
6998	7.0067	5.6364	0.1	-4.0447
6999	7.0067	5.4545	0.1	-0.54559
7000	7.0067	5.2727	0.1	-0.28359
7001	7.0067	5.0909	0.1	-0.22569
7002	7.0067	4.9091	0.1	-0.19359
7003	7.0067	4.7273	0.1	-0.16847
7004	7.0067	4.5455	0.1	-0.14535
7005	7.0067	4.3636	0.1	-0.12306
7006	7.0067	4.1818	0.1	-0.1016
7007	7.0067	4.	0.1	-8.1483e-002
7008	7.0067	3.8182	0.1	-6.3403e-002
7009	7.0067	3.6364	0.1	-4.8068e-002
7010	7.0067	3.4545	0.1	-3.6073e-002
7011	7.0067	3.2727	0.1	-2.7851e-002
7012	7.0067	3.0909	0.1	-2.3677e-002
7013	7.0067	2.9091	0.1	-2.3677e-002
7014	7.0067	2.7273	0.1	-2.7852e-002
7015	7.0067	2.5455	0.1	-3.6073e-002
7016	7.0067	2.3636	0.1	-4.8068e-002
7017	7.0067	2.1818	0.1	-6.3403e-002
7018	7.0067	2.	0.1	-8.1483e-002
7019	7.0067	1.8182	0.1	-0.1016
7020	7.0067	1.6364	0.1	-0.12306
7021	7.0067	1.4545	0.1	-0.14535
7022	7.0067	1.2727	0.1	-0.16847
7023	7.0067	1.0909	0.1	-0.19359
7024	7.0067	0.90909	0.1	-0.22569
7025	7.0067	0.72727	0.1	-0.28359
7026	7.0067	0.54545	0.1	-0.54559
7027	7.0067	0.36364	0.1	-4.0447
7028	7.0067	0.18182	0.1	-6.7037
7029	6.822	5.8182	0.1	-9.9977
7030	6.822	5.6364	0.1	-9.6471
7031	6.822	5.4545	0.1	-3.7784
7032	6.822	5.2727	0.1	-0.59977
7033	6.822	5.0909	0.1	-0.35952
7034	6.822	4.9091	0.1	-0.27995
7035	6.822	4.7273	0.1	-0.23272
7036	6.822	4.5455	0.1	-0.19589
7037	6.822	4.3636	0.1	-0.1637
7038	6.822	4.1818	0.1	-0.13444
7039	6.822	4.	0.1	-0.108
7040	6.822	3.8182	0.1	-8.4844e-002
7041	6.822	3.6364	0.1	-6.5597e-002
7042	6.822	3.4545	0.1	-5.0783e-002
7043	6.822	3.2727	0.1	-4.0757e-002
7044	6.822	3.0909	0.1	-3.5706e-002
7045	6.822	2.9091	0.1	-3.5706e-002
7046	6.822	2.7273	0.1	-4.0757e-002
7047	6.822	2.5455	0.1	-5.0783e-002
7048	6.822	2.3636	0.1	-6.5597e-002
7049	6.822	2.1818	0.1	-8.4845e-002
7050	6.822	2.	0.1	-0.108
7051	6.822	1.8182	0.1	-0.13444
7052	6.822	1.6364	0.1	-0.1637
7053	6.822	1.4545	0.1	-0.19589
7054	6.822	1.2727	0.1	-0.23272
7055	6.822	1.0909	0.1	-0.27995
7056	6.822	0.90909	0.1	-0.35952
7057	6.822	0.72727	0.1	-0.59978
7058	6.822	0.54545	0.1	-3.7784
7059	6.822	0.36364	0.1	-9.6471
7060	6.822	0.18182	0.1	-9.9977
7061	6.6373	5.8182	0.1	-14.164
7062	6.6373	5.6364	0.1	-16.735
7063	6.6373	5.4545	0.1	-11.997
7064	6.6373	5.2727	0.1	-2.375
7065	6.6373	5.0909	0.1	-0.65303
7066	6.6373	4.9091	0.1	-0.42596
7067	6.6373	4.7273	0.1	-0.32992
7068	6.6373	4.5455	0.1	-0.26805
7069	6.6373	4.3636	0.1	-0.21978
7070	6.6373	4.1818	0.1	-0.17885
7071	6.6373	4.	0.1	-0.14348
7072	6.6373	3.8182	0.1	-0.1135
7073	6.6373	3.6364	0.1	-8.9207e-002
7074	6.6373	3.4545	0.1	-7.0923e-002
7075	6.6373	3.2727	0.1	-5.8769e-002
7076	6.6373	3.0909	0.1	-5.2721e-002
7077	6.6373	2.9091	0.1	-5.2721e-002
7078	6.6373	2.7273	0.1	-5.8769e-002
7079	6.6373	2.5455	0.1	-7.0924e-002
7080	6.6373	2.3636	0.1	-8.9207e-002
7081	6.6373	2.1818	0.1	-0.1135
7082	6.6373	2.	0.1	-0.14348
7083	6.6373	1.8182	0.1	-0.17885
7084	6.6373	1.6364	0.1	-0.21978
7085	6.6373	1.4545	0.1	-0.26805
7086	6.6373	1.2727	0.1	-0.32992
7087	6.6373	1.0909	0.1	-0.42596
7088	6.6373	0.90909	0.1	-0.65304
7089	6.6373	0.72727	0.1	-2.375
7090	6.6373	0.54545	0.1	-11.997
7091	6.6373	0.36364	0.1	-16.735
7092	6.6373	0.18182	0.1	-14.164
7093	6.4526	5.8182	0.1	-19.321
7094	6.4526	5.6364	0.1	-25.412
7095	6.4526	5.4545	0.1	-22.586
7096	6.4526	5.2727	0.1	-10.979
7097	6.4526	5.0909	0.1	-1.5457
7098	6.4526	4.9091	0.1	-0.69756
7099	6.4526	4.7273	0.1	-0.48339
7100	6.4526	4.5455	0.1	-0.37352
7101	6.4526	4.3636	0.1	-0.2983
7102	6.4526	4.1818	0.1	-0.23943
7103	6.4526	4.	0.1	-0.19115
7104	6.4526	3.8182	0.1	-0.15178
7105	6.4526	3.6364	0.1	-0.12094
7106	6.4526	3.4545	0.1	-9.8422e-002
7107	6.4526	3.2727	0.1	-8.3842e-002
7108	6.4526	3.0909	0.1	-7.672e-002
7109	6.4526	2.9091	0.1	-7.672e-002
7110	6.4526	2.7273	0.1	-8.3842e-002
7111	6.4526	2.5455	0.1	-9.8423e-002
7112	6.4526	2.3636	0.1	-0.12094
7113	6.4526	2.1818	0.1	-0.15179
7114	6.4526	2.	0.1	-0.19115
7115	6.4526	1.8182	0.1	-0.23943
7116	6.4526	1.6364	0.1	-0.2983
7117	6.4526	1.4545	0.1	-0.37352
7118	6.4526	1.2727	0.1	-0.48339
7119	6.4526	1.0909	0.1	-0.69756
7120	6.4526	0.90909	0.1	-1.5457
7121	6.4526	0.72727	0.1	-10.979
7122	6.4526	0.54545	0.1	-22.586
7123	6.4526	0.36364	0.1	-25.412
7124	6.4526	0.18182	0.1	-19.321
7125	6.2679	5.8182	0.1	-25.585
7126	6.2679	5.6364	0.1	-35.79
7127	6.2679	5.4545	0.1	-35.394
7128	6.2679	5.2727	0.1	-24.242
7129	6.2679	5.0909	0.1	-6.1136
7130	6.2679	4.9091	0.1	-1.2885
7131	6.2679	4.7273	0.1	-0.74062
7132	6.2679	4.5455	0.1	-0.53258
7133	6.2679	4.3636	0.1	-0.41033
7134	6.2679	4.1818	0.1	-0.32297
7135	6.2679	4.	0.1	-0.25549
7136	6.2679	3.8182	0.1	-0.20294
7137	6.2679	3.6364	0.1	-0.16349
7138	6.2679	3.4545	0.1	-0.13586
7139	6.2679	3.2727	0.1	-0.11867
7140	6.2679	3.0909	0.1	-0.11051
7141	6.2679	2.9091	0.1	-0.11051
7142	6.2679	2.7273	0.1	-0.11867
7143	6.2679	2.5455	0.1	-0.13586
7144	6.2679	2.3636	0.1	-0.16349
7145	6.2679	2.1818	0.1	-0.20294
7146	6.2679	2.	0.1	-0.25549
7147	6.2679	1.8182	0.1	-0.32297
7148	6.2679	1.6364	0.1	-0.41033
7149	6.2679	1.4545	0.1	-0.53258
7150	6.2679	1.2727	0.1	-0.74062
7151	6.2679	1.0909	0.1	-1.2885
7152	6.2679	0.90909	0.1	-6.1137
7153	6.2679	0.72727	0.1	-24.242
7154	6.2679	0.54545	0.1	-35.394
7155	6.2679	0.36364	0.1	-35.79
7156	6.2679	0.18182	0.1	-25.585
7157	6.0832	5.8182	0.1	-33.053
7158	6.0832	5.6364	0.1	-47.925
7159	6.0832	5.4545	0.1	-50.475
7160	6.0832	5.2727	0.1	-40.491
7161	6.0832	5.0909	0.1	-19.59
7162	6.0832	4.9091	0.1	-3.0055
7163	6.0832	4.7273	0.1	-1.2135
7164	6.0832	4.5455	0.1	-0.78365
7165	6.0832	4.3636	0.1	-0.57461
7166	6.0832	4.1818	0.1	-0.44018
7167	6.0832	4.	0.1	-0.34315
7168	6.0832	3.8182	0.1	-0.27149
7169	6.0832	3.6364	0.1	-0.22042
7170	6.0832	3.4545	0.1	-0.18669
7171	6.0832	3.2727	0.1	-0.16695
7172	6.0832	3.0909	0.1	-0.15804
7173	6.0832	2.9091	0.1	-0.15804
7174	6.0832	2.7273	0.1	-0.16695
7175	6.0832	2.5455	0.1	-0.18669
7176	6.0832	2.3636	0.1	-0.22042
7177	6.0832	2.1818	0.1	-0.27149
7178	6.0832	2.	0.1	-0.34315
7179	6.0832	1.8182	0.1	-0.44018
7180	6.0832	1.6364	0.1	-0.57462
7181	6.0832	1.4545	0.1	-0.78365
7182	6.0832	1.2727	0.1	-1.2135
7183	6.0832	1.0909	0.1	-3.0055
7184	6.0832	0.90909	0.1	-19.59
7185	6.0832	0.72727	0.1	-40.491
7186	6.0832	0.54545	0.1	-50.475
7187	6.0832	0.36364	0.1	-47.925
7188	6.0832	0.18182	0.1	-33.053
7189	5.8985	5.8182	0.1	-41.783
7190	5.8985	5.6364	0.1	-61.759
7191	5.8985	5.4545	0.1	-67.808
7192	5.8985	5.2727	0.1	-59.684
7193	5.8985	5.0909	0.1	-38.57
7194	5.8985	4.9091	0.1	-10.242
7195	5.8985	4.7273	0.1	-2.2324
7196	5.8985	4.5455	0.1	-1.209
7197	5.8985	4.3636	0.1	-0.8256
7198	5.8985	4.1818	0.1	-0.60867
7199	5.8985	4.	0.1	-0.46378
7200	5.8985	3.8182	0.1	-0.36327
7201	5.8985	3.6364	0.1	-0.2963
7202	5.8985	3.4545	0.1	-0.25546
7203	5.8985	3.2727	0.1	-0.23374
7204	5.8985	3.0909	0.1	-0.22482
7205	5.8985	2.9091	0.1	-0.22482
7206	5.8985	2.7273	0.1	-0.23374
7207	5.8985	2.5455	0.1	-0.25546
7208	5.8985	2.3636	0.1	-0.2963
7209	5.8985	2.1818	0.1	-0.36328
7210	5.8985	2.	0.1	-0.46378
7211	5.8985	1.8182	0.1	-0.60867
7212	5.8985	1.6364	0.1	-0.82561
7213	5.8985	1.4545	0.1	-1.209
7214	5.8985	1.2727	0.1	-2.2324
7215	5.8985	1.0909	0.1	-10.242
7216	5.8985	0.90909	0.1	-38.57
7217	5.8985	0.72727	0.1	-59.684
7218	5.8985	0.54545	0.1	-67.808
7219	5.8985	0.36364	0.1	-61.759
7220	5.8985	0.18182	0.1	-41.783
7221	5.7138	5.8182	0.1	-51.755
7222	5.7138	5.6364	0.1	-77.06
7223	5.7138	5.4545	0.1	-87.211
7224	5.7138	5.2727	0.1	-81.89
7225	5.7138	5.0909	0.1	-62.025
7226	5.7138	4.9091	0.1	-29.639
7227	5.7138	4.7273	0.1	-5.2166
7228	5.7138	4.5455	0.1	-2.023
7229	5.7138	4.3636	0.1	-1.2362
7230	5.7138	4.1818	0.1	-0.86216
7231	5.7138	4.	0.1	-0.63556
7232	5.7138	3.8182	0.1	-0.48876
7233	5.7138	3.6364	0.1	-0.39766
7234	5.7138	3.4545	0.1	-0.34806
7235	5.7138	3.2727	0.1	-0.32578
7236	5.7138	3.0909	0.1	-0.31829
7237	5.7138	2.9091	0.1	-0.31829
7238	5.7138	2.7273	0.1	-0.32578
7239	5.7138	2.5455	0.1	-0.34807
7240	5.7138	2.3636	0.1	-0.39766
7241	5.7138	2.1818	0.1	-0.48876
7242	5.7138	2.	0.1	-0.63557
7243	5.7138	1.8182	0.1	-0.86216
7244	5.7138	1.6364	0.1	-1.2362
7245	5.7138	1.4545	0.1	-2.023
7246	5.7138	1.2727	0.1	-5.2166
7247	5.7138	1.0909	0.1	-29.64
7248	5.7138	0.90909	0.1	-62.026
7249	5.7138	0.72727	0.1	-81.891
7250	5.7138	0.54545	0.1	-87.211
7251	5.7138	0.36364	0.1	-77.06
7252	5.7138	0.18182	0.1	-51.755
7253	5.5291	5.8182	0.1	-62.824
7254	5.5291	5.6364	0.1	-93.34
7255	5.5291	5.4545	0.1	-108.28
7256	5.5291	5.2727	0.1	-107.16
7257	5.5291	5.0909	0.1	-90.522
7258	5.5291	4.9091	0.1	-58.783
7259	5.5291	4.7273	0.1	-18.222
7260	5.5291	4.5455	0.1	-3.9926
7261	5.5291	4.3636	0.1	-1.987
7262	5.5291	4.1818	0.1	-1.2663
7263	5.5291	4.	0.1	-0.88234
7264	5.5291	3.8182	0.1	-0.65633
7265	5.5291	3.6364	0.1	-0.53145
7266	5.5291	3.4545	0.1	-0.47215
7267	5.5291	3.2727	0.1	-0.45164
7268	5.5291	3.0909	0.1	-0.44796
7269	5.5291	2.9091	0.1	-0.44796
7270	5.5291	2.7273	0.1	-0.45164
7271	5.5291	2.5455	0.1	-0.47215
7272	5.5291	2.3636	0.1	-0.53145
7273	5.5291	2.1818	0.1	-0.65633
7274	5.5291	2.	0.1	-0.88234
7275	5.5291	1.8182	0.1	-1.2663
7276	5.5291	1.6364	0.1	-1.987
7277	5.5291	1.4545	0.1	-3.9926
7278	5.5291	1.2727	0.1	-18.222
7279	5.5291	1.0909	0.1	-58.783
7280	5.5291	0.90909	0.1	-90.522
7281	5.5291	0.72727	0.1	-107.16
7282	5.5291	0.54545	0.1	-108.28
7283	5.5291	0.36364	0.1	-93.34
7284	5.5291	0.18182	0.1	-62.824
7285	5.3443	5.8182	0.1	-74.651
7286	5.3443	5.6364	0.1	-109.77
7287	5.3443	5.4545	0.1	-130.36
7288	5.3443	5.2727	0.1	-135.59
7289	5.3443	5.0909	0.1	-125.29
7290	5.3443	4.9091	0.1	-98.218
7291	5.3443	4.7273	0.1	-54.289
7292	5.3443	4.5455	0.1	-11.967
7293	5.3443	4.3636	0.1	-3.7098
7294	5.3443	4.1818	0.1	-2.0065
7295	5.3443	4.	0.1	-1.2926
7296	5.3443	3.8182	0.1	-0.91438
7297	5.3443	3.6364	0.1	-0.71401
7298	5.3443	3.4545	0.1	-0.63588
7299	5.3443	3.2727	0.1	-0.62111
7300	5.3443	3.0909	0.1	-0.62431
7301	5.3443	2.9091	0.1	-0.62431
7302	5.3443	2.7273	0.1	-0.62112
7303	5.3443	2.5455	0.1	-0.63588
7304	5.3443	2.3636	0.1	-0.71401
7305	5.3443	2.1818	0.1	-0.91439
7306	5.3443	2.	0.1	-1.2926
7307	5.3443	1.8182	0.1	-2.0065
7308	5.3443	1.6364	0.1	-3.7098
7309	5.3443	1.4545	0.1	-11.967
7310	5.3443	1.2727	0.1	-54.289
7311	5.3443	1.0909	0.1	-98.218
7312	5.3443	0.90909	0.1	-125.29
7313	5.3443	0.72727	0.1	-135.59
7314	5.3443	0.54545	0.1	-130.36
7315	5.3443	0.36364	0.1	-109.77
7316	5.3443	0.18182	0.1	-74.651
7317	5.1596	5.8182	0.1	-86.618
7318	5.1596	5.6364	0.1	-125.1
7319	5.1596	5.4545	0.1	-152.53
7320	5.1596	5.2727	0.1	-167.44
7321	5.1596	5.0909	0.1	-168.49
7322	5.1596	4.9091	0.1	-152.
7323	5.1596	4.7273	0.1	-113.83
7324	5.1596	4.5455	0.1	-54.215
7325	5.1596	4.3636	0.1	-10.217
7326	5.1596	4.1818	0.1	-3.628
7327	5.1596	4.	0.1	-1.922
7328	5.1596	3.8182	0.1	-1.2126
7329	5.1596	3.6364	0.1	-0.94791
7330	5.1596	3.4545	0.1	-0.8568
7331	5.1596	3.2727	0.1	-0.84271
7332	5.1596	3.0909	0.1	-0.85422
7333	5.1596	2.9091	0.1	-0.85422
7334	5.1596	2.7273	0.1	-0.84272
7335	5.1596	2.5455	0.1	-0.8568
7336	5.1596	2.3636	0.1	-0.94792
7337	5.1596	2.1818	0.1	-1.2126
7338	5.1596	2.	0.1	-1.922
7339	5.1596	1.8182	0.1	-3.628
7340	5.1596	1.6364	0.1	-10.217
7341	5.1596	1.4545	0.1	-54.215
7342	5.1596	1.2727	0.1	-113.83
7343	5.1596	1.0909	0.1	-152.
7344	5.1596	0.90909	0.1	-168.49
7345	5.1596	0.72727	0.1	-167.44
7346	5.1596	0.54545	0.1	-152.53
7347	5.1596	0.36364	0.1	-125.1
7348	5.1596	0.18182	0.1	-86.618
7349	4.9749	5.8182	0.1	-97.757
7350	4.9749	5.6364	0.1	-137.73
7351	4.9749	5.4545	0.1	-173.9
7352	4.9749	5.2727	0.1	-203.7
7353	4.9749	5.0909	0.1	-223.89
7354	4.9749	4.9091	0.1	-227.33
7355	4.9749	4.7273	0.1	-204.81
7356	4.9749	4.5455	0.1	-148.59
7357	4.9749	4.3636	0.1	-61.857
7358	4.9749	4.1818	0.1	-9.8751
7359	4.9749	4.	0.1	-3.6875
7360	4.9749	3.8182	0.1	-2.0805
7361	4.9749	3.6364	0.1	-1.3065
7362	4.9749	3.4545	0.1	-1.1153
7363	4.9749	3.2727	0.1	-1.1239
7364	4.9749	3.0909	0.1	-1.1272
7365	4.9749	2.9091	0.1	-1.1272
7366	4.9749	2.7273	0.1	-1.1239
7367	4.9749	2.5455	0.1	-1.1153
7368	4.9749	2.3636	0.1	-1.3065
7369	4.9749	2.1818	0.1	-2.0805
7370	4.9749	2.	0.1	-3.6875
7371	4.9749	1.8182	0.1	-9.8752
7372	4.9749	1.6364	0.1	-61.857
7373	4.9749	1.4545	0.1	-148.59
7374	4.9749	1.2727	0.1	-204.81
7375	4.9749	1.0909	0.1	-227.33
7376	4.9749	0.90909	0.1	-223.89
7377	4.9749	0.72727	0.1	-203.7
7378	4.9749	0.54545	0.1	-173.9
7379	4.9749	0.36364	0.1	-137.73
7380	4.9749	0.18182	0.1	-97.757
7381	4.7902	5.8182	0.1	-106.71
7382	4.7902	5.6364	0.1	-146.03
7383	4.7902	5.4545	0.1	-194.33
7384	4.7902	5.2727	0.1	-247.03
7385	4.7902	5.0909	0.1	-298.07
7386	4.7902	4.9091	0.1	-335.82
7387	4.7902	4.7273	0.1	-344.37
7388	4.7902	4.5455	0.1	-306.21
7389	4.7902	4.3636	0.1	-210.46
7390	4.7902	4.1818	0.1	-73.743
7391	4.7902	4.	0.1	-8.0193
7392	4.7902	3.8182	0.1	-2.0875
7393	4.7902	3.6364	0.1	-1.8228
7394	4.7902	3.4545	0.1	-1.5596
7395	4.7902	3.2727	0.1	-1.4065
7396	4.7902	3.0909	0.1	-1.3976
7397	4.7902	2.9091	0.1	-1.3976
7398	4.7902	2.7273	0.1	-1.4065
7399	4.7902	2.5455	0.1	-1.5596
7400	4.7902	2.3636	0.1	-1.8228
7401	4.7902	2.1818	0.1	-2.0875
7402	4.7902	2.	0.1	-8.0194
7403	4.7902	1.8182	0.1	-73.744
7404	4.7902	1.6364	0.1	-210.46
7405	4.7902	1.4545	0.1	-306.21
7406	4.7902	1.2727	0.1	-344.37
7407	4.7902	1.0909	0.1	-335.82
7408	4.7902	0.90909	0.1	-298.07
7409	4.7902	0.72727	0.1	-247.03
7410	4.7902	0.54545	0.1	-194.33
7411	4.7902	0.36364	0.1	-146.03
7412	4.7902	0.18182	0.1	-106.71
7413	4.6055	5.8182	0.1	-111.93
7414	4.6055	5.6364	0.1	-149.45
7415	4.6055	5.4545	0.1	-216.54
7416	4.6055	5.2727	0.1	-304.3
7417	4.6055	5.0909	0.1	-402.47
7418	4.6055	4.9091	0.1	-495.04
7419	4.6055	4.7273	0.1	-559.06
7420	4.6055	4.5455	0.1	-564.07
7421	4.6055	4.3636	0.1	-478.16
7422	4.6055	4.1818	0.1	-294.09
7423	4.6055	4.	0.1	-80.868
7424	4.6055	3.8182	0.1	-9.8278
7425	4.6055	3.6364	0.1	-1.8552
7426	4.6055	3.4545	0.1	-2.0297
7427	4.6055	3.2727	0.1	-1.753
7428	4.6055	3.0909	0.1	-1.4968
7429	4.6055	2.9091	0.1	-1.4968
7430	4.6055	2.7273	0.1	-1.753
7431	4.6055	2.5455	0.1	-2.0297
7432	4.6055	2.3636	0.1	-1.8552
7433	4.6055	2.1818	0.1	-9.8278
7434	4.6055	2.	0.1	-80.868
7435	4.6055	1.8182	0.1	-294.09
7436	4.6055	1.6364	0.1	-478.16
7437	4.6055	1.4545	0.1	-564.07
7438	4.6055	1.2727	0.1	-559.06
7439	4.6055	1.0909	0.1	-495.04
7440	4.6055	0.90909	0.1	-402.47
7441	4.6055	0.72727	0.1	-304.3
7442	4.6055	0.54545	0.1	-216.54
7443	4.6055	0.36364	0.1	-149.45
7444	4.6055	0.18182	0.1	-111.93
7445	4.4208	5.8182	0.1	-111.95
7446	4.4208	5.6364	0.1	-151.54
7447	4.4208	5.4545	0.1	-250.74
7448	4.4208	5.2727	0.1	-390.64
7449	4.4208	5.0909	0.1	-555.31
7450	4.4208	4.9091	0.1	-727.96
7451	4.4208	4.7273	0.1	-883.64
7452	4.4208	4.5455	0.1	-982.36
7453	4.4208	4.3636	0.1	-943.84
7454	4.4208	4.1818	0.1	-707.5
7455	4.4208	4.	0.1	-360.85
7456	4.4208	3.8182	0.1	-89.747
7457	4.4208	3.6364	0.1	-11.866
7458	4.4208	3.4545	0.1	-15.48
7459	4.4208	3.2727	0.1	-28.924
7460	4.4208	3.0909	0.1	-39.26
7461	4.4208	2.9091	0.1	-39.259
7462	4.4208	2.7273	0.1	-28.924
7463	4.4208	2.5455	0.1	-15.48
7464	4.4208	2.3636	0.1	-11.866
7465	4.4208	2.1818	0.1	-89.747
7466	4.4208	2.	0.1	-360.85
7467	4.4208	1.8182	0.1	-707.5
7468	4.4208	1.6364	0.1	-943.84
7469	4.4208	1.4545	0.1	-982.36
7470	4.4208	1.2727	0.1	-883.64
7471	4.4208	1.0909	0.1	-727.96
7472	4.4208	0.90909	0.1	-555.31
7473	4.4208	0.72727	0.1	-390.64
7474	4.4208	0.54545	0.1	-250.74
7475	4.4208	0.36364	0.1	-151.54
7476	4.4208	0.18182	0.1	-111.95
7477	4.2361	5.8182	0.1	-111.78
7478	4.2361	5.6364	0.1	-173.22
7479	4.2361	5.4545	0.1	-329.99
7480	4.2361	5.2727	0.1	-541.28
7481	4.2361	5.0909	0.1	-789.41
7482	4.2361	4.9091	0.1	-1066.2
7483	4.2361	4.7273	0.1	-1364.6
7484	4.2361	4.5455	0.1	-1641.1
7485	4.2361	4.3636	0.1	-1811.8
7486	4.2361	4.1818	0.1	-1662.7
7487	4.2361	4.	0.1	-933.26
7488	4.2361	3.8182	0.1	-448.05
7489	4.2361	3.6364	0.1	-328.21
7490	4.2361	3.4545	0.1	-334.51
7491	4.2361	3.2727	0.1	-330.01
7492	4.2361	3.0909	0.1	-328.27
7493	4.2361	2.9091	0.1	-328.27
7494	4.2361	2.7273	0.1	-330.
7495	4.2361	2.5455	0.1	-334.51
7496	4.2361	2.3636	0.1	-328.21
7497	4.2361	2.1818	0.1	-448.05
7498	4.2361	2.	0.1	-933.26
7499	4.2361	1.8182	0.1	-1662.7
7500	4.2361	1.6364	0.1	-1811.8
7501	4.2361	1.4545	0.1	-1641.1
7502	4.2361	1.2727	0.1	-1364.6
7503	4.2361	1.0909	0.1	-1066.2
7504	4.2361	0.90909	0.1	-789.41
7505	4.2361	0.72727	0.1	-541.28
7506	4.2361	0.54545	0.1	-329.99
7507	4.2361	0.36364	0.1	-173.22
7508	4.2361	0.18182	0.1	-111.78
7509	4.0514	5.8182	0.1	-151.69
7510	4.0514	5.6364	0.1	-311.51
7511	4.0514	5.4545	0.1	-566.24
7512	4.0514	5.2727	0.1	-870.75
7513	4.0514	5.0909	0.1	-1224.6
7514	4.0514	4.9091	0.1	-1640.1
7515	4.0514	4.7273	0.1	-2144.
7516	4.0514	4.5455	0.1	-2757.9
7517	4.0514	4.3636	0.1	-3625.8
7518	4.0514	4.1818	0.1	-4064.5
7519	4.0514	4.	0.1	-2639.
7520	4.0514	3.8182	0.1	-1057.
7521	4.0514	3.6364	0.1	-881.67
7522	4.0514	3.4545	0.1	-718.
7523	4.0514	3.2727	0.1	-643.01
7524	4.0514	3.0909	0.1	-603.79
7525	4.0514	2.9091	0.1	-603.79
7526	4.0514	2.7273	0.1	-643.
7527	4.0514	2.5455	0.1	-718.
7528	4.0514	2.3636	0.1	-881.67
7529	4.0514	2.1818	0.1	-1057.
7530	4.0514	2.	0.1	-2639.
7531	4.0514	1.8182	0.1	-4064.5
7532	4.0514	1.6364	0.1	-3625.8
7533	4.0514	1.4545	0.1	-2757.9
7534	4.0514	1.2727	0.1	-2144.
7535	4.0514	1.0909	0.1	-1640.1
7536	4.0514	0.90909	0.1	-1224.6
7537	4.0514	0.72727	0.1	-870.75
7538	4.0514	0.54545	0.1	-566.24
7539	4.0514	0.36364	0.1	-311.51
7540	4.0514	0.18182	0.1	-151.69
7541	0.185	0.18182	0.1	-331.82
7542	0.185	0.36364	0.1	-630.97
7543	0.185	0.54545	0.1	-761.09
7544	0.185	0.72727	0.1	-844.34
7545	0.185	0.90909	0.1	-896.78
7546	0.185	1.0909	0.1	-933.66
7547	0.185	1.2727	0.1	-959.61
7548	0.185	1.4545	0.1	-978.17
7549	0.185	1.6364	0.1	-991.34
7550	0.185	1.8182	0.1	-1000.6
7551	0.185	2.	0.1	-1006.9
7552	0.185	2.1818	0.1	-1011.1
7553	0.185	2.3636	0.1	-1013.7
7554	0.185	2.5455	0.1	-1015.3
7555	0.185	2.7273	0.1	-1016.2
7556	0.185	2.9091	0.1	-1016.6
7557	0.185	3.0909	0.1	-1016.6
7558	0.185	3.2727	0.1	-1016.2
7559	0.185	3.4545	0.1	-1015.3
7560	0.185	3.6364	0.1	-1013.7
7561	0.185	3.8182	0.1	-1011.1
7562	0.185	4.	0.1	-1006.9
7563	0.185	4.1818	0.1	-1000.6
7564	0.185	4.3636	0.1	-991.34
7565	0.185	4.5455	0.1	-978.17
7566	0.185	4.7273	0.1	-959.61
7567	0.185	4.9091	0.1	-933.66
7568	0.185	5.0909	0.1	-896.78
7569	0.185	5.2727	0.1	-844.34
7570	0.185	5.4545	0.1	-761.09
7571	0.185	5.6364	0.1	-630.97
7572	0.185	5.8182	0.1	-331.82
7573	0.37	0.18182	0.1	-72.469
7574	0.37	0.36364	0.1	143.12
7575	0.37	0.54545	0.1	188.42
7576	0.37	0.72727	0.1	210.89
7577	0.37	0.90909	0.1	225.17
7578	0.37	1.0909	0.1	234.93
7579	0.37	1.2727	0.1	241.79
7580	0.37	1.4545	0.1	246.67
7581	0.37	1.6364	0.1	250.14
7582	0.37	1.8182	0.1	252.57
7583	0.37	2.	0.1	254.25
7584	0.37	2.1818	0.1	255.36
7585	0.37	2.3636	0.1	256.08
7586	0.37	2.5455	0.1	256.52
7587	0.37	2.7273	0.1	256.76
7588	0.37	2.9091	0.1	256.87
7589	0.37	3.0909	0.1	256.87
7590	0.37	3.2727	0.1	256.76
7591	0.37	3.4545	0.1	256.52
7592	0.37	3.6364	0.1	256.08
7593	0.37	3.8182	0.1	255.36
7594	0.37	4.	0.1	254.25
7595	0.37	4.1818	0.1	252.57
7596	0.37	4.3636	0.1	250.14
7597	0.37	4.5455	0.1	246.67
7598	0.37	4.7273	0.1	241.79
7599	0.37	4.9091	0.1	234.93
7600	0.37	5.0909	0.1	225.17
7601	0.37	5.2727	0.1	210.89
7602	0.37	5.4545	0.1	188.42
7603	0.37	5.6364	0.1	143.12
7604	0.37	5.8182	0.1	-72.469
7605	0.555	0.18182	0.1	-98.239
7606	0.555	0.36364	0.1	-41.955
7607	0.555	0.54545	0.1	-50.439
7608	0.555	0.72727	0.1	-54.897
7609	0.555	0.90909	0.1	-57.969
7610	0.555	1.0909	0.1	-60.175
7611	0.555	1.2727	0.1	-61.744
7612	0.555	1.4545	0.1	-62.863
7613	0.555	1.6364	0.1	-63.652
7614	0.555	1.8182	0.1	-64.199
7615	0.555	2.	0.1	-64.568
7616	0.555	2.1818	0.1	-64.809
7617	0.555	2.3636	0.1	-64.959
7618	0.555	2.5455	0.1	-65.047
7619	0.555	2.7273	0.1	-65.094
7620	0.555	2.9091	0.1	-65.114
7621	0.555	3.0909	0.1	-65.114
7622	0.555	3.2727	0.1	-65.094
7623	0.555	3.4545	0.1	-65.047
7624	0.555	3.6364	0.1	-64.959
7625	0.555	3.8182	0.1	-64.809
7626	0.555	4.	0.1	-64.568
7627	0.555	4.1818	0.1	-64.199
7628	0.555	4.3636	0.1	-63.652
7629	0.555	4.5455	0.1	-62.863
7630	0.555	4.7273	0.1	-61.744
7631	0.555	4.9091	0.1	-60.175
7632	0.555	5.0909	0.1	-57.969
7633	0.555	5.2727	0.1	-54.897
7634	0.555	5.4545	0.1	-50.439
7635	0.555	5.6364	0.1	-41.955
7636	0.555	5.8182	0.1	-98.239
7637	0.74	0.18182	0.1	-75.753
7638	0.74	0.36364	0.1	5.736
7639	0.74	0.54545	0.1	10.745
7640	0.74	0.72727	0.1	12.567
7641	0.74	0.90909	0.1	13.795
7642	0.74	1.0909	0.1	14.56
7643	0.74	1.2727	0.1	15.09
7644	0.74	1.4545	0.1	15.461
7645	0.74	1.6364	0.1	15.73
7646	0.74	1.8182	0.1	15.923
7647	0.74	2.	0.1	16.061
7648	0.74	2.1818	0.1	16.157
7649	0.74	2.3636	0.1	16.223
7650	0.74	2.5455	0.1	16.265
7651	0.74	2.7273	0.1	16.29
7652	0.74	2.9091	0.1	16.302
7653	0.74	3.0909	0.1	16.302
7654	0.74	3.2727	0.1	16.29
7655	0.74	3.4545	0.1	16.265
7656	0.74	3.6364	0.1	16.223
7657	0.74	3.8182	0.1	16.157
7658	0.74	4.	0.1	16.061
7659	0.74	4.1818	0.1	15.923
7660	0.74	4.3636	0.1	15.73
7661	0.74	4.5455	0.1	15.461
7662	0.74	4.7273	0.1	15.09
7663	0.74	4.9091	0.1	14.56
7664	0.74	5.0909	0.1	13.795
7665	0.74	5.2727	0.1	12.567
7666	0.74	5.4545	0.1	10.745
7667	0.74	5.6364	0.1	5.736
7668	0.74	5.8182	0.1	-75.753
7669	0.925	0.18182	0.1	-67.094
7670	0.925	0.36364	0.1	-5.4756
7671	0.925	0.54545	0.1	-4.2907
7672	0.925	0.72727	0.1	-4.2587
7673	0.925	0.90909	0.1	-4.2088
7674	0.925	1.0909	0.1	-4.2304
7675	0.925	1.2727	0.1	-4.2558
7676	0.925	1.4545	0.1	-4.279
7677	0.925	1.6364	0.1	-4.2931
7678	0.925	1.8182	0.1	-4.2986
7679	0.925	2.	0.1	-4.2975
7680	0.925	2.1818	0.1	-4.2926
7681	0.925	2.3636	0.1	-4.2862
7682	0.925	2.5455	0.1	-4.2801
7683	0.925	2.7273	0.1	-4.2755
7684	0.925	2.9091	0.1	-4.2731
7685	0.925	3.0909	0.1	-4.2731
7686	0.925	3.2727	0.1	-4.2755
7687	0.925	3.4545	0.1	-4.2801
7688	0.925	3.6364	0.1	-4.2862
7689	0.925	3.8182	0.1	-4.2926
7690	0.925	4.	0.1	-4.2975
7691	0.925	4.1818	0.1	-4.2986
7692	0.925	4.3636	0.1	-4.2931
7693	0.925	4.5455	0.1	-4.279
7694	0.925	4.7273	0.1	-4.2558
7695	0.925	4.9091	0.1	-4.2304
7696	0.925	5.0909	0.1	-4.2088
7697	0.925	5.2727	0.1	-4.2587
7698	0.925	5.4545	0.1	-4.2907
7699	0.925	5.6364	0.1	-5.4755
7700	0.925	5.8182	0.1	-67.094
7701	1.11	0.18182	0.1	-59.74
7702	1.11	0.36364	0.1	-2.3477
7703	1.11	0.54545	0.1	-0.39366
7704	1.11	0.72727	0.1	5.7632e-002
7705	1.11	0.90909	0.1	0.37318
7706	1.11	1.0909	0.1	0.54526
7707	1.11	1.2727	0.1	0.65876
7708	1.11	1.4545	0.1	0.73442
7709	1.11	1.6364	0.1	0.78979
7710	1.11	1.8182	0.1	0.83236
7711	1.11	2.	0.1	0.86598
7712	1.11	2.1818	0.1	0.89223
7713	1.11	2.3636	0.1	0.91193
7714	1.11	2.5455	0.1	0.92572
7715	1.11	2.7273	0.1	0.93433
7716	1.11	2.9091	0.1	0.93842
7717	1.11	3.0909	0.1	0.93842
7718	1.11	3.2727	0.1	0.93433
7719	1.11	3.4545	0.1	0.92572
7720	1.11	3.6364	0.1	0.91193
7721	1.11	3.8182	0.1	0.89223
7722	1.11	4.	0.1	0.86598
7723	1.11	4.1818	0.1	0.83236
7724	1.11	4.3636	0.1	0.78979
7725	1.11	4.5455	0.1	0.73442
7726	1.11	4.7273	0.1	0.65876
7727	1.11	4.9091	0.1	0.54526
7728	1.11	5.0909	0.1	0.37318
7729	1.11	5.2727	0.1	5.7632e-002
7730	1.11	5.4545	0.1	-0.39366
7731	1.11	5.6364	0.1	-2.3477
7732	1.11	5.8182	0.1	-59.74
7733	1.295	0.18182	0.1	-57.449
7734	1.295	0.36364	0.1	-3.0439
7735	1.295	0.54545	0.1	-1.3829
7736	1.295	0.72727	0.1	-1.0504
7737	1.295	0.90909	0.1	-0.81545
7738	1.295	1.0909	0.1	-0.68837
7739	1.295	1.2727	0.1	-0.60262
7740	1.295	1.4545	0.1	-0.54467
7741	1.295	1.6364	0.1	-0.50111
7742	1.295	1.8182	0.1	-0.4664
7743	1.295	2.	0.1	-0.43801
7744	1.295	2.1818	0.1	-0.41538
7745	1.295	2.3636	0.1	-0.39842
7746	1.295	2.5455	0.1	-0.38683
7747	1.295	2.7273	0.1	-0.37989
7748	1.295	2.9091	0.1	-0.37672
7749	1.295	3.0909	0.1	-0.37672
7750	1.295	3.2727	0.1	-0.37989
7751	1.295	3.4545	0.1	-0.38683
7752	1.295	3.6364	0.1	-0.39842
7753	1.295	3.8182	0.1	-0.41537
7754	1.295	4.	0.1	-0.43801
7755	1.295	4.1818	0.1	-0.4664
7756	1.295	4.3636	0.1	-0.50111
7757	1.295	4.5455	0.1	-0.54467
7758	1.295	4.7273	0.1	-0.60262
7759	1.295	4.9091	0.1	-0.68837
7760	1.295	5.0909	0.1	-0.81544
7761	1.295	5.2727	0.1	-1.0504
7762	1.295	5.4545	0.1	-1.3829
7763	1.295	5.6364	0.1	-3.0439
7764	1.295	5.8182	0.1	-57.449
7765	1.48	0.18182	0.1	-59.139
7766	1.48	0.36364	0.1	-3.0652
7767	1.48	0.54545	0.1	-1.255
7768	1.48	0.72727	0.1	-0.86088
7769	1.48	0.90909	0.1	-0.60102
7770	1.48	1.0909	0.1	-0.45003
7771	1.48	1.2727	0.1	-0.34408
7772	1.48	1.4545	0.1	-0.26852
7773	1.48	1.6364	0.1	-0.21031
7774	1.48	1.8182	0.1	-0.16374
7775	1.48	2.	0.1	-0.1263
7776	1.48	2.1818	0.1	-9.7492e-002
7777	1.48	2.3636	0.1	-7.715e-002
7778	1.48	2.5455	0.1	-6.4463e-002
7779	1.48	2.7273	0.1	-5.7728e-002
7780	1.48	2.9091	0.1	-5.5e-002
7781	1.48	3.0909	0.1	-5.5e-002
7782	1.48	3.2727	0.1	-5.7728e-002
7783	1.48	3.4545	0.1	-6.4463e-002
7784	1.48	3.6364	0.1	-7.715e-002
7785	1.48	3.8182	0.1	-9.7492e-002
7786	1.48	4.	0.1	-0.1263
7787	1.48	4.1818	0.1	-0.16374
7788	1.48	4.3636	0.1	-0.21031
7789	1.48	4.5455	0.1	-0.26852
7790	1.48	4.7273	0.1	-0.34408
7791	1.48	4.9091	0.1	-0.45003
7792	1.48	5.0909	0.1	-0.60102
7793	1.48	5.2727	0.1	-0.86088
7794	1.48	5.4545	0.1	-1.255
7795	1.48	5.6364	0.1	-3.0652
7796	1.48	5.8182	0.1	-59.139
7797	1.665	0.18182	0.1	-64.859
7798	1.665	0.36364	0.1	-3.7631
7799	1.665	0.54545	0.1	-1.5649
7800	1.665	0.72727	0.1	-1.0908
7801	1.665	0.90909	0.1	-0.80659
7802	1.665	1.0909	0.1	-0.63667
7803	1.665	1.2727	0.1	-0.51526
7804	1.665	1.4545	0.1	-0.42523
7805	1.665	1.6364	0.1	-0.35347
7806	1.665	1.8182	0.1	-0.29451
7807	1.665	2.	0.1	-0.24675
7808	1.665	2.1818	0.1	-0.21094
7809	1.665	2.3636	0.1	-0.18745
7810	1.665	2.5455	0.1	-0.17468
7811	1.665	2.7273	0.1	-0.16943
7812	1.665	2.9091	0.1	-0.16802
7813	1.665	3.0909	0.1	-0.16802
7814	1.665	3.2727	0.1	-0.16943
7815	1.665	3.4545	0.1	-0.17468
7816	1.665	3.6364	0.1	-0.18745
7817	1.665	3.8182	0.1	-0.21094
7818	1.665	4.	0.1	-0.24675
7819	1.665	4.1818	0.1	-0.29451
7820	1.665	4.3636	0.1	-0.35347
7821	1.665	4.5455	0.1	-0.42523
7822	1.665	4.7273	0.1	-0.51526
7823	1.665	4.9091	0.1	-0.63667
7824	1.665	5.0909	0.1	-0.80659
7825	1.665	5.2727	0.1	-1.0908
7826	1.665	5.4545	0.1	-1.5649
7827	1.665	5.6364	0.1	-3.7631
7828	1.665	5.8182	0.1	-64.859
7829	1.85	0.18182	0.1	-74.195
7830	1.85	0.36364	0.1	-5.6274
7831	1.85	0.54545	0.1	-2.0619
7832	1.85	0.72727	0.1	-1.3739
7833	1.85	0.90909	0.1	-1.0123
7834	1.85	1.0909	0.1	-0.79591
7835	1.85	1.2727	0.1	-0.64259
7836	1.85	1.4545	0.1	-0.52696
7837	1.85	1.6364	0.1	-0.43297
7838	1.85	1.8182	0.1	-0.35415
7839	1.85	2.	0.1	-0.29024
7840	1.85	2.1818	0.1	-0.24315
7841	1.85	2.3636	0.1	-0.21425
7842	1.85	2.5455	0.1	-0.20191
7843	1.85	2.7273	0.1	-0.19994
7844	1.85	2.9091	0.1	-0.2012
7845	1.85	3.0909	0.1	-0.2012
7846	1.85	3.2727	0.1	-0.19994
7847	1.85	3.4545	0.1	-0.20191
7848	1.85	3.6364	0.1	-0.21425
7849	1.85	3.8182	0.1	-0.24315
7850	1.85	4.	0.1	-0.29024
7851	1.85	4.1818	0.1	-0.35415
7852	1.85	4.3636	0.1	-0.43297
7853	1.85	4.5455	0.1	-0.52696
7854	1.85	4.7273	0.1	-0.64259
7855	1.85	4.9091	0.1	-0.79591
7856	1.85	5.0909	0.1	-1.0123
7857	1.85	5.2727	0.1	-1.3739
7858	1.85	5.4545	0.1	-2.0619
7859	1.85	5.6364	0.1	-5.6274
7860	1.85	5.8182	0.1	-74.195
7861	2.035	0.18182	0.1	-86.537
7862	2.035	0.36364	0.1	-12.369
7863	2.035	0.54545	0.1	-3.2361
7864	2.035	0.72727	0.1	-1.9783
7865	2.035	0.90909	0.1	-1.4272
7866	2.035	1.0909	0.1	-1.1104
7867	2.035	1.2727	0.1	-0.89344
7868	2.035	1.4545	0.1	-0.73115
7869	2.035	1.6364	0.1	-0.59845
7870	2.035	1.8182	0.1	-0.48586
7871	2.035	2.	0.1	-0.39268
7872	2.035	2.1818	0.1	-0.32781
7873	2.035	2.3636	0.1	-0.2949
7874	2.035	2.5455	0.1	-0.28579
7875	2.035	2.7273	0.1	-0.28997
7876	2.035	2.9091	0.1	-0.29599
7877	2.035	3.0909	0.1	-0.29599
7878	2.035	3.2727	0.1	-0.28997
7879	2.035	3.4545	0.1	-0.28579
7880	2.035	3.6364	0.1	-0.2949
7881	2.035	3.8182	0.1	-0.32781
7882	2.035	4.	0.1	-0.39268
7883	2.035	4.1818	0.1	-0.48586
7884	2.035	4.3636	0.1	-0.59845
7885	2.035	4.5455	0.1	-0.73115
7886	2.035	4.7273	0.1	-0.89344
7887	2.035	4.9091	0.1	-1.1104
7888	2.035	5.0909	0.1	-1.4272
7889	2.035	5.2727	0.1	-1.9783
7890	2.035	5.4545	0.1	-3.2361
7891	2.035	5.6364	0.1	-12.369
7892	2.035	5.8182	0.1	-86.537
7893	2.22	0.18182	0.1	-100.95
7894	2.22	0.36364	0.1	-33.036
7895	2.22	0.54545	0.1	-6.7123
7896	2.22	0.72727	0.1	-3.391
7897	2.22	0.90909	0.1	-2.2943
7898	2.22	1.0909	0.1	-1.7212
7899	2.22	1.2727	0.1	-1.3529
7900	2.22	1.4545	0.1	-1.0889
7901	2.22	1.6364	0.1	-0.88113
7902	2.22	1.8182	0.1	-0.70547
7903	2.22	2.	0.1	-0.56942
7904	2.22	2.1818	0.1	-0.47049
7905	2.22	2.3636	0.1	-0.41212
7906	2.22	2.5455	0.1	-0.40223
7907	2.22	2.7273	0.1	-0.4165
7908	2.22	2.9091	0.1	-0.42945
7909	2.22	3.0909	0.1	-0.42945
7910	2.22	3.2727	0.1	-0.4165
7911	2.22	3.4545	0.1	-0.40223
7912	2.22	3.6364	0.1	-0.41212
7913	2.22	3.8182	0.1	-0.47049
7914	2.22	4.	0.1	-0.56942
7915	2.22	4.1818	0.1	-0.70547
7916	2.22	4.3636	0.1	-0.88113
7917	2.22	4.5455	0.1	-1.0889
7918	2.22	4.7273	0.1	-1.3529
7919	2.22	4.9091	0.1	-1.7212
7920	2.22	5.0909	0.1	-2.2943
7921	2.22	5.2727	0.1	-3.391
7922	2.22	5.4545	0.1	-6.7123
7923	2.22	5.6364	0.1	-33.036
7924	2.22	5.8182	0.1	-100.95
7925	2.405	0.18182	0.1	-116.14
7926	2.405	0.36364	0.1	-61.531
7927	2.405	0.54545	0.1	-21.765
7928	2.405	0.72727	0.1	-8.1299
7929	2.405	0.90909	0.1	-4.7419
7930	2.405	1.0909	0.1	-3.2729
7931	2.405	1.2727	0.1	-2.4154
7932	2.405	1.4545	0.1	-1.8352
7933	2.405	1.6364	0.1	-1.4005
7934	2.405	1.8182	0.1	-1.0696
7935	2.405	2.	0.1	-0.78168
7936	2.405	2.1818	0.1	-0.60909
7937	2.405	2.3636	0.1	-0.5763
7938	2.405	2.5455	0.1	-0.58034
7939	2.405	2.7273	0.1	-0.59798
7940	2.405	2.9091	0.1	-0.61734
7941	2.405	3.0909	0.1	-0.61734
7942	2.405	3.2727	0.1	-0.59798
7943	2.405	3.4545	0.1	-0.58034
7944	2.405	3.6364	0.1	-0.5763
7945	2.405	3.8182	0.1	-0.60909
7946	2.405	4.	0.1	-0.78168
7947	2.405	4.1818	0.1	-1.0696
7948	2.405	4.3636	0.1	-1.4005
7949	2.405	4.5455	0.1	-1.8352
7950	2.405	4.7273	0.1	-2.4154
7951	2.405	4.9091	0.1	-3.2729
7952	2.405	5.0909	0.1	-4.7419
7953	2.405	5.2727	0.1	-8.1299
7954	2.405	5.4545	0.1	-21.765
7955	2.405	5.6364	0.1	-61.531
7956	2.405	5.8182	0.1	-116.14
7957	2.59	0.18182	0.1	-130.41
7958	2.59	0.36364	0.1	-88.282
7959	2.59	0.54545	0.1	-59.894
7960	2.59	0.72727	0.1	-35.954
7961	2.59	0.90909	0.1	-19.495
7962	2.59	1.0909	0.1	-10.879
7963	2.59	1.2727	0.1	-6.5553
7964	2.59	1.4545	0.1	-4.2409
7965	2.59	1.6364	0.1	-2.9258
7966	2.59	1.8182	0.1	-2.0072
7967	2.59	2.	0.1	-1.5571
7968	2.59	2.1818	0.1	-1.23
7969	2.59	2.3636	0.1	-0.86976
7970	2.59	2.5455	0.1	-0.80382
7971	2.59	2.7273	0.1	-0.84301
7972	2.59	2.9091	0.1	-0.8493
7973	2.59	3.0909	0.1	-0.8493
7974	2.59	3.2727	0.1	-0.84301
7975	2.59	3.4545	0.1	-0.80382
7976	2.59	3.6364	0.1	-0.86976
7977	2.59	3.8182	0.1	-1.23
7978	2.59	4.	0.1	-1.5571
7979	2.59	4.1818	0.1	-2.0072
7980	2.59	4.3636	0.1	-2.9258
7981	2.59	4.5455	0.1	-4.2409
7982	2.59	4.7273	0.1	-6.5553
7983	2.59	4.9091	0.1	-10.879
7984	2.59	5.0909	0.1	-19.495
7985	2.59	5.2727	0.1	-35.954
7986	2.59	5.4545	0.1	-59.893
7987	2.59	5.6364	0.1	-88.282
7988	2.59	5.8182	0.1	-130.41
7989	2.775	0.18182	0.1	-141.59
7990	2.775	0.36364	0.1	-109.61
7991	2.775	0.54545	0.1	-104.42
7992	2.775	0.72727	0.1	-110.
7993	2.775	0.90909	0.1	-117.82
7994	2.775	1.0909	0.1	-115.37
7995	2.775	1.2727	0.1	-88.119
7996	2.775	1.4545	0.1	-36.458
7997	2.775	1.6364	0.1	-10.356
7998	2.775	1.8182	0.1	-4.5754
7999	2.775	2.	0.1	-1.7652
8000	2.775	2.1818	0.1	-0.70554
8001	2.775	2.3636	0.1	-1.3193
8002	2.775	2.5455	0.1	-1.2362
8003	2.775	2.7273	0.1	-1.0928
8004	2.775	2.9091	0.1	-1.0821
8005	2.775	3.0909	0.1	-1.0821
8006	2.775	3.2727	0.1	-1.0928
8007	2.775	3.4545	0.1	-1.2362
8008	2.775	3.6364	0.1	-1.3193
8009	2.775	3.8182	0.1	-0.70554
8010	2.775	4.	0.1	-1.7652
8011	2.775	4.1818	0.1	-4.5754
8012	2.775	4.3636	0.1	-10.356
8013	2.775	4.5455	0.1	-36.458
8014	2.775	4.7273	0.1	-88.119
8015	2.775	4.9091	0.1	-115.37
8016	2.775	5.0909	0.1	-117.82
8017	2.775	5.2727	0.1	-110.
8018	2.775	5.4545	0.1	-104.42
8019	2.775	5.6364	0.1	-109.61
8020	2.775	5.8182	0.1	-141.59
8021	2.96	0.18182	0.1	-147.36
8022	2.96	0.36364	0.1	-124.61
8023	2.96	0.54545	0.1	-151.44
8024	2.96	0.72727	0.1	-207.73
8025	2.96	0.90909	0.1	-279.86
8026	2.96	1.0909	0.1	-348.82
8027	2.96	1.2727	0.1	-389.09
8028	2.96	1.4545	0.1	-368.48
8029	2.96	1.6364	0.1	-255.07
8030	2.96	1.8182	0.1	-63.213
8031	2.96	2.	0.1	-11.446
8032	2.96	2.1818	0.1	-6.991
8033	2.96	2.3636	0.1	-1.4008
8034	2.96	2.5455	0.1	-1.6576
8035	2.96	2.7273	0.1	-1.37
8036	2.96	2.9091	0.1	-1.1517
8037	2.96	3.0909	0.1	-1.1517
8038	2.96	3.2727	0.1	-1.37
8039	2.96	3.4545	0.1	-1.6577
8040	2.96	3.6364	0.1	-1.4008
8041	2.96	3.8182	0.1	-6.991
8042	2.96	4.	0.1	-11.446
8043	2.96	4.1818	0.1	-63.212
8044	2.96	4.3636	0.1	-255.07
8045	2.96	4.5455	0.1	-368.48
8046	2.96	4.7273	0.1	-389.09
8047	2.96	4.9091	0.1	-348.82
8048	2.96	5.0909	0.1	-279.86
8049	2.96	5.2727	0.1	-207.73
8050	2.96	5.4545	0.1	-151.44
8051	2.96	5.6364	0.1	-124.61
8052	2.96	5.8182	0.1	-147.36
8053	3.145	0.18182	0.1	-145.56
8054	3.145	0.36364	0.1	-137.67
8055	3.145	0.54545	0.1	-212.35
8056	3.145	0.72727	0.1	-339.78
8057	3.145	0.90909	0.1	-498.35
8058	3.145	1.0909	0.1	-667.26
8059	3.145	1.2727	0.1	-818.62
8060	3.145	1.4545	0.1	-909.37
8061	3.145	1.6364	0.1	-855.32
8062	3.145	1.8182	0.1	-591.08
8063	3.145	2.	0.1	-207.28
8064	3.145	2.1818	0.1	4.6009
8065	3.145	2.3636	0.1	-8.2225
8066	3.145	2.5455	0.1	-1.5935
8067	3.145	2.7273	0.1	-1.5292
8068	3.145	2.9091	0.1	-0.90527
8069	3.145	3.0909	0.1	-0.90527
8070	3.145	3.2727	0.1	-1.5292
8071	3.145	3.4545	0.1	-1.5935
8072	3.145	3.6364	0.1	-8.2225
8073	3.145	3.8182	0.1	4.6009
8074	3.145	4.	0.1	-207.28
8075	3.145	4.1818	0.1	-591.07
8076	3.145	4.3636	0.1	-855.32
8077	3.145	4.5455	0.1	-909.37
8078	3.145	4.7273	0.1	-818.62
8079	3.145	4.9091	0.1	-667.26
8080	3.145	5.0909	0.1	-498.35
8081	3.145	5.2727	0.1	-339.78
8082	3.145	5.4545	0.1	-212.35
8083	3.145	5.6364	0.1	-137.67
8084	3.145	5.8182	0.1	-145.56
8085	3.33	0.18182	0.1	-142.5
8086	3.33	0.36364	0.1	-174.35
8087	3.33	0.54545	0.1	-327.43
8088	3.33	0.72727	0.1	-547.09
8089	3.33	0.90909	0.1	-808.56
8090	3.33	1.0909	0.1	-1101.3
8091	3.33	1.2727	0.1	-1417.2
8092	3.33	1.4545	0.1	-1710.3
8093	3.33	1.6364	0.1	-1888.7
8094	3.33	1.8182	0.1	-1730.2
8095	3.33	2.	0.1	-939.66
8096	3.33	2.1818	0.1	-376.16
8097	3.33	2.3636	0.1	-183.
8098	3.33	2.5455	0.1	-136.11
8099	3.33	2.7273	0.1	-99.008
8100	3.33	2.9091	0.1	-81.561
8101	3.33	3.0909	0.1	-81.562
8102	3.33	3.2727	0.1	-99.009
8103	3.33	3.4545	0.1	-136.11
8104	3.33	3.6364	0.1	-183.
8105	3.33	3.8182	0.1	-376.16
8106	3.33	4.	0.1	-939.66
8107	3.33	4.1818	0.1	-1730.2
8108	3.33	4.3636	0.1	-1888.7
8109	3.33	4.5455	0.1	-1710.3
8110	3.33	4.7273	0.1	-1417.2
8111	3.33	4.9091	0.1	-1101.3
8112	3.33	5.0909	0.1	-808.56
8113	3.33	5.2727	0.1	-547.09
8114	3.33	5.4545	0.1	-327.43
8115	3.33	5.6364	0.1	-174.35
8116	3.33	5.8182	0.1	-142.5
8117	3.515	0.18182	0.1	-189.14
8118	3.515	0.36364	0.1	-353.99
8119	3.515	0.54545	0.1	-632.06
8120	3.515	0.72727	0.1	-964.4
8121	3.515	0.90909	0.1	-1348.9
8122	3.515	1.0909	0.1	-1799.1
8123	3.515	1.2727	0.1	-2344.3
8124	3.515	1.4545	0.1	-3007.7
8125	3.515	1.6364	0.1	-3943.7
8126	3.515	1.8182	0.1	-4424.9
8127	3.515	2.	0.1	-2891.7
8128	3.515	2.1818	0.1	-1113.6
8129	3.515	2.3636	0.1	-826.24
8130	3.515	2.5455	0.1	-611.1
8131	3.515	2.7273	0.1	-510.84
8132	3.515	2.9091	0.1	-460.97
8133	3.515	3.0909	0.1	-460.97
8134	3.515	3.2727	0.1	-510.84
8135	3.515	3.4545	0.1	-611.1
8136	3.515	3.6364	0.1	-826.24
8137	3.515	3.8182	0.1	-1113.6
8138	3.515	4.	0.1	-2891.7
8139	3.515	4.1818	0.1	-4424.9
8140	3.515	4.3636	0.1	-3943.7
8141	3.515	4.5455	0.1	-3007.7
8142	3.515	4.7273	0.1	-2344.3
8143	3.515	4.9091	0.1	-1799.1
8144	3.515	5.0909	0.1	-1348.9
8145	3.515	5.2727	0.1	-964.4
8146	3.515	5.4545	0.1	-632.06
8147	3.515	5.6364	0.1	-353.99
8148	3.515	5.8182	0.1	-189.14
8149	3.8667	3.8182	0.1	-1616.7
8150	3.8667	3.6364	0.1	-1281.3
8151	3.8667	3.4545	0.1	-987.74
8152	3.8667	3.2727	0.1	-828.46
8153	3.8667	3.0909	0.1	-754.86
8154	3.8667	2.9091	0.1	-754.86
8155	3.8667	2.7273	0.1	-828.46
8156	3.8667	2.5455	0.1	-987.73
8157	3.8667	2.3636	0.1	-1281.3
8158	3.8667	2.1818	0.1	-1616.7
8159	3.7	3.8182	0.1	-1679.6
8160	3.7	3.6364	0.1	-1272.1
8161	3.7	3.4545	0.1	-956.73
8162	3.7	3.2727	0.1	-788.17
8163	3.7	3.0909	0.1	-710.82
8164	3.7	2.9091	0.1	-710.82
8165	3.7	2.7273	0.1	-788.17
8166	3.7	2.5455	0.1	-956.73
8167	3.7	2.3636	0.1	-1272.1
8168	3.7	2.1818	0.1	-1679.6
8169	3.8667	5.8182	0.1	-96.706
8170	3.8667	5.6364	0.1	-244.75
8171	3.8667	5.4545	0.1	-421.63
8172	3.8667	5.2727	0.1	-630.53
8173	3.8667	5.0909	0.1	-879.78
8174	3.8667	4.9091	0.1	-1185.4
8175	3.8667	4.7273	0.1	-1577.6
8176	3.8667	4.5455	0.1	-2141.6
8177	3.8667	4.3636	0.1	-2745.9
8178	3.8667	4.1818	0.1	-5960.7
8179	3.8667	4.	0.1	-4142.5
8180	3.7	4.	0.1	-4519.
8181	3.7	4.1818	0.1	-6428.4
8182	3.7	4.3636	0.1	-2999.1
8183	3.7	4.5455	0.1	-2327.1
8184	3.7	4.7273	0.1	-1713.6
8185	3.7	4.9091	0.1	-1288.2
8186	3.7	5.0909	0.1	-958.6
8187	3.7	5.2727	0.1	-690.85
8188	3.7	5.4545	0.1	-466.16
8189	3.7	5.6364	0.1	-274.38
8190	3.7	5.8182	0.1	-111.17
8191	3.8667	0.18182	0.1	-96.706
8192	3.8667	0.36364	0.1	-244.75
8193	3.8667	0.54545	0.1	-421.63
8194	3.8667	0.72727	0.1	-630.53
8195	3.8667	0.90909	0.1	-879.78
8196	3.8667	1.0909	0.1	-1185.4
8197	3.8667	1.2727	0.1	-1577.6
8198	3.8667	1.4545	0.1	-2141.6
8199	3.8667	1.6364	0.1	-2745.9
8200	3.8667	1.8182	0.1	-5960.7
8201	3.8667	2.	0.1	-4142.5
8202	3.7	2.	0.1	-4519.
8203	3.7	1.8182	0.1	-6428.4
8204	3.7	1.6364	0.1	-2999.1
8205	3.7	1.4545	0.1	-2327.1
8206	3.7	1.2727	0.1	-1713.6
8207	3.7	1.0909	0.1	-1288.2
8208	3.7	0.90909	0.1	-958.6
8209	3.7	0.72727	0.1	-690.85
8210	3.7	0.54545	0.1	-466.16
8211	3.7	0.36364	0.1	-274.38
8212	3.7	0.18182	0.1	-111.17
8213	3.8667	6.	0.1	-14.066
8214	4.0514	6.	0.1	-22.631
8215	4.2361	6.	0.1	-26.11
8216	4.4208	6.	0.1	-28.114
8217	4.6055	6.	0.1	-27.364
8218	4.7902	6.	0.1	-24.811
8219	4.9749	6.	0.1	-21.63
8220	5.1596	6.	0.1	-18.348
8221	5.3443	6.	0.1	-15.286
8222	5.5291	6.	0.1	-12.579
8223	5.7138	6.	0.1	-10.271
8224	5.8985	6.	0.1	-8.3472
8225	6.0832	6.	0.1	-6.773
8226	6.2679	6.	0.1	-5.5035
8227	6.4526	6.	0.1	-4.4941
8228	6.6373	6.	0.1	-3.7042
8229	6.822	6.	0.1	-3.0987
8230	7.0067	6.	0.1	-2.6473
8231	7.1914	6.	0.1	-2.3247
8232	7.3761	6.	0.1	-2.1095
8233	7.5609	6.	0.1	-1.9836
8234	7.7456	6.	0.1	-1.9316
8235	7.9303	6.	0.1	-1.9404
8236	8.115	6.	0.1	-1.9989
8237	8.2997	6.	0.1	-2.0974
8238	8.4844	6.	0.1	-2.2279
8239	8.6691	6.	0.1	-2.3833
8240	8.8538	6.	0.1	-2.5578
8241	9.0385	6.	0.1	-2.7466
8242	9.2232	6.	0.1	-2.9454
8243	9.408	6.	0.1	-3.1509
8244	9.5927	6.	0.1	-3.3603
8245	9.7774	6.	0.1	-3.5714
8246	9.9621	6.	0.1	-3.7823
8247	10.147	6.	0.1	-3.9917
8248	10.331	6.	0.1	-4.1985
8249	10.516	6.	0.1	-4.4018
8250	10.701	6.	0.1	-4.6012
8251	10.886	6.	0.1	-4.7963
8252	11.07	6.	0.1	-4.9867
8253	11.255	6.	0.1	-5.1725
8254	11.44	6.	0.1	-5.3536
8255	11.624	6.	0.1	-5.5301
8256	11.809	6.	0.1	-5.7022
8257	11.994	6.	0.1	-5.8701
8258	12.179	6.	0.1	-6.034
8259	12.363	6.	0.1	-6.1942
8260	12.548	6.	0.1	-6.3511
8261	12.733	6.	0.1	-6.5048
8262	12.917	6.	0.1	-6.6558
8263	13.102	6.	0.1	-6.8043
8264	13.287	6.	0.1	-6.9507
8265	13.472	6.	0.1	-7.0953
8266	13.656	6.	0.1	-7.2383
8267	13.841	6.	0.1	-7.3802
8268	14.026	6.	0.1	-7.5212
8269	14.21	6.	0.1	-7.6616
8270	14.395	6.	0.1	-7.8018
8271	14.58	6.	0.1	-7.9419
8272	14.765	6.	0.1	-8.0823
8273	14.949	6.	0.1	-8.2232
8274	15.134	6.	0.1	-8.3649
8275	15.319	6.	0.1	-8.5077
8276	15.503	6.	0.1	-8.6517
8277	15.688	6.	0.1	-8.7973
8278	15.873	6.	0.1	-8.9446
8279	16.057	6.	0.1	-9.0939
8280	16.242	6.	0.1	-9.2454
8281	16.427	6.	0.1	-9.3993
8282	16.612	6.	0.1	-9.5557
8283	16.796	6.	0.1	-9.7149
8284	16.981	6.	0.1	-9.8769
8285	17.166	6.	0.1	-10.042
8286	17.35	6.	0.1	-10.21
8287	17.535	6.	0.1	-10.382
8288	17.72	6.	0.1	-10.557
8289	17.905	6.	0.1	-10.735
8290	18.089	6.	0.1	-10.917
8291	18.274	6.	0.1	-11.103
8292	18.459	6.	0.1	-11.292
8293	18.643	6.	0.1	-11.484
8294	18.828	6.	0.1	-11.68
8295	19.013	6.	0.1	-11.88
8296	19.198	6.	0.1	-12.082
8297	19.382	6.	0.1	-12.287
8298	19.567	6.	0.1	-12.494
8299	19.752	6.	0.1	-12.704
8300	19.936	6.	0.1	-12.915
8301	20.121	6.	0.1	-13.127
8302	20.306	6.	0.1	-13.339
8303	20.491	6.	0.1	-13.551
8304	20.675	6.	0.1	-13.76
8305	20.86	6.	0.1	-13.967
8306	21.045	6.	0.1	-14.169
8307	21.229	6.	0.1	-14.365
8308	21.414	6.	0.1	-14.553
8309	21.599	6.	0.1	-14.73
8310	21.783	6.	0.1	-14.893
8311	21.968	6.	0.1	-15.038
8312	22.153	6.	0.1	-15.161
8313	22.338	6.	0.1	-15.256
8314	22.522	6.	0.1	-15.316
8315	22.707	6.	0.1	-15.329
8316	22.892	6.	0.1	-15.283
8317	23.076	6.	0.1	-15.154
8318	23.261	6.	0.1	-14.911
8319	23.446	6.	0.1	-14.465
8320	23.631	6.	0.1	-13.806
8321	23.815	6.	0.1	-11.509
8322	24.	6.	0.1	-5.722
8323	24.	5.8182	0.1	-36.648
8324	24.	5.6364	0.1	-64.087
8325	24.	5.4545	0.1	-85.283
8326	24.	5.2727	0.1	-102.9
8327	24.	5.0909	0.1	-117.93
8328	24.	4.9091	0.1	-130.9
8329	24.	4.7273	0.1	-142.14
8330	24.	4.5455	0.1	-151.87
8331	24.	4.3636	0.1	-160.25
8332	24.	4.1818	0.1	-167.39
8333	24.	4.	0.1	-173.39
8334	24.	3.8182	0.1	-178.29
8335	24.	3.6364	0.1	-182.17
8336	24.	3.4545	0.1	-185.04
8337	24.	3.2727	0.1	-186.95
8338	24.	3.0909	0.1	-187.89
8339	24.	2.9091	0.1	-187.89
8340	24.	2.7273	0.1	-186.95
8341	24.	2.5455	0.1	-185.04
8342	24.	2.3636	0.1	-182.17
8343	24.	2.1818	0.1	-178.29
8344	24.	2.	0.1	-173.39
8345	24.	1.8182	0.1	-167.39
8346	24.	1.6364	0.1	-160.25
8347	24.	1.4545	0.1	-151.87
8348	24.	1.2727	0.1	-142.14
8349	24.	1.0909	0.1	-130.9
8350	24.	0.90909	0.1	-117.93
8351	24.	0.72727	0.1	-102.9
8352	24.	0.54545	0.1	-85.283
8353	24.	0.36364	0.1	-64.087
8354	24.	0.18182	0.1	-36.648
8355	1.5894e-015	0.18182	0.1	1147.5
8356	3.1789e-015	0.36364	0.1	2316.8
8357	4.7683e-015	0.54545	0.1	2849.9
8358	6.3578e-015	0.72727	0.1	3165.6
8359	7.9472e-015	0.90909	0.1	3371.9
8360	9.5366e-015	1.0909	0.1	3515.3
8361	1.1126e-014	1.2727	0.1	3617.2
8362	1.2716e-014	1.4545	0.1	3690.3
8363	1.4305e-014	1.6364	0.1	3742.6
8364	1.5894e-014	1.8182	0.1	3779.5
8365	1.7484e-014	2.	0.1	3805.
8366	1.9073e-014	2.1818	0.1	3822.3
8367	2.0663e-014	2.3636	0.1	3833.4
8368	2.2252e-014	2.5455	0.1	3840.3
8369	2.3842e-014	2.7273	0.1	3844.2
8370	2.5431e-014	2.9091	0.1	3846.
8371	2.702e-014	3.0909	0.1	3846.
8372	2.861e-014	3.2727	0.1	3844.2
8373	3.0199e-014	3.4545	0.1	3840.3
8374	3.1789e-014	3.6364	0.1	3833.4
8375	3.3378e-014	3.8182	0.1	3822.3
8376	3.4968e-014	4.	0.1	3805.
8377	3.6557e-014	4.1818	0.1	3779.5
8378	3.8147e-014	4.3636	0.1	3742.6
8379	3.9736e-014	4.5455	0.1	3690.3
8380	4.1325e-014	4.7273	0.1	3617.2
8381	4.2915e-014	4.9091	0.1	3515.3
8382	4.4504e-014	5.0909	0.1	3371.9
8383	4.6094e-014	5.2727	0.1	3165.6
8384	4.7683e-014	5.4545	0.1	2849.9
8385	4.9273e-014	5.6364	0.1	2316.8
8386	5.0862e-014	5.8182	0.1	1147.5
8387	24.	0.	0.1	-5.722
8388	23.815	0.	0.1	-11.509
8389	23.631	0.	0.1	-13.806
8390	23.446	0.	0.1	-14.465
8391	23.261	0.	0.1	-14.911
8392	23.076	0.	0.1	-15.154
8393	22.892	0.	0.1	-15.283
8394	22.707	0.	0.1	-15.329
8395	22.522	0.	0.1	-15.316
8396	22.338	0.	0.1	-15.256
8397	22.153	0.	0.1	-15.161
8398	21.968	0.	0.1	-15.038
8399	21.783	0.	0.1	-14.893
8400	21.599	0.	0.1	-14.73
8401	21.414	0.	0.1	-14.553
8402	21.229	0.	0.1	-14.365
8403	21.045	0.	0.1	-14.169
8404	20.86	0.	0.1	-13.967
8405	20.675	0.	0.1	-13.76
8406	20.491	0.	0.1	-13.551
8407	20.306	0.	0.1	-13.339
8408	20.121	0.	0.1	-13.127
8409	19.936	0.	0.1	-12.915
8410	19.752	0.	0.1	-12.704
8411	19.567	0.	0.1	-12.494
8412	19.382	0.	0.1	-12.287
8413	19.198	0.	0.1	-12.082
8414	19.013	0.	0.1	-11.88
8415	18.828	0.	0.1	-11.68
8416	18.643	0.	0.1	-11.484
8417	18.459	0.	0.1	-11.292
8418	18.274	0.	0.1	-11.103
8419	18.089	0.	0.1	-10.917
8420	17.905	0.	0.1	-10.735
8421	17.72	0.	0.1	-10.557
8422	17.535	0.	0.1	-10.382
8423	17.35	0.	0.1	-10.21
8424	17.166	0.	0.1	-10.042
8425	16.981	0.	0.1	-9.8769
8426	16.796	0.	0.1	-9.7149
8427	16.612	0.	0.1	-9.5557
8428	16.427	0.	0.1	-9.3993
8429	16.242	0.	0.1	-9.2454
8430	16.057	0.	0.1	-9.0939
8431	15.873	0.	0.1	-8.9446
8432	15.688	0.	0.1	-8.7973
8433	15.503	0.	0.1	-8.6517
8434	15.319	0.	0.1	-8.5076
8435	15.134	0.	0.1	-8.3649
8436	14.949	0.	0.1	-8.2231
8437	14.765	0.	0.1	-8.0823
8438	14.58	0.	0.1	-7.9419
8439	14.395	0.	0.1	-7.8017
8440	14.21	0.	0.1	-7.6616
8441	14.026	0.	0.1	-7.5212
8442	13.841	0.	0.1	-7.3802
8443	13.656	0.	0.1	-7.2383
8444	13.472	0.	0.1	-7.0953
8445	13.287	0.	0.1	-6.9507
8446	13.102	0.	0.1	-6.8043
8447	12.917	0.	0.1	-6.6558
8448	12.733	0.	0.1	-6.5048
8449	12.548	0.	0.1	-6.3511
8450	12.363	0.	0.1	-6.1942
8451	12.179	0.	0.1	-6.034
8452	11.994	0.	0.1	-5.8701
8453	11.809	0.	0.1	-5.7022
8454	11.624	0.	0.1	-5.5301
8455	11.44	0.	0.1	-5.3536
8456	11.255	0.	0.1	-5.1725
8457	11.07	0.	0.1	-4.9867
8458	10.886	0.	0.1	-4.7963
8459	10.701	0.	0.1	-4.6012
8460	10.516	0.	0.1	-4.4018
8461	10.331	0.	0.1	-4.1985
8462	10.147	0.	0.1	-3.9917
8463	9.9621	0.	0.1	-3.7823
8464	9.7774	0.	0.1	-3.5714
8465	9.5927	0.	0.1	-3.3603
8466	9.408	0.	0.1	-3.1509
8467	9.2232	0.	0.1	-2.9454
8468	9.0385	0.	0.1	-2.7466
8469	8.8538	0.	0.1	-2.5578
8470	8.6691	0.	0.1	-2.3833
8471	8.4844	0.	0.1	-2.2279
8472	8.2997	0.	0.1	-2.0974
8473	8.115	0.	0.1	-1.9989
8474	7.9303	0.	0.1	-1.9404
8475	7.7456	0.	0.1	-1.9316
8476	7.5609	0.	0.1	-1.9836
8477	7.3761	0.	0.1	-2.1095
8478	7.1914	0.	0.1	-2.3247
8479	7.0067	0.	0.1	-2.6473
8480	6.822	0.	0.1	-3.0987
8481	6.6373	0.	0.1	-3.7042
8482	6.4526	0.	0.1	-4.4941
8483	6.2679	0.	0.1	-5.5035
8484	6.0832	0.	0.1	-6.773
8485	5.8985	0.	0.1	-8.3472
8486	5.7138	0.	0.1	-10.271
8487	5.5291	0.	0.1	-12.579
8488	5.3443	0.	0.1	-15.286
8489	5.1596	0.	0.1	-18.348
8490	4.9749	0.	0.1	-21.63
8491	4.7902	0.	0.1	-24.811
8492	4.6055	0.	0.1	-27.364
8493	4.4208	0.	0.1	-28.114
8494	4.2361	0.	0.1	-26.11
8495	4.0514	0.	0.1	-22.631
8496	3.8667	0.	0.1	-14.066
8497	3.7	0.	0.1	-18.109
8498	3.515	-1.5559e-030	0.1	-33.586
8499	3.33	-1.474e-030	0.1	-42.886
8500	3.145	-1.3921e-030	0.1	-49.735
8501	2.96	-1.3102e-030	0.1	-52.368
8502	2.775	-1.2283e-030	0.1	-52.182
8503	2.59	-1.1465e-030	0.1	-50.925
8504	2.405	-1.0646e-030	0.1	-49.53
8505	2.22	-9.8268e-031	0.1	-48.686
8506	2.035	-9.0079e-031	0.1	-48.87
8507	1.85	-8.189e-031	0.1	-50.476
8508	1.665	-7.3701e-031	0.1	-53.896
8509	1.48	-6.5512e-031	0.1	-59.581
8510	1.295	-5.7323e-031	0.1	-68.203
8511	1.11	-4.9134e-031	0.1	-80.607
8512	0.925	-4.0945e-031	0.1	-98.817
8513	0.74	-3.2756e-031	0.1	-124.62
8514	0.555	-2.4567e-031	0.1	-168.04
8515	0.37	-1.6378e-031	0.1	-238.26
8516	0.185	-8.189e-032	0.1	-433.02
8517	0.	0.	0.1	-1699.
8518	3.937e-014	6.	0.1	-1699.
8519	0.185	6.	0.1	-433.02
8520	0.37	6.	0.1	-238.26
8521	0.555	6.	0.1	-168.04
8522	0.74	6.	0.1	-124.62
8523	0.925	6.	0.1	-98.817
8524	1.11	6.	0.1	-80.607
8525	1.295	6.	0.1	-68.203
8526	1.48	6.	0.1	-59.581
8527	1.665	6.	0.1	-53.896
8528	1.85	6.	0.1	-50.476
8529	2.035	6.	0.1	-48.87
8530	2.22	6.	0.1	-48.686
8531	2.405	6.	0.1	-49.53
8532	2.59	6.	0.1	-50.925
8533	2.775	6.	0.1	-52.182
8534	2.96	6.	0.1	-52.368
8535	3.145	6.	0.1	-49.735
8536	3.33	6.	0.1	-42.886
8537	3.515	6.	0.1	-33.586
8538	3.7	6.	0.1	-18.109
8539	3.515	6.	0.	-827.24
8540	3.33	6.	0.	-1607.9
8541	3.145	6.	0.	-2302.8
8542	2.96	6.	0.	-2925.7
8543	2.775	6.	0.	-3477.4
8544	2.59	6.	0.	-3958.2
8545	2.405	6.	0.	-4371.2
8546	2.22	6.	0.	-4721.1
8547	2.035	6.	0.	-5013.4
8548	1.85	6.	0.	-5253.1
8549	1.665	6.	0.	-5444.2
8550	1.48	6.	0.	-5588.7
8551	1.295	6.	0.	-5685.5
8552	1.11	6.	0.	-5729.3
8553	0.925	6.	0.	-5707.2
8554	0.74	6.	0.	-5594.7
8555	0.555	6.	0.	-5333.6
8556	0.37	6.	0.	-4820.
8557	0.185	6.	0.	-3661.3
8558	3.7	6.	0.	-81.617
8559	3.937e-014	6.	0.	-899.73
8560	0.185	-8.189e-032	0.	-3661.3
8561	0.37	-1.6378e-031	0.	-4820.
8562	0.555	-2.4567e-031	0.	-5333.5
8563	0.74	-3.2756e-031	0.	-5594.7
8564	0.925	-4.0945e-031	0.	-5707.2
8565	1.11	-4.9134e-031	0.	-5729.3
8566	1.295	-5.7323e-031	0.	-5685.5
8567	1.48	-6.5512e-031	0.	-5588.7
8568	1.665	-7.3701e-031	0.	-5444.2
8569	1.85	-8.189e-031	0.	-5253.1
8570	2.035	-9.0079e-031	0.	-5013.4
8571	2.22	-9.8268e-031	0.	-4721.1
8572	2.405	-1.0646e-030	0.	-4371.2
8573	2.59	-1.1465e-030	0.	-3958.2
8574	2.775	-1.2283e-030	0.	-3477.4
8575	2.96	-1.3102e-030	0.	-2925.7
8576	3.145	-1.3921e-030	0.	-2302.8
8577	3.33	-1.474e-030	0.	-1607.9
8578	3.515	-1.5559e-030	0.	-827.24
8579	3.7	0.	0.	-81.617
8580	0.	0.	0.	-899.73
8581	4.0514	0.	0.	-649.82
8582	4.2361	0.	0.	-1273.2
8583	4.4208	0.	0.	-1825.8
8584	4.6055	0.	0.	-2313.3
8585	4.7902	0.	0.	-2734.
8586	4.9749	0.	0.	-3087.7
8587	5.1596	0.	0.	-3377.9
8588	5.3443	0.	0.	-3609.9
8589	5.5291	0.	0.	-3790.7
8590	5.7138	0.	0.	-3927.4
8591	5.8985	0.	0.	-4026.9
8592	6.0832	0.	0.	-4095.5
8593	6.2679	0.	0.	-4138.9
8594	6.4526	0.	0.	-4161.7
8595	6.6373	0.	0.	-4168.
8596	6.822	0.	0.	-4161.1
8597	7.0067	0.	0.	-4143.7
8598	7.1914	0.	0.	-4117.9
8599	7.3761	0.	0.	-4085.6
8600	7.5609	0.	0.	-4048.2
8601	7.7456	0.	0.	-4006.8
8602	7.9303	0.	0.	-3962.3
8603	8.115	0.	0.	-3915.5
8604	8.2997	0.	0.	-3866.9
8605	8.4844	0.	0.	-3817.
8606	8.6691	0.	0.	-3766.1
8607	8.8538	0.	0.	-3714.5
8608	9.0385	0.	0.	-3662.4
8609	9.2232	0.	0.	-3610.
8610	9.408	0.	0.	-3557.4
8611	9.5927	0.	0.	-3504.8
8612	9.7774	0.	0.	-3452.2
8613	9.9621	0.	0.	-3399.6
8614	10.147	0.	0.	-3347.1
8615	10.331	0.	0.	-3294.8
8616	10.516	0.	0.	-3242.6
8617	10.701	0.	0.	-3190.6
8618	10.886	0.	0.	-3138.9
8619	11.07	0.	0.	-3087.3
8620	11.255	0.	0.	-3036.
8621	11.44	0.	0.	-2984.9
8622	11.624	0.	0.	-2934.
8623	11.809	0.	0.	-2883.3
8624	11.994	0.	0.	-2832.9
8625	12.179	0.	0.	-2782.7
8626	12.363	0.	0.	-2732.7
8627	12.548	0.	0.	-2683.
8628	12.733	0.	0.	-2633.4
8629	12.917	0.	0.	-2584.1
8630	13.102	0.	0.	-2535.1
8631	13.287	0.	0.	-2486.2
8632	13.472	0.	0.	-2437.6
8633	13.656	0.	0.	-2389.2
8634	13.841	0.	0.	-2341.
8635	14.026	0.	0.	-2293.
8636	14.21	0.	0.	-2245.2
8637	14.395	0.	0.	-2197.7
8638	14.58	0.	0.	-2150.3
8639	14.765	0.	0.	-2103.2
8640	14.949	0.	0.	-2056.3
8641	15.134	0.	0.	-2009.5
8642	15.319	0.	0.	-1963.
8643	15.503	0.	0.	-1916.7
8644	15.688	0.	0.	-1870.6
8645	15.873	0.	0.	-1824.7
8646	16.057	0.	0.	-1779.
8647	16.242	0.	0.	-1733.5
8648	16.427	0.	0.	-1688.2
8649	16.612	0.	0.	-1643.1
8650	16.796	0.	0.	-1598.2
8651	16.981	0.	0.	-1553.5
8652	17.166	0.	0.	-1509.
8653	17.35	0.	0.	-1464.7
8654	17.535	0.	0.	-1420.6
8655	17.72	0.	0.	-1376.6
8656	17.905	0.	0.	-1332.9
8657	18.089	0.	0.	-1289.3
8658	18.274	0.	0.	-1245.9
8659	18.459	0.	0.	-1202.7
8660	18.643	0.	0.	-1159.7
8661	18.828	0.	0.	-1116.9
8662	19.013	0.	0.	-1074.2
8663	19.198	0.	0.	-1031.7
8664	19.382	0.	0.	-989.4
8665	19.567	0.	0.	-947.25
8666	19.752	0.	0.	-905.27
8667	19.936	0.	0.	-863.45
8668	20.121	0.	0.	-821.8
8669	20.306	0.	0.	-780.3
8670	20.491	0.	0.	-738.96
8671	20.675	0.	0.	-697.78
8672	20.86	0.	0.	-656.76
8673	21.045	0.	0.	-615.88
8674	21.229	0.	0.	-575.16
8675	21.414	0.	0.	-534.6
8676	21.599	0.	0.	-494.19
8677	21.783	0.	0.	-453.95
8678	21.968	0.	0.	-413.89
8679	22.153	0.	0.	-374.
8680	22.338	0.	0.	-334.32
8681	22.522	0.	0.	-294.87
8682	22.707	0.	0.	-255.69
8683	22.892	0.	0.	-216.84
8684	23.076	0.	0.	-178.39
8685	23.261	0.	0.	-140.48
8686	23.446	0.	0.	-103.33
8687	23.631	0.	0.	-67.337
8688	23.815	0.	0.	-33.428
8689	3.8667	0.	0.	-62.945
8690	24.	0.	0.	-5.1799
8691	5.0862e-014	5.8182	0.	-2661.2
8692	4.9273e-014	5.6364	0.	-4787.9
8693	4.7683e-014	5.4545	0.	-5817.3
8694	4.6094e-014	5.2727	0.	-6445.2
8695	4.4504e-014	5.0909	0.	-6857.9
8696	4.2915e-014	4.9091	0.	-7145.1
8697	4.1325e-014	4.7273	0.	-7349.5
8698	3.9736e-014	4.5455	0.	-7496.2
8699	3.8147e-014	4.3636	0.	-7601.1
8700	3.6557e-014	4.1818	0.	-7675.2
8701	3.4968e-014	4.	0.	-7726.5
8702	3.3378e-014	3.8182	0.	-7760.9
8703	3.1789e-014	3.6364	0.	-7783.3
8704	3.0199e-014	3.4545	0.	-7797.1
8705	2.861e-014	3.2727	0.	-7804.9
8706	2.702e-014	3.0909	0.	-7808.4
8707	2.5431e-014	2.9091	0.	-7808.4
8708	2.3842e-014	2.7273	0.	-7804.9
8709	2.2252e-014	2.5455	0.	-7797.1
8710	2.0663e-014	2.3636	0.	-7783.3
8711	1.9073e-014	2.1818	0.	-7760.9
8712	1.7484e-014	2.	0.	-7726.5
8713	1.5894e-014	1.8182	0.	-7675.2
8714	1.4305e-014	1.6364	0.	-7601.1
8715	1.2716e-014	1.4545	0.	-7496.2
8716	1.1126e-014	1.2727	0.	-7349.5
8717	9.5366e-015	1.0909	0.	-7145.1
8718	7.9472e-015	0.90909	0.	-6857.9
8719	6.3578e-015	0.72727	0.	-6445.2
8720	4.7683e-015	0.54545	0.	-5817.3
8721	3.1789e-015	0.36364	0.	-4787.9
8722	1.5894e-015	0.18182	0.	-2661.2
8723	24.	0.18182	0.	-6.7501
8724	24.	0.36364	0.	-7.1426
8725	24.	0.54545	0.	-7.267
8726	24.	0.72727	0.	-7.3075
8727	24.	0.90909	0.	-7.287
8728	24.	1.0909	0.	-7.2473
8729	24.	1.2727	0.	-7.1972
8730	24.	1.4545	0.	-7.1447
8731	24.	1.6364	0.	-7.0935
8732	24.	1.8182	0.	-7.046
8733	24.	2.	0.	-7.0036
8734	24.	2.1818	0.	-6.9674
8735	24.	2.3636	0.	-6.9379
8736	24.	2.5455	0.	-6.9155
8737	24.	2.7273	0.	-6.9005
8738	24.	2.9091	0.	-6.8929
8739	24.	3.0909	0.	-6.8929
8740	24.	3.2727	0.	-6.9005
8741	24.	3.4545	0.	-6.9156
8742	24.	3.6364	0.	-6.9379
8743	24.	3.8182	0.	-6.9674
8744	24.	4.	0.	-7.0036
8745	24.	4.1818	0.	-7.046
8746	24.	4.3636	0.	-7.0935
8747	24.	4.5455	0.	-7.1447
8748	24.	4.7273	0.	-7.1972
8749	24.	4.9091	0.	-7.2473
8750	24.	5.0909	0.	-7.287
8751	24.	5.2727	0.	-7.3075
8752	24.	5.4545	0.	-7.267
8753	24.	5.6364	0.	-7.1426
8754	24.	5.8182	0.	-6.7501
8755	24.	6.	0.	-5.1799
8756	23.815	6.	0.	-33.428
8757	23.631	6.	0.	-67.337
8758	23.446	6.	0.	-103.33
8759	23.261	6.	0.	-140.48
8760	23.076	6.	0.	-178.39
8761	22.892	6.	0.	-216.84
8762	22.707	6.	0.	-255.69
8763	22.522	6.	0.	-294.87
8764	22.338	6.	0.	-334.32
8765	22.153	6.	0.	-374.
8766	21.968	6.	0.	-413.89
8767	21.783	6.	0.	-453.95
8768	21.599	6.	0.	-494.19
8769	21.414	6.	0.	-534.6
8770	21.229	6.	0.	-575.16
8771	21.045	6.	0.	-615.88
8772	20.86	6.	0.	-656.76
8773	20.675	6.	0.	-697.78
8774	20.491	6.	0.	-738.96
8775	20.306	6.	0.	-780.3
8776	20.121	6.	0.	-821.8
8777	19.936	6.	0.	-863.45
8778	19.752	6.	0.	-905.27
8779	19.567	6.	0.	-947.25
8780	19.382	6.	0.	-989.4
8781	19.198	6.	0.	-1031.7
8782	19.013	6.	0.	-1074.2
8783	18.828	6.	0.	-1116.9
8784	18.643	6.	0.	-1159.7
8785	18.459	6.	0.	-1202.7
8786	18.274	6.	0.	-1245.9
8787	18.089	6.	0.	-1289.3
8788	17.905	6.	0.	-1332.9
8789	17.72	6.	0.	-1376.6
8790	17.535	6.	0.	-1420.6
8791	17.35	6.	0.	-1464.7
8792	17.166	6.	0.	-1509.
8793	16.981	6.	0.	-1553.5
8794	16.796	6.	0.	-1598.2
8795	16.612	6.	0.	-1643.1
8796	16.427	6.	0.	-1688.2
8797	16.242	6.	0.	-1733.5
8798	16.057	6.	0.	-1779.
8799	15.873	6.	0.	-1824.7
8800	15.688	6.	0.	-1870.6
8801	15.503	6.	0.	-1916.7
8802	15.319	6.	0.	-1963.
8803	15.134	6.	0.	-2009.5
8804	14.949	6.	0.	-2056.3
8805	14.765	6.	0.	-2103.2
8806	14.58	6.	0.	-2150.3
8807	14.395	6.	0.	-2197.7
8808	14.21	6.	0.	-2245.2
8809	14.026	6.	0.	-2293.
8810	13.841	6.	0.	-2341.
8811	13.656	6.	0.	-2389.2
8812	13.472	6.	0.	-2437.6
8813	13.287	6.	0.	-2486.2
8814	13.102	6.	0.	-2535.1
8815	12.917	6.	0.	-2584.1
8816	12.733	6.	0.	-2633.4
8817	12.548	6.	0.	-2683.
8818	12.363	6.	0.	-2732.7
8819	12.179	6.	0.	-2782.7
8820	11.994	6.	0.	-2832.9
8821	11.809	6.	0.	-2883.3
8822	11.624	6.	0.	-2934.
8823	11.44	6.	0.	-2984.9
8824	11.255	6.	0.	-3036.
8825	11.07	6.	0.	-3087.3
8826	10.886	6.	0.	-3138.9
8827	10.701	6.	0.	-3190.6
8828	10.516	6.	0.	-3242.6
8829	10.331	6.	0.	-3294.8
8830	10.147	6.	0.	-3347.1
8831	9.9621	6.	0.	-3399.6
8832	9.7774	6.	0.	-3452.2
8833	9.5927	6.	0.	-3504.8
8834	9.408	6.	0.	-3557.4
8835	9.2232	6.	0.	-3610.
8836	9.0385	6.	0.	-3662.4
8837	8.8538	6.	0.	-3714.5
8838	8.6691	6.	0.	-3766.1
8839	8.4844	6.	0.	-3817.
8840	8.2997	6.	0.	-3866.9
8841	8.115	6.	0.	-3915.5
8842	7.9303	6.	0.	-3962.3
8843	7.7456	6.	0.	-4006.8
8844	7.5609	6.	0.	-4048.2
8845	7.3761	6.	0.	-4085.6
8846	7.1914	6.	0.	-4117.9
8847	7.0067	6.	0.	-4143.7
8848	6.822	6.	0.	-4161.1
8849	6.6373	6.	0.	-4168.
8850	6.4526	6.	0.	-4161.7
8851	6.2679	6.	0.	-4138.9
8852	6.0832	6.	0.	-4095.5
8853	5.8985	6.	0.	-4026.9
8854	5.7138	6.	0.	-3927.4
8855	5.5291	6.	0.	-3790.7
8856	5.3443	6.	0.	-3609.9
8857	5.1596	6.	0.	-3377.9
8858	4.9749	6.	0.	-3087.7
8859	4.7902	6.	0.	-2734.
8860	4.6055	6.	0.	-2313.3
8861	4.4208	6.	0.	-1825.8
8862	4.2361	6.	0.	-1273.2
8863	4.0514	6.	0.	-649.82
8864	3.8667	6.	0.	-62.945
8865	3.7	1.8182	0.	-7071.5
8866	3.7	1.6364	0.	-4865.5
8867	3.7	1.4545	0.	-3970.3
8868	3.7	1.2727	0.	-3298.5
8869	3.7	1.0909	0.	-2784.5
8870	3.7	0.90909	0.	-2342.9
8871	3.7	0.72727	0.	-1937.6
8872	3.7	0.54545	0.	-1541.3
8873	3.7	0.36364	0.	-1127.6
8874	3.7	0.18182	0.	-642.94
8875	3.7	2.	0.	-27067
8876	3.8667	0.18182	0.	-482.59
8877	3.8667	0.36364	0.	-843.51
8878	3.8667	0.54545	0.	-1160.7
8879	3.8667	0.72727	0.	-1478.9
8880	3.8667	0.90909	0.	-1822.4
8881	3.8667	1.0909	0.	-2218.4
8882	3.8667	1.2727	0.	-2703.3
8883	3.8667	1.4545	0.	-3363.7
8884	3.8667	1.6364	0.	-4271.7
8885	3.8667	1.8182	0.	-6481.4
8886	3.8667	2.	0.	-26419
8887	3.7	4.1818	0.	-7071.5
8888	3.7	4.3636	0.	-4865.5
8889	3.7	4.5455	0.	-3970.3
8890	3.7	4.7273	0.	-3298.5
8891	3.7	4.9091	0.	-2784.5
8892	3.7	5.0909	0.	-2342.9
8893	3.7	5.2727	0.	-1937.6
8894	3.7	5.4545	0.	-1541.3
8895	3.7	5.6364	0.	-1127.6
8896	3.7	5.8182	0.	-642.94
8897	3.7	4.	0.	-27067
8898	3.8667	5.8182	0.	-482.59
8899	3.8667	5.6364	0.	-843.51
8900	3.8667	5.4545	0.	-1160.7
8901	3.8667	5.2727	0.	-1478.9
8902	3.8667	5.0909	0.	-1822.4
8903	3.8667	4.9091	0.	-2218.4
8904	3.8667	4.7273	0.	-2703.3
8905	3.8667	4.5455	0.	-3363.7
8906	3.8667	4.3636	0.	-4271.7
8907	3.8667	4.1818	0.	-6481.4
8908	3.8667	4.	0.	-26419
8909	3.7	2.2727	0.	-16717
8910	3.7833	2.1818	0.	-18376
8911	3.6075	2.1818	0.	-16162
8912	3.7	2.1818	5.e-002	-621.54
8913	3.7	2.0909	0.	-22500
8914	3.7	2.4545	0.	-13940
8915	3.7833	2.3636	0.	-14710
8916	3.6075	2.3636	0.	-13945
8917	3.7	2.3636	5.e-002	-111.9
8918	3.7	2.6364	0.	-12626
8919	3.7833	2.5455	0.	-13018
8920	3.6075	2.5455	0.	-12626
8921	3.7	2.5455	5.e-002	-49.588
8922	3.7	2.8182	0.	-11995
8923	3.7833	2.7273	0.	-12148
8924	3.6075	2.7273	0.	-11917
8925	3.7	2.7273	5.e-002	-24.035
8926	3.7	3.	0.	-11806
8927	3.7833	2.9091	0.	-11775
8928	3.6075	2.9091	0.	-11599
8929	3.7	2.9091	5.e-002	-10.812
8930	3.7	3.1818	0.	-11995
8931	3.7833	3.0909	0.	-11775
8932	3.6075	3.0909	0.	-11599
8933	3.7	3.0909	5.e-002	-10.813
8934	3.7	3.3636	0.	-12626
8935	3.7833	3.2727	0.	-12148
8936	3.6075	3.2727	0.	-11917
8937	3.7	3.2727	5.e-002	-24.035
8938	3.7	3.5455	0.	-13940
8939	3.7833	3.4545	0.	-13018
8940	3.6075	3.4545	0.	-12626
8941	3.7	3.4545	5.e-002	-49.589
8942	3.7	3.7273	0.	-16717
8943	3.7833	3.6364	0.	-14710
8944	3.6075	3.6364	0.	-13945
8945	3.7	3.6364	5.e-002	-111.9
8946	3.7833	3.8182	0.	-18376
8947	3.6075	3.8182	0.	-16162
8948	3.7	3.8182	5.e-002	-621.54
8949	3.7	3.9091	0.	-22500
8950	3.8667	2.2727	0.	-16595
8951	3.959	2.1818	0.	-15903
8952	3.8667	2.1818	5.e-002	-637.35
8953	3.8667	2.0909	0.	-22102
8954	3.8667	2.4545	0.	-13854
8955	3.959	2.3636	0.	-13760
8956	3.8667	2.3636	5.e-002	-123.93
8957	3.8667	2.6364	0.	-12557
8958	3.959	2.5455	0.	-12477
8959	3.8667	2.5455	5.e-002	-64.917
8960	3.8667	2.8182	0.	-11932
8961	3.959	2.7273	0.	-11785
8962	3.8667	2.7273	5.e-002	-38.114
8963	3.8667	3.	0.	-11745
8964	3.959	2.9091	0.	-11475
8965	3.8667	2.9091	5.e-002	-27.729
8966	3.8667	3.1818	0.	-11932
8967	3.959	3.0909	0.	-11475
8968	3.8667	3.0909	5.e-002	-27.73
8969	3.8667	3.3636	0.	-12557
8970	3.959	3.2727	0.	-11785
8971	3.8667	3.2727	5.e-002	-38.115
8972	3.8667	3.5455	0.	-13854
8973	3.959	3.4545	0.	-12477
8974	3.8667	3.4545	5.e-002	-64.918
8975	3.8667	3.7273	0.	-16595
8976	3.959	3.6364	0.	-13760
8977	3.8667	3.6364	5.e-002	-123.93
8978	3.959	3.8182	0.	-15903
8979	3.8667	3.8182	5.e-002	-637.35
8980	3.8667	3.9091	0.	-22102
8981	3.515	5.7273	0.	-1404.5
8982	3.4225	5.8182	0.	-1490.7
8983	3.515	5.8182	5.e-002	-96.668
8984	3.515	5.9091	0.	-964.84
8985	3.6075	5.8182	0.	-853.82
8986	3.515	5.5455	0.	-1892.4
8987	3.4225	5.6364	0.	-1828.5
8988	3.515	5.6364	5.e-002	-85.914
8989	3.6075	5.6364	0.	-1316.7
8990	3.515	5.3636	0.	-2418.7
8991	3.4225	5.4545	0.	-2276.3
8992	3.515	5.4545	5.e-002	-89.74
8993	3.6075	5.4545	0.	-1770.9
8994	3.515	5.1818	0.	-2978.3
8995	3.4225	5.2727	0.	-2773.6
8996	3.515	5.2727	5.e-002	-98.447
8997	3.6075	5.2727	0.	-2224.7
8998	3.515	5.	0.	-3598.4
8999	3.4225	5.0909	0.	-3323.8
9000	3.515	5.0909	5.e-002	-111.71
9001	3.6075	5.0909	0.	-2701.1
9002	3.515	4.8182	0.	-4323.
9003	3.4225	4.9091	0.	-3951.4
9004	3.515	4.9091	5.e-002	-130.6
9005	3.6075	4.9091	0.	-3229.7
9006	3.515	4.6364	0.	-5239.2
9007	3.4225	4.7273	0.	-4701.4
9008	3.515	4.7273	5.e-002	-159.88
9009	3.6075	4.7273	0.	-3854.1
9010	3.515	4.4545	0.	-6501.3
9011	3.4225	4.5455	0.	-5661.5
9012	3.515	4.5455	5.e-002	-197.13
9013	3.6075	4.5455	0.	-4666.4
9014	3.515	4.2727	0.	-8655.2
9015	3.4225	4.3636	0.	-6957.8
9016	3.515	4.3636	5.e-002	-293.92
9017	3.6075	4.3636	0.	-5800.
9018	3.515	4.0909	0.	-11859
9019	3.4225	4.1818	0.	-9147.2
9020	3.515	4.1818	5.e-002	-529.56
9021	3.6075	4.1818	0.	-7871.3
9022	3.515	3.9091	0.	-13756
9023	3.4225	4.	0.	-11682
9024	3.515	4.	5.e-002	-938.16
9025	3.6075	4.	0.	-20311
9026	3.515	3.7273	0.	-13512
9027	3.4225	3.8182	0.	-12312
9028	3.515	3.8182	5.e-002	-461.48
9029	3.515	3.5455	0.	-12665
9030	3.4225	3.6364	0.	-12068
9031	3.515	3.6364	5.e-002	-190.97
9032	3.515	3.3636	0.	-11926
9033	3.4225	3.4545	0.	-11555
9034	3.515	3.4545	5.e-002	-102.41
9035	3.515	3.1818	0.	-11521
9036	3.4225	3.2727	0.	-11198
9037	3.515	3.2727	5.e-002	-58.58
9038	3.515	3.	0.	-11390
9039	3.4225	3.0909	0.	-11016
9040	3.515	3.0909	5.e-002	-43.214
9041	3.515	2.8182	0.	-11521
9042	3.4225	2.9091	0.	-11016
9043	3.515	2.9091	5.e-002	-43.214
9044	3.515	2.6364	0.	-11926
9045	3.4225	2.7273	0.	-11198
9046	3.515	2.7273	5.e-002	-58.579
9047	3.515	2.4545	0.	-12665
9048	3.4225	2.5455	0.	-11555
9049	3.515	2.5455	5.e-002	-102.41
9050	3.515	2.2727	0.	-13512
9051	3.4225	2.3636	0.	-12068
9052	3.515	2.3636	5.e-002	-190.96
9053	3.515	2.0909	0.	-13756
9054	3.4225	2.1818	0.	-12312
9055	3.515	2.1818	5.e-002	-461.48
9056	3.515	1.9091	0.	-11859
9057	3.4225	2.	0.	-11682
9058	3.515	2.	5.e-002	-938.15
9059	3.6075	2.	0.	-20311
9060	3.515	1.7273	0.	-8655.2
9061	3.4225	1.8182	0.	-9147.2
9062	3.515	1.8182	5.e-002	-529.56
9063	3.6075	1.8182	0.	-7871.3
9064	3.515	1.5455	0.	-6501.3
9065	3.4225	1.6364	0.	-6957.8
9066	3.515	1.6364	5.e-002	-293.92
9067	3.6075	1.6364	0.	-5800.
9068	3.515	1.3636	0.	-5239.2
9069	3.4225	1.4545	0.	-5661.5
9070	3.515	1.4545	5.e-002	-197.13
9071	3.6075	1.4545	0.	-4666.4
9072	3.515	1.1818	0.	-4323.
9073	3.4225	1.2727	0.	-4701.4
9074	3.515	1.2727	5.e-002	-159.88
9075	3.6075	1.2727	0.	-3854.1
9076	3.515	1.	0.	-3598.4
9077	3.4225	1.0909	0.	-3951.4
9078	3.515	1.0909	5.e-002	-130.6
9079	3.6075	1.0909	0.	-3229.7
9080	3.515	0.81818	0.	-2978.3
9081	3.4225	0.90909	0.	-3323.8
9082	3.515	0.90909	5.e-002	-111.71
9083	3.6075	0.90909	0.	-2701.1
9084	3.515	0.63636	0.	-2418.7
9085	3.4225	0.72727	0.	-2773.6
9086	3.515	0.72727	5.e-002	-98.447
9087	3.6075	0.72727	0.	-2224.7
9088	3.515	0.45455	0.	-1892.4
9089	3.4225	0.54545	0.	-2276.3
9090	3.515	0.54545	5.e-002	-89.74
9091	3.6075	0.54545	0.	-1770.9
9092	3.515	0.27273	0.	-1404.5
9093	3.4225	0.36364	0.	-1828.5
9094	3.515	0.36364	5.e-002	-85.914
9095	3.6075	0.36364	0.	-1316.7
9096	3.4225	0.18182	0.	-1490.7
9097	3.515	0.18182	5.e-002	-96.668
9098	3.515	9.0909e-002	0.	-964.84
9099	3.6075	0.18182	0.	-853.82
9100	3.33	5.7273	0.	-1947.8
9101	3.2375	5.8182	0.	-2157.6
9102	3.33	5.8182	5.e-002	-86.1
9103	3.33	5.9091	0.	-1690.4
9104	3.33	5.5455	0.	-2262.7
9105	3.2375	5.6364	0.	-2353.5
9106	3.33	5.6364	5.e-002	-72.67
9107	3.33	5.3636	0.	-2681.5
9108	3.2375	5.4545	0.	-2681.6
9109	3.33	5.4545	5.e-002	-72.205
9110	3.33	5.1818	0.	-3168.7
9111	3.2375	5.2727	0.	-3093.4
9112	3.33	5.2727	5.e-002	-74.904
9113	3.33	5.	0.	-3729.
9114	3.2375	5.0909	0.	-3577.7
9115	3.33	5.0909	5.e-002	-80.454
9116	3.33	4.8182	0.	-4389.4
9117	3.2375	4.9091	0.	-4142.9
9118	3.33	4.9091	5.e-002	-89.227
9119	3.33	4.6364	0.	-5196.5
9120	3.2375	4.7273	0.	-4814.6
9121	3.33	4.7273	5.e-002	-100.5
9122	3.33	4.4545	0.	-6221.3
9123	3.2375	4.5455	0.	-5630.7
9124	3.33	4.5455	5.e-002	-122.24
9125	3.33	4.2727	0.	-7523.3
9126	3.2375	4.3636	0.	-6639.6
9127	3.33	4.3636	5.e-002	-118.31
9128	3.33	4.0909	0.	-8916.2
9129	3.2375	4.1818	0.	-7827.9
9130	3.33	4.1818	5.e-002	-171.51
9131	3.33	3.9091	0.	-10130
9132	3.2375	4.	0.	-8961.
9133	3.33	4.	5.e-002	-147.15
9134	3.33	3.7273	0.	-10817
9135	3.2375	3.8182	0.	-9848.
9136	3.33	3.8182	5.e-002	-209.26
9137	3.33	3.5455	0.	-10938
9138	3.2375	3.6364	0.	-10239
9139	3.33	3.6364	5.e-002	-147.12
9140	3.33	3.3636	0.	-10816
9141	3.2375	3.4545	0.	-10300
9142	3.33	3.4545	5.e-002	-108.06
9143	3.33	3.1818	0.	-10683
9144	3.2375	3.2727	0.	-10249
9145	3.33	3.2727	5.e-002	-75.845
9146	3.33	3.	0.	-10632
9147	3.2375	3.0909	0.	-10202
9148	3.33	3.0909	5.e-002	-61.952
9149	3.33	2.8182	0.	-10683
9150	3.2375	2.9091	0.	-10202
9151	3.33	2.9091	5.e-002	-61.952
9152	3.33	2.6364	0.	-10816
9153	3.2375	2.7273	0.	-10249
9154	3.33	2.7273	5.e-002	-75.844
9155	3.33	2.4545	0.	-10938
9156	3.2375	2.5455	0.	-10300
9157	3.33	2.5455	5.e-002	-108.06
9158	3.33	2.2727	0.	-10817
9159	3.2375	2.3636	0.	-10239
9160	3.33	2.3636	5.e-002	-147.12
9161	3.33	2.0909	0.	-10130
9162	3.2375	2.1818	0.	-9848.
9163	3.33	2.1818	5.e-002	-209.25
9164	3.33	1.9091	0.	-8916.2
9165	3.2375	2.	0.	-8961.
9166	3.33	2.	5.e-002	-147.15
9167	3.33	1.7273	0.	-7523.3
9168	3.2375	1.8182	0.	-7827.9
9169	3.33	1.8182	5.e-002	-171.51
9170	3.33	1.5455	0.	-6221.3
9171	3.2375	1.6364	0.	-6639.6
9172	3.33	1.6364	5.e-002	-118.31
9173	3.33	1.3636	0.	-5196.5
9174	3.2375	1.4545	0.	-5630.7
9175	3.33	1.4545	5.e-002	-122.24
9176	3.33	1.1818	0.	-4389.4
9177	3.2375	1.2727	0.	-4814.6
9178	3.33	1.2727	5.e-002	-100.5
9179	3.33	1.	0.	-3729.
9180	3.2375	1.0909	0.	-4142.9
9181	3.33	1.0909	5.e-002	-89.227
9182	3.33	0.81818	0.	-3168.7
9183	3.2375	0.90909	0.	-3577.7
9184	3.33	0.90909	5.e-002	-80.454
9185	3.33	0.63636	0.	-2681.5
9186	3.2375	0.72727	0.	-3093.4
9187	3.33	0.72727	5.e-002	-74.904
9188	3.33	0.45455	0.	-2262.7
9189	3.2375	0.54545	0.	-2681.6
9190	3.33	0.54545	5.e-002	-72.205
9191	3.33	0.27273	0.	-1947.8
9192	3.2375	0.36364	0.	-2353.5
9193	3.33	0.36364	5.e-002	-72.67
9194	3.2375	0.18182	0.	-2157.7
9195	3.33	0.18182	5.e-002	-86.1
9196	3.33	9.0909e-002	0.	-1690.4
9197	3.145	5.7273	0.	-2569.4
9198	3.0525	5.8182	0.	-2790.
9199	3.145	5.8182	5.e-002	-81.224
9200	3.145	5.9091	0.	-2373.3
9201	3.145	5.5455	0.	-2793.
9202	3.0525	5.6364	0.	-2928.6
9203	3.145	5.6364	5.e-002	-67.128
9204	3.145	5.3636	0.	-3124.2
9205	3.0525	5.4545	0.	-3179.6
9206	3.145	5.4545	5.e-002	-66.632
9207	3.145	5.1818	0.	-3538.1
9208	3.0525	5.2727	0.	-3515.7
9209	3.145	5.2727	5.e-002	-68.095
9210	3.145	5.	0.	-4030.5
9211	3.0525	5.0909	0.	-3928.2
9212	3.145	5.0909	5.e-002	-70.777
9213	3.145	4.8182	0.	-4609.5
9214	3.0525	4.9091	0.	-4416.6
9215	3.145	4.9091	5.e-002	-74.332
9216	3.145	4.6364	0.	-5291.2
9217	3.0525	4.7273	0.	-4986.9
9218	3.145	4.7273	5.e-002	-77.672
9219	3.145	4.4545	0.	-6082.5
9220	3.0525	4.5455	0.	-5647.2
9221	3.145	4.5455	5.e-002	-77.047
9222	3.145	4.2727	0.	-6961.9
9223	3.0525	4.3636	0.	-6387.6
9224	3.145	4.3636	5.e-002	-76.278
9225	3.145	4.0909	0.	-7864.2
9226	3.0525	4.1818	0.	-7171.3
9227	3.145	4.1818	5.e-002	-74.883
9228	3.145	3.9091	0.	-8662.6
9229	3.0525	4.	0.	-7925.1
9230	3.145	4.	5.e-002	-92.105
9231	3.145	3.7273	0.	-9246.4
9232	3.0525	3.8182	0.	-8547.1
9233	3.145	3.8182	5.e-002	-100.01
9234	3.145	3.5455	0.	-9580.5
9235	3.0525	3.6364	0.	-8981.2
9236	3.145	3.6364	5.e-002	-101.78
9237	3.145	3.3636	0.	-9717.4
9238	3.0525	3.4545	0.	-9217.9
9239	3.145	3.4545	5.e-002	-86.16
9240	3.145	3.1818	0.	-9755.
9241	3.0525	3.2727	0.	-9321.8
9242	3.145	3.2727	5.e-002	-73.198
9243	3.145	3.	0.	-9760.4
9244	3.0525	3.0909	0.	-9357.3
9245	3.145	3.0909	5.e-002	-65.541
9246	3.145	2.8182	0.	-9755.
9247	3.0525	2.9091	0.	-9357.3
9248	3.145	2.9091	5.e-002	-65.54
9249	3.145	2.6364	0.	-9717.4
9250	3.0525	2.7273	0.	-9321.8
9251	3.145	2.7273	5.e-002	-73.197
9252	3.145	2.4545	0.	-9580.5
9253	3.0525	2.5455	0.	-9217.9
9254	3.145	2.5455	5.e-002	-86.159
9255	3.145	2.2727	0.	-9246.4
9256	3.0525	2.3636	0.	-8981.2
9257	3.145	2.3636	5.e-002	-101.78
9258	3.145	2.0909	0.	-8662.6
9259	3.0525	2.1818	0.	-8547.1
9260	3.145	2.1818	5.e-002	-100.01
9261	3.145	1.9091	0.	-7864.2
9262	3.0525	2.	0.	-7925.1
9263	3.145	2.	5.e-002	-92.104
9264	3.145	1.7273	0.	-6961.9
9265	3.0525	1.8182	0.	-7171.3
9266	3.145	1.8182	5.e-002	-74.883
9267	3.145	1.5455	0.	-6082.5
9268	3.0525	1.6364	0.	-6387.6
9269	3.145	1.6364	5.e-002	-76.278
9270	3.145	1.3636	0.	-5291.2
9271	3.0525	1.4545	0.	-5647.2
9272	3.145	1.4545	5.e-002	-77.047
9273	3.145	1.1818	0.	-4609.5
9274	3.0525	1.2727	0.	-4986.9
9275	3.145	1.2727	5.e-002	-77.672
9276	3.145	1.	0.	-4030.5
9277	3.0525	1.0909	0.	-4416.6
9278	3.145	1.0909	5.e-002	-74.332
9279	3.145	0.81818	0.	-3538.1
9280	3.0525	0.90909	0.	-3928.2
9281	3.145	0.90909	5.e-002	-70.777
9282	3.145	0.63636	0.	-3124.2
9283	3.0525	0.72727	0.	-3515.7
9284	3.145	0.72727	5.e-002	-68.095
9285	3.145	0.45455	0.	-2793.
9286	3.0525	0.54545	0.	-3179.6
9287	3.145	0.54545	5.e-002	-66.632
9288	3.145	0.27273	0.	-2569.4
9289	3.0525	0.36364	0.	-2928.6
9290	3.145	0.36364	5.e-002	-67.128
9291	3.0525	0.18182	0.	-2790.
9292	3.145	0.18182	5.e-002	-81.224
9293	3.145	9.0909e-002	0.	-2373.3
9294	2.96	5.7273	0.	-3151.4
9295	2.8675	5.8182	0.	-3357.3
9296	2.96	5.8182	5.e-002	-75.572
9297	2.96	5.9091	0.	-2988.7
9298	2.96	5.5455	0.	-3323.4
9299	2.8675	5.6364	0.	-3464.8
9300	2.96	5.6364	5.e-002	-60.403
9301	2.96	5.3636	0.	-3587.2
9302	2.8675	5.4545	0.	-3663.5
9303	2.96	5.4545	5.e-002	-59.738
9304	2.96	5.1818	0.	-3927.7
9305	2.8675	5.2727	0.	-3935.4
9306	2.96	5.2727	5.e-002	-60.184
9307	2.96	5.	0.	-4339.6
9308	2.8675	5.0909	0.	-4275.
9309	2.96	5.0909	5.e-002	-60.753
9310	2.96	4.8182	0.	-4820.3
9311	2.8675	4.9091	0.	-4678.1
9312	2.96	4.9091	5.e-002	-60.907
9313	2.96	4.6364	0.	-5367.
9314	2.8675	4.7273	0.	-5140.7
9315	2.96	4.7273	5.e-002	-59.741
9316	2.96	4.4545	0.	-5970.1
9317	2.8675	4.5455	0.	-5655.7
9318	2.96	4.5455	5.e-002	-57.042
9319	2.96	4.2727	0.	-6605.5
9320	2.8675	4.3636	0.	-6207.5
9321	2.96	4.3636	5.e-002	-53.77
9322	2.96	4.0909	0.	-7233.6
9323	2.8675	4.1818	0.	-6767.5
9324	2.96	4.1818	5.e-002	-53.826
9325	2.96	3.9091	0.	-7805.6
9326	2.8675	4.	0.	-7300.8
9327	2.96	4.	5.e-002	-59.082
9328	2.96	3.7273	0.	-8273.
9329	2.8675	3.8182	0.	-7768.2
9330	2.96	3.8182	5.e-002	-64.427
9331	2.96	3.5455	0.	-8606.5
9332	2.8675	3.6364	0.	-8135.6
9333	2.96	3.6364	5.e-002	-67.189
9334	2.96	3.3636	0.	-8809.8
9335	2.8675	3.4545	0.	-8388.2
9336	2.96	3.4545	5.e-002	-65.618
9337	2.96	3.1818	0.	-8912.2
9338	2.8675	3.2727	0.	-8536.6
9339	2.96	3.2727	5.e-002	-61.906
9340	2.96	3.	0.	-8942.6
9341	2.8675	3.0909	0.	-8603.1
9342	2.96	3.0909	5.e-002	-59.214
9343	2.96	2.8182	0.	-8912.2
9344	2.8675	2.9091	0.	-8603.1
9345	2.96	2.9091	5.e-002	-59.213
9346	2.96	2.6364	0.	-8809.8
9347	2.8675	2.7273	0.	-8536.6
9348	2.96	2.7273	5.e-002	-61.905
9349	2.96	2.4545	0.	-8606.5
9350	2.8675	2.5455	0.	-8388.2
9351	2.96	2.5455	5.e-002	-65.617
9352	2.96	2.2727	0.	-8273.
9353	2.8675	2.3636	0.	-8135.6
9354	2.96	2.3636	5.e-002	-67.188
9355	2.96	2.0909	0.	-7805.6
9356	2.8675	2.1818	0.	-7768.2
9357	2.96	2.1818	5.e-002	-64.426
9358	2.96	1.9091	0.	-7233.6
9359	2.8675	2.	0.	-7300.8
9360	2.96	2.	5.e-002	-59.082
9361	2.96	1.7273	0.	-6605.5
9362	2.8675	1.8182	0.	-6767.5
9363	2.96	1.8182	5.e-002	-53.826
9364	2.96	1.5455	0.	-5970.1
9365	2.8675	1.6364	0.	-6207.4
9366	2.96	1.6364	5.e-002	-53.77
9367	2.96	1.3636	0.	-5366.9
9368	2.8675	1.4545	0.	-5655.7
9369	2.96	1.4545	5.e-002	-57.042
9370	2.96	1.1818	0.	-4820.3
9371	2.8675	1.2727	0.	-5140.7
9372	2.96	1.2727	5.e-002	-59.741
9373	2.96	1.	0.	-4339.6
9374	2.8675	1.0909	0.	-4678.1
9375	2.96	1.0909	5.e-002	-60.907
9376	2.96	0.81818	0.	-3927.7
9377	2.8675	0.90909	0.	-4275.
9378	2.96	0.90909	5.e-002	-60.753
9379	2.96	0.63636	0.	-3587.2
9380	2.8675	0.72727	0.	-3935.4
9381	2.96	0.72727	5.e-002	-60.184
9382	2.96	0.45455	0.	-3323.4
9383	2.8675	0.54545	0.	-3663.5
9384	2.96	0.54545	5.e-002	-59.738
9385	2.96	0.27273	0.	-3151.4
9386	2.8675	0.36364	0.	-3464.8
9387	2.96	0.36364	5.e-002	-60.403
9388	2.8675	0.18182	0.	-3357.3
9389	2.96	0.18182	5.e-002	-75.572
9390	2.96	9.0909e-002	0.	-2988.7
9391	2.775	5.7273	0.	-3671.9
9392	2.6825	5.8182	0.	-3855.8
9393	2.775	5.8182	5.e-002	-69.338
9394	2.775	5.9091	0.	-3533.6
9395	2.775	5.5455	0.	-3808.6
9396	2.6825	5.6364	0.	-3940.9
9397	2.775	5.6364	5.e-002	-53.388
9398	2.775	5.3636	0.	-4020.
9399	2.6825	5.4545	0.	-4100.
9400	2.775	5.4545	5.e-002	-52.48
9401	2.775	5.1818	0.	-4295.
9402	2.6825	5.2727	0.	-4318.2
9403	2.775	5.2727	5.e-002	-52.278
9404	2.775	5.	0.	-4628.4
9405	2.6825	5.0909	0.	-4591.4
9406	2.775	5.0909	5.e-002	-51.706
9407	2.775	4.8182	0.	-5014.
9408	2.6825	4.9091	0.	-4914.3
9409	2.775	4.9091	5.e-002	-50.39
9410	2.775	4.6364	0.	-5443.3
9411	2.6825	4.7273	0.	-5279.8
9412	2.775	4.7273	5.e-002	-48.091
9413	2.775	4.4545	0.	-5903.2
9414	2.6825	4.5455	0.	-5677.6
9415	2.775	4.5455	5.e-002	-44.95
9416	2.775	4.2727	0.	-6375.4
9417	2.6825	4.3636	0.	-6093.3
9418	2.775	4.3636	5.e-002	-42.299
9419	2.775	4.0909	0.	-6837.
9420	2.6825	4.1818	0.	-6508.9
9421	2.775	4.1818	5.e-002	-41.828
9422	2.775	3.9091	0.	-7262.7
9423	2.6825	4.	0.	-6904.4
9424	2.775	4.	5.e-002	-43.185
9425	2.775	3.7273	0.	-7627.2
9426	2.6825	3.8182	0.	-7259.
9427	2.775	3.8182	5.e-002	-45.39
9428	2.775	3.5455	0.	-7911.1
9429	2.6825	3.6364	0.	-7553.2
9430	2.775	3.6364	5.e-002	-47.617
9431	2.775	3.3636	0.	-8106.9
9432	2.6825	3.4545	0.	-7773.7
9433	2.775	3.4545	5.e-002	-48.968
9434	2.775	3.1818	0.	-8218.8
9435	2.6825	3.2727	0.	-7916.9
9436	2.775	3.2727	5.e-002	-49.066
9437	2.775	3.	0.	-8254.8
9438	2.6825	3.0909	0.	-7986.3
9439	2.775	3.0909	5.e-002	-48.773
9440	2.775	2.8182	0.	-8218.8
9441	2.6825	2.9091	0.	-7986.3
9442	2.775	2.9091	5.e-002	-48.772
9443	2.775	2.6364	0.	-8106.9
9444	2.6825	2.7273	0.	-7916.9
9445	2.775	2.7273	5.e-002	-49.065
9446	2.775	2.4545	0.	-7911.1
9447	2.6825	2.5455	0.	-7773.7
9448	2.775	2.5455	5.e-002	-48.968
9449	2.775	2.2727	0.	-7627.2
9450	2.6825	2.3636	0.	-7553.2
9451	2.775	2.3636	5.e-002	-47.616
9452	2.775	2.0909	0.	-7262.7
9453	2.6825	2.1818	0.	-7259.
9454	2.775	2.1818	5.e-002	-45.39
9455	2.775	1.9091	0.	-6837.
9456	2.6825	2.	0.	-6904.4
9457	2.775	2.	5.e-002	-43.185
9458	2.775	1.7273	0.	-6375.4
9459	2.6825	1.8182	0.	-6508.9
9460	2.775	1.8182	5.e-002	-41.828
9461	2.775	1.5455	0.	-5903.2
9462	2.6825	1.6364	0.	-6093.3
9463	2.775	1.6364	5.e-002	-42.299
9464	2.775	1.3636	0.	-5443.3
9465	2.6825	1.4545	0.	-5677.6
9466	2.775	1.4545	5.e-002	-44.95
9467	2.775	1.1818	0.	-5014.
9468	2.6825	1.2727	0.	-5279.8
9469	2.775	1.2727	5.e-002	-48.091
9470	2.775	1.	0.	-4628.4
9471	2.6825	1.0909	0.	-4914.3
9472	2.775	1.0909	5.e-002	-50.39
9473	2.775	0.81818	0.	-4295.
9474	2.6825	0.90909	0.	-4591.4
9475	2.775	0.90909	5.e-002	-51.706
9476	2.775	0.63636	0.	-4020.
9477	2.6825	0.72727	0.	-4318.2
9478	2.775	0.72727	5.e-002	-52.278
9479	2.775	0.45455	0.	-3808.6
9480	2.6825	0.54545	0.	-4100.
9481	2.775	0.54545	5.e-002	-52.48
9482	2.775	0.27273	0.	-3671.9
9483	2.6825	0.36364	0.	-3940.9
9484	2.775	0.36364	5.e-002	-53.388
9485	2.6825	0.18182	0.	-3855.8
9486	2.775	0.18182	5.e-002	-69.338
9487	2.775	9.0909e-002	0.	-3533.6
9488	2.59	5.7273	0.	-4125.6
9489	2.4975	5.8182	0.	-4286.9
9490	2.59	5.8182	5.e-002	-63.019
9491	2.59	5.9091	0.	-4007.9
9492	2.59	5.5455	0.	-4234.1
9493	2.4975	5.6364	0.	-4352.5
9494	2.59	5.6364	5.e-002	-46.572
9495	2.59	5.3636	0.	-4402.5
9496	2.4975	5.4545	0.	-4478.8
9497	2.59	5.4545	5.e-002	-45.555
9498	2.59	5.1818	0.	-4621.3
9499	2.4975	5.2727	0.	-4651.8
9500	2.59	5.2727	5.e-002	-45.116
9501	2.59	5.	0.	-4885.6
9502	2.4975	5.0909	0.	-4867.8
9503	2.59	5.0909	5.e-002	-44.182
9504	2.59	4.8182	0.	-5188.8
9505	2.4975	4.9091	0.	-5121.7
9506	2.59	4.9091	5.e-002	-42.573
9507	2.59	4.6364	0.	-5521.9
9508	2.4975	4.7273	0.	-5406.4
9509	2.59	4.7273	5.e-002	-40.295
9510	2.59	4.4545	0.	-5873.6
9511	2.4975	4.5455	0.	-5712.5
9512	2.59	4.5455	5.e-002	-37.695
9513	2.59	4.2727	0.	-6230.6
9514	2.4975	4.3636	0.	-6028.9
9515	2.59	4.3636	5.e-002	-35.401
9516	2.59	4.0909	0.	-6578.1
9517	2.4975	4.1818	0.	-6343.2
9518	2.59	4.1818	5.e-002	-33.972
9519	2.59	3.9091	0.	-6900.8
9520	2.4975	4.	0.	-6642.7
9521	2.59	4.	5.e-002	-33.46
9522	2.59	3.7273	0.	-7183.4
9523	2.4975	3.8182	0.	-6914.3
9524	2.59	3.8182	5.e-002	-33.808
9525	2.59	3.5455	0.	-7412.4
9526	2.4975	3.6364	0.	-7145.4
9527	2.59	3.6364	5.e-002	-34.908
9528	2.59	3.3636	0.	-7578.7
9529	2.4975	3.4545	0.	-7325.2
9530	2.59	3.4545	5.e-002	-36.258
9531	2.59	3.1818	0.	-7678.5
9532	2.4975	3.2727	0.	-7447.
9533	2.59	3.2727	5.e-002	-37.255
9534	2.59	3.	0.	-7711.7
9535	2.4975	3.0909	0.	-7508.2
9536	2.59	3.0909	5.e-002	-37.719
9537	2.59	2.8182	0.	-7678.5
9538	2.4975	2.9091	0.	-7508.2
9539	2.59	2.9091	5.e-002	-37.719
9540	2.59	2.6364	0.	-7578.7
9541	2.4975	2.7273	0.	-7447.
9542	2.59	2.7273	5.e-002	-37.255
9543	2.59	2.4545	0.	-7412.4
9544	2.4975	2.5455	0.	-7325.2
9545	2.59	2.5455	5.e-002	-36.258
9546	2.59	2.2727	0.	-7183.4
9547	2.4975	2.3636	0.	-7145.4
9548	2.59	2.3636	5.e-002	-34.908
9549	2.59	2.0909	0.	-6900.8
9550	2.4975	2.1818	0.	-6914.3
9551	2.59	2.1818	5.e-002	-33.808
9552	2.59	1.9091	0.	-6578.1
9553	2.4975	2.	0.	-6642.7
9554	2.59	2.	5.e-002	-33.46
9555	2.59	1.7273	0.	-6230.6
9556	2.4975	1.8182	0.	-6343.2
9557	2.59	1.8182	5.e-002	-33.972
9558	2.59	1.5455	0.	-5873.6
9559	2.4975	1.6364	0.	-6028.9
9560	2.59	1.6364	5.e-002	-35.401
9561	2.59	1.3636	0.	-5521.9
9562	2.4975	1.4545	0.	-5712.5
9563	2.59	1.4545	5.e-002	-37.695
9564	2.59	1.1818	0.	-5188.8
9565	2.4975	1.2727	0.	-5406.4
9566	2.59	1.2727	5.e-002	-40.295
9567	2.59	1.	0.	-4885.6
9568	2.4975	1.0909	0.	-5121.7
9569	2.59	1.0909	5.e-002	-42.573
9570	2.59	0.81818	0.	-4621.3
9571	2.4975	0.90909	0.	-4867.8
9572	2.59	0.90909	5.e-002	-44.182
9573	2.59	0.63636	0.	-4402.5
9574	2.4975	0.72727	0.	-4651.8
9575	2.59	0.72727	5.e-002	-45.116
9576	2.59	0.45455	0.	-4234.1
9577	2.4975	0.54545	0.	-4478.8
9578	2.59	0.54545	5.e-002	-45.555
9579	2.59	0.27273	0.	-4125.6
9580	2.4975	0.36364	0.	-4352.5
9581	2.59	0.36364	5.e-002	-46.572
9582	2.4975	0.18182	0.	-4286.9
9583	2.59	0.18182	5.e-002	-63.019
9584	2.59	9.0909e-002	0.	-4007.9
9585	2.405	5.7273	0.	-4514.3
9586	2.3125	5.8182	0.	-4654.6
9587	2.405	5.8182	5.e-002	-57.037
9588	2.405	5.9091	0.	-4414.8
9589	2.405	5.5455	0.	-4598.2
9590	2.3125	5.6364	0.	-4702.2
9591	2.405	5.6364	5.e-002	-40.302
9592	2.405	5.3636	0.	-4730.4
9593	2.3125	5.4545	0.	-4800.4
9594	2.405	5.4545	5.e-002	-39.375
9595	2.405	5.1818	0.	-4901.9
9596	2.3125	5.2727	0.	-4935.3
9597	2.405	5.2727	5.e-002	-39.029
9598	2.405	5.	0.	-5108.4
9599	2.3125	5.0909	0.	-5103.6
9600	2.405	5.0909	5.e-002	-38.213
9601	2.405	4.8182	0.	-5344.
9602	2.3125	4.9091	0.	-5300.9
9603	2.405	4.9091	5.e-002	-36.836
9604	2.405	4.6364	0.	-5601.2
9605	2.3125	4.7273	0.	-5521.1
9606	2.405	4.7273	5.e-002	-34.968
9607	2.405	4.4545	0.	-5871.
9608	2.3125	4.5455	0.	-5756.7
9609	2.405	4.5455	5.e-002	-32.812
9610	2.405	4.2727	0.	-6143.7
9611	2.3125	4.3636	0.	-5999.4
9612	2.405	4.3636	5.e-002	-30.659
9613	2.405	4.0909	0.	-6409.
9614	2.3125	4.1818	0.	-6240.2
9615	2.405	4.1818	5.e-002	-28.717
9616	2.405	3.9091	0.	-6656.4
9617	2.3125	4.	0.	-6470.1
9618	2.405	4.	5.e-002	-27.134
9619	2.405	3.7273	0.	-6875.4
9620	2.3125	3.8182	0.	-6679.8
9621	2.405	3.8182	5.e-002	-26.143
9622	2.405	3.5455	0.	-7056.1
9623	2.3125	3.6364	0.	-6860.3
9624	2.405	3.6364	5.e-002	-25.977
9625	2.405	3.3636	0.	-7190.4
9626	2.3125	3.4545	0.	-7003.1
9627	2.405	3.4545	5.e-002	-26.476
9628	2.405	3.1818	0.	-7272.8
9629	2.3125	3.2727	0.	-7101.7
9630	2.405	3.2727	5.e-002	-27.163
9631	2.405	3.	0.	-7300.5
9632	2.3125	3.0909	0.	-7151.9
9633	2.405	3.0909	5.e-002	-27.603
9634	2.405	2.8182	0.	-7272.8
9635	2.3125	2.9091	0.	-7151.9
9636	2.405	2.9091	5.e-002	-27.603
9637	2.405	2.6364	0.	-7190.4
9638	2.3125	2.7273	0.	-7101.7
9639	2.405	2.7273	5.e-002	-27.163
9640	2.405	2.4545	0.	-7056.1
9641	2.3125	2.5455	0.	-7003.1
9642	2.405	2.5455	5.e-002	-26.476
9643	2.405	2.2727	0.	-6875.4
9644	2.3125	2.3636	0.	-6860.3
9645	2.405	2.3636	5.e-002	-25.977
9646	2.405	2.0909	0.	-6656.4
9647	2.3125	2.1818	0.	-6679.8
9648	2.405	2.1818	5.e-002	-26.143
9649	2.405	1.9091	0.	-6409.
9650	2.3125	2.	0.	-6470.1
9651	2.405	2.	5.e-002	-27.134
9652	2.405	1.7273	0.	-6143.7
9653	2.3125	1.8182	0.	-6240.2
9654	2.405	1.8182	5.e-002	-28.718
9655	2.405	1.5455	0.	-5871.
9656	2.3125	1.6364	0.	-5999.4
9657	2.405	1.6364	5.e-002	-30.659
9658	2.405	1.3636	0.	-5601.2
9659	2.3125	1.4545	0.	-5756.7
9660	2.405	1.4545	5.e-002	-32.812
9661	2.405	1.1818	0.	-5344.
9662	2.3125	1.2727	0.	-5521.1
9663	2.405	1.2727	5.e-002	-34.968
9664	2.405	1.	0.	-5108.4
9665	2.3125	1.0909	0.	-5300.9
9666	2.405	1.0909	5.e-002	-36.836
9667	2.405	0.81818	0.	-4901.9
9668	2.3125	0.90909	0.	-5103.6
9669	2.405	0.90909	5.e-002	-38.213
9670	2.405	0.63636	0.	-4730.4
9671	2.3125	0.72727	0.	-4935.3
9672	2.405	0.72727	5.e-002	-39.029
9673	2.405	0.45455	0.	-4598.2
9674	2.3125	0.54545	0.	-4800.4
9675	2.405	0.54545	5.e-002	-39.375
9676	2.405	0.27273	0.	-4514.3
9677	2.3125	0.36364	0.	-4702.2
9678	2.405	0.36364	5.e-002	-40.301
9679	2.3125	0.18182	0.	-4654.6
9680	2.405	0.18182	5.e-002	-57.037
9681	2.405	9.0909e-002	0.	-4414.8
9682	2.22	5.7273	0.	-4842.8
9683	2.1275	5.8182	0.	-4964.5
9684	2.22	5.8182	5.e-002	-51.684
9685	2.22	5.9091	0.	-4759.3
9686	2.22	5.5455	0.	-4904.8
9687	2.1275	5.6364	0.	-4995.1
9688	2.22	5.6364	5.e-002	-34.778
9689	2.22	5.3636	0.	-5006.3
9690	2.1275	5.4545	0.	-5069.
9691	2.22	5.4545	5.e-002	-34.119
9692	2.22	5.1818	0.	-5138.7
9693	2.1275	5.2727	0.	-5172.2
9694	2.22	5.2727	5.e-002	-34.083
9695	2.22	5.	0.	-5298.3
9696	2.1275	5.0909	0.	-5301.8
9697	2.22	5.0909	5.e-002	-33.621
9698	2.22	4.8182	0.	-5480.3
9699	2.1275	4.9091	0.	-5454.1
9700	2.22	4.9091	5.e-002	-32.656
9701	2.22	4.6364	0.	-5678.8
9702	2.1275	4.7273	0.	-5624.3
9703	2.22	4.7273	5.e-002	-31.226
9704	2.22	4.4545	0.	-5886.8
9705	2.1275	4.5455	0.	-5806.7
9706	2.22	4.5455	5.e-002	-29.423
9707	2.22	4.2727	0.	-6097.1
9708	2.1275	4.3636	0.	-5994.7
9709	2.22	4.3636	5.e-002	-27.354
9710	2.22	4.0909	0.	-6301.9
9711	2.1275	4.1818	0.	-6181.6
9712	2.22	4.1818	5.e-002	-25.121
9713	2.22	3.9091	0.	-6493.5
9714	2.1275	4.	0.	-6360.4
9715	2.22	4.	5.e-002	-22.873
9716	2.22	3.7273	0.	-6664.
9717	2.1275	3.8182	0.	-6524.
9718	2.22	3.8182	5.e-002	-20.891
9719	2.22	3.5455	0.	-6805.9
9720	2.1275	3.6364	0.	-6665.6
9721	2.22	3.6364	5.e-002	-19.517
9722	2.22	3.3636	0.	-6912.3
9723	2.1275	3.4545	0.	-6778.3
9724	2.22	3.4545	5.e-002	-18.893
9725	2.22	3.1818	0.	-6978.3
9726	2.1275	3.2727	0.	-6856.8
9727	2.22	3.2727	5.e-002	-18.806
9728	2.22	3.	0.	-7000.6
9729	2.1275	3.0909	0.	-6897.1
9730	2.22	3.0909	5.e-002	-18.886
9731	2.22	2.8182	0.	-6978.3
9732	2.1275	2.9091	0.	-6897.1
9733	2.22	2.9091	5.e-002	-18.886
9734	2.22	2.6364	0.	-6912.3
9735	2.1275	2.7273	0.	-6856.8
9736	2.22	2.7273	5.e-002	-18.806
9737	2.22	2.4545	0.	-6805.9
9738	2.1275	2.5455	0.	-6778.3
9739	2.22	2.5455	5.e-002	-18.893
9740	2.22	2.2727	0.	-6664.
9741	2.1275	2.3636	0.	-6665.6
9742	2.22	2.3636	5.e-002	-19.517
9743	2.22	2.0909	0.	-6493.5
9744	2.1275	2.1818	0.	-6524.
9745	2.22	2.1818	5.e-002	-20.891
9746	2.22	1.9091	0.	-6301.9
9747	2.1275	2.	0.	-6360.4
9748	2.22	2.	5.e-002	-22.873
9749	2.22	1.7273	0.	-6097.1
9750	2.1275	1.8182	0.	-6181.6
9751	2.22	1.8182	5.e-002	-25.121
9752	2.22	1.5455	0.	-5886.8
9753	2.1275	1.6364	0.	-5994.7
9754	2.22	1.6364	5.e-002	-27.354
9755	2.22	1.3636	0.	-5678.8
9756	2.1275	1.4545	0.	-5806.7
9757	2.22	1.4545	5.e-002	-29.423
9758	2.22	1.1818	0.	-5480.3
9759	2.1275	1.2727	0.	-5624.3
9760	2.22	1.2727	5.e-002	-31.226
9761	2.22	1.	0.	-5298.3
9762	2.1275	1.0909	0.	-5454.1
9763	2.22	1.0909	5.e-002	-32.656
9764	2.22	0.81818	0.	-5138.7
9765	2.1275	0.90909	0.	-5301.8
9766	2.22	0.90909	5.e-002	-33.621
9767	2.22	0.63636	0.	-5006.3
9768	2.1275	0.72727	0.	-5172.2
9769	2.22	0.72727	5.e-002	-34.083
9770	2.22	0.45455	0.	-4904.8
9771	2.1275	0.54545	0.	-5069.
9772	2.22	0.54545	5.e-002	-34.119
9773	2.22	0.27273	0.	-4842.8
9774	2.1275	0.36364	0.	-4995.1
9775	2.22	0.36364	5.e-002	-34.778
9776	2.1275	0.18182	0.	-4964.5
9777	2.22	0.18182	5.e-002	-51.683
9778	2.22	9.0909e-002	0.	-4759.3
9779	2.035	5.7273	0.	-5116.9
9780	1.9425	5.8182	0.	-5222.1
9781	2.035	5.8182	5.e-002	-47.109
9782	2.035	5.9091	0.	-5047.
9783	2.035	5.5455	0.	-5159.5
9784	1.9425	5.6364	0.	-5236.9
9785	2.035	5.6364	5.e-002	-30.102
9786	2.035	5.3636	0.	-5235.4
9787	1.9425	5.4545	0.	-5290.2
9788	2.035	5.4545	5.e-002	-29.849
9789	2.035	5.1818	0.	-5336.1
9790	1.9425	5.2727	0.	-5367.6
9791	2.035	5.2727	5.e-002	-30.241
9792	2.035	5.	0.	-5458.6
9793	1.9425	5.0909	0.	-5466.6
9794	2.035	5.0909	5.e-002	-30.211
9795	2.035	4.8182	0.	-5599.3
9796	1.9425	4.9091	0.	-5584.4
9797	2.035	4.9091	5.e-002	-29.665
9798	2.035	4.6364	0.	-5753.3
9799	1.9425	4.7273	0.	-5717.1
9800	2.035	4.7273	5.e-002	-28.604
9801	2.035	4.4545	0.	-5915.4
9802	1.9425	4.5455	0.	-5860.1
9803	2.035	4.5455	5.e-002	-27.058
9804	2.035	4.2727	0.	-6079.7
9805	1.9425	4.3636	0.	-6008.2
9806	2.035	4.3636	5.e-002	-25.073
9807	2.035	4.0909	0.	-6240.2
9808	1.9425	4.1818	0.	-6156.
9809	2.035	4.1818	5.e-002	-22.71
9810	2.035	3.9091	0.	-6390.7
9811	1.9425	4.	0.	-6297.7
9812	2.035	4.	5.e-002	-20.086
9813	2.035	3.7273	0.	-6525.
9814	1.9425	3.8182	0.	-6427.7
9815	2.035	3.8182	5.e-002	-17.418
9816	2.035	3.5455	0.	-6637.1
9817	1.9425	3.6364	0.	-6540.3
9818	2.035	3.6364	5.e-002	-15.018
9819	2.035	3.3636	0.	-6721.5
9820	1.9425	3.4545	0.	-6630.2
9821	2.035	3.4545	5.e-002	-13.184
9822	2.035	3.1818	0.	-6774.
9823	1.9425	3.2727	0.	-6692.9
9824	2.035	3.2727	5.e-002	-12.053
9825	2.035	3.	0.	-6791.8
9826	1.9425	3.0909	0.	-6725.1
9827	2.035	3.0909	5.e-002	-11.553
9828	2.035	2.8182	0.	-6774.
9829	1.9425	2.9091	0.	-6725.1
9830	2.035	2.9091	5.e-002	-11.553
9831	2.035	2.6364	0.	-6721.5
9832	1.9425	2.7273	0.	-6692.9
9833	2.035	2.7273	5.e-002	-12.053
9834	2.035	2.4545	0.	-6637.1
9835	1.9425	2.5455	0.	-6630.2
9836	2.035	2.5455	5.e-002	-13.184
9837	2.035	2.2727	0.	-6525.
9838	1.9425	2.3636	0.	-6540.3
9839	2.035	2.3636	5.e-002	-15.018
9840	2.035	2.0909	0.	-6390.7
9841	1.9425	2.1818	0.	-6427.7
9842	2.035	2.1818	5.e-002	-17.418
9843	2.035	1.9091	0.	-6240.2
9844	1.9425	2.	0.	-6297.7
9845	2.035	2.	5.e-002	-20.086
9846	2.035	1.7273	0.	-6079.7
9847	1.9425	1.8182	0.	-6156.
9848	2.035	1.8182	5.e-002	-22.71
9849	2.035	1.5455	0.	-5915.4
9850	1.9425	1.6364	0.	-6008.2
9851	2.035	1.6364	5.e-002	-25.073
9852	2.035	1.3636	0.	-5753.3
9853	1.9425	1.4545	0.	-5860.1
9854	2.035	1.4545	5.e-002	-27.058
9855	2.035	1.1818	0.	-5599.3
9856	1.9425	1.2727	0.	-5717.1
9857	2.035	1.2727	5.e-002	-28.604
9858	2.035	1.	0.	-5458.6
9859	1.9425	1.0909	0.	-5584.4
9860	2.035	1.0909	5.e-002	-29.665
9861	2.035	0.81818	0.	-5336.1
9862	1.9425	0.90909	0.	-5466.6
9863	2.035	0.90909	5.e-002	-30.211
9864	2.035	0.63636	0.	-5235.4
9865	1.9425	0.72727	0.	-5367.6
9866	2.035	0.72727	5.e-002	-30.241
9867	2.035	0.45455	0.	-5159.5
9868	1.9425	0.54545	0.	-5290.2
9869	2.035	0.54545	5.e-002	-29.849
9870	2.035	0.27273	0.	-5116.9
9871	1.9425	0.36364	0.	-5236.9
9872	2.035	0.36364	5.e-002	-30.102
9873	1.9425	0.18182	0.	-5222.1
9874	2.035	0.18182	5.e-002	-47.108
9875	2.035	9.0909e-002	0.	-5047.
9876	1.85	5.7273	0.	-5342.1
9877	1.7575	5.8182	0.	-5432.2
9878	1.85	5.8182	5.e-002	-43.345
9879	1.85	5.9091	0.	-5283.1
9880	1.85	5.5455	0.	-5367.6
9881	1.7575	5.6364	0.	-5432.4
9882	1.85	5.6364	5.e-002	-26.336
9883	1.85	5.3636	0.	-5422.6
9884	1.7575	5.4545	0.	-5468.8
9885	1.85	5.4545	5.e-002	-26.598
9886	1.85	5.1818	0.	-5498.5
9887	1.7575	5.2727	0.	-5526.
9888	1.85	5.2727	5.e-002	-27.453
9889	1.85	5.	0.	-5592.8
9890	1.7575	5.0909	0.	-5602.1
9891	1.85	5.0909	5.e-002	-27.834
9892	1.85	4.8182	0.	-5702.7
9893	1.7575	4.9091	0.	-5694.6
9894	1.85	4.9091	5.e-002	-27.633
9895	1.85	4.6364	0.	-5824.3
9896	1.7575	4.7273	0.	-5800.5
9897	1.85	4.7273	5.e-002	-26.841
9898	1.85	4.4545	0.	-5953.2
9899	1.7575	4.5455	0.	-5915.9
9900	1.85	4.5455	5.e-002	-25.478
9901	1.85	4.2727	0.	-6084.6
9902	1.7575	4.3636	0.	-6036.2
9903	1.85	4.3636	5.e-002	-23.581
9904	1.85	4.0909	0.	-6213.4
9905	1.7575	4.1818	0.	-6156.7
9906	1.85	4.1818	5.e-002	-21.206
9907	1.85	3.9091	0.	-6334.4
9908	1.7575	4.	0.	-6272.4
9909	1.85	4.	5.e-002	-18.444
9910	1.85	3.7273	0.	-6442.5
9911	1.7575	3.8182	0.	-6378.5
9912	1.85	3.8182	5.e-002	-15.435
9913	1.85	3.5455	0.	-6532.7
9914	1.7575	3.6364	0.	-6470.4
9915	1.85	3.6364	5.e-002	-12.367
9916	1.85	3.3636	0.	-6600.6
9917	1.7575	3.4545	0.	-6543.7
9918	1.85	3.4545	5.e-002	-9.466
9919	1.85	3.1818	0.	-6642.9
9920	1.7575	3.2727	0.	-6594.7
9921	1.85	3.2727	5.e-002	-7.0138
9922	1.85	3.	0.	-6657.2
9923	1.7575	3.0909	0.	-6621.
9924	1.85	3.0909	5.e-002	-5.4694
9925	1.85	2.8182	0.	-6642.9
9926	1.7575	2.9091	0.	-6621.
9927	1.85	2.9091	5.e-002	-5.4694
9928	1.85	2.6364	0.	-6600.6
9929	1.7575	2.7273	0.	-6594.7
9930	1.85	2.7273	5.e-002	-7.014
9931	1.85	2.4545	0.	-6532.7
9932	1.7575	2.5455	0.	-6543.7
9933	1.85	2.5455	5.e-002	-9.4662
9934	1.85	2.2727	0.	-6442.5
9935	1.7575	2.3636	0.	-6470.4
9936	1.85	2.3636	5.e-002	-12.367
9937	1.85	2.0909	0.	-6334.4
9938	1.7575	2.1818	0.	-6378.5
9939	1.85	2.1818	5.e-002	-15.435
9940	1.85	1.9091	0.	-6213.4
9941	1.7575	2.	0.	-6272.4
9942	1.85	2.	5.e-002	-18.444
9943	1.85	1.7273	0.	-6084.6
9944	1.7575	1.8182	0.	-6156.7
9945	1.85	1.8182	5.e-002	-21.206
9946	1.85	1.5455	0.	-5953.2
9947	1.7575	1.6364	0.	-6036.2
9948	1.85	1.6364	5.e-002	-23.581
9949	1.85	1.3636	0.	-5824.3
9950	1.7575	1.4545	0.	-5915.9
9951	1.85	1.4545	5.e-002	-25.478
9952	1.85	1.1818	0.	-5702.7
9953	1.7575	1.2727	0.	-5800.5
9954	1.85	1.2727	5.e-002	-26.841
9955	1.85	1.	0.	-5592.8
9956	1.7575	1.0909	0.	-5694.6
9957	1.85	1.0909	5.e-002	-27.633
9958	1.85	0.81818	0.	-5498.5
9959	1.7575	0.90909	0.	-5602.1
9960	1.85	0.90909	5.e-002	-27.834
9961	1.85	0.63636	0.	-5422.6
9962	1.7575	0.72727	0.	-5526.
9963	1.85	0.72727	5.e-002	-27.453
9964	1.85	0.45455	0.	-5367.6
9965	1.7575	0.54545	0.	-5468.8
9966	1.85	0.54545	5.e-002	-26.598
9967	1.85	0.27273	0.	-5342.1
9968	1.7575	0.36364	0.	-5432.4
9969	1.85	0.36364	5.e-002	-26.336
9970	1.7575	0.18182	0.	-5432.2
9971	1.85	0.18182	5.e-002	-43.345
9972	1.85	9.0909e-002	0.	-5283.1
9973	1.665	5.7273	0.	-5522.5
9974	1.5725	5.8182	0.	-5597.9
9975	1.665	5.8182	5.e-002	-40.338
9976	1.665	5.9091	0.	-5471.8
9977	1.665	5.5455	0.	-5533.5
9978	1.5725	5.6364	0.	-5585.
9979	1.665	5.6364	5.e-002	-23.561
9980	1.665	5.3636	0.	-5572.2
9981	1.5725	5.4545	0.	-5608.1
9982	1.665	5.4545	5.e-002	-24.42
9983	1.665	5.1818	0.	-5629.7
9984	1.5725	5.2727	0.	-5650.8
9985	1.665	5.2727	5.e-002	-25.701
9986	1.665	5.	0.	-5704.
9987	1.5725	5.0909	0.	-5711.3
9988	1.665	5.0909	5.e-002	-26.397
9989	1.665	4.8182	0.	-5792.6
9990	1.5725	4.9091	0.	-5787.4
9991	1.665	4.9091	5.e-002	-26.421
9992	1.665	4.6364	0.	-5892.2
9993	1.5725	4.7273	0.	-5876.3
9994	1.665	4.7273	5.e-002	-25.788
9995	1.665	4.4545	0.	-5998.8
9996	1.5725	4.5455	0.	-5974.2
9997	1.665	4.5455	5.e-002	-24.541
9998	1.665	4.2727	0.	-6108.1
9999	1.5725	4.3636	0.	-6076.8
10000	1.665	4.3636	5.e-002	-22.735
10001	1.665	4.0909	0.	-6215.4
10002	1.5725	4.1818	0.	-6179.7
10003	1.665	4.1818	5.e-002	-20.438
10004	1.665	3.9091	0.	-6316.2
10005	1.5725	4.	0.	-6278.4
10006	1.665	4.	5.e-002	-17.737
10007	1.665	3.7273	0.	-6406.
10008	1.5725	3.8182	0.	-6368.6
10009	1.665	3.8182	5.e-002	-14.731
10010	1.665	3.5455	0.	-6480.8
10011	1.5725	3.6364	0.	-6446.4
10012	1.665	3.6364	5.e-002	-11.531
10013	1.665	3.3636	0.	-6537.1
10014	1.5725	3.4545	0.	-6508.2
10015	1.665	3.4545	5.e-002	-8.2411
10016	1.665	3.1818	0.	-6572.
10017	1.5725	3.2727	0.	-6551.1
10018	1.665	3.2727	5.e-002	-4.9341
10019	1.665	3.	0.	-6583.9
10020	1.5725	3.0909	0.	-6573.1
10021	1.665	3.0909	5.e-002	-1.6424
10022	1.665	2.8182	0.	-6572.
10023	1.5725	2.9091	0.	-6573.1
10024	1.665	2.9091	5.e-002	-1.6423
10025	1.665	2.6364	0.	-6537.1
10026	1.5725	2.7273	0.	-6551.1
10027	1.665	2.7273	5.e-002	-4.9341
10028	1.665	2.4545	0.	-6480.8
10029	1.5725	2.5455	0.	-6508.2
10030	1.665	2.5455	5.e-002	-8.2411
10031	1.665	2.2727	0.	-6406.
10032	1.5725	2.3636	0.	-6446.4
10033	1.665	2.3636	5.e-002	-11.531
10034	1.665	2.0909	0.	-6316.1
10035	1.5725	2.1818	0.	-6368.6
10036	1.665	2.1818	5.e-002	-14.731
10037	1.665	1.9091	0.	-6215.4
10038	1.5725	2.	0.	-6278.4
10039	1.665	2.	5.e-002	-17.737
10040	1.665	1.7273	0.	-6108.1
10041	1.5725	1.8182	0.	-6179.7
10042	1.665	1.8182	5.e-002	-20.439
10043	1.665	1.5455	0.	-5998.8
10044	1.5725	1.6364	0.	-6076.8
10045	1.665	1.6364	5.e-002	-22.735
10046	1.665	1.3636	0.	-5892.2
10047	1.5725	1.4545	0.	-5974.2
10048	1.665	1.4545	5.e-002	-24.541
10049	1.665	1.1818	0.	-5792.6
10050	1.5725	1.2727	0.	-5876.3
10051	1.665	1.2727	5.e-002	-25.788
10052	1.665	1.	0.	-5704.
10053	1.5725	1.0909	0.	-5787.4
10054	1.665	1.0909	5.e-002	-26.421
10055	1.665	0.81818	0.	-5629.7
10056	1.5725	0.90909	0.	-5711.3
10057	1.665	0.90909	5.e-002	-26.397
10058	1.665	0.63636	0.	-5572.2
10059	1.5725	0.72727	0.	-5650.8
10060	1.665	0.72727	5.e-002	-25.701
10061	1.665	0.45455	0.	-5533.5
10062	1.5725	0.54545	0.	-5608.1
10063	1.665	0.54545	5.e-002	-24.42
10064	1.665	0.27273	0.	-5522.4
10065	1.5725	0.36364	0.	-5585.
10066	1.665	0.36364	5.e-002	-23.561
10067	1.5725	0.18182	0.	-5597.9
10068	1.665	0.18182	5.e-002	-40.338
10069	1.665	9.0909e-002	0.	-5471.8
10070	1.48	5.7273	0.	-5660.4
10071	1.3875	5.8182	0.	-5720.1
10072	1.48	5.8182	5.e-002	-37.973
10073	1.48	5.9091	0.	-5615.2
10074	1.48	5.5455	0.	-5659.6
10075	1.3875	5.6364	0.	-5695.8
10076	1.48	5.6364	5.e-002	-21.944
10077	1.48	5.3636	0.	-5686.8
10078	1.3875	5.4545	0.	-5709.9
10079	1.48	5.4545	5.e-002	-23.436
10080	1.48	5.1818	0.	-5732.4
10081	1.3875	5.2727	0.	-5744.1
10082	1.48	5.2727	5.e-002	-25.015
10083	1.48	5.	0.	-5794.6
10084	1.3875	5.0909	0.	-5796.7
10085	1.48	5.0909	5.e-002	-25.859
10086	1.48	4.8182	0.	-5871.
10087	1.3875	4.9091	0.	-5865.2
10088	1.48	4.9091	5.e-002	-25.952
10089	1.48	4.6364	0.	-5958.1
10090	1.3875	4.7273	0.	-5946.4
10091	1.48	4.7273	5.e-002	-25.362
10092	1.48	4.4545	0.	-6052.
10093	1.3875	4.5455	0.	-6036.2
10094	1.48	4.5455	5.e-002	-24.167
10095	1.48	4.2727	0.	-6148.2
10096	1.3875	4.3636	0.	-6130.1
10097	1.48	4.3636	5.e-002	-22.451
10098	1.48	4.0909	0.	-6242.5
10099	1.3875	4.1818	0.	-6223.7
10100	1.48	4.1818	5.e-002	-20.298
10101	1.48	3.9091	0.	-6330.6
10102	1.3875	4.	0.	-6312.6
10103	1.48	4.	5.e-002	-17.8
10104	1.48	3.7273	0.	-6408.7
10105	1.3875	3.8182	0.	-6393.2
10106	1.48	3.8182	5.e-002	-15.058
10107	1.48	3.5455	0.	-6473.3
10108	1.3875	3.6364	0.	-6462.
10109	1.48	3.6364	5.e-002	-12.189
10110	1.48	3.3636	0.	-6521.7
10111	1.3875	3.4545	0.	-6516.3
10112	1.48	3.4545	5.e-002	-9.3352
10113	1.48	3.1818	0.	-6551.7
10114	1.3875	3.2727	0.	-6553.8
10115	1.48	3.2727	5.e-002	-6.7262
10116	1.48	3.	0.	-6561.8
10117	1.3875	3.0909	0.	-6572.9
10118	1.48	3.0909	5.e-002	-4.91
10119	1.48	2.8182	0.	-6551.7
10120	1.3875	2.9091	0.	-6572.9
10121	1.48	2.9091	5.e-002	-4.9098
10122	1.48	2.6364	0.	-6521.7
10123	1.3875	2.7273	0.	-6553.8
10124	1.48	2.7273	5.e-002	-6.7261
10125	1.48	2.4545	0.	-6473.3
10126	1.3875	2.5455	0.	-6516.3
10127	1.48	2.5455	5.e-002	-9.335
10128	1.48	2.2727	0.	-6408.7
10129	1.3875	2.3636	0.	-6462.
10130	1.48	2.3636	5.e-002	-12.189
10131	1.48	2.0909	0.	-6330.6
10132	1.3875	2.1818	0.	-6393.2
10133	1.48	2.1818	5.e-002	-15.058
10134	1.48	1.9091	0.	-6242.5
10135	1.3875	2.	0.	-6312.6
10136	1.48	2.	5.e-002	-17.799
10137	1.48	1.7273	0.	-6148.2
10138	1.3875	1.8182	0.	-6223.7
10139	1.48	1.8182	5.e-002	-20.298
10140	1.48	1.5455	0.	-6052.
10141	1.3875	1.6364	0.	-6130.1
10142	1.48	1.6364	5.e-002	-22.451
10143	1.48	1.3636	0.	-5958.1
10144	1.3875	1.4545	0.	-6036.2
10145	1.48	1.4545	5.e-002	-24.168
10146	1.48	1.1818	0.	-5871.
10147	1.3875	1.2727	0.	-5946.4
10148	1.48	1.2727	5.e-002	-25.362
10149	1.48	1.	0.	-5794.6
10150	1.3875	1.0909	0.	-5865.2
10151	1.48	1.0909	5.e-002	-25.952
10152	1.48	0.81818	0.	-5732.4
10153	1.3875	0.90909	0.	-5796.7
10154	1.48	0.90909	5.e-002	-25.859
10155	1.48	0.63636	0.	-5686.8
10156	1.3875	0.72727	0.	-5744.1
10157	1.48	0.72727	5.e-002	-25.015
10158	1.48	0.45455	0.	-5659.6
10159	1.3875	0.54545	0.	-5709.9
10160	1.48	0.54545	5.e-002	-23.436
10161	1.48	0.27273	0.	-5660.4
10162	1.3875	0.36364	0.	-5695.8
10163	1.48	0.36364	5.e-002	-21.944
10164	1.3875	0.18182	0.	-5720.1
10165	1.48	0.18182	5.e-002	-37.973
10166	1.48	9.0909e-002	0.	-5615.2
10167	1.295	5.7273	0.	-5755.5
10168	1.2025	5.8182	0.	-5796.3
10169	1.295	5.8182	5.e-002	-36.091
10170	1.295	5.9091	0.	-5712.3
10171	1.295	5.5455	0.	-5746.1
10172	1.2025	5.6364	0.	-5762.8
10173	1.295	5.6364	5.e-002	-21.795
10174	1.295	5.3636	0.	-5767.2
10175	1.2025	5.4545	0.	-5773.2
10176	1.295	5.4545	5.e-002	-23.847
10177	1.295	5.1818	0.	-5808.2
10178	1.2025	5.2727	0.	-5806.5
10179	1.295	5.2727	5.e-002	-25.47
10180	1.295	5.	0.	-5867.
10181	1.2025	5.0909	0.	-5860.3
10182	1.295	5.0909	5.e-002	-26.216
10183	1.295	4.8182	0.	-5940.3
10184	1.2025	4.9091	0.	-5931.
10185	1.295	4.9091	5.e-002	-26.189
10186	1.295	4.6364	0.	-6024.2
10187	1.2025	4.7273	0.	-6014.3
10188	1.295	4.7273	5.e-002	-25.521
10189	1.295	4.4545	0.	-6114.1
10190	1.2025	4.5455	0.	-6105.
10191	1.295	4.5455	5.e-002	-24.324
10192	1.295	4.2727	0.	-6205.3
10193	1.2025	4.3636	0.	-6198.1
10194	1.295	4.3636	5.e-002	-22.693
10195	1.295	4.0909	0.	-6293.5
10196	1.2025	4.1818	0.	-6289.
10197	1.295	4.1818	5.e-002	-20.719
10198	1.295	3.9091	0.	-6374.9
10199	1.2025	4.	0.	-6373.9
10200	1.295	4.	5.e-002	-18.499
10201	1.295	3.7273	0.	-6446.2
10202	1.2025	3.8182	0.	-6449.6
10203	1.295	3.8182	5.e-002	-16.144
10204	1.295	3.5455	0.	-6504.6
10205	1.2025	3.6364	0.	-6513.3
10206	1.295	3.6364	5.e-002	-13.785
10207	1.295	3.3636	0.	-6548.
10208	1.2025	3.4545	0.	-6562.9
10209	1.295	3.4545	5.e-002	-11.594
10210	1.295	3.1818	0.	-6574.7
10211	1.2025	3.2727	0.	-6596.9
10212	1.295	3.2727	5.e-002	-9.8121
10213	1.295	3.	0.	-6583.7
10214	1.2025	3.0909	0.	-6614.2
10215	1.295	3.0909	5.e-002	-8.7721
10216	1.295	2.8182	0.	-6574.7
10217	1.2025	2.9091	0.	-6614.2
10218	1.295	2.9091	5.e-002	-8.772
10219	1.295	2.6364	0.	-6548.
10220	1.2025	2.7273	0.	-6596.9
10221	1.295	2.7273	5.e-002	-9.8119
10222	1.295	2.4545	0.	-6504.6
10223	1.2025	2.5455	0.	-6562.9
10224	1.295	2.5455	5.e-002	-11.593
10225	1.295	2.2727	0.	-6446.2
10226	1.2025	2.3636	0.	-6513.3
10227	1.295	2.3636	5.e-002	-13.785
10228	1.295	2.0909	0.	-6374.9
10229	1.2025	2.1818	0.	-6449.6
10230	1.295	2.1818	5.e-002	-16.144
10231	1.295	1.9091	0.	-6293.5
10232	1.2025	2.	0.	-6373.9
10233	1.295	2.	5.e-002	-18.499
10234	1.295	1.7273	0.	-6205.3
10235	1.2025	1.8182	0.	-6289.
10236	1.295	1.8182	5.e-002	-20.719
10237	1.295	1.5455	0.	-6114.1
10238	1.2025	1.6364	0.	-6198.1
10239	1.295	1.6364	5.e-002	-22.693
10240	1.295	1.3636	0.	-6024.2
10241	1.2025	1.4545	0.	-6105.
10242	1.295	1.4545	5.e-002	-24.324
10243	1.295	1.1818	0.	-5940.3
10244	1.2025	1.2727	0.	-6014.3
10245	1.295	1.2727	5.e-002	-25.521
10246	1.295	1.	0.	-5867.
10247	1.2025	1.0909	0.	-5931.
10248	1.295	1.0909	5.e-002	-26.189
10249	1.295	0.81818	0.	-5808.2
10250	1.2025	0.90909	0.	-5860.3
10251	1.295	0.90909	5.e-002	-26.216
10252	1.295	0.63636	0.	-5767.2
10253	1.2025	0.72727	0.	-5806.5
10254	1.295	0.72727	5.e-002	-25.47
10255	1.295	0.45455	0.	-5746.1
10256	1.2025	0.54545	0.	-5773.2
10257	1.295	0.54545	5.e-002	-23.847
10258	1.295	0.27273	0.	-5755.5
10259	1.2025	0.36364	0.	-5762.8
10260	1.295	0.36364	5.e-002	-21.795
10261	1.2025	0.18182	0.	-5796.3
10262	1.295	0.18182	5.e-002	-36.091
10263	1.295	9.0909e-002	0.	-5712.3
10264	1.11	5.7273	0.	-5803.6
10265	1.0175	5.8182	0.	-5818.1
10266	1.11	5.8182	5.e-002	-34.569
10267	1.11	5.9091	0.	-5758.2
10268	1.11	5.5455	0.	-5790.
10269	1.0175	5.6364	0.	-5779.2
10270	1.11	5.6364	5.e-002	-23.629
10271	1.11	5.3636	0.	-5812.5
10272	1.0175	5.4545	0.	-5794.
10273	1.11	5.4545	5.e-002	-25.945
10274	1.11	5.1818	0.	-5858.3
10275	1.0175	5.2727	0.	-5837.2
10276	1.11	5.2727	5.e-002	-27.189
10277	1.11	5.	0.	-5923.9
10278	1.0175	5.0909	0.	-5904.3
10279	1.11	5.0909	5.e-002	-27.498
10280	1.11	4.8182	0.	-6004.5
10281	1.0175	4.9091	0.	-5989.1
10282	1.11	4.9091	5.e-002	-27.138
10283	1.11	4.6364	0.	-6094.6
10284	1.0175	4.7273	0.	-6084.9
10285	1.11	4.7273	5.e-002	-26.284
10286	1.11	4.4545	0.	-6188.6
10287	1.0175	4.5455	0.	-6185.
10288	1.11	4.5455	5.e-002	-25.04
10289	1.11	4.2727	0.	-6281.5
10290	1.0175	4.3636	0.	-6284.1
10291	1.11	4.3636	5.e-002	-23.482
10292	1.11	4.0909	0.	-6369.2
10293	1.0175	4.1818	0.	-6377.7
10294	1.11	4.1818	5.e-002	-21.687
10295	1.11	3.9091	0.	-6448.4
10296	1.0175	4.	0.	-6462.6
10297	1.11	4.	5.e-002	-19.749
10298	1.11	3.7273	0.	-6516.4
10299	1.0175	3.8182	0.	-6536.4
10300	1.11	3.8182	5.e-002	-17.772
10301	1.11	3.5455	0.	-6571.3
10302	1.0175	3.6364	0.	-6597.3
10303	1.11	3.6364	5.e-002	-15.881
10304	1.11	3.3636	0.	-6611.6
10305	1.0175	3.4545	0.	-6644.1
10306	1.11	3.4545	5.e-002	-14.223
10307	1.11	3.1818	0.	-6636.2
10308	1.0175	3.2727	0.	-6675.8
10309	1.11	3.2727	5.e-002	-12.966
10310	1.11	3.	0.	-6644.5
10311	1.0175	3.0909	0.	-6691.8
10312	1.11	3.0909	5.e-002	-12.279
10313	1.11	2.8182	0.	-6636.2
10314	1.0175	2.9091	0.	-6691.8
10315	1.11	2.9091	5.e-002	-12.279
10316	1.11	2.6364	0.	-6611.6
10317	1.0175	2.7273	0.	-6675.8
10318	1.11	2.7273	5.e-002	-12.966
10319	1.11	2.4545	0.	-6571.3
10320	1.0175	2.5455	0.	-6644.1
10321	1.11	2.5455	5.e-002	-14.223
10322	1.11	2.2727	0.	-6516.4
10323	1.0175	2.3636	0.	-6597.3
10324	1.11	2.3636	5.e-002	-15.881
10325	1.11	2.0909	0.	-6448.4
10326	1.0175	2.1818	0.	-6536.4
10327	1.11	2.1818	5.e-002	-17.772
10328	1.11	1.9091	0.	-6369.2
10329	1.0175	2.	0.	-6462.6
10330	1.11	2.	5.e-002	-19.749
10331	1.11	1.7273	0.	-6281.5
10332	1.0175	1.8182	0.	-6377.7
10333	1.11	1.8182	5.e-002	-21.687
10334	1.11	1.5455	0.	-6188.6
10335	1.0175	1.6364	0.	-6284.1
10336	1.11	1.6364	5.e-002	-23.481
10337	1.11	1.3636	0.	-6094.6
10338	1.0175	1.4545	0.	-6185.
10339	1.11	1.4545	5.e-002	-25.04
10340	1.11	1.1818	0.	-6004.5
10341	1.0175	1.2727	0.	-6084.9
10342	1.11	1.2727	5.e-002	-26.284
10343	1.11	1.	0.	-5923.9
10344	1.0175	1.0909	0.	-5989.1
10345	1.11	1.0909	5.e-002	-27.138
10346	1.11	0.81818	0.	-5858.3
10347	1.0175	0.90909	0.	-5904.3
10348	1.11	0.90909	5.e-002	-27.498
10349	1.11	0.63636	0.	-5812.5
10350	1.0175	0.72727	0.	-5837.2
10351	1.11	0.72727	5.e-002	-27.189
10352	1.11	0.45455	0.	-5790.
10353	1.0175	0.54545	0.	-5794.
10354	1.11	0.54545	5.e-002	-25.945
10355	1.11	0.27273	0.	-5803.6
10356	1.0175	0.36364	0.	-5779.2
10357	1.11	0.36364	5.e-002	-23.629
10358	1.0175	0.18182	0.	-5818.1
10359	1.11	0.18182	5.e-002	-34.568
10360	1.11	9.0909e-002	0.	-5758.2
10361	0.925	5.7273	0.	-5793.9
10362	0.8325	5.8182	0.	-5769.
10363	0.925	5.8182	5.e-002	-33.403
10364	0.925	5.9091	0.	-5740.4
10365	0.925	5.5455	0.	-5783.4
10366	0.8325	5.6364	0.	-5732.9
10367	0.925	5.6364	5.e-002	-28.181
10368	0.925	5.3636	0.	-5818.5
10369	0.8325	5.4545	0.	-5766.8
10370	0.925	5.4545	5.e-002	-30.097
10371	0.925	5.1818	0.	-5882.6
10372	0.8325	5.2727	0.	-5837.7
10373	0.925	5.2727	5.e-002	-30.279
10374	0.925	5.	0.	-5968.7
10375	0.8325	5.0909	0.	-5935.6
10376	0.925	5.0909	5.e-002	-29.71
10377	0.925	4.8182	0.	-6068.7
10378	0.8325	4.9091	0.	-6049.3
10379	0.925	4.9091	5.e-002	-28.807
10380	0.925	4.6364	0.	-6174.7
10381	0.8325	4.7273	0.	-6168.6
10382	0.925	4.7273	5.e-002	-27.682
10383	0.925	4.4545	0.	-6280.1
10384	0.8325	4.5455	0.	-6285.9
10385	0.925	4.5455	5.e-002	-26.348
10386	0.925	4.2727	0.	-6380.
10387	0.8325	4.3636	0.	-6395.9
10388	0.925	4.3636	5.e-002	-24.822
10389	0.925	4.0909	0.	-6470.9
10390	0.8325	4.1818	0.	-6495.3
10391	0.925	4.1818	5.e-002	-23.155
10392	0.925	3.9091	0.	-6550.5
10393	0.8325	4.	0.	-6582.2
10394	0.925	4.	5.e-002	-21.423
10395	0.925	3.7273	0.	-6617.2
10396	0.8325	3.8182	0.	-6655.4
10397	0.925	3.8182	5.e-002	-19.722
10398	0.925	3.5455	0.	-6670.
10399	0.8325	3.6364	0.	-6714.4
10400	0.925	3.6364	5.e-002	-18.157
10401	0.925	3.3636	0.	-6708.1
10402	0.8325	3.4545	0.	-6758.9
10403	0.925	3.4545	5.e-002	-16.839
10404	0.925	3.1818	0.	-6731.2
10405	0.8325	3.2727	0.	-6788.6
10406	0.925	3.2727	5.e-002	-15.88
10407	0.925	3.	0.	-6738.9
10408	0.8325	3.0909	0.	-6803.5
10409	0.925	3.0909	5.e-002	-15.372
10410	0.925	2.8182	0.	-6731.2
10411	0.8325	2.9091	0.	-6803.5
10412	0.925	2.9091	5.e-002	-15.372
10413	0.925	2.6364	0.	-6708.1
10414	0.8325	2.7273	0.	-6788.6
10415	0.925	2.7273	5.e-002	-15.879
10416	0.925	2.4545	0.	-6670.
10417	0.8325	2.5455	0.	-6758.9
10418	0.925	2.5455	5.e-002	-16.839
10419	0.925	2.2727	0.	-6617.2
10420	0.8325	2.3636	0.	-6714.4
10421	0.925	2.3636	5.e-002	-18.157
10422	0.925	2.0909	0.	-6550.5
10423	0.8325	2.1818	0.	-6655.4
10424	0.925	2.1818	5.e-002	-19.722
10425	0.925	1.9091	0.	-6470.9
10426	0.8325	2.	0.	-6582.2
10427	0.925	2.	5.e-002	-21.423
10428	0.925	1.7273	0.	-6380.
10429	0.8325	1.8182	0.	-6495.3
10430	0.925	1.8182	5.e-002	-23.154
10431	0.925	1.5455	0.	-6280.1
10432	0.8325	1.6364	0.	-6395.9
10433	0.925	1.6364	5.e-002	-24.822
10434	0.925	1.3636	0.	-6174.7
10435	0.8325	1.4545	0.	-6285.9
10436	0.925	1.4545	5.e-002	-26.348
10437	0.925	1.1818	0.	-6068.7
10438	0.8325	1.2727	0.	-6168.6
10439	0.925	1.2727	5.e-002	-27.682
10440	0.925	1.	0.	-5968.7
10441	0.8325	1.0909	0.	-6049.3
10442	0.925	1.0909	5.e-002	-28.807
10443	0.925	0.81818	0.	-5882.6
10444	0.8325	0.90909	0.	-5935.6
10445	0.925	0.90909	5.e-002	-29.71
10446	0.925	0.63636	0.	-5818.5
10447	0.8325	0.72727	0.	-5837.7
10448	0.925	0.72727	5.e-002	-30.279
10449	0.925	0.45455	0.	-5783.4
10450	0.8325	0.54545	0.	-5766.8
10451	0.925	0.54545	5.e-002	-30.097
10452	0.925	0.27273	0.	-5793.9
10453	0.8325	0.36364	0.	-5732.9
10454	0.925	0.36364	5.e-002	-28.181
10455	0.8325	0.18182	0.	-5769.
10456	0.925	0.18182	5.e-002	-33.403
10457	0.925	9.0909e-002	0.	-5740.4
10458	0.74	5.7273	0.	-5708.3
10459	0.6475	5.8182	0.	-5610.9
10460	0.74	5.8182	5.e-002	-33.85
10461	0.74	5.9091	0.	-5636.
10462	0.74	5.5455	0.	-5716.3
10463	0.6475	5.6364	0.	-5595.6
10464	0.74	5.6364	5.e-002	-36.713
10465	0.74	5.3636	0.	-5785.2
10466	0.6475	5.4545	0.	-5677.8
10467	0.74	5.4545	5.e-002	-36.795
10468	0.74	5.1818	0.	-5889.6
10469	0.6475	5.2727	0.	-5807.6
10470	0.74	5.2727	5.e-002	-34.897
10471	0.74	5.	0.	-6015.2
10472	0.6475	5.0909	0.	-5961.8
10473	0.74	5.0909	5.e-002	-33.042
10474	0.74	4.8182	0.	-6148.5
10475	0.6475	4.9091	0.	-6121.3
10476	0.74	4.9091	5.e-002	-31.497
10477	0.74	4.6364	0.	-6279.4
10478	0.6475	4.7273	0.	-6273.9
10479	0.74	4.7273	5.e-002	-30.068
10480	0.74	4.4545	0.	-6401.5
10481	0.6475	4.5455	0.	-6412.9
10482	0.74	4.5455	5.e-002	-28.588
10483	0.74	4.2727	0.	-6511.1
10484	0.6475	4.3636	0.	-6535.3
10485	0.74	4.3636	5.e-002	-27.004
10486	0.74	4.0909	0.	-6606.5
10487	0.6475	4.1818	0.	-6640.5
10488	0.74	4.1818	5.e-002	-25.347
10489	0.74	3.9091	0.	-6687.1
10490	0.6475	4.	0.	-6728.7
10491	0.74	4.	5.e-002	-23.688
10492	0.74	3.7273	0.	-6752.6
10493	0.6475	3.8182	0.	-6800.5
10494	0.74	3.8182	5.e-002	-22.112
10495	0.74	3.5455	0.	-6803.3
10496	0.6475	3.6364	0.	-6856.8
10497	0.74	3.6364	5.e-002	-20.708
10498	0.74	3.3636	0.	-6839.3
10499	0.6475	3.4545	0.	-6898.4
10500	0.74	3.4545	5.e-002	-19.562
10501	0.74	3.1818	0.	-6860.8
10502	0.6475	3.2727	0.	-6925.7
10503	0.74	3.2727	5.e-002	-18.749
10504	0.74	3.	0.	-6868.
10505	0.6475	3.0909	0.	-6939.3
10506	0.74	3.0909	5.e-002	-18.326
10507	0.74	2.8182	0.	-6860.8
10508	0.6475	2.9091	0.	-6939.3
10509	0.74	2.9091	5.e-002	-18.326
10510	0.74	2.6364	0.	-6839.3
10511	0.6475	2.7273	0.	-6925.7
10512	0.74	2.7273	5.e-002	-18.749
10513	0.74	2.4545	0.	-6803.3
10514	0.6475	2.5455	0.	-6898.4
10515	0.74	2.5455	5.e-002	-19.562
10516	0.74	2.2727	0.	-6752.6
10517	0.6475	2.3636	0.	-6856.8
10518	0.74	2.3636	5.e-002	-20.708
10519	0.74	2.0909	0.	-6687.1
10520	0.6475	2.1818	0.	-6800.5
10521	0.74	2.1818	5.e-002	-22.111
10522	0.74	1.9091	0.	-6606.5
10523	0.6475	2.	0.	-6728.7
10524	0.74	2.	5.e-002	-23.687
10525	0.74	1.7273	0.	-6511.1
10526	0.6475	1.8182	0.	-6640.5
10527	0.74	1.8182	5.e-002	-25.347
10528	0.74	1.5455	0.	-6401.5
10529	0.6475	1.6364	0.	-6535.3
10530	0.74	1.6364	5.e-002	-27.004
10531	0.74	1.3636	0.	-6279.4
10532	0.6475	1.4545	0.	-6412.9
10533	0.74	1.4545	5.e-002	-28.588
10534	0.74	1.1818	0.	-6148.5
10535	0.6475	1.2727	0.	-6273.9
10536	0.74	1.2727	5.e-002	-30.068
10537	0.74	1.	0.	-6015.2
10538	0.6475	1.0909	0.	-6121.3
10539	0.74	1.0909	5.e-002	-31.497
10540	0.74	0.81818	0.	-5889.6
10541	0.6475	0.90909	0.	-5961.8
10542	0.74	0.90909	5.e-002	-33.042
10543	0.74	0.63636	0.	-5785.2
10544	0.6475	0.72727	0.	-5807.6
10545	0.74	0.72727	5.e-002	-34.897
10546	0.74	0.45455	0.	-5716.3
10547	0.6475	0.54545	0.	-5677.8
10548	0.74	0.54545	5.e-002	-36.795
10549	0.74	0.27273	0.	-5708.3
10550	0.6475	0.36364	0.	-5595.6
10551	0.74	0.36364	5.e-002	-36.712
10552	0.6475	0.18182	0.	-5610.9
10553	0.74	0.18182	5.e-002	-33.85
10554	0.74	9.0909e-002	0.	-5636.
10555	0.555	5.7273	0.	-5498.1
10556	0.4625	5.8182	0.	-5278.1
10557	0.555	5.8182	5.e-002	-39.73
10558	0.555	5.9091	0.	-5388.6
10559	0.555	5.5455	0.	-5556.1
10560	0.4625	5.6364	0.	-5345.1
10561	0.555	5.6364	5.e-002	-51.34
10562	0.555	5.3636	0.	-5698.3
10563	0.4625	5.4545	0.	-5548.9
10564	0.555	5.4545	5.e-002	-46.247
10565	0.555	5.1818	0.	-5878.2
10566	0.4625	5.2727	0.	-5794.9
10567	0.555	5.2727	5.e-002	-40.777
10568	0.555	5.	0.	-6067.1
10569	0.4625	5.0909	0.	-6038.
10570	0.555	5.0909	5.e-002	-37.296
10571	0.555	4.8182	0.	-6246.5
10572	0.4625	4.9091	0.	-6257.6
10573	0.555	4.9091	5.e-002	-34.933
10574	0.555	4.6364	0.	-6407.4
10575	0.4625	4.7273	0.	-6447.1
10576	0.555	4.7273	5.e-002	-32.986
10577	0.555	4.4545	0.	-6546.9
10578	0.4625	4.5455	0.	-6606.2
10579	0.555	4.5455	5.e-002	-31.102
10580	0.555	4.2727	0.	-6664.9
10581	0.4625	4.3636	0.	-6737.7
10582	0.555	4.3636	5.e-002	-29.2
10583	0.555	4.0909	0.	-6762.8
10584	0.4625	4.1818	0.	-6844.9
10585	0.555	4.1818	5.e-002	-27.309
10586	0.555	3.9091	0.	-6842.2
10587	0.4625	4.	0.	-6930.7
10588	0.555	4.	5.e-002	-25.496
10589	0.555	3.7273	0.	-6904.8
10590	0.4625	3.8182	0.	-6998.2
10591	0.555	3.8182	5.e-002	-23.837
10592	0.555	3.5455	0.	-6951.9
10593	0.4625	3.6364	0.	-7049.4
10594	0.555	3.6364	5.e-002	-22.405
10595	0.555	3.3636	0.	-6984.8
10596	0.4625	3.4545	0.	-7086.3
10597	0.555	3.4545	5.e-002	-21.266
10598	0.555	3.1818	0.	-7004.2
10599	0.4625	3.2727	0.	-7110.2
10600	0.555	3.2727	5.e-002	-20.473
10601	0.555	3.	0.	-7010.6
10602	0.4625	3.0909	0.	-7121.9
10603	0.555	3.0909	5.e-002	-20.066
10604	0.555	2.8182	0.	-7004.2
10605	0.4625	2.9091	0.	-7121.9
10606	0.555	2.9091	5.e-002	-20.066
10607	0.555	2.6364	0.	-6984.8
10608	0.4625	2.7273	0.	-7110.2
10609	0.555	2.7273	5.e-002	-20.473
10610	0.555	2.4545	0.	-6951.9
10611	0.4625	2.5455	0.	-7086.3
10612	0.555	2.5455	5.e-002	-21.266
10613	0.555	2.2727	0.	-6904.8
10614	0.4625	2.3636	0.	-7049.4
10615	0.555	2.3636	5.e-002	-22.405
10616	0.555	2.0909	0.	-6842.2
10617	0.4625	2.1818	0.	-6998.2
10618	0.555	2.1818	5.e-002	-23.837
10619	0.555	1.9091	0.	-6762.8
10620	0.4625	2.	0.	-6930.7
10621	0.555	2.	5.e-002	-25.496
10622	0.555	1.7273	0.	-6664.9
10623	0.4625	1.8182	0.	-6844.9
10624	0.555	1.8182	5.e-002	-27.309
10625	0.555	1.5455	0.	-6546.9
10626	0.4625	1.6364	0.	-6737.7
10627	0.555	1.6364	5.e-002	-29.2
10628	0.555	1.3636	0.	-6407.4
10629	0.4625	1.4545	0.	-6606.2
10630	0.555	1.4545	5.e-002	-31.101
10631	0.555	1.1818	0.	-6246.5
10632	0.4625	1.2727	0.	-6447.1
10633	0.555	1.2727	5.e-002	-32.985
10634	0.555	1.	0.	-6067.1
10635	0.4625	1.0909	0.	-6257.6
10636	0.555	1.0909	5.e-002	-34.933
10637	0.555	0.81818	0.	-5878.2
10638	0.4625	0.90909	0.	-6038.
10639	0.555	0.90909	5.e-002	-37.296
10640	0.555	0.63636	0.	-5698.3
10641	0.4625	0.72727	0.	-5794.9
10642	0.555	0.72727	5.e-002	-40.777
10643	0.555	0.45455	0.	-5556.1
10644	0.4625	0.54545	0.	-5548.9
10645	0.555	0.54545	5.e-002	-46.247
10646	0.555	0.27273	0.	-5498.1
10647	0.4625	0.36364	0.	-5345.1
10648	0.555	0.36364	5.e-002	-51.34
10649	0.4625	0.18182	0.	-5278.1
10650	0.555	0.18182	5.e-002	-39.73
10651	0.555	9.0909e-002	0.	-5388.6
10652	0.37	5.7273	0.	-5123.5
10653	0.2775	5.8182	0.	-4518.3
10654	0.37	5.8182	5.e-002	-67.7
10655	0.37	5.9091	0.	-4908.4
10656	0.37	5.5455	0.	-5334.1
10657	0.2775	5.6364	0.	-4878.4
10658	0.37	5.6364	5.e-002	-75.791
10659	0.37	5.3636	0.	-5642.4
10660	0.2775	5.4545	0.	-5363.5
10661	0.37	5.4545	5.e-002	-59.414
10662	0.37	5.1818	0.	-5953.7
10663	0.2775	5.2727	0.	-5786.7
10664	0.37	5.2727	5.e-002	-50.585
10665	0.37	5.	0.	-6228.8
10666	0.2775	5.0909	0.	-6130.9
10667	0.37	5.0909	5.e-002	-45.808
10668	0.37	4.8182	0.	-6458.8
10669	0.2775	4.9091	0.	-6402.5
10670	0.37	4.9091	5.e-002	-42.725
10671	0.37	4.6364	0.	-6646.5
10672	0.2775	4.7273	0.	-6615.2
10673	0.37	4.7273	5.e-002	-40.066
10674	0.37	4.4545	0.	-6797.6
10675	0.2775	4.5455	0.	-6781.3
10676	0.37	4.5455	5.e-002	-37.538
10677	0.37	4.2727	0.	-6918.
10678	0.2775	4.3636	0.	-6910.4
10679	0.37	4.3636	5.e-002	-35.1
10680	0.37	4.0909	0.	-7013.
10681	0.2775	4.1818	0.	-7010.3
10682	0.37	4.1818	5.e-002	-32.791
10683	0.37	3.9091	0.	-7086.8
10684	0.2775	4.	0.	-7086.6
10685	0.37	4.	5.e-002	-30.667
10686	0.37	3.7273	0.	-7142.8
10687	0.2775	3.8182	0.	-7144.1
10688	0.37	3.8182	5.e-002	-28.787
10689	0.37	3.5455	0.	-7183.8
10690	0.2775	3.6364	0.	-7186.2
10691	0.37	3.6364	5.e-002	-27.207
10692	0.37	3.3636	0.	-7211.7
10693	0.2775	3.4545	0.	-7215.5
10694	0.37	3.4545	5.e-002	-25.976
10695	0.37	3.1818	0.	-7227.9
10696	0.2775	3.2727	0.	-7234.
10697	0.37	3.2727	5.e-002	-25.132
10698	0.37	3.	0.	-7233.2
10699	0.2775	3.0909	0.	-7243.
10700	0.37	3.0909	5.e-002	-24.703
10701	0.37	2.8182	0.	-7227.9
10702	0.2775	2.9091	0.	-7243.
10703	0.37	2.9091	5.e-002	-24.703
10704	0.37	2.6364	0.	-7211.7
10705	0.2775	2.7273	0.	-7234.
10706	0.37	2.7273	5.e-002	-25.132
10707	0.37	2.4545	0.	-7183.8
10708	0.2775	2.5455	0.	-7215.5
10709	0.37	2.5455	5.e-002	-25.976
10710	0.37	2.2727	0.	-7142.8
10711	0.2775	2.3636	0.	-7186.2
10712	0.37	2.3636	5.e-002	-27.207
10713	0.37	2.0909	0.	-7086.8
10714	0.2775	2.1818	0.	-7144.1
10715	0.37	2.1818	5.e-002	-28.787
10716	0.37	1.9091	0.	-7013.
10717	0.2775	2.	0.	-7086.6
10718	0.37	2.	5.e-002	-30.667
10719	0.37	1.7273	0.	-6918.
10720	0.2775	1.8182	0.	-7010.3
10721	0.37	1.8182	5.e-002	-32.791
10722	0.37	1.5455	0.	-6797.6
10723	0.2775	1.6364	0.	-6910.4
10724	0.37	1.6364	5.e-002	-35.1
10725	0.37	1.3636	0.	-6646.5
10726	0.2775	1.4545	0.	-6781.3
10727	0.37	1.4545	5.e-002	-37.538
10728	0.37	1.1818	0.	-6458.8
10729	0.2775	1.2727	0.	-6615.2
10730	0.37	1.2727	5.e-002	-40.066
10731	0.37	1.	0.	-6228.8
10732	0.2775	1.0909	0.	-6402.5
10733	0.37	1.0909	5.e-002	-42.724
10734	0.37	0.81818	0.	-5953.7
10735	0.2775	0.90909	0.	-6130.9
10736	0.37	0.90909	5.e-002	-45.807
10737	0.37	0.63636	0.	-5642.4
10738	0.2775	0.72727	0.	-5786.7
10739	0.37	0.72727	5.e-002	-50.585
10740	0.37	0.45455	0.	-5334.1
10741	0.2775	0.54545	0.	-5363.5
10742	0.37	0.54545	5.e-002	-59.414
10743	0.37	0.27273	0.	-5123.5
10744	0.2775	0.36364	0.	-4878.4
10745	0.37	0.36364	5.e-002	-75.791
10746	0.2775	0.18182	0.	-4518.3
10747	0.37	0.18182	5.e-002	-67.7
10748	0.37	9.0909e-002	0.	-4908.4
10749	0.185	5.7273	0.	-4258.7
10750	0.185	5.8182	5.e-002	-168.43
10751	0.185	5.9091	0.	-3779.7
10752	9.25e-002	5.8182	0.	-3317.2
10753	0.185	5.5455	0.	-4908.
10754	0.185	5.6364	5.e-002	-106.91
10755	9.25e-002	5.6364	0.	-4664.3
10756	0.185	5.3636	0.	-5515.
10757	0.185	5.4545	5.e-002	-74.384
10758	9.25e-002	5.4545	0.	-5529.7
10759	0.185	5.1818	0.	-5970.4
10760	0.185	5.2727	5.e-002	-58.132
10761	9.25e-002	5.2727	0.	-6107.8
10762	0.185	5.	0.	-6308.9
10763	0.185	5.0909	5.e-002	-49.32
10764	9.25e-002	5.0909	0.	-6509.8
10765	0.185	4.8182	0.	-6561.5
10766	0.185	4.9091	5.e-002	-42.814
10767	9.25e-002	4.9091	0.	-6798.4
10768	0.185	4.6364	0.	-6751.6
10769	0.185	4.7273	5.e-002	-37.593
10770	9.25e-002	4.7273	0.	-7009.3
10771	0.185	4.4545	0.	-6895.1
10772	0.185	4.5455	5.e-002	-33.176
10773	9.25e-002	4.5455	0.	-7164.6
10774	0.185	4.2727	0.	-7003.3
10775	0.185	4.3636	5.e-002	-29.351
10776	9.25e-002	4.3636	0.	-7278.9
10777	0.185	4.0909	0.	-7084.2
10778	0.185	4.1818	5.e-002	-26.015
10779	9.25e-002	4.1818	0.	-7362.4
10780	0.185	3.9091	0.	-7144.1
10781	0.185	4.	5.e-002	-23.13
10782	9.25e-002	4.	0.	-7422.6
10783	0.185	3.7273	0.	-7187.5
10784	0.185	3.8182	5.e-002	-20.688
10785	9.25e-002	3.8182	0.	-7465.2
10786	0.185	3.5455	0.	-7217.9
10787	0.185	3.6364	5.e-002	-18.701
10788	9.25e-002	3.6364	0.	-7494.4
10789	0.185	3.3636	0.	-7237.9
10790	0.185	3.4545	5.e-002	-17.186
10791	9.25e-002	3.4545	0.	-7513.7
10792	0.185	3.1818	0.	-7249.1
10793	0.185	3.2727	5.e-002	-16.163
10794	9.25e-002	3.2727	0.	-7525.2
10795	0.185	3.	0.	-7252.8
10796	0.185	3.0909	5.e-002	-15.648
10797	9.25e-002	3.0909	0.	-7530.6
10798	0.185	2.8182	0.	-7249.1
10799	0.185	2.9091	5.e-002	-15.648
10800	9.25e-002	2.9091	0.	-7530.6
10801	0.185	2.6364	0.	-7237.9
10802	0.185	2.7273	5.e-002	-16.163
10803	9.25e-002	2.7273	0.	-7525.2
10804	0.185	2.4545	0.	-7217.9
10805	0.185	2.5455	5.e-002	-17.186
10806	9.25e-002	2.5455	0.	-7513.7
10807	0.185	2.2727	0.	-7187.5
10808	0.185	2.3636	5.e-002	-18.7
10809	9.25e-002	2.3636	0.	-7494.4
10810	0.185	2.0909	0.	-7144.1
10811	0.185	2.1818	5.e-002	-20.688
10812	9.25e-002	2.1818	0.	-7465.2
10813	0.185	1.9091	0.	-7084.2
10814	0.185	2.	5.e-002	-23.13
10815	9.25e-002	2.	0.	-7422.6
10816	0.185	1.7273	0.	-7003.3
10817	0.185	1.8182	5.e-002	-26.015
10818	9.25e-002	1.8182	0.	-7362.4
10819	0.185	1.5455	0.	-6895.1
10820	0.185	1.6364	5.e-002	-29.35
10821	9.25e-002	1.6364	0.	-7278.9
10822	0.185	1.3636	0.	-6751.6
10823	0.185	1.4545	5.e-002	-33.176
10824	9.25e-002	1.4545	0.	-7164.6
10825	0.185	1.1818	0.	-6561.5
10826	0.185	1.2727	5.e-002	-37.592
10827	9.25e-002	1.2727	0.	-7009.3
10828	0.185	1.	0.	-6308.9
10829	0.185	1.0909	5.e-002	-42.814
10830	9.25e-002	1.0909	0.	-6798.4
10831	0.185	0.81818	0.	-5970.4
10832	0.185	0.90909	5.e-002	-49.32
10833	9.25e-002	0.90909	0.	-6509.8
10834	0.185	0.63636	0.	-5515.
10835	0.185	0.72727	5.e-002	-58.132
10836	9.25e-002	0.72727	0.	-6107.8
10837	0.185	0.45455	0.	-4908.
10838	0.185	0.54545	5.e-002	-74.384
10839	9.25e-002	0.54545	0.	-5529.7
10840	0.185	0.27273	0.	-4258.7
10841	0.185	0.36364	5.e-002	-106.91
10842	9.25e-002	0.36364	0.	-4664.3
10843	0.185	0.18182	5.e-002	-168.43
10844	0.185	9.0909e-002	0.	-3779.7
10845	9.25e-002	0.18182	0.	-3317.2
10846	4.0514	0.27273	0.	-1086.9
10847	4.1437	0.18182	0.	-1159.8
10848	4.0514	0.18182	5.e-002	-75.26
10849	4.0514	9.0909e-002	0.	-752.67
10850	3.959	0.18182	0.	-651.6
10851	4.0514	0.45455	0.	-1472.2
10852	4.1437	0.36364	0.	-1426.
10853	4.0514	0.36364	5.e-002	-68.1
10854	3.959	0.36364	0.	-1002.3
10855	4.0514	0.63636	0.	-1903.6
10856	4.1437	0.54545	0.	-1788.2
10857	4.0514	0.54545	5.e-002	-72.691
10858	3.959	0.54545	0.	-1358.6
10859	4.0514	0.81818	0.	-2382.7
10860	4.1437	0.72727	0.	-2207.3
10861	4.0514	0.72727	5.e-002	-81.795
10862	3.959	0.72727	0.	-1730.8
10863	4.0514	1.	0.	-2937.3
10864	4.1437	0.90909	0.	-2691.6
10865	4.0514	0.90909	5.e-002	-95.419
10866	3.959	0.90909	0.	-2141.3
10867	4.0514	1.1818	0.	-3612.4
10868	4.1437	1.0909	0.	-3267.7
10869	4.0514	1.0909	5.e-002	-114.72
10870	3.959	1.0909	0.	-2619.7
10871	4.0514	1.3636	0.	-4496.7
10872	4.1437	1.2727	0.	-3982.4
10873	4.0514	1.2727	5.e-002	-144.41
10874	3.959	1.2727	0.	-3210.5
10875	4.0514	1.5455	0.	-5745.6
10876	4.1437	1.4545	0.	-4926.
10877	4.0514	1.4545	5.e-002	-182.27
10878	3.959	1.4545	0.	-4006.9
10879	4.0514	1.7273	0.	-7917.2
10880	4.1437	1.6364	0.	-6226.2
10881	4.0514	1.6364	5.e-002	-278.11
10882	3.959	1.6364	0.	-5147.2
10883	4.0514	1.9091	0.	-11187
10884	4.1437	1.8182	0.	-8450.3
10885	4.0514	1.8182	5.e-002	-504.62
10886	3.959	1.8182	0.	-7230.8
10887	4.0514	2.0909	0.	-13245
10888	4.1437	2.	0.	-11073
10889	4.0514	2.	5.e-002	-918.94
10890	3.959	2.	0.	-19694
10891	4.0514	2.2727	0.	-13173
10892	4.1437	2.1818	0.	-11869
10893	4.0514	2.1818	5.e-002	-477.74
10894	4.0514	2.4545	0.	-12415
10895	4.1437	2.3636	0.	-11726
10896	4.0514	2.3636	5.e-002	-209.6
10897	4.0514	2.6364	0.	-11715
10898	4.1437	2.5455	0.	-11265
10899	4.0514	2.5455	5.e-002	-119.49
10900	4.0514	2.8182	0.	-11328
10901	4.1437	2.7273	0.	-10936
10902	4.0514	2.7273	5.e-002	-76.035
10903	4.0514	3.	0.	-11202
10904	4.1437	2.9091	0.	-10766
10905	4.0514	2.9091	5.e-002	-60.951
10906	4.0514	3.1818	0.	-11328
10907	4.1437	3.0909	0.	-10766
10908	4.0514	3.0909	5.e-002	-60.952
10909	4.0514	3.3636	0.	-11715
10910	4.1437	3.2727	0.	-10936
10911	4.0514	3.2727	5.e-002	-76.036
10912	4.0514	3.5455	0.	-12415
10913	4.1437	3.4545	0.	-11265
10914	4.0514	3.4545	5.e-002	-119.49
10915	4.0514	3.7273	0.	-13173
10916	4.1437	3.6364	0.	-11726
10917	4.0514	3.6364	5.e-002	-209.6
10918	4.0514	3.9091	0.	-13245
10919	4.1437	3.8182	0.	-11869
10920	4.0514	3.8182	5.e-002	-477.75
10921	4.0514	4.0909	0.	-11187
10922	4.1437	4.	0.	-11073
10923	4.0514	4.	5.e-002	-918.95
10924	3.959	4.	0.	-19694
10925	4.0514	4.2727	0.	-7917.2
10926	4.1437	4.1818	0.	-8450.3
10927	4.0514	4.1818	5.e-002	-504.62
10928	3.959	4.1818	0.	-7230.8
10929	4.0514	4.4545	0.	-5745.6
10930	4.1437	4.3636	0.	-6226.2
10931	4.0514	4.3636	5.e-002	-278.11
10932	3.959	4.3636	0.	-5147.2
10933	4.0514	4.6364	0.	-4496.7
10934	4.1437	4.5455	0.	-4926.
10935	4.0514	4.5455	5.e-002	-182.27
10936	3.959	4.5455	0.	-4006.9
10937	4.0514	4.8182	0.	-3612.4
10938	4.1437	4.7273	0.	-3982.4
10939	4.0514	4.7273	5.e-002	-144.41
10940	3.959	4.7273	0.	-3210.5
10941	4.0514	5.	0.	-2937.3
10942	4.1437	4.9091	0.	-3267.7
10943	4.0514	4.9091	5.e-002	-114.72
10944	3.959	4.9091	0.	-2619.7
10945	4.0514	5.1818	0.	-2382.7
10946	4.1437	5.0909	0.	-2691.6
10947	4.0514	5.0909	5.e-002	-95.419
10948	3.959	5.0909	0.	-2141.3
10949	4.0514	5.3636	0.	-1903.6
10950	4.1437	5.2727	0.	-2207.3
10951	4.0514	5.2727	5.e-002	-81.795
10952	3.959	5.2727	0.	-1730.8
10953	4.0514	5.5455	0.	-1472.2
10954	4.1437	5.4545	0.	-1788.2
10955	4.0514	5.4545	5.e-002	-72.691
10956	3.959	5.4545	0.	-1358.6
10957	4.0514	5.7273	0.	-1086.9
10958	4.1437	5.6364	0.	-1426.
10959	4.0514	5.6364	5.e-002	-68.1
10960	3.959	5.6364	0.	-1002.3
10961	4.1437	5.8182	0.	-1159.8
10962	4.0514	5.8182	5.e-002	-75.26
10963	4.0514	5.9091	0.	-752.67
10964	3.959	5.8182	0.	-651.6
10965	4.2361	0.27273	0.	-1529.5
10966	4.3284	0.18182	0.	-1691.3
10967	4.2361	0.18182	5.e-002	-66.857
10968	4.2361	9.0909e-002	0.	-1333.8
10969	4.2361	0.45455	0.	-1787.1
10970	4.3284	0.36364	0.	-1857.2
10971	4.2361	0.36364	5.e-002	-57.817
10972	4.2361	0.63636	0.	-2138.5
10973	4.3284	0.54545	0.	-2131.9
10974	4.2361	0.54545	5.e-002	-58.48
10975	4.2361	0.81818	0.	-2564.1
10976	4.3284	0.72727	0.	-2488.
10977	4.2361	0.72727	5.e-002	-61.896
10978	4.2361	1.	0.	-3074.2
10979	4.3284	0.90909	0.	-2923.2
10980	4.2361	0.90909	5.e-002	-67.88
10981	4.2361	1.1818	0.	-3699.5
10982	4.3284	1.0909	0.	-3451.
10983	4.2361	1.0909	5.e-002	-76.838
10984	4.2361	1.3636	0.	-4489.3
10985	4.3284	1.2727	0.	-4100.
10986	4.2361	1.2727	5.e-002	-88.109
10987	4.2361	1.5455	0.	-5519.8
10988	4.3284	1.4545	0.	-4911.4
10989	4.2361	1.4545	5.e-002	-109.56
10990	4.2361	1.7273	0.	-6852.3
10991	4.3284	1.6364	0.	-5937.5
10992	4.2361	1.6364	5.e-002	-109.71
10993	4.2361	1.9091	0.	-8306.7
10994	4.3284	1.8182	0.	-7164.1
10995	4.2361	1.8182	5.e-002	-169.75
10996	4.2361	2.0909	0.	-9602.6
10997	4.3284	2.	0.	-8361.8
10998	4.2361	2.	5.e-002	-158.61
10999	4.2361	2.2727	0.	-10370
11000	4.3284	2.1818	0.	-9320.3
11001	4.2361	2.1818	5.e-002	-223.48
11002	4.2361	2.4545	0.	-10557
11003	4.3284	2.3636	0.	-9777.9
11004	4.2361	2.3636	5.e-002	-163.92
11005	4.2361	2.6364	0.	-10477
11006	4.3284	2.5455	0.	-9887.1
11007	4.2361	2.5455	5.e-002	-125.31
11008	4.2361	2.8182	0.	-10366
11009	4.3284	2.7273	0.	-9864.7
11010	4.2361	2.7273	5.e-002	-93.262
11011	4.2361	3.	0.	-10322
11012	4.3284	2.9091	0.	-9831.6
11013	4.2361	2.9091	5.e-002	-79.517
11014	4.2361	3.1818	0.	-10366
11015	4.3284	3.0909	0.	-9831.6
11016	4.2361	3.0909	5.e-002	-79.517
11017	4.2361	3.3636	0.	-10477
11018	4.3284	3.2727	0.	-9864.7
11019	4.2361	3.2727	5.e-002	-93.263
11020	4.2361	3.5455	0.	-10557
11021	4.3284	3.4545	0.	-9887.1
11022	4.2361	3.4545	5.e-002	-125.31
11023	4.2361	3.7273	0.	-10370
11024	4.3284	3.6364	0.	-9777.9
11025	4.2361	3.6364	5.e-002	-163.92
11026	4.2361	3.9091	0.	-9602.6
11027	4.3284	3.8182	0.	-9320.3
11028	4.2361	3.8182	5.e-002	-223.48
11029	4.2361	4.0909	0.	-8306.7
11030	4.3284	4.	0.	-8361.8
11031	4.2361	4.	5.e-002	-158.61
11032	4.2361	4.2727	0.	-6852.3
11033	4.3284	4.1818	0.	-7164.1
11034	4.2361	4.1818	5.e-002	-169.75
11035	4.2361	4.4545	0.	-5519.8
11036	4.3284	4.3636	0.	-5937.5
11037	4.2361	4.3636	5.e-002	-109.71
11038	4.2361	4.6364	0.	-4489.3
11039	4.3284	4.5455	0.	-4911.4
11040	4.2361	4.5455	5.e-002	-109.56
11041	4.2361	4.8182	0.	-3699.5
11042	4.3284	4.7273	0.	-4100.
11043	4.2361	4.7273	5.e-002	-88.109
11044	4.2361	5.	0.	-3074.2
11045	4.3284	4.9091	0.	-3451.
11046	4.2361	4.9091	5.e-002	-76.838
11047	4.2361	5.1818	0.	-2564.1
11048	4.3284	5.0909	0.	-2923.2
11049	4.2361	5.0909	5.e-002	-67.88
11050	4.2361	5.3636	0.	-2138.5
11051	4.3284	5.2727	0.	-2488.
11052	4.2361	5.2727	5.e-002	-61.896
11053	4.2361	5.5455	0.	-1787.1
11054	4.3284	5.4545	0.	-2131.9
11055	4.2361	5.4545	5.e-002	-58.48
11056	4.2361	5.7273	0.	-1529.5
11057	4.3284	5.6364	0.	-1857.2
11058	4.2361	5.6364	5.e-002	-57.817
11059	4.3284	5.8182	0.	-1691.3
11060	4.2361	5.8182	5.e-002	-66.857
11061	4.2361	5.9091	0.	-1333.8
11062	4.4208	0.27273	0.	-2026.3
11063	4.5132	0.18182	0.	-2187.9
11064	4.4208	0.18182	5.e-002	-61.659
11065	4.4208	9.0909e-002	0.	-1876.6
11066	4.4208	0.45455	0.	-2220.9
11067	4.5132	0.36364	0.	-2317.
11068	4.4208	0.36364	5.e-002	-52.513
11069	4.4208	0.63636	0.	-2509.1
11070	4.5132	0.54545	0.	-2537.3
11071	4.4208	0.54545	5.e-002	-52.698
11072	4.4208	0.81818	0.	-2880.4
11073	4.5132	0.72727	0.	-2838.
11074	4.4208	0.72727	5.e-002	-54.521
11075	4.4208	1.	0.	-3337.6
11076	4.5132	0.90909	0.	-3217.9
11077	4.4208	0.90909	5.e-002	-57.425
11078	4.4208	1.1818	0.	-3893.4
11079	4.5132	1.0909	0.	-3681.9
11080	4.4208	1.0909	5.e-002	-61.111
11081	4.4208	1.3636	0.	-4567.3
11082	4.5132	1.2727	0.	-4239.7
11083	4.4208	1.2727	5.e-002	-64.752
11084	4.4208	1.5455	0.	-5368.5
11085	4.5132	1.4545	0.	-4902.
11086	4.4208	1.4545	5.e-002	-65.468
11087	4.4208	1.7273	0.	-6275.8
11088	4.5132	1.6364	0.	-5659.8
11089	4.4208	1.6364	5.e-002	-68.097
11090	4.4208	1.9091	0.	-7220.2
11091	4.5132	1.8182	0.	-6474.9
11092	4.4208	1.8182	5.e-002	-78.211
11093	4.4208	2.0909	0.	-8070.1
11094	4.5132	2.	0.	-7269.4
11095	4.4208	2.	5.e-002	-102.45
11096	4.4208	2.2727	0.	-8708.1
11097	4.5132	2.1818	0.	-7938.3
11098	4.4208	2.1818	5.e-002	-114.03
11099	4.4208	2.4545	0.	-9089.7
11100	4.5132	2.3636	0.	-8417.9
11101	4.4208	2.3636	5.e-002	-118.18
11102	4.4208	2.6364	0.	-9261.4
11103	4.5132	2.5455	0.	-8691.9
11104	4.4208	2.5455	5.e-002	-103.2
11105	4.4208	2.8182	0.	-9319.5
11106	4.5132	2.7273	0.	-8821.1
11107	4.4208	2.7273	5.e-002	-90.55
11108	4.4208	3.	0.	-9331.5
11109	4.5132	2.9091	0.	-8869.1
11110	4.4208	2.9091	5.e-002	-83.004
11111	4.4208	3.1818	0.	-9319.5
11112	4.5132	3.0909	0.	-8869.1
11113	4.4208	3.0909	5.e-002	-83.005
11114	4.4208	3.3636	0.	-9261.4
11115	4.5132	3.2727	0.	-8821.1
11116	4.4208	3.2727	5.e-002	-90.551
11117	4.4208	3.5455	0.	-9089.7
11118	4.5132	3.4545	0.	-8691.9
11119	4.4208	3.4545	5.e-002	-103.2
11120	4.4208	3.7273	0.	-8708.1
11121	4.5132	3.6364	0.	-8417.9
11122	4.4208	3.6364	5.e-002	-118.18
11123	4.4208	3.9091	0.	-8070.1
11124	4.5132	3.8182	0.	-7938.3
11125	4.4208	3.8182	5.e-002	-114.03
11126	4.4208	4.0909	0.	-7220.2
11127	4.5132	4.	0.	-7269.4
11128	4.4208	4.	5.e-002	-102.45
11129	4.4208	4.2727	0.	-6275.8
11130	4.5132	4.1818	0.	-6474.9
11131	4.4208	4.1818	5.e-002	-78.211
11132	4.4208	4.4545	0.	-5368.5
11133	4.5132	4.3636	0.	-5659.8
11134	4.4208	4.3636	5.e-002	-68.097
11135	4.4208	4.6364	0.	-4567.3
11136	4.5132	4.5455	0.	-4902.
11137	4.4208	4.5455	5.e-002	-65.468
11138	4.4208	4.8182	0.	-3893.4
11139	4.5132	4.7273	0.	-4239.7
11140	4.4208	4.7273	5.e-002	-64.752
11141	4.4208	5.	0.	-3337.6
11142	4.5132	4.9091	0.	-3681.9
11143	4.4208	4.9091	5.e-002	-61.111
11144	4.4208	5.1818	0.	-2880.4
11145	4.5132	5.0909	0.	-3217.9
11146	4.4208	5.0909	5.e-002	-57.425
11147	4.4208	5.3636	0.	-2509.1
11148	4.5132	5.2727	0.	-2838.
11149	4.4208	5.2727	5.e-002	-54.522
11150	4.4208	5.5455	0.	-2220.9
11151	4.5132	5.4545	0.	-2537.3
11152	4.4208	5.4545	5.e-002	-52.698
11153	4.4208	5.7273	0.	-2026.3
11154	4.5132	5.6364	0.	-2317.
11155	4.4208	5.6364	5.e-002	-52.513
11156	4.5132	5.8182	0.	-2187.9
11157	4.4208	5.8182	5.e-002	-61.659
11158	4.4208	5.9091	0.	-1876.6
11159	4.6055	0.27273	0.	-2482.
11160	4.6979	0.18182	0.	-2623.8
11161	4.6055	0.18182	5.e-002	-55.326
11162	4.6055	9.0909e-002	0.	-2357.6
11163	4.6055	0.45455	0.	-2641.9
11164	4.6979	0.36364	0.	-2734.
11165	4.6055	0.36364	5.e-002	-45.911
11166	4.6055	0.63636	0.	-2881.4
11167	4.6979	0.54545	0.	-2917.5
11168	4.6055	0.54545	5.e-002	-45.586
11169	4.6055	0.81818	0.	-3196.2
11170	4.6979	0.72727	0.	-3169.9
11171	4.6055	0.72727	5.e-002	-46.095
11172	4.6055	1.	0.	-3586.7
11173	4.6979	0.90909	0.	-3491.1
11174	4.6055	0.90909	5.e-002	-46.734
11175	4.6055	1.1818	0.	-4054.9
11176	4.6979	1.0909	0.	-3881.3
11177	4.6055	1.0909	5.e-002	-47.085
11178	4.6055	1.3636	0.	-4600.4
11179	4.6979	1.2727	0.	-4339.7
11180	4.6055	1.2727	5.e-002	-46.617
11181	4.6055	1.5455	0.	-5214.7
11182	4.6979	1.4545	0.	-4860.4
11183	4.6055	1.4545	5.e-002	-46.151
11184	4.6055	1.7273	0.	-5872.1
11185	4.6979	1.6364	0.	-5427.9
11186	4.6055	1.6364	5.e-002	-48.635
11187	4.6055	1.9091	0.	-6530.6
11188	4.6979	1.8182	0.	-6011.6
11189	4.6055	1.8182	5.e-002	-56.418
11190	4.6055	2.0909	0.	-7138.3
11191	4.6979	2.	0.	-6573.9
11192	4.6055	2.	5.e-002	-68.341
11193	4.6055	2.2727	0.	-7643.3
11194	4.6979	2.1818	0.	-7073.5
11195	4.6055	2.1818	5.e-002	-78.12
11196	4.6055	2.4545	0.	-8011.4
11197	4.6979	2.3636	0.	-7473.1
11198	4.6055	2.3636	5.e-002	-83.068
11199	4.6055	2.6364	0.	-8242.
11200	4.6979	2.5455	0.	-7753.5
11201	4.6055	2.5455	5.e-002	-82.578
11202	4.6055	2.8182	0.	-8361.4
11203	4.6979	2.7273	0.	-7921.9
11204	4.6055	2.7273	5.e-002	-79.268
11205	4.6055	3.	0.	-8397.6
11206	4.6979	2.9091	0.	-7998.8
11207	4.6055	2.9091	5.e-002	-76.728
11208	4.6055	3.1818	0.	-8361.4
11209	4.6979	3.0909	0.	-7998.8
11210	4.6055	3.0909	5.e-002	-76.728
11211	4.6055	3.3636	0.	-8242.
11212	4.6979	3.2727	0.	-7921.9
11213	4.6055	3.2727	5.e-002	-79.269
11214	4.6055	3.5455	0.	-8011.4
11215	4.6979	3.4545	0.	-7753.5
11216	4.6055	3.4545	5.e-002	-82.579
11217	4.6055	3.7273	0.	-7643.3
11218	4.6979	3.6364	0.	-7473.1
11219	4.6055	3.6364	5.e-002	-83.069
11220	4.6055	3.9091	0.	-7138.3
11221	4.6979	3.8182	0.	-7073.5
11222	4.6055	3.8182	5.e-002	-78.121
11223	4.6055	4.0909	0.	-6530.6
11224	4.6979	4.	0.	-6573.9
11225	4.6055	4.	5.e-002	-68.341
11226	4.6055	4.2727	0.	-5872.1
11227	4.6979	4.1818	0.	-6011.6
11228	4.6055	4.1818	5.e-002	-56.418
11229	4.6055	4.4545	0.	-5214.7
11230	4.6979	4.3636	0.	-5427.9
11231	4.6055	4.3636	5.e-002	-48.635
11232	4.6055	4.6364	0.	-4600.4
11233	4.6979	4.5455	0.	-4860.4
11234	4.6055	4.5455	5.e-002	-46.151
11235	4.6055	4.8182	0.	-4054.9
11236	4.6979	4.7273	0.	-4339.7
11237	4.6055	4.7273	5.e-002	-46.617
11238	4.6055	5.	0.	-3586.7
11239	4.6979	4.9091	0.	-3881.3
11240	4.6055	4.9091	5.e-002	-47.085
11241	4.6055	5.1818	0.	-3196.2
11242	4.6979	5.0909	0.	-3491.1
11243	4.6055	5.0909	5.e-002	-46.734
11244	4.6055	5.3636	0.	-2881.4
11245	4.6979	5.2727	0.	-3169.9
11246	4.6055	5.2727	5.e-002	-46.095
11247	4.6055	5.5455	0.	-2641.9
11248	4.6979	5.4545	0.	-2917.5
11249	4.6055	5.4545	5.e-002	-45.586
11250	4.6055	5.7273	0.	-2482.
11251	4.6979	5.6364	0.	-2734.
11252	4.6055	5.6364	5.e-002	-45.911
11253	4.6979	5.8182	0.	-2623.8
11254	4.6055	5.8182	5.e-002	-55.326
11255	4.6055	5.9091	0.	-2357.6
11256	4.7902	0.27273	0.	-2878.
11257	4.8826	0.18182	0.	-2995.
11258	4.7902	0.18182	5.e-002	-48.292
11259	4.7902	9.0909e-002	0.	-2772.4
11260	4.7902	0.45455	0.	-3014.1
11261	4.8826	0.36364	0.	-3091.5
11262	4.7902	0.36364	5.e-002	-38.961
11263	4.7902	0.63636	0.	-3214.4
11264	4.8826	0.54545	0.	-3246.2
11265	4.7902	0.54545	5.e-002	-38.154
11266	4.7902	0.81818	0.	-3477.
11267	4.8826	0.72727	0.	-3456.8
11268	4.7902	0.72727	5.e-002	-37.773
11269	4.7902	1.	0.	-3800.6
11270	4.8826	0.90909	0.	-3722.8
11271	4.7902	0.90909	5.e-002	-37.149
11272	4.7902	1.1818	0.	-4182.2
11273	4.8826	1.0909	0.	-4042.
11274	4.7902	1.0909	5.e-002	-36.111
11275	4.7902	1.3636	0.	-4615.
11276	4.8826	1.2727	0.	-4409.1
11277	4.7902	1.2727	5.e-002	-34.914
11278	4.7902	1.5455	0.	-5086.2
11279	4.8826	1.4545	0.	-4815.
11280	4.7902	1.4545	5.e-002	-34.664
11281	4.7902	1.7273	0.	-5576.2
11282	4.8826	1.6364	0.	-5244.5
11283	4.7902	1.6364	5.e-002	-37.488
11284	4.7902	1.9091	0.	-6060.3
11285	4.8826	1.8182	0.	-5678.3
11286	4.7902	1.8182	5.e-002	-43.956
11287	4.7902	2.0909	0.	-6511.6
11288	4.8826	2.	0.	-6094.8
11289	4.7902	2.	5.e-002	-51.432
11290	4.7902	2.2727	0.	-6902.7
11291	4.8826	2.1818	0.	-6472.1
11292	4.7902	2.1818	5.e-002	-58.066
11293	4.7902	2.4545	0.	-7211.7
11294	4.8826	2.3636	0.	-6788.9
11295	4.7902	2.3636	5.e-002	-63.059
11296	4.7902	2.6364	0.	-7427.9
11297	4.8826	2.5455	0.	-7029.4
11298	4.7902	2.5455	5.e-002	-65.823
11299	4.7902	2.8182	0.	-7552.9
11300	4.8826	2.7273	0.	-7187.4
11301	4.7902	2.7273	5.e-002	-66.554
11302	4.7902	3.	0.	-7593.5
11303	4.8826	2.9091	0.	-7264.7
11304	4.7902	2.9091	5.e-002	-66.496
11305	4.7902	3.1818	0.	-7552.9
11306	4.8826	3.0909	0.	-7264.7
11307	4.7902	3.0909	5.e-002	-66.496
11308	4.7902	3.3636	0.	-7427.9
11309	4.8826	3.2727	0.	-7187.4
11310	4.7902	3.2727	5.e-002	-66.554
11311	4.7902	3.5455	0.	-7211.7
11312	4.8826	3.4545	0.	-7029.4
11313	4.7902	3.4545	5.e-002	-65.824
11314	4.7902	3.7273	0.	-6902.7
11315	4.8826	3.6364	0.	-6788.9
11316	4.7902	3.6364	5.e-002	-63.06
11317	4.7902	3.9091	0.	-6511.6
11318	4.8826	3.8182	0.	-6472.1
11319	4.7902	3.8182	5.e-002	-58.066
11320	4.7902	4.0909	0.	-6060.4
11321	4.8826	4.	0.	-6094.8
11322	4.7902	4.	5.e-002	-51.433
11323	4.7902	4.2727	0.	-5576.2
11324	4.8826	4.1818	0.	-5678.3
11325	4.7902	4.1818	5.e-002	-43.956
11326	4.7902	4.4545	0.	-5086.2
11327	4.8826	4.3636	0.	-5244.5
11328	4.7902	4.3636	5.e-002	-37.488
11329	4.7902	4.6364	0.	-4615.
11330	4.8826	4.5455	0.	-4815.
11331	4.7902	4.5455	5.e-002	-34.664
11332	4.7902	4.8182	0.	-4182.2
11333	4.8826	4.7273	0.	-4409.1
11334	4.7902	4.7273	5.e-002	-34.914
11335	4.7902	5.	0.	-3800.6
11336	4.8826	4.9091	0.	-4042.
11337	4.7902	4.9091	5.e-002	-36.111
11338	4.7902	5.1818	0.	-3477.
11339	4.8826	5.0909	0.	-3722.8
11340	4.7902	5.0909	5.e-002	-37.149
11341	4.7902	5.3636	0.	-3214.4
11342	4.8826	5.2727	0.	-3456.8
11343	4.7902	5.2727	5.e-002	-37.773
11344	4.7902	5.5455	0.	-3014.1
11345	4.8826	5.4545	0.	-3246.2
11346	4.7902	5.4545	5.e-002	-38.154
11347	4.7902	5.7273	0.	-2878.
11348	4.8826	5.6364	0.	-3091.5
11349	4.7902	5.6364	5.e-002	-38.961
11350	4.8826	5.8182	0.	-2995.
11351	4.7902	5.8182	5.e-002	-48.292
11352	4.7902	5.9091	0.	-2772.4
11353	4.9749	0.27273	0.	-3210.1
11354	5.0673	0.18182	0.	-3302.7
11355	4.9749	0.18182	5.e-002	-41.11
11356	4.9749	9.0909e-002	0.	-3120.7
11357	4.9749	0.45455	0.	-3326.4
11358	5.0673	0.36364	0.	-3386.8
11359	4.9749	0.36364	5.e-002	-32.186
11360	4.9749	0.63636	0.	-3493.5
11361	5.0673	0.54545	0.	-3516.9
11362	4.9749	0.54545	5.e-002	-31.068
11363	4.9749	0.81818	0.	-3709.7
11364	5.0673	0.72727	0.	-3691.
11365	4.9749	0.72727	5.e-002	-30.237
11366	4.9749	1.	0.	-3972.9
11367	5.0673	0.90909	0.	-3908.
11368	4.9749	0.90909	5.e-002	-29.149
11369	4.9749	1.1818	0.	-4278.3
11370	5.0673	1.0909	0.	-4164.7
11371	4.9749	1.0909	5.e-002	-27.905
11372	4.9749	1.3636	0.	-4618.1
11373	5.0673	1.2727	0.	-4455.1
11374	4.9749	1.2727	5.e-002	-27.045
11375	4.9749	1.5455	0.	-4980.8
11376	5.0673	1.4545	0.	-4770.2
11377	4.9749	1.4545	5.e-002	-27.646
11378	4.9749	1.7273	0.	-5352.3
11379	5.0673	1.6364	0.	-5098.4
11380	4.9749	1.6364	5.e-002	-30.532
11381	4.9749	1.9091	0.	-5716.7
11382	5.0673	1.8182	0.	-5426.5
11383	4.9749	1.8182	5.e-002	-35.261
11384	4.9749	2.0909	0.	-6057.6
11385	5.0673	2.	0.	-5740.9
11386	4.9749	2.	5.e-002	-40.571
11387	4.9749	2.2727	0.	-6358.8
11388	5.0673	2.1818	0.	-6028.1
11389	4.9749	2.1818	5.e-002	-45.591
11390	4.9749	2.4545	0.	-6605.4
11391	5.0673	2.3636	0.	-6274.3
11392	4.9749	2.3636	5.e-002	-49.877
11393	4.9749	2.6364	0.	-6786.1
11394	5.0673	2.5455	0.	-6467.6
11395	4.9749	2.5455	5.e-002	-53.062
11396	4.9749	2.8182	0.	-6895.4
11397	5.0673	2.7273	0.	-6599.6
11398	4.9749	2.7273	5.e-002	-54.972
11399	4.9749	3.	0.	-6931.8
11400	5.0673	2.9091	0.	-6666.1
11401	4.9749	2.9091	5.e-002	-55.8
11402	4.9749	3.1818	0.	-6895.4
11403	5.0673	3.0909	0.	-6666.2
11404	4.9749	3.0909	5.e-002	-55.8
11405	4.9749	3.3636	0.	-6786.1
11406	5.0673	3.2727	0.	-6599.6
11407	4.9749	3.2727	5.e-002	-54.972
11408	4.9749	3.5455	0.	-6605.4
11409	5.0673	3.4545	0.	-6467.6
11410	4.9749	3.4545	5.e-002	-53.062
11411	4.9749	3.7273	0.	-6358.8
11412	5.0673	3.6364	0.	-6274.3
11413	4.9749	3.6364	5.e-002	-49.878
11414	4.9749	3.9091	0.	-6057.6
11415	5.0673	3.8182	0.	-6028.1
11416	4.9749	3.8182	5.e-002	-45.592
11417	4.9749	4.0909	0.	-5716.7
11418	5.0673	4.	0.	-5740.9
11419	4.9749	4.	5.e-002	-40.571
11420	4.9749	4.2727	0.	-5352.3
11421	5.0673	4.1818	0.	-5426.5
11422	4.9749	4.1818	5.e-002	-35.261
11423	4.9749	4.4545	0.	-4980.8
11424	5.0673	4.3636	0.	-5098.4
11425	4.9749	4.3636	5.e-002	-30.532
11426	4.9749	4.6364	0.	-4618.1
11427	5.0673	4.5455	0.	-4770.2
11428	4.9749	4.5455	5.e-002	-27.646
11429	4.9749	4.8182	0.	-4278.3
11430	5.0673	4.7273	0.	-4455.1
11431	4.9749	4.7273	5.e-002	-27.044
11432	4.9749	5.	0.	-3972.9
11433	5.0673	4.9091	0.	-4164.7
11434	4.9749	4.9091	5.e-002	-27.905
11435	4.9749	5.1818	0.	-3709.7
11436	5.0673	5.0909	0.	-3908.
11437	4.9749	5.0909	5.e-002	-29.149
11438	4.9749	5.3636	0.	-3493.5
11439	5.0673	5.2727	0.	-3691.
11440	4.9749	5.2727	5.e-002	-30.237
11441	4.9749	5.5455	0.	-3326.4
11442	5.0673	5.4545	0.	-3516.9
11443	4.9749	5.4545	5.e-002	-31.069
11444	4.9749	5.7273	0.	-3210.1
11445	5.0673	5.6364	0.	-3386.8
11446	4.9749	5.6364	5.e-002	-32.186
11447	5.0673	5.8182	0.	-3302.7
11448	4.9749	5.8182	5.e-002	-41.11
11449	4.9749	5.9091	0.	-3120.7
11450	5.1596	0.27273	0.	-3480.6
11451	5.252	0.18182	0.	-3551.3
11452	5.1596	0.18182	5.e-002	-34.222
11453	5.1596	9.0909e-002	0.	-3405.6
11454	5.1596	0.45455	0.	-3579.1
11455	5.252	0.36364	0.	-3623.5
11456	5.1596	0.36364	5.e-002	-25.936
11457	5.1596	0.63636	0.	-3717.3
11458	5.252	0.54545	0.	-3731.8
11459	5.1596	0.54545	5.e-002	-24.706
11460	5.1596	0.81818	0.	-3893.5
11461	5.252	0.72727	0.	-3874.3
11462	5.1596	0.72727	5.e-002	-23.762
11463	5.1596	1.	0.	-4104.9
11464	5.252	0.90909	0.	-4049.4
11465	5.1596	0.90909	5.e-002	-22.704
11466	5.1596	1.1818	0.	-4346.9
11467	5.252	1.0909	0.	-4253.7
11468	5.1596	1.0909	5.e-002	-21.777
11469	5.1596	1.3636	0.	-4612.3
11470	5.252	1.2727	0.	-4481.7
11471	5.1596	1.2727	5.e-002	-21.542
11472	5.1596	1.5455	0.	-4892.2
11473	5.252	1.4545	0.	-4726.
11474	5.1596	1.4545	5.e-002	-22.658
11475	5.1596	1.7273	0.	-5176.2
11476	5.252	1.6364	0.	-4978.
11477	5.1596	1.6364	5.e-002	-25.333
11478	5.1596	1.9091	0.	-5453.5
11479	5.252	1.8182	0.	-5228.3
11480	5.1596	1.8182	5.e-002	-29.044
11481	5.1596	2.0909	0.	-5713.1
11482	5.252	2.	0.	-5467.7
11483	5.1596	2.	5.e-002	-33.066
11484	5.1596	2.2727	0.	-5944.3
11485	5.252	2.1818	0.	-5686.7
11486	5.1596	2.1818	5.e-002	-36.942
11487	5.1596	2.4545	0.	-6136.2
11488	5.252	2.3636	0.	-5876.1
11489	5.1596	2.3636	5.e-002	-40.423
11490	5.1596	2.6364	0.	-6279.7
11491	5.252	2.5455	0.	-6026.8
11492	5.1596	2.5455	5.e-002	-43.253
11493	5.1596	2.8182	0.	-6368.3
11494	5.252	2.7273	0.	-6131.3
11495	5.1596	2.7273	5.e-002	-45.207
11496	5.1596	3.	0.	-6398.1
11497	5.252	2.9091	0.	-6184.8
11498	5.1596	2.9091	5.e-002	-46.185
11499	5.1596	3.1818	0.	-6368.3
11500	5.252	3.0909	0.	-6184.8
11501	5.1596	3.0909	5.e-002	-46.185
11502	5.1596	3.3636	0.	-6279.7
11503	5.252	3.2727	0.	-6131.3
11504	5.1596	3.2727	5.e-002	-45.207
11505	5.1596	3.5455	0.	-6136.2
11506	5.252	3.4545	0.	-6026.8
11507	5.1596	3.4545	5.e-002	-43.253
11508	5.1596	3.7273	0.	-5944.3
11509	5.252	3.6364	0.	-5876.1
11510	5.1596	3.6364	5.e-002	-40.423
11511	5.1596	3.9091	0.	-5713.1
11512	5.252	3.8182	0.	-5686.8
11513	5.1596	3.8182	5.e-002	-36.942
11514	5.1596	4.0909	0.	-5453.5
11515	5.252	4.	0.	-5467.7
11516	5.1596	4.	5.e-002	-33.066
11517	5.1596	4.2727	0.	-5176.2
11518	5.252	4.1818	0.	-5228.3
11519	5.1596	4.1818	5.e-002	-29.044
11520	5.1596	4.4545	0.	-4892.2
11521	5.252	4.3636	0.	-4978.
11522	5.1596	4.3636	5.e-002	-25.333
11523	5.1596	4.6364	0.	-4612.3
11524	5.252	4.5455	0.	-4726.
11525	5.1596	4.5455	5.e-002	-22.658
11526	5.1596	4.8182	0.	-4346.9
11527	5.252	4.7273	0.	-4481.7
11528	5.1596	4.7273	5.e-002	-21.542
11529	5.1596	5.	0.	-4104.9
11530	5.252	4.9091	0.	-4253.7
11531	5.1596	4.9091	5.e-002	-21.777
11532	5.1596	5.1818	0.	-3893.5
11533	5.252	5.0909	0.	-4049.4
11534	5.1596	5.0909	5.e-002	-22.704
11535	5.1596	5.3636	0.	-3717.3
11536	5.252	5.2727	0.	-3874.3
11537	5.1596	5.2727	5.e-002	-23.762
11538	5.1596	5.5455	0.	-3579.1
11539	5.252	5.4545	0.	-3731.8
11540	5.1596	5.4545	5.e-002	-24.707
11541	5.1596	5.7273	0.	-3480.6
11542	5.252	5.6364	0.	-3623.5
11543	5.1596	5.6364	5.e-002	-25.936
11544	5.252	5.8182	0.	-3551.3
11545	5.1596	5.8182	5.e-002	-34.222
11546	5.1596	5.9091	0.	-3405.6
11547	5.3443	0.27273	0.	-3695.
11548	5.4367	0.18182	0.	-3746.9
11549	5.3443	0.18182	5.e-002	-27.921
11550	5.3443	9.0909e-002	0.	-3632.9
11551	5.3443	0.45455	0.	-3777.4
11552	5.4367	0.36364	0.	-3807.8
11553	5.3443	0.36364	5.e-002	-20.394
11554	5.3443	0.63636	0.	-3890.5
11555	5.4367	0.54545	0.	-3896.9
11556	5.3443	0.54545	5.e-002	-19.207
11557	5.3443	0.81818	0.	-4032.6
11558	5.4367	0.72727	0.	-4012.4
11559	5.3443	0.72727	5.e-002	-18.366
11560	5.3443	1.	0.	-4201.
11561	5.4367	0.90909	0.	-4152.4
11562	5.3443	0.90909	5.e-002	-17.589
11563	5.3443	1.1818	0.	-4391.5
11564	5.4367	1.0909	0.	-4313.8
11565	5.3443	1.0909	5.e-002	-17.154
11566	5.3443	1.3636	0.	-4598.3
11567	5.4367	1.2727	0.	-4492.
11568	5.3443	1.2727	5.e-002	-17.492
11569	5.3443	1.5455	0.	-4814.4
11570	5.4367	1.4545	0.	-4681.2
11571	5.3443	1.4545	5.e-002	-18.914
11572	5.3443	1.7273	0.	-5032.3
11573	5.4367	1.6364	0.	-4875.1
11574	5.3443	1.6364	5.e-002	-21.33
11575	5.3443	1.9091	0.	-5244.3
11576	5.4367	1.8182	0.	-5066.7
11577	5.3443	1.8182	5.e-002	-24.329
11578	5.3443	2.0909	0.	-5442.5
11579	5.4367	2.	0.	-5249.3
11580	5.3443	2.	5.e-002	-27.483
11581	5.3443	2.2727	0.	-5619.2
11582	5.4367	2.1818	0.	-5416.4
11583	5.3443	2.1818	5.e-002	-30.525
11584	5.3443	2.4545	0.	-5766.6
11585	5.4367	2.3636	0.	-5561.
11586	5.3443	2.3636	5.e-002	-33.285
11587	5.3443	2.6364	0.	-5877.7
11588	5.4367	2.5455	0.	-5676.5
11589	5.3443	2.5455	5.e-002	-35.588
11590	5.3443	2.8182	0.	-5946.7
11591	5.4367	2.7273	0.	-5757.1
11592	5.3443	2.7273	5.e-002	-37.242
11593	5.3443	3.	0.	-5970.2
11594	5.4367	2.9091	0.	-5798.5
11595	5.3443	2.9091	5.e-002	-38.104
11596	5.3443	3.1818	0.	-5946.7
11597	5.4367	3.0909	0.	-5798.5
11598	5.3443	3.0909	5.e-002	-38.104
11599	5.3443	3.3636	0.	-5877.7
11600	5.4367	3.2727	0.	-5757.1
11601	5.3443	3.2727	5.e-002	-37.242
11602	5.3443	3.5455	0.	-5766.6
11603	5.4367	3.4545	0.	-5676.5
11604	5.3443	3.4545	5.e-002	-35.588
11605	5.3443	3.7273	0.	-5619.2
11606	5.4367	3.6364	0.	-5561.
11607	5.3443	3.6364	5.e-002	-33.285
11608	5.3443	3.9091	0.	-5442.5
11609	5.4367	3.8182	0.	-5416.4
11610	5.3443	3.8182	5.e-002	-30.525
11611	5.3443	4.0909	0.	-5244.3
11612	5.4367	4.	0.	-5249.3
11613	5.3443	4.	5.e-002	-27.483
11614	5.3443	4.2727	0.	-5032.3
11615	5.4367	4.1818	0.	-5066.7
11616	5.3443	4.1818	5.e-002	-24.329
11617	5.3443	4.4545	0.	-4814.4
11618	5.4367	4.3636	0.	-4875.1
11619	5.3443	4.3636	5.e-002	-21.33
11620	5.3443	4.6364	0.	-4598.3
11621	5.4367	4.5455	0.	-4681.3
11622	5.3443	4.5455	5.e-002	-18.914
11623	5.3443	4.8182	0.	-4391.5
11624	5.4367	4.7273	0.	-4492.
11625	5.3443	4.7273	5.e-002	-17.492
11626	5.3443	5.	0.	-4201.
11627	5.4367	4.9091	0.	-4313.8
11628	5.3443	4.9091	5.e-002	-17.154
11629	5.3443	5.1818	0.	-4032.6
11630	5.4367	5.0909	0.	-4152.4
11631	5.3443	5.0909	5.e-002	-17.589
11632	5.3443	5.3636	0.	-3890.5
11633	5.4367	5.2727	0.	-4012.4
11634	5.3443	5.2727	5.e-002	-18.366
11635	5.3443	5.5455	0.	-3777.4
11636	5.4367	5.4545	0.	-3896.9
11637	5.3443	5.4545	5.e-002	-19.207
11638	5.3443	5.7273	0.	-3695.
11639	5.4367	5.6364	0.	-3807.8
11640	5.3443	5.6364	5.e-002	-20.394
11641	5.4367	5.8182	0.	-3746.9
11642	5.3443	5.8182	5.e-002	-27.921
11643	5.3443	5.9091	0.	-3632.9
11644	5.5291	0.27273	0.	-3860.3
11645	5.6214	0.18182	0.	-3896.5
11646	5.5291	0.18182	5.e-002	-22.358
11647	5.5291	9.0909e-002	0.	-3809.5
11648	5.5291	0.45455	0.	-3928.2
11649	5.6214	0.36364	0.	-3947.
11650	5.5291	0.36364	5.e-002	-15.62
11651	5.5291	0.63636	0.	-4019.9
11652	5.6214	0.54545	0.	-4019.5
11653	5.5291	0.54545	5.e-002	-14.575
11654	5.5291	0.81818	0.	-4133.5
11655	5.6214	0.72727	0.	-4112.1
11656	5.5291	0.72727	5.e-002	-13.96
11657	5.5291	1.	0.	-4266.8
11658	5.6214	0.90909	0.	-4223.2
11659	5.5291	0.90909	5.e-002	-13.567
11660	5.5291	1.1818	0.	-4416.
11661	5.6214	1.0909	0.	-4349.9
11662	5.5291	1.0909	5.e-002	-13.636
11663	5.5291	1.3636	0.	-4576.6
11664	5.6214	1.2727	0.	-4488.7
11665	5.5291	1.2727	5.e-002	-14.422
11666	5.5291	1.5455	0.	-4743.4
11667	5.6214	1.4545	0.	-4635.
11668	5.5291	1.4545	5.e-002	-15.993
11669	5.5291	1.7273	0.	-4910.7
11670	5.6214	1.6364	0.	-4784.
11671	5.5291	1.6364	5.e-002	-18.167
11672	5.5291	1.9091	0.	-5072.8
11673	5.6214	1.8182	0.	-4930.6
11674	5.5291	1.8182	5.e-002	-20.645
11675	5.5291	2.0909	0.	-5224.
11676	5.6214	2.	0.	-5070.
11677	5.5291	2.	5.e-002	-23.168
11678	5.5291	2.2727	0.	-5358.6
11679	5.6214	2.1818	0.	-5197.1
11680	5.5291	2.1818	5.e-002	-25.569
11681	5.5291	2.4545	0.	-5470.9
11682	5.6214	2.3636	0.	-5306.9
11683	5.5291	2.3636	5.e-002	-27.734
11684	5.5291	2.6364	0.	-5555.6
11685	5.6214	2.5455	0.	-5394.6
11686	5.5291	2.5455	5.e-002	-29.538
11687	5.5291	2.8182	0.	-5608.4
11688	5.6214	2.7273	0.	-5455.9
11689	5.5291	2.7273	5.e-002	-30.843
11690	5.5291	3.	0.	-5626.3
11691	5.6214	2.9091	0.	-5487.4
11692	5.5291	2.9091	5.e-002	-31.529
11693	5.5291	3.1818	0.	-5608.4
11694	5.6214	3.0909	0.	-5487.4
11695	5.5291	3.0909	5.e-002	-31.529
11696	5.5291	3.3636	0.	-5555.6
11697	5.6214	3.2727	0.	-5455.9
11698	5.5291	3.2727	5.e-002	-30.843
11699	5.5291	3.5455	0.	-5470.9
11700	5.6214	3.4545	0.	-5394.6
11701	5.5291	3.4545	5.e-002	-29.538
11702	5.5291	3.7273	0.	-5358.6
11703	5.6214	3.6364	0.	-5306.9
11704	5.5291	3.6364	5.e-002	-27.734
11705	5.5291	3.9091	0.	-5224.
11706	5.6214	3.8182	0.	-5197.1
11707	5.5291	3.8182	5.e-002	-25.57
11708	5.5291	4.0909	0.	-5072.8
11709	5.6214	4.	0.	-5070.
11710	5.5291	4.	5.e-002	-23.168
11711	5.5291	4.2727	0.	-4910.7
11712	5.6214	4.1818	0.	-4930.6
11713	5.5291	4.1818	5.e-002	-20.645
11714	5.5291	4.4545	0.	-4743.4
11715	5.6214	4.3636	0.	-4784.
11716	5.5291	4.3636	5.e-002	-18.167
11717	5.5291	4.6364	0.	-4576.6
11718	5.6214	4.5455	0.	-4635.
11719	5.5291	4.5455	5.e-002	-15.992
11720	5.5291	4.8182	0.	-4416.
11721	5.6214	4.7273	0.	-4488.7
11722	5.5291	4.7273	5.e-002	-14.422
11723	5.5291	5.	0.	-4266.8
11724	5.6214	4.9091	0.	-4349.9
11725	5.5291	4.9091	5.e-002	-13.636
11726	5.5291	5.1818	0.	-4133.5
11727	5.6214	5.0909	0.	-4223.2
11728	5.5291	5.0909	5.e-002	-13.567
11729	5.5291	5.3636	0.	-4019.9
11730	5.6214	5.2727	0.	-4112.1
11731	5.5291	5.2727	5.e-002	-13.96
11732	5.5291	5.5455	0.	-3928.2
11733	5.6214	5.4545	0.	-4019.5
11734	5.5291	5.4545	5.e-002	-14.575
11735	5.5291	5.7273	0.	-3860.3
11736	5.6214	5.6364	0.	-3947.
11737	5.5291	5.6364	5.e-002	-15.62
11738	5.6214	5.8182	0.	-3896.5
11739	5.5291	5.8182	5.e-002	-22.358
11740	5.5291	5.9091	0.	-3809.5
11741	5.7138	0.27273	0.	-3983.6
11742	5.8061	0.18182	0.	-4007.
11743	5.7138	0.18182	5.e-002	-17.578
11744	5.7138	9.0909e-002	0.	-3942.6
11745	5.7138	0.45455	0.	-4038.8
11746	5.8061	0.36364	0.	-4048.2
11747	5.7138	0.36364	5.e-002	-11.594
11748	5.7138	0.63636	0.	-4112.4
11749	5.8061	0.54545	0.	-4106.4
11750	5.7138	0.54545	5.e-002	-10.75
11751	5.7138	0.81818	0.	-4202.6
11752	5.8061	0.72727	0.	-4180.1
11753	5.7138	0.72727	5.e-002	-10.426
11754	5.7138	1.	0.	-4307.3
11755	5.8061	0.90909	0.	-4267.6
11756	5.7138	0.90909	5.e-002	-10.446
11757	5.7138	1.1818	0.	-4423.6
11758	5.8061	1.0909	0.	-4366.6
11759	5.7138	1.0909	5.e-002	-10.965
11760	5.7138	1.3636	0.	-4548.
11761	5.8061	1.2727	0.	-4474.1
11762	5.7138	1.2727	5.e-002	-12.068
11763	5.7138	1.5455	0.	-4676.4
11764	5.8061	1.4545	0.	-4586.9
11765	5.7138	1.4545	5.e-002	-13.685
11766	5.7138	1.7273	0.	-4804.7
11767	5.8061	1.6364	0.	-4701.2
11768	5.7138	1.6364	5.e-002	-15.632
11769	5.7138	1.9091	0.	-4928.5
11770	5.8061	1.8182	0.	-4813.2
11771	5.7138	1.8182	5.e-002	-17.706
11772	5.7138	2.0909	0.	-5043.6
11773	5.8061	2.	0.	-4919.3
11774	5.7138	2.	5.e-002	-19.748
11775	5.7138	2.2727	0.	-5145.7
11776	5.8061	2.1818	0.	-5015.7
11777	5.7138	2.1818	5.e-002	-21.654
11778	5.7138	2.4545	0.	-5230.7
11779	5.8061	2.3636	0.	-5098.7
11780	5.7138	2.3636	5.e-002	-23.345
11781	5.7138	2.6364	0.	-5294.7
11782	5.8061	2.5455	0.	-5164.8
11783	5.7138	2.5455	5.e-002	-24.736
11784	5.7138	2.8182	0.	-5334.6
11785	5.8061	2.7273	0.	-5210.9
11786	5.7138	2.7273	5.e-002	-25.736
11787	5.7138	3.	0.	-5348.1
11788	5.8061	2.9091	0.	-5234.6
11789	5.7138	2.9091	5.e-002	-26.261
11790	5.7138	3.1818	0.	-5334.6
11791	5.8061	3.0909	0.	-5234.6
11792	5.7138	3.0909	5.e-002	-26.261
11793	5.7138	3.3636	0.	-5294.7
11794	5.8061	3.2727	0.	-5210.9
11795	5.7138	3.2727	5.e-002	-25.736
11796	5.7138	3.5455	0.	-5230.7
11797	5.8061	3.4545	0.	-5164.8
11798	5.7138	3.4545	5.e-002	-24.736
11799	5.7138	3.7273	0.	-5145.7
11800	5.8061	3.6364	0.	-5098.7
11801	5.7138	3.6364	5.e-002	-23.345
11802	5.7138	3.9091	0.	-5043.6
11803	5.8061	3.8182	0.	-5015.7
11804	5.7138	3.8182	5.e-002	-21.654
11805	5.7138	4.0909	0.	-4928.5
11806	5.8061	4.	0.	-4919.3
11807	5.7138	4.	5.e-002	-19.748
11808	5.7138	4.2727	0.	-4804.7
11809	5.8061	4.1818	0.	-4813.2
11810	5.7138	4.1818	5.e-002	-17.706
11811	5.7138	4.4545	0.	-4676.5
11812	5.8061	4.3636	0.	-4701.2
11813	5.7138	4.3636	5.e-002	-15.632
11814	5.7138	4.6364	0.	-4548.
11815	5.8061	4.5455	0.	-4586.9
11816	5.7138	4.5455	5.e-002	-13.685
11817	5.7138	4.8182	0.	-4423.6
11818	5.8061	4.7273	0.	-4474.1
11819	5.7138	4.7273	5.e-002	-12.068
11820	5.7138	5.	0.	-4307.3
11821	5.8061	4.9091	0.	-4366.6
11822	5.7138	4.9091	5.e-002	-10.965
11823	5.7138	5.1818	0.	-4202.6
11824	5.8061	5.0909	0.	-4267.6
11825	5.7138	5.0909	5.e-002	-10.446
11826	5.7138	5.3636	0.	-4112.4
11827	5.8061	5.2727	0.	-4180.1
11828	5.7138	5.2727	5.e-002	-10.426
11829	5.7138	5.5455	0.	-4038.8
11830	5.8061	5.4545	0.	-4106.4
11831	5.7138	5.4545	5.e-002	-10.75
11832	5.7138	5.7273	0.	-3983.6
11833	5.8061	5.6364	0.	-4048.2
11834	5.7138	5.6364	5.e-002	-11.595
11835	5.8061	5.8182	0.	-4007.
11836	5.7138	5.8182	5.e-002	-17.578
11837	5.7138	5.9091	0.	-3942.6
11838	5.8985	0.27273	0.	-4071.8
11839	5.9908	0.18182	0.	-4084.8
11840	5.8985	0.18182	5.e-002	-13.558
11841	5.8985	9.0909e-002	0.	-4039.
11842	5.8985	0.45455	0.	-4116.1
11843	5.9908	0.36364	0.	-4117.9
11844	5.8985	0.36364	5.e-002	-8.2571
11845	5.8985	0.63636	0.	-4174.5
11846	5.9908	0.54545	0.	-4164.1
11847	5.8985	0.54545	5.e-002	-7.6511
11848	5.8985	0.81818	0.	-4245.6
11849	5.9908	0.72727	0.	-4222.2
11850	5.8985	0.72727	5.e-002	-7.6564
11851	5.8985	1.	0.	-4327.3
11852	5.9908	0.90909	0.	-4290.6
11853	5.8985	0.90909	5.e-002	-8.0857
11854	5.8985	1.1818	0.	-4417.6
11855	5.9908	1.0909	0.	-4367.4
11856	5.8985	1.0909	5.e-002	-8.9725
11857	5.8985	1.3636	0.	-4513.6
11858	5.9908	1.2727	0.	-4450.5
11859	5.8985	1.2727	5.e-002	-10.27
11860	5.8985	1.5455	0.	-4612.1
11861	5.9908	1.4545	0.	-4537.
11862	5.8985	1.4545	5.e-002	-11.857
11863	5.8985	1.7273	0.	-4710.1
11864	5.9908	1.6364	0.	-4624.4
11865	5.8985	1.6364	5.e-002	-13.589
11866	5.8985	1.9091	0.	-4804.4
11867	5.9908	1.8182	0.	-4709.7
11868	5.8985	1.8182	5.e-002	-15.337
11869	5.8985	2.0909	0.	-4891.7
11870	5.9908	2.	0.	-4790.1
11871	5.8985	2.	5.e-002	-17.003
11872	5.8985	2.2727	0.	-4968.8
11873	5.9908	2.1818	0.	-4862.9
11874	5.8985	2.1818	5.e-002	-18.523
11875	5.8985	2.4545	0.	-5032.8
11876	5.9908	2.3636	0.	-4925.4
11877	5.8985	2.3636	5.e-002	-19.844
11878	5.8985	2.6364	0.	-5080.9
11879	5.9908	2.5455	0.	-4974.9
11880	5.8985	2.5455	5.e-002	-20.914
11881	5.8985	2.8182	0.	-5110.8
11882	5.9908	2.7273	0.	-5009.4
11883	5.8985	2.7273	5.e-002	-21.674
11884	5.8985	3.	0.	-5120.9
11885	5.9908	2.9091	0.	-5027.1
11886	5.8985	2.9091	5.e-002	-22.07
11887	5.8985	3.1818	0.	-5110.8
11888	5.9908	3.0909	0.	-5027.1
11889	5.8985	3.0909	5.e-002	-22.07
11890	5.8985	3.3636	0.	-5080.9
11891	5.9908	3.2727	0.	-5009.4
11892	5.8985	3.2727	5.e-002	-21.674
11893	5.8985	3.5455	0.	-5032.8
11894	5.9908	3.4545	0.	-4974.9
11895	5.8985	3.4545	5.e-002	-20.914
11896	5.8985	3.7273	0.	-4968.8
11897	5.9908	3.6364	0.	-4925.4
11898	5.8985	3.6364	5.e-002	-19.844
11899	5.8985	3.9091	0.	-4891.7
11900	5.9908	3.8182	0.	-4862.9
11901	5.8985	3.8182	5.e-002	-18.523
11902	5.8985	4.0909	0.	-4804.4
11903	5.9908	4.	0.	-4790.1
11904	5.8985	4.	5.e-002	-17.003
11905	5.8985	4.2727	0.	-4710.1
11906	5.9908	4.1818	0.	-4709.7
11907	5.8985	4.1818	5.e-002	-15.337
11908	5.8985	4.4545	0.	-4612.1
11909	5.9908	4.3636	0.	-4624.4
11910	5.8985	4.3636	5.e-002	-13.589
11911	5.8985	4.6364	0.	-4513.6
11912	5.9908	4.5455	0.	-4537.
11913	5.8985	4.5455	5.e-002	-11.857
11914	5.8985	4.8182	0.	-4417.6
11915	5.9908	4.7273	0.	-4450.5
11916	5.8985	4.7273	5.e-002	-10.27
11917	5.8985	5.	0.	-4327.3
11918	5.9908	4.9091	0.	-4367.4
11919	5.8985	4.9091	5.e-002	-8.9724
11920	5.8985	5.1818	0.	-4245.6
11921	5.9908	5.0909	0.	-4290.6
11922	5.8985	5.0909	5.e-002	-8.0857
11923	5.8985	5.3636	0.	-4174.5
11924	5.9908	5.2727	0.	-4222.2
11925	5.8985	5.2727	5.e-002	-7.6565
11926	5.8985	5.5455	0.	-4116.1
11927	5.9908	5.4545	0.	-4164.1
11928	5.8985	5.4545	5.e-002	-7.6512
11929	5.8985	5.7273	0.	-4071.8
11930	5.9908	5.6364	0.	-4117.9
11931	5.8985	5.6364	5.e-002	-8.2573
11932	5.9908	5.8182	0.	-4084.8
11933	5.8985	5.8182	5.e-002	-13.559
11934	5.8985	5.9091	0.	-4039.
11935	6.0832	0.27273	0.	-4131.
11936	6.1755	0.18182	0.	-4135.8
11937	6.0832	0.18182	5.e-002	-10.237
11938	6.0832	9.0909e-002	0.	-4105.1
11939	6.0832	0.45455	0.	-4166.1
11940	6.1755	0.36364	0.	-4161.8
11941	6.0832	0.36364	5.e-002	-5.5321
11942	6.0832	0.63636	0.	-4212.
11943	6.1755	0.54545	0.	-4198.1
11944	6.0832	0.54545	5.e-002	-5.2072
11945	6.0832	0.81818	0.	-4267.5
11946	6.1755	0.72727	0.	-4243.5
11947	6.0832	0.72727	5.e-002	-5.5822
11948	6.0832	1.	0.	-4331.
11949	6.1755	0.90909	0.	-4296.5
11950	6.0832	0.90909	5.e-002	-6.3895
11951	6.0832	1.1818	0.	-4400.6
11952	6.1755	1.0909	0.	-4355.8
11953	6.0832	1.0909	5.e-002	-7.5371
11954	6.0832	1.3636	0.	-4474.2
11955	6.1755	1.2727	0.	-4419.5
11956	6.0832	1.2727	5.e-002	-8.9157
11957	6.0832	1.5455	0.	-4549.6
11958	6.1755	1.4545	0.	-4485.6
11959	6.0832	1.4545	5.e-002	-10.416
11960	6.0832	1.7273	0.	-4624.2
11961	6.1755	1.6364	0.	-4552.1
11962	6.0832	1.6364	5.e-002	-11.943
11963	6.0832	1.9091	0.	-4695.6
11964	6.1755	1.8182	0.	-4616.7
11965	6.0832	1.8182	5.e-002	-13.418
11966	6.0832	2.0909	0.	-4761.5
11967	6.1755	2.	0.	-4677.4
11968	6.0832	2.	5.e-002	-14.785
11969	6.0832	2.2727	0.	-4819.5
11970	6.1755	2.1818	0.	-4732.1
11971	6.0832	2.1818	5.e-002	-16.003
11972	6.0832	2.4545	0.	-4867.5
11973	6.1755	2.3636	0.	-4778.8
11974	6.0832	2.3636	5.e-002	-17.041
11975	6.0832	2.6364	0.	-4903.4
11976	6.1755	2.5455	0.	-4815.8
11977	6.0832	2.5455	5.e-002	-17.867
11978	6.0832	2.8182	0.	-4925.6
11979	6.1755	2.7273	0.	-4841.4
11980	6.0832	2.7273	5.e-002	-18.444
11981	6.0832	3.	0.	-4933.2
11982	6.1755	2.9091	0.	-4854.6
11983	6.0832	2.9091	5.e-002	-18.743
11984	6.0832	3.1818	0.	-4925.6
11985	6.1755	3.0909	0.	-4854.6
11986	6.0832	3.0909	5.e-002	-18.743
11987	6.0832	3.3636	0.	-4903.4
11988	6.1755	3.2727	0.	-4841.4
11989	6.0832	3.2727	5.e-002	-18.444
11990	6.0832	3.5455	0.	-4867.5
11991	6.1755	3.4545	0.	-4815.8
11992	6.0832	3.4545	5.e-002	-17.867
11993	6.0832	3.7273	0.	-4819.5
11994	6.1755	3.6364	0.	-4778.8
11995	6.0832	3.6364	5.e-002	-17.041
11996	6.0832	3.9091	0.	-4761.5
11997	6.1755	3.8182	0.	-4732.1
11998	6.0832	3.8182	5.e-002	-16.003
11999	6.0832	4.0909	0.	-4695.6
12000	6.1755	4.	0.	-4677.4
12001	6.0832	4.	5.e-002	-14.785
12002	6.0832	4.2727	0.	-4624.2
12003	6.1755	4.1818	0.	-4616.7
12004	6.0832	4.1818	5.e-002	-13.418
12005	6.0832	4.4545	0.	-4549.6
12006	6.1755	4.3636	0.	-4552.1
12007	6.0832	4.3636	5.e-002	-11.943
12008	6.0832	4.6364	0.	-4474.2
12009	6.1755	4.5455	0.	-4485.6
12010	6.0832	4.5455	5.e-002	-10.416
12011	6.0832	4.8182	0.	-4400.6
12012	6.1755	4.7273	0.	-4419.5
12013	6.0832	4.7273	5.e-002	-8.9156
12014	6.0832	5.	0.	-4331.
12015	6.1755	4.9091	0.	-4355.8
12016	6.0832	4.9091	5.e-002	-7.5371
12017	6.0832	5.1818	0.	-4267.5
12018	6.1755	5.0909	0.	-4296.5
12019	6.0832	5.0909	5.e-002	-6.3894
12020	6.0832	5.3636	0.	-4212.
12021	6.1755	5.2727	0.	-4243.5
12022	6.0832	5.2727	5.e-002	-5.5822
12023	6.0832	5.5455	0.	-4166.1
12024	6.1755	5.4545	0.	-4198.1
12025	6.0832	5.4545	5.e-002	-5.2074
12026	6.0832	5.7273	0.	-4131.
12027	6.1755	5.6364	0.	-4161.8
12028	6.0832	5.6364	5.e-002	-5.5323
12029	6.1755	5.8182	0.	-4135.8
12030	6.0832	5.8182	5.e-002	-10.237
12031	6.0832	5.9091	0.	-4105.1
12032	6.2679	0.27273	0.	-4166.6
12033	6.3602	0.18182	0.	-4164.7
12034	6.2679	0.18182	5.e-002	-7.5322
12035	6.2679	9.0909e-002	0.	-4146.4
12036	6.2679	0.45455	0.	-4193.9
12037	6.3602	0.36364	0.	-4184.9
12038	6.2679	0.36364	5.e-002	-3.3496
12039	6.2679	0.63636	0.	-4229.7
12040	6.3602	0.54545	0.	-4213.
12041	6.2679	0.54545	5.e-002	-3.3963
12042	6.2679	0.81818	0.	-4272.6
12043	6.3602	0.72727	0.	-4248.1
12044	6.2679	0.72727	5.e-002	-4.1789
12045	6.2679	1.	0.	-4321.5
12046	6.3602	0.90909	0.	-4288.9
12047	6.2679	0.90909	5.e-002	-5.2827
12048	6.2679	1.1818	0.	-4374.9
12049	6.3602	1.0909	0.	-4334.3
12050	6.2679	1.0909	5.e-002	-6.56
12051	6.2679	1.3636	0.	-4431.
12052	6.3602	1.2727	0.	-4382.8
12053	6.2679	1.2727	5.e-002	-7.9188
12054	6.2679	1.5455	0.	-4488.3
12055	6.3602	1.4545	0.	-4433.
12056	6.2679	1.4545	5.e-002	-9.2909
12057	6.2679	1.7273	0.	-4544.7
12058	6.3602	1.6364	0.	-4483.2
12059	6.2679	1.6364	5.e-002	-10.621
12060	6.2679	1.9091	0.	-4598.6
12061	6.3602	1.8182	0.	-4531.9
12062	6.2679	1.8182	5.e-002	-11.864
12063	6.2679	2.0909	0.	-4648.
12064	6.3602	2.	0.	-4577.4
12065	6.2679	2.	5.e-002	-12.988
12066	6.2679	2.2727	0.	-4691.4
12067	6.3602	2.1818	0.	-4618.3
12068	6.2679	2.1818	5.e-002	-13.971
12069	6.2679	2.4545	0.	-4727.2
12070	6.3602	2.3636	0.	-4653.
12071	6.2679	2.3636	5.e-002	-14.792
12072	6.2679	2.6364	0.	-4753.8
12073	6.3602	2.5455	0.	-4680.4
12074	6.2679	2.5455	5.e-002	-15.433
12075	6.2679	2.8182	0.	-4770.3
12076	6.3602	2.7273	0.	-4699.4
12077	6.2679	2.7273	5.e-002	-15.876
12078	6.2679	3.	0.	-4775.9
12079	6.3602	2.9091	0.	-4709.1
12080	6.2679	2.9091	5.e-002	-16.102
12081	6.2679	3.1818	0.	-4770.3
12082	6.3602	3.0909	0.	-4709.1
12083	6.2679	3.0909	5.e-002	-16.102
12084	6.2679	3.3636	0.	-4753.8
12085	6.3602	3.2727	0.	-4699.4
12086	6.2679	3.2727	5.e-002	-15.876
12087	6.2679	3.5455	0.	-4727.2
12088	6.3602	3.4545	0.	-4680.4
12089	6.2679	3.4545	5.e-002	-15.433
12090	6.2679	3.7273	0.	-4691.4
12091	6.3602	3.6364	0.	-4653.
12092	6.2679	3.6364	5.e-002	-14.792
12093	6.2679	3.9091	0.	-4648.
12094	6.3602	3.8182	0.	-4618.3
12095	6.2679	3.8182	5.e-002	-13.971
12096	6.2679	4.0909	0.	-4598.6
12097	6.3602	4.	0.	-4577.4
12098	6.2679	4.	5.e-002	-12.989
12099	6.2679	4.2727	0.	-4544.7
12100	6.3602	4.1818	0.	-4531.9
12101	6.2679	4.1818	5.e-002	-11.864
12102	6.2679	4.4545	0.	-4488.3
12103	6.3602	4.3636	0.	-4483.2
12104	6.2679	4.3636	5.e-002	-10.621
12105	6.2679	4.6364	0.	-4431.
12106	6.3602	4.5455	0.	-4433.
12107	6.2679	4.5455	5.e-002	-9.2909
12108	6.2679	4.8182	0.	-4374.9
12109	6.3602	4.7273	0.	-4382.8
12110	6.2679	4.7273	5.e-002	-7.9188
12111	6.2679	5.	0.	-4321.5
12112	6.3602	4.9091	0.	-4334.3
12113	6.2679	4.9091	5.e-002	-6.56
12114	6.2679	5.1818	0.	-4272.6
12115	6.3602	5.0909	0.	-4288.9
12116	6.2679	5.0909	5.e-002	-5.2826
12117	6.2679	5.3636	0.	-4229.7
12118	6.3602	5.2727	0.	-4248.1
12119	6.2679	5.2727	5.e-002	-4.1788
12120	6.2679	5.5455	0.	-4193.9
12121	6.3602	5.4545	0.	-4213.
12122	6.2679	5.4545	5.e-002	-3.3964
12123	6.2679	5.7273	0.	-4166.6
12124	6.3602	5.6364	0.	-4184.9
12125	6.2679	5.6364	5.e-002	-3.3499
12126	6.3602	5.8182	0.	-4164.7
12127	6.2679	5.8182	5.e-002	-7.5325
12128	6.2679	5.9091	0.	-4146.4
12129	6.4526	0.27273	0.	-4183.
12130	6.545	0.18182	0.	-4176.
12131	6.4526	0.18182	5.e-002	-5.36
12132	6.4526	9.0909e-002	0.	-4167.5
12133	6.4526	0.45455	0.	-4204.
12134	6.545	0.36364	0.	-4191.2
12135	6.4526	0.36364	5.e-002	-1.6974
12136	6.4526	0.63636	0.	-4231.5
12137	6.545	0.54545	0.	-4212.7
12138	6.4526	0.54545	5.e-002	-2.3161
12139	6.4526	0.81818	0.	-4264.4
12140	6.545	0.72727	0.	-4239.5
12141	6.4526	0.72727	5.e-002	-3.4438
12142	6.4526	1.	0.	-4301.7
12143	6.545	0.90909	0.	-4270.6
12144	6.4526	0.90909	5.e-002	-4.6781
12145	6.4526	1.1818	0.	-4342.3
12146	6.545	1.0909	0.	-4305.
12147	6.4526	1.0909	5.e-002	-5.9457
12148	6.4526	1.3636	0.	-4384.8
12149	6.545	1.2727	0.	-4341.7
12150	6.4526	1.2727	5.e-002	-7.2049
12151	6.4526	1.5455	0.	-4428.
12152	6.545	1.4545	0.	-4379.5
12153	6.4526	1.4545	5.e-002	-8.4213
12154	6.4526	1.7273	0.	-4470.4
12155	6.545	1.6364	0.	-4417.1
12156	6.4526	1.6364	5.e-002	-9.5643
12157	6.4526	1.9091	0.	-4510.7
12158	6.545	1.8182	0.	-4453.5
12159	6.4526	1.8182	5.e-002	-10.609
12160	6.4526	2.0909	0.	-4547.6
12161	6.545	2.	0.	-4487.4
12162	6.4526	2.	5.e-002	-11.535
12163	6.4526	2.2727	0.	-4579.9
12164	6.545	2.1818	0.	-4517.7
12165	6.4526	2.1818	5.e-002	-12.331
12166	6.4526	2.4545	0.	-4606.3
12167	6.545	2.3636	0.	-4543.4
12168	6.4526	2.3636	5.e-002	-12.985
12169	6.4526	2.6364	0.	-4626.
12170	6.545	2.5455	0.	-4563.5
12171	6.4526	2.5455	5.e-002	-13.488
12172	6.4526	2.8182	0.	-4638.1
12173	6.545	2.7273	0.	-4577.4
12174	6.4526	2.7273	5.e-002	-13.831
12175	6.4526	3.	0.	-4642.2
12176	6.545	2.9091	0.	-4584.5
12177	6.4526	2.9091	5.e-002	-14.005
12178	6.4526	3.1818	0.	-4638.1
12179	6.545	3.0909	0.	-4584.5
12180	6.4526	3.0909	5.e-002	-14.005
12181	6.4526	3.3636	0.	-4626.
12182	6.545	3.2727	0.	-4577.4
12183	6.4526	3.2727	5.e-002	-13.831
12184	6.4526	3.5455	0.	-4606.3
12185	6.545	3.4545	0.	-4563.5
12186	6.4526	3.4545	5.e-002	-13.488
12187	6.4526	3.7273	0.	-4579.9
12188	6.545	3.6364	0.	-4543.4
12189	6.4526	3.6364	5.e-002	-12.985
12190	6.4526	3.9091	0.	-4547.6
12191	6.545	3.8182	0.	-4517.7
12192	6.4526	3.8182	5.e-002	-12.331
12193	6.4526	4.0909	0.	-4510.7
12194	6.545	4.	0.	-4487.4
12195	6.4526	4.	5.e-002	-11.535
12196	6.4526	4.2727	0.	-4470.4
12197	6.545	4.1818	0.	-4453.5
12198	6.4526	4.1818	5.e-002	-10.609
12199	6.4526	4.4545	0.	-4428.
12200	6.545	4.3636	0.	-4417.1
12201	6.4526	4.3636	5.e-002	-9.5644
12202	6.4526	4.6364	0.	-4384.8
12203	6.545	4.5455	0.	-4379.5
12204	6.4526	4.5455	5.e-002	-8.4214
12205	6.4526	4.8182	0.	-4342.3
12206	6.545	4.7273	0.	-4341.7
12207	6.4526	4.7273	5.e-002	-7.205
12208	6.4526	5.	0.	-4301.7
12209	6.545	4.9091	0.	-4305.
12210	6.4526	4.9091	5.e-002	-5.9457
12211	6.4526	5.1818	0.	-4264.4
12212	6.545	5.0909	0.	-4270.6
12213	6.4526	5.0909	5.e-002	-4.6781
12214	6.4526	5.3636	0.	-4231.5
12215	6.545	5.2727	0.	-4239.5
12216	6.4526	5.2727	5.e-002	-3.4438
12217	6.4526	5.5455	0.	-4204.
12218	6.545	5.4545	0.	-4212.8
12219	6.4526	5.4545	5.e-002	-2.316
12220	6.4526	5.7273	0.	-4183.1
12221	6.545	5.6364	0.	-4191.2
12222	6.4526	5.6364	5.e-002	-1.6977
12223	6.545	5.8182	0.	-4176.
12224	6.4526	5.8182	5.e-002	-5.3603
12225	6.4526	5.9091	0.	-4167.5
12226	6.6373	0.27273	0.	-4184.2
12227	6.7297	0.18182	0.	-4173.1
12228	6.6373	0.18182	5.e-002	-3.6388
12229	6.6373	9.0909e-002	0.	-4172.4
12230	6.6373	0.45455	0.	-4200.
12231	6.7297	0.36364	0.	-4184.3
12232	6.6373	0.36364	5.e-002	-0.94793
12233	6.6373	0.63636	0.	-4220.8
12234	6.7297	0.54545	0.	-4200.4
12235	6.6373	0.54545	5.e-002	-2.118
12236	6.6373	0.81818	0.	-4245.7
12237	6.7297	0.72727	0.	-4220.5
12238	6.6373	0.72727	5.e-002	-3.2853
12239	6.6373	1.	0.	-4273.9
12240	6.7297	0.90909	0.	-4243.9
12241	6.6373	0.90909	5.e-002	-4.4507
12242	6.6373	1.1818	0.	-4304.4
12243	6.7297	1.0909	0.	-4269.7
12244	6.6373	1.0909	5.e-002	-5.5987
12245	6.6373	1.3636	0.	-4336.3
12246	6.7297	1.2727	0.	-4297.1
12247	6.6373	1.2727	5.e-002	-6.708
12248	6.6373	1.5455	0.	-4368.6
12249	6.7297	1.4545	0.	-4325.3
12250	6.6373	1.4545	5.e-002	-7.7571
12251	6.6373	1.7273	0.	-4400.2
12252	6.7297	1.6364	0.	-4353.3
12253	6.6373	1.6364	5.e-002	-8.726
12254	6.6373	1.9091	0.	-4430.1
12255	6.7297	1.8182	0.	-4380.2
12256	6.6373	1.8182	5.e-002	-9.5982
12257	6.6373	2.0909	0.	-4457.4
12258	6.7297	2.	0.	-4405.1
12259	6.6373	2.	5.e-002	-10.362
12260	6.6373	2.2727	0.	-4481.1
12261	6.7297	2.1818	0.	-4427.4
12262	6.6373	2.1818	5.e-002	-11.008
12263	6.6373	2.4545	0.	-4500.6
12264	6.7297	2.3636	0.	-4446.2
12265	6.6373	2.3636	5.e-002	-11.533
12266	6.6373	2.6364	0.	-4515.
12267	6.7297	2.5455	0.	-4460.9
12268	6.6373	2.5455	5.e-002	-11.931
12269	6.6373	2.8182	0.	-4523.8
12270	6.7297	2.7273	0.	-4471.1
12271	6.6373	2.7273	5.e-002	-12.2
12272	6.6373	3.	0.	-4526.8
12273	6.7297	2.9091	0.	-4476.2
12274	6.6373	2.9091	5.e-002	-12.335
12275	6.6373	3.1818	0.	-4523.8
12276	6.7297	3.0909	0.	-4476.2
12277	6.6373	3.0909	5.e-002	-12.335
12278	6.6373	3.3636	0.	-4515.
12279	6.7297	3.2727	0.	-4471.1
12280	6.6373	3.2727	5.e-002	-12.2
12281	6.6373	3.5455	0.	-4500.6
12282	6.7297	3.4545	0.	-4460.9
12283	6.6373	3.4545	5.e-002	-11.931
12284	6.6373	3.7273	0.	-4481.1
12285	6.7297	3.6364	0.	-4446.2
12286	6.6373	3.6364	5.e-002	-11.533
12287	6.6373	3.9091	0.	-4457.4
12288	6.7297	3.8182	0.	-4427.4
12289	6.6373	3.8182	5.e-002	-11.008
12290	6.6373	4.0909	0.	-4430.1
12291	6.7297	4.	0.	-4405.1
12292	6.6373	4.	5.e-002	-10.362
12293	6.6373	4.2727	0.	-4400.2
12294	6.7297	4.1818	0.	-4380.2
12295	6.6373	4.1818	5.e-002	-9.5983
12296	6.6373	4.4545	0.	-4368.6
12297	6.7297	4.3636	0.	-4353.3
12298	6.6373	4.3636	5.e-002	-8.7262
12299	6.6373	4.6364	0.	-4336.3
12300	6.7297	4.5455	0.	-4325.3
12301	6.6373	4.5455	5.e-002	-7.7573
12302	6.6373	4.8182	0.	-4304.4
12303	6.7297	4.7273	0.	-4297.1
12304	6.6373	4.7273	5.e-002	-6.7081
12305	6.6373	5.	0.	-4273.9
12306	6.7297	4.9091	0.	-4269.7
12307	6.6373	4.9091	5.e-002	-5.5988
12308	6.6373	5.1818	0.	-4245.7
12309	6.7297	5.0909	0.	-4243.9
12310	6.6373	5.0909	5.e-002	-4.4508
12311	6.6373	5.3636	0.	-4220.8
12312	6.7297	5.2727	0.	-4220.5
12313	6.6373	5.2727	5.e-002	-3.2854
12314	6.6373	5.5455	0.	-4200.
12315	6.7297	5.4545	0.	-4200.4
12316	6.6373	5.4545	5.e-002	-2.118
12317	6.6373	5.7273	0.	-4184.2
12318	6.7297	5.6364	0.	-4184.3
12319	6.6373	5.6364	5.e-002	-0.94792
12320	6.7297	5.8182	0.	-4173.1
12321	6.6373	5.8182	5.e-002	-3.6392
12322	6.6373	5.9091	0.	-4172.4
12323	6.822	0.27273	0.	-4173.1
12324	6.9144	0.18182	0.	-4158.8
12325	6.822	0.18182	5.e-002	-2.2973
12326	6.822	9.0909e-002	0.	-4164.4
12327	6.822	0.45455	0.	-4184.7
12328	6.9144	0.36364	0.	-4166.7
12329	6.822	0.36364	5.e-002	-1.5178
12330	6.822	0.63636	0.	-4200.1
12331	6.9144	0.54545	0.	-4178.5
12332	6.822	0.54545	5.e-002	-2.5193
12333	6.822	0.81818	0.	-4218.7
12334	6.9144	0.72727	0.	-4193.4
12335	6.822	0.72727	5.e-002	-3.4757
12336	6.822	1.	0.	-4239.7
12337	6.9144	0.90909	0.	-4210.7
12338	6.822	0.90909	5.e-002	-4.4571
12339	6.822	1.1818	0.	-4262.4
12340	6.9144	1.0909	0.	-4229.8
12341	6.822	1.0909	5.e-002	-5.4311
12342	6.822	1.3636	0.	-4286.1
12343	6.9144	1.2727	0.	-4250.
12344	6.822	1.2727	5.e-002	-6.3708
12345	6.822	1.5455	0.	-4309.9
12346	6.9144	1.4545	0.	-4270.7
12347	6.822	1.4545	5.e-002	-7.2545
12348	6.822	1.7273	0.	-4333.2
12349	6.9144	1.6364	0.	-4291.2
12350	6.822	1.6364	5.e-002	-8.0648
12351	6.822	1.9091	0.	-4355.2
12352	6.9144	1.8182	0.	-4310.9
12353	6.822	1.8182	5.e-002	-8.7883
12354	6.822	2.0909	0.	-4375.2
12355	6.9144	2.	0.	-4329.1
12356	6.822	2.	5.e-002	-9.4162
12357	6.822	2.2727	0.	-4392.5
12358	6.9144	2.1818	0.	-4345.3
12359	6.822	2.1818	5.e-002	-9.9431
12360	6.822	2.4545	0.	-4406.6
12361	6.9144	2.3636	0.	-4358.9
12362	6.822	2.3636	5.e-002	-10.366
12363	6.822	2.6364	0.	-4417.
12364	6.9144	2.5455	0.	-4369.5
12365	6.822	2.5455	5.e-002	-10.685
12366	6.822	2.8182	0.	-4423.4
12367	6.9144	2.7273	0.	-4376.8
12368	6.822	2.7273	5.e-002	-10.898
12369	6.822	3.	0.	-4425.6
12370	6.9144	2.9091	0.	-4380.5
12371	6.822	2.9091	5.e-002	-11.004
12372	6.822	3.1818	0.	-4423.4
12373	6.9144	3.0909	0.	-4380.5
12374	6.822	3.0909	5.e-002	-11.004
12375	6.822	3.3636	0.	-4417.
12376	6.9144	3.2727	0.	-4376.8
12377	6.822	3.2727	5.e-002	-10.898
12378	6.822	3.5455	0.	-4406.6
12379	6.9144	3.4545	0.	-4369.5
12380	6.822	3.4545	5.e-002	-10.685
12381	6.822	3.7273	0.	-4392.5
12382	6.9144	3.6364	0.	-4358.9
12383	6.822	3.6364	5.e-002	-10.367
12384	6.822	3.9091	0.	-4375.2
12385	6.9144	3.8182	0.	-4345.3
12386	6.822	3.8182	5.e-002	-9.9432
12387	6.822	4.0909	0.	-4355.2
12388	6.9144	4.	0.	-4329.1
12389	6.822	4.	5.e-002	-9.4163
12390	6.822	4.2727	0.	-4333.2
12391	6.9144	4.1818	0.	-4310.9
12392	6.822	4.1818	5.e-002	-8.7885
12393	6.822	4.4545	0.	-4309.9
12394	6.9144	4.3636	0.	-4291.2
12395	6.822	4.3636	5.e-002	-8.0649
12396	6.822	4.6364	0.	-4286.1
12397	6.9144	4.5455	0.	-4270.7
12398	6.822	4.5455	5.e-002	-7.2547
12399	6.822	4.8182	0.	-4262.4
12400	6.9144	4.7273	0.	-4250.
12401	6.822	4.7273	5.e-002	-6.371
12402	6.822	5.	0.	-4239.7
12403	6.9144	4.9091	0.	-4229.8
12404	6.822	4.9091	5.e-002	-5.4313
12405	6.822	5.1818	0.	-4218.7
12406	6.9144	5.0909	0.	-4210.7
12407	6.822	5.0909	5.e-002	-4.4573
12408	6.822	5.3636	0.	-4200.1
12409	6.9144	5.2727	0.	-4193.4
12410	6.822	5.2727	5.e-002	-3.4759
12411	6.822	5.5455	0.	-4184.7
12412	6.9144	5.4545	0.	-4178.5
12413	6.822	5.4545	5.e-002	-2.5196
12414	6.822	5.7273	0.	-4173.1
12415	6.9144	5.6364	0.	-4166.7
12416	6.822	5.6364	5.e-002	-1.5181
12417	6.9144	5.8182	0.	-4158.8
12418	6.822	5.8182	5.e-002	-2.2977
12419	6.822	5.9091	0.	-4164.4
12420	7.0067	0.27273	0.	-4152.4
12421	7.0991	0.18182	0.	-4135.6
12422	7.0067	0.18182	5.e-002	-1.2816
12423	7.0067	9.0909e-002	0.	-4146.1
12424	7.0067	0.45455	0.	-4160.6
12425	7.0991	0.36364	0.	-4140.8
12426	7.0067	0.36364	5.e-002	-2.2993
12427	7.0067	0.63636	0.	-4171.8
12428	7.0991	0.54545	0.	-4149.2
12429	7.0067	0.54545	5.e-002	-3.0687
12430	7.0067	0.81818	0.	-4185.4
12431	7.0991	0.72727	0.	-4159.9
12432	7.0067	0.72727	5.e-002	-3.7977
12433	7.0067	1.	0.	-4200.7
12434	7.0991	0.90909	0.	-4172.5
12435	7.0067	0.90909	5.e-002	-4.5788
12436	7.0067	1.1818	0.	-4217.3
12437	7.0991	1.0909	0.	-4186.3
12438	7.0067	1.0909	5.e-002	-5.3724
12439	7.0067	1.3636	0.	-4234.6
12440	7.0991	1.2727	0.	-4201.
12441	7.0067	1.2727	5.e-002	-6.1461
12442	7.0067	1.5455	0.	-4252.
12443	7.0991	1.4545	0.	-4216.
12444	7.0067	1.4545	5.e-002	-6.8762
12445	7.0067	1.7273	0.	-4268.9
12446	7.0991	1.6364	0.	-4230.8
12447	7.0067	1.6364	5.e-002	-7.5454
12448	7.0067	1.9091	0.	-4284.8
12449	7.0991	1.8182	0.	-4244.9
12450	7.0067	1.8182	5.e-002	-8.1414
12451	7.0067	2.0909	0.	-4299.2
12452	7.0991	2.	0.	-4257.9
12453	7.0067	2.	5.e-002	-8.6564
12454	7.0067	2.2727	0.	-4311.7
12455	7.0991	2.1818	0.	-4269.5
12456	7.0067	2.1818	5.e-002	-9.0861
12457	7.0067	2.4545	0.	-4321.8
12458	7.0991	2.3636	0.	-4279.2
12459	7.0067	2.3636	5.e-002	-9.4292
12460	7.0067	2.6364	0.	-4329.2
12461	7.0991	2.5455	0.	-4286.7
12462	7.0067	2.5455	5.e-002	-9.6856
12463	7.0067	2.8182	0.	-4333.8
12464	7.0991	2.7273	0.	-4291.9
12465	7.0067	2.7273	5.e-002	-9.856
12466	7.0067	3.	0.	-4335.4
12467	7.0991	2.9091	0.	-4294.5
12468	7.0067	2.9091	5.e-002	-9.941
12469	7.0067	3.1818	0.	-4333.8
12470	7.0991	3.0909	0.	-4294.5
12471	7.0067	3.0909	5.e-002	-9.941
12472	7.0067	3.3636	0.	-4329.2
12473	7.0991	3.2727	0.	-4291.9
12474	7.0067	3.2727	5.e-002	-9.856
12475	7.0067	3.5455	0.	-4321.8
12476	7.0991	3.4545	0.	-4286.7
12477	7.0067	3.4545	5.e-002	-9.6857
12478	7.0067	3.7273	0.	-4311.7
12479	7.0991	3.6364	0.	-4279.2
12480	7.0067	3.6364	5.e-002	-9.4293
12481	7.0067	3.9091	0.	-4299.2
12482	7.0991	3.8182	0.	-4269.5
12483	7.0067	3.8182	5.e-002	-9.0862
12484	7.0067	4.0909	0.	-4284.8
12485	7.0991	4.	0.	-4257.9
12486	7.0067	4.	5.e-002	-8.6565
12487	7.0067	4.2727	0.	-4268.9
12488	7.0991	4.1818	0.	-4244.9
12489	7.0067	4.1818	5.e-002	-8.1416
12490	7.0067	4.4545	0.	-4252.
12491	7.0991	4.3636	0.	-4230.8
12492	7.0067	4.3636	5.e-002	-7.5456
12493	7.0067	4.6364	0.	-4234.6
12494	7.0991	4.5455	0.	-4216.
12495	7.0067	4.5455	5.e-002	-6.8764
12496	7.0067	4.8182	0.	-4217.3
12497	7.0991	4.7273	0.	-4201.
12498	7.0067	4.7273	5.e-002	-6.1463
12499	7.0067	5.	0.	-4200.7
12500	7.0991	4.9091	0.	-4186.3
12501	7.0067	4.9091	5.e-002	-5.3726
12502	7.0067	5.1818	0.	-4185.4
12503	7.0991	5.0909	0.	-4172.5
12504	7.0067	5.0909	5.e-002	-4.579
12505	7.0067	5.3636	0.	-4171.8
12506	7.0991	5.2727	0.	-4159.9
12507	7.0067	5.2727	5.e-002	-3.7979
12508	7.0067	5.5455	0.	-4160.6
12509	7.0991	5.4545	0.	-4149.2
12510	7.0067	5.4545	5.e-002	-3.069
12511	7.0067	5.7273	0.	-4152.4
12512	7.0991	5.6364	0.	-4140.8
12513	7.0067	5.6364	5.e-002	-2.2997
12514	7.0991	5.8182	0.	-4135.6
12515	7.0067	5.8182	5.e-002	-1.282
12516	7.0067	5.9091	0.	-4146.1
12517	7.1914	0.27273	0.	-4124.
12518	7.2838	0.18182	0.	-4105.3
12519	7.1914	0.18182	5.e-002	-0.59616
12520	7.1914	9.0909e-002	0.	-4119.6
12521	7.1914	0.45455	0.	-4129.5
12522	7.2838	0.36364	0.	-4108.5
12523	7.1914	0.36364	5.e-002	-2.9648
12524	7.1914	0.63636	0.	-4137.4
12525	7.2838	0.54545	0.	-4114.1
12526	7.1914	0.54545	5.e-002	-3.58
12527	7.1914	0.81818	0.	-4147.
12528	7.2838	0.72727	0.	-4121.6
12529	7.1914	0.72727	5.e-002	-4.1318
12530	7.1914	1.	0.	-4158.
12531	7.2838	0.90909	0.	-4130.4
12532	7.1914	0.90909	5.e-002	-4.74
12533	7.1914	1.1818	0.	-4169.9
12534	7.2838	1.0909	0.	-4140.2
12535	7.1914	1.0909	5.e-002	-5.3722
12536	7.1914	1.3636	0.	-4182.3
12537	7.2838	1.2727	0.	-4150.5
12538	7.1914	1.2727	5.e-002	-5.9972
12539	7.1914	1.5455	0.	-4194.7
12540	7.2838	1.4545	0.	-4161.1
12541	7.1914	1.4545	5.e-002	-6.5916
12542	7.1914	1.7273	0.	-4206.7
12543	7.2838	1.6364	0.	-4171.6
12544	7.1914	1.6364	5.e-002	-7.1383
12545	7.1914	1.9091	0.	-4218.
12546	7.2838	1.8182	0.	-4181.5
12547	7.1914	1.8182	5.e-002	-7.6258
12548	7.1914	2.0909	0.	-4228.2
12549	7.2838	2.	0.	-4190.7
12550	7.1914	2.	5.e-002	-8.0465
12551	7.1914	2.2727	0.	-4237.
12552	7.2838	2.1818	0.	-4198.7
12553	7.1914	2.1818	5.e-002	-8.3969
12554	7.1914	2.4545	0.	-4244.1
12555	7.2838	2.3636	0.	-4205.5
12556	7.1914	2.3636	5.e-002	-8.6756
12557	7.1914	2.6364	0.	-4249.4
12558	7.2838	2.5455	0.	-4210.7
12559	7.1914	2.5455	5.e-002	-8.8832
12560	7.1914	2.8182	0.	-4252.6
12561	7.2838	2.7273	0.	-4214.3
12562	7.1914	2.7273	5.e-002	-9.0206
12563	7.1914	3.	0.	-4253.7
12564	7.2838	2.9091	0.	-4216.1
12565	7.1914	2.9091	5.e-002	-9.089
12566	7.1914	3.1818	0.	-4252.6
12567	7.2838	3.0909	0.	-4216.1
12568	7.1914	3.0909	5.e-002	-9.089
12569	7.1914	3.3636	0.	-4249.4
12570	7.2838	3.2727	0.	-4214.3
12571	7.1914	3.2727	5.e-002	-9.0206
12572	7.1914	3.5455	0.	-4244.1
12573	7.2838	3.4545	0.	-4210.7
12574	7.1914	3.4545	5.e-002	-8.8832
12575	7.1914	3.7273	0.	-4237.
12576	7.2838	3.6364	0.	-4205.5
12577	7.1914	3.6364	5.e-002	-8.6757
12578	7.1914	3.9091	0.	-4228.2
12579	7.2838	3.8182	0.	-4198.7
12580	7.1914	3.8182	5.e-002	-8.397
12581	7.1914	4.0909	0.	-4218.
12582	7.2838	4.	0.	-4190.7
12583	7.1914	4.	5.e-002	-8.0467
12584	7.1914	4.2727	0.	-4206.7
12585	7.2838	4.1818	0.	-4181.5
12586	7.1914	4.1818	5.e-002	-7.6259
12587	7.1914	4.4545	0.	-4194.7
12588	7.2838	4.3636	0.	-4171.6
12589	7.1914	4.3636	5.e-002	-7.1385
12590	7.1914	4.6364	0.	-4182.3
12591	7.2838	4.5455	0.	-4161.1
12592	7.1914	4.5455	5.e-002	-6.5918
12593	7.1914	4.8182	0.	-4169.9
12594	7.2838	4.7273	0.	-4150.5
12595	7.1914	4.7273	5.e-002	-5.9974
12596	7.1914	5.	0.	-4158.
12597	7.2838	4.9091	0.	-4140.2
12598	7.1914	4.9091	5.e-002	-5.3724
12599	7.1914	5.1818	0.	-4147.
12600	7.2838	5.0909	0.	-4130.4
12601	7.1914	5.0909	5.e-002	-4.7403
12602	7.1914	5.3636	0.	-4137.4
12603	7.2838	5.2727	0.	-4121.6
12604	7.1914	5.2727	5.e-002	-4.1321
12605	7.1914	5.5455	0.	-4129.5
12606	7.2838	5.4545	0.	-4114.1
12607	7.1914	5.4545	5.e-002	-3.5804
12608	7.1914	5.7273	0.	-4124.
12609	7.2838	5.6364	0.	-4108.5
12610	7.1914	5.6364	5.e-002	-2.9652
12611	7.2838	5.8182	0.	-4105.3
12612	7.1914	5.8182	5.e-002	-0.59639
12613	7.1914	5.9091	0.	-4119.6
12614	7.3761	0.27273	0.	-4089.7
12615	7.4685	0.18182	0.	-4069.5
12616	7.3761	0.18182	5.e-002	-0.48359
12617	7.3761	9.0909e-002	0.	-4086.8
12618	7.3761	0.45455	0.	-4093.1
12619	7.4685	0.36364	0.	-4071.
12620	7.3761	0.36364	5.e-002	-3.4975
12621	7.3761	0.63636	0.	-4098.3
12622	7.4685	0.54545	0.	-4074.5
12623	7.3761	0.54545	5.e-002	-4.0093
12624	7.3761	0.81818	0.	-4104.9
12625	7.4685	0.72727	0.	-4079.4
12626	7.3761	0.72727	5.e-002	-4.4304
12627	7.3761	1.	0.	-4112.5
12628	7.4685	0.90909	0.	-4085.3
12629	7.3761	0.90909	5.e-002	-4.901
12630	7.3761	1.1818	0.	-4120.8
12631	7.4685	1.0909	0.	-4092.
12632	7.3761	1.0909	5.e-002	-5.3987
12633	7.3761	1.3636	0.	-4129.4
12634	7.4685	1.2727	0.	-4099.1
12635	7.3761	1.2727	5.e-002	-5.8973
12636	7.3761	1.5455	0.	-4138.
12637	7.4685	1.4545	0.	-4106.3
12638	7.3761	1.4545	5.e-002	-6.3759
12639	7.3761	1.7273	0.	-4146.3
12640	7.4685	1.6364	0.	-4113.5
12641	7.3761	1.6364	5.e-002	-6.8187
12642	7.3761	1.9091	0.	-4154.1
12643	7.4685	1.8182	0.	-4120.2
12644	7.3761	1.8182	5.e-002	-7.2148
12645	7.3761	2.0909	0.	-4161.2
12646	7.4685	2.	0.	-4126.5
12647	7.3761	2.	5.e-002	-7.5573
12648	7.3761	2.2727	0.	-4167.2
12649	7.4685	2.1818	0.	-4131.9
12650	7.3761	2.1818	5.e-002	-7.8425
12651	7.3761	2.4545	0.	-4172.1
12652	7.4685	2.3636	0.	-4136.5
12653	7.3761	2.3636	5.e-002	-8.0692
12654	7.3761	2.6364	0.	-4175.7
12655	7.4685	2.5455	0.	-4140.
12656	7.3761	2.5455	5.e-002	-8.2377
12657	7.3761	2.8182	0.	-4177.9
12658	7.4685	2.7273	0.	-4142.4
12659	7.3761	2.7273	5.e-002	-8.3492
12660	7.3761	3.	0.	-4178.6
12661	7.4685	2.9091	0.	-4143.6
12662	7.3761	2.9091	5.e-002	-8.4045
12663	7.3761	3.1818	0.	-4177.9
12664	7.4685	3.0909	0.	-4143.6
12665	7.3761	3.0909	5.e-002	-8.4045
12666	7.3761	3.3636	0.	-4175.7
12667	7.4685	3.2727	0.	-4142.4
12668	7.3761	3.2727	5.e-002	-8.3491
12669	7.3761	3.5455	0.	-4172.1
12670	7.4685	3.4545	0.	-4140.
12671	7.3761	3.4545	5.e-002	-8.2378
12672	7.3761	3.7273	0.	-4167.2
12673	7.4685	3.6364	0.	-4136.5
12674	7.3761	3.6364	5.e-002	-8.0693
12675	7.3761	3.9091	0.	-4161.2
12676	7.4685	3.8182	0.	-4131.9
12677	7.3761	3.8182	5.e-002	-7.8426
12678	7.3761	4.0909	0.	-4154.1
12679	7.4685	4.	0.	-4126.5
12680	7.3761	4.	5.e-002	-7.5574
12681	7.3761	4.2727	0.	-4146.3
12682	7.4685	4.1818	0.	-4120.2
12683	7.3761	4.1818	5.e-002	-7.215
12684	7.3761	4.4545	0.	-4138.
12685	7.4685	4.3636	0.	-4113.5
12686	7.3761	4.3636	5.e-002	-6.8189
12687	7.3761	4.6364	0.	-4129.4
12688	7.4685	4.5455	0.	-4106.3
12689	7.3761	4.5455	5.e-002	-6.3761
12690	7.3761	4.8182	0.	-4120.8
12691	7.4685	4.7273	0.	-4099.1
12692	7.3761	4.7273	5.e-002	-5.8976
12693	7.3761	5.	0.	-4112.5
12694	7.4685	4.9091	0.	-4092.
12695	7.3761	4.9091	5.e-002	-5.3989
12696	7.3761	5.1818	0.	-4104.9
12697	7.4685	5.0909	0.	-4085.3
12698	7.3761	5.0909	5.e-002	-4.9012
12699	7.3761	5.3636	0.	-4098.3
12700	7.4685	5.2727	0.	-4079.4
12701	7.3761	5.2727	5.e-002	-4.4307
12702	7.3761	5.5455	0.	-4093.1
12703	7.4685	5.4545	0.	-4074.5
12704	7.3761	5.4545	5.e-002	-4.0096
12705	7.3761	5.7273	0.	-4089.7
12706	7.4685	5.6364	0.	-4071.
12707	7.3761	5.6364	5.e-002	-3.4978
12708	7.4685	5.8182	0.	-4069.5
12709	7.3761	5.8182	5.e-002	-0.48361
12710	7.3761	5.9091	0.	-4086.8
12711	7.5609	0.27273	0.	-4050.8
12712	7.6532	0.18182	0.	-4029.4
12713	7.5609	0.18182	5.e-002	-0.77613
12714	7.5609	9.0909e-002	0.	-4049.
12715	7.5609	0.45455	0.	-4052.4
12716	7.6532	0.36364	0.	-4029.6
12717	7.5609	0.36364	5.e-002	-3.9145
12718	7.5609	0.63636	0.	-4055.6
12719	7.6532	0.54545	0.	-4031.5
12720	7.5609	0.54545	5.e-002	-4.3544
12721	7.5609	0.81818	0.	-4059.9
12722	7.6532	0.72727	0.	-4034.4
12723	7.5609	0.72727	5.e-002	-4.6794
12724	7.5609	1.	0.	-4064.8
12725	7.6532	0.90909	0.	-4038.1
12726	7.5609	0.90909	5.e-002	-5.0433
12727	7.5609	1.1818	0.	-4070.3
12728	7.6532	1.0909	0.	-4042.4
12729	7.5609	1.0909	5.e-002	-5.4331
12730	7.5609	1.3636	0.	-4076.
12731	7.6532	1.2727	0.	-4046.9
12732	7.5609	1.2727	5.e-002	-5.828
12733	7.5609	1.5455	0.	-4081.8
12734	7.6532	1.4545	0.	-4051.6
12735	7.5609	1.4545	5.e-002	-6.2103
12736	7.5609	1.7273	0.	-4087.4
12737	7.6532	1.6364	0.	-4056.3
12738	7.5609	1.6364	5.e-002	-6.5665
12739	7.5609	1.9091	0.	-4092.6
12740	7.6532	1.8182	0.	-4060.7
12741	7.5609	1.8182	5.e-002	-6.8865
12742	7.5609	2.0909	0.	-4097.2
12743	7.6532	2.	0.	-4064.7
12744	7.5609	2.	5.e-002	-7.1642
12745	7.5609	2.2727	0.	-4101.2
12746	7.6532	2.1818	0.	-4068.2
12747	7.5609	2.1818	5.e-002	-7.3959
12748	7.5609	2.4545	0.	-4104.4
12749	7.6532	2.3636	0.	-4071.2
12750	7.5609	2.3636	5.e-002	-7.5802
12751	7.5609	2.6364	0.	-4106.8
12752	7.6532	2.5455	0.	-4073.4
12753	7.5609	2.5455	5.e-002	-7.7173
12754	7.5609	2.8182	0.	-4108.2
12755	7.6532	2.7273	0.	-4075.
12756	7.5609	2.7273	5.e-002	-7.8079
12757	7.5609	3.	0.	-4108.7
12758	7.6532	2.9091	0.	-4075.7
12759	7.5609	2.9091	5.e-002	-7.8529
12760	7.5609	3.1818	0.	-4108.2
12761	7.6532	3.0909	0.	-4075.7
12762	7.5609	3.0909	5.e-002	-7.8529
12763	7.5609	3.3636	0.	-4106.8
12764	7.6532	3.2727	0.	-4075.
12765	7.5609	3.2727	5.e-002	-7.8079
12766	7.5609	3.5455	0.	-4104.4
12767	7.6532	3.4545	0.	-4073.4
12768	7.5609	3.4545	5.e-002	-7.7174
12769	7.5609	3.7273	0.	-4101.2
12770	7.6532	3.6364	0.	-4071.2
12771	7.5609	3.6364	5.e-002	-7.5803
12772	7.5609	3.9091	0.	-4097.2
12773	7.6532	3.8182	0.	-4068.2
12774	7.5609	3.8182	5.e-002	-7.396
12775	7.5609	4.0909	0.	-4092.6
12776	7.6532	4.	0.	-4064.7
12777	7.5609	4.	5.e-002	-7.1643
12778	7.5609	4.2727	0.	-4087.4
12779	7.6532	4.1818	0.	-4060.7
12780	7.5609	4.1818	5.e-002	-6.8867
12781	7.5609	4.4545	0.	-4081.8
12782	7.6532	4.3636	0.	-4056.3
12783	7.5609	4.3636	5.e-002	-6.5666
12784	7.5609	4.6364	0.	-4076.
12785	7.6532	4.5455	0.	-4051.6
12786	7.5609	4.5455	5.e-002	-6.2106
12787	7.5609	4.8182	0.	-4070.3
12788	7.6532	4.7273	0.	-4046.9
12789	7.5609	4.7273	5.e-002	-5.8283
12790	7.5609	5.	0.	-4064.8
12791	7.6532	4.9091	0.	-4042.4
12792	7.5609	4.9091	5.e-002	-5.4334
12793	7.5609	5.1818	0.	-4059.9
12794	7.6532	5.0909	0.	-4038.1
12795	7.5609	5.0909	5.e-002	-5.0436
12796	7.5609	5.3636	0.	-4055.6
12797	7.6532	5.2727	0.	-4034.4
12798	7.5609	5.2727	5.e-002	-4.6797
12799	7.5609	5.5455	0.	-4052.4
12800	7.6532	5.4545	0.	-4031.5
12801	7.5609	5.4545	5.e-002	-4.3548
12802	7.5609	5.7273	0.	-4050.8
12803	7.6532	5.6364	0.	-4029.6
12804	7.5609	5.6364	5.e-002	-3.9148
12805	7.6532	5.8182	0.	-4029.4
12806	7.5609	5.8182	5.e-002	-0.77635
12807	7.5609	5.9091	0.	-4049.
12808	7.7456	0.27273	0.	-4008.2
12809	7.8379	0.18182	0.	-3986.
12810	7.7456	0.18182	5.e-002	-1.0479
12811	7.7456	9.0909e-002	0.	-4007.3
12812	7.7456	0.45455	0.	-4008.6
12813	7.8379	0.36364	0.	-3985.1
12814	7.7456	0.36364	5.e-002	-4.2363
12815	7.7456	0.63636	0.	-4010.2
12816	7.8379	0.54545	0.	-3985.8
12817	7.7456	0.54545	5.e-002	-4.6253
12818	7.7456	0.81818	0.	-4012.6
12819	7.8379	0.72727	0.	-3987.2
12820	7.7456	0.72727	5.e-002	-4.8787
12821	7.7456	1.	0.	-4015.6
12822	7.8379	0.90909	0.	-3989.2
12823	7.7456	0.90909	5.e-002	-5.1609
12824	7.7456	1.1818	0.	-4019.
12825	7.8379	1.0909	0.	-3991.6
12826	7.7456	1.0909	5.e-002	-5.4655
12827	7.7456	1.3636	0.	-4022.5
12828	7.8379	1.2727	0.	-3994.3
12829	7.7456	1.2727	5.e-002	-5.7769
12830	7.7456	1.5455	0.	-4026.1
12831	7.8379	1.4545	0.	-3997.1
12832	7.7456	1.4545	5.e-002	-6.0808
12833	7.7456	1.7273	0.	-4029.6
12834	7.8379	1.6364	0.	-3999.9
12835	7.7456	1.6364	5.e-002	-6.3656
12836	7.7456	1.9091	0.	-4032.8
12837	7.8379	1.8182	0.	-4002.5
12838	7.7456	1.8182	5.e-002	-6.6231
12839	7.7456	2.0909	0.	-4035.7
12840	7.8379	2.	0.	-4004.9
12841	7.7456	2.	5.e-002	-6.8473
12842	7.7456	2.2727	0.	-4038.2
12843	7.8379	2.1818	0.	-4007.
12844	7.7456	2.1818	5.e-002	-7.0351
12845	7.7456	2.4545	0.	-4040.2
12846	7.8379	2.3636	0.	-4008.7
12847	7.7456	2.3636	5.e-002	-7.1848
12848	7.7456	2.6364	0.	-4041.6
12849	7.8379	2.5455	0.	-4010.1
12850	7.7456	2.5455	5.e-002	-7.2964
12851	7.7456	2.8182	0.	-4042.5
12852	7.8379	2.7273	0.	-4011.
12853	7.7456	2.7273	5.e-002	-7.3701
12854	7.7456	3.	0.	-4042.8
12855	7.8379	2.9091	0.	-4011.4
12856	7.7456	2.9091	5.e-002	-7.4068
12857	7.7456	3.1818	0.	-4042.5
12858	7.8379	3.0909	0.	-4011.4
12859	7.7456	3.0909	5.e-002	-7.4068
12860	7.7456	3.3636	0.	-4041.6
12861	7.8379	3.2727	0.	-4011.
12862	7.7456	3.2727	5.e-002	-7.3702
12863	7.7456	3.5455	0.	-4040.2
12864	7.8379	3.4545	0.	-4010.1
12865	7.7456	3.4545	5.e-002	-7.2964
12866	7.7456	3.7273	0.	-4038.2
12867	7.8379	3.6364	0.	-4008.7
12868	7.7456	3.6364	5.e-002	-7.1849
12869	7.7456	3.9091	0.	-4035.7
12870	7.8379	3.8182	0.	-4007.
12871	7.7456	3.8182	5.e-002	-7.0352
12872	7.7456	4.0909	0.	-4032.8
12873	7.8379	4.	0.	-4004.9
12874	7.7456	4.	5.e-002	-6.8475
12875	7.7456	4.2727	0.	-4029.6
12876	7.8379	4.1818	0.	-4002.5
12877	7.7456	4.1818	5.e-002	-6.6232
12878	7.7456	4.4545	0.	-4026.1
12879	7.8379	4.3636	0.	-3999.9
12880	7.7456	4.3636	5.e-002	-6.3658
12881	7.7456	4.6364	0.	-4022.5
12882	7.8379	4.5455	0.	-3997.1
12883	7.7456	4.5455	5.e-002	-6.081
12884	7.7456	4.8182	0.	-4019.
12885	7.8379	4.7273	0.	-3994.3
12886	7.7456	4.7273	5.e-002	-5.7771
12887	7.7456	5.	0.	-4015.6
12888	7.8379	4.9091	0.	-3991.6
12889	7.7456	4.9091	5.e-002	-5.4658
12890	7.7456	5.1818	0.	-4012.6
12891	7.8379	5.0909	0.	-3989.2
12892	7.7456	5.0909	5.e-002	-5.1611
12893	7.7456	5.3636	0.	-4010.2
12894	7.8379	5.2727	0.	-3987.2
12895	7.7456	5.2727	5.e-002	-4.879
12896	7.7456	5.5455	0.	-4008.6
12897	7.8379	5.4545	0.	-3985.8
12898	7.7456	5.4545	5.e-002	-4.6257
12899	7.7456	5.7273	0.	-4008.2
12900	7.8379	5.6364	0.	-3985.1
12901	7.7456	5.6364	5.e-002	-4.2367
12902	7.8379	5.8182	0.	-3986.
12903	7.7456	5.8182	5.e-002	-1.0482
12904	7.7456	5.9091	0.	-4007.3
12905	7.9303	0.27273	0.	-3962.9
12906	8.0226	0.18182	0.	-3940.1
12907	7.9303	0.18182	5.e-002	-1.2426
12908	7.9303	9.0909e-002	0.	-3962.6
12909	7.9303	0.45455	0.	-3962.3
12910	8.0226	0.36364	0.	-3938.4
12911	7.9303	0.36364	5.e-002	-4.4813
12912	7.9303	0.63636	0.	-3962.7
12913	8.0226	0.54545	0.	-3938.1
12914	7.9303	0.54545	5.e-002	-4.8339
12915	7.9303	0.81818	0.	-3963.7
12916	8.0226	0.72727	0.	-3938.3
12917	7.9303	0.72727	5.e-002	-5.0335
12918	7.9303	1.	0.	-3965.2
12919	8.0226	0.90909	0.	-3939.1
12920	7.9303	0.90909	5.e-002	-5.2529
12921	7.9303	1.1818	0.	-3967.
12922	8.0226	1.0909	0.	-3940.1
12923	7.9303	1.0909	5.e-002	-5.4911
12924	7.9303	1.3636	0.	-3968.9
12925	8.0226	1.2727	0.	-3941.4
12926	7.9303	1.2727	5.e-002	-5.7361
12927	7.9303	1.5455	0.	-3970.9
12928	8.0226	1.4545	0.	-3942.8
12929	7.9303	1.4545	5.e-002	-5.9768
12930	7.9303	1.7273	0.	-3972.8
12931	8.0226	1.6364	0.	-3944.1
12932	7.9303	1.6364	5.e-002	-6.2039
12933	7.9303	1.9091	0.	-3974.6
12934	8.0226	1.8182	0.	-3945.4
12935	7.9303	1.8182	5.e-002	-6.4102
12936	7.9303	2.0909	0.	-3976.2
12937	8.0226	2.	0.	-3946.6
12938	7.9303	2.	5.e-002	-6.5907
12939	7.9303	2.2727	0.	-3977.5
12940	8.0226	2.1818	0.	-3947.7
12941	7.9303	2.1818	5.e-002	-6.7424
12942	7.9303	2.4545	0.	-3978.6
12943	8.0226	2.3636	0.	-3948.6
12944	7.9303	2.3636	5.e-002	-6.8639
12945	7.9303	2.6364	0.	-3979.4
12946	8.0226	2.5455	0.	-3949.2
12947	7.9303	2.5455	5.e-002	-6.9545
12948	7.9303	2.8182	0.	-3979.9
12949	8.0226	2.7273	0.	-3949.7
12950	7.9303	2.7273	5.e-002	-7.0146
12951	7.9303	3.	0.	-3980.
12952	8.0226	2.9091	0.	-3949.9
12953	7.9303	2.9091	5.e-002	-7.0445
12954	7.9303	3.1818	0.	-3979.9
12955	8.0226	3.0909	0.	-3949.9
12956	7.9303	3.0909	5.e-002	-7.0445
12957	7.9303	3.3636	0.	-3979.4
12958	8.0226	3.2727	0.	-3949.7
12959	7.9303	3.2727	5.e-002	-7.0146
12960	7.9303	3.5455	0.	-3978.6
12961	8.0226	3.4545	0.	-3949.2
12962	7.9303	3.4545	5.e-002	-6.9546
12963	7.9303	3.7273	0.	-3977.5
12964	8.0226	3.6364	0.	-3948.6
12965	7.9303	3.6364	5.e-002	-6.864
12966	7.9303	3.9091	0.	-3976.2
12967	8.0226	3.8182	0.	-3947.7
12968	7.9303	3.8182	5.e-002	-6.7425
12969	7.9303	4.0909	0.	-3974.6
12970	8.0226	4.	0.	-3946.6
12971	7.9303	4.	5.e-002	-6.5908
12972	7.9303	4.2727	0.	-3972.8
12973	8.0226	4.1818	0.	-3945.4
12974	7.9303	4.1818	5.e-002	-6.4103
12975	7.9303	4.4545	0.	-3970.9
12976	8.0226	4.3636	0.	-3944.1
12977	7.9303	4.3636	5.e-002	-6.2041
12978	7.9303	4.6364	0.	-3968.9
12979	8.0226	4.5455	0.	-3942.8
12980	7.9303	4.5455	5.e-002	-5.977
12981	7.9303	4.8182	0.	-3967.
12982	8.0226	4.7273	0.	-3941.4
12983	7.9303	4.7273	5.e-002	-5.7363
12984	7.9303	5.	0.	-3965.2
12985	8.0226	4.9091	0.	-3940.1
12986	7.9303	4.9091	5.e-002	-5.4913
12987	7.9303	5.1818	0.	-3963.7
12988	8.0226	5.0909	0.	-3939.1
12989	7.9303	5.0909	5.e-002	-5.2532
12990	7.9303	5.3636	0.	-3962.7
12991	8.0226	5.2727	0.	-3938.3
12992	7.9303	5.2727	5.e-002	-5.0338
12993	7.9303	5.5455	0.	-3962.3
12994	8.0226	5.4545	0.	-3938.1
12995	7.9303	5.4545	5.e-002	-4.8342
12996	7.9303	5.7273	0.	-3962.9
12997	8.0226	5.6364	0.	-3938.4
12998	7.9303	5.6364	5.e-002	-4.4817
12999	8.0226	5.8182	0.	-3940.1
13000	7.9303	5.8182	5.e-002	-1.243
13001	7.9303	5.9091	0.	-3962.6
13002	8.115	0.27273	0.	-3915.5
13003	8.2073	0.18182	0.	-3892.2
13004	8.115	0.18182	5.e-002	-1.3671
13005	8.115	9.0909e-002	0.	-3915.7
13006	8.115	0.45455	0.	-3914.1
13007	8.2073	0.36364	0.	-3889.9
13008	8.115	0.36364	5.e-002	-4.6649
13009	8.115	0.63636	0.	-3913.7
13010	8.2073	0.54545	0.	-3888.9
13011	8.115	0.54545	5.e-002	-4.9915
13012	8.115	0.81818	0.	-3913.6
13013	8.2073	0.72727	0.	-3888.3
13014	8.115	0.72727	5.e-002	-5.1504
13015	8.115	1.	0.	-3914.
13016	8.2073	0.90909	0.	-3888.
13017	8.115	0.90909	5.e-002	-5.3217
13018	8.115	1.1818	0.	-3914.5
13019	8.2073	1.0909	0.	-3888.1
13020	8.115	1.0909	5.e-002	-5.5081
13021	8.115	1.3636	0.	-3915.2
13022	8.2073	1.2727	0.	-3888.3
13023	8.115	1.2727	5.e-002	-5.7007
13024	8.115	1.5455	0.	-3916.
13025	8.2073	1.4545	0.	-3888.6
13026	8.115	1.4545	5.e-002	-5.8911
13027	8.115	1.7273	0.	-3916.8
13028	8.2073	1.6364	0.	-3889.
13029	8.115	1.6364	5.e-002	-6.0716
13030	8.115	1.9091	0.	-3917.5
13031	8.2073	1.8182	0.	-3889.3
13032	8.115	1.8182	5.e-002	-6.2365
13033	8.115	2.0909	0.	-3918.2
13034	8.2073	2.	0.	-3889.7
13035	8.115	2.	5.e-002	-6.3814
13036	8.115	2.2727	0.	-3918.7
13037	8.2073	2.1818	0.	-3889.9
13038	8.115	2.1818	5.e-002	-6.5038
13039	8.115	2.4545	0.	-3919.2
13040	8.2073	2.3636	0.	-3890.2
13041	8.115	2.3636	5.e-002	-6.602
13042	8.115	2.6364	0.	-3919.5
13043	8.2073	2.5455	0.	-3890.3
13044	8.115	2.5455	5.e-002	-6.6756
13045	8.115	2.8182	0.	-3919.7
13046	8.2073	2.7273	0.	-3890.5
13047	8.115	2.7273	5.e-002	-6.7245
13048	8.115	3.	0.	-3919.7
13049	8.2073	2.9091	0.	-3890.5
13050	8.115	2.9091	5.e-002	-6.7489
13051	8.115	3.1818	0.	-3919.7
13052	8.2073	3.0909	0.	-3890.5
13053	8.115	3.0909	5.e-002	-6.7489
13054	8.115	3.3636	0.	-3919.5
13055	8.2073	3.2727	0.	-3890.5
13056	8.115	3.2727	5.e-002	-6.7245
13057	8.115	3.5455	0.	-3919.2
13058	8.2073	3.4545	0.	-3890.3
13059	8.115	3.4545	5.e-002	-6.6757
13060	8.115	3.7273	0.	-3918.7
13061	8.2073	3.6364	0.	-3890.2
13062	8.115	3.6364	5.e-002	-6.6021
13063	8.115	3.9091	0.	-3918.2
13064	8.2073	3.8182	0.	-3889.9
13065	8.115	3.8182	5.e-002	-6.5039
13066	8.115	4.0909	0.	-3917.5
13067	8.2073	4.	0.	-3889.7
13068	8.115	4.	5.e-002	-6.3816
13069	8.115	4.2727	0.	-3916.8
13070	8.2073	4.1818	0.	-3889.3
13071	8.115	4.1818	5.e-002	-6.2366
13072	8.115	4.4545	0.	-3916.
13073	8.2073	4.3636	0.	-3889.
13074	8.115	4.3636	5.e-002	-6.0718
13075	8.115	4.6364	0.	-3915.2
13076	8.2073	4.5455	0.	-3888.6
13077	8.115	4.5455	5.e-002	-5.8913
13078	8.115	4.8182	0.	-3914.5
13079	8.2073	4.7273	0.	-3888.3
13080	8.115	4.7273	5.e-002	-5.701
13081	8.115	5.	0.	-3914.
13082	8.2073	4.9091	0.	-3888.1
13083	8.115	4.9091	5.e-002	-5.5083
13084	8.115	5.1818	0.	-3913.6
13085	8.2073	5.0909	0.	-3888.
13086	8.115	5.0909	5.e-002	-5.322
13087	8.115	5.3636	0.	-3913.7
13088	8.2073	5.2727	0.	-3888.3
13089	8.115	5.2727	5.e-002	-5.1506
13090	8.115	5.5455	0.	-3914.2
13091	8.2073	5.4545	0.	-3888.9
13092	8.115	5.4545	5.e-002	-4.9918
13093	8.115	5.7273	0.	-3915.5
13094	8.2073	5.6364	0.	-3889.9
13095	8.115	5.6364	5.e-002	-4.6652
13096	8.2073	5.8182	0.	-3892.2
13097	8.115	5.8182	5.e-002	-1.3674
13098	8.115	5.9091	0.	-3915.7
13099	8.2997	0.27273	0.	-3866.6
13100	8.392	0.18182	0.	-3842.9
13101	8.2997	0.18182	5.e-002	-1.4347
13102	8.2997	9.0909e-002	0.	-3867.
13103	8.2997	0.45455	0.	-3864.6
13104	8.392	0.36364	0.	-3840.2
13105	8.2997	0.36364	5.e-002	-4.7998
13106	8.2997	0.63636	0.	-3863.4
13107	8.392	0.54545	0.	-3838.6
13108	8.2997	0.54545	5.e-002	-5.1081
13109	8.2997	0.81818	0.	-3862.7
13110	8.392	0.72727	0.	-3837.3
13111	8.2997	0.72727	5.e-002	-5.236
13112	8.2997	1.	0.	-3862.1
13113	8.392	0.90909	0.	-3836.4
13114	8.2997	0.90909	5.e-002	-5.3702
13115	8.2997	1.1818	0.	-3861.8
13116	8.392	1.0909	0.	-3835.7
13117	8.2997	1.0909	5.e-002	-5.5164
13118	8.2997	1.3636	0.	-3861.7
13119	8.392	1.2727	0.	-3835.1
13120	8.2997	1.2727	5.e-002	-5.668
13121	8.2997	1.5455	0.	-3861.6
13122	8.392	1.4545	0.	-3834.7
13123	8.2997	1.4545	5.e-002	-5.8184
13124	8.2997	1.7273	0.	-3861.5
13125	8.392	1.6364	0.	-3834.3
13126	8.2997	1.6364	5.e-002	-5.9617
13127	8.2997	1.9091	0.	-3861.5
13128	8.392	1.8182	0.	-3834.
13129	8.2997	1.8182	5.e-002	-6.0931
13130	8.2997	2.0909	0.	-3861.4
13131	8.392	2.	0.	-3833.7
13132	8.2997	2.	5.e-002	-6.2093
13133	8.2997	2.2727	0.	-3861.4
13134	8.392	2.1818	0.	-3833.4
13135	8.2997	2.1818	5.e-002	-6.3078
13136	8.2997	2.4545	0.	-3861.4
13137	8.392	2.3636	0.	-3833.2
13138	8.2997	2.3636	5.e-002	-6.3871
13139	8.2997	2.6364	0.	-3861.3
13140	8.392	2.5455	0.	-3833.
13141	8.2997	2.5455	5.e-002	-6.4468
13142	8.2997	2.8182	0.	-3861.3
13143	8.392	2.7273	0.	-3832.9
13144	8.2997	2.7273	5.e-002	-6.4865
13145	8.2997	3.	0.	-3861.3
13146	8.392	2.9091	0.	-3832.9
13147	8.2997	2.9091	5.e-002	-6.5063
13148	8.2997	3.1818	0.	-3861.3
13149	8.392	3.0909	0.	-3832.9
13150	8.2997	3.0909	5.e-002	-6.5063
13151	8.2997	3.3636	0.	-3861.3
13152	8.392	3.2727	0.	-3832.9
13153	8.2997	3.2727	5.e-002	-6.4865
13154	8.2997	3.5455	0.	-3861.4
13155	8.392	3.4545	0.	-3833.
13156	8.2997	3.4545	5.e-002	-6.4468
13157	8.2997	3.7273	0.	-3861.4
13158	8.392	3.6364	0.	-3833.2
13159	8.2997	3.6364	5.e-002	-6.3872
13160	8.2997	3.9091	0.	-3861.4
13161	8.392	3.8182	0.	-3833.4
13162	8.2997	3.8182	5.e-002	-6.3079
13163	8.2997	4.0909	0.	-3861.5
13164	8.392	4.	0.	-3833.7
13165	8.2997	4.	5.e-002	-6.2095
13166	8.2997	4.2727	0.	-3861.5
13167	8.392	4.1818	0.	-3834.
13168	8.2997	4.1818	5.e-002	-6.0934
13169	8.2997	4.4545	0.	-3861.6
13170	8.392	4.3636	0.	-3834.3
13171	8.2997	4.3636	5.e-002	-5.9619
13172	8.2997	4.6364	0.	-3861.7
13173	8.392	4.5455	0.	-3834.7
13174	8.2997	4.5455	5.e-002	-5.8186
13175	8.2997	4.8182	0.	-3861.8
13176	8.392	4.7273	0.	-3835.1
13177	8.2997	4.7273	5.e-002	-5.6682
13178	8.2997	5.	0.	-3862.1
13179	8.392	4.9091	0.	-3835.7
13180	8.2997	4.9091	5.e-002	-5.5167
13181	8.2997	5.1818	0.	-3862.7
13182	8.392	5.0909	0.	-3836.4
13183	8.2997	5.0909	5.e-002	-5.3705
13184	8.2997	5.3636	0.	-3863.4
13185	8.392	5.2727	0.	-3837.3
13186	8.2997	5.2727	5.e-002	-5.2362
13187	8.2997	5.5455	0.	-3864.6
13188	8.392	5.4545	0.	-3838.6
13189	8.2997	5.4545	5.e-002	-5.1084
13190	8.2997	5.7273	0.	-3866.6
13191	8.392	5.6364	0.	-3840.2
13192	8.2997	5.6364	5.e-002	-4.8002
13193	8.392	5.8182	0.	-3842.9
13194	8.2997	5.8182	5.e-002	-1.435
13195	8.2997	5.9091	0.	-3867.
13196	8.4844	0.27273	0.	-3816.4
13197	8.5768	0.18182	0.	-3792.5
13198	8.4844	0.18182	5.e-002	-1.4581
13199	8.4844	9.0909e-002	0.	-3817.
13200	8.4844	0.45455	0.	-3814.1
13201	8.5768	0.36364	0.	-3789.5
13202	8.4844	0.36364	5.e-002	-4.8964
13203	8.4844	0.63636	0.	-3812.4
13204	8.5768	0.54545	0.	-3787.5
13205	8.4844	0.54545	5.e-002	-5.192
13206	8.4844	0.81818	0.	-3811.1
13207	8.5768	0.72727	0.	-3785.8
13208	8.4844	0.72727	5.e-002	-5.2961
13209	8.4844	1.	0.	-3809.9
13210	8.5768	0.90909	0.	-3784.3
13211	8.4844	0.90909	5.e-002	-5.4019
13212	8.4844	1.1818	0.	-3809.
13213	8.5768	1.0909	0.	-3783.1
13214	8.4844	1.0909	5.e-002	-5.5168
13215	8.4844	1.3636	0.	-3808.2
13216	8.5768	1.2727	0.	-3782.
13217	8.4844	1.2727	5.e-002	-5.6362
13218	8.4844	1.5455	0.	-3807.4
13219	8.5768	1.4545	0.	-3781.
13220	8.4844	1.4545	5.e-002	-5.755
13221	8.4844	1.7273	0.	-3806.8
13222	8.5768	1.6364	0.	-3780.1
13223	8.4844	1.6364	5.e-002	-5.8688
13224	8.4844	1.9091	0.	-3806.2
13225	8.5768	1.8182	0.	-3779.3
13226	8.4844	1.8182	5.e-002	-5.9735
13227	8.4844	2.0909	0.	-3805.7
13228	8.5768	2.	0.	-3778.5
13229	8.4844	2.	5.e-002	-6.0664
13230	8.4844	2.2727	0.	-3805.2
13231	8.5768	2.1818	0.	-3777.9
13232	8.4844	2.1818	5.e-002	-6.1455
13233	8.4844	2.4545	0.	-3804.9
13234	8.5768	2.3636	0.	-3777.4
13235	8.4844	2.3636	5.e-002	-6.2095
13236	8.4844	2.6364	0.	-3804.6
13237	8.5768	2.5455	0.	-3777.
13238	8.4844	2.5455	5.e-002	-6.2577
13239	8.4844	2.8182	0.	-3804.5
13240	8.5768	2.7273	0.	-3776.7
13241	8.4844	2.7273	5.e-002	-6.2899
13242	8.4844	3.	0.	-3804.4
13243	8.5768	2.9091	0.	-3776.5
13244	8.4844	2.9091	5.e-002	-6.306
13245	8.4844	3.1818	0.	-3804.5
13246	8.5768	3.0909	0.	-3776.5
13247	8.4844	3.0909	5.e-002	-6.306
13248	8.4844	3.3636	0.	-3804.6
13249	8.5768	3.2727	0.	-3776.7
13250	8.4844	3.2727	5.e-002	-6.2899
13251	8.4844	3.5455	0.	-3804.9
13252	8.5768	3.4545	0.	-3777.
13253	8.4844	3.4545	5.e-002	-6.2578
13254	8.4844	3.7273	0.	-3805.2
13255	8.5768	3.6364	0.	-3777.4
13256	8.4844	3.6364	5.e-002	-6.2096
13257	8.4844	3.9091	0.	-3805.7
13258	8.5768	3.8182	0.	-3777.9
13259	8.4844	3.8182	5.e-002	-6.1456
13260	8.4844	4.0909	0.	-3806.2
13261	8.5768	4.	0.	-3778.5
13262	8.4844	4.	5.e-002	-6.0665
13263	8.4844	4.2727	0.	-3806.8
13264	8.5768	4.1818	0.	-3779.3
13265	8.4844	4.1818	5.e-002	-5.9737
13266	8.4844	4.4545	0.	-3807.4
13267	8.5768	4.3636	0.	-3780.1
13268	8.4844	4.3636	5.e-002	-5.8689
13269	8.4844	4.6364	0.	-3808.2
13270	8.5768	4.5455	0.	-3781.
13271	8.4844	4.5455	5.e-002	-5.7553
13272	8.4844	4.8182	0.	-3809.
13273	8.5768	4.7273	0.	-3782.
13274	8.4844	4.7273	5.e-002	-5.6364
13275	8.4844	5.	0.	-3809.9
13276	8.5768	4.9091	0.	-3783.1
13277	8.4844	4.9091	5.e-002	-5.517
13278	8.4844	5.1818	0.	-3811.1
13279	8.5768	5.0909	0.	-3784.3
13280	8.4844	5.0909	5.e-002	-5.4022
13281	8.4844	5.3636	0.	-3812.4
13282	8.5768	5.2727	0.	-3785.8
13283	8.4844	5.2727	5.e-002	-5.2964
13284	8.4844	5.5455	0.	-3814.1
13285	8.5768	5.4545	0.	-3787.5
13286	8.4844	5.4545	5.e-002	-5.1923
13287	8.4844	5.7273	0.	-3816.4
13288	8.5768	5.6364	0.	-3789.5
13289	8.4844	5.6364	5.e-002	-4.8968
13290	8.5768	5.8182	0.	-3792.5
13291	8.4844	5.8182	5.e-002	-1.4584
13292	8.4844	5.9091	0.	-3817.
13293	8.6691	0.27273	0.	-3765.5
13294	8.7615	0.18182	0.	-3741.3
13295	8.6691	0.18182	5.e-002	-1.4477
13296	8.6691	9.0909e-002	0.	-3766.2
13297	8.6691	0.45455	0.	-3762.8
13298	8.7615	0.36364	0.	-3738.1
13299	8.6691	0.36364	5.e-002	-4.963
13300	8.6691	0.63636	0.	-3760.8
13301	8.7615	0.54545	0.	-3735.8
13302	8.6691	0.54545	5.e-002	-5.2501
13303	8.6691	0.81818	0.	-3759.
13304	8.7615	0.72727	0.	-3733.8
13305	8.6691	0.72727	5.e-002	-5.336
13306	8.6691	1.	0.	-3757.5
13307	8.7615	0.90909	0.	-3732.
13308	8.6691	0.90909	5.e-002	-5.4197
13309	8.6691	1.1818	0.	-3756.1
13310	8.7615	1.0909	0.	-3730.4
13311	8.6691	1.0909	5.e-002	-5.5102
13312	8.6691	1.3636	0.	-3754.8
13313	8.7615	1.2727	0.	-3728.9
13314	8.6691	1.2727	5.e-002	-5.6045
13315	8.6691	1.5455	0.	-3753.6
13316	8.7615	1.4545	0.	-3727.5
13317	8.6691	1.4545	5.e-002	-5.6985
13318	8.6691	1.7273	0.	-3752.6
13319	8.7615	1.6364	0.	-3726.3
13320	8.6691	1.6364	5.e-002	-5.7887
13321	8.6691	1.9091	0.	-3751.6
13322	8.7615	1.8182	0.	-3725.1
13323	8.6691	1.8182	5.e-002	-5.8722
13324	8.6691	2.0909	0.	-3750.8
13325	8.7615	2.	0.	-3724.1
13326	8.6691	2.	5.e-002	-5.9464
13327	8.6691	2.2727	0.	-3750.
13328	8.7615	2.1818	0.	-3723.2
13329	8.6691	2.1818	5.e-002	-6.0099
13330	8.6691	2.4545	0.	-3749.4
13331	8.7615	2.3636	0.	-3722.4
13332	8.6691	2.3636	5.e-002	-6.0614
13333	8.6691	2.6364	0.	-3749.
13334	8.7615	2.5455	0.	-3721.9
13335	8.6691	2.5455	5.e-002	-6.1003
13336	8.6691	2.8182	0.	-3748.8
13337	8.7615	2.7273	0.	-3721.5
13338	8.6691	2.7273	5.e-002	-6.1264
13339	8.6691	3.	0.	-3748.7
13340	8.7615	2.9091	0.	-3721.3
13341	8.6691	2.9091	5.e-002	-6.1395
13342	8.6691	3.1818	0.	-3748.8
13343	8.7615	3.0909	0.	-3721.3
13344	8.6691	3.0909	5.e-002	-6.1395
13345	8.6691	3.3636	0.	-3749.
13346	8.7615	3.2727	0.	-3721.5
13347	8.6691	3.2727	5.e-002	-6.1265
13348	8.6691	3.5455	0.	-3749.4
13349	8.7615	3.4545	0.	-3721.9
13350	8.6691	3.4545	5.e-002	-6.1004
13351	8.6691	3.7273	0.	-3750.
13352	8.7615	3.6364	0.	-3722.4
13353	8.6691	3.6364	5.e-002	-6.0615
13354	8.6691	3.9091	0.	-3750.8
13355	8.7615	3.8182	0.	-3723.2
13356	8.6691	3.8182	5.e-002	-6.01
13357	8.6691	4.0909	0.	-3751.6
13358	8.7615	4.	0.	-3724.1
13359	8.6691	4.	5.e-002	-5.9466
13360	8.6691	4.2727	0.	-3752.6
13361	8.7615	4.1818	0.	-3725.1
13362	8.6691	4.1818	5.e-002	-5.8723
13363	8.6691	4.4545	0.	-3753.6
13364	8.7615	4.3636	0.	-3726.3
13365	8.6691	4.3636	5.e-002	-5.7889
13366	8.6691	4.6364	0.	-3754.8
13367	8.7615	4.5455	0.	-3727.5
13368	8.6691	4.5455	5.e-002	-5.6987
13369	8.6691	4.8182	0.	-3756.1
13370	8.7615	4.7273	0.	-3728.9
13371	8.6691	4.7273	5.e-002	-5.6047
13372	8.6691	5.	0.	-3757.5
13373	8.7615	4.9091	0.	-3730.4
13374	8.6691	4.9091	5.e-002	-5.5105
13375	8.6691	5.1818	0.	-3759.
13376	8.7615	5.0909	0.	-3732.
13377	8.6691	5.0909	5.e-002	-5.42
13378	8.6691	5.3636	0.	-3760.8
13379	8.7615	5.2727	0.	-3733.8
13380	8.6691	5.2727	5.e-002	-5.3363
13381	8.6691	5.5455	0.	-3762.8
13382	8.7615	5.4545	0.	-3735.8
13383	8.6691	5.4545	5.e-002	-5.2505
13384	8.6691	5.7273	0.	-3765.5
13385	8.7615	5.6364	0.	-3738.1
13386	8.6691	5.6364	5.e-002	-4.9634
13387	8.7615	5.8182	0.	-3741.3
13388	8.6691	5.8182	5.e-002	-1.448
13389	8.6691	5.9091	0.	-3766.2
13390	8.8538	0.27273	0.	-3713.9
13391	8.9462	0.18182	0.	-3689.7
13392	8.8538	0.18182	5.e-002	-1.4123
13393	8.8538	9.0909e-002	0.	-3714.6
13394	8.8538	0.45455	0.	-3711.
13395	8.9462	0.36364	0.	-3686.2
13396	8.8538	0.36364	5.e-002	-5.0062
13397	8.8538	0.63636	0.	-3708.8
13398	8.9462	0.54545	0.	-3683.8
13399	8.8538	0.54545	5.e-002	-5.288
13400	8.8538	0.81818	0.	-3706.8
13401	8.9462	0.72727	0.	-3681.6
13402	8.8538	0.72727	5.e-002	-5.3598
13403	8.8538	1.	0.	-3704.9
13404	8.9462	0.90909	0.	-3679.5
13405	8.8538	0.90909	5.e-002	-5.4264
13406	8.8538	1.1818	0.	-3703.2
13407	8.9462	1.0909	0.	-3677.6
13408	8.8538	1.0909	5.e-002	-5.498
13409	8.8538	1.3636	0.	-3701.6
13410	8.9462	1.2727	0.	-3675.9
13411	8.8538	1.2727	5.e-002	-5.5726
13412	8.8538	1.5455	0.	-3700.1
13413	8.9462	1.4545	0.	-3674.3
13414	8.8538	1.4545	5.e-002	-5.6471
13415	8.8538	1.7273	0.	-3698.8
13416	8.9462	1.6364	0.	-3672.8
13417	8.8538	1.6364	5.e-002	-5.7188
13418	8.8538	1.9091	0.	-3697.6
13419	8.9462	1.8182	0.	-3671.4
13420	8.8538	1.8182	5.e-002	-5.7852
13421	8.8538	2.0909	0.	-3696.5
13422	8.9462	2.	0.	-3670.2
13423	8.8538	2.	5.e-002	-5.8445
13424	8.8538	2.2727	0.	-3695.6
13425	8.9462	2.1818	0.	-3669.1
13426	8.8538	2.1818	5.e-002	-5.8954
13427	8.8538	2.4545	0.	-3694.9
13428	8.9462	2.3636	0.	-3668.2
13429	8.8538	2.3636	5.e-002	-5.9369
13430	8.8538	2.6364	0.	-3694.3
13431	8.9462	2.5455	0.	-3667.6
13432	8.8538	2.5455	5.e-002	-5.9683
13433	8.8538	2.8182	0.	-3694.
13434	8.9462	2.7273	0.	-3667.1
13435	8.8538	2.7273	5.e-002	-5.9893
13436	8.8538	3.	0.	-3693.9
13437	8.9462	2.9091	0.	-3666.9
13438	8.8538	2.9091	5.e-002	-5.9999
13439	8.8538	3.1818	0.	-3694.
13440	8.9462	3.0909	0.	-3666.9
13441	8.8538	3.0909	5.e-002	-5.9999
13442	8.8538	3.3636	0.	-3694.3
13443	8.9462	3.2727	0.	-3667.1
13444	8.8538	3.2727	5.e-002	-5.9894
13445	8.8538	3.5455	0.	-3694.9
13446	8.9462	3.4545	0.	-3667.6
13447	8.8538	3.4545	5.e-002	-5.9683
13448	8.8538	3.7273	0.	-3695.6
13449	8.9462	3.6364	0.	-3668.2
13450	8.8538	3.6364	5.e-002	-5.9369
13451	8.8538	3.9091	0.	-3696.5
13452	8.9462	3.8182	0.	-3669.1
13453	8.8538	3.8182	5.e-002	-5.8955
13454	8.8538	4.0909	0.	-3697.6
13455	8.9462	4.	0.	-3670.2
13456	8.8538	4.	5.e-002	-5.8447
13457	8.8538	4.2727	0.	-3698.8
13458	8.9462	4.1818	0.	-3671.4
13459	8.8538	4.1818	5.e-002	-5.7854
13460	8.8538	4.4545	0.	-3700.1
13461	8.9462	4.3636	0.	-3672.8
13462	8.8538	4.3636	5.e-002	-5.719
13463	8.8538	4.6364	0.	-3701.6
13464	8.9462	4.5455	0.	-3674.3
13465	8.8538	4.5455	5.e-002	-5.6473
13466	8.8538	4.8182	0.	-3703.2
13467	8.9462	4.7273	0.	-3675.9
13468	8.8538	4.7273	5.e-002	-5.5729
13469	8.8538	5.	0.	-3704.9
13470	8.9462	4.9091	0.	-3677.6
13471	8.8538	4.9091	5.e-002	-5.4983
13472	8.8538	5.1818	0.	-3706.8
13473	8.9462	5.0909	0.	-3679.5
13474	8.8538	5.0909	5.e-002	-5.4266
13475	8.8538	5.3636	0.	-3708.8
13476	8.9462	5.2727	0.	-3681.6
13477	8.8538	5.2727	5.e-002	-5.3601
13478	8.8538	5.5455	0.	-3711.
13479	8.9462	5.4545	0.	-3683.8
13480	8.8538	5.4545	5.e-002	-5.2883
13481	8.8538	5.7273	0.	-3713.9
13482	8.9462	5.6364	0.	-3686.2
13483	8.8538	5.6364	5.e-002	-5.0065
13484	8.9462	5.8182	0.	-3689.7
13485	8.8538	5.8182	5.e-002	-1.4127
13486	8.8538	5.9091	0.	-3714.6
13487	9.0385	0.27273	0.	-3661.9
13488	9.1309	0.18182	0.	-3637.6
13489	9.0385	0.18182	5.e-002	-1.3589
13490	9.0385	9.0909e-002	0.	-3662.6
13491	9.0385	0.45455	0.	-3658.9
13492	9.1309	0.36364	0.	-3634.1
13493	9.0385	0.36364	5.e-002	-5.0312
13494	9.0385	0.63636	0.	-3656.5
13495	9.1309	0.54545	0.	-3631.5
13496	9.0385	0.54545	5.e-002	-5.31
13497	9.0385	0.81818	0.	-3654.3
13498	9.1309	0.72727	0.	-3629.2
13499	9.0385	0.72727	5.e-002	-5.371
13500	9.0385	1.	0.	-3652.3
13501	9.1309	0.90909	0.	-3627.
13502	9.0385	0.90909	5.e-002	-5.4243
13503	9.0385	1.1818	0.	-3650.3
13504	9.1309	1.0909	0.	-3624.9
13505	9.0385	1.0909	5.e-002	-5.4812
13506	9.0385	1.3636	0.	-3648.5
13507	9.1309	1.2727	0.	-3623.
13508	9.0385	1.2727	5.e-002	-5.5404
13509	9.0385	1.5455	0.	-3646.9
13510	9.1309	1.4545	0.	-3621.2
13511	9.0385	1.4545	5.e-002	-5.5996
13512	9.0385	1.7273	0.	-3645.4
13513	9.1309	1.6364	0.	-3619.6
13514	9.0385	1.6364	5.e-002	-5.6566
13515	9.0385	1.9091	0.	-3644.
13516	9.1309	1.8182	0.	-3618.1
13517	9.0385	1.8182	5.e-002	-5.7095
13518	9.0385	2.0909	0.	-3642.8
13519	9.1309	2.	0.	-3616.7
13520	9.0385	2.	5.e-002	-5.7569
13521	9.0385	2.2727	0.	-3641.7
13522	9.1309	2.1818	0.	-3615.6
13523	9.0385	2.1818	5.e-002	-5.7977
13524	9.0385	2.4545	0.	-3640.9
13525	9.1309	2.3636	0.	-3614.6
13526	9.0385	2.3636	5.e-002	-5.831
13527	9.0385	2.6364	0.	-3640.3
13528	9.1309	2.5455	0.	-3613.9
13529	9.0385	2.5455	5.e-002	-5.8564
13530	9.0385	2.8182	0.	-3640.
13531	9.1309	2.7273	0.	-3613.4
13532	9.0385	2.7273	5.e-002	-5.8734
13533	9.0385	3.	0.	-3639.8
13534	9.1309	2.9091	0.	-3613.1
13535	9.0385	2.9091	5.e-002	-5.8819
13536	9.0385	3.1818	0.	-3640.
13537	9.1309	3.0909	0.	-3613.1
13538	9.0385	3.0909	5.e-002	-5.8819
13539	9.0385	3.3636	0.	-3640.3
13540	9.1309	3.2727	0.	-3613.4
13541	9.0385	3.2727	5.e-002	-5.8734
13542	9.0385	3.5455	0.	-3640.9
13543	9.1309	3.4545	0.	-3613.9
13544	9.0385	3.4545	5.e-002	-5.8564
13545	9.0385	3.7273	0.	-3641.7
13546	9.1309	3.6364	0.	-3614.6
13547	9.0385	3.6364	5.e-002	-5.8311
13548	9.0385	3.9091	0.	-3642.8
13549	9.1309	3.8182	0.	-3615.6
13550	9.0385	3.8182	5.e-002	-5.7979
13551	9.0385	4.0909	0.	-3644.
13552	9.1309	4.	0.	-3616.7
13553	9.0385	4.	5.e-002	-5.7571
13554	9.0385	4.2727	0.	-3645.4
13555	9.1309	4.1818	0.	-3618.1
13556	9.0385	4.1818	5.e-002	-5.7097
13557	9.0385	4.4545	0.	-3646.9
13558	9.1309	4.3636	0.	-3619.6
13559	9.0385	4.3636	5.e-002	-5.6567
13560	9.0385	4.6364	0.	-3648.6
13561	9.1309	4.5455	0.	-3621.2
13562	9.0385	4.5455	5.e-002	-5.5997
13563	9.0385	4.8182	0.	-3650.3
13564	9.1309	4.7273	0.	-3623.
13565	9.0385	4.7273	5.e-002	-5.5406
13566	9.0385	5.	0.	-3652.3
13567	9.1309	4.9091	0.	-3624.9
13568	9.0385	4.9091	5.e-002	-5.4815
13569	9.0385	5.1818	0.	-3654.3
13570	9.1309	5.0909	0.	-3627.
13571	9.0385	5.0909	5.e-002	-5.4245
13572	9.0385	5.3636	0.	-3656.5
13573	9.1309	5.2727	0.	-3629.2
13574	9.0385	5.2727	5.e-002	-5.3713
13575	9.0385	5.5455	0.	-3658.9
13576	9.1309	5.4545	0.	-3631.5
13577	9.0385	5.4545	5.e-002	-5.3103
13578	9.0385	5.7273	0.	-3661.9
13579	9.1309	5.6364	0.	-3634.1
13580	9.0385	5.6364	5.e-002	-5.0316
13581	9.1309	5.8182	0.	-3637.6
13582	9.0385	5.8182	5.e-002	-1.3592
13583	9.0385	5.9091	0.	-3662.6
13584	9.2232	0.27273	0.	-3609.7
13585	9.3156	0.18182	0.	-3585.4
13586	9.2232	0.18182	5.e-002	-1.2928
13587	9.2232	9.0909e-002	0.	-3610.3
13588	9.2232	0.45455	0.	-3606.6
13589	9.3156	0.36364	0.	-3581.8
13590	9.2232	0.36364	5.e-002	-5.0424
13591	9.2232	0.63636	0.	-3604.1
13592	9.3156	0.54545	0.	-3579.1
13593	9.2232	0.54545	5.e-002	-5.3198
13594	9.2232	0.81818	0.	-3601.8
13595	9.3156	0.72727	0.	-3576.7
13596	9.2232	0.72727	5.e-002	-5.3724
13597	9.2232	1.	0.	-3599.6
13598	9.3156	0.90909	0.	-3574.5
13599	9.2232	0.90909	5.e-002	-5.4153
13600	9.2232	1.1818	0.	-3597.6
13601	9.3156	1.0909	0.	-3572.3
13602	9.2232	1.0909	5.e-002	-5.4608
13603	9.2232	1.3636	0.	-3595.7
13604	9.3156	1.2727	0.	-3570.3
13605	9.2232	1.2727	5.e-002	-5.5079
13606	9.2232	1.5455	0.	-3593.9
13607	9.3156	1.4545	0.	-3568.4
13608	9.2232	1.4545	5.e-002	-5.555
13609	9.2232	1.7273	0.	-3592.3
13610	9.3156	1.6364	0.	-3566.7
13611	9.2232	1.6364	5.e-002	-5.6005
13612	9.2232	1.9091	0.	-3590.8
13613	9.3156	1.8182	0.	-3565.1
13614	9.2232	1.8182	5.e-002	-5.6428
13615	9.2232	2.0909	0.	-3589.5
13616	9.3156	2.	0.	-3563.7
13617	9.2232	2.	5.e-002	-5.6807
13618	9.2232	2.2727	0.	-3588.4
13619	9.3156	2.1818	0.	-3562.5
13620	9.2232	2.1818	5.e-002	-5.7134
13621	9.2232	2.4545	0.	-3587.6
13622	9.3156	2.3636	0.	-3561.5
13623	9.2232	2.3636	5.e-002	-5.7402
13624	9.2232	2.6364	0.	-3586.9
13625	9.3156	2.5455	0.	-3560.7
13626	9.2232	2.5455	5.e-002	-5.7605
13627	9.2232	2.8182	0.	-3586.5
13628	9.3156	2.7273	0.	-3560.2
13629	9.2232	2.7273	5.e-002	-5.7743
13630	9.2232	3.	0.	-3586.4
13631	9.3156	2.9091	0.	-3559.9
13632	9.2232	2.9091	5.e-002	-5.7812
13633	9.2232	3.1818	0.	-3586.5
13634	9.3156	3.0909	0.	-3559.9
13635	9.2232	3.0909	5.e-002	-5.7812
13636	9.2232	3.3636	0.	-3586.9
13637	9.3156	3.2727	0.	-3560.2
13638	9.2232	3.2727	5.e-002	-5.7743
13639	9.2232	3.5455	0.	-3587.6
13640	9.3156	3.4545	0.	-3560.7
13641	9.2232	3.4545	5.e-002	-5.7606
13642	9.2232	3.7273	0.	-3588.4
13643	9.3156	3.6364	0.	-3561.5
13644	9.2232	3.6364	5.e-002	-5.7402
13645	9.2232	3.9091	0.	-3589.5
13646	9.3156	3.8182	0.	-3562.5
13647	9.2232	3.8182	5.e-002	-5.7135
13648	9.2232	4.0909	0.	-3590.8
13649	9.3156	4.	0.	-3563.7
13650	9.2232	4.	5.e-002	-5.6808
13651	9.2232	4.2727	0.	-3592.3
13652	9.3156	4.1818	0.	-3565.1
13653	9.2232	4.1818	5.e-002	-5.6429
13654	9.2232	4.4545	0.	-3593.9
13655	9.3156	4.3636	0.	-3566.7
13656	9.2232	4.3636	5.e-002	-5.6007
13657	9.2232	4.6364	0.	-3595.7
13658	9.3156	4.5455	0.	-3568.4
13659	9.2232	4.5455	5.e-002	-5.5553
13660	9.2232	4.8182	0.	-3597.6
13661	9.3156	4.7273	0.	-3570.3
13662	9.2232	4.7273	5.e-002	-5.5082
13663	9.2232	5.	0.	-3599.6
13664	9.3156	4.9091	0.	-3572.3
13665	9.2232	4.9091	5.e-002	-5.461
13666	9.2232	5.1818	0.	-3601.8
13667	9.3156	5.0909	0.	-3574.5
13668	9.2232	5.0909	5.e-002	-5.4156
13669	9.2232	5.3636	0.	-3604.1
13670	9.3156	5.2727	0.	-3576.7
13671	9.2232	5.2727	5.e-002	-5.3728
13672	9.2232	5.5455	0.	-3606.6
13673	9.3156	5.4545	0.	-3579.2
13674	9.2232	5.4545	5.e-002	-5.32
13675	9.2232	5.7273	0.	-3609.7
13676	9.3156	5.6364	0.	-3581.8
13677	9.2232	5.6364	5.e-002	-5.0428
13678	9.3156	5.8182	0.	-3585.4
13679	9.2232	5.8182	5.e-002	-1.2931
13680	9.2232	5.9091	0.	-3610.3
13681	9.408	0.27273	0.	-3557.3
13682	9.5003	0.18182	0.	-3533.
13683	9.408	0.18182	5.e-002	-1.2184
13684	9.408	9.0909e-002	0.	-3557.8
13685	9.408	0.45455	0.	-3554.3
13686	9.5003	0.36364	0.	-3529.4
13687	9.408	0.36364	5.e-002	-5.043
13688	9.408	0.63636	0.	-3551.7
13689	9.5003	0.54545	0.	-3526.7
13690	9.408	0.54545	5.e-002	-5.3201
13691	9.408	0.81818	0.	-3549.3
13692	9.5003	0.72727	0.	-3524.3
13693	9.408	0.72727	5.e-002	-5.3663
13694	9.408	1.	0.	-3547.1
13695	9.5003	0.90909	0.	-3522.
13696	9.408	0.90909	5.e-002	-5.4011
13697	9.408	1.1818	0.	-3545.
13698	9.5003	1.0909	0.	-3519.8
13699	9.408	1.0909	5.e-002	-5.4376
13700	9.408	1.3636	0.	-3543.
13701	9.5003	1.2727	0.	-3517.7
13702	9.408	1.2727	5.e-002	-5.4753
13703	9.408	1.5455	0.	-3541.2
13704	9.5003	1.4545	0.	-3515.8
13705	9.408	1.4545	5.e-002	-5.513
13706	9.408	1.7273	0.	-3539.5
13707	9.5003	1.6364	0.	-3514.
13708	9.408	1.6364	5.e-002	-5.5493
13709	9.408	1.9091	0.	-3538.
13710	9.5003	1.8182	0.	-3512.4
13711	9.408	1.8182	5.e-002	-5.5831
13712	9.408	2.0909	0.	-3536.7
13713	9.5003	2.	0.	-3511.
13714	9.408	2.	5.e-002	-5.6136
13715	9.408	2.2727	0.	-3535.5
13716	9.5003	2.1818	0.	-3509.8
13717	9.408	2.1818	5.e-002	-5.6398
13718	9.408	2.4545	0.	-3534.6
13719	9.5003	2.3636	0.	-3508.8
13720	9.408	2.3636	5.e-002	-5.6613
13721	9.408	2.6364	0.	-3534.
13722	9.5003	2.5455	0.	-3508.
13723	9.408	2.5455	5.e-002	-5.6777
13724	9.408	2.8182	0.	-3533.6
13725	9.5003	2.7273	0.	-3507.5
13726	9.408	2.7273	5.e-002	-5.6888
13727	9.408	3.	0.	-3533.5
13728	9.5003	2.9091	0.	-3507.2
13729	9.408	2.9091	5.e-002	-5.6944
13730	9.408	3.1818	0.	-3533.6
13731	9.5003	3.0909	0.	-3507.2
13732	9.408	3.0909	5.e-002	-5.6944
13733	9.408	3.3636	0.	-3534.
13734	9.5003	3.2727	0.	-3507.5
13735	9.408	3.2727	5.e-002	-5.6888
13736	9.408	3.5455	0.	-3534.6
13737	9.5003	3.4545	0.	-3508.
13738	9.408	3.4545	5.e-002	-5.6778
13739	9.408	3.7273	0.	-3535.5
13740	9.5003	3.6364	0.	-3508.8
13741	9.408	3.6364	5.e-002	-5.6614
13742	9.408	3.9091	0.	-3536.7
13743	9.5003	3.8182	0.	-3509.8
13744	9.408	3.8182	5.e-002	-5.6399
13745	9.408	4.0909	0.	-3538.
13746	9.5003	4.	0.	-3511.
13747	9.408	4.	5.e-002	-5.6137
13748	9.408	4.2727	0.	-3539.5
13749	9.5003	4.1818	0.	-3512.4
13750	9.408	4.1818	5.e-002	-5.5833
13751	9.408	4.4545	0.	-3541.2
13752	9.5003	4.3636	0.	-3514.
13753	9.408	4.3636	5.e-002	-5.5495
13754	9.408	4.6364	0.	-3543.
13755	9.5003	4.5455	0.	-3515.8
13756	9.408	4.5455	5.e-002	-5.5132
13757	9.408	4.8182	0.	-3545.
13758	9.5003	4.7273	0.	-3517.7
13759	9.408	4.7273	5.e-002	-5.4756
13760	9.408	5.	0.	-3547.1
13761	9.5003	4.9091	0.	-3519.8
13762	9.408	4.9091	5.e-002	-5.4379
13763	9.408	5.1818	0.	-3549.3
13764	9.5003	5.0909	0.	-3522.
13765	9.408	5.0909	5.e-002	-5.4014
13766	9.408	5.3636	0.	-3551.7
13767	9.5003	5.2727	0.	-3524.3
13768	9.408	5.2727	5.e-002	-5.3666
13769	9.408	5.5455	0.	-3554.3
13770	9.5003	5.4545	0.	-3526.7
13771	9.408	5.4545	5.e-002	-5.3204
13772	9.408	5.7273	0.	-3557.3
13773	9.5003	5.6364	0.	-3529.4
13774	9.408	5.6364	5.e-002	-5.0433
13775	9.5003	5.8182	0.	-3533.
13776	9.408	5.8182	5.e-002	-1.2187
13777	9.408	5.9091	0.	-3557.8
13778	9.5927	0.27273	0.	-3504.9
13779	9.685	0.18182	0.	-3480.6
13780	9.5927	0.18182	5.e-002	-1.1391
13781	9.5927	9.0909e-002	0.	-3505.2
13782	9.5927	0.45455	0.	-3501.8
13783	9.685	0.36364	0.	-3477.
13784	9.5927	0.36364	5.e-002	-5.0355
13785	9.5927	0.63636	0.	-3499.3
13786	9.685	0.54545	0.	-3474.4
13787	9.5927	0.54545	5.e-002	-5.3133
13788	9.5927	0.81818	0.	-3496.9
13789	9.685	0.72727	0.	-3471.9
13790	9.5927	0.72727	5.e-002	-5.3544
13791	9.5927	1.	0.	-3494.7
13792	9.685	0.90909	0.	-3469.6
13793	9.5927	0.90909	5.e-002	-5.383
13794	9.5927	1.1818	0.	-3492.5
13795	9.685	1.0909	0.	-3467.4
13796	9.5927	1.0909	5.e-002	-5.4124
13797	9.5927	1.3636	0.	-3490.5
13798	9.685	1.2727	0.	-3465.4
13799	9.5927	1.2727	5.e-002	-5.4427
13800	9.5927	1.5455	0.	-3488.7
13801	9.685	1.4545	0.	-3463.4
13802	9.5927	1.4545	5.e-002	-5.4729
13803	9.5927	1.7273	0.	-3487.
13804	9.685	1.6364	0.	-3461.7
13805	9.5927	1.6364	5.e-002	-5.5021
13806	9.5927	1.9091	0.	-3485.5
13807	9.685	1.8182	0.	-3460.1
13808	9.5927	1.8182	5.e-002	-5.5292
13809	9.5927	2.0909	0.	-3484.1
13810	9.685	2.	0.	-3458.6
13811	9.5927	2.	5.e-002	-5.5536
13812	9.5927	2.2727	0.	-3483.
13813	9.685	2.1818	0.	-3457.4
13814	9.5927	2.1818	5.e-002	-5.5748
13815	9.5927	2.4545	0.	-3482.1
13816	9.685	2.3636	0.	-3456.4
13817	9.5927	2.3636	5.e-002	-5.5921
13818	9.5927	2.6364	0.	-3481.5
13819	9.685	2.5455	0.	-3455.6
13820	9.5927	2.5455	5.e-002	-5.6053
13821	9.5927	2.8182	0.	-3481.1
13822	9.685	2.7273	0.	-3455.1
13823	9.5927	2.7273	5.e-002	-5.6143
13824	9.5927	3.	0.	-3480.9
13825	9.685	2.9091	0.	-3454.9
13826	9.5927	2.9091	5.e-002	-5.6188
13827	9.5927	3.1818	0.	-3481.1
13828	9.685	3.0909	0.	-3454.9
13829	9.5927	3.0909	5.e-002	-5.6188
13830	9.5927	3.3636	0.	-3481.5
13831	9.685	3.2727	0.	-3455.1
13832	9.5927	3.2727	5.e-002	-5.6143
13833	9.5927	3.5455	0.	-3482.1
13834	9.685	3.4545	0.	-3455.6
13835	9.5927	3.4545	5.e-002	-5.6054
13836	9.5927	3.7273	0.	-3483.
13837	9.685	3.6364	0.	-3456.4
13838	9.5927	3.6364	5.e-002	-5.5922
13839	9.5927	3.9091	0.	-3484.1
13840	9.685	3.8182	0.	-3457.4
13841	9.5927	3.8182	5.e-002	-5.5749
13842	9.5927	4.0909	0.	-3485.5
13843	9.685	4.	0.	-3458.6
13844	9.5927	4.	5.e-002	-5.5538
13845	9.5927	4.2727	0.	-3487.
13846	9.685	4.1818	0.	-3460.1
13847	9.5927	4.1818	5.e-002	-5.5294
13848	9.5927	4.4545	0.	-3488.7
13849	9.685	4.3636	0.	-3461.7
13850	9.5927	4.3636	5.e-002	-5.5023
13851	9.5927	4.6364	0.	-3490.5
13852	9.685	4.5455	0.	-3463.4
13853	9.5927	4.5455	5.e-002	-5.4732
13854	9.5927	4.8182	0.	-3492.5
13855	9.685	4.7273	0.	-3465.4
13856	9.5927	4.7273	5.e-002	-5.443
13857	9.5927	5.	0.	-3494.7
13858	9.685	4.9091	0.	-3467.4
13859	9.5927	4.9091	5.e-002	-5.4127
13860	9.5927	5.1818	0.	-3496.9
13861	9.685	5.0909	0.	-3469.6
13862	9.5927	5.0909	5.e-002	-5.3832
13863	9.5927	5.3636	0.	-3499.3
13864	9.685	5.2727	0.	-3471.9
13865	9.5927	5.2727	5.e-002	-5.3548
13866	9.5927	5.5455	0.	-3501.8
13867	9.685	5.4545	0.	-3474.4
13868	9.5927	5.4545	5.e-002	-5.3136
13869	9.5927	5.7273	0.	-3504.9
13870	9.685	5.6364	0.	-3477.
13871	9.5927	5.6364	5.e-002	-5.0358
13872	9.685	5.8182	0.	-3480.6
13873	9.5927	5.8182	5.e-002	-1.1394
13874	9.5927	5.9091	0.	-3505.2
13875	9.7774	0.27273	0.	-3452.6
13876	9.8697	0.18182	0.	-3428.3
13877	9.7774	0.18182	5.e-002	-1.0573
13878	9.7774	9.0909e-002	0.	-3452.7
13879	9.7774	0.45455	0.	-3449.5
13880	9.8697	0.36364	0.	-3424.6
13881	9.7774	0.36364	5.e-002	-5.0221
13882	9.7774	0.63636	0.	-3447.
13883	9.8697	0.54545	0.	-3422.1
13884	9.7774	0.54545	5.e-002	-5.301
13885	9.7774	0.81818	0.	-3444.6
13886	9.8697	0.72727	0.	-3419.7
13887	9.7774	0.72727	5.e-002	-5.3383
13888	9.7774	1.	0.	-3442.4
13889	9.8697	0.90909	0.	-3417.4
13890	9.7774	0.90909	5.e-002	-5.3618
13891	9.7774	1.1818	0.	-3440.2
13892	9.8697	1.0909	0.	-3415.2
13893	9.7774	1.0909	5.e-002	-5.3858
13894	9.7774	1.3636	0.	-3438.2
13895	9.8697	1.2727	0.	-3413.2
13896	9.7774	1.2727	5.e-002	-5.4103
13897	9.7774	1.5455	0.	-3436.4
13898	9.8697	1.4545	0.	-3411.3
13899	9.7774	1.4545	5.e-002	-5.4347
13900	9.7774	1.7273	0.	-3434.7
13901	9.8697	1.6364	0.	-3409.5
13902	9.7774	1.6364	5.e-002	-5.4581
13903	9.7774	1.9091	0.	-3433.2
13904	9.8697	1.8182	0.	-3407.9
13905	9.7774	1.8182	5.e-002	-5.48
13906	9.7774	2.0909	0.	-3431.9
13907	9.8697	2.	0.	-3406.5
13908	9.7774	2.	5.e-002	-5.4997
13909	9.7774	2.2727	0.	-3430.8
13910	9.8697	2.1818	0.	-3405.3
13911	9.7774	2.1818	5.e-002	-5.5167
13912	9.7774	2.4545	0.	-3429.9
13913	9.8697	2.3636	0.	-3404.3
13914	9.7774	2.3636	5.e-002	-5.5306
13915	9.7774	2.6364	0.	-3429.3
13916	9.8697	2.5455	0.	-3403.6
13917	9.7774	2.5455	5.e-002	-5.5413
13918	9.7774	2.8182	0.	-3428.9
13919	9.8697	2.7273	0.	-3403.1
13920	9.7774	2.7273	5.e-002	-5.5486
13921	9.7774	3.	0.	-3428.8
13922	9.8697	2.9091	0.	-3402.8
13923	9.7774	2.9091	5.e-002	-5.5522
13924	9.7774	3.1818	0.	-3428.9
13925	9.8697	3.0909	0.	-3402.8
13926	9.7774	3.0909	5.e-002	-5.5522
13927	9.7774	3.3636	0.	-3429.3
13928	9.8697	3.2727	0.	-3403.1
13929	9.7774	3.2727	5.e-002	-5.5486
13930	9.7774	3.5455	0.	-3429.9
13931	9.8697	3.4545	0.	-3403.6
13932	9.7774	3.4545	5.e-002	-5.5414
13933	9.7774	3.7273	0.	-3430.8
13934	9.8697	3.6364	0.	-3404.3
13935	9.7774	3.6364	5.e-002	-5.5307
13936	9.7774	3.9091	0.	-3431.9
13937	9.8697	3.8182	0.	-3405.3
13938	9.7774	3.8182	5.e-002	-5.5168
13939	9.7774	4.0909	0.	-3433.2
13940	9.8697	4.	0.	-3406.5
13941	9.7774	4.	5.e-002	-5.4998
13942	9.7774	4.2727	0.	-3434.7
13943	9.8697	4.1818	0.	-3407.9
13944	9.7774	4.1818	5.e-002	-5.4802
13945	9.7774	4.4545	0.	-3436.4
13946	9.8697	4.3636	0.	-3409.5
13947	9.7774	4.3636	5.e-002	-5.4583
13948	9.7774	4.6364	0.	-3438.2
13949	9.8697	4.5455	0.	-3411.3
13950	9.7774	4.5455	5.e-002	-5.4349
13951	9.7774	4.8182	0.	-3440.2
13952	9.8697	4.7273	0.	-3413.2
13953	9.7774	4.7273	5.e-002	-5.4105
13954	9.7774	5.	0.	-3442.4
13955	9.8697	4.9091	0.	-3415.2
13956	9.7774	4.9091	5.e-002	-5.386
13957	9.7774	5.1818	0.	-3444.6
13958	9.8697	5.0909	0.	-3417.4
13959	9.7774	5.0909	5.e-002	-5.3621
13960	9.7774	5.3636	0.	-3447.
13961	9.8697	5.2727	0.	-3419.7
13962	9.7774	5.2727	5.e-002	-5.3386
13963	9.7774	5.5455	0.	-3449.5
13964	9.8697	5.4545	0.	-3422.1
13965	9.7774	5.4545	5.e-002	-5.3013
13966	9.7774	5.7273	0.	-3452.6
13967	9.8697	5.6364	0.	-3424.6
13968	9.7774	5.6364	5.e-002	-5.0224
13969	9.8697	5.8182	0.	-3428.3
13970	9.7774	5.8182	5.e-002	-1.0576
13971	9.7774	5.9091	0.	-3452.7
13972	9.9621	0.27273	0.	-3400.3
13973	10.054	0.18182	0.	-3376.
13974	9.9621	0.18182	5.e-002	-0.97499
13975	9.9621	9.0909e-002	0.	-3400.2
13976	9.9621	0.45455	0.	-3397.2
13977	10.054	0.36364	0.	-3372.4
13978	9.9621	0.36364	5.e-002	-5.0042
13979	9.9621	0.63636	0.	-3394.7
13980	10.054	0.54545	0.	-3369.9
13981	9.9621	0.54545	5.e-002	-5.2847
13982	9.9621	0.81818	0.	-3392.4
13983	10.054	0.72727	0.	-3367.5
13984	9.9621	0.72727	5.e-002	-5.3189
13985	9.9621	1.	0.	-3390.2
13986	10.054	0.90909	0.	-3365.3
13987	9.9621	0.90909	5.e-002	-5.3385
13988	9.9621	1.1818	0.	-3388.1
13989	10.054	1.0909	0.	-3363.1
13990	9.9621	1.0909	5.e-002	-5.3581
13991	9.9621	1.3636	0.	-3386.2
13992	10.054	1.2727	0.	-3361.2
13993	9.9621	1.2727	5.e-002	-5.3781
13994	9.9621	1.5455	0.	-3384.4
13995	10.054	1.4545	0.	-3359.3
13996	9.9621	1.4545	5.e-002	-5.3979
13997	9.9621	1.7273	0.	-3382.7
13998	10.054	1.6364	0.	-3357.6
13999	9.9621	1.6364	5.e-002	-5.4169
14000	9.9621	1.9091	0.	-3381.2
14001	10.054	1.8182	0.	-3356.
14002	9.9621	1.8182	5.e-002	-5.4345
14003	9.9621	2.0909	0.	-3379.9
14004	10.054	2.	0.	-3354.7
14005	9.9621	2.	5.e-002	-5.4504
14006	9.9621	2.2727	0.	-3378.9
14007	10.054	2.1818	0.	-3353.5
14008	9.9621	2.1818	5.e-002	-5.4642
14009	9.9621	2.4545	0.	-3378.
14010	10.054	2.3636	0.	-3352.6
14011	9.9621	2.3636	5.e-002	-5.4755
14012	9.9621	2.6364	0.	-3377.4
14013	10.054	2.5455	0.	-3351.8
14014	9.9621	2.5455	5.e-002	-5.4842
14015	9.9621	2.8182	0.	-3377.
14016	10.054	2.7273	0.	-3351.3
14017	9.9621	2.7273	5.e-002	-5.4901
14018	9.9621	3.	0.	-3376.9
14019	10.054	2.9091	0.	-3351.1
14020	9.9621	2.9091	5.e-002	-5.493
14021	9.9621	3.1818	0.	-3377.
14022	10.054	3.0909	0.	-3351.1
14023	9.9621	3.0909	5.e-002	-5.493
14024	9.9621	3.3636	0.	-3377.4
14025	10.054	3.2727	0.	-3351.3
14026	9.9621	3.2727	5.e-002	-5.4901
14027	9.9621	3.5455	0.	-3378.
14028	10.054	3.4545	0.	-3351.8
14029	9.9621	3.4545	5.e-002	-5.4842
14030	9.9621	3.7273	0.	-3378.9
14031	10.054	3.6364	0.	-3352.6
14032	9.9621	3.6364	5.e-002	-5.4756
14033	9.9621	3.9091	0.	-3379.9
14034	10.054	3.8182	0.	-3353.5
14035	9.9621	3.8182	5.e-002	-5.4643
14036	9.9621	4.0909	0.	-3381.2
14037	10.054	4.	0.	-3354.7
14038	9.9621	4.	5.e-002	-5.4506
14039	9.9621	4.2727	0.	-3382.7
14040	10.054	4.1818	0.	-3356.
14041	9.9621	4.1818	5.e-002	-5.4347
14042	9.9621	4.4545	0.	-3384.4
14043	10.054	4.3636	0.	-3357.6
14044	9.9621	4.3636	5.e-002	-5.417
14045	9.9621	4.6364	0.	-3386.2
14046	10.054	4.5455	0.	-3359.3
14047	9.9621	4.5455	5.e-002	-5.3981
14048	9.9621	4.8182	0.	-3388.1
14049	10.054	4.7273	0.	-3361.2
14050	9.9621	4.7273	5.e-002	-5.3783
14051	9.9621	5.	0.	-3390.2
14052	10.054	4.9091	0.	-3363.1
14053	9.9621	4.9091	5.e-002	-5.3584
14054	9.9621	5.1818	0.	-3392.4
14055	10.054	5.0909	0.	-3365.3
14056	9.9621	5.0909	5.e-002	-5.3388
14057	9.9621	5.3636	0.	-3394.7
14058	10.054	5.2727	0.	-3367.5
14059	9.9621	5.2727	5.e-002	-5.3192
14060	9.9621	5.5455	0.	-3397.2
14061	10.054	5.4545	0.	-3369.9
14062	9.9621	5.4545	5.e-002	-5.285
14063	9.9621	5.7273	0.	-3400.3
14064	10.054	5.6364	0.	-3372.4
14065	9.9621	5.6364	5.e-002	-5.0045
14066	10.054	5.8182	0.	-3376.
14067	9.9621	5.8182	5.e-002	-0.97531
14068	9.9621	5.9091	0.	-3400.2
14069	10.147	0.27273	0.	-3348.1
14070	10.239	0.18182	0.	-3323.9
14071	10.147	0.18182	5.e-002	-0.89373
14072	10.147	9.0909e-002	0.	-3347.8
14073	10.147	0.45455	0.	-3345.1
14074	10.239	0.36364	0.	-3320.3
14075	10.147	0.36364	5.e-002	-4.9831
14076	10.147	0.63636	0.	-3342.6
14077	10.239	0.54545	0.	-3317.8
14078	10.147	0.54545	5.e-002	-5.2654
14079	10.147	0.81818	0.	-3340.4
14080	10.239	0.72727	0.	-3315.5
14081	10.147	0.72727	5.e-002	-5.2972
14082	10.147	1.	0.	-3338.2
14083	10.239	0.90909	0.	-3313.3
14084	10.147	0.90909	5.e-002	-5.3138
14085	10.147	1.1818	0.	-3336.2
14086	10.239	1.0909	0.	-3311.3
14087	10.147	1.0909	5.e-002	-5.3299
14088	10.147	1.3636	0.	-3334.3
14089	10.239	1.2727	0.	-3309.3
14090	10.147	1.2727	5.e-002	-5.3463
14091	10.147	1.5455	0.	-3332.5
14092	10.239	1.4545	0.	-3307.5
14093	10.147	1.4545	5.e-002	-5.3624
14094	10.147	1.7273	0.	-3330.9
14095	10.239	1.6364	0.	-3305.9
14096	10.147	1.6364	5.e-002	-5.3779
14097	10.147	1.9091	0.	-3329.5
14098	10.239	1.8182	0.	-3304.4
14099	10.147	1.8182	5.e-002	-5.3922
14100	10.147	2.0909	0.	-3328.2
14101	10.239	2.	0.	-3303.1
14102	10.147	2.	5.e-002	-5.4052
14103	10.147	2.2727	0.	-3327.2
14104	10.239	2.1818	0.	-3301.9
14105	10.147	2.1818	5.e-002	-5.4163
14106	10.147	2.4545	0.	-3326.4
14107	10.239	2.3636	0.	-3301.
14108	10.147	2.3636	5.e-002	-5.4255
14109	10.147	2.6364	0.	-3325.8
14110	10.239	2.5455	0.	-3300.3
14111	10.147	2.5455	5.e-002	-5.4326
14112	10.147	2.8182	0.	-3325.4
14113	10.239	2.7273	0.	-3299.8
14114	10.147	2.7273	5.e-002	-5.4373
14115	10.147	3.	0.	-3325.3
14116	10.239	2.9091	0.	-3299.6
14117	10.147	2.9091	5.e-002	-5.4397
14118	10.147	3.1818	0.	-3325.4
14119	10.239	3.0909	0.	-3299.6
14120	10.147	3.0909	5.e-002	-5.4397
14121	10.147	3.3636	0.	-3325.8
14122	10.239	3.2727	0.	-3299.8
14123	10.147	3.2727	5.e-002	-5.4374
14124	10.147	3.5455	0.	-3326.4
14125	10.239	3.4545	0.	-3300.3
14126	10.147	3.4545	5.e-002	-5.4326
14127	10.147	3.7273	0.	-3327.2
14128	10.239	3.6364	0.	-3301.
14129	10.147	3.6364	5.e-002	-5.4256
14130	10.147	3.9091	0.	-3328.2
14131	10.239	3.8182	0.	-3301.9
14132	10.147	3.8182	5.e-002	-5.4164
14133	10.147	4.0909	0.	-3329.5
14134	10.239	4.	0.	-3303.1
14135	10.147	4.	5.e-002	-5.4053
14136	10.147	4.2727	0.	-3330.9
14137	10.239	4.1818	0.	-3304.4
14138	10.147	4.1818	5.e-002	-5.3924
14139	10.147	4.4545	0.	-3332.5
14140	10.239	4.3636	0.	-3305.9
14141	10.147	4.3636	5.e-002	-5.378
14142	10.147	4.6364	0.	-3334.3
14143	10.239	4.5455	0.	-3307.5
14144	10.147	4.5455	5.e-002	-5.3626
14145	10.147	4.8182	0.	-3336.2
14146	10.239	4.7273	0.	-3309.3
14147	10.147	4.7273	5.e-002	-5.3465
14148	10.147	5.	0.	-3338.2
14149	10.239	4.9091	0.	-3311.3
14150	10.147	4.9091	5.e-002	-5.3302
14151	10.147	5.1818	0.	-3340.4
14152	10.239	5.0909	0.	-3313.3
14153	10.147	5.0909	5.e-002	-5.314
14154	10.147	5.3636	0.	-3342.6
14155	10.239	5.2727	0.	-3315.5
14156	10.147	5.2727	5.e-002	-5.2975
14157	10.147	5.5455	0.	-3345.1
14158	10.239	5.4545	0.	-3317.8
14159	10.147	5.4545	5.e-002	-5.2657
14160	10.147	5.7273	0.	-3348.1
14161	10.239	5.6364	0.	-3320.3
14162	10.147	5.6364	5.e-002	-4.9835
14163	10.239	5.8182	0.	-3323.9
14164	10.147	5.8182	5.e-002	-0.894
14165	10.147	5.9091	0.	-3347.8
14166	10.331	0.27273	0.	-3296.
14167	10.424	0.18182	0.	-3271.9
14168	10.331	0.18182	5.e-002	-0.81451
14169	10.331	9.0909e-002	0.	-3295.6
14170	10.331	0.45455	0.	-3293.1
14171	10.424	0.36364	0.	-3268.4
14172	10.331	0.36364	5.e-002	-4.9599
14173	10.331	0.63636	0.	-3290.7
14174	10.424	0.54545	0.	-3266.
14175	10.331	0.54545	5.e-002	-5.244
14176	10.331	0.81818	0.	-3288.5
14177	10.424	0.72727	0.	-3263.7
14178	10.331	0.72727	5.e-002	-5.2739
14179	10.331	1.	0.	-3286.4
14180	10.424	0.90909	0.	-3261.6
14181	10.331	0.90909	5.e-002	-5.288
14182	10.331	1.1818	0.	-3284.4
14183	10.424	1.0909	0.	-3259.6
14184	10.331	1.0909	5.e-002	-5.3015
14185	10.331	1.3636	0.	-3282.6
14186	10.424	1.2727	0.	-3257.7
14187	10.331	1.2727	5.e-002	-5.315
14188	10.331	1.5455	0.	-3280.9
14189	10.424	1.4545	0.	-3256.
14190	10.331	1.4545	5.e-002	-5.3283
14191	10.331	1.7273	0.	-3279.3
14192	10.424	1.6364	0.	-3254.4
14193	10.331	1.6364	5.e-002	-5.3409
14194	10.331	1.9091	0.	-3277.9
14195	10.424	1.8182	0.	-3252.9
14196	10.331	1.8182	5.e-002	-5.3527
14197	10.331	2.0909	0.	-3276.7
14198	10.424	2.	0.	-3251.6
14199	10.331	2.	5.e-002	-5.3632
14200	10.331	2.2727	0.	-3275.7
14201	10.424	2.1818	0.	-3250.6
14202	10.331	2.1818	5.e-002	-5.3723
14203	10.331	2.4545	0.	-3274.9
14204	10.424	2.3636	0.	-3249.7
14205	10.331	2.3636	5.e-002	-5.3798
14206	10.331	2.6364	0.	-3274.4
14207	10.424	2.5455	0.	-3249.
14208	10.331	2.5455	5.e-002	-5.3856
14209	10.331	2.8182	0.	-3274.
14210	10.424	2.7273	0.	-3248.6
14211	10.331	2.7273	5.e-002	-5.3894
14212	10.331	3.	0.	-3273.9
14213	10.424	2.9091	0.	-3248.3
14214	10.331	2.9091	5.e-002	-5.3914
14215	10.331	3.1818	0.	-3274.
14216	10.424	3.0909	0.	-3248.3
14217	10.331	3.0909	5.e-002	-5.3914
14218	10.331	3.3636	0.	-3274.4
14219	10.424	3.2727	0.	-3248.6
14220	10.331	3.2727	5.e-002	-5.3895
14221	10.331	3.5455	0.	-3274.9
14222	10.424	3.4545	0.	-3249.
14223	10.331	3.4545	5.e-002	-5.3856
14224	10.331	3.7273	0.	-3275.7
14225	10.424	3.6364	0.	-3249.7
14226	10.331	3.6364	5.e-002	-5.3799
14227	10.331	3.9091	0.	-3276.7
14228	10.424	3.8182	0.	-3250.6
14229	10.331	3.8182	5.e-002	-5.3724
14230	10.331	4.0909	0.	-3277.9
14231	10.424	4.	0.	-3251.7
14232	10.331	4.	5.e-002	-5.3633
14233	10.331	4.2727	0.	-3279.3
14234	10.424	4.1818	0.	-3252.9
14235	10.331	4.1818	5.e-002	-5.3528
14236	10.331	4.4545	0.	-3280.9
14237	10.424	4.3636	0.	-3254.4
14238	10.331	4.3636	5.e-002	-5.3411
14239	10.331	4.6364	0.	-3282.6
14240	10.424	4.5455	0.	-3256.
14241	10.331	4.5455	5.e-002	-5.3284
14242	10.331	4.8182	0.	-3284.4
14243	10.424	4.7273	0.	-3257.7
14244	10.331	4.7273	5.e-002	-5.3152
14245	10.331	5.	0.	-3286.4
14246	10.424	4.9091	0.	-3259.6
14247	10.331	4.9091	5.e-002	-5.3017
14248	10.331	5.1818	0.	-3288.5
14249	10.424	5.0909	0.	-3261.6
14250	10.331	5.0909	5.e-002	-5.2883
14251	10.331	5.3636	0.	-3290.7
14252	10.424	5.2727	0.	-3263.7
14253	10.331	5.2727	5.e-002	-5.2742
14254	10.331	5.5455	0.	-3293.1
14255	10.424	5.4545	0.	-3266.
14256	10.331	5.4545	5.e-002	-5.2443
14257	10.331	5.7273	0.	-3296.
14258	10.424	5.6364	0.	-3268.4
14259	10.331	5.6364	5.e-002	-4.9602
14260	10.424	5.8182	0.	-3271.9
14261	10.331	5.8182	5.e-002	-0.8148
14262	10.331	5.9091	0.	-3295.6
14263	10.516	0.27273	0.	-3244.1
14264	10.609	0.18182	0.	-3220.1
14265	10.516	0.18182	5.e-002	-0.73803
14266	10.516	9.0909e-002	0.	-3243.6
14267	10.516	0.45455	0.	-3241.2
14268	10.609	0.36364	0.	-3216.6
14269	10.516	0.36364	5.e-002	-4.9351
14270	10.516	0.63636	0.	-3239.
14271	10.609	0.54545	0.	-3214.3
14272	10.516	0.54545	5.e-002	-5.221
14273	10.516	0.81818	0.	-3236.8
14274	10.609	0.72727	0.	-3212.1
14275	10.516	0.72727	5.e-002	-5.2495
14276	10.516	1.	0.	-3234.8
14277	10.609	0.90909	0.	-3210.
14278	10.516	0.90909	5.e-002	-5.2616
14279	10.516	1.1818	0.	-3232.9
14280	10.609	1.0909	0.	-3208.1
14281	10.516	1.0909	5.e-002	-5.2729
14282	10.516	1.3636	0.	-3231.1
14283	10.609	1.2727	0.	-3206.3
14284	10.516	1.2727	5.e-002	-5.2842
14285	10.516	1.5455	0.	-3229.4
14286	10.609	1.4545	0.	-3204.6
14287	10.516	1.4545	5.e-002	-5.2951
14288	10.516	1.7273	0.	-3227.9
14289	10.609	1.6364	0.	-3203.1
14290	10.516	1.6364	5.e-002	-5.3056
14291	10.516	1.9091	0.	-3226.6
14292	10.609	1.8182	0.	-3201.7
14293	10.516	1.8182	5.e-002	-5.3153
14294	10.516	2.0909	0.	-3225.5
14295	10.609	2.	0.	-3200.5
14296	10.516	2.	5.e-002	-5.3239
14297	10.516	2.2727	0.	-3224.5
14298	10.609	2.1818	0.	-3199.4
14299	10.516	2.1818	5.e-002	-5.3314
14300	10.516	2.4545	0.	-3223.7
14301	10.609	2.3636	0.	-3198.6
14302	10.516	2.3636	5.e-002	-5.3375
14303	10.516	2.6364	0.	-3223.2
14304	10.609	2.5455	0.	-3197.9
14305	10.516	2.5455	5.e-002	-5.3422
14306	10.516	2.8182	0.	-3222.9
14307	10.609	2.7273	0.	-3197.5
14308	10.516	2.7273	5.e-002	-5.3454
14309	10.516	3.	0.	-3222.8
14310	10.609	2.9091	0.	-3197.3
14311	10.516	2.9091	5.e-002	-5.347
14312	10.516	3.1818	0.	-3222.9
14313	10.609	3.0909	0.	-3197.3
14314	10.516	3.0909	5.e-002	-5.347
14315	10.516	3.3636	0.	-3223.2
14316	10.609	3.2727	0.	-3197.5
14317	10.516	3.2727	5.e-002	-5.3455
14318	10.516	3.5455	0.	-3223.7
14319	10.609	3.4545	0.	-3197.9
14320	10.516	3.4545	5.e-002	-5.3423
14321	10.516	3.7273	0.	-3224.5
14322	10.609	3.6364	0.	-3198.6
14323	10.516	3.6364	5.e-002	-5.3376
14324	10.516	3.9091	0.	-3225.5
14325	10.609	3.8182	0.	-3199.4
14326	10.516	3.8182	5.e-002	-5.3315
14327	10.516	4.0909	0.	-3226.6
14328	10.609	4.	0.	-3200.5
14329	10.516	4.	5.e-002	-5.324
14330	10.516	4.2727	0.	-3227.9
14331	10.609	4.1818	0.	-3201.7
14332	10.516	4.1818	5.e-002	-5.3154
14333	10.516	4.4545	0.	-3229.4
14334	10.609	4.3636	0.	-3203.1
14335	10.516	4.3636	5.e-002	-5.3058
14336	10.516	4.6364	0.	-3231.1
14337	10.609	4.5455	0.	-3204.6
14338	10.516	4.5455	5.e-002	-5.2954
14339	10.516	4.8182	0.	-3232.9
14340	10.609	4.7273	0.	-3206.3
14341	10.516	4.7273	5.e-002	-5.2844
14342	10.516	5.	0.	-3234.8
14343	10.609	4.9091	0.	-3208.1
14344	10.516	4.9091	5.e-002	-5.2732
14345	10.516	5.1818	0.	-3236.8
14346	10.609	5.0909	0.	-3210.
14347	10.516	5.0909	5.e-002	-5.2618
14348	10.516	5.3636	0.	-3239.
14349	10.609	5.2727	0.	-3212.1
14350	10.516	5.2727	5.e-002	-5.2497
14351	10.516	5.5455	0.	-3241.2
14352	10.609	5.4545	0.	-3214.3
14353	10.516	5.4545	5.e-002	-5.2213
14354	10.516	5.7273	0.	-3244.2
14355	10.609	5.6364	0.	-3216.6
14356	10.516	5.6364	5.e-002	-4.9354
14357	10.609	5.8182	0.	-3220.1
14358	10.516	5.8182	5.e-002	-0.73831
14359	10.516	5.9091	0.	-3243.6
14360	10.701	0.27273	0.	-3192.5
14361	10.793	0.18182	0.	-3168.5
14362	10.701	0.18182	5.e-002	-0.66481
14363	10.701	9.0909e-002	0.	-3191.7
14364	10.701	0.45455	0.	-3189.6
14365	10.793	0.36364	0.	-3165.
14366	10.701	0.36364	5.e-002	-4.9093
14367	10.701	0.63636	0.	-3187.4
14368	10.793	0.54545	0.	-3162.8
14369	10.701	0.54545	5.e-002	-5.197
14370	10.701	0.81818	0.	-3185.3
14371	10.793	0.72727	0.	-3160.7
14372	10.701	0.72727	5.e-002	-5.2243
14373	10.701	1.	0.	-3183.4
14374	10.793	0.90909	0.	-3158.7
14375	10.701	0.90909	5.e-002	-5.2348
14376	10.701	1.1818	0.	-3181.5
14377	10.793	1.0909	0.	-3156.8
14378	10.701	1.0909	5.e-002	-5.2444
14379	10.701	1.3636	0.	-3179.8
14380	10.793	1.2727	0.	-3155.1
14381	10.701	1.2727	5.e-002	-5.2539
14382	10.701	1.5455	0.	-3178.2
14383	10.793	1.4545	0.	-3153.4
14384	10.701	1.4545	5.e-002	-5.263
14385	10.701	1.7273	0.	-3176.8
14386	10.793	1.6364	0.	-3152.
14387	10.701	1.6364	5.e-002	-5.2717
14388	10.701	1.9091	0.	-3175.5
14389	10.793	1.8182	0.	-3150.6
14390	10.701	1.8182	5.e-002	-5.2797
14391	10.701	2.0909	0.	-3174.4
14392	10.793	2.	0.	-3149.5
14393	10.701	2.	5.e-002	-5.2869
14394	10.701	2.2727	0.	-3173.5
14395	10.793	2.1818	0.	-3148.5
14396	10.701	2.1818	5.e-002	-5.293
14397	10.701	2.4545	0.	-3172.8
14398	10.793	2.3636	0.	-3147.7
14399	10.701	2.3636	5.e-002	-5.2981
14400	10.701	2.6364	0.	-3172.2
14401	10.793	2.5455	0.	-3147.1
14402	10.701	2.5455	5.e-002	-5.302
14403	10.701	2.8182	0.	-3171.9
14404	10.793	2.7273	0.	-3146.6
14405	10.701	2.7273	5.e-002	-5.3046
14406	10.701	3.	0.	-3171.8
14407	10.793	2.9091	0.	-3146.4
14408	10.701	2.9091	5.e-002	-5.3059
14409	10.701	3.1818	0.	-3171.9
14410	10.793	3.0909	0.	-3146.4
14411	10.701	3.0909	5.e-002	-5.306
14412	10.701	3.3636	0.	-3172.2
14413	10.793	3.2727	0.	-3146.6
14414	10.701	3.2727	5.e-002	-5.3047
14415	10.701	3.5455	0.	-3172.8
14416	10.793	3.4545	0.	-3147.1
14417	10.701	3.4545	5.e-002	-5.3021
14418	10.701	3.7273	0.	-3173.5
14419	10.793	3.6364	0.	-3147.7
14420	10.701	3.6364	5.e-002	-5.2982
14421	10.701	3.9091	0.	-3174.4
14422	10.793	3.8182	0.	-3148.5
14423	10.701	3.8182	5.e-002	-5.2931
14424	10.701	4.0909	0.	-3175.5
14425	10.793	4.	0.	-3149.5
14426	10.701	4.	5.e-002	-5.287
14427	10.701	4.2727	0.	-3176.8
14428	10.793	4.1818	0.	-3150.6
14429	10.701	4.1818	5.e-002	-5.2799
14430	10.701	4.4545	0.	-3178.2
14431	10.793	4.3636	0.	-3152.
14432	10.701	4.3636	5.e-002	-5.2719
14433	10.701	4.6364	0.	-3179.8
14434	10.793	4.5455	0.	-3153.4
14435	10.701	4.5455	5.e-002	-5.2632
14436	10.701	4.8182	0.	-3181.5
14437	10.793	4.7273	0.	-3155.1
14438	10.701	4.7273	5.e-002	-5.2541
14439	10.701	5.	0.	-3183.4
14440	10.793	4.9091	0.	-3156.8
14441	10.701	4.9091	5.e-002	-5.2446
14442	10.701	5.1818	0.	-3185.3
14443	10.793	5.0909	0.	-3158.7
14444	10.701	5.0909	5.e-002	-5.2351
14445	10.701	5.3636	0.	-3187.4
14446	10.793	5.2727	0.	-3160.7
14447	10.701	5.2727	5.e-002	-5.2245
14448	10.701	5.5455	0.	-3189.6
14449	10.793	5.4545	0.	-3162.8
14450	10.701	5.4545	5.e-002	-5.1973
14451	10.701	5.7273	0.	-3192.5
14452	10.793	5.6364	0.	-3165.
14453	10.701	5.6364	5.e-002	-4.9096
14454	10.793	5.8182	0.	-3168.5
14455	10.701	5.8182	5.e-002	-0.66509
14456	10.701	5.9091	0.	-3191.7
14457	10.886	0.27273	0.	-3141.
14458	10.978	0.18182	0.	-3117.1
14459	10.886	0.18182	5.e-002	-0.59525
14460	10.886	9.0909e-002	0.	-3140.
14461	10.886	0.45455	0.	-3138.2
14462	10.978	0.36364	0.	-3113.7
14463	10.886	0.36364	5.e-002	-4.8829
14464	10.886	0.63636	0.	-3136.
14465	10.978	0.54545	0.	-3111.5
14466	10.886	0.54545	5.e-002	-5.1723
14467	10.886	0.81818	0.	-3134.
14468	10.978	0.72727	0.	-3109.4
14469	10.886	0.72727	5.e-002	-5.1986
14470	10.886	1.	0.	-3132.1
14471	10.978	0.90909	0.	-3107.5
14472	10.886	0.90909	5.e-002	-5.2079
14473	10.886	1.1818	0.	-3130.3
14474	10.978	1.0909	0.	-3105.7
14475	10.886	1.0909	5.e-002	-5.2162
14476	10.886	1.3636	0.	-3128.7
14477	10.978	1.2727	0.	-3104.
14478	10.886	1.2727	5.e-002	-5.2242
14479	10.886	1.5455	0.	-3127.2
14480	10.978	1.4545	0.	-3102.5
14481	10.886	1.4545	5.e-002	-5.2319
14482	10.886	1.7273	0.	-3125.8
14483	10.978	1.6364	0.	-3101.
14484	10.886	1.6364	5.e-002	-5.2392
14485	10.886	1.9091	0.	-3124.6
14486	10.978	1.8182	0.	-3099.8
14487	10.886	1.8182	5.e-002	-5.2458
14488	10.886	2.0909	0.	-3123.5
14489	10.978	2.	0.	-3098.7
14490	10.886	2.	5.e-002	-5.2518
14491	10.886	2.2727	0.	-3122.6
14492	10.978	2.1818	0.	-3097.7
14493	10.886	2.1818	5.e-002	-5.257
14494	10.886	2.4545	0.	-3122.
14495	10.978	2.3636	0.	-3097.
14496	10.886	2.3636	5.e-002	-5.2611
14497	10.886	2.6364	0.	-3121.5
14498	10.978	2.5455	0.	-3096.4
14499	10.886	2.5455	5.e-002	-5.2644
14500	10.886	2.8182	0.	-3121.2
14501	10.978	2.7273	0.	-3096.
14502	10.886	2.7273	5.e-002	-5.2666
14503	10.886	3.	0.	-3121.1
14504	10.978	2.9091	0.	-3095.8
14505	10.886	2.9091	5.e-002	-5.2676
14506	10.886	3.1818	0.	-3121.2
14507	10.978	3.0909	0.	-3095.8
14508	10.886	3.0909	5.e-002	-5.2677
14509	10.886	3.3636	0.	-3121.5
14510	10.978	3.2727	0.	-3096.
14511	10.886	3.2727	5.e-002	-5.2666
14512	10.886	3.5455	0.	-3122.
14513	10.978	3.4545	0.	-3096.4
14514	10.886	3.4545	5.e-002	-5.2644
14515	10.886	3.7273	0.	-3122.6
14516	10.978	3.6364	0.	-3097.
14517	10.886	3.6364	5.e-002	-5.2612
14518	10.886	3.9091	0.	-3123.5
14519	10.978	3.8182	0.	-3097.7
14520	10.886	3.8182	5.e-002	-5.257
14521	10.886	4.0909	0.	-3124.6
14522	10.978	4.	0.	-3098.7
14523	10.886	4.	5.e-002	-5.2519
14524	10.886	4.2727	0.	-3125.8
14525	10.978	4.1818	0.	-3099.8
14526	10.886	4.1818	5.e-002	-5.246
14527	10.886	4.4545	0.	-3127.2
14528	10.978	4.3636	0.	-3101.
14529	10.886	4.3636	5.e-002	-5.2393
14530	10.886	4.6364	0.	-3128.7
14531	10.978	4.5455	0.	-3102.5
14532	10.886	4.5455	5.e-002	-5.2321
14533	10.886	4.8182	0.	-3130.3
14534	10.978	4.7273	0.	-3104.
14535	10.886	4.7273	5.e-002	-5.2244
14536	10.886	5.	0.	-3132.1
14537	10.978	4.9091	0.	-3105.7
14538	10.886	4.9091	5.e-002	-5.2164
14539	10.886	5.1818	0.	-3134.
14540	10.978	5.0909	0.	-3107.5
14541	10.886	5.0909	5.e-002	-5.2082
14542	10.886	5.3636	0.	-3136.
14543	10.978	5.2727	0.	-3109.4
14544	10.886	5.2727	5.e-002	-5.1989
14545	10.886	5.5455	0.	-3138.2
14546	10.978	5.4545	0.	-3111.5
14547	10.886	5.4545	5.e-002	-5.1726
14548	10.886	5.7273	0.	-3141.
14549	10.978	5.6364	0.	-3113.7
14550	10.886	5.6364	5.e-002	-4.8833
14551	10.978	5.8182	0.	-3117.1
14552	10.886	5.8182	5.e-002	-0.59553
14553	10.886	5.9091	0.	-3140.
14554	11.07	0.27273	0.	-3089.7
14555	11.163	0.18182	0.	-3065.9
14556	11.07	0.18182	5.e-002	-0.52947
14557	11.07	9.0909e-002	0.	-3088.6
14558	11.07	0.45455	0.	-3086.9
14559	11.163	0.36364	0.	-3062.5
14560	11.07	0.36364	5.e-002	-4.8563
14561	11.07	0.63636	0.	-3084.9
14562	11.163	0.54545	0.	-3060.4
14563	11.07	0.54545	5.e-002	-5.1473
14564	11.07	0.81818	0.	-3082.9
14565	11.163	0.72727	0.	-3058.4
14566	11.07	0.72727	5.e-002	-5.1728
14567	11.07	1.	0.	-3081.1
14568	11.163	0.90909	0.	-3056.6
14569	11.07	0.90909	5.e-002	-5.1811
14570	11.07	1.1818	0.	-3079.4
14571	11.163	1.0909	0.	-3054.8
14572	11.07	1.0909	5.e-002	-5.1882
14573	11.07	1.3636	0.	-3077.8
14574	11.163	1.2727	0.	-3053.2
14575	11.07	1.2727	5.e-002	-5.195
14576	11.07	1.5455	0.	-3076.3
14577	11.163	1.4545	0.	-3051.7
14578	11.07	1.4545	5.e-002	-5.2016
14579	11.07	1.7273	0.	-3075.
14580	11.163	1.6364	0.	-3050.3
14581	11.07	1.6364	5.e-002	-5.2078
14582	11.07	1.9091	0.	-3073.8
14583	11.163	1.8182	0.	-3049.1
14584	11.07	1.8182	5.e-002	-5.2134
14585	11.07	2.0909	0.	-3072.8
14586	11.163	2.	0.	-3048.1
14587	11.07	2.	5.e-002	-5.2184
14588	11.07	2.2727	0.	-3072.
14589	11.163	2.1818	0.	-3047.2
14590	11.07	2.1818	5.e-002	-5.2227
14591	11.07	2.4545	0.	-3071.3
14592	11.163	2.3636	0.	-3046.4
14593	11.07	2.3636	5.e-002	-5.2262
14594	11.07	2.6364	0.	-3070.9
14595	11.163	2.5455	0.	-3045.9
14596	11.07	2.5455	5.e-002	-5.2289
14597	11.07	2.8182	0.	-3070.6
14598	11.163	2.7273	0.	-3045.5
14599	11.07	2.7273	5.e-002	-5.2307
14600	11.07	3.	0.	-3070.5
14601	11.163	2.9091	0.	-3045.3
14602	11.07	2.9091	5.e-002	-5.2316
14603	11.07	3.1818	0.	-3070.6
14604	11.163	3.0909	0.	-3045.3
14605	11.07	3.0909	5.e-002	-5.2316
14606	11.07	3.3636	0.	-3070.9
14607	11.163	3.2727	0.	-3045.5
14608	11.07	3.2727	5.e-002	-5.2307
14609	11.07	3.5455	0.	-3071.3
14610	11.163	3.4545	0.	-3045.9
14611	11.07	3.4545	5.e-002	-5.2289
14612	11.07	3.7273	0.	-3072.
14613	11.163	3.6364	0.	-3046.4
14614	11.07	3.6364	5.e-002	-5.2262
14615	11.07	3.9091	0.	-3072.8
14616	11.163	3.8182	0.	-3047.2
14617	11.07	3.8182	5.e-002	-5.2228
14618	11.07	4.0909	0.	-3073.8
14619	11.163	4.	0.	-3048.1
14620	11.07	4.	5.e-002	-5.2185
14621	11.07	4.2727	0.	-3075.
14622	11.163	4.1818	0.	-3049.1
14623	11.07	4.1818	5.e-002	-5.2135
14624	11.07	4.4545	0.	-3076.3
14625	11.163	4.3636	0.	-3050.3
14626	11.07	4.3636	5.e-002	-5.2079
14627	11.07	4.6364	0.	-3077.8
14628	11.163	4.5455	0.	-3051.7
14629	11.07	4.5455	5.e-002	-5.2018
14630	11.07	4.8182	0.	-3079.4
14631	11.163	4.7273	0.	-3053.2
14632	11.07	4.7273	5.e-002	-5.1952
14633	11.07	5.	0.	-3081.1
14634	11.163	4.9091	0.	-3054.8
14635	11.07	4.9091	5.e-002	-5.1884
14636	11.07	5.1818	0.	-3082.9
14637	11.163	5.0909	0.	-3056.6
14638	11.07	5.0909	5.e-002	-5.1813
14639	11.07	5.3636	0.	-3084.9
14640	11.163	5.2727	0.	-3058.4
14641	11.07	5.2727	5.e-002	-5.1731
14642	11.07	5.5455	0.	-3086.9
14643	11.163	5.4545	0.	-3060.4
14644	11.07	5.4545	5.e-002	-5.1476
14645	11.07	5.7273	0.	-3089.7
14646	11.163	5.6364	0.	-3062.5
14647	11.07	5.6364	5.e-002	-4.8566
14648	11.163	5.8182	0.	-3065.9
14649	11.07	5.8182	5.e-002	-0.52974
14650	11.07	5.9091	0.	-3088.6
14651	11.255	0.27273	0.	-3038.6
14652	11.347	0.18182	0.	-3014.9
14653	11.255	0.18182	5.e-002	-0.46761
14654	11.255	9.0909e-002	0.	-3037.3
14655	11.255	0.45455	0.	-3035.9
14656	11.347	0.36364	0.	-3011.5
14657	11.255	0.36364	5.e-002	-4.8297
14658	11.255	0.63636	0.	-3033.9
14659	11.347	0.54545	0.	-3009.5
14660	11.255	0.54545	5.e-002	-5.1221
14661	11.255	0.81818	0.	-3032.
14662	11.347	0.72727	0.	-3007.6
14663	11.255	0.72727	5.e-002	-5.147
14664	11.255	1.	0.	-3030.3
14665	11.347	0.90909	0.	-3005.8
14666	11.255	0.90909	5.e-002	-5.1544
14667	11.255	1.1818	0.	-3028.6
14668	11.347	1.0909	0.	-3004.1
14669	11.255	1.0909	5.e-002	-5.1606
14670	11.255	1.3636	0.	-3027.1
14671	11.347	1.2727	0.	-3002.6
14672	11.255	1.2727	5.e-002	-5.1665
14673	11.255	1.5455	0.	-3025.7
14674	11.347	1.4545	0.	-3001.1
14675	11.255	1.4545	5.e-002	-5.1721
14676	11.255	1.7273	0.	-3024.4
14677	11.347	1.6364	0.	-2999.8
14678	11.255	1.6364	5.e-002	-5.1774
14679	11.255	1.9091	0.	-3023.3
14680	11.347	1.8182	0.	-2998.7
14681	11.255	1.8182	5.e-002	-5.1821
14682	11.255	2.0909	0.	-3022.3
14683	11.347	2.	0.	-2997.6
14684	11.255	2.	5.e-002	-5.1864
14685	11.255	2.2727	0.	-3021.6
14686	11.347	2.1818	0.	-2996.8
14687	11.255	2.1818	5.e-002	-5.19
14688	11.255	2.4545	0.	-3020.9
14689	11.347	2.3636	0.	-2996.1
14690	11.255	2.3636	5.e-002	-5.193
14691	11.255	2.6364	0.	-3020.5
14692	11.347	2.5455	0.	-2995.6
14693	11.255	2.5455	5.e-002	-5.1952
14694	11.255	2.8182	0.	-3020.2
14695	11.347	2.7273	0.	-2995.2
14696	11.255	2.7273	5.e-002	-5.1968
14697	11.255	3.	0.	-3020.1
14698	11.347	2.9091	0.	-2995.
14699	11.255	2.9091	5.e-002	-5.1976
14700	11.255	3.1818	0.	-3020.2
14701	11.347	3.0909	0.	-2995.
14702	11.255	3.0909	5.e-002	-5.1976
14703	11.255	3.3636	0.	-3020.5
14704	11.347	3.2727	0.	-2995.2
14705	11.255	3.2727	5.e-002	-5.1968
14706	11.255	3.5455	0.	-3020.9
14707	11.347	3.4545	0.	-2995.6
14708	11.255	3.4545	5.e-002	-5.1953
14709	11.255	3.7273	0.	-3021.6
14710	11.347	3.6364	0.	-2996.1
14711	11.255	3.6364	5.e-002	-5.1931
14712	11.255	3.9091	0.	-3022.4
14713	11.347	3.8182	0.	-2996.8
14714	11.255	3.8182	5.e-002	-5.1901
14715	11.255	4.0909	0.	-3023.3
14716	11.347	4.	0.	-2997.6
14717	11.255	4.	5.e-002	-5.1865
14718	11.255	4.2727	0.	-3024.4
14719	11.347	4.1818	0.	-2998.7
14720	11.255	4.1818	5.e-002	-5.1823
14721	11.255	4.4545	0.	-3025.7
14722	11.347	4.3636	0.	-2999.8
14723	11.255	4.3636	5.e-002	-5.1775
14724	11.255	4.6364	0.	-3027.1
14725	11.347	4.5455	0.	-3001.1
14726	11.255	4.5455	5.e-002	-5.1723
14727	11.255	4.8182	0.	-3028.6
14728	11.347	4.7273	0.	-3002.6
14729	11.255	4.7273	5.e-002	-5.1667
14730	11.255	5.	0.	-3030.3
14731	11.347	4.9091	0.	-3004.1
14732	11.255	4.9091	5.e-002	-5.1608
14733	11.255	5.1818	0.	-3032.
14734	11.347	5.0909	0.	-3005.8
14735	11.255	5.0909	5.e-002	-5.1546
14736	11.255	5.3636	0.	-3033.9
14737	11.347	5.2727	0.	-3007.6
14738	11.255	5.2727	5.e-002	-5.1473
14739	11.255	5.5455	0.	-3035.9
14740	11.347	5.4545	0.	-3009.5
14741	11.255	5.4545	5.e-002	-5.1224
14742	11.255	5.7273	0.	-3038.6
14743	11.347	5.6364	0.	-3011.5
14744	11.255	5.6364	5.e-002	-4.83
14745	11.347	5.8182	0.	-3014.9
14746	11.255	5.8182	5.e-002	-0.46788
14747	11.255	5.9091	0.	-3037.3
14748	11.44	0.27273	0.	-2987.7
14749	11.532	0.18182	0.	-2964.1
14750	11.44	0.18182	5.e-002	-0.40968
14751	11.44	9.0909e-002	0.	-2986.3
14752	11.44	0.45455	0.	-2985.1
14753	11.532	0.36364	0.	-2960.8
14754	11.44	0.36364	5.e-002	-4.8033
14755	11.44	0.63636	0.	-2983.1
14756	11.532	0.54545	0.	-2958.8
14757	11.44	0.54545	5.e-002	-5.097
14758	11.44	0.81818	0.	-2981.3
14759	11.532	0.72727	0.	-2957.
14760	11.44	0.72727	5.e-002	-5.1213
14761	11.44	1.	0.	-2979.6
14762	11.532	0.90909	0.	-2955.2
14763	11.44	0.90909	5.e-002	-5.128
14764	11.44	1.1818	0.	-2978.
14765	11.532	1.0909	0.	-2953.6
14766	11.44	1.0909	5.e-002	-5.1334
14767	11.44	1.3636	0.	-2976.6
14768	11.532	1.2727	0.	-2952.1
14769	11.44	1.2727	5.e-002	-5.1386
14770	11.44	1.5455	0.	-2975.2
14771	11.532	1.4545	0.	-2950.7
14772	11.44	1.4545	5.e-002	-5.1434
14773	11.44	1.7273	0.	-2974.
14774	11.532	1.6364	0.	-2949.5
14775	11.44	1.6364	5.e-002	-5.1479
14776	11.44	1.9091	0.	-2973.
14777	11.532	1.8182	0.	-2948.4
14778	11.44	1.8182	5.e-002	-5.152
14779	11.44	2.0909	0.	-2972.
14780	11.532	2.	0.	-2947.4
14781	11.44	2.	5.e-002	-5.1557
14782	11.44	2.2727	0.	-2971.3
14783	11.532	2.1818	0.	-2946.6
14784	11.44	2.1818	5.e-002	-5.1588
14785	11.44	2.4545	0.	-2970.7
14786	11.532	2.3636	0.	-2945.9
14787	11.44	2.3636	5.e-002	-5.1613
14788	11.44	2.6364	0.	-2970.3
14789	11.532	2.5455	0.	-2945.4
14790	11.44	2.5455	5.e-002	-5.1632
14791	11.44	2.8182	0.	-2970.
14792	11.532	2.7273	0.	-2945.1
14793	11.44	2.7273	5.e-002	-5.1645
14794	11.44	3.	0.	-2969.9
14795	11.532	2.9091	0.	-2944.9
14796	11.44	2.9091	5.e-002	-5.1652
14797	11.44	3.1818	0.	-2970.
14798	11.532	3.0909	0.	-2944.9
14799	11.44	3.0909	5.e-002	-5.1652
14800	11.44	3.3636	0.	-2970.3
14801	11.532	3.2727	0.	-2945.1
14802	11.44	3.2727	5.e-002	-5.1645
14803	11.44	3.5455	0.	-2970.7
14804	11.532	3.4545	0.	-2945.4
14805	11.44	3.4545	5.e-002	-5.1632
14806	11.44	3.7273	0.	-2971.3
14807	11.532	3.6364	0.	-2945.9
14808	11.44	3.6364	5.e-002	-5.1614
14809	11.44	3.9091	0.	-2972.
14810	11.532	3.8182	0.	-2946.6
14811	11.44	3.8182	5.e-002	-5.1589
14812	11.44	4.0909	0.	-2973.
14813	11.532	4.	0.	-2947.4
14814	11.44	4.	5.e-002	-5.1558
14815	11.44	4.2727	0.	-2974.
14816	11.532	4.1818	0.	-2948.4
14817	11.44	4.1818	5.e-002	-5.1522
14818	11.44	4.4545	0.	-2975.2
14819	11.532	4.3636	0.	-2949.5
14820	11.44	4.3636	5.e-002	-5.1481
14821	11.44	4.6364	0.	-2976.6
14822	11.532	4.5455	0.	-2950.7
14823	11.44	4.5455	5.e-002	-5.1436
14824	11.44	4.8182	0.	-2978.
14825	11.532	4.7273	0.	-2952.1
14826	11.44	4.7273	5.e-002	-5.1388
14827	11.44	5.	0.	-2979.6
14828	11.532	4.9091	0.	-2953.6
14829	11.44	4.9091	5.e-002	-5.1336
14830	11.44	5.1818	0.	-2981.3
14831	11.532	5.0909	0.	-2955.2
14832	11.44	5.0909	5.e-002	-5.1283
14833	11.44	5.3636	0.	-2983.1
14834	11.532	5.2727	0.	-2957.
14835	11.44	5.2727	5.e-002	-5.1216
14836	11.44	5.5455	0.	-2985.1
14837	11.532	5.4545	0.	-2958.8
14838	11.44	5.4545	5.e-002	-5.0972
14839	11.44	5.7273	0.	-2987.7
14840	11.532	5.6364	0.	-2960.8
14841	11.44	5.6364	5.e-002	-4.8036
14842	11.532	5.8182	0.	-2964.1
14843	11.44	5.8182	5.e-002	-0.40994
14844	11.44	5.9091	0.	-2986.3
14845	11.624	0.27273	0.	-2937.1
14846	11.717	0.18182	0.	-2913.6
14847	11.624	0.18182	5.e-002	-0.35557
14848	11.624	9.0909e-002	0.	-2935.5
14849	11.624	0.45455	0.	-2934.5
14850	11.717	0.36364	0.	-2910.3
14851	11.624	0.36364	5.e-002	-4.7772
14852	11.624	0.63636	0.	-2932.6
14853	11.717	0.54545	0.	-2908.3
14854	11.624	0.54545	5.e-002	-5.0719
14855	11.624	0.81818	0.	-2930.9
14856	11.717	0.72727	0.	-2906.6
14857	11.624	0.72727	5.e-002	-5.0958
14858	11.624	1.	0.	-2929.2
14859	11.717	0.90909	0.	-2904.9
14860	11.624	0.90909	5.e-002	-5.1019
14861	11.624	1.1818	0.	-2927.7
14862	11.717	1.0909	0.	-2903.3
14863	11.624	1.0909	5.e-002	-5.1067
14864	11.624	1.3636	0.	-2926.3
14865	11.717	1.2727	0.	-2901.9
14866	11.624	1.2727	5.e-002	-5.1112
14867	11.624	1.5455	0.	-2925.
14868	11.717	1.4545	0.	-2900.6
14869	11.624	1.4545	5.e-002	-5.1155
14870	11.624	1.7273	0.	-2923.8
14871	11.717	1.6364	0.	-2899.4
14872	11.624	1.6364	5.e-002	-5.1194
14873	11.624	1.9091	0.	-2922.8
14874	11.717	1.8182	0.	-2898.3
14875	11.624	1.8182	5.e-002	-5.1229
14876	11.624	2.0909	0.	-2921.9
14877	11.717	2.	0.	-2897.4
14878	11.624	2.	5.e-002	-5.1261
14879	11.624	2.2727	0.	-2921.2
14880	11.717	2.1818	0.	-2896.6
14881	11.624	2.1818	5.e-002	-5.1287
14882	11.624	2.4545	0.	-2920.6
14883	11.717	2.3636	0.	-2895.9
14884	11.624	2.3636	5.e-002	-5.1309
14885	11.624	2.6364	0.	-2920.2
14886	11.717	2.5455	0.	-2895.5
14887	11.624	2.5455	5.e-002	-5.1325
14888	11.624	2.8182	0.	-2920.
14889	11.717	2.7273	0.	-2895.1
14890	11.624	2.7273	5.e-002	-5.1337
14891	11.624	3.	0.	-2919.9
14892	11.717	2.9091	0.	-2895.
14893	11.624	2.9091	5.e-002	-5.1342
14894	11.624	3.1818	0.	-2920.
14895	11.717	3.0909	0.	-2895.
14896	11.624	3.0909	5.e-002	-5.1342
14897	11.624	3.3636	0.	-2920.2
14898	11.717	3.2727	0.	-2895.1
14899	11.624	3.2727	5.e-002	-5.1337
14900	11.624	3.5455	0.	-2920.6
14901	11.717	3.4545	0.	-2895.5
14902	11.624	3.4545	5.e-002	-5.1326
14903	11.624	3.7273	0.	-2921.2
14904	11.717	3.6364	0.	-2895.9
14905	11.624	3.6364	5.e-002	-5.1309
14906	11.624	3.9091	0.	-2921.9
14907	11.717	3.8182	0.	-2896.6
14908	11.624	3.8182	5.e-002	-5.1288
14909	11.624	4.0909	0.	-2922.8
14910	11.717	4.	0.	-2897.4
14911	11.624	4.	5.e-002	-5.1262
14912	11.624	4.2727	0.	-2923.8
14913	11.717	4.1818	0.	-2898.3
14914	11.624	4.1818	5.e-002	-5.1231
14915	11.624	4.4545	0.	-2925.
14916	11.717	4.3636	0.	-2899.4
14917	11.624	4.3636	5.e-002	-5.1196
14918	11.624	4.6364	0.	-2926.3
14919	11.717	4.5455	0.	-2900.6
14920	11.624	4.5455	5.e-002	-5.1156
14921	11.624	4.8182	0.	-2927.7
14922	11.717	4.7273	0.	-2901.9
14923	11.624	4.7273	5.e-002	-5.1114
14924	11.624	5.	0.	-2929.2
14925	11.717	4.9091	0.	-2903.3
14926	11.624	4.9091	5.e-002	-5.107
14927	11.624	5.1818	0.	-2930.9
14928	11.717	5.0909	0.	-2904.9
14929	11.624	5.0909	5.e-002	-5.1022
14930	11.624	5.3636	0.	-2932.6
14931	11.717	5.2727	0.	-2906.6
14932	11.624	5.2727	5.e-002	-5.096
14933	11.624	5.5455	0.	-2934.5
14934	11.717	5.4545	0.	-2908.3
14935	11.624	5.4545	5.e-002	-5.0722
14936	11.624	5.7273	0.	-2937.1
14937	11.717	5.6364	0.	-2910.3
14938	11.624	5.6364	5.e-002	-4.7774
14939	11.717	5.8182	0.	-2913.6
14940	11.624	5.8182	5.e-002	-0.35584
14941	11.624	5.9091	0.	-2935.5
14942	11.809	0.27273	0.	-2886.7
14943	11.902	0.18182	0.	-2863.2
14944	11.809	0.18182	5.e-002	-0.30517
14945	11.809	9.0909e-002	0.	-2884.9
14946	11.809	0.45455	0.	-2884.1
14947	11.902	0.36364	0.	-2860.
14948	11.809	0.36364	5.e-002	-4.7513
14949	11.809	0.63636	0.	-2882.3
14950	11.902	0.54545	0.	-2858.1
14951	11.809	0.54545	5.e-002	-5.047
14952	11.809	0.81818	0.	-2880.6
14953	11.902	0.72727	0.	-2856.4
14954	11.809	0.72727	5.e-002	-5.0705
14955	11.809	1.	0.	-2879.
14956	11.902	0.90909	0.	-2854.8
14957	11.809	0.90909	5.e-002	-5.0761
14958	11.809	1.1818	0.	-2877.5
14959	11.902	1.0909	0.	-2853.2
14960	11.809	1.0909	5.e-002	-5.0804
14961	11.809	1.3636	0.	-2876.2
14962	11.902	1.2727	0.	-2851.9
14963	11.809	1.2727	5.e-002	-5.0844
14964	11.809	1.5455	0.	-2874.9
14965	11.902	1.4545	0.	-2850.6
14966	11.809	1.4545	5.e-002	-5.0881
14967	11.809	1.7273	0.	-2873.8
14968	11.902	1.6364	0.	-2849.4
14969	11.809	1.6364	5.e-002	-5.0916
14970	11.809	1.9091	0.	-2872.8
14971	11.902	1.8182	0.	-2848.4
14972	11.809	1.8182	5.e-002	-5.0947
14973	11.809	2.0909	0.	-2872.
14974	11.902	2.	0.	-2847.5
14975	11.809	2.	5.e-002	-5.0973
14976	11.809	2.2727	0.	-2871.3
14977	11.902	2.1818	0.	-2846.7
14978	11.809	2.1818	5.e-002	-5.0996
14979	11.809	2.4545	0.	-2870.8
14980	11.902	2.3636	0.	-2846.1
14981	11.809	2.3636	5.e-002	-5.1015
14982	11.809	2.6364	0.	-2870.4
14983	11.902	2.5455	0.	-2845.7
14984	11.809	2.5455	5.e-002	-5.103
14985	11.809	2.8182	0.	-2870.1
14986	11.902	2.7273	0.	-2845.4
14987	11.809	2.7273	5.e-002	-5.1039
14988	11.809	3.	0.	-2870.
14989	11.902	2.9091	0.	-2845.2
14990	11.809	2.9091	5.e-002	-5.1044
14991	11.809	3.1818	0.	-2870.1
14992	11.902	3.0909	0.	-2845.2
14993	11.809	3.0909	5.e-002	-5.1044
14994	11.809	3.3636	0.	-2870.4
14995	11.902	3.2727	0.	-2845.4
14996	11.809	3.2727	5.e-002	-5.1039
14997	11.809	3.5455	0.	-2870.8
14998	11.902	3.4545	0.	-2845.7
14999	11.809	3.4545	5.e-002	-5.103
15000	11.809	3.7273	0.	-2871.3
15001	11.902	3.6364	0.	-2846.1
15002	11.809	3.6364	5.e-002	-5.1016
15003	11.809	3.9091	0.	-2872.
15004	11.902	3.8182	0.	-2846.7
15005	11.809	3.8182	5.e-002	-5.0998
15006	11.809	4.0909	0.	-2872.8
15007	11.902	4.	0.	-2847.5
15008	11.809	4.	5.e-002	-5.0975
15009	11.809	4.2727	0.	-2873.8
15010	11.902	4.1818	0.	-2848.4
15011	11.809	4.1818	5.e-002	-5.0948
15012	11.809	4.4545	0.	-2874.9
15013	11.902	4.3636	0.	-2849.4
15014	11.809	4.3636	5.e-002	-5.0917
15015	11.809	4.6364	0.	-2876.2
15016	11.902	4.5455	0.	-2850.6
15017	11.809	4.5455	5.e-002	-5.0883
15018	11.809	4.8182	0.	-2877.5
15019	11.902	4.7273	0.	-2851.9
15020	11.809	4.7273	5.e-002	-5.0846
15021	11.809	5.	0.	-2879.
15022	11.902	4.9091	0.	-2853.2
15023	11.809	4.9091	5.e-002	-5.0806
15024	11.809	5.1818	0.	-2880.6
15025	11.902	5.0909	0.	-2854.8
15026	11.809	5.0909	5.e-002	-5.0763
15027	11.809	5.3636	0.	-2882.3
15028	11.902	5.2727	0.	-2856.4
15029	11.809	5.2727	5.e-002	-5.0707
15030	11.809	5.5455	0.	-2884.1
15031	11.902	5.4545	0.	-2858.1
15032	11.809	5.4545	5.e-002	-5.0472
15033	11.809	5.7273	0.	-2886.7
15034	11.902	5.6364	0.	-2860.
15035	11.809	5.6364	5.e-002	-4.7516
15036	11.902	5.8182	0.	-2863.2
15037	11.809	5.8182	5.e-002	-0.30543
15038	11.809	5.9091	0.	-2884.9
15039	11.994	0.27273	0.	-2836.4
15040	12.086	0.18182	0.	-2813.1
15041	11.994	0.18182	5.e-002	-0.25834
15042	11.994	9.0909e-002	0.	-2834.6
15043	11.994	0.45455	0.	-2833.9
15044	12.086	0.36364	0.	-2809.9
15045	11.994	0.36364	5.e-002	-4.7258
15046	11.994	0.63636	0.	-2832.2
15047	12.086	0.54545	0.	-2808.
15048	11.994	0.54545	5.e-002	-5.0223
15049	11.994	0.81818	0.	-2830.5
15050	12.086	0.72727	0.	-2806.4
15051	11.994	0.72727	5.e-002	-5.0454
15052	11.994	1.	0.	-2829.
15053	12.086	0.90909	0.	-2804.8
15054	11.994	0.90909	5.e-002	-5.0506
15055	11.994	1.1818	0.	-2827.6
15056	12.086	1.0909	0.	-2803.4
15057	11.994	1.0909	5.e-002	-5.0545
15058	11.994	1.3636	0.	-2826.2
15059	12.086	1.2727	0.	-2802.
15060	11.994	1.2727	5.e-002	-5.058
15061	11.994	1.5455	0.	-2825.1
15062	12.086	1.4545	0.	-2800.8
15063	11.994	1.4545	5.e-002	-5.0613
15064	11.994	1.7273	0.	-2824.
15065	12.086	1.6364	0.	-2799.7
15066	11.994	1.6364	5.e-002	-5.0644
15067	11.994	1.9091	0.	-2823.
15068	12.086	1.8182	0.	-2798.7
15069	11.994	1.8182	5.e-002	-5.0671
15070	11.994	2.0909	0.	-2822.2
15071	12.086	2.	0.	-2797.8
15072	11.994	2.	5.e-002	-5.0695
15073	11.994	2.2727	0.	-2821.6
15074	12.086	2.1818	0.	-2797.1
15075	11.994	2.1818	5.e-002	-5.0715
15076	11.994	2.4545	0.	-2821.1
15077	12.086	2.3636	0.	-2796.5
15078	11.994	2.3636	5.e-002	-5.0731
15079	11.994	2.6364	0.	-2820.7
15080	12.086	2.5455	0.	-2796.1
15081	11.994	2.5455	5.e-002	-5.0744
15082	11.994	2.8182	0.	-2820.5
15083	12.086	2.7273	0.	-2795.8
15084	11.994	2.7273	5.e-002	-5.0752
15085	11.994	3.	0.	-2820.4
15086	12.086	2.9091	0.	-2795.6
15087	11.994	2.9091	5.e-002	-5.0756
15088	11.994	3.1818	0.	-2820.5
15089	12.086	3.0909	0.	-2795.6
15090	11.994	3.0909	5.e-002	-5.0756
15091	11.994	3.3636	0.	-2820.7
15092	12.086	3.2727	0.	-2795.8
15093	11.994	3.2727	5.e-002	-5.0752
15094	11.994	3.5455	0.	-2821.1
15095	12.086	3.4545	0.	-2796.1
15096	11.994	3.4545	5.e-002	-5.0744
15097	11.994	3.7273	0.	-2821.6
15098	12.086	3.6364	0.	-2796.5
15099	11.994	3.6364	5.e-002	-5.0732
15100	11.994	3.9091	0.	-2822.2
15101	12.086	3.8182	0.	-2797.1
15102	11.994	3.8182	5.e-002	-5.0716
15103	11.994	4.0909	0.	-2823.
15104	12.086	4.	0.	-2797.8
15105	11.994	4.	5.e-002	-5.0696
15106	11.994	4.2727	0.	-2824.
15107	12.086	4.1818	0.	-2798.7
15108	11.994	4.1818	5.e-002	-5.0672
15109	11.994	4.4545	0.	-2825.1
15110	12.086	4.3636	0.	-2799.7
15111	11.994	4.3636	5.e-002	-5.0645
15112	11.994	4.6364	0.	-2826.2
15113	12.086	4.5455	0.	-2800.8
15114	11.994	4.5455	5.e-002	-5.0615
15115	11.994	4.8182	0.	-2827.6
15116	12.086	4.7273	0.	-2802.
15117	11.994	4.7273	5.e-002	-5.0582
15118	11.994	5.	0.	-2829.
15119	12.086	4.9091	0.	-2803.4
15120	11.994	4.9091	5.e-002	-5.0547
15121	11.994	5.1818	0.	-2830.5
15122	12.086	5.0909	0.	-2804.8
15123	11.994	5.0909	5.e-002	-5.0509
15124	11.994	5.3636	0.	-2832.2
15125	12.086	5.2727	0.	-2806.4
15126	11.994	5.2727	5.e-002	-5.0457
15127	11.994	5.5455	0.	-2833.9
15128	12.086	5.4545	0.	-2808.
15129	11.994	5.4545	5.e-002	-5.0225
15130	11.994	5.7273	0.	-2836.4
15131	12.086	5.6364	0.	-2809.9
15132	11.994	5.6364	5.e-002	-4.7261
15133	12.086	5.8182	0.	-2813.1
15134	11.994	5.8182	5.e-002	-0.25859
15135	11.994	5.9091	0.	-2834.6
15136	12.179	0.27273	0.	-2786.5
15137	12.271	0.18182	0.	-2763.2
15138	12.179	0.18182	5.e-002	-0.21503
15139	12.179	9.0909e-002	0.	-2784.4
15140	12.179	0.45455	0.	-2784.
15141	12.271	0.36364	0.	-2760.
15142	12.179	0.36364	5.e-002	-4.7008
15143	12.179	0.63636	0.	-2782.2
15144	12.271	0.54545	0.	-2758.2
15145	12.179	0.54545	5.e-002	-4.9978
15146	12.179	0.81818	0.	-2780.7
15147	12.271	0.72727	0.	-2756.6
15148	12.179	0.72727	5.e-002	-5.0207
15149	12.179	1.	0.	-2779.2
15150	12.271	0.90909	0.	-2755.1
15151	12.179	0.90909	5.e-002	-5.0256
15152	12.179	1.1818	0.	-2777.8
15153	12.271	1.0909	0.	-2753.7
15154	12.179	1.0909	5.e-002	-5.0291
15155	12.179	1.3636	0.	-2776.5
15156	12.271	1.2727	0.	-2752.4
15157	12.179	1.2727	5.e-002	-5.0322
15158	12.179	1.5455	0.	-2775.4
15159	12.271	1.4545	0.	-2751.2
15160	12.179	1.4545	5.e-002	-5.0352
15161	12.179	1.7273	0.	-2774.4
15162	12.271	1.6364	0.	-2750.1
15163	12.179	1.6364	5.e-002	-5.0379
15164	12.179	1.9091	0.	-2773.4
15165	12.271	1.8182	0.	-2749.2
15166	12.179	1.8182	5.e-002	-5.0403
15167	12.179	2.0909	0.	-2772.7
15168	12.271	2.	0.	-2748.3
15169	12.179	2.	5.e-002	-5.0424
15170	12.179	2.2727	0.	-2772.
15171	12.271	2.1818	0.	-2747.6
15172	12.179	2.1818	5.e-002	-5.0442
15173	12.179	2.4545	0.	-2771.5
15174	12.271	2.3636	0.	-2747.1
15175	12.179	2.3636	5.e-002	-5.0456
15176	12.179	2.6364	0.	-2771.2
15177	12.271	2.5455	0.	-2746.7
15178	12.179	2.5455	5.e-002	-5.0467
15179	12.179	2.8182	0.	-2771.
15180	12.271	2.7273	0.	-2746.4
15181	12.179	2.7273	5.e-002	-5.0474
15182	12.179	3.	0.	-2770.9
15183	12.271	2.9091	0.	-2746.2
15184	12.179	2.9091	5.e-002	-5.0478
15185	12.179	3.1818	0.	-2771.
15186	12.271	3.0909	0.	-2746.2
15187	12.179	3.0909	5.e-002	-5.0478
15188	12.179	3.3636	0.	-2771.2
15189	12.271	3.2727	0.	-2746.4
15190	12.179	3.2727	5.e-002	-5.0475
15191	12.179	3.5455	0.	-2771.5
15192	12.271	3.4545	0.	-2746.7
15193	12.179	3.4545	5.e-002	-5.0468
15194	12.179	3.7273	0.	-2772.
15195	12.271	3.6364	0.	-2747.1
15196	12.179	3.6364	5.e-002	-5.0457
15197	12.179	3.9091	0.	-2772.7
15198	12.271	3.8182	0.	-2747.6
15199	12.179	3.8182	5.e-002	-5.0443
15200	12.179	4.0909	0.	-2773.4
15201	12.271	4.	0.	-2748.3
15202	12.179	4.	5.e-002	-5.0425
15203	12.179	4.2727	0.	-2774.4
15204	12.271	4.1818	0.	-2749.2
15205	12.179	4.1818	5.e-002	-5.0404
15206	12.179	4.4545	0.	-2775.4
15207	12.271	4.3636	0.	-2750.1
15208	12.179	4.3636	5.e-002	-5.038
15209	12.179	4.6364	0.	-2776.5
15210	12.271	4.5455	0.	-2751.2
15211	12.179	4.5455	5.e-002	-5.0354
15212	12.179	4.8182	0.	-2777.8
15213	12.271	4.7273	0.	-2752.4
15214	12.179	4.7273	5.e-002	-5.0325
15215	12.179	5.	0.	-2779.2
15216	12.271	4.9091	0.	-2753.7
15217	12.179	4.9091	5.e-002	-5.0293
15218	12.179	5.1818	0.	-2780.7
15219	12.271	5.0909	0.	-2755.1
15220	12.179	5.0909	5.e-002	-5.0258
15221	12.179	5.3636	0.	-2782.2
15222	12.271	5.2727	0.	-2756.6
15223	12.179	5.2727	5.e-002	-5.021
15224	12.179	5.5455	0.	-2784.
15225	12.271	5.4545	0.	-2758.2
15226	12.179	5.4545	5.e-002	-4.9982
15227	12.179	5.7273	0.	-2786.5
15228	12.271	5.6364	0.	-2760.
15229	12.179	5.6364	5.e-002	-4.701
15230	12.271	5.8182	0.	-2763.2
15231	12.179	5.8182	5.e-002	-0.21527
15232	12.179	5.9091	0.	-2784.4
15233	12.363	0.27273	0.	-2736.7
15234	12.456	0.18182	0.	-2713.6
15235	12.363	0.18182	5.e-002	-0.17499
15236	12.363	9.0909e-002	0.	-2734.5
15237	12.363	0.45455	0.	-2734.2
15238	12.456	0.36364	0.	-2710.4
15239	12.363	0.36364	5.e-002	-4.6761
15240	12.363	0.63636	0.	-2732.6
15241	12.456	0.54545	0.	-2708.6
15242	12.363	0.54545	5.e-002	-4.9737
15243	12.363	0.81818	0.	-2731.
15244	12.456	0.72727	0.	-2707.
15245	12.363	0.72727	5.e-002	-4.9963
15246	12.363	1.	0.	-2729.6
15247	12.456	0.90909	0.	-2705.6
15248	12.363	0.90909	5.e-002	-5.0009
15249	12.363	1.1818	0.	-2728.2
15250	12.456	1.0909	0.	-2704.2
15251	12.363	1.0909	5.e-002	-5.004
15252	12.363	1.3636	0.	-2727.
15253	12.456	1.2727	0.	-2702.9
15254	12.363	1.2727	5.e-002	-5.0069
15255	12.363	1.5455	0.	-2725.9
15256	12.456	1.4545	0.	-2701.8
15257	12.363	1.4545	5.e-002	-5.0096
15258	12.363	1.7273	0.	-2724.9
15259	12.456	1.6364	0.	-2700.8
15260	12.363	1.6364	5.e-002	-5.0119
15261	12.363	1.9091	0.	-2724.
15262	12.456	1.8182	0.	-2699.8
15263	12.363	1.8182	5.e-002	-5.0141
15264	12.363	2.0909	0.	-2723.3
15265	12.456	2.	0.	-2699.
15266	12.363	2.	5.e-002	-5.016
15267	12.363	2.2727	0.	-2722.7
15268	12.456	2.1818	0.	-2698.4
15269	12.363	2.1818	5.e-002	-5.0175
15270	12.363	2.4545	0.	-2722.2
15271	12.456	2.3636	0.	-2697.8
15272	12.363	2.3636	5.e-002	-5.0188
15273	12.363	2.6364	0.	-2721.9
15274	12.456	2.5455	0.	-2697.4
15275	12.363	2.5455	5.e-002	-5.0198
15276	12.363	2.8182	0.	-2721.6
15277	12.456	2.7273	0.	-2697.2
15278	12.363	2.7273	5.e-002	-5.0204
15279	12.363	3.	0.	-2721.6
15280	12.456	2.9091	0.	-2697.
15281	12.363	2.9091	5.e-002	-5.0208
15282	12.363	3.1818	0.	-2721.6
15283	12.456	3.0909	0.	-2697.
15284	12.363	3.0909	5.e-002	-5.0208
15285	12.363	3.3636	0.	-2721.9
15286	12.456	3.2727	0.	-2697.2
15287	12.363	3.2727	5.e-002	-5.0205
15288	12.363	3.5455	0.	-2722.2
15289	12.456	3.4545	0.	-2697.4
15290	12.363	3.4545	5.e-002	-5.0198
15291	12.363	3.7273	0.	-2722.7
15292	12.456	3.6364	0.	-2697.8
15293	12.363	3.6364	5.e-002	-5.0189
15294	12.363	3.9091	0.	-2723.3
15295	12.456	3.8182	0.	-2698.4
15296	12.363	3.8182	5.e-002	-5.0176
15297	12.363	4.0909	0.	-2724.
15298	12.456	4.	0.	-2699.
15299	12.363	4.	5.e-002	-5.0161
15300	12.363	4.2727	0.	-2724.9
15301	12.456	4.1818	0.	-2699.8
15302	12.363	4.1818	5.e-002	-5.0142
15303	12.363	4.4545	0.	-2725.9
15304	12.456	4.3636	0.	-2700.8
15305	12.363	4.3636	5.e-002	-5.0121
15306	12.363	4.6364	0.	-2727.
15307	12.456	4.5455	0.	-2701.8
15308	12.363	4.5455	5.e-002	-5.0097
15309	12.363	4.8182	0.	-2728.2
15310	12.456	4.7273	0.	-2702.9
15311	12.363	4.7273	5.e-002	-5.0071
15312	12.363	5.	0.	-2729.6
15313	12.456	4.9091	0.	-2704.2
15314	12.363	4.9091	5.e-002	-5.0042
15315	12.363	5.1818	0.	-2731.
15316	12.456	5.0909	0.	-2705.6
15317	12.363	5.0909	5.e-002	-5.0011
15318	12.363	5.3636	0.	-2732.6
15319	12.456	5.2727	0.	-2707.
15320	12.363	5.2727	5.e-002	-4.9966
15321	12.363	5.5455	0.	-2734.2
15322	12.456	5.4545	0.	-2708.6
15323	12.363	5.4545	5.e-002	-4.974
15324	12.363	5.7273	0.	-2736.7
15325	12.456	5.6364	0.	-2710.4
15326	12.363	5.6364	5.e-002	-4.6764
15327	12.456	5.8182	0.	-2713.6
15328	12.363	5.8182	5.e-002	-0.17519
15329	12.363	5.9091	0.	-2734.5
15330	12.548	0.27273	0.	-2687.1
15331	12.64	0.18182	0.	-2664.1
15332	12.548	0.18182	5.e-002	-0.13803
15333	12.548	9.0909e-002	0.	-2684.9
15334	12.548	0.45455	0.	-2684.7
15335	12.64	0.36364	0.	-2660.9
15336	12.548	0.36364	5.e-002	-4.6519
15337	12.548	0.63636	0.	-2683.1
15338	12.64	0.54545	0.	-2659.2
15339	12.548	0.54545	5.e-002	-4.9498
15340	12.548	0.81818	0.	-2681.6
15341	12.64	0.72727	0.	-2657.7
15342	12.548	0.72727	5.e-002	-4.9722
15343	12.548	1.	0.	-2680.2
15344	12.64	0.90909	0.	-2656.3
15345	12.548	0.90909	5.e-002	-4.9764
15346	12.548	1.1818	0.	-2678.9
15347	12.64	1.0909	0.	-2654.9
15348	12.548	1.0909	5.e-002	-4.9793
15349	12.548	1.3636	0.	-2677.7
15350	12.64	1.2727	0.	-2653.7
15351	12.548	1.2727	5.e-002	-4.9819
15352	12.548	1.5455	0.	-2676.6
15353	12.64	1.4545	0.	-2652.6
15354	12.548	1.4545	5.e-002	-4.9844
15355	12.548	1.7273	0.	-2675.7
15356	12.64	1.6364	0.	-2651.6
15357	12.548	1.6364	5.e-002	-4.9865
15358	12.548	1.9091	0.	-2674.8
15359	12.64	1.8182	0.	-2650.7
15360	12.548	1.8182	5.e-002	-4.9885
15361	12.548	2.0909	0.	-2674.1
15362	12.64	2.	0.	-2649.9
15363	12.548	2.	5.e-002	-4.9901
15364	12.548	2.2727	0.	-2673.5
15365	12.64	2.1818	0.	-2649.3
15366	12.548	2.1818	5.e-002	-4.9915
15367	12.548	2.4545	0.	-2673.
15368	12.64	2.3636	0.	-2648.8
15369	12.548	2.3636	5.e-002	-4.9927
15370	12.548	2.6364	0.	-2672.7
15371	12.64	2.5455	0.	-2648.4
15372	12.548	2.5455	5.e-002	-4.9935
15373	12.548	2.8182	0.	-2672.5
15374	12.64	2.7273	0.	-2648.1
15375	12.548	2.7273	5.e-002	-4.9941
15376	12.548	3.	0.	-2672.5
15377	12.64	2.9091	0.	-2648.
15378	12.548	2.9091	5.e-002	-4.9944
15379	12.548	3.1818	0.	-2672.5
15380	12.64	3.0909	0.	-2648.
15381	12.548	3.0909	5.e-002	-4.9944
15382	12.548	3.3636	0.	-2672.7
15383	12.64	3.2727	0.	-2648.1
15384	12.548	3.2727	5.e-002	-4.9942
15385	12.548	3.5455	0.	-2673.
15386	12.64	3.4545	0.	-2648.4
15387	12.548	3.4545	5.e-002	-4.9936
15388	12.548	3.7273	0.	-2673.5
15389	12.64	3.6364	0.	-2648.8
15390	12.548	3.6364	5.e-002	-4.9927
15391	12.548	3.9091	0.	-2674.1
15392	12.64	3.8182	0.	-2649.3
15393	12.548	3.8182	5.e-002	-4.9916
15394	12.548	4.0909	0.	-2674.8
15395	12.64	4.	0.	-2649.9
15396	12.548	4.	5.e-002	-4.9902
15397	12.548	4.2727	0.	-2675.7
15398	12.64	4.1818	0.	-2650.7
15399	12.548	4.1818	5.e-002	-4.9886
15400	12.548	4.4545	0.	-2676.6
15401	12.64	4.3636	0.	-2651.6
15402	12.548	4.3636	5.e-002	-4.9867
15403	12.548	4.6364	0.	-2677.7
15404	12.64	4.5455	0.	-2652.6
15405	12.548	4.5455	5.e-002	-4.9845
15406	12.548	4.8182	0.	-2678.9
15407	12.64	4.7273	0.	-2653.7
15408	12.548	4.7273	5.e-002	-4.9821
15409	12.548	5.	0.	-2680.2
15410	12.64	4.9091	0.	-2654.9
15411	12.548	4.9091	5.e-002	-4.9795
15412	12.548	5.1818	0.	-2681.6
15413	12.64	5.0909	0.	-2656.3
15414	12.548	5.0909	5.e-002	-4.9767
15415	12.548	5.3636	0.	-2683.1
15416	12.64	5.2727	0.	-2657.7
15417	12.548	5.2727	5.e-002	-4.9724
15418	12.548	5.5455	0.	-2684.7
15419	12.64	5.4545	0.	-2659.2
15420	12.548	5.4545	5.e-002	-4.9501
15421	12.548	5.7273	0.	-2687.1
15422	12.64	5.6364	0.	-2660.9
15423	12.548	5.6364	5.e-002	-4.6522
15424	12.64	5.8182	0.	-2664.1
15425	12.548	5.8182	5.e-002	-0.13825
15426	12.548	5.9091	0.	-2684.9
15427	12.733	0.27273	0.	-2637.8
15428	12.825	0.18182	0.	-2614.9
15429	12.733	0.18182	5.e-002	-0.10409
15430	12.733	9.0909e-002	0.	-2635.4
15431	12.733	0.45455	0.	-2635.4
15432	12.825	0.36364	0.	-2611.7
15433	12.733	0.36364	5.e-002	-4.6281
15434	12.733	0.63636	0.	-2633.8
15435	12.825	0.54545	0.	-2610.
15436	12.733	0.54545	5.e-002	-4.9263
15437	12.733	0.81818	0.	-2632.3
15438	12.825	0.72727	0.	-2608.5
15439	12.733	0.72727	5.e-002	-4.9484
15440	12.733	1.	0.	-2631.
15441	12.825	0.90909	0.	-2607.1
15442	12.733	0.90909	5.e-002	-4.9524
15443	12.733	1.1818	0.	-2629.7
15444	12.825	1.0909	0.	-2605.8
15445	12.733	1.0909	5.e-002	-4.9551
15446	12.733	1.3636	0.	-2628.6
15447	12.825	1.2727	0.	-2604.7
15448	12.733	1.2727	5.e-002	-4.9575
15449	12.733	1.5455	0.	-2627.5
15450	12.825	1.4545	0.	-2603.6
15451	12.733	1.4545	5.e-002	-4.9596
15452	12.733	1.7273	0.	-2626.6
15453	12.825	1.6364	0.	-2602.6
15454	12.733	1.6364	5.e-002	-4.9616
15455	12.733	1.9091	0.	-2625.8
15456	12.825	1.8182	0.	-2601.7
15457	12.733	1.8182	5.e-002	-4.9633
15458	12.733	2.0909	0.	-2625.1
15459	12.825	2.	0.	-2601.
15460	12.733	2.	5.e-002	-4.9649
15461	12.733	2.2727	0.	-2624.5
15462	12.825	2.1818	0.	-2600.4
15463	12.733	2.1818	5.e-002	-4.9662
15464	12.733	2.4545	0.	-2624.1
15465	12.825	2.3636	0.	-2599.9
15466	12.733	2.3636	5.e-002	-4.9672
15467	12.733	2.6364	0.	-2623.8
15468	12.825	2.5455	0.	-2599.5
15469	12.733	2.5455	5.e-002	-4.9679
15470	12.733	2.8182	0.	-2623.6
15471	12.825	2.7273	0.	-2599.3
15472	12.733	2.7273	5.e-002	-4.9685
15473	12.733	3.	0.	-2623.5
15474	12.825	2.9091	0.	-2599.1
15475	12.733	2.9091	5.e-002	-4.9687
15476	12.733	3.1818	0.	-2623.6
15477	12.825	3.0909	0.	-2599.1
15478	12.733	3.0909	5.e-002	-4.9687
15479	12.733	3.3636	0.	-2623.8
15480	12.825	3.2727	0.	-2599.3
15481	12.733	3.2727	5.e-002	-4.9685
15482	12.733	3.5455	0.	-2624.1
15483	12.825	3.4545	0.	-2599.5
15484	12.733	3.4545	5.e-002	-4.968
15485	12.733	3.7273	0.	-2624.5
15486	12.825	3.6364	0.	-2599.9
15487	12.733	3.6364	5.e-002	-4.9672
15488	12.733	3.9091	0.	-2625.1
15489	12.825	3.8182	0.	-2600.4
15490	12.733	3.8182	5.e-002	-4.9662
15491	12.733	4.0909	0.	-2625.8
15492	12.825	4.	0.	-2601.
15493	12.733	4.	5.e-002	-4.965
15494	12.733	4.2727	0.	-2626.6
15495	12.825	4.1818	0.	-2601.7
15496	12.733	4.1818	5.e-002	-4.9635
15497	12.733	4.4545	0.	-2627.5
15498	12.825	4.3636	0.	-2602.6
15499	12.733	4.3636	5.e-002	-4.9617
15500	12.733	4.6364	0.	-2628.6
15501	12.825	4.5455	0.	-2603.6
15502	12.733	4.5455	5.e-002	-4.9598
15503	12.733	4.8182	0.	-2629.7
15504	12.825	4.7273	0.	-2604.7
15505	12.733	4.7273	5.e-002	-4.9576
15506	12.733	5.	0.	-2631.
15507	12.825	4.9091	0.	-2605.8
15508	12.733	4.9091	5.e-002	-4.9553
15509	12.733	5.1818	0.	-2632.3
15510	12.825	5.0909	0.	-2607.1
15511	12.733	5.0909	5.e-002	-4.9526
15512	12.733	5.3636	0.	-2633.8
15513	12.825	5.2727	0.	-2608.5
15514	12.733	5.2727	5.e-002	-4.9487
15515	12.733	5.5455	0.	-2635.4
15516	12.825	5.4545	0.	-2610.
15517	12.733	5.4545	5.e-002	-4.9265
15518	12.733	5.7273	0.	-2637.8
15519	12.825	5.6364	0.	-2611.7
15520	12.733	5.6364	5.e-002	-4.6284
15521	12.825	5.8182	0.	-2614.9
15522	12.733	5.8182	5.e-002	-0.1043
15523	12.733	5.9091	0.	-2635.4
15524	12.917	0.27273	0.	-2588.7
15525	13.01	0.18182	0.	-2565.9
15526	12.917	0.18182	5.e-002	-7.2959e-002
15527	12.917	9.0909e-002	0.	-2586.2
15528	12.917	0.45455	0.	-2586.3
15529	13.01	0.36364	0.	-2562.7
15530	12.917	0.36364	5.e-002	-4.6047
15531	12.917	0.63636	0.	-2584.7
15532	13.01	0.54545	0.	-2561.1
15533	12.917	0.54545	5.e-002	-4.903
15534	12.917	0.81818	0.	-2583.3
15535	13.01	0.72727	0.	-2559.6
15536	12.917	0.72727	5.e-002	-4.9249
15537	12.917	1.	0.	-2582.
15538	13.01	0.90909	0.	-2558.2
15539	12.917	0.90909	5.e-002	-4.9287
15540	12.917	1.1818	0.	-2580.8
15541	13.01	1.0909	0.	-2557.
15542	12.917	1.0909	5.e-002	-4.9312
15543	12.917	1.3636	0.	-2579.6
15544	13.01	1.2727	0.	-2555.8
15545	12.917	1.2727	5.e-002	-4.9333
15546	12.917	1.5455	0.	-2578.6
15547	13.01	1.4545	0.	-2554.8
15548	12.917	1.4545	5.e-002	-4.9353
15549	12.917	1.7273	0.	-2577.7
15550	13.01	1.6364	0.	-2553.8
15551	12.917	1.6364	5.e-002	-4.9371
15552	12.917	1.9091	0.	-2576.9
15553	13.01	1.8182	0.	-2553.
15554	12.917	1.8182	5.e-002	-4.9387
15555	12.917	2.0909	0.	-2576.3
15556	13.01	2.	0.	-2552.3
15557	12.917	2.	5.e-002	-4.9401
15558	12.917	2.2727	0.	-2575.7
15559	13.01	2.1818	0.	-2551.7
15560	12.917	2.1818	5.e-002	-4.9412
15561	12.917	2.4545	0.	-2575.3
15562	13.01	2.3636	0.	-2551.2
15563	12.917	2.3636	5.e-002	-4.9422
15564	12.917	2.6364	0.	-2575.
15565	13.01	2.5455	0.	-2550.8
15566	12.917	2.5455	5.e-002	-4.9429
15567	12.917	2.8182	0.	-2574.8
15568	13.01	2.7273	0.	-2550.6
15569	12.917	2.7273	5.e-002	-4.9434
15570	12.917	3.	0.	-2574.7
15571	13.01	2.9091	0.	-2550.5
15572	12.917	2.9091	5.e-002	-4.9436
15573	12.917	3.1818	0.	-2574.8
15574	13.01	3.0909	0.	-2550.5
15575	12.917	3.0909	5.e-002	-4.9436
15576	12.917	3.3636	0.	-2575.
15577	13.01	3.2727	0.	-2550.6
15578	12.917	3.2727	5.e-002	-4.9434
15579	12.917	3.5455	0.	-2575.3
15580	13.01	3.4545	0.	-2550.8
15581	12.917	3.4545	5.e-002	-4.9429
15582	12.917	3.7273	0.	-2575.7
15583	13.01	3.6364	0.	-2551.2
15584	12.917	3.6364	5.e-002	-4.9422
15585	12.917	3.9091	0.	-2576.3
15586	13.01	3.8182	0.	-2551.7
15587	12.917	3.8182	5.e-002	-4.9413
15588	12.917	4.0909	0.	-2576.9
15589	13.01	4.	0.	-2552.3
15590	12.917	4.	5.e-002	-4.9402
15591	12.917	4.2727	0.	-2577.7
15592	13.01	4.1818	0.	-2553.
15593	12.917	4.1818	5.e-002	-4.9388
15594	12.917	4.4545	0.	-2578.6
15595	13.01	4.3636	0.	-2553.8
15596	12.917	4.3636	5.e-002	-4.9373
15597	12.917	4.6364	0.	-2579.6
15598	13.01	4.5455	0.	-2554.8
15599	12.917	4.5455	5.e-002	-4.9355
15600	12.917	4.8182	0.	-2580.8
15601	13.01	4.7273	0.	-2555.8
15602	12.917	4.7273	5.e-002	-4.9335
15603	12.917	5.	0.	-2582.
15604	13.01	4.9091	0.	-2557.
15605	12.917	4.9091	5.e-002	-4.9314
15606	12.917	5.1818	0.	-2583.3
15607	13.01	5.0909	0.	-2558.2
15608	12.917	5.0909	5.e-002	-4.9289
15609	12.917	5.3636	0.	-2584.7
15610	13.01	5.2727	0.	-2559.6
15611	12.917	5.2727	5.e-002	-4.9252
15612	12.917	5.5455	0.	-2586.3
15613	13.01	5.4545	0.	-2561.1
15614	12.917	5.4545	5.e-002	-4.9032
15615	12.917	5.7273	0.	-2588.7
15616	13.01	5.6364	0.	-2562.7
15617	12.917	5.6364	5.e-002	-4.605
15618	13.01	5.8182	0.	-2565.9
15619	12.917	5.8182	5.e-002	-7.3158e-002
15620	12.917	5.9091	0.	-2586.2
15621	13.102	0.27273	0.	-2539.8
15622	13.194	0.18182	0.	-2517.1
15623	13.102	0.18182	5.e-002	-4.4595e-002
15624	13.102	9.0909e-002	0.	-2537.2
15625	13.102	0.45455	0.	-2537.4
15626	13.194	0.36364	0.	-2513.9
15627	13.102	0.36364	5.e-002	-4.5818
15628	13.102	0.63636	0.	-2535.9
15629	13.194	0.54545	0.	-2512.3
15630	13.102	0.54545	5.e-002	-4.88
15631	13.102	0.81818	0.	-2534.5
15632	13.194	0.72727	0.	-2510.9
15633	13.102	0.72727	5.e-002	-4.9018
15634	13.102	1.	0.	-2533.2
15635	13.194	0.90909	0.	-2509.5
15636	13.102	0.90909	5.e-002	-4.9054
15637	13.102	1.1818	0.	-2532.
15638	13.194	1.0909	0.	-2508.3
15639	13.102	1.0909	5.e-002	-4.9076
15640	13.102	1.3636	0.	-2530.9
15641	13.194	1.2727	0.	-2507.2
15642	13.102	1.2727	5.e-002	-4.9096
15643	13.102	1.5455	0.	-2529.9
15644	13.194	1.4545	0.	-2506.2
15645	13.102	1.4545	5.e-002	-4.9115
15646	13.102	1.7273	0.	-2529.1
15647	13.194	1.6364	0.	-2505.2
15648	13.102	1.6364	5.e-002	-4.9131
15649	13.102	1.9091	0.	-2528.3
15650	13.194	1.8182	0.	-2504.4
15651	13.102	1.8182	5.e-002	-4.9146
15652	13.102	2.0909	0.	-2527.6
15653	13.194	2.	0.	-2503.7
15654	13.102	2.	5.e-002	-4.9158
15655	13.102	2.2727	0.	-2527.1
15656	13.194	2.1818	0.	-2503.1
15657	13.102	2.1818	5.e-002	-4.9169
15658	13.102	2.4545	0.	-2526.7
15659	13.194	2.3636	0.	-2502.7
15660	13.102	2.3636	5.e-002	-4.9177
15661	13.102	2.6364	0.	-2526.4
15662	13.194	2.5455	0.	-2502.3
15663	13.102	2.5455	5.e-002	-4.9184
15664	13.102	2.8182	0.	-2526.2
15665	13.194	2.7273	0.	-2502.1
15666	13.102	2.7273	5.e-002	-4.9187
15667	13.102	3.	0.	-2526.2
15668	13.194	2.9091	0.	-2502.
15669	13.102	2.9091	5.e-002	-4.919
15670	13.102	3.1818	0.	-2526.2
15671	13.194	3.0909	0.	-2502.
15672	13.102	3.0909	5.e-002	-4.919
15673	13.102	3.3636	0.	-2526.4
15674	13.194	3.2727	0.	-2502.1
15675	13.102	3.2727	5.e-002	-4.9188
15676	13.102	3.5455	0.	-2526.7
15677	13.194	3.4545	0.	-2502.3
15678	13.102	3.4545	5.e-002	-4.9184
15679	13.102	3.7273	0.	-2527.1
15680	13.194	3.6364	0.	-2502.7
15681	13.102	3.6364	5.e-002	-4.9178
15682	13.102	3.9091	0.	-2527.6
15683	13.194	3.8182	0.	-2503.1
15684	13.102	3.8182	5.e-002	-4.9169
15685	13.102	4.0909	0.	-2528.3
15686	13.194	4.	0.	-2503.7
15687	13.102	4.	5.e-002	-4.9159
15688	13.102	4.2727	0.	-2529.1
15689	13.194	4.1818	0.	-2504.4
15690	13.102	4.1818	5.e-002	-4.9147
15691	13.102	4.4545	0.	-2529.9
15692	13.194	4.3636	0.	-2505.2
15693	13.102	4.3636	5.e-002	-4.9132
15694	13.102	4.6364	0.	-2530.9
15695	13.194	4.5455	0.	-2506.2
15696	13.102	4.5455	5.e-002	-4.9116
15697	13.102	4.8182	0.	-2532.
15698	13.194	4.7273	0.	-2507.2
15699	13.102	4.7273	5.e-002	-4.9098
15700	13.102	5.	0.	-2533.2
15701	13.194	4.9091	0.	-2508.3
15702	13.102	4.9091	5.e-002	-4.9078
15703	13.102	5.1818	0.	-2534.5
15704	13.194	5.0909	0.	-2509.5
15705	13.102	5.0909	5.e-002	-4.9056
15706	13.102	5.3636	0.	-2535.9
15707	13.194	5.2727	0.	-2510.9
15708	13.102	5.2727	5.e-002	-4.902
15709	13.102	5.5455	0.	-2537.4
15710	13.194	5.4545	0.	-2512.3
15711	13.102	5.4545	5.e-002	-4.8802
15712	13.102	5.7273	0.	-2539.8
15713	13.194	5.6364	0.	-2513.9
15714	13.102	5.6364	5.e-002	-4.5821
15715	13.194	5.8182	0.	-2517.1
15716	13.102	5.8182	5.e-002	-4.4861e-002
15717	13.102	5.9091	0.	-2537.2
15718	13.287	0.27273	0.	-2491.1
15719	13.379	0.18182	0.	-2468.5
15720	13.287	0.18182	5.e-002	-1.9552e-002
15721	13.287	9.0909e-002	0.	-2488.4
15722	13.287	0.45455	0.	-2488.8
15723	13.379	0.36364	0.	-2465.3
15724	13.287	0.36364	5.e-002	-4.5594
15725	13.287	0.63636	0.	-2487.3
15726	13.379	0.54545	0.	-2463.8
15727	13.287	0.54545	5.e-002	-4.8574
15728	13.287	0.81818	0.	-2485.9
15729	13.379	0.72727	0.	-2462.3
15730	13.287	0.72727	5.e-002	-4.8789
15731	13.287	1.	0.	-2484.6
15732	13.379	0.90909	0.	-2461.
15733	13.287	0.90909	5.e-002	-4.8824
15734	13.287	1.1818	0.	-2483.5
15735	13.379	1.0909	0.	-2459.8
15736	13.287	1.0909	5.e-002	-4.8845
15737	13.287	1.3636	0.	-2482.4
15738	13.379	1.2727	0.	-2458.7
15739	13.287	1.2727	5.e-002	-4.8863
15740	13.287	1.5455	0.	-2481.4
15741	13.379	1.4545	0.	-2457.7
15742	13.287	1.4545	5.e-002	-4.888
15743	13.287	1.7273	0.	-2480.6
15744	13.379	1.6364	0.	-2456.8
15745	13.287	1.6364	5.e-002	-4.8895
15746	13.287	1.9091	0.	-2479.8
15747	13.379	1.8182	0.	-2456.1
15748	13.287	1.8182	5.e-002	-4.8908
15749	13.287	2.0909	0.	-2479.2
15750	13.379	2.	0.	-2455.4
15751	13.287	2.	5.e-002	-4.892
15752	13.287	2.2727	0.	-2478.7
15753	13.379	2.1818	0.	-2454.8
15754	13.287	2.1818	5.e-002	-4.8929
15755	13.287	2.4545	0.	-2478.3
15756	13.379	2.3636	0.	-2454.3
15757	13.287	2.3636	5.e-002	-4.8937
15758	13.287	2.6364	0.	-2478.
15759	13.379	2.5455	0.	-2454.
15760	13.287	2.5455	5.e-002	-4.8943
15761	13.287	2.8182	0.	-2477.8
15762	13.379	2.7273	0.	-2453.8
15763	13.287	2.7273	5.e-002	-4.8947
15764	13.287	3.	0.	-2477.8
15765	13.379	2.9091	0.	-2453.7
15766	13.287	2.9091	5.e-002	-4.8949
15767	13.287	3.1818	0.	-2477.8
15768	13.379	3.0909	0.	-2453.7
15769	13.287	3.0909	5.e-002	-4.8949
15770	13.287	3.3636	0.	-2478.
15771	13.379	3.2727	0.	-2453.8
15772	13.287	3.2727	5.e-002	-4.8947
15773	13.287	3.5455	0.	-2478.3
15774	13.379	3.4545	0.	-2454.
15775	13.287	3.4545	5.e-002	-4.8944
15776	13.287	3.7273	0.	-2478.7
15777	13.379	3.6364	0.	-2454.3
15778	13.287	3.6364	5.e-002	-4.8938
15779	13.287	3.9091	0.	-2479.2
15780	13.379	3.8182	0.	-2454.8
15781	13.287	3.8182	5.e-002	-4.893
15782	13.287	4.0909	0.	-2479.8
15783	13.379	4.	0.	-2455.4
15784	13.287	4.	5.e-002	-4.8921
15785	13.287	4.2727	0.	-2480.6
15786	13.379	4.1818	0.	-2456.1
15787	13.287	4.1818	5.e-002	-4.8909
15788	13.287	4.4545	0.	-2481.4
15789	13.379	4.3636	0.	-2456.8
15790	13.287	4.3636	5.e-002	-4.8896
15791	13.287	4.6364	0.	-2482.4
15792	13.379	4.5455	0.	-2457.7
15793	13.287	4.5455	5.e-002	-4.8882
15794	13.287	4.8182	0.	-2483.5
15795	13.379	4.7273	0.	-2458.7
15796	13.287	4.7273	5.e-002	-4.8865
15797	13.287	5.	0.	-2484.6
15798	13.379	4.9091	0.	-2459.8
15799	13.287	4.9091	5.e-002	-4.8846
15800	13.287	5.1818	0.	-2485.9
15801	13.379	5.0909	0.	-2461.
15802	13.287	5.0909	5.e-002	-4.8826
15803	13.287	5.3636	0.	-2487.3
15804	13.379	5.2727	0.	-2462.3
15805	13.287	5.2727	5.e-002	-4.8792
15806	13.287	5.5455	0.	-2488.8
15807	13.379	5.4545	0.	-2463.8
15808	13.287	5.4545	5.e-002	-4.8576
15809	13.287	5.7273	0.	-2491.1
15810	13.379	5.6364	0.	-2465.3
15811	13.287	5.6364	5.e-002	-4.5596
15812	13.379	5.8182	0.	-2468.5
15813	13.287	5.8182	5.e-002	-1.9805e-002
15814	13.287	5.9091	0.	-2488.4
15815	13.472	0.27273	0.	-2442.7
15816	13.564	0.18182	0.	-2420.2
15817	13.472	0.18182	5.e-002	-1.0552e-002
15818	13.472	9.0909e-002	0.	-2439.8
15819	13.472	0.45455	0.	-2440.3
15820	13.564	0.36364	0.	-2417.
15821	13.472	0.36364	5.e-002	-4.5372
15822	13.472	0.63636	0.	-2438.8
15823	13.564	0.54545	0.	-2415.4
15824	13.472	0.54545	5.e-002	-4.835
15825	13.472	0.81818	0.	-2437.5
15826	13.564	0.72727	0.	-2414.
15827	13.472	0.72727	5.e-002	-4.8564
15828	13.472	1.	0.	-2436.2
15829	13.564	0.90909	0.	-2412.7
15830	13.472	0.90909	5.e-002	-4.8596
15831	13.472	1.1818	0.	-2435.1
15832	13.564	1.0909	0.	-2411.6
15833	13.472	1.0909	5.e-002	-4.8616
15834	13.472	1.3636	0.	-2434.1
15835	13.564	1.2727	0.	-2410.5
15836	13.472	1.2727	5.e-002	-4.8633
15837	13.472	1.5455	0.	-2433.1
15838	13.564	1.4545	0.	-2409.5
15839	13.472	1.4545	5.e-002	-4.8649
15840	13.472	1.7273	0.	-2432.3
15841	13.564	1.6364	0.	-2408.6
15842	13.472	1.6364	5.e-002	-4.8663
15843	13.472	1.9091	0.	-2431.6
15844	13.564	1.8182	0.	-2407.9
15845	13.472	1.8182	5.e-002	-4.8675
15846	13.472	2.0909	0.	-2430.9
15847	13.564	2.	0.	-2407.2
15848	13.472	2.	5.e-002	-4.8685
15849	13.472	2.2727	0.	-2430.4
15850	13.564	2.1818	0.	-2406.7
15851	13.472	2.1818	5.e-002	-4.8694
15852	13.472	2.4545	0.	-2430.1
15853	13.564	2.3636	0.	-2406.2
15854	13.472	2.3636	5.e-002	-4.8701
15855	13.472	2.6364	0.	-2429.8
15856	13.564	2.5455	0.	-2405.9
15857	13.472	2.5455	5.e-002	-4.8707
15858	13.472	2.8182	0.	-2429.6
15859	13.564	2.7273	0.	-2405.7
15860	13.472	2.7273	5.e-002	-4.871
15861	13.472	3.	0.	-2429.5
15862	13.564	2.9091	0.	-2405.5
15863	13.472	2.9091	5.e-002	-4.8712
15864	13.472	3.1818	0.	-2429.6
15865	13.564	3.0909	0.	-2405.5
15866	13.472	3.0909	5.e-002	-4.8712
15867	13.472	3.3636	0.	-2429.8
15868	13.564	3.2727	0.	-2405.7
15869	13.472	3.2727	5.e-002	-4.8711
15870	13.472	3.5455	0.	-2430.1
15871	13.564	3.4545	0.	-2405.9
15872	13.472	3.4545	5.e-002	-4.8707
15873	13.472	3.7273	0.	-2430.4
15874	13.564	3.6364	0.	-2406.2
15875	13.472	3.6364	5.e-002	-4.8702
15876	13.472	3.9091	0.	-2430.9
15877	13.564	3.8182	0.	-2406.7
15878	13.472	3.8182	5.e-002	-4.8695
15879	13.472	4.0909	0.	-2431.6
15880	13.564	4.	0.	-2407.2
15881	13.472	4.	5.e-002	-4.8686
15882	13.472	4.2727	0.	-2432.3
15883	13.564	4.1818	0.	-2407.9
15884	13.472	4.1818	5.e-002	-4.8676
15885	13.472	4.4545	0.	-2433.1
15886	13.564	4.3636	0.	-2408.6
15887	13.472	4.3636	5.e-002	-4.8664
15888	13.472	4.6364	0.	-2434.1
15889	13.564	4.5455	0.	-2409.5
15890	13.472	4.5455	5.e-002	-4.865
15891	13.472	4.8182	0.	-2435.1
15892	13.564	4.7273	0.	-2410.5
15893	13.472	4.7273	5.e-002	-4.8635
15894	13.472	5.	0.	-2436.2
15895	13.564	4.9091	0.	-2411.6
15896	13.472	4.9091	5.e-002	-4.8618
15897	13.472	5.1818	0.	-2437.5
15898	13.564	5.0909	0.	-2412.7
15899	13.472	5.0909	5.e-002	-4.8598
15900	13.472	5.3636	0.	-2438.8
15901	13.564	5.2727	0.	-2414.
15902	13.472	5.2727	5.e-002	-4.8566
15903	13.472	5.5455	0.	-2440.3
15904	13.564	5.4545	0.	-2415.4
15905	13.472	5.4545	5.e-002	-4.8352
15906	13.472	5.7273	0.	-2442.7
15907	13.564	5.6364	0.	-2417.
15908	13.472	5.6364	5.e-002	-4.5375
15909	13.564	5.8182	0.	-2420.2
15910	13.472	5.8182	5.e-002	-1.0554e-002
15911	13.472	5.9091	0.	-2439.8
15912	13.656	0.27273	0.	-2394.4
15913	13.749	0.18182	0.	-2372.
15914	13.656	0.18182	5.e-002	-2.914e-002
15915	13.656	9.0909e-002	0.	-2391.5
15916	13.656	0.45455	0.	-2392.1
15917	13.749	0.36364	0.	-2368.8
15918	13.656	0.36364	5.e-002	-4.5154
15919	13.656	0.63636	0.	-2390.6
15920	13.749	0.54545	0.	-2367.3
15921	13.656	0.54545	5.e-002	-4.8128
15922	13.656	0.81818	0.	-2389.3
15923	13.749	0.72727	0.	-2365.9
15924	13.656	0.72727	5.e-002	-4.8341
15925	13.656	1.	0.	-2388.1
15926	13.749	0.90909	0.	-2364.7
15927	13.656	0.90909	5.e-002	-4.8372
15928	13.656	1.1818	0.	-2386.9
15929	13.749	1.0909	0.	-2363.5
15930	13.656	1.0909	5.e-002	-4.839
15931	13.656	1.3636	0.	-2385.9
15932	13.749	1.2727	0.	-2362.4
15933	13.656	1.2727	5.e-002	-4.8406
15934	13.656	1.5455	0.	-2385.
15935	13.749	1.4545	0.	-2361.5
15936	13.656	1.4545	5.e-002	-4.842
15937	13.656	1.7273	0.	-2384.2
15938	13.749	1.6364	0.	-2360.6
15939	13.656	1.6364	5.e-002	-4.8433
15940	13.656	1.9091	0.	-2383.5
15941	13.749	1.8182	0.	-2359.9
15942	13.656	1.8182	5.e-002	-4.8445
15943	13.656	2.0909	0.	-2382.9
15944	13.749	2.	0.	-2359.2
15945	13.656	2.	5.e-002	-4.8454
15946	13.656	2.2727	0.	-2382.4
15947	13.749	2.1818	0.	-2358.7
15948	13.656	2.1818	5.e-002	-4.8463
15949	13.656	2.4545	0.	-2382.
15950	13.749	2.3636	0.	-2358.3
15951	13.656	2.3636	5.e-002	-4.8469
15952	13.656	2.6364	0.	-2381.7
15953	13.749	2.5455	0.	-2357.9
15954	13.656	2.5455	5.e-002	-4.8474
15955	13.656	2.8182	0.	-2381.6
15956	13.749	2.7273	0.	-2357.7
15957	13.656	2.7273	5.e-002	-4.8477
15958	13.656	3.	0.	-2381.5
15959	13.749	2.9091	0.	-2357.6
15960	13.656	2.9091	5.e-002	-4.8479
15961	13.656	3.1818	0.	-2381.6
15962	13.749	3.0909	0.	-2357.6
15963	13.656	3.0909	5.e-002	-4.8479
15964	13.656	3.3636	0.	-2381.7
15965	13.749	3.2727	0.	-2357.7
15966	13.656	3.2727	5.e-002	-4.8478
15967	13.656	3.5455	0.	-2382.
15968	13.749	3.4545	0.	-2357.9
15969	13.656	3.4545	5.e-002	-4.8475
15970	13.656	3.7273	0.	-2382.4
15971	13.749	3.6364	0.	-2358.3
15972	13.656	3.6364	5.e-002	-4.847
15973	13.656	3.9091	0.	-2382.9
15974	13.749	3.8182	0.	-2358.7
15975	13.656	3.8182	5.e-002	-4.8463
15976	13.656	4.0909	0.	-2383.5
15977	13.749	4.	0.	-2359.2
15978	13.656	4.	5.e-002	-4.8455
15979	13.656	4.2727	0.	-2384.2
15980	13.749	4.1818	0.	-2359.9
15981	13.656	4.1818	5.e-002	-4.8445
15982	13.656	4.4545	0.	-2385.
15983	13.749	4.3636	0.	-2360.6
15984	13.656	4.3636	5.e-002	-4.8434
15985	13.656	4.6364	0.	-2385.9
15986	13.749	4.5455	0.	-2361.5
15987	13.656	4.5455	5.e-002	-4.8422
15988	13.656	4.8182	0.	-2386.9
15989	13.749	4.7273	0.	-2362.4
15990	13.656	4.7273	5.e-002	-4.8408
15991	13.656	5.	0.	-2388.1
15992	13.749	4.9091	0.	-2363.5
15993	13.656	4.9091	5.e-002	-4.8392
15994	13.656	5.1818	0.	-2389.3
15995	13.749	5.0909	0.	-2364.7
15996	13.656	5.0909	5.e-002	-4.8373
15997	13.656	5.3636	0.	-2390.6
15998	13.749	5.2727	0.	-2365.9
15999	13.656	5.2727	5.e-002	-4.8342
16000	13.656	5.5455	0.	-2392.1
16001	13.749	5.4545	0.	-2367.3
16002	13.656	5.4545	5.e-002	-4.813
16003	13.656	5.7273	0.	-2394.4
16004	13.749	5.6364	0.	-2368.8
16005	13.656	5.6364	5.e-002	-4.5157
16006	13.749	5.8182	0.	-2372.
16007	13.656	5.8182	5.e-002	-2.9254e-002
16008	13.656	5.9091	0.	-2391.5
16009	13.841	0.27273	0.	-2346.4
16010	13.933	0.18182	0.	-2324.1
16011	13.841	0.18182	5.e-002	-4.8361e-002
16012	13.841	9.0909e-002	0.	-2343.3
16013	13.841	0.45455	0.	-2344.
16014	13.933	0.36364	0.	-2320.9
16015	13.841	0.36364	5.e-002	-4.4939
16016	13.841	0.63636	0.	-2342.6
16017	13.933	0.54545	0.	-2319.4
16018	13.841	0.54545	5.e-002	-4.7908
16019	13.841	0.81818	0.	-2341.3
16020	13.933	0.72727	0.	-2318.
16021	13.841	0.72727	5.e-002	-4.8119
16022	13.841	1.	0.	-2340.1
16023	13.933	0.90909	0.	-2316.8
16024	13.841	0.90909	5.e-002	-4.8149
16025	13.841	1.1818	0.	-2339.
16026	13.933	1.0909	0.	-2315.6
16027	13.841	1.0909	5.e-002	-4.8166
16028	13.841	1.3636	0.	-2338.
16029	13.933	1.2727	0.	-2314.6
16030	13.841	1.2727	5.e-002	-4.8182
16031	13.841	1.5455	0.	-2337.1
16032	13.933	1.4545	0.	-2313.7
16033	13.841	1.4545	5.e-002	-4.8195
16034	13.841	1.7273	0.	-2336.3
16035	13.933	1.6364	0.	-2312.8
16036	13.841	1.6364	5.e-002	-4.8207
16037	13.841	1.9091	0.	-2335.6
16038	13.933	1.8182	0.	-2312.1
16039	13.841	1.8182	5.e-002	-4.8217
16040	13.841	2.0909	0.	-2335.
16041	13.933	2.	0.	-2311.5
16042	13.841	2.	5.e-002	-4.8226
16043	13.841	2.2727	0.	-2334.5
16044	13.933	2.1818	0.	-2310.9
16045	13.841	2.1818	5.e-002	-4.8234
16046	13.841	2.4545	0.	-2334.2
16047	13.933	2.3636	0.	-2310.5
16048	13.841	2.3636	5.e-002	-4.824
16049	13.841	2.6364	0.	-2333.9
16050	13.933	2.5455	0.	-2310.2
16051	13.841	2.5455	5.e-002	-4.8245
16052	13.841	2.8182	0.	-2333.7
16053	13.933	2.7273	0.	-2310.
16054	13.841	2.7273	5.e-002	-4.8248
16055	13.841	3.	0.	-2333.7
16056	13.933	2.9091	0.	-2309.9
16057	13.841	2.9091	5.e-002	-4.8249
16058	13.841	3.1818	0.	-2333.7
16059	13.933	3.0909	0.	-2309.9
16060	13.841	3.0909	5.e-002	-4.825
16061	13.841	3.3636	0.	-2333.9
16062	13.933	3.2727	0.	-2310.
16063	13.841	3.2727	5.e-002	-4.8248
16064	13.841	3.5455	0.	-2334.2
16065	13.933	3.4545	0.	-2310.2
16066	13.841	3.4545	5.e-002	-4.8245
16067	13.841	3.7273	0.	-2334.5
16068	13.933	3.6364	0.	-2310.5
16069	13.841	3.6364	5.e-002	-4.8241
16070	13.841	3.9091	0.	-2335.
16071	13.933	3.8182	0.	-2310.9
16072	13.841	3.8182	5.e-002	-4.8235
16073	13.841	4.0909	0.	-2335.6
16074	13.933	4.	0.	-2311.5
16075	13.841	4.	5.e-002	-4.8227
16076	13.841	4.2727	0.	-2336.3
16077	13.933	4.1818	0.	-2312.1
16078	13.841	4.1818	5.e-002	-4.8219
16079	13.841	4.4545	0.	-2337.1
16080	13.933	4.3636	0.	-2312.8
16081	13.841	4.3636	5.e-002	-4.8208
16082	13.841	4.6364	0.	-2338.
16083	13.933	4.5455	0.	-2313.7
16084	13.841	4.5455	5.e-002	-4.8196
16085	13.841	4.8182	0.	-2339.
16086	13.933	4.7273	0.	-2314.6
16087	13.841	4.7273	5.e-002	-4.8183
16088	13.841	5.	0.	-2340.1
16089	13.933	4.9091	0.	-2315.6
16090	13.841	4.9091	5.e-002	-4.8168
16091	13.841	5.1818	0.	-2341.3
16092	13.933	5.0909	0.	-2316.8
16093	13.841	5.0909	5.e-002	-4.8151
16094	13.841	5.3636	0.	-2342.6
16095	13.933	5.2727	0.	-2318.
16096	13.841	5.2727	5.e-002	-4.8122
16097	13.841	5.5455	0.	-2344.
16098	13.933	5.4545	0.	-2319.4
16099	13.841	5.4545	5.e-002	-4.7911
16100	13.841	5.7273	0.	-2346.4
16101	13.933	5.6364	0.	-2320.9
16102	13.841	5.6364	5.e-002	-4.4942
16103	13.933	5.8182	0.	-2324.1
16104	13.841	5.8182	5.e-002	-4.8511e-002
16105	13.841	5.9091	0.	-2343.3
16106	14.026	0.27273	0.	-2298.5
16107	14.118	0.18182	0.	-2276.4
16108	14.026	0.18182	5.e-002	-6.602e-002
16109	14.026	9.0909e-002	0.	-2295.4
16110	14.026	0.45455	0.	-2296.2
16111	14.118	0.36364	0.	-2273.2
16112	14.026	0.36364	5.e-002	-4.4728
16113	14.026	0.63636	0.	-2294.8
16114	14.118	0.54545	0.	-2271.6
16115	14.026	0.54545	5.e-002	-4.7691
16116	14.026	0.81818	0.	-2293.5
16117	14.118	0.72727	0.	-2270.3
16118	14.026	0.72727	5.e-002	-4.7901
16119	14.026	1.	0.	-2292.3
16120	14.118	0.90909	0.	-2269.1
16121	14.026	0.90909	5.e-002	-4.793
16122	14.026	1.1818	0.	-2291.2
16123	14.118	1.0909	0.	-2268.
16124	14.026	1.0909	5.e-002	-4.7946
16125	14.026	1.3636	0.	-2290.2
16126	14.118	1.2727	0.	-2267.
16127	14.026	1.2727	5.e-002	-4.796
16128	14.026	1.5455	0.	-2289.4
16129	14.118	1.4545	0.	-2266.
16130	14.026	1.4545	5.e-002	-4.7972
16131	14.026	1.7273	0.	-2288.6
16132	14.118	1.6364	0.	-2265.2
16133	14.026	1.6364	5.e-002	-4.7984
16134	14.026	1.9091	0.	-2287.9
16135	14.118	1.8182	0.	-2264.5
16136	14.026	1.8182	5.e-002	-4.7993
16137	14.026	2.0909	0.	-2287.3
16138	14.118	2.	0.	-2263.9
16139	14.026	2.	5.e-002	-4.8002
16140	14.026	2.2727	0.	-2286.9
16141	14.118	2.1818	0.	-2263.4
16142	14.026	2.1818	5.e-002	-4.8009
16143	14.026	2.4545	0.	-2286.5
16144	14.118	2.3636	0.	-2262.9
16145	14.026	2.3636	5.e-002	-4.8015
16146	14.026	2.6364	0.	-2286.2
16147	14.118	2.5455	0.	-2262.6
16148	14.026	2.5455	5.e-002	-4.8019
16149	14.026	2.8182	0.	-2286.1
16150	14.118	2.7273	0.	-2262.4
16151	14.026	2.7273	5.e-002	-4.8022
16152	14.026	3.	0.	-2286.
16153	14.118	2.9091	0.	-2262.3
16154	14.026	2.9091	5.e-002	-4.8024
16155	14.026	3.1818	0.	-2286.1
16156	14.118	3.0909	0.	-2262.3
16157	14.026	3.0909	5.e-002	-4.8024
16158	14.026	3.3636	0.	-2286.2
16159	14.118	3.2727	0.	-2262.4
16160	14.026	3.2727	5.e-002	-4.8022
16161	14.026	3.5455	0.	-2286.5
16162	14.118	3.4545	0.	-2262.6
16163	14.026	3.4545	5.e-002	-4.802
16164	14.026	3.7273	0.	-2286.9
16165	14.118	3.6364	0.	-2262.9
16166	14.026	3.6364	5.e-002	-4.8015
16167	14.026	3.9091	0.	-2287.3
16168	14.118	3.8182	0.	-2263.4
16169	14.026	3.8182	5.e-002	-4.801
16170	14.026	4.0909	0.	-2287.9
16171	14.118	4.	0.	-2263.9
16172	14.026	4.	5.e-002	-4.8003
16173	14.026	4.2727	0.	-2288.6
16174	14.118	4.1818	0.	-2264.5
16175	14.026	4.1818	5.e-002	-4.7994
16176	14.026	4.4545	0.	-2289.4
16177	14.118	4.3636	0.	-2265.2
16178	14.026	4.3636	5.e-002	-4.7985
16179	14.026	4.6364	0.	-2290.2
16180	14.118	4.5455	0.	-2266.
16181	14.026	4.5455	5.e-002	-4.7974
16182	14.026	4.8182	0.	-2291.2
16183	14.118	4.7273	0.	-2267.
16184	14.026	4.7273	5.e-002	-4.7961
16185	14.026	5.	0.	-2292.3
16186	14.118	4.9091	0.	-2268.
16187	14.026	4.9091	5.e-002	-4.7948
16188	14.026	5.1818	0.	-2293.5
16189	14.118	5.0909	0.	-2269.1
16190	14.026	5.0909	5.e-002	-4.7932
16191	14.026	5.3636	0.	-2294.8
16192	14.118	5.2727	0.	-2270.3
16193	14.026	5.2727	5.e-002	-4.7903
16194	14.026	5.5455	0.	-2296.2
16195	14.118	5.4545	0.	-2271.6
16196	14.026	5.4545	5.e-002	-4.7694
16197	14.026	5.7273	0.	-2298.5
16198	14.118	5.6364	0.	-2273.2
16199	14.026	5.6364	5.e-002	-4.473
16200	14.118	5.8182	0.	-2276.4
16201	14.026	5.8182	5.e-002	-6.6146e-002
16202	14.026	5.9091	0.	-2295.4
16203	14.21	0.27273	0.	-2250.9
16204	14.303	0.18182	0.	-2228.9
16205	14.21	0.18182	5.e-002	-8.2025e-002
16206	14.21	9.0909e-002	0.	-2247.7
16207	14.21	0.45455	0.	-2248.6
16208	14.303	0.36364	0.	-2225.6
16209	14.21	0.36364	5.e-002	-4.452
16210	14.21	0.63636	0.	-2247.2
16211	14.303	0.54545	0.	-2224.1
16212	14.21	0.54545	5.e-002	-4.7477
16213	14.21	0.81818	0.	-2245.9
16214	14.303	0.72727	0.	-2222.8
16215	14.21	0.72727	5.e-002	-4.7685
16216	14.21	1.	0.	-2244.7
16217	14.303	0.90909	0.	-2221.6
16218	14.21	0.90909	5.e-002	-4.7712
16219	14.21	1.1818	0.	-2243.7
16220	14.303	1.0909	0.	-2220.5
16221	14.21	1.0909	5.e-002	-4.7728
16222	14.21	1.3636	0.	-2242.7
16223	14.303	1.2727	0.	-2219.5
16224	14.21	1.2727	5.e-002	-4.7741
16225	14.21	1.5455	0.	-2241.8
16226	14.303	1.4545	0.	-2218.6
16227	14.21	1.4545	5.e-002	-4.7753
16228	14.21	1.7273	0.	-2241.1
16229	14.303	1.6364	0.	-2217.8
16230	14.21	1.6364	5.e-002	-4.7763
16231	14.21	1.9091	0.	-2240.4
16232	14.303	1.8182	0.	-2217.1
16233	14.21	1.8182	5.e-002	-4.7772
16234	14.21	2.0909	0.	-2239.9
16235	14.303	2.	0.	-2216.5
16236	14.21	2.	5.e-002	-4.778
16237	14.21	2.2727	0.	-2239.4
16238	14.303	2.1818	0.	-2216.
16239	14.21	2.1818	5.e-002	-4.7787
16240	14.21	2.4545	0.	-2239.
16241	14.303	2.3636	0.	-2215.6
16242	14.21	2.3636	5.e-002	-4.7792
16243	14.21	2.6364	0.	-2238.8
16244	14.303	2.5455	0.	-2215.3
16245	14.21	2.5455	5.e-002	-4.7796
16246	14.21	2.8182	0.	-2238.6
16247	14.303	2.7273	0.	-2215.1
16248	14.21	2.7273	5.e-002	-4.7799
16249	14.21	3.	0.	-2238.6
16250	14.303	2.9091	0.	-2215.
16251	14.21	2.9091	5.e-002	-4.7801
16252	14.21	3.1818	0.	-2238.6
16253	14.303	3.0909	0.	-2215.
16254	14.21	3.0909	5.e-002	-4.7801
16255	14.21	3.3636	0.	-2238.8
16256	14.303	3.2727	0.	-2215.1
16257	14.21	3.2727	5.e-002	-4.7799
16258	14.21	3.5455	0.	-2239.
16259	14.303	3.4545	0.	-2215.3
16260	14.21	3.4545	5.e-002	-4.7797
16261	14.21	3.7273	0.	-2239.4
16262	14.303	3.6364	0.	-2215.6
16263	14.21	3.6364	5.e-002	-4.7793
16264	14.21	3.9091	0.	-2239.9
16265	14.303	3.8182	0.	-2216.
16266	14.21	3.8182	5.e-002	-4.7788
16267	14.21	4.0909	0.	-2240.4
16268	14.303	4.	0.	-2216.5
16269	14.21	4.	5.e-002	-4.7781
16270	14.21	4.2727	0.	-2241.1
16271	14.303	4.1818	0.	-2217.1
16272	14.21	4.1818	5.e-002	-4.7773
16273	14.21	4.4545	0.	-2241.8
16274	14.303	4.3636	0.	-2217.8
16275	14.21	4.3636	5.e-002	-4.7764
16276	14.21	4.6364	0.	-2242.7
16277	14.303	4.5455	0.	-2218.6
16278	14.21	4.5455	5.e-002	-4.7754
16279	14.21	4.8182	0.	-2243.7
16280	14.303	4.7273	0.	-2219.5
16281	14.21	4.7273	5.e-002	-4.7742
16282	14.21	5.	0.	-2244.7
16283	14.303	4.9091	0.	-2220.5
16284	14.21	4.9091	5.e-002	-4.7729
16285	14.21	5.1818	0.	-2245.9
16286	14.303	5.0909	0.	-2221.6
16287	14.21	5.0909	5.e-002	-4.7715
16288	14.21	5.3636	0.	-2247.2
16289	14.303	5.2727	0.	-2222.8
16290	14.21	5.2727	5.e-002	-4.7687
16291	14.21	5.5455	0.	-2248.6
16292	14.303	5.4545	0.	-2224.1
16293	14.21	5.4545	5.e-002	-4.7479
16294	14.21	5.7273	0.	-2250.9
16295	14.303	5.6364	0.	-2225.6
16296	14.21	5.6364	5.e-002	-4.4522
16297	14.303	5.8182	0.	-2228.9
16298	14.21	5.8182	5.e-002	-8.218e-002
16299	14.21	5.9091	0.	-2247.7
16300	14.395	0.27273	0.	-2203.5
16301	14.487	0.18182	0.	-2181.6
16302	14.395	0.18182	5.e-002	-9.6445e-002
16303	14.395	9.0909e-002	0.	-2200.2
16304	14.395	0.45455	0.	-2201.2
16305	14.487	0.36364	0.	-2178.3
16306	14.395	0.36364	5.e-002	-4.4314
16307	14.395	0.63636	0.	-2199.8
16308	14.487	0.54545	0.	-2176.8
16309	14.395	0.54545	5.e-002	-4.7264
16310	14.395	0.81818	0.	-2198.5
16311	14.487	0.72727	0.	-2175.5
16312	14.395	0.72727	5.e-002	-4.7471
16313	14.395	1.	0.	-2197.4
16314	14.487	0.90909	0.	-2174.3
16315	14.395	0.90909	5.e-002	-4.7498
16316	14.395	1.1818	0.	-2196.3
16317	14.487	1.0909	0.	-2173.3
16318	14.395	1.0909	5.e-002	-4.7512
16319	14.395	1.3636	0.	-2195.4
16320	14.487	1.2727	0.	-2172.3
16321	14.395	1.2727	5.e-002	-4.7525
16322	14.395	1.5455	0.	-2194.5
16323	14.487	1.4545	0.	-2171.4
16324	14.395	1.4545	5.e-002	-4.7536
16325	14.395	1.7273	0.	-2193.8
16326	14.487	1.6364	0.	-2170.6
16327	14.395	1.6364	5.e-002	-4.7546
16328	14.395	1.9091	0.	-2193.1
16329	14.487	1.8182	0.	-2169.9
16330	14.395	1.8182	5.e-002	-4.7554
16331	14.395	2.0909	0.	-2192.6
16332	14.487	2.	0.	-2169.3
16333	14.395	2.	5.e-002	-4.7562
16334	14.395	2.2727	0.	-2192.1
16335	14.487	2.1818	0.	-2168.8
16336	14.395	2.1818	5.e-002	-4.7568
16337	14.395	2.4545	0.	-2191.8
16338	14.487	2.3636	0.	-2168.4
16339	14.395	2.3636	5.e-002	-4.7573
16340	14.395	2.6364	0.	-2191.5
16341	14.487	2.5455	0.	-2168.1
16342	14.395	2.5455	5.e-002	-4.7577
16343	14.395	2.8182	0.	-2191.4
16344	14.487	2.7273	0.	-2167.9
16345	14.395	2.7273	5.e-002	-4.7579
16346	14.395	3.	0.	-2191.3
16347	14.487	2.9091	0.	-2167.8
16348	14.395	2.9091	5.e-002	-4.758
16349	14.395	3.1818	0.	-2191.4
16350	14.487	3.0909	0.	-2167.8
16351	14.395	3.0909	5.e-002	-4.7581
16352	14.395	3.3636	0.	-2191.5
16353	14.487	3.2727	0.	-2167.9
16354	14.395	3.2727	5.e-002	-4.758
16355	14.395	3.5455	0.	-2191.8
16356	14.487	3.4545	0.	-2168.1
16357	14.395	3.4545	5.e-002	-4.7577
16358	14.395	3.7273	0.	-2192.1
16359	14.487	3.6364	0.	-2168.4
16360	14.395	3.6364	5.e-002	-4.7574
16361	14.395	3.9091	0.	-2192.6
16362	14.487	3.8182	0.	-2168.8
16363	14.395	3.8182	5.e-002	-4.7569
16364	14.395	4.0909	0.	-2193.1
16365	14.487	4.	0.	-2169.3
16366	14.395	4.	5.e-002	-4.7563
16367	14.395	4.2727	0.	-2193.8
16368	14.487	4.1818	0.	-2169.9
16369	14.395	4.1818	5.e-002	-4.7555
16370	14.395	4.4545	0.	-2194.5
16371	14.487	4.3636	0.	-2170.6
16372	14.395	4.3636	5.e-002	-4.7547
16373	14.395	4.6364	0.	-2195.4
16374	14.487	4.5455	0.	-2171.4
16375	14.395	4.5455	5.e-002	-4.7537
16376	14.395	4.8182	0.	-2196.3
16377	14.487	4.7273	0.	-2172.3
16378	14.395	4.7273	5.e-002	-4.7526
16379	14.395	5.	0.	-2197.4
16380	14.487	4.9091	0.	-2173.3
16381	14.395	4.9091	5.e-002	-4.7514
16382	14.395	5.1818	0.	-2198.5
16383	14.487	5.0909	0.	-2174.3
16384	14.395	5.0909	5.e-002	-4.75
16385	14.395	5.3636	0.	-2199.8
16386	14.487	5.2727	0.	-2175.5
16387	14.395	5.2727	5.e-002	-4.7473
16388	14.395	5.5455	0.	-2201.2
16389	14.487	5.4545	0.	-2176.8
16390	14.395	5.4545	5.e-002	-4.7266
16391	14.395	5.7273	0.	-2203.5
16392	14.487	5.6364	0.	-2178.3
16393	14.395	5.6364	5.e-002	-4.4317
16394	14.487	5.8182	0.	-2181.6
16395	14.395	5.8182	5.e-002	-9.6581e-002
16396	14.395	5.9091	0.	-2200.2
16397	14.58	0.27273	0.	-2156.3
16398	14.672	0.18182	0.	-2134.5
16399	14.58	0.18182	5.e-002	-0.10932
16400	14.58	9.0909e-002	0.	-2152.9
16401	14.58	0.45455	0.	-2154.
16402	14.672	0.36364	0.	-2131.2
16403	14.58	0.36364	5.e-002	-4.4113
16404	14.58	0.63636	0.	-2152.6
16405	14.672	0.54545	0.	-2129.7
16406	14.58	0.54545	5.e-002	-4.7054
16407	14.58	0.81818	0.	-2151.3
16408	14.672	0.72727	0.	-2128.4
16409	14.58	0.72727	5.e-002	-4.726
16410	14.58	1.	0.	-2150.2
16411	14.672	0.90909	0.	-2127.3
16412	14.58	0.90909	5.e-002	-4.7286
16413	14.58	1.1818	0.	-2149.2
16414	14.672	1.0909	0.	-2126.2
16415	14.58	1.0909	5.e-002	-4.7299
16416	14.58	1.3636	0.	-2148.2
16417	14.672	1.2727	0.	-2125.2
16418	14.58	1.2727	5.e-002	-4.7311
16419	14.58	1.5455	0.	-2147.4
16420	14.672	1.4545	0.	-2124.3
16421	14.58	1.4545	5.e-002	-4.7321
16422	14.58	1.7273	0.	-2146.6
16423	14.672	1.6364	0.	-2123.5
16424	14.58	1.6364	5.e-002	-4.7331
16425	14.58	1.9091	0.	-2146.
16426	14.672	1.8182	0.	-2122.9
16427	14.58	1.8182	5.e-002	-4.7339
16428	14.58	2.0909	0.	-2145.5
16429	14.672	2.	0.	-2122.3
16430	14.58	2.	5.e-002	-4.7346
16431	14.58	2.2727	0.	-2145.
16432	14.672	2.1818	0.	-2121.8
16433	14.58	2.1818	5.e-002	-4.7352
16434	14.58	2.4545	0.	-2144.7
16435	14.672	2.3636	0.	-2121.4
16436	14.58	2.3636	5.e-002	-4.7357
16437	14.58	2.6364	0.	-2144.4
16438	14.672	2.5455	0.	-2121.1
16439	14.58	2.5455	5.e-002	-4.736
16440	14.58	2.8182	0.	-2144.3
16441	14.672	2.7273	0.	-2120.9
16442	14.58	2.7273	5.e-002	-4.7363
16443	14.58	3.	0.	-2144.2
16444	14.672	2.9091	0.	-2120.8
16445	14.58	2.9091	5.e-002	-4.7364
16446	14.58	3.1818	0.	-2144.3
16447	14.672	3.0909	0.	-2120.8
16448	14.58	3.0909	5.e-002	-4.7364
16449	14.58	3.3636	0.	-2144.4
16450	14.672	3.2727	0.	-2120.9
16451	14.58	3.2727	5.e-002	-4.7363
16452	14.58	3.5455	0.	-2144.7
16453	14.672	3.4545	0.	-2121.1
16454	14.58	3.4545	5.e-002	-4.7361
16455	14.58	3.7273	0.	-2145.
16456	14.672	3.6364	0.	-2121.4
16457	14.58	3.6364	5.e-002	-4.7357
16458	14.58	3.9091	0.	-2145.5
16459	14.672	3.8182	0.	-2121.8
16460	14.58	3.8182	5.e-002	-4.7353
16461	14.58	4.0909	0.	-2146.
16462	14.672	4.	0.	-2122.3
16463	14.58	4.	5.e-002	-4.7347
16464	14.58	4.2727	0.	-2146.6
16465	14.672	4.1818	0.	-2122.9
16466	14.58	4.1818	5.e-002	-4.734
16467	14.58	4.4545	0.	-2147.4
16468	14.672	4.3636	0.	-2123.5
16469	14.58	4.3636	5.e-002	-4.7332
16470	14.58	4.6364	0.	-2148.2
16471	14.672	4.5455	0.	-2124.3
16472	14.58	4.5455	5.e-002	-4.7323
16473	14.58	4.8182	0.	-2149.2
16474	14.672	4.7273	0.	-2125.2
16475	14.58	4.7273	5.e-002	-4.7312
16476	14.58	5.	0.	-2150.2
16477	14.672	4.9091	0.	-2126.2
16478	14.58	4.9091	5.e-002	-4.7301
16479	14.58	5.1818	0.	-2151.3
16480	14.672	5.0909	0.	-2127.3
16481	14.58	5.0909	5.e-002	-4.7287
16482	14.58	5.3636	0.	-2152.6
16483	14.672	5.2727	0.	-2128.4
16484	14.58	5.2727	5.e-002	-4.7262
16485	14.58	5.5455	0.	-2154.
16486	14.672	5.4545	0.	-2129.7
16487	14.58	5.4545	5.e-002	-4.7056
16488	14.58	5.7273	0.	-2156.3
16489	14.672	5.6364	0.	-2131.2
16490	14.58	5.6364	5.e-002	-4.4115
16491	14.672	5.8182	0.	-2134.5
16492	14.58	5.8182	5.e-002	-0.10945
16493	14.58	5.9091	0.	-2152.9
16494	14.765	0.27273	0.	-2109.3
16495	14.857	0.18182	0.	-2087.6
16496	14.765	0.18182	5.e-002	-0.12079
16497	14.765	9.0909e-002	0.	-2105.9
16498	14.765	0.45455	0.	-2107.
16499	14.857	0.36364	0.	-2084.3
16500	14.765	0.36364	5.e-002	-4.3913
16501	14.765	0.63636	0.	-2105.6
16502	14.857	0.54545	0.	-2082.8
16503	14.765	0.54545	5.e-002	-4.6846
16504	14.765	0.81818	0.	-2104.4
16505	14.857	0.72727	0.	-2081.6
16506	14.765	0.72727	5.e-002	-4.705
16507	14.765	1.	0.	-2103.2
16508	14.857	0.90909	0.	-2080.4
16509	14.765	0.90909	5.e-002	-4.7076
16510	14.765	1.1818	0.	-2102.2
16511	14.857	1.0909	0.	-2079.3
16512	14.765	1.0909	5.e-002	-4.7089
16513	14.765	1.3636	0.	-2101.3
16514	14.857	1.2727	0.	-2078.4
16515	14.765	1.2727	5.e-002	-4.71
16516	14.765	1.5455	0.	-2100.5
16517	14.857	1.4545	0.	-2077.5
16518	14.765	1.4545	5.e-002	-4.711
16519	14.765	1.7273	0.	-2099.7
16520	14.857	1.6364	0.	-2076.7
16521	14.765	1.6364	5.e-002	-4.7118
16522	14.765	1.9091	0.	-2099.1
16523	14.857	1.8182	0.	-2076.
16524	14.765	1.8182	5.e-002	-4.7126
16525	14.765	2.0909	0.	-2098.6
16526	14.857	2.	0.	-2075.5
16527	14.765	2.	5.e-002	-4.7133
16528	14.765	2.2727	0.	-2098.1
16529	14.857	2.1818	0.	-2075.
16530	14.765	2.1818	5.e-002	-4.7138
16531	14.765	2.4545	0.	-2097.8
16532	14.857	2.3636	0.	-2074.6
16533	14.765	2.3636	5.e-002	-4.7143
16534	14.765	2.6364	0.	-2097.6
16535	14.857	2.5455	0.	-2074.3
16536	14.765	2.5455	5.e-002	-4.7147
16537	14.765	2.8182	0.	-2097.4
16538	14.857	2.7273	0.	-2074.1
16539	14.765	2.7273	5.e-002	-4.7149
16540	14.765	3.	0.	-2097.4
16541	14.857	2.9091	0.	-2074.
16542	14.765	2.9091	5.e-002	-4.715
16543	14.765	3.1818	0.	-2097.4
16544	14.857	3.0909	0.	-2074.
16545	14.765	3.0909	5.e-002	-4.715
16546	14.765	3.3636	0.	-2097.6
16547	14.857	3.2727	0.	-2074.1
16548	14.765	3.2727	5.e-002	-4.7149
16549	14.765	3.5455	0.	-2097.8
16550	14.857	3.4545	0.	-2074.3
16551	14.765	3.4545	5.e-002	-4.7147
16552	14.765	3.7273	0.	-2098.1
16553	14.857	3.6364	0.	-2074.6
16554	14.765	3.6364	5.e-002	-4.7143
16555	14.765	3.9091	0.	-2098.6
16556	14.857	3.8182	0.	-2075.
16557	14.765	3.8182	5.e-002	-4.7139
16558	14.765	4.0909	0.	-2099.1
16559	14.857	4.	0.	-2075.5
16560	14.765	4.	5.e-002	-4.7134
16561	14.765	4.2727	0.	-2099.7
16562	14.857	4.1818	0.	-2076.
16563	14.765	4.1818	5.e-002	-4.7127
16564	14.765	4.4545	0.	-2100.5
16565	14.857	4.3636	0.	-2076.7
16566	14.765	4.3636	5.e-002	-4.712
16567	14.765	4.6364	0.	-2101.3
16568	14.857	4.5455	0.	-2077.5
16569	14.765	4.5455	5.e-002	-4.7111
16570	14.765	4.8182	0.	-2102.2
16571	14.857	4.7273	0.	-2078.4
16572	14.765	4.7273	5.e-002	-4.7101
16573	14.765	5.	0.	-2103.2
16574	14.857	4.9091	0.	-2079.3
16575	14.765	4.9091	5.e-002	-4.709
16576	14.765	5.1818	0.	-2104.4
16577	14.857	5.0909	0.	-2080.4
16578	14.765	5.0909	5.e-002	-4.7078
16579	14.765	5.3636	0.	-2105.6
16580	14.857	5.2727	0.	-2081.6
16581	14.765	5.2727	5.e-002	-4.7052
16582	14.765	5.5455	0.	-2107.
16583	14.857	5.4545	0.	-2082.8
16584	14.765	5.4545	5.e-002	-4.6848
16585	14.765	5.7273	0.	-2109.3
16586	14.857	5.6364	0.	-2084.3
16587	14.765	5.6364	5.e-002	-4.3915
16588	14.857	5.8182	0.	-2087.6
16589	14.765	5.8182	5.e-002	-0.12092
16590	14.765	5.9091	0.	-2105.9
16591	14.949	0.27273	0.	-2062.5
16592	15.042	0.18182	0.	-2041.
16593	14.949	0.18182	5.e-002	-0.13098
16594	14.949	9.0909e-002	0.	-2059.
16595	14.949	0.45455	0.	-2060.2
16596	15.042	0.36364	0.	-2037.6
16597	14.949	0.36364	5.e-002	-4.3716
16598	14.949	0.63636	0.	-2058.8
16599	15.042	0.54545	0.	-2036.2
16600	14.949	0.54545	5.e-002	-4.664
16601	14.949	0.81818	0.	-2057.6
16602	15.042	0.72727	0.	-2034.9
16603	14.949	0.72727	5.e-002	-4.6843
16604	14.949	1.	0.	-2056.5
16605	15.042	0.90909	0.	-2033.7
16606	14.949	0.90909	5.e-002	-4.6867
16607	14.949	1.1818	0.	-2055.5
16608	15.042	1.0909	0.	-2032.7
16609	14.949	1.0909	5.e-002	-4.688
16610	14.949	1.3636	0.	-2054.5
16611	15.042	1.2727	0.	-2031.7
16612	14.949	1.2727	5.e-002	-4.689
16613	14.949	1.5455	0.	-2053.7
16614	15.042	1.4545	0.	-2030.9
16615	14.949	1.4545	5.e-002	-4.69
16616	14.949	1.7273	0.	-2053.
16617	15.042	1.6364	0.	-2030.1
16618	14.949	1.6364	5.e-002	-4.6908
16619	14.949	1.9091	0.	-2052.4
16620	15.042	1.8182	0.	-2029.4
16621	14.949	1.8182	5.e-002	-4.6916
16622	14.949	2.0909	0.	-2051.9
16623	15.042	2.	0.	-2028.9
16624	14.949	2.	5.e-002	-4.6922
16625	14.949	2.2727	0.	-2051.4
16626	15.042	2.1818	0.	-2028.4
16627	14.949	2.1818	5.e-002	-4.6927
16628	14.949	2.4545	0.	-2051.1
16629	15.042	2.3636	0.	-2028.
16630	14.949	2.3636	5.e-002	-4.6932
16631	14.949	2.6364	0.	-2050.9
16632	15.042	2.5455	0.	-2027.7
16633	14.949	2.5455	5.e-002	-4.6935
16634	14.949	2.8182	0.	-2050.7
16635	15.042	2.7273	0.	-2027.5
16636	14.949	2.7273	5.e-002	-4.6937
16637	14.949	3.	0.	-2050.7
16638	15.042	2.9091	0.	-2027.4
16639	14.949	2.9091	5.e-002	-4.6938
16640	14.949	3.1818	0.	-2050.7
16641	15.042	3.0909	0.	-2027.4
16642	14.949	3.0909	5.e-002	-4.6938
16643	14.949	3.3636	0.	-2050.9
16644	15.042	3.2727	0.	-2027.5
16645	14.949	3.2727	5.e-002	-4.6937
16646	14.949	3.5455	0.	-2051.1
16647	15.042	3.4545	0.	-2027.7
16648	14.949	3.4545	5.e-002	-4.6935
16649	14.949	3.7273	0.	-2051.4
16650	15.042	3.6364	0.	-2028.
16651	14.949	3.6364	5.e-002	-4.6932
16652	14.949	3.9091	0.	-2051.9
16653	15.042	3.8182	0.	-2028.4
16654	14.949	3.8182	5.e-002	-4.6928
16655	14.949	4.0909	0.	-2052.4
16656	15.042	4.	0.	-2028.9
16657	14.949	4.	5.e-002	-4.6923
16658	14.949	4.2727	0.	-2053.
16659	15.042	4.1818	0.	-2029.4
16660	14.949	4.1818	5.e-002	-4.6917
16661	14.949	4.4545	0.	-2053.7
16662	15.042	4.3636	0.	-2030.1
16663	14.949	4.3636	5.e-002	-4.6909
16664	14.949	4.6364	0.	-2054.5
16665	15.042	4.5455	0.	-2030.9
16666	14.949	4.5455	5.e-002	-4.6901
16667	14.949	4.8182	0.	-2055.5
16668	15.042	4.7273	0.	-2031.7
16669	14.949	4.7273	5.e-002	-4.6892
16670	14.949	5.	0.	-2056.5
16671	15.042	4.9091	0.	-2032.7
16672	14.949	4.9091	5.e-002	-4.6881
16673	14.949	5.1818	0.	-2057.6
16674	15.042	5.0909	0.	-2033.7
16675	14.949	5.0909	5.e-002	-4.687
16676	14.949	5.3636	0.	-2058.8
16677	15.042	5.2727	0.	-2034.9
16678	14.949	5.2727	5.e-002	-4.6845
16679	14.949	5.5455	0.	-2060.2
16680	15.042	5.4545	0.	-2036.2
16681	14.949	5.4545	5.e-002	-4.6642
16682	14.949	5.7273	0.	-2062.5
16683	15.042	5.6364	0.	-2037.6
16684	14.949	5.6364	5.e-002	-4.3718
16685	15.042	5.8182	0.	-2041.
16686	14.949	5.8182	5.e-002	-0.13109
16687	14.949	5.9091	0.	-2059.
16688	15.134	0.27273	0.	-2016.
16689	15.226	0.18182	0.	-1994.5
16690	15.134	0.18182	5.e-002	-0.13998
16691	15.134	9.0909e-002	0.	-2012.3
16692	15.134	0.45455	0.	-2013.6
16693	15.226	0.36364	0.	-1991.1
16694	15.134	0.36364	5.e-002	-4.3522
16695	15.134	0.63636	0.	-2012.2
16696	15.226	0.54545	0.	-1989.7
16697	15.134	0.54545	5.e-002	-4.6435
16698	15.134	0.81818	0.	-2011.
16699	15.226	0.72727	0.	-1988.4
16700	15.134	0.72727	5.e-002	-4.6637
16701	15.134	1.	0.	-2009.9
16702	15.226	0.90909	0.	-1987.3
16703	15.134	0.90909	5.e-002	-4.6661
16704	15.134	1.1818	0.	-2008.9
16705	15.226	1.0909	0.	-1986.2
16706	15.134	1.0909	5.e-002	-4.6673
16707	15.134	1.3636	0.	-2008.
16708	15.226	1.2727	0.	-1985.3
16709	15.134	1.2727	5.e-002	-4.6683
16710	15.134	1.5455	0.	-2007.2
16711	15.226	1.4545	0.	-1984.4
16712	15.134	1.4545	5.e-002	-4.6692
16713	15.134	1.7273	0.	-2006.5
16714	15.226	1.6364	0.	-1983.7
16715	15.134	1.6364	5.e-002	-4.67
16716	15.134	1.9091	0.	-2005.9
16717	15.226	1.8182	0.	-1983.
16718	15.134	1.8182	5.e-002	-4.6707
16719	15.134	2.0909	0.	-2005.4
16720	15.226	2.	0.	-1982.4
16721	15.134	2.	5.e-002	-4.6713
16722	15.134	2.2727	0.	-2004.9
16723	15.226	2.1818	0.	-1982.
16724	15.134	2.1818	5.e-002	-4.6718
16725	15.134	2.4545	0.	-2004.6
16726	15.226	2.3636	0.	-1981.6
16727	15.134	2.3636	5.e-002	-4.6722
16728	15.134	2.6364	0.	-2004.4
16729	15.226	2.5455	0.	-1981.3
16730	15.134	2.5455	5.e-002	-4.6725
16731	15.134	2.8182	0.	-2004.2
16732	15.226	2.7273	0.	-1981.1
16733	15.134	2.7273	5.e-002	-4.6727
16734	15.134	3.	0.	-2004.2
16735	15.226	2.9091	0.	-1981.1
16736	15.134	2.9091	5.e-002	-4.6729
16737	15.134	3.1818	0.	-2004.2
16738	15.226	3.0909	0.	-1981.1
16739	15.134	3.0909	5.e-002	-4.6729
16740	15.134	3.3636	0.	-2004.4
16741	15.226	3.2727	0.	-1981.1
16742	15.134	3.2727	5.e-002	-4.6728
16743	15.134	3.5455	0.	-2004.6
16744	15.226	3.4545	0.	-1981.3
16745	15.134	3.4545	5.e-002	-4.6726
16746	15.134	3.7273	0.	-2004.9
16747	15.226	3.6364	0.	-1981.6
16748	15.134	3.6364	5.e-002	-4.6723
16749	15.134	3.9091	0.	-2005.4
16750	15.226	3.8182	0.	-1982.
16751	15.134	3.8182	5.e-002	-4.6719
16752	15.134	4.0909	0.	-2005.9
16753	15.226	4.	0.	-1982.4
16754	15.134	4.	5.e-002	-4.6714
16755	15.134	4.2727	0.	-2006.5
16756	15.226	4.1818	0.	-1983.
16757	15.134	4.1818	5.e-002	-4.6708
16758	15.134	4.4545	0.	-2007.2
16759	15.226	4.3636	0.	-1983.7
16760	15.134	4.3636	5.e-002	-4.6701
16761	15.134	4.6364	0.	-2008.
16762	15.226	4.5455	0.	-1984.4
16763	15.134	4.5455	5.e-002	-4.6693
16764	15.134	4.8182	0.	-2008.9
16765	15.226	4.7273	0.	-1985.3
16766	15.134	4.7273	5.e-002	-4.6684
16767	15.134	5.	0.	-2009.9
16768	15.226	4.9091	0.	-1986.2
16769	15.134	4.9091	5.e-002	-4.6674
16770	15.134	5.1818	0.	-2011.
16771	15.226	5.0909	0.	-1987.3
16772	15.134	5.0909	5.e-002	-4.6663
16773	15.134	5.3636	0.	-2012.2
16774	15.226	5.2727	0.	-1988.4
16775	15.134	5.2727	5.e-002	-4.6639
16776	15.134	5.5455	0.	-2013.6
16777	15.226	5.4545	0.	-1989.7
16778	15.134	5.4545	5.e-002	-4.6437
16779	15.134	5.7273	0.	-2016.
16780	15.226	5.6364	0.	-1991.1
16781	15.134	5.6364	5.e-002	-4.3524
16782	15.226	5.8182	0.	-1994.5
16783	15.134	5.8182	5.e-002	-0.1401
16784	15.134	5.9091	0.	-2012.3
16785	15.319	0.27273	0.	-1969.6
16786	15.411	0.18182	0.	-1948.3
16787	15.319	0.18182	5.e-002	-0.14786
16788	15.319	9.0909e-002	0.	-1965.9
16789	15.319	0.45455	0.	-1967.2
16790	15.411	0.36364	0.	-1944.9
16791	15.319	0.36364	5.e-002	-4.333
16792	15.319	0.63636	0.	-1965.8
16793	15.411	0.54545	0.	-1943.4
16794	15.319	0.54545	5.e-002	-4.6232
16795	15.319	0.81818	0.	-1964.6
16796	15.411	0.72727	0.	-1942.1
16797	15.319	0.72727	5.e-002	-4.6433
16798	15.319	1.	0.	-1963.5
16799	15.411	0.90909	0.	-1941.
16800	15.319	0.90909	5.e-002	-4.6457
16801	15.319	1.1818	0.	-1962.5
16802	15.411	1.0909	0.	-1939.9
16803	15.319	1.0909	5.e-002	-4.6468
16804	15.319	1.3636	0.	-1961.6
16805	15.411	1.2727	0.	-1939.
16806	15.319	1.2727	5.e-002	-4.6478
16807	15.319	1.5455	0.	-1960.9
16808	15.411	1.4545	0.	-1938.2
16809	15.319	1.4545	5.e-002	-4.6487
16810	15.319	1.7273	0.	-1960.2
16811	15.411	1.6364	0.	-1937.4
16812	15.319	1.6364	5.e-002	-4.6494
16813	15.319	1.9091	0.	-1959.6
16814	15.411	1.8182	0.	-1936.8
16815	15.319	1.8182	5.e-002	-4.6501
16816	15.319	2.0909	0.	-1959.
16817	15.411	2.	0.	-1936.2
16818	15.319	2.	5.e-002	-4.6507
16819	15.319	2.2727	0.	-1958.6
16820	15.411	2.1818	0.	-1935.8
16821	15.319	2.1818	5.e-002	-4.6512
16822	15.319	2.4545	0.	-1958.3
16823	15.411	2.3636	0.	-1935.4
16824	15.319	2.3636	5.e-002	-4.6516
16825	15.319	2.6364	0.	-1958.1
16826	15.411	2.5455	0.	-1935.1
16827	15.319	2.5455	5.e-002	-4.6519
16828	15.319	2.8182	0.	-1957.9
16829	15.411	2.7273	0.	-1935.
16830	15.319	2.7273	5.e-002	-4.6521
16831	15.319	3.	0.	-1957.9
16832	15.411	2.9091	0.	-1934.9
16833	15.319	2.9091	5.e-002	-4.6522
16834	15.319	3.1818	0.	-1957.9
16835	15.411	3.0909	0.	-1934.9
16836	15.319	3.0909	5.e-002	-4.6522
16837	15.319	3.3636	0.	-1958.1
16838	15.411	3.2727	0.	-1935.
16839	15.319	3.2727	5.e-002	-4.6521
16840	15.319	3.5455	0.	-1958.3
16841	15.411	3.4545	0.	-1935.1
16842	15.319	3.4545	5.e-002	-4.6519
16843	15.319	3.7273	0.	-1958.6
16844	15.411	3.6364	0.	-1935.4
16845	15.319	3.6364	5.e-002	-4.6516
16846	15.319	3.9091	0.	-1959.
16847	15.411	3.8182	0.	-1935.8
16848	15.319	3.8182	5.e-002	-4.6512
16849	15.319	4.0909	0.	-1959.6
16850	15.411	4.	0.	-1936.2
16851	15.319	4.	5.e-002	-4.6508
16852	15.319	4.2727	0.	-1960.2
16853	15.411	4.1818	0.	-1936.8
16854	15.319	4.1818	5.e-002	-4.6502
16855	15.319	4.4545	0.	-1960.9
16856	15.411	4.3636	0.	-1937.4
16857	15.319	4.3636	5.e-002	-4.6495
16858	15.319	4.6364	0.	-1961.6
16859	15.411	4.5455	0.	-1938.2
16860	15.319	4.5455	5.e-002	-4.6488
16861	15.319	4.8182	0.	-1962.5
16862	15.411	4.7273	0.	-1939.
16863	15.319	4.7273	5.e-002	-4.6479
16864	15.319	5.	0.	-1963.5
16865	15.411	4.9091	0.	-1940.
16866	15.319	4.9091	5.e-002	-4.647
16867	15.319	5.1818	0.	-1964.6
16868	15.411	5.0909	0.	-1941.
16869	15.319	5.0909	5.e-002	-4.6459
16870	15.319	5.3636	0.	-1965.8
16871	15.411	5.2727	0.	-1942.1
16872	15.319	5.2727	5.e-002	-4.6435
16873	15.319	5.5455	0.	-1967.2
16874	15.411	5.4545	0.	-1943.4
16875	15.319	5.4545	5.e-002	-4.6234
16876	15.319	5.7273	0.	-1969.6
16877	15.411	5.6364	0.	-1944.9
16878	15.319	5.6364	5.e-002	-4.3332
16879	15.411	5.8182	0.	-1948.3
16880	15.319	5.8182	5.e-002	-0.14796
16881	15.319	5.9091	0.	-1965.9
16882	15.503	0.27273	0.	-1923.4
16883	15.596	0.18182	0.	-1902.2
16884	15.503	0.18182	5.e-002	-0.15476
16885	15.503	9.0909e-002	0.	-1919.6
16886	15.503	0.45455	0.	-1921.
16887	15.596	0.36364	0.	-1898.8
16888	15.503	0.36364	5.e-002	-4.3141
16889	15.503	0.63636	0.	-1919.7
16890	15.596	0.54545	0.	-1897.3
16891	15.503	0.54545	5.e-002	-4.6031
16892	15.503	0.81818	0.	-1918.5
16893	15.596	0.72727	0.	-1896.1
16894	15.503	0.72727	5.e-002	-4.6231
16895	15.503	1.	0.	-1917.4
16896	15.596	0.90909	0.	-1894.9
16897	15.503	0.90909	5.e-002	-4.6254
16898	15.503	1.1818	0.	-1916.4
16899	15.596	1.0909	0.	-1893.9
16900	15.503	1.0909	5.e-002	-4.6265
16901	15.503	1.3636	0.	-1915.5
16902	15.596	1.2727	0.	-1893.
16903	15.503	1.2727	5.e-002	-4.6275
16904	15.503	1.5455	0.	-1914.7
16905	15.596	1.4545	0.	-1892.1
16906	15.503	1.4545	5.e-002	-4.6283
16907	15.503	1.7273	0.	-1914.
16908	15.596	1.6364	0.	-1891.4
16909	15.503	1.6364	5.e-002	-4.6291
16910	15.503	1.9091	0.	-1913.4
16911	15.596	1.8182	0.	-1890.8
16912	15.503	1.8182	5.e-002	-4.6297
16913	15.503	2.0909	0.	-1912.9
16914	15.596	2.	0.	-1890.2
16915	15.503	2.	5.e-002	-4.6303
16916	15.503	2.2727	0.	-1912.5
16917	15.596	2.1818	0.	-1889.8
16918	15.503	2.1818	5.e-002	-4.6308
16919	15.503	2.4545	0.	-1912.2
16920	15.596	2.3636	0.	-1889.4
16921	15.503	2.3636	5.e-002	-4.6311
16922	15.503	2.6364	0.	-1912.
16923	15.596	2.5455	0.	-1889.1
16924	15.503	2.5455	5.e-002	-4.6314
16925	15.503	2.8182	0.	-1911.8
16926	15.596	2.7273	0.	-1889.
16927	15.503	2.7273	5.e-002	-4.6316
16928	15.503	3.	0.	-1911.8
16929	15.596	2.9091	0.	-1888.9
16930	15.503	2.9091	5.e-002	-4.6317
16931	15.503	3.1818	0.	-1911.8
16932	15.596	3.0909	0.	-1888.9
16933	15.503	3.0909	5.e-002	-4.6317
16934	15.503	3.3636	0.	-1912.
16935	15.596	3.2727	0.	-1889.
16936	15.503	3.2727	5.e-002	-4.6316
16937	15.503	3.5455	0.	-1912.2
16938	15.596	3.4545	0.	-1889.1
16939	15.503	3.4545	5.e-002	-4.6314
16940	15.503	3.7273	0.	-1912.5
16941	15.596	3.6364	0.	-1889.4
16942	15.503	3.6364	5.e-002	-4.6312
16943	15.503	3.9091	0.	-1912.9
16944	15.596	3.8182	0.	-1889.8
16945	15.503	3.8182	5.e-002	-4.6308
16946	15.503	4.0909	0.	-1913.4
16947	15.596	4.	0.	-1890.2
16948	15.503	4.	5.e-002	-4.6304
16949	15.503	4.2727	0.	-1914.
16950	15.596	4.1818	0.	-1890.8
16951	15.503	4.1818	5.e-002	-4.6298
16952	15.503	4.4545	0.	-1914.7
16953	15.596	4.3636	0.	-1891.4
16954	15.503	4.3636	5.e-002	-4.6292
16955	15.503	4.6364	0.	-1915.5
16956	15.596	4.5455	0.	-1892.1
16957	15.503	4.5455	5.e-002	-4.6284
16958	15.503	4.8182	0.	-1916.4
16959	15.596	4.7273	0.	-1893.
16960	15.503	4.7273	5.e-002	-4.6276
16961	15.503	5.	0.	-1917.4
16962	15.596	4.9091	0.	-1893.9
16963	15.503	4.9091	5.e-002	-4.6267
16964	15.503	5.1818	0.	-1918.5
16965	15.596	5.0909	0.	-1894.9
16966	15.503	5.0909	5.e-002	-4.6256
16967	15.503	5.3636	0.	-1919.7
16968	15.596	5.2727	0.	-1896.1
16969	15.503	5.2727	5.e-002	-4.6233
16970	15.503	5.5455	0.	-1921.
16971	15.596	5.4545	0.	-1897.3
16972	15.503	5.4545	5.e-002	-4.6033
16973	15.503	5.7273	0.	-1923.4
16974	15.596	5.6364	0.	-1898.8
16975	15.503	5.6364	5.e-002	-4.3143
16976	15.596	5.8182	0.	-1902.2
16977	15.503	5.8182	5.e-002	-0.15485
16978	15.503	5.9091	0.	-1919.6
16979	15.688	0.27273	0.	-1877.4
16980	15.78	0.18182	0.	-1856.4
16981	15.688	0.18182	5.e-002	-0.16075
16982	15.688	9.0909e-002	0.	-1873.6
16983	15.688	0.45455	0.	-1875.
16984	15.78	0.36364	0.	-1852.9
16985	15.688	0.36364	5.e-002	-4.2954
16986	15.688	0.63636	0.	-1873.7
16987	15.78	0.54545	0.	-1851.4
16988	15.688	0.54545	5.e-002	-4.5833
16989	15.688	0.81818	0.	-1872.5
16990	15.78	0.72727	0.	-1850.2
16991	15.688	0.72727	5.e-002	-4.6031
16992	15.688	1.	0.	-1871.4
16993	15.78	0.90909	0.	-1849.1
16994	15.688	0.90909	5.e-002	-4.6054
16995	15.688	1.1818	0.	-1870.4
16996	15.78	1.0909	0.	-1848.
16997	15.688	1.0909	5.e-002	-4.6065
16998	15.688	1.3636	0.	-1869.6
16999	15.78	1.2727	0.	-1847.1
17000	15.688	1.2727	5.e-002	-4.6074
17001	15.688	1.5455	0.	-1868.8
17002	15.78	1.4545	0.	-1846.3
17003	15.688	1.4545	5.e-002	-4.6082
17004	15.688	1.7273	0.	-1868.1
17005	15.78	1.6364	0.	-1845.6
17006	15.688	1.6364	5.e-002	-4.6089
17007	15.688	1.9091	0.	-1867.5
17008	15.78	1.8182	0.	-1844.9
17009	15.688	1.8182	5.e-002	-4.6096
17010	15.688	2.0909	0.	-1867.
17011	15.78	2.	0.	-1844.4
17012	15.688	2.	5.e-002	-4.6101
17013	15.688	2.2727	0.	-1866.6
17014	15.78	2.1818	0.	-1843.9
17015	15.688	2.1818	5.e-002	-4.6106
17016	15.688	2.4545	0.	-1866.3
17017	15.78	2.3636	0.	-1843.6
17018	15.688	2.3636	5.e-002	-4.6109
17019	15.688	2.6364	0.	-1866.1
17020	15.78	2.5455	0.	-1843.3
17021	15.688	2.5455	5.e-002	-4.6112
17022	15.688	2.8182	0.	-1865.9
17023	15.78	2.7273	0.	-1843.2
17024	15.688	2.7273	5.e-002	-4.6114
17025	15.688	3.	0.	-1865.9
17026	15.78	2.9091	0.	-1843.1
17027	15.688	2.9091	5.e-002	-4.6115
17028	15.688	3.1818	0.	-1865.9
17029	15.78	3.0909	0.	-1843.1
17030	15.688	3.0909	5.e-002	-4.6115
17031	15.688	3.3636	0.	-1866.1
17032	15.78	3.2727	0.	-1843.2
17033	15.688	3.2727	5.e-002	-4.6114
17034	15.688	3.5455	0.	-1866.3
17035	15.78	3.4545	0.	-1843.3
17036	15.688	3.4545	5.e-002	-4.6112
17037	15.688	3.7273	0.	-1866.6
17038	15.78	3.6364	0.	-1843.6
17039	15.688	3.6364	5.e-002	-4.611
17040	15.688	3.9091	0.	-1867.
17041	15.78	3.8182	0.	-1843.9
17042	15.688	3.8182	5.e-002	-4.6106
17043	15.688	4.0909	0.	-1867.5
17044	15.78	4.	0.	-1844.4
17045	15.688	4.	5.e-002	-4.6102
17046	15.688	4.2727	0.	-1868.1
17047	15.78	4.1818	0.	-1844.9
17048	15.688	4.1818	5.e-002	-4.6097
17049	15.688	4.4545	0.	-1868.8
17050	15.78	4.3636	0.	-1845.6
17051	15.688	4.3636	5.e-002	-4.609
17052	15.688	4.6364	0.	-1869.6
17053	15.78	4.5455	0.	-1846.3
17054	15.688	4.5455	5.e-002	-4.6083
17055	15.688	4.8182	0.	-1870.4
17056	15.78	4.7273	0.	-1847.1
17057	15.688	4.7273	5.e-002	-4.6075
17058	15.688	5.	0.	-1871.4
17059	15.78	4.9091	0.	-1848.
17060	15.688	4.9091	5.e-002	-4.6066
17061	15.688	5.1818	0.	-1872.5
17062	15.78	5.0909	0.	-1849.1
17063	15.688	5.0909	5.e-002	-4.6056
17064	15.688	5.3636	0.	-1873.7
17065	15.78	5.2727	0.	-1850.2
17066	15.688	5.2727	5.e-002	-4.6033
17067	15.688	5.5455	0.	-1875.
17068	15.78	5.4545	0.	-1851.4
17069	15.688	5.4545	5.e-002	-4.5834
17070	15.688	5.7273	0.	-1877.4
17071	15.78	5.6364	0.	-1852.9
17072	15.688	5.6364	5.e-002	-4.2956
17073	15.78	5.8182	0.	-1856.4
17074	15.688	5.8182	5.e-002	-0.16082
17075	15.688	5.9091	0.	-1873.6
17076	15.873	0.27273	0.	-1831.7
17077	15.965	0.18182	0.	-1810.7
17078	15.873	0.18182	5.e-002	-0.16593
17079	15.873	9.0909e-002	0.	-1827.7
17080	15.873	0.45455	0.	-1829.3
17081	15.965	0.36364	0.	-1807.2
17082	15.873	0.36364	5.e-002	-4.277
17083	15.873	0.63636	0.	-1827.9
17084	15.965	0.54545	0.	-1805.8
17085	15.873	0.54545	5.e-002	-4.5636
17086	15.873	0.81818	0.	-1826.7
17087	15.965	0.72727	0.	-1804.5
17088	15.873	0.72727	5.e-002	-4.5833
17089	15.873	1.	0.	-1825.6
17090	15.965	0.90909	0.	-1803.4
17091	15.873	0.90909	5.e-002	-4.5856
17092	15.873	1.1818	0.	-1824.7
17093	15.965	1.0909	0.	-1802.4
17094	15.873	1.0909	5.e-002	-4.5866
17095	15.873	1.3636	0.	-1823.8
17096	15.965	1.2727	0.	-1801.5
17097	15.873	1.2727	5.e-002	-4.5875
17098	15.873	1.5455	0.	-1823.
17099	15.965	1.4545	0.	-1800.6
17100	15.873	1.4545	5.e-002	-4.5883
17101	15.873	1.7273	0.	-1822.4
17102	15.965	1.6364	0.	-1799.9
17103	15.873	1.6364	5.e-002	-4.589
17104	15.873	1.9091	0.	-1821.8
17105	15.965	1.8182	0.	-1799.3
17106	15.873	1.8182	5.e-002	-4.5896
17107	15.873	2.0909	0.	-1821.3
17108	15.965	2.	0.	-1798.8
17109	15.873	2.	5.e-002	-4.5902
17110	15.873	2.2727	0.	-1820.9
17111	15.965	2.1818	0.	-1798.3
17112	15.873	2.1818	5.e-002	-4.5906
17113	15.873	2.4545	0.	-1820.6
17114	15.965	2.3636	0.	-1798.
17115	15.873	2.3636	5.e-002	-4.591
17116	15.873	2.6364	0.	-1820.4
17117	15.965	2.5455	0.	-1797.7
17118	15.873	2.5455	5.e-002	-4.5912
17119	15.873	2.8182	0.	-1820.2
17120	15.965	2.7273	0.	-1797.6
17121	15.873	2.7273	5.e-002	-4.5914
17122	15.873	3.	0.	-1820.2
17123	15.965	2.9091	0.	-1797.5
17124	15.873	2.9091	5.e-002	-4.5915
17125	15.873	3.1818	0.	-1820.2
17126	15.965	3.0909	0.	-1797.5
17127	15.873	3.0909	5.e-002	-4.5915
17128	15.873	3.3636	0.	-1820.4
17129	15.965	3.2727	0.	-1797.6
17130	15.873	3.2727	5.e-002	-4.5914
17131	15.873	3.5455	0.	-1820.6
17132	15.965	3.4545	0.	-1797.7
17133	15.873	3.4545	5.e-002	-4.5913
17134	15.873	3.7273	0.	-1820.9
17135	15.965	3.6364	0.	-1798.
17136	15.873	3.6364	5.e-002	-4.591
17137	15.873	3.9091	0.	-1821.3
17138	15.965	3.8182	0.	-1798.3
17139	15.873	3.8182	5.e-002	-4.5907
17140	15.873	4.0909	0.	-1821.8
17141	15.965	4.	0.	-1798.8
17142	15.873	4.	5.e-002	-4.5902
17143	15.873	4.2727	0.	-1822.4
17144	15.965	4.1818	0.	-1799.3
17145	15.873	4.1818	5.e-002	-4.5897
17146	15.873	4.4545	0.	-1823.
17147	15.965	4.3636	0.	-1799.9
17148	15.873	4.3636	5.e-002	-4.5891
17149	15.873	4.6364	0.	-1823.8
17150	15.965	4.5455	0.	-1800.6
17151	15.873	4.5455	5.e-002	-4.5884
17152	15.873	4.8182	0.	-1824.7
17153	15.965	4.7273	0.	-1801.5
17154	15.873	4.7273	5.e-002	-4.5877
17155	15.873	5.	0.	-1825.6
17156	15.965	4.9091	0.	-1802.4
17157	15.873	4.9091	5.e-002	-4.5868
17158	15.873	5.1818	0.	-1826.7
17159	15.965	5.0909	0.	-1803.4
17160	15.873	5.0909	5.e-002	-4.5857
17161	15.873	5.3636	0.	-1827.9
17162	15.965	5.2727	0.	-1804.5
17163	15.873	5.2727	5.e-002	-4.5835
17164	15.873	5.5455	0.	-1829.3
17165	15.965	5.4545	0.	-1805.8
17166	15.873	5.4545	5.e-002	-4.5637
17167	15.873	5.7273	0.	-1831.7
17168	15.965	5.6364	0.	-1807.2
17169	15.873	5.6364	5.e-002	-4.2772
17170	15.965	5.8182	0.	-1810.7
17171	15.873	5.8182	5.e-002	-0.16601
17172	15.873	5.9091	0.	-1827.7
17173	16.057	0.27273	0.	-1786.1
17174	16.15	0.18182	0.	-1765.3
17175	16.057	0.18182	5.e-002	-0.17049
17176	16.057	9.0909e-002	0.	-1782.1
17177	16.057	0.45455	0.	-1783.7
17178	16.15	0.36364	0.	-1761.7
17179	16.057	0.36364	5.e-002	-4.2589
17180	16.057	0.63636	0.	-1782.3
17181	16.15	0.54545	0.	-1760.3
17182	16.057	0.54545	5.e-002	-4.544
17183	16.057	0.81818	0.	-1781.2
17184	16.15	0.72727	0.	-1759.
17185	16.057	0.72727	5.e-002	-4.5636
17186	16.057	1.	0.	-1780.1
17187	16.15	0.90909	0.	-1757.9
17188	16.057	0.90909	5.e-002	-4.5659
17189	16.057	1.1818	0.	-1779.1
17190	16.15	1.0909	0.	-1756.9
17191	16.057	1.0909	5.e-002	-4.567
17192	16.057	1.3636	0.	-1778.3
17193	16.15	1.2727	0.	-1756.
17194	16.057	1.2727	5.e-002	-4.5678
17195	16.057	1.5455	0.	-1777.5
17196	16.15	1.4545	0.	-1755.2
17197	16.057	1.4545	5.e-002	-4.5686
17198	16.057	1.7273	0.	-1776.8
17199	16.15	1.6364	0.	-1754.5
17200	16.057	1.6364	5.e-002	-4.5693
17201	16.057	1.9091	0.	-1776.3
17202	16.15	1.8182	0.	-1753.9
17203	16.057	1.8182	5.e-002	-4.5699
17204	16.057	2.0909	0.	-1775.8
17205	16.15	2.	0.	-1753.4
17206	16.057	2.	5.e-002	-4.5704
17207	16.057	2.2727	0.	-1775.4
17208	16.15	2.1818	0.	-1752.9
17209	16.057	2.1818	5.e-002	-4.5709
17210	16.057	2.4545	0.	-1775.1
17211	16.15	2.3636	0.	-1752.6
17212	16.057	2.3636	5.e-002	-4.5712
17213	16.057	2.6364	0.	-1774.9
17214	16.15	2.5455	0.	-1752.3
17215	16.057	2.5455	5.e-002	-4.5715
17216	16.057	2.8182	0.	-1774.7
17217	16.15	2.7273	0.	-1752.2
17218	16.057	2.7273	5.e-002	-4.5717
17219	16.057	3.	0.	-1774.7
17220	16.15	2.9091	0.	-1752.1
17221	16.057	2.9091	5.e-002	-4.5717
17222	16.057	3.1818	0.	-1774.7
17223	16.15	3.0909	0.	-1752.1
17224	16.057	3.0909	5.e-002	-4.5717
17225	16.057	3.3636	0.	-1774.9
17226	16.15	3.2727	0.	-1752.2
17227	16.057	3.2727	5.e-002	-4.5717
17228	16.057	3.5455	0.	-1775.1
17229	16.15	3.4545	0.	-1752.3
17230	16.057	3.4545	5.e-002	-4.5715
17231	16.057	3.7273	0.	-1775.4
17232	16.15	3.6364	0.	-1752.6
17233	16.057	3.6364	5.e-002	-4.5713
17234	16.057	3.9091	0.	-1775.8
17235	16.15	3.8182	0.	-1752.9
17236	16.057	3.8182	5.e-002	-4.5709
17237	16.057	4.0909	0.	-1776.3
17238	16.15	4.	0.	-1753.4
17239	16.057	4.	5.e-002	-4.5705
17240	16.057	4.2727	0.	-1776.8
17241	16.15	4.1818	0.	-1753.9
17242	16.057	4.1818	5.e-002	-4.57
17243	16.057	4.4545	0.	-1777.5
17244	16.15	4.3636	0.	-1754.5
17245	16.057	4.3636	5.e-002	-4.5694
17246	16.057	4.6364	0.	-1778.3
17247	16.15	4.5455	0.	-1755.2
17248	16.057	4.5455	5.e-002	-4.5687
17249	16.057	4.8182	0.	-1779.1
17250	16.15	4.7273	0.	-1756.
17251	16.057	4.7273	5.e-002	-4.5679
17252	16.057	5.	0.	-1780.1
17253	16.15	4.9091	0.	-1756.9
17254	16.057	4.9091	5.e-002	-4.5671
17255	16.057	5.1818	0.	-1781.2
17256	16.15	5.0909	0.	-1757.9
17257	16.057	5.0909	5.e-002	-4.566
17258	16.057	5.3636	0.	-1782.3
17259	16.15	5.2727	0.	-1759.
17260	16.057	5.2727	5.e-002	-4.5638
17261	16.057	5.5455	0.	-1783.7
17262	16.15	5.4545	0.	-1760.3
17263	16.057	5.4545	5.e-002	-4.5442
17264	16.057	5.7273	0.	-1786.1
17265	16.15	5.6364	0.	-1761.7
17266	16.057	5.6364	5.e-002	-4.259
17267	16.15	5.8182	0.	-1765.3
17268	16.057	5.8182	5.e-002	-0.17057
17269	16.057	5.9091	0.	-1782.1
17270	16.242	0.27273	0.	-1740.8
17271	16.335	0.18182	0.	-1720.
17272	16.242	0.18182	5.e-002	-0.17454
17273	16.242	9.0909e-002	0.	-1736.6
17274	16.242	0.45455	0.	-1738.3
17275	16.335	0.36364	0.	-1716.5
17276	16.242	0.36364	5.e-002	-4.2409
17277	16.242	0.63636	0.	-1737.
17278	16.335	0.54545	0.	-1715.
17279	16.242	0.54545	5.e-002	-4.5247
17280	16.242	0.81818	0.	-1735.8
17281	16.335	0.72727	0.	-1713.8
17282	16.242	0.72727	5.e-002	-4.5442
17283	16.242	1.	0.	-1734.7
17284	16.335	0.90909	0.	-1712.7
17285	16.242	0.90909	5.e-002	-4.5465
17286	16.242	1.1818	0.	-1733.8
17287	16.335	1.0909	0.	-1711.6
17288	16.242	1.0909	5.e-002	-4.5475
17289	16.242	1.3636	0.	-1732.9
17290	16.335	1.2727	0.	-1710.7
17291	16.242	1.2727	5.e-002	-4.5483
17292	16.242	1.5455	0.	-1732.2
17293	16.335	1.4545	0.	-1710.
17294	16.242	1.4545	5.e-002	-4.5491
17295	16.242	1.7273	0.	-1731.5
17296	16.335	1.6364	0.	-1709.3
17297	16.242	1.6364	5.e-002	-4.5498
17298	16.242	1.9091	0.	-1730.9
17299	16.335	1.8182	0.	-1708.6
17300	16.242	1.8182	5.e-002	-4.5504
17301	16.242	2.0909	0.	-1730.5
17302	16.335	2.	0.	-1708.1
17303	16.242	2.	5.e-002	-4.5509
17304	16.242	2.2727	0.	-1730.1
17305	16.335	2.1818	0.	-1707.7
17306	16.242	2.1818	5.e-002	-4.5513
17307	16.242	2.4545	0.	-1729.8
17308	16.335	2.3636	0.	-1707.4
17309	16.242	2.3636	5.e-002	-4.5517
17310	16.242	2.6364	0.	-1729.6
17311	16.335	2.5455	0.	-1707.1
17312	16.242	2.5455	5.e-002	-4.552
17313	16.242	2.8182	0.	-1729.4
17314	16.335	2.7273	0.	-1707.
17315	16.242	2.7273	5.e-002	-4.5521
17316	16.242	3.	0.	-1729.4
17317	16.335	2.9091	0.	-1706.9
17318	16.242	2.9091	5.e-002	-4.5522
17319	16.242	3.1818	0.	-1729.4
17320	16.335	3.0909	0.	-1706.9
17321	16.242	3.0909	5.e-002	-4.5522
17322	16.242	3.3636	0.	-1729.6
17323	16.335	3.2727	0.	-1707.
17324	16.242	3.2727	5.e-002	-4.5521
17325	16.242	3.5455	0.	-1729.8
17326	16.335	3.4545	0.	-1707.1
17327	16.242	3.4545	5.e-002	-4.552
17328	16.242	3.7273	0.	-1730.1
17329	16.335	3.6364	0.	-1707.4
17330	16.242	3.6364	5.e-002	-4.5517
17331	16.242	3.9091	0.	-1730.5
17332	16.335	3.8182	0.	-1707.7
17333	16.242	3.8182	5.e-002	-4.5514
17334	16.242	4.0909	0.	-1730.9
17335	16.335	4.	0.	-1708.1
17336	16.242	4.	5.e-002	-4.551
17337	16.242	4.2727	0.	-1731.5
17338	16.335	4.1818	0.	-1708.6
17339	16.242	4.1818	5.e-002	-4.5505
17340	16.242	4.4545	0.	-1732.2
17341	16.335	4.3636	0.	-1709.3
17342	16.242	4.3636	5.e-002	-4.5499
17343	16.242	4.6364	0.	-1732.9
17344	16.335	4.5455	0.	-1710.
17345	16.242	4.5455	5.e-002	-4.5492
17346	16.242	4.8182	0.	-1733.8
17347	16.335	4.7273	0.	-1710.7
17348	16.242	4.7273	5.e-002	-4.5485
17349	16.242	5.	0.	-1734.7
17350	16.335	4.9091	0.	-1711.6
17351	16.242	4.9091	5.e-002	-4.5476
17352	16.242	5.1818	0.	-1735.8
17353	16.335	5.0909	0.	-1712.7
17354	16.242	5.0909	5.e-002	-4.5466
17355	16.242	5.3636	0.	-1737.
17356	16.335	5.2727	0.	-1713.8
17357	16.242	5.2727	5.e-002	-4.5444
17358	16.242	5.5455	0.	-1738.3
17359	16.335	5.4545	0.	-1715.
17360	16.242	5.4545	5.e-002	-4.5248
17361	16.242	5.7273	0.	-1740.8
17362	16.335	5.6364	0.	-1716.5
17363	16.242	5.6364	5.e-002	-4.2411
17364	16.335	5.8182	0.	-1720.
17365	16.242	5.8182	5.e-002	-0.1746
17366	16.242	5.9091	0.	-1736.6
17367	16.427	0.27273	0.	-1695.6
17368	16.519	0.18182	0.	-1675.
17369	16.427	0.18182	5.e-002	-0.17821
17370	16.427	9.0909e-002	0.	-1691.4
17371	16.427	0.45455	0.	-1693.1
17372	16.519	0.36364	0.	-1671.4
17373	16.427	0.36364	5.e-002	-4.2233
17374	16.427	0.63636	0.	-1691.8
17375	16.519	0.54545	0.	-1669.9
17376	16.427	0.54545	5.e-002	-4.5055
17377	16.427	0.81818	0.	-1690.6
17378	16.519	0.72727	0.	-1668.7
17379	16.427	0.72727	5.e-002	-4.525
17380	16.427	1.	0.	-1689.6
17381	16.519	0.90909	0.	-1667.6
17382	16.427	0.90909	5.e-002	-4.5272
17383	16.427	1.1818	0.	-1688.6
17384	16.519	1.0909	0.	-1666.6
17385	16.427	1.0909	5.e-002	-4.5282
17386	16.427	1.3636	0.	-1687.8
17387	16.519	1.2727	0.	-1665.7
17388	16.427	1.2727	5.e-002	-4.5291
17389	16.427	1.5455	0.	-1687.
17390	16.519	1.4545	0.	-1664.9
17391	16.427	1.4545	5.e-002	-4.5299
17392	16.427	1.7273	0.	-1686.4
17393	16.519	1.6364	0.	-1664.2
17394	16.427	1.6364	5.e-002	-4.5306
17395	16.427	1.9091	0.	-1685.8
17396	16.519	1.8182	0.	-1663.6
17397	16.427	1.8182	5.e-002	-4.5311
17398	16.427	2.0909	0.	-1685.3
17399	16.519	2.	0.	-1663.1
17400	16.427	2.	5.e-002	-4.5317
17401	16.427	2.2727	0.	-1685.
17402	16.519	2.1818	0.	-1662.7
17403	16.427	2.1818	5.e-002	-4.5321
17404	16.427	2.4545	0.	-1684.7
17405	16.519	2.3636	0.	-1662.4
17406	16.427	2.3636	5.e-002	-4.5324
17407	16.427	2.6364	0.	-1684.5
17408	16.519	2.5455	0.	-1662.1
17409	16.427	2.5455	5.e-002	-4.5327
17410	16.427	2.8182	0.	-1684.3
17411	16.519	2.7273	0.	-1662.
17412	16.427	2.7273	5.e-002	-4.5329
17413	16.427	3.	0.	-1684.3
17414	16.519	2.9091	0.	-1661.9
17415	16.427	2.9091	5.e-002	-4.533
17416	16.427	3.1818	0.	-1684.3
17417	16.519	3.0909	0.	-1661.9
17418	16.427	3.0909	5.e-002	-4.533
17419	16.427	3.3636	0.	-1684.5
17420	16.519	3.2727	0.	-1662.
17421	16.427	3.2727	5.e-002	-4.5329
17422	16.427	3.5455	0.	-1684.7
17423	16.519	3.4545	0.	-1662.1
17424	16.427	3.4545	5.e-002	-4.5327
17425	16.427	3.7273	0.	-1685.
17426	16.519	3.6364	0.	-1662.4
17427	16.427	3.6364	5.e-002	-4.5325
17428	16.427	3.9091	0.	-1685.3
17429	16.519	3.8182	0.	-1662.7
17430	16.427	3.8182	5.e-002	-4.5321
17431	16.427	4.0909	0.	-1685.8
17432	16.519	4.	0.	-1663.1
17433	16.427	4.	5.e-002	-4.5317
17434	16.427	4.2727	0.	-1686.4
17435	16.519	4.1818	0.	-1663.6
17436	16.427	4.1818	5.e-002	-4.5312
17437	16.427	4.4545	0.	-1687.
17438	16.519	4.3636	0.	-1664.2
17439	16.427	4.3636	5.e-002	-4.5306
17440	16.427	4.6364	0.	-1687.8
17441	16.519	4.5455	0.	-1664.9
17442	16.427	4.5455	5.e-002	-4.53
17443	16.427	4.8182	0.	-1688.6
17444	16.519	4.7273	0.	-1665.7
17445	16.427	4.7273	5.e-002	-4.5292
17446	16.427	5.	0.	-1689.6
17447	16.519	4.9091	0.	-1666.6
17448	16.427	4.9091	5.e-002	-4.5284
17449	16.427	5.1818	0.	-1690.6
17450	16.519	5.0909	0.	-1667.6
17451	16.427	5.0909	5.e-002	-4.5273
17452	16.427	5.3636	0.	-1691.8
17453	16.519	5.2727	0.	-1668.7
17454	16.427	5.2727	5.e-002	-4.5251
17455	16.427	5.5455	0.	-1693.1
17456	16.519	5.4545	0.	-1669.9
17457	16.427	5.4545	5.e-002	-4.5057
17458	16.427	5.7273	0.	-1695.6
17459	16.519	5.6364	0.	-1671.4
17460	16.427	5.6364	5.e-002	-4.2235
17461	16.519	5.8182	0.	-1675.
17462	16.427	5.8182	5.e-002	-0.17826
17463	16.427	5.9091	0.	-1691.4
17464	16.612	0.27273	0.	-1650.6
17465	16.704	0.18182	0.	-1630.1
17466	16.612	0.18182	5.e-002	-0.18172
17467	16.612	9.0909e-002	0.	-1646.4
17468	16.612	0.45455	0.	-1648.1
17469	16.704	0.36364	0.	-1626.5
17470	16.612	0.36364	5.e-002	-4.2059
17471	16.612	0.63636	0.	-1646.8
17472	16.704	0.54545	0.	-1625.
17473	16.612	0.54545	5.e-002	-4.4866
17474	16.612	0.81818	0.	-1645.6
17475	16.704	0.72727	0.	-1623.8
17476	16.612	0.72727	5.e-002	-4.5059
17477	16.612	1.	0.	-1644.6
17478	16.704	0.90909	0.	-1622.7
17479	16.612	0.90909	5.e-002	-4.5082
17480	16.612	1.1818	0.	-1643.6
17481	16.704	1.0909	0.	-1621.7
17482	16.612	1.0909	5.e-002	-4.5092
17483	16.612	1.3636	0.	-1642.8
17484	16.704	1.2727	0.	-1620.8
17485	16.612	1.2727	5.e-002	-4.5101
17486	16.612	1.5455	0.	-1642.1
17487	16.704	1.4545	0.	-1620.1
17488	16.612	1.4545	5.e-002	-4.5108
17489	16.612	1.7273	0.	-1641.4
17490	16.704	1.6364	0.	-1619.4
17491	16.612	1.6364	5.e-002	-4.5115
17492	16.612	1.9091	0.	-1640.9
17493	16.704	1.8182	0.	-1618.8
17494	16.612	1.8182	5.e-002	-4.5121
17495	16.612	2.0909	0.	-1640.4
17496	16.704	2.	0.	-1618.3
17497	16.612	2.	5.e-002	-4.5126
17498	16.612	2.2727	0.	-1640.1
17499	16.704	2.1818	0.	-1617.9
17500	16.612	2.1818	5.e-002	-4.513
17501	16.612	2.4545	0.	-1639.8
17502	16.704	2.3636	0.	-1617.6
17503	16.612	2.3636	5.e-002	-4.5134
17504	16.612	2.6364	0.	-1639.6
17505	16.704	2.5455	0.	-1617.3
17506	16.612	2.5455	5.e-002	-4.5137
17507	16.612	2.8182	0.	-1639.5
17508	16.704	2.7273	0.	-1617.2
17509	16.612	2.7273	5.e-002	-4.5138
17510	16.612	3.	0.	-1639.4
17511	16.704	2.9091	0.	-1617.1
17512	16.612	2.9091	5.e-002	-4.5139
17513	16.612	3.1818	0.	-1639.5
17514	16.704	3.0909	0.	-1617.1
17515	16.612	3.0909	5.e-002	-4.5139
17516	16.612	3.3636	0.	-1639.6
17517	16.704	3.2727	0.	-1617.2
17518	16.612	3.2727	5.e-002	-4.5138
17519	16.612	3.5455	0.	-1639.8
17520	16.704	3.4545	0.	-1617.3
17521	16.612	3.4545	5.e-002	-4.5137
17522	16.612	3.7273	0.	-1640.1
17523	16.704	3.6364	0.	-1617.6
17524	16.612	3.6364	5.e-002	-4.5134
17525	16.612	3.9091	0.	-1640.4
17526	16.704	3.8182	0.	-1617.9
17527	16.612	3.8182	5.e-002	-4.5131
17528	16.612	4.0909	0.	-1640.9
17529	16.704	4.	0.	-1618.3
17530	16.612	4.	5.e-002	-4.5127
17531	16.612	4.2727	0.	-1641.4
17532	16.704	4.1818	0.	-1618.8
17533	16.612	4.1818	5.e-002	-4.5122
17534	16.612	4.4545	0.	-1642.1
17535	16.704	4.3636	0.	-1619.4
17536	16.612	4.3636	5.e-002	-4.5116
17537	16.612	4.6364	0.	-1642.8
17538	16.704	4.5455	0.	-1620.1
17539	16.612	4.5455	5.e-002	-4.5109
17540	16.612	4.8182	0.	-1643.6
17541	16.704	4.7273	0.	-1620.8
17542	16.612	4.7273	5.e-002	-4.5102
17543	16.612	5.	0.	-1644.6
17544	16.704	4.9091	0.	-1621.7
17545	16.612	4.9091	5.e-002	-4.5093
17546	16.612	5.1818	0.	-1645.6
17547	16.704	5.0909	0.	-1622.7
17548	16.612	5.0909	5.e-002	-4.5083
17549	16.612	5.3636	0.	-1646.8
17550	16.704	5.2727	0.	-1623.8
17551	16.612	5.2727	5.e-002	-4.5061
17552	16.612	5.5455	0.	-1648.1
17553	16.704	5.4545	0.	-1625.
17554	16.612	5.4545	5.e-002	-4.4867
17555	16.612	5.7273	0.	-1650.6
17556	16.704	5.6364	0.	-1626.5
17557	16.612	5.6364	5.e-002	-4.2061
17558	16.704	5.8182	0.	-1630.1
17559	16.612	5.8182	5.e-002	-0.18175
17560	16.612	5.9091	0.	-1646.4
17561	16.796	0.27273	0.	-1605.9
17562	16.889	0.18182	0.	-1585.5
17563	16.796	0.18182	5.e-002	-0.18526
17564	16.796	9.0909e-002	0.	-1601.5
17565	16.796	0.45455	0.	-1603.4
17566	16.889	0.36364	0.	-1581.8
17567	16.796	0.36364	5.e-002	-4.1888
17568	16.796	0.63636	0.	-1602.
17569	16.889	0.54545	0.	-1580.4
17570	16.796	0.54545	5.e-002	-4.4678
17571	16.796	0.81818	0.	-1600.9
17572	16.889	0.72727	0.	-1579.1
17573	16.796	0.72727	5.e-002	-4.4871
17574	16.796	1.	0.	-1599.8
17575	16.889	0.90909	0.	-1578.
17576	16.796	0.90909	5.e-002	-4.4893
17577	16.796	1.1818	0.	-1598.9
17578	16.889	1.0909	0.	-1577.1
17579	16.796	1.0909	5.e-002	-4.4903
17580	16.796	1.3636	0.	-1598.1
17581	16.889	1.2727	0.	-1576.2
17582	16.796	1.2727	5.e-002	-4.4912
17583	16.796	1.5455	0.	-1597.3
17584	16.889	1.4545	0.	-1575.4
17585	16.796	1.4545	5.e-002	-4.492
17586	16.796	1.7273	0.	-1596.7
17587	16.889	1.6364	0.	-1574.7
17588	16.796	1.6364	5.e-002	-4.4927
17589	16.796	1.9091	0.	-1596.2
17590	16.889	1.8182	0.	-1574.2
17591	16.796	1.8182	5.e-002	-4.4933
17592	16.796	2.0909	0.	-1595.7
17593	16.889	2.	0.	-1573.7
17594	16.796	2.	5.e-002	-4.4938
17595	16.796	2.2727	0.	-1595.4
17596	16.889	2.1818	0.	-1573.3
17597	16.796	2.1818	5.e-002	-4.4942
17598	16.796	2.4545	0.	-1595.1
17599	16.889	2.3636	0.	-1573.
17600	16.796	2.3636	5.e-002	-4.4946
17601	16.796	2.6364	0.	-1594.9
17602	16.889	2.5455	0.	-1572.7
17603	16.796	2.5455	5.e-002	-4.4948
17604	16.796	2.8182	0.	-1594.8
17605	16.889	2.7273	0.	-1572.6
17606	16.796	2.7273	5.e-002	-4.495
17607	16.796	3.	0.	-1594.7
17608	16.889	2.9091	0.	-1572.5
17609	16.796	2.9091	5.e-002	-4.4951
17610	16.796	3.1818	0.	-1594.8
17611	16.889	3.0909	0.	-1572.5
17612	16.796	3.0909	5.e-002	-4.4951
17613	16.796	3.3636	0.	-1594.9
17614	16.889	3.2727	0.	-1572.6
17615	16.796	3.2727	5.e-002	-4.495
17616	16.796	3.5455	0.	-1595.1
17617	16.889	3.4545	0.	-1572.7
17618	16.796	3.4545	5.e-002	-4.4948
17619	16.796	3.7273	0.	-1595.4
17620	16.889	3.6364	0.	-1573.
17621	16.796	3.6364	5.e-002	-4.4946
17622	16.796	3.9091	0.	-1595.7
17623	16.889	3.8182	0.	-1573.3
17624	16.796	3.8182	5.e-002	-4.4943
17625	16.796	4.0909	0.	-1596.2
17626	16.889	4.	0.	-1573.7
17627	16.796	4.	5.e-002	-4.4939
17628	16.796	4.2727	0.	-1596.7
17629	16.889	4.1818	0.	-1574.2
17630	16.796	4.1818	5.e-002	-4.4934
17631	16.796	4.4545	0.	-1597.3
17632	16.889	4.3636	0.	-1574.7
17633	16.796	4.3636	5.e-002	-4.4928
17634	16.796	4.6364	0.	-1598.1
17635	16.889	4.5455	0.	-1575.4
17636	16.796	4.5455	5.e-002	-4.4921
17637	16.796	4.8182	0.	-1598.9
17638	16.889	4.7273	0.	-1576.2
17639	16.796	4.7273	5.e-002	-4.4913
17640	16.796	5.	0.	-1599.8
17641	16.889	4.9091	0.	-1577.1
17642	16.796	4.9091	5.e-002	-4.4904
17643	16.796	5.1818	0.	-1600.9
17644	16.889	5.0909	0.	-1578.
17645	16.796	5.0909	5.e-002	-4.4894
17646	16.796	5.3636	0.	-1602.
17647	16.889	5.2727	0.	-1579.1
17648	16.796	5.2727	5.e-002	-4.4872
17649	16.796	5.5455	0.	-1603.4
17650	16.889	5.4545	0.	-1580.4
17651	16.796	5.4545	5.e-002	-4.4679
17652	16.796	5.7273	0.	-1605.9
17653	16.889	5.6364	0.	-1581.8
17654	16.796	5.6364	5.e-002	-4.1889
17655	16.889	5.8182	0.	-1585.5
17656	16.796	5.8182	5.e-002	-0.18528
17657	16.796	5.9091	0.	-1601.5
17658	16.981	0.27273	0.	-1561.3
17659	17.073	0.18182	0.	-1541.
17660	16.981	0.18182	5.e-002	-0.18907
17661	16.981	9.0909e-002	0.	-1556.9
17662	16.981	0.45455	0.	-1558.8
17663	17.073	0.36364	0.	-1537.3
17664	16.981	0.36364	5.e-002	-4.1719
17665	16.981	0.63636	0.	-1557.4
17666	17.073	0.54545	0.	-1535.9
17667	16.981	0.54545	5.e-002	-4.4492
17668	16.981	0.81818	0.	-1556.3
17669	17.073	0.72727	0.	-1534.7
17670	16.981	0.72727	5.e-002	-4.4684
17671	16.981	1.	0.	-1555.2
17672	17.073	0.90909	0.	-1533.6
17673	16.981	0.90909	5.e-002	-4.4706
17674	16.981	1.1818	0.	-1554.3
17675	17.073	1.0909	0.	-1532.6
17676	16.981	1.0909	5.e-002	-4.4717
17677	16.981	1.3636	0.	-1553.5
17678	17.073	1.2727	0.	-1531.7
17679	16.981	1.2727	5.e-002	-4.4726
17680	16.981	1.5455	0.	-1552.8
17681	17.073	1.4545	0.	-1531.
17682	16.981	1.4545	5.e-002	-4.4734
17683	16.981	1.7273	0.	-1552.2
17684	17.073	1.6364	0.	-1530.3
17685	16.981	1.6364	5.e-002	-4.4741
17686	16.981	1.9091	0.	-1551.6
17687	17.073	1.8182	0.	-1529.7
17688	16.981	1.8182	5.e-002	-4.4747
17689	16.981	2.0909	0.	-1551.2
17690	17.073	2.	0.	-1529.3
17691	16.981	2.	5.e-002	-4.4752
17692	16.981	2.2727	0.	-1550.9
17693	17.073	2.1818	0.	-1528.9
17694	16.981	2.1818	5.e-002	-4.4756
17695	16.981	2.4545	0.	-1550.6
17696	17.073	2.3636	0.	-1528.6
17697	16.981	2.3636	5.e-002	-4.476
17698	16.981	2.6364	0.	-1550.4
17699	17.073	2.5455	0.	-1528.3
17700	16.981	2.5455	5.e-002	-4.4762
17701	16.981	2.8182	0.	-1550.3
17702	17.073	2.7273	0.	-1528.2
17703	16.981	2.7273	5.e-002	-4.4764
17704	16.981	3.	0.	-1550.2
17705	17.073	2.9091	0.	-1528.1
17706	16.981	2.9091	5.e-002	-4.4765
17707	16.981	3.1818	0.	-1550.3
17708	17.073	3.0909	0.	-1528.1
17709	16.981	3.0909	5.e-002	-4.4765
17710	16.981	3.3636	0.	-1550.4
17711	17.073	3.2727	0.	-1528.2
17712	16.981	3.2727	5.e-002	-4.4764
17713	16.981	3.5455	0.	-1550.6
17714	17.073	3.4545	0.	-1528.3
17715	16.981	3.4545	5.e-002	-4.4763
17716	16.981	3.7273	0.	-1550.9
17717	17.073	3.6364	0.	-1528.6
17718	16.981	3.6364	5.e-002	-4.476
17719	16.981	3.9091	0.	-1551.2
17720	17.073	3.8182	0.	-1528.9
17721	16.981	3.8182	5.e-002	-4.4757
17722	16.981	4.0909	0.	-1551.6
17723	17.073	4.	0.	-1529.3
17724	16.981	4.	5.e-002	-4.4753
17725	16.981	4.2727	0.	-1552.2
17726	17.073	4.1818	0.	-1529.7
17727	16.981	4.1818	5.e-002	-4.4747
17728	16.981	4.4545	0.	-1552.8
17729	17.073	4.3636	0.	-1530.3
17730	16.981	4.3636	5.e-002	-4.4742
17731	16.981	4.6364	0.	-1553.5
17732	17.073	4.5455	0.	-1531.
17733	16.981	4.5455	5.e-002	-4.4735
17734	16.981	4.8182	0.	-1554.3
17735	17.073	4.7273	0.	-1531.7
17736	16.981	4.7273	5.e-002	-4.4727
17737	16.981	5.	0.	-1555.2
17738	17.073	4.9091	0.	-1532.6
17739	16.981	4.9091	5.e-002	-4.4718
17740	16.981	5.1818	0.	-1556.3
17741	17.073	5.0909	0.	-1533.6
17742	16.981	5.0909	5.e-002	-4.4707
17743	16.981	5.3636	0.	-1557.4
17744	17.073	5.2727	0.	-1534.7
17745	16.981	5.2727	5.e-002	-4.4685
17746	16.981	5.5455	0.	-1558.8
17747	17.073	5.4545	0.	-1535.9
17748	16.981	5.4545	5.e-002	-4.4493
17749	16.981	5.7273	0.	-1561.3
17750	17.073	5.6364	0.	-1537.3
17751	16.981	5.6364	5.e-002	-4.1721
17752	17.073	5.8182	0.	-1541.
17753	16.981	5.8182	5.e-002	-0.18909
17754	16.981	5.9091	0.	-1556.9
17755	17.166	0.27273	0.	-1516.9
17756	17.258	0.18182	0.	-1496.8
17757	17.166	0.18182	5.e-002	-0.19341
17758	17.166	9.0909e-002	0.	-1512.4
17759	17.166	0.45455	0.	-1514.4
17760	17.258	0.36364	0.	-1493.1
17761	17.166	0.36364	5.e-002	-4.1553
17762	17.166	0.63636	0.	-1513.
17763	17.258	0.54545	0.	-1491.6
17764	17.166	0.54545	5.e-002	-4.4308
17765	17.166	0.81818	0.	-1511.9
17766	17.258	0.72727	0.	-1490.4
17767	17.166	0.72727	5.e-002	-4.4499
17768	17.166	1.	0.	-1510.9
17769	17.258	0.90909	0.	-1489.3
17770	17.166	0.90909	5.e-002	-4.4522
17771	17.166	1.1818	0.	-1510.
17772	17.258	1.0909	0.	-1488.3
17773	17.166	1.0909	5.e-002	-4.4533
17774	17.166	1.3636	0.	-1509.2
17775	17.258	1.2727	0.	-1487.5
17776	17.166	1.2727	5.e-002	-4.4542
17777	17.166	1.5455	0.	-1508.4
17778	17.258	1.4545	0.	-1486.7
17779	17.166	1.4545	5.e-002	-4.455
17780	17.166	1.7273	0.	-1507.8
17781	17.258	1.6364	0.	-1486.1
17782	17.166	1.6364	5.e-002	-4.4557
17783	17.166	1.9091	0.	-1507.3
17784	17.258	1.8182	0.	-1485.5
17785	17.166	1.8182	5.e-002	-4.4563
17786	17.166	2.0909	0.	-1506.9
17787	17.258	2.	0.	-1485.
17788	17.166	2.	5.e-002	-4.4569
17789	17.166	2.2727	0.	-1506.6
17790	17.258	2.1818	0.	-1484.7
17791	17.166	2.1818	5.e-002	-4.4573
17792	17.166	2.4545	0.	-1506.3
17793	17.258	2.3636	0.	-1484.4
17794	17.166	2.3636	5.e-002	-4.4577
17795	17.166	2.6364	0.	-1506.1
17796	17.258	2.5455	0.	-1484.1
17797	17.166	2.5455	5.e-002	-4.4579
17798	17.166	2.8182	0.	-1506.
17799	17.258	2.7273	0.	-1484.
17800	17.166	2.7273	5.e-002	-4.4581
17801	17.166	3.	0.	-1505.9
17802	17.258	2.9091	0.	-1483.9
17803	17.166	2.9091	5.e-002	-4.4582
17804	17.166	3.1818	0.	-1506.
17805	17.258	3.0909	0.	-1483.9
17806	17.166	3.0909	5.e-002	-4.4582
17807	17.166	3.3636	0.	-1506.1
17808	17.258	3.2727	0.	-1484.
17809	17.166	3.2727	5.e-002	-4.4581
17810	17.166	3.5455	0.	-1506.3
17811	17.258	3.4545	0.	-1484.1
17812	17.166	3.4545	5.e-002	-4.4579
17813	17.166	3.7273	0.	-1506.6
17814	17.258	3.6364	0.	-1484.4
17815	17.166	3.6364	5.e-002	-4.4577
17816	17.166	3.9091	0.	-1506.9
17817	17.258	3.8182	0.	-1484.7
17818	17.166	3.8182	5.e-002	-4.4573
17819	17.166	4.0909	0.	-1507.3
17820	17.258	4.	0.	-1485.
17821	17.166	4.	5.e-002	-4.4569
17822	17.166	4.2727	0.	-1507.8
17823	17.258	4.1818	0.	-1485.5
17824	17.166	4.1818	5.e-002	-4.4564
17825	17.166	4.4545	0.	-1508.4
17826	17.258	4.3636	0.	-1486.1
17827	17.166	4.3636	5.e-002	-4.4558
17828	17.166	4.6364	0.	-1509.2
17829	17.258	4.5455	0.	-1486.7
17830	17.166	4.5455	5.e-002	-4.4551
17831	17.166	4.8182	0.	-1510.
17832	17.258	4.7273	0.	-1487.5
17833	17.166	4.7273	5.e-002	-4.4543
17834	17.166	5.	0.	-1510.9
17835	17.258	4.9091	0.	-1488.3
17836	17.166	4.9091	5.e-002	-4.4534
17837	17.166	5.1818	0.	-1511.9
17838	17.258	5.0909	0.	-1489.3
17839	17.166	5.0909	5.e-002	-4.4523
17840	17.166	5.3636	0.	-1513.
17841	17.258	5.2727	0.	-1490.4
17842	17.166	5.2727	5.e-002	-4.45
17843	17.166	5.5455	0.	-1514.4
17844	17.258	5.4545	0.	-1491.6
17845	17.166	5.4545	5.e-002	-4.431
17846	17.166	5.7273	0.	-1516.9
17847	17.258	5.6364	0.	-1493.1
17848	17.166	5.6364	5.e-002	-4.1555
17849	17.258	5.8182	0.	-1496.8
17850	17.166	5.8182	5.e-002	-0.19343
17851	17.166	5.9091	0.	-1512.4
17852	17.35	0.27273	0.	-1472.8
17853	17.443	0.18182	0.	-1452.7
17854	17.35	0.18182	5.e-002	-0.19858
17855	17.35	9.0909e-002	0.	-1468.1
17856	17.35	0.45455	0.	-1470.2
17857	17.443	0.36364	0.	-1449.
17858	17.35	0.36364	5.e-002	-4.139
17859	17.35	0.63636	0.	-1468.9
17860	17.443	0.54545	0.	-1447.5
17861	17.35	0.54545	5.e-002	-4.4127
17862	17.35	0.81818	0.	-1467.7
17863	17.443	0.72727	0.	-1446.3
17864	17.35	0.72727	5.e-002	-4.4317
17865	17.35	1.	0.	-1466.7
17866	17.443	0.90909	0.	-1445.2
17867	17.35	0.90909	5.e-002	-4.434
17868	17.35	1.1818	0.	-1465.8
17869	17.443	1.0909	0.	-1444.2
17870	17.35	1.0909	5.e-002	-4.4351
17871	17.35	1.3636	0.	-1465.
17872	17.443	1.2727	0.	-1443.4
17873	17.35	1.2727	5.e-002	-4.436
17874	17.35	1.5455	0.	-1464.3
17875	17.443	1.4545	0.	-1442.7
17876	17.35	1.4545	5.e-002	-4.4369
17877	17.35	1.7273	0.	-1463.7
17878	17.443	1.6364	0.	-1442.
17879	17.35	1.6364	5.e-002	-4.4376
17880	17.35	1.9091	0.	-1463.2
17881	17.443	1.8182	0.	-1441.5
17882	17.35	1.8182	5.e-002	-4.4383
17883	17.35	2.0909	0.	-1462.8
17884	17.443	2.	0.	-1441.
17885	17.35	2.	5.e-002	-4.4388
17886	17.35	2.2727	0.	-1462.5
17887	17.443	2.1818	0.	-1440.7
17888	17.35	2.1818	5.e-002	-4.4392
17889	17.35	2.4545	0.	-1462.2
17890	17.443	2.3636	0.	-1440.4
17891	17.35	2.3636	5.e-002	-4.4396
17892	17.35	2.6364	0.	-1462.
17893	17.443	2.5455	0.	-1440.2
17894	17.35	2.5455	5.e-002	-4.4399
17895	17.35	2.8182	0.	-1461.9
17896	17.443	2.7273	0.	-1440.
17897	17.35	2.7273	5.e-002	-4.4401
17898	17.35	3.	0.	-1461.9
17899	17.443	2.9091	0.	-1440.
17900	17.35	2.9091	5.e-002	-4.4401
17901	17.35	3.1818	0.	-1461.9
17902	17.443	3.0909	0.	-1440.
17903	17.35	3.0909	5.e-002	-4.4402
17904	17.35	3.3636	0.	-1462.
17905	17.443	3.2727	0.	-1440.
17906	17.35	3.2727	5.e-002	-4.4401
17907	17.35	3.5455	0.	-1462.2
17908	17.443	3.4545	0.	-1440.2
17909	17.35	3.4545	5.e-002	-4.4399
17910	17.35	3.7273	0.	-1462.5
17911	17.443	3.6364	0.	-1440.4
17912	17.35	3.6364	5.e-002	-4.4396
17913	17.35	3.9091	0.	-1462.8
17914	17.443	3.8182	0.	-1440.7
17915	17.35	3.8182	5.e-002	-4.4393
17916	17.35	4.0909	0.	-1463.2
17917	17.443	4.	0.	-1441.
17918	17.35	4.	5.e-002	-4.4388
17919	17.35	4.2727	0.	-1463.7
17920	17.443	4.1818	0.	-1441.5
17921	17.35	4.1818	5.e-002	-4.4383
17922	17.35	4.4545	0.	-1464.3
17923	17.443	4.3636	0.	-1442.
17924	17.35	4.3636	5.e-002	-4.4377
17925	17.35	4.6364	0.	-1465.
17926	17.443	4.5455	0.	-1442.7
17927	17.35	4.5455	5.e-002	-4.437
17928	17.35	4.8182	0.	-1465.8
17929	17.443	4.7273	0.	-1443.4
17930	17.35	4.7273	5.e-002	-4.4361
17931	17.35	5.	0.	-1466.7
17932	17.443	4.9091	0.	-1444.2
17933	17.35	4.9091	5.e-002	-4.4352
17934	17.35	5.1818	0.	-1467.7
17935	17.443	5.0909	0.	-1445.2
17936	17.35	5.0909	5.e-002	-4.4341
17937	17.35	5.3636	0.	-1468.9
17938	17.443	5.2727	0.	-1446.3
17939	17.35	5.2727	5.e-002	-4.4318
17940	17.35	5.5455	0.	-1470.2
17941	17.443	5.4545	0.	-1447.5
17942	17.35	5.4545	5.e-002	-4.4128
17943	17.35	5.7273	0.	-1472.8
17944	17.443	5.6364	0.	-1449.
17945	17.35	5.6364	5.e-002	-4.1392
17946	17.443	5.8182	0.	-1452.7
17947	17.35	5.8182	5.e-002	-0.19859
17948	17.35	5.9091	0.	-1468.1
17949	17.535	0.27273	0.	-1428.8
17950	17.628	0.18182	0.	-1408.8
17951	17.535	0.18182	5.e-002	-0.20489
17952	17.535	9.0909e-002	0.	-1424.1
17953	17.535	0.45455	0.	-1426.2
17954	17.628	0.36364	0.	-1405.
17955	17.535	0.36364	5.e-002	-4.1231
17956	17.535	0.63636	0.	-1424.9
17957	17.628	0.54545	0.	-1403.6
17958	17.535	0.54545	5.e-002	-4.3948
17959	17.535	0.81818	0.	-1423.7
17960	17.628	0.72727	0.	-1402.4
17961	17.535	0.72727	5.e-002	-4.4137
17962	17.535	1.	0.	-1422.7
17963	17.628	0.90909	0.	-1401.3
17964	17.535	0.90909	5.e-002	-4.416
17965	17.535	1.1818	0.	-1421.8
17966	17.628	1.0909	0.	-1400.4
17967	17.535	1.0909	5.e-002	-4.4172
17968	17.535	1.3636	0.	-1421.
17969	17.628	1.2727	0.	-1399.5
17970	17.535	1.2727	5.e-002	-4.4182
17971	17.535	1.5455	0.	-1420.4
17972	17.628	1.4545	0.	-1398.8
17973	17.535	1.4545	5.e-002	-4.419
17974	17.535	1.7273	0.	-1419.8
17975	17.628	1.6364	0.	-1398.2
17976	17.535	1.6364	5.e-002	-4.4198
17977	17.535	1.9091	0.	-1419.3
17978	17.628	1.8182	0.	-1397.7
17979	17.535	1.8182	5.e-002	-4.4204
17980	17.535	2.0909	0.	-1418.9
17981	17.628	2.	0.	-1397.2
17982	17.535	2.	5.e-002	-4.421
17983	17.535	2.2727	0.	-1418.6
17984	17.628	2.1818	0.	-1396.9
17985	17.535	2.1818	5.e-002	-4.4215
17986	17.535	2.4545	0.	-1418.3
17987	17.628	2.3636	0.	-1396.6
17988	17.535	2.3636	5.e-002	-4.4218
17989	17.535	2.6364	0.	-1418.1
17990	17.628	2.5455	0.	-1396.4
17991	17.535	2.5455	5.e-002	-4.4221
17992	17.535	2.8182	0.	-1418.
17993	17.628	2.7273	0.	-1396.3
17994	17.535	2.7273	5.e-002	-4.4223
17995	17.535	3.	0.	-1418.
17996	17.628	2.9091	0.	-1396.2
17997	17.535	2.9091	5.e-002	-4.4224
17998	17.535	3.1818	0.	-1418.
17999	17.628	3.0909	0.	-1396.2
18000	17.535	3.0909	5.e-002	-4.4224
18001	17.535	3.3636	0.	-1418.1
18002	17.628	3.2727	0.	-1396.3
18003	17.535	3.2727	5.e-002	-4.4223
18004	17.535	3.5455	0.	-1418.3
18005	17.628	3.4545	0.	-1396.4
18006	17.535	3.4545	5.e-002	-4.4221
18007	17.535	3.7273	0.	-1418.6
18008	17.628	3.6364	0.	-1396.6
18009	17.535	3.6364	5.e-002	-4.4219
18010	17.535	3.9091	0.	-1418.9
18011	17.628	3.8182	0.	-1396.9
18012	17.535	3.8182	5.e-002	-4.4215
18013	17.535	4.0909	0.	-1419.3
18014	17.628	4.	0.	-1397.2
18015	17.535	4.	5.e-002	-4.4211
18016	17.535	4.2727	0.	-1419.8
18017	17.628	4.1818	0.	-1397.7
18018	17.535	4.1818	5.e-002	-4.4205
18019	17.535	4.4545	0.	-1420.4
18020	17.628	4.3636	0.	-1398.2
18021	17.535	4.3636	5.e-002	-4.4199
18022	17.535	4.6364	0.	-1421.
18023	17.628	4.5455	0.	-1398.8
18024	17.535	4.5455	5.e-002	-4.4191
18025	17.535	4.8182	0.	-1421.8
18026	17.628	4.7273	0.	-1399.5
18027	17.535	4.7273	5.e-002	-4.4183
18028	17.535	5.	0.	-1422.7
18029	17.628	4.9091	0.	-1400.4
18030	17.535	4.9091	5.e-002	-4.4173
18031	17.535	5.1818	0.	-1423.7
18032	17.628	5.0909	0.	-1401.3
18033	17.535	5.0909	5.e-002	-4.4161
18034	17.535	5.3636	0.	-1424.9
18035	17.628	5.2727	0.	-1402.4
18036	17.535	5.2727	5.e-002	-4.4138
18037	17.535	5.5455	0.	-1426.2
18038	17.628	5.4545	0.	-1403.6
18039	17.535	5.4545	5.e-002	-4.3949
18040	17.535	5.7273	0.	-1428.8
18041	17.628	5.6364	0.	-1405.
18042	17.535	5.6364	5.e-002	-4.1232
18043	17.628	5.8182	0.	-1408.8
18044	17.535	5.8182	5.e-002	-0.20489
18045	17.535	5.9091	0.	-1424.1
18046	17.72	0.27273	0.	-1385.
18047	17.812	0.18182	0.	-1365.2
18048	17.72	0.18182	5.e-002	-0.21267
18049	17.72	9.0909e-002	0.	-1380.2
18050	17.72	0.45455	0.	-1382.4
18051	17.812	0.36364	0.	-1361.3
18052	17.72	0.36364	5.e-002	-4.1075
18053	17.72	0.63636	0.	-1381.
18054	17.812	0.54545	0.	-1359.9
18055	17.72	0.54545	5.e-002	-4.3771
18056	17.72	0.81818	0.	-1379.9
18057	17.812	0.72727	0.	-1358.7
18058	17.72	0.72727	5.e-002	-4.396
18059	17.72	1.	0.	-1378.9
18060	17.812	0.90909	0.	-1357.6
18061	17.72	0.90909	5.e-002	-4.3984
18062	17.72	1.1818	0.	-1378.
18063	17.812	1.0909	0.	-1356.7
18064	17.72	1.0909	5.e-002	-4.3996
18065	17.72	1.3636	0.	-1377.3
18066	17.812	1.2727	0.	-1355.9
18067	17.72	1.2727	5.e-002	-4.4006
18068	17.72	1.5455	0.	-1376.6
18069	17.812	1.4545	0.	-1355.2
18070	17.72	1.4545	5.e-002	-4.4015
18071	17.72	1.7273	0.	-1376.1
18072	17.812	1.6364	0.	-1354.6
18073	17.72	1.6364	5.e-002	-4.4023
18074	17.72	1.9091	0.	-1375.6
18075	17.812	1.8182	0.	-1354.1
18076	17.72	1.8182	5.e-002	-4.4029
18077	17.72	2.0909	0.	-1375.2
18078	17.812	2.	0.	-1353.6
18079	17.72	2.	5.e-002	-4.4035
18080	17.72	2.2727	0.	-1374.9
18081	17.812	2.1818	0.	-1353.3
18082	17.72	2.1818	5.e-002	-4.404
18083	17.72	2.4545	0.	-1374.6
18084	17.812	2.3636	0.	-1353.
18085	17.72	2.3636	5.e-002	-4.4044
18086	17.72	2.6364	0.	-1374.5
18087	17.812	2.5455	0.	-1352.8
18088	17.72	2.5455	5.e-002	-4.4047
18089	17.72	2.8182	0.	-1374.4
18090	17.812	2.7273	0.	-1352.7
18091	17.72	2.7273	5.e-002	-4.4049
18092	17.72	3.	0.	-1374.3
18093	17.812	2.9091	0.	-1352.6
18094	17.72	2.9091	5.e-002	-4.405
18095	17.72	3.1818	0.	-1374.4
18096	17.812	3.0909	0.	-1352.6
18097	17.72	3.0909	5.e-002	-4.405
18098	17.72	3.3636	0.	-1374.5
18099	17.812	3.2727	0.	-1352.7
18100	17.72	3.2727	5.e-002	-4.4049
18101	17.72	3.5455	0.	-1374.6
18102	17.812	3.4545	0.	-1352.8
18103	17.72	3.4545	5.e-002	-4.4047
18104	17.72	3.7273	0.	-1374.9
18105	17.812	3.6364	0.	-1353.
18106	17.72	3.6364	5.e-002	-4.4044
18107	17.72	3.9091	0.	-1375.2
18108	17.812	3.8182	0.	-1353.3
18109	17.72	3.8182	5.e-002	-4.404
18110	17.72	4.0909	0.	-1375.6
18111	17.812	4.	0.	-1353.6
18112	17.72	4.	5.e-002	-4.4036
18113	17.72	4.2727	0.	-1376.1
18114	17.812	4.1818	0.	-1354.1
18115	17.72	4.1818	5.e-002	-4.403
18116	17.72	4.4545	0.	-1376.6
18117	17.812	4.3636	0.	-1354.6
18118	17.72	4.3636	5.e-002	-4.4023
18119	17.72	4.6364	0.	-1377.3
18120	17.812	4.5455	0.	-1355.2
18121	17.72	4.5455	5.e-002	-4.4015
18122	17.72	4.8182	0.	-1378.
18123	17.812	4.7273	0.	-1355.9
18124	17.72	4.7273	5.e-002	-4.4007
18125	17.72	5.	0.	-1378.9
18126	17.812	4.9091	0.	-1356.7
18127	17.72	4.9091	5.e-002	-4.3996
18128	17.72	5.1818	0.	-1379.9
18129	17.812	5.0909	0.	-1357.6
18130	17.72	5.0909	5.e-002	-4.3985
18131	17.72	5.3636	0.	-1381.
18132	17.812	5.2727	0.	-1358.7
18133	17.72	5.2727	5.e-002	-4.3961
18134	17.72	5.5455	0.	-1382.4
18135	17.812	5.4545	0.	-1359.9
18136	17.72	5.4545	5.e-002	-4.3772
18137	17.72	5.7273	0.	-1385.
18138	17.812	5.6364	0.	-1361.3
18139	17.72	5.6364	5.e-002	-4.1076
18140	17.812	5.8182	0.	-1365.2
18141	17.72	5.8182	5.e-002	-0.21267
18142	17.72	5.9091	0.	-1380.2
18143	17.905	0.27273	0.	-1341.4
18144	17.997	0.18182	0.	-1321.7
18145	17.905	0.18182	5.e-002	-0.22228
18146	17.905	9.0909e-002	0.	-1336.5
18147	17.905	0.45455	0.	-1338.8
18148	17.997	0.36364	0.	-1317.8
18149	17.905	0.36364	5.e-002	-4.0922
18150	17.905	0.63636	0.	-1337.4
18151	17.997	0.54545	0.	-1316.3
18152	17.905	0.54545	5.e-002	-4.3597
18153	17.905	0.81818	0.	-1336.3
18154	17.997	0.72727	0.	-1315.1
18155	17.905	0.72727	5.e-002	-4.3785
18156	17.905	1.	0.	-1335.3
18157	17.997	0.90909	0.	-1314.1
18158	17.905	0.90909	5.e-002	-4.3809
18159	17.905	1.1818	0.	-1334.5
18160	17.997	1.0909	0.	-1313.2
18161	17.905	1.0909	5.e-002	-4.3822
18162	17.905	1.3636	0.	-1333.7
18163	17.997	1.2727	0.	-1312.4
18164	17.905	1.2727	5.e-002	-4.3833
18165	17.905	1.5455	0.	-1333.1
18166	17.997	1.4545	0.	-1311.7
18167	17.905	1.4545	5.e-002	-4.3842
18168	17.905	1.7273	0.	-1332.5
18169	17.997	1.6364	0.	-1311.1
18170	17.905	1.6364	5.e-002	-4.385
18171	17.905	1.9091	0.	-1332.1
18172	17.997	1.8182	0.	-1310.6
18173	17.905	1.8182	5.e-002	-4.3858
18174	17.905	2.0909	0.	-1331.7
18175	17.997	2.	0.	-1310.2
18176	17.905	2.	5.e-002	-4.3864
18177	17.905	2.2727	0.	-1331.4
18178	17.997	2.1818	0.	-1309.9
18179	17.905	2.1818	5.e-002	-4.3869
18180	17.905	2.4545	0.	-1331.2
18181	17.997	2.3636	0.	-1309.6
18182	17.905	2.3636	5.e-002	-4.3873
18183	17.905	2.6364	0.	-1331.
18184	17.997	2.5455	0.	-1309.5
18185	17.905	2.5455	5.e-002	-4.3876
18186	17.905	2.8182	0.	-1330.9
18187	17.997	2.7273	0.	-1309.3
18188	17.905	2.7273	5.e-002	-4.3878
18189	17.905	3.	0.	-1330.9
18190	17.997	2.9091	0.	-1309.3
18191	17.905	2.9091	5.e-002	-4.3879
18192	17.905	3.1818	0.	-1330.9
18193	17.997	3.0909	0.	-1309.3
18194	17.905	3.0909	5.e-002	-4.3879
18195	17.905	3.3636	0.	-1331.
18196	17.997	3.2727	0.	-1309.3
18197	17.905	3.2727	5.e-002	-4.3878
18198	17.905	3.5455	0.	-1331.2
18199	17.997	3.4545	0.	-1309.5
18200	17.905	3.4545	5.e-002	-4.3876
18201	17.905	3.7273	0.	-1331.4
18202	17.997	3.6364	0.	-1309.6
18203	17.905	3.6364	5.e-002	-4.3873
18204	17.905	3.9091	0.	-1331.7
18205	17.997	3.8182	0.	-1309.9
18206	17.905	3.8182	5.e-002	-4.3869
18207	17.905	4.0909	0.	-1332.1
18208	17.997	4.	0.	-1310.2
18209	17.905	4.	5.e-002	-4.3864
18210	17.905	4.2727	0.	-1332.5
18211	17.997	4.1818	0.	-1310.6
18212	17.905	4.1818	5.e-002	-4.3858
18213	17.905	4.4545	0.	-1333.1
18214	17.997	4.3636	0.	-1311.1
18215	17.905	4.3636	5.e-002	-4.3851
18216	17.905	4.6364	0.	-1333.7
18217	17.997	4.5455	0.	-1311.7
18218	17.905	4.5455	5.e-002	-4.3843
18219	17.905	4.8182	0.	-1334.5
18220	17.997	4.7273	0.	-1312.4
18221	17.905	4.7273	5.e-002	-4.3834
18222	17.905	5.	0.	-1335.3
18223	17.997	4.9091	0.	-1313.2
18224	17.905	4.9091	5.e-002	-4.3823
18225	17.905	5.1818	0.	-1336.3
18226	17.997	5.0909	0.	-1314.1
18227	17.905	5.0909	5.e-002	-4.381
18228	17.905	5.3636	0.	-1337.4
18229	17.997	5.2727	0.	-1315.1
18230	17.905	5.2727	5.e-002	-4.3786
18231	17.905	5.5455	0.	-1338.8
18232	17.997	5.4545	0.	-1316.3
18233	17.905	5.4545	5.e-002	-4.3599
18234	17.905	5.7273	0.	-1341.4
18235	17.997	5.6364	0.	-1317.8
18236	17.905	5.6364	5.e-002	-4.0924
18237	17.997	5.8182	0.	-1321.7
18238	17.905	5.8182	5.e-002	-0.22229
18239	17.905	5.9091	0.	-1336.5
18240	18.089	0.27273	0.	-1298.
18241	18.182	0.18182	0.	-1278.4
18242	18.089	0.18182	5.e-002	-0.23406
18243	18.089	9.0909e-002	0.	-1293.
18244	18.089	0.45455	0.	-1295.3
18245	18.182	0.36364	0.	-1274.5
18246	18.089	0.36364	5.e-002	-4.0773
18247	18.089	0.63636	0.	-1294.
18248	18.182	0.54545	0.	-1273.
18249	18.089	0.54545	5.e-002	-4.3426
18250	18.089	0.81818	0.	-1292.9
18251	18.182	0.72727	0.	-1271.8
18252	18.089	0.72727	5.e-002	-4.3613
18253	18.089	1.	0.	-1291.9
18254	18.182	0.90909	0.	-1270.8
18255	18.089	0.90909	5.e-002	-4.3638
18256	18.089	1.1818	0.	-1291.1
18257	18.182	1.0909	0.	-1269.9
18258	18.089	1.0909	5.e-002	-4.3651
18259	18.089	1.3636	0.	-1290.4
18260	18.182	1.2727	0.	-1269.1
18261	18.089	1.2727	5.e-002	-4.3663
18262	18.089	1.5455	0.	-1289.7
18263	18.182	1.4545	0.	-1268.5
18264	18.089	1.4545	5.e-002	-4.3672
18265	18.089	1.7273	0.	-1289.2
18266	18.182	1.6364	0.	-1267.9
18267	18.089	1.6364	5.e-002	-4.3681
18268	18.089	1.9091	0.	-1288.8
18269	18.182	1.8182	0.	-1267.4
18270	18.089	1.8182	5.e-002	-4.3689
18271	18.089	2.0909	0.	-1288.4
18272	18.182	2.	0.	-1267.
18273	18.089	2.	5.e-002	-4.3695
18274	18.089	2.2727	0.	-1288.1
18275	18.182	2.1818	0.	-1266.7
18276	18.089	2.1818	5.e-002	-4.37
18277	18.089	2.4545	0.	-1287.9
18278	18.182	2.3636	0.	-1266.5
18279	18.089	2.3636	5.e-002	-4.3705
18280	18.089	2.6364	0.	-1287.8
18281	18.182	2.5455	0.	-1266.3
18282	18.089	2.5455	5.e-002	-4.3708
18283	18.089	2.8182	0.	-1287.7
18284	18.182	2.7273	0.	-1266.2
18285	18.089	2.7273	5.e-002	-4.371
18286	18.089	3.	0.	-1287.6
18287	18.182	2.9091	0.	-1266.1
18288	18.089	2.9091	5.e-002	-4.3711
18289	18.089	3.1818	0.	-1287.7
18290	18.182	3.0909	0.	-1266.1
18291	18.089	3.0909	5.e-002	-4.3711
18292	18.089	3.3636	0.	-1287.8
18293	18.182	3.2727	0.	-1266.2
18294	18.089	3.2727	5.e-002	-4.371
18295	18.089	3.5455	0.	-1287.9
18296	18.182	3.4545	0.	-1266.3
18297	18.089	3.4545	5.e-002	-4.3708
18298	18.089	3.7273	0.	-1288.1
18299	18.182	3.6364	0.	-1266.5
18300	18.089	3.6364	5.e-002	-4.3705
18301	18.089	3.9091	0.	-1288.4
18302	18.182	3.8182	0.	-1266.7
18303	18.089	3.8182	5.e-002	-4.3701
18304	18.089	4.0909	0.	-1288.8
18305	18.182	4.	0.	-1267.
18306	18.089	4.	5.e-002	-4.3696
18307	18.089	4.2727	0.	-1289.2
18308	18.182	4.1818	0.	-1267.4
18309	18.089	4.1818	5.e-002	-4.3689
18310	18.089	4.4545	0.	-1289.7
18311	18.182	4.3636	0.	-1267.9
18312	18.089	4.3636	5.e-002	-4.3682
18313	18.089	4.6364	0.	-1290.4
18314	18.182	4.5455	0.	-1268.5
18315	18.089	4.5455	5.e-002	-4.3673
18316	18.089	4.8182	0.	-1291.1
18317	18.182	4.7273	0.	-1269.1
18318	18.089	4.7273	5.e-002	-4.3663
18319	18.089	5.	0.	-1291.9
18320	18.182	4.9091	0.	-1269.9
18321	18.089	4.9091	5.e-002	-4.3652
18322	18.089	5.1818	0.	-1292.9
18323	18.182	5.0909	0.	-1270.8
18324	18.089	5.0909	5.e-002	-4.3639
18325	18.089	5.3636	0.	-1294.
18326	18.182	5.2727	0.	-1271.8
18327	18.089	5.2727	5.e-002	-4.3614
18328	18.089	5.5455	0.	-1295.3
18329	18.182	5.4545	0.	-1273.
18330	18.089	5.4545	5.e-002	-4.3427
18331	18.089	5.7273	0.	-1298.
18332	18.182	5.6364	0.	-1274.5
18333	18.089	5.6364	5.e-002	-4.0775
18334	18.182	5.8182	0.	-1278.4
18335	18.089	5.8182	5.e-002	-0.23406
18336	18.089	5.9091	0.	-1293.
18337	18.274	0.27273	0.	-1254.7
18338	18.366	0.18182	0.	-1235.2
18339	18.274	0.18182	5.e-002	-0.2483
18340	18.274	9.0909e-002	0.	-1249.7
18341	18.274	0.45455	0.	-1252.1
18342	18.366	0.36364	0.	-1231.3
18343	18.274	0.36364	5.e-002	-4.0628
18344	18.274	0.63636	0.	-1250.8
18345	18.366	0.54545	0.	-1229.8
18346	18.274	0.54545	5.e-002	-4.3258
18347	18.274	0.81818	0.	-1249.7
18348	18.366	0.72727	0.	-1228.7
18349	18.274	0.72727	5.e-002	-4.3444
18350	18.274	1.	0.	-1248.7
18351	18.366	0.90909	0.	-1227.7
18352	18.274	0.90909	5.e-002	-4.347
18353	18.274	1.1818	0.	-1247.9
18354	18.366	1.0909	0.	-1226.8
18355	18.274	1.0909	5.e-002	-4.3484
18356	18.274	1.3636	0.	-1247.2
18357	18.366	1.2727	0.	-1226.1
18358	18.274	1.2727	5.e-002	-4.3495
18359	18.274	1.5455	0.	-1246.6
18360	18.366	1.4545	0.	-1225.4
18361	18.274	1.4545	5.e-002	-4.3506
18362	18.274	1.7273	0.	-1246.1
18363	18.366	1.6364	0.	-1224.9
18364	18.274	1.6364	5.e-002	-4.3515
18365	18.274	1.9091	0.	-1245.7
18366	18.366	1.8182	0.	-1224.4
18367	18.274	1.8182	5.e-002	-4.3523
18368	18.274	2.0909	0.	-1245.3
18369	18.366	2.	0.	-1224.1
18370	18.274	2.	5.e-002	-4.353
18371	18.274	2.2727	0.	-1245.1
18372	18.366	2.1818	0.	-1223.8
18373	18.274	2.1818	5.e-002	-4.3536
18374	18.274	2.4545	0.	-1244.9
18375	18.366	2.3636	0.	-1223.5
18376	18.274	2.3636	5.e-002	-4.354
18377	18.274	2.6364	0.	-1244.7
18378	18.366	2.5455	0.	-1223.4
18379	18.274	2.5455	5.e-002	-4.3543
18380	18.274	2.8182	0.	-1244.6
18381	18.366	2.7273	0.	-1223.3
18382	18.274	2.7273	5.e-002	-4.3546
18383	18.274	3.	0.	-1244.6
18384	18.366	2.9091	0.	-1223.2
18385	18.274	2.9091	5.e-002	-4.3547
18386	18.274	3.1818	0.	-1244.6
18387	18.366	3.0909	0.	-1223.2
18388	18.274	3.0909	5.e-002	-4.3547
18389	18.274	3.3636	0.	-1244.7
18390	18.366	3.2727	0.	-1223.3
18391	18.274	3.2727	5.e-002	-4.3546
18392	18.274	3.5455	0.	-1244.9
18393	18.366	3.4545	0.	-1223.4
18394	18.274	3.4545	5.e-002	-4.3544
18395	18.274	3.7273	0.	-1245.1
18396	18.366	3.6364	0.	-1223.5
18397	18.274	3.6364	5.e-002	-4.354
18398	18.274	3.9091	0.	-1245.3
18399	18.366	3.8182	0.	-1223.8
18400	18.274	3.8182	5.e-002	-4.3536
18401	18.274	4.0909	0.	-1245.7
18402	18.366	4.	0.	-1224.1
18403	18.274	4.	5.e-002	-4.353
18404	18.274	4.2727	0.	-1246.1
18405	18.366	4.1818	0.	-1224.4
18406	18.274	4.1818	5.e-002	-4.3524
18407	18.274	4.4545	0.	-1246.6
18408	18.366	4.3636	0.	-1224.9
18409	18.274	4.3636	5.e-002	-4.3516
18410	18.274	4.6364	0.	-1247.2
18411	18.366	4.5455	0.	-1225.4
18412	18.274	4.5455	5.e-002	-4.3507
18413	18.274	4.8182	0.	-1247.9
18414	18.366	4.7273	0.	-1226.1
18415	18.274	4.7273	5.e-002	-4.3496
18416	18.274	5.	0.	-1248.7
18417	18.366	4.9091	0.	-1226.8
18418	18.274	4.9091	5.e-002	-4.3484
18419	18.274	5.1818	0.	-1249.7
18420	18.366	5.0909	0.	-1227.7
18421	18.274	5.0909	5.e-002	-4.3471
18422	18.274	5.3636	0.	-1250.8
18423	18.366	5.2727	0.	-1228.7
18424	18.274	5.2727	5.e-002	-4.3445
18425	18.274	5.5455	0.	-1252.1
18426	18.366	5.4545	0.	-1229.8
18427	18.274	5.4545	5.e-002	-4.3259
18428	18.274	5.7273	0.	-1254.7
18429	18.366	5.6364	0.	-1231.3
18430	18.274	5.6364	5.e-002	-4.0629
18431	18.366	5.8182	0.	-1235.2
18432	18.274	5.8182	5.e-002	-0.24831
18433	18.274	5.9091	0.	-1249.7
18434	18.459	0.27273	0.	-1211.7
18435	18.551	0.18182	0.	-1192.3
18436	18.459	0.18182	5.e-002	-0.26532
18437	18.459	9.0909e-002	0.	-1206.6
18438	18.459	0.45455	0.	-1209.
18439	18.551	0.36364	0.	-1188.3
18440	18.459	0.36364	5.e-002	-4.0488
18441	18.459	0.63636	0.	-1207.7
18442	18.551	0.54545	0.	-1186.9
18443	18.459	0.54545	5.e-002	-4.3092
18444	18.459	0.81818	0.	-1206.6
18445	18.551	0.72727	0.	-1185.7
18446	18.459	0.72727	5.e-002	-4.3278
18447	18.459	1.	0.	-1205.7
18448	18.551	0.90909	0.	-1184.7
18449	18.459	0.90909	5.e-002	-4.3305
18450	18.459	1.1818	0.	-1204.9
18451	18.551	1.0909	0.	-1183.9
18452	18.459	1.0909	5.e-002	-4.3319
18453	18.459	1.3636	0.	-1204.2
18454	18.551	1.2727	0.	-1183.2
18455	18.459	1.2727	5.e-002	-4.3332
18456	18.459	1.5455	0.	-1203.7
18457	18.551	1.4545	0.	-1182.6
18458	18.459	1.4545	5.e-002	-4.3343
18459	18.459	1.7273	0.	-1203.2
18460	18.551	1.6364	0.	-1182.
18461	18.459	1.6364	5.e-002	-4.3353
18462	18.459	1.9091	0.	-1202.8
18463	18.551	1.8182	0.	-1181.6
18464	18.459	1.8182	5.e-002	-4.3361
18465	18.459	2.0909	0.	-1202.4
18466	18.551	2.	0.	-1181.3
18467	18.459	2.	5.e-002	-4.3369
18468	18.459	2.2727	0.	-1202.2
18469	18.551	2.1818	0.	-1181.
18470	18.459	2.1818	5.e-002	-4.3375
18471	18.459	2.4545	0.	-1202.
18472	18.551	2.3636	0.	-1180.8
18473	18.459	2.3636	5.e-002	-4.3379
18474	18.459	2.6364	0.	-1201.9
18475	18.551	2.5455	0.	-1180.6
18476	18.459	2.5455	5.e-002	-4.3383
18477	18.459	2.8182	0.	-1201.8
18478	18.551	2.7273	0.	-1180.5
18479	18.459	2.7273	5.e-002	-4.3385
18480	18.459	3.	0.	-1201.8
18481	18.551	2.9091	0.	-1180.5
18482	18.459	2.9091	5.e-002	-4.3387
18483	18.459	3.1818	0.	-1201.8
18484	18.551	3.0909	0.	-1180.5
18485	18.459	3.0909	5.e-002	-4.3387
18486	18.459	3.3636	0.	-1201.9
18487	18.551	3.2727	0.	-1180.5
18488	18.459	3.2727	5.e-002	-4.3386
18489	18.459	3.5455	0.	-1202.
18490	18.551	3.4545	0.	-1180.6
18491	18.459	3.4545	5.e-002	-4.3383
18492	18.459	3.7273	0.	-1202.2
18493	18.551	3.6364	0.	-1180.8
18494	18.459	3.6364	5.e-002	-4.338
18495	18.459	3.9091	0.	-1202.4
18496	18.551	3.8182	0.	-1181.
18497	18.459	3.8182	5.e-002	-4.3375
18498	18.459	4.0909	0.	-1202.8
18499	18.551	4.	0.	-1181.3
18500	18.459	4.	5.e-002	-4.3369
18501	18.459	4.2727	0.	-1203.2
18502	18.551	4.1818	0.	-1181.6
18503	18.459	4.1818	5.e-002	-4.3362
18504	18.459	4.4545	0.	-1203.7
18505	18.551	4.3636	0.	-1182.
18506	18.459	4.3636	5.e-002	-4.3354
18507	18.459	4.6364	0.	-1204.2
18508	18.551	4.5455	0.	-1182.6
18509	18.459	4.5455	5.e-002	-4.3344
18510	18.459	4.8182	0.	-1204.9
18511	18.551	4.7273	0.	-1183.2
18512	18.459	4.7273	5.e-002	-4.3333
18513	18.459	5.	0.	-1205.7
18514	18.551	4.9091	0.	-1183.9
18515	18.459	4.9091	5.e-002	-4.332
18516	18.459	5.1818	0.	-1206.6
18517	18.551	5.0909	0.	-1184.7
18518	18.459	5.0909	5.e-002	-4.3305
18519	18.459	5.3636	0.	-1207.7
18520	18.551	5.2727	0.	-1185.7
18521	18.459	5.2727	5.e-002	-4.3279
18522	18.459	5.5455	0.	-1209.
18523	18.551	5.4545	0.	-1186.9
18524	18.459	5.4545	5.e-002	-4.3093
18525	18.459	5.7273	0.	-1211.7
18526	18.551	5.6364	0.	-1188.3
18527	18.459	5.6364	5.e-002	-4.0489
18528	18.551	5.8182	0.	-1192.3
18529	18.459	5.8182	5.e-002	-0.26532
18530	18.459	5.9091	0.	-1206.6
18531	18.643	0.27273	0.	-1168.8
18532	18.736	0.18182	0.	-1149.6
18533	18.643	0.18182	5.e-002	-0.28536
18534	18.643	9.0909e-002	0.	-1163.6
18535	18.643	0.45455	0.	-1166.2
18536	18.736	0.36364	0.	-1145.6
18537	18.643	0.36364	5.e-002	-4.0351
18538	18.643	0.63636	0.	-1164.9
18539	18.736	0.54545	0.	-1144.1
18540	18.643	0.54545	5.e-002	-4.293
18541	18.643	0.81818	0.	-1163.8
18542	18.736	0.72727	0.	-1143.
18543	18.643	0.72727	5.e-002	-4.3116
18544	18.643	1.	0.	-1162.9
18545	18.736	0.90909	0.	-1142.
18546	18.643	0.90909	5.e-002	-4.3143
18547	18.643	1.1818	0.	-1162.1
18548	18.736	1.0909	0.	-1141.2
18549	18.643	1.0909	5.e-002	-4.3159
18550	18.643	1.3636	0.	-1161.5
18551	18.736	1.2727	0.	-1140.5
18552	18.643	1.2727	5.e-002	-4.3172
18553	18.643	1.5455	0.	-1160.9
18554	18.736	1.4545	0.	-1139.9
18555	18.643	1.4545	5.e-002	-4.3184
18556	18.643	1.7273	0.	-1160.4
18557	18.736	1.6364	0.	-1139.4
18558	18.643	1.6364	5.e-002	-4.3195
18559	18.643	1.9091	0.	-1160.1
18560	18.736	1.8182	0.	-1139.
18561	18.643	1.8182	5.e-002	-4.3204
18562	18.643	2.0909	0.	-1159.8
18563	18.736	2.	0.	-1138.7
18564	18.643	2.	5.e-002	-4.3212
18565	18.643	2.2727	0.	-1159.5
18566	18.736	2.1818	0.	-1138.4
18567	18.643	2.1818	5.e-002	-4.3218
18568	18.643	2.4545	0.	-1159.4
18569	18.736	2.3636	0.	-1138.2
18570	18.643	2.3636	5.e-002	-4.3223
18571	18.643	2.6364	0.	-1159.3
18572	18.736	2.5455	0.	-1138.1
18573	18.643	2.5455	5.e-002	-4.3227
18574	18.643	2.8182	0.	-1159.2
18575	18.736	2.7273	0.	-1138.
18576	18.643	2.7273	5.e-002	-4.3229
18577	18.643	3.	0.	-1159.2
18578	18.736	2.9091	0.	-1138.
18579	18.643	2.9091	5.e-002	-4.3231
18580	18.643	3.1818	0.	-1159.2
18581	18.736	3.0909	0.	-1138.
18582	18.643	3.0909	5.e-002	-4.3231
18583	18.643	3.3636	0.	-1159.3
18584	18.736	3.2727	0.	-1138.
18585	18.643	3.2727	5.e-002	-4.323
18586	18.643	3.5455	0.	-1159.4
18587	18.736	3.4545	0.	-1138.1
18588	18.643	3.4545	5.e-002	-4.3227
18589	18.643	3.7273	0.	-1159.5
18590	18.736	3.6364	0.	-1138.2
18591	18.643	3.6364	5.e-002	-4.3223
18592	18.643	3.9091	0.	-1159.8
18593	18.736	3.8182	0.	-1138.4
18594	18.643	3.8182	5.e-002	-4.3218
18595	18.643	4.0909	0.	-1160.1
18596	18.736	4.	0.	-1138.7
18597	18.643	4.	5.e-002	-4.3212
18598	18.643	4.2727	0.	-1160.4
18599	18.736	4.1818	0.	-1139.
18600	18.643	4.1818	5.e-002	-4.3204
18601	18.643	4.4545	0.	-1160.9
18602	18.736	4.3636	0.	-1139.4
18603	18.643	4.3636	5.e-002	-4.3195
18604	18.643	4.6364	0.	-1161.5
18605	18.736	4.5455	0.	-1139.9
18606	18.643	4.5455	5.e-002	-4.3185
18607	18.643	4.8182	0.	-1162.1
18608	18.736	4.7273	0.	-1140.5
18609	18.643	4.7273	5.e-002	-4.3173
18610	18.643	5.	0.	-1162.9
18611	18.736	4.9091	0.	-1141.2
18612	18.643	4.9091	5.e-002	-4.316
18613	18.643	5.1818	0.	-1163.8
18614	18.736	5.0909	0.	-1142.
18615	18.643	5.0909	5.e-002	-4.3144
18616	18.643	5.3636	0.	-1164.9
18617	18.736	5.2727	0.	-1143.
18618	18.643	5.2727	5.e-002	-4.3117
18619	18.643	5.5455	0.	-1166.2
18620	18.736	5.4545	0.	-1144.1
18621	18.643	5.4545	5.e-002	-4.2931
18622	18.643	5.7273	0.	-1168.8
18623	18.736	5.6364	0.	-1145.6
18624	18.643	5.6364	5.e-002	-4.0352
18625	18.736	5.8182	0.	-1149.6
18626	18.643	5.8182	5.e-002	-0.28537
18627	18.643	5.9091	0.	-1163.6
18628	18.828	0.27273	0.	-1126.1
18629	18.92	0.18182	0.	-1107.
18630	18.828	0.18182	5.e-002	-0.30867
18631	18.828	9.0909e-002	0.	-1120.8
18632	18.828	0.45455	0.	-1123.5
18633	18.92	0.36364	0.	-1102.9
18634	18.828	0.36364	5.e-002	-4.022
18635	18.828	0.63636	0.	-1122.2
18636	18.92	0.54545	0.	-1101.5
18637	18.828	0.54545	5.e-002	-4.2772
18638	18.828	0.81818	0.	-1121.1
18639	18.92	0.72727	0.	-1100.4
18640	18.828	0.72727	5.e-002	-4.2957
18641	18.828	1.	0.	-1120.3
18642	18.92	0.90909	0.	-1099.4
18643	18.828	0.90909	5.e-002	-4.2985
18644	18.828	1.1818	0.	-1119.5
18645	18.92	1.0909	0.	-1098.7
18646	18.828	1.0909	5.e-002	-4.3002
18647	18.828	1.3636	0.	-1118.9
18648	18.92	1.2727	0.	-1098.
18649	18.828	1.2727	5.e-002	-4.3017
18650	18.828	1.5455	0.	-1118.4
18651	18.92	1.4545	0.	-1097.4
18652	18.828	1.4545	5.e-002	-4.3029
18653	18.828	1.7273	0.	-1117.9
18654	18.92	1.6364	0.	-1097.
18655	18.828	1.6364	5.e-002	-4.3041
18656	18.828	1.9091	0.	-1117.6
18657	18.92	1.8182	0.	-1096.6
18658	18.828	1.8182	5.e-002	-4.3051
18659	18.828	2.0909	0.	-1117.3
18660	18.92	2.	0.	-1096.3
18661	18.828	2.	5.e-002	-4.3059
18662	18.828	2.2727	0.	-1117.1
18663	18.92	2.1818	0.	-1096.1
18664	18.828	2.1818	5.e-002	-4.3066
18665	18.828	2.4545	0.	-1116.9
18666	18.92	2.3636	0.	-1095.9
18667	18.828	2.3636	5.e-002	-4.3071
18668	18.828	2.6364	0.	-1116.8
18669	18.92	2.5455	0.	-1095.8
18670	18.828	2.5455	5.e-002	-4.3075
18671	18.828	2.8182	0.	-1116.8
18672	18.92	2.7273	0.	-1095.7
18673	18.828	2.7273	5.e-002	-4.3078
18674	18.828	3.	0.	-1116.8
18675	18.92	2.9091	0.	-1095.7
18676	18.828	2.9091	5.e-002	-4.308
18677	18.828	3.1818	0.	-1116.8
18678	18.92	3.0909	0.	-1095.7
18679	18.828	3.0909	5.e-002	-4.308
18680	18.828	3.3636	0.	-1116.8
18681	18.92	3.2727	0.	-1095.7
18682	18.828	3.2727	5.e-002	-4.3078
18683	18.828	3.5455	0.	-1116.9
18684	18.92	3.4545	0.	-1095.8
18685	18.828	3.4545	5.e-002	-4.3076
18686	18.828	3.7273	0.	-1117.1
18687	18.92	3.6364	0.	-1095.9
18688	18.828	3.6364	5.e-002	-4.3072
18689	18.828	3.9091	0.	-1117.3
18690	18.92	3.8182	0.	-1096.1
18691	18.828	3.8182	5.e-002	-4.3066
18692	18.828	4.0909	0.	-1117.6
18693	18.92	4.	0.	-1096.3
18694	18.828	4.	5.e-002	-4.3059
18695	18.828	4.2727	0.	-1117.9
18696	18.92	4.1818	0.	-1096.6
18697	18.828	4.1818	5.e-002	-4.3051
18698	18.828	4.4545	0.	-1118.4
18699	18.92	4.3636	0.	-1097.
18700	18.828	4.3636	5.e-002	-4.3041
18701	18.828	4.6364	0.	-1118.9
18702	18.92	4.5455	0.	-1097.4
18703	18.828	4.5455	5.e-002	-4.303
18704	18.828	4.8182	0.	-1119.5
18705	18.92	4.7273	0.	-1098.
18706	18.828	4.7273	5.e-002	-4.3017
18707	18.828	5.	0.	-1120.3
18708	18.92	4.9091	0.	-1098.7
18709	18.828	4.9091	5.e-002	-4.3003
18710	18.828	5.1818	0.	-1121.1
18711	18.92	5.0909	0.	-1099.4
18712	18.828	5.0909	5.e-002	-4.2986
18713	18.828	5.3636	0.	-1122.2
18714	18.92	5.2727	0.	-1100.4
18715	18.828	5.2727	5.e-002	-4.2958
18716	18.828	5.5455	0.	-1123.5
18717	18.92	5.4545	0.	-1101.5
18718	18.828	5.4545	5.e-002	-4.2773
18719	18.828	5.7273	0.	-1126.1
18720	18.92	5.6364	0.	-1102.9
18721	18.828	5.6364	5.e-002	-4.0221
18722	18.92	5.8182	0.	-1107.
18723	18.828	5.8182	5.e-002	-0.30869
18724	18.828	5.9091	0.	-1120.8
18725	19.013	0.27273	0.	-1083.6
18726	19.105	0.18182	0.	-1064.6
18727	19.013	0.18182	5.e-002	-0.33548
18728	19.013	9.0909e-002	0.	-1078.2
18729	19.013	0.45455	0.	-1080.9
18730	19.105	0.36364	0.	-1060.5
18731	19.013	0.36364	5.e-002	-4.0094
18732	19.013	0.63636	0.	-1079.7
18733	19.105	0.54545	0.	-1059.1
18734	19.013	0.54545	5.e-002	-4.2618
18735	19.013	0.81818	0.	-1078.7
18736	19.105	0.72727	0.	-1058.
18737	19.013	0.72727	5.e-002	-4.2802
18738	19.013	1.	0.	-1077.8
18739	19.105	0.90909	0.	-1057.1
18740	19.013	0.90909	5.e-002	-4.2832
18741	19.013	1.1818	0.	-1077.1
18742	19.105	1.0909	0.	-1056.3
18743	19.013	1.0909	5.e-002	-4.285
18744	19.013	1.3636	0.	-1076.5
18745	19.105	1.2727	0.	-1055.7
18746	19.013	1.2727	5.e-002	-4.2865
18747	19.013	1.5455	0.	-1076.
18748	19.105	1.4545	0.	-1055.2
18749	19.013	1.4545	5.e-002	-4.2879
18750	19.013	1.7273	0.	-1075.6
18751	19.105	1.6364	0.	-1054.8
18752	19.013	1.6364	5.e-002	-4.2892
18753	19.013	1.9091	0.	-1075.3
18754	19.105	1.8182	0.	-1054.4
18755	19.013	1.8182	5.e-002	-4.2902
18756	19.013	2.0909	0.	-1075.1
18757	19.105	2.	0.	-1054.2
18758	19.013	2.	5.e-002	-4.2911
18759	19.013	2.2727	0.	-1074.9
18760	19.105	2.1818	0.	-1054.
18761	19.013	2.1818	5.e-002	-4.2919
18762	19.013	2.4545	0.	-1074.7
18763	19.105	2.3636	0.	-1053.8
18764	19.013	2.3636	5.e-002	-4.2925
18765	19.013	2.6364	0.	-1074.6
18766	19.105	2.5455	0.	-1053.7
18767	19.013	2.5455	5.e-002	-4.2929
18768	19.013	2.8182	0.	-1074.6
18769	19.105	2.7273	0.	-1053.6
18770	19.013	2.7273	5.e-002	-4.2932
18771	19.013	3.	0.	-1074.6
18772	19.105	2.9091	0.	-1053.6
18773	19.013	2.9091	5.e-002	-4.2934
18774	19.013	3.1818	0.	-1074.6
18775	19.105	3.0909	0.	-1053.6
18776	19.013	3.0909	5.e-002	-4.2934
18777	19.013	3.3636	0.	-1074.6
18778	19.105	3.2727	0.	-1053.6
18779	19.013	3.2727	5.e-002	-4.2932
18780	19.013	3.5455	0.	-1074.7
18781	19.105	3.4545	0.	-1053.7
18782	19.013	3.4545	5.e-002	-4.2929
18783	19.013	3.7273	0.	-1074.9
18784	19.105	3.6364	0.	-1053.8
18785	19.013	3.6364	5.e-002	-4.2925
18786	19.013	3.9091	0.	-1075.1
18787	19.105	3.8182	0.	-1054.
18788	19.013	3.8182	5.e-002	-4.2919
18789	19.013	4.0909	0.	-1075.3
18790	19.105	4.	0.	-1054.2
18791	19.013	4.	5.e-002	-4.2912
18792	19.013	4.2727	0.	-1075.6
18793	19.105	4.1818	0.	-1054.4
18794	19.013	4.1818	5.e-002	-4.2903
18795	19.013	4.4545	0.	-1076.
18796	19.105	4.3636	0.	-1054.8
18797	19.013	4.3636	5.e-002	-4.2892
18798	19.013	4.6364	0.	-1076.5
18799	19.105	4.5455	0.	-1055.2
18800	19.013	4.5455	5.e-002	-4.288
18801	19.013	4.8182	0.	-1077.1
18802	19.105	4.7273	0.	-1055.7
18803	19.013	4.7273	5.e-002	-4.2866
18804	19.013	5.	0.	-1077.8
18805	19.105	4.9091	0.	-1056.3
18806	19.013	4.9091	5.e-002	-4.2851
18807	19.013	5.1818	0.	-1078.7
18808	19.105	5.0909	0.	-1057.1
18809	19.013	5.0909	5.e-002	-4.2833
18810	19.013	5.3636	0.	-1079.7
18811	19.105	5.2727	0.	-1058.
18812	19.013	5.2727	5.e-002	-4.2803
18813	19.013	5.5455	0.	-1080.9
18814	19.105	5.4545	0.	-1059.1
18815	19.013	5.4545	5.e-002	-4.2619
18816	19.013	5.7273	0.	-1083.6
18817	19.105	5.6364	0.	-1060.5
18818	19.013	5.6364	5.e-002	-4.0095
18819	19.105	5.8182	0.	-1064.6
18820	19.013	5.8182	5.e-002	-0.3355
18821	19.013	5.9091	0.	-1078.2
18822	19.198	0.27273	0.	-1041.3
18823	19.29	0.18182	0.	-1022.3
18824	19.198	0.18182	5.e-002	-0.36595
18825	19.198	9.0909e-002	0.	-1035.8
18826	19.198	0.45455	0.	-1038.6
18827	19.29	0.36364	0.	-1018.2
18828	19.198	0.36364	5.e-002	-3.9973
18829	19.198	0.63636	0.	-1037.4
18830	19.29	0.54545	0.	-1016.8
18831	19.198	0.54545	5.e-002	-4.2468
18832	19.198	0.81818	0.	-1036.4
18833	19.29	0.72727	0.	-1015.8
18834	19.198	0.72727	5.e-002	-4.2651
18835	19.198	1.	0.	-1035.5
18836	19.29	0.90909	0.	-1014.9
18837	19.198	0.90909	5.e-002	-4.2682
18838	19.198	1.1818	0.	-1034.9
18839	19.29	1.0909	0.	-1014.2
18840	19.198	1.0909	5.e-002	-4.2702
18841	19.198	1.3636	0.	-1034.3
18842	19.29	1.2727	0.	-1013.6
18843	19.198	1.2727	5.e-002	-4.2719
18844	19.198	1.5455	0.	-1033.9
18845	19.29	1.4545	0.	-1013.1
18846	19.198	1.4545	5.e-002	-4.2734
18847	19.198	1.7273	0.	-1033.5
18848	19.29	1.6364	0.	-1012.7
18849	19.198	1.6364	5.e-002	-4.2747
18850	19.198	1.9091	0.	-1033.2
18851	19.29	1.8182	0.	-1012.4
18852	19.198	1.8182	5.e-002	-4.2759
18853	19.198	2.0909	0.	-1033.
18854	19.29	2.	0.	-1012.2
18855	19.198	2.	5.e-002	-4.2768
18856	19.198	2.2727	0.	-1032.9
18857	19.29	2.1818	0.	-1012.
18858	19.198	2.1818	5.e-002	-4.2777
18859	19.198	2.4545	0.	-1032.7
18860	19.29	2.3636	0.	-1011.9
18861	19.198	2.3636	5.e-002	-4.2783
18862	19.198	2.6364	0.	-1032.7
18863	19.29	2.5455	0.	-1011.8
18864	19.198	2.5455	5.e-002	-4.2788
18865	19.198	2.8182	0.	-1032.6
18866	19.29	2.7273	0.	-1011.8
18867	19.198	2.7273	5.e-002	-4.2792
18868	19.198	3.	0.	-1032.6
18869	19.29	2.9091	0.	-1011.7
18870	19.198	2.9091	5.e-002	-4.2793
18871	19.198	3.1818	0.	-1032.6
18872	19.29	3.0909	0.	-1011.7
18873	19.198	3.0909	5.e-002	-4.2793
18874	19.198	3.3636	0.	-1032.7
18875	19.29	3.2727	0.	-1011.8
18876	19.198	3.2727	5.e-002	-4.2792
18877	19.198	3.5455	0.	-1032.7
18878	19.29	3.4545	0.	-1011.8
18879	19.198	3.4545	5.e-002	-4.2788
18880	19.198	3.7273	0.	-1032.9
18881	19.29	3.6364	0.	-1011.9
18882	19.198	3.6364	5.e-002	-4.2784
18883	19.198	3.9091	0.	-1033.
18884	19.29	3.8182	0.	-1012.
18885	19.198	3.8182	5.e-002	-4.2777
18886	19.198	4.0909	0.	-1033.2
18887	19.29	4.	0.	-1012.2
18888	19.198	4.	5.e-002	-4.2769
18889	19.198	4.2727	0.	-1033.5
18890	19.29	4.1818	0.	-1012.4
18891	19.198	4.1818	5.e-002	-4.2759
18892	19.198	4.4545	0.	-1033.9
18893	19.29	4.3636	0.	-1012.7
18894	19.198	4.3636	5.e-002	-4.2747
18895	19.198	4.6364	0.	-1034.3
18896	19.29	4.5455	0.	-1013.1
18897	19.198	4.5455	5.e-002	-4.2734
18898	19.198	4.8182	0.	-1034.9
18899	19.29	4.7273	0.	-1013.6
18900	19.198	4.7273	5.e-002	-4.2719
18901	19.198	5.	0.	-1035.5
18902	19.29	4.9091	0.	-1014.2
18903	19.198	4.9091	5.e-002	-4.2702
18904	19.198	5.1818	0.	-1036.4
18905	19.29	5.0909	0.	-1014.9
18906	19.198	5.0909	5.e-002	-4.2683
18907	19.198	5.3636	0.	-1037.4
18908	19.29	5.2727	0.	-1015.8
18909	19.198	5.2727	5.e-002	-4.2652
18910	19.198	5.5455	0.	-1038.6
18911	19.29	5.4545	0.	-1016.8
18912	19.198	5.4545	5.e-002	-4.2468
18913	19.198	5.7273	0.	-1041.3
18914	19.29	5.6364	0.	-1018.2
18915	19.198	5.6364	5.e-002	-3.9974
18916	19.29	5.8182	0.	-1022.3
18917	19.198	5.8182	5.e-002	-0.36599
18918	19.198	5.9091	0.	-1035.8
18919	19.382	0.27273	0.	-999.12
18920	19.475	0.18182	0.	-980.27
18921	19.382	0.18182	5.e-002	-0.40033
18922	19.382	9.0909e-002	0.	-993.54
18923	19.382	0.45455	0.	-996.43
18924	19.475	0.36364	0.	-976.16
18925	19.382	0.36364	5.e-002	-3.9858
18926	19.382	0.63636	0.	-995.21
18927	19.475	0.54545	0.	-974.77
18928	19.382	0.54545	5.e-002	-4.2322
18929	19.382	0.81818	0.	-994.26
18930	19.475	0.72727	0.	-973.73
18931	19.382	0.72727	5.e-002	-4.2505
18932	19.382	1.	0.	-993.47
18933	19.475	0.90909	0.	-972.89
18934	19.382	0.90909	5.e-002	-4.2538
18935	19.382	1.1818	0.	-992.83
18936	19.475	1.0909	0.	-972.2
18937	19.382	1.0909	5.e-002	-4.2559
18938	19.382	1.3636	0.	-992.32
18939	19.475	1.2727	0.	-971.66
18940	19.382	1.2727	5.e-002	-4.2577
18941	19.382	1.5455	0.	-991.91
18942	19.475	1.4545	0.	-971.22
18943	19.382	1.4545	5.e-002	-4.2594
18944	19.382	1.7273	0.	-991.6
18945	19.475	1.6364	0.	-970.89
18946	19.382	1.6364	5.e-002	-4.2608
18947	19.382	1.9091	0.	-991.36
18948	19.475	1.8182	0.	-970.64
18949	19.382	1.8182	5.e-002	-4.2621
18950	19.382	2.0909	0.	-991.17
18951	19.475	2.	0.	-970.45
18952	19.382	2.	5.e-002	-4.2632
18953	19.382	2.2727	0.	-991.04
18954	19.475	2.1818	0.	-970.31
18955	19.382	2.1818	5.e-002	-4.2641
18956	19.382	2.4545	0.	-990.95
18957	19.475	2.3636	0.	-970.21
18958	19.382	2.3636	5.e-002	-4.2648
18959	19.382	2.6364	0.	-990.89
18960	19.475	2.5455	0.	-970.15
18961	19.382	2.5455	5.e-002	-4.2654
18962	19.382	2.8182	0.	-990.85
18963	19.475	2.7273	0.	-970.11
18964	19.382	2.7273	5.e-002	-4.2657
18965	19.382	3.	0.	-990.84
18966	19.475	2.9091	0.	-970.09
18967	19.382	2.9091	5.e-002	-4.2659
18968	19.382	3.1818	0.	-990.85
18969	19.475	3.0909	0.	-970.09
18970	19.382	3.0909	5.e-002	-4.2659
18971	19.382	3.3636	0.	-990.89
18972	19.475	3.2727	0.	-970.11
18973	19.382	3.2727	5.e-002	-4.2657
18974	19.382	3.5455	0.	-990.95
18975	19.475	3.4545	0.	-970.15
18976	19.382	3.4545	5.e-002	-4.2654
18977	19.382	3.7273	0.	-991.04
18978	19.475	3.6364	0.	-970.21
18979	19.382	3.6364	5.e-002	-4.2648
18980	19.382	3.9091	0.	-991.17
18981	19.475	3.8182	0.	-970.31
18982	19.382	3.8182	5.e-002	-4.2641
18983	19.382	4.0909	0.	-991.36
18984	19.475	4.	0.	-970.45
18985	19.382	4.	5.e-002	-4.2632
18986	19.382	4.2727	0.	-991.6
18987	19.475	4.1818	0.	-970.64
18988	19.382	4.1818	5.e-002	-4.2621
18989	19.382	4.4545	0.	-991.91
18990	19.475	4.3636	0.	-970.89
18991	19.382	4.3636	5.e-002	-4.2609
18992	19.382	4.6364	0.	-992.32
18993	19.475	4.5455	0.	-971.22
18994	19.382	4.5455	5.e-002	-4.2594
18995	19.382	4.8182	0.	-992.83
18996	19.475	4.7273	0.	-971.66
18997	19.382	4.7273	5.e-002	-4.2578
18998	19.382	5.	0.	-993.47
18999	19.475	4.9091	0.	-972.21
19000	19.382	4.9091	5.e-002	-4.2559
19001	19.382	5.1818	0.	-994.26
19002	19.475	5.0909	0.	-972.89
19003	19.382	5.0909	5.e-002	-4.2538
19004	19.382	5.3636	0.	-995.21
19005	19.475	5.2727	0.	-973.73
19006	19.382	5.2727	5.e-002	-4.2506
19007	19.382	5.5455	0.	-996.43
19008	19.475	5.4545	0.	-974.77
19009	19.382	5.4545	5.e-002	-4.2322
19010	19.382	5.7273	0.	-999.12
19011	19.475	5.6364	0.	-976.16
19012	19.382	5.6364	5.e-002	-3.9859
19013	19.475	5.8182	0.	-980.27
19014	19.382	5.8182	5.e-002	-0.40036
19015	19.382	5.9091	0.	-993.54
19016	19.567	0.27273	0.	-957.12
19017	19.659	0.18182	0.	-938.36
19018	19.567	0.18182	5.e-002	-0.4388
19019	19.567	9.0909e-002	0.	-951.46
19020	19.567	0.45455	0.	-954.44
19021	19.659	0.36364	0.	-934.24
19022	19.567	0.36364	5.e-002	-3.975
19023	19.567	0.63636	0.	-953.24
19024	19.659	0.54545	0.	-932.87
19025	19.567	0.54545	5.e-002	-4.2181
19026	19.567	0.81818	0.	-952.32
19027	19.659	0.72727	0.	-931.87
19028	19.567	0.72727	5.e-002	-4.2364
19029	19.567	1.	0.	-951.58
19030	19.659	0.90909	0.	-931.07
19031	19.567	0.90909	5.e-002	-4.2398
19032	19.567	1.1818	0.	-950.99
19033	19.659	1.0909	0.	-930.43
19034	19.567	1.0909	5.e-002	-4.2421
19035	19.567	1.3636	0.	-950.52
19036	19.659	1.2727	0.	-929.93
19037	19.567	1.2727	5.e-002	-4.2441
19038	19.567	1.5455	0.	-950.16
19039	19.659	1.4545	0.	-929.55
19040	19.567	1.4545	5.e-002	-4.2459
19041	19.567	1.7273	0.	-949.89
19042	19.659	1.6364	0.	-929.26
19043	19.567	1.6364	5.e-002	-4.2475
19044	19.567	1.9091	0.	-949.69
19045	19.659	1.8182	0.	-929.05
19046	19.567	1.8182	5.e-002	-4.2489
19047	19.567	2.0909	0.	-949.54
19048	19.659	2.	0.	-928.9
19049	19.567	2.	5.e-002	-4.2501
19050	19.567	2.2727	0.	-949.44
19051	19.659	2.1818	0.	-928.8
19052	19.567	2.1818	5.e-002	-4.2511
19053	19.567	2.4545	0.	-949.38
19054	19.659	2.3636	0.	-928.73
19055	19.567	2.3636	5.e-002	-4.252
19056	19.567	2.6364	0.	-949.33
19057	19.659	2.5455	0.	-928.69
19058	19.567	2.5455	5.e-002	-4.2526
19059	19.567	2.8182	0.	-949.31
19060	19.659	2.7273	0.	-928.67
19061	19.567	2.7273	5.e-002	-4.253
19062	19.567	3.	0.	-949.3
19063	19.659	2.9091	0.	-928.66
19064	19.567	2.9091	5.e-002	-4.2532
19065	19.567	3.1818	0.	-949.31
19066	19.659	3.0909	0.	-928.66
19067	19.567	3.0909	5.e-002	-4.2532
19068	19.567	3.3636	0.	-949.33
19069	19.659	3.2727	0.	-928.67
19070	19.567	3.2727	5.e-002	-4.253
19071	19.567	3.5455	0.	-949.38
19072	19.659	3.4545	0.	-928.69
19073	19.567	3.4545	5.e-002	-4.2526
19074	19.567	3.7273	0.	-949.44
19075	19.659	3.6364	0.	-928.73
19076	19.567	3.6364	5.e-002	-4.252
19077	19.567	3.9091	0.	-949.54
19078	19.659	3.8182	0.	-928.8
19079	19.567	3.8182	5.e-002	-4.2512
19080	19.567	4.0909	0.	-949.69
19081	19.659	4.	0.	-928.9
19082	19.567	4.	5.e-002	-4.2502
19083	19.567	4.2727	0.	-949.89
19084	19.659	4.1818	0.	-929.05
19085	19.567	4.1818	5.e-002	-4.249
19086	19.567	4.4545	0.	-950.16
19087	19.659	4.3636	0.	-929.26
19088	19.567	4.3636	5.e-002	-4.2476
19089	19.567	4.6364	0.	-950.52
19090	19.659	4.5455	0.	-929.55
19091	19.567	4.5455	5.e-002	-4.246
19092	19.567	4.8182	0.	-950.99
19093	19.659	4.7273	0.	-929.93
19094	19.567	4.7273	5.e-002	-4.2442
19095	19.567	5.	0.	-951.58
19096	19.659	4.9091	0.	-930.43
19097	19.567	4.9091	5.e-002	-4.2422
19098	19.567	5.1818	0.	-952.32
19099	19.659	5.0909	0.	-931.07
19100	19.567	5.0909	5.e-002	-4.2399
19101	19.567	5.3636	0.	-953.24
19102	19.659	5.2727	0.	-931.87
19103	19.567	5.2727	5.e-002	-4.2364
19104	19.567	5.5455	0.	-954.44
19105	19.659	5.4545	0.	-932.87
19106	19.567	5.4545	5.e-002	-4.2181
19107	19.567	5.7273	0.	-957.12
19108	19.659	5.6364	0.	-934.24
19109	19.567	5.6364	5.e-002	-3.9751
19110	19.659	5.8182	0.	-938.37
19111	19.567	5.8182	5.e-002	-0.43883
19112	19.567	5.9091	0.	-951.46
19113	19.752	0.27273	0.	-915.29
19114	19.844	0.18182	0.	-896.62
19115	19.752	0.18182	5.e-002	-0.48157
19116	19.752	9.0909e-002	0.	-909.54
19117	19.752	0.45455	0.	-912.61
19118	19.844	0.36364	0.	-892.48
19119	19.752	0.36364	5.e-002	-3.9649
19120	19.752	0.63636	0.	-911.45
19121	19.844	0.54545	0.	-891.14
19122	19.752	0.54545	5.e-002	-4.2044
19123	19.752	0.81818	0.	-910.57
19124	19.844	0.72727	0.	-890.18
19125	19.752	0.72727	5.e-002	-4.2227
19126	19.752	1.	0.	-909.87
19127	19.844	0.90909	0.	-889.42
19128	19.752	0.90909	5.e-002	-4.2264
19129	19.752	1.1818	0.	-909.33
19130	19.844	1.0909	0.	-888.83
19131	19.752	1.0909	5.e-002	-4.2289
19132	19.752	1.3636	0.	-908.91
19133	19.844	1.2727	0.	-888.39
19134	19.752	1.2727	5.e-002	-4.2311
19135	19.752	1.5455	0.	-908.6
19136	19.844	1.4545	0.	-888.06
19137	19.752	1.4545	5.e-002	-4.2331
19138	19.752	1.7273	0.	-908.38
19139	19.844	1.6364	0.	-887.83
19140	19.752	1.6364	5.e-002	-4.2349
19141	19.752	1.9091	0.	-908.23
19142	19.844	1.8182	0.	-887.67
19143	19.752	1.8182	5.e-002	-4.2364
19144	19.752	2.0909	0.	-908.12
19145	19.844	2.	0.	-887.56
19146	19.752	2.	5.e-002	-4.2378
19147	19.752	2.2727	0.	-908.06
19148	19.844	2.1818	0.	-887.5
19149	19.752	2.1818	5.e-002	-4.2389
19150	19.752	2.4545	0.	-908.02
19151	19.844	2.3636	0.	-887.47
19152	19.752	2.3636	5.e-002	-4.2398
19153	19.752	2.6364	0.	-907.99
19154	19.844	2.5455	0.	-887.45
19155	19.752	2.5455	5.e-002	-4.2405
19156	19.752	2.8182	0.	-907.98
19157	19.844	2.7273	0.	-887.44
19158	19.752	2.7273	5.e-002	-4.241
19159	19.752	3.	0.	-907.98
19160	19.844	2.9091	0.	-887.44
19161	19.752	2.9091	5.e-002	-4.2412
19162	19.752	3.1818	0.	-907.98
19163	19.844	3.0909	0.	-887.44
19164	19.752	3.0909	5.e-002	-4.2412
19165	19.752	3.3636	0.	-907.99
19166	19.844	3.2727	0.	-887.44
19167	19.752	3.2727	5.e-002	-4.241
19168	19.752	3.5455	0.	-908.02
19169	19.844	3.4545	0.	-887.45
19170	19.752	3.4545	5.e-002	-4.2405
19171	19.752	3.7273	0.	-908.06
19172	19.844	3.6364	0.	-887.47
19173	19.752	3.6364	5.e-002	-4.2398
19174	19.752	3.9091	0.	-908.12
19175	19.844	3.8182	0.	-887.5
19176	19.752	3.8182	5.e-002	-4.2389
19177	19.752	4.0909	0.	-908.23
19178	19.844	4.	0.	-887.56
19179	19.752	4.	5.e-002	-4.2378
19180	19.752	4.2727	0.	-908.38
19181	19.844	4.1818	0.	-887.67
19182	19.752	4.1818	5.e-002	-4.2365
19183	19.752	4.4545	0.	-908.6
19184	19.844	4.3636	0.	-887.83
19185	19.752	4.3636	5.e-002	-4.2349
19186	19.752	4.6364	0.	-908.91
19187	19.844	4.5455	0.	-888.06
19188	19.752	4.5455	5.e-002	-4.2331
19189	19.752	4.8182	0.	-909.33
19190	19.844	4.7273	0.	-888.39
19191	19.752	4.7273	5.e-002	-4.2312
19192	19.752	5.	0.	-909.87
19193	19.844	4.9091	0.	-888.83
19194	19.752	4.9091	5.e-002	-4.229
19195	19.752	5.1818	0.	-910.57
19196	19.844	5.0909	0.	-889.42
19197	19.752	5.0909	5.e-002	-4.2265
19198	19.752	5.3636	0.	-911.45
19199	19.844	5.2727	0.	-890.18
19200	19.752	5.2727	5.e-002	-4.2228
19201	19.752	5.5455	0.	-912.61
19202	19.844	5.4545	0.	-891.14
19203	19.752	5.4545	5.e-002	-4.2045
19204	19.752	5.7273	0.	-915.29
19205	19.844	5.6364	0.	-892.48
19206	19.752	5.6364	5.e-002	-3.9649
19207	19.844	5.8182	0.	-896.62
19208	19.752	5.8182	5.e-002	-0.4816
19209	19.752	5.9091	0.	-909.54
19210	19.936	0.27273	0.	-873.62
19211	20.029	0.18182	0.	-855.04
19212	19.936	0.18182	5.e-002	-0.52886
19213	19.936	9.0909e-002	0.	-867.79
19214	19.936	0.45455	0.	-870.95
19215	20.029	0.36364	0.	-850.89
19216	19.936	0.36364	5.e-002	-3.9554
19217	19.936	0.63636	0.	-869.82
19218	20.029	0.54545	0.	-849.57
19219	19.936	0.54545	5.e-002	-4.1914
19220	19.936	0.81818	0.	-868.98
19221	20.029	0.72727	0.	-848.65
19222	19.936	0.72727	5.e-002	-4.2097
19223	19.936	1.	0.	-868.34
19224	20.029	0.90909	0.	-847.95
19225	19.936	0.90909	5.e-002	-4.2136
19226	19.936	1.1818	0.	-867.85
19227	20.029	1.0909	0.	-847.42
19228	19.936	1.0909	5.e-002	-4.2163
19229	19.936	1.3636	0.	-867.49
19230	20.029	1.2727	0.	-847.03
19231	19.936	1.2727	5.e-002	-4.2187
19232	19.936	1.5455	0.	-867.24
19233	20.029	1.4545	0.	-846.77
19234	19.936	1.4545	5.e-002	-4.221
19235	19.936	1.7273	0.	-867.07
19236	20.029	1.6364	0.	-846.59
19237	19.936	1.6364	5.e-002	-4.2229
19238	19.936	1.9091	0.	-866.97
19239	20.029	1.8182	0.	-846.49
19240	19.936	1.8182	5.e-002	-4.2247
19241	19.936	2.0909	0.	-866.91
19242	20.029	2.	0.	-846.43
19243	19.936	2.	5.e-002	-4.2262
19244	19.936	2.2727	0.	-866.88
19245	20.029	2.1818	0.	-846.41
19246	19.936	2.1818	5.e-002	-4.2274
19247	19.936	2.4545	0.	-866.87
19248	20.029	2.3636	0.	-846.41
19249	19.936	2.3636	5.e-002	-4.2285
19250	19.936	2.6364	0.	-866.87
19251	20.029	2.5455	0.	-846.42
19252	19.936	2.5455	5.e-002	-4.2292
19253	19.936	2.8182	0.	-866.87
19254	20.029	2.7273	0.	-846.44
19255	19.936	2.7273	5.e-002	-4.2298
19256	19.936	3.	0.	-866.87
19257	20.029	2.9091	0.	-846.44
19258	19.936	2.9091	5.e-002	-4.23
19259	19.936	3.1818	0.	-866.87
19260	20.029	3.0909	0.	-846.44
19261	19.936	3.0909	5.e-002	-4.23
19262	19.936	3.3636	0.	-866.87
19263	20.029	3.2727	0.	-846.44
19264	19.936	3.2727	5.e-002	-4.2298
19265	19.936	3.5455	0.	-866.87
19266	20.029	3.4545	0.	-846.42
19267	19.936	3.4545	5.e-002	-4.2293
19268	19.936	3.7273	0.	-866.88
19269	20.029	3.6364	0.	-846.41
19270	19.936	3.6364	5.e-002	-4.2285
19271	19.936	3.9091	0.	-866.91
19272	20.029	3.8182	0.	-846.41
19273	19.936	3.8182	5.e-002	-4.2275
19274	19.936	4.0909	0.	-866.97
19275	20.029	4.	0.	-846.43
19276	19.936	4.	5.e-002	-4.2262
19277	19.936	4.2727	0.	-867.07
19278	20.029	4.1818	0.	-846.49
19279	19.936	4.1818	5.e-002	-4.2247
19280	19.936	4.4545	0.	-867.24
19281	20.029	4.3636	0.	-846.59
19282	19.936	4.3636	5.e-002	-4.223
19283	19.936	4.6364	0.	-867.49
19284	20.029	4.5455	0.	-846.77
19285	19.936	4.5455	5.e-002	-4.221
19286	19.936	4.8182	0.	-867.85
19287	20.029	4.7273	0.	-847.03
19288	19.936	4.7273	5.e-002	-4.2188
19289	19.936	5.	0.	-868.34
19290	20.029	4.9091	0.	-847.42
19291	19.936	4.9091	5.e-002	-4.2164
19292	19.936	5.1818	0.	-868.98
19293	20.029	5.0909	0.	-847.95
19294	19.936	5.0909	5.e-002	-4.2136
19295	19.936	5.3636	0.	-869.82
19296	20.029	5.2727	0.	-848.65
19297	19.936	5.2727	5.e-002	-4.2097
19298	19.936	5.5455	0.	-870.95
19299	20.029	5.4545	0.	-849.57
19300	19.936	5.4545	5.e-002	-4.1914
19301	19.936	5.7273	0.	-873.62
19302	20.029	5.6364	0.	-850.89
19303	19.936	5.6364	5.e-002	-3.9555
19304	20.029	5.8182	0.	-855.04
19305	19.936	5.8182	5.e-002	-0.5289
19306	19.936	5.9091	0.	-867.79
19307	20.121	0.27273	0.	-832.11
19308	20.213	0.18182	0.	-813.61
19309	20.121	0.18182	5.e-002	-0.58094
19310	20.121	9.0909e-002	0.	-826.19
19311	20.121	0.45455	0.	-829.45
19312	20.213	0.36364	0.	-809.45
19313	20.121	0.36364	5.e-002	-3.9468
19314	20.121	0.63636	0.	-828.36
19315	20.213	0.54545	0.	-808.17
19316	20.121	0.54545	5.e-002	-4.1788
19317	20.121	0.81818	0.	-827.57
19318	20.213	0.72727	0.	-807.3
19319	20.121	0.72727	5.e-002	-4.1972
19320	20.121	1.	0.	-826.98
19321	20.213	0.90909	0.	-806.65
19322	20.121	0.90909	5.e-002	-4.2013
19323	20.121	1.1818	0.	-826.56
19324	20.213	1.0909	0.	-806.19
19325	20.121	1.0909	5.e-002	-4.2044
19326	20.121	1.3636	0.	-826.26
19327	20.213	1.2727	0.	-805.87
19328	20.121	1.2727	5.e-002	-4.2071
19329	20.121	1.5455	0.	-826.07
19330	20.213	1.4545	0.	-805.67
19331	20.121	1.4545	5.e-002	-4.2095
19332	20.121	1.7273	0.	-825.97
19333	20.213	1.6364	0.	-805.55
19334	20.121	1.6364	5.e-002	-4.2117
19335	20.121	1.9091	0.	-825.91
19336	20.213	1.8182	0.	-805.51
19337	20.121	1.8182	5.e-002	-4.2137
19338	20.121	2.0909	0.	-825.9
19339	20.213	2.	0.	-805.51
19340	20.121	2.	5.e-002	-4.2154
19341	20.121	2.2727	0.	-825.91
19342	20.213	2.1818	0.	-805.53
19343	20.121	2.1818	5.e-002	-4.2168
19344	20.121	2.4545	0.	-825.93
19345	20.213	2.3636	0.	-805.57
19346	20.121	2.3636	5.e-002	-4.218
19347	20.121	2.6364	0.	-825.96
19348	20.213	2.5455	0.	-805.61
19349	20.121	2.5455	5.e-002	-4.2189
19350	20.121	2.8182	0.	-825.97
19351	20.213	2.7273	0.	-805.64
19352	20.121	2.7273	5.e-002	-4.2195
19353	20.121	3.	0.	-825.98
19354	20.213	2.9091	0.	-805.66
19355	20.121	2.9091	5.e-002	-4.2198
19356	20.121	3.1818	0.	-825.97
19357	20.213	3.0909	0.	-805.66
19358	20.121	3.0909	5.e-002	-4.2198
19359	20.121	3.3636	0.	-825.96
19360	20.213	3.2727	0.	-805.64
19361	20.121	3.2727	5.e-002	-4.2195
19362	20.121	3.5455	0.	-825.93
19363	20.213	3.4545	0.	-805.61
19364	20.121	3.4545	5.e-002	-4.2189
19365	20.121	3.7273	0.	-825.91
19366	20.213	3.6364	0.	-805.57
19367	20.121	3.6364	5.e-002	-4.218
19368	20.121	3.9091	0.	-825.9
19369	20.213	3.8182	0.	-805.53
19370	20.121	3.8182	5.e-002	-4.2169
19371	20.121	4.0909	0.	-825.91
19372	20.213	4.	0.	-805.51
19373	20.121	4.	5.e-002	-4.2154
19374	20.121	4.2727	0.	-825.97
19375	20.213	4.1818	0.	-805.51
19376	20.121	4.1818	5.e-002	-4.2137
19377	20.121	4.4545	0.	-826.07
19378	20.213	4.3636	0.	-805.55
19379	20.121	4.3636	5.e-002	-4.2118
19380	20.121	4.6364	0.	-826.26
19381	20.213	4.5455	0.	-805.67
19382	20.121	4.5455	5.e-002	-4.2096
19383	20.121	4.8182	0.	-826.56
19384	20.213	4.7273	0.	-805.87
19385	20.121	4.7273	5.e-002	-4.2071
19386	20.121	5.	0.	-826.98
19387	20.213	4.9091	0.	-806.19
19388	20.121	4.9091	5.e-002	-4.2044
19389	20.121	5.1818	0.	-827.57
19390	20.213	5.0909	0.	-806.65
19391	20.121	5.0909	5.e-002	-4.2014
19392	20.121	5.3636	0.	-828.36
19393	20.213	5.2727	0.	-807.3
19394	20.121	5.2727	5.e-002	-4.1972
19395	20.121	5.5455	0.	-829.45
19396	20.213	5.4545	0.	-808.17
19397	20.121	5.4545	5.e-002	-4.1789
19398	20.121	5.7273	0.	-832.11
19399	20.213	5.6364	0.	-809.45
19400	20.121	5.6364	5.e-002	-3.9468
19401	20.213	5.8182	0.	-813.61
19402	20.121	5.8182	5.e-002	-0.58098
19403	20.121	5.9091	0.	-826.19
19404	20.306	0.27273	0.	-790.75
19405	20.398	0.18182	0.	-772.33
19406	20.306	0.18182	5.e-002	-0.6381
19407	20.306	9.0909e-002	0.	-784.75
19408	20.306	0.45455	0.	-788.11
19409	20.398	0.36364	0.	-768.16
19410	20.306	0.36364	5.e-002	-3.9389
19411	20.306	0.63636	0.	-787.06
19412	20.398	0.54545	0.	-766.92
19413	20.306	0.54545	5.e-002	-4.1669
19414	20.306	0.81818	0.	-786.33
19415	20.398	0.72727	0.	-766.11
19416	20.306	0.72727	5.e-002	-4.1853
19417	20.306	1.	0.	-785.81
19418	20.398	0.90909	0.	-765.53
19419	20.306	0.90909	5.e-002	-4.1898
19420	20.306	1.1818	0.	-785.45
19421	20.398	1.0909	0.	-765.13
19422	20.306	1.0909	5.e-002	-4.1932
19423	20.306	1.3636	0.	-785.22
19424	20.398	1.2727	0.	-764.89
19425	20.306	1.2727	5.e-002	-4.1962
19426	20.306	1.5455	0.	-785.1
19427	20.398	1.4545	0.	-764.76
19428	20.306	1.4545	5.e-002	-4.1989
19429	20.306	1.7273	0.	-785.06
19430	20.398	1.6364	0.	-764.71
19431	20.306	1.6364	5.e-002	-4.2014
19432	20.306	1.9091	0.	-785.06
19433	20.398	1.8182	0.	-764.73
19434	20.306	1.8182	5.e-002	-4.2037
19435	20.306	2.0909	0.	-785.1
19436	20.398	2.	0.	-764.79
19437	20.306	2.	5.e-002	-4.2056
19438	20.306	2.2727	0.	-785.16
19439	20.398	2.1818	0.	-764.86
19440	20.306	2.1818	5.e-002	-4.2072
19441	20.306	2.4545	0.	-785.21
19442	20.398	2.3636	0.	-764.94
19443	20.306	2.3636	5.e-002	-4.2086
19444	20.306	2.6364	0.	-785.26
19445	20.398	2.5455	0.	-765.01
19446	20.306	2.5455	5.e-002	-4.2096
19447	20.306	2.8182	0.	-785.29
19448	20.398	2.7273	0.	-765.06
19449	20.306	2.7273	5.e-002	-4.2102
19450	20.306	3.	0.	-785.3
19451	20.398	2.9091	0.	-765.09
19452	20.306	2.9091	5.e-002	-4.2106
19453	20.306	3.1818	0.	-785.29
19454	20.398	3.0909	0.	-765.09
19455	20.306	3.0909	5.e-002	-4.2106
19456	20.306	3.3636	0.	-785.26
19457	20.398	3.2727	0.	-765.06
19458	20.306	3.2727	5.e-002	-4.2102
19459	20.306	3.5455	0.	-785.21
19460	20.398	3.4545	0.	-765.01
19461	20.306	3.4545	5.e-002	-4.2096
19462	20.306	3.7273	0.	-785.16
19463	20.398	3.6364	0.	-764.94
19464	20.306	3.6364	5.e-002	-4.2086
19465	20.306	3.9091	0.	-785.1
19466	20.398	3.8182	0.	-764.86
19467	20.306	3.8182	5.e-002	-4.2073
19468	20.306	4.0909	0.	-785.06
19469	20.398	4.	0.	-764.79
19470	20.306	4.	5.e-002	-4.2056
19471	20.306	4.2727	0.	-785.06
19472	20.398	4.1818	0.	-764.73
19473	20.306	4.1818	5.e-002	-4.2037
19474	20.306	4.4545	0.	-785.1
19475	20.398	4.3636	0.	-764.71
19476	20.306	4.3636	5.e-002	-4.2015
19477	20.306	4.6364	0.	-785.22
19478	20.398	4.5455	0.	-764.76
19479	20.306	4.5455	5.e-002	-4.199
19480	20.306	4.8182	0.	-785.45
19481	20.398	4.7273	0.	-764.89
19482	20.306	4.7273	5.e-002	-4.1962
19483	20.306	5.	0.	-785.81
19484	20.398	4.9091	0.	-765.13
19485	20.306	4.9091	5.e-002	-4.1932
19486	20.306	5.1818	0.	-786.33
19487	20.398	5.0909	0.	-765.53
19488	20.306	5.0909	5.e-002	-4.1899
19489	20.306	5.3636	0.	-787.06
19490	20.398	5.2727	0.	-766.11
19491	20.306	5.2727	5.e-002	-4.1854
19492	20.306	5.5455	0.	-788.11
19493	20.398	5.4545	0.	-766.92
19494	20.306	5.4545	5.e-002	-4.167
19495	20.306	5.7273	0.	-790.75
19496	20.398	5.6364	0.	-768.16
19497	20.306	5.6364	5.e-002	-3.939
19498	20.398	5.8182	0.	-772.33
19499	20.306	5.8182	5.e-002	-0.63815
19500	20.306	5.9091	0.	-784.75
19501	20.491	0.27273	0.	-749.54
19502	20.583	0.18182	0.	-731.19
19503	20.491	0.18182	5.e-002	-0.70064
19504	20.491	9.0909e-002	0.	-743.47
19505	20.491	0.45455	0.	-746.92
19506	20.583	0.36364	0.	-727.03
19507	20.491	0.36364	5.e-002	-3.932
19508	20.491	0.63636	0.	-745.92
19509	20.583	0.54545	0.	-725.84
19510	20.491	0.54545	5.e-002	-4.1557
19511	20.491	0.81818	0.	-745.26
19512	20.583	0.72727	0.	-725.08
19513	20.491	0.72727	5.e-002	-4.1742
19514	20.491	1.	0.	-744.8
19515	20.583	0.90909	0.	-724.57
19516	20.491	0.90909	5.e-002	-4.179
19517	20.491	1.1818	0.	-744.52
19518	20.583	1.0909	0.	-724.26
19519	20.491	1.0909	5.e-002	-4.1828
19520	20.491	1.3636	0.	-744.37
19521	20.583	1.2727	0.	-724.09
19522	20.491	1.2727	5.e-002	-4.1861
19523	20.491	1.5455	0.	-744.32
19524	20.583	1.4545	0.	-724.04
19525	20.491	1.4545	5.e-002	-4.1893
19526	20.491	1.7273	0.	-744.35
19527	20.583	1.6364	0.	-724.07
19528	20.491	1.6364	5.e-002	-4.1921
19529	20.491	1.9091	0.	-744.42
19530	20.583	1.8182	0.	-724.15
19531	20.491	1.8182	5.e-002	-4.1946
19532	20.491	2.0909	0.	-744.51
19533	20.583	2.	0.	-724.27
19534	20.491	2.	5.e-002	-4.1968
19535	20.491	2.2727	0.	-744.61
19536	20.583	2.1818	0.	-724.4
19537	20.491	2.1818	5.e-002	-4.1987
19538	20.491	2.4545	0.	-744.7
19539	20.583	2.3636	0.	-724.52
19540	20.491	2.3636	5.e-002	-4.2002
19541	20.491	2.6364	0.	-744.78
19542	20.583	2.5455	0.	-724.62
19543	20.491	2.5455	5.e-002	-4.2014
19544	20.491	2.8182	0.	-744.82
19545	20.583	2.7273	0.	-724.69
19546	20.491	2.7273	5.e-002	-4.2021
19547	20.491	3.	0.	-744.84
19548	20.583	2.9091	0.	-724.73
19549	20.491	2.9091	5.e-002	-4.2025
19550	20.491	3.1818	0.	-744.82
19551	20.583	3.0909	0.	-724.73
19552	20.491	3.0909	5.e-002	-4.2025
19553	20.491	3.3636	0.	-744.78
19554	20.583	3.2727	0.	-724.69
19555	20.491	3.2727	5.e-002	-4.2022
19556	20.491	3.5455	0.	-744.7
19557	20.583	3.4545	0.	-724.62
19558	20.491	3.4545	5.e-002	-4.2014
19559	20.491	3.7273	0.	-744.61
19560	20.583	3.6364	0.	-724.52
19561	20.491	3.6364	5.e-002	-4.2002
19562	20.491	3.9091	0.	-744.51
19563	20.583	3.8182	0.	-724.4
19564	20.491	3.8182	5.e-002	-4.1987
19565	20.491	4.0909	0.	-744.42
19566	20.583	4.	0.	-724.27
19567	20.491	4.	5.e-002	-4.1968
19568	20.491	4.2727	0.	-744.35
19569	20.583	4.1818	0.	-724.15
19570	20.491	4.1818	5.e-002	-4.1946
19571	20.491	4.4545	0.	-744.32
19572	20.583	4.3636	0.	-724.07
19573	20.491	4.3636	5.e-002	-4.1921
19574	20.491	4.6364	0.	-744.37
19575	20.583	4.5455	0.	-724.04
19576	20.491	4.5455	5.e-002	-4.1893
19577	20.491	4.8182	0.	-744.52
19578	20.583	4.7273	0.	-724.09
19579	20.491	4.7273	5.e-002	-4.1862
19580	20.491	5.	0.	-744.8
19581	20.583	4.9091	0.	-724.26
19582	20.491	4.9091	5.e-002	-4.1828
19583	20.491	5.1818	0.	-745.26
19584	20.583	5.0909	0.	-724.57
19585	20.491	5.0909	5.e-002	-4.1791
19586	20.491	5.3636	0.	-745.92
19587	20.583	5.2727	0.	-725.08
19588	20.491	5.2727	5.e-002	-4.1742
19589	20.491	5.5455	0.	-746.92
19590	20.583	5.4545	0.	-725.84
19591	20.491	5.4545	5.e-002	-4.1557
19592	20.491	5.7273	0.	-749.54
19593	20.583	5.6364	0.	-727.03
19594	20.491	5.6364	5.e-002	-3.932
19595	20.583	5.8182	0.	-731.19
19596	20.491	5.8182	5.e-002	-0.70069
19597	20.491	5.9091	0.	-743.47
19598	20.675	0.27273	0.	-708.47
19599	20.768	0.18182	0.	-690.19
19600	20.675	0.18182	5.e-002	-0.76892
19601	20.675	9.0909e-002	0.	-702.34
19602	20.675	0.45455	0.	-705.88
19603	20.768	0.36364	0.	-686.05
19604	20.675	0.36364	5.e-002	-3.926
19605	20.675	0.63636	0.	-704.94
19606	20.768	0.54545	0.	-684.9
19607	20.675	0.54545	5.e-002	-4.1451
19608	20.675	0.81818	0.	-704.35
19609	20.768	0.72727	0.	-684.22
19610	20.675	0.72727	5.e-002	-4.1638
19611	20.675	1.	0.	-703.97
19612	20.768	0.90909	0.	-683.79
19613	20.675	0.90909	5.e-002	-4.169
19614	20.675	1.1818	0.	-703.77
19615	20.768	1.0909	0.	-683.55
19616	20.675	1.0909	5.e-002	-4.1732
19617	20.675	1.3636	0.	-703.71
19618	20.768	1.2727	0.	-683.47
19619	20.675	1.2727	5.e-002	-4.177
19620	20.675	1.5455	0.	-703.74
19621	20.768	1.4545	0.	-683.51
19622	20.675	1.4545	5.e-002	-4.1806
19623	20.675	1.7273	0.	-703.84
19624	20.768	1.6364	0.	-683.62
19625	20.675	1.6364	5.e-002	-4.1838
19626	20.675	1.9091	0.	-703.97
19627	20.768	1.8182	0.	-683.78
19628	20.675	1.8182	5.e-002	-4.1867
19629	20.675	2.0909	0.	-704.12
19630	20.768	2.	0.	-683.96
19631	20.675	2.	5.e-002	-4.1892
19632	20.675	2.2727	0.	-704.27
19633	20.768	2.1818	0.	-684.14
19634	20.675	2.1818	5.e-002	-4.1914
19635	20.675	2.4545	0.	-704.4
19636	20.768	2.3636	0.	-684.3
19637	20.675	2.3636	5.e-002	-4.1931
19638	20.675	2.6364	0.	-704.5
19639	20.768	2.5455	0.	-684.44
19640	20.675	2.5455	5.e-002	-4.1945
19641	20.675	2.8182	0.	-704.56
19642	20.768	2.7273	0.	-684.53
19643	20.675	2.7273	5.e-002	-4.1953
19644	20.675	3.	0.	-704.59
19645	20.768	2.9091	0.	-684.58
19646	20.675	2.9091	5.e-002	-4.1958
19647	20.675	3.1818	0.	-704.56
19648	20.768	3.0909	0.	-684.58
19649	20.675	3.0909	5.e-002	-4.1958
19650	20.675	3.3636	0.	-704.5
19651	20.768	3.2727	0.	-684.53
19652	20.675	3.2727	5.e-002	-4.1954
19653	20.675	3.5455	0.	-704.4
19654	20.768	3.4545	0.	-684.44
19655	20.675	3.4545	5.e-002	-4.1945
19656	20.675	3.7273	0.	-704.27
19657	20.768	3.6364	0.	-684.3
19658	20.675	3.6364	5.e-002	-4.1931
19659	20.675	3.9091	0.	-704.12
19660	20.768	3.8182	0.	-684.14
19661	20.675	3.8182	5.e-002	-4.1914
19662	20.675	4.0909	0.	-703.97
19663	20.768	4.	0.	-683.96
19664	20.675	4.	5.e-002	-4.1892
19665	20.675	4.2727	0.	-703.84
19666	20.768	4.1818	0.	-683.78
19667	20.675	4.1818	5.e-002	-4.1867
19668	20.675	4.4545	0.	-703.74
19669	20.768	4.3636	0.	-683.62
19670	20.675	4.3636	5.e-002	-4.1838
19671	20.675	4.6364	0.	-703.71
19672	20.768	4.5455	0.	-683.51
19673	20.675	4.5455	5.e-002	-4.1806
19674	20.675	4.8182	0.	-703.77
19675	20.768	4.7273	0.	-683.47
19676	20.675	4.7273	5.e-002	-4.1771
19677	20.675	5.	0.	-703.97
19678	20.768	4.9091	0.	-683.55
19679	20.675	4.9091	5.e-002	-4.1733
19680	20.675	5.1818	0.	-704.35
19681	20.768	5.0909	0.	-683.79
19682	20.675	5.0909	5.e-002	-4.1691
19683	20.675	5.3636	0.	-704.94
19684	20.768	5.2727	0.	-684.22
19685	20.675	5.2727	5.e-002	-4.1638
19686	20.675	5.5455	0.	-705.88
19687	20.768	5.4545	0.	-684.9
19688	20.675	5.4545	5.e-002	-4.1452
19689	20.675	5.7273	0.	-708.47
19690	20.768	5.6364	0.	-686.05
19691	20.675	5.6364	5.e-002	-3.926
19692	20.768	5.8182	0.	-690.19
19693	20.675	5.8182	5.e-002	-0.76895
19694	20.675	5.9091	0.	-702.34
19695	20.86	0.27273	0.	-667.54
19696	20.952	0.18182	0.	-649.33
19697	20.86	0.18182	5.e-002	-0.84332
19698	20.86	9.0909e-002	0.	-661.35
19699	20.86	0.45455	0.	-664.99
19700	20.952	0.36364	0.	-645.2
19701	20.86	0.36364	5.e-002	-3.9209
19702	20.86	0.63636	0.	-664.12
19703	20.952	0.54545	0.	-644.12
19704	20.86	0.54545	5.e-002	-4.1354
19705	20.86	0.81818	0.	-663.6
19706	20.952	0.72727	0.	-643.51
19707	20.86	0.72727	5.e-002	-4.1542
19708	20.86	1.	0.	-663.31
19709	20.952	0.90909	0.	-643.17
19710	20.86	0.90909	5.e-002	-4.1599
19711	20.86	1.1818	0.	-663.21
19712	20.952	1.0909	0.	-643.03
19713	20.86	1.0909	5.e-002	-4.1646
19714	20.86	1.3636	0.	-663.23
19715	20.952	1.2727	0.	-643.04
19716	20.86	1.2727	5.e-002	-4.169
19717	20.86	1.5455	0.	-663.35
19718	20.952	1.4545	0.	-643.17
19719	20.86	1.4545	5.e-002	-4.173
19720	20.86	1.7273	0.	-663.52
19721	20.952	1.6364	0.	-643.36
19722	20.86	1.6364	5.e-002	-4.1767
19723	20.86	1.9091	0.	-663.73
19724	20.952	1.8182	0.	-643.6
19725	20.86	1.8182	5.e-002	-4.18
19726	20.86	2.0909	0.	-663.94
19727	20.952	2.	0.	-643.84
19728	20.86	2.	5.e-002	-4.1829
19729	20.86	2.2727	0.	-664.13
19730	20.952	2.1818	0.	-644.08
19731	20.86	2.1818	5.e-002	-4.1854
19732	20.86	2.4545	0.	-664.3
19733	20.952	2.3636	0.	-644.29
19734	20.86	2.3636	5.e-002	-4.1874
19735	20.86	2.6364	0.	-664.43
19736	20.952	2.5455	0.	-644.46
19737	20.86	2.5455	5.e-002	-4.189
19738	20.86	2.8182	0.	-664.51
19739	20.952	2.7273	0.	-644.57
19740	20.86	2.7273	5.e-002	-4.19
19741	20.86	3.	0.	-664.54
19742	20.952	2.9091	0.	-644.63
19743	20.86	2.9091	5.e-002	-4.1906
19744	20.86	3.1818	0.	-664.51
19745	20.952	3.0909	0.	-644.63
19746	20.86	3.0909	5.e-002	-4.1906
19747	20.86	3.3636	0.	-664.43
19748	20.952	3.2727	0.	-644.57
19749	20.86	3.2727	5.e-002	-4.19
19750	20.86	3.5455	0.	-664.3
19751	20.952	3.4545	0.	-644.46
19752	20.86	3.4545	5.e-002	-4.189
19753	20.86	3.7273	0.	-664.13
19754	20.952	3.6364	0.	-644.29
19755	20.86	3.6364	5.e-002	-4.1875
19756	20.86	3.9091	0.	-663.94
19757	20.952	3.8182	0.	-644.08
19758	20.86	3.8182	5.e-002	-4.1854
19759	20.86	4.0909	0.	-663.73
19760	20.952	4.	0.	-643.84
19761	20.86	4.	5.e-002	-4.1829
19762	20.86	4.2727	0.	-663.52
19763	20.952	4.1818	0.	-643.6
19764	20.86	4.1818	5.e-002	-4.18
19765	20.86	4.4545	0.	-663.35
19766	20.952	4.3636	0.	-643.36
19767	20.86	4.3636	5.e-002	-4.1767
19768	20.86	4.6364	0.	-663.23
19769	20.952	4.5455	0.	-643.17
19770	20.86	4.5455	5.e-002	-4.173
19771	20.86	4.8182	0.	-663.21
19772	20.952	4.7273	0.	-643.04
19773	20.86	4.7273	5.e-002	-4.169
19774	20.86	5.	0.	-663.31
19775	20.952	4.9091	0.	-643.03
19776	20.86	4.9091	5.e-002	-4.1647
19777	20.86	5.1818	0.	-663.6
19778	20.952	5.0909	0.	-643.17
19779	20.86	5.0909	5.e-002	-4.16
19780	20.86	5.3636	0.	-664.12
19781	20.952	5.2727	0.	-643.51
19782	20.86	5.2727	5.e-002	-4.1542
19783	20.86	5.5455	0.	-664.99
19784	20.952	5.4545	0.	-644.12
19785	20.86	5.4545	5.e-002	-4.1354
19786	20.86	5.7273	0.	-667.54
19787	20.952	5.6364	0.	-645.2
19788	20.86	5.6364	5.e-002	-3.921
19789	20.952	5.8182	0.	-649.33
19790	20.86	5.8182	5.e-002	-0.84334
19791	20.86	5.9091	0.	-661.35
19792	21.045	0.27273	0.	-626.76
19793	21.137	0.18182	0.	-608.6
19794	21.045	0.18182	5.e-002	-0.92424
19795	21.045	9.0909e-002	0.	-620.52
19796	21.045	0.45455	0.	-624.25
19797	21.137	0.36364	0.	-604.5
19798	21.045	0.36364	5.e-002	-3.917
19799	21.045	0.63636	0.	-623.45
19800	21.137	0.54545	0.	-603.48
19801	21.045	0.54545	5.e-002	-4.1263
19802	21.045	0.81818	0.	-623.02
19803	21.137	0.72727	0.	-602.96
19804	21.045	0.72727	5.e-002	-4.1454
19805	21.045	1.	0.	-622.83
19806	21.137	0.90909	0.	-602.72
19807	21.045	0.90909	5.e-002	-4.1518
19808	21.045	1.1818	0.	-622.82
19809	21.137	1.0909	0.	-602.68
19810	21.045	1.0909	5.e-002	-4.1571
19811	21.045	1.3636	0.	-622.94
19812	21.137	1.2727	0.	-602.8
19813	21.045	1.2727	5.e-002	-4.1621
19814	21.045	1.5455	0.	-623.14
19815	21.137	1.4545	0.	-603.02
19816	21.045	1.4545	5.e-002	-4.1667
19817	21.045	1.7273	0.	-623.4
19818	21.137	1.6364	0.	-603.3
19819	21.045	1.6364	5.e-002	-4.1709
19820	21.045	1.9091	0.	-623.68
19821	21.137	1.8182	0.	-603.62
19822	21.045	1.8182	5.e-002	-4.1747
19823	21.045	2.0909	0.	-623.95
19824	21.137	2.	0.	-603.93
19825	21.045	2.	5.e-002	-4.1781
19826	21.045	2.2727	0.	-624.2
19827	21.137	2.1818	0.	-604.22
19828	21.045	2.1818	5.e-002	-4.181
19829	21.045	2.4545	0.	-624.41
19830	21.137	2.3636	0.	-604.48
19831	21.045	2.3636	5.e-002	-4.1833
19832	21.045	2.6364	0.	-624.57
19833	21.137	2.5455	0.	-604.68
19834	21.045	2.5455	5.e-002	-4.1851
19835	21.045	2.8182	0.	-624.66
19836	21.137	2.7273	0.	-604.81
19837	21.045	2.7273	5.e-002	-4.1864
19838	21.045	3.	0.	-624.69
19839	21.137	2.9091	0.	-604.89
19840	21.045	2.9091	5.e-002	-4.187
19841	21.045	3.1818	0.	-624.66
19842	21.137	3.0909	0.	-604.89
19843	21.045	3.0909	5.e-002	-4.187
19844	21.045	3.3636	0.	-624.57
19845	21.137	3.2727	0.	-604.81
19846	21.045	3.2727	5.e-002	-4.1864
19847	21.045	3.5455	0.	-624.41
19848	21.137	3.4545	0.	-604.68
19849	21.045	3.4545	5.e-002	-4.1852
19850	21.045	3.7273	0.	-624.2
19851	21.137	3.6364	0.	-604.48
19852	21.045	3.6364	5.e-002	-4.1834
19853	21.045	3.9091	0.	-623.95
19854	21.137	3.8182	0.	-604.22
19855	21.045	3.8182	5.e-002	-4.181
19856	21.045	4.0909	0.	-623.68
19857	21.137	4.	0.	-603.93
19858	21.045	4.	5.e-002	-4.1781
19859	21.045	4.2727	0.	-623.4
19860	21.137	4.1818	0.	-603.62
19861	21.045	4.1818	5.e-002	-4.1748
19862	21.045	4.4545	0.	-623.14
19863	21.137	4.3636	0.	-603.3
19864	21.045	4.3636	5.e-002	-4.1709
19865	21.045	4.6364	0.	-622.94
19866	21.137	4.5455	0.	-603.02
19867	21.045	4.5455	5.e-002	-4.1667
19868	21.045	4.8182	0.	-622.82
19869	21.137	4.7273	0.	-602.8
19870	21.045	4.7273	5.e-002	-4.1621
19871	21.045	5.	0.	-622.83
19872	21.137	4.9091	0.	-602.68
19873	21.045	4.9091	5.e-002	-4.1572
19874	21.045	5.1818	0.	-623.02
19875	21.137	5.0909	0.	-602.72
19876	21.045	5.0909	5.e-002	-4.1518
19877	21.045	5.3636	0.	-623.45
19878	21.137	5.2727	0.	-602.96
19879	21.045	5.2727	5.e-002	-4.1454
19880	21.045	5.5455	0.	-624.25
19881	21.137	5.4545	0.	-603.48
19882	21.045	5.4545	5.e-002	-4.1264
19883	21.045	5.7273	0.	-626.76
19884	21.137	5.6364	0.	-604.5
19885	21.045	5.6364	5.e-002	-3.917
19886	21.137	5.8182	0.	-608.6
19887	21.045	5.8182	5.e-002	-0.92427
19888	21.045	5.9091	0.	-620.52
19889	21.229	0.27273	0.	-586.1
19890	21.322	0.18182	0.	-568.
19891	21.229	0.18182	5.e-002	-1.0122
19892	21.229	9.0909e-002	0.	-579.83
19893	21.229	0.45455	0.	-583.65
19894	21.322	0.36364	0.	-563.94
19895	21.229	0.36364	5.e-002	-3.9141
19896	21.229	0.63636	0.	-582.93
19897	21.322	0.54545	0.	-562.99
19898	21.229	0.54545	5.e-002	-4.1182
19899	21.229	0.81818	0.	-582.6
19900	21.322	0.72727	0.	-562.57
19901	21.229	0.72727	5.e-002	-4.1376
19902	21.229	1.	0.	-582.51
19903	21.322	0.90909	0.	-562.43
19904	21.229	0.90909	5.e-002	-4.1447
19905	21.229	1.1818	0.	-582.61
19906	21.322	1.0909	0.	-562.51
19907	21.229	1.0909	5.e-002	-4.1507
19908	21.229	1.3636	0.	-582.83
19909	21.322	1.2727	0.	-562.73
19910	21.229	1.2727	5.e-002	-4.1564
19911	21.229	1.5455	0.	-583.13
19912	21.322	1.4545	0.	-563.06
19913	21.229	1.4545	5.e-002	-4.1617
19914	21.229	1.7273	0.	-583.48
19915	21.322	1.6364	0.	-563.43
19916	21.229	1.6364	5.e-002	-4.1666
19917	21.229	1.9091	0.	-583.83
19918	21.322	1.8182	0.	-563.83
19919	21.229	1.8182	5.e-002	-4.171
19920	21.229	2.0909	0.	-584.16
19921	21.322	2.	0.	-564.21
19922	21.229	2.	5.e-002	-4.175
19923	21.229	2.2727	0.	-584.46
19924	21.322	2.1818	0.	-564.56
19925	21.229	2.1818	5.e-002	-4.1783
19926	21.229	2.4545	0.	-584.71
19927	21.322	2.3636	0.	-564.85
19928	21.229	2.3636	5.e-002	-4.181
19929	21.229	2.6364	0.	-584.89
19930	21.322	2.5455	0.	-565.09
19931	21.229	2.5455	5.e-002	-4.1831
19932	21.229	2.8182	0.	-585.01
19933	21.322	2.7273	0.	-565.25
19934	21.229	2.7273	5.e-002	-4.1845
19935	21.229	3.	0.	-585.05
19936	21.322	2.9091	0.	-565.33
19937	21.229	2.9091	5.e-002	-4.1852
19938	21.229	3.1818	0.	-585.01
19939	21.322	3.0909	0.	-565.33
19940	21.229	3.0909	5.e-002	-4.1852
19941	21.229	3.3636	0.	-584.89
19942	21.322	3.2727	0.	-565.25
19943	21.229	3.2727	5.e-002	-4.1845
19944	21.229	3.5455	0.	-584.71
19945	21.322	3.4545	0.	-565.09
19946	21.229	3.4545	5.e-002	-4.1831
19947	21.229	3.7273	0.	-584.46
19948	21.322	3.6364	0.	-564.85
19949	21.229	3.6364	5.e-002	-4.181
19950	21.229	3.9091	0.	-584.16
19951	21.322	3.8182	0.	-564.56
19952	21.229	3.8182	5.e-002	-4.1783
19953	21.229	4.0909	0.	-583.83
19954	21.322	4.	0.	-564.21
19955	21.229	4.	5.e-002	-4.175
19956	21.229	4.2727	0.	-583.48
19957	21.322	4.1818	0.	-563.83
19958	21.229	4.1818	5.e-002	-4.1711
19959	21.229	4.4545	0.	-583.13
19960	21.322	4.3636	0.	-563.43
19961	21.229	4.3636	5.e-002	-4.1666
19962	21.229	4.6364	0.	-582.83
19963	21.322	4.5455	0.	-563.06
19964	21.229	4.5455	5.e-002	-4.1617
19965	21.229	4.8182	0.	-582.61
19966	21.322	4.7273	0.	-562.73
19967	21.229	4.7273	5.e-002	-4.1564
19968	21.229	5.	0.	-582.51
19969	21.322	4.9091	0.	-562.51
19970	21.229	4.9091	5.e-002	-4.1508
19971	21.229	5.1818	0.	-582.6
19972	21.322	5.0909	0.	-562.43
19973	21.229	5.0909	5.e-002	-4.1447
19974	21.229	5.3636	0.	-582.93
19975	21.322	5.2727	0.	-562.57
19976	21.229	5.2727	5.e-002	-4.1376
19977	21.229	5.5455	0.	-583.65
19978	21.322	5.4545	0.	-562.99
19979	21.229	5.4545	5.e-002	-4.1182
19980	21.229	5.7273	0.	-586.1
19981	21.322	5.6364	0.	-563.94
19982	21.229	5.6364	5.e-002	-3.9142
19983	21.322	5.8182	0.	-568.
19984	21.229	5.8182	5.e-002	-1.0122
19985	21.229	5.9091	0.	-579.83
19986	21.414	0.27273	0.	-545.58
19987	21.506	0.18182	0.	-527.52
19988	21.414	0.18182	5.e-002	-1.1076
19989	21.414	9.0909e-002	0.	-539.29
19990	21.414	0.45455	0.	-543.19
19991	21.506	0.36364	0.	-523.51
19992	21.414	0.36364	5.e-002	-3.9124
19993	21.414	0.63636	0.	-542.56
19994	21.506	0.54545	0.	-522.65
19995	21.414	0.54545	5.e-002	-4.1109
19996	21.414	0.81818	0.	-542.34
19997	21.506	0.72727	0.	-522.33
19998	21.414	0.72727	5.e-002	-4.1307
19999	21.414	1.	0.	-542.37
20000	21.506	0.90909	0.	-522.31
20001	21.414	0.90909	5.e-002	-4.1387
20002	21.414	1.1818	0.	-542.58
20003	21.506	1.0909	0.	-522.51
20004	21.414	1.0909	5.e-002	-4.1457
20005	21.414	1.3636	0.	-542.91
20006	21.506	1.2727	0.	-522.85
20007	21.414	1.2727	5.e-002	-4.1522
20008	21.414	1.5455	0.	-543.31
20009	21.506	1.4545	0.	-523.28
20010	21.414	1.4545	5.e-002	-4.1583
20011	21.414	1.7273	0.	-543.74
20012	21.506	1.6364	0.	-523.75
20013	21.414	1.6364	5.e-002	-4.164
20014	21.414	1.9091	0.	-544.17
20015	21.506	1.8182	0.	-524.23
20016	21.414	1.8182	5.e-002	-4.1691
20017	21.414	2.0909	0.	-544.57
20018	21.506	2.	0.	-524.68
20019	21.414	2.	5.e-002	-4.1737
20020	21.414	2.2727	0.	-544.92
20021	21.506	2.1818	0.	-525.08
20022	21.414	2.1818	5.e-002	-4.1776
20023	21.414	2.4545	0.	-545.2
20024	21.506	2.3636	0.	-525.42
20025	21.414	2.3636	5.e-002	-4.1807
20026	21.414	2.6364	0.	-545.41
20027	21.506	2.5455	0.	-525.68
20028	21.414	2.5455	5.e-002	-4.1831
20029	21.414	2.8182	0.	-545.54
20030	21.506	2.7273	0.	-525.86
20031	21.414	2.7273	5.e-002	-4.1848
20032	21.414	3.	0.	-545.58
20033	21.506	2.9091	0.	-525.95
20034	21.414	2.9091	5.e-002	-4.1856
20035	21.414	3.1818	0.	-545.54
20036	21.506	3.0909	0.	-525.95
20037	21.414	3.0909	5.e-002	-4.1856
20038	21.414	3.3636	0.	-545.41
20039	21.506	3.2727	0.	-525.86
20040	21.414	3.2727	5.e-002	-4.1848
20041	21.414	3.5455	0.	-545.2
20042	21.506	3.4545	0.	-525.68
20043	21.414	3.4545	5.e-002	-4.1831
20044	21.414	3.7273	0.	-544.92
20045	21.506	3.6364	0.	-525.42
20046	21.414	3.6364	5.e-002	-4.1807
20047	21.414	3.9091	0.	-544.57
20048	21.506	3.8182	0.	-525.08
20049	21.414	3.8182	5.e-002	-4.1776
20050	21.414	4.0909	0.	-544.17
20051	21.506	4.	0.	-524.68
20052	21.414	4.	5.e-002	-4.1737
20053	21.414	4.2727	0.	-543.74
20054	21.506	4.1818	0.	-524.23
20055	21.414	4.1818	5.e-002	-4.1692
20056	21.414	4.4545	0.	-543.31
20057	21.506	4.3636	0.	-523.75
20058	21.414	4.3636	5.e-002	-4.164
20059	21.414	4.6364	0.	-542.91
20060	21.506	4.5455	0.	-523.28
20061	21.414	4.5455	5.e-002	-4.1584
20062	21.414	4.8182	0.	-542.58
20063	21.506	4.7273	0.	-522.85
20064	21.414	4.7273	5.e-002	-4.1522
20065	21.414	5.	0.	-542.37
20066	21.506	4.9091	0.	-522.51
20067	21.414	4.9091	5.e-002	-4.1457
20068	21.414	5.1818	0.	-542.34
20069	21.506	5.0909	0.	-522.31
20070	21.414	5.0909	5.e-002	-4.1388
20071	21.414	5.3636	0.	-542.56
20072	21.506	5.2727	0.	-522.33
20073	21.414	5.2727	5.e-002	-4.1308
20074	21.414	5.5455	0.	-543.19
20075	21.506	5.4545	0.	-522.65
20076	21.414	5.4545	5.e-002	-4.1109
20077	21.414	5.7273	0.	-545.58
20078	21.506	5.6364	0.	-523.51
20079	21.414	5.6364	5.e-002	-3.9125
20080	21.506	5.8182	0.	-527.52
20081	21.414	5.8182	5.e-002	-1.1076
20082	21.414	5.9091	0.	-539.29
20083	21.599	0.27273	0.	-505.19
20084	21.691	0.18182	0.	-487.16
20085	21.599	0.18182	5.e-002	-1.2112
20086	21.599	9.0909e-002	0.	-498.89
20087	21.599	0.45455	0.	-502.88
20088	21.691	0.36364	0.	-483.22
20089	21.599	0.36364	5.e-002	-3.912
20090	21.599	0.63636	0.	-502.34
20091	21.691	0.54545	0.	-482.45
20092	21.599	0.54545	5.e-002	-4.1046
20093	21.599	0.81818	0.	-502.24
20094	21.691	0.72727	0.	-482.26
20095	21.599	0.72727	5.e-002	-4.125
20096	21.599	1.	0.	-502.4
20097	21.691	0.90909	0.	-482.37
20098	21.599	0.90909	5.e-002	-4.1341
20099	21.599	1.1818	0.	-502.73
20100	21.691	1.0909	0.	-482.7
20101	21.599	1.0909	5.e-002	-4.1421
20102	21.599	1.3636	0.	-503.18
20103	21.691	1.2727	0.	-483.16
20104	21.599	1.2727	5.e-002	-4.1496
20105	21.599	1.5455	0.	-503.68
20106	21.691	1.4545	0.	-483.7
20107	21.599	1.4545	5.e-002	-4.1568
20108	21.599	1.7273	0.	-504.2
20109	21.691	1.6364	0.	-484.26
20110	21.599	1.6364	5.e-002	-4.1633
20111	21.599	1.9091	0.	-504.7
20112	21.691	1.8182	0.	-484.82
20113	21.599	1.8182	5.e-002	-4.1693
20114	21.599	2.0909	0.	-505.16
20115	21.691	2.	0.	-485.33
20116	21.599	2.	5.e-002	-4.1746
20117	21.599	2.2727	0.	-505.55
20118	21.691	2.1818	0.	-485.78
20119	21.599	2.1818	5.e-002	-4.179
20120	21.599	2.4545	0.	-505.87
20121	21.691	2.3636	0.	-486.16
20122	21.599	2.3636	5.e-002	-4.1827
20123	21.599	2.6364	0.	-506.11
20124	21.691	2.5455	0.	-486.45
20125	21.599	2.5455	5.e-002	-4.1855
20126	21.599	2.8182	0.	-506.25
20127	21.691	2.7273	0.	-486.65
20128	21.599	2.7273	5.e-002	-4.1874
20129	21.599	3.	0.	-506.3
20130	21.691	2.9091	0.	-486.75
20131	21.599	2.9091	5.e-002	-4.1883
20132	21.599	3.1818	0.	-506.25
20133	21.691	3.0909	0.	-486.75
20134	21.599	3.0909	5.e-002	-4.1883
20135	21.599	3.3636	0.	-506.11
20136	21.691	3.2727	0.	-486.65
20137	21.599	3.2727	5.e-002	-4.1874
20138	21.599	3.5455	0.	-505.87
20139	21.691	3.4545	0.	-486.45
20140	21.599	3.4545	5.e-002	-4.1855
20141	21.599	3.7273	0.	-505.55
20142	21.691	3.6364	0.	-486.16
20143	21.599	3.6364	5.e-002	-4.1827
20144	21.599	3.9091	0.	-505.16
20145	21.691	3.8182	0.	-485.78
20146	21.599	3.8182	5.e-002	-4.1791
20147	21.599	4.0909	0.	-504.7
20148	21.691	4.	0.	-485.33
20149	21.599	4.	5.e-002	-4.1746
20150	21.599	4.2727	0.	-504.2
20151	21.691	4.1818	0.	-484.82
20152	21.599	4.1818	5.e-002	-4.1693
20153	21.599	4.4545	0.	-503.68
20154	21.691	4.3636	0.	-484.26
20155	21.599	4.3636	5.e-002	-4.1634
20156	21.599	4.6364	0.	-503.18
20157	21.691	4.5455	0.	-483.7
20158	21.599	4.5455	5.e-002	-4.1568
20159	21.599	4.8182	0.	-502.73
20160	21.691	4.7273	0.	-483.16
20161	21.599	4.7273	5.e-002	-4.1497
20162	21.599	5.	0.	-502.4
20163	21.691	4.9091	0.	-482.7
20164	21.599	4.9091	5.e-002	-4.1421
20165	21.599	5.1818	0.	-502.24
20166	21.691	5.0909	0.	-482.37
20167	21.599	5.0909	5.e-002	-4.1341
20168	21.599	5.3636	0.	-502.34
20169	21.691	5.2727	0.	-482.26
20170	21.599	5.2727	5.e-002	-4.1251
20171	21.599	5.5455	0.	-502.88
20172	21.691	5.4545	0.	-482.45
20173	21.599	5.4545	5.e-002	-4.1046
20174	21.599	5.7273	0.	-505.19
20175	21.691	5.6364	0.	-483.22
20176	21.599	5.6364	5.e-002	-3.912
20177	21.691	5.8182	0.	-487.16
20178	21.599	5.8182	5.e-002	-1.2112
20179	21.599	5.9091	0.	-498.89
20180	21.783	0.27273	0.	-464.92
20181	21.876	0.18182	0.	-446.92
20182	21.783	0.18182	5.e-002	-1.3236
20183	21.783	9.0909e-002	0.	-458.64
20184	21.783	0.45455	0.	-462.7
20185	21.876	0.36364	0.	-443.07
20186	21.783	0.36364	5.e-002	-3.9129
20187	21.783	0.63636	0.	-462.28
20188	21.876	0.54545	0.	-442.41
20189	21.783	0.54545	5.e-002	-4.0993
20190	21.783	0.81818	0.	-462.31
20191	21.876	0.72727	0.	-442.35
20192	21.783	0.72727	5.e-002	-4.1206
20193	21.783	1.	0.	-462.61
20194	21.876	0.90909	0.	-442.6
20195	21.783	0.90909	5.e-002	-4.1309
20196	21.783	1.1818	0.	-463.07
20197	21.876	1.0909	0.	-443.07
20198	21.783	1.0909	5.e-002	-4.1402
20199	21.783	1.3636	0.	-463.63
20200	21.876	1.2727	0.	-443.66
20201	21.783	1.2727	5.e-002	-4.149
20202	21.783	1.5455	0.	-464.24
20203	21.876	1.4545	0.	-444.31
20204	21.783	1.4545	5.e-002	-4.1573
20205	21.783	1.7273	0.	-464.84
20206	21.876	1.6364	0.	-444.96
20207	21.783	1.6364	5.e-002	-4.1649
20208	21.783	1.9091	0.	-465.41
20209	21.876	1.8182	0.	-445.59
20210	21.783	1.8182	5.e-002	-4.1718
20211	21.783	2.0909	0.	-465.92
20212	21.876	2.	0.	-446.16
20213	21.783	2.	5.e-002	-4.1779
20214	21.783	2.2727	0.	-466.36
20215	21.876	2.1818	0.	-446.65
20216	21.783	2.1818	5.e-002	-4.183
20217	21.783	2.4545	0.	-466.71
20218	21.876	2.3636	0.	-447.06
20219	21.783	2.3636	5.e-002	-4.1873
20220	21.783	2.6364	0.	-466.96
20221	21.876	2.5455	0.	-447.37
20222	21.783	2.5455	5.e-002	-4.1905
20223	21.783	2.8182	0.	-467.12
20224	21.876	2.7273	0.	-447.58
20225	21.783	2.7273	5.e-002	-4.1926
20226	21.783	3.	0.	-467.17
20227	21.876	2.9091	0.	-447.69
20228	21.783	2.9091	5.e-002	-4.1937
20229	21.783	3.1818	0.	-467.12
20230	21.876	3.0909	0.	-447.69
20231	21.783	3.0909	5.e-002	-4.1937
20232	21.783	3.3636	0.	-466.96
20233	21.876	3.2727	0.	-447.58
20234	21.783	3.2727	5.e-002	-4.1926
20235	21.783	3.5455	0.	-466.71
20236	21.876	3.4545	0.	-447.37
20237	21.783	3.4545	5.e-002	-4.1905
20238	21.783	3.7273	0.	-466.36
20239	21.876	3.6364	0.	-447.06
20240	21.783	3.6364	5.e-002	-4.1873
20241	21.783	3.9091	0.	-465.92
20242	21.876	3.8182	0.	-446.65
20243	21.783	3.8182	5.e-002	-4.1831
20244	21.783	4.0909	0.	-465.41
20245	21.876	4.	0.	-446.16
20246	21.783	4.	5.e-002	-4.1779
20247	21.783	4.2727	0.	-464.84
20248	21.876	4.1818	0.	-445.59
20249	21.783	4.1818	5.e-002	-4.1718
20250	21.783	4.4545	0.	-464.24
20251	21.876	4.3636	0.	-444.96
20252	21.783	4.3636	5.e-002	-4.1649
20253	21.783	4.6364	0.	-463.63
20254	21.876	4.5455	0.	-444.31
20255	21.783	4.5455	5.e-002	-4.1573
20256	21.783	4.8182	0.	-463.07
20257	21.876	4.7273	0.	-443.66
20258	21.783	4.7273	5.e-002	-4.149
20259	21.783	5.	0.	-462.61
20260	21.876	4.9091	0.	-443.07
20261	21.783	4.9091	5.e-002	-4.1402
20262	21.783	5.1818	0.	-462.31
20263	21.876	5.0909	0.	-442.6
20264	21.783	5.0909	5.e-002	-4.1309
20265	21.783	5.3636	0.	-462.28
20266	21.876	5.2727	0.	-442.35
20267	21.783	5.2727	5.e-002	-4.1206
20268	21.783	5.5455	0.	-462.7
20269	21.876	5.4545	0.	-442.41
20270	21.783	5.4545	5.e-002	-4.0993
20271	21.783	5.7273	0.	-464.92
20272	21.876	5.6364	0.	-443.07
20273	21.783	5.6364	5.e-002	-3.913
20274	21.876	5.8182	0.	-446.92
20275	21.783	5.8182	5.e-002	-1.3236
20276	21.783	5.9091	0.	-458.64
20277	21.968	0.27273	0.	-424.78
20278	22.061	0.18182	0.	-406.81
20279	21.968	0.18182	5.e-002	-1.4455
20280	21.968	9.0909e-002	0.	-418.55
20281	21.968	0.45455	0.	-422.67
20282	22.061	0.36364	0.	-403.06
20283	21.968	0.36364	5.e-002	-3.9153
20284	21.968	0.63636	0.	-422.39
20285	22.061	0.54545	0.	-402.52
20286	21.968	0.54545	5.e-002	-4.0953
20287	21.968	0.81818	0.	-422.56
20288	22.061	0.72727	0.	-402.61
20289	21.968	0.72727	5.e-002	-4.1176
20290	21.968	1.	0.	-423.
20291	22.061	0.90909	0.	-403.02
20292	21.968	0.90909	5.e-002	-4.1295
20293	21.968	1.1818	0.	-423.6
20294	22.061	1.0909	0.	-403.63
20295	21.968	1.0909	5.e-002	-4.1403
20296	21.968	1.3636	0.	-424.28
20297	22.061	1.2727	0.	-404.35
20298	21.968	1.2727	5.e-002	-4.1506
20299	21.968	1.5455	0.	-424.99
20300	22.061	1.4545	0.	-405.1
20301	21.968	1.4545	5.e-002	-4.1602
20302	21.968	1.7273	0.	-425.67
20303	22.061	1.6364	0.	-405.84
20304	21.968	1.6364	5.e-002	-4.1691
20305	21.968	1.9091	0.	-426.3
20306	22.061	1.8182	0.	-406.53
20307	21.968	1.8182	5.e-002	-4.177
20308	21.968	2.0909	0.	-426.86
20309	22.061	2.	0.	-407.15
20310	21.968	2.	5.e-002	-4.184
20311	21.968	2.2727	0.	-427.33
20312	22.061	2.1818	0.	-407.68
20313	21.968	2.1818	5.e-002	-4.1899
20314	21.968	2.4545	0.	-427.7
20315	22.061	2.3636	0.	-408.11
20316	21.968	2.3636	5.e-002	-4.1947
20317	21.968	2.6364	0.	-427.97
20318	22.061	2.5455	0.	-408.44
20319	21.968	2.5455	5.e-002	-4.1984
20320	21.968	2.8182	0.	-428.13
20321	22.061	2.7273	0.	-408.66
20322	21.968	2.7273	5.e-002	-4.2008
20323	21.968	3.	0.	-428.19
20324	22.061	2.9091	0.	-408.77
20325	21.968	2.9091	5.e-002	-4.202
20326	21.968	3.1818	0.	-428.13
20327	22.061	3.0909	0.	-408.77
20328	21.968	3.0909	5.e-002	-4.202
20329	21.968	3.3636	0.	-427.97
20330	22.061	3.2727	0.	-408.66
20331	21.968	3.2727	5.e-002	-4.2008
20332	21.968	3.5455	0.	-427.7
20333	22.061	3.4545	0.	-408.44
20334	21.968	3.4545	5.e-002	-4.1984
20335	21.968	3.7273	0.	-427.33
20336	22.061	3.6364	0.	-408.11
20337	21.968	3.6364	5.e-002	-4.1947
20338	21.968	3.9091	0.	-426.86
20339	22.061	3.8182	0.	-407.68
20340	21.968	3.8182	5.e-002	-4.1899
20341	21.968	4.0909	0.	-426.3
20342	22.061	4.	0.	-407.15
20343	21.968	4.	5.e-002	-4.184
20344	21.968	4.2727	0.	-425.67
20345	22.061	4.1818	0.	-406.53
20346	21.968	4.1818	5.e-002	-4.177
20347	21.968	4.4545	0.	-424.99
20348	22.061	4.3636	0.	-405.84
20349	21.968	4.3636	5.e-002	-4.1691
20350	21.968	4.6364	0.	-424.28
20351	22.061	4.5455	0.	-405.1
20352	21.968	4.5455	5.e-002	-4.1602
20353	21.968	4.8182	0.	-423.6
20354	22.061	4.7273	0.	-404.35
20355	21.968	4.7273	5.e-002	-4.1506
20356	21.968	5.	0.	-423.
20357	22.061	4.9091	0.	-403.63
20358	21.968	4.9091	5.e-002	-4.1403
20359	21.968	5.1818	0.	-422.56
20360	22.061	5.0909	0.	-403.02
20361	21.968	5.0909	5.e-002	-4.1295
20362	21.968	5.3636	0.	-422.39
20363	22.061	5.2727	0.	-402.61
20364	21.968	5.2727	5.e-002	-4.1177
20365	21.968	5.5455	0.	-422.67
20366	22.061	5.4545	0.	-402.52
20367	21.968	5.4545	5.e-002	-4.0953
20368	21.968	5.7273	0.	-424.78
20369	22.061	5.6364	0.	-403.06
20370	21.968	5.6364	5.e-002	-3.9153
20371	22.061	5.8182	0.	-406.81
20372	21.968	5.8182	5.e-002	-1.4456
20373	21.968	5.9091	0.	-418.55
20374	22.153	0.27273	0.	-384.77
20375	22.245	0.18182	0.	-366.81
20376	22.153	0.18182	5.e-002	-1.578
20377	22.153	9.0909e-002	0.	-378.62
20378	22.153	0.45455	0.	-382.79
20379	22.245	0.36364	0.	-363.19
20380	22.153	0.36364	5.e-002	-3.9192
20381	22.153	0.63636	0.	-382.66
20382	22.245	0.54545	0.	-362.81
20383	22.153	0.54545	5.e-002	-4.0926
20384	22.153	0.81818	0.	-383.
20385	22.245	0.72727	0.	-363.07
20386	22.153	0.72727	5.e-002	-4.1164
20387	22.153	1.	0.	-383.59
20388	22.245	0.90909	0.	-363.64
20389	22.153	0.90909	5.e-002	-4.1301
20390	22.153	1.1818	0.	-384.33
20391	22.245	1.0909	0.	-364.4
20392	22.153	1.0909	5.e-002	-4.1428
20393	22.153	1.3636	0.	-385.12
20394	22.245	1.2727	0.	-365.24
20395	22.153	1.2727	5.e-002	-4.1548
20396	22.153	1.5455	0.	-385.92
20397	22.245	1.4545	0.	-366.09
20398	22.153	1.4545	5.e-002	-4.166
20399	22.153	1.7273	0.	-386.67
20400	22.245	1.6364	0.	-366.9
20401	22.153	1.6364	5.e-002	-4.1763
20402	22.153	1.9091	0.	-387.35
20403	22.245	1.8182	0.	-367.64
20404	22.153	1.8182	5.e-002	-4.1854
20405	22.153	2.0909	0.	-387.94
20406	22.245	2.	0.	-368.29
20407	22.153	2.	5.e-002	-4.1934
20408	22.153	2.2727	0.	-388.44
20409	22.245	2.1818	0.	-368.84
20410	22.153	2.1818	5.e-002	-4.2001
20411	22.153	2.4545	0.	-388.82
20412	22.245	2.3636	0.	-369.28
20413	22.153	2.3636	5.e-002	-4.2055
20414	22.153	2.6364	0.	-389.1
20415	22.245	2.5455	0.	-369.62
20416	22.153	2.5455	5.e-002	-4.2095
20417	22.153	2.8182	0.	-389.27
20418	22.245	2.7273	0.	-369.84
20419	22.153	2.7273	5.e-002	-4.2123
20420	22.153	3.	0.	-389.32
20421	22.245	2.9091	0.	-369.95
20422	22.153	2.9091	5.e-002	-4.2136
20423	22.153	3.1818	0.	-389.27
20424	22.245	3.0909	0.	-369.95
20425	22.153	3.0909	5.e-002	-4.2136
20426	22.153	3.3636	0.	-389.1
20427	22.245	3.2727	0.	-369.84
20428	22.153	3.2727	5.e-002	-4.2123
20429	22.153	3.5455	0.	-388.82
20430	22.245	3.4545	0.	-369.62
20431	22.153	3.4545	5.e-002	-4.2096
20432	22.153	3.7273	0.	-388.44
20433	22.245	3.6364	0.	-369.28
20434	22.153	3.6364	5.e-002	-4.2055
20435	22.153	3.9091	0.	-387.94
20436	22.245	3.8182	0.	-368.84
20437	22.153	3.8182	5.e-002	-4.2001
20438	22.153	4.0909	0.	-387.35
20439	22.245	4.	0.	-368.29
20440	22.153	4.	5.e-002	-4.1934
20441	22.153	4.2727	0.	-386.67
20442	22.245	4.1818	0.	-367.64
20443	22.153	4.1818	5.e-002	-4.1854
20444	22.153	4.4545	0.	-385.92
20445	22.245	4.3636	0.	-366.9
20446	22.153	4.3636	5.e-002	-4.1763
20447	22.153	4.6364	0.	-385.12
20448	22.245	4.5455	0.	-366.09
20449	22.153	4.5455	5.e-002	-4.166
20450	22.153	4.8182	0.	-384.33
20451	22.245	4.7273	0.	-365.24
20452	22.153	4.7273	5.e-002	-4.1549
20453	22.153	5.	0.	-383.59
20454	22.245	4.9091	0.	-364.4
20455	22.153	4.9091	5.e-002	-4.1429
20456	22.153	5.1818	0.	-383.
20457	22.245	5.0909	0.	-363.64
20458	22.153	5.0909	5.e-002	-4.1302
20459	22.153	5.3636	0.	-382.66
20460	22.245	5.2727	0.	-363.07
20461	22.153	5.2727	5.e-002	-4.1164
20462	22.153	5.5455	0.	-382.79
20463	22.245	5.4545	0.	-362.81
20464	22.153	5.4545	5.e-002	-4.0926
20465	22.153	5.7273	0.	-384.77
20466	22.245	5.6364	0.	-363.19
20467	22.153	5.6364	5.e-002	-3.9192
20468	22.245	5.8182	0.	-366.81
20469	22.153	5.8182	5.e-002	-1.578
20470	22.153	5.9091	0.	-378.62
20471	22.338	0.27273	0.	-344.9
20472	22.43	0.18182	0.	-326.94
20473	22.338	0.18182	5.e-002	-1.722
20474	22.338	9.0909e-002	0.	-338.86
20475	22.338	0.45455	0.	-343.08
20476	22.43	0.36364	0.	-323.49
20477	22.338	0.36364	5.e-002	-3.9249
20478	22.338	0.63636	0.	-343.11
20479	22.43	0.54545	0.	-323.28
20480	22.338	0.54545	5.e-002	-4.0915
20481	22.338	0.81818	0.	-343.63
20482	22.43	0.72727	0.	-323.73
20483	22.338	0.72727	5.e-002	-4.1172
20484	22.338	1.	0.	-344.39
20485	22.43	0.90909	0.	-324.48
20486	22.338	0.90909	5.e-002	-4.1333
20487	22.338	1.1818	0.	-345.26
20488	22.43	1.0909	0.	-325.39
20489	22.338	1.0909	5.e-002	-4.1483
20490	22.338	1.3636	0.	-346.16
20491	22.43	1.2727	0.	-326.34
20492	22.338	1.2727	5.e-002	-4.1623
20493	22.338	1.5455	0.	-347.04
20494	22.43	1.4545	0.	-327.27
20495	22.338	1.4545	5.e-002	-4.1753
20496	22.338	1.7273	0.	-347.84
20497	22.43	1.6364	0.	-328.13
20498	22.338	1.6364	5.e-002	-4.187
20499	22.338	1.9091	0.	-348.55
20500	22.43	1.8182	0.	-328.9
20501	22.338	1.8182	5.e-002	-4.1974
20502	22.338	2.0909	0.	-349.16
20503	22.43	2.	0.	-329.57
20504	22.338	2.	5.e-002	-4.2064
20505	22.338	2.2727	0.	-349.67
20506	22.43	2.1818	0.	-330.12
20507	22.338	2.1818	5.e-002	-4.2138
20508	22.338	2.4545	0.	-350.06
20509	22.43	2.3636	0.	-330.56
20510	22.338	2.3636	5.e-002	-4.2198
20511	22.338	2.6364	0.	-350.34
20512	22.43	2.5455	0.	-330.89
20513	22.338	2.5455	5.e-002	-4.2243
20514	22.338	2.8182	0.	-350.5
20515	22.43	2.7273	0.	-331.11
20516	22.338	2.7273	5.e-002	-4.2273
20517	22.338	3.	0.	-350.56
20518	22.43	2.9091	0.	-331.22
20519	22.338	2.9091	5.e-002	-4.2288
20520	22.338	3.1818	0.	-350.5
20521	22.43	3.0909	0.	-331.22
20522	22.338	3.0909	5.e-002	-4.2288
20523	22.338	3.3636	0.	-350.34
20524	22.43	3.2727	0.	-331.11
20525	22.338	3.2727	5.e-002	-4.2273
20526	22.338	3.5455	0.	-350.06
20527	22.43	3.4545	0.	-330.89
20528	22.338	3.4545	5.e-002	-4.2243
20529	22.338	3.7273	0.	-349.67
20530	22.43	3.6364	0.	-330.56
20531	22.338	3.6364	5.e-002	-4.2198
20532	22.338	3.9091	0.	-349.16
20533	22.43	3.8182	0.	-330.12
20534	22.338	3.8182	5.e-002	-4.2139
20535	22.338	4.0909	0.	-348.55
20536	22.43	4.	0.	-329.57
20537	22.338	4.	5.e-002	-4.2064
20538	22.338	4.2727	0.	-347.84
20539	22.43	4.1818	0.	-328.9
20540	22.338	4.1818	5.e-002	-4.1974
20541	22.338	4.4545	0.	-347.04
20542	22.43	4.3636	0.	-328.13
20543	22.338	4.3636	5.e-002	-4.187
20544	22.338	4.6364	0.	-346.16
20545	22.43	4.5455	0.	-327.27
20546	22.338	4.5455	5.e-002	-4.1753
20547	22.338	4.8182	0.	-345.26
20548	22.43	4.7273	0.	-326.34
20549	22.338	4.7273	5.e-002	-4.1623
20550	22.338	5.	0.	-344.39
20551	22.43	4.9091	0.	-325.39
20552	22.338	4.9091	5.e-002	-4.1483
20553	22.338	5.1818	0.	-343.63
20554	22.43	5.0909	0.	-324.48
20555	22.338	5.0909	5.e-002	-4.1334
20556	22.338	5.3636	0.	-343.11
20557	22.43	5.2727	0.	-323.73
20558	22.338	5.2727	5.e-002	-4.1172
20559	22.338	5.5455	0.	-343.08
20560	22.43	5.4545	0.	-323.28
20561	22.338	5.4545	5.e-002	-4.0915
20562	22.338	5.7273	0.	-344.9
20563	22.43	5.6364	0.	-323.49
20564	22.338	5.6364	5.e-002	-3.9249
20565	22.43	5.8182	0.	-326.94
20566	22.338	5.8182	5.e-002	-1.722
20567	22.338	5.9091	0.	-338.86
20568	22.522	0.27273	0.	-305.18
20569	22.615	0.18182	0.	-287.22
20570	22.522	0.18182	5.e-002	-1.8789
20571	22.522	9.0909e-002	0.	-299.31
20572	22.522	0.45455	0.	-303.55
20573	22.615	0.36364	0.	-283.97
20574	22.522	0.36364	5.e-002	-3.9326
20575	22.522	0.63636	0.	-303.78
20576	22.615	0.54545	0.	-283.96
20577	22.522	0.54545	5.e-002	-4.0924
20578	22.522	0.81818	0.	-304.49
20579	22.615	0.72727	0.	-284.62
20580	22.522	0.72727	5.e-002	-4.1207
20581	22.522	1.	0.	-305.41
20582	22.615	0.90909	0.	-285.56
20583	22.522	0.90909	5.e-002	-4.1398
20584	22.522	1.1818	0.	-306.41
20585	22.615	1.0909	0.	-286.6
20586	22.522	1.0909	5.e-002	-4.1575
20587	22.522	1.3636	0.	-307.4
20588	22.615	1.2727	0.	-287.65
20589	22.522	1.2727	5.e-002	-4.1738
20590	22.522	1.5455	0.	-308.33
20591	22.615	1.4545	0.	-288.63
20592	22.522	1.4545	5.e-002	-4.1887
20593	22.522	1.7273	0.	-309.16
20594	22.615	1.6364	0.	-289.52
20595	22.522	1.6364	5.e-002	-4.202
20596	22.522	1.9091	0.	-309.89
20597	22.615	1.8182	0.	-290.29
20598	22.522	1.8182	5.e-002	-4.2136
20599	22.522	2.0909	0.	-310.5
20600	22.615	2.	0.	-290.95
20601	22.522	2.	5.e-002	-4.2235
20602	22.522	2.2727	0.	-310.99
20603	22.615	2.1818	0.	-291.48
20604	22.522	2.1818	5.e-002	-4.2317
20605	22.522	2.4545	0.	-311.37
20606	22.615	2.3636	0.	-291.91
20607	22.522	2.3636	5.e-002	-4.2382
20608	22.522	2.6364	0.	-311.64
20609	22.615	2.5455	0.	-292.22
20610	22.522	2.5455	5.e-002	-4.2431
20611	22.522	2.8182	0.	-311.81
20612	22.615	2.7273	0.	-292.43
20613	22.522	2.7273	5.e-002	-4.2463
20614	22.522	3.	0.	-311.86
20615	22.615	2.9091	0.	-292.53
20616	22.522	2.9091	5.e-002	-4.2479
20617	22.522	3.1818	0.	-311.81
20618	22.615	3.0909	0.	-292.53
20619	22.522	3.0909	5.e-002	-4.2479
20620	22.522	3.3636	0.	-311.64
20621	22.615	3.2727	0.	-292.43
20622	22.522	3.2727	5.e-002	-4.2463
20623	22.522	3.5455	0.	-311.37
20624	22.615	3.4545	0.	-292.22
20625	22.522	3.4545	5.e-002	-4.2431
20626	22.522	3.7273	0.	-310.99
20627	22.615	3.6364	0.	-291.91
20628	22.522	3.6364	5.e-002	-4.2383
20629	22.522	3.9091	0.	-310.5
20630	22.615	3.8182	0.	-291.48
20631	22.522	3.8182	5.e-002	-4.2317
20632	22.522	4.0909	0.	-309.89
20633	22.615	4.	0.	-290.95
20634	22.522	4.	5.e-002	-4.2236
20635	22.522	4.2727	0.	-309.16
20636	22.615	4.1818	0.	-290.29
20637	22.522	4.1818	5.e-002	-4.2137
20638	22.522	4.4545	0.	-308.33
20639	22.615	4.3636	0.	-289.52
20640	22.522	4.3636	5.e-002	-4.202
20641	22.522	4.6364	0.	-307.4
20642	22.615	4.5455	0.	-288.63
20643	22.522	4.5455	5.e-002	-4.1887
20644	22.522	4.8182	0.	-306.41
20645	22.615	4.7273	0.	-287.65
20646	22.522	4.7273	5.e-002	-4.1738
20647	22.522	5.	0.	-305.41
20648	22.615	4.9091	0.	-286.6
20649	22.522	4.9091	5.e-002	-4.1575
20650	22.522	5.1818	0.	-304.49
20651	22.615	5.0909	0.	-285.56
20652	22.522	5.0909	5.e-002	-4.1399
20653	22.522	5.3636	0.	-303.78
20654	22.615	5.2727	0.	-284.62
20655	22.522	5.2727	5.e-002	-4.1207
20656	22.522	5.5455	0.	-303.55
20657	22.615	5.4545	0.	-283.96
20658	22.522	5.4545	5.e-002	-4.0924
20659	22.522	5.7273	0.	-305.18
20660	22.615	5.6364	0.	-283.97
20661	22.522	5.6364	5.e-002	-3.9326
20662	22.615	5.8182	0.	-287.22
20663	22.522	5.8182	5.e-002	-1.8789
20664	22.522	5.9091	0.	-299.31
20665	22.707	0.27273	0.	-265.62
20666	22.799	0.18182	0.	-247.64
20667	22.707	0.18182	5.e-002	-2.0503
20668	22.707	9.0909e-002	0.	-259.97
20669	22.707	0.45455	0.	-264.23
20670	22.799	0.36364	0.	-244.67
20671	22.707	0.36364	5.e-002	-3.9428
20672	22.707	0.63636	0.	-264.69
20673	22.799	0.54545	0.	-244.9
20674	22.707	0.54545	5.e-002	-4.0962
20675	22.707	0.81818	0.	-265.6
20676	22.799	0.72727	0.	-245.79
20677	22.707	0.72727	5.e-002	-4.1279
20678	22.707	1.	0.	-266.68
20679	22.799	0.90909	0.	-246.91
20680	22.707	0.90909	5.e-002	-4.1507
20681	22.707	1.1818	0.	-267.79
20682	22.799	1.0909	0.	-248.06
20683	22.707	1.0909	5.e-002	-4.1715
20684	22.707	1.3636	0.	-268.84
20685	22.799	1.2727	0.	-249.17
20686	22.707	1.2727	5.e-002	-4.1904
20687	22.707	1.5455	0.	-269.79
20688	22.799	1.4545	0.	-250.16
20689	22.707	1.4545	5.e-002	-4.2073
20690	22.707	1.7273	0.	-270.62
20691	22.799	1.6364	0.	-251.04
20692	22.707	1.6364	5.e-002	-4.2221
20693	22.707	1.9091	0.	-271.33
20694	22.799	1.8182	0.	-251.78
20695	22.707	1.8182	5.e-002	-4.2348
20696	22.707	2.0909	0.	-271.91
20697	22.799	2.	0.	-252.4
20698	22.707	2.	5.e-002	-4.2455
20699	22.707	2.2727	0.	-272.38
20700	22.799	2.1818	0.	-252.9
20701	22.707	2.1818	5.e-002	-4.2542
20702	22.707	2.4545	0.	-272.74
20703	22.799	2.3636	0.	-253.29
20704	22.707	2.3636	5.e-002	-4.261
20705	22.707	2.6364	0.	-272.99
20706	22.799	2.5455	0.	-253.58
20707	22.707	2.5455	5.e-002	-4.2661
20708	22.707	2.8182	0.	-273.14
20709	22.799	2.7273	0.	-253.77
20710	22.707	2.7273	5.e-002	-4.2695
20711	22.707	3.	0.	-273.19
20712	22.799	2.9091	0.	-253.86
20713	22.707	2.9091	5.e-002	-4.2711
20714	22.707	3.1818	0.	-273.14
20715	22.799	3.0909	0.	-253.86
20716	22.707	3.0909	5.e-002	-4.2711
20717	22.707	3.3636	0.	-272.99
20718	22.799	3.2727	0.	-253.77
20719	22.707	3.2727	5.e-002	-4.2695
20720	22.707	3.5455	0.	-272.74
20721	22.799	3.4545	0.	-253.58
20722	22.707	3.4545	5.e-002	-4.2661
20723	22.707	3.7273	0.	-272.38
20724	22.799	3.6364	0.	-253.29
20725	22.707	3.6364	5.e-002	-4.2611
20726	22.707	3.9091	0.	-271.91
20727	22.799	3.8182	0.	-252.9
20728	22.707	3.8182	5.e-002	-4.2542
20729	22.707	4.0909	0.	-271.33
20730	22.799	4.	0.	-252.4
20731	22.707	4.	5.e-002	-4.2455
20732	22.707	4.2727	0.	-270.62
20733	22.799	4.1818	0.	-251.78
20734	22.707	4.1818	5.e-002	-4.2348
20735	22.707	4.4545	0.	-269.79
20736	22.799	4.3636	0.	-251.04
20737	22.707	4.3636	5.e-002	-4.2221
20738	22.707	4.6364	0.	-268.84
20739	22.799	4.5455	0.	-250.16
20740	22.707	4.5455	5.e-002	-4.2073
20741	22.707	4.8182	0.	-267.79
20742	22.799	4.7273	0.	-249.17
20743	22.707	4.7273	5.e-002	-4.1904
20744	22.707	5.	0.	-266.68
20745	22.799	4.9091	0.	-248.06
20746	22.707	4.9091	5.e-002	-4.1715
20747	22.707	5.1818	0.	-265.6
20748	22.799	5.0909	0.	-246.91
20749	22.707	5.0909	5.e-002	-4.1507
20750	22.707	5.3636	0.	-264.69
20751	22.799	5.2727	0.	-245.79
20752	22.707	5.2727	5.e-002	-4.1279
20753	22.707	5.5455	0.	-264.23
20754	22.799	5.4545	0.	-244.9
20755	22.707	5.4545	5.e-002	-4.0962
20756	22.707	5.7273	0.	-265.62
20757	22.799	5.6364	0.	-244.67
20758	22.707	5.6364	5.e-002	-3.9428
20759	22.799	5.8182	0.	-247.64
20760	22.707	5.8182	5.e-002	-2.0503
20761	22.707	5.9091	0.	-259.97
20762	22.892	0.27273	0.	-226.26
20763	22.984	0.18182	0.	-208.26
20764	22.892	0.18182	5.e-002	-2.2387
20765	22.892	9.0909e-002	0.	-220.9
20766	22.892	0.45455	0.	-225.17
20767	22.984	0.36364	0.	-205.64
20768	22.892	0.36364	5.e-002	-3.9563
20769	22.892	0.63636	0.	-225.89
20770	22.984	0.54545	0.	-206.16
20771	22.892	0.54545	5.e-002	-4.104
20772	22.892	0.81818	0.	-227.01
20773	22.984	0.72727	0.	-207.29
20774	22.892	0.72727	5.e-002	-4.1404
20775	22.892	1.	0.	-228.22
20776	22.984	0.90909	0.	-208.56
20777	22.892	0.90909	5.e-002	-4.1677
20778	22.892	1.1818	0.	-229.4
20779	22.984	1.0909	0.	-209.78
20780	22.892	1.0909	5.e-002	-4.1919
20781	22.892	1.3636	0.	-230.46
20782	22.984	1.2727	0.	-210.89
20783	22.892	1.2727	5.e-002	-4.2134
20784	22.892	1.5455	0.	-231.39
20785	22.984	1.4545	0.	-211.85
20786	22.892	1.4545	5.e-002	-4.2321
20787	22.892	1.7273	0.	-232.18
20788	22.984	1.6364	0.	-212.66
20789	22.892	1.6364	5.e-002	-4.2481
20790	22.892	1.9091	0.	-232.84
20791	22.984	1.8182	0.	-213.34
20792	22.892	1.8182	5.e-002	-4.2615
20793	22.892	2.0909	0.	-233.37
20794	22.984	2.	0.	-213.89
20795	22.892	2.	5.e-002	-4.2727
20796	22.892	2.2727	0.	-233.8
20797	22.984	2.1818	0.	-214.34
20798	22.892	2.1818	5.e-002	-4.2816
20799	22.892	2.4545	0.	-234.12
20800	22.984	2.3636	0.	-214.67
20801	22.892	2.3636	5.e-002	-4.2886
20802	22.892	2.6364	0.	-234.34
20803	22.984	2.5455	0.	-214.92
20804	22.892	2.5455	5.e-002	-4.2937
20805	22.892	2.8182	0.	-234.47
20806	22.984	2.7273	0.	-215.08
20807	22.892	2.7273	5.e-002	-4.2971
20808	22.892	3.	0.	-234.52
20809	22.984	2.9091	0.	-215.16
20810	22.892	2.9091	5.e-002	-4.2987
20811	22.892	3.1818	0.	-234.47
20812	22.984	3.0909	0.	-215.16
20813	22.892	3.0909	5.e-002	-4.2987
20814	22.892	3.3636	0.	-234.34
20815	22.984	3.2727	0.	-215.08
20816	22.892	3.2727	5.e-002	-4.2971
20817	22.892	3.5455	0.	-234.12
20818	22.984	3.4545	0.	-214.92
20819	22.892	3.4545	5.e-002	-4.2937
20820	22.892	3.7273	0.	-233.8
20821	22.984	3.6364	0.	-214.67
20822	22.892	3.6364	5.e-002	-4.2886
20823	22.892	3.9091	0.	-233.37
20824	22.984	3.8182	0.	-214.34
20825	22.892	3.8182	5.e-002	-4.2816
20826	22.892	4.0909	0.	-232.84
20827	22.984	4.	0.	-213.89
20828	22.892	4.	5.e-002	-4.2727
20829	22.892	4.2727	0.	-232.18
20830	22.984	4.1818	0.	-213.34
20831	22.892	4.1818	5.e-002	-4.2615
20832	22.892	4.4545	0.	-231.39
20833	22.984	4.3636	0.	-212.66
20834	22.892	4.3636	5.e-002	-4.2481
20835	22.892	4.6364	0.	-230.46
20836	22.984	4.5455	0.	-211.85
20837	22.892	4.5455	5.e-002	-4.2321
20838	22.892	4.8182	0.	-229.4
20839	22.984	4.7273	0.	-210.89
20840	22.892	4.7273	5.e-002	-4.2134
20841	22.892	5.	0.	-228.22
20842	22.984	4.9091	0.	-209.78
20843	22.892	4.9091	5.e-002	-4.192
20844	22.892	5.1818	0.	-227.01
20845	22.984	5.0909	0.	-208.55
20846	22.892	5.0909	5.e-002	-4.1677
20847	22.892	5.3636	0.	-225.89
20848	22.984	5.2727	0.	-207.29
20849	22.892	5.2727	5.e-002	-4.1404
20850	22.892	5.5455	0.	-225.17
20851	22.984	5.4545	0.	-206.16
20852	22.892	5.4545	5.e-002	-4.104
20853	22.892	5.7273	0.	-226.26
20854	22.984	5.6364	0.	-205.64
20855	22.892	5.6364	5.e-002	-3.9563
20856	22.984	5.8182	0.	-208.26
20857	22.892	5.8182	5.e-002	-2.2387
20858	22.892	5.9091	0.	-220.9
20859	23.076	0.27273	0.	-187.15
20860	23.169	0.18182	0.	-169.11
20861	23.076	0.18182	5.e-002	-2.4471
20862	23.076	9.0909e-002	0.	-182.16
20863	23.076	0.45455	0.	-186.44
20864	23.169	0.36364	0.	-166.97
20865	23.076	0.36364	5.e-002	-3.975
20866	23.076	0.63636	0.	-187.44
20867	23.169	0.54545	0.	-167.84
20868	23.076	0.54545	5.e-002	-4.1183
20869	23.076	0.81818	0.	-188.75
20870	23.169	0.72727	0.	-169.18
20871	23.076	0.72727	5.e-002	-4.1609
20872	23.076	1.	0.	-190.05
20873	23.169	0.90909	0.	-170.53
20874	23.076	0.90909	5.e-002	-4.1933
20875	23.076	1.1818	0.	-191.23
20876	23.169	1.0909	0.	-171.74
20877	23.076	1.0909	5.e-002	-4.221
20878	23.076	1.3636	0.	-192.24
20879	23.169	1.2727	0.	-172.78
20880	23.076	1.2727	5.e-002	-4.2446
20881	23.076	1.5455	0.	-193.1
20882	23.169	1.4545	0.	-173.64
20883	23.076	1.4545	5.e-002	-4.2644
20884	23.076	1.7273	0.	-193.8
20885	23.169	1.6364	0.	-174.35
20886	23.076	1.6364	5.e-002	-4.281
20887	23.076	1.9091	0.	-194.38
20888	23.169	1.8182	0.	-174.92
20889	23.076	1.8182	5.e-002	-4.2946
20890	23.076	2.0909	0.	-194.84
20891	23.169	2.	0.	-175.38
20892	23.076	2.	5.e-002	-4.3056
20893	23.076	2.2727	0.	-195.2
20894	23.169	2.1818	0.	-175.73
20895	23.076	2.1818	5.e-002	-4.3144
20896	23.076	2.4545	0.	-195.47
20897	23.169	2.3636	0.	-176.01
20898	23.076	2.3636	5.e-002	-4.3211
20899	23.076	2.6364	0.	-195.65
20900	23.169	2.5455	0.	-176.2
20901	23.076	2.5455	5.e-002	-4.326
20902	23.076	2.8182	0.	-195.76
20903	23.169	2.7273	0.	-176.33
20904	23.076	2.7273	5.e-002	-4.3292
20905	23.076	3.	0.	-195.8
20906	23.169	2.9091	0.	-176.39
20907	23.076	2.9091	5.e-002	-4.3307
20908	23.076	3.1818	0.	-195.76
20909	23.169	3.0909	0.	-176.39
20910	23.076	3.0909	5.e-002	-4.3307
20911	23.076	3.3636	0.	-195.65
20912	23.169	3.2727	0.	-176.33
20913	23.076	3.2727	5.e-002	-4.3292
20914	23.076	3.5455	0.	-195.47
20915	23.169	3.4545	0.	-176.2
20916	23.076	3.4545	5.e-002	-4.326
20917	23.076	3.7273	0.	-195.2
20918	23.169	3.6364	0.	-176.01
20919	23.076	3.6364	5.e-002	-4.3211
20920	23.076	3.9091	0.	-194.84
20921	23.169	3.8182	0.	-175.73
20922	23.076	3.8182	5.e-002	-4.3144
20923	23.076	4.0909	0.	-194.38
20924	23.169	4.	0.	-175.38
20925	23.076	4.	5.e-002	-4.3056
20926	23.076	4.2727	0.	-193.8
20927	23.169	4.1818	0.	-174.92
20928	23.076	4.1818	5.e-002	-4.2946
20929	23.076	4.4545	0.	-193.1
20930	23.169	4.3636	0.	-174.35
20931	23.076	4.3636	5.e-002	-4.281
20932	23.076	4.6364	0.	-192.24
20933	23.169	4.5455	0.	-173.64
20934	23.076	4.5455	5.e-002	-4.2645
20935	23.076	4.8182	0.	-191.23
20936	23.169	4.7273	0.	-172.78
20937	23.076	4.7273	5.e-002	-4.2446
20938	23.076	5.	0.	-190.05
20939	23.169	4.9091	0.	-171.74
20940	23.076	4.9091	5.e-002	-4.221
20941	23.076	5.1818	0.	-188.75
20942	23.169	5.0909	0.	-170.53
20943	23.076	5.0909	5.e-002	-4.1933
20944	23.076	5.3636	0.	-187.44
20945	23.169	5.2727	0.	-169.18
20946	23.076	5.2727	5.e-002	-4.1609
20947	23.076	5.5455	0.	-186.44
20948	23.169	5.4545	0.	-167.84
20949	23.076	5.4545	5.e-002	-4.1183
20950	23.076	5.7273	0.	-187.15
20951	23.169	5.6364	0.	-166.97
20952	23.076	5.6364	5.e-002	-3.975
20953	23.169	5.8182	0.	-169.11
20954	23.076	5.8182	5.e-002	-2.4471
20955	23.076	5.9091	0.	-182.16
20956	23.261	0.27273	0.	-148.37
20957	23.354	0.18182	0.	-130.29
20958	23.261	0.18182	5.e-002	-2.6811
20959	23.261	9.0909e-002	0.	-143.85
20960	23.261	0.45455	0.	-148.16
20961	23.354	0.36364	0.	-128.83
20962	23.261	0.36364	5.e-002	-4.0023
20963	23.261	0.63636	0.	-149.45
20964	23.354	0.54545	0.	-130.06
20965	23.261	0.54545	5.e-002	-4.1443
20966	23.261	0.81818	0.	-150.89
20967	23.354	0.72727	0.	-131.53
20968	23.261	0.72727	5.e-002	-4.1944
20969	23.261	1.	0.	-152.17
20970	23.354	0.90909	0.	-132.84
20971	23.261	0.90909	5.e-002	-4.2315
20972	23.261	1.1818	0.	-153.26
20973	23.354	1.0909	0.	-133.92
20974	23.261	1.0909	5.e-002	-4.2617
20975	23.261	1.3636	0.	-154.15
20976	23.354	1.2727	0.	-134.79
20977	23.261	1.2727	5.e-002	-4.2861
20978	23.261	1.5455	0.	-154.87
20979	23.354	1.4545	0.	-135.48
20980	23.261	1.4545	5.e-002	-4.3058
20981	23.261	1.7273	0.	-155.44
20982	23.354	1.6364	0.	-136.03
20983	23.261	1.6364	5.e-002	-4.3218
20984	23.261	1.9091	0.	-155.9
20985	23.354	1.8182	0.	-136.46
20986	23.261	1.8182	5.e-002	-4.3346
20987	23.261	2.0909	0.	-156.26
20988	23.354	2.	0.	-136.8
20989	23.261	2.	5.e-002	-4.3447
20990	23.261	2.2727	0.	-156.53
20991	23.354	2.1818	0.	-137.06
20992	23.261	2.1818	5.e-002	-4.3527
20993	23.261	2.4545	0.	-156.74
20994	23.354	2.3636	0.	-137.25
20995	23.261	2.3636	5.e-002	-4.3587
20996	23.261	2.6364	0.	-156.88
20997	23.354	2.5455	0.	-137.39
20998	23.261	2.5455	5.e-002	-4.363
20999	23.261	2.8182	0.	-156.96
21000	23.354	2.7273	0.	-137.48
21001	23.261	2.7273	5.e-002	-4.3659
21002	23.261	3.	0.	-156.98
21003	23.354	2.9091	0.	-137.52
21004	23.261	2.9091	5.e-002	-4.3672
21005	23.261	3.1818	0.	-156.96
21006	23.354	3.0909	0.	-137.52
21007	23.261	3.0909	5.e-002	-4.3672
21008	23.261	3.3636	0.	-156.88
21009	23.354	3.2727	0.	-137.48
21010	23.261	3.2727	5.e-002	-4.3659
21011	23.261	3.5455	0.	-156.74
21012	23.354	3.4545	0.	-137.39
21013	23.261	3.4545	5.e-002	-4.363
21014	23.261	3.7273	0.	-156.53
21015	23.354	3.6364	0.	-137.25
21016	23.261	3.6364	5.e-002	-4.3587
21017	23.261	3.9091	0.	-156.26
21018	23.354	3.8182	0.	-137.06
21019	23.261	3.8182	5.e-002	-4.3527
21020	23.261	4.0909	0.	-155.9
21021	23.354	4.	0.	-136.8
21022	23.261	4.	5.e-002	-4.3447
21023	23.261	4.2727	0.	-155.44
21024	23.354	4.1818	0.	-136.46
21025	23.261	4.1818	5.e-002	-4.3346
21026	23.261	4.4545	0.	-154.87
21027	23.354	4.3636	0.	-136.03
21028	23.261	4.3636	5.e-002	-4.3218
21029	23.261	4.6364	0.	-154.15
21030	23.354	4.5455	0.	-135.48
21031	23.261	4.5455	5.e-002	-4.3058
21032	23.261	4.8182	0.	-153.26
21033	23.354	4.7273	0.	-134.79
21034	23.261	4.7273	5.e-002	-4.2861
21035	23.261	5.	0.	-152.17
21036	23.354	4.9091	0.	-133.92
21037	23.261	4.9091	5.e-002	-4.2617
21038	23.261	5.1818	0.	-150.89
21039	23.354	5.0909	0.	-132.84
21040	23.261	5.0909	5.e-002	-4.2316
21041	23.261	5.3636	0.	-149.45
21042	23.354	5.2727	0.	-131.53
21043	23.261	5.2727	5.e-002	-4.1944
21044	23.261	5.5455	0.	-148.16
21045	23.354	5.4545	0.	-130.06
21046	23.261	5.4545	5.e-002	-4.1443
21047	23.261	5.7273	0.	-148.37
21048	23.354	5.6364	0.	-128.83
21049	23.261	5.6364	5.e-002	-4.0023
21050	23.354	5.8182	0.	-130.29
21051	23.261	5.8182	5.e-002	-2.6811
21052	23.261	5.9091	0.	-143.85
21053	23.446	0.27273	0.	-110.1
21054	23.538	0.18182	0.	-91.992
21055	23.446	0.18182	5.e-002	-2.9483
21056	23.446	9.0909e-002	0.	-106.14
21057	23.446	0.45455	0.	-110.51
21058	23.538	0.36364	0.	-91.497
21059	23.446	0.36364	5.e-002	-4.0487
21060	23.446	0.63636	0.	-112.03
21061	23.538	0.54545	0.	-92.98
21062	23.446	0.54545	5.e-002	-4.1927
21063	23.446	0.81818	0.	-113.43
21064	23.538	0.72727	0.	-94.359
21065	23.446	0.72727	5.e-002	-4.2488
21066	23.446	1.	0.	-114.55
21067	23.538	0.90909	0.	-95.425
21068	23.446	0.90909	5.e-002	-4.2879
21069	23.446	1.1818	0.	-115.43
21070	23.538	1.0909	0.	-96.23
21071	23.446	1.0909	5.e-002	-4.3174
21072	23.446	1.3636	0.	-116.11
21073	23.538	1.2727	0.	-96.835
21074	23.446	1.2727	5.e-002	-4.3399
21075	23.446	1.5455	0.	-116.63
21076	23.538	1.4545	0.	-97.291
21077	23.446	1.4545	5.e-002	-4.3574
21078	23.446	1.7273	0.	-117.04
21079	23.538	1.6364	0.	-97.636
21080	23.446	1.6364	5.e-002	-4.3711
21081	23.446	1.9091	0.	-117.35
21082	23.538	1.8182	0.	-97.897
21083	23.446	1.8182	5.e-002	-4.3818
21084	23.446	2.0909	0.	-117.59
21085	23.538	2.	0.	-98.094
21086	23.446	2.	5.e-002	-4.3901
21087	23.446	2.2727	0.	-117.76
21088	23.538	2.1818	0.	-98.241
21089	23.446	2.1818	5.e-002	-4.3964
21090	23.446	2.4545	0.	-117.89
21091	23.538	2.3636	0.	-98.348
21092	23.446	2.3636	5.e-002	-4.4012
21093	23.446	2.6364	0.	-117.98
21094	23.538	2.5455	0.	-98.423
21095	23.446	2.5455	5.e-002	-4.4046
21096	23.446	2.8182	0.	-118.03
21097	23.538	2.7273	0.	-98.471
21098	23.446	2.7273	5.e-002	-4.4068
21099	23.446	3.	0.	-118.05
21100	23.538	2.9091	0.	-98.494
21101	23.446	2.9091	5.e-002	-4.4079
21102	23.446	3.1818	0.	-118.03
21103	23.538	3.0909	0.	-98.494
21104	23.446	3.0909	5.e-002	-4.4079
21105	23.446	3.3636	0.	-117.98
21106	23.538	3.2727	0.	-98.471
21107	23.446	3.2727	5.e-002	-4.4068
21108	23.446	3.5455	0.	-117.89
21109	23.538	3.4545	0.	-98.423
21110	23.446	3.4545	5.e-002	-4.4046
21111	23.446	3.7273	0.	-117.76
21112	23.538	3.6364	0.	-98.348
21113	23.446	3.6364	5.e-002	-4.4012
21114	23.446	3.9091	0.	-117.59
21115	23.538	3.8182	0.	-98.241
21116	23.446	3.8182	5.e-002	-4.3964
21117	23.446	4.0909	0.	-117.35
21118	23.538	4.	0.	-98.094
21119	23.446	4.	5.e-002	-4.3901
21120	23.446	4.2727	0.	-117.04
21121	23.538	4.1818	0.	-97.897
21122	23.446	4.1818	5.e-002	-4.3818
21123	23.446	4.4545	0.	-116.63
21124	23.538	4.3636	0.	-97.636
21125	23.446	4.3636	5.e-002	-4.3711
21126	23.446	4.6364	0.	-116.11
21127	23.538	4.5455	0.	-97.291
21128	23.446	4.5455	5.e-002	-4.3575
21129	23.446	4.8182	0.	-115.43
21130	23.538	4.7273	0.	-96.835
21131	23.446	4.7273	5.e-002	-4.3399
21132	23.446	5.	0.	-114.55
21133	23.538	4.9091	0.	-96.23
21134	23.446	4.9091	5.e-002	-4.3174
21135	23.446	5.1818	0.	-113.43
21136	23.538	5.0909	0.	-95.425
21137	23.446	5.0909	5.e-002	-4.2879
21138	23.446	5.3636	0.	-112.03
21139	23.538	5.2727	0.	-94.359
21140	23.446	5.2727	5.e-002	-4.2488
21141	23.446	5.5455	0.	-110.51
21142	23.538	5.4545	0.	-92.98
21143	23.446	5.4545	5.e-002	-4.1927
21144	23.446	5.7273	0.	-110.1
21145	23.538	5.6364	0.	-91.497
21146	23.446	5.6364	5.e-002	-4.0487
21147	23.538	5.8182	0.	-91.992
21148	23.446	5.8182	5.e-002	-2.9483
21149	23.446	5.9091	0.	-106.14
21150	23.631	0.27273	0.	-72.68
21151	23.723	0.18182	0.	-55.066
21152	23.631	0.18182	5.e-002	-3.2832
21153	23.631	9.0909e-002	0.	-69.348
21154	23.631	0.45455	0.	-73.783
21155	23.723	0.36364	0.	-55.6
21156	23.631	0.36364	5.e-002	-4.1551
21157	23.631	0.63636	0.	-75.236
21158	23.723	0.54545	0.	-56.807
21159	23.631	0.54545	5.e-002	-4.2903
21160	23.631	0.81818	0.	-76.321
21161	23.723	0.72727	0.	-57.691
21162	23.631	0.72727	5.e-002	-4.3428
21163	23.631	1.	0.	-77.085
21164	23.723	0.90909	0.	-58.267
21165	23.631	0.90909	5.e-002	-4.3743
21166	23.631	1.1818	0.	-77.628
21167	23.723	1.0909	0.	-58.648
21168	23.631	1.0909	5.e-002	-4.3962
21169	23.631	1.3636	0.	-78.016
21170	23.723	1.2727	0.	-58.9
21171	23.631	1.2727	5.e-002	-4.4119
21172	23.631	1.5455	0.	-78.296
21173	23.723	1.4545	0.	-59.067
21174	23.631	1.4545	5.e-002	-4.4233
21175	23.631	1.7273	0.	-78.5
21176	23.723	1.6364	0.	-59.176
21177	23.631	1.6364	5.e-002	-4.4318
21178	23.631	1.9091	0.	-78.648
21179	23.723	1.8182	0.	-59.246
21180	23.631	1.8182	5.e-002	-4.4382
21181	23.631	2.0909	0.	-78.755
21182	23.723	2.	0.	-59.291
21183	23.631	2.	5.e-002	-4.4429
21184	23.631	2.2727	0.	-78.831
21185	23.723	2.1818	0.	-59.318
21186	23.631	2.1818	5.e-002	-4.4465
21187	23.631	2.4545	0.	-78.885
21188	23.723	2.3636	0.	-59.333
21189	23.631	2.3636	5.e-002	-4.449
21190	23.631	2.6364	0.	-78.92
21191	23.723	2.5455	0.	-59.342
21192	23.631	2.5455	5.e-002	-4.4508
21193	23.631	2.8182	0.	-78.939
21194	23.723	2.7273	0.	-59.346
21195	23.631	2.7273	5.e-002	-4.452
21196	23.631	3.	0.	-78.946
21197	23.723	2.9091	0.	-59.348
21198	23.631	2.9091	5.e-002	-4.4525
21199	23.631	3.1818	0.	-78.939
21200	23.723	3.0909	0.	-59.348
21201	23.631	3.0909	5.e-002	-4.4525
21202	23.631	3.3636	0.	-78.92
21203	23.723	3.2727	0.	-59.346
21204	23.631	3.2727	5.e-002	-4.452
21205	23.631	3.5455	0.	-78.885
21206	23.723	3.4545	0.	-59.342
21207	23.631	3.4545	5.e-002	-4.4508
21208	23.631	3.7273	0.	-78.831
21209	23.723	3.6364	0.	-59.333
21210	23.631	3.6364	5.e-002	-4.449
21211	23.631	3.9091	0.	-78.755
21212	23.723	3.8182	0.	-59.318
21213	23.631	3.8182	5.e-002	-4.4465
21214	23.631	4.0909	0.	-78.648
21215	23.723	4.	0.	-59.291
21216	23.631	4.	5.e-002	-4.4429
21217	23.631	4.2727	0.	-78.5
21218	23.723	4.1818	0.	-59.246
21219	23.631	4.1818	5.e-002	-4.4382
21220	23.631	4.4545	0.	-78.296
21221	23.723	4.3636	0.	-59.176
21222	23.631	4.3636	5.e-002	-4.4318
21223	23.631	4.6364	0.	-78.016
21224	23.723	4.5455	0.	-59.067
21225	23.631	4.5455	5.e-002	-4.4233
21226	23.631	4.8182	0.	-77.628
21227	23.723	4.7273	0.	-58.9
21228	23.631	4.7273	5.e-002	-4.4119
21229	23.631	5.	0.	-77.085
21230	23.723	4.9091	0.	-58.648
21231	23.631	4.9091	5.e-002	-4.3962
21232	23.631	5.1818	0.	-76.321
21233	23.723	5.0909	0.	-58.267
21234	23.631	5.0909	5.e-002	-4.3743
21235	23.631	5.3636	0.	-75.236
21236	23.723	5.2727	0.	-57.691
21237	23.631	5.2727	5.e-002	-4.3428
21238	23.631	5.5455	0.	-73.783
21239	23.723	5.4545	0.	-56.807
21240	23.631	5.4545	5.e-002	-4.2903
21241	23.631	5.7273	0.	-72.68
21242	23.723	5.6364	0.	-55.6
21243	23.631	5.6364	5.e-002	-4.1551
21244	23.723	5.8182	0.	-55.066
21245	23.631	5.8182	5.e-002	-3.2832
21246	23.631	5.9091	0.	-69.348
21247	23.815	0.27273	0.	-37.369
21248	23.815	0.18182	5.e-002	-3.999
21249	23.815	9.0909e-002	0.	-34.608
21250	23.908	0.18182	0.	-20.605
21251	23.815	0.45455	0.	-38.54
21252	23.815	0.36364	5.e-002	-4.5346
21253	23.908	0.36364	0.	-21.549
21254	23.815	0.63636	0.	-39.258
21255	23.815	0.54545	5.e-002	-4.5904
21256	23.908	0.54545	0.	-22.078
21257	23.815	0.81818	0.	-39.664
21258	23.815	0.72727	5.e-002	-4.5946
21259	23.908	0.72727	0.	-22.377
21260	23.815	1.	0.	-39.873
21261	23.815	0.90909	5.e-002	-4.5907
21262	23.908	0.90909	0.	-22.519
21263	23.815	1.1818	0.	-39.974
21264	23.815	1.0909	5.e-002	-4.5822
21265	23.908	1.0909	0.	-22.583
21266	23.815	1.3636	0.	-40.012
21267	23.815	1.2727	5.e-002	-4.5717
21268	23.908	1.2727	0.	-22.6
21269	23.815	1.5455	0.	-40.012
21270	23.815	1.4545	5.e-002	-4.5606
21271	23.908	1.4545	0.	-22.593
21272	23.815	1.7273	0.	-39.992
21273	23.815	1.6364	5.e-002	-4.5496
21274	23.908	1.6364	0.	-22.571
21275	23.815	1.9091	0.	-39.962
21276	23.815	1.8182	5.e-002	-4.5393
21277	23.908	1.8182	0.	-22.543
21278	23.815	2.0909	0.	-39.928
21279	23.815	2.	5.e-002	-4.53
21280	23.908	2.	0.	-22.513
21281	23.815	2.2727	0.	-39.896
21282	23.815	2.1818	5.e-002	-4.5221
21283	23.908	2.1818	0.	-22.485
21284	23.815	2.4545	0.	-39.868
21285	23.815	2.3636	5.e-002	-4.5155
21286	23.908	2.3636	0.	-22.46
21287	23.815	2.6364	0.	-39.847
21288	23.815	2.5455	5.e-002	-4.5105
21289	23.908	2.5455	0.	-22.44
21290	23.815	2.8182	0.	-39.834
21291	23.815	2.7273	5.e-002	-4.5072
21292	23.908	2.7273	0.	-22.427
21293	23.815	3.	0.	-39.83
21294	23.815	2.9091	5.e-002	-4.5055
21295	23.908	2.9091	0.	-22.42
21296	23.815	3.1818	0.	-39.834
21297	23.815	3.0909	5.e-002	-4.5055
21298	23.908	3.0909	0.	-22.42
21299	23.815	3.3636	0.	-39.847
21300	23.815	3.2727	5.e-002	-4.5072
21301	23.908	3.2727	0.	-22.427
21302	23.815	3.5455	0.	-39.868
21303	23.815	3.4545	5.e-002	-4.5105
21304	23.908	3.4545	0.	-22.44
21305	23.815	3.7273	0.	-39.896
21306	23.815	3.6364	5.e-002	-4.5155
21307	23.908	3.6364	0.	-22.46
21308	23.815	3.9091	0.	-39.928
21309	23.815	3.8182	5.e-002	-4.5221
21310	23.908	3.8182	0.	-22.485
21311	23.815	4.0909	0.	-39.962
21312	23.815	4.	5.e-002	-4.53
21313	23.908	4.	0.	-22.513
21314	23.815	4.2727	0.	-39.992
21315	23.815	4.1818	5.e-002	-4.5393
21316	23.908	4.1818	0.	-22.543
21317	23.815	4.4545	0.	-40.012
21318	23.815	4.3636	5.e-002	-4.5496
21319	23.908	4.3636	0.	-22.571
21320	23.815	4.6364	0.	-40.012
21321	23.815	4.5455	5.e-002	-4.5606
21322	23.908	4.5455	0.	-22.593
21323	23.815	4.8182	0.	-39.974
21324	23.815	4.7273	5.e-002	-4.5717
21325	23.908	4.7273	0.	-22.6
21326	23.815	5.	0.	-39.873
21327	23.815	4.9091	5.e-002	-4.5822
21328	23.908	4.9091	0.	-22.583
21329	23.815	5.1818	0.	-39.664
21330	23.815	5.0909	5.e-002	-4.5907
21331	23.908	5.0909	0.	-22.519
21332	23.815	5.3636	0.	-39.258
21333	23.815	5.2727	5.e-002	-4.5945
21334	23.908	5.2727	0.	-22.377
21335	23.815	5.5455	0.	-38.54
21336	23.815	5.4545	5.e-002	-4.5904
21337	23.908	5.4545	0.	-22.078
21338	23.815	5.7273	0.	-37.369
21339	23.815	5.6364	5.e-002	-4.5346
21340	23.908	5.6364	0.	-21.549
21341	23.815	5.8182	5.e-002	-3.999
21342	23.908	5.8182	0.	-20.605
21343	23.815	5.9091	0.	-34.608
21344	23.815	5.7273	0.1	-45.497
21345	23.723	5.8182	0.1	-33.683
21346	23.815	5.9091	0.1	-21.452
21347	23.908	5.8182	0.1	-34.918
21348	23.815	5.5455	0.1	-67.43
21349	23.723	5.6364	0.1	-54.173
21350	23.908	5.6364	0.1	-60.425
21351	23.815	5.3636	0.1	-86.07
21352	23.723	5.4545	0.1	-73.343
21353	23.908	5.4545	0.1	-81.172
21354	23.815	5.1818	0.1	-101.94
21355	23.723	5.2727	0.1	-89.966
21356	23.908	5.2727	0.1	-98.556
21357	23.815	5.	0.1	-115.63
21358	23.723	5.0909	0.1	-104.41
21359	23.908	5.0909	0.1	-113.44
21360	23.815	4.8182	0.1	-127.49
21361	23.723	4.9091	0.1	-116.98
21362	23.908	4.9091	0.1	-126.31
21363	23.815	4.6364	0.1	-137.77
21364	23.723	4.7273	0.1	-127.93
21365	23.908	4.7273	0.1	-137.47
21366	23.815	4.4545	0.1	-146.66
21367	23.723	4.5455	0.1	-137.43
21368	23.908	4.5455	0.1	-147.13
21369	23.815	4.2727	0.1	-154.28
21370	23.723	4.3636	0.1	-145.62
21371	23.908	4.3636	0.1	-155.45
21372	23.815	4.0909	0.1	-160.73
21373	23.723	4.1818	0.1	-152.62
21374	23.908	4.1818	0.1	-162.54
21375	23.815	3.9091	0.1	-166.08
21376	23.723	4.	0.1	-158.49
21377	23.908	4.	0.1	-168.5
21378	23.815	3.7273	0.1	-170.4
21379	23.723	3.8182	0.1	-163.3
21380	23.908	3.8182	0.1	-173.37
21381	23.815	3.5455	0.1	-173.71
21382	23.723	3.6364	0.1	-167.1
21383	23.908	3.6364	0.1	-177.22
21384	23.815	3.3636	0.1	-176.06
21385	23.723	3.4545	0.1	-169.92
21386	23.908	3.4545	0.1	-180.08
21387	23.815	3.1818	0.1	-177.46
21388	23.723	3.2727	0.1	-171.79
21389	23.908	3.2727	0.1	-181.97
21390	23.815	3.	0.1	-177.93
21391	23.723	3.0909	0.1	-172.72
21392	23.908	3.0909	0.1	-182.91
21393	23.815	2.8182	0.1	-177.46
21394	23.723	2.9091	0.1	-172.72
21395	23.908	2.9091	0.1	-182.91
21396	23.815	2.6364	0.1	-176.06
21397	23.723	2.7273	0.1	-171.79
21398	23.908	2.7273	0.1	-181.97
21399	23.815	2.4545	0.1	-173.71
21400	23.723	2.5455	0.1	-169.92
21401	23.908	2.5455	0.1	-180.08
21402	23.815	2.2727	0.1	-170.4
21403	23.723	2.3636	0.1	-167.1
21404	23.908	2.3636	0.1	-177.22
21405	23.815	2.0909	0.1	-166.08
21406	23.723	2.1818	0.1	-163.3
21407	23.908	2.1818	0.1	-173.37
21408	23.815	1.9091	0.1	-160.73
21409	23.723	2.	0.1	-158.49
21410	23.908	2.	0.1	-168.5
21411	23.815	1.7273	0.1	-154.28
21412	23.723	1.8182	0.1	-152.62
21413	23.908	1.8182	0.1	-162.54
21414	23.815	1.5455	0.1	-146.66
21415	23.723	1.6364	0.1	-145.62
21416	23.908	1.6364	0.1	-155.45
21417	23.815	1.3636	0.1	-137.77
21418	23.723	1.4545	0.1	-137.43
21419	23.908	1.4545	0.1	-147.13
21420	23.815	1.1818	0.1	-127.49
21421	23.723	1.2727	0.1	-127.93
21422	23.908	1.2727	0.1	-137.47
21423	23.815	1.	0.1	-115.63
21424	23.723	1.0909	0.1	-116.98
21425	23.908	1.0909	0.1	-126.31
21426	23.815	0.81818	0.1	-101.94
21427	23.723	0.90909	0.1	-104.41
21428	23.908	0.90909	0.1	-113.44
21429	23.815	0.63636	0.1	-86.07
21430	23.723	0.72727	0.1	-89.966
21431	23.908	0.72727	0.1	-98.556
21432	23.815	0.45455	0.1	-67.43
21433	23.723	0.54545	0.1	-73.343
21434	23.908	0.54545	0.1	-81.172
21435	23.815	0.27273	0.1	-45.497
21436	23.723	0.36364	0.1	-54.173
21437	23.908	0.36364	0.1	-60.425
21438	23.723	0.18182	0.1	-33.683
21439	23.908	0.18182	0.1	-34.918
21440	23.815	9.0909e-002	0.1	-21.452
21441	23.631	5.7273	0.1	-41.71
21442	23.538	5.8182	0.1	-33.38
21443	23.631	5.9091	0.1	-22.138
21444	23.631	5.5455	0.1	-59.94
21445	23.538	5.6364	0.1	-49.055
21446	23.631	5.3636	0.1	-77.174
21447	23.538	5.4545	0.1	-65.993
21448	23.631	5.1818	0.1	-92.395
21449	23.538	5.2727	0.1	-81.475
21450	23.631	5.	0.1	-105.74
21451	23.538	5.0909	0.1	-95.278
21452	23.631	4.8182	0.1	-117.4
21453	23.538	4.9091	0.1	-107.46
21454	23.631	4.6364	0.1	-127.57
21455	23.538	4.7273	0.1	-118.16
21456	23.631	4.4545	0.1	-136.38
21457	23.538	4.5455	0.1	-127.5
21458	23.631	4.2727	0.1	-143.95
21459	23.538	4.3636	0.1	-135.58
21460	23.631	4.0909	0.1	-150.37
21461	23.538	4.1818	0.1	-142.49
21462	23.631	3.9091	0.1	-155.7
21463	23.538	4.	0.1	-148.3
21464	23.631	3.7273	0.1	-160.
21465	23.538	3.8182	0.1	-153.08
21466	23.631	3.5455	0.1	-163.3
21467	23.538	3.6364	0.1	-156.84
21468	23.631	3.3636	0.1	-165.64
21469	23.538	3.4545	0.1	-159.65
21470	23.631	3.1818	0.1	-167.04
21471	23.538	3.2727	0.1	-161.5
21472	23.631	3.	0.1	-167.51
21473	23.538	3.0909	0.1	-162.42
21474	23.631	2.8182	0.1	-167.04
21475	23.538	2.9091	0.1	-162.42
21476	23.631	2.6364	0.1	-165.64
21477	23.538	2.7273	0.1	-161.5
21478	23.631	2.4545	0.1	-163.3
21479	23.538	2.5455	0.1	-159.65
21480	23.631	2.2727	0.1	-160.
21481	23.538	2.3636	0.1	-156.84
21482	23.631	2.0909	0.1	-155.7
21483	23.538	2.1818	0.1	-153.08
21484	23.631	1.9091	0.1	-150.37
21485	23.538	2.	0.1	-148.3
21486	23.631	1.7273	0.1	-143.95
21487	23.538	1.8182	0.1	-142.49
21488	23.631	1.5455	0.1	-136.38
21489	23.538	1.6364	0.1	-135.58
21490	23.631	1.3636	0.1	-127.57
21491	23.538	1.4545	0.1	-127.5
21492	23.631	1.1818	0.1	-117.4
21493	23.538	1.2727	0.1	-118.16
21494	23.631	1.	0.1	-105.74
21495	23.538	1.0909	0.1	-107.46
21496	23.631	0.81818	0.1	-92.395
21497	23.538	0.90909	0.1	-95.278
21498	23.631	0.63636	0.1	-77.174
21499	23.538	0.72727	0.1	-81.475
21500	23.631	0.45455	0.1	-59.94
21501	23.538	0.54545	0.1	-65.993
21502	23.631	0.27273	0.1	-41.71
21503	23.538	0.36364	0.1	-49.055
21504	23.538	0.18182	0.1	-33.38
21505	23.631	9.0909e-002	0.1	-22.138
21506	23.446	5.7273	0.1	-40.021
21507	23.354	5.8182	0.1	-33.72
21508	23.446	5.9091	0.1	-22.572
21509	23.446	5.5455	0.1	-54.905
21510	23.354	5.6364	0.1	-45.936
21511	23.446	5.3636	0.1	-70.205
21512	23.354	5.4545	0.1	-60.539
21513	23.446	5.1818	0.1	-84.309
21514	23.354	5.2727	0.1	-74.543
21515	23.446	5.	0.1	-96.972
21516	23.354	5.0909	0.1	-87.404
21517	23.446	4.8182	0.1	-108.2
21518	23.354	4.9091	0.1	-98.972
21519	23.446	4.6364	0.1	-118.07
21520	23.354	4.7273	0.1	-109.25
21521	23.446	4.4545	0.1	-126.68
21522	23.354	4.5455	0.1	-118.29
21523	23.446	4.2727	0.1	-134.11
21524	23.354	4.3636	0.1	-126.16
21525	23.446	4.0909	0.1	-140.42
21526	23.354	4.1818	0.1	-132.92
21527	23.446	3.9091	0.1	-145.67
21528	23.354	4.	0.1	-138.62
21529	23.446	3.7273	0.1	-149.91
21530	23.354	3.8182	0.1	-143.3
21531	23.446	3.5455	0.1	-153.18
21532	23.354	3.6364	0.1	-147.01
21533	23.446	3.3636	0.1	-155.49
21534	23.354	3.4545	0.1	-149.77
21535	23.446	3.1818	0.1	-156.87
21536	23.354	3.2727	0.1	-151.6
21537	23.446	3.	0.1	-157.33
21538	23.354	3.0909	0.1	-152.51
21539	23.446	2.8182	0.1	-156.87
21540	23.354	2.9091	0.1	-152.51
21541	23.446	2.6364	0.1	-155.49
21542	23.354	2.7273	0.1	-151.6
21543	23.446	2.4545	0.1	-153.18
21544	23.354	2.5455	0.1	-149.77
21545	23.446	2.2727	0.1	-149.91
21546	23.354	2.3636	0.1	-147.01
21547	23.446	2.0909	0.1	-145.67
21548	23.354	2.1818	0.1	-143.3
21549	23.446	1.9091	0.1	-140.42
21550	23.354	2.	0.1	-138.62
21551	23.446	1.7273	0.1	-134.11
21552	23.354	1.8182	0.1	-132.92
21553	23.446	1.5455	0.1	-126.68
21554	23.354	1.6364	0.1	-126.16
21555	23.446	1.3636	0.1	-118.08
21556	23.354	1.4545	0.1	-118.29
21557	23.446	1.1818	0.1	-108.2
21558	23.354	1.2727	0.1	-109.25
21559	23.446	1.	0.1	-96.972
21560	23.354	1.0909	0.1	-98.972
21561	23.446	0.81818	0.1	-84.309
21562	23.354	0.90909	0.1	-87.404
21563	23.446	0.63636	0.1	-70.205
21564	23.354	0.72727	0.1	-74.543
21565	23.446	0.45455	0.1	-54.905
21566	23.354	0.54545	0.1	-60.539
21567	23.446	0.27273	0.1	-40.021
21568	23.354	0.36364	0.1	-45.936
21569	23.354	0.18182	0.1	-33.72
21570	23.446	9.0909e-002	0.1	-22.572
21571	23.261	5.7273	0.1	-39.009
21572	23.169	5.8182	0.1	-33.996
21573	23.261	5.9091	0.1	-22.867
21574	23.261	5.5455	0.1	-51.342
21575	23.169	5.6364	0.1	-43.78
21576	23.261	5.3636	0.1	-64.761
21577	23.169	5.4545	0.1	-56.377
21578	23.261	5.1818	0.1	-77.571
21579	23.169	5.2727	0.1	-68.875
21580	23.261	5.	0.1	-89.361
21581	23.169	5.0909	0.1	-80.661
21582	23.261	4.8182	0.1	-99.991
21583	23.169	4.9091	0.1	-91.47
21584	23.261	4.6364	0.1	-109.45
21585	23.169	4.7273	0.1	-101.21
21586	23.261	4.4545	0.1	-117.75
21587	23.169	4.5455	0.1	-109.85
21588	23.261	4.2727	0.1	-124.96
21589	23.169	4.3636	0.1	-117.43
21590	23.261	4.0909	0.1	-131.1
21591	23.169	4.1818	0.1	-123.97
21592	23.261	3.9091	0.1	-136.24
21593	23.169	4.	0.1	-129.51
21594	23.261	3.7273	0.1	-140.39
21595	23.169	3.8182	0.1	-134.08
21596	23.261	3.5455	0.1	-143.59
21597	23.169	3.6364	0.1	-137.69
21598	23.261	3.3636	0.1	-145.86
21599	23.169	3.4545	0.1	-140.39
21600	23.261	3.1818	0.1	-147.22
21601	23.169	3.2727	0.1	-142.18
21602	23.261	3.	0.1	-147.67
21603	23.169	3.0909	0.1	-143.07
21604	23.261	2.8182	0.1	-147.22
21605	23.169	2.9091	0.1	-143.07
21606	23.261	2.6364	0.1	-145.86
21607	23.169	2.7273	0.1	-142.18
21608	23.261	2.4545	0.1	-143.59
21609	23.169	2.5455	0.1	-140.39
21610	23.261	2.2727	0.1	-140.39
21611	23.169	2.3636	0.1	-137.69
21612	23.261	2.0909	0.1	-136.24
21613	23.169	2.1818	0.1	-134.08
21614	23.261	1.9091	0.1	-131.1
21615	23.169	2.	0.1	-129.51
21616	23.261	1.7273	0.1	-124.96
21617	23.169	1.8182	0.1	-123.97
21618	23.261	1.5455	0.1	-117.75
21619	23.169	1.6364	0.1	-117.43
21620	23.261	1.3636	0.1	-109.45
21621	23.169	1.4545	0.1	-109.85
21622	23.261	1.1818	0.1	-99.991
21623	23.169	1.2727	0.1	-101.21
21624	23.261	1.	0.1	-89.36
21625	23.169	1.0909	0.1	-91.47
21626	23.261	0.81818	0.1	-77.571
21627	23.169	0.90909	0.1	-80.661
21628	23.261	0.63636	0.1	-64.761
21629	23.169	0.72727	0.1	-68.875
21630	23.261	0.45455	0.1	-51.342
21631	23.169	0.54545	0.1	-56.377
21632	23.261	0.27273	0.1	-39.009
21633	23.169	0.36364	0.1	-43.78
21634	23.169	0.18182	0.1	-33.996
21635	23.261	9.0909e-002	0.1	-22.867
21636	23.076	5.7273	0.1	-38.227
21637	22.984	5.8182	0.1	-34.135
21638	23.076	5.9091	0.1	-22.994
21639	23.076	5.5455	0.1	-48.594
21640	22.984	5.6364	0.1	-42.098
21641	23.076	5.3636	0.1	-60.363
21642	22.984	5.4545	0.1	-53.047
21643	23.076	5.1818	0.1	-71.886
21644	22.984	5.2727	0.1	-64.157
21645	23.076	5.	0.1	-82.718
21646	22.984	5.0909	0.1	-74.855
21647	23.076	4.8182	0.1	-92.647
21648	22.984	4.9091	0.1	-84.837
21649	23.076	4.6364	0.1	-101.59
21650	22.984	4.7273	0.1	-93.952
21651	23.076	4.4545	0.1	-109.51
21652	22.984	4.5455	0.1	-102.13
21653	23.076	4.2727	0.1	-116.43
21654	22.984	4.3636	0.1	-109.36
21655	23.076	4.0909	0.1	-122.36
21656	22.984	4.1818	0.1	-115.63
21657	23.076	3.9091	0.1	-127.34
21658	22.984	4.	0.1	-120.96
21659	23.076	3.7273	0.1	-131.37
21660	22.984	3.8182	0.1	-125.37
21661	23.076	3.5455	0.1	-134.48
21662	22.984	3.6364	0.1	-128.88
21663	23.076	3.3636	0.1	-136.69
21664	22.984	3.4545	0.1	-131.49
21665	23.076	3.1818	0.1	-138.02
21666	22.984	3.2727	0.1	-133.23
21667	23.076	3.	0.1	-138.46
21668	22.984	3.0909	0.1	-134.1
21669	23.076	2.8182	0.1	-138.02
21670	22.984	2.9091	0.1	-134.1
21671	23.076	2.6364	0.1	-136.69
21672	22.984	2.7273	0.1	-133.23
21673	23.076	2.4545	0.1	-134.48
21674	22.984	2.5455	0.1	-131.49
21675	23.076	2.2727	0.1	-131.37
21676	22.984	2.3636	0.1	-128.88
21677	23.076	2.0909	0.1	-127.34
21678	22.984	2.1818	0.1	-125.37
21679	23.076	1.9091	0.1	-122.36
21680	22.984	2.	0.1	-120.96
21681	23.076	1.7273	0.1	-116.43
21682	22.984	1.8182	0.1	-115.63
21683	23.076	1.5455	0.1	-109.51
21684	22.984	1.6364	0.1	-109.36
21685	23.076	1.3636	0.1	-101.59
21686	22.984	1.4545	0.1	-102.13
21687	23.076	1.1818	0.1	-92.647
21688	22.984	1.2727	0.1	-93.952
21689	23.076	1.	0.1	-82.718
21690	22.984	1.0909	0.1	-84.837
21691	23.076	0.81818	0.1	-71.885
21692	22.984	0.90909	0.1	-74.855
21693	23.076	0.63636	0.1	-60.363
21694	22.984	0.72727	0.1	-64.157
21695	23.076	0.45455	0.1	-48.594
21696	22.984	0.54545	0.1	-53.047
21697	23.076	0.27273	0.1	-38.227
21698	22.984	0.36364	0.1	-42.098
21699	22.984	0.18182	0.1	-34.135
21700	23.076	9.0909e-002	0.1	-22.994
21701	22.892	5.7273	0.1	-37.535
21702	22.799	5.8182	0.1	-34.142
21703	22.892	5.9091	0.1	-23.007
21704	22.892	5.5455	0.1	-46.35
21705	22.799	5.6364	0.1	-40.682
21706	22.892	5.3636	0.1	-56.712
21707	22.799	5.4545	0.1	-50.274
21708	22.892	5.1818	0.1	-67.04
21709	22.799	5.2727	0.1	-60.156
21710	22.892	5.	0.1	-76.914
21711	22.799	5.0909	0.1	-69.819
21712	22.892	4.8182	0.1	-86.098
21713	22.799	4.9091	0.1	-78.966
21714	22.892	4.6364	0.1	-94.464
21715	22.799	4.7273	0.1	-87.423
21716	22.892	4.4545	0.1	-101.95
21717	22.799	4.5455	0.1	-95.089
21718	22.892	4.2727	0.1	-108.53
21719	22.799	4.3636	0.1	-101.91
21720	22.892	4.0909	0.1	-114.21
21721	22.799	4.1818	0.1	-107.87
21722	22.892	3.9091	0.1	-118.98
21723	22.799	4.	0.1	-112.97
21724	22.892	3.7273	0.1	-122.87
21725	22.799	3.8182	0.1	-117.2
21726	22.892	3.5455	0.1	-125.87
21727	22.799	3.6364	0.1	-120.57
21728	22.892	3.3636	0.1	-128.01
21729	22.799	3.4545	0.1	-123.08
21730	22.892	3.1818	0.1	-129.29
21731	22.799	3.2727	0.1	-124.76
21732	22.892	3.	0.1	-129.72
21733	22.799	3.0909	0.1	-125.6
21734	22.892	2.8182	0.1	-129.29
21735	22.799	2.9091	0.1	-125.6
21736	22.892	2.6364	0.1	-128.01
21737	22.799	2.7273	0.1	-124.76
21738	22.892	2.4545	0.1	-125.87
21739	22.799	2.5455	0.1	-123.08
21740	22.892	2.2727	0.1	-122.87
21741	22.799	2.3636	0.1	-120.57
21742	22.892	2.0909	0.1	-118.98
21743	22.799	2.1818	0.1	-117.2
21744	22.892	1.9091	0.1	-114.21
21745	22.799	2.	0.1	-112.97
21746	22.892	1.7273	0.1	-108.53
21747	22.799	1.8182	0.1	-107.87
21748	22.892	1.5455	0.1	-101.95
21749	22.799	1.6364	0.1	-101.91
21750	22.892	1.3636	0.1	-94.464
21751	22.799	1.4545	0.1	-95.089
21752	22.892	1.1818	0.1	-86.098
21753	22.799	1.2727	0.1	-87.423
21754	22.892	1.	0.1	-76.914
21755	22.799	1.0909	0.1	-78.966
21756	22.892	0.81818	0.1	-67.04
21757	22.799	0.90909	0.1	-69.819
21758	22.892	0.63636	0.1	-56.712
21759	22.799	0.72727	0.1	-60.156
21760	22.892	0.45455	0.1	-46.35
21761	22.799	0.54545	0.1	-50.274
21762	22.892	0.27273	0.1	-37.535
21763	22.799	0.36364	0.1	-40.682
21764	22.799	0.18182	0.1	-34.142
21765	22.892	9.0909e-002	0.1	-23.007
21766	22.707	5.7273	0.1	-36.871
21767	22.615	5.8182	0.1	-34.037
21768	22.707	5.9091	0.1	-22.93
21769	22.707	5.5455	0.1	-44.426
21770	22.615	5.6364	0.1	-39.423
21771	22.707	5.3636	0.1	-53.593
21772	22.615	5.4545	0.1	-47.884
21773	22.707	5.1818	0.1	-62.845
21774	22.615	5.2727	0.1	-56.692
21775	22.707	5.	0.1	-71.805
21776	22.615	5.0909	0.1	-65.403
21777	22.707	4.8182	0.1	-80.242
21778	22.615	4.9091	0.1	-73.744
21779	22.707	4.6364	0.1	-88.009
21780	22.615	4.7273	0.1	-81.538
21781	22.707	4.4545	0.1	-95.021
21782	22.615	4.5455	0.1	-88.668
21783	22.707	4.2727	0.1	-101.23
21784	22.615	4.3636	0.1	-95.064
21785	22.707	4.0909	0.1	-106.61
21786	22.615	4.1818	0.1	-100.69
21787	22.707	3.9091	0.1	-111.16
21788	22.615	4.	0.1	-105.51
21789	22.707	3.7273	0.1	-114.88
21790	22.615	3.8182	0.1	-109.54
21791	22.707	3.5455	0.1	-117.76
21792	22.615	3.6364	0.1	-112.75
21793	22.707	3.3636	0.1	-119.81
21794	22.615	3.4545	0.1	-115.16
21795	22.707	3.1818	0.1	-121.05
21796	22.615	3.2727	0.1	-116.76
21797	22.707	3.	0.1	-121.46
21798	22.615	3.0909	0.1	-117.57
21799	22.707	2.8182	0.1	-121.05
21800	22.615	2.9091	0.1	-117.57
21801	22.707	2.6364	0.1	-119.81
21802	22.615	2.7273	0.1	-116.76
21803	22.707	2.4545	0.1	-117.76
21804	22.615	2.5455	0.1	-115.16
21805	22.707	2.2727	0.1	-114.88
21806	22.615	2.3636	0.1	-112.75
21807	22.707	2.0909	0.1	-111.16
21808	22.615	2.1818	0.1	-109.54
21809	22.707	1.9091	0.1	-106.61
21810	22.615	2.	0.1	-105.51
21811	22.707	1.7273	0.1	-101.23
21812	22.615	1.8182	0.1	-100.69
21813	22.707	1.5455	0.1	-95.021
21814	22.615	1.6364	0.1	-95.064
21815	22.707	1.3636	0.1	-88.009
21816	22.615	1.4545	0.1	-88.668
21817	22.707	1.1818	0.1	-80.242
21818	22.615	1.2727	0.1	-81.538
21819	22.707	1.	0.1	-71.805
21820	22.615	1.0909	0.1	-73.744
21821	22.707	0.81818	0.1	-62.845
21822	22.615	0.90909	0.1	-65.403
21823	22.707	0.63636	0.1	-53.593
21824	22.615	0.72727	0.1	-56.692
21825	22.707	0.45455	0.1	-44.426
21826	22.615	0.54545	0.1	-47.884
21827	22.707	0.27273	0.1	-36.871
21828	22.615	0.36364	0.1	-39.423
21829	22.615	0.18182	0.1	-34.037
21830	22.707	9.0909e-002	0.1	-22.93
21831	22.522	5.7273	0.1	-36.212
21832	22.43	5.8182	0.1	-33.839
21833	22.522	5.9091	0.1	-22.787
21834	22.522	5.5455	0.1	-42.721
21835	22.43	5.6364	0.1	-38.267
21836	22.522	5.3636	0.1	-50.866
21837	22.43	5.4545	0.1	-45.77
21838	22.522	5.1818	0.1	-59.161
21839	22.43	5.2727	0.1	-53.641
21840	22.522	5.	0.1	-67.273
21841	22.43	5.0909	0.1	-61.488
21842	22.522	4.8182	0.1	-74.987
21843	22.43	4.9091	0.1	-69.072
21844	22.522	4.6364	0.1	-82.155
21845	22.43	4.7273	0.1	-76.22
21846	22.522	4.4545	0.1	-88.677
21847	22.43	4.5455	0.1	-82.813
21848	22.522	4.2727	0.1	-94.492
21849	22.43	4.3636	0.1	-88.768
21850	22.522	4.0909	0.1	-99.561
21851	22.43	4.1818	0.1	-94.034
21852	22.522	3.9091	0.1	-103.86
21853	22.43	4.	0.1	-98.577
21854	22.522	3.7273	0.1	-107.39
21855	22.43	3.8182	0.1	-102.38
21856	22.522	3.5455	0.1	-110.13
21857	22.43	3.6364	0.1	-105.42
21858	22.522	3.3636	0.1	-112.09
21859	22.43	3.4545	0.1	-107.71
21860	22.522	3.1818	0.1	-113.27
21861	22.43	3.2727	0.1	-109.24
21862	22.522	3.	0.1	-113.66
21863	22.43	3.0909	0.1	-110.
21864	22.522	2.8182	0.1	-113.27
21865	22.43	2.9091	0.1	-110.
21866	22.522	2.6364	0.1	-112.09
21867	22.43	2.7273	0.1	-109.24
21868	22.522	2.4545	0.1	-110.13
21869	22.43	2.5455	0.1	-107.71
21870	22.522	2.2727	0.1	-107.39
21871	22.43	2.3636	0.1	-105.42
21872	22.522	2.0909	0.1	-103.86
21873	22.43	2.1818	0.1	-102.38
21874	22.522	1.9091	0.1	-99.561
21875	22.43	2.	0.1	-98.577
21876	22.522	1.7273	0.1	-94.492
21877	22.43	1.8182	0.1	-94.034
21878	22.522	1.5455	0.1	-88.677
21879	22.43	1.6364	0.1	-88.768
21880	22.522	1.3636	0.1	-82.155
21881	22.43	1.4545	0.1	-82.813
21882	22.522	1.1818	0.1	-74.987
21883	22.43	1.2727	0.1	-76.22
21884	22.522	1.	0.1	-67.273
21885	22.43	1.0909	0.1	-69.072
21886	22.522	0.81818	0.1	-59.161
21887	22.43	0.90909	0.1	-61.488
21888	22.522	0.63636	0.1	-50.866
21889	22.43	0.72727	0.1	-53.641
21890	22.522	0.45455	0.1	-42.721
21891	22.43	0.54545	0.1	-45.77
21892	22.522	0.27273	0.1	-36.212
21893	22.43	0.36364	0.1	-38.267
21894	22.43	0.18182	0.1	-33.839
21895	22.522	9.0909e-002	0.1	-22.787
21896	22.338	5.7273	0.1	-35.549
21897	22.245	5.8182	0.1	-33.567
21898	22.338	5.9091	0.1	-22.592
21899	22.338	5.5455	0.1	-41.173
21900	22.245	5.6364	0.1	-37.183
21901	22.338	5.3636	0.1	-48.435
21902	22.245	5.4545	0.1	-43.863
21903	22.338	5.1818	0.1	-55.881
21904	22.245	5.2727	0.1	-50.912
21905	22.338	5.	0.1	-63.218
21906	22.245	5.0909	0.1	-57.983
21907	22.338	4.8182	0.1	-70.249
21908	22.245	4.9091	0.1	-64.864
21909	22.338	4.6364	0.1	-76.834
21910	22.245	4.7273	0.1	-71.398
21911	22.338	4.4545	0.1	-82.867
21912	22.245	4.5455	0.1	-77.466
21913	22.338	4.2727	0.1	-88.279
21914	22.245	4.3636	0.1	-82.981
21915	22.338	4.0909	0.1	-93.023
21916	22.245	4.1818	0.1	-87.885
21917	22.338	3.9091	0.1	-97.066
21918	22.245	4.	0.1	-92.134
21919	22.338	3.7273	0.1	-100.39
21920	22.245	3.8182	0.1	-95.702
21921	22.338	3.5455	0.1	-102.98
21922	22.245	3.6364	0.1	-98.571
21923	22.338	3.3636	0.1	-104.84
21924	22.245	3.4545	0.1	-100.73
21925	22.338	3.1818	0.1	-105.95
21926	22.245	3.2727	0.1	-102.17
21927	22.338	3.	0.1	-106.33
21928	22.245	3.0909	0.1	-102.89
21929	22.338	2.8182	0.1	-105.95
21930	22.245	2.9091	0.1	-102.89
21931	22.338	2.6364	0.1	-104.84
21932	22.245	2.7273	0.1	-102.17
21933	22.338	2.4545	0.1	-102.98
21934	22.245	2.5455	0.1	-100.73
21935	22.338	2.2727	0.1	-100.39
21936	22.245	2.3636	0.1	-98.571
21937	22.338	2.0909	0.1	-97.066
21938	22.245	2.1818	0.1	-95.702
21939	22.338	1.9091	0.1	-93.023
21940	22.245	2.	0.1	-92.134
21941	22.338	1.7273	0.1	-88.279
21942	22.245	1.8182	0.1	-87.884
21943	22.338	1.5455	0.1	-82.867
21944	22.245	1.6364	0.1	-82.981
21945	22.338	1.3636	0.1	-76.833
21946	22.245	1.4545	0.1	-77.466
21947	22.338	1.1818	0.1	-70.249
21948	22.245	1.2727	0.1	-71.398
21949	22.338	1.	0.1	-63.218
21950	22.245	1.0909	0.1	-64.864
21951	22.338	0.81818	0.1	-55.881
21952	22.245	0.90909	0.1	-57.983
21953	22.338	0.63636	0.1	-48.435
21954	22.245	0.72727	0.1	-50.912
21955	22.338	0.45455	0.1	-41.173
21956	22.245	0.54545	0.1	-43.863
21957	22.338	0.27273	0.1	-35.549
21958	22.245	0.36364	0.1	-37.183
21959	22.245	0.18182	0.1	-33.567
21960	22.338	9.0909e-002	0.1	-22.592
21961	22.153	5.7273	0.1	-34.881
21962	22.061	5.8182	0.1	-33.235
21963	22.153	5.9091	0.1	-22.357
21964	22.153	5.5455	0.1	-39.743
21965	22.061	5.6364	0.1	-36.153
21966	22.153	5.3636	0.1	-46.237
21967	22.061	5.4545	0.1	-42.117
21968	22.153	5.1818	0.1	-52.93
21969	22.061	5.2727	0.1	-48.442
21970	22.153	5.	0.1	-59.561
21971	22.061	5.0909	0.1	-54.816
21972	22.153	4.8182	0.1	-65.957
21973	22.061	4.9091	0.1	-61.052
21974	22.153	4.6364	0.1	-71.984
21975	22.061	4.7273	0.1	-67.01
21976	22.153	4.4545	0.1	-77.541
21977	22.061	4.5455	0.1	-72.574
21978	22.153	4.2727	0.1	-82.553
21979	22.061	4.3636	0.1	-77.66
21980	22.153	4.0909	0.1	-86.966
21981	22.061	4.1818	0.1	-82.202
21982	22.153	3.9091	0.1	-90.744
21983	22.061	4.	0.1	-86.156
21984	22.153	3.7273	0.1	-93.859
21985	22.061	3.8182	0.1	-89.487
21986	22.153	3.5455	0.1	-96.296
21987	22.061	3.6364	0.1	-92.173
21988	22.153	3.3636	0.1	-98.043
21989	22.061	3.4545	0.1	-94.199
21990	22.153	3.1818	0.1	-99.093
21991	22.061	3.2727	0.1	-95.554
21992	22.153	3.	0.1	-99.444
21993	22.061	3.0909	0.1	-96.234
21994	22.153	2.8182	0.1	-99.093
21995	22.061	2.9091	0.1	-96.234
21996	22.153	2.6364	0.1	-98.043
21997	22.061	2.7273	0.1	-95.554
21998	22.153	2.4545	0.1	-96.296
21999	22.061	2.5455	0.1	-94.199
22000	22.153	2.2727	0.1	-93.859
22001	22.061	2.3636	0.1	-92.173
22002	22.153	2.0909	0.1	-90.744
22003	22.061	2.1818	0.1	-89.487
22004	22.153	1.9091	0.1	-86.966
22005	22.061	2.	0.1	-86.156
22006	22.153	1.7273	0.1	-82.553
22007	22.061	1.8182	0.1	-82.202
22008	22.153	1.5455	0.1	-77.541
22009	22.061	1.6364	0.1	-77.66
22010	22.153	1.3636	0.1	-71.984
22011	22.061	1.4545	0.1	-72.574
22012	22.153	1.1818	0.1	-65.957
22013	22.061	1.2727	0.1	-67.01
22014	22.153	1.	0.1	-59.561
22015	22.061	1.0909	0.1	-61.052
22016	22.153	0.81818	0.1	-52.93
22017	22.061	0.90909	0.1	-54.816
22018	22.153	0.63636	0.1	-46.237
22019	22.061	0.72727	0.1	-48.442
22020	22.153	0.45455	0.1	-39.743
22021	22.061	0.54545	0.1	-42.117
22022	22.153	0.27273	0.1	-34.881
22023	22.061	0.36364	0.1	-36.153
22024	22.061	0.18182	0.1	-33.235
22025	22.153	9.0909e-002	0.1	-22.357
22026	21.968	5.7273	0.1	-34.208
22027	21.876	5.8182	0.1	-32.855
22028	21.968	5.9091	0.1	-22.09
22029	21.968	5.5455	0.1	-38.408
22030	21.876	5.6364	0.1	-35.166
22031	21.968	5.3636	0.1	-44.227
22032	21.876	5.4545	0.1	-40.501
22033	21.968	5.1818	0.1	-50.248
22034	21.876	5.2727	0.1	-46.185
22035	21.968	5.	0.1	-56.24
22036	21.876	5.0909	0.1	-51.932
22037	21.968	4.8182	0.1	-62.049
22038	21.876	4.9091	0.1	-57.58
22039	21.968	4.6364	0.1	-67.552
22040	21.876	4.7273	0.1	-63.001
22041	21.968	4.4545	0.1	-72.652
22042	21.876	4.5455	0.1	-68.089
22043	21.968	4.2727	0.1	-77.273
22044	21.876	4.3636	0.1	-72.761
22045	21.968	4.0909	0.1	-81.36
22046	21.876	4.1818	0.1	-76.952
22047	21.968	3.9091	0.1	-84.871
22048	21.876	4.	0.1	-80.613
22049	21.968	3.7273	0.1	-87.775
22050	21.876	3.8182	0.1	-83.708
22051	21.968	3.5455	0.1	-90.052
22052	21.876	3.6364	0.1	-86.21
22053	21.968	3.3636	0.1	-91.688
22054	21.876	3.4545	0.1	-88.101
22055	21.968	3.1818	0.1	-92.672
22056	21.876	3.2727	0.1	-89.368
22057	21.968	3.	0.1	-93.001
22058	21.876	3.0909	0.1	-90.003
22059	21.968	2.8182	0.1	-92.672
22060	21.876	2.9091	0.1	-90.003
22061	21.968	2.6364	0.1	-91.688
22062	21.876	2.7273	0.1	-89.368
22063	21.968	2.4545	0.1	-90.052
22064	21.876	2.5455	0.1	-88.101
22065	21.968	2.2727	0.1	-87.775
22066	21.876	2.3636	0.1	-86.21
22067	21.968	2.0909	0.1	-84.871
22068	21.876	2.1818	0.1	-83.708
22069	21.968	1.9091	0.1	-81.36
22070	21.876	2.	0.1	-80.613
22071	21.968	1.7273	0.1	-77.273
22072	21.876	1.8182	0.1	-76.952
22073	21.968	1.5455	0.1	-72.652
22074	21.876	1.6364	0.1	-72.761
22075	21.968	1.3636	0.1	-67.552
22076	21.876	1.4545	0.1	-68.089
22077	21.968	1.1818	0.1	-62.049
22078	21.876	1.2727	0.1	-63.001
22079	21.968	1.	0.1	-56.24
22080	21.876	1.0909	0.1	-57.58
22081	21.968	0.81818	0.1	-50.248
22082	21.876	0.90909	0.1	-51.932
22083	21.968	0.63636	0.1	-44.227
22084	21.876	0.72727	0.1	-46.185
22085	21.968	0.45455	0.1	-38.408
22086	21.876	0.54545	0.1	-40.501
22087	21.968	0.27273	0.1	-34.208
22088	21.876	0.36364	0.1	-35.166
22089	21.876	0.18182	0.1	-32.855
22090	21.968	9.0909e-002	0.1	-22.09
22091	21.783	5.7273	0.1	-33.531
22092	21.691	5.8182	0.1	-32.437
22093	21.783	5.9091	0.1	-21.799
22094	21.783	5.5455	0.1	-37.151
22095	21.691	5.6364	0.1	-34.216
22096	21.783	5.3636	0.1	-42.371
22097	21.691	5.4545	0.1	-38.994
22098	21.783	5.1818	0.1	-47.793
22099	21.691	5.2727	0.1	-44.107
22100	21.783	5.	0.1	-53.207
22101	21.691	5.0909	0.1	-49.291
22102	21.783	4.8182	0.1	-58.476
22103	21.691	4.9091	0.1	-54.402
22104	21.783	4.6364	0.1	-63.49
22105	21.691	4.7273	0.1	-59.327
22106	21.783	4.4545	0.1	-68.157
22107	21.691	4.5455	0.1	-63.969
22108	21.783	4.2727	0.1	-72.403
22109	21.691	4.3636	0.1	-68.248
22110	21.783	4.0909	0.1	-76.172
22111	21.691	4.1818	0.1	-72.101
22112	21.783	3.9091	0.1	-79.421
22113	21.691	4.	0.1	-75.478
22114	21.783	3.7273	0.1	-82.115
22115	21.691	3.8182	0.1	-78.34
22116	21.783	3.5455	0.1	-84.233
22117	21.691	3.6364	0.1	-80.66
22118	21.783	3.3636	0.1	-85.756
22119	21.691	3.4545	0.1	-82.416
22120	21.783	3.1818	0.1	-86.674
22121	21.691	3.2727	0.1	-83.594
22122	21.783	3.	0.1	-86.981
22123	21.691	3.0909	0.1	-84.185
22124	21.783	2.8182	0.1	-86.674
22125	21.691	2.9091	0.1	-84.185
22126	21.783	2.6364	0.1	-85.756
22127	21.691	2.7273	0.1	-83.594
22128	21.783	2.4545	0.1	-84.233
22129	21.691	2.5455	0.1	-82.416
22130	21.783	2.2727	0.1	-82.115
22131	21.691	2.3636	0.1	-80.66
22132	21.783	2.0909	0.1	-79.421
22133	21.691	2.1818	0.1	-78.34
22134	21.783	1.9091	0.1	-76.172
22135	21.691	2.	0.1	-75.478
22136	21.783	1.7273	0.1	-72.403
22137	21.691	1.8182	0.1	-72.101
22138	21.783	1.5455	0.1	-68.157
22139	21.691	1.6364	0.1	-68.248
22140	21.783	1.3636	0.1	-63.49
22141	21.691	1.4545	0.1	-63.969
22142	21.783	1.1818	0.1	-58.476
22143	21.691	1.2727	0.1	-59.327
22144	21.783	1.	0.1	-53.207
22145	21.691	1.0909	0.1	-54.402
22146	21.783	0.81818	0.1	-47.793
22147	21.691	0.90909	0.1	-49.291
22148	21.783	0.63636	0.1	-42.371
22149	21.691	0.72727	0.1	-44.107
22150	21.783	0.45455	0.1	-37.151
22151	21.691	0.54545	0.1	-38.994
22152	21.783	0.27273	0.1	-33.531
22153	21.691	0.36364	0.1	-34.216
22154	21.691	0.18182	0.1	-32.437
22155	21.783	9.0909e-002	0.1	-21.799
22156	21.599	5.7273	0.1	-32.854
22157	21.506	5.8182	0.1	-31.989
22158	21.599	5.9091	0.1	-21.489
22159	21.599	5.5455	0.1	-35.96
22160	21.506	5.6364	0.1	-33.299
22161	21.599	5.3636	0.1	-40.648
22162	21.506	5.4545	0.1	-37.581
22163	21.599	5.1818	0.1	-45.532
22164	21.506	5.2727	0.1	-42.183
22165	21.599	5.	0.1	-50.422
22166	21.506	5.0909	0.1	-46.858
22167	21.599	4.8182	0.1	-55.198
22168	21.506	4.9091	0.1	-51.481
22169	21.599	4.6364	0.1	-59.758
22170	21.506	4.7273	0.1	-55.95
22171	21.599	4.4545	0.1	-64.017
22172	21.506	4.5455	0.1	-60.176
22173	21.599	4.2727	0.1	-67.908
22174	21.506	4.3636	0.1	-64.085
22175	21.599	4.0909	0.1	-71.372
22176	21.506	4.1818	0.1	-67.616
22177	21.599	3.9091	0.1	-74.366
22178	21.506	4.	0.1	-70.72
22179	21.599	3.7273	0.1	-76.855
22180	21.506	3.8182	0.1	-73.357
22181	21.599	3.5455	0.1	-78.815
22182	21.506	3.6364	0.1	-75.499
22183	21.599	3.3636	0.1	-80.228
22184	21.506	3.4545	0.1	-77.123
22185	21.599	3.1818	0.1	-81.08
22186	21.506	3.2727	0.1	-78.214
22187	21.599	3.	0.1	-81.365
22188	21.506	3.0909	0.1	-78.762
22189	21.599	2.8182	0.1	-81.08
22190	21.506	2.9091	0.1	-78.762
22191	21.599	2.6364	0.1	-80.228
22192	21.506	2.7273	0.1	-78.214
22193	21.599	2.4545	0.1	-78.815
22194	21.506	2.5455	0.1	-77.123
22195	21.599	2.2727	0.1	-76.855
22196	21.506	2.3636	0.1	-75.499
22197	21.599	2.0909	0.1	-74.366
22198	21.506	2.1818	0.1	-73.357
22199	21.599	1.9091	0.1	-71.372
22200	21.506	2.	0.1	-70.72
22201	21.599	1.7273	0.1	-67.908
22202	21.506	1.8182	0.1	-67.616
22203	21.599	1.5455	0.1	-64.017
22204	21.506	1.6364	0.1	-64.085
22205	21.599	1.3636	0.1	-59.758
22206	21.506	1.4545	0.1	-60.176
22207	21.599	1.1818	0.1	-55.198
22208	21.506	1.2727	0.1	-55.95
22209	21.599	1.	0.1	-50.422
22210	21.506	1.0909	0.1	-51.481
22211	21.599	0.81818	0.1	-45.532
22212	21.506	0.90909	0.1	-46.858
22213	21.599	0.63636	0.1	-40.648
22214	21.506	0.72727	0.1	-42.183
22215	21.599	0.45455	0.1	-35.96
22216	21.506	0.54545	0.1	-37.581
22217	21.599	0.27273	0.1	-32.854
22218	21.506	0.36364	0.1	-33.299
22219	21.506	0.18182	0.1	-31.989
22220	21.599	9.0909e-002	0.1	-21.489
22221	21.414	5.7273	0.1	-32.179
22222	21.322	5.8182	0.1	-31.518
22223	21.414	5.9091	0.1	-21.165
22224	21.414	5.5455	0.1	-34.828
22225	21.322	5.6364	0.1	-32.412
22226	21.414	5.3636	0.1	-39.039
22227	21.322	5.4545	0.1	-36.249
22228	21.414	5.1818	0.1	-43.44
22229	21.322	5.2727	0.1	-40.392
22230	21.414	5.	0.1	-47.855
22231	21.322	5.0909	0.1	-44.608
22232	21.414	4.8182	0.1	-52.179
22233	21.322	4.9091	0.1	-48.787
22234	21.414	4.6364	0.1	-56.32
22235	21.322	4.7273	0.1	-52.837
22236	21.414	4.4545	0.1	-60.201
22237	21.322	4.5455	0.1	-56.679
22238	21.414	4.2727	0.1	-63.755
22239	21.322	4.3636	0.1	-60.242
22240	21.414	4.0909	0.1	-66.929
22241	21.322	4.1818	0.1	-63.469
22242	21.414	3.9091	0.1	-69.679
22243	21.322	4.	0.1	-66.312
22244	21.414	3.7273	0.1	-71.971
22245	21.322	3.8182	0.1	-68.735
22246	21.414	3.5455	0.1	-73.778
22247	21.322	3.6364	0.1	-70.705
22248	21.414	3.3636	0.1	-75.082
22249	21.322	3.4545	0.1	-72.202
22250	21.414	3.1818	0.1	-75.87
22251	21.322	3.2727	0.1	-73.208
22252	21.414	3.	0.1	-76.133
22253	21.322	3.0909	0.1	-73.714
22254	21.414	2.8182	0.1	-75.87
22255	21.322	2.9091	0.1	-73.714
22256	21.414	2.6364	0.1	-75.082
22257	21.322	2.7273	0.1	-73.208
22258	21.414	2.4545	0.1	-73.778
22259	21.322	2.5455	0.1	-72.202
22260	21.414	2.2727	0.1	-71.971
22261	21.322	2.3636	0.1	-70.705
22262	21.414	2.0909	0.1	-69.679
22263	21.322	2.1818	0.1	-68.735
22264	21.414	1.9091	0.1	-66.929
22265	21.322	2.	0.1	-66.312
22266	21.414	1.7273	0.1	-63.755
22267	21.322	1.8182	0.1	-63.469
22268	21.414	1.5455	0.1	-60.201
22269	21.322	1.6364	0.1	-60.242
22270	21.414	1.3636	0.1	-56.32
22271	21.322	1.4545	0.1	-56.679
22272	21.414	1.1818	0.1	-52.179
22273	21.322	1.2727	0.1	-52.837
22274	21.414	1.	0.1	-47.855
22275	21.322	1.0909	0.1	-48.787
22276	21.414	0.81818	0.1	-43.44
22277	21.322	0.90909	0.1	-44.608
22278	21.414	0.63636	0.1	-39.039
22279	21.322	0.72727	0.1	-40.392
22280	21.414	0.45455	0.1	-34.828
22281	21.322	0.54545	0.1	-36.249
22282	21.414	0.27273	0.1	-32.179
22283	21.322	0.36364	0.1	-32.412
22284	21.322	0.18182	0.1	-31.518
22285	21.414	9.0909e-002	0.1	-21.165
22286	21.229	5.7273	0.1	-31.507
22287	21.137	5.8182	0.1	-31.03
22288	21.229	5.9091	0.1	-20.831
22289	21.229	5.5455	0.1	-33.749
22290	21.137	5.6364	0.1	-31.555
22291	21.229	5.3636	0.1	-37.53
22292	21.137	5.4545	0.1	-34.991
22293	21.229	5.1818	0.1	-41.495
22294	21.137	5.2727	0.1	-38.72
22295	21.229	5.	0.1	-45.481
22296	21.137	5.0909	0.1	-42.521
22297	21.229	4.8182	0.1	-49.392
22298	21.137	4.9091	0.1	-46.295
22299	21.229	4.6364	0.1	-53.148
22300	21.137	4.7273	0.1	-49.962
22301	21.229	4.4545	0.1	-56.676
22302	21.137	4.5455	0.1	-53.448
22303	21.229	4.2727	0.1	-59.916
22304	21.137	4.3636	0.1	-56.689
22305	21.229	4.0909	0.1	-62.816
22306	21.137	4.1818	0.1	-59.631
22307	21.229	3.9091	0.1	-65.334
22308	21.137	4.	0.1	-62.23
22309	21.229	3.7273	0.1	-67.437
22310	21.137	3.8182	0.1	-64.447
22311	21.229	3.5455	0.1	-69.098
22312	21.137	3.6364	0.1	-66.254
22313	21.229	3.3636	0.1	-70.298
22314	21.137	3.4545	0.1	-67.628
22315	21.229	3.1818	0.1	-71.023
22316	21.137	3.2727	0.1	-68.553
22317	21.229	3.	0.1	-71.266
22318	21.137	3.0909	0.1	-69.018
22319	21.229	2.8182	0.1	-71.023
22320	21.137	2.9091	0.1	-69.018
22321	21.229	2.6364	0.1	-70.298
22322	21.137	2.7273	0.1	-68.553
22323	21.229	2.4545	0.1	-69.098
22324	21.137	2.5455	0.1	-67.628
22325	21.229	2.2727	0.1	-67.437
22326	21.137	2.3636	0.1	-66.254
22327	21.229	2.0909	0.1	-65.334
22328	21.137	2.1818	0.1	-64.447
22329	21.229	1.9091	0.1	-62.816
22330	21.137	2.	0.1	-62.23
22331	21.229	1.7273	0.1	-59.916
22332	21.137	1.8182	0.1	-59.631
22333	21.229	1.5455	0.1	-56.676
22334	21.137	1.6364	0.1	-56.689
22335	21.229	1.3636	0.1	-53.148
22336	21.137	1.4545	0.1	-53.448
22337	21.229	1.1818	0.1	-49.392
22338	21.137	1.2727	0.1	-49.962
22339	21.229	1.	0.1	-45.481
22340	21.137	1.0909	0.1	-46.295
22341	21.229	0.81818	0.1	-41.495
22342	21.137	0.90909	0.1	-42.521
22343	21.229	0.63636	0.1	-37.53
22344	21.137	0.72727	0.1	-38.72
22345	21.229	0.45455	0.1	-33.749
22346	21.137	0.54545	0.1	-34.991
22347	21.229	0.27273	0.1	-31.507
22348	21.137	0.36364	0.1	-31.555
22349	21.137	0.18182	0.1	-31.03
22350	21.229	9.0909e-002	0.1	-20.831
22351	21.045	5.7273	0.1	-30.843
22352	20.952	5.8182	0.1	-30.529
22353	21.045	5.9091	0.1	-20.49
22354	21.045	5.5455	0.1	-32.718
22355	20.952	5.6364	0.1	-30.726
22356	21.045	5.3636	0.1	-36.112
22357	20.952	5.4545	0.1	-33.8
22358	21.045	5.1818	0.1	-39.683
22359	20.952	5.2727	0.1	-37.154
22360	21.045	5.	0.1	-43.278
22361	20.952	5.0909	0.1	-40.578
22362	21.045	4.8182	0.1	-46.813
22363	20.952	4.9091	0.1	-43.985
22364	21.045	4.6364	0.1	-50.214
22365	20.952	4.7273	0.1	-47.3
22366	21.045	4.4545	0.1	-53.417
22367	20.952	4.5455	0.1	-50.458
22368	21.045	4.2727	0.1	-56.364
22369	20.952	4.3636	0.1	-53.401
22370	21.045	4.0909	0.1	-59.008
22371	20.952	4.1818	0.1	-56.079
22372	21.045	3.9091	0.1	-61.308
22373	20.952	4.	0.1	-58.447
22374	21.045	3.7273	0.1	-63.231
22375	20.952	3.8182	0.1	-60.472
22376	21.045	3.5455	0.1	-64.753
22377	20.952	3.6364	0.1	-62.124
22378	21.045	3.3636	0.1	-65.853
22379	20.952	3.4545	0.1	-63.382
22380	21.045	3.1818	0.1	-66.519
22381	20.952	3.2727	0.1	-64.229
22382	21.045	3.	0.1	-66.741
22383	20.952	3.0909	0.1	-64.656
22384	21.045	2.8182	0.1	-66.519
22385	20.952	2.9091	0.1	-64.656
22386	21.045	2.6364	0.1	-65.853
22387	20.952	2.7273	0.1	-64.229
22388	21.045	2.4545	0.1	-64.753
22389	20.952	2.5455	0.1	-63.382
22390	21.045	2.2727	0.1	-63.231
22391	20.952	2.3636	0.1	-62.124
22392	21.045	2.0909	0.1	-61.308
22393	20.952	2.1818	0.1	-60.472
22394	21.045	1.9091	0.1	-59.008
22395	20.952	2.	0.1	-58.447
22396	21.045	1.7273	0.1	-56.364
22397	20.952	1.8182	0.1	-56.079
22398	21.045	1.5455	0.1	-53.417
22399	20.952	1.6364	0.1	-53.401
22400	21.045	1.3636	0.1	-50.214
22401	20.952	1.4545	0.1	-50.458
22402	21.045	1.1818	0.1	-46.813
22403	20.952	1.2727	0.1	-47.3
22404	21.045	1.	0.1	-43.278
22405	20.952	1.0909	0.1	-43.985
22406	21.045	0.81818	0.1	-39.683
22407	20.952	0.90909	0.1	-40.578
22408	21.045	0.63636	0.1	-36.112
22409	20.952	0.72727	0.1	-37.154
22410	21.045	0.45455	0.1	-32.718
22411	20.952	0.54545	0.1	-33.8
22412	21.045	0.27273	0.1	-30.843
22413	20.952	0.36364	0.1	-30.726
22414	20.952	0.18182	0.1	-30.529
22415	21.045	9.0909e-002	0.1	-20.49
22416	20.86	5.7273	0.1	-30.186
22417	20.768	5.8182	0.1	-30.021
22418	20.86	5.9091	0.1	-20.144
22419	20.86	5.5455	0.1	-31.732
22420	20.768	5.6364	0.1	-29.923
22421	20.86	5.3636	0.1	-34.776
22422	20.768	5.4545	0.1	-32.669
22423	20.86	5.1818	0.1	-37.99
22424	20.768	5.2727	0.1	-35.684
22425	20.86	5.	0.1	-41.23
22426	20.768	5.0909	0.1	-38.767
22427	20.86	4.8182	0.1	-44.421
22428	20.768	4.9091	0.1	-41.838
22429	20.86	4.6364	0.1	-47.497
22430	20.768	4.7273	0.1	-44.832
22431	20.86	4.4545	0.1	-50.4
22432	20.768	4.5455	0.1	-47.69
22433	20.86	4.2727	0.1	-53.075
22434	20.768	4.3636	0.1	-50.357
22435	20.86	4.0909	0.1	-55.48
22436	20.768	4.1818	0.1	-52.788
22437	20.86	3.9091	0.1	-57.576
22438	20.768	4.	0.1	-54.942
22439	20.86	3.7273	0.1	-59.331
22440	20.768	3.8182	0.1	-56.786
22441	20.86	3.5455	0.1	-60.721
22442	20.768	3.6364	0.1	-58.293
22443	20.86	3.3636	0.1	-61.727
22444	20.768	3.4545	0.1	-59.441
22445	20.86	3.1818	0.1	-62.335
22446	20.768	3.2727	0.1	-60.215
22447	20.86	3.	0.1	-62.539
22448	20.768	3.0909	0.1	-60.605
22449	20.86	2.8182	0.1	-62.335
22450	20.768	2.9091	0.1	-60.605
22451	20.86	2.6364	0.1	-61.727
22452	20.768	2.7273	0.1	-60.215
22453	20.86	2.4545	0.1	-60.721
22454	20.768	2.5455	0.1	-59.441
22455	20.86	2.2727	0.1	-59.331
22456	20.768	2.3636	0.1	-58.293
22457	20.86	2.0909	0.1	-57.576
22458	20.768	2.1818	0.1	-56.786
22459	20.86	1.9091	0.1	-55.48
22460	20.768	2.	0.1	-54.942
22461	20.86	1.7273	0.1	-53.075
22462	20.768	1.8182	0.1	-52.788
22463	20.86	1.5455	0.1	-50.399
22464	20.768	1.6364	0.1	-50.357
22465	20.86	1.3636	0.1	-47.497
22466	20.768	1.4545	0.1	-47.689
22467	20.86	1.1818	0.1	-44.421
22468	20.768	1.2727	0.1	-44.832
22469	20.86	1.	0.1	-41.23
22470	20.768	1.0909	0.1	-41.838
22471	20.86	0.81818	0.1	-37.989
22472	20.768	0.90909	0.1	-38.767
22473	20.86	0.63636	0.1	-34.776
22474	20.768	0.72727	0.1	-35.684
22475	20.86	0.45455	0.1	-31.732
22476	20.768	0.54545	0.1	-32.669
22477	20.86	0.27273	0.1	-30.186
22478	20.768	0.36364	0.1	-29.923
22479	20.768	0.18182	0.1	-30.021
22480	20.86	9.0909e-002	0.1	-20.144
22481	20.675	5.7273	0.1	-29.54
22482	20.583	5.8182	0.1	-29.508
22483	20.675	5.9091	0.1	-19.796
22484	20.675	5.5455	0.1	-30.789
22485	20.583	5.6364	0.1	-29.148
22486	20.675	5.3636	0.1	-33.516
22487	20.583	5.4545	0.1	-31.596
22488	20.675	5.1818	0.1	-36.404
22489	20.583	5.2727	0.1	-34.302
22490	20.675	5.	0.1	-39.321
22491	20.583	5.0909	0.1	-37.074
22492	20.675	4.8182	0.1	-42.199
22493	20.583	4.9091	0.1	-39.84
22494	20.675	4.6364	0.1	-44.978
22495	20.583	4.7273	0.1	-42.54
22496	20.675	4.4545	0.1	-47.603
22497	20.583	4.5455	0.1	-45.121
22498	20.675	4.2727	0.1	-50.028
22499	20.583	4.3636	0.1	-47.535
22500	20.675	4.0909	0.1	-52.211
22501	20.583	4.1818	0.1	-49.738
22502	20.675	3.9091	0.1	-54.116
22503	20.583	4.	0.1	-51.693
22504	20.675	3.7273	0.1	-55.713
22505	20.583	3.8182	0.1	-53.368
22506	20.675	3.5455	0.1	-56.98
22507	20.583	3.6364	0.1	-54.739
22508	20.675	3.3636	0.1	-57.897
22509	20.583	3.4545	0.1	-55.785
22510	20.675	3.1818	0.1	-58.452
22511	20.583	3.2727	0.1	-56.49
22512	20.675	3.	0.1	-58.638
22513	20.583	3.0909	0.1	-56.845
22514	20.675	2.8182	0.1	-58.452
22515	20.583	2.9091	0.1	-56.845
22516	20.675	2.6364	0.1	-57.897
22517	20.583	2.7273	0.1	-56.49
22518	20.675	2.4545	0.1	-56.98
22519	20.583	2.5455	0.1	-55.785
22520	20.675	2.2727	0.1	-55.713
22521	20.583	2.3636	0.1	-54.739
22522	20.675	2.0909	0.1	-54.116
22523	20.583	2.1818	0.1	-53.368
22524	20.675	1.9091	0.1	-52.211
22525	20.583	2.	0.1	-51.693
22526	20.675	1.7273	0.1	-50.028
22527	20.583	1.8182	0.1	-49.738
22528	20.675	1.5455	0.1	-47.603
22529	20.583	1.6364	0.1	-47.535
22530	20.675	1.3636	0.1	-44.978
22531	20.583	1.4545	0.1	-45.121
22532	20.675	1.1818	0.1	-42.199
22533	20.583	1.2727	0.1	-42.54
22534	20.675	1.	0.1	-39.321
22535	20.583	1.0909	0.1	-39.84
22536	20.675	0.81818	0.1	-36.404
22537	20.583	0.90909	0.1	-37.074
22538	20.675	0.63636	0.1	-33.515
22539	20.583	0.72727	0.1	-34.302
22540	20.675	0.45455	0.1	-30.789
22541	20.583	0.54545	0.1	-31.596
22542	20.675	0.27273	0.1	-29.54
22543	20.583	0.36364	0.1	-29.148
22544	20.583	0.18182	0.1	-29.508
22545	20.675	9.0909e-002	0.1	-19.796
22546	20.491	5.7273	0.1	-28.904
22547	20.398	5.8182	0.1	-28.994
22548	20.491	5.9091	0.1	-19.448
22549	20.491	5.5455	0.1	-29.886
22550	20.398	5.6364	0.1	-28.398
22551	20.491	5.3636	0.1	-32.324
22552	20.398	5.4545	0.1	-30.575
22553	20.491	5.1818	0.1	-34.917
22554	20.398	5.2727	0.1	-33.001
22555	20.491	5.	0.1	-37.54
22556	20.398	5.0909	0.1	-35.49
22557	20.491	4.8182	0.1	-40.132
22558	20.398	4.9091	0.1	-37.977
22559	20.491	4.6364	0.1	-42.638
22560	20.398	4.7273	0.1	-40.409
22561	20.491	4.4545	0.1	-45.01
22562	20.398	4.5455	0.1	-42.737
22563	20.491	4.2727	0.1	-47.203
22564	20.398	4.3636	0.1	-44.917
22565	20.491	4.0909	0.1	-49.181
22566	20.398	4.1818	0.1	-46.909
22567	20.491	3.9091	0.1	-50.908
22568	20.398	4.	0.1	-48.68
22569	20.491	3.7273	0.1	-52.359
22570	20.398	3.8182	0.1	-50.199
22571	20.491	3.5455	0.1	-53.51
22572	20.398	3.6364	0.1	-51.443
22573	20.491	3.3636	0.1	-54.344
22574	20.398	3.4545	0.1	-52.393
22575	20.491	3.1818	0.1	-54.849
22576	20.398	3.2727	0.1	-53.033
22577	20.491	3.	0.1	-55.019
22578	20.398	3.0909	0.1	-53.356
22579	20.491	2.8182	0.1	-54.849
22580	20.398	2.9091	0.1	-53.356
22581	20.491	2.6364	0.1	-54.344
22582	20.398	2.7273	0.1	-53.033
22583	20.491	2.4545	0.1	-53.51
22584	20.398	2.5455	0.1	-52.393
22585	20.491	2.2727	0.1	-52.359
22586	20.398	2.3636	0.1	-51.443
22587	20.491	2.0909	0.1	-50.908
22588	20.398	2.1818	0.1	-50.199
22589	20.491	1.9091	0.1	-49.181
22590	20.398	2.	0.1	-48.68
22591	20.491	1.7273	0.1	-47.203
22592	20.398	1.8182	0.1	-46.909
22593	20.491	1.5455	0.1	-45.01
22594	20.398	1.6364	0.1	-44.917
22595	20.491	1.3636	0.1	-42.638
22596	20.398	1.4545	0.1	-42.737
22597	20.491	1.1818	0.1	-40.132
22598	20.398	1.2727	0.1	-40.409
22599	20.491	1.	0.1	-37.54
22600	20.398	1.0909	0.1	-37.977
22601	20.491	0.81818	0.1	-34.917
22602	20.398	0.90909	0.1	-35.49
22603	20.491	0.63636	0.1	-32.324
22604	20.398	0.72727	0.1	-33.001
22605	20.491	0.45455	0.1	-29.886
22606	20.398	0.54545	0.1	-30.575
22607	20.491	0.27273	0.1	-28.904
22608	20.398	0.36364	0.1	-28.398
22609	20.398	0.18182	0.1	-28.994
22610	20.491	9.0909e-002	0.1	-19.448
22611	20.306	5.7273	0.1	-28.282
22612	20.213	5.8182	0.1	-28.48
22613	20.306	5.9091	0.1	-19.101
22614	20.306	5.5455	0.1	-29.022
22615	20.213	5.6364	0.1	-27.673
22616	20.306	5.3636	0.1	-31.196
22617	20.213	5.4545	0.1	-29.604
22618	20.306	5.1818	0.1	-33.521
22619	20.213	5.2727	0.1	-31.774
22620	20.306	5.	0.1	-35.876
22621	20.213	5.0909	0.1	-34.005
22622	20.306	4.8182	0.1	-38.206
22623	20.213	4.9091	0.1	-36.238
22624	20.306	4.6364	0.1	-40.463
22625	20.213	4.7273	0.1	-38.424
22626	20.306	4.4545	0.1	-42.601
22627	20.213	4.5455	0.1	-40.52
22628	20.306	4.2727	0.1	-44.582
22629	20.213	4.3636	0.1	-42.486
22630	20.306	4.0909	0.1	-46.37
22631	20.213	4.1818	0.1	-44.284
22632	20.306	3.9091	0.1	-47.933
22633	20.213	4.	0.1	-45.885
22634	20.306	3.7273	0.1	-49.247
22635	20.213	3.8182	0.1	-47.259
22636	20.306	3.5455	0.1	-50.291
22637	20.213	3.6364	0.1	-48.386
22638	20.306	3.3636	0.1	-51.048
22639	20.213	3.4545	0.1	-49.246
22640	20.306	3.1818	0.1	-51.507
22641	20.213	3.2727	0.1	-49.827
22642	20.306	3.	0.1	-51.66
22643	20.213	3.0909	0.1	-50.12
22644	20.306	2.8182	0.1	-51.507
22645	20.213	2.9091	0.1	-50.12
22646	20.306	2.6364	0.1	-51.048
22647	20.213	2.7273	0.1	-49.827
22648	20.306	2.4545	0.1	-50.291
22649	20.213	2.5455	0.1	-49.246
22650	20.306	2.2727	0.1	-49.247
22651	20.213	2.3636	0.1	-48.386
22652	20.306	2.0909	0.1	-47.933
22653	20.213	2.1818	0.1	-47.259
22654	20.306	1.9091	0.1	-46.369
22655	20.213	2.	0.1	-45.885
22656	20.306	1.7273	0.1	-44.582
22657	20.213	1.8182	0.1	-44.284
22658	20.306	1.5455	0.1	-42.601
22659	20.213	1.6364	0.1	-42.486
22660	20.306	1.3636	0.1	-40.462
22661	20.213	1.4545	0.1	-40.52
22662	20.306	1.1818	0.1	-38.206
22663	20.213	1.2727	0.1	-38.424
22664	20.306	1.	0.1	-35.876
22665	20.213	1.0909	0.1	-36.238
22666	20.306	0.81818	0.1	-33.521
22667	20.213	0.90909	0.1	-34.005
22668	20.306	0.63636	0.1	-31.196
22669	20.213	0.72727	0.1	-31.774
22670	20.306	0.45455	0.1	-29.022
22671	20.213	0.54545	0.1	-29.604
22672	20.306	0.27273	0.1	-28.282
22673	20.213	0.36364	0.1	-27.673
22674	20.213	0.18182	0.1	-28.48
22675	20.306	9.0909e-002	0.1	-19.101
22676	20.121	5.7273	0.1	-27.672
22677	20.029	5.8182	0.1	-27.97
22678	20.121	5.9091	0.1	-18.756
22679	20.121	5.5455	0.1	-28.194
22680	20.029	5.6364	0.1	-26.974
22681	20.121	5.3636	0.1	-30.128
22682	20.029	5.4545	0.1	-28.679
22683	20.121	5.1818	0.1	-32.208
22684	20.029	5.2727	0.1	-30.616
22685	20.121	5.	0.1	-34.318
22686	20.029	5.0909	0.1	-32.612
22687	20.121	4.8182	0.1	-36.41
22688	20.029	4.9091	0.1	-34.613
22689	20.121	4.6364	0.1	-38.438
22690	20.029	4.7273	0.1	-36.575
22691	20.121	4.4545	0.1	-40.363
22692	20.029	4.5455	0.1	-38.458
22693	20.121	4.2727	0.1	-42.148
22694	20.029	4.3636	0.1	-40.227
22695	20.121	4.0909	0.1	-43.761
22696	20.029	4.1818	0.1	-41.847
22697	20.121	3.9091	0.1	-45.173
22698	20.029	4.	0.1	-43.29
22699	20.121	3.7273	0.1	-46.361
22700	20.029	3.8182	0.1	-44.531
22701	20.121	3.5455	0.1	-47.305
22702	20.029	3.6364	0.1	-45.549
22703	20.121	3.3636	0.1	-47.99
22704	20.029	3.4545	0.1	-46.327
22705	20.121	3.1818	0.1	-48.406
22706	20.029	3.2727	0.1	-46.852
22707	20.121	3.	0.1	-48.545
22708	20.029	3.0909	0.1	-47.117
22709	20.121	2.8182	0.1	-48.406
22710	20.029	2.9091	0.1	-47.117
22711	20.121	2.6364	0.1	-47.99
22712	20.029	2.7273	0.1	-46.852
22713	20.121	2.4545	0.1	-47.305
22714	20.029	2.5455	0.1	-46.327
22715	20.121	2.2727	0.1	-46.361
22716	20.029	2.3636	0.1	-45.549
22717	20.121	2.0909	0.1	-45.173
22718	20.029	2.1818	0.1	-44.531
22719	20.121	1.9091	0.1	-43.761
22720	20.029	2.	0.1	-43.29
22721	20.121	1.7273	0.1	-42.148
22722	20.029	1.8182	0.1	-41.847
22723	20.121	1.5455	0.1	-40.363
22724	20.029	1.6364	0.1	-40.227
22725	20.121	1.3636	0.1	-38.438
22726	20.029	1.4545	0.1	-38.458
22727	20.121	1.1818	0.1	-36.41
22728	20.029	1.2727	0.1	-36.575
22729	20.121	1.	0.1	-34.318
22730	20.029	1.0909	0.1	-34.613
22731	20.121	0.81818	0.1	-32.207
22732	20.029	0.90909	0.1	-32.612
22733	20.121	0.63636	0.1	-30.128
22734	20.029	0.72727	0.1	-30.616
22735	20.121	0.45455	0.1	-28.194
22736	20.029	0.54545	0.1	-28.679
22737	20.121	0.27273	0.1	-27.672
22738	20.029	0.36364	0.1	-26.974
22739	20.029	0.18182	0.1	-27.97
22740	20.121	9.0909e-002	0.1	-18.756
22741	19.936	5.7273	0.1	-27.077
22742	19.844	5.8182	0.1	-27.463
22743	19.936	5.9091	0.1	-18.415
22744	19.936	5.5455	0.1	-27.4
22745	19.844	5.6364	0.1	-26.299
22746	19.936	5.3636	0.1	-29.116
22747	19.844	5.4545	0.1	-27.798
22748	19.936	5.1818	0.1	-30.971
22749	19.844	5.2727	0.1	-29.522
22750	19.936	5.	0.1	-32.859
22751	19.844	5.0909	0.1	-31.304
22752	19.936	4.8182	0.1	-34.732
22753	19.844	4.9091	0.1	-33.092
22754	19.936	4.6364	0.1	-36.552
22755	19.844	4.7273	0.1	-34.849
22756	19.936	4.4545	0.1	-38.28
22757	19.844	4.5455	0.1	-36.538
22758	19.936	4.2727	0.1	-39.886
22759	19.844	4.3636	0.1	-38.126
22760	19.936	4.0909	0.1	-41.338
22761	19.844	4.1818	0.1	-39.582
22762	19.936	3.9091	0.1	-42.611
22763	19.844	4.	0.1	-40.881
22764	19.936	3.7273	0.1	-43.682
22765	19.844	3.8182	0.1	-41.998
22766	19.936	3.5455	0.1	-44.534
22767	19.844	3.6364	0.1	-42.916
22768	19.936	3.3636	0.1	-45.153
22769	19.844	3.4545	0.1	-43.617
22770	19.936	3.1818	0.1	-45.528
22771	19.844	3.2727	0.1	-44.091
22772	19.936	3.	0.1	-45.654
22773	19.844	3.0909	0.1	-44.33
22774	19.936	2.8182	0.1	-45.528
22775	19.844	2.9091	0.1	-44.33
22776	19.936	2.6364	0.1	-45.153
22777	19.844	2.7273	0.1	-44.091
22778	19.936	2.4545	0.1	-44.534
22779	19.844	2.5455	0.1	-43.617
22780	19.936	2.2727	0.1	-43.682
22781	19.844	2.3636	0.1	-42.916
22782	19.936	2.0909	0.1	-42.611
22783	19.844	2.1818	0.1	-41.998
22784	19.936	1.9091	0.1	-41.338
22785	19.844	2.	0.1	-40.881
22786	19.936	1.7273	0.1	-39.886
22787	19.844	1.8182	0.1	-39.582
22788	19.936	1.5455	0.1	-38.28
22789	19.844	1.6364	0.1	-38.126
22790	19.936	1.3636	0.1	-36.551
22791	19.844	1.4545	0.1	-36.538
22792	19.936	1.1818	0.1	-34.732
22793	19.844	1.2727	0.1	-34.849
22794	19.936	1.	0.1	-32.859
22795	19.844	1.0909	0.1	-33.092
22796	19.936	0.81818	0.1	-30.971
22797	19.844	0.90909	0.1	-31.304
22798	19.936	0.63636	0.1	-29.116
22799	19.844	0.72727	0.1	-29.522
22800	19.936	0.45455	0.1	-27.4
22801	19.844	0.54545	0.1	-27.798
22802	19.936	0.27273	0.1	-27.077
22803	19.844	0.36364	0.1	-26.299
22804	19.844	0.18182	0.1	-27.463
22805	19.936	9.0909e-002	0.1	-18.415
22806	19.752	5.7273	0.1	-26.495
22807	19.659	5.8182	0.1	-26.963
22808	19.752	5.9091	0.1	-18.078
22809	19.752	5.5455	0.1	-26.64
22810	19.659	5.6364	0.1	-25.647
22811	19.752	5.3636	0.1	-28.155
22812	19.659	5.4545	0.1	-26.959
22813	19.752	5.1818	0.1	-29.807
22814	19.659	5.2727	0.1	-28.488
22815	19.752	5.	0.1	-31.49
22816	19.659	5.0909	0.1	-30.073
22817	19.752	4.8182	0.1	-33.164
22818	19.659	4.9091	0.1	-31.668
22819	19.752	4.6364	0.1	-34.792
22820	19.659	4.7273	0.1	-33.237
22821	19.752	4.4545	0.1	-36.342
22822	19.659	4.5455	0.1	-34.747
22823	19.752	4.2727	0.1	-37.782
22824	19.659	4.3636	0.1	-36.17
22825	19.752	4.0909	0.1	-39.086
22826	19.659	4.1818	0.1	-37.476
22827	19.752	3.9091	0.1	-40.231
22828	19.659	4.	0.1	-38.641
22829	19.752	3.7273	0.1	-41.195
22830	19.659	3.8182	0.1	-39.645
22831	19.752	3.5455	0.1	-41.962
22832	19.659	3.6364	0.1	-40.47
22833	19.752	3.3636	0.1	-42.52
22834	19.659	3.4545	0.1	-41.101
22835	19.752	3.1818	0.1	-42.858
22836	19.659	3.2727	0.1	-41.528
22837	19.752	3.	0.1	-42.971
22838	19.659	3.0909	0.1	-41.743
22839	19.752	2.8182	0.1	-42.858
22840	19.659	2.9091	0.1	-41.743
22841	19.752	2.6364	0.1	-42.52
22842	19.659	2.7273	0.1	-41.528
22843	19.752	2.4545	0.1	-41.962
22844	19.659	2.5455	0.1	-41.101
22845	19.752	2.2727	0.1	-41.195
22846	19.659	2.3636	0.1	-40.47
22847	19.752	2.0909	0.1	-40.231
22848	19.659	2.1818	0.1	-39.645
22849	19.752	1.9091	0.1	-39.086
22850	19.659	2.	0.1	-38.641
22851	19.752	1.7273	0.1	-37.782
22852	19.659	1.8182	0.1	-37.476
22853	19.752	1.5455	0.1	-36.342
22854	19.659	1.6364	0.1	-36.17
22855	19.752	1.3636	0.1	-34.792
22856	19.659	1.4545	0.1	-34.747
22857	19.752	1.1818	0.1	-33.164
22858	19.659	1.2727	0.1	-33.237
22859	19.752	1.	0.1	-31.49
22860	19.659	1.0909	0.1	-31.668
22861	19.752	0.81818	0.1	-29.807
22862	19.659	0.90909	0.1	-30.073
22863	19.752	0.63636	0.1	-28.155
22864	19.659	0.72727	0.1	-28.488
22865	19.752	0.45455	0.1	-26.64
22866	19.659	0.54545	0.1	-26.958
22867	19.752	0.27273	0.1	-26.495
22868	19.659	0.36364	0.1	-25.647
22869	19.659	0.18182	0.1	-26.963
22870	19.752	9.0909e-002	0.1	-18.078
22871	19.567	5.7273	0.1	-25.929
22872	19.475	5.8182	0.1	-26.469
22873	19.567	5.9091	0.1	-17.746
22874	19.567	5.5455	0.1	-25.911
22875	19.475	5.6364	0.1	-25.019
22876	19.567	5.3636	0.1	-27.243
22877	19.475	5.4545	0.1	-26.158
22878	19.567	5.1818	0.1	-28.708
22879	19.475	5.2727	0.1	-27.509
22880	19.567	5.	0.1	-30.205
22881	19.475	5.0909	0.1	-28.915
22882	19.567	4.8182	0.1	-31.697
22883	19.475	4.9091	0.1	-30.332
22884	19.567	4.6364	0.1	-33.15
22885	19.475	4.7273	0.1	-31.729
22886	19.567	4.4545	0.1	-34.535
22887	19.475	4.5455	0.1	-33.077
22888	19.567	4.2727	0.1	-35.824
22889	19.475	4.3636	0.1	-34.347
22890	19.567	4.0909	0.1	-36.992
22891	19.475	4.1818	0.1	-35.515
22892	19.567	3.9091	0.1	-38.019
22893	19.475	4.	0.1	-36.559
22894	19.567	3.7273	0.1	-38.884
22895	19.475	3.8182	0.1	-37.458
22896	19.567	3.5455	0.1	-39.573
22897	19.475	3.6364	0.1	-38.198
22898	19.567	3.3636	0.1	-40.074
22899	19.475	3.4545	0.1	-38.764
22900	19.567	3.1818	0.1	-40.378
22901	19.475	3.2727	0.1	-39.147
22902	19.567	3.	0.1	-40.48
22903	19.475	3.0909	0.1	-39.34
22904	19.567	2.8182	0.1	-40.378
22905	19.475	2.9091	0.1	-39.34
22906	19.567	2.6364	0.1	-40.074
22907	19.475	2.7273	0.1	-39.147
22908	19.567	2.4545	0.1	-39.573
22909	19.475	2.5455	0.1	-38.764
22910	19.567	2.2727	0.1	-38.884
22911	19.475	2.3636	0.1	-38.198
22912	19.567	2.0909	0.1	-38.019
22913	19.475	2.1818	0.1	-37.458
22914	19.567	1.9091	0.1	-36.992
22915	19.475	2.	0.1	-36.558
22916	19.567	1.7273	0.1	-35.824
22917	19.475	1.8182	0.1	-35.515
22918	19.567	1.5455	0.1	-34.534
22919	19.475	1.6364	0.1	-34.347
22920	19.567	1.3636	0.1	-33.15
22921	19.475	1.4545	0.1	-33.076
22922	19.567	1.1818	0.1	-31.696
22923	19.475	1.2727	0.1	-31.729
22924	19.567	1.	0.1	-30.205
22925	19.475	1.0909	0.1	-30.332
22926	19.567	0.81818	0.1	-28.708
22927	19.475	0.90909	0.1	-28.915
22928	19.567	0.63636	0.1	-27.243
22929	19.475	0.72727	0.1	-27.509
22930	19.567	0.45455	0.1	-25.911
22931	19.475	0.54545	0.1	-26.158
22932	19.567	0.27273	0.1	-25.929
22933	19.475	0.36364	0.1	-25.019
22934	19.475	0.18182	0.1	-26.469
22935	19.567	9.0909e-002	0.1	-17.746
22936	19.382	5.7273	0.1	-25.377
22937	19.29	5.8182	0.1	-25.983
22938	19.382	5.9091	0.1	-17.42
22939	19.382	5.5455	0.1	-25.212
22940	19.29	5.6364	0.1	-24.412
22941	19.382	5.3636	0.1	-26.377
22942	19.29	5.4545	0.1	-25.394
22943	19.382	5.1818	0.1	-27.671
22944	19.29	5.2727	0.1	-26.582
22945	19.382	5.	0.1	-28.997
22946	19.29	5.0909	0.1	-27.823
22947	19.382	4.8182	0.1	-30.322
22948	19.29	4.9091	0.1	-29.078
22949	19.382	4.6364	0.1	-31.614
22950	19.29	4.7273	0.1	-30.317
22951	19.382	4.4545	0.1	-32.848
22952	19.29	4.5455	0.1	-31.515
22953	19.382	4.2727	0.1	-33.999
22954	19.29	4.3636	0.1	-32.646
22955	19.382	4.0909	0.1	-35.043
22956	19.29	4.1818	0.1	-33.688
22957	19.382	3.9091	0.1	-35.961
22958	19.29	4.	0.1	-34.619
22959	19.382	3.7273	0.1	-36.735
22960	19.29	3.8182	0.1	-35.423
22961	19.382	3.5455	0.1	-37.353
22962	19.29	3.6364	0.1	-36.084
22963	19.382	3.3636	0.1	-37.801
22964	19.29	3.4545	0.1	-36.591
22965	19.382	3.1818	0.1	-38.074
22966	19.29	3.2727	0.1	-36.934
22967	19.382	3.	0.1	-38.165
22968	19.29	3.0909	0.1	-37.107
22969	19.382	2.8182	0.1	-38.074
22970	19.29	2.9091	0.1	-37.107
22971	19.382	2.6364	0.1	-37.801
22972	19.29	2.7273	0.1	-36.934
22973	19.382	2.4545	0.1	-37.353
22974	19.29	2.5455	0.1	-36.591
22975	19.382	2.2727	0.1	-36.735
22976	19.29	2.3636	0.1	-36.084
22977	19.382	2.0909	0.1	-35.961
22978	19.29	2.1818	0.1	-35.423
22979	19.382	1.9091	0.1	-35.043
22980	19.29	2.	0.1	-34.619
22981	19.382	1.7273	0.1	-33.999
22982	19.29	1.8182	0.1	-33.688
22983	19.382	1.5455	0.1	-32.848
22984	19.29	1.6364	0.1	-32.646
22985	19.382	1.3636	0.1	-31.614
22986	19.29	1.4545	0.1	-31.515
22987	19.382	1.1818	0.1	-30.321
22988	19.29	1.2727	0.1	-30.317
22989	19.382	1.	0.1	-28.997
22990	19.29	1.0909	0.1	-29.078
22991	19.382	0.81818	0.1	-27.671
22992	19.29	0.90909	0.1	-27.823
22993	19.382	0.63636	0.1	-26.377
22994	19.29	0.72727	0.1	-26.582
22995	19.382	0.45455	0.1	-25.212
22996	19.29	0.54545	0.1	-25.394
22997	19.382	0.27273	0.1	-25.377
22998	19.29	0.36364	0.1	-24.412
22999	19.29	0.18182	0.1	-25.983
23000	19.382	9.0909e-002	0.1	-17.42
23001	19.198	5.7273	0.1	-24.841
23002	19.105	5.8182	0.1	-25.506
23003	19.198	5.9091	0.1	-17.099
23004	19.198	5.5455	0.1	-24.542
23005	19.105	5.6364	0.1	-23.827
23006	19.198	5.3636	0.1	-25.553
23007	19.105	5.4545	0.1	-24.664
23008	19.198	5.1818	0.1	-26.69
23009	19.105	5.2727	0.1	-25.703
23010	19.198	5.	0.1	-27.86
23011	19.105	5.0909	0.1	-26.793
23012	19.198	4.8182	0.1	-29.032
23013	19.105	4.9091	0.1	-27.899
23014	19.198	4.6364	0.1	-30.178
23015	19.105	4.7273	0.1	-28.994
23016	19.198	4.4545	0.1	-31.274
23017	19.105	4.5455	0.1	-30.055
23018	19.198	4.2727	0.1	-32.297
23019	19.105	4.3636	0.1	-31.058
23020	19.198	4.0909	0.1	-33.226
23021	19.105	4.1818	0.1	-31.983
23022	19.198	3.9091	0.1	-34.044
23023	19.105	4.	0.1	-32.812
23024	19.198	3.7273	0.1	-34.736
23025	19.105	3.8182	0.1	-33.528
23026	19.198	3.5455	0.1	-35.287
23027	19.105	3.6364	0.1	-34.117
23028	19.198	3.3636	0.1	-35.687
23029	19.105	3.4545	0.1	-34.568
23030	19.198	3.1818	0.1	-35.931
23031	19.105	3.2727	0.1	-34.874
23032	19.198	3.	0.1	-36.013
23033	19.105	3.0909	0.1	-35.028
23034	19.198	2.8182	0.1	-35.931
23035	19.105	2.9091	0.1	-35.028
23036	19.198	2.6364	0.1	-35.687
23037	19.105	2.7273	0.1	-34.874
23038	19.198	2.4545	0.1	-35.287
23039	19.105	2.5455	0.1	-34.568
23040	19.198	2.2727	0.1	-34.735
23041	19.105	2.3636	0.1	-34.117
23042	19.198	2.0909	0.1	-34.044
23043	19.105	2.1818	0.1	-33.528
23044	19.198	1.9091	0.1	-33.226
23045	19.105	2.	0.1	-32.812
23046	19.198	1.7273	0.1	-32.297
23047	19.105	1.8182	0.1	-31.983
23048	19.198	1.5455	0.1	-31.273
23049	19.105	1.6364	0.1	-31.058
23050	19.198	1.3636	0.1	-30.178
23051	19.105	1.4545	0.1	-30.055
23052	19.198	1.1818	0.1	-29.032
23053	19.105	1.2727	0.1	-28.994
23054	19.198	1.	0.1	-27.86
23055	19.105	1.0909	0.1	-27.899
23056	19.198	0.81818	0.1	-26.69
23057	19.105	0.90909	0.1	-26.793
23058	19.198	0.63636	0.1	-25.553
23059	19.105	0.72727	0.1	-25.702
23060	19.198	0.45455	0.1	-24.542
23061	19.105	0.54545	0.1	-24.664
23062	19.198	0.27273	0.1	-24.84
23063	19.105	0.36364	0.1	-23.827
23064	19.105	0.18182	0.1	-25.506
23065	19.198	9.0909e-002	0.1	-17.099
23066	19.013	5.7273	0.1	-24.318
23067	18.92	5.8182	0.1	-25.037
23068	19.013	5.9091	0.1	-16.785
23069	19.013	5.5455	0.1	-23.899
23070	18.92	5.6364	0.1	-23.262
23071	19.013	5.3636	0.1	-24.769
23072	18.92	5.4545	0.1	-23.966
23073	19.013	5.1818	0.1	-25.762
23074	18.92	5.2727	0.1	-24.868
23075	19.013	5.	0.1	-26.789
23076	18.92	5.0909	0.1	-25.819
23077	19.013	4.8182	0.1	-27.82
23078	18.92	4.9091	0.1	-26.789
23079	19.013	4.6364	0.1	-28.831
23080	18.92	4.7273	0.1	-27.752
23081	19.013	4.4545	0.1	-29.8
23082	18.92	4.5455	0.1	-28.687
23083	19.013	4.2727	0.1	-30.707
23084	18.92	4.3636	0.1	-29.573
23085	19.013	4.0909	0.1	-31.531
23086	18.92	4.1818	0.1	-30.391
23087	19.013	3.9091	0.1	-32.258
23088	18.92	4.	0.1	-31.125
23089	19.013	3.7273	0.1	-32.872
23090	18.92	3.8182	0.1	-31.76
23091	19.013	3.5455	0.1	-33.362
23092	18.92	3.6364	0.1	-32.283
23093	19.013	3.3636	0.1	-33.719
23094	18.92	3.4545	0.1	-32.684
23095	19.013	3.1818	0.1	-33.936
23096	18.92	3.2727	0.1	-32.955
23097	19.013	3.	0.1	-34.009
23098	18.92	3.0909	0.1	-33.092
23099	19.013	2.8182	0.1	-33.936
23100	18.92	2.9091	0.1	-33.092
23101	19.013	2.6364	0.1	-33.719
23102	18.92	2.7273	0.1	-32.955
23103	19.013	2.4545	0.1	-33.362
23104	18.92	2.5455	0.1	-32.684
23105	19.013	2.2727	0.1	-32.872
23106	18.92	2.3636	0.1	-32.283
23107	19.013	2.0909	0.1	-32.258
23108	18.92	2.1818	0.1	-31.76
23109	19.013	1.9091	0.1	-31.531
23110	18.92	2.	0.1	-31.125
23111	19.013	1.7273	0.1	-30.707
23112	18.92	1.8182	0.1	-30.391
23113	19.013	1.5455	0.1	-29.8
23114	18.92	1.6364	0.1	-29.573
23115	19.013	1.3636	0.1	-28.831
23116	18.92	1.4545	0.1	-28.687
23117	19.013	1.1818	0.1	-27.82
23118	18.92	1.2727	0.1	-27.752
23119	19.013	1.	0.1	-26.789
23120	18.92	1.0909	0.1	-26.789
23121	19.013	0.81818	0.1	-25.762
23122	18.92	0.90909	0.1	-25.819
23123	19.013	0.63636	0.1	-24.769
23124	18.92	0.72727	0.1	-24.868
23125	19.013	0.45455	0.1	-23.899
23126	18.92	0.54545	0.1	-23.966
23127	19.013	0.27273	0.1	-24.318
23128	18.92	0.36364	0.1	-23.262
23129	18.92	0.18182	0.1	-25.037
23130	19.013	9.0909e-002	0.1	-16.785
23131	18.828	5.7273	0.1	-23.811
23132	18.736	5.8182	0.1	-24.577
23133	18.828	5.9091	0.1	-16.477
23134	18.828	5.5455	0.1	-23.281
23135	18.736	5.6364	0.1	-22.717
23136	18.828	5.3636	0.1	-24.022
23137	18.736	5.4545	0.1	-23.299
23138	18.828	5.1818	0.1	-24.883
23139	18.736	5.2727	0.1	-24.074
23140	18.828	5.	0.1	-25.778
23141	18.736	5.0909	0.1	-24.899
23142	18.828	4.8182	0.1	-26.68
23143	18.736	4.9091	0.1	-25.743
23144	18.828	4.6364	0.1	-27.568
23145	18.736	4.7273	0.1	-26.584
23146	18.828	4.4545	0.1	-28.421
23147	18.736	4.5455	0.1	-27.403
23148	18.828	4.2727	0.1	-29.22
23149	18.736	4.3636	0.1	-28.182
23150	18.828	4.0909	0.1	-29.948
23151	18.736	4.1818	0.1	-28.902
23152	18.828	3.9091	0.1	-30.59
23153	18.736	4.	0.1	-29.549
23154	18.828	3.7273	0.1	-31.134
23155	18.736	3.8182	0.1	-30.109
23156	18.828	3.5455	0.1	-31.568
23157	18.736	3.6364	0.1	-30.571
23158	18.828	3.3636	0.1	-31.884
23159	18.736	3.4545	0.1	-30.925
23160	18.828	3.1818	0.1	-32.077
23161	18.736	3.2727	0.1	-31.166
23162	18.828	3.	0.1	-32.141
23163	18.736	3.0909	0.1	-31.287
23164	18.828	2.8182	0.1	-32.077
23165	18.736	2.9091	0.1	-31.287
23166	18.828	2.6364	0.1	-31.884
23167	18.736	2.7273	0.1	-31.166
23168	18.828	2.4545	0.1	-31.568
23169	18.736	2.5455	0.1	-30.925
23170	18.828	2.2727	0.1	-31.134
23171	18.736	2.3636	0.1	-30.571
23172	18.828	2.0909	0.1	-30.59
23173	18.736	2.1818	0.1	-30.109
23174	18.828	1.9091	0.1	-29.948
23175	18.736	2.	0.1	-29.549
23176	18.828	1.7273	0.1	-29.22
23177	18.736	1.8182	0.1	-28.902
23178	18.828	1.5455	0.1	-28.421
23179	18.736	1.6364	0.1	-28.182
23180	18.828	1.3636	0.1	-27.568
23181	18.736	1.4545	0.1	-27.403
23182	18.828	1.1818	0.1	-26.68
23183	18.736	1.2727	0.1	-26.584
23184	18.828	1.	0.1	-25.778
23185	18.736	1.0909	0.1	-25.742
23186	18.828	0.81818	0.1	-24.883
23187	18.736	0.90909	0.1	-24.899
23188	18.828	0.63636	0.1	-24.022
23189	18.736	0.72727	0.1	-24.074
23190	18.828	0.45455	0.1	-23.281
23191	18.736	0.54545	0.1	-23.299
23192	18.828	0.27273	0.1	-23.81
23193	18.736	0.36364	0.1	-22.717
23194	18.736	0.18182	0.1	-24.577
23195	18.828	9.0909e-002	0.1	-16.477
23196	18.643	5.7273	0.1	-23.317
23197	18.551	5.8182	0.1	-24.127
23198	18.643	5.9091	0.1	-16.175
23199	18.643	5.5455	0.1	-22.688
23200	18.551	5.6364	0.1	-22.19
23201	18.643	5.3636	0.1	-23.309
23202	18.551	5.4545	0.1	-22.66
23203	18.643	5.1818	0.1	-24.049
23204	18.551	5.2727	0.1	-23.319
23205	18.643	5.	0.1	-24.823
23206	18.551	5.0909	0.1	-24.026
23207	18.643	4.8182	0.1	-25.607
23208	18.551	4.9091	0.1	-24.755
23209	18.643	4.6364	0.1	-26.381
23210	18.551	4.7273	0.1	-25.484
23211	18.643	4.4545	0.1	-27.126
23212	18.551	4.5455	0.1	-26.197
23213	18.643	4.2727	0.1	-27.827
23214	18.551	4.3636	0.1	-26.876
23215	18.643	4.0909	0.1	-28.466
23216	18.551	4.1818	0.1	-27.506
23217	18.643	3.9091	0.1	-29.031
23218	18.551	4.	0.1	-28.073
23219	18.643	3.7273	0.1	-29.51
23220	18.551	3.8182	0.1	-28.565
23221	18.643	3.5455	0.1	-29.892
23222	18.551	3.6364	0.1	-28.97
23223	18.643	3.3636	0.1	-30.171
23224	18.551	3.4545	0.1	-29.282
23225	18.643	3.1818	0.1	-30.341
23226	18.551	3.2727	0.1	-29.493
23227	18.643	3.	0.1	-30.398
23228	18.551	3.0909	0.1	-29.6
23229	18.643	2.8182	0.1	-30.341
23230	18.551	2.9091	0.1	-29.6
23231	18.643	2.6364	0.1	-30.171
23232	18.551	2.7273	0.1	-29.493
23233	18.643	2.4545	0.1	-29.892
23234	18.551	2.5455	0.1	-29.282
23235	18.643	2.2727	0.1	-29.51
23236	18.551	2.3636	0.1	-28.97
23237	18.643	2.0909	0.1	-29.031
23238	18.551	2.1818	0.1	-28.565
23239	18.643	1.9091	0.1	-28.466
23240	18.551	2.	0.1	-28.073
23241	18.643	1.7273	0.1	-27.827
23242	18.551	1.8182	0.1	-27.506
23243	18.643	1.5455	0.1	-27.126
23244	18.551	1.6364	0.1	-26.876
23245	18.643	1.3636	0.1	-26.381
23246	18.551	1.4545	0.1	-26.197
23247	18.643	1.1818	0.1	-25.607
23248	18.551	1.2727	0.1	-25.484
23249	18.643	1.	0.1	-24.823
23250	18.551	1.0909	0.1	-24.754
23251	18.643	0.81818	0.1	-24.049
23252	18.551	0.90909	0.1	-24.026
23253	18.643	0.63636	0.1	-23.309
23254	18.551	0.72727	0.1	-23.318
23255	18.643	0.45455	0.1	-22.688
23256	18.551	0.54545	0.1	-22.66
23257	18.643	0.27273	0.1	-23.317
23258	18.551	0.36364	0.1	-22.19
23259	18.551	0.18182	0.1	-24.127
23260	18.643	9.0909e-002	0.1	-16.175
23261	18.459	5.7273	0.1	-22.837
23262	18.366	5.8182	0.1	-23.686
23263	18.459	5.9091	0.1	-15.88
23264	18.459	5.5455	0.1	-22.117
23265	18.366	5.6364	0.1	-21.681
23266	18.459	5.3636	0.1	-22.629
23267	18.366	5.4545	0.1	-22.047
23268	18.459	5.1818	0.1	-23.256
23269	18.366	5.2727	0.1	-22.598
23270	18.459	5.	0.1	-23.919
23271	18.366	5.0909	0.1	-23.198
23272	18.459	4.8182	0.1	-24.593
23273	18.366	4.9091	0.1	-23.82
23274	18.459	4.6364	0.1	-25.263
23275	18.366	4.7273	0.1	-24.447
23276	18.459	4.4545	0.1	-25.91
23277	18.366	4.5455	0.1	-25.062
23278	18.459	4.2727	0.1	-26.519
23279	18.366	4.3636	0.1	-25.649
23280	18.459	4.0909	0.1	-27.077
23281	18.366	4.1818	0.1	-26.196
23282	18.459	3.9091	0.1	-27.571
23283	18.366	4.	0.1	-26.689
23284	18.459	3.7273	0.1	-27.989
23285	18.366	3.8182	0.1	-27.117
23286	18.459	3.5455	0.1	-28.325
23287	18.366	3.6364	0.1	-27.471
23288	18.459	3.3636	0.1	-28.569
23289	18.366	3.4545	0.1	-27.743
23290	18.459	3.1818	0.1	-28.718
23291	18.366	3.2727	0.1	-27.928
23292	18.459	3.	0.1	-28.768
23293	18.366	3.0909	0.1	-28.022
23294	18.459	2.8182	0.1	-28.718
23295	18.366	2.9091	0.1	-28.022
23296	18.459	2.6364	0.1	-28.569
23297	18.366	2.7273	0.1	-27.928
23298	18.459	2.4545	0.1	-28.325
23299	18.366	2.5455	0.1	-27.743
23300	18.459	2.2727	0.1	-27.989
23301	18.366	2.3636	0.1	-27.471
23302	18.459	2.0909	0.1	-27.571
23303	18.366	2.1818	0.1	-27.117
23304	18.459	1.9091	0.1	-27.077
23305	18.366	2.	0.1	-26.689
23306	18.459	1.7273	0.1	-26.519
23307	18.366	1.8182	0.1	-26.196
23308	18.459	1.5455	0.1	-25.91
23309	18.366	1.6364	0.1	-25.649
23310	18.459	1.3636	0.1	-25.263
23311	18.366	1.4545	0.1	-25.061
23312	18.459	1.1818	0.1	-24.593
23313	18.366	1.2727	0.1	-24.447
23314	18.459	1.	0.1	-23.918
23315	18.366	1.0909	0.1	-23.82
23316	18.459	0.81818	0.1	-23.256
23317	18.366	0.90909	0.1	-23.198
23318	18.459	0.63636	0.1	-22.629
23319	18.366	0.72727	0.1	-22.598
23320	18.459	0.45455	0.1	-22.117
23321	18.366	0.54545	0.1	-22.047
23322	18.459	0.27273	0.1	-22.837
23323	18.366	0.36364	0.1	-21.681
23324	18.366	0.18182	0.1	-23.686
23325	18.459	9.0909e-002	0.1	-15.88
23326	18.274	5.7273	0.1	-22.37
23327	18.182	5.8182	0.1	-23.254
23328	18.274	5.9091	0.1	-15.591
23329	18.274	5.5455	0.1	-21.567
23330	18.182	5.6364	0.1	-21.189
23331	18.274	5.3636	0.1	-21.977
23332	18.182	5.4545	0.1	-21.459
23333	18.274	5.1818	0.1	-22.501
23334	18.182	5.2727	0.1	-21.911
23335	18.274	5.	0.1	-23.061
23336	18.182	5.0909	0.1	-22.41
23337	18.274	4.8182	0.1	-23.635
23338	18.182	4.9091	0.1	-22.934
23339	18.274	4.6364	0.1	-24.208
23340	18.182	4.7273	0.1	-23.465
23341	18.274	4.4545	0.1	-24.764
23342	18.182	4.5455	0.1	-23.99
23343	18.274	4.2727	0.1	-25.29
23344	18.182	4.3636	0.1	-24.493
23345	18.274	4.0909	0.1	-25.772
23346	18.182	4.1818	0.1	-24.963
23347	18.274	3.9091	0.1	-26.2
23348	18.182	4.	0.1	-25.388
23349	18.274	3.7273	0.1	-26.564
23350	18.182	3.8182	0.1	-25.758
23351	18.274	3.5455	0.1	-26.855
23352	18.182	3.6364	0.1	-26.064
23353	18.274	3.3636	0.1	-27.068
23354	18.182	3.4545	0.1	-26.3
23355	18.274	3.1818	0.1	-27.197
23356	18.182	3.2727	0.1	-26.46
23357	18.274	3.	0.1	-27.241
23358	18.182	3.0909	0.1	-26.541
23359	18.274	2.8182	0.1	-27.197
23360	18.182	2.9091	0.1	-26.541
23361	18.274	2.6364	0.1	-27.068
23362	18.182	2.7273	0.1	-26.46
23363	18.274	2.4545	0.1	-26.855
23364	18.182	2.5455	0.1	-26.3
23365	18.274	2.2727	0.1	-26.564
23366	18.182	2.3636	0.1	-26.064
23367	18.274	2.0909	0.1	-26.2
23368	18.182	2.1818	0.1	-25.758
23369	18.274	1.9091	0.1	-25.772
23370	18.182	2.	0.1	-25.388
23371	18.274	1.7273	0.1	-25.29
23372	18.182	1.8182	0.1	-24.963
23373	18.274	1.5455	0.1	-24.764
23374	18.182	1.6364	0.1	-24.493
23375	18.274	1.3636	0.1	-24.208
23376	18.182	1.4545	0.1	-23.99
23377	18.274	1.1818	0.1	-23.635
23378	18.182	1.2727	0.1	-23.465
23379	18.274	1.	0.1	-23.061
23380	18.182	1.0909	0.1	-22.934
23381	18.274	0.81818	0.1	-22.501
23382	18.182	0.90909	0.1	-22.41
23383	18.274	0.63636	0.1	-21.977
23384	18.182	0.72727	0.1	-21.91
23385	18.274	0.45455	0.1	-21.567
23386	18.182	0.54545	0.1	-21.459
23387	18.274	0.27273	0.1	-22.37
23388	18.182	0.36364	0.1	-21.189
23389	18.182	0.18182	0.1	-23.254
23390	18.274	9.0909e-002	0.1	-15.591
23391	18.089	5.7273	0.1	-21.915
23392	17.997	5.8182	0.1	-22.831
23393	18.089	5.9091	0.1	-15.309
23394	18.089	5.5455	0.1	-21.037
23395	17.997	5.6364	0.1	-20.712
23396	18.089	5.3636	0.1	-21.353
23397	17.997	5.4545	0.1	-20.893
23398	18.089	5.1818	0.1	-21.781
23399	17.997	5.2727	0.1	-21.252
23400	18.089	5.	0.1	-22.246
23401	17.997	5.0909	0.1	-21.66
23402	18.089	4.8182	0.1	-22.727
23403	17.997	4.9091	0.1	-22.092
23404	18.089	4.6364	0.1	-23.21
23405	17.997	4.7273	0.1	-22.535
23406	18.089	4.4545	0.1	-23.683
23407	17.997	4.5455	0.1	-22.976
23408	18.089	4.2727	0.1	-24.131
23409	17.997	4.3636	0.1	-23.401
23410	18.089	4.0909	0.1	-24.543
23411	17.997	4.1818	0.1	-23.8
23412	18.089	3.9091	0.1	-24.91
23413	17.997	4.	0.1	-24.162
23414	18.089	3.7273	0.1	-25.223
23415	17.997	3.8182	0.1	-24.478
23416	18.089	3.5455	0.1	-25.474
23417	17.997	3.6364	0.1	-24.74
23418	18.089	3.3636	0.1	-25.657
23419	17.997	3.4545	0.1	-24.942
23420	18.089	3.1818	0.1	-25.769
23421	17.997	3.2727	0.1	-25.079
23422	18.089	3.	0.1	-25.806
23423	17.997	3.0909	0.1	-25.149
23424	18.089	2.8182	0.1	-25.769
23425	17.997	2.9091	0.1	-25.149
23426	18.089	2.6364	0.1	-25.657
23427	17.997	2.7273	0.1	-25.079
23428	18.089	2.4545	0.1	-25.474
23429	17.997	2.5455	0.1	-24.942
23430	18.089	2.2727	0.1	-25.223
23431	17.997	2.3636	0.1	-24.74
23432	18.089	2.0909	0.1	-24.91
23433	17.997	2.1818	0.1	-24.478
23434	18.089	1.9091	0.1	-24.543
23435	17.997	2.	0.1	-24.162
23436	18.089	1.7273	0.1	-24.131
23437	17.997	1.8182	0.1	-23.8
23438	18.089	1.5455	0.1	-23.682
23439	17.997	1.6364	0.1	-23.401
23440	18.089	1.3636	0.1	-23.21
23441	17.997	1.4545	0.1	-22.976
23442	18.089	1.1818	0.1	-22.727
23443	17.997	1.2727	0.1	-22.535
23444	18.089	1.	0.1	-22.246
23445	17.997	1.0909	0.1	-22.092
23446	18.089	0.81818	0.1	-21.781
23447	17.997	0.90909	0.1	-21.66
23448	18.089	0.63636	0.1	-21.353
23449	17.997	0.72727	0.1	-21.252
23450	18.089	0.45455	0.1	-21.037
23451	17.997	0.54545	0.1	-20.893
23452	18.089	0.27273	0.1	-21.915
23453	17.997	0.36364	0.1	-20.712
23454	17.997	0.18182	0.1	-22.831
23455	18.089	9.0909e-002	0.1	-15.309
23456	17.905	5.7273	0.1	-21.473
23457	17.812	5.8182	0.1	-22.417
23458	17.905	5.9091	0.1	-15.033
23459	17.905	5.5455	0.1	-20.525
23460	17.812	5.6364	0.1	-20.25
23461	17.905	5.3636	0.1	-20.754
23462	17.812	5.4545	0.1	-20.348
23463	17.905	5.1818	0.1	-21.093
23464	17.812	5.2727	0.1	-20.621
23465	17.905	5.	0.1	-21.469
23466	17.812	5.0909	0.1	-20.943
23467	17.905	4.8182	0.1	-21.864
23468	17.812	4.9091	0.1	-21.29
23469	17.905	4.6364	0.1	-22.265
23470	17.812	4.7273	0.1	-21.652
23471	17.905	4.4545	0.1	-22.659
23472	17.812	4.5455	0.1	-22.015
23473	17.905	4.2727	0.1	-23.035
23474	17.812	4.3636	0.1	-22.368
23475	17.905	4.0909	0.1	-23.384
23476	17.812	4.1818	0.1	-22.7
23477	17.905	3.9091	0.1	-23.694
23478	17.812	4.	0.1	-23.004
23479	17.905	3.7273	0.1	-23.96
23480	17.812	3.8182	0.1	-23.269
23481	17.905	3.5455	0.1	-24.173
23482	17.812	3.6364	0.1	-23.49
23483	17.905	3.3636	0.1	-24.329
23484	17.812	3.4545	0.1	-23.661
23485	17.905	3.1818	0.1	-24.424
23486	17.812	3.2727	0.1	-23.777
23487	17.905	3.	0.1	-24.456
23488	17.812	3.0909	0.1	-23.836
23489	17.905	2.8182	0.1	-24.424
23490	17.812	2.9091	0.1	-23.836
23491	17.905	2.6364	0.1	-24.329
23492	17.812	2.7273	0.1	-23.777
23493	17.905	2.4545	0.1	-24.173
23494	17.812	2.5455	0.1	-23.661
23495	17.905	2.2727	0.1	-23.96
23496	17.812	2.3636	0.1	-23.49
23497	17.905	2.0909	0.1	-23.694
23498	17.812	2.1818	0.1	-23.269
23499	17.905	1.9091	0.1	-23.384
23500	17.812	2.	0.1	-23.003
23501	17.905	1.7273	0.1	-23.035
23502	17.812	1.8182	0.1	-22.7
23503	17.905	1.5455	0.1	-22.659
23504	17.812	1.6364	0.1	-22.367
23505	17.905	1.3636	0.1	-22.265
23506	17.812	1.4545	0.1	-22.015
23507	17.905	1.1818	0.1	-21.864
23508	17.812	1.2727	0.1	-21.652
23509	17.905	1.	0.1	-21.469
23510	17.812	1.0909	0.1	-21.29
23511	17.905	0.81818	0.1	-21.093
23512	17.812	0.90909	0.1	-20.943
23513	17.905	0.63636	0.1	-20.754
23514	17.812	0.72727	0.1	-20.621
23515	17.905	0.45455	0.1	-20.525
23516	17.812	0.54545	0.1	-20.348
23517	17.905	0.27273	0.1	-21.473
23518	17.812	0.36364	0.1	-20.25
23519	17.812	0.18182	0.1	-22.417
23520	17.905	9.0909e-002	0.1	-15.033
23521	17.72	5.7273	0.1	-21.042
23522	17.628	5.8182	0.1	-22.012
23523	17.72	5.9091	0.1	-14.763
23524	17.72	5.5455	0.1	-20.03
23525	17.628	5.6364	0.1	-19.801
23526	17.72	5.3636	0.1	-20.178
23527	17.628	5.4545	0.1	-19.822
23528	17.72	5.1818	0.1	-20.434
23529	17.628	5.2727	0.1	-20.015
23530	17.72	5.	0.1	-20.728
23531	17.628	5.0909	0.1	-20.256
23532	17.72	4.8182	0.1	-21.042
23533	17.628	4.9091	0.1	-20.525
23534	17.72	4.6364	0.1	-21.366
23535	17.628	4.7273	0.1	-20.81
23536	17.72	4.4545	0.1	-21.688
23537	17.628	4.5455	0.1	-21.1
23538	17.72	4.2727	0.1	-21.997
23539	17.628	4.3636	0.1	-21.385
23540	17.72	4.0909	0.1	-22.285
23541	17.628	4.1818	0.1	-21.657
23542	17.72	3.9091	0.1	-22.544
23543	17.628	4.	0.1	-21.905
23544	17.72	3.7273	0.1	-22.765
23545	17.628	3.8182	0.1	-22.124
23546	17.72	3.5455	0.1	-22.944
23547	17.628	3.6364	0.1	-22.307
23548	17.72	3.3636	0.1	-23.075
23549	17.628	3.4545	0.1	-22.449
23550	17.72	3.1818	0.1	-23.154
23551	17.628	3.2727	0.1	-22.545
23552	17.72	3.	0.1	-23.181
23553	17.628	3.0909	0.1	-22.594
23554	17.72	2.8182	0.1	-23.154
23555	17.628	2.9091	0.1	-22.594
23556	17.72	2.6364	0.1	-23.075
23557	17.628	2.7273	0.1	-22.545
23558	17.72	2.4545	0.1	-22.944
23559	17.628	2.5455	0.1	-22.449
23560	17.72	2.2727	0.1	-22.765
23561	17.628	2.3636	0.1	-22.307
23562	17.72	2.0909	0.1	-22.544
23563	17.628	2.1818	0.1	-22.124
23564	17.72	1.9091	0.1	-22.285
23565	17.628	2.	0.1	-21.905
23566	17.72	1.7273	0.1	-21.997
23567	17.628	1.8182	0.1	-21.657
23568	17.72	1.5455	0.1	-21.688
23569	17.628	1.6364	0.1	-21.385
23570	17.72	1.3636	0.1	-21.366
23571	17.628	1.4545	0.1	-21.1
23572	17.72	1.1818	0.1	-21.042
23573	17.628	1.2727	0.1	-20.81
23574	17.72	1.	0.1	-20.727
23575	17.628	1.0909	0.1	-20.525
23576	17.72	0.81818	0.1	-20.434
23577	17.628	0.90909	0.1	-20.256
23578	17.72	0.63636	0.1	-20.178
23579	17.628	0.72727	0.1	-20.015
23580	17.72	0.45455	0.1	-20.03
23581	17.628	0.54545	0.1	-19.822
23582	17.72	0.27273	0.1	-21.042
23583	17.628	0.36364	0.1	-19.801
23584	17.628	0.18182	0.1	-22.012
23585	17.72	9.0909e-002	0.1	-14.763
23586	17.535	5.7273	0.1	-20.621
23587	17.443	5.8182	0.1	-21.615
23588	17.535	5.9091	0.1	-14.498
23589	17.535	5.5455	0.1	-19.551
23590	17.443	5.6364	0.1	-19.364
23591	17.535	5.3636	0.1	-19.622
23592	17.443	5.4545	0.1	-19.313
23593	17.535	5.1818	0.1	-19.801
23594	17.443	5.2727	0.1	-19.431
23595	17.535	5.	0.1	-20.017
23596	17.443	5.0909	0.1	-19.596
23597	17.535	4.8182	0.1	-20.257
23598	17.443	4.9091	0.1	-19.791
23599	17.535	4.6364	0.1	-20.508
23600	17.443	4.7273	0.1	-20.004
23601	17.535	4.4545	0.1	-20.763
23602	17.443	4.5455	0.1	-20.227
23603	17.535	4.2727	0.1	-21.01
23604	17.443	4.3636	0.1	-20.449
23605	17.535	4.0909	0.1	-21.242
23606	17.443	4.1818	0.1	-20.663
23607	17.535	3.9091	0.1	-21.452
23608	17.443	4.	0.1	-20.861
23609	17.535	3.7273	0.1	-21.632
23610	17.443	3.8182	0.1	-21.036
23611	17.535	3.5455	0.1	-21.778
23612	17.443	3.6364	0.1	-21.183
23613	17.535	3.3636	0.1	-21.885
23614	17.443	3.4545	0.1	-21.298
23615	17.535	3.1818	0.1	-21.951
23616	17.443	3.2727	0.1	-21.376
23617	17.535	3.	0.1	-21.973
23618	17.443	3.0909	0.1	-21.415
23619	17.535	2.8182	0.1	-21.951
23620	17.443	2.9091	0.1	-21.415
23621	17.535	2.6364	0.1	-21.885
23622	17.443	2.7273	0.1	-21.376
23623	17.535	2.4545	0.1	-21.778
23624	17.443	2.5455	0.1	-21.298
23625	17.535	2.2727	0.1	-21.632
23626	17.443	2.3636	0.1	-21.183
23627	17.535	2.0909	0.1	-21.452
23628	17.443	2.1818	0.1	-21.036
23629	17.535	1.9091	0.1	-21.242
23630	17.443	2.	0.1	-20.861
23631	17.535	1.7273	0.1	-21.01
23632	17.443	1.8182	0.1	-20.663
23633	17.535	1.5455	0.1	-20.763
23634	17.443	1.6364	0.1	-20.449
23635	17.535	1.3636	0.1	-20.508
23636	17.443	1.4545	0.1	-20.227
23637	17.535	1.1818	0.1	-20.257
23638	17.443	1.2727	0.1	-20.004
23639	17.535	1.	0.1	-20.017
23640	17.443	1.0909	0.1	-19.791
23641	17.535	0.81818	0.1	-19.801
23642	17.443	0.90909	0.1	-19.596
23643	17.535	0.63636	0.1	-19.622
23644	17.443	0.72727	0.1	-19.43
23645	17.535	0.45455	0.1	-19.551
23646	17.443	0.54545	0.1	-19.313
23647	17.535	0.27273	0.1	-20.621
23648	17.443	0.36364	0.1	-19.364
23649	17.443	0.18182	0.1	-21.615
23650	17.535	9.0909e-002	0.1	-14.498
23651	17.35	5.7273	0.1	-20.211
23652	17.258	5.8182	0.1	-21.225
23653	17.35	5.9091	0.1	-14.24
23654	17.35	5.5455	0.1	-19.086
23655	17.258	5.6364	0.1	-18.939
23656	17.35	5.3636	0.1	-19.085
23657	17.258	5.4545	0.1	-18.819
23658	17.35	5.1818	0.1	-19.191
23659	17.258	5.2727	0.1	-18.866
23660	17.35	5.	0.1	-19.335
23661	17.258	5.0909	0.1	-18.96
23662	17.35	4.8182	0.1	-19.504
23663	17.258	4.9091	0.1	-19.085
23664	17.35	4.6364	0.1	-19.688
23665	17.258	4.7273	0.1	-19.232
23666	17.35	4.4545	0.1	-19.879
23667	17.258	4.5455	0.1	-19.39
23668	17.35	4.2727	0.1	-20.068
23669	17.258	4.3636	0.1	-19.553
23670	17.35	4.0909	0.1	-20.248
23671	17.258	4.1818	0.1	-19.713
23672	17.35	3.9091	0.1	-20.411
23673	17.258	4.	0.1	-19.863
23674	17.35	3.7273	0.1	-20.553
23675	17.258	3.8182	0.1	-19.998
23676	17.35	3.5455	0.1	-20.669
23677	17.258	3.6364	0.1	-20.111
23678	17.35	3.3636	0.1	-20.754
23679	17.258	3.4545	0.1	-20.2
23680	17.35	3.1818	0.1	-20.807
23681	17.258	3.2727	0.1	-20.261
23682	17.35	3.	0.1	-20.824
23683	17.258	3.0909	0.1	-20.292
23684	17.35	2.8182	0.1	-20.807
23685	17.258	2.9091	0.1	-20.292
23686	17.35	2.6364	0.1	-20.754
23687	17.258	2.7273	0.1	-20.261
23688	17.35	2.4545	0.1	-20.669
23689	17.258	2.5455	0.1	-20.2
23690	17.35	2.2727	0.1	-20.553
23691	17.258	2.3636	0.1	-20.111
23692	17.35	2.0909	0.1	-20.411
23693	17.258	2.1818	0.1	-19.998
23694	17.35	1.9091	0.1	-20.247
23695	17.258	2.	0.1	-19.863
23696	17.35	1.7273	0.1	-20.068
23697	17.258	1.8182	0.1	-19.713
23698	17.35	1.5455	0.1	-19.879
23699	17.258	1.6364	0.1	-19.553
23700	17.35	1.3636	0.1	-19.688
23701	17.258	1.4545	0.1	-19.39
23702	17.35	1.1818	0.1	-19.504
23703	17.258	1.2727	0.1	-19.232
23704	17.35	1.	0.1	-19.334
23705	17.258	1.0909	0.1	-19.085
23706	17.35	0.81818	0.1	-19.19
23707	17.258	0.90909	0.1	-18.96
23708	17.35	0.63636	0.1	-19.085
23709	17.258	0.72727	0.1	-18.866
23710	17.35	0.45455	0.1	-19.086
23711	17.258	0.54545	0.1	-18.819
23712	17.35	0.27273	0.1	-20.211
23713	17.258	0.36364	0.1	-18.939
23714	17.258	0.18182	0.1	-21.225
23715	17.35	9.0909e-002	0.1	-14.24
23716	17.166	5.7273	0.1	-19.809
23717	17.073	5.8182	0.1	-20.843
23718	17.166	5.9091	0.1	-13.986
23719	17.166	5.5455	0.1	-18.633
23720	17.073	5.6364	0.1	-18.525
23721	17.166	5.3636	0.1	-18.565
23722	17.073	5.4545	0.1	-18.339
23723	17.166	5.1818	0.1	-18.601
23724	17.073	5.2727	0.1	-18.318
23725	17.166	5.	0.1	-18.677
23726	17.073	5.0909	0.1	-18.346
23727	17.166	4.8182	0.1	-18.779
23728	17.073	4.9091	0.1	-18.405
23729	17.166	4.6364	0.1	-18.9
23730	17.073	4.7273	0.1	-18.487
23731	17.166	4.4545	0.1	-19.031
23732	17.073	4.5455	0.1	-18.586
23733	17.166	4.2727	0.1	-19.165
23734	17.073	4.3636	0.1	-18.693
23735	17.166	4.0909	0.1	-19.295
23736	17.073	4.1818	0.1	-18.802
23737	17.166	3.9091	0.1	-19.416
23738	17.073	4.	0.1	-18.907
23739	17.166	3.7273	0.1	-19.522
23740	17.073	3.8182	0.1	-19.003
23741	17.166	3.5455	0.1	-19.609
23742	17.073	3.6364	0.1	-19.085
23743	17.166	3.3636	0.1	-19.674
23744	17.073	3.4545	0.1	-19.149
23745	17.166	3.1818	0.1	-19.714
23746	17.073	3.2727	0.1	-19.194
23747	17.166	3.	0.1	-19.727
23748	17.073	3.0909	0.1	-19.217
23749	17.166	2.8182	0.1	-19.714
23750	17.073	2.9091	0.1	-19.217
23751	17.166	2.6364	0.1	-19.674
23752	17.073	2.7273	0.1	-19.194
23753	17.166	2.4545	0.1	-19.609
23754	17.073	2.5455	0.1	-19.149
23755	17.166	2.2727	0.1	-19.522
23756	17.073	2.3636	0.1	-19.085
23757	17.166	2.0909	0.1	-19.416
23758	17.073	2.1818	0.1	-19.003
23759	17.166	1.9091	0.1	-19.295
23760	17.073	2.	0.1	-18.907
23761	17.166	1.7273	0.1	-19.165
23762	17.073	1.8182	0.1	-18.802
23763	17.166	1.5455	0.1	-19.031
23764	17.073	1.6364	0.1	-18.693
23765	17.166	1.3636	0.1	-18.9
23766	17.073	1.4545	0.1	-18.586
23767	17.166	1.1818	0.1	-18.779
23768	17.073	1.2727	0.1	-18.487
23769	17.166	1.	0.1	-18.676
23770	17.073	1.0909	0.1	-18.405
23771	17.166	0.81818	0.1	-18.601
23772	17.073	0.90909	0.1	-18.345
23773	17.166	0.63636	0.1	-18.565
23774	17.073	0.72727	0.1	-18.318
23775	17.166	0.45455	0.1	-18.633
23776	17.073	0.54545	0.1	-18.339
23777	17.166	0.27273	0.1	-19.809
23778	17.073	0.36364	0.1	-18.525
23779	17.073	0.18182	0.1	-20.843
23780	17.166	9.0909e-002	0.1	-13.986
23781	16.981	5.7273	0.1	-19.416
23782	16.889	5.8182	0.1	-20.468
23783	16.981	5.9091	0.1	-13.737
23784	16.981	5.5455	0.1	-18.192
23785	16.889	5.6364	0.1	-18.119
23786	16.981	5.3636	0.1	-18.058
23787	16.889	5.4545	0.1	-17.871
23788	16.981	5.1818	0.1	-18.029
23789	16.889	5.2727	0.1	-17.786
23790	16.981	5.	0.1	-18.04
23791	16.889	5.0909	0.1	-17.749
23792	16.981	4.8182	0.1	-18.079
23793	16.889	4.9091	0.1	-17.745
23794	16.981	4.6364	0.1	-18.14
23795	16.889	4.7273	0.1	-17.767
23796	16.981	4.4545	0.1	-18.214
23797	16.889	4.5455	0.1	-17.809
23798	16.981	4.2727	0.1	-18.296
23799	16.889	4.3636	0.1	-17.862
23800	16.981	4.0909	0.1	-18.38
23801	16.889	4.1818	0.1	-17.923
23802	16.981	3.9091	0.1	-18.46
23803	16.889	4.	0.1	-17.985
23804	16.981	3.7273	0.1	-18.532
23805	16.889	3.8182	0.1	-18.044
23806	16.981	3.5455	0.1	-18.592
23807	16.889	3.6364	0.1	-18.097
23808	16.981	3.3636	0.1	-18.637
23809	16.889	3.4545	0.1	-18.138
23810	16.981	3.1818	0.1	-18.665
23811	16.889	3.2727	0.1	-18.168
23812	16.981	3.	0.1	-18.674
23813	16.889	3.0909	0.1	-18.183
23814	16.981	2.8182	0.1	-18.665
23815	16.889	2.9091	0.1	-18.183
23816	16.981	2.6364	0.1	-18.637
23817	16.889	2.7273	0.1	-18.168
23818	16.981	2.4545	0.1	-18.592
23819	16.889	2.5455	0.1	-18.138
23820	16.981	2.2727	0.1	-18.532
23821	16.889	2.3636	0.1	-18.097
23822	16.981	2.0909	0.1	-18.46
23823	16.889	2.1818	0.1	-18.044
23824	16.981	1.9091	0.1	-18.38
23825	16.889	2.	0.1	-17.985
23826	16.981	1.7273	0.1	-18.296
23827	16.889	1.8182	0.1	-17.923
23828	16.981	1.5455	0.1	-18.214
23829	16.889	1.6364	0.1	-17.862
23830	16.981	1.3636	0.1	-18.14
23831	16.889	1.4545	0.1	-17.809
23832	16.981	1.1818	0.1	-18.079
23833	16.889	1.2727	0.1	-17.767
23834	16.981	1.	0.1	-18.04
23835	16.889	1.0909	0.1	-17.745
23836	16.981	0.81818	0.1	-18.029
23837	16.889	0.90909	0.1	-17.749
23838	16.981	0.63636	0.1	-18.058
23839	16.889	0.72727	0.1	-17.786
23840	16.981	0.45455	0.1	-18.192
23841	16.889	0.54545	0.1	-17.871
23842	16.981	0.27273	0.1	-19.416
23843	16.889	0.36364	0.1	-18.119
23844	16.889	0.18182	0.1	-20.468
23845	16.981	9.0909e-002	0.1	-13.737
23846	16.796	5.7273	0.1	-19.03
23847	16.704	5.8182	0.1	-20.099
23848	16.796	5.9091	0.1	-13.493
23849	16.796	5.5455	0.1	-17.76
23850	16.704	5.6364	0.1	-17.721
23851	16.796	5.3636	0.1	-17.565
23852	16.704	5.4545	0.1	-17.413
23853	16.796	5.1818	0.1	-17.473
23854	16.704	5.2727	0.1	-17.266
23855	16.796	5.	0.1	-17.421
23856	16.704	5.0909	0.1	-17.168
23857	16.796	4.8182	0.1	-17.4
23858	16.704	4.9091	0.1	-17.104
23859	16.796	4.6364	0.1	-17.403
23860	16.704	4.7273	0.1	-17.068
23861	16.796	4.4545	0.1	-17.424
23862	16.704	4.5455	0.1	-17.054
23863	16.796	4.2727	0.1	-17.456
23864	16.704	4.3636	0.1	-17.057
23865	16.796	4.0909	0.1	-17.496
23866	16.704	4.1818	0.1	-17.072
23867	16.796	3.9091	0.1	-17.537
23868	16.704	4.	0.1	-17.093
23869	16.796	3.7273	0.1	-17.576
23870	16.704	3.8182	0.1	-17.117
23871	16.796	3.5455	0.1	-17.611
23872	16.704	3.6364	0.1	-17.141
23873	16.796	3.3636	0.1	-17.637
23874	16.704	3.4545	0.1	-17.161
23875	16.796	3.1818	0.1	-17.654
23876	16.704	3.2727	0.1	-17.176
23877	16.796	3.	0.1	-17.659
23878	16.704	3.0909	0.1	-17.183
23879	16.796	2.8182	0.1	-17.654
23880	16.704	2.9091	0.1	-17.183
23881	16.796	2.6364	0.1	-17.637
23882	16.704	2.7273	0.1	-17.176
23883	16.796	2.4545	0.1	-17.611
23884	16.704	2.5455	0.1	-17.161
23885	16.796	2.2727	0.1	-17.576
23886	16.704	2.3636	0.1	-17.141
23887	16.796	2.0909	0.1	-17.537
23888	16.704	2.1818	0.1	-17.117
23889	16.796	1.9091	0.1	-17.496
23890	16.704	2.	0.1	-17.093
23891	16.796	1.7273	0.1	-17.456
23892	16.704	1.8182	0.1	-17.072
23893	16.796	1.5455	0.1	-17.424
23894	16.704	1.6364	0.1	-17.057
23895	16.796	1.3636	0.1	-17.403
23896	16.704	1.4545	0.1	-17.054
23897	16.796	1.1818	0.1	-17.4
23898	16.704	1.2727	0.1	-17.068
23899	16.796	1.	0.1	-17.421
23900	16.704	1.0909	0.1	-17.104
23901	16.796	0.81818	0.1	-17.472
23902	16.704	0.90909	0.1	-17.168
23903	16.796	0.63636	0.1	-17.565
23904	16.704	0.72727	0.1	-17.266
23905	16.796	0.45455	0.1	-17.76
23906	16.704	0.54545	0.1	-17.413
23907	16.796	0.27273	0.1	-19.03
23908	16.704	0.36364	0.1	-17.721
23909	16.704	0.18182	0.1	-20.099
23910	16.796	9.0909e-002	0.1	-13.493
23911	16.612	5.7273	0.1	-18.652
23912	16.519	5.8182	0.1	-19.736
23913	16.612	5.9091	0.1	-13.254
23914	16.612	5.5455	0.1	-17.337
23915	16.519	5.6364	0.1	-17.33
23916	16.612	5.3636	0.1	-17.082
23917	16.519	5.4545	0.1	-16.965
23918	16.612	5.1818	0.1	-16.929
23919	16.519	5.2727	0.1	-16.757
23920	16.612	5.	0.1	-16.818
23921	16.519	5.0909	0.1	-16.599
23922	16.612	4.8182	0.1	-16.739
23923	16.519	4.9091	0.1	-16.477
23924	16.612	4.6364	0.1	-16.687
23925	16.519	4.7273	0.1	-16.385
23926	16.612	4.4545	0.1	-16.655
23927	16.519	4.5455	0.1	-16.319
23928	16.612	4.2727	0.1	-16.64
23929	16.519	4.3636	0.1	-16.273
23930	16.612	4.0909	0.1	-16.637
23931	16.519	4.1818	0.1	-16.243
23932	16.612	3.9091	0.1	-16.641
23933	16.519	4.	0.1	-16.225
23934	16.612	3.7273	0.1	-16.65
23935	16.519	3.8182	0.1	-16.215
23936	16.612	3.5455	0.1	-16.659
23937	16.519	3.6364	0.1	-16.211
23938	16.612	3.3636	0.1	-16.668
23939	16.519	3.4545	0.1	-16.211
23940	16.612	3.1818	0.1	-16.673
23941	16.519	3.2727	0.1	-16.211
23942	16.612	3.	0.1	-16.676
23943	16.519	3.0909	0.1	-16.212
23944	16.612	2.8182	0.1	-16.673
23945	16.519	2.9091	0.1	-16.212
23946	16.612	2.6364	0.1	-16.668
23947	16.519	2.7273	0.1	-16.211
23948	16.612	2.4545	0.1	-16.659
23949	16.519	2.5455	0.1	-16.211
23950	16.612	2.2727	0.1	-16.65
23951	16.519	2.3636	0.1	-16.211
23952	16.612	2.0909	0.1	-16.641
23953	16.519	2.1818	0.1	-16.215
23954	16.612	1.9091	0.1	-16.637
23955	16.519	2.	0.1	-16.225
23956	16.612	1.7273	0.1	-16.64
23957	16.519	1.8182	0.1	-16.243
23958	16.612	1.5455	0.1	-16.655
23959	16.519	1.6364	0.1	-16.273
23960	16.612	1.3636	0.1	-16.686
23961	16.519	1.4545	0.1	-16.319
23962	16.612	1.1818	0.1	-16.739
23963	16.519	1.2727	0.1	-16.385
23964	16.612	1.	0.1	-16.818
23965	16.519	1.0909	0.1	-16.477
23966	16.612	0.81818	0.1	-16.929
23967	16.519	0.90909	0.1	-16.599
23968	16.612	0.63636	0.1	-17.082
23969	16.519	0.72727	0.1	-16.757
23970	16.612	0.45455	0.1	-17.337
23971	16.519	0.54545	0.1	-16.964
23972	16.612	0.27273	0.1	-18.652
23973	16.519	0.36364	0.1	-17.33
23974	16.519	0.18182	0.1	-19.736
23975	16.612	9.0909e-002	0.1	-13.254
23976	16.427	5.7273	0.1	-18.279
23977	16.335	5.8182	0.1	-19.378
23978	16.427	5.9091	0.1	-13.018
23979	16.427	5.5455	0.1	-16.921
23980	16.335	5.6364	0.1	-16.946
23981	16.427	5.3636	0.1	-16.607
23982	16.335	5.4545	0.1	-16.522
23983	16.427	5.1818	0.1	-16.395
23984	16.335	5.2727	0.1	-16.257
23985	16.427	5.	0.1	-16.226
23986	16.335	5.0909	0.1	-16.04
23987	16.427	4.8182	0.1	-16.091
23988	16.335	4.9091	0.1	-15.861
23989	16.427	4.6364	0.1	-15.985
23990	16.335	4.7273	0.1	-15.715
23991	16.427	4.4545	0.1	-15.904
23992	16.335	4.5455	0.1	-15.597
23993	16.427	4.2727	0.1	-15.843
23994	16.335	4.3636	0.1	-15.504
23995	16.427	4.0909	0.1	-15.799
23996	16.335	4.1818	0.1	-15.431
23997	16.427	3.9091	0.1	-15.767
23998	16.335	4.	0.1	-15.375
23999	16.427	3.7273	0.1	-15.745
24000	16.335	3.8182	0.1	-15.333
24001	16.427	3.5455	0.1	-15.731
24002	16.335	3.6364	0.1	-15.302
24003	16.427	3.3636	0.1	-15.723
24004	16.335	3.4545	0.1	-15.281
24005	16.427	3.1818	0.1	-15.718
24006	16.335	3.2727	0.1	-15.268
24007	16.427	3.	0.1	-15.717
24008	16.335	3.0909	0.1	-15.262
24009	16.427	2.8182	0.1	-15.718
24010	16.335	2.9091	0.1	-15.262
24011	16.427	2.6364	0.1	-15.723
24012	16.335	2.7273	0.1	-15.268
24013	16.427	2.4545	0.1	-15.731
24014	16.335	2.5455	0.1	-15.281
24015	16.427	2.2727	0.1	-15.745
24016	16.335	2.3636	0.1	-15.302
24017	16.427	2.0909	0.1	-15.767
24018	16.335	2.1818	0.1	-15.333
24019	16.427	1.9091	0.1	-15.799
24020	16.335	2.	0.1	-15.375
24021	16.427	1.7273	0.1	-15.843
24022	16.335	1.8182	0.1	-15.431
24023	16.427	1.5455	0.1	-15.904
24024	16.335	1.6364	0.1	-15.504
24025	16.427	1.3636	0.1	-15.985
24026	16.335	1.4545	0.1	-15.597
24027	16.427	1.1818	0.1	-16.091
24028	16.335	1.2727	0.1	-15.715
24029	16.427	1.	0.1	-16.226
24030	16.335	1.0909	0.1	-15.861
24031	16.427	0.81818	0.1	-16.395
24032	16.335	0.90909	0.1	-16.04
24033	16.427	0.63636	0.1	-16.607
24034	16.335	0.72727	0.1	-16.257
24035	16.427	0.45455	0.1	-16.921
24036	16.335	0.54545	0.1	-16.522
24037	16.427	0.27273	0.1	-18.278
24038	16.335	0.36364	0.1	-16.945
24039	16.335	0.18182	0.1	-19.378
24040	16.427	9.0909e-002	0.1	-13.018
24041	16.242	5.7273	0.1	-17.91
24042	16.15	5.8182	0.1	-19.024
24043	16.242	5.9091	0.1	-12.785
24044	16.242	5.5455	0.1	-16.511
24045	16.15	5.6364	0.1	-16.565
24046	16.242	5.3636	0.1	-16.14
24047	16.15	5.4545	0.1	-16.086
24048	16.242	5.1818	0.1	-15.87
24049	16.15	5.2727	0.1	-15.762
24050	16.242	5.	0.1	-15.644
24051	16.15	5.0909	0.1	-15.488
24052	16.242	4.8182	0.1	-15.454
24053	16.15	4.9091	0.1	-15.254
24054	16.242	4.6364	0.1	-15.296
24055	16.15	4.7273	0.1	-15.054
24056	16.242	4.4545	0.1	-15.166
24057	16.15	4.5455	0.1	-14.886
24058	16.242	4.2727	0.1	-15.06
24059	16.15	4.3636	0.1	-14.746
24060	16.242	4.0909	0.1	-14.976
24061	16.15	4.1818	0.1	-14.631
24062	16.242	3.9091	0.1	-14.909
24063	16.15	4.	0.1	-14.538
24064	16.242	3.7273	0.1	-14.858
24065	16.15	3.8182	0.1	-14.464
24066	16.242	3.5455	0.1	-14.821
24067	16.15	3.6364	0.1	-14.408
24068	16.242	3.3636	0.1	-14.796
24069	16.15	3.4545	0.1	-14.367
24070	16.242	3.1818	0.1	-14.781
24071	16.15	3.2727	0.1	-14.34
24072	16.242	3.	0.1	-14.776
24073	16.15	3.0909	0.1	-14.327
24074	16.242	2.8182	0.1	-14.781
24075	16.15	2.9091	0.1	-14.327
24076	16.242	2.6364	0.1	-14.796
24077	16.15	2.7273	0.1	-14.34
24078	16.242	2.4545	0.1	-14.821
24079	16.15	2.5455	0.1	-14.367
24080	16.242	2.2727	0.1	-14.858
24081	16.15	2.3636	0.1	-14.408
24082	16.242	2.0909	0.1	-14.909
24083	16.15	2.1818	0.1	-14.464
24084	16.242	1.9091	0.1	-14.975
24085	16.15	2.	0.1	-14.538
24086	16.242	1.7273	0.1	-15.06
24087	16.15	1.8182	0.1	-14.631
24088	16.242	1.5455	0.1	-15.166
24089	16.15	1.6364	0.1	-14.746
24090	16.242	1.3636	0.1	-15.296
24091	16.15	1.4545	0.1	-14.886
24092	16.242	1.1818	0.1	-15.454
24093	16.15	1.2727	0.1	-15.054
24094	16.242	1.	0.1	-15.644
24095	16.15	1.0909	0.1	-15.254
24096	16.242	0.81818	0.1	-15.87
24097	16.15	0.90909	0.1	-15.488
24098	16.242	0.63636	0.1	-16.14
24099	16.15	0.72727	0.1	-15.762
24100	16.242	0.45455	0.1	-16.511
24101	16.15	0.54545	0.1	-16.086
24102	16.242	0.27273	0.1	-17.91
24103	16.15	0.36364	0.1	-16.565
24104	16.15	0.18182	0.1	-19.024
24105	16.242	9.0909e-002	0.1	-12.785
24106	16.057	5.7273	0.1	-17.546
24107	15.965	5.8182	0.1	-18.674
24108	16.057	5.9091	0.1	-12.556
24109	16.057	5.5455	0.1	-16.105
24110	15.965	5.6364	0.1	-16.188
24111	16.057	5.3636	0.1	-15.677
24112	15.965	5.4545	0.1	-15.653
24113	16.057	5.1818	0.1	-15.349
24114	15.965	5.2727	0.1	-15.271
24115	16.057	5.	0.1	-15.067
24116	15.965	5.0909	0.1	-14.941
24117	16.057	4.8182	0.1	-14.823
24118	15.965	4.9091	0.1	-14.651
24119	16.057	4.6364	0.1	-14.614
24120	15.965	4.7273	0.1	-14.399
24121	16.057	4.4545	0.1	-14.436
24122	15.965	4.5455	0.1	-14.181
24123	16.057	4.2727	0.1	-14.286
24124	15.965	4.3636	0.1	-13.995
24125	16.057	4.0909	0.1	-14.162
24126	15.965	4.1818	0.1	-13.839
24127	16.057	3.9091	0.1	-14.062
24128	15.965	4.	0.1	-13.709
24129	16.057	3.7273	0.1	-13.983
24130	15.965	3.8182	0.1	-13.604
24131	16.057	3.5455	0.1	-13.923
24132	15.965	3.6364	0.1	-13.522
24133	16.057	3.3636	0.1	-13.881
24134	15.965	3.4545	0.1	-13.461
24135	16.057	3.1818	0.1	-13.856
24136	15.965	3.2727	0.1	-13.422
24137	16.057	3.	0.1	-13.848
24138	15.965	3.0909	0.1	-13.402
24139	16.057	2.8182	0.1	-13.856
24140	15.965	2.9091	0.1	-13.402
24141	16.057	2.6364	0.1	-13.881
24142	15.965	2.7273	0.1	-13.422
24143	16.057	2.4545	0.1	-13.923
24144	15.965	2.5455	0.1	-13.461
24145	16.057	2.2727	0.1	-13.982
24146	15.965	2.3636	0.1	-13.522
24147	16.057	2.0909	0.1	-14.062
24148	15.965	2.1818	0.1	-13.604
24149	16.057	1.9091	0.1	-14.162
24150	15.965	2.	0.1	-13.709
24151	16.057	1.7273	0.1	-14.286
24152	15.965	1.8182	0.1	-13.838
24153	16.057	1.5455	0.1	-14.436
24154	15.965	1.6364	0.1	-13.995
24155	16.057	1.3636	0.1	-14.614
24156	15.965	1.4545	0.1	-14.181
24157	16.057	1.1818	0.1	-14.823
24158	15.965	1.2727	0.1	-14.399
24159	16.057	1.	0.1	-15.067
24160	15.965	1.0909	0.1	-14.651
24161	16.057	0.81818	0.1	-15.349
24162	15.965	0.90909	0.1	-14.941
24163	16.057	0.63636	0.1	-15.676
24164	15.965	0.72727	0.1	-15.271
24165	16.057	0.45455	0.1	-16.104
24166	15.965	0.54545	0.1	-15.653
24167	16.057	0.27273	0.1	-17.546
24168	15.965	0.36364	0.1	-16.188
24169	15.965	0.18182	0.1	-18.674
24170	16.057	9.0909e-002	0.1	-12.556
24171	15.873	5.7273	0.1	-17.186
24172	15.78	5.8182	0.1	-18.327
24173	15.873	5.9091	0.1	-12.329
24174	15.873	5.5455	0.1	-15.701
24175	15.78	5.6364	0.1	-15.814
24176	15.873	5.3636	0.1	-15.216
24177	15.78	5.4545	0.1	-15.221
24178	15.873	5.1818	0.1	-14.832
24179	15.78	5.2727	0.1	-14.782
24180	15.873	5.	0.1	-14.494
24181	15.78	5.0909	0.1	-14.395
24182	15.873	4.8182	0.1	-14.196
24183	15.78	4.9091	0.1	-14.05
24184	15.873	4.6364	0.1	-13.936
24185	15.78	4.7273	0.1	-13.745
24186	15.873	4.4545	0.1	-13.71
24187	15.78	4.5455	0.1	-13.478
24188	15.873	4.2727	0.1	-13.517
24189	15.78	4.3636	0.1	-13.247
24190	15.873	4.0909	0.1	-13.354
24191	15.78	4.1818	0.1	-13.049
24192	15.873	3.9091	0.1	-13.22
24193	15.78	4.	0.1	-12.882
24194	15.873	3.7273	0.1	-13.113
24195	15.78	3.8182	0.1	-12.746
24196	15.873	3.5455	0.1	-13.03
24197	15.78	3.6364	0.1	-12.639
24198	15.873	3.3636	0.1	-12.972
24199	15.78	3.4545	0.1	-12.559
24200	15.873	3.1818	0.1	-12.938
24201	15.78	3.2727	0.1	-12.507
24202	15.873	3.	0.1	-12.927
24203	15.78	3.0909	0.1	-12.481
24204	15.873	2.8182	0.1	-12.938
24205	15.78	2.9091	0.1	-12.481
24206	15.873	2.6364	0.1	-12.972
24207	15.78	2.7273	0.1	-12.507
24208	15.873	2.4545	0.1	-13.03
24209	15.78	2.5455	0.1	-12.559
24210	15.873	2.2727	0.1	-13.113
24211	15.78	2.3636	0.1	-12.639
24212	15.873	2.0909	0.1	-13.22
24213	15.78	2.1818	0.1	-12.746
24214	15.873	1.9091	0.1	-13.354
24215	15.78	2.	0.1	-12.882
24216	15.873	1.7273	0.1	-13.517
24217	15.78	1.8182	0.1	-13.049
24218	15.873	1.5455	0.1	-13.71
24219	15.78	1.6364	0.1	-13.247
24220	15.873	1.3636	0.1	-13.936
24221	15.78	1.4545	0.1	-13.478
24222	15.873	1.1818	0.1	-14.196
24223	15.78	1.2727	0.1	-13.745
24224	15.873	1.	0.1	-14.494
24225	15.78	1.0909	0.1	-14.05
24226	15.873	0.81818	0.1	-14.832
24227	15.78	0.90909	0.1	-14.395
24228	15.873	0.63636	0.1	-15.216
24229	15.78	0.72727	0.1	-14.782
24230	15.873	0.45455	0.1	-15.701
24231	15.78	0.54545	0.1	-15.221
24232	15.873	0.27273	0.1	-17.186
24233	15.78	0.36364	0.1	-15.814
24234	15.78	0.18182	0.1	-18.327
24235	15.873	9.0909e-002	0.1	-12.329
24236	15.688	5.7273	0.1	-16.827
24237	15.596	5.8182	0.1	-17.983
24238	15.688	5.9091	0.1	-12.105
24239	15.688	5.5455	0.1	-15.299
24240	15.596	5.6364	0.1	-15.44
24241	15.688	5.3636	0.1	-14.757
24242	15.596	5.4545	0.1	-14.79
24243	15.688	5.1818	0.1	-14.315
24244	15.596	5.2727	0.1	-14.293
24245	15.688	5.	0.1	-13.921
24246	15.596	5.0909	0.1	-13.848
24247	15.688	4.8182	0.1	-13.569
24248	15.596	4.9091	0.1	-13.448
24249	15.688	4.6364	0.1	-13.258
24250	15.596	4.7273	0.1	-13.09
24251	15.688	4.4545	0.1	-12.985
24252	15.596	4.5455	0.1	-12.773
24253	15.688	4.2727	0.1	-12.748
24254	15.596	4.3636	0.1	-12.496
24255	15.688	4.0909	0.1	-12.547
24256	15.596	4.1818	0.1	-12.256
24257	15.688	3.9091	0.1	-12.379
24258	15.596	4.	0.1	-12.053
24259	15.688	3.7273	0.1	-12.243
24260	15.596	3.8182	0.1	-11.886
24261	15.688	3.5455	0.1	-12.138
24262	15.596	3.6364	0.1	-11.754
24263	15.688	3.3636	0.1	-12.064
24264	15.596	3.4545	0.1	-11.655
24265	15.688	3.1818	0.1	-12.02
24266	15.596	3.2727	0.1	-11.589
24267	15.688	3.	0.1	-12.005
24268	15.596	3.0909	0.1	-11.557
24269	15.688	2.8182	0.1	-12.02
24270	15.596	2.9091	0.1	-11.557
24271	15.688	2.6364	0.1	-12.064
24272	15.596	2.7273	0.1	-11.589
24273	15.688	2.4545	0.1	-12.138
24274	15.596	2.5455	0.1	-11.655
24275	15.688	2.2727	0.1	-12.243
24276	15.596	2.3636	0.1	-11.754
24277	15.688	2.0909	0.1	-12.379
24278	15.596	2.1818	0.1	-11.886
24279	15.688	1.9091	0.1	-12.547
24280	15.596	2.	0.1	-12.053
24281	15.688	1.7273	0.1	-12.748
24282	15.596	1.8182	0.1	-12.256
24283	15.688	1.5455	0.1	-12.985
24284	15.596	1.6364	0.1	-12.496
24285	15.688	1.3636	0.1	-13.258
24286	15.596	1.4545	0.1	-12.773
24287	15.688	1.1818	0.1	-13.569
24288	15.596	1.2727	0.1	-13.09
24289	15.688	1.	0.1	-13.921
24290	15.596	1.0909	0.1	-13.448
24291	15.688	0.81818	0.1	-14.315
24292	15.596	0.90909	0.1	-13.848
24293	15.688	0.63636	0.1	-14.757
24294	15.596	0.72727	0.1	-14.293
24295	15.688	0.45455	0.1	-15.299
24296	15.596	0.54545	0.1	-14.79
24297	15.688	0.27273	0.1	-16.827
24298	15.596	0.36364	0.1	-15.44
24299	15.596	0.18182	0.1	-17.983
24300	15.688	9.0909e-002	0.1	-12.105
24301	15.503	5.7273	0.1	-16.469
24302	15.411	5.8182	0.1	-17.64
24303	15.503	5.9091	0.1	-11.882
24304	15.503	5.5455	0.1	-14.897
24305	15.411	5.6364	0.1	-15.066
24306	15.503	5.3636	0.1	-14.296
24307	15.411	5.4545	0.1	-14.358
24308	15.503	5.1818	0.1	-13.796
24309	15.411	5.2727	0.1	-13.801
24310	15.503	5.	0.1	-13.345
24311	15.411	5.0909	0.1	-13.297
24312	15.503	4.8182	0.1	-12.939
24313	15.411	4.9091	0.1	-12.841
24314	15.503	4.6364	0.1	-12.576
24315	15.411	4.7273	0.1	-12.429
24316	15.503	4.4545	0.1	-12.255
24317	15.411	4.5455	0.1	-12.062
24318	15.503	4.2727	0.1	-11.974
24319	15.411	4.3636	0.1	-11.738
24320	15.503	4.0909	0.1	-11.734
24321	15.411	4.1818	0.1	-11.457
24322	15.503	3.9091	0.1	-11.532
24323	15.411	4.	0.1	-11.217
24324	15.503	3.7273	0.1	-11.368
24325	15.411	3.8182	0.1	-11.018
24326	15.503	3.5455	0.1	-11.241
24327	15.411	3.6364	0.1	-10.86
24328	15.503	3.3636	0.1	-11.151
24329	15.411	3.4545	0.1	-10.742
24330	15.503	3.1818	0.1	-11.097
24331	15.411	3.2727	0.1	-10.663
24332	15.503	3.	0.1	-11.079
24333	15.411	3.0909	0.1	-10.624
24334	15.503	2.8182	0.1	-11.097
24335	15.411	2.9091	0.1	-10.624
24336	15.503	2.6364	0.1	-11.151
24337	15.411	2.7273	0.1	-10.663
24338	15.503	2.4545	0.1	-11.241
24339	15.411	2.5455	0.1	-10.742
24340	15.503	2.2727	0.1	-11.368
24341	15.411	2.3636	0.1	-10.86
24342	15.503	2.0909	0.1	-11.532
24343	15.411	2.1818	0.1	-11.018
24344	15.503	1.9091	0.1	-11.734
24345	15.411	2.	0.1	-11.217
24346	15.503	1.7273	0.1	-11.974
24347	15.411	1.8182	0.1	-11.457
24348	15.503	1.5455	0.1	-12.255
24349	15.411	1.6364	0.1	-11.738
24350	15.503	1.3636	0.1	-12.576
24351	15.411	1.4545	0.1	-12.062
24352	15.503	1.1818	0.1	-12.939
24353	15.411	1.2727	0.1	-12.429
24354	15.503	1.	0.1	-13.345
24355	15.411	1.0909	0.1	-12.841
24356	15.503	0.81818	0.1	-13.796
24357	15.411	0.90909	0.1	-13.297
24358	15.503	0.63636	0.1	-14.296
24359	15.411	0.72727	0.1	-13.801
24360	15.503	0.45455	0.1	-14.897
24361	15.411	0.54545	0.1	-14.358
24362	15.503	0.27273	0.1	-16.469
24363	15.411	0.36364	0.1	-15.066
24364	15.411	0.18182	0.1	-17.64
24365	15.503	9.0909e-002	0.1	-11.882
24366	15.319	5.7273	0.1	-16.112
24367	15.226	5.8182	0.1	-17.297
24368	15.319	5.9091	0.1	-11.66
24369	15.319	5.5455	0.1	-14.493
24370	15.226	5.6364	0.1	-14.691
24371	15.319	5.3636	0.1	-13.832
24372	15.226	5.4545	0.1	-13.922
24373	15.319	5.1818	0.1	-13.273
24374	15.226	5.2727	0.1	-13.303
24375	15.319	5.	0.1	-12.764
24376	15.226	5.0909	0.1	-12.74
24377	15.319	4.8182	0.1	-12.302
24378	15.226	4.9091	0.1	-12.226
24379	15.319	4.6364	0.1	-11.886
24380	15.226	4.7273	0.1	-11.759
24381	15.319	4.4545	0.1	-11.516
24382	15.226	4.5455	0.1	-11.34
24383	15.319	4.2727	0.1	-11.191
24384	15.226	4.3636	0.1	-10.969
24385	15.319	4.0909	0.1	-10.911
24386	15.226	4.1818	0.1	-10.645
24387	15.319	3.9091	0.1	-10.675
24388	15.226	4.	0.1	-10.368
24389	15.319	3.7273	0.1	-10.482
24390	15.226	3.8182	0.1	-10.137
24391	15.319	3.5455	0.1	-10.332
24392	15.226	3.6364	0.1	-9.9525
24393	15.319	3.3636	0.1	-10.226
24394	15.226	3.4545	0.1	-9.8144
24395	15.319	3.1818	0.1	-10.162
24396	15.226	3.2727	0.1	-9.7224
24397	15.319	3.	0.1	-10.14
24398	15.226	3.0909	0.1	-9.6764
24399	15.319	2.8182	0.1	-10.162
24400	15.226	2.9091	0.1	-9.6764
24401	15.319	2.6364	0.1	-10.226
24402	15.226	2.7273	0.1	-9.7224
24403	15.319	2.4545	0.1	-10.332
24404	15.226	2.5455	0.1	-9.8144
24405	15.319	2.2727	0.1	-10.482
24406	15.226	2.3636	0.1	-9.9525
24407	15.319	2.0909	0.1	-10.675
24408	15.226	2.1818	0.1	-10.137
24409	15.319	1.9091	0.1	-10.911
24410	15.226	2.	0.1	-10.368
24411	15.319	1.7273	0.1	-11.191
24412	15.226	1.8182	0.1	-10.645
24413	15.319	1.5455	0.1	-11.516
24414	15.226	1.6364	0.1	-10.969
24415	15.319	1.3636	0.1	-11.886
24416	15.226	1.4545	0.1	-11.34
24417	15.319	1.1818	0.1	-12.302
24418	15.226	1.2727	0.1	-11.759
24419	15.319	1.	0.1	-12.763
24420	15.226	1.0909	0.1	-12.225
24421	15.319	0.81818	0.1	-13.272
24422	15.226	0.90909	0.1	-12.74
24423	15.319	0.63636	0.1	-13.832
24424	15.226	0.72727	0.1	-13.303
24425	15.319	0.45455	0.1	-14.493
24426	15.226	0.54545	0.1	-13.922
24427	15.319	0.27273	0.1	-16.112
24428	15.226	0.36364	0.1	-14.691
24429	15.226	0.18182	0.1	-17.297
24430	15.319	9.0909e-002	0.1	-11.66
24431	15.134	5.7273	0.1	-15.753
24432	15.042	5.8182	0.1	-16.955
24433	15.134	5.9091	0.1	-11.439
24434	15.134	5.5455	0.1	-14.086
24435	15.042	5.6364	0.1	-14.313
24436	15.134	5.3636	0.1	-13.363
24437	15.042	5.4545	0.1	-13.48
24438	15.134	5.1818	0.1	-12.742
24439	15.042	5.2727	0.1	-12.798
24440	15.134	5.	0.1	-12.173
24441	15.042	5.0909	0.1	-12.173
24442	15.134	4.8182	0.1	-11.654
24443	15.042	4.9091	0.1	-11.599
24444	15.134	4.6364	0.1	-11.185
24445	15.042	4.7273	0.1	-11.076
24446	15.134	4.4545	0.1	-10.765
24447	15.042	4.5455	0.1	-10.604
24448	15.134	4.2727	0.1	-10.394
24449	15.042	4.3636	0.1	-10.184
24450	15.134	4.0909	0.1	-10.073
24451	15.042	4.1818	0.1	-9.816
24452	15.134	3.9091	0.1	-9.8015
24453	15.042	4.	0.1	-9.5
24454	15.134	3.7273	0.1	-9.5793
24455	15.042	3.8182	0.1	-9.2364
24456	15.134	3.5455	0.1	-9.4064
24457	15.042	3.6364	0.1	-9.0252
24458	15.134	3.3636	0.1	-9.283
24459	15.042	3.4545	0.1	-8.8667
24460	15.134	3.1818	0.1	-9.2089
24461	15.042	3.2727	0.1	-8.761
24462	15.134	3.	0.1	-9.1842
24463	15.042	3.0909	0.1	-8.7081
24464	15.134	2.8182	0.1	-9.2089
24465	15.042	2.9091	0.1	-8.7081
24466	15.134	2.6364	0.1	-9.283
24467	15.042	2.7273	0.1	-8.761
24468	15.134	2.4545	0.1	-9.4064
24469	15.042	2.5455	0.1	-8.8667
24470	15.134	2.2727	0.1	-9.5793
24471	15.042	2.3636	0.1	-9.0252
24472	15.134	2.0909	0.1	-9.8015
24473	15.042	2.1818	0.1	-9.2363
24474	15.134	1.9091	0.1	-10.073
24475	15.042	2.	0.1	-9.5
24476	15.134	1.7273	0.1	-10.394
24477	15.042	1.8182	0.1	-9.816
24478	15.134	1.5455	0.1	-10.765
24479	15.042	1.6364	0.1	-10.184
24480	15.134	1.3636	0.1	-11.185
24481	15.042	1.4545	0.1	-10.604
24482	15.134	1.1818	0.1	-11.654
24483	15.042	1.2727	0.1	-11.076
24484	15.134	1.	0.1	-12.173
24485	15.042	1.0909	0.1	-11.599
24486	15.134	0.81818	0.1	-12.742
24487	15.042	0.90909	0.1	-12.173
24488	15.134	0.63636	0.1	-13.363
24489	15.042	0.72727	0.1	-12.798
24490	15.134	0.45455	0.1	-14.086
24491	15.042	0.54545	0.1	-13.48
24492	15.134	0.27273	0.1	-15.753
24493	15.042	0.36364	0.1	-14.313
24494	15.042	0.18182	0.1	-16.955
24495	15.134	9.0909e-002	0.1	-11.439
24496	14.949	5.7273	0.1	-15.393
24497	14.857	5.8182	0.1	-16.612
24498	14.949	5.9091	0.1	-11.219
24499	14.949	5.5455	0.1	-13.674
24500	14.857	5.6364	0.1	-13.93
24501	14.949	5.3636	0.1	-12.887
24502	14.857	5.4545	0.1	-13.032
24503	14.949	5.1818	0.1	-12.201
24504	14.857	5.2727	0.1	-12.284
24505	14.949	5.	0.1	-11.571
24506	14.857	5.0909	0.1	-11.594
24507	14.949	4.8182	0.1	-10.993
24508	14.857	4.9091	0.1	-10.958
24509	14.949	4.6364	0.1	-10.467
24510	14.857	4.7273	0.1	-10.376
24511	14.949	4.4545	0.1	-9.9956
24512	14.857	4.5455	0.1	-9.8492
24513	14.949	4.2727	0.1	-9.578
24514	14.857	4.3636	0.1	-9.3785
24515	14.949	4.0909	0.1	-9.215
24516	14.857	4.1818	0.1	-8.9649
24517	14.949	3.9091	0.1	-8.907
24518	14.857	4.	0.1	-8.6088
24519	14.949	3.7273	0.1	-8.6544
24520	14.857	3.8182	0.1	-8.3111
24521	14.949	3.5455	0.1	-8.4576
24522	14.857	3.6364	0.1	-8.0722
24523	14.949	3.3636	0.1	-8.3169
24524	14.857	3.4545	0.1	-7.8926
24525	14.949	3.1818	0.1	-8.2324
24526	14.857	3.2727	0.1	-7.7726
24527	14.949	3.	0.1	-8.2042
24528	14.857	3.0909	0.1	-7.7126
24529	14.949	2.8182	0.1	-8.2323
24530	14.857	2.9091	0.1	-7.7126
24531	14.949	2.6364	0.1	-8.3169
24532	14.857	2.7273	0.1	-7.7726
24533	14.949	2.4545	0.1	-8.4576
24534	14.857	2.5455	0.1	-7.8926
24535	14.949	2.2727	0.1	-8.6544
24536	14.857	2.3636	0.1	-8.0721
24537	14.949	2.0909	0.1	-8.9069
24538	14.857	2.1818	0.1	-8.311
24539	14.949	1.9091	0.1	-9.2149
24540	14.857	2.	0.1	-8.6088
24541	14.949	1.7273	0.1	-9.5779
24542	14.857	1.8182	0.1	-8.9648
24543	14.949	1.5455	0.1	-9.9955
24544	14.857	1.6364	0.1	-9.3785
24545	14.949	1.3636	0.1	-10.467
24546	14.857	1.4545	0.1	-9.8491
24547	14.949	1.1818	0.1	-10.992
24548	14.857	1.2727	0.1	-10.376
24549	14.949	1.	0.1	-11.571
24550	14.857	1.0909	0.1	-10.958
24551	14.949	0.81818	0.1	-12.201
24552	14.857	0.90909	0.1	-11.594
24553	14.949	0.63636	0.1	-12.887
24554	14.857	0.72727	0.1	-12.284
24555	14.949	0.45455	0.1	-13.674
24556	14.857	0.54545	0.1	-13.032
24557	14.949	0.27273	0.1	-15.393
24558	14.857	0.36364	0.1	-13.93
24559	14.857	0.18182	0.1	-16.612
24560	14.949	9.0909e-002	0.1	-11.219
24561	14.765	5.7273	0.1	-15.03
24562	14.672	5.8182	0.1	-16.267
24563	14.765	5.9091	0.1	-10.998
24564	14.765	5.5455	0.1	-13.256
24565	14.672	5.6364	0.1	-13.542
24566	14.765	5.3636	0.1	-12.401
24567	14.672	5.4545	0.1	-12.575
24568	14.765	5.1818	0.1	-11.649
24569	14.672	5.2727	0.1	-11.757
24570	14.765	5.	0.1	-10.953
24571	14.672	5.0909	0.1	-10.999
24572	14.765	4.8182	0.1	-10.313
24573	14.672	4.9091	0.1	-10.298
24574	14.765	4.6364	0.1	-9.73
24575	14.672	4.7273	0.1	-9.6549
24576	14.765	4.4545	0.1	-9.2045
24577	14.672	4.5455	0.1	-9.0707
24578	14.765	4.2727	0.1	-8.7379
24579	14.672	4.3636	0.1	-8.5473
24580	14.765	4.0909	0.1	-8.3312
24581	14.672	4.1818	0.1	-8.0861
24582	14.765	3.9091	0.1	-7.9855
24583	14.672	4.	0.1	-7.6883
24584	14.765	3.7273	0.1	-7.7014
24585	14.672	3.8182	0.1	-7.355
24586	14.765	3.5455	0.1	-7.4797
24587	14.672	3.6364	0.1	-7.0872
24588	14.765	3.3636	0.1	-7.321
24589	14.672	3.4545	0.1	-6.8856
24590	14.765	3.1818	0.1	-7.2256
24591	14.672	3.2727	0.1	-6.7509
24592	14.765	3.	0.1	-7.1938
24593	14.672	3.0909	0.1	-6.6834
24594	14.765	2.8182	0.1	-7.2256
24595	14.672	2.9091	0.1	-6.6834
24596	14.765	2.6364	0.1	-7.321
24597	14.672	2.7273	0.1	-6.7509
24598	14.765	2.4545	0.1	-7.4797
24599	14.672	2.5455	0.1	-6.8856
24600	14.765	2.2727	0.1	-7.7014
24601	14.672	2.3636	0.1	-7.0872
24602	14.765	2.0909	0.1	-7.9854
24603	14.672	2.1818	0.1	-7.355
24604	14.765	1.9091	0.1	-8.3312
24605	14.672	2.	0.1	-7.6883
24606	14.765	1.7273	0.1	-8.7378
24607	14.672	1.8182	0.1	-8.0861
24608	14.765	1.5455	0.1	-9.2044
24609	14.672	1.6364	0.1	-8.5473
24610	14.765	1.3636	0.1	-9.7299
24611	14.672	1.4545	0.1	-9.0707
24612	14.765	1.1818	0.1	-10.313
24613	14.672	1.2727	0.1	-9.6548
24614	14.765	1.	0.1	-10.953
24615	14.672	1.0909	0.1	-10.298
24616	14.765	0.81818	0.1	-11.648
24617	14.672	0.90909	0.1	-10.999
24618	14.765	0.63636	0.1	-12.401
24619	14.672	0.72727	0.1	-11.757
24620	14.765	0.45455	0.1	-13.256
24621	14.672	0.54545	0.1	-12.575
24622	14.765	0.27273	0.1	-15.03
24623	14.672	0.36364	0.1	-13.542
24624	14.672	0.18182	0.1	-16.267
24625	14.765	9.0909e-002	0.1	-10.998
24626	14.58	5.7273	0.1	-14.662
24627	14.487	5.8182	0.1	-15.92
24628	14.58	5.9091	0.1	-10.777
24629	14.58	5.5455	0.1	-12.83
24630	14.487	5.6364	0.1	-13.148
24631	14.58	5.3636	0.1	-11.903
24632	14.487	5.4545	0.1	-12.106
24633	14.58	5.1818	0.1	-11.08
24634	14.487	5.2727	0.1	-11.215
24635	14.58	5.	0.1	-10.317
24636	14.487	5.0909	0.1	-10.386
24637	14.58	4.8182	0.1	-9.6125
24638	14.487	4.9091	0.1	-9.6169
24639	14.58	4.6364	0.1	-8.9683
24640	14.487	4.7273	0.1	-8.9088
24641	14.58	4.4545	0.1	-8.3864
24642	14.487	4.5455	0.1	-8.2643
24643	14.58	4.2727	0.1	-7.8685
24644	14.487	4.3636	0.1	-7.6855
24645	14.58	4.0909	0.1	-7.4162
24646	14.487	4.1818	0.1	-7.1744
24647	14.58	3.9091	0.1	-7.0309
24648	14.487	4.	0.1	-6.7327
24649	14.58	3.7273	0.1	-6.7139
24650	14.487	3.8182	0.1	-6.3622
24651	14.58	3.5455	0.1	-6.4662
24652	14.487	3.6364	0.1	-6.064
24653	14.58	3.3636	0.1	-6.2887
24654	14.487	3.4545	0.1	-5.8393
24655	14.58	3.1818	0.1	-6.1819
24656	14.487	3.2727	0.1	-5.6891
24657	14.58	3.	0.1	-6.1463
24658	14.487	3.0909	0.1	-5.6138
24659	14.58	2.8182	0.1	-6.1819
24660	14.487	2.9091	0.1	-5.6138
24661	14.58	2.6364	0.1	-6.2887
24662	14.487	2.7273	0.1	-5.6891
24663	14.58	2.4545	0.1	-6.4662
24664	14.487	2.5455	0.1	-5.8393
24665	14.58	2.2727	0.1	-6.7139
24666	14.487	2.3636	0.1	-6.064
24667	14.58	2.0909	0.1	-7.0309
24668	14.487	2.1818	0.1	-6.3621
24669	14.58	1.9091	0.1	-7.4162
24670	14.487	2.	0.1	-6.7327
24671	14.58	1.7273	0.1	-7.8685
24672	14.487	1.8182	0.1	-7.1743
24673	14.58	1.5455	0.1	-8.3864
24674	14.487	1.6364	0.1	-7.6854
24675	14.58	1.3636	0.1	-8.9683
24676	14.487	1.4545	0.1	-8.2642
24677	14.58	1.1818	0.1	-9.6124
24678	14.487	1.2727	0.1	-8.9087
24679	14.58	1.	0.1	-10.317
24680	14.487	1.0909	0.1	-9.6168
24681	14.58	0.81818	0.1	-11.08
24682	14.487	0.90909	0.1	-10.386
24683	14.58	0.63636	0.1	-11.903
24684	14.487	0.72727	0.1	-11.215
24685	14.58	0.45455	0.1	-12.83
24686	14.487	0.54545	0.1	-12.106
24687	14.58	0.27273	0.1	-14.662
24688	14.487	0.36364	0.1	-13.148
24689	14.487	0.18182	0.1	-15.92
24690	14.58	9.0909e-002	0.1	-10.777
24691	14.395	5.7273	0.1	-14.289
24692	14.303	5.8182	0.1	-15.569
24693	14.395	5.9091	0.1	-10.554
24694	14.395	5.5455	0.1	-12.393
24695	14.303	5.6364	0.1	-12.744
24696	14.395	5.3636	0.1	-11.391
24697	14.303	5.4545	0.1	-11.625
24698	14.395	5.1818	0.1	-10.494
24699	14.303	5.2727	0.1	-10.656
24700	14.395	5.	0.1	-9.6592
24701	14.303	5.0909	0.1	-9.7516
24702	14.395	4.8182	0.1	-8.8863
24703	14.303	4.9091	0.1	-8.9099
24704	14.395	4.6364	0.1	-8.178
24705	14.303	4.7273	0.1	-8.1334
24706	14.395	4.4545	0.1	-7.5367
24707	14.303	4.5455	0.1	-7.4251
24708	14.395	4.2727	0.1	-6.9647
24709	14.303	4.3636	0.1	-6.7878
24710	14.395	4.0909	0.1	-6.4644
24711	14.303	4.1818	0.1	-6.224
24712	14.395	3.9091	0.1	-6.0375
24713	14.303	4.	0.1	-5.7361
24714	14.395	3.7273	0.1	-5.6858
24715	14.303	3.8182	0.1	-5.3261
24716	14.395	3.5455	0.1	-5.4107
24717	14.303	3.6364	0.1	-4.9959
24718	14.395	3.3636	0.1	-5.2133
24719	14.303	3.4545	0.1	-4.7468
24720	14.395	3.1818	0.1	-5.0946
24721	14.303	3.2727	0.1	-4.5802
24722	14.395	3.	0.1	-5.0549
24723	14.303	3.0909	0.1	-4.4966
24724	14.395	2.8182	0.1	-5.0946
24725	14.303	2.9091	0.1	-4.4966
24726	14.395	2.6364	0.1	-5.2133
24727	14.303	2.7273	0.1	-4.5802
24728	14.395	2.4545	0.1	-5.4107
24729	14.303	2.5455	0.1	-4.7468
24730	14.395	2.2727	0.1	-5.6858
24731	14.303	2.3636	0.1	-4.9958
24732	14.395	2.0909	0.1	-6.0375
24733	14.303	2.1818	0.1	-5.3261
24734	14.395	1.9091	0.1	-6.4644
24735	14.303	2.	0.1	-5.7361
24736	14.395	1.7273	0.1	-6.9647
24737	14.303	1.8182	0.1	-6.224
24738	14.395	1.5455	0.1	-7.5366
24739	14.303	1.6364	0.1	-6.7877
24740	14.395	1.3636	0.1	-8.1779
24741	14.303	1.4545	0.1	-7.425
24742	14.395	1.1818	0.1	-8.8862
24743	14.303	1.2727	0.1	-8.1333
24744	14.395	1.	0.1	-9.6591
24745	14.303	1.0909	0.1	-8.9098
24746	14.395	0.81818	0.1	-10.494
24747	14.303	0.90909	0.1	-9.7516
24748	14.395	0.63636	0.1	-11.391
24749	14.303	0.72727	0.1	-10.656
24750	14.395	0.45455	0.1	-12.393
24751	14.303	0.54545	0.1	-11.625
24752	14.395	0.27273	0.1	-14.289
24753	14.303	0.36364	0.1	-12.744
24754	14.303	0.18182	0.1	-15.568
24755	14.395	9.0909e-002	0.1	-10.554
24756	14.21	5.7273	0.1	-13.909
24757	14.118	5.8182	0.1	-15.213
24758	14.21	5.9091	0.1	-10.329
24759	14.21	5.5455	0.1	-11.945
24760	14.118	5.6364	0.1	-12.331
24761	14.21	5.3636	0.1	-10.863
24762	14.118	5.4545	0.1	-11.128
24763	14.21	5.1818	0.1	-9.8867
24764	14.118	5.2727	0.1	-10.076
24765	14.21	5.	0.1	-8.9758
24766	14.118	5.0909	0.1	-9.0918
24767	14.21	4.8182	0.1	-8.1305
24768	14.118	4.9091	0.1	-8.1733
24769	14.21	4.6364	0.1	-7.3542
24770	14.118	4.7273	0.1	-7.3242
24771	14.21	4.4545	0.1	-6.65
24772	14.118	4.5455	0.1	-6.5482
24773	14.21	4.2727	0.1	-6.0209
24774	14.118	4.3636	0.1	-5.8488
24775	14.21	4.0909	0.1	-5.4697
24776	14.118	4.1818	0.1	-5.2291
24777	14.21	3.9091	0.1	-4.9987
24778	14.118	4.	0.1	-4.6921
24779	14.21	3.7273	0.1	-4.6103
24780	14.118	3.8182	0.1	-4.2403
24781	14.21	3.5455	0.1	-4.3061
24782	14.118	3.6364	0.1	-3.876
24783	14.21	3.3636	0.1	-4.0878
24784	14.118	3.4545	0.1	-3.6011
24785	14.21	3.1818	0.1	-3.9563
24786	14.118	3.2727	0.1	-3.4169
24787	14.21	3.	0.1	-3.9125
24788	14.118	3.0909	0.1	-3.3246
24789	14.21	2.8182	0.1	-3.9563
24790	14.118	2.9091	0.1	-3.3246
24791	14.21	2.6364	0.1	-4.0878
24792	14.118	2.7273	0.1	-3.4169
24793	14.21	2.4545	0.1	-4.3061
24794	14.118	2.5455	0.1	-3.6011
24795	14.21	2.2727	0.1	-4.6103
24796	14.118	2.3636	0.1	-3.876
24797	14.21	2.0909	0.1	-4.9987
24798	14.118	2.1818	0.1	-4.2403
24799	14.21	1.9091	0.1	-5.4696
24800	14.118	2.	0.1	-4.6921
24801	14.21	1.7273	0.1	-6.0209
24802	14.118	1.8182	0.1	-5.2291
24803	14.21	1.5455	0.1	-6.65
24804	14.118	1.6364	0.1	-5.8488
24805	14.21	1.3636	0.1	-7.3541
24806	14.118	1.4545	0.1	-6.5482
24807	14.21	1.1818	0.1	-8.1304
24808	14.118	1.2727	0.1	-7.3241
24809	14.21	1.	0.1	-8.9757
24810	14.118	1.0909	0.1	-8.1732
24811	14.21	0.81818	0.1	-9.8866
24812	14.118	0.90909	0.1	-9.0918
24813	14.21	0.63636	0.1	-10.863
24814	14.118	0.72727	0.1	-10.076
24815	14.21	0.45455	0.1	-11.945
24816	14.118	0.54545	0.1	-11.128
24817	14.21	0.27273	0.1	-13.909
24818	14.118	0.36364	0.1	-12.331
24819	14.118	0.18182	0.1	-15.213
24820	14.21	9.0909e-002	0.1	-10.329
24821	14.026	5.7273	0.1	-13.521
24822	13.933	5.8182	0.1	-14.851
24823	14.026	5.9091	0.1	-10.101
24824	14.026	5.5455	0.1	-11.483
24825	13.933	5.6364	0.1	-11.906
24826	14.026	5.3636	0.1	-10.315
24827	13.933	5.4545	0.1	-10.614
24828	14.026	5.1818	0.1	-9.2552
24829	13.933	5.2727	0.1	-9.4736
24830	14.026	5.	0.1	-8.2633
24831	13.933	5.0909	0.1	-8.4036
24832	14.026	4.8182	0.1	-7.341
24833	13.933	4.9091	0.1	-7.4031
24834	14.026	4.6364	0.1	-6.4924
24835	13.933	4.7273	0.1	-6.4767
24836	14.026	4.4545	0.1	-5.7213
24837	13.933	4.5455	0.1	-5.6286
24838	14.026	4.2727	0.1	-5.0314
24839	13.933	4.3636	0.1	-4.863
24840	14.026	4.0909	0.1	-4.4261
24841	13.933	4.1818	0.1	-4.1837
24842	14.026	3.9091	0.1	-3.9083
24843	13.933	4.	0.1	-3.5944
24844	14.026	3.7273	0.1	-3.4807
24845	13.933	3.8182	0.1	-3.098
24846	14.026	3.5455	0.1	-3.1456
24847	13.933	3.6364	0.1	-2.6973
24848	14.026	3.3636	0.1	-2.9049
24849	13.933	3.4545	0.1	-2.3947
24850	14.026	3.1818	0.1	-2.7599
24851	13.933	3.2727	0.1	-2.1918
24852	14.026	3.	0.1	-2.7114
24853	13.933	3.0909	0.1	-2.09
24854	14.026	2.8182	0.1	-2.7599
24855	13.933	2.9091	0.1	-2.09
24856	14.026	2.6364	0.1	-2.9049
24857	13.933	2.7273	0.1	-2.1918
24858	14.026	2.4545	0.1	-3.1456
24859	13.933	2.5455	0.1	-2.3947
24860	14.026	2.2727	0.1	-3.4807
24861	13.933	2.3636	0.1	-2.6973
24862	14.026	2.0909	0.1	-3.9083
24863	13.933	2.1818	0.1	-3.098
24864	14.026	1.9091	0.1	-4.426
24865	13.933	2.	0.1	-3.5943
24866	14.026	1.7273	0.1	-5.0314
24867	13.933	1.8182	0.1	-4.1837
24868	14.026	1.5455	0.1	-5.7213
24869	13.933	1.6364	0.1	-4.8629
24870	14.026	1.3636	0.1	-6.4924
24871	13.933	1.4545	0.1	-5.6285
24872	14.026	1.1818	0.1	-7.341
24873	13.933	1.2727	0.1	-6.4766
24874	14.026	1.	0.1	-8.2632
24875	13.933	1.0909	0.1	-7.4031
24876	14.026	0.81818	0.1	-9.2551
24877	13.933	0.90909	0.1	-8.4035
24878	14.026	0.63636	0.1	-10.315
24879	13.933	0.72727	0.1	-9.4735
24880	14.026	0.45455	0.1	-11.483
24881	13.933	0.54545	0.1	-10.614
24882	14.026	0.27273	0.1	-13.521
24883	13.933	0.36364	0.1	-11.906
24884	13.933	0.18182	0.1	-14.851
24885	14.026	9.0909e-002	0.1	-10.101
24886	13.841	5.7273	0.1	-13.124
24887	13.749	5.8182	0.1	-14.483
24888	13.841	5.9091	0.1	-9.8705
24889	13.841	5.5455	0.1	-11.006
24890	13.749	5.6364	0.1	-11.467
24891	13.841	5.3636	0.1	-9.7461
24892	13.749	5.4545	0.1	-10.08
24893	13.841	5.1818	0.1	-8.5962
24894	13.749	5.2727	0.1	-8.8448
24895	13.841	5.	0.1	-7.5178
24896	13.749	5.0909	0.1	-7.6832
24897	13.841	4.8182	0.1	-6.5133
24898	13.749	4.9091	0.1	-6.5952
24899	13.841	4.6364	0.1	-5.5875
24900	13.749	4.7273	0.1	-5.5859
24901	13.841	4.4545	0.1	-4.745
24902	13.749	4.5455	0.1	-4.6607
24903	13.841	4.2727	0.1	-3.9902
24904	13.749	4.3636	0.1	-3.8244
24905	13.841	4.0909	0.1	-3.3271
24906	13.749	4.1818	0.1	-3.0815
24907	13.841	3.9091	0.1	-2.7593
24908	13.749	4.	0.1	-2.4363
24909	13.841	3.7273	0.1	-2.29
24910	13.749	3.8182	0.1	-1.8924
24911	13.841	3.5455	0.1	-1.9217
24912	13.749	3.6364	0.1	-1.4528
24913	13.841	3.3636	0.1	-1.6569
24914	13.749	3.4545	0.1	-1.1203
24915	13.841	3.1818	0.1	-1.4972
24916	13.749	3.2727	0.1	-0.897
24917	13.841	3.	0.1	-1.4438
24918	13.749	3.0909	0.1	-0.78471
24919	13.841	2.8182	0.1	-1.4972
24920	13.749	2.9091	0.1	-0.7847
24921	13.841	2.6364	0.1	-1.6569
24922	13.749	2.7273	0.1	-0.89699
24923	13.841	2.4545	0.1	-1.9217
24924	13.749	2.5455	0.1	-1.1203
24925	13.841	2.2727	0.1	-2.2899
24926	13.749	2.3636	0.1	-1.4528
24927	13.841	2.0909	0.1	-2.7593
24928	13.749	2.1818	0.1	-1.8923
24929	13.841	1.9091	0.1	-3.3271
24930	13.749	2.	0.1	-2.4363
24931	13.841	1.7273	0.1	-3.9902
24932	13.749	1.8182	0.1	-3.0815
24933	13.841	1.5455	0.1	-4.745
24934	13.749	1.6364	0.1	-3.8243
24935	13.841	1.3636	0.1	-5.5874
24936	13.749	1.4545	0.1	-4.6606
24937	13.841	1.1818	0.1	-6.5132
24938	13.749	1.2727	0.1	-5.5859
24939	13.841	1.	0.1	-7.5177
24940	13.749	1.0909	0.1	-6.5951
24941	13.841	0.81818	0.1	-8.5961
24942	13.749	0.90909	0.1	-7.6831
24943	13.841	0.63636	0.1	-9.746
24944	13.749	0.72727	0.1	-8.8448
24945	13.841	0.45455	0.1	-11.006
24946	13.749	0.54545	0.1	-10.08
24947	13.841	0.27273	0.1	-13.124
24948	13.749	0.36364	0.1	-11.467
24949	13.749	0.18182	0.1	-14.483
24950	13.841	9.0909e-002	0.1	-9.8705
24951	13.656	5.7273	0.1	-12.717
24952	13.564	5.8182	0.1	-14.107
24953	13.656	5.9091	0.1	-9.6361
24954	13.656	5.5455	0.1	-10.511
24955	13.564	5.6364	0.1	-11.014
24956	13.656	5.3636	0.1	-9.1527
24957	13.564	5.4545	0.1	-9.5234
24958	13.656	5.1818	0.1	-7.9065
24959	13.564	5.2727	0.1	-8.187
24960	13.656	5.	0.1	-6.7354
24961	13.564	5.0909	0.1	-6.927
24962	13.656	4.8182	0.1	-5.6428
24963	13.564	4.9091	0.1	-5.745
24964	13.656	4.6364	0.1	-4.6343
24965	13.564	4.7273	0.1	-4.647
24966	13.656	4.4545	0.1	-3.7154
24967	13.564	4.5455	0.1	-3.6392
24968	13.656	4.2727	0.1	-2.8913
24969	13.564	4.3636	0.1	-2.7273
24970	13.656	4.0909	0.1	-2.1666
24971	13.564	4.1818	0.1	-1.9168
24972	13.656	3.9091	0.1	-1.5457
24973	13.564	4.	0.1	-1.2129
24974	13.656	3.7273	0.1	-1.0322
24975	13.564	3.8182	0.1	-0.62151
24976	13.656	3.5455	0.1	-0.62914
24977	13.564	3.6364	0.1	-0.15977
24978	13.656	3.3636	0.1	-0.33875
24979	13.564	3.4545	0.1	-1.6364e-002
24980	13.656	3.1818	0.1	-0.16205
24981	13.564	3.2727	0.1	-8.3825e-003
24982	13.656	3.	0.1	-0.10111
24983	13.564	3.0909	0.1	-6.7307e-003
24984	13.656	2.8182	0.1	-0.16204
24985	13.564	2.9091	0.1	-6.7302e-003
24986	13.656	2.6364	0.1	-0.33874
24987	13.564	2.7273	0.1	-8.3825e-003
24988	13.656	2.4545	0.1	-0.62912
24989	13.564	2.5455	0.1	-1.6364e-002
24990	13.656	2.2727	0.1	-1.0322
24991	13.564	2.3636	0.1	-0.15975
24992	13.656	2.0909	0.1	-1.5457
24993	13.564	2.1818	0.1	-0.62149
24994	13.656	1.9091	0.1	-2.1666
24995	13.564	2.	0.1	-1.2129
24996	13.656	1.7273	0.1	-2.8912
24997	13.564	1.8182	0.1	-1.9167
24998	13.656	1.5455	0.1	-3.7154
24999	13.564	1.6364	0.1	-2.7272
25000	13.656	1.3636	0.1	-4.6342
25001	13.564	1.4545	0.1	-3.6391
25002	13.656	1.1818	0.1	-5.6427
25003	13.564	1.2727	0.1	-4.647
25004	13.656	1.	0.1	-6.7353
25005	13.564	1.0909	0.1	-5.745
25006	13.656	0.81818	0.1	-7.9064
25007	13.564	0.90909	0.1	-6.927
25008	13.656	0.63636	0.1	-9.1526
25009	13.564	0.72727	0.1	-8.1869
25010	13.656	0.45455	0.1	-10.511
25011	13.564	0.54545	0.1	-9.5234
25012	13.656	0.27273	0.1	-12.716
25013	13.564	0.36364	0.1	-11.014
25014	13.564	0.18182	0.1	-14.107
25015	13.656	9.0909e-002	0.1	-9.6361
25016	13.472	5.7273	0.1	-12.297
25017	13.379	5.8182	0.1	-13.723
25018	13.472	5.9091	0.1	-9.3972
25019	13.472	5.5455	0.1	-9.997
25020	13.379	5.6364	0.1	-10.544
25021	13.472	5.3636	0.1	-8.5323
25022	13.379	5.4545	0.1	-8.9425
25023	13.472	5.1818	0.1	-7.1826
25024	13.379	5.2727	0.1	-7.4967
25025	13.472	5.	0.1	-5.9119
25026	13.379	5.0909	0.1	-6.1311
25027	13.472	4.8182	0.1	-4.7247
25028	13.379	4.9091	0.1	-4.8481
25029	13.472	4.6364	0.1	-3.6276
25030	13.379	4.7273	0.1	-3.6549
25031	13.472	4.4545	0.1	-2.627
25032	13.379	4.5455	0.1	-2.5586
25033	13.472	4.2727	0.1	-1.7294
25034	13.379	4.3636	0.1	-1.5669
25035	13.472	4.0909	0.1	-0.9418
25036	13.379	4.1818	0.1	-0.69098
25037	13.472	3.9091	0.1	-0.28269
25038	13.379	4.	0.1	-6.9299e-002
25039	13.472	3.7273	0.1	-2.4228e-002
25040	13.379	3.8182	0.1	-1.5648e-002
25041	13.472	3.5455	0.1	-1.0853e-002
25042	13.379	3.6364	0.1	-9.6978e-003
25043	13.472	3.3636	0.1	-7.8534e-003
25044	13.379	3.4545	0.1	-7.6718e-003
25045	13.472	3.1818	0.1	-6.7752e-003
25046	13.379	3.2727	0.1	-6.7863e-003
25047	13.472	3.	0.1	-6.4847e-003
25048	13.379	3.0909	0.1	-6.4301e-003
25049	13.472	2.8182	0.1	-6.7744e-003
25050	13.379	2.9091	0.1	-6.4297e-003
25051	13.472	2.6364	0.1	-7.8538e-003
25052	13.379	2.7273	0.1	-6.7861e-003
25053	13.472	2.4545	0.1	-1.0853e-002
25054	13.379	2.5455	0.1	-7.6724e-003
25055	13.472	2.2727	0.1	-2.4226e-002
25056	13.379	2.3636	0.1	-9.6983e-003
25057	13.472	2.0909	0.1	-0.28267
25058	13.379	2.1818	0.1	-1.5647e-002
25059	13.472	1.9091	0.1	-0.94177
25060	13.379	2.	0.1	-6.9292e-002
25061	13.472	1.7273	0.1	-1.7294
25062	13.379	1.8182	0.1	-0.69095
25063	13.472	1.5455	0.1	-2.627
25064	13.379	1.6364	0.1	-1.5669
25065	13.472	1.3636	0.1	-3.6276
25066	13.379	1.4545	0.1	-2.5586
25067	13.472	1.1818	0.1	-4.7247
25068	13.379	1.2727	0.1	-3.6548
25069	13.472	1.	0.1	-5.9119
25070	13.379	1.0909	0.1	-4.8481
25071	13.472	0.81818	0.1	-7.1825
25072	13.379	0.90909	0.1	-6.131
25073	13.472	0.63636	0.1	-8.5323
25074	13.379	0.72727	0.1	-7.4967
25075	13.472	0.45455	0.1	-9.997
25076	13.379	0.54545	0.1	-8.9424
25077	13.472	0.27273	0.1	-12.297
25078	13.379	0.36364	0.1	-10.544
25079	13.379	0.18182	0.1	-13.723
25080	13.472	9.0909e-002	0.1	-9.3972
25081	13.287	5.7273	0.1	-11.863
25082	13.194	5.8182	0.1	-13.328
25083	13.287	5.9091	0.1	-9.1531
25084	13.287	5.5455	0.1	-9.4607
25085	13.194	5.6364	0.1	-10.055
25086	13.287	5.3636	0.1	-7.8819
25087	13.194	5.4545	0.1	-8.3343
25088	13.287	5.1818	0.1	-6.4207
25089	13.194	5.2727	0.1	-6.7708
25090	13.287	5.	0.1	-5.043
25091	13.194	5.0909	0.1	-5.2914
25092	13.287	4.8182	0.1	-3.7541
25093	13.194	4.9091	0.1	-3.8997
25094	13.287	4.6364	0.1	-2.5621
25095	13.194	4.7273	0.1	-2.6044
25096	13.287	4.4545	0.1	-1.4757
25097	13.194	4.5455	0.1	-1.4155
25098	13.287	4.2727	0.1	-0.5133
25099	13.194	4.3636	0.1	-0.36548
25100	13.287	4.0909	0.1	-3.5053e-002
25101	13.194	4.1818	0.1	-2.574e-002
25102	13.287	3.9091	0.1	-1.3543e-002
25103	13.194	4.	0.1	-1.2397e-002
25104	13.287	3.7273	0.1	-9.2858e-003
25105	13.194	3.8182	0.1	-8.9864e-003
25106	13.287	3.5455	0.1	-7.6053e-003
25107	13.194	3.6364	0.1	-7.5229e-003
25108	13.287	3.3636	0.1	-6.7977e-003
25109	13.194	3.4545	0.1	-6.777e-003
25110	13.287	3.1818	0.1	-6.4117e-003
25111	13.194	3.2727	0.1	-6.3849e-003
25112	13.287	3.	0.1	-6.2962e-003
25113	13.194	3.0909	0.1	-6.2132e-003
25114	13.287	2.8182	0.1	-6.4121e-003
25115	13.194	2.9091	0.1	-6.2133e-003
25116	13.287	2.6364	0.1	-6.7977e-003
25117	13.194	2.7273	0.1	-6.3849e-003
25118	13.287	2.4545	0.1	-7.6059e-003
25119	13.194	2.5455	0.1	-6.7773e-003
25120	13.287	2.2727	0.1	-9.2867e-003
25121	13.194	2.3636	0.1	-7.5234e-003
25122	13.287	2.0909	0.1	-1.3544e-002
25123	13.194	2.1818	0.1	-8.9868e-003
25124	13.287	1.9091	0.1	-3.5052e-002
25125	13.194	2.	0.1	-1.2398e-002
25126	13.287	1.7273	0.1	-0.51327
25127	13.194	1.8182	0.1	-2.574e-002
25128	13.287	1.5455	0.1	-1.4756
25129	13.194	1.6364	0.1	-0.36544
25130	13.287	1.3636	0.1	-2.5621
25131	13.194	1.4545	0.1	-1.4154
25132	13.287	1.1818	0.1	-3.7541
25133	13.194	1.2727	0.1	-2.6043
25134	13.287	1.	0.1	-5.0429
25135	13.194	1.0909	0.1	-3.8997
25136	13.287	0.81818	0.1	-6.4207
25137	13.194	0.90909	0.1	-5.2913
25138	13.287	0.63636	0.1	-7.8819
25139	13.194	0.72727	0.1	-6.7708
25140	13.287	0.45455	0.1	-9.4606
25141	13.194	0.54545	0.1	-8.3342
25142	13.287	0.27273	0.1	-11.863
25143	13.194	0.36364	0.1	-10.055
25144	13.194	0.18182	0.1	-13.328
25145	13.287	9.0909e-002	0.1	-9.1531
25146	13.102	5.7273	0.1	-11.415
25147	13.01	5.8182	0.1	-12.922
25148	13.102	5.9091	0.1	-8.9032
25149	13.102	5.5455	0.1	-8.9003
25150	13.01	5.6364	0.1	-9.5454
25151	13.102	5.3636	0.1	-7.1986
25152	13.01	5.4545	0.1	-7.6961
25153	13.102	5.1818	0.1	-5.6174
25154	13.01	5.2727	0.1	-6.0058
25155	13.102	5.	0.1	-4.1242
25156	13.01	5.0909	0.1	-4.4037
25157	13.102	4.8182	0.1	-2.7263
25158	13.01	4.9091	0.1	-2.8953
25159	13.102	4.6364	0.1	-1.4346
25160	13.01	4.7273	0.1	-1.4923
25161	13.102	4.4545	0.1	-0.29645
25162	13.01	4.5455	0.1	-0.25661
25163	13.102	4.2727	0.1	-2.2793e-002
25164	13.01	4.3636	0.1	-2.0971e-002
25165	13.102	4.0909	0.1	-1.1901e-002
25166	13.01	4.1818	0.1	-1.1476e-002
25167	13.102	3.9091	0.1	-8.8419e-003
25168	13.01	4.	0.1	-8.6756e-003
25169	13.102	3.7273	0.1	-7.479e-003
25170	13.01	3.8182	0.1	-7.3987e-003
25171	13.102	3.5455	0.1	-6.7601e-003
25172	13.01	3.6364	0.1	-6.7102e-003
25173	13.102	3.3636	0.1	-6.3615e-003
25174	13.01	3.4545	0.1	-6.3147e-003
25175	13.102	3.1818	0.1	-6.1566e-003
25176	13.01	3.2727	0.1	-6.0926e-003
25177	13.102	3.	0.1	-6.0932e-003
25178	13.01	3.0909	0.1	-5.9921e-003
25179	13.102	2.8182	0.1	-6.1564e-003
25180	13.01	2.9091	0.1	-5.9918e-003
25181	13.102	2.6364	0.1	-6.3618e-003
25182	13.01	2.7273	0.1	-6.093e-003
25183	13.102	2.4545	0.1	-6.7603e-003
25184	13.01	2.5455	0.1	-6.3155e-003
25185	13.102	2.2727	0.1	-7.4789e-003
25186	13.01	2.3636	0.1	-6.7097e-003
25187	13.102	2.0909	0.1	-8.8421e-003
25188	13.01	2.1818	0.1	-7.3987e-003
25189	13.102	1.9091	0.1	-1.1901e-002
25190	13.01	2.	0.1	-8.6759e-003
25191	13.102	1.7273	0.1	-2.2793e-002
25192	13.01	1.8182	0.1	-1.1476e-002
25193	13.102	1.5455	0.1	-0.29642
25194	13.01	1.6364	0.1	-2.0971e-002
25195	13.102	1.3636	0.1	-1.4346
25196	13.01	1.4545	0.1	-0.25658
25197	13.102	1.1818	0.1	-2.7262
25198	13.01	1.2727	0.1	-1.4922
25199	13.102	1.	0.1	-4.1242
25200	13.01	1.0909	0.1	-2.8952
25201	13.102	0.81818	0.1	-5.6173
25202	13.01	0.90909	0.1	-4.4037
25203	13.102	0.63636	0.1	-7.1985
25204	13.01	0.72727	0.1	-6.0058
25205	13.102	0.45455	0.1	-8.9003
25206	13.01	0.54545	0.1	-7.696
25207	13.102	0.27273	0.1	-11.415
25208	13.01	0.36364	0.1	-9.5454
25209	13.01	0.18182	0.1	-12.922
25210	13.102	9.0909e-002	0.1	-8.9032
25211	12.917	5.7273	0.1	-10.949
25212	12.825	5.8182	0.1	-12.504
25213	12.917	5.9091	0.1	-8.6468
25214	12.917	5.5455	0.1	-8.3135
25215	12.825	5.6364	0.1	-9.0136
25216	12.917	5.3636	0.1	-6.4791
25217	12.825	5.4545	0.1	-7.0253
25218	12.917	5.1818	0.1	-4.7684
25219	12.825	5.2727	0.1	-5.1982
25220	12.917	5.	0.1	-3.1511
25221	12.825	5.0909	0.1	-3.4639
25222	12.917	4.8182	0.1	-1.6374
25223	12.825	4.9091	0.1	-1.8308
25224	12.917	4.6364	0.1	-0.28627
25225	12.825	4.7273	0.1	-0.34901
25226	12.917	4.4545	0.1	-2.0696e-002
25227	12.825	4.5455	0.1	-2.0635e-002
25228	12.917	4.2727	0.1	-1.1327e-002
25229	12.825	4.3636	0.1	-1.1169e-002
25230	12.917	4.0909	0.1	-8.5945e-003
25231	12.825	4.1818	0.1	-8.4931e-003
25232	12.917	3.9091	0.1	-7.348e-003
25233	12.825	4.	0.1	-7.2812e-003
25234	12.917	3.7273	0.1	-6.6692e-003
25235	12.825	3.8182	0.1	-6.6183e-003
25236	12.917	3.5455	0.1	-6.2708e-003
25237	12.825	3.6364	0.1	-6.2237e-003
25238	12.917	3.3636	0.1	-6.0356e-003
25239	12.825	3.4545	0.1	-5.9831e-003
25240	12.917	3.1818	0.1	-5.9102e-003
25241	12.825	3.2727	0.1	-5.8426e-003
25242	12.917	3.	0.1	-5.8705e-003
25243	12.825	3.0909	0.1	-5.7775e-003
25244	12.917	2.8182	0.1	-5.9105e-003
25245	12.825	2.9091	0.1	-5.7771e-003
25246	12.917	2.6364	0.1	-6.0365e-003
25247	12.825	2.7273	0.1	-5.843e-003
25248	12.917	2.4545	0.1	-6.2709e-003
25249	12.825	2.5455	0.1	-5.9835e-003
25250	12.917	2.2727	0.1	-6.6687e-003
25251	12.825	2.3636	0.1	-6.2232e-003
25252	12.917	2.0909	0.1	-7.3481e-003
25253	12.825	2.1818	0.1	-6.6186e-003
25254	12.917	1.9091	0.1	-8.5949e-003
25255	12.825	2.	0.1	-7.2815e-003
25256	12.917	1.7273	0.1	-1.1327e-002
25257	12.825	1.8182	0.1	-8.4935e-003
25258	12.917	1.5455	0.1	-2.0696e-002
25259	12.825	1.6364	0.1	-1.1169e-002
25260	12.917	1.3636	0.1	-0.28623
25261	12.825	1.4545	0.1	-2.0635e-002
25262	12.917	1.1818	0.1	-1.6374
25263	12.825	1.2727	0.1	-0.34897
25264	12.917	1.	0.1	-3.151
25265	12.825	1.0909	0.1	-1.8308
25266	12.917	0.81818	0.1	-4.7683
25267	12.825	0.90909	0.1	-3.4638
25268	12.917	0.63636	0.1	-6.479
25269	12.825	0.72727	0.1	-5.1981
25270	12.917	0.45455	0.1	-8.3135
25271	12.825	0.54545	0.1	-7.0252
25272	12.917	0.27273	0.1	-10.949
25273	12.825	0.36364	0.1	-9.0135
25274	12.825	0.18182	0.1	-12.503
25275	12.917	9.0909e-002	0.1	-8.6468
25276	12.733	5.7273	0.1	-10.466
25277	12.64	5.8182	0.1	-12.072
25278	12.733	5.9091	0.1	-8.3832
25279	12.733	5.5455	0.1	-7.6981
25280	12.64	5.6364	0.1	-8.4574
25281	12.733	5.3636	0.1	-5.7205
25282	12.64	5.4545	0.1	-6.3191
25283	12.733	5.1818	0.1	-3.8701
25284	12.64	5.2727	0.1	-4.3443
25285	12.733	5.	0.1	-2.1197
25286	12.64	5.0909	0.1	-2.4679
25287	12.733	4.8182	0.1	-0.50278
25288	12.64	4.9091	0.1	-0.7121
25289	12.733	4.6364	0.1	-2.1864e-002
25290	12.64	4.7273	0.1	-2.3622e-002
25291	12.733	4.4545	0.1	-1.1224e-002
25292	12.64	4.5455	0.1	-1.1243e-002
25293	12.733	4.2727	0.1	-8.4638e-003
25294	12.64	4.3636	0.1	-8.3935e-003
25295	12.733	4.0909	0.1	-7.2435e-003
25296	12.64	4.1818	0.1	-7.1729e-003
25297	12.733	3.9091	0.1	-6.5807e-003
25298	12.64	4.	0.1	-6.5176e-003
25299	12.733	3.7273	0.1	-6.183e-003
25300	12.64	3.8182	0.1	-6.1222e-003
25301	12.733	3.5455	0.1	-5.9353e-003
25302	12.64	3.6364	0.1	-5.8722e-003
25303	12.733	3.3636	0.1	-5.783e-003
25304	12.64	3.4545	0.1	-5.7128e-003
25305	12.733	3.1818	0.1	-5.6994e-003
25306	12.64	3.2727	0.1	-5.6169e-003
25307	12.733	3.	0.1	-5.6726e-003
25308	12.64	3.0909	0.1	-5.5714e-003
25309	12.733	2.8182	0.1	-5.6992e-003
25310	12.64	2.9091	0.1	-5.5713e-003
25311	12.733	2.6364	0.1	-5.7829e-003
25312	12.64	2.7273	0.1	-5.617e-003
25313	12.733	2.4545	0.1	-5.9351e-003
25314	12.64	2.5455	0.1	-5.713e-003
25315	12.733	2.2727	0.1	-6.1832e-003
25316	12.64	2.3636	0.1	-5.8717e-003
25317	12.733	2.0909	0.1	-6.5811e-003
25318	12.64	2.1818	0.1	-6.1228e-003
25319	12.733	1.9091	0.1	-7.2438e-003
25320	12.64	2.	0.1	-6.5175e-003
25321	12.733	1.7273	0.1	-8.4645e-003
25322	12.64	1.8182	0.1	-7.1736e-003
25323	12.733	1.5455	0.1	-1.1224e-002
25324	12.64	1.6364	0.1	-8.3937e-003
25325	12.733	1.3636	0.1	-2.1864e-002
25326	12.64	1.4545	0.1	-1.1243e-002
25327	12.733	1.1818	0.1	-0.50273
25328	12.64	1.2727	0.1	-2.3622e-002
25329	12.733	1.	0.1	-2.1196
25330	12.64	1.0909	0.1	-0.71204
25331	12.733	0.81818	0.1	-3.8701
25332	12.64	0.90909	0.1	-2.4678
25333	12.733	0.63636	0.1	-5.7204
25334	12.64	0.72727	0.1	-4.3443
25335	12.733	0.45455	0.1	-7.6981
25336	12.64	0.54545	0.1	-6.3191
25337	12.733	0.27273	0.1	-10.466
25338	12.64	0.36364	0.1	-8.4574
25339	12.64	0.18182	0.1	-12.072
25340	12.733	9.0909e-002	0.1	-8.3831
25341	12.548	5.7273	0.1	-9.963
25342	12.456	5.8182	0.1	-11.625
25343	12.548	5.9091	0.1	-8.1116
25344	12.548	5.5455	0.1	-7.0516
25345	12.456	5.6364	0.1	-7.8749
25346	12.548	5.3636	0.1	-4.9194
25347	12.456	5.4545	0.1	-5.5747
25348	12.548	5.1818	0.1	-2.9185
25349	12.456	5.2727	0.1	-3.4406
25350	12.548	5.	0.1	-1.0298
25351	12.456	5.0909	0.1	-1.4131
25352	12.548	4.8182	0.1	-2.8317e-002
25353	12.456	4.9091	0.1	-3.7965e-002
25354	12.548	4.6364	0.1	-1.1502e-002
25355	12.456	4.7273	0.1	-1.1767e-002
25356	12.548	4.4545	0.1	-8.3981e-003
25357	12.456	4.5455	0.1	-8.3623e-003
25358	12.548	4.2727	0.1	-7.1355e-003
25359	12.456	4.3636	0.1	-7.0657e-003
25360	12.548	4.0909	0.1	-6.4706e-003
25361	12.456	4.1818	0.1	-6.3985e-003
25362	12.548	3.9091	0.1	-6.072e-003
25363	12.456	4.	0.1	-6.0017e-003
25364	12.548	3.7273	0.1	-5.8163e-003
25365	12.456	3.8182	0.1	-5.7445e-003
25366	12.548	3.5455	0.1	-5.6492e-003
25367	12.456	3.6364	0.1	-5.5729e-003
25368	12.548	3.3636	0.1	-5.5429e-003
25369	12.456	3.4545	0.1	-5.4592e-003
25370	12.548	3.1818	0.1	-5.4832e-003
25371	12.456	3.2727	0.1	-5.3886e-003
25372	12.548	3.	0.1	-5.4638e-003
25373	12.456	3.0909	0.1	-5.3544e-003
25374	12.548	2.8182	0.1	-5.4834e-003
25375	12.456	2.9091	0.1	-5.3545e-003
25376	12.548	2.6364	0.1	-5.5433e-003
25377	12.456	2.7273	0.1	-5.3887e-003
25378	12.548	2.4545	0.1	-5.6492e-003
25379	12.456	2.5455	0.1	-5.4594e-003
25380	12.548	2.2727	0.1	-5.8162e-003
25381	12.456	2.3636	0.1	-5.5723e-003
25382	12.548	2.0909	0.1	-6.072e-003
25383	12.456	2.1818	0.1	-5.7445e-003
25384	12.548	1.9091	0.1	-6.4708e-003
25385	12.456	2.	0.1	-6.0019e-003
25386	12.548	1.7273	0.1	-7.1357e-003
25387	12.456	1.8182	0.1	-6.3995e-003
25388	12.548	1.5455	0.1	-8.3981e-003
25389	12.456	1.6364	0.1	-7.0656e-003
25390	12.548	1.3636	0.1	-1.1502e-002
25391	12.456	1.4545	0.1	-8.3628e-003
25392	12.548	1.1818	0.1	-2.8317e-002
25393	12.456	1.2727	0.1	-1.1767e-002
25394	12.548	1.	0.1	-1.0298
25395	12.456	1.0909	0.1	-3.7963e-002
25396	12.548	0.81818	0.1	-2.9184
25397	12.456	0.90909	0.1	-1.413
25398	12.548	0.63636	0.1	-4.9193
25399	12.456	0.72727	0.1	-3.4406
25400	12.548	0.45455	0.1	-7.0515
25401	12.456	0.54545	0.1	-5.5746
25402	12.548	0.27273	0.1	-9.963
25403	12.456	0.36364	0.1	-7.8749
25404	12.456	0.18182	0.1	-11.625
25405	12.548	9.0909e-002	0.1	-8.1116
25406	12.363	5.7273	0.1	-9.4386
25407	12.271	5.8182	0.1	-11.163
25408	12.363	5.9091	0.1	-7.8314
25409	12.363	5.5455	0.1	-6.3715
25410	12.271	5.6364	0.1	-7.2641
25411	12.363	5.3636	0.1	-4.0726
25412	12.271	5.4545	0.1	-4.7893
25413	12.363	5.1818	0.1	-1.9101
25414	12.271	5.2727	0.1	-2.4836
25415	12.363	5.	0.1	-8.107e-002
25416	12.271	5.0909	0.1	-0.32663
25417	12.363	4.8182	0.1	-1.2429e-002
25418	12.271	4.9091	0.1	-1.3346e-002
25419	12.363	4.6364	0.1	-8.4123e-003
25420	12.271	4.7273	0.1	-8.4548e-003
25421	12.363	4.4545	0.1	-7.0332e-003
25422	12.271	4.5455	0.1	-6.9929e-003
25423	12.363	4.2727	0.1	-6.3476e-003
25424	12.271	4.3636	0.1	-6.2965e-003
25425	12.363	4.0909	0.1	-5.9443e-003
25426	12.271	4.1818	0.1	-5.8924e-003
25427	12.363	3.9091	0.1	-5.6831e-003
25428	12.271	4.	0.1	-5.6306e-003
25429	12.363	3.7273	0.1	-5.5053e-003
25430	12.271	3.8182	0.1	-5.4481e-003
25431	12.363	3.5455	0.1	-5.3837e-003
25432	12.271	3.6364	0.1	-5.3197e-003
25433	12.363	3.3636	0.1	-5.3035e-003
25434	12.271	3.4545	0.1	-5.2315e-003
25435	12.363	3.1818	0.1	-5.257e-003
25436	12.271	3.2727	0.1	-5.1748e-003
25437	12.363	3.	0.1	-5.2419e-003
25438	12.271	3.0909	0.1	-5.1468e-003
25439	12.363	2.8182	0.1	-5.2571e-003
25440	12.271	2.9091	0.1	-5.1468e-003
25441	12.363	2.6364	0.1	-5.3034e-003
25442	12.271	2.7273	0.1	-5.175e-003
25443	12.363	2.4545	0.1	-5.3834e-003
25444	12.271	2.5455	0.1	-5.2315e-003
25445	12.363	2.2727	0.1	-5.5049e-003
25446	12.271	2.3636	0.1	-5.3197e-003
25447	12.363	2.0909	0.1	-5.6833e-003
25448	12.271	2.1818	0.1	-5.4484e-003
25449	12.363	1.9091	0.1	-5.9453e-003
25450	12.271	2.	0.1	-5.631e-003
25451	12.363	1.7273	0.1	-6.3483e-003
25452	12.271	1.8182	0.1	-5.893e-003
25453	12.363	1.5455	0.1	-7.0336e-003
25454	12.271	1.6364	0.1	-6.2966e-003
25455	12.363	1.3636	0.1	-8.413e-003
25456	12.271	1.4545	0.1	-6.9934e-003
25457	12.363	1.1818	0.1	-1.243e-002
25458	12.271	1.2727	0.1	-8.4552e-003
25459	12.363	1.	0.1	-8.1057e-002
25460	12.271	1.0909	0.1	-1.3347e-002
25461	12.363	0.81818	0.1	-1.91
25462	12.271	0.90909	0.1	-0.32658
25463	12.363	0.63636	0.1	-4.0725
25464	12.271	0.72727	0.1	-2.4835
25465	12.363	0.45455	0.1	-6.3715
25466	12.271	0.54545	0.1	-4.7892
25467	12.363	0.27273	0.1	-9.4385
25468	12.271	0.36364	0.1	-7.2641
25469	12.271	0.18182	0.1	-11.163
25470	12.363	9.0909e-002	0.1	-7.8313
25471	12.179	5.7273	0.1	-8.8914
25472	12.086	5.8182	0.1	-10.683
25473	12.179	5.9091	0.1	-7.5419
25474	12.179	5.5455	0.1	-5.6558
25475	12.086	5.6364	0.1	-6.6233
25476	12.179	5.3636	0.1	-3.1769
25477	12.086	5.4545	0.1	-3.9601
25478	12.179	5.1818	0.1	-0.84614
25479	12.086	5.2727	0.1	-1.4707
25480	12.179	5.	0.1	-1.5392e-002
25481	12.086	5.0909	0.1	-1.9698e-002
25482	12.179	4.8182	0.1	-8.6227e-003
25483	12.086	4.9091	0.1	-8.7748e-003
25484	12.179	4.6364	0.1	-6.9936e-003
25485	12.086	4.7273	0.1	-6.9466e-003
25486	12.179	4.4545	0.1	-6.2694e-003
25487	12.086	4.5455	0.1	-6.2024e-003
25488	12.179	4.2727	0.1	-5.8574e-003
25489	12.086	4.3636	0.1	-5.7879e-003
25490	12.179	4.0909	0.1	-5.5909e-003
25491	12.086	4.1818	0.1	-5.5203e-003
25492	12.179	3.9091	0.1	-5.4035e-003
25493	12.086	4.	0.1	-5.3304e-003
25494	12.179	3.7273	0.1	-5.267e-003
25495	12.086	3.8182	0.1	-5.1872e-003
25496	12.179	3.5455	0.1	-5.1693e-003
25497	12.086	3.6364	0.1	-5.0806e-003
25498	12.179	3.3636	0.1	-5.103e-003
25499	12.086	3.4545	0.1	-5.0037e-003
25500	12.179	3.1818	0.1	-5.0638e-003
25501	12.086	3.2727	0.1	-4.9531e-003
25502	12.179	3.	0.1	-5.0505e-003
25503	12.086	3.0909	0.1	-4.9275e-003
25504	12.179	2.8182	0.1	-5.0638e-003
25505	12.086	2.9091	0.1	-4.9275e-003
25506	12.179	2.6364	0.1	-5.1033e-003
25507	12.086	2.7273	0.1	-4.9532e-003
25508	12.179	2.4545	0.1	-5.1697e-003
25509	12.086	2.5455	0.1	-5.004e-003
25510	12.179	2.2727	0.1	-5.2676e-003
25511	12.086	2.3636	0.1	-5.0806e-003
25512	12.179	2.0909	0.1	-5.4039e-003
25513	12.086	2.1818	0.1	-5.1878e-003
25514	12.179	1.9091	0.1	-5.5908e-003
25515	12.086	2.	0.1	-5.3306e-003
25516	12.179	1.7273	0.1	-5.8574e-003
25517	12.086	1.8182	0.1	-5.5203e-003
25518	12.179	1.5455	0.1	-6.2697e-003
25519	12.086	1.6364	0.1	-5.7884e-003
25520	12.179	1.3636	0.1	-6.9939e-003
25521	12.086	1.4545	0.1	-6.2024e-003
25522	12.179	1.1818	0.1	-8.623e-003
25523	12.086	1.2727	0.1	-6.9472e-003
25524	12.179	1.	0.1	-1.5393e-002
25525	12.086	1.0909	0.1	-8.7753e-003
25526	12.179	0.81818	0.1	-0.84608
25527	12.086	0.90909	0.1	-1.9699e-002
25528	12.179	0.63636	0.1	-3.1768
25529	12.086	0.72727	0.1	-1.4706
25530	12.179	0.45455	0.1	-5.6557
25531	12.086	0.54545	0.1	-3.9601
25532	12.179	0.27273	0.1	-8.8914
25533	12.086	0.36364	0.1	-6.6233
25534	12.086	0.18182	0.1	-10.683
25535	12.179	9.0909e-002	0.1	-7.5419
25536	11.994	5.7273	0.1	-8.3199
25537	11.902	5.8182	0.1	-10.186
25538	11.994	5.9091	0.1	-7.2425
25539	11.994	5.5455	0.1	-4.9018
25540	11.902	5.6364	0.1	-5.9505
25541	11.994	5.3636	0.1	-2.2292
25542	11.902	5.4545	0.1	-3.0844
25543	11.994	5.1818	0.1	-4.1752e-002
25544	11.902	5.2727	0.1	-0.41188
25545	11.994	5.	0.1	-9.1324e-003
25546	11.902	5.0909	0.1	-9.6664e-003
25547	11.994	4.8182	0.1	-6.9561e-003
25548	11.902	4.9091	0.1	-6.9498e-003
25549	11.994	4.6364	0.1	-6.1591e-003
25550	11.902	4.7273	0.1	-6.1021e-003
25551	11.994	4.4545	0.1	-5.7382e-003
25552	11.902	4.5455	0.1	-5.6816e-003
25553	11.994	4.2727	0.1	-5.4659e-003
25554	11.902	4.3636	0.1	-5.4095e-003
25555	11.994	4.0909	0.1	-5.2708e-003
25556	11.902	4.1818	0.1	-5.2111e-003
25557	11.994	3.9091	0.1	-5.1216e-003
25558	11.902	4.	0.1	-5.0556e-003
25559	11.994	3.7273	0.1	-5.0055e-003
25560	11.902	3.8182	0.1	-4.9291e-003
25561	11.994	3.5455	0.1	-4.9175e-003
25562	11.902	3.6364	0.1	-4.8293e-003
25563	11.994	3.3636	0.1	-4.855e-003
25564	11.902	3.4545	0.1	-4.7542e-003
25565	11.994	3.1818	0.1	-4.8171e-003
25566	11.902	3.2727	0.1	-4.7029e-003
25567	11.994	3.	0.1	-4.8045e-003
25568	11.902	3.0909	0.1	-4.677e-003
25569	11.994	2.8182	0.1	-4.8172e-003
25570	11.902	2.9091	0.1	-4.677e-003
25571	11.994	2.6364	0.1	-4.855e-003
25572	11.902	2.7273	0.1	-4.7031e-003
25573	11.994	2.4545	0.1	-4.9174e-003
25574	11.902	2.5455	0.1	-4.7545e-003
25575	11.994	2.2727	0.1	-5.0054e-003
25576	11.902	2.3636	0.1	-4.8289e-003
25577	11.994	2.0909	0.1	-5.1219e-003
25578	11.902	2.1818	0.1	-4.9296e-003
25579	11.994	1.9091	0.1	-5.2711e-003
25580	11.902	2.	0.1	-5.0556e-003
25581	11.994	1.7273	0.1	-5.4664e-003
25582	11.902	1.8182	0.1	-5.2114e-003
25583	11.994	1.5455	0.1	-5.7384e-003
25584	11.902	1.6364	0.1	-5.4101e-003
25585	11.994	1.3636	0.1	-6.1595e-003
25586	11.902	1.4545	0.1	-5.6819e-003
25587	11.994	1.1818	0.1	-6.9569e-003
25588	11.902	1.2727	0.1	-6.103e-003
25589	11.994	1.	0.1	-9.1334e-003
25590	11.902	1.0909	0.1	-6.95e-003
25591	11.994	0.81818	0.1	-4.1749e-002
25592	11.902	0.90909	0.1	-9.6681e-003
25593	11.994	0.63636	0.1	-2.2291
25594	11.902	0.72727	0.1	-0.41183
25595	11.994	0.45455	0.1	-4.9018
25596	11.902	0.54545	0.1	-3.0844
25597	11.994	0.27273	0.1	-8.3199
25598	11.902	0.36364	0.1	-5.9505
25599	11.902	0.18182	0.1	-10.186
25600	11.994	9.0909e-002	0.1	-7.2425
25601	11.809	5.7273	0.1	-7.7229
25602	11.717	5.8182	0.1	-9.6691
25603	11.809	5.9091	0.1	-6.9325
25604	11.809	5.5455	0.1	-4.1075
25605	11.717	5.6364	0.1	-5.2442
25606	11.809	5.3636	0.1	-1.2274
25607	11.717	5.4545	0.1	-2.1599
25608	11.809	5.1818	0.1	-1.1179e-002
25609	11.717	5.2727	0.1	-1.5675e-002
25610	11.809	5.	0.1	-6.9872e-003
25611	11.717	5.0909	0.1	-7.0453e-003
25612	11.809	4.8182	0.1	-6.0792e-003
25613	11.717	4.9091	0.1	-6.066e-003
25614	11.809	4.6364	0.1	-5.6427e-003
25615	11.717	4.7273	0.1	-5.6212e-003
25616	11.809	4.4545	0.1	-5.3711e-003
25617	11.717	4.5455	0.1	-5.3556e-003
25618	11.809	4.2727	0.1	-5.1688e-003
25619	11.717	4.3636	0.1	-5.1517e-003
25620	11.809	4.0909	0.1	-5.006e-003
25621	11.717	4.1818	0.1	-4.9825e-003
25622	11.809	3.9091	0.1	-4.87e-003
25623	11.717	4.	0.1	-4.8366e-003
25624	11.809	3.7273	0.1	-4.7574e-003
25625	11.717	3.8182	0.1	-4.7095e-003
25626	11.809	3.5455	0.1	-4.6687e-003
25627	11.717	3.6364	0.1	-4.6044e-003
25628	11.809	3.3636	0.1	-4.6036e-003
25629	11.717	3.4545	0.1	-4.5238e-003
25630	11.809	3.1818	0.1	-4.5636e-003
25631	11.717	3.2727	0.1	-4.4674e-003
25632	11.809	3.	0.1	-4.5501e-003
25633	11.717	3.0909	0.1	-4.4386e-003
25634	11.809	2.8182	0.1	-4.5638e-003
25635	11.717	2.9091	0.1	-4.4386e-003
25636	11.809	2.6364	0.1	-4.6041e-003
25637	11.717	2.7273	0.1	-4.4678e-003
25638	11.809	2.4545	0.1	-4.6687e-003
25639	11.717	2.5455	0.1	-4.524e-003
25640	11.809	2.2727	0.1	-4.7576e-003
25641	11.717	2.3636	0.1	-4.605e-003
25642	11.809	2.0909	0.1	-4.8702e-003
25643	11.717	2.1818	0.1	-4.7101e-003
25644	11.809	1.9091	0.1	-5.006e-003
25645	11.717	2.	0.1	-4.8364e-003
25646	11.809	1.7273	0.1	-5.1692e-003
25647	11.717	1.8182	0.1	-4.9825e-003
25648	11.809	1.5455	0.1	-5.3718e-003
25649	11.717	1.6364	0.1	-5.1519e-003
25650	11.809	1.3636	0.1	-5.6436e-003
25651	11.717	1.4545	0.1	-5.3564e-003
25652	11.809	1.1818	0.1	-6.0797e-003
25653	11.717	1.2727	0.1	-5.622e-003
25654	11.809	1.	0.1	-6.9881e-003
25655	11.717	1.0909	0.1	-6.0665e-003
25656	11.809	0.81818	0.1	-1.1181e-002
25657	11.717	0.90909	0.1	-7.0468e-003
25658	11.809	0.63636	0.1	-1.2273
25659	11.717	0.72727	0.1	-1.5676e-002
25660	11.809	0.45455	0.1	-4.1075
25661	11.717	0.54545	0.1	-2.1599
25662	11.809	0.27273	0.1	-7.7228
25663	11.717	0.36364	0.1	-5.2442
25664	11.717	0.18182	0.1	-9.6691
25665	11.809	9.0909e-002	0.1	-6.9325
25666	11.624	5.7273	0.1	-7.0991
25667	11.532	5.8182	0.1	-9.133
25668	11.624	5.9091	0.1	-6.6116
25669	11.624	5.5455	0.1	-3.2711
25670	11.532	5.6364	0.1	-4.503
25671	11.624	5.3636	0.1	-0.19281
25672	11.532	5.4545	0.1	-1.1846
25673	11.624	5.1818	0.1	-7.3757e-003
25674	11.532	5.2727	0.1	-7.8738e-003
25675	11.624	5.	0.1	-6.0506e-003
25676	11.532	5.0909	0.1	-6.0114e-003
25677	11.624	4.8182	0.1	-5.6265e-003
25678	11.532	4.9091	0.1	-5.6233e-003
25679	11.624	4.6364	0.1	-5.3562e-003
25680	11.532	4.7273	0.1	-5.3543e-003
25681	11.624	4.4545	0.1	-5.1537e-003
25682	11.532	4.5455	0.1	-5.157e-003
25683	11.624	4.2727	0.1	-4.9783e-003
25684	11.532	4.3636	0.1	-4.9757e-003
25685	11.624	4.0909	0.1	-4.8223e-003
25686	11.532	4.1818	0.1	-4.8083e-003
25687	11.624	3.9091	0.1	-4.6824e-003
25688	11.532	4.	0.1	-4.6537e-003
25689	11.624	3.7273	0.1	-4.5606e-003
25690	11.532	3.8182	0.1	-4.5135e-003
25691	11.624	3.5455	0.1	-4.462e-003
25692	11.532	3.6364	0.1	-4.3937e-003
25693	11.624	3.3636	0.1	-4.389e-003
25694	11.532	3.4545	0.1	-4.2999e-003
25695	11.624	3.1818	0.1	-4.3432e-003
25696	11.532	3.2727	0.1	-4.2345e-003
25697	11.624	3.	0.1	-4.3276e-003
25698	11.532	3.0909	0.1	-4.2002e-003
25699	11.624	2.8182	0.1	-4.3434e-003
25700	11.532	2.9091	0.1	-4.2006e-003
25701	11.624	2.6364	0.1	-4.3892e-003
25702	11.532	2.7273	0.1	-4.2345e-003
25703	11.624	2.4545	0.1	-4.4628e-003
25704	11.532	2.5455	0.1	-4.3003e-003
25705	11.624	2.2727	0.1	-4.5616e-003
25706	11.532	2.3636	0.1	-4.394e-003
25707	11.624	2.0909	0.1	-4.6825e-003
25708	11.532	2.1818	0.1	-4.514e-003
25709	11.624	1.9091	0.1	-4.8221e-003
25710	11.532	2.	0.1	-4.6534e-003
25711	11.624	1.7273	0.1	-4.9781e-003
25712	11.532	1.8182	0.1	-4.809e-003
25713	11.624	1.5455	0.1	-5.1539e-003
25714	11.532	1.6364	0.1	-4.9758e-003
25715	11.624	1.3636	0.1	-5.3568e-003
25716	11.532	1.4545	0.1	-5.1578e-003
25717	11.624	1.1818	0.1	-5.6273e-003
25718	11.532	1.2727	0.1	-5.3547e-003
25719	11.624	1.	0.1	-6.0517e-003
25720	11.532	1.0909	0.1	-5.6245e-003
25721	11.624	0.81818	0.1	-7.3768e-003
25722	11.532	0.90909	0.1	-6.0128e-003
25723	11.624	0.63636	0.1	-0.19277
25724	11.532	0.72727	0.1	-7.8748e-003
25725	11.624	0.45455	0.1	-3.271
25726	11.532	0.54545	0.1	-1.1846
25727	11.624	0.27273	0.1	-7.0991
25728	11.532	0.36364	0.1	-4.503
25729	11.532	0.18182	0.1	-9.133
25730	11.624	9.0909e-002	0.1	-6.6116
25731	11.44	5.7273	0.1	-6.4476
25732	11.347	5.8182	0.1	-8.5767
25733	11.44	5.9091	0.1	-6.2792
25734	11.44	5.5455	0.1	-2.3905
25735	11.347	5.6364	0.1	-3.7258
25736	11.44	5.3636	0.1	-8.7692e-003
25737	11.347	5.4545	0.1	-0.16665
25738	11.44	5.1818	0.1	-6.1538e-003
25739	11.347	5.2727	0.1	-6.3016e-003
25740	11.44	5.	0.1	-5.6015e-003
25741	11.347	5.0909	0.1	-5.5731e-003
25742	11.44	4.8182	0.1	-5.3784e-003
25743	11.347	4.9091	0.1	-5.4114e-003
25744	11.44	4.6364	0.1	-5.1766e-003
25745	11.347	4.7273	0.1	-5.2077e-003
25746	11.44	4.4545	0.1	-4.9947e-003
25747	11.347	4.5455	0.1	-5.0272e-003
25748	11.44	4.2727	0.1	-4.817e-003
25749	11.347	4.3636	0.1	-4.8383e-003
25750	11.44	4.0909	0.1	-4.6477e-003
25751	11.347	4.1818	0.1	-4.6528e-003
25752	11.44	3.9091	0.1	-4.4902e-003
25753	11.347	4.	0.1	-4.4742e-003
25754	11.44	3.7273	0.1	-4.35e-003
25755	11.347	3.8182	0.1	-4.3091e-003
25756	11.44	3.5455	0.1	-4.2336e-003
25757	11.347	3.6364	0.1	-4.1663e-003
25758	11.44	3.3636	0.1	-4.1464e-003
25759	11.347	3.4545	0.1	-4.053e-003
25760	11.44	3.1818	0.1	-4.092e-003
25761	11.347	3.2727	0.1	-3.9736e-003
25762	11.44	3.	0.1	-4.0735e-003
25763	11.347	3.0909	0.1	-3.9325e-003
25764	11.44	2.8182	0.1	-4.0921e-003
25765	11.347	2.9091	0.1	-3.9327e-003
25766	11.44	2.6364	0.1	-4.1466e-003
25767	11.347	2.7273	0.1	-3.9739e-003
25768	11.44	2.4545	0.1	-4.2335e-003
25769	11.347	2.5455	0.1	-4.0532e-003
25770	11.44	2.2727	0.1	-4.3498e-003
25771	11.347	2.3636	0.1	-4.1662e-003
25772	11.44	2.0909	0.1	-4.4902e-003
25773	11.347	2.1818	0.1	-4.3093e-003
25774	11.44	1.9091	0.1	-4.6482e-003
25775	11.347	2.	0.1	-4.4744e-003
25776	11.44	1.7273	0.1	-4.818e-003
25777	11.347	1.8182	0.1	-4.6535e-003
25778	11.44	1.5455	0.1	-4.9954e-003
25779	11.347	1.6364	0.1	-4.8391e-003
25780	11.44	1.3636	0.1	-5.1772e-003
25781	11.347	1.4545	0.1	-5.0278e-003
25782	11.44	1.1818	0.1	-5.3792e-003
25783	11.347	1.2727	0.1	-5.2083e-003
25784	11.44	1.	0.1	-5.603e-003
25785	11.347	1.0909	0.1	-5.4126e-003
25786	11.44	0.81818	0.1	-6.1551e-003
25787	11.347	0.90909	0.1	-5.5748e-003
25788	11.44	0.63636	0.1	-8.7693e-003
25789	11.347	0.72727	0.1	-6.3028e-003
25790	11.44	0.45455	0.1	-2.3905
25791	11.347	0.54545	0.1	-0.16661
25792	11.44	0.27273	0.1	-6.4475
25793	11.347	0.36364	0.1	-3.7258
25794	11.347	0.18182	0.1	-8.5767
25795	11.44	9.0909e-002	0.1	-6.2792
25796	11.255	5.7273	0.1	-5.7678
25797	11.163	5.8182	0.1	-7.9999
25798	11.255	5.9091	0.1	-5.9352
25799	11.255	5.5455	0.1	-1.4648
25800	11.163	5.6364	0.1	-2.912
25801	11.255	5.3636	0.1	-5.761e-003
25802	11.163	5.4545	0.1	-5.2381e-003
25803	11.255	5.1818	0.1	-5.7303e-003
25804	11.163	5.2727	0.1	-5.9093e-003
25805	11.255	5.	0.1	-5.4191e-003
25806	11.163	5.0909	0.1	-5.4393e-003
25807	11.255	4.8182	0.1	-5.2674e-003
25808	11.163	4.9091	0.1	-5.3495e-003
25809	11.255	4.6364	0.1	-5.0773e-003
25810	11.163	4.7273	0.1	-5.1499e-003
25811	11.255	4.4545	0.1	-4.8842e-003
25812	11.163	4.5455	0.1	-4.9517e-003
25813	11.255	4.2727	0.1	-4.6835e-003
25814	11.163	4.3636	0.1	-4.7335e-003
25815	11.255	4.0909	0.1	-4.4857e-003
25816	11.163	4.1818	0.1	-4.5127e-003
25817	11.255	3.9091	0.1	-4.2971e-003
25818	11.163	4.	0.1	-4.2968e-003
25819	11.255	3.7273	0.1	-4.1277e-003
25820	11.163	3.8182	0.1	-4.0957e-003
25821	11.255	3.5455	0.1	-3.9868e-003
25822	11.163	3.6364	0.1	-3.9208e-003
25823	11.255	3.3636	0.1	-3.8804e-003
25824	11.163	3.4545	0.1	-3.7822e-003
25825	11.255	3.1818	0.1	-3.8138e-003
25826	11.163	3.2727	0.1	-3.6845e-003
25827	11.255	3.	0.1	-3.7913e-003
25828	11.163	3.0909	0.1	-3.6344e-003
25829	11.255	2.8182	0.1	-3.8142e-003
25830	11.163	2.9091	0.1	-3.6341e-003
25831	11.255	2.6364	0.1	-3.8807e-003
25832	11.163	2.7273	0.1	-3.6846e-003
25833	11.255	2.4545	0.1	-3.9871e-003
25834	11.163	2.5455	0.1	-3.7823e-003
25835	11.255	2.2727	0.1	-4.128e-003
25836	11.163	2.3636	0.1	-3.9213e-003
25837	11.255	2.0909	0.1	-4.2976e-003
25838	11.163	2.1818	0.1	-4.0957e-003
25839	11.255	1.9091	0.1	-4.486e-003
25840	11.163	2.	0.1	-4.2972e-003
25841	11.255	1.7273	0.1	-4.684e-003
25842	11.163	1.8182	0.1	-4.5128e-003
25843	11.255	1.5455	0.1	-4.8849e-003
25844	11.163	1.6364	0.1	-4.7341e-003
25845	11.255	1.3636	0.1	-5.0778e-003
25846	11.163	1.4545	0.1	-4.9525e-003
25847	11.255	1.1818	0.1	-5.2684e-003
25848	11.163	1.2727	0.1	-5.1503e-003
25849	11.255	1.	0.1	-5.4204e-003
25850	11.163	1.0909	0.1	-5.3506e-003
25851	11.255	0.81818	0.1	-5.7319e-003
25852	11.163	0.90909	0.1	-5.4411e-003
25853	11.255	0.63636	0.1	-5.7624e-003
25854	11.163	0.72727	0.1	-5.9107e-003
25855	11.255	0.45455	0.1	-1.4647
25856	11.163	0.54545	0.1	-5.2389e-003
25857	11.255	0.27273	0.1	-5.7677
25858	11.163	0.36364	0.1	-2.912
25859	11.163	0.18182	0.1	-7.9998
25860	11.255	9.0909e-002	0.1	-5.9351
25861	11.07	5.7273	0.1	-5.0594
25862	10.978	5.8182	0.1	-7.4027
25863	11.07	5.9091	0.1	-5.5793
25864	11.07	5.5455	0.1	-0.49287
25865	10.978	5.6364	0.1	-2.0618
25866	11.07	5.3636	0.1	-5.276e-003
25867	10.978	5.4545	0.1	-4.6419e-003
25868	11.07	5.1818	0.1	-5.6723e-003
25869	10.978	5.2727	0.1	-5.994e-003
25870	11.07	5.	0.1	-5.4034e-003
25871	10.978	5.0909	0.1	-5.5189e-003
25872	11.07	4.8182	0.1	-5.2543e-003
25873	10.978	4.9091	0.1	-5.4236e-003
25874	11.07	4.6364	0.1	-5.0396e-003
25875	10.978	4.7273	0.1	-5.1894e-003
25876	11.07	4.4545	0.1	-4.8115e-003
25877	10.978	4.5455	0.1	-4.9491e-003
25878	11.07	4.2727	0.1	-4.5698e-003
25879	10.978	4.3636	0.1	-4.6827e-003
25880	11.07	4.0909	0.1	-4.3283e-003
25881	10.978	4.1818	0.1	-4.4112e-003
25882	11.07	3.9091	0.1	-4.0979e-003
25883	10.978	4.	0.1	-4.1453e-003
25884	11.07	3.7273	0.1	-3.8897e-003
25885	10.978	3.8182	0.1	-3.8978e-003
25886	11.07	3.5455	0.1	-3.716e-003
25887	10.978	3.6364	0.1	-3.6818e-003
25888	11.07	3.3636	0.1	-3.5853e-003
25889	10.978	3.4545	0.1	-3.5103e-003
25890	11.07	3.1818	0.1	-3.5036e-003
25891	10.978	3.2727	0.1	-3.3903e-003
25892	11.07	3.	0.1	-3.4756e-003
25893	10.978	3.0909	0.1	-3.3282e-003
25894	11.07	2.8182	0.1	-3.5031e-003
25895	10.978	2.9091	0.1	-3.328e-003
25896	11.07	2.6364	0.1	-3.5852e-003
25897	10.978	2.7273	0.1	-3.3901e-003
25898	11.07	2.4545	0.1	-3.7163e-003
25899	10.978	2.5455	0.1	-3.5107e-003
25900	11.07	2.2727	0.1	-3.89e-003
25901	10.978	2.3636	0.1	-3.6821e-003
25902	11.07	2.0909	0.1	-4.0978e-003
25903	10.978	2.1818	0.1	-3.8978e-003
25904	11.07	1.9091	0.1	-4.3284e-003
25905	10.978	2.	0.1	-4.1452e-003
25906	11.07	1.7273	0.1	-4.57e-003
25907	10.978	1.8182	0.1	-4.4114e-003
25908	11.07	1.5455	0.1	-4.8123e-003
25909	10.978	1.6364	0.1	-4.6831e-003
25910	11.07	1.3636	0.1	-5.0402e-003
25911	10.978	1.4545	0.1	-4.9499e-003
25912	11.07	1.1818	0.1	-5.2547e-003
25913	10.978	1.2727	0.1	-5.1898e-003
25914	11.07	1.	0.1	-5.405e-003
25915	10.978	1.0909	0.1	-5.4243e-003
25916	11.07	0.81818	0.1	-5.674e-003
25917	10.978	0.90909	0.1	-5.5211e-003
25918	11.07	0.63636	0.1	-5.2769e-003
25919	10.978	0.72727	0.1	-5.9949e-003
25920	11.07	0.45455	0.1	-0.49284
25921	10.978	0.54545	0.1	-4.6425e-003
25922	11.07	0.27273	0.1	-5.0594
25923	10.978	0.36364	0.1	-2.0618
25924	10.978	0.18182	0.1	-7.4027
25925	11.07	9.0909e-002	0.1	-5.5792
25926	10.886	5.7273	0.1	-4.3233
25927	10.793	5.8182	0.1	-6.786
25928	10.886	5.9091	0.1	-5.2118
25929	10.886	5.5455	0.1	-9.3452e-003
25930	10.793	5.6364	0.1	-1.1768
25931	10.886	5.3636	0.1	-5.4467e-003
25932	10.793	5.4545	0.1	-5.0193e-003
25933	10.886	5.1818	0.1	-5.8807e-003
25934	10.793	5.2727	0.1	-6.3532e-003
25935	10.886	5.	0.1	-5.5632e-003
25936	10.793	5.0909	0.1	-5.7679e-003
25937	10.886	4.8182	0.1	-5.3747e-003
25938	10.793	4.9091	0.1	-5.6228e-003
25939	10.886	4.6364	0.1	-5.1097e-003
25940	10.793	4.7273	0.1	-5.3263e-003
25941	10.886	4.4545	0.1	-4.8274e-003
25942	10.793	4.5455	0.1	-5.0249e-003
25943	10.886	4.2727	0.1	-4.5286e-003
25944	10.793	4.3636	0.1	-4.6932e-003
25945	10.886	4.0909	0.1	-4.2305e-003
25946	10.793	4.1818	0.1	-4.3569e-003
25947	10.886	3.9091	0.1	-3.9458e-003
25948	10.793	4.	0.1	-4.0278e-003
25949	10.886	3.7273	0.1	-3.6891e-003
25950	10.793	3.8182	0.1	-3.7221e-003
25951	10.886	3.5455	0.1	-3.4743e-003
25952	10.793	3.6364	0.1	-3.4562e-003
25953	10.886	3.3636	0.1	-3.3128e-003
25954	10.793	3.4545	0.1	-3.2443e-003
25955	10.886	3.1818	0.1	-3.2119e-003
25956	10.793	3.2727	0.1	-3.096e-003
25957	10.886	3.	0.1	-3.1774e-003
25958	10.793	3.0909	0.1	-3.0194e-003
25959	10.886	2.8182	0.1	-3.212e-003
25960	10.793	2.9091	0.1	-3.0194e-003
25961	10.886	2.6364	0.1	-3.3131e-003
25962	10.793	2.7273	0.1	-3.0962e-003
25963	10.886	2.4545	0.1	-3.4746e-003
25964	10.793	2.5455	0.1	-3.2446e-003
25965	10.886	2.2727	0.1	-3.6891e-003
25966	10.793	2.3636	0.1	-3.4565e-003
25967	10.886	2.0909	0.1	-3.9458e-003
25968	10.793	2.1818	0.1	-3.7223e-003
25969	10.886	1.9091	0.1	-4.2305e-003
25970	10.793	2.	0.1	-4.0279e-003
25971	10.886	1.7273	0.1	-4.5289e-003
25972	10.793	1.8182	0.1	-4.357e-003
25973	10.886	1.5455	0.1	-4.8279e-003
25974	10.793	1.6364	0.1	-4.6937e-003
25975	10.886	1.3636	0.1	-5.1102e-003
25976	10.793	1.4545	0.1	-5.0254e-003
25977	10.886	1.1818	0.1	-5.3753e-003
25978	10.793	1.2727	0.1	-5.3273e-003
25979	10.886	1.	0.1	-5.5646e-003
25980	10.793	1.0909	0.1	-5.6233e-003
25981	10.886	0.81818	0.1	-5.8822e-003
25982	10.793	0.90909	0.1	-5.7696e-003
25983	10.886	0.63636	0.1	-5.4473e-003
25984	10.793	0.72727	0.1	-6.3543e-003
25985	10.886	0.45455	0.1	-9.3462e-003
25986	10.793	0.54545	0.1	-5.0198e-003
25987	10.886	0.27273	0.1	-4.3233
25988	10.793	0.36364	0.1	-1.1768
25989	10.793	0.18182	0.1	-6.7859
25990	10.886	9.0909e-002	0.1	-5.2118
25991	10.701	5.7273	0.1	-3.5607
25992	10.609	5.8182	0.1	-6.1508
25993	10.701	5.9091	0.1	-4.8333
25994	10.701	5.5455	0.1	-1.0729e-002
25995	10.609	5.6364	0.1	-0.27398
25996	10.701	5.3636	0.1	-5.8974e-003
25997	10.609	5.4545	0.1	-5.6677e-003
25998	10.701	5.1818	0.1	-6.2539e-003
25999	10.609	5.2727	0.1	-6.8896e-003
26000	10.701	5.	0.1	-5.8394e-003
26001	10.609	5.0909	0.1	-6.1435e-003
26002	10.701	4.8182	0.1	-5.5832e-003
26003	10.609	4.9091	0.1	-5.9209e-003
26004	10.701	4.6364	0.1	-5.2473e-003
26005	10.609	4.7273	0.1	-5.5419e-003
26006	10.701	4.4545	0.1	-4.8941e-003
26007	10.609	4.5455	0.1	-5.1614e-003
26008	10.701	4.2727	0.1	-4.523e-003
26009	10.609	4.3636	0.1	-4.7492e-003
26010	10.701	4.0909	0.1	-4.154e-003
26011	10.609	4.1818	0.1	-4.3327e-003
26012	10.701	3.9091	0.1	-3.8025e-003
26013	10.609	4.	0.1	-3.9269e-003
26014	10.701	3.7273	0.1	-3.4863e-003
26015	10.609	3.8182	0.1	-3.5503e-003
26016	10.701	3.5455	0.1	-3.2223e-003
26017	10.609	3.6364	0.1	-3.2236e-003
26018	10.701	3.3636	0.1	-3.0229e-003
26019	10.609	3.4545	0.1	-2.9632e-003
26020	10.701	3.1818	0.1	-2.8985e-003
26021	10.609	3.2727	0.1	-2.7804e-003
26022	10.701	3.	0.1	-2.8562e-003
26023	10.609	3.0909	0.1	-2.6864e-003
26024	10.701	2.8182	0.1	-2.8985e-003
26025	10.609	2.9091	0.1	-2.6868e-003
26026	10.701	2.6364	0.1	-3.0231e-003
26027	10.609	2.7273	0.1	-2.7806e-003
26028	10.701	2.4545	0.1	-3.2225e-003
26029	10.609	2.5455	0.1	-2.9632e-003
26030	10.701	2.2727	0.1	-3.4867e-003
26031	10.609	2.3636	0.1	-3.2238e-003
26032	10.701	2.0909	0.1	-3.8027e-003
26033	10.609	2.1818	0.1	-3.5507e-003
26034	10.701	1.9091	0.1	-4.1541e-003
26035	10.609	2.	0.1	-3.9271e-003
26036	10.701	1.7273	0.1	-4.5233e-003
26037	10.609	1.8182	0.1	-4.3329e-003
26038	10.701	1.5455	0.1	-4.8947e-003
26039	10.609	1.6364	0.1	-4.7498e-003
26040	10.701	1.3636	0.1	-5.2483e-003
26041	10.609	1.4545	0.1	-5.1619e-003
26042	10.701	1.1818	0.1	-5.584e-003
26043	10.609	1.2727	0.1	-5.5428e-003
26044	10.701	1.	0.1	-5.8403e-003
26045	10.609	1.0909	0.1	-5.9213e-003
26046	10.701	0.81818	0.1	-6.2552e-003
26047	10.609	0.90909	0.1	-6.1451e-003
26048	10.701	0.63636	0.1	-5.8984e-003
26049	10.609	0.72727	0.1	-6.8911e-003
26050	10.701	0.45455	0.1	-1.0729e-002
26051	10.609	0.54545	0.1	-5.6681e-003
26052	10.701	0.27273	0.1	-3.5607
26053	10.609	0.36364	0.1	-0.27396
26054	10.609	0.18182	0.1	-6.1508
26055	10.701	9.0909e-002	0.1	-4.8333
26056	10.516	5.7273	0.1	-2.7747
26057	10.424	5.8182	0.1	-5.4996
26058	10.516	5.9091	0.1	-4.4444
26059	10.516	5.5455	0.1	-1.2239e-002
26060	10.424	5.6364	0.1	-3.0049e-002
26061	10.516	5.3636	0.1	-6.5279e-003
26062	10.424	5.4545	0.1	-6.5023e-003
26063	10.516	5.1818	0.1	-6.7639e-003
26064	10.424	5.2727	0.1	-7.6008e-003
26065	10.516	5.	0.1	-6.2235e-003
26066	10.424	5.0909	0.1	-6.6662e-003
26067	10.516	4.8182	0.1	-5.8804e-003
26068	10.424	4.9091	0.1	-6.3475e-003
26069	10.516	4.6364	0.1	-5.4564e-003
26070	10.424	4.7273	0.1	-5.869e-003
26071	10.516	4.4545	0.1	-5.0158e-003
26072	10.424	4.5455	0.1	-5.3933e-003
26073	10.516	4.2727	0.1	-4.5569e-003
26074	10.424	4.3636	0.1	-4.8841e-003
26075	10.516	4.0909	0.1	-4.1023e-003
26076	10.424	4.1818	0.1	-4.372e-003
26077	10.516	3.9091	0.1	-3.6703e-003
26078	10.424	4.	0.1	-3.874e-003
26079	10.516	3.7273	0.1	-3.2821e-003
26080	10.424	3.8182	0.1	-3.413e-003
26081	10.516	3.5455	0.1	-2.9581e-003
26082	10.424	3.6364	0.1	-3.0121e-003
26083	10.516	3.3636	0.1	-2.7136e-003
26084	10.424	3.4545	0.1	-2.6936e-003
26085	10.516	3.1818	0.1	-2.5608e-003
26086	10.424	3.2727	0.1	-2.4698e-003
26087	10.516	3.	0.1	-2.5094e-003
26088	10.424	3.0909	0.1	-2.3548e-003
26089	10.516	2.8182	0.1	-2.5614e-003
26090	10.424	2.9091	0.1	-2.355e-003
26091	10.516	2.6364	0.1	-2.7137e-003
26092	10.424	2.7273	0.1	-2.47e-003
26093	10.516	2.4545	0.1	-2.9581e-003
26094	10.424	2.5455	0.1	-2.6935e-003
26095	10.516	2.2727	0.1	-3.2823e-003
26096	10.424	2.3636	0.1	-3.0126e-003
26097	10.516	2.0909	0.1	-3.6707e-003
26098	10.424	2.1818	0.1	-3.4133e-003
26099	10.516	1.9091	0.1	-4.1026e-003
26100	10.424	2.	0.1	-3.8744e-003
26101	10.516	1.7273	0.1	-4.5574e-003
26102	10.424	1.8182	0.1	-4.3721e-003
26103	10.516	1.5455	0.1	-5.0164e-003
26104	10.424	1.6364	0.1	-4.885e-003
26105	10.516	1.3636	0.1	-5.4568e-003
26106	10.424	1.4545	0.1	-5.3937e-003
26107	10.516	1.1818	0.1	-5.8809e-003
26108	10.424	1.2727	0.1	-5.8697e-003
26109	10.516	1.	0.1	-6.2247e-003
26110	10.424	1.0909	0.1	-6.3478e-003
26111	10.516	0.81818	0.1	-6.7657e-003
26112	10.424	0.90909	0.1	-6.6684e-003
26113	10.516	0.63636	0.1	-6.5289e-003
26114	10.424	0.72727	0.1	-7.6022e-003
26115	10.516	0.45455	0.1	-1.224e-002
26116	10.424	0.54545	0.1	-6.5025e-003
26117	10.516	0.27273	0.1	-2.7747
26118	10.424	0.36364	0.1	-3.0049e-002
26119	10.424	0.18182	0.1	-5.4995
26120	10.516	9.0909e-002	0.1	-4.4444
26121	10.331	5.7273	0.1	-1.9715
26122	10.239	5.8182	0.1	-4.8354
26123	10.331	5.9091	0.1	-4.0468
26124	10.331	5.5455	0.1	-1.3917e-002
26125	10.239	5.6364	0.1	-2.7648e-002
26126	10.331	5.3636	0.1	-7.3604e-003
26127	10.239	5.4545	0.1	-7.4828e-003
26128	10.331	5.1818	0.1	-7.4591e-003
26129	10.239	5.2727	0.1	-8.4637e-003
26130	10.331	5.	0.1	-6.7747e-003
26131	10.239	5.0909	0.1	-7.3262e-003
26132	10.331	4.8182	0.1	-6.3284e-003
26133	10.239	4.9091	0.1	-6.8965e-003
26134	10.331	4.6364	0.1	-5.8005e-003
26135	10.239	4.7273	0.1	-6.304e-003
26136	10.331	4.4545	0.1	-5.2563e-003
26137	10.239	4.5455	0.1	-5.7172e-003
26138	10.331	4.2727	0.1	-4.6934e-003
26139	10.239	4.3636	0.1	-5.0947e-003
26140	10.331	4.0909	0.1	-4.1369e-003
26141	10.239	4.1818	0.1	-4.4691e-003
26142	10.331	3.9091	0.1	-3.6089e-003
26143	10.239	4.	0.1	-3.8615e-003
26144	10.331	3.7273	0.1	-3.1343e-003
26145	10.239	3.8182	0.1	-3.2997e-003
26146	10.331	3.5455	0.1	-2.738e-003
26147	10.239	3.6364	0.1	-2.8109e-003
26148	10.331	3.3636	0.1	-2.4396e-003
26149	10.239	3.4545	0.1	-2.4219e-003
26150	10.331	3.1818	0.1	-2.2533e-003
26151	10.239	3.2727	0.1	-2.1495e-003
26152	10.331	3.	0.1	-2.1898e-003
26153	10.239	3.0909	0.1	-2.0091e-003
26154	10.331	2.8182	0.1	-2.2531e-003
26155	10.239	2.9091	0.1	-2.0089e-003
26156	10.331	2.6364	0.1	-2.4397e-003
26157	10.239	2.7273	0.1	-2.1495e-003
26158	10.331	2.4545	0.1	-2.7385e-003
26159	10.239	2.5455	0.1	-2.4221e-003
26160	10.331	2.2727	0.1	-3.1348e-003
26161	10.239	2.3636	0.1	-2.8114e-003
26162	10.331	2.0909	0.1	-3.6092e-003
26163	10.239	2.1818	0.1	-3.3e-003
26164	10.331	1.9091	0.1	-4.1372e-003
26165	10.239	2.	0.1	-3.862e-003
26166	10.331	1.7273	0.1	-4.6939e-003
26167	10.239	1.8182	0.1	-4.4695e-003
26168	10.331	1.5455	0.1	-5.2572e-003
26169	10.239	1.6364	0.1	-5.0954e-003
26170	10.331	1.3636	0.1	-5.8011e-003
26171	10.239	1.4545	0.1	-5.7179e-003
26172	10.331	1.1818	0.1	-6.329e-003
26173	10.239	1.2727	0.1	-6.3047e-003
26174	10.331	1.	0.1	-6.7761e-003
26175	10.239	1.0909	0.1	-6.897e-003
26176	10.331	0.81818	0.1	-7.461e-003
26177	10.239	0.90909	0.1	-7.3279e-003
26178	10.331	0.63636	0.1	-7.3611e-003
26179	10.239	0.72727	0.1	-8.4651e-003
26180	10.331	0.45455	0.1	-1.3917e-002
26181	10.239	0.54545	0.1	-7.4831e-003
26182	10.331	0.27273	0.1	-1.9714
26183	10.239	0.36364	0.1	-2.7648e-002
26184	10.239	0.18182	0.1	-4.8353
26185	10.331	9.0909e-002	0.1	-4.0467
26186	10.147	5.7273	0.1	-1.1673
26187	10.054	5.8182	0.1	-4.1629
26188	10.147	5.9091	0.1	-3.6421
26189	10.147	5.5455	0.1	-1.5678e-002
26190	10.054	5.6364	0.1	-2.8872e-002
26191	10.147	5.3636	0.1	-8.3023e-003
26192	10.054	5.4545	0.1	-8.5764e-003
26193	10.147	5.1818	0.1	-8.2588e-003
26194	10.054	5.2727	0.1	-9.4508e-003
26195	10.147	5.	0.1	-7.4181e-003
26196	10.054	5.0909	0.1	-8.1032e-003
26197	10.147	4.8182	0.1	-6.8554e-003
26198	10.054	4.9091	0.1	-7.5521e-003
26199	10.147	4.6364	0.1	-6.2088e-003
26200	10.054	4.7273	0.1	-6.8323e-003
26201	10.147	4.4545	0.1	-5.5452e-003
26202	10.054	4.5455	0.1	-6.1182e-003
26203	10.147	4.2727	0.1	-4.8601e-003
26204	10.054	4.3636	0.1	-5.3638e-003
26205	10.147	4.0909	0.1	-4.1828e-003
26206	10.054	4.1818	0.1	-4.605e-003
26207	10.147	3.9091	0.1	-3.5407e-003
26208	10.054	4.	0.1	-3.8681e-003
26209	10.147	3.7273	0.1	-2.9638e-003
26210	10.054	3.8182	0.1	-3.1859e-003
26211	10.147	3.5455	0.1	-2.4814e-003
26212	10.054	3.6364	0.1	-2.5926e-003
26213	10.147	3.3636	0.1	-2.1178e-003
26214	10.054	3.4545	0.1	-2.1192e-003
26215	10.147	3.1818	0.1	-1.8909e-003
26216	10.054	3.2727	0.1	-1.7882e-003
26217	10.147	3.	0.1	-1.8137e-003
26218	10.054	3.0909	0.1	-1.6176e-003
26219	10.147	2.8182	0.1	-1.891e-003
26220	10.054	2.9091	0.1	-1.6176e-003
26221	10.147	2.6364	0.1	-2.118e-003
26222	10.054	2.7273	0.1	-1.7884e-003
26223	10.147	2.4545	0.1	-2.4817e-003
26224	10.054	2.5455	0.1	-2.1195e-003
26225	10.147	2.2727	0.1	-2.9641e-003
26226	10.054	2.3636	0.1	-2.5929e-003
26227	10.147	2.0909	0.1	-3.5412e-003
26228	10.054	2.1818	0.1	-3.1862e-003
26229	10.147	1.9091	0.1	-4.1836e-003
26230	10.054	2.	0.1	-3.8687e-003
26231	10.147	1.7273	0.1	-4.8608e-003
26232	10.054	1.8182	0.1	-4.6059e-003
26233	10.147	1.5455	0.1	-5.5458e-003
26234	10.054	1.6364	0.1	-5.3643e-003
26235	10.147	1.3636	0.1	-6.2095e-003
26236	10.054	1.4545	0.1	-6.1191e-003
26237	10.147	1.1818	0.1	-6.856e-003
26238	10.054	1.2727	0.1	-6.8326e-003
26239	10.147	1.	0.1	-7.4189e-003
26240	10.054	1.0909	0.1	-7.5525e-003
26241	10.147	0.81818	0.1	-8.2601e-003
26242	10.054	0.90909	0.1	-8.104e-003
26243	10.147	0.63636	0.1	-8.3033e-003
26244	10.054	0.72727	0.1	-9.4522e-003
26245	10.147	0.45455	0.1	-1.5679e-002
26246	10.054	0.54545	0.1	-8.5771e-003
26247	10.147	0.27273	0.1	-1.1673
26248	10.054	0.36364	0.1	-2.8872e-002
26249	10.054	0.18182	0.1	-4.1629
26250	10.147	9.0909e-002	0.1	-3.6421
26251	9.9621	5.7273	0.1	-0.44776
26252	9.8697	5.8182	0.1	-3.489
26253	9.9621	5.9091	0.1	-3.2332
26254	9.9621	5.5455	0.1	-1.7552e-002
26255	9.8697	5.6364	0.1	-3.096e-002
26256	9.9621	5.3636	0.1	-9.3805e-003
26257	9.8697	5.4545	0.1	-9.8346e-003
26258	9.9621	5.1818	0.1	-9.1958e-003
26259	9.8697	5.2727	0.1	-1.0615e-002
26260	9.9621	5.	0.1	-8.1923e-003
26261	9.8697	5.0909	0.1	-9.0558e-003
26262	9.9621	4.8182	0.1	-7.5026e-003
26263	9.8697	4.9091	0.1	-8.3758e-003
26264	9.9621	4.6364	0.1	-6.7226e-003
26265	9.8697	4.7273	0.1	-7.5161e-003
26266	9.9621	4.4545	0.1	-5.9206e-003
26267	9.8697	4.5455	0.1	-6.6579e-003
26268	9.9621	4.2727	0.1	-5.0932e-003
26269	9.8697	4.3636	0.1	-5.7503e-003
26270	9.9621	4.0909	0.1	-4.2746e-003
26271	9.8697	4.1818	0.1	-4.8361e-003
26272	9.9621	3.9091	0.1	-3.497e-003
26273	9.8697	4.	0.1	-3.9461e-003
26274	9.9621	3.7273	0.1	-2.7976e-003
26275	9.8697	3.8182	0.1	-3.1209e-003
26276	9.9621	3.5455	0.1	-2.2124e-003
26277	9.8697	3.6364	0.1	-2.4027e-003
26278	9.9621	3.3636	0.1	-1.7709e-003
26279	9.8697	3.4545	0.1	-1.8285e-003
26280	9.9621	3.1818	0.1	-1.4958e-003
26281	9.8697	3.2727	0.1	-1.427e-003
26282	9.9621	3.	0.1	-1.4023e-003
26283	9.8697	3.0909	0.1	-1.2206e-003
26284	9.9621	2.8182	0.1	-1.496e-003
26285	9.8697	2.9091	0.1	-1.2205e-003
26286	9.9621	2.6364	0.1	-1.7713e-003
26287	9.8697	2.7273	0.1	-1.4274e-003
26288	9.9621	2.4545	0.1	-2.2127e-003
26289	9.8697	2.5455	0.1	-1.8289e-003
26290	9.9621	2.2727	0.1	-2.7978e-003
26291	9.8697	2.3636	0.1	-2.4028e-003
26292	9.9621	2.0909	0.1	-3.4974e-003
26293	9.8697	2.1818	0.1	-3.1213e-003
26294	9.9621	1.9091	0.1	-4.2753e-003
26295	9.8697	2.	0.1	-3.9465e-003
26296	9.9621	1.7273	0.1	-5.094e-003
26297	9.8697	1.8182	0.1	-4.8365e-003
26298	9.9621	1.5455	0.1	-5.9214e-003
26299	9.8697	1.6364	0.1	-5.7511e-003
26300	9.9621	1.3636	0.1	-6.7232e-003
26301	9.8697	1.4545	0.1	-6.6586e-003
26302	9.9621	1.1818	0.1	-7.5028e-003
26303	9.8697	1.2727	0.1	-7.5163e-003
26304	9.9621	1.	0.1	-8.1927e-003
26305	9.8697	1.0909	0.1	-8.3764e-003
26306	9.9621	0.81818	0.1	-9.1967e-003
26307	9.8697	0.90909	0.1	-9.0567e-003
26308	9.9621	0.63636	0.1	-9.3815e-003
26309	9.8697	0.72727	0.1	-1.0616e-002
26310	9.9621	0.45455	0.1	-1.7553e-002
26311	9.8697	0.54545	0.1	-9.835e-003
26312	9.9621	0.27273	0.1	-0.44774
26313	9.8697	0.36364	0.1	-3.0961e-002
26314	9.8697	0.18182	0.1	-3.489
26315	9.9621	9.0909e-002	0.1	-3.2332
26316	9.7774	5.7273	0.1	-0.14297
26317	9.685	5.8182	0.1	-2.8232
26318	9.7774	5.9091	0.1	-2.824
26319	9.7774	5.5455	0.1	-1.9604e-002
26320	9.685	5.6364	0.1	-3.3465e-002
26321	9.7774	5.3636	0.1	-1.0669e-002
26322	9.685	5.4545	0.1	-1.1289e-002
26323	9.7774	5.1818	0.1	-1.0348e-002
26324	9.685	5.2727	0.1	-1.199e-002
26325	9.7774	5.	0.1	-9.1789e-003
26326	9.685	5.0909	0.1	-1.0224e-002
26327	9.7774	4.8182	0.1	-8.3526e-003
26328	9.685	4.9091	0.1	-9.411e-003
26329	9.7774	4.6364	0.1	-7.4244e-003
26330	9.685	4.7273	0.1	-8.3987e-003
26331	9.7774	4.4545	0.1	-6.4647e-003
26332	9.685	4.5455	0.1	-7.3774e-003
26333	9.7774	4.2727	0.1	-5.4717e-003
26334	9.685	4.3636	0.1	-6.2937e-003
26335	9.7774	4.0909	0.1	-4.4863e-003
26336	9.685	4.1818	0.1	-5.1966e-003
26337	9.7774	3.9091	0.1	-3.548e-003
26338	9.685	4.	0.1	-4.1257e-003
26339	9.7774	3.7273	0.1	-2.7032e-003
26340	9.685	3.8182	0.1	-3.1305e-003
26341	9.7774	3.5455	0.1	-1.9951e-003
26342	9.685	3.6364	0.1	-2.263e-003
26343	9.7774	3.3636	0.1	-1.4601e-003
26344	9.685	3.4545	0.1	-1.5684e-003
26345	9.7774	3.1818	0.1	-1.1269e-003
26346	9.685	3.2727	0.1	-1.0823e-003
26347	9.7774	3.	0.1	-1.0138e-003
26348	9.685	3.0909	0.1	-8.3224e-004
26349	9.7774	2.8182	0.1	-1.127e-003
26350	9.685	2.9091	0.1	-8.3221e-004
26351	9.7774	2.6364	0.1	-1.4606e-003
26352	9.685	2.7273	0.1	-1.0825e-003
26353	9.7774	2.4545	0.1	-1.9953e-003
26354	9.685	2.5455	0.1	-1.5687e-003
26355	9.7774	2.2727	0.1	-2.7034e-003
26356	9.685	2.3636	0.1	-2.263e-003
26357	9.7774	2.0909	0.1	-3.5484e-003
26358	9.685	2.1818	0.1	-3.1309e-003
26359	9.7774	1.9091	0.1	-4.4863e-003
26360	9.685	2.	0.1	-4.1263e-003
26361	9.7774	1.7273	0.1	-5.4721e-003
26362	9.685	1.8182	0.1	-5.1968e-003
26363	9.7774	1.5455	0.1	-6.4653e-003
26364	9.685	1.6364	0.1	-6.2942e-003
26365	9.7774	1.3636	0.1	-7.4248e-003
26366	9.685	1.4545	0.1	-7.3779e-003
26367	9.7774	1.1818	0.1	-8.3533e-003
26368	9.685	1.2727	0.1	-8.3993e-003
26369	9.7774	1.	0.1	-9.18e-003
26370	9.685	1.0909	0.1	-9.4115e-003
26371	9.7774	0.81818	0.1	-1.0349e-002
26372	9.685	0.90909	0.1	-1.0226e-002
26373	9.7774	0.63636	0.1	-1.0669e-002
26374	9.685	0.72727	0.1	-1.1992e-002
26375	9.7774	0.45455	0.1	-1.9605e-002
26376	9.685	0.54545	0.1	-1.1289e-002
26377	9.7774	0.27273	0.1	-0.14297
26378	9.685	0.36364	0.1	-3.3466e-002
26379	9.685	0.18182	0.1	-2.8232
26380	9.7774	9.0909e-002	0.1	-2.824
26381	9.5927	5.7273	0.1	-8.6802e-002
26382	9.5003	5.8182	0.1	-2.1797
26383	9.5927	5.9091	0.1	-2.4191
26384	9.5927	5.5455	0.1	-2.1811e-002
26385	9.5003	5.6364	0.1	-3.622e-002
26386	9.5927	5.3636	0.1	-1.2157e-002
26387	9.5003	5.4545	0.1	-1.2948e-002
26388	9.5927	5.1818	0.1	-1.1712e-002
26389	9.5003	5.2727	0.1	-1.3587e-002
26390	9.5927	5.	0.1	-1.038e-002
26391	9.5003	5.0909	0.1	-1.1627e-002
26392	9.5927	4.8182	0.1	-9.4091e-003
26393	9.5003	4.9091	0.1	-1.0678e-002
26394	9.5927	4.6364	0.1	-8.3158e-003
26395	9.5003	4.7273	0.1	-9.5004e-003
26396	9.5927	4.4545	0.1	-7.1758e-003
26397	9.5003	4.5455	0.1	-8.2949e-003
26398	9.5927	4.2727	0.1	-5.9899e-003
26399	9.5003	4.3636	0.1	-7.0076e-003
26400	9.5927	4.0909	0.1	-4.8077e-003
26401	9.5003	4.1818	0.1	-5.6958e-003
26402	9.5927	3.9091	0.1	-3.6792e-003
26403	9.5003	4.	0.1	-4.4106e-003
26404	9.5927	3.7273	0.1	-2.6604e-003
26405	9.5003	3.8182	0.1	-3.2129e-003
26406	9.5927	3.5455	0.1	-1.8055e-003
26407	9.5003	3.6364	0.1	-2.1663e-003
26408	9.5927	3.3636	0.1	-1.159e-003
26409	9.5003	3.4545	0.1	-1.3274e-003
26410	9.5927	3.1818	0.1	-7.5546e-004
26411	9.5003	3.2727	0.1	-7.3976e-004
26412	9.5927	3.	0.1	-6.184e-004
26413	9.5003	3.0909	0.1	-4.3733e-004
26414	9.5927	2.8182	0.1	-7.5564e-004
26415	9.5003	2.9091	0.1	-4.3712e-004
26416	9.5927	2.6364	0.1	-1.159e-003
26417	9.5003	2.7273	0.1	-7.3994e-004
26418	9.5927	2.4545	0.1	-1.8056e-003
26419	9.5003	2.5455	0.1	-1.3276e-003
26420	9.5927	2.2727	0.1	-2.6607e-003
26421	9.5003	2.3636	0.1	-2.1665e-003
26422	9.5927	2.0909	0.1	-3.6799e-003
26423	9.5003	2.1818	0.1	-3.2132e-003
26424	9.5927	1.9091	0.1	-4.8084e-003
26425	9.5003	2.	0.1	-4.4113e-003
26426	9.5927	1.7273	0.1	-5.9903e-003
26427	9.5003	1.8182	0.1	-5.6963e-003
26428	9.5927	1.5455	0.1	-7.1762e-003
26429	9.5003	1.6364	0.1	-7.0081e-003
26430	9.5927	1.3636	0.1	-8.3166e-003
26431	9.5003	1.4545	0.1	-8.2956e-003
26432	9.5927	1.1818	0.1	-9.4095e-003
26433	9.5003	1.2727	0.1	-9.5014e-003
26434	9.5927	1.	0.1	-1.0381e-002
26435	9.5003	1.0909	0.1	-1.0678e-002
26436	9.5927	0.81818	0.1	-1.1714e-002
26437	9.5003	0.90909	0.1	-1.1629e-002
26438	9.5927	0.63636	0.1	-1.2158e-002
26439	9.5003	0.72727	0.1	-1.3589e-002
26440	9.5927	0.45455	0.1	-2.1811e-002
26441	9.5003	0.54545	0.1	-1.2948e-002
26442	9.5927	0.27273	0.1	-8.6803e-002
26443	9.5003	0.36364	0.1	-3.622e-002
26444	9.5003	0.18182	0.1	-2.1797
26445	9.5927	9.0909e-002	0.1	-2.4191
26446	9.408	5.7273	0.1	-7.0154e-002
26447	9.3156	5.8182	0.1	-1.5806
26448	9.408	5.9091	0.1	-2.0252
26449	9.408	5.5455	0.1	-2.4176e-002
26450	9.3156	5.6364	0.1	-3.916e-002
26451	9.408	5.3636	0.1	-1.3872e-002
26452	9.3156	5.4545	0.1	-1.4855e-002
26453	9.408	5.1818	0.1	-1.332e-002
26454	9.3156	5.2727	0.1	-1.5455e-002
26455	9.408	5.	0.1	-1.1831e-002
26456	9.3156	5.0909	0.1	-1.3321e-002
26457	9.408	4.8182	0.1	-1.0709e-002
26458	9.3156	4.9091	0.1	-1.2235e-002
26459	9.408	4.6364	0.1	-9.4336e-003
26460	9.3156	4.7273	0.1	-1.088e-002
26461	9.408	4.4545	0.1	-8.0872e-003
26462	9.3156	4.5455	0.1	-9.467e-003
26463	9.408	4.2727	0.1	-6.6764e-003
26464	9.3156	4.3636	0.1	-7.9431e-003
26465	9.408	4.0909	0.1	-5.2621e-003
26466	9.3156	4.1818	0.1	-6.3788e-003
26467	9.408	3.9091	0.1	-3.9069e-003
26468	9.3156	4.	0.1	-4.8381e-003
26469	9.408	3.7273	0.1	-2.6803e-003
26470	9.3156	3.8182	0.1	-3.3982e-003
26471	9.408	3.5455	0.1	-1.6487e-003
26472	9.3156	3.6364	0.1	-2.1367e-003
26473	9.408	3.3636	0.1	-8.6765e-004
26474	9.3156	3.4545	0.1	-1.124e-003
26475	9.408	3.1818	0.1	-3.8053e-004
26476	9.3156	3.2727	0.1	-4.141e-004
26477	9.408	3.	0.1	-2.1474e-004
26478	9.3156	3.0909	0.1	-4.8967e-005
26479	9.408	2.8182	0.1	-3.8032e-004
26480	9.3156	2.9091	0.1	-4.8431e-005
26481	9.408	2.6364	0.1	-8.6807e-004
26482	9.3156	2.7273	0.1	-4.147e-004
26483	9.408	2.4545	0.1	-1.6489e-003
26484	9.3156	2.5455	0.1	-1.1242e-003
26485	9.408	2.2727	0.1	-2.6805e-003
26486	9.3156	2.3636	0.1	-2.1369e-003
26487	9.408	2.0909	0.1	-3.9073e-003
26488	9.3156	2.1818	0.1	-3.3985e-003
26489	9.408	1.9091	0.1	-5.2625e-003
26490	9.3156	2.	0.1	-4.8387e-003
26491	9.408	1.7273	0.1	-6.677e-003
26492	9.3156	1.8182	0.1	-6.3789e-003
26493	9.408	1.5455	0.1	-8.088e-003
26494	9.3156	1.6364	0.1	-7.9437e-003
26495	9.408	1.3636	0.1	-9.4345e-003
26496	9.3156	1.4545	0.1	-9.4674e-003
26497	9.408	1.1818	0.1	-1.0709e-002
26498	9.3156	1.2727	0.1	-1.0881e-002
26499	9.408	1.	0.1	-1.1832e-002
26500	9.3156	1.0909	0.1	-1.2236e-002
26501	9.408	0.81818	0.1	-1.3321e-002
26502	9.3156	0.90909	0.1	-1.3322e-002
26503	9.408	0.63636	0.1	-1.3872e-002
26504	9.3156	0.72727	0.1	-1.5456e-002
26505	9.408	0.45455	0.1	-2.4176e-002
26506	9.3156	0.54545	0.1	-1.4856e-002
26507	9.408	0.27273	0.1	-7.0154e-002
26508	9.3156	0.36364	0.1	-3.9161e-002
26509	9.3156	0.18182	0.1	-1.5806
26510	9.408	9.0909e-002	0.1	-2.0252
26511	9.2232	5.7273	0.1	-6.3743e-002
26512	9.1309	5.8182	0.1	-1.0631
26513	9.2232	5.9091	0.1	-1.6503
26514	9.2232	5.5455	0.1	-2.6734e-002
26515	9.1309	5.6364	0.1	-4.2261e-002
26516	9.2232	5.3636	0.1	-1.5878e-002
26517	9.1309	5.4545	0.1	-1.7075e-002
26518	9.2232	5.1818	0.1	-1.5243e-002
26519	9.1309	5.2727	0.1	-1.7662e-002
26520	9.2232	5.	0.1	-1.3612e-002
26521	9.1309	5.0909	0.1	-1.5386e-002
26522	9.2232	4.8182	0.1	-1.2332e-002
26523	9.1309	4.9091	0.1	-1.4167e-002
26524	9.2232	4.6364	0.1	-1.0856e-002
26525	9.1309	4.7273	0.1	-1.2622e-002
26526	9.2232	4.4545	0.1	-9.2727e-003
26527	9.1309	4.5455	0.1	-1.0972e-002
26528	9.2232	4.2727	0.1	-7.5981e-003
26529	9.1309	4.3636	0.1	-9.1724e-003
26530	9.2232	4.0909	0.1	-5.9078e-003
26531	9.1309	4.1818	0.1	-7.3085e-003
26532	9.2232	3.9091	0.1	-4.2815e-003
26533	9.1309	4.	0.1	-5.4629e-003
26534	9.2232	3.7273	0.1	-2.8054e-003
26535	9.1309	3.8182	0.1	-3.732e-003
26536	9.2232	3.5455	0.1	-1.5616e-003
26537	9.1309	3.6364	0.1	-2.212e-003
26538	9.2232	3.3636	0.1	-6.1879e-004
26539	9.1309	3.4545	0.1	-9.8949e-004
26540	9.2232	3.1818	0.1	-3.0169e-005
26541	9.1309	3.2727	0.1	-1.3186e-004
26542	9.2232	3.	0.1	1.6997e-004
26543	9.1309	3.0909	0.1	3.0962e-004
26544	9.2232	2.8182	0.1	-3.0437e-005
26545	9.1309	2.9091	0.1	3.0977e-004
26546	9.2232	2.6364	0.1	-6.1921e-004
26547	9.1309	2.7273	0.1	-1.3231e-004
26548	9.2232	2.4545	0.1	-1.5617e-003
26549	9.1309	2.5455	0.1	-9.8955e-004
26550	9.2232	2.2727	0.1	-2.8058e-003
26551	9.1309	2.3636	0.1	-2.2122e-003
26552	9.2232	2.0909	0.1	-4.2821e-003
26553	9.1309	2.1818	0.1	-3.7325e-003
26554	9.2232	1.9091	0.1	-5.908e-003
26555	9.1309	2.	0.1	-5.4634e-003
26556	9.2232	1.7273	0.1	-7.5981e-003
26557	9.1309	1.8182	0.1	-7.3087e-003
26558	9.2232	1.5455	0.1	-9.273e-003
26559	9.1309	1.6364	0.1	-9.1725e-003
26560	9.2232	1.3636	0.1	-1.0856e-002
26561	9.1309	1.4545	0.1	-1.0972e-002
26562	9.2232	1.1818	0.1	-1.2333e-002
26563	9.1309	1.2727	0.1	-1.2623e-002
26564	9.2232	1.	0.1	-1.3612e-002
26565	9.1309	1.0909	0.1	-1.4167e-002
26566	9.2232	0.81818	0.1	-1.5244e-002
26567	9.1309	0.90909	0.1	-1.5387e-002
26568	9.2232	0.63636	0.1	-1.5879e-002
26569	9.1309	0.72727	0.1	-1.7664e-002
26570	9.2232	0.45455	0.1	-2.6735e-002
26571	9.1309	0.54545	0.1	-1.7076e-002
26572	9.2232	0.27273	0.1	-6.3744e-002
26573	9.1309	0.36364	0.1	-4.2262e-002
26574	9.1309	0.18182	0.1	-1.0631
26575	9.2232	9.0909e-002	0.1	-1.6503
26576	9.0385	5.7273	0.1	-6.1484e-002
26577	8.9462	5.8182	0.1	-0.67988
26578	9.0385	5.9091	0.1	-1.305
26579	9.0385	5.5455	0.1	-2.9516e-002
26580	8.9462	5.6364	0.1	-4.5504e-002
26581	9.0385	5.3636	0.1	-1.8244e-002
26582	8.9462	5.4545	0.1	-1.9685e-002
26583	9.0385	5.1818	0.1	-1.7561e-002
26584	8.9462	5.2727	0.1	-2.0295e-002
26585	9.0385	5.	0.1	-1.5807e-002
26586	8.9462	5.0909	0.1	-1.7919e-002
26587	9.0385	4.8182	0.1	-1.4366e-002
26588	8.9462	4.9091	0.1	-1.6574e-002
26589	9.0385	4.6364	0.1	-1.2666e-002
26590	8.9462	4.7273	0.1	-1.4823e-002
26591	9.0385	4.4545	0.1	-1.0809e-002
26592	8.9462	4.5455	0.1	-1.2903e-002
26593	9.0385	4.2727	0.1	-8.8227e-003
26594	8.9462	4.3636	0.1	-1.0778e-002
26595	9.0385	4.0909	0.1	-6.8036e-003
26596	8.9462	4.1818	0.1	-8.5572e-003
26597	9.0385	3.9091	0.1	-4.8524e-003
26598	8.9462	4.	0.1	-6.3457e-003
26599	9.0385	3.7273	0.1	-3.0759e-003
26600	8.9462	3.8182	0.1	-4.264e-003
26601	9.0385	3.5455	0.1	-1.5756e-003
26602	8.9462	3.6364	0.1	-2.4313e-003
26603	9.0385	3.3636	0.1	-4.3688e-004
26604	8.9462	3.4545	0.1	-9.5465e-004
26605	9.0385	3.1818	0.1	2.7448e-004
26606	8.9462	3.2727	0.1	8.1723e-005
26607	9.0385	3.	0.1	5.1628e-004
26608	8.9462	3.0909	0.1	6.1592e-004
26609	9.0385	2.8182	0.1	2.7445e-004
26610	8.9462	2.9091	0.1	6.1583e-004
26611	9.0385	2.6364	0.1	-4.3697e-004
26612	8.9462	2.7273	0.1	8.1753e-005
26613	9.0385	2.4545	0.1	-1.5758e-003
26614	8.9462	2.5455	0.1	-9.5468e-004
26615	9.0385	2.2727	0.1	-3.0763e-003
26616	8.9462	2.3636	0.1	-2.4314e-003
26617	9.0385	2.0909	0.1	-4.8528e-003
26618	8.9462	2.1818	0.1	-4.2644e-003
26619	9.0385	1.9091	0.1	-6.8041e-003
26620	8.9462	2.	0.1	-6.3459e-003
26621	9.0385	1.7273	0.1	-8.823e-003
26622	8.9462	1.8182	0.1	-8.5579e-003
26623	9.0385	1.5455	0.1	-1.0809e-002
26624	8.9462	1.6364	0.1	-1.0779e-002
26625	9.0385	1.3636	0.1	-1.2667e-002
26626	8.9462	1.4545	0.1	-1.2903e-002
26627	9.0385	1.1818	0.1	-1.4367e-002
26628	8.9462	1.2727	0.1	-1.4824e-002
26629	9.0385	1.	0.1	-1.5808e-002
26630	8.9462	1.0909	0.1	-1.6574e-002
26631	9.0385	0.81818	0.1	-1.7562e-002
26632	8.9462	0.90909	0.1	-1.7921e-002
26633	9.0385	0.63636	0.1	-1.8245e-002
26634	8.9462	0.72727	0.1	-2.0296e-002
26635	9.0385	0.45455	0.1	-2.9517e-002
26636	8.9462	0.54545	0.1	-1.9686e-002
26637	9.0385	0.27273	0.1	-6.1485e-002
26638	8.9462	0.36364	0.1	-4.5505e-002
26639	8.9462	0.18182	0.1	-0.67987
26640	9.0385	9.0909e-002	0.1	-1.305
26641	8.8538	5.7273	0.1	-6.1434e-002
26642	8.7615	5.8182	0.1	-0.45581
26643	8.8538	5.9091	0.1	-1.0021
26644	8.8538	5.5455	0.1	-3.2564e-002
26645	8.7615	5.6364	0.1	-4.8891e-002
26646	8.8538	5.3636	0.1	-2.1062e-002
26647	8.7615	5.4545	0.1	-2.2795e-002
26648	8.8538	5.1818	0.1	-2.0376e-002
26649	8.7615	5.2727	0.1	-2.3472e-002
26650	8.8538	5.	0.1	-1.8529e-002
26651	8.7615	5.0909	0.1	-2.1056e-002
26652	8.8538	4.8182	0.1	-1.6923e-002
26653	8.7615	4.9091	0.1	-1.9593e-002
26654	8.8538	4.6364	0.1	-1.4972e-002
26655	8.7615	4.7273	0.1	-1.7618e-002
26656	8.8538	4.4545	0.1	-1.2793e-002
26657	8.7615	4.5455	0.1	-1.5383e-002
26658	8.8538	4.2727	0.1	-1.0437e-002
26659	8.7615	4.3636	0.1	-1.2872e-002
26660	8.8538	4.0909	0.1	-8.0232e-003
26661	8.7615	4.1818	0.1	-1.0222e-002
26662	8.8538	3.9091	0.1	-5.6797e-003
26663	8.7615	4.	0.1	-7.5675e-003
26664	8.8538	3.7273	0.1	-3.5397e-003
26665	8.7615	3.8182	0.1	-5.0604e-003
26666	8.8538	3.5455	0.1	-1.7286e-003
26667	8.7615	3.6364	0.1	-2.8482e-003
26668	8.8538	3.3636	0.1	-3.5262e-004
26669	8.7615	3.4545	0.1	-1.0631e-003
26670	8.8538	3.1818	0.1	5.0764e-004
26671	8.7615	3.2727	0.1	1.9064e-004
26672	8.8538	3.	0.1	8.0032e-004
26673	8.7615	3.0909	0.1	8.3732e-004
26674	8.8538	2.8182	0.1	5.0761e-004
26675	8.7615	2.9091	0.1	8.3711e-004
26676	8.8538	2.6364	0.1	-3.5253e-004
26677	8.7615	2.7273	0.1	1.9067e-004
26678	8.8538	2.4545	0.1	-1.7285e-003
26679	8.7615	2.5455	0.1	-1.063e-003
26680	8.8538	2.2727	0.1	-3.5398e-003
26681	8.7615	2.3636	0.1	-2.8484e-003
26682	8.8538	2.0909	0.1	-5.6798e-003
26683	8.7615	2.1818	0.1	-5.0608e-003
26684	8.8538	1.9091	0.1	-8.0236e-003
26685	8.7615	2.	0.1	-7.5679e-003
26686	8.8538	1.7273	0.1	-1.0438e-002
26687	8.7615	1.8182	0.1	-1.0222e-002
26688	8.8538	1.5455	0.1	-1.2794e-002
26689	8.7615	1.6364	0.1	-1.2873e-002
26690	8.8538	1.3636	0.1	-1.4973e-002
26691	8.7615	1.4545	0.1	-1.5383e-002
26692	8.8538	1.1818	0.1	-1.6923e-002
26693	8.7615	1.2727	0.1	-1.7619e-002
26694	8.8538	1.	0.1	-1.853e-002
26695	8.7615	1.0909	0.1	-1.9593e-002
26696	8.8538	0.81818	0.1	-2.0377e-002
26697	8.7615	0.90909	0.1	-2.1058e-002
26698	8.8538	0.63636	0.1	-2.1063e-002
26699	8.7615	0.72727	0.1	-2.3473e-002
26700	8.8538	0.45455	0.1	-3.2564e-002
26701	8.7615	0.54545	0.1	-2.2795e-002
26702	8.8538	0.27273	0.1	-6.1435e-002
26703	8.7615	0.36364	0.1	-4.8892e-002
26704	8.7615	0.18182	0.1	-0.45581
26705	8.8538	9.0909e-002	0.1	-1.0021
26706	8.6691	5.7273	0.1	-6.2854e-002
26707	8.5768	5.8182	0.1	-0.34651
26708	8.6691	5.9091	0.1	-0.75539
26709	8.6691	5.5455	0.1	-3.5951e-002
26710	8.5768	5.6364	0.1	-5.2461e-002
26711	8.6691	5.3636	0.1	-2.4467e-002
26712	8.5768	5.4545	0.1	-2.6567e-002
26713	8.6691	5.1818	0.1	-2.3838e-002
26714	8.5768	5.2727	0.1	-2.7367e-002
26715	8.6691	5.	0.1	-2.1937e-002
26716	8.5768	5.0909	0.1	-2.4986e-002
26717	8.6691	4.8182	0.1	-2.0158e-002
26718	8.5768	4.9091	0.1	-2.3412e-002
26719	8.6691	4.6364	0.1	-1.7921e-002
26720	8.5768	4.7273	0.1	-2.1188e-002
26721	8.6691	4.4545	0.1	-1.5363e-002
26722	8.5768	4.5455	0.1	-1.8579e-002
26723	8.6691	4.2727	0.1	-1.2561e-002
26724	8.5768	4.3636	0.1	-1.5603e-002
26725	8.6691	4.0909	0.1	-9.6696e-003
26726	8.5768	4.1818	0.1	-1.2431e-002
26727	8.6691	3.9091	0.1	-6.8494e-003
26728	8.5768	4.	0.1	-9.2374e-003
26729	8.6691	3.7273	0.1	-4.2675e-003
26730	8.5768	3.8182	0.1	-6.2116e-003
26731	8.6691	3.5455	0.1	-2.0787e-003
26732	8.5768	3.6364	0.1	-3.5365e-003
26733	8.6691	3.3636	0.1	-4.1383e-004
26734	8.5768	3.4545	0.1	-1.3754e-003
26735	8.6691	3.1818	0.1	6.2756e-004
26736	8.5768	3.2727	0.1	1.4351e-004
26737	8.6691	3.	0.1	9.8179e-004
26738	8.5768	3.0909	0.1	9.2676e-004
26739	8.6691	2.8182	0.1	6.2741e-004
26740	8.5768	2.9091	0.1	9.2676e-004
26741	8.6691	2.6364	0.1	-4.1383e-004
26742	8.5768	2.7273	0.1	1.4336e-004
26743	8.6691	2.4545	0.1	-2.0789e-003
26744	8.5768	2.5455	0.1	-1.3755e-003
26745	8.6691	2.2727	0.1	-4.268e-003
26746	8.5768	2.3636	0.1	-3.5369e-003
26747	8.6691	2.0909	0.1	-6.8501e-003
26748	8.5768	2.1818	0.1	-6.2121e-003
26749	8.6691	1.9091	0.1	-9.6701e-003
26750	8.5768	2.	0.1	-9.238e-003
26751	8.6691	1.7273	0.1	-1.2562e-002
26752	8.5768	1.8182	0.1	-1.2432e-002
26753	8.6691	1.5455	0.1	-1.5363e-002
26754	8.5768	1.6364	0.1	-1.5603e-002
26755	8.6691	1.3636	0.1	-1.7922e-002
26756	8.5768	1.4545	0.1	-1.8579e-002
26757	8.6691	1.1818	0.1	-2.0159e-002
26758	8.5768	1.2727	0.1	-2.1188e-002
26759	8.6691	1.	0.1	-2.1938e-002
26760	8.5768	1.0909	0.1	-2.3413e-002
26761	8.6691	0.81818	0.1	-2.3839e-002
26762	8.5768	0.90909	0.1	-2.4987e-002
26763	8.6691	0.63636	0.1	-2.4468e-002
26764	8.5768	0.72727	0.1	-2.7369e-002
26765	8.6691	0.45455	0.1	-3.5952e-002
26766	8.5768	0.54545	0.1	-2.6567e-002
26767	8.6691	0.27273	0.1	-6.2855e-002
26768	8.5768	0.36364	0.1	-5.2462e-002
26769	8.5768	0.18182	0.1	-0.34651
26770	8.6691	9.0909e-002	0.1	-0.75538
26771	8.4844	5.7273	0.1	-6.5506e-002
26772	8.392	5.8182	0.1	-0.29889
26773	8.4844	5.9091	0.1	-0.57559
26774	8.4844	5.5455	0.1	-3.9799e-002
26775	8.392	5.6364	0.1	-5.632e-002
26776	8.4844	5.3636	0.1	-2.8657e-002
26777	8.392	5.4545	0.1	-3.1246e-002
26778	8.4844	5.1818	0.1	-2.8157e-002
26779	8.392	5.2727	0.1	-3.2236e-002
26780	8.4844	5.	0.1	-2.6247e-002
26781	8.392	5.0909	0.1	-2.9975e-002
26782	8.4844	4.8182	0.1	-2.4284e-002
26783	8.392	4.9091	0.1	-2.8294e-002
26784	8.4844	4.6364	0.1	-2.1712e-002
26785	8.392	4.7273	0.1	-2.5777e-002
26786	8.4844	4.4545	0.1	-1.8695e-002
26787	8.392	4.5455	0.1	-2.2714e-002
26788	8.4844	4.2727	0.1	-1.5351e-002
26789	8.392	4.3636	0.1	-1.9167e-002
26790	8.4844	4.0909	0.1	-1.1876e-002
26791	8.392	4.1818	0.1	-1.5355e-002
26792	8.4844	3.9091	0.1	-8.4733e-003
26793	8.392	4.	0.1	-1.1499e-002
26794	8.4844	3.7273	0.1	-5.3511e-003
26795	8.392	3.8182	0.1	-7.8362e-003
26796	8.4844	3.5455	0.1	-2.7006e-003
26797	8.392	3.6364	0.1	-4.5939e-003
26798	8.4844	3.3636	0.1	-6.8324e-004
26799	8.392	3.4545	0.1	-1.9727e-003
26800	8.4844	3.1818	0.1	5.7897e-004
26801	8.392	3.2727	0.1	-1.297e-004
26802	8.4844	3.	0.1	1.0085e-003
26803	8.392	3.0909	0.1	8.2071e-004
26804	8.4844	2.8182	0.1	5.7897e-004
26805	8.392	2.9091	0.1	8.2068e-004
26806	8.4844	2.6364	0.1	-6.8345e-004
26807	8.392	2.7273	0.1	-1.2994e-004
26808	8.4844	2.4545	0.1	-2.701e-003
26809	8.392	2.5455	0.1	-1.9728e-003
26810	8.4844	2.2727	0.1	-5.3515e-003
26811	8.392	2.3636	0.1	-4.5943e-003
26812	8.4844	2.0909	0.1	-8.4737e-003
26813	8.392	2.1818	0.1	-7.8366e-003
26814	8.4844	1.9091	0.1	-1.1876e-002
26815	8.392	2.	0.1	-1.1499e-002
26816	8.4844	1.7273	0.1	-1.5351e-002
26817	8.392	1.8182	0.1	-1.5355e-002
26818	8.4844	1.5455	0.1	-1.8695e-002
26819	8.392	1.6364	0.1	-1.9168e-002
26820	8.4844	1.3636	0.1	-2.1712e-002
26821	8.392	1.4545	0.1	-2.2715e-002
26822	8.4844	1.1818	0.1	-2.4285e-002
26823	8.392	1.2727	0.1	-2.5778e-002
26824	8.4844	1.	0.1	-2.6248e-002
26825	8.392	1.0909	0.1	-2.8295e-002
26826	8.4844	0.81818	0.1	-2.8158e-002
26827	8.392	0.90909	0.1	-2.9977e-002
26828	8.4844	0.63636	0.1	-2.8658e-002
26829	8.392	0.72727	0.1	-3.2237e-002
26830	8.4844	0.45455	0.1	-3.9799e-002
26831	8.392	0.54545	0.1	-3.1246e-002
26832	8.4844	0.27273	0.1	-6.5507e-002
26833	8.392	0.36364	0.1	-5.632e-002
26834	8.392	0.18182	0.1	-0.29889
26835	8.4844	9.0909e-002	0.1	-0.57558
26836	8.2997	5.7273	0.1	-6.95e-002
26837	8.2073	5.8182	0.1	-0.28851
26838	8.2997	5.9091	0.1	-0.46481
26839	8.2997	5.5455	0.1	-4.4322e-002
26840	8.2073	5.6364	0.1	-6.0727e-002
26841	8.2997	5.3636	0.1	-3.393e-002
26842	8.2073	5.4545	0.1	-3.7231e-002
26843	8.2997	5.1818	0.1	-3.3644e-002
26844	8.2073	5.2727	0.1	-3.8471e-002
26845	8.2997	5.	0.1	-3.1769e-002
26846	8.2073	5.0909	0.1	-3.6421e-002
26847	8.2997	4.8182	0.1	-2.9595e-002
26848	8.2073	4.9091	0.1	-3.4613e-002
26849	8.2997	4.6364	0.1	-2.6613e-002
26850	8.2073	4.7273	0.1	-3.1731e-002
26851	8.2997	4.4545	0.1	-2.3029e-002
26852	8.2073	4.5455	0.1	-2.8097e-002
26853	8.2997	4.2727	0.1	-1.9015e-002
26854	8.2073	4.3636	0.1	-2.3835e-002
26855	8.2997	4.0909	0.1	-1.4819e-002
26856	8.2073	4.1818	0.1	-1.9223e-002
26857	8.2997	3.9091	0.1	-1.0699e-002
26858	8.2073	4.	0.1	-1.4544e-002
26859	8.2997	3.7273	0.1	-6.913e-003
26860	8.2073	3.8182	0.1	-1.0096e-002
26861	8.2997	3.5455	0.1	-3.6966e-003
26862	8.2073	3.6364	0.1	-6.1551e-003
26863	8.2997	3.3636	0.1	-1.2473e-003
26864	8.2073	3.4545	0.1	-2.9685e-003
26865	8.2997	3.1818	0.1	2.8543e-004
26866	8.2073	3.2727	0.1	-7.2861e-004
26867	8.2997	3.	0.1	8.0682e-004
26868	8.2073	3.0909	0.1	4.266e-004
26869	8.2997	2.8182	0.1	2.8516e-004
26870	8.2073	2.9091	0.1	4.2646e-004
26871	8.2997	2.6364	0.1	-1.2474e-003
26872	8.2073	2.7273	0.1	-7.2882e-004
26873	8.2997	2.4545	0.1	-3.6968e-003
26874	8.2073	2.5455	0.1	-2.9685e-003
26875	8.2997	2.2727	0.1	-6.9134e-003
26876	8.2073	2.3636	0.1	-6.1553e-003
26877	8.2997	2.0909	0.1	-1.07e-002
26878	8.2073	2.1818	0.1	-1.0096e-002
26879	8.2997	1.9091	0.1	-1.4819e-002
26880	8.2073	2.	0.1	-1.4545e-002
26881	8.2997	1.7273	0.1	-1.9015e-002
26882	8.2073	1.8182	0.1	-1.9223e-002
26883	8.2997	1.5455	0.1	-2.303e-002
26884	8.2073	1.6364	0.1	-2.3835e-002
26885	8.2997	1.3636	0.1	-2.6614e-002
26886	8.2073	1.4545	0.1	-2.8098e-002
26887	8.2997	1.1818	0.1	-2.9596e-002
26888	8.2073	1.2727	0.1	-3.1731e-002
26889	8.2997	1.	0.1	-3.177e-002
26890	8.2073	1.0909	0.1	-3.4614e-002
26891	8.2997	0.81818	0.1	-3.3645e-002
26892	8.2073	0.90909	0.1	-3.6423e-002
26893	8.2997	0.63636	0.1	-3.393e-002
26894	8.2073	0.72727	0.1	-3.8472e-002
26895	8.2997	0.45455	0.1	-4.4323e-002
26896	8.2073	0.54545	0.1	-3.7231e-002
26897	8.2997	0.27273	0.1	-6.9501e-002
26898	8.2073	0.36364	0.1	-6.0729e-002
26899	8.2073	0.18182	0.1	-0.28851
26900	8.2997	9.0909e-002	0.1	-0.46481
26901	8.115	5.7273	0.1	-7.5406e-002
26902	8.0226	5.8182	0.1	-0.31549
26903	8.115	5.9091	0.1	-0.4209
26904	8.115	5.5455	0.1	-4.9927e-002
26905	8.0226	5.6364	0.1	-6.6283e-002
26906	8.115	5.3636	0.1	-4.0769e-002
26907	8.0226	5.4545	0.1	-4.5196e-002
26908	8.115	5.1818	0.1	-4.0774e-002
26909	8.0226	5.2727	0.1	-4.6704e-002
26910	8.115	5.	0.1	-3.8962e-002
26911	8.0226	5.0909	0.1	-4.4922e-002
26912	8.115	4.8182	0.1	-3.6512e-002
26913	8.0226	4.9091	0.1	-4.2913e-002
26914	8.115	4.6364	0.1	-3.3003e-002
26915	8.0226	4.7273	0.1	-3.9533e-002
26916	8.115	4.4545	0.1	-2.8699e-002
26917	8.0226	4.5455	0.1	-3.5149e-002
26918	8.115	4.2727	0.1	-2.384e-002
26919	8.0226	4.3636	0.1	-2.9968e-002
26920	8.115	4.0909	0.1	-1.8742e-002
26921	8.0226	4.1818	0.1	-2.4342e-002
26922	8.115	3.9091	0.1	-1.3731e-002
26923	8.0226	4.	0.1	-1.8633e-002
26924	8.115	3.7273	0.1	-9.1239e-003
26925	8.0226	3.8182	0.1	-1.3205e-002
26926	8.115	3.5455	0.1	-5.2098e-003
26927	8.0226	3.6364	0.1	-8.3996e-003
26928	8.115	3.3636	0.1	-2.2302e-003
26929	8.0226	3.4545	0.1	-4.5165e-003
26930	8.115	3.1818	0.1	-3.6637e-004
26931	8.0226	3.2727	0.1	-1.789e-003
26932	8.115	3.	0.1	2.6781e-004
26933	8.0226	3.0909	0.1	-3.8311e-004
26934	8.115	2.8182	0.1	-3.6646e-004
26935	8.0226	2.9091	0.1	-3.8293e-004
26936	8.115	2.6364	0.1	-2.2304e-003
26937	8.0226	2.7273	0.1	-1.7893e-003
26938	8.115	2.4545	0.1	-5.21e-003
26939	8.0226	2.5455	0.1	-4.5166e-003
26940	8.115	2.2727	0.1	-9.1241e-003
26941	8.0226	2.3636	0.1	-8.3999e-003
26942	8.115	2.0909	0.1	-1.3732e-002
26943	8.0226	2.1818	0.1	-1.3205e-002
26944	8.115	1.9091	0.1	-1.8743e-002
26945	8.0226	2.	0.1	-1.8633e-002
26946	8.115	1.7273	0.1	-2.384e-002
26947	8.0226	1.8182	0.1	-2.4343e-002
26948	8.115	1.5455	0.1	-2.87e-002
26949	8.0226	1.6364	0.1	-2.9968e-002
26950	8.115	1.3636	0.1	-3.3004e-002
26951	8.0226	1.4545	0.1	-3.515e-002
26952	8.115	1.1818	0.1	-3.6512e-002
26953	8.0226	1.2727	0.1	-3.9534e-002
26954	8.115	1.	0.1	-3.8963e-002
26955	8.0226	1.0909	0.1	-4.2913e-002
26956	8.115	0.81818	0.1	-4.0775e-002
26957	8.0226	0.90909	0.1	-4.4924e-002
26958	8.115	0.63636	0.1	-4.077e-002
26959	8.0226	0.72727	0.1	-4.6705e-002
26960	8.115	0.45455	0.1	-4.9928e-002
26961	8.0226	0.54545	0.1	-4.5196e-002
26962	8.115	0.27273	0.1	-7.5408e-002
26963	8.0226	0.36364	0.1	-6.6284e-002
26964	8.0226	0.18182	0.1	-0.31549
26965	8.115	9.0909e-002	0.1	-0.42089
26966	7.9303	5.7273	0.1	-8.4745e-002
26967	7.8379	5.8182	0.1	-0.4178
26968	7.9303	5.9091	0.1	-0.4611
26969	7.9303	5.5455	0.1	-5.7395e-002
26970	7.8379	5.6364	0.1	-7.4424e-002
26971	7.9303	5.3636	0.1	-4.9978e-002
26972	7.8379	5.4545	0.1	-5.6374e-002
26973	7.9303	5.1818	0.1	-5.0289e-002
26974	7.8379	5.2727	0.1	-5.8002e-002
26975	7.9303	5.	0.1	-4.8499e-002
26976	7.8379	5.0909	0.1	-5.6405e-002
26977	7.9303	4.8182	0.1	-4.5632e-002
26978	7.8379	4.9091	0.1	-5.3994e-002
26979	7.9303	4.6364	0.1	-4.1403e-002
26980	7.8379	4.7273	0.1	-4.9868e-002
26981	7.9303	4.4545	0.1	-3.615e-002
26982	7.8379	4.5455	0.1	-4.445e-002
26983	7.9303	4.2727	0.1	-3.0203e-002
26984	7.8379	4.3636	0.1	-3.8052e-002
26985	7.9303	4.0909	0.1	-2.3963e-002
26986	7.8379	4.1818	0.1	-3.1119e-002
26987	7.9303	3.9091	0.1	-1.7833e-002
26988	7.8379	4.	0.1	-2.41e-002
26989	7.9303	3.7273	0.1	-1.2203e-002
26990	7.8379	3.8182	0.1	-1.7442e-002
26991	7.9303	3.5455	0.1	-7.4269e-003
26992	7.8379	3.6364	0.1	-1.1562e-002
26993	7.9303	3.3636	0.1	-3.7941e-003
26994	7.8379	3.4545	0.1	-6.8176e-003
26995	7.9303	3.1818	0.1	-1.5233e-003
26996	7.8379	3.2727	0.1	-3.4898e-003
26997	7.9303	3.	0.1	-7.5101e-004
26998	7.8379	3.0909	0.1	-1.7762e-003
26999	7.9303	2.8182	0.1	-1.5233e-003
27000	7.8379	2.9091	0.1	-1.7762e-003
27001	7.9303	2.6364	0.1	-3.7942e-003
27002	7.8379	2.7273	0.1	-3.4903e-003
27003	7.9303	2.4545	0.1	-7.4271e-003
27004	7.8379	2.5455	0.1	-6.8178e-003
27005	7.9303	2.2727	0.1	-1.2204e-002
27006	7.8379	2.3636	0.1	-1.1562e-002
27007	7.9303	2.0909	0.1	-1.7833e-002
27008	7.8379	2.1818	0.1	-1.7443e-002
27009	7.9303	1.9091	0.1	-2.3963e-002
27010	7.8379	2.	0.1	-2.41e-002
27011	7.9303	1.7273	0.1	-3.0203e-002
27012	7.8379	1.8182	0.1	-3.1119e-002
27013	7.9303	1.5455	0.1	-3.615e-002
27014	7.8379	1.6364	0.1	-3.8053e-002
27015	7.9303	1.3636	0.1	-4.1404e-002
27016	7.8379	1.4545	0.1	-4.4451e-002
27017	7.9303	1.1818	0.1	-4.5632e-002
27018	7.8379	1.2727	0.1	-4.9869e-002
27019	7.9303	1.	0.1	-4.85e-002
27020	7.8379	1.0909	0.1	-5.3995e-002
27021	7.9303	0.81818	0.1	-5.0291e-002
27022	7.8379	0.90909	0.1	-5.6406e-002
27023	7.9303	0.63636	0.1	-4.9978e-002
27024	7.8379	0.72727	0.1	-5.8002e-002
27025	7.9303	0.45455	0.1	-5.7396e-002
27026	7.8379	0.54545	0.1	-5.6373e-002
27027	7.9303	0.27273	0.1	-8.4746e-002
27028	7.8379	0.36364	0.1	-7.4425e-002
27029	7.8379	0.18182	0.1	-0.4178
27030	7.9303	9.0909e-002	0.1	-0.4611
27031	7.7456	5.7273	0.1	-0.10182
27032	7.6532	5.8182	0.1	-0.76174
27033	7.7456	5.9091	0.1	-0.65644
27034	7.7456	5.5455	0.1	-6.8396e-002
27035	7.6532	5.6364	0.1	-8.9084e-002
27036	7.7456	5.3636	0.1	-6.2994e-002
27037	7.6532	5.4545	0.1	-7.3258e-002
27038	7.7456	5.1818	0.1	-6.3406e-002
27039	7.6532	5.2727	0.1	-7.4188e-002
27040	7.7456	5.	0.1	-6.1418e-002
27041	7.6532	5.0909	0.1	-7.2382e-002
27042	7.7456	4.8182	0.1	-5.7828e-002
27043	7.6532	4.9091	0.1	-6.9078e-002
27044	7.7456	4.6364	0.1	-5.2543e-002
27045	7.6532	4.7273	0.1	-6.3733e-002
27046	7.7456	4.4545	0.1	-4.5991e-002
27047	7.6532	4.5455	0.1	-5.6815e-002
27048	7.7456	4.2727	0.1	-3.861e-002
27049	7.6532	4.3636	0.1	-4.8757e-002
27050	7.7456	4.0909	0.1	-3.0897e-002
27051	7.6532	4.1818	0.1	-4.01e-002
27052	7.7456	3.9091	0.1	-2.335e-002
27053	7.6532	4.	0.1	-3.1396e-002
27054	7.7456	3.7273	0.1	-1.644e-002
27055	7.6532	3.8182	0.1	-2.3182e-002
27056	7.7456	3.5455	0.1	-1.0591e-002
27057	7.6532	3.6364	0.1	-1.5956e-002
27058	7.7456	3.3636	0.1	-6.1518e-003
27059	7.6532	3.4545	0.1	-1.0144e-002
27060	7.7456	3.1818	0.1	-3.381e-003
27061	7.6532	3.2727	0.1	-6.077e-003
27062	7.7456	3.	0.1	-2.4396e-003
27063	7.6532	3.0909	0.1	-3.9854e-003
27064	7.7456	2.8182	0.1	-3.3814e-003
27065	7.6532	2.9091	0.1	-3.9856e-003
27066	7.7456	2.6364	0.1	-6.1523e-003
27067	7.6532	2.7273	0.1	-6.0773e-003
27068	7.7456	2.4545	0.1	-1.0592e-002
27069	7.6532	2.5455	0.1	-1.0144e-002
27070	7.7456	2.2727	0.1	-1.644e-002
27071	7.6532	2.3636	0.1	-1.5956e-002
27072	7.7456	2.0909	0.1	-2.335e-002
27073	7.6532	2.1818	0.1	-2.3182e-002
27074	7.7456	1.9091	0.1	-3.0898e-002
27075	7.6532	2.	0.1	-3.1396e-002
27076	7.7456	1.7273	0.1	-3.861e-002
27077	7.6532	1.8182	0.1	-4.0101e-002
27078	7.7456	1.5455	0.1	-4.5992e-002
27079	7.6532	1.6364	0.1	-4.8757e-002
27080	7.7456	1.3636	0.1	-5.2544e-002
27081	7.6532	1.4545	0.1	-5.6816e-002
27082	7.7456	1.1818	0.1	-5.7829e-002
27083	7.6532	1.2727	0.1	-6.3734e-002
27084	7.7456	1.	0.1	-6.1419e-002
27085	7.6532	1.0909	0.1	-6.9079e-002
27086	7.7456	0.81818	0.1	-6.3407e-002
27087	7.6532	0.90909	0.1	-7.2384e-002
27088	7.7456	0.63636	0.1	-6.2994e-002
27089	7.6532	0.72727	0.1	-7.4188e-002
27090	7.7456	0.45455	0.1	-6.8396e-002
27091	7.6532	0.54545	0.1	-7.3257e-002
27092	7.7456	0.27273	0.1	-0.10183
27093	7.6532	0.36364	0.1	-8.9085e-002
27094	7.6532	0.18182	0.1	-0.76173
27095	7.7456	9.0909e-002	0.1	-0.65643
27096	7.5609	5.7273	0.1	-0.14282
27097	7.4685	5.8182	0.1	-1.6734
27098	7.5609	5.9091	0.1	-1.0938
27099	7.5609	5.5455	0.1	-8.6992e-002
27100	7.4685	5.6364	0.1	-0.12412
27101	7.5609	5.3636	0.1	-8.2644e-002
27102	7.4685	5.4545	0.1	-0.10168
27103	7.5609	5.1818	0.1	-8.2251e-002
27104	7.4685	5.2727	0.1	-9.9024e-002
27105	7.5609	5.	0.1	-7.9379e-002
27106	7.4685	5.0909	0.1	-9.5454e-002
27107	7.5609	4.8182	0.1	-7.4419e-002
27108	7.4685	4.9091	0.1	-9.0097e-002
27109	7.5609	4.6364	0.1	-6.7483e-002
27110	7.4685	4.7273	0.1	-8.2611e-002
27111	7.5609	4.4545	0.1	-5.9079e-002
27112	7.4685	4.5455	0.1	-7.3409e-002
27113	7.5609	4.2727	0.1	-4.9757e-002
27114	7.4685	4.3636	0.1	-6.3008e-002
27115	7.5609	4.0909	0.1	-4.0116e-002
27116	7.4685	4.1818	0.1	-5.2033e-002
27117	7.5609	3.9091	0.1	-3.0751e-002
27118	7.4685	4.	0.1	-4.1127e-002
27119	7.5609	3.7273	0.1	-2.2225e-002
27120	7.4685	3.8182	0.1	-3.0924e-002
27121	7.5609	3.5455	0.1	-1.504e-002
27122	7.4685	3.6364	0.1	-2.2006e-002
27123	7.5609	3.3636	0.1	-9.603e-003
27124	7.4685	3.4545	0.1	-1.4868e-002
27125	7.5609	3.1818	0.1	-6.2171e-003
27126	7.4685	3.2727	0.1	-9.8905e-003
27127	7.5609	3.	0.1	-5.0677e-003
27128	7.4685	3.0909	0.1	-7.3363e-003
27129	7.5609	2.8182	0.1	-6.2172e-003
27130	7.4685	2.9091	0.1	-7.3363e-003
27131	7.5609	2.6364	0.1	-9.6031e-003
27132	7.4685	2.7273	0.1	-9.8907e-003
27133	7.5609	2.4545	0.1	-1.504e-002
27134	7.4685	2.5455	0.1	-1.4868e-002
27135	7.5609	2.2727	0.1	-2.2225e-002
27136	7.4685	2.3636	0.1	-2.2006e-002
27137	7.5609	2.0909	0.1	-3.0751e-002
27138	7.4685	2.1818	0.1	-3.0924e-002
27139	7.5609	1.9091	0.1	-4.0117e-002
27140	7.4685	2.	0.1	-4.1127e-002
27141	7.5609	1.7273	0.1	-4.9758e-002
27142	7.4685	1.8182	0.1	-5.2034e-002
27143	7.5609	1.5455	0.1	-5.908e-002
27144	7.4685	1.6364	0.1	-6.3009e-002
27145	7.5609	1.3636	0.1	-6.7484e-002
27146	7.4685	1.4545	0.1	-7.341e-002
27147	7.5609	1.1818	0.1	-7.4419e-002
27148	7.4685	1.2727	0.1	-8.2612e-002
27149	7.5609	1.	0.1	-7.938e-002
27150	7.4685	1.0909	0.1	-9.0097e-002
27151	7.5609	0.81818	0.1	-8.2252e-002
27152	7.4685	0.90909	0.1	-9.5455e-002
27153	7.5609	0.63636	0.1	-8.2645e-002
27154	7.4685	0.72727	0.1	-9.9025e-002
27155	7.5609	0.45455	0.1	-8.6993e-002
27156	7.4685	0.54545	0.1	-0.10168
27157	7.5609	0.27273	0.1	-0.14282
27158	7.4685	0.36364	0.1	-0.12412
27159	7.4685	0.18182	0.1	-1.6734
27160	7.5609	9.0909e-002	0.1	-1.0938
27161	7.3761	5.7273	0.1	-0.32818
27162	7.2838	5.8182	0.1	-3.2322
27163	7.3761	5.9091	0.1	-1.8099
27164	7.3761	5.5455	0.1	-0.12548
27165	7.2838	5.6364	0.1	-0.26818
27166	7.3761	5.3636	0.1	-0.11518
27167	7.2838	5.4545	0.1	-0.15862
27168	7.3761	5.1818	0.1	-0.1108
27169	7.2838	5.2727	0.1	-0.1404
27170	7.3761	5.	0.1	-0.10516
27171	7.2838	5.0909	0.1	-0.13036
27172	7.3761	4.8182	0.1	-9.744e-002
27173	7.2838	4.9091	0.1	-0.12021
27174	7.3761	4.6364	0.1	-8.777e-002
27175	7.2838	4.7273	0.1	-0.10876
27176	7.3761	4.4545	0.1	-7.662e-002
27177	7.2838	4.5455	0.1	-9.5912e-002
27178	7.3761	4.2727	0.1	-6.4599e-002
27179	7.2838	4.3636	0.1	-8.2098e-002
27180	7.3761	4.0909	0.1	-5.2384e-002
27181	7.2838	4.1818	0.1	-6.7929e-002
27182	7.3761	3.9091	0.1	-4.066e-002
27183	7.2838	4.	0.1	-5.4103e-002
27184	7.3761	3.7273	0.1	-3.008e-002
27185	7.2838	3.8182	0.1	-4.1332e-002
27186	7.3761	3.5455	0.1	-2.1222e-002
27187	7.2838	3.6364	0.1	-3.0275e-002
27188	7.3761	3.3636	0.1	-1.4552e-002
27189	7.2838	3.4545	0.1	-2.1488e-002
27190	7.3761	3.1818	0.1	-1.0412e-002
27191	7.2838	3.2727	0.1	-1.5394e-002
27192	7.3761	3.	0.1	-9.0096e-003
27193	7.2838	3.0909	0.1	-1.2276e-002
27194	7.3761	2.8182	0.1	-1.0413e-002
27195	7.2838	2.9091	0.1	-1.2276e-002
27196	7.3761	2.6364	0.1	-1.4552e-002
27197	7.2838	2.7273	0.1	-1.5394e-002
27198	7.3761	2.4545	0.1	-2.1222e-002
27199	7.2838	2.5455	0.1	-2.1488e-002
27200	7.3761	2.2727	0.1	-3.0081e-002
27201	7.2838	2.3636	0.1	-3.0276e-002
27202	7.3761	2.0909	0.1	-4.066e-002
27203	7.2838	2.1818	0.1	-4.1333e-002
27204	7.3761	1.9091	0.1	-5.2384e-002
27205	7.2838	2.	0.1	-5.4104e-002
27206	7.3761	1.7273	0.1	-6.46e-002
27207	7.2838	1.8182	0.1	-6.7929e-002
27208	7.3761	1.5455	0.1	-7.6621e-002
27209	7.2838	1.6364	0.1	-8.2099e-002
27210	7.3761	1.3636	0.1	-8.7771e-002
27211	7.2838	1.4545	0.1	-9.5913e-002
27212	7.3761	1.1818	0.1	-9.7441e-002
27213	7.2838	1.2727	0.1	-0.10876
27214	7.3761	1.	0.1	-0.10516
27215	7.2838	1.0909	0.1	-0.12021
27216	7.3761	0.81818	0.1	-0.1108
27217	7.2838	0.90909	0.1	-0.13036
27218	7.3761	0.63636	0.1	-0.11518
27219	7.2838	0.72727	0.1	-0.1404
27220	7.3761	0.45455	0.1	-0.12548
27221	7.2838	0.54545	0.1	-0.15862
27222	7.3761	0.27273	0.1	-0.32818
27223	7.2838	0.36364	0.1	-0.26818
27224	7.2838	0.18182	0.1	-3.2322
27225	7.3761	9.0909e-002	0.1	-1.8099
27226	7.1914	5.7273	0.1	-1.9365
27227	7.0991	5.8182	0.1	-5.4338
27228	7.1914	5.9091	0.1	-2.8371
27229	7.1914	5.5455	0.1	-0.24111
27230	7.0991	5.6364	0.1	-1.9949
27231	7.1914	5.3636	0.1	-0.1772
27232	7.0991	5.4545	0.1	-0.31912
27233	7.1914	5.1818	0.1	-0.1572
27234	7.0991	5.2727	0.1	-0.21872
27235	7.1914	5.	0.1	-0.14363
27236	7.0991	5.0909	0.1	-0.18652
27237	7.1914	4.8182	0.1	-0.13013
27238	7.0991	4.9091	0.1	-0.16483
27239	7.1914	4.6364	0.1	-0.11571
27240	7.0991	4.7273	0.1	-0.14569
27241	7.1914	4.4545	0.1	-0.10033
27242	7.0991	4.5455	0.1	-0.1268
27243	7.1914	4.2727	0.1	-8.4449e-002
27244	7.0991	4.3636	0.1	-0.10785
27245	7.1914	4.0909	0.1	-6.8732e-002
27246	7.0991	4.1818	0.1	-8.9176e-002
27247	7.1914	3.9091	0.1	-5.3908e-002
27248	7.0991	4.	0.1	-7.1415e-002
27249	7.1914	3.7273	0.1	-4.0697e-002
27250	7.0991	3.8182	0.1	-5.5294e-002
27251	7.1914	3.5455	0.1	-2.9739e-002
27252	7.0991	3.6364	0.1	-4.1519e-002
27253	7.1914	3.3636	0.1	-2.1547e-002
27254	7.0991	3.4545	0.1	-3.0683e-002
27255	7.1914	3.1818	0.1	-1.6488e-002
27256	7.0991	3.2727	0.1	-2.3223e-002
27257	7.1914	3.	0.1	-1.4777e-002
27258	7.0991	3.0909	0.1	-1.9426e-002
27259	7.1914	2.8182	0.1	-1.6488e-002
27260	7.0991	2.9091	0.1	-1.9426e-002
27261	7.1914	2.6364	0.1	-2.1548e-002
27262	7.0991	2.7273	0.1	-2.3224e-002
27263	7.1914	2.4545	0.1	-2.9739e-002
27264	7.0991	2.5455	0.1	-3.0683e-002
27265	7.1914	2.2727	0.1	-4.0697e-002
27266	7.0991	2.3636	0.1	-4.1519e-002
27267	7.1914	2.0909	0.1	-5.3908e-002
27268	7.0991	2.1818	0.1	-5.5295e-002
27269	7.1914	1.9091	0.1	-6.8733e-002
27270	7.0991	2.	0.1	-7.1416e-002
27271	7.1914	1.7273	0.1	-8.445e-002
27272	7.0991	1.8182	0.1	-8.9177e-002
27273	7.1914	1.5455	0.1	-0.10033
27274	7.0991	1.6364	0.1	-0.10785
27275	7.1914	1.3636	0.1	-0.11571
27276	7.0991	1.4545	0.1	-0.1268
27277	7.1914	1.1818	0.1	-0.13013
27278	7.0991	1.2727	0.1	-0.14569
27279	7.1914	1.	0.1	-0.14363
27280	7.0991	1.0909	0.1	-0.16483
27281	7.1914	0.81818	0.1	-0.1572
27282	7.0991	0.90909	0.1	-0.18652
27283	7.1914	0.63636	0.1	-0.1772
27284	7.0991	0.72727	0.1	-0.21872
27285	7.1914	0.45455	0.1	-0.24111
27286	7.0991	0.54545	0.1	-0.31912
27287	7.1914	0.27273	0.1	-1.9365
27288	7.0991	0.36364	0.1	-1.9949
27289	7.0991	0.18182	0.1	-5.4338
27290	7.1914	9.0909e-002	0.1	-2.8371
27291	7.0067	5.7273	0.1	-5.3169
27292	6.9144	5.8182	0.1	-8.3476
27293	7.0067	5.9091	0.1	-4.2233
27294	7.0067	5.5455	0.1	-1.1895
27295	6.9144	5.6364	0.1	-6.8221
27296	7.0067	5.3636	0.1	-0.32906
27297	6.9144	5.4545	0.1	-1.4286
27298	7.0067	5.1818	0.1	-0.24058
27299	6.9144	5.2727	0.1	-0.40303
27300	7.0067	5.	0.1	-0.20398
27301	6.9144	5.0909	0.1	-0.28496
27302	7.0067	4.8182	0.1	-0.17787
27303	6.9144	4.9091	0.1	-0.23382
27304	7.0067	4.6364	0.1	-0.15483
27305	6.9144	4.7273	0.1	-0.19911
27306	7.0067	4.4545	0.1	-0.13269
27307	6.9144	4.5455	0.1	-0.16978
27308	7.0067	4.2727	0.1	-0.11115
27309	6.9144	4.3636	0.1	-0.14287
27310	7.0067	4.0909	0.1	-9.0568e-002
27311	6.9144	4.1818	0.1	-0.11769
27312	7.0067	3.9091	0.1	-7.1611e-002
27313	6.9144	4.	0.1	-9.4532e-002
27314	7.0067	3.7273	0.1	-5.5001e-002
27315	6.9144	3.8182	0.1	-7.3988e-002
27316	7.0067	3.5455	0.1	-4.1404e-002
27317	6.9144	3.6364	0.1	-5.6742e-002
27318	7.0067	3.3636	0.1	-3.1341e-002
27319	6.9144	3.4545	0.1	-4.3364e-002
27320	7.0067	3.1818	0.1	-2.5168e-002
27321	6.9144	3.2727	0.1	-3.4255e-002
27322	7.0067	3.	0.1	-2.3089e-002
27323	6.9144	3.0909	0.1	-2.965e-002
27324	7.0067	2.8182	0.1	-2.5168e-002
27325	6.9144	2.9091	0.1	-2.965e-002
27326	7.0067	2.6364	0.1	-3.1341e-002
27327	6.9144	2.7273	0.1	-3.4256e-002
27328	7.0067	2.4545	0.1	-4.1405e-002
27329	6.9144	2.5455	0.1	-4.3365e-002
27330	7.0067	2.2727	0.1	-5.5002e-002
27331	6.9144	2.3636	0.1	-5.6742e-002
27332	7.0067	2.0909	0.1	-7.1611e-002
27333	6.9144	2.1818	0.1	-7.3989e-002
27334	7.0067	1.9091	0.1	-9.0568e-002
27335	6.9144	2.	0.1	-9.4532e-002
27336	7.0067	1.7273	0.1	-0.11115
27337	6.9144	1.8182	0.1	-0.1177
27338	7.0067	1.5455	0.1	-0.13269
27339	6.9144	1.6364	0.1	-0.14287
27340	7.0067	1.3636	0.1	-0.15483
27341	6.9144	1.4545	0.1	-0.16978
27342	7.0067	1.1818	0.1	-0.17787
27343	6.9144	1.2727	0.1	-0.19911
27344	7.0067	1.	0.1	-0.20398
27345	6.9144	1.0909	0.1	-0.23382
27346	7.0067	0.81818	0.1	-0.24058
27347	6.9144	0.90909	0.1	-0.28496
27348	7.0067	0.63636	0.1	-0.32906
27349	6.9144	0.72727	0.1	-0.40303
27350	7.0067	0.45455	0.1	-1.1895
27351	6.9144	0.54545	0.1	-1.4286
27352	7.0067	0.27273	0.1	-5.317
27353	6.9144	0.36364	0.1	-6.8221
27354	6.9144	0.18182	0.1	-8.3476
27355	7.0067	9.0909e-002	0.1	-4.2233
27356	6.822	5.7273	0.1	-9.7907
27357	6.7297	5.8182	0.1	-12.076
27358	6.822	5.9091	0.1	-6.0264
27359	6.822	5.5455	0.1	-6.5276
27360	6.7297	5.6364	0.1	-13.181
27361	6.822	5.3636	0.1	-0.99685
27362	6.7297	5.4545	0.1	-7.7583
27363	6.822	5.1818	0.1	-0.41639
27364	6.7297	5.2727	0.1	-1.0985
27365	6.822	5.	0.1	-0.30521
27366	6.7297	5.0909	0.1	-0.48174
27367	6.822	4.8182	0.1	-0.25
27368	6.7297	4.9091	0.1	-0.34656
27369	6.822	4.6364	0.1	-0.21067
27370	6.7297	4.7273	0.1	-0.27863
27371	6.822	4.4545	0.1	-0.17737
27372	6.7297	4.5455	0.1	-0.23058
27373	6.822	4.2727	0.1	-0.14728
27374	6.7297	4.3636	0.1	-0.19094
27375	6.822	4.0909	0.1	-0.11981
27376	6.7297	4.1818	0.1	-0.15616
27377	6.822	3.9091	0.1	-9.5257e-002
27378	6.7297	4.	0.1	-0.12544
27379	6.822	3.7273	0.1	-7.422e-002
27380	6.7297	3.8182	0.1	-9.898e-002
27381	6.822	3.5455	0.1	-5.73e-002
27382	6.7297	3.6364	0.1	-7.7275e-002
27383	6.822	3.3636	0.1	-4.4951e-002
27384	6.7297	3.4545	0.1	-6.0762e-002
27385	6.822	3.1818	0.1	-3.7453e-002
27386	6.7297	3.2727	0.1	-4.969e-002
27387	6.822	3.	0.1	-3.4941e-002
27388	6.7297	3.0909	0.1	-4.4149e-002
27389	6.822	2.8182	0.1	-3.7453e-002
27390	6.7297	2.9091	0.1	-4.4149e-002
27391	6.822	2.6364	0.1	-4.4951e-002
27392	6.7297	2.7273	0.1	-4.969e-002
27393	6.822	2.4545	0.1	-5.73e-002
27394	6.7297	2.5455	0.1	-6.0763e-002
27395	6.822	2.2727	0.1	-7.4221e-002
27396	6.7297	2.3636	0.1	-7.7276e-002
27397	6.822	2.0909	0.1	-9.5258e-002
27398	6.7297	2.1818	0.1	-9.8981e-002
27399	6.822	1.9091	0.1	-0.11981
27400	6.7297	2.	0.1	-0.12544
27401	6.822	1.7273	0.1	-0.14728
27402	6.7297	1.8182	0.1	-0.15616
27403	6.822	1.5455	0.1	-0.17737
27404	6.7297	1.6364	0.1	-0.19094
27405	6.822	1.3636	0.1	-0.21067
27406	6.7297	1.4545	0.1	-0.23058
27407	6.822	1.1818	0.1	-0.25
27408	6.7297	1.2727	0.1	-0.27863
27409	6.822	1.	0.1	-0.30521
27410	6.7297	1.0909	0.1	-0.34657
27411	6.822	0.81818	0.1	-0.41639
27412	6.7297	0.90909	0.1	-0.48175
27413	6.822	0.63636	0.1	-0.99686
27414	6.7297	0.72727	0.1	-1.0985
27415	6.822	0.45455	0.1	-6.5276
27416	6.7297	0.54545	0.1	-7.7583
27417	6.822	0.27273	0.1	-9.7907
27418	6.7297	0.36364	0.1	-13.181
27419	6.7297	0.18182	0.1	-12.076
27420	6.822	9.0909e-002	0.1	-6.0264
27421	6.6373	5.7273	0.1	-15.424
27422	6.545	5.8182	0.1	-16.733
27423	6.6373	5.9091	0.1	-8.3108
27424	6.6373	5.5455	0.1	-14.32
27425	6.545	5.6364	0.1	-21.06
27426	6.6373	5.3636	0.1	-6.1699
27427	6.545	5.4545	0.1	-17.259
27428	6.6373	5.1818	0.1	-0.91885
27429	6.545	5.2727	0.1	-5.9903
27430	6.6373	5.	0.1	-0.49235
27431	6.545	5.0909	0.1	-0.97867
27432	6.6373	4.8182	0.1	-0.36389
27433	6.545	4.9091	0.1	-0.54589
27434	6.6373	4.6364	0.1	-0.29229
27435	6.545	4.7273	0.1	-0.40145
27436	6.6373	4.4545	0.1	-0.2399
27437	6.545	4.5455	0.1	-0.31841
27438	6.6373	4.2727	0.1	-0.19656
27439	6.545	4.3636	0.1	-0.25778
27440	6.6373	4.0909	0.1	-0.1591
27441	6.545	4.1818	0.1	-0.20842
27442	6.6373	3.9091	0.1	-0.12685
27443	6.545	4.	0.1	-0.16689
27444	6.6373	3.7273	0.1	-9.9976e-002
27445	6.545	3.8182	0.1	-0.13237
27446	6.6373	3.5455	0.1	-7.8868e-002
27447	6.545	3.6364	0.1	-0.1049
27448	6.6373	3.3636	0.1	-6.3764e-002
27449	6.545	3.4545	0.1	-8.4543e-002
27450	6.6373	3.1818	0.1	-5.4727e-002
27451	6.545	3.2727	0.1	-7.1198e-002
27452	6.6373	3.	0.1	-5.1724e-002
27453	6.545	3.0909	0.1	-6.4622e-002
27454	6.6373	2.8182	0.1	-5.4727e-002
27455	6.545	2.9091	0.1	-6.4622e-002
27456	6.6373	2.6364	0.1	-6.3764e-002
27457	6.545	2.7273	0.1	-7.1198e-002
27458	6.6373	2.4545	0.1	-7.8869e-002
27459	6.545	2.5455	0.1	-8.4543e-002
27460	6.6373	2.2727	0.1	-9.9977e-002
27461	6.545	2.3636	0.1	-0.1049
27462	6.6373	2.0909	0.1	-0.12685
27463	6.545	2.1818	0.1	-0.13237
27464	6.6373	1.9091	0.1	-0.15911
27465	6.545	2.	0.1	-0.16689
27466	6.6373	1.7273	0.1	-0.19656
27467	6.545	1.8182	0.1	-0.20842
27468	6.6373	1.5455	0.1	-0.23991
27469	6.545	1.6364	0.1	-0.25778
27470	6.6373	1.3636	0.1	-0.29229
27471	6.545	1.4545	0.1	-0.31841
27472	6.6373	1.1818	0.1	-0.36389
27473	6.545	1.2727	0.1	-0.40145
27474	6.6373	1.	0.1	-0.49235
27475	6.545	1.0909	0.1	-0.54589
27476	6.6373	0.81818	0.1	-0.91886
27477	6.545	0.90909	0.1	-0.97868
27478	6.6373	0.63636	0.1	-6.1699
27479	6.545	0.72727	0.1	-5.9903
27480	6.6373	0.45455	0.1	-14.32
27481	6.545	0.54545	0.1	-17.259
27482	6.6373	0.27273	0.1	-15.424
27483	6.545	0.36364	0.1	-21.06
27484	6.545	0.18182	0.1	-16.733
27485	6.6373	9.0909e-002	0.1	-8.3108
27486	6.4526	5.7273	0.1	-22.343
27487	6.3602	5.8182	0.1	-22.435
27488	6.4526	5.9091	0.1	-11.143
27489	6.4526	5.5455	0.1	-23.974
27490	6.3602	5.6364	0.1	-30.577
27491	6.4526	5.3636	0.1	-16.615
27492	6.3602	5.4545	0.1	-28.955
27493	6.4526	5.1818	0.1	-3.5888
27494	6.3602	5.2727	0.1	-17.497
27495	6.4526	5.	0.1	-0.8973
27496	6.3602	5.0909	0.1	-2.9854
27497	6.4526	4.8182	0.1	-0.55486
27498	6.3602	4.9091	0.1	-0.94387
27499	6.4526	4.6364	0.1	-0.4153
27500	6.3602	4.7273	0.1	-0.60095
27501	6.4526	4.4545	0.1	-0.32903
27502	6.3602	4.5455	0.1	-0.44874
27503	6.4526	4.2727	0.1	-0.26453
27504	6.3602	4.3636	0.1	-0.35223
27505	6.4526	4.0909	0.1	-0.21222
27506	6.3602	4.1818	0.1	-0.28008
27507	6.4526	3.9091	0.1	-0.16911
27508	6.3602	4.	0.1	-0.22269
27509	6.4526	3.7273	0.1	-0.13446
27510	6.3602	3.8182	0.1	-0.17699
27511	6.4526	3.5455	0.1	-0.10806
27512	6.3602	3.6364	0.1	-0.14197
27513	6.4526	3.3636	0.1	-8.9697e-002
27514	6.3602	3.4545	0.1	-0.11696
27515	6.4526	3.1818	0.1	-7.8949e-002
27516	6.3602	3.2727	0.1	-0.1011
27517	6.4526	3.	0.1	-7.5422e-002
27518	6.3602	3.0909	0.1	-9.3466e-002
27519	6.4526	2.8182	0.1	-7.8949e-002
27520	6.3602	2.9091	0.1	-9.3466e-002
27521	6.4526	2.6364	0.1	-8.9698e-002
27522	6.3602	2.7273	0.1	-0.1011
27523	6.4526	2.4545	0.1	-0.10806
27524	6.3602	2.5455	0.1	-0.11696
27525	6.4526	2.2727	0.1	-0.13446
27526	6.3602	2.3636	0.1	-0.14197
27527	6.4526	2.0909	0.1	-0.16912
27528	6.3602	2.1818	0.1	-0.17699
27529	6.4526	1.9091	0.1	-0.21222
27530	6.3602	2.	0.1	-0.22269
27531	6.4526	1.7273	0.1	-0.26453
27532	6.3602	1.8182	0.1	-0.28008
27533	6.4526	1.5455	0.1	-0.32903
27534	6.3602	1.6364	0.1	-0.35223
27535	6.4526	1.3636	0.1	-0.4153
27536	6.3602	1.4545	0.1	-0.44875
27537	6.4526	1.1818	0.1	-0.55486
27538	6.3602	1.2727	0.1	-0.60095
27539	6.4526	1.	0.1	-0.8973
27540	6.3602	1.0909	0.1	-0.94388
27541	6.4526	0.81818	0.1	-3.5888
27542	6.3602	0.90909	0.1	-2.9855
27543	6.4526	0.63636	0.1	-16.615
27544	6.3602	0.72727	0.1	-17.497
27545	6.4526	0.45455	0.1	-23.974
27546	6.3602	0.54545	0.1	-28.955
27547	6.4526	0.27273	0.1	-22.343
27548	6.3602	0.36364	0.1	-30.577
27549	6.3602	0.18182	0.1	-22.435
27550	6.4526	9.0909e-002	0.1	-11.143
27551	6.2679	5.7273	0.1	-30.666
27552	6.1755	5.8182	0.1	-29.286
27553	6.2679	5.9091	0.1	-14.588
27554	6.2679	5.5455	0.1	-35.574
27555	6.1755	5.6364	0.1	-41.814
27556	6.2679	5.3636	0.1	-29.754
27557	6.1755	5.4545	0.1	-42.877
27558	6.2679	5.1818	0.1	-14.095
27559	6.1755	5.2727	0.1	-32.282
27560	6.2679	5.	0.1	-2.0723
27561	6.1755	5.0909	0.1	-12.217
27562	6.2679	4.8182	0.1	-0.90491
27563	6.1755	4.9091	0.1	-1.9273
27564	6.2679	4.6364	0.1	-0.60855
27565	6.1755	4.7273	0.1	-0.94994
27566	6.2679	4.4545	0.1	-0.45912
27567	6.1755	4.5455	0.1	-0.64965
27568	6.2679	4.2727	0.1	-0.3596
27569	6.1755	4.3636	0.1	-0.48881
27570	6.2679	4.0909	0.1	-0.28455
27571	6.1755	4.1818	0.1	-0.37976
27572	6.2679	3.9091	0.1	-0.22579
27573	6.1755	4.	0.1	-0.29836
27574	6.2679	3.7273	0.1	-0.18054
27575	6.1755	3.8182	0.1	-0.23668
27576	6.2679	3.5455	0.1	-0.14747
27577	6.1755	3.6364	0.1	-0.19161
27578	6.2679	3.3636	0.1	-0.12536
27579	6.1755	3.4545	0.1	-0.16102
27580	6.2679	3.1818	0.1	-0.11285
27581	6.1755	3.2727	0.1	-0.14258
27582	6.2679	3.	0.1	-0.10883
27583	6.1755	3.0909	0.1	-0.13405
27584	6.2679	2.8182	0.1	-0.11285
27585	6.1755	2.9091	0.1	-0.13405
27586	6.2679	2.6364	0.1	-0.12536
27587	6.1755	2.7273	0.1	-0.14258
27588	6.2679	2.4545	0.1	-0.14747
27589	6.1755	2.5455	0.1	-0.16102
27590	6.2679	2.2727	0.1	-0.18054
27591	6.1755	2.3636	0.1	-0.19161
27592	6.2679	2.0909	0.1	-0.22579
27593	6.1755	2.1818	0.1	-0.23668
27594	6.2679	1.9091	0.1	-0.28455
27595	6.1755	2.	0.1	-0.29836
27596	6.2679	1.7273	0.1	-0.3596
27597	6.1755	1.8182	0.1	-0.37976
27598	6.2679	1.5455	0.1	-0.45912
27599	6.1755	1.6364	0.1	-0.48881
27600	6.2679	1.3636	0.1	-0.60855
27601	6.1755	1.4545	0.1	-0.64966
27602	6.2679	1.1818	0.1	-0.90491
27603	6.1755	1.2727	0.1	-0.94995
27604	6.2679	1.	0.1	-2.0723
27605	6.1755	1.0909	0.1	-1.9273
27606	6.2679	0.81818	0.1	-14.095
27607	6.1755	0.90909	0.1	-12.217
27608	6.2679	0.63636	0.1	-29.754
27609	6.1755	0.72727	0.1	-32.282
27610	6.2679	0.45455	0.1	-35.574
27611	6.1755	0.54545	0.1	-42.877
27612	6.2679	0.27273	0.1	-30.666
27613	6.1755	0.36364	0.1	-41.814
27614	6.1755	0.18182	0.1	-29.286
27615	6.2679	9.0909e-002	0.1	-14.588
27616	6.0832	5.7273	0.1	-40.469
27617	5.9908	5.8182	0.1	-37.361
27618	6.0832	5.9091	0.1	-18.698
27619	6.0832	5.5455	0.1	-49.186
27620	5.9908	5.6364	0.1	-54.767
27621	6.0832	5.3636	0.1	-45.446
27622	5.9908	5.4545	0.1	-59.043
27623	6.0832	5.1818	0.1	-29.778
27624	5.9908	5.2727	0.1	-49.961
27625	6.0832	5.	0.1	-7.3544
27626	5.9908	5.0909	0.1	-28.847
27627	6.0832	4.8182	0.1	-1.6483
27628	5.9908	4.9091	0.1	-5.4886
27629	6.0832	4.6364	0.1	-0.93127
27630	5.9908	4.7273	0.1	-1.6389
27631	6.0832	4.4545	0.1	-0.65562
27632	5.9908	4.5455	0.1	-0.97749
27633	6.0832	4.2727	0.1	-0.49551
27634	5.9908	4.3636	0.1	-0.6931
27635	6.0832	4.0909	0.1	-0.38434
27636	5.9908	4.1818	0.1	-0.52127
27637	6.0832	3.9091	0.1	-0.30224
27638	5.9908	4.	0.1	-0.40193
27639	6.0832	3.7273	0.1	-0.24215
27640	5.9908	3.8182	0.1	-0.31659
27641	6.0832	3.5455	0.1	-0.20053
27642	5.9908	3.6364	0.1	-0.25789
27643	6.0832	3.3636	0.1	-0.17429
27644	5.9908	3.4545	0.1	-0.22073
27645	6.0832	3.1818	0.1	-0.16023
27646	5.9908	3.2727	0.1	-0.20002
27647	6.0832	3.	0.1	-0.15587
27648	5.9908	3.0909	0.1	-0.1911
27649	6.0832	2.8182	0.1	-0.16023
27650	5.9908	2.9091	0.1	-0.1911
27651	6.0832	2.6364	0.1	-0.17429
27652	5.9908	2.7273	0.1	-0.20002
27653	6.0832	2.4545	0.1	-0.20053
27654	5.9908	2.5455	0.1	-0.22073
27655	6.0832	2.2727	0.1	-0.24215
27656	5.9908	2.3636	0.1	-0.25789
27657	6.0832	2.0909	0.1	-0.30224
27658	5.9908	2.1818	0.1	-0.31659
27659	6.0832	1.9091	0.1	-0.38434
27660	5.9908	2.	0.1	-0.40194
27661	6.0832	1.7273	0.1	-0.49551
27662	5.9908	1.8182	0.1	-0.52128
27663	6.0832	1.5455	0.1	-0.65562
27664	5.9908	1.6364	0.1	-0.6931
27665	6.0832	1.3636	0.1	-0.93128
27666	5.9908	1.4545	0.1	-0.97749
27667	6.0832	1.1818	0.1	-1.6483
27668	5.9908	1.2727	0.1	-1.6389
27669	6.0832	1.	0.1	-7.3545
27670	5.9908	1.0909	0.1	-5.4887
27671	6.0832	0.81818	0.1	-29.778
27672	5.9908	0.90909	0.1	-28.847
27673	6.0832	0.63636	0.1	-45.446
27674	5.9908	0.72727	0.1	-49.961
27675	6.0832	0.45455	0.1	-49.186
27676	5.9908	0.54545	0.1	-59.043
27677	6.0832	0.27273	0.1	-40.469
27678	5.9908	0.36364	0.1	-54.767
27679	5.9908	0.18182	0.1	-37.361
27680	6.0832	9.0909e-002	0.1	-18.698
27681	5.8985	5.7273	0.1	-51.752
27682	5.8061	5.8182	0.1	-46.675
27683	5.8985	5.9091	0.1	-23.501
27684	5.8985	5.5455	0.1	-64.769
27685	5.8061	5.6364	0.1	-69.284
27686	5.8985	5.3636	0.1	-63.721
27687	5.8061	5.4545	0.1	-77.34
27688	5.8985	5.1818	0.1	-49.016
27689	5.8061	5.2727	0.1	-70.572
27690	5.8985	5.	0.1	-22.74
27691	5.8061	5.0909	0.1	-50.023
27692	5.8985	4.8182	0.1	-3.7205
27693	5.8061	4.9091	0.1	-18.919
27694	5.8985	4.6364	0.1	-1.526
27695	5.8061	4.7273	0.1	-3.3379
27696	5.8985	4.4545	0.1	-0.96828
27697	5.8061	4.5455	0.1	-1.5649
27698	5.8985	4.2727	0.1	-0.69596
27699	5.8061	4.3636	0.1	-1.0157
27700	5.8985	4.0909	0.1	-0.52433
27701	5.8061	4.1818	0.1	-0.72941
27702	5.8985	3.9091	0.1	-0.40578
27703	5.8061	4.	0.1	-0.54707
27704	5.8985	3.7273	0.1	-0.32427
27705	5.8061	3.8182	0.1	-0.42482
27706	5.8985	3.5455	0.1	-0.27169
27707	5.8061	3.6364	0.1	-0.34634
27708	5.8985	3.3636	0.1	-0.24123
27709	5.8061	3.4545	0.1	-0.3013
27710	5.8985	3.1818	0.1	-0.22636
27711	5.8061	3.2727	0.1	-0.27931
27712	5.8985	3.	0.1	-0.22205
27713	5.8061	3.0909	0.1	-0.27108
27714	5.8985	2.8182	0.1	-0.22636
27715	5.8061	2.9091	0.1	-0.27108
27716	5.8985	2.6364	0.1	-0.24123
27717	5.8061	2.7273	0.1	-0.27931
27718	5.8985	2.4545	0.1	-0.27169
27719	5.8061	2.5455	0.1	-0.3013
27720	5.8985	2.2727	0.1	-0.32427
27721	5.8061	2.3636	0.1	-0.34634
27722	5.8985	2.0909	0.1	-0.40578
27723	5.8061	2.1818	0.1	-0.42482
27724	5.8985	1.9091	0.1	-0.52433
27725	5.8061	2.	0.1	-0.54707
27726	5.8985	1.7273	0.1	-0.69596
27727	5.8061	1.8182	0.1	-0.72942
27728	5.8985	1.5455	0.1	-0.96828
27729	5.8061	1.6364	0.1	-1.0157
27730	5.8985	1.3636	0.1	-1.526
27731	5.8061	1.4545	0.1	-1.5649
27732	5.8985	1.1818	0.1	-3.7205
27733	5.8061	1.2727	0.1	-3.3379
27734	5.8985	1.	0.1	-22.74
27735	5.8061	1.0909	0.1	-18.919
27736	5.8985	0.81818	0.1	-49.016
27737	5.8061	0.90909	0.1	-50.023
27738	5.8985	0.63636	0.1	-63.721
27739	5.8061	0.72727	0.1	-70.572
27740	5.8985	0.45455	0.1	-64.769
27741	5.8061	0.54545	0.1	-77.34
27742	5.8985	0.27273	0.1	-51.752
27743	5.8061	0.36364	0.1	-69.284
27744	5.8061	0.18182	0.1	-46.675
27745	5.8985	9.0909e-002	0.1	-23.501
27746	5.7138	5.7273	0.1	-64.389
27747	5.6214	5.8182	0.1	-57.139
27748	5.7138	5.9091	0.1	-28.978
27749	5.7138	5.5455	0.1	-82.116
27750	5.6214	5.6364	0.1	-84.993
27751	5.7138	5.3636	0.1	-84.529
27752	5.6214	5.4545	0.1	-97.46
27753	5.7138	5.1818	0.1	-71.896
27754	5.6214	5.2727	0.1	-94.157
27755	5.7138	5.	0.1	-45.384
27756	5.6214	5.0909	0.1	-75.824
27757	5.7138	4.8182	0.1	-12.17
27758	5.6214	4.9091	0.1	-43.561
27759	5.7138	4.6364	0.1	-2.8357
27760	5.6214	4.7273	0.1	-9.6675
27761	5.7138	4.4545	0.1	-1.5109
27762	5.6214	4.5455	0.1	-2.8115
27763	5.7138	4.2727	0.1	-1.0081
27764	5.6214	4.3636	0.1	-1.5713
27765	5.7138	4.0909	0.1	-0.72841
27766	5.6214	4.1818	0.1	-1.0511
27767	5.7138	3.9091	0.1	-0.54986
27768	5.6214	4.	0.1	-0.75405
27769	5.7138	3.7273	0.1	-0.43499
27770	5.6214	3.8182	0.1	-0.57063
27771	5.7138	3.5455	0.1	-0.36699
27772	5.6214	3.6364	0.1	-0.46369
27773	5.7138	3.3636	0.1	-0.33246
27774	5.6214	3.4545	0.1	-0.40951
27775	5.7138	3.1818	0.1	-0.31834
27776	5.6214	3.2727	0.1	-0.38811
27777	5.7138	3.	0.1	-0.31484
27778	5.6214	3.0909	0.1	-0.38247
27779	5.7138	2.8182	0.1	-0.31834
27780	5.6214	2.9091	0.1	-0.38247
27781	5.7138	2.6364	0.1	-0.33246
27782	5.6214	2.7273	0.1	-0.38811
27783	5.7138	2.4545	0.1	-0.36699
27784	5.6214	2.5455	0.1	-0.40951
27785	5.7138	2.2727	0.1	-0.43499
27786	5.6214	2.3636	0.1	-0.46369
27787	5.7138	2.0909	0.1	-0.54987
27788	5.6214	2.1818	0.1	-0.57063
27789	5.7138	1.9091	0.1	-0.72842
27790	5.6214	2.	0.1	-0.75405
27791	5.7138	1.7273	0.1	-1.0081
27792	5.6214	1.8182	0.1	-1.0511
27793	5.7138	1.5455	0.1	-1.5109
27794	5.6214	1.6364	0.1	-1.5713
27795	5.7138	1.3636	0.1	-2.8358
27796	5.6214	1.4545	0.1	-2.8116
27797	5.7138	1.1818	0.1	-12.17
27798	5.6214	1.2727	0.1	-9.6676
27799	5.7138	1.	0.1	-45.384
27800	5.6214	1.0909	0.1	-43.561
27801	5.7138	0.81818	0.1	-71.896
27802	5.6214	0.90909	0.1	-75.824
27803	5.7138	0.63636	0.1	-84.529
27804	5.6214	0.72727	0.1	-94.157
27805	5.7138	0.45455	0.1	-82.116
27806	5.6214	0.54545	0.1	-97.46
27807	5.7138	0.27273	0.1	-64.389
27808	5.6214	0.36364	0.1	-84.993
27809	5.6214	0.18182	0.1	-57.139
27810	5.7138	9.0909e-002	0.1	-28.978
27811	5.5291	5.7273	0.1	-78.059
27812	5.4367	5.8182	0.1	-68.501
27813	5.5291	5.9091	0.1	-35.031
27814	5.5291	5.5455	0.1	-100.78
27815	5.4367	5.6364	0.1	-101.22
27816	5.5291	5.3636	0.1	-107.7
27817	5.4367	5.4545	0.1	-118.84
27818	5.5291	5.1818	0.1	-98.802
27819	5.4367	5.2727	0.1	-120.74
27820	5.5291	5.	0.1	-74.483
27821	5.4367	5.0909	0.1	-107.13
27822	5.5291	4.8182	0.1	-36.471
27823	5.4367	4.9091	0.1	-77.589
27824	5.5291	4.6364	0.1	-6.9832
27825	5.4367	4.7273	0.1	-34.236
27826	5.5291	4.4545	0.1	-2.6081
27827	5.4367	4.5455	0.1	-6.593
27828	5.5291	4.2727	0.1	-1.5344
27829	5.4367	4.3636	0.1	-2.6993
27830	5.5291	4.0909	0.1	-1.0359
27831	5.4367	4.1818	0.1	-1.6014
27832	5.5291	3.9091	0.1	-0.74862
27833	5.4367	4.	0.1	-1.0768
27834	5.5291	3.7273	0.1	-0.58117
27835	5.4367	3.8182	0.1	-0.78201
27836	5.5291	3.5455	0.1	-0.49341
27837	5.4367	3.6364	0.1	-0.62158
27838	5.5291	3.3636	0.1	-0.45601
27839	5.4367	3.4545	0.1	-0.55331
27840	5.5291	3.1818	0.1	-0.44525
27841	5.4367	3.2727	0.1	-0.53561
27842	5.5291	3.	0.1	-0.44383
27843	5.4367	3.0909	0.1	-0.53527
27844	5.5291	2.8182	0.1	-0.44525
27845	5.4367	2.9091	0.1	-0.53527
27846	5.5291	2.6364	0.1	-0.45601
27847	5.4367	2.7273	0.1	-0.53561
27848	5.5291	2.4545	0.1	-0.49341
27849	5.4367	2.5455	0.1	-0.55331
27850	5.5291	2.2727	0.1	-0.58117
27851	5.4367	2.3636	0.1	-0.62158
27852	5.5291	2.0909	0.1	-0.74862
27853	5.4367	2.1818	0.1	-0.78201
27854	5.5291	1.9091	0.1	-1.0359
27855	5.4367	2.	0.1	-1.0768
27856	5.5291	1.7273	0.1	-1.5344
27857	5.4367	1.8182	0.1	-1.6014
27858	5.5291	1.5455	0.1	-2.6081
27859	5.4367	1.6364	0.1	-2.6993
27860	5.5291	1.3636	0.1	-6.9832
27861	5.4367	1.4545	0.1	-6.593
27862	5.5291	1.1818	0.1	-36.471
27863	5.4367	1.2727	0.1	-34.236
27864	5.5291	1.	0.1	-74.483
27865	5.4367	1.0909	0.1	-77.589
27866	5.5291	0.81818	0.1	-98.802
27867	5.4367	0.90909	0.1	-107.13
27868	5.5291	0.63636	0.1	-107.7
27869	5.4367	0.72727	0.1	-120.74
27870	5.5291	0.45455	0.1	-100.78
27871	5.4367	0.54545	0.1	-118.84
27872	5.5291	0.27273	0.1	-78.059
27873	5.4367	0.36364	0.1	-101.22
27874	5.4367	0.18182	0.1	-68.501
27875	5.5291	9.0909e-002	0.1	-35.031
27876	5.3443	5.7273	0.1	-92.166
27877	5.252	5.8182	0.1	-80.267
27878	5.3443	5.9091	0.1	-41.436
27879	5.3443	5.5455	0.1	-119.99
27880	5.252	5.6364	0.1	-116.88
27881	5.3443	5.3636	0.1	-132.92
27882	5.252	5.4545	0.1	-140.63
27883	5.3443	5.1818	0.1	-130.4
27884	5.252	5.2727	0.1	-150.42
27885	5.3443	5.	0.1	-111.68
27886	5.252	5.0909	0.1	-145.54
27887	5.3443	4.8182	0.1	-75.8
27888	5.252	4.9091	0.1	-123.57
27889	5.3443	4.6364	0.1	-27.447
27890	5.252	4.7273	0.1	-82.234
27891	5.3443	4.4545	0.1	-5.6777
27892	5.252	4.5455	0.1	-27.648
27893	5.3443	4.2727	0.1	-2.5838
27894	5.252	4.3636	0.1	-5.8804
27895	5.3443	4.0909	0.1	-1.5654
27896	5.252	4.1818	0.1	-2.6862
27897	5.3443	3.9091	0.1	-1.0652
27898	5.252	4.	0.1	-1.579
27899	5.3443	3.7273	0.1	-0.79335
27900	5.252	3.8182	0.1	-1.0568
27901	5.3443	3.5455	0.1	-0.66267
27902	5.252	3.6364	0.1	-0.82946
27903	5.3443	3.3636	0.1	-0.62087
27904	5.252	3.4545	0.1	-0.74558
27905	5.3443	3.1818	0.1	-0.61743
27906	5.252	3.2727	0.1	-0.73099
27907	5.3443	3.	0.1	-0.61974
27908	5.252	3.0909	0.1	-0.73821
27909	5.3443	2.8182	0.1	-0.61744
27910	5.252	2.9091	0.1	-0.73821
27911	5.3443	2.6364	0.1	-0.62087
27912	5.252	2.7273	0.1	-0.73099
27913	5.3443	2.4545	0.1	-0.66267
27914	5.252	2.5455	0.1	-0.74559
27915	5.3443	2.2727	0.1	-0.79335
27916	5.252	2.3636	0.1	-0.82946
27917	5.3443	2.0909	0.1	-1.0652
27918	5.252	2.1818	0.1	-1.0568
27919	5.3443	1.9091	0.1	-1.5654
27920	5.252	2.	0.1	-1.579
27921	5.3443	1.7273	0.1	-2.5838
27922	5.252	1.8182	0.1	-2.6862
27923	5.3443	1.5455	0.1	-5.6777
27924	5.252	1.6364	0.1	-5.8804
27925	5.3443	1.3636	0.1	-27.447
27926	5.252	1.4545	0.1	-27.649
27927	5.3443	1.1818	0.1	-75.8
27928	5.252	1.2727	0.1	-82.234
27929	5.3443	1.	0.1	-111.68
27930	5.252	1.0909	0.1	-123.57
27931	5.3443	0.81818	0.1	-130.4
27932	5.252	0.90909	0.1	-145.54
27933	5.3443	0.63636	0.1	-132.92
27934	5.252	0.72727	0.1	-150.42
27935	5.3443	0.45455	0.1	-119.99
27936	5.252	0.54545	0.1	-140.63
27937	5.3443	0.27273	0.1	-92.166
27938	5.252	0.36364	0.1	-116.88
27939	5.252	0.18182	0.1	-80.267
27940	5.3443	9.0909e-002	0.1	-41.436
27941	5.1596	5.7273	0.1	-105.76
27942	5.0673	5.8182	0.1	-91.624
27943	5.1596	5.9091	0.1	-47.782
27944	5.1596	5.5455	0.1	-138.65
27945	5.0673	5.6364	0.1	-130.53
27946	5.1596	5.3636	0.1	-159.88
27947	5.0673	5.4545	0.1	-161.85
27948	5.1596	5.1818	0.1	-167.91
27949	5.0673	5.2727	0.1	-183.68
27950	5.1596	5.	0.1	-160.21
27951	5.0673	5.0909	0.1	-193.83
27952	5.1596	4.8182	0.1	-132.78
27953	5.0673	4.9091	0.1	-186.99
27954	5.1596	4.6364	0.1	-83.001
27955	5.0673	4.7273	0.1	-156.48
27956	5.1596	4.4545	0.1	-23.078
27957	5.0673	4.5455	0.1	-97.941
27958	5.1596	4.2727	0.1	-5.3862
27959	5.0673	4.3636	0.1	-26.144
27960	5.1596	4.0909	0.1	-2.5292
27961	5.0673	4.1818	0.1	-5.7683
27962	5.1596	3.9091	0.1	-1.4847
27963	5.0673	4.	0.1	-2.6999
27964	5.1596	3.7273	0.1	-1.043
27965	5.0673	3.8182	0.1	-1.6307
27966	5.1596	3.5455	0.1	-0.88379
27967	5.0673	3.6364	0.1	-1.1254
27968	5.1596	3.3636	0.1	-0.84021
27969	5.0673	3.4545	0.1	-0.98528
27970	5.1596	3.1818	0.1	-0.843
27971	5.0673	3.2727	0.1	-0.98214
27972	5.1596	3.	0.1	-0.8499
27973	5.0673	3.0909	0.1	-0.98958
27974	5.1596	2.8182	0.1	-0.843
27975	5.0673	2.9091	0.1	-0.98958
27976	5.1596	2.6364	0.1	-0.84021
27977	5.0673	2.7273	0.1	-0.98214
27978	5.1596	2.4545	0.1	-0.88379
27979	5.0673	2.5455	0.1	-0.98528
27980	5.1596	2.2727	0.1	-1.043
27981	5.0673	2.3636	0.1	-1.1254
27982	5.1596	2.0909	0.1	-1.4847
27983	5.0673	2.1818	0.1	-1.6307
27984	5.1596	1.9091	0.1	-2.5292
27985	5.0673	2.	0.1	-2.6999
27986	5.1596	1.7273	0.1	-5.3862
27987	5.0673	1.8182	0.1	-5.7683
27988	5.1596	1.5455	0.1	-23.079
27989	5.0673	1.6364	0.1	-26.144
27990	5.1596	1.3636	0.1	-83.001
27991	5.0673	1.4545	0.1	-97.942
27992	5.1596	1.1818	0.1	-132.78
27993	5.0673	1.2727	0.1	-156.48
27994	5.1596	1.	0.1	-160.21
27995	5.0673	1.0909	0.1	-186.99
27996	5.1596	0.81818	0.1	-167.91
27997	5.0673	0.90909	0.1	-193.83
27998	5.1596	0.63636	0.1	-159.88
27999	5.0673	0.72727	0.1	-183.68
28000	5.1596	0.45455	0.1	-138.65
28001	5.0673	0.54545	0.1	-161.85
28002	5.1596	0.27273	0.1	-105.76
28003	5.0673	0.36364	0.1	-130.53
28004	5.0673	0.18182	0.1	-91.624
28005	5.1596	9.0909e-002	0.1	-47.782
28006	4.9749	5.7273	0.1	-117.53
28007	4.8826	5.8182	0.1	-101.36
28008	4.9749	5.9091	0.1	-53.407
28009	4.9749	5.5455	0.1	-155.47
28010	4.8826	5.6364	0.1	-140.41
28011	4.9749	5.3636	0.1	-188.56
28012	4.8826	5.4545	0.1	-181.78
28013	4.9749	5.1818	0.1	-213.69
28014	4.8826	5.2727	0.1	-222.09
28015	4.9749	5.	0.1	-225.59
28016	4.8826	5.0909	0.1	-256.88
28017	4.9749	4.8182	0.1	-216.02
28018	4.8826	4.9091	0.1	-276.93
28019	4.9749	4.6364	0.1	-176.41
28020	4.8826	4.7273	0.1	-269.76
28021	4.9749	4.4545	0.1	-103.3
28022	4.8826	4.5455	0.1	-222.7
28023	4.9749	4.2727	0.1	-22.84
28024	4.8826	4.3636	0.1	-130.52
28025	4.9749	4.0909	0.1	-5.3943
28026	4.8826	4.1818	0.1	-26.796
28027	4.9749	3.9091	0.1	-2.6496
28028	4.8826	4.	0.1	-5.047
28029	4.9749	3.7273	0.1	-1.6173
28030	4.8826	3.8182	0.1	-2.0291
28031	4.9749	3.5455	0.1	-1.1817
28032	4.8826	3.6364	0.1	-1.5629
28033	4.9749	3.3636	0.1	-1.1086
28034	4.8826	3.4545	0.1	-1.3353
28035	4.9749	3.1818	0.1	-1.1213
28036	4.8826	3.2727	0.1	-1.2624
28037	4.9749	3.	0.1	-1.1245
28038	4.8826	3.0909	0.1	-1.2612
28039	4.9749	2.8182	0.1	-1.1213
28040	4.8826	2.9091	0.1	-1.2612
28041	4.9749	2.6364	0.1	-1.1086
28042	4.8826	2.7273	0.1	-1.2624
28043	4.9749	2.4545	0.1	-1.1817
28044	4.8826	2.5455	0.1	-1.3353
28045	4.9749	2.2727	0.1	-1.6173
28046	4.8826	2.3636	0.1	-1.5629
28047	4.9749	2.0909	0.1	-2.6496
28048	4.8826	2.1818	0.1	-2.0291
28049	4.9749	1.9091	0.1	-5.3943
28050	4.8826	2.	0.1	-5.047
28051	4.9749	1.7273	0.1	-22.84
28052	4.8826	1.8182	0.1	-26.796
28053	4.9749	1.5455	0.1	-103.3
28054	4.8826	1.6364	0.1	-130.52
28055	4.9749	1.3636	0.1	-176.41
28056	4.8826	1.4545	0.1	-222.71
28057	4.9749	1.1818	0.1	-216.02
28058	4.8826	1.2727	0.1	-269.76
28059	4.9749	1.	0.1	-225.59
28060	4.8826	1.0909	0.1	-276.93
28061	4.9749	0.81818	0.1	-213.69
28062	4.8826	0.90909	0.1	-256.88
28063	4.9749	0.63636	0.1	-188.56
28064	4.8826	0.72727	0.1	-222.09
28065	4.9749	0.45455	0.1	-155.47
28066	4.8826	0.54545	0.1	-181.78
28067	4.9749	0.27273	0.1	-117.53
28068	4.8826	0.36364	0.1	-140.41
28069	4.8826	0.18182	0.1	-101.36
28070	4.9749	9.0909e-002	0.1	-53.407
28071	4.7902	5.7273	0.1	-125.89
28072	4.6979	5.8182	0.1	-107.95
28073	4.7902	5.9091	0.1	-57.313
28074	4.7902	5.5455	0.1	-169.49
28075	4.6979	5.6364	0.1	-145.22
28076	4.7902	5.3636	0.1	-220.21
28077	4.6979	5.4545	0.1	-201.35
28078	4.7902	5.1818	0.1	-272.35
28079	4.6979	5.2727	0.1	-269.98
28080	4.7902	5.	0.1	-316.92
28081	4.6979	5.0909	0.1	-343.25
28082	4.7902	4.8182	0.1	-340.06
28083	4.6979	4.9091	0.1	-407.49
28084	4.7902	4.6364	0.1	-325.
28085	4.6979	4.7273	0.1	-443.46
28086	4.7902	4.4545	0.1	-257.54
28087	4.6979	4.5455	0.1	-427.28
28088	4.7902	4.2727	0.1	-138.75
28089	4.6979	4.3636	0.1	-337.48
28090	4.7902	4.0909	0.1	-22.501
28091	4.6979	4.1818	0.1	-176.22
28092	4.7902	3.9091	0.1	-3.8043
28093	4.6979	4.	0.1	-25.729
28094	4.7902	3.7273	0.1	-1.7548
28095	4.6979	3.8182	0.1	-5.6538
28096	4.7902	3.5455	0.1	-1.6415
28097	4.6979	3.6364	0.1	-1.838
28098	4.7902	3.3636	0.1	-1.4727
28099	4.6979	3.4545	0.1	-1.768
28100	4.7902	3.1818	0.1	-1.4008
28101	4.6979	3.2727	0.1	-1.5575
28102	4.7902	3.	0.1	-1.3974
28103	4.6979	3.0909	0.1	-1.4436
28104	4.7902	2.8182	0.1	-1.4008
28105	4.6979	2.9091	0.1	-1.4436
28106	4.7902	2.6364	0.1	-1.4727
28107	4.6979	2.7273	0.1	-1.5575
28108	4.7902	2.4545	0.1	-1.6415
28109	4.6979	2.5455	0.1	-1.768
28110	4.7902	2.2727	0.1	-1.7548
28111	4.6979	2.3636	0.1	-1.838
28112	4.7902	2.0909	0.1	-3.8044
28113	4.6979	2.1818	0.1	-5.6538
28114	4.7902	1.9091	0.1	-22.501
28115	4.6979	2.	0.1	-25.729
28116	4.7902	1.7273	0.1	-138.75
28117	4.6979	1.8182	0.1	-176.22
28118	4.7902	1.5455	0.1	-257.54
28119	4.6979	1.6364	0.1	-337.48
28120	4.7902	1.3636	0.1	-325.
28121	4.6979	1.4545	0.1	-427.28
28122	4.7902	1.1818	0.1	-340.06
28123	4.6979	1.2727	0.1	-443.46
28124	4.7902	1.	0.1	-316.92
28125	4.6979	1.0909	0.1	-407.49
28126	4.7902	0.81818	0.1	-272.35
28127	4.6979	0.90909	0.1	-343.25
28128	4.7902	0.63636	0.1	-220.21
28129	4.6979	0.72727	0.1	-269.98
28130	4.7902	0.45455	0.1	-169.49
28131	4.6979	0.54545	0.1	-201.35
28132	4.7902	0.27273	0.1	-125.89
28133	4.6979	0.36364	0.1	-145.22
28134	4.6979	0.18182	0.1	-107.95
28135	4.7902	9.0909e-002	0.1	-57.313
28136	4.6055	5.7273	0.1	-129.65
28137	4.5132	5.8182	0.1	-109.61
28138	4.6055	5.9091	0.1	-58.22
28139	4.6055	5.5455	0.1	-181.68
28140	4.5132	5.6364	0.1	-145.83
28141	4.6055	5.3636	0.1	-259.59
28142	4.5132	5.4545	0.1	-226.26
28143	4.6055	5.1818	0.1	-353.07
28144	4.5132	5.2727	0.1	-337.73
28145	4.6055	5.	0.1	-448.73
28146	4.5132	5.0909	0.1	-467.31
28147	4.6055	4.8182	0.1	-526.97
28148	4.5132	4.9091	0.1	-598.49
28149	4.6055	4.6364	0.1	-561.03
28150	4.5132	4.7273	0.1	-707.45
28151	4.6055	4.4545	0.1	-519.77
28152	4.5132	4.5455	0.1	-759.5
28153	4.6055	4.2727	0.1	-383.94
28154	4.5132	4.3636	0.1	-699.1
28155	4.6055	4.0909	0.1	-181.87
28156	4.5132	4.1818	0.1	-492.3
28157	4.6055	3.9091	0.1	-22.87
28158	4.5132	4.	0.1	-211.53
28159	4.6055	3.7273	0.1	-5.0875
28160	4.5132	3.8182	0.1	-14.265
28161	4.6055	3.5455	0.1	-1.8434
28162	4.5132	3.6364	0.1	-5.0625
28163	4.6055	3.3636	0.1	-1.8842
28164	4.5132	3.4545	0.1	-2.2631
28165	4.6055	3.1818	0.1	-1.621
28166	4.5132	3.2727	0.1	-2.1215
28167	4.6055	3.	0.1	-1.4886
28168	4.5132	3.0909	0.1	-1.429
28169	4.6055	2.8182	0.1	-1.621
28170	4.5132	2.9091	0.1	-1.4289
28171	4.6055	2.6364	0.1	-1.8842
28172	4.5132	2.7273	0.1	-2.1215
28173	4.6055	2.4545	0.1	-1.8434
28174	4.5132	2.5455	0.1	-2.2631
28175	4.6055	2.2727	0.1	-5.0875
28176	4.5132	2.3636	0.1	-5.0625
28177	4.6055	2.0909	0.1	-22.87
28178	4.5132	2.1818	0.1	-14.265
28179	4.6055	1.9091	0.1	-181.87
28180	4.5132	2.	0.1	-211.53
28181	4.6055	1.7273	0.1	-383.94
28182	4.5132	1.8182	0.1	-492.3
28183	4.6055	1.5455	0.1	-519.77
28184	4.5132	1.6364	0.1	-699.1
28185	4.6055	1.3636	0.1	-561.03
28186	4.5132	1.4545	0.1	-759.5
28187	4.6055	1.1818	0.1	-526.97
28188	4.5132	1.2727	0.1	-707.45
28189	4.6055	1.	0.1	-448.73
28190	4.5132	1.0909	0.1	-598.49
28191	4.6055	0.81818	0.1	-353.07
28192	4.5132	0.90909	0.1	-467.31
28193	4.6055	0.63636	0.1	-259.59
28194	4.5132	0.72727	0.1	-337.73
28195	4.6055	0.45455	0.1	-181.68
28196	4.5132	0.54545	0.1	-226.26
28197	4.6055	0.27273	0.1	-129.65
28198	4.5132	0.36364	0.1	-145.83
28199	4.5132	0.18182	0.1	-109.61
28200	4.6055	9.0909e-002	0.1	-58.22
28201	4.4208	5.7273	0.1	-129.55
28202	4.3284	5.8182	0.1	-107.16
28203	4.4208	5.9091	0.1	-54.365
28204	4.4208	5.5455	0.1	-198.89
28205	4.3284	5.6364	0.1	-152.67
28206	4.4208	5.3636	0.1	-319.52
28207	4.3284	5.4545	0.1	-276.72
28208	4.4208	5.1818	0.1	-472.61
28209	4.3284	5.2727	0.1	-450.02
28210	4.4208	5.	0.1	-641.61
28211	4.3284	5.0909	0.1	-654.62
28212	4.4208	4.8182	0.1	-805.62
28213	4.3284	4.9091	0.1	-877.23
28214	4.4208	4.6364	0.1	-931.93
28215	4.3284	4.7273	0.1	-1101.6
28216	4.4208	4.4545	0.1	-960.31
28217	4.3284	4.5455	0.1	-1286.5
28218	4.4208	4.2727	0.1	-820.73
28219	4.3284	4.3636	0.1	-1354.9
28220	4.4208	4.0909	0.1	-529.03
28221	4.3284	4.1818	0.1	-1166.5
28222	4.4208	3.9091	0.1	-219.64
28223	4.3284	4.	0.1	-639.8
28224	4.4208	3.7273	0.1	-35.626
28225	4.3284	3.8182	0.1	-263.97
28226	4.4208	3.5455	0.1	-10.542
28227	4.3284	3.6364	0.1	-162.89
28228	4.4208	3.3636	0.1	-16.603
28229	4.3284	3.4545	0.1	-170.41
28230	4.4208	3.1818	0.1	-28.394
28231	4.3284	3.2727	0.1	-178.28
28232	4.4208	3.	0.1	-33.839
28233	4.3284	3.0909	0.1	-183.66
28234	4.4208	2.8182	0.1	-28.393
28235	4.3284	2.9091	0.1	-183.66
28236	4.4208	2.6364	0.1	-16.603
28237	4.3284	2.7273	0.1	-178.28
28238	4.4208	2.4545	0.1	-10.542
28239	4.3284	2.5455	0.1	-170.41
28240	4.4208	2.2727	0.1	-35.626
28241	4.3284	2.3636	0.1	-162.89
28242	4.4208	2.0909	0.1	-219.64
28243	4.3284	2.1818	0.1	-263.97
28244	4.4208	1.9091	0.1	-529.03
28245	4.3284	2.	0.1	-639.8
28246	4.4208	1.7273	0.1	-820.73
28247	4.3284	1.8182	0.1	-1166.5
28248	4.4208	1.5455	0.1	-960.31
28249	4.3284	1.6364	0.1	-1354.9
28250	4.4208	1.3636	0.1	-931.93
28251	4.3284	1.4545	0.1	-1286.5
28252	4.4208	1.1818	0.1	-805.62
28253	4.3284	1.2727	0.1	-1101.6
28254	4.4208	1.	0.1	-641.61
28255	4.3284	1.0909	0.1	-877.23
28256	4.4208	0.81818	0.1	-472.61
28257	4.3284	0.90909	0.1	-654.62
28258	4.4208	0.63636	0.1	-319.52
28259	4.3284	0.72727	0.1	-450.02
28260	4.4208	0.45455	0.1	-198.89
28261	4.3284	0.54545	0.1	-276.72
28262	4.4208	0.27273	0.1	-129.55
28263	4.3284	0.36364	0.1	-152.67
28264	4.3284	0.18182	0.1	-107.16
28265	4.4208	9.0909e-002	0.1	-54.365
28266	4.2361	5.7273	0.1	-138.02
28267	4.1437	5.8182	0.1	-117.59
28268	4.2361	5.9091	0.1	-47.201
28269	4.2361	5.5455	0.1	-248.69
28270	4.1437	5.6364	0.1	-219.47
28271	4.2361	5.3636	0.1	-434.66
28272	4.1437	5.4545	0.1	-424.75
28273	4.2361	5.1818	0.1	-665.15
28274	4.1437	5.2727	0.1	-682.93
28275	4.2361	5.	0.1	-927.79
28276	4.1437	5.0909	0.1	-982.75
28277	4.2361	4.8182	0.1	-1215.1
28278	4.1437	4.9091	0.1	-1325.6
28279	4.2361	4.6364	0.1	-1501.3
28280	4.1437	4.7273	0.1	-1719.9
28281	4.2361	4.4545	0.1	-1720.5
28282	4.1437	4.5455	0.1	-2154.
28283	4.2361	4.2727	0.1	-1726.3
28284	4.1437	4.3636	0.1	-2643.
28285	4.2361	4.0909	0.1	-1278.1
28286	4.1437	4.1818	0.1	-2803.2
28287	4.2361	3.9091	0.1	-676.18
28288	4.1437	4.	0.1	-1762.8
28289	4.2361	3.7273	0.1	-370.48
28290	4.1437	3.8182	0.1	-745.56
28291	4.2361	3.5455	0.1	-319.41
28292	4.1437	3.6364	0.1	-601.69
28293	4.2361	3.3636	0.1	-324.46
28294	4.1437	3.4545	0.1	-523.63
28295	4.2361	3.1818	0.1	-323.49
28296	4.1437	3.2727	0.1	-485.41
28297	4.2361	3.	0.1	-323.31
28298	4.1437	3.0909	0.1	-465.91
28299	4.2361	2.8182	0.1	-323.49
28300	4.1437	2.9091	0.1	-465.91
28301	4.2361	2.6364	0.1	-324.46
28302	4.1437	2.7273	0.1	-485.41
28303	4.2361	2.4545	0.1	-319.41
28304	4.1437	2.5455	0.1	-523.63
28305	4.2361	2.2727	0.1	-370.48
28306	4.1437	2.3636	0.1	-601.69
28307	4.2361	2.0909	0.1	-676.18
28308	4.1437	2.1818	0.1	-745.56
28309	4.2361	1.9091	0.1	-1278.1
28310	4.1437	2.	0.1	-1762.8
28311	4.2361	1.7273	0.1	-1726.3
28312	4.1437	1.8182	0.1	-2803.2
28313	4.2361	1.5455	0.1	-1720.5
28314	4.1437	1.6364	0.1	-2643.
28315	4.2361	1.3636	0.1	-1501.3
28316	4.1437	1.4545	0.1	-2154.
28317	4.2361	1.1818	0.1	-1215.1
28318	4.1437	1.2727	0.1	-1719.9
28319	4.2361	1.	0.1	-927.79
28320	4.1437	1.0909	0.1	-1325.6
28321	4.2361	0.81818	0.1	-665.15
28322	4.1437	0.90909	0.1	-982.75
28323	4.2361	0.63636	0.1	-434.66
28324	4.1437	0.72727	0.1	-682.93
28325	4.2361	0.45455	0.1	-248.69
28326	4.1437	0.54545	0.1	-424.75
28327	4.2361	0.27273	0.1	-138.02
28328	4.1437	0.36364	0.1	-219.47
28329	4.1437	0.18182	0.1	-117.59
28330	4.2361	9.0909e-002	0.1	-47.201
28331	4.0514	5.7273	0.1	-225.56
28332	3.959	5.8182	0.1	-68.497
28333	4.0514	5.9091	0.1	-57.377
28334	4.0514	5.5455	0.1	-437.66
28335	3.959	5.6364	0.1	-224.
28336	4.0514	5.3636	0.1	-718.28
28337	3.959	5.4545	0.1	-434.87
28338	4.0514	5.1818	0.1	-1047.6
28339	3.959	5.2727	0.1	-681.47
28340	4.0514	5.	0.1	-1432.2
28341	3.959	5.0909	0.1	-969.06
28342	4.0514	4.8182	0.1	-1891.7
28343	3.959	4.9091	0.1	-1311.7
28344	4.0514	4.6364	0.1	-2449.8
28345	3.959	4.7273	0.1	-1734.2
28346	4.0514	4.4545	0.1	-3189.4
28347	3.959	4.5455	0.1	-2294.4
28348	4.0514	4.2727	0.1	-3812.4
28349	3.959	4.3636	0.1	-2945.2
28350	4.0514	4.0909	0.1	-3260.
28351	3.959	4.1818	0.1	-4583.1
28352	4.0514	3.9091	0.1	-1686.6
28353	3.959	4.	0.1	-2807.2
28354	4.0514	3.7273	0.1	-926.55
28355	3.959	3.8182	0.1	-1224.2
28356	4.0514	3.5455	0.1	-786.44
28357	3.959	3.6364	0.1	-1045.9
28358	4.0514	3.3636	0.1	-674.55
28359	3.959	3.4545	0.1	-840.12
28360	4.0514	3.1818	0.1	-620.11
28361	3.959	3.2727	0.1	-732.37
28362	4.0514	3.	0.1	-601.08
28363	3.959	3.0909	0.1	-679.
28364	4.0514	2.8182	0.1	-620.11
28365	3.959	2.9091	0.1	-679.
28366	4.0514	2.6364	0.1	-674.55
28367	3.959	2.7273	0.1	-732.36
28368	4.0514	2.4545	0.1	-786.43
28369	3.959	2.5455	0.1	-840.12
28370	4.0514	2.2727	0.1	-926.55
28371	3.959	2.3636	0.1	-1045.9
28372	4.0514	2.0909	0.1	-1686.6
28373	3.959	2.1818	0.1	-1224.2
28374	4.0514	1.9091	0.1	-3260.
28375	3.959	2.	0.1	-2807.2
28376	4.0514	1.7273	0.1	-3812.4
28377	3.959	1.8182	0.1	-4583.1
28378	4.0514	1.5455	0.1	-3189.4
28379	3.959	1.6364	0.1	-2945.2
28380	4.0514	1.3636	0.1	-2449.8
28381	3.959	1.4545	0.1	-2294.4
28382	4.0514	1.1818	0.1	-1891.7
28383	3.959	1.2727	0.1	-1734.2
28384	4.0514	1.	0.1	-1432.2
28385	3.959	1.0909	0.1	-1311.7
28386	4.0514	0.81818	0.1	-1047.6
28387	3.959	0.90909	0.1	-969.06
28388	4.0514	0.63636	0.1	-718.28
28389	3.959	0.72727	0.1	-681.47
28390	4.0514	0.45455	0.1	-437.66
28391	3.959	0.54545	0.1	-434.87
28392	4.0514	0.27273	0.1	-225.56
28393	3.959	0.36364	0.1	-224.
28394	3.959	0.18182	0.1	-68.497
28395	4.0514	9.0909e-002	0.1	-57.377
28396	0.185	0.27273	0.1	-469.09
28397	0.2775	0.18182	0.1	-163.89
28398	9.25e-002	0.18182	0.1	436.32
28399	0.185	9.0909e-002	0.1	-215.2
28400	0.185	0.45455	0.1	-695.46
28401	0.2775	0.36364	0.1	-243.35
28402	9.25e-002	0.36364	0.1	858.51
28403	0.185	0.63636	0.1	-802.6
28404	0.2775	0.54545	0.1	-286.17
28405	9.25e-002	0.54545	0.1	1052.
28406	0.185	0.81818	0.1	-870.53
28407	0.2775	0.72727	0.1	-316.64
28408	9.25e-002	0.72727	0.1	1165.3
28409	0.185	1.	0.1	-915.21
28410	0.2775	0.90909	0.1	-335.76
28411	9.25e-002	0.90909	0.1	1240.7
28412	0.185	1.1818	0.1	-946.63
28413	0.2775	1.0909	0.1	-349.34
28414	9.25e-002	1.0909	0.1	1293.
28415	0.185	1.3636	0.1	-968.89
28416	0.2775	1.2727	0.1	-358.9
28417	9.25e-002	1.2727	0.1	1330.3
28418	0.185	1.5455	0.1	-984.76
28419	0.2775	1.4545	0.1	-365.74
28420	9.25e-002	1.4545	0.1	1357.1
28421	0.185	1.7273	0.1	-995.95
28422	0.2775	1.6364	0.1	-370.59
28423	9.25e-002	1.6364	0.1	1376.4
28424	0.185	1.9091	0.1	-1003.7
28425	0.2775	1.8182	0.1	-373.99
28426	9.25e-002	1.8182	0.1	1390.
28427	0.185	2.0909	0.1	-1009.
28428	0.2775	2.	0.1	-376.31
28429	9.25e-002	2.	0.1	1399.4
28430	0.185	2.2727	0.1	-1012.4
28431	0.2775	2.1818	0.1	-377.84
28432	9.25e-002	2.1818	0.1	1405.8
28433	0.185	2.4545	0.1	-1014.5
28434	0.2775	2.3636	0.1	-378.81
28435	9.25e-002	2.3636	0.1	1410.
28436	0.185	2.6364	0.1	-1015.8
28437	0.2775	2.5455	0.1	-379.4
28438	9.25e-002	2.5455	0.1	1412.6
28439	0.185	2.8182	0.1	-1016.4
28440	0.2775	2.7273	0.1	-379.72
28441	9.25e-002	2.7273	0.1	1414.
28442	0.185	3.	0.1	-1016.6
28443	0.2775	2.9091	0.1	-379.86
28444	9.25e-002	2.9091	0.1	1414.7
28445	0.185	3.1818	0.1	-1016.4
28446	0.2775	3.0909	0.1	-379.86
28447	9.25e-002	3.0909	0.1	1414.7
28448	0.185	3.3636	0.1	-1015.8
28449	0.2775	3.2727	0.1	-379.72
28450	9.25e-002	3.2727	0.1	1414.
28451	0.185	3.5455	0.1	-1014.5
28452	0.2775	3.4545	0.1	-379.4
28453	9.25e-002	3.4545	0.1	1412.6
28454	0.185	3.7273	0.1	-1012.4
28455	0.2775	3.6364	0.1	-378.81
28456	9.25e-002	3.6364	0.1	1410.
28457	0.185	3.9091	0.1	-1009.
28458	0.2775	3.8182	0.1	-377.84
28459	9.25e-002	3.8182	0.1	1405.8
28460	0.185	4.0909	0.1	-1003.7
28461	0.2775	4.	0.1	-376.31
28462	9.25e-002	4.	0.1	1399.4
28463	0.185	4.2727	0.1	-995.95
28464	0.2775	4.1818	0.1	-373.99
28465	9.25e-002	4.1818	0.1	1390.
28466	0.185	4.4545	0.1	-984.76
28467	0.2775	4.3636	0.1	-370.59
28468	9.25e-002	4.3636	0.1	1376.4
28469	0.185	4.6364	0.1	-968.89
28470	0.2775	4.5455	0.1	-365.74
28471	9.25e-002	4.5455	0.1	1357.1
28472	0.185	4.8182	0.1	-946.63
28473	0.2775	4.7273	0.1	-358.9
28474	9.25e-002	4.7273	0.1	1330.3
28475	0.185	5.	0.1	-915.21
28476	0.2775	4.9091	0.1	-349.34
28477	9.25e-002	4.9091	0.1	1293.
28478	0.185	5.1818	0.1	-870.53
28479	0.2775	5.0909	0.1	-335.76
28480	9.25e-002	5.0909	0.1	1240.7
28481	0.185	5.3636	0.1	-802.6
28482	0.2775	5.2727	0.1	-316.64
28483	9.25e-002	5.2727	0.1	1165.3
28484	0.185	5.5455	0.1	-695.46
28485	0.2775	5.4545	0.1	-286.17
28486	9.25e-002	5.4545	0.1	1052.
28487	0.185	5.7273	0.1	-469.09
28488	0.2775	5.6364	0.1	-243.35
28489	9.25e-002	5.6364	0.1	858.51
28490	0.2775	5.8182	0.1	-163.89
28491	9.25e-002	5.8182	0.1	436.32
28492	0.185	5.9091	0.1	-215.2
28493	0.37	0.27273	0.1	96.024
28494	0.4625	0.18182	0.1	-83.54
28495	0.37	9.0909e-002	0.1	-112.97
28496	0.37	0.45455	0.1	166.57
28497	0.4625	0.36364	0.1	50.683
28498	0.37	0.63636	0.1	199.81
28499	0.4625	0.54545	0.1	69.003
28500	0.37	0.81818	0.1	218.08
28501	0.4625	0.72727	0.1	78.003
28502	0.37	1.	0.1	230.07
28503	0.4625	0.90909	0.1	83.603
28504	0.37	1.1818	0.1	238.37
28505	0.4625	1.0909	0.1	87.383
28506	0.37	1.3636	0.1	244.23
28507	0.4625	1.2727	0.1	90.024
28508	0.37	1.5455	0.1	248.41
28509	0.4625	1.4545	0.1	91.905
28510	0.37	1.7273	0.1	251.36
28511	0.4625	1.6364	0.1	93.245
28512	0.37	1.9091	0.1	253.41
28513	0.4625	1.8182	0.1	94.188
28514	0.37	2.0909	0.1	254.8
28515	0.4625	2.	0.1	94.84
28516	0.37	2.2727	0.1	255.72
28517	0.4625	2.1818	0.1	95.278
28518	0.37	2.4545	0.1	256.3
28519	0.4625	2.3636	0.1	95.562
28520	0.37	2.6364	0.1	256.64
28521	0.4625	2.5455	0.1	95.737
28522	0.37	2.8182	0.1	256.82
28523	0.4625	2.7273	0.1	95.836
28524	0.37	3.	0.1	256.87
28525	0.4625	2.9091	0.1	95.88
28526	0.37	3.1818	0.1	256.82
28527	0.4625	3.0909	0.1	95.88
28528	0.37	3.3636	0.1	256.64
28529	0.4625	3.2727	0.1	95.836
28530	0.37	3.5455	0.1	256.3
28531	0.4625	3.4545	0.1	95.737
28532	0.37	3.7273	0.1	255.72
28533	0.4625	3.6364	0.1	95.562
28534	0.37	3.9091	0.1	254.8
28535	0.4625	3.8182	0.1	95.278
28536	0.37	4.0909	0.1	253.41
28537	0.4625	4.	0.1	94.84
28538	0.37	4.2727	0.1	251.36
28539	0.4625	4.1818	0.1	94.188
28540	0.37	4.4545	0.1	248.41
28541	0.4625	4.3636	0.1	93.245
28542	0.37	4.6364	0.1	244.23
28543	0.4625	4.5455	0.1	91.905
28544	0.37	4.8182	0.1	238.37
28545	0.4625	4.7273	0.1	90.024
28546	0.37	5.	0.1	230.07
28547	0.4625	4.9091	0.1	87.383
28548	0.37	5.1818	0.1	218.08
28549	0.4625	5.0909	0.1	83.603
28550	0.37	5.3636	0.1	199.81
28551	0.4625	5.2727	0.1	78.003
28552	0.37	5.5455	0.1	166.57
28553	0.4625	5.4545	0.1	69.003
28554	0.37	5.7273	0.1	96.024
28555	0.4625	5.6364	0.1	50.683
28556	0.4625	5.8182	0.1	-83.54
28557	0.37	5.9091	0.1	-112.97
28558	0.555	0.27273	0.1	-35.35
28559	0.6475	0.18182	0.1	-86.236
28560	0.555	9.0909e-002	0.1	-99.737
28561	0.555	0.45455	0.1	-45.877
28562	0.6475	0.36364	0.1	-18.098
28563	0.555	0.63636	0.1	-52.581
28564	0.6475	0.54545	0.1	-19.844
28565	0.555	0.81818	0.1	-56.399
28566	0.6475	0.72727	0.1	-21.163
28567	0.555	1.	0.1	-59.057
28568	0.6475	0.90909	0.1	-22.084
28569	0.555	1.1818	0.1	-60.952
28570	0.6475	1.0909	0.1	-22.805
28571	0.555	1.3636	0.1	-62.299
28572	0.6475	1.2727	0.1	-23.325
28573	0.555	1.5455	0.1	-63.255
28574	0.6475	1.4545	0.1	-23.699
28575	0.555	1.7273	0.1	-63.924
28576	0.6475	1.6364	0.1	-23.96
28577	0.555	1.9091	0.1	-64.383
28578	0.6475	1.8182	0.1	-24.137
28579	0.555	2.0909	0.1	-64.688
28580	0.6475	2.	0.1	-24.253
28581	0.555	2.2727	0.1	-64.883
28582	0.6475	2.1818	0.1	-24.325
28583	0.555	2.4545	0.1	-65.002
28584	0.6475	2.3636	0.1	-24.368
28585	0.555	2.6364	0.1	-65.07
28586	0.6475	2.5455	0.1	-24.39
28587	0.555	2.8182	0.1	-65.104
28588	0.6475	2.7273	0.1	-24.402
28589	0.555	3.	0.1	-65.114
28590	0.6475	2.9091	0.1	-24.406
28591	0.555	3.1818	0.1	-65.104
28592	0.6475	3.0909	0.1	-24.406
28593	0.555	3.3636	0.1	-65.07
28594	0.6475	3.2727	0.1	-24.402
28595	0.555	3.5455	0.1	-65.002
28596	0.6475	3.4545	0.1	-24.39
28597	0.555	3.7273	0.1	-64.883
28598	0.6475	3.6364	0.1	-24.368
28599	0.555	3.9091	0.1	-64.688
28600	0.6475	3.8182	0.1	-24.325
28601	0.555	4.0909	0.1	-64.383
28602	0.6475	4.	0.1	-24.253
28603	0.555	4.2727	0.1	-63.924
28604	0.6475	4.1818	0.1	-24.137
28605	0.555	4.4545	0.1	-63.255
28606	0.6475	4.3636	0.1	-23.96
28607	0.555	4.6364	0.1	-62.3
28608	0.6475	4.5455	0.1	-23.699
28609	0.555	4.8182	0.1	-60.952
28610	0.6475	4.7273	0.1	-23.325
28611	0.555	5.	0.1	-59.057
28612	0.6475	4.9091	0.1	-22.805
28613	0.555	5.1818	0.1	-56.399
28614	0.6475	5.0909	0.1	-22.084
28615	0.555	5.3636	0.1	-52.581
28616	0.6475	5.2727	0.1	-21.163
28617	0.555	5.5455	0.1	-45.877
28618	0.6475	5.4545	0.1	-19.844
28619	0.555	5.7273	0.1	-35.35
28620	0.6475	5.6364	0.1	-18.098
28621	0.6475	5.8182	0.1	-86.236
28622	0.555	5.9091	0.1	-99.737
28623	0.74	0.27273	0.1	-1.0646
28624	0.8325	0.18182	0.1	-70.951
28625	0.74	9.0909e-002	0.1	-71.955
28626	0.74	0.45455	0.1	8.5404
28627	0.8325	0.36364	0.1	0.13043
28628	0.74	0.63636	0.1	11.727
28629	0.8325	0.54545	0.1	3.2275
28630	0.74	0.81818	0.1	13.21
28631	0.8325	0.72727	0.1	4.1544
28632	0.74	1.	0.1	14.192
28633	0.8325	0.90909	0.1	4.7938
28634	0.74	1.1818	0.1	14.832
28635	0.8325	1.0909	0.1	5.1659
28636	0.74	1.3636	0.1	15.279
28637	0.8325	1.2727	0.1	5.418
28638	0.74	1.5455	0.1	15.598
28639	0.8325	1.4545	0.1	5.5922
28640	0.74	1.7273	0.1	15.828
28641	0.8325	1.6364	0.1	5.7192
28642	0.74	1.9091	0.1	15.993
28643	0.8325	1.8182	0.1	5.813
28644	0.74	2.0909	0.1	16.11
28645	0.8325	2.	0.1	5.8824
28646	0.74	2.2727	0.1	16.191
28647	0.8325	2.1818	0.1	5.933
28648	0.74	2.4545	0.1	16.245
28649	0.8325	2.3636	0.1	5.9689
28650	0.74	2.6364	0.1	16.278
28651	0.8325	2.5455	0.1	5.993
28652	0.74	2.8182	0.1	16.297
28653	0.8325	2.7273	0.1	6.0077
28654	0.74	3.	0.1	16.302
28655	0.8325	2.9091	0.1	6.0147
28656	0.74	3.1818	0.1	16.297
28657	0.8325	3.0909	0.1	6.0147
28658	0.74	3.3636	0.1	16.278
28659	0.8325	3.2727	0.1	6.0077
28660	0.74	3.5455	0.1	16.245
28661	0.8325	3.4545	0.1	5.993
28662	0.74	3.7273	0.1	16.191
28663	0.8325	3.6364	0.1	5.9689
28664	0.74	3.9091	0.1	16.11
28665	0.8325	3.8182	0.1	5.933
28666	0.74	4.0909	0.1	15.993
28667	0.8325	4.	0.1	5.8824
28668	0.74	4.2727	0.1	15.828
28669	0.8325	4.1818	0.1	5.813
28670	0.74	4.4545	0.1	15.598
28671	0.8325	4.3636	0.1	5.7192
28672	0.74	4.6364	0.1	15.279
28673	0.8325	4.5455	0.1	5.5922
28674	0.74	4.8182	0.1	14.832
28675	0.8325	4.7273	0.1	5.418
28676	0.74	5.	0.1	14.192
28677	0.8325	4.9091	0.1	5.1659
28678	0.74	5.1818	0.1	13.21
28679	0.8325	5.0909	0.1	4.7938
28680	0.74	5.3636	0.1	11.727
28681	0.8325	5.2727	0.1	4.1544
28682	0.74	5.5455	0.1	8.5404
28683	0.8325	5.4545	0.1	3.2275
28684	0.74	5.7273	0.1	-1.0646
28685	0.8325	5.6364	0.1	0.13043
28686	0.8325	5.8182	0.1	-70.951
28687	0.74	5.9091	0.1	-71.955
28688	0.925	0.27273	0.1	-8.8158
28689	1.0175	0.18182	0.1	-63.141
28690	0.925	9.0909e-002	0.1	-58.573
28691	0.925	0.45455	0.1	-4.6337
28692	1.0175	0.36364	0.1	-3.9073
28693	0.925	0.63636	0.1	-4.2185
28694	1.0175	0.54545	0.1	-2.3405
28695	0.925	0.81818	0.1	-4.2104
28696	1.0175	0.72727	0.1	-2.0993
28697	0.925	1.	0.1	-4.2078
28698	1.0175	0.90909	0.1	-1.9167
28699	0.925	1.1818	0.1	-4.2365
28700	1.0175	1.0909	0.1	-1.8414
28701	0.925	1.3636	0.1	-4.2635
28702	1.0175	1.2727	0.1	-1.7974
28703	0.925	1.5455	0.1	-4.2835
28704	1.0175	1.4545	0.1	-1.7713
28705	0.925	1.7273	0.1	-4.2941
28706	1.0175	1.6364	0.1	-1.7507
28707	0.925	1.9091	0.1	-4.2968
28708	1.0175	1.8182	0.1	-1.7323
28709	0.925	2.0909	0.1	-4.2941
28710	1.0175	2.	0.1	-1.715
28711	0.925	2.2727	0.1	-4.2886
28712	1.0175	2.1818	0.1	-1.6996
28713	0.925	2.4545	0.1	-4.2825
28714	1.0175	2.3636	0.1	-1.6866
28715	0.925	2.6364	0.1	-4.2772
28716	1.0175	2.5455	0.1	-1.6768
28717	0.925	2.8182	0.1	-4.2738
28718	1.0175	2.7273	0.1	-1.6702
28719	0.925	3.	0.1	-4.2726
28720	1.0175	2.9091	0.1	-1.667
28721	0.925	3.1818	0.1	-4.2738
28722	1.0175	3.0909	0.1	-1.667
28723	0.925	3.3636	0.1	-4.2772
28724	1.0175	3.2727	0.1	-1.6702
28725	0.925	3.5455	0.1	-4.2825
28726	1.0175	3.4545	0.1	-1.6768
28727	0.925	3.7273	0.1	-4.2886
28728	1.0175	3.6364	0.1	-1.6866
28729	0.925	3.9091	0.1	-4.2941
28730	1.0175	3.8182	0.1	-1.6996
28731	0.925	4.0909	0.1	-4.2968
28732	1.0175	4.	0.1	-1.715
28733	0.925	4.2727	0.1	-4.2941
28734	1.0175	4.1818	0.1	-1.7323
28735	0.925	4.4545	0.1	-4.2835
28736	1.0175	4.3636	0.1	-1.7507
28737	0.925	4.6364	0.1	-4.2635
28738	1.0175	4.5455	0.1	-1.7713
28739	0.925	4.8182	0.1	-4.2365
28740	1.0175	4.7273	0.1	-1.7974
28741	0.925	5.	0.1	-4.2078
28742	1.0175	4.9091	0.1	-1.8414
28743	0.925	5.1818	0.1	-4.2104
28744	1.0175	5.0909	0.1	-1.9167
28745	0.925	5.3636	0.1	-4.2185
28746	1.0175	5.2727	0.1	-2.0993
28747	0.925	5.5455	0.1	-4.6337
28748	1.0175	5.4545	0.1	-2.3405
28749	0.925	5.7273	0.1	-8.8158
28750	1.0175	5.6364	0.1	-3.9073
28751	1.0175	5.8182	0.1	-63.141
28752	0.925	5.9091	0.1	-58.573
28753	1.11	0.27273	0.1	-6.5909
28754	1.2025	0.18182	0.1	-58.427
28755	1.11	9.0909e-002	0.1	-48.91
28756	1.11	0.45455	0.1	-1.1299
28757	1.2025	0.36364	0.1	-2.6881
28758	1.11	0.63636	0.1	-0.11701
28759	1.2025	0.54545	0.1	-0.88545
28760	1.11	0.81818	0.1	0.2362
28761	1.2025	0.72727	0.1	-0.49437
28762	1.11	1.	0.1	0.46998
28763	1.2025	0.90909	0.1	-0.21948
28764	1.11	1.1818	0.1	0.60826
28765	1.2025	1.0909	0.1	-7.0118e-002
28766	1.11	1.3636	0.1	0.70052
28767	1.2025	1.2727	0.1	2.9348e-002
28768	1.11	1.5455	0.1	0.76475
28769	1.2025	1.4545	0.1	9.6019e-002
28770	1.11	1.7273	0.1	0.81298
28771	1.2025	1.6364	0.1	0.14535
28772	1.11	1.9091	0.1	0.85062
28773	1.2025	1.8182	0.1	0.18386
28774	1.11	2.0909	0.1	0.88028
28775	1.2025	2.	0.1	0.21475
28776	1.11	2.2727	0.1	0.90306
28777	1.2025	2.1818	0.1	0.23909
28778	1.11	2.4545	0.1	0.91968
28779	1.2025	2.3636	0.1	0.25733
28780	1.11	2.6364	0.1	0.93079
28781	1.2025	2.5455	0.1	0.26996
28782	1.11	2.8182	0.1	0.93709
28783	1.2025	2.7273	0.1	0.27769
28784	1.11	3.	0.1	0.93912
28785	1.2025	2.9091	0.1	0.28131
28786	1.11	3.1818	0.1	0.93709
28787	1.2025	3.0909	0.1	0.28131
28788	1.11	3.3636	0.1	0.93079
28789	1.2025	3.2727	0.1	0.27769
28790	1.11	3.5455	0.1	0.91968
28791	1.2025	3.4545	0.1	0.26996
28792	1.11	3.7273	0.1	0.90306
28793	1.2025	3.6364	0.1	0.25733
28794	1.11	3.9091	0.1	0.88028
28795	1.2025	3.8182	0.1	0.23909
28796	1.11	4.0909	0.1	0.85062
28797	1.2025	4.	0.1	0.21475
28798	1.11	4.2727	0.1	0.81298
28799	1.2025	4.1818	0.1	0.18387
28800	1.11	4.4545	0.1	0.76475
28801	1.2025	4.3636	0.1	0.14535
28802	1.11	4.6364	0.1	0.70052
28803	1.2025	4.5455	0.1	9.6019e-002
28804	1.11	4.8182	0.1	0.60826
28805	1.2025	4.7273	0.1	2.9348e-002
28806	1.11	5.	0.1	0.46998
28807	1.2025	4.9091	0.1	-7.0118e-002
28808	1.11	5.1818	0.1	0.2362
28809	1.2025	5.0909	0.1	-0.21948
28810	1.11	5.3636	0.1	-0.11701
28811	1.2025	5.2727	0.1	-0.49437
28812	1.11	5.5455	0.1	-1.1299
28813	1.2025	5.4545	0.1	-0.88545
28814	1.11	5.7273	0.1	-6.5909
28815	1.2025	5.6364	0.1	-2.6881
28816	1.2025	5.8182	0.1	-58.427
28817	1.11	5.9091	0.1	-48.91
28818	1.295	0.27273	0.1	-7.5135
28819	1.3875	0.18182	0.1	-58.187
28820	1.295	9.0909e-002	0.1	-44.112
28821	1.295	0.45455	0.1	-1.9639
28822	1.3875	0.36364	0.1	-3.0334
28823	1.295	0.63636	0.1	-1.1668
28824	1.3875	0.54545	0.1	-1.3125
28825	1.295	0.81818	0.1	-0.91296
28826	1.3875	0.72727	0.1	-0.95157
28827	1.295	1.	0.1	-0.74148
28828	1.3875	0.90909	0.1	-0.70519
28829	1.295	1.1818	0.1	-0.63926
28830	1.3875	1.0909	0.1	-0.56679
28831	1.295	1.3636	0.1	-0.56955
28832	1.3875	1.2727	0.1	-0.4714
28833	1.295	1.5455	0.1	-0.51999
28834	1.3875	1.4545	0.1	-0.40499
28835	1.295	1.7273	0.1	-0.48156
28836	1.3875	1.6364	0.1	-0.35439
28837	1.295	1.9091	0.1	-0.45046
28838	1.3875	1.8182	0.1	-0.31397
28839	1.295	2.0909	0.1	-0.42524
28840	1.3875	2.	0.1	-0.28124
28841	1.295	2.2727	0.1	-0.40565
28842	1.3875	2.1818	0.1	-0.25565
28843	1.295	2.4545	0.1	-0.39152
28844	1.3875	2.3636	0.1	-0.23709
28845	1.295	2.6364	0.1	-0.38236
28846	1.3875	2.5455	0.1	-0.22501
28847	1.295	2.8182	0.1	-0.37737
28848	1.3875	2.7273	0.1	-0.2182
28849	1.295	3.	0.1	-0.3758
28850	1.3875	2.9091	0.1	-0.21526
28851	1.295	3.1818	0.1	-0.37737
28852	1.3875	3.0909	0.1	-0.21526
28853	1.295	3.3636	0.1	-0.38236
28854	1.3875	3.2727	0.1	-0.2182
28855	1.295	3.5455	0.1	-0.39152
28856	1.3875	3.4545	0.1	-0.22501
28857	1.295	3.7273	0.1	-0.40565
28858	1.3875	3.6364	0.1	-0.23709
28859	1.295	3.9091	0.1	-0.42524
28860	1.3875	3.8182	0.1	-0.25565
28861	1.295	4.0909	0.1	-0.45046
28862	1.3875	4.	0.1	-0.28124
28863	1.295	4.2727	0.1	-0.48156
28864	1.3875	4.1818	0.1	-0.31397
28865	1.295	4.4545	0.1	-0.51999
28866	1.3875	4.3636	0.1	-0.35439
28867	1.295	4.6364	0.1	-0.56955
28868	1.3875	4.5455	0.1	-0.40499
28869	1.295	4.8182	0.1	-0.63926
28870	1.3875	4.7273	0.1	-0.4714
28871	1.295	5.	0.1	-0.74148
28872	1.3875	4.9091	0.1	-0.56679
28873	1.295	5.1818	0.1	-0.91296
28874	1.3875	5.0909	0.1	-0.70519
28875	1.295	5.3636	0.1	-1.1668
28876	1.3875	5.2727	0.1	-0.95157
28877	1.295	5.5455	0.1	-1.9639
28878	1.3875	5.4545	0.1	-1.3125
28879	1.295	5.7273	0.1	-7.5135
28880	1.3875	5.6364	0.1	-3.0334
28881	1.3875	5.8182	0.1	-58.187
28882	1.295	5.9091	0.1	-44.111
28883	1.48	0.27273	0.1	-8.8954
28884	1.5725	0.18182	0.1	-61.931
28885	1.48	9.0909e-002	0.1	-42.713
28886	1.48	0.45455	0.1	-1.8627
28887	1.5725	0.36364	0.1	-3.3531
28888	1.48	0.63636	0.1	-1.0033
28889	1.5725	0.54545	0.1	-1.395
28890	1.48	0.81818	0.1	-0.70972
28891	1.5725	0.72727	0.1	-0.96744
28892	1.48	1.	0.1	-0.51445
28893	1.5725	0.90909	0.1	-0.69796
28894	1.48	1.1818	0.1	-0.39029
28895	1.5725	1.0909	0.1	-0.53899
28896	1.48	1.3636	0.1	-0.3017
28897	1.5725	1.2727	0.1	-0.42634
28898	1.48	1.5455	0.1	-0.23603
28899	1.5725	1.4545	0.1	-0.3443
28900	1.48	1.7273	0.1	-0.18436
28901	1.5725	1.6364	0.1	-0.27991
28902	1.48	1.9091	0.1	-0.14283
28903	1.5725	1.8182	0.1	-0.22759
28904	1.48	2.0909	0.1	-0.11003
28905	1.5725	2.	0.1	-0.18532
28906	1.48	2.2727	0.1	-8.5693e-002
28907	1.5725	2.1818	0.1	-0.15322
28908	1.48	2.4545	0.1	-6.9366e-002
28909	1.5725	2.3636	0.1	-0.13144
28910	1.48	2.6364	0.1	-5.9793e-002
28911	1.5725	2.5455	0.1	-0.11876
28912	1.48	2.8182	0.1	-5.5147e-002
28913	1.5725	2.7273	0.1	-0.11278
28914	1.48	3.	0.1	-5.3812e-002
28915	1.5725	2.9091	0.1	-0.11071
28916	1.48	3.1818	0.1	-5.5147e-002
28917	1.5725	3.0909	0.1	-0.11071
28918	1.48	3.3636	0.1	-5.9792e-002
28919	1.5725	3.2727	0.1	-0.11278
28920	1.48	3.5455	0.1	-6.9366e-002
28921	1.5725	3.4545	0.1	-0.11876
28922	1.48	3.7273	0.1	-8.5693e-002
28923	1.5725	3.6364	0.1	-0.13143
28924	1.48	3.9091	0.1	-0.11003
28925	1.5725	3.8182	0.1	-0.15322
28926	1.48	4.0909	0.1	-0.14282
28927	1.5725	4.	0.1	-0.18531
28928	1.48	4.2727	0.1	-0.18436
28929	1.5725	4.1818	0.1	-0.22759
28930	1.48	4.4545	0.1	-0.23603
28931	1.5725	4.3636	0.1	-0.27991
28932	1.48	4.6364	0.1	-0.3017
28933	1.5725	4.5455	0.1	-0.3443
28934	1.48	4.8182	0.1	-0.39029
28935	1.5725	4.7273	0.1	-0.42633
28936	1.48	5.	0.1	-0.51444
28937	1.5725	4.9091	0.1	-0.53899
28938	1.48	5.1818	0.1	-0.70972
28939	1.5725	5.0909	0.1	-0.69796
28940	1.48	5.3636	0.1	-1.0033
28941	1.5725	5.2727	0.1	-0.96744
28942	1.48	5.5455	0.1	-1.8627
28943	1.5725	5.4545	0.1	-1.395
28944	1.48	5.7273	0.1	-8.8953
28945	1.5725	5.6364	0.1	-3.3531
28946	1.5725	5.8182	0.1	-61.931
28947	1.48	5.9091	0.1	-42.713
28948	1.665	0.27273	0.1	-13.189
28949	1.7575	0.18182	0.1	-69.484
28950	1.665	9.0909e-002	0.1	-44.262
28951	1.665	0.45455	0.1	-2.2314
28952	1.7575	0.36364	0.1	-4.4691
28953	1.665	0.63636	0.1	-1.2592
28954	1.7575	0.54545	0.1	-1.775
28955	1.665	0.81818	0.1	-0.92326
28956	1.7575	0.72727	0.1	-1.2134
28957	1.665	1.	0.1	-0.70851
28958	1.7575	0.90909	0.1	-0.89716
28959	1.665	1.1818	0.1	-0.56785
28960	1.7575	1.0909	0.1	-0.7076
28961	1.665	1.3636	0.1	-0.46458
28962	1.7575	1.2727	0.1	-0.5726
28963	1.665	1.5455	0.1	-0.38504
28964	1.7575	1.4545	0.1	-0.47147
28965	1.665	1.7273	0.1	-0.3205
28966	1.7575	1.6364	0.1	-0.38987
28967	1.665	1.9091	0.1	-0.26769
28968	1.7575	1.8182	0.1	-0.32192
28969	1.665	2.0909	0.1	-0.22631
28970	1.7575	2.	0.1	-0.26675
28971	1.665	2.2727	0.1	-0.197
28972	1.7575	2.1818	0.1	-0.22572
28973	1.665	2.4545	0.1	-0.17915
28974	1.7575	2.3636	0.1	-0.19974
28975	1.665	2.6364	0.1	-0.17036
28976	1.7575	2.5455	0.1	-0.18726
28977	1.665	2.8182	0.1	-0.16717
28978	1.7575	2.7273	0.1	-0.18365
28979	1.665	3.	0.1	-0.16651
28980	1.7575	2.9091	0.1	-0.18356
28981	1.665	3.1818	0.1	-0.16716
28982	1.7575	3.0909	0.1	-0.18356
28983	1.665	3.3636	0.1	-0.17036
28984	1.7575	3.2727	0.1	-0.18365
28985	1.665	3.5455	0.1	-0.17915
28986	1.7575	3.4545	0.1	-0.18726
28987	1.665	3.7273	0.1	-0.197
28988	1.7575	3.6364	0.1	-0.19974
28989	1.665	3.9091	0.1	-0.22631
28990	1.7575	3.8182	0.1	-0.22572
28991	1.665	4.0909	0.1	-0.26769
28992	1.7575	4.	0.1	-0.26675
28993	1.665	4.2727	0.1	-0.3205
28994	1.7575	4.1818	0.1	-0.32192
28995	1.665	4.4545	0.1	-0.38504
28996	1.7575	4.3636	0.1	-0.38987
28997	1.665	4.6364	0.1	-0.46458
28998	1.7575	4.5455	0.1	-0.47147
28999	1.665	4.8182	0.1	-0.56785
29000	1.7575	4.7273	0.1	-0.5726
29001	1.665	5.	0.1	-0.70851
29002	1.7575	4.9091	0.1	-0.7076
29003	1.665	5.1818	0.1	-0.92326
29004	1.7575	5.0909	0.1	-0.89716
29005	1.665	5.3636	0.1	-1.2592
29006	1.7575	5.2727	0.1	-1.2134
29007	1.665	5.5455	0.1	-2.2314
29008	1.7575	5.4545	0.1	-1.775
29009	1.665	5.7273	0.1	-13.189
29010	1.7575	5.6364	0.1	-4.4691
29011	1.7575	5.8182	0.1	-69.484
29012	1.665	5.9091	0.1	-44.262
29013	1.85	0.27273	0.1	-24.092
29014	1.9425	0.18182	0.1	-80.328
29015	1.85	9.0909e-002	0.1	-48.168
29016	1.85	0.45455	0.1	-2.9733
29017	1.9425	0.36364	0.1	-7.9035
29018	1.85	0.63636	0.1	-1.6126
29019	1.9425	0.54545	0.1	-2.5294
29020	1.85	0.81818	0.1	-1.1575
29021	1.9425	0.72727	0.1	-1.6273
29022	1.85	1.	0.1	-0.88633
29023	1.9425	0.90909	0.1	-1.1908
29024	1.85	1.1818	0.1	-0.7083
29025	1.9425	1.0909	0.1	-0.93383
29026	1.85	1.3636	0.1	-0.57701
29027	1.9425	1.2727	0.1	-0.75459
29028	1.85	1.5455	0.1	-0.47392
29029	1.9425	1.4545	0.1	-0.61972
29030	1.85	1.7273	0.1	-0.38857
29031	1.9425	1.6364	0.1	-0.50934
29032	1.85	1.9091	0.1	-0.31795
29033	1.9425	1.8182	0.1	-0.41578
29034	1.85	2.0909	0.1	-0.26307
29035	1.9425	2.	0.1	-0.3387
29036	1.85	2.2727	0.1	-0.22561
29037	1.9425	2.1818	0.1	-0.2836
29038	1.85	2.4545	0.1	-0.20546
29039	1.9425	2.3636	0.1	-0.25312
29040	1.85	2.6364	0.1	-0.1987
29041	1.9425	2.5455	0.1	-0.24253
29042	1.85	2.8182	0.1	-0.1986
29043	1.9425	2.7273	0.1	-0.24363
29044	1.85	3.	0.1	-0.19932
29045	1.9425	2.9091	0.1	-0.24723
29046	1.85	3.1818	0.1	-0.1986
29047	1.9425	3.0909	0.1	-0.24723
29048	1.85	3.3636	0.1	-0.1987
29049	1.9425	3.2727	0.1	-0.24363
29050	1.85	3.5455	0.1	-0.20546
29051	1.9425	3.4545	0.1	-0.24253
29052	1.85	3.7273	0.1	-0.22561
29053	1.9425	3.6364	0.1	-0.25312
29054	1.85	3.9091	0.1	-0.26306
29055	1.9425	3.8182	0.1	-0.2836
29056	1.85	4.0909	0.1	-0.31795
29057	1.9425	4.	0.1	-0.3387
29058	1.85	4.2727	0.1	-0.38857
29059	1.9425	4.1818	0.1	-0.41578
29060	1.85	4.4545	0.1	-0.47392
29061	1.9425	4.3636	0.1	-0.50934
29062	1.85	4.6364	0.1	-0.57701
29063	1.9425	4.5455	0.1	-0.61972
29064	1.85	4.8182	0.1	-0.7083
29065	1.9425	4.7273	0.1	-0.75459
29066	1.85	5.	0.1	-0.88633
29067	1.9425	4.9091	0.1	-0.93383
29068	1.85	5.1818	0.1	-1.1575
29069	1.9425	5.0909	0.1	-1.1908
29070	1.85	5.3636	0.1	-1.6126
29071	1.9425	5.2727	0.1	-1.6273
29072	1.85	5.5455	0.1	-2.9733
29073	1.9425	5.4545	0.1	-2.5294
29074	1.85	5.7273	0.1	-24.092
29075	1.9425	5.6364	0.1	-7.9035
29076	1.9425	5.8182	0.1	-80.328
29077	1.85	5.9091	0.1	-48.168
29078	2.035	0.27273	0.1	-42.917
29079	2.1275	0.18182	0.1	-93.67
29080	2.035	9.0909e-002	0.1	-53.882
29081	2.035	0.45455	0.1	-5.0245
29082	2.1275	0.36364	0.1	-20.662
29083	2.035	0.63636	0.1	-2.392
29084	2.1275	0.54545	0.1	-4.4513
29085	2.035	0.81818	0.1	-1.6416
29086	2.1275	0.72727	0.1	-2.5257
29087	2.035	1.	0.1	-1.2404
29088	2.1275	0.90909	0.1	-1.7778
29089	2.035	1.1818	0.1	-0.98486
29090	2.1275	1.0909	0.1	-1.3643
29091	2.035	1.3636	0.1	-0.8002
29092	2.1275	1.2727	0.1	-1.0895
29093	2.035	1.5455	0.1	-0.65529
29094	2.1275	1.4545	0.1	-0.88798
29095	2.035	1.7273	0.1	-0.53426
29096	2.1275	1.6364	0.1	-0.7258
29097	2.035	1.9091	0.1	-0.43258
29098	2.1275	1.8182	0.1	-0.5872
29099	2.035	2.0909	0.1	-0.35462
29100	2.1275	2.	0.1	-0.47618
29101	2.035	2.2727	0.1	-0.30674
29102	2.1275	2.1818	0.1	-0.39633
29103	2.035	2.4545	0.1	-0.28666
29104	2.1275	2.3636	0.1	-0.35161
29105	2.035	2.6364	0.1	-0.28495
29106	2.1275	2.5455	0.1	-0.34236
29107	2.035	2.8182	0.1	-0.29053
29108	2.1275	2.7273	0.1	-0.35156
29109	2.035	3.	0.1	-0.2937
29110	2.1275	2.9091	0.1	-0.36098
29111	2.035	3.1818	0.1	-0.29053
29112	2.1275	3.0909	0.1	-0.36098
29113	2.035	3.3636	0.1	-0.28495
29114	2.1275	3.2727	0.1	-0.35156
29115	2.035	3.5455	0.1	-0.28666
29116	2.1275	3.4545	0.1	-0.34236
29117	2.035	3.7273	0.1	-0.30674
29118	2.1275	3.6364	0.1	-0.35161
29119	2.035	3.9091	0.1	-0.35462
29120	2.1275	3.8182	0.1	-0.39632
29121	2.035	4.0909	0.1	-0.43258
29122	2.1275	4.	0.1	-0.47617
29123	2.035	4.2727	0.1	-0.53426
29124	2.1275	4.1818	0.1	-0.5872
29125	2.035	4.4545	0.1	-0.65529
29126	2.1275	4.3636	0.1	-0.72579
29127	2.035	4.6364	0.1	-0.80019
29128	2.1275	4.5455	0.1	-0.88798
29129	2.035	4.8182	0.1	-0.98486
29130	2.1275	4.7273	0.1	-1.0895
29131	2.035	5.	0.1	-1.2404
29132	2.1275	4.9091	0.1	-1.3643
29133	2.035	5.1818	0.1	-1.6416
29134	2.1275	5.0909	0.1	-1.7778
29135	2.035	5.3636	0.1	-2.392
29136	2.1275	5.2727	0.1	-2.5257
29137	2.035	5.5455	0.1	-5.0245
29138	2.1275	5.4545	0.1	-4.4513
29139	2.035	5.7273	0.1	-42.917
29140	2.1275	5.6364	0.1	-20.662
29141	2.1275	5.8182	0.1	-93.67
29142	2.035	5.9091	0.1	-53.882
29143	2.22	0.27273	0.1	-65.473
29144	2.3125	0.18182	0.1	-108.37
29145	2.22	9.0909e-002	0.1	-60.74
29146	2.22	0.45455	0.1	-12.742
29147	2.3125	0.36364	0.1	-46.532
29148	2.22	0.63636	0.1	-4.3688
29149	2.3125	0.54545	0.1	-11.342
29150	2.22	0.81818	0.1	-2.7011
29151	2.3125	0.72727	0.1	-4.9399
29152	2.22	1.	0.1	-1.9506
29153	2.3125	0.90909	0.1	-3.1649
29154	2.22	1.1818	0.1	-1.5046
29155	2.3125	1.0909	0.1	-2.3032
29156	2.22	1.3636	0.1	-1.1984
29157	2.3125	1.2727	0.1	-1.7698
29158	2.22	1.5455	0.1	-0.96756
29159	2.3125	1.4545	0.1	-1.3946
29160	2.22	1.7273	0.1	-0.77901
29161	2.3125	1.6364	0.1	-1.1024
29162	2.22	1.9091	0.1	-0.62563
29163	2.3125	1.8182	0.1	-0.86714
29164	2.22	2.0909	0.1	-0.51041
29165	2.3125	2.	0.1	-0.66562
29166	2.22	2.2727	0.1	-0.43394
29167	2.3125	2.1818	0.1	-0.53522
29168	2.22	2.4545	0.1	-0.40178
29169	2.3125	2.3636	0.1	-0.49174
29170	2.22	2.6364	0.1	-0.40551
29171	2.3125	2.5455	0.1	-0.48929
29172	2.22	2.8182	0.1	-0.42006
29173	2.3125	2.7273	0.1	-0.5052
29174	2.22	3.	0.1	-0.42684
29175	2.3125	2.9091	0.1	-0.52129
29176	2.22	3.1818	0.1	-0.42006
29177	2.3125	3.0909	0.1	-0.52129
29178	2.22	3.3636	0.1	-0.40551
29179	2.3125	3.2727	0.1	-0.5052
29180	2.22	3.5455	0.1	-0.40178
29181	2.3125	3.4545	0.1	-0.48929
29182	2.22	3.7273	0.1	-0.43394
29183	2.3125	3.6364	0.1	-0.49174
29184	2.22	3.9091	0.1	-0.51041
29185	2.3125	3.8182	0.1	-0.53522
29186	2.22	4.0909	0.1	-0.62563
29187	2.3125	4.	0.1	-0.66562
29188	2.22	4.2727	0.1	-0.77901
29189	2.3125	4.1818	0.1	-0.86714
29190	2.22	4.4545	0.1	-0.96756
29191	2.3125	4.3636	0.1	-1.1024
29192	2.22	4.6364	0.1	-1.1984
29193	2.3125	4.5455	0.1	-1.3946
29194	2.22	4.8182	0.1	-1.5046
29195	2.3125	4.7273	0.1	-1.7698
29196	2.22	5.	0.1	-1.9506
29197	2.3125	4.9091	0.1	-2.3032
29198	2.22	5.1818	0.1	-2.7011
29199	2.3125	5.0909	0.1	-3.1649
29200	2.22	5.3636	0.1	-4.3687
29201	2.3125	5.2727	0.1	-4.9399
29202	2.22	5.5455	0.1	-12.742
29203	2.3125	5.4545	0.1	-11.342
29204	2.22	5.7273	0.1	-65.473
29205	2.3125	5.6364	0.1	-46.532
29206	2.3125	5.8182	0.1	-108.37
29207	2.22	5.9091	0.1	-60.74
29208	2.405	0.27273	0.1	-88.303
29209	2.4975	0.18182	0.1	-122.92
29210	2.405	9.0909e-002	0.1	-67.893
29211	2.405	0.45455	0.1	-38.287
29212	2.4975	0.36364	0.1	-74.19
29213	2.405	0.63636	0.1	-11.954
29214	2.4975	0.54545	0.1	-37.854
29215	2.405	0.81818	0.1	-5.8992
29216	2.4975	0.72727	0.1	-15.765
29217	2.405	1.	0.1	-3.8348
29218	2.4975	0.90909	0.1	-8.3276
29219	2.405	1.1818	0.1	-2.7568
29220	2.4975	1.0909	0.1	-5.3337
29221	2.405	1.3636	0.1	-2.0688
29222	2.4975	1.2727	0.1	-3.6986
29223	2.405	1.5455	0.1	-1.5765
29224	2.4975	1.4545	0.1	-2.6818
29225	2.405	1.7273	0.1	-1.2033
29226	2.4975	1.6364	0.1	-2.005
29227	2.405	1.9091	0.1	-0.90108
29228	2.4975	1.8182	0.1	-1.4718
29229	2.405	2.0909	0.1	-0.67698
29230	2.4975	2.	0.1	-1.1443
29231	2.405	2.2727	0.1	-0.57985
29232	2.4975	2.1818	0.1	-0.91128
29233	2.405	2.4545	0.1	-0.5701
29234	2.4975	2.3636	0.1	-0.71996
29235	2.405	2.6364	0.1	-0.5842
29236	2.4975	2.5455	0.1	-0.68975
29237	2.405	2.8182	0.1	-0.60449
29238	2.4975	2.7273	0.1	-0.71812
29239	2.405	3.	0.1	-0.61471
29240	2.4975	2.9091	0.1	-0.731
29241	2.405	3.1818	0.1	-0.60449
29242	2.4975	3.0909	0.1	-0.731
29243	2.405	3.3636	0.1	-0.5842
29244	2.4975	3.2727	0.1	-0.71812
29245	2.405	3.5455	0.1	-0.5701
29246	2.4975	3.4545	0.1	-0.68975
29247	2.405	3.7273	0.1	-0.57985
29248	2.4975	3.6364	0.1	-0.71996
29249	2.405	3.9091	0.1	-0.67698
29250	2.4975	3.8182	0.1	-0.91128
29251	2.405	4.0909	0.1	-0.90108
29252	2.4975	4.	0.1	-1.1443
29253	2.405	4.2727	0.1	-1.2033
29254	2.4975	4.1818	0.1	-1.4718
29255	2.405	4.4545	0.1	-1.5765
29256	2.4975	4.3636	0.1	-2.005
29257	2.405	4.6364	0.1	-2.0688
29258	2.4975	4.5455	0.1	-2.6818
29259	2.405	4.8182	0.1	-2.7568
29260	2.4975	4.7273	0.1	-3.6986
29261	2.405	5.	0.1	-3.8348
29262	2.4975	4.9091	0.1	-5.3337
29263	2.405	5.1818	0.1	-5.8992
29264	2.4975	5.0909	0.1	-8.3276
29265	2.405	5.3636	0.1	-11.954
29266	2.4975	5.2727	0.1	-15.765
29267	2.405	5.5455	0.1	-38.287
29268	2.4975	5.4545	0.1	-37.854
29269	2.405	5.7273	0.1	-88.303
29270	2.4975	5.6364	0.1	-74.19
29271	2.4975	5.8182	0.1	-122.92
29272	2.405	5.9091	0.1	-67.893
29273	2.59	0.27273	0.1	-108.89
29274	2.6825	0.18182	0.1	-135.33
29275	2.59	9.0909e-002	0.1	-74.203
29276	2.59	0.45455	0.1	-73.102
29277	2.6825	0.36364	0.1	-97.674
29278	2.59	0.63636	0.1	-46.571
29279	2.6825	0.54545	0.1	-79.787
29280	2.59	0.81818	0.1	-25.953
29281	2.6825	0.72727	0.1	-67.598
29282	2.59	1.	0.1	-13.973
29283	2.6825	0.90909	0.1	-55.337
29284	2.59	1.1818	0.1	-8.1144
29285	2.6825	1.0909	0.1	-37.648
29286	2.59	1.3636	0.1	-5.0866
29287	2.6825	1.2727	0.1	-18.986
29288	2.59	1.5455	0.1	-3.4071
29289	2.6825	1.4545	0.1	-9.0439
29290	2.59	1.7273	0.1	-2.3596
29291	2.6825	1.6364	0.1	-4.7257
29292	2.59	1.9091	0.1	-1.7143
29293	2.6825	1.8182	0.1	-2.8827
29294	2.59	2.0909	0.1	-1.3506
29295	2.6825	2.	0.1	-1.5669
29296	2.59	2.2727	0.1	-1.0245
29297	2.6825	2.1818	0.1	-0.94929
29298	2.59	2.4545	0.1	-0.82375
29299	2.6825	2.3636	0.1	-1.091
29300	2.59	2.6364	0.1	-0.81749
29301	2.6825	2.5455	0.1	-1.0167
29302	2.59	2.8182	0.1	-0.8434
29303	2.6825	2.7273	0.1	-0.96487
29304	2.59	3.	0.1	-0.84735
29305	2.6825	2.9091	0.1	-0.96352
29306	2.59	3.1818	0.1	-0.8434
29307	2.6825	3.0909	0.1	-0.96352
29308	2.59	3.3636	0.1	-0.81749
29309	2.6825	3.2727	0.1	-0.96487
29310	2.59	3.5455	0.1	-0.82375
29311	2.6825	3.4545	0.1	-1.0167
29312	2.59	3.7273	0.1	-1.0245
29313	2.6825	3.6364	0.1	-1.091
29314	2.59	3.9091	0.1	-1.3506
29315	2.6825	3.8182	0.1	-0.94929
29316	2.59	4.0909	0.1	-1.7143
29317	2.6825	4.	0.1	-1.5669
29318	2.59	4.2727	0.1	-2.3596
29319	2.6825	4.1818	0.1	-2.8827
29320	2.59	4.4545	0.1	-3.4071
29321	2.6825	4.3636	0.1	-4.7257
29322	2.59	4.6364	0.1	-5.0866
29323	2.6825	4.5455	0.1	-9.0439
29324	2.59	4.8182	0.1	-8.1144
29325	2.6825	4.7273	0.1	-18.986
29326	2.59	5.	0.1	-13.973
29327	2.6825	4.9091	0.1	-37.648
29328	2.59	5.1818	0.1	-25.953
29329	2.6825	5.0909	0.1	-55.337
29330	2.59	5.3636	0.1	-46.571
29331	2.6825	5.2727	0.1	-67.598
29332	2.59	5.5455	0.1	-73.102
29333	2.6825	5.4545	0.1	-79.786
29334	2.59	5.7273	0.1	-108.89
29335	2.6825	5.6364	0.1	-97.674
29336	2.6825	5.8182	0.1	-135.33
29337	2.59	5.9091	0.1	-74.203
29338	2.775	0.27273	0.1	-124.85
29339	2.8675	0.18182	0.1	-143.25
29340	2.775	9.0909e-002	0.1	-78.133
29341	2.775	0.45455	0.1	-105.97
29342	2.8675	0.36364	0.1	-114.67
29343	2.775	0.63636	0.1	-106.58
29344	2.8675	0.54545	0.1	-123.81
29345	2.775	0.81818	0.1	-113.68
29346	2.8675	0.72727	0.1	-152.79
29347	2.775	1.	0.1	-116.56
29348	2.8675	0.90909	0.1	-191.03
29349	2.775	1.1818	0.1	-101.32
29350	2.8675	1.0909	0.1	-222.84
29351	2.775	1.3636	0.1	-57.839
29352	2.8675	1.2727	0.1	-227.24
29353	2.775	1.5455	0.1	-17.102
29354	2.8675	1.4545	0.1	-180.27
29355	2.775	1.7273	0.1	-6.2372
29356	2.8675	1.6364	0.1	-72.72
29357	2.775	1.9091	0.1	-2.8179
29358	2.8675	1.8182	0.1	-12.105
29359	2.775	2.0909	0.1	-1.096
29360	2.8675	2.	0.1	-5.7344
29361	2.775	2.2727	0.1	-0.95157
29362	2.8675	2.1818	0.1	-3.8052
29363	2.775	2.4545	0.1	-1.256
29364	2.8675	2.3636	0.1	-1.3546
29365	2.775	2.6364	0.1	-1.1588
29366	2.8675	2.5455	0.1	-1.4347
29367	2.775	2.8182	0.1	-1.0863
29368	2.8675	2.7273	0.1	-1.2237
29369	2.775	3.	0.1	-1.0816
29370	2.8675	2.9091	0.1	-1.115
29371	2.775	3.1818	0.1	-1.0863
29372	2.8675	3.0909	0.1	-1.115
29373	2.775	3.3636	0.1	-1.1588
29374	2.8675	3.2727	0.1	-1.2237
29375	2.775	3.5455	0.1	-1.256
29376	2.8675	3.4545	0.1	-1.4347
29377	2.775	3.7273	0.1	-0.95157
29378	2.8675	3.6364	0.1	-1.3546
29379	2.775	3.9091	0.1	-1.096
29380	2.8675	3.8182	0.1	-3.8052
29381	2.775	4.0909	0.1	-2.8179
29382	2.8675	4.	0.1	-5.7344
29383	2.775	4.2727	0.1	-6.2372
29384	2.8675	4.1818	0.1	-12.105
29385	2.775	4.4545	0.1	-17.102
29386	2.8675	4.3636	0.1	-72.719
29387	2.775	4.6364	0.1	-57.839
29388	2.8675	4.5455	0.1	-180.27
29389	2.775	4.8182	0.1	-101.32
29390	2.8675	4.7273	0.1	-227.24
29391	2.775	5.	0.1	-116.56
29392	2.8675	4.9091	0.1	-222.84
29393	2.775	5.1818	0.1	-113.68
29394	2.8675	5.0909	0.1	-191.03
29395	2.775	5.3636	0.1	-106.58
29396	2.8675	5.2727	0.1	-152.79
29397	2.775	5.5455	0.1	-105.97
29398	2.8675	5.4545	0.1	-123.81
29399	2.775	5.7273	0.1	-124.85
29400	2.8675	5.6364	0.1	-114.67
29401	2.8675	5.8182	0.1	-143.25
29402	2.775	5.9091	0.1	-78.133
29403	2.96	0.27273	0.1	-134.51
29404	3.0525	0.18182	0.1	-144.14
29405	2.96	9.0909e-002	0.1	-77.808
29406	2.96	0.45455	0.1	-136.23
29407	3.0525	0.36364	0.1	-126.28
29408	2.96	0.63636	0.1	-178.42
29409	3.0525	0.54545	0.1	-173.98
29410	2.96	0.81818	0.1	-243.34
29411	3.0525	0.72727	0.1	-263.25
29412	2.96	1.	0.1	-314.29
29413	3.0525	0.90909	0.1	-376.88
29414	2.96	1.1818	0.1	-368.8
29415	3.0525	1.0909	0.1	-494.72
29416	2.96	1.3636	0.1	-377.92
29417	3.0525	1.2727	0.1	-590.04
29418	2.96	1.5455	0.1	-309.5
29419	3.0525	1.4545	0.1	-625.54
29420	2.96	1.7273	0.1	-148.4
29421	3.0525	1.6364	0.1	-543.02
29422	2.96	1.9091	0.1	-18.522
29423	3.0525	1.8182	0.1	-307.22
29424	2.96	2.0909	0.1	-8.1351
29425	3.0525	2.	0.1	-31.589
29426	2.96	2.2727	0.1	-4.0283
29427	3.0525	2.1818	0.1	-1.1652e-002
29428	2.96	2.4545	0.1	-1.4914
29429	3.0525	2.3636	0.1	-4.6717
29430	2.96	2.6364	0.1	-1.5105
29431	3.0525	2.5455	0.1	-1.4769
29432	2.96	2.8182	0.1	-1.2602
29433	3.0525	2.7273	0.1	-1.3865
29434	2.96	3.	0.1	-1.1506
29435	3.0525	2.9091	0.1	-1.0211
29436	2.96	3.1818	0.1	-1.2602
29437	3.0525	3.0909	0.1	-1.0211
29438	2.96	3.3636	0.1	-1.5105
29439	3.0525	3.2727	0.1	-1.3865
29440	2.96	3.5455	0.1	-1.4914
29441	3.0525	3.4545	0.1	-1.4769
29442	2.96	3.7273	0.1	-4.0283
29443	3.0525	3.6364	0.1	-4.6717
29444	2.96	3.9091	0.1	-8.1351
29445	3.0525	3.8182	0.1	-1.1649e-002
29446	2.96	4.0909	0.1	-18.522
29447	3.0525	4.	0.1	-31.589
29448	2.96	4.2727	0.1	-148.4
29449	3.0525	4.1818	0.1	-307.22
29450	2.96	4.4545	0.1	-309.5
29451	3.0525	4.3636	0.1	-543.02
29452	2.96	4.6364	0.1	-377.92
29453	3.0525	4.5455	0.1	-625.54
29454	2.96	4.8182	0.1	-368.8
29455	3.0525	4.7273	0.1	-590.04
29456	2.96	5.	0.1	-314.29
29457	3.0525	4.9091	0.1	-494.72
29458	2.96	5.1818	0.1	-243.34
29459	3.0525	5.0909	0.1	-376.88
29460	2.96	5.3636	0.1	-178.42
29461	3.0525	5.2727	0.1	-263.25
29462	2.96	5.5455	0.1	-136.23
29463	3.0525	5.4545	0.1	-173.98
29464	2.96	5.7273	0.1	-134.51
29465	3.0525	5.6364	0.1	-126.28
29466	3.0525	5.8182	0.1	-144.14
29467	2.96	5.9091	0.1	-77.808
29468	3.145	0.27273	0.1	-138.68
29469	3.2375	0.18182	0.1	-138.97
29470	3.145	9.0909e-002	0.1	-70.796
29471	3.145	0.45455	0.1	-171.88
29472	3.2375	0.36364	0.1	-145.4
29473	3.145	0.63636	0.1	-274.37
29474	3.2375	0.54545	0.1	-254.65
29475	3.145	0.81818	0.1	-418.55
29476	3.2375	0.72727	0.1	-426.04
29477	3.145	1.	0.1	-582.75
29478	3.2375	0.90909	0.1	-634.77
29479	3.145	1.1818	0.1	-742.59
29480	3.2375	1.0909	0.1	-864.09
29481	3.145	1.3636	0.1	-862.41
29482	3.2375	1.2727	0.1	-1095.7
29483	3.145	1.5455	0.1	-878.52
29484	3.2375	1.4545	0.1	-1285.7
29485	3.145	1.7273	0.1	-716.59
29486	3.2375	1.6364	0.1	-1350.9
29487	3.145	1.9091	0.1	-391.37
29488	3.2375	1.8182	0.1	-1144.5
29489	3.145	2.0909	0.1	-50.228
29490	3.2375	2.	0.1	-565.98
29491	3.145	2.2727	0.1	0.40859
29492	3.2375	2.1818	0.1	-123.8
29493	3.145	2.4545	0.1	-4.8567
29494	3.2375	2.3636	0.1	-8.5051
29495	3.145	2.6364	0.1	-1.5314
29496	3.2375	2.5455	0.1	-6.2817
29497	3.145	2.8182	0.1	-1.1872
29498	3.2375	2.7273	0.1	-2.1675
29499	3.145	3.	0.1	-0.87609
29500	3.2375	2.9091	0.1	-0.48949
29501	3.145	3.1818	0.1	-1.1872
29502	3.2375	3.0909	0.1	-0.48949
29503	3.145	3.3636	0.1	-1.5314
29504	3.2375	3.2727	0.1	-2.1675
29505	3.145	3.5455	0.1	-4.8567
29506	3.2375	3.4545	0.1	-6.2818
29507	3.145	3.7273	0.1	0.40858
29508	3.2375	3.6364	0.1	-8.5052
29509	3.145	3.9091	0.1	-50.228
29510	3.2375	3.8182	0.1	-123.8
29511	3.145	4.0909	0.1	-391.37
29512	3.2375	4.	0.1	-565.98
29513	3.145	4.2727	0.1	-716.59
29514	3.2375	4.1818	0.1	-1144.5
29515	3.145	4.4545	0.1	-878.52
29516	3.2375	4.3636	0.1	-1350.9
29517	3.145	4.6364	0.1	-862.41
29518	3.2375	4.5455	0.1	-1285.7
29519	3.145	4.8182	0.1	-742.59
29520	3.2375	4.7273	0.1	-1095.7
29521	3.145	5.	0.1	-582.75
29522	3.2375	4.9091	0.1	-864.09
29523	3.145	5.1818	0.1	-418.55
29524	3.2375	5.0909	0.1	-634.77
29525	3.145	5.3636	0.1	-274.37
29526	3.2375	5.2727	0.1	-426.04
29527	3.145	5.5455	0.1	-171.88
29528	3.2375	5.4545	0.1	-254.65
29529	3.145	5.7273	0.1	-138.68
29530	3.2375	5.6364	0.1	-145.4
29531	3.2375	5.8182	0.1	-138.97
29532	3.145	5.9091	0.1	-70.796
29533	3.33	0.27273	0.1	-152.72
29534	3.4225	0.18182	0.1	-149.91
29535	3.33	9.0909e-002	0.1	-59.087
29536	3.33	0.45455	0.1	-246.66
29537	3.4225	0.36364	0.1	-238.23
29538	3.33	0.63636	0.1	-435.86
29539	3.4225	0.54545	0.1	-454.17
29540	3.33	0.81818	0.1	-677.55
29541	3.4225	0.72727	0.1	-731.54
29542	3.33	1.	0.1	-954.85
29543	3.4225	0.90909	0.1	-1054.2
29544	3.33	1.1818	0.1	-1258.6
29545	3.4225	1.0909	0.1	-1423.2
29546	3.33	1.3636	0.1	-1561.5
29547	3.4225	1.2727	0.1	-1847.6
29548	3.33	1.5455	0.1	-1791.8
29549	3.4225	1.4545	0.1	-2315.9
29550	3.33	1.7273	0.1	-1795.7
29551	3.4225	1.6364	0.1	-2845.
29552	3.33	1.9091	0.1	-1311.4
29553	3.4225	1.8182	0.1	-3023.1
29554	3.33	2.0909	0.1	-640.71
29555	3.4225	2.	0.1	-1897.4
29556	3.33	2.2727	0.1	-258.96
29557	3.4225	2.1818	0.1	-739.03
29558	3.33	2.4545	0.1	-146.57
29559	3.4225	2.3636	0.1	-499.62
29560	3.33	2.6364	0.1	-108.85
29561	3.4225	2.5455	0.1	-369.52
29562	3.33	2.8182	0.1	-83.467
29563	3.4225	2.7273	0.1	-303.02
29564	3.33	3.	0.1	-75.313
29565	3.4225	2.9091	0.1	-271.05
29566	3.33	3.1818	0.1	-83.468
29567	3.4225	3.0909	0.1	-271.05
29568	3.33	3.3636	0.1	-108.85
29569	3.4225	3.2727	0.1	-303.02
29570	3.33	3.5455	0.1	-146.57
29571	3.4225	3.4545	0.1	-369.52
29572	3.33	3.7273	0.1	-258.96
29573	3.4225	3.6364	0.1	-499.62
29574	3.33	3.9091	0.1	-640.71
29575	3.4225	3.8182	0.1	-739.03
29576	3.33	4.0909	0.1	-1311.4
29577	3.4225	4.	0.1	-1897.4
29578	3.33	4.2727	0.1	-1795.7
29579	3.4225	4.1818	0.1	-3023.1
29580	3.33	4.4545	0.1	-1791.8
29581	3.4225	4.3636	0.1	-2845.
29582	3.33	4.6364	0.1	-1561.5
29583	3.4225	4.5455	0.1	-2315.9
29584	3.33	4.8182	0.1	-1258.6
29585	3.4225	4.7273	0.1	-1847.6
29586	3.33	5.	0.1	-954.85
29587	3.4225	4.9091	0.1	-1423.2
29588	3.33	5.1818	0.1	-677.55
29589	3.4225	5.0909	0.1	-1054.2
29590	3.33	5.3636	0.1	-435.86
29591	3.4225	5.2727	0.1	-731.54
29592	3.33	5.5455	0.1	-246.66
29593	3.4225	5.4545	0.1	-454.17
29594	3.33	5.7273	0.1	-152.72
29595	3.4225	5.6364	0.1	-238.23
29596	3.4225	5.8182	0.1	-149.91
29597	3.33	5.9091	0.1	-59.087
29598	3.515	0.27273	0.1	-263.53
29599	3.6075	0.18182	0.1	-79.121
29600	3.515	9.0909e-002	0.1	-70.338
29601	3.515	0.45455	0.1	-491.25
29602	3.6075	0.36364	0.1	-244.87
29603	3.515	0.63636	0.1	-797.9
29604	3.6075	0.54545	0.1	-475.4
29605	3.515	0.81818	0.1	-1156.5
29606	3.6075	0.72727	0.1	-743.03
29607	3.515	1.	0.1	-1573.7
29608	3.6075	0.90909	0.1	-1053.9
29609	3.515	1.1818	0.1	-2071.1
29610	3.6075	1.0909	0.1	-1424.6
29611	3.515	1.3636	0.1	-2674.1
29612	3.6075	1.2727	0.1	-1882.8
29613	3.515	1.5455	0.1	-3472.
29614	3.6075	1.4545	0.1	-2491.9
29615	3.515	1.7273	0.1	-4145.4
29616	3.6075	1.6364	0.1	-3207.5
29617	3.515	1.9091	0.1	-3555.7
29618	3.6075	1.8182	0.1	-4986.6
29619	3.515	2.0909	0.1	-1838.1
29620	3.6075	2.	0.1	-3095.7
29621	3.515	2.2727	0.1	-927.74
29622	3.6075	2.1818	0.1	-1269.7
29623	3.515	2.4545	0.1	-704.76
29624	3.6075	2.3636	0.1	-1011.2
29625	3.515	2.6364	0.1	-554.3
29626	3.6075	2.5455	0.1	-770.44
29627	3.515	2.8182	0.1	-481.9
29628	3.6075	2.7273	0.1	-645.97
29629	3.515	3.	0.1	-457.56
29630	3.6075	2.9091	0.1	-585.55
29631	3.515	3.1818	0.1	-481.9
29632	3.6075	3.0909	0.1	-585.55
29633	3.515	3.3636	0.1	-554.31
29634	3.6075	3.2727	0.1	-645.97
29635	3.515	3.5455	0.1	-704.76
29636	3.6075	3.4545	0.1	-770.44
29637	3.515	3.7273	0.1	-927.74
29638	3.6075	3.6364	0.1	-1011.2
29639	3.515	3.9091	0.1	-1838.1
29640	3.6075	3.8182	0.1	-1269.7
29641	3.515	4.0909	0.1	-3555.7
29642	3.6075	4.	0.1	-3095.7
29643	3.515	4.2727	0.1	-4145.4
29644	3.6075	4.1818	0.1	-4986.6
29645	3.515	4.4545	0.1	-3472.
29646	3.6075	4.3636	0.1	-3207.5
29647	3.515	4.6364	0.1	-2674.1
29648	3.6075	4.5455	0.1	-2491.9
29649	3.515	4.8182	0.1	-2071.1
29650	3.6075	4.7273	0.1	-1882.8
29651	3.515	5.	0.1	-1573.7
29652	3.6075	4.9091	0.1	-1424.6
29653	3.515	5.1818	0.1	-1156.5
29654	3.6075	5.0909	0.1	-1053.9
29655	3.515	5.3636	0.1	-797.9
29656	3.6075	5.2727	0.1	-743.03
29657	3.515	5.5455	0.1	-491.25
29658	3.6075	5.4545	0.1	-475.4
29659	3.515	5.7273	0.1	-263.53
29660	3.6075	5.6364	0.1	-244.87
29661	3.6075	5.8182	0.1	-79.121
29662	3.515	5.9091	0.1	-70.338
29663	3.8667	3.7273	0.1	-1439.6
29664	3.7833	3.8182	0.1	-1468.7
29665	3.8667	3.9091	0.1	-2621.2
29666	3.8667	3.5455	0.1	-1131.3
29667	3.7833	3.6364	0.1	-1220.3
29668	3.8667	3.3636	0.1	-907.38
29669	3.7833	3.4545	0.1	-957.27
29670	3.8667	3.1818	0.1	-791.26
29671	3.7833	3.2727	0.1	-804.38
29672	3.8667	3.	0.1	-754.56
29673	3.7833	3.0909	0.1	-732.47
29674	3.8667	2.8182	0.1	-791.26
29675	3.7833	2.9091	0.1	-732.47
29676	3.8667	2.6364	0.1	-907.37
29677	3.7833	2.7273	0.1	-804.37
29678	3.8667	2.4545	0.1	-1131.3
29679	3.7833	2.5455	0.1	-957.27
29680	3.8667	2.2727	0.1	-1439.6
29681	3.7833	2.3636	0.1	-1220.3
29682	3.7833	2.1818	0.1	-1468.7
29683	3.8667	2.0909	0.1	-2621.2
29684	3.7	3.7273	0.1	-1469.5
29685	3.7	3.9091	0.1	-2839.8
29686	3.7	3.5455	0.1	-1111.3
29687	3.7	3.3636	0.1	-871.54
29688	3.7	3.1818	0.1	-748.87
29689	3.7	3.	0.1	-710.3
29690	3.7	2.8182	0.1	-748.87
29691	3.7	2.6364	0.1	-871.54
29692	3.7	2.4545	0.1	-1111.3
29693	3.7	2.2727	0.1	-1469.5
29694	3.7	2.0909	0.1	-2839.8
29695	3.8667	5.7273	0.1	-169.8
29696	3.8667	5.9091	0.1	-28.269
29697	3.8667	5.8182	5.e-002	-114.91
29698	3.8667	5.5455	0.1	-332.83
29699	3.8667	5.6364	5.e-002	-244.88
29700	3.8667	5.3636	0.1	-525.71
29701	3.8667	5.4545	5.e-002	-373.69
29702	3.8667	5.1818	0.1	-754.78
29703	3.8667	5.2727	5.e-002	-513.04
29704	3.8667	5.	0.1	-1032.2
29705	3.8667	5.0909	5.e-002	-670.26
29706	3.8667	4.8182	0.1	-1381.1
29707	3.8667	4.9091	5.e-002	-856.13
29708	3.8667	4.6364	0.1	-1858.9
29709	3.8667	4.7273	5.e-002	-1089.1
29710	3.8667	4.4545	0.1	-2438.3
29711	3.8667	4.5455	5.e-002	-1400.6
29712	3.8667	4.2727	0.1	-4318.8
29713	3.8667	4.3636	5.e-002	-1898.8
29714	3.8667	4.0909	0.1	-4218.1
29715	3.8667	4.1818	5.e-002	-3153.2
29716	3.7833	4.	0.1	-2776.1
29717	3.8667	4.	5.e-002	-2714.9
29718	3.7	4.0909	0.1	-4570.7
29719	3.7	4.	5.e-002	-2932.3
29720	3.7	4.2727	0.1	-4680.6
29721	3.7	4.1818	5.e-002	-3432.5
29722	3.7	4.4545	0.1	-2656.4
29723	3.7	4.3636	5.e-002	-2121.9
29724	3.7	4.6364	0.1	-2019.
29725	3.7	4.5455	5.e-002	-1593.4
29726	3.7	4.8182	0.1	-1500.
29727	3.7	4.7273	5.e-002	-1257.9
29728	3.7	5.	0.1	-1122.7
29729	3.7	4.9091	5.e-002	-1002.3
29730	3.7	5.1818	0.1	-824.19
29731	3.7	5.0909	5.e-002	-794.35
29732	3.7	5.3636	0.1	-578.05
29733	3.7	5.2727	5.e-002	-614.73
29734	3.7	5.5455	0.1	-369.88
29735	3.7	5.4545	5.e-002	-452.09
29736	3.7	5.7273	0.1	-191.44
29737	3.7	5.6364	5.e-002	-298.49
29738	3.7	5.9091	0.1	-32.297
29739	3.7	5.8182	5.e-002	-139.61
29740	3.8667	0.27273	0.1	-169.8
29741	3.8667	9.0909e-002	0.1	-28.269
29742	3.8667	0.18182	5.e-002	-114.91
29743	3.8667	0.45455	0.1	-332.83
29744	3.8667	0.36364	5.e-002	-244.88
29745	3.8667	0.63636	0.1	-525.71
29746	3.8667	0.54545	5.e-002	-373.69
29747	3.8667	0.81818	0.1	-754.78
29748	3.8667	0.72727	5.e-002	-513.04
29749	3.8667	1.	0.1	-1032.2
29750	3.8667	0.90909	5.e-002	-670.26
29751	3.8667	1.1818	0.1	-1381.1
29752	3.8667	1.0909	5.e-002	-856.13
29753	3.8667	1.3636	0.1	-1858.9
29754	3.8667	1.2727	5.e-002	-1089.1
29755	3.8667	1.5455	0.1	-2438.3
29756	3.8667	1.4545	5.e-002	-1400.6
29757	3.8667	1.7273	0.1	-4318.8
29758	3.8667	1.6364	5.e-002	-1898.8
29759	3.8667	1.9091	0.1	-4218.1
29760	3.8667	1.8182	5.e-002	-3153.2
29761	3.7833	2.	0.1	-2776.1
29762	3.8667	2.	5.e-002	-2714.9
29763	3.7	1.9091	0.1	-4570.7
29764	3.7	2.	5.e-002	-2932.3
29765	3.7	1.7273	0.1	-4680.6
29766	3.7	1.8182	5.e-002	-3432.5
29767	3.7	1.5455	0.1	-2656.4
29768	3.7	1.6364	5.e-002	-2121.9
29769	3.7	1.3636	0.1	-2019.
29770	3.7	1.4545	5.e-002	-1593.4
29771	3.7	1.1818	0.1	-1500.
29772	3.7	1.2727	5.e-002	-1257.9
29773	3.7	1.	0.1	-1122.7
29774	3.7	1.0909	5.e-002	-1002.3
29775	3.7	0.81818	0.1	-824.19
29776	3.7	0.90909	5.e-002	-794.35
29777	3.7	0.63636	0.1	-578.05
29778	3.7	0.72727	5.e-002	-614.73
29779	3.7	0.45455	0.1	-369.88
29780	3.7	0.54545	5.e-002	-452.09
29781	3.7	0.27273	0.1	-191.44
29782	3.7	0.36364	5.e-002	-298.49
29783	3.7	9.0909e-002	0.1	-32.297
29784	3.7	0.18182	5.e-002	-139.61
29785	3.959	6.	0.1	-7.3419
29786	3.8667	6.	5.e-002	-35.742
29787	4.1437	6.	0.1	-22.52
29788	4.0514	6.	5.e-002	-25.412
29789	4.3284	6.	0.1	-26.505
29790	4.2361	6.	5.e-002	-66.771
29791	4.5132	6.	0.1	-27.411
29792	4.4208	6.	5.e-002	-86.483
29793	4.6979	6.	0.1	-25.863
29794	4.6055	6.	5.e-002	-95.63
29795	4.8826	6.	0.1	-23.061
29796	4.7902	6.	5.e-002	-97.332
29797	5.0673	6.	0.1	-19.876
29798	4.9749	6.	5.e-002	-94.479
29799	5.252	6.	0.1	-16.739
29800	5.1596	6.	5.e-002	-89.065
29801	5.4367	6.	0.1	-13.881
29802	5.3443	6.	5.e-002	-82.541
29803	5.6214	6.	0.1	-11.391
29804	5.5291	6.	5.e-002	-75.878
29805	5.8061	6.	0.1	-9.2877
29806	5.7138	6.	5.e-002	-69.681
29807	5.9908	6.	0.1	-7.5474
29808	5.8985	6.	5.e-002	-64.286
29809	6.1755	6.	0.1	-6.1311
29810	6.0832	6.	5.e-002	-59.838
29811	6.3602	6.	0.1	-4.995
29812	6.2679	6.	5.e-002	-56.361
29813	6.545	6.	0.1	-4.0974
29814	6.4526	6.	5.e-002	-53.801
29815	6.7297	6.	0.1	-3.4008
29816	6.6373	6.	5.e-002	-52.066
29817	6.9144	6.	0.1	-2.8728
29818	6.822	6.	5.e-002	-51.045
29819	7.0991	6.	0.1	-2.486
29820	7.0067	6.	5.e-002	-50.621
29821	7.2838	6.	0.1	-2.2171
29822	7.1914	6.	5.e-002	-50.686
29823	7.4685	6.	0.1	-2.0464
29824	7.3761	6.	5.e-002	-51.137
29825	7.6532	6.	0.1	-1.9573
29826	7.5609	6.	5.e-002	-51.885
29827	7.8379	6.	0.1	-1.9355
29828	7.7456	6.	5.e-002	-52.855
29829	8.0226	6.	0.1	-1.969
29830	7.9303	6.	5.e-002	-53.981
29831	8.2073	6.	0.1	-2.0474
29832	8.115	6.	5.e-002	-55.21
29833	8.392	6.	0.1	-2.1618
29834	8.2997	6.	5.e-002	-56.498
29835	8.5768	6.	0.1	-2.3047
29836	8.4844	6.	5.e-002	-57.81
29837	8.7615	6.	0.1	-2.4696
29838	8.6691	6.	5.e-002	-59.118
29839	8.9462	6.	0.1	-2.6512
29840	8.8538	6.	5.e-002	-60.401
29841	9.1309	6.	0.1	-2.845
29842	9.0385	6.	5.e-002	-61.642
29843	9.3156	6.	0.1	-3.0472
29844	9.2232	6.	5.e-002	-62.83
29845	9.5003	6.	0.1	-3.2546
29846	9.408	6.	5.e-002	-63.956
29847	9.685	6.	0.1	-3.4649
29848	9.5927	6.	5.e-002	-65.015
29849	9.8697	6.	0.1	-3.6759
29850	9.7774	6.	5.e-002	-66.003
29851	10.054	6.	0.1	-3.8861
29852	9.9621	6.	5.e-002	-66.918
29853	10.239	6.	0.1	-4.0943
29854	10.147	6.	5.e-002	-67.761
29855	10.424	6.	0.1	-4.2993
29856	10.331	6.	5.e-002	-68.533
29857	10.609	6.	0.1	-4.5007
29858	10.516	6.	5.e-002	-69.234
29859	10.793	6.	0.1	-4.698
29860	10.701	6.	5.e-002	-69.867
29861	10.978	6.	0.1	-4.8907
29862	10.886	6.	5.e-002	-70.436
29863	11.163	6.	0.1	-5.0788
29864	11.07	6.	5.e-002	-70.942
29865	11.347	6.	0.1	-5.2623
29866	11.255	6.	5.e-002	-71.389
29867	11.532	6.	0.1	-5.4411
29868	11.44	6.	5.e-002	-71.779
29869	11.717	6.	0.1	-5.6155
29870	11.624	6.	5.e-002	-72.117
29871	11.902	6.	0.1	-5.7854
29872	11.809	6.	5.e-002	-72.404
29873	12.086	6.	0.1	-5.9514
29874	11.994	6.	5.e-002	-72.644
29875	12.271	6.	0.1	-6.1135
29876	12.179	6.	5.e-002	-72.841
29877	12.456	6.	0.1	-6.272
29878	12.363	6.	5.e-002	-72.995
29879	12.64	6.	0.1	-6.4273
29880	12.548	6.	5.e-002	-73.111
29881	12.825	6.	0.1	-6.5796
29882	12.733	6.	5.e-002	-73.19
29883	13.01	6.	0.1	-6.7294
29884	12.917	6.	5.e-002	-73.235
29885	13.194	6.	0.1	-6.8769
29886	13.102	6.	5.e-002	-73.248
29887	13.379	6.	0.1	-7.0223
29888	13.287	6.	5.e-002	-73.231
29889	13.564	6.	0.1	-7.1661
29890	13.472	6.	5.e-002	-73.186
29891	13.749	6.	0.1	-7.3086
29892	13.656	6.	5.e-002	-73.114
29893	13.933	6.	0.1	-7.45
29894	13.841	6.	5.e-002	-73.016
29895	14.118	6.	0.1	-7.5907
29896	14.026	6.	5.e-002	-72.895
29897	14.303	6.	0.1	-7.731
29898	14.21	6.	5.e-002	-72.751
29899	14.487	6.	0.1	-7.8711
29900	14.395	6.	5.e-002	-72.586
29901	14.672	6.	0.1	-8.0113
29902	14.58	6.	5.e-002	-72.4
29903	14.857	6.	0.1	-8.1519
29904	14.765	6.	5.e-002	-72.195
29905	15.042	6.	0.1	-8.2932
29906	14.949	6.	5.e-002	-71.97
29907	15.226	6.	0.1	-8.4355
29908	15.134	6.	5.e-002	-71.728
29909	15.411	6.	0.1	-8.5788
29910	15.319	6.	5.e-002	-71.467
29911	15.596	6.	0.1	-8.7236
29912	15.503	6.	5.e-002	-71.189
29913	15.78	6.	0.1	-8.8701
29914	15.688	6.	5.e-002	-70.893
29915	15.965	6.	0.1	-9.0183
29916	15.873	6.	5.e-002	-70.58
29917	16.15	6.	0.1	-9.1687
29918	16.057	6.	5.e-002	-70.251
29919	16.335	6.	0.1	-9.3214
29920	16.242	6.	5.e-002	-69.904
29921	16.519	6.	0.1	-9.4764
29922	16.427	6.	5.e-002	-69.54
29923	16.704	6.	0.1	-9.6342
29924	16.612	6.	5.e-002	-69.158
29925	16.889	6.	0.1	-9.7947
29926	16.796	6.	5.e-002	-68.758
29927	17.073	6.	0.1	-9.9583
29928	16.981	6.	5.e-002	-68.34
29929	17.258	6.	0.1	-10.125
29930	17.166	6.	5.e-002	-67.902
29931	17.443	6.	0.1	-10.295
29932	17.35	6.	5.e-002	-67.445
29933	17.628	6.	0.1	-10.468
29934	17.535	6.	5.e-002	-66.967
29935	17.812	6.	0.1	-10.645
29936	17.72	6.	5.e-002	-66.467
29937	17.997	6.	0.1	-10.825
29938	17.905	6.	5.e-002	-65.944
29939	18.182	6.	0.1	-11.008
29940	18.089	6.	5.e-002	-65.397
29941	18.366	6.	0.1	-11.196
29942	18.274	6.	5.e-002	-64.824
29943	18.551	6.	0.1	-11.386
29944	18.459	6.	5.e-002	-64.223
29945	18.736	6.	0.1	-11.58
29946	18.643	6.	5.e-002	-63.594
29947	18.92	6.	0.1	-11.778
29948	18.828	6.	5.e-002	-62.933
29949	19.105	6.	0.1	-11.978
29950	19.013	6.	5.e-002	-62.239
29951	19.29	6.	0.1	-12.182
29952	19.198	6.	5.e-002	-61.509
29953	19.475	6.	0.1	-12.388
29954	19.382	6.	5.e-002	-60.741
29955	19.659	6.	0.1	-12.596
29956	19.567	6.	5.e-002	-59.931
29957	19.844	6.	0.1	-12.806
29958	19.752	6.	5.e-002	-59.077
29959	20.029	6.	0.1	-13.018
29960	19.936	6.	5.e-002	-58.174
29961	20.213	6.	0.1	-13.23
29962	20.121	6.	5.e-002	-57.22
29963	20.398	6.	0.1	-13.441
29964	20.306	6.	5.e-002	-56.21
29965	20.583	6.	0.1	-13.651
29966	20.491	6.	5.e-002	-55.139
29967	20.768	6.	0.1	-13.859
29968	20.675	6.	5.e-002	-54.002
29969	20.952	6.	0.1	-14.063
29970	20.86	6.	5.e-002	-52.793
29971	21.137	6.	0.1	-14.262
29972	21.045	6.	5.e-002	-51.507
29973	21.322	6.	0.1	-14.453
29974	21.229	6.	5.e-002	-50.136
29975	21.506	6.	0.1	-14.635
29976	21.414	6.	5.e-002	-48.672
29977	21.691	6.	0.1	-14.804
29978	21.599	6.	5.e-002	-47.106
29979	21.876	6.	0.1	-14.957
29980	21.783	6.	5.e-002	-45.428
29981	22.061	6.	0.1	-15.09
29982	21.968	6.	5.e-002	-43.625
29983	22.245	6.	0.1	-15.198
29984	22.153	6.	5.e-002	-41.685
29985	22.43	6.	0.1	-15.273
29986	22.338	6.	5.e-002	-39.589
29987	22.615	6.	0.1	-15.307
29988	22.522	6.	5.e-002	-37.318
29989	22.799	6.	0.1	-15.286
29990	22.707	6.	5.e-002	-34.846
29991	22.984	6.	0.1	-15.193
29992	22.892	6.	5.e-002	-32.137
29993	23.169	6.	0.1	-14.999
29994	23.076	6.	5.e-002	-29.148
29995	23.354	6.	0.1	-14.641
29996	23.261	6.	5.e-002	-25.809
29997	23.538	6.	0.1	-14.064
29998	23.446	6.	5.e-002	-22.018
29999	23.723	6.	0.1	-12.553
30000	23.631	6.	5.e-002	-17.573
30001	23.908	6.	0.1	-8.6105
30002	23.815	6.	5.e-002	-11.844
30003	24.	5.9091	0.1	-20.33
30004	24.	6.	5.e-002	-4.5396
30005	24.	5.7273	0.1	-50.334
30006	24.	5.8182	5.e-002	-4.0411
30007	24.	5.5455	0.1	-74.678
30008	24.	5.6364	5.e-002	-4.6284
30009	24.	5.3636	0.1	-94.085
30010	24.	5.4545	5.e-002	-5.1389
30011	24.	5.1818	0.1	-110.41
30012	24.	5.2727	5.e-002	-5.4157
30013	24.	5.	0.1	-124.41
30014	24.	5.0909	5.e-002	-5.5417
30015	24.	4.8182	0.1	-136.52
30016	24.	4.9091	5.e-002	-5.5635
30017	24.	4.6364	0.1	-147.
30018	24.	4.7273	5.e-002	-5.5123
30019	24.	4.4545	0.1	-156.06
30020	24.	4.5455	5.e-002	-5.4115
30021	24.	4.2727	0.1	-163.82
30022	24.	4.3636	5.e-002	-5.2786
30023	24.	4.0909	0.1	-170.39
30024	24.	4.1818	5.e-002	-5.1285
30025	24.	3.9091	0.1	-175.84
30026	24.	4.	5.e-002	-4.9736
30027	24.	3.7273	0.1	-180.23
30028	24.	3.8182	5.e-002	-4.825
30029	24.	3.5455	0.1	-183.6
30030	24.	3.6364	5.e-002	-4.6925
30031	24.	3.3636	0.1	-185.99
30032	24.	3.4545	5.e-002	-4.5846
30033	24.	3.1818	0.1	-187.42
30034	24.	3.2727	5.e-002	-4.5085
30035	24.	3.	0.1	-187.89
30036	24.	3.0909	5.e-002	-4.4691
30037	24.	2.8182	0.1	-187.42
30038	24.	2.9091	5.e-002	-4.4691
30039	24.	2.6364	0.1	-185.99
30040	24.	2.7273	5.e-002	-4.5085
30041	24.	2.4545	0.1	-183.6
30042	24.	2.5455	5.e-002	-4.5846
30043	24.	2.2727	0.1	-180.23
30044	24.	2.3636	5.e-002	-4.6925
30045	24.	2.0909	0.1	-175.84
30046	24.	2.1818	5.e-002	-4.825
30047	24.	1.9091	0.1	-170.39
30048	24.	2.	5.e-002	-4.9736
30049	24.	1.7273	0.1	-163.82
30050	24.	1.8182	5.e-002	-5.1285
30051	24.	1.5455	0.1	-156.06
30052	24.	1.6364	5.e-002	-5.2787
30053	24.	1.3636	0.1	-147.
30054	24.	1.4545	5.e-002	-5.4115
30055	24.	1.1818	0.1	-136.52
30056	24.	1.2727	5.e-002	-5.5124
30057	24.	1.	0.1	-124.41
30058	24.	1.0909	5.e-002	-5.5635
30059	24.	0.81818	0.1	-110.41
30060	24.	0.90909	5.e-002	-5.5417
30061	24.	0.63636	0.1	-94.085
30062	24.	0.72727	5.e-002	-5.4157
30063	24.	0.45455	0.1	-74.678
30064	24.	0.54545	5.e-002	-5.1389
30065	24.	0.27273	0.1	-50.334
30066	24.	0.36364	5.e-002	-4.6284
30067	24.	9.0909e-002	0.1	-20.33
30068	24.	0.18182	5.e-002	-4.0411
30069	2.3842e-015	0.27273	0.1	1743.7
30070	7.9472e-016	9.0909e-002	0.1	-29.087
30071	1.6109e-015	0.18182	5.e-002	-86.729
30072	3.9736e-015	0.45455	0.1	2583.8
30073	3.2219e-015	0.36364	5.e-002	-54.504
30074	5.563e-015	0.63636	0.1	3007.8
30075	4.8328e-015	0.54545	5.e-002	-49.35
30076	7.1525e-015	0.81818	0.1	3268.8
30077	6.4438e-015	0.72727	5.e-002	-43.452
30078	8.7419e-015	1.	0.1	3443.6
30079	8.0547e-015	0.90909	5.e-002	-36.892
30080	1.0331e-014	1.1818	0.1	3566.2
30081	9.6657e-015	1.0909	5.e-002	-30.954
30082	1.1921e-014	1.3636	0.1	3653.7
30083	1.1277e-014	1.2727	5.e-002	-25.776
30084	1.351e-014	1.5455	0.1	3716.4
30085	1.2888e-014	1.4545	5.e-002	-21.199
30086	1.51e-014	1.7273	0.1	3761.
30087	1.4498e-014	1.6364	5.e-002	-17.138
30088	1.6689e-014	1.9091	0.1	3792.3
30089	1.6109e-014	1.8182	5.e-002	-13.549
30090	1.8279e-014	2.0909	0.1	3813.7
30091	1.772e-014	2.	5.e-002	-10.418
30092	1.9868e-014	2.2727	0.1	3827.8
30093	1.9331e-014	2.1818	5.e-002	-7.7538
30094	2.1457e-014	2.4545	0.1	3836.9
30095	2.0942e-014	2.3636	5.e-002	-5.5779
30096	2.3047e-014	2.6364	0.1	3842.3
30097	2.2553e-014	2.5455	5.e-002	-3.9159
30098	2.4636e-014	2.8182	0.1	3845.1
30099	2.4164e-014	2.7273	5.e-002	-2.7919
30100	2.6226e-014	3.	0.1	3846.
30101	2.5775e-014	2.9091	5.e-002	-2.2247
30102	2.7815e-014	3.1818	0.1	3845.1
30103	2.7386e-014	3.0909	5.e-002	-2.2247
30104	2.9405e-014	3.3636	0.1	3842.3
30105	2.8997e-014	3.2727	5.e-002	-2.792
30106	3.0994e-014	3.5455	0.1	3836.9
30107	3.0608e-014	3.4545	5.e-002	-3.916
30108	3.2583e-014	3.7273	0.1	3827.8
30109	3.2219e-014	3.6364	5.e-002	-5.5781
30110	3.4173e-014	3.9091	0.1	3813.7
30111	3.383e-014	3.8182	5.e-002	-7.7541
30112	3.5762e-014	4.0909	0.1	3792.3
30113	3.5441e-014	4.	5.e-002	-10.418
30114	3.7352e-014	4.2727	0.1	3761.
30115	3.7052e-014	4.1818	5.e-002	-13.549
30116	3.8941e-014	4.4545	0.1	3716.4
30117	3.8663e-014	4.3636	5.e-002	-17.138
30118	4.0531e-014	4.6364	0.1	3653.7
30119	4.0274e-014	4.5455	5.e-002	-21.199
30120	4.212e-014	4.8182	0.1	3566.2
30121	4.1885e-014	4.7273	5.e-002	-25.777
30122	4.371e-014	5.	0.1	3443.6
30123	4.3495e-014	4.9091	5.e-002	-30.954
30124	4.5299e-014	5.1818	0.1	3268.8
30125	4.5106e-014	5.0909	5.e-002	-36.892
30126	4.6888e-014	5.3636	0.1	3007.8
30127	4.6717e-014	5.2727	5.e-002	-43.453
30128	4.8478e-014	5.5455	0.1	2583.8
30129	4.8328e-014	5.4545	5.e-002	-49.351
30130	5.0067e-014	5.7273	0.1	1743.7
30131	4.9939e-014	5.6364	5.e-002	-54.504
30132	5.1657e-014	5.9091	0.1	-29.088
30133	5.155e-014	5.8182	5.e-002	-86.73
30134	23.908	0.	0.1	-8.6104
30135	24.	0.	5.e-002	-4.5396
30136	23.723	0.	0.1	-12.553
30137	23.815	0.	5.e-002	-11.844
30138	23.538	0.	0.1	-14.064
30139	23.631	0.	5.e-002	-17.573
30140	23.354	0.	0.1	-14.641
30141	23.446	0.	5.e-002	-22.018
30142	23.169	0.	0.1	-14.999
30143	23.261	0.	5.e-002	-25.809
30144	22.984	0.	0.1	-15.193
30145	23.076	0.	5.e-002	-29.148
30146	22.799	0.	0.1	-15.286
30147	22.892	0.	5.e-002	-32.137
30148	22.615	0.	0.1	-15.307
30149	22.707	0.	5.e-002	-34.846
30150	22.43	0.	0.1	-15.273
30151	22.522	0.	5.e-002	-37.318
30152	22.245	0.	0.1	-15.198
30153	22.338	0.	5.e-002	-39.589
30154	22.061	0.	0.1	-15.09
30155	22.153	0.	5.e-002	-41.685
30156	21.876	0.	0.1	-14.957
30157	21.968	0.	5.e-002	-43.625
30158	21.691	0.	0.1	-14.804
30159	21.783	0.	5.e-002	-45.428
30160	21.506	0.	0.1	-14.635
30161	21.599	0.	5.e-002	-47.106
30162	21.322	0.	0.1	-14.453
30163	21.414	0.	5.e-002	-48.672
30164	21.137	0.	0.1	-14.262
30165	21.229	0.	5.e-002	-50.136
30166	20.952	0.	0.1	-14.063
30167	21.045	0.	5.e-002	-51.507
30168	20.768	0.	0.1	-13.859
30169	20.86	0.	5.e-002	-52.793
30170	20.583	0.	0.1	-13.651
30171	20.675	0.	5.e-002	-54.002
30172	20.398	0.	0.1	-13.441
30173	20.491	0.	5.e-002	-55.139
30174	20.213	0.	0.1	-13.23
30175	20.306	0.	5.e-002	-56.21
30176	20.029	0.	0.1	-13.018
30177	20.121	0.	5.e-002	-57.22
30178	19.844	0.	0.1	-12.806
30179	19.936	0.	5.e-002	-58.174
30180	19.659	0.	0.1	-12.596
30181	19.752	0.	5.e-002	-59.077
30182	19.475	0.	0.1	-12.388
30183	19.567	0.	5.e-002	-59.931
30184	19.29	0.	0.1	-12.182
30185	19.382	0.	5.e-002	-60.741
30186	19.105	0.	0.1	-11.978
30187	19.198	0.	5.e-002	-61.509
30188	18.92	0.	0.1	-11.778
30189	19.013	0.	5.e-002	-62.239
30190	18.736	0.	0.1	-11.58
30191	18.828	0.	5.e-002	-62.933
30192	18.551	0.	0.1	-11.386
30193	18.643	0.	5.e-002	-63.594
30194	18.366	0.	0.1	-11.196
30195	18.459	0.	5.e-002	-64.223
30196	18.182	0.	0.1	-11.008
30197	18.274	0.	5.e-002	-64.824
30198	17.997	0.	0.1	-10.825
30199	18.089	0.	5.e-002	-65.397
30200	17.812	0.	0.1	-10.645
30201	17.905	0.	5.e-002	-65.944
30202	17.628	0.	0.1	-10.468
30203	17.72	0.	5.e-002	-66.467
30204	17.443	0.	0.1	-10.295
30205	17.535	0.	5.e-002	-66.967
30206	17.258	0.	0.1	-10.125
30207	17.35	0.	5.e-002	-67.445
30208	17.073	0.	0.1	-9.9583
30209	17.166	0.	5.e-002	-67.902
30210	16.889	0.	0.1	-9.7947
30211	16.981	0.	5.e-002	-68.34
30212	16.704	0.	0.1	-9.6342
30213	16.796	0.	5.e-002	-68.758
30214	16.519	0.	0.1	-9.4764
30215	16.612	0.	5.e-002	-69.158
30216	16.335	0.	0.1	-9.3213
30217	16.427	0.	5.e-002	-69.54
30218	16.15	0.	0.1	-9.1687
30219	16.242	0.	5.e-002	-69.904
30220	15.965	0.	0.1	-9.0183
30221	16.057	0.	5.e-002	-70.25
30222	15.78	0.	0.1	-8.8701
30223	15.873	0.	5.e-002	-70.58
30224	15.596	0.	0.1	-8.7236
30225	15.688	0.	5.e-002	-70.893
30226	15.411	0.	0.1	-8.5788
30227	15.503	0.	5.e-002	-71.188
30228	15.226	0.	0.1	-8.4354
30229	15.319	0.	5.e-002	-71.467
30230	15.042	0.	0.1	-8.2932
30231	15.134	0.	5.e-002	-71.727
30232	14.857	0.	0.1	-8.1519
30233	14.949	0.	5.e-002	-71.97
30234	14.672	0.	0.1	-8.0113
30235	14.765	0.	5.e-002	-72.195
30236	14.487	0.	0.1	-7.8711
30237	14.58	0.	5.e-002	-72.4
30238	14.303	0.	0.1	-7.731
30239	14.395	0.	5.e-002	-72.586
30240	14.118	0.	0.1	-7.5907
30241	14.21	0.	5.e-002	-72.751
30242	13.933	0.	0.1	-7.45
30243	14.026	0.	5.e-002	-72.895
30244	13.749	0.	0.1	-7.3086
30245	13.841	0.	5.e-002	-73.016
30246	13.564	0.	0.1	-7.1661
30247	13.656	0.	5.e-002	-73.113
30248	13.379	0.	0.1	-7.0223
30249	13.472	0.	5.e-002	-73.185
30250	13.194	0.	0.1	-6.8768
30251	13.287	0.	5.e-002	-73.231
30252	13.01	0.	0.1	-6.7294
30253	13.102	0.	5.e-002	-73.248
30254	12.825	0.	0.1	-6.5796
30255	12.917	0.	5.e-002	-73.235
30256	12.64	0.	0.1	-6.4273
30257	12.733	0.	5.e-002	-73.19
30258	12.456	0.	0.1	-6.272
30259	12.548	0.	5.e-002	-73.111
30260	12.271	0.	0.1	-6.1135
30261	12.363	0.	5.e-002	-72.995
30262	12.086	0.	0.1	-5.9514
30263	12.179	0.	5.e-002	-72.84
30264	11.902	0.	0.1	-5.7854
30265	11.994	0.	5.e-002	-72.644
30266	11.717	0.	0.1	-5.6154
30267	11.809	0.	5.e-002	-72.404
30268	11.532	0.	0.1	-5.4411
30269	11.624	0.	5.e-002	-72.116
30270	11.347	0.	0.1	-5.2623
30271	11.44	0.	5.e-002	-71.779
30272	11.163	0.	0.1	-5.0788
30273	11.255	0.	5.e-002	-71.388
30274	10.978	0.	0.1	-4.8907
30275	11.07	0.	5.e-002	-70.941
30276	10.793	0.	0.1	-4.698
30277	10.886	0.	5.e-002	-70.435
30278	10.609	0.	0.1	-4.5007
30279	10.701	0.	5.e-002	-69.867
30280	10.424	0.	0.1	-4.2993
30281	10.516	0.	5.e-002	-69.234
30282	10.239	0.	0.1	-4.0942
30283	10.331	0.	5.e-002	-68.532
30284	10.054	0.	0.1	-3.8861
30285	10.147	0.	5.e-002	-67.761
30286	9.8697	0.	0.1	-3.6759
30287	9.9621	0.	5.e-002	-66.918
30288	9.685	0.	0.1	-3.4649
30289	9.7774	0.	5.e-002	-66.002
30290	9.5003	0.	0.1	-3.2546
30291	9.5927	0.	5.e-002	-65.014
30292	9.3156	0.	0.1	-3.0472
30293	9.408	0.	5.e-002	-63.956
30294	9.1309	0.	0.1	-2.845
30295	9.2232	0.	5.e-002	-62.829
30296	8.9462	0.	0.1	-2.6512
30297	9.0385	0.	5.e-002	-61.642
30298	8.7615	0.	0.1	-2.4696
30299	8.8538	0.	5.e-002	-60.4
30300	8.5768	0.	0.1	-2.3047
30301	8.6691	0.	5.e-002	-59.117
30302	8.392	0.	0.1	-2.1618
30303	8.4844	0.	5.e-002	-57.809
30304	8.2073	0.	0.1	-2.0474
30305	8.2997	0.	5.e-002	-56.497
30306	8.0226	0.	0.1	-1.969
30307	8.115	0.	5.e-002	-55.21
30308	7.8379	0.	0.1	-1.9355
30309	7.9303	0.	5.e-002	-53.981
30310	7.6532	0.	0.1	-1.9573
30311	7.7456	0.	5.e-002	-52.855
30312	7.4685	0.	0.1	-2.0464
30313	7.5609	0.	5.e-002	-51.885
30314	7.2838	0.	0.1	-2.2171
30315	7.3761	0.	5.e-002	-51.136
30316	7.0991	0.	0.1	-2.486
30317	7.1914	0.	5.e-002	-50.685
30318	6.9144	0.	0.1	-2.8728
30319	7.0067	0.	5.e-002	-50.621
30320	6.7297	0.	0.1	-3.4008
30321	6.822	0.	5.e-002	-51.044
30322	6.545	0.	0.1	-4.0974
30323	6.6373	0.	5.e-002	-52.066
30324	6.3602	0.	0.1	-4.995
30325	6.4526	0.	5.e-002	-53.801
30326	6.1755	0.	0.1	-6.131
30327	6.2679	0.	5.e-002	-56.36
30328	5.9908	0.	0.1	-7.5474
30329	6.0832	0.	5.e-002	-59.838
30330	5.8061	0.	0.1	-9.2877
30331	5.8985	0.	5.e-002	-64.286
30332	5.6214	0.	0.1	-11.391
30333	5.7138	0.	5.e-002	-69.681
30334	5.4367	0.	0.1	-13.881
30335	5.5291	0.	5.e-002	-75.877
30336	5.252	0.	0.1	-16.739
30337	5.3443	0.	5.e-002	-82.541
30338	5.0673	0.	0.1	-19.876
30339	5.1596	0.	5.e-002	-89.065
30340	4.8826	0.	0.1	-23.061
30341	4.9749	0.	5.e-002	-94.479
30342	4.6979	0.	0.1	-25.863
30343	4.7902	0.	5.e-002	-97.332
30344	4.5132	0.	0.1	-27.411
30345	4.6055	0.	5.e-002	-95.63
30346	4.3284	0.	0.1	-26.505
30347	4.4208	0.	5.e-002	-86.483
30348	4.1437	0.	0.1	-22.52
30349	4.2361	0.	5.e-002	-66.771
30350	3.959	0.	0.1	-7.3419
30351	4.0514	0.	5.e-002	-25.412
30352	3.8667	0.	5.e-002	-35.742
30353	3.6075	-1.5969e-030	0.1	-11.163
30354	3.7	-1.6378e-030	5.e-002	-46.356
30355	3.4225	-1.515e-030	0.1	-35.851
30356	3.515	0.	5.e-002	-43.958
30357	3.2375	-1.4331e-030	0.1	-45.663
30358	3.33	0.	5.e-002	-108.98
30359	3.0525	-1.3512e-030	0.1	-50.743
30360	3.145	0.	5.e-002	-147.95
30361	2.8675	-1.2693e-030	0.1	-52.093
30362	2.96	0.	5.e-002	-175.28
30363	2.6825	-1.1874e-030	0.1	-51.447
30364	2.775	0.	5.e-002	-194.86
30365	2.4975	-1.1055e-030	0.1	-50.173
30366	2.59	0.	5.e-002	-210.3
30367	2.3125	-1.0236e-030	0.1	-49.086
30368	2.405	0.	5.e-002	-224.1
30369	2.1275	-9.4173e-031	0.1	-48.773
30370	2.22	0.	5.e-002	-238.18
30371	1.9425	-8.5984e-031	0.1	-49.672
30372	2.035	0.	5.e-002	-253.93
30373	1.7575	-7.7795e-031	0.1	-52.175
30374	1.85	0.	5.e-002	-272.39
30375	1.5725	-6.9606e-031	0.1	-56.705
30376	1.665	0.	5.e-002	-294.38
30377	1.3875	-6.1417e-031	0.1	-63.819
30378	1.48	0.	5.e-002	-320.58
30379	1.2025	-5.3228e-031	0.1	-74.268
30380	1.295	0.	5.e-002	-351.73
30381	1.0175	-4.5039e-031	0.1	-89.466
30382	1.11	0.	5.e-002	-388.77
30383	0.8325	-3.685e-031	0.1	-111.26
30384	0.925	0.	5.e-002	-432.94
30385	0.6475	-2.8661e-031	0.1	-145.41
30386	0.74	0.	5.e-002	-486.82
30387	0.4625	-2.0472e-031	0.1	-200.59
30388	0.555	0.	5.e-002	-553.74
30389	0.2775	-1.2283e-031	0.1	-322.83
30390	0.37	0.	5.e-002	-646.61
30391	9.25e-002	-4.0945e-032	0.1	-836.1
30392	0.185	0.	5.e-002	-831.61
30393	0.	0.	5.e-002	-1122.9
30394	9.25e-002	6.	0.1	-836.1
30395	5.2451e-014	6.	5.e-002	-1122.9
30396	0.2775	6.	0.1	-322.83
30397	0.185	6.	5.e-002	-831.61
30398	0.4625	6.	0.1	-200.59
30399	0.37	6.	5.e-002	-646.61
30400	0.6475	6.	0.1	-145.41
30401	0.555	6.	5.e-002	-553.74
30402	0.8325	6.	0.1	-111.26
30403	0.74	6.	5.e-002	-486.82
30404	1.0175	6.	0.1	-89.466
30405	0.925	6.	5.e-002	-432.94
30406	1.2025	6.	0.1	-74.268
30407	1.11	6.	5.e-002	-388.77
30408	1.3875	6.	0.1	-63.819
30409	1.295	6.	5.e-002	-351.73
30410	1.5725	6.	0.1	-56.705
30411	1.48	6.	5.e-002	-320.58
30412	1.7575	6.	0.1	-52.175
30413	1.665	6.	5.e-002	-294.38
30414	1.9425	6.	0.1	-49.672
30415	1.85	6.	5.e-002	-272.39
30416	2.1275	6.	0.1	-48.773
30417	2.035	6.	5.e-002	-253.93
30418	2.3125	6.	0.1	-49.086
30419	2.22	6.	5.e-002	-238.18
30420	2.4975	6.	0.1	-50.173
30421	2.405	6.	5.e-002	-224.1
30422	2.6825	6.	0.1	-51.447
30423	2.59	6.	5.e-002	-210.3
30424	2.8675	6.	0.1	-52.093
30425	2.775	6.	5.e-002	-194.86
30426	3.0525	6.	0.1	-50.743
30427	2.96	6.	5.e-002	-175.28
30428	3.2375	6.	0.1	-45.663
30429	3.145	6.	5.e-002	-147.95
30430	3.4225	6.	0.1	-35.851
30431	3.33	6.	5.e-002	-108.98
30432	3.6075	6.	0.1	-11.163
30433	3.515	6.	5.e-002	-43.958
30434	3.7	6.	5.e-002	-46.356
30435	3.4225	6.	0.	-1216.3
30436	3.6075	6.	0.	-441.62
30437	3.2375	6.	0.	-1954.9
30438	3.0525	6.	0.	-2614.
30439	2.8675	6.	0.	-3201.4
30440	2.6825	6.	0.	-3717.7
30441	2.4975	6.	0.	-4164.6
30442	2.3125	6.	0.	-4546.1
30443	2.1275	6.	0.	-4867.2
30444	1.9425	6.	0.	-5133.2
30445	1.7575	6.	0.	-5348.6
30446	1.5725	6.	0.	-5516.4
30447	1.3875	6.	0.	-5637.
30448	1.2025	6.	0.	-5707.2
30449	1.0175	6.	0.	-5718.
30450	0.8325	6.	0.	-5650.4
30451	0.6475	6.	0.	-5463.2
30452	0.4625	6.	0.	-5074.2
30453	0.2775	6.	0.	-4226.5
30454	9.25e-002	6.	0.	-2063.8
30455	3.7	5.9091	0.	-347.78
30456	5.1657e-014	5.9091	0.	-1579.3
30457	0.2775	-1.2283e-031	0.	-4226.5
30458	9.25e-002	-4.0945e-032	0.	-2063.8
30459	0.4625	-2.0472e-031	0.	-5074.2
30460	0.6475	-2.8661e-031	0.	-5463.2
30461	0.8325	-3.685e-031	0.	-5650.4
30462	1.0175	-4.5039e-031	0.	-5718.
30463	1.2025	-5.3228e-031	0.	-5707.2
30464	1.3875	-6.1417e-031	0.	-5637.
30465	1.5725	-6.9606e-031	0.	-5516.4
30466	1.7575	-7.7795e-031	0.	-5348.6
30467	1.9425	-8.5984e-031	0.	-5133.2
30468	2.1275	-9.4173e-031	0.	-4867.2
30469	2.3125	-1.0236e-030	0.	-4546.1
30470	2.4975	-1.1055e-030	0.	-4164.6
30471	2.6825	-1.1874e-030	0.	-3717.7
30472	2.8675	-1.2693e-030	0.	-3201.4
30473	3.0525	-1.3512e-030	0.	-2614.
30474	3.2375	-1.4331e-030	0.	-1954.9
30475	3.4225	-1.515e-030	0.	-1216.3
30476	3.6075	-1.5969e-030	0.	-441.62
30477	3.7	9.0909e-002	0.	-347.78
30478	7.9472e-016	9.0909e-002	0.	-1579.3
30479	4.1437	0.	0.	-960.41
30480	3.959	0.	0.	-346.6
30481	4.3284	0.	0.	-1549.
30482	4.5132	0.	0.	-2069.2
30483	4.6979	0.	0.	-2523.4
30484	4.8826	0.	0.	-2910.7
30485	5.0673	0.	0.	-3232.7
30486	5.252	0.	0.	-3493.8
30487	5.4367	0.	0.	-3700.3
30488	5.6214	0.	0.	-3859.
30489	5.8061	0.	0.	-3977.1
30490	5.9908	0.	0.	-4061.2
30491	6.1755	0.	0.	-4117.2
30492	6.3602	0.	0.	-4150.3
30493	6.545	0.	0.	-4164.9
30494	6.7297	0.	0.	-4164.6
30495	6.9144	0.	0.	-4152.4
30496	7.0991	0.	0.	-4130.8
30497	7.2838	0.	0.	-4101.8
30498	7.4685	0.	0.	-4066.9
30499	7.6532	0.	0.	-4027.5
30500	7.8379	0.	0.	-3984.6
30501	8.0226	0.	0.	-3938.9
30502	8.2073	0.	0.	-3891.2
30503	8.392	0.	0.	-3842.
30504	8.5768	0.	0.	-3791.5
30505	8.7615	0.	0.	-3740.3
30506	8.9462	0.	0.	-3688.4
30507	9.1309	0.	0.	-3636.2
30508	9.3156	0.	0.	-3583.7
30509	9.5003	0.	0.	-3531.1
30510	9.685	0.	0.	-3478.5
30511	9.8697	0.	0.	-3425.9
30512	10.054	0.	0.	-3373.3
30513	10.239	0.	0.	-3320.9
30514	10.424	0.	0.	-3268.7
30515	10.609	0.	0.	-3216.6
30516	10.793	0.	0.	-3164.8
30517	10.978	0.	0.	-3113.1
30518	11.163	0.	0.	-3061.6
30519	11.347	0.	0.	-3010.4
30520	11.532	0.	0.	-2959.4
30521	11.717	0.	0.	-2908.6
30522	11.902	0.	0.	-2858.1
30523	12.086	0.	0.	-2807.8
30524	12.271	0.	0.	-2757.7
30525	12.456	0.	0.	-2707.8
30526	12.64	0.	0.	-2658.2
30527	12.825	0.	0.	-2608.8
30528	13.01	0.	0.	-2559.6
30529	13.194	0.	0.	-2510.6
30530	13.379	0.	0.	-2461.9
30531	13.564	0.	0.	-2413.4
30532	13.749	0.	0.	-2365.1
30533	13.933	0.	0.	-2317.
30534	14.118	0.	0.	-2269.1
30535	14.303	0.	0.	-2221.4
30536	14.487	0.	0.	-2174.
30537	14.672	0.	0.	-2126.8
30538	14.857	0.	0.	-2079.7
30539	15.042	0.	0.	-2032.9
30540	15.226	0.	0.	-1986.3
30541	15.411	0.	0.	-1939.9
30542	15.596	0.	0.	-1893.7
30543	15.78	0.	0.	-1847.7
30544	15.965	0.	0.	-1801.9
30545	16.15	0.	0.	-1756.3
30546	16.335	0.	0.	-1710.9
30547	16.519	0.	0.	-1665.7
30548	16.704	0.	0.	-1620.7
30549	16.889	0.	0.	-1575.9
30550	17.073	0.	0.	-1531.3
30551	17.258	0.	0.	-1486.8
30552	17.443	0.	0.	-1442.6
30553	17.628	0.	0.	-1398.6
30554	17.812	0.	0.	-1354.7
30555	17.997	0.	0.	-1311.1
30556	18.182	0.	0.	-1267.6
30557	18.366	0.	0.	-1224.3
30558	18.551	0.	0.	-1181.2
30559	18.736	0.	0.	-1138.3
30560	18.92	0.	0.	-1095.5
30561	19.105	0.	0.	-1053.
30562	19.29	0.	0.	-1010.6
30563	19.475	0.	0.	-968.32
30564	19.659	0.	0.	-926.26
30565	19.844	0.	0.	-884.36
30566	20.029	0.	0.	-842.62
30567	20.213	0.	0.	-801.05
30568	20.398	0.	0.	-759.63
30569	20.583	0.	0.	-718.37
30570	20.768	0.	0.	-677.26
30571	20.952	0.	0.	-636.31
30572	21.137	0.	0.	-595.52
30573	21.322	0.	0.	-554.88
30574	21.506	0.	0.	-514.39
30575	21.691	0.	0.	-474.07
30576	21.876	0.	0.	-433.91
30577	22.061	0.	0.	-393.93
30578	22.245	0.	0.	-354.15
30579	22.43	0.	0.	-314.59
30580	22.615	0.	0.	-275.27
30581	22.799	0.	0.	-236.25
30582	22.984	0.	0.	-197.59
30583	23.169	0.	0.	-159.41
30584	23.354	0.	0.	-121.86
30585	23.538	0.	0.	-85.263
30586	23.723	0.	0.	-50.276
30587	23.908	0.	0.	-18.648
30588	3.8667	9.0909e-002	0.	-261.68
30589	24.	9.0909e-002	0.	-5.8933
30590	5.0067e-014	5.7273	0.	-3701.8
30591	4.8478e-014	5.5455	0.	-5302.1
30592	4.6888e-014	5.3636	0.	-6131.2
30593	4.5299e-014	5.1818	0.	-6651.5
30594	4.371e-014	5.	0.	-7001.5
30595	4.212e-014	4.8182	0.	-7247.3
30596	4.0531e-014	4.6364	0.	-7422.9
30597	3.8941e-014	4.4545	0.	-7548.7
30598	3.7352e-014	4.2727	0.	-7638.2
30599	3.5762e-014	4.0909	0.	-7700.8
30600	3.4173e-014	3.9091	0.	-7743.7
30601	3.2583e-014	3.7273	0.	-7772.1
30602	3.0994e-014	3.5455	0.	-7790.2
30603	2.9405e-014	3.3636	0.	-7801.
30604	2.7815e-014	3.1818	0.	-7806.6
30605	2.6226e-014	3.	0.	-7808.4
30606	2.4636e-014	2.8182	0.	-7806.6
30607	2.3047e-014	2.6364	0.	-7801.
30608	2.1457e-014	2.4545	0.	-7790.2
30609	1.9868e-014	2.2727	0.	-7772.1
30610	1.8279e-014	2.0909	0.	-7743.7
30611	1.6689e-014	1.9091	0.	-7700.8
30612	1.51e-014	1.7273	0.	-7638.2
30613	1.351e-014	1.5455	0.	-7548.7
30614	1.1921e-014	1.3636	0.	-7422.9
30615	1.0331e-014	1.1818	0.	-7247.3
30616	8.7419e-015	1.	0.	-7001.5
30617	7.1525e-015	0.81818	0.	-6651.5
30618	5.563e-015	0.63636	0.	-6131.2
30619	3.9736e-015	0.45455	0.	-5302.1
30620	2.3842e-015	0.27273	0.	-3701.8
30621	24.	0.27273	0.	-6.942
30622	24.	0.45455	0.	-7.2008
30623	24.	0.63636	0.	-7.2843
30624	24.	0.81818	0.	-7.2947
30625	24.	1.	0.	-7.265
30626	24.	1.1818	0.	-7.2203
30627	24.	1.3636	0.	-7.1692
30628	24.	1.5455	0.	-7.1175
30629	24.	1.7273	0.	-7.0683
30630	24.	1.9091	0.	-7.0235
30631	24.	2.0909	0.	-6.9843
30632	24.	2.2727	0.	-6.9515
30633	24.	2.4545	0.	-6.9256
30634	24.	2.6364	0.	-6.9069
30635	24.	2.8182	0.	-6.8956
30636	24.	3.	0.	-6.8918
30637	24.	3.1818	0.	-6.8956
30638	24.	3.3636	0.	-6.9069
30639	24.	3.5455	0.	-6.9256
30640	24.	3.7273	0.	-6.9515
30641	24.	3.9091	0.	-6.9843
30642	24.	4.0909	0.	-7.0235
30643	24.	4.2727	0.	-7.0683
30644	24.	4.4545	0.	-7.1175
30645	24.	4.6364	0.	-7.1692
30646	24.	4.8182	0.	-7.2203
30647	24.	5.	0.	-7.265
30648	24.	5.1818	0.	-7.2947
30649	24.	5.3636	0.	-7.2843
30650	24.	5.5455	0.	-7.2008
30651	24.	5.7273	0.	-6.942
30652	24.	5.9091	0.	-5.8933
30653	23.908	6.	0.	-18.648
30654	23.723	6.	0.	-50.276
30655	23.538	6.	0.	-85.263
30656	23.354	6.	0.	-121.86
30657	23.169	6.	0.	-159.41
30658	22.984	6.	0.	-197.59
30659	22.799	6.	0.	-236.25
30660	22.615	6.	0.	-275.27
30661	22.43	6.	0.	-314.59
30662	22.245	6.	0.	-354.15
30663	22.061	6.	0.	-393.93
30664	21.876	6.	0.	-433.91
30665	21.691	6.	0.	-474.07
30666	21.506	6.	0.	-514.39
30667	21.322	6.	0.	-554.88
30668	21.137	6.	0.	-595.52
30669	20.952	6.	0.	-636.31
30670	20.768	6.	0.	-677.26
30671	20.583	6.	0.	-718.37
30672	20.398	6.	0.	-759.63
30673	20.213	6.	0.	-801.05
30674	20.029	6.	0.	-842.62
30675	19.844	6.	0.	-884.36
30676	19.659	6.	0.	-926.26
30677	19.475	6.	0.	-968.32
30678	19.29	6.	0.	-1010.6
30679	19.105	6.	0.	-1053.
30680	18.92	6.	0.	-1095.5
30681	18.736	6.	0.	-1138.3
30682	18.551	6.	0.	-1181.2
30683	18.366	6.	0.	-1224.3
30684	18.182	6.	0.	-1267.6
30685	17.997	6.	0.	-1311.1
30686	17.812	6.	0.	-1354.7
30687	17.628	6.	0.	-1398.6
30688	17.443	6.	0.	-1442.6
30689	17.258	6.	0.	-1486.8
30690	17.073	6.	0.	-1531.3
30691	16.889	6.	0.	-1575.9
30692	16.704	6.	0.	-1620.7
30693	16.519	6.	0.	-1665.7
30694	16.335	6.	0.	-1710.9
30695	16.15	6.	0.	-1756.3
30696	15.965	6.	0.	-1801.9
30697	15.78	6.	0.	-1847.7
30698	15.596	6.	0.	-1893.7
30699	15.411	6.	0.	-1939.9
30700	15.226	6.	0.	-1986.3
30701	15.042	6.	0.	-2032.9
30702	14.857	6.	0.	-2079.7
30703	14.672	6.	0.	-2126.8
30704	14.487	6.	0.	-2174.
30705	14.303	6.	0.	-2221.4
30706	14.118	6.	0.	-2269.1
30707	13.933	6.	0.	-2317.
30708	13.749	6.	0.	-2365.1
30709	13.564	6.	0.	-2413.4
30710	13.379	6.	0.	-2461.9
30711	13.194	6.	0.	-2510.6
30712	13.01	6.	0.	-2559.6
30713	12.825	6.	0.	-2608.8
30714	12.64	6.	0.	-2658.2
30715	12.456	6.	0.	-2707.8
30716	12.271	6.	0.	-2757.7
30717	12.086	6.	0.	-2807.8
30718	11.902	6.	0.	-2858.1
30719	11.717	6.	0.	-2908.6
30720	11.532	6.	0.	-2959.4
30721	11.347	6.	0.	-3010.4
30722	11.163	6.	0.	-3061.6
30723	10.978	6.	0.	-3113.1
30724	10.793	6.	0.	-3164.8
30725	10.609	6.	0.	-3216.6
30726	10.424	6.	0.	-3268.7
30727	10.239	6.	0.	-3320.9
30728	10.054	6.	0.	-3373.3
30729	9.8697	6.	0.	-3425.9
30730	9.685	6.	0.	-3478.5
30731	9.5003	6.	0.	-3531.1
30732	9.3156	6.	0.	-3583.7
30733	9.1309	6.	0.	-3636.2
30734	8.9462	6.	0.	-3688.4
30735	8.7615	6.	0.	-3740.3
30736	8.5768	6.	0.	-3791.5
30737	8.392	6.	0.	-3842.
30738	8.2073	6.	0.	-3891.2
30739	8.0226	6.	0.	-3938.9
30740	7.8379	6.	0.	-3984.6
30741	7.6532	6.	0.	-4027.5
30742	7.4685	6.	0.	-4066.9
30743	7.2838	6.	0.	-4101.8
30744	7.0991	6.	0.	-4130.8
30745	6.9144	6.	0.	-4152.4
30746	6.7297	6.	0.	-4164.6
30747	6.545	6.	0.	-4164.9
30748	6.3602	6.	0.	-4150.3
30749	6.1755	6.	0.	-4117.2
30750	5.9908	6.	0.	-4061.2
30751	5.8061	6.	0.	-3977.1
30752	5.6214	6.	0.	-3859.
30753	5.4367	6.	0.	-3700.3
30754	5.252	6.	0.	-3493.8
30755	5.0673	6.	0.	-3232.7
30756	4.8826	6.	0.	-2910.7
30757	4.6979	6.	0.	-2523.4
30758	4.5132	6.	0.	-2069.2
30759	4.3284	6.	0.	-1549.
30760	4.1437	6.	0.	-960.41
30761	3.959	6.	0.	-346.6
30762	3.8667	5.9091	0.	-261.68
30763	3.7	1.7273	0.	-5953.7
30764	3.7	1.9091	0.	-15255
30765	3.7	1.5455	0.	-4414.7
30766	3.7	1.3636	0.	-3633.1
30767	3.7	1.1818	0.	-3040.6
30768	3.7	1.	0.	-2563.
30769	3.7	0.81818	0.	-2139.7
30770	3.7	0.63636	0.	-1739.1
30771	3.7	0.45455	0.	-1334.1
30772	3.7	0.27273	0.	-885.
30773	3.7833	2.	0.	-23751
30774	3.8667	0.27273	0.	-662.83
30775	3.8667	0.45455	0.	-1001.8
30776	3.8667	0.63636	0.	-1319.4
30777	3.8667	0.81818	0.	-1650.3
30778	3.8667	1.	0.	-2020.
30779	3.8667	1.1818	0.	-2460.4
30780	3.8667	1.3636	0.	-3032.9
30781	3.8667	1.5455	0.	-3815.7
30782	3.8667	1.7273	0.	-5360.7
30783	3.8667	1.9091	0.	-14756
30784	3.7	4.2727	0.	-5953.7
30785	3.7	4.0909	0.	-15255
30786	3.7	4.4545	0.	-4414.7
30787	3.7	4.6364	0.	-3633.1
30788	3.7	4.8182	0.	-3040.6
30789	3.7	5.	0.	-2563.
30790	3.7	5.1818	0.	-2139.7
30791	3.7	5.3636	0.	-1739.1
30792	3.7	5.5455	0.	-1334.1
30793	3.7	5.7273	0.	-885.
30794	3.7833	4.	0.	-23751
30795	3.8667	5.7273	0.	-662.83
30796	3.8667	5.5455	0.	-1001.8
30797	3.8667	5.3636	0.	-1319.4
30798	3.8667	5.1818	0.	-1650.3
30799	3.8667	5.	0.	-2020.
30800	3.8667	4.8182	0.	-2460.4
30801	3.8667	4.6364	0.	-3032.9
30802	3.8667	4.4545	0.	-3815.7
30803	3.8667	4.2727	0.	-5360.7
30804	3.8667	4.0909	0.	-14756
