Node Number	X Location (in)	Y Location (in)	Z Location (in)	Maximum Principal Stress (psi)
1	19.3	2.1818	0.	597.73
2	19.3	2.3636	0.	420.45
3	19.3	2.5455	0.	351.59
4	19.3	2.7273	0.	316.52
5	19.3	2.9091	0.	301.22
6	19.3	3.0909	0.	301.22
7	19.3	3.2727	0.	316.52
8	19.3	3.4545	0.	351.59
9	19.3	3.6364	0.	420.45
10	19.3	3.8182	0.	597.73
11	19.467	2.1818	0.	362.02
12	19.467	2.3636	0.	347.26
13	19.467	2.5455	0.	303.59
14	19.467	2.7273	0.	279.57
15	19.467	2.9091	0.	268.16
16	19.467	3.0909	0.	268.16
17	19.467	3.2727	0.	279.57
18	19.467	3.4545	0.	303.59
19	19.467	3.6364	0.	347.26
20	19.467	3.8182	0.	362.02
21	19.116	5.8182	0.	38.504
22	19.116	5.6364	0.	94.058
23	19.116	5.4545	0.	175.28
24	19.116	5.2727	0.	271.98
25	19.116	5.0909	0.	384.19
26	19.116	4.9091	0.	515.26
27	19.116	4.7273	0.	672.47
28	19.116	4.5455	0.	864.68
29	19.116	4.3636	0.	1126.3
30	19.116	4.1818	0.	1352.2
31	19.116	4.	0.	1058.2
32	19.116	3.8182	0.	559.04
33	19.116	3.6364	0.	409.51
34	19.116	3.4545	0.	341.76
35	19.116	3.2727	0.	313.2
36	19.116	3.0909	0.	300.21
37	19.116	2.9091	0.	300.21
38	19.116	2.7273	0.	313.2
39	19.116	2.5455	0.	341.76
40	19.116	2.3636	0.	409.51
41	19.116	2.1818	0.	559.04
42	19.116	2.	0.	1058.2
43	19.116	1.8182	0.	1352.2
44	19.116	1.6364	0.	1126.3
45	19.116	1.4545	0.	864.68
46	19.116	1.2727	0.	672.47
47	19.116	1.0909	0.	515.26
48	19.116	0.90909	0.	384.19
49	19.116	0.72727	0.	271.98
50	19.116	0.54545	0.	175.28
51	19.116	0.36364	0.	94.058
52	19.116	0.18182	0.	38.504
53	18.932	5.8182	0.	28.955
54	18.932	5.6364	0.	64.895
55	18.932	5.4545	0.	125.34
56	18.932	5.2727	0.	202.3
57	18.932	5.0909	0.	292.5
58	18.932	4.9091	0.	394.94
59	18.932	4.7273	0.	509.56
60	18.932	4.5455	0.	628.72
61	18.932	4.3636	0.	737.49
62	18.932	4.1818	0.	762.42
63	18.932	4.	0.	610.31
64	18.932	3.8182	0.	435.88
65	18.932	3.6364	0.	338.48
66	18.932	3.4545	0.	298.86
67	18.932	3.2727	0.	279.4
68	18.932	3.0909	0.	271.46
69	18.932	2.9091	0.	271.46
70	18.932	2.7273	0.	279.4
71	18.932	2.5455	0.	298.86
72	18.932	2.3636	0.	338.48
73	18.932	2.1818	0.	435.88
74	18.932	2.	0.	610.31
75	18.932	1.8182	0.	762.42
76	18.932	1.6364	0.	737.49
77	18.932	1.4545	0.	628.72
78	18.932	1.2727	0.	509.56
79	18.932	1.0909	0.	394.94
80	18.932	0.90909	0.	292.5
81	18.932	0.72727	0.	202.3
82	18.932	0.54545	0.	125.34
83	18.932	0.36364	0.	64.895
84	18.932	0.18182	0.	28.955
85	18.749	5.8182	0.	29.252
86	18.749	5.6364	0.	62.177
87	18.749	5.4545	0.	110.73
88	18.749	5.2727	0.	172.39
89	18.749	5.0909	0.	244.23
90	18.749	4.9091	0.	323.03
91	18.749	4.7273	0.	403.64
92	18.749	4.5455	0.	476.7
93	18.749	4.3636	0.	519.84
94	18.749	4.1818	0.	505.26
95	18.749	4.	0.	432.09
96	18.749	3.8182	0.	342.25
97	18.749	3.6364	0.	281.93
98	18.749	3.4545	0.	252.2
99	18.749	3.2727	0.	238.5
100	18.749	3.0909	0.	233.2
101	18.749	2.9091	0.	233.2
102	18.749	2.7273	0.	238.5
103	18.749	2.5455	0.	252.2
104	18.749	2.3636	0.	281.93
105	18.749	2.1818	0.	342.25
106	18.749	2.	0.	432.09
107	18.749	1.8182	0.	505.26
108	18.749	1.6364	0.	519.84
109	18.749	1.4545	0.	476.7
110	18.749	1.2727	0.	403.64
111	18.749	1.0909	0.	323.03
112	18.749	0.90909	0.	244.23
113	18.749	0.72727	0.	172.39
114	18.749	0.54545	0.	110.73
115	18.749	0.36364	0.	62.177
116	18.749	0.18182	0.	29.252
117	18.565	5.8182	0.	30.026
118	18.565	5.6364	0.	63.207
119	18.565	5.4545	0.	104.81
120	18.565	5.2727	0.	154.59
121	18.565	5.0909	0.	210.58
122	18.565	4.9091	0.	269.21
123	18.565	4.7273	0.	324.8
124	18.565	4.5455	0.	368.56
125	18.565	4.3636	0.	388.38
126	18.565	4.1818	0.	373.89
127	18.565	4.	0.	330.83
128	18.565	3.8182	0.	278.98
129	18.565	3.6364	0.	237.82
130	18.565	3.4545	0.	213.72
131	18.565	3.2727	0.	202.02
132	18.565	3.0909	0.	197.4
133	18.565	2.9091	0.	197.4
134	18.565	2.7273	0.	202.02
135	18.565	2.5455	0.	213.72
136	18.565	2.3636	0.	237.82
137	18.565	2.1818	0.	278.98
138	18.565	2.	0.	330.83
139	18.565	1.8182	0.	373.89
140	18.565	1.6364	0.	388.38
141	18.565	1.4545	0.	368.56
142	18.565	1.2727	0.	324.8
143	18.565	1.0909	0.	269.21
144	18.565	0.90909	0.	210.58
145	18.565	0.72727	0.	154.59
146	18.565	0.54545	0.	104.81
147	18.565	0.36364	0.	63.207
148	18.565	0.18182	0.	30.026
149	18.381	5.8182	0.	30.085
150	18.381	5.6364	0.	63.508
151	18.381	5.4545	0.	100.47
152	18.381	5.2727	0.	141.37
153	18.381	5.0909	0.	184.93
154	18.381	4.9091	0.	228.12
155	18.381	4.7273	0.	266.3
156	18.381	4.5455	0.	293.33
157	18.381	4.3636	0.	302.77
158	18.381	4.1818	0.	291.88
159	18.381	4.	0.	264.65
160	18.381	3.8182	0.	231.54
161	18.381	3.6364	0.	202.98
162	18.381	3.4545	0.	183.63
163	18.381	3.2727	0.	172.9
164	18.381	3.0909	0.	168.35
165	18.381	2.9091	0.	168.35
166	18.381	2.7273	0.	172.9
167	18.381	2.5455	0.	183.63
168	18.381	2.3636	0.	202.98
169	18.381	2.1818	0.	231.54
170	18.381	2.	0.	264.65
171	18.381	1.8182	0.	291.88
172	18.381	1.6364	0.	302.77
173	18.381	1.4545	0.	293.33
174	18.381	1.2727	0.	266.31
175	18.381	1.0909	0.	228.12
176	18.381	0.90909	0.	184.93
177	18.381	0.72727	0.	141.37
178	18.381	0.54545	0.	100.47
179	18.381	0.36364	0.	63.508
180	18.381	0.18182	0.	30.085
181	18.197	5.8182	0.	29.597
182	18.197	5.6364	0.	62.429
183	18.197	5.4545	0.	95.713
184	18.197	5.2727	0.	129.93
185	18.197	5.0909	0.	164.21
186	18.197	4.9091	0.	196.31
187	18.197	4.7273	0.	222.93
188	18.197	4.5455	0.	240.28
189	18.197	4.3636	0.	245.21
190	18.197	4.1818	0.	237.03
191	18.197	4.	0.	218.78
192	18.197	3.8182	0.	196.3
193	18.197	3.6364	0.	175.52
194	18.197	3.4545	0.	160.
195	18.197	3.2727	0.	150.43
196	18.197	3.0909	0.	146.03
197	18.197	2.9091	0.	146.03
198	18.197	2.7273	0.	150.43
199	18.197	2.5455	0.	160.
200	18.197	2.3636	0.	175.52
201	18.197	2.1818	0.	196.3
202	18.197	2.	0.	218.78
203	18.197	1.8182	0.	237.03
204	18.197	1.6364	0.	245.21
205	18.197	1.4545	0.	240.28
206	18.197	1.2727	0.	222.93
207	18.197	1.0909	0.	196.31
208	18.197	0.90909	0.	164.21
209	18.197	0.72727	0.	129.93
210	18.197	0.54545	0.	95.713
211	18.197	0.36364	0.	62.429
212	18.197	0.18182	0.	29.597
213	18.013	5.8182	0.	28.733
214	18.013	5.6364	0.	60.128
215	18.013	5.4545	0.	90.173
216	18.013	5.2727	0.	119.22
217	18.013	5.0909	0.	146.69
218	18.013	4.9091	0.	171.04
219	18.013	4.7273	0.	190.13
220	18.013	4.5455	0.	201.75
221	18.013	4.3636	0.	204.41
222	18.013	4.1818	0.	198.22
223	18.013	4.	0.	185.31
224	18.013	3.8182	0.	169.25
225	18.013	3.6364	0.	153.73
226	18.013	3.4545	0.	141.32
227	18.013	3.2727	0.	133.08
228	18.013	3.0909	0.	129.06
229	18.013	2.9091	0.	129.06
230	18.013	2.7273	0.	133.08
231	18.013	2.5455	0.	141.32
232	18.013	2.3636	0.	153.73
233	18.013	2.1818	0.	169.25
234	18.013	2.	0.	185.31
235	18.013	1.8182	0.	198.22
236	18.013	1.6364	0.	204.41
237	18.013	1.4545	0.	201.75
238	18.013	1.2727	0.	190.13
239	18.013	1.0909	0.	171.04
240	18.013	0.90909	0.	146.69
241	18.013	0.72727	0.	119.22
242	18.013	0.54545	0.	90.173
243	18.013	0.36364	0.	60.128
244	18.013	0.18182	0.	28.733
245	17.83	5.8182	0.	27.667
246	17.83	5.6364	0.	56.991
247	17.83	5.4545	0.	84.044
248	17.83	5.2727	0.	109.
249	17.83	5.0909	0.	131.47
250	17.83	4.9091	0.	150.44
251	17.83	4.7273	0.	164.61
252	17.83	4.5455	0.	172.76
253	17.83	4.3636	0.	174.27
254	17.83	4.1818	0.	169.52
255	17.83	4.	0.	160.04
256	17.83	3.8182	0.	148.15
257	17.83	3.6364	0.	136.3
258	17.83	3.4545	0.	126.38
259	17.83	3.2727	0.	119.48
260	17.83	3.0909	0.	115.99
261	17.83	2.9091	0.	115.99
262	17.83	2.7273	0.	119.48
263	17.83	2.5455	0.	126.38
264	17.83	2.3636	0.	136.3
265	17.83	2.1818	0.	148.15
266	17.83	2.	0.	160.04
267	17.83	1.8182	0.	169.52
268	17.83	1.6364	0.	174.27
269	17.83	1.4545	0.	172.76
270	17.83	1.2727	0.	164.61
271	17.83	1.0909	0.	150.44
272	17.83	0.90909	0.	131.47
273	17.83	0.72727	0.	109.
274	17.83	0.54545	0.	84.044
275	17.83	0.36364	0.	56.991
276	17.83	0.18182	0.	27.667
277	17.646	5.8182	0.	26.526
278	17.646	5.6364	0.	53.392
279	17.646	5.4545	0.	77.652
280	17.646	5.2727	0.	99.281
281	17.646	5.0909	0.	118.02
282	17.646	4.9091	0.	133.23
283	17.646	4.7273	0.	144.17
284	17.646	4.5455	0.	150.2
285	17.646	4.3636	0.	151.15
286	17.646	4.1818	0.	147.49
287	17.646	4.	0.	140.34
288	17.646	3.8182	0.	131.33
289	17.646	3.6364	0.	122.16
290	17.646	3.4545	0.	114.26
291	17.646	3.2727	0.	108.58
292	17.646	3.0909	0.	105.65
293	17.646	2.9091	0.	105.65
294	17.646	2.7273	0.	108.58
295	17.646	2.5455	0.	114.26
296	17.646	2.3636	0.	122.16
297	17.646	2.1818	0.	131.33
298	17.646	2.	0.	140.34
299	17.646	1.8182	0.	147.49
300	17.646	1.6364	0.	151.15
301	17.646	1.4545	0.	150.2
302	17.646	1.2727	0.	144.17
303	17.646	1.0909	0.	133.23
304	17.646	0.90909	0.	118.02
305	17.646	0.72727	0.	99.281
306	17.646	0.54545	0.	77.652
307	17.646	0.36364	0.	53.392
308	17.646	0.18182	0.	26.526
309	17.462	5.8182	0.	25.397
310	17.462	5.6364	0.	49.63
311	17.462	5.4545	0.	71.291
312	17.462	5.2727	0.	90.164
313	17.462	5.0909	0.	106.07
314	17.462	4.9091	0.	118.61
315	17.462	4.7273	0.	127.37
316	17.462	4.5455	0.	132.1
317	17.462	4.3636	0.	132.83
318	17.462	4.1818	0.	130.03
319	17.462	4.	0.	124.58
320	17.462	3.8182	0.	117.66
321	17.462	3.6364	0.	110.51
322	17.462	3.4545	0.	104.24
323	17.462	3.2727	0.	99.645
324	17.462	3.0909	0.	97.235
325	17.462	2.9091	0.	97.235
326	17.462	2.7273	0.	99.645
327	17.462	2.5455	0.	104.24
328	17.462	2.3636	0.	110.51
329	17.462	2.1818	0.	117.66
330	17.462	2.	0.	124.58
331	17.462	1.8182	0.	130.03
332	17.462	1.6364	0.	132.83
333	17.462	1.4545	0.	132.1
334	17.462	1.2727	0.	127.37
335	17.462	1.0909	0.	118.61
336	17.462	0.90909	0.	106.07
337	17.462	0.72727	0.	90.164
338	17.462	0.54545	0.	71.291
339	17.462	0.36364	0.	49.63
340	17.462	0.18182	0.	25.397
341	17.278	5.8182	0.	24.331
342	17.278	5.6364	0.	45.917
343	17.278	5.4545	0.	65.179
344	17.278	5.2727	0.	81.725
345	17.278	5.0909	0.	95.415
346	17.278	4.9091	0.	106.
347	17.278	4.7273	0.	113.29
348	17.278	4.5455	0.	117.21
349	17.278	4.3636	0.	117.91
350	17.278	4.1818	0.	115.83
351	17.278	4.	0.	111.68
352	17.278	3.8182	0.	106.34
353	17.278	3.6364	0.	100.77
354	17.278	3.4545	0.	95.803
355	17.278	3.2727	0.	92.126
356	17.278	3.0909	0.	90.18
357	17.278	2.9091	0.	90.18
358	17.278	2.7273	0.	92.126
359	17.278	2.5455	0.	95.803
360	17.278	2.3636	0.	100.77
361	17.278	2.1818	0.	106.34
362	17.278	2.	0.	111.68
363	17.278	1.8182	0.	115.83
364	17.278	1.6364	0.	117.91
365	17.278	1.4545	0.	117.21
366	17.278	1.2727	0.	113.29
367	17.278	1.0909	0.	106.
368	17.278	0.90909	0.	95.415
369	17.278	0.72727	0.	81.725
370	17.278	0.54545	0.	65.179
371	17.278	0.36364	0.	45.917
372	17.278	0.18182	0.	24.331
373	17.094	5.8182	0.	23.353
374	17.094	5.6364	0.	42.388
375	17.094	5.4545	0.	59.459
376	17.094	5.2727	0.	74.012
377	17.094	5.0909	0.	85.927
378	17.094	4.9091	0.	95.051
379	17.094	4.7273	0.	101.3
380	17.094	4.5455	0.	104.72
381	17.094	4.3636	0.	105.49
382	17.094	4.1818	0.	104.03
383	17.094	4.	0.	100.9
384	17.094	3.8182	0.	96.8
385	17.094	3.6364	0.	92.464
386	17.094	3.4545	0.	88.565
387	17.094	3.2727	0.	85.652
388	17.094	3.0909	0.	84.1
389	17.094	2.9091	0.	84.1
390	17.094	2.7273	0.	85.652
391	17.094	2.5455	0.	88.565
392	17.094	2.3636	0.	92.464
393	17.094	2.1818	0.	96.8
394	17.094	2.	0.	100.9
395	17.094	1.8182	0.	104.03
396	17.094	1.6364	0.	105.49
397	17.094	1.4545	0.	104.72
398	17.094	1.2727	0.	101.3
399	17.094	1.0909	0.	95.051
400	17.094	0.90909	0.	85.927
401	17.094	0.72727	0.	74.012
402	17.094	0.54545	0.	59.459
403	17.094	0.36364	0.	42.388
404	17.094	0.18182	0.	23.353
405	16.91	5.8182	0.	22.472
406	16.91	5.6364	0.	39.12
407	16.91	5.4545	0.	54.204
408	16.91	5.2727	0.	67.033
409	16.91	5.0909	0.	77.491
410	16.91	4.9091	0.	85.478
411	16.91	4.7273	0.	90.975
412	16.91	4.5455	0.	94.068
413	16.91	4.3636	0.	94.97
414	16.91	4.1818	0.	94.033
415	16.91	4.	0.	91.73
416	16.91	3.8182	0.	88.619
417	16.91	3.6364	0.	85.277
418	16.91	3.4545	0.	82.241
419	16.91	3.2727	0.	79.955
420	16.91	3.0909	0.	78.733
421	16.91	2.9091	0.	78.733
422	16.91	2.7273	0.	79.955
423	16.91	2.5455	0.	82.241
424	16.91	2.3636	0.	85.277
425	16.91	2.1818	0.	88.619
426	16.91	2.	0.	91.731
427	16.91	1.8182	0.	94.033
428	16.91	1.6364	0.	94.97
429	16.91	1.4545	0.	94.068
430	16.91	1.2727	0.	90.975
431	16.91	1.0909	0.	85.478
432	16.91	0.90909	0.	77.491
433	16.91	0.72727	0.	67.033
434	16.91	0.54545	0.	54.204
435	16.91	0.36364	0.	39.12
436	16.91	0.18182	0.	22.473
437	16.727	5.8182	0.	21.687
438	16.727	5.6364	0.	36.146
439	16.727	5.4545	0.	49.446
440	16.727	5.2727	0.	60.771
441	16.727	5.0909	0.	70.006
442	16.727	4.9091	0.	77.08
443	16.727	4.7273	0.	82.006
444	16.727	4.5455	0.	84.888
445	16.727	4.3636	0.	85.931
446	16.727	4.1818	0.	85.442
447	16.727	4.	0.	83.814
448	16.727	3.8182	0.	81.499
449	16.727	3.6364	0.	78.958
450	16.727	3.4545	0.	76.622
451	16.727	3.2727	0.	74.851
452	16.727	3.0909	0.	73.899
453	16.727	2.9091	0.	73.899
454	16.727	2.7273	0.	74.851
455	16.727	2.5455	0.	76.622
456	16.727	2.3636	0.	78.958
457	16.727	2.1818	0.	81.499
458	16.727	2.	0.	83.814
459	16.727	1.8182	0.	85.442
460	16.727	1.6364	0.	85.931
461	16.727	1.4545	0.	84.888
462	16.727	1.2727	0.	82.006
463	16.727	1.0909	0.	77.08
464	16.727	0.90909	0.	70.006
465	16.727	0.72727	0.	60.771
466	16.727	0.54545	0.	49.446
467	16.727	0.36364	0.	36.146
468	16.727	0.18182	0.	21.687
469	16.543	5.8182	0.	20.99
470	16.543	5.6364	0.	33.474
471	16.543	5.4545	0.	45.179
472	16.543	5.2727	0.	55.186
473	16.543	5.0909	0.	63.378
474	16.543	4.9091	0.	69.697
475	16.543	4.7273	0.	74.17
476	16.543	4.5455	0.	76.901
477	16.543	4.3636	0.	78.078
478	16.543	4.1818	0.	77.965
479	16.543	4.	0.	76.89
480	16.543	3.8182	0.	75.219
481	16.543	3.6364	0.	73.325
482	16.543	3.4545	0.	71.557
483	16.543	3.2727	0.	70.204
484	16.543	3.0909	0.	69.474
485	16.543	2.9091	0.	69.474
486	16.543	2.7273	0.	70.204
487	16.543	2.5455	0.	71.557
488	16.543	2.3636	0.	73.325
489	16.543	2.1818	0.	75.219
490	16.543	2.	0.	76.89
491	16.543	1.8182	0.	77.965
492	16.543	1.6364	0.	78.078
493	16.543	1.4545	0.	76.901
494	16.543	1.2727	0.	74.17
495	16.543	1.0909	0.	69.697
496	16.543	0.90909	0.	63.378
497	16.543	0.72727	0.	55.186
498	16.543	0.54545	0.	45.179
499	16.543	0.36364	0.	33.474
500	16.543	0.18182	0.	20.99
501	16.359	5.8182	0.	20.37
502	16.359	5.6364	0.	31.093
503	16.359	5.4545	0.	41.38
504	16.359	5.2727	0.	50.228
505	16.359	5.0909	0.	57.516
506	16.359	4.9091	0.	63.195
507	16.359	4.7273	0.	67.292
508	16.359	4.5455	0.	69.904
509	16.359	4.3636	0.	71.195
510	16.359	4.1818	0.	71.391
511	16.359	4.	0.	70.765
512	16.359	3.8182	0.	69.615
513	16.359	3.6364	0.	68.245
514	16.359	3.4545	0.	66.936
515	16.359	3.2727	0.	65.922
516	16.359	3.0909	0.	65.371
517	16.359	2.9091	0.	65.371
518	16.359	2.7273	0.	65.922
519	16.359	2.5455	0.	66.936
520	16.359	2.3636	0.	68.245
521	16.359	2.1818	0.	69.615
522	16.359	2.	0.	70.765
523	16.359	1.8182	0.	71.391
524	16.359	1.6364	0.	71.195
525	16.359	1.4545	0.	69.904
526	16.359	1.2727	0.	67.292
527	16.359	1.0909	0.	63.195
528	16.359	0.90909	0.	57.516
529	16.359	0.72727	0.	50.228
530	16.359	0.54545	0.	41.38
531	16.359	0.36364	0.	31.093
532	16.359	0.18182	0.	20.37
533	16.175	5.8182	0.	19.818
534	16.175	5.6364	0.	28.981
535	16.175	5.4545	0.	38.014
536	16.175	5.2727	0.	45.84
537	16.175	5.0909	0.	52.337
538	16.175	4.9091	0.	57.46
539	16.175	4.7273	0.	61.231
540	16.175	4.5455	0.	63.736
541	16.175	4.3636	0.	65.116
542	16.175	4.1818	0.	65.56
543	16.175	4.	0.	65.294
544	16.175	3.8182	0.	64.564
545	16.175	3.6364	0.	63.615
546	16.175	3.4545	0.	62.675
547	16.175	3.2727	0.	61.935
548	16.175	3.0909	0.	61.529
549	16.175	2.9091	0.	61.529
550	16.175	2.7273	0.	61.935
551	16.175	2.5455	0.	62.675
552	16.175	2.3636	0.	63.615
553	16.175	2.1818	0.	64.564
554	16.175	2.	0.	65.294
555	16.175	1.8182	0.	65.561
556	16.175	1.6364	0.	65.116
557	16.175	1.4545	0.	63.736
558	16.175	1.2727	0.	61.231
559	16.175	1.0909	0.	57.46
560	16.175	0.90909	0.	52.337
561	16.175	0.72727	0.	45.84
562	16.175	0.54545	0.	38.014
563	16.175	0.36364	0.	28.981
564	16.175	0.18182	0.	19.818
565	15.991	5.8182	0.	19.324
566	15.991	5.6364	0.	27.113
567	15.991	5.4545	0.	35.038
568	15.991	5.2727	0.	41.962
569	15.991	5.0909	0.	47.761
570	15.991	4.9091	0.	52.392
571	15.991	4.7273	0.	55.872
572	15.991	4.5455	0.	58.273
573	15.991	4.3636	0.	59.713
574	15.991	4.1818	0.	60.349
575	15.991	4.	0.	60.369
576	15.991	3.8182	0.	59.972
577	15.991	3.6364	0.	59.359
578	15.991	3.4545	0.	58.715
579	15.991	3.2727	0.	58.194
580	15.991	3.0909	0.	57.904
581	15.991	2.9091	0.	57.904
582	15.991	2.7273	0.	58.194
583	15.991	2.5455	0.	58.715
584	15.991	2.3636	0.	59.359
585	15.991	2.1818	0.	59.972
586	15.991	2.	0.	60.369
587	15.991	1.8182	0.	60.35
588	15.991	1.6364	0.	59.713
589	15.991	1.4545	0.	58.273
590	15.991	1.2727	0.	55.872
591	15.991	1.0909	0.	52.392
592	15.991	0.90909	0.	47.761
593	15.991	0.72727	0.	41.962
594	15.991	0.54545	0.	35.038
595	15.991	0.36364	0.	27.113
596	15.991	0.18182	0.	19.324
597	15.808	5.8182	0.	18.876
598	15.808	5.6364	0.	25.463
599	15.808	5.4545	0.	32.411
600	15.808	5.2727	0.	38.536
601	15.808	5.0909	0.	43.715
602	15.808	4.9091	0.	47.905
603	15.808	4.7273	0.	51.117
604	15.808	4.5455	0.	53.41
605	15.808	4.3636	0.	54.882
606	15.808	4.1818	0.	55.661
607	15.808	4.	0.	55.902
608	15.808	3.8182	0.	55.767
609	15.808	3.6364	0.	55.42
610	15.808	3.4545	0.	55.01
611	15.808	3.2727	0.	54.663
612	15.808	3.0909	0.	54.466
613	15.808	2.9091	0.	54.466
614	15.808	2.7273	0.	54.663
615	15.808	2.5455	0.	55.01
616	15.808	2.3636	0.	55.42
617	15.808	2.1818	0.	55.767
618	15.808	2.	0.	55.902
619	15.808	1.8182	0.	55.662
620	15.808	1.6364	0.	54.882
621	15.808	1.4545	0.	53.41
622	15.808	1.2727	0.	51.117
623	15.808	1.0909	0.	47.905
624	15.808	0.90909	0.	43.715
625	15.808	0.72727	0.	38.536
626	15.808	0.54545	0.	32.411
627	15.808	0.36364	0.	25.463
628	15.808	0.18182	0.	18.877
629	15.624	5.8182	0.	18.469
630	15.624	5.6364	0.	24.002
631	15.624	5.4545	0.	30.09
632	15.624	5.2727	0.	35.507
633	15.624	5.0909	0.	40.131
634	15.624	4.9091	0.	43.921
635	15.624	4.7273	0.	46.883
636	15.624	4.5455	0.	49.063
637	15.624	4.3636	0.	50.54
638	15.624	4.1818	0.	51.419
639	15.624	4.	0.	51.825
640	15.624	3.8182	0.	51.892
641	15.624	3.6364	0.	51.752
642	15.624	3.4545	0.	51.526
643	15.624	3.2727	0.	51.316
644	15.624	3.0909	0.	51.192
645	15.624	2.9091	0.	51.192
646	15.624	2.7273	0.	51.316
647	15.624	2.5455	0.	51.526
648	15.624	2.3636	0.	51.752
649	15.624	2.1818	0.	51.892
650	15.624	2.	0.	51.825
651	15.624	1.8182	0.	51.419
652	15.624	1.6364	0.	50.54
653	15.624	1.4545	0.	49.063
654	15.624	1.2727	0.	46.884
655	15.624	1.0909	0.	43.921
656	15.624	0.90909	0.	40.131
657	15.624	0.72727	0.	35.507
658	15.624	0.54545	0.	30.09
659	15.624	0.36364	0.	24.002
660	15.624	0.18182	0.	18.469
661	15.44	5.8182	0.	18.093
662	15.44	5.6364	0.	22.706
663	15.44	5.4545	0.	28.036
664	15.44	5.2727	0.	32.823
665	15.44	5.0909	0.	36.949
666	15.44	4.9091	0.	40.374
667	15.44	4.7273	0.	43.099
668	15.44	4.5455	0.	45.159
669	15.44	4.3636	0.	46.616
670	15.44	4.1818	0.	47.557
671	15.44	4.	0.	48.083
672	15.44	3.8182	0.	48.301
673	15.44	3.6364	0.	48.319
674	15.44	3.4545	0.	48.235
675	15.44	3.2727	0.	48.131
676	15.44	3.0909	0.	48.063
677	15.44	2.9091	0.	48.063
678	15.44	2.7273	0.	48.131
679	15.44	2.5455	0.	48.235
680	15.44	2.3636	0.	48.319
681	15.44	2.1818	0.	48.301
682	15.44	2.	0.	48.083
683	15.44	1.8182	0.	47.557
684	15.44	1.6364	0.	46.616
685	15.44	1.4545	0.	45.159
686	15.44	1.2727	0.	43.099
687	15.44	1.0909	0.	40.374
688	15.44	0.90909	0.	36.949
689	15.44	0.72727	0.	32.823
690	15.44	0.54545	0.	28.036
691	15.44	0.36364	0.	22.706
692	15.44	0.18182	0.	18.093
693	15.256	5.8182	0.	17.744
694	15.256	5.6364	0.	21.552
695	15.256	5.4545	0.	26.212
696	15.256	5.2727	0.	30.438
697	15.256	5.0909	0.	34.115
698	15.256	4.9091	0.	37.204
699	15.256	4.7273	0.	39.703
700	15.256	4.5455	0.	41.636
701	15.256	4.3636	0.	43.054
702	15.256	4.1818	0.	44.025
703	15.256	4.	0.	44.63
704	15.256	3.8182	0.	44.957
705	15.256	3.6364	0.	45.093
706	15.256	3.4545	0.	45.116
707	15.256	3.2727	0.	45.092
708	15.256	3.0909	0.	45.068
709	15.256	2.9091	0.	45.068
710	15.256	2.7273	0.	45.092
711	15.256	2.5455	0.	45.116
712	15.256	2.3636	0.	45.093
713	15.256	2.1818	0.	44.957
714	15.256	2.	0.	44.63
715	15.256	1.8182	0.	44.025
716	15.256	1.6364	0.	43.054
717	15.256	1.4545	0.	41.636
718	15.256	1.2727	0.	39.703
719	15.256	1.0909	0.	37.204
720	15.256	0.90909	0.	34.115
721	15.256	0.72727	0.	30.438
722	15.256	0.54545	0.	26.212
723	15.256	0.36364	0.	21.552
724	15.256	0.18182	0.	17.744
725	15.072	5.8182	0.	17.414
726	15.072	5.6364	0.	20.519
727	15.072	5.4545	0.	24.585
728	15.072	5.2727	0.	28.31
729	15.072	5.0909	0.	31.58
730	15.072	4.9091	0.	34.359
731	15.072	4.7273	0.	36.639
732	15.072	4.5455	0.	38.441
733	15.072	4.3636	0.	39.802
734	15.072	4.1818	0.	40.776
735	15.072	4.	0.	41.429
736	15.072	3.8182	0.	41.83
737	15.072	3.6364	0.	42.049
738	15.072	3.4545	0.	42.151
739	15.072	3.2727	0.	42.187
740	15.072	3.0909	0.	42.195
741	15.072	2.9091	0.	42.195
742	15.072	2.7273	0.	42.187
743	15.072	2.5455	0.	42.151
744	15.072	2.3636	0.	42.049
745	15.072	2.1818	0.	41.83
746	15.072	2.	0.	41.429
747	15.072	1.8182	0.	40.776
748	15.072	1.6364	0.	39.802
749	15.072	1.4545	0.	38.441
750	15.072	1.2727	0.	36.64
751	15.072	1.0909	0.	34.359
752	15.072	0.90909	0.	31.58
753	15.072	0.72727	0.	28.31
754	15.072	0.54545	0.	24.585
755	15.072	0.36364	0.	20.519
756	15.072	0.18182	0.	17.414
757	14.889	5.8182	0.	17.101
758	14.889	5.6364	0.	19.587
759	14.889	5.4545	0.	23.127
760	14.889	5.2727	0.	26.402
761	14.889	5.0909	0.	29.302
762	14.889	4.9091	0.	31.792
763	14.889	4.7273	0.	33.863
764	14.889	4.5455	0.	35.529
765	14.889	4.3636	0.	36.818
766	14.889	4.1818	0.	37.773
767	14.889	4.	0.	38.446
768	14.889	3.8182	0.	38.892
769	14.889	3.6364	0.	39.168
770	14.889	3.4545	0.	39.323
771	14.889	3.2727	0.	39.402
772	14.889	3.0909	0.	39.433
773	14.889	2.9091	0.	39.433
774	14.889	2.7273	0.	39.402
775	14.889	2.5455	0.	39.323
776	14.889	2.3636	0.	39.168
777	14.889	2.1818	0.	38.892
778	14.889	2.	0.	38.446
779	14.889	1.8182	0.	37.773
780	14.889	1.6364	0.	36.818
781	14.889	1.4545	0.	35.529
782	14.889	1.2727	0.	33.863
783	14.889	1.0909	0.	31.792
784	14.889	0.90909	0.	29.302
785	14.889	0.72727	0.	26.402
786	14.889	0.54545	0.	23.127
787	14.889	0.36364	0.	19.587
788	14.889	0.18182	0.	17.101
789	14.705	5.8182	0.	16.8
790	14.705	5.6364	0.	18.742
791	14.705	5.4545	0.	21.813
792	14.705	5.2727	0.	24.682
793	14.705	5.0909	0.	27.243
794	14.705	4.9091	0.	29.463
795	14.705	4.7273	0.	31.333
796	14.705	4.5455	0.	32.86
797	14.705	4.3636	0.	34.066
798	14.705	4.1818	0.	34.984
799	14.705	4.	0.	35.654
800	14.705	3.8182	0.	36.121
801	14.705	3.6364	0.	36.43
802	14.705	3.4545	0.	36.621
803	14.705	3.2727	0.	36.728
804	14.705	3.0909	0.	36.775
805	14.705	2.9091	0.	36.775
806	14.705	2.7273	0.	36.728
807	14.705	2.5455	0.	36.621
808	14.705	2.3636	0.	36.43
809	14.705	2.1818	0.	36.121
810	14.705	2.	0.	35.654
811	14.705	1.8182	0.	34.984
812	14.705	1.6364	0.	34.066
813	14.705	1.4545	0.	32.86
814	14.705	1.2727	0.	31.333
815	14.705	1.0909	0.	29.464
816	14.705	0.90909	0.	27.243
817	14.705	0.72727	0.	24.682
818	14.705	0.54545	0.	21.813
819	14.705	0.36364	0.	18.742
820	14.705	0.18182	0.	16.8
821	14.521	5.8182	0.	16.507
822	14.521	5.6364	0.	17.969
823	14.521	5.4545	0.	20.619
824	14.521	5.2727	0.	23.121
825	14.521	5.0909	0.	25.371
826	14.521	4.9091	0.	27.339
827	14.521	4.7273	0.	29.014
828	14.521	4.5455	0.	30.4
829	14.521	4.3636	0.	31.513
830	14.521	4.1818	0.	32.379
831	14.521	4.	0.	33.029
832	14.521	3.8182	0.	33.497
833	14.521	3.6364	0.	33.82
834	14.521	3.4545	0.	34.03
835	14.521	3.2727	0.	34.154
836	14.521	3.0909	0.	34.211
837	14.521	2.9091	0.	34.211
838	14.521	2.7273	0.	34.154
839	14.521	2.5455	0.	34.03
840	14.521	2.3636	0.	33.82
841	14.521	2.1818	0.	33.497
842	14.521	2.	0.	33.029
843	14.521	1.8182	0.	32.379
844	14.521	1.6364	0.	31.513
845	14.521	1.4545	0.	30.4
846	14.521	1.2727	0.	29.014
847	14.521	1.0909	0.	27.339
848	14.521	0.90909	0.	25.371
849	14.521	0.72727	0.	23.121
850	14.521	0.54545	0.	20.619
851	14.521	0.36364	0.	17.969
852	14.521	0.18182	0.	16.507
853	14.337	5.8182	0.	16.221
854	14.337	5.6364	0.	17.255
855	14.337	5.4545	0.	19.526
856	14.337	5.2727	0.	21.693
857	14.337	5.0909	0.	23.656
858	14.337	4.9091	0.	25.387
859	14.337	4.7273	0.	26.873
860	14.337	4.5455	0.	28.118
861	14.337	4.3636	0.	29.132
862	14.337	4.1818	0.	29.933
863	14.337	4.	0.	30.547
864	14.337	3.8182	0.	31.001
865	14.337	3.6364	0.	31.324
866	14.337	3.4545	0.	31.54
867	14.337	3.2727	0.	31.671
868	14.337	3.0909	0.	31.732
869	14.337	2.9091	0.	31.732
870	14.337	2.7273	0.	31.671
871	14.337	2.5455	0.	31.54
872	14.337	2.3636	0.	31.324
873	14.337	2.1818	0.	31.001
874	14.337	2.	0.	30.547
875	14.337	1.8182	0.	29.933
876	14.337	1.6364	0.	29.132
877	14.337	1.4545	0.	28.118
878	14.337	1.2727	0.	26.873
879	14.337	1.0909	0.	25.387
880	14.337	0.90909	0.	23.656
881	14.337	0.72727	0.	21.693
882	14.337	0.54545	0.	19.526
883	14.337	0.36364	0.	17.255
884	14.337	0.18182	0.	16.221
885	14.153	5.8182	0.	15.938
886	14.153	5.6364	0.	16.59
887	14.153	5.4545	0.	18.518
888	14.153	5.2727	0.	20.379
889	14.153	5.0909	0.	22.075
890	14.153	4.9091	0.	23.58
891	14.153	4.7273	0.	24.885
892	14.153	4.5455	0.	25.988
893	14.153	4.3636	0.	26.896
894	14.153	4.1818	0.	27.624
895	14.153	4.	0.	28.191
896	14.153	3.8182	0.	28.617
897	14.153	3.6364	0.	28.926
898	14.153	3.4545	0.	29.138
899	14.153	3.2727	0.	29.268
900	14.153	3.0909	0.	29.33
901	14.153	2.9091	0.	29.33
902	14.153	2.7273	0.	29.268
903	14.153	2.5455	0.	29.138
904	14.153	2.3636	0.	28.926
905	14.153	2.1818	0.	28.617
906	14.153	2.	0.	28.191
907	14.153	1.8182	0.	27.624
908	14.153	1.6364	0.	26.896
909	14.153	1.4545	0.	25.988
910	14.153	1.2727	0.	24.885
911	14.153	1.0909	0.	23.58
912	14.153	0.90909	0.	22.075
913	14.153	0.72727	0.	20.379
914	14.153	0.54545	0.	18.518
915	14.153	0.36364	0.	16.59
916	14.153	0.18182	0.	15.938
917	13.97	5.8182	0.	15.656
918	13.97	5.6364	0.	15.965
919	13.97	5.4545	0.	17.58
920	13.97	5.2727	0.	19.157
921	13.97	5.0909	0.	20.604
922	13.97	4.9091	0.	21.897
923	13.97	4.7273	0.	23.024
924	13.97	4.5455	0.	23.985
925	13.97	4.3636	0.	24.783
926	13.97	4.1818	0.	25.43
927	13.97	4.	0.	25.94
928	13.97	3.8182	0.	26.329
929	13.97	3.6364	0.	26.615
930	13.97	3.4545	0.	26.813
931	13.97	3.2727	0.	26.937
932	13.97	3.0909	0.	26.997
933	13.97	2.9091	0.	26.997
934	13.97	2.7273	0.	26.937
935	13.97	2.5455	0.	26.813
936	13.97	2.3636	0.	26.615
937	13.97	2.1818	0.	26.329
938	13.97	2.	0.	25.94
939	13.97	1.8182	0.	25.431
940	13.97	1.6364	0.	24.783
941	13.97	1.4545	0.	23.985
942	13.97	1.2727	0.	23.024
943	13.97	1.0909	0.	21.897
944	13.97	0.90909	0.	20.604
945	13.97	0.72727	0.	19.157
946	13.97	0.54545	0.	17.58
947	13.97	0.36364	0.	15.965
948	13.97	0.18182	0.	15.656
949	13.786	5.8182	0.	15.374
950	13.786	5.6364	0.	15.372
951	13.786	5.4545	0.	16.698
952	13.786	5.2727	0.	18.012
953	13.786	5.0909	0.	19.225
954	13.786	4.9091	0.	20.314
955	13.786	4.7273	0.	21.27
956	13.786	4.5455	0.	22.089
957	13.786	4.3636	0.	22.775
958	13.786	4.1818	0.	23.335
959	13.786	4.	0.	23.78
960	13.786	3.8182	0.	24.123
961	13.786	3.6364	0.	24.377
962	13.786	3.4545	0.	24.555
963	13.786	3.2727	0.	24.667
964	13.786	3.0909	0.	24.721
965	13.786	2.9091	0.	24.721
966	13.786	2.7273	0.	24.667
967	13.786	2.5455	0.	24.555
968	13.786	2.3636	0.	24.377
969	13.786	2.1818	0.	24.123
970	13.786	2.	0.	23.78
971	13.786	1.8182	0.	23.335
972	13.786	1.6364	0.	22.775
973	13.786	1.4545	0.	22.089
974	13.786	1.2727	0.	21.27
975	13.786	1.0909	0.	20.314
976	13.786	0.90909	0.	19.225
977	13.786	0.72727	0.	18.012
978	13.786	0.54545	0.	16.698
979	13.786	0.36364	0.	15.372
980	13.786	0.18182	0.	15.374
981	13.602	5.8182	0.	15.089
982	13.602	5.6364	0.	14.803
983	13.602	5.4545	0.	15.861
984	13.602	5.2727	0.	16.93
985	13.602	5.0909	0.	17.921
986	13.602	4.9091	0.	18.815
987	13.602	4.7273	0.	19.603
988	13.602	4.5455	0.	20.281
989	13.602	4.3636	0.	20.852
990	13.602	4.1818	0.	21.32
991	13.602	4.	0.	21.694
992	13.602	3.8182	0.	21.984
993	13.602	3.6364	0.	22.2
994	13.602	3.4545	0.	22.352
995	13.602	3.2727	0.	22.449
996	13.602	3.0909	0.	22.495
997	13.602	2.9091	0.	22.495
998	13.602	2.7273	0.	22.449
999	13.602	2.5455	0.	22.352
1000	13.602	2.3636	0.	22.2
1001	13.602	2.1818	0.	21.984
1002	13.602	2.	0.	21.694
1003	13.602	1.8182	0.	21.32
1004	13.602	1.6364	0.	20.852
1005	13.602	1.4545	0.	20.281
1006	13.602	1.2727	0.	19.603
1007	13.602	1.0909	0.	18.815
1008	13.602	0.90909	0.	17.921
1009	13.602	0.72727	0.	16.93
1010	13.602	0.54545	0.	15.861
1011	13.602	0.36364	0.	14.803
1012	13.602	0.18182	0.	15.089
1013	13.418	5.8182	0.	14.801
1014	13.418	5.6364	0.	14.253
1015	13.418	5.4545	0.	15.06
1016	13.418	5.2727	0.	15.897
1017	13.418	5.0909	0.	16.677
1018	13.418	4.9091	0.	17.382
1019	13.418	4.7273	0.	18.006
1020	13.418	4.5455	0.	18.544
1021	13.418	4.3636	0.	18.997
1022	13.418	4.1818	0.	19.37
1023	13.418	4.	0.	19.668
1024	13.418	3.8182	0.	19.9
1025	13.418	3.6364	0.	20.072
1026	13.418	3.4545	0.	20.194
1027	13.418	3.2727	0.	20.271
1028	13.418	3.0909	0.	20.308
1029	13.418	2.9091	0.	20.308
1030	13.418	2.7273	0.	20.271
1031	13.418	2.5455	0.	20.194
1032	13.418	2.3636	0.	20.072
1033	13.418	2.1818	0.	19.9
1034	13.418	2.	0.	19.668
1035	13.418	1.8182	0.	19.37
1036	13.418	1.6364	0.	18.997
1037	13.418	1.4545	0.	18.544
1038	13.418	1.2727	0.	18.006
1039	13.418	1.0909	0.	17.382
1040	13.418	0.90909	0.	16.677
1041	13.418	0.72727	0.	15.897
1042	13.418	0.54545	0.	15.06
1043	13.418	0.36364	0.	14.253
1044	13.418	0.18182	0.	14.802
1045	13.234	5.8182	0.	14.509
1046	13.234	5.6364	0.	13.716
1047	13.234	5.4545	0.	14.287
1048	13.234	5.2727	0.	14.902
1049	13.234	5.0909	0.	15.479
1050	13.234	4.9091	0.	16.002
1051	13.234	4.7273	0.	16.464
1052	13.234	4.5455	0.	16.862
1053	13.234	4.3636	0.	17.197
1054	13.234	4.1818	0.	17.47
1055	13.234	4.	0.	17.688
1056	13.234	3.8182	0.	17.857
1057	13.234	3.6364	0.	17.981
1058	13.234	3.4545	0.	18.068
1059	13.234	3.2727	0.	18.123
1060	13.234	3.0909	0.	18.149
1061	13.234	2.9091	0.	18.149
1062	13.234	2.7273	0.	18.123
1063	13.234	2.5455	0.	18.068
1064	13.234	2.3636	0.	17.981
1065	13.234	2.1818	0.	17.857
1066	13.234	2.	0.	17.689
1067	13.234	1.8182	0.	17.471
1068	13.234	1.6364	0.	17.197
1069	13.234	1.4545	0.	16.862
1070	13.234	1.2727	0.	16.464
1071	13.234	1.0909	0.	16.002
1072	13.234	0.90909	0.	15.479
1073	13.234	0.72727	0.	14.902
1074	13.234	0.54545	0.	14.287
1075	13.234	0.36364	0.	13.716
1076	13.234	0.18182	0.	14.509
1077	13.05	5.8182	0.	14.209
1078	13.05	5.6364	0.	13.187
1079	13.05	5.4545	0.	13.532
1080	13.05	5.2727	0.	13.935
1081	13.05	5.0909	0.	14.315
1082	13.05	4.9091	0.	14.66
1083	13.05	4.7273	0.	14.962
1084	13.05	4.5455	0.	15.221
1085	13.05	4.3636	0.	15.435
1086	13.05	4.1818	0.	15.607
1087	13.05	4.	0.	15.741
1088	13.05	3.8182	0.	15.842
1089	13.05	3.6364	0.	15.915
1090	13.05	3.4545	0.	15.964
1091	13.05	3.2727	0.	15.994
1092	13.05	3.0909	0.	16.009
1093	13.05	2.9091	0.	16.009
1094	13.05	2.7273	0.	15.994
1095	13.05	2.5455	0.	15.964
1096	13.05	2.3636	0.	15.915
1097	13.05	2.1818	0.	15.842
1098	13.05	2.	0.	15.741
1099	13.05	1.8182	0.	15.607
1100	13.05	1.6364	0.	15.435
1101	13.05	1.4545	0.	15.221
1102	13.05	1.2727	0.	14.962
1103	13.05	1.0909	0.	14.66
1104	13.05	0.90909	0.	14.315
1105	13.05	0.72727	0.	13.935
1106	13.05	0.54545	0.	13.532
1107	13.05	0.36364	0.	13.187
1108	13.05	0.18182	0.	14.209
1109	12.867	5.8182	0.	13.902
1110	12.867	5.6364	0.	12.662
1111	12.867	5.4545	0.	12.789
1112	12.867	5.2727	0.	12.986
1113	12.867	5.0909	0.	13.175
1114	12.867	4.9091	0.	13.344
1115	12.867	4.7273	0.	13.488
1116	12.867	4.5455	0.	13.607
1117	12.867	4.3636	0.	13.699
1118	12.867	4.1818	0.	13.766
1119	12.867	4.	0.	13.814
1120	12.867	3.8182	0.	13.844
1121	12.867	3.6364	0.	13.861
1122	12.867	3.4545	0.	13.87
1123	12.867	3.2727	0.	13.874
1124	12.867	3.0909	0.	13.875
1125	12.867	2.9091	0.	13.875
1126	12.867	2.7273	0.	13.874
1127	12.867	2.5455	0.	13.87
1128	12.867	2.3636	0.	13.861
1129	12.867	2.1818	0.	13.844
1130	12.867	2.	0.	13.814
1131	12.867	1.8182	0.	13.766
1132	12.867	1.6364	0.	13.699
1133	12.867	1.4545	0.	13.607
1134	12.867	1.2727	0.	13.488
1135	12.867	1.0909	0.	13.344
1136	12.867	0.90909	0.	13.175
1137	12.867	0.72727	0.	12.986
1138	12.867	0.54545	0.	12.789
1139	12.867	0.36364	0.	12.662
1140	12.867	0.18182	0.	13.903
1141	12.683	5.8182	0.	13.587
1142	12.683	5.6364	0.	12.136
1143	12.683	5.4545	0.	12.052
1144	12.683	5.2727	0.	12.048
1145	12.683	5.0909	0.	12.048
1146	12.683	4.9091	0.	12.043
1147	12.683	4.7273	0.	12.03
1148	12.683	4.5455	0.	12.007
1149	12.683	4.3636	0.	11.975
1150	12.683	4.1818	0.	11.936
1151	12.683	4.	0.	11.893
1152	12.683	3.8182	0.	11.849
1153	12.683	3.6364	0.	11.808
1154	12.683	3.4545	0.	11.774
1155	12.683	3.2727	0.	11.75
1156	12.683	3.0909	0.	11.737
1157	12.683	2.9091	0.	11.737
1158	12.683	2.7273	0.	11.75
1159	12.683	2.5455	0.	11.774
1160	12.683	2.3636	0.	11.808
1161	12.683	2.1818	0.	11.849
1162	12.683	2.	0.	11.893
1163	12.683	1.8182	0.	11.936
1164	12.683	1.6364	0.	11.975
1165	12.683	1.4545	0.	12.007
1166	12.683	1.2727	0.	12.03
1167	12.683	1.0909	0.	12.044
1168	12.683	0.90909	0.	12.048
1169	12.683	0.72727	0.	12.048
1170	12.683	0.54545	0.	12.052
1171	12.683	0.36364	0.	12.136
1172	12.683	0.18182	0.	13.587
1173	12.499	5.8182	0.	13.261
1174	12.499	5.6364	0.	11.607
1175	12.499	5.4545	0.	11.314
1176	12.499	5.2727	0.	11.112
1177	12.499	5.0909	0.	10.926
1178	12.499	4.9091	0.	10.747
1179	12.499	4.7273	0.	10.576
1180	12.499	4.5455	0.	10.41
1181	12.499	4.3636	0.	10.252
1182	12.499	4.1818	0.	10.103
1183	12.499	4.	0.	9.9664
1184	12.499	3.8182	0.	9.8457
1185	12.499	3.6364	0.	9.7442
1186	12.499	3.4545	0.	9.6648
1187	12.499	3.2727	0.	9.6104
1188	12.499	3.0909	0.	9.5826
1189	12.499	2.9091	0.	9.5827
1190	12.499	2.7273	0.	9.6104
1191	12.499	2.5455	0.	9.6648
1192	12.499	2.3636	0.	9.7442
1193	12.499	2.1818	0.	9.8457
1194	12.499	2.	0.	9.9664
1195	12.499	1.8182	0.	10.103
1196	12.499	1.6364	0.	10.252
1197	12.499	1.4545	0.	10.41
1198	12.499	1.2727	0.	10.576
1199	12.499	1.0909	0.	10.747
1200	12.499	0.90909	0.	10.926
1201	12.499	0.72727	0.	11.112
1202	12.499	0.54545	0.	11.314
1203	12.499	0.36364	0.	11.607
1204	12.499	0.18182	0.	13.261
1205	12.315	5.8182	0.	12.924
1206	12.315	5.6364	0.	11.07
1207	12.315	5.4545	0.	10.571
1208	12.315	5.2727	0.	10.171
1209	12.315	5.0909	0.	9.798
1210	12.315	4.9091	0.	9.4458
1211	12.315	4.7273	0.	9.1141
1212	12.315	4.5455	0.	8.8036
1213	12.315	4.3636	0.	8.5163
1214	12.315	4.1818	0.	8.2547
1215	12.315	4.	0.	8.022
1216	12.315	3.8182	0.	7.8213
1217	12.315	3.6364	0.	7.6561
1218	12.315	3.4545	0.	7.5292
1219	12.315	3.2727	0.	7.4432
1220	12.315	3.0909	0.	7.3997
1221	12.315	2.9091	0.	7.3997
1222	12.315	2.7273	0.	7.4432
1223	12.315	2.5455	0.	7.5292
1224	12.315	2.3636	0.	7.6561
1225	12.315	2.1818	0.	7.8213
1226	12.315	2.	0.	8.022
1227	12.315	1.8182	0.	8.2548
1228	12.315	1.6364	0.	8.5163
1229	12.315	1.4545	0.	8.8036
1230	12.315	1.2727	0.	9.1141
1231	12.315	1.0909	0.	9.4459
1232	12.315	0.90909	0.	9.7981
1233	12.315	0.72727	0.	10.171
1234	12.315	0.54545	0.	10.571
1235	12.315	0.36364	0.	11.07
1236	12.315	0.18182	0.	12.924
1237	12.131	5.8182	0.	12.575
1238	12.131	5.6364	0.	10.521
1239	12.131	5.4545	0.	9.816
1240	12.131	5.2727	0.	9.2179
1241	12.131	5.0909	0.	8.6569
1242	12.131	4.9091	0.	8.1288
1243	12.131	4.7273	0.	7.6347
1244	12.131	4.5455	0.	7.1766
1245	12.131	4.3636	0.	6.7571
1246	12.131	4.1818	0.	6.3794
1247	12.131	4.	0.	6.0469
1248	12.131	3.8182	0.	5.7631
1249	12.131	3.6364	0.	5.5313
1250	12.131	3.4545	0.	5.3546
1251	12.131	3.2727	0.	5.2354
1252	12.131	3.0909	0.	5.1754
1253	12.131	2.9091	0.	5.1754
1254	12.131	2.7273	0.	5.2354
1255	12.131	2.5455	0.	5.3546
1256	12.131	2.3636	0.	5.5313
1257	12.131	2.1818	0.	5.7631
1258	12.131	2.	0.	6.0469
1259	12.131	1.8182	0.	6.3794
1260	12.131	1.6364	0.	6.7571
1261	12.131	1.4545	0.	7.1766
1262	12.131	1.2727	0.	7.6348
1263	12.131	1.0909	0.	8.1289
1264	12.131	0.90909	0.	8.6569
1265	12.131	0.72727	0.	9.2179
1266	12.131	0.54545	0.	9.816
1267	12.131	0.36364	0.	10.521
1268	12.131	0.18182	0.	12.575
1269	11.948	5.8182	0.	12.212
1270	11.948	5.6364	0.	9.9587
1271	11.948	5.4545	0.	9.0449
1272	11.948	5.2727	0.	8.246
1273	11.948	5.0909	0.	7.4942
1274	11.948	4.9091	0.	6.7872
1275	11.948	4.7273	0.	6.1274
1276	11.948	4.5455	0.	5.5179
1277	11.948	4.3636	0.	4.9624
1278	11.948	4.1818	0.	4.4647
1279	11.948	4.	0.	4.0287
1280	11.948	3.8182	0.	3.6584
1281	11.948	3.6364	0.	3.3572
1282	11.948	3.4545	0.	3.1283
1283	11.948	3.2727	0.	2.9742
1284	11.948	3.0909	0.	2.8967
1285	11.948	2.9091	0.	2.8967
1286	11.948	2.7273	0.	2.9742
1287	11.948	2.5455	0.	3.1283
1288	11.948	2.3636	0.	3.3572
1289	11.948	2.1818	0.	3.6584
1290	11.948	2.	0.	4.0287
1291	11.948	1.8182	0.	4.4647
1292	11.948	1.6364	0.	4.9624
1293	11.948	1.4545	0.	5.5179
1294	11.948	1.2727	0.	6.1274
1295	11.948	1.0909	0.	6.7872
1296	11.948	0.90909	0.	7.4943
1297	11.948	0.72727	0.	8.246
1298	11.948	0.54545	0.	9.0449
1299	11.948	0.36364	0.	9.9588
1300	11.948	0.18182	0.	12.212
1301	11.764	5.8182	0.	11.833
1302	11.764	5.6364	0.	9.3785
1303	11.764	5.4545	0.	8.2523
1304	11.764	5.2727	0.	7.2488
1305	11.764	5.0909	0.	6.302
1306	11.764	4.9091	0.	5.4117
1307	11.764	4.7273	0.	4.5818
1308	11.764	4.5455	0.	3.8166
1309	11.764	4.3636	0.	3.1208
1310	11.764	4.1818	0.	2.499
1311	11.764	4.	0.	1.9557
1312	11.764	3.8182	0.	1.4953
1313	11.764	3.6364	0.	1.1215
1314	11.764	3.4545	0.	0.83762
1315	11.764	3.2727	0.	0.64641
1316	11.764	3.0909	0.	0.55005
1317	11.764	2.9091	0.	0.55006
1318	11.764	2.7273	0.	0.64642
1319	11.764	2.5455	0.	0.83763
1320	11.764	2.3636	0.	1.1215
1321	11.764	2.1818	0.	1.4953
1322	11.764	2.	0.	1.9557
1323	11.764	1.8182	0.	2.499
1324	11.764	1.6364	0.	3.1208
1325	11.764	1.4545	0.	3.8166
1326	11.764	1.2727	0.	4.5818
1327	11.764	1.0909	0.	5.4118
1328	11.764	0.90909	0.	6.3021
1329	11.764	0.72727	0.	7.2488
1330	11.764	0.54545	0.	8.2524
1331	11.764	0.36364	0.	9.3786
1332	11.764	0.18182	0.	11.834
1333	11.58	5.8182	0.	11.439
1334	11.58	5.6364	0.	8.7773
1335	11.58	5.4545	0.	7.4333
1336	11.58	5.2727	0.	6.2194
1337	11.58	5.0909	0.	5.0722
1338	11.58	4.9091	0.	3.9932
1339	11.58	4.7273	0.	2.988
1340	11.58	4.5455	0.	2.0627
1341	11.58	4.3636	0.	1.2238
1342	11.58	4.1818	0.	0.48332
1343	11.58	4.	0.	3.7542e-002
1344	11.58	3.8182	0.	1.1969e-002
1345	11.58	3.6364	0.	7.9747e-003
1346	11.58	3.4545	0.	6.5149e-003
1347	11.58	3.2727	0.	5.86e-003
1348	11.58	3.0909	0.	5.5942e-003
1349	11.58	2.9091	0.	5.5945e-003
1350	11.58	2.7273	0.	5.8603e-003
1351	11.58	2.5455	0.	6.5153e-003
1352	11.58	2.3636	0.	7.9744e-003
1353	11.58	2.1818	0.	1.197e-002
1354	11.58	2.	0.	3.7545e-002
1355	11.58	1.8182	0.	0.48333
1356	11.58	1.6364	0.	1.2239
1357	11.58	1.4545	0.	2.0627
1358	11.58	1.2727	0.	2.9881
1359	11.58	1.0909	0.	3.9932
1360	11.58	0.90909	0.	5.0722
1361	11.58	0.72727	0.	6.2194
1362	11.58	0.54545	0.	7.4333
1363	11.58	0.36364	0.	8.7773
1364	11.58	0.18182	0.	11.439
1365	11.396	5.8182	0.	11.026
1366	11.396	5.6364	0.	8.1519
1367	11.396	5.4545	0.	6.5828
1368	11.396	5.2727	0.	5.1514
1369	11.396	5.0909	0.	3.797
1370	11.396	4.9091	0.	2.5233
1371	11.396	4.7273	0.	1.3396
1372	11.396	4.5455	0.	0.28507
1373	11.396	4.3636	0.	2.0218e-002
1374	11.396	4.1818	0.	1.051e-002
1375	11.396	4.	0.	7.8285e-003
1376	11.396	3.8182	0.	6.6372e-003
1377	11.396	3.6364	0.	6.0032e-003
1378	11.396	3.4545	0.	5.6437e-003
1379	11.396	3.2727	0.	5.4425e-003
1380	11.396	3.0909	0.	5.3518e-003
1381	11.396	2.9091	0.	5.3513e-003
1382	11.396	2.7273	0.	5.4426e-003
1383	11.396	2.5455	0.	5.6436e-003
1384	11.396	2.3636	0.	6.0034e-003
1385	11.396	2.1818	0.	6.6372e-003
1386	11.396	2.	0.	7.8293e-003
1387	11.396	1.8182	0.	1.0511e-002
1388	11.396	1.6364	0.	2.0219e-002
1389	11.396	1.4545	0.	0.28508
1390	11.396	1.2727	0.	1.3396
1391	11.396	1.0909	0.	2.5233
1392	11.396	0.90909	0.	3.797
1393	11.396	0.72727	0.	5.1515
1394	11.396	0.54545	0.	6.5828
1395	11.396	0.36364	0.	8.1519
1396	11.396	0.18182	0.	11.026
1397	11.212	5.8182	0.	10.593
1398	11.212	5.6364	0.	7.4987
1399	11.212	5.4545	0.	5.6956
1400	11.212	5.2727	0.	4.0382
1401	11.212	5.0909	0.	2.4688
1402	11.212	4.9091	0.	0.99856
1403	11.212	4.7273	0.	4.0456e-002
1404	11.212	4.5455	0.	1.2349e-002
1405	11.212	4.3636	0.	8.3897e-003
1406	11.212	4.1818	0.	6.8836e-003
1407	11.212	4.	0.	6.1206e-003
1408	11.212	3.8182	0.	5.6778e-003
1409	11.212	3.6364	0.	5.404e-003
1410	11.212	3.4545	0.	5.2338e-003
1411	11.212	3.2727	0.	5.1322e-003
1412	11.212	3.0909	0.	5.0854e-003
1413	11.212	2.9091	0.	5.0854e-003
1414	11.212	2.7273	0.	5.1325e-003
1415	11.212	2.5455	0.	5.2341e-003
1416	11.212	2.3636	0.	5.4044e-003
1417	11.212	2.1818	0.	5.6775e-003
1418	11.212	2.	0.	6.1217e-003
1419	11.212	1.8182	0.	6.8841e-003
1420	11.212	1.6364	0.	8.39e-003
1421	11.212	1.4545	0.	1.2349e-002
1422	11.212	1.2727	0.	4.046e-002
1423	11.212	1.0909	0.	0.99858
1424	11.212	0.90909	0.	2.4688
1425	11.212	0.72727	0.	4.0382
1426	11.212	0.54545	0.	5.6956
1427	11.212	0.36364	0.	7.4987
1428	11.212	0.18182	0.	10.594
1429	11.029	5.8182	0.	10.14
1430	11.029	5.6364	0.	6.8144
1431	11.029	5.4545	0.	4.7667
1432	11.029	5.2727	0.	2.8732
1433	11.029	5.0909	0.	1.0838
1434	11.029	4.9091	0.	2.7866e-002
1435	11.029	4.7273	0.	1.0361e-002
1436	11.029	4.5455	0.	7.5082e-003
1437	11.029	4.3636	0.	6.3755e-003
1438	11.029	4.1818	0.	5.7831e-003
1439	11.029	4.	0.	5.4285e-003
1440	11.029	3.8182	0.	5.1991e-003
1441	11.029	3.6364	0.	5.0462e-003
1442	11.029	3.4545	0.	4.9462e-003
1443	11.029	3.2727	0.	4.8842e-003
1444	11.029	3.0909	0.	4.8545e-003
1445	11.029	2.9091	0.	4.8547e-003
1446	11.029	2.7273	0.	4.8847e-003
1447	11.029	2.5455	0.	4.9461e-003
1448	11.029	2.3636	0.	5.0466e-003
1449	11.029	2.1818	0.	5.199e-003
1450	11.029	2.	0.	5.4284e-003
1451	11.029	1.8182	0.	5.7838e-003
1452	11.029	1.6364	0.	6.3758e-003
1453	11.029	1.4545	0.	7.5097e-003
1454	11.029	1.2727	0.	1.0362e-002
1455	11.029	1.0909	0.	2.7867e-002
1456	11.029	0.90909	0.	1.0838
1457	11.029	0.72727	0.	2.8732
1458	11.029	0.54545	0.	4.7667
1459	11.029	0.36364	0.	6.8145
1460	11.029	0.18182	0.	10.14
1461	10.845	5.8182	0.	9.6635
1462	10.845	5.6364	0.	6.0955
1463	10.845	5.4545	0.	3.7907
1464	10.845	5.2727	0.	1.6505
1465	10.845	5.0909	0.	3.6195e-002
1466	10.845	4.9091	0.	9.6358e-003
1467	10.845	4.7273	0.	7.0191e-003
1468	10.845	4.5455	0.	6.0544e-003
1469	10.845	4.3636	0.	5.5528e-003
1470	10.845	4.1818	0.	5.2487e-003
1471	10.845	4.	0.	5.0459e-003
1472	10.845	3.8182	0.	4.9031e-003
1473	10.845	3.6364	0.	4.802e-003
1474	10.845	3.4545	0.	4.7332e-003
1475	10.845	3.2727	0.	4.6884e-003
1476	10.845	3.0909	0.	4.6664e-003
1477	10.845	2.9091	0.	4.6665e-003
1478	10.845	2.7273	0.	4.6881e-003
1479	10.845	2.5455	0.	4.7332e-003
1480	10.845	2.3636	0.	4.8026e-003
1481	10.845	2.1818	0.	4.9034e-003
1482	10.845	2.	0.	5.0464e-003
1483	10.845	1.8182	0.	5.2493e-003
1484	10.845	1.6364	0.	5.5533e-003
1485	10.845	1.4545	0.	6.0552e-003
1486	10.845	1.2727	0.	7.0199e-003
1487	10.845	1.0909	0.	9.6365e-003
1488	10.845	0.90909	0.	3.6198e-002
1489	10.845	0.72727	0.	1.6506
1490	10.845	0.54545	0.	3.7907
1491	10.845	0.36364	0.	6.0956
1492	10.845	0.18182	0.	9.6636
1493	10.661	5.8182	0.	9.1623
1494	10.661	5.6364	0.	5.338
1495	10.661	5.4545	0.	2.7618
1496	10.661	5.2727	0.	0.37883
1497	10.661	5.0909	0.	9.5531e-003
1498	10.661	4.9091	0.	6.6418e-003
1499	10.661	4.7273	0.	5.7408e-003
1500	10.661	4.5455	0.	5.301e-003
1501	10.661	4.3636	0.	5.0285e-003
1502	10.661	4.1818	0.	4.841e-003
1503	10.661	4.	0.	4.7036e-003
1504	10.661	3.8182	0.	4.5978e-003
1505	10.661	3.6364	0.	4.5188e-003
1506	10.661	3.4545	0.	4.4621e-003
1507	10.661	3.2727	0.	4.4244e-003
1508	10.661	3.0909	0.	4.405e-003
1509	10.661	2.9091	0.	4.4055e-003
1510	10.661	2.7273	0.	4.4243e-003
1511	10.661	2.5455	0.	4.4625e-003
1512	10.661	2.3636	0.	4.5185e-003
1513	10.661	2.1818	0.	4.5981e-003
1514	10.661	2.	0.	4.7038e-003
1515	10.661	1.8182	0.	4.8416e-003
1516	10.661	1.6364	0.	5.0293e-003
1517	10.661	1.4545	0.	5.3015e-003
1518	10.661	1.2727	0.	5.7413e-003
1519	10.661	1.0909	0.	6.6424e-003
1520	10.661	0.90909	0.	9.5557e-003
1521	10.661	0.72727	0.	0.37886
1522	10.661	0.54545	0.	2.7619
1523	10.661	0.36364	0.	5.3381
1524	10.661	0.18182	0.	9.1623
1525	10.477	5.8182	0.	8.6343
1526	10.477	5.6364	0.	4.5381
1527	10.477	5.4545	0.	1.6747
1528	10.477	5.2727	0.	1.1674e-002
1529	10.477	5.0909	0.	6.3405e-003
1530	10.477	4.9091	0.	5.5064e-003
1531	10.477	4.7273	0.	5.0987e-003
1532	10.477	4.5455	0.	4.855e-003
1533	10.477	4.3636	0.	4.6741e-003
1534	10.477	4.1818	0.	4.5349e-003
1535	10.477	4.	0.	4.42e-003
1536	10.477	3.8182	0.	4.327e-003
1537	10.477	3.6364	0.	4.2525e-003
1538	10.477	3.4545	0.	4.1987e-003
1539	10.477	3.2727	0.	4.1614e-003
1540	10.477	3.0909	0.	4.1426e-003
1541	10.477	2.9091	0.	4.1429e-003
1542	10.477	2.7273	0.	4.1621e-003
1543	10.477	2.5455	0.	4.1983e-003
1544	10.477	2.3636	0.	4.2526e-003
1545	10.477	2.1818	0.	4.3274e-003
1546	10.477	2.	0.	4.4208e-003
1547	10.477	1.8182	0.	4.5352e-003
1548	10.477	1.6364	0.	4.6747e-003
1549	10.477	1.4545	0.	4.8561e-003
1550	10.477	1.2727	0.	5.0987e-003
1551	10.477	1.0909	0.	5.5063e-003
1552	10.477	0.90909	0.	6.3417e-003
1553	10.477	0.72727	0.	1.1674e-002
1554	10.477	0.54545	0.	1.6747
1555	10.477	0.36364	0.	4.5381
1556	10.477	0.18182	0.	8.6344
1557	10.293	5.8182	0.	8.0778
1558	10.293	5.6364	0.	3.6917
1559	10.293	5.4545	0.	0.52566
1560	10.293	5.2727	0.	6.4995e-003
1561	10.293	5.0909	0.	5.3114e-003
1562	10.293	4.9091	0.	5.015e-003
1563	10.293	4.7273	0.	4.7767e-003
1564	10.293	4.5455	0.	4.605e-003
1565	10.293	4.3636	0.	4.4532e-003
1566	10.293	4.1818	0.	4.3234e-003
1567	10.293	4.	0.	4.2105e-003
1568	10.293	3.8182	0.	4.1135e-003
1569	10.293	3.6364	0.	4.0355e-003
1570	10.293	3.4545	0.	3.9763e-003
1571	10.293	3.2727	0.	3.936e-003
1572	10.293	3.0909	0.	3.915e-003
1573	10.293	2.9091	0.	3.9153e-003
1574	10.293	2.7273	0.	3.9361e-003
1575	10.293	2.5455	0.	3.9766e-003
1576	10.293	2.3636	0.	4.0358e-003
1577	10.293	2.1818	0.	4.1146e-003
1578	10.293	2.	0.	4.2113e-003
1579	10.293	1.8182	0.	4.3237e-003
1580	10.293	1.6364	0.	4.4536e-003
1581	10.293	1.4545	0.	4.6053e-003
1582	10.293	1.2727	0.	4.7778e-003
1583	10.293	1.0909	0.	5.0157e-003
1584	10.293	0.90909	0.	5.3132e-003
1585	10.293	0.72727	0.	6.501e-003
1586	10.293	0.54545	0.	0.52569
1587	10.293	0.36364	0.	3.6918
1588	10.293	0.18182	0.	8.0778
1589	10.11	5.8182	0.	7.4903
1590	10.11	5.6364	0.	2.7944
1591	10.11	5.4545	0.	5.9239e-003
1592	10.11	5.2727	0.	5.4744e-003
1593	10.11	5.0909	0.	4.9026e-003
1594	10.11	4.9091	0.	4.7654e-003
1595	10.11	4.7273	0.	4.5691e-003
1596	10.11	4.5455	0.	4.4071e-003
1597	10.11	4.3636	0.	4.25e-003
1598	10.11	4.1818	0.	4.1088e-003
1599	10.11	4.	0.	3.9826e-003
1600	10.11	3.8182	0.	3.8722e-003
1601	10.11	3.6364	0.	3.7818e-003
1602	10.11	3.4545	0.	3.7132e-003
1603	10.11	3.2727	0.	3.6662e-003
1604	10.11	3.0909	0.	3.6414e-003
1605	10.11	2.9091	0.	3.6418e-003
1606	10.11	2.7273	0.	3.666e-003
1607	10.11	2.5455	0.	3.7129e-003
1608	10.11	2.3636	0.	3.7817e-003
1609	10.11	2.1818	0.	3.8726e-003
1610	10.11	2.	0.	3.9824e-003
1611	10.11	1.8182	0.	4.1093e-003
1612	10.11	1.6364	0.	4.2506e-003
1613	10.11	1.4545	0.	4.4073e-003
1614	10.11	1.2727	0.	4.57e-003
1615	10.11	1.0909	0.	4.7658e-003
1616	10.11	0.90909	0.	4.9044e-003
1617	10.11	0.72727	0.	5.4756e-003
1618	10.11	0.54545	0.	5.9248e-003
1619	10.11	0.36364	0.	2.7945
1620	10.11	0.18182	0.	7.4904
1621	9.9257	5.8182	0.	6.87
1622	9.9257	5.6364	0.	1.842
1623	9.9257	5.4545	0.	4.1433e-003
1624	9.9257	5.2727	0.	5.3274e-003
1625	9.9257	5.0909	0.	4.8016e-003
1626	9.9257	4.9091	0.	4.6792e-003
1627	9.9257	4.7273	0.	4.4616e-003
1628	9.9257	4.5455	0.	4.2739e-003
1629	9.9257	4.3636	0.	4.0891e-003
1630	9.9257	4.1818	0.	3.9208e-003
1631	9.9257	4.	0.	3.77e-003
1632	9.9257	3.8182	0.	3.6389e-003
1633	9.9257	3.6364	0.	3.5304e-003
1634	9.9257	3.4545	0.	3.4484e-003
1635	9.9257	3.2727	0.	3.3921e-003
1636	9.9257	3.0909	0.	3.3634e-003
1637	9.9257	2.9091	0.	3.3635e-003
1638	9.9257	2.7273	0.	3.3923e-003
1639	9.9257	2.5455	0.	3.4487e-003
1640	9.9257	2.3636	0.	3.5304e-003
1641	9.9257	2.1818	0.	3.6391e-003
1642	9.9257	2.	0.	3.7709e-003
1643	9.9257	1.8182	0.	3.9214e-003
1644	9.9257	1.6364	0.	4.0901e-003
1645	9.9257	1.4545	0.	4.2748e-003
1646	9.9257	1.2727	0.	4.4625e-003
1647	9.9257	1.0909	0.	4.6796e-003
1648	9.9257	0.90909	0.	4.8023e-003
1649	9.9257	0.72727	0.	5.329e-003
1650	9.9257	0.54545	0.	4.1435e-003
1651	9.9257	0.36364	0.	1.842
1652	9.9257	0.18182	0.	6.8701
1653	9.7419	5.8182	0.	6.2146
1654	9.7419	5.6364	0.	0.83109
1655	9.7419	5.4545	0.	4.3031e-003
1656	9.7419	5.2727	0.	5.5322e-003
1657	9.7419	5.0909	0.	4.8721e-003
1658	9.7419	4.9091	0.	4.6974e-003
1659	9.7419	4.7273	0.	4.4211e-003
1660	9.7419	4.5455	0.	4.1852e-003
1661	9.7419	4.3636	0.	3.956e-003
1662	9.7419	4.1818	0.	3.7491e-003
1663	9.7419	4.	0.	3.5652e-003
1664	9.7419	3.8182	0.	3.4055e-003
1665	9.7419	3.6364	0.	3.2748e-003
1666	9.7419	3.4545	0.	3.1763e-003
1667	9.7419	3.2727	0.	3.1086e-003
1668	9.7419	3.0909	0.	3.0739e-003
1669	9.7419	2.9091	0.	3.0742e-003
1670	9.7419	2.7273	0.	3.1089e-003
1671	9.7419	2.5455	0.	3.1763e-003
1672	9.7419	2.3636	0.	3.2751e-003
1673	9.7419	2.1818	0.	3.4061e-003
1674	9.7419	2.	0.	3.5656e-003
1675	9.7419	1.8182	0.	3.7496e-003
1676	9.7419	1.6364	0.	3.9563e-003
1677	9.7419	1.4545	0.	4.1853e-003
1678	9.7419	1.2727	0.	4.4221e-003
1679	9.7419	1.0909	0.	4.6978e-003
1680	9.7419	0.90909	0.	4.8738e-003
1681	9.7419	0.72727	0.	5.5336e-003
1682	9.7419	0.54545	0.	4.3035e-003
1683	9.7419	0.36364	0.	0.83115
1684	9.7419	0.18182	0.	6.2147
1685	9.5581	5.8182	0.	5.522
1686	9.5581	5.6364	0.	3.2911e-002
1687	9.5581	5.4545	0.	4.8123e-003
1688	9.5581	5.2727	0.	5.9244e-003
1689	9.5581	5.0909	0.	5.0513e-003
1690	9.5581	4.9091	0.	4.7837e-003
1691	9.5581	4.7273	0.	4.4224e-003
1692	9.5581	4.5455	0.	4.1198e-003
1693	9.5581	4.3636	0.	3.8336e-003
1694	9.5581	4.1818	0.	3.5786e-003
1695	9.5581	4.	0.	3.3538e-003
1696	9.5581	3.8182	0.	3.1611e-003
1697	9.5581	3.6364	0.	3.0037e-003
1698	9.5581	3.4545	0.	2.8849e-003
1699	9.5581	3.2727	0.	2.8039e-003
1700	9.5581	3.0909	0.	2.7631e-003
1701	9.5581	2.9091	0.	2.7631e-003
1702	9.5581	2.7273	0.	2.8043e-003
1703	9.5581	2.5455	0.	2.8853e-003
1704	9.5581	2.3636	0.	3.004e-003
1705	9.5581	2.1818	0.	3.1613e-003
1706	9.5581	2.	0.	3.354e-003
1707	9.5581	1.8182	0.	3.5793e-003
1708	9.5581	1.6364	0.	3.8345e-003
1709	9.5581	1.4545	0.	4.1202e-003
1710	9.5581	1.2727	0.	4.4219e-003
1711	9.5581	1.0909	0.	4.7845e-003
1712	9.5581	0.90909	0.	5.0527e-003
1713	9.5581	0.72727	0.	5.9257e-003
1714	9.5581	0.54545	0.	4.8127e-003
1715	9.5581	0.36364	0.	3.2915e-002
1716	9.5581	0.18182	0.	5.5221
1717	9.3743	5.8182	0.	4.7904
1718	9.3743	5.6364	0.	2.4085e-002
1719	9.3743	5.4545	0.	5.4921e-003
1720	9.3743	5.2727	0.	6.4573e-003
1721	9.3743	5.0909	0.	5.3237e-003
1722	9.3743	4.9091	0.	4.9364e-003
1723	9.3743	4.7273	0.	4.4701e-003
1724	9.3743	4.5455	0.	4.0856e-003
1725	9.3743	4.3636	0.	3.7324e-003
1726	9.3743	4.1818	0.	3.4202e-003
1727	9.3743	4.	0.	3.1481e-003
1728	9.3743	3.8182	0.	2.9163e-003
1729	9.3743	3.6364	0.	2.7288e-003
1730	9.3743	3.4545	0.	2.5868e-003
1731	9.3743	3.2727	0.	2.4908e-003
1732	9.3743	3.0909	0.	2.4422e-003
1733	9.3743	2.9091	0.	2.4423e-003
1734	9.3743	2.7273	0.	2.4906e-003
1735	9.3743	2.5455	0.	2.587e-003
1736	9.3743	2.3636	0.	2.7288e-003
1737	9.3743	2.1818	0.	2.9171e-003
1738	9.3743	2.	0.	3.1489e-003
1739	9.3743	1.8182	0.	3.4206e-003
1740	9.3743	1.6364	0.	3.7328e-003
1741	9.3743	1.4545	0.	4.0871e-003
1742	9.3743	1.2727	0.	4.471e-003
1743	9.3743	1.0909	0.	4.937e-003
1744	9.3743	0.90909	0.	5.3259e-003
1745	9.3743	0.72727	0.	6.4583e-003
1746	9.3743	0.54545	0.	5.4924e-003
1747	9.3743	0.36364	0.	2.4086e-002
1748	9.3743	0.18182	0.	4.7904
1749	9.1905	5.8182	0.	4.0184
1750	9.1905	5.6364	0.	2.569e-002
1751	9.1905	5.4545	0.	6.2837e-003
1752	9.1905	5.2727	0.	7.0964e-003
1753	9.1905	5.0909	0.	5.6693e-003
1754	9.1905	4.9091	0.	5.1402e-003
1755	9.1905	4.7273	0.	4.5514e-003
1756	9.1905	4.5455	0.	4.0737e-003
1757	9.1905	4.3636	0.	3.6409e-003
1758	9.1905	4.1818	0.	3.2642e-003
1759	9.1905	4.	0.	2.9384e-003
1760	9.1905	3.8182	0.	2.6625e-003
1761	9.1905	3.6364	0.	2.4395e-003
1762	9.1905	3.4545	0.	2.2725e-003
1763	9.1905	3.2727	0.	2.1588e-003
1764	9.1905	3.0909	0.	2.1018e-003
1765	9.1905	2.9091	0.	2.102e-003
1766	9.1905	2.7273	0.	2.1594e-003
1767	9.1905	2.5455	0.	2.2726e-003
1768	9.1905	2.3636	0.	2.44e-003
1769	9.1905	2.1818	0.	2.6626e-003
1770	9.1905	2.	0.	2.9386e-003
1771	9.1905	1.8182	0.	3.2649e-003
1772	9.1905	1.6364	0.	3.6416e-003
1773	9.1905	1.4545	0.	4.0744e-003
1774	9.1905	1.2727	0.	4.5524e-003
1775	9.1905	1.0909	0.	5.1405e-003
1776	9.1905	0.90909	0.	5.671e-003
1777	9.1905	0.72727	0.	7.0976e-003
1778	9.1905	0.54545	0.	6.284e-003
1779	9.1905	0.36364	0.	2.569e-002
1780	9.1905	0.18182	0.	4.0185
1781	9.0067	5.8182	0.	3.2066
1782	9.0067	5.6364	0.	2.8357e-002
1783	9.0067	5.4545	0.	7.1778e-003
1784	9.0067	5.2727	0.	7.8367e-003
1785	9.0067	5.0909	0.	6.0855e-003
1786	9.0067	4.9091	0.	5.3956e-003
1787	9.0067	4.7273	0.	4.6686e-003
1788	9.0067	4.5455	0.	4.0845e-003
1789	9.0067	4.3636	0.	3.5644e-003
1790	9.0067	4.1818	0.	3.1139e-003
1791	9.0067	4.	0.	2.7274e-003
1792	9.0067	3.8182	0.	2.4026e-003
1793	9.0067	3.6364	0.	2.1412e-003
1794	9.0067	3.4545	0.	1.9452e-003
1795	9.0067	3.2727	0.	1.8137e-003
1796	9.0067	3.0909	0.	1.7469e-003
1797	9.0067	2.9091	0.	1.7465e-003
1798	9.0067	2.7273	0.	1.8131e-003
1799	9.0067	2.5455	0.	1.9454e-003
1800	9.0067	2.3636	0.	2.1418e-003
1801	9.0067	2.1818	0.	2.4029e-003
1802	9.0067	2.	0.	2.7278e-003
1803	9.0067	1.8182	0.	3.1144e-003
1804	9.0067	1.6364	0.	3.5644e-003
1805	9.0067	1.4545	0.	4.0855e-003
1806	9.0067	1.2727	0.	4.6691e-003
1807	9.0067	1.0909	0.	5.3964e-003
1808	9.0067	0.90909	0.	6.0873e-003
1809	9.0067	0.72727	0.	7.8381e-003
1810	9.0067	0.54545	0.	7.1782e-003
1811	9.0067	0.36364	0.	2.8358e-002
1812	9.0067	0.18182	0.	3.2066
1813	8.8229	5.8182	0.	2.3603
1814	8.8229	5.6364	0.	3.1518e-002
1815	8.8229	5.4545	0.	8.162e-003
1816	8.8229	5.2727	0.	8.6651e-003
1817	8.8229	5.0909	0.	6.561e-003
1818	8.8229	4.9091	0.	5.6928e-003
1819	8.8229	4.7273	0.	4.8122e-003
1820	8.8229	4.5455	0.	4.1105e-003
1821	8.8229	4.3636	0.	3.4904e-003
1822	8.8229	4.1818	0.	2.9604e-003
1823	8.8229	4.	0.	2.5063e-003
1824	8.8229	3.8182	0.	2.1273e-003
1825	8.8229	3.6364	0.	1.8229e-003
1826	8.8229	3.4545	0.	1.5955e-003
1827	8.8229	3.2727	0.	1.4417e-003
1828	8.8229	3.0909	0.	1.3648e-003
1829	8.8229	2.9091	0.	1.365e-003
1830	8.8229	2.7273	0.	1.4422e-003
1831	8.8229	2.5455	0.	1.5959e-003
1832	8.8229	2.3636	0.	1.8232e-003
1833	8.8229	2.1818	0.	2.1277e-003
1834	8.8229	2.	0.	2.5069e-003
1835	8.8229	1.8182	0.	2.9607e-003
1836	8.8229	1.6364	0.	3.4915e-003
1837	8.8229	1.4545	0.	4.1105e-003
1838	8.8229	1.2727	0.	4.8131e-003
1839	8.8229	1.0909	0.	5.6935e-003
1840	8.8229	0.90909	0.	6.5628e-003
1841	8.8229	0.72727	0.	8.6663e-003
1842	8.8229	0.54545	0.	8.1619e-003
1843	8.8229	0.36364	0.	3.1519e-002
1844	8.8229	0.18182	0.	2.3603
1845	8.639	5.8182	0.	1.5035
1846	8.639	5.6364	0.	3.5062e-002
1847	8.639	5.4545	0.	9.2426e-003
1848	8.639	5.2727	0.	9.5855e-003
1849	8.639	5.0909	0.	7.099e-003
1850	8.639	4.9091	0.	6.0342e-003
1851	8.639	4.7273	0.	4.9846e-003
1852	8.639	4.5455	0.	4.1522e-003
1853	8.639	4.3636	0.	3.4246e-003
1854	8.639	4.1818	0.	2.8043e-003
1855	8.639	4.	0.	2.277e-003
1856	8.639	3.8182	0.	1.8376e-003
1857	8.639	3.6364	0.	1.4869e-003
1858	8.639	3.4545	0.	1.2241e-003
1859	8.639	3.2727	0.	1.0481e-003
1860	8.639	3.0909	0.	9.5937e-004
1861	8.639	2.9091	0.	9.5913e-004
1862	8.639	2.7273	0.	1.048e-003
1863	8.639	2.5455	0.	1.2242e-003
1864	8.639	2.3636	0.	1.4869e-003
1865	8.639	2.1818	0.	1.8377e-003
1866	8.639	2.	0.	2.2777e-003
1867	8.639	1.8182	0.	2.8049e-003
1868	8.639	1.6364	0.	3.4252e-003
1869	8.639	1.4545	0.	4.1525e-003
1870	8.639	1.2727	0.	4.9853e-003
1871	8.639	1.0909	0.	6.0351e-003
1872	8.639	0.90909	0.	7.1003e-003
1873	8.639	0.72727	0.	9.5864e-003
1874	8.639	0.54545	0.	9.2427e-003
1875	8.639	0.36364	0.	3.5063e-002
1876	8.639	0.18182	0.	1.5036
1877	8.4552	5.8182	0.	0.74357
1878	8.4552	5.6364	0.	3.8965e-002
1879	8.4552	5.4545	0.	1.0425e-002
1880	8.4552	5.2727	0.	1.0601e-002
1881	8.4552	5.0909	0.	7.7008e-003
1882	8.4552	4.9091	0.	6.422e-003
1883	8.4552	4.7273	0.	5.1866e-003
1884	8.4552	4.5455	0.	4.211e-003
1885	8.4552	4.3636	0.	3.3643e-003
1886	8.4552	4.1818	0.	2.6467e-003
1887	8.4552	4.	0.	2.0379e-003
1888	8.4552	3.8182	0.	1.533e-003
1889	8.4552	3.6364	0.	1.1305e-003
1890	8.4552	3.4545	0.	8.2941e-004
1891	8.4552	3.2727	0.	6.2837e-004
1892	8.4552	3.0909	0.	5.271e-004
1893	8.4552	2.9091	0.	5.2704e-004
1894	8.4552	2.7273	0.	6.2825e-004
1895	8.4552	2.5455	0.	8.3001e-004
1896	8.4552	2.3636	0.	1.1306e-003
1897	8.4552	2.1818	0.	1.5338e-003
1898	8.4552	2.	0.	2.0381e-003
1899	8.4552	1.8182	0.	2.6468e-003
1900	8.4552	1.6364	0.	3.365e-003
1901	8.4552	1.4545	0.	4.2117e-003
1902	8.4552	1.2727	0.	5.1873e-003
1903	8.4552	1.0909	0.	6.4225e-003
1904	8.4552	0.90909	0.	7.7021e-003
1905	8.4552	0.72727	0.	1.0603e-002
1906	8.4552	0.54545	0.	1.0426e-002
1907	8.4552	0.36364	0.	3.8967e-002
1908	8.4552	0.18182	0.	0.74361
1909	8.2714	5.8182	0.	0.33384
1910	8.2714	5.6364	0.	4.3235e-002
1911	8.2714	5.4545	0.	1.1718e-002
1912	8.2714	5.2727	0.	1.1718e-002
1913	8.2714	5.0909	0.	8.3704e-003
1914	8.2714	4.9091	0.	6.8577e-003
1915	8.2714	4.7273	0.	5.4204e-003
1916	8.2714	4.5455	0.	4.2879e-003
1917	8.2714	4.3636	0.	3.3114e-003
1918	8.2714	4.1818	0.	2.4861e-003
1919	8.2714	4.	0.	1.789e-003
1920	8.2714	3.8182	0.	1.2124e-003
1921	8.2714	3.6364	0.	7.5332e-004
1922	8.2714	3.4545	0.	4.1107e-004
1923	8.2714	3.2727	0.	1.8166e-004
1924	8.2714	3.0909	0.	6.6714e-005
1925	8.2714	2.9091	0.	6.6892e-005
1926	8.2714	2.7273	0.	1.8172e-004
1927	8.2714	2.5455	0.	4.1137e-004
1928	8.2714	2.3636	0.	7.5367e-004
1929	8.2714	2.1818	0.	1.2128e-003
1930	8.2714	2.	0.	1.7892e-003
1931	8.2714	1.8182	0.	2.4862e-003
1932	8.2714	1.6364	0.	3.312e-003
1933	8.2714	1.4545	0.	4.2885e-003
1934	8.2714	1.2727	0.	5.4211e-003
1935	8.2714	1.0909	0.	6.8583e-003
1936	8.2714	0.90909	0.	8.3718e-003
1937	8.2714	0.72727	0.	1.1719e-002
1938	8.2714	0.54545	0.	1.1718e-002
1939	8.2714	0.36364	0.	4.3236e-002
1940	8.2714	0.18182	0.	0.33386
1941	8.0876	5.8182	0.	0.20125
1942	8.0876	5.6364	0.	4.7896e-002
1943	8.0876	5.4545	0.	1.3133e-002
1944	8.0876	5.2727	0.	1.2946e-002
1945	8.0876	5.0909	0.	9.1144e-003
1946	8.0876	4.9091	0.	7.3478e-003
1947	8.0876	4.7273	0.	5.6904e-003
1948	8.0876	4.5455	0.	4.3873e-003
1949	8.0876	4.3636	0.	3.2684e-003
1950	8.0876	4.1818	0.	2.3259e-003
1951	8.0876	4.	0.	1.5324e-003
1952	8.0876	3.8182	0.	8.7765e-004
1953	8.0876	3.6364	0.	3.5698e-004
1954	8.0876	3.4545	0.	-3.141e-005
1955	8.0876	3.2727	0.	-2.9051e-004
1956	8.0876	3.0909	0.	-4.2029e-004
1957	8.0876	2.9091	0.	-4.2035e-004
1958	8.0876	2.7273	0.	-2.9039e-004
1959	8.0876	2.5455	0.	-3.1174e-005
1960	8.0876	2.3636	0.	3.5715e-004
1961	8.0876	2.1818	0.	8.7788e-004
1962	8.0876	2.	0.	1.533e-003
1963	8.0876	1.8182	0.	2.3267e-003
1964	8.0876	1.6364	0.	3.2694e-003
1965	8.0876	1.4545	0.	4.3876e-003
1966	8.0876	1.2727	0.	5.6909e-003
1967	8.0876	1.0909	0.	7.3486e-003
1968	8.0876	0.90909	0.	9.1161e-003
1969	8.0876	0.72727	0.	1.2947e-002
1970	8.0876	0.54545	0.	1.3133e-002
1971	8.0876	0.36364	0.	4.7897e-002
1972	8.0876	0.18182	0.	0.20126
1973	7.9038	5.8182	0.	0.15158
1974	7.9038	5.6364	0.	5.2967e-002
1975	7.9038	5.4545	0.	1.4673e-002
1976	7.9038	5.2727	0.	1.4286e-002
1977	7.9038	5.0909	0.	9.9305e-003
1978	7.9038	4.9091	0.	7.8873e-003
1979	7.9038	4.7273	0.	5.9902e-003
1980	7.9038	4.5455	0.	4.5005e-003
1981	7.9038	4.3636	0.	3.2279e-003
1982	7.9038	4.1818	0.	2.1576e-003
1983	7.9038	4.	0.	1.2589e-003
1984	7.9038	3.8182	0.	5.1865e-004
1985	7.9038	3.6364	0.	-6.9328e-005
1986	7.9038	3.4545	0.	-5.0706e-004
1987	7.9038	3.2727	0.	-7.9944e-004
1988	7.9038	3.0909	0.	-9.4541e-004
1989	7.9038	2.9091	0.	-9.4565e-004
1990	7.9038	2.7273	0.	-7.9903e-004
1991	7.9038	2.5455	0.	-5.0701e-004
1992	7.9038	2.3636	0.	-6.8797e-005
1993	7.9038	2.1818	0.	5.1888e-004
1994	7.9038	2.	0.	1.2587e-003
1995	7.9038	1.8182	0.	2.1583e-003
1996	7.9038	1.6364	0.	3.2284e-003
1997	7.9038	1.4545	0.	4.5012e-003
1998	7.9038	1.2727	0.	5.9913e-003
1999	7.9038	1.0909	0.	7.8877e-003
2000	7.9038	0.90909	0.	9.9321e-003
2001	7.9038	0.72727	0.	1.4287e-002
2002	7.9038	0.54545	0.	1.4674e-002
2003	7.9038	0.36364	0.	5.2968e-002
2004	7.9038	0.18182	0.	0.15158
2005	7.72	5.8182	0.	0.12848
2006	7.72	5.6364	0.	5.8483e-002
2007	7.72	5.4545	0.	1.6353e-002
2008	7.72	5.2727	0.	1.5748e-002
2009	7.72	5.0909	0.	1.0826e-002
2010	7.72	4.9091	0.	8.4828e-003
2011	7.72	4.7273	0.	6.3251e-003
2012	7.72	4.5455	0.	4.6333e-003
2013	7.72	4.3636	0.	3.1919e-003
2014	7.72	4.1818	0.	1.9827e-003
2015	7.72	4.	0.	9.6927e-004
2016	7.72	3.8182	0.	1.357e-004
2017	7.72	3.6364	0.	-5.2545e-004
2018	7.72	3.4545	0.	-1.0173e-003
2019	7.72	3.2727	0.	-1.3455e-003
2020	7.72	3.0909	0.	-1.5091e-003
2021	7.72	2.9091	0.	-1.5093e-003
2022	7.72	2.7273	0.	-1.3448e-003
2023	7.72	2.5455	0.	-1.0171e-003
2024	7.72	2.3636	0.	-5.2504e-004
2025	7.72	2.1818	0.	1.3616e-004
2026	7.72	2.	0.	9.698e-004
2027	7.72	1.8182	0.	1.9834e-003
2028	7.72	1.6364	0.	3.1924e-003
2029	7.72	1.4545	0.	4.6341e-003
2030	7.72	1.2727	0.	6.3257e-003
2031	7.72	1.0909	0.	8.4835e-003
2032	7.72	0.90909	0.	1.0827e-002
2033	7.72	0.72727	0.	1.5749e-002
2034	7.72	0.54545	0.	1.6353e-002
2035	7.72	0.36364	0.	5.8485e-002
2036	7.72	0.18182	0.	0.12848
2037	7.5362	5.8182	0.	0.11674
2038	7.5362	5.6364	0.	6.449e-002
2039	7.5362	5.4545	0.	1.8191e-002
2040	7.5362	5.2727	0.	1.735e-002
2041	7.5362	5.0909	0.	1.1813e-002
2042	7.5362	4.9091	0.	9.1445e-003
2043	7.5362	4.7273	0.	6.704e-003
2044	7.5362	4.5455	0.	4.7915e-003
2045	7.5362	4.3636	0.	3.1673e-003
2046	7.5362	4.1818	0.	1.8069e-003
2047	7.5362	4.	0.	6.6812e-004
2048	7.5362	3.8182	0.	-2.6668e-004
2049	7.5362	3.6364	0.	-1.007e-003
2050	7.5362	3.4545	0.	-1.5576e-003
2051	7.5362	3.2727	0.	-1.9253e-003
2052	7.5362	3.0909	0.	-2.1089e-003
2053	7.5362	2.9091	0.	-2.1085e-003
2054	7.5362	2.7273	0.	-1.9252e-003
2055	7.5362	2.5455	0.	-1.5579e-003
2056	7.5362	2.3636	0.	-1.0068e-003
2057	7.5362	2.1818	0.	-2.6621e-004
2058	7.5362	2.	0.	6.6841e-004
2059	7.5362	1.8182	0.	1.8072e-003
2060	7.5362	1.6364	0.	3.1679e-003
2061	7.5362	1.4545	0.	4.7925e-003
2062	7.5362	1.2727	0.	6.7045e-003
2063	7.5362	1.0909	0.	9.1452e-003
2064	7.5362	0.90909	0.	1.1815e-002
2065	7.5362	0.72727	0.	1.735e-002
2066	7.5362	0.54545	0.	1.8192e-002
2067	7.5362	0.36364	0.	6.4492e-002
2068	7.5362	0.18182	0.	0.11674
2069	7.3524	5.8182	0.	0.111
2070	7.3524	5.6364	0.	7.1026e-002
2071	7.3524	5.4545	0.	2.0198e-002
2072	7.3524	5.2727	0.	1.9097e-002
2073	7.3524	5.0909	0.	1.2896e-002
2074	7.3524	4.9091	0.	9.8722e-003
2075	7.3524	4.7273	0.	7.124e-003
2076	7.3524	4.5455	0.	4.9724e-003
2077	7.3524	4.3636	0.	3.1485e-003
2078	7.3524	4.1818	0.	1.6236e-003
2079	7.3524	4.	0.	3.4926e-004
2080	7.3524	3.8182	0.	-6.959e-004
2081	7.3524	3.6364	0.	-1.5231e-003
2082	7.3524	3.4545	0.	-2.1385e-003
2083	7.3524	3.2727	0.	-2.5479e-003
2084	7.3524	3.0909	0.	-2.7527e-003
2085	7.3524	2.9091	0.	-2.7528e-003
2086	7.3524	2.7273	0.	-2.548e-003
2087	7.3524	2.5455	0.	-2.1379e-003
2088	7.3524	2.3636	0.	-1.5232e-003
2089	7.3524	2.1818	0.	-6.9555e-004
2090	7.3524	2.	0.	3.4973e-004
2091	7.3524	1.8182	0.	1.6243e-003
2092	7.3524	1.6364	0.	3.1492e-003
2093	7.3524	1.4545	0.	4.9729e-003
2094	7.3524	1.2727	0.	7.1246e-003
2095	7.3524	1.0909	0.	9.8729e-003
2096	7.3524	0.90909	0.	1.2897e-002
2097	7.3524	0.72727	0.	1.9097e-002
2098	7.3524	0.54545	0.	2.0198e-002
2099	7.3524	0.36364	0.	7.1027e-002
2100	7.3524	0.18182	0.	0.111
2101	7.1686	5.8182	0.	0.10899
2102	7.1686	5.6364	0.	7.8134e-002
2103	7.1686	5.4545	0.	2.2387e-002
2104	7.1686	5.2727	0.	2.1e-002
2105	7.1686	5.0909	0.	1.4077e-002
2106	7.1686	4.9091	0.	1.0669e-002
2107	7.1686	4.7273	0.	7.5865e-003
2108	7.1686	4.5455	0.	5.1747e-003
2109	7.1686	4.3636	0.	3.1344e-003
2110	7.1686	4.1818	0.	1.4307e-003
2111	7.1686	4.	0.	8.0077e-006
2112	7.1686	3.8182	0.	-1.1572e-003
2113	7.1686	3.6364	0.	-2.0787e-003
2114	7.1686	3.4545	0.	-2.7636e-003
2115	7.1686	3.2727	0.	-3.2199e-003
2116	7.1686	3.0909	0.	-3.4474e-003
2117	7.1686	2.9091	0.	-3.4475e-003
2118	7.1686	2.7273	0.	-3.2192e-003
2119	7.1686	2.5455	0.	-2.7636e-003
2120	7.1686	2.3636	0.	-2.0783e-003
2121	7.1686	2.1818	0.	-1.1567e-003
2122	7.1686	2.	0.	8.6542e-006
2123	7.1686	1.8182	0.	1.4311e-003
2124	7.1686	1.6364	0.	3.135e-003
2125	7.1686	1.4545	0.	5.1754e-003
2126	7.1686	1.2727	0.	7.5873e-003
2127	7.1686	1.0909	0.	1.067e-002
2128	7.1686	0.90909	0.	1.4079e-002
2129	7.1686	0.72727	0.	2.1001e-002
2130	7.1686	0.54545	0.	2.2388e-002
2131	7.1686	0.36364	0.	7.8136e-002
2132	7.1686	0.18182	0.	0.10899
2133	6.9848	5.8182	0.	0.10965
2134	6.9848	5.6364	0.	8.588e-002
2135	6.9848	5.4545	0.	2.4786e-002
2136	6.9848	5.2727	0.	2.3085e-002
2137	6.9848	5.0909	0.	1.5378e-002
2138	6.9848	4.9091	0.	1.1551e-002
2139	6.9848	4.7273	0.	8.106e-003
2140	6.9848	4.5455	0.	5.4109e-003
2141	6.9848	4.3636	0.	3.1349e-003
2142	6.9848	4.1818	0.	1.2363e-003
2143	6.9848	4.	0.	-3.4672e-004
2144	6.9848	3.8182	0.	-1.6427e-003
2145	6.9848	3.6364	0.	-2.6668e-003
2146	6.9848	3.4545	0.	-3.428e-003
2147	6.9848	3.2727	0.	-3.9341e-003
2148	6.9848	3.0909	0.	-4.1871e-003
2149	6.9848	2.9091	0.	-4.187e-003
2150	6.9848	2.7273	0.	-3.934e-003
2151	6.9848	2.5455	0.	-3.4281e-003
2152	6.9848	2.3636	0.	-2.6665e-003
2153	6.9848	2.1818	0.	-1.6423e-003
2154	6.9848	2.	0.	-3.4643e-004
2155	6.9848	1.8182	0.	1.237e-003
2156	6.9848	1.6364	0.	3.1356e-003
2157	6.9848	1.4545	0.	5.4115e-003
2158	6.9848	1.2727	0.	8.1066e-003
2159	6.9848	1.0909	0.	1.1552e-002
2160	6.9848	0.90909	0.	1.538e-002
2161	6.9848	0.72727	0.	2.3086e-002
2162	6.9848	0.54545	0.	2.4786e-002
2163	6.9848	0.36364	0.	8.5881e-002
2164	6.9848	0.18182	0.	0.10965
2165	6.801	5.8182	0.	0.11242
2166	6.801	5.6364	0.	9.4317e-002
2167	6.801	5.4545	0.	2.7413e-002
2168	6.801	5.2727	0.	2.5363e-002
2169	6.801	5.0909	0.	1.6805e-002
2170	6.801	4.9091	0.	1.2523e-002
2171	6.801	4.7273	0.	8.6828e-003
2172	6.801	4.5455	0.	5.6795e-003
2173	6.801	4.3636	0.	3.148e-003
2174	6.801	4.1818	0.	1.0377e-003
2175	6.801	4.	0.	-7.2068e-004
2176	6.801	3.8182	0.	-2.1582e-003
2177	6.801	3.6364	0.	-3.294e-003
2178	6.801	3.4545	0.	-4.1383e-003
2179	6.801	3.2727	0.	-4.6991e-003
2180	6.801	3.0909	0.	-4.9792e-003
2181	6.801	2.9091	0.	-4.9791e-003
2182	6.801	2.7273	0.	-4.699e-003
2183	6.801	2.5455	0.	-4.1381e-003
2184	6.801	2.3636	0.	-3.294e-003
2185	6.801	2.1818	0.	-2.1579e-003
2186	6.801	2.	0.	-7.2009e-004
2187	6.801	1.8182	0.	1.0381e-003
2188	6.801	1.6364	0.	3.1486e-003
2189	6.801	1.4545	0.	5.6807e-003
2190	6.801	1.2727	0.	8.6834e-003
2191	6.801	1.0909	0.	1.2524e-002
2192	6.801	0.90909	0.	1.6806e-002
2193	6.801	0.72727	0.	2.5364e-002
2194	6.801	0.54545	0.	2.7413e-002
2195	6.801	0.36364	0.	9.4319e-002
2196	6.801	0.18182	0.	0.11243
2197	6.6171	5.8182	0.	0.11707
2198	6.6171	5.6364	0.	0.10351
2199	6.6171	5.4545	0.	3.0292e-002
2200	6.6171	5.2727	0.	2.7852e-002
2201	6.6171	5.0909	0.	1.837e-002
2202	6.6171	4.9091	0.	1.3593e-002
2203	6.6171	4.7273	0.	9.323e-003
2204	6.6171	4.5455	0.	5.9856e-003
2205	6.6171	4.3636	0.	3.1754e-003
2206	6.6171	4.1818	0.	8.3461e-004
2207	6.6171	4.	0.	-1.1139e-003
2208	6.6171	3.8182	0.	-2.7063e-003
2209	6.6171	3.6364	0.	-3.9634e-003
2210	6.6171	3.4545	0.	-4.8974e-003
2211	6.6171	3.2727	0.	-5.5177e-003
2212	6.6171	3.0909	0.	-5.8275e-003
2213	6.6171	2.9091	0.	-5.8274e-003
2214	6.6171	2.7273	0.	-5.5175e-003
2215	6.6171	2.5455	0.	-4.8974e-003
2216	6.6171	2.3636	0.	-3.9633e-003
2217	6.6171	2.1818	0.	-2.706e-003
2218	6.6171	2.	0.	-1.1135e-003
2219	6.6171	1.8182	0.	8.3519e-004
2220	6.6171	1.6364	0.	3.1759e-003
2221	6.6171	1.4545	0.	5.9863e-003
2222	6.6171	1.2727	0.	9.3237e-003
2223	6.6171	1.0909	0.	1.3593e-002
2224	6.6171	0.90909	0.	1.8372e-002
2225	6.6171	0.72727	0.	2.7853e-002
2226	6.6171	0.54545	0.	3.0292e-002
2227	6.6171	0.36364	0.	0.10351
2228	6.6171	0.18182	0.	0.11707
2229	6.4333	5.8182	0.	0.12348
2230	6.4333	5.6364	0.	0.11354
2231	6.4333	5.4545	0.	3.3447e-002
2232	6.4333	5.2727	0.	3.0575e-002
2233	6.4333	5.0909	0.	2.0087e-002
2234	6.4333	4.9091	0.	1.4769e-002
2235	6.4333	4.7273	0.	1.0033e-002
2236	6.4333	4.5455	0.	6.3317e-003
2237	6.4333	4.3636	0.	3.2184e-003
2238	6.4333	4.1818	0.	6.2729e-004
2239	6.4333	4.	0.	-1.528e-003
2240	6.4333	3.8182	0.	-3.2883e-003
2241	6.4333	3.6364	0.	-4.6774e-003
2242	6.4333	3.4545	0.	-5.7091e-003
2243	6.4333	3.2727	0.	-6.394e-003
2244	6.4333	3.0909	0.	-6.7357e-003
2245	6.4333	2.9091	0.	-6.7357e-003
2246	6.4333	2.7273	0.	-6.3938e-003
2247	6.4333	2.5455	0.	-5.7087e-003
2248	6.4333	2.3636	0.	-4.677e-003
2249	6.4333	2.1818	0.	-3.2879e-003
2250	6.4333	2.	0.	-1.5277e-003
2251	6.4333	1.8182	0.	6.2814e-004
2252	6.4333	1.6364	0.	3.2189e-003
2253	6.4333	1.4545	0.	6.3323e-003
2254	6.4333	1.2727	0.	1.0034e-002
2255	6.4333	1.0909	0.	1.477e-002
2256	6.4333	0.90909	0.	2.0088e-002
2257	6.4333	0.72727	0.	3.0575e-002
2258	6.4333	0.54545	0.	3.3447e-002
2259	6.4333	0.36364	0.	0.11354
2260	6.4333	0.18182	0.	0.12348
2261	6.2495	5.8182	0.	0.13169
2262	6.2495	5.6364	0.	0.12447
2263	6.2495	5.4545	0.	3.6906e-002
2264	6.2495	5.2727	0.	3.3548e-002
2265	6.2495	5.0909	0.	2.1966e-002
2266	6.2495	4.9091	0.	1.6061e-002
2267	6.2495	4.7273	0.	1.0817e-002
2268	6.2495	4.5455	0.	6.7188e-003
2269	6.2495	4.3636	0.	3.2764e-003
2270	6.2495	4.1818	0.	4.132e-004
2271	6.2495	4.	0.	-1.967e-003
2272	6.2495	3.8182	0.	-3.9097e-003
2273	6.2495	3.6364	0.	-5.4421e-003
2274	6.2495	3.4545	0.	-6.5796e-003
2275	6.2495	3.2727	0.	-7.3348e-003
2276	6.2495	3.0909	0.	-7.7115e-003
2277	6.2495	2.9091	0.	-7.7115e-003
2278	6.2495	2.7273	0.	-7.3345e-003
2279	6.2495	2.5455	0.	-6.5793e-003
2280	6.2495	2.3636	0.	-5.4418e-003
2281	6.2495	2.1818	0.	-3.9093e-003
2282	6.2495	2.	0.	-1.9667e-003
2283	6.2495	1.8182	0.	4.1378e-004
2284	6.2495	1.6364	0.	3.2768e-003
2285	6.2495	1.4545	0.	6.7197e-003
2286	6.2495	1.2727	0.	1.0817e-002
2287	6.2495	1.0909	0.	1.6061e-002
2288	6.2495	0.90909	0.	2.1967e-002
2289	6.2495	0.72727	0.	3.3549e-002
2290	6.2495	0.54545	0.	3.6906e-002
2291	6.2495	0.36364	0.	0.12447
2292	6.2495	0.18182	0.	0.13169
2293	6.0657	5.8182	0.	0.1418
2294	6.0657	5.6364	0.	0.1364
2295	6.0657	5.4545	0.	4.0711e-002
2296	6.0657	5.2727	0.	3.6809e-002
2297	6.0657	5.0909	0.	2.4036e-002
2298	6.0657	4.9091	0.	1.7489e-002
2299	6.0657	4.7273	0.	1.1692e-002
2300	6.0657	4.5455	0.	7.1637e-003
2301	6.0657	4.3636	0.	3.3629e-003
2302	6.0657	4.1818	0.	2.0384e-004
2303	6.0657	4.	0.	-2.4207e-003
2304	6.0657	3.8182	0.	-4.5612e-003
2305	6.0657	3.6364	0.	-6.2487e-003
2306	6.0657	3.4545	0.	-7.5013e-003
2307	6.0657	3.2727	0.	-8.3324e-003
2308	6.0657	3.0909	0.	-8.747e-003
2309	6.0657	2.9091	0.	-8.7469e-003
2310	6.0657	2.7273	0.	-8.3323e-003
2311	6.0657	2.5455	0.	-7.5011e-003
2312	6.0657	2.3636	0.	-6.2485e-003
2313	6.0657	2.1818	0.	-4.5608e-003
2314	6.0657	2.	0.	-2.4203e-003
2315	6.0657	1.8182	0.	2.0442e-004
2316	6.0657	1.6364	0.	3.3635e-003
2317	6.0657	1.4545	0.	7.1644e-003
2318	6.0657	1.2727	0.	1.1693e-002
2319	6.0657	1.0909	0.	1.749e-002
2320	6.0657	0.90909	0.	2.4037e-002
2321	6.0657	0.72727	0.	3.681e-002
2322	6.0657	0.54545	0.	4.0711e-002
2323	6.0657	0.36364	0.	0.13641
2324	6.0657	0.18182	0.	0.1418
2325	5.8819	5.8182	0.	0.15401
2326	5.8819	5.6364	0.	0.14944
2327	5.8819	5.4545	0.	4.4897e-002
2328	5.8819	5.2727	0.	4.0383e-002
2329	5.8819	5.0909	0.	2.6312e-002
2330	5.8819	4.9091	0.	1.9066e-002
2331	5.8819	4.7273	0.	1.2667e-002
2332	5.8819	4.5455	0.	7.6689e-003
2333	5.8819	4.3636	0.	3.4788e-003
2334	5.8819	4.1818	0.	-1.7621e-006
2335	5.8819	4.	0.	-2.8913e-003
2336	5.8819	3.8182	0.	-5.2464e-003
2337	5.8819	3.6364	0.	-7.1023e-003
2338	5.8819	3.4545	0.	-8.4791e-003
2339	5.8819	3.2727	0.	-9.3923e-003
2340	5.8819	3.0909	0.	-9.8479e-003
2341	5.8819	2.9091	0.	-9.8478e-003
2342	5.8819	2.7273	0.	-9.3922e-003
2343	5.8819	2.5455	0.	-8.4789e-003
2344	5.8819	2.3636	0.	-7.1019e-003
2345	5.8819	2.1818	0.	-5.2461e-003
2346	5.8819	2.	0.	-2.8908e-003
2347	5.8819	1.8182	0.	-1.1497e-006
2348	5.8819	1.6364	0.	3.4793e-003
2349	5.8819	1.4545	0.	7.6698e-003
2350	5.8819	1.2727	0.	1.2667e-002
2351	5.8819	1.0909	0.	1.9067e-002
2352	5.8819	0.90909	0.	2.6313e-002
2353	5.8819	0.72727	0.	4.0384e-002
2354	5.8819	0.54545	0.	4.4897e-002
2355	5.8819	0.36364	0.	0.14944
2356	5.8819	0.18182	0.	0.15401
2357	5.6981	5.8182	0.	0.16855
2358	5.6981	5.6364	0.	0.16369
2359	5.6981	5.4545	0.	4.9504e-002
2360	5.6981	5.2727	0.	4.43e-002
2361	5.6981	5.0909	0.	2.8814e-002
2362	5.6981	4.9091	0.	2.0803e-002
2363	5.6981	4.7273	0.	1.3749e-002
2364	5.6981	4.5455	0.	8.2407e-003
2365	5.6981	4.3636	0.	3.6264e-003
2366	5.6981	4.1818	0.	-2.0296e-004
2367	5.6981	4.	0.	-3.3797e-003
2368	5.6981	3.8182	0.	-5.9673e-003
2369	5.6981	3.6364	0.	-8.0048e-003
2370	5.6981	3.4545	0.	-9.5159e-003
2371	5.6981	3.2727	0.	-1.0518e-002
2372	5.6981	3.0909	0.	-1.1017e-002
2373	5.6981	2.9091	0.	-1.1017e-002
2374	5.6981	2.7273	0.	-1.0518e-002
2375	5.6981	2.5455	0.	-9.5158e-003
2376	5.6981	2.3636	0.	-8.0046e-003
2377	5.6981	2.1818	0.	-5.9669e-003
2378	5.6981	2.	0.	-3.3793e-003
2379	5.6981	1.8182	0.	-2.0247e-004
2380	5.6981	1.6364	0.	3.6272e-003
2381	5.6981	1.4545	0.	8.2411e-003
2382	5.6981	1.2727	0.	1.3749e-002
2383	5.6981	1.0909	0.	2.0804e-002
2384	5.6981	0.90909	0.	2.8815e-002
2385	5.6981	0.72727	0.	4.4301e-002
2386	5.6981	0.54545	0.	4.9504e-002
2387	5.6981	0.36364	0.	0.16369
2388	5.6981	0.18182	0.	0.16855
2389	5.5143	5.8182	0.	0.18578
2390	5.5143	5.6364	0.	0.17928
2391	5.5143	5.4545	0.	5.458e-002
2392	5.5143	5.2727	0.	4.8597e-002
2393	5.5143	5.0909	0.	3.1566e-002
2394	5.5143	4.9091	0.	2.2721e-002
2395	5.5143	4.7273	0.	1.4951e-002
2396	5.5143	4.5455	0.	8.887e-003
2397	5.5143	4.3636	0.	3.8128e-003
2398	5.5143	4.1818	0.	-3.9532e-004
2399	5.5143	4.	0.	-3.8833e-003
2400	5.5143	3.8182	0.	-6.7215e-003
2401	5.5143	3.6364	0.	-8.955e-003
2402	5.5143	3.4545	0.	-1.061e-002
2403	5.5143	3.2727	0.	-1.1707e-002
2404	5.5143	3.0909	0.	-1.2254e-002
2405	5.5143	2.9091	0.	-1.2254e-002
2406	5.5143	2.7273	0.	-1.1707e-002
2407	5.5143	2.5455	0.	-1.061e-002
2408	5.5143	2.3636	0.	-8.9546e-003
2409	5.5143	2.1818	0.	-6.7212e-003
2410	5.5143	2.	0.	-3.8828e-003
2411	5.5143	1.8182	0.	-3.9477e-004
2412	5.5143	1.6364	0.	3.8134e-003
2413	5.5143	1.4545	0.	8.8875e-003
2414	5.5143	1.2727	0.	1.4952e-002
2415	5.5143	1.0909	0.	2.2722e-002
2416	5.5143	0.90909	0.	3.1567e-002
2417	5.5143	0.72727	0.	4.8598e-002
2418	5.5143	0.54545	0.	5.458e-002
2419	5.5143	0.36364	0.	0.17928
2420	5.5143	0.18182	0.	0.18578
2421	5.3305	5.8182	0.	0.20612
2422	5.3305	5.6364	0.	0.19634
2423	5.3305	5.4545	0.	6.0184e-002
2424	5.3305	5.2727	0.	5.3317e-002
2425	5.3305	5.0909	0.	3.46e-002
2426	5.3305	4.9091	0.	2.4841e-002
2427	5.3305	4.7273	0.	1.6291e-002
2428	5.3305	4.5455	0.	9.6222e-003
2429	5.3305	4.3636	0.	4.048e-003
2430	5.3305	4.1818	0.	-5.7046e-004
2431	5.3305	4.	0.	-4.3942e-003
2432	5.3305	3.8182	0.	-7.5028e-003
2433	5.3305	3.6364	0.	-9.9467e-003
2434	5.3305	3.4545	0.	-1.1757e-002
2435	5.3305	3.2727	0.	-1.2955e-002
2436	5.3305	3.0909	0.	-1.3552e-002
2437	5.3305	2.9091	0.	-1.3552e-002
2438	5.3305	2.7273	0.	-1.2955e-002
2439	5.3305	2.5455	0.	-1.1757e-002
2440	5.3305	2.3636	0.	-9.9465e-003
2441	5.3305	2.1818	0.	-7.5023e-003
2442	5.3305	2.	0.	-4.3939e-003
2443	5.3305	1.8182	0.	-5.6991e-004
2444	5.3305	1.6364	0.	4.0485e-003
2445	5.3305	1.4545	0.	9.6228e-003
2446	5.3305	1.2727	0.	1.6292e-002
2447	5.3305	1.0909	0.	2.4842e-002
2448	5.3305	0.90909	0.	3.4601e-002
2449	5.3305	0.72727	0.	5.3318e-002
2450	5.3305	0.54545	0.	6.0184e-002
2451	5.3305	0.36364	0.	0.19634
2452	5.3305	0.18182	0.	0.20612
2453	5.1467	5.8182	0.	0.23011
2454	5.1467	5.6364	0.	0.21504
2455	5.1467	5.4545	0.	6.6382e-002
2456	5.1467	5.2727	0.	5.8511e-002
2457	5.1467	5.0909	0.	3.795e-002
2458	5.1467	4.9091	0.	2.7191e-002
2459	5.1467	4.7273	0.	1.7791e-002
2460	5.1467	4.5455	0.	1.0462e-002
2461	5.1467	4.3636	0.	4.3449e-003
2462	5.1467	4.1818	0.	-7.1721e-004
2463	5.1467	4.	0.	-4.9031e-003
2464	5.1467	3.8182	0.	-8.3015e-003
2465	5.1467	3.6364	0.	-1.097e-002
2466	5.1467	3.4545	0.	-1.2945e-002
2467	5.1467	3.2727	0.	-1.4251e-002
2468	5.1467	3.0909	0.	-1.4902e-002
2469	5.1467	2.9091	0.	-1.4901e-002
2470	5.1467	2.7273	0.	-1.4251e-002
2471	5.1467	2.5455	0.	-1.2945e-002
2472	5.1467	2.3636	0.	-1.097e-002
2473	5.1467	2.1818	0.	-8.3012e-003
2474	5.1467	2.	0.	-4.9027e-003
2475	5.1467	1.8182	0.	-7.1666e-004
2476	5.1467	1.6364	0.	4.3454e-003
2477	5.1467	1.4545	0.	1.0462e-002
2478	5.1467	1.2727	0.	1.7791e-002
2479	5.1467	1.0909	0.	2.7191e-002
2480	5.1467	0.90909	0.	3.7951e-002
2481	5.1467	0.72727	0.	5.8512e-002
2482	5.1467	0.54545	0.	6.6382e-002
2483	5.1467	0.36364	0.	0.21505
2484	5.1467	0.18182	0.	0.23011
2485	4.9629	5.8182	0.	0.25842
2486	4.9629	5.6364	0.	0.23555
2487	4.9629	5.4545	0.	7.3235e-002
2488	4.9629	5.2727	0.	6.422e-002
2489	4.9629	5.0909	0.	4.164e-002
2490	4.9629	4.9091	0.	2.9784e-002
2491	4.9629	4.7273	0.	1.9455e-002
2492	4.9629	4.5455	0.	1.1409e-002
2493	4.9629	4.3636	0.	4.7036e-003
2494	4.9629	4.1818	0.	-8.3734e-004
2495	4.9629	4.	0.	-5.4121e-003
2496	4.9629	3.8182	0.	-9.1199e-003
2497	4.9629	3.6364	0.	-1.2027e-002
2498	4.9629	3.4545	0.	-1.4176e-002
2499	4.9629	3.2727	0.	-1.5596e-002
2500	4.9629	3.0909	0.	-1.6302e-002
2501	4.9629	2.9091	0.	-1.6302e-002
2502	4.9629	2.7273	0.	-1.5596e-002
2503	4.9629	2.5455	0.	-1.4176e-002
2504	4.9629	2.3636	0.	-1.2027e-002
2505	4.9629	2.1818	0.	-9.1197e-003
2506	4.9629	2.	0.	-5.4116e-003
2507	4.9629	1.8182	0.	-8.3679e-004
2508	4.9629	1.6364	0.	4.7041e-003
2509	4.9629	1.4545	0.	1.141e-002
2510	4.9629	1.2727	0.	1.9456e-002
2511	4.9629	1.0909	0.	2.9785e-002
2512	4.9629	0.90909	0.	4.1642e-002
2513	4.9629	0.72727	0.	6.422e-002
2514	4.9629	0.54545	0.	7.3235e-002
2515	4.9629	0.36364	0.	0.23556
2516	4.9629	0.18182	0.	0.25842
2517	4.779	5.8182	0.	0.29189
2518	4.779	5.6364	0.	0.25808
2519	4.779	5.4545	0.	8.0827e-002
2520	4.779	5.2727	0.	7.0505e-002
2521	4.779	5.0909	0.	4.5715e-002
2522	4.779	4.9091	0.	3.2654e-002
2523	4.779	4.7273	0.	2.1311e-002
2524	4.779	4.5455	0.	1.2483e-002
2525	4.779	4.3636	0.	5.1404e-003
2526	4.779	4.1818	0.	-9.1583e-004
2527	4.779	4.	0.	-5.9058e-003
2528	4.779	3.8182	0.	-9.9422e-003
2529	4.779	3.6364	0.	-1.3101e-002
2530	4.779	3.4545	0.	-1.5432e-002
2531	4.779	3.2727	0.	-1.697e-002
2532	4.779	3.0909	0.	-1.7735e-002
2533	4.779	2.9091	0.	-1.7735e-002
2534	4.779	2.7273	0.	-1.697e-002
2535	4.779	2.5455	0.	-1.5432e-002
2536	4.779	2.3636	0.	-1.3101e-002
2537	4.779	2.1818	0.	-9.9418e-003
2538	4.779	2.	0.	-5.9055e-003
2539	4.779	1.8182	0.	-9.1534e-004
2540	4.779	1.6364	0.	5.141e-003
2541	4.779	1.4545	0.	1.2484e-002
2542	4.779	1.2727	0.	2.1311e-002
2543	4.779	1.0909	0.	3.2654e-002
2544	4.779	0.90909	0.	4.5716e-002
2545	4.779	0.72727	0.	7.0505e-002
2546	4.779	0.54545	0.	8.0827e-002
2547	4.779	0.36364	0.	0.25808
2548	4.779	0.18182	0.	0.29189
2549	4.5952	5.8182	0.	0.33158
2550	4.5952	5.6364	0.	0.28285
2551	4.5952	5.4545	0.	8.9252e-002
2552	4.5952	5.2727	0.	7.7432e-002
2553	4.5952	5.0909	0.	5.0216e-002
2554	4.5952	4.9091	0.	3.5831e-002
2555	4.5952	4.7273	0.	2.3379e-002
2556	4.5952	4.5455	0.	1.3701e-002
2557	4.5952	4.3636	0.	5.6694e-003
2558	4.5952	4.1818	0.	-9.3911e-004
2559	4.5952	4.	0.	-6.3705e-003
2560	4.5952	3.8182	0.	-1.0752e-002
2561	4.5952	3.6364	0.	-1.4173e-002
2562	4.5952	3.4545	0.	-1.6692e-002
2563	4.5952	3.2727	0.	-1.8352e-002
2564	4.5952	3.0909	0.	-1.9176e-002
2565	4.5952	2.9091	0.	-1.9176e-002
2566	4.5952	2.7273	0.	-1.8352e-002
2567	4.5952	2.5455	0.	-1.6692e-002
2568	4.5952	2.3636	0.	-1.4173e-002
2569	4.5952	2.1818	0.	-1.0752e-002
2570	4.5952	2.	0.	-6.3701e-003
2571	4.5952	1.8182	0.	-9.3874e-004
2572	4.5952	1.6364	0.	5.6701e-003
2573	4.5952	1.4545	0.	1.3702e-002
2574	4.5952	1.2727	0.	2.3379e-002
2575	4.5952	1.0909	0.	3.5831e-002
2576	4.5952	0.90909	0.	5.0217e-002
2577	4.5952	0.72727	0.	7.7433e-002
2578	4.5952	0.54545	0.	8.9252e-002
2579	4.5952	0.36364	0.	0.28286
2580	4.5952	0.18182	0.	0.33158
2581	4.4114	5.8182	0.	0.37882
2582	4.4114	5.6364	0.	0.31014
2583	4.4114	5.4545	0.	9.8616e-002
2584	4.4114	5.2727	0.	8.5075e-002
2585	4.4114	5.0909	0.	5.5191e-002
2586	4.4114	4.9091	0.	3.9348e-002
2587	4.4114	4.7273	0.	2.5683e-002
2588	4.4114	4.5455	0.	1.5081e-002
2589	4.4114	4.3636	0.	6.307e-003
2590	4.4114	4.1818	0.	-8.9107e-004
2591	4.4114	4.	0.	-6.7875e-003
2592	4.4114	3.8182	0.	-1.1529e-002
2593	4.4114	3.6364	0.	-1.5219e-002
2594	4.4114	3.4545	0.	-1.7929e-002
2595	4.4114	3.2727	0.	-1.971e-002
2596	4.4114	3.0909	0.	-2.0594e-002
2597	4.4114	2.9091	0.	-2.0594e-002
2598	4.4114	2.7273	0.	-1.971e-002
2599	4.4114	2.5455	0.	-1.7929e-002
2600	4.4114	2.3636	0.	-1.5218e-002
2601	4.4114	2.1818	0.	-1.1528e-002
2602	4.4114	2.	0.	-6.7871e-003
2603	4.4114	1.8182	0.	-8.9063e-004
2604	4.4114	1.6364	0.	6.3076e-003
2605	4.4114	1.4545	0.	1.5082e-002
2606	4.4114	1.2727	0.	2.5683e-002
2607	4.4114	1.0909	0.	3.9348e-002
2608	4.4114	0.90909	0.	5.5192e-002
2609	4.4114	0.72727	0.	8.5075e-002
2610	4.4114	0.54545	0.	9.8616e-002
2611	4.4114	0.36364	0.	0.31014
2612	4.4114	0.18182	0.	0.37882
2613	4.2276	5.8182	0.	0.43533
2614	4.2276	5.6364	0.	0.34025
2615	4.2276	5.4545	0.	0.10904
2616	4.2276	5.2727	0.	9.3519e-002
2617	4.2276	5.0909	0.	6.0698e-002
2618	4.2276	4.9091	0.	4.3245e-002
2619	4.2276	4.7273	0.	2.8252e-002
2620	4.2276	4.5455	0.	1.6647e-002
2621	4.2276	4.3636	0.	7.0748e-003
2622	4.2276	4.1818	0.	-7.4793e-004
2623	4.2276	4.	0.	-7.1295e-003
2624	4.2276	3.8182	0.	-1.2239e-002
2625	4.2276	3.6364	0.	-1.62e-002
2626	4.2276	3.4545	0.	-1.9099e-002
2627	4.2276	3.2727	0.	-2.1e-002
2628	4.2276	3.0909	0.	-2.194e-002
2629	4.2276	2.9091	0.	-2.1941e-002
2630	4.2276	2.7273	0.	-2.1e-002
2631	4.2276	2.5455	0.	-1.9099e-002
2632	4.2276	2.3636	0.	-1.62e-002
2633	4.2276	2.1818	0.	-1.2239e-002
2634	4.2276	2.	0.	-7.1292e-003
2635	4.2276	1.8182	0.	-7.4764e-004
2636	4.2276	1.6364	0.	7.0752e-003
2637	4.2276	1.4545	0.	1.6647e-002
2638	4.2276	1.2727	0.	2.8253e-002
2639	4.2276	1.0909	0.	4.3246e-002
2640	4.2276	0.90909	0.	6.0699e-002
2641	4.2276	0.72727	0.	9.3519e-002
2642	4.2276	0.54545	0.	0.10904
2643	4.2276	0.36364	0.	0.34025
2644	4.2276	0.18182	0.	0.43533
2645	4.0438	5.8182	0.	0.50328
2646	4.0438	5.6364	0.	0.37352
2647	4.0438	5.4545	0.	0.12066
2648	4.0438	5.2727	0.	0.10284
2649	4.0438	5.0909	0.	6.6781e-002
2650	4.0438	4.9091	0.	4.755e-002
2651	4.0438	4.7273	0.	3.1101e-002
2652	4.0438	4.5455	0.	1.8407e-002
2653	4.0438	4.3636	0.	7.9813e-003
2654	4.0438	4.1818	0.	-4.9784e-004
2655	4.0438	4.	0.	-7.3783e-003
2656	4.0438	3.8182	0.	-1.2858e-002
2657	4.0438	3.6364	0.	-1.7084e-002
2658	4.0438	3.4545	0.	-2.0163e-002
2659	4.0438	3.2727	0.	-2.2175e-002
2660	4.0438	3.0909	0.	-2.3169e-002
2661	4.0438	2.9091	0.	-2.3169e-002
2662	4.0438	2.7273	0.	-2.2175e-002
2663	4.0438	2.5455	0.	-2.0163e-002
2664	4.0438	2.3636	0.	-1.7084e-002
2665	4.0438	2.1818	0.	-1.2857e-002
2666	4.0438	2.	0.	-7.3779e-003
2667	4.0438	1.8182	0.	-4.9737e-004
2668	4.0438	1.6364	0.	7.982e-003
2669	4.0438	1.4545	0.	1.8407e-002
2670	4.0438	1.2727	0.	3.1102e-002
2671	4.0438	1.0909	0.	4.755e-002
2672	4.0438	0.90909	0.	6.6783e-002
2673	4.0438	0.72727	0.	0.10284
2674	4.0438	0.54545	0.	0.12066
2675	4.0438	0.36364	0.	0.37352
2676	4.0438	0.18182	0.	0.50328
2677	3.86	5.8182	0.	0.58556
2678	3.86	5.6364	0.	0.41038
2679	3.86	5.4545	0.	0.13364
2680	3.86	5.2727	0.	0.11316
2681	3.86	5.0909	0.	7.3506e-002
2682	3.86	4.9091	0.	5.2302e-002
2683	3.86	4.7273	0.	3.4258e-002
2684	3.86	4.5455	0.	2.0385e-002
2685	3.86	4.3636	0.	9.0514e-003
2686	3.86	4.1818	0.	-1.0976e-004
2687	3.86	4.	0.	-7.4938e-003
2688	3.86	3.8182	0.	-1.3334e-002
2689	3.86	3.6364	0.	-1.781e-002
2690	3.86	3.4545	0.	-2.1052e-002
2691	3.86	3.2727	0.	-2.3161e-002
2692	3.86	3.0909	0.	-2.42e-002
2693	3.86	2.9091	0.	-2.42e-002
2694	3.86	2.7273	0.	-2.3161e-002
2695	3.86	2.5455	0.	-2.1052e-002
2696	3.86	2.3636	0.	-1.7809e-002
2697	3.86	2.1818	0.	-1.3334e-002
2698	3.86	2.	0.	-7.4935e-003
2699	3.86	1.8182	0.	-1.0919e-004
2700	3.86	1.6364	0.	9.0519e-003
2701	3.86	1.4545	0.	2.0385e-002
2702	3.86	1.2727	0.	3.4259e-002
2703	3.86	1.0909	0.	5.2302e-002
2704	3.86	0.90909	0.	7.3507e-002
2705	3.86	0.72727	0.	0.11316
2706	3.86	0.54545	0.	0.13364
2707	3.86	0.36364	0.	0.41038
2708	3.86	0.18182	0.	0.58556
2709	3.6762	5.8182	0.	0.68597
2710	3.6762	5.6364	0.	0.45131
2711	3.6762	5.4545	0.	0.14816
2712	3.6762	5.2727	0.	0.12458
2713	3.6762	5.0909	0.	8.0943e-002
2714	3.6762	4.9091	0.	5.7548e-002
2715	3.6762	4.7273	0.	3.7755e-002
2716	3.6762	4.5455	0.	2.2607e-002
2717	3.6762	4.3636	0.	1.0317e-002
2718	3.6762	4.1818	0.	4.5741e-004
2719	3.6762	4.	0.	-7.4219e-003
2720	3.6762	3.8182	0.	-1.36e-002
2721	3.6762	3.6364	0.	-1.8294e-002
2722	3.6762	3.4545	0.	-2.1671e-002
2723	3.6762	3.2727	0.	-2.3855e-002
2724	3.6762	3.0909	0.	-2.4927e-002
2725	3.6762	2.9091	0.	-2.4927e-002
2726	3.6762	2.7273	0.	-2.3855e-002
2727	3.6762	2.5455	0.	-2.1671e-002
2728	3.6762	2.3636	0.	-1.8294e-002
2729	3.6762	2.1818	0.	-1.3599e-002
2730	3.6762	2.	0.	-7.4215e-003
2731	3.6762	1.8182	0.	4.5797e-004
2732	3.6762	1.6364	0.	1.0317e-002
2733	3.6762	1.4545	0.	2.2608e-002
2734	3.6762	1.2727	0.	3.7756e-002
2735	3.6762	1.0909	0.	5.7549e-002
2736	3.6762	0.90909	0.	8.0944e-002
2737	3.6762	0.72727	0.	0.12458
2738	3.6762	0.54545	0.	0.14816
2739	3.6762	0.36364	0.	0.45131
2740	3.6762	0.18182	0.	0.68597
2741	3.4924	5.8182	0.	0.80963
2742	3.4924	5.6364	0.	0.4969
2743	3.4924	5.4545	0.	0.16444
2744	3.4924	5.2727	0.	0.13723
2745	3.4924	5.0909	0.	8.9156e-002
2746	3.4924	4.9091	0.	6.3319e-002
2747	3.4924	4.7273	0.	4.1606e-002
2748	3.4924	4.5455	0.	2.5088e-002
2749	3.4924	4.3636	0.	1.1797e-002
2750	3.4924	4.1818	0.	1.2392e-003
2751	3.4924	4.	0.	-7.1087e-003
2752	3.4924	3.8182	0.	-1.3581e-002
2753	3.4924	3.6364	0.	-1.8448e-002
2754	3.4924	3.4545	0.	-2.1916e-002
2755	3.4924	3.2727	0.	-2.4141e-002
2756	3.4924	3.0909	0.	-2.5229e-002
2757	3.4924	2.9091	0.	-2.5229e-002
2758	3.4924	2.7273	0.	-2.4141e-002
2759	3.4924	2.5455	0.	-2.1915e-002
2760	3.4924	2.3636	0.	-1.8448e-002
2761	3.4924	2.1818	0.	-1.3581e-002
2762	3.4924	2.	0.	-7.1084e-003
2763	3.4924	1.8182	0.	1.2396e-003
2764	3.4924	1.6364	0.	1.1797e-002
2765	3.4924	1.4545	0.	2.5089e-002
2766	3.4924	1.2727	0.	4.1606e-002
2767	3.4924	1.0909	0.	6.332e-002
2768	3.4924	0.90909	0.	8.9157e-002
2769	3.4924	0.72727	0.	0.13723
2770	3.4924	0.54545	0.	0.16444
2771	3.4924	0.36364	0.	0.4969
2772	3.4924	0.18182	0.	0.80963
2773	3.3086	5.8182	0.	0.96358
2774	3.3086	5.6364	0.	0.54783
2775	3.3086	5.4545	0.	0.18272
2776	3.3086	5.2727	0.	0.15124
2777	3.3086	5.0909	0.	9.8213e-002
2778	3.3086	4.9091	0.	6.9647e-002
2779	3.3086	4.7273	0.	4.5826e-002
2780	3.3086	4.5455	0.	2.7843e-002
2781	3.3086	4.3636	0.	1.3522e-002
2782	3.3086	4.1818	0.	2.2852e-003
2783	3.3086	4.	0.	-6.4793e-003
2784	3.3086	3.8182	0.	-1.3179e-002
2785	3.3086	3.6364	0.	-1.8148e-002
2786	3.3086	3.4545	0.	-2.1646e-002
2787	3.3086	3.2727	0.	-2.3869e-002
2788	3.3086	3.0909	0.	-2.4948e-002
2789	3.3086	2.9091	0.	-2.4948e-002
2790	3.3086	2.7273	0.	-2.3869e-002
2791	3.3086	2.5455	0.	-2.1646e-002
2792	3.3086	2.3636	0.	-1.8148e-002
2793	3.3086	2.1818	0.	-1.3179e-002
2794	3.3086	2.	0.	-6.4789e-003
2795	3.3086	1.8182	0.	2.2856e-003
2796	3.3086	1.6364	0.	1.3522e-002
2797	3.3086	1.4545	0.	2.7843e-002
2798	3.3086	1.2727	0.	4.5827e-002
2799	3.3086	1.0909	0.	6.9648e-002
2800	3.3086	0.90909	0.	9.8214e-002
2801	3.3086	0.72727	0.	0.15124
2802	3.3086	0.54545	0.	0.18272
2803	3.3086	0.36364	0.	0.54783
2804	3.3086	0.18182	0.	0.96358
2805	3.1248	5.8182	0.	1.1577
2806	3.1248	5.6364	0.	0.60494
2807	3.1248	5.4545	0.	0.2033
2808	3.1248	5.2727	0.	0.1668
2809	3.1248	5.0909	0.	0.1082
2810	3.1248	4.9091	0.	7.6574e-002
2811	3.1248	4.7273	0.	5.0442e-002
2812	3.1248	4.5455	0.	3.0903e-002
2813	3.1248	4.3636	0.	1.5544e-002
2814	3.1248	4.1818	0.	3.6787e-003
2815	3.1248	4.	0.	-5.4186e-003
2816	3.1248	3.8182	0.	-1.2248e-002
2817	3.1248	3.6364	0.	-1.7224e-002
2818	3.1248	3.4545	0.	-2.067e-002
2819	3.1248	3.2727	0.	-2.2832e-002
2820	3.1248	3.0909	0.	-2.3873e-002
2821	3.1248	2.9091	0.	-2.3873e-002
2822	3.1248	2.7273	0.	-2.2832e-002
2823	3.1248	2.5455	0.	-2.067e-002
2824	3.1248	2.3636	0.	-1.7224e-002
2825	3.1248	2.1818	0.	-1.2248e-002
2826	3.1248	2.	0.	-5.4182e-003
2827	3.1248	1.8182	0.	3.679e-003
2828	3.1248	1.6364	0.	1.5545e-002
2829	3.1248	1.4545	0.	3.0904e-002
2830	3.1248	1.2727	0.	5.0443e-002
2831	3.1248	1.0909	0.	7.6575e-002
2832	3.1248	0.90909	0.	0.1082
2833	3.1248	0.72727	0.	0.1668
2834	3.1248	0.54545	0.	0.2033
2835	3.1248	0.36364	0.	0.60495
2836	3.1248	0.18182	0.	1.1577
2837	2.941	5.8182	0.	1.4063
2838	2.941	5.6364	0.	0.66926
2839	2.941	5.4545	0.	0.22653
2840	2.941	5.2727	0.	0.18407
2841	2.941	5.0909	0.	0.11918
2842	2.941	4.9091	0.	8.4119e-002
2843	2.941	4.7273	0.	5.5459e-002
2844	2.941	4.5455	0.	3.4287e-002
2845	2.941	4.3636	0.	1.7913e-002
2846	2.941	4.1818	0.	5.5079e-003
2847	2.941	4.	0.	-3.7975e-003
2848	2.941	3.8182	0.	-1.0622e-002
2849	2.941	3.6364	0.	-1.548e-002
2850	2.941	3.4545	0.	-1.8772e-002
2851	2.941	3.2727	0.	-2.0801e-002
2852	2.941	3.0909	0.	-2.1766e-002
2853	2.941	2.9091	0.	-2.1766e-002
2854	2.941	2.7273	0.	-2.0801e-002
2855	2.941	2.5455	0.	-1.8772e-002
2856	2.941	2.3636	0.	-1.548e-002
2857	2.941	2.1818	0.	-1.0622e-002
2858	2.941	2.	0.	-3.7974e-003
2859	2.941	1.8182	0.	5.5082e-003
2860	2.941	1.6364	0.	1.7914e-002
2861	2.941	1.4545	0.	3.4288e-002
2862	2.941	1.2727	0.	5.5459e-002
2863	2.941	1.0909	0.	8.4119e-002
2864	2.941	0.90909	0.	0.11918
2865	2.941	0.72727	0.	0.18407
2866	2.941	0.54545	0.	0.22653
2867	2.941	0.36364	0.	0.66926
2868	2.941	0.18182	0.	1.4063
2869	2.7571	5.8182	0.	1.7303
2870	2.7571	5.6364	0.	0.74203
2871	2.7571	5.4545	0.	0.25281
2872	2.7571	5.2727	0.	0.20326
2873	2.7571	5.0909	0.	0.13124
2874	2.7571	4.9091	0.	9.2305e-002
2875	2.7571	4.7273	0.	6.0891e-002
2876	2.7571	4.5455	0.	3.8038e-002
2877	2.7571	4.3636	0.	2.0718e-002
2878	2.7571	4.1818	0.	7.9147e-003
2879	2.7571	4.	0.	-1.4255e-003
2880	2.7571	3.8182	0.	-8.0707e-003
2881	2.7571	3.6364	0.	-1.2655e-002
2882	2.7571	3.4545	0.	-1.5671e-002
2883	2.7571	3.2727	0.	-1.7483e-002
2884	2.7571	3.0909	0.	-1.833e-002
2885	2.7571	2.9091	0.	-1.833e-002
2886	2.7571	2.7273	0.	-1.7483e-002
2887	2.7571	2.5455	0.	-1.5671e-002
2888	2.7571	2.3636	0.	-1.2655e-002
2889	2.7571	2.1818	0.	-8.0706e-003
2890	2.7571	2.	0.	-1.4252e-003
2891	2.7571	1.8182	0.	7.915e-003
2892	2.7571	1.6364	0.	2.0719e-002
2893	2.7571	1.4545	0.	3.8038e-002
2894	2.7571	1.2727	0.	6.0891e-002
2895	2.7571	1.0909	0.	9.2305e-002
2896	2.7571	0.90909	0.	0.13124
2897	2.7571	0.72727	0.	0.20326
2898	2.7571	0.54545	0.	0.25281
2899	2.7571	0.36364	0.	0.74204
2900	2.7571	0.18182	0.	1.7303
2901	2.5733	5.8182	0.	2.1623
2902	2.5733	5.6364	0.	0.82479
2903	2.5733	5.4545	0.	0.28262
2904	2.5733	5.2727	0.	0.22457
2905	2.5733	5.0909	0.	0.14442
2906	2.5733	4.9091	0.	0.10111
2907	2.5733	4.7273	0.	6.6722e-002
2908	2.5733	4.5455	0.	4.2184e-002
2909	2.5733	4.3636	0.	2.4051e-002
2910	2.5733	4.1818	0.	1.1056e-002
2911	2.5733	4.	0.	1.9088e-003
2912	2.5733	3.8182	0.	-4.3432e-003
2913	2.5733	3.6364	0.	-8.4753e-003
2914	2.5733	3.4545	0.	-1.1079e-002
2915	2.5733	3.2727	0.	-1.2584e-002
2916	2.5733	3.0909	0.	-1.3269e-002
2917	2.5733	2.9091	0.	-1.3269e-002
2918	2.5733	2.7273	0.	-1.2584e-002
2919	2.5733	2.5455	0.	-1.1079e-002
2920	2.5733	2.3636	0.	-8.4751e-003
2921	2.5733	2.1818	0.	-4.343e-003
2922	2.5733	2.	0.	1.9091e-003
2923	2.5733	1.8182	0.	1.1056e-002
2924	2.5733	1.6364	0.	2.4051e-002
2925	2.5733	1.4545	0.	4.2184e-002
2926	2.5733	1.2727	0.	6.6722e-002
2927	2.5733	1.0909	0.	0.10111
2928	2.5733	0.90909	0.	0.14442
2929	2.5733	0.72727	0.	0.22457
2930	2.5733	0.54545	0.	0.28262
2931	2.5733	0.36364	0.	0.8248
2932	2.5733	0.18182	0.	2.1623
2933	2.3895	5.8182	0.	2.7538
2934	2.3895	5.6364	0.	0.91955
2935	2.3895	5.4545	0.	0.31665
2936	2.3895	5.2727	0.	0.24838
2937	2.3895	5.0909	0.	0.1589
2938	2.3895	4.9091	0.	0.11068
2939	2.3895	4.7273	0.	7.3117e-002
2940	2.3895	4.5455	0.	4.6966e-002
2941	2.3895	4.3636	0.	2.8244e-002
2942	2.3895	4.1818	0.	1.5342e-002
2943	2.3895	4.	0.	6.6705e-003
2944	2.3895	3.8182	0.	1.0565e-003
2945	2.3895	3.6364	0.	-2.4317e-003
2946	2.3895	3.4545	0.	-4.4869e-003
2947	2.3895	3.2727	0.	-5.6006e-003
2948	2.3895	3.0909	0.	-6.0824e-003
2949	2.3895	2.9091	0.	-6.0825e-003
2950	2.3895	2.7273	0.	-5.6005e-003
2951	2.3895	2.5455	0.	-4.4868e-003
2952	2.3895	2.3636	0.	-2.4317e-003
2953	2.3895	2.1818	0.	1.0567e-003
2954	2.3895	2.	0.	6.6707e-003
2955	2.3895	1.8182	0.	1.5342e-002
2956	2.3895	1.6364	0.	2.8244e-002
2957	2.3895	1.4545	0.	4.6966e-002
2958	2.3895	1.2727	0.	7.3118e-002
2959	2.3895	1.0909	0.	0.11068
2960	2.3895	0.90909	0.	0.1589
2961	2.3895	0.72727	0.	0.24838
2962	2.3895	0.54545	0.	0.31665
2963	2.3895	0.36364	0.	0.91955
2964	2.3895	0.18182	0.	2.7538
2965	2.2057	5.8182	0.	3.5904
2966	2.2057	5.6364	0.	1.0285
2967	2.2057	5.4545	0.	0.35526
2968	2.2057	5.2727	0.	0.27457
2969	2.2057	5.0909	0.	0.17432
2970	2.2057	4.9091	0.	0.12057
2971	2.2057	4.7273	0.	7.9695e-002
2972	2.2057	4.5455	0.	5.2104e-002
2973	2.2057	4.3636	0.	3.3114e-002
2974	2.2057	4.1818	0.	2.0661e-002
2975	2.2057	4.	0.	1.2782e-002
2976	2.2057	3.8182	0.	8.0525e-003
2977	2.2057	3.6364	0.	5.3799e-003
2978	2.2057	3.4545	0.	3.9818e-003
2979	2.2057	3.2727	0.	3.3213e-003
2980	2.2057	3.0909	0.	3.0692e-003
2981	2.2057	2.9091	0.	3.0692e-003
2982	2.2057	2.7273	0.	3.3214e-003
2983	2.2057	2.5455	0.	3.9819e-003
2984	2.2057	2.3636	0.	5.3801e-003
2985	2.2057	2.1818	0.	8.0526e-003
2986	2.2057	2.	0.	1.2782e-002
2987	2.2057	1.8182	0.	2.0661e-002
2988	2.2057	1.6364	0.	3.3114e-002
2989	2.2057	1.4545	0.	5.2104e-002
2990	2.2057	1.2727	0.	7.9695e-002
2991	2.2057	1.0909	0.	0.12057
2992	2.2057	0.90909	0.	0.17432
2993	2.2057	0.72727	0.	0.27457
2994	2.2057	0.54545	0.	0.35526
2995	2.2057	0.36364	0.	1.0285
2996	2.2057	0.18182	0.	3.5904
2997	2.0219	5.8182	0.	4.8218
2998	2.0219	5.6364	0.	1.1559
2999	2.0219	5.4545	0.	0.40091
3000	2.0219	5.2727	0.	0.30526
3001	2.0219	5.0909	0.	0.19266
3002	2.0219	4.9091	0.	0.13286
3003	2.0219	4.7273	0.	8.8708e-002
3004	2.0219	4.5455	0.	6.0056e-002
3005	2.0219	4.3636	0.	4.128e-002
3006	2.0219	4.1818	0.	2.972e-002
3007	2.0219	4.	0.	2.2971e-002
3008	2.0219	3.8182	0.	1.9345e-002
3009	2.0219	3.6364	0.	1.7611e-002
3010	2.0219	3.4545	0.	1.6925e-002
3011	2.0219	3.2727	0.	1.6735e-002
3012	2.0219	3.0909	0.	1.6716e-002
3013	2.0219	2.9091	0.	1.6716e-002
3014	2.0219	2.7273	0.	1.6735e-002
3015	2.0219	2.5455	0.	1.6924e-002
3016	2.0219	2.3636	0.	1.7611e-002
3017	2.0219	2.1818	0.	1.9345e-002
3018	2.0219	2.	0.	2.2971e-002
3019	2.0219	1.8182	0.	2.972e-002
3020	2.0219	1.6364	0.	4.1281e-002
3021	2.0219	1.4545	0.	6.0056e-002
3022	2.0219	1.2727	0.	8.8708e-002
3023	2.0219	1.0909	0.	0.13286
3024	2.0219	0.90909	0.	0.19266
3025	2.0219	0.72727	0.	0.30526
3026	2.0219	0.54545	0.	0.40091
3027	2.0219	0.36364	0.	1.1559
3028	2.0219	0.18182	0.	4.8217
3029	1.8381	5.8182	0.	6.7152
3030	1.8381	5.6364	0.	1.3014
3031	1.8381	5.4545	0.	0.44893
3032	1.8381	5.2727	0.	0.33424
3033	1.8381	5.0909	0.	0.20692
3034	1.8381	4.9091	0.	0.14026
3035	1.8381	4.7273	0.	9.2826e-002
3036	1.8381	4.5455	0.	6.3494e-002
3037	1.8381	4.3636	0.	4.5367e-002
3038	1.8381	4.1818	0.	3.5023e-002
3039	1.8381	4.	0.	2.957e-002
3040	1.8381	3.8182	0.	2.7076e-002
3041	1.8381	3.6364	0.	2.622e-002
3042	1.8381	3.4545	0.	2.6152e-002
3043	1.8381	3.2727	0.	2.6347e-002
3044	1.8381	3.0909	0.	2.6511e-002
3045	1.8381	2.9091	0.	2.6511e-002
3046	1.8381	2.7273	0.	2.6348e-002
3047	1.8381	2.5455	0.	2.6152e-002
3048	1.8381	2.3636	0.	2.622e-002
3049	1.8381	2.1818	0.	2.7076e-002
3050	1.8381	2.	0.	2.957e-002
3051	1.8381	1.8182	0.	3.5023e-002
3052	1.8381	1.6364	0.	4.5367e-002
3053	1.8381	1.4545	0.	6.3494e-002
3054	1.8381	1.2727	0.	9.2826e-002
3055	1.8381	1.0909	0.	0.14026
3056	1.8381	0.90909	0.	0.20692
3057	1.8381	0.72727	0.	0.33423
3058	1.8381	0.54545	0.	0.44893
3059	1.8381	0.36364	0.	1.3014
3060	1.8381	0.18182	0.	6.7151
3061	1.6543	5.8182	0.	9.7699
3062	1.6543	5.6364	0.	1.4878
3063	1.6543	5.4545	0.	0.52473
3064	1.6543	5.2727	0.	0.38924
3065	1.6543	5.0909	0.	0.24659
3066	1.6543	4.9091	0.	0.17385
3067	1.6543	4.7273	0.	0.12443
3068	1.6543	4.5455	0.	9.5726e-002
3069	1.6543	4.3636	0.	7.9257e-002
3070	1.6543	4.1818	0.	7.075e-002
3071	1.6543	4.	0.	6.6871e-002
3072	1.6543	3.8182	0.	6.5556e-002
3073	1.6543	3.6364	0.	6.5494e-002
3074	1.6543	3.4545	0.	6.5915e-002
3075	1.6543	3.2727	0.	6.6381e-002
3076	1.6543	3.0909	0.	6.6662e-002
3077	1.6543	2.9091	0.	6.6662e-002
3078	1.6543	2.7273	0.	6.6381e-002
3079	1.6543	2.5455	0.	6.5915e-002
3080	1.6543	2.3636	0.	6.5494e-002
3081	1.6543	2.1818	0.	6.5556e-002
3082	1.6543	2.	0.	6.6872e-002
3083	1.6543	1.8182	0.	7.075e-002
3084	1.6543	1.6364	0.	7.9257e-002
3085	1.6543	1.4545	0.	9.5726e-002
3086	1.6543	1.2727	0.	0.12443
3087	1.6543	1.0909	0.	0.17385
3088	1.6543	0.90909	0.	0.24659
3089	1.6543	0.72727	0.	0.38924
3090	1.6543	0.54545	0.	0.52473
3091	1.6543	0.36364	0.	1.4878
3092	1.6543	0.18182	0.	9.7698
3093	1.4705	5.8182	0.	14.799
3094	1.4705	5.6364	0.	1.6531
3095	1.4705	5.4545	0.	0.53756
3096	1.4705	5.2727	0.	0.36583
3097	1.4705	5.0909	0.	0.19917
3098	1.4705	4.9091	0.	0.11599
3099	1.4705	4.7273	0.	6.2175e-002
3100	1.4705	4.5455	0.	3.2433e-002
3101	1.4705	4.3636	0.	1.6079e-002
3102	1.4705	4.1818	0.	7.8499e-003
3103	1.4705	4.	0.	4.0198e-003
3104	1.4705	3.8182	0.	2.4858e-003
3105	1.4705	3.6364	0.	2.0387e-003
3106	1.4705	3.4545	0.	2.0381e-003
3107	1.4705	3.2727	0.	2.1579e-003
3108	1.4705	3.0909	0.	2.2471e-003
3109	1.4705	2.9091	0.	2.247e-003
3110	1.4705	2.7273	0.	2.1579e-003
3111	1.4705	2.5455	0.	2.0381e-003
3112	1.4705	2.3636	0.	2.0388e-003
3113	1.4705	2.1818	0.	2.4859e-003
3114	1.4705	2.	0.	4.02e-003
3115	1.4705	1.8182	0.	7.85e-003
3116	1.4705	1.6364	0.	1.6079e-002
3117	1.4705	1.4545	0.	3.2433e-002
3118	1.4705	1.2727	0.	6.2175e-002
3119	1.4705	1.0909	0.	0.11599
3120	1.4705	0.90909	0.	0.19917
3121	1.4705	0.72727	0.	0.36583
3122	1.4705	0.54545	0.	0.53756
3123	1.4705	0.36364	0.	1.6531
3124	1.4705	0.18182	0.	14.799
3125	1.2867	5.8182	0.	23.048
3126	1.2867	5.6364	0.	2.0852
3127	1.2867	5.4545	0.	0.86473
3128	1.2867	5.2727	0.	0.68852
3129	1.2867	5.0909	0.	0.51986
3130	1.2867	4.9091	0.	0.44361
3131	1.2867	4.7273	0.	0.39848
3132	1.2867	4.5455	0.	0.37724
3133	1.2867	4.3636	0.	0.36764
3134	1.2867	4.1818	0.	0.36423
3135	1.2867	4.	0.	0.36355
3136	1.2867	3.8182	0.	0.36395
3137	1.2867	3.6364	0.	0.3646
3138	1.2867	3.4545	0.	0.3652
3139	1.2867	3.2727	0.	0.36561
3140	1.2867	3.0909	0.	0.36581
3141	1.2867	2.9091	0.	0.36581
3142	1.2867	2.7273	0.	0.36561
3143	1.2867	2.5455	0.	0.3652
3144	1.2867	2.3636	0.	0.3646
3145	1.2867	2.1818	0.	0.36395
3146	1.2867	2.	0.	0.36355
3147	1.2867	1.8182	0.	0.36423
3148	1.2867	1.6364	0.	0.36764
3149	1.2867	1.4545	0.	0.37724
3150	1.2867	1.2727	0.	0.39848
3151	1.2867	1.0909	0.	0.44361
3152	1.2867	0.90909	0.	0.51986
3153	1.2867	0.72727	0.	0.68852
3154	1.2867	0.54545	0.	0.86473
3155	1.2867	0.36364	0.	2.0852
3156	1.2867	0.18182	0.	23.048
3157	1.1029	5.8182	0.	35.222
3158	1.1029	5.6364	0.	1.6954
3159	1.1029	5.4545	0.	4.0296e-002
3160	1.1029	5.2727	0.	-0.30041
3161	1.1029	5.0909	0.	-0.57016
3162	1.1029	4.9091	0.	-0.70712
3163	1.1029	4.7273	0.	-0.79301
3164	1.1029	4.5455	0.	-0.84416
3165	1.1029	4.3636	0.	-0.87744
3166	1.1029	4.1818	0.	-0.90019
3167	1.1029	4.	0.	-0.91671
3168	1.1029	3.8182	0.	-0.92904
3169	1.1029	3.6364	0.	-0.93826
3170	1.1029	3.4545	0.	-0.94489
3171	1.1029	3.2727	0.	-0.9492
3172	1.1029	3.0909	0.	-0.95132
3173	1.1029	2.9091	0.	-0.95132
3174	1.1029	2.7273	0.	-0.9492
3175	1.1029	2.5455	0.	-0.94489
3176	1.1029	2.3636	0.	-0.93826
3177	1.1029	2.1818	0.	-0.92904
3178	1.1029	2.	0.	-0.91671
3179	1.1029	1.8182	0.	-0.90019
3180	1.1029	1.6364	0.	-0.87744
3181	1.1029	1.4545	0.	-0.84416
3182	1.1029	1.2727	0.	-0.79301
3183	1.1029	1.0909	0.	-0.70712
3184	1.1029	0.90909	0.	-0.57016
3185	1.1029	0.72727	0.	-0.30041
3186	1.1029	0.54545	0.	4.0295e-002
3187	1.1029	0.36364	0.	1.6954
3188	1.1029	0.18182	0.	35.222
3189	0.91905	5.8182	0.	52.817
3190	0.91905	5.6364	0.	4.931
3191	0.91905	5.4545	0.	3.9614
3192	0.91905	5.2727	0.	4.0211
3193	0.91905	5.0909	0.	4.0173
3194	0.91905	4.9091	0.	4.0784
3195	0.91905	4.7273	0.	4.1398
3196	0.91905	4.5455	0.	4.1989
3197	0.91905	4.3636	0.	4.2485
3198	0.91905	4.1818	0.	4.2883
3199	0.91905	4.	0.	4.3193
3200	0.91905	3.8182	0.	4.3429
3201	0.91905	3.6364	0.	4.3603
3202	0.91905	3.4545	0.	4.3726
3203	0.91905	3.2727	0.	4.3804
3204	0.91905	3.0909	0.	4.3841
3205	0.91905	2.9091	0.	4.3841
3206	0.91905	2.7273	0.	4.3804
3207	0.91905	2.5455	0.	4.3726
3208	0.91905	2.3636	0.	4.3603
3209	0.91905	2.1818	0.	4.3429
3210	0.91905	2.	0.	4.3193
3211	0.91905	1.8182	0.	4.2883
3212	0.91905	1.6364	0.	4.2485
3213	0.91905	1.4545	0.	4.1989
3214	0.91905	1.2727	0.	4.1398
3215	0.91905	1.0909	0.	4.0784
3216	0.91905	0.90909	0.	4.0173
3217	0.91905	0.72727	0.	4.0211
3218	0.91905	0.54545	0.	3.9614
3219	0.91905	0.36364	0.	4.931
3220	0.91905	0.18182	0.	52.817
3221	0.73524	5.8182	0.	71.986
3222	0.73524	5.6364	0.	-5.7395
3223	0.73524	5.4545	0.	-10.626
3224	0.73524	5.2727	0.	-12.432
3225	0.73524	5.0909	0.	-13.676
3226	0.73524	4.9091	0.	-14.467
3227	0.73524	4.7273	0.	-15.03
3228	0.73524	4.5455	0.	-15.443
3229	0.73524	4.3636	0.	-15.757
3230	0.73524	4.1818	0.	-15.999
3231	0.73524	4.	0.	-16.186
3232	0.73524	3.8182	0.	-16.33
3233	0.73524	3.6364	0.	-16.438
3234	0.73524	3.4545	0.	-16.514
3235	0.73524	3.2727	0.	-16.564
3236	0.73524	3.0909	0.	-16.588
3237	0.73524	2.9091	0.	-16.588
3238	0.73524	2.7273	0.	-16.564
3239	0.73524	2.5455	0.	-16.514
3240	0.73524	2.3636	0.	-16.438
3241	0.73524	2.1818	0.	-16.33
3242	0.73524	2.	0.	-16.186
3243	0.73524	1.8182	0.	-15.999
3244	0.73524	1.6364	0.	-15.757
3245	0.73524	1.4545	0.	-15.443
3246	0.73524	1.2727	0.	-15.03
3247	0.73524	1.0909	0.	-14.467
3248	0.73524	0.90909	0.	-13.676
3249	0.73524	0.72727	0.	-12.432
3250	0.73524	0.54545	0.	-10.626
3251	0.73524	0.36364	0.	-5.7395
3252	0.73524	0.18182	0.	71.985
3253	0.55143	5.8182	0.	103.75
3254	0.55143	5.6364	0.	40.524
3255	0.55143	5.4545	0.	49.239
3256	0.55143	5.2727	0.	53.889
3257	0.55143	5.0909	0.	57.125
3258	0.55143	4.9091	0.	59.513
3259	0.55143	4.7273	0.	61.291
3260	0.55143	4.5455	0.	62.643
3261	0.55143	4.3636	0.	63.684
3262	0.55143	4.1818	0.	64.492
3263	0.55143	4.	0.	65.118
3264	0.55143	3.8182	0.	65.598
3265	0.55143	3.6364	0.	65.957
3266	0.55143	3.4545	0.	66.213
3267	0.55143	3.2727	0.	66.378
3268	0.55143	3.0909	0.	66.458
3269	0.55143	2.9091	0.	66.458
3270	0.55143	2.7273	0.	66.378
3271	0.55143	2.5455	0.	66.213
3272	0.55143	2.3636	0.	65.957
3273	0.55143	2.1818	0.	65.598
3274	0.55143	2.	0.	65.118
3275	0.55143	1.8182	0.	64.492
3276	0.55143	1.6364	0.	63.684
3277	0.55143	1.4545	0.	62.643
3278	0.55143	1.2727	0.	61.291
3279	0.55143	1.0909	0.	59.513
3280	0.55143	0.90909	0.	57.125
3281	0.55143	0.72727	0.	53.889
3282	0.55143	0.54545	0.	49.239
3283	0.55143	0.36364	0.	40.524
3284	0.55143	0.18182	0.	103.75
3285	0.36762	5.8182	0.	92.274
3286	0.36762	5.6364	0.	-137.97
3287	0.36762	5.4545	0.	-183.82
3288	0.36762	5.2727	0.	-206.97
3289	0.36762	5.0909	0.	-221.87
3290	0.36762	4.9091	0.	-232.34
3291	0.36762	4.7273	0.	-239.98
3292	0.36762	4.5455	0.	-245.74
3293	0.36762	4.3636	0.	-250.15
3294	0.36762	4.1818	0.	-253.57
3295	0.36762	4.	0.	-256.21
3296	0.36762	3.8182	0.	-258.23
3297	0.36762	3.6364	0.	-259.74
3298	0.36762	3.4545	0.	-260.81
3299	0.36762	3.2727	0.	-261.5
3300	0.36762	3.0909	0.	-261.84
3301	0.36762	2.9091	0.	-261.84
3302	0.36762	2.7273	0.	-261.5
3303	0.36762	2.5455	0.	-260.81
3304	0.36762	2.3636	0.	-259.74
3305	0.36762	2.1818	0.	-258.23
3306	0.36762	2.	0.	-256.21
3307	0.36762	1.8182	0.	-253.57
3308	0.36762	1.6364	0.	-250.15
3309	0.36762	1.4545	0.	-245.74
3310	0.36762	1.2727	0.	-239.98
3311	0.36762	1.0909	0.	-232.34
3312	0.36762	0.90909	0.	-221.87
3313	0.36762	0.72727	0.	-206.97
3314	0.36762	0.54545	0.	-183.82
3315	0.36762	0.36364	0.	-137.97
3316	0.36762	0.18182	0.	92.274
3317	0.18381	5.8182	0.	314.37
3318	0.18381	5.6364	0.	610.57
3319	0.18381	5.4545	0.	743.33
3320	0.18381	5.2727	0.	828.8
3321	0.18381	5.0909	0.	883.62
3322	0.18381	4.9091	0.	923.21
3323	0.18381	4.7273	0.	952.27
3324	0.18381	4.5455	0.	974.34
3325	0.18381	4.3636	0.	991.3
3326	0.18381	4.1818	0.	1004.4
3327	0.18381	4.	0.	1014.6
3328	0.18381	3.8182	0.	1022.4
3329	0.18381	3.6364	0.	1028.3
3330	0.18381	3.4545	0.	1032.4
3331	0.18381	3.2727	0.	1035.1
3332	0.18381	3.0909	0.	1036.4
3333	0.18381	2.9091	0.	1036.4
3334	0.18381	2.7273	0.	1035.1
3335	0.18381	2.5455	0.	1032.4
3336	0.18381	2.3636	0.	1028.3
3337	0.18381	2.1818	0.	1022.4
3338	0.18381	2.	0.	1014.6
3339	0.18381	1.8182	0.	1004.4
3340	0.18381	1.6364	0.	991.3
3341	0.18381	1.4545	0.	974.34
3342	0.18381	1.2727	0.	952.27
3343	0.18381	1.0909	0.	923.21
3344	0.18381	0.90909	0.	883.62
3345	0.18381	0.72727	0.	828.8
3346	0.18381	0.54545	0.	743.33
3347	0.18381	0.36364	0.	610.57
3348	0.18381	0.18182	0.	314.37
3349	19.648	0.18182	0.	23.115
3350	19.648	0.36364	0.	41.274
3351	19.648	0.54545	0.	72.344
3352	19.648	0.72727	0.	109.49
3353	19.648	0.90909	0.	152.63
3354	19.648	1.0909	0.	203.49
3355	19.648	1.2727	0.	265.82
3356	19.648	1.4545	0.	340.74
3357	19.648	1.6364	0.	452.72
3358	19.648	1.8182	0.	466.23
3359	19.648	2.	0.	255.6
3360	19.648	2.1818	0.	157.82
3361	19.648	2.3636	0.	202.81
3362	19.648	2.5455	0.	200.82
3363	19.648	2.7273	0.	199.73
3364	19.648	2.9091	0.	197.8
3365	19.648	3.0909	0.	197.8
3366	19.648	3.2727	0.	199.73
3367	19.648	3.4545	0.	200.82
3368	19.648	3.6364	0.	202.81
3369	19.648	3.8182	0.	157.82
3370	19.648	4.	0.	255.6
3371	19.648	4.1818	0.	466.23
3372	19.648	4.3636	0.	452.72
3373	19.648	4.5455	0.	340.75
3374	19.648	4.7273	0.	265.82
3375	19.648	4.9091	0.	203.49
3376	19.648	5.0909	0.	152.63
3377	19.648	5.2727	0.	109.49
3378	19.648	5.4545	0.	72.345
3379	19.648	5.6364	0.	41.274
3380	19.648	5.8182	0.	23.115
3381	19.829	0.18182	0.	17.729
3382	19.829	0.36364	0.	19.224
3383	19.829	0.54545	0.	34.041
3384	19.829	0.72727	0.	55.556
3385	19.829	0.90909	0.	80.672
3386	19.829	1.0909	0.	107.68
3387	19.829	1.2727	0.	134.74
3388	19.829	1.4545	0.	154.43
3389	19.829	1.6364	0.	151.18
3390	19.829	1.8182	0.	112.43
3391	19.829	2.	0.	21.361
3392	19.829	2.1818	0.	22.576
3393	19.829	2.3636	0.	55.095
3394	19.829	2.5455	0.	88.047
3395	19.829	2.7273	0.	103.46
3396	19.829	2.9091	0.	110.19
3397	19.829	3.0909	0.	110.19
3398	19.829	3.2727	0.	103.46
3399	19.829	3.4545	0.	88.047
3400	19.829	3.6364	0.	55.095
3401	19.829	3.8182	0.	22.576
3402	19.829	4.	0.	21.361
3403	19.829	4.1818	0.	112.43
3404	19.829	4.3636	0.	151.18
3405	19.829	4.5455	0.	154.43
3406	19.829	4.7273	0.	134.74
3407	19.829	4.9091	0.	107.68
3408	19.829	5.0909	0.	80.672
3409	19.829	5.2727	0.	55.556
3410	19.829	5.4545	0.	34.041
3411	19.829	5.6364	0.	19.224
3412	19.829	5.8182	0.	17.729
3413	20.011	0.18182	0.	18.815
3414	20.011	0.36364	0.	15.504
3415	20.011	0.54545	0.	20.767
3416	20.011	0.72727	0.	30.565
3417	20.011	0.90909	0.	42.202
3418	20.011	1.0909	0.	52.806
3419	20.011	1.2727	0.	58.411
3420	20.011	1.4545	0.	53.361
3421	20.011	1.6364	0.	29.54
3422	20.011	1.8182	0.	3.2433
3423	20.011	2.	0.	-3.1152
3424	20.011	2.1818	0.	-1.283
3425	20.011	2.3636	0.	3.6923
3426	20.011	2.5455	0.	5.7367
3427	20.011	2.7273	0.	18.041
3428	20.011	2.9091	0.	27.095
3429	20.011	3.0909	0.	27.095
3430	20.011	3.2727	0.	18.041
3431	20.011	3.4545	0.	5.7367
3432	20.011	3.6364	0.	3.6923
3433	20.011	3.8182	0.	-1.283
3434	20.011	4.	0.	-3.1152
3435	20.011	4.1818	0.	3.2433
3436	20.011	4.3636	0.	29.541
3437	20.011	4.5455	0.	53.361
3438	20.011	4.7273	0.	58.412
3439	20.011	4.9091	0.	52.806
3440	20.011	5.0909	0.	42.202
3441	20.011	5.2727	0.	30.565
3442	20.011	5.4545	0.	20.767
3443	20.011	5.6364	0.	15.504
3444	20.011	5.8182	0.	18.815
3445	20.192	0.18182	0.	19.813
3446	20.192	0.36364	0.	15.424
3447	20.192	0.54545	0.	15.524
3448	20.192	0.72727	0.	17.387
3449	20.192	0.90909	0.	19.231
3450	20.192	1.0909	0.	18.791
3451	20.192	1.2727	0.	13.672
3452	20.192	1.4545	0.	5.4761
3453	20.192	1.6364	0.	2.042
3454	20.192	1.8182	0.	0.7948
3455	20.192	2.	0.	1.1674
3456	20.192	2.1818	0.	1.1766
3457	20.192	2.3636	0.	0.57483
3458	20.192	2.5455	0.	0.80004
3459	20.192	2.7273	0.	0.63519
3460	20.192	2.9091	0.	0.44511
3461	20.192	3.0909	0.	0.4451
3462	20.192	3.2727	0.	0.63519
3463	20.192	3.4545	0.	0.80004
3464	20.192	3.6364	0.	0.57483
3465	20.192	3.8182	0.	1.1766
3466	20.192	4.	0.	1.1674
3467	20.192	4.1818	0.	0.79481
3468	20.192	4.3636	0.	2.0421
3469	20.192	4.5455	0.	5.4761
3470	20.192	4.7273	0.	13.673
3471	20.192	4.9091	0.	18.791
3472	20.192	5.0909	0.	19.231
3473	20.192	5.2727	0.	17.388
3474	20.192	5.4545	0.	15.524
3475	20.192	5.6364	0.	15.424
3476	20.192	5.8182	0.	19.813
3477	20.373	0.18182	0.	19.841
3478	20.373	0.36364	0.	15.664
3479	20.373	0.54545	0.	13.027
3480	20.373	0.72727	0.	10.256
3481	20.373	0.90909	0.	6.8953
3482	20.373	1.0909	0.	3.552
3483	20.373	1.2727	0.	1.7322
3484	20.373	1.4545	0.	0.92052
3485	20.373	1.6364	0.	0.46539
3486	20.373	1.8182	0.	0.25955
3487	20.373	2.	0.	4.9086e-002
3488	20.373	2.1818	0.	0.10896
3489	20.373	2.3636	0.	0.39156
3490	20.373	2.5455	0.	0.45307
3491	20.373	2.7273	0.	0.43777
3492	20.373	2.9091	0.	0.41409
3493	20.373	3.0909	0.	0.41409
3494	20.373	3.2727	0.	0.43777
3495	20.373	3.4545	0.	0.45307
3496	20.373	3.6364	0.	0.39156
3497	20.373	3.8182	0.	0.10896
3498	20.373	4.	0.	4.9086e-002
3499	20.373	4.1818	0.	0.25955
3500	20.373	4.3636	0.	0.46539
3501	20.373	4.5455	0.	0.92053
3502	20.373	4.7273	0.	1.7322
3503	20.373	4.9091	0.	3.5521
3504	20.373	5.0909	0.	6.8954
3505	20.373	5.2727	0.	10.256
3506	20.373	5.4545	0.	13.027
3507	20.373	5.6364	0.	15.664
3508	20.373	5.8182	0.	19.841
3509	20.555	0.18182	0.	19.143
3510	20.555	0.36364	0.	15.472
3511	20.555	0.54545	0.	11.479
3512	20.555	0.72727	0.	6.3099
3513	20.555	0.90909	0.	2.3196
3514	20.555	1.0909	0.	1.0692
3515	20.555	1.2727	0.	0.63955
3516	20.555	1.4545	0.	0.4269
3517	20.555	1.6364	0.	0.30067
3518	20.555	1.8182	0.	0.22142
3519	20.555	2.	0.	0.22087
3520	20.555	2.1818	0.	0.24197
3521	20.555	2.3636	0.	0.26147
3522	20.555	2.5455	0.	0.31307
3523	20.555	2.7273	0.	0.34615
3524	20.555	2.9091	0.	0.35328
3525	20.555	3.0909	0.	0.35328
3526	20.555	3.2727	0.	0.34615
3527	20.555	3.4545	0.	0.31307
3528	20.555	3.6364	0.	0.26147
3529	20.555	3.8182	0.	0.24197
3530	20.555	4.	0.	0.22087
3531	20.555	4.1818	0.	0.22142
3532	20.555	4.3636	0.	0.30067
3533	20.555	4.5455	0.	0.4269
3534	20.555	4.7273	0.	0.63955
3535	20.555	4.9091	0.	1.0692
3536	20.555	5.0909	0.	2.3197
3537	20.555	5.2727	0.	6.3099
3538	20.555	5.4545	0.	11.479
3539	20.555	5.6364	0.	15.472
3540	20.555	5.8182	0.	19.143
3541	20.736	0.18182	0.	18.01
3542	20.736	0.36364	0.	14.799
3543	20.736	0.54545	0.	10.239
3544	20.736	0.72727	0.	4.0477
3545	20.736	0.90909	0.	1.0668
3546	20.736	1.0909	0.	0.54252
3547	20.736	1.2727	0.	0.35897
3548	20.736	1.4545	0.	0.26027
3549	20.736	1.6364	0.	0.19628
3550	20.736	1.8182	0.	0.15605
3551	20.736	2.	0.	0.13743
3552	20.736	2.1818	0.	0.1552
3553	20.736	2.3636	0.	0.20115
3554	20.736	2.5455	0.	0.24395
3555	20.736	2.7273	0.	0.2741
3556	20.736	2.9091	0.	0.28922
3557	20.736	3.0909	0.	0.28922
3558	20.736	3.2727	0.	0.2741
3559	20.736	3.4545	0.	0.24395
3560	20.736	3.6364	0.	0.20115
3561	20.736	3.8182	0.	0.1552
3562	20.736	4.	0.	0.13743
3563	20.736	4.1818	0.	0.15606
3564	20.736	4.3636	0.	0.19628
3565	20.736	4.5455	0.	0.26027
3566	20.736	4.7273	0.	0.35897
3567	20.736	4.9091	0.	0.54252
3568	20.736	5.0909	0.	1.0668
3569	20.736	5.2727	0.	4.0478
3570	20.736	5.4545	0.	10.239
3571	20.736	5.6364	0.	14.799
3572	20.736	5.8182	0.	18.01
3573	20.917	0.18182	0.	16.708
3574	20.917	0.36364	0.	13.83
3575	20.917	0.54545	0.	9.1596
3576	20.917	0.72727	0.	2.7301
3577	20.917	0.90909	0.	0.62286
3578	20.917	1.0909	0.	0.34246
3579	20.917	1.2727	0.	0.24245
3580	20.917	1.4545	0.	0.18867
3581	20.917	1.6364	0.	0.1548
3582	20.917	1.8182	0.	0.13538
3583	20.917	2.	0.	0.13226
3584	20.917	2.1818	0.	0.14377
3585	20.917	2.3636	0.	0.16653
3586	20.917	2.5455	0.	0.19517
3587	20.917	2.7273	0.	0.21938
3588	20.917	2.9091	0.	0.23259
3589	20.917	3.0909	0.	0.23259
3590	20.917	3.2727	0.	0.21939
3591	20.917	3.4545	0.	0.19516
3592	20.917	3.6364	0.	0.16653
3593	20.917	3.8182	0.	0.14377
3594	20.917	4.	0.	0.13226
3595	20.917	4.1818	0.	0.13538
3596	20.917	4.3636	0.	0.1548
3597	20.917	4.5455	0.	0.18867
3598	20.917	4.7273	0.	0.24245
3599	20.917	4.9091	0.	0.34247
3600	20.917	5.0909	0.	0.62286
3601	20.917	5.2727	0.	2.7302
3602	20.917	5.4545	0.	9.1596
3603	20.917	5.6364	0.	13.83
3604	20.917	5.8182	0.	16.708
3605	21.099	0.18182	0.	15.429
3606	21.099	0.36364	0.	12.779
3607	21.099	0.54545	0.	8.262
3608	21.099	0.72727	0.	1.9841
3609	21.099	0.90909	0.	0.41546
3610	21.099	1.0909	0.	0.24252
3611	21.099	1.2727	0.	0.18095
3612	21.099	1.4545	0.	0.14812
3613	21.099	1.6364	0.	0.12787
3614	21.099	1.8182	0.	0.11671
3615	21.099	2.	0.	0.11501
3616	21.099	2.1818	0.	0.12378
3617	21.099	2.3636	0.	0.14083
3618	21.099	2.5455	0.	0.16064
3619	21.099	2.7273	0.	0.17763
3620	21.099	2.9091	0.	0.18733
3621	21.099	3.0909	0.	0.18733
3622	21.099	3.2727	0.	0.17763
3623	21.099	3.4545	0.	0.16064
3624	21.099	3.6364	0.	0.14083
3625	21.099	3.8182	0.	0.12378
3626	21.099	4.	0.	0.11501
3627	21.099	4.1818	0.	0.11671
3628	21.099	4.3636	0.	0.12787
3629	21.099	4.5455	0.	0.14812
3630	21.099	4.7273	0.	0.18095
3631	21.099	4.9091	0.	0.24252
3632	21.099	5.0909	0.	0.41546
3633	21.099	5.2727	0.	1.9841
3634	21.099	5.4545	0.	8.262
3635	21.099	5.6364	0.	12.779
3636	21.099	5.8182	0.	15.429
3637	21.28	0.18182	0.	14.301
3638	21.28	0.36364	0.	11.819
3639	21.28	0.54545	0.	7.6179
3640	21.28	0.72727	0.	1.6347
3641	21.28	0.90909	0.	0.30363
3642	21.28	1.0909	0.	0.18536
3643	21.28	1.2727	0.	0.14468
3644	21.28	1.4545	0.	0.12355
3645	21.28	1.6364	0.	0.11108
3646	21.28	1.8182	0.	0.10487
3647	21.28	2.	0.	0.1049
3648	21.28	2.1818	0.	0.11102
3649	21.28	2.3636	0.	0.12193
3650	21.28	2.5455	0.	0.13491
3651	21.28	2.7273	0.	0.14629
3652	21.28	2.9091	0.	0.15287
3653	21.28	3.0909	0.	0.15287
3654	21.28	3.2727	0.	0.14629
3655	21.28	3.4545	0.	0.13491
3656	21.28	3.6364	0.	0.12193
3657	21.28	3.8182	0.	0.11102
3658	21.28	4.	0.	0.1049
3659	21.28	4.1818	0.	0.10487
3660	21.28	4.3636	0.	0.11108
3661	21.28	4.5455	0.	0.12355
3662	21.28	4.7273	0.	0.14468
3663	21.28	4.9091	0.	0.18536
3664	21.28	5.0909	0.	0.30363
3665	21.28	5.2727	0.	1.6347
3666	21.28	5.4545	0.	7.6179
3667	21.28	5.6364	0.	11.819
3668	21.28	5.8182	0.	14.3
3669	21.461	0.18182	0.	13.395
3670	21.461	0.36364	0.	11.072
3671	21.461	0.54545	0.	7.2967
3672	21.461	0.72727	0.	1.6661
3673	21.461	0.90909	0.	0.24108
3674	21.461	1.0909	0.	0.15056
3675	21.461	1.2727	0.	0.12185
3676	21.461	1.4545	0.	0.10758
3677	21.461	1.6364	0.	9.9504e-002
3678	21.461	1.8182	0.	9.5723e-002
3679	21.461	2.	0.	9.6004e-002
3680	21.461	2.1818	0.	0.1002
3681	21.461	2.3636	0.	0.10741
3682	21.461	2.5455	0.	0.11581
3683	21.461	2.7273	0.	0.12316
3684	21.461	2.9091	0.	0.12743
3685	21.461	3.0909	0.	0.12743
3686	21.461	3.2727	0.	0.12316
3687	21.461	3.4545	0.	0.11581
3688	21.461	3.6364	0.	0.10741
3689	21.461	3.8182	0.	0.1002
3690	21.461	4.	0.	9.6004e-002
3691	21.461	4.1818	0.	9.5722e-002
3692	21.461	4.3636	0.	9.9504e-002
3693	21.461	4.5455	0.	0.10758
3694	21.461	4.7273	0.	0.12185
3695	21.461	4.9091	0.	0.15056
3696	21.461	5.0909	0.	0.24108
3697	21.461	5.2727	0.	1.6661
3698	21.461	5.4545	0.	7.2967
3699	21.461	5.6364	0.	11.072
3700	21.461	5.8182	0.	13.395
3701	21.643	0.18182	0.	12.746
3702	21.643	0.36364	0.	10.613
3703	21.643	0.54545	0.	7.3501
3704	21.643	0.72727	0.	2.2312
3705	21.643	0.90909	0.	0.21307
3706	21.643	1.0909	0.	0.12984
3707	21.643	1.2727	0.	0.10757
3708	21.643	1.4545	0.	9.7277e-002
3709	21.643	1.6364	0.	9.1728e-002
3710	21.643	1.8182	0.	8.923e-002
3711	21.643	2.	0.	8.9429e-002
3712	21.643	2.1818	0.	9.2096e-002
3713	21.643	2.3636	0.	9.6612e-002
3714	21.643	2.5455	0.	0.10187
3715	21.643	2.7273	0.	0.10648
3716	21.643	2.9091	0.	0.10916
3717	21.643	3.0909	0.	0.10916
3718	21.643	3.2727	0.	0.10648
3719	21.643	3.4545	0.	0.10187
3720	21.643	3.6364	0.	9.6612e-002
3721	21.643	3.8182	0.	9.2098e-002
3722	21.643	4.	0.	8.9431e-002
3723	21.643	4.1818	0.	8.9229e-002
3724	21.643	4.3636	0.	9.1729e-002
3725	21.643	4.5455	0.	9.7277e-002
3726	21.643	4.7273	0.	0.10757
3727	21.643	4.9091	0.	0.12984
3728	21.643	5.0909	0.	0.21307
3729	21.643	5.2727	0.	2.2313
3730	21.643	5.4545	0.	7.3501
3731	21.643	5.6364	0.	10.613
3732	21.643	5.8182	0.	12.746
3733	21.824	0.18182	0.	12.364
3734	21.824	0.36364	0.	10.483
3735	21.824	0.54545	0.	7.8103
3736	21.824	0.72727	0.	3.4454
3737	21.824	0.90909	0.	0.23597
3738	21.824	1.0909	0.	0.12065
3739	21.824	1.2727	0.	9.9767e-002
3740	21.824	1.4545	0.	9.1301e-002
3741	21.824	1.6364	0.	8.6982e-002
3742	21.824	1.8182	0.	8.498e-002
3743	21.824	2.	0.	8.4836e-002
3744	21.824	2.1818	0.	8.6308e-002
3745	21.824	2.3636	0.	8.8965e-002
3746	21.824	2.5455	0.	9.2108e-002
3747	21.824	2.7273	0.	9.4874e-002
3748	21.824	2.9091	0.	9.6493e-002
3749	21.824	3.0909	0.	9.6492e-002
3750	21.824	3.2727	0.	9.4877e-002
3751	21.824	3.4545	0.	9.2108e-002
3752	21.824	3.6364	0.	8.8967e-002
3753	21.824	3.8182	0.	8.6309e-002
3754	21.824	4.	0.	8.4835e-002
3755	21.824	4.1818	0.	8.4979e-002
3756	21.824	4.3636	0.	8.6983e-002
3757	21.824	4.5455	0.	9.1301e-002
3758	21.824	4.7273	0.	9.9767e-002
3759	21.824	4.9091	0.	0.12066
3760	21.824	5.0909	0.	0.23598
3761	21.824	5.2727	0.	3.4454
3762	21.824	5.4545	0.	7.8103
3763	21.824	5.6364	0.	10.483
3764	21.824	5.8182	0.	12.364
3765	22.005	0.18182	0.	12.241
3766	22.005	0.36364	0.	10.698
3767	22.005	0.54545	0.	8.6931
3768	22.005	0.72727	0.	5.2363
3769	22.005	0.90909	0.	0.76485
3770	22.005	1.0909	0.	0.12885
3771	22.005	1.2727	0.	9.8803e-002
3772	22.005	1.4545	0.	8.953e-002
3773	22.005	1.6364	0.	8.5214e-002
3774	22.005	1.8182	0.	8.3076e-002
3775	22.005	2.	0.	8.2394e-002
3776	22.005	2.1818	0.	8.2866e-002
3777	22.005	2.3636	0.	8.4165e-002
3778	22.005	2.5455	0.	8.5845e-002
3779	22.005	2.7273	0.	8.7375e-002
3780	22.005	2.9091	0.	8.8279e-002
3781	22.005	3.0909	0.	8.8279e-002
3782	22.005	3.2727	0.	8.7375e-002
3783	22.005	3.4545	0.	8.5844e-002
3784	22.005	3.6364	0.	8.4166e-002
3785	22.005	3.8182	0.	8.2865e-002
3786	22.005	4.	0.	8.2394e-002
3787	22.005	4.1818	0.	8.3075e-002
3788	22.005	4.3636	0.	8.5216e-002
3789	22.005	4.5455	0.	8.9531e-002
3790	22.005	4.7273	0.	9.8804e-002
3791	22.005	4.9091	0.	0.12885
3792	22.005	5.0909	0.	0.76488
3793	22.005	5.2727	0.	5.2363
3794	22.005	5.4545	0.	8.6931
3795	22.005	5.6364	0.	10.698
3796	22.005	5.8182	0.	12.241
3797	22.187	0.18182	0.	12.36
3798	22.187	0.36364	0.	11.261
3799	22.187	0.54545	0.	10.005
3800	22.187	0.72727	0.	7.5355
3801	22.187	0.90909	0.	3.8578
3802	22.187	1.0909	0.	0.27958
3803	22.187	1.2727	0.	0.11237
3804	22.187	1.4545	0.	9.3937e-002
3805	22.187	1.6364	0.	8.7268e-002
3806	22.187	1.8182	0.	8.4007e-002
3807	22.187	2.	0.	8.2399e-002
3808	22.187	2.1818	0.	8.1866e-002
3809	22.187	2.3636	0.	8.2065e-002
3810	22.187	2.5455	0.	8.2664e-002
3811	22.187	2.7273	0.	8.332e-002
3812	22.187	2.9091	0.	8.3734e-002
3813	22.187	3.0909	0.	8.3733e-002
3814	22.187	3.2727	0.	8.3319e-002
3815	22.187	3.4545	0.	8.2665e-002
3816	22.187	3.6364	0.	8.2066e-002
3817	22.187	3.8182	0.	8.1865e-002
3818	22.187	4.	0.	8.24e-002
3819	22.187	4.1818	0.	8.4007e-002
3820	22.187	4.3636	0.	8.7268e-002
3821	22.187	4.5455	0.	9.3935e-002
3822	22.187	4.7273	0.	0.11237
3823	22.187	4.9091	0.	0.27959
3824	22.187	5.0909	0.	3.8578
3825	22.187	5.2727	0.	7.5355
3826	22.187	5.4545	0.	10.005
3827	22.187	5.6364	0.	11.261
3828	22.187	5.8182	0.	12.36
3829	22.368	0.18182	0.	12.702
3830	22.368	0.36364	0.	12.168
3831	22.368	0.54545	0.	11.753
3832	22.368	0.72727	0.	10.326
3833	22.368	0.90909	0.	7.8151
3834	22.368	1.0909	0.	4.2894
3835	22.368	1.2727	0.	0.45593
3836	22.368	1.4545	0.	0.12096
3837	22.368	1.6364	0.	9.7622e-002
3838	22.368	1.8182	0.	8.9653e-002
3839	22.368	2.	0.	8.5798e-002
3840	22.368	2.1818	0.	8.3774e-002
3841	22.368	2.3636	0.	8.2785e-002
3842	22.368	2.5455	0.	8.2411e-002
3843	22.368	2.7273	0.	8.2351e-002
3844	22.368	2.9091	0.	8.2379e-002
3845	22.368	3.0909	0.	8.2382e-002
3846	22.368	3.2727	0.	8.235e-002
3847	22.368	3.4545	0.	8.2413e-002
3848	22.368	3.6364	0.	8.2783e-002
3849	22.368	3.8182	0.	8.3772e-002
3850	22.368	4.	0.	8.5797e-002
3851	22.368	4.1818	0.	8.9654e-002
3852	22.368	4.3636	0.	9.7626e-002
3853	22.368	4.5455	0.	0.12096
3854	22.368	4.7273	0.	0.45596
3855	22.368	4.9091	0.	4.2895
3856	22.368	5.0909	0.	7.8152
3857	22.368	5.2727	0.	10.326
3858	22.368	5.4545	0.	11.753
3859	22.368	5.6364	0.	12.168
3860	22.368	5.8182	0.	12.702
3861	22.549	0.18182	0.	13.242
3862	22.549	0.36364	0.	13.417
3863	22.549	0.54545	0.	13.947
3864	22.549	0.72727	0.	13.621
3865	22.549	0.90909	0.	12.302
3866	22.549	1.0909	0.	9.9944
3867	22.549	1.2727	0.	6.8109
3868	22.549	1.4545	0.	2.9645
3869	22.549	1.6364	0.	0.21821
3870	22.549	1.8182	0.	0.11429
3871	22.549	2.	0.	9.7318e-002
3872	22.549	2.1818	0.	9.0608e-002
3873	22.549	2.3636	0.	8.7244e-002
3874	22.549	2.5455	0.	8.5443e-002
3875	22.549	2.7273	0.	8.4516e-002
3876	22.549	2.9091	0.	8.4124e-002
3877	22.549	3.0909	0.	8.4125e-002
3878	22.549	3.2727	0.	8.4515e-002
3879	22.549	3.4545	0.	8.5444e-002
3880	22.549	3.6364	0.	8.7243e-002
3881	22.549	3.8182	0.	9.0608e-002
3882	22.549	4.	0.	9.7318e-002
3883	22.549	4.1818	0.	0.11428
3884	22.549	4.3636	0.	0.21821
3885	22.549	4.5455	0.	2.9645
3886	22.549	4.7273	0.	6.811
3887	22.549	4.9091	0.	9.9945
3888	22.549	5.0909	0.	12.302
3889	22.549	5.2727	0.	13.621
3890	22.549	5.4545	0.	13.947
3891	22.549	5.6364	0.	13.417
3892	22.549	5.8182	0.	13.242
3893	22.731	0.18182	0.	13.959
3894	22.731	0.36364	0.	15.013
3895	22.731	0.54545	0.	16.614
3896	22.731	0.72727	0.	17.457
3897	22.731	0.90909	0.	17.338
3898	22.731	1.0909	0.	16.221
3899	22.731	1.2727	0.	14.19
3900	22.731	1.4545	0.	11.409
3901	22.731	1.6364	0.	8.0964
3902	22.731	1.8182	0.	4.5059
3903	22.731	2.	0.	1.0035
3904	22.731	2.1818	0.	0.13524
3905	22.731	2.3636	0.	0.10311
3906	22.731	2.5455	0.	9.4206e-002
3907	22.731	2.7273	0.	9.0538e-002
3908	22.731	2.9091	0.	8.9097e-002
3909	22.731	3.0909	0.	8.9096e-002
3910	22.731	3.2727	0.	9.0537e-002
3911	22.731	3.4545	0.	9.4206e-002
3912	22.731	3.6364	0.	0.10311
3913	22.731	3.8182	0.	0.13524
3914	22.731	4.	0.	1.0036
3915	22.731	4.1818	0.	4.5059
3916	22.731	4.3636	0.	8.0964
3917	22.731	4.5455	0.	11.409
3918	22.731	4.7273	0.	14.19
3919	22.731	4.9091	0.	16.221
3920	22.731	5.0909	0.	17.338
3921	22.731	5.2727	0.	17.457
3922	22.731	5.4545	0.	16.614
3923	22.731	5.6364	0.	15.013
3924	22.731	5.8182	0.	13.959
3925	22.912	0.18182	0.	14.833
3926	22.912	0.36364	0.	16.978
3927	22.912	0.54545	0.	19.806
3928	22.912	0.72727	0.	21.895
3929	22.912	0.90909	0.	22.98
3930	22.912	1.0909	0.	23.002
3931	22.912	1.2727	0.	22.038
3932	22.912	1.4545	0.	20.249
3933	22.912	1.6364	0.	17.849
3934	22.912	1.8182	0.	15.074
3935	22.912	2.	0.	12.165
3936	22.912	2.1818	0.	9.3499
3937	22.912	2.3636	0.	6.8331
3938	22.912	2.5455	0.	4.7865
3939	22.912	2.7273	0.	3.3434
3940	22.912	2.9091	0.	2.5966
3941	22.912	3.0909	0.	2.5966
3942	22.912	3.2727	0.	3.3435
3943	22.912	3.4545	0.	4.7865
3944	22.912	3.6364	0.	6.8331
3945	22.912	3.8182	0.	9.35
3946	22.912	4.	0.	12.165
3947	22.912	4.1818	0.	15.074
3948	22.912	4.3636	0.	17.849
3949	22.912	4.5455	0.	20.249
3950	22.912	4.7273	0.	22.038
3951	22.912	4.9091	0.	23.002
3952	22.912	5.0909	0.	22.98
3953	22.912	5.2727	0.	21.895
3954	22.912	5.4545	0.	19.806
3955	22.912	5.6364	0.	16.978
3956	22.912	5.8182	0.	14.833
3957	23.093	0.18182	0.	15.848
3958	23.093	0.36364	0.	19.366
3959	23.093	0.54545	0.	23.615
3960	23.093	0.72727	0.	27.033
3961	23.093	0.90909	0.	29.311
3962	23.093	1.0909	0.	30.397
3963	23.093	1.2727	0.	30.39
3964	23.093	1.4545	0.	29.471
3965	23.093	1.6364	0.	27.86
3966	23.093	1.8182	0.	25.795
3967	23.093	2.	0.	23.512
3968	23.093	2.1818	0.	21.233
3969	23.093	2.3636	0.	19.154
3970	23.093	2.5455	0.	17.443
3971	23.093	2.7273	0.	16.228
3972	23.093	2.9091	0.	15.598
3973	23.093	3.0909	0.	15.598
3974	23.093	3.2727	0.	16.228
3975	23.093	3.4545	0.	17.443
3976	23.093	3.6364	0.	19.154
3977	23.093	3.8182	0.	21.233
3978	23.093	4.	0.	23.512
3979	23.093	4.1818	0.	25.795
3980	23.093	4.3636	0.	27.86
3981	23.093	4.5455	0.	29.471
3982	23.093	4.7273	0.	30.39
3983	23.093	4.9091	0.	30.397
3984	23.093	5.0909	0.	29.311
3985	23.093	5.2727	0.	27.033
3986	23.093	5.4545	0.	23.615
3987	23.093	5.6364	0.	19.366
3988	23.093	5.8182	0.	15.848
3989	23.275	0.18182	0.	17.006
3990	23.275	0.36364	0.	22.293
3991	23.275	0.54545	0.	28.199
3992	23.275	0.72727	0.	33.013
3993	23.275	0.90909	0.	36.436
3994	23.275	1.0909	0.	38.479
3995	23.275	1.2727	0.	39.297
3996	23.275	1.4545	0.	39.105
3997	23.275	1.6364	0.	38.146
3998	23.275	1.8182	0.	36.664
3999	23.275	2.	0.	34.894
4000	23.275	2.1818	0.	33.054
4001	23.275	2.3636	0.	31.336
4002	23.275	2.5455	0.	29.901
4003	23.275	2.7273	0.	28.873
4004	23.275	2.9091	0.	28.338
4005	23.275	3.0909	0.	28.338
4006	23.275	3.2727	0.	28.873
4007	23.275	3.4545	0.	29.901
4008	23.275	3.6364	0.	31.336
4009	23.275	3.8182	0.	33.054
4010	23.275	4.	0.	34.894
4011	23.275	4.1818	0.	36.664
4012	23.275	4.3636	0.	38.146
4013	23.275	4.5455	0.	39.105
4014	23.275	4.7273	0.	39.297
4015	23.275	4.9091	0.	38.479
4016	23.275	5.0909	0.	36.436
4017	23.275	5.2727	0.	33.013
4018	23.275	5.4545	0.	28.199
4019	23.275	5.6364	0.	22.293
4020	23.275	5.8182	0.	17.006
4021	23.456	0.18182	0.	18.337
4022	23.456	0.36364	0.	25.985
4023	23.456	0.54545	0.	33.802
4024	23.456	0.72727	0.	40.007
4025	23.456	0.90909	0.	44.458
4026	23.456	1.0909	0.	47.302
4027	23.456	1.2727	0.	48.782
4028	23.456	1.4545	0.	49.163
4029	23.456	1.6364	0.	48.71
4030	23.456	1.8182	0.	47.678
4031	23.456	2.	0.	46.305
4032	23.456	2.1818	0.	44.805
4033	23.456	2.3636	0.	43.367
4034	23.456	2.5455	0.	42.146
4035	23.456	2.7273	0.	41.263
4036	23.456	2.9091	0.	40.801
4037	23.456	3.0909	0.	40.801
4038	23.456	3.2727	0.	41.263
4039	23.456	3.4545	0.	42.146
4040	23.456	3.6364	0.	43.367
4041	23.456	3.8182	0.	44.805
4042	23.456	4.	0.	46.305
4043	23.456	4.1818	0.	47.678
4044	23.456	4.3636	0.	48.71
4045	23.456	4.5455	0.	49.163
4046	23.456	4.7273	0.	48.782
4047	23.456	4.9091	0.	47.302
4048	23.456	5.0909	0.	44.458
4049	23.456	5.2727	0.	40.007
4050	23.456	5.4545	0.	33.802
4051	23.456	5.6364	0.	25.985
4052	23.456	5.8182	0.	18.337
4053	23.637	0.18182	0.	20.024
4054	23.637	0.36364	0.	31.003
4055	23.637	0.54545	0.	40.855
4056	23.637	0.72727	0.	48.278
4057	23.637	0.90909	0.	53.535
4058	23.637	1.0909	0.	56.97
4059	23.637	1.2727	0.	58.925
4060	23.637	1.4545	0.	59.712
4061	23.637	1.6364	0.	59.616
4062	23.637	1.8182	0.	58.901
4063	23.637	2.	0.	57.807
4064	23.637	2.1818	0.	56.547
4065	23.637	2.3636	0.	55.306
4066	23.637	2.5455	0.	54.237
4067	23.637	2.7273	0.	53.458
4068	23.637	2.9091	0.	53.047
4069	23.637	3.0909	0.	53.047
4070	23.637	3.2727	0.	53.458
4071	23.637	3.4545	0.	54.237
4072	23.637	3.6364	0.	55.306
4073	23.637	3.8182	0.	56.547
4074	23.637	4.	0.	57.807
4075	23.637	4.1818	0.	58.901
4076	23.637	4.3636	0.	59.616
4077	23.637	4.5455	0.	59.712
4078	23.637	4.7273	0.	58.925
4079	23.637	4.9091	0.	56.97
4080	23.637	5.0909	0.	53.535
4081	23.637	5.2727	0.	48.278
4082	23.637	5.4545	0.	40.855
4083	23.637	5.6364	0.	31.003
4084	23.637	5.8182	0.	20.024
4085	23.819	0.18182	0.	23.053
4086	23.819	0.36364	0.	38.221
4087	23.819	0.54545	0.	49.651
4088	23.819	0.72727	0.	57.843
4089	23.819	0.90909	0.	63.565
4090	23.819	1.0909	0.	67.332
4091	23.819	1.2727	0.	69.551
4092	23.819	1.4545	0.	70.563
4093	23.819	1.6364	0.	70.668
4094	23.819	1.8182	0.	70.132
4095	23.819	2.	0.	69.196
4096	23.819	2.1818	0.	68.073
4097	23.819	2.3636	0.	66.946
4098	23.819	2.5455	0.	65.964
4099	23.819	2.7273	0.	65.244
4100	23.819	2.9091	0.	64.864
4101	23.819	3.0909	0.	64.864
4102	23.819	3.2727	0.	65.244
4103	23.819	3.4545	0.	65.964
4104	23.819	3.6364	0.	66.946
4105	23.819	3.8182	0.	68.073
4106	23.819	4.	0.	69.196
4107	23.819	4.1818	0.	70.132
4108	23.819	4.3636	0.	70.668
4109	23.819	4.5455	0.	70.563
4110	23.819	4.7273	0.	69.551
4111	23.819	4.9091	0.	67.332
4112	23.819	5.0909	0.	63.565
4113	23.819	5.2727	0.	57.843
4114	23.819	5.4545	0.	49.651
4115	23.819	5.6364	0.	38.221
4116	23.819	5.8182	0.	23.053
4117	23.819	5.8182	0.1	36.189
4118	23.819	5.6364	0.1	37.07
4119	23.819	5.4545	0.1	37.583
4120	23.819	5.2727	0.1	37.864
4121	23.819	5.0909	0.1	37.992
4122	23.819	4.9091	0.1	38.049
4123	23.819	4.7273	0.1	38.067
4124	23.819	4.5455	0.1	38.065
4125	23.819	4.3636	0.1	38.053
4126	23.819	4.1818	0.1	38.037
4127	23.819	4.	0.1	38.021
4128	23.819	3.8182	0.1	38.007
4129	23.819	3.6364	0.1	37.995
4130	23.819	3.4545	0.1	37.985
4131	23.819	3.2727	0.1	37.979
4132	23.819	3.0909	0.1	37.977
4133	23.819	2.9091	0.1	37.977
4134	23.819	2.7273	0.1	37.979
4135	23.819	2.5455	0.1	37.985
4136	23.819	2.3636	0.1	37.995
4137	23.819	2.1818	0.1	38.007
4138	23.819	2.	0.1	38.021
4139	23.819	1.8182	0.1	38.037
4140	23.819	1.6364	0.1	38.053
4141	23.819	1.4545	0.1	38.065
4142	23.819	1.2727	0.1	38.067
4143	23.819	1.0909	0.1	38.049
4144	23.819	0.90909	0.1	37.992
4145	23.819	0.72727	0.1	37.864
4146	23.819	0.54545	0.1	37.583
4147	23.819	0.36364	0.1	37.07
4148	23.819	0.18182	0.1	36.189
4149	23.637	5.8182	0.1	70.927
4150	23.637	5.6364	0.1	71.441
4151	23.637	5.4545	0.1	72.562
4152	23.637	5.2727	0.1	73.389
4153	23.637	5.0909	0.1	73.958
4154	23.637	4.9091	0.1	74.365
4155	23.637	4.7273	0.1	74.667
4156	23.637	4.5455	0.1	74.901
4157	23.637	4.3636	0.1	75.088
4158	23.637	4.1818	0.1	75.241
4159	23.637	4.	0.1	75.367
4160	23.637	3.8182	0.1	75.47
4161	23.637	3.6364	0.1	75.552
4162	23.637	3.4545	0.1	75.614
4163	23.637	3.2727	0.1	75.656
4164	23.637	3.0909	0.1	75.677
4165	23.637	2.9091	0.1	75.677
4166	23.637	2.7273	0.1	75.656
4167	23.637	2.5455	0.1	75.614
4168	23.637	2.3636	0.1	75.552
4169	23.637	2.1818	0.1	75.47
4170	23.637	2.	0.1	75.367
4171	23.637	1.8182	0.1	75.241
4172	23.637	1.6364	0.1	75.088
4173	23.637	1.4545	0.1	74.901
4174	23.637	1.2727	0.1	74.667
4175	23.637	1.0909	0.1	74.365
4176	23.637	0.90909	0.1	73.958
4177	23.637	0.72727	0.1	73.389
4178	23.637	0.54545	0.1	72.562
4179	23.637	0.36364	0.1	71.441
4180	23.637	0.18182	0.1	70.927
4181	23.456	5.8182	0.1	106.75
4182	23.456	5.6364	0.1	106.59
4183	23.456	5.4545	0.1	107.76
4184	23.456	5.2727	0.1	108.91
4185	23.456	5.0909	0.1	109.86
4186	23.456	4.9091	0.1	110.65
4187	23.456	4.7273	0.1	111.3
4188	23.456	4.5455	0.1	111.86
4189	23.456	4.3636	0.1	112.34
4190	23.456	4.1818	0.1	112.76
4191	23.456	4.	0.1	113.11
4192	23.456	3.8182	0.1	113.41
4193	23.456	3.6364	0.1	113.66
4194	23.456	3.4545	0.1	113.85
4195	23.456	3.2727	0.1	113.97
4196	23.456	3.0909	0.1	114.04
4197	23.456	2.9091	0.1	114.04
4198	23.456	2.7273	0.1	113.97
4199	23.456	2.5455	0.1	113.85
4200	23.456	2.3636	0.1	113.66
4201	23.456	2.1818	0.1	113.41
4202	23.456	2.	0.1	113.11
4203	23.456	1.8182	0.1	112.76
4204	23.456	1.6364	0.1	112.34
4205	23.456	1.4545	0.1	111.86
4206	23.456	1.2727	0.1	111.3
4207	23.456	1.0909	0.1	110.65
4208	23.456	0.90909	0.1	109.86
4209	23.456	0.72727	0.1	108.91
4210	23.456	0.54545	0.1	107.76
4211	23.456	0.36364	0.1	106.59
4212	23.456	0.18182	0.1	106.75
4213	23.275	5.8182	0.1	142.58
4214	23.275	5.6364	0.1	141.98
4215	23.275	5.4545	0.1	143.03
4216	23.275	5.2727	0.1	144.34
4217	23.275	5.0909	0.1	145.6
4218	23.275	4.9091	0.1	146.77
4219	23.275	4.7273	0.1	147.83
4220	23.275	4.5455	0.1	148.79
4221	23.275	4.3636	0.1	149.66
4222	23.275	4.1818	0.1	150.44
4223	23.275	4.	0.1	151.12
4224	23.275	3.8182	0.1	151.71
4225	23.275	3.6364	0.1	152.19
4226	23.275	3.4545	0.1	152.56
4227	23.275	3.2727	0.1	152.82
4228	23.275	3.0909	0.1	152.94
4229	23.275	2.9091	0.1	152.94
4230	23.275	2.7273	0.1	152.82
4231	23.275	2.5455	0.1	152.56
4232	23.275	2.3636	0.1	152.19
4233	23.275	2.1818	0.1	151.71
4234	23.275	2.	0.1	151.12
4235	23.275	1.8182	0.1	150.44
4236	23.275	1.6364	0.1	149.66
4237	23.275	1.4545	0.1	148.79
4238	23.275	1.2727	0.1	147.83
4239	23.275	1.0909	0.1	146.77
4240	23.275	0.90909	0.1	145.6
4241	23.275	0.72727	0.1	144.34
4242	23.275	0.54545	0.1	143.03
4243	23.275	0.36364	0.1	141.98
4244	23.275	0.18182	0.1	142.58
4245	23.093	5.8182	0.1	178.15
4246	23.093	5.6364	0.1	177.3
4247	23.093	5.4545	0.1	178.27
4248	23.093	5.2727	0.1	179.69
4249	23.093	5.0909	0.1	181.24
4250	23.093	4.9091	0.1	182.8
4251	23.093	4.7273	0.1	184.32
4252	23.093	4.5455	0.1	185.76
4253	23.093	4.3636	0.1	187.11
4254	23.093	4.1818	0.1	188.36
4255	23.093	4.	0.1	189.47
4256	23.093	3.8182	0.1	190.45
4257	23.093	3.6364	0.1	191.26
4258	23.093	3.4545	0.1	191.89
4259	23.093	3.2727	0.1	192.31
4260	23.093	3.0909	0.1	192.53
4261	23.093	2.9091	0.1	192.53
4262	23.093	2.7273	0.1	192.31
4263	23.093	2.5455	0.1	191.89
4264	23.093	2.3636	0.1	191.26
4265	23.093	2.1818	0.1	190.45
4266	23.093	2.	0.1	189.47
4267	23.093	1.8182	0.1	188.36
4268	23.093	1.6364	0.1	187.11
4269	23.093	1.4545	0.1	185.76
4270	23.093	1.2727	0.1	184.32
4271	23.093	1.0909	0.1	182.8
4272	23.093	0.90909	0.1	181.24
4273	23.093	0.72727	0.1	179.69
4274	23.093	0.54545	0.1	178.27
4275	23.093	0.36364	0.1	177.3
4276	23.093	0.18182	0.1	178.15
4277	22.912	5.8182	0.1	213.23
4278	22.912	5.6364	0.1	212.28
4279	22.912	5.4545	0.1	213.26
4280	22.912	5.2727	0.1	214.84
4281	22.912	5.0909	0.1	216.71
4282	22.912	4.9091	0.1	218.72
4283	22.912	4.7273	0.1	220.77
4284	22.912	4.5455	0.1	222.8
4285	22.912	4.3636	0.1	224.76
4286	22.912	4.1818	0.1	226.59
4287	22.912	4.	0.1	228.27
4288	22.912	3.8182	0.1	229.75
4289	22.912	3.6364	0.1	231.
4290	22.912	3.4545	0.1	231.97
4291	22.912	3.2727	0.1	232.63
4292	22.912	3.0909	0.1	232.97
4293	22.912	2.9091	0.1	232.97
4294	22.912	2.7273	0.1	232.63
4295	22.912	2.5455	0.1	231.97
4296	22.912	2.3636	0.1	231.
4297	22.912	2.1818	0.1	229.75
4298	22.912	2.	0.1	228.27
4299	22.912	1.8182	0.1	226.59
4300	22.912	1.6364	0.1	224.76
4301	22.912	1.4545	0.1	222.8
4302	22.912	1.2727	0.1	220.77
4303	22.912	1.0909	0.1	218.72
4304	22.912	0.90909	0.1	216.71
4305	22.912	0.72727	0.1	214.84
4306	22.912	0.54545	0.1	213.26
4307	22.912	0.36364	0.1	212.28
4308	22.912	0.18182	0.1	213.23
4309	22.731	5.8182	0.1	247.59
4310	22.731	5.6364	0.1	246.69
4311	22.731	5.4545	0.1	247.79
4312	22.731	5.2727	0.1	249.63
4313	22.731	5.0909	0.1	251.92
4314	22.731	4.9091	0.1	254.48
4315	22.731	4.7273	0.1	257.19
4316	22.731	4.5455	0.1	259.94
4317	22.731	4.3636	0.1	262.65
4318	22.731	4.1818	0.1	265.24
4319	22.731	4.	0.1	267.64
4320	22.731	3.8182	0.1	269.78
4321	22.731	3.6364	0.1	271.59
4322	22.731	3.4545	0.1	273.01
4323	22.731	3.2727	0.1	273.99
4324	22.731	3.0909	0.1	274.49
4325	22.731	2.9091	0.1	274.49
4326	22.731	2.7273	0.1	273.99
4327	22.731	2.5455	0.1	273.01
4328	22.731	2.3636	0.1	271.59
4329	22.731	2.1818	0.1	269.78
4330	22.731	2.	0.1	267.64
4331	22.731	1.8182	0.1	265.24
4332	22.731	1.6364	0.1	262.65
4333	22.731	1.4545	0.1	259.94
4334	22.731	1.2727	0.1	257.19
4335	22.731	1.0909	0.1	254.48
4336	22.731	0.90909	0.1	251.92
4337	22.731	0.72727	0.1	249.63
4338	22.731	0.54545	0.1	247.79
4339	22.731	0.36364	0.1	246.69
4340	22.731	0.18182	0.1	247.59
4341	22.549	5.8182	0.1	280.98
4342	22.549	5.6364	0.1	280.25
4343	22.549	5.4545	0.1	281.61
4344	22.549	5.2727	0.1	283.86
4345	22.549	5.0909	0.1	286.71
4346	22.549	4.9091	0.1	289.99
4347	22.549	4.7273	0.1	293.52
4348	22.549	4.5455	0.1	297.19
4349	22.549	4.3636	0.1	300.86
4350	22.549	4.1818	0.1	304.41
4351	22.549	4.	0.1	307.74
4352	22.549	3.8182	0.1	310.74
4353	22.549	3.6364	0.1	313.29
4354	22.549	3.4545	0.1	315.3
4355	22.549	3.2727	0.1	316.69
4356	22.549	3.0909	0.1	317.41
4357	22.549	2.9091	0.1	317.41
4358	22.549	2.7273	0.1	316.69
4359	22.549	2.5455	0.1	315.3
4360	22.549	2.3636	0.1	313.29
4361	22.549	2.1818	0.1	310.74
4362	22.549	2.	0.1	307.74
4363	22.549	1.8182	0.1	304.41
4364	22.549	1.6364	0.1	300.86
4365	22.549	1.4545	0.1	297.19
4366	22.549	1.2727	0.1	293.52
4367	22.549	1.0909	0.1	289.99
4368	22.549	0.90909	0.1	286.71
4369	22.549	0.72727	0.1	283.86
4370	22.549	0.54545	0.1	281.61
4371	22.549	0.36364	0.1	280.25
4372	22.549	0.18182	0.1	280.98
4373	22.368	5.8182	0.1	313.08
4374	22.368	5.6364	0.1	312.64
4375	22.368	5.4545	0.1	314.43
4376	22.368	5.2727	0.1	317.27
4377	22.368	5.0909	0.1	320.89
4378	22.368	4.9091	0.1	325.09
4379	22.368	4.7273	0.1	329.69
4380	22.368	4.5455	0.1	334.53
4381	22.368	4.3636	0.1	339.43
4382	22.368	4.1818	0.1	344.22
4383	22.368	4.	0.1	348.76
4384	22.368	3.8182	0.1	352.87
4385	22.368	3.6364	0.1	356.39
4386	22.368	3.4545	0.1	359.18
4387	22.368	3.2727	0.1	361.12
4388	22.368	3.0909	0.1	362.11
4389	22.368	2.9091	0.1	362.11
4390	22.368	2.7273	0.1	361.12
4391	22.368	2.5455	0.1	359.18
4392	22.368	2.3636	0.1	356.39
4393	22.368	2.1818	0.1	352.87
4394	22.368	2.	0.1	348.76
4395	22.368	1.8182	0.1	344.22
4396	22.368	1.6364	0.1	339.43
4397	22.368	1.4545	0.1	334.53
4398	22.368	1.2727	0.1	329.69
4399	22.368	1.0909	0.1	325.09
4400	22.368	0.90909	0.1	320.89
4401	22.368	0.72727	0.1	317.27
4402	22.368	0.54545	0.1	314.43
4403	22.368	0.36364	0.1	312.64
4404	22.368	0.18182	0.1	313.08
4405	22.187	5.8182	0.1	343.52
4406	22.187	5.6364	0.1	343.5
4407	22.187	5.4545	0.1	345.9
4408	22.187	5.2727	0.1	349.55
4409	22.187	5.0909	0.1	354.19
4410	22.187	4.9091	0.1	359.61
4411	22.187	4.7273	0.1	365.6
4412	22.187	4.5455	0.1	371.94
4413	22.187	4.3636	0.1	378.43
4414	22.187	4.1818	0.1	384.83
4415	22.187	4.	0.1	390.92
4416	22.187	3.8182	0.1	396.48
4417	22.187	3.6364	0.1	401.27
4418	22.187	3.4545	0.1	405.09
4419	22.187	3.2727	0.1	407.75
4420	22.187	3.0909	0.1	409.11
4421	22.187	2.9091	0.1	409.11
4422	22.187	2.7273	0.1	407.75
4423	22.187	2.5455	0.1	405.09
4424	22.187	2.3636	0.1	401.27
4425	22.187	2.1818	0.1	396.48
4426	22.187	2.	0.1	390.92
4427	22.187	1.8182	0.1	384.83
4428	22.187	1.6364	0.1	378.43
4429	22.187	1.4545	0.1	371.94
4430	22.187	1.2727	0.1	365.6
4431	22.187	1.0909	0.1	359.61
4432	22.187	0.90909	0.1	354.19
4433	22.187	0.72727	0.1	349.55
4434	22.187	0.54545	0.1	345.9
4435	22.187	0.36364	0.1	343.5
4436	22.187	0.18182	0.1	343.52
4437	22.005	5.8182	0.1	371.8
4438	22.005	5.6364	0.1	372.37
4439	22.005	5.4545	0.1	375.59
4440	22.005	5.2727	0.1	380.33
4441	22.005	5.0909	0.1	386.32
4442	22.005	4.9091	0.1	393.32
4443	22.005	4.7273	0.1	401.1
4444	22.005	4.5455	0.1	409.39
4445	22.005	4.3636	0.1	417.93
4446	22.005	4.1818	0.1	426.4
4447	22.005	4.	0.1	434.53
4448	22.005	3.8182	0.1	441.98
4449	22.005	3.6364	0.1	448.44
4450	22.005	3.4545	0.1	453.6
4451	22.005	3.2727	0.1	457.21
4452	22.005	3.0909	0.1	459.06
4453	22.005	2.9091	0.1	459.06
4454	22.005	2.7273	0.1	457.21
4455	22.005	2.5455	0.1	453.6
4456	22.005	2.3636	0.1	448.44
4457	22.005	2.1818	0.1	441.98
4458	22.005	2.	0.1	434.53
4459	22.005	1.8182	0.1	426.4
4460	22.005	1.6364	0.1	417.93
4461	22.005	1.4545	0.1	409.39
4462	22.005	1.2727	0.1	401.1
4463	22.005	1.0909	0.1	393.32
4464	22.005	0.90909	0.1	386.32
4465	22.005	0.72727	0.1	380.33
4466	22.005	0.54545	0.1	375.59
4467	22.005	0.36364	0.1	372.37
4468	22.005	0.18182	0.1	371.8
4469	21.824	5.8182	0.1	397.37
4470	21.824	5.6364	0.1	398.68
4471	21.824	5.4545	0.1	402.99
4472	21.824	5.2727	0.1	409.14
4473	21.824	5.0909	0.1	416.88
4474	21.824	4.9091	0.1	425.93
4475	21.824	4.7273	0.1	436.03
4476	21.824	4.5455	0.1	446.84
4477	21.824	4.3636	0.1	458.01
4478	21.824	4.1818	0.1	469.18
4479	21.824	4.	0.1	479.94
4480	21.824	3.8182	0.1	489.86
4481	21.824	3.6364	0.1	498.5
4482	21.824	3.4545	0.1	505.43
4483	21.824	3.2727	0.1	510.29
4484	21.824	3.0909	0.1	512.79
4485	21.824	2.9091	0.1	512.79
4486	21.824	2.7273	0.1	510.29
4487	21.824	2.5455	0.1	505.43
4488	21.824	2.3636	0.1	498.5
4489	21.824	2.1818	0.1	489.86
4490	21.824	2.	0.1	479.94
4491	21.824	1.8182	0.1	469.18
4492	21.824	1.6364	0.1	458.01
4493	21.824	1.4545	0.1	446.84
4494	21.824	1.2727	0.1	436.03
4495	21.824	1.0909	0.1	425.93
4496	21.824	0.90909	0.1	416.88
4497	21.824	0.72727	0.1	409.14
4498	21.824	0.54545	0.1	402.99
4499	21.824	0.36364	0.1	398.68
4500	21.824	0.18182	0.1	397.37
4501	21.643	5.8182	0.1	419.51
4502	21.643	5.6364	0.1	421.76
4503	21.643	5.4545	0.1	427.45
4504	21.643	5.2727	0.1	435.43
4505	21.643	5.0909	0.1	445.4
4506	21.643	4.9091	0.1	457.1
4507	21.643	4.7273	0.1	470.17
4508	21.643	4.5455	0.1	484.22
4509	21.643	4.3636	0.1	498.81
4510	21.643	4.1818	0.1	513.47
4511	21.643	4.	0.1	527.66
4512	21.643	3.8182	0.1	540.79
4513	21.643	3.6364	0.1	552.28
4514	21.643	3.4545	0.1	561.52
4515	21.643	3.2727	0.1	568.01
4516	21.643	3.0909	0.1	571.36
4517	21.643	2.9091	0.1	571.36
4518	21.643	2.7273	0.1	568.01
4519	21.643	2.5455	0.1	561.52
4520	21.643	2.3636	0.1	552.28
4521	21.643	2.1818	0.1	540.79
4522	21.643	2.	0.1	527.66
4523	21.643	1.8182	0.1	513.47
4524	21.643	1.6364	0.1	498.81
4525	21.643	1.4545	0.1	484.22
4526	21.643	1.2727	0.1	470.17
4527	21.643	1.0909	0.1	457.1
4528	21.643	0.90909	0.1	445.4
4529	21.643	0.72727	0.1	435.43
4530	21.643	0.54545	0.1	427.45
4531	21.643	0.36364	0.1	421.76
4532	21.643	0.18182	0.1	419.51
4533	21.461	5.8182	0.1	437.39
4534	21.461	5.6364	0.1	440.79
4535	21.461	5.4545	0.1	448.22
4536	21.461	5.2727	0.1	458.5
4537	21.461	5.0909	0.1	471.33
4538	21.461	4.9091	0.1	486.39
4539	21.461	4.7273	0.1	503.28
4540	21.461	4.5455	0.1	521.5
4541	21.461	4.3636	0.1	540.51
4542	21.461	4.1818	0.1	559.68
4543	21.461	4.	0.1	578.31
4544	21.461	3.8182	0.1	595.64
4545	21.461	3.6364	0.1	610.83
4546	21.461	3.4545	0.1	623.09
4547	21.461	3.2727	0.1	631.71
4548	21.461	3.0909	0.1	636.15
4549	21.461	2.9091	0.1	636.15
4550	21.461	2.7273	0.1	631.71
4551	21.461	2.5455	0.1	623.09
4552	21.461	2.3636	0.1	610.83
4553	21.461	2.1818	0.1	595.64
4554	21.461	2.	0.1	578.31
4555	21.461	1.8182	0.1	559.68
4556	21.461	1.6364	0.1	540.51
4557	21.461	1.4545	0.1	521.5
4558	21.461	1.2727	0.1	503.28
4559	21.461	1.0909	0.1	486.39
4560	21.461	0.90909	0.1	471.33
4561	21.461	0.72727	0.1	458.5
4562	21.461	0.54545	0.1	448.22
4563	21.461	0.36364	0.1	440.79
4564	21.461	0.18182	0.1	437.39
4565	21.28	5.8182	0.1	450.02
4566	21.28	5.6364	0.1	454.79
4567	21.28	5.4545	0.1	464.37
4568	21.28	5.2727	0.1	477.53
4569	21.28	5.0909	0.1	493.97
4570	21.28	4.9091	0.1	513.32
4571	21.28	4.7273	0.1	535.08
4572	21.28	4.5455	0.1	558.67
4573	21.28	4.3636	0.1	583.36
4574	21.28	4.1818	0.1	608.38
4575	21.28	4.	0.1	632.79
4576	21.28	3.8182	0.1	655.56
4577	21.28	3.6364	0.1	675.57
4578	21.28	3.4545	0.1	691.73
4579	21.28	3.2727	0.1	703.09
4580	21.28	3.0909	0.1	708.95
4581	21.28	2.9091	0.1	708.95
4582	21.28	2.7273	0.1	703.09
4583	21.28	2.5455	0.1	691.73
4584	21.28	2.3636	0.1	675.57
4585	21.28	2.1818	0.1	655.56
4586	21.28	2.	0.1	632.79
4587	21.28	1.8182	0.1	608.38
4588	21.28	1.6364	0.1	583.36
4589	21.28	1.4545	0.1	558.67
4590	21.28	1.2727	0.1	535.08
4591	21.28	1.0909	0.1	513.32
4592	21.28	0.90909	0.1	493.97
4593	21.28	0.72727	0.1	477.53
4594	21.28	0.54545	0.1	464.37
4595	21.28	0.36364	0.1	454.79
4596	21.28	0.18182	0.1	450.02
4597	21.099	5.8182	0.1	456.25
4598	21.099	5.6364	0.1	462.64
4599	21.099	5.4545	0.1	474.83
4600	21.099	5.2727	0.1	491.56
4601	21.099	5.0909	0.1	512.52
4602	21.099	4.9091	0.1	537.29
4603	21.099	4.7273	0.1	565.28
4604	21.099	4.5455	0.1	595.75
4605	21.099	4.3636	0.1	627.8
4606	21.099	4.1818	0.1	660.39
4607	21.099	4.	0.1	692.31
4608	21.099	3.8182	0.1	722.16
4609	21.099	3.6364	0.1	748.4
4610	21.099	3.4545	0.1	769.56
4611	21.099	3.2727	0.1	784.38
4612	21.099	3.0909	0.1	792.02
4613	21.099	2.9091	0.1	792.02
4614	21.099	2.7273	0.1	784.38
4615	21.099	2.5455	0.1	769.56
4616	21.099	2.3636	0.1	748.4
4617	21.099	2.1818	0.1	722.16
4618	21.099	2.	0.1	692.31
4619	21.099	1.8182	0.1	660.39
4620	21.099	1.6364	0.1	627.8
4621	21.099	1.4545	0.1	595.75
4622	21.099	1.2727	0.1	565.28
4623	21.099	1.0909	0.1	537.29
4624	21.099	0.90909	0.1	512.52
4625	21.099	0.72727	0.1	491.56
4626	21.099	0.54545	0.1	474.83
4627	21.099	0.36364	0.1	462.64
4628	21.099	0.18182	0.1	456.25
4629	20.917	5.8182	0.1	454.79
4630	20.917	5.6364	0.1	463.06
4631	20.917	5.4545	0.1	478.37
4632	20.917	5.2727	0.1	499.46
4633	20.917	5.0909	0.1	526.03
4634	20.917	4.9091	0.1	557.63
4635	20.917	4.7273	0.1	593.56
4636	20.917	4.5455	0.1	632.89
4637	20.917	4.3636	0.1	674.47
4638	20.917	4.1818	0.1	716.95
4639	20.917	4.	0.1	758.67
4640	20.917	3.8182	0.1	797.71
4641	20.917	3.6364	0.1	831.93
4642	20.917	3.4545	0.1	859.36
4643	20.917	3.2727	0.1	878.45
4644	20.917	3.0909	0.1	888.22
4645	20.917	2.9091	0.1	888.22
4646	20.917	2.7273	0.1	878.45
4647	20.917	2.5455	0.1	859.36
4648	20.917	2.3636	0.1	831.93
4649	20.917	2.1818	0.1	797.71
4650	20.917	2.	0.1	758.67
4651	20.917	1.8182	0.1	716.95
4652	20.917	1.6364	0.1	674.47
4653	20.917	1.4545	0.1	632.89
4654	20.917	1.2727	0.1	593.56
4655	20.917	1.0909	0.1	557.63
4656	20.917	0.90909	0.1	526.03
4657	20.917	0.72727	0.1	499.46
4658	20.917	0.54545	0.1	478.37
4659	20.917	0.36364	0.1	463.06
4660	20.917	0.18182	0.1	454.79
4661	20.736	5.8182	0.1	444.26
4662	20.736	5.6364	0.1	454.64
4663	20.736	5.4545	0.1	473.66
4664	20.736	5.2727	0.1	500.02
4665	20.736	5.0909	0.1	533.49
4666	20.736	4.9091	0.1	573.62
4667	20.736	4.7273	0.1	619.62
4668	20.736	4.5455	0.1	670.36
4669	20.736	4.3636	0.1	724.38
4670	20.736	4.1818	0.1	779.87
4671	20.736	4.	0.1	834.53
4672	20.736	3.8182	0.1	885.55
4673	20.736	3.6364	0.1	929.89
4674	20.736	3.4545	0.1	964.94
4675	20.736	3.2727	0.1	988.94
4676	20.736	3.0909	0.1	1001.1
4677	20.736	2.9091	0.1	1001.1
4678	20.736	2.7273	0.1	988.94
4679	20.736	2.5455	0.1	964.94
4680	20.736	2.3636	0.1	929.89
4681	20.736	2.1818	0.1	885.55
4682	20.736	2.	0.1	834.53
4683	20.736	1.8182	0.1	779.87
4684	20.736	1.6364	0.1	724.38
4685	20.736	1.4545	0.1	670.36
4686	20.736	1.2727	0.1	619.62
4687	20.736	1.0909	0.1	573.62
4688	20.736	0.90909	0.1	533.49
4689	20.736	0.72727	0.1	500.02
4690	20.736	0.54545	0.1	473.66
4691	20.736	0.36364	0.1	454.64
4692	20.736	0.18182	0.1	444.26
4693	20.555	5.8182	0.1	423.26
4694	20.555	5.6364	0.1	436.
4695	20.555	5.4545	0.1	459.36
4696	20.555	5.2727	0.1	492.02
4697	20.555	5.0909	0.1	533.85
4698	20.555	4.9091	0.1	584.49
4699	20.555	4.7273	0.1	643.16
4700	20.555	4.5455	0.1	708.64
4701	20.555	4.3636	0.1	779.08
4702	20.555	4.1818	0.1	852.
4703	20.555	4.	0.1	924.02
4704	20.555	3.8182	0.1	990.78
4705	20.555	3.6364	0.1	1047.7
4706	20.555	3.4545	0.1	1091.4
4707	20.555	3.2727	0.1	1120.3
4708	20.555	3.0909	0.1	1134.5
4709	20.555	2.9091	0.1	1134.5
4710	20.555	2.7273	0.1	1120.3
4711	20.555	2.5455	0.1	1091.4
4712	20.555	2.3636	0.1	1047.7
4713	20.555	2.1818	0.1	990.78
4714	20.555	2.	0.1	924.02
4715	20.555	1.8182	0.1	852.
4716	20.555	1.6364	0.1	779.08
4717	20.555	1.4545	0.1	708.64
4718	20.555	1.2727	0.1	643.16
4719	20.555	1.0909	0.1	584.49
4720	20.555	0.90909	0.1	533.85
4721	20.555	0.72727	0.1	492.02
4722	20.555	0.54545	0.1	459.36
4723	20.555	0.36364	0.1	436.
4724	20.555	0.18182	0.1	423.26
4725	20.373	5.8182	0.1	390.54
4726	20.373	5.6364	0.1	405.98
4727	20.373	5.4545	0.1	434.47
4728	20.373	5.2727	0.1	474.58
4729	20.373	5.0909	0.1	526.29
4730	20.373	4.9091	0.1	589.51
4731	20.373	4.7273	0.1	663.86
4732	20.373	4.5455	0.1	748.32
4733	20.373	4.3636	0.1	840.78
4734	20.373	4.1818	0.1	937.8
4735	20.373	4.	0.1	1034.
4736	20.373	3.8182	0.1	1121.8
4737	20.373	3.6364	0.1	1193.8
4738	20.373	3.4545	0.1	1245.6
4739	20.373	3.2727	0.1	1277.6
4740	20.373	3.0909	0.1	1292.5
4741	20.373	2.9091	0.1	1292.5
4742	20.373	2.7273	0.1	1277.6
4743	20.373	2.5455	0.1	1245.6
4744	20.373	2.3636	0.1	1193.8
4745	20.373	2.1818	0.1	1121.8
4746	20.373	2.	0.1	1034.
4747	20.373	1.8182	0.1	937.8
4748	20.373	1.6364	0.1	840.78
4749	20.373	1.4545	0.1	748.32
4750	20.373	1.2727	0.1	663.86
4751	20.373	1.0909	0.1	589.51
4752	20.373	0.90909	0.1	526.29
4753	20.373	0.72727	0.1	474.58
4754	20.373	0.54545	0.1	434.47
4755	20.373	0.36364	0.1	405.98
4756	20.373	0.18182	0.1	390.54
4757	20.192	5.8182	0.1	345.18
4758	20.192	5.6364	0.1	364.01
4759	20.192	5.4545	0.1	398.83
4760	20.192	5.2727	0.1	447.7
4761	20.192	5.0909	0.1	510.62
4762	20.192	4.9091	0.1	588.12
4763	20.192	4.7273	0.1	681.03
4764	20.192	4.5455	0.1	789.62
4765	20.192	4.3636	0.1	912.5
4766	20.192	4.1818	0.1	1044.6
4767	20.192	4.	0.1	1176.5
4768	20.192	3.8182	0.1	1293.4
4769	20.192	3.6364	0.1	1381.4
4770	20.192	3.4545	0.1	1436.4
4771	20.192	3.2727	0.1	1465.2
4772	20.192	3.0909	0.1	1476.8
4773	20.192	2.9091	0.1	1476.8
4774	20.192	2.7273	0.1	1465.2
4775	20.192	2.5455	0.1	1436.4
4776	20.192	2.3636	0.1	1381.4
4777	20.192	2.1818	0.1	1293.4
4778	20.192	2.	0.1	1176.5
4779	20.192	1.8182	0.1	1044.6
4780	20.192	1.6364	0.1	912.5
4781	20.192	1.4545	0.1	789.62
4782	20.192	1.2727	0.1	681.03
4783	20.192	1.0909	0.1	588.12
4784	20.192	0.90909	0.1	510.62
4785	20.192	0.72727	0.1	447.7
4786	20.192	0.54545	0.1	398.83
4787	20.192	0.36364	0.1	364.01
4788	20.192	0.18182	0.1	345.18
4789	20.011	5.8182	0.1	287.
4790	20.011	5.6364	0.1	311.07
4791	20.011	5.4545	0.1	354.42
4792	20.011	5.2727	0.1	413.47
4793	20.011	5.0909	0.1	488.07
4794	20.011	4.9091	0.1	580.11
4795	20.011	4.7273	0.1	693.07
4796	20.011	4.5455	0.1	831.7
4797	20.011	4.3636	0.1	997.13
4798	20.011	4.1818	0.1	1185.2
4799	20.011	4.	0.1	1377.5
4800	20.011	3.8182	0.1	1535.1
4801	20.011	3.6364	0.1	1633.1
4802	20.011	3.4545	0.1	1673.2
4803	20.011	3.2727	0.1	1683.2
4804	20.011	3.0909	0.1	1683.6
4805	20.011	2.9091	0.1	1683.6
4806	20.011	2.7273	0.1	1683.2
4807	20.011	2.5455	0.1	1673.2
4808	20.011	2.3636	0.1	1633.1
4809	20.011	2.1818	0.1	1535.1
4810	20.011	2.	0.1	1377.5
4811	20.011	1.8182	0.1	1185.2
4812	20.011	1.6364	0.1	997.13
4813	20.011	1.4545	0.1	831.7
4814	20.011	1.2727	0.1	693.07
4815	20.011	1.0909	0.1	580.11
4816	20.011	0.90909	0.1	488.07
4817	20.011	0.72727	0.1	413.47
4818	20.011	0.54545	0.1	354.42
4819	20.011	0.36364	0.1	311.07
4820	20.011	0.18182	0.1	287.
4821	19.829	5.8182	0.1	217.
4822	19.829	5.6364	0.1	251.75
4823	19.829	5.4545	0.1	307.44
4824	19.829	5.2727	0.1	377.41
4825	19.829	5.0909	0.1	462.29
4826	19.829	4.9091	0.1	566.29
4827	19.829	4.7273	0.1	697.32
4828	19.829	4.5455	0.1	867.12
4829	19.829	4.3636	0.1	1092.6
4830	19.829	4.1818	0.1	1389.5
4831	19.829	4.	0.1	1684.1
4832	19.829	3.8182	0.1	1919.
4833	19.829	3.6364	0.1	1981.6
4834	19.829	3.4545	0.1	1957.9
4835	19.829	3.2727	0.1	1919.6
4836	19.829	3.0909	0.1	1897.
4837	19.829	2.9091	0.1	1897.
4838	19.829	2.7273	0.1	1919.6
4839	19.829	2.5455	0.1	1957.9
4840	19.829	2.3636	0.1	1981.6
4841	19.829	2.1818	0.1	1919.
4842	19.829	2.	0.1	1684.1
4843	19.829	1.8182	0.1	1389.5
4844	19.829	1.6364	0.1	1092.6
4845	19.829	1.4545	0.1	867.12
4846	19.829	1.2727	0.1	697.32
4847	19.829	1.0909	0.1	566.29
4848	19.829	0.90909	0.1	462.29
4849	19.829	0.72727	0.1	377.41
4850	19.829	0.54545	0.1	307.44
4851	19.829	0.36364	0.1	251.75
4852	19.829	0.18182	0.1	217.
4853	19.648	5.8182	0.1	144.64
4854	19.648	5.6364	0.1	205.45
4855	19.648	5.4545	0.1	277.83
4856	19.648	5.2727	0.1	358.87
4857	19.648	5.0909	0.1	452.92
4858	19.648	4.9091	0.1	567.07
4859	19.648	4.7273	0.1	712.67
4860	19.648	4.5455	0.1	913.55
4861	19.648	4.3636	0.1	1209.6
4862	19.648	4.1818	0.1	1788.7
4863	19.648	4.	0.1	2519.5
4864	19.648	3.8182	0.1	2619.
4865	19.648	3.6364	0.1	2446.1
4866	19.648	3.4545	0.1	2250.2
4867	19.648	3.2727	0.1	2137.9
4868	19.648	3.0909	0.1	2085.
4869	19.648	2.9091	0.1	2085.
4870	19.648	2.7273	0.1	2137.9
4871	19.648	2.5455	0.1	2250.2
4872	19.648	2.3636	0.1	2446.1
4873	19.648	2.1818	0.1	2619.
4874	19.648	2.	0.1	2519.5
4875	19.648	1.8182	0.1	1788.7
4876	19.648	1.6364	0.1	1209.6
4877	19.648	1.4545	0.1	913.55
4878	19.648	1.2727	0.1	712.67
4879	19.648	1.0909	0.1	567.07
4880	19.648	0.90909	0.1	452.92
4881	19.648	0.72727	0.1	358.87
4882	19.648	0.54545	0.1	277.83
4883	19.648	0.36364	0.1	205.45
4884	19.648	0.18182	0.1	144.64
4885	0.18381	0.18182	0.1	3887.5
4886	0.18381	0.36364	0.1	4487.4
4887	0.18381	0.54545	0.1	5181.2
4888	0.18381	0.72727	0.1	5711.6
4889	0.18381	0.90909	0.1	6110.3
4890	0.18381	1.0909	0.1	6410.4
4891	0.18381	1.2727	0.1	6640.2
4892	0.18381	1.4545	0.1	6818.3
4893	0.18381	1.6364	0.1	6957.7
4894	0.18381	1.8182	0.1	7066.9
4895	0.18381	2.	0.1	7152.3
4896	0.18381	2.1818	0.1	7218.3
4897	0.18381	2.3636	0.1	7267.9
4898	0.18381	2.5455	0.1	7303.5
4899	0.18381	2.7273	0.1	7326.4
4900	0.18381	2.9091	0.1	7337.6
4901	0.18381	3.0909	0.1	7337.6
4902	0.18381	3.2727	0.1	7326.4
4903	0.18381	3.4545	0.1	7303.4
4904	0.18381	3.6364	0.1	7267.9
4905	0.18381	3.8182	0.1	7218.3
4906	0.18381	4.	0.1	7152.3
4907	0.18381	4.1818	0.1	7066.9
4908	0.18381	4.3636	0.1	6957.7
4909	0.18381	4.5455	0.1	6818.3
4910	0.18381	4.7273	0.1	6640.2
4911	0.18381	4.9091	0.1	6410.4
4912	0.18381	5.0909	0.1	6110.3
4913	0.18381	5.2727	0.1	5711.6
4914	0.18381	5.4545	0.1	5181.2
4915	0.18381	5.6364	0.1	4487.4
4916	0.18381	5.8182	0.1	3887.5
4917	0.36762	0.18182	0.1	5027.2
4918	0.36762	0.36364	0.1	5158.3
4919	0.36762	0.54545	0.1	5452.8
4920	0.36762	0.72727	0.1	5779.8
4921	0.36762	0.90909	0.1	6079.8
4922	0.36762	1.0909	0.1	6335.5
4923	0.36762	1.2727	0.1	6546.8
4924	0.36762	1.4545	0.1	6719.3
4925	0.36762	1.6364	0.1	6858.9
4926	0.36762	1.8182	0.1	6971.3
4927	0.36762	2.	0.1	7060.8
4928	0.36762	2.1818	0.1	7130.9
4929	0.36762	2.3636	0.1	7184.1
4930	0.36762	2.5455	0.1	7222.5
4931	0.36762	2.7273	0.1	7247.4
4932	0.36762	2.9091	0.1	7259.7
4933	0.36762	3.0909	0.1	7259.7
4934	0.36762	3.2727	0.1	7247.4
4935	0.36762	3.4545	0.1	7222.5
4936	0.36762	3.6364	0.1	7184.1
4937	0.36762	3.8182	0.1	7130.9
4938	0.36762	4.	0.1	7060.8
4939	0.36762	4.1818	0.1	6971.3
4940	0.36762	4.3636	0.1	6858.9
4941	0.36762	4.5455	0.1	6719.3
4942	0.36762	4.7273	0.1	6546.8
4943	0.36762	4.9091	0.1	6335.5
4944	0.36762	5.0909	0.1	6079.8
4945	0.36762	5.2727	0.1	5779.8
4946	0.36762	5.4545	0.1	5452.8
4947	0.36762	5.6364	0.1	5158.3
4948	0.36762	5.8182	0.1	5027.2
4949	0.55143	0.18182	0.1	5523.4
4950	0.55143	0.36364	0.1	5518.9
4951	0.55143	0.54545	0.1	5631.5
4952	0.55143	0.72727	0.1	5797.6
4953	0.55143	0.90909	0.1	5983.6
4954	0.55143	1.0909	0.1	6165.6
4955	0.55143	1.2727	0.1	6331.4
4956	0.55143	1.4545	0.1	6476.1
4957	0.55143	1.6364	0.1	6599.3
4958	0.55143	1.8182	0.1	6702.
4959	0.55143	2.	0.1	6785.9
4960	0.55143	2.1818	0.1	6853.
4961	0.55143	2.3636	0.1	6904.7
4962	0.55143	2.5455	0.1	6942.4
4963	0.55143	2.7273	0.1	6967.
4964	0.55143	2.9091	0.1	6979.2
4965	0.55143	3.0909	0.1	6979.2
4966	0.55143	3.2727	0.1	6967.
4967	0.55143	3.4545	0.1	6942.4
4968	0.55143	3.6364	0.1	6904.7
4969	0.55143	3.8182	0.1	6853.
4970	0.55143	4.	0.1	6785.9
4971	0.55143	4.1818	0.1	6702.
4972	0.55143	4.3636	0.1	6599.3
4973	0.55143	4.5455	0.1	6476.1
4974	0.55143	4.7273	0.1	6331.4
4975	0.55143	4.9091	0.1	6165.6
4976	0.55143	5.0909	0.1	5983.6
4977	0.55143	5.2727	0.1	5797.6
4978	0.55143	5.4545	0.1	5631.5
4979	0.55143	5.6364	0.1	5518.9
4980	0.55143	5.8182	0.1	5523.4
4981	0.73524	0.18182	0.1	5807.5
4982	0.73524	0.36364	0.1	5765.1
4983	0.73524	0.54545	0.1	5803.3
4984	0.73524	0.72727	0.1	5882.9
4985	0.73524	0.90909	0.1	5989.3
4986	0.73524	1.0909	0.1	6107.9
4987	0.73524	1.2727	0.1	6226.9
4988	0.73524	1.4545	0.1	6338.7
4989	0.73524	1.6364	0.1	6439.2
4990	0.73524	1.8182	0.1	6526.6
4991	0.73524	2.	0.1	6600.3
4992	0.73524	2.1818	0.1	6660.6
4993	0.73524	2.3636	0.1	6708.
4994	0.73524	2.5455	0.1	6743.
4995	0.73524	2.7273	0.1	6766.
4996	0.73524	2.9091	0.1	6777.4
4997	0.73524	3.0909	0.1	6777.4
4998	0.73524	3.2727	0.1	6766.
4999	0.73524	3.4545	0.1	6743.
5000	0.73524	3.6364	0.1	6708.
5001	0.73524	3.8182	0.1	6660.6
5002	0.73524	4.	0.1	6600.3
5003	0.73524	4.1818	0.1	6526.6
5004	0.73524	4.3636	0.1	6439.2
5005	0.73524	4.5455	0.1	6338.7
5006	0.73524	4.7273	0.1	6226.9
5007	0.73524	4.9091	0.1	6107.9
5008	0.73524	5.0909	0.1	5989.3
5009	0.73524	5.2727	0.1	5882.9
5010	0.73524	5.4545	0.1	5803.3
5011	0.73524	5.6364	0.1	5765.1
5012	0.73524	5.8182	0.1	5807.5
5013	0.91905	0.18182	0.1	5960.1
5014	0.91905	0.36364	0.1	5903.8
5015	0.91905	0.54545	0.1	5905.9
5016	0.91905	0.72727	0.1	5937.8
5017	0.91905	0.90909	0.1	5993.4
5018	0.91905	1.0909	0.1	6064.7
5019	0.91905	1.2727	0.1	6143.7
5020	0.91905	1.4545	0.1	6223.8
5021	0.91905	1.6364	0.1	6300.2
5022	0.91905	1.8182	0.1	6369.6
5023	0.91905	2.	0.1	6430.2
5024	0.91905	2.1818	0.1	6481.2
5025	0.91905	2.3636	0.1	6522.
5026	0.91905	2.5455	0.1	6552.6
5027	0.91905	2.7273	0.1	6572.9
5028	0.91905	2.9091	0.1	6583.1
5029	0.91905	3.0909	0.1	6583.1
5030	0.91905	3.2727	0.1	6572.9
5031	0.91905	3.4545	0.1	6552.6
5032	0.91905	3.6364	0.1	6522.
5033	0.91905	3.8182	0.1	6481.2
5034	0.91905	4.	0.1	6430.2
5035	0.91905	4.1818	0.1	6369.6
5036	0.91905	4.3636	0.1	6300.2
5037	0.91905	4.5455	0.1	6223.8
5038	0.91905	4.7273	0.1	6143.7
5039	0.91905	4.9091	0.1	6064.7
5040	0.91905	5.0909	0.1	5993.4
5041	0.91905	5.2727	0.1	5937.8
5042	0.91905	5.4545	0.1	5905.9
5043	0.91905	5.6364	0.1	5903.8
5044	0.91905	5.8182	0.1	5960.1
5045	1.1029	0.18182	0.1	6039.4
5046	1.1029	0.36364	0.1	5980.2
5047	1.1029	0.54545	0.1	5964.6
5048	1.1029	0.72727	0.1	5970.2
5049	1.1029	0.90909	0.1	5994.4
5050	1.1029	1.0909	0.1	6033.2
5051	1.1029	1.2727	0.1	6081.7
5052	1.1029	1.4545	0.1	6135.2
5053	1.1029	1.6364	0.1	6189.5
5054	1.1029	1.8182	0.1	6241.3
5055	1.1029	2.	0.1	6288.2
5056	1.1029	2.1818	0.1	6328.9
5057	1.1029	2.3636	0.1	6362.1
5058	1.1029	2.5455	0.1	6387.4
5059	1.1029	2.7273	0.1	6404.5
5060	1.1029	2.9091	0.1	6413.
5061	1.1029	3.0909	0.1	6413.
5062	1.1029	3.2727	0.1	6404.5
5063	1.1029	3.4545	0.1	6387.4
5064	1.1029	3.6364	0.1	6362.1
5065	1.1029	3.8182	0.1	6328.9
5066	1.1029	4.	0.1	6288.2
5067	1.1029	4.1818	0.1	6241.3
5068	1.1029	4.3636	0.1	6189.5
5069	1.1029	4.5455	0.1	6135.2
5070	1.1029	4.7273	0.1	6081.7
5071	1.1029	4.9091	0.1	6033.2
5072	1.1029	5.0909	0.1	5994.4
5073	1.1029	5.2727	0.1	5970.2
5074	1.1029	5.4545	0.1	5964.6
5075	1.1029	5.6364	0.1	5980.2
5076	1.1029	5.8182	0.1	6039.4
5077	1.2867	0.18182	0.1	6070.9
5078	1.2867	0.36364	0.1	6012.8
5079	1.2867	0.54545	0.1	5988.
5080	1.2867	0.72727	0.1	5978.6
5081	1.2867	0.90909	0.1	5983.3
5082	1.2867	1.0909	0.1	6000.2
5083	1.2867	1.2727	0.1	6026.5
5084	1.2867	1.4545	0.1	6059.1
5085	1.2867	1.6364	0.1	6094.8
5086	1.2867	1.8182	0.1	6130.9
5087	1.2867	2.	0.1	6165.
5088	1.2867	2.1818	0.1	6195.4
5089	1.2867	2.3636	0.1	6221.
5090	1.2867	2.5455	0.1	6240.8
5091	1.2867	2.7273	0.1	6254.3
5092	1.2867	2.9091	0.1	6261.1
5093	1.2867	3.0909	0.1	6261.1
5094	1.2867	3.2727	0.1	6254.3
5095	1.2867	3.4545	0.1	6240.8
5096	1.2867	3.6364	0.1	6221.
5097	1.2867	3.8182	0.1	6195.4
5098	1.2867	4.	0.1	6165.
5099	1.2867	4.1818	0.1	6130.9
5100	1.2867	4.3636	0.1	6094.8
5101	1.2867	4.5455	0.1	6059.1
5102	1.2867	4.7273	0.1	6026.5
5103	1.2867	4.9091	0.1	6000.2
5104	1.2867	5.0909	0.1	5983.3
5105	1.2867	5.2727	0.1	5978.6
5106	1.2867	5.4545	0.1	5988.
5107	1.2867	5.6364	0.1	6012.8
5108	1.2867	5.8182	0.1	6070.9
5109	1.4705	0.18182	0.1	6071.2
5110	1.4705	0.36364	0.1	6015.8
5111	1.4705	0.54545	0.1	5986.5
5112	1.4705	0.72727	0.1	5968.4
5113	1.4705	0.90909	0.1	5960.9
5114	1.4705	1.0909	0.1	5963.2
5115	1.4705	1.2727	0.1	5973.8
5116	1.4705	1.4545	0.1	5990.7
5117	1.4705	1.6364	0.1	6011.6
5118	1.4705	1.8182	0.1	6034.5
5119	1.4705	2.	0.1	6057.3
5120	1.4705	2.1818	0.1	6078.5
5121	1.4705	2.3636	0.1	6096.8
5122	1.4705	2.5455	0.1	6111.3
5123	1.4705	2.7273	0.1	6121.3
5124	1.4705	2.9091	0.1	6126.4
5125	1.4705	3.0909	0.1	6126.4
5126	1.4705	3.2727	0.1	6121.3
5127	1.4705	3.4545	0.1	6111.3
5128	1.4705	3.6364	0.1	6096.8
5129	1.4705	3.8182	0.1	6078.5
5130	1.4705	4.	0.1	6057.3
5131	1.4705	4.1818	0.1	6034.5
5132	1.4705	4.3636	0.1	6011.6
5133	1.4705	4.5455	0.1	5990.7
5134	1.4705	4.7273	0.1	5973.8
5135	1.4705	4.9091	0.1	5963.2
5136	1.4705	5.0909	0.1	5960.9
5137	1.4705	5.2727	0.1	5968.4
5138	1.4705	5.4545	0.1	5986.5
5139	1.4705	5.6364	0.1	6015.8
5140	1.4705	5.8182	0.1	6071.2
5141	1.6543	0.18182	0.1	6050.
5142	1.6543	0.36364	0.1	5998.
5143	1.6543	0.54545	0.1	5966.6
5144	1.6543	0.72727	0.1	5943.5
5145	1.6543	0.90909	0.1	5928.4
5146	1.6543	1.0909	0.1	5921.
5147	1.6543	1.2727	0.1	5920.6
5148	1.6543	1.4545	0.1	5926.
5149	1.6543	1.6364	0.1	5935.6
5150	1.6543	1.8182	0.1	5947.9
5151	1.6543	2.	0.1	5961.4
5152	1.6543	2.1818	0.1	5974.6
5153	1.6543	2.3636	0.1	5986.6
5154	1.6543	2.5455	0.1	5996.3
5155	1.6543	2.7273	0.1	6003.1
5156	1.6543	2.9091	0.1	6006.6
5157	1.6543	3.0909	0.1	6006.6
5158	1.6543	3.2727	0.1	6003.1
5159	1.6543	3.4545	0.1	5996.3
5160	1.6543	3.6364	0.1	5986.6
5161	1.6543	3.8182	0.1	5974.6
5162	1.6543	4.	0.1	5961.4
5163	1.6543	4.1818	0.1	5947.9
5164	1.6543	4.3636	0.1	5935.6
5165	1.6543	4.5455	0.1	5926.
5166	1.6543	4.7273	0.1	5920.6
5167	1.6543	4.9091	0.1	5921.
5168	1.6543	5.0909	0.1	5928.4
5169	1.6543	5.2727	0.1	5943.5
5170	1.6543	5.4545	0.1	5966.6
5171	1.6543	5.6364	0.1	5998.
5172	1.6543	5.8182	0.1	6050.
5173	1.8381	0.18182	0.1	6014.
5174	1.8381	0.36364	0.1	5965.5
5175	1.8381	0.54545	0.1	5933.5
5176	1.8381	0.72727	0.1	5907.6
5177	1.8381	0.90909	0.1	5887.9
5178	1.8381	1.0909	0.1	5874.2
5179	1.8381	1.2727	0.1	5866.2
5180	1.8381	1.4545	0.1	5863.3
5181	1.8381	1.6364	0.1	5864.4
5182	1.8381	1.8182	0.1	5868.5
5183	1.8381	2.	0.1	5874.5
5184	1.8381	2.1818	0.1	5881.3
5185	1.8381	2.3636	0.1	5887.8
5186	1.8381	2.5455	0.1	5893.4
5187	1.8381	2.7273	0.1	5897.5
5188	1.8381	2.9091	0.1	5899.6
5189	1.8381	3.0909	0.1	5899.6
5190	1.8381	3.2727	0.1	5897.5
5191	1.8381	3.4545	0.1	5893.4
5192	1.8381	3.6364	0.1	5887.8
5193	1.8381	3.8182	0.1	5881.3
5194	1.8381	4.	0.1	5874.5
5195	1.8381	4.1818	0.1	5868.5
5196	1.8381	4.3636	0.1	5864.4
5197	1.8381	4.5455	0.1	5863.3
5198	1.8381	4.7273	0.1	5866.2
5199	1.8381	4.9091	0.1	5874.2
5200	1.8381	5.0909	0.1	5887.9
5201	1.8381	5.2727	0.1	5907.6
5202	1.8381	5.4545	0.1	5933.5
5203	1.8381	5.6364	0.1	5965.5
5204	1.8381	5.8182	0.1	6014.
5205	2.0219	0.18182	0.1	5967.5
5206	2.0219	0.36364	0.1	5922.5
5207	2.0219	0.54545	0.1	5890.7
5208	2.0219	0.72727	0.1	5863.5
5209	2.0219	0.90909	0.1	5841.
5210	2.0219	1.0909	0.1	5823.3
5211	2.0219	1.2727	0.1	5810.2
5212	2.0219	1.4545	0.1	5801.5
5213	2.0219	1.6364	0.1	5796.4
5214	2.0219	1.8182	0.1	5794.4
5215	2.0219	2.	0.1	5794.6
5216	2.0219	2.1818	0.1	5796.2
5217	2.0219	2.3636	0.1	5798.4
5218	2.0219	2.5455	0.1	5800.7
5219	2.0219	2.7273	0.1	5802.5
5220	2.0219	2.9091	0.1	5803.4
5221	2.0219	3.0909	0.1	5803.4
5222	2.0219	3.2727	0.1	5802.5
5223	2.0219	3.4545	0.1	5800.7
5224	2.0219	3.6364	0.1	5798.4
5225	2.0219	3.8182	0.1	5796.2
5226	2.0219	4.	0.1	5794.6
5227	2.0219	4.1818	0.1	5794.4
5228	2.0219	4.3636	0.1	5796.4
5229	2.0219	4.5455	0.1	5801.5
5230	2.0219	4.7273	0.1	5810.2
5231	2.0219	4.9091	0.1	5823.3
5232	2.0219	5.0909	0.1	5841.
5233	2.0219	5.2727	0.1	5863.5
5234	2.0219	5.4545	0.1	5890.7
5235	2.0219	5.6364	0.1	5922.5
5236	2.0219	5.8182	0.1	5967.5
5237	2.2057	0.18182	0.1	5913.7
5238	2.2057	0.36364	0.1	5872.
5239	2.2057	0.54545	0.1	5840.9
5240	2.2057	0.72727	0.1	5813.3
5241	2.2057	0.90909	0.1	5789.4
5242	2.2057	1.0909	0.1	5769.2
5243	2.2057	1.2727	0.1	5752.8
5244	2.2057	1.4545	0.1	5740.1
5245	2.2057	1.6364	0.1	5730.7
5246	2.2057	1.8182	0.1	5724.2
5247	2.2057	2.	0.1	5720.1
5248	2.2057	2.1818	0.1	5717.7
5249	2.2057	2.3636	0.1	5716.6
5250	2.2057	2.5455	0.1	5716.2
5251	2.2057	2.7273	0.1	5716.1
5252	2.2057	2.9091	0.1	5716.2
5253	2.2057	3.0909	0.1	5716.2
5254	2.2057	3.2727	0.1	5716.1
5255	2.2057	3.4545	0.1	5716.2
5256	2.2057	3.6364	0.1	5716.6
5257	2.2057	3.8182	0.1	5717.7
5258	2.2057	4.	0.1	5720.1
5259	2.2057	4.1818	0.1	5724.2
5260	2.2057	4.3636	0.1	5730.7
5261	2.2057	4.5455	0.1	5740.1
5262	2.2057	4.7273	0.1	5752.8
5263	2.2057	4.9091	0.1	5769.2
5264	2.2057	5.0909	0.1	5789.4
5265	2.2057	5.2727	0.1	5813.3
5266	2.2057	5.4545	0.1	5840.9
5267	2.2057	5.6364	0.1	5872.
5268	2.2057	5.8182	0.1	5913.7
5269	2.3895	0.18182	0.1	5854.8
5270	2.3895	0.36364	0.1	5816.2
5271	2.3895	0.54545	0.1	5786.2
5272	2.3895	0.72727	0.1	5758.8
5273	2.3895	0.90909	0.1	5734.2
5274	2.3895	1.0909	0.1	5712.7
5275	2.3895	1.2727	0.1	5694.3
5276	2.3895	1.4545	0.1	5679.
5277	2.3895	1.6364	0.1	5666.6
5278	2.3895	1.8182	0.1	5657.
5279	2.3895	2.	0.1	5649.7
5280	2.3895	2.1818	0.1	5644.4
5281	2.3895	2.3636	0.1	5640.8
5282	2.3895	2.5455	0.1	5638.4
5283	2.3895	2.7273	0.1	5636.9
5284	2.3895	2.9091	0.1	5636.3
5285	2.3895	3.0909	0.1	5636.3
5286	2.3895	3.2727	0.1	5636.9
5287	2.3895	3.4545	0.1	5638.4
5288	2.3895	3.6364	0.1	5640.8
5289	2.3895	3.8182	0.1	5644.4
5290	2.3895	4.	0.1	5649.7
5291	2.3895	4.1818	0.1	5657.
5292	2.3895	4.3636	0.1	5666.6
5293	2.3895	4.5455	0.1	5679.
5294	2.3895	4.7273	0.1	5694.3
5295	2.3895	4.9091	0.1	5712.7
5296	2.3895	5.0909	0.1	5734.2
5297	2.3895	5.2727	0.1	5758.8
5298	2.3895	5.4545	0.1	5786.2
5299	2.3895	5.6364	0.1	5816.2
5300	2.3895	5.8182	0.1	5854.8
5301	2.5733	0.18182	0.1	5792.3
5302	2.5733	0.36364	0.1	5756.6
5303	2.5733	0.54545	0.1	5727.9
5304	2.5733	0.72727	0.1	5701.1
5305	2.5733	0.90909	0.1	5676.6
5306	2.5733	1.0909	0.1	5654.4
5307	2.5733	1.2727	0.1	5634.9
5308	2.5733	1.4545	0.1	5618.
5309	2.5733	1.6364	0.1	5603.8
5310	2.5733	1.8182	0.1	5592.
5311	2.5733	2.	0.1	5582.6
5312	2.5733	2.1818	0.1	5575.3
5313	2.5733	2.3636	0.1	5569.8
5314	2.5733	2.5455	0.1	5565.9
5315	2.5733	2.7273	0.1	5563.5
5316	2.5733	2.9091	0.1	5562.3
5317	2.5733	3.0909	0.1	5562.3
5318	2.5733	3.2727	0.1	5563.5
5319	2.5733	3.4545	0.1	5565.9
5320	2.5733	3.6364	0.1	5569.8
5321	2.5733	3.8182	0.1	5575.3
5322	2.5733	4.	0.1	5582.6
5323	2.5733	4.1818	0.1	5592.
5324	2.5733	4.3636	0.1	5603.8
5325	2.5733	4.5455	0.1	5618.
5326	2.5733	4.7273	0.1	5634.9
5327	2.5733	4.9091	0.1	5654.4
5328	2.5733	5.0909	0.1	5676.6
5329	2.5733	5.2727	0.1	5701.1
5330	2.5733	5.4545	0.1	5727.9
5331	2.5733	5.6364	0.1	5756.6
5332	2.5733	5.8182	0.1	5792.3
5333	2.7571	0.18182	0.1	5727.5
5334	2.7571	0.36364	0.1	5694.5
5335	2.7571	0.54545	0.1	5667.1
5336	2.7571	0.72727	0.1	5641.2
5337	2.7571	0.90909	0.1	5617.1
5338	2.7571	1.0909	0.1	5595.
5339	2.7571	1.2727	0.1	5575.
5340	2.7571	1.4545	0.1	5557.3
5341	2.7571	1.6364	0.1	5541.9
5342	2.7571	1.8182	0.1	5528.9
5343	2.7571	2.	0.1	5518.1
5344	2.7571	2.1818	0.1	5509.4
5345	2.7571	2.3636	0.1	5502.7
5346	2.7571	2.5455	0.1	5497.8
5347	2.7571	2.7273	0.1	5494.6
5348	2.7571	2.9091	0.1	5493.
5349	2.7571	3.0909	0.1	5493.
5350	2.7571	3.2727	0.1	5494.6
5351	2.7571	3.4545	0.1	5497.8
5352	2.7571	3.6364	0.1	5502.7
5353	2.7571	3.8182	0.1	5509.4
5354	2.7571	4.	0.1	5518.1
5355	2.7571	4.1818	0.1	5528.9
5356	2.7571	4.3636	0.1	5541.9
5357	2.7571	4.5455	0.1	5557.3
5358	2.7571	4.7273	0.1	5575.
5359	2.7571	4.9091	0.1	5595.
5360	2.7571	5.0909	0.1	5617.1
5361	2.7571	5.2727	0.1	5641.2
5362	2.7571	5.4545	0.1	5667.1
5363	2.7571	5.6364	0.1	5694.5
5364	2.7571	5.8182	0.1	5727.5
5365	2.941	0.18182	0.1	5661.2
5366	2.941	0.36364	0.1	5630.7
5367	2.941	0.54545	0.1	5604.7
5368	2.941	0.72727	0.1	5579.9
5369	2.941	0.90909	0.1	5556.5
5370	2.941	1.0909	0.1	5534.8
5371	2.941	1.2727	0.1	5514.8
5372	2.941	1.4545	0.1	5496.8
5373	2.941	1.6364	0.1	5481.
5374	2.941	1.8182	0.1	5467.2
5375	2.941	2.	0.1	5455.6
5376	2.941	2.1818	0.1	5446.
5377	2.941	2.3636	0.1	5438.5
5378	2.941	2.5455	0.1	5433.
5379	2.941	2.7273	0.1	5429.3
5380	2.941	2.9091	0.1	5427.5
5381	2.941	3.0909	0.1	5427.5
5382	2.941	3.2727	0.1	5429.3
5383	2.941	3.4545	0.1	5433.
5384	2.941	3.6364	0.1	5438.5
5385	2.941	3.8182	0.1	5446.
5386	2.941	4.	0.1	5455.6
5387	2.941	4.1818	0.1	5467.2
5388	2.941	4.3636	0.1	5481.
5389	2.941	4.5455	0.1	5496.8
5390	2.941	4.7273	0.1	5514.8
5391	2.941	4.9091	0.1	5534.8
5392	2.941	5.0909	0.1	5556.5
5393	2.941	5.2727	0.1	5579.9
5394	2.941	5.4545	0.1	5604.7
5395	2.941	5.6364	0.1	5630.7
5396	2.941	5.8182	0.1	5661.2
5397	3.1248	0.18182	0.1	5594.
5398	3.1248	0.36364	0.1	5565.9
5399	3.1248	0.54545	0.1	5541.4
5400	3.1248	0.72727	0.1	5517.7
5401	3.1248	0.90909	0.1	5495.2
5402	3.1248	1.0909	0.1	5474.1
5403	3.1248	1.2727	0.1	5454.5
5404	3.1248	1.4545	0.1	5436.7
5405	3.1248	1.6364	0.1	5420.7
5406	3.1248	1.8182	0.1	5406.7
5407	3.1248	2.	0.1	5394.7
5408	3.1248	2.1818	0.1	5384.7
5409	3.1248	2.3636	0.1	5376.8
5410	3.1248	2.5455	0.1	5370.9
5411	3.1248	2.7273	0.1	5366.9
5412	3.1248	2.9091	0.1	5365.
5413	3.1248	3.0909	0.1	5365.
5414	3.1248	3.2727	0.1	5366.9
5415	3.1248	3.4545	0.1	5370.9
5416	3.1248	3.6364	0.1	5376.8
5417	3.1248	3.8182	0.1	5384.7
5418	3.1248	4.	0.1	5394.7
5419	3.1248	4.1818	0.1	5406.7
5420	3.1248	4.3636	0.1	5420.7
5421	3.1248	4.5455	0.1	5436.7
5422	3.1248	4.7273	0.1	5454.5
5423	3.1248	4.9091	0.1	5474.1
5424	3.1248	5.0909	0.1	5495.2
5425	3.1248	5.2727	0.1	5517.7
5426	3.1248	5.4545	0.1	5541.4
5427	3.1248	5.6364	0.1	5565.9
5428	3.1248	5.8182	0.1	5594.
5429	3.3086	0.18182	0.1	5526.5
5430	3.3086	0.36364	0.1	5500.5
5431	3.3086	0.54545	0.1	5477.4
5432	3.3086	0.72727	0.1	5455.
5433	3.3086	0.90909	0.1	5433.5
5434	3.3086	1.0909	0.1	5413.2
5435	3.3086	1.2727	0.1	5394.2
5436	3.3086	1.4545	0.1	5376.8
5437	3.3086	1.6364	0.1	5361.
5438	3.3086	1.8182	0.1	5347.1
5439	3.3086	2.	0.1	5335.1
5440	3.3086	2.1818	0.1	5325.
5441	3.3086	2.3636	0.1	5316.9
5442	3.3086	2.5455	0.1	5310.8
5443	3.3086	2.7273	0.1	5306.8
5444	3.3086	2.9091	0.1	5304.8
5445	3.3086	3.0909	0.1	5304.8
5446	3.3086	3.2727	0.1	5306.8
5447	3.3086	3.4545	0.1	5310.8
5448	3.3086	3.6364	0.1	5316.9
5449	3.3086	3.8182	0.1	5325.
5450	3.3086	4.	0.1	5335.1
5451	3.3086	4.1818	0.1	5347.1
5452	3.3086	4.3636	0.1	5361.
5453	3.3086	4.5455	0.1	5376.8
5454	3.3086	4.7273	0.1	5394.2
5455	3.3086	4.9091	0.1	5413.2
5456	3.3086	5.0909	0.1	5433.5
5457	3.3086	5.2727	0.1	5455.
5458	3.3086	5.4545	0.1	5477.4
5459	3.3086	5.6364	0.1	5500.5
5460	3.3086	5.8182	0.1	5526.5
5461	3.4924	0.18182	0.1	5458.9
5462	3.4924	0.36364	0.1	5434.9
5463	3.4924	0.54545	0.1	5413.2
5464	3.4924	0.72727	0.1	5392.
5465	3.4924	0.90909	0.1	5371.7
5466	3.4924	1.0909	0.1	5352.3
5467	3.4924	1.2727	0.1	5334.1
5468	3.4924	1.4545	0.1	5317.2
5469	3.4924	1.6364	0.1	5301.9
5470	3.4924	1.8182	0.1	5288.3
5471	3.4924	2.	0.1	5276.5
5472	3.4924	2.1818	0.1	5266.5
5473	3.4924	2.3636	0.1	5258.4
5474	3.4924	2.5455	0.1	5252.4
5475	3.4924	2.7273	0.1	5248.3
5476	3.4924	2.9091	0.1	5246.3
5477	3.4924	3.0909	0.1	5246.3
5478	3.4924	3.2727	0.1	5248.3
5479	3.4924	3.4545	0.1	5252.4
5480	3.4924	3.6364	0.1	5258.4
5481	3.4924	3.8182	0.1	5266.5
5482	3.4924	4.	0.1	5276.5
5483	3.4924	4.1818	0.1	5288.3
5484	3.4924	4.3636	0.1	5301.9
5485	3.4924	4.5455	0.1	5317.2
5486	3.4924	4.7273	0.1	5334.1
5487	3.4924	4.9091	0.1	5352.3
5488	3.4924	5.0909	0.1	5371.7
5489	3.4924	5.2727	0.1	5392.
5490	3.4924	5.4545	0.1	5413.2
5491	3.4924	5.6364	0.1	5434.9
5492	3.4924	5.8182	0.1	5458.9
5493	3.6762	0.18182	0.1	5391.6
5494	3.6762	0.36364	0.1	5369.4
5495	3.6762	0.54545	0.1	5349.
5496	3.6762	0.72727	0.1	5329.1
5497	3.6762	0.90909	0.1	5309.9
5498	3.6762	1.0909	0.1	5291.5
5499	3.6762	1.2727	0.1	5274.1
5500	3.6762	1.4545	0.1	5258.
5501	3.6762	1.6364	0.1	5243.3
5502	3.6762	1.8182	0.1	5230.2
5503	3.6762	2.	0.1	5218.7
5504	3.6762	2.1818	0.1	5209.
5505	3.6762	2.3636	0.1	5201.1
5506	3.6762	2.5455	0.1	5195.2
5507	3.6762	2.7273	0.1	5191.2
5508	3.6762	2.9091	0.1	5189.2
5509	3.6762	3.0909	0.1	5189.2
5510	3.6762	3.2727	0.1	5191.2
5511	3.6762	3.4545	0.1	5195.2
5512	3.6762	3.6364	0.1	5201.1
5513	3.6762	3.8182	0.1	5209.
5514	3.6762	4.	0.1	5218.7
5515	3.6762	4.1818	0.1	5230.2
5516	3.6762	4.3636	0.1	5243.3
5517	3.6762	4.5455	0.1	5258.
5518	3.6762	4.7273	0.1	5274.1
5519	3.6762	4.9091	0.1	5291.5
5520	3.6762	5.0909	0.1	5309.9
5521	3.6762	5.2727	0.1	5329.1
5522	3.6762	5.4545	0.1	5349.
5523	3.6762	5.6364	0.1	5369.4
5524	3.6762	5.8182	0.1	5391.6
5525	3.86	0.18182	0.1	5324.6
5526	3.86	0.36364	0.1	5304.1
5527	3.86	0.54545	0.1	5285.
5528	3.86	0.72727	0.1	5266.3
5529	3.86	0.90909	0.1	5248.2
5530	3.86	1.0909	0.1	5230.9
5531	3.86	1.2727	0.1	5214.4
5532	3.86	1.4545	0.1	5199.2
5533	3.86	1.6364	0.1	5185.1
5534	3.86	1.8182	0.1	5172.6
5535	3.86	2.	0.1	5161.6
5536	3.86	2.1818	0.1	5152.2
5537	3.86	2.3636	0.1	5144.6
5538	3.86	2.5455	0.1	5138.9
5539	3.86	2.7273	0.1	5135.
5540	3.86	2.9091	0.1	5133.1
5541	3.86	3.0909	0.1	5133.1
5542	3.86	3.2727	0.1	5135.
5543	3.86	3.4545	0.1	5138.9
5544	3.86	3.6364	0.1	5144.6
5545	3.86	3.8182	0.1	5152.2
5546	3.86	4.	0.1	5161.6
5547	3.86	4.1818	0.1	5172.6
5548	3.86	4.3636	0.1	5185.1
5549	3.86	4.5455	0.1	5199.2
5550	3.86	4.7273	0.1	5214.4
5551	3.86	4.9091	0.1	5230.9
5552	3.86	5.0909	0.1	5248.2
5553	3.86	5.2727	0.1	5266.3
5554	3.86	5.4545	0.1	5285.
5555	3.86	5.6364	0.1	5304.1
5556	3.86	5.8182	0.1	5324.6
5557	4.0438	0.18182	0.1	5258.1
5558	4.0438	0.36364	0.1	5239.2
5559	4.0438	0.54545	0.1	5221.4
5560	4.0438	0.72727	0.1	5203.8
5561	4.0438	0.90909	0.1	5186.8
5562	4.0438	1.0909	0.1	5170.5
5563	4.0438	1.2727	0.1	5155.1
5564	4.0438	1.4545	0.1	5140.6
5565	4.0438	1.6364	0.1	5127.4
5566	4.0438	1.8182	0.1	5115.4
5567	4.0438	2.	0.1	5104.9
5568	4.0438	2.1818	0.1	5096.
5569	4.0438	2.3636	0.1	5088.8
5570	4.0438	2.5455	0.1	5083.3
5571	4.0438	2.7273	0.1	5079.6
5572	4.0438	2.9091	0.1	5077.8
5573	4.0438	3.0909	0.1	5077.8
5574	4.0438	3.2727	0.1	5079.6
5575	4.0438	3.4545	0.1	5083.3
5576	4.0438	3.6364	0.1	5088.8
5577	4.0438	3.8182	0.1	5096.
5578	4.0438	4.	0.1	5104.9
5579	4.0438	4.1818	0.1	5115.4
5580	4.0438	4.3636	0.1	5127.3
5581	4.0438	4.5455	0.1	5140.6
5582	4.0438	4.7273	0.1	5155.1
5583	4.0438	4.9091	0.1	5170.5
5584	4.0438	5.0909	0.1	5186.8
5585	4.0438	5.2727	0.1	5203.8
5586	4.0438	5.4545	0.1	5221.4
5587	4.0438	5.6364	0.1	5239.2
5588	4.0438	5.8182	0.1	5258.1
5589	4.2276	0.18182	0.1	5192.2
5590	4.2276	0.36364	0.1	5174.7
5591	4.2276	0.54545	0.1	5158.1
5592	4.2276	0.72727	0.1	5141.7
5593	4.2276	0.90909	0.1	5125.8
5594	4.2276	1.0909	0.1	5110.5
5595	4.2276	1.2727	0.1	5096.
5596	4.2276	1.4545	0.1	5082.4
5597	4.2276	1.6364	0.1	5069.9
5598	4.2276	1.8182	0.1	5058.7
5599	4.2276	2.	0.1	5048.8
5600	4.2276	2.1818	0.1	5040.3
5601	4.2276	2.3636	0.1	5033.5
5602	4.2276	2.5455	0.1	5028.3
5603	4.2276	2.7273	0.1	5024.8
5604	4.2276	2.9091	0.1	5023.
5605	4.2276	3.0909	0.1	5023.
5606	4.2276	3.2727	0.1	5024.8
5607	4.2276	3.4545	0.1	5028.3
5608	4.2276	3.6364	0.1	5033.5
5609	4.2276	3.8182	0.1	5040.3
5610	4.2276	4.	0.1	5048.8
5611	4.2276	4.1818	0.1	5058.6
5612	4.2276	4.3636	0.1	5069.9
5613	4.2276	4.5455	0.1	5082.4
5614	4.2276	4.7273	0.1	5096.
5615	4.2276	4.9091	0.1	5110.5
5616	4.2276	5.0909	0.1	5125.8
5617	4.2276	5.2727	0.1	5141.7
5618	4.2276	5.4545	0.1	5158.1
5619	4.2276	5.6364	0.1	5174.7
5620	4.2276	5.8182	0.1	5192.2
5621	4.4114	0.18182	0.1	5126.9
5622	4.4114	0.36364	0.1	5110.7
5623	4.4114	0.54545	0.1	5095.2
5624	4.4114	0.72727	0.1	5079.9
5625	4.4114	0.90909	0.1	5065.1
5626	4.4114	1.0909	0.1	5050.8
5627	4.4114	1.2727	0.1	5037.2
5628	4.4114	1.4545	0.1	5024.5
5629	4.4114	1.6364	0.1	5012.8
5630	4.4114	1.8182	0.1	5002.2
5631	4.4114	2.	0.1	4992.9
5632	4.4114	2.1818	0.1	4985.
5633	4.4114	2.3636	0.1	4978.5
5634	4.4114	2.5455	0.1	4973.6
5635	4.4114	2.7273	0.1	4970.3
5636	4.4114	2.9091	0.1	4968.7
5637	4.4114	3.0909	0.1	4968.7
5638	4.4114	3.2727	0.1	4970.3
5639	4.4114	3.4545	0.1	4973.6
5640	4.4114	3.6364	0.1	4978.5
5641	4.4114	3.8182	0.1	4985.
5642	4.4114	4.	0.1	4992.9
5643	4.4114	4.1818	0.1	5002.2
5644	4.4114	4.3636	0.1	5012.8
5645	4.4114	4.5455	0.1	5024.5
5646	4.4114	4.7273	0.1	5037.2
5647	4.4114	4.9091	0.1	5050.8
5648	4.4114	5.0909	0.1	5065.1
5649	4.4114	5.2727	0.1	5079.9
5650	4.4114	5.4545	0.1	5095.2
5651	4.4114	5.6364	0.1	5110.7
5652	4.4114	5.8182	0.1	5126.9
5653	4.5952	0.18182	0.1	5062.3
5654	4.5952	0.36364	0.1	5047.3
5655	4.5952	0.54545	0.1	5032.9
5656	4.5952	0.72727	0.1	5018.6
5657	4.5952	0.90909	0.1	5004.8
5658	4.5952	1.0909	0.1	4991.4
5659	4.5952	1.2727	0.1	4978.7
5660	4.5952	1.4545	0.1	4966.9
5661	4.5952	1.6364	0.1	4955.9
5662	4.5952	1.8182	0.1	4946.
5663	4.5952	2.	0.1	4937.3
5664	4.5952	2.1818	0.1	4929.9
5665	4.5952	2.3636	0.1	4923.9
5666	4.5952	2.5455	0.1	4919.3
5667	4.5952	2.7273	0.1	4916.2
5668	4.5952	2.9091	0.1	4914.6
5669	4.5952	3.0909	0.1	4914.6
5670	4.5952	3.2727	0.1	4916.2
5671	4.5952	3.4545	0.1	4919.3
5672	4.5952	3.6364	0.1	4923.9
5673	4.5952	3.8182	0.1	4929.9
5674	4.5952	4.	0.1	4937.3
5675	4.5952	4.1818	0.1	4946.
5676	4.5952	4.3636	0.1	4955.9
5677	4.5952	4.5455	0.1	4966.9
5678	4.5952	4.7273	0.1	4978.7
5679	4.5952	4.9091	0.1	4991.4
5680	4.5952	5.0909	0.1	5004.8
5681	4.5952	5.2727	0.1	5018.6
5682	4.5952	5.4545	0.1	5032.9
5683	4.5952	5.6364	0.1	5047.3
5684	4.5952	5.8182	0.1	5062.3
5685	4.779	0.18182	0.1	4998.4
5686	4.779	0.36364	0.1	4984.4
5687	4.779	0.54545	0.1	4971.
5688	4.779	0.72727	0.1	4957.7
5689	4.779	0.90909	0.1	4944.8
5690	4.779	1.0909	0.1	4932.4
5691	4.779	1.2727	0.1	4920.6
5692	4.779	1.4545	0.1	4909.5
5693	4.779	1.6364	0.1	4899.3
5694	4.779	1.8182	0.1	4890.1
5695	4.779	2.	0.1	4882.
5696	4.779	2.1818	0.1	4875.1
5697	4.779	2.3636	0.1	4869.4
5698	4.779	2.5455	0.1	4865.1
5699	4.779	2.7273	0.1	4862.3
5700	4.779	2.9091	0.1	4860.8
5701	4.779	3.0909	0.1	4860.8
5702	4.779	3.2727	0.1	4862.3
5703	4.779	3.4545	0.1	4865.1
5704	4.779	3.6364	0.1	4869.4
5705	4.779	3.8182	0.1	4875.1
5706	4.779	4.	0.1	4882.
5707	4.779	4.1818	0.1	4890.1
5708	4.779	4.3636	0.1	4899.3
5709	4.779	4.5455	0.1	4909.5
5710	4.779	4.7273	0.1	4920.6
5711	4.779	4.9091	0.1	4932.4
5712	4.779	5.0909	0.1	4944.8
5713	4.779	5.2727	0.1	4957.7
5714	4.779	5.4545	0.1	4971.
5715	4.779	5.6364	0.1	4984.4
5716	4.779	5.8182	0.1	4998.4
5717	4.9629	0.18182	0.1	4935.1
5718	4.9629	0.36364	0.1	4922.1
5719	4.9629	0.54545	0.1	4909.6
5720	4.9629	0.72727	0.1	4897.3
5721	4.9629	0.90909	0.1	4885.3
5722	4.9629	1.0909	0.1	4873.7
5723	4.9629	1.2727	0.1	4862.8
5724	4.9629	1.4545	0.1	4852.5
5725	4.9629	1.6364	0.1	4843.
5726	4.9629	1.8182	0.1	4834.4
5727	4.9629	2.	0.1	4826.9
5728	4.9629	2.1818	0.1	4820.4
5729	4.9629	2.3636	0.1	4815.2
5730	4.9629	2.5455	0.1	4811.2
5731	4.9629	2.7273	0.1	4808.5
5732	4.9629	2.9091	0.1	4807.1
5733	4.9629	3.0909	0.1	4807.1
5734	4.9629	3.2727	0.1	4808.5
5735	4.9629	3.4545	0.1	4811.2
5736	4.9629	3.6364	0.1	4815.2
5737	4.9629	3.8182	0.1	4820.4
5738	4.9629	4.	0.1	4826.9
5739	4.9629	4.1818	0.1	4834.4
5740	4.9629	4.3636	0.1	4843.
5741	4.9629	4.5455	0.1	4852.5
5742	4.9629	4.7273	0.1	4862.8
5743	4.9629	4.9091	0.1	4873.7
5744	4.9629	5.0909	0.1	4885.3
5745	4.9629	5.2727	0.1	4897.3
5746	4.9629	5.4545	0.1	4909.6
5747	4.9629	5.6364	0.1	4922.1
5748	4.9629	5.8182	0.1	4935.1
5749	5.1467	0.18182	0.1	4872.4
5750	5.1467	0.36364	0.1	4860.4
5751	5.1467	0.54545	0.1	4848.8
5752	5.1467	0.72727	0.1	4837.3
5753	5.1467	0.90909	0.1	4826.2
5754	5.1467	1.0909	0.1	4815.4
5755	5.1467	1.2727	0.1	4805.2
5756	5.1467	1.4545	0.1	4795.6
5757	5.1467	1.6364	0.1	4786.8
5758	5.1467	1.8182	0.1	4778.9
5759	5.1467	2.	0.1	4771.9
5760	5.1467	2.1818	0.1	4765.9
5761	5.1467	2.3636	0.1	4761.
5762	5.1467	2.5455	0.1	4757.3
5763	5.1467	2.7273	0.1	4754.8
5764	5.1467	2.9091	0.1	4753.5
5765	5.1467	3.0909	0.1	4753.5
5766	5.1467	3.2727	0.1	4754.8
5767	5.1467	3.4545	0.1	4757.3
5768	5.1467	3.6364	0.1	4761.
5769	5.1467	3.8182	0.1	4765.9
5770	5.1467	4.	0.1	4771.9
5771	5.1467	4.1818	0.1	4778.9
5772	5.1467	4.3636	0.1	4786.8
5773	5.1467	4.5455	0.1	4795.6
5774	5.1467	4.7273	0.1	4805.2
5775	5.1467	4.9091	0.1	4815.4
5776	5.1467	5.0909	0.1	4826.2
5777	5.1467	5.2727	0.1	4837.3
5778	5.1467	5.4545	0.1	4848.8
5779	5.1467	5.6364	0.1	4860.4
5780	5.1467	5.8182	0.1	4872.4
5781	5.3305	0.18182	0.1	4810.4
5782	5.3305	0.36364	0.1	4799.2
5783	5.3305	0.54545	0.1	4788.4
5784	5.3305	0.72727	0.1	4777.8
5785	5.3305	0.90909	0.1	4767.4
5786	5.3305	1.0909	0.1	4757.4
5787	5.3305	1.2727	0.1	4748.
5788	5.3305	1.4545	0.1	4739.1
5789	5.3305	1.6364	0.1	4730.9
5790	5.3305	1.8182	0.1	4723.5
5791	5.3305	2.	0.1	4717.
5792	5.3305	2.1818	0.1	4711.5
5793	5.3305	2.3636	0.1	4707.
5794	5.3305	2.5455	0.1	4703.5
5795	5.3305	2.7273	0.1	4701.2
5796	5.3305	2.9091	0.1	4700.
5797	5.3305	3.0909	0.1	4700.
5798	5.3305	3.2727	0.1	4701.2
5799	5.3305	3.4545	0.1	4703.5
5800	5.3305	3.6364	0.1	4707.
5801	5.3305	3.8182	0.1	4711.5
5802	5.3305	4.	0.1	4717.
5803	5.3305	4.1818	0.1	4723.5
5804	5.3305	4.3636	0.1	4730.9
5805	5.3305	4.5455	0.1	4739.1
5806	5.3305	4.7273	0.1	4748.
5807	5.3305	4.9091	0.1	4757.4
5808	5.3305	5.0909	0.1	4767.4
5809	5.3305	5.2727	0.1	4777.8
5810	5.3305	5.4545	0.1	4788.4
5811	5.3305	5.6364	0.1	4799.2
5812	5.3305	5.8182	0.1	4810.4
5813	5.5143	0.18182	0.1	4749.
5814	5.5143	0.36364	0.1	4738.6
5815	5.5143	0.54545	0.1	4728.5
5816	5.5143	0.72727	0.1	4718.6
5817	5.5143	0.90909	0.1	4709.
5818	5.5143	1.0909	0.1	4699.8
5819	5.5143	1.2727	0.1	4691.
5820	5.5143	1.4545	0.1	4682.8
5821	5.5143	1.6364	0.1	4675.2
5822	5.5143	1.8182	0.1	4668.3
5823	5.5143	2.	0.1	4662.3
5824	5.5143	2.1818	0.1	4657.2
5825	5.5143	2.3636	0.1	4653.
5826	5.5143	2.5455	0.1	4649.8
5827	5.5143	2.7273	0.1	4647.7
5828	5.5143	2.9091	0.1	4646.6
5829	5.5143	3.0909	0.1	4646.6
5830	5.5143	3.2727	0.1	4647.7
5831	5.5143	3.4545	0.1	4649.8
5832	5.5143	3.6364	0.1	4653.
5833	5.5143	3.8182	0.1	4657.2
5834	5.5143	4.	0.1	4662.3
5835	5.5143	4.1818	0.1	4668.3
5836	5.5143	4.3636	0.1	4675.2
5837	5.5143	4.5455	0.1	4682.8
5838	5.5143	4.7273	0.1	4691.
5839	5.5143	4.9091	0.1	4699.8
5840	5.5143	5.0909	0.1	4709.
5841	5.5143	5.2727	0.1	4718.6
5842	5.5143	5.4545	0.1	4728.5
5843	5.5143	5.6364	0.1	4738.6
5844	5.5143	5.8182	0.1	4749.
5845	5.6981	0.18182	0.1	4688.1
5846	5.6981	0.36364	0.1	4678.5
5847	5.6981	0.54545	0.1	4669.1
5848	5.6981	0.72727	0.1	4659.9
5849	5.6981	0.90909	0.1	4651.
5850	5.6981	1.0909	0.1	4642.4
5851	5.6981	1.2727	0.1	4634.3
5852	5.6981	1.4545	0.1	4626.6
5853	5.6981	1.6364	0.1	4619.6
5854	5.6981	1.8182	0.1	4613.3
5855	5.6981	2.	0.1	4607.7
5856	5.6981	2.1818	0.1	4603.
5857	5.6981	2.3636	0.1	4599.1
5858	5.6981	2.5455	0.1	4596.2
5859	5.6981	2.7273	0.1	4594.2
5860	5.6981	2.9091	0.1	4593.2
5861	5.6981	3.0909	0.1	4593.2
5862	5.6981	3.2727	0.1	4594.2
5863	5.6981	3.4545	0.1	4596.2
5864	5.6981	3.6364	0.1	4599.1
5865	5.6981	3.8182	0.1	4603.
5866	5.6981	4.	0.1	4607.7
5867	5.6981	4.1818	0.1	4613.3
5868	5.6981	4.3636	0.1	4619.6
5869	5.6981	4.5455	0.1	4626.6
5870	5.6981	4.7273	0.1	4634.3
5871	5.6981	4.9091	0.1	4642.4
5872	5.6981	5.0909	0.1	4651.
5873	5.6981	5.2727	0.1	4659.9
5874	5.6981	5.4545	0.1	4669.1
5875	5.6981	5.6364	0.1	4678.5
5876	5.6981	5.8182	0.1	4688.1
5877	5.8819	0.18182	0.1	4627.9
5878	5.8819	0.36364	0.1	4618.8
5879	5.8819	0.54545	0.1	4610.2
5880	5.8819	0.72727	0.1	4601.6
5881	5.8819	0.90909	0.1	4593.3
5882	5.8819	1.0909	0.1	4585.4
5883	5.8819	1.2727	0.1	4577.8
5884	5.8819	1.4545	0.1	4570.8
5885	5.8819	1.6364	0.1	4564.3
5886	5.8819	1.8182	0.1	4558.4
5887	5.8819	2.	0.1	4553.3
5888	5.8819	2.1818	0.1	4548.9
5889	5.8819	2.3636	0.1	4545.3
5890	5.8819	2.5455	0.1	4542.6
5891	5.8819	2.7273	0.1	4540.7
5892	5.8819	2.9091	0.1	4539.8
5893	5.8819	3.0909	0.1	4539.8
5894	5.8819	3.2727	0.1	4540.7
5895	5.8819	3.4545	0.1	4542.6
5896	5.8819	3.6364	0.1	4545.3
5897	5.8819	3.8182	0.1	4548.9
5898	5.8819	4.	0.1	4553.3
5899	5.8819	4.1818	0.1	4558.4
5900	5.8819	4.3636	0.1	4564.3
5901	5.8819	4.5455	0.1	4570.8
5902	5.8819	4.7273	0.1	4577.8
5903	5.8819	4.9091	0.1	4585.4
5904	5.8819	5.0909	0.1	4593.3
5905	5.8819	5.2727	0.1	4601.6
5906	5.8819	5.4545	0.1	4610.2
5907	5.8819	5.6364	0.1	4618.8
5908	5.8819	5.8182	0.1	4627.9
5909	6.0657	0.18182	0.1	4568.1
5910	6.0657	0.36364	0.1	4559.7
5911	6.0657	0.54545	0.1	4551.6
5912	6.0657	0.72727	0.1	4543.7
5913	6.0657	0.90909	0.1	4536.
5914	6.0657	1.0909	0.1	4528.6
5915	6.0657	1.2727	0.1	4521.6
5916	6.0657	1.4545	0.1	4515.1
5917	6.0657	1.6364	0.1	4509.1
5918	6.0657	1.8182	0.1	4503.7
5919	6.0657	2.	0.1	4498.9
5920	6.0657	2.1818	0.1	4494.8
5921	6.0657	2.3636	0.1	4491.5
5922	6.0657	2.5455	0.1	4489.
5923	6.0657	2.7273	0.1	4487.3
5924	6.0657	2.9091	0.1	4486.5
5925	6.0657	3.0909	0.1	4486.5
5926	6.0657	3.2727	0.1	4487.3
5927	6.0657	3.4545	0.1	4489.
5928	6.0657	3.6364	0.1	4491.5
5929	6.0657	3.8182	0.1	4494.8
5930	6.0657	4.	0.1	4498.9
5931	6.0657	4.1818	0.1	4503.7
5932	6.0657	4.3636	0.1	4509.1
5933	6.0657	4.5455	0.1	4515.1
5934	6.0657	4.7273	0.1	4521.6
5935	6.0657	4.9091	0.1	4528.6
5936	6.0657	5.0909	0.1	4536.
5937	6.0657	5.2727	0.1	4543.7
5938	6.0657	5.4545	0.1	4551.6
5939	6.0657	5.6364	0.1	4559.7
5940	6.0657	5.8182	0.1	4568.1
5941	6.2495	0.18182	0.1	4508.9
5942	6.2495	0.36364	0.1	4501.
5943	6.2495	0.54545	0.1	4493.5
5944	6.2495	0.72727	0.1	4486.1
5945	6.2495	0.90909	0.1	4479.
5946	6.2495	1.0909	0.1	4472.1
5947	6.2495	1.2727	0.1	4465.7
5948	6.2495	1.4545	0.1	4459.6
5949	6.2495	1.6364	0.1	4454.
5950	6.2495	1.8182	0.1	4449.
5951	6.2495	2.	0.1	4444.6
5952	6.2495	2.1818	0.1	4440.9
5953	6.2495	2.3636	0.1	4437.8
5954	6.2495	2.5455	0.1	4435.5
5955	6.2495	2.7273	0.1	4433.9
5956	6.2495	2.9091	0.1	4433.2
5957	6.2495	3.0909	0.1	4433.2
5958	6.2495	3.2727	0.1	4433.9
5959	6.2495	3.4545	0.1	4435.5
5960	6.2495	3.6364	0.1	4437.8
5961	6.2495	3.8182	0.1	4440.9
5962	6.2495	4.	0.1	4444.6
5963	6.2495	4.1818	0.1	4449.
5964	6.2495	4.3636	0.1	4454.
5965	6.2495	4.5455	0.1	4459.6
5966	6.2495	4.7273	0.1	4465.7
5967	6.2495	4.9091	0.1	4472.1
5968	6.2495	5.0909	0.1	4479.
5969	6.2495	5.2727	0.1	4486.1
5970	6.2495	5.4545	0.1	4493.5
5971	6.2495	5.6364	0.1	4501.
5972	6.2495	5.8182	0.1	4508.9
5973	6.4333	0.18182	0.1	4450.2
5974	6.4333	0.36364	0.1	4442.8
5975	6.4333	0.54545	0.1	4435.8
5976	6.4333	0.72727	0.1	4428.9
5977	6.4333	0.90909	0.1	4422.3
5978	6.4333	1.0909	0.1	4416.
5979	6.4333	1.2727	0.1	4409.9
5980	6.4333	1.4545	0.1	4404.3
5981	6.4333	1.6364	0.1	4399.2
5982	6.4333	1.8182	0.1	4394.6
5983	6.4333	2.	0.1	4390.5
5984	6.4333	2.1818	0.1	4387.
5985	6.4333	2.3636	0.1	4384.2
5986	6.4333	2.5455	0.1	4382.
5987	6.4333	2.7273	0.1	4380.6
5988	6.4333	2.9091	0.1	4379.9
5989	6.4333	3.0909	0.1	4379.9
5990	6.4333	3.2727	0.1	4380.6
5991	6.4333	3.4545	0.1	4382.
5992	6.4333	3.6364	0.1	4384.2
5993	6.4333	3.8182	0.1	4387.
5994	6.4333	4.	0.1	4390.5
5995	6.4333	4.1818	0.1	4394.6
5996	6.4333	4.3636	0.1	4399.2
5997	6.4333	4.5455	0.1	4404.3
5998	6.4333	4.7273	0.1	4409.9
5999	6.4333	4.9091	0.1	4416.
6000	6.4333	5.0909	0.1	4422.3
6001	6.4333	5.2727	0.1	4428.9
6002	6.4333	5.4545	0.1	4435.8
6003	6.4333	5.6364	0.1	4442.8
6004	6.4333	5.8182	0.1	4450.2
6005	6.6171	0.18182	0.1	4391.9
6006	6.6171	0.36364	0.1	4384.9
6007	6.6171	0.54545	0.1	4378.4
6008	6.6171	0.72727	0.1	4372.1
6009	6.6171	0.90909	0.1	4365.9
6010	6.6171	1.0909	0.1	4360.
6011	6.6171	1.2727	0.1	4354.5
6012	6.6171	1.4545	0.1	4349.3
6013	6.6171	1.6364	0.1	4344.5
6014	6.6171	1.8182	0.1	4340.2
6015	6.6171	2.	0.1	4336.4
6016	6.6171	2.1818	0.1	4333.2
6017	6.6171	2.3636	0.1	4330.6
6018	6.6171	2.5455	0.1	4328.7
6019	6.6171	2.7273	0.1	4327.3
6020	6.6171	2.9091	0.1	4326.6
6021	6.6171	3.0909	0.1	4326.6
6022	6.6171	3.2727	0.1	4327.3
6023	6.6171	3.4545	0.1	4328.7
6024	6.6171	3.6364	0.1	4330.6
6025	6.6171	3.8182	0.1	4333.2
6026	6.6171	4.	0.1	4336.4
6027	6.6171	4.1818	0.1	4340.2
6028	6.6171	4.3636	0.1	4344.5
6029	6.6171	4.5455	0.1	4349.3
6030	6.6171	4.7273	0.1	4354.5
6031	6.6171	4.9091	0.1	4360.
6032	6.6171	5.0909	0.1	4365.9
6033	6.6171	5.2727	0.1	4372.1
6034	6.6171	5.4545	0.1	4378.4
6035	6.6171	5.6364	0.1	4384.9
6036	6.6171	5.8182	0.1	4391.9
6037	6.801	0.18182	0.1	4334.1
6038	6.801	0.36364	0.1	4327.5
6039	6.801	0.54545	0.1	4321.5
6040	6.801	0.72727	0.1	4315.5
6041	6.801	0.90909	0.1	4309.8
6042	6.801	1.0909	0.1	4304.4
6043	6.801	1.2727	0.1	4299.2
6044	6.801	1.4545	0.1	4294.4
6045	6.801	1.6364	0.1	4290.
6046	6.801	1.8182	0.1	4286.
6047	6.801	2.	0.1	4282.5
6048	6.801	2.1818	0.1	4279.6
6049	6.801	2.3636	0.1	4277.1
6050	6.801	2.5455	0.1	4275.3
6051	6.801	2.7273	0.1	4274.1
6052	6.801	2.9091	0.1	4273.5
6053	6.801	3.0909	0.1	4273.5
6054	6.801	3.2727	0.1	4274.1
6055	6.801	3.4545	0.1	4275.3
6056	6.801	3.6364	0.1	4277.1
6057	6.801	3.8182	0.1	4279.6
6058	6.801	4.	0.1	4282.5
6059	6.801	4.1818	0.1	4286.
6060	6.801	4.3636	0.1	4290.
6061	6.801	4.5455	0.1	4294.4
6062	6.801	4.7273	0.1	4299.2
6063	6.801	4.9091	0.1	4304.4
6064	6.801	5.0909	0.1	4309.8
6065	6.801	5.2727	0.1	4315.5
6066	6.801	5.4545	0.1	4321.5
6067	6.801	5.6364	0.1	4327.5
6068	6.801	5.8182	0.1	4334.1
6069	6.9848	0.18182	0.1	4276.7
6070	6.9848	0.36364	0.1	4270.5
6071	6.9848	0.54545	0.1	4264.8
6072	6.9848	0.72727	0.1	4259.3
6073	6.9848	0.90909	0.1	4254.
6074	6.9848	1.0909	0.1	4248.9
6075	6.9848	1.2727	0.1	4244.2
6076	6.9848	1.4545	0.1	4239.7
6077	6.9848	1.6364	0.1	4235.6
6078	6.9848	1.8182	0.1	4231.9
6079	6.9848	2.	0.1	4228.7
6080	6.9848	2.1818	0.1	4226.
6081	6.9848	2.3636	0.1	4223.7
6082	6.9848	2.5455	0.1	4222.
6083	6.9848	2.7273	0.1	4220.9
6084	6.9848	2.9091	0.1	4220.3
6085	6.9848	3.0909	0.1	4220.3
6086	6.9848	3.2727	0.1	4220.9
6087	6.9848	3.4545	0.1	4222.
6088	6.9848	3.6364	0.1	4223.7
6089	6.9848	3.8182	0.1	4226.
6090	6.9848	4.	0.1	4228.7
6091	6.9848	4.1818	0.1	4231.9
6092	6.9848	4.3636	0.1	4235.6
6093	6.9848	4.5455	0.1	4239.7
6094	6.9848	4.7273	0.1	4244.2
6095	6.9848	4.9091	0.1	4248.9
6096	6.9848	5.0909	0.1	4254.
6097	6.9848	5.2727	0.1	4259.3
6098	6.9848	5.4545	0.1	4264.8
6099	6.9848	5.6364	0.1	4270.5
6100	6.9848	5.8182	0.1	4276.7
6101	7.1686	0.18182	0.1	4219.7
6102	7.1686	0.36364	0.1	4213.8
6103	7.1686	0.54545	0.1	4208.6
6104	7.1686	0.72727	0.1	4203.4
6105	7.1686	0.90909	0.1	4198.5
6106	7.1686	1.0909	0.1	4193.8
6107	7.1686	1.2727	0.1	4189.3
6108	7.1686	1.4545	0.1	4185.2
6109	7.1686	1.6364	0.1	4181.4
6110	7.1686	1.8182	0.1	4178.
6111	7.1686	2.	0.1	4175.
6112	7.1686	2.1818	0.1	4172.5
6113	7.1686	2.3636	0.1	4170.4
6114	7.1686	2.5455	0.1	4168.9
6115	7.1686	2.7273	0.1	4167.8
6116	7.1686	2.9091	0.1	4167.3
6117	7.1686	3.0909	0.1	4167.3
6118	7.1686	3.2727	0.1	4167.8
6119	7.1686	3.4545	0.1	4168.9
6120	7.1686	3.6364	0.1	4170.4
6121	7.1686	3.8182	0.1	4172.5
6122	7.1686	4.	0.1	4175.
6123	7.1686	4.1818	0.1	4178.
6124	7.1686	4.3636	0.1	4181.4
6125	7.1686	4.5455	0.1	4185.2
6126	7.1686	4.7273	0.1	4189.3
6127	7.1686	4.9091	0.1	4193.8
6128	7.1686	5.0909	0.1	4198.5
6129	7.1686	5.2727	0.1	4203.4
6130	7.1686	5.4545	0.1	4208.6
6131	7.1686	5.6364	0.1	4213.8
6132	7.1686	5.8182	0.1	4219.7
6133	7.3524	0.18182	0.1	4163.1
6134	7.3524	0.36364	0.1	4157.5
6135	7.3524	0.54545	0.1	4152.6
6136	7.3524	0.72727	0.1	4147.8
6137	7.3524	0.90909	0.1	4143.2
6138	7.3524	1.0909	0.1	4138.8
6139	7.3524	1.2727	0.1	4134.7
6140	7.3524	1.4545	0.1	4130.9
6141	7.3524	1.6364	0.1	4127.4
6142	7.3524	1.8182	0.1	4124.2
6143	7.3524	2.	0.1	4121.4
6144	7.3524	2.1818	0.1	4119.1
6145	7.3524	2.3636	0.1	4117.2
6146	7.3524	2.5455	0.1	4115.7
6147	7.3524	2.7273	0.1	4114.8
6148	7.3524	2.9091	0.1	4114.3
6149	7.3524	3.0909	0.1	4114.3
6150	7.3524	3.2727	0.1	4114.8
6151	7.3524	3.4545	0.1	4115.7
6152	7.3524	3.6364	0.1	4117.2
6153	7.3524	3.8182	0.1	4119.1
6154	7.3524	4.	0.1	4121.4
6155	7.3524	4.1818	0.1	4124.2
6156	7.3524	4.3636	0.1	4127.4
6157	7.3524	4.5455	0.1	4130.9
6158	7.3524	4.7273	0.1	4134.7
6159	7.3524	4.9091	0.1	4138.8
6160	7.3524	5.0909	0.1	4143.2
6161	7.3524	5.2727	0.1	4147.8
6162	7.3524	5.4545	0.1	4152.6
6163	7.3524	5.6364	0.1	4157.5
6164	7.3524	5.8182	0.1	4163.1
6165	7.5362	0.18182	0.1	4106.8
6166	7.5362	0.36364	0.1	4101.6
6167	7.5362	0.54545	0.1	4097.
6168	7.5362	0.72727	0.1	4092.5
6169	7.5362	0.90909	0.1	4088.2
6170	7.5362	1.0909	0.1	4084.2
6171	7.5362	1.2727	0.1	4080.3
6172	7.5362	1.4545	0.1	4076.7
6173	7.5362	1.6364	0.1	4073.5
6174	7.5362	1.8182	0.1	4070.6
6175	7.5362	2.	0.1	4068.
6176	7.5362	2.1818	0.1	4065.8
6177	7.5362	2.3636	0.1	4064.1
6178	7.5362	2.5455	0.1	4062.7
6179	7.5362	2.7273	0.1	4061.8
6180	7.5362	2.9091	0.1	4061.4
6181	7.5362	3.0909	0.1	4061.4
6182	7.5362	3.2727	0.1	4061.8
6183	7.5362	3.4545	0.1	4062.7
6184	7.5362	3.6364	0.1	4064.1
6185	7.5362	3.8182	0.1	4065.8
6186	7.5362	4.	0.1	4068.
6187	7.5362	4.1818	0.1	4070.6
6188	7.5362	4.3636	0.1	4073.5
6189	7.5362	4.5455	0.1	4076.7
6190	7.5362	4.7273	0.1	4080.3
6191	7.5362	4.9091	0.1	4084.2
6192	7.5362	5.0909	0.1	4088.2
6193	7.5362	5.2727	0.1	4092.5
6194	7.5362	5.4545	0.1	4097.
6195	7.5362	5.6364	0.1	4101.6
6196	7.5362	5.8182	0.1	4106.8
6197	7.72	0.18182	0.1	4050.9
6198	7.72	0.36364	0.1	4045.9
6199	7.72	0.54545	0.1	4041.6
6200	7.72	0.72727	0.1	4037.5
6201	7.72	0.90909	0.1	4033.5
6202	7.72	1.0909	0.1	4029.7
6203	7.72	1.2727	0.1	4026.1
6204	7.72	1.4545	0.1	4022.8
6205	7.72	1.6364	0.1	4019.8
6206	7.72	1.8182	0.1	4017.1
6207	7.72	2.	0.1	4014.7
6208	7.72	2.1818	0.1	4012.7
6209	7.72	2.3636	0.1	4011.
6210	7.72	2.5455	0.1	4009.8
6211	7.72	2.7273	0.1	4009.
6212	7.72	2.9091	0.1	4008.5
6213	7.72	3.0909	0.1	4008.5
6214	7.72	3.2727	0.1	4009.
6215	7.72	3.4545	0.1	4009.8
6216	7.72	3.6364	0.1	4011.
6217	7.72	3.8182	0.1	4012.7
6218	7.72	4.	0.1	4014.7
6219	7.72	4.1818	0.1	4017.1
6220	7.72	4.3636	0.1	4019.8
6221	7.72	4.5455	0.1	4022.8
6222	7.72	4.7273	0.1	4026.1
6223	7.72	4.9091	0.1	4029.7
6224	7.72	5.0909	0.1	4033.5
6225	7.72	5.2727	0.1	4037.5
6226	7.72	5.4545	0.1	4041.6
6227	7.72	5.6364	0.1	4045.9
6228	7.72	5.8182	0.1	4050.9
6229	7.9038	0.18182	0.1	3995.4
6230	7.9038	0.36364	0.1	3990.6
6231	7.9038	0.54545	0.1	3986.6
6232	7.9038	0.72727	0.1	3982.7
6233	7.9038	0.90909	0.1	3979.
6234	7.9038	1.0909	0.1	3975.5
6235	7.9038	1.2727	0.1	3972.1
6236	7.9038	1.4545	0.1	3969.
6237	7.9038	1.6364	0.1	3966.2
6238	7.9038	1.8182	0.1	3963.7
6239	7.9038	2.	0.1	3961.5
6240	7.9038	2.1818	0.1	3959.6
6241	7.9038	2.3636	0.1	3958.1
6242	7.9038	2.5455	0.1	3957.
6243	7.9038	2.7273	0.1	3956.2
6244	7.9038	2.9091	0.1	3955.8
6245	7.9038	3.0909	0.1	3955.8
6246	7.9038	3.2727	0.1	3956.2
6247	7.9038	3.4545	0.1	3957.
6248	7.9038	3.6364	0.1	3958.1
6249	7.9038	3.8182	0.1	3959.6
6250	7.9038	4.	0.1	3961.5
6251	7.9038	4.1818	0.1	3963.7
6252	7.9038	4.3636	0.1	3966.2
6253	7.9038	4.5455	0.1	3969.
6254	7.9038	4.7273	0.1	3972.1
6255	7.9038	4.9091	0.1	3975.5
6256	7.9038	5.0909	0.1	3979.
6257	7.9038	5.2727	0.1	3982.7
6258	7.9038	5.4545	0.1	3986.6
6259	7.9038	5.6364	0.1	3990.6
6260	7.9038	5.8182	0.1	3995.4
6261	8.0876	0.18182	0.1	3940.2
6262	8.0876	0.36364	0.1	3935.6
6263	8.0876	0.54545	0.1	3931.8
6264	8.0876	0.72727	0.1	3928.2
6265	8.0876	0.90909	0.1	3924.7
6266	8.0876	1.0909	0.1	3921.4
6267	8.0876	1.2727	0.1	3918.3
6268	8.0876	1.4545	0.1	3915.5
6269	8.0876	1.6364	0.1	3912.9
6270	8.0876	1.8182	0.1	3910.5
6271	8.0876	2.	0.1	3908.5
6272	8.0876	2.1818	0.1	3906.7
6273	8.0876	2.3636	0.1	3905.3
6274	8.0876	2.5455	0.1	3904.2
6275	8.0876	2.7273	0.1	3903.5
6276	8.0876	2.9091	0.1	3903.2
6277	8.0876	3.0909	0.1	3903.2
6278	8.0876	3.2727	0.1	3903.5
6279	8.0876	3.4545	0.1	3904.2
6280	8.0876	3.6364	0.1	3905.3
6281	8.0876	3.8182	0.1	3906.7
6282	8.0876	4.	0.1	3908.5
6283	8.0876	4.1818	0.1	3910.5
6284	8.0876	4.3636	0.1	3912.9
6285	8.0876	4.5455	0.1	3915.5
6286	8.0876	4.7273	0.1	3918.3
6287	8.0876	4.9091	0.1	3921.4
6288	8.0876	5.0909	0.1	3924.7
6289	8.0876	5.2727	0.1	3928.2
6290	8.0876	5.4545	0.1	3931.8
6291	8.0876	5.6364	0.1	3935.6
6292	8.0876	5.8182	0.1	3940.2
6293	8.2714	0.18182	0.1	3885.3
6294	8.2714	0.36364	0.1	3880.9
6295	8.2714	0.54545	0.1	3877.4
6296	8.2714	0.72727	0.1	3874.
6297	8.2714	0.90909	0.1	3870.7
6298	8.2714	1.0909	0.1	3867.7
6299	8.2714	1.2727	0.1	3864.8
6300	8.2714	1.4545	0.1	3862.1
6301	8.2714	1.6364	0.1	3859.6
6302	8.2714	1.8182	0.1	3857.5
6303	8.2714	2.	0.1	3855.6
6304	8.2714	2.1818	0.1	3853.9
6305	8.2714	2.3636	0.1	3852.6
6306	8.2714	2.5455	0.1	3851.6
6307	8.2714	2.7273	0.1	3851.
6308	8.2714	2.9091	0.1	3850.6
6309	8.2714	3.0909	0.1	3850.6
6310	8.2714	3.2727	0.1	3851.
6311	8.2714	3.4545	0.1	3851.6
6312	8.2714	3.6364	0.1	3852.6
6313	8.2714	3.8182	0.1	3853.9
6314	8.2714	4.	0.1	3855.6
6315	8.2714	4.1818	0.1	3857.5
6316	8.2714	4.3636	0.1	3859.6
6317	8.2714	4.5455	0.1	3862.1
6318	8.2714	4.7273	0.1	3864.8
6319	8.2714	4.9091	0.1	3867.7
6320	8.2714	5.0909	0.1	3870.7
6321	8.2714	5.2727	0.1	3874.
6322	8.2714	5.4545	0.1	3877.4
6323	8.2714	5.6364	0.1	3880.9
6324	8.2714	5.8182	0.1	3885.3
6325	8.4552	0.18182	0.1	3830.7
6326	8.4552	0.36364	0.1	3826.5
6327	8.4552	0.54545	0.1	3823.2
6328	8.4552	0.72727	0.1	3820.
6329	8.4552	0.90909	0.1	3817.
6330	8.4552	1.0909	0.1	3814.1
6331	8.4552	1.2727	0.1	3811.4
6332	8.4552	1.4545	0.1	3808.9
6333	8.4552	1.6364	0.1	3806.6
6334	8.4552	1.8182	0.1	3804.6
6335	8.4552	2.	0.1	3802.8
6336	8.4552	2.1818	0.1	3801.3
6337	8.4552	2.3636	0.1	3800.1
6338	8.4552	2.5455	0.1	3799.2
6339	8.4552	2.7273	0.1	3798.6
6340	8.4552	2.9091	0.1	3798.2
6341	8.4552	3.0909	0.1	3798.2
6342	8.4552	3.2727	0.1	3798.6
6343	8.4552	3.4545	0.1	3799.2
6344	8.4552	3.6364	0.1	3800.1
6345	8.4552	3.8182	0.1	3801.3
6346	8.4552	4.	0.1	3802.8
6347	8.4552	4.1818	0.1	3804.6
6348	8.4552	4.3636	0.1	3806.6
6349	8.4552	4.5455	0.1	3808.9
6350	8.4552	4.7273	0.1	3811.4
6351	8.4552	4.9091	0.1	3814.1
6352	8.4552	5.0909	0.1	3817.
6353	8.4552	5.2727	0.1	3820.
6354	8.4552	5.4545	0.1	3823.2
6355	8.4552	5.6364	0.1	3826.5
6356	8.4552	5.8182	0.1	3830.7
6357	8.639	0.18182	0.1	3776.4
6358	8.639	0.36364	0.1	3772.4
6359	8.639	0.54545	0.1	3769.2
6360	8.639	0.72727	0.1	3766.2
6361	8.639	0.90909	0.1	3763.4
6362	8.639	1.0909	0.1	3760.7
6363	8.639	1.2727	0.1	3758.2
6364	8.639	1.4545	0.1	3755.9
6365	8.639	1.6364	0.1	3753.8
6366	8.639	1.8182	0.1	3751.9
6367	8.639	2.	0.1	3750.2
6368	8.639	2.1818	0.1	3748.8
6369	8.639	2.3636	0.1	3747.7
6370	8.639	2.5455	0.1	3746.8
6371	8.639	2.7273	0.1	3746.2
6372	8.639	2.9091	0.1	3746.
6373	8.639	3.0909	0.1	3746.
6374	8.639	3.2727	0.1	3746.2
6375	8.639	3.4545	0.1	3746.8
6376	8.639	3.6364	0.1	3747.7
6377	8.639	3.8182	0.1	3748.8
6378	8.639	4.	0.1	3750.2
6379	8.639	4.1818	0.1	3751.9
6380	8.639	4.3636	0.1	3753.8
6381	8.639	4.5455	0.1	3755.9
6382	8.639	4.7273	0.1	3758.2
6383	8.639	4.9091	0.1	3760.7
6384	8.639	5.0909	0.1	3763.4
6385	8.639	5.2727	0.1	3766.2
6386	8.639	5.4545	0.1	3769.2
6387	8.639	5.6364	0.1	3772.4
6388	8.639	5.8182	0.1	3776.4
6389	8.8229	0.18182	0.1	3722.4
6390	8.8229	0.36364	0.1	3718.5
6391	8.8229	0.54545	0.1	3715.5
6392	8.8229	0.72727	0.1	3712.7
6393	8.8229	0.90909	0.1	3710.1
6394	8.8229	1.0909	0.1	3707.6
6395	8.8229	1.2727	0.1	3705.2
6396	8.8229	1.4545	0.1	3703.
6397	8.8229	1.6364	0.1	3701.1
6398	8.8229	1.8182	0.1	3699.3
6399	8.8229	2.	0.1	3697.8
6400	8.8229	2.1818	0.1	3696.5
6401	8.8229	2.3636	0.1	3695.4
6402	8.8229	2.5455	0.1	3694.6
6403	8.8229	2.7273	0.1	3694.1
6404	8.8229	2.9091	0.1	3693.8
6405	8.8229	3.0909	0.1	3693.8
6406	8.8229	3.2727	0.1	3694.1
6407	8.8229	3.4545	0.1	3694.6
6408	8.8229	3.6364	0.1	3695.4
6409	8.8229	3.8182	0.1	3696.5
6410	8.8229	4.	0.1	3697.8
6411	8.8229	4.1818	0.1	3699.3
6412	8.8229	4.3636	0.1	3701.1
6413	8.8229	4.5455	0.1	3703.
6414	8.8229	4.7273	0.1	3705.2
6415	8.8229	4.9091	0.1	3707.6
6416	8.8229	5.0909	0.1	3710.1
6417	8.8229	5.2727	0.1	3712.7
6418	8.8229	5.4545	0.1	3715.5
6419	8.8229	5.6364	0.1	3718.5
6420	8.8229	5.8182	0.1	3722.4
6421	9.0067	0.18182	0.1	3668.6
6422	9.0067	0.36364	0.1	3664.9
6423	9.0067	0.54545	0.1	3662.1
6424	9.0067	0.72727	0.1	3659.5
6425	9.0067	0.90909	0.1	3657.
6426	9.0067	1.0909	0.1	3654.6
6427	9.0067	1.2727	0.1	3652.4
6428	9.0067	1.4545	0.1	3650.4
6429	9.0067	1.6364	0.1	3648.5
6430	9.0067	1.8182	0.1	3646.9
6431	9.0067	2.	0.1	3645.5
6432	9.0067	2.1818	0.1	3644.2
6433	9.0067	2.3636	0.1	3643.3
6434	9.0067	2.5455	0.1	3642.5
6435	9.0067	2.7273	0.1	3642.
6436	9.0067	2.9091	0.1	3641.8
6437	9.0067	3.0909	0.1	3641.8
6438	9.0067	3.2727	0.1	3642.
6439	9.0067	3.4545	0.1	3642.5
6440	9.0067	3.6364	0.1	3643.3
6441	9.0067	3.8182	0.1	3644.2
6442	9.0067	4.	0.1	3645.5
6443	9.0067	4.1818	0.1	3646.9
6444	9.0067	4.3636	0.1	3648.5
6445	9.0067	4.5455	0.1	3650.4
6446	9.0067	4.7273	0.1	3652.4
6447	9.0067	4.9091	0.1	3654.6
6448	9.0067	5.0909	0.1	3657.
6449	9.0067	5.2727	0.1	3659.5
6450	9.0067	5.4545	0.1	3662.1
6451	9.0067	5.6364	0.1	3664.9
6452	9.0067	5.8182	0.1	3668.6
6453	9.1905	0.18182	0.1	3615.2
6454	9.1905	0.36364	0.1	3611.5
6455	9.1905	0.54545	0.1	3608.9
6456	9.1905	0.72727	0.1	3606.5
6457	9.1905	0.90909	0.1	3604.1
6458	9.1905	1.0909	0.1	3601.9
6459	9.1905	1.2727	0.1	3599.8
6460	9.1905	1.4545	0.1	3597.9
6461	9.1905	1.6364	0.1	3596.2
6462	9.1905	1.8182	0.1	3594.7
6463	9.1905	2.	0.1	3593.3
6464	9.1905	2.1818	0.1	3592.2
6465	9.1905	2.3636	0.1	3591.3
6466	9.1905	2.5455	0.1	3590.6
6467	9.1905	2.7273	0.1	3590.1
6468	9.1905	2.9091	0.1	3589.9
6469	9.1905	3.0909	0.1	3589.9
6470	9.1905	3.2727	0.1	3590.1
6471	9.1905	3.4545	0.1	3590.6
6472	9.1905	3.6364	0.1	3591.3
6473	9.1905	3.8182	0.1	3592.2
6474	9.1905	4.	0.1	3593.3
6475	9.1905	4.1818	0.1	3594.7
6476	9.1905	4.3636	0.1	3596.2
6477	9.1905	4.5455	0.1	3597.9
6478	9.1905	4.7273	0.1	3599.8
6479	9.1905	4.9091	0.1	3601.9
6480	9.1905	5.0909	0.1	3604.1
6481	9.1905	5.2727	0.1	3606.5
6482	9.1905	5.4545	0.1	3608.9
6483	9.1905	5.6364	0.1	3611.5
6484	9.1905	5.8182	0.1	3615.2
6485	9.3743	0.18182	0.1	3562.
6486	9.3743	0.36364	0.1	3558.5
6487	9.3743	0.54545	0.1	3556.
6488	9.3743	0.72727	0.1	3553.7
6489	9.3743	0.90909	0.1	3551.5
6490	9.3743	1.0909	0.1	3549.4
6491	9.3743	1.2727	0.1	3547.4
6492	9.3743	1.4545	0.1	3545.7
6493	9.3743	1.6364	0.1	3544.
6494	9.3743	1.8182	0.1	3542.6
6495	9.3743	2.	0.1	3541.4
6496	9.3743	2.1818	0.1	3540.3
6497	9.3743	2.3636	0.1	3539.4
6498	9.3743	2.5455	0.1	3538.8
6499	9.3743	2.7273	0.1	3538.4
6500	9.3743	2.9091	0.1	3538.1
6501	9.3743	3.0909	0.1	3538.1
6502	9.3743	3.2727	0.1	3538.4
6503	9.3743	3.4545	0.1	3538.8
6504	9.3743	3.6364	0.1	3539.4
6505	9.3743	3.8182	0.1	3540.3
6506	9.3743	4.	0.1	3541.4
6507	9.3743	4.1818	0.1	3542.6
6508	9.3743	4.3636	0.1	3544.
6509	9.3743	4.5455	0.1	3545.7
6510	9.3743	4.7273	0.1	3547.4
6511	9.3743	4.9091	0.1	3549.4
6512	9.3743	5.0909	0.1	3551.5
6513	9.3743	5.2727	0.1	3553.7
6514	9.3743	5.4545	0.1	3556.
6515	9.3743	5.6364	0.1	3558.5
6516	9.3743	5.8182	0.1	3562.
6517	9.5581	0.18182	0.1	3509.
6518	9.5581	0.36364	0.1	3505.6
6519	9.5581	0.54545	0.1	3503.3
6520	9.5581	0.72727	0.1	3501.1
6521	9.5581	0.90909	0.1	3499.
6522	9.5581	1.0909	0.1	3497.1
6523	9.5581	1.2727	0.1	3495.2
6524	9.5581	1.4545	0.1	3493.6
6525	9.5581	1.6364	0.1	3492.1
6526	9.5581	1.8182	0.1	3490.7
6527	9.5581	2.	0.1	3489.5
6528	9.5581	2.1818	0.1	3488.6
6529	9.5581	2.3636	0.1	3487.8
6530	9.5581	2.5455	0.1	3487.2
6531	9.5581	2.7273	0.1	3486.7
6532	9.5581	2.9091	0.1	3486.5
6533	9.5581	3.0909	0.1	3486.5
6534	9.5581	3.2727	0.1	3486.7
6535	9.5581	3.4545	0.1	3487.2
6536	9.5581	3.6364	0.1	3487.8
6537	9.5581	3.8182	0.1	3488.6
6538	9.5581	4.	0.1	3489.5
6539	9.5581	4.1818	0.1	3490.7
6540	9.5581	4.3636	0.1	3492.1
6541	9.5581	4.5455	0.1	3493.6
6542	9.5581	4.7273	0.1	3495.2
6543	9.5581	4.9091	0.1	3497.1
6544	9.5581	5.0909	0.1	3499.
6545	9.5581	5.2727	0.1	3501.1
6546	9.5581	5.4545	0.1	3503.3
6547	9.5581	5.6364	0.1	3505.6
6548	9.5581	5.8182	0.1	3509.
6549	9.7419	0.18182	0.1	3456.4
6550	9.7419	0.36364	0.1	3453.
6551	9.7419	0.54545	0.1	3450.8
6552	9.7419	0.72727	0.1	3448.7
6553	9.7419	0.90909	0.1	3446.8
6554	9.7419	1.0909	0.1	3444.9
6555	9.7419	1.2727	0.1	3443.2
6556	9.7419	1.4545	0.1	3441.7
6557	9.7419	1.6364	0.1	3440.3
6558	9.7419	1.8182	0.1	3439.
6559	9.7419	2.	0.1	3437.9
6560	9.7419	2.1818	0.1	3437.
6561	9.7419	2.3636	0.1	3436.2
6562	9.7419	2.5455	0.1	3435.7
6563	9.7419	2.7273	0.1	3435.3
6564	9.7419	2.9091	0.1	3435.1
6565	9.7419	3.0909	0.1	3435.1
6566	9.7419	3.2727	0.1	3435.3
6567	9.7419	3.4545	0.1	3435.7
6568	9.7419	3.6364	0.1	3436.2
6569	9.7419	3.8182	0.1	3437.
6570	9.7419	4.	0.1	3437.9
6571	9.7419	4.1818	0.1	3439.
6572	9.7419	4.3636	0.1	3440.3
6573	9.7419	4.5455	0.1	3441.7
6574	9.7419	4.7273	0.1	3443.2
6575	9.7419	4.9091	0.1	3444.9
6576	9.7419	5.0909	0.1	3446.8
6577	9.7419	5.2727	0.1	3448.7
6578	9.7419	5.4545	0.1	3450.8
6579	9.7419	5.6364	0.1	3453.
6580	9.7419	5.8182	0.1	3456.4
6581	9.9257	0.18182	0.1	3403.9
6582	9.9257	0.36364	0.1	3400.7
6583	9.9257	0.54545	0.1	3398.6
6584	9.9257	0.72727	0.1	3396.6
6585	9.9257	0.90909	0.1	3394.8
6586	9.9257	1.0909	0.1	3393.
6587	9.9257	1.2727	0.1	3391.4
6588	9.9257	1.4545	0.1	3390.
6589	9.9257	1.6364	0.1	3388.6
6590	9.9257	1.8182	0.1	3387.5
6591	9.9257	2.	0.1	3386.4
6592	9.9257	2.1818	0.1	3385.6
6593	9.9257	2.3636	0.1	3384.9
6594	9.9257	2.5455	0.1	3384.3
6595	9.9257	2.7273	0.1	3384.
6596	9.9257	2.9091	0.1	3383.8
6597	9.9257	3.0909	0.1	3383.8
6598	9.9257	3.2727	0.1	3384.
6599	9.9257	3.4545	0.1	3384.3
6600	9.9257	3.6364	0.1	3384.9
6601	9.9257	3.8182	0.1	3385.6
6602	9.9257	4.	0.1	3386.4
6603	9.9257	4.1818	0.1	3387.5
6604	9.9257	4.3636	0.1	3388.6
6605	9.9257	4.5455	0.1	3390.
6606	9.9257	4.7273	0.1	3391.4
6607	9.9257	4.9091	0.1	3393.
6608	9.9257	5.0909	0.1	3394.8
6609	9.9257	5.2727	0.1	3396.6
6610	9.9257	5.4545	0.1	3398.6
6611	9.9257	5.6364	0.1	3400.7
6612	9.9257	5.8182	0.1	3403.9
6613	10.11	0.18182	0.1	3351.7
6614	10.11	0.36364	0.1	3348.5
6615	10.11	0.54545	0.1	3346.5
6616	10.11	0.72727	0.1	3344.7
6617	10.11	0.90909	0.1	3343.
6618	10.11	1.0909	0.1	3341.3
6619	10.11	1.2727	0.1	3339.8
6620	10.11	1.4545	0.1	3338.4
6621	10.11	1.6364	0.1	3337.2
6622	10.11	1.8182	0.1	3336.1
6623	10.11	2.	0.1	3335.1
6624	10.11	2.1818	0.1	3334.3
6625	10.11	2.3636	0.1	3333.7
6626	10.11	2.5455	0.1	3333.2
6627	10.11	2.7273	0.1	3332.8
6628	10.11	2.9091	0.1	3332.7
6629	10.11	3.0909	0.1	3332.7
6630	10.11	3.2727	0.1	3332.8
6631	10.11	3.4545	0.1	3333.2
6632	10.11	3.6364	0.1	3333.7
6633	10.11	3.8182	0.1	3334.3
6634	10.11	4.	0.1	3335.1
6635	10.11	4.1818	0.1	3336.1
6636	10.11	4.3636	0.1	3337.2
6637	10.11	4.5455	0.1	3338.4
6638	10.11	4.7273	0.1	3339.8
6639	10.11	4.9091	0.1	3341.3
6640	10.11	5.0909	0.1	3343.
6641	10.11	5.2727	0.1	3344.7
6642	10.11	5.4545	0.1	3346.5
6643	10.11	5.6364	0.1	3348.5
6644	10.11	5.8182	0.1	3351.7
6645	10.293	0.18182	0.1	3299.7
6646	10.293	0.36364	0.1	3296.6
6647	10.293	0.54545	0.1	3294.7
6648	10.293	0.72727	0.1	3293.
6649	10.293	0.90909	0.1	3291.4
6650	10.293	1.0909	0.1	3289.8
6651	10.293	1.2727	0.1	3288.4
6652	10.293	1.4545	0.1	3287.1
6653	10.293	1.6364	0.1	3285.9
6654	10.293	1.8182	0.1	3284.9
6655	10.293	2.	0.1	3284.
6656	10.293	2.1818	0.1	3283.2
6657	10.293	2.3636	0.1	3282.6
6658	10.293	2.5455	0.1	3282.2
6659	10.293	2.7273	0.1	3281.9
6660	10.293	2.9091	0.1	3281.7
6661	10.293	3.0909	0.1	3281.7
6662	10.293	3.2727	0.1	3281.9
6663	10.293	3.4545	0.1	3282.2
6664	10.293	3.6364	0.1	3282.6
6665	10.293	3.8182	0.1	3283.2
6666	10.293	4.	0.1	3284.
6667	10.293	4.1818	0.1	3284.9
6668	10.293	4.3636	0.1	3285.9
6669	10.293	4.5455	0.1	3287.1
6670	10.293	4.7273	0.1	3288.4
6671	10.293	4.9091	0.1	3289.8
6672	10.293	5.0909	0.1	3291.4
6673	10.293	5.2727	0.1	3293.
6674	10.293	5.4545	0.1	3294.7
6675	10.293	5.6364	0.1	3296.6
6676	10.293	5.8182	0.1	3299.7
6677	10.477	0.18182	0.1	3248.
6678	10.477	0.36364	0.1	3245.
6679	10.477	0.54545	0.1	3243.2
6680	10.477	0.72727	0.1	3241.5
6681	10.477	0.90909	0.1	3240.
6682	10.477	1.0909	0.1	3238.5
6683	10.477	1.2727	0.1	3237.2
6684	10.477	1.4545	0.1	3236.
6685	10.477	1.6364	0.1	3234.9
6686	10.477	1.8182	0.1	3233.9
6687	10.477	2.	0.1	3233.1
6688	10.477	2.1818	0.1	3232.3
6689	10.477	2.3636	0.1	3231.8
6690	10.477	2.5455	0.1	3231.3
6691	10.477	2.7273	0.1	3231.1
6692	10.477	2.9091	0.1	3230.9
6693	10.477	3.0909	0.1	3230.9
6694	10.477	3.2727	0.1	3231.1
6695	10.477	3.4545	0.1	3231.3
6696	10.477	3.6364	0.1	3231.8
6697	10.477	3.8182	0.1	3232.3
6698	10.477	4.	0.1	3233.1
6699	10.477	4.1818	0.1	3233.9
6700	10.477	4.3636	0.1	3234.9
6701	10.477	4.5455	0.1	3236.
6702	10.477	4.7273	0.1	3237.2
6703	10.477	4.9091	0.1	3238.5
6704	10.477	5.0909	0.1	3240.
6705	10.477	5.2727	0.1	3241.5
6706	10.477	5.4545	0.1	3243.2
6707	10.477	5.6364	0.1	3245.
6708	10.477	5.8182	0.1	3248.
6709	10.661	0.18182	0.1	3196.5
6710	10.661	0.36364	0.1	3193.5
6711	10.661	0.54545	0.1	3191.8
6712	10.661	0.72727	0.1	3190.2
6713	10.661	0.90909	0.1	3188.8
6714	10.661	1.0909	0.1	3187.4
6715	10.661	1.2727	0.1	3186.2
6716	10.661	1.4545	0.1	3185.
6717	10.661	1.6364	0.1	3184.
6718	10.661	1.8182	0.1	3183.1
6719	10.661	2.	0.1	3182.3
6720	10.661	2.1818	0.1	3181.6
6721	10.661	2.3636	0.1	3181.1
6722	10.661	2.5455	0.1	3180.7
6723	10.661	2.7273	0.1	3180.4
6724	10.661	2.9091	0.1	3180.3
6725	10.661	3.0909	0.1	3180.3
6726	10.661	3.2727	0.1	3180.4
6727	10.661	3.4545	0.1	3180.7
6728	10.661	3.6364	0.1	3181.1
6729	10.661	3.8182	0.1	3181.6
6730	10.661	4.	0.1	3182.3
6731	10.661	4.1818	0.1	3183.1
6732	10.661	4.3636	0.1	3184.
6733	10.661	4.5455	0.1	3185.
6734	10.661	4.7273	0.1	3186.2
6735	10.661	4.9091	0.1	3187.4
6736	10.661	5.0909	0.1	3188.8
6737	10.661	5.2727	0.1	3190.2
6738	10.661	5.4545	0.1	3191.8
6739	10.661	5.6364	0.1	3193.5
6740	10.661	5.8182	0.1	3196.5
6741	10.845	0.18182	0.1	3145.2
6742	10.845	0.36364	0.1	3142.3
6743	10.845	0.54545	0.1	3140.7
6744	10.845	0.72727	0.1	3139.2
6745	10.845	0.90909	0.1	3137.8
6746	10.845	1.0909	0.1	3136.5
6747	10.845	1.2727	0.1	3135.3
6748	10.845	1.4545	0.1	3134.3
6749	10.845	1.6364	0.1	3133.3
6750	10.845	1.8182	0.1	3132.4
6751	10.845	2.	0.1	3131.7
6752	10.845	2.1818	0.1	3131.1
6753	10.845	2.3636	0.1	3130.6
6754	10.845	2.5455	0.1	3130.2
6755	10.845	2.7273	0.1	3129.9
6756	10.845	2.9091	0.1	3129.8
6757	10.845	3.0909	0.1	3129.8
6758	10.845	3.2727	0.1	3129.9
6759	10.845	3.4545	0.1	3130.2
6760	10.845	3.6364	0.1	3130.6
6761	10.845	3.8182	0.1	3131.1
6762	10.845	4.	0.1	3131.7
6763	10.845	4.1818	0.1	3132.4
6764	10.845	4.3636	0.1	3133.3
6765	10.845	4.5455	0.1	3134.3
6766	10.845	4.7273	0.1	3135.3
6767	10.845	4.9091	0.1	3136.5
6768	10.845	5.0909	0.1	3137.8
6769	10.845	5.2727	0.1	3139.2
6770	10.845	5.4545	0.1	3140.7
6771	10.845	5.6364	0.1	3142.3
6772	10.845	5.8182	0.1	3145.2
6773	11.029	0.18182	0.1	3094.1
6774	11.029	0.36364	0.1	3091.3
6775	11.029	0.54545	0.1	3089.7
6776	11.029	0.72727	0.1	3088.3
6777	11.029	0.90909	0.1	3087.
6778	11.029	1.0909	0.1	3085.8
6779	11.029	1.2727	0.1	3084.7
6780	11.029	1.4545	0.1	3083.7
6781	11.029	1.6364	0.1	3082.8
6782	11.029	1.8182	0.1	3082.
6783	11.029	2.	0.1	3081.3
6784	11.029	2.1818	0.1	3080.7
6785	11.029	2.3636	0.1	3080.2
6786	11.029	2.5455	0.1	3079.9
6787	11.029	2.7273	0.1	3079.6
6788	11.029	2.9091	0.1	3079.5
6789	11.029	3.0909	0.1	3079.5
6790	11.029	3.2727	0.1	3079.6
6791	11.029	3.4545	0.1	3079.9
6792	11.029	3.6364	0.1	3080.2
6793	11.029	3.8182	0.1	3080.7
6794	11.029	4.	0.1	3081.3
6795	11.029	4.1818	0.1	3082.
6796	11.029	4.3636	0.1	3082.8
6797	11.029	4.5455	0.1	3083.7
6798	11.029	4.7273	0.1	3084.7
6799	11.029	4.9091	0.1	3085.8
6800	11.029	5.0909	0.1	3087.
6801	11.029	5.2727	0.1	3088.3
6802	11.029	5.4545	0.1	3089.7
6803	11.029	5.6364	0.1	3091.3
6804	11.029	5.8182	0.1	3094.1
6805	11.212	0.18182	0.1	3043.3
6806	11.212	0.36364	0.1	3040.5
6807	11.212	0.54545	0.1	3039.
6808	11.212	0.72727	0.1	3037.7
6809	11.212	0.90909	0.1	3036.4
6810	11.212	1.0909	0.1	3035.3
6811	11.212	1.2727	0.1	3034.2
6812	11.212	1.4545	0.1	3033.3
6813	11.212	1.6364	0.1	3032.4
6814	11.212	1.8182	0.1	3031.7
6815	11.212	2.	0.1	3031.1
6816	11.212	2.1818	0.1	3030.5
6817	11.212	2.3636	0.1	3030.1
6818	11.212	2.5455	0.1	3029.7
6819	11.212	2.7273	0.1	3029.5
6820	11.212	2.9091	0.1	3029.4
6821	11.212	3.0909	0.1	3029.4
6822	11.212	3.2727	0.1	3029.5
6823	11.212	3.4545	0.1	3029.7
6824	11.212	3.6364	0.1	3030.1
6825	11.212	3.8182	0.1	3030.5
6826	11.212	4.	0.1	3031.1
6827	11.212	4.1818	0.1	3031.7
6828	11.212	4.3636	0.1	3032.4
6829	11.212	4.5455	0.1	3033.3
6830	11.212	4.7273	0.1	3034.2
6831	11.212	4.9091	0.1	3035.3
6832	11.212	5.0909	0.1	3036.4
6833	11.212	5.2727	0.1	3037.7
6834	11.212	5.4545	0.1	3039.
6835	11.212	5.6364	0.1	3040.5
6836	11.212	5.8182	0.1	3043.3
6837	11.396	0.18182	0.1	2992.6
6838	11.396	0.36364	0.1	2989.9
6839	11.396	0.54545	0.1	2988.5
6840	11.396	0.72727	0.1	2987.2
6841	11.396	0.90909	0.1	2986.1
6842	11.396	1.0909	0.1	2985.
6843	11.396	1.2727	0.1	2984.
6844	11.396	1.4545	0.1	2983.1
6845	11.396	1.6364	0.1	2982.3
6846	11.396	1.8182	0.1	2981.6
6847	11.396	2.	0.1	2981.
6848	11.396	2.1818	0.1	2980.5
6849	11.396	2.3636	0.1	2980.1
6850	11.396	2.5455	0.1	2979.8
6851	11.396	2.7273	0.1	2979.6
6852	11.396	2.9091	0.1	2979.5
6853	11.396	3.0909	0.1	2979.5
6854	11.396	3.2727	0.1	2979.6
6855	11.396	3.4545	0.1	2979.8
6856	11.396	3.6364	0.1	2980.1
6857	11.396	3.8182	0.1	2980.5
6858	11.396	4.	0.1	2981.
6859	11.396	4.1818	0.1	2981.6
6860	11.396	4.3636	0.1	2982.3
6861	11.396	4.5455	0.1	2983.1
6862	11.396	4.7273	0.1	2984.
6863	11.396	4.9091	0.1	2985.
6864	11.396	5.0909	0.1	2986.1
6865	11.396	5.2727	0.1	2987.2
6866	11.396	5.4545	0.1	2988.5
6867	11.396	5.6364	0.1	2989.9
6868	11.396	5.8182	0.1	2992.6
6869	11.58	0.18182	0.1	2942.2
6870	11.58	0.36364	0.1	2939.5
6871	11.58	0.54545	0.1	2938.2
6872	11.58	0.72727	0.1	2937.
6873	11.58	0.90909	0.1	2935.9
6874	11.58	1.0909	0.1	2934.9
6875	11.58	1.2727	0.1	2933.9
6876	11.58	1.4545	0.1	2933.1
6877	11.58	1.6364	0.1	2932.4
6878	11.58	1.8182	0.1	2931.7
6879	11.58	2.	0.1	2931.2
6880	11.58	2.1818	0.1	2930.7
6881	11.58	2.3636	0.1	2930.3
6882	11.58	2.5455	0.1	2930.
6883	11.58	2.7273	0.1	2929.8
6884	11.58	2.9091	0.1	2929.8
6885	11.58	3.0909	0.1	2929.8
6886	11.58	3.2727	0.1	2929.8
6887	11.58	3.4545	0.1	2930.
6888	11.58	3.6364	0.1	2930.3
6889	11.58	3.8182	0.1	2930.7
6890	11.58	4.	0.1	2931.2
6891	11.58	4.1818	0.1	2931.7
6892	11.58	4.3636	0.1	2932.4
6893	11.58	4.5455	0.1	2933.1
6894	11.58	4.7273	0.1	2933.9
6895	11.58	4.9091	0.1	2934.9
6896	11.58	5.0909	0.1	2935.9
6897	11.58	5.2727	0.1	2937.
6898	11.58	5.4545	0.1	2938.2
6899	11.58	5.6364	0.1	2939.5
6900	11.58	5.8182	0.1	2942.2
6901	11.764	0.18182	0.1	2892.
6902	11.764	0.36364	0.1	2889.3
6903	11.764	0.54545	0.1	2888.
6904	11.764	0.72727	0.1	2886.9
6905	11.764	0.90909	0.1	2885.9
6906	11.764	1.0909	0.1	2884.9
6907	11.764	1.2727	0.1	2884.1
6908	11.764	1.4545	0.1	2883.3
6909	11.764	1.6364	0.1	2882.6
6910	11.764	1.8182	0.1	2882.
6911	11.764	2.	0.1	2881.5
6912	11.764	2.1818	0.1	2881.1
6913	11.764	2.3636	0.1	2880.7
6914	11.764	2.5455	0.1	2880.5
6915	11.764	2.7273	0.1	2880.3
6916	11.764	2.9091	0.1	2880.2
6917	11.764	3.0909	0.1	2880.2
6918	11.764	3.2727	0.1	2880.3
6919	11.764	3.4545	0.1	2880.5
6920	11.764	3.6364	0.1	2880.7
6921	11.764	3.8182	0.1	2881.1
6922	11.764	4.	0.1	2881.5
6923	11.764	4.1818	0.1	2882.
6924	11.764	4.3636	0.1	2882.6
6925	11.764	4.5455	0.1	2883.3
6926	11.764	4.7273	0.1	2884.1
6927	11.764	4.9091	0.1	2884.9
6928	11.764	5.0909	0.1	2885.9
6929	11.764	5.2727	0.1	2886.9
6930	11.764	5.4545	0.1	2888.
6931	11.764	5.6364	0.1	2889.3
6932	11.764	5.8182	0.1	2892.
6933	11.948	0.18182	0.1	2841.9
6934	11.948	0.36364	0.1	2839.3
6935	11.948	0.54545	0.1	2838.1
6936	11.948	0.72727	0.1	2837.1
6937	11.948	0.90909	0.1	2836.1
6938	11.948	1.0909	0.1	2835.2
6939	11.948	1.2727	0.1	2834.4
6940	11.948	1.4545	0.1	2833.7
6941	11.948	1.6364	0.1	2833.1
6942	11.948	1.8182	0.1	2832.5
6943	11.948	2.	0.1	2832.
6944	11.948	2.1818	0.1	2831.6
6945	11.948	2.3636	0.1	2831.3
6946	11.948	2.5455	0.1	2831.1
6947	11.948	2.7273	0.1	2830.9
6948	11.948	2.9091	0.1	2830.8
6949	11.948	3.0909	0.1	2830.8
6950	11.948	3.2727	0.1	2830.9
6951	11.948	3.4545	0.1	2831.1
6952	11.948	3.6364	0.1	2831.3
6953	11.948	3.8182	0.1	2831.6
6954	11.948	4.	0.1	2832.
6955	11.948	4.1818	0.1	2832.5
6956	11.948	4.3636	0.1	2833.1
6957	11.948	4.5455	0.1	2833.7
6958	11.948	4.7273	0.1	2834.4
6959	11.948	4.9091	0.1	2835.2
6960	11.948	5.0909	0.1	2836.1
6961	11.948	5.2727	0.1	2837.1
6962	11.948	5.4545	0.1	2838.1
6963	11.948	5.6364	0.1	2839.3
6964	11.948	5.8182	0.1	2841.9
6965	12.131	0.18182	0.1	2792.1
6966	12.131	0.36364	0.1	2789.5
6967	12.131	0.54545	0.1	2788.4
6968	12.131	0.72727	0.1	2787.4
6969	12.131	0.90909	0.1	2786.5
6970	12.131	1.0909	0.1	2785.7
6971	12.131	1.2727	0.1	2784.9
6972	12.131	1.4545	0.1	2784.3
6973	12.131	1.6364	0.1	2783.7
6974	12.131	1.8182	0.1	2783.2
6975	12.131	2.	0.1	2782.7
6976	12.131	2.1818	0.1	2782.4
6977	12.131	2.3636	0.1	2782.1
6978	12.131	2.5455	0.1	2781.9
6979	12.131	2.7273	0.1	2781.7
6980	12.131	2.9091	0.1	2781.7
6981	12.131	3.0909	0.1	2781.7
6982	12.131	3.2727	0.1	2781.7
6983	12.131	3.4545	0.1	2781.9
6984	12.131	3.6364	0.1	2782.1
6985	12.131	3.8182	0.1	2782.4
6986	12.131	4.	0.1	2782.7
6987	12.131	4.1818	0.1	2783.2
6988	12.131	4.3636	0.1	2783.7
6989	12.131	4.5455	0.1	2784.3
6990	12.131	4.7273	0.1	2784.9
6991	12.131	4.9091	0.1	2785.7
6992	12.131	5.0909	0.1	2786.5
6993	12.131	5.2727	0.1	2787.4
6994	12.131	5.4545	0.1	2788.4
6995	12.131	5.6364	0.1	2789.5
6996	12.131	5.8182	0.1	2792.1
6997	12.315	0.18182	0.1	2742.4
6998	12.315	0.36364	0.1	2739.9
6999	12.315	0.54545	0.1	2738.8
7000	12.315	0.72727	0.1	2737.9
7001	12.315	0.90909	0.1	2737.1
7002	12.315	1.0909	0.1	2736.3
7003	12.315	1.2727	0.1	2735.7
7004	12.315	1.4545	0.1	2735.1
7005	12.315	1.6364	0.1	2734.5
7006	12.315	1.8182	0.1	2734.1
7007	12.315	2.	0.1	2733.7
7008	12.315	2.1818	0.1	2733.3
7009	12.315	2.3636	0.1	2733.1
7010	12.315	2.5455	0.1	2732.9
7011	12.315	2.7273	0.1	2732.7
7012	12.315	2.9091	0.1	2732.7
7013	12.315	3.0909	0.1	2732.7
7014	12.315	3.2727	0.1	2732.7
7015	12.315	3.4545	0.1	2732.9
7016	12.315	3.6364	0.1	2733.1
7017	12.315	3.8182	0.1	2733.3
7018	12.315	4.	0.1	2733.7
7019	12.315	4.1818	0.1	2734.1
7020	12.315	4.3636	0.1	2734.5
7021	12.315	4.5455	0.1	2735.1
7022	12.315	4.7273	0.1	2735.7
7023	12.315	4.9091	0.1	2736.3
7024	12.315	5.0909	0.1	2737.1
7025	12.315	5.2727	0.1	2737.9
7026	12.315	5.4545	0.1	2738.8
7027	12.315	5.6364	0.1	2739.9
7028	12.315	5.8182	0.1	2742.4
7029	12.499	0.18182	0.1	2693.
7030	12.499	0.36364	0.1	2690.5
7031	12.499	0.54545	0.1	2689.5
7032	12.499	0.72727	0.1	2688.6
7033	12.499	0.90909	0.1	2687.9
7034	12.499	1.0909	0.1	2687.2
7035	12.499	1.2727	0.1	2686.6
7036	12.499	1.4545	0.1	2686.
7037	12.499	1.6364	0.1	2685.5
7038	12.499	1.8182	0.1	2685.1
7039	12.499	2.	0.1	2684.8
7040	12.499	2.1818	0.1	2684.5
7041	12.499	2.3636	0.1	2684.2
7042	12.499	2.5455	0.1	2684.1
7043	12.499	2.7273	0.1	2684.
7044	12.499	2.9091	0.1	2683.9
7045	12.499	3.0909	0.1	2683.9
7046	12.499	3.2727	0.1	2684.
7047	12.499	3.4545	0.1	2684.1
7048	12.499	3.6364	0.1	2684.2
7049	12.499	3.8182	0.1	2684.5
7050	12.499	4.	0.1	2684.8
7051	12.499	4.1818	0.1	2685.1
7052	12.499	4.3636	0.1	2685.5
7053	12.499	4.5455	0.1	2686.
7054	12.499	4.7273	0.1	2686.6
7055	12.499	4.9091	0.1	2687.2
7056	12.499	5.0909	0.1	2687.9
7057	12.499	5.2727	0.1	2688.6
7058	12.499	5.4545	0.1	2689.5
7059	12.499	5.6364	0.1	2690.5
7060	12.499	5.8182	0.1	2693.
7061	12.683	0.18182	0.1	2643.7
7062	12.683	0.36364	0.1	2641.3
7063	12.683	0.54545	0.1	2640.3
7064	12.683	0.72727	0.1	2639.5
7065	12.683	0.90909	0.1	2638.8
7066	12.683	1.0909	0.1	2638.2
7067	12.683	1.2727	0.1	2637.7
7068	12.683	1.4545	0.1	2637.2
7069	12.683	1.6364	0.1	2636.8
7070	12.683	1.8182	0.1	2636.4
7071	12.683	2.	0.1	2636.1
7072	12.683	2.1818	0.1	2635.8
7073	12.683	2.3636	0.1	2635.6
7074	12.683	2.5455	0.1	2635.5
7075	12.683	2.7273	0.1	2635.4
7076	12.683	2.9091	0.1	2635.3
7077	12.683	3.0909	0.1	2635.3
7078	12.683	3.2727	0.1	2635.4
7079	12.683	3.4545	0.1	2635.5
7080	12.683	3.6364	0.1	2635.6
7081	12.683	3.8182	0.1	2635.8
7082	12.683	4.	0.1	2636.1
7083	12.683	4.1818	0.1	2636.4
7084	12.683	4.3636	0.1	2636.8
7085	12.683	4.5455	0.1	2637.2
7086	12.683	4.7273	0.1	2637.7
7087	12.683	4.9091	0.1	2638.2
7088	12.683	5.0909	0.1	2638.8
7089	12.683	5.2727	0.1	2639.5
7090	12.683	5.4545	0.1	2640.3
7091	12.683	5.6364	0.1	2641.3
7092	12.683	5.8182	0.1	2643.7
7093	12.867	0.18182	0.1	2594.5
7094	12.867	0.36364	0.1	2592.2
7095	12.867	0.54545	0.1	2591.3
7096	12.867	0.72727	0.1	2590.6
7097	12.867	0.90909	0.1	2590.
7098	12.867	1.0909	0.1	2589.4
7099	12.867	1.2727	0.1	2589.
7100	12.867	1.4545	0.1	2588.6
7101	12.867	1.6364	0.1	2588.2
7102	12.867	1.8182	0.1	2587.9
7103	12.867	2.	0.1	2587.6
7104	12.867	2.1818	0.1	2587.4
7105	12.867	2.3636	0.1	2587.2
7106	12.867	2.5455	0.1	2587.1
7107	12.867	2.7273	0.1	2587.
7108	12.867	2.9091	0.1	2586.9
7109	12.867	3.0909	0.1	2586.9
7110	12.867	3.2727	0.1	2587.
7111	12.867	3.4545	0.1	2587.1
7112	12.867	3.6364	0.1	2587.2
7113	12.867	3.8182	0.1	2587.4
7114	12.867	4.	0.1	2587.6
7115	12.867	4.1818	0.1	2587.9
7116	12.867	4.3636	0.1	2588.2
7117	12.867	4.5455	0.1	2588.6
7118	12.867	4.7273	0.1	2589.
7119	12.867	4.9091	0.1	2589.4
7120	12.867	5.0909	0.1	2590.
7121	12.867	5.2727	0.1	2590.6
7122	12.867	5.4545	0.1	2591.3
7123	12.867	5.6364	0.1	2592.2
7124	12.867	5.8182	0.1	2594.5
7125	13.05	0.18182	0.1	2545.6
7126	13.05	0.36364	0.1	2543.3
7127	13.05	0.54545	0.1	2542.5
7128	13.05	0.72727	0.1	2541.9
7129	13.05	0.90909	0.1	2541.3
7130	13.05	1.0909	0.1	2540.9
7131	13.05	1.2727	0.1	2540.5
7132	13.05	1.4545	0.1	2540.1
7133	13.05	1.6364	0.1	2539.8
7134	13.05	1.8182	0.1	2539.5
7135	13.05	2.	0.1	2539.3
7136	13.05	2.1818	0.1	2539.1
7137	13.05	2.3636	0.1	2539.
7138	13.05	2.5455	0.1	2538.9
7139	13.05	2.7273	0.1	2538.8
7140	13.05	2.9091	0.1	2538.8
7141	13.05	3.0909	0.1	2538.8
7142	13.05	3.2727	0.1	2538.8
7143	13.05	3.4545	0.1	2538.9
7144	13.05	3.6364	0.1	2539.
7145	13.05	3.8182	0.1	2539.1
7146	13.05	4.	0.1	2539.3
7147	13.05	4.1818	0.1	2539.5
7148	13.05	4.3636	0.1	2539.8
7149	13.05	4.5455	0.1	2540.1
7150	13.05	4.7273	0.1	2540.5
7151	13.05	4.9091	0.1	2540.9
7152	13.05	5.0909	0.1	2541.3
7153	13.05	5.2727	0.1	2541.9
7154	13.05	5.4545	0.1	2542.5
7155	13.05	5.6364	0.1	2543.3
7156	13.05	5.8182	0.1	2545.6
7157	13.234	0.18182	0.1	2496.7
7158	13.234	0.36364	0.1	2494.5
7159	13.234	0.54545	0.1	2493.8
7160	13.234	0.72727	0.1	2493.3
7161	13.234	0.90909	0.1	2492.8
7162	13.234	1.0909	0.1	2492.5
7163	13.234	1.2727	0.1	2492.1
7164	13.234	1.4545	0.1	2491.9
7165	13.234	1.6364	0.1	2491.6
7166	13.234	1.8182	0.1	2491.4
7167	13.234	2.	0.1	2491.3
7168	13.234	2.1818	0.1	2491.1
7169	13.234	2.3636	0.1	2491.
7170	13.234	2.5455	0.1	2490.9
7171	13.234	2.7273	0.1	2490.9
7172	13.234	2.9091	0.1	2490.8
7173	13.234	3.0909	0.1	2490.8
7174	13.234	3.2727	0.1	2490.9
7175	13.234	3.4545	0.1	2490.9
7176	13.234	3.6364	0.1	2491.
7177	13.234	3.8182	0.1	2491.1
7178	13.234	4.	0.1	2491.3
7179	13.234	4.1818	0.1	2491.4
7180	13.234	4.3636	0.1	2491.6
7181	13.234	4.5455	0.1	2491.9
7182	13.234	4.7273	0.1	2492.1
7183	13.234	4.9091	0.1	2492.5
7184	13.234	5.0909	0.1	2492.8
7185	13.234	5.2727	0.1	2493.3
7186	13.234	5.4545	0.1	2493.8
7187	13.234	5.6364	0.1	2494.5
7188	13.234	5.8182	0.1	2496.7
7189	13.418	0.18182	0.1	2448.1
7190	13.418	0.36364	0.1	2445.9
7191	13.418	0.54545	0.1	2445.3
7192	13.418	0.72727	0.1	2444.9
7193	13.418	0.90909	0.1	2444.5
7194	13.418	1.0909	0.1	2444.2
7195	13.418	1.2727	0.1	2444.
7196	13.418	1.4545	0.1	2443.8
7197	13.418	1.6364	0.1	2443.6
7198	13.418	1.8182	0.1	2443.5
7199	13.418	2.	0.1	2443.4
7200	13.418	2.1818	0.1	2443.3
7201	13.418	2.3636	0.1	2443.2
7202	13.418	2.5455	0.1	2443.2
7203	13.418	2.7273	0.1	2443.2
7204	13.418	2.9091	0.1	2443.1
7205	13.418	3.0909	0.1	2443.1
7206	13.418	3.2727	0.1	2443.2
7207	13.418	3.4545	0.1	2443.2
7208	13.418	3.6364	0.1	2443.2
7209	13.418	3.8182	0.1	2443.3
7210	13.418	4.	0.1	2443.4
7211	13.418	4.1818	0.1	2443.5
7212	13.418	4.3636	0.1	2443.6
7213	13.418	4.5455	0.1	2443.8
7214	13.418	4.7273	0.1	2444.
7215	13.418	4.9091	0.1	2444.2
7216	13.418	5.0909	0.1	2444.5
7217	13.418	5.2727	0.1	2444.9
7218	13.418	5.4545	0.1	2445.3
7219	13.418	5.6364	0.1	2445.9
7220	13.418	5.8182	0.1	2448.1
7221	13.602	0.18182	0.1	2399.5
7222	13.602	0.36364	0.1	2397.5
7223	13.602	0.54545	0.1	2397.
7224	13.602	0.72727	0.1	2396.6
7225	13.602	0.90909	0.1	2396.4
7226	13.602	1.0909	0.1	2396.2
7227	13.602	1.2727	0.1	2396.
7228	13.602	1.4545	0.1	2395.9
7229	13.602	1.6364	0.1	2395.9
7230	13.602	1.8182	0.1	2395.8
7231	13.602	2.	0.1	2395.8
7232	13.602	2.1818	0.1	2395.7
7233	13.602	2.3636	0.1	2395.7
7234	13.602	2.5455	0.1	2395.7
7235	13.602	2.7273	0.1	2395.7
7236	13.602	2.9091	0.1	2395.7
7237	13.602	3.0909	0.1	2395.7
7238	13.602	3.2727	0.1	2395.7
7239	13.602	3.4545	0.1	2395.7
7240	13.602	3.6364	0.1	2395.7
7241	13.602	3.8182	0.1	2395.7
7242	13.602	4.	0.1	2395.8
7243	13.602	4.1818	0.1	2395.8
7244	13.602	4.3636	0.1	2395.9
7245	13.602	4.5455	0.1	2395.9
7246	13.602	4.7273	0.1	2396.
7247	13.602	4.9091	0.1	2396.2
7248	13.602	5.0909	0.1	2396.4
7249	13.602	5.2727	0.1	2396.6
7250	13.602	5.4545	0.1	2397.
7251	13.602	5.6364	0.1	2397.5
7252	13.602	5.8182	0.1	2399.5
7253	13.786	0.18182	0.1	2351.1
7254	13.786	0.36364	0.1	2349.1
7255	13.786	0.54545	0.1	2348.7
7256	13.786	0.72727	0.1	2348.5
7257	13.786	0.90909	0.1	2348.4
7258	13.786	1.0909	0.1	2348.3
7259	13.786	1.2727	0.1	2348.3
7260	13.786	1.4545	0.1	2348.3
7261	13.786	1.6364	0.1	2348.3
7262	13.786	1.8182	0.1	2348.3
7263	13.786	2.	0.1	2348.3
7264	13.786	2.1818	0.1	2348.4
7265	13.786	2.3636	0.1	2348.4
7266	13.786	2.5455	0.1	2348.4
7267	13.786	2.7273	0.1	2348.4
7268	13.786	2.9091	0.1	2348.4
7269	13.786	3.0909	0.1	2348.4
7270	13.786	3.2727	0.1	2348.4
7271	13.786	3.4545	0.1	2348.4
7272	13.786	3.6364	0.1	2348.4
7273	13.786	3.8182	0.1	2348.4
7274	13.786	4.	0.1	2348.3
7275	13.786	4.1818	0.1	2348.3
7276	13.786	4.3636	0.1	2348.3
7277	13.786	4.5455	0.1	2348.3
7278	13.786	4.7273	0.1	2348.3
7279	13.786	4.9091	0.1	2348.3
7280	13.786	5.0909	0.1	2348.4
7281	13.786	5.2727	0.1	2348.5
7282	13.786	5.4545	0.1	2348.7
7283	13.786	5.6364	0.1	2349.1
7284	13.786	5.8182	0.1	2351.1
7285	13.97	0.18182	0.1	2302.7
7286	13.97	0.36364	0.1	2300.9
7287	13.97	0.54545	0.1	2300.6
7288	13.97	0.72727	0.1	2300.5
7289	13.97	0.90909	0.1	2300.5
7290	13.97	1.0909	0.1	2300.6
7291	13.97	1.2727	0.1	2300.7
7292	13.97	1.4545	0.1	2300.8
7293	13.97	1.6364	0.1	2300.9
7294	13.97	1.8182	0.1	2301.1
7295	13.97	2.	0.1	2301.2
7296	13.97	2.1818	0.1	2301.3
7297	13.97	2.3636	0.1	2301.3
7298	13.97	2.5455	0.1	2301.4
7299	13.97	2.7273	0.1	2301.4
7300	13.97	2.9091	0.1	2301.5
7301	13.97	3.0909	0.1	2301.5
7302	13.97	3.2727	0.1	2301.4
7303	13.97	3.4545	0.1	2301.4
7304	13.97	3.6364	0.1	2301.3
7305	13.97	3.8182	0.1	2301.3
7306	13.97	4.	0.1	2301.2
7307	13.97	4.1818	0.1	2301.1
7308	13.97	4.3636	0.1	2300.9
7309	13.97	4.5455	0.1	2300.8
7310	13.97	4.7273	0.1	2300.7
7311	13.97	4.9091	0.1	2300.6
7312	13.97	5.0909	0.1	2300.5
7313	13.97	5.2727	0.1	2300.5
7314	13.97	5.4545	0.1	2300.6
7315	13.97	5.6364	0.1	2300.9
7316	13.97	5.8182	0.1	2302.7
7317	14.153	0.18182	0.1	2254.4
7318	14.153	0.36364	0.1	2252.7
7319	14.153	0.54545	0.1	2252.6
7320	14.153	0.72727	0.1	2252.7
7321	14.153	0.90909	0.1	2252.8
7322	14.153	1.0909	0.1	2253.
7323	14.153	1.2727	0.1	2253.3
7324	14.153	1.4545	0.1	2253.5
7325	14.153	1.6364	0.1	2253.8
7326	14.153	1.8182	0.1	2254.
7327	14.153	2.	0.1	2254.2
7328	14.153	2.1818	0.1	2254.4
7329	14.153	2.3636	0.1	2254.6
7330	14.153	2.5455	0.1	2254.7
7331	14.153	2.7273	0.1	2254.7
7332	14.153	2.9091	0.1	2254.8
7333	14.153	3.0909	0.1	2254.8
7334	14.153	3.2727	0.1	2254.7
7335	14.153	3.4545	0.1	2254.7
7336	14.153	3.6364	0.1	2254.6
7337	14.153	3.8182	0.1	2254.4
7338	14.153	4.	0.1	2254.2
7339	14.153	4.1818	0.1	2254.
7340	14.153	4.3636	0.1	2253.8
7341	14.153	4.5455	0.1	2253.5
7342	14.153	4.7273	0.1	2253.3
7343	14.153	4.9091	0.1	2253.
7344	14.153	5.0909	0.1	2252.8
7345	14.153	5.2727	0.1	2252.7
7346	14.153	5.4545	0.1	2252.6
7347	14.153	5.6364	0.1	2252.7
7348	14.153	5.8182	0.1	2254.4
7349	14.337	0.18182	0.1	2206.1
7350	14.337	0.36364	0.1	2204.6
7351	14.337	0.54545	0.1	2204.6
7352	14.337	0.72727	0.1	2204.9
7353	14.337	0.90909	0.1	2205.2
7354	14.337	1.0909	0.1	2205.6
7355	14.337	1.2727	0.1	2206.1
7356	14.337	1.4545	0.1	2206.5
7357	14.337	1.6364	0.1	2206.9
7358	14.337	1.8182	0.1	2207.2
7359	14.337	2.	0.1	2207.6
7360	14.337	2.1818	0.1	2207.8
7361	14.337	2.3636	0.1	2208.1
7362	14.337	2.5455	0.1	2208.2
7363	14.337	2.7273	0.1	2208.3
7364	14.337	2.9091	0.1	2208.4
7365	14.337	3.0909	0.1	2208.4
7366	14.337	3.2727	0.1	2208.3
7367	14.337	3.4545	0.1	2208.2
7368	14.337	3.6364	0.1	2208.1
7369	14.337	3.8182	0.1	2207.8
7370	14.337	4.	0.1	2207.6
7371	14.337	4.1818	0.1	2207.2
7372	14.337	4.3636	0.1	2206.9
7373	14.337	4.5455	0.1	2206.5
7374	14.337	4.7273	0.1	2206.1
7375	14.337	4.9091	0.1	2205.6
7376	14.337	5.0909	0.1	2205.2
7377	14.337	5.2727	0.1	2204.9
7378	14.337	5.4545	0.1	2204.6
7379	14.337	5.6364	0.1	2204.6
7380	14.337	5.8182	0.1	2206.1
7381	14.521	0.18182	0.1	2157.8
7382	14.521	0.36364	0.1	2156.5
7383	14.521	0.54545	0.1	2156.7
7384	14.521	0.72727	0.1	2157.2
7385	14.521	0.90909	0.1	2157.8
7386	14.521	1.0909	0.1	2158.4
7387	14.521	1.2727	0.1	2159.
7388	14.521	1.4545	0.1	2159.6
7389	14.521	1.6364	0.1	2160.2
7390	14.521	1.8182	0.1	2160.7
7391	14.521	2.	0.1	2161.2
7392	14.521	2.1818	0.1	2161.6
7393	14.521	2.3636	0.1	2161.9
7394	14.521	2.5455	0.1	2162.1
7395	14.521	2.7273	0.1	2162.3
7396	14.521	2.9091	0.1	2162.4
7397	14.521	3.0909	0.1	2162.4
7398	14.521	3.2727	0.1	2162.3
7399	14.521	3.4545	0.1	2162.1
7400	14.521	3.6364	0.1	2161.9
7401	14.521	3.8182	0.1	2161.6
7402	14.521	4.	0.1	2161.2
7403	14.521	4.1818	0.1	2160.7
7404	14.521	4.3636	0.1	2160.2
7405	14.521	4.5455	0.1	2159.6
7406	14.521	4.7273	0.1	2159.
7407	14.521	4.9091	0.1	2158.4
7408	14.521	5.0909	0.1	2157.8
7409	14.521	5.2727	0.1	2157.2
7410	14.521	5.4545	0.1	2156.7
7411	14.521	5.6364	0.1	2156.5
7412	14.521	5.8182	0.1	2157.8
7413	14.705	0.18182	0.1	2109.4
7414	14.705	0.36364	0.1	2108.4
7415	14.705	0.54545	0.1	2108.8
7416	14.705	0.72727	0.1	2109.5
7417	14.705	0.90909	0.1	2110.4
7418	14.705	1.0909	0.1	2111.2
7419	14.705	1.2727	0.1	2112.1
7420	14.705	1.4545	0.1	2112.9
7421	14.705	1.6364	0.1	2113.7
7422	14.705	1.8182	0.1	2114.4
7423	14.705	2.	0.1	2115.1
7424	14.705	2.1818	0.1	2115.6
7425	14.705	2.3636	0.1	2116.
7426	14.705	2.5455	0.1	2116.4
7427	14.705	2.7273	0.1	2116.6
7428	14.705	2.9091	0.1	2116.7
7429	14.705	3.0909	0.1	2116.7
7430	14.705	3.2727	0.1	2116.6
7431	14.705	3.4545	0.1	2116.4
7432	14.705	3.6364	0.1	2116.
7433	14.705	3.8182	0.1	2115.6
7434	14.705	4.	0.1	2115.1
7435	14.705	4.1818	0.1	2114.4
7436	14.705	4.3636	0.1	2113.7
7437	14.705	4.5455	0.1	2112.9
7438	14.705	4.7273	0.1	2112.1
7439	14.705	4.9091	0.1	2111.2
7440	14.705	5.0909	0.1	2110.4
7441	14.705	5.2727	0.1	2109.5
7442	14.705	5.4545	0.1	2108.8
7443	14.705	5.6364	0.1	2108.4
7444	14.705	5.8182	0.1	2109.4
7445	14.889	0.18182	0.1	2060.9
7446	14.889	0.36364	0.1	2060.1
7447	14.889	0.54545	0.1	2060.9
7448	14.889	0.72727	0.1	2061.9
7449	14.889	0.90909	0.1	2063.
7450	14.889	1.0909	0.1	2064.2
7451	14.889	1.2727	0.1	2065.3
7452	14.889	1.4545	0.1	2066.4
7453	14.889	1.6364	0.1	2067.5
7454	14.889	1.8182	0.1	2068.5
7455	14.889	2.	0.1	2069.3
7456	14.889	2.1818	0.1	2070.
7457	14.889	2.3636	0.1	2070.6
7458	14.889	2.5455	0.1	2071.
7459	14.889	2.7273	0.1	2071.3
7460	14.889	2.9091	0.1	2071.4
7461	14.889	3.0909	0.1	2071.4
7462	14.889	3.2727	0.1	2071.3
7463	14.889	3.4545	0.1	2071.
7464	14.889	3.6364	0.1	2070.6
7465	14.889	3.8182	0.1	2070.
7466	14.889	4.	0.1	2069.3
7467	14.889	4.1818	0.1	2068.5
7468	14.889	4.3636	0.1	2067.5
7469	14.889	4.5455	0.1	2066.4
7470	14.889	4.7273	0.1	2065.3
7471	14.889	4.9091	0.1	2064.2
7472	14.889	5.0909	0.1	2063.
7473	14.889	5.2727	0.1	2061.9
7474	14.889	5.4545	0.1	2060.9
7475	14.889	5.6364	0.1	2060.1
7476	14.889	5.8182	0.1	2060.9
7477	15.072	0.18182	0.1	2012.2
7478	15.072	0.36364	0.1	2011.7
7479	15.072	0.54545	0.1	2012.8
7480	15.072	0.72727	0.1	2014.2
7481	15.072	0.90909	0.1	2015.6
7482	15.072	1.0909	0.1	2017.2
7483	15.072	1.2727	0.1	2018.7
7484	15.072	1.4545	0.1	2020.2
7485	15.072	1.6364	0.1	2021.5
7486	15.072	1.8182	0.1	2022.8
7487	15.072	2.	0.1	2023.9
7488	15.072	2.1818	0.1	2024.8
7489	15.072	2.3636	0.1	2025.5
7490	15.072	2.5455	0.1	2026.1
7491	15.072	2.7273	0.1	2026.5
7492	15.072	2.9091	0.1	2026.7
7493	15.072	3.0909	0.1	2026.7
7494	15.072	3.2727	0.1	2026.5
7495	15.072	3.4545	0.1	2026.1
7496	15.072	3.6364	0.1	2025.5
7497	15.072	3.8182	0.1	2024.8
7498	15.072	4.	0.1	2023.9
7499	15.072	4.1818	0.1	2022.8
7500	15.072	4.3636	0.1	2021.5
7501	15.072	4.5455	0.1	2020.2
7502	15.072	4.7273	0.1	2018.7
7503	15.072	4.9091	0.1	2017.2
7504	15.072	5.0909	0.1	2015.6
7505	15.072	5.2727	0.1	2014.2
7506	15.072	5.4545	0.1	2012.8
7507	15.072	5.6364	0.1	2011.7
7508	15.072	5.8182	0.1	2012.2
7509	15.256	0.18182	0.1	1963.2
7510	15.256	0.36364	0.1	1963.1
7511	15.256	0.54545	0.1	1964.6
7512	15.256	0.72727	0.1	1966.3
7513	15.256	0.90909	0.1	1968.2
7514	15.256	1.0909	0.1	1970.2
7515	15.256	1.2727	0.1	1972.2
7516	15.256	1.4545	0.1	1974.1
7517	15.256	1.6364	0.1	1975.8
7518	15.256	1.8182	0.1	1977.4
7519	15.256	2.	0.1	1978.8
7520	15.256	2.1818	0.1	1980.
7521	15.256	2.3636	0.1	1981.
7522	15.256	2.5455	0.1	1981.7
7523	15.256	2.7273	0.1	1982.2
7524	15.256	2.9091	0.1	1982.5
7525	15.256	3.0909	0.1	1982.5
7526	15.256	3.2727	0.1	1982.2
7527	15.256	3.4545	0.1	1981.7
7528	15.256	3.6364	0.1	1981.
7529	15.256	3.8182	0.1	1980.
7530	15.256	4.	0.1	1978.8
7531	15.256	4.1818	0.1	1977.4
7532	15.256	4.3636	0.1	1975.8
7533	15.256	4.5455	0.1	1974.1
7534	15.256	4.7273	0.1	1972.2
7535	15.256	4.9091	0.1	1970.2
7536	15.256	5.0909	0.1	1968.2
7537	15.256	5.2727	0.1	1966.3
7538	15.256	5.4545	0.1	1964.6
7539	15.256	5.6364	0.1	1963.1
7540	15.256	5.8182	0.1	1963.2
7541	15.44	0.18182	0.1	1913.8
7542	15.44	0.36364	0.1	1914.1
7543	15.44	0.54545	0.1	1916.
7544	15.44	0.72727	0.1	1918.3
7545	15.44	0.90909	0.1	1920.7
7546	15.44	1.0909	0.1	1923.3
7547	15.44	1.2727	0.1	1925.8
7548	15.44	1.4545	0.1	1928.2
7549	15.44	1.6364	0.1	1930.4
7550	15.44	1.8182	0.1	1932.5
7551	15.44	2.	0.1	1934.3
7552	15.44	2.1818	0.1	1935.8
7553	15.44	2.3636	0.1	1937.1
7554	15.44	2.5455	0.1	1938.
7555	15.44	2.7273	0.1	1938.6
7556	15.44	2.9091	0.1	1938.9
7557	15.44	3.0909	0.1	1938.9
7558	15.44	3.2727	0.1	1938.6
7559	15.44	3.4545	0.1	1938.
7560	15.44	3.6364	0.1	1937.1
7561	15.44	3.8182	0.1	1935.8
7562	15.44	4.	0.1	1934.3
7563	15.44	4.1818	0.1	1932.5
7564	15.44	4.3636	0.1	1930.4
7565	15.44	4.5455	0.1	1928.2
7566	15.44	4.7273	0.1	1925.8
7567	15.44	4.9091	0.1	1923.3
7568	15.44	5.0909	0.1	1920.7
7569	15.44	5.2727	0.1	1918.3
7570	15.44	5.4545	0.1	1916.
7571	15.44	5.6364	0.1	1914.1
7572	15.44	5.8182	0.1	1913.8
7573	15.624	0.18182	0.1	1863.8
7574	15.624	0.36364	0.1	1864.6
7575	15.624	0.54545	0.1	1867.1
7576	15.624	0.72727	0.1	1870.
7577	15.624	0.90909	0.1	1873.1
7578	15.624	1.0909	0.1	1876.2
7579	15.624	1.2727	0.1	1879.4
7580	15.624	1.4545	0.1	1882.4
7581	15.624	1.6364	0.1	1885.3
7582	15.624	1.8182	0.1	1887.9
7583	15.624	2.	0.1	1890.2
7584	15.624	2.1818	0.1	1892.2
7585	15.624	2.3636	0.1	1893.8
7586	15.624	2.5455	0.1	1895.
7587	15.624	2.7273	0.1	1895.8
7588	15.624	2.9091	0.1	1896.2
7589	15.624	3.0909	0.1	1896.2
7590	15.624	3.2727	0.1	1895.8
7591	15.624	3.4545	0.1	1895.
7592	15.624	3.6364	0.1	1893.8
7593	15.624	3.8182	0.1	1892.2
7594	15.624	4.	0.1	1890.2
7595	15.624	4.1818	0.1	1887.9
7596	15.624	4.3636	0.1	1885.3
7597	15.624	4.5455	0.1	1882.4
7598	15.624	4.7273	0.1	1879.4
7599	15.624	4.9091	0.1	1876.2
7600	15.624	5.0909	0.1	1873.1
7601	15.624	5.2727	0.1	1870.
7602	15.624	5.4545	0.1	1867.1
7603	15.624	5.6364	0.1	1864.6
7604	15.624	5.8182	0.1	1863.8
7605	15.808	0.18182	0.1	1813.
7606	15.808	0.36364	0.1	1814.5
7607	15.808	0.54545	0.1	1817.6
7608	15.808	0.72727	0.1	1821.2
7609	15.808	0.90909	0.1	1825.1
7610	15.808	1.0909	0.1	1829.1
7611	15.808	1.2727	0.1	1833.
7612	15.808	1.4545	0.1	1836.9
7613	15.808	1.6364	0.1	1840.5
7614	15.808	1.8182	0.1	1843.8
7615	15.808	2.	0.1	1846.8
7616	15.808	2.1818	0.1	1849.3
7617	15.808	2.3636	0.1	1851.3
7618	15.808	2.5455	0.1	1852.9
7619	15.808	2.7273	0.1	1853.9
7620	15.808	2.9091	0.1	1854.4
7621	15.808	3.0909	0.1	1854.4
7622	15.808	3.2727	0.1	1853.9
7623	15.808	3.4545	0.1	1852.9
7624	15.808	3.6364	0.1	1851.3
7625	15.808	3.8182	0.1	1849.3
7626	15.808	4.	0.1	1846.8
7627	15.808	4.1818	0.1	1843.8
7628	15.808	4.3636	0.1	1840.5
7629	15.808	4.5455	0.1	1836.9
7630	15.808	4.7273	0.1	1833.
7631	15.808	4.9091	0.1	1829.1
7632	15.808	5.0909	0.1	1825.1
7633	15.808	5.2727	0.1	1821.2
7634	15.808	5.4545	0.1	1817.6
7635	15.808	5.6364	0.1	1814.5
7636	15.808	5.8182	0.1	1813.
7637	15.991	0.18182	0.1	1761.3
7638	15.991	0.36364	0.1	1763.5
7639	15.991	0.54545	0.1	1767.4
7640	15.991	0.72727	0.1	1771.9
7641	15.991	0.90909	0.1	1776.7
7642	15.991	1.0909	0.1	1781.7
7643	15.991	1.2727	0.1	1786.7
7644	15.991	1.4545	0.1	1791.5
7645	15.991	1.6364	0.1	1796.1
7646	15.991	1.8182	0.1	1800.3
7647	15.991	2.	0.1	1804.
7648	15.991	2.1818	0.1	1807.2
7649	15.991	2.3636	0.1	1809.8
7650	15.991	2.5455	0.1	1811.8
7651	15.991	2.7273	0.1	1813.1
7652	15.991	2.9091	0.1	1813.8
7653	15.991	3.0909	0.1	1813.8
7654	15.991	3.2727	0.1	1813.1
7655	15.991	3.4545	0.1	1811.8
7656	15.991	3.6364	0.1	1809.8
7657	15.991	3.8182	0.1	1807.2
7658	15.991	4.	0.1	1804.
7659	15.991	4.1818	0.1	1800.3
7660	15.991	4.3636	0.1	1796.1
7661	15.991	4.5455	0.1	1791.5
7662	15.991	4.7273	0.1	1786.7
7663	15.991	4.9091	0.1	1781.7
7664	15.991	5.0909	0.1	1776.7
7665	15.991	5.2727	0.1	1771.9
7666	15.991	5.4545	0.1	1767.4
7667	15.991	5.6364	0.1	1763.5
7668	15.991	5.8182	0.1	1761.3
7669	16.175	0.18182	0.1	1708.2
7670	16.175	0.36364	0.1	1711.3
7671	16.175	0.54545	0.1	1716.2
7672	16.175	0.72727	0.1	1721.7
7673	16.175	0.90909	0.1	1727.7
7674	16.175	1.0909	0.1	1733.9
7675	16.175	1.2727	0.1	1740.2
7676	16.175	1.4545	0.1	1746.3
7677	16.175	1.6364	0.1	1752.1
7678	16.175	1.8182	0.1	1757.4
7679	16.175	2.	0.1	1762.1
7680	16.175	2.1818	0.1	1766.2
7681	16.175	2.3636	0.1	1769.5
7682	16.175	2.5455	0.1	1772.1
7683	16.175	2.7273	0.1	1773.8
7684	16.175	2.9091	0.1	1774.6
7685	16.175	3.0909	0.1	1774.6
7686	16.175	3.2727	0.1	1773.8
7687	16.175	3.4545	0.1	1772.1
7688	16.175	3.6364	0.1	1769.5
7689	16.175	3.8182	0.1	1766.2
7690	16.175	4.	0.1	1762.1
7691	16.175	4.1818	0.1	1757.4
7692	16.175	4.3636	0.1	1752.1
7693	16.175	4.5455	0.1	1746.3
7694	16.175	4.7273	0.1	1740.2
7695	16.175	4.9091	0.1	1733.9
7696	16.175	5.0909	0.1	1727.7
7697	16.175	5.2727	0.1	1721.7
7698	16.175	5.4545	0.1	1716.2
7699	16.175	5.6364	0.1	1711.3
7700	16.175	5.8182	0.1	1708.2
7701	16.359	0.18182	0.1	1653.6
7702	16.359	0.36364	0.1	1657.7
7703	16.359	0.54545	0.1	1663.7
7704	16.359	0.72727	0.1	1670.5
7705	16.359	0.90909	0.1	1677.9
7706	16.359	1.0909	0.1	1685.7
7707	16.359	1.2727	0.1	1693.5
7708	16.359	1.4545	0.1	1701.2
7709	16.359	1.6364	0.1	1708.5
7710	16.359	1.8182	0.1	1715.2
7711	16.359	2.	0.1	1721.3
7712	16.359	2.1818	0.1	1726.5
7713	16.359	2.3636	0.1	1730.7
7714	16.359	2.5455	0.1	1734.
7715	16.359	2.7273	0.1	1736.1
7716	16.359	2.9091	0.1	1737.2
7717	16.359	3.0909	0.1	1737.2
7718	16.359	3.2727	0.1	1736.1
7719	16.359	3.4545	0.1	1734.
7720	16.359	3.6364	0.1	1730.7
7721	16.359	3.8182	0.1	1726.5
7722	16.359	4.	0.1	1721.3
7723	16.359	4.1818	0.1	1715.2
7724	16.359	4.3636	0.1	1708.5
7725	16.359	4.5455	0.1	1701.2
7726	16.359	4.7273	0.1	1693.5
7727	16.359	4.9091	0.1	1685.7
7728	16.359	5.0909	0.1	1677.9
7729	16.359	5.2727	0.1	1670.5
7730	16.359	5.4545	0.1	1663.7
7731	16.359	5.6364	0.1	1657.7
7732	16.359	5.8182	0.1	1653.6
7733	16.543	0.18182	0.1	1596.9
7734	16.543	0.36364	0.1	1602.2
7735	16.543	0.54545	0.1	1609.5
7736	16.543	0.72727	0.1	1618.
7737	16.543	0.90909	0.1	1627.1
7738	16.543	1.0909	0.1	1636.8
7739	16.543	1.2727	0.1	1646.6
7740	16.543	1.4545	0.1	1656.2
7741	16.543	1.6364	0.1	1665.4
7742	16.543	1.8182	0.1	1674.
7743	16.543	2.	0.1	1681.6
7744	16.543	2.1818	0.1	1688.3
7745	16.543	2.3636	0.1	1693.7
7746	16.543	2.5455	0.1	1697.9
7747	16.543	2.7273	0.1	1700.7
7748	16.543	2.9091	0.1	1702.1
7749	16.543	3.0909	0.1	1702.1
7750	16.543	3.2727	0.1	1700.7
7751	16.543	3.4545	0.1	1697.9
7752	16.543	3.6364	0.1	1693.7
7753	16.543	3.8182	0.1	1688.3
7754	16.543	4.	0.1	1681.6
7755	16.543	4.1818	0.1	1674.
7756	16.543	4.3636	0.1	1665.4
7757	16.543	4.5455	0.1	1656.2
7758	16.543	4.7273	0.1	1646.6
7759	16.543	4.9091	0.1	1636.8
7760	16.543	5.0909	0.1	1627.1
7761	16.543	5.2727	0.1	1618.
7762	16.543	5.4545	0.1	1609.5
7763	16.543	5.6364	0.1	1602.2
7764	16.543	5.8182	0.1	1596.9
7765	16.727	0.18182	0.1	1537.7
7766	16.727	0.36364	0.1	1544.4
7767	16.727	0.54545	0.1	1553.3
7768	16.727	0.72727	0.1	1563.6
7769	16.727	0.90909	0.1	1575.
7770	16.727	1.0909	0.1	1586.9
7771	16.727	1.2727	0.1	1599.2
7772	16.727	1.4545	0.1	1611.3
7773	16.727	1.6364	0.1	1622.9
7774	16.727	1.8182	0.1	1633.8
7775	16.727	2.	0.1	1643.6
7776	16.727	2.1818	0.1	1652.
7777	16.727	2.3636	0.1	1659.
7778	16.727	2.5455	0.1	1664.3
7779	16.727	2.7273	0.1	1667.9
7780	16.727	2.9091	0.1	1669.7
7781	16.727	3.0909	0.1	1669.7
7782	16.727	3.2727	0.1	1667.9
7783	16.727	3.4545	0.1	1664.3
7784	16.727	3.6364	0.1	1659.
7785	16.727	3.8182	0.1	1652.
7786	16.727	4.	0.1	1643.6
7787	16.727	4.1818	0.1	1633.8
7788	16.727	4.3636	0.1	1622.9
7789	16.727	4.5455	0.1	1611.3
7790	16.727	4.7273	0.1	1599.2
7791	16.727	4.9091	0.1	1586.9
7792	16.727	5.0909	0.1	1575.
7793	16.727	5.2727	0.1	1563.6
7794	16.727	5.4545	0.1	1553.3
7795	16.727	5.6364	0.1	1544.4
7796	16.727	5.8182	0.1	1537.7
7797	16.91	0.18182	0.1	1475.3
7798	16.91	0.36364	0.1	1483.6
7799	16.91	0.54545	0.1	1494.5
7800	16.91	0.72727	0.1	1507.1
7801	16.91	0.90909	0.1	1521.
7802	16.91	1.0909	0.1	1535.9
7803	16.91	1.2727	0.1	1551.2
7804	16.91	1.4545	0.1	1566.4
7805	16.91	1.6364	0.1	1581.2
7806	16.91	1.8182	0.1	1594.9
7807	16.91	2.	0.1	1607.4
7808	16.91	2.1818	0.1	1618.2
7809	16.91	2.3636	0.1	1627.1
7810	16.91	2.5455	0.1	1633.9
7811	16.91	2.7273	0.1	1638.6
7812	16.91	2.9091	0.1	1640.9
7813	16.91	3.0909	0.1	1640.9
7814	16.91	3.2727	0.1	1638.6
7815	16.91	3.4545	0.1	1633.9
7816	16.91	3.6364	0.1	1627.1
7817	16.91	3.8182	0.1	1618.2
7818	16.91	4.	0.1	1607.4
7819	16.91	4.1818	0.1	1594.9
7820	16.91	4.3636	0.1	1581.2
7821	16.91	4.5455	0.1	1566.4
7822	16.91	4.7273	0.1	1551.2
7823	16.91	4.9091	0.1	1535.9
7824	16.91	5.0909	0.1	1521.
7825	16.91	5.2727	0.1	1507.1
7826	16.91	5.4545	0.1	1494.5
7827	16.91	5.6364	0.1	1483.6
7828	16.91	5.8182	0.1	1475.3
7829	17.094	0.18182	0.1	1409.
7830	17.094	0.36364	0.1	1419.2
7831	17.094	0.54545	0.1	1432.3
7832	17.094	0.72727	0.1	1447.7
7833	17.094	0.90909	0.1	1464.8
7834	17.094	1.0909	0.1	1483.3
7835	17.094	1.2727	0.1	1502.4
7836	17.094	1.4545	0.1	1521.6
7837	17.094	1.6364	0.1	1540.2
7838	17.094	1.8182	0.1	1557.7
7839	17.094	2.	0.1	1573.5
7840	17.094	2.1818	0.1	1587.3
7841	17.094	2.3636	0.1	1598.8
7842	17.094	2.5455	0.1	1607.6
7843	17.094	2.7273	0.1	1613.6
7844	17.094	2.9091	0.1	1616.6
7845	17.094	3.0909	0.1	1616.6
7846	17.094	3.2727	0.1	1613.6
7847	17.094	3.4545	0.1	1607.6
7848	17.094	3.6364	0.1	1598.8
7849	17.094	3.8182	0.1	1587.3
7850	17.094	4.	0.1	1573.5
7851	17.094	4.1818	0.1	1557.7
7852	17.094	4.3636	0.1	1540.2
7853	17.094	4.5455	0.1	1521.6
7854	17.094	4.7273	0.1	1502.4
7855	17.094	4.9091	0.1	1483.3
7856	17.094	5.0909	0.1	1464.8
7857	17.094	5.2727	0.1	1447.7
7858	17.094	5.4545	0.1	1432.3
7859	17.094	5.6364	0.1	1419.2
7860	17.094	5.8182	0.1	1409.
7861	17.278	0.18182	0.1	1337.9
7862	17.278	0.36364	0.1	1350.3
7863	17.278	0.54545	0.1	1366.
7864	17.278	0.72727	0.1	1384.7
7865	17.278	0.90909	0.1	1405.7
7866	17.278	1.0909	0.1	1428.6
7867	17.278	1.2727	0.1	1452.5
7868	17.278	1.4545	0.1	1476.7
7869	17.278	1.6364	0.1	1500.3
7870	17.278	1.8182	0.1	1522.5
7871	17.278	2.	0.1	1542.7
7872	17.278	2.1818	0.1	1560.4
7873	17.278	2.3636	0.1	1575.
7874	17.278	2.5455	0.1	1586.4
7875	17.278	2.7273	0.1	1594.1
7876	17.278	2.9091	0.1	1598.
7877	17.278	3.0909	0.1	1598.
7878	17.278	3.2727	0.1	1594.1
7879	17.278	3.4545	0.1	1586.4
7880	17.278	3.6364	0.1	1575.
7881	17.278	3.8182	0.1	1560.4
7882	17.278	4.	0.1	1542.7
7883	17.278	4.1818	0.1	1522.5
7884	17.278	4.3636	0.1	1500.3
7885	17.278	4.5455	0.1	1476.7
7886	17.278	4.7273	0.1	1452.5
7887	17.278	4.9091	0.1	1428.6
7888	17.278	5.0909	0.1	1405.7
7889	17.278	5.2727	0.1	1384.7
7890	17.278	5.4545	0.1	1366.
7891	17.278	5.6364	0.1	1350.3
7892	17.278	5.8182	0.1	1337.9
7893	17.462	0.18182	0.1	1261.2
7894	17.462	0.36364	0.1	1275.9
7895	17.462	0.54545	0.1	1294.7
7896	17.462	0.72727	0.1	1317.2
7897	17.462	0.90909	0.1	1343.
7898	17.462	1.0909	0.1	1371.3
7899	17.462	1.2727	0.1	1401.3
7900	17.462	1.4545	0.1	1431.7
7901	17.462	1.6364	0.1	1461.6
7902	17.462	1.8182	0.1	1489.9
7903	17.462	2.	0.1	1515.7
7904	17.462	2.1818	0.1	1538.2
7905	17.462	2.3636	0.1	1557.1
7906	17.462	2.5455	0.1	1571.7
7907	17.462	2.7273	0.1	1581.6
7908	17.462	2.9091	0.1	1586.7
7909	17.462	3.0909	0.1	1586.7
7910	17.462	3.2727	0.1	1581.6
7911	17.462	3.4545	0.1	1571.7
7912	17.462	3.6364	0.1	1557.1
7913	17.462	3.8182	0.1	1538.2
7914	17.462	4.	0.1	1515.7
7915	17.462	4.1818	0.1	1489.9
7916	17.462	4.3636	0.1	1461.6
7917	17.462	4.5455	0.1	1431.7
7918	17.462	4.7273	0.1	1401.3
7919	17.462	4.9091	0.1	1371.3
7920	17.462	5.0909	0.1	1343.
7921	17.462	5.2727	0.1	1317.2
7922	17.462	5.4545	0.1	1294.7
7923	17.462	5.6364	0.1	1275.9
7924	17.462	5.8182	0.1	1261.2
7925	17.646	0.18182	0.1	1177.7
7926	17.646	0.36364	0.1	1195.
7927	17.646	0.54545	0.1	1217.2
7928	17.646	0.72727	0.1	1244.3
7929	17.646	0.90909	0.1	1275.8
7930	17.646	1.0909	0.1	1310.8
7931	17.646	1.2727	0.1	1348.3
7932	17.646	1.4545	0.1	1386.7
7933	17.646	1.6364	0.1	1424.6
7934	17.646	1.8182	0.1	1460.6
7935	17.646	2.	0.1	1493.5
7936	17.646	2.1818	0.1	1522.4
7937	17.646	2.3636	0.1	1546.6
7938	17.646	2.5455	0.1	1565.3
7939	17.646	2.7273	0.1	1578.2
7940	17.646	2.9091	0.1	1584.7
7941	17.646	3.0909	0.1	1584.7
7942	17.646	3.2727	0.1	1578.2
7943	17.646	3.4545	0.1	1565.3
7944	17.646	3.6364	0.1	1546.6
7945	17.646	3.8182	0.1	1522.4
7946	17.646	4.	0.1	1493.5
7947	17.646	4.1818	0.1	1460.6
7948	17.646	4.3636	0.1	1424.6
7949	17.646	4.5455	0.1	1386.7
7950	17.646	4.7273	0.1	1348.3
7951	17.646	4.9091	0.1	1310.8
7952	17.646	5.0909	0.1	1275.8
7953	17.646	5.2727	0.1	1244.3
7954	17.646	5.4545	0.1	1217.2
7955	17.646	5.6364	0.1	1195.
7956	17.646	5.8182	0.1	1177.7
7957	17.83	0.18182	0.1	1086.4
7958	17.83	0.36364	0.1	1106.4
7959	17.83	0.54545	0.1	1132.4
7960	17.83	0.72727	0.1	1164.8
7961	17.83	0.90909	0.1	1203.1
7962	17.83	1.0909	0.1	1246.3
7963	17.83	1.2727	0.1	1293.
7964	17.83	1.4545	0.1	1341.5
7965	17.83	1.6364	0.1	1389.7
7966	17.83	1.8182	0.1	1435.7
7967	17.83	2.	0.1	1477.8
7968	17.83	2.1818	0.1	1514.8
7969	17.83	2.3636	0.1	1545.7
7970	17.83	2.5455	0.1	1569.8
7971	17.83	2.7273	0.1	1586.3
7972	17.83	2.9091	0.1	1594.7
7973	17.83	3.0909	0.1	1594.7
7974	17.83	3.2727	0.1	1586.3
7975	17.83	3.4545	0.1	1569.8
7976	17.83	3.6364	0.1	1545.7
7977	17.83	3.8182	0.1	1514.8
7978	17.83	4.	0.1	1477.8
7979	17.83	4.1818	0.1	1435.7
7980	17.83	4.3636	0.1	1389.7
7981	17.83	4.5455	0.1	1341.5
7982	17.83	4.7273	0.1	1293.
7983	17.83	4.9091	0.1	1246.3
7984	17.83	5.0909	0.1	1203.1
7985	17.83	5.2727	0.1	1164.8
7986	17.83	5.4545	0.1	1132.4
7987	17.83	5.6364	0.1	1106.4
7988	17.83	5.8182	0.1	1086.4
7989	18.013	0.18182	0.1	986.31
7990	18.013	0.36364	0.1	1008.9
7991	18.013	0.54545	0.1	1039.1
7992	18.013	0.72727	0.1	1077.5
7993	18.013	0.90909	0.1	1123.8
7994	18.013	1.0909	0.1	1176.8
7995	18.013	1.2727	0.1	1235.1
7996	18.013	1.4545	0.1	1296.3
7997	18.013	1.6364	0.1	1357.8
7998	18.013	1.8182	0.1	1416.7
7999	18.013	2.	0.1	1470.8
8000	18.013	2.1818	0.1	1518.2
8001	18.013	2.3636	0.1	1557.7
8002	18.013	2.5455	0.1	1588.3
8003	18.013	2.7273	0.1	1609.2
8004	18.013	2.9091	0.1	1619.9
8005	18.013	3.0909	0.1	1619.9
8006	18.013	3.2727	0.1	1609.2
8007	18.013	3.4545	0.1	1588.3
8008	18.013	3.6364	0.1	1557.7
8009	18.013	3.8182	0.1	1518.2
8010	18.013	4.	0.1	1470.8
8011	18.013	4.1818	0.1	1416.7
8012	18.013	4.3636	0.1	1357.8
8013	18.013	4.5455	0.1	1296.3
8014	18.013	4.7273	0.1	1235.1
8015	18.013	4.9091	0.1	1176.8
8016	18.013	5.0909	0.1	1123.8
8017	18.013	5.2727	0.1	1077.5
8018	18.013	5.4545	0.1	1039.1
8019	18.013	5.6364	0.1	1008.9
8020	18.013	5.8182	0.1	986.31
8021	18.197	0.18182	0.1	876.49
8022	18.197	0.36364	0.1	901.61
8023	18.197	0.54545	0.1	936.33
8024	18.197	0.72727	0.1	981.45
8025	18.197	0.90909	0.1	1036.8
8026	18.197	1.0909	0.1	1101.4
8027	18.197	1.2727	0.1	1173.8
8028	18.197	1.4545	0.1	1251.2
8029	18.197	1.6364	0.1	1330.
8030	18.197	1.8182	0.1	1406.1
8031	18.197	2.	0.1	1475.8
8032	18.197	2.1818	0.1	1536.6
8033	18.197	2.3636	0.1	1586.8
8034	18.197	2.5455	0.1	1625.3
8035	18.197	2.7273	0.1	1651.2
8036	18.197	2.9091	0.1	1664.1
8037	18.197	3.0909	0.1	1664.1
8038	18.197	3.2727	0.1	1651.2
8039	18.197	3.4545	0.1	1625.3
8040	18.197	3.6364	0.1	1586.8
8041	18.197	3.8182	0.1	1536.6
8042	18.197	4.	0.1	1475.8
8043	18.197	4.1818	0.1	1406.1
8044	18.197	4.3636	0.1	1330.
8045	18.197	4.5455	0.1	1251.2
8046	18.197	4.7273	0.1	1173.8
8047	18.197	4.9091	0.1	1101.4
8048	18.197	5.0909	0.1	1036.8
8049	18.197	5.2727	0.1	981.45
8050	18.197	5.4545	0.1	936.33
8051	18.197	5.6364	0.1	901.61
8052	18.197	5.8182	0.1	876.49
8053	18.381	0.18182	0.1	756.59
8054	18.381	0.36364	0.1	784.06
8055	18.381	0.54545	0.1	823.63
8056	18.381	0.72727	0.1	876.13
8057	18.381	0.90909	0.1	941.53
8058	18.381	1.0909	0.1	1019.4
8059	18.381	1.2727	0.1	1108.4
8060	18.381	1.4545	0.1	1206.2
8061	18.381	1.6364	0.1	1308.
8062	18.381	1.8182	0.1	1407.5
8063	18.381	2.	0.1	1498.6
8064	18.381	2.1818	0.1	1577.
8065	18.381	2.3636	0.1	1640.1
8066	18.381	2.5455	0.1	1686.7
8067	18.381	2.7273	0.1	1716.9
8068	18.381	2.9091	0.1	1731.6
8069	18.381	3.0909	0.1	1731.6
8070	18.381	3.2727	0.1	1716.9
8071	18.381	3.4545	0.1	1686.7
8072	18.381	3.6364	0.1	1640.1
8073	18.381	3.8182	0.1	1577.
8074	18.381	4.	0.1	1498.6
8075	18.381	4.1818	0.1	1407.5
8076	18.381	4.3636	0.1	1308.
8077	18.381	4.5455	0.1	1206.2
8078	18.381	4.7273	0.1	1108.4
8079	18.381	4.9091	0.1	1019.4
8080	18.381	5.0909	0.1	941.53
8081	18.381	5.2727	0.1	876.13
8082	18.381	5.4545	0.1	823.63
8083	18.381	5.6364	0.1	784.06
8084	18.381	5.8182	0.1	756.59
8085	18.565	0.18182	0.1	626.84
8086	18.565	0.36364	0.1	656.77
8087	18.565	0.54545	0.1	701.97
8088	18.565	0.72727	0.1	762.59
8089	18.565	0.90909	0.1	838.57
8090	18.565	1.0909	0.1	930.22
8091	18.565	1.2727	0.1	1037.9
8092	18.565	1.4545	0.1	1160.5
8093	18.565	1.6364	0.1	1293.7
8094	18.565	1.8182	0.1	1427.2
8095	18.565	2.	0.1	1549.3
8096	18.565	2.1818	0.1	1651.2
8097	18.565	2.3636	0.1	1728.7
8098	18.565	2.5455	0.1	1781.1
8099	18.565	2.7273	0.1	1811.6
8100	18.565	2.9091	0.1	1825.2
8101	18.565	3.0909	0.1	1825.2
8102	18.565	3.2727	0.1	1811.6
8103	18.565	3.4545	0.1	1781.1
8104	18.565	3.6364	0.1	1728.7
8105	18.565	3.8182	0.1	1651.2
8106	18.565	4.	0.1	1549.3
8107	18.565	4.1818	0.1	1427.2
8108	18.565	4.3636	0.1	1293.7
8109	18.565	4.5455	0.1	1160.5
8110	18.565	4.7273	0.1	1037.9
8111	18.565	4.9091	0.1	930.22
8112	18.565	5.0909	0.1	838.57
8113	18.565	5.2727	0.1	762.59
8114	18.565	5.4545	0.1	701.97
8115	18.565	5.6364	0.1	656.77
8116	18.565	5.8182	0.1	626.84
8117	18.749	0.18182	0.1	488.55
8118	18.749	0.36364	0.1	522.35
8119	18.749	0.54545	0.1	575.22
8120	18.749	0.72727	0.1	644.97
8121	18.749	0.90909	0.1	731.05
8122	18.749	1.0909	0.1	835.11
8123	18.749	1.2727	0.1	960.58
8124	18.749	1.4545	0.1	1112.1
8125	18.749	1.6364	0.1	1287.8
8126	18.749	1.8182	0.1	1475.9
8127	18.749	2.	0.1	1650.1
8128	18.749	2.1818	0.1	1783.7
8129	18.749	2.3636	0.1	1873.1
8130	18.749	2.5455	0.1	1919.
8131	18.749	2.7273	0.1	1937.4
8132	18.749	2.9091	0.1	1943.1
8133	18.749	3.0909	0.1	1943.1
8134	18.749	3.2727	0.1	1937.4
8135	18.749	3.4545	0.1	1919.
8136	18.749	3.6364	0.1	1873.1
8137	18.749	3.8182	0.1	1783.7
8138	18.749	4.	0.1	1650.1
8139	18.749	4.1818	0.1	1475.9
8140	18.749	4.3636	0.1	1287.8
8141	18.749	4.5455	0.1	1112.1
8142	18.749	4.7273	0.1	960.58
8143	18.749	4.9091	0.1	835.11
8144	18.749	5.0909	0.1	731.05
8145	18.749	5.2727	0.1	644.97
8146	18.749	5.4545	0.1	575.22
8147	18.749	5.6364	0.1	522.35
8148	18.749	5.8182	0.1	488.55
8149	18.932	0.18182	0.1	344.48
8150	18.932	0.36364	0.1	387.92
8151	18.932	0.54545	0.1	453.15
8152	18.932	0.72727	0.1	532.96
8153	18.932	0.90909	0.1	626.85
8154	18.932	1.0909	0.1	738.4
8155	18.932	1.2727	0.1	875.75
8156	18.932	1.4545	0.1	1050.6
8157	18.932	1.6364	0.1	1286.3
8158	18.932	1.8182	0.1	1576.
8159	18.932	2.	0.1	1845.2
8160	18.932	2.1818	0.1	2041.5
8161	18.932	2.3636	0.1	2110.4
8162	18.932	2.5455	0.1	2107.7
8163	18.932	2.7273	0.1	2087.1
8164	18.932	2.9091	0.1	2072.8
8165	18.932	3.0909	0.1	2072.8
8166	18.932	3.2727	0.1	2087.1
8167	18.932	3.4545	0.1	2107.7
8168	18.932	3.6364	0.1	2110.4
8169	18.932	3.8182	0.1	2041.5
8170	18.932	4.	0.1	1845.2
8171	18.932	4.1818	0.1	1576.
8172	18.932	4.3636	0.1	1286.3
8173	18.932	4.5455	0.1	1050.6
8174	18.932	4.7273	0.1	875.75
8175	18.932	4.9091	0.1	738.4
8176	18.932	5.0909	0.1	626.85
8177	18.932	5.2727	0.1	532.96
8178	18.932	5.4545	0.1	453.15
8179	18.932	5.6364	0.1	387.92
8180	18.932	5.8182	0.1	344.48
8181	19.116	0.18182	0.1	208.39
8182	19.116	0.36364	0.1	282.34
8183	19.116	0.54545	0.1	367.87
8184	19.116	0.72727	0.1	459.51
8185	19.116	0.90909	0.1	560.49
8186	19.116	1.0909	0.1	676.89
8187	19.116	1.2727	0.1	818.41
8188	19.116	1.4545	0.1	1008.7
8189	19.116	1.6364	0.1	1279.4
8190	19.116	1.8182	0.1	1833.7
8191	19.116	2.	0.1	2574.4
8192	19.116	2.1818	0.1	2599.
8193	19.116	2.3636	0.1	2477.
8194	19.116	2.5455	0.1	2322.1
8195	19.116	2.7273	0.1	2229.8
8196	19.116	2.9091	0.1	2185.
8197	19.116	3.0909	0.1	2185.
8198	19.116	3.2727	0.1	2229.8
8199	19.116	3.4545	0.1	2322.1
8200	19.116	3.6364	0.1	2477.
8201	19.116	3.8182	0.1	2599.
8202	19.116	4.	0.1	2574.4
8203	19.116	4.1818	0.1	1833.7
8204	19.116	4.3636	0.1	1279.4
8205	19.116	4.5455	0.1	1008.7
8206	19.116	4.7273	0.1	818.41
8207	19.116	4.9091	0.1	676.89
8208	19.116	5.0909	0.1	560.49
8209	19.116	5.2727	0.1	459.51
8210	19.116	5.4545	0.1	367.87
8211	19.116	5.6364	0.1	282.34
8212	19.116	5.8182	0.1	208.39
8213	19.467	3.8182	0.1	3552.5
8214	19.467	3.6364	0.1	2792.8
8215	19.467	3.4545	0.1	2450.1
8216	19.467	3.2727	0.1	2279.6
8217	19.467	3.0909	0.1	2206.8
8218	19.467	2.9091	0.1	2206.8
8219	19.467	2.7273	0.1	2279.6
8220	19.467	2.5455	0.1	2450.1
8221	19.467	2.3636	0.1	2792.8
8222	19.467	2.1818	0.1	3552.5
8223	19.3	3.8182	0.1	3511.1
8224	19.3	3.6364	0.1	2790.7
8225	19.3	3.4545	0.1	2471.4
8226	19.3	3.2727	0.1	2308.2
8227	19.3	3.0909	0.1	2238.6
8228	19.3	2.9091	0.1	2238.6
8229	19.3	2.7273	0.1	2308.2
8230	19.3	2.5455	0.1	2471.4
8231	19.3	2.3636	0.1	2790.7
8232	19.3	2.1818	0.1	3511.1
8233	19.467	5.8182	0.1	80.399
8234	19.467	5.6364	0.1	144.71
8235	19.467	5.4545	0.1	204.02
8236	19.467	5.2727	0.1	266.11
8237	19.467	5.0909	0.1	335.82
8238	19.467	4.9091	0.1	418.87
8239	19.467	4.7273	0.1	523.43
8240	19.467	4.5455	0.1	668.12
8241	19.467	4.3636	0.1	868.67
8242	19.467	4.1818	0.1	1333.6
8243	19.467	4.	0.1	5196.4
8244	19.3	4.	0.1	4953.4
8245	19.3	4.1818	0.1	1117.2
8246	19.3	4.3636	0.1	745.88
8247	19.3	4.5455	0.1	600.65
8248	19.3	4.7273	0.1	493.82
8249	19.3	4.9091	0.1	414.57
8250	19.3	5.0909	0.1	347.75
8251	19.3	5.2727	0.1	287.94
8252	19.3	5.4545	0.1	230.61
8253	19.3	5.6364	0.1	171.47
8254	19.3	5.8182	0.1	101.29
8255	19.467	0.18182	0.1	80.399
8256	19.467	0.36364	0.1	144.71
8257	19.467	0.54545	0.1	204.02
8258	19.467	0.72727	0.1	266.11
8259	19.467	0.90909	0.1	335.82
8260	19.467	1.0909	0.1	418.88
8261	19.467	1.2727	0.1	523.43
8262	19.467	1.4545	0.1	668.12
8263	19.467	1.6364	0.1	868.67
8264	19.467	1.8182	0.1	1333.6
8265	19.467	2.	0.1	5196.4
8266	19.3	2.	0.1	4953.4
8267	19.3	1.8182	0.1	1117.2
8268	19.3	1.6364	0.1	745.88
8269	19.3	1.4545	0.1	600.65
8270	19.3	1.2727	0.1	493.82
8271	19.3	1.0909	0.1	414.57
8272	19.3	0.90909	0.1	347.75
8273	19.3	0.72727	0.1	287.94
8274	19.3	0.54545	0.1	230.61
8275	19.3	0.36364	0.1	171.47
8276	19.3	0.18182	0.1	101.29
8277	19.467	6.	0.1	9.6578
8278	19.648	6.	0.1	98.16
8279	19.829	6.	0.1	187.38
8280	20.011	6.	0.1	261.94
8281	20.192	6.	0.1	323.21
8282	20.373	6.	0.1	371.29
8283	20.555	6.	0.1	406.55
8284	20.736	6.	0.1	429.86
8285	20.917	6.	0.1	442.44
8286	21.099	6.	0.1	445.65
8287	21.28	6.	0.1	440.88
8288	21.461	6.	0.1	429.43
8289	21.643	6.	0.1	412.49
8290	21.824	6.	0.1	391.07
8291	22.005	6.	0.1	366.05
8292	22.187	6.	0.1	338.16
8293	22.368	6.	0.1	308.02
8294	22.549	6.	0.1	276.12
8295	22.731	6.	0.1	242.88
8296	22.912	6.	0.1	208.65
8297	23.093	6.	0.1	173.74
8298	23.275	6.	0.1	138.43
8299	23.456	6.	0.1	103.03
8300	23.637	6.	0.1	67.93
8301	23.819	6.	0.1	34.059
8302	24.	6.	0.1	5.6985
8303	24.	5.8182	0.1	6.6268
8304	24.	5.6364	0.1	6.8079
8305	24.	5.4545	0.1	6.8553
8306	24.	5.2727	0.1	6.8627
8307	24.	5.0909	0.1	6.8385
8308	24.	4.9091	0.1	6.8075
8309	24.	4.7273	0.1	6.7724
8310	24.	4.5455	0.1	6.7369
8311	24.	4.3636	0.1	6.7026
8312	24.	4.1818	0.1	6.6706
8313	24.	4.	0.1	6.6416
8314	24.	3.8182	0.1	6.6163
8315	24.	3.6364	0.1	6.5953
8316	24.	3.4545	0.1	6.5791
8317	24.	3.2727	0.1	6.568
8318	24.	3.0909	0.1	6.5624
8319	24.	2.9091	0.1	6.5624
8320	24.	2.7273	0.1	6.568
8321	24.	2.5455	0.1	6.5791
8322	24.	2.3636	0.1	6.5953
8323	24.	2.1818	0.1	6.6163
8324	24.	2.	0.1	6.6416
8325	24.	1.8182	0.1	6.6706
8326	24.	1.6364	0.1	6.7026
8327	24.	1.4545	0.1	6.7369
8328	24.	1.2727	0.1	6.7724
8329	24.	1.0909	0.1	6.8075
8330	24.	0.90909	0.1	6.8385
8331	24.	0.72727	0.1	6.8627
8332	24.	0.54545	0.1	6.8553
8333	24.	0.36364	0.1	6.8079
8334	24.	0.18182	0.1	6.6267
8335	1.5894e-015	0.18182	0.1	2497.5
8336	3.1789e-015	0.36364	0.1	4636.3
8337	4.7683e-015	0.54545	0.1	5685.8
8338	6.3578e-015	0.72727	0.1	6331.
8339	7.9472e-015	0.90909	0.1	6761.7
8340	9.5366e-015	1.0909	0.1	7069.1
8341	1.1126e-014	1.2727	0.1	7296.6
8342	1.2716e-014	1.4545	0.1	7469.3
8343	1.4305e-014	1.6364	0.1	7602.2
8344	1.5894e-014	1.8182	0.1	7705.3
8345	1.7484e-014	2.	0.1	7785.1
8346	1.9073e-014	2.1818	0.1	7846.4
8347	2.0663e-014	2.3636	0.1	7892.3
8348	2.2252e-014	2.5455	0.1	7925.
8349	2.3842e-014	2.7273	0.1	7946.
8350	2.5431e-014	2.9091	0.1	7956.3
8351	2.702e-014	3.0909	0.1	7956.3
8352	2.861e-014	3.2727	0.1	7946.
8353	3.0199e-014	3.4545	0.1	7925.
8354	3.1789e-014	3.6364	0.1	7892.3
8355	3.3378e-014	3.8182	0.1	7846.4
8356	3.4968e-014	4.	0.1	7785.1
8357	3.6557e-014	4.1818	0.1	7705.3
8358	3.8147e-014	4.3636	0.1	7602.2
8359	3.9736e-014	4.5455	0.1	7469.3
8360	4.1325e-014	4.7273	0.1	7296.6
8361	4.2915e-014	4.9091	0.1	7069.1
8362	4.4504e-014	5.0909	0.1	6761.7
8363	4.6094e-014	5.2727	0.1	6331.
8364	4.7683e-014	5.4545	0.1	5685.8
8365	4.9273e-014	5.6364	0.1	4636.3
8366	5.0862e-014	5.8182	0.1	2497.5
8367	24.	0.	0.1	5.6985
8368	23.819	0.	0.1	34.059
8369	23.637	0.	0.1	67.93
8370	23.456	0.	0.1	103.03
8371	23.275	0.	0.1	138.43
8372	23.093	0.	0.1	173.74
8373	22.912	0.	0.1	208.65
8374	22.731	0.	0.1	242.88
8375	22.549	0.	0.1	276.12
8376	22.368	0.	0.1	308.02
8377	22.187	0.	0.1	338.16
8378	22.005	0.	0.1	366.05
8379	21.824	0.	0.1	391.07
8380	21.643	0.	0.1	412.49
8381	21.461	0.	0.1	429.43
8382	21.28	0.	0.1	440.88
8383	21.099	0.	0.1	445.65
8384	20.917	0.	0.1	442.44
8385	20.736	0.	0.1	429.86
8386	20.555	0.	0.1	406.55
8387	20.373	0.	0.1	371.29
8388	20.192	0.	0.1	323.21
8389	20.011	0.	0.1	261.94
8390	19.829	0.	0.1	187.38
8391	19.648	0.	0.1	98.16
8392	19.467	0.	0.1	9.6578
8393	19.3	0.	0.1	14.091
8394	19.116	1.3458e-029	0.1	154.11
8395	18.932	1.3329e-029	0.1	313.85
8396	18.749	1.3199e-029	0.1	464.91
8397	18.565	1.307e-029	0.1	607.45
8398	18.381	1.2941e-029	0.1	740.27
8399	18.197	1.2811e-029	0.1	862.52
8400	18.013	1.2682e-029	0.1	974.12
8401	17.83	1.2552e-029	0.1	1075.6
8402	17.646	1.2423e-029	0.1	1167.9
8403	17.462	1.2294e-029	0.1	1252.1
8404	17.278	1.2164e-029	0.1	1329.3
8405	17.094	1.2035e-029	0.1	1400.7
8406	16.91	1.1905e-029	0.1	1467.3
8407	16.727	1.1776e-029	0.1	1529.8
8408	16.543	1.1647e-029	0.1	1589.2
8409	16.359	1.1517e-029	0.1	1645.9
8410	16.175	1.1388e-029	0.1	1700.6
8411	15.991	1.1258e-029	0.1	1753.7
8412	15.808	1.1129e-029	0.1	1805.5
8413	15.624	1.1e-029	0.1	1856.3
8414	15.44	1.087e-029	0.1	1906.4
8415	15.256	1.0741e-029	0.1	1955.8
8416	15.072	1.0611e-029	0.1	2004.9
8417	14.889	1.0482e-029	0.1	2053.6
8418	14.705	1.0353e-029	0.1	2102.2
8419	14.521	1.0223e-029	0.1	2150.6
8420	14.337	1.0094e-029	0.1	2199.
8421	14.153	9.9643e-030	0.1	2247.3
8422	13.97	9.8349e-030	0.1	2295.7
8423	13.786	9.7055e-030	0.1	2344.1
8424	13.602	9.5761e-030	0.1	2392.7
8425	13.418	9.4467e-030	0.1	2441.3
8426	13.234	9.3173e-030	0.1	2490.1
8427	13.05	9.1878e-030	0.1	2539.
8428	12.867	9.0584e-030	0.1	2588.1
8429	12.683	8.929e-030	0.1	2637.3
8430	12.499	8.7996e-030	0.1	2686.8
8431	12.315	8.6702e-030	0.1	2736.4
8432	12.131	8.5408e-030	0.1	2786.1
8433	11.948	8.4114e-030	0.1	2836.1
8434	11.764	8.282e-030	0.1	2886.3
8435	11.58	8.1526e-030	0.1	2936.7
8436	11.396	8.0232e-030	0.1	2987.3
8437	11.212	7.8938e-030	0.1	3038.1
8438	11.029	7.7644e-030	0.1	3089.2
8439	10.845	7.635e-030	0.1	3140.4
8440	10.661	7.5056e-030	0.1	3191.9
8441	10.477	7.3762e-030	0.1	3243.6
8442	10.293	7.2468e-030	0.1	3295.6
8443	10.11	7.1173e-030	0.1	3347.8
8444	9.9257	6.9879e-030	0.1	3400.2
8445	9.7419	6.8585e-030	0.1	3452.9
8446	9.5581	6.7291e-030	0.1	3505.9
8447	9.3743	6.5997e-030	0.1	3559.1
8448	9.1905	6.4703e-030	0.1	3612.6
8449	9.0067	6.3409e-030	0.1	3666.4
8450	8.8229	6.2115e-030	0.1	3720.5
8451	8.639	6.0821e-030	0.1	3774.9
8452	8.4552	5.9527e-030	0.1	3829.6
8453	8.2714	5.8233e-030	0.1	3884.6
8454	8.0876	5.6939e-030	0.1	3939.9
8455	7.9038	5.5645e-030	0.1	3995.5
8456	7.72	5.4351e-030	0.1	4051.6
8457	7.5362	5.3057e-030	0.1	4107.9
8458	7.3524	5.1763e-030	0.1	4164.7
8459	7.1686	5.0468e-030	0.1	4221.8
8460	6.9848	4.9174e-030	0.1	4279.4
8461	6.801	4.788e-030	0.1	4337.4
8462	6.6171	4.6586e-030	0.1	4395.8
8463	6.4333	4.5292e-030	0.1	4454.7
8464	6.2495	4.3998e-030	0.1	4514.
8465	6.0657	4.2704e-030	0.1	4573.9
8466	5.8819	4.141e-030	0.1	4634.3
8467	5.6981	4.0116e-030	0.1	4695.2
8468	5.5143	3.8822e-030	0.1	4756.7
8469	5.3305	3.7528e-030	0.1	4818.7
8470	5.1467	3.6234e-030	0.1	4881.3
8471	4.9629	3.494e-030	0.1	4944.5
8472	4.779	3.3646e-030	0.1	5008.3
8473	4.5952	3.2352e-030	0.1	5072.7
8474	4.4114	3.1058e-030	0.1	5137.6
8475	4.2276	2.9763e-030	0.1	5203.
8476	4.0438	2.8469e-030	0.1	5269.
8477	3.86	2.7175e-030	0.1	5335.3
8478	3.6762	2.5881e-030	0.1	5401.9
8479	3.4924	2.4587e-030	0.1	5468.5
8480	3.3086	2.3293e-030	0.1	5535.1
8481	3.1248	2.1999e-030	0.1	5601.1
8482	2.941	2.0705e-030	0.1	5666.4
8483	2.7571	1.9411e-030	0.1	5730.2
8484	2.5733	1.8117e-030	0.1	5791.8
8485	2.3895	1.6823e-030	0.1	5850.3
8486	2.2057	1.5529e-030	0.1	5904.3
8487	2.0219	1.4235e-030	0.1	5952.1
8488	1.8381	1.2941e-030	0.1	5991.1
8489	1.6543	1.1647e-030	0.1	6018.1
8490	1.4705	1.0353e-030	0.1	6028.2
8491	1.2867	9.0584e-031	0.1	6014.3
8492	1.1029	7.7644e-031	0.1	5965.6
8493	0.91905	6.4703e-031	0.1	5864.6
8494	0.73524	5.1763e-031	0.1	5682.5
8495	0.55143	3.8822e-031	0.1	5357.6
8496	0.36762	2.5881e-031	0.1	4781.3
8497	0.18381	1.2941e-031	0.1	3568.3
8498	0.	0.	0.1	761.25
8499	3.937e-014	6.	0.1	761.24
8500	0.18381	6.	0.1	3568.3
8501	0.36762	6.	0.1	4781.3
8502	0.55143	6.	0.1	5357.6
8503	0.73524	6.	0.1	5682.5
8504	0.91905	6.	0.1	5864.6
8505	1.1029	6.	0.1	5965.6
8506	1.2867	6.	0.1	6014.3
8507	1.4705	6.	0.1	6028.2
8508	1.6543	6.	0.1	6018.1
8509	1.8381	6.	0.1	5991.1
8510	2.0219	6.	0.1	5952.1
8511	2.2057	6.	0.1	5904.3
8512	2.3895	6.	0.1	5850.3
8513	2.5733	6.	0.1	5791.8
8514	2.7571	6.	0.1	5730.2
8515	2.941	6.	0.1	5666.4
8516	3.1248	6.	0.1	5601.1
8517	3.3086	6.	0.1	5535.1
8518	3.4924	6.	0.1	5468.5
8519	3.6762	6.	0.1	5401.9
8520	3.86	6.	0.1	5335.3
8521	4.0438	6.	0.1	5269.
8522	4.2276	6.	0.1	5203.
8523	4.4114	6.	0.1	5137.6
8524	4.5952	6.	0.1	5072.7
8525	4.779	6.	0.1	5008.3
8526	4.9629	6.	0.1	4944.5
8527	5.1467	6.	0.1	4881.3
8528	5.3305	6.	0.1	4818.7
8529	5.5143	6.	0.1	4756.7
8530	5.6981	6.	0.1	4695.2
8531	5.8819	6.	0.1	4634.3
8532	6.0657	6.	0.1	4573.9
8533	6.2495	6.	0.1	4514.
8534	6.4333	6.	0.1	4454.7
8535	6.6171	6.	0.1	4395.8
8536	6.801	6.	0.1	4337.4
8537	6.9848	6.	0.1	4279.4
8538	7.1686	6.	0.1	4221.8
8539	7.3524	6.	0.1	4164.7
8540	7.5362	6.	0.1	4107.9
8541	7.72	6.	0.1	4051.6
8542	7.9038	6.	0.1	3995.5
8543	8.0876	6.	0.1	3939.9
8544	8.2714	6.	0.1	3884.6
8545	8.4552	6.	0.1	3829.6
8546	8.639	6.	0.1	3774.9
8547	8.8229	6.	0.1	3720.5
8548	9.0067	6.	0.1	3666.4
8549	9.1905	6.	0.1	3612.6
8550	9.3743	6.	0.1	3559.1
8551	9.5581	6.	0.1	3505.9
8552	9.7419	6.	0.1	3452.9
8553	9.9257	6.	0.1	3400.2
8554	10.11	6.	0.1	3347.8
8555	10.293	6.	0.1	3295.6
8556	10.477	6.	0.1	3243.6
8557	10.661	6.	0.1	3191.9
8558	10.845	6.	0.1	3140.4
8559	11.029	6.	0.1	3089.2
8560	11.212	6.	0.1	3038.1
8561	11.396	6.	0.1	2987.3
8562	11.58	6.	0.1	2936.7
8563	11.764	6.	0.1	2886.3
8564	11.948	6.	0.1	2836.1
8565	12.131	6.	0.1	2786.1
8566	12.315	6.	0.1	2736.4
8567	12.499	6.	0.1	2686.8
8568	12.683	6.	0.1	2637.3
8569	12.867	6.	0.1	2588.1
8570	13.05	6.	0.1	2539.
8571	13.234	6.	0.1	2490.1
8572	13.418	6.	0.1	2441.3
8573	13.602	6.	0.1	2392.7
8574	13.786	6.	0.1	2344.1
8575	13.97	6.	0.1	2295.7
8576	14.153	6.	0.1	2247.3
8577	14.337	6.	0.1	2199.
8578	14.521	6.	0.1	2150.6
8579	14.705	6.	0.1	2102.2
8580	14.889	6.	0.1	2053.6
8581	15.072	6.	0.1	2004.9
8582	15.256	6.	0.1	1955.8
8583	15.44	6.	0.1	1906.4
8584	15.624	6.	0.1	1856.3
8585	15.808	6.	0.1	1805.5
8586	15.991	6.	0.1	1753.7
8587	16.175	6.	0.1	1700.6
8588	16.359	6.	0.1	1645.9
8589	16.543	6.	0.1	1589.2
8590	16.727	6.	0.1	1529.8
8591	16.91	6.	0.1	1467.3
8592	17.094	6.	0.1	1400.7
8593	17.278	6.	0.1	1329.3
8594	17.462	6.	0.1	1252.1
8595	17.646	6.	0.1	1167.9
8596	17.83	6.	0.1	1075.6
8597	18.013	6.	0.1	974.12
8598	18.197	6.	0.1	862.52
8599	18.381	6.	0.1	740.27
8600	18.565	6.	0.1	607.45
8601	18.749	6.	0.1	464.91
8602	18.932	6.	0.1	313.85
8603	19.116	6.	0.1	154.11
8604	19.3	6.	0.1	14.091
8605	19.116	6.	0.	3.5424
8606	18.932	6.	0.	3.251
8607	18.749	6.	0.	3.2015
8608	18.565	6.	0.	3.0946
8609	18.381	6.	0.	2.9845
8610	18.197	6.	0.	2.9903
8611	18.013	6.	0.	3.1128
8612	17.83	6.	0.	3.3384
8613	17.646	6.	0.	3.6382
8614	17.462	6.	0.	3.9833
8615	17.278	6.	0.	4.3478
8616	17.094	6.	0.	4.7112
8617	16.91	6.	0.	5.0585
8618	16.727	6.	0.	5.38
8619	16.543	6.	0.	5.6699
8620	16.359	6.	0.	5.9256
8621	16.175	6.	0.	6.1469
8622	15.991	6.	0.	6.3348
8623	15.808	6.	0.	6.4914
8624	15.624	6.	0.	6.6194
8625	15.44	6.	0.	6.7212
8626	15.256	6.	0.	6.7996
8627	15.072	6.	0.	6.8571
8628	14.889	6.	0.	6.896
8629	14.705	6.	0.	6.9186
8630	14.521	6.	0.	6.9264
8631	14.337	6.	0.	6.9213
8632	14.153	6.	0.	6.9047
8633	13.97	6.	0.	6.8777
8634	13.786	6.	0.	6.8414
8635	13.602	6.	0.	6.7965
8636	13.418	6.	0.	6.7439
8637	13.234	6.	0.	6.6842
8638	13.05	6.	0.	6.6177
8639	12.867	6.	0.	6.545
8640	12.683	6.	0.	6.4661
8641	12.499	6.	0.	6.3816
8642	12.315	6.	0.	6.2914
8643	12.131	6.	0.	6.1955
8644	11.948	6.	0.	6.0941
8645	11.764	6.	0.	5.9872
8646	11.58	6.	0.	5.8745
8647	11.396	6.	0.	5.756
8648	11.212	6.	0.	5.6316
8649	11.029	6.	0.	5.501
8650	10.845	6.	0.	5.3641
8651	10.661	6.	0.	5.2204
8652	10.477	6.	0.	5.0698
8653	10.293	6.	0.	4.912
8654	10.11	6.	0.	4.7465
8655	9.9257	6.	0.	4.573
8656	9.7419	6.	0.	4.3911
8657	9.5581	6.	0.	4.2005
8658	9.3743	6.	0.	4.0007
8659	9.1905	6.	0.	3.7913
8660	9.0067	6.	0.	3.572
8661	8.8229	6.	0.	3.3424
8662	8.639	6.	0.	3.1021
8663	8.4552	6.	0.	2.8508
8664	8.2714	6.	0.	2.5884
8665	8.0876	6.	0.	2.3146
8666	7.9038	6.	0.	2.0293
8667	7.72	6.	0.	1.7327
8668	7.5362	6.	0.	1.425
8669	7.3524	6.	0.	1.1065
8670	7.1686	6.	0.	0.77806
8671	6.9848	6.	0.	0.45365
8672	6.801	6.	0.	0.48816
8673	6.6171	6.	0.	0.53279
8674	6.4333	6.	0.	0.58114
8675	6.2495	6.	0.	0.63343
8676	6.0657	6.	0.	0.68998
8677	5.8819	6.	0.	0.75112
8678	5.6981	6.	0.	0.81724
8679	5.5143	6.	0.	0.88874
8680	5.3305	6.	0.	0.96607
8681	5.1467	6.	0.	1.0497
8682	4.9629	6.	0.	1.1403
8683	4.779	6.	0.	1.2384
8684	4.5952	6.	0.	1.3449
8685	4.4114	6.	0.	1.4607
8686	4.2276	6.	0.	1.587
8687	4.0438	6.	0.	1.7256
8688	3.86	6.	0.	1.8793
8689	3.6762	6.	0.	2.0531
8690	3.4924	6.	0.	2.2583
8691	3.3086	6.	0.	2.5271
8692	3.1248	6.	0.	2.9928
8693	2.941	6.	0.	4.1453
8694	2.7571	6.	0.	6.2682
8695	2.5733	6.	0.	9.1392
8696	2.3895	6.	0.	12.752
8697	2.2057	6.	0.	17.217
8698	2.0219	6.	0.	22.706
8699	1.8381	6.	0.	29.449
8700	1.6543	6.	0.	37.76
8701	1.4705	6.	0.	48.072
8702	1.2867	6.	0.	61.059
8703	1.1029	6.	0.	77.622
8704	0.91905	6.	0.	99.761
8705	0.73524	6.	0.	129.76
8706	0.55143	6.	0.	176.3
8707	0.36762	6.	0.	256.57
8708	0.18381	6.	0.	442.64
8709	19.3	6.	0.	3.321
8710	3.937e-014	6.	0.	1822.4
8711	0.18381	1.2941e-031	0.	442.64
8712	0.36762	2.5881e-031	0.	256.57
8713	0.55143	3.8822e-031	0.	176.3
8714	0.73524	5.1763e-031	0.	129.76
8715	0.91905	6.4703e-031	0.	99.761
8716	1.1029	7.7644e-031	0.	77.622
8717	1.2867	9.0584e-031	0.	61.059
8718	1.4705	1.0353e-030	0.	48.072
8719	1.6543	1.1647e-030	0.	37.76
8720	1.8381	1.2941e-030	0.	29.449
8721	2.0219	1.4235e-030	0.	22.706
8722	2.2057	1.5529e-030	0.	17.217
8723	2.3895	1.6823e-030	0.	12.752
8724	2.5733	1.8117e-030	0.	9.1392
8725	2.7571	1.9411e-030	0.	6.2682
8726	2.941	2.0705e-030	0.	4.1453
8727	3.1248	2.1999e-030	0.	2.9928
8728	3.3086	2.3293e-030	0.	2.5271
8729	3.4924	2.4587e-030	0.	2.2583
8730	3.6762	2.5881e-030	0.	2.0531
8731	3.86	2.7175e-030	0.	1.8793
8732	4.0438	2.8469e-030	0.	1.7256
8733	4.2276	2.9763e-030	0.	1.587
8734	4.4114	3.1058e-030	0.	1.4607
8735	4.5952	3.2352e-030	0.	1.3449
8736	4.779	3.3646e-030	0.	1.2384
8737	4.9629	3.494e-030	0.	1.1403
8738	5.1467	3.6234e-030	0.	1.0497
8739	5.3305	3.7528e-030	0.	0.96607
8740	5.5143	3.8822e-030	0.	0.88874
8741	5.6981	4.0116e-030	0.	0.81724
8742	5.8819	4.141e-030	0.	0.75113
8743	6.0657	4.2704e-030	0.	0.68998
8744	6.2495	4.3998e-030	0.	0.63343
8745	6.4333	4.5292e-030	0.	0.58114
8746	6.6171	4.6586e-030	0.	0.53279
8747	6.801	4.788e-030	0.	0.48816
8748	6.9848	4.9174e-030	0.	0.45365
8749	7.1686	5.0468e-030	0.	0.77808
8750	7.3524	5.1763e-030	0.	1.1066
8751	7.5362	5.3057e-030	0.	1.425
8752	7.72	5.4351e-030	0.	1.7327
8753	7.9038	5.5645e-030	0.	2.0293
8754	8.0876	5.6939e-030	0.	2.3146
8755	8.2714	5.8233e-030	0.	2.5884
8756	8.4552	5.9527e-030	0.	2.8509
8757	8.639	6.0821e-030	0.	3.1021
8758	8.8229	6.2115e-030	0.	3.3424
8759	9.0067	6.3409e-030	0.	3.572
8760	9.1905	6.4703e-030	0.	3.7913
8761	9.3743	6.5997e-030	0.	4.0007
8762	9.5581	6.7291e-030	0.	4.2005
8763	9.7419	6.8585e-030	0.	4.3912
8764	9.9257	6.9879e-030	0.	4.573
8765	10.11	7.1173e-030	0.	4.7465
8766	10.293	7.2468e-030	0.	4.912
8767	10.477	7.3762e-030	0.	5.0699
8768	10.661	7.5056e-030	0.	5.2205
8769	10.845	7.635e-030	0.	5.3641
8770	11.029	7.7644e-030	0.	5.501
8771	11.212	7.8938e-030	0.	5.6316
8772	11.396	8.0232e-030	0.	5.7561
8773	11.58	8.1526e-030	0.	5.8745
8774	11.764	8.282e-030	0.	5.9872
8775	11.948	8.4114e-030	0.	6.0941
8776	12.131	8.5408e-030	0.	6.1955
8777	12.315	8.6702e-030	0.	6.2914
8778	12.499	8.7996e-030	0.	6.3816
8779	12.683	8.929e-030	0.	6.4662
8780	12.867	9.0584e-030	0.	6.545
8781	13.05	9.1878e-030	0.	6.6178
8782	13.234	9.3173e-030	0.	6.6842
8783	13.418	9.4467e-030	0.	6.7439
8784	13.602	9.5761e-030	0.	6.7965
8785	13.786	9.7055e-030	0.	6.8414
8786	13.97	9.8349e-030	0.	6.8777
8787	14.153	9.9643e-030	0.	6.9048
8788	14.337	1.0094e-029	0.	6.9214
8789	14.521	1.0223e-029	0.	6.9265
8790	14.705	1.0353e-029	0.	6.9186
8791	14.889	1.0482e-029	0.	6.8961
8792	15.072	1.0611e-029	0.	6.8571
8793	15.256	1.0741e-029	0.	6.7996
8794	15.44	1.087e-029	0.	6.7212
8795	15.624	1.1e-029	0.	6.6194
8796	15.808	1.1129e-029	0.	6.4915
8797	15.991	1.1258e-029	0.	6.3348
8798	16.175	1.1388e-029	0.	6.1469
8799	16.359	1.1517e-029	0.	5.9256
8800	16.543	1.1647e-029	0.	5.6699
8801	16.727	1.1776e-029	0.	5.38
8802	16.91	1.1905e-029	0.	5.0586
8803	17.094	1.2035e-029	0.	4.7112
8804	17.278	1.2164e-029	0.	4.3478
8805	17.462	1.2294e-029	0.	3.9833
8806	17.646	1.2423e-029	0.	3.6382
8807	17.83	1.2552e-029	0.	3.3384
8808	18.013	1.2682e-029	0.	3.1128
8809	18.197	1.2811e-029	0.	2.9903
8810	18.381	1.2941e-029	0.	2.9845
8811	18.565	1.307e-029	0.	3.0946
8812	18.749	1.3199e-029	0.	3.2015
8813	18.932	1.3329e-029	0.	3.2509
8814	19.116	1.3458e-029	0.	3.5424
8815	19.3	0.	0.	3.321
8816	0.	0.	0.	1822.4
8817	19.648	0.	0.	4.4626
8818	19.829	0.	0.	6.044
8819	20.011	0.	0.	7.1991
8820	20.192	0.	0.	7.6852
8821	20.373	0.	0.	7.6897
8822	20.555	0.	0.	7.4549
8823	20.736	0.	0.	7.1137
8824	20.917	0.	0.	6.7571
8825	21.099	0.	0.	6.4372
8826	21.28	0.	0.	6.1827
8827	21.461	0.	0.	6.006
8828	21.643	0.	0.	5.9101
8829	21.824	0.	0.	5.8924
8830	22.005	0.	0.	5.9473
8831	22.187	0.	0.	6.0674
8832	22.368	0.	0.	6.2447
8833	22.549	0.	0.	6.4703
8834	22.731	0.	0.	6.735
8835	22.912	0.	0.	7.0285
8836	23.093	0.	0.	7.3374
8837	23.275	0.	0.	7.6497
8838	23.456	0.	0.	7.917
8839	23.637	0.	0.	8.2169
8840	23.819	0.	0.	7.5574
8841	19.467	0.	0.	2.2949
8842	24.	0.	0.	5.0765
8843	5.0862e-014	5.8182	0.	-1061.
8844	4.9273e-014	5.6364	0.	-2241.7
8845	4.7683e-014	5.4545	0.	-2784.8
8846	4.6094e-014	5.2727	0.	-3109.1
8847	4.4504e-014	5.0909	0.	-3324.2
8848	4.2915e-014	4.9091	0.	-3477.3
8849	4.1325e-014	4.7273	0.	-3590.6
8850	3.9736e-014	4.5455	0.	-3676.4
8851	3.8147e-014	4.3636	0.	-3742.4
8852	3.6557e-014	4.1818	0.	-3793.7
8853	3.4968e-014	4.	0.	-3833.4
8854	3.3378e-014	3.8182	0.	-3863.8
8855	3.1789e-014	3.6364	0.	-3886.7
8856	3.0199e-014	3.4545	0.	-3903.
8857	2.861e-014	3.2727	0.	-3913.6
8858	2.702e-014	3.0909	0.	-3918.8
8859	2.5431e-014	2.9091	0.	-3918.8
8860	2.3842e-014	2.7273	0.	-3913.6
8861	2.2252e-014	2.5455	0.	-3903.
8862	2.0663e-014	2.3636	0.	-3886.7
8863	1.9073e-014	2.1818	0.	-3863.8
8864	1.7484e-014	2.	0.	-3833.4
8865	1.5894e-014	1.8182	0.	-3793.7
8866	1.4305e-014	1.6364	0.	-3742.4
8867	1.2716e-014	1.4545	0.	-3676.4
8868	1.1126e-014	1.2727	0.	-3590.6
8869	9.5366e-015	1.0909	0.	-3477.3
8870	7.9472e-015	0.90909	0.	-3324.2
8871	6.3578e-015	0.72727	0.	-3109.1
8872	4.7683e-015	0.54545	0.	-2784.8
8873	3.1789e-015	0.36364	0.	-2241.7
8874	1.5894e-015	0.18182	0.	-1061.
8875	24.	0.18182	0.	27.856
8876	24.	0.36364	0.	46.174
8877	24.	0.54545	0.	58.44
8878	24.	0.72727	0.	67.084
8879	24.	0.90909	0.	73.103
8880	24.	1.0909	0.	77.093
8881	24.	1.2727	0.	79.489
8882	24.	1.4545	0.	80.647
8883	24.	1.6364	0.	80.873
8884	24.	1.8182	0.	80.44
8885	24.	2.	0.	79.589
8886	24.	2.1818	0.	78.535
8887	24.	2.3636	0.	77.462
8888	24.	2.5455	0.	76.52
8889	24.	2.7273	0.	75.826
8890	24.	2.9091	0.	75.46
8891	24.	3.0909	0.	75.46
8892	24.	3.2727	0.	75.826
8893	24.	3.4545	0.	76.52
8894	24.	3.6364	0.	77.462
8895	24.	3.8182	0.	78.535
8896	24.	4.	0.	79.589
8897	24.	4.1818	0.	80.44
8898	24.	4.3636	0.	80.873
8899	24.	4.5455	0.	80.647
8900	24.	4.7273	0.	79.489
8901	24.	4.9091	0.	77.093
8902	24.	5.0909	0.	73.103
8903	24.	5.2727	0.	67.084
8904	24.	5.4545	0.	58.44
8905	24.	5.6364	0.	46.174
8906	24.	5.8182	0.	27.856
8907	24.	6.	0.	5.0765
8908	23.819	6.	0.	7.5574
8909	23.637	6.	0.	8.2169
8910	23.456	6.	0.	7.917
8911	23.275	6.	0.	7.6496
8912	23.093	6.	0.	7.3374
8913	22.912	6.	0.	7.0285
8914	22.731	6.	0.	6.735
8915	22.549	6.	0.	6.4703
8916	22.368	6.	0.	6.2447
8917	22.187	6.	0.	6.0674
8918	22.005	6.	0.	5.9473
8919	21.824	6.	0.	5.8924
8920	21.643	6.	0.	5.9101
8921	21.461	6.	0.	6.006
8922	21.28	6.	0.	6.1827
8923	21.099	6.	0.	6.4372
8924	20.917	6.	0.	6.757
8925	20.736	6.	0.	7.1137
8926	20.555	6.	0.	7.4549
8927	20.373	6.	0.	7.6897
8928	20.192	6.	0.	7.6852
8929	20.011	6.	0.	7.1991
8930	19.829	6.	0.	6.044
8931	19.648	6.	0.	4.4626
8932	19.467	6.	0.	2.2949
8933	19.3	1.8182	0.	1714.6
8934	19.3	1.6364	0.	915.75
8935	19.3	1.4545	0.	698.14
8936	19.3	1.2727	0.	521.32
8937	19.3	1.0909	0.	392.22
8938	19.3	0.90909	0.	289.86
8939	19.3	0.72727	0.	205.58
8940	19.3	0.54545	0.	135.08
8941	19.3	0.36364	0.	76.375
8942	19.3	0.18182	0.	28.92
8943	19.3	2.	0.	1598.3
8944	19.467	0.18182	0.	12.912
8945	19.467	0.36364	0.	30.847
8946	19.467	0.54545	0.	51.707
8947	19.467	0.72727	0.	75.95
8948	19.467	0.90909	0.	104.78
8949	19.467	1.0909	0.	140.41
8950	19.467	1.2727	0.	186.46
8951	19.467	1.4545	0.	256.71
8952	19.467	1.6364	0.	312.98
8953	19.467	1.8182	0.	798.51
8954	19.467	2.	0.	480.2
8955	19.3	4.1818	0.	1714.6
8956	19.3	4.3636	0.	915.75
8957	19.3	4.5455	0.	698.14
8958	19.3	4.7273	0.	521.32
8959	19.3	4.9091	0.	392.22
8960	19.3	5.0909	0.	289.86
8961	19.3	5.2727	0.	205.58
8962	19.3	5.4545	0.	135.08
8963	19.3	5.6364	0.	76.375
8964	19.3	5.8182	0.	28.92
8965	19.3	4.	0.	1598.3
8966	19.467	5.8182	0.	12.912
8967	19.467	5.6364	0.	30.847
8968	19.467	5.4545	0.	51.707
8969	19.467	5.2727	0.	75.95
8970	19.467	5.0909	0.	104.78
8971	19.467	4.9091	0.	140.41
8972	19.467	4.7273	0.	186.46
8973	19.467	4.5455	0.	256.71
8974	19.467	4.3636	0.	312.98
8975	19.467	4.1818	0.	798.51
8976	19.467	4.	0.	480.2
8977	19.3	2.2727	0.	508.6
8978	19.383	2.1818	0.	437.32
8979	19.208	2.1818	0.	551.9
8980	19.3	2.1818	5.e-002	149.54
8981	19.3	2.0909	0.	1032.7
8982	19.3	2.4545	0.	385.97
8983	19.383	2.3636	0.	373.47
8984	19.208	2.3636	0.	408.85
8985	19.3	2.3636	5.e-002	21.56
8986	19.3	2.6364	0.	334.05
8987	19.383	2.5455	0.	324.9
8988	19.208	2.5455	0.	344.65
8989	19.3	2.5455	5.e-002	10.
8990	19.3	2.8182	0.	308.86
8991	19.383	2.7273	0.	297.34
8992	19.208	2.7273	0.	314.31
8993	19.3	2.7273	5.e-002	4.7682
8994	19.3	3.	0.	301.21
8995	19.383	2.9091	0.	284.62
8996	19.208	2.9091	0.	300.66
8997	19.3	2.9091	5.e-002	2.2403
8998	19.3	3.1818	0.	308.86
8999	19.383	3.0909	0.	284.62
9000	19.208	3.0909	0.	300.66
9001	19.3	3.0909	5.e-002	2.2403
9002	19.3	3.3636	0.	334.05
9003	19.383	3.2727	0.	297.34
9004	19.208	3.2727	0.	314.31
9005	19.3	3.2727	5.e-002	4.7682
9006	19.3	3.5455	0.	385.97
9007	19.383	3.4545	0.	324.9
9008	19.208	3.4545	0.	344.65
9009	19.3	3.4545	5.e-002	10.
9010	19.3	3.7273	0.	508.6
9011	19.383	3.6364	0.	373.47
9012	19.208	3.6364	0.	408.85
9013	19.3	3.6364	5.e-002	21.56
9014	19.383	3.8182	0.	437.32
9015	19.208	3.8182	0.	551.9
9016	19.3	3.8182	5.e-002	149.54
9017	19.3	3.9091	0.	1032.7
9018	19.467	2.2727	0.	345.37
9019	19.557	2.1818	0.	240.41
9020	19.467	2.1818	5.e-002	116.44
9021	19.467	2.0909	0.	350.37
9022	19.467	2.4545	0.	323.67
9023	19.557	2.3636	0.	267.97
9024	19.467	2.3636	5.e-002	25.639
9025	19.467	2.6364	0.	290.94
9026	19.557	2.5455	0.	249.68
9027	19.467	2.5455	5.e-002	12.065
9028	19.467	2.8182	0.	273.43
9029	19.557	2.7273	0.	239.
9030	19.467	2.7273	5.e-002	6.9541
9031	19.467	3.	0.	267.78
9032	19.557	2.9091	0.	232.92
9033	19.467	2.9091	5.e-002	4.9248
9034	19.467	3.1818	0.	273.43
9035	19.557	3.0909	0.	232.92
9036	19.467	3.0909	5.e-002	4.9248
9037	19.467	3.3636	0.	290.94
9038	19.557	3.2727	0.	239.
9039	19.467	3.2727	5.e-002	6.954
9040	19.467	3.5455	0.	323.67
9041	19.557	3.4545	0.	249.68
9042	19.467	3.4545	5.e-002	12.064
9043	19.467	3.7273	0.	345.37
9044	19.557	3.6364	0.	267.97
9045	19.467	3.6364	5.e-002	25.639
9046	19.557	3.8182	0.	240.41
9047	19.467	3.8182	5.e-002	116.44
9048	19.467	3.9091	0.	350.37
9049	19.116	5.7273	0.	65.027
9050	19.024	5.8182	0.	29.681
9051	19.116	5.8182	5.e-002	17.701
9052	19.116	5.9091	0.	14.984
9053	19.208	5.8182	0.	21.471
9054	19.116	5.5455	0.	134.47
9055	19.024	5.6364	0.	73.363
9056	19.116	5.6364	5.e-002	16.074
9057	19.208	5.6364	0.	73.587
9058	19.116	5.3636	0.	223.6
9059	19.024	5.4545	0.	144.11
9060	19.116	5.4545	5.e-002	16.863
9061	19.208	5.4545	0.	142.35
9062	19.116	5.1818	0.	328.07
9063	19.024	5.2727	0.	231.04
9064	19.116	5.2727	5.e-002	18.522
9065	19.208	5.2727	0.	223.74
9066	19.116	5.	0.	449.69
9067	19.024	5.0909	0.	332.03
9068	19.116	5.0909	5.e-002	21.058
9069	19.208	5.0909	0.	319.07
9070	19.116	4.8182	0.	593.77
9071	19.024	4.9091	0.	448.09
9072	19.116	4.9091	5.e-002	24.694
9073	19.208	4.9091	0.	432.2
9074	19.116	4.6364	0.	768.28
9075	19.024	4.7273	0.	582.49
9076	19.116	4.7273	5.e-002	30.424
9077	19.208	4.7273	0.	570.52
9078	19.116	4.4545	0.	994.94
9079	19.024	4.5455	0.	735.61
9080	19.116	4.5455	5.e-002	37.654
9081	19.208	4.5455	0.	750.1
9082	19.116	4.2727	0.	1231.3
9083	19.024	4.3636	0.	913.57
9084	19.116	4.3636	5.e-002	57.127
9085	19.208	4.3636	0.	974.47
9086	19.116	4.0909	0.	1181.6
9087	19.024	4.1818	0.	1042.3
9088	19.116	4.1818	5.e-002	112.39
9089	19.208	4.1818	0.	1456.
9090	19.116	3.9091	0.	781.04
9091	19.024	4.	0.	827.21
9092	19.116	4.	5.e-002	202.3
9093	19.208	4.	0.	1231.
9094	19.116	3.7273	0.	480.61
9095	19.024	3.8182	0.	497.01
9096	19.116	3.8182	5.e-002	78.534
9097	19.116	3.5455	0.	374.55
9098	19.024	3.6364	0.	373.51
9099	19.116	3.6364	5.e-002	34.561
9100	19.116	3.3636	0.	327.11
9101	19.024	3.4545	0.	319.93
9102	19.116	3.4545	5.e-002	18.447
9103	19.116	3.1818	0.	306.54
9104	19.024	3.2727	0.	296.15
9105	19.116	3.2727	5.e-002	10.525
9106	19.116	3.	0.	300.08
9107	19.024	3.0909	0.	285.82
9108	19.116	3.0909	5.e-002	7.7419
9109	19.116	2.8182	0.	306.54
9110	19.024	2.9091	0.	285.82
9111	19.116	2.9091	5.e-002	7.742
9112	19.116	2.6364	0.	327.11
9113	19.024	2.7273	0.	296.15
9114	19.116	2.7273	5.e-002	10.525
9115	19.116	2.4545	0.	374.55
9116	19.024	2.5455	0.	319.93
9117	19.116	2.5455	5.e-002	18.447
9118	19.116	2.2727	0.	480.61
9119	19.024	2.3636	0.	373.51
9120	19.116	2.3636	5.e-002	34.561
9121	19.116	2.0909	0.	781.04
9122	19.024	2.1818	0.	497.01
9123	19.116	2.1818	5.e-002	78.535
9124	19.116	1.9091	0.	1181.6
9125	19.024	2.	0.	827.21
9126	19.116	2.	5.e-002	202.3
9127	19.208	2.	0.	1231.
9128	19.116	1.7273	0.	1231.3
9129	19.024	1.8182	0.	1042.3
9130	19.116	1.8182	5.e-002	112.39
9131	19.208	1.8182	0.	1456.
9132	19.116	1.5455	0.	994.94
9133	19.024	1.6364	0.	913.57
9134	19.116	1.6364	5.e-002	57.127
9135	19.208	1.6364	0.	974.47
9136	19.116	1.3636	0.	768.28
9137	19.024	1.4545	0.	735.61
9138	19.116	1.4545	5.e-002	37.654
9139	19.208	1.4545	0.	750.1
9140	19.116	1.1818	0.	593.77
9141	19.024	1.2727	0.	582.49
9142	19.116	1.2727	5.e-002	30.424
9143	19.208	1.2727	0.	570.52
9144	19.116	1.	0.	449.69
9145	19.024	1.0909	0.	448.09
9146	19.116	1.0909	5.e-002	24.694
9147	19.208	1.0909	0.	432.2
9148	19.116	0.81818	0.	328.07
9149	19.024	0.90909	0.	332.03
9150	19.116	0.90909	5.e-002	21.058
9151	19.208	0.90909	0.	319.07
9152	19.116	0.63636	0.	223.6
9153	19.024	0.72727	0.	231.04
9154	19.116	0.72727	5.e-002	18.522
9155	19.208	0.72727	0.	223.74
9156	19.116	0.45455	0.	134.47
9157	19.024	0.54545	0.	144.11
9158	19.116	0.54545	5.e-002	16.863
9159	19.208	0.54545	0.	142.35
9160	19.116	0.27273	0.	65.027
9161	19.024	0.36364	0.	73.363
9162	19.116	0.36364	5.e-002	16.074
9163	19.208	0.36364	0.	73.587
9164	19.024	0.18182	0.	29.681
9165	19.116	0.18182	5.e-002	17.701
9166	19.116	9.0909e-002	0.	14.984
9167	19.208	0.18182	0.	21.471
9168	18.932	5.7273	0.	45.865
9169	18.84	5.8182	0.	27.798
9170	18.932	5.8182	5.e-002	16.752
9171	18.932	5.9091	0.	12.5
9172	18.932	5.5455	0.	94.551
9173	18.84	5.6364	0.	61.095
9174	18.932	5.6364	5.e-002	15.138
9175	18.932	5.3636	0.	163.64
9176	18.84	5.4545	0.	114.72
9177	18.932	5.4545	5.e-002	15.408
9178	18.932	5.1818	0.	247.37
9179	18.84	5.2727	0.	183.52
9180	18.932	5.2727	5.e-002	16.287
9181	18.932	5.	0.	343.72
9182	18.84	5.0909	0.	264.15
9183	18.932	5.0909	5.e-002	17.738
9184	18.932	4.8182	0.	452.17
9185	18.84	4.9091	0.	354.31
9186	18.932	4.9091	5.e-002	19.846
9187	18.932	4.6364	0.	568.78
9188	18.84	4.7273	0.	451.33
9189	18.932	4.7273	5.e-002	22.563
9190	18.932	4.4545	0.	681.63
9191	18.84	4.5455	0.	546.82
9192	18.932	4.5455	5.e-002	27.422
9193	18.932	4.2727	0.	746.88
9194	18.84	4.3636	0.	623.24
9195	18.932	4.3636	5.e-002	25.423
9196	18.932	4.0909	0.	680.6
9197	18.84	4.1818	0.	629.6
9198	18.932	4.1818	5.e-002	34.662
9199	18.932	3.9091	0.	520.3
9200	18.84	4.	0.	520.09
9201	18.932	4.	5.e-002	28.126
9202	18.932	3.7273	0.	385.3
9203	18.84	3.8182	0.	388.76
9204	18.932	3.8182	5.e-002	38.506
9205	18.932	3.5455	0.	317.6
9206	18.84	3.6364	0.	310.17
9207	18.932	3.6364	5.e-002	25.414
9208	18.932	3.3636	0.	288.51
9209	18.84	3.4545	0.	275.52
9210	18.932	3.4545	5.e-002	18.567
9211	18.932	3.1818	0.	275.01
9212	18.84	3.2727	0.	258.94
9213	18.932	3.2727	5.e-002	12.905
9214	18.932	3.	0.	271.1
9215	18.84	3.0909	0.	252.33
9216	18.932	3.0909	5.e-002	10.521
9217	18.932	2.8182	0.	275.01
9218	18.84	2.9091	0.	252.33
9219	18.932	2.9091	5.e-002	10.521
9220	18.932	2.6364	0.	288.51
9221	18.84	2.7273	0.	258.94
9222	18.932	2.7273	5.e-002	12.905
9223	18.932	2.4545	0.	317.6
9224	18.84	2.5455	0.	275.52
9225	18.932	2.5455	5.e-002	18.567
9226	18.932	2.2727	0.	385.3
9227	18.84	2.3636	0.	310.17
9228	18.932	2.3636	5.e-002	25.414
9229	18.932	2.0909	0.	520.3
9230	18.84	2.1818	0.	388.76
9231	18.932	2.1818	5.e-002	38.506
9232	18.932	1.9091	0.	680.6
9233	18.84	2.	0.	520.09
9234	18.932	2.	5.e-002	28.126
9235	18.932	1.7273	0.	746.88
9236	18.84	1.8182	0.	629.61
9237	18.932	1.8182	5.e-002	34.662
9238	18.932	1.5455	0.	681.63
9239	18.84	1.6364	0.	623.24
9240	18.932	1.6364	5.e-002	25.423
9241	18.932	1.3636	0.	568.78
9242	18.84	1.4545	0.	546.82
9243	18.932	1.4545	5.e-002	27.422
9244	18.932	1.1818	0.	452.17
9245	18.84	1.2727	0.	451.33
9246	18.932	1.2727	5.e-002	22.563
9247	18.932	1.	0.	343.72
9248	18.84	1.0909	0.	354.31
9249	18.932	1.0909	5.e-002	19.846
9250	18.932	0.81818	0.	247.37
9251	18.84	0.90909	0.	264.15
9252	18.932	0.90909	5.e-002	17.738
9253	18.932	0.63636	0.	163.64
9254	18.84	0.72727	0.	183.52
9255	18.932	0.72727	5.e-002	16.287
9256	18.932	0.45455	0.	94.551
9257	18.84	0.54545	0.	114.72
9258	18.932	0.54545	5.e-002	15.408
9259	18.932	0.27273	0.	45.865
9260	18.84	0.36364	0.	61.095
9261	18.932	0.36364	5.e-002	15.138
9262	18.84	0.18182	0.	27.798
9263	18.932	0.18182	5.e-002	16.752
9264	18.932	9.0909e-002	0.	12.5
9265	18.749	5.7273	0.	45.102
9266	18.657	5.8182	0.	28.98
9267	18.749	5.8182	5.e-002	16.096
9268	18.749	5.9091	0.	13.942
9269	18.749	5.5455	0.	85.928
9270	18.657	5.6364	0.	61.513
9271	18.749	5.6364	5.e-002	14.714
9272	18.749	5.3636	0.	141.29
9273	18.657	5.4545	0.	105.97
9274	18.749	5.4545	5.e-002	14.871
9275	18.749	5.1818	0.	208.23
9276	18.657	5.2727	0.	161.16
9277	18.749	5.2727	5.e-002	15.404
9278	18.749	5.	0.	283.63
9279	18.657	5.0909	0.	224.67
9280	18.749	5.0909	5.e-002	16.202
9281	18.749	4.8182	0.	363.29
9282	18.657	4.9091	0.	293.06
9283	18.749	4.9091	5.e-002	17.182
9284	18.749	4.6364	0.	439.9
9285	18.657	4.7273	0.	360.96
9286	18.749	4.7273	5.e-002	17.984
9287	18.749	4.4545	0.	497.49
9288	18.657	4.5455	0.	419.44
9289	18.749	4.5455	5.e-002	17.673
9290	18.749	4.2727	0.	511.07
9291	18.657	4.3636	0.	451.45
9292	18.749	4.3636	5.e-002	17.021
9293	18.749	4.0909	0.	467.19
9294	18.657	4.1818	0.	437.92
9295	18.749	4.1818	5.e-002	13.936
9296	18.749	3.9091	0.	386.06
9297	18.657	4.	0.	380.6
9298	18.749	4.	5.e-002	17.256
9299	18.749	3.7273	0.	311.31
9300	18.657	3.8182	0.	310.23
9301	18.749	3.8182	5.e-002	18.34
9302	18.749	3.5455	0.	266.43
9303	18.657	3.6364	0.	259.72
9304	18.749	3.6364	5.e-002	17.21
9305	18.749	3.3636	0.	244.83
9306	18.657	3.4545	0.	232.91
9307	18.749	3.4545	5.e-002	14.156
9308	18.749	3.1818	0.	235.41
9309	18.657	3.2727	0.	220.25
9310	18.749	3.2727	5.e-002	11.832
9311	18.749	3.	0.	232.8
9312	18.657	3.0909	0.	215.3
9313	18.749	3.0909	5.e-002	10.534
9314	18.749	2.8182	0.	235.41
9315	18.657	2.9091	0.	215.3
9316	18.749	2.9091	5.e-002	10.534
9317	18.749	2.6364	0.	244.83
9318	18.657	2.7273	0.	220.25
9319	18.749	2.7273	5.e-002	11.832
9320	18.749	2.4545	0.	266.43
9321	18.657	2.5455	0.	232.91
9322	18.749	2.5455	5.e-002	14.156
9323	18.749	2.2727	0.	311.31
9324	18.657	2.3636	0.	259.72
9325	18.749	2.3636	5.e-002	17.21
9326	18.749	2.0909	0.	386.06
9327	18.657	2.1818	0.	310.23
9328	18.749	2.1818	5.e-002	18.34
9329	18.749	1.9091	0.	467.19
9330	18.657	2.	0.	380.6
9331	18.749	2.	5.e-002	17.256
9332	18.749	1.7273	0.	511.07
9333	18.657	1.8182	0.	437.92
9334	18.749	1.8182	5.e-002	13.936
9335	18.749	1.5455	0.	497.49
9336	18.657	1.6364	0.	451.45
9337	18.749	1.6364	5.e-002	17.021
9338	18.749	1.3636	0.	439.9
9339	18.657	1.4545	0.	419.44
9340	18.749	1.4545	5.e-002	17.673
9341	18.749	1.1818	0.	363.29
9342	18.657	1.2727	0.	360.96
9343	18.749	1.2727	5.e-002	17.984
9344	18.749	1.	0.	283.63
9345	18.657	1.0909	0.	293.06
9346	18.749	1.0909	5.e-002	17.182
9347	18.749	0.81818	0.	208.23
9348	18.657	0.90909	0.	224.67
9349	18.749	0.90909	5.e-002	16.202
9350	18.749	0.63636	0.	141.29
9351	18.657	0.72727	0.	161.16
9352	18.749	0.72727	5.e-002	15.404
9353	18.749	0.45455	0.	85.928
9354	18.657	0.54545	0.	105.97
9355	18.749	0.54545	5.e-002	14.871
9356	18.749	0.27273	0.	45.102
9357	18.657	0.36364	0.	61.513
9358	18.749	0.36364	5.e-002	14.714
9359	18.657	0.18182	0.	28.98
9360	18.749	0.18182	5.e-002	16.096
9361	18.749	9.0909e-002	0.	13.942
9362	18.565	5.7273	0.	46.235
9363	18.473	5.8182	0.	29.656
9364	18.565	5.8182	5.e-002	15.031
9365	18.565	5.9091	0.	15.045
9366	18.565	5.5455	0.	83.643
9367	18.473	5.6364	0.	62.692
9368	18.565	5.6364	5.e-002	13.85
9369	18.565	5.3636	0.	129.48
9370	18.473	5.4545	0.	101.61
9371	18.565	5.4545	5.e-002	13.867
9372	18.565	5.1818	0.	182.5
9373	18.473	5.2727	0.	146.58
9374	18.565	5.2727	5.e-002	14.052
9375	18.565	5.	0.	239.89
9376	18.473	5.0909	0.	196.06
9377	18.565	5.0909	5.e-002	14.267
9378	18.565	4.8182	0.	296.99
9379	18.473	4.9091	0.	246.77
9380	18.565	4.9091	5.e-002	14.342
9381	18.565	4.6364	0.	346.53
9382	18.473	4.7273	0.	293.61
9383	18.565	4.7273	5.e-002	13.992
9384	18.565	4.4545	0.	378.09
9385	18.473	4.5455	0.	329.14
9386	18.565	4.5455	5.e-002	12.932
9387	18.565	4.2727	0.	380.55
9388	18.473	4.3636	0.	344.14
9389	18.565	4.3636	5.e-002	11.026
9390	18.565	4.0909	0.	351.75
9391	18.473	4.1818	0.	331.92
9392	18.565	4.1818	5.e-002	9.9427
9393	18.565	3.9091	0.	304.42
9394	18.473	4.	0.	297.17
9395	18.565	4.	5.e-002	10.537
9396	18.565	3.7273	0.	258.03
9397	18.473	3.8182	0.	254.95
9398	18.565	3.8182	5.e-002	11.002
9399	18.565	3.5455	0.	225.43
9400	18.473	3.6364	0.	220.23
9401	18.565	3.6364	5.e-002	10.872
9402	18.565	3.3636	0.	207.54
9403	18.473	3.4545	0.	198.6
9404	18.565	3.4545	5.e-002	10.157
9405	18.565	3.1818	0.	199.39
9406	18.473	3.2727	0.	187.43
9407	18.565	3.2727	5.e-002	9.3885
9408	18.565	3.	0.	197.09
9409	18.473	3.0909	0.	182.87
9410	18.565	3.0909	5.e-002	8.9031
9411	18.565	2.8182	0.	199.39
9412	18.473	2.9091	0.	182.87
9413	18.565	2.9091	5.e-002	8.9031
9414	18.565	2.6364	0.	207.54
9415	18.473	2.7273	0.	187.43
9416	18.565	2.7273	5.e-002	9.3886
9417	18.565	2.4545	0.	225.43
9418	18.473	2.5455	0.	198.6
9419	18.565	2.5455	5.e-002	10.157
9420	18.565	2.2727	0.	258.03
9421	18.473	2.3636	0.	220.23
9422	18.565	2.3636	5.e-002	10.872
9423	18.565	2.0909	0.	304.42
9424	18.473	2.1818	0.	254.95
9425	18.565	2.1818	5.e-002	11.002
9426	18.565	1.9091	0.	351.75
9427	18.473	2.	0.	297.17
9428	18.565	2.	5.e-002	10.537
9429	18.565	1.7273	0.	380.55
9430	18.473	1.8182	0.	331.92
9431	18.565	1.8182	5.e-002	9.9427
9432	18.565	1.5455	0.	378.09
9433	18.473	1.6364	0.	344.14
9434	18.565	1.6364	5.e-002	11.026
9435	18.565	1.3636	0.	346.53
9436	18.473	1.4545	0.	329.14
9437	18.565	1.4545	5.e-002	12.932
9438	18.565	1.1818	0.	296.99
9439	18.473	1.2727	0.	293.61
9440	18.565	1.2727	5.e-002	13.992
9441	18.565	1.	0.	239.89
9442	18.473	1.0909	0.	246.77
9443	18.565	1.0909	5.e-002	14.342
9444	18.565	0.81818	0.	182.5
9445	18.473	0.90909	0.	196.06
9446	18.565	0.90909	5.e-002	14.267
9447	18.565	0.63636	0.	129.48
9448	18.473	0.72727	0.	146.58
9449	18.565	0.72727	5.e-002	14.052
9450	18.565	0.45455	0.	83.643
9451	18.473	0.54545	0.	101.61
9452	18.565	0.54545	5.e-002	13.867
9453	18.565	0.27273	0.	46.235
9454	18.473	0.36364	0.	62.692
9455	18.565	0.36364	5.e-002	13.85
9456	18.473	0.18182	0.	29.656
9457	18.565	0.18182	5.e-002	15.031
9458	18.565	9.0909e-002	0.	15.045
9459	18.381	5.7273	0.	46.531
9460	18.289	5.8182	0.	29.579
9461	18.381	5.8182	5.e-002	13.699
9462	18.381	5.9091	0.	15.479
9463	18.381	5.5455	0.	81.745
9464	18.289	5.6364	0.	62.559
9465	18.381	5.6364	5.e-002	12.801
9466	18.381	5.3636	0.	120.76
9467	18.289	5.4545	0.	97.47
9468	18.381	5.4545	5.e-002	12.688
9469	18.381	5.1818	0.	163.08
9470	18.289	5.2727	0.	134.81
9471	18.381	5.2727	5.e-002	12.607
9472	18.381	5.	0.	206.51
9473	18.289	5.0909	0.	173.55
9474	18.381	5.0909	5.e-002	12.432
9475	18.381	4.8182	0.	247.21
9476	18.289	4.9091	0.	211.08
9477	18.381	4.9091	5.e-002	12.026
9478	18.381	4.6364	0.	279.75
9479	18.289	4.7273	0.	243.48
9480	18.381	4.7273	5.e-002	11.242
9481	18.381	4.4545	0.	297.88
9482	18.289	4.5455	0.	265.77
9483	18.381	4.5455	5.e-002	9.9921
9484	18.381	4.2727	0.	297.07
9485	18.289	4.3636	0.	273.17
9486	18.381	4.3636	5.e-002	8.5401
9487	18.381	4.0909	0.	278.
9488	18.289	4.1818	0.	263.88
9489	18.381	4.1818	5.e-002	7.5596
9490	18.381	3.9091	0.	247.87
9491	18.289	4.	0.	241.34
9492	18.381	4.	5.e-002	7.3282
9493	18.381	3.7273	0.	217.07
9494	18.289	3.8182	0.	213.69
9495	18.381	3.8182	5.e-002	7.316
9496	18.381	3.5455	0.	193.12
9497	18.289	3.6364	0.	189.11
9498	18.381	3.6364	5.e-002	7.1773
9499	18.381	3.3636	0.	178.08
9500	18.289	3.4545	0.	171.74
9501	18.381	3.4545	5.e-002	7.0021
9502	18.381	3.1818	0.	170.43
9503	18.289	3.2727	0.	161.64
9504	18.381	3.2727	5.e-002	6.8222
9505	18.381	3.	0.	168.15
9506	18.289	3.0909	0.	157.19
9507	18.381	3.0909	5.e-002	6.7092
9508	18.381	2.8182	0.	170.43
9509	18.289	2.9091	0.	157.19
9510	18.381	2.9091	5.e-002	6.7093
9511	18.381	2.6364	0.	178.08
9512	18.289	2.7273	0.	161.64
9513	18.381	2.7273	5.e-002	6.8223
9514	18.381	2.4545	0.	193.12
9515	18.289	2.5455	0.	171.75
9516	18.381	2.5455	5.e-002	7.0021
9517	18.381	2.2727	0.	217.07
9518	18.289	2.3636	0.	189.11
9519	18.381	2.3636	5.e-002	7.1773
9520	18.381	2.0909	0.	247.87
9521	18.289	2.1818	0.	213.69
9522	18.381	2.1818	5.e-002	7.316
9523	18.381	1.9091	0.	278.
9524	18.289	2.	0.	241.34
9525	18.381	2.	5.e-002	7.3282
9526	18.381	1.7273	0.	297.07
9527	18.289	1.8182	0.	263.88
9528	18.381	1.8182	5.e-002	7.5596
9529	18.381	1.5455	0.	297.88
9530	18.289	1.6364	0.	273.17
9531	18.381	1.6364	5.e-002	8.5401
9532	18.381	1.3636	0.	279.75
9533	18.289	1.4545	0.	265.77
9534	18.381	1.4545	5.e-002	9.9921
9535	18.381	1.1818	0.	247.21
9536	18.289	1.2727	0.	243.48
9537	18.381	1.2727	5.e-002	11.242
9538	18.381	1.	0.	206.51
9539	18.289	1.0909	0.	211.08
9540	18.381	1.0909	5.e-002	12.026
9541	18.381	0.81818	0.	163.08
9542	18.289	0.90909	0.	173.55
9543	18.381	0.90909	5.e-002	12.432
9544	18.381	0.63636	0.	120.76
9545	18.289	0.72727	0.	134.81
9546	18.381	0.72727	5.e-002	12.607
9547	18.381	0.45455	0.	81.745
9548	18.289	0.54545	0.	97.47
9549	18.381	0.54545	5.e-002	12.688
9550	18.381	0.27273	0.	46.531
9551	18.289	0.36364	0.	62.559
9552	18.381	0.36364	5.e-002	12.801
9553	18.289	0.18182	0.	29.579
9554	18.381	0.18182	5.e-002	13.699
9555	18.381	9.0909e-002	0.	15.479
9556	18.197	5.7273	0.	45.808
9557	18.105	5.8182	0.	28.987
9558	18.197	5.8182	5.e-002	12.238
9559	18.197	5.9091	0.	15.508
9560	18.197	5.5455	0.	78.91
9561	18.105	5.6364	0.	61.016
9562	18.197	5.6364	5.e-002	11.691
9563	18.197	5.3636	0.	112.72
9564	18.105	5.4545	0.	92.56
9565	18.197	5.4545	5.e-002	11.49
9566	18.197	5.1818	0.	147.02
9567	18.105	5.2727	0.	124.07
9568	18.197	5.2727	5.e-002	11.242
9569	18.197	5.	0.	180.25
9570	18.105	5.0909	0.	154.84
9571	18.197	5.0909	5.e-002	10.858
9572	18.197	4.8182	0.	209.62
9573	18.105	4.9091	0.	183.
9574	18.197	4.9091	5.e-002	10.259
9575	18.197	4.6364	0.	231.58
9576	18.105	4.7273	0.	205.86
9577	18.197	4.7273	5.e-002	9.385
9578	18.197	4.4545	0.	242.67
9579	18.105	4.5455	0.	220.41
9580	18.197	4.5455	5.e-002	8.2642
9581	18.197	4.2727	0.	241.01
9582	18.105	4.3636	0.	224.33
9583	18.197	4.3636	5.e-002	7.0823
9584	18.197	4.0909	0.	227.79
9585	18.105	4.1818	0.	217.27
9586	18.197	4.1818	5.e-002	6.1357
9587	18.197	3.9091	0.	207.43
9588	18.105	4.	0.	201.8
9589	18.197	4.	5.e-002	5.5324
9590	18.197	3.7273	0.	185.81
9591	18.105	3.8182	0.	182.62
9592	18.197	3.8182	5.e-002	5.1312
9593	18.197	3.5455	0.	167.66
9594	18.105	3.6364	0.	164.53
9595	18.197	3.6364	5.e-002	4.8316
9596	18.197	3.3636	0.	155.11
9597	18.105	3.4545	0.	150.61
9598	18.197	3.4545	5.e-002	4.6544
9599	18.197	3.1818	0.	148.12
9600	18.105	3.2727	0.	141.74
9601	18.197	3.2727	5.e-002	4.5798
9602	18.197	3.	0.	145.92
9603	18.105	3.0909	0.	137.55
9604	18.197	3.0909	5.e-002	4.5579
9605	18.197	2.8182	0.	148.12
9606	18.105	2.9091	0.	137.55
9607	18.197	2.9091	5.e-002	4.5579
9608	18.197	2.6364	0.	155.11
9609	18.105	2.7273	0.	141.74
9610	18.197	2.7273	5.e-002	4.5798
9611	18.197	2.4545	0.	167.66
9612	18.105	2.5455	0.	150.61
9613	18.197	2.5455	5.e-002	4.6544
9614	18.197	2.2727	0.	185.81
9615	18.105	2.3636	0.	164.53
9616	18.197	2.3636	5.e-002	4.8316
9617	18.197	2.0909	0.	207.43
9618	18.105	2.1818	0.	182.62
9619	18.197	2.1818	5.e-002	5.1312
9620	18.197	1.9091	0.	227.79
9621	18.105	2.	0.	201.8
9622	18.197	2.	5.e-002	5.5323
9623	18.197	1.7273	0.	241.01
9624	18.105	1.8182	0.	217.27
9625	18.197	1.8182	5.e-002	6.1357
9626	18.197	1.5455	0.	242.67
9627	18.105	1.6364	0.	224.33
9628	18.197	1.6364	5.e-002	7.0823
9629	18.197	1.3636	0.	231.58
9630	18.105	1.4545	0.	220.41
9631	18.197	1.4545	5.e-002	8.2643
9632	18.197	1.1818	0.	209.62
9633	18.105	1.2727	0.	205.86
9634	18.197	1.2727	5.e-002	9.385
9635	18.197	1.	0.	180.25
9636	18.105	1.0909	0.	183.
9637	18.197	1.0909	5.e-002	10.259
9638	18.197	0.81818	0.	147.02
9639	18.105	0.90909	0.	154.84
9640	18.197	0.90909	5.e-002	10.858
9641	18.197	0.63636	0.	112.72
9642	18.105	0.72727	0.	124.07
9643	18.197	0.72727	5.e-002	11.242
9644	18.197	0.45455	0.	78.91
9645	18.105	0.54545	0.	92.56
9646	18.197	0.54545	5.e-002	11.49
9647	18.197	0.27273	0.	45.808
9648	18.105	0.36364	0.	61.016
9649	18.197	0.36364	5.e-002	11.691
9650	18.105	0.18182	0.	28.987
9651	18.197	0.18182	5.e-002	12.238
9652	18.197	9.0909e-002	0.	15.508
9653	18.013	5.7273	0.	44.262
9654	17.921	5.8182	0.	28.078
9655	18.013	5.8182	5.e-002	10.761
9656	18.013	5.9091	0.	15.285
9657	18.013	5.5455	0.	75.04
9658	17.921	5.6364	0.	58.388
9659	18.013	5.6364	5.e-002	10.609
9660	18.013	5.3636	0.	104.63
9661	17.921	5.4545	0.	86.867
9662	18.013	5.4545	5.e-002	10.371
9663	18.013	5.1818	0.	132.92
9664	17.921	5.2727	0.	113.8
9665	18.013	5.2727	5.e-002	10.04
9666	18.013	5.	0.	158.86
9667	17.921	5.0909	0.	138.71
9668	18.013	5.0909	5.e-002	9.5749
9669	18.013	4.8182	0.	180.58
9670	17.921	4.9091	0.	160.34
9671	18.013	4.9091	5.e-002	8.9386
9672	18.013	4.6364	0.	195.93
9673	17.921	4.7273	0.	176.98
9674	18.013	4.7273	5.e-002	8.1192
9675	18.013	4.4545	0.	203.05
9676	17.921	4.5455	0.	186.9
9677	18.013	4.5455	5.e-002	7.1589
9678	18.013	4.2727	0.	201.27
9679	17.921	4.3636	0.	189.05
9680	18.013	4.3636	5.e-002	6.1685
9681	18.013	4.0909	0.	191.71
9682	17.921	4.1818	0.	183.65
9683	18.013	4.1818	5.e-002	5.272
9684	18.013	3.9091	0.	177.23
9685	17.921	4.	0.	172.52
9686	18.013	4.	5.e-002	4.5202
9687	18.013	3.7273	0.	161.44
9688	17.921	3.8182	0.	158.6
9689	18.013	3.8182	5.e-002	3.8837
9690	18.013	3.5455	0.	147.48
9691	17.921	3.6364	0.	144.95
9692	18.013	3.6364	5.e-002	3.3554
9693	18.013	3.3636	0.	137.15
9694	17.921	3.4545	0.	133.82
9695	18.013	3.4545	5.e-002	2.9778
9696	18.013	3.1818	0.	131.02
9697	17.921	3.2727	0.	126.27
9698	18.013	3.2727	5.e-002	2.772
9699	18.013	3.	0.	129.01
9700	17.921	3.0909	0.	122.52
9701	18.013	3.0909	5.e-002	2.6941
9702	18.013	2.8182	0.	131.02
9703	17.921	2.9091	0.	122.52
9704	18.013	2.9091	5.e-002	2.6941
9705	18.013	2.6364	0.	137.15
9706	17.921	2.7273	0.	126.27
9707	18.013	2.7273	5.e-002	2.772
9708	18.013	2.4545	0.	147.48
9709	17.921	2.5455	0.	133.82
9710	18.013	2.5455	5.e-002	2.9778
9711	18.013	2.2727	0.	161.44
9712	17.921	2.3636	0.	144.95
9713	18.013	2.3636	5.e-002	3.3554
9714	18.013	2.0909	0.	177.23
9715	17.921	2.1818	0.	158.6
9716	18.013	2.1818	5.e-002	3.8837
9717	18.013	1.9091	0.	191.71
9718	17.921	2.	0.	172.52
9719	18.013	2.	5.e-002	4.5202
9720	18.013	1.7273	0.	201.27
9721	17.921	1.8182	0.	183.65
9722	18.013	1.8182	5.e-002	5.272
9723	18.013	1.5455	0.	203.05
9724	17.921	1.6364	0.	189.05
9725	18.013	1.6364	5.e-002	6.1685
9726	18.013	1.3636	0.	195.93
9727	17.921	1.4545	0.	186.9
9728	18.013	1.4545	5.e-002	7.1589
9729	18.013	1.1818	0.	180.58
9730	17.921	1.2727	0.	176.98
9731	18.013	1.2727	5.e-002	8.1192
9732	18.013	1.	0.	158.86
9733	17.921	1.0909	0.	160.34
9734	18.013	1.0909	5.e-002	8.9386
9735	18.013	0.81818	0.	132.92
9736	17.921	0.90909	0.	138.71
9737	18.013	0.90909	5.e-002	9.5749
9738	18.013	0.63636	0.	104.63
9739	17.921	0.72727	0.	113.8
9740	18.013	0.72727	5.e-002	10.04
9741	18.013	0.45455	0.	75.04
9742	17.921	0.54545	0.	86.867
9743	18.013	0.54545	5.e-002	10.371
9744	18.013	0.27273	0.	44.262
9745	17.921	0.36364	0.	58.388
9746	18.013	0.36364	5.e-002	10.609
9747	17.921	0.18182	0.	28.078
9748	18.013	0.18182	5.e-002	10.761
9749	18.013	9.0909e-002	0.	15.285
9750	17.83	5.7273	0.	42.185
9751	17.738	5.8182	0.	27.013
9752	17.83	5.8182	5.e-002	9.3473
9753	17.83	5.9091	0.	14.933
9754	17.83	5.5455	0.	70.438
9755	17.738	5.6364	0.	55.078
9756	17.83	5.6364	5.e-002	9.6115
9757	17.83	5.3636	0.	96.472
9758	17.738	5.4545	0.	80.694
9759	17.83	5.4545	5.e-002	9.3759
9760	17.83	5.1818	0.	120.21
9761	17.738	5.2727	0.	103.95
9762	17.83	5.2727	5.e-002	9.0213
9763	17.83	5.	0.	140.94
9764	17.738	5.0909	0.	124.52
9765	17.83	5.0909	5.e-002	8.551
9766	17.83	4.8182	0.	157.52
9767	17.738	4.9091	0.	141.6
9768	17.83	4.9091	5.e-002	7.9517
9769	17.83	4.6364	0.	168.68
9770	17.738	4.7273	0.	154.15
9771	17.83	4.7273	5.e-002	7.2294
9772	17.83	4.4545	0.	173.51
9773	17.738	4.5455	0.	161.27
9774	17.83	4.5455	5.e-002	6.4196
9775	17.83	4.2727	0.	171.88
9776	17.738	4.3636	0.	162.54
9777	17.83	4.3636	5.e-002	5.5809
9778	17.83	4.0909	0.	164.75
9779	17.738	4.1818	0.	158.37
9780	17.83	4.1818	5.e-002	4.7678
9781	17.83	3.9091	0.	154.07
9782	17.738	4.	0.	150.09
9783	17.83	4.	5.e-002	4.0001
9784	17.83	3.7273	0.	142.2
9785	17.738	3.8182	0.	139.67
9786	17.83	3.8182	5.e-002	3.2692
9787	17.83	3.5455	0.	131.32
9788	17.738	3.6364	0.	129.19
9789	17.83	3.6364	5.e-002	2.5759
9790	17.83	3.3636	0.	122.91
9791	17.738	3.4545	0.	120.3
9792	17.83	3.4545	5.e-002	1.9546
9793	17.83	3.1818	0.	117.71
9794	17.738	3.2727	0.	114.02
9795	17.83	3.2727	5.e-002	1.4649
9796	17.83	3.	0.	115.96
9797	17.738	3.0909	0.	110.82
9798	17.83	3.0909	5.e-002	1.1825
9799	17.83	2.8182	0.	117.71
9800	17.738	2.9091	0.	110.82
9801	17.83	2.9091	5.e-002	1.1825
9802	17.83	2.6364	0.	122.91
9803	17.738	2.7273	0.	114.02
9804	17.83	2.7273	5.e-002	1.4649
9805	17.83	2.4545	0.	131.32
9806	17.738	2.5455	0.	120.3
9807	17.83	2.5455	5.e-002	1.9546
9808	17.83	2.2727	0.	142.2
9809	17.738	2.3636	0.	129.19
9810	17.83	2.3636	5.e-002	2.5759
9811	17.83	2.0909	0.	154.07
9812	17.738	2.1818	0.	139.67
9813	17.83	2.1818	5.e-002	3.2692
9814	17.83	1.9091	0.	164.75
9815	17.738	2.	0.	150.09
9816	17.83	2.	5.e-002	4.0001
9817	17.83	1.7273	0.	171.88
9818	17.738	1.8182	0.	158.37
9819	17.83	1.8182	5.e-002	4.7678
9820	17.83	1.5455	0.	173.51
9821	17.738	1.6364	0.	162.54
9822	17.83	1.6364	5.e-002	5.581
9823	17.83	1.3636	0.	168.68
9824	17.738	1.4545	0.	161.27
9825	17.83	1.4545	5.e-002	6.4197
9826	17.83	1.1818	0.	157.52
9827	17.738	1.2727	0.	154.15
9828	17.83	1.2727	5.e-002	7.2294
9829	17.83	1.	0.	140.94
9830	17.738	1.0909	0.	141.6
9831	17.83	1.0909	5.e-002	7.9517
9832	17.83	0.81818	0.	120.21
9833	17.738	0.90909	0.	124.52
9834	17.83	0.90909	5.e-002	8.551
9835	17.83	0.63636	0.	96.472
9836	17.738	0.72727	0.	103.95
9837	17.83	0.72727	5.e-002	9.0213
9838	17.83	0.45455	0.	70.438
9839	17.738	0.54545	0.	80.694
9840	17.83	0.54545	5.e-002	9.3759
9841	17.83	0.27273	0.	42.185
9842	17.738	0.36364	0.	55.078
9843	17.83	0.36364	5.e-002	9.6115
9844	17.738	0.18182	0.	27.013
9845	17.83	0.18182	5.e-002	9.3473
9846	17.83	9.0909e-002	0.	14.933
9847	17.646	5.7273	0.	39.834
9848	17.554	5.8182	0.	25.905
9849	17.646	5.8182	5.e-002	8.0473
9850	17.646	5.9091	0.	14.528
9851	17.646	5.5455	0.	65.462
9852	17.554	5.6364	0.	51.436
9853	17.646	5.6364	5.e-002	8.7241
9854	17.646	5.3636	0.	88.43
9855	17.554	5.4545	0.	74.372
9856	17.646	5.4545	5.e-002	8.5187
9857	17.646	5.1818	0.	108.63
9858	17.554	5.2727	0.	94.602
9859	17.646	5.2727	5.e-002	8.1777
9860	17.646	5.	0.	125.62
9861	17.554	5.0909	0.	111.91
9862	17.646	5.0909	5.e-002	7.7406
9863	17.646	4.8182	0.	138.7
9864	17.554	4.9091	0.	125.78
9865	17.646	4.9091	5.e-002	7.2077
9866	17.646	4.6364	0.	147.18
9867	17.554	4.7273	0.	135.63
9868	17.646	4.7273	5.e-002	6.5896
9869	17.646	4.4545	0.	150.67
9870	17.554	4.5455	0.	141.03
9871	17.646	4.5455	5.e-002	5.9111
9872	17.646	4.2727	0.	149.31
9873	17.554	4.3636	0.	141.89
9874	17.646	4.3636	5.e-002	5.2042
9875	17.646	4.0909	0.	143.9
9876	17.554	4.1818	0.	138.68
9877	17.646	4.1818	5.e-002	4.4944
9878	17.646	3.9091	0.	135.82
9879	17.554	4.	0.	132.4
9880	17.646	4.	5.e-002	3.7902
9881	17.646	3.7273	0.	126.73
9882	17.554	3.8182	0.	124.45
9883	17.646	3.8182	5.e-002	3.0872
9884	17.646	3.5455	0.	118.2
9885	17.554	3.6364	0.	116.31
9886	17.646	3.6364	5.e-002	2.3829
9887	17.646	3.3636	0.	111.41
9888	17.554	3.4545	0.	109.23
9889	17.646	3.4545	5.e-002	1.6841
9890	17.646	3.1818	0.	107.11
9891	17.554	3.2727	0.	104.11
9892	17.646	3.2727	5.e-002	1.0013
9893	17.646	3.	0.	105.64
9894	17.554	3.0909	0.	101.44
9895	17.646	3.0909	5.e-002	0.34214
9896	17.646	2.8182	0.	107.11
9897	17.554	2.9091	0.	101.44
9898	17.646	2.9091	5.e-002	0.34214
9899	17.646	2.6364	0.	111.41
9900	17.554	2.7273	0.	104.11
9901	17.646	2.7273	5.e-002	1.0013
9902	17.646	2.4545	0.	118.2
9903	17.554	2.5455	0.	109.23
9904	17.646	2.5455	5.e-002	1.6841
9905	17.646	2.2727	0.	126.73
9906	17.554	2.3636	0.	116.31
9907	17.646	2.3636	5.e-002	2.3829
9908	17.646	2.0909	0.	135.82
9909	17.554	2.1818	0.	124.45
9910	17.646	2.1818	5.e-002	3.0872
9911	17.646	1.9091	0.	143.9
9912	17.554	2.	0.	132.4
9913	17.646	2.	5.e-002	3.7902
9914	17.646	1.7273	0.	149.31
9915	17.554	1.8182	0.	138.68
9916	17.646	1.8182	5.e-002	4.4944
9917	17.646	1.5455	0.	150.67
9918	17.554	1.6364	0.	141.89
9919	17.646	1.6364	5.e-002	5.2042
9920	17.646	1.3636	0.	147.18
9921	17.554	1.4545	0.	141.03
9922	17.646	1.4545	5.e-002	5.9111
9923	17.646	1.1818	0.	138.7
9924	17.554	1.2727	0.	135.63
9925	17.646	1.2727	5.e-002	6.5896
9926	17.646	1.	0.	125.62
9927	17.554	1.0909	0.	125.78
9928	17.646	1.0909	5.e-002	7.2077
9929	17.646	0.81818	0.	108.63
9930	17.554	0.90909	0.	111.91
9931	17.646	0.90909	5.e-002	7.7406
9932	17.646	0.63636	0.	88.43
9933	17.554	0.72727	0.	94.602
9934	17.646	0.72727	5.e-002	8.1777
9935	17.646	0.45455	0.	65.462
9936	17.554	0.54545	0.	74.373
9937	17.646	0.54545	5.e-002	8.5188
9938	17.646	0.27273	0.	39.834
9939	17.554	0.36364	0.	51.436
9940	17.646	0.36364	5.e-002	8.7241
9941	17.554	0.18182	0.	25.905
9942	17.646	0.18182	5.e-002	8.0473
9943	17.646	9.0909e-002	0.	14.528
9944	17.462	5.7273	0.	37.404
9945	17.37	5.8182	0.	24.825
9946	17.462	5.8182	5.e-002	6.8844
9947	17.462	5.9091	0.	14.119
9948	17.462	5.5455	0.	60.413
9949	17.37	5.6364	0.	47.724
9950	17.462	5.6364	5.e-002	7.9555
9951	17.462	5.3636	0.	80.699
9952	17.37	5.4545	0.	68.172
9953	17.462	5.4545	5.e-002	7.7959
9954	17.462	5.1818	0.	98.1
9955	17.37	5.2727	0.	85.869
9956	17.462	5.2727	5.e-002	7.4878
9957	17.462	5.	0.	112.33
9958	17.37	5.0909	0.	100.66
9959	17.462	5.0909	5.e-002	7.1008
9960	17.462	4.8182	0.	122.99
9961	17.37	4.9091	0.	112.22
9962	17.462	4.9091	5.e-002	6.6419
9963	17.462	4.6364	0.	129.74
9964	17.37	4.7273	0.	120.25
9965	17.462	4.7273	5.e-002	6.1216
9966	17.462	4.4545	0.	132.47
9967	17.37	4.5455	0.	124.58
9968	17.462	4.5455	5.e-002	5.557
9969	17.462	4.2727	0.	131.43
9970	17.37	4.3636	0.	125.31
9971	17.462	4.3636	5.e-002	4.9671
9972	17.462	4.0909	0.	127.3
9973	17.37	4.1818	0.	122.88
9974	17.462	4.1818	5.e-002	4.366
9975	17.462	3.9091	0.	121.12
9976	17.37	4.	0.	118.1
9977	17.462	4.	5.e-002	3.7604
9978	17.462	3.7273	0.	114.08
9979	17.37	3.8182	0.	111.98
9980	17.462	3.8182	5.e-002	3.1528
9981	17.462	3.5455	0.	107.37
9982	17.37	3.6364	0.	105.63
9983	17.462	3.6364	5.e-002	2.5496
9984	17.462	3.3636	0.	101.94
9985	17.37	3.4545	0.	100.01
9986	17.462	3.4545	5.e-002	1.9698
9987	17.462	3.1818	0.	98.437
9988	17.37	3.2727	0.	95.883
9989	17.462	3.2727	5.e-002	1.4579
9990	17.462	3.	0.	97.232
9991	17.37	3.0909	0.	93.707
9992	17.462	3.0909	5.e-002	1.1181
9993	17.462	2.8182	0.	98.437
9994	17.37	2.9091	0.	93.707
9995	17.462	2.9091	5.e-002	1.1181
9996	17.462	2.6364	0.	101.94
9997	17.37	2.7273	0.	95.883
9998	17.462	2.7273	5.e-002	1.4579
9999	17.462	2.4545	0.	107.37
10000	17.37	2.5455	0.	100.01
10001	17.462	2.5455	5.e-002	1.9698
10002	17.462	2.2727	0.	114.08
10003	17.37	2.3636	0.	105.63
10004	17.462	2.3636	5.e-002	2.5496
10005	17.462	2.0909	0.	121.12
10006	17.37	2.1818	0.	111.98
10007	17.462	2.1818	5.e-002	3.1528
10008	17.462	1.9091	0.	127.3
10009	17.37	2.	0.	118.1
10010	17.462	2.	5.e-002	3.7604
10011	17.462	1.7273	0.	131.43
10012	17.37	1.8182	0.	122.88
10013	17.462	1.8182	5.e-002	4.366
10014	17.462	1.5455	0.	132.47
10015	17.37	1.6364	0.	125.31
10016	17.462	1.6364	5.e-002	4.9671
10017	17.462	1.3636	0.	129.74
10018	17.37	1.4545	0.	124.58
10019	17.462	1.4545	5.e-002	5.557
10020	17.462	1.1818	0.	122.99
10021	17.37	1.2727	0.	120.25
10022	17.462	1.2727	5.e-002	6.1216
10023	17.462	1.	0.	112.33
10024	17.37	1.0909	0.	112.22
10025	17.462	1.0909	5.e-002	6.6419
10026	17.462	0.81818	0.	98.1
10027	17.37	0.90909	0.	100.66
10028	17.462	0.90909	5.e-002	7.1008
10029	17.462	0.63636	0.	80.699
10030	17.37	0.72727	0.	85.869
10031	17.462	0.72727	5.e-002	7.4879
10032	17.462	0.45455	0.	60.413
10033	17.37	0.54545	0.	68.172
10034	17.462	0.54545	5.e-002	7.7959
10035	17.462	0.27273	0.	37.404
10036	17.37	0.36364	0.	47.724
10037	17.462	0.36364	5.e-002	7.9555
10038	17.37	0.18182	0.	24.826
10039	17.462	0.18182	5.e-002	6.8844
10040	17.462	9.0909e-002	0.	14.119
10041	17.278	5.7273	0.	35.027
10042	17.186	5.8182	0.	23.816
10043	17.278	5.8182	5.e-002	5.8648
10044	17.278	5.9091	0.	13.732
10045	17.278	5.5455	0.	55.509
10046	17.186	5.6364	0.	44.12
10047	17.278	5.6364	5.e-002	7.3023
10048	17.278	5.3636	0.	73.429
10049	17.186	5.4545	0.	62.278
10050	17.278	5.4545	5.e-002	7.195
10051	17.278	5.1818	0.	88.556
10052	17.186	5.2727	0.	77.821
10053	17.278	5.2727	5.e-002	6.9281
10054	17.278	5.	0.	100.7
10055	17.186	5.0909	0.	90.619
10056	17.278	5.0909	5.e-002	6.5957
10057	17.278	4.8182	0.	109.65
10058	17.186	4.9091	0.	100.48
10059	17.278	4.9091	5.e-002	6.2084
10060	17.278	4.6364	0.	115.25
10061	17.186	4.7273	0.	107.25
10062	17.278	4.7273	5.e-002	5.7755
10063	17.278	4.4545	0.	117.56
10064	17.186	4.5455	0.	110.92
10065	17.278	4.5455	5.e-002	5.3092
10066	17.278	4.2727	0.	116.87
10067	17.186	4.3636	0.	111.67
10068	17.278	4.3636	5.e-002	4.822
10069	17.278	4.0909	0.	113.76
10070	17.186	4.1818	0.	109.9
10071	17.278	4.1818	5.e-002	4.3241
10072	17.278	3.9091	0.	109.01
10073	17.186	4.	0.	106.27
10074	17.278	4.	5.e-002	3.8231
10075	17.278	3.7273	0.	103.55
10076	17.186	3.8182	0.	101.56
10077	17.278	3.8182	5.e-002	3.3266
10078	17.278	3.5455	0.	98.284
10079	17.186	3.6364	0.	96.606
10080	17.278	3.6364	5.e-002	2.8483
10081	17.278	3.3636	0.	93.964
10082	17.186	3.4545	0.	92.18
10083	17.278	3.4545	5.e-002	2.4134
10084	17.278	3.1818	0.	91.152
10085	17.186	3.2727	0.	88.887
10086	17.278	3.2727	5.e-002	2.0652
10087	17.278	3.	0.	90.179
10088	17.186	3.0909	0.	87.139
10089	17.278	3.0909	5.e-002	1.8644
10090	17.278	2.8182	0.	91.152
10091	17.186	2.9091	0.	87.139
10092	17.278	2.9091	5.e-002	1.8644
10093	17.278	2.6364	0.	93.964
10094	17.186	2.7273	0.	88.887
10095	17.278	2.7273	5.e-002	2.0652
10096	17.278	2.4545	0.	98.284
10097	17.186	2.5455	0.	92.18
10098	17.278	2.5455	5.e-002	2.4134
10099	17.278	2.2727	0.	103.55
10100	17.186	2.3636	0.	96.606
10101	17.278	2.3636	5.e-002	2.8483
10102	17.278	2.0909	0.	109.01
10103	17.186	2.1818	0.	101.56
10104	17.278	2.1818	5.e-002	3.3267
10105	17.278	1.9091	0.	113.76
10106	17.186	2.	0.	106.27
10107	17.278	2.	5.e-002	3.8231
10108	17.278	1.7273	0.	116.87
10109	17.186	1.8182	0.	109.9
10110	17.278	1.8182	5.e-002	4.3241
10111	17.278	1.5455	0.	117.56
10112	17.186	1.6364	0.	111.67
10113	17.278	1.6364	5.e-002	4.822
10114	17.278	1.3636	0.	115.25
10115	17.186	1.4545	0.	110.92
10116	17.278	1.4545	5.e-002	5.3092
10117	17.278	1.1818	0.	109.65
10118	17.186	1.2727	0.	107.25
10119	17.278	1.2727	5.e-002	5.7756
10120	17.278	1.	0.	100.7
10121	17.186	1.0909	0.	100.48
10122	17.278	1.0909	5.e-002	6.2085
10123	17.278	0.81818	0.	88.557
10124	17.186	0.90909	0.	90.619
10125	17.278	0.90909	5.e-002	6.5957
10126	17.278	0.63636	0.	73.429
10127	17.186	0.72727	0.	77.821
10128	17.278	0.72727	5.e-002	6.9282
10129	17.278	0.45455	0.	55.51
10130	17.186	0.54545	0.	62.278
10131	17.278	0.54545	5.e-002	7.195
10132	17.278	0.27273	0.	35.027
10133	17.186	0.36364	0.	44.12
10134	17.278	0.36364	5.e-002	7.3024
10135	17.186	0.18182	0.	23.816
10136	17.278	0.18182	5.e-002	5.8648
10137	17.278	9.0909e-002	0.	13.732
10138	17.094	5.7273	0.	32.784
10139	17.002	5.8182	0.	22.896
10140	17.094	5.8182	5.e-002	4.9837
10141	17.094	5.9091	0.	13.377
10142	17.094	5.5455	0.	50.89
10143	17.002	5.6364	0.	40.733
10144	17.094	5.6364	5.e-002	6.7552
10145	17.094	5.3636	0.	66.715
10146	17.002	5.4545	0.	56.805
10147	17.094	5.4545	5.e-002	6.7006
10148	17.094	5.1818	0.	79.957
10149	17.002	5.2727	0.	70.493
10150	17.094	5.2727	5.e-002	6.4764
10151	17.094	5.	0.	90.482
10152	17.002	5.0909	0.	81.677
10153	17.094	5.0909	5.e-002	6.1969
10154	17.094	4.8182	0.	98.174
10155	17.002	4.9091	0.	90.233
10156	17.094	4.9091	5.e-002	5.8747
10157	17.094	4.6364	0.	103.01
10158	17.002	4.7273	0.	96.109
10159	17.094	4.7273	5.e-002	5.5177
10160	17.094	4.4545	0.	105.1
10161	17.002	4.5455	0.	99.366
10162	17.094	4.5455	5.e-002	5.1353
10163	17.094	4.2727	0.	104.76
10164	17.002	4.3636	0.	100.21
10165	17.094	4.3636	5.e-002	4.7367
10166	17.094	4.0909	0.	102.46
10167	17.002	4.1818	0.	99.014
10168	17.094	4.1818	5.e-002	4.3306
10169	17.094	3.9091	0.	98.849
10170	17.002	4.	0.	96.302
10171	17.094	4.	5.e-002	3.9252
10172	17.094	3.7273	0.	94.632
10173	17.002	3.8182	0.	92.701
10174	17.094	3.8182	5.e-002	3.5303
10175	17.094	3.5455	0.	90.514
10176	17.002	3.6364	0.	88.865
10177	17.094	3.6364	5.e-002	3.1606
10178	17.094	3.3636	0.	87.108
10179	17.002	3.4545	0.	85.4
10180	17.094	3.4545	5.e-002	2.8385
10181	17.094	3.1818	0.	84.875
10182	17.002	3.2727	0.	82.803
10183	17.094	3.2727	5.e-002	2.5941
10184	17.094	3.	0.	84.099
10185	17.002	3.0909	0.	81.416
10186	17.094	3.0909	5.e-002	2.4603
10187	17.094	2.8182	0.	84.875
10188	17.002	2.9091	0.	81.416
10189	17.094	2.9091	5.e-002	2.4603
10190	17.094	2.6364	0.	87.108
10191	17.002	2.7273	0.	82.803
10192	17.094	2.7273	5.e-002	2.5941
10193	17.094	2.4545	0.	90.515
10194	17.002	2.5455	0.	85.401
10195	17.094	2.5455	5.e-002	2.8385
10196	17.094	2.2727	0.	94.632
10197	17.002	2.3636	0.	88.865
10198	17.094	2.3636	5.e-002	3.1606
10199	17.094	2.0909	0.	98.849
10200	17.002	2.1818	0.	92.701
10201	17.094	2.1818	5.e-002	3.5303
10202	17.094	1.9091	0.	102.46
10203	17.002	2.	0.	96.302
10204	17.094	2.	5.e-002	3.9252
10205	17.094	1.7273	0.	104.76
10206	17.002	1.8182	0.	99.014
10207	17.094	1.8182	5.e-002	4.3306
10208	17.094	1.5455	0.	105.1
10209	17.002	1.6364	0.	100.21
10210	17.094	1.6364	5.e-002	4.7367
10211	17.094	1.3636	0.	103.01
10212	17.002	1.4545	0.	99.366
10213	17.094	1.4545	5.e-002	5.1353
10214	17.094	1.1818	0.	98.174
10215	17.002	1.2727	0.	96.11
10216	17.094	1.2727	5.e-002	5.5178
10217	17.094	1.	0.	90.482
10218	17.002	1.0909	0.	90.233
10219	17.094	1.0909	5.e-002	5.8747
10220	17.094	0.81818	0.	79.957
10221	17.002	0.90909	0.	81.677
10222	17.094	0.90909	5.e-002	6.1969
10223	17.094	0.63636	0.	66.715
10224	17.002	0.72727	0.	70.493
10225	17.094	0.72727	5.e-002	6.4765
10226	17.094	0.45455	0.	50.891
10227	17.002	0.54545	0.	56.805
10228	17.094	0.54545	5.e-002	6.7007
10229	17.094	0.27273	0.	32.784
10230	17.002	0.36364	0.	40.733
10231	17.094	0.36364	5.e-002	6.7553
10232	17.002	0.18182	0.	22.896
10233	17.094	0.18182	5.e-002	4.9837
10234	17.094	9.0909e-002	0.	13.377
10235	16.91	5.7273	0.	30.718
10236	16.819	5.8182	0.	22.069
10237	16.91	5.8182	5.e-002	4.2301
10238	16.91	5.9091	0.	13.059
10239	16.91	5.5455	0.	46.633
10240	16.819	5.6364	0.	37.619
10241	16.91	5.6364	5.e-002	6.3021
10242	16.91	5.3636	0.	60.601
10243	16.819	5.4545	0.	51.808
10244	16.91	5.4545	5.e-002	6.2973
10245	16.91	5.1818	0.	72.25
10246	16.819	5.2727	0.	63.883
10247	16.91	5.2727	5.e-002	6.1134
10248	16.91	5.	0.	81.477
10249	16.819	5.0909	0.	73.729
10250	16.91	5.0909	5.e-002	5.882
10251	16.91	4.8182	0.	88.222
10252	16.819	4.9091	0.	81.259
10253	16.91	4.9091	5.e-002	5.6168
10254	16.91	4.6364	0.	92.519
10255	16.819	4.7273	0.	86.473
10256	16.91	4.7273	5.e-002	5.3247
10257	16.91	4.4545	0.	94.518
10258	16.819	4.5455	0.	89.462
10259	16.91	4.5455	5.e-002	5.0132
10260	16.91	4.2727	0.	94.5
10261	16.819	4.3636	0.	90.437
10262	16.91	4.3636	5.e-002	4.6897
10263	16.91	4.0909	0.	92.881
10264	16.819	4.1818	0.	89.727
10265	16.91	4.1818	5.e-002	4.3619
10266	16.91	3.9091	0.	90.174
10267	16.819	4.	0.	87.765
10268	16.91	4.	5.e-002	4.0379
10269	16.91	3.7273	0.	86.947
10270	16.819	3.8182	0.	85.054
10271	16.91	3.8182	5.e-002	3.7273
10272	16.91	3.5455	0.	83.758
10273	16.819	3.6364	0.	82.114
10274	16.91	3.6364	5.e-002	3.4433
10275	16.91	3.3636	0.	81.097
10276	16.819	3.4545	0.	79.43
10277	16.91	3.4545	5.e-002	3.2029
10278	16.91	3.1818	0.	79.343
10279	16.819	3.2727	0.	77.403
10280	16.91	3.2727	5.e-002	3.026
10281	16.91	3.	0.	78.731
10282	16.819	3.0909	0.	76.316
10283	16.91	3.0909	5.e-002	2.9316
10284	16.91	2.8182	0.	79.343
10285	16.819	2.9091	0.	76.316
10286	16.91	2.9091	5.e-002	2.9316
10287	16.91	2.6364	0.	81.097
10288	16.819	2.7273	0.	77.403
10289	16.91	2.7273	5.e-002	3.026
10290	16.91	2.4545	0.	83.758
10291	16.819	2.5455	0.	79.43
10292	16.91	2.5455	5.e-002	3.2029
10293	16.91	2.2727	0.	86.947
10294	16.819	2.3636	0.	82.114
10295	16.91	2.3636	5.e-002	3.4433
10296	16.91	2.0909	0.	90.174
10297	16.819	2.1818	0.	85.054
10298	16.91	2.1818	5.e-002	3.7273
10299	16.91	1.9091	0.	92.881
10300	16.819	2.	0.	87.765
10301	16.91	2.	5.e-002	4.0379
10302	16.91	1.7273	0.	94.501
10303	16.819	1.8182	0.	89.727
10304	16.91	1.8182	5.e-002	4.3619
10305	16.91	1.5455	0.	94.518
10306	16.819	1.6364	0.	90.438
10307	16.91	1.6364	5.e-002	4.6897
10308	16.91	1.3636	0.	92.519
10309	16.819	1.4545	0.	89.463
10310	16.91	1.4545	5.e-002	5.0132
10311	16.91	1.1818	0.	88.222
10312	16.819	1.2727	0.	86.473
10313	16.91	1.2727	5.e-002	5.3248
10314	16.91	1.	0.	81.477
10315	16.819	1.0909	0.	81.26
10316	16.91	1.0909	5.e-002	5.6169
10317	16.91	0.81818	0.	72.25
10318	16.819	0.90909	0.	73.729
10319	16.91	0.90909	5.e-002	5.882
10320	16.91	0.63636	0.	60.601
10321	16.819	0.72727	0.	63.883
10322	16.91	0.72727	5.e-002	6.1134
10323	16.91	0.45455	0.	46.633
10324	16.819	0.54545	0.	51.808
10325	16.91	0.54545	5.e-002	6.2973
10326	16.91	0.27273	0.	30.718
10327	16.819	0.36364	0.	37.619
10328	16.91	0.36364	5.e-002	6.3021
10329	16.819	0.18182	0.	22.069
10330	16.91	0.18182	5.e-002	4.2302
10331	16.91	9.0909e-002	0.	13.059
10332	16.727	5.7273	0.	28.846
10333	16.635	5.8182	0.	21.331
10334	16.727	5.8182	5.e-002	3.5903
10335	16.727	5.9091	0.	12.775
10336	16.727	5.5455	0.	42.77
10337	16.635	5.6364	0.	34.802
10338	16.727	5.6364	5.e-002	5.9302
10339	16.727	5.3636	0.	55.091
10340	16.635	5.4545	0.	47.302
10341	16.727	5.4545	5.e-002	5.9704
10342	16.727	5.1818	0.	65.377
10343	16.635	5.2727	0.	57.967
10344	16.727	5.2727	5.e-002	5.8227
10345	16.727	5.	0.	73.535
10346	16.635	5.0909	0.	66.68
10347	16.727	5.0909	5.e-002	5.6335
10348	16.727	4.8182	0.	79.538
10349	16.635	4.9091	0.	73.377
10350	16.727	4.9091	5.e-002	5.4172
10351	16.727	4.6364	0.	83.443
10352	16.635	4.7273	0.	78.077
10353	16.727	4.7273	5.e-002	5.1798
10354	16.727	4.4545	0.	85.407
10355	16.635	4.5455	0.	80.885
10356	16.727	4.5455	5.e-002	4.9275
10357	16.727	4.2727	0.	85.684
10358	16.635	4.3636	0.	81.997
10359	16.727	4.3636	5.e-002	4.6667
10360	16.727	4.0909	0.	84.626
10361	16.635	4.1818	0.	81.697
10362	16.727	4.1818	5.e-002	4.404
10363	16.727	3.9091	0.	82.655
10364	16.635	4.	0.	80.348
10365	16.727	4.	5.e-002	4.1467
10366	16.727	3.7273	0.	80.226
10367	16.635	3.8182	0.	78.356
10368	16.727	3.8182	5.e-002	3.9036
10369	16.727	3.5455	0.	77.788
10370	16.635	3.6364	0.	76.14
10371	16.727	3.6364	5.e-002	3.6851
10372	16.727	3.3636	0.	75.734
10373	16.635	3.4545	0.	74.089
10374	16.727	3.4545	5.e-002	3.5039
10375	16.727	3.1818	0.	74.372
10376	16.635	3.2727	0.	72.527
10377	16.727	3.2727	5.e-002	3.3731
10378	16.727	3.	0.	73.896
10379	16.635	3.0909	0.	71.686
10380	16.727	3.0909	5.e-002	3.3043
10381	16.727	2.8182	0.	74.372
10382	16.635	2.9091	0.	71.686
10383	16.727	2.9091	5.e-002	3.3043
10384	16.727	2.6364	0.	75.734
10385	16.635	2.7273	0.	72.527
10386	16.727	2.7273	5.e-002	3.3731
10387	16.727	2.4545	0.	77.788
10388	16.635	2.5455	0.	74.089
10389	16.727	2.5455	5.e-002	3.5039
10390	16.727	2.2727	0.	80.226
10391	16.635	2.3636	0.	76.14
10392	16.727	2.3636	5.e-002	3.6851
10393	16.727	2.0909	0.	82.655
10394	16.635	2.1818	0.	78.356
10395	16.727	2.1818	5.e-002	3.9036
10396	16.727	1.9091	0.	84.626
10397	16.635	2.	0.	80.348
10398	16.727	2.	5.e-002	4.1467
10399	16.727	1.7273	0.	85.684
10400	16.635	1.8182	0.	81.697
10401	16.727	1.8182	5.e-002	4.404
10402	16.727	1.5455	0.	85.407
10403	16.635	1.6364	0.	81.997
10404	16.727	1.6364	5.e-002	4.6667
10405	16.727	1.3636	0.	83.444
10406	16.635	1.4545	0.	80.885
10407	16.727	1.4545	5.e-002	4.9276
10408	16.727	1.1818	0.	79.538
10409	16.635	1.2727	0.	78.077
10410	16.727	1.2727	5.e-002	5.1799
10411	16.727	1.	0.	73.535
10412	16.635	1.0909	0.	73.377
10413	16.727	1.0909	5.e-002	5.4172
10414	16.727	0.81818	0.	65.377
10415	16.635	0.90909	0.	66.68
10416	16.727	0.90909	5.e-002	5.6335
10417	16.727	0.63636	0.	55.091
10418	16.635	0.72727	0.	57.967
10419	16.727	0.72727	5.e-002	5.8227
10420	16.727	0.45455	0.	42.77
10421	16.635	0.54545	0.	47.302
10422	16.727	0.54545	5.e-002	5.9704
10423	16.727	0.27273	0.	28.846
10424	16.635	0.36364	0.	34.802
10425	16.727	0.36364	5.e-002	5.9303
10426	16.635	0.18182	0.	21.331
10427	16.727	0.18182	5.e-002	3.5904
10428	16.727	9.0909e-002	0.	12.775
10429	16.543	5.7273	0.	27.166
10430	16.451	5.8182	0.	20.675
10431	16.543	5.8182	5.e-002	3.0498
10432	16.543	5.9091	0.	12.521
10433	16.543	5.5455	0.	39.303
10434	16.451	5.6364	0.	32.278
10435	16.543	5.6364	5.e-002	5.6275
10436	16.543	5.3636	0.	50.166
10437	16.451	5.4545	0.	43.273
10438	16.543	5.4545	5.e-002	5.7072
10439	16.543	5.1818	0.	59.27
10440	16.451	5.2727	0.	52.7
10441	16.543	5.2727	5.e-002	5.5908
10442	16.543	5.	0.	66.529
10443	16.451	5.0909	0.	60.439
10444	16.543	5.0909	5.e-002	5.4377
10445	16.543	4.8182	0.	71.927
10446	16.451	4.9091	0.	66.439
10447	16.543	4.9091	5.e-002	5.2627
10448	16.543	4.6364	0.	75.531
10449	16.451	4.7273	0.	70.724
10450	16.543	4.7273	5.e-002	5.0709
10451	16.543	4.4545	0.	77.486
10452	16.451	4.5455	0.	73.397
10453	16.543	4.5455	5.e-002	4.8677
10454	16.543	4.2727	0.	78.018
10455	16.451	4.3636	0.	74.632
10456	16.543	4.3636	5.e-002	4.6584
10457	16.543	4.0909	0.	77.424
10458	16.451	4.1818	0.	74.675
10459	16.543	4.1818	5.e-002	4.4489
10460	16.543	3.9091	0.	76.051
10461	16.451	4.	0.	73.825
10462	16.543	4.	5.e-002	4.2454
10463	16.543	3.7273	0.	74.269
10464	16.451	3.8182	0.	72.415
10465	16.543	3.8182	5.e-002	4.0553
10466	16.543	3.5455	0.	72.438
10467	16.451	3.6364	0.	70.784
10468	16.543	3.6364	5.e-002	3.8868
10469	16.543	3.3636	0.	70.877
10470	16.451	3.4545	0.	69.246
10471	16.543	3.4545	5.e-002	3.7489
10472	16.543	3.1818	0.	69.835
10473	16.451	3.2727	0.	68.063
10474	16.543	3.2727	5.e-002	3.6507
10475	16.543	3.	0.	69.47
10476	16.451	3.0909	0.	67.423
10477	16.543	3.0909	5.e-002	3.5995
10478	16.543	2.8182	0.	69.835
10479	16.451	2.9091	0.	67.423
10480	16.543	2.9091	5.e-002	3.5995
10481	16.543	2.6364	0.	70.877
10482	16.451	2.7273	0.	68.063
10483	16.543	2.7273	5.e-002	3.6507
10484	16.543	2.4545	0.	72.438
10485	16.451	2.5455	0.	69.246
10486	16.543	2.5455	5.e-002	3.749
10487	16.543	2.2727	0.	74.269
10488	16.451	2.3636	0.	70.784
10489	16.543	2.3636	5.e-002	3.8868
10490	16.543	2.0909	0.	76.051
10491	16.451	2.1818	0.	72.415
10492	16.543	2.1818	5.e-002	4.0553
10493	16.543	1.9091	0.	77.424
10494	16.451	2.	0.	73.825
10495	16.543	2.	5.e-002	4.2454
10496	16.543	1.7273	0.	78.018
10497	16.451	1.8182	0.	74.675
10498	16.543	1.8182	5.e-002	4.4489
10499	16.543	1.5455	0.	77.486
10500	16.451	1.6364	0.	74.632
10501	16.543	1.6364	5.e-002	4.6584
10502	16.543	1.3636	0.	75.531
10503	16.451	1.4545	0.	73.397
10504	16.543	1.4545	5.e-002	4.8677
10505	16.543	1.1818	0.	71.927
10506	16.451	1.2727	0.	70.725
10507	16.543	1.2727	5.e-002	5.0709
10508	16.543	1.	0.	66.529
10509	16.451	1.0909	0.	66.439
10510	16.543	1.0909	5.e-002	5.2627
10511	16.543	0.81818	0.	59.27
10512	16.451	0.90909	0.	60.439
10513	16.543	0.90909	5.e-002	5.4378
10514	16.543	0.63636	0.	50.166
10515	16.451	0.72727	0.	52.7
10516	16.543	0.72727	5.e-002	5.5908
10517	16.543	0.45455	0.	39.303
10518	16.451	0.54545	0.	43.273
10519	16.543	0.54545	5.e-002	5.7072
10520	16.543	0.27273	0.	27.166
10521	16.451	0.36364	0.	32.278
10522	16.543	0.36364	5.e-002	5.6276
10523	16.451	0.18182	0.	20.676
10524	16.543	0.18182	5.e-002	3.0498
10525	16.543	9.0909e-002	0.	12.522
10526	16.359	5.7273	0.	25.669
10527	16.267	5.8182	0.	20.092
10528	16.359	5.8182	5.e-002	2.5945
10529	16.359	5.9091	0.	12.294
10530	16.359	5.5455	0.	36.214
10531	16.267	5.6364	0.	30.033
10532	16.359	5.6364	5.e-002	5.3829
10533	16.359	5.3636	0.	45.789
10534	16.267	5.4545	0.	39.693
10535	16.359	5.4545	5.e-002	5.4965
10536	16.359	5.1818	0.	53.861
10537	16.267	5.2727	0.	48.03
10538	16.359	5.2727	5.e-002	5.4067
10539	16.359	5.	0.	60.347
10540	16.267	5.0909	0.	54.922
10541	16.359	5.0909	5.e-002	5.2839
10542	16.359	4.8182	0.	65.236
10543	16.267	4.9091	0.	60.323
10544	16.359	4.9091	5.e-002	5.1432
10545	16.359	4.6364	0.	68.592
10546	16.267	4.7273	0.	64.258
10547	16.359	4.7273	5.e-002	4.9891
10548	16.359	4.4545	0.	70.544
10549	16.267	4.5455	0.	66.817
10550	16.359	4.5455	5.e-002	4.8262
10551	16.359	4.2727	0.	71.289
10552	16.267	4.3636	0.	68.153
10553	16.359	4.3636	5.e-002	4.659
10554	16.359	4.0909	0.	71.074
10555	16.267	4.1818	0.	68.474
10556	16.359	4.1818	5.e-002	4.4925
10557	16.359	3.9091	0.	70.185
10558	16.267	4.	0.	68.028
10559	16.359	4.	5.e-002	4.332
10560	16.359	3.7273	0.	68.925
10561	16.267	3.8182	0.	67.088
10562	16.359	3.8182	5.e-002	4.1833
10563	16.359	3.5455	0.	67.586
10564	16.267	3.6364	0.	65.929
10565	16.359	3.6364	5.e-002	4.0529
10566	16.359	3.3636	0.	66.424
10567	16.267	3.4545	0.	64.805
10568	16.359	3.4545	5.e-002	3.9473
10569	16.359	3.1818	0.	65.641
10570	16.267	3.2727	0.	63.928
10571	16.359	3.2727	5.e-002	3.8727
10572	16.359	3.	0.	65.366
10573	16.267	3.0909	0.	63.45
10574	16.359	3.0909	5.e-002	3.834
10575	16.359	2.8182	0.	65.641
10576	16.267	2.9091	0.	63.45
10577	16.359	2.9091	5.e-002	3.834
10578	16.359	2.6364	0.	66.424
10579	16.267	2.7273	0.	63.928
10580	16.359	2.7273	5.e-002	3.8727
10581	16.359	2.4545	0.	67.586
10582	16.267	2.5455	0.	64.805
10583	16.359	2.5455	5.e-002	3.9473
10584	16.359	2.2727	0.	68.925
10585	16.267	2.3636	0.	65.929
10586	16.359	2.3636	5.e-002	4.0529
10587	16.359	2.0909	0.	70.185
10588	16.267	2.1818	0.	67.088
10589	16.359	2.1818	5.e-002	4.1833
10590	16.359	1.9091	0.	71.074
10591	16.267	2.	0.	68.028
10592	16.359	2.	5.e-002	4.332
10593	16.359	1.7273	0.	71.289
10594	16.267	1.8182	0.	68.474
10595	16.359	1.8182	5.e-002	4.4925
10596	16.359	1.5455	0.	70.544
10597	16.267	1.6364	0.	68.153
10598	16.359	1.6364	5.e-002	4.6591
10599	16.359	1.3636	0.	68.592
10600	16.267	1.4545	0.	66.817
10601	16.359	1.4545	5.e-002	4.8262
10602	16.359	1.1818	0.	65.236
10603	16.267	1.2727	0.	64.258
10604	16.359	1.2727	5.e-002	4.9892
10605	16.359	1.	0.	60.347
10606	16.267	1.0909	0.	60.323
10607	16.359	1.0909	5.e-002	5.1432
10608	16.359	0.81818	0.	53.861
10609	16.267	0.90909	0.	54.922
10610	16.359	0.90909	5.e-002	5.284
10611	16.359	0.63636	0.	45.789
10612	16.267	0.72727	0.	48.03
10613	16.359	0.72727	5.e-002	5.4067
10614	16.359	0.45455	0.	36.214
10615	16.267	0.54545	0.	39.693
10616	16.359	0.54545	5.e-002	5.4965
10617	16.359	0.27273	0.	25.669
10618	16.267	0.36364	0.	30.034
10619	16.359	0.36364	5.e-002	5.3829
10620	16.267	0.18182	0.	20.092
10621	16.359	0.18182	5.e-002	2.5945
10622	16.359	9.0909e-002	0.	12.294
10623	16.175	5.7273	0.	24.34
10624	16.083	5.8182	0.	19.569
10625	16.175	5.8182	5.e-002	2.2117
10626	16.175	5.9091	0.	12.088
10627	16.175	5.5455	0.	33.476
10628	16.083	5.6364	0.	28.045
10629	16.175	5.6364	5.e-002	5.1865
10630	16.175	5.3636	0.	41.912
10631	16.083	5.4545	0.	36.524
10632	16.175	5.4545	5.e-002	5.329
10633	16.175	5.1818	0.	49.077
10634	16.083	5.2727	0.	43.898
10635	16.175	5.2727	5.e-002	5.2613
10636	16.175	5.	0.	54.889
10637	16.083	5.0909	0.	50.047
10638	16.175	5.0909	5.e-002	5.1636
10639	16.175	4.8182	0.	59.337
10640	16.083	4.9091	0.	54.923
10641	16.175	4.9091	5.e-002	5.0511
10642	16.175	4.6364	0.	62.477
10643	16.083	4.7273	0.	58.549
10644	16.175	4.7273	5.e-002	4.928
10645	16.175	4.4545	0.	64.42
10646	16.083	4.5455	0.	61.003
10647	16.175	4.5455	5.e-002	4.798
10648	16.175	4.2727	0.	65.333
10649	16.083	4.3636	0.	62.413
10650	16.175	4.3636	5.e-002	4.6649
10651	16.175	4.0909	0.	65.422
10652	16.083	4.1818	0.	62.954
10653	16.175	4.1818	5.e-002	4.5329
10654	16.175	3.9091	0.	64.924
10655	16.083	4.	0.	62.831
10656	16.175	4.	5.e-002	4.4064
10657	16.175	3.7273	0.	64.084
10658	16.083	3.8182	0.	62.267
10659	16.175	3.8182	5.e-002	4.2901
10660	16.175	3.5455	0.	63.139
10661	16.083	3.6364	0.	61.487
10662	16.175	3.6364	5.e-002	4.1889
10663	16.175	3.3636	0.	62.299
10664	16.083	3.4545	0.	60.695
10665	16.175	3.4545	5.e-002	4.1075
10666	16.175	3.1818	0.	61.726
10667	16.083	3.2727	0.	60.064
10668	16.175	3.2727	5.e-002	4.0504
10669	16.175	3.	0.	61.523
10670	16.083	3.0909	0.	59.717
10671	16.175	3.0909	5.e-002	4.021
10672	16.175	2.8182	0.	61.726
10673	16.083	2.9091	0.	59.717
10674	16.175	2.9091	5.e-002	4.021
10675	16.175	2.6364	0.	62.299
10676	16.083	2.7273	0.	60.064
10677	16.175	2.7273	5.e-002	4.0504
10678	16.175	2.4545	0.	63.139
10679	16.083	2.5455	0.	60.695
10680	16.175	2.5455	5.e-002	4.1075
10681	16.175	2.2727	0.	64.084
10682	16.083	2.3636	0.	61.487
10683	16.175	2.3636	5.e-002	4.1889
10684	16.175	2.0909	0.	64.924
10685	16.083	2.1818	0.	62.267
10686	16.175	2.1818	5.e-002	4.2901
10687	16.175	1.9091	0.	65.422
10688	16.083	2.	0.	62.831
10689	16.175	2.	5.e-002	4.4064
10690	16.175	1.7273	0.	65.333
10691	16.083	1.8182	0.	62.954
10692	16.175	1.8182	5.e-002	4.5329
10693	16.175	1.5455	0.	64.42
10694	16.083	1.6364	0.	62.413
10695	16.175	1.6364	5.e-002	4.6649
10696	16.175	1.3636	0.	62.477
10697	16.083	1.4545	0.	61.003
10698	16.175	1.4545	5.e-002	4.798
10699	16.175	1.1818	0.	59.338
10700	16.083	1.2727	0.	58.549
10701	16.175	1.2727	5.e-002	4.928
10702	16.175	1.	0.	54.889
10703	16.083	1.0909	0.	54.923
10704	16.175	1.0909	5.e-002	5.0512
10705	16.175	0.81818	0.	49.077
10706	16.083	0.90909	0.	50.047
10707	16.175	0.90909	5.e-002	5.1637
10708	16.175	0.63636	0.	41.912
10709	16.083	0.72727	0.	43.898
10710	16.175	0.72727	5.e-002	5.2613
10711	16.175	0.45455	0.	33.476
10712	16.083	0.54545	0.	36.524
10713	16.175	0.54545	5.e-002	5.3291
10714	16.175	0.27273	0.	24.34
10715	16.083	0.36364	0.	28.045
10716	16.175	0.36364	5.e-002	5.1866
10717	16.083	0.18182	0.	19.569
10718	16.175	0.18182	5.e-002	2.2118
10719	16.175	9.0909e-002	0.	12.088
10720	15.991	5.7273	0.	23.16
10721	15.9	5.8182	0.	19.099
10722	15.991	5.8182	5.e-002	1.8901
10723	15.991	5.9091	0.	11.898
10724	15.991	5.5455	0.	31.056
10725	15.9	5.6364	0.	26.287
10726	15.991	5.6364	5.e-002	5.03
10727	15.991	5.3636	0.	38.485
10728	15.9	5.4545	0.	33.723
10729	15.991	5.4545	5.e-002	5.1969
10730	15.991	5.1818	0.	44.85
10731	15.9	5.2727	0.	40.248
10732	15.991	5.2727	5.e-002	5.1472
10733	15.991	5.	0.	50.067
10734	15.9	5.0909	0.	45.737
10735	15.991	5.0909	5.e-002	5.0701
10736	15.991	4.8182	0.	54.123
10737	15.9	4.9091	0.	50.147
10738	15.991	4.9091	5.e-002	4.9807
10739	15.991	4.6364	0.	57.065
10740	15.9	4.7273	0.	53.493
10741	15.991	4.7273	5.e-002	4.8828
10742	15.991	4.4545	0.	58.986
10743	15.9	4.5455	0.	55.841
10744	15.991	4.5455	5.e-002	4.7794
10745	15.991	4.2727	0.	60.025
10746	15.9	4.3636	0.	57.296
10747	15.991	4.3636	5.e-002	4.6738
10748	15.991	4.0909	0.	60.353
10749	15.9	4.1818	0.	58.005
10750	15.991	4.1818	5.e-002	4.5695
10751	15.991	3.9091	0.	60.164
10752	15.9	4.	0.	58.135
10753	15.991	4.	5.e-002	4.47
10754	15.991	3.7273	0.	59.659
10755	15.9	3.8182	0.	57.869
10756	15.991	3.8182	5.e-002	4.3789
10757	15.991	3.5455	0.	59.03
10758	15.9	3.6364	0.	57.389
10759	15.991	3.6364	5.e-002	4.3001
10760	15.991	3.3636	0.	58.448
10761	15.9	3.4545	0.	56.863
10762	15.991	3.4545	5.e-002	4.2372
10763	15.991	3.1818	0.	58.042
10764	15.9	3.2727	0.	56.428
10765	15.991	3.2727	5.e-002	4.1932
10766	15.991	3.	0.	57.897
10767	15.9	3.0909	0.	56.185
10768	15.991	3.0909	5.e-002	4.1706
10769	15.991	2.8182	0.	58.042
10770	15.9	2.9091	0.	56.185
10771	15.991	2.9091	5.e-002	4.1706
10772	15.991	2.6364	0.	58.448
10773	15.9	2.7273	0.	56.428
10774	15.991	2.7273	5.e-002	4.1933
10775	15.991	2.4545	0.	59.031
10776	15.9	2.5455	0.	56.863
10777	15.991	2.5455	5.e-002	4.2372
10778	15.991	2.2727	0.	59.659
10779	15.9	2.3636	0.	57.389
10780	15.991	2.3636	5.e-002	4.3002
10781	15.991	2.0909	0.	60.164
10782	15.9	2.1818	0.	57.869
10783	15.991	2.1818	5.e-002	4.3789
10784	15.991	1.9091	0.	60.353
10785	15.9	2.	0.	58.135
10786	15.991	2.	5.e-002	4.47
10787	15.991	1.7273	0.	60.025
10788	15.9	1.8182	0.	58.005
10789	15.991	1.8182	5.e-002	4.5695
10790	15.991	1.5455	0.	58.986
10791	15.9	1.6364	0.	57.297
10792	15.991	1.6364	5.e-002	4.6739
10793	15.991	1.3636	0.	57.065
10794	15.9	1.4545	0.	55.841
10795	15.991	1.4545	5.e-002	4.7794
10796	15.991	1.1818	0.	54.123
10797	15.9	1.2727	0.	53.493
10798	15.991	1.2727	5.e-002	4.8828
10799	15.991	1.	0.	50.067
10800	15.9	1.0909	0.	50.147
10801	15.991	1.0909	5.e-002	4.9808
10802	15.991	0.81818	0.	44.85
10803	15.9	0.90909	0.	45.737
10804	15.991	0.90909	5.e-002	5.0702
10805	15.991	0.63636	0.	38.485
10806	15.9	0.72727	0.	40.248
10807	15.991	0.72727	5.e-002	5.1472
10808	15.991	0.45455	0.	31.056
10809	15.9	0.54545	0.	33.723
10810	15.991	0.54545	5.e-002	5.1969
10811	15.991	0.27273	0.	23.16
10812	15.9	0.36364	0.	26.287
10813	15.991	0.36364	5.e-002	5.0301
10814	15.9	0.18182	0.	19.099
10815	15.991	0.18182	5.e-002	1.8902
10816	15.991	9.0909e-002	0.	11.898
10817	15.808	5.7273	0.	22.113
10818	15.716	5.8182	0.	18.672
10819	15.808	5.8182	5.e-002	1.6199
10820	15.808	5.9091	0.	11.722
10821	15.808	5.5455	0.	28.918
10822	15.716	5.6364	0.	24.732
10823	15.808	5.6364	5.e-002	4.9063
10824	15.808	5.3636	0.	35.459
10825	15.716	5.4545	0.	31.25
10826	15.808	5.4545	5.e-002	5.0935
10827	15.808	5.1818	0.	41.113
10828	15.716	5.2727	0.	37.021
10829	15.808	5.2727	5.e-002	5.0585
10830	15.808	5.	0.	45.799
10831	15.716	5.0909	0.	41.922
10832	15.808	5.0909	5.e-002	4.9982
10833	15.808	4.8182	0.	49.502
10834	15.716	4.9091	0.	45.912
10835	15.808	4.9091	5.e-002	4.9275
10836	15.808	4.6364	0.	52.255
10837	15.716	4.7273	0.	49.
10838	15.808	4.7273	5.e-002	4.85
10839	15.808	4.4545	0.	54.138
10840	15.716	4.5455	0.	51.236
10841	15.808	4.5455	5.e-002	4.7681
10842	15.808	4.2727	0.	55.264
10843	15.716	4.3636	0.	52.71
10844	15.808	4.3636	5.e-002	4.6846
10845	15.808	4.0909	0.	55.774
10846	15.716	4.1818	0.	53.54
10847	15.808	4.1818	5.e-002	4.6023
10848	15.808	3.9091	0.	55.827
10849	15.716	4.	0.	53.863
10850	15.808	4.	5.e-002	4.5241
10851	15.808	3.7273	0.	55.586
10852	15.716	3.8182	0.	53.829
10853	15.808	3.8182	5.e-002	4.4528
10854	15.808	3.5455	0.	55.208
10855	15.716	3.6364	0.	53.586
10856	15.808	3.6364	5.e-002	4.3914
10857	15.808	3.3636	0.	54.829
10858	15.716	3.4545	0.	53.268
10859	15.808	3.4545	5.e-002	4.3426
10860	15.808	3.1818	0.	54.557
10861	15.716	3.2727	0.	52.989
10862	15.808	3.2727	5.e-002	4.3086
10863	15.808	3.	0.	54.458
10864	15.716	3.0909	0.	52.829
10865	15.808	3.0909	5.e-002	4.2912
10866	15.808	2.8182	0.	54.557
10867	15.716	2.9091	0.	52.829
10868	15.808	2.9091	5.e-002	4.2912
10869	15.808	2.6364	0.	54.829
10870	15.716	2.7273	0.	52.989
10871	15.808	2.7273	5.e-002	4.3086
10872	15.808	2.4545	0.	55.208
10873	15.716	2.5455	0.	53.268
10874	15.808	2.5455	5.e-002	4.3426
10875	15.808	2.2727	0.	55.586
10876	15.716	2.3636	0.	53.586
10877	15.808	2.3636	5.e-002	4.3914
10878	15.808	2.0909	0.	55.827
10879	15.716	2.1818	0.	53.829
10880	15.808	2.1818	5.e-002	4.4528
10881	15.808	1.9091	0.	55.774
10882	15.716	2.	0.	53.863
10883	15.808	2.	5.e-002	4.5241
10884	15.808	1.7273	0.	55.264
10885	15.716	1.8182	0.	53.54
10886	15.808	1.8182	5.e-002	4.6023
10887	15.808	1.5455	0.	54.138
10888	15.716	1.6364	0.	52.71
10889	15.808	1.6364	5.e-002	4.6846
10890	15.808	1.3636	0.	52.256
10891	15.716	1.4545	0.	51.236
10892	15.808	1.4545	5.e-002	4.7681
10893	15.808	1.1818	0.	49.502
10894	15.716	1.2727	0.	49.
10895	15.808	1.2727	5.e-002	4.85
10896	15.808	1.	0.	45.799
10897	15.716	1.0909	0.	45.912
10898	15.808	1.0909	5.e-002	4.9276
10899	15.808	0.81818	0.	41.113
10900	15.716	0.90909	0.	41.922
10901	15.808	0.90909	5.e-002	4.9982
10902	15.808	0.63636	0.	35.459
10903	15.716	0.72727	0.	37.021
10904	15.808	0.72727	5.e-002	5.0586
10905	15.808	0.45455	0.	28.918
10906	15.716	0.54545	0.	31.25
10907	15.808	0.54545	5.e-002	5.0936
10908	15.808	0.27273	0.	22.113
10909	15.716	0.36364	0.	24.732
10910	15.808	0.36364	5.e-002	4.9064
10911	15.716	0.18182	0.	18.672
10912	15.808	0.18182	5.e-002	1.6199
10913	15.808	9.0909e-002	0.	11.722
10914	15.624	5.7273	0.	21.179
10915	15.532	5.8182	0.	18.281
10916	15.624	5.8182	5.e-002	1.3925
10917	15.624	5.9091	0.	11.557
10918	15.624	5.5455	0.	27.028
10919	15.532	5.6364	0.	23.354
10920	15.624	5.6364	5.e-002	4.8093
10921	15.624	5.3636	0.	32.784
10922	15.532	5.4545	0.	29.062
10923	15.624	5.4545	5.e-002	5.0136
10924	15.624	5.1818	0.	37.807
10925	15.532	5.2727	0.	34.164
10926	15.624	5.2727	5.e-002	4.9904
10927	15.624	5.	0.	42.015
10928	15.532	5.0909	0.	38.54
10929	15.624	5.0909	5.e-002	4.9435
10930	15.624	4.8182	0.	45.393
10931	15.532	4.9091	0.	42.147
10932	15.624	4.9091	5.e-002	4.888
10933	15.624	4.6364	0.	47.964
10934	15.532	4.7273	0.	44.991
10935	15.624	4.7273	5.e-002	4.8268
10936	15.624	4.4545	0.	49.793
10937	15.532	4.5455	0.	47.111
10938	15.624	4.5455	5.e-002	4.7622
10939	15.624	4.2727	0.	50.971
10940	15.532	4.3636	0.	48.578
10941	15.624	4.3636	5.e-002	4.6964
10942	15.624	4.0909	0.	51.614
10943	15.532	4.1818	0.	49.488
10944	15.624	4.1818	5.e-002	4.6316
10945	15.624	3.9091	0.	51.85
10946	15.532	4.	0.	49.954
10947	15.624	4.	5.e-002	4.5702
10948	15.624	3.7273	0.	51.814
10949	15.532	3.8182	0.	50.096
10950	15.624	3.8182	5.e-002	4.5145
10951	15.624	3.5455	0.	51.631
10952	15.532	3.6364	0.	50.035
10953	15.624	3.6364	5.e-002	4.4666
10954	15.624	3.3636	0.	51.413
10955	15.532	3.4545	0.	49.881
10956	15.624	3.4545	5.e-002	4.4286
10957	15.624	3.1818	0.	51.245
10958	15.532	3.2727	0.	49.723
10959	15.624	3.2727	5.e-002	4.4023
10960	15.624	3.	0.	51.183
10961	15.532	3.0909	0.	49.628
10962	15.624	3.0909	5.e-002	4.3888
10963	15.624	2.8182	0.	51.245
10964	15.532	2.9091	0.	49.628
10965	15.624	2.9091	5.e-002	4.3888
10966	15.624	2.6364	0.	51.413
10967	15.532	2.7273	0.	49.723
10968	15.624	2.7273	5.e-002	4.4023
10969	15.624	2.4545	0.	51.631
10970	15.532	2.5455	0.	49.881
10971	15.624	2.5455	5.e-002	4.4286
10972	15.624	2.2727	0.	51.814
10973	15.532	2.3636	0.	50.035
10974	15.624	2.3636	5.e-002	4.4666
10975	15.624	2.0909	0.	51.85
10976	15.532	2.1818	0.	50.096
10977	15.624	2.1818	5.e-002	4.5145
10978	15.624	1.9091	0.	51.614
10979	15.532	2.	0.	49.954
10980	15.624	2.	5.e-002	4.5702
10981	15.624	1.7273	0.	50.971
10982	15.532	1.8182	0.	49.488
10983	15.624	1.8182	5.e-002	4.6316
10984	15.624	1.5455	0.	49.793
10985	15.532	1.6364	0.	48.578
10986	15.624	1.6364	5.e-002	4.6964
10987	15.624	1.3636	0.	47.964
10988	15.532	1.4545	0.	47.111
10989	15.624	1.4545	5.e-002	4.7623
10990	15.624	1.1818	0.	45.393
10991	15.532	1.2727	0.	44.991
10992	15.624	1.2727	5.e-002	4.8269
10993	15.624	1.	0.	42.015
10994	15.532	1.0909	0.	42.147
10995	15.624	1.0909	5.e-002	4.888
10996	15.624	0.81818	0.	37.807
10997	15.532	0.90909	0.	38.54
10998	15.624	0.90909	5.e-002	4.9435
10999	15.624	0.63636	0.	32.784
11000	15.532	0.72727	0.	34.164
11001	15.624	0.72727	5.e-002	4.9905
11002	15.624	0.45455	0.	27.028
11003	15.532	0.54545	0.	29.063
11004	15.624	0.54545	5.e-002	5.0136
11005	15.624	0.27273	0.	21.18
11006	15.532	0.36364	0.	23.354
11007	15.624	0.36364	5.e-002	4.8094
11008	15.532	0.18182	0.	18.281
11009	15.624	0.18182	5.e-002	1.3926
11010	15.624	9.0909e-002	0.	11.557
11011	15.44	5.7273	0.	20.344
11012	15.348	5.8182	0.	17.918
11013	15.44	5.8182	5.e-002	1.201
11014	15.44	5.9091	0.	11.398
11015	15.44	5.5455	0.	25.353
11016	15.348	5.6364	0.	22.129
11017	15.44	5.6364	5.e-002	4.7341
11018	15.44	5.3636	0.	30.415
11019	15.348	5.4545	0.	27.123
11020	15.44	5.4545	5.e-002	4.9526
11021	15.44	5.1818	0.	34.874
11022	15.348	5.2727	0.	31.63
11023	15.44	5.2727	5.e-002	4.9389
11024	15.44	5.	0.	38.651
11025	15.348	5.0909	0.	35.532
11026	15.44	5.0909	5.e-002	4.9027
11027	15.44	4.8182	0.	41.727
11028	15.348	4.9091	0.	38.789
11029	15.44	4.9091	5.e-002	4.8593
11030	15.44	4.6364	0.	44.12
11031	15.348	4.7273	0.	41.401
11032	15.44	4.7273	5.e-002	4.8114
11033	15.44	4.4545	0.	45.879
11034	15.348	4.5455	0.	43.397
11035	15.44	4.5455	5.e-002	4.7606
11036	15.44	4.2727	0.	47.078
11037	15.348	4.3636	0.	44.835
11038	15.44	4.3636	5.e-002	4.7089
11039	15.44	4.0909	0.	47.812
11040	15.348	4.1818	0.	45.791
11041	15.44	4.1818	5.e-002	4.658
11042	15.44	3.9091	0.	48.183
11043	15.348	4.	0.	46.356
11044	15.44	4.	5.e-002	4.6099
11045	15.44	3.7273	0.	48.301
11046	15.348	3.8182	0.	46.629
11047	15.44	3.8182	5.e-002	4.5663
11048	15.44	3.5455	0.	48.269
11049	15.348	3.6364	0.	46.706
11050	15.44	3.6364	5.e-002	4.529
11051	15.44	3.3636	0.	48.174
11052	15.348	3.4545	0.	46.676
11053	15.44	3.4545	5.e-002	4.4994
11054	15.44	3.1818	0.	48.088
11055	15.348	3.2727	0.	46.612
11056	15.44	3.2727	5.e-002	4.479
11057	15.44	3.	0.	48.055
11058	15.348	3.0909	0.	46.566
11059	15.44	3.0909	5.e-002	4.4685
11060	15.44	2.8182	0.	48.088
11061	15.348	2.9091	0.	46.566
11062	15.44	2.9091	5.e-002	4.4685
11063	15.44	2.6364	0.	48.174
11064	15.348	2.7273	0.	46.612
11065	15.44	2.7273	5.e-002	4.479
11066	15.44	2.4545	0.	48.269
11067	15.348	2.5455	0.	46.676
11068	15.44	2.5455	5.e-002	4.4994
11069	15.44	2.2727	0.	48.301
11070	15.348	2.3636	0.	46.706
11071	15.44	2.3636	5.e-002	4.529
11072	15.44	2.0909	0.	48.183
11073	15.348	2.1818	0.	46.629
11074	15.44	2.1818	5.e-002	4.5663
11075	15.44	1.9091	0.	47.812
11076	15.348	2.	0.	46.356
11077	15.44	2.	5.e-002	4.6099
11078	15.44	1.7273	0.	47.078
11079	15.348	1.8182	0.	45.791
11080	15.44	1.8182	5.e-002	4.658
11081	15.44	1.5455	0.	45.879
11082	15.348	1.6364	0.	44.835
11083	15.44	1.6364	5.e-002	4.7089
11084	15.44	1.3636	0.	44.12
11085	15.348	1.4545	0.	43.397
11086	15.44	1.4545	5.e-002	4.7607
11087	15.44	1.1818	0.	41.727
11088	15.348	1.2727	0.	41.401
11089	15.44	1.2727	5.e-002	4.8114
11090	15.44	1.	0.	38.651
11091	15.348	1.0909	0.	38.789
11092	15.44	1.0909	5.e-002	4.8594
11093	15.44	0.81818	0.	34.874
11094	15.348	0.90909	0.	35.532
11095	15.44	0.90909	5.e-002	4.9028
11096	15.44	0.63636	0.	30.415
11097	15.348	0.72727	0.	31.63
11098	15.44	0.72727	5.e-002	4.9389
11099	15.44	0.45455	0.	25.353
11100	15.348	0.54545	0.	27.123
11101	15.44	0.54545	5.e-002	4.9527
11102	15.44	0.27273	0.	20.344
11103	15.348	0.36364	0.	22.129
11104	15.44	0.36364	5.e-002	4.7342
11105	15.348	0.18182	0.	17.918
11106	15.44	0.18182	5.e-002	1.201
11107	15.44	9.0909e-002	0.	11.398
11108	15.256	5.7273	0.	19.593
11109	15.164	5.8182	0.	17.579
11110	15.256	5.8182	5.e-002	1.0393
11111	15.256	5.9091	0.	11.245
11112	15.256	5.5455	0.	23.864
11113	15.164	5.6364	0.	21.035
11114	15.256	5.6364	5.e-002	4.6766
11115	15.256	5.3636	0.	28.31
11116	15.164	5.4545	0.	25.398
11117	15.256	5.4545	5.e-002	4.907
11118	15.256	5.1818	0.	32.264
11119	15.164	5.2727	0.	29.374
11120	15.256	5.2727	5.e-002	4.9008
11121	15.256	5.	0.	35.648
11122	15.164	5.0909	0.	32.848
11123	15.256	5.0909	5.e-002	4.8732
11124	15.256	4.8182	0.	38.443
11125	15.164	4.9091	0.	35.781
11126	15.256	4.9091	5.e-002	4.8395
11127	15.256	4.6364	0.	40.659
11128	15.164	4.7273	0.	38.171
11129	15.256	4.7273	5.e-002	4.8021
11130	15.256	4.4545	0.	42.335
11131	15.164	4.5455	0.	40.038
11132	15.256	4.5455	5.e-002	4.7624
11133	15.256	4.2727	0.	43.53
11134	15.164	4.3636	0.	41.428
11135	15.256	4.3636	5.e-002	4.7218
11136	15.256	4.0909	0.	44.318
11137	15.164	4.1818	0.	42.4
11138	15.256	4.1818	5.e-002	4.682
11139	15.256	3.9091	0.	44.785
11140	15.164	4.	0.	43.029
11141	15.256	4.	5.e-002	4.6444
11142	15.256	3.7273	0.	45.016
11143	15.164	3.8182	0.	43.394
11144	15.256	3.8182	5.e-002	4.6104
11145	15.256	3.5455	0.	45.096
11146	15.164	3.6364	0.	43.571
11147	15.256	3.6364	5.e-002	4.5812
11148	15.256	3.3636	0.	45.095
11149	15.164	3.4545	0.	43.633
11150	15.256	3.4545	5.e-002	4.5583
11151	15.256	3.1818	0.	45.071
11152	15.164	3.2727	0.	43.64
11153	15.256	3.2727	5.e-002	4.5424
11154	15.256	3.	0.	45.059
11155	15.164	3.0909	0.	43.632
11156	15.256	3.0909	5.e-002	4.5342
11157	15.256	2.8182	0.	45.071
11158	15.164	2.9091	0.	43.632
11159	15.256	2.9091	5.e-002	4.5342
11160	15.256	2.6364	0.	45.095
11161	15.164	2.7273	0.	43.64
11162	15.256	2.7273	5.e-002	4.5424
11163	15.256	2.4545	0.	45.096
11164	15.164	2.5455	0.	43.633
11165	15.256	2.5455	5.e-002	4.5583
11166	15.256	2.2727	0.	45.016
11167	15.164	2.3636	0.	43.571
11168	15.256	2.3636	5.e-002	4.5813
11169	15.256	2.0909	0.	44.785
11170	15.164	2.1818	0.	43.394
11171	15.256	2.1818	5.e-002	4.6104
11172	15.256	1.9091	0.	44.318
11173	15.164	2.	0.	43.029
11174	15.256	2.	5.e-002	4.6444
11175	15.256	1.7273	0.	43.53
11176	15.164	1.8182	0.	42.4
11177	15.256	1.8182	5.e-002	4.6821
11178	15.256	1.5455	0.	42.335
11179	15.164	1.6364	0.	41.428
11180	15.256	1.6364	5.e-002	4.7219
11181	15.256	1.3636	0.	40.659
11182	15.164	1.4545	0.	40.038
11183	15.256	1.4545	5.e-002	4.7624
11184	15.256	1.1818	0.	38.443
11185	15.164	1.2727	0.	38.171
11186	15.256	1.2727	5.e-002	4.8021
11187	15.256	1.	0.	35.648
11188	15.164	1.0909	0.	35.781
11189	15.256	1.0909	5.e-002	4.8396
11190	15.256	0.81818	0.	32.264
11191	15.164	0.90909	0.	32.848
11192	15.256	0.90909	5.e-002	4.8732
11193	15.256	0.63636	0.	28.31
11194	15.164	0.72727	0.	29.374
11195	15.256	0.72727	5.e-002	4.9009
11196	15.256	0.45455	0.	23.864
11197	15.164	0.54545	0.	25.398
11198	15.256	0.54545	5.e-002	4.9071
11199	15.256	0.27273	0.	19.593
11200	15.164	0.36364	0.	21.035
11201	15.256	0.36364	5.e-002	4.6767
11202	15.164	0.18182	0.	17.579
11203	15.256	0.18182	5.e-002	1.0394
11204	15.256	9.0909e-002	0.	11.245
11205	15.072	5.7273	0.	18.912
11206	14.98	5.8182	0.	17.258
11207	15.072	5.8182	5.e-002	0.90263
11208	15.072	5.9091	0.	11.096
11209	15.072	5.5455	0.	22.535
11210	14.98	5.6364	0.	20.053
11211	15.072	5.6364	5.e-002	4.6334
11212	15.072	5.3636	0.	26.433
11213	14.98	5.4545	0.	23.856
11214	15.072	5.4545	5.e-002	4.8739
11215	15.072	5.1818	0.	29.932
11216	14.98	5.2727	0.	27.356
11217	15.072	5.2727	5.e-002	4.8736
11218	15.072	5.	0.	32.958
11219	14.98	5.0909	0.	30.441
11220	15.072	5.0909	5.e-002	4.8528
11221	15.072	4.8182	0.	35.488
11222	14.98	4.9091	0.	33.075
11223	15.072	4.9091	5.e-002	4.8269
11224	15.072	4.6364	0.	37.53
11225	14.98	4.7273	0.	35.251
11226	15.072	4.7273	5.e-002	4.7978
11227	15.072	4.4545	0.	39.112
11228	14.98	4.5455	0.	36.985
11229	15.072	4.5455	5.e-002	4.7669
11230	15.072	4.2727	0.	40.279
11231	14.98	4.3636	0.	38.31
11232	15.072	4.3636	5.e-002	4.7353
11233	15.072	4.0909	0.	41.093
11234	14.98	4.1818	0.	39.275
11235	15.072	4.1818	5.e-002	4.7042
11236	15.072	3.9091	0.	41.62
11237	14.98	4.	0.	39.937
11238	15.072	4.	5.e-002	4.6748
11239	15.072	3.7273	0.	41.93
11240	14.98	3.8182	0.	40.361
11241	15.072	3.8182	5.e-002	4.6483
11242	15.072	3.5455	0.	42.091
11243	14.98	3.6364	0.	40.608
11244	15.072	3.6364	5.e-002	4.6257
11245	15.072	3.3636	0.	42.159
11246	14.98	3.4545	0.	40.737
11247	15.072	3.4545	5.e-002	4.6078
11248	15.072	3.1818	0.	42.181
11249	14.98	3.2727	0.	40.794
11250	15.072	3.2727	5.e-002	4.5954
11251	15.072	3.	0.	42.185
11252	14.98	3.0909	0.	40.814
11253	15.072	3.0909	5.e-002	4.5891
11254	15.072	2.8182	0.	42.181
11255	14.98	2.9091	0.	40.814
11256	15.072	2.9091	5.e-002	4.5891
11257	15.072	2.6364	0.	42.159
11258	14.98	2.7273	0.	40.794
11259	15.072	2.7273	5.e-002	4.5955
11260	15.072	2.4545	0.	42.091
11261	14.98	2.5455	0.	40.737
11262	15.072	2.5455	5.e-002	4.6078
11263	15.072	2.2727	0.	41.93
11264	14.98	2.3636	0.	40.608
11265	15.072	2.3636	5.e-002	4.6257
11266	15.072	2.0909	0.	41.62
11267	14.98	2.1818	0.	40.361
11268	15.072	2.1818	5.e-002	4.6483
11269	15.072	1.9091	0.	41.093
11270	14.98	2.	0.	39.937
11271	15.072	2.	5.e-002	4.6749
11272	15.072	1.7273	0.	40.279
11273	14.98	1.8182	0.	39.275
11274	15.072	1.8182	5.e-002	4.7042
11275	15.072	1.5455	0.	39.112
11276	14.98	1.6364	0.	38.31
11277	15.072	1.6364	5.e-002	4.7353
11278	15.072	1.3636	0.	37.53
11279	14.98	1.4545	0.	36.985
11280	15.072	1.4545	5.e-002	4.7669
11281	15.072	1.1818	0.	35.488
11282	14.98	1.2727	0.	35.251
11283	15.072	1.2727	5.e-002	4.7978
11284	15.072	1.	0.	32.958
11285	14.98	1.0909	0.	33.075
11286	15.072	1.0909	5.e-002	4.8269
11287	15.072	0.81818	0.	29.932
11288	14.98	0.90909	0.	30.441
11289	15.072	0.90909	5.e-002	4.8529
11290	15.072	0.63636	0.	26.433
11291	14.98	0.72727	0.	27.356
11292	15.072	0.72727	5.e-002	4.8737
11293	15.072	0.45455	0.	22.535
11294	14.98	0.54545	0.	23.856
11295	15.072	0.54545	5.e-002	4.8739
11296	15.072	0.27273	0.	18.912
11297	14.98	0.36364	0.	20.053
11298	15.072	0.36364	5.e-002	4.6335
11299	14.98	0.18182	0.	17.258
11300	15.072	0.18182	5.e-002	0.90267
11301	15.072	9.0909e-002	0.	11.096
11302	14.889	5.7273	0.	18.29
11303	14.797	5.8182	0.	16.95
11304	14.889	5.8182	5.e-002	0.78677
11305	14.889	5.9091	0.	10.949
11306	14.889	5.5455	0.	21.34
11307	14.797	5.6364	0.	19.165
11308	14.889	5.6364	5.e-002	4.6019
11309	14.889	5.3636	0.	24.751
11310	14.797	5.4545	0.	22.47
11311	14.889	5.4545	5.e-002	4.8508
11312	14.889	5.1818	0.	27.839
11313	14.797	5.2727	0.	25.542
11314	14.889	5.2727	5.e-002	4.8553
11315	14.889	5.	0.	30.535
11316	14.797	5.0909	0.	28.273
11317	14.889	5.0909	5.e-002	4.8398
11318	14.889	4.8182	0.	32.816
11319	14.797	4.9091	0.	30.628
11320	14.889	4.9091	5.e-002	4.82
11321	14.889	4.6364	0.	34.686
11322	14.797	4.7273	0.	32.598
11323	14.889	4.7273	5.e-002	4.7976
11324	14.889	4.4545	0.	36.164
11325	14.797	4.5455	0.	34.195
11326	14.889	4.5455	5.e-002	4.7736
11327	14.889	4.2727	0.	37.286
11328	14.797	4.3636	0.	35.442
11329	14.889	4.3636	5.e-002	4.7491
11330	14.889	4.0909	0.	38.1
11331	14.797	4.1818	0.	36.379
11332	14.889	4.1818	5.e-002	4.725
11333	14.889	3.9091	0.	38.659
11334	14.797	4.	0.	37.05
11335	14.889	4.	5.e-002	4.7021
11336	14.889	3.7273	0.	39.02
11337	14.797	3.8182	0.	37.507
11338	14.889	3.8182	5.e-002	4.6815
11339	14.889	3.5455	0.	39.236
11340	14.797	3.6364	0.	37.799
11341	14.889	3.6364	5.e-002	4.6639
11342	14.889	3.3636	0.	39.353
11343	14.797	3.4545	0.	37.972
11344	14.889	3.4545	5.e-002	4.6501
11345	14.889	3.1818	0.	39.408
11346	14.797	3.2727	0.	38.065
11347	14.889	3.2727	5.e-002	4.6405
11348	14.889	3.	0.	39.424
11349	14.797	3.0909	0.	38.104
11350	14.889	3.0909	5.e-002	4.6356
11351	14.889	2.8182	0.	39.408
11352	14.797	2.9091	0.	38.104
11353	14.889	2.9091	5.e-002	4.6356
11354	14.889	2.6364	0.	39.353
11355	14.797	2.7273	0.	38.065
11356	14.889	2.7273	5.e-002	4.6405
11357	14.889	2.4545	0.	39.236
11358	14.797	2.5455	0.	37.972
11359	14.889	2.5455	5.e-002	4.6501
11360	14.889	2.2727	0.	39.02
11361	14.797	2.3636	0.	37.799
11362	14.889	2.3636	5.e-002	4.664
11363	14.889	2.0909	0.	38.659
11364	14.797	2.1818	0.	37.507
11365	14.889	2.1818	5.e-002	4.6815
11366	14.889	1.9091	0.	38.1
11367	14.797	2.	0.	37.05
11368	14.889	2.	5.e-002	4.7022
11369	14.889	1.7273	0.	37.286
11370	14.797	1.8182	0.	36.379
11371	14.889	1.8182	5.e-002	4.725
11372	14.889	1.5455	0.	36.164
11373	14.797	1.6364	0.	35.442
11374	14.889	1.6364	5.e-002	4.7492
11375	14.889	1.3636	0.	34.686
11376	14.797	1.4545	0.	34.195
11377	14.889	1.4545	5.e-002	4.7737
11378	14.889	1.1818	0.	32.816
11379	14.797	1.2727	0.	32.598
11380	14.889	1.2727	5.e-002	4.7976
11381	14.889	1.	0.	30.535
11382	14.797	1.0909	0.	30.628
11383	14.889	1.0909	5.e-002	4.8201
11384	14.889	0.81818	0.	27.839
11385	14.797	0.90909	0.	28.273
11386	14.889	0.90909	5.e-002	4.8399
11387	14.889	0.63636	0.	24.751
11388	14.797	0.72727	0.	25.542
11389	14.889	0.72727	5.e-002	4.8554
11390	14.889	0.45455	0.	21.34
11391	14.797	0.54545	0.	22.47
11392	14.889	0.54545	5.e-002	4.8509
11393	14.889	0.27273	0.	18.29
11394	14.797	0.36364	0.	19.165
11395	14.889	0.36364	5.e-002	4.602
11396	14.797	0.18182	0.	16.95
11397	14.889	0.18182	5.e-002	0.78681
11398	14.889	9.0909e-002	0.	10.949
11399	14.705	5.7273	0.	17.717
11400	14.613	5.8182	0.	16.653
11401	14.705	5.8182	5.e-002	0.68826
11402	14.705	5.9091	0.	10.802
11403	14.705	5.5455	0.	20.261
11404	14.613	5.6364	0.	18.356
11405	14.705	5.6364	5.e-002	4.5798
11406	14.705	5.3636	0.	23.233
11407	14.613	5.4545	0.	21.216
11408	14.705	5.4545	5.e-002	4.8359
11409	14.705	5.1818	0.	25.95
11410	14.613	5.2727	0.	23.901
11411	14.705	5.2727	5.e-002	4.8441
11412	14.705	5.	0.	28.341
11413	14.613	5.0909	0.	26.307
11414	14.705	5.0909	5.e-002	4.8329
11415	14.705	4.8182	0.	30.387
11416	14.613	4.9091	0.	28.401
11417	14.705	4.9091	5.e-002	4.8178
11418	14.705	4.6364	0.	32.086
11419	14.613	4.7273	0.	30.174
11420	14.705	4.7273	5.e-002	4.8007
11421	14.705	4.4545	0.	33.453
11422	14.613	4.5455	0.	31.63
11423	14.705	4.5455	5.e-002	4.7823
11424	14.705	4.2727	0.	34.515
11425	14.613	4.3636	0.	32.79
11426	14.705	4.3636	5.e-002	4.7634
11427	14.705	4.0909	0.	35.309
11428	14.613	4.1818	0.	33.682
11429	14.705	4.1818	5.e-002	4.7447
11430	14.705	3.9091	0.	35.878
11431	14.613	4.	0.	34.341
11432	14.705	4.	5.e-002	4.727
11433	14.705	3.7273	0.	36.266
11434	14.613	3.8182	0.	34.809
11435	14.705	3.8182	5.e-002	4.711
11436	14.705	3.5455	0.	36.516
11437	14.613	3.6364	0.	35.125
11438	14.705	3.6364	5.e-002	4.6974
11439	14.705	3.3636	0.	36.664
11440	14.613	3.4545	0.	35.326
11441	14.705	3.4545	5.e-002	4.6867
11442	14.705	3.1818	0.	36.742
11443	14.613	3.2727	0.	35.441
11444	14.705	3.2727	5.e-002	4.6793
11445	14.705	3.	0.	36.765
11446	14.613	3.0909	0.	35.493
11447	14.705	3.0909	5.e-002	4.6755
11448	14.705	2.8182	0.	36.742
11449	14.613	2.9091	0.	35.493
11450	14.705	2.9091	5.e-002	4.6755
11451	14.705	2.6364	0.	36.664
11452	14.613	2.7273	0.	35.441
11453	14.705	2.7273	5.e-002	4.6793
11454	14.705	2.4545	0.	36.516
11455	14.613	2.5455	0.	35.326
11456	14.705	2.5455	5.e-002	4.6867
11457	14.705	2.2727	0.	36.266
11458	14.613	2.3636	0.	35.125
11459	14.705	2.3636	5.e-002	4.6975
11460	14.705	2.0909	0.	35.878
11461	14.613	2.1818	0.	34.809
11462	14.705	2.1818	5.e-002	4.7111
11463	14.705	1.9091	0.	35.309
11464	14.613	2.	0.	34.341
11465	14.705	2.	5.e-002	4.7271
11466	14.705	1.7273	0.	34.515
11467	14.613	1.8182	0.	33.682
11468	14.705	1.8182	5.e-002	4.7447
11469	14.705	1.5455	0.	33.453
11470	14.613	1.6364	0.	32.79
11471	14.705	1.6364	5.e-002	4.7634
11472	14.705	1.3636	0.	32.086
11473	14.613	1.4545	0.	31.63
11474	14.705	1.4545	5.e-002	4.7823
11475	14.705	1.1818	0.	30.387
11476	14.613	1.2727	0.	30.174
11477	14.705	1.2727	5.e-002	4.8008
11478	14.705	1.	0.	28.341
11479	14.613	1.0909	0.	28.401
11480	14.705	1.0909	5.e-002	4.8179
11481	14.705	0.81818	0.	25.95
11482	14.613	0.90909	0.	26.307
11483	14.705	0.90909	5.e-002	4.8329
11484	14.705	0.63636	0.	23.233
11485	14.613	0.72727	0.	23.901
11486	14.705	0.72727	5.e-002	4.8442
11487	14.705	0.45455	0.	20.261
11488	14.613	0.54545	0.	21.216
11489	14.705	0.54545	5.e-002	4.836
11490	14.705	0.27273	0.	17.717
11491	14.613	0.36364	0.	18.356
11492	14.705	0.36364	5.e-002	4.5799
11493	14.613	0.18182	0.	16.653
11494	14.705	0.18182	5.e-002	0.68831
11495	14.705	9.0909e-002	0.	10.802
11496	14.521	5.7273	0.	17.184
11497	14.429	5.8182	0.	16.364
11498	14.521	5.8182	5.e-002	0.6043
11499	14.521	5.9091	0.	10.656
11500	14.521	5.5455	0.	19.277
11501	14.429	5.6364	0.	17.612
11502	14.521	5.6364	5.e-002	4.5653
11503	14.521	5.3636	0.	21.856
11504	14.429	5.4545	0.	20.073
11505	14.521	5.4545	5.e-002	4.8276
11506	14.521	5.1818	0.	24.233
11507	14.429	5.2727	0.	22.407
11508	14.521	5.2727	5.e-002	4.8387
11509	14.521	5.	0.	26.343
11510	14.429	5.0909	0.	24.514
11511	14.521	5.0909	5.e-002	4.8308
11512	14.521	4.8182	0.	28.165
11513	14.429	4.9091	0.	26.363
11514	14.521	4.9091	5.e-002	4.8195
11515	14.521	4.6364	0.	29.696
11516	14.429	4.7273	0.	27.944
11517	14.521	4.7273	5.e-002	4.8066
11518	14.521	4.4545	0.	30.946
11519	14.429	4.5455	0.	29.259
11520	14.521	4.5455	5.e-002	4.7925
11521	14.521	4.2727	0.	31.936
11522	14.429	4.3636	0.	30.322
11523	14.521	4.3636	5.e-002	4.778
11524	14.521	4.0909	0.	32.694
11525	14.429	4.1818	0.	31.156
11526	14.521	4.1818	5.e-002	4.7636
11527	14.521	3.9091	0.	33.253
11528	14.429	4.	0.	31.788
11529	14.521	4.	5.e-002	4.7501
11530	14.521	3.7273	0.	33.649
11531	14.429	3.8182	0.	32.249
11532	14.521	3.8182	5.e-002	4.7377
11533	14.521	3.5455	0.	33.915
11534	14.429	3.6364	0.	32.572
11535	14.521	3.6364	5.e-002	4.7272
11536	14.521	3.3636	0.	34.082
11537	14.429	3.4545	0.	32.785
11538	14.521	3.4545	5.e-002	4.719
11539	14.521	3.1818	0.	34.172
11540	14.429	3.2727	0.	32.912
11541	14.521	3.2727	5.e-002	4.7133
11542	14.521	3.	0.	34.201
11543	14.429	3.0909	0.	32.971
11544	14.521	3.0909	5.e-002	4.7103
11545	14.521	2.8182	0.	34.172
11546	14.429	2.9091	0.	32.971
11547	14.521	2.9091	5.e-002	4.7103
11548	14.521	2.6364	0.	34.082
11549	14.429	2.7273	0.	32.912
11550	14.521	2.7273	5.e-002	4.7133
11551	14.521	2.4545	0.	33.915
11552	14.429	2.5455	0.	32.785
11553	14.521	2.5455	5.e-002	4.719
11554	14.521	2.2727	0.	33.649
11555	14.429	2.3636	0.	32.572
11556	14.521	2.3636	5.e-002	4.7273
11557	14.521	2.0909	0.	33.253
11558	14.429	2.1818	0.	32.249
11559	14.521	2.1818	5.e-002	4.7378
11560	14.521	1.9091	0.	32.694
11561	14.429	2.	0.	31.788
11562	14.521	2.	5.e-002	4.7501
11563	14.521	1.7273	0.	31.936
11564	14.429	1.8182	0.	31.156
11565	14.521	1.8182	5.e-002	4.7637
11566	14.521	1.5455	0.	30.946
11567	14.429	1.6364	0.	30.323
11568	14.521	1.6364	5.e-002	4.778
11569	14.521	1.3636	0.	29.696
11570	14.429	1.4545	0.	29.259
11571	14.521	1.4545	5.e-002	4.7926
11572	14.521	1.1818	0.	28.165
11573	14.429	1.2727	0.	27.944
11574	14.521	1.2727	5.e-002	4.8066
11575	14.521	1.	0.	26.343
11576	14.429	1.0909	0.	26.363
11577	14.521	1.0909	5.e-002	4.8196
11578	14.521	0.81818	0.	24.233
11579	14.429	0.90909	0.	24.514
11580	14.521	0.90909	5.e-002	4.8308
11581	14.521	0.63636	0.	21.856
11582	14.429	0.72727	0.	22.407
11583	14.521	0.72727	5.e-002	4.8387
11584	14.521	0.45455	0.	19.278
11585	14.429	0.54545	0.	20.073
11586	14.521	0.54545	5.e-002	4.8276
11587	14.521	0.27273	0.	17.184
11588	14.429	0.36364	0.	17.612
11589	14.521	0.36364	5.e-002	4.5653
11590	14.429	0.18182	0.	16.364
11591	14.521	0.18182	5.e-002	0.60433
11592	14.521	9.0909e-002	0.	10.656
11593	14.337	5.7273	0.	16.684
11594	14.245	5.8182	0.	16.079
11595	14.337	5.8182	5.e-002	0.53257
11596	14.337	5.9091	0.	10.508
11597	14.337	5.5455	0.	18.375
11598	14.245	5.6364	0.	16.923
11599	14.337	5.6364	5.e-002	4.557
11600	14.337	5.3636	0.	20.596
11601	14.245	5.4545	0.	19.022
11602	14.337	5.4545	5.e-002	4.8246
11603	14.337	5.1818	0.	22.662
11604	14.245	5.2727	0.	21.036
11605	14.337	5.2727	5.e-002	4.838
11606	14.337	5.	0.	24.509
11607	14.245	5.0909	0.	22.866
11608	14.337	5.0909	5.e-002	4.8327
11609	14.337	4.8182	0.	26.118
11610	14.245	4.9091	0.	24.483
11611	14.337	4.9091	5.e-002	4.8245
11612	14.337	4.6364	0.	27.484
11613	14.245	4.7273	0.	25.879
11614	14.337	4.7273	5.e-002	4.8148
11615	14.337	4.4545	0.	28.614
11616	14.245	4.5455	0.	27.053
11617	14.337	4.5455	5.e-002	4.8042
11618	14.337	4.2727	0.	29.522
11619	14.245	4.3636	0.	28.014
11620	14.337	4.3636	5.e-002	4.7931
11621	14.337	4.0909	0.	30.23
11622	14.245	4.1818	0.	28.778
11623	14.337	4.1818	5.e-002	4.7822
11624	14.337	3.9091	0.	30.764
11625	14.245	4.	0.	29.369
11626	14.337	4.	5.e-002	4.7718
11627	14.337	3.7273	0.	31.152
11628	14.245	3.8182	0.	29.809
11629	14.337	3.8182	5.e-002	4.7624
11630	14.337	3.5455	0.	31.421
11631	14.245	3.6364	0.	30.125
11632	14.337	3.6364	5.e-002	4.7543
11633	14.337	3.3636	0.	31.595
11634	14.245	3.4545	0.	30.339
11635	14.337	3.4545	5.e-002	4.748
11636	14.337	3.1818	0.	31.691
11637	14.245	3.2727	0.	30.469
11638	14.337	3.2727	5.e-002	4.7436
11639	14.337	3.	0.	31.722
11640	14.245	3.0909	0.	30.531
11641	14.337	3.0909	5.e-002	4.7414
11642	14.337	2.8182	0.	31.691
11643	14.245	2.9091	0.	30.531
11644	14.337	2.9091	5.e-002	4.7414
11645	14.337	2.6364	0.	31.595
11646	14.245	2.7273	0.	30.469
11647	14.337	2.7273	5.e-002	4.7436
11648	14.337	2.4545	0.	31.421
11649	14.245	2.5455	0.	30.339
11650	14.337	2.5455	5.e-002	4.748
11651	14.337	2.2727	0.	31.152
11652	14.245	2.3636	0.	30.125
11653	14.337	2.3636	5.e-002	4.7543
11654	14.337	2.0909	0.	30.764
11655	14.245	2.1818	0.	29.809
11656	14.337	2.1818	5.e-002	4.7624
11657	14.337	1.9091	0.	30.23
11658	14.245	2.	0.	29.369
11659	14.337	2.	5.e-002	4.7718
11660	14.337	1.7273	0.	29.522
11661	14.245	1.8182	0.	28.778
11662	14.337	1.8182	5.e-002	4.7822
11663	14.337	1.5455	0.	28.614
11664	14.245	1.6364	0.	28.014
11665	14.337	1.6364	5.e-002	4.7932
11666	14.337	1.3636	0.	27.484
11667	14.245	1.4545	0.	27.053
11668	14.337	1.4545	5.e-002	4.8042
11669	14.337	1.1818	0.	26.118
11670	14.245	1.2727	0.	25.879
11671	14.337	1.2727	5.e-002	4.8148
11672	14.337	1.	0.	24.509
11673	14.245	1.0909	0.	24.483
11674	14.337	1.0909	5.e-002	4.8245
11675	14.337	0.81818	0.	22.662
11676	14.245	0.90909	0.	22.866
11677	14.337	0.90909	5.e-002	4.8328
11678	14.337	0.63636	0.	20.596
11679	14.245	0.72727	0.	21.036
11680	14.337	0.72727	5.e-002	4.8381
11681	14.337	0.45455	0.	18.375
11682	14.245	0.54545	0.	19.022
11683	14.337	0.54545	5.e-002	4.8246
11684	14.337	0.27273	0.	16.684
11685	14.245	0.36364	0.	16.923
11686	14.337	0.36364	5.e-002	4.5571
11687	14.245	0.18182	0.	16.079
11688	14.337	0.18182	5.e-002	0.53261
11689	14.337	9.0909e-002	0.	10.508
11690	14.153	5.7273	0.	16.211
11691	14.061	5.8182	0.	15.796
11692	14.153	5.8182	5.e-002	0.47108
11693	14.153	5.9091	0.	10.358
11694	14.153	5.5455	0.	17.538
11695	14.061	5.6364	0.	16.278
11696	14.153	5.6364	5.e-002	4.5538
11697	14.153	5.3636	0.	19.435
11698	14.061	5.4545	0.	18.049
11699	14.153	5.4545	5.e-002	4.8259
11700	14.153	5.1818	0.	21.214
11701	14.061	5.2727	0.	19.768
11702	14.153	5.2727	5.e-002	4.8411
11703	14.153	5.	0.	22.815
11704	14.061	5.0909	0.	21.339
11705	14.153	5.0909	5.e-002	4.8378
11706	14.153	4.8182	0.	24.221
11707	14.061	4.9091	0.	22.738
11708	14.153	4.9091	5.e-002	4.832
11709	14.153	4.6364	0.	25.425
11710	14.061	4.7273	0.	23.955
11711	14.153	4.7273	5.e-002	4.8249
11712	14.153	4.4545	0.	26.431
11713	14.061	4.5455	0.	24.986
11714	14.153	4.5455	5.e-002	4.817
11715	14.153	4.2727	0.	27.249
11716	14.061	4.3636	0.	25.84
11717	14.153	4.3636	5.e-002	4.8087
11718	14.153	4.0909	0.	27.897
11719	14.061	4.1818	0.	26.527
11720	14.153	4.1818	5.e-002	4.8005
11721	14.153	3.9091	0.	28.393
11722	14.061	4.	0.	27.065
11723	14.153	4.	5.e-002	4.7926
11724	14.153	3.7273	0.	28.762
11725	14.061	3.8182	0.	27.473
11726	14.153	3.8182	5.e-002	4.7854
11727	14.153	3.5455	0.	29.022
11728	14.061	3.6364	0.	27.771
11729	14.153	3.6364	5.e-002	4.7793
11730	14.153	3.3636	0.	29.193
11731	14.061	3.4545	0.	27.975
11732	14.153	3.4545	5.e-002	4.7745
11733	14.153	3.1818	0.	29.289
11734	14.061	3.2727	0.	28.103
11735	14.153	3.2727	5.e-002	4.7711
11736	14.153	3.	0.	29.32
11737	14.061	3.0909	0.	28.164
11738	14.153	3.0909	5.e-002	4.7694
11739	14.153	2.8182	0.	29.289
11740	14.061	2.9091	0.	28.164
11741	14.153	2.9091	5.e-002	4.7694
11742	14.153	2.6364	0.	29.193
11743	14.061	2.7273	0.	28.103
11744	14.153	2.7273	5.e-002	4.7712
11745	14.153	2.4545	0.	29.022
11746	14.061	2.5455	0.	27.975
11747	14.153	2.5455	5.e-002	4.7745
11748	14.153	2.2727	0.	28.762
11749	14.061	2.3636	0.	27.771
11750	14.153	2.3636	5.e-002	4.7793
11751	14.153	2.0909	0.	28.394
11752	14.061	2.1818	0.	27.473
11753	14.153	2.1818	5.e-002	4.7855
11754	14.153	1.9091	0.	27.897
11755	14.061	2.	0.	27.065
11756	14.153	2.	5.e-002	4.7926
11757	14.153	1.7273	0.	27.249
11758	14.061	1.8182	0.	26.527
11759	14.153	1.8182	5.e-002	4.8005
11760	14.153	1.5455	0.	26.431
11761	14.061	1.6364	0.	25.84
11762	14.153	1.6364	5.e-002	4.8088
11763	14.153	1.3636	0.	25.425
11764	14.061	1.4545	0.	24.986
11765	14.153	1.4545	5.e-002	4.817
11766	14.153	1.1818	0.	24.221
11767	14.061	1.2727	0.	23.955
11768	14.153	1.2727	5.e-002	4.825
11769	14.153	1.	0.	22.815
11770	14.061	1.0909	0.	22.738
11771	14.153	1.0909	5.e-002	4.832
11772	14.153	0.81818	0.	21.214
11773	14.061	0.90909	0.	21.339
11774	14.153	0.90909	5.e-002	4.8379
11775	14.153	0.63636	0.	19.435
11776	14.061	0.72727	0.	19.768
11777	14.153	0.72727	5.e-002	4.8412
11778	14.153	0.45455	0.	17.538
11779	14.061	0.54545	0.	18.049
11780	14.153	0.54545	5.e-002	4.826
11781	14.153	0.27273	0.	16.211
11782	14.061	0.36364	0.	16.278
11783	14.153	0.36364	5.e-002	4.5538
11784	14.061	0.18182	0.	15.797
11785	14.153	0.18182	5.e-002	0.47112
11786	14.153	9.0909e-002	0.	10.358
11787	13.97	5.7273	0.	15.758
11788	13.878	5.8182	0.	15.514
11789	13.97	5.8182	5.e-002	0.41822
11790	13.97	5.9091	0.	10.206
11791	13.97	5.5455	0.	16.757
11792	13.878	5.6364	0.	15.668
11793	13.97	5.6364	5.e-002	4.5546
11794	13.97	5.3636	0.	18.355
11795	13.878	5.4545	0.	17.138
11796	13.97	5.4545	5.e-002	4.8307
11797	13.97	5.1818	0.	19.868
11798	13.878	5.2727	0.	18.585
11799	13.97	5.2727	5.e-002	4.8474
11800	13.97	5.	0.	21.238
11801	13.878	5.0909	0.	19.915
11802	13.97	5.0909	5.e-002	4.8457
11803	13.97	4.8182	0.	22.449
11804	13.878	4.9091	0.	21.105
11805	13.97	4.9091	5.e-002	4.8417
11806	13.97	4.6364	0.	23.493
11807	13.878	4.7273	0.	22.147
11808	13.97	4.7273	5.e-002	4.8366
11809	13.97	4.4545	0.	24.373
11810	13.878	4.5455	0.	23.037
11811	13.97	4.5455	5.e-002	4.8309
11812	13.97	4.2727	0.	25.096
11813	13.878	4.3636	0.	23.779
11814	13.97	4.3636	5.e-002	4.8248
11815	13.97	4.0909	0.	25.675
11816	13.878	4.1818	0.	24.383
11817	13.97	4.1818	5.e-002	4.8187
11818	13.97	3.9091	0.	26.124
11819	13.878	4.	0.	24.86
11820	13.97	4.	5.e-002	4.8128
11821	13.97	3.7273	0.	26.462
11822	13.878	3.8182	0.	25.226
11823	13.97	3.8182	5.e-002	4.8074
11824	13.97	3.5455	0.	26.704
11825	13.878	3.6364	0.	25.496
11826	13.97	3.6364	5.e-002	4.8028
11827	13.97	3.3636	0.	26.865
11828	13.878	3.4545	0.	25.684
11829	13.97	3.4545	5.e-002	4.7991
11830	13.97	3.1818	0.	26.957
11831	13.878	3.2727	0.	25.802
11832	13.97	3.2727	5.e-002	4.7966
11833	13.97	3.	0.	26.986
11834	13.878	3.0909	0.	25.859
11835	13.97	3.0909	5.e-002	4.7953
11836	13.97	2.8182	0.	26.957
11837	13.878	2.9091	0.	25.859
11838	13.97	2.9091	5.e-002	4.7953
11839	13.97	2.6364	0.	26.865
11840	13.878	2.7273	0.	25.802
11841	13.97	2.7273	5.e-002	4.7966
11842	13.97	2.4545	0.	26.704
11843	13.878	2.5455	0.	25.684
11844	13.97	2.5455	5.e-002	4.7991
11845	13.97	2.2727	0.	26.462
11846	13.878	2.3636	0.	25.496
11847	13.97	2.3636	5.e-002	4.8028
11848	13.97	2.0909	0.	26.124
11849	13.878	2.1818	0.	25.226
11850	13.97	2.1818	5.e-002	4.8074
11851	13.97	1.9091	0.	25.675
11852	13.878	2.	0.	24.86
11853	13.97	2.	5.e-002	4.8128
11854	13.97	1.7273	0.	25.096
11855	13.878	1.8182	0.	24.383
11856	13.97	1.8182	5.e-002	4.8187
11857	13.97	1.5455	0.	24.373
11858	13.878	1.6364	0.	23.779
11859	13.97	1.6364	5.e-002	4.8248
11860	13.97	1.3636	0.	23.493
11861	13.878	1.4545	0.	23.037
11862	13.97	1.4545	5.e-002	4.8309
11863	13.97	1.1818	0.	22.449
11864	13.878	1.2727	0.	22.147
11865	13.97	1.2727	5.e-002	4.8367
11866	13.97	1.	0.	21.238
11867	13.878	1.0909	0.	21.105
11868	13.97	1.0909	5.e-002	4.8417
11869	13.97	0.81818	0.	19.868
11870	13.878	0.90909	0.	19.915
11871	13.97	0.90909	5.e-002	4.8458
11872	13.97	0.63636	0.	18.355
11873	13.878	0.72727	0.	18.585
11874	13.97	0.72727	5.e-002	4.8474
11875	13.97	0.45455	0.	16.757
11876	13.878	0.54545	0.	17.138
11877	13.97	0.54545	5.e-002	4.8308
11878	13.97	0.27273	0.	15.758
11879	13.878	0.36364	0.	15.669
11880	13.97	0.36364	5.e-002	4.5546
11881	13.878	0.18182	0.	15.515
11882	13.97	0.18182	5.e-002	0.41825
11883	13.97	9.0909e-002	0.	10.206
11884	13.786	5.7273	0.	15.32
11885	13.694	5.8182	0.	15.231
11886	13.786	5.8182	5.e-002	0.37269
11887	13.786	5.9091	0.	10.05
11888	13.786	5.5455	0.	16.019
11889	13.694	5.6364	0.	15.087
11890	13.786	5.6364	5.e-002	4.5588
11891	13.786	5.3636	0.	17.342
11892	13.694	5.4545	0.	16.279
11893	13.786	5.4545	5.e-002	4.8384
11894	13.786	5.1818	0.	18.606
11895	13.694	5.2727	0.	17.471
11896	13.786	5.2727	5.e-002	4.8562
11897	13.786	5.	0.	19.757
11898	13.694	5.0909	0.	18.573
11899	13.786	5.0909	5.e-002	4.8558
11900	13.786	4.8182	0.	20.78
11901	13.694	4.9091	0.	19.564
11902	13.786	4.9091	5.e-002	4.8532
11903	13.786	4.6364	0.	21.668
11904	13.694	4.7273	0.	20.436
11905	13.786	4.7273	5.e-002	4.8497
11906	13.786	4.4545	0.	22.421
11907	13.694	4.5455	0.	21.185
11908	13.786	4.5455	5.e-002	4.8457
11909	13.786	4.2727	0.	23.044
11910	13.694	4.3636	0.	21.813
11911	13.786	4.3636	5.e-002	4.8413
11912	13.786	4.0909	0.	23.547
11913	13.694	4.1818	0.	22.327
11914	13.786	4.1818	5.e-002	4.8369
11915	13.786	3.9091	0.	23.941
11916	13.694	4.	0.	22.737
11917	13.786	4.	5.e-002	4.8325
11918	13.786	3.7273	0.	24.24
11919	13.694	3.8182	0.	23.054
11920	13.786	3.8182	5.e-002	4.8286
11921	13.786	3.5455	0.	24.456
11922	13.694	3.6364	0.	23.289
11923	13.786	3.6364	5.e-002	4.8251
11924	13.786	3.3636	0.	24.601
11925	13.694	3.4545	0.	23.454
11926	13.786	3.4545	5.e-002	4.8225
11927	13.786	3.1818	0.	24.684
11928	13.694	3.2727	0.	23.558
11929	13.786	3.2727	5.e-002	4.8206
11930	13.786	3.	0.	24.711
11931	13.694	3.0909	0.	23.608
11932	13.786	3.0909	5.e-002	4.8196
11933	13.786	2.8182	0.	24.684
11934	13.694	2.9091	0.	23.608
11935	13.786	2.9091	5.e-002	4.8196
11936	13.786	2.6364	0.	24.601
11937	13.694	2.7273	0.	23.558
11938	13.786	2.7273	5.e-002	4.8206
11939	13.786	2.4545	0.	24.456
11940	13.694	2.5455	0.	23.454
11941	13.786	2.5455	5.e-002	4.8225
11942	13.786	2.2727	0.	24.24
11943	13.694	2.3636	0.	23.289
11944	13.786	2.3636	5.e-002	4.8252
11945	13.786	2.0909	0.	23.941
11946	13.694	2.1818	0.	23.054
11947	13.786	2.1818	5.e-002	4.8286
11948	13.786	1.9091	0.	23.547
11949	13.694	2.	0.	22.737
11950	13.786	2.	5.e-002	4.8326
11951	13.786	1.7273	0.	23.044
11952	13.694	1.8182	0.	22.327
11953	13.786	1.8182	5.e-002	4.8369
11954	13.786	1.5455	0.	22.421
11955	13.694	1.6364	0.	21.813
11956	13.786	1.6364	5.e-002	4.8414
11957	13.786	1.3636	0.	21.668
11958	13.694	1.4545	0.	21.185
11959	13.786	1.4545	5.e-002	4.8457
11960	13.786	1.1818	0.	20.78
11961	13.694	1.2727	0.	20.436
11962	13.786	1.2727	5.e-002	4.8498
11963	13.786	1.	0.	19.757
11964	13.694	1.0909	0.	19.564
11965	13.786	1.0909	5.e-002	4.8533
11966	13.786	0.81818	0.	18.606
11967	13.694	0.90909	0.	18.573
11968	13.786	0.90909	5.e-002	4.8559
11969	13.786	0.63636	0.	17.342
11970	13.694	0.72727	0.	17.471
11971	13.786	0.72727	5.e-002	4.8563
11972	13.786	0.45455	0.	16.019
11973	13.694	0.54545	0.	16.279
11974	13.786	0.54545	5.e-002	4.8385
11975	13.786	0.27273	0.	15.32
11976	13.694	0.36364	0.	15.087
11977	13.786	0.36364	5.e-002	4.5588
11978	13.694	0.18182	0.	15.231
11979	13.786	0.18182	5.e-002	0.37272
11980	13.786	9.0909e-002	0.	10.05
11981	13.602	5.7273	0.	14.894
11982	13.51	5.8182	0.	14.945
11983	13.602	5.8182	5.e-002	0.33341
11984	13.602	5.9091	0.	9.891
11985	13.602	5.5455	0.	15.317
11986	13.51	5.6364	0.	14.528
11987	13.602	5.6364	5.e-002	4.5658
11988	13.602	5.3636	0.	16.382
11989	13.51	5.4545	0.	15.461
11990	13.602	5.4545	5.e-002	4.8485
11991	13.602	5.1818	0.	17.413
11992	13.51	5.2727	0.	16.413
11993	13.602	5.2727	5.e-002	4.8672
11994	13.602	5.	0.	18.356
11995	13.51	5.0909	0.	17.299
11996	13.602	5.0909	5.e-002	4.8678
11997	13.602	4.8182	0.	19.197
11998	13.51	4.9091	0.	18.098
11999	13.602	4.9091	5.e-002	4.8664
12000	13.602	4.6364	0.	19.93
12001	13.51	4.7273	0.	18.804
12002	13.602	4.7273	5.e-002	4.8641
12003	13.602	4.4545	0.	20.555
12004	13.51	4.5455	0.	19.412
12005	13.602	4.5455	5.e-002	4.8614
12006	13.602	4.2727	0.	21.075
12007	13.51	4.3636	0.	19.924
12008	13.602	4.3636	5.e-002	4.8584
12009	13.602	4.0909	0.	21.496
12010	13.51	4.1818	0.	20.345
12011	13.602	4.1818	5.e-002	4.8552
12012	13.602	3.9091	0.	21.829
12013	13.51	4.	0.	20.681
12014	13.602	4.	5.e-002	4.8522
12015	13.602	3.7273	0.	22.082
12016	13.51	3.8182	0.	20.942
12017	13.602	3.8182	5.e-002	4.8493
12018	13.602	3.5455	0.	22.266
12019	13.51	3.6364	0.	21.136
12020	13.602	3.6364	5.e-002	4.8468
12021	13.602	3.3636	0.	22.39
12022	13.51	3.4545	0.	21.273
12023	13.602	3.4545	5.e-002	4.8448
12024	13.602	3.1818	0.	22.462
12025	13.51	3.2727	0.	21.36
12026	13.602	3.2727	5.e-002	4.8435
12027	13.602	3.	0.	22.485
12028	13.51	3.0909	0.	21.402
12029	13.602	3.0909	5.e-002	4.8428
12030	13.602	2.8182	0.	22.462
12031	13.51	2.9091	0.	21.402
12032	13.602	2.9091	5.e-002	4.8428
12033	13.602	2.6364	0.	22.39
12034	13.51	2.7273	0.	21.36
12035	13.602	2.7273	5.e-002	4.8435
12036	13.602	2.4545	0.	22.266
12037	13.51	2.5455	0.	21.273
12038	13.602	2.5455	5.e-002	4.8449
12039	13.602	2.2727	0.	22.082
12040	13.51	2.3636	0.	21.136
12041	13.602	2.3636	5.e-002	4.8468
12042	13.602	2.0909	0.	21.829
12043	13.51	2.1818	0.	20.942
12044	13.602	2.1818	5.e-002	4.8493
12045	13.602	1.9091	0.	21.496
12046	13.51	2.	0.	20.681
12047	13.602	2.	5.e-002	4.8522
12048	13.602	1.7273	0.	21.075
12049	13.51	1.8182	0.	20.345
12050	13.602	1.8182	5.e-002	4.8553
12051	13.602	1.5455	0.	20.555
12052	13.51	1.6364	0.	19.924
12053	13.602	1.6364	5.e-002	4.8585
12054	13.602	1.3636	0.	19.93
12055	13.51	1.4545	0.	19.412
12056	13.602	1.4545	5.e-002	4.8615
12057	13.602	1.1818	0.	19.197
12058	13.51	1.2727	0.	18.804
12059	13.602	1.2727	5.e-002	4.8642
12060	13.602	1.	0.	18.356
12061	13.51	1.0909	0.	18.098
12062	13.602	1.0909	5.e-002	4.8664
12063	13.602	0.81818	0.	17.413
12064	13.51	0.90909	0.	17.299
12065	13.602	0.90909	5.e-002	4.8679
12066	13.602	0.63636	0.	16.382
12067	13.51	0.72727	0.	16.413
12068	13.602	0.72727	5.e-002	4.8673
12069	13.602	0.45455	0.	15.317
12070	13.51	0.54545	0.	15.461
12071	13.602	0.54545	5.e-002	4.8486
12072	13.602	0.27273	0.	14.894
12073	13.51	0.36364	0.	14.528
12074	13.602	0.36364	5.e-002	4.5659
12075	13.51	0.18182	0.	14.945
12076	13.602	0.18182	5.e-002	0.33345
12077	13.602	9.0909e-002	0.	9.8911
12078	13.418	5.7273	0.	14.475
12079	13.326	5.8182	0.	14.655
12080	13.418	5.8182	5.e-002	0.29954
12081	13.418	5.9091	0.	9.7276
12082	13.418	5.5455	0.	14.641
12083	13.326	5.6364	0.	13.984
12084	13.418	5.6364	5.e-002	4.5752
12085	13.418	5.3636	0.	15.465
12086	13.326	5.4545	0.	14.673
12087	13.418	5.4545	5.e-002	4.8606
12088	13.418	5.1818	0.	16.274
12089	13.326	5.2727	0.	15.399
12090	13.418	5.2727	5.e-002	4.8801
12091	13.418	5.	0.	17.017
12092	13.326	5.0909	0.	16.078
12093	13.418	5.0909	5.e-002	4.8814
12094	13.418	4.8182	0.	17.682
12095	13.326	4.9091	0.	16.692
12096	13.418	4.9091	5.e-002	4.8808
12097	13.418	4.6364	0.	18.263
12098	13.326	4.7273	0.	17.235
12099	13.418	4.7273	5.e-002	4.8797
12100	13.418	4.4545	0.	18.759
12101	13.326	4.5455	0.	17.703
12102	13.418	4.5455	5.e-002	4.878
12103	13.418	4.2727	0.	19.173
12104	13.326	4.3636	0.	18.097
12105	13.418	4.3636	5.e-002	4.876
12106	13.418	4.0909	0.	19.508
12107	13.326	4.1818	0.	18.42
12108	13.418	4.1818	5.e-002	4.8739
12109	13.418	3.9091	0.	19.773
12110	13.326	4.	0.	18.678
12111	13.418	4.	5.e-002	4.8718
12112	13.418	3.7273	0.	19.975
12113	13.326	3.8182	0.	18.878
12114	13.418	3.8182	5.e-002	4.8698
12115	13.418	3.5455	0.	20.123
12116	13.326	3.6364	0.	19.027
12117	13.418	3.6364	5.e-002	4.8681
12118	13.418	3.3636	0.	20.222
12119	13.326	3.4545	0.	19.131
12120	13.418	3.4545	5.e-002	4.8667
12121	13.418	3.1818	0.	20.279
12122	13.326	3.2727	0.	19.197
12123	13.418	3.2727	5.e-002	4.8657
12124	13.418	3.	0.	20.298
12125	13.326	3.0909	0.	19.229
12126	13.418	3.0909	5.e-002	4.8652
12127	13.418	2.8182	0.	20.279
12128	13.326	2.9091	0.	19.229
12129	13.418	2.9091	5.e-002	4.8652
12130	13.418	2.6364	0.	20.222
12131	13.326	2.7273	0.	19.197
12132	13.418	2.7273	5.e-002	4.8657
12133	13.418	2.4545	0.	20.123
12134	13.326	2.5455	0.	19.131
12135	13.418	2.5455	5.e-002	4.8667
12136	13.418	2.2727	0.	19.975
12137	13.326	2.3636	0.	19.027
12138	13.418	2.3636	5.e-002	4.8681
12139	13.418	2.0909	0.	19.773
12140	13.326	2.1818	0.	18.878
12141	13.418	2.1818	5.e-002	4.8698
12142	13.418	1.9091	0.	19.508
12143	13.326	2.	0.	18.678
12144	13.418	2.	5.e-002	4.8718
12145	13.418	1.7273	0.	19.173
12146	13.326	1.8182	0.	18.42
12147	13.418	1.8182	5.e-002	4.8739
12148	13.418	1.5455	0.	18.759
12149	13.326	1.6364	0.	18.097
12150	13.418	1.6364	5.e-002	4.876
12151	13.418	1.3636	0.	18.263
12152	13.326	1.4545	0.	17.703
12153	13.418	1.4545	5.e-002	4.878
12154	13.418	1.1818	0.	17.682
12155	13.326	1.2727	0.	17.235
12156	13.418	1.2727	5.e-002	4.8797
12157	13.418	1.	0.	17.017
12158	13.326	1.0909	0.	16.692
12159	13.418	1.0909	5.e-002	4.8809
12160	13.418	0.81818	0.	16.274
12161	13.326	0.90909	0.	16.078
12162	13.418	0.90909	5.e-002	4.8815
12163	13.418	0.63636	0.	15.466
12164	13.326	0.72727	0.	15.399
12165	13.418	0.72727	5.e-002	4.8801
12166	13.418	0.45455	0.	14.642
12167	13.326	0.54545	0.	14.673
12168	13.418	0.54545	5.e-002	4.8607
12169	13.418	0.27273	0.	14.475
12170	13.326	0.36364	0.	13.984
12171	13.418	0.36364	5.e-002	4.5753
12172	13.326	0.18182	0.	14.655
12173	13.418	0.18182	5.e-002	0.29959
12174	13.418	9.0909e-002	0.	9.7276
12175	13.234	5.7273	0.	14.061
12176	13.142	5.8182	0.	14.358
12177	13.234	5.8182	5.e-002	0.27036
12178	13.234	5.9091	0.	9.5594
12179	13.234	5.5455	0.	13.986
12180	13.142	5.6364	0.	13.451
12181	13.234	5.6364	5.e-002	4.5866
12182	13.234	5.3636	0.	14.581
12183	13.142	5.4545	0.	13.909
12184	13.234	5.4545	5.e-002	4.8743
12185	13.234	5.1818	0.	15.178
12186	13.142	5.2727	0.	14.418
12187	13.234	5.2727	5.e-002	4.8944
12188	13.234	5.	0.	15.728
12189	13.142	5.0909	0.	14.897
12190	13.234	5.0909	5.e-002	4.8963
12191	13.234	4.8182	0.	16.221
12192	13.142	4.9091	0.	15.331
12193	13.234	4.9091	5.e-002	4.8965
12194	13.234	4.6364	0.	16.651
12195	13.142	4.7273	0.	15.713
12196	13.234	4.7273	5.e-002	4.896
12197	13.234	4.4545	0.	17.018
12198	13.142	4.5455	0.	16.041
12199	13.234	4.5455	5.e-002	4.8952
12200	13.234	4.2727	0.	17.323
12201	13.142	4.3636	0.	16.316
12202	13.234	4.3636	5.e-002	4.8941
12203	13.234	4.0909	0.	17.569
12204	13.142	4.1818	0.	16.539
12205	13.234	4.1818	5.e-002	4.8928
12206	13.234	3.9091	0.	17.762
12207	13.142	4.	0.	16.715
12208	13.234	4.	5.e-002	4.8914
12209	13.234	3.7273	0.	17.908
12210	13.142	3.8182	0.	16.849
12211	13.234	3.8182	5.e-002	4.8901
12212	13.234	3.5455	0.	18.014
12213	13.142	3.6364	0.	16.948
12214	13.234	3.6364	5.e-002	4.889
12215	13.234	3.3636	0.	18.085
12216	13.142	3.4545	0.	17.016
12217	13.234	3.4545	5.e-002	4.8881
12218	13.234	3.1818	0.	18.126
12219	13.142	3.2727	0.	17.059
12220	13.234	3.2727	5.e-002	4.8874
12221	13.234	3.	0.	18.139
12222	13.142	3.0909	0.	17.079
12223	13.234	3.0909	5.e-002	4.8871
12224	13.234	2.8182	0.	18.126
12225	13.142	2.9091	0.	17.079
12226	13.234	2.9091	5.e-002	4.8871
12227	13.234	2.6364	0.	18.085
12228	13.142	2.7273	0.	17.059
12229	13.234	2.7273	5.e-002	4.8874
12230	13.234	2.4545	0.	18.014
12231	13.142	2.5455	0.	17.016
12232	13.234	2.5455	5.e-002	4.8881
12233	13.234	2.2727	0.	17.908
12234	13.142	2.3636	0.	16.948
12235	13.234	2.3636	5.e-002	4.889
12236	13.234	2.0909	0.	17.762
12237	13.142	2.1818	0.	16.849
12238	13.234	2.1818	5.e-002	4.8902
12239	13.234	1.9091	0.	17.569
12240	13.142	2.	0.	16.715
12241	13.234	2.	5.e-002	4.8915
12242	13.234	1.7273	0.	17.323
12243	13.142	1.8182	0.	16.539
12244	13.234	1.8182	5.e-002	4.8928
12245	13.234	1.5455	0.	17.018
12246	13.142	1.6364	0.	16.316
12247	13.234	1.6364	5.e-002	4.8941
12248	13.234	1.3636	0.	16.651
12249	13.142	1.4545	0.	16.041
12250	13.234	1.4545	5.e-002	4.8952
12251	13.234	1.1818	0.	16.221
12252	13.142	1.2727	0.	15.713
12253	13.234	1.2727	5.e-002	4.8961
12254	13.234	1.	0.	15.728
12255	13.142	1.0909	0.	15.331
12256	13.234	1.0909	5.e-002	4.8965
12257	13.234	0.81818	0.	15.178
12258	13.142	0.90909	0.	14.897
12259	13.234	0.90909	5.e-002	4.8964
12260	13.234	0.63636	0.	14.581
12261	13.142	0.72727	0.	14.418
12262	13.234	0.72727	5.e-002	4.8944
12263	13.234	0.45455	0.	13.986
12264	13.142	0.54545	0.	13.909
12265	13.234	0.54545	5.e-002	4.8744
12266	13.234	0.27273	0.	14.061
12267	13.142	0.36364	0.	13.451
12268	13.234	0.36364	5.e-002	4.5866
12269	13.142	0.18182	0.	14.358
12270	13.234	0.18182	5.e-002	0.2704
12271	13.234	9.0909e-002	0.	9.5595
12272	13.05	5.7273	0.	13.647
12273	12.959	5.8182	0.	14.055
12274	13.05	5.8182	5.e-002	0.24541
12275	13.05	5.9091	0.	9.386
12276	13.05	5.5455	0.	13.344
12277	12.959	5.6364	0.	12.924
12278	13.05	5.6364	5.e-002	4.5995
12279	13.05	5.3636	0.	13.72
12280	12.959	5.4545	0.	13.16
12281	13.05	5.4545	5.e-002	4.8893
12282	13.05	5.1818	0.	14.113
12283	12.959	5.2727	0.	13.46
12284	13.05	5.2727	5.e-002	4.9099
12285	13.05	5.	0.	14.476
12286	12.959	5.0909	0.	13.745
12287	13.05	5.0909	5.e-002	4.9123
12288	13.05	4.8182	0.	14.799
12289	12.959	4.9091	0.	14.002
12290	13.05	4.9091	5.e-002	4.9131
12291	13.05	4.6364	0.	15.08
12292	12.959	4.7273	0.	14.225
12293	13.05	4.7273	5.e-002	4.9132
12294	13.05	4.4545	0.	15.317
12295	12.959	4.5455	0.	14.413
12296	13.05	4.5455	5.e-002	4.9131
12297	13.05	4.2727	0.	15.51
12298	12.959	4.3636	0.	14.567
12299	13.05	4.3636	5.e-002	4.9126
12300	13.05	4.0909	0.	15.663
12301	12.959	4.1818	0.	14.687
12302	13.05	4.1818	5.e-002	4.912
12303	13.05	3.9091	0.	15.781
12304	12.959	4.	0.	14.777
12305	13.05	4.	5.e-002	4.9112
12306	13.05	3.7273	0.	15.868
12307	12.959	3.8182	0.	14.843
12308	13.05	3.8182	5.e-002	4.9105
12309	13.05	3.5455	0.	15.929
12310	12.959	3.6364	0.	14.888
12311	13.05	3.6364	5.e-002	4.9097
12312	13.05	3.3636	0.	15.969
12313	12.959	3.4545	0.	14.917
12314	13.05	3.4545	5.e-002	4.9092
12315	13.05	3.1818	0.	15.991
12316	12.959	3.2727	0.	14.934
12317	13.05	3.2727	5.e-002	4.9088
12318	13.05	3.	0.	15.999
12319	12.959	3.0909	0.	14.942
12320	13.05	3.0909	5.e-002	4.9086
12321	13.05	2.8182	0.	15.991
12322	12.959	2.9091	0.	14.942
12323	13.05	2.9091	5.e-002	4.9086
12324	13.05	2.6364	0.	15.969
12325	12.959	2.7273	0.	14.934
12326	13.05	2.7273	5.e-002	4.9088
12327	13.05	2.4545	0.	15.929
12328	12.959	2.5455	0.	14.917
12329	13.05	2.5455	5.e-002	4.9092
12330	13.05	2.2727	0.	15.868
12331	12.959	2.3636	0.	14.888
12332	13.05	2.3636	5.e-002	4.9098
12333	13.05	2.0909	0.	15.781
12334	12.959	2.1818	0.	14.843
12335	13.05	2.1818	5.e-002	4.9105
12336	13.05	1.9091	0.	15.663
12337	12.959	2.	0.	14.777
12338	13.05	2.	5.e-002	4.9113
12339	13.05	1.7273	0.	15.51
12340	12.959	1.8182	0.	14.687
12341	13.05	1.8182	5.e-002	4.912
12342	13.05	1.5455	0.	15.317
12343	12.959	1.6364	0.	14.567
12344	13.05	1.6364	5.e-002	4.9126
12345	13.05	1.3636	0.	15.08
12346	12.959	1.4545	0.	14.413
12347	13.05	1.4545	5.e-002	4.9131
12348	13.05	1.1818	0.	14.799
12349	12.959	1.2727	0.	14.225
12350	13.05	1.2727	5.e-002	4.9133
12351	13.05	1.	0.	14.476
12352	12.959	1.0909	0.	14.002
12353	13.05	1.0909	5.e-002	4.9131
12354	13.05	0.81818	0.	14.113
12355	12.959	0.90909	0.	13.745
12356	13.05	0.90909	5.e-002	4.9124
12357	13.05	0.63636	0.	13.72
12358	12.959	0.72727	0.	13.46
12359	13.05	0.72727	5.e-002	4.91
12360	13.05	0.45455	0.	13.345
12361	12.959	0.54545	0.	13.16
12362	13.05	0.54545	5.e-002	4.8894
12363	13.05	0.27273	0.	13.647
12364	12.959	0.36364	0.	12.924
12365	13.05	0.36364	5.e-002	4.5996
12366	12.959	0.18182	0.	14.055
12367	13.05	0.18182	5.e-002	0.24544
12368	13.05	9.0909e-002	0.	9.386
12369	12.867	5.7273	0.	13.231
12370	12.775	5.8182	0.	13.744
12371	12.867	5.8182	5.e-002	0.22451
12372	12.867	5.9091	0.	9.2067
12373	12.867	5.5455	0.	12.711
12374	12.775	5.6364	0.	12.399
12375	12.867	5.6364	5.e-002	4.6139
12376	12.867	5.3636	0.	12.875
12377	12.775	5.4545	0.	12.42
12378	12.867	5.4545	5.e-002	4.9055
12379	12.867	5.1818	0.	13.069
12380	12.775	5.2727	0.	12.517
12381	12.867	5.2727	5.e-002	4.9265
12382	12.867	5.	0.	13.248
12383	12.775	5.0909	0.	12.612
12384	12.867	5.0909	5.e-002	4.9293
12385	12.867	4.8182	0.	13.405
12386	12.775	4.9091	0.	12.694
12387	12.867	4.9091	5.e-002	4.9305
12388	12.867	4.6364	0.	13.536
12389	12.775	4.7273	0.	12.759
12390	12.867	4.7273	5.e-002	4.9312
12391	12.867	4.4545	0.	13.642
12392	12.775	4.5455	0.	12.807
12393	12.867	4.5455	5.e-002	4.9316
12394	12.867	4.2727	0.	13.722
12395	12.775	4.3636	0.	12.837
12396	12.867	4.3636	5.e-002	4.9317
12397	12.867	4.0909	0.	13.779
12398	12.775	4.1818	0.	12.851
12399	12.867	4.1818	5.e-002	4.9315
12400	12.867	3.9091	0.	13.818
12401	12.775	4.	0.	12.853
12402	12.867	4.	5.e-002	4.9312
12403	12.867	3.7273	0.	13.842
12404	12.775	3.8182	0.	12.846
12405	12.867	3.8182	5.e-002	4.9309
12406	12.867	3.5455	0.	13.855
12407	12.775	3.6364	0.	12.835
12408	12.867	3.6364	5.e-002	4.9306
12409	12.867	3.3636	0.	13.862
12410	12.775	3.4545	0.	12.822
12411	12.867	3.4545	5.e-002	4.9303
12412	12.867	3.1818	0.	13.864
12413	12.775	3.2727	0.	12.812
12414	12.867	3.2727	5.e-002	4.9301
12415	12.867	3.	0.	13.865
12416	12.775	3.0909	0.	12.806
12417	12.867	3.0909	5.e-002	4.93
12418	12.867	2.8182	0.	13.865
12419	12.775	2.9091	0.	12.806
12420	12.867	2.9091	5.e-002	4.93
12421	12.867	2.6364	0.	13.862
12422	12.775	2.7273	0.	12.812
12423	12.867	2.7273	5.e-002	4.9301
12424	12.867	2.4545	0.	13.855
12425	12.775	2.5455	0.	12.822
12426	12.867	2.5455	5.e-002	4.9303
12427	12.867	2.2727	0.	13.842
12428	12.775	2.3636	0.	12.835
12429	12.867	2.3636	5.e-002	4.9306
12430	12.867	2.0909	0.	13.818
12431	12.775	2.1818	0.	12.846
12432	12.867	2.1818	5.e-002	4.931
12433	12.867	1.9091	0.	13.779
12434	12.775	2.	0.	12.853
12435	12.867	2.	5.e-002	4.9313
12436	12.867	1.7273	0.	13.722
12437	12.775	1.8182	0.	12.851
12438	12.867	1.8182	5.e-002	4.9315
12439	12.867	1.5455	0.	13.642
12440	12.775	1.6364	0.	12.837
12441	12.867	1.6364	5.e-002	4.9317
12442	12.867	1.3636	0.	13.536
12443	12.775	1.4545	0.	12.807
12444	12.867	1.4545	5.e-002	4.9316
12445	12.867	1.1818	0.	13.405
12446	12.775	1.2727	0.	12.759
12447	12.867	1.2727	5.e-002	4.9313
12448	12.867	1.	0.	13.248
12449	12.775	1.0909	0.	12.694
12450	12.867	1.0909	5.e-002	4.9306
12451	12.867	0.81818	0.	13.069
12452	12.775	0.90909	0.	12.612
12453	12.867	0.90909	5.e-002	4.9294
12454	12.867	0.63636	0.	12.875
12455	12.775	0.72727	0.	12.517
12456	12.867	0.72727	5.e-002	4.9266
12457	12.867	0.45455	0.	12.711
12458	12.775	0.54545	0.	12.42
12459	12.867	0.54545	5.e-002	4.9057
12460	12.867	0.27273	0.	13.231
12461	12.775	0.36364	0.	12.399
12462	12.867	0.36364	5.e-002	4.6139
12463	12.775	0.18182	0.	13.744
12464	12.867	0.18182	5.e-002	0.22455
12465	12.867	9.0909e-002	0.	9.2068
12466	12.683	5.7273	0.	12.811
12467	12.591	5.8182	0.	13.423
12468	12.683	5.8182	5.e-002	0.20767
12469	12.683	5.9091	0.	9.0212
12470	12.683	5.5455	0.	12.08
12471	12.591	5.6364	0.	11.871
12472	12.683	5.6364	5.e-002	4.6295
12473	12.683	5.3636	0.	12.037
12474	12.591	5.4545	0.	11.683
12475	12.683	5.4545	5.e-002	4.9228
12476	12.683	5.1818	0.	12.036
12477	12.591	5.2727	0.	11.58
12478	12.683	5.2727	5.e-002	4.9441
12479	12.683	5.	0.	12.034
12480	12.591	5.0909	0.	11.487
12481	12.683	5.0909	5.e-002	4.9473
12482	12.683	4.8182	0.	12.025
12483	12.591	4.9091	0.	11.395
12484	12.683	4.9091	5.e-002	4.9488
12485	12.683	4.6364	0.	12.007
12486	12.591	4.7273	0.	11.303
12487	12.683	4.7273	5.e-002	4.9499
12488	12.683	4.4545	0.	11.98
12489	12.591	4.5455	0.	11.208
12490	12.683	4.5455	5.e-002	4.9507
12491	12.683	4.2727	0.	11.945
12492	12.591	4.3636	0.	11.113
12493	12.683	4.3636	5.e-002	4.9512
12494	12.683	4.0909	0.	11.904
12495	12.591	4.1818	0.	11.019
12496	12.683	4.1818	5.e-002	4.9515
12497	12.683	3.9091	0.	11.86
12498	12.591	4.	0.	10.929
12499	12.683	4.	5.e-002	4.9516
12500	12.683	3.7273	0.	11.818
12501	12.591	3.8182	0.	10.847
12502	12.683	3.8182	5.e-002	4.9516
12503	12.683	3.5455	0.	11.781
12504	12.591	3.6364	0.	10.776
12505	12.683	3.6364	5.e-002	4.9516
12506	12.683	3.3636	0.	11.752
12507	12.591	3.4545	0.	10.72
12508	12.683	3.4545	5.e-002	4.9516
12509	12.683	3.1818	0.	11.733
12510	12.591	3.2727	0.	10.68
12511	12.683	3.2727	5.e-002	4.9515
12512	12.683	3.	0.	11.727
12513	12.591	3.0909	0.	10.66
12514	12.683	3.0909	5.e-002	4.9515
12515	12.683	2.8182	0.	11.733
12516	12.591	2.9091	0.	10.66
12517	12.683	2.9091	5.e-002	4.9515
12518	12.683	2.6364	0.	11.752
12519	12.591	2.7273	0.	10.68
12520	12.683	2.7273	5.e-002	4.9515
12521	12.683	2.4545	0.	11.781
12522	12.591	2.5455	0.	10.72
12523	12.683	2.5455	5.e-002	4.9516
12524	12.683	2.2727	0.	11.818
12525	12.591	2.3636	0.	10.776
12526	12.683	2.3636	5.e-002	4.9517
12527	12.683	2.0909	0.	11.86
12528	12.591	2.1818	0.	10.847
12529	12.683	2.1818	5.e-002	4.9517
12530	12.683	1.9091	0.	11.904
12531	12.591	2.	0.	10.929
12532	12.683	2.	5.e-002	4.9517
12533	12.683	1.7273	0.	11.945
12534	12.591	1.8182	0.	11.019
12535	12.683	1.8182	5.e-002	4.9515
12536	12.683	1.5455	0.	11.98
12537	12.591	1.6364	0.	11.113
12538	12.683	1.6364	5.e-002	4.9513
12539	12.683	1.3636	0.	12.007
12540	12.591	1.4545	0.	11.208
12541	12.683	1.4545	5.e-002	4.9507
12542	12.683	1.1818	0.	12.025
12543	12.591	1.2727	0.	11.303
12544	12.683	1.2727	5.e-002	4.95
12545	12.683	1.	0.	12.034
12546	12.591	1.0909	0.	11.395
12547	12.683	1.0909	5.e-002	4.9489
12548	12.683	0.81818	0.	12.036
12549	12.591	0.90909	0.	11.487
12550	12.683	0.90909	5.e-002	4.9473
12551	12.683	0.63636	0.	12.037
12552	12.591	0.72727	0.	11.58
12553	12.683	0.72727	5.e-002	4.9443
12554	12.683	0.45455	0.	12.08
12555	12.591	0.54545	0.	11.683
12556	12.683	0.54545	5.e-002	4.9229
12557	12.683	0.27273	0.	12.811
12558	12.591	0.36364	0.	11.871
12559	12.683	0.36364	5.e-002	4.6296
12560	12.591	0.18182	0.	13.423
12561	12.683	0.18182	5.e-002	0.20772
12562	12.683	9.0909e-002	0.	9.0212
12563	12.499	5.7273	0.	12.384
12564	12.407	5.8182	0.	13.092
12565	12.499	5.8182	5.e-002	0.19516
12566	12.499	5.9091	0.	8.8288
12567	12.499	5.5455	0.	11.446
12568	12.407	5.6364	0.	11.338
12569	12.499	5.6364	5.e-002	4.6463
12570	12.499	5.3636	0.	11.201
12571	12.407	5.4545	0.	10.942
12572	12.499	5.4545	5.e-002	4.941
12573	12.499	5.1818	0.	11.007
12574	12.407	5.2727	0.	10.641
12575	12.499	5.2727	5.e-002	4.9627
12576	12.499	5.	0.	10.825
12577	12.407	5.0909	0.	10.362
12578	12.499	5.0909	5.e-002	4.966
12579	12.499	4.8182	0.	10.65
12580	12.407	4.9091	0.	10.096
12581	12.499	4.9091	5.e-002	4.9679
12582	12.499	4.6364	0.	10.482
12583	12.407	4.7273	0.	9.8446
12584	12.499	4.7273	5.e-002	4.9693
12585	12.499	4.4545	0.	10.32
12586	12.407	4.5455	0.	9.6066
12587	12.499	4.5455	5.e-002	4.9704
12588	12.499	4.2727	0.	10.167
12589	12.407	4.3636	0.	9.3838
12590	12.499	4.3636	5.e-002	4.9713
12591	12.499	4.0909	0.	10.024
12592	12.407	4.1818	0.	9.1786
12593	12.499	4.1818	5.e-002	4.9719
12594	12.499	3.9091	0.	9.8958
12595	12.407	4.	0.	8.9941
12596	12.499	4.	5.e-002	4.9724
12597	12.499	3.7273	0.	9.7848
12598	12.407	3.8182	0.	8.8335
12599	12.499	3.8182	5.e-002	4.9727
12600	12.499	3.5455	0.	9.6944
12601	12.407	3.6364	0.	8.7001
12602	12.499	3.6364	5.e-002	4.9729
12603	12.499	3.3636	0.	9.6276
12604	12.407	3.4545	0.	8.597
12605	12.499	3.4545	5.e-002	4.973
12606	12.499	3.1818	0.	9.5866
12607	12.407	3.2727	0.	8.5268
12608	12.499	3.2727	5.e-002	4.9731
12609	12.499	3.	0.	9.5727
12610	12.407	3.0909	0.	8.4912
12611	12.499	3.0909	5.e-002	4.9732
12612	12.499	2.8182	0.	9.5866
12613	12.407	2.9091	0.	8.4912
12614	12.499	2.9091	5.e-002	4.9732
12615	12.499	2.6364	0.	9.6276
12616	12.407	2.7273	0.	8.5268
12617	12.499	2.7273	5.e-002	4.9731
12618	12.499	2.4545	0.	9.6945
12619	12.407	2.5455	0.	8.597
12620	12.499	2.5455	5.e-002	4.973
12621	12.499	2.2727	0.	9.7848
12622	12.407	2.3636	0.	8.7001
12623	12.499	2.3636	5.e-002	4.9729
12624	12.499	2.0909	0.	9.8958
12625	12.407	2.1818	0.	8.8335
12626	12.499	2.1818	5.e-002	4.9727
12627	12.499	1.9091	0.	10.024
12628	12.407	2.	0.	8.9941
12629	12.499	2.	5.e-002	4.9724
12630	12.499	1.7273	0.	10.167
12631	12.407	1.8182	0.	9.1787
12632	12.499	1.8182	5.e-002	4.972
12633	12.499	1.5455	0.	10.32
12634	12.407	1.6364	0.	9.3838
12635	12.499	1.6364	5.e-002	4.9714
12636	12.499	1.3636	0.	10.482
12637	12.407	1.4545	0.	9.6066
12638	12.499	1.4545	5.e-002	4.9705
12639	12.499	1.1818	0.	10.65
12640	12.407	1.2727	0.	9.8447
12641	12.499	1.2727	5.e-002	4.9694
12642	12.499	1.	0.	10.825
12643	12.407	1.0909	0.	10.096
12644	12.499	1.0909	5.e-002	4.968
12645	12.499	0.81818	0.	11.007
12646	12.407	0.90909	0.	10.362
12647	12.499	0.90909	5.e-002	4.9661
12648	12.499	0.63636	0.	11.201
12649	12.407	0.72727	0.	10.641
12650	12.499	0.72727	5.e-002	4.9627
12651	12.499	0.45455	0.	11.446
12652	12.407	0.54545	0.	10.942
12653	12.499	0.54545	5.e-002	4.9411
12654	12.499	0.27273	0.	12.384
12655	12.407	0.36364	0.	11.338
12656	12.499	0.36364	5.e-002	4.6464
12657	12.407	0.18182	0.	13.092
12658	12.499	0.18182	5.e-002	0.19522
12659	12.499	9.0909e-002	0.	8.8289
12660	12.315	5.7273	0.	11.948
12661	12.223	5.8182	0.	12.749
12662	12.315	5.8182	5.e-002	0.18735
12663	12.315	5.9091	0.	8.6291
12664	12.315	5.5455	0.	10.806
12665	12.223	5.6364	0.	10.795
12666	12.315	5.6364	5.e-002	4.6641
12667	12.315	5.3636	0.	10.359
12668	12.223	5.4545	0.	10.193
12669	12.315	5.4545	5.e-002	4.9599
12670	12.315	5.1818	0.	9.9727
12671	12.223	5.2727	0.	9.6941
12672	12.315	5.2727	5.e-002	4.9818
12673	12.315	5.	0.	9.6104
12674	12.223	5.0909	0.	9.2271
12675	12.315	5.0909	5.e-002	4.9855
12676	12.315	4.8182	0.	9.2688
12677	12.223	4.9091	0.	8.7871
12678	12.315	4.9091	5.e-002	4.9876
12679	12.315	4.6364	0.	8.9479
12680	12.223	4.7273	0.	8.3742
12681	12.315	4.7273	5.e-002	4.9893
12682	12.315	4.4545	0.	8.6493
12683	12.223	4.5455	0.	7.9899
12684	12.315	4.5455	5.e-002	4.9907
12685	12.315	4.2727	0.	8.375
12686	12.223	4.3636	0.	7.6366
12687	12.315	4.3636	5.e-002	4.9918
12688	12.315	4.0909	0.	8.1281
12689	12.223	4.1818	0.	7.3169
12690	12.315	4.1818	5.e-002	4.9928
12691	12.315	3.9091	0.	7.9115
12692	12.223	4.	0.	7.0343
12693	12.315	4.	5.e-002	4.9935
12694	12.315	3.7273	0.	7.7287
12695	12.223	3.8182	0.	6.7921
12696	12.315	3.8182	5.e-002	4.9941
12697	12.315	3.5455	0.	7.5827
12698	12.223	3.6364	0.	6.5936
12699	12.315	3.6364	5.e-002	4.9944
12700	12.315	3.3636	0.	7.4763
12701	12.223	3.4545	0.	6.4419
12702	12.315	3.4545	5.e-002	4.9947
12703	12.315	3.1818	0.	7.4116
12704	12.223	3.2727	0.	6.3393
12705	12.315	3.2727	5.e-002	4.9949
12706	12.315	3.	0.	7.3899
12707	12.223	3.0909	0.	6.2875
12708	12.315	3.0909	5.e-002	4.995
12709	12.315	2.8182	0.	7.4116
12710	12.223	2.9091	0.	6.2875
12711	12.315	2.9091	5.e-002	4.995
12712	12.315	2.6364	0.	7.4763
12713	12.223	2.7273	0.	6.3393
12714	12.315	2.7273	5.e-002	4.9949
12715	12.315	2.4545	0.	7.5827
12716	12.223	2.5455	0.	6.4419
12717	12.315	2.5455	5.e-002	4.9947
12718	12.315	2.2727	0.	7.7287
12719	12.223	2.3636	0.	6.5937
12720	12.315	2.3636	5.e-002	4.9945
12721	12.315	2.0909	0.	7.9115
12722	12.223	2.1818	0.	6.7921
12723	12.315	2.1818	5.e-002	4.9941
12724	12.315	1.9091	0.	8.1281
12725	12.223	2.	0.	7.0343
12726	12.315	2.	5.e-002	4.9935
12727	12.315	1.7273	0.	8.3751
12728	12.223	1.8182	0.	7.317
12729	12.315	1.8182	5.e-002	4.9928
12730	12.315	1.5455	0.	8.6493
12731	12.223	1.6364	0.	7.6366
12732	12.315	1.6364	5.e-002	4.9919
12733	12.315	1.3636	0.	8.9479
12734	12.223	1.4545	0.	7.99
12735	12.315	1.4545	5.e-002	4.9908
12736	12.315	1.1818	0.	9.2688
12737	12.223	1.2727	0.	8.3742
12738	12.315	1.2727	5.e-002	4.9894
12739	12.315	1.	0.	9.6105
12740	12.223	1.0909	0.	8.7871
12741	12.315	1.0909	5.e-002	4.9877
12742	12.315	0.81818	0.	9.9727
12743	12.223	0.90909	0.	9.2272
12744	12.315	0.90909	5.e-002	4.9856
12745	12.315	0.63636	0.	10.359
12746	12.223	0.72727	0.	9.6941
12747	12.315	0.72727	5.e-002	4.982
12748	12.315	0.45455	0.	10.806
12749	12.223	0.54545	0.	10.193
12750	12.315	0.54545	5.e-002	4.96
12751	12.315	0.27273	0.	11.948
12752	12.223	0.36364	0.	10.795
12753	12.315	0.36364	5.e-002	4.6642
12754	12.223	0.18182	0.	12.749
12755	12.315	0.18182	5.e-002	0.18743
12756	12.315	9.0909e-002	0.	8.6291
12757	12.131	5.7273	0.	11.499
12758	12.04	5.8182	0.	12.393
12759	12.131	5.8182	5.e-002	0.18491
12760	12.131	5.9091	0.	8.4212
12761	12.131	5.5455	0.	10.155
12762	12.04	5.6364	0.	10.239
12763	12.131	5.6364	5.e-002	4.6828
12764	12.131	5.3636	0.	9.5048
12765	12.04	5.4545	0.	9.43
12766	12.131	5.4545	5.e-002	4.9797
12767	12.131	5.1818	0.	8.9257
12768	12.04	5.2727	0.	8.7315
12769	12.131	5.2727	5.e-002	5.0018
12770	12.131	5.	0.	8.3815
12771	12.04	5.0909	0.	8.0752
12772	12.131	5.0909	5.e-002	5.0056
12773	12.131	4.8182	0.	7.8707
12774	12.04	4.9091	0.	7.4577
12775	12.131	4.9091	5.e-002	5.008
12776	12.131	4.6364	0.	7.3949
12777	12.04	4.7273	0.	6.8808
12778	12.131	4.7273	5.e-002	5.0099
12779	12.131	4.4545	0.	6.9563
12780	12.04	4.5455	0.	6.347
12781	12.131	4.5455	5.e-002	5.0116
12782	12.131	4.2727	0.	6.5579
12783	12.04	4.3636	0.	5.8596
12784	12.131	4.3636	5.e-002	5.013
12785	12.131	4.0909	0.	6.203
12786	12.04	4.1818	0.	5.4219
12787	12.131	4.1818	5.e-002	5.0141
12788	12.131	3.9091	0.	5.8949
12789	12.04	4.	0.	5.0377
12790	12.131	4.	5.e-002	5.0151
12791	12.131	3.7273	0.	5.6373
12792	12.04	3.8182	0.	4.7106
12793	12.131	3.8182	5.e-002	5.0158
12794	12.131	3.5455	0.	5.4332
12795	12.04	3.6364	0.	4.4442
12796	12.131	3.6364	5.e-002	5.0163
12797	12.131	3.3636	0.	5.2853
12798	12.04	3.4545	0.	4.2414
12799	12.131	3.4545	5.e-002	5.0167
12800	12.131	3.1818	0.	5.1957
12801	12.04	3.2727	0.	4.1048
12802	12.131	3.2727	5.e-002	5.017
12803	12.131	3.	0.	5.1657
12804	12.04	3.0909	0.	4.036
12805	12.131	3.0909	5.e-002	5.0171
12806	12.131	2.8182	0.	5.1957
12807	12.04	2.9091	0.	4.036
12808	12.131	2.9091	5.e-002	5.0171
12809	12.131	2.6364	0.	5.2853
12810	12.04	2.7273	0.	4.1048
12811	12.131	2.7273	5.e-002	5.017
12812	12.131	2.4545	0.	5.4332
12813	12.04	2.5455	0.	4.2414
12814	12.131	2.5455	5.e-002	5.0168
12815	12.131	2.2727	0.	5.6373
12816	12.04	2.3636	0.	4.4442
12817	12.131	2.3636	5.e-002	5.0164
12818	12.131	2.0909	0.	5.895
12819	12.04	2.1818	0.	4.7106
12820	12.131	2.1818	5.e-002	5.0158
12821	12.131	1.9091	0.	6.203
12822	12.04	2.	0.	5.0377
12823	12.131	2.	5.e-002	5.0151
12824	12.131	1.7273	0.	6.5579
12825	12.04	1.8182	0.	5.4219
12826	12.131	1.8182	5.e-002	5.0142
12827	12.131	1.5455	0.	6.9563
12828	12.04	1.6364	0.	5.8596
12829	12.131	1.6364	5.e-002	5.013
12830	12.131	1.3636	0.	7.3949
12831	12.04	1.4545	0.	6.3471
12832	12.131	1.4545	5.e-002	5.0117
12833	12.131	1.1818	0.	7.8708
12834	12.04	1.2727	0.	6.8808
12835	12.131	1.2727	5.e-002	5.01
12836	12.131	1.	0.	8.3815
12837	12.04	1.0909	0.	7.4577
12838	12.131	1.0909	5.e-002	5.0081
12839	12.131	0.81818	0.	8.9257
12840	12.04	0.90909	0.	8.0752
12841	12.131	0.90909	5.e-002	5.0057
12842	12.131	0.63636	0.	9.5049
12843	12.04	0.72727	0.	8.7316
12844	12.131	0.72727	5.e-002	5.0019
12845	12.131	0.45455	0.	10.155
12846	12.04	0.54545	0.	9.43
12847	12.131	0.54545	5.e-002	4.9797
12848	12.131	0.27273	0.	11.499
12849	12.04	0.36364	0.	10.24
12850	12.131	0.36364	5.e-002	4.6829
12851	12.04	0.18182	0.	12.393
12852	12.131	0.18182	5.e-002	0.18498
12853	12.131	9.0909e-002	0.	8.4213
12854	11.948	5.7273	0.	11.037
12855	11.856	5.8182	0.	12.022
12856	11.948	5.8182	5.e-002	0.18835
12857	11.948	5.9091	0.	8.2048
12858	11.948	5.5455	0.	9.488
12859	11.856	5.6364	0.	9.668
12860	11.948	5.6364	5.e-002	4.7025
12861	11.948	5.3636	0.	8.6335
12862	11.856	5.4545	0.	8.6481
12863	11.948	5.4545	5.e-002	5.0001
12864	11.948	5.1818	0.	7.8586
12865	11.856	5.2727	0.	7.7469
12866	11.948	5.2727	5.e-002	5.0225
12867	11.948	5.	0.	7.1295
12868	11.856	5.0909	0.	6.8978
12869	11.948	5.0909	5.e-002	5.0265
12870	11.948	4.8182	0.	6.4464
12871	11.856	4.9091	0.	6.0991
12872	11.948	4.9091	5.e-002	5.0291
12873	11.948	4.6364	0.	5.812
12874	11.856	4.7273	0.	5.3543
12875	11.948	4.7273	5.e-002	5.0312
12876	11.948	4.4545	0.	5.2298
12877	11.856	4.5455	0.	4.667
12878	11.948	4.5455	5.e-002	5.0331
12879	11.948	4.2727	0.	4.7034
12880	11.856	4.3636	0.	4.0413
12881	11.948	4.3636	5.e-002	5.0347
12882	11.948	4.0909	0.	4.2367
12883	11.856	4.1818	0.	3.4815
12884	11.948	4.1818	5.e-002	5.0361
12885	11.948	3.9091	0.	3.8337
12886	11.856	4.	0.	2.9918
12887	11.948	4.	5.e-002	5.0371
12888	11.948	3.7273	0.	3.498
12889	11.856	3.8182	0.	2.5763
12890	11.948	3.8182	5.e-002	5.038
12891	11.948	3.5455	0.	3.2331
12892	11.856	3.6364	0.	2.2388
12893	11.948	3.6364	5.e-002	5.0387
12894	11.948	3.3636	0.	3.0416
12895	11.856	3.4545	0.	1.9825
12896	11.948	3.4545	5.e-002	5.0392
12897	11.948	3.1818	0.	2.9259
12898	11.856	3.2727	0.	1.8101
12899	11.948	3.2727	5.e-002	5.0396
12900	11.948	3.	0.	2.8872
12901	11.856	3.0909	0.	1.7233
12902	11.948	3.0909	5.e-002	5.0397
12903	11.948	2.8182	0.	2.9259
12904	11.856	2.9091	0.	1.7233
12905	11.948	2.9091	5.e-002	5.0397
12906	11.948	2.6364	0.	3.0417
12907	11.856	2.7273	0.	1.8101
12908	11.948	2.7273	5.e-002	5.0396
12909	11.948	2.4545	0.	3.2331
12910	11.856	2.5455	0.	1.9825
12911	11.948	2.5455	5.e-002	5.0392
12912	11.948	2.2727	0.	3.498
12913	11.856	2.3636	0.	2.2388
12914	11.948	2.3636	5.e-002	5.0387
12915	11.948	2.0909	0.	3.8337
12916	11.856	2.1818	0.	2.5763
12917	11.948	2.1818	5.e-002	5.0381
12918	11.948	1.9091	0.	4.2367
12919	11.856	2.	0.	2.9918
12920	11.948	2.	5.e-002	5.0372
12921	11.948	1.7273	0.	4.7034
12922	11.856	1.8182	0.	3.4815
12923	11.948	1.8182	5.e-002	5.0361
12924	11.948	1.5455	0.	5.2298
12925	11.856	1.6364	0.	4.0413
12926	11.948	1.6364	5.e-002	5.0348
12927	11.948	1.3636	0.	5.812
12928	11.856	1.4545	0.	4.667
12929	11.948	1.4545	5.e-002	5.0332
12930	11.948	1.1818	0.	6.4464
12931	11.856	1.2727	0.	5.3543
12932	11.948	1.2727	5.e-002	5.0313
12933	11.948	1.	0.	7.1295
12934	11.856	1.0909	0.	6.0992
12935	11.948	1.0909	5.e-002	5.0291
12936	11.948	0.81818	0.	7.8586
12937	11.856	0.90909	0.	6.8978
12938	11.948	0.90909	5.e-002	5.0266
12939	11.948	0.63636	0.	8.6335
12940	11.856	0.72727	0.	7.747
12941	11.948	0.72727	5.e-002	5.0226
12942	11.948	0.45455	0.	9.4881
12943	11.856	0.54545	0.	8.6481
12944	11.948	0.54545	5.e-002	5.0002
12945	11.948	0.27273	0.	11.037
12946	11.856	0.36364	0.	9.6681
12947	11.948	0.36364	5.e-002	4.7026
12948	11.856	0.18182	0.	12.022
12949	11.948	0.18182	5.e-002	0.18845
12950	11.948	9.0909e-002	0.	8.2049
12951	11.764	5.7273	0.	10.558
12952	11.672	5.8182	0.	11.635
12953	11.764	5.8182	5.e-002	0.19793
12954	11.764	5.9091	0.	7.9791
12955	11.764	5.5455	0.	8.8018
12956	11.672	5.6364	0.	9.0773
12957	11.764	5.6364	5.e-002	4.7229
12958	11.764	5.3636	0.	7.7387
12959	11.672	5.4545	0.	7.8423
12960	11.764	5.4545	5.e-002	5.0212
12961	11.764	5.1818	0.	6.764
12962	11.672	5.2727	0.	6.7336
12963	11.764	5.2727	5.e-002	5.0437
12964	11.764	5.	0.	5.8458
12965	11.672	5.0909	0.	5.6867
12966	11.764	5.0909	5.e-002	5.048
12967	11.764	4.8182	0.	4.986
12968	11.672	4.9091	0.	4.7021
12969	11.764	4.9091	5.e-002	5.0507
12970	11.764	4.6364	0.	4.1887
12971	11.672	4.7273	0.	3.7844
12972	11.764	4.7273	5.e-002	5.0531
12973	11.764	4.4545	0.	3.4585
12974	11.672	4.5455	0.	2.9389
12975	11.764	4.5455	5.e-002	5.0551
12976	11.764	4.2727	0.	2.7998
12977	11.672	4.3636	0.	2.1708
12978	11.764	4.3636	5.e-002	5.0569
12979	11.764	4.0909	0.	2.2175
12980	11.672	4.1818	0.	1.4853
12981	11.764	4.1818	5.e-002	5.0584
12982	11.764	3.9091	0.	1.7158
12983	11.672	4.	0.	0.88789
12984	11.764	4.	5.e-002	5.0597
12985	11.764	3.7273	0.	1.2988
12986	11.672	3.8182	0.	0.38585
12987	11.764	3.8182	5.e-002	5.0607
12988	11.764	3.5455	0.	0.97012
12989	11.672	3.6364	0.	4.4026e-002
12990	11.764	3.6364	5.e-002	5.0615
12991	11.764	3.3636	0.	0.73263
12992	11.672	3.4545	0.	1.0132e-002
12993	11.764	3.4545	5.e-002	5.0621
12994	11.764	3.1818	0.	0.58882
12995	11.672	3.2727	0.	6.6853e-003
12996	11.764	3.2727	5.e-002	5.0625
12997	11.764	3.	0.	0.5406
12998	11.672	3.0909	0.	5.7639e-003
12999	11.764	3.0909	5.e-002	5.0627
13000	11.764	2.8182	0.	0.58882
13001	11.672	2.9091	0.	5.7641e-003
13002	11.764	2.9091	5.e-002	5.0627
13003	11.764	2.6364	0.	0.73264
13004	11.672	2.7273	0.	6.6854e-003
13005	11.764	2.7273	5.e-002	5.0625
13006	11.764	2.4545	0.	0.97013
13007	11.672	2.5455	0.	1.0133e-002
13008	11.764	2.5455	5.e-002	5.0621
13009	11.764	2.2727	0.	1.2988
13010	11.672	2.3636	0.	4.4031e-002
13011	11.764	2.3636	5.e-002	5.0615
13012	11.764	2.0909	0.	1.7158
13013	11.672	2.1818	0.	0.38587
13014	11.764	2.1818	5.e-002	5.0607
13015	11.764	1.9091	0.	2.2175
13016	11.672	2.	0.	0.8879
13017	11.764	2.	5.e-002	5.0597
13018	11.764	1.7273	0.	2.7999
13019	11.672	1.8182	0.	1.4853
13020	11.764	1.8182	5.e-002	5.0585
13021	11.764	1.5455	0.	3.4585
13022	11.672	1.6364	0.	2.1708
13023	11.764	1.6364	5.e-002	5.057
13024	11.764	1.3636	0.	4.1887
13025	11.672	1.4545	0.	2.9389
13026	11.764	1.4545	5.e-002	5.0552
13027	11.764	1.1818	0.	4.986
13028	11.672	1.2727	0.	3.7845
13029	11.764	1.2727	5.e-002	5.0532
13030	11.764	1.	0.	5.8459
13031	11.672	1.0909	0.	4.7021
13032	11.764	1.0909	5.e-002	5.0508
13033	11.764	0.81818	0.	6.7641
13034	11.672	0.90909	0.	5.6867
13035	11.764	0.90909	5.e-002	5.0481
13036	11.764	0.63636	0.	7.7388
13037	11.672	0.72727	0.	6.7336
13038	11.764	0.72727	5.e-002	5.0438
13039	11.764	0.45455	0.	8.8019
13040	11.672	0.54545	0.	7.8423
13041	11.764	0.54545	5.e-002	5.0213
13042	11.764	0.27273	0.	10.558
13043	11.672	0.36364	0.	9.0773
13044	11.764	0.36364	5.e-002	4.723
13045	11.672	0.18182	0.	11.635
13046	11.764	0.18182	5.e-002	0.19802
13047	11.764	9.0909e-002	0.	7.9791
13048	11.58	5.7273	0.	10.061
13049	11.488	5.8182	0.	11.231
13050	11.58	5.8182	5.e-002	0.21366
13051	11.58	5.9091	0.	7.7432
13052	11.58	5.5455	0.	8.0918
13053	11.488	5.6364	0.	8.4639
13054	11.58	5.6364	5.e-002	4.7442
13055	11.58	5.3636	0.	6.8147
13056	11.488	5.4545	0.	7.0075
13057	11.58	5.4545	5.e-002	5.0428
13058	11.58	5.1818	0.	5.6345
13059	11.488	5.2727	0.	5.6849
13060	11.58	5.2727	5.e-002	5.0656
13061	11.58	5.	0.	4.5218
13062	11.488	5.0909	0.	4.4341
13063	11.58	5.0909	5.e-002	5.07
13064	11.58	4.8182	0.	3.48
13065	11.488	4.9091	0.	3.2576
13066	11.58	4.9091	5.e-002	5.073
13067	11.58	4.6364	0.	2.5149
13068	11.488	4.7273	0.	2.1622
13069	11.58	4.7273	5.e-002	5.0755
13070	11.58	4.4545	0.	1.6329
13071	11.488	4.5455	0.	1.1564
13072	11.58	4.5455	5.e-002	5.0777
13073	11.58	4.2727	0.	0.84161
13074	11.488	4.3636	0.	0.27261
13075	11.58	4.3636	5.e-002	5.0796
13076	11.58	4.0909	0.	0.1763
13077	11.488	4.1818	0.	2.0907e-002
13078	11.58	4.1818	5.e-002	5.0813
13079	11.58	3.9091	0.	1.775e-002
13080	11.488	4.	0.	1.0519e-002
13081	11.58	4.	5.e-002	5.0827
13082	11.58	3.7273	0.	9.4247e-003
13083	11.488	3.8182	0.	7.7469e-003
13084	11.58	3.8182	5.e-002	5.0838
13085	11.58	3.5455	0.	7.1029e-003
13086	11.488	3.6364	0.	6.5456e-003
13087	11.58	3.6364	5.e-002	5.0847
13088	11.58	3.3636	0.	6.1278e-003
13089	11.488	3.4545	0.	5.9321e-003
13090	11.58	3.4545	5.e-002	5.0854
13091	11.58	3.1818	0.	5.6917e-003
13092	11.488	3.2727	0.	5.6096e-003
13093	11.58	3.2727	5.e-002	5.0859
13094	11.58	3.	0.	5.5648e-003
13095	11.488	3.0909	0.	5.4685e-003
13096	11.58	3.0909	5.e-002	5.0861
13097	11.58	2.8182	0.	5.692e-003
13098	11.488	2.9091	0.	5.4685e-003
13099	11.58	2.9091	5.e-002	5.0861
13100	11.58	2.6364	0.	6.1282e-003
13101	11.488	2.7273	0.	5.6098e-003
13102	11.58	2.7273	5.e-002	5.0859
13103	11.58	2.4545	0.	7.1029e-003
13104	11.488	2.5455	0.	5.9322e-003
13105	11.58	2.5455	5.e-002	5.0854
13106	11.58	2.2727	0.	9.425e-003
13107	11.488	2.3636	0.	6.5455e-003
13108	11.58	2.3636	5.e-002	5.0848
13109	11.58	2.0909	0.	1.7752e-002
13110	11.488	2.1818	0.	7.7473e-003
13111	11.58	2.1818	5.e-002	5.0839
13112	11.58	1.9091	0.	0.17631
13113	11.488	2.	0.	1.052e-002
13114	11.58	2.	5.e-002	5.0827
13115	11.58	1.7273	0.	0.84163
13116	11.488	1.8182	0.	2.0909e-002
13117	11.58	1.8182	5.e-002	5.0814
13118	11.58	1.5455	0.	1.6329
13119	11.488	1.6364	0.	0.27262
13120	11.58	1.6364	5.e-002	5.0797
13121	11.58	1.3636	0.	2.515
13122	11.488	1.4545	0.	1.1565
13123	11.58	1.4545	5.e-002	5.0778
13124	11.58	1.1818	0.	3.48
13125	11.488	1.2727	0.	2.1622
13126	11.58	1.2727	5.e-002	5.0756
13127	11.58	1.	0.	4.5218
13128	11.488	1.0909	0.	3.2577
13129	11.58	1.0909	5.e-002	5.073
13130	11.58	0.81818	0.	5.6346
13131	11.488	0.90909	0.	4.4341
13132	11.58	0.90909	5.e-002	5.0701
13133	11.58	0.63636	0.	6.8147
13134	11.488	0.72727	0.	5.6849
13135	11.58	0.72727	5.e-002	5.0657
13136	11.58	0.45455	0.	8.0919
13137	11.488	0.54545	0.	7.0075
13138	11.58	0.54545	5.e-002	5.0429
13139	11.58	0.27273	0.	10.061
13140	11.488	0.36364	0.	8.464
13141	11.58	0.36364	5.e-002	4.7442
13142	11.488	0.18182	0.	11.232
13143	11.58	0.18182	5.e-002	0.21378
13144	11.58	9.0909e-002	0.	7.7433
13145	11.396	5.7273	0.	9.5422
13146	11.304	5.8182	0.	10.809
13147	11.396	5.8182	5.e-002	0.23547
13148	11.396	5.9091	0.	7.4965
13149	11.396	5.5455	0.	7.354
13150	11.304	5.6364	0.	7.8246
13151	11.396	5.6364	5.e-002	4.7662
13152	11.396	5.3636	0.	5.8556
13153	11.304	5.4545	0.	6.1386
13154	11.396	5.4545	5.e-002	5.0651
13155	11.396	5.1818	0.	4.4631
13156	11.304	5.2727	0.	4.5943
13157	11.396	5.2727	5.e-002	5.088
13158	11.396	5.	0.	3.1492
13159	11.304	5.0909	0.	3.1322
13160	11.396	5.0909	5.e-002	5.0927
13161	11.396	4.8182	0.	1.9203
13162	11.304	4.9091	0.	1.7584
13163	11.396	4.9091	5.e-002	5.0958
13164	11.396	4.6364	0.	0.78965
13165	11.304	4.7273	0.	0.49739
13166	11.396	4.7273	5.e-002	5.0985
13167	11.396	4.4545	0.	4.6923e-002
13168	11.304	4.5455	0.	2.3613e-002
13169	11.396	4.5455	5.e-002	5.1009
13170	11.396	4.2727	0.	1.3531e-002
13171	11.304	4.3636	0.	1.0995e-002
13172	11.396	4.3636	5.e-002	5.103
13173	11.396	4.0909	0.	8.8785e-003
13174	11.304	4.1818	0.	8.0057e-003
13175	11.396	4.1818	5.e-002	5.1048
13176	11.396	3.9091	0.	7.1403e-003
13177	11.304	4.	0.	6.7283e-003
13178	11.396	4.	5.e-002	5.1063
13179	11.396	3.7273	0.	6.2797e-003
13180	11.304	3.8182	0.	6.0517e-003
13181	11.396	3.8182	5.e-002	5.1076
13182	11.396	3.5455	0.	5.8017e-003
13183	11.304	3.6364	0.	5.656e-003
13184	11.396	3.6364	5.e-002	5.1085
13185	11.396	3.3636	0.	5.5293e-003
13186	11.304	3.4545	0.	5.4186e-003
13187	11.396	3.4545	5.e-002	5.1093
13188	11.396	3.1818	0.	5.3867e-003
13189	11.304	3.2727	0.	5.2807e-003
13190	11.396	3.2727	5.e-002	5.1097
13191	11.396	3.	0.	5.342e-003
13192	11.304	3.0909	0.	5.2176e-003
13193	11.396	3.0909	5.e-002	5.11
13194	11.396	2.8182	0.	5.3865e-003
13195	11.304	2.9091	0.	5.2174e-003
13196	11.396	2.9091	5.e-002	5.11
13197	11.396	2.6364	0.	5.5293e-003
13198	11.304	2.7273	0.	5.281e-003
13199	11.396	2.7273	5.e-002	5.1098
13200	11.396	2.4545	0.	5.8018e-003
13201	11.304	2.5455	0.	5.4187e-003
13202	11.396	2.5455	5.e-002	5.1093
13203	11.396	2.2727	0.	6.2799e-003
13204	11.304	2.3636	0.	5.6563e-003
13205	11.396	2.3636	5.e-002	5.1086
13206	11.396	2.0909	0.	7.1407e-003
13207	11.304	2.1818	0.	6.0516e-003
13208	11.396	2.1818	5.e-002	5.1076
13209	11.396	1.9091	0.	8.8794e-003
13210	11.304	2.	0.	6.7293e-003
13211	11.396	2.	5.e-002	5.1063
13212	11.396	1.7273	0.	1.3532e-002
13213	11.304	1.8182	0.	8.0064e-003
13214	11.396	1.8182	5.e-002	5.1048
13215	11.396	1.5455	0.	4.6926e-002
13216	11.304	1.6364	0.	1.0996e-002
13217	11.396	1.6364	5.e-002	5.103
13218	11.396	1.3636	0.	0.78967
13219	11.304	1.4545	0.	2.3614e-002
13220	11.396	1.4545	5.e-002	5.101
13221	11.396	1.1818	0.	1.9203
13222	11.304	1.2727	0.	0.49741
13223	11.396	1.2727	5.e-002	5.0986
13224	11.396	1.	0.	3.1493
13225	11.304	1.0909	0.	1.7584
13226	11.396	1.0909	5.e-002	5.0959
13227	11.396	0.81818	0.	4.4631
13228	11.304	0.90909	0.	3.1323
13229	11.396	0.90909	5.e-002	5.0928
13230	11.396	0.63636	0.	5.8556
13231	11.304	0.72727	0.	4.5943
13232	11.396	0.72727	5.e-002	5.0881
13233	11.396	0.45455	0.	7.3541
13234	11.304	0.54545	0.	6.1386
13235	11.396	0.54545	5.e-002	5.0652
13236	11.396	0.27273	0.	9.5422
13237	11.304	0.36364	0.	7.8246
13238	11.396	0.36364	5.e-002	4.7663
13239	11.304	0.18182	0.	10.809
13240	11.396	0.18182	5.e-002	0.23558
13241	11.396	9.0909e-002	0.	7.4966
13242	11.212	5.7273	0.	8.9999
13243	11.12	5.8182	0.	10.366
13244	11.212	5.8182	5.e-002	0.26304
13245	11.212	5.9091	0.	7.238
13246	11.212	5.5455	0.	6.584
13247	11.12	5.6364	0.	7.1558
13248	11.212	5.6364	5.e-002	4.7892
13249	11.212	5.3636	0.	4.8555
13250	11.12	5.4545	0.	5.2305
13251	11.212	5.4545	5.e-002	5.0881
13252	11.212	5.1818	0.	3.2423
13253	11.12	5.2727	0.	3.4551
13254	11.212	5.2727	5.e-002	5.1112
13255	11.212	5.	0.	1.7211
13256	11.12	5.0909	0.	1.7743
13257	11.212	5.0909	5.e-002	5.116
13258	11.212	4.8182	0.	0.33244
13259	11.12	4.9091	0.	0.24636
13260	11.212	4.9091	5.e-002	5.1193
13261	11.212	4.6364	0.	1.8131e-002
13262	11.12	4.7273	0.	1.5415e-002
13263	11.212	4.7273	5.e-002	5.1222
13264	11.212	4.4545	0.	9.8322e-003
13265	11.12	4.5455	0.	9.0356e-003
13266	11.212	4.5455	5.e-002	5.1247
13267	11.212	4.2727	0.	7.5054e-003
13268	11.12	4.3636	0.	7.115e-003
13269	11.212	4.3636	5.e-002	5.127
13270	11.212	4.0909	0.	6.4528e-003
13271	11.12	4.1818	0.	6.2199e-003
13272	11.212	4.1818	5.e-002	5.1289
13273	11.212	3.9091	0.	5.876e-003
13274	11.12	4.	0.	5.7191e-003
13275	11.212	4.	5.e-002	5.1306
13276	11.212	3.7273	0.	5.5282e-003
13277	11.12	3.8182	0.	5.4099e-003
13278	11.212	3.8182	5.e-002	5.1319
13279	11.212	3.5455	0.	5.311e-003
13280	11.12	3.6364	0.	5.2107e-003
13281	11.212	3.6364	5.e-002	5.1329
13282	11.212	3.3636	0.	5.1774e-003
13283	11.12	3.4545	0.	5.0834e-003
13284	11.212	3.4545	5.e-002	5.1337
13285	11.212	3.1818	0.	5.1043e-003
13286	11.12	3.2727	0.	5.0058e-003
13287	11.212	3.2727	5.e-002	5.1342
13288	11.212	3.	0.	5.0812e-003
13289	11.12	3.0909	0.	4.9694e-003
13290	11.212	3.0909	5.e-002	5.1345
13291	11.212	2.8182	0.	5.1045e-003
13292	11.12	2.9091	0.	4.9695e-003
13293	11.212	2.9091	5.e-002	5.1345
13294	11.212	2.6364	0.	5.1777e-003
13295	11.12	2.7273	0.	5.0062e-003
13296	11.212	2.7273	5.e-002	5.1343
13297	11.212	2.4545	0.	5.3113e-003
13298	11.12	2.5455	0.	5.0835e-003
13299	11.212	2.5455	5.e-002	5.1337
13300	11.212	2.2727	0.	5.5282e-003
13301	11.12	2.3636	0.	5.2111e-003
13302	11.212	2.3636	5.e-002	5.133
13303	11.212	2.0909	0.	5.8764e-003
13304	11.12	2.1818	0.	5.4097e-003
13305	11.212	2.1818	5.e-002	5.1319
13306	11.212	1.9091	0.	6.4536e-003
13307	11.12	2.	0.	5.7196e-003
13308	11.212	2.	5.e-002	5.1306
13309	11.212	1.7273	0.	7.5058e-003
13310	11.12	1.8182	0.	6.2205e-003
13311	11.212	1.8182	5.e-002	5.129
13312	11.212	1.5455	0.	9.8325e-003
13313	11.12	1.6364	0.	7.1153e-003
13314	11.212	1.6364	5.e-002	5.127
13315	11.212	1.3636	0.	1.8132e-002
13316	11.12	1.4545	0.	9.0363e-003
13317	11.212	1.4545	5.e-002	5.1248
13318	11.212	1.1818	0.	0.33246
13319	11.12	1.2727	0.	1.5416e-002
13320	11.212	1.2727	5.e-002	5.1222
13321	11.212	1.	0.	1.7211
13322	11.12	1.0909	0.	0.24638
13323	11.212	1.0909	5.e-002	5.1194
13324	11.212	0.81818	0.	3.2423
13325	11.12	0.90909	0.	1.7744
13326	11.212	0.90909	5.e-002	5.1161
13327	11.212	0.63636	0.	4.8555
13328	11.12	0.72727	0.	3.4551
13329	11.212	0.72727	5.e-002	5.1113
13330	11.212	0.45455	0.	6.584
13331	11.12	0.54545	0.	5.2305
13332	11.212	0.54545	5.e-002	5.0882
13333	11.212	0.27273	0.	9.
13334	11.12	0.36364	0.	7.1559
13335	11.212	0.36364	5.e-002	4.7893
13336	11.12	0.18182	0.	10.366
13337	11.212	0.18182	5.e-002	0.26316
13338	11.212	9.0909e-002	0.	7.2381
13339	11.029	5.7273	0.	8.4317
13340	10.937	5.8182	0.	9.9008
13341	11.029	5.8182	5.e-002	0.29626
13342	11.029	5.9091	0.	6.9671
13343	11.029	5.5455	0.	5.7775
13344	10.937	5.6364	0.	6.4542
13345	11.029	5.6364	5.e-002	4.813
13346	11.029	5.3636	0.	3.8085
13347	10.937	5.4545	0.	4.278
13348	11.029	5.4545	5.e-002	5.1117
13349	11.029	5.1818	0.	1.9657
13350	10.937	5.2727	0.	2.2609
13351	11.029	5.2727	5.e-002	5.1351
13352	11.029	5.	0.	0.2718
13353	10.937	5.0909	0.	0.37723
13354	11.029	5.0909	5.e-002	5.1401
13355	11.029	4.8182	0.	1.431e-002
13356	10.937	4.9091	0.	1.362e-002
13357	11.029	4.9091	5.e-002	5.1436
13358	11.029	4.6364	0.	8.5664e-003
13359	10.937	4.7273	0.	8.1752e-003
13360	11.029	4.7273	5.e-002	5.1466
13361	11.029	4.4545	0.	6.8485e-003
13362	10.937	4.5455	0.	6.6163e-003
13363	11.029	4.5455	5.e-002	5.1493
13364	11.029	4.2727	0.	6.044e-003
13365	10.937	4.3636	0.	5.8898e-003
13366	11.029	4.3636	5.e-002	5.1517
13367	11.029	4.0909	0.	5.5894e-003
13368	10.937	4.1818	0.	5.4772e-003
13369	11.029	4.1818	5.e-002	5.1537
13370	11.029	3.9091	0.	5.3051e-003
13371	10.937	4.	0.	5.2158e-003
13372	11.029	4.	5.e-002	5.1555
13373	11.029	3.7273	0.	5.1174e-003
13374	10.937	3.8182	0.	5.0392e-003
13375	11.029	3.8182	5.e-002	5.1569
13376	11.029	3.5455	0.	4.9928e-003
13377	10.937	3.6364	0.	4.9177e-003
13378	11.029	3.6364	5.e-002	5.158
13379	11.029	3.3636	0.	4.9127e-003
13380	10.937	3.4545	0.	4.8366e-003
13381	11.029	3.4545	5.e-002	5.1589
13382	11.029	3.1818	0.	4.8673e-003
13383	10.937	3.2727	0.	4.7851e-003
13384	11.029	3.2727	5.e-002	5.1595
13385	11.029	3.	0.	4.8527e-003
13386	10.937	3.0909	0.	4.7601e-003
13387	11.029	3.0909	5.e-002	5.1597
13388	11.029	2.8182	0.	4.8676e-003
13389	10.937	2.9091	0.	4.7602e-003
13390	11.029	2.9091	5.e-002	5.1597
13391	11.029	2.6364	0.	4.9129e-003
13392	10.937	2.7273	0.	4.7851e-003
13393	11.029	2.7273	5.e-002	5.1595
13394	11.029	2.4545	0.	4.993e-003
13395	10.937	2.5455	0.	4.8366e-003
13396	11.029	2.5455	5.e-002	5.1589
13397	11.029	2.2727	0.	5.1176e-003
13398	10.937	2.3636	0.	4.9182e-003
13399	11.029	2.3636	5.e-002	5.1581
13400	11.029	2.0909	0.	5.305e-003
13401	10.937	2.1818	0.	5.0393e-003
13402	11.029	2.1818	5.e-002	5.157
13403	11.029	1.9091	0.	5.5897e-003
13404	10.937	2.	0.	5.2161e-003
13405	11.029	2.	5.e-002	5.1555
13406	11.029	1.7273	0.	6.0445e-003
13407	10.937	1.8182	0.	5.4779e-003
13408	11.029	1.8182	5.e-002	5.1538
13409	11.029	1.5455	0.	6.8494e-003
13410	10.937	1.6364	0.	5.8903e-003
13411	11.029	1.6364	5.e-002	5.1518
13412	11.029	1.3636	0.	8.5673e-003
13413	10.937	1.4545	0.	6.6174e-003
13414	11.029	1.4545	5.e-002	5.1494
13415	11.029	1.1818	0.	1.4311e-002
13416	10.937	1.2727	0.	8.1758e-003
13417	11.029	1.2727	5.e-002	5.1467
13418	11.029	1.	0.	0.27182
13419	10.937	1.0909	0.	1.3621e-002
13420	11.029	1.0909	5.e-002	5.1437
13421	11.029	0.81818	0.	1.9658
13422	10.937	0.90909	0.	0.37725
13423	11.029	0.90909	5.e-002	5.1402
13424	11.029	0.63636	0.	3.8085
13425	10.937	0.72727	0.	2.261
13426	11.029	0.72727	5.e-002	5.1352
13427	11.029	0.45455	0.	5.7776
13428	10.937	0.54545	0.	4.278
13429	11.029	0.54545	5.e-002	5.1118
13430	11.029	0.27273	0.	8.4317
13431	10.937	0.36364	0.	6.4543
13432	11.029	0.36364	5.e-002	4.8131
13433	10.937	0.18182	0.	9.9008
13434	11.029	0.18182	5.e-002	0.29638
13435	11.029	9.0909e-002	0.	6.9671
13436	10.845	5.7273	0.	7.8347
13437	10.753	5.8182	0.	9.4119
13438	10.845	5.8182	5.e-002	0.33483
13439	10.845	5.9091	0.	6.6826
13440	10.845	5.5455	0.	4.9302
13441	10.753	5.6364	0.	5.716
13442	10.845	5.6364	5.e-002	4.8377
13443	10.845	5.3636	0.	2.7087
13444	10.753	5.4545	0.	3.2755
13445	10.845	5.4545	5.e-002	5.136
13446	10.845	5.1818	0.	0.63517
13447	10.753	5.2727	0.	1.0077
13448	10.845	5.2727	5.e-002	5.1595
13449	10.845	5.	0.	1.3788e-002
13450	10.753	5.0909	0.	1.4381e-002
13451	10.845	5.0909	5.e-002	5.1647
13452	10.845	4.8182	0.	7.9579e-003
13453	10.753	4.9091	0.	7.7065e-003
13454	10.845	4.9091	5.e-002	5.1684
13455	10.845	4.6364	0.	6.4546e-003
13456	10.753	4.7273	0.	6.2506e-003
13457	10.845	4.7273	5.e-002	5.1717
13458	10.845	4.4545	0.	5.7746e-003
13459	10.753	4.5455	0.	5.6193e-003
13460	10.845	4.5455	5.e-002	5.1745
13461	10.845	4.2727	0.	5.388e-003
13462	10.753	4.3636	0.	5.2595e-003
13463	10.845	4.3636	5.e-002	5.177
13464	10.845	4.0909	0.	5.1408e-003
13465	10.753	4.1818	0.	5.0269e-003
13466	10.845	4.1818	5.e-002	5.1792
13467	10.845	3.9091	0.	4.9709e-003
13468	10.753	4.	0.	4.8641e-003
13469	10.845	4.	5.e-002	5.181
13470	10.845	3.7273	0.	4.8504e-003
13471	10.753	3.8182	0.	4.7442e-003
13472	10.845	3.8182	5.e-002	5.1825
13473	10.845	3.5455	0.	4.7662e-003
13474	10.753	3.6364	0.	4.6569e-003
13475	10.845	3.6364	5.e-002	5.1838
13476	10.845	3.3636	0.	4.7098e-003
13477	10.753	3.4545	0.	4.5959e-003
13478	10.845	3.4545	5.e-002	5.1847
13479	10.845	3.1818	0.	4.6766e-003
13480	10.753	3.2727	0.	4.5556e-003
13481	10.845	3.2727	5.e-002	5.1852
13482	10.845	3.	0.	4.6657e-003
13483	10.753	3.0909	0.	4.5354e-003
13484	10.845	3.0909	5.e-002	5.1855
13485	10.845	2.8182	0.	4.6765e-003
13486	10.753	2.9091	0.	4.5357e-003
13487	10.845	2.9091	5.e-002	5.1855
13488	10.845	2.6364	0.	4.7096e-003
13489	10.753	2.7273	0.	4.5554e-003
13490	10.845	2.7273	5.e-002	5.1852
13491	10.845	2.4545	0.	4.7665e-003
13492	10.753	2.5455	0.	4.5961e-003
13493	10.845	2.5455	5.e-002	5.1847
13494	10.845	2.2727	0.	4.8509e-003
13495	10.753	2.3636	0.	4.6571e-003
13496	10.845	2.3636	5.e-002	5.1838
13497	10.845	2.0909	0.	4.9714e-003
13498	10.753	2.1818	0.	4.7445e-003
13499	10.845	2.1818	5.e-002	5.1826
13500	10.845	1.9091	0.	5.1414e-003
13501	10.753	2.	0.	4.8645e-003
13502	10.845	2.	5.e-002	5.1811
13503	10.845	1.7273	0.	5.3885e-003
13504	10.753	1.8182	0.	5.0275e-003
13505	10.845	1.8182	5.e-002	5.1792
13506	10.845	1.5455	0.	5.7753e-003
13507	10.753	1.6364	0.	5.2601e-003
13508	10.845	1.6364	5.e-002	5.1771
13509	10.845	1.3636	0.	6.4554e-003
13510	10.753	1.4545	0.	5.6199e-003
13511	10.845	1.4545	5.e-002	5.1746
13512	10.845	1.1818	0.	7.9587e-003
13513	10.753	1.2727	0.	6.2513e-003
13514	10.845	1.2727	5.e-002	5.1717
13515	10.845	1.	0.	1.3789e-002
13516	10.753	1.0909	0.	7.7072e-003
13517	10.845	1.0909	5.e-002	5.1685
13518	10.845	0.81818	0.	0.6352
13519	10.753	0.90909	0.	1.4384e-002
13520	10.845	0.90909	5.e-002	5.1648
13521	10.845	0.63636	0.	2.7087
13522	10.753	0.72727	0.	1.0077
13523	10.845	0.72727	5.e-002	5.1597
13524	10.845	0.45455	0.	4.9302
13525	10.753	0.54545	0.	3.2756
13526	10.845	0.54545	5.e-002	5.1361
13527	10.845	0.27273	0.	7.8347
13528	10.753	0.36364	0.	5.7161
13529	10.845	0.36364	5.e-002	4.8378
13530	10.753	0.18182	0.	9.4119
13531	10.845	0.18182	5.e-002	0.33496
13532	10.845	9.0909e-002	0.	6.6827
13533	10.661	5.7273	0.	7.206
13534	10.569	5.8182	0.	8.8972
13535	10.661	5.8182	5.e-002	0.37877
13536	10.661	5.9091	0.	6.3836
13537	10.661	5.5455	0.	4.037
13538	10.569	5.6364	0.	4.9372
13539	10.661	5.6364	5.e-002	4.8633
13540	10.661	5.3636	0.	1.55
13541	10.569	5.4545	0.	2.2174
13542	10.661	5.4545	5.e-002	5.161
13543	10.661	5.1818	0.	1.7346e-002
13544	10.569	5.2727	0.	2.9415e-002
13545	10.661	5.2727	5.e-002	5.1847
13546	10.661	5.	0.	7.5737e-003
13547	10.569	5.0909	0.	7.4349e-003
13548	10.661	5.0909	5.e-002	5.1901
13549	10.661	4.8182	0.	6.107e-003
13550	10.569	4.9091	0.	5.9538e-003
13551	10.661	4.9091	5.e-002	5.194
13552	10.661	4.6364	0.	5.4951e-003
13553	10.569	4.7273	0.	5.368e-003
13554	10.661	4.7273	5.e-002	5.1974
13555	10.661	4.4545	0.	5.1545e-003
13556	10.569	4.5455	0.	5.0504e-003
13557	10.661	4.5455	5.e-002	5.2004
13558	10.661	4.2727	0.	4.93e-003
13559	10.569	4.3636	0.	4.8351e-003
13560	10.661	4.3636	5.e-002	5.203
13561	10.661	4.0909	0.	4.7699e-003
13562	10.569	4.1818	0.	4.678e-003
13563	10.661	4.1818	5.e-002	5.2054
13564	10.661	3.9091	0.	4.6494e-003
13565	10.569	4.	0.	4.5556e-003
13566	10.661	4.	5.e-002	5.2073
13567	10.661	3.7273	0.	4.5575e-003
13568	10.569	3.8182	0.	4.4587e-003
13569	10.661	3.8182	5.e-002	5.2089
13570	10.661	3.5455	0.	4.49e-003
13571	10.569	3.6364	0.	4.3835e-003
13572	10.661	3.6364	5.e-002	5.2101
13573	10.661	3.3636	0.	4.4429e-003
13574	10.569	3.4545	0.	4.3292e-003
13575	10.661	3.4545	5.e-002	5.211
13576	10.661	3.1818	0.	4.4144e-003
13577	10.569	3.2727	0.	4.2923e-003
13578	10.661	3.2727	5.e-002	5.2116
13579	10.661	3.	0.	4.405e-003
13580	10.569	3.0909	0.	4.2735e-003
13581	10.661	3.0909	5.e-002	5.212
13582	10.661	2.8182	0.	4.4146e-003
13583	10.569	2.9091	0.	4.2739e-003
13584	10.661	2.9091	5.e-002	5.212
13585	10.661	2.6364	0.	4.443e-003
13586	10.569	2.7273	0.	4.2926e-003
13587	10.661	2.7273	5.e-002	5.2117
13588	10.661	2.4545	0.	4.49e-003
13589	10.569	2.5455	0.	4.3292e-003
13590	10.661	2.5455	5.e-002	5.2111
13591	10.661	2.2727	0.	4.5576e-003
13592	10.569	2.3636	0.	4.3834e-003
13593	10.661	2.3636	5.e-002	5.2101
13594	10.661	2.0909	0.	4.6497e-003
13595	10.569	2.1818	0.	4.459e-003
13596	10.661	2.1818	5.e-002	5.2089
13597	10.661	1.9091	0.	4.7703e-003
13598	10.569	2.	0.	4.5561e-003
13599	10.661	2.	5.e-002	5.2073
13600	10.661	1.7273	0.	4.9307e-003
13601	10.569	1.8182	0.	4.6784e-003
13602	10.661	1.8182	5.e-002	5.2054
13603	10.661	1.5455	0.	5.155e-003
13604	10.569	1.6364	0.	4.8357e-003
13605	10.661	1.6364	5.e-002	5.2031
13606	10.661	1.3636	0.	5.4956e-003
13607	10.569	1.4545	0.	5.0512e-003
13608	10.661	1.4545	5.e-002	5.2005
13609	10.661	1.1818	0.	6.1076e-003
13610	10.569	1.2727	0.	5.3682e-003
13611	10.661	1.2727	5.e-002	5.1975
13612	10.661	1.	0.	7.5753e-003
13613	10.569	1.0909	0.	5.9541e-003
13614	10.661	1.0909	5.e-002	5.1941
13615	10.661	0.81818	0.	1.7349e-002
13616	10.569	0.90909	0.	7.4368e-003
13617	10.661	0.90909	5.e-002	5.1902
13618	10.661	0.63636	0.	1.5501
13619	10.569	0.72727	0.	2.9418e-002
13620	10.661	0.72727	5.e-002	5.1848
13621	10.661	0.45455	0.	4.0371
13622	10.569	0.54545	0.	2.2175
13623	10.661	0.54545	5.e-002	5.1611
13624	10.661	0.27273	0.	7.206
13625	10.569	0.36364	0.	4.9373
13626	10.661	0.36364	5.e-002	4.8634
13627	10.569	0.18182	0.	8.8973
13628	10.661	0.18182	5.e-002	0.37888
13629	10.661	9.0909e-002	0.	6.3836
13630	10.477	5.7273	0.	6.5428
13631	10.385	5.8182	0.	8.3549
13632	10.477	5.8182	5.e-002	0.42824
13633	10.477	5.9091	0.	6.0689
13634	10.477	5.5455	0.	3.0933
13635	10.385	5.6364	0.	4.114
13636	10.477	5.6364	5.e-002	4.89
13637	10.477	5.3636	0.	0.33807
13638	10.385	5.4545	0.	1.0985
13639	10.477	5.4545	5.e-002	5.1867
13640	10.477	5.1818	0.	7.5985e-003
13641	10.385	5.2727	0.	7.911e-003
13642	10.477	5.2727	5.e-002	5.2106
13643	10.477	5.	0.	5.8226e-003
13644	10.385	5.0909	0.	5.694e-003
13645	10.477	5.0909	5.e-002	5.2163
13646	10.477	4.8182	0.	5.2785e-003
13647	10.385	4.9091	0.	5.2104e-003
13648	10.477	4.9091	5.e-002	5.2204
13649	10.477	4.6364	0.	4.9685e-003
13650	10.385	4.7273	0.	4.9115e-003
13651	10.477	4.7273	5.e-002	5.224
13652	10.477	4.4545	0.	4.7611e-003
13653	10.385	4.5455	0.	4.7146e-003
13654	10.477	4.5455	5.e-002	5.2272
13655	10.477	4.2727	0.	4.603e-003
13656	10.385	4.3636	0.	4.554e-003
13657	10.477	4.3636	5.e-002	5.2299
13658	10.477	4.0909	0.	4.4767e-003
13659	10.385	4.1818	0.	4.4229e-003
13660	10.477	4.1818	5.e-002	5.2323
13661	10.477	3.9091	0.	4.3732e-003
13662	10.385	4.	0.	4.3113e-003
13663	10.477	4.	5.e-002	5.2344
13664	10.477	3.7273	0.	4.2896e-003
13665	10.385	3.8182	0.	4.2178e-003
13666	10.477	3.8182	5.e-002	5.236
13667	10.477	3.5455	0.	4.2255e-003
13668	10.385	3.6364	0.	4.1425e-003
13669	10.477	3.6364	5.e-002	5.2373
13670	10.477	3.3636	0.	4.18e-003
13671	10.385	3.4545	0.	4.0867e-003
13672	10.477	3.4545	5.e-002	5.2383
13673	10.477	3.1818	0.	4.152e-003
13674	10.385	3.2727	0.	4.0483e-003
13675	10.477	3.2727	5.e-002	5.239
13676	10.477	3.	0.	4.1427e-003
13677	10.385	3.0909	0.	4.0286e-003
13678	10.477	3.0909	5.e-002	5.2393
13679	10.477	2.8182	0.	4.1525e-003
13680	10.385	2.9091	0.	4.0288e-003
13681	10.477	2.9091	5.e-002	5.2393
13682	10.477	2.6364	0.	4.1802e-003
13683	10.385	2.7273	0.	4.0487e-003
13684	10.477	2.7273	5.e-002	5.239
13685	10.477	2.4545	0.	4.2254e-003
13686	10.385	2.5455	0.	4.0866e-003
13687	10.477	2.5455	5.e-002	5.2383
13688	10.477	2.2727	0.	4.2898e-003
13689	10.385	2.3636	0.	4.1427e-003
13690	10.477	2.3636	5.e-002	5.2374
13691	10.477	2.0909	0.	4.3738e-003
13692	10.385	2.1818	0.	4.2185e-003
13693	10.477	2.1818	5.e-002	5.2361
13694	10.477	1.9091	0.	4.4773e-003
13695	10.385	2.	0.	4.3121e-003
13696	10.477	2.	5.e-002	5.2344
13697	10.477	1.7273	0.	4.6034e-003
13698	10.385	1.8182	0.	4.4232e-003
13699	10.477	1.8182	5.e-002	5.2324
13700	10.477	1.5455	0.	4.762e-003
13701	10.385	1.6364	0.	4.5545e-003
13702	10.477	1.6364	5.e-002	5.23
13703	10.477	1.3636	0.	4.9691e-003
13704	10.385	1.4545	0.	4.7153e-003
13705	10.477	1.4545	5.e-002	5.2272
13706	10.477	1.1818	0.	5.2784e-003
13707	10.385	1.2727	0.	4.9121e-003
13708	10.477	1.2727	5.e-002	5.2241
13709	10.477	1.	0.	5.8232e-003
13710	10.385	1.0909	0.	5.2107e-003
13711	10.477	1.0909	5.e-002	5.2205
13712	10.477	0.81818	0.	7.5992e-003
13713	10.385	0.90909	0.	5.6955e-003
13714	10.477	0.90909	5.e-002	5.2164
13715	10.477	0.63636	0.	0.3381
13716	10.385	0.72727	0.	7.9119e-003
13717	10.477	0.72727	5.e-002	5.2107
13718	10.477	0.45455	0.	3.0934
13719	10.385	0.54545	0.	1.0985
13720	10.477	0.54545	5.e-002	5.1869
13721	10.477	0.27273	0.	6.5428
13722	10.385	0.36364	0.	4.1141
13723	10.477	0.36364	5.e-002	4.8901
13724	10.385	0.18182	0.	8.3549
13725	10.477	0.18182	5.e-002	0.42834
13726	10.477	9.0909e-002	0.	6.069
13727	10.293	5.7273	0.	5.8422
13728	10.201	5.8182	0.	7.7828
13729	10.293	5.8182	5.e-002	0.48327
13730	10.293	5.9091	0.	5.7377
13731	10.293	5.5455	0.	2.094
13732	10.201	5.6364	0.	3.2421
13733	10.293	5.6364	5.e-002	4.9177
13734	10.293	5.3636	0.	8.4298e-003
13735	10.201	5.4545	0.	2.467e-002
13736	10.293	5.4545	5.e-002	5.2133
13737	10.293	5.1818	0.	5.7526e-003
13738	10.201	5.2727	0.	5.8019e-003
13739	10.293	5.2727	5.e-002	5.2373
13740	10.293	5.	0.	5.1407e-003
13741	10.201	5.0909	0.	5.0537e-003
13742	10.293	5.0909	5.e-002	5.2433
13743	10.293	4.8182	0.	4.8897e-003
13744	10.201	4.9091	0.	4.8641e-003
13745	10.293	4.9091	5.e-002	5.2476
13746	10.293	4.6364	0.	4.6888e-003
13747	10.201	4.7273	0.	4.6577e-003
13748	10.293	4.7273	5.e-002	5.2514
13749	10.293	4.4545	0.	4.5283e-003
13750	10.201	4.5455	0.	4.4965e-003
13751	10.293	4.5455	5.e-002	5.2547
13752	10.293	4.2727	0.	4.388e-003
13753	10.201	4.3636	0.	4.3453e-003
13754	10.293	4.3636	5.e-002	5.2576
13755	10.293	4.0909	0.	4.2669e-003
13756	10.201	4.1818	0.	4.2119e-003
13757	10.293	4.1818	5.e-002	5.2601
13758	10.293	3.9091	0.	4.162e-003
13759	10.201	4.	0.	4.0938e-003
13760	10.293	4.	5.e-002	5.2623
13761	10.293	3.7273	0.	4.0745e-003
13762	10.201	3.8182	0.	3.9911e-003
13763	10.293	3.8182	5.e-002	5.264
13764	10.293	3.5455	0.	4.0059e-003
13765	10.201	3.6364	0.	3.9075e-003
13766	10.293	3.6364	5.e-002	5.2653
13767	10.293	3.3636	0.	3.9561e-003
13768	10.201	3.4545	0.	3.8441e-003
13769	10.293	3.4545	5.e-002	5.2664
13770	10.293	3.1818	0.	3.9255e-003
13771	10.201	3.2727	0.	3.8007e-003
13772	10.293	3.2727	5.e-002	5.267
13773	10.293	3.	0.	3.9151e-003
13774	10.201	3.0909	0.	3.778e-003
13775	10.293	3.0909	5.e-002	5.2674
13776	10.293	2.8182	0.	3.9257e-003
13777	10.201	2.9091	0.	3.7783e-003
13778	10.293	2.9091	5.e-002	5.2674
13779	10.293	2.6364	0.	3.9563e-003
13780	10.201	2.7273	0.	3.8007e-003
13781	10.293	2.7273	5.e-002	5.2671
13782	10.293	2.4545	0.	4.0062e-003
13783	10.201	2.5455	0.	3.8441e-003
13784	10.293	2.5455	5.e-002	5.2664
13785	10.293	2.2727	0.	4.0752e-003
13786	10.201	2.3636	0.	3.9077e-003
13787	10.293	2.3636	5.e-002	5.2654
13788	10.293	2.0909	0.	4.1629e-003
13789	10.201	2.1818	0.	3.9918e-003
13790	10.293	2.1818	5.e-002	5.264
13791	10.293	1.9091	0.	4.2674e-003
13792	10.201	2.	0.	4.0941e-003
13793	10.293	2.	5.e-002	5.2623
13794	10.293	1.7273	0.	4.3884e-003
13795	10.201	1.8182	0.	4.2123e-003
13796	10.293	1.8182	5.e-002	5.2602
13797	10.293	1.5455	0.	4.5287e-003
13798	10.201	1.6364	0.	4.3458e-003
13799	10.293	1.6364	5.e-002	5.2577
13800	10.293	1.3636	0.	4.6894e-003
13801	10.201	1.4545	0.	4.4967e-003
13802	10.293	1.4545	5.e-002	5.2548
13803	10.293	1.1818	0.	4.8906e-003
13804	10.201	1.2727	0.	4.6587e-003
13805	10.293	1.2727	5.e-002	5.2514
13806	10.293	1.	0.	5.1419e-003
13807	10.201	1.0909	0.	4.8647e-003
13808	10.293	1.0909	5.e-002	5.2477
13809	10.293	0.81818	0.	5.7543e-003
13810	10.201	0.90909	0.	5.0555e-003
13811	10.293	0.90909	5.e-002	5.2434
13812	10.293	0.63636	0.	8.4308e-003
13813	10.201	0.72727	0.	5.8033e-003
13814	10.293	0.72727	5.e-002	5.2375
13815	10.293	0.45455	0.	2.094
13816	10.201	0.54545	0.	2.4676e-002
13817	10.293	0.54545	5.e-002	5.2134
13818	10.293	0.27273	0.	5.8423
13819	10.201	0.36364	0.	3.2421
13820	10.293	0.36364	5.e-002	4.9178
13821	10.201	0.18182	0.	7.7829
13822	10.293	0.18182	5.e-002	0.48339
13823	10.293	9.0909e-002	0.	5.7377
13824	10.11	5.7273	0.	5.1009
13825	10.018	5.8182	0.	7.1789
13826	10.11	5.8182	5.e-002	0.54422
13827	10.11	5.9091	0.	5.3885
13828	10.11	5.5455	0.	1.0334
13829	10.018	5.6364	0.	2.3171
13830	10.11	5.6364	5.e-002	4.9465
13831	10.11	5.3636	0.	5.1791e-003
13832	10.018	5.4545	0.	4.4524e-003
13833	10.11	5.4545	5.e-002	5.2407
13834	10.11	5.1818	0.	5.1701e-003
13835	10.018	5.2727	0.	5.3393e-003
13836	10.11	5.2727	5.e-002	5.265
13837	10.11	5.	0.	4.8308e-003
13838	10.018	5.0909	0.	4.8251e-003
13839	10.11	5.0909	5.e-002	5.2711
13840	10.11	4.8182	0.	4.6665e-003
13841	10.018	4.9091	0.	4.7069e-003
13842	10.11	4.9091	5.e-002	5.2756
13843	10.11	4.6364	0.	4.488e-003
13844	10.018	4.7273	0.	4.5057e-003
13845	10.11	4.7273	5.e-002	5.2796
13846	10.11	4.4545	0.	4.3286e-003
13847	10.018	4.5455	0.	4.3341e-003
13848	10.11	4.5455	5.e-002	5.2831
13849	10.11	4.2727	0.	4.1794e-003
13850	10.018	4.3636	0.	4.1652e-003
13851	10.11	4.3636	5.e-002	5.2862
13852	10.11	4.0909	0.	4.0457e-003
13853	10.018	4.1818	0.	4.0118e-003
13854	10.11	4.1818	5.e-002	5.2888
13855	10.11	3.9091	0.	3.9273e-003
13856	10.018	4.	0.	3.8743e-003
13857	10.11	4.	5.e-002	5.291
13858	10.11	3.7273	0.	3.8269e-003
13859	10.018	3.8182	0.	3.7542e-003
13860	10.11	3.8182	5.e-002	5.2928
13861	10.11	3.5455	0.	3.7474e-003
13862	10.018	3.6364	0.	3.6553e-003
13863	10.11	3.6364	5.e-002	5.2942
13864	10.11	3.3636	0.	3.6895e-003
13865	10.018	3.4545	0.	3.5803e-003
13866	10.11	3.4545	5.e-002	5.2953
13867	10.11	3.1818	0.	3.6536e-003
13868	10.018	3.2727	0.	3.5288e-003
13869	10.11	3.2727	5.e-002	5.2959
13870	10.11	3.	0.	3.6414e-003
13871	10.018	3.0909	0.	3.5022e-003
13872	10.11	3.0909	5.e-002	5.2963
13873	10.11	2.8182	0.	3.6537e-003
13874	10.018	2.9091	0.	3.5024e-003
13875	10.11	2.9091	5.e-002	5.2963
13876	10.11	2.6364	0.	3.6893e-003
13877	10.018	2.7273	0.	3.5288e-003
13878	10.11	2.7273	5.e-002	5.296
13879	10.11	2.4545	0.	3.7472e-003
13880	10.018	2.5455	0.	3.5803e-003
13881	10.11	2.5455	5.e-002	5.2953
13882	10.11	2.2727	0.	3.827e-003
13883	10.018	2.3636	0.	3.6552e-003
13884	10.11	2.3636	5.e-002	5.2942
13885	10.11	2.0909	0.	3.9274e-003
13886	10.018	2.1818	0.	3.7545e-003
13887	10.11	2.1818	5.e-002	5.2928
13888	10.11	1.9091	0.	4.0458e-003
13889	10.018	2.	0.	3.8747e-003
13890	10.11	2.	5.e-002	5.291
13891	10.11	1.7273	0.	4.1799e-003
13892	10.018	1.8182	0.	4.0124e-003
13893	10.11	1.8182	5.e-002	5.2888
13894	10.11	1.5455	0.	4.3289e-003
13895	10.018	1.6364	0.	4.166e-003
13896	10.11	1.6364	5.e-002	5.2862
13897	10.11	1.3636	0.	4.4885e-003
13898	10.018	1.4545	0.	4.3346e-003
13899	10.11	1.4545	5.e-002	5.2832
13900	10.11	1.1818	0.	4.6671e-003
13901	10.018	1.2727	0.	4.5065e-003
13902	10.11	1.2727	5.e-002	5.2797
13903	10.11	1.	0.	4.8319e-003
13904	10.018	1.0909	0.	4.7073e-003
13905	10.11	1.0909	5.e-002	5.2758
13906	10.11	0.81818	0.	5.1717e-003
13907	10.018	0.90909	0.	4.8264e-003
13908	10.11	0.90909	5.e-002	5.2712
13909	10.11	0.63636	0.	5.1801e-003
13910	10.018	0.72727	0.	5.3407e-003
13911	10.11	0.72727	5.e-002	5.2651
13912	10.11	0.45455	0.	1.0334
13913	10.018	0.54545	0.	4.4529e-003
13914	10.11	0.54545	5.e-002	5.2408
13915	10.11	0.27273	0.	5.1009
13916	10.018	0.36364	0.	2.3172
13917	10.11	0.36364	5.e-002	4.9466
13918	10.018	0.18182	0.	7.1789
13919	10.11	0.18182	5.e-002	0.54432
13920	10.11	9.0909e-002	0.	5.3885
13921	9.9257	5.7273	0.	4.3158
13922	9.8338	5.8182	0.	6.5409
13923	9.9257	5.8182	5.e-002	0.61135
13924	9.9257	5.9091	0.	5.0203
13925	9.9257	5.5455	0.	7.7319e-003
13926	9.8338	5.6364	0.	1.3349
13927	9.9257	5.6364	5.e-002	4.9765
13928	9.9257	5.3636	0.	4.733e-003
13929	9.8338	5.4545	0.	4.1536e-003
13930	9.9257	5.4545	5.e-002	5.269
13931	9.9257	5.1818	0.	5.0643e-003
13932	9.8338	5.2727	0.	5.4017e-003
13933	9.9257	5.2727	5.e-002	5.2935
13934	9.9257	5.	0.	4.7403e-003
13935	9.8338	5.0909	0.	4.8211e-003
13936	9.9257	5.0909	5.e-002	5.2999
13937	9.9257	4.8182	0.	4.5702e-003
13938	9.8338	4.9091	0.	4.6784e-003
13939	9.9257	4.9091	5.e-002	5.3047
13940	9.9257	4.6364	0.	4.3675e-003
13941	9.8338	4.7273	0.	4.4347e-003
13942	9.9257	4.7273	5.e-002	5.3088
13943	9.9257	4.4545	0.	4.1812e-003
13944	9.8338	4.5455	0.	4.225e-003
13945	9.9257	4.5455	5.e-002	5.3125
13946	9.9257	4.2727	0.	4.0046e-003
13947	9.8338	4.3636	0.	4.0194e-003
13948	9.9257	4.3636	5.e-002	5.3157
13949	9.9257	4.0909	0.	3.845e-003
13950	9.8338	4.1818	0.	3.8327e-003
13951	9.9257	4.1818	5.e-002	5.3184
13952	9.9257	3.9091	0.	3.704e-003
13953	9.8338	4.	0.	3.6661e-003
13954	9.9257	4.	5.e-002	5.3207
13955	9.9257	3.7273	0.	3.5842e-003
13956	9.8338	3.8182	0.	3.5212e-003
13957	9.9257	3.8182	5.e-002	5.3226
13958	9.9257	3.5455	0.	3.4889e-003
13959	9.8338	3.6364	0.	3.402e-003
13960	9.9257	3.6364	5.e-002	5.324
13961	9.9257	3.3636	0.	3.4198e-003
13962	9.8338	3.4545	0.	3.3119e-003
13963	9.9257	3.4545	5.e-002	5.3251
13964	9.9257	3.1818	0.	3.3773e-003
13965	9.8338	3.2727	0.	3.2501e-003
13966	9.9257	3.2727	5.e-002	5.3258
13967	9.9257	3.	0.	3.363e-003
13968	9.8338	3.0909	0.	3.2185e-003
13969	9.9257	3.0909	5.e-002	5.3262
13970	9.9257	2.8182	0.	3.3774e-003
13971	9.8338	2.9091	0.	3.2186e-003
13972	9.9257	2.9091	5.e-002	5.3262
13973	9.9257	2.6364	0.	3.42e-003
13974	9.8338	2.7273	0.	3.2503e-003
13975	9.9257	2.7273	5.e-002	5.3258
13976	9.9257	2.4545	0.	3.4891e-003
13977	9.8338	2.5455	0.	3.3121e-003
13978	9.9257	2.5455	5.e-002	5.3251
13979	9.9257	2.2727	0.	3.5843e-003
13980	9.8338	2.3636	0.	3.4021e-003
13981	9.9257	2.3636	5.e-002	5.3241
13982	9.9257	2.0909	0.	3.7046e-003
13983	9.8338	2.1818	0.	3.5216e-003
13984	9.9257	2.1818	5.e-002	5.3226
13985	9.9257	1.9091	0.	3.8458e-003
13986	9.8338	2.	0.	3.6667e-003
13987	9.9257	2.	5.e-002	5.3207
13988	9.9257	1.7273	0.	4.0054e-003
13989	9.8338	1.8182	0.	3.8333e-003
13990	9.9257	1.8182	5.e-002	5.3184
13991	9.9257	1.5455	0.	4.1821e-003
13992	9.8338	1.6364	0.	4.02e-003
13993	9.9257	1.6364	5.e-002	5.3157
13994	9.9257	1.3636	0.	4.3684e-003
13995	9.8338	1.4545	0.	4.2255e-003
13996	9.9257	1.4545	5.e-002	5.3125
13997	9.9257	1.1818	0.	4.5709e-003
13998	9.8338	1.2727	0.	4.4357e-003
13999	9.9257	1.2727	5.e-002	5.3089
14000	9.9257	1.	0.	4.7409e-003
14001	9.8338	1.0909	0.	4.6788e-003
14002	9.9257	1.0909	5.e-002	5.3047
14003	9.9257	0.81818	0.	5.0655e-003
14004	9.8338	0.90909	0.	4.8224e-003
14005	9.9257	0.90909	5.e-002	5.3
14006	9.9257	0.63636	0.	4.7339e-003
14007	9.8338	0.72727	0.	5.4032e-003
14008	9.9257	0.72727	5.e-002	5.2936
14009	9.9257	0.45455	0.	7.732e-003
14010	9.8338	0.54545	0.	4.1539e-003
14011	9.9257	0.54545	5.e-002	5.2692
14012	9.9257	0.27273	0.	4.3159
14013	9.8338	0.36364	0.	1.335
14014	9.9257	0.36364	5.e-002	4.9767
14015	9.8338	0.18182	0.	6.541
14016	9.9257	0.18182	5.e-002	0.61146
14017	9.9257	9.0909e-002	0.	5.0203
14018	9.7419	5.7273	0.	3.484
14019	9.65	5.8182	0.	5.8667
14020	9.7419	5.8182	5.e-002	0.68504
14021	9.7419	5.9091	0.	4.6318
14022	9.7419	5.5455	0.	9.0574e-003
14023	9.65	5.6364	0.	0.29984
14024	9.7419	5.6364	5.e-002	5.0079
14025	9.7419	5.3636	0.	4.8917e-003
14026	9.65	5.4545	0.	4.5363e-003
14027	9.7419	5.4545	5.e-002	5.2984
14028	9.7419	5.1818	0.	5.1968e-003
14029	9.65	5.2727	0.	5.713e-003
14030	9.7419	5.2727	5.e-002	5.323
14031	9.7419	5.	0.	4.7821e-003
14032	9.65	5.0909	0.	4.9517e-003
14033	9.7419	5.0909	5.e-002	5.3297
14034	9.7419	4.8182	0.	4.5575e-003
14035	9.65	4.9091	0.	4.7337e-003
14036	9.7419	4.9091	5.e-002	5.3347
14037	9.7419	4.6364	0.	4.3017e-003
14038	9.65	4.7273	0.	4.417e-003
14039	9.7419	4.7273	5.e-002	5.3391
14040	9.7419	4.4545	0.	4.0694e-003
14041	9.65	4.5455	0.	4.1491e-003
14042	9.7419	4.5455	5.e-002	5.3429
14043	9.7419	4.2727	0.	3.8515e-003
14044	9.65	4.3636	0.	3.8924e-003
14045	9.7419	4.3636	5.e-002	5.3462
14046	9.7419	4.0909	0.	3.6561e-003
14047	9.65	4.1818	0.	3.6621e-003
14048	9.7419	4.1818	5.e-002	5.3491
14049	9.7419	3.9091	0.	3.4843e-003
14050	9.65	4.	0.	3.4583e-003
14051	9.7419	4.	5.e-002	5.3514
14052	9.7419	3.7273	0.	3.3392e-003
14053	9.65	3.8182	0.	3.2825e-003
14054	9.7419	3.8182	5.e-002	5.3533
14055	9.7419	3.5455	0.	3.2246e-003
14056	9.65	3.6364	0.	3.1387e-003
14057	9.7419	3.6364	5.e-002	5.3549
14058	9.7419	3.3636	0.	3.1415e-003
14059	9.65	3.4545	0.	3.0303e-003
14060	9.7419	3.4545	5.e-002	5.356
14061	9.7419	3.1818	0.	3.0903e-003
14062	9.65	3.2727	0.	2.956e-003
14063	9.7419	3.2727	5.e-002	5.3567
14064	9.7419	3.	0.	3.0731e-003
14065	9.65	3.0909	0.	2.9183e-003
14066	9.7419	3.0909	5.e-002	5.3571
14067	9.7419	2.8182	0.	3.0906e-003
14068	9.65	2.9091	0.	2.9185e-003
14069	9.7419	2.9091	5.e-002	5.3571
14070	9.7419	2.6364	0.	3.1417e-003
14071	9.65	2.7273	0.	2.9564e-003
14072	9.7419	2.7273	5.e-002	5.3567
14073	9.7419	2.4545	0.	3.2248e-003
14074	9.65	2.5455	0.	3.0305e-003
14075	9.7419	2.5455	5.e-002	5.356
14076	9.7419	2.2727	0.	3.3397e-003
14077	9.65	2.3636	0.	3.139e-003
14078	9.7419	2.3636	5.e-002	5.3549
14079	9.7419	2.0909	0.	3.4849e-003
14080	9.65	2.1818	0.	3.2829e-003
14081	9.7419	2.1818	5.e-002	5.3534
14082	9.7419	1.9091	0.	3.6566e-003
14083	9.65	2.	0.	3.4586e-003
14084	9.7419	2.	5.e-002	5.3514
14085	9.7419	1.7273	0.	3.8518e-003
14086	9.65	1.8182	0.	3.6627e-003
14087	9.7419	1.8182	5.e-002	5.3491
14088	9.7419	1.5455	0.	4.0696e-003
14089	9.65	1.6364	0.	3.893e-003
14090	9.7419	1.6364	5.e-002	5.3463
14091	9.7419	1.3636	0.	4.3023e-003
14092	9.65	1.4545	0.	4.1494e-003
14093	9.7419	1.4545	5.e-002	5.343
14094	9.7419	1.1818	0.	4.5582e-003
14095	9.65	1.2727	0.	4.4173e-003
14096	9.7419	1.2727	5.e-002	5.3392
14097	9.7419	1.	0.	4.7832e-003
14098	9.65	1.0909	0.	4.7343e-003
14099	9.7419	1.0909	5.e-002	5.3348
14100	9.7419	0.81818	0.	5.1984e-003
14101	9.65	0.90909	0.	4.9532e-003
14102	9.7419	0.90909	5.e-002	5.3298
14103	9.7419	0.63636	0.	4.8926e-003
14104	9.65	0.72727	0.	5.7144e-003
14105	9.7419	0.72727	5.e-002	5.3231
14106	9.7419	0.45455	0.	9.0581e-003
14107	9.65	0.54545	0.	4.5367e-003
14108	9.7419	0.54545	5.e-002	5.2985
14109	9.7419	0.27273	0.	3.4841
14110	9.65	0.36364	0.	0.29989
14111	9.7419	0.36364	5.e-002	5.0081
14112	9.65	0.18182	0.	5.8668
14113	9.7419	0.18182	5.e-002	0.68515
14114	9.7419	9.0909e-002	0.	4.6318
14115	9.5581	5.7273	0.	2.6032
14116	9.4662	5.8182	0.	5.1544
14117	9.5581	5.8182	5.e-002	0.76578
14118	9.5581	5.9091	0.	4.2218
14119	9.5581	5.5455	0.	1.0655e-002
14120	9.4662	5.6364	0.	2.4659e-002
14121	9.5581	5.6364	5.e-002	5.0407
14122	9.5581	5.3636	0.	5.2984e-003
14123	9.4662	5.4545	0.	5.1427e-003
14124	9.5581	5.4545	5.e-002	5.3288
14125	9.5581	5.1818	0.	5.4713e-003
14126	9.4662	5.2727	0.	6.1815e-003
14127	9.5581	5.2727	5.e-002	5.3536
14128	9.5581	5.	0.	4.91e-003
14129	9.4662	5.0909	0.	5.1807e-003
14130	9.5581	5.0909	5.e-002	5.3606
14131	9.5581	4.8182	0.	4.5985e-003
14132	9.4662	4.9091	0.	4.8552e-003
14133	9.5581	4.9091	5.e-002	5.3659
14134	9.5581	4.6364	0.	4.2679e-003
14135	9.4662	4.7273	0.	4.4427e-003
14136	9.5581	4.7273	5.e-002	5.3705
14137	9.5581	4.4545	0.	3.9742e-003
14138	9.4662	4.5455	0.	4.1001e-003
14139	9.5581	4.5455	5.e-002	5.3745
14140	9.5581	4.2727	0.	3.704e-003
14141	9.4662	4.3636	0.	3.7812e-003
14142	9.5581	4.3636	5.e-002	5.3779
14143	9.5581	4.0909	0.	3.4643e-003
14144	9.4662	4.1818	0.	3.4981e-003
14145	9.5581	4.1818	5.e-002	5.3808
14146	9.5581	3.9091	0.	3.2558e-003
14147	9.4662	4.	0.	3.25e-003
14148	9.5581	4.	5.e-002	5.3832
14149	9.5581	3.7273	0.	3.0808e-003
14150	9.4662	3.8182	0.	3.038e-003
14151	9.5581	3.8182	5.e-002	5.3852
14152	9.5581	3.5455	0.	2.9428e-003
14153	9.4662	3.6364	0.	2.8658e-003
14154	9.5581	3.6364	5.e-002	5.3868
14155	9.5581	3.3636	0.	2.843e-003
14156	9.4662	3.4545	0.	2.7355e-003
14157	9.5581	3.4545	5.e-002	5.3879
14158	9.5581	3.1818	0.	2.7821e-003
14159	9.4662	3.2727	0.	2.6472e-003
14160	9.5581	3.2727	5.e-002	5.3887
14161	9.5581	3.	0.	2.7617e-003
14162	9.4662	3.0909	0.	2.6025e-003
14163	9.5581	3.0909	5.e-002	5.3891
14164	9.5581	2.8182	0.	2.7823e-003
14165	9.4662	2.9091	0.	2.6025e-003
14166	9.5581	2.9091	5.e-002	5.3891
14167	9.5581	2.6364	0.	2.8433e-003
14168	9.4662	2.7273	0.	2.6473e-003
14169	9.5581	2.7273	5.e-002	5.3887
14170	9.5581	2.4545	0.	2.9431e-003
14171	9.4662	2.5455	0.	2.7359e-003
14172	9.5581	2.5455	5.e-002	5.3879
14173	9.5581	2.2727	0.	3.0811e-003
14174	9.4662	2.3636	0.	2.8659e-003
14175	9.5581	2.3636	5.e-002	5.3868
14176	9.5581	2.0909	0.	3.256e-003
14177	9.4662	2.1818	0.	3.0386e-003
14178	9.5581	2.1818	5.e-002	5.3853
14179	9.5581	1.9091	0.	3.4648e-003
14180	9.4662	2.	0.	3.2505e-003
14181	9.5581	2.	5.e-002	5.3833
14182	9.5581	1.7273	0.	3.7048e-003
14183	9.4662	1.8182	0.	3.4986e-003
14184	9.5581	1.8182	5.e-002	5.3809
14185	9.5581	1.5455	0.	3.9749e-003
14186	9.4662	1.6364	0.	3.7818e-003
14187	9.5581	1.6364	5.e-002	5.378
14188	9.5581	1.3636	0.	4.2679e-003
14189	9.4662	1.4545	0.	4.1011e-003
14190	9.5581	1.4545	5.e-002	5.3745
14191	9.5581	1.1818	0.	4.5987e-003
14192	9.4662	1.2727	0.	4.4429e-003
14193	9.5581	1.2727	5.e-002	5.3705
14194	9.5581	1.	0.	4.9111e-003
14195	9.4662	1.0909	0.	4.8558e-003
14196	9.5581	1.0909	5.e-002	5.366
14197	9.5581	0.81818	0.	5.4726e-003
14198	9.4662	0.90909	0.	5.1825e-003
14199	9.5581	0.90909	5.e-002	5.3607
14200	9.5581	0.63636	0.	5.2992e-003
14201	9.4662	0.72727	0.	6.1826e-003
14202	9.5581	0.72727	5.e-002	5.3537
14203	9.5581	0.45455	0.	1.0656e-002
14204	9.4662	0.54545	0.	5.1431e-003
14205	9.5581	0.54545	5.e-002	5.329
14206	9.5581	0.27273	0.	2.6033
14207	9.4662	0.36364	0.	2.4661e-002
14208	9.5581	0.36364	5.e-002	5.0409
14209	9.4662	0.18182	0.	5.1544
14210	9.5581	0.18182	5.e-002	0.76589
14211	9.5581	9.0909e-002	0.	4.2219
14212	9.3743	5.7273	0.	1.6752
14213	9.2824	5.8182	0.	4.4022
14214	9.3743	5.8182	5.e-002	0.85404
14215	9.3743	5.9091	0.	3.7892
14216	9.3743	5.5455	0.	1.2387e-002
14217	9.2824	5.6364	0.	2.4682e-002
14218	9.3743	5.6364	5.e-002	5.0752
14219	9.3743	5.3636	0.	5.8652e-003
14220	9.2824	5.4545	0.	5.8828e-003
14221	9.3743	5.4545	5.e-002	5.3605
14222	9.3743	5.1818	0.	5.8607e-003
14223	9.2824	5.2727	0.	6.7707e-003
14224	9.3743	5.2727	5.e-002	5.3855
14225	9.3743	5.	0.	5.1165e-003
14226	9.2824	5.0909	0.	5.4917e-003
14227	9.3743	5.0909	5.e-002	5.3928
14228	9.3743	4.8182	0.	4.6953e-003
14229	9.2824	4.9091	0.	5.0347e-003
14230	9.3743	4.9091	5.e-002	5.3983
14231	9.3743	4.6364	0.	4.2724e-003
14232	9.2824	4.7273	0.	4.508e-003
14233	9.3743	4.7273	5.e-002	5.4031
14234	9.3743	4.4545	0.	3.9049e-003
14235	9.2824	4.5455	0.	4.0777e-003
14236	9.3743	4.5455	5.e-002	5.4072
14237	9.3743	4.2727	0.	3.573e-003
14238	9.2824	4.3636	0.	3.6852e-003
14239	9.3743	4.3636	5.e-002	5.4108
14240	9.3743	4.0909	0.	3.2813e-003
14241	9.2824	4.1818	0.	3.3412e-003
14242	9.3743	4.1818	5.e-002	5.4138
14243	9.3743	3.9091	0.	3.0297e-003
14244	9.2824	4.	0.	3.0425e-003
14245	9.3743	4.	5.e-002	5.4163
14246	9.3743	3.7273	0.	2.8202e-003
14247	9.2824	3.8182	0.	2.7889e-003
14248	9.3743	3.8182	5.e-002	5.4183
14249	9.3743	3.5455	0.	2.6556e-003
14250	9.2824	3.6364	0.	2.5838e-003
14251	9.3743	3.6364	5.e-002	5.4199
14252	9.3743	3.3636	0.	2.5367e-003
14253	9.2824	3.4545	0.	2.4294e-003
14254	9.3743	3.4545	5.e-002	5.421
14255	9.3743	3.1818	0.	2.4645e-003
14256	9.2824	3.2727	0.	2.3246e-003
14257	9.3743	3.2727	5.e-002	5.4218
14258	9.3743	3.	0.	2.4402e-003
14259	9.2824	3.0909	0.	2.2719e-003
14260	9.3743	3.0909	5.e-002	5.4222
14261	9.3743	2.8182	0.	2.4644e-003
14262	9.2824	2.9091	0.	2.272e-003
14263	9.3743	2.9091	5.e-002	5.4222
14264	9.3743	2.6364	0.	2.5367e-003
14265	9.2824	2.7273	0.	2.3248e-003
14266	9.3743	2.7273	5.e-002	5.4218
14267	9.3743	2.4545	0.	2.6557e-003
14268	9.2824	2.5455	0.	2.4295e-003
14269	9.3743	2.5455	5.e-002	5.4211
14270	9.3743	2.2727	0.	2.8206e-003
14271	9.2824	2.3636	0.	2.584e-003
14272	9.3743	2.3636	5.e-002	5.4199
14273	9.3743	2.0909	0.	3.0305e-003
14274	9.2824	2.1818	0.	2.7893e-003
14275	9.3743	2.1818	5.e-002	5.4183
14276	9.3743	1.9091	0.	3.2819e-003
14277	9.2824	2.	0.	3.043e-003
14278	9.3743	2.	5.e-002	5.4164
14279	9.3743	1.7273	0.	3.5733e-003
14280	9.2824	1.8182	0.	3.3417e-003
14281	9.3743	1.8182	5.e-002	5.4139
14282	9.3743	1.5455	0.	3.9058e-003
14283	9.2824	1.6364	0.	3.6857e-003
14284	9.3743	1.6364	5.e-002	5.4109
14285	9.3743	1.3636	0.	4.2736e-003
14286	9.2824	1.4545	0.	4.0788e-003
14287	9.3743	1.4545	5.e-002	5.4073
14288	9.3743	1.1818	0.	4.696e-003
14289	9.2824	1.2727	0.	4.5089e-003
14290	9.3743	1.2727	5.e-002	5.4032
14291	9.3743	1.	0.	5.1178e-003
14292	9.2824	1.0909	0.	5.0351e-003
14293	9.3743	1.0909	5.e-002	5.3984
14294	9.3743	0.81818	0.	5.8623e-003
14295	9.2824	0.90909	0.	5.4936e-003
14296	9.3743	0.90909	5.e-002	5.3929
14297	9.3743	0.63636	0.	5.8659e-003
14298	9.2824	0.72727	0.	6.7718e-003
14299	9.3743	0.72727	5.e-002	5.3856
14300	9.3743	0.45455	0.	1.2387e-002
14301	9.2824	0.54545	0.	5.883e-003
14302	9.3743	0.54545	5.e-002	5.3607
14303	9.3743	0.27273	0.	1.6752
14304	9.2824	0.36364	0.	2.4683e-002
14305	9.3743	0.36364	5.e-002	5.0753
14306	9.2824	0.18182	0.	4.4023
14307	9.3743	0.18182	5.e-002	0.85413
14308	9.3743	9.0909e-002	0.	3.7893
14309	9.1905	5.7273	0.	0.73085
14310	9.0986	5.8182	0.	3.6096
14311	9.1905	5.8182	5.e-002	0.95031
14312	9.1905	5.9091	0.	3.333
14313	9.1905	5.5455	0.	1.4252e-002
14314	9.0986	5.6364	0.	2.697e-002
14315	9.1905	5.6364	5.e-002	5.1113
14316	9.1905	5.3636	0.	6.5454e-003
14317	9.0986	5.4545	0.	6.7275e-003
14318	9.1905	5.4545	5.e-002	5.3935
14319	9.1905	5.1818	0.	6.3392e-003
14320	9.0986	5.2727	0.	7.4622e-003
14321	9.1905	5.2727	5.e-002	5.4186
14322	9.1905	5.	0.	5.3843e-003
14323	9.0986	5.0909	0.	5.8738e-003
14324	9.1905	5.0909	5.e-002	5.4263
14325	9.1905	4.8182	0.	4.8338e-003
14326	9.0986	4.9091	0.	5.2651e-003
14327	9.1905	4.9091	5.e-002	5.432
14328	9.1905	4.6364	0.	4.3045e-003
14329	9.0986	4.7273	0.	4.6078e-003
14330	9.1905	4.7273	5.e-002	5.437
14331	9.1905	4.4545	0.	3.8513e-003
14332	9.0986	4.5455	0.	4.0775e-003
14333	9.1905	4.5455	5.e-002	5.4413
14334	9.1905	4.2727	0.	3.4478e-003
14335	9.0986	4.3636	0.	3.6014e-003
14336	9.1905	4.3636	5.e-002	5.445
14337	9.1905	4.0909	0.	3.0973e-003
14338	9.0986	4.1818	0.	3.1882e-003
14339	9.1905	4.1818	5.e-002	5.4481
14340	9.1905	3.9091	0.	2.7969e-003
14341	9.0986	4.	0.	2.8323e-003
14342	9.1905	4.	5.e-002	5.4506
14343	9.1905	3.7273	0.	2.5478e-003
14344	9.0986	3.8182	0.	2.5321e-003
14345	9.1905	3.8182	5.e-002	5.4527
14346	9.1905	3.5455	0.	2.353e-003
14347	9.0986	3.6364	0.	2.2901e-003
14348	9.1905	3.6364	5.e-002	5.4543
14349	9.1905	3.3636	0.	2.2128e-003
14350	9.0986	3.4545	0.	2.1086e-003
14351	9.1905	3.4545	5.e-002	5.4554
14352	9.1905	3.1818	0.	2.1276e-003
14353	9.0986	3.2727	0.	1.9861e-003
14354	9.1905	3.2727	5.e-002	5.4562
14355	9.1905	3.	0.	2.0992e-003
14356	9.0986	3.0909	0.	1.9242e-003
14357	9.1905	3.0909	5.e-002	5.4566
14358	9.1905	2.8182	0.	2.1279e-003
14359	9.0986	2.9091	0.	1.9241e-003
14360	9.1905	2.9091	5.e-002	5.4566
14361	9.1905	2.6364	0.	2.2132e-003
14362	9.0986	2.7273	0.	1.9861e-003
14363	9.1905	2.7273	5.e-002	5.4562
14364	9.1905	2.4545	0.	2.3533e-003
14365	9.0986	2.5455	0.	2.1088e-003
14366	9.1905	2.5455	5.e-002	5.4555
14367	9.1905	2.2727	0.	2.5481e-003
14368	9.0986	2.3636	0.	2.2906e-003
14369	9.1905	2.3636	5.e-002	5.4543
14370	9.1905	2.0909	0.	2.7971e-003
14371	9.0986	2.1818	0.	2.5323e-003
14372	9.1905	2.1818	5.e-002	5.4527
14373	9.1905	1.9091	0.	3.0977e-003
14374	9.0986	2.	0.	2.8325e-003
14375	9.1905	2.	5.e-002	5.4507
14376	9.1905	1.7273	0.	3.4485e-003
14377	9.0986	1.8182	0.	3.1888e-003
14378	9.1905	1.8182	5.e-002	5.4481
14379	9.1905	1.5455	0.	3.852e-003
14380	9.0986	1.6364	0.	3.6018e-003
14381	9.1905	1.6364	5.e-002	5.4451
14382	9.1905	1.3636	0.	4.3053e-003
14383	9.0986	1.4545	0.	4.0783e-003
14384	9.1905	1.4545	5.e-002	5.4414
14385	9.1905	1.1818	0.	4.8344e-003
14386	9.0986	1.2727	0.	4.6086e-003
14387	9.1905	1.2727	5.e-002	5.4371
14388	9.1905	1.	0.	5.3853e-003
14389	9.0986	1.0909	0.	5.2656e-003
14390	9.1905	1.0909	5.e-002	5.4321
14391	9.1905	0.81818	0.	6.3406e-003
14392	9.0986	0.90909	0.	5.8755e-003
14393	9.1905	0.90909	5.e-002	5.4264
14394	9.1905	0.63636	0.	6.5462e-003
14395	9.0986	0.72727	0.	7.4635e-003
14396	9.1905	0.72727	5.e-002	5.4188
14397	9.1905	0.45455	0.	1.4253e-002
14398	9.0986	0.54545	0.	6.7279e-003
14399	9.1905	0.54545	5.e-002	5.3936
14400	9.1905	0.27273	0.	0.7309
14401	9.0986	0.36364	0.	2.6971e-002
14402	9.1905	0.36364	5.e-002	5.1115
14403	9.0986	0.18182	0.	3.6097
14404	9.1905	0.18182	5.e-002	0.95042
14405	9.1905	9.0909e-002	0.	3.3331
14406	9.0067	5.7273	0.	0.15125
14407	8.9148	5.8182	0.	2.7789
14408	9.0067	5.8182	5.e-002	1.0552
14409	9.0067	5.9091	0.	2.8527
14410	9.0067	5.5455	0.	1.6271e-002
14411	8.9148	5.6364	0.	2.9915e-002
14412	9.0067	5.6364	5.e-002	5.1493
14413	9.0067	5.3636	0.	7.3299e-003
14414	8.9148	5.4545	0.	7.6676e-003
14415	9.0067	5.4545	5.e-002	5.428
14416	9.0067	5.1818	0.	6.9031e-003
14417	8.9148	5.2727	0.	8.2477e-003
14418	9.0067	5.2727	5.e-002	5.4533
14419	9.0067	5.	0.	5.7127e-003
14420	8.9148	5.0909	0.	6.3205e-003
14421	9.0067	5.0909	5.e-002	5.4612
14422	9.0067	4.8182	0.	5.0157e-003
14423	8.9148	4.9091	0.	5.542e-003
14424	9.0067	4.9091	5.e-002	5.4672
14425	9.0067	4.6364	0.	4.3655e-003
14426	8.9148	4.7273	0.	4.7387e-003
14427	9.0067	4.7273	5.e-002	5.4724
14428	9.0067	4.4545	0.	3.8163e-003
14429	8.9148	4.5455	0.	4.0962e-003
14430	9.0067	4.5455	5.e-002	5.4769
14431	9.0067	4.2727	0.	3.3327e-003
14432	8.9148	4.3636	0.	3.5264e-003
14433	9.0067	4.3636	5.e-002	5.4806
14434	9.0067	4.0909	0.	2.9153e-003
14435	8.9148	4.1818	0.	3.0364e-003
14436	9.0067	4.1818	5.e-002	5.4838
14437	9.0067	3.9091	0.	2.5604e-003
14438	8.9148	4.	0.	2.6163e-003
14439	9.0067	4.	5.e-002	5.4864
14440	9.0067	3.7273	0.	2.2678e-003
14441	8.9148	3.8182	0.	2.2646e-003
14442	9.0067	3.8182	5.e-002	5.4885
14443	9.0067	3.5455	0.	2.0394e-003
14444	8.9148	3.6364	0.	1.9818e-003
14445	9.0067	3.6364	5.e-002	5.49
14446	9.0067	3.3636	0.	1.8758e-003
14447	8.9148	3.4545	0.	1.7702e-003
14448	9.0067	3.4545	5.e-002	5.4912
14449	9.0067	3.1818	0.	1.7768e-003
14450	8.9148	3.2727	0.	1.6276e-003
14451	9.0067	3.2727	5.e-002	5.492
14452	9.0067	3.	0.	1.7432e-003
14453	8.9148	3.0909	0.	1.5557e-003
14454	9.0067	3.0909	5.e-002	5.4924
14455	9.0067	2.8182	0.	1.7763e-003
14456	8.9148	2.9091	0.	1.5557e-003
14457	9.0067	2.9091	5.e-002	5.4924
14458	9.0067	2.6364	0.	1.8756e-003
14459	8.9148	2.7273	0.	1.6275e-003
14460	9.0067	2.7273	5.e-002	5.492
14461	9.0067	2.4545	0.	2.0397e-003
14462	8.9148	2.5455	0.	1.7704e-003
14463	9.0067	2.5455	5.e-002	5.4912
14464	9.0067	2.2727	0.	2.2682e-003
14465	8.9148	2.3636	0.	1.9822e-003
14466	9.0067	2.3636	5.e-002	5.4901
14467	9.0067	2.0909	0.	2.5607e-003
14468	8.9148	2.1818	0.	2.2649e-003
14469	9.0067	2.1818	5.e-002	5.4885
14470	9.0067	1.9091	0.	2.9158e-003
14471	8.9148	2.	0.	2.6168e-003
14472	9.0067	2.	5.e-002	5.4864
14473	9.0067	1.7273	0.	3.333e-003
14474	8.9148	1.8182	0.	3.0368e-003
14475	9.0067	1.8182	5.e-002	5.4838
14476	9.0067	1.5455	0.	3.8168e-003
14477	8.9148	1.6364	0.	3.5269e-003
14478	9.0067	1.6364	5.e-002	5.4807
14479	9.0067	1.3636	0.	4.3663e-003
14480	8.9148	1.4545	0.	4.0967e-003
14481	9.0067	1.4545	5.e-002	5.4769
14482	9.0067	1.1818	0.	5.0163e-003
14483	8.9148	1.2727	0.	4.7394e-003
14484	9.0067	1.2727	5.e-002	5.4725
14485	9.0067	1.	0.	5.714e-003
14486	8.9148	1.0909	0.	5.5427e-003
14487	9.0067	1.0909	5.e-002	5.4673
14488	9.0067	0.81818	0.	6.9046e-003
14489	8.9148	0.90909	0.	6.3222e-003
14490	9.0067	0.90909	5.e-002	5.4613
14491	9.0067	0.63636	0.	7.3308e-003
14492	8.9148	0.72727	0.	8.2489e-003
14493	9.0067	0.72727	5.e-002	5.4534
14494	9.0067	0.45455	0.	1.6272e-002
14495	8.9148	0.54545	0.	7.6678e-003
14496	9.0067	0.54545	5.e-002	5.4281
14497	9.0067	0.27273	0.	0.15126
14498	8.9148	0.36364	0.	2.9916e-002
14499	9.0067	0.36364	5.e-002	5.1495
14500	8.9148	0.18182	0.	2.779
14501	9.0067	0.18182	5.e-002	1.0554
14502	9.0067	9.0909e-002	0.	2.8527
14503	8.8229	5.7273	0.	7.34e-002
14504	8.731	5.8182	0.	1.9217
14505	8.8229	5.8182	5.e-002	1.1695
14506	8.8229	5.9091	0.	2.3485
14507	8.8229	5.5455	0.	1.8448e-002
14508	8.731	5.6364	0.	3.3278e-002
14509	8.8229	5.6364	5.e-002	5.1895
14510	8.8229	5.3636	0.	8.2045e-003
14511	8.731	5.4545	0.	8.7006e-003
14512	8.8229	5.4545	5.e-002	5.4641
14513	8.8229	5.1818	0.	7.5402e-003
14514	8.731	5.2727	0.	9.1228e-003
14515	8.8229	5.2727	5.e-002	5.4895
14516	8.8229	5.	0.	6.0911e-003
14517	8.731	5.0909	0.	6.8278e-003
14518	8.8229	5.0909	5.e-002	5.4977
14519	8.8229	4.8182	0.	5.2312e-003
14520	8.731	4.9091	0.	5.8617e-003
14521	8.8229	4.9091	5.e-002	5.504
14522	8.8229	4.6364	0.	4.447e-003
14523	8.731	4.7273	0.	4.897e-003
14524	8.8229	4.7273	5.e-002	5.5094
14525	8.8229	4.4545	0.	3.79e-003
14526	8.731	4.5455	0.	4.1303e-003
14527	8.8229	4.5455	5.e-002	5.514
14528	8.8229	4.2727	0.	3.2171e-003
14529	8.731	4.3636	0.	3.4567e-003
14530	8.8229	4.3636	5.e-002	5.5178
14531	8.8229	4.0909	0.	2.7265e-003
14532	8.731	4.1818	0.	2.8817e-003
14533	8.8229	4.1818	5.e-002	5.521
14534	8.8229	3.9091	0.	2.3109e-003
14535	8.731	4.	0.	2.3912e-003
14536	8.8229	4.	5.e-002	5.5236
14537	8.8229	3.7273	0.	1.9699e-003
14538	8.731	3.8182	0.	1.9821e-003
14539	8.8229	3.8182	5.e-002	5.5257
14540	8.8229	3.5455	0.	1.7044e-003
14541	8.731	3.6364	0.	1.6547e-003
14542	8.8229	3.6364	5.e-002	5.5273
14543	8.8229	3.3636	0.	1.5141e-003
14544	8.731	3.4545	0.	1.4096e-003
14545	8.8229	3.4545	5.e-002	5.5285
14546	8.8229	3.1818	0.	1.3989e-003
14547	8.731	3.2727	0.	1.2448e-003
14548	8.8229	3.2727	5.e-002	5.5292
14549	8.8229	3.	0.	1.3606e-003
14550	8.731	3.0909	0.	1.162e-003
14551	8.8229	3.0909	5.e-002	5.5296
14552	8.8229	2.8182	0.	1.3992e-003
14553	8.731	2.9091	0.	1.162e-003
14554	8.8229	2.9091	5.e-002	5.5296
14555	8.8229	2.6364	0.	1.5145e-003
14556	8.731	2.7273	0.	1.245e-003
14557	8.8229	2.7273	5.e-002	5.5292
14558	8.8229	2.4545	0.	1.7047e-003
14559	8.731	2.5455	0.	1.4099e-003
14560	8.8229	2.5455	5.e-002	5.5285
14561	8.8229	2.2727	0.	1.9702e-003
14562	8.731	2.3636	0.	1.6548e-003
14563	8.8229	2.3636	5.e-002	5.5273
14564	8.8229	2.0909	0.	2.3114e-003
14565	8.731	2.1818	0.	1.9824e-003
14566	8.8229	2.1818	5.e-002	5.5257
14567	8.8229	1.9091	0.	2.727e-003
14568	8.731	2.	0.	2.3918e-003
14569	8.8229	2.	5.e-002	5.5237
14570	8.8229	1.7273	0.	3.2179e-003
14571	8.731	1.8182	0.	2.8822e-003
14572	8.8229	1.8182	5.e-002	5.5211
14573	8.8229	1.5455	0.	3.7905e-003
14574	8.731	1.6364	0.	3.4575e-003
14575	8.8229	1.6364	5.e-002	5.5179
14576	8.8229	1.3636	0.	4.4475e-003
14577	8.731	1.4545	0.	4.1304e-003
14578	8.8229	1.4545	5.e-002	5.5141
14579	8.8229	1.1818	0.	5.232e-003
14580	8.731	1.2727	0.	4.8978e-003
14581	8.8229	1.2727	5.e-002	5.5095
14582	8.8229	1.	0.	6.0923e-003
14583	8.731	1.0909	0.	5.8625e-003
14584	8.8229	1.0909	5.e-002	5.5041
14585	8.8229	0.81818	0.	7.5416e-003
14586	8.731	0.90909	0.	6.8293e-003
14587	8.8229	0.90909	5.e-002	5.4978
14588	8.8229	0.63636	0.	8.205e-003
14589	8.731	0.72727	0.	9.1238e-003
14590	8.8229	0.72727	5.e-002	5.4896
14591	8.8229	0.45455	0.	1.8448e-002
14592	8.731	0.54545	0.	8.7005e-003
14593	8.8229	0.54545	5.e-002	5.4642
14594	8.8229	0.27273	0.	7.3403e-002
14595	8.731	0.36364	0.	3.3279e-002
14596	8.8229	0.36364	5.e-002	5.1896
14597	8.731	0.18182	0.	1.9218
14598	8.8229	0.18182	5.e-002	1.1696
14599	8.8229	9.0909e-002	0.	2.3486
14600	8.639	5.7273	0.	5.7233e-002
14601	8.5471	5.8182	0.	1.0896
14602	8.639	5.8182	5.e-002	1.2938
14603	8.639	5.9091	0.	1.8234
14604	8.639	5.5455	0.	2.0801e-002
14605	8.5471	5.6364	0.	3.7005e-002
14606	8.639	5.6364	5.e-002	5.2319
14607	8.639	5.3636	0.	9.1732e-003
14608	8.5471	5.4545	0.	9.8325e-003
14609	8.639	5.4545	5.e-002	5.5019
14610	8.639	5.1818	0.	8.2539e-003
14611	8.5471	5.2727	0.	1.0091e-002
14612	8.639	5.2727	5.e-002	5.5275
14613	8.639	5.	0.	6.5223e-003
14614	8.5471	5.0909	0.	7.3981e-003
14615	8.639	5.0909	5.e-002	5.536
14616	8.639	4.8182	0.	5.4829e-003
14617	8.5471	4.9091	0.	6.2266e-003
14618	8.639	4.9091	5.e-002	5.5426
14619	8.639	4.6364	0.	4.5505e-003
14620	8.5471	4.7273	0.	5.0844e-003
14621	8.639	4.7273	5.e-002	5.5481
14622	8.639	4.4545	0.	3.7753e-003
14623	8.5471	4.5455	0.	4.1807e-003
14624	8.639	4.5455	5.e-002	5.5528
14625	8.639	4.2727	0.	3.1042e-003
14626	8.5471	4.3636	0.	3.3938e-003
14627	8.639	4.3636	5.e-002	5.5568
14628	8.639	4.0909	0.	2.5323e-003
14629	8.5471	4.1818	0.	2.725e-003
14630	8.639	4.1818	5.e-002	5.56
14631	8.639	3.9091	0.	2.0501e-003
14632	8.5471	4.	0.	2.1571e-003
14633	8.639	4.	5.e-002	5.5626
14634	8.639	3.7273	0.	1.6558e-003
14635	8.5471	3.8182	0.	1.685e-003
14636	8.639	3.8182	5.e-002	5.5646
14637	8.639	3.5455	0.	1.3496e-003
14638	8.5471	3.6364	0.	1.3085e-003
14639	8.639	3.6364	5.e-002	5.5662
14640	8.639	3.3636	0.	1.1305e-003
14641	8.5471	3.4545	0.	1.0266e-003
14642	8.639	3.4545	5.e-002	5.5673
14643	8.639	3.1818	0.	9.9836e-004
14644	8.5471	3.2727	0.	8.3811e-004
14645	8.639	3.2727	5.e-002	5.568
14646	8.639	3.	0.	9.5395e-004
14647	8.5471	3.0909	0.	7.4314e-004
14648	8.639	3.0909	5.e-002	5.5684
14649	8.639	2.8182	0.	9.9817e-004
14650	8.5471	2.9091	0.	7.4299e-004
14651	8.639	2.9091	5.e-002	5.5684
14652	8.639	2.6364	0.	1.1305e-003
14653	8.5471	2.7273	0.	8.3799e-004
14654	8.639	2.7273	5.e-002	5.568
14655	8.639	2.4545	0.	1.3497e-003
14656	8.5471	2.5455	0.	1.027e-003
14657	8.639	2.5455	5.e-002	5.5673
14658	8.639	2.2727	0.	1.6559e-003
14659	8.5471	2.3636	0.	1.3086e-003
14660	8.639	2.3636	5.e-002	5.5662
14661	8.639	2.0909	0.	2.0504e-003
14662	8.5471	2.1818	0.	1.6854e-003
14663	8.639	2.1818	5.e-002	5.5647
14664	8.639	1.9091	0.	2.5328e-003
14665	8.5471	2.	0.	2.1575e-003
14666	8.639	2.	5.e-002	5.5626
14667	8.639	1.7273	0.	3.1048e-003
14668	8.5471	1.8182	0.	2.7253e-003
14669	8.639	1.8182	5.e-002	5.56
14670	8.639	1.5455	0.	3.7758e-003
14671	8.5471	1.6364	0.	3.3944e-003
14672	8.639	1.6364	5.e-002	5.5568
14673	8.639	1.3636	0.	4.5511e-003
14674	8.5471	1.4545	0.	4.1812e-003
14675	8.639	1.4545	5.e-002	5.5529
14676	8.639	1.1818	0.	5.4837e-003
14677	8.5471	1.2727	0.	5.0851e-003
14678	8.639	1.2727	5.e-002	5.5482
14679	8.639	1.	0.	6.5234e-003
14680	8.5471	1.0909	0.	6.2273e-003
14681	8.639	1.0909	5.e-002	5.5427
14682	8.639	0.81818	0.	8.255e-003
14683	8.5471	0.90909	0.	7.3994e-003
14684	8.639	0.90909	5.e-002	5.5362
14685	8.639	0.63636	0.	9.1738e-003
14686	8.5471	0.72727	0.	1.0092e-002
14687	8.639	0.72727	5.e-002	5.5276
14688	8.639	0.45455	0.	2.0802e-002
14689	8.5471	0.54545	0.	9.8326e-003
14690	8.639	0.54545	5.e-002	5.5021
14691	8.639	0.27273	0.	5.7235e-002
14692	8.5471	0.36364	0.	3.7007e-002
14693	8.639	0.36364	5.e-002	5.232
14694	8.5471	0.18182	0.	1.0896
14695	8.639	0.18182	5.e-002	1.2939
14696	8.639	9.0909e-002	0.	1.8235
14697	8.4552	5.7273	0.	5.2104e-002
14698	8.3633	5.8182	0.	0.48268
14699	8.4552	5.8182	5.e-002	1.4289
14700	8.4552	5.9091	0.	1.2878
14701	8.4552	5.5455	0.	2.335e-002
14702	8.3633	5.6364	0.	4.1094e-002
14703	8.4552	5.6364	5.e-002	5.2768
14704	8.4552	5.3636	0.	1.024e-002
14705	8.3633	5.4545	0.	1.107e-002
14706	8.4552	5.4545	5.e-002	5.5418
14707	8.4552	5.1818	0.	9.0464e-003
14708	8.3633	5.2727	0.	1.1158e-002
14709	8.4552	5.2727	5.e-002	5.5674
14710	8.4552	5.	0.	7.008e-003
14711	8.3633	5.0909	0.	8.0341e-003
14712	8.4552	5.0909	5.e-002	5.5763
14713	8.4552	4.8182	0.	5.7721e-003
14714	8.3633	4.9091	0.	6.6386e-003
14715	8.4552	4.9091	5.e-002	5.5831
14716	8.4552	4.6364	0.	4.6771e-003
14717	8.3633	4.7273	0.	5.3025e-003
14718	8.4552	4.7273	5.e-002	5.5888
14719	8.4552	4.4545	0.	3.7718e-003
14720	8.3633	4.5455	0.	4.2487e-003
14721	8.4552	4.5455	5.e-002	5.5936
14722	8.4552	4.2727	0.	2.9931e-003
14723	8.3633	4.3636	0.	3.3373e-003
14724	8.4552	4.3636	5.e-002	5.5975
14725	8.4552	4.0909	0.	2.3321e-003
14726	8.3633	4.1818	0.	2.566e-003
14727	8.4552	4.1818	5.e-002	5.6007
14728	8.4552	3.9091	0.	1.7767e-003
14729	8.3633	4.	0.	1.9131e-003
14730	8.4552	4.	5.e-002	5.6033
14731	8.4552	3.7273	0.	1.324e-003
14732	8.3633	3.8182	0.	1.3724e-003
14733	8.4552	3.8182	5.e-002	5.6053
14734	8.4552	3.5455	0.	9.7287e-004
14735	8.3633	3.6364	0.	9.4174e-004
14736	8.4552	3.6364	5.e-002	5.6068
14737	8.4552	3.3636	0.	7.2222e-004
14738	8.3633	3.4545	0.	6.2012e-004
14739	8.4552	3.4545	5.e-002	5.6079
14740	8.4552	3.1818	0.	5.713e-004
14741	8.3633	3.2727	0.	4.0492e-004
14742	8.4552	3.2727	5.e-002	5.6086
14743	8.4552	3.	0.	5.2071e-004
14744	8.3633	3.0909	0.	2.9683e-004
14745	8.4552	3.0909	5.e-002	5.6089
14746	8.4552	2.8182	0.	5.7121e-004
14747	8.3633	2.9091	0.	2.9688e-004
14748	8.4552	2.9091	5.e-002	5.6089
14749	8.4552	2.6364	0.	7.2246e-004
14750	8.3633	2.7273	0.	4.0489e-004
14751	8.4552	2.7273	5.e-002	5.6086
14752	8.4552	2.4545	0.	9.7322e-004
14753	8.3633	2.5455	0.	6.2056e-004
14754	8.4552	2.5455	5.e-002	5.6079
14755	8.4552	2.2727	0.	1.3245e-003
14756	8.3633	2.3636	0.	9.4198e-004
14757	8.4552	2.3636	5.e-002	5.6068
14758	8.4552	2.0909	0.	1.7772e-003
14759	8.3633	2.1818	0.	1.373e-003
14760	8.4552	2.1818	5.e-002	5.6053
14761	8.4552	1.9091	0.	2.3323e-003
14762	8.3633	2.	0.	1.9133e-003
14763	8.4552	2.	5.e-002	5.6034
14764	8.4552	1.7273	0.	2.9935e-003
14765	8.3633	1.8182	0.	2.5661e-003
14766	8.4552	1.8182	5.e-002	5.6008
14767	8.4552	1.5455	0.	3.7724e-003
14768	8.3633	1.6364	0.	3.338e-003
14769	8.4552	1.6364	5.e-002	5.5976
14770	8.4552	1.3636	0.	4.6778e-003
14771	8.3633	1.4545	0.	4.2493e-003
14772	8.4552	1.4545	5.e-002	5.5937
14773	8.4552	1.1818	0.	5.7727e-003
14774	8.3633	1.2727	0.	5.3032e-003
14775	8.4552	1.2727	5.e-002	5.5889
14776	8.4552	1.	0.	7.0088e-003
14777	8.3633	1.0909	0.	6.6391e-003
14778	8.4552	1.0909	5.e-002	5.5832
14779	8.4552	0.81818	0.	9.0476e-003
14780	8.3633	0.90909	0.	8.0354e-003
14781	8.4552	0.90909	5.e-002	5.5764
14782	8.4552	0.63636	0.	1.0241e-002
14783	8.3633	0.72727	0.	1.1159e-002
14784	8.4552	0.72727	5.e-002	5.5675
14785	8.4552	0.45455	0.	2.335e-002
14786	8.3633	0.54545	0.	1.1071e-002
14787	8.4552	0.54545	5.e-002	5.5419
14788	8.4552	0.27273	0.	5.2106e-002
14789	8.3633	0.36364	0.	4.1095e-002
14790	8.4552	0.36364	5.e-002	5.2769
14791	8.3633	0.18182	0.	0.4827
14792	8.4552	0.18182	5.e-002	1.429
14793	8.4552	9.0909e-002	0.	1.2878
14794	8.2714	5.7273	0.	5.0899e-002
14795	8.1795	5.8182	0.	0.24847
14796	8.2714	5.8182	5.e-002	1.5757
14797	8.2714	5.9091	0.	0.77883
14798	8.2714	5.5455	0.	2.6111e-002
14799	8.1795	5.6364	0.	4.5561e-002
14800	8.2714	5.6364	5.e-002	5.3245
14801	8.2714	5.3636	0.	1.141e-002
14802	8.1795	5.4545	0.	1.2424e-002
14803	8.2714	5.4545	5.e-002	5.5838
14804	8.2714	5.1818	0.	9.9223e-003
14805	8.1795	5.2727	0.	1.2331e-002
14806	8.2714	5.2727	5.e-002	5.6095
14807	8.2714	5.	0.	7.5509e-003
14808	8.1795	5.0909	0.	8.7411e-003
14809	8.2714	5.0909	5.e-002	5.6187
14810	8.2714	4.8182	0.	6.1007e-003
14811	8.1795	4.9091	0.	7.1017e-003
14812	8.2714	4.9091	5.e-002	5.6257
14813	8.2714	4.6364	0.	4.8283e-003
14814	8.1795	4.7273	0.	5.5546e-003
14815	8.2714	4.7273	5.e-002	5.6315
14816	8.2714	4.4545	0.	3.7807e-003
14817	8.1795	4.5455	0.	4.3369e-003
14818	8.2714	4.5455	5.e-002	5.6364
14819	8.2714	4.2727	0.	2.884e-003
14820	8.1795	4.3636	0.	3.2894e-003
14821	8.2714	4.3636	5.e-002	5.6404
14822	8.2714	4.0909	0.	2.1254e-003
14823	8.1795	4.1818	0.	2.4057e-003
14824	8.2714	4.1818	5.e-002	5.6435
14825	8.2714	3.9091	0.	1.4903e-003
14826	8.1795	4.	0.	1.6604e-003
14827	8.2714	4.	5.e-002	5.646
14828	8.2714	3.7273	0.	9.7366e-004
14829	8.1795	3.8182	0.	1.0448e-003
14830	8.2714	3.8182	5.e-002	5.648
14831	8.2714	3.5455	0.	5.738e-004
14832	8.1795	3.6364	0.	5.55e-004
14833	8.2714	3.6364	5.e-002	5.6494
14834	8.2714	3.3636	0.	2.8847e-004
14835	8.1795	3.4545	0.	1.8972e-004
14836	8.2714	3.4545	5.e-002	5.6504
14837	8.2714	3.1818	0.	1.1658e-004
14838	8.1795	3.2727	0.	-5.4502e-005
14839	8.2714	3.2727	5.e-002	5.651
14840	8.2714	3.	0.	5.9285e-005
14841	8.1795	3.0909	0.	-1.7686e-004
14842	8.2714	3.0909	5.e-002	5.6513
14843	8.2714	2.8182	0.	1.167e-004
14844	8.1795	2.9091	0.	-1.768e-004
14845	8.2714	2.9091	5.e-002	5.6513
14846	8.2714	2.6364	0.	2.8865e-004
14847	8.1795	2.7273	0.	-5.4415e-005
14848	8.2714	2.7273	5.e-002	5.651
14849	8.2714	2.4545	0.	5.7412e-004
14850	8.1795	2.5455	0.	1.8999e-004
14851	8.2714	2.5455	5.e-002	5.6504
14852	8.2714	2.2727	0.	9.7404e-004
14853	8.1795	2.3636	0.	5.5526e-004
14854	8.2714	2.3636	5.e-002	5.6494
14855	8.2714	2.0909	0.	1.4906e-003
14856	8.1795	2.1818	0.	1.0451e-003
14857	8.2714	2.1818	5.e-002	5.648
14858	8.2714	1.9091	0.	2.1256e-003
14859	8.1795	2.	0.	1.6608e-003
14860	8.2714	2.	5.e-002	5.6461
14861	8.2714	1.7273	0.	2.8843e-003
14862	8.1795	1.8182	0.	2.4061e-003
14863	8.2714	1.8182	5.e-002	5.6436
14864	8.2714	1.5455	0.	3.7813e-003
14865	8.1795	1.6364	0.	3.2902e-003
14866	8.2714	1.6364	5.e-002	5.6405
14867	8.2714	1.3636	0.	4.8289e-003
14868	8.1795	1.4545	0.	4.3374e-003
14869	8.2714	1.4545	5.e-002	5.6365
14870	8.2714	1.1818	0.	6.1014e-003
14871	8.1795	1.2727	0.	5.5552e-003
14872	8.2714	1.2727	5.e-002	5.6316
14873	8.2714	1.	0.	7.5519e-003
14874	8.1795	1.0909	0.	7.1023e-003
14875	8.2714	1.0909	5.e-002	5.6258
14876	8.2714	0.81818	0.	9.9236e-003
14877	8.1795	0.90909	0.	8.7426e-003
14878	8.2714	0.90909	5.e-002	5.6188
14879	8.2714	0.63636	0.	1.1411e-002
14880	8.1795	0.72727	0.	1.2332e-002
14881	8.2714	0.72727	5.e-002	5.6096
14882	8.2714	0.45455	0.	2.6112e-002
14883	8.1795	0.54545	0.	1.2424e-002
14884	8.2714	0.54545	5.e-002	5.584
14885	8.2714	0.27273	0.	5.0901e-002
14886	8.1795	0.36364	0.	4.5562e-002
14887	8.2714	0.36364	5.e-002	5.3246
14888	8.1795	0.18182	0.	0.24848
14889	8.2714	0.18182	5.e-002	1.5758
14890	8.2714	9.0909e-002	0.	0.77885
14891	8.0876	5.7273	0.	5.1666e-002
14892	7.9957	5.8182	0.	0.17081
14893	8.0876	5.8182	5.e-002	1.7351
14894	8.0876	5.9091	0.	0.40579
14895	8.0876	5.5455	0.	2.9111e-002
14896	7.9957	5.6364	0.	5.0426e-002
14897	8.0876	5.6364	5.e-002	5.3752
14898	8.0876	5.3636	0.	1.2696e-002
14899	7.9957	5.4545	0.	1.3902e-002
14900	8.0876	5.4545	5.e-002	5.6283
14901	8.0876	5.1818	0.	1.089e-002
14902	7.9957	5.2727	0.	1.3615e-002
14903	8.0876	5.2727	5.e-002	5.654
14904	8.0876	5.	0.	8.1575e-003
14905	7.9957	5.0909	0.	9.5213e-003
14906	8.0876	5.0909	5.e-002	5.6634
14907	8.0876	4.8182	0.	6.4742e-003
14908	7.9957	4.9091	0.	7.6166e-003
14909	8.0876	4.9091	5.e-002	5.6707
14910	8.0876	4.6364	0.	5.0083e-003
14911	7.9957	4.7273	0.	5.8396e-003
14912	8.0876	4.7273	5.e-002	5.6766
14913	8.0876	4.4545	0.	3.8055e-003
14914	7.9957	4.5455	0.	4.4433e-003
14915	8.0876	4.5455	5.e-002	5.6815
14916	8.0876	4.2727	0.	2.7797e-003
14917	7.9957	4.3636	0.	3.2477e-003
14918	8.0876	4.3636	5.e-002	5.6854
14919	8.0876	4.0909	0.	1.9149e-003
14920	7.9957	4.1818	0.	2.2414e-003
14921	8.0876	4.1818	5.e-002	5.6885
14922	8.0876	3.9091	0.	1.1929e-003
14923	7.9957	4.	0.	1.3954e-003
14924	8.0876	4.	5.e-002	5.6909
14925	8.0876	3.7273	0.	6.0654e-004
14926	7.9957	3.8182	0.	6.9797e-004
14927	8.0876	3.8182	5.e-002	5.6927
14928	8.0876	3.5455	0.	1.5295e-004
14929	7.9957	3.6364	0.	1.437e-004
14930	8.0876	3.6364	5.e-002	5.694
14931	8.0876	3.3636	0.	-1.7019e-004
14932	7.9957	3.4545	0.	-2.6933e-004
14933	8.0876	3.4545	5.e-002	5.6949
14934	8.0876	3.1818	0.	-3.6429e-004
14935	7.9957	3.2727	0.	-5.4504e-004
14936	8.0876	3.2727	5.e-002	5.6955
14937	8.0876	3.	0.	-4.2911e-004
14938	7.9957	3.0909	0.	-6.8291e-004
14939	8.0876	3.0909	5.e-002	5.6958
14940	8.0876	2.8182	0.	-3.6427e-004
14941	7.9957	2.9091	0.	-6.8306e-004
14942	8.0876	2.9091	5.e-002	5.6958
14943	8.0876	2.6364	0.	-1.7001e-004
14944	7.9957	2.7273	0.	-5.4478e-004
14945	8.0876	2.7273	5.e-002	5.6955
14946	8.0876	2.4545	0.	1.5315e-004
14947	7.9957	2.5455	0.	-2.6918e-004
14948	8.0876	2.5455	5.e-002	5.6949
14949	8.0876	2.2727	0.	6.0674e-004
14950	7.9957	2.3636	0.	1.4405e-004
14951	8.0876	2.3636	5.e-002	5.6941
14952	8.0876	2.0909	0.	1.1933e-003
14953	7.9957	2.1818	0.	6.9821e-004
14954	8.0876	2.1818	5.e-002	5.6928
14955	8.0876	1.9091	0.	1.9156e-003
14956	7.9957	2.	0.	1.3956e-003
14957	8.0876	2.	5.e-002	5.691
14958	8.0876	1.7273	0.	2.7806e-003
14959	7.9957	1.8182	0.	2.2422e-003
14960	8.0876	1.8182	5.e-002	5.6886
14961	8.0876	1.5455	0.	3.8061e-003
14962	7.9957	1.6364	0.	3.2484e-003
14963	8.0876	1.6364	5.e-002	5.6855
14964	8.0876	1.3636	0.	5.0088e-003
14965	7.9957	1.4545	0.	4.4438e-003
14966	8.0876	1.4545	5.e-002	5.6816
14967	8.0876	1.1818	0.	6.4748e-003
14968	7.9957	1.2727	0.	5.8404e-003
14969	8.0876	1.2727	5.e-002	5.6767
14970	8.0876	1.	0.	8.1587e-003
14971	7.9957	1.0909	0.	7.6172e-003
14972	8.0876	1.0909	5.e-002	5.6708
14973	8.0876	0.81818	0.	1.0892e-002
14974	7.9957	0.90909	0.	9.523e-003
14975	8.0876	0.90909	5.e-002	5.6636
14976	8.0876	0.63636	0.	1.2697e-002
14977	7.9957	0.72727	0.	1.3616e-002
14978	8.0876	0.72727	5.e-002	5.6541
14979	8.0876	0.45455	0.	2.9111e-002
14980	7.9957	0.54545	0.	1.3902e-002
14981	8.0876	0.54545	5.e-002	5.6284
14982	8.0876	0.27273	0.	5.1667e-002
14983	7.9957	0.36364	0.	5.0428e-002
14984	8.0876	0.36364	5.e-002	5.3754
14985	7.9957	0.18182	0.	0.17081
14986	8.0876	0.18182	5.e-002	1.7352
14987	8.0876	9.0909e-002	0.	0.4058
14988	7.9038	5.7273	0.	5.3664e-002
14989	7.8119	5.8182	0.	0.13782
14990	7.9038	5.8182	5.e-002	1.908
14991	7.9038	5.9091	0.	0.23837
14992	7.9038	5.5455	0.	3.2361e-002
14993	7.8119	5.6364	0.	5.572e-002
14994	7.9038	5.6364	5.e-002	5.4294
14995	7.9038	5.3636	0.	1.4097e-002
14996	7.8119	5.4545	0.	1.5512e-002
14997	7.9038	5.4545	5.e-002	5.6755
14998	7.9038	5.1818	0.	1.1948e-002
14999	7.8119	5.2727	0.	1.5015e-002
15000	7.9038	5.2727	5.e-002	5.7011
15001	7.9038	5.	0.	8.824e-003
15002	7.8119	5.0909	0.	1.0377e-002
15003	7.9038	5.0909	5.e-002	5.7108
15004	7.9038	4.8182	0.	6.8867e-003
15005	7.8119	4.9091	0.	8.1842e-003
15006	7.9038	4.9091	5.e-002	5.7182
15007	7.9038	4.6364	0.	5.2099e-003
15008	7.8119	4.7273	0.	6.157e-003
15009	7.9038	4.7273	5.e-002	5.7243
15010	7.9038	4.4545	0.	3.8382e-003
15011	7.8119	4.5455	0.	4.5664e-003
15012	7.9038	4.5455	5.e-002	5.7291
15013	7.9038	4.2727	0.	2.6725e-003
15014	7.8119	4.3636	0.	3.2095e-003
15015	7.9038	4.3636	5.e-002	5.733
15016	7.9038	4.0909	0.	1.6916e-003
15017	7.8119	4.1818	0.	2.0699e-003
15018	7.9038	4.1818	5.e-002	5.7359
15019	7.9038	3.9091	0.	8.7459e-004
15020	7.8119	4.	0.	1.1139e-003
15021	7.9038	4.	5.e-002	5.7382
15022	7.9038	3.7273	0.	2.1215e-004
15023	7.8119	3.8182	0.	3.2702e-004
15024	7.9038	3.8182	5.e-002	5.7398
15025	7.9038	3.5455	0.	-2.996e-004
15026	7.8119	3.6364	0.	-2.975e-004
15027	7.9038	3.6364	5.e-002	5.7409
15028	7.9038	3.3636	0.	-6.6395e-004
15029	7.8119	3.4545	0.	-7.6228e-004
15030	7.9038	3.4545	5.e-002	5.7417
15031	7.9038	3.1818	0.	-8.8273e-004
15032	7.8119	3.2727	0.	-1.0725e-003
15033	7.9038	3.2727	5.e-002	5.7422
15034	7.9038	3.	0.	-9.5571e-004
15035	7.8119	3.0909	0.	-1.2273e-003
15036	7.9038	3.0909	5.e-002	5.7424
15037	7.9038	2.8182	0.	-8.8264e-004
15038	7.8119	2.9091	0.	-1.2275e-003
15039	7.9038	2.9091	5.e-002	5.7424
15040	7.9038	2.6364	0.	-6.6372e-004
15041	7.8119	2.7273	0.	-1.072e-003
15042	7.9038	2.7273	5.e-002	5.7422
15043	7.9038	2.4545	0.	-2.9931e-004
15044	7.8119	2.5455	0.	-7.6211e-004
15045	7.9038	2.5455	5.e-002	5.7417
15046	7.9038	2.2727	0.	2.1253e-004
15047	7.8119	2.3636	0.	-2.9703e-004
15048	7.9038	2.3636	5.e-002	5.741
15049	7.9038	2.0909	0.	8.7464e-004
15050	7.8119	2.1818	0.	3.2737e-004
15051	7.9038	2.1818	5.e-002	5.7398
15052	7.9038	1.9091	0.	1.6919e-003
15053	7.8119	2.	0.	1.1141e-003
15054	7.9038	2.	5.e-002	5.7382
15055	7.9038	1.7273	0.	2.6731e-003
15056	7.8119	1.8182	0.	2.0706e-003
15057	7.9038	1.8182	5.e-002	5.736
15058	7.9038	1.5455	0.	3.8388e-003
15059	7.8119	1.6364	0.	3.21e-003
15060	7.9038	1.6364	5.e-002	5.7331
15061	7.9038	1.3636	0.	5.2108e-003
15062	7.8119	1.4545	0.	4.5671e-003
15063	7.9038	1.4545	5.e-002	5.7292
15064	7.9038	1.1818	0.	6.8874e-003
15065	7.8119	1.2727	0.	6.1579e-003
15066	7.9038	1.2727	5.e-002	5.7244
15067	7.9038	1.	0.	8.8251e-003
15068	7.8119	1.0909	0.	8.1848e-003
15069	7.9038	1.0909	5.e-002	5.7183
15070	7.9038	0.81818	0.	1.195e-002
15071	7.8119	0.90909	0.	1.0379e-002
15072	7.9038	0.90909	5.e-002	5.7109
15073	7.9038	0.63636	0.	1.4098e-002
15074	7.8119	0.72727	0.	1.5016e-002
15075	7.9038	0.72727	5.e-002	5.7012
15076	7.9038	0.45455	0.	3.2362e-002
15077	7.8119	0.54545	0.	1.5512e-002
15078	7.9038	0.54545	5.e-002	5.6756
15079	7.9038	0.27273	0.	5.3666e-002
15080	7.8119	0.36364	0.	5.5721e-002
15081	7.9038	0.36364	5.e-002	5.4295
15082	7.8119	0.18182	0.	0.13782
15083	7.9038	0.18182	5.e-002	1.9081
15084	7.9038	9.0909e-002	0.	0.23838
15085	7.72	5.7273	0.	5.6579e-002
15086	7.6281	5.8182	0.	0.12152
15087	7.72	5.8182	5.e-002	2.0956
15088	7.72	5.9091	0.	0.17478
15089	7.72	5.5455	0.	3.5889e-002
15090	7.6281	5.6364	0.	6.1482e-002
15091	7.72	5.6364	5.e-002	5.4872
15092	7.72	5.3636	0.	1.5626e-002
15093	7.6281	5.4545	0.	1.7271e-002
15094	7.72	5.4545	5.e-002	5.7256
15095	7.72	5.1818	0.	1.3106e-002
15096	7.6281	5.2727	0.	1.6547e-002
15097	7.72	5.2727	5.e-002	5.7511
15098	7.72	5.	0.	9.5574e-003
15099	7.6281	5.0909	0.	1.1319e-002
15100	7.72	5.0909	5.e-002	5.7611
15101	7.72	4.8182	0.	7.3441e-003
15102	7.6281	4.9091	0.	8.8129e-003
15103	7.72	4.9091	5.e-002	5.7687
15104	7.72	4.6364	0.	5.4384e-003
15105	7.6281	4.7273	0.	6.514e-003
15106	7.72	4.7273	5.e-002	5.7747
15107	7.72	4.4545	0.	3.8826e-003
15108	7.6281	4.5455	0.	4.7119e-003
15109	7.72	4.5455	5.e-002	5.7795
15110	7.72	4.2727	0.	2.5639e-003
15111	7.6281	4.3636	0.	3.1793e-003
15112	7.72	4.3636	5.e-002	5.7833
15113	7.72	4.0909	0.	1.4569e-003
15114	7.6281	4.1818	0.	1.8945e-003
15115	7.72	4.1818	5.e-002	5.786
15116	7.72	3.9091	0.	5.3617e-004
15117	7.6281	4.	0.	8.1851e-004
15118	7.72	4.	5.e-002	5.788
15119	7.72	3.7273	0.	-2.0928e-004
15120	7.6281	3.8182	0.	-6.5623e-005
15121	7.72	3.8182	5.e-002	5.7894
15122	7.72	3.5455	0.	-7.8452e-004
15123	7.6281	3.6364	0.	-7.6631e-004
15124	7.72	3.6364	5.e-002	5.7904
15125	7.72	3.3636	0.	-1.1937e-003
15126	7.6281	3.4545	0.	-1.2875e-003
15127	7.72	3.4545	5.e-002	5.791
15128	7.72	3.1818	0.	-1.4391e-003
15129	7.6281	3.2727	0.	-1.6354e-003
15130	7.72	3.2727	5.e-002	5.7913
15131	7.72	3.	0.	-1.5209e-003
15132	7.6281	3.0909	0.	-1.809e-003
15133	7.72	3.0909	5.e-002	5.7915
15134	7.72	2.8182	0.	-1.4389e-003
15135	7.6281	2.9091	0.	-1.8089e-003
15136	7.72	2.9091	5.e-002	5.7915
15137	7.72	2.6364	0.	-1.1932e-003
15138	7.6281	2.7273	0.	-1.635e-003
15139	7.72	2.7273	5.e-002	5.7913
15140	7.72	2.4545	0.	-7.8417e-004
15141	7.6281	2.5455	0.	-1.2876e-003
15142	7.72	2.5455	5.e-002	5.791
15143	7.72	2.2727	0.	-2.0884e-004
15144	7.6281	2.3636	0.	-7.6602e-004
15145	7.72	2.3636	5.e-002	5.7904
15146	7.72	2.0909	0.	5.3667e-004
15147	7.6281	2.1818	0.	-6.5154e-005
15148	7.72	2.1818	5.e-002	5.7895
15149	7.72	1.9091	0.	1.4575e-003
15150	7.6281	2.	0.	8.1892e-004
15151	7.72	2.	5.e-002	5.7881
15152	7.72	1.7273	0.	2.5646e-003
15153	7.6281	1.8182	0.	1.8951e-003
15154	7.72	1.8182	5.e-002	5.7861
15155	7.72	1.5455	0.	3.8833e-003
15156	7.6281	1.6364	0.	3.1798e-003
15157	7.72	1.6364	5.e-002	5.7833
15158	7.72	1.3636	0.	5.4391e-003
15159	7.6281	1.4545	0.	4.7128e-003
15160	7.72	1.4545	5.e-002	5.7796
15161	7.72	1.1818	0.	7.3447e-003
15162	7.6281	1.2727	0.	6.5145e-003
15163	7.72	1.2727	5.e-002	5.7748
15164	7.72	1.	0.	9.5583e-003
15165	7.6281	1.0909	0.	8.8136e-003
15166	7.72	1.0909	5.e-002	5.7688
15167	7.72	0.81818	0.	1.3107e-002
15168	7.6281	0.90909	0.	1.132e-002
15169	7.72	0.90909	5.e-002	5.7612
15170	7.72	0.63636	0.	1.5627e-002
15171	7.6281	0.72727	0.	1.6548e-002
15172	7.72	0.72727	5.e-002	5.7512
15173	7.72	0.45455	0.	3.589e-002
15174	7.6281	0.54545	0.	1.7271e-002
15175	7.72	0.54545	5.e-002	5.7257
15176	7.72	0.27273	0.	5.658e-002
15177	7.6281	0.36364	0.	6.1483e-002
15178	7.72	0.36364	5.e-002	5.4874
15179	7.6281	0.18182	0.	0.12152
15180	7.72	0.18182	5.e-002	2.0957
15181	7.72	9.0909e-002	0.	0.17478
15182	7.5362	5.7273	0.	6.027e-002
15183	7.4443	5.8182	0.	0.11324
15184	7.5362	5.8182	5.e-002	2.2989
15185	7.5362	5.9091	0.	0.14689
15186	7.5362	5.5455	0.	3.9727e-002
15187	7.4443	5.6364	0.	6.7752e-002
15188	7.5362	5.6364	5.e-002	5.5492
15189	7.5362	5.3636	0.	1.7302e-002
15190	7.4443	5.4545	0.	1.9193e-002
15191	7.5362	5.4545	5.e-002	5.7791
15192	7.5362	5.1818	0.	1.4378e-002
15193	7.4443	5.2727	0.	1.8222e-002
15194	7.5362	5.2727	5.e-002	5.8044
15195	7.5362	5.	0.	1.0369e-002
15196	7.4443	5.0909	0.	1.2354e-002
15197	7.5362	5.0909	5.e-002	5.8146
15198	7.5362	4.8182	0.	7.856e-003
15199	7.4443	4.9091	0.	9.5076e-003
15200	7.5362	4.9091	5.e-002	5.8223
15201	7.5362	4.6364	0.	5.7011e-003
15202	7.4443	4.7273	0.	6.9134e-003
15203	7.5362	4.7273	5.e-002	5.8283
15204	7.5362	4.4545	0.	3.9451e-003
15205	7.4443	4.5455	0.	4.8815e-003
15206	7.5362	4.5455	5.e-002	5.833
15207	7.5362	4.2727	0.	2.4603e-003
15208	7.4443	4.3636	0.	3.1576e-003
15209	7.5362	4.3636	5.e-002	5.8365
15210	7.5362	4.0909	0.	1.2156e-003
15211	7.4443	4.1818	0.	1.715e-003
15212	7.5362	4.1818	5.e-002	5.839
15213	7.5362	3.9091	0.	1.8206e-004
15214	7.4443	4.	0.	5.0853e-004
15215	7.5362	4.	5.e-002	5.8407
15216	7.5362	3.7273	0.	-6.533e-004
15217	7.4443	3.8182	0.	-4.8141e-004
15218	7.5362	3.8182	5.e-002	5.8418
15219	7.5362	3.5455	0.	-1.2973e-003
15220	7.4443	3.6364	0.	-1.2651e-003
15221	7.5362	3.6364	5.e-002	5.8425
15222	7.5362	3.3636	0.	-1.7555e-003
15223	7.4443	3.4545	0.	-1.8481e-003
15224	7.5362	3.4545	5.e-002	5.8429
15225	7.5362	3.1818	0.	-2.0306e-003
15226	7.4443	3.2727	0.	-2.2366e-003
15227	7.5362	3.2727	5.e-002	5.8431
15228	7.5362	3.	0.	-2.122e-003
15229	7.4443	3.0909	0.	-2.4308e-003
15230	7.5362	3.0909	5.e-002	5.8432
15231	7.5362	2.8182	0.	-2.0303e-003
15232	7.4443	2.9091	0.	-2.4307e-003
15233	7.5362	2.9091	5.e-002	5.8432
15234	7.5362	2.6364	0.	-1.7556e-003
15235	7.4443	2.7273	0.	-2.2366e-003
15236	7.5362	2.7273	5.e-002	5.8431
15237	7.5362	2.4545	0.	-1.2974e-003
15238	7.4443	2.5455	0.	-1.8479e-003
15239	7.5362	2.5455	5.e-002	5.8429
15240	7.5362	2.2727	0.	-6.5298e-004
15241	7.4443	2.3636	0.	-1.2651e-003
15242	7.5362	2.3636	5.e-002	5.8426
15243	7.5362	2.0909	0.	1.8244e-004
15244	7.4443	2.1818	0.	-4.81e-004
15245	7.5362	2.1818	5.e-002	5.8419
15246	7.5362	1.9091	0.	1.2159e-003
15247	7.4443	2.	0.	5.089e-004
15248	7.5362	2.	5.e-002	5.8408
15249	7.5362	1.7273	0.	2.4608e-003
15250	7.4443	1.8182	0.	1.7155e-003
15251	7.5362	1.8182	5.e-002	5.8391
15252	7.5362	1.5455	0.	3.9458e-003
15253	7.4443	1.6364	0.	3.1582e-003
15254	7.5362	1.6364	5.e-002	5.8365
15255	7.5362	1.3636	0.	5.7018e-003
15256	7.4443	1.4545	0.	4.8823e-003
15257	7.5362	1.4545	5.e-002	5.8331
15258	7.5362	1.1818	0.	7.8565e-003
15259	7.4443	1.2727	0.	6.914e-003
15260	7.5362	1.2727	5.e-002	5.8284
15261	7.5362	1.	0.	1.037e-002
15262	7.4443	1.0909	0.	9.5083e-003
15263	7.5362	1.0909	5.e-002	5.8224
15264	7.5362	0.81818	0.	1.4379e-002
15265	7.4443	0.90909	0.	1.2355e-002
15266	7.5362	0.90909	5.e-002	5.8148
15267	7.5362	0.63636	0.	1.7302e-002
15268	7.4443	0.72727	0.	1.8222e-002
15269	7.5362	0.72727	5.e-002	5.8045
15270	7.5362	0.45455	0.	3.9728e-002
15271	7.4443	0.54545	0.	1.9193e-002
15272	7.5362	0.54545	5.e-002	5.7791
15273	7.5362	0.27273	0.	6.0271e-002
15274	7.4443	0.36364	0.	6.7754e-002
15275	7.5362	0.36364	5.e-002	5.5494
15276	7.4443	0.18182	0.	0.11324
15277	7.5362	0.18182	5.e-002	2.2991
15278	7.5362	9.0909e-002	0.	0.14689
15279	7.3524	5.7273	0.	6.4672e-002
15280	7.2605	5.8182	0.	0.10959
15281	7.3524	5.8182	5.e-002	2.5194
15282	7.3524	5.9091	0.	0.13335
15283	7.3524	5.5455	0.	4.3899e-002
15284	7.2605	5.6364	0.	7.4574e-002
15285	7.3524	5.6364	5.e-002	5.6157
15286	7.3524	5.3636	0.	1.9129e-002
15287	7.2605	5.4545	0.	2.129e-002
15288	7.3524	5.4545	5.e-002	5.8362
15289	7.3524	5.1818	0.	1.5768e-002
15290	7.2605	5.2727	0.	2.0047e-002
15291	7.3524	5.2727	5.e-002	5.8612
15292	7.3524	5.	0.	1.126e-002
15293	7.2605	5.0909	0.	1.3486e-002
15294	7.3524	5.0909	5.e-002	5.8717
15295	7.3524	4.8182	0.	8.4206e-003
15296	7.2605	4.9091	0.	1.027e-002
15297	7.3524	4.9091	5.e-002	5.8794
15298	7.3524	4.6364	0.	5.9952e-003
15299	7.2605	4.7273	0.	7.3547e-003
15300	7.3524	4.7273	5.e-002	5.8854
15301	7.3524	4.4545	0.	4.0214e-003
15302	7.2605	4.5455	0.	5.0732e-003
15303	7.3524	4.5455	5.e-002	5.8898
15304	7.3524	4.2727	0.	2.3556e-003
15305	7.2605	4.3636	0.	3.1412e-003
15306	7.3524	4.3636	5.e-002	5.893
15307	7.3524	4.0909	0.	9.6152e-004
15308	7.2605	4.1818	0.	1.5269e-003
15309	7.3524	4.1818	5.e-002	5.8952
15310	7.3524	3.9091	0.	-1.9454e-004
15311	7.2605	4.	0.	1.7848e-004
15312	7.3524	4.	5.e-002	5.8965
15313	7.3524	3.7273	0.	-1.1282e-003
15314	7.2605	3.8182	0.	-9.2665e-004
15315	7.3524	3.8182	5.e-002	5.8973
15316	7.3524	3.5455	0.	-1.8478e-003
15317	7.2605	3.6364	0.	-1.801e-003
15318	7.3524	3.6364	5.e-002	5.8976
15319	7.3524	3.3636	0.	-2.3591e-003
15320	7.2605	3.4545	0.	-2.4511e-003
15321	7.3524	3.4545	5.e-002	5.8977
15322	7.3524	3.1818	0.	-2.6657e-003
15323	7.2605	3.2727	0.	-2.8839e-003
15324	7.3524	3.2727	5.e-002	5.8977
15325	7.3524	3.	0.	-2.7679e-003
15326	7.2605	3.0909	0.	-3.1001e-003
15327	7.3524	3.0909	5.e-002	5.8978
15328	7.3524	2.8182	0.	-2.6658e-003
15329	7.2605	2.9091	0.	-3.1001e-003
15330	7.3524	2.9091	5.e-002	5.8978
15331	7.3524	2.6364	0.	-2.3589e-003
15332	7.2605	2.7273	0.	-2.8836e-003
15333	7.3524	2.7273	5.e-002	5.8978
15334	7.3524	2.4545	0.	-1.8475e-003
15335	7.2605	2.5455	0.	-2.4508e-003
15336	7.3524	2.5455	5.e-002	5.8978
15337	7.3524	2.2727	0.	-1.1281e-003
15338	7.2605	2.3636	0.	-1.8008e-003
15339	7.3524	2.3636	5.e-002	5.8977
15340	7.3524	2.0909	0.	-1.9413e-004
15341	7.2605	2.1818	0.	-9.2621e-004
15342	7.3524	2.1818	5.e-002	5.8973
15343	7.3524	1.9091	0.	9.6207e-004
15344	7.2605	2.	0.	1.7904e-004
15345	7.3524	2.	5.e-002	5.8966
15346	7.3524	1.7273	0.	2.3562e-003
15347	7.2605	1.8182	0.	1.5274e-003
15348	7.3524	1.8182	5.e-002	5.8953
15349	7.3524	1.5455	0.	4.022e-003
15350	7.2605	1.6364	0.	3.1418e-003
15351	7.3524	1.6364	5.e-002	5.8931
15352	7.3524	1.3636	0.	5.9957e-003
15353	7.2605	1.4545	0.	5.0738e-003
15354	7.3524	1.4545	5.e-002	5.8899
15355	7.3524	1.1818	0.	8.4213e-003
15356	7.2605	1.2727	0.	7.3554e-003
15357	7.3524	1.2727	5.e-002	5.8854
15358	7.3524	1.	0.	1.126e-002
15359	7.2605	1.0909	0.	1.0271e-002
15360	7.3524	1.0909	5.e-002	5.8796
15361	7.3524	0.81818	0.	1.5769e-002
15362	7.2605	0.90909	0.	1.3487e-002
15363	7.3524	0.90909	5.e-002	5.8718
15364	7.3524	0.63636	0.	1.913e-002
15365	7.2605	0.72727	0.	2.0048e-002
15366	7.3524	0.72727	5.e-002	5.8615
15367	7.3524	0.45455	0.	4.39e-002
15368	7.2605	0.54545	0.	2.1291e-002
15369	7.3524	0.54545	5.e-002	5.8363
15370	7.3524	0.27273	0.	6.4673e-002
15371	7.2605	0.36364	0.	7.4575e-002
15372	7.3524	0.36364	5.e-002	5.6159
15373	7.2605	0.18182	0.	0.10959
15374	7.3524	0.18182	5.e-002	2.5194
15375	7.3524	9.0909e-002	0.	0.13336
15376	7.1686	5.7273	0.	6.977e-002
15377	7.0767	5.8182	0.	0.10903
15378	7.1686	5.8182	5.e-002	2.7581
15379	7.1686	5.9091	0.	0.12689
15380	7.1686	5.5455	0.	4.8433e-002
15381	7.0767	5.6364	0.	8.2e-002
15382	7.1686	5.6364	5.e-002	5.6872
15383	7.1686	5.3636	0.	2.1122e-002
15384	7.0767	5.4545	0.	2.3584e-002
15385	7.1686	5.4545	5.e-002	5.8974
15386	7.1686	5.1818	0.	1.7284e-002
15387	7.0767	5.2727	0.	2.2041e-002
15388	7.1686	5.2727	5.e-002	5.9222
15389	7.1686	5.	0.	1.2233e-002
15390	7.0767	5.0909	0.	1.4727e-002
15391	7.1686	5.0909	5.e-002	5.9328
15392	7.1686	4.8182	0.	9.0404e-003
15393	7.0767	4.9091	0.	1.111e-002
15394	7.1686	4.9091	5.e-002	5.9405
15395	7.1686	4.6364	0.	6.3206e-003
15396	7.0767	4.7273	0.	7.8457e-003
15397	7.1686	4.7273	5.e-002	5.9462
15398	7.1686	4.4545	0.	4.1103e-003
15399	7.0767	4.5455	0.	5.2924e-003
15400	7.1686	4.5455	5.e-002	5.9503
15401	7.1686	4.2727	0.	2.248e-003
15402	7.0767	4.3636	0.	3.1343e-003
15403	7.1686	4.3636	5.e-002	5.9532
15404	7.1686	4.0909	0.	6.9112e-004
15405	7.0767	4.1818	0.	1.3333e-003
15406	7.1686	4.1818	5.e-002	5.9549
15407	7.1686	3.9091	0.	-5.9861e-004
15408	7.0767	4.	0.	-1.6949e-004
15409	7.1686	4.	5.e-002	5.9558
15410	7.1686	3.7273	0.	-1.6392e-003
15411	7.0767	3.8182	0.	-1.4001e-003
15412	7.1686	3.8182	5.e-002	5.9561
15413	7.1686	3.5455	0.	-2.4404e-003
15414	7.0767	3.6364	0.	-2.3728e-003
15415	7.1686	3.6364	5.e-002	5.9561
15416	7.1686	3.3636	0.	-3.0098e-003
15417	7.0767	3.4545	0.	-3.0958e-003
15418	7.1686	3.4545	5.e-002	5.9559
15419	7.1686	3.1818	0.	-3.351e-003
15420	7.0767	3.2727	0.	-3.5771e-003
15421	7.1686	3.2727	5.e-002	5.9557
15422	7.1686	3.	0.	-3.4646e-003
15423	7.0767	3.0909	0.	-3.8172e-003
15424	7.1686	3.0909	5.e-002	5.9555
15425	7.1686	2.8182	0.	-3.3507e-003
15426	7.0767	2.9091	0.	-3.8173e-003
15427	7.1686	2.9091	5.e-002	5.9555
15428	7.1686	2.6364	0.	-3.0095e-003
15429	7.0767	2.7273	0.	-3.5766e-003
15430	7.1686	2.7273	5.e-002	5.9557
15431	7.1686	2.4545	0.	-2.4403e-003
15432	7.0767	2.5455	0.	-3.0959e-003
15433	7.1686	2.5455	5.e-002	5.9559
15434	7.1686	2.2727	0.	-1.6387e-003
15435	7.0767	2.3636	0.	-2.3725e-003
15436	7.1686	2.3636	5.e-002	5.9561
15437	7.1686	2.0909	0.	-5.9802e-004
15438	7.0767	2.1818	0.	-1.3996e-003
15439	7.1686	2.1818	5.e-002	5.9562
15440	7.1686	1.9091	0.	6.9165e-004
15441	7.0767	2.	0.	-1.6903e-004
15442	7.1686	2.	5.e-002	5.9559
15443	7.1686	1.7273	0.	2.2486e-003
15444	7.0767	1.8182	0.	1.3338e-003
15445	7.1686	1.8182	5.e-002	5.955
15446	7.1686	1.5455	0.	4.111e-003
15447	7.0767	1.6364	0.	3.135e-003
15448	7.1686	1.6364	5.e-002	5.9533
15449	7.1686	1.3636	0.	6.3214e-003
15450	7.0767	1.4545	0.	5.2931e-003
15451	7.1686	1.4545	5.e-002	5.9505
15452	7.1686	1.1818	0.	9.0412e-003
15453	7.0767	1.2727	0.	7.8464e-003
15454	7.1686	1.2727	5.e-002	5.9464
15455	7.1686	1.	0.	1.2234e-002
15456	7.0767	1.0909	0.	1.111e-002
15457	7.1686	1.0909	5.e-002	5.9406
15458	7.1686	0.81818	0.	1.7285e-002
15459	7.0767	0.90909	0.	1.4728e-002
15460	7.1686	0.90909	5.e-002	5.9329
15461	7.1686	0.63636	0.	2.1123e-002
15462	7.0767	0.72727	0.	2.2042e-002
15463	7.1686	0.72727	5.e-002	5.9223
15464	7.1686	0.45455	0.	4.8435e-002
15465	7.0767	0.54545	0.	2.3584e-002
15466	7.1686	0.54545	5.e-002	5.8975
15467	7.1686	0.27273	0.	6.9771e-002
15468	7.0767	0.36364	0.	8.2002e-002
15469	7.1686	0.36364	5.e-002	5.6874
15470	7.0767	0.18182	0.	0.10904
15471	7.1686	0.18182	5.e-002	2.7583
15472	7.1686	9.0909e-002	0.	0.1269
15473	6.9848	5.7273	0.	7.5591e-002
15474	6.8929	5.8182	0.	0.11082
15475	6.9848	5.8182	5.e-002	3.0167
15476	6.9848	5.9091	0.	0.12453
15477	6.9848	5.5455	0.	5.3375e-002
15478	6.8929	5.6364	0.	9.0091e-002
15479	6.9848	5.6364	5.e-002	5.7643
15480	6.9848	5.3636	0.	2.3305e-002
15481	6.8929	5.4545	0.	2.6097e-002
15482	6.9848	5.4545	5.e-002	5.9631
15483	6.9848	5.1818	0.	1.8947e-002
15484	6.8929	5.2727	0.	2.4222e-002
15485	6.9848	5.2727	5.e-002	5.9875
15486	6.9848	5.	0.	1.3308e-002
15487	6.8929	5.0909	0.	1.609e-002
15488	6.9848	5.0909	5.e-002	5.9982
15489	6.9848	4.8182	0.	9.7305e-003
15490	6.8929	4.9091	0.	1.2037e-002
15491	6.9848	4.9091	5.e-002	6.0058
15492	6.9848	4.6364	0.	6.6909e-003
15493	6.8929	4.7273	0.	8.3938e-003
15494	6.9848	4.7273	5.e-002	6.0114
15495	6.9848	4.4545	0.	4.2231e-003
15496	6.8929	4.5455	0.	5.5448e-003
15497	6.9848	4.5455	5.e-002	6.0151
15498	6.9848	4.2727	0.	2.1467e-003
15499	6.8929	4.3636	0.	3.1411e-003
15500	6.9848	4.3636	5.e-002	6.0174
15501	6.9848	4.0909	0.	4.13e-004
15502	6.8929	4.1818	0.	1.1368e-003
15503	6.9848	4.1818	5.e-002	6.0186
15504	6.9848	3.9091	0.	-1.0218e-003
15505	6.8929	4.	0.	-5.3383e-004
15506	6.9848	4.	5.e-002	6.0189
15507	6.9848	3.7273	0.	-2.1786e-003
15508	6.8929	3.8182	0.	-1.9006e-003
15509	6.9848	3.8182	5.e-002	6.0187
15510	6.9848	3.5455	0.	-3.0691e-003
15511	6.8929	3.6364	0.	-2.9804e-003
15512	6.9848	3.6364	5.e-002	6.0181
15513	6.9848	3.3636	0.	-3.7014e-003
15514	6.8929	3.4545	0.	-3.7832e-003
15515	6.9848	3.4545	5.e-002	6.0176
15516	6.9848	3.1818	0.	-4.0802e-003
15517	6.8929	3.2727	0.	-4.3166e-003
15518	6.9848	3.2727	5.e-002	6.0171
15519	6.9848	3.	0.	-4.2064e-003
15520	6.8929	3.0909	0.	-4.5831e-003
15521	6.9848	3.0909	5.e-002	6.0168
15522	6.9848	2.8182	0.	-4.0801e-003
15523	6.8929	2.9091	0.	-4.5831e-003
15524	6.9848	2.9091	5.e-002	6.0168
15525	6.9848	2.6364	0.	-3.7014e-003
15526	6.8929	2.7273	0.	-4.3165e-003
15527	6.9848	2.7273	5.e-002	6.0171
15528	6.9848	2.4545	0.	-3.069e-003
15529	6.8929	2.5455	0.	-3.7831e-003
15530	6.9848	2.5455	5.e-002	6.0176
15531	6.9848	2.2727	0.	-2.1783e-003
15532	6.8929	2.3636	0.	-2.9803e-003
15533	6.9848	2.3636	5.e-002	6.0182
15534	6.9848	2.0909	0.	-1.0214e-003
15535	6.8929	2.1818	0.	-1.9002e-003
15536	6.9848	2.1818	5.e-002	6.0187
15537	6.9848	1.9091	0.	4.135e-004
15538	6.8929	2.	0.	-5.334e-004
15539	6.9848	2.	5.e-002	6.019
15540	6.9848	1.7273	0.	2.1474e-003
15541	6.8929	1.8182	0.	1.1374e-003
15542	6.9848	1.8182	5.e-002	6.0187
15543	6.9848	1.5455	0.	4.2237e-003
15544	6.8929	1.6364	0.	3.1418e-003
15545	6.9848	1.6364	5.e-002	6.0175
15546	6.9848	1.3636	0.	6.6916e-003
15547	6.8929	1.4545	0.	5.5457e-003
15548	6.9848	1.4545	5.e-002	6.0152
15549	6.9848	1.1818	0.	9.731e-003
15550	6.8929	1.2727	0.	8.3945e-003
15551	6.9848	1.2727	5.e-002	6.0114
15552	6.9848	1.	0.	1.3309e-002
15553	6.8929	1.0909	0.	1.2037e-002
15554	6.9848	1.0909	5.e-002	6.006
15555	6.9848	0.81818	0.	1.8949e-002
15556	6.8929	0.90909	0.	1.6092e-002
15557	6.9848	0.90909	5.e-002	5.9983
15558	6.9848	0.63636	0.	2.3306e-002
15559	6.8929	0.72727	0.	2.4223e-002
15560	6.9848	0.72727	5.e-002	5.9877
15561	6.9848	0.45455	0.	5.3376e-002
15562	6.8929	0.54545	0.	2.6097e-002
15563	6.9848	0.54545	5.e-002	5.9633
15564	6.9848	0.27273	0.	7.5592e-002
15565	6.8929	0.36364	0.	9.0092e-002
15566	6.9848	0.36364	5.e-002	5.7645
15567	6.8929	0.18182	0.	0.11082
15568	6.9848	0.18182	5.e-002	3.0168
15569	6.9848	9.0909e-002	0.	0.12453
15570	6.801	5.7273	0.	8.2173e-002
15571	6.709	5.8182	0.	0.11456
15572	6.801	5.8182	5.e-002	3.2965
15573	6.801	5.9091	0.	0.12485
15574	6.801	5.5455	0.	5.8758e-002
15575	6.709	5.6364	0.	9.8906e-002
15576	6.801	5.6364	5.e-002	5.8474
15577	6.801	5.3636	0.	2.5694e-002
15578	6.709	5.4545	0.	2.8849e-002
15579	6.801	5.4545	5.e-002	6.0339
15580	6.801	5.1818	0.	2.0768e-002
15581	6.709	5.2727	0.	2.6605e-002
15582	6.801	5.2727	5.e-002	6.0578
15583	6.801	5.	0.	1.4489e-002
15584	6.709	5.0909	0.	1.7586e-002
15585	6.801	5.0909	5.e-002	6.0685
15586	6.801	4.8182	0.	1.0493e-002
15587	6.709	4.9091	0.	1.3057e-002
15588	6.801	4.9091	5.e-002	6.076
15589	6.801	4.6364	0.	7.1054e-003
15590	6.709	4.7273	0.	9.0023e-003
15591	6.801	4.7273	5.e-002	6.0811
15592	6.801	4.4545	0.	4.3578e-003
15593	6.709	4.5455	0.	5.8321e-003
15594	6.801	4.5455	5.e-002	6.0844
15595	6.801	4.2727	0.	2.0491e-003
15596	6.709	4.3636	0.	3.1614e-003
15597	6.801	4.3636	5.e-002	6.0861
15598	6.801	4.0909	0.	1.2275e-004
15599	6.709	4.1818	0.	9.3593e-004
15600	6.801	4.1818	5.e-002	6.0866
15601	6.801	3.9091	0.	-1.4699e-003
15602	6.709	4.	0.	-9.174e-004
15603	6.801	4.	5.e-002	6.0862
15604	6.801	3.7273	0.	-2.753e-003
15605	6.709	3.8182	0.	-2.4324e-003
15606	6.801	3.8182	5.e-002	6.0853
15607	6.801	3.5455	0.	-3.7406e-003
15608	6.709	3.6364	0.	-3.6288e-003
15609	6.801	3.6364	5.e-002	6.0842
15610	6.801	3.3636	0.	-4.4416e-003
15611	6.709	3.4545	0.	-4.5179e-003
15612	6.801	3.4545	5.e-002	6.0832
15613	6.801	3.1818	0.	-4.8611e-003
15614	6.709	3.2727	0.	-5.1084e-003
15615	6.801	3.2727	5.e-002	6.0823
15616	6.801	3.	0.	-5.0008e-003
15617	6.709	3.0909	0.	-5.4034e-003
15618	6.801	3.0909	5.e-002	6.0818
15619	6.801	2.8182	0.	-4.861e-003
15620	6.709	2.9091	0.	-5.4033e-003
15621	6.801	2.9091	5.e-002	6.0819
15622	6.801	2.6364	0.	-4.4414e-003
15623	6.709	2.7273	0.	-5.1083e-003
15624	6.801	2.7273	5.e-002	6.0824
15625	6.801	2.4545	0.	-3.7405e-003
15626	6.709	2.5455	0.	-4.5177e-003
15627	6.801	2.5455	5.e-002	6.0832
15628	6.801	2.2727	0.	-2.7528e-003
15629	6.709	2.3636	0.	-3.6287e-003
15630	6.801	2.3636	5.e-002	6.0843
15631	6.801	2.0909	0.	-1.4694e-003
15632	6.709	2.1818	0.	-2.4321e-003
15633	6.801	2.1818	5.e-002	6.0854
15634	6.801	1.9091	0.	1.2325e-004
15635	6.709	2.	0.	-9.1691e-004
15636	6.801	2.	5.e-002	6.0863
15637	6.801	1.7273	0.	2.0496e-003
15638	6.709	1.8182	0.	9.3642e-004
15639	6.801	1.8182	5.e-002	6.0866
15640	6.801	1.5455	0.	4.3587e-003
15641	6.709	1.6364	0.	3.1619e-003
15642	6.801	1.6364	5.e-002	6.0862
15643	6.801	1.3636	0.	7.1063e-003
15644	6.709	1.4545	0.	5.8331e-003
15645	6.801	1.4545	5.e-002	6.0845
15646	6.801	1.1818	0.	1.0494e-002
15647	6.709	1.2727	0.	9.003e-003
15648	6.801	1.2727	5.e-002	6.0813
15649	6.801	1.	0.	1.449e-002
15650	6.709	1.0909	0.	1.3058e-002
15651	6.801	1.0909	5.e-002	6.0761
15652	6.801	0.81818	0.	2.0769e-002
15653	6.709	0.90909	0.	1.7588e-002
15654	6.801	0.90909	5.e-002	6.0686
15655	6.801	0.63636	0.	2.5694e-002
15656	6.709	0.72727	0.	2.6606e-002
15657	6.801	0.72727	5.e-002	6.058
15658	6.801	0.45455	0.	5.8759e-002
15659	6.709	0.54545	0.	2.8849e-002
15660	6.801	0.54545	5.e-002	6.0341
15661	6.801	0.27273	0.	8.2174e-002
15662	6.709	0.36364	0.	9.8907e-002
15663	6.801	0.36364	5.e-002	5.8475
15664	6.709	0.18182	0.	0.11457
15665	6.801	0.18182	5.e-002	3.2966
15666	6.801	9.0909e-002	0.	0.12485
15667	6.6171	5.7273	0.	8.9574e-002
15668	6.5252	5.8182	0.	0.12011
15669	6.6171	5.8182	5.e-002	3.5992
15670	6.6171	5.9091	0.	0.12711
15671	6.6171	5.5455	0.	6.4627e-002
15672	6.5252	5.6364	0.	0.10851
15673	6.6171	5.6364	5.e-002	5.9372
15674	6.6171	5.3636	0.	2.8307e-002
15675	6.5252	5.4545	0.	3.1866e-002
15676	6.6171	5.4545	5.e-002	6.1103
15677	6.6171	5.1818	0.	2.2761e-002
15678	6.5252	5.2727	0.	2.9211e-002
15679	6.6171	5.2727	5.e-002	6.1336
15680	6.6171	5.	0.	1.5786e-002
15681	6.5252	5.0909	0.	1.9227e-002
15682	6.6171	5.0909	5.e-002	6.1442
15683	6.6171	4.8182	0.	1.1335e-002
15684	6.5252	4.9091	0.	1.418e-002
15685	6.6171	4.9091	5.e-002	6.1514
15686	6.6171	4.6364	0.	7.5695e-003
15687	6.5252	4.7273	0.	9.6774e-003
15688	6.6171	4.7273	5.e-002	6.1562
15689	6.6171	4.4545	0.	4.5179e-003
15690	6.5252	4.5455	0.	6.1582e-003
15691	6.6171	4.5455	5.e-002	6.1587
15692	6.6171	4.2727	0.	1.9561e-003
15693	6.5252	4.3636	0.	3.1966e-003
15694	6.6171	4.3636	5.e-002	6.1597
15695	6.6171	4.0909	0.	-1.7967e-004
15696	6.5252	4.1818	0.	7.3073e-004
15697	6.6171	4.1818	5.e-002	6.1594
15698	6.6171	3.9091	0.	-1.9442e-003
15699	6.5252	4.	0.	-1.3211e-003
15700	6.6171	4.	5.e-002	6.1582
15701	6.6171	3.7273	0.	-3.3649e-003
15702	6.5252	3.8182	0.	-2.9974e-003
15703	6.6171	3.8182	5.e-002	6.1566
15704	6.6171	3.5455	0.	-4.4578e-003
15705	6.5252	3.6364	0.	-4.3205e-003
15706	6.6171	3.6364	5.e-002	6.1547
15707	6.6171	3.3636	0.	-5.2332e-003
15708	6.5252	3.4545	0.	-5.3033e-003
15709	6.6171	3.4545	5.e-002	6.1531
15710	6.6171	3.1818	0.	-5.6972e-003
15711	6.5252	3.2727	0.	-5.9559e-003
15712	6.6171	3.2727	5.e-002	6.1519
15713	6.6171	3.	0.	-5.8518e-003
15714	6.5252	3.0909	0.	-6.2816e-003
15715	6.6171	3.0909	5.e-002	6.1513
15716	6.6171	2.8182	0.	-5.6971e-003
15717	6.5252	2.9091	0.	-6.2816e-003
15718	6.6171	2.9091	5.e-002	6.1513
15719	6.6171	2.6364	0.	-5.2331e-003
15720	6.5252	2.7273	0.	-5.9557e-003
15721	6.6171	2.7273	5.e-002	6.1519
15722	6.6171	2.4545	0.	-4.4577e-003
15723	6.5252	2.5455	0.	-5.3031e-003
15724	6.6171	2.5455	5.e-002	6.1532
15725	6.6171	2.2727	0.	-3.3647e-003
15726	6.5252	2.3636	0.	-4.3202e-003
15727	6.6171	2.3636	5.e-002	6.1548
15728	6.6171	2.0909	0.	-1.9438e-003
15729	6.5252	2.1818	0.	-2.9971e-003
15730	6.6171	2.1818	5.e-002	6.1566
15731	6.6171	1.9091	0.	-1.7917e-004
15732	6.5252	2.	0.	-1.3207e-003
15733	6.6171	2.	5.e-002	6.1583
15734	6.6171	1.7273	0.	1.9566e-003
15735	6.5252	1.8182	0.	7.3145e-004
15736	6.6171	1.8182	5.e-002	6.1594
15737	6.6171	1.5455	0.	4.5185e-003
15738	6.5252	1.6364	0.	3.1971e-003
15739	6.6171	1.6364	5.e-002	6.1598
15740	6.6171	1.3636	0.	7.5702e-003
15741	6.5252	1.4545	0.	6.1588e-003
15742	6.6171	1.4545	5.e-002	6.1589
15743	6.6171	1.1818	0.	1.1335e-002
15744	6.5252	1.2727	0.	9.6781e-003
15745	6.6171	1.2727	5.e-002	6.1562
15746	6.6171	1.	0.	1.5787e-002
15747	6.5252	1.0909	0.	1.4181e-002
15748	6.6171	1.0909	5.e-002	6.1516
15749	6.6171	0.81818	0.	2.2762e-002
15750	6.5252	0.90909	0.	1.9228e-002
15751	6.6171	0.90909	5.e-002	6.1443
15752	6.6171	0.63636	0.	2.8308e-002
15753	6.5252	0.72727	0.	2.9212e-002
15754	6.6171	0.72727	5.e-002	6.1337
15755	6.6171	0.45455	0.	6.4627e-002
15756	6.5252	0.54545	0.	3.1866e-002
15757	6.6171	0.54545	5.e-002	6.1104
15758	6.6171	0.27273	0.	8.9576e-002
15759	6.5252	0.36364	0.	0.10852
15760	6.6171	0.36364	5.e-002	5.9374
15761	6.5252	0.18182	0.	0.12012
15762	6.6171	0.18182	5.e-002	3.5994
15763	6.6171	9.0909e-002	0.	0.12712
15764	6.4333	5.7273	0.	9.7871e-002
15765	6.3414	5.8182	0.	0.12743
15766	6.4333	5.8182	5.e-002	3.9266
15767	6.4333	5.9091	0.	0.13093
15768	6.4333	5.5455	0.	7.1026e-002
15769	6.3414	5.6364	0.	0.11899
15770	6.4333	5.6364	5.e-002	6.0344
15771	6.4333	5.3636	0.	3.1168e-002
15772	6.3414	5.4545	0.	3.5172e-002
15773	6.4333	5.4545	5.e-002	6.1928
15774	6.4333	5.1818	0.	2.4942e-002
15775	6.3414	5.2727	0.	3.2059e-002
15776	6.4333	5.2727	5.e-002	6.2153
15777	6.4333	5.	0.	1.7211e-002
15778	6.3414	5.0909	0.	2.1025e-002
15779	6.4333	5.0909	5.e-002	6.2259
15780	6.4333	4.8182	0.	1.2264e-002
15781	6.3414	4.9091	0.	1.5414e-002
15782	6.4333	4.9091	5.e-002	6.2328
15783	6.4333	4.6364	0.	8.0878e-003
15784	6.3414	4.7273	0.	1.0424e-002
15785	6.4333	4.7273	5.e-002	6.2369
15786	6.4333	4.4545	0.	4.7051e-003
15787	6.3414	4.5455	0.	6.5247e-003
15788	6.4333	4.5455	5.e-002	6.2387
15789	6.4333	4.2727	0.	1.8682e-003
15790	6.3414	4.3636	0.	3.247e-003
15791	6.4333	4.3636	5.e-002	6.2388
15792	6.4333	4.0909	0.	-4.951e-004
15793	6.3414	4.1818	0.	5.2e-004
15794	6.4333	4.1818	5.e-002	6.2375
15795	6.4333	3.9091	0.	-2.4463e-003
15796	6.3414	4.	0.	-1.7477e-003
15797	6.4333	4.	5.e-002	6.2354
15798	6.4333	3.7273	0.	-4.0165e-003
15799	6.3414	3.8182	0.	-3.5991e-003
15800	6.4333	3.8182	5.e-002	6.2327
15801	6.4333	3.5455	0.	-5.2238e-003
15802	6.3414	3.6364	0.	-5.0598e-003
15803	6.4333	3.6364	5.e-002	6.2302
15804	6.4333	3.3636	0.	-6.0802e-003
15805	6.3414	3.4545	0.	-6.1444e-003
15806	6.4333	3.4545	5.e-002	6.2279
15807	6.4333	3.1818	0.	-6.5924e-003
15808	6.3414	3.2727	0.	-6.8644e-003
15809	6.4333	3.2727	5.e-002	6.2262
15810	6.4333	3.	0.	-6.7629e-003
15811	6.3414	3.0909	0.	-7.2236e-003
15812	6.4333	3.0909	5.e-002	6.2253
15813	6.4333	2.8182	0.	-6.5923e-003
15814	6.3414	2.9091	0.	-7.2236e-003
15815	6.4333	2.9091	5.e-002	6.2253
15816	6.4333	2.6364	0.	-6.0799e-003
15817	6.3414	2.7273	0.	-6.8642e-003
15818	6.4333	2.7273	5.e-002	6.2262
15819	6.4333	2.4545	0.	-5.2234e-003
15820	6.3414	2.5455	0.	-6.1441e-003
15821	6.4333	2.5455	5.e-002	6.2279
15822	6.4333	2.2727	0.	-4.0161e-003
15823	6.3414	2.3636	0.	-5.0594e-003
15824	6.4333	2.3636	5.e-002	6.2302
15825	6.4333	2.0909	0.	-2.4459e-003
15826	6.3414	2.1818	0.	-3.5987e-003
15827	6.4333	2.1818	5.e-002	6.2328
15828	6.4333	1.9091	0.	-4.9453e-004
15829	6.3414	2.	0.	-1.7474e-003
15830	6.4333	2.	5.e-002	6.2354
15831	6.4333	1.7273	0.	1.8688e-003
15832	6.3414	1.8182	0.	5.2072e-004
15833	6.4333	1.8182	5.e-002	6.2376
15834	6.4333	1.5455	0.	4.7056e-003
15835	6.3414	1.6364	0.	3.2475e-003
15836	6.4333	1.6364	5.e-002	6.2389
15837	6.4333	1.3636	0.	8.0884e-003
15838	6.3414	1.4545	0.	6.5255e-003
15839	6.4333	1.4545	5.e-002	6.2388
15840	6.4333	1.1818	0.	1.2265e-002
15841	6.3414	1.2727	0.	1.0425e-002
15842	6.4333	1.2727	5.e-002	6.237
15843	6.4333	1.	0.	1.7212e-002
15844	6.3414	1.0909	0.	1.5415e-002
15845	6.4333	1.0909	5.e-002	6.2328
15846	6.4333	0.81818	0.	2.4943e-002
15847	6.3414	0.90909	0.	2.1026e-002
15848	6.4333	0.90909	5.e-002	6.226
15849	6.4333	0.63636	0.	3.1169e-002
15850	6.3414	0.72727	0.	3.2059e-002
15851	6.4333	0.72727	5.e-002	6.2155
15852	6.4333	0.45455	0.	7.1027e-002
15853	6.3414	0.54545	0.	3.5172e-002
15854	6.4333	0.54545	5.e-002	6.1929
15855	6.4333	0.27273	0.	9.7872e-002
15856	6.3414	0.36364	0.	0.11899
15857	6.4333	0.36364	5.e-002	6.0345
15858	6.3414	0.18182	0.	0.12744
15859	6.4333	0.18182	5.e-002	3.9268
15860	6.4333	9.0909e-002	0.	0.13093
15861	6.2495	5.7273	0.	0.10715
15862	6.1576	5.8182	0.	0.13659
15863	6.2495	5.8182	5.e-002	4.2806
15864	6.2495	5.9091	0.	0.13605
15865	6.2495	5.5455	0.	7.8006e-002
15866	6.1576	5.6364	0.	0.13042
15867	6.2495	5.6364	5.e-002	6.1395
15868	6.2495	5.3636	0.	3.4298e-002
15869	6.1576	5.4545	0.	3.8803e-002
15870	6.2495	5.4545	5.e-002	6.2821
15871	6.2495	5.1818	0.	2.7326e-002
15872	6.1576	5.2727	0.	3.5175e-002
15873	6.2495	5.2727	5.e-002	6.3038
15874	6.2495	5.	0.	1.8772e-002
15875	6.1576	5.0909	0.	2.2999e-002
15876	6.2495	5.0909	5.e-002	6.3142
15877	6.2495	4.8182	0.	1.3286e-002
15878	6.1576	4.9091	0.	1.6774e-002
15879	6.2495	4.9091	5.e-002	6.3206
15880	6.2495	4.6364	0.	8.6623e-003
15881	6.1576	4.7273	0.	1.1254e-002
15882	6.2495	4.7273	5.e-002	6.3241
15883	6.2495	4.4545	0.	4.9196e-003
15884	6.1576	4.5455	0.	6.9407e-003
15885	6.2495	4.5455	5.e-002	6.325
15886	6.2495	4.2727	0.	1.7838e-003
15887	6.1576	4.3636	0.	3.3192e-003
15888	6.2495	4.3636	5.e-002	6.324
15889	6.2495	4.0909	0.	-8.2684e-004
15890	6.1576	4.1818	0.	3.0825e-004
15891	6.2495	4.1818	5.e-002	6.3216
15892	6.2495	3.9091	0.	-2.9809e-003
15893	6.1576	4.	0.	-2.194e-003
15894	6.2495	4.	5.e-002	6.3183
15895	6.2495	3.7273	0.	-4.7134e-003
15896	6.1576	3.8182	0.	-4.2356e-003
15897	6.2495	3.8182	5.e-002	6.3146
15898	6.2495	3.5455	0.	-6.0449e-003
15899	6.1576	3.6364	0.	-5.8454e-003
15900	6.2495	3.6364	5.e-002	6.3111
15901	6.2495	3.3636	0.	-6.9891e-003
15902	6.1576	3.4545	0.	-7.0405e-003
15903	6.2495	3.4545	5.e-002	6.308
15904	6.2495	3.1818	0.	-7.5538e-003
15905	6.1576	3.2727	0.	-7.8336e-003
15906	6.2495	3.2727	5.e-002	6.3058
15907	6.2495	3.	0.	-7.7418e-003
15908	6.1576	3.0909	0.	-8.2292e-003
15909	6.2495	3.0909	5.e-002	6.3046
15910	6.2495	2.8182	0.	-7.5537e-003
15911	6.1576	2.9091	0.	-8.2292e-003
15912	6.2495	2.9091	5.e-002	6.3046
15913	6.2495	2.6364	0.	-6.9889e-003
15914	6.1576	2.7273	0.	-7.8334e-003
15915	6.2495	2.7273	5.e-002	6.3058
15916	6.2495	2.4545	0.	-6.0447e-003
15917	6.1576	2.5455	0.	-7.0402e-003
15918	6.2495	2.5455	5.e-002	6.308
15919	6.2495	2.2727	0.	-4.713e-003
15920	6.1576	2.3636	0.	-5.8452e-003
15921	6.2495	2.3636	5.e-002	6.3111
15922	6.2495	2.0909	0.	-2.9805e-003
15923	6.1576	2.1818	0.	-4.2352e-003
15924	6.2495	2.1818	5.e-002	6.3146
15925	6.2495	1.9091	0.	-8.2638e-004
15926	6.1576	2.	0.	-2.1937e-003
15927	6.2495	2.	5.e-002	6.3183
15928	6.2495	1.7273	0.	1.7843e-003
15929	6.1576	1.8182	0.	3.0883e-004
15930	6.2495	1.8182	5.e-002	6.3216
15931	6.2495	1.5455	0.	4.9203e-003
15932	6.1576	1.6364	0.	3.3197e-003
15933	6.2495	1.6364	5.e-002	6.3241
15934	6.2495	1.3636	0.	8.663e-003
15935	6.1576	1.4545	0.	6.9415e-003
15936	6.2495	1.4545	5.e-002	6.3251
15937	6.2495	1.1818	0.	1.3287e-002
15938	6.1576	1.2727	0.	1.1254e-002
15939	6.2495	1.2727	5.e-002	6.3242
15940	6.2495	1.	0.	1.8773e-002
15941	6.1576	1.0909	0.	1.6774e-002
15942	6.2495	1.0909	5.e-002	6.3207
15943	6.2495	0.81818	0.	2.7327e-002
15944	6.1576	0.90909	0.	2.3e-002
15945	6.2495	0.90909	5.e-002	6.3143
15946	6.2495	0.63636	0.	3.4299e-002
15947	6.1576	0.72727	0.	3.5176e-002
15948	6.2495	0.72727	5.e-002	6.304
15949	6.2495	0.45455	0.	7.8007e-002
15950	6.1576	0.54545	0.	3.8803e-002
15951	6.2495	0.54545	5.e-002	6.2823
15952	6.2495	0.27273	0.	0.10715
15953	6.1576	0.36364	0.	0.13042
15954	6.2495	0.36364	5.e-002	6.1397
15955	6.1576	0.18182	0.	0.1366
15956	6.2495	0.18182	5.e-002	4.2807
15957	6.2495	9.0909e-002	0.	0.13605
15958	6.0657	5.7273	0.	0.11754
15959	5.9738	5.8182	0.	0.14775
15960	6.0657	5.8182	5.e-002	4.6629
15961	6.0657	5.9091	0.	0.14237
15962	6.0657	5.5455	0.	8.5634e-002
15963	5.9738	5.6364	0.	0.14291
15964	6.0657	5.6364	5.e-002	6.2536
15965	6.0657	5.3636	0.	3.7736e-002
15966	5.9738	5.4545	0.	4.2797e-002
15967	6.0657	5.4545	5.e-002	6.379
15968	6.0657	5.1818	0.	2.9945e-002
15969	5.9738	5.2727	0.	3.8593e-002
15970	6.0657	5.2727	5.e-002	6.3997
15971	6.0657	5.	0.	2.0494e-002
15972	5.9738	5.0909	0.	2.5171e-002
15973	6.0657	5.0909	5.e-002	6.4099
15974	6.0657	4.8182	0.	1.4421e-002
15975	5.9738	4.9091	0.	1.8276e-002
15976	6.0657	4.9091	5.e-002	6.4158
15977	6.0657	4.6364	0.	9.3106e-003
15978	5.9738	4.7273	0.	1.2178e-002
15979	6.0657	4.7273	5.e-002	6.4184
15980	6.0657	4.4545	0.	5.1765e-003
15981	5.9738	4.5455	0.	7.4156e-003
15982	6.0657	4.5455	5.e-002	6.4183
15983	6.0657	4.2727	0.	1.7155e-003
15984	5.9738	4.3636	0.	3.4204e-003
15985	6.0657	4.3636	5.e-002	6.416
15986	6.0657	4.0909	0.	-1.164e-003
15987	5.9738	4.1818	0.	1.0072e-004
15988	6.0657	4.1818	5.e-002	6.4122
15989	6.0657	3.9091	0.	-3.5383e-003
15990	5.9738	4.	0.	-2.6562e-003
15991	6.0657	4.	5.e-002	6.4075
15992	6.0657	3.7273	0.	-5.4467e-003
15993	5.9738	3.8182	0.	-4.904e-003
15994	6.0657	3.8182	5.e-002	6.4027
15995	6.0657	3.5455	0.	-6.913e-003
15996	5.9738	3.6364	0.	-6.6756e-003
15997	6.0657	3.6364	5.e-002	6.398
15998	6.0657	3.3636	0.	-7.9524e-003
15999	5.9738	3.4545	0.	-7.9902e-003
16000	6.0657	3.4545	5.e-002	6.3941
16001	6.0657	3.1818	0.	-8.5739e-003
16002	5.9738	3.2727	0.	-8.8624e-003
16003	6.0657	3.2727	5.e-002	6.3913
16004	6.0657	3.	0.	-8.7807e-003
16005	5.9738	3.0909	0.	-9.2975e-003
16006	6.0657	3.0909	5.e-002	6.3898
16007	6.0657	2.8182	0.	-8.5738e-003
16008	5.9738	2.9091	0.	-9.2974e-003
16009	6.0657	2.9091	5.e-002	6.3898
16010	6.0657	2.6364	0.	-7.9523e-003
16011	5.9738	2.7273	0.	-8.8623e-003
16012	6.0657	2.7273	5.e-002	6.3913
16013	6.0657	2.4545	0.	-6.9128e-003
16014	5.9738	2.5455	0.	-7.99e-003
16015	6.0657	2.5455	5.e-002	6.3941
16016	6.0657	2.2727	0.	-5.4465e-003
16017	5.9738	2.3636	0.	-6.6753e-003
16018	6.0657	2.3636	5.e-002	6.398
16019	6.0657	2.0909	0.	-3.5379e-003
16020	5.9738	2.1818	0.	-4.9036e-003
16021	6.0657	2.1818	5.e-002	6.4027
16022	6.0657	1.9091	0.	-1.1635e-003
16023	5.9738	2.	0.	-2.6557e-003
16024	6.0657	2.	5.e-002	6.4077
16025	6.0657	1.7273	0.	1.7161e-003
16026	5.9738	1.8182	0.	1.0132e-004
16027	6.0657	1.8182	5.e-002	6.4123
16028	6.0657	1.5455	0.	5.1771e-003
16029	5.9738	1.6364	0.	3.4209e-003
16030	6.0657	1.6364	5.e-002	6.4161
16031	6.0657	1.3636	0.	9.3114e-003
16032	5.9738	1.4545	0.	7.4165e-003
16033	6.0657	1.4545	5.e-002	6.4183
16034	6.0657	1.1818	0.	1.4422e-002
16035	5.9738	1.2727	0.	1.2179e-002
16036	6.0657	1.2727	5.e-002	6.4185
16037	6.0657	1.	0.	2.0496e-002
16038	5.9738	1.0909	0.	1.8277e-002
16039	6.0657	1.0909	5.e-002	6.4159
16040	6.0657	0.81818	0.	2.9946e-002
16041	5.9738	0.90909	0.	2.5173e-002
16042	6.0657	0.90909	5.e-002	6.4099
16043	6.0657	0.63636	0.	3.7737e-002
16044	5.9738	0.72727	0.	3.8593e-002
16045	6.0657	0.72727	5.e-002	6.3999
16046	6.0657	0.45455	0.	8.5635e-002
16047	5.9738	0.54545	0.	4.2797e-002
16048	6.0657	0.54545	5.e-002	6.3792
16049	6.0657	0.27273	0.	0.11754
16050	5.9738	0.36364	0.	0.14291
16051	6.0657	0.36364	5.e-002	6.2537
16052	5.9738	0.18182	0.	0.14775
16053	6.0657	0.18182	5.e-002	4.663
16054	6.0657	9.0909e-002	0.	0.14237
16055	5.8819	5.7273	0.	0.12916
16056	5.79	5.8182	0.	0.16111
16057	5.8819	5.8182	5.e-002	5.0757
16058	5.8819	5.9091	0.	0.14983
16059	5.8819	5.5455	0.	9.3972e-002
16060	5.79	5.6364	0.	0.15655
16061	5.8819	5.6364	5.e-002	6.3772
16062	5.8819	5.3636	0.	4.1511e-002
16063	5.79	5.4545	0.	4.7192e-002
16064	5.8819	5.4545	5.e-002	6.4842
16065	5.8819	5.1818	0.	3.282e-002
16066	5.79	5.2727	0.	4.2338e-002
16067	5.8819	5.2727	5.e-002	6.5038
16068	5.8819	5.	0.	2.2392e-002
16069	5.79	5.0909	0.	2.756e-002
16070	5.8819	5.0909	5.e-002	6.5136
16071	5.8819	4.8182	0.	1.5678e-002
16072	5.79	4.9091	0.	1.9933e-002
16073	5.8819	4.9091	5.e-002	6.519
16074	5.8819	4.6364	0.	1.0038e-002
16075	5.79	4.7273	0.	1.3207e-002
16076	5.8819	4.7273	5.e-002	6.5207
16077	5.8819	4.4545	0.	5.4774e-003
16078	5.79	4.5455	0.	7.954e-003
16079	5.8819	4.5455	5.e-002	6.5192
16080	5.8819	4.2727	0.	1.663e-003
16081	5.79	4.3636	0.	3.552e-003
16082	5.8819	4.3636	5.e-002	6.5155
16083	5.8819	4.0909	0.	-1.5084e-003
16084	5.79	4.1818	0.	-1.0274e-004
16085	5.8819	4.1818	5.e-002	6.5103
16086	5.8819	3.9091	0.	-4.1216e-003
16087	5.79	4.	0.	-3.1357e-003
16088	5.8819	4.	5.e-002	6.5041
16089	5.8819	3.7273	0.	-6.2209e-003
16090	5.79	3.8182	0.	-5.607e-003
16091	5.8819	3.8182	5.e-002	6.4977
16092	5.8819	3.5455	0.	-7.833e-003
16093	5.79	3.6364	0.	-7.5537e-003
16094	5.8819	3.6364	5.e-002	6.4918
16095	5.8819	3.3636	0.	-8.9753e-003
16096	5.79	3.4545	0.	-8.9976e-003
16097	5.8819	3.4545	5.e-002	6.4869
16098	5.8819	3.1818	0.	-9.6582e-003
16099	5.79	3.2727	0.	-9.955e-003
16100	5.8819	3.2727	5.e-002	6.4834
16101	5.8819	3.	0.	-9.8854e-003
16102	5.79	3.0909	0.	-1.0432e-002
16103	5.8819	3.0909	5.e-002	6.4815
16104	5.8819	2.8182	0.	-9.6581e-003
16105	5.79	2.9091	0.	-1.0432e-002
16106	5.8819	2.9091	5.e-002	6.4815
16107	5.8819	2.6364	0.	-8.9751e-003
16108	5.79	2.7273	0.	-9.9549e-003
16109	5.8819	2.7273	5.e-002	6.4834
16110	5.8819	2.4545	0.	-7.8327e-003
16111	5.79	2.5455	0.	-8.9974e-003
16112	5.8819	2.5455	5.e-002	6.4869
16113	5.8819	2.2727	0.	-6.2205e-003
16114	5.79	2.3636	0.	-7.5534e-003
16115	5.8819	2.3636	5.e-002	6.4919
16116	5.8819	2.0909	0.	-4.1211e-003
16117	5.79	2.1818	0.	-5.6067e-003
16118	5.8819	2.1818	5.e-002	6.4978
16119	5.8819	1.9091	0.	-1.5078e-003
16120	5.79	2.	0.	-3.1353e-003
16121	5.8819	2.	5.e-002	6.5042
16122	5.8819	1.7273	0.	1.6636e-003
16123	5.79	1.8182	0.	-1.0219e-004
16124	5.8819	1.8182	5.e-002	6.5103
16125	5.8819	1.5455	0.	5.4781e-003
16126	5.79	1.6364	0.	3.5527e-003
16127	5.8819	1.6364	5.e-002	6.5156
16128	5.8819	1.3636	0.	1.0038e-002
16129	5.79	1.4545	0.	7.9547e-003
16130	5.8819	1.4545	5.e-002	6.5193
16131	5.8819	1.1818	0.	1.5679e-002
16132	5.79	1.2727	0.	1.3207e-002
16133	5.8819	1.2727	5.e-002	6.5207
16134	5.8819	1.	0.	2.2393e-002
16135	5.79	1.0909	0.	1.9934e-002
16136	5.8819	1.0909	5.e-002	6.5191
16137	5.8819	0.81818	0.	3.2821e-002
16138	5.79	0.90909	0.	2.7561e-002
16139	5.8819	0.90909	5.e-002	6.5139
16140	5.8819	0.63636	0.	4.1512e-002
16141	5.79	0.72727	0.	4.2338e-002
16142	5.8819	0.72727	5.e-002	6.504
16143	5.8819	0.45455	0.	9.3973e-002
16144	5.79	0.54545	0.	4.7193e-002
16145	5.8819	0.54545	5.e-002	6.4844
16146	5.8819	0.27273	0.	0.12917
16147	5.79	0.36364	0.	0.15655
16148	5.8819	0.36364	5.e-002	6.3773
16149	5.79	0.18182	0.	0.16111
16150	5.8819	0.18182	5.e-002	5.0758
16151	5.8819	9.0909e-002	0.	0.14983
16152	5.6981	5.7273	0.	0.14218
16153	5.6062	5.8182	0.	0.17698
16154	5.6981	5.8182	5.e-002	5.5211
16155	5.6981	5.9091	0.	0.15841
16156	5.6981	5.5455	0.	0.10309
16157	5.6062	5.6364	0.	0.17146
16158	5.6981	5.6364	5.e-002	6.5113
16159	5.6981	5.3636	0.	4.5656e-002
16160	5.6062	5.4545	0.	5.2033e-002
16161	5.6981	5.4545	5.e-002	6.5986
16162	5.6981	5.1818	0.	3.5973e-002
16163	5.6062	5.2727	0.	4.6444e-002
16164	5.6981	5.2727	5.e-002	6.617
16165	5.6981	5.	0.	2.4479e-002
16166	5.6062	5.0909	0.	3.0187e-002
16167	5.6981	5.0909	5.e-002	6.6265
16168	5.6981	4.8182	0.	1.7067e-002
16169	5.6062	4.9091	0.	2.176e-002
16170	5.6981	4.9091	5.e-002	6.6311
16171	5.6981	4.6364	0.	1.085e-002
16172	5.6062	4.7273	0.	1.4349e-002
16173	5.6981	4.7273	5.e-002	6.6316
16174	5.6981	4.4545	0.	5.8264e-003
16175	5.6062	4.5455	0.	8.5629e-003
16176	5.6981	4.5455	5.e-002	6.6288
16177	5.6981	4.2727	0.	1.6278e-003
16178	5.6062	4.3636	0.	3.7189e-003
16179	5.6981	4.3636	5.e-002	6.6236
16180	5.6981	4.0909	0.	-1.8601e-003
16181	5.6062	4.1818	0.	-2.996e-004
16182	5.6981	4.1818	5.e-002	6.6165
16183	5.6981	3.9091	0.	-4.7321e-003
16184	5.6062	4.	0.	-3.6318e-003
16185	5.6981	4.	5.e-002	6.6087
16186	5.6981	3.7273	0.	-7.0377e-003
16187	5.6062	3.8182	0.	-6.3446e-003
16188	5.6981	3.8182	5.e-002	6.6007
16189	5.6981	3.5455	0.	-8.8074e-003
16190	5.6062	3.6364	0.	-8.48e-003
16191	5.6981	3.6364	5.e-002	6.5934
16192	5.6981	3.3636	0.	-1.0061e-002
16193	5.6062	3.4545	0.	-1.0063e-002
16194	5.6981	3.4545	5.e-002	6.5873
16195	5.6981	3.1818	0.	-1.081e-002
16196	5.6062	3.2727	0.	-1.1113e-002
16197	5.6981	3.2727	5.e-002	6.5829
16198	5.6981	3.	0.	-1.1059e-002
16199	5.6062	3.0909	0.	-1.1635e-002
16200	5.6981	3.0909	5.e-002	6.5806
16201	5.6981	2.8182	0.	-1.081e-002
16202	5.6062	2.9091	0.	-1.1635e-002
16203	5.6981	2.9091	5.e-002	6.5806
16204	5.6981	2.6364	0.	-1.0061e-002
16205	5.6062	2.7273	0.	-1.1112e-002
16206	5.6981	2.7273	5.e-002	6.5829
16207	5.6981	2.4545	0.	-8.8072e-003
16208	5.6062	2.5455	0.	-1.0063e-002
16209	5.6981	2.5455	5.e-002	6.5873
16210	5.6981	2.2727	0.	-7.0374e-003
16211	5.6062	2.3636	0.	-8.4797e-003
16212	5.6981	2.3636	5.e-002	6.5934
16213	5.6981	2.0909	0.	-4.7317e-003
16214	5.6062	2.1818	0.	-6.3443e-003
16215	5.6981	2.1818	5.e-002	6.6007
16216	5.6981	1.9091	0.	-1.8596e-003
16217	5.6062	2.	0.	-3.6314e-003
16218	5.6981	2.	5.e-002	6.6087
16219	5.6981	1.7273	0.	1.6285e-003
16220	5.6062	1.8182	0.	-2.9908e-004
16221	5.6981	1.8182	5.e-002	6.6167
16222	5.6981	1.5455	0.	5.827e-003
16223	5.6062	1.6364	0.	3.7196e-003
16224	5.6981	1.6364	5.e-002	6.6236
16225	5.6981	1.3636	0.	1.0851e-002
16226	5.6062	1.4545	0.	8.5634e-003
16227	5.6981	1.4545	5.e-002	6.6289
16228	5.6981	1.1818	0.	1.7068e-002
16229	5.6062	1.2727	0.	1.4349e-002
16230	5.6981	1.2727	5.e-002	6.6317
16231	5.6981	1.	0.	2.448e-002
16232	5.6062	1.0909	0.	2.1761e-002
16233	5.6981	1.0909	5.e-002	6.6312
16234	5.6981	0.81818	0.	3.5974e-002
16235	5.6062	0.90909	0.	3.0188e-002
16236	5.6981	0.90909	5.e-002	6.6267
16237	5.6981	0.63636	0.	4.5657e-002
16238	5.6062	0.72727	0.	4.6445e-002
16239	5.6981	0.72727	5.e-002	6.6171
16240	5.6981	0.45455	0.	0.10309
16241	5.6062	0.54545	0.	5.2033e-002
16242	5.6981	0.54545	5.e-002	6.5987
16243	5.6981	0.27273	0.	0.14218
16244	5.6062	0.36364	0.	0.17146
16245	5.6981	0.36364	5.e-002	6.5114
16246	5.6062	0.18182	0.	0.17698
16247	5.6981	0.18182	5.e-002	5.5212
16248	5.6981	9.0909e-002	0.	0.15841
16249	5.5143	5.7273	0.	0.15676
16250	5.4224	5.8182	0.	0.19573
16251	5.5143	5.8182	5.e-002	6.0013
16252	5.5143	5.9091	0.	0.16811
16253	5.5143	5.5455	0.	0.11307
16254	5.4224	5.6364	0.	0.18778
16255	5.5143	5.6364	5.e-002	6.6567
16256	5.5143	5.3636	0.	5.0213e-002
16257	5.4224	5.4545	0.	5.7372e-002
16258	5.5143	5.4545	5.e-002	6.7229
16259	5.5143	5.1818	0.	3.9435e-002
16260	5.4224	5.2727	0.	5.0951e-002
16261	5.5143	5.2727	5.e-002	6.7401
16262	5.5143	5.	0.	2.6779e-002
16263	5.4224	5.0909	0.	3.3079e-002
16264	5.5143	5.0909	5.e-002	6.7493
16265	5.5143	4.8182	0.	1.8605e-002
16266	5.4224	4.9091	0.	2.3779e-002
16267	5.5143	4.9091	5.e-002	6.7531
16268	5.5143	4.6364	0.	1.1759e-002
16269	5.4224	4.7273	0.	1.562e-002
16270	5.5143	4.7273	5.e-002	6.7524
16271	5.5143	4.4545	0.	6.231e-003
16272	5.4224	4.5455	0.	9.2535e-003
16273	5.5143	4.5455	5.e-002	6.7481
16274	5.5143	4.2727	0.	1.6156e-003
16275	5.4224	4.3636	0.	3.9296e-003
16276	5.5143	4.3636	5.e-002	6.741
16277	5.5143	4.0909	0.	-2.2156e-003
16278	5.4224	4.1818	0.	-4.8345e-004
16279	5.5143	4.1818	5.e-002	6.7321
16280	5.5143	3.9091	0.	-5.3675e-003
16281	5.4224	4.	0.	-4.1392e-003
16282	5.5143	4.	5.e-002	6.7222
16283	5.5143	3.7273	0.	-7.8956e-003
16284	5.4224	3.8182	0.	-7.1124e-003
16285	5.5143	3.8182	5.e-002	6.7125
16286	5.5143	3.5455	0.	-9.8348e-003
16287	5.4224	3.6364	0.	-9.451e-003
16288	5.5143	3.6364	5.e-002	6.7034
16289	5.5143	3.3636	0.	-1.1208e-002
16290	5.4224	3.4545	0.	-1.1184e-002
16291	5.5143	3.4545	5.e-002	6.696
16292	5.5143	3.1818	0.	-1.2028e-002
16293	5.4224	3.2727	0.	-1.2331e-002
16294	5.5143	3.2727	5.e-002	6.6908
16295	5.5143	3.	0.	-1.23e-002
16296	5.4224	3.0909	0.	-1.2903e-002
16297	5.5143	3.0909	5.e-002	6.6881
16298	5.5143	2.8182	0.	-1.2027e-002
16299	5.4224	2.9091	0.	-1.2903e-002
16300	5.5143	2.9091	5.e-002	6.6881
16301	5.5143	2.6364	0.	-1.1208e-002
16302	5.4224	2.7273	0.	-1.2331e-002
16303	5.5143	2.7273	5.e-002	6.6908
16304	5.5143	2.4545	0.	-9.8347e-003
16305	5.4224	2.5455	0.	-1.1184e-002
16306	5.5143	2.5455	5.e-002	6.6961
16307	5.5143	2.2727	0.	-7.8953e-003
16308	5.4224	2.3636	0.	-9.4508e-003
16309	5.5143	2.3636	5.e-002	6.7035
16310	5.5143	2.0909	0.	-5.3671e-003
16311	5.4224	2.1818	0.	-7.112e-003
16312	5.5143	2.1818	5.e-002	6.7125
16313	5.5143	1.9091	0.	-2.2151e-003
16314	5.4224	2.	0.	-4.1387e-003
16315	5.5143	2.	5.e-002	6.7223
16316	5.5143	1.7273	0.	1.6162e-003
16317	5.4224	1.8182	0.	-4.829e-004
16318	5.5143	1.8182	5.e-002	6.7322
16319	5.5143	1.5455	0.	6.2316e-003
16320	5.4224	1.6364	0.	3.9302e-003
16321	5.5143	1.6364	5.e-002	6.7411
16322	5.5143	1.3636	0.	1.1759e-002
16323	5.4224	1.4545	0.	9.2541e-003
16324	5.5143	1.4545	5.e-002	6.7482
16325	5.5143	1.1818	0.	1.8605e-002
16326	5.4224	1.2727	0.	1.5621e-002
16327	5.5143	1.2727	5.e-002	6.7525
16328	5.5143	1.	0.	2.678e-002
16329	5.4224	1.0909	0.	2.3779e-002
16330	5.5143	1.0909	5.e-002	6.7532
16331	5.5143	0.81818	0.	3.9436e-002
16332	5.4224	0.90909	0.	3.308e-002
16333	5.5143	0.90909	5.e-002	6.7494
16334	5.5143	0.63636	0.	5.0213e-002
16335	5.4224	0.72727	0.	5.0952e-002
16336	5.5143	0.72727	5.e-002	6.7403
16337	5.5143	0.45455	0.	0.11307
16338	5.4224	0.54545	0.	5.7372e-002
16339	5.5143	0.54545	5.e-002	6.7231
16340	5.5143	0.27273	0.	0.15676
16341	5.4224	0.36364	0.	0.18778
16342	5.5143	0.36364	5.e-002	6.6569
16343	5.4224	0.18182	0.	0.19573
16344	5.5143	0.18182	5.e-002	6.0014
16345	5.5143	9.0909e-002	0.	0.16812
16346	5.3305	5.7273	0.	0.17312
16347	5.2386	5.8182	0.	0.21786
16348	5.3305	5.8182	5.e-002	6.5187
16349	5.3305	5.9091	0.	0.179
16350	5.3305	5.5455	0.	0.12401
16351	5.2386	5.6364	0.	0.20566
16352	5.3305	5.6364	5.e-002	6.8145
16353	5.3305	5.3636	0.	5.523e-002
16354	5.2386	5.4545	0.	6.3271e-002
16355	5.3305	5.4545	5.e-002	6.8583
16356	5.3305	5.1818	0.	4.3243e-002
16357	5.2386	5.2727	0.	5.5908e-002
16358	5.3305	5.2727	5.e-002	6.8743
16359	5.3305	5.	0.	2.9317e-002
16360	5.2386	5.0909	0.	3.6271e-002
16361	5.3305	5.0909	5.e-002	6.8831
16362	5.3305	4.8182	0.	2.031e-002
16363	5.2386	4.9091	0.	2.6013e-002
16364	5.3305	4.9091	5.e-002	6.8861
16365	5.3305	4.6364	0.	1.2779e-002
16366	5.2386	4.7273	0.	1.7039e-002
16367	5.3305	4.7273	5.e-002	6.8842
16368	5.3305	4.4545	0.	6.7032e-003
16369	5.2386	4.5455	0.	1.0041e-002
16370	5.3305	4.5455	5.e-002	6.8781
16371	5.3305	4.2727	0.	1.6354e-003
16372	5.2386	4.3636	0.	4.1955e-003
16373	5.3305	4.3636	5.e-002	6.8691
16374	5.3305	4.0909	0.	-2.567e-003
16375	5.2386	4.1818	0.	-6.4453e-004
16376	5.3305	4.1818	5.e-002	6.858
16377	5.3305	3.9091	0.	-6.0207e-003
16378	5.2386	4.	0.	-4.6492e-003
16379	5.3305	4.	5.e-002	6.846
16380	5.3305	3.7273	0.	-8.7885e-003
16381	5.2386	3.8182	0.	-7.9025e-003
16382	5.3305	3.8182	5.e-002	6.8342
16383	5.3305	3.5455	0.	-1.091e-002
16384	5.2386	3.6364	0.	-1.0459e-002
16385	5.3305	3.6364	5.e-002	6.8234
16386	5.3305	3.3636	0.	-1.241e-002
16387	5.2386	3.4545	0.	-1.2351e-002
16388	5.3305	3.4545	5.e-002	6.8145
16389	5.3305	3.1818	0.	-1.3306e-002
16390	5.2386	3.2727	0.	-1.3603e-002
16391	5.3305	3.2727	5.e-002	6.8082
16392	5.3305	3.	0.	-1.3604e-002
16393	5.2386	3.0909	0.	-1.4227e-002
16394	5.3305	3.0909	5.e-002	6.8049
16395	5.3305	2.8182	0.	-1.3306e-002
16396	5.2386	2.9091	0.	-1.4227e-002
16397	5.3305	2.9091	5.e-002	6.8049
16398	5.3305	2.6364	0.	-1.241e-002
16399	5.2386	2.7273	0.	-1.3603e-002
16400	5.3305	2.7273	5.e-002	6.8082
16401	5.3305	2.4545	0.	-1.091e-002
16402	5.2386	2.5455	0.	-1.2351e-002
16403	5.3305	2.5455	5.e-002	6.8145
16404	5.3305	2.2727	0.	-8.7882e-003
16405	5.2386	2.3636	0.	-1.0458e-002
16406	5.3305	2.3636	5.e-002	6.8234
16407	5.3305	2.0909	0.	-6.0203e-003
16408	5.2386	2.1818	0.	-7.9021e-003
16409	5.3305	2.1818	5.e-002	6.8342
16410	5.3305	1.9091	0.	-2.5666e-003
16411	5.2386	2.	0.	-4.6488e-003
16412	5.3305	2.	5.e-002	6.8461
16413	5.3305	1.7273	0.	1.636e-003
16414	5.2386	1.8182	0.	-6.4397e-004
16415	5.3305	1.8182	5.e-002	6.8581
16416	5.3305	1.5455	0.	6.7038e-003
16417	5.2386	1.6364	0.	4.196e-003
16418	5.3305	1.6364	5.e-002	6.8692
16419	5.3305	1.3636	0.	1.278e-002
16420	5.2386	1.4545	0.	1.0041e-002
16421	5.3305	1.4545	5.e-002	6.8783
16422	5.3305	1.1818	0.	2.0311e-002
16423	5.2386	1.2727	0.	1.704e-002
16424	5.3305	1.2727	5.e-002	6.8843
16425	5.3305	1.	0.	2.9318e-002
16426	5.2386	1.0909	0.	2.6014e-002
16427	5.3305	1.0909	5.e-002	6.8862
16428	5.3305	0.81818	0.	4.3244e-002
16429	5.2386	0.90909	0.	3.6272e-002
16430	5.3305	0.90909	5.e-002	6.8832
16431	5.3305	0.63636	0.	5.523e-002
16432	5.2386	0.72727	0.	5.5908e-002
16433	5.3305	0.72727	5.e-002	6.8744
16434	5.3305	0.45455	0.	0.12401
16435	5.2386	0.54545	0.	6.3271e-002
16436	5.3305	0.54545	5.e-002	6.8584
16437	5.3305	0.27273	0.	0.17313
16438	5.2386	0.36364	0.	0.20566
16439	5.3305	0.36364	5.e-002	6.8146
16440	5.2386	0.18182	0.	0.21786
16441	5.3305	0.18182	5.e-002	6.5189
16442	5.3305	9.0909e-002	0.	0.179
16443	5.1467	5.7273	0.	0.19153
16444	5.0548	5.8182	0.	0.24396
16445	5.1467	5.8182	5.e-002	7.0757
16446	5.1467	5.9091	0.	0.19114
16447	5.1467	5.5455	0.	0.136
16448	5.0548	5.6364	0.	0.22526
16449	5.1467	5.6364	5.e-002	6.9855
16450	5.1467	5.3636	0.	6.0764e-002
16451	5.0548	5.4545	0.	6.9794e-002
16452	5.1467	5.4545	5.e-002	7.0056
16453	5.1467	5.1818	0.	4.7439e-002
16454	5.0548	5.2727	0.	6.1358e-002
16455	5.1467	5.2727	5.e-002	7.0205
16456	5.1467	5.	0.	3.2123e-002
16457	5.0548	5.0909	0.	3.979e-002
16458	5.1467	5.0909	5.e-002	7.0291
16459	5.1467	4.8182	0.	2.2207e-002
16460	5.0548	4.9091	0.	2.8484e-002
16461	5.1467	4.9091	5.e-002	7.0313
16462	5.1467	4.6364	0.	1.3929e-002
16463	5.0548	4.7273	0.	1.8621e-002
16464	5.1467	4.7273	5.e-002	7.028
16465	5.1467	4.4545	0.	7.2572e-003
16466	5.0548	4.5455	0.	1.0934e-002
16467	5.1467	4.5455	5.e-002	7.0202
16468	5.1467	4.2727	0.	1.6992e-003
16469	5.0548	4.3636	0.	4.5231e-003
16470	5.1467	4.3636	5.e-002	7.0091
16471	5.1467	4.0909	0.	-2.9042e-003
16472	5.0548	4.1818	0.	-7.7813e-004
16473	5.1467	4.1818	5.e-002	6.9957
16474	5.1467	3.9091	0.	-6.6825e-003
16475	5.0548	4.	0.	-5.1583e-003
16476	5.1467	4.	5.e-002	6.9813
16477	5.1467	3.7273	0.	-9.7066e-003
16478	5.0548	3.8182	0.	-8.7112e-003
16479	5.1467	3.8182	5.e-002	6.9671
16480	5.1467	3.5455	0.	-1.2022e-002
16481	5.0548	3.6364	0.	-1.1499e-002
16482	5.1467	3.6364	5.e-002	6.9544
16483	5.1467	3.3636	0.	-1.3658e-002
16484	5.0548	3.4545	0.	-1.3561e-002
16485	5.1467	3.4545	5.e-002	6.9439
16486	5.1467	3.1818	0.	-1.4634e-002
16487	5.0548	3.2727	0.	-1.4924e-002
16488	5.1467	3.2727	5.e-002	6.9365
16489	5.1467	3.	0.	-1.4959e-002
16490	5.0548	3.0909	0.	-1.5602e-002
16491	5.1467	3.0909	5.e-002	6.9326
16492	5.1467	2.8182	0.	-1.4634e-002
16493	5.0548	2.9091	0.	-1.5602e-002
16494	5.1467	2.9091	5.e-002	6.9326
16495	5.1467	2.6364	0.	-1.3658e-002
16496	5.0548	2.7273	0.	-1.4924e-002
16497	5.1467	2.7273	5.e-002	6.9365
16498	5.1467	2.4545	0.	-1.2022e-002
16499	5.0548	2.5455	0.	-1.3561e-002
16500	5.1467	2.5455	5.e-002	6.9439
16501	5.1467	2.2727	0.	-9.7063e-003
16502	5.0548	2.3636	0.	-1.1499e-002
16503	5.1467	2.3636	5.e-002	6.9544
16504	5.1467	2.0909	0.	-6.6821e-003
16505	5.0548	2.1818	0.	-8.7109e-003
16506	5.1467	2.1818	5.e-002	6.9673
16507	5.1467	1.9091	0.	-2.9037e-003
16508	5.0548	2.	0.	-5.1578e-003
16509	5.1467	2.	5.e-002	6.9814
16510	5.1467	1.7273	0.	1.6997e-003
16511	5.0548	1.8182	0.	-7.7757e-004
16512	5.1467	1.8182	5.e-002	6.9957
16513	5.1467	1.5455	0.	7.2577e-003
16514	5.0548	1.6364	0.	4.5236e-003
16515	5.1467	1.6364	5.e-002	7.0091
16516	5.1467	1.3636	0.	1.393e-002
16517	5.0548	1.4545	0.	1.0934e-002
16518	5.1467	1.4545	5.e-002	7.0203
16519	5.1467	1.1818	0.	2.2207e-002
16520	5.0548	1.2727	0.	1.8622e-002
16521	5.1467	1.2727	5.e-002	7.0281
16522	5.1467	1.	0.	3.2124e-002
16523	5.0548	1.0909	0.	2.8485e-002
16524	5.1467	1.0909	5.e-002	7.0315
16525	5.1467	0.81818	0.	4.744e-002
16526	5.0548	0.90909	0.	3.9791e-002
16527	5.1467	0.90909	5.e-002	7.0292
16528	5.1467	0.63636	0.	6.0764e-002
16529	5.0548	0.72727	0.	6.1358e-002
16530	5.1467	0.72727	5.e-002	7.0207
16531	5.1467	0.45455	0.	0.13601
16532	5.0548	0.54545	0.	6.9794e-002
16533	5.1467	0.54545	5.e-002	7.0058
16534	5.1467	0.27273	0.	0.19153
16535	5.0548	0.36364	0.	0.22526
16536	5.1467	0.36364	5.e-002	6.9856
16537	5.0548	0.18182	0.	0.24396
16538	5.1467	0.18182	5.e-002	7.0759
16539	5.1467	9.0909e-002	0.	0.19114
16540	4.9629	5.7273	0.	0.21227
16541	4.871	5.8182	0.	0.27479
16542	4.9629	5.8182	5.e-002	7.6746
16543	4.9629	5.9091	0.	0.20461
16544	4.9629	5.5455	0.	0.14917
16545	4.871	5.6364	0.	0.24677
16546	4.9629	5.6364	5.e-002	7.1707
16547	4.9629	5.3636	0.	6.6863e-002
16548	4.871	5.4545	0.	7.7013e-002
16549	4.9629	5.4545	5.e-002	7.1662
16550	4.9629	5.1818	0.	5.2054e-002
16551	4.871	5.2727	0.	6.7353e-002
16552	4.9629	5.2727	5.e-002	7.18
16553	4.9629	5.	0.	3.5217e-002
16554	4.871	5.0909	0.	4.3672e-002
16555	4.9629	5.0909	5.e-002	7.1885
16556	4.9629	4.8182	0.	2.4305e-002
16557	4.871	4.9091	0.	3.1215e-002
16558	4.9629	4.9091	5.e-002	7.1901
16559	4.9629	4.6364	0.	1.5214e-002
16560	4.871	4.7273	0.	2.038e-002
16561	4.9629	4.7273	5.e-002	7.1855
16562	4.9629	4.4545	0.	7.8943e-003
16563	4.871	4.5455	0.	1.1944e-002
16564	4.9629	4.5455	5.e-002	7.1758
16565	4.9629	4.2727	0.	1.806e-003
16566	4.871	4.3636	0.	4.9206e-003
16567	4.9629	4.3636	5.e-002	7.1623
16568	4.9629	4.0909	0.	-3.2291e-003
16569	4.871	4.1818	0.	-8.7763e-004
16570	4.9629	4.1818	5.e-002	7.1464
16571	4.9629	3.9091	0.	-7.355e-003
16572	4.871	4.	0.	-5.6597e-003
16573	4.9629	4.	5.e-002	7.1296
16574	4.9629	3.7273	0.	-1.0652e-002
16575	4.871	3.8182	0.	-9.5316e-003
16576	4.9629	3.8182	5.e-002	7.113
16577	4.9629	3.5455	0.	-1.3173e-002
16578	4.871	3.6364	0.	-1.2565e-002
16579	4.9629	3.6364	5.e-002	7.098
16580	4.9629	3.3636	0.	-1.4953e-002
16581	4.871	3.4545	0.	-1.4804e-002
16582	4.9629	3.4545	5.e-002	7.0858
16583	4.9629	3.1818	0.	-1.6014e-002
16584	4.871	3.2727	0.	-1.6283e-002
16585	4.9629	3.2727	5.e-002	7.0771
16586	4.9629	3.	0.	-1.6366e-002
16587	4.871	3.0909	0.	-1.7019e-002
16588	4.9629	3.0909	5.e-002	7.0727
16589	4.9629	2.8182	0.	-1.6014e-002
16590	4.871	2.9091	0.	-1.7019e-002
16591	4.9629	2.9091	5.e-002	7.0727
16592	4.9629	2.6364	0.	-1.4953e-002
16593	4.871	2.7273	0.	-1.6283e-002
16594	4.9629	2.7273	5.e-002	7.0771
16595	4.9629	2.4545	0.	-1.3173e-002
16596	4.871	2.5455	0.	-1.4804e-002
16597	4.9629	2.5455	5.e-002	7.0858
16598	4.9629	2.2727	0.	-1.0652e-002
16599	4.871	2.3636	0.	-1.2564e-002
16600	4.9629	2.3636	5.e-002	7.0981
16601	4.9629	2.0909	0.	-7.3547e-003
16602	4.871	2.1818	0.	-9.5313e-003
16603	4.9629	2.1818	5.e-002	7.113
16604	4.9629	1.9091	0.	-3.2285e-003
16605	4.871	2.	0.	-5.6593e-003
16606	4.9629	2.	5.e-002	7.1296
16607	4.9629	1.7273	0.	1.8065e-003
16608	4.871	1.8182	0.	-8.7711e-004
16609	4.9629	1.8182	5.e-002	7.1466
16610	4.9629	1.5455	0.	7.8947e-003
16611	4.871	1.6364	0.	4.9212e-003
16612	4.9629	1.6364	5.e-002	7.1625
16613	4.9629	1.3636	0.	1.5215e-002
16614	4.871	1.4545	0.	1.1945e-002
16615	4.9629	1.4545	5.e-002	7.1759
16616	4.9629	1.1818	0.	2.4306e-002
16617	4.871	1.2727	0.	2.0381e-002
16618	4.9629	1.2727	5.e-002	7.1856
16619	4.9629	1.	0.	3.5218e-002
16620	4.871	1.0909	0.	3.1216e-002
16621	4.9629	1.0909	5.e-002	7.1902
16622	4.9629	0.81818	0.	5.2054e-002
16623	4.871	0.90909	0.	4.3673e-002
16624	4.9629	0.90909	5.e-002	7.1886
16625	4.9629	0.63636	0.	6.6863e-002
16626	4.871	0.72727	0.	6.7353e-002
16627	4.9629	0.72727	5.e-002	7.1802
16628	4.9629	0.45455	0.	0.14917
16629	4.871	0.54545	0.	7.7014e-002
16630	4.9629	0.54545	5.e-002	7.1663
16631	4.9629	0.27273	0.	0.21227
16632	4.871	0.36364	0.	0.24677
16633	4.9629	0.36364	5.e-002	7.1709
16634	4.871	0.18182	0.	0.27479
16635	4.9629	0.18182	5.e-002	7.6748
16636	4.9629	9.0909e-002	0.	0.20461
16637	4.779	5.7273	0.	0.23569
16638	4.6871	5.8182	0.	0.31128
16639	4.779	5.8182	5.e-002	8.318
16640	4.779	5.9091	0.	0.21954
16641	4.779	5.5455	0.	0.16364
16642	4.6871	5.6364	0.	0.27041
16643	4.779	5.6364	5.e-002	7.3711
16644	4.779	5.3636	0.	7.3598e-002
16645	4.6871	5.4545	0.	8.5019e-002
16646	4.779	5.4545	5.e-002	7.3409
16647	4.779	5.1818	0.	5.7138e-002
16648	4.6871	5.2727	0.	7.3957e-002
16649	4.779	5.2727	5.e-002	7.354
16650	4.779	5.	0.	3.8636e-002
16651	4.6871	5.0909	0.	4.7958e-002
16652	4.779	5.0909	5.e-002	7.3628
16653	4.779	4.8182	0.	2.6633e-002
16654	4.6871	4.9091	0.	3.4238e-002
16655	4.779	4.9091	5.e-002	7.3639
16656	4.779	4.6364	0.	1.6655e-002
16657	4.6871	4.7273	0.	2.2342e-002
16658	4.779	4.7273	5.e-002	7.358
16659	4.779	4.4545	0.	8.6321e-003
16660	4.6871	4.5455	0.	1.309e-002
16661	4.779	4.5455	5.e-002	7.3465
16662	4.779	4.2727	0.	1.9712e-003
16663	4.6871	4.3636	0.	5.4032e-003
16664	4.779	4.3636	5.e-002	7.3307
16665	4.779	4.0909	0.	-3.5267e-003
16666	4.6871	4.1818	0.	-9.2876e-004
16667	4.779	4.1818	5.e-002	7.3122
16668	4.779	3.9091	0.	-8.0229e-003
16669	4.6871	4.	0.	-6.1391e-003
16670	4.779	4.	5.e-002	7.2926
16671	4.779	3.7273	0.	-1.1609e-002
16672	4.6871	3.8182	0.	-1.0348e-002
16673	4.779	3.8182	5.e-002	7.2734
16674	4.779	3.5455	0.	-1.4346e-002
16675	4.6871	3.6364	0.	-1.3638e-002
16676	4.779	3.6364	5.e-002	7.2561
16677	4.779	3.3636	0.	-1.6276e-002
16678	4.6871	3.4545	0.	-1.6063e-002
16679	4.779	3.4545	5.e-002	7.242
16680	4.779	3.1818	0.	-1.7424e-002
16681	4.6871	3.2727	0.	-1.7662e-002
16682	4.779	3.2727	5.e-002	7.232
16683	4.779	3.	0.	-1.7806e-002
16684	4.6871	3.0909	0.	-1.8456e-002
16685	4.779	3.0909	5.e-002	7.2268
16686	4.779	2.8182	0.	-1.7424e-002
16687	4.6871	2.9091	0.	-1.8456e-002
16688	4.779	2.9091	5.e-002	7.2269
16689	4.779	2.6364	0.	-1.6275e-002
16690	4.6871	2.7273	0.	-1.7661e-002
16691	4.779	2.7273	5.e-002	7.232
16692	4.779	2.4545	0.	-1.4346e-002
16693	4.6871	2.5455	0.	-1.6062e-002
16694	4.779	2.5455	5.e-002	7.242
16695	4.779	2.2727	0.	-1.1609e-002
16696	4.6871	2.3636	0.	-1.3638e-002
16697	4.779	2.3636	5.e-002	7.2562
16698	4.779	2.0909	0.	-8.0225e-003
16699	4.6871	2.1818	0.	-1.0348e-002
16700	4.779	2.1818	5.e-002	7.2735
16701	4.779	1.9091	0.	-3.5262e-003
16702	4.6871	2.	0.	-6.1388e-003
16703	4.779	2.	5.e-002	7.2926
16704	4.779	1.7273	0.	1.9717e-003
16705	4.6871	1.8182	0.	-9.2833e-004
16706	4.779	1.8182	5.e-002	7.3123
16707	4.779	1.5455	0.	8.6326e-003
16708	4.6871	1.6364	0.	5.4039e-003
16709	4.779	1.6364	5.e-002	7.3308
16710	4.779	1.3636	0.	1.6656e-002
16711	4.6871	1.4545	0.	1.3091e-002
16712	4.779	1.4545	5.e-002	7.3466
16713	4.779	1.1818	0.	2.6634e-002
16714	4.6871	1.2727	0.	2.2342e-002
16715	4.779	1.2727	5.e-002	7.3582
16716	4.779	1.	0.	3.8637e-002
16717	4.6871	1.0909	0.	3.4238e-002
16718	4.779	1.0909	5.e-002	7.364
16719	4.779	0.81818	0.	5.7139e-002
16720	4.6871	0.90909	0.	4.796e-002
16721	4.779	0.90909	5.e-002	7.3629
16722	4.779	0.63636	0.	7.3598e-002
16723	4.6871	0.72727	0.	7.3958e-002
16724	4.779	0.72727	5.e-002	7.3542
16725	4.779	0.45455	0.	0.16364
16726	4.6871	0.54545	0.	8.5019e-002
16727	4.779	0.54545	5.e-002	7.3411
16728	4.779	0.27273	0.	0.23569
16729	4.6871	0.36364	0.	0.27042
16730	4.779	0.36364	5.e-002	7.3713
16731	4.6871	0.18182	0.	0.31128
16732	4.779	0.18182	5.e-002	8.3181
16733	4.779	9.0909e-002	0.	0.21954
16734	4.5952	5.7273	0.	0.26221
16735	4.5033	5.8182	0.	0.35463
16736	4.5952	5.8182	5.e-002	9.0082
16737	4.5952	5.9091	0.	0.23606
16738	4.5952	5.5455	0.	0.17956
16739	4.5033	5.6364	0.	0.29643
16740	4.5952	5.6364	5.e-002	7.5878
16741	4.5952	5.3636	0.	8.1045e-002
16742	4.5033	5.4545	0.	9.3909e-002
16743	4.5952	5.4545	5.e-002	7.5312
16744	4.5952	5.1818	0.	6.2746e-002
16745	4.5033	5.2727	0.	8.124e-002
16746	4.5952	5.2727	5.e-002	7.5441
16747	4.5952	5.	0.	4.2415e-002
16748	4.5033	5.0909	0.	5.2695e-002
16749	4.5952	5.0909	5.e-002	7.5536
16750	4.5952	4.8182	0.	2.9218e-002
16751	4.5033	4.9091	0.	3.7584e-002
16752	4.5952	4.9091	5.e-002	7.5544
16753	4.5952	4.6364	0.	1.8271e-002
16754	4.5033	4.7273	0.	2.4527e-002
16755	4.5952	4.7273	5.e-002	7.5476
16756	4.5952	4.4545	0.	9.4857e-003
16757	4.5033	4.5455	0.	1.4388e-002
16758	4.5952	4.5455	5.e-002	7.5342
16759	4.5952	4.2727	0.	2.2085e-003
16760	4.5033	4.3636	0.	5.9861e-003
16761	4.5952	4.3636	5.e-002	7.5161
16762	4.5952	4.0909	0.	-3.7834e-003
16763	4.5033	4.1818	0.	-9.1668e-004
16764	4.5952	4.1818	5.e-002	7.4948
16765	4.5952	3.9091	0.	-8.6711e-003
16766	4.5033	4.	0.	-6.5802e-003
16767	4.5952	4.	5.e-002	7.4724
16768	4.5952	3.7273	0.	-1.256e-002
16769	4.5033	3.8182	0.	-1.1141e-002
16770	4.5952	3.8182	5.e-002	7.4505
16771	4.5952	3.5455	0.	-1.5521e-002
16772	4.5033	3.6364	0.	-1.4697e-002
16773	4.5952	3.6364	5.e-002	7.4308
16774	4.5952	3.3636	0.	-1.7605e-002
16775	4.5033	3.4545	0.	-1.7311e-002
16776	4.5952	3.4545	5.e-002	7.4146
16777	4.5952	3.1818	0.	-1.8844e-002
16778	4.5033	3.2727	0.	-1.9032e-002
16779	4.5952	3.2727	5.e-002	7.4033
16780	4.5952	3.	0.	-1.9255e-002
16781	4.5033	3.0909	0.	-1.9886e-002
16782	4.5952	3.0909	5.e-002	7.3974
16783	4.5952	2.8182	0.	-1.8844e-002
16784	4.5033	2.9091	0.	-1.9886e-002
16785	4.5952	2.9091	5.e-002	7.3974
16786	4.5952	2.6364	0.	-1.7605e-002
16787	4.5033	2.7273	0.	-1.9032e-002
16788	4.5952	2.7273	5.e-002	7.4033
16789	4.5952	2.4545	0.	-1.5521e-002
16790	4.5033	2.5455	0.	-1.7311e-002
16791	4.5952	2.5455	5.e-002	7.4147
16792	4.5952	2.2727	0.	-1.2559e-002
16793	4.5033	2.3636	0.	-1.4697e-002
16794	4.5952	2.3636	5.e-002	7.4308
16795	4.5952	2.0909	0.	-8.6708e-003
16796	4.5033	2.1818	0.	-1.1141e-002
16797	4.5952	2.1818	5.e-002	7.4505
16798	4.5952	1.9091	0.	-3.7831e-003
16799	4.5033	2.	0.	-6.5799e-003
16800	4.5952	2.	5.e-002	7.4724
16801	4.5952	1.7273	0.	2.2091e-003
16802	4.5033	1.8182	0.	-9.1628e-004
16803	4.5952	1.8182	5.e-002	7.4949
16804	4.5952	1.5455	0.	9.4864e-003
16805	4.5033	1.6364	0.	5.9868e-003
16806	4.5952	1.6364	5.e-002	7.5161
16807	4.5952	1.3636	0.	1.8272e-002
16808	4.5033	1.4545	0.	1.4389e-002
16809	4.5952	1.4545	5.e-002	7.5343
16810	4.5952	1.1818	0.	2.9219e-002
16811	4.5033	1.2727	0.	2.4528e-002
16812	4.5952	1.2727	5.e-002	7.5477
16813	4.5952	1.	0.	4.2416e-002
16814	4.5033	1.0909	0.	3.7585e-002
16815	4.5952	1.0909	5.e-002	7.5546
16816	4.5952	0.81818	0.	6.2747e-002
16817	4.5033	0.90909	0.	5.2697e-002
16818	4.5952	0.90909	5.e-002	7.5537
16819	4.5952	0.63636	0.	8.1045e-002
16820	4.5033	0.72727	0.	8.1241e-002
16821	4.5952	0.72727	5.e-002	7.5442
16822	4.5952	0.45455	0.	0.17956
16823	4.5033	0.54545	0.	9.3909e-002
16824	4.5952	0.54545	5.e-002	7.5313
16825	4.5952	0.27273	0.	0.26221
16826	4.5033	0.36364	0.	0.29643
16827	4.5952	0.36364	5.e-002	7.588
16828	4.5033	0.18182	0.	0.35463
16829	4.5952	0.18182	5.e-002	9.0083
16830	4.5952	9.0909e-002	0.	0.23606
16831	4.4114	5.7273	0.	0.29233
16832	4.3195	5.8182	0.	0.40636
16833	4.4114	5.8182	5.e-002	9.7476
16834	4.4114	5.9091	0.	0.25436
16835	4.4114	5.5455	0.	0.19711
16836	4.3195	5.6364	0.	0.32512
16837	4.4114	5.6364	5.e-002	7.8217
16838	4.4114	5.3636	0.	8.9289e-002
16839	4.3195	5.4545	0.	0.1038
16840	4.4114	5.4545	5.e-002	7.7384
16841	4.4114	5.1818	0.	6.8936e-002
16842	4.3195	5.2727	0.	8.9281e-002
16843	4.4114	5.2727	5.e-002	7.7517
16844	4.4114	5.	0.	4.6595e-002
16845	4.3195	5.0909	0.	5.7935e-002
16846	4.4114	5.0909	5.e-002	7.7625
16847	4.4114	4.8182	0.	3.2086e-002
16848	4.3195	4.9091	0.	4.129e-002
16849	4.4114	4.9091	5.e-002	7.7637
16850	4.4114	4.6364	0.	2.0084e-002
16851	4.3195	4.7273	0.	2.6963e-002
16852	4.4114	4.7273	5.e-002	7.756
16853	4.4114	4.4545	0.	1.0472e-002
16854	4.3195	4.5455	0.	1.5861e-002
16855	4.4114	4.5455	5.e-002	7.7411
16856	4.4114	4.2727	0.	2.5339e-003
16857	4.3195	4.3636	0.	6.6884e-003
16858	4.4114	4.3636	5.e-002	7.7206
16859	4.4114	4.0909	0.	-3.9822e-003
16860	4.3195	4.1818	0.	-8.2146e-004
16861	4.4114	4.1818	5.e-002	7.6967
16862	4.4114	3.9091	0.	-9.2801e-003
16863	4.3195	4.	0.	-6.9601e-003
16864	4.4114	4.	5.e-002	7.6713
16865	4.4114	3.7273	0.	-1.3481e-002
16866	4.3195	3.8182	0.	-1.1885e-002
16867	4.4114	3.8182	5.e-002	7.6467
16868	4.4114	3.5455	0.	-1.6672e-002
16869	4.3195	3.6364	0.	-1.571e-002
16870	4.4114	3.6364	5.e-002	7.6245
16871	4.4114	3.3636	0.	-1.8911e-002
16872	4.3195	3.4545	0.	-1.8515e-002
16873	4.4114	3.4545	5.e-002	7.6064
16874	4.4114	3.1818	0.	-2.024e-002
16875	4.3195	3.2727	0.	-2.0356e-002
16876	4.4114	3.2727	5.e-002	7.5936
16877	4.4114	3.	0.	-2.0681e-002
16878	4.3195	3.0909	0.	-2.1268e-002
16879	4.4114	3.0909	5.e-002	7.587
16880	4.4114	2.8182	0.	-2.024e-002
16881	4.3195	2.9091	0.	-2.1268e-002
16882	4.4114	2.9091	5.e-002	7.587
16883	4.4114	2.6364	0.	-1.8911e-002
16884	4.3195	2.7273	0.	-2.0356e-002
16885	4.4114	2.7273	5.e-002	7.5936
16886	4.4114	2.4545	0.	-1.6672e-002
16887	4.3195	2.5455	0.	-1.8515e-002
16888	4.4114	2.5455	5.e-002	7.6064
16889	4.4114	2.2727	0.	-1.3481e-002
16890	4.3195	2.3636	0.	-1.571e-002
16891	4.4114	2.3636	5.e-002	7.6246
16892	4.4114	2.0909	0.	-9.2797e-003
16893	4.3195	2.1818	0.	-1.1885e-002
16894	4.4114	2.1818	5.e-002	7.6468
16895	4.4114	1.9091	0.	-3.9818e-003
16896	4.3195	2.	0.	-6.9597e-003
16897	4.4114	2.	5.e-002	7.6714
16898	4.4114	1.7273	0.	2.5345e-003
16899	4.3195	1.8182	0.	-8.2109e-004
16900	4.4114	1.8182	5.e-002	7.6967
16901	4.4114	1.5455	0.	1.0473e-002
16902	4.3195	1.6364	0.	6.6889e-003
16903	4.4114	1.6364	5.e-002	7.7207
16904	4.4114	1.3636	0.	2.0085e-002
16905	4.3195	1.4545	0.	1.5861e-002
16906	4.4114	1.4545	5.e-002	7.7411
16907	4.4114	1.1818	0.	3.2087e-002
16908	4.3195	1.2727	0.	2.6964e-002
16909	4.4114	1.2727	5.e-002	7.7562
16910	4.4114	1.	0.	4.6596e-002
16911	4.3195	1.0909	0.	4.1291e-002
16912	4.4114	1.0909	5.e-002	7.7638
16913	4.4114	0.81818	0.	6.8937e-002
16914	4.3195	0.90909	0.	5.7937e-002
16915	4.4114	0.90909	5.e-002	7.7626
16916	4.4114	0.63636	0.	8.9289e-002
16917	4.3195	0.72727	0.	8.9282e-002
16918	4.4114	0.72727	5.e-002	7.7519
16919	4.4114	0.45455	0.	0.19711
16920	4.3195	0.54545	0.	0.1038
16921	4.4114	0.54545	5.e-002	7.7385
16922	4.4114	0.27273	0.	0.29234
16923	4.3195	0.36364	0.	0.32512
16924	4.4114	0.36364	5.e-002	7.8219
16925	4.3195	0.18182	0.	0.40636
16926	4.4114	0.18182	5.e-002	9.7478
16927	4.4114	9.0909e-002	0.	0.25436
16928	4.2276	5.7273	0.	0.32667
16929	4.1357	5.8182	0.	0.46839
16930	4.2276	5.8182	5.e-002	10.538
16931	4.2276	5.9091	0.	0.27468
16932	4.2276	5.5455	0.	0.21647
16933	4.1357	5.6364	0.	0.35679
16934	4.2276	5.6364	5.e-002	8.0739
16935	4.2276	5.3636	0.	9.8432e-002
16936	4.1357	5.4545	0.	0.11482
16937	4.2276	5.4545	5.e-002	7.9638
16938	4.2276	5.1818	0.	7.5778e-002
16939	4.1357	5.2727	0.	9.8164e-002
16940	4.2276	5.2727	5.e-002	7.9786
16941	4.2276	5.	0.	5.1222e-002
16942	4.1357	5.0909	0.	6.3729e-002
16943	4.2276	5.0909	5.e-002	7.9916
16944	4.2276	4.8182	0.	3.5272e-002
16945	4.1357	4.9091	0.	4.539e-002
16946	4.2276	4.9091	5.e-002	7.9938
16947	4.2276	4.6364	0.	2.2118e-002
16948	4.1357	4.7273	0.	2.9671e-002
16949	4.2276	4.7273	5.e-002	7.9858
16950	4.2276	4.4545	0.	1.1614e-002
16951	4.1357	4.5455	0.	1.7523e-002
16952	4.2276	4.5455	5.e-002	7.9695
16953	4.2276	4.2727	0.	2.9699e-003
16954	4.1357	4.3636	0.	7.525e-003
16955	4.2276	4.3636	5.e-002	7.9469
16956	4.2276	4.0909	0.	-4.0977e-003
16957	4.1357	4.1818	0.	-6.2529e-004
16958	4.2276	4.1818	5.e-002	7.9204
16959	4.2276	3.9091	0.	-9.8199e-003
16960	4.1357	4.	0.	-7.2559e-003
16961	4.2276	4.	5.e-002	7.8922
16962	4.2276	3.7273	0.	-1.4339e-002
16963	4.1357	3.8182	0.	-1.255e-002
16964	4.2276	3.8182	5.e-002	7.8649
16965	4.2276	3.5455	0.	-1.7759e-002
16966	4.1357	3.6364	0.	-1.6643e-002
16967	4.2276	3.6364	5.e-002	7.8403
16968	4.2276	3.3636	0.	-2.0151e-002
16969	4.1357	3.4545	0.	-1.9632e-002
16970	4.2276	3.4545	5.e-002	7.8201
16971	4.2276	3.1818	0.	-2.1568e-002
16972	4.1357	3.2727	0.	-2.1589e-002
16973	4.2276	3.2727	5.e-002	7.8059
16974	4.2276	3.	0.	-2.2037e-002
16975	4.1357	3.0909	0.	-2.2556e-002
16976	4.2276	3.0909	5.e-002	7.7986
16977	4.2276	2.8182	0.	-2.1568e-002
16978	4.1357	2.9091	0.	-2.2556e-002
16979	4.2276	2.9091	5.e-002	7.7986
16980	4.2276	2.6364	0.	-2.0151e-002
16981	4.1357	2.7273	0.	-2.1588e-002
16982	4.2276	2.7273	5.e-002	7.806
16983	4.2276	2.4545	0.	-1.7758e-002
16984	4.1357	2.5455	0.	-1.9632e-002
16985	4.2276	2.5455	5.e-002	7.8202
16986	4.2276	2.2727	0.	-1.4339e-002
16987	4.1357	2.3636	0.	-1.6643e-002
16988	4.2276	2.3636	5.e-002	7.8402
16989	4.2276	2.0909	0.	-9.8197e-003
16990	4.1357	2.1818	0.	-1.255e-002
16991	4.2276	2.1818	5.e-002	7.8649
16992	4.2276	1.9091	0.	-4.0974e-003
16993	4.1357	2.	0.	-7.2555e-003
16994	4.2276	2.	5.e-002	7.8923
16995	4.2276	1.7273	0.	2.9703e-003
16996	4.1357	1.8182	0.	-6.249e-004
16997	4.2276	1.8182	5.e-002	7.9204
16998	4.2276	1.5455	0.	1.1615e-002
16999	4.1357	1.6364	0.	7.5256e-003
17000	4.2276	1.6364	5.e-002	7.947
17001	4.2276	1.3636	0.	2.2119e-002
17002	4.1357	1.4545	0.	1.7523e-002
17003	4.2276	1.4545	5.e-002	7.9696
17004	4.2276	1.1818	0.	3.5273e-002
17005	4.1357	1.2727	0.	2.9672e-002
17006	4.2276	1.2727	5.e-002	7.9859
17007	4.2276	1.	0.	5.1223e-002
17008	4.1357	1.0909	0.	4.5391e-002
17009	4.2276	1.0909	5.e-002	7.9939
17010	4.2276	0.81818	0.	7.5779e-002
17011	4.1357	0.90909	0.	6.373e-002
17012	4.2276	0.90909	5.e-002	7.9918
17013	4.2276	0.63636	0.	9.8432e-002
17014	4.1357	0.72727	0.	9.8164e-002
17015	4.2276	0.72727	5.e-002	7.9788
17016	4.2276	0.45455	0.	0.21647
17017	4.1357	0.54545	0.	0.11482
17018	4.2276	0.54545	5.e-002	7.964
17019	4.2276	0.27273	0.	0.32667
17020	4.1357	0.36364	0.	0.35679
17021	4.2276	0.36364	5.e-002	8.0741
17022	4.1357	0.18182	0.	0.46839
17023	4.2276	0.18182	5.e-002	10.539
17024	4.2276	9.0909e-002	0.	0.27468
17025	4.0438	5.7273	0.	0.36593
17026	3.9519	5.8182	0.	0.54324
17027	4.0438	5.8182	5.e-002	11.383
17028	4.0438	5.9091	0.	0.29729
17029	4.0438	5.5455	0.	0.23787
17030	3.9519	5.6364	0.	0.39184
17031	4.0438	5.6364	5.e-002	8.3453
17032	4.0438	5.3636	0.	0.10857
17033	3.9519	5.4545	0.	0.12711
17034	4.0438	5.4545	5.e-002	8.2093
17035	4.0438	5.1818	0.	8.3331e-002
17036	3.9519	5.2727	0.	0.10798
17037	4.0438	5.2727	5.e-002	8.2268
17038	4.0438	5.	0.	5.6332e-002
17039	3.9519	5.0909	0.	7.0131e-002
17040	4.0438	5.0909	5.e-002	8.2432
17041	4.0438	4.8182	0.	3.8795e-002
17042	3.9519	4.9091	0.	4.9917e-002
17043	4.0438	4.9091	5.e-002	8.2471
17044	4.0438	4.6364	0.	2.4385e-002
17045	3.9519	4.7273	0.	3.2674e-002
17046	4.0438	4.7273	5.e-002	8.2395
17047	4.0438	4.4545	0.	1.292e-002
17048	3.9519	4.5455	0.	1.9391e-002
17049	4.0438	4.5455	5.e-002	8.2223
17050	4.0438	4.2727	0.	3.5263e-003
17051	3.9519	4.3636	0.	8.5127e-003
17052	4.0438	4.3636	5.e-002	8.1979
17053	4.0438	4.0909	0.	-4.1151e-003
17054	3.9519	4.1818	0.	-3.0674e-004
17055	4.0438	4.1818	5.e-002	8.169
17056	4.0438	3.9091	0.	-1.0269e-002
17057	3.9519	4.	0.	-7.4385e-003
17058	4.0438	4.	5.e-002	8.1383
17059	4.0438	3.7273	0.	-1.5104e-002
17060	3.9519	3.8182	0.	-1.3098e-002
17061	4.0438	3.8182	5.e-002	8.1082
17062	4.0438	3.5455	0.	-1.8745e-002
17063	3.9519	3.6364	0.	-1.7449e-002
17064	4.0438	3.6364	5.e-002	8.0814
17065	4.0438	3.3636	0.	-2.1283e-002
17066	3.9519	3.4545	0.	-2.0609e-002
17067	4.0438	3.4545	5.e-002	8.0595
17068	4.0438	3.1818	0.	-2.2781e-002
17069	3.9519	3.2727	0.	-2.267e-002
17070	4.0438	3.2727	5.e-002	8.044
17071	4.0438	3.	0.	-2.3277e-002
17072	3.9519	3.0909	0.	-2.3686e-002
17073	4.0438	3.0909	5.e-002	8.0361
17074	4.0438	2.8182	0.	-2.2781e-002
17075	3.9519	2.9091	0.	-2.3686e-002
17076	4.0438	2.9091	5.e-002	8.0361
17077	4.0438	2.6364	0.	-2.1283e-002
17078	3.9519	2.7273	0.	-2.267e-002
17079	4.0438	2.7273	5.e-002	8.0441
17080	4.0438	2.4545	0.	-1.8745e-002
17081	3.9519	2.5455	0.	-2.0609e-002
17082	4.0438	2.5455	5.e-002	8.0595
17083	4.0438	2.2727	0.	-1.5104e-002
17084	3.9519	2.3636	0.	-1.7448e-002
17085	4.0438	2.3636	5.e-002	8.0814
17086	4.0438	2.0909	0.	-1.0269e-002
17087	3.9519	2.1818	0.	-1.3098e-002
17088	4.0438	2.1818	5.e-002	8.1083
17089	4.0438	1.9091	0.	-4.1146e-003
17090	3.9519	2.	0.	-7.4382e-003
17091	4.0438	2.	5.e-002	8.1383
17092	4.0438	1.7273	0.	3.5269e-003
17093	3.9519	1.8182	0.	-3.0622e-004
17094	4.0438	1.8182	5.e-002	8.169
17095	4.0438	1.5455	0.	1.292e-002
17096	3.9519	1.6364	0.	8.5133e-003
17097	4.0438	1.6364	5.e-002	8.1979
17098	4.0438	1.3636	0.	2.4386e-002
17099	3.9519	1.4545	0.	1.9392e-002
17100	4.0438	1.4545	5.e-002	8.2224
17101	4.0438	1.1818	0.	3.8796e-002
17102	3.9519	1.2727	0.	3.2674e-002
17103	4.0438	1.2727	5.e-002	8.2396
17104	4.0438	1.	0.	5.6332e-002
17105	3.9519	1.0909	0.	4.9918e-002
17106	4.0438	1.0909	5.e-002	8.2473
17107	4.0438	0.81818	0.	8.3332e-002
17108	3.9519	0.90909	0.	7.0132e-002
17109	4.0438	0.90909	5.e-002	8.2433
17110	4.0438	0.63636	0.	0.10857
17111	3.9519	0.72727	0.	0.10798
17112	4.0438	0.72727	5.e-002	8.227
17113	4.0438	0.45455	0.	0.23787
17114	3.9519	0.54545	0.	0.12711
17115	4.0438	0.54545	5.e-002	8.2094
17116	4.0438	0.27273	0.	0.36593
17117	3.9519	0.36364	0.	0.39184
17118	4.0438	0.36364	5.e-002	8.3455
17119	3.9519	0.18182	0.	0.54324
17120	4.0438	0.18182	5.e-002	11.383
17121	4.0438	9.0909e-002	0.	0.29729
17122	3.86	5.7273	0.	0.41101
17123	3.7681	5.8182	0.	0.63422
17124	3.86	5.8182	5.e-002	12.282
17125	3.86	5.9091	0.	0.32256
17126	3.86	5.5455	0.	0.26156
17127	3.7681	5.6364	0.	0.43071
17128	3.86	5.6364	5.e-002	8.6371
17129	3.86	5.3636	0.	0.11983
17130	3.7681	5.4545	0.	0.14085
17131	3.86	5.4545	5.e-002	8.4766
17132	3.86	5.1818	0.	9.1678e-002
17133	3.7681	5.2727	0.	0.11884
17134	3.86	5.2727	5.e-002	8.4987
17135	3.86	5.	0.	6.1974e-002
17136	3.7681	5.0909	0.	7.721e-002
17137	3.86	5.0909	5.e-002	8.5198
17138	3.86	4.8182	0.	4.2689e-002
17139	3.7681	4.9091	0.	5.4915e-002
17140	3.86	4.9091	5.e-002	8.5267
17141	3.86	4.6364	0.	2.6911e-002
17142	3.7681	4.7273	0.	3.5999e-002
17143	3.86	4.7273	5.e-002	8.5203
17144	3.86	4.4545	0.	1.4412e-002
17145	3.7681	4.5455	0.	2.1491e-002
17146	3.86	4.5455	5.e-002	8.5027
17147	3.86	4.2727	0.	4.2307e-003
17148	3.7681	4.3636	0.	9.6796e-003
17149	3.86	4.3636	5.e-002	8.4769
17150	3.86	4.0909	0.	-3.9991e-003
17151	3.7681	4.1818	0.	1.7024e-004
17152	3.86	4.1818	5.e-002	8.446
17153	3.86	3.9091	0.	-1.0582e-002
17154	3.7681	4.	0.	-7.4609e-003
17155	3.86	4.	5.e-002	8.413
17156	3.86	3.7273	0.	-1.572e-002
17157	3.7681	3.8182	0.	-1.347e-002
17158	3.86	3.8182	5.e-002	8.3809
17159	3.86	3.5455	0.	-1.9566e-002
17160	3.7681	3.6364	0.	-1.8054e-002
17161	3.86	3.6364	5.e-002	8.3521
17162	3.86	3.3636	0.	-2.2233e-002
17163	3.7681	3.4545	0.	-2.1364e-002
17164	3.86	3.4545	5.e-002	8.3286
17165	3.86	3.1818	0.	-2.3802e-002
17166	3.7681	3.2727	0.	-2.351e-002
17167	3.86	3.2727	5.e-002	8.3122
17168	3.86	3.	0.	-2.432e-002
17169	3.7681	3.0909	0.	-2.4565e-002
17170	3.86	3.0909	5.e-002	8.3037
17171	3.86	2.8182	0.	-2.3802e-002
17172	3.7681	2.9091	0.	-2.4565e-002
17173	3.86	2.9091	5.e-002	8.3037
17174	3.86	2.6364	0.	-2.2233e-002
17175	3.7681	2.7273	0.	-2.351e-002
17176	3.86	2.7273	5.e-002	8.3122
17177	3.86	2.4545	0.	-1.9566e-002
17178	3.7681	2.5455	0.	-2.1364e-002
17179	3.86	2.5455	5.e-002	8.3287
17180	3.86	2.2727	0.	-1.572e-002
17181	3.7681	2.3636	0.	-1.8054e-002
17182	3.86	2.3636	5.e-002	8.3522
17183	3.86	2.0909	0.	-1.0582e-002
17184	3.7681	2.1818	0.	-1.3469e-002
17185	3.86	2.1818	5.e-002	8.381
17186	3.86	1.9091	0.	-3.9986e-003
17187	3.7681	2.	0.	-7.4606e-003
17188	3.86	2.	5.e-002	8.4131
17189	3.86	1.7273	0.	4.2312e-003
17190	3.7681	1.8182	0.	1.7081e-004
17191	3.86	1.8182	5.e-002	8.4461
17192	3.86	1.5455	0.	1.4413e-002
17193	3.7681	1.6364	0.	9.6801e-003
17194	3.86	1.6364	5.e-002	8.477
17195	3.86	1.3636	0.	2.6911e-002
17196	3.7681	1.4545	0.	2.1491e-002
17197	3.86	1.4545	5.e-002	8.5028
17198	3.86	1.1818	0.	4.269e-002
17199	3.7681	1.2727	0.	3.6e-002
17200	3.86	1.2727	5.e-002	8.5204
17201	3.86	1.	0.	6.1975e-002
17202	3.7681	1.0909	0.	5.4915e-002
17203	3.86	1.0909	5.e-002	8.5269
17204	3.86	0.81818	0.	9.1679e-002
17205	3.7681	0.90909	0.	7.7211e-002
17206	3.86	0.90909	5.e-002	8.52
17207	3.86	0.63636	0.	0.11983
17208	3.7681	0.72727	0.	0.11884
17209	3.86	0.72727	5.e-002	8.4988
17210	3.86	0.45455	0.	0.26156
17211	3.7681	0.54545	0.	0.14085
17212	3.86	0.54545	5.e-002	8.4767
17213	3.86	0.27273	0.	0.41101
17214	3.7681	0.36364	0.	0.43071
17215	3.86	0.36364	5.e-002	8.6373
17216	3.7681	0.18182	0.	0.63422
17217	3.86	0.18182	5.e-002	12.282
17218	3.86	9.0909e-002	0.	0.32256
17219	3.6762	5.7273	0.	0.46301
17220	3.5843	5.8182	0.	0.74575
17221	3.6762	5.8182	5.e-002	13.238
17222	3.6762	5.9091	0.	0.351
17223	3.6762	5.5455	0.	0.28786
17224	3.5843	5.6364	0.	0.47395
17225	3.6762	5.6364	5.e-002	8.9505
17226	3.6762	5.3636	0.	0.13237
17227	3.5843	5.4545	0.	0.15625
17228	3.6762	5.4545	5.e-002	8.7679
17229	3.6762	5.1818	0.	0.10091
17230	3.5843	5.2727	0.	0.13087
17231	3.6762	5.2727	5.e-002	8.797
17232	3.6762	5.	0.	6.8208e-002
17233	3.5843	5.0909	0.	8.5032e-002
17234	3.6762	5.0909	5.e-002	8.8248
17235	3.6762	4.8182	0.	4.6992e-002
17236	3.5843	4.9091	0.	6.0422e-002
17237	3.6762	4.9091	5.e-002	8.8361
17238	3.6762	4.6364	0.	2.9723e-002
17239	3.5843	4.7273	0.	3.9672e-002
17240	3.6762	4.7273	5.e-002	8.8317
17241	3.6762	4.4545	0.	1.6121e-002
17242	3.5843	4.5455	0.	2.3841e-002
17243	3.6762	4.5455	5.e-002	8.8146
17244	3.6762	4.2727	0.	5.1189e-003
17245	3.5843	4.3636	0.	1.1051e-002
17246	3.6762	4.3636	5.e-002	8.788
17247	3.6762	4.0909	0.	-3.7024e-003
17248	3.5843	4.1818	0.	8.4394e-004
17249	3.6762	4.1818	5.e-002	8.7557
17250	3.6762	3.9091	0.	-1.0698e-002
17251	3.5843	4.	0.	-7.2691e-003
17252	3.6762	4.	5.e-002	8.721
17253	3.6762	3.7273	0.	-1.6112e-002
17254	3.5843	3.8182	0.	-1.3594e-002
17255	3.6762	3.8182	5.e-002	8.6872
17256	3.6762	3.5455	0.	-2.0133e-002
17257	3.5843	3.6364	0.	-1.8374e-002
17258	3.6762	3.6364	5.e-002	8.657
17259	3.6762	3.3636	0.	-2.2903e-002
17260	3.5843	3.4545	0.	-2.1796e-002
17261	3.6762	3.4545	5.e-002	8.6327
17262	3.6762	3.1818	0.	-2.4526e-002
17263	3.5843	3.2727	0.	-2.4001e-002
17264	3.6762	3.2727	5.e-002	8.6156
17265	3.6762	3.	0.	-2.506e-002
17266	3.5843	3.0909	0.	-2.5081e-002
17267	3.6762	3.0909	5.e-002	8.6068
17268	3.6762	2.8182	0.	-2.4526e-002
17269	3.5843	2.9091	0.	-2.5081e-002
17270	3.6762	2.9091	5.e-002	8.6068
17271	3.6762	2.6364	0.	-2.2903e-002
17272	3.5843	2.7273	0.	-2.4001e-002
17273	3.6762	2.7273	5.e-002	8.6156
17274	3.6762	2.4545	0.	-2.0133e-002
17275	3.5843	2.5455	0.	-2.1796e-002
17276	3.6762	2.5455	5.e-002	8.6327
17277	3.6762	2.2727	0.	-1.6112e-002
17278	3.5843	2.3636	0.	-1.8374e-002
17279	3.6762	2.3636	5.e-002	8.6571
17280	3.6762	2.0909	0.	-1.0698e-002
17281	3.5843	2.1818	0.	-1.3594e-002
17282	3.6762	2.1818	5.e-002	8.6873
17283	3.6762	1.9091	0.	-3.7019e-003
17284	3.5843	2.	0.	-7.2687e-003
17285	3.6762	2.	5.e-002	8.7211
17286	3.6762	1.7273	0.	5.1194e-003
17287	3.5843	1.8182	0.	8.4443e-004
17288	3.6762	1.8182	5.e-002	8.7557
17289	3.6762	1.5455	0.	1.6121e-002
17290	3.5843	1.6364	0.	1.1052e-002
17291	3.6762	1.6364	5.e-002	8.7881
17292	3.6762	1.3636	0.	2.9723e-002
17293	3.5843	1.4545	0.	2.3842e-002
17294	3.6762	1.4545	5.e-002	8.8147
17295	3.6762	1.1818	0.	4.6993e-002
17296	3.5843	1.2727	0.	3.9672e-002
17297	3.6762	1.2727	5.e-002	8.8318
17298	3.6762	1.	0.	6.8209e-002
17299	3.5843	1.0909	0.	6.0422e-002
17300	3.6762	1.0909	5.e-002	8.8362
17301	3.6762	0.81818	0.	0.10091
17302	3.5843	0.90909	0.	8.5033e-002
17303	3.6762	0.90909	5.e-002	8.8249
17304	3.6762	0.63636	0.	0.13237
17305	3.5843	0.72727	0.	0.13087
17306	3.6762	0.72727	5.e-002	8.7971
17307	3.6762	0.45455	0.	0.28786
17308	3.5843	0.54545	0.	0.15625
17309	3.6762	0.54545	5.e-002	8.7681
17310	3.6762	0.27273	0.	0.46301
17311	3.5843	0.36364	0.	0.47395
17312	3.6762	0.36364	5.e-002	8.9506
17313	3.5843	0.18182	0.	0.74575
17314	3.6762	0.18182	5.e-002	13.238
17315	3.6762	9.0909e-002	0.	0.351
17316	3.4924	5.7273	0.	0.52329
17317	3.4005	5.8182	0.	0.88384
17318	3.4924	5.8182	5.e-002	14.251
17319	3.4924	5.9091	0.	0.38326
17320	3.4924	5.5455	0.	0.31709
17321	3.4005	5.6364	0.	0.52217
17322	3.4924	5.6364	5.e-002	9.2868
17323	3.4924	5.3636	0.	0.14633
17324	3.4005	5.4545	0.	0.17351
17325	3.4924	5.4545	5.e-002	9.0861
17326	3.4924	5.1818	0.	0.11112
17327	3.4005	5.2727	0.	0.1442
17328	3.4924	5.2727	5.e-002	9.1251
17329	3.4924	5.	0.	7.5077e-002
17330	3.4005	5.0909	0.	9.3665e-002
17331	3.4924	5.0909	5.e-002	9.1619
17332	3.4924	4.8182	0.	5.1725e-002
17333	3.4005	4.9091	0.	6.647e-002
17334	3.4924	4.9091	5.e-002	9.1792
17335	3.4924	4.6364	0.	3.2834e-002
17336	3.4005	4.7273	0.	4.3706e-002
17337	3.4924	4.7273	5.e-002	9.1781
17338	3.4924	4.4545	0.	1.8061e-002
17339	3.4005	4.5455	0.	2.6458e-002
17340	3.4924	4.5455	5.e-002	9.1623
17341	3.4924	4.2727	0.	6.2182e-003
17342	3.4005	4.3636	0.	1.2653e-002
17343	3.4924	4.3636	5.e-002	9.1356
17344	3.4924	4.0909	0.	-3.1807e-003
17345	3.4005	4.1818	0.	1.7569e-003
17346	3.4924	4.1818	5.e-002	9.1026
17347	3.4924	3.9091	0.	-1.0554e-002
17348	3.4005	4.	0.	-6.7987e-003
17349	3.4924	4.	5.e-002	9.067
17350	3.4924	3.7273	0.	-1.6199e-002
17351	3.4005	3.8182	0.	-1.3385e-002
17352	3.4924	3.8182	5.e-002	9.0326
17353	3.4924	3.5455	0.	-2.0349e-002
17354	3.4005	3.6364	0.	-1.8302e-002
17355	3.4924	3.6364	5.e-002	9.002
17356	3.4924	3.3636	0.	-2.3185e-002
17357	3.4005	3.4545	0.	-2.1785e-002
17358	3.4924	3.4545	5.e-002	8.9774
17359	3.4924	3.1818	0.	-2.4835e-002
17360	3.4005	3.2727	0.	-2.4009e-002
17361	3.4924	3.2727	5.e-002	8.9602
17362	3.4924	3.	0.	-2.5376e-002
17363	3.4005	3.0909	0.	-2.5092e-002
17364	3.4924	3.0909	5.e-002	8.9515
17365	3.4924	2.8182	0.	-2.4835e-002
17366	3.4005	2.9091	0.	-2.5092e-002
17367	3.4924	2.9091	5.e-002	8.9515
17368	3.4924	2.6364	0.	-2.3184e-002
17369	3.4005	2.7273	0.	-2.4009e-002
17370	3.4924	2.7273	5.e-002	8.9603
17371	3.4924	2.4545	0.	-2.0349e-002
17372	3.4005	2.5455	0.	-2.1785e-002
17373	3.4924	2.5455	5.e-002	8.9774
17374	3.4924	2.2727	0.	-1.6199e-002
17375	3.4005	2.3636	0.	-1.8302e-002
17376	3.4924	2.3636	5.e-002	9.002
17377	3.4924	2.0909	0.	-1.0554e-002
17378	3.4005	2.1818	0.	-1.3384e-002
17379	3.4924	2.1818	5.e-002	9.0326
17380	3.4924	1.9091	0.	-3.1803e-003
17381	3.4005	2.	0.	-6.7983e-003
17382	3.4924	2.	5.e-002	9.0671
17383	3.4924	1.7273	0.	6.2187e-003
17384	3.4005	1.8182	0.	1.7573e-003
17385	3.4924	1.8182	5.e-002	9.1026
17386	3.4924	1.5455	0.	1.8061e-002
17387	3.4005	1.6364	0.	1.2654e-002
17388	3.4924	1.6364	5.e-002	9.1357
17389	3.4924	1.3636	0.	3.2835e-002
17390	3.4005	1.4545	0.	2.6458e-002
17391	3.4924	1.4545	5.e-002	9.1624
17392	3.4924	1.1818	0.	5.1726e-002
17393	3.4005	1.2727	0.	4.3706e-002
17394	3.4924	1.2727	5.e-002	9.1782
17395	3.4924	1.	0.	7.5078e-002
17396	3.4005	1.0909	0.	6.647e-002
17397	3.4924	1.0909	5.e-002	9.1793
17398	3.4924	0.81818	0.	0.11112
17399	3.4005	0.90909	0.	9.3666e-002
17400	3.4924	0.90909	5.e-002	9.1621
17401	3.4924	0.63636	0.	0.14633
17402	3.4005	0.72727	0.	0.1442
17403	3.4924	0.72727	5.e-002	9.1252
17404	3.4924	0.45455	0.	0.31709
17405	3.4005	0.54545	0.	0.17351
17406	3.4924	0.54545	5.e-002	9.0863
17407	3.4924	0.27273	0.	0.52329
17408	3.4005	0.36364	0.	0.52217
17409	3.4924	0.36364	5.e-002	9.287
17410	3.4005	0.18182	0.	0.88384
17411	3.4924	0.18182	5.e-002	14.251
17412	3.4924	9.0909e-002	0.	0.38326
17413	3.3086	5.7273	0.	0.59355
17414	3.2167	5.8182	0.	1.0568
17415	3.3086	5.8182	5.e-002	15.32
17416	3.3086	5.9091	0.	0.42028
17417	3.3086	5.5455	0.	0.34968
17418	3.2167	5.6364	0.	0.57615
17419	3.3086	5.6364	5.e-002	9.648
17420	3.3086	5.3636	0.	0.16189
17421	3.2167	5.4545	0.	0.19293
17422	3.3086	5.4545	5.e-002	9.4348
17423	3.3086	5.1818	0.	0.1224
17424	3.2167	5.2727	0.	0.15898
17425	3.3086	5.2727	5.e-002	9.4875
17426	3.3086	5.	0.	8.2628e-002
17427	3.2167	5.0909	0.	0.10318
17428	3.3086	5.0909	5.e-002	9.536
17429	3.3086	4.8182	0.	5.6909e-002
17430	3.2167	4.9091	0.	7.3095e-002
17431	3.3086	4.9091	5.e-002	9.5611
17432	3.3086	4.6364	0.	3.6259e-002
17433	3.2167	4.7273	0.	4.8123e-002
17434	3.3086	4.7273	5.e-002	9.5646
17435	3.3086	4.4545	0.	2.0254e-002
17436	3.2167	4.5455	0.	2.9364e-002
17437	3.3086	4.5455	5.e-002	9.5509
17438	3.3086	4.2727	0.	7.5676e-003
17439	3.2167	4.3636	0.	1.4526e-002
17440	3.3086	4.3636	5.e-002	9.5251
17441	3.3086	4.0909	0.	-2.3722e-003
17442	3.2167	4.1818	0.	2.9756e-003
17443	3.3086	4.1818	5.e-002	9.4922
17444	3.3086	3.9091	0.	-1.0063e-002
17445	3.2167	4.	0.	-5.9548e-003
17446	3.3086	4.	5.e-002	9.457
17447	3.3086	3.7273	0.	-1.5869e-002
17448	3.2167	3.8182	0.	-1.2719e-002
17449	3.3086	3.8182	5.e-002	9.4231
17450	3.3086	3.5455	0.	-2.0083e-002
17451	3.2167	3.6364	0.	-1.7692e-002
17452	3.3086	3.6364	5.e-002	9.3933
17453	3.3086	3.3636	0.	-2.2931e-002
17454	3.2167	3.4545	0.	-2.1163e-002
17455	3.3086	3.4545	5.e-002	9.3697
17456	3.3086	3.1818	0.	-2.4574e-002
17457	3.2167	3.2727	0.	-2.3356e-002
17458	3.3086	3.2727	5.e-002	9.3534
17459	3.3086	3.	0.	-2.5112e-002
17460	3.2167	3.0909	0.	-2.4416e-002
17461	3.3086	3.0909	5.e-002	9.3451
17462	3.3086	2.8182	0.	-2.4574e-002
17463	3.2167	2.9091	0.	-2.4416e-002
17464	3.3086	2.9091	5.e-002	9.3451
17465	3.3086	2.6364	0.	-2.293e-002
17466	3.2167	2.7273	0.	-2.3356e-002
17467	3.3086	2.7273	5.e-002	9.3534
17468	3.3086	2.4545	0.	-2.0083e-002
17469	3.2167	2.5455	0.	-2.1163e-002
17470	3.3086	2.5455	5.e-002	9.3697
17471	3.3086	2.2727	0.	-1.5869e-002
17472	3.2167	2.3636	0.	-1.7691e-002
17473	3.3086	2.3636	5.e-002	9.3934
17474	3.3086	2.0909	0.	-1.0063e-002
17475	3.2167	2.1818	0.	-1.2719e-002
17476	3.3086	2.1818	5.e-002	9.4231
17477	3.3086	1.9091	0.	-2.3718e-003
17478	3.2167	2.	0.	-5.9543e-003
17479	3.3086	2.	5.e-002	9.4571
17480	3.3086	1.7273	0.	7.568e-003
17481	3.2167	1.8182	0.	2.976e-003
17482	3.3086	1.8182	5.e-002	9.4924
17483	3.3086	1.5455	0.	2.0255e-002
17484	3.2167	1.6364	0.	1.4526e-002
17485	3.3086	1.6364	5.e-002	9.5252
17486	3.3086	1.3636	0.	3.626e-002
17487	3.2167	1.4545	0.	2.9365e-002
17488	3.3086	1.4545	5.e-002	9.551
17489	3.3086	1.1818	0.	5.691e-002
17490	3.2167	1.2727	0.	4.8123e-002
17491	3.3086	1.2727	5.e-002	9.5647
17492	3.3086	1.	0.	8.2629e-002
17493	3.2167	1.0909	0.	7.3096e-002
17494	3.3086	1.0909	5.e-002	9.5612
17495	3.3086	0.81818	0.	0.1224
17496	3.2167	0.90909	0.	0.10318
17497	3.3086	0.90909	5.e-002	9.5361
17498	3.3086	0.63636	0.	0.16189
17499	3.2167	0.72727	0.	0.15898
17500	3.3086	0.72727	5.e-002	9.4876
17501	3.3086	0.45455	0.	0.34968
17502	3.2167	0.54545	0.	0.19293
17503	3.3086	0.54545	5.e-002	9.4349
17504	3.3086	0.27273	0.	0.59355
17505	3.2167	0.36364	0.	0.57615
17506	3.3086	0.36364	5.e-002	9.6481
17507	3.2167	0.18182	0.	1.0568
17508	3.3086	0.18182	5.e-002	15.321
17509	3.3086	9.0909e-002	0.	0.42028
17510	3.1248	5.7273	0.	0.67595
17511	3.0329	5.8182	0.	1.2766
17512	3.1248	5.8182	5.e-002	16.446
17513	3.1248	5.9091	0.	0.46344
17514	3.1248	5.5455	0.	0.38611
17515	3.0329	5.6364	0.	0.63682
17516	3.1248	5.6364	5.e-002	10.037
17517	3.1248	5.3636	0.	0.17928
17518	3.0329	5.4545	0.	0.21482
17519	3.1248	5.4545	5.e-002	9.8187
17520	3.1248	5.1818	0.	0.13488
17521	3.0329	5.2727	0.	0.17539
17522	3.1248	5.2727	5.e-002	9.8898
17523	3.1248	5.	0.	9.0921e-002
17524	3.0329	5.0909	0.	0.11366
17525	3.1248	5.0909	5.e-002	9.9532
17526	3.1248	4.8182	0.	6.2578e-002
17527	3.0329	4.9091	0.	8.0329e-002
17528	3.1248	4.9091	5.e-002	9.988
17529	3.1248	4.6364	0.	4.0026e-002
17530	3.0329	4.7273	0.	5.2937e-002
17531	3.1248	4.7273	5.e-002	9.9973
17532	3.1248	4.4545	0.	2.2742e-002
17533	3.0329	4.5455	0.	3.2585e-002
17534	3.1248	4.5455	5.e-002	9.9867
17535	3.1248	4.2727	0.	9.2343e-003
17536	3.0329	4.3636	0.	1.672e-002
17537	3.1248	4.3636	5.e-002	9.9626
17538	3.1248	4.0909	0.	-1.1783e-003
17539	3.0329	4.1818	0.	4.5857e-003
17540	3.1248	4.1818	5.e-002	9.9311
17541	3.1248	3.9091	0.	-9.0947e-003
17542	3.0329	4.	0.	-4.6153e-003
17543	3.1248	4.	5.e-002	9.8976
17544	3.1248	3.7273	0.	-1.4965e-002
17545	3.0329	3.8182	0.	-1.1442e-002
17546	3.1248	3.8182	5.e-002	9.8659
17547	3.1248	3.5455	0.	-1.9153e-002
17548	3.0329	3.6364	0.	-1.6359e-002
17549	3.1248	3.6364	5.e-002	9.8388
17550	3.1248	3.3636	0.	-2.1943e-002
17551	3.0329	3.4545	0.	-1.9728e-002
17552	3.1248	3.4545	5.e-002	9.8176
17553	3.1248	3.1818	0.	-2.3536e-002
17554	3.0329	3.2727	0.	-2.1824e-002
17555	3.1248	3.2727	5.e-002	9.8033
17556	3.1248	3.	0.	-2.4054e-002
17557	3.0329	3.0909	0.	-2.2827e-002
17558	3.1248	3.0909	5.e-002	9.7962
17559	3.1248	2.8182	0.	-2.3536e-002
17560	3.0329	2.9091	0.	-2.2827e-002
17561	3.1248	2.9091	5.e-002	9.7962
17562	3.1248	2.6364	0.	-2.1943e-002
17563	3.0329	2.7273	0.	-2.1824e-002
17564	3.1248	2.7273	5.e-002	9.8033
17565	3.1248	2.4545	0.	-1.9153e-002
17566	3.0329	2.5455	0.	-1.9728e-002
17567	3.1248	2.5455	5.e-002	9.8176
17568	3.1248	2.2727	0.	-1.4965e-002
17569	3.0329	2.3636	0.	-1.6359e-002
17570	3.1248	2.3636	5.e-002	9.8388
17571	3.1248	2.0909	0.	-9.0944e-003
17572	3.0329	2.1818	0.	-1.1442e-002
17573	3.1248	2.1818	5.e-002	9.866
17574	3.1248	1.9091	0.	-1.1779e-003
17575	3.0329	2.	0.	-4.615e-003
17576	3.1248	2.	5.e-002	9.8977
17577	3.1248	1.7273	0.	9.2347e-003
17578	3.0329	1.8182	0.	4.586e-003
17579	3.1248	1.8182	5.e-002	9.9312
17580	3.1248	1.5455	0.	2.2743e-002
17581	3.0329	1.6364	0.	1.6721e-002
17582	3.1248	1.6364	5.e-002	9.9626
17583	3.1248	1.3636	0.	4.0026e-002
17584	3.0329	1.4545	0.	3.2586e-002
17585	3.1248	1.4545	5.e-002	9.9867
17586	3.1248	1.1818	0.	6.2578e-002
17587	3.0329	1.2727	0.	5.2938e-002
17588	3.1248	1.2727	5.e-002	9.9974
17589	3.1248	1.	0.	9.0922e-002
17590	3.0329	1.0909	0.	8.0329e-002
17591	3.1248	1.0909	5.e-002	9.9881
17592	3.1248	0.81818	0.	0.13488
17593	3.0329	0.90909	0.	0.11367
17594	3.1248	0.90909	5.e-002	9.9533
17595	3.1248	0.63636	0.	0.17928
17596	3.0329	0.72727	0.	0.17539
17597	3.1248	0.72727	5.e-002	9.8899
17598	3.1248	0.45455	0.	0.38611
17599	3.0329	0.54545	0.	0.21482
17600	3.1248	0.54545	5.e-002	9.8188
17601	3.1248	0.27273	0.	0.67595
17602	3.0329	0.36364	0.	0.63682
17603	3.1248	0.36364	5.e-002	10.037
17604	3.0329	0.18182	0.	1.2766
17605	3.1248	0.18182	5.e-002	16.446
17606	3.1248	9.0909e-002	0.	0.46344
17607	2.941	5.7273	0.	0.77324
17608	2.849	5.8182	0.	1.5605
17609	2.941	5.8182	5.e-002	17.624
17610	2.941	5.9091	0.	0.5148
17611	2.941	5.5455	0.	0.42697
17612	2.849	5.6364	0.	0.7053
17613	2.941	5.6364	5.e-002	10.456
17614	2.941	5.3636	0.	0.19874
17615	2.849	5.4545	0.	0.23956
17616	2.941	5.4545	5.e-002	10.245
17617	2.941	5.1818	0.	0.14866
17618	2.849	5.2727	0.	0.19361
17619	2.941	5.2727	5.e-002	10.34
17620	2.941	5.	0.	9.9995e-002
17621	2.849	5.0909	0.	0.12518
17622	2.941	5.0909	5.e-002	10.421
17623	2.941	4.8182	0.	6.8738e-002
17624	2.849	4.9091	0.	8.8192e-002
17625	2.941	4.9091	5.e-002	10.468
17626	2.941	4.6364	0.	4.4142e-002
17627	2.849	4.7273	0.	5.816e-002
17628	2.941	4.7273	5.e-002	10.484
17629	2.941	4.4545	0.	2.5558e-002
17630	2.849	4.5455	0.	3.6151e-002
17631	2.941	4.5455	5.e-002	10.477
17632	2.941	4.2727	0.	1.1286e-002
17633	2.849	4.3636	0.	1.9306e-002
17634	2.941	4.3636	5.e-002	10.455
17635	2.941	4.0909	0.	5.0939e-004
17636	2.849	4.1818	0.	6.7022e-003
17637	2.941	4.1818	5.e-002	10.427
17638	2.941	3.9091	0.	-7.5019e-003
17639	2.849	4.	0.	-2.6204e-003
17640	2.941	4.	5.e-002	10.397
17641	2.941	3.7273	0.	-1.3306e-002
17642	2.849	3.8182	0.	-9.3555e-003
17643	2.941	3.8182	5.e-002	10.369
17644	2.941	3.5455	0.	-1.7355e-002
17645	2.849	3.6364	0.	-1.4077e-002
17646	2.941	3.6364	5.e-002	10.347
17647	2.941	3.3636	0.	-1.9999e-002
17648	2.849	3.4545	0.	-1.7231e-002
17649	2.941	3.4545	5.e-002	10.33
17650	2.941	3.1818	0.	-2.1486e-002
17651	2.849	3.2727	0.	-1.9152e-002
17652	2.941	3.2727	5.e-002	10.32
17653	2.941	3.	0.	-2.1966e-002
17654	2.849	3.0909	0.	-2.0058e-002
17655	2.941	3.0909	5.e-002	10.314
17656	2.941	2.8182	0.	-2.1486e-002
17657	2.849	2.9091	0.	-2.0058e-002
17658	2.941	2.9091	5.e-002	10.314
17659	2.941	2.6364	0.	-1.9999e-002
17660	2.849	2.7273	0.	-1.9152e-002
17661	2.941	2.7273	5.e-002	10.32
17662	2.941	2.4545	0.	-1.7355e-002
17663	2.849	2.5455	0.	-1.7231e-002
17664	2.941	2.5455	5.e-002	10.33
17665	2.941	2.2727	0.	-1.3306e-002
17666	2.849	2.3636	0.	-1.4077e-002
17667	2.941	2.3636	5.e-002	10.347
17668	2.941	2.0909	0.	-7.5017e-003
17669	2.849	2.1818	0.	-9.3553e-003
17670	2.941	2.1818	5.e-002	10.369
17671	2.941	1.9091	0.	5.0959e-004
17672	2.849	2.	0.	-2.6202e-003
17673	2.941	2.	5.e-002	10.397
17674	2.941	1.7273	0.	1.1287e-002
17675	2.849	1.8182	0.	6.7025e-003
17676	2.941	1.8182	5.e-002	10.427
17677	2.941	1.5455	0.	2.5558e-002
17678	2.849	1.6364	0.	1.9306e-002
17679	2.941	1.6364	5.e-002	10.455
17680	2.941	1.3636	0.	4.4143e-002
17681	2.849	1.4545	0.	3.6151e-002
17682	2.941	1.4545	5.e-002	10.477
17683	2.941	1.1818	0.	6.8738e-002
17684	2.849	1.2727	0.	5.816e-002
17685	2.941	1.2727	5.e-002	10.484
17686	2.941	1.	0.	9.9996e-002
17687	2.849	1.0909	0.	8.8192e-002
17688	2.941	1.0909	5.e-002	10.468
17689	2.941	0.81818	0.	0.14866
17690	2.849	0.90909	0.	0.12518
17691	2.941	0.90909	5.e-002	10.421
17692	2.941	0.63636	0.	0.19874
17693	2.849	0.72727	0.	0.19361
17694	2.941	0.72727	5.e-002	10.34
17695	2.941	0.45455	0.	0.42697
17696	2.849	0.54545	0.	0.23956
17697	2.941	0.54545	5.e-002	10.245
17698	2.941	0.27273	0.	0.77324
17699	2.849	0.36364	0.	0.7053
17700	2.941	0.36364	5.e-002	10.456
17701	2.849	0.18182	0.	1.5605
17702	2.941	0.18182	5.e-002	17.625
17703	2.941	9.0909e-002	0.	0.5148
17704	2.7571	5.7273	0.	0.88899
17705	2.6652	5.8182	0.	1.9346
17706	2.7571	5.8182	5.e-002	18.851
17707	2.7571	5.9091	0.	0.57775
17708	2.7571	5.5455	0.	0.47296
17709	2.6652	5.6364	0.	0.78298
17710	2.7571	5.6364	5.e-002	10.913
17711	2.7571	5.3636	0.	0.22053
17712	2.6652	5.4545	0.	0.26759
17713	2.7571	5.4545	5.e-002	10.722
17714	2.7571	5.1818	0.	0.16388
17715	2.6652	5.2727	0.	0.21386
17716	2.7571	5.2727	5.e-002	10.848
17717	2.7571	5.	0.	0.1099
17718	2.6652	5.0909	0.	0.1378
17719	2.7571	5.0909	5.e-002	10.951
17720	2.7571	4.8182	0.	7.5406e-002
17721	2.6652	4.9091	0.	9.6687e-002
17722	2.7571	4.9091	5.e-002	11.01
17723	2.7571	4.6364	0.	4.8637e-002
17724	2.6652	4.7273	0.	6.379e-002
17725	2.7571	4.7273	5.e-002	11.033
17726	2.7571	4.4545	0.	2.8764e-002
17727	2.6652	4.5455	0.	4.0098e-002
17728	2.7571	4.5455	5.e-002	11.03
17729	2.7571	4.2727	0.	1.3838e-002
17730	2.6652	4.3636	0.	2.2373e-002
17731	2.7571	4.3636	5.e-002	11.012
17732	2.7571	4.0909	0.	2.8563e-003
17733	2.6652	4.1818	0.	9.4745e-003
17734	2.7571	4.1818	5.e-002	10.987
17735	2.7571	3.9091	0.	-5.0745e-003
17736	2.6652	4.	0.	2.3059e-004
17737	2.7571	4.	5.e-002	10.963
17738	2.7571	3.7273	0.	-1.0646e-002
17739	2.6652	3.8182	0.	-6.2185e-003
17740	2.7571	3.8182	5.e-002	10.943
17741	2.7571	3.5455	0.	-1.4417e-002
17742	2.6652	3.6364	0.	-1.0577e-002
17743	2.7571	3.6364	5.e-002	10.928
17744	2.7571	3.3636	0.	-1.6811e-002
17745	2.6652	3.4545	0.	-1.3388e-002
17746	2.7571	3.4545	5.e-002	10.919
17747	2.7571	3.1818	0.	-1.813e-002
17748	2.6652	3.2727	0.	-1.5047e-002
17749	2.7571	3.2727	5.e-002	10.914
17750	2.7571	3.	0.	-1.855e-002
17751	2.6652	3.0909	0.	-1.5813e-002
17752	2.7571	3.0909	5.e-002	10.911
17753	2.7571	2.8182	0.	-1.813e-002
17754	2.6652	2.9091	0.	-1.5813e-002
17755	2.7571	2.9091	5.e-002	10.911
17756	2.7571	2.6364	0.	-1.6811e-002
17757	2.6652	2.7273	0.	-1.5047e-002
17758	2.7571	2.7273	5.e-002	10.914
17759	2.7571	2.4545	0.	-1.4416e-002
17760	2.6652	2.5455	0.	-1.3387e-002
17761	2.7571	2.5455	5.e-002	10.919
17762	2.7571	2.2727	0.	-1.0646e-002
17763	2.6652	2.3636	0.	-1.0577e-002
17764	2.7571	2.3636	5.e-002	10.928
17765	2.7571	2.0909	0.	-5.0743e-003
17766	2.6652	2.1818	0.	-6.2183e-003
17767	2.7571	2.1818	5.e-002	10.943
17768	2.7571	1.9091	0.	2.8566e-003
17769	2.6652	2.	0.	2.3091e-004
17770	2.7571	2.	5.e-002	10.963
17771	2.7571	1.7273	0.	1.3838e-002
17772	2.6652	1.8182	0.	9.4749e-003
17773	2.7571	1.8182	5.e-002	10.987
17774	2.7571	1.5455	0.	2.8765e-002
17775	2.6652	1.6364	0.	2.2374e-002
17776	2.7571	1.6364	5.e-002	11.012
17777	2.7571	1.3636	0.	4.8637e-002
17778	2.6652	1.4545	0.	4.0098e-002
17779	2.7571	1.4545	5.e-002	11.03
17780	2.7571	1.1818	0.	7.5406e-002
17781	2.6652	1.2727	0.	6.379e-002
17782	2.7571	1.2727	5.e-002	11.033
17783	2.7571	1.	0.	0.1099
17784	2.6652	1.0909	0.	9.6687e-002
17785	2.7571	1.0909	5.e-002	11.01
17786	2.7571	0.81818	0.	0.16388
17787	2.6652	0.90909	0.	0.1378
17788	2.7571	0.90909	5.e-002	10.951
17789	2.7571	0.63636	0.	0.22053
17790	2.6652	0.72727	0.	0.21386
17791	2.7571	0.72727	5.e-002	10.848
17792	2.7571	0.45455	0.	0.47296
17793	2.6652	0.54545	0.	0.26759
17794	2.7571	0.54545	5.e-002	10.722
17795	2.7571	0.27273	0.	0.88899
17796	2.6652	0.36364	0.	0.78298
17797	2.7571	0.36364	5.e-002	10.913
17798	2.6652	0.18182	0.	1.9346
17799	2.7571	0.18182	5.e-002	18.851
17800	2.7571	9.0909e-002	0.	0.57775
17801	2.5733	5.7273	0.	1.0278
17802	2.4814	5.8182	0.	2.4398
17803	2.5733	5.8182	5.e-002	20.119
17804	2.5733	5.9091	0.	0.6581
17805	2.5733	5.5455	0.	0.52491
17806	2.4814	5.6364	0.	0.87164
17807	2.5733	5.6364	5.e-002	11.416
17808	2.5733	5.3636	0.	0.24498
17809	2.4814	5.4545	0.	0.29949
17810	2.5733	5.4545	5.e-002	11.266
17811	2.5733	5.1818	0.	0.18064
17812	2.4814	5.2727	0.	0.23641
17813	2.5733	5.2727	5.e-002	11.429
17814	2.5733	5.	0.	0.12063
17815	2.4814	5.0909	0.	0.15162
17816	2.5733	5.0909	5.e-002	11.556
17817	2.5733	4.8182	0.	8.256e-002
17818	2.4814	4.9091	0.	0.10587
17819	2.5733	4.9091	5.e-002	11.628
17820	2.5733	4.6364	0.	5.3511e-002
17821	2.4814	4.7273	0.	6.9902e-002
17822	2.5733	4.7273	5.e-002	11.657
17823	2.5733	4.4545	0.	3.2421e-002
17824	2.4814	4.5455	0.	4.456e-002
17825	2.5733	4.5455	5.e-002	11.656
17826	2.5733	4.2727	0.	1.7013e-002
17827	2.4814	4.3636	0.	2.6134e-002
17828	2.5733	4.3636	5.e-002	11.642
17829	2.5733	4.0909	0.	6.0462e-003
17830	2.4814	4.1818	0.	1.3186e-002
17831	2.5733	4.1818	5.e-002	11.623
17832	2.5733	3.9091	0.	-1.5815e-003
17833	2.4814	4.	0.	4.2758e-003
17834	2.5733	4.	5.e-002	11.608
17835	2.5733	3.7273	0.	-6.7233e-003
17836	2.4814	3.8182	0.	-1.6582e-003
17837	2.5733	3.8182	5.e-002	11.598
17838	2.5733	3.5455	0.	-1.0056e-002
17839	2.4814	3.6364	0.	-5.4695e-003
17840	2.5733	3.6364	5.e-002	11.595
17841	2.5733	3.3636	0.	-1.2088e-002
17842	2.4814	3.4545	0.	-7.7997e-003
17843	2.5733	3.4545	5.e-002	11.595
17844	2.5733	3.1818	0.	-1.3171e-002
17845	2.4814	3.2727	0.	-9.11e-003
17846	2.5733	3.2727	5.e-002	11.597
17847	2.5733	3.	0.	-1.3509e-002
17848	2.4814	3.0909	0.	-9.6938e-003
17849	2.5733	3.0909	5.e-002	11.599
17850	2.5733	2.8182	0.	-1.3171e-002
17851	2.4814	2.9091	0.	-9.6938e-003
17852	2.5733	2.9091	5.e-002	11.599
17853	2.5733	2.6364	0.	-1.2088e-002
17854	2.4814	2.7273	0.	-9.11e-003
17855	2.5733	2.7273	5.e-002	11.597
17856	2.5733	2.4545	0.	-1.0056e-002
17857	2.4814	2.5455	0.	-7.7996e-003
17858	2.5733	2.5455	5.e-002	11.595
17859	2.5733	2.2727	0.	-6.7231e-003
17860	2.4814	2.3636	0.	-5.4693e-003
17861	2.5733	2.3636	5.e-002	11.595
17862	2.5733	2.0909	0.	-1.5812e-003
17863	2.4814	2.1818	0.	-1.658e-003
17864	2.5733	2.1818	5.e-002	11.598
17865	2.5733	1.9091	0.	6.0465e-003
17866	2.4814	2.	0.	4.2761e-003
17867	2.5733	2.	5.e-002	11.608
17868	2.5733	1.7273	0.	1.7013e-002
17869	2.4814	1.8182	0.	1.3186e-002
17870	2.5733	1.8182	5.e-002	11.623
17871	2.5733	1.5455	0.	3.2421e-002
17872	2.4814	1.6364	0.	2.6135e-002
17873	2.5733	1.6364	5.e-002	11.642
17874	2.5733	1.3636	0.	5.3511e-002
17875	2.4814	1.4545	0.	4.4561e-002
17876	2.5733	1.4545	5.e-002	11.656
17877	2.5733	1.1818	0.	8.256e-002
17878	2.4814	1.2727	0.	6.9902e-002
17879	2.5733	1.2727	5.e-002	11.657
17880	2.5733	1.	0.	0.12063
17881	2.4814	1.0909	0.	0.10587
17882	2.5733	1.0909	5.e-002	11.628
17883	2.5733	0.81818	0.	0.18065
17884	2.4814	0.90909	0.	0.15162
17885	2.5733	0.90909	5.e-002	11.557
17886	2.5733	0.63636	0.	0.24498
17887	2.4814	0.72727	0.	0.23641
17888	2.5733	0.72727	5.e-002	11.429
17889	2.5733	0.45455	0.	0.52491
17890	2.4814	0.54545	0.	0.29949
17891	2.5733	0.54545	5.e-002	11.266
17892	2.5733	0.27273	0.	1.0278
17893	2.4814	0.36364	0.	0.87164
17894	2.5733	0.36364	5.e-002	11.416
17895	2.4814	0.18182	0.	2.4398
17896	2.5733	0.18182	5.e-002	20.119
17897	2.5733	9.0909e-002	0.	0.6581
17898	2.3895	5.7273	0.	1.196
17899	2.2976	5.8182	0.	3.1424
17900	2.3895	5.8182	5.e-002	21.417
17901	2.3895	5.9091	0.	0.76708
17902	2.3895	5.5455	0.	0.58392
17903	2.2976	5.6364	0.	0.97337
17904	2.3895	5.6364	5.e-002	11.981
17905	2.3895	5.3636	0.	0.27255
17906	2.2976	5.4545	0.	0.33579
17907	2.3895	5.4545	5.e-002	11.896
17908	2.3895	5.1818	0.	0.19922
17909	2.2976	5.2727	0.	0.2614
17910	2.3895	5.2727	5.e-002	12.104
17911	2.3895	5.	0.	0.13233
17912	2.2976	5.0909	0.	0.16657
17913	2.3895	5.0909	5.e-002	12.256
17914	2.3895	4.8182	0.	9.0342e-002
17915	2.2976	4.9091	0.	0.1156
17916	2.3895	4.9091	5.e-002	12.338
17917	2.3895	4.6364	0.	5.8964e-002
17918	2.2976	4.7273	0.	7.6387e-002
17919	2.3895	4.7273	5.e-002	12.369
17920	2.3895	4.4545	0.	3.6811e-002
17921	2.2976	4.5455	0.	4.9519e-002
17922	2.3895	4.5455	5.e-002	12.369
17923	2.3895	4.2727	0.	2.1181e-002
17924	2.2976	4.3636	0.	3.0663e-002
17925	2.3895	4.3636	5.e-002	12.357
17926	2.3895	4.0909	0.	1.0516e-002
17927	2.2976	4.1818	0.	1.7985e-002
17928	2.3895	4.1818	5.e-002	12.346
17929	2.3895	3.9091	0.	3.4576e-003
17930	2.2976	4.	0.	9.7089e-003
17931	2.3895	4.	5.e-002	12.342
17932	2.3895	3.7273	0.	-1.0346e-003
17933	2.2976	3.8182	0.	4.5352e-003
17934	2.3895	3.8182	5.e-002	12.347
17935	2.3895	3.5455	0.	-3.7658e-003
17936	2.2976	3.6364	0.	1.4532e-003
17937	2.3895	3.6364	5.e-002	12.359
17938	2.3895	3.3636	0.	-5.3237e-003
17939	2.2976	3.4545	0.	-2.7474e-004
17940	2.3895	3.4545	5.e-002	12.372
17941	2.3895	3.1818	0.	-6.1064e-003
17942	2.2976	3.2727	0.	-1.1627e-003
17943	2.3895	3.2727	5.e-002	12.384
17944	2.3895	3.	0.	-6.3425e-003
17945	2.2976	3.0909	0.	-1.5301e-003
17946	2.3895	3.0909	5.e-002	12.391
17947	2.3895	2.8182	0.	-6.1064e-003
17948	2.2976	2.9091	0.	-1.5301e-003
17949	2.3895	2.9091	5.e-002	12.391
17950	2.3895	2.6364	0.	-5.3236e-003
17951	2.2976	2.7273	0.	-1.1626e-003
17952	2.3895	2.7273	5.e-002	12.384
17953	2.3895	2.4545	0.	-3.7657e-003
17954	2.2976	2.5455	0.	-2.7464e-004
17955	2.3895	2.5455	5.e-002	12.372
17956	2.3895	2.2727	0.	-1.0345e-003
17957	2.2976	2.3636	0.	1.4533e-003
17958	2.3895	2.3636	5.e-002	12.359
17959	2.3895	2.0909	0.	3.4578e-003
17960	2.2976	2.1818	0.	4.5353e-003
17961	2.3895	2.1818	5.e-002	12.347
17962	2.3895	1.9091	0.	1.0516e-002
17963	2.2976	2.	0.	9.7091e-003
17964	2.3895	2.	5.e-002	12.342
17965	2.3895	1.7273	0.	2.1181e-002
17966	2.2976	1.8182	0.	1.7986e-002
17967	2.3895	1.8182	5.e-002	12.346
17968	2.3895	1.5455	0.	3.6812e-002
17969	2.2976	1.6364	0.	3.0664e-002
17970	2.3895	1.6364	5.e-002	12.357
17971	2.3895	1.3636	0.	5.8965e-002
17972	2.2976	1.4545	0.	4.9519e-002
17973	2.3895	1.4545	5.e-002	12.369
17974	2.3895	1.1818	0.	9.0342e-002
17975	2.2976	1.2727	0.	7.6387e-002
17976	2.3895	1.2727	5.e-002	12.369
17977	2.3895	1.	0.	0.13234
17978	2.2976	1.0909	0.	0.1156
17979	2.3895	1.0909	5.e-002	12.338
17980	2.3895	0.81818	0.	0.19922
17981	2.2976	0.90909	0.	0.16657
17982	2.3895	0.90909	5.e-002	12.256
17983	2.3895	0.63636	0.	0.27255
17984	2.2976	0.72727	0.	0.2614
17985	2.3895	0.72727	5.e-002	12.104
17986	2.3895	0.45455	0.	0.58392
17987	2.2976	0.54545	0.	0.33579
17988	2.3895	0.54545	5.e-002	11.896
17989	2.3895	0.27273	0.	1.196
17990	2.2976	0.36364	0.	0.97337
17991	2.3895	0.36364	5.e-002	11.982
17992	2.2976	0.18182	0.	3.1424
17993	2.3895	0.18182	5.e-002	21.417
17994	2.3895	9.0909e-002	0.	0.76708
17995	2.2057	5.7273	0.	1.4014
17996	2.1138	5.8182	0.	4.1556
17997	2.2057	5.8182	5.e-002	22.729
17998	2.2057	5.9091	0.	0.92898
17999	2.2057	5.5455	0.	0.65099
18000	2.1138	5.6364	0.	1.0914
18001	2.2057	5.6364	5.e-002	12.633
18002	2.2057	5.3636	0.	0.30333
18003	2.1138	5.4545	0.	0.3779
18004	2.2057	5.4545	5.e-002	12.644
18005	2.2057	5.1818	0.	0.21933
18006	2.1138	5.2727	0.	0.28983
18007	2.2057	5.2727	5.e-002	12.902
18008	2.2057	5.	0.	0.14461
18009	2.1138	5.0909	0.	0.18345
18010	2.2057	5.0909	5.e-002	13.076
18011	2.2057	4.8182	0.	9.8339e-002
18012	2.1138	4.9091	0.	0.12669
18013	2.2057	4.9091	5.e-002	13.161
18014	2.2057	4.6364	0.	6.466e-002
18015	2.1138	4.7273	0.	8.4181e-002
18016	2.2057	4.7273	5.e-002	13.186
18017	2.2057	4.4545	0.	4.1702e-002
18018	2.1138	4.5455	0.	5.6062e-002
18019	2.2057	4.5455	5.e-002	13.182
18020	2.2057	4.2727	0.	2.6194e-002
18021	2.1138	4.3636	0.	3.7179e-002
18022	2.2057	4.3636	5.e-002	13.172
18023	2.2057	4.0909	0.	1.6172e-002
18024	2.1138	4.1818	0.	2.517e-002
18025	2.2057	4.1818	5.e-002	13.17
18026	2.2057	3.9091	0.	9.9667e-003
18027	2.1138	4.	0.	1.7854e-002
18028	2.2057	4.	5.e-002	13.181
18029	2.2057	3.7273	0.	6.3349e-003
18030	2.1138	3.8182	0.	1.3674e-002
18031	2.2057	3.8182	5.e-002	13.205
18032	2.2057	3.5455	0.	4.3472e-003
18033	2.1138	3.6364	0.	1.1468e-002
18034	2.2057	3.6364	5.e-002	13.235
18035	2.2057	3.3636	0.	3.3489e-003
18036	2.1138	3.4545	0.	1.0424e-002
18037	2.2057	3.4545	5.e-002	13.265
18038	2.2057	3.1818	0.	2.9102e-003
18039	2.1138	3.2727	0.	9.9985e-003
18040	2.2057	3.2727	5.e-002	13.289
18041	2.2057	3.	0.	2.7898e-003
18042	2.1138	3.0909	0.	9.8626e-003
18043	2.2057	3.0909	5.e-002	13.303
18044	2.2057	2.8182	0.	2.9103e-003
18045	2.1138	2.9091	0.	9.8626e-003
18046	2.2057	2.9091	5.e-002	13.303
18047	2.2057	2.6364	0.	3.349e-003
18048	2.1138	2.7273	0.	9.9986e-003
18049	2.2057	2.7273	5.e-002	13.289
18050	2.2057	2.4545	0.	4.3473e-003
18051	2.1138	2.5455	0.	1.0424e-002
18052	2.2057	2.5455	5.e-002	13.265
18053	2.2057	2.2727	0.	6.335e-003
18054	2.1138	2.3636	0.	1.1468e-002
18055	2.2057	2.3636	5.e-002	13.235
18056	2.2057	2.0909	0.	9.9669e-003
18057	2.1138	2.1818	0.	1.3674e-002
18058	2.2057	2.1818	5.e-002	13.205
18059	2.2057	1.9091	0.	1.6172e-002
18060	2.1138	2.	0.	1.7854e-002
18061	2.2057	2.	5.e-002	13.182
18062	2.2057	1.7273	0.	2.6194e-002
18063	2.1138	1.8182	0.	2.5171e-002
18064	2.2057	1.8182	5.e-002	13.17
18065	2.2057	1.5455	0.	4.1702e-002
18066	2.1138	1.6364	0.	3.7179e-002
18067	2.2057	1.6364	5.e-002	13.172
18068	2.2057	1.3636	0.	6.4661e-002
18069	2.1138	1.4545	0.	5.6063e-002
18070	2.2057	1.4545	5.e-002	13.182
18071	2.2057	1.1818	0.	9.8339e-002
18072	2.1138	1.2727	0.	8.4182e-002
18073	2.2057	1.2727	5.e-002	13.186
18074	2.2057	1.	0.	0.14461
18075	2.1138	1.0909	0.	0.12669
18076	2.2057	1.0909	5.e-002	13.161
18077	2.2057	0.81818	0.	0.21933
18078	2.1138	0.90909	0.	0.18345
18079	2.2057	0.90909	5.e-002	13.076
18080	2.2057	0.63636	0.	0.30333
18081	2.1138	0.72727	0.	0.28983
18082	2.2057	0.72727	5.e-002	12.903
18083	2.2057	0.45455	0.	0.65099
18084	2.1138	0.54545	0.	0.3779
18085	2.2057	0.54545	5.e-002	12.644
18086	2.2057	0.27273	0.	1.4014
18087	2.1138	0.36364	0.	1.0914
18088	2.2057	0.36364	5.e-002	12.633
18089	2.1138	0.18182	0.	4.1556
18090	2.2057	0.18182	5.e-002	22.729
18091	2.2057	9.0909e-002	0.	0.92898
18092	2.0219	5.7273	0.	1.6561
18093	1.93	5.8182	0.	5.679
18094	2.0219	5.8182	5.e-002	24.034
18095	2.0219	5.9091	0.	1.2092
18096	2.0219	5.5455	0.	0.72903
18097	1.93	5.6364	0.	1.2276
18098	2.0219	5.6364	5.e-002	13.412
18099	2.0219	5.3636	0.	0.3395
18100	1.93	5.4545	0.	0.42471
18101	2.0219	5.4545	5.e-002	13.558
18102	2.0219	5.1818	0.	0.243
18103	1.93	5.2727	0.	0.31966
18104	2.0219	5.2727	5.e-002	13.867
18105	2.0219	5.	0.	0.15946
18106	1.93	5.0909	0.	0.19974
18107	2.0219	5.0909	5.e-002	14.051
18108	2.0219	4.8182	0.	0.1087
18109	1.93	4.9091	0.	0.13653
18110	2.0219	4.9091	5.e-002	14.123
18111	2.0219	4.6364	0.	7.295e-002
18112	1.93	4.7273	0.	9.0746e-002
18113	2.0219	4.7273	5.e-002	14.13
18114	2.0219	4.4545	0.	4.9629e-002
18115	1.93	4.5455	0.	6.1755e-002
18116	2.0219	4.5455	5.e-002	14.114
18117	2.0219	4.2727	0.	3.4714e-002
18118	1.93	4.3636	0.	4.3301e-002
18119	2.0219	4.3636	5.e-002	14.103
18120	2.0219	4.0909	0.	2.573e-002
18121	1.93	4.1818	0.	3.2345e-002
18122	2.0219	4.1818	5.e-002	14.112
18123	2.0219	3.9091	0.	2.066e-002
18124	1.93	4.	0.	2.624e-002
18125	2.0219	4.	5.e-002	14.142
18126	2.0219	3.7273	0.	1.8062e-002
18127	1.93	3.8182	0.	2.3177e-002
18128	2.0219	3.8182	5.e-002	14.188
18129	2.0219	3.5455	0.	1.6908e-002
18130	1.93	3.6364	0.	2.188e-002
18131	2.0219	3.6364	5.e-002	14.241
18132	2.0219	3.3636	0.	1.6506e-002
18133	1.93	3.4545	0.	2.1501e-002
18134	2.0219	3.4545	5.e-002	14.29
18135	2.0219	3.1818	0.	1.6423e-002
18136	1.93	3.2727	0.	2.1504e-002
18137	2.0219	3.2727	5.e-002	14.327
18138	2.0219	3.	0.	1.642e-002
18139	1.93	3.0909	0.	2.1576e-002
18140	2.0219	3.0909	5.e-002	14.347
18141	2.0219	2.8182	0.	1.6423e-002
18142	1.93	2.9091	0.	2.1576e-002
18143	2.0219	2.9091	5.e-002	14.347
18144	2.0219	2.6364	0.	1.6506e-002
18145	1.93	2.7273	0.	2.1504e-002
18146	2.0219	2.7273	5.e-002	14.327
18147	2.0219	2.4545	0.	1.6908e-002
18148	1.93	2.5455	0.	2.1501e-002
18149	2.0219	2.5455	5.e-002	14.29
18150	2.0219	2.2727	0.	1.8062e-002
18151	1.93	2.3636	0.	2.188e-002
18152	2.0219	2.3636	5.e-002	14.241
18153	2.0219	2.0909	0.	2.066e-002
18154	1.93	2.1818	0.	2.3178e-002
18155	2.0219	2.1818	5.e-002	14.188
18156	2.0219	1.9091	0.	2.573e-002
18157	1.93	2.	0.	2.624e-002
18158	2.0219	2.	5.e-002	14.142
18159	2.0219	1.7273	0.	3.4714e-002
18160	1.93	1.8182	0.	3.2345e-002
18161	2.0219	1.8182	5.e-002	14.112
18162	2.0219	1.5455	0.	4.9629e-002
18163	1.93	1.6364	0.	4.3301e-002
18164	2.0219	1.6364	5.e-002	14.103
18165	2.0219	1.3636	0.	7.295e-002
18166	1.93	1.4545	0.	6.1755e-002
18167	2.0219	1.4545	5.e-002	14.114
18168	2.0219	1.1818	0.	0.1087
18169	1.93	1.2727	0.	9.0747e-002
18170	2.0219	1.2727	5.e-002	14.13
18171	2.0219	1.	0.	0.15946
18172	1.93	1.0909	0.	0.13653
18173	2.0219	1.0909	5.e-002	14.123
18174	2.0219	0.81818	0.	0.243
18175	1.93	0.90909	0.	0.19975
18176	2.0219	0.90909	5.e-002	14.051
18177	2.0219	0.63636	0.	0.3395
18178	1.93	0.72727	0.	0.31966
18179	2.0219	0.72727	5.e-002	13.867
18180	2.0219	0.45455	0.	0.72903
18181	1.93	0.54545	0.	0.42471
18182	2.0219	0.54545	5.e-002	13.558
18183	2.0219	0.27273	0.	1.6561
18184	1.93	0.36364	0.	1.2276
18185	2.0219	0.36364	5.e-002	13.412
18186	1.93	0.18182	0.	5.679
18187	2.0219	0.18182	5.e-002	24.034
18188	2.0219	9.0909e-002	0.	1.2092
18189	1.8381	5.7273	0.	1.9719
18190	1.7462	5.8182	0.	8.0809
18191	1.8381	5.8182	5.e-002	25.301
18192	1.8381	5.9091	0.	1.8393
18193	1.8381	5.5455	0.	0.81498
18194	1.7462	5.6364	0.	1.3934
18195	1.8381	5.6364	5.e-002	14.385
18196	1.8381	5.3636	0.	0.37552
18197	1.7462	5.4545	0.	0.48659
18198	1.8381	5.4545	5.e-002	14.707
18199	1.8381	5.1818	0.	0.26356
18200	1.7462	5.2727	0.	0.36165
18201	1.8381	5.2727	5.e-002	15.056
18202	1.8381	5.	0.	0.1697
18203	1.7462	5.0909	0.	0.22671
18204	1.8381	5.0909	5.e-002	15.225
18205	1.8381	4.8182	0.	0.1141
18206	1.7462	4.9091	0.	0.15703
18207	1.8381	4.9091	5.e-002	15.259
18208	1.8381	4.6364	0.	7.6495e-002
18209	1.7462	4.7273	0.	0.10861
18210	1.8381	4.7273	5.e-002	15.227
18211	1.8381	4.4545	0.	5.3237e-002
18212	1.7462	4.5455	0.	7.9586e-002
18213	1.8381	4.5455	5.e-002	15.187
18214	1.8381	4.2727	0.	3.9305e-002
18215	1.7462	4.3636	0.	6.2282e-002
18216	1.8381	4.3636	5.e-002	15.172
18217	1.8381	4.0909	0.	3.1611e-002
18218	1.7462	4.1818	0.	5.285e-002
18219	1.8381	4.1818	5.e-002	15.193
18220	1.8381	3.9091	0.	2.7778e-002
18221	1.7462	4.	0.	4.8179e-002
18222	1.8381	4.	5.e-002	15.245
18223	1.8381	3.7273	0.	2.62e-002
18224	1.7462	3.8182	0.	4.6272e-002
18225	1.8381	3.8182	5.e-002	15.316
18226	1.8381	3.5455	0.	2.5803e-002
18227	1.7462	3.6364	0.	4.5811e-002
18228	1.8381	3.6364	5.e-002	15.393
18229	1.8381	3.3636	0.	2.5909e-002
18230	1.7462	3.4545	0.	4.5987e-002
18231	1.8381	3.4545	5.e-002	15.461
18232	1.8381	3.1818	0.	2.6112e-002
18233	1.7462	3.2727	0.	4.6278e-002
18234	1.8381	3.2727	5.e-002	15.512
18235	1.8381	3.	0.	2.6201e-002
18236	1.7462	3.0909	0.	4.654e-002
18237	1.8381	3.0909	5.e-002	15.538
18238	1.8381	2.8182	0.	2.6112e-002
18239	1.7462	2.9091	0.	4.654e-002
18240	1.8381	2.9091	5.e-002	15.538
18241	1.8381	2.6364	0.	2.5909e-002
18242	1.7462	2.7273	0.	4.6278e-002
18243	1.8381	2.7273	5.e-002	15.511
18244	1.8381	2.4545	0.	2.5803e-002
18245	1.7462	2.5455	0.	4.5987e-002
18246	1.8381	2.5455	5.e-002	15.461
18247	1.8381	2.2727	0.	2.62e-002
18248	1.7462	2.3636	0.	4.5811e-002
18249	1.8381	2.3636	5.e-002	15.393
18250	1.8381	2.0909	0.	2.7778e-002
18251	1.7462	2.1818	0.	4.6272e-002
18252	1.8381	2.1818	5.e-002	15.317
18253	1.8381	1.9091	0.	3.1611e-002
18254	1.7462	2.	0.	4.8179e-002
18255	1.8381	2.	5.e-002	15.245
18256	1.8381	1.7273	0.	3.9306e-002
18257	1.7462	1.8182	0.	5.285e-002
18258	1.8381	1.8182	5.e-002	15.193
18259	1.8381	1.5455	0.	5.3237e-002
18260	1.7462	1.6364	0.	6.2282e-002
18261	1.8381	1.6364	5.e-002	15.172
18262	1.8381	1.3636	0.	7.6496e-002
18263	1.7462	1.4545	0.	7.9586e-002
18264	1.8381	1.4545	5.e-002	15.187
18265	1.8381	1.1818	0.	0.1141
18266	1.7462	1.2727	0.	0.10861
18267	1.8381	1.2727	5.e-002	15.227
18268	1.8381	1.	0.	0.16971
18269	1.7462	1.0909	0.	0.15703
18270	1.8381	1.0909	5.e-002	15.259
18271	1.8381	0.81818	0.	0.26356
18272	1.7462	0.90909	0.	0.22671
18273	1.8381	0.90909	5.e-002	15.225
18274	1.8381	0.63636	0.	0.37552
18275	1.7462	0.72727	0.	0.36165
18276	1.8381	0.72727	5.e-002	15.056
18277	1.8381	0.45455	0.	0.81498
18278	1.7462	0.54545	0.	0.48659
18279	1.8381	0.54545	5.e-002	14.707
18280	1.8381	0.27273	0.	1.9719
18281	1.7462	0.36364	0.	1.3934
18282	1.8381	0.36364	5.e-002	14.385
18283	1.7462	0.18182	0.	8.0809
18284	1.8381	0.18182	5.e-002	25.301
18285	1.8381	9.0909e-002	0.	1.8393
18286	1.6543	5.7273	0.	2.382
18287	1.5624	5.8182	0.	12.004
18288	1.6543	5.8182	5.e-002	26.487
18289	1.6543	5.9091	0.	3.9839
18290	1.6543	5.5455	0.	0.9322
18291	1.5624	5.6364	0.	1.5691
18292	1.6543	5.6364	5.e-002	15.664
18293	1.6543	5.3636	0.	0.43779
18294	1.5624	5.4545	0.	0.53089
18295	1.6543	5.4545	5.e-002	16.198
18296	1.6543	5.1818	0.	0.30956
18297	1.5624	5.2727	0.	0.37744
18298	1.6543	5.2727	5.e-002	16.554
18299	1.6543	5.	0.	0.20561
18300	1.5624	5.0909	0.	0.22284
18301	1.6543	5.0909	5.e-002	16.659
18302	1.6543	4.8182	0.	0.14625
18303	1.5624	4.9091	0.	0.1449
18304	1.6543	4.9091	5.e-002	16.608
18305	1.6543	4.6364	0.	0.10813
18306	1.5624	4.7273	0.	9.3276e-002
18307	1.6543	4.7273	5.e-002	16.507
18308	1.6543	4.4545	0.	8.6121e-002
18309	1.5624	4.5455	0.	6.4045e-002
18310	1.6543	4.5455	5.e-002	16.429
18311	1.6543	4.2727	0.	7.4001e-002
18312	1.5624	4.3636	0.	4.7623e-002
18313	1.6543	4.3636	5.e-002	16.406
18314	1.6543	4.0909	0.	6.8054e-002
18315	1.5624	4.1818	0.	3.9247e-002
18316	1.6543	4.1818	5.e-002	16.439
18317	1.6543	3.9091	0.	6.5624e-002
18318	1.5624	4.	0.	3.5388e-002
18319	1.6543	4.	5.e-002	16.514
18320	1.6543	3.7273	0.	6.5048e-002
18321	1.5624	3.8182	0.	3.3961e-002
18322	1.6543	3.8182	5.e-002	16.61
18323	1.6543	3.5455	0.	6.5304e-002
18324	1.5624	3.6364	0.	3.3707e-002
18325	1.6543	3.6364	5.e-002	16.708
18326	1.6543	3.3636	0.	6.5795e-002
18327	1.5624	3.4545	0.	3.3919e-002
18328	1.6543	3.4545	5.e-002	16.792
18329	1.6543	3.1818	0.	6.6195e-002
18330	1.5624	3.2727	0.	3.4213e-002
18331	1.6543	3.2727	5.e-002	16.854
18332	1.6543	3.	0.	6.6344e-002
18333	1.5624	3.0909	0.	3.4399e-002
18334	1.6543	3.0909	5.e-002	16.886
18335	1.6543	2.8182	0.	6.6195e-002
18336	1.5624	2.9091	0.	3.4399e-002
18337	1.6543	2.9091	5.e-002	16.886
18338	1.6543	2.6364	0.	6.5795e-002
18339	1.5624	2.7273	0.	3.4213e-002
18340	1.6543	2.7273	5.e-002	16.854
18341	1.6543	2.4545	0.	6.5304e-002
18342	1.5624	2.5455	0.	3.3919e-002
18343	1.6543	2.5455	5.e-002	16.792
18344	1.6543	2.2727	0.	6.5048e-002
18345	1.5624	2.3636	0.	3.3707e-002
18346	1.6543	2.3636	5.e-002	16.708
18347	1.6543	2.0909	0.	6.5624e-002
18348	1.5624	2.1818	0.	3.3962e-002
18349	1.6543	2.1818	5.e-002	16.61
18350	1.6543	1.9091	0.	6.8054e-002
18351	1.5624	2.	0.	3.5388e-002
18352	1.6543	2.	5.e-002	16.514
18353	1.6543	1.7273	0.	7.4001e-002
18354	1.5624	1.8182	0.	3.9247e-002
18355	1.6543	1.8182	5.e-002	16.44
18356	1.6543	1.5455	0.	8.6121e-002
18357	1.5624	1.6364	0.	4.7623e-002
18358	1.6543	1.6364	5.e-002	16.406
18359	1.6543	1.3636	0.	0.10813
18360	1.5624	1.4545	0.	6.4045e-002
18361	1.6543	1.4545	5.e-002	16.429
18362	1.6543	1.1818	0.	0.14625
18363	1.5624	1.2727	0.	9.3276e-002
18364	1.6543	1.2727	5.e-002	16.507
18365	1.6543	1.	0.	0.20561
18366	1.5624	1.0909	0.	0.1449
18367	1.6543	1.0909	5.e-002	16.608
18368	1.6543	0.81818	0.	0.30956
18369	1.5624	0.90909	0.	0.22284
18370	1.6543	0.90909	5.e-002	16.659
18371	1.6543	0.63636	0.	0.43779
18372	1.5624	0.72727	0.	0.37744
18373	1.6543	0.72727	5.e-002	16.554
18374	1.6543	0.45455	0.	0.9322
18375	1.5624	0.54545	0.	0.53089
18376	1.6543	0.54545	5.e-002	16.198
18377	1.6543	0.27273	0.	2.382
18378	1.5624	0.36364	0.	1.5691
18379	1.6543	0.36364	5.e-002	15.664
18380	1.5624	0.18182	0.	12.004
18381	1.6543	0.18182	5.e-002	26.488
18382	1.6543	9.0909e-002	0.	3.9838
18383	1.4705	5.7273	0.	2.8628
18384	1.3786	5.8182	0.	18.505
18385	1.4705	5.8182	5.e-002	27.543
18386	1.4705	5.9091	0.	10.327
18387	1.4705	5.5455	0.	1.0031
18388	1.3786	5.6364	0.	1.8676
18389	1.4705	5.6364	5.e-002	17.429
18390	1.4705	5.3636	0.	0.42847
18391	1.3786	5.4545	0.	0.70089
18392	1.4705	5.4545	5.e-002	18.187
18393	1.4705	5.1818	0.	0.2724
18394	1.3786	5.2727	0.	0.52709
18395	1.4705	5.2727	5.e-002	18.473
18396	1.4705	5.	0.	0.15201
18397	1.3786	5.0909	0.	0.35948
18398	1.4705	5.0909	5.e-002	18.425
18399	1.4705	4.8182	0.	8.5639e-002
18400	1.3786	4.9091	0.	0.27977
18401	1.4705	4.9091	5.e-002	18.219
18402	1.4705	4.6364	0.	4.503e-002
18403	1.3786	4.7273	0.	0.23029
18404	1.4705	4.7273	5.e-002	18.009
18405	1.4705	4.4545	0.	2.2688e-002
18406	1.3786	4.5455	0.	0.20478
18407	1.4705	4.5455	5.e-002	17.876
18408	1.4705	4.2727	0.	1.0846e-002
18409	1.3786	4.3636	0.	0.19179
18410	1.4705	4.3636	5.e-002	17.84
18411	1.4705	4.0909	0.	5.1112e-003
18412	1.3786	4.1818	0.	0.18596
18413	1.4705	4.1818	5.e-002	17.885
18414	1.4705	3.9091	0.	2.6251e-003
18415	1.3786	4.	0.	0.1837
18416	1.4705	4.	5.e-002	17.978
18417	1.4705	3.7273	0.	1.765e-003
18418	1.3786	3.8182	0.	0.18314
18419	1.4705	3.8182	5.e-002	18.092
18420	1.4705	3.5455	0.	1.6268e-003
18421	1.3786	3.6364	0.	0.18325
18422	1.4705	3.6364	5.e-002	18.203
18423	1.4705	3.3636	0.	1.7401e-003
18424	1.3786	3.4545	0.	0.18355
18425	1.4705	3.4545	5.e-002	18.296
18426	1.4705	3.1818	0.	1.8741e-003
18427	1.3786	3.2727	0.	0.18382
18428	1.4705	3.2727	5.e-002	18.362
18429	1.4705	3.	0.	1.928e-003
18430	1.3786	3.0909	0.	0.18397
18431	1.4705	3.0909	5.e-002	18.396
18432	1.4705	2.8182	0.	1.874e-003
18433	1.3786	2.9091	0.	0.18397
18434	1.4705	2.9091	5.e-002	18.396
18435	1.4705	2.6364	0.	1.7401e-003
18436	1.3786	2.7273	0.	0.18382
18437	1.4705	2.7273	5.e-002	18.362
18438	1.4705	2.4545	0.	1.6269e-003
18439	1.3786	2.5455	0.	0.18355
18440	1.4705	2.5455	5.e-002	18.296
18441	1.4705	2.2727	0.	1.7651e-003
18442	1.3786	2.3636	0.	0.18325
18443	1.4705	2.3636	5.e-002	18.203
18444	1.4705	2.0909	0.	2.6252e-003
18445	1.3786	2.1818	0.	0.18314
18446	1.4705	2.1818	5.e-002	18.092
18447	1.4705	1.9091	0.	5.1113e-003
18448	1.3786	2.	0.	0.1837
18449	1.4705	2.	5.e-002	17.978
18450	1.4705	1.7273	0.	1.0846e-002
18451	1.3786	1.8182	0.	0.18596
18452	1.4705	1.8182	5.e-002	17.885
18453	1.4705	1.5455	0.	2.2688e-002
18454	1.3786	1.6364	0.	0.19179
18455	1.4705	1.6364	5.e-002	17.841
18456	1.4705	1.3636	0.	4.503e-002
18457	1.3786	1.4545	0.	0.20478
18458	1.4705	1.4545	5.e-002	17.876
18459	1.4705	1.1818	0.	8.564e-002
18460	1.3786	1.2727	0.	0.23029
18461	1.4705	1.2727	5.e-002	18.009
18462	1.4705	1.	0.	0.15201
18463	1.3786	1.0909	0.	0.27977
18464	1.4705	1.0909	5.e-002	18.219
18465	1.4705	0.81818	0.	0.2724
18466	1.3786	0.90909	0.	0.35948
18467	1.4705	0.90909	5.e-002	18.425
18468	1.4705	0.63636	0.	0.42847
18469	1.3786	0.72727	0.	0.52709
18470	1.4705	0.72727	5.e-002	18.473
18471	1.4705	0.45455	0.	1.0031
18472	1.3786	0.54545	0.	0.70089
18473	1.4705	0.54545	5.e-002	18.187
18474	1.4705	0.27273	0.	2.8628
18475	1.3786	0.36364	0.	1.8676
18476	1.4705	0.36364	5.e-002	17.429
18477	1.3786	0.18182	0.	18.505
18478	1.4705	0.18182	5.e-002	27.544
18479	1.4705	9.0909e-002	0.	10.326
18480	1.2867	5.7273	0.	3.6513
18481	1.1948	5.8182	0.	28.601
18482	1.2867	5.8182	5.e-002	28.412
18483	1.2867	5.9091	0.	20.539
18484	1.2867	5.5455	0.	1.359
18485	1.1948	5.6364	0.	1.8885
18486	1.2867	5.6364	5.e-002	19.975
18487	1.2867	5.3636	0.	0.74809
18488	1.1948	5.4545	0.	0.45223
18489	1.2867	5.4545	5.e-002	20.906
18490	1.2867	5.1818	0.	0.59177
18491	1.1948	5.2727	0.	0.19397
18492	1.2867	5.2727	5.e-002	20.961
18493	1.2867	5.	0.	0.47494
18494	1.1948	5.0909	0.	-2.5181e-002
18495	1.2867	5.0909	5.e-002	20.606
18496	1.2867	4.8182	0.	0.41692
18497	1.1948	4.9091	0.	-0.1318
18498	1.2867	4.9091	5.e-002	20.145
18499	1.2867	4.6364	0.	0.38521
18500	1.1948	4.7273	0.	-0.19734
18501	1.2867	4.7273	5.e-002	19.778
18502	1.2867	4.4545	0.	0.37067
18503	1.1948	4.5455	0.	-0.23357
18504	1.2867	4.5455	5.e-002	19.575
18505	1.2867	4.2727	0.	0.36471
18506	1.1948	4.3636	0.	-0.25502
18507	1.2867	4.3636	5.e-002	19.52
18508	1.2867	4.0909	0.	0.36301
18509	1.1948	4.1818	0.	-0.26811
18510	1.2867	4.1818	5.e-002	19.567
18511	1.2867	3.9091	0.	0.3631
18512	1.1948	4.	0.	-0.2767
18513	1.2867	4.	5.e-002	19.665
18514	1.2867	3.7273	0.	0.36377
18515	1.1948	3.8182	0.	-0.28265
18516	1.2867	3.8182	5.e-002	19.779
18517	1.2867	3.5455	0.	0.36449
18518	1.1948	3.6364	0.	-0.28692
18519	1.2867	3.6364	5.e-002	19.886
18520	1.2867	3.3636	0.	0.36505
18521	1.1948	3.4545	0.	-0.28993
18522	1.2867	3.4545	5.e-002	19.972
18523	1.2867	3.1818	0.	0.36539
18524	1.1948	3.2727	0.	-0.29187
18525	1.2867	3.2727	5.e-002	20.032
18526	1.2867	3.	0.	0.3655
18527	1.1948	3.0909	0.	-0.29283
18528	1.2867	3.0909	5.e-002	20.062
18529	1.2867	2.8182	0.	0.36539
18530	1.1948	2.9091	0.	-0.29283
18531	1.2867	2.9091	5.e-002	20.062
18532	1.2867	2.6364	0.	0.36505
18533	1.1948	2.7273	0.	-0.29187
18534	1.2867	2.7273	5.e-002	20.032
18535	1.2867	2.4545	0.	0.36449
18536	1.1948	2.5455	0.	-0.28993
18537	1.2867	2.5455	5.e-002	19.972
18538	1.2867	2.2727	0.	0.36377
18539	1.1948	2.3636	0.	-0.28692
18540	1.2867	2.3636	5.e-002	19.886
18541	1.2867	2.0909	0.	0.3631
18542	1.1948	2.1818	0.	-0.28265
18543	1.2867	2.1818	5.e-002	19.779
18544	1.2867	1.9091	0.	0.36301
18545	1.1948	2.	0.	-0.2767
18546	1.2867	2.	5.e-002	19.665
18547	1.2867	1.7273	0.	0.36471
18548	1.1948	1.8182	0.	-0.26811
18549	1.2867	1.8182	5.e-002	19.567
18550	1.2867	1.5455	0.	0.37067
18551	1.1948	1.6364	0.	-0.25502
18552	1.2867	1.6364	5.e-002	19.52
18553	1.2867	1.3636	0.	0.38521
18554	1.1948	1.4545	0.	-0.23357
18555	1.2867	1.4545	5.e-002	19.575
18556	1.2867	1.1818	0.	0.41692
18557	1.1948	1.2727	0.	-0.19734
18558	1.2867	1.2727	5.e-002	19.778
18559	1.2867	1.	0.	0.47494
18560	1.1948	1.0909	0.	-0.1318
18561	1.2867	1.0909	5.e-002	20.145
18562	1.2867	0.81818	0.	0.59177
18563	1.1948	0.90909	0.	-2.5181e-002
18564	1.2867	0.90909	5.e-002	20.606
18565	1.2867	0.63636	0.	0.74809
18566	1.1948	0.72727	0.	0.19397
18567	1.2867	0.72727	5.e-002	20.961
18568	1.2867	0.45455	0.	1.359
18569	1.1948	0.54545	0.	0.45223
18570	1.2867	0.54545	5.e-002	20.906
18571	1.2867	0.27273	0.	3.6512
18572	1.1948	0.36364	0.	1.8885
18573	1.2867	0.36364	5.e-002	19.975
18574	1.1948	0.18182	0.	28.601
18575	1.2867	0.18182	5.e-002	28.412
18576	1.2867	9.0909e-002	0.	20.539
18577	1.1029	5.7273	0.	3.9889
18578	1.011	5.8182	0.	43.437
18579	1.1029	5.8182	5.e-002	29.106
18580	1.1029	5.9091	0.	33.877
18581	1.1029	5.5455	0.	0.71956
18582	1.011	5.6364	0.	3.312
18583	1.1029	5.6364	5.e-002	23.798
18584	1.1029	5.3636	0.	-0.166
18585	1.011	5.4545	0.	2.0006
18586	1.1029	5.4545	5.e-002	24.684
18587	1.1029	5.1818	0.	-0.45093
18588	1.011	5.2727	0.	1.8603
18589	1.1029	5.2727	5.e-002	24.196
18590	1.1029	5.	0.	-0.64706
18591	1.011	5.0909	0.	1.7236
18592	1.1029	5.0909	5.e-002	23.296
18593	1.1029	4.8182	0.	-0.75502
18594	1.011	4.9091	0.	1.6855
18595	1.1029	4.9091	5.e-002	22.458
18596	1.1029	4.6364	0.	-0.82166
18597	1.011	4.7273	0.	1.6732
18598	1.1029	4.7273	5.e-002	21.893
18599	1.1029	4.4545	0.	-0.86278
18600	1.011	4.5455	0.	1.6772
18601	1.1029	4.5455	5.e-002	21.608
18602	1.1029	4.2727	0.	-0.89013
18603	1.011	4.3636	0.	1.6853
18604	1.1029	4.3636	5.e-002	21.523
18605	1.1029	4.0909	0.	-0.90936
18606	1.011	4.1818	0.	1.6939
18607	1.1029	4.1818	5.e-002	21.549
18608	1.1029	3.9091	0.	-0.92353
18609	1.011	4.	0.	1.7012
18610	1.1029	4.	5.e-002	21.621
18611	1.1029	3.7273	0.	-0.93415
18612	1.011	3.8182	0.	1.7068
18613	1.1029	3.8182	5.e-002	21.704
18614	1.1029	3.5455	0.	-0.94197
18615	1.011	3.6364	0.	1.7109
18616	1.1029	3.6364	5.e-002	21.777
18617	1.1029	3.3636	0.	-0.94738
18618	1.011	3.4545	0.	1.7138
18619	1.1029	3.4545	5.e-002	21.833
18620	1.1029	3.1818	0.	-0.95056
18621	1.011	3.2727	0.	1.7155
18622	1.1029	3.2727	5.e-002	21.87
18623	1.1029	3.	0.	-0.95162
18624	1.011	3.0909	0.	1.7163
18625	1.1029	3.0909	5.e-002	21.888
18626	1.1029	2.8182	0.	-0.95056
18627	1.011	2.9091	0.	1.7163
18628	1.1029	2.9091	5.e-002	21.888
18629	1.1029	2.6364	0.	-0.94738
18630	1.011	2.7273	0.	1.7155
18631	1.1029	2.7273	5.e-002	21.87
18632	1.1029	2.4545	0.	-0.94197
18633	1.011	2.5455	0.	1.7138
18634	1.1029	2.5455	5.e-002	21.833
18635	1.1029	2.2727	0.	-0.93415
18636	1.011	2.3636	0.	1.7109
18637	1.1029	2.3636	5.e-002	21.777
18638	1.1029	2.0909	0.	-0.92353
18639	1.011	2.1818	0.	1.7068
18640	1.1029	2.1818	5.e-002	21.704
18641	1.1029	1.9091	0.	-0.90936
18642	1.011	2.	0.	1.7012
18643	1.1029	2.	5.e-002	21.621
18644	1.1029	1.7273	0.	-0.89013
18645	1.011	1.8182	0.	1.6939
18646	1.1029	1.8182	5.e-002	21.549
18647	1.1029	1.5455	0.	-0.86278
18648	1.011	1.6364	0.	1.6853
18649	1.1029	1.6364	5.e-002	21.523
18650	1.1029	1.3636	0.	-0.82166
18651	1.011	1.4545	0.	1.6772
18652	1.1029	1.4545	5.e-002	21.608
18653	1.1029	1.1818	0.	-0.75502
18654	1.011	1.2727	0.	1.6732
18655	1.1029	1.2727	5.e-002	21.893
18656	1.1029	1.	0.	-0.64706
18657	1.011	1.0909	0.	1.6855
18658	1.1029	1.0909	5.e-002	22.458
18659	1.1029	0.81818	0.	-0.45093
18660	1.011	0.90909	0.	1.7236
18661	1.1029	0.90909	5.e-002	23.296
18662	1.1029	0.63636	0.	-0.16601
18663	1.011	0.72727	0.	1.8603
18664	1.1029	0.72727	5.e-002	24.196
18665	1.1029	0.45455	0.	0.71956
18666	1.011	0.54545	0.	2.0006
18667	1.1029	0.54545	5.e-002	24.684
18668	1.1029	0.27273	0.	3.9889
18669	1.011	0.36364	0.	3.312
18670	1.1029	0.36364	5.e-002	23.798
18671	1.011	0.18182	0.	43.437
18672	1.1029	0.18182	5.e-002	29.106
18673	1.1029	9.0909e-002	0.	33.877
18674	0.91905	5.7273	0.	7.0676
18675	0.82714	5.8182	0.	61.612
18676	0.91905	5.8182	5.e-002	29.834
18677	0.91905	5.9091	0.	51.598
18678	0.91905	5.5455	0.	4.2577
18679	0.82714	5.6364	0.	-0.4072
18680	0.91905	5.6364	5.e-002	29.677
18681	0.91905	5.3636	0.	3.9451
18682	0.82714	5.4545	0.	-3.3329
18683	0.91905	5.4545	5.e-002	29.972
18684	0.91905	5.1818	0.	3.9992
18685	0.82714	5.2727	0.	-4.2055
18686	0.91905	5.2727	5.e-002	28.356
18687	0.91905	5.	0.	4.0374
18688	0.82714	5.0909	0.	-4.8295
18689	0.91905	5.0909	5.e-002	26.558
18690	0.91905	4.8182	0.	4.1032
18691	0.82714	4.9091	0.	-5.1945
18692	0.91905	4.9091	5.e-002	25.215
18693	0.91905	4.6364	0.	4.1659
18694	0.82714	4.7273	0.	-5.4457
18695	0.91905	4.7273	5.e-002	24.422
18696	0.91905	4.4545	0.	4.2216
18697	0.82714	4.5455	0.	-5.6224
18698	0.91905	4.5455	5.e-002	24.033
18699	0.91905	4.2727	0.	4.267
18700	0.82714	4.3636	0.	-5.7546
18701	0.91905	4.3636	5.e-002	23.874
18702	0.91905	4.0909	0.	4.3029
18703	0.82714	4.1818	0.	-5.8557
18704	0.91905	4.1818	5.e-002	23.822
18705	0.91905	3.9091	0.	4.3305
18706	0.82714	4.	0.	-5.9337
18707	0.91905	4.	5.e-002	23.809
18708	0.91905	3.7273	0.	4.3512
18709	0.82714	3.8182	0.	-5.9937
18710	0.91905	3.8182	5.e-002	23.805
18711	0.91905	3.5455	0.	4.3661
18712	0.82714	3.6364	0.	-6.0388
18713	0.91905	3.6364	5.e-002	23.8
18714	0.91905	3.3636	0.	4.3762
18715	0.82714	3.4545	0.	-6.071
18716	0.91905	3.4545	5.e-002	23.793
18717	0.91905	3.1818	0.	4.382
18718	0.82714	3.2727	0.	-6.0917
18719	0.91905	3.2727	5.e-002	23.785
18720	0.91905	3.	0.	4.3839
18721	0.82714	3.0909	0.	-6.1019
18722	0.91905	3.0909	5.e-002	23.781
18723	0.91905	2.8182	0.	4.382
18724	0.82714	2.9091	0.	-6.1019
18725	0.91905	2.9091	5.e-002	23.781
18726	0.91905	2.6364	0.	4.3762
18727	0.82714	2.7273	0.	-6.0917
18728	0.91905	2.7273	5.e-002	23.785
18729	0.91905	2.4545	0.	4.3661
18730	0.82714	2.5455	0.	-6.071
18731	0.91905	2.5455	5.e-002	23.793
18732	0.91905	2.2727	0.	4.3512
18733	0.82714	2.3636	0.	-6.0388
18734	0.91905	2.3636	5.e-002	23.8
18735	0.91905	2.0909	0.	4.3305
18736	0.82714	2.1818	0.	-5.9937
18737	0.91905	2.1818	5.e-002	23.805
18738	0.91905	1.9091	0.	4.3029
18739	0.82714	2.	0.	-5.9337
18740	0.91905	2.	5.e-002	23.809
18741	0.91905	1.7273	0.	4.267
18742	0.82714	1.8182	0.	-5.8557
18743	0.91905	1.8182	5.e-002	23.822
18744	0.91905	1.5455	0.	4.2216
18745	0.82714	1.6364	0.	-5.7546
18746	0.91905	1.6364	5.e-002	23.874
18747	0.91905	1.3636	0.	4.1659
18748	0.82714	1.4545	0.	-5.6224
18749	0.91905	1.4545	5.e-002	24.034
18750	0.91905	1.1818	0.	4.1032
18751	0.82714	1.2727	0.	-5.4457
18752	0.91905	1.2727	5.e-002	24.422
18753	0.91905	1.	0.	4.0374
18754	0.82714	1.0909	0.	-5.1945
18755	0.91905	1.0909	5.e-002	25.215
18756	0.91905	0.81818	0.	3.9992
18757	0.82714	0.90909	0.	-4.8295
18758	0.91905	0.90909	5.e-002	26.558
18759	0.91905	0.63636	0.	3.9451
18760	0.82714	0.72727	0.	-4.2055
18761	0.91905	0.72727	5.e-002	28.356
18762	0.91905	0.45455	0.	4.2577
18763	0.82714	0.54545	0.	-3.3329
18764	0.91905	0.54545	5.e-002	29.972
18765	0.91905	0.27273	0.	7.0676
18766	0.82714	0.36364	0.	-0.4072
18767	0.91905	0.36364	5.e-002	29.677
18768	0.82714	0.18182	0.	61.612
18769	0.91905	0.18182	5.e-002	29.834
18770	0.91905	9.0909e-002	0.	51.598
18771	0.73524	5.7273	0.	0.40155
18772	0.64333	5.8182	0.	87.002
18773	0.73524	5.8182	5.e-002	32.167
18774	0.73524	5.9091	0.	72.845
18775	0.73524	5.5455	0.	-8.4432
18776	0.64333	5.6364	0.	17.39
18777	0.73524	5.6364	5.e-002	38.98
18778	0.73524	5.3636	0.	-11.593
18779	0.64333	5.4545	0.	19.306
18780	0.73524	5.4545	5.e-002	37.299
18781	0.73524	5.1818	0.	-13.081
18782	0.64333	5.2727	0.	20.728
18783	0.73524	5.2727	5.e-002	33.588
18784	0.73524	5.	0.	-14.085
18785	0.64333	5.0909	0.	21.723
18786	0.73524	5.0909	5.e-002	30.577
18787	0.73524	4.8182	0.	-14.755
18788	0.64333	4.9091	0.	22.522
18789	0.73524	4.9091	5.e-002	28.72
18790	0.73524	4.6364	0.	-15.24
18791	0.64333	4.7273	0.	23.129
18792	0.73524	4.7273	5.e-002	27.72
18793	0.73524	4.4545	0.	-15.602
18794	0.64333	4.5455	0.	23.599
18795	0.73524	4.5455	5.e-002	27.191
18796	0.73524	4.2727	0.	-15.879
18797	0.64333	4.3636	0.	23.963
18798	0.73524	4.3636	5.e-002	26.878
18799	0.73524	4.0909	0.	-16.094
18800	0.64333	4.1818	0.	24.246
18801	0.73524	4.1818	5.e-002	26.656
18802	0.73524	3.9091	0.	-16.259
18803	0.64333	4.	0.	24.466
18804	0.73524	4.	5.e-002	26.474
18805	0.73524	3.7273	0.	-16.384
18806	0.64333	3.8182	0.	24.634
18807	0.73524	3.8182	5.e-002	26.316
18808	0.73524	3.5455	0.	-16.476
18809	0.64333	3.6364	0.	24.76
18810	0.73524	3.6364	5.e-002	26.182
18811	0.73524	3.3636	0.	-16.539
18812	0.64333	3.4545	0.	24.849
18813	0.73524	3.4545	5.e-002	26.075
18814	0.73524	3.1818	0.	-16.576
18815	0.64333	3.2727	0.	24.907
18816	0.73524	3.2727	5.e-002	26.001
18817	0.73524	3.	0.	-16.588
18818	0.64333	3.0909	0.	24.935
18819	0.73524	3.0909	5.e-002	25.963
18820	0.73524	2.8182	0.	-16.576
18821	0.64333	2.9091	0.	24.935
18822	0.73524	2.9091	5.e-002	25.963
18823	0.73524	2.6364	0.	-16.539
18824	0.64333	2.7273	0.	24.907
18825	0.73524	2.7273	5.e-002	26.001
18826	0.73524	2.4545	0.	-16.476
18827	0.64333	2.5455	0.	24.849
18828	0.73524	2.5455	5.e-002	26.075
18829	0.73524	2.2727	0.	-16.384
18830	0.64333	2.3636	0.	24.76
18831	0.73524	2.3636	5.e-002	26.182
18832	0.73524	2.0909	0.	-16.259
18833	0.64333	2.1818	0.	24.634
18834	0.73524	2.1818	5.e-002	26.316
18835	0.73524	1.9091	0.	-16.094
18836	0.64333	2.	0.	24.466
18837	0.73524	2.	5.e-002	26.474
18838	0.73524	1.7273	0.	-15.879
18839	0.64333	1.8182	0.	24.246
18840	0.73524	1.8182	5.e-002	26.656
18841	0.73524	1.5455	0.	-15.602
18842	0.64333	1.6364	0.	23.963
18843	0.73524	1.6364	5.e-002	26.878
18844	0.73524	1.3636	0.	-15.24
18845	0.64333	1.4545	0.	23.599
18846	0.73524	1.4545	5.e-002	27.191
18847	0.73524	1.1818	0.	-14.755
18848	0.64333	1.2727	0.	23.129
18849	0.73524	1.2727	5.e-002	27.72
18850	0.73524	1.	0.	-14.085
18851	0.64333	1.0909	0.	22.522
18852	0.73524	1.0909	5.e-002	28.72
18853	0.73524	0.81818	0.	-13.081
18854	0.64333	0.90909	0.	21.723
18855	0.73524	0.90909	5.e-002	30.577
18856	0.73524	0.63636	0.	-11.593
18857	0.64333	0.72727	0.	20.728
18858	0.73524	0.72727	5.e-002	33.588
18859	0.73524	0.45455	0.	-8.4432
18860	0.64333	0.54545	0.	19.306
18861	0.73524	0.54545	5.e-002	37.299
18862	0.73524	0.27273	0.	0.40154
18863	0.64333	0.36364	0.	17.39
18864	0.73524	0.36364	5.e-002	38.98
18865	0.64333	0.18182	0.	87.002
18866	0.73524	0.18182	5.e-002	32.167
18867	0.73524	9.0909e-002	0.	72.845
18868	0.55143	5.7273	0.	33.784
18869	0.45952	5.8182	0.	95.933
18870	0.55143	5.8182	5.e-002	40.266
18871	0.55143	5.9091	0.	107.51
18872	0.55143	5.5455	0.	44.574
18873	0.45952	5.6364	0.	-48.843
18874	0.55143	5.6364	5.e-002	54.013
18875	0.55143	5.3636	0.	51.479
18876	0.45952	5.4545	0.	-67.306
18877	0.55143	5.4545	5.e-002	46.993
18878	0.55143	5.1818	0.	55.474
18879	0.45952	5.2727	0.	-76.547
18880	0.55143	5.2727	5.e-002	39.725
18881	0.55143	5.	0.	58.304
18882	0.45952	5.0909	0.	-82.378
18883	0.55143	5.0909	5.e-002	35.239
18884	0.55143	4.8182	0.	60.395
18885	0.45952	4.9091	0.	-86.415
18886	0.55143	4.9091	5.e-002	32.749
18887	0.55143	4.6364	0.	61.963
18888	0.45952	4.7273	0.	-89.346
18889	0.55143	4.7273	5.e-002	31.333
18890	0.55143	4.4545	0.	63.161
18891	0.45952	4.5455	0.	-91.55
18892	0.55143	4.5455	5.e-002	30.398
18893	0.55143	4.2727	0.	64.087
18894	0.45952	4.3636	0.	-93.236
18895	0.55143	4.3636	5.e-002	29.686
18896	0.55143	4.0909	0.	64.804
18897	0.45952	4.1818	0.	-94.539
18898	0.55143	4.1818	5.e-002	29.097
18899	0.55143	3.9091	0.	65.357
18900	0.45952	4.	0.	-95.545
18901	0.55143	4.	5.e-002	28.599
18902	0.55143	3.7273	0.	65.777
18903	0.45952	3.8182	0.	-96.315
18904	0.55143	3.8182	5.e-002	28.181
18905	0.55143	3.5455	0.	66.085
18906	0.45952	3.6364	0.	-96.891
18907	0.55143	3.6364	5.e-002	27.844
18908	0.55143	3.3636	0.	66.295
18909	0.45952	3.4545	0.	-97.301
18910	0.55143	3.4545	5.e-002	27.589
18911	0.55143	3.1818	0.	66.418
18912	0.45952	3.2727	0.	-97.564
18913	0.55143	3.2727	5.e-002	27.418
18914	0.55143	3.	0.	66.458
18915	0.45952	3.0909	0.	-97.693
18916	0.55143	3.0909	5.e-002	27.333
18917	0.55143	2.8182	0.	66.418
18918	0.45952	2.9091	0.	-97.693
18919	0.55143	2.9091	5.e-002	27.333
18920	0.55143	2.6364	0.	66.295
18921	0.45952	2.7273	0.	-97.564
18922	0.55143	2.7273	5.e-002	27.418
18923	0.55143	2.4545	0.	66.085
18924	0.45952	2.5455	0.	-97.301
18925	0.55143	2.5455	5.e-002	27.589
18926	0.55143	2.2727	0.	65.777
18927	0.45952	2.3636	0.	-96.891
18928	0.55143	2.3636	5.e-002	27.844
18929	0.55143	2.0909	0.	65.357
18930	0.45952	2.1818	0.	-96.315
18931	0.55143	2.1818	5.e-002	28.181
18932	0.55143	1.9091	0.	64.804
18933	0.45952	2.	0.	-95.545
18934	0.55143	2.	5.e-002	28.599
18935	0.55143	1.7273	0.	64.087
18936	0.45952	1.8182	0.	-94.539
18937	0.55143	1.8182	5.e-002	29.097
18938	0.55143	1.5455	0.	63.161
18939	0.45952	1.6364	0.	-93.236
18940	0.55143	1.6364	5.e-002	29.686
18941	0.55143	1.3636	0.	61.963
18942	0.45952	1.4545	0.	-91.55
18943	0.55143	1.4545	5.e-002	30.398
18944	0.55143	1.1818	0.	60.395
18945	0.45952	1.2727	0.	-89.346
18946	0.55143	1.2727	5.e-002	31.333
18947	0.55143	1.	0.	58.304
18948	0.45952	1.0909	0.	-86.415
18949	0.55143	1.0909	5.e-002	32.749
18950	0.55143	0.81818	0.	55.474
18951	0.45952	0.90909	0.	-82.378
18952	0.55143	0.90909	5.e-002	35.239
18953	0.55143	0.63636	0.	51.479
18954	0.45952	0.72727	0.	-76.547
18955	0.55143	0.72727	5.e-002	39.725
18956	0.55143	0.45455	0.	44.574
18957	0.45952	0.54545	0.	-67.306
18958	0.55143	0.54545	5.e-002	46.993
18959	0.55143	0.27273	0.	33.784
18960	0.45952	0.36364	0.	-48.843
18961	0.55143	0.36364	5.e-002	54.013
18962	0.45952	0.18182	0.	95.933
18963	0.55143	0.18182	5.e-002	40.266
18964	0.55143	9.0909e-002	0.	107.51
18965	0.36762	5.7273	0.	-90.44
18966	0.27571	5.8182	0.	164.63
18967	0.36762	5.8182	5.e-002	70.405
18968	0.36762	5.9091	0.	132.36
18969	0.36762	5.5455	0.	-161.71
18970	0.27571	5.6364	0.	235.77
18971	0.36762	5.6364	5.e-002	78.146
18972	0.36762	5.3636	0.	-195.55
18973	0.27571	5.4545	0.	279.61
18974	0.36762	5.4545	5.e-002	59.489
18975	0.36762	5.1818	0.	-214.47
18976	0.27571	5.2727	0.	310.84
18977	0.36762	5.2727	5.e-002	48.947
18978	0.36762	5.	0.	-227.12
18979	0.27571	5.0909	0.	330.84
18980	0.36762	5.0909	5.e-002	43.528
18981	0.36762	4.8182	0.	-236.16
18982	0.27571	4.9091	0.	345.41
18983	0.36762	4.9091	5.e-002	40.639
18984	0.36762	4.6364	0.	-242.86
18985	0.27571	4.7273	0.	356.13
18986	0.36762	4.7273	5.e-002	38.686
18987	0.36762	4.4545	0.	-247.95
18988	0.27571	4.5455	0.	364.29
18989	0.36762	4.5455	5.e-002	37.172
18990	0.36762	4.2727	0.	-251.86
18991	0.27571	4.3636	0.	370.56
18992	0.36762	4.3636	5.e-002	35.924
18993	0.36762	4.0909	0.	-254.89
18994	0.27571	4.1818	0.	375.43
18995	0.36762	4.1818	5.e-002	34.882
18996	0.36762	3.9091	0.	-257.22
18997	0.27571	4.	0.	379.21
18998	0.36762	4.	5.e-002	34.016
18999	0.36762	3.7273	0.	-258.98
19000	0.27571	3.8182	0.	382.1
19001	0.36762	3.8182	5.e-002	33.312
19002	0.36762	3.5455	0.	-260.27
19003	0.27571	3.6364	0.	384.27
19004	0.36762	3.6364	5.e-002	32.76
19005	0.36762	3.3636	0.	-261.16
19006	0.27571	3.4545	0.	385.81
19007	0.36762	3.4545	5.e-002	32.352
19008	0.36762	3.1818	0.	-261.67
19009	0.27571	3.2727	0.	386.81
19010	0.36762	3.2727	5.e-002	32.084
19011	0.36762	3.	0.	-261.84
19012	0.27571	3.0909	0.	387.29
19013	0.36762	3.0909	5.e-002	31.95
19014	0.36762	2.8182	0.	-261.67
19015	0.27571	2.9091	0.	387.29
19016	0.36762	2.9091	5.e-002	31.95
19017	0.36762	2.6364	0.	-261.16
19018	0.27571	2.7273	0.	386.81
19019	0.36762	2.7273	5.e-002	32.084
19020	0.36762	2.4545	0.	-260.27
19021	0.27571	2.5455	0.	385.81
19022	0.36762	2.5455	5.e-002	32.352
19023	0.36762	2.2727	0.	-258.98
19024	0.27571	2.3636	0.	384.27
19025	0.36762	2.3636	5.e-002	32.76
19026	0.36762	2.0909	0.	-257.22
19027	0.27571	2.1818	0.	382.1
19028	0.36762	2.1818	5.e-002	33.312
19029	0.36762	1.9091	0.	-254.89
19030	0.27571	2.	0.	379.21
19031	0.36762	2.	5.e-002	34.016
19032	0.36762	1.7273	0.	-251.86
19033	0.27571	1.8182	0.	375.43
19034	0.36762	1.8182	5.e-002	34.882
19035	0.36762	1.5455	0.	-247.95
19036	0.27571	1.6364	0.	370.56
19037	0.36762	1.6364	5.e-002	35.925
19038	0.36762	1.3636	0.	-242.86
19039	0.27571	1.4545	0.	364.29
19040	0.36762	1.4545	5.e-002	37.172
19041	0.36762	1.1818	0.	-236.16
19042	0.27571	1.2727	0.	356.13
19043	0.36762	1.2727	5.e-002	38.686
19044	0.36762	1.	0.	-227.12
19045	0.27571	1.0909	0.	345.41
19046	0.36762	1.0909	5.e-002	40.639
19047	0.36762	0.81818	0.	-214.47
19048	0.27571	0.90909	0.	330.84
19049	0.36762	0.90909	5.e-002	43.528
19050	0.36762	0.63636	0.	-195.55
19051	0.27571	0.72727	0.	310.84
19052	0.36762	0.72727	5.e-002	48.947
19053	0.36762	0.45455	0.	-161.71
19054	0.27571	0.54545	0.	279.61
19055	0.36762	0.54545	5.e-002	59.489
19056	0.36762	0.27273	0.	-90.44
19057	0.27571	0.36364	0.	235.77
19058	0.36762	0.36364	5.e-002	78.146
19059	0.27571	0.18182	0.	164.63
19060	0.36762	0.18182	5.e-002	70.405
19061	0.36762	9.0909e-002	0.	132.36
19062	0.18381	5.7273	0.	448.18
19063	0.18381	5.8182	5.e-002	169.98
19064	0.18381	5.9091	0.	223.04
19065	9.1905e-002	5.8182	0.	-399.99
19066	0.18381	5.5455	0.	676.36
19067	0.18381	5.6364	5.e-002	108.3
19068	9.1905e-002	5.6364	0.	-831.28
19069	0.18381	5.3636	0.	785.94
19070	0.18381	5.4545	5.e-002	73.534
19071	9.1905e-002	5.4545	0.	-1028.5
19072	0.18381	5.1818	0.	856.18
19073	0.18381	5.2727	5.e-002	56.305
19074	9.1905e-002	5.2727	0.	-1145.
19075	0.18381	5.	0.	903.4
19076	0.18381	5.0909	5.e-002	47.36
19077	9.1905e-002	5.0909	0.	-1223.6
19078	0.18381	4.8182	0.	937.73
19079	0.18381	4.9091	5.e-002	41.252
19080	9.1905e-002	4.9091	0.	-1279.5
19081	0.18381	4.6364	0.	963.3
19082	0.18381	4.7273	5.e-002	36.798
19083	9.1905e-002	4.7273	0.	-1320.9
19084	0.18381	4.4545	0.	982.82
19085	0.18381	4.5455	5.e-002	33.4
19086	9.1905e-002	4.5455	0.	-1352.4
19087	0.18381	4.2727	0.	997.87
19088	0.18381	4.3636	5.e-002	30.749
19089	9.1905e-002	4.3636	0.	-1376.6
19090	0.18381	4.0909	0.	1009.5
19091	0.18381	4.1818	5.e-002	28.662
19092	9.1905e-002	4.1818	0.	-1395.4
19093	0.18381	3.9091	0.	1018.5
19094	0.18381	4.	5.e-002	27.02
19095	9.1905e-002	4.	0.	-1410.
19096	0.18381	3.7273	0.	1025.4
19097	0.18381	3.8182	5.e-002	25.743
19098	9.1905e-002	3.8182	0.	-1421.2
19099	0.18381	3.5455	0.	1030.4
19100	0.18381	3.6364	5.e-002	24.776
19101	9.1905e-002	3.6364	0.	-1429.5
19102	0.18381	3.3636	0.	1033.8
19103	0.18381	3.4545	5.e-002	24.08
19104	9.1905e-002	3.4545	0.	-1435.5
19105	0.18381	3.1818	0.	1035.8
19106	0.18381	3.2727	5.e-002	23.629
19107	9.1905e-002	3.2727	0.	-1439.3
19108	0.18381	3.	0.	1036.4
19109	0.18381	3.0909	5.e-002	23.407
19110	9.1905e-002	3.0909	0.	-1441.2
19111	0.18381	2.8182	0.	1035.8
19112	0.18381	2.9091	5.e-002	23.407
19113	9.1905e-002	2.9091	0.	-1441.2
19114	0.18381	2.6364	0.	1033.8
19115	0.18381	2.7273	5.e-002	23.629
19116	9.1905e-002	2.7273	0.	-1439.3
19117	0.18381	2.4545	0.	1030.4
19118	0.18381	2.5455	5.e-002	24.08
19119	9.1905e-002	2.5455	0.	-1435.5
19120	0.18381	2.2727	0.	1025.4
19121	0.18381	2.3636	5.e-002	24.776
19122	9.1905e-002	2.3636	0.	-1429.5
19123	0.18381	2.0909	0.	1018.5
19124	0.18381	2.1818	5.e-002	25.743
19125	9.1905e-002	2.1818	0.	-1421.2
19126	0.18381	1.9091	0.	1009.5
19127	0.18381	2.	5.e-002	27.02
19128	9.1905e-002	2.	0.	-1410.
19129	0.18381	1.7273	0.	997.87
19130	0.18381	1.8182	5.e-002	28.662
19131	9.1905e-002	1.8182	0.	-1395.4
19132	0.18381	1.5455	0.	982.82
19133	0.18381	1.6364	5.e-002	30.749
19134	9.1905e-002	1.6364	0.	-1376.6
19135	0.18381	1.3636	0.	963.3
19136	0.18381	1.4545	5.e-002	33.4
19137	9.1905e-002	1.4545	0.	-1352.4
19138	0.18381	1.1818	0.	937.73
19139	0.18381	1.2727	5.e-002	36.798
19140	9.1905e-002	1.2727	0.	-1320.9
19141	0.18381	1.	0.	903.4
19142	0.18381	1.0909	5.e-002	41.252
19143	9.1905e-002	1.0909	0.	-1279.5
19144	0.18381	0.81818	0.	856.18
19145	0.18381	0.90909	5.e-002	47.36
19146	9.1905e-002	0.90909	0.	-1223.6
19147	0.18381	0.63636	0.	785.94
19148	0.18381	0.72727	5.e-002	56.305
19149	9.1905e-002	0.72727	0.	-1145.
19150	0.18381	0.45455	0.	676.36
19151	0.18381	0.54545	5.e-002	73.534
19152	9.1905e-002	0.54545	0.	-1028.5
19153	0.18381	0.27273	0.	448.18
19154	0.18381	0.36364	5.e-002	108.3
19155	9.1905e-002	0.36364	0.	-831.28
19156	0.18381	0.18182	5.e-002	169.98
19157	0.18381	9.0909e-002	0.	223.04
19158	9.1905e-002	0.18182	0.	-399.99
19159	19.648	0.27273	0.	31.23
19160	19.739	0.18182	0.	18.504
19161	19.648	0.18182	5.e-002	11.727
19162	19.648	9.0909e-002	0.	8.6099
19163	19.557	0.18182	0.	9.3317
19164	19.648	0.45455	0.	56.581
19165	19.739	0.36364	0.	27.116
19166	19.648	0.36364	5.e-002	10.775
19167	19.557	0.36364	0.	27.204
19168	19.648	0.63636	0.	90.871
19169	19.739	0.54545	0.	50.019
19170	19.648	0.54545	5.e-002	11.805
19171	19.557	0.54545	0.	52.299
19172	19.648	0.81818	0.	131.05
19173	19.739	0.72727	0.	79.408
19174	19.648	0.72727	5.e-002	13.653
19175	19.557	0.72727	0.	81.198
19176	19.648	1.	0.	178.05
19177	19.739	0.90909	0.	113.36
19178	19.648	0.90909	5.e-002	16.35
19179	19.557	0.90909	0.	114.64
19180	19.648	1.1818	0.	234.62
19181	19.739	1.0909	0.	151.79
19182	19.648	1.0909	5.e-002	20.142
19183	19.557	1.0909	0.	154.5
19184	19.648	1.3636	0.	303.13
19185	19.739	1.2727	0.	195.46
19186	19.648	1.2727	5.e-002	25.874
19187	19.557	1.2727	0.	203.69
19188	19.648	1.5455	0.	396.4
19189	19.739	1.4545	0.	241.16
19190	19.648	1.4545	5.e-002	33.526
19191	19.557	1.4545	0.	270.2
19192	19.648	1.7273	0.	454.81
19193	19.739	1.6364	0.	291.31
19194	19.648	1.6364	5.e-002	50.955
19195	19.557	1.6364	0.	337.28
19196	19.648	1.9091	0.	346.44
19197	19.739	1.8182	0.	280.42
19198	19.648	1.8182	5.e-002	88.74
19199	19.557	1.8182	0.	547.45
19200	19.648	2.0909	0.	164.93
19201	19.739	2.	0.	132.29
19202	19.648	2.	5.e-002	152.57
19203	19.557	2.	0.	248.36
19204	19.648	2.2727	0.	163.74
19205	19.739	2.1818	0.	88.595
19206	19.648	2.1818	5.e-002	99.977
19207	19.648	2.4545	0.	197.24
19208	19.739	2.3636	0.	127.36
19209	19.648	2.3636	5.e-002	42.618
19210	19.648	2.6364	0.	198.07
19211	19.739	2.5455	0.	143.71
19212	19.648	2.5455	5.e-002	23.753
19213	19.648	2.8182	0.	197.41
19214	19.739	2.7273	0.	151.33
19215	19.648	2.7273	5.e-002	14.673
19216	19.648	3.	0.	196.64
19217	19.739	2.9091	0.	153.97
19218	19.648	2.9091	5.e-002	11.602
19219	19.648	3.1818	0.	197.41
19220	19.739	3.0909	0.	153.97
19221	19.648	3.0909	5.e-002	11.602
19222	19.648	3.3636	0.	198.07
19223	19.739	3.2727	0.	151.33
19224	19.648	3.2727	5.e-002	14.673
19225	19.648	3.5455	0.	197.24
19226	19.739	3.4545	0.	143.71
19227	19.648	3.4545	5.e-002	23.753
19228	19.648	3.7273	0.	163.74
19229	19.739	3.6364	0.	127.36
19230	19.648	3.6364	5.e-002	42.617
19231	19.648	3.9091	0.	164.93
19232	19.739	3.8182	0.	88.595
19233	19.648	3.8182	5.e-002	99.977
19234	19.648	4.0909	0.	346.44
19235	19.739	4.	0.	132.29
19236	19.648	4.	5.e-002	152.57
19237	19.557	4.	0.	248.36
19238	19.648	4.2727	0.	454.81
19239	19.739	4.1818	0.	280.42
19240	19.648	4.1818	5.e-002	88.74
19241	19.557	4.1818	0.	547.45
19242	19.648	4.4545	0.	396.4
19243	19.739	4.3636	0.	291.31
19244	19.648	4.3636	5.e-002	50.955
19245	19.557	4.3636	0.	337.28
19246	19.648	4.6364	0.	303.13
19247	19.739	4.5455	0.	241.16
19248	19.648	4.5455	5.e-002	33.526
19249	19.557	4.5455	0.	270.2
19250	19.648	4.8182	0.	234.62
19251	19.739	4.7273	0.	195.46
19252	19.648	4.7273	5.e-002	25.874
19253	19.557	4.7273	0.	203.69
19254	19.648	5.	0.	178.05
19255	19.739	4.9091	0.	151.79
19256	19.648	4.9091	5.e-002	20.142
19257	19.557	4.9091	0.	154.5
19258	19.648	5.1818	0.	131.05
19259	19.739	5.0909	0.	113.36
19260	19.648	5.0909	5.e-002	16.35
19261	19.557	5.0909	0.	114.64
19262	19.648	5.3636	0.	90.871
19263	19.739	5.2727	0.	79.408
19264	19.648	5.2727	5.e-002	13.653
19265	19.557	5.2727	0.	81.198
19266	19.648	5.5455	0.	56.581
19267	19.739	5.4545	0.	50.019
19268	19.648	5.4545	5.e-002	11.805
19269	19.557	5.4545	0.	52.299
19270	19.648	5.7273	0.	31.23
19271	19.739	5.6364	0.	27.117
19272	19.648	5.6364	5.e-002	10.775
19273	19.557	5.6364	0.	27.204
19274	19.739	5.8182	0.	18.504
19275	19.648	5.8182	5.e-002	11.727
19276	19.648	5.9091	0.	8.6099
19277	19.557	5.8182	0.	9.3317
19278	19.829	0.27273	0.	17.792
19279	19.92	0.18182	0.	17.632
19280	19.829	0.18182	5.e-002	9.9101
19281	19.829	9.0909e-002	0.	7.5493
19282	19.829	0.45455	0.	26.118
19283	19.92	0.36364	0.	16.043
19284	19.829	0.36364	5.e-002	8.447
19285	19.829	0.63636	0.	44.606
19286	19.92	0.54545	0.	25.448
19287	19.829	0.54545	5.e-002	8.6564
19288	19.829	0.81818	0.	68.068
19289	19.92	0.72727	0.	40.722
19290	19.829	0.72727	5.e-002	9.3411
19291	19.829	1.	0.	94.172
19292	19.92	0.90909	0.	58.811
19293	19.829	0.90909	5.e-002	10.483
19294	19.829	1.1818	0.	121.17
19295	19.92	1.0909	0.	77.277
19296	19.829	1.0909	5.e-002	12.175
19297	19.829	1.3636	0.	144.39
19298	19.92	1.2727	0.	93.164
19299	19.829	1.2727	5.e-002	14.311
19300	19.829	1.5455	0.	152.04
19301	19.92	1.4545	0.	99.982
19302	19.829	1.4545	5.e-002	18.208
19303	19.829	1.7273	0.	130.22
19304	19.92	1.6364	0.	86.217
19305	19.829	1.6364	5.e-002	20.834
19306	19.829	1.9091	0.	60.881
19307	19.92	1.8182	0.	46.734
19308	19.829	1.8182	5.e-002	31.52
19309	19.829	2.0909	0.	18.064
19310	19.92	2.	0.	8.961
19311	19.829	2.	5.e-002	30.937
19312	19.829	2.2727	0.	31.97
19313	19.92	2.1818	0.	5.8996
19314	19.829	2.1818	5.e-002	45.492
19315	19.829	2.4545	0.	67.076
19316	19.92	2.3636	0.	17.202
19317	19.829	2.3636	5.e-002	34.805
19318	19.829	2.6364	0.	93.029
19319	19.92	2.5455	0.	43.159
19320	19.829	2.5455	5.e-002	25.731
19321	19.829	2.8182	0.	104.85
19322	19.92	2.7273	0.	60.445
19323	19.829	2.7273	5.e-002	18.826
19324	19.829	3.	0.	108.43
19325	19.92	2.9091	0.	68.623
19326	19.829	2.9091	5.e-002	15.824
19327	19.829	3.1818	0.	104.85
19328	19.92	3.0909	0.	68.623
19329	19.829	3.0909	5.e-002	15.824
19330	19.829	3.3636	0.	93.029
19331	19.92	3.2727	0.	60.445
19332	19.829	3.2727	5.e-002	18.826
19333	19.829	3.5455	0.	67.076
19334	19.92	3.4545	0.	43.159
19335	19.829	3.4545	5.e-002	25.73
19336	19.829	3.7273	0.	31.97
19337	19.92	3.6364	0.	17.202
19338	19.829	3.6364	5.e-002	34.805
19339	19.829	3.9091	0.	18.064
19340	19.92	3.8182	0.	5.8996
19341	19.829	3.8182	5.e-002	45.492
19342	19.829	4.0909	0.	60.882
19343	19.92	4.	0.	8.961
19344	19.829	4.	5.e-002	30.937
19345	19.829	4.2727	0.	130.22
19346	19.92	4.1818	0.	46.735
19347	19.829	4.1818	5.e-002	31.52
19348	19.829	4.4545	0.	152.04
19349	19.92	4.3636	0.	86.217
19350	19.829	4.3636	5.e-002	20.834
19351	19.829	4.6364	0.	144.4
19352	19.92	4.5455	0.	99.982
19353	19.829	4.5455	5.e-002	18.208
19354	19.829	4.8182	0.	121.17
19355	19.92	4.7273	0.	93.164
19356	19.829	4.7273	5.e-002	14.311
19357	19.829	5.	0.	94.172
19358	19.92	4.9091	0.	77.277
19359	19.829	4.9091	5.e-002	12.175
19360	19.829	5.1818	0.	68.068
19361	19.92	5.0909	0.	58.811
19362	19.829	5.0909	5.e-002	10.483
19363	19.829	5.3636	0.	44.607
19364	19.92	5.2727	0.	40.722
19365	19.829	5.2727	5.e-002	9.3411
19366	19.829	5.5455	0.	26.118
19367	19.92	5.4545	0.	25.448
19368	19.829	5.4545	5.e-002	8.6564
19369	19.829	5.7273	0.	17.792
19370	19.92	5.6364	0.	16.043
19371	19.829	5.6364	5.e-002	8.447
19372	19.92	5.8182	0.	17.632
19373	19.829	5.8182	5.e-002	9.9101
19374	19.829	5.9091	0.	7.5493
19375	20.011	0.27273	0.	16.8
19376	20.101	0.18182	0.	19.017
19377	20.011	0.18182	5.e-002	8.8074
19378	20.011	9.0909e-002	0.	9.6447
19379	20.011	0.45455	0.	17.786
19380	20.101	0.36364	0.	14.814
19381	20.011	0.36364	5.e-002	7.2238
19382	20.011	0.63636	0.	25.461
19383	20.101	0.54545	0.	17.109
19384	20.011	0.54545	5.e-002	7.3612
19385	20.011	0.81818	0.	36.311
19386	20.101	0.72727	0.	22.538
19387	20.011	0.72727	5.e-002	7.7892
19388	20.011	1.	0.	47.498
19389	20.101	0.90909	0.	28.921
19390	20.011	0.90909	5.e-002	8.4366
19391	20.011	1.1818	0.	55.59
19392	20.101	1.0909	0.	33.645
19393	20.011	1.0909	5.e-002	9.2869
19394	20.011	1.3636	0.	55.744
19395	20.101	1.2727	0.	33.281
19396	20.011	1.2727	5.e-002	10.371
19397	20.011	1.5455	0.	40.856
19398	20.101	1.4545	0.	23.99
19399	20.011	1.4545	5.e-002	11.456
19400	20.011	1.7273	0.	11.093
19401	20.101	1.6364	0.	6.9985
19402	20.011	1.6364	5.e-002	12.909
19403	20.011	1.9091	0.	-0.99385
19404	20.101	1.8182	0.	1.1138
19405	20.011	1.8182	5.e-002	16.41
19406	20.011	2.0909	0.	-2.4181
19407	20.101	2.	0.	-0.98822
19408	20.011	2.	5.e-002	20.835
19409	20.011	2.2727	0.	0.86429
19410	20.101	2.1818	0.	-0.10035
19411	20.011	2.1818	5.e-002	24.004
19412	20.011	2.4545	0.	3.5102
19413	20.101	2.3636	0.	1.7172
19414	20.011	2.3636	5.e-002	25.537
19415	20.011	2.6364	0.	8.4188
19416	20.101	2.5455	0.	1.3976
19417	20.011	2.5455	5.e-002	22.079
19418	20.011	2.8182	0.	20.525
19419	20.101	2.7273	0.	1.2676
19420	20.011	2.7273	5.e-002	19.082
19421	20.011	3.	0.	25.245
19422	20.101	2.9091	0.	0.62317
19423	20.011	2.9091	5.e-002	17.295
19424	20.011	3.1818	0.	20.525
19425	20.101	3.0909	0.	0.62317
19426	20.011	3.0909	5.e-002	17.295
19427	20.011	3.3636	0.	8.4188
19428	20.101	3.2727	0.	1.2676
19429	20.011	3.2727	5.e-002	19.082
19430	20.011	3.5455	0.	3.5102
19431	20.101	3.4545	0.	1.3976
19432	20.011	3.4545	5.e-002	22.079
19433	20.011	3.7273	0.	0.86429
19434	20.101	3.6364	0.	1.7172
19435	20.011	3.6364	5.e-002	25.537
19436	20.011	3.9091	0.	-2.4181
19437	20.101	3.8182	0.	-0.10036
19438	20.011	3.8182	5.e-002	24.004
19439	20.011	4.0909	0.	-0.99385
19440	20.101	4.	0.	-0.98821
19441	20.011	4.	5.e-002	20.835
19442	20.011	4.2727	0.	11.093
19443	20.101	4.1818	0.	1.1138
19444	20.011	4.1818	5.e-002	16.41
19445	20.011	4.4545	0.	40.857
19446	20.101	4.3636	0.	6.9986
19447	20.011	4.3636	5.e-002	12.909
19448	20.011	4.6364	0.	55.744
19449	20.101	4.5455	0.	23.99
19450	20.011	4.5455	5.e-002	11.456
19451	20.011	4.8182	0.	55.59
19452	20.101	4.7273	0.	33.281
19453	20.011	4.7273	5.e-002	10.371
19454	20.011	5.	0.	47.498
19455	20.101	4.9091	0.	33.645
19456	20.011	4.9091	5.e-002	9.2869
19457	20.011	5.1818	0.	36.311
19458	20.101	5.0909	0.	28.922
19459	20.011	5.0909	5.e-002	8.4366
19460	20.011	5.3636	0.	25.461
19461	20.101	5.2727	0.	22.538
19462	20.011	5.2727	5.e-002	7.7892
19463	20.011	5.5455	0.	17.786
19464	20.101	5.4545	0.	17.109
19465	20.011	5.4545	5.e-002	7.3612
19466	20.011	5.7273	0.	16.8
19467	20.101	5.6364	0.	14.814
19468	20.011	5.6364	5.e-002	7.2238
19469	20.101	5.8182	0.	19.017
19470	20.011	5.8182	5.e-002	8.8074
19471	20.011	5.9091	0.	9.6447
19472	20.192	0.27273	0.	17.46
19473	20.283	0.18182	0.	19.666
19474	20.192	0.18182	5.e-002	7.5886
19475	20.192	9.0909e-002	0.	11.085
19476	20.192	0.45455	0.	15.268
19477	20.283	0.36364	0.	15.198
19478	20.192	0.36364	5.e-002	5.8678
19479	20.192	0.63636	0.	16.329
19480	20.283	0.54545	0.	13.713
19481	20.192	0.54545	5.e-002	5.9592
19482	20.192	0.81818	0.	18.258
19483	20.283	0.72727	0.	13.015
19484	20.192	0.72727	5.e-002	6.2335
19485	20.192	1.	0.	18.995
19486	20.283	0.90909	0.	11.828
19487	20.192	0.90909	5.e-002	6.6022
19488	20.192	1.1818	0.	16.106
19489	20.283	1.0909	0.	8.8349
19490	20.192	1.0909	5.e-002	7.0736
19491	20.192	1.3636	0.	8.5748
19492	20.283	1.2727	0.	4.5047
19493	20.192	1.2727	5.e-002	7.6725
19494	20.192	1.5455	0.	2.9033
19495	20.283	1.4545	0.	1.9417
19496	20.192	1.4545	5.e-002	8.6609
19497	20.192	1.7273	0.	1.1969
19498	20.283	1.6364	0.	1.0216
19499	20.192	1.6364	5.e-002	10.357
19500	20.192	1.9091	0.	0.89809
19501	20.283	1.8182	0.	0.48836
19502	20.192	1.8182	5.e-002	12.374
19503	20.192	2.0909	0.	1.1213
19504	20.283	2.	0.	0.60626
19505	20.192	2.	5.e-002	14.834
19506	20.192	2.2727	0.	0.85117
19507	20.283	2.1818	0.	0.63666
19508	20.192	2.1818	5.e-002	17.293
19509	20.192	2.4545	0.	0.67422
19510	20.283	2.3636	0.	0.46034
19511	20.192	2.3636	5.e-002	18.607
19512	20.192	2.6364	0.	0.71013
19513	20.283	2.5455	0.	0.59038
19514	20.192	2.5455	5.e-002	18.435
19515	20.192	2.8182	0.	0.52542
19516	20.283	2.7273	0.	0.50937
19517	20.192	2.7273	5.e-002	17.482
19518	20.192	3.	0.	0.42092
19519	20.283	2.9091	0.	0.42492
19520	20.192	2.9091	5.e-002	16.786
19521	20.192	3.1818	0.	0.52542
19522	20.283	3.0909	0.	0.42492
19523	20.192	3.0909	5.e-002	16.786
19524	20.192	3.3636	0.	0.71013
19525	20.283	3.2727	0.	0.50937
19526	20.192	3.2727	5.e-002	17.482
19527	20.192	3.5455	0.	0.67422
19528	20.283	3.4545	0.	0.59037
19529	20.192	3.4545	5.e-002	18.435
19530	20.192	3.7273	0.	0.85117
19531	20.283	3.6364	0.	0.46034
19532	20.192	3.6364	5.e-002	18.607
19533	20.192	3.9091	0.	1.1213
19534	20.283	3.8182	0.	0.63666
19535	20.192	3.8182	5.e-002	17.293
19536	20.192	4.0909	0.	0.89809
19537	20.283	4.	0.	0.60626
19538	20.192	4.	5.e-002	14.834
19539	20.192	4.2727	0.	1.1969
19540	20.283	4.1818	0.	0.48836
19541	20.192	4.1818	5.e-002	12.374
19542	20.192	4.4545	0.	2.9034
19543	20.283	4.3636	0.	1.0216
19544	20.192	4.3636	5.e-002	10.357
19545	20.192	4.6364	0.	8.5749
19546	20.283	4.5455	0.	1.9417
19547	20.192	4.5455	5.e-002	8.6609
19548	20.192	4.8182	0.	16.107
19549	20.283	4.7273	0.	4.5047
19550	20.192	4.7273	5.e-002	7.6725
19551	20.192	5.	0.	18.995
19552	20.283	4.9091	0.	8.835
19553	20.192	4.9091	5.e-002	7.0736
19554	20.192	5.1818	0.	18.258
19555	20.283	5.0909	0.	11.828
19556	20.192	5.0909	5.e-002	6.6022
19557	20.192	5.3636	0.	16.329
19558	20.283	5.2727	0.	13.015
19559	20.192	5.2727	5.e-002	6.2335
19560	20.192	5.5455	0.	15.268
19561	20.283	5.4545	0.	13.713
19562	20.192	5.4545	5.e-002	5.9592
19563	20.192	5.7273	0.	17.46
19564	20.283	5.6364	0.	15.198
19565	20.192	5.6364	5.e-002	5.8678
19566	20.283	5.8182	0.	19.666
19567	20.192	5.8182	5.e-002	7.5886
19568	20.192	5.9091	0.	11.085
19569	20.373	0.27273	0.	17.696
19570	20.464	0.18182	0.	19.4
19571	20.373	0.18182	5.e-002	6.3035
19572	20.373	9.0909e-002	0.	11.597
19573	20.373	0.45455	0.	14.223
19574	20.464	0.36364	0.	15.378
19575	20.373	0.36364	5.e-002	4.5111
19576	20.373	0.63636	0.	11.527
19577	20.464	0.54545	0.	11.939
19578	20.373	0.54545	5.e-002	4.578
19579	20.373	0.81818	0.	8.417
19580	20.464	0.72727	0.	7.8509
19581	20.373	0.72727	5.e-002	4.7974
19582	20.373	1.	0.	4.8442
19583	20.464	0.90909	0.	3.8887
19584	20.373	0.90909	5.e-002	5.0901
19585	20.373	1.1818	0.	2.3208
19586	20.464	1.0909	0.	1.7964
19587	20.373	1.0909	5.e-002	5.5035
19588	20.373	1.3636	0.	1.1951
19589	20.464	1.2727	0.	0.9961
19590	20.373	1.2727	5.e-002	6.1468
19591	20.373	1.5455	0.	0.63314
19592	20.464	1.4545	0.	0.60539
19593	20.373	1.4545	5.e-002	7.1396
19594	20.373	1.7273	0.	0.32879
19595	20.464	1.6364	0.	0.35895
19596	20.373	1.6364	5.e-002	8.5376
19597	20.373	1.9091	0.	0.13208
19598	20.464	1.8182	0.	0.23384
19599	20.373	1.8182	5.e-002	10.21
19600	20.373	2.0909	0.	6.4578e-002
19601	20.464	2.	0.	0.13446
19602	20.373	2.	5.e-002	11.918
19603	20.373	2.2727	0.	0.24253
19604	20.464	2.1818	0.	0.17488
19605	20.373	2.1818	5.e-002	13.539
19606	20.373	2.4545	0.	0.42013
19607	20.464	2.3636	0.	0.32321
19608	20.373	2.3636	5.e-002	14.798
19609	20.373	2.6364	0.	0.44496
19610	20.464	2.5455	0.	0.37832
19611	20.373	2.5455	5.e-002	15.388
19612	20.373	2.8182	0.	0.42389
19613	20.464	2.7273	0.	0.38891
19614	20.373	2.7273	5.e-002	15.43
19615	20.373	3.	0.	0.41078
19616	20.464	2.9091	0.	0.38324
19617	20.373	2.9091	5.e-002	15.321
19618	20.373	3.1818	0.	0.42389
19619	20.464	3.0909	0.	0.38324
19620	20.373	3.0909	5.e-002	15.321
19621	20.373	3.3636	0.	0.44496
19622	20.464	3.2727	0.	0.38891
19623	20.373	3.2727	5.e-002	15.43
19624	20.373	3.5455	0.	0.42013
19625	20.464	3.4545	0.	0.37832
19626	20.373	3.4545	5.e-002	15.388
19627	20.373	3.7273	0.	0.24253
19628	20.464	3.6364	0.	0.32321
19629	20.373	3.6364	5.e-002	14.798
19630	20.373	3.9091	0.	6.4578e-002
19631	20.464	3.8182	0.	0.17488
19632	20.373	3.8182	5.e-002	13.539
19633	20.373	4.0909	0.	0.13208
19634	20.464	4.	0.	0.13446
19635	20.373	4.	5.e-002	11.918
19636	20.373	4.2727	0.	0.32879
19637	20.464	4.1818	0.	0.23384
19638	20.373	4.1818	5.e-002	10.21
19639	20.373	4.4545	0.	0.63314
19640	20.464	4.3636	0.	0.35895
19641	20.373	4.3636	5.e-002	8.5376
19642	20.373	4.6364	0.	1.1951
19643	20.464	4.5455	0.	0.60539
19644	20.373	4.5455	5.e-002	7.1396
19645	20.373	4.8182	0.	2.3208
19646	20.464	4.7273	0.	0.9961
19647	20.373	4.7273	5.e-002	6.1468
19648	20.373	5.	0.	4.8442
19649	20.464	4.9091	0.	1.7964
19650	20.373	4.9091	5.e-002	5.5035
19651	20.373	5.1818	0.	8.4171
19652	20.464	5.0909	0.	3.8888
19653	20.373	5.0909	5.e-002	5.0901
19654	20.373	5.3636	0.	11.527
19655	20.464	5.2727	0.	7.851
19656	20.373	5.2727	5.e-002	4.7974
19657	20.373	5.5455	0.	14.223
19658	20.464	5.4545	0.	11.939
19659	20.373	5.4545	5.e-002	4.578
19660	20.373	5.7273	0.	17.696
19661	20.464	5.6364	0.	15.378
19662	20.373	5.6364	5.e-002	4.5111
19663	20.464	5.8182	0.	19.4
19664	20.373	5.8182	5.e-002	6.3035
19665	20.373	5.9091	0.	11.597
19666	20.555	0.27273	0.	17.292
19667	20.645	0.18182	0.	18.524
19668	20.555	0.18182	5.e-002	5.0339
19669	20.555	9.0909e-002	0.	11.496
19670	20.555	0.45455	0.	13.404
19671	20.645	0.36364	0.	15.03
19672	20.555	0.36364	5.e-002	3.2404
19673	20.555	0.63636	0.	8.7133
19674	20.645	0.54545	0.	10.682
19675	20.555	0.54545	5.e-002	3.3372
19676	20.555	0.81818	0.	3.7125
19677	20.645	0.72727	0.	4.9549
19678	20.555	0.72727	5.e-002	3.604
19679	20.555	1.	0.	1.4415
19680	20.645	0.90909	0.	1.5197
19681	20.555	0.90909	5.e-002	3.9714
19682	20.555	1.1818	0.	0.7865
19683	20.645	1.0909	0.	0.74268
19684	20.555	1.0909	5.e-002	4.4951
19685	20.555	1.3636	0.	0.50407
19686	20.645	1.2727	0.	0.47155
19687	20.555	1.2727	5.e-002	5.2449
19688	20.555	1.5455	0.	0.34663
19689	20.645	1.4545	0.	0.33053
19690	20.555	1.4545	5.e-002	6.2536
19691	20.555	1.7273	0.	0.24915
19692	20.645	1.6364	0.	0.2428
19693	20.555	1.6364	5.e-002	7.4607
19694	20.555	1.9091	0.	0.21235
19695	20.645	1.8182	0.	0.18687
19696	20.555	1.8182	5.e-002	8.7544
19697	20.555	2.0909	0.	0.22529
19698	20.645	2.	0.	0.17892
19699	20.555	2.	5.e-002	10.052
19700	20.555	2.2727	0.	0.24832
19701	20.645	2.1818	0.	0.1985
19702	20.555	2.1818	5.e-002	11.296
19703	20.555	2.4545	0.	0.28618
19704	20.645	2.3636	0.	0.23066
19705	20.555	2.3636	5.e-002	12.353
19706	20.555	2.6364	0.	0.32955
19707	20.645	2.5455	0.	0.27755
19708	20.555	2.5455	5.e-002	13.079
19709	20.555	2.8182	0.	0.34953
19710	20.645	2.7273	0.	0.30951
19711	20.555	2.7273	5.e-002	13.455
19712	20.555	3.	0.	0.35286
19713	20.645	2.9091	0.	0.32116
19714	20.555	2.9091	5.e-002	13.591
19715	20.555	3.1818	0.	0.34953
19716	20.645	3.0909	0.	0.32116
19717	20.555	3.0909	5.e-002	13.591
19718	20.555	3.3636	0.	0.32955
19719	20.645	3.2727	0.	0.30951
19720	20.555	3.2727	5.e-002	13.455
19721	20.555	3.5455	0.	0.28618
19722	20.645	3.4545	0.	0.27755
19723	20.555	3.4545	5.e-002	13.079
19724	20.555	3.7273	0.	0.24832
19725	20.645	3.6364	0.	0.23066
19726	20.555	3.6364	5.e-002	12.353
19727	20.555	3.9091	0.	0.22529
19728	20.645	3.8182	0.	0.1985
19729	20.555	3.8182	5.e-002	11.296
19730	20.555	4.0909	0.	0.21236
19731	20.645	4.	0.	0.17892
19732	20.555	4.	5.e-002	10.052
19733	20.555	4.2727	0.	0.24915
19734	20.645	4.1818	0.	0.18687
19735	20.555	4.1818	5.e-002	8.7544
19736	20.555	4.4545	0.	0.34663
19737	20.645	4.3636	0.	0.2428
19738	20.555	4.3636	5.e-002	7.4607
19739	20.555	4.6364	0.	0.50407
19740	20.645	4.5455	0.	0.33053
19741	20.555	4.5455	5.e-002	6.2536
19742	20.555	4.8182	0.	0.78651
19743	20.645	4.7273	0.	0.47155
19744	20.555	4.7273	5.e-002	5.2449
19745	20.555	5.	0.	1.4415
19746	20.645	4.9091	0.	0.74269
19747	20.555	4.9091	5.e-002	4.4951
19748	20.555	5.1818	0.	3.7125
19749	20.645	5.0909	0.	1.5197
19750	20.555	5.0909	5.e-002	3.9714
19751	20.555	5.3636	0.	8.7133
19752	20.645	5.2727	0.	4.955
19753	20.555	5.2727	5.e-002	3.604
19754	20.555	5.5455	0.	13.404
19755	20.645	5.4545	0.	10.682
19756	20.555	5.4545	5.e-002	3.3372
19757	20.555	5.7273	0.	17.292
19758	20.645	5.6364	0.	15.03
19759	20.555	5.6364	5.e-002	3.2404
19760	20.645	5.8182	0.	18.524
19761	20.555	5.8182	5.e-002	5.0339
19762	20.555	5.9091	0.	11.496
19763	20.736	0.27273	0.	16.399
19764	20.827	0.18182	0.	17.33
19765	20.736	0.18182	5.e-002	3.8424
19766	20.736	9.0909e-002	0.	11.035
19767	20.736	0.45455	0.	12.476
19768	20.827	0.36364	0.	14.256
19769	20.736	0.36364	5.e-002	2.1238
19770	20.736	0.63636	0.	6.8689
19771	20.827	0.54545	0.	9.6006
19772	20.736	0.54545	5.e-002	2.3325
19773	20.736	0.81818	0.	1.8042
19774	20.827	0.72727	0.	3.2763
19775	20.736	0.72727	5.e-002	2.7339
19776	20.736	1.	0.	0.69793
19777	20.827	0.90909	0.	0.80332
19778	20.736	0.90909	5.e-002	3.2484
19779	20.736	1.1818	0.	0.42336
19780	20.827	1.0909	0.	0.4271
19781	20.736	1.0909	5.e-002	3.9013
19782	20.736	1.3636	0.	0.29699
19783	20.827	1.2727	0.	0.29307
19784	20.736	1.2727	5.e-002	4.7096
19785	20.736	1.5455	0.	0.22039
19786	20.827	1.4545	0.	0.22048
19787	20.736	1.4545	5.e-002	5.6567
19788	20.736	1.7273	0.	0.17043
19789	20.827	1.6364	0.	0.17362
19790	20.736	1.6364	5.e-002	6.6898
19791	20.736	1.9091	0.	0.14237
19792	20.827	1.8182	0.	0.145
19793	20.736	1.8182	5.e-002	7.7454
19794	20.736	2.0909	0.	0.14317
19795	20.827	2.	0.	0.13471
19796	20.736	2.	5.e-002	8.7811
19797	20.736	2.2727	0.	0.17629
19798	20.827	2.1818	0.	0.14947
19799	20.736	2.1818	5.e-002	9.7638
19800	20.736	2.4545	0.	0.22175
19801	20.827	2.3636	0.	0.1837
19802	20.736	2.3636	5.e-002	10.631
19803	20.736	2.6364	0.	0.25885
19804	20.827	2.5455	0.	0.21933
19805	20.736	2.5455	5.e-002	11.302
19806	20.736	2.8182	0.	0.28166
19807	20.827	2.7273	0.	0.24659
19808	20.736	2.7273	5.e-002	11.735
19809	20.736	3.	0.	0.28921
19810	20.827	2.9091	0.	0.26088
19811	20.736	2.9091	5.e-002	11.938
19812	20.736	3.1818	0.	0.28166
19813	20.827	3.0909	0.	0.26088
19814	20.736	3.0909	5.e-002	11.938
19815	20.736	3.3636	0.	0.25885
19816	20.827	3.2727	0.	0.24659
19817	20.736	3.2727	5.e-002	11.735
19818	20.736	3.5455	0.	0.22175
19819	20.827	3.4545	0.	0.21933
19820	20.736	3.4545	5.e-002	11.302
19821	20.736	3.7273	0.	0.17629
19822	20.827	3.6364	0.	0.1837
19823	20.736	3.6364	5.e-002	10.631
19824	20.736	3.9091	0.	0.14317
19825	20.827	3.8182	0.	0.14947
19826	20.736	3.8182	5.e-002	9.7637
19827	20.736	4.0909	0.	0.14237
19828	20.827	4.	0.	0.13471
19829	20.736	4.	5.e-002	8.7811
19830	20.736	4.2727	0.	0.17043
19831	20.827	4.1818	0.	0.145
19832	20.736	4.1818	5.e-002	7.7454
19833	20.736	4.4545	0.	0.22039
19834	20.827	4.3636	0.	0.17362
19835	20.736	4.3636	5.e-002	6.6898
19836	20.736	4.6364	0.	0.29699
19837	20.827	4.5455	0.	0.22048
19838	20.736	4.5455	5.e-002	5.6567
19839	20.736	4.8182	0.	0.42336
19840	20.827	4.7273	0.	0.29307
19841	20.736	4.7273	5.e-002	4.7096
19842	20.736	5.	0.	0.69793
19843	20.827	4.9091	0.	0.42711
19844	20.736	4.9091	5.e-002	3.9013
19845	20.736	5.1818	0.	1.8043
19846	20.827	5.0909	0.	0.80333
19847	20.736	5.0909	5.e-002	3.2484
19848	20.736	5.3636	0.	6.8689
19849	20.827	5.2727	0.	3.2763
19850	20.736	5.2727	5.e-002	2.7339
19851	20.736	5.5455	0.	12.476
19852	20.827	5.4545	0.	9.6007
19853	20.736	5.4545	5.e-002	2.3325
19854	20.736	5.7273	0.	16.399
19855	20.827	5.6364	0.	14.256
19856	20.736	5.6364	5.e-002	2.1238
19857	20.827	5.8182	0.	17.33
19858	20.736	5.8182	5.e-002	3.8424
19859	20.736	5.9091	0.	11.035
19860	20.917	0.27273	0.	15.26
19861	21.008	0.18182	0.	16.053
19862	20.917	0.18182	5.e-002	2.7686
19863	20.917	9.0909e-002	0.	10.417
19864	20.917	0.45455	0.	11.467
19865	21.008	0.36364	0.	13.273
19866	20.917	0.36364	5.e-002	1.2447
19867	20.917	0.63636	0.	5.5957
19868	21.008	0.54545	0.	8.6561
19869	20.917	0.54545	5.e-002	1.6741
19870	20.917	0.81818	0.	1.0305
19871	21.008	0.72727	0.	2.3022
19872	20.917	0.72727	5.e-002	2.241
19873	20.917	1.	0.	0.42592
19874	21.008	0.90909	0.	0.5061
19875	20.917	0.90909	5.e-002	2.8774
19876	20.917	1.1818	0.	0.27743
19877	21.008	1.0909	0.	0.2872
19878	20.917	1.0909	5.e-002	3.5932
19879	20.917	1.3636	0.	0.20844
19880	21.008	1.2727	0.	0.20887
19881	20.917	1.2727	5.e-002	4.3883
19882	20.917	1.5455	0.	0.16723
19883	21.008	1.4545	0.	0.16682
19884	20.917	1.4545	5.e-002	5.2431
19885	20.917	1.7273	0.	0.14179
19886	21.008	1.6364	0.	0.14052
19887	20.917	1.6364	5.e-002	6.1242
19888	20.917	1.9091	0.	0.1313
19889	21.008	1.8182	0.	0.1257
19890	20.917	1.8182	5.e-002	6.9981
19891	20.917	2.0909	0.	0.13616
19892	21.008	2.	0.	0.12354
19893	20.917	2.	5.e-002	7.8421
19894	20.917	2.2727	0.	0.15394
19895	21.008	2.1818	0.	0.13376
19896	20.917	2.1818	5.e-002	8.6344
19897	20.917	2.4545	0.	0.18021
19898	21.008	2.3636	0.	0.15365
19899	20.917	2.3636	5.e-002	9.3388
19900	20.917	2.6364	0.	0.20701
19901	21.008	2.5455	0.	0.17784
19902	20.917	2.5455	5.e-002	9.9067
19903	20.917	2.8182	0.	0.2259
19904	21.008	2.7273	0.	0.19847
19905	20.917	2.7273	5.e-002	10.298
19906	20.917	3.	0.	0.23254
19907	21.008	2.9091	0.	0.20995
19908	20.917	2.9091	5.e-002	10.495
19909	20.917	3.1818	0.	0.2259
19910	21.008	3.0909	0.	0.20995
19911	20.917	3.0909	5.e-002	10.495
19912	20.917	3.3636	0.	0.20701
19913	21.008	3.2727	0.	0.19847
19914	20.917	3.2727	5.e-002	10.298
19915	20.917	3.5455	0.	0.18021
19916	21.008	3.4545	0.	0.17784
19917	20.917	3.4545	5.e-002	9.9067
19918	20.917	3.7273	0.	0.15394
19919	21.008	3.6364	0.	0.15365
19920	20.917	3.6364	5.e-002	9.3388
19921	20.917	3.9091	0.	0.13616
19922	21.008	3.8182	0.	0.13376
19923	20.917	3.8182	5.e-002	8.6344
19924	20.917	4.0909	0.	0.1313
19925	21.008	4.	0.	0.12354
19926	20.917	4.	5.e-002	7.8421
19927	20.917	4.2727	0.	0.1418
19928	21.008	4.1818	0.	0.1257
19929	20.917	4.1818	5.e-002	6.9981
19930	20.917	4.4545	0.	0.16723
19931	21.008	4.3636	0.	0.14052
19932	20.917	4.3636	5.e-002	6.1242
19933	20.917	4.6364	0.	0.20844
19934	21.008	4.5455	0.	0.16682
19935	20.917	4.5455	5.e-002	5.2431
19936	20.917	4.8182	0.	0.27743
19937	21.008	4.7273	0.	0.20887
19938	20.917	4.7273	5.e-002	4.3883
19939	20.917	5.	0.	0.42592
19940	21.008	4.9091	0.	0.2872
19941	20.917	4.9091	5.e-002	3.5932
19942	20.917	5.1818	0.	1.0305
19943	21.008	5.0909	0.	0.5061
19944	20.917	5.0909	5.e-002	2.8774
19945	20.917	5.3636	0.	5.5958
19946	21.008	5.2727	0.	2.3022
19947	20.917	5.2727	5.e-002	2.241
19948	20.917	5.5455	0.	11.467
19949	21.008	5.4545	0.	8.6561
19950	20.917	5.4545	5.e-002	1.6741
19951	20.917	5.7273	0.	15.26
19952	21.008	5.6364	0.	13.273
19953	20.917	5.6364	5.e-002	1.2447
19954	21.008	5.8182	0.	16.053
19955	20.917	5.8182	5.e-002	2.7686
19956	20.917	5.9091	0.	10.417
19957	21.099	0.27273	0.	14.086
19958	21.189	0.18182	0.	14.858
19959	21.099	0.18182	5.e-002	1.8298
19960	21.099	9.0909e-002	0.	9.7778
19961	21.099	0.45455	0.	10.498
19962	21.189	0.36364	0.	12.283
19963	21.099	0.36364	5.e-002	0.84058
19964	21.099	0.63636	0.	4.7528
19965	21.189	0.54545	0.	7.9103
19966	21.099	0.54545	5.e-002	1.4819
19967	21.099	0.81818	0.	0.67051
19968	21.189	0.72727	0.	1.7808
19969	21.099	0.72727	5.e-002	2.114
19970	21.099	1.	0.	0.29338
19971	21.189	0.90909	0.	0.35472
19972	21.099	0.90909	5.e-002	2.7728
19973	21.099	1.1818	0.	0.20214
19974	21.189	1.0909	0.	0.21176
19975	21.099	1.0909	5.e-002	3.4685
19976	21.099	1.3636	0.	0.15994
19977	21.189	1.2727	0.	0.16157
19978	21.099	1.2727	5.e-002	4.1982
19979	21.099	1.5455	0.	0.13509
19980	21.189	1.4545	0.	0.1351
19981	21.099	1.4545	5.e-002	4.9477
19982	21.099	1.7273	0.	0.12018
19983	21.189	1.6364	0.	0.11907
19984	21.099	1.6364	5.e-002	5.6964
19985	21.099	1.9091	0.	0.11425
19986	21.189	1.8182	0.	0.1106
19987	21.099	1.8182	5.e-002	6.4251
19988	21.099	2.0909	0.	0.11819
19989	21.189	2.	0.	0.10988
19990	21.099	2.	5.e-002	7.1189
19991	21.099	2.2727	0.	0.13146
19992	21.189	2.1818	0.	0.11738
19993	21.099	2.1818	5.e-002	7.7624
19994	21.099	2.4545	0.	0.15021
19995	21.189	2.3636	0.	0.13137
19996	21.099	2.3636	5.e-002	8.3316
19997	21.099	2.6364	0.	0.16884
19998	21.189	2.5455	0.	0.14776
19999	21.099	2.5455	5.e-002	8.7947
20000	21.099	2.8182	0.	0.18231
20001	21.189	2.7273	0.	0.16195
20002	21.099	2.7273	5.e-002	9.1208
20003	21.099	3.	0.	0.1872
20004	21.189	2.9091	0.	0.1701
20005	21.099	2.9091	5.e-002	9.2887
20006	21.099	3.1818	0.	0.18231
20007	21.189	3.0909	0.	0.1701
20008	21.099	3.0909	5.e-002	9.2887
20009	21.099	3.3636	0.	0.16884
20010	21.189	3.2727	0.	0.16195
20011	21.099	3.2727	5.e-002	9.1208
20012	21.099	3.5455	0.	0.15021
20013	21.189	3.4545	0.	0.14776
20014	21.099	3.4545	5.e-002	8.7947
20015	21.099	3.7273	0.	0.13146
20016	21.189	3.6364	0.	0.13137
20017	21.099	3.6364	5.e-002	8.3316
20018	21.099	3.9091	0.	0.11819
20019	21.189	3.8182	0.	0.11738
20020	21.099	3.8182	5.e-002	7.7624
20021	21.099	4.0909	0.	0.11425
20022	21.189	4.	0.	0.10988
20023	21.099	4.	5.e-002	7.1189
20024	21.099	4.2727	0.	0.12018
20025	21.189	4.1818	0.	0.1106
20026	21.099	4.1818	5.e-002	6.4251
20027	21.099	4.4545	0.	0.13509
20028	21.189	4.3636	0.	0.11907
20029	21.099	4.3636	5.e-002	5.6964
20030	21.099	4.6364	0.	0.15994
20031	21.189	4.5455	0.	0.1351
20032	21.099	4.5455	5.e-002	4.9477
20033	21.099	4.8182	0.	0.20214
20034	21.189	4.7273	0.	0.16157
20035	21.099	4.7273	5.e-002	4.1982
20036	21.099	5.	0.	0.29338
20037	21.189	4.9091	0.	0.21176
20038	21.099	4.9091	5.e-002	3.4685
20039	21.099	5.1818	0.	0.67052
20040	21.189	5.0909	0.	0.35472
20041	21.099	5.0909	5.e-002	2.7728
20042	21.099	5.3636	0.	4.7528
20043	21.189	5.2727	0.	1.7809
20044	21.099	5.2727	5.e-002	2.114
20045	21.099	5.5455	0.	10.498
20046	21.189	5.4545	0.	7.9103
20047	21.099	5.4545	5.e-002	1.4819
20048	21.099	5.7273	0.	14.086
20049	21.189	5.6364	0.	12.283
20050	21.099	5.6364	5.e-002	0.84057
20051	21.189	5.8182	0.	14.858
20052	21.099	5.8182	5.e-002	1.8298
20053	21.099	5.9091	0.	9.7777
20054	21.28	0.27273	0.	13.031
20055	21.371	0.18182	0.	13.845
20056	21.28	0.18182	5.e-002	1.0275
20057	21.28	9.0909e-002	0.	9.2069
20058	21.28	0.45455	0.	9.6984
20059	21.371	0.36364	0.	11.438
20060	21.28	0.36364	5.e-002	1.094
20061	21.28	0.63636	0.	4.3102
20062	21.371	0.54545	0.	7.4415
20063	21.28	0.54545	5.e-002	1.6756
20064	21.28	0.81818	0.	0.48646
20065	21.371	0.72727	0.	1.6235
20066	21.28	0.72727	5.e-002	2.236
20067	21.28	1.	0.	0.21911
20068	21.371	0.90909	0.	0.27037
20069	21.28	0.90909	5.e-002	2.8299
20070	21.28	1.1818	0.	0.15826
20071	21.371	1.0909	0.	0.16696
20072	21.28	1.0909	5.e-002	3.4516
20073	21.28	1.3636	0.	0.13089
20074	21.371	1.2727	0.	0.13265
20075	21.28	1.2727	5.e-002	4.0908
20076	21.28	1.5455	0.	0.1153
20077	21.371	1.4545	0.	0.11518
20078	21.28	1.4545	5.e-002	4.7341
20079	21.28	1.7273	0.	0.10652
20080	21.371	1.6364	0.	0.10506
20081	21.28	1.6364	5.e-002	5.3665
20082	21.28	1.9091	0.	0.10377
20083	21.371	1.8182	0.	0.10017
20084	21.28	1.8182	5.e-002	5.9746
20085	21.28	2.0909	0.	0.10711
20086	21.371	2.	0.	0.10039
20087	21.28	2.	5.e-002	6.5469
20088	21.28	2.2727	0.	0.11585
20089	21.371	2.1818	0.	0.10558
20090	21.28	2.1818	5.e-002	7.0712
20091	21.28	2.4545	0.	0.12799
20092	21.371	2.3636	0.	0.11466
20093	21.28	2.3636	5.e-002	7.5304
20094	21.28	2.6364	0.	0.14031
20095	21.371	2.5455	0.	0.12535
20096	21.28	2.5455	5.e-002	7.9028
20097	21.28	2.8182	0.	0.14937
20098	21.371	2.7273	0.	0.13472
20099	21.28	2.7273	5.e-002	8.1658
20100	21.28	3.	0.	0.15269
20101	21.371	2.9091	0.	0.14015
20102	21.28	2.9091	5.e-002	8.302
20103	21.28	3.1818	0.	0.14937
20104	21.371	3.0909	0.	0.14015
20105	21.28	3.0909	5.e-002	8.302
20106	21.28	3.3636	0.	0.14031
20107	21.371	3.2727	0.	0.13472
20108	21.28	3.2727	5.e-002	8.1658
20109	21.28	3.5455	0.	0.12799
20110	21.371	3.4545	0.	0.12535
20111	21.28	3.4545	5.e-002	7.9028
20112	21.28	3.7273	0.	0.11585
20113	21.371	3.6364	0.	0.11466
20114	21.28	3.6364	5.e-002	7.5304
20115	21.28	3.9091	0.	0.10711
20116	21.371	3.8182	0.	0.10558
20117	21.28	3.8182	5.e-002	7.0712
20118	21.28	4.0909	0.	0.10378
20119	21.371	4.	0.	0.10039
20120	21.28	4.	5.e-002	6.5469
20121	21.28	4.2727	0.	0.10652
20122	21.371	4.1818	0.	0.10017
20123	21.28	4.1818	5.e-002	5.9746
20124	21.28	4.4545	0.	0.1153
20125	21.371	4.3636	0.	0.10506
20126	21.28	4.3636	5.e-002	5.3665
20127	21.28	4.6364	0.	0.13089
20128	21.371	4.5455	0.	0.11518
20129	21.28	4.5455	5.e-002	4.7341
20130	21.28	4.8182	0.	0.15826
20131	21.371	4.7273	0.	0.13265
20132	21.28	4.7273	5.e-002	4.0908
20133	21.28	5.	0.	0.21911
20134	21.371	4.9091	0.	0.16696
20135	21.28	4.9091	5.e-002	3.4516
20136	21.28	5.1818	0.	0.48646
20137	21.371	5.0909	0.	0.27037
20138	21.28	5.0909	5.e-002	2.8299
20139	21.28	5.3636	0.	4.3102
20140	21.371	5.2727	0.	1.6235
20141	21.28	5.2727	5.e-002	2.236
20142	21.28	5.5455	0.	9.6984
20143	21.371	5.4545	0.	7.4415
20144	21.28	5.4545	5.e-002	1.6756
20145	21.28	5.7273	0.	13.031
20146	21.371	5.6364	0.	11.438
20147	21.28	5.6364	5.e-002	1.094
20148	21.371	5.8182	0.	13.845
20149	21.28	5.8182	5.e-002	1.0275
20150	21.28	5.9091	0.	9.2068
20151	21.461	0.27273	0.	12.194
20152	21.552	0.18182	0.	13.07
20153	21.461	0.18182	5.e-002	0.35375
20154	21.461	9.0909e-002	0.	8.755
20155	21.461	0.45455	0.	9.1639
20156	21.552	0.36364	0.	10.839
20157	21.461	0.36364	5.e-002	1.5575
20158	21.461	0.63636	0.	4.285
20159	21.552	0.54545	0.	7.3152
20160	21.461	0.54545	5.e-002	2.0154
20161	21.461	0.81818	0.	0.39979
20162	21.552	0.72727	0.	1.9088
20163	21.461	0.72727	5.e-002	2.4656
20164	21.461	1.	0.	0.17501
20165	21.552	0.90909	0.	0.22558
20166	21.461	0.90909	5.e-002	2.9632
20167	21.461	1.1818	0.	0.13101
20168	21.552	1.0909	0.	0.13966
20169	21.461	1.0909	5.e-002	3.4917
20170	21.461	1.3636	0.	0.11229
20171	21.552	1.2727	0.	0.11436
20172	21.461	1.2727	5.e-002	4.035
20173	21.461	1.5455	0.	0.10204
20174	21.552	1.4545	0.	0.10219
20175	21.461	1.4545	5.e-002	4.5786
20176	21.461	1.7273	0.	9.6547e-002
20177	21.552	1.6364	0.	9.5456e-002
20178	21.461	1.6364	5.e-002	5.1093
20179	21.461	1.9091	0.	9.5052e-002
20180	21.552	1.8182	0.	9.2375e-002
20181	21.461	1.8182	5.e-002	5.6158
20182	21.461	2.0909	0.	9.7473e-002
20183	21.552	2.	0.	9.2654e-002
20184	21.461	2.	5.e-002	6.0882
20185	21.461	2.2727	0.	0.10332
20186	21.552	2.1818	0.	9.6111e-002
20187	21.461	2.1818	5.e-002	6.5162
20188	21.461	2.4545	0.	0.11125
20189	21.552	2.3636	0.	0.10199
20190	21.461	2.3636	5.e-002	6.887
20191	21.461	2.6364	0.	0.11921
20192	21.552	2.5455	0.	0.10883
20193	21.461	2.5455	5.e-002	7.1852
20194	21.461	2.8182	0.	0.12508
20195	21.552	2.7273	0.	0.11481
20196	21.461	2.7273	5.e-002	7.395
20197	21.461	3.	0.	0.12723
20198	21.552	2.9091	0.	0.11829
20199	21.461	2.9091	5.e-002	7.5035
20200	21.461	3.1818	0.	0.12508
20201	21.552	3.0909	0.	0.11829
20202	21.461	3.0909	5.e-002	7.5035
20203	21.461	3.3636	0.	0.11921
20204	21.552	3.2727	0.	0.11481
20205	21.461	3.2727	5.e-002	7.395
20206	21.461	3.5455	0.	0.11125
20207	21.552	3.4545	0.	0.10883
20208	21.461	3.4545	5.e-002	7.1852
20209	21.461	3.7273	0.	0.10332
20210	21.552	3.6364	0.	0.10199
20211	21.461	3.6364	5.e-002	6.887
20212	21.461	3.9091	0.	9.7473e-002
20213	21.552	3.8182	0.	9.6112e-002
20214	21.461	3.8182	5.e-002	6.5162
20215	21.461	4.0909	0.	9.5051e-002
20216	21.552	4.	0.	9.2655e-002
20217	21.461	4.	5.e-002	6.0882
20218	21.461	4.2727	0.	9.6546e-002
20219	21.552	4.1818	0.	9.2374e-002
20220	21.461	4.1818	5.e-002	5.6158
20221	21.461	4.4545	0.	0.10204
20222	21.552	4.3636	0.	9.5457e-002
20223	21.461	4.3636	5.e-002	5.1093
20224	21.461	4.6364	0.	0.11229
20225	21.552	4.5455	0.	0.10219
20226	21.461	4.5455	5.e-002	4.5786
20227	21.461	4.8182	0.	0.13101
20228	21.552	4.7273	0.	0.11436
20229	21.461	4.7273	5.e-002	4.035
20230	21.461	5.	0.	0.17501
20231	21.552	4.9091	0.	0.13966
20232	21.461	4.9091	5.e-002	3.4917
20233	21.461	5.1818	0.	0.39979
20234	21.552	5.0909	0.	0.22558
20235	21.461	5.0909	5.e-002	2.9632
20236	21.461	5.3636	0.	4.285
20237	21.552	5.2727	0.	1.9088
20238	21.461	5.2727	5.e-002	2.4656
20239	21.461	5.5455	0.	9.1639
20240	21.552	5.4545	0.	7.3152
20241	21.461	5.4545	5.e-002	2.0154
20242	21.461	5.7273	0.	12.194
20243	21.552	5.6364	0.	10.839
20244	21.461	5.6364	5.e-002	1.5575
20245	21.552	5.8182	0.	13.07
20246	21.461	5.8182	5.e-002	0.35375
20247	21.461	5.9091	0.	8.755
20248	21.643	0.27273	0.	11.629
20249	21.733	0.18182	0.	12.555
20250	21.643	0.18182	5.e-002	0.21199
20251	21.643	9.0909e-002	0.	8.4472
20252	21.643	0.45455	0.	8.9593
20253	21.733	0.36364	0.	10.547
20254	21.643	0.36364	5.e-002	1.9961
20255	21.643	0.63636	0.	4.7064
20256	21.733	0.54545	0.	7.5761
20257	21.643	0.54545	5.e-002	2.3623
20258	21.643	0.81818	0.	0.41277
20259	21.733	0.72727	0.	2.8095
20260	21.643	0.72727	5.e-002	2.7159
20261	21.643	1.	0.	0.15022
20262	21.733	0.90909	0.	0.21783
20263	21.643	0.90909	5.e-002	3.1199
20264	21.643	1.1818	0.	0.11425
20265	21.733	1.0909	0.	0.12467
20266	21.643	1.0909	5.e-002	3.5574
20267	21.643	1.3636	0.	0.10045
20268	21.733	1.2727	0.	0.10338
20269	21.643	1.2727	5.e-002	4.0106
20270	21.643	1.5455	0.	9.332e-002
20271	21.733	1.4545	0.	9.4093e-002
20272	21.643	1.4545	5.e-002	4.4649
20273	21.643	1.7273	0.	8.9651e-002
20274	21.733	1.6364	0.	8.9215e-002
20275	21.643	1.6364	5.e-002	4.9076
20276	21.643	1.9091	0.	8.8703e-002
20277	21.733	1.8182	0.	8.7004e-002
20278	21.643	1.8182	5.e-002	5.3284
20279	21.643	2.0909	0.	9.0272e-002
20280	21.733	2.	0.	8.706e-002
20281	21.643	2.	5.e-002	5.7182
20282	21.643	2.2727	0.	9.3966e-002
20283	21.733	2.1818	0.	8.915e-002
20284	21.643	2.1818	5.e-002	6.0681
20285	21.643	2.4545	0.	9.8933e-002
20286	21.733	2.3636	0.	9.2751e-002
20287	21.643	2.3636	5.e-002	6.3682
20288	21.643	2.6364	0.	0.10392
20289	21.733	2.5455	0.	9.6961e-002
20290	21.643	2.5455	5.e-002	6.6074
20291	21.643	2.8182	0.	0.1076
20292	21.733	2.7273	0.	0.10065
20293	21.643	2.7273	5.e-002	6.7745
20294	21.643	3.	0.	0.10896
20295	21.733	2.9091	0.	0.10281
20296	21.643	2.9091	5.e-002	6.8606
20297	21.643	3.1818	0.	0.1076
20298	21.733	3.0909	0.	0.10281
20299	21.643	3.0909	5.e-002	6.8606
20300	21.643	3.3636	0.	0.10392
20301	21.733	3.2727	0.	0.10065
20302	21.643	3.2727	5.e-002	6.7745
20303	21.643	3.5455	0.	9.8933e-002
20304	21.733	3.4545	0.	9.6961e-002
20305	21.643	3.4545	5.e-002	6.6074
20306	21.643	3.7273	0.	9.3967e-002
20307	21.733	3.6364	0.	9.2751e-002
20308	21.643	3.6364	5.e-002	6.3682
20309	21.643	3.9091	0.	9.0274e-002
20310	21.733	3.8182	0.	8.9152e-002
20311	21.643	3.8182	5.e-002	6.0681
20312	21.643	4.0909	0.	8.8703e-002
20313	21.733	4.	0.	8.7061e-002
20314	21.643	4.	5.e-002	5.7182
20315	21.643	4.2727	0.	8.9651e-002
20316	21.733	4.1818	0.	8.7003e-002
20317	21.643	4.1818	5.e-002	5.3284
20318	21.643	4.4545	0.	9.3321e-002
20319	21.733	4.3636	0.	8.9215e-002
20320	21.643	4.3636	5.e-002	4.9076
20321	21.643	4.6364	0.	0.10045
20322	21.733	4.5455	0.	9.4093e-002
20323	21.643	4.5455	5.e-002	4.4649
20324	21.643	4.8182	0.	0.11425
20325	21.733	4.7273	0.	0.10338
20326	21.643	4.7273	5.e-002	4.0106
20327	21.643	5.	0.	0.15022
20328	21.733	4.9091	0.	0.12467
20329	21.643	4.9091	5.e-002	3.5574
20330	21.643	5.1818	0.	0.41277
20331	21.733	5.0909	0.	0.21784
20332	21.643	5.0909	5.e-002	3.1199
20333	21.643	5.3636	0.	4.7064
20334	21.733	5.2727	0.	2.8095
20335	21.643	5.2727	5.e-002	2.7159
20336	21.643	5.5455	0.	8.9593
20337	21.733	5.4545	0.	7.5762
20338	21.643	5.4545	5.e-002	2.3623
20339	21.643	5.7273	0.	11.629
20340	21.733	5.6364	0.	10.547
20341	21.643	5.6364	5.e-002	1.9961
20342	21.733	5.8182	0.	12.555
20343	21.643	5.8182	5.e-002	0.212
20344	21.643	5.9091	0.	8.4472
20345	21.824	0.27273	0.	11.363
20346	21.915	0.18182	0.	12.301
20347	21.824	0.18182	5.e-002	0.67422
20348	21.824	9.0909e-002	0.	8.2914
20349	21.824	0.45455	0.	9.1209
20350	21.915	0.36364	0.	10.59
20351	21.824	0.36364	5.e-002	2.3694
20352	21.824	0.63636	0.	5.5905
20353	21.915	0.54545	0.	8.2498
20354	21.824	0.54545	5.e-002	2.6706
20355	21.824	0.81818	0.	0.84925
20356	21.915	0.72727	0.	4.3294
20357	21.824	0.72727	5.e-002	2.9488
20358	21.824	1.	0.	0.14336
20359	21.915	0.90909	0.	0.3314
20360	21.824	0.90909	5.e-002	3.2733
20361	21.824	1.1818	0.	0.10559
20362	21.915	1.0909	0.	0.12253
20363	21.824	1.0909	5.e-002	3.6308
20364	21.824	1.3636	0.	9.3743e-002
20365	21.915	1.2727	0.	9.8764e-002
20366	21.824	1.2727	5.e-002	4.0049
20367	21.824	1.5455	0.	8.8128e-002
20368	21.915	1.4545	0.	9.0146e-002
20369	21.824	1.4545	5.e-002	4.3816
20370	21.824	1.7273	0.	8.5294e-002
20371	21.915	1.6364	0.	8.5918e-002
20372	21.824	1.6364	5.e-002	4.7492
20373	21.824	1.9091	0.	8.4396e-002
20374	21.915	1.8182	0.	8.3897e-002
20375	21.824	1.8182	5.e-002	5.0979
20376	21.824	2.0909	0.	8.5171e-002
20377	21.915	2.	0.	8.3516e-002
20378	21.824	2.	5.e-002	5.4194
20379	21.824	2.2727	0.	8.7314e-002
20380	21.915	2.1818	0.	8.451e-002
20381	21.824	2.1818	5.e-002	5.706
20382	21.824	2.4545	0.	9.0272e-002
20383	21.915	2.3636	0.	8.6505e-002
20384	21.824	2.3636	5.e-002	5.9496
20385	21.824	2.6364	0.	9.3267e-002
20386	21.915	2.5455	0.	8.8928e-002
20387	21.824	2.5455	5.e-002	6.1421
20388	21.824	2.8182	0.	9.5484e-002
20389	21.915	2.7273	0.	9.1084e-002
20390	21.824	2.7273	5.e-002	6.2758
20391	21.824	3.	0.	9.6302e-002
20392	21.915	2.9091	0.	9.2349e-002
20393	21.824	2.9091	5.e-002	6.3444
20394	21.824	3.1818	0.	9.5486e-002
20395	21.915	3.0909	0.	9.2349e-002
20396	21.824	3.0909	5.e-002	6.3444
20397	21.824	3.3636	0.	9.3269e-002
20398	21.915	3.2727	0.	9.1085e-002
20399	21.824	3.2727	5.e-002	6.2758
20400	21.824	3.5455	0.	9.0273e-002
20401	21.915	3.4545	0.	8.8928e-002
20402	21.824	3.4545	5.e-002	6.1421
20403	21.824	3.7273	0.	8.7315e-002
20404	21.915	3.6364	0.	8.6506e-002
20405	21.824	3.6364	5.e-002	5.9496
20406	21.824	3.9091	0.	8.517e-002
20407	21.915	3.8182	0.	8.451e-002
20408	21.824	3.8182	5.e-002	5.706
20409	21.824	4.0909	0.	8.4395e-002
20410	21.915	4.	0.	8.3515e-002
20411	21.824	4.	5.e-002	5.4194
20412	21.824	4.2727	0.	8.5294e-002
20413	21.915	4.1818	0.	8.3896e-002
20414	21.824	4.1818	5.e-002	5.0979
20415	21.824	4.4545	0.	8.8128e-002
20416	21.915	4.3636	0.	8.5919e-002
20417	21.824	4.3636	5.e-002	4.7491
20418	21.824	4.6364	0.	9.3742e-002
20419	21.915	4.5455	0.	9.0147e-002
20420	21.824	4.5455	5.e-002	4.3816
20421	21.824	4.8182	0.	0.10559
20422	21.915	4.7273	0.	9.8764e-002
20423	21.824	4.7273	5.e-002	4.0049
20424	21.824	5.	0.	0.14336
20425	21.915	4.9091	0.	0.12253
20426	21.824	4.9091	5.e-002	3.6308
20427	21.824	5.1818	0.	0.84929
20428	21.915	5.0909	0.	0.33141
20429	21.824	5.0909	5.e-002	3.2733
20430	21.824	5.3636	0.	5.5905
20431	21.915	5.2727	0.	4.3294
20432	21.824	5.2727	5.e-002	2.9488
20433	21.824	5.5455	0.	9.1209
20434	21.915	5.4545	0.	8.2499
20435	21.824	5.4545	5.e-002	2.6706
20436	21.824	5.7273	0.	11.363
20437	21.915	5.6364	0.	10.59
20438	21.824	5.6364	5.e-002	2.3694
20439	21.915	5.8182	0.	12.301
20440	21.824	5.8182	5.e-002	0.67422
20441	21.824	5.9091	0.	8.2914
20442	22.005	0.27273	0.	11.398
20443	22.096	0.18182	0.	12.298
20444	22.005	0.18182	5.e-002	1.0576
20445	22.005	9.0909e-002	0.	8.2851
20446	22.005	0.45455	0.	9.6655
20447	22.096	0.36364	0.	10.979
20448	22.005	0.36364	5.e-002	2.6766
20449	22.005	0.63636	0.	6.9372
20450	22.096	0.54545	0.	9.3484
20451	22.005	0.54545	5.e-002	2.9307
20452	22.005	0.81818	0.	2.8188
20453	22.096	0.72727	0.	6.382
20454	22.005	0.72727	5.e-002	3.1513
20455	22.005	1.	0.	0.18102
20456	22.096	0.90909	0.	2.1691
20457	22.005	0.90909	5.e-002	3.4118
20458	22.005	1.1818	0.	0.1064
20459	22.096	1.0909	0.	0.15612
20460	22.005	1.0909	5.e-002	3.7025
20461	22.005	1.3636	0.	9.2126e-002
20462	22.096	1.2727	0.	0.10307
20463	22.005	1.2727	5.e-002	4.0097
20464	22.005	1.5455	0.	8.6369e-002
20465	22.096	1.4545	0.	9.0994e-002
20466	22.005	1.4545	5.e-002	4.3208
20467	22.005	1.7273	0.	8.3513e-002
20468	22.096	1.6364	0.	8.5872e-002
20469	22.005	1.6364	5.e-002	4.625
20470	22.005	1.9091	0.	8.2282e-002
20471	22.096	1.8182	0.	8.3309e-002
20472	22.005	1.8182	5.e-002	4.9135
20473	22.005	2.0909	0.	8.2281e-002
20474	22.096	2.	0.	8.2232e-002
20475	22.005	2.	5.e-002	5.1787
20476	22.005	2.2727	0.	8.3234e-002
20477	22.096	2.1818	0.	8.2241e-002
20478	22.005	2.1818	5.e-002	5.4136
20479	22.005	2.4545	0.	8.4771e-002
20480	22.096	2.3636	0.	8.3017e-002
20481	22.005	2.3636	5.e-002	5.6121
20482	22.005	2.6364	0.	8.6408e-002
20483	22.096	2.5455	0.	8.4173e-002
20484	22.005	2.5455	5.e-002	5.7678
20485	22.005	2.8182	0.	8.7644e-002
20486	22.096	2.7273	0.	8.5278e-002
20487	22.005	2.7273	5.e-002	5.8753
20488	22.005	3.	0.	8.8102e-002
20489	22.096	2.9091	0.	8.5943e-002
20490	22.005	2.9091	5.e-002	5.9302
20491	22.005	3.1818	0.	8.7644e-002
20492	22.096	3.0909	0.	8.5942e-002
20493	22.005	3.0909	5.e-002	5.9302
20494	22.005	3.3636	0.	8.6407e-002
20495	22.096	3.2727	0.	8.5278e-002
20496	22.005	3.2727	5.e-002	5.8753
20497	22.005	3.5455	0.	8.4771e-002
20498	22.096	3.4545	0.	8.4174e-002
20499	22.005	3.4545	5.e-002	5.7678
20500	22.005	3.7273	0.	8.3235e-002
20501	22.096	3.6364	0.	8.3017e-002
20502	22.005	3.6364	5.e-002	5.6121
20503	22.005	3.9091	0.	8.228e-002
20504	22.096	3.8182	0.	8.224e-002
20505	22.005	3.8182	5.e-002	5.4137
20506	22.005	4.0909	0.	8.2281e-002
20507	22.096	4.	0.	8.2232e-002
20508	22.005	4.	5.e-002	5.1786
20509	22.005	4.2727	0.	8.3513e-002
20510	22.096	4.1818	0.	8.3308e-002
20511	22.005	4.1818	5.e-002	4.9135
20512	22.005	4.4545	0.	8.637e-002
20513	22.096	4.3636	0.	8.5872e-002
20514	22.005	4.3636	5.e-002	4.625
20515	22.005	4.6364	0.	9.2127e-002
20516	22.096	4.5455	0.	9.0994e-002
20517	22.005	4.5455	5.e-002	4.3208
20518	22.005	4.8182	0.	0.1064
20519	22.096	4.7273	0.	0.10307
20520	22.005	4.7273	5.e-002	4.0097
20521	22.005	5.	0.	0.18102
20522	22.096	4.9091	0.	0.15612
20523	22.005	4.9091	5.e-002	3.7025
20524	22.005	5.1818	0.	2.8189
20525	22.096	5.0909	0.	2.1691
20526	22.005	5.0909	5.e-002	3.4118
20527	22.005	5.3636	0.	6.9372
20528	22.096	5.2727	0.	6.382
20529	22.005	5.2727	5.e-002	3.1513
20530	22.005	5.5455	0.	9.6655
20531	22.096	5.4545	0.	9.3484
20532	22.005	5.4545	5.e-002	2.9307
20533	22.005	5.7273	0.	11.398
20534	22.096	5.6364	0.	10.979
20535	22.005	5.6364	5.e-002	2.6766
20536	22.096	5.8182	0.	12.298
20537	22.005	5.8182	5.e-002	1.0576
20538	22.005	5.9091	0.	8.2851
20539	22.187	0.27273	0.	11.729
20540	22.277	0.18182	0.	12.527
20541	22.187	0.18182	5.e-002	1.3764
20542	22.187	9.0909e-002	0.	8.4198
20543	22.187	0.45455	0.	10.598
20544	22.277	0.36364	0.	11.714
20545	22.187	0.36364	5.e-002	2.9257
20546	22.187	0.63636	0.	8.7425
20547	22.277	0.54545	0.	10.878
20548	22.187	0.54545	5.e-002	3.1445
20549	22.187	0.81818	0.	5.6685
20550	22.277	0.72727	0.	8.9295
20551	22.187	0.72727	5.e-002	3.3217
20552	22.187	1.	0.	1.5331
20553	22.277	0.90909	0.	5.8287
20554	22.187	0.90909	5.e-002	3.5317
20555	22.187	1.1818	0.	0.13684
20556	22.277	1.0909	0.	1.7458
20557	22.187	1.0909	5.e-002	3.7684
20558	22.187	1.3636	0.	9.9022e-002
20559	22.277	1.2727	0.	0.14546
20560	22.187	1.2727	5.e-002	4.0204
20561	22.187	1.5455	0.	8.9237e-002
20562	22.277	1.4545	0.	0.1019
20563	22.187	1.4545	5.e-002	4.2769
20564	22.187	1.7273	0.	8.4923e-002
20565	22.277	1.6364	0.	9.0983e-002
20566	22.187	1.6364	5.e-002	4.5284
20567	22.187	1.9091	0.	8.274e-002
20568	22.277	1.8182	0.	8.6182e-002
20569	22.187	1.8182	5.e-002	4.7668
20570	22.187	2.0909	0.	8.1796e-002
20571	22.277	2.	0.	8.3731e-002
20572	22.187	2.	5.e-002	4.9855
20573	22.187	2.2727	0.	8.1702e-002
20574	22.277	2.1818	0.	8.2578e-002
20575	22.187	2.1818	5.e-002	5.1784
20576	22.187	2.4545	0.	8.2147e-002
20577	22.277	2.3636	0.	8.225e-002
20578	22.187	2.3636	5.e-002	5.3405
20579	22.187	2.6364	0.	8.2804e-002
20580	22.277	2.5455	0.	8.24e-002
20581	22.187	2.5455	5.e-002	5.467
20582	22.187	2.8182	0.	8.3355e-002
20583	22.277	2.7273	0.	8.272e-002
20584	22.187	2.7273	5.e-002	5.5539
20585	22.187	3.	0.	8.3567e-002
20586	22.277	2.9091	0.	8.2951e-002
20587	22.187	2.9091	5.e-002	5.5982
20588	22.187	3.1818	0.	8.3355e-002
20589	22.277	3.0909	0.	8.2952e-002
20590	22.187	3.0909	5.e-002	5.5981
20591	22.187	3.3636	0.	8.2804e-002
20592	22.277	3.2727	0.	8.2719e-002
20593	22.187	3.2727	5.e-002	5.5539
20594	22.187	3.5455	0.	8.2148e-002
20595	22.277	3.4545	0.	8.2402e-002
20596	22.187	3.4545	5.e-002	5.467
20597	22.187	3.7273	0.	8.1702e-002
20598	22.277	3.6364	0.	8.2249e-002
20599	22.187	3.6364	5.e-002	5.3405
20600	22.187	3.9091	0.	8.1795e-002
20601	22.277	3.8182	0.	8.2576e-002
20602	22.187	3.8182	5.e-002	5.1784
20603	22.187	4.0909	0.	8.274e-002
20604	22.277	4.	0.	8.373e-002
20605	22.187	4.	5.e-002	4.9855
20606	22.187	4.2727	0.	8.4922e-002
20607	22.277	4.1818	0.	8.6183e-002
20608	22.187	4.1818	5.e-002	4.7668
20609	22.187	4.4545	0.	8.9236e-002
20610	22.277	4.3636	0.	9.0984e-002
20611	22.187	4.3636	5.e-002	4.5284
20612	22.187	4.6364	0.	9.902e-002
20613	22.277	4.5455	0.	0.1019
20614	22.187	4.5455	5.e-002	4.2769
20615	22.187	4.8182	0.	0.13684
20616	22.277	4.7273	0.	0.14546
20617	22.187	4.7273	5.e-002	4.0204
20618	22.187	5.	0.	1.5332
20619	22.277	4.9091	0.	1.7459
20620	22.187	4.9091	5.e-002	3.7684
20621	22.187	5.1818	0.	5.6686
20622	22.277	5.0909	0.	5.8288
20623	22.187	5.0909	5.e-002	3.5317
20624	22.187	5.3636	0.	8.7425
20625	22.277	5.2727	0.	8.9296
20626	22.187	5.2727	5.e-002	3.3217
20627	22.187	5.5455	0.	10.598
20628	22.277	5.4545	0.	10.878
20629	22.187	5.4545	5.e-002	3.1445
20630	22.187	5.7273	0.	11.729
20631	22.277	5.6364	0.	11.714
20632	22.187	5.6364	5.e-002	2.9257
20633	22.277	5.8182	0.	12.527
20634	22.187	5.8182	5.e-002	1.3764
20635	22.187	5.9091	0.	8.4197
20636	22.368	0.27273	0.	12.342
20637	22.459	0.18182	0.	12.966
20638	22.368	0.18182	5.e-002	1.6453
20639	22.368	9.0909e-002	0.	8.6837
20640	22.368	0.45455	0.	11.92
20641	22.459	0.36364	0.	12.791
20642	22.368	0.36364	5.e-002	3.1259
20643	22.368	0.63636	0.	11.009
20644	22.459	0.54545	0.	12.849
20645	22.368	0.54545	5.e-002	3.3181
20646	22.368	0.81818	0.	9.0466
20647	22.459	0.72727	0.	11.973
20648	22.368	0.72727	5.e-002	3.4625
20649	22.368	1.	0.	6.0301
20650	22.459	0.90909	0.	10.057
20651	22.368	0.90909	5.e-002	3.6334
20652	22.368	1.1818	0.	2.1173
20653	22.459	1.0909	0.	7.1346
20654	22.368	1.0909	5.e-002	3.8272
20655	22.368	1.3636	0.	0.15797
20656	22.459	1.2727	0.	3.358
20657	22.368	1.2727	5.e-002	4.0345
20658	22.368	1.5455	0.	0.10438
20659	22.459	1.4545	0.	0.24776
20660	22.368	1.4545	5.e-002	4.2462
20661	22.368	1.7273	0.	9.2268e-002
20662	22.459	1.6364	0.	0.11528
20663	22.368	1.6364	5.e-002	4.4541
20664	22.368	1.9091	0.	8.7069e-002
20665	22.459	1.8182	0.	9.6981e-002
20666	22.368	1.8182	5.e-002	4.6511
20667	22.368	2.0909	0.	8.4382e-002
20668	22.459	2.	0.	8.9959e-002
20669	22.368	2.	5.e-002	4.8314
20670	22.368	2.2727	0.	8.2993e-002
20671	22.459	2.1818	0.	8.6458e-002
20672	22.368	2.1818	5.e-002	4.99
20673	22.368	2.4545	0.	8.2375e-002
20674	22.459	2.3636	0.	8.4604e-002
20675	22.368	2.3636	5.e-002	5.1226
20676	22.368	2.6364	0.	8.2194e-002
20677	22.459	2.5455	0.	8.366e-002
20678	22.368	2.5455	5.e-002	5.2256
20679	22.368	2.8182	0.	8.2197e-002
20680	22.459	2.7273	0.	8.3236e-002
20681	22.368	2.7273	5.e-002	5.2962
20682	22.368	3.	0.	8.2218e-002
20683	22.459	2.9091	0.	8.3082e-002
20684	22.368	2.9091	5.e-002	5.332
20685	22.368	3.1818	0.	8.2197e-002
20686	22.459	3.0909	0.	8.3084e-002
20687	22.368	3.0909	5.e-002	5.332
20688	22.368	3.3636	0.	8.2194e-002
20689	22.459	3.2727	0.	8.3234e-002
20690	22.368	3.2727	5.e-002	5.2961
20691	22.368	3.5455	0.	8.2375e-002
20692	22.459	3.4545	0.	8.3662e-002
20693	22.368	3.4545	5.e-002	5.2256
20694	22.368	3.7273	0.	8.2991e-002
20695	22.459	3.6364	0.	8.4603e-002
20696	22.368	3.6364	5.e-002	5.1226
20697	22.368	3.9091	0.	8.438e-002
20698	22.459	3.8182	0.	8.6457e-002
20699	22.368	3.8182	5.e-002	4.99
20700	22.368	4.0909	0.	8.7069e-002
20701	22.459	4.	0.	8.9958e-002
20702	22.368	4.	5.e-002	4.8314
20703	22.368	4.2727	0.	9.227e-002
20704	22.459	4.1818	0.	9.6981e-002
20705	22.368	4.1818	5.e-002	4.6511
20706	22.368	4.4545	0.	0.10438
20707	22.459	4.3636	0.	0.11528
20708	22.368	4.3636	5.e-002	4.4541
20709	22.368	4.6364	0.	0.15798
20710	22.459	4.5455	0.	0.24777
20711	22.368	4.5455	5.e-002	4.2462
20712	22.368	4.8182	0.	2.1174
20713	22.459	4.7273	0.	3.358
20714	22.368	4.7273	5.e-002	4.0345
20715	22.368	5.	0.	6.0302
20716	22.459	4.9091	0.	7.1347
20717	22.368	4.9091	5.e-002	3.8272
20718	22.368	5.1818	0.	9.0467
20719	22.459	5.0909	0.	10.057
20720	22.368	5.0909	5.e-002	3.6334
20721	22.368	5.3636	0.	11.009
20722	22.459	5.2727	0.	11.973
20723	22.368	5.2727	5.e-002	3.4625
20724	22.368	5.5455	0.	11.92
20725	22.459	5.4545	0.	12.849
20726	22.368	5.4545	5.e-002	3.3181
20727	22.368	5.7273	0.	12.342
20728	22.459	5.6364	0.	12.791
20729	22.368	5.6364	5.e-002	3.1259
20730	22.459	5.8182	0.	12.966
20731	22.368	5.8182	5.e-002	1.6453
20732	22.368	5.9091	0.	8.6836
20733	22.549	0.27273	0.	13.225
20734	22.64	0.18182	0.	13.593
20735	22.549	0.18182	5.e-002	1.8772
20736	22.549	9.0909e-002	0.	9.0638
20737	22.549	0.45455	0.	13.636
20738	22.64	0.36364	0.	14.213
20739	22.549	0.36364	5.e-002	3.2866
20740	22.549	0.63636	0.	13.751
20741	22.64	0.54545	0.	15.28
20742	22.549	0.54545	5.e-002	3.4582
20743	22.549	0.81818	0.	12.937
20744	22.64	0.72727	0.	15.539
20745	22.549	0.72727	5.e-002	3.5784
20746	22.549	1.	0.	11.13
20747	22.64	0.90909	0.	14.819
20748	22.549	0.90909	5.e-002	3.7195
20749	22.549	1.1818	0.	8.3886
20750	22.64	1.0909	0.	13.107
20751	22.549	1.0909	5.e-002	3.8796
20752	22.549	1.3636	0.	4.8686
20753	22.64	1.2727	0.	10.497
20754	22.549	1.2727	5.e-002	4.0511
20755	22.549	1.5455	0.	0.96287
20756	22.64	1.4545	0.	7.1676
20757	22.549	1.4545	5.e-002	4.2263
20758	22.549	1.7273	0.	0.13584
20759	22.64	1.6364	0.	3.3655
20760	22.549	1.6364	5.e-002	4.3982
20761	22.549	1.9091	0.	0.10297
20762	22.64	1.8182	0.	0.28202
20763	22.549	1.8182	5.e-002	4.561
20764	22.549	2.0909	0.	9.3044e-002
20765	22.64	2.	0.	0.11895
20766	22.549	2.	5.e-002	4.7096
20767	22.549	2.2727	0.	8.8462e-002
20768	22.64	2.1818	0.	9.9371e-002
20769	22.549	2.1818	5.e-002	4.8399
20770	22.549	2.4545	0.	8.6047e-002
20771	22.64	2.3636	0.	9.2193e-002
20772	22.549	2.3636	5.e-002	4.9484
20773	22.549	2.6364	0.	8.4758e-002
20774	22.64	2.5455	0.	8.8766e-002
20775	22.549	2.5455	5.e-002	5.0324
20776	22.549	2.8182	0.	8.4132e-002
20777	22.64	2.7273	0.	8.7052e-002
20778	22.549	2.7273	5.e-002	5.0897
20779	22.549	3.	0.	8.3947e-002
20780	22.64	2.9091	0.	8.6325e-002
20781	22.549	2.9091	5.e-002	5.1187
20782	22.549	3.1818	0.	8.4132e-002
20783	22.64	3.0909	0.	8.6325e-002
20784	22.549	3.0909	5.e-002	5.1187
20785	22.549	3.3636	0.	8.4758e-002
20786	22.64	3.2727	0.	8.7051e-002
20787	22.549	3.2727	5.e-002	5.0897
20788	22.549	3.5455	0.	8.6048e-002
20789	22.64	3.4545	0.	8.8767e-002
20790	22.549	3.4545	5.e-002	5.0324
20791	22.549	3.7273	0.	8.8462e-002
20792	22.64	3.6364	0.	9.2192e-002
20793	22.549	3.6364	5.e-002	4.9484
20794	22.549	3.9091	0.	9.3044e-002
20795	22.64	3.8182	0.	9.9372e-002
20796	22.549	3.8182	5.e-002	4.8399
20797	22.549	4.0909	0.	0.10297
20798	22.64	4.	0.	0.11894
20799	22.549	4.	5.e-002	4.7096
20800	22.549	4.2727	0.	0.13584
20801	22.64	4.1818	0.	0.28202
20802	22.549	4.1818	5.e-002	4.561
20803	22.549	4.4545	0.	0.96291
20804	22.64	4.3636	0.	3.3656
20805	22.549	4.3636	5.e-002	4.3982
20806	22.549	4.6364	0.	4.8687
20807	22.64	4.5455	0.	7.1676
20808	22.549	4.5455	5.e-002	4.2263
20809	22.549	4.8182	0.	8.3887
20810	22.64	4.7273	0.	10.497
20811	22.549	4.7273	5.e-002	4.0511
20812	22.549	5.	0.	11.13
20813	22.64	4.9091	0.	13.107
20814	22.549	4.9091	5.e-002	3.8796
20815	22.549	5.1818	0.	12.937
20816	22.64	5.0909	0.	14.819
20817	22.549	5.0909	5.e-002	3.7195
20818	22.549	5.3636	0.	13.751
20819	22.64	5.2727	0.	15.539
20820	22.549	5.2727	5.e-002	3.5783
20821	22.549	5.5455	0.	13.636
20822	22.64	5.4545	0.	15.28
20823	22.549	5.4545	5.e-002	3.4582
20824	22.549	5.7273	0.	13.225
20825	22.64	5.6364	0.	14.213
20826	22.549	5.6364	5.e-002	3.2866
20827	22.64	5.8182	0.	13.593
20828	22.549	5.8182	5.e-002	1.8772
20829	22.549	5.9091	0.	9.0637
20830	22.731	0.27273	0.	14.368
20831	22.821	0.18182	0.	14.387
20832	22.731	0.18182	5.e-002	2.084
20833	22.731	9.0909e-002	0.	9.5468
20834	22.731	0.45455	0.	15.762
20835	22.821	0.36364	0.	15.993
20836	22.731	0.36364	5.e-002	3.4158
20837	22.731	0.63636	0.	17.
20838	22.821	0.54545	0.	18.21
20839	22.731	0.54545	5.e-002	3.5718
20840	22.731	0.81818	0.	17.372
20841	22.821	0.72727	0.	19.676
20842	22.731	0.72727	5.e-002	3.6744
20843	22.731	1.	0.	16.762
20844	22.821	0.90909	0.	20.159
20845	22.731	0.90909	5.e-002	3.7933
20846	22.731	1.1818	0.	15.193
20847	22.821	1.0909	0.	19.611
20848	22.731	1.0909	5.e-002	3.9273
20849	22.731	1.3636	0.	12.791
20850	22.821	1.2727	0.	18.113
20851	22.731	1.2727	5.e-002	4.0702
20852	22.731	1.5455	0.	9.7463
20853	22.821	1.4545	0.	15.827
20854	22.731	1.4545	5.e-002	4.2157
20855	22.731	1.7273	0.	6.2948
20856	22.821	1.6364	0.	12.97
20857	22.731	1.6364	5.e-002	4.358
20858	22.731	1.9091	0.	2.7057
20859	22.821	1.8182	0.	9.781
20860	22.731	1.8182	5.e-002	4.4923
20861	22.731	2.0909	0.	0.22133
20862	22.821	2.	0.	6.5084
20863	22.731	2.	5.e-002	4.6145
20864	22.731	2.2727	0.	0.11288
20865	22.821	2.1818	0.	3.3914
20866	22.731	2.1818	5.e-002	4.7211
20867	22.731	2.4545	0.	9.7467e-002
20868	22.821	2.3636	0.	0.72055
20869	22.731	2.3636	5.e-002	4.8097
20870	22.731	2.6364	0.	9.1876e-002
20871	22.821	2.5455	0.	0.11998
20872	22.731	2.5455	5.e-002	4.878
20873	22.731	2.8182	0.	8.9504e-002
20874	22.821	2.7273	0.	9.8466e-002
20875	22.731	2.7273	5.e-002	4.9244
20876	22.731	3.	0.	8.8826e-002
20877	22.821	2.9091	0.	9.3643e-002
20878	22.731	2.9091	5.e-002	4.9479
20879	22.731	3.1818	0.	8.9504e-002
20880	22.821	3.0909	0.	9.3642e-002
20881	22.731	3.0909	5.e-002	4.9479
20882	22.731	3.3636	0.	9.1876e-002
20883	22.821	3.2727	0.	9.8466e-002
20884	22.731	3.2727	5.e-002	4.9244
20885	22.731	3.5455	0.	9.7466e-002
20886	22.821	3.4545	0.	0.11998
20887	22.731	3.4545	5.e-002	4.878
20888	22.731	3.7273	0.	0.11288
20889	22.821	3.6364	0.	0.72056
20890	22.731	3.6364	5.e-002	4.8097
20891	22.731	3.9091	0.	0.22133
20892	22.821	3.8182	0.	3.3914
20893	22.731	3.8182	5.e-002	4.7211
20894	22.731	4.0909	0.	2.7058
20895	22.821	4.	0.	6.5085
20896	22.731	4.	5.e-002	4.6145
20897	22.731	4.2727	0.	6.2948
20898	22.821	4.1818	0.	9.7811
20899	22.731	4.1818	5.e-002	4.4923
20900	22.731	4.4545	0.	9.7464
20901	22.821	4.3636	0.	12.97
20902	22.731	4.3636	5.e-002	4.358
20903	22.731	4.6364	0.	12.791
20904	22.821	4.5455	0.	15.828
20905	22.731	4.5455	5.e-002	4.2157
20906	22.731	4.8182	0.	15.193
20907	22.821	4.7273	0.	18.113
20908	22.731	4.7273	5.e-002	4.0702
20909	22.731	5.	0.	16.762
20910	22.821	4.9091	0.	19.612
20911	22.731	4.9091	5.e-002	3.9272
20912	22.731	5.1818	0.	17.372
20913	22.821	5.0909	0.	20.159
20914	22.731	5.0909	5.e-002	3.7932
20915	22.731	5.3636	0.	17.
20916	22.821	5.2727	0.	19.676
20917	22.731	5.2727	5.e-002	3.6744
20918	22.731	5.5455	0.	15.762
20919	22.821	5.4545	0.	18.21
20920	22.731	5.4545	5.e-002	3.5718
20921	22.731	5.7273	0.	14.368
20922	22.821	5.6364	0.	15.993
20923	22.731	5.6364	5.e-002	3.4158
20924	22.821	5.8182	0.	14.387
20925	22.731	5.8182	5.e-002	2.084
20926	22.731	5.9091	0.	9.5468
20927	22.912	0.27273	0.	15.771
20928	23.003	0.18182	0.	15.33
20929	22.912	0.18182	5.e-002	2.2766
20930	22.912	9.0909e-002	0.	10.12
20931	22.912	0.45455	0.	18.335
20932	23.003	0.36364	0.	18.17
20933	22.912	0.36364	5.e-002	3.5211
20934	22.912	0.63636	0.	20.814
20935	23.003	0.54545	0.	21.71
20936	22.912	0.54545	5.e-002	3.6654
20937	22.912	0.81818	0.	22.413
20938	23.003	0.72727	0.	24.464
20939	22.912	0.72727	5.e-002	3.7563
20940	22.912	1.	0.	22.975
20941	23.003	0.90909	0.	26.146
20942	22.912	0.90909	5.e-002	3.8589
20943	22.912	1.1818	0.	22.509
20944	23.003	1.0909	0.	26.7
20945	22.912	1.0909	5.e-002	3.9727
20946	22.912	1.3636	0.	21.136
20947	23.003	1.2727	0.	26.214
20948	22.912	1.2727	5.e-002	4.0928
20949	22.912	1.5455	0.	19.044
20950	23.003	1.4545	0.	24.86
20951	22.912	1.4545	5.e-002	4.2138
20952	22.912	1.7273	0.	16.459
20953	23.003	1.6364	0.	22.854
20954	22.912	1.6364	5.e-002	4.3314
20955	22.912	1.9091	0.	13.618
20956	23.003	1.8182	0.	20.434
20957	22.912	1.8182	5.e-002	4.4417
20958	22.912	2.0909	0.	10.756
20959	23.003	2.	0.	17.838
20960	22.912	2.	5.e-002	4.5414
20961	22.912	2.2727	0.	8.0909
20962	23.003	2.1818	0.	15.29
20963	22.912	2.1818	5.e-002	4.6281
20964	22.912	2.4545	0.	5.8095
20965	23.003	2.3636	0.	12.992
20966	22.912	2.3636	5.e-002	4.6998
20967	22.912	2.6364	0.	4.0648
20968	23.003	2.5455	0.	11.113
20969	22.912	2.5455	5.e-002	4.7549
20970	22.912	2.8182	0.	2.9696
20971	23.003	2.7273	0.	9.7844
20972	22.912	2.7273	5.e-002	4.7922
20973	22.912	3.	0.	2.5957
20974	23.003	2.9091	0.	9.0973
20975	22.912	2.9091	5.e-002	4.811
20976	22.912	3.1818	0.	2.9696
20977	23.003	3.0909	0.	9.0973
20978	22.912	3.0909	5.e-002	4.811
20979	22.912	3.3636	0.	4.0648
20980	23.003	3.2727	0.	9.7844
20981	22.912	3.2727	5.e-002	4.7922
20982	22.912	3.5455	0.	5.8095
20983	23.003	3.4545	0.	11.113
20984	22.912	3.4545	5.e-002	4.7549
20985	22.912	3.7273	0.	8.0909
20986	23.003	3.6364	0.	12.992
20987	22.912	3.6364	5.e-002	4.6998
20988	22.912	3.9091	0.	10.756
20989	23.003	3.8182	0.	15.29
20990	22.912	3.8182	5.e-002	4.6281
20991	22.912	4.0909	0.	13.618
20992	23.003	4.	0.	17.838
20993	22.912	4.	5.e-002	4.5414
20994	22.912	4.2727	0.	16.459
20995	23.003	4.1818	0.	20.434
20996	22.912	4.1818	5.e-002	4.4417
20997	22.912	4.4545	0.	19.044
20998	23.003	4.3636	0.	22.854
20999	22.912	4.3636	5.e-002	4.3314
21000	22.912	4.6364	0.	21.136
21001	23.003	4.5455	0.	24.86
21002	22.912	4.5455	5.e-002	4.2138
21003	22.912	4.8182	0.	22.509
21004	23.003	4.7273	0.	26.214
21005	22.912	4.7273	5.e-002	4.0928
21006	22.912	5.	0.	22.975
21007	23.003	4.9091	0.	26.7
21008	22.912	4.9091	5.e-002	3.9727
21009	22.912	5.1818	0.	22.413
21010	23.003	5.0909	0.	26.146
21011	22.912	5.0909	5.e-002	3.8589
21012	22.912	5.3636	0.	20.814
21013	23.003	5.2727	0.	24.464
21014	22.912	5.2727	5.e-002	3.7563
21015	22.912	5.5455	0.	18.335
21016	23.003	5.4545	0.	21.71
21017	22.912	5.4545	5.e-002	3.6654
21018	22.912	5.7273	0.	15.771
21019	23.003	5.6364	0.	18.17
21020	22.912	5.6364	5.e-002	3.5211
21021	23.003	5.8182	0.	15.33
21022	22.912	5.8182	5.e-002	2.2766
21023	22.912	5.9091	0.	10.12
21024	23.093	0.27273	0.	17.453
21025	23.184	0.18182	0.	16.416
21026	23.093	0.18182	5.e-002	2.4653
21027	23.093	9.0909e-002	0.	10.772
21028	23.093	0.45455	0.	21.427
21029	23.184	0.36364	0.	20.828
21030	23.093	0.36364	5.e-002	3.6096
21031	23.093	0.63636	0.	25.286
21032	23.184	0.54545	0.	25.907
21033	23.093	0.54545	5.e-002	3.7461
21034	23.093	0.81818	0.	28.148
21035	23.184	0.72727	0.	30.023
21036	23.093	0.72727	5.e-002	3.8302
21037	23.093	1.	0.	29.839
21038	23.184	0.90909	0.	32.874
21039	23.093	0.90909	5.e-002	3.9213
21040	23.093	1.1818	0.	30.384
21041	23.184	1.0909	0.	34.438
21042	23.093	1.0909	5.e-002	4.0193
21043	23.093	1.3636	0.	29.924
21044	23.184	1.2727	0.	34.843
21045	23.093	1.2727	5.e-002	4.1203
21046	23.093	1.5455	0.	28.661
21047	23.184	1.4545	0.	34.288
21048	23.093	1.4545	5.e-002	4.2206
21049	23.093	1.7273	0.	26.825
21050	23.184	1.6364	0.	33.003
21051	23.093	1.6364	5.e-002	4.3169
21052	23.093	1.9091	0.	24.652
21053	23.184	1.8182	0.	31.229
21054	23.093	1.8182	5.e-002	4.4063
21055	23.093	2.0909	0.	22.371
21056	23.184	2.	0.	29.203
21057	23.093	2.	5.e-002	4.4867
21058	23.093	2.2727	0.	20.193
21059	23.184	2.1818	0.	27.143
21060	23.093	2.1818	5.e-002	4.5561
21061	23.093	2.4545	0.	18.298
21062	23.184	2.3636	0.	25.245
21063	23.093	2.3636	5.e-002	4.6131
21064	23.093	2.6364	0.	16.835
21065	23.184	2.5455	0.	23.672
21066	23.093	2.5455	5.e-002	4.6567
21067	23.093	2.8182	0.	15.913
21068	23.184	2.7273	0.	22.551
21069	23.093	2.7273	5.e-002	4.6862
21070	23.093	3.	0.	15.598
21071	23.184	2.9091	0.	21.968
21072	23.093	2.9091	5.e-002	4.7011
21073	23.093	3.1818	0.	15.913
21074	23.184	3.0909	0.	21.968
21075	23.093	3.0909	5.e-002	4.7011
21076	23.093	3.3636	0.	16.835
21077	23.184	3.2727	0.	22.551
21078	23.093	3.2727	5.e-002	4.6862
21079	23.093	3.5455	0.	18.298
21080	23.184	3.4545	0.	23.672
21081	23.093	3.4545	5.e-002	4.6567
21082	23.093	3.7273	0.	20.193
21083	23.184	3.6364	0.	25.245
21084	23.093	3.6364	5.e-002	4.6131
21085	23.093	3.9091	0.	22.371
21086	23.184	3.8182	0.	27.143
21087	23.093	3.8182	5.e-002	4.5561
21088	23.093	4.0909	0.	24.652
21089	23.184	4.	0.	29.203
21090	23.093	4.	5.e-002	4.4867
21091	23.093	4.2727	0.	26.825
21092	23.184	4.1818	0.	31.229
21093	23.093	4.1818	5.e-002	4.4063
21094	23.093	4.4545	0.	28.661
21095	23.184	4.3636	0.	33.003
21096	23.093	4.3636	5.e-002	4.3169
21097	23.093	4.6364	0.	29.924
21098	23.184	4.5455	0.	34.288
21099	23.093	4.5455	5.e-002	4.2206
21100	23.093	4.8182	0.	30.384
21101	23.184	4.7273	0.	34.843
21102	23.093	4.7273	5.e-002	4.1203
21103	23.093	5.	0.	29.839
21104	23.184	4.9091	0.	34.438
21105	23.093	4.9091	5.e-002	4.0193
21106	23.093	5.1818	0.	28.148
21107	23.184	5.0909	0.	32.874
21108	23.093	5.0909	5.e-002	3.9213
21109	23.093	5.3636	0.	25.286
21110	23.184	5.2727	0.	30.023
21111	23.093	5.2727	5.e-002	3.8302
21112	23.093	5.5455	0.	21.427
21113	23.184	5.4545	0.	25.907
21114	23.093	5.4545	5.e-002	3.7461
21115	23.093	5.7273	0.	17.453
21116	23.184	5.6364	0.	20.828
21117	23.093	5.6364	5.e-002	3.6096
21118	23.184	5.8182	0.	16.416
21119	23.093	5.8182	5.e-002	2.4653
21120	23.093	5.9091	0.	10.772
21121	23.275	0.27273	0.	19.471
21122	23.365	0.18182	0.	17.661
21123	23.275	0.18182	5.e-002	2.6614
21124	23.275	9.0909e-002	0.	11.495
21125	23.275	0.45455	0.	25.18
21126	23.365	0.36364	0.	24.139
21127	23.275	0.36364	5.e-002	3.6891
21128	23.275	0.63636	0.	30.57
21129	23.365	0.54545	0.	31.001
21130	23.275	0.54545	5.e-002	3.8227
21131	23.275	0.81818	0.	34.704
21132	23.365	0.72727	0.	36.51
21133	23.275	0.72727	5.e-002	3.904
21134	23.275	1.	0.	37.445
21135	23.365	0.90909	0.	40.447
21136	23.275	0.90909	5.e-002	3.9863
21137	23.275	1.1818	0.	38.88
21138	23.365	1.0909	0.	42.89
21139	23.275	1.0909	5.e-002	4.0707
21140	23.275	1.3636	0.	39.196
21141	23.365	1.2727	0.	44.039
21142	23.275	1.2727	5.e-002	4.1548
21143	23.275	1.5455	0.	38.622
21144	23.365	1.4545	0.	44.134
21145	23.275	1.4545	5.e-002	4.2364
21146	23.275	1.7273	0.	37.403
21147	23.365	1.6364	0.	43.428
21148	23.275	1.6364	5.e-002	4.3134
21149	23.275	1.9091	0.	35.778
21150	23.365	1.8182	0.	42.171
21151	23.275	1.8182	5.e-002	4.3841
21152	23.275	2.0909	0.	33.973
21153	23.365	2.	0.	40.599
21154	23.275	2.	5.e-002	4.447
21155	23.275	2.2727	0.	32.195
21156	23.365	2.1818	0.	38.929
21157	23.275	2.1818	5.e-002	4.5009
21158	23.275	2.4545	0.	30.618
21159	23.365	2.3636	0.	37.351
21160	23.275	2.3636	5.e-002	4.5449
21161	23.275	2.6364	0.	29.387
21162	23.365	2.5455	0.	36.023
21163	23.275	2.5455	5.e-002	4.5784
21164	23.275	2.8182	0.	28.605
21165	23.365	2.7273	0.	35.068
21166	23.275	2.7273	5.e-002	4.6009
21167	23.275	3.	0.	28.338
21168	23.365	2.9091	0.	34.569
21169	23.275	2.9091	5.e-002	4.6123
21170	23.275	3.1818	0.	28.605
21171	23.365	3.0909	0.	34.569
21172	23.275	3.0909	5.e-002	4.6123
21173	23.275	3.3636	0.	29.387
21174	23.365	3.2727	0.	35.068
21175	23.275	3.2727	5.e-002	4.6009
21176	23.275	3.5455	0.	30.618
21177	23.365	3.4545	0.	36.023
21178	23.275	3.4545	5.e-002	4.5784
21179	23.275	3.7273	0.	32.195
21180	23.365	3.6364	0.	37.351
21181	23.275	3.6364	5.e-002	4.5449
21182	23.275	3.9091	0.	33.973
21183	23.365	3.8182	0.	38.929
21184	23.275	3.8182	5.e-002	4.5009
21185	23.275	4.0909	0.	35.778
21186	23.365	4.	0.	40.599
21187	23.275	4.	5.e-002	4.447
21188	23.275	4.2727	0.	37.403
21189	23.365	4.1818	0.	42.171
21190	23.275	4.1818	5.e-002	4.3841
21191	23.275	4.4545	0.	38.622
21192	23.365	4.3636	0.	43.428
21193	23.275	4.3636	5.e-002	4.3134
21194	23.275	4.6364	0.	39.196
21195	23.365	4.5455	0.	44.134
21196	23.275	4.5455	5.e-002	4.2363
21197	23.275	4.8182	0.	38.88
21198	23.365	4.7273	0.	44.039
21199	23.275	4.7273	5.e-002	4.1547
21200	23.275	5.	0.	37.445
21201	23.365	4.9091	0.	42.89
21202	23.275	4.9091	5.e-002	4.0707
21203	23.275	5.1818	0.	34.704
21204	23.365	5.0909	0.	40.447
21205	23.275	5.0909	5.e-002	3.9863
21206	23.275	5.3636	0.	30.57
21207	23.365	5.2727	0.	36.51
21208	23.275	5.2727	5.e-002	3.904
21209	23.275	5.5455	0.	25.18
21210	23.365	5.4545	0.	31.001
21211	23.275	5.4545	5.e-002	3.8227
21212	23.275	5.7273	0.	19.471
21213	23.365	5.6364	0.	24.139
21214	23.275	5.6364	5.e-002	3.6891
21215	23.365	5.8182	0.	17.661
21216	23.275	5.8182	5.e-002	2.6614
21217	23.275	5.9091	0.	11.495
21218	23.456	0.27273	0.	21.953
21219	23.547	0.18182	0.	19.174
21220	23.456	0.18182	5.e-002	2.8757
21221	23.456	9.0909e-002	0.	12.278
21222	23.456	0.45455	0.	29.828
21223	23.547	0.36364	0.	28.494
21224	23.456	0.36364	5.e-002	3.7719
21225	23.456	0.63636	0.	36.874
21226	23.547	0.54545	0.	37.328
21227	23.456	0.54545	5.e-002	3.9079
21228	23.456	0.81818	0.	42.216
21229	23.547	0.72727	0.	44.142
21230	23.456	0.72727	5.e-002	3.9874
21231	23.456	1.	0.	45.87
21232	23.547	0.90909	0.	48.996
21233	23.456	0.90909	5.e-002	4.0606
21234	23.456	1.1818	0.	48.035
21235	23.547	1.0909	0.	52.136
21236	23.456	1.0909	5.e-002	4.1307
21237	23.456	1.3636	0.	48.968
21238	23.547	1.2727	0.	53.853
21239	23.456	1.2727	5.e-002	4.1978
21240	23.456	1.5455	0.	48.933
21241	23.547	1.4545	0.	54.436
21242	23.456	1.4545	5.e-002	4.2611
21243	23.456	1.7273	0.	48.192
21244	23.547	1.6364	0.	54.162
21245	23.456	1.6364	5.e-002	4.3197
21246	23.456	1.9091	0.	46.99
21247	23.547	1.8182	0.	53.289
21248	23.456	1.8182	5.e-002	4.3727
21249	23.456	2.0909	0.	45.554
21250	23.547	2.	0.	52.055
21251	23.456	2.	5.e-002	4.4193
21252	23.456	2.2727	0.	44.085
21253	23.547	2.1818	0.	50.676
21254	23.456	2.1818	5.e-002	4.4588
21255	23.456	2.4545	0.	42.756
21256	23.547	2.3636	0.	49.336
21257	23.456	2.3636	5.e-002	4.4908
21258	23.456	2.6364	0.	41.704
21259	23.547	2.5455	0.	48.191
21260	23.456	2.5455	5.e-002	4.5149
21261	23.456	2.8182	0.	41.032
21262	23.547	2.7273	0.	47.36
21263	23.456	2.7273	5.e-002	4.5311
21264	23.456	3.	0.	40.801
21265	23.547	2.9091	0.	46.924
21266	23.456	2.9091	5.e-002	4.5392
21267	23.456	3.1818	0.	41.032
21268	23.547	3.0909	0.	46.924
21269	23.456	3.0909	5.e-002	4.5392
21270	23.456	3.3636	0.	41.704
21271	23.547	3.2727	0.	47.36
21272	23.456	3.2727	5.e-002	4.5311
21273	23.456	3.5455	0.	42.756
21274	23.547	3.4545	0.	48.191
21275	23.456	3.4545	5.e-002	4.5149
21276	23.456	3.7273	0.	44.085
21277	23.547	3.6364	0.	49.336
21278	23.456	3.6364	5.e-002	4.4908
21279	23.456	3.9091	0.	45.554
21280	23.547	3.8182	0.	50.676
21281	23.456	3.8182	5.e-002	4.4588
21282	23.456	4.0909	0.	46.991
21283	23.547	4.	0.	52.055
21284	23.456	4.	5.e-002	4.4193
21285	23.456	4.2727	0.	48.192
21286	23.547	4.1818	0.	53.289
21287	23.456	4.1818	5.e-002	4.3727
21288	23.456	4.4545	0.	48.934
21289	23.547	4.3636	0.	54.162
21290	23.456	4.3636	5.e-002	4.3197
21291	23.456	4.6364	0.	48.968
21292	23.547	4.5455	0.	54.436
21293	23.456	4.5455	5.e-002	4.2611
21294	23.456	4.8182	0.	48.035
21295	23.547	4.7273	0.	53.853
21296	23.456	4.7273	5.e-002	4.1978
21297	23.456	5.	0.	45.87
21298	23.547	4.9091	0.	52.136
21299	23.456	4.9091	5.e-002	4.1307
21300	23.456	5.1818	0.	42.216
21301	23.547	5.0909	0.	48.996
21302	23.456	5.0909	5.e-002	4.0606
21303	23.456	5.3636	0.	36.874
21304	23.547	5.2727	0.	44.142
21305	23.456	5.2727	5.e-002	3.9874
21306	23.456	5.5455	0.	29.828
21307	23.547	5.4545	0.	37.328
21308	23.456	5.4545	5.e-002	3.9079
21309	23.456	5.7273	0.	21.953
21310	23.547	5.6364	0.	28.494
21311	23.456	5.6364	5.e-002	3.7719
21312	23.547	5.8182	0.	19.174
21313	23.456	5.8182	5.e-002	2.8757
21314	23.456	5.9091	0.	12.278
21315	23.637	0.27273	0.	25.286
21316	23.728	0.18182	0.	21.536
21317	23.637	0.18182	5.e-002	3.1398
21318	23.637	9.0909e-002	0.	13.223
21319	23.637	0.45455	0.	35.875
21320	23.728	0.36364	0.	34.612
21321	23.637	0.36364	5.e-002	3.8927
21322	23.637	0.63636	0.	44.544
21323	23.728	0.54545	0.	45.253
21324	23.637	0.54545	5.e-002	4.0243
21325	23.637	0.81818	0.	50.894
21326	23.728	0.72727	0.	53.059
21327	23.637	0.72727	5.e-002	4.0955
21328	23.637	1.	0.	55.245
21329	23.728	0.90909	0.	58.548
21330	23.637	0.90909	5.e-002	4.1525
21331	23.637	1.1818	0.	57.943
21332	23.728	1.0909	0.	62.148
21333	23.637	1.0909	5.e-002	4.2039
21334	23.637	1.3636	0.	59.315
21335	23.728	1.2727	0.	64.235
21336	23.637	1.2727	5.e-002	4.2513
21337	23.637	1.5455	0.	59.662
21338	23.728	1.4545	0.	65.134
21339	23.637	1.4545	5.e-002	4.2951
21340	23.637	1.7273	0.	59.257
21341	23.728	1.6364	0.	65.138
21342	23.637	1.6364	5.e-002	4.335
21343	23.637	1.9091	0.	58.353
21344	23.728	1.8182	0.	64.514
21345	23.637	1.8182	5.e-002	4.3706
21346	23.637	2.0909	0.	57.176
21347	23.728	2.	0.	63.499
21348	23.637	2.	5.e-002	4.4013
21349	23.637	2.2727	0.	55.926
21350	23.728	2.1818	0.	62.308
21351	23.637	2.1818	5.e-002	4.427
21352	23.637	2.4545	0.	54.771
21353	23.728	2.3636	0.	61.125
21354	23.637	2.3636	5.e-002	4.4475
21355	23.637	2.6364	0.	53.847
21356	23.728	2.5455	0.	60.1
21357	23.637	2.5455	5.e-002	4.4629
21358	23.637	2.8182	0.	53.252
21359	23.728	2.7273	0.	59.35
21360	23.637	2.7273	5.e-002	4.473
21361	23.637	3.	0.	53.047
21362	23.728	2.9091	0.	58.956
21363	23.637	2.9091	5.e-002	4.4781
21364	23.637	3.1818	0.	53.252
21365	23.728	3.0909	0.	58.956
21366	23.637	3.0909	5.e-002	4.4781
21367	23.637	3.3636	0.	53.847
21368	23.728	3.2727	0.	59.35
21369	23.637	3.2727	5.e-002	4.473
21370	23.637	3.5455	0.	54.771
21371	23.728	3.4545	0.	60.1
21372	23.637	3.4545	5.e-002	4.4629
21373	23.637	3.7273	0.	55.926
21374	23.728	3.6364	0.	61.125
21375	23.637	3.6364	5.e-002	4.4475
21376	23.637	3.9091	0.	57.176
21377	23.728	3.8182	0.	62.308
21378	23.637	3.8182	5.e-002	4.427
21379	23.637	4.0909	0.	58.353
21380	23.728	4.	0.	63.499
21381	23.637	4.	5.e-002	4.4013
21382	23.637	4.2727	0.	59.257
21383	23.728	4.1818	0.	64.514
21384	23.637	4.1818	5.e-002	4.3706
21385	23.637	4.4545	0.	59.662
21386	23.728	4.3636	0.	65.138
21387	23.637	4.3636	5.e-002	4.335
21388	23.637	4.6364	0.	59.315
21389	23.728	4.5455	0.	65.134
21390	23.637	4.5455	5.e-002	4.2951
21391	23.637	4.8182	0.	57.943
21392	23.728	4.7273	0.	64.235
21393	23.637	4.7273	5.e-002	4.2513
21394	23.637	5.	0.	55.245
21395	23.728	4.9091	0.	62.148
21396	23.637	4.9091	5.e-002	4.2039
21397	23.637	5.1818	0.	50.894
21398	23.728	5.0909	0.	58.548
21399	23.637	5.0909	5.e-002	4.1525
21400	23.637	5.3636	0.	44.544
21401	23.728	5.2727	0.	53.059
21402	23.637	5.2727	5.e-002	4.0955
21403	23.637	5.5455	0.	35.875
21404	23.728	5.4545	0.	45.253
21405	23.637	5.4545	5.e-002	4.0243
21406	23.637	5.7273	0.	25.286
21407	23.728	5.6364	0.	34.612
21408	23.637	5.6364	5.e-002	3.8927
21409	23.728	5.8182	0.	21.536
21410	23.637	5.8182	5.e-002	3.1398
21411	23.637	5.9091	0.	13.223
21412	23.819	0.27273	0.	30.448
21413	23.819	0.18182	5.e-002	3.6416
21414	23.819	9.0909e-002	0.	14.286
21415	23.909	0.18182	0.	25.206
21416	23.819	0.45455	0.	43.903
21417	23.819	0.36364	5.e-002	4.1835
21418	23.909	0.36364	0.	42.054
21419	23.819	0.63636	0.	53.733
21420	23.819	0.54545	5.e-002	4.246
21421	23.909	0.54545	0.	53.945
21422	23.819	0.81818	0.	60.697
21423	23.819	0.72727	5.e-002	4.2681
21424	23.909	0.72727	0.	62.391
21425	23.819	1.	0.	65.444
21426	23.819	0.90909	5.e-002	4.287
21427	23.909	0.90909	0.	68.282
21428	23.819	1.1818	0.	68.438
21429	23.819	1.0909	5.e-002	4.3051
21430	23.909	1.0909	0.	72.174
21431	23.819	1.3636	0.	70.055
21432	23.819	1.2727	5.e-002	4.3235
21433	23.909	1.2727	0.	74.492
21434	23.819	1.5455	0.	70.614
21435	23.819	1.4545	5.e-002	4.3418
21436	23.909	1.4545	0.	75.585
21437	23.819	1.7273	0.	70.398
21438	23.819	1.6364	5.e-002	4.3593
21439	23.909	1.6364	0.	75.756
21440	23.819	1.9091	0.	69.663
21441	23.819	1.8182	5.e-002	4.3753
21442	23.909	1.8182	0.	75.276
21443	23.819	2.0909	0.	68.634
21444	23.819	2.	5.e-002	4.3894
21445	23.909	2.	0.	74.386
21446	23.819	2.2727	0.	67.509
21447	23.819	2.1818	5.e-002	4.4011
21448	23.909	2.1818	0.	73.3
21449	23.819	2.4545	0.	66.454
21450	23.819	2.3636	5.e-002	4.4104
21451	23.909	2.3636	0.	72.201
21452	23.819	2.6364	0.	65.603
21453	23.819	2.5455	5.e-002	4.4172
21454	23.909	2.5455	0.	71.241
21455	23.819	2.8182	0.	65.053
21456	23.819	2.7273	5.e-002	4.4216
21457	23.909	2.7273	0.	70.535
21458	23.819	3.	0.	64.863
21459	23.819	2.9091	5.e-002	4.4238
21460	23.909	2.9091	0.	70.162
21461	23.819	3.1818	0.	65.053
21462	23.819	3.0909	5.e-002	4.4238
21463	23.909	3.0909	0.	70.162
21464	23.819	3.3636	0.	65.603
21465	23.819	3.2727	5.e-002	4.4216
21466	23.909	3.2727	0.	70.535
21467	23.819	3.5455	0.	66.454
21468	23.819	3.4545	5.e-002	4.4172
21469	23.909	3.4545	0.	71.241
21470	23.819	3.7273	0.	67.509
21471	23.819	3.6364	5.e-002	4.4104
21472	23.909	3.6364	0.	72.201
21473	23.819	3.9091	0.	68.634
21474	23.819	3.8182	5.e-002	4.4011
21475	23.909	3.8182	0.	73.3
21476	23.819	4.0909	0.	69.663
21477	23.819	4.	5.e-002	4.3894
21478	23.909	4.	0.	74.386
21479	23.819	4.2727	0.	70.398
21480	23.819	4.1818	5.e-002	4.3753
21481	23.909	4.1818	0.	75.276
21482	23.819	4.4545	0.	70.614
21483	23.819	4.3636	5.e-002	4.3593
21484	23.909	4.3636	0.	75.756
21485	23.819	4.6364	0.	70.055
21486	23.819	4.5455	5.e-002	4.3418
21487	23.909	4.5455	0.	75.585
21488	23.819	4.8182	0.	68.439
21489	23.819	4.7273	5.e-002	4.3235
21490	23.909	4.7273	0.	74.492
21491	23.819	5.	0.	65.444
21492	23.819	4.9091	5.e-002	4.3051
21493	23.909	4.9091	0.	72.174
21494	23.819	5.1818	0.	60.697
21495	23.819	5.0909	5.e-002	4.287
21496	23.909	5.0909	0.	68.282
21497	23.819	5.3636	0.	53.733
21498	23.819	5.2727	5.e-002	4.2681
21499	23.909	5.2727	0.	62.391
21500	23.819	5.5455	0.	43.903
21501	23.819	5.4545	5.e-002	4.246
21502	23.909	5.4545	0.	53.945
21503	23.819	5.7273	0.	30.448
21504	23.819	5.6364	5.e-002	4.1835
21505	23.909	5.6364	0.	42.054
21506	23.819	5.8182	5.e-002	3.6416
21507	23.909	5.8182	0.	25.206
21508	23.819	5.9091	0.	14.286
21509	23.819	5.7273	0.1	36.464
21510	23.728	5.8182	0.1	53.546
21511	23.819	5.9091	0.1	34.734
21512	23.909	5.8182	0.1	20.279
21513	23.819	5.5455	0.1	37.3
21514	23.728	5.6364	0.1	54.227
21515	23.909	5.6364	0.1	20.952
21516	23.819	5.3636	0.1	37.712
21517	23.728	5.4545	0.1	55.039
21518	23.909	5.4545	0.1	21.251
21519	23.819	5.1818	0.1	37.922
21520	23.728	5.2727	0.1	55.589
21521	23.909	5.2727	0.1	21.403
21522	23.819	5.	0.1	38.017
21523	23.728	5.0909	0.1	55.935
21524	23.909	5.0909	0.1	21.462
21525	23.819	4.8182	0.1	38.055
21526	23.728	4.9091	0.1	56.165
21527	23.909	4.9091	0.1	21.48
21528	23.819	4.6364	0.1	38.064
21529	23.728	4.7273	0.1	56.324
21530	23.909	4.7273	0.1	21.476
21531	23.819	4.4545	0.1	38.057
21532	23.728	4.5455	0.1	56.439
21533	23.909	4.5455	0.1	21.462
21534	23.819	4.2727	0.1	38.044
21535	23.728	4.3636	0.1	56.526
21536	23.909	4.3636	0.1	21.442
21537	23.819	4.0909	0.1	38.028
21538	23.728	4.1818	0.1	56.594
21539	23.909	4.1818	0.1	21.421
21540	23.819	3.9091	0.1	38.013
21541	23.728	4.	0.1	56.65
21542	23.909	4.	0.1	21.401
21543	23.819	3.7273	0.1	38.
21544	23.728	3.8182	0.1	56.694
21545	23.909	3.8182	0.1	21.383
21546	23.819	3.5455	0.1	37.989
21547	23.728	3.6364	0.1	56.73
21548	23.909	3.6364	0.1	21.368
21549	23.819	3.3636	0.1	37.982
21550	23.728	3.4545	0.1	56.757
21551	23.909	3.4545	0.1	21.357
21552	23.819	3.1818	0.1	37.977
21553	23.728	3.2727	0.1	56.775
21554	23.909	3.2727	0.1	21.349
21555	23.819	3.	0.1	37.976
21556	23.728	3.0909	0.1	56.784
21557	23.909	3.0909	0.1	21.345
21558	23.819	2.8182	0.1	37.977
21559	23.728	2.9091	0.1	56.784
21560	23.909	2.9091	0.1	21.345
21561	23.819	2.6364	0.1	37.982
21562	23.728	2.7273	0.1	56.775
21563	23.909	2.7273	0.1	21.349
21564	23.819	2.4545	0.1	37.989
21565	23.728	2.5455	0.1	56.757
21566	23.909	2.5455	0.1	21.357
21567	23.819	2.2727	0.1	38.
21568	23.728	2.3636	0.1	56.73
21569	23.909	2.3636	0.1	21.368
21570	23.819	2.0909	0.1	38.013
21571	23.728	2.1818	0.1	56.694
21572	23.909	2.1818	0.1	21.383
21573	23.819	1.9091	0.1	38.028
21574	23.728	2.	0.1	56.65
21575	23.909	2.	0.1	21.401
21576	23.819	1.7273	0.1	38.044
21577	23.728	1.8182	0.1	56.594
21578	23.909	1.8182	0.1	21.421
21579	23.819	1.5455	0.1	38.057
21580	23.728	1.6364	0.1	56.526
21581	23.909	1.6364	0.1	21.442
21582	23.819	1.3636	0.1	38.064
21583	23.728	1.4545	0.1	56.439
21584	23.909	1.4545	0.1	21.462
21585	23.819	1.1818	0.1	38.055
21586	23.728	1.2727	0.1	56.324
21587	23.909	1.2727	0.1	21.476
21588	23.819	1.	0.1	38.017
21589	23.728	1.0909	0.1	56.165
21590	23.909	1.0909	0.1	21.48
21591	23.819	0.81818	0.1	37.922
21592	23.728	0.90909	0.1	55.935
21593	23.909	0.90909	0.1	21.462
21594	23.819	0.63636	0.1	37.712
21595	23.728	0.72727	0.1	55.589
21596	23.909	0.72727	0.1	21.403
21597	23.819	0.45455	0.1	37.3
21598	23.728	0.54545	0.1	55.039
21599	23.909	0.54545	0.1	21.251
21600	23.819	0.27273	0.1	36.464
21601	23.728	0.36364	0.1	54.227
21602	23.909	0.36364	0.1	20.952
21603	23.728	0.18182	0.1	53.546
21604	23.909	0.18182	0.1	20.279
21605	23.819	9.0909e-002	0.1	34.734
21606	23.637	5.7273	0.1	70.963
21607	23.547	5.8182	0.1	88.831
21608	23.637	5.9091	0.1	68.97
21609	23.637	5.5455	0.1	71.952
21610	23.547	5.6364	0.1	89.009
21611	23.637	5.3636	0.1	72.955
21612	23.547	5.4545	0.1	90.154
21613	23.637	5.1818	0.1	73.663
21614	23.547	5.2727	0.1	91.141
21615	23.637	5.	0.1	74.155
21616	23.547	5.0909	0.1	91.902
21617	23.637	4.8182	0.1	74.511
21618	23.547	4.9091	0.1	92.497
21619	23.637	4.6364	0.1	74.781
21620	23.547	4.7273	0.1	92.976
21621	23.637	4.4545	0.1	74.992
21622	23.547	4.5455	0.1	93.371
21623	23.637	4.2727	0.1	75.163
21624	23.547	4.3636	0.1	93.705
21625	23.637	4.0909	0.1	75.302
21626	23.547	4.1818	0.1	93.989
21627	23.637	3.9091	0.1	75.417
21628	23.547	4.	0.1	94.231
21629	23.637	3.7273	0.1	75.51
21630	23.547	3.8182	0.1	94.433
21631	23.637	3.5455	0.1	75.583
21632	23.547	3.6364	0.1	94.597
21633	23.637	3.3636	0.1	75.635
21634	23.547	3.4545	0.1	94.721
21635	23.637	3.1818	0.1	75.666
21636	23.547	3.2727	0.1	94.805
21637	23.637	3.	0.1	75.677
21638	23.547	3.0909	0.1	94.848
21639	23.637	2.8182	0.1	75.666
21640	23.547	2.9091	0.1	94.848
21641	23.637	2.6364	0.1	75.635
21642	23.547	2.7273	0.1	94.805
21643	23.637	2.4545	0.1	75.583
21644	23.547	2.5455	0.1	94.721
21645	23.637	2.2727	0.1	75.51
21646	23.547	2.3636	0.1	94.597
21647	23.637	2.0909	0.1	75.417
21648	23.547	2.1818	0.1	94.433
21649	23.637	1.9091	0.1	75.302
21650	23.547	2.	0.1	94.231
21651	23.637	1.7273	0.1	75.163
21652	23.547	1.8182	0.1	93.989
21653	23.637	1.5455	0.1	74.992
21654	23.547	1.6364	0.1	93.705
21655	23.637	1.3636	0.1	74.781
21656	23.547	1.4545	0.1	93.371
21657	23.637	1.1818	0.1	74.511
21658	23.547	1.2727	0.1	92.976
21659	23.637	1.	0.1	74.155
21660	23.547	1.0909	0.1	92.497
21661	23.637	0.81818	0.1	73.663
21662	23.547	0.90909	0.1	91.902
21663	23.637	0.63636	0.1	72.955
21664	23.547	0.72727	0.1	91.141
21665	23.637	0.45455	0.1	71.952
21666	23.547	0.54545	0.1	90.154
21667	23.637	0.27273	0.1	70.963
21668	23.547	0.36364	0.1	89.009
21669	23.547	0.18182	0.1	88.831
21670	23.637	9.0909e-002	0.1	68.97
21671	23.456	5.7273	0.1	106.46
21672	23.365	5.8182	0.1	124.66
21673	23.456	5.9091	0.1	104.35
21674	23.456	5.5455	0.1	107.11
21675	23.365	5.6364	0.1	124.28
21676	23.456	5.3636	0.1	108.3
21677	23.365	5.4545	0.1	125.39
21678	23.456	5.1818	0.1	109.37
21679	23.365	5.2727	0.1	126.62
21680	23.456	5.	0.1	110.24
21681	23.365	5.0909	0.1	127.73
21682	23.456	4.8182	0.1	110.97
21683	23.365	4.9091	0.1	128.71
21684	23.456	4.6364	0.1	111.58
21685	23.365	4.7273	0.1	129.56
21686	23.456	4.4545	0.1	112.1
21687	23.365	4.5455	0.1	130.32
21688	23.456	4.2727	0.1	112.55
21689	23.365	4.3636	0.1	131.
21690	23.456	4.0909	0.1	112.93
21691	23.365	4.1818	0.1	131.59
21692	23.456	3.9091	0.1	113.26
21693	23.365	4.	0.1	132.11
21694	23.456	3.7273	0.1	113.54
21695	23.365	3.8182	0.1	132.56
21696	23.456	3.5455	0.1	113.75
21697	23.365	3.6364	0.1	132.92
21698	23.456	3.3636	0.1	113.91
21699	23.365	3.4545	0.1	133.2
21700	23.456	3.1818	0.1	114.
21701	23.365	3.2727	0.1	133.39
21702	23.456	3.	0.1	114.03
21703	23.365	3.0909	0.1	133.49
21704	23.456	2.8182	0.1	114.
21705	23.365	2.9091	0.1	133.49
21706	23.456	2.6364	0.1	113.91
21707	23.365	2.7273	0.1	133.39
21708	23.456	2.4545	0.1	113.75
21709	23.365	2.5455	0.1	133.2
21710	23.456	2.2727	0.1	113.54
21711	23.365	2.3636	0.1	132.92
21712	23.456	2.0909	0.1	113.26
21713	23.365	2.1818	0.1	132.56
21714	23.456	1.9091	0.1	112.93
21715	23.365	2.	0.1	132.11
21716	23.456	1.7273	0.1	112.55
21717	23.365	1.8182	0.1	131.59
21718	23.456	1.5455	0.1	112.1
21719	23.365	1.6364	0.1	131.
21720	23.456	1.3636	0.1	111.58
21721	23.365	1.4545	0.1	130.32
21722	23.456	1.1818	0.1	110.97
21723	23.365	1.2727	0.1	129.56
21724	23.456	1.	0.1	110.24
21725	23.365	1.0909	0.1	128.71
21726	23.456	0.81818	0.1	109.37
21727	23.365	0.90909	0.1	127.73
21728	23.456	0.63636	0.1	108.3
21729	23.365	0.72727	0.1	126.62
21730	23.456	0.45455	0.1	107.11
21731	23.365	0.54545	0.1	125.39
21732	23.456	0.27273	0.1	106.46
21733	23.365	0.36364	0.1	124.28
21734	23.365	0.18182	0.1	124.66
21735	23.456	9.0909e-002	0.1	104.35
21736	23.275	5.7273	0.1	142.1
21737	23.184	5.8182	0.1	160.36
21738	23.275	5.9091	0.1	139.91
21739	23.275	5.5455	0.1	142.44
21740	23.184	5.6364	0.1	159.64
21741	23.275	5.3636	0.1	143.65
21742	23.184	5.4545	0.1	160.65
21743	23.275	5.1818	0.1	144.95
21744	23.184	5.2727	0.1	162.01
21745	23.275	5.	0.1	146.18
21746	23.184	5.0909	0.1	163.42
21747	23.275	4.8182	0.1	147.29
21748	23.184	4.9091	0.1	164.78
21749	23.275	4.6364	0.1	148.31
21750	23.184	4.7273	0.1	166.07
21751	23.275	4.4545	0.1	149.22
21752	23.184	4.5455	0.1	167.27
21753	23.275	4.2727	0.1	150.05
21754	23.184	4.3636	0.1	168.38
21755	23.275	4.0909	0.1	150.78
21756	23.184	4.1818	0.1	169.39
21757	23.275	3.9091	0.1	151.41
21758	23.184	4.	0.1	170.3
21759	23.275	3.7273	0.1	151.95
21760	23.184	3.8182	0.1	171.08
21761	23.275	3.5455	0.1	152.38
21762	23.184	3.6364	0.1	171.72
21763	23.275	3.3636	0.1	152.69
21764	23.184	3.4545	0.1	172.22
21765	23.275	3.1818	0.1	152.88
21766	23.184	3.2727	0.1	172.56
21767	23.275	3.	0.1	152.94
21768	23.184	3.0909	0.1	172.74
21769	23.275	2.8182	0.1	152.88
21770	23.184	2.9091	0.1	172.74
21771	23.275	2.6364	0.1	152.69
21772	23.184	2.7273	0.1	172.56
21773	23.275	2.4545	0.1	152.38
21774	23.184	2.5455	0.1	172.22
21775	23.275	2.2727	0.1	151.95
21776	23.184	2.3636	0.1	171.72
21777	23.275	2.0909	0.1	151.41
21778	23.184	2.1818	0.1	171.08
21779	23.275	1.9091	0.1	150.78
21780	23.184	2.	0.1	170.3
21781	23.275	1.7273	0.1	150.05
21782	23.184	1.8182	0.1	169.39
21783	23.275	1.5455	0.1	149.22
21784	23.184	1.6364	0.1	168.38
21785	23.275	1.3636	0.1	148.31
21786	23.184	1.4545	0.1	167.27
21787	23.275	1.1818	0.1	147.29
21788	23.184	1.2727	0.1	166.07
21789	23.275	1.	0.1	146.18
21790	23.184	1.0909	0.1	164.78
21791	23.275	0.81818	0.1	144.95
21792	23.184	0.90909	0.1	163.42
21793	23.275	0.63636	0.1	143.65
21794	23.184	0.72727	0.1	162.01
21795	23.275	0.45455	0.1	142.44
21796	23.184	0.54545	0.1	160.65
21797	23.275	0.27273	0.1	142.1
21798	23.184	0.36364	0.1	159.64
21799	23.184	0.18182	0.1	160.36
21800	23.275	9.0909e-002	0.1	139.91
21801	23.093	5.7273	0.1	177.57
21802	23.003	5.8182	0.1	195.68
21803	23.093	5.9091	0.1	175.31
21804	23.093	5.5455	0.1	177.72
21805	23.003	5.6364	0.1	194.79
21806	23.093	5.3636	0.1	178.94
21807	23.003	5.4545	0.1	195.76
21808	23.093	5.1818	0.1	180.44
21809	23.003	5.2727	0.1	197.26
21810	23.093	5.	0.1	182.
21811	23.003	5.0909	0.1	198.97
21812	23.093	4.8182	0.1	183.55
21813	23.003	4.9091	0.1	200.76
21814	23.093	4.6364	0.1	185.03
21815	23.003	4.7273	0.1	202.54
21816	23.093	4.4545	0.1	186.43
21817	23.003	4.5455	0.1	204.28
21818	23.093	4.2727	0.1	187.73
21819	23.003	4.3636	0.1	205.93
21820	23.093	4.0909	0.1	188.91
21821	23.003	4.1818	0.1	207.47
21822	23.093	3.9091	0.1	189.96
21823	23.003	4.	0.1	208.87
21824	23.093	3.7273	0.1	190.85
21825	23.003	3.8182	0.1	210.1
21826	23.093	3.5455	0.1	191.57
21827	23.003	3.6364	0.1	211.13
21828	23.093	3.3636	0.1	192.1
21829	23.003	3.4545	0.1	211.92
21830	23.093	3.1818	0.1	192.42
21831	23.003	3.2727	0.1	212.47
21832	23.093	3.	0.1	192.53
21833	23.003	3.0909	0.1	212.75
21834	23.093	2.8182	0.1	192.42
21835	23.003	2.9091	0.1	212.75
21836	23.093	2.6364	0.1	192.1
21837	23.003	2.7273	0.1	212.47
21838	23.093	2.4545	0.1	191.57
21839	23.003	2.5455	0.1	211.92
21840	23.093	2.2727	0.1	190.85
21841	23.003	2.3636	0.1	211.13
21842	23.093	2.0909	0.1	189.96
21843	23.003	2.1818	0.1	210.1
21844	23.093	1.9091	0.1	188.91
21845	23.003	2.	0.1	208.87
21846	23.093	1.7273	0.1	187.73
21847	23.003	1.8182	0.1	207.47
21848	23.093	1.5455	0.1	186.43
21849	23.003	1.6364	0.1	205.93
21850	23.093	1.3636	0.1	185.03
21851	23.003	1.4545	0.1	204.28
21852	23.093	1.1818	0.1	183.55
21853	23.003	1.2727	0.1	202.54
21854	23.093	1.	0.1	182.
21855	23.003	1.0909	0.1	200.76
21856	23.093	0.81818	0.1	180.44
21857	23.003	0.90909	0.1	198.97
21858	23.093	0.63636	0.1	178.94
21859	23.003	0.72727	0.1	197.26
21860	23.093	0.45455	0.1	177.72
21861	23.003	0.54545	0.1	195.76
21862	23.093	0.27273	0.1	177.57
21863	23.003	0.36364	0.1	194.79
21864	23.003	0.18182	0.1	195.68
21865	23.093	9.0909e-002	0.1	175.31
21866	22.912	5.7273	0.1	212.62
21867	22.821	5.8182	0.1	230.4
21868	22.912	5.9091	0.1	210.28
21869	22.912	5.5455	0.1	212.72
21870	22.821	5.6364	0.1	229.48
21871	22.912	5.3636	0.1	214.01
21872	22.821	5.4545	0.1	230.52
21873	22.912	5.1818	0.1	215.75
21874	22.821	5.2727	0.1	232.23
21875	22.912	5.	0.1	217.7
21876	22.821	5.0909	0.1	234.31
21877	22.912	4.8182	0.1	219.74
21878	22.821	4.9091	0.1	236.6
21879	22.912	4.6364	0.1	221.78
21880	22.821	4.7273	0.1	238.98
21881	22.912	4.4545	0.1	223.77
21882	22.821	4.5455	0.1	241.37
21883	22.912	4.2727	0.1	225.67
21884	22.821	4.3636	0.1	243.7
21885	22.912	4.0909	0.1	227.43
21886	22.821	4.1818	0.1	245.92
21887	22.912	3.9091	0.1	229.01
21888	22.821	4.	0.1	247.96
21889	22.912	3.7273	0.1	230.37
21890	22.821	3.8182	0.1	249.77
21891	22.912	3.5455	0.1	231.48
21892	22.821	3.6364	0.1	251.29
21893	22.912	3.3636	0.1	232.3
21894	22.821	3.4545	0.1	252.49
21895	22.912	3.1818	0.1	232.8
21896	22.821	3.2727	0.1	253.31
21897	22.912	3.	0.1	232.97
21898	22.821	3.0909	0.1	253.73
21899	22.912	2.8182	0.1	232.8
21900	22.821	2.9091	0.1	253.73
21901	22.912	2.6364	0.1	232.3
21902	22.821	2.7273	0.1	253.31
21903	22.912	2.4545	0.1	231.48
21904	22.821	2.5455	0.1	252.49
21905	22.912	2.2727	0.1	230.37
21906	22.821	2.3636	0.1	251.29
21907	22.912	2.0909	0.1	229.01
21908	22.821	2.1818	0.1	249.77
21909	22.912	1.9091	0.1	227.43
21910	22.821	2.	0.1	247.96
21911	22.912	1.7273	0.1	225.67
21912	22.821	1.8182	0.1	245.92
21913	22.912	1.5455	0.1	223.77
21914	22.821	1.6364	0.1	243.7
21915	22.912	1.3636	0.1	221.78
21916	22.821	1.4545	0.1	241.37
21917	22.912	1.1818	0.1	219.74
21918	22.821	1.2727	0.1	238.98
21919	22.912	1.	0.1	217.7
21920	22.821	1.0909	0.1	236.6
21921	22.912	0.81818	0.1	215.75
21922	22.821	0.90909	0.1	234.31
21923	22.912	0.63636	0.1	214.01
21924	22.821	0.72727	0.1	232.23
21925	22.912	0.45455	0.1	212.72
21926	22.821	0.54545	0.1	230.52
21927	22.912	0.27273	0.1	212.62
21928	22.821	0.36364	0.1	229.48
21929	22.821	0.18182	0.1	230.4
21930	22.912	9.0909e-002	0.1	210.28
21931	22.731	5.7273	0.1	247.02
21932	22.64	5.8182	0.1	264.28
21933	22.731	5.9091	0.1	244.56
21934	22.731	5.5455	0.1	247.19
21935	22.64	5.6364	0.1	263.47
21936	22.731	5.3636	0.1	248.68
21937	22.64	5.4545	0.1	264.7
21938	22.731	5.1818	0.1	250.75
21939	22.64	5.2727	0.1	266.75
21940	22.731	5.	0.1	253.18
21941	22.64	5.0909	0.1	269.32
21942	22.731	4.8182	0.1	255.82
21943	22.64	4.9091	0.1	272.23
21944	22.731	4.6364	0.1	258.56
21945	22.64	4.7273	0.1	275.36
21946	22.731	4.4545	0.1	261.29
21947	22.64	4.5455	0.1	278.56
21948	22.731	4.2727	0.1	263.94
21949	22.64	4.3636	0.1	281.75
21950	22.731	4.0909	0.1	266.44
21951	22.64	4.1818	0.1	284.83
21952	22.731	3.9091	0.1	268.71
21953	22.64	4.	0.1	287.69
21954	22.731	3.7273	0.1	270.69
21955	22.64	3.8182	0.1	290.26
21956	22.731	3.5455	0.1	272.3
21957	22.64	3.6364	0.1	292.44
21958	22.731	3.3636	0.1	273.5
21959	22.64	3.4545	0.1	294.16
21960	22.731	3.1818	0.1	274.24
21961	22.64	3.2727	0.1	295.34
21962	22.731	3.	0.1	274.49
21963	22.64	3.0909	0.1	295.95
21964	22.731	2.8182	0.1	274.24
21965	22.64	2.9091	0.1	295.95
21966	22.731	2.6364	0.1	273.5
21967	22.64	2.7273	0.1	295.34
21968	22.731	2.4545	0.1	272.3
21969	22.64	2.5455	0.1	294.16
21970	22.731	2.2727	0.1	270.69
21971	22.64	2.3636	0.1	292.44
21972	22.731	2.0909	0.1	268.71
21973	22.64	2.1818	0.1	290.26
21974	22.731	1.9091	0.1	266.44
21975	22.64	2.	0.1	287.69
21976	22.731	1.7273	0.1	263.94
21977	22.64	1.8182	0.1	284.83
21978	22.731	1.5455	0.1	261.29
21979	22.64	1.6364	0.1	281.75
21980	22.731	1.3636	0.1	258.56
21981	22.64	1.4545	0.1	278.56
21982	22.731	1.1818	0.1	255.82
21983	22.64	1.2727	0.1	275.36
21984	22.731	1.	0.1	253.18
21985	22.64	1.0909	0.1	272.23
21986	22.731	0.81818	0.1	250.75
21987	22.64	0.90909	0.1	269.32
21988	22.731	0.63636	0.1	248.68
21989	22.64	0.72727	0.1	266.75
21990	22.731	0.45455	0.1	247.19
21991	22.64	0.54545	0.1	264.7
21992	22.731	0.27273	0.1	247.02
21993	22.64	0.36364	0.1	263.47
21994	22.64	0.18182	0.1	264.28
21995	22.731	9.0909e-002	0.1	244.56
21996	22.549	5.7273	0.1	280.51
21997	22.459	5.8182	0.1	297.03
21998	22.549	5.9091	0.1	277.86
21999	22.549	5.5455	0.1	280.88
22000	22.459	5.6364	0.1	296.44
22001	22.549	5.3636	0.1	282.7
22002	22.459	5.4545	0.1	298.02
22003	22.549	5.1818	0.1	285.26
22004	22.459	5.2727	0.1	300.56
22005	22.549	5.	0.1	288.33
22006	22.459	5.0909	0.1	303.8
22007	22.549	4.8182	0.1	291.74
22008	22.459	4.9091	0.1	307.54
22009	22.549	4.6364	0.1	295.35
22010	22.459	4.7273	0.1	311.61
22011	22.549	4.4545	0.1	299.02
22012	22.459	4.5455	0.1	315.86
22013	22.549	4.2727	0.1	302.63
22014	22.459	4.3636	0.1	320.14
22015	22.549	4.0909	0.1	306.07
22016	22.459	4.1818	0.1	324.32
22017	22.549	3.9091	0.1	309.24
22018	22.459	4.	0.1	328.25
22019	22.549	3.7273	0.1	312.01
22020	22.459	3.8182	0.1	331.8
22021	22.549	3.5455	0.1	314.3
22022	22.459	3.6364	0.1	334.84
22023	22.549	3.3636	0.1	316.
22024	22.459	3.4545	0.1	337.24
22025	22.549	3.1818	0.1	317.05
22026	22.459	3.2727	0.1	338.91
22027	22.549	3.	0.1	317.41
22028	22.459	3.0909	0.1	339.76
22029	22.549	2.8182	0.1	317.05
22030	22.459	2.9091	0.1	339.76
22031	22.549	2.6364	0.1	316.
22032	22.459	2.7273	0.1	338.91
22033	22.549	2.4545	0.1	314.3
22034	22.459	2.5455	0.1	337.24
22035	22.549	2.2727	0.1	312.01
22036	22.459	2.3636	0.1	334.84
22037	22.549	2.0909	0.1	309.24
22038	22.459	2.1818	0.1	331.8
22039	22.549	1.9091	0.1	306.07
22040	22.459	2.	0.1	328.25
22041	22.549	1.7273	0.1	302.63
22042	22.459	1.8182	0.1	324.32
22043	22.549	1.5455	0.1	299.02
22044	22.459	1.6364	0.1	320.14
22045	22.549	1.3636	0.1	295.35
22046	22.459	1.4545	0.1	315.86
22047	22.549	1.1818	0.1	291.74
22048	22.459	1.2727	0.1	311.61
22049	22.549	1.	0.1	288.33
22050	22.459	1.0909	0.1	307.54
22051	22.549	0.81818	0.1	285.26
22052	22.459	0.90909	0.1	303.8
22053	22.549	0.63636	0.1	282.7
22054	22.459	0.72727	0.1	300.56
22055	22.549	0.45455	0.1	280.88
22056	22.459	0.54545	0.1	298.02
22057	22.549	0.27273	0.1	280.51
22058	22.459	0.36364	0.1	296.44
22059	22.459	0.18182	0.1	297.03
22060	22.549	9.0909e-002	0.1	277.86
22061	22.368	5.7273	0.1	312.77
22062	22.277	5.8182	0.1	328.3
22063	22.368	5.9091	0.1	309.85
22064	22.368	5.5455	0.1	313.5
22065	22.277	5.6364	0.1	328.07
22066	22.368	5.3636	0.1	315.82
22067	22.277	5.4545	0.1	330.17
22068	22.368	5.1818	0.1	319.06
22069	22.277	5.2727	0.1	333.41
22070	22.368	5.	0.1	322.97
22071	22.277	5.0909	0.1	337.54
22072	22.368	4.8182	0.1	327.38
22073	22.277	4.9091	0.1	342.35
22074	22.368	4.6364	0.1	332.1
22075	22.277	4.7273	0.1	347.64
22076	22.368	4.4545	0.1	336.97
22077	22.277	4.5455	0.1	353.23
22078	22.368	4.2727	0.1	341.82
22079	22.277	4.3636	0.1	358.92
22080	22.368	4.0909	0.1	346.49
22081	22.277	4.1818	0.1	364.52
22082	22.368	3.9091	0.1	350.81
22083	22.277	4.	0.1	369.84
22084	22.368	3.7273	0.1	354.63
22085	22.277	3.8182	0.1	374.67
22086	22.368	3.5455	0.1	357.78
22087	22.277	3.6364	0.1	378.83
22088	22.368	3.3636	0.1	360.15
22089	22.277	3.4545	0.1	382.14
22090	22.368	3.1818	0.1	361.62
22091	22.277	3.2727	0.1	384.43
22092	22.368	3.	0.1	362.11
22093	22.277	3.0909	0.1	385.61
22094	22.368	2.8182	0.1	361.62
22095	22.277	2.9091	0.1	385.61
22096	22.368	2.6364	0.1	360.15
22097	22.277	2.7273	0.1	384.43
22098	22.368	2.4545	0.1	357.78
22099	22.277	2.5455	0.1	382.14
22100	22.368	2.2727	0.1	354.63
22101	22.277	2.3636	0.1	378.83
22102	22.368	2.0909	0.1	350.81
22103	22.277	2.1818	0.1	374.67
22104	22.368	1.9091	0.1	346.49
22105	22.277	2.	0.1	369.84
22106	22.368	1.7273	0.1	341.82
22107	22.277	1.8182	0.1	364.52
22108	22.368	1.5455	0.1	336.97
22109	22.277	1.6364	0.1	358.92
22110	22.368	1.3636	0.1	332.1
22111	22.277	1.4545	0.1	353.23
22112	22.368	1.1818	0.1	327.38
22113	22.277	1.2727	0.1	347.64
22114	22.368	1.	0.1	322.97
22115	22.277	1.0909	0.1	342.35
22116	22.368	0.81818	0.1	319.06
22117	22.277	0.90909	0.1	337.54
22118	22.368	0.63636	0.1	315.82
22119	22.277	0.72727	0.1	333.41
22120	22.368	0.45455	0.1	313.5
22121	22.277	0.54545	0.1	330.17
22122	22.368	0.27273	0.1	312.77
22123	22.277	0.36364	0.1	328.07
22124	22.277	0.18182	0.1	328.3
22125	22.368	9.0909e-002	0.1	309.85
22126	22.187	5.7273	0.1	343.42
22127	22.096	5.8182	0.1	357.66
22128	22.187	5.9091	0.1	340.13
22129	22.187	5.5455	0.1	344.67
22130	22.096	5.6364	0.1	357.93
22131	22.187	5.3636	0.1	347.7
22132	22.096	5.4545	0.1	360.75
22133	22.187	5.1818	0.1	351.85
22134	22.096	5.2727	0.1	364.94
22135	22.187	5.	0.1	356.89
22136	22.096	5.0909	0.1	370.25
22137	22.187	4.8182	0.1	362.59
22138	22.096	4.9091	0.1	376.46
22139	22.187	4.6364	0.1	368.76
22140	22.096	4.7273	0.1	383.35
22141	22.187	4.4545	0.1	375.18
22142	22.096	4.5455	0.1	390.66
22143	22.187	4.2727	0.1	381.62
22144	22.096	4.3636	0.1	398.17
22145	22.187	4.0909	0.1	387.87
22146	22.096	4.1818	0.1	405.61
22147	22.187	3.9091	0.1	393.7
22148	22.096	4.	0.1	412.72
22149	22.187	3.7273	0.1	398.87
22150	22.096	3.8182	0.1	419.22
22151	22.187	3.5455	0.1	403.18
22152	22.096	3.6364	0.1	424.85
22153	22.187	3.3636	0.1	406.42
22154	22.096	3.4545	0.1	429.34
22155	22.187	3.1818	0.1	408.43
22156	22.096	3.2727	0.1	432.48
22157	22.187	3.	0.1	409.11
22158	22.096	3.0909	0.1	434.09
22159	22.187	2.8182	0.1	408.43
22160	22.096	2.9091	0.1	434.09
22161	22.187	2.6364	0.1	406.42
22162	22.096	2.7273	0.1	432.48
22163	22.187	2.4545	0.1	403.18
22164	22.096	2.5455	0.1	429.34
22165	22.187	2.2727	0.1	398.87
22166	22.096	2.3636	0.1	424.85
22167	22.187	2.0909	0.1	393.7
22168	22.096	2.1818	0.1	419.22
22169	22.187	1.9091	0.1	387.87
22170	22.096	2.	0.1	412.72
22171	22.187	1.7273	0.1	381.62
22172	22.096	1.8182	0.1	405.61
22173	22.187	1.5455	0.1	375.18
22174	22.096	1.6364	0.1	398.17
22175	22.187	1.3636	0.1	368.76
22176	22.096	1.4545	0.1	390.66
22177	22.187	1.1818	0.1	362.59
22178	22.096	1.2727	0.1	383.35
22179	22.187	1.	0.1	356.89
22180	22.096	1.0909	0.1	376.46
22181	22.187	0.81818	0.1	351.85
22182	22.096	0.90909	0.1	370.25
22183	22.187	0.63636	0.1	347.7
22184	22.096	0.72727	0.1	364.94
22185	22.187	0.45455	0.1	344.67
22186	22.096	0.54545	0.1	360.75
22187	22.187	0.27273	0.1	343.42
22188	22.096	0.36364	0.1	357.93
22189	22.096	0.18182	0.1	357.66
22190	22.187	9.0909e-002	0.1	340.13
22191	22.005	5.7273	0.1	372.01
22192	21.915	5.8182	0.1	384.58
22193	22.005	5.9091	0.1	368.2
22194	22.005	5.5455	0.1	373.95
22195	21.915	5.6364	0.1	385.52
22196	22.005	5.3636	0.1	377.94
22197	21.915	5.4545	0.1	389.29
22198	22.005	5.1818	0.1	383.31
22199	21.915	5.2727	0.1	394.74
22200	22.005	5.	0.1	389.8
22201	21.915	5.0909	0.1	401.59
22202	22.005	4.8182	0.1	397.2
22203	21.915	4.9091	0.1	409.62
22204	22.005	4.6364	0.1	405.24
22205	21.915	4.7273	0.1	418.56
22206	22.005	4.4545	0.1	413.65
22207	21.915	4.5455	0.1	428.11
22208	22.005	4.2727	0.1	422.16
22209	21.915	4.3636	0.1	437.96
22210	22.005	4.0909	0.1	430.46
22211	21.915	4.1818	0.1	447.78
22212	22.005	3.9091	0.1	438.25
22213	21.915	4.	0.1	457.23
22214	22.005	3.7273	0.1	445.2
22215	21.915	3.8182	0.1	465.91
22216	22.005	3.5455	0.1	451.01
22217	21.915	3.6364	0.1	473.46
22218	22.005	3.3636	0.1	455.4
22219	21.915	3.4545	0.1	479.51
22220	22.005	3.1818	0.1	458.13
22221	21.915	3.2727	0.1	483.74
22222	22.005	3.	0.1	459.06
22223	21.915	3.0909	0.1	485.92
22224	22.005	2.8182	0.1	458.13
22225	21.915	2.9091	0.1	485.92
22226	22.005	2.6364	0.1	455.4
22227	21.915	2.7273	0.1	483.74
22228	22.005	2.4545	0.1	451.01
22229	21.915	2.5455	0.1	479.51
22230	22.005	2.2727	0.1	445.2
22231	21.915	2.3636	0.1	473.46
22232	22.005	2.0909	0.1	438.25
22233	21.915	2.1818	0.1	465.91
22234	22.005	1.9091	0.1	430.46
22235	21.915	2.	0.1	457.23
22236	22.005	1.7273	0.1	422.16
22237	21.915	1.8182	0.1	447.78
22238	22.005	1.5455	0.1	413.65
22239	21.915	1.6364	0.1	437.96
22240	22.005	1.3636	0.1	405.24
22241	21.915	1.4545	0.1	428.11
22242	22.005	1.1818	0.1	397.2
22243	21.915	1.2727	0.1	418.56
22244	22.005	1.	0.1	389.8
22245	21.915	1.0909	0.1	409.62
22246	22.005	0.81818	0.1	383.31
22247	21.915	0.90909	0.1	401.59
22248	22.005	0.63636	0.1	377.94
22249	21.915	0.72727	0.1	394.74
22250	22.005	0.45455	0.1	373.95
22251	21.915	0.54545	0.1	389.29
22252	22.005	0.27273	0.1	372.01
22253	21.915	0.36364	0.1	385.52
22254	21.915	0.18182	0.1	384.58
22255	22.005	9.0909e-002	0.1	368.2
22256	21.824	5.7273	0.1	397.96
22257	21.733	5.8182	0.1	408.44
22258	21.824	5.9091	0.1	393.47
22259	21.824	5.5455	0.1	400.81
22260	21.733	5.6364	0.1	410.22
22261	21.824	5.3636	0.1	406.05
22262	21.733	5.4545	0.1	415.22
22263	21.824	5.1818	0.1	413.
22264	21.733	5.2727	0.1	422.28
22265	21.824	5.	0.1	421.39
22266	21.733	5.0909	0.1	431.13
22267	21.824	4.8182	0.1	430.97
22268	21.733	4.9091	0.1	441.5
22269	21.824	4.6364	0.1	441.42
22270	21.733	4.7273	0.1	453.08
22271	21.824	4.4545	0.1	452.42
22272	21.733	4.5455	0.1	465.51
22273	21.824	4.2727	0.1	463.59
22274	21.733	4.3636	0.1	478.4
22275	21.824	4.0909	0.1	474.56
22276	21.733	4.1818	0.1	491.31
22277	21.824	3.9091	0.1	484.9
22278	21.733	4.	0.1	503.78
22279	21.824	3.7273	0.1	494.18
22280	21.733	3.8182	0.1	515.31
22281	21.824	3.5455	0.1	501.96
22282	21.733	3.6364	0.1	525.38
22283	21.824	3.3636	0.1	507.85
22284	21.733	3.4545	0.1	533.47
22285	21.824	3.1818	0.1	511.53
22286	21.733	3.2727	0.1	539.15
22287	21.824	3.	0.1	512.78
22288	21.733	3.0909	0.1	542.07
22289	21.824	2.8182	0.1	511.53
22290	21.733	2.9091	0.1	542.07
22291	21.824	2.6364	0.1	507.85
22292	21.733	2.7273	0.1	539.15
22293	21.824	2.4545	0.1	501.96
22294	21.733	2.5455	0.1	533.47
22295	21.824	2.2727	0.1	494.18
22296	21.733	2.3636	0.1	525.38
22297	21.824	2.0909	0.1	484.9
22298	21.733	2.1818	0.1	515.31
22299	21.824	1.9091	0.1	474.56
22300	21.733	2.	0.1	503.78
22301	21.824	1.7273	0.1	463.59
22302	21.733	1.8182	0.1	491.31
22303	21.824	1.5455	0.1	452.42
22304	21.733	1.6364	0.1	478.4
22305	21.824	1.3636	0.1	441.42
22306	21.733	1.4545	0.1	465.51
22307	21.824	1.1818	0.1	430.97
22308	21.733	1.2727	0.1	453.08
22309	21.824	1.	0.1	421.39
22310	21.733	1.0909	0.1	441.5
22311	21.824	0.81818	0.1	413.
22312	21.733	0.90909	0.1	431.13
22313	21.824	0.63636	0.1	406.05
22314	21.733	0.72727	0.1	422.28
22315	21.824	0.45455	0.1	400.81
22316	21.733	0.54545	0.1	415.22
22317	21.824	0.27273	0.1	397.96
22318	21.733	0.36364	0.1	410.22
22319	21.733	0.18182	0.1	408.44
22320	21.824	9.0909e-002	0.1	393.47
22321	21.643	5.7273	0.1	420.58
22322	21.552	5.8182	0.1	428.45
22323	21.643	5.9091	0.1	415.21
22324	21.643	5.5455	0.1	424.59
22325	21.552	5.6364	0.1	431.27
22326	21.643	5.3636	0.1	431.43
22327	21.552	5.4545	0.1	437.83
22328	21.643	5.1818	0.1	440.4
22329	21.552	5.2727	0.1	446.95
22330	21.643	5.	0.1	451.24
22331	21.552	5.0909	0.1	458.35
22332	21.643	4.8182	0.1	463.62
22333	21.552	4.9091	0.1	471.72
22334	21.643	4.6364	0.1	477.19
22335	21.552	4.7273	0.1	486.7
22336	21.643	4.4545	0.1	491.51
22337	21.552	4.5455	0.1	502.83
22338	21.643	4.2727	0.1	506.14
22339	21.552	4.3636	0.1	519.63
22340	21.643	4.0909	0.1	520.56
22341	21.552	4.1818	0.1	536.54
22342	21.643	3.9091	0.1	534.22
22343	21.552	4.	0.1	552.96
22344	21.643	3.7273	0.1	546.53
22345	21.552	3.8182	0.1	568.19
22346	21.643	3.5455	0.1	556.89
22347	21.552	3.6364	0.1	581.54
22348	21.643	3.3636	0.1	564.75
22349	21.552	3.4545	0.1	592.3
22350	21.643	3.1818	0.1	569.67
22351	21.552	3.2727	0.1	599.86
22352	21.643	3.	0.1	571.34
22353	21.552	3.0909	0.1	603.76
22354	21.643	2.8182	0.1	569.67
22355	21.552	2.9091	0.1	603.76
22356	21.643	2.6364	0.1	564.75
22357	21.552	2.7273	0.1	599.86
22358	21.643	2.4545	0.1	556.89
22359	21.552	2.5455	0.1	592.3
22360	21.643	2.2727	0.1	546.53
22361	21.552	2.3636	0.1	581.54
22362	21.643	2.0909	0.1	534.22
22363	21.552	2.1818	0.1	568.19
22364	21.643	1.9091	0.1	520.56
22365	21.552	2.	0.1	552.96
22366	21.643	1.7273	0.1	506.14
22367	21.552	1.8182	0.1	536.54
22368	21.643	1.5455	0.1	491.51
22369	21.552	1.6364	0.1	519.63
22370	21.643	1.3636	0.1	477.19
22371	21.552	1.4545	0.1	502.83
22372	21.643	1.1818	0.1	463.62
22373	21.552	1.2727	0.1	486.7
22374	21.643	1.	0.1	451.24
22375	21.552	1.0909	0.1	471.72
22376	21.643	0.81818	0.1	440.4
22377	21.552	0.90909	0.1	458.35
22378	21.643	0.63636	0.1	431.43
22379	21.552	0.72727	0.1	446.95
22380	21.643	0.45455	0.1	424.59
22381	21.552	0.54545	0.1	437.83
22382	21.643	0.27273	0.1	420.58
22383	21.552	0.36364	0.1	431.27
22384	21.552	0.18182	0.1	428.45
22385	21.643	9.0909e-002	0.1	415.21
22386	21.461	5.7273	0.1	439.05
22387	21.371	5.8182	0.1	443.71
22388	21.461	5.9091	0.1	432.56
22389	21.461	5.5455	0.1	444.49
22390	21.371	5.6364	0.1	447.78
22391	21.461	5.3636	0.1	453.35
22392	21.371	5.4545	0.1	456.28
22393	21.461	5.1818	0.1	464.91
22394	21.371	5.2727	0.1	467.99
22395	21.461	5.	0.1	478.86
22396	21.371	5.0909	0.1	482.62
22397	21.461	4.8182	0.1	494.83
22398	21.371	4.9091	0.1	499.82
22399	21.461	4.6364	0.1	512.38
22400	21.371	4.7273	0.1	519.13
22401	21.461	4.4545	0.1	531.
22402	21.371	4.5455	0.1	540.03
22403	21.461	4.2727	0.1	550.09
22404	21.371	4.3636	0.1	561.88
22405	21.461	4.0909	0.1	568.99
22406	21.371	4.1818	0.1	583.97
22407	21.461	3.9091	0.1	586.96
22408	21.371	4.	0.1	605.5
22409	21.461	3.7273	0.1	603.22
22410	21.371	3.8182	0.1	625.55
22411	21.461	3.5455	0.1	616.94
22412	21.371	3.6364	0.1	643.17
22413	21.461	3.3636	0.1	627.37
22414	21.371	3.4545	0.1	657.4
22415	21.461	3.1818	0.1	633.9
22416	21.371	3.2727	0.1	667.39
22417	21.461	3.	0.1	636.12
22418	21.371	3.0909	0.1	672.55
22419	21.461	2.8182	0.1	633.9
22420	21.371	2.9091	0.1	672.55
22421	21.461	2.6364	0.1	627.37
22422	21.371	2.7273	0.1	667.39
22423	21.461	2.4545	0.1	616.94
22424	21.371	2.5455	0.1	657.4
22425	21.461	2.2727	0.1	603.22
22426	21.371	2.3636	0.1	643.17
22427	21.461	2.0909	0.1	586.96
22428	21.371	2.1818	0.1	625.55
22429	21.461	1.9091	0.1	568.99
22430	21.371	2.	0.1	605.5
22431	21.461	1.7273	0.1	550.09
22432	21.371	1.8182	0.1	583.97
22433	21.461	1.5455	0.1	531.
22434	21.371	1.6364	0.1	561.88
22435	21.461	1.3636	0.1	512.38
22436	21.371	1.4545	0.1	540.03
22437	21.461	1.1818	0.1	494.83
22438	21.371	1.2727	0.1	519.13
22439	21.461	1.	0.1	478.86
22440	21.371	1.0909	0.1	499.82
22441	21.461	0.81818	0.1	464.91
22442	21.371	0.90909	0.1	482.62
22443	21.461	0.63636	0.1	453.35
22444	21.371	0.72727	0.1	467.99
22445	21.461	0.45455	0.1	444.49
22446	21.371	0.54545	0.1	456.28
22447	21.461	0.27273	0.1	439.05
22448	21.371	0.36364	0.1	447.78
22449	21.371	0.18182	0.1	443.71
22450	21.461	9.0909e-002	0.1	432.56
22451	21.28	5.7273	0.1	452.38
22452	21.189	5.8182	0.1	453.13
22453	21.28	5.9091	0.1	444.51
22454	21.28	5.5455	0.1	459.58
22455	21.189	5.6364	0.1	458.7
22456	21.28	5.3636	0.1	470.95
22457	21.189	5.4545	0.1	469.57
22458	21.28	5.1818	0.1	485.75
22459	21.189	5.2727	0.1	484.5
22460	21.28	5.	0.1	503.64
22461	21.189	5.0909	0.1	503.18
22462	21.28	4.8182	0.1	524.2
22463	21.189	4.9091	0.1	525.23
22464	21.28	4.6364	0.1	546.87
22465	21.189	4.7273	0.1	550.1
22466	21.28	4.4545	0.1	571.01
22467	21.189	4.5455	0.1	577.11
22468	21.28	4.2727	0.1	595.86
22469	21.189	4.3636	0.1	605.49
22470	21.28	4.0909	0.1	620.57
22471	21.189	4.1818	0.1	634.29
22472	21.28	3.9091	0.1	644.16
22473	21.189	4.	0.1	662.47
22474	21.28	3.7273	0.1	665.54
22475	21.189	3.8182	0.1	688.79
22476	21.28	3.5455	0.1	683.62
22477	21.189	3.6364	0.1	711.93
22478	21.28	3.3636	0.1	697.36
22479	21.189	3.4545	0.1	730.61
22480	21.28	3.1818	0.1	705.96
22481	21.189	3.2727	0.1	743.73
22482	21.28	3.	0.1	708.89
22483	21.189	3.0909	0.1	750.48
22484	21.28	2.8182	0.1	705.96
22485	21.189	2.9091	0.1	750.48
22486	21.28	2.6364	0.1	697.36
22487	21.189	2.7273	0.1	743.73
22488	21.28	2.4545	0.1	683.62
22489	21.189	2.5455	0.1	730.61
22490	21.28	2.2727	0.1	665.54
22491	21.189	2.3636	0.1	711.93
22492	21.28	2.0909	0.1	644.16
22493	21.189	2.1818	0.1	688.79
22494	21.28	1.9091	0.1	620.57
22495	21.189	2.	0.1	662.47
22496	21.28	1.7273	0.1	595.86
22497	21.189	1.8182	0.1	634.29
22498	21.28	1.5455	0.1	571.01
22499	21.189	1.6364	0.1	605.49
22500	21.28	1.3636	0.1	546.87
22501	21.189	1.4545	0.1	577.11
22502	21.28	1.1818	0.1	524.2
22503	21.189	1.2727	0.1	550.1
22504	21.28	1.	0.1	503.64
22505	21.189	1.0909	0.1	525.23
22506	21.28	0.81818	0.1	485.75
22507	21.189	0.90909	0.1	503.18
22508	21.28	0.63636	0.1	470.95
22509	21.189	0.72727	0.1	484.5
22510	21.28	0.45455	0.1	459.58
22511	21.189	0.54545	0.1	469.57
22512	21.28	0.27273	0.1	452.38
22513	21.189	0.36364	0.1	458.7
22514	21.189	0.18182	0.1	453.13
22515	21.28	9.0909e-002	0.1	444.51
22516	21.099	5.7273	0.1	459.43
22517	21.008	5.8182	0.1	455.5
22518	21.099	5.9091	0.1	449.9
22519	21.099	5.5455	0.1	468.74
22520	21.008	5.6364	0.1	462.82
22521	21.099	5.3636	0.1	483.19
22522	21.008	5.4545	0.1	476.55
22523	21.099	5.1818	0.1	502.04
22524	21.008	5.2727	0.1	495.43
22525	21.099	5.	0.1	524.9
22526	21.008	5.0909	0.1	519.16
22527	21.099	4.8182	0.1	551.28
22528	21.008	4.9091	0.1	547.33
22529	21.099	4.6364	0.1	580.51
22530	21.008	4.7273	0.1	579.27
22531	21.099	4.4545	0.1	611.77
22532	21.008	4.5455	0.1	614.16
22533	21.099	4.2727	0.1	644.09
22534	21.008	4.3636	0.1	650.97
22535	21.099	4.0909	0.1	676.34
22536	21.008	4.1818	0.1	688.52
22537	21.099	3.9091	0.1	707.21
22538	21.008	4.	0.1	725.36
22539	21.099	3.7273	0.1	735.23
22540	21.008	3.8182	0.1	759.82
22541	21.099	3.5455	0.1	758.91
22542	21.008	3.6364	0.1	790.08
22543	21.099	3.3636	0.1	776.88
22544	21.008	3.4545	0.1	814.41
22545	21.099	3.1818	0.1	788.09
22546	21.008	3.2727	0.1	831.4
22547	21.099	3.	0.1	791.9
22548	21.008	3.0909	0.1	840.12
22549	21.099	2.8182	0.1	788.09
22550	21.008	2.9091	0.1	840.12
22551	21.099	2.6364	0.1	776.88
22552	21.008	2.7273	0.1	831.4
22553	21.099	2.4545	0.1	758.91
22554	21.008	2.5455	0.1	814.41
22555	21.099	2.2727	0.1	735.23
22556	21.008	2.3636	0.1	790.08
22557	21.099	2.0909	0.1	707.21
22558	21.008	2.1818	0.1	759.82
22559	21.099	1.9091	0.1	676.34
22560	21.008	2.	0.1	725.36
22561	21.099	1.7273	0.1	644.09
22562	21.008	1.8182	0.1	688.52
22563	21.099	1.5455	0.1	611.77
22564	21.008	1.6364	0.1	650.97
22565	21.099	1.3636	0.1	580.51
22566	21.008	1.4545	0.1	614.16
22567	21.099	1.1818	0.1	551.28
22568	21.008	1.2727	0.1	579.27
22569	21.099	1.	0.1	524.9
22570	21.008	1.0909	0.1	547.33
22571	21.099	0.81818	0.1	502.04
22572	21.008	0.90909	0.1	519.16
22573	21.099	0.63636	0.1	483.19
22574	21.008	0.72727	0.1	495.43
22575	21.099	0.45455	0.1	468.74
22576	21.008	0.54545	0.1	476.55
22577	21.099	0.27273	0.1	459.43
22578	21.008	0.36364	0.1	462.82
22579	21.008	0.18182	0.1	455.5
22580	21.099	9.0909e-002	0.1	449.9
22581	20.917	5.7273	0.1	458.92
22582	20.827	5.8182	0.1	449.49
22583	20.917	5.9091	0.1	447.41
22584	20.917	5.5455	0.1	470.71
22585	20.827	5.6364	0.1	458.79
22586	20.917	5.3636	0.1	488.92
22587	20.827	5.4545	0.1	475.92
22588	20.917	5.1818	0.1	512.75
22589	20.827	5.2727	0.1	499.59
22590	20.917	5.	0.1	541.83
22591	20.827	5.0909	0.1	529.56
22592	20.917	4.8182	0.1	575.6
22593	20.827	4.9091	0.1	565.39
22594	20.917	4.6364	0.1	613.22
22595	20.827	4.7273	0.1	606.33
22596	20.917	4.4545	0.1	653.67
22597	20.827	4.5455	0.1	651.35
22598	20.917	4.2727	0.1	695.69
22599	20.827	4.3636	0.1	699.16
22600	20.917	4.0909	0.1	737.79
22601	20.827	4.1818	0.1	748.16
22602	20.917	3.9091	0.1	778.15
22603	20.827	4.	0.1	796.38
22604	20.917	3.7273	0.1	814.74
22605	20.827	3.8182	0.1	841.45
22606	20.917	3.5455	0.1	845.53
22607	20.827	3.6364	0.1	880.79
22608	20.917	3.3636	0.1	868.74
22609	20.827	3.4545	0.1	912.08
22610	20.917	3.1818	0.1	883.13
22611	20.827	3.2727	0.1	933.67
22612	20.917	3.	0.1	888.
22613	20.827	3.0909	0.1	944.64
22614	20.917	2.8182	0.1	883.13
22615	20.827	2.9091	0.1	944.64
22616	20.917	2.6364	0.1	868.74
22617	20.827	2.7273	0.1	933.67
22618	20.917	2.4545	0.1	845.53
22619	20.827	2.5455	0.1	912.08
22620	20.917	2.2727	0.1	814.74
22621	20.827	2.3636	0.1	880.79
22622	20.917	2.0909	0.1	778.15
22623	20.827	2.1818	0.1	841.45
22624	20.917	1.9091	0.1	737.79
22625	20.827	2.	0.1	796.38
22626	20.917	1.7273	0.1	695.69
22627	20.827	1.8182	0.1	748.16
22628	20.917	1.5455	0.1	653.67
22629	20.827	1.6364	0.1	699.16
22630	20.917	1.3636	0.1	613.22
22631	20.827	1.4545	0.1	651.35
22632	20.917	1.1818	0.1	575.6
22633	20.827	1.2727	0.1	606.33
22634	20.917	1.	0.1	541.83
22635	20.827	1.0909	0.1	565.39
22636	20.917	0.81818	0.1	512.75
22637	20.827	0.90909	0.1	529.56
22638	20.917	0.63636	0.1	488.92
22639	20.827	0.72727	0.1	499.59
22640	20.917	0.45455	0.1	470.71
22641	20.827	0.54545	0.1	475.92
22642	20.917	0.27273	0.1	458.92
22643	20.827	0.36364	0.1	458.79
22644	20.827	0.18182	0.1	449.49
22645	20.917	9.0909e-002	0.1	447.41
22646	20.736	5.7273	0.1	449.44
22647	20.645	5.8182	0.1	433.71
22648	20.736	5.9091	0.1	435.65
22649	20.736	5.5455	0.1	464.14
22650	20.645	5.6364	0.1	445.22
22651	20.736	5.3636	0.1	486.83
22652	20.645	5.4545	0.1	466.33
22653	20.736	5.1818	0.1	516.75
22654	20.645	5.2727	0.1	495.75
22655	20.736	5.	0.1	553.55
22656	20.645	5.0909	0.1	533.32
22657	20.736	4.8182	0.1	596.62
22658	20.645	4.9091	0.1	578.64
22659	20.736	4.6364	0.1	644.98
22660	20.645	4.7273	0.1	630.94
22661	20.736	4.4545	0.1	697.36
22662	20.645	4.5455	0.1	689.05
22663	20.736	4.2727	0.1	752.1
22664	20.645	4.3636	0.1	751.3
22665	20.736	4.0909	0.1	807.16
22666	20.645	4.1818	0.1	815.54
22667	20.736	3.9091	0.1	859.96
22668	20.645	4.	0.1	878.93
22669	20.736	3.7273	0.1	907.58
22670	20.645	3.8182	0.1	937.9
22671	20.736	3.5455	0.1	947.19
22672	20.645	3.6364	0.1	988.62
22673	20.736	3.3636	0.1	976.64
22674	20.645	3.4545	0.1	1028.1
22675	20.736	3.1818	0.1	994.64
22676	20.645	3.2727	0.1	1054.6
22677	20.736	3.	0.1	1000.7
22678	20.645	3.0909	0.1	1067.8
22679	20.736	2.8182	0.1	994.64
22680	20.645	2.9091	0.1	1067.8
22681	20.736	2.6364	0.1	976.64
22682	20.645	2.7273	0.1	1054.6
22683	20.736	2.4545	0.1	947.19
22684	20.645	2.5455	0.1	1028.1
22685	20.736	2.2727	0.1	907.58
22686	20.645	2.3636	0.1	988.62
22687	20.736	2.0909	0.1	859.96
22688	20.645	2.1818	0.1	937.9
22689	20.736	1.9091	0.1	807.16
22690	20.645	2.	0.1	878.93
22691	20.736	1.7273	0.1	752.1
22692	20.645	1.8182	0.1	815.54
22693	20.736	1.5455	0.1	697.36
22694	20.645	1.6364	0.1	751.3
22695	20.736	1.3636	0.1	644.98
22696	20.645	1.4545	0.1	689.05
22697	20.736	1.1818	0.1	596.62
22698	20.645	1.2727	0.1	630.94
22699	20.736	1.	0.1	553.55
22700	20.645	1.0909	0.1	578.64
22701	20.736	0.81818	0.1	516.75
22702	20.645	0.90909	0.1	533.32
22703	20.736	0.63636	0.1	486.83
22704	20.645	0.72727	0.1	495.75
22705	20.736	0.45455	0.1	464.14
22706	20.645	0.54545	0.1	466.33
22707	20.736	0.27273	0.1	449.44
22708	20.645	0.36364	0.1	445.22
22709	20.645	0.18182	0.1	433.71
22710	20.736	9.0909e-002	0.1	435.65
22711	20.555	5.7273	0.1	429.62
22712	20.464	5.8182	0.1	406.81
22713	20.555	5.9091	0.1	413.23
22714	20.555	5.5455	0.1	447.64
22715	20.464	5.6364	0.1	420.81
22716	20.555	5.3636	0.1	475.66
22717	20.464	5.4545	0.1	446.59
22718	20.555	5.1818	0.1	512.92
22719	20.464	5.2727	0.1	482.82
22720	20.555	5.	0.1	559.17
22721	20.464	5.0909	0.1	529.45
22722	20.555	4.8182	0.1	613.82
22723	20.464	4.9091	0.1	586.28
22724	20.555	4.6364	0.1	675.89
22725	20.464	4.7273	0.1	652.75
22726	20.555	4.4545	0.1	743.84
22727	20.464	4.5455	0.1	727.74
22728	20.555	4.2727	0.1	815.5
22729	20.464	4.3636	0.1	809.25
22730	20.555	4.0909	0.1	887.93
22731	20.464	4.1818	0.1	894.3
22732	20.555	3.9091	0.1	957.25
22733	20.464	4.	0.1	978.48
22734	20.555	3.7273	0.1	1019.
22735	20.464	3.8182	0.1	1055.9
22736	20.555	3.5455	0.1	1069.1
22737	20.464	3.6364	0.1	1120.5
22738	20.555	3.3636	0.1	1105.3
22739	20.464	3.4545	0.1	1168.4
22740	20.555	3.1818	0.1	1126.8
22741	20.464	3.2727	0.1	1198.9
22742	20.555	3.	0.1	1133.9
22743	20.464	3.0909	0.1	1213.5
22744	20.555	2.8182	0.1	1126.8
22745	20.464	2.9091	0.1	1213.5
22746	20.555	2.6364	0.1	1105.3
22747	20.464	2.7273	0.1	1198.9
22748	20.555	2.4545	0.1	1069.1
22749	20.464	2.5455	0.1	1168.4
22750	20.555	2.2727	0.1	1019.
22751	20.464	2.3636	0.1	1120.5
22752	20.555	2.0909	0.1	957.25
22753	20.464	2.1818	0.1	1055.9
22754	20.555	1.9091	0.1	887.93
22755	20.464	2.	0.1	978.48
22756	20.555	1.7273	0.1	815.5
22757	20.464	1.8182	0.1	894.3
22758	20.555	1.5455	0.1	743.84
22759	20.464	1.6364	0.1	809.25
22760	20.555	1.3636	0.1	675.89
22761	20.464	1.4545	0.1	727.74
22762	20.555	1.1818	0.1	613.82
22763	20.464	1.2727	0.1	652.75
22764	20.555	1.	0.1	559.17
22765	20.464	1.0909	0.1	586.28
22766	20.555	0.81818	0.1	512.92
22767	20.464	0.90909	0.1	529.45
22768	20.555	0.63636	0.1	475.66
22769	20.464	0.72727	0.1	482.82
22770	20.555	0.45455	0.1	447.64
22771	20.464	0.54545	0.1	446.59
22772	20.555	0.27273	0.1	429.62
22773	20.464	0.36364	0.1	420.81
22774	20.464	0.18182	0.1	406.81
22775	20.555	9.0909e-002	0.1	413.23
22776	20.373	5.7273	0.1	398.2
22777	20.283	5.8182	0.1	367.71
22778	20.373	5.9091	0.1	378.91
22779	20.373	5.5455	0.1	420.12
22780	20.283	5.6364	0.1	384.66
22781	20.373	5.3636	0.1	454.44
22782	20.283	5.4545	0.1	416.05
22783	20.373	5.1818	0.1	500.4
22784	20.283	5.2727	0.1	460.29
22785	20.373	5.	0.1	557.89
22786	20.283	5.0909	0.1	517.39
22787	20.373	4.8182	0.1	626.68
22788	20.283	4.9091	0.1	587.6
22789	20.373	4.6364	0.1	706.07
22790	20.283	4.7273	0.1	671.17
22791	20.373	4.4545	0.1	794.5
22792	20.283	4.5455	0.1	767.74
22793	20.373	4.2727	0.1	889.2
22794	20.283	4.3636	0.1	875.54
22795	20.373	4.0909	0.1	985.73
22796	20.283	4.1818	0.1	990.26
22797	20.373	3.9091	0.1	1077.6
22798	20.283	4.	0.1	1104.5
22799	20.373	3.7273	0.1	1157.3
22800	20.283	3.8182	0.1	1207.1
22801	20.373	3.5455	0.1	1219.
22802	20.283	3.6364	0.1	1287.3
22803	20.373	3.3636	0.1	1260.7
22804	20.283	3.4545	0.1	1340.9
22805	20.373	3.1818	0.1	1284.1
22806	20.283	3.2727	0.1	1371.3
22807	20.373	3.	0.1	1291.5
22808	20.283	3.0909	0.1	1384.7
22809	20.373	2.8182	0.1	1284.1
22810	20.283	2.9091	0.1	1384.7
22811	20.373	2.6364	0.1	1260.7
22812	20.283	2.7273	0.1	1371.4
22813	20.373	2.4545	0.1	1219.
22814	20.283	2.5455	0.1	1340.9
22815	20.373	2.2727	0.1	1157.3
22816	20.283	2.3636	0.1	1287.3
22817	20.373	2.0909	0.1	1077.6
22818	20.283	2.1818	0.1	1207.1
22819	20.373	1.9091	0.1	985.73
22820	20.283	2.	0.1	1104.5
22821	20.373	1.7273	0.1	889.21
22822	20.283	1.8182	0.1	990.26
22823	20.373	1.5455	0.1	794.5
22824	20.283	1.6364	0.1	875.54
22825	20.373	1.3636	0.1	706.07
22826	20.283	1.4545	0.1	767.74
22827	20.373	1.1818	0.1	626.68
22828	20.283	1.2727	0.1	671.17
22829	20.373	1.	0.1	557.89
22830	20.283	1.0909	0.1	587.6
22831	20.373	0.81818	0.1	500.4
22832	20.283	0.90909	0.1	517.39
22833	20.373	0.63636	0.1	454.44
22834	20.283	0.72727	0.1	460.29
22835	20.373	0.45455	0.1	420.12
22836	20.283	0.54545	0.1	416.05
22837	20.373	0.27273	0.1	398.2
22838	20.283	0.36364	0.1	384.66
22839	20.283	0.18182	0.1	367.71
22840	20.373	9.0909e-002	0.1	378.91
22841	20.192	5.7273	0.1	354.44
22842	20.101	5.8182	0.1	315.82
22843	20.192	5.9091	0.1	331.77
22844	20.192	5.5455	0.1	381.2
22845	20.101	5.6364	0.1	336.88
22846	20.192	5.3636	0.1	423.12
22847	20.101	5.4545	0.1	375.52
22848	20.192	5.1818	0.1	479.1
22849	20.101	5.2727	0.1	429.11
22850	20.192	5.	0.1	549.36
22851	20.101	5.0909	0.1	497.59
22852	20.192	4.8182	0.1	634.57
22853	20.101	4.9091	0.1	582.15
22854	20.192	4.6364	0.1	735.27
22855	20.101	4.7273	0.1	684.95
22856	20.192	4.4545	0.1	850.93
22857	20.101	4.5455	0.1	808.58
22858	20.192	4.2727	0.1	978.34
22859	20.101	4.3636	0.1	952.95
22860	20.192	4.0909	0.1	1110.2
22861	20.101	4.1818	0.1	1113.4
22862	20.192	3.9091	0.1	1234.3
22863	20.101	4.	0.1	1275.9
22864	20.192	3.7273	0.1	1336.4
22865	20.101	3.8182	0.1	1413.6
22866	20.192	3.5455	0.1	1407.6
22867	20.101	3.6364	0.1	1507.
22868	20.192	3.3636	0.1	1449.4
22869	20.101	3.4545	0.1	1554.8
22870	20.192	3.1818	0.1	1469.6
22871	20.101	3.2727	0.1	1574.2
22872	20.192	3.	0.1	1475.4
22873	20.101	3.0909	0.1	1580.2
22874	20.192	2.8182	0.1	1469.6
22875	20.101	2.9091	0.1	1580.2
22876	20.192	2.6364	0.1	1449.4
22877	20.101	2.7273	0.1	1574.2
22878	20.192	2.4545	0.1	1407.6
22879	20.101	2.5455	0.1	1554.8
22880	20.192	2.2727	0.1	1336.4
22881	20.101	2.3636	0.1	1507.
22882	20.192	2.0909	0.1	1234.3
22883	20.101	2.1818	0.1	1413.6
22884	20.192	1.9091	0.1	1110.2
22885	20.101	2.	0.1	1275.9
22886	20.192	1.7273	0.1	978.34
22887	20.101	1.8182	0.1	1113.4
22888	20.192	1.5455	0.1	850.93
22889	20.101	1.6364	0.1	952.95
22890	20.192	1.3636	0.1	735.27
22891	20.101	1.4545	0.1	808.58
22892	20.192	1.1818	0.1	634.57
22893	20.101	1.2727	0.1	684.95
22894	20.192	1.	0.1	549.36
22895	20.101	1.0909	0.1	582.15
22896	20.192	0.81818	0.1	479.1
22897	20.101	0.90909	0.1	497.59
22898	20.192	0.63636	0.1	423.12
22899	20.101	0.72727	0.1	429.11
22900	20.192	0.45455	0.1	381.2
22901	20.101	0.54545	0.1	375.52
22902	20.192	0.27273	0.1	354.44
22903	20.101	0.36364	0.1	336.88
22904	20.101	0.18182	0.1	315.82
22905	20.192	9.0909e-002	0.1	331.77
22906	20.011	5.7273	0.1	298.63
22907	19.92	5.8182	0.1	251.41
22908	20.011	5.9091	0.1	271.49
22909	20.011	5.5455	0.1	332.36
22910	19.92	5.6364	0.1	279.95
22911	20.011	5.3636	0.1	383.75
22912	19.92	5.4545	0.1	328.88
22913	20.011	5.1818	0.1	450.71
22914	19.92	5.2727	0.1	393.07
22915	20.011	5.	0.1	534.09
22916	19.92	5.0909	0.1	472.56
22917	20.011	4.8182	0.1	636.57
22918	19.92	4.9091	0.1	570.26
22919	20.011	4.6364	0.1	762.26
22920	19.92	4.7273	0.1	691.85
22921	20.011	4.4545	0.1	914.11
22922	19.92	4.5455	0.1	845.65
22923	20.011	4.2727	0.1	1090.6
22924	19.92	4.3636	0.1	1041.5
22925	20.011	4.0909	0.1	1280.6
22926	19.92	4.1818	0.1	1284.4
22927	20.011	3.9091	0.1	1454.9
22928	19.92	4.	0.1	1529.4
22929	20.011	3.7273	0.1	1581.9
22930	19.92	3.8182	0.1	1726.6
22931	20.011	3.5455	0.1	1650.7
22932	19.92	3.6364	0.1	1807.3
22933	20.011	3.3636	0.1	1676.1
22934	19.92	3.4545	0.1	1815.5
22935	20.011	3.1818	0.1	1681.5
22936	19.92	3.2727	0.1	1801.4
22937	20.011	3.	0.1	1681.8
22938	19.92	3.0909	0.1	1790.3
22939	20.011	2.8182	0.1	1681.5
22940	19.92	2.9091	0.1	1790.3
22941	20.011	2.6364	0.1	1676.1
22942	19.92	2.7273	0.1	1801.4
22943	20.011	2.4545	0.1	1650.7
22944	19.92	2.5455	0.1	1815.5
22945	20.011	2.2727	0.1	1581.9
22946	19.92	2.3636	0.1	1807.3
22947	20.011	2.0909	0.1	1454.9
22948	19.92	2.1818	0.1	1726.6
22949	20.011	1.9091	0.1	1280.6
22950	19.92	2.	0.1	1529.4
22951	20.011	1.7273	0.1	1090.6
22952	19.92	1.8182	0.1	1284.4
22953	20.011	1.5455	0.1	914.11
22954	19.92	1.6364	0.1	1041.5
22955	20.011	1.3636	0.1	762.26
22956	19.92	1.4545	0.1	845.65
22957	20.011	1.1818	0.1	636.57
22958	19.92	1.2727	0.1	691.85
22959	20.011	1.	0.1	534.09
22960	19.92	1.0909	0.1	570.26
22961	20.011	0.81818	0.1	450.71
22962	19.92	0.90909	0.1	472.56
22963	20.011	0.63636	0.1	383.75
22964	19.92	0.72727	0.1	393.07
22965	20.011	0.45455	0.1	332.36
22966	19.92	0.54545	0.1	328.88
22967	20.011	0.27273	0.1	298.63
22968	19.92	0.36364	0.1	279.95
22969	19.92	0.18182	0.1	251.41
22970	20.011	9.0909e-002	0.1	271.49
22971	19.829	5.7273	0.1	233.51
22972	19.739	5.8182	0.1	178.56
22973	19.829	5.9091	0.1	198.43
22974	19.829	5.5455	0.1	279.15
22975	19.739	5.6364	0.1	225.17
22976	19.829	5.3636	0.1	342.28
22977	19.739	5.4545	0.1	289.33
22978	19.829	5.1818	0.1	419.82
22979	19.739	5.2727	0.1	364.93
22980	19.829	5.	0.1	514.29
22981	19.739	5.0909	0.1	454.22
22982	19.829	4.8182	0.1	631.77
22983	19.739	4.9091	0.1	562.8
22984	19.829	4.6364	0.1	782.04
22985	19.739	4.7273	0.1	700.07
22986	19.829	4.4545	0.1	979.13
22987	19.739	4.5455	0.1	883.81
22988	19.829	4.2727	0.1	1239.8
22989	19.739	4.3636	0.1	1140.4
22990	19.829	4.0909	0.1	1534.
22991	19.739	4.1818	0.1	1580.4
22992	19.829	3.9091	0.1	1797.9
22993	19.739	4.	0.1	2097.9
22994	19.829	3.7273	0.1	1944.9
22995	19.739	3.8182	0.1	2269.
22996	19.829	3.5455	0.1	1965.7
22997	19.739	3.6364	0.1	2213.
22998	19.829	3.3636	0.1	1936.1
22999	19.739	3.4545	0.1	2103.4
23000	19.829	3.1818	0.1	1906.4
23001	19.739	3.2727	0.1	2028.5
23002	19.829	3.	0.1	1895.2
23003	19.739	3.0909	0.1	1991.
23004	19.829	2.8182	0.1	1906.4
23005	19.739	2.9091	0.1	1991.
23006	19.829	2.6364	0.1	1936.1
23007	19.739	2.7273	0.1	2028.5
23008	19.829	2.4545	0.1	1965.7
23009	19.739	2.5455	0.1	2103.4
23010	19.829	2.2727	0.1	1944.9
23011	19.739	2.3636	0.1	2213.
23012	19.829	2.0909	0.1	1797.9
23013	19.739	2.1818	0.1	2269.
23014	19.829	1.9091	0.1	1534.
23015	19.739	2.	0.1	2097.9
23016	19.829	1.7273	0.1	1239.8
23017	19.739	1.8182	0.1	1580.4
23018	19.829	1.5455	0.1	979.13
23019	19.739	1.6364	0.1	1140.4
23020	19.829	1.3636	0.1	782.04
23021	19.739	1.4545	0.1	883.81
23022	19.829	1.1818	0.1	631.77
23023	19.739	1.2727	0.1	700.07
23024	19.829	1.	0.1	514.29
23025	19.739	1.0909	0.1	562.8
23026	19.829	0.81818	0.1	419.82
23027	19.739	0.90909	0.1	454.22
23028	19.829	0.63636	0.1	342.28
23029	19.739	0.72727	0.1	364.93
23030	19.829	0.45455	0.1	279.15
23031	19.739	0.54545	0.1	289.33
23032	19.829	0.27273	0.1	233.51
23033	19.739	0.36364	0.1	225.17
23034	19.739	0.18182	0.1	178.56
23035	19.829	9.0909e-002	0.1	198.43
23036	19.648	5.7273	0.1	174.19
23037	19.557	5.8182	0.1	105.13
23038	19.648	5.9091	0.1	116.18
23039	19.648	5.5455	0.1	241.52
23040	19.557	5.6364	0.1	166.86
23041	19.648	5.3636	0.1	318.33
23042	19.557	5.4545	0.1	231.24
23043	19.648	5.1818	0.1	405.9
23044	19.557	5.2727	0.1	300.71
23045	19.648	5.	0.1	509.99
23046	19.557	5.0909	0.1	379.82
23047	19.648	4.8182	0.1	639.83
23048	19.557	4.9091	0.1	474.71
23049	19.648	4.6364	0.1	812.95
23050	19.557	4.7273	0.1	594.71
23051	19.648	4.4545	0.1	1061.3
23052	19.557	4.5455	0.1	759.06
23053	19.648	4.2727	0.1	1494.7
23054	19.557	4.3636	0.1	995.99
23055	19.648	4.0909	0.1	2138.7
23056	19.557	4.1818	0.1	1433.4
23057	19.648	3.9091	0.1	2547.6
23058	19.557	4.	0.1	3848.4
23059	19.648	3.7273	0.1	2520.
23060	19.557	3.8182	0.1	3066.5
23061	19.648	3.5455	0.1	2343.8
23062	19.557	3.6364	0.1	2612.6
23063	19.648	3.3636	0.1	2192.
23064	19.557	3.4545	0.1	2347.7
23065	19.648	3.1818	0.1	2110.1
23066	19.557	3.2727	0.1	2208.1
23067	19.648	3.	0.1	2083.9
23068	19.557	3.0909	0.1	2145.8
23069	19.648	2.8182	0.1	2110.1
23070	19.557	2.9091	0.1	2145.8
23071	19.648	2.6364	0.1	2192.
23072	19.557	2.7273	0.1	2208.1
23073	19.648	2.4545	0.1	2343.8
23074	19.557	2.5455	0.1	2347.7
23075	19.648	2.2727	0.1	2520.
23076	19.557	2.3636	0.1	2612.6
23077	19.648	2.0909	0.1	2547.6
23078	19.557	2.1818	0.1	3066.5
23079	19.648	1.9091	0.1	2138.7
23080	19.557	2.	0.1	3848.4
23081	19.648	1.7273	0.1	1494.7
23082	19.557	1.8182	0.1	1433.4
23083	19.648	1.5455	0.1	1061.3
23084	19.557	1.6364	0.1	995.99
23085	19.648	1.3636	0.1	812.95
23086	19.557	1.4545	0.1	759.06
23087	19.648	1.1818	0.1	639.83
23088	19.557	1.2727	0.1	594.71
23089	19.648	1.	0.1	509.99
23090	19.557	1.0909	0.1	474.71
23091	19.648	0.81818	0.1	405.9
23092	19.557	0.90909	0.1	379.82
23093	19.648	0.63636	0.1	318.33
23094	19.557	0.72727	0.1	300.71
23095	19.648	0.45455	0.1	241.52
23096	19.557	0.54545	0.1	231.24
23097	19.648	0.27273	0.1	174.19
23098	19.557	0.36364	0.1	166.86
23099	19.557	0.18182	0.1	105.13
23100	19.648	9.0909e-002	0.1	116.18
23101	0.18381	0.27273	0.1	4171.7
23102	0.27571	0.18182	0.1	4456.3
23103	9.1905e-002	0.18182	0.1	3191.
23104	0.18381	9.0909e-002	0.1	3686.8
23105	0.18381	0.45455	0.1	4828.2
23106	0.27571	0.36364	0.1	4820.
23107	9.1905e-002	0.36364	0.1	4546.5
23108	0.18381	0.63636	0.1	5444.7
23109	0.27571	0.54545	0.1	5310.8
23110	9.1905e-002	0.54545	0.1	5426.2
23111	0.18381	0.81818	0.1	5910.4
23112	0.27571	0.72727	0.1	5740.5
23113	9.1905e-002	0.72727	0.1	6018.
23114	0.18381	1.	0.1	6260.1
23115	0.27571	0.90909	0.1	6091.6
23116	9.1905e-002	0.90909	0.1	6434.3
23117	0.18381	1.1818	0.1	6525.2
23118	0.27571	1.0909	0.1	6370.8
23119	9.1905e-002	1.0909	0.1	6738.8
23120	0.18381	1.3636	0.1	6729.2
23121	0.27571	1.2727	0.1	6592.2
23122	9.1905e-002	1.2727	0.1	6967.9
23123	0.18381	1.5455	0.1	6888.
23124	0.27571	1.4545	0.1	6768.
23125	9.1905e-002	1.4545	0.1	7143.5
23126	0.18381	1.7273	0.1	7012.3
23127	0.27571	1.6364	0.1	6907.8
23128	9.1905e-002	1.6364	0.1	7279.7
23129	0.18381	1.9091	0.1	7109.6
23130	0.27571	1.8182	0.1	7018.8
23131	9.1905e-002	1.8182	0.1	7386.
23132	0.18381	2.0909	0.1	7185.3
23133	0.27571	2.	0.1	7106.4
23134	9.1905e-002	2.	0.1	7468.7
23135	0.18381	2.2727	0.1	7243.1
23136	0.27571	2.1818	0.1	7174.5
23137	9.1905e-002	2.1818	0.1	7532.3
23138	0.18381	2.4545	0.1	7285.7
23139	0.27571	2.3636	0.1	7226.
23140	9.1905e-002	2.3636	0.1	7580.1
23141	0.18381	2.6364	0.1	7314.9
23142	0.27571	2.5455	0.1	7263.
23143	9.1905e-002	2.5455	0.1	7614.2
23144	0.18381	2.8182	0.1	7332.
23145	0.27571	2.7273	0.1	7286.9
23146	9.1905e-002	2.7273	0.1	7636.2
23147	0.18381	3.	0.1	7337.6
23148	0.27571	2.9091	0.1	7298.6
23149	9.1905e-002	2.9091	0.1	7646.9
23150	0.18381	3.1818	0.1	7332.
23151	0.27571	3.0909	0.1	7298.6
23152	9.1905e-002	3.0909	0.1	7646.9
23153	0.18381	3.3636	0.1	7314.9
23154	0.27571	3.2727	0.1	7286.9
23155	9.1905e-002	3.2727	0.1	7636.2
23156	0.18381	3.5455	0.1	7285.7
23157	0.27571	3.4545	0.1	7263.
23158	9.1905e-002	3.4545	0.1	7614.2
23159	0.18381	3.7273	0.1	7243.1
23160	0.27571	3.6364	0.1	7226.
23161	9.1905e-002	3.6364	0.1	7580.1
23162	0.18381	3.9091	0.1	7185.3
23163	0.27571	3.8182	0.1	7174.5
23164	9.1905e-002	3.8182	0.1	7532.3
23165	0.18381	4.0909	0.1	7109.6
23166	0.27571	4.	0.1	7106.4
23167	9.1905e-002	4.	0.1	7468.7
23168	0.18381	4.2727	0.1	7012.3
23169	0.27571	4.1818	0.1	7018.8
23170	9.1905e-002	4.1818	0.1	7386.
23171	0.18381	4.4545	0.1	6888.
23172	0.27571	4.3636	0.1	6907.8
23173	9.1905e-002	4.3636	0.1	7279.7
23174	0.18381	4.6364	0.1	6729.2
23175	0.27571	4.5455	0.1	6768.
23176	9.1905e-002	4.5455	0.1	7143.5
23177	0.18381	4.8182	0.1	6525.2
23178	0.27571	4.7273	0.1	6592.2
23179	9.1905e-002	4.7273	0.1	6967.9
23180	0.18381	5.	0.1	6260.1
23181	0.27571	4.9091	0.1	6370.8
23182	9.1905e-002	4.9091	0.1	6738.8
23183	0.18381	5.1818	0.1	5910.4
23184	0.27571	5.0909	0.1	6091.6
23185	9.1905e-002	5.0909	0.1	6434.3
23186	0.18381	5.3636	0.1	5444.7
23187	0.27571	5.2727	0.1	5740.5
23188	9.1905e-002	5.2727	0.1	6018.
23189	0.18381	5.5455	0.1	4828.2
23190	0.27571	5.4545	0.1	5310.8
23191	9.1905e-002	5.4545	0.1	5426.2
23192	0.18381	5.7273	0.1	4171.7
23193	0.27571	5.6364	0.1	4820.
23194	9.1905e-002	5.6364	0.1	4546.5
23195	0.27571	5.8182	0.1	4456.3
23196	9.1905e-002	5.8182	0.1	3191.
23197	0.18381	5.9091	0.1	3686.8
23198	0.36762	0.27273	0.1	5089.5
23199	0.45952	0.18182	0.1	5273.
23200	0.36762	9.0909e-002	0.1	4871.2
23201	0.36762	0.45455	0.1	5302.3
23202	0.45952	0.36364	0.1	5338.2
23203	0.36762	0.63636	0.1	5613.8
23204	0.45952	0.54545	0.1	5542.1
23205	0.36762	0.81818	0.1	5928.4
23206	0.45952	0.72727	0.1	5788.
23207	0.36762	1.	0.1	6206.9
23208	0.45952	0.90909	0.1	6030.7
23209	0.36762	1.1818	0.1	6440.8
23210	0.45952	1.0909	0.1	6249.7
23211	0.36762	1.3636	0.1	6632.8
23212	0.45952	1.2727	0.1	6438.4
23213	0.36762	1.5455	0.1	6789.
23214	0.45952	1.4545	0.1	6597.2
23215	0.36762	1.7273	0.1	6915.
23216	0.45952	1.6364	0.1	6728.8
23217	0.36762	1.9091	0.1	7016.
23218	0.45952	1.8182	0.1	6836.4
23219	0.36762	2.0909	0.1	7095.8
23220	0.45952	2.	0.1	6923.2
23221	0.36762	2.2727	0.1	7157.5
23222	0.45952	2.1818	0.1	6991.8
23223	0.36762	2.4545	0.1	7203.3
23224	0.45952	2.3636	0.1	7044.4
23225	0.36762	2.6364	0.1	7235.
23226	0.45952	2.5455	0.1	7082.5
23227	0.36762	2.8182	0.1	7253.5
23228	0.45952	2.7273	0.1	7107.2
23229	0.36762	3.	0.1	7259.7
23230	0.45952	2.9091	0.1	7119.4
23231	0.36762	3.1818	0.1	7253.5
23232	0.45952	3.0909	0.1	7119.4
23233	0.36762	3.3636	0.1	7235.
23234	0.45952	3.2727	0.1	7107.2
23235	0.36762	3.5455	0.1	7203.3
23236	0.45952	3.4545	0.1	7082.5
23237	0.36762	3.7273	0.1	7157.5
23238	0.45952	3.6364	0.1	7044.4
23239	0.36762	3.9091	0.1	7095.8
23240	0.45952	3.8182	0.1	6991.8
23241	0.36762	4.0909	0.1	7016.
23242	0.45952	4.	0.1	6923.2
23243	0.36762	4.2727	0.1	6915.
23244	0.45952	4.1818	0.1	6836.4
23245	0.36762	4.4545	0.1	6789.
23246	0.45952	4.3636	0.1	6728.8
23247	0.36762	4.6364	0.1	6632.8
23248	0.45952	4.5455	0.1	6597.2
23249	0.36762	4.8182	0.1	6440.8
23250	0.45952	4.7273	0.1	6438.4
23251	0.36762	5.	0.1	6206.9
23252	0.45952	4.9091	0.1	6249.7
23253	0.36762	5.1818	0.1	5928.3
23254	0.45952	5.0909	0.1	6030.7
23255	0.36762	5.3636	0.1	5613.8
23256	0.45952	5.2727	0.1	5788.
23257	0.36762	5.5455	0.1	5302.3
23258	0.45952	5.4545	0.1	5542.1
23259	0.36762	5.7273	0.1	5089.5
23260	0.45952	5.6364	0.1	5338.2
23261	0.45952	5.8182	0.1	5273.
23262	0.36762	5.9091	0.1	4871.2
23263	0.55143	0.27273	0.1	5520.1
23264	0.64333	0.18182	0.1	5664.3
23265	0.55143	9.0909e-002	0.1	5412.3
23266	0.55143	0.45455	0.1	5574.2
23267	0.64333	0.36364	0.1	5641.6
23268	0.55143	0.63636	0.1	5713.2
23269	0.64333	0.54545	0.1	5717.4
23270	0.55143	0.81818	0.1	5889.4
23271	0.64333	0.72727	0.1	5840.2
23272	0.55143	1.	0.1	6073.7
23273	0.64333	0.90909	0.1	5986.2
23274	0.55143	1.1818	0.1	6248.
23275	0.64333	1.0909	0.1	6136.4
23276	0.55143	1.3636	0.1	6403.4
23277	0.64333	1.2727	0.1	6278.8
23278	0.55143	1.5455	0.1	6537.5
23279	0.64333	1.4545	0.1	6407.1
23280	0.55143	1.7273	0.1	6650.5
23281	0.64333	1.6364	0.1	6519.
23282	0.55143	1.9091	0.1	6743.8
23283	0.64333	1.8182	0.1	6614.1
23284	0.55143	2.0909	0.1	6819.4
23285	0.64333	2.	0.1	6693.
23286	0.55143	2.2727	0.1	6878.8
23287	0.64333	2.1818	0.1	6756.7
23288	0.55143	2.4545	0.1	6923.6
23289	0.64333	2.3636	0.1	6806.3
23290	0.55143	2.6364	0.1	6954.7
23291	0.64333	2.5455	0.1	6842.7
23292	0.55143	2.8182	0.1	6973.1
23293	0.64333	2.7273	0.1	6866.5
23294	0.55143	3.	0.1	6979.2
23295	0.64333	2.9091	0.1	6878.3
23296	0.55143	3.1818	0.1	6973.1
23297	0.64333	3.0909	0.1	6878.3
23298	0.55143	3.3636	0.1	6954.7
23299	0.64333	3.2727	0.1	6866.5
23300	0.55143	3.5455	0.1	6923.6
23301	0.64333	3.4545	0.1	6842.7
23302	0.55143	3.7273	0.1	6878.8
23303	0.64333	3.6364	0.1	6806.3
23304	0.55143	3.9091	0.1	6819.4
23305	0.64333	3.8182	0.1	6756.7
23306	0.55143	4.0909	0.1	6743.8
23307	0.64333	4.	0.1	6693.
23308	0.55143	4.2727	0.1	6650.5
23309	0.64333	4.1818	0.1	6614.1
23310	0.55143	4.4545	0.1	6537.5
23311	0.64333	4.3636	0.1	6519.
23312	0.55143	4.6364	0.1	6403.4
23313	0.64333	4.5455	0.1	6407.1
23314	0.55143	4.8182	0.1	6248.
23315	0.64333	4.7273	0.1	6278.8
23316	0.55143	5.	0.1	6073.7
23317	0.64333	4.9091	0.1	6136.4
23318	0.55143	5.1818	0.1	5889.4
23319	0.64333	5.0909	0.1	5986.2
23320	0.55143	5.3636	0.1	5713.2
23321	0.64333	5.2727	0.1	5840.2
23322	0.55143	5.5455	0.1	5574.2
23323	0.64333	5.4545	0.1	5717.4
23324	0.55143	5.7273	0.1	5520.
23325	0.64333	5.6364	0.1	5641.6
23326	0.64333	5.8182	0.1	5664.3
23327	0.55143	5.9091	0.1	5412.3
23328	0.73524	0.27273	0.1	5785.9
23329	0.82714	0.18182	0.1	5883.
23330	0.73524	9.0909e-002	0.1	5721.
23331	0.73524	0.45455	0.1	5783.9
23332	0.82714	0.36364	0.1	5834.
23333	0.73524	0.63636	0.1	5842.5
23334	0.82714	0.54545	0.1	5854.4
23335	0.73524	0.81818	0.1	5935.4
23336	0.82714	0.72727	0.1	5910.3
23337	0.73524	1.	0.1	6048.
23338	0.82714	0.90909	0.1	5991.3
23339	0.73524	1.1818	0.1	6166.9
23340	0.82714	1.0909	0.1	6086.2
23341	0.73524	1.3636	0.1	6282.4
23342	0.82714	1.2727	0.1	6185.2
23343	0.73524	1.5455	0.1	6388.7
23344	0.82714	1.4545	0.1	6281.1
23345	0.73524	1.7273	0.1	6482.7
23346	0.82714	1.6364	0.1	6369.5
23347	0.73524	1.9091	0.1	6563.3
23348	0.82714	1.8182	0.1	6448.
23349	0.73524	2.0909	0.1	6630.4
23350	0.82714	2.	0.1	6515.2
23351	0.73524	2.2727	0.1	6684.3
23352	0.82714	2.1818	0.1	6570.9
23353	0.73524	2.4545	0.1	6725.4
23354	0.82714	2.3636	0.1	6615.
23355	0.73524	2.6364	0.1	6754.4
23356	0.82714	2.5455	0.1	6647.8
23357	0.73524	2.8182	0.1	6771.7
23358	0.82714	2.7273	0.1	6669.5
23359	0.73524	3.	0.1	6777.4
23360	0.82714	2.9091	0.1	6680.2
23361	0.73524	3.1818	0.1	6771.7
23362	0.82714	3.0909	0.1	6680.2
23363	0.73524	3.3636	0.1	6754.4
23364	0.82714	3.2727	0.1	6669.5
23365	0.73524	3.5455	0.1	6725.4
23366	0.82714	3.4545	0.1	6647.8
23367	0.73524	3.7273	0.1	6684.3
23368	0.82714	3.6364	0.1	6615.
23369	0.73524	3.9091	0.1	6630.4
23370	0.82714	3.8182	0.1	6570.9
23371	0.73524	4.0909	0.1	6563.3
23372	0.82714	4.	0.1	6515.2
23373	0.73524	4.2727	0.1	6482.7
23374	0.82714	4.1818	0.1	6448.
23375	0.73524	4.4545	0.1	6388.7
23376	0.82714	4.3636	0.1	6369.5
23377	0.73524	4.6364	0.1	6282.4
23378	0.82714	4.5455	0.1	6281.1
23379	0.73524	4.8182	0.1	6166.9
23380	0.82714	4.7273	0.1	6185.2
23381	0.73524	5.	0.1	6048.
23382	0.82714	4.9091	0.1	6086.2
23383	0.73524	5.1818	0.1	5935.4
23384	0.82714	5.0909	0.1	5991.3
23385	0.73524	5.3636	0.1	5842.5
23386	0.82714	5.2727	0.1	5910.3
23387	0.73524	5.5455	0.1	5783.9
23388	0.82714	5.4545	0.1	5854.4
23389	0.73524	5.7273	0.1	5785.9
23390	0.82714	5.6364	0.1	5834.
23391	0.82714	5.8182	0.1	5883.
23392	0.73524	5.9091	0.1	5721.
23393	0.91905	0.27273	0.1	5931.7
23394	1.011	0.18182	0.1	5999.2
23395	0.91905	9.0909e-002	0.1	5892.2
23396	0.91905	0.45455	0.1	5904.7
23397	1.011	0.36364	0.1	5941.6
23398	0.91905	0.63636	0.1	5921.6
23399	1.011	0.54545	0.1	5935.
23400	0.91905	0.81818	0.1	5965.2
23401	1.011	0.72727	0.1	5954.
23402	0.91905	1.	0.1	6028.6
23403	1.011	0.90909	0.1	5993.9
23404	0.91905	1.1818	0.1	6103.8
23405	1.011	1.0909	0.1	6048.9
23406	0.91905	1.3636	0.1	6183.4
23407	1.011	1.2727	0.1	6112.7
23408	0.91905	1.5455	0.1	6261.7
23409	1.011	1.4545	0.1	6179.5
23410	0.91905	1.7273	0.1	6334.6
23411	1.011	1.6364	0.1	6244.8
23412	0.91905	1.9091	0.1	6399.7
23413	1.011	1.8182	0.1	6305.4
23414	0.91905	2.0909	0.1	6455.6
23415	1.011	2.	0.1	6359.2
23416	0.91905	2.2727	0.1	6501.5
23417	1.011	2.1818	0.1	6405.
23418	0.91905	2.4545	0.1	6537.2
23419	1.011	2.3636	0.1	6442.
23420	0.91905	2.6364	0.1	6562.7
23421	1.011	2.5455	0.1	6470.
23422	0.91905	2.8182	0.1	6577.9
23423	1.011	2.7273	0.1	6488.7
23424	0.91905	3.	0.1	6583.
23425	1.011	2.9091	0.1	6498.
23426	0.91905	3.1818	0.1	6577.9
23427	1.011	3.0909	0.1	6498.
23428	0.91905	3.3636	0.1	6562.7
23429	1.011	3.2727	0.1	6488.7
23430	0.91905	3.5455	0.1	6537.2
23431	1.011	3.4545	0.1	6470.
23432	0.91905	3.7273	0.1	6501.5
23433	1.011	3.6364	0.1	6442.
23434	0.91905	3.9091	0.1	6455.6
23435	1.011	3.8182	0.1	6405.
23436	0.91905	4.0909	0.1	6399.7
23437	1.011	4.	0.1	6359.2
23438	0.91905	4.2727	0.1	6334.6
23439	1.011	4.1818	0.1	6305.4
23440	0.91905	4.4545	0.1	6261.7
23441	1.011	4.3636	0.1	6244.8
23442	0.91905	4.6364	0.1	6183.4
23443	1.011	4.5455	0.1	6179.5
23444	0.91905	4.8182	0.1	6103.8
23445	1.011	4.7273	0.1	6112.7
23446	0.91905	5.	0.1	6028.6
23447	1.011	4.9091	0.1	6048.9
23448	0.91905	5.1818	0.1	5965.2
23449	1.011	5.0909	0.1	5993.9
23450	0.91905	5.3636	0.1	5921.6
23451	1.011	5.2727	0.1	5954.
23452	0.91905	5.5455	0.1	5904.7
23453	1.011	5.4545	0.1	5935.
23454	0.91905	5.7273	0.1	5931.7
23455	1.011	5.6364	0.1	5941.6
23456	1.011	5.8182	0.1	5999.2
23457	0.91905	5.9091	0.1	5892.2
23458	1.1029	0.27273	0.1	6009.6
23459	1.1948	0.18182	0.1	6054.7
23460	1.1029	9.0909e-002	0.1	5985.6
23461	1.1029	0.45455	0.1	5972.3
23462	1.1948	0.36364	0.1	5996.2
23463	1.1029	0.63636	0.1	5967.3
23464	1.1948	0.54545	0.1	5976.1
23465	1.1029	0.81818	0.1	5982.1
23466	1.1948	0.72727	0.1	5974.3
23467	1.1029	1.	0.1	6013.5
23468	1.1948	0.90909	0.1	5988.8
23469	1.1029	1.1818	0.1	6057.1
23470	1.1948	1.0909	0.1	6016.7
23471	1.1029	1.3636	0.1	6108.2
23472	1.1948	1.2727	0.1	6054.1
23473	1.1029	1.5455	0.1	6162.1
23474	1.1948	1.4545	0.1	6097.2
23475	1.1029	1.7273	0.1	6215.1
23476	1.1948	1.6364	0.1	6142.1
23477	1.1029	1.9091	0.1	6264.5
23478	1.1948	1.8182	0.1	6186.
23479	1.1029	2.0909	0.1	6308.4
23480	1.1948	2.	0.1	6226.6
23481	1.1029	2.2727	0.1	6345.3
23482	1.1948	2.1818	0.1	6262.1
23483	1.1029	2.4545	0.1	6374.7
23484	1.1948	2.3636	0.1	6291.5
23485	1.1029	2.6364	0.1	6395.8
23486	1.1948	2.5455	0.1	6314.1
23487	1.1029	2.8182	0.1	6408.6
23488	1.1948	2.7273	0.1	6329.4
23489	1.1029	3.	0.1	6412.9
23490	1.1948	2.9091	0.1	6337.
23491	1.1029	3.1818	0.1	6408.6
23492	1.1948	3.0909	0.1	6337.
23493	1.1029	3.3636	0.1	6395.8
23494	1.1948	3.2727	0.1	6329.4
23495	1.1029	3.5455	0.1	6374.7
23496	1.1948	3.4545	0.1	6314.1
23497	1.1029	3.7273	0.1	6345.3
23498	1.1948	3.6364	0.1	6291.5
23499	1.1029	3.9091	0.1	6308.4
23500	1.1948	3.8182	0.1	6262.1
23501	1.1029	4.0909	0.1	6264.5
23502	1.1948	4.	0.1	6226.6
23503	1.1029	4.2727	0.1	6215.1
23504	1.1948	4.1818	0.1	6186.
23505	1.1029	4.4545	0.1	6162.1
23506	1.1948	4.3636	0.1	6142.1
23507	1.1029	4.6364	0.1	6108.2
23508	1.1948	4.5455	0.1	6097.2
23509	1.1029	4.8182	0.1	6057.1
23510	1.1948	4.7273	0.1	6054.1
23511	1.1029	5.	0.1	6013.5
23512	1.1948	4.9091	0.1	6016.7
23513	1.1029	5.1818	0.1	5982.1
23514	1.1948	5.0909	0.1	5988.8
23515	1.1029	5.3636	0.1	5967.3
23516	1.1948	5.2727	0.1	5974.3
23517	1.1029	5.5455	0.1	5972.3
23518	1.1948	5.4545	0.1	5976.1
23519	1.1029	5.7273	0.1	6009.6
23520	1.1948	5.6364	0.1	5996.2
23521	1.1948	5.8182	0.1	6054.7
23522	1.1029	5.9091	0.1	5985.6
23523	1.2867	0.27273	0.1	6041.7
23524	1.3786	0.18182	0.1	6070.7
23525	1.2867	9.0909e-002	0.1	6028.4
23526	1.2867	0.45455	0.1	6000.4
23527	1.3786	0.36364	0.1	6014.
23528	1.2867	0.63636	0.1	5983.3
23529	1.3786	0.54545	0.1	5987.1
23530	1.2867	0.81818	0.1	5980.9
23531	1.3786	0.72727	0.1	5973.4
23532	1.2867	1.	0.1	5991.6
23533	1.3786	0.90909	0.1	5972.
23534	1.2867	1.1818	0.1	6013.1
23535	1.3786	1.0909	0.1	5981.6
23536	1.2867	1.3636	0.1	6042.6
23537	1.3786	1.2727	0.1	6000.1
23538	1.2867	1.5455	0.1	6076.8
23539	1.3786	1.4545	0.1	6024.9
23540	1.2867	1.7273	0.1	6112.6
23541	1.3786	1.6364	0.1	6053.2
23542	1.2867	1.9091	0.1	6147.7
23543	1.3786	1.8182	0.1	6082.7
23544	1.2867	2.0909	0.1	6180.
23545	1.3786	2.	0.1	6111.1
23546	1.2867	2.2727	0.1	6208.1
23547	1.3786	2.1818	0.1	6137.
23548	1.2867	2.4545	0.1	6230.7
23549	1.3786	2.3636	0.1	6158.9
23550	1.2867	2.6364	0.1	6247.4
23551	1.3786	2.5455	0.1	6176.
23552	1.2867	2.8182	0.1	6257.5
23553	1.3786	2.7273	0.1	6187.8
23554	1.2867	3.	0.1	6261.
23555	1.3786	2.9091	0.1	6193.7
23556	1.2867	3.1818	0.1	6257.5
23557	1.3786	3.0909	0.1	6193.7
23558	1.2867	3.3636	0.1	6247.4
23559	1.3786	3.2727	0.1	6187.8
23560	1.2867	3.5455	0.1	6230.7
23561	1.3786	3.4545	0.1	6176.
23562	1.2867	3.7273	0.1	6208.1
23563	1.3786	3.6364	0.1	6158.9
23564	1.2867	3.9091	0.1	6180.
23565	1.3786	3.8182	0.1	6137.
23566	1.2867	4.0909	0.1	6147.7
23567	1.3786	4.	0.1	6111.1
23568	1.2867	4.2727	0.1	6112.6
23569	1.3786	4.1818	0.1	6082.7
23570	1.2867	4.4545	0.1	6076.8
23571	1.3786	4.3636	0.1	6053.2
23572	1.2867	4.6364	0.1	6042.6
23573	1.3786	4.5455	0.1	6024.9
23574	1.2867	4.8182	0.1	6013.1
23575	1.3786	4.7273	0.1	6000.1
23576	1.2867	5.	0.1	5991.6
23577	1.3786	4.9091	0.1	5981.6
23578	1.2867	5.1818	0.1	5980.9
23579	1.3786	5.0909	0.1	5972.
23580	1.2867	5.3636	0.1	5983.3
23581	1.3786	5.2727	0.1	5973.4
23582	1.2867	5.5455	0.1	6000.4
23583	1.3786	5.4545	0.1	5987.1
23584	1.2867	5.7273	0.1	6041.7
23585	1.3786	5.6364	0.1	6014.
23586	1.3786	5.8182	0.1	6070.7
23587	1.2867	5.9091	0.1	6028.4
23588	1.4705	0.27273	0.1	6043.4
23589	1.5624	0.18182	0.1	6060.4
23590	1.4705	9.0909e-002	0.1	6037.9
23591	1.4705	0.45455	0.1	6001.1
23592	1.5624	0.36364	0.1	6006.7
23593	1.4705	0.63636	0.1	5977.4
23594	1.5624	0.54545	0.1	5976.4
23595	1.4705	0.81818	0.1	5964.6
23596	1.5624	0.72727	0.1	5955.8
23597	1.4705	1.	0.1	5961.9
23598	1.5624	0.90909	0.1	5944.6
23599	1.4705	1.1818	0.1	5968.3
23600	1.5624	1.0909	0.1	5942.1
23601	1.4705	1.3636	0.1	5982.
23602	1.5624	1.2727	0.1	5947.2
23603	1.4705	1.5455	0.1	6000.9
23604	1.5624	1.4545	0.1	5958.3
23605	1.4705	1.7273	0.1	6022.8
23606	1.5624	1.6364	0.1	5973.6
23607	1.4705	1.9091	0.1	6045.7
23608	1.5624	1.8182	0.1	5991.2
23609	1.4705	2.0909	0.1	6067.7
23610	1.5624	2.	0.1	6009.3
23611	1.4705	2.2727	0.1	6087.5
23612	1.5624	2.1818	0.1	6026.6
23613	1.4705	2.4545	0.1	6103.9
23614	1.5624	2.3636	0.1	6041.7
23615	1.4705	2.6364	0.1	6116.2
23616	1.5624	2.5455	0.1	6053.8
23617	1.4705	2.8182	0.1	6123.7
23618	1.5624	2.7273	0.1	6062.2
23619	1.4705	3.	0.1	6126.3
23620	1.5624	2.9091	0.1	6066.5
23621	1.4705	3.1818	0.1	6123.7
23622	1.5624	3.0909	0.1	6066.5
23623	1.4705	3.3636	0.1	6116.2
23624	1.5624	3.2727	0.1	6062.2
23625	1.4705	3.5455	0.1	6103.9
23626	1.5624	3.4545	0.1	6053.8
23627	1.4705	3.7273	0.1	6087.5
23628	1.5624	3.6364	0.1	6041.7
23629	1.4705	3.9091	0.1	6067.7
23630	1.5624	3.8182	0.1	6026.6
23631	1.4705	4.0909	0.1	6045.7
23632	1.5624	4.	0.1	6009.3
23633	1.4705	4.2727	0.1	6022.8
23634	1.5624	4.1818	0.1	5991.2
23635	1.4705	4.4545	0.1	6000.9
23636	1.5624	4.3636	0.1	5973.6
23637	1.4705	4.6364	0.1	5982.
23638	1.5624	4.5455	0.1	5958.3
23639	1.4705	4.8182	0.1	5968.3
23640	1.5624	4.7273	0.1	5947.2
23641	1.4705	5.	0.1	5961.9
23642	1.5624	4.9091	0.1	5942.1
23643	1.4705	5.1818	0.1	5964.6
23644	1.5624	5.0909	0.1	5944.6
23645	1.4705	5.3636	0.1	5977.4
23646	1.5624	5.2727	0.1	5955.8
23647	1.4705	5.5455	0.1	6001.1
23648	1.5624	5.4545	0.1	5976.4
23649	1.4705	5.7273	0.1	6043.4
23650	1.5624	5.6364	0.1	6006.7
23651	1.5624	5.8182	0.1	6060.4
23652	1.4705	5.9091	0.1	6037.8
23653	1.6543	0.27273	0.1	6024.
23654	1.7462	0.18182	0.1	6031.8
23655	1.6543	9.0909e-002	0.1	6024.2
23656	1.6543	0.45455	0.1	5982.3
23657	1.7462	0.36364	0.1	5981.6
23658	1.6543	0.63636	0.1	5955.
23659	1.7462	0.54545	0.1	5949.9
23660	1.6543	0.81818	0.1	5935.9
23661	1.7462	0.72727	0.1	5925.4
23662	1.6543	1.	0.1	5924.7
23663	1.7462	0.90909	0.1	5908.
23664	1.6543	1.1818	0.1	5920.7
23665	1.7462	1.0909	0.1	5897.5
23666	1.6543	1.3636	0.1	5923.2
23667	1.7462	1.2727	0.1	5893.4
23668	1.6543	1.5455	0.1	5930.7
23669	1.7462	1.4545	0.1	5894.6
23670	1.6543	1.7273	0.1	5941.6
23671	1.7462	1.6364	0.1	5900.
23672	1.6543	1.9091	0.1	5954.5
23673	1.7462	1.8182	0.1	5908.2
23674	1.6543	2.0909	0.1	5967.8
23675	1.7462	2.	0.1	5917.9
23676	1.6543	2.2727	0.1	5980.4
23677	1.7462	2.1818	0.1	5927.9
23678	1.6543	2.4545	0.1	5991.3
23679	1.7462	2.3636	0.1	5937.2
23680	1.6543	2.6364	0.1	5999.5
23681	1.7462	2.5455	0.1	5944.9
23682	1.6543	2.8182	0.1	6004.7
23683	1.7462	2.7273	0.1	5950.3
23684	1.6543	3.	0.1	6006.5
23685	1.7462	2.9091	0.1	5953.1
23686	1.6543	3.1818	0.1	6004.7
23687	1.7462	3.0909	0.1	5953.1
23688	1.6543	3.3636	0.1	5999.5
23689	1.7462	3.2727	0.1	5950.3
23690	1.6543	3.5455	0.1	5991.3
23691	1.7462	3.4545	0.1	5944.9
23692	1.6543	3.7273	0.1	5980.4
23693	1.7462	3.6364	0.1	5937.2
23694	1.6543	3.9091	0.1	5967.8
23695	1.7462	3.8182	0.1	5927.9
23696	1.6543	4.0909	0.1	5954.5
23697	1.7462	4.	0.1	5917.9
23698	1.6543	4.2727	0.1	5941.6
23699	1.7462	4.1818	0.1	5908.2
23700	1.6543	4.4545	0.1	5930.6
23701	1.7462	4.3636	0.1	5900.
23702	1.6543	4.6364	0.1	5923.2
23703	1.7462	4.5455	0.1	5894.6
23704	1.6543	4.8182	0.1	5920.7
23705	1.7462	4.7273	0.1	5893.4
23706	1.6543	5.	0.1	5924.7
23707	1.7462	4.9091	0.1	5897.5
23708	1.6543	5.1818	0.1	5935.9
23709	1.7462	5.0909	0.1	5908.
23710	1.6543	5.3636	0.1	5955.
23711	1.7462	5.2727	0.1	5925.4
23712	1.6543	5.5455	0.1	5982.3
23713	1.7462	5.4545	0.1	5949.9
23714	1.6543	5.7273	0.1	6024.
23715	1.7462	5.6364	0.1	5981.6
23716	1.7462	5.8182	0.1	6031.8
23717	1.6543	5.9091	0.1	6024.2
23718	1.8381	0.27273	0.1	5989.7
23719	1.93	0.18182	0.1	5990.6
23720	1.8381	9.0909e-002	0.1	5994.3
23721	1.8381	0.45455	0.1	5949.5
23722	1.93	0.36364	0.1	5943.9
23723	1.8381	0.63636	0.1	5920.5
23724	1.93	0.54545	0.1	5911.9
23725	1.8381	0.81818	0.1	5897.7
23726	1.93	0.72727	0.1	5885.4
23727	1.8381	1.	0.1	5881.
23728	1.93	0.90909	0.1	5864.3
23729	1.8381	1.1818	0.1	5870.1
23730	1.93	1.0909	0.1	5848.6
23731	1.8381	1.3636	0.1	5864.6
23732	1.93	1.2727	0.1	5838.2
23733	1.8381	1.5455	0.1	5863.7
23734	1.93	1.4545	0.1	5832.3
23735	1.8381	1.7273	0.1	5866.3
23736	1.93	1.6364	0.1	5830.4
23737	1.8381	1.9091	0.1	5871.4
23738	1.93	1.8182	0.1	5831.5
23739	1.8381	2.0909	0.1	5877.7
23740	1.93	2.	0.1	5834.6
23741	1.8381	2.2727	0.1	5884.4
23742	1.93	2.1818	0.1	5838.7
23743	1.8381	2.4545	0.1	5890.5
23744	1.93	2.3636	0.1	5843.1
23745	1.8381	2.6364	0.1	5895.3
23746	1.93	2.5455	0.1	5847.1
23747	1.8381	2.8182	0.1	5898.4
23748	1.93	2.7273	0.1	5850.
23749	1.8381	3.	0.1	5899.5
23750	1.93	2.9091	0.1	5851.5
23751	1.8381	3.1818	0.1	5898.4
23752	1.93	3.0909	0.1	5851.5
23753	1.8381	3.3636	0.1	5895.3
23754	1.93	3.2727	0.1	5850.
23755	1.8381	3.5455	0.1	5890.5
23756	1.93	3.4545	0.1	5847.1
23757	1.8381	3.7273	0.1	5884.4
23758	1.93	3.6364	0.1	5843.1
23759	1.8381	3.9091	0.1	5877.7
23760	1.93	3.8182	0.1	5838.7
23761	1.8381	4.0909	0.1	5871.4
23762	1.93	4.	0.1	5834.6
23763	1.8381	4.2727	0.1	5866.3
23764	1.93	4.1818	0.1	5831.5
23765	1.8381	4.4545	0.1	5863.7
23766	1.93	4.3636	0.1	5830.4
23767	1.8381	4.6364	0.1	5864.6
23768	1.93	4.5455	0.1	5832.3
23769	1.8381	4.8182	0.1	5870.1
23770	1.93	4.7273	0.1	5838.2
23771	1.8381	5.	0.1	5881.
23772	1.93	4.9091	0.1	5848.6
23773	1.8381	5.1818	0.1	5897.7
23774	1.93	5.0909	0.1	5864.3
23775	1.8381	5.3636	0.1	5920.5
23776	1.93	5.2727	0.1	5885.4
23777	1.8381	5.5455	0.1	5949.5
23778	1.93	5.4545	0.1	5911.9
23779	1.8381	5.7273	0.1	5989.7
23780	1.93	5.6364	0.1	5943.9
23781	1.93	5.8182	0.1	5990.6
23782	1.8381	5.9091	0.1	5994.3
23783	2.0219	0.27273	0.1	5945.
23784	2.1138	0.18182	0.1	5940.5
23785	2.0219	9.0909e-002	0.1	5953.
23786	2.0219	0.45455	0.1	5906.6
23787	2.1138	0.36364	0.1	5897.1
23788	2.0219	0.63636	0.1	5877.1
23789	2.1138	0.54545	0.1	5865.7
23790	2.0219	0.81818	0.1	5852.2
23791	2.1138	0.72727	0.1	5838.3
23792	2.0219	1.	0.1	5832.1
23793	2.1138	0.90909	0.1	5815.1
23794	2.0219	1.1818	0.1	5816.7
23795	2.1138	1.0909	0.1	5796.1
23796	2.0219	1.3636	0.1	5805.8
23797	2.1138	1.2727	0.1	5781.4
23798	2.0219	1.5455	0.1	5798.9
23799	2.1138	1.4545	0.1	5770.7
23800	2.0219	1.7273	0.1	5795.3
23801	2.1138	1.6364	0.1	5763.6
23802	2.0219	1.9091	0.1	5794.4
23803	2.1138	1.8182	0.1	5759.3
23804	2.0219	2.0909	0.1	5795.3
23805	2.1138	2.	0.1	5757.3
23806	2.0219	2.2727	0.1	5797.2
23807	2.1138	2.1818	0.1	5757.
23808	2.0219	2.4545	0.1	5799.4
23809	2.1138	2.3636	0.1	5757.5
23810	2.0219	2.6364	0.1	5801.4
23811	2.1138	2.5455	0.1	5758.4
23812	2.0219	2.8182	0.1	5802.8
23813	2.1138	2.7273	0.1	5759.3
23814	2.0219	3.	0.1	5803.3
23815	2.1138	2.9091	0.1	5759.8
23816	2.0219	3.1818	0.1	5802.8
23817	2.1138	3.0909	0.1	5759.8
23818	2.0219	3.3636	0.1	5801.4
23819	2.1138	3.2727	0.1	5759.3
23820	2.0219	3.5455	0.1	5799.4
23821	2.1138	3.4545	0.1	5758.4
23822	2.0219	3.7273	0.1	5797.2
23823	2.1138	3.6364	0.1	5757.5
23824	2.0219	3.9091	0.1	5795.3
23825	2.1138	3.8182	0.1	5756.9
23826	2.0219	4.0909	0.1	5794.4
23827	2.1138	4.	0.1	5757.3
23828	2.0219	4.2727	0.1	5795.3
23829	2.1138	4.1818	0.1	5759.3
23830	2.0219	4.4545	0.1	5798.9
23831	2.1138	4.3636	0.1	5763.6
23832	2.0219	4.6364	0.1	5805.8
23833	2.1138	4.5455	0.1	5770.7
23834	2.0219	4.8182	0.1	5816.7
23835	2.1138	4.7273	0.1	5781.4
23836	2.0219	5.	0.1	5832.1
23837	2.1138	4.9091	0.1	5796.1
23838	2.0219	5.1818	0.1	5852.2
23839	2.1138	5.0909	0.1	5815.1
23840	2.0219	5.3636	0.1	5877.1
23841	2.1138	5.2727	0.1	5838.3
23842	2.0219	5.5455	0.1	5906.6
23843	2.1138	5.4545	0.1	5865.7
23844	2.0219	5.7273	0.1	5945.
23845	2.1138	5.6364	0.1	5897.1
23846	2.1138	5.8182	0.1	5940.5
23847	2.0219	5.9091	0.1	5953.
23848	2.2057	0.27273	0.1	5892.8
23849	2.2976	0.18182	0.1	5884.1
23850	2.2057	9.0909e-002	0.1	5903.4
23851	2.2057	0.45455	0.1	5856.5
23852	2.2976	0.36364	0.1	5844.
23853	2.2057	0.63636	0.1	5827.1
23854	2.2976	0.54545	0.1	5813.4
23855	2.2057	0.81818	0.1	5801.3
23856	2.2976	0.72727	0.1	5786.
23857	2.2057	1.	0.1	5779.3
23858	2.2976	0.90909	0.1	5761.7
23859	2.2057	1.1818	0.1	5761.
23860	2.2976	1.0909	0.1	5740.9
23861	2.2057	1.3636	0.1	5746.4
23862	2.2976	1.2727	0.1	5723.5
23863	2.2057	1.5455	0.1	5735.3
23864	2.2976	1.4545	0.1	5709.5
23865	2.2057	1.7273	0.1	5727.4
23866	2.2976	1.6364	0.1	5698.6
23867	2.2057	1.9091	0.1	5722.
23868	2.2976	1.8182	0.1	5690.6
23869	2.2057	2.0909	0.1	5718.8
23870	2.2976	2.	0.1	5684.9
23871	2.2057	2.2727	0.1	5717.
23872	2.2976	2.1818	0.1	5681.1
23873	2.2057	2.4545	0.1	5716.2
23874	2.2976	2.3636	0.1	5678.7
23875	2.2057	2.6364	0.1	5716.
23876	2.2976	2.5455	0.1	5677.3
23877	2.2057	2.8182	0.1	5716.
23878	2.2976	2.7273	0.1	5676.5
23879	2.2057	3.	0.1	5716.
23880	2.2976	2.9091	0.1	5676.2
23881	2.2057	3.1818	0.1	5716.
23882	2.2976	3.0909	0.1	5676.2
23883	2.2057	3.3636	0.1	5716.
23884	2.2976	3.2727	0.1	5676.5
23885	2.2057	3.5455	0.1	5716.2
23886	2.2976	3.4545	0.1	5677.3
23887	2.2057	3.7273	0.1	5717.
23888	2.2976	3.6364	0.1	5678.7
23889	2.2057	3.9091	0.1	5718.8
23890	2.2976	3.8182	0.1	5681.1
23891	2.2057	4.0909	0.1	5722.
23892	2.2976	4.	0.1	5684.9
23893	2.2057	4.2727	0.1	5727.4
23894	2.2976	4.1818	0.1	5690.6
23895	2.2057	4.4545	0.1	5735.3
23896	2.2976	4.3636	0.1	5698.6
23897	2.2057	4.6364	0.1	5746.4
23898	2.2976	4.5455	0.1	5709.5
23899	2.2057	4.8182	0.1	5761.
23900	2.2976	4.7273	0.1	5723.5
23901	2.2057	5.	0.1	5779.3
23902	2.2976	4.9091	0.1	5740.9
23903	2.2057	5.1818	0.1	5801.3
23904	2.2976	5.0909	0.1	5761.7
23905	2.2057	5.3636	0.1	5827.1
23906	2.2976	5.2727	0.1	5786.
23907	2.2057	5.5455	0.1	5856.5
23908	2.2976	5.4545	0.1	5813.4
23909	2.2057	5.7273	0.1	5892.8
23910	2.2976	5.6364	0.1	5844.
23911	2.2976	5.8182	0.1	5884.1
23912	2.2057	5.9091	0.1	5903.4
23913	2.3895	0.27273	0.1	5835.5
23914	2.4814	0.18182	0.1	5823.4
23915	2.3895	9.0909e-002	0.1	5847.9
23916	2.3895	0.45455	0.1	5801.2
23917	2.4814	0.36364	0.1	5786.3
23918	2.3895	0.63636	0.1	5772.5
23919	2.4814	0.54545	0.1	5756.9
23920	2.3895	0.81818	0.1	5746.5
23921	2.4814	0.72727	0.1	5729.9
23922	2.3895	1.	0.1	5723.4
23923	2.4814	0.90909	0.1	5705.3
23924	2.3895	1.1818	0.1	5703.4
23925	2.4814	1.0909	0.1	5683.5
23926	2.3895	1.3636	0.1	5686.6
23927	2.4814	1.2727	0.1	5664.5
23928	2.3895	1.5455	0.1	5672.7
23929	2.4814	1.4545	0.1	5648.4
23930	2.3895	1.7273	0.1	5661.7
23931	2.4814	1.6364	0.1	5635.2
23932	2.3895	1.9091	0.1	5653.3
23933	2.4814	1.8182	0.1	5624.5
23934	2.3895	2.0909	0.1	5647.
23935	2.4814	2.	0.1	5616.2
23936	2.3895	2.2727	0.1	5642.5
23937	2.4814	2.1818	0.1	5609.9
23938	2.3895	2.4545	0.1	5639.4
23939	2.4814	2.3636	0.1	5605.3
23940	2.3895	2.6364	0.1	5637.5
23941	2.4814	2.5455	0.1	5602.1
23942	2.3895	2.8182	0.1	5636.5
23943	2.4814	2.7273	0.1	5600.2
23944	2.3895	3.	0.1	5636.1
23945	2.4814	2.9091	0.1	5599.3
23946	2.3895	3.1818	0.1	5636.5
23947	2.4814	3.0909	0.1	5599.3
23948	2.3895	3.3636	0.1	5637.5
23949	2.4814	3.2727	0.1	5600.2
23950	2.3895	3.5455	0.1	5639.4
23951	2.4814	3.4545	0.1	5602.1
23952	2.3895	3.7273	0.1	5642.5
23953	2.4814	3.6364	0.1	5605.3
23954	2.3895	3.9091	0.1	5647.
23955	2.4814	3.8182	0.1	5609.9
23956	2.3895	4.0909	0.1	5653.3
23957	2.4814	4.	0.1	5616.2
23958	2.3895	4.2727	0.1	5661.7
23959	2.4814	4.1818	0.1	5624.5
23960	2.3895	4.4545	0.1	5672.7
23961	2.4814	4.3636	0.1	5635.2
23962	2.3895	4.6364	0.1	5686.6
23963	2.4814	4.5455	0.1	5648.4
23964	2.3895	4.8182	0.1	5703.4
23965	2.4814	4.7273	0.1	5664.5
23966	2.3895	5.	0.1	5723.4
23967	2.4814	4.9091	0.1	5683.5
23968	2.3895	5.1818	0.1	5746.5
23969	2.4814	5.0909	0.1	5705.3
23970	2.3895	5.3636	0.1	5772.5
23971	2.4814	5.2727	0.1	5729.9
23972	2.3895	5.5455	0.1	5801.2
23973	2.4814	5.4545	0.1	5756.9
23974	2.3895	5.7273	0.1	5835.5
23975	2.4814	5.6364	0.1	5786.3
23976	2.4814	5.8182	0.1	5823.4
23977	2.3895	5.9091	0.1	5847.9
23978	2.5733	0.27273	0.1	5774.5
23979	2.6652	0.18182	0.1	5759.8
23980	2.5733	9.0909e-002	0.1	5788.3
23981	2.5733	0.45455	0.1	5742.2
23982	2.6652	0.36364	0.1	5725.5
23983	2.5733	0.63636	0.1	5714.5
23984	2.6652	0.54545	0.1	5697.4
23985	2.5733	0.81818	0.1	5688.8
23986	2.6652	0.72727	0.1	5671.1
23987	2.5733	1.	0.1	5665.5
23988	2.6652	0.90909	0.1	5646.8
23989	2.5733	1.1818	0.1	5644.7
23990	2.6652	1.0909	0.1	5624.7
23991	2.5733	1.3636	0.1	5626.4
23992	2.6652	1.2727	0.1	5604.9
23993	2.5733	1.5455	0.1	5610.9
23994	2.6652	1.4545	0.1	5587.6
23995	2.5733	1.7273	0.1	5597.8
23996	2.6652	1.6364	0.1	5572.8
23997	2.5733	1.9091	0.1	5587.3
23998	2.6652	1.8182	0.1	5560.4
23999	2.5733	2.0909	0.1	5578.9
24000	2.6652	2.	0.1	5550.3
24001	2.5733	2.2727	0.1	5572.4
24002	2.6652	2.1818	0.1	5542.3
24003	2.5733	2.4545	0.1	5567.8
24004	2.6652	2.3636	0.1	5536.2
24005	2.5733	2.6364	0.1	5564.6
24006	2.6652	2.5455	0.1	5531.8
24007	2.5733	2.8182	0.1	5562.7
24008	2.6652	2.7273	0.1	5529.
24009	2.5733	3.	0.1	5562.1
24010	2.6652	2.9091	0.1	5527.6
24011	2.5733	3.1818	0.1	5562.7
24012	2.6652	3.0909	0.1	5527.6
24013	2.5733	3.3636	0.1	5564.6
24014	2.6652	3.2727	0.1	5529.
24015	2.5733	3.5455	0.1	5567.8
24016	2.6652	3.4545	0.1	5531.8
24017	2.5733	3.7273	0.1	5572.4
24018	2.6652	3.6364	0.1	5536.2
24019	2.5733	3.9091	0.1	5578.9
24020	2.6652	3.8182	0.1	5542.3
24021	2.5733	4.0909	0.1	5587.3
24022	2.6652	4.	0.1	5550.3
24023	2.5733	4.2727	0.1	5597.8
24024	2.6652	4.1818	0.1	5560.4
24025	2.5733	4.4545	0.1	5610.9
24026	2.6652	4.3636	0.1	5572.8
24027	2.5733	4.6364	0.1	5626.4
24028	2.6652	4.5455	0.1	5587.6
24029	2.5733	4.8182	0.1	5644.7
24030	2.6652	4.7273	0.1	5604.9
24031	2.5733	5.	0.1	5665.5
24032	2.6652	4.9091	0.1	5624.7
24033	2.5733	5.1818	0.1	5688.8
24034	2.6652	5.0909	0.1	5646.8
24035	2.5733	5.3636	0.1	5714.5
24036	2.6652	5.2727	0.1	5671.1
24037	2.5733	5.5455	0.1	5742.2
24038	2.6652	5.4545	0.1	5697.4
24039	2.5733	5.7273	0.1	5774.5
24040	2.6652	5.6364	0.1	5725.5
24041	2.6652	5.8182	0.1	5759.8
24042	2.5733	5.9091	0.1	5788.3
24043	2.7571	0.27273	0.1	5711.
24044	2.849	0.18182	0.1	5694.2
24045	2.7571	9.0909e-002	0.1	5725.8
24046	2.7571	0.45455	0.1	5680.8
24047	2.849	0.36364	0.1	5662.6
24048	2.7571	0.63636	0.1	5654.2
24049	2.849	0.54545	0.1	5635.9
24050	2.7571	0.81818	0.1	5629.2
24051	2.849	0.72727	0.1	5610.5
24052	2.7571	1.	0.1	5606.1
24053	2.849	0.90909	0.1	5586.8
24054	2.7571	1.1818	0.1	5585.
24055	2.849	1.0909	0.1	5564.8
24056	2.7571	1.3636	0.1	5566.1
24057	2.849	1.2727	0.1	5544.9
24058	2.7571	1.5455	0.1	5549.6
24059	2.849	1.4545	0.1	5527.
24060	2.7571	1.7273	0.1	5535.4
24061	2.849	1.6364	0.1	5511.4
24062	2.7571	1.9091	0.1	5523.4
24063	2.849	1.8182	0.1	5498.
24064	2.7571	2.0909	0.1	5513.7
24065	2.849	2.	0.1	5486.8
24066	2.7571	2.2727	0.1	5505.9
24067	2.849	2.1818	0.1	5477.7
24068	2.7571	2.4545	0.1	5500.1
24069	2.849	2.3636	0.1	5470.6
24070	2.7571	2.6364	0.1	5496.1
24071	2.849	2.5455	0.1	5465.4
24072	2.7571	2.8182	0.1	5493.7
24073	2.849	2.7273	0.1	5462.
24074	2.7571	3.	0.1	5492.9
24075	2.849	2.9091	0.1	5460.3
24076	2.7571	3.1818	0.1	5493.7
24077	2.849	3.0909	0.1	5460.3
24078	2.7571	3.3636	0.1	5496.1
24079	2.849	3.2727	0.1	5462.
24080	2.7571	3.5455	0.1	5500.1
24081	2.849	3.4545	0.1	5465.4
24082	2.7571	3.7273	0.1	5505.9
24083	2.849	3.6364	0.1	5470.6
24084	2.7571	3.9091	0.1	5513.7
24085	2.849	3.8182	0.1	5477.7
24086	2.7571	4.0909	0.1	5523.4
24087	2.849	4.	0.1	5486.8
24088	2.7571	4.2727	0.1	5535.4
24089	2.849	4.1818	0.1	5498.
24090	2.7571	4.4545	0.1	5549.6
24091	2.849	4.3636	0.1	5511.4
24092	2.7571	4.6364	0.1	5566.1
24093	2.849	4.5455	0.1	5527.
24094	2.7571	4.8182	0.1	5585.
24095	2.849	4.7273	0.1	5544.9
24096	2.7571	5.	0.1	5606.1
24097	2.849	4.9091	0.1	5564.8
24098	2.7571	5.1818	0.1	5629.2
24099	2.849	5.0909	0.1	5586.8
24100	2.7571	5.3636	0.1	5654.2
24101	2.849	5.2727	0.1	5610.5
24102	2.7571	5.5455	0.1	5680.8
24103	2.849	5.4545	0.1	5635.9
24104	2.7571	5.7273	0.1	5711.
24105	2.849	5.6364	0.1	5662.6
24106	2.849	5.8182	0.1	5694.2
24107	2.7571	5.9091	0.1	5725.8
24108	2.941	0.27273	0.1	5646.
24109	3.0329	0.18182	0.1	5627.5
24110	2.941	9.0909e-002	0.1	5661.3
24111	2.941	0.45455	0.1	5617.7
24112	3.0329	0.36364	0.1	5598.3
24113	2.941	0.63636	0.1	5592.3
24114	3.0329	0.54545	0.1	5573.
24115	2.941	0.81818	0.1	5568.2
24116	3.0329	0.72727	0.1	5548.8
24117	2.941	1.	0.1	5545.7
24118	3.0329	0.90909	0.1	5525.8
24119	2.941	1.1818	0.1	5524.8
24120	3.0329	1.0909	0.1	5504.4
24121	2.941	1.3636	0.1	5505.8
24122	3.0329	1.2727	0.1	5484.6
24123	2.941	1.5455	0.1	5488.9
24124	3.0329	1.4545	0.1	5466.7
24125	2.941	1.7273	0.1	5474.
24126	3.0329	1.6364	0.1	5450.8
24127	2.941	1.9091	0.1	5461.3
24128	3.0329	1.8182	0.1	5436.9
24129	2.941	2.0909	0.1	5450.7
24130	3.0329	2.	0.1	5425.1
24131	2.941	2.2727	0.1	5442.2
24132	3.0329	2.1818	0.1	5415.4
24133	2.941	2.4545	0.1	5435.7
24134	3.0329	2.3636	0.1	5407.7
24135	2.941	2.6364	0.1	5431.1
24136	3.0329	2.5455	0.1	5401.9
24137	2.941	2.8182	0.1	5428.3
24138	3.0329	2.7273	0.1	5398.1
24139	2.941	3.	0.1	5427.4
24140	3.0329	2.9091	0.1	5396.3
24141	2.941	3.1818	0.1	5428.3
24142	3.0329	3.0909	0.1	5396.3
24143	2.941	3.3636	0.1	5431.1
24144	3.0329	3.2727	0.1	5398.1
24145	2.941	3.5455	0.1	5435.7
24146	3.0329	3.4545	0.1	5401.9
24147	2.941	3.7273	0.1	5442.2
24148	3.0329	3.6364	0.1	5407.7
24149	2.941	3.9091	0.1	5450.7
24150	3.0329	3.8182	0.1	5415.4
24151	2.941	4.0909	0.1	5461.3
24152	3.0329	4.	0.1	5425.1
24153	2.941	4.2727	0.1	5474.
24154	3.0329	4.1818	0.1	5436.9
24155	2.941	4.4545	0.1	5488.9
24156	3.0329	4.3636	0.1	5450.8
24157	2.941	4.6364	0.1	5505.8
24158	3.0329	4.5455	0.1	5466.7
24159	2.941	4.8182	0.1	5524.8
24160	3.0329	4.7273	0.1	5484.6
24161	2.941	5.	0.1	5545.7
24162	3.0329	4.9091	0.1	5504.4
24163	2.941	5.1818	0.1	5568.2
24164	3.0329	5.0909	0.1	5525.8
24165	2.941	5.3636	0.1	5592.3
24166	3.0329	5.2727	0.1	5548.8
24167	2.941	5.5455	0.1	5617.7
24168	3.0329	5.4545	0.1	5573.
24169	2.941	5.7273	0.1	5646.
24170	3.0329	5.6364	0.1	5598.3
24171	3.0329	5.8182	0.1	5627.5
24172	2.941	5.9091	0.1	5661.3
24173	3.1248	0.27273	0.1	5580.
24174	3.2167	0.18182	0.1	5560.2
24175	3.1248	9.0909e-002	0.1	5595.7
24176	3.1248	0.45455	0.1	5553.6
24177	3.2167	0.36364	0.1	5533.2
24178	3.1248	0.63636	0.1	5529.5
24179	3.2167	0.54545	0.1	5509.3
24180	3.1248	0.81818	0.1	5506.5
24181	3.2167	0.72727	0.1	5486.3
24182	3.1248	1.	0.1	5484.6
24183	3.2167	0.90909	0.1	5464.3
24184	3.1248	1.1818	0.1	5464.3
24185	3.2167	1.0909	0.1	5443.6
24186	3.1248	1.3636	0.1	5445.6
24187	3.2167	1.2727	0.1	5424.3
24188	3.1248	1.5455	0.1	5428.6
24189	3.2167	1.4545	0.1	5406.7
24190	3.1248	1.7273	0.1	5413.6
24191	3.2167	1.6364	0.1	5390.8
24192	3.1248	1.9091	0.1	5400.6
24193	3.2167	1.8182	0.1	5376.9
24194	3.1248	2.0909	0.1	5389.6
24195	3.2167	2.	0.1	5364.9
24196	3.1248	2.2727	0.1	5380.7
24197	3.2167	2.1818	0.1	5354.8
24198	3.1248	2.4545	0.1	5373.8
24199	3.2167	2.3636	0.1	5346.8
24200	3.1248	2.6364	0.1	5368.8
24201	3.2167	2.5455	0.1	5340.8
24202	3.1248	2.8182	0.1	5365.9
24203	3.2167	2.7273	0.1	5336.9
24204	3.1248	3.	0.1	5364.9
24205	3.2167	2.9091	0.1	5334.9
24206	3.1248	3.1818	0.1	5365.9
24207	3.2167	3.0909	0.1	5334.9
24208	3.1248	3.3636	0.1	5368.8
24209	3.2167	3.2727	0.1	5336.9
24210	3.1248	3.5455	0.1	5373.8
24211	3.2167	3.4545	0.1	5340.8
24212	3.1248	3.7273	0.1	5380.7
24213	3.2167	3.6364	0.1	5346.8
24214	3.1248	3.9091	0.1	5389.6
24215	3.2167	3.8182	0.1	5354.8
24216	3.1248	4.0909	0.1	5400.6
24217	3.2167	4.	0.1	5364.9
24218	3.1248	4.2727	0.1	5413.6
24219	3.2167	4.1818	0.1	5376.9
24220	3.1248	4.4545	0.1	5428.6
24221	3.2167	4.3636	0.1	5390.8
24222	3.1248	4.6364	0.1	5445.6
24223	3.2167	4.5455	0.1	5406.7
24224	3.1248	4.8182	0.1	5464.3
24225	3.2167	4.7273	0.1	5424.3
24226	3.1248	5.	0.1	5484.6
24227	3.2167	4.9091	0.1	5443.6
24228	3.1248	5.1818	0.1	5506.5
24229	3.2167	5.0909	0.1	5464.3
24230	3.1248	5.3636	0.1	5529.5
24231	3.2167	5.2727	0.1	5486.3
24232	3.1248	5.5455	0.1	5553.6
24233	3.2167	5.4545	0.1	5509.3
24234	3.1248	5.7273	0.1	5580.
24235	3.2167	5.6364	0.1	5533.2
24236	3.2167	5.8182	0.1	5560.2
24237	3.1248	5.9091	0.1	5595.7
24238	3.3086	0.27273	0.1	5513.5
24239	3.4005	0.18182	0.1	5492.7
24240	3.3086	9.0909e-002	0.1	5529.3
24241	3.3086	0.45455	0.1	5489.
24242	3.4005	0.36364	0.1	5467.7
24243	3.3086	0.63636	0.1	5466.2
24244	3.4005	0.54545	0.1	5445.3
24245	3.3086	0.81818	0.1	5444.2
24246	3.4005	0.72727	0.1	5423.5
24247	3.3086	1.	0.1	5423.3
24248	3.4005	0.90909	0.1	5402.5
24249	3.3086	1.1818	0.1	5403.7
24250	3.4005	1.0909	0.1	5382.7
24251	3.3086	1.3636	0.1	5385.5
24252	3.4005	1.2727	0.1	5364.1
24253	3.3086	1.5455	0.1	5368.9
24254	3.4005	1.4545	0.1	5347.
24255	3.3086	1.7273	0.1	5354.
24256	3.4005	1.6364	0.1	5331.5
24257	3.3086	1.9091	0.1	5341.
24258	3.4005	1.8182	0.1	5317.7
24259	3.3086	2.0909	0.1	5330.
24260	3.4005	2.	0.1	5305.7
24261	3.3086	2.2727	0.1	5320.9
24262	3.4005	2.1818	0.1	5295.7
24263	3.3086	2.4545	0.1	5313.8
24264	3.4005	2.3636	0.1	5287.7
24265	3.3086	2.6364	0.1	5308.7
24266	3.4005	2.5455	0.1	5281.6
24267	3.3086	2.8182	0.1	5305.7
24268	3.4005	2.7273	0.1	5277.5
24269	3.3086	3.	0.1	5304.7
24270	3.4005	2.9091	0.1	5275.5
24271	3.3086	3.1818	0.1	5305.7
24272	3.4005	3.0909	0.1	5275.5
24273	3.3086	3.3636	0.1	5308.7
24274	3.4005	3.2727	0.1	5277.5
24275	3.3086	3.5455	0.1	5313.8
24276	3.4005	3.4545	0.1	5281.6
24277	3.3086	3.7273	0.1	5320.9
24278	3.4005	3.6364	0.1	5287.7
24279	3.3086	3.9091	0.1	5330.
24280	3.4005	3.8182	0.1	5295.7
24281	3.3086	4.0909	0.1	5341.
24282	3.4005	4.	0.1	5305.7
24283	3.3086	4.2727	0.1	5354.
24284	3.4005	4.1818	0.1	5317.7
24285	3.3086	4.4545	0.1	5368.9
24286	3.4005	4.3636	0.1	5331.5
24287	3.3086	4.6364	0.1	5385.5
24288	3.4005	4.5455	0.1	5347.
24289	3.3086	4.8182	0.1	5403.7
24290	3.4005	4.7273	0.1	5364.1
24291	3.3086	5.	0.1	5423.3
24292	3.4005	4.9091	0.1	5382.7
24293	3.3086	5.1818	0.1	5444.2
24294	3.4005	5.0909	0.1	5402.5
24295	3.3086	5.3636	0.1	5466.2
24296	3.4005	5.2727	0.1	5423.5
24297	3.3086	5.5455	0.1	5489.
24298	3.4005	5.4545	0.1	5445.3
24299	3.3086	5.7273	0.1	5513.5
24300	3.4005	5.6364	0.1	5467.7
24301	3.4005	5.8182	0.1	5492.7
24302	3.3086	5.9091	0.1	5529.3
24303	3.4924	0.27273	0.1	5446.9
24304	3.5843	0.18182	0.1	5425.2
24305	3.4924	9.0909e-002	0.1	5462.6
24306	3.4924	0.45455	0.1	5424.1
24307	3.5843	0.36364	0.1	5402.1
24308	3.4924	0.63636	0.1	5402.6
24309	3.5843	0.54545	0.1	5381.1
24310	3.4924	0.81818	0.1	5381.8
24311	3.5843	0.72727	0.1	5360.5
24312	3.4924	1.	0.1	5362.
24313	3.5843	0.90909	0.1	5340.7
24314	3.4924	1.1818	0.1	5343.2
24315	3.5843	1.0909	0.1	5321.8
24316	3.4924	1.3636	0.1	5325.6
24317	3.5843	1.2727	0.1	5304.1
24318	3.4924	1.5455	0.1	5309.6
24319	3.5843	1.4545	0.1	5287.6
24320	3.4924	1.7273	0.1	5295.1
24321	3.5843	1.6364	0.1	5272.6
24322	3.4924	1.9091	0.1	5282.4
24323	3.5843	1.8182	0.1	5259.2
24324	3.4924	2.0909	0.1	5271.4
24325	3.5843	2.	0.1	5247.6
24326	3.4924	2.2727	0.1	5262.4
24327	3.5843	2.1818	0.1	5237.7
24328	3.4924	2.4545	0.1	5255.4
24329	3.5843	2.3636	0.1	5229.8
24330	3.4924	2.6364	0.1	5250.3
24331	3.5843	2.5455	0.1	5223.8
24332	3.4924	2.8182	0.1	5247.3
24333	3.5843	2.7273	0.1	5219.7
24334	3.4924	3.	0.1	5246.2
24335	3.5843	2.9091	0.1	5217.7
24336	3.4924	3.1818	0.1	5247.3
24337	3.5843	3.0909	0.1	5217.7
24338	3.4924	3.3636	0.1	5250.3
24339	3.5843	3.2727	0.1	5219.7
24340	3.4924	3.5455	0.1	5255.4
24341	3.5843	3.4545	0.1	5223.8
24342	3.4924	3.7273	0.1	5262.4
24343	3.5843	3.6364	0.1	5229.8
24344	3.4924	3.9091	0.1	5271.4
24345	3.5843	3.8182	0.1	5237.7
24346	3.4924	4.0909	0.1	5282.4
24347	3.5843	4.	0.1	5247.6
24348	3.4924	4.2727	0.1	5295.1
24349	3.5843	4.1818	0.1	5259.2
24350	3.4924	4.4545	0.1	5309.6
24351	3.5843	4.3636	0.1	5272.6
24352	3.4924	4.6364	0.1	5325.6
24353	3.5843	4.5455	0.1	5287.6
24354	3.4924	4.8182	0.1	5343.2
24355	3.5843	4.7273	0.1	5304.1
24356	3.4924	5.	0.1	5362.
24357	3.5843	4.9091	0.1	5321.8
24358	3.4924	5.1818	0.1	5381.8
24359	3.5843	5.0909	0.1	5340.7
24360	3.4924	5.3636	0.1	5402.6
24361	3.5843	5.2727	0.1	5360.5
24362	3.4924	5.5455	0.1	5424.1
24363	3.5843	5.4545	0.1	5381.1
24364	3.4924	5.7273	0.1	5446.9
24365	3.5843	5.6364	0.1	5402.1
24366	3.5843	5.8182	0.1	5425.2
24367	3.4924	5.9091	0.1	5462.6
24368	3.6762	0.27273	0.1	5380.5
24369	3.7681	0.18182	0.1	5358.
24370	3.6762	9.0909e-002	0.1	5395.8
24371	3.6762	0.45455	0.1	5359.2
24372	3.7681	0.36364	0.1	5336.7
24373	3.6762	0.63636	0.1	5339.1
24374	3.7681	0.54545	0.1	5317.
24375	3.6762	0.81818	0.1	5319.5
24376	3.7681	0.72727	0.1	5297.7
24377	3.6762	1.	0.1	5300.7
24378	3.7681	0.90909	0.1	5279.
24379	3.6762	1.1818	0.1	5282.8
24380	3.7681	1.0909	0.1	5261.1
24381	3.6762	1.3636	0.1	5266.1
24382	3.7681	1.2727	0.1	5244.3
24383	3.6762	1.5455	0.1	5250.7
24384	3.7681	1.4545	0.1	5228.6
24385	3.6762	1.7273	0.1	5236.7
24386	3.7681	1.6364	0.1	5214.2
24387	3.6762	1.9091	0.1	5224.4
24388	3.7681	1.8182	0.1	5201.4
24389	3.6762	2.0909	0.1	5213.8
24390	3.7681	2.	0.1	5190.1
24391	3.6762	2.2727	0.1	5205.
24392	3.7681	2.1818	0.1	5180.6
24393	3.6762	2.4545	0.1	5198.1
24394	3.7681	2.3636	0.1	5172.9
24395	3.6762	2.6364	0.1	5193.1
24396	3.7681	2.5455	0.1	5167.
24397	3.6762	2.8182	0.1	5190.1
24398	3.7681	2.7273	0.1	5163.1
24399	3.6762	3.	0.1	5189.1
24400	3.7681	2.9091	0.1	5161.1
24401	3.6762	3.1818	0.1	5190.1
24402	3.7681	3.0909	0.1	5161.1
24403	3.6762	3.3636	0.1	5193.1
24404	3.7681	3.2727	0.1	5163.1
24405	3.6762	3.5455	0.1	5198.1
24406	3.7681	3.4545	0.1	5167.
24407	3.6762	3.7273	0.1	5205.
24408	3.7681	3.6364	0.1	5172.9
24409	3.6762	3.9091	0.1	5213.8
24410	3.7681	3.8182	0.1	5180.6
24411	3.6762	4.0909	0.1	5224.4
24412	3.7681	4.	0.1	5190.1
24413	3.6762	4.2727	0.1	5236.7
24414	3.7681	4.1818	0.1	5201.4
24415	3.6762	4.4545	0.1	5250.7
24416	3.7681	4.3636	0.1	5214.2
24417	3.6762	4.6364	0.1	5266.1
24418	3.7681	4.5455	0.1	5228.6
24419	3.6762	4.8182	0.1	5282.8
24420	3.7681	4.7273	0.1	5244.3
24421	3.6762	5.	0.1	5300.7
24422	3.7681	4.9091	0.1	5261.1
24423	3.6762	5.1818	0.1	5319.5
24424	3.7681	5.0909	0.1	5279.
24425	3.6762	5.3636	0.1	5339.1
24426	3.7681	5.2727	0.1	5297.7
24427	3.6762	5.5455	0.1	5359.2
24428	3.7681	5.4545	0.1	5317.
24429	3.6762	5.7273	0.1	5380.5
24430	3.7681	5.6364	0.1	5336.7
24431	3.7681	5.8182	0.1	5358.
24432	3.6762	5.9091	0.1	5395.8
24433	3.86	0.27273	0.1	5314.4
24434	3.9519	0.18182	0.1	5291.3
24435	3.86	9.0909e-002	0.1	5329.3
24436	3.86	0.45455	0.1	5294.6
24437	3.9519	0.36364	0.1	5271.6
24438	3.86	0.63636	0.1	5275.7
24439	3.9519	0.54545	0.1	5253.2
24440	3.86	0.81818	0.1	5257.3
24441	3.9519	0.72727	0.1	5235.
24442	3.86	1.	0.1	5239.5
24443	3.9519	0.90909	0.1	5217.5
24444	3.86	1.1818	0.1	5222.6
24445	3.9519	1.0909	0.1	5200.7
24446	3.86	1.3636	0.1	5206.8
24447	3.9519	1.2727	0.1	5184.7
24448	3.86	1.5455	0.1	5192.1
24449	3.9519	1.4545	0.1	5169.9
24450	3.86	1.7273	0.1	5178.8
24451	3.9519	1.6364	0.1	5156.2
24452	3.86	1.9091	0.1	5167.
24453	3.9519	1.8182	0.1	5144.
24454	3.86	2.0909	0.1	5156.9
24455	3.9519	2.	0.1	5133.2
24456	3.86	2.2727	0.1	5148.4
24457	3.9519	2.1818	0.1	5124.1
24458	3.86	2.4545	0.1	5141.7
24459	3.9519	2.3636	0.1	5116.7
24460	3.86	2.6364	0.1	5136.9
24461	3.9519	2.5455	0.1	5111.1
24462	3.86	2.8182	0.1	5134.
24463	3.9519	2.7273	0.1	5107.3
24464	3.86	3.	0.1	5133.1
24465	3.9519	2.9091	0.1	5105.4
24466	3.86	3.1818	0.1	5134.
24467	3.9519	3.0909	0.1	5105.4
24468	3.86	3.3636	0.1	5136.9
24469	3.9519	3.2727	0.1	5107.3
24470	3.86	3.5455	0.1	5141.7
24471	3.9519	3.4545	0.1	5111.1
24472	3.86	3.7273	0.1	5148.4
24473	3.9519	3.6364	0.1	5116.7
24474	3.86	3.9091	0.1	5156.9
24475	3.9519	3.8182	0.1	5124.1
24476	3.86	4.0909	0.1	5167.
24477	3.9519	4.	0.1	5133.2
24478	3.86	4.2727	0.1	5178.8
24479	3.9519	4.1818	0.1	5144.
24480	3.86	4.4545	0.1	5192.1
24481	3.9519	4.3636	0.1	5156.2
24482	3.86	4.6364	0.1	5206.8
24483	3.9519	4.5455	0.1	5169.9
24484	3.86	4.8182	0.1	5222.6
24485	3.9519	4.7273	0.1	5184.7
24486	3.86	5.	0.1	5239.5
24487	3.9519	4.9091	0.1	5200.7
24488	3.86	5.1818	0.1	5257.3
24489	3.9519	5.0909	0.1	5217.5
24490	3.86	5.3636	0.1	5275.7
24491	3.9519	5.2727	0.1	5235.
24492	3.86	5.5455	0.1	5294.6
24493	3.9519	5.4545	0.1	5253.2
24494	3.86	5.7273	0.1	5314.4
24495	3.9519	5.6364	0.1	5271.6
24496	3.9519	5.8182	0.1	5291.3
24497	3.86	5.9091	0.1	5329.3
24498	4.0438	0.27273	0.1	5248.6
24499	4.1357	0.18182	0.1	5225.1
24500	4.0438	9.0909e-002	0.1	5263.1
24501	4.0438	0.45455	0.1	5230.3
24502	4.1357	0.36364	0.1	5206.9
24503	4.0438	0.63636	0.1	5212.6
24504	4.1357	0.54545	0.1	5189.7
24505	4.0438	0.81818	0.1	5195.3
24506	4.1357	0.72727	0.1	5172.7
24507	4.0438	1.	0.1	5178.7
24508	4.1357	0.90909	0.1	5156.3
24509	4.0438	1.1818	0.1	5162.8
24510	4.1357	1.0909	0.1	5140.5
24511	4.0438	1.3636	0.1	5147.8
24512	4.1357	1.2727	0.1	5125.5
24513	4.0438	1.5455	0.1	5134.
24514	4.1357	1.4545	0.1	5111.5
24515	4.0438	1.7273	0.1	5121.4
24516	4.1357	1.6364	0.1	5098.6
24517	4.0438	1.9091	0.1	5110.2
24518	4.1357	1.8182	0.1	5087.
24519	4.0438	2.0909	0.1	5100.5
24520	4.1357	2.	0.1	5076.8
24521	4.0438	2.2727	0.1	5092.4
24522	4.1357	2.1818	0.1	5068.2
24523	4.0438	2.4545	0.1	5086.
24524	4.1357	2.3636	0.1	5061.1
24525	4.0438	2.6364	0.1	5081.4
24526	4.1357	2.5455	0.1	5055.8
24527	4.0438	2.8182	0.1	5078.7
24528	4.1357	2.7273	0.1	5052.2
24529	4.0438	3.	0.1	5077.7
24530	4.1357	2.9091	0.1	5050.4
24531	4.0438	3.1818	0.1	5078.7
24532	4.1357	3.0909	0.1	5050.4
24533	4.0438	3.3636	0.1	5081.4
24534	4.1357	3.2727	0.1	5052.2
24535	4.0438	3.5455	0.1	5086.
24536	4.1357	3.4545	0.1	5055.8
24537	4.0438	3.7273	0.1	5092.4
24538	4.1357	3.6364	0.1	5061.1
24539	4.0438	3.9091	0.1	5100.5
24540	4.1357	3.8182	0.1	5068.2
24541	4.0438	4.0909	0.1	5110.2
24542	4.1357	4.	0.1	5076.8
24543	4.0438	4.2727	0.1	5121.4
24544	4.1357	4.1818	0.1	5087.
24545	4.0438	4.4545	0.1	5134.
24546	4.1357	4.3636	0.1	5098.6
24547	4.0438	4.6364	0.1	5147.8
24548	4.1357	4.5455	0.1	5111.5
24549	4.0438	4.8182	0.1	5162.8
24550	4.1357	4.7273	0.1	5125.5
24551	4.0438	5.	0.1	5178.7
24552	4.1357	4.9091	0.1	5140.5
24553	4.0438	5.1818	0.1	5195.3
24554	4.1357	5.0909	0.1	5156.3
24555	4.0438	5.3636	0.1	5212.6
24556	4.1357	5.2727	0.1	5172.7
24557	4.0438	5.5455	0.1	5230.3
24558	4.1357	5.4545	0.1	5189.7
24559	4.0438	5.7273	0.1	5248.6
24560	4.1357	5.6364	0.1	5206.9
24561	4.1357	5.8182	0.1	5225.1
24562	4.0438	5.9091	0.1	5263.1
24563	4.2276	0.27273	0.1	5183.5
24564	4.3195	0.18182	0.1	5159.6
24565	4.2276	9.0909e-002	0.1	5197.3
24566	4.2276	0.45455	0.1	5166.4
24567	4.3195	0.36364	0.1	5142.7
24568	4.2276	0.63636	0.1	5149.9
24569	4.3195	0.54545	0.1	5126.6
24570	4.2276	0.81818	0.1	5133.7
24571	4.3195	0.72727	0.1	5110.8
24572	4.2276	1.	0.1	5118.1
24573	4.3195	0.90909	0.1	5095.4
24574	4.2276	1.1818	0.1	5103.2
24575	4.3195	1.0909	0.1	5080.6
24576	4.2276	1.3636	0.1	5089.2
24577	4.3195	1.2727	0.1	5066.6
24578	4.2276	1.5455	0.1	5076.1
24579	4.3195	1.4545	0.1	5053.4
24580	4.2276	1.7273	0.1	5064.3
24581	4.3195	1.6364	0.1	5041.3
24582	4.2276	1.9091	0.1	5053.7
24583	4.3195	1.8182	0.1	5030.4
24584	4.2276	2.0909	0.1	5044.5
24585	4.3195	2.	0.1	5020.8
24586	4.2276	2.2727	0.1	5036.9
24587	4.3195	2.1818	0.1	5012.7
24588	4.2276	2.4545	0.1	5030.9
24589	4.3195	2.3636	0.1	5006.
24590	4.2276	2.6364	0.1	5026.5
24591	4.3195	2.5455	0.1	5001.
24592	4.2276	2.8182	0.1	5023.9
24593	4.3195	2.7273	0.1	4997.5
24594	4.2276	3.	0.1	5023.
24595	4.3195	2.9091	0.1	4995.8
24596	4.2276	3.1818	0.1	5023.9
24597	4.3195	3.0909	0.1	4995.8
24598	4.2276	3.3636	0.1	5026.5
24599	4.3195	3.2727	0.1	4997.5
24600	4.2276	3.5455	0.1	5030.9
24601	4.3195	3.4545	0.1	5001.
24602	4.2276	3.7273	0.1	5036.9
24603	4.3195	3.6364	0.1	5006.
24604	4.2276	3.9091	0.1	5044.5
24605	4.3195	3.8182	0.1	5012.7
24606	4.2276	4.0909	0.1	5053.7
24607	4.3195	4.	0.1	5020.8
24608	4.2276	4.2727	0.1	5064.3
24609	4.3195	4.1818	0.1	5030.4
24610	4.2276	4.4545	0.1	5076.1
24611	4.3195	4.3636	0.1	5041.3
24612	4.2276	4.6364	0.1	5089.2
24613	4.3195	4.5455	0.1	5053.4
24614	4.2276	4.8182	0.1	5103.2
24615	4.3195	4.7273	0.1	5066.6
24616	4.2276	5.	0.1	5118.1
24617	4.3195	4.9091	0.1	5080.6
24618	4.2276	5.1818	0.1	5133.7
24619	4.3195	5.0909	0.1	5095.4
24620	4.2276	5.3636	0.1	5149.9
24621	4.3195	5.2727	0.1	5110.8
24622	4.2276	5.5455	0.1	5166.4
24623	4.3195	5.4545	0.1	5126.6
24624	4.2276	5.7273	0.1	5183.5
24625	4.3195	5.6364	0.1	5142.7
24626	4.3195	5.8182	0.1	5159.6
24627	4.2276	5.9091	0.1	5197.3
24628	4.4114	0.27273	0.1	5118.8
24629	4.5033	0.18182	0.1	5094.6
24630	4.4114	9.0909e-002	0.1	5132.1
24631	4.4114	0.45455	0.1	5103.
24632	4.5033	0.36364	0.1	5079.
24633	4.4114	0.63636	0.1	5087.6
24634	4.5033	0.54545	0.1	5064.
24635	4.4114	0.81818	0.1	5072.5
24636	4.5033	0.72727	0.1	5049.3
24637	4.4114	1.	0.1	5057.9
24638	4.5033	0.90909	0.1	5034.9
24639	4.4114	1.1818	0.1	5044.
24640	4.5033	1.0909	0.1	5021.1
24641	4.4114	1.3636	0.1	5030.8
24642	4.5033	1.2727	0.1	5007.9
24643	4.4114	1.5455	0.1	5018.6
24644	4.5033	1.4545	0.1	4995.7
24645	4.4114	1.7273	0.1	5007.5
24646	4.5033	1.6364	0.1	4984.3
24647	4.4114	1.9091	0.1	4997.6
24648	4.5033	1.8182	0.1	4974.1
24649	4.4114	2.0909	0.1	4988.9
24650	4.5033	2.	0.1	4965.1
24651	4.4114	2.2727	0.1	4981.8
24652	4.5033	2.1818	0.1	4957.5
24653	4.4114	2.4545	0.1	4976.1
24654	4.5033	2.3636	0.1	4951.2
24655	4.4114	2.6364	0.1	4972.
24656	4.5033	2.5455	0.1	4946.5
24657	4.4114	2.8182	0.1	4969.5
24658	4.5033	2.7273	0.1	4943.3
24659	4.4114	3.	0.1	4968.6
24660	4.5033	2.9091	0.1	4941.6
24661	4.4114	3.1818	0.1	4969.5
24662	4.5033	3.0909	0.1	4941.6
24663	4.4114	3.3636	0.1	4972.
24664	4.5033	3.2727	0.1	4943.3
24665	4.4114	3.5455	0.1	4976.1
24666	4.5033	3.4545	0.1	4946.5
24667	4.4114	3.7273	0.1	4981.8
24668	4.5033	3.6364	0.1	4951.2
24669	4.4114	3.9091	0.1	4988.9
24670	4.5033	3.8182	0.1	4957.5
24671	4.4114	4.0909	0.1	4997.6
24672	4.5033	4.	0.1	4965.1
24673	4.4114	4.2727	0.1	5007.5
24674	4.5033	4.1818	0.1	4974.1
24675	4.4114	4.4545	0.1	5018.6
24676	4.5033	4.3636	0.1	4984.3
24677	4.4114	4.6364	0.1	5030.8
24678	4.5033	4.5455	0.1	4995.7
24679	4.4114	4.8182	0.1	5044.
24680	4.5033	4.7273	0.1	5007.9
24681	4.4114	5.	0.1	5057.9
24682	4.5033	4.9091	0.1	5021.1
24683	4.4114	5.1818	0.1	5072.5
24684	4.5033	5.0909	0.1	5034.9
24685	4.4114	5.3636	0.1	5087.6
24686	4.5033	5.2727	0.1	5049.3
24687	4.4114	5.5455	0.1	5103.
24688	4.5033	5.4545	0.1	5064.
24689	4.4114	5.7273	0.1	5118.8
24690	4.5033	5.6364	0.1	5079.
24691	4.5033	5.8182	0.1	5094.6
24692	4.4114	5.9091	0.1	5132.1
24693	4.5952	0.27273	0.1	5054.8
24694	4.6871	0.18182	0.1	5030.3
24695	4.5952	9.0909e-002	0.1	5067.4
24696	4.5952	0.45455	0.1	5040.1
24697	4.6871	0.36364	0.1	5015.8
24698	4.5952	0.63636	0.1	5025.7
24699	4.6871	0.54545	0.1	5001.9
24700	4.5952	0.81818	0.1	5011.7
24701	4.6871	0.72727	0.1	4988.2
24702	4.5952	1.	0.1	4998.1
24703	4.6871	0.90909	0.1	4974.8
24704	4.5952	1.1818	0.1	4985.1
24705	4.6871	1.0909	0.1	4961.9
24706	4.5952	1.3636	0.1	4972.8
24707	4.6871	1.2727	0.1	4949.6
24708	4.5952	1.5455	0.1	4961.4
24709	4.6871	1.4545	0.1	4938.2
24710	4.5952	1.7273	0.1	4951.
24711	4.6871	1.6364	0.1	4927.6
24712	4.5952	1.9091	0.1	4941.7
24713	4.6871	1.8182	0.1	4918.1
24714	4.5952	2.0909	0.1	4933.6
24715	4.6871	2.	0.1	4909.7
24716	4.5952	2.2727	0.1	4926.9
24717	4.6871	2.1818	0.1	4902.5
24718	4.5952	2.4545	0.1	4921.6
24719	4.6871	2.3636	0.1	4896.7
24720	4.5952	2.6364	0.1	4917.7
24721	4.6871	2.5455	0.1	4892.2
24722	4.5952	2.8182	0.1	4915.4
24723	4.6871	2.7273	0.1	4889.2
24724	4.5952	3.	0.1	4914.6
24725	4.6871	2.9091	0.1	4887.7
24726	4.5952	3.1818	0.1	4915.4
24727	4.6871	3.0909	0.1	4887.7
24728	4.5952	3.3636	0.1	4917.7
24729	4.6871	3.2727	0.1	4889.2
24730	4.5952	3.5455	0.1	4921.6
24731	4.6871	3.4545	0.1	4892.2
24732	4.5952	3.7273	0.1	4926.9
24733	4.6871	3.6364	0.1	4896.7
24734	4.5952	3.9091	0.1	4933.6
24735	4.6871	3.8182	0.1	4902.5
24736	4.5952	4.0909	0.1	4941.7
24737	4.6871	4.	0.1	4909.7
24738	4.5952	4.2727	0.1	4951.
24739	4.6871	4.1818	0.1	4918.1
24740	4.5952	4.4545	0.1	4961.4
24741	4.6871	4.3636	0.1	4927.6
24742	4.5952	4.6364	0.1	4972.8
24743	4.6871	4.5455	0.1	4938.2
24744	4.5952	4.8182	0.1	4985.1
24745	4.6871	4.7273	0.1	4949.6
24746	4.5952	5.	0.1	4998.1
24747	4.6871	4.9091	0.1	4961.9
24748	4.5952	5.1818	0.1	5011.7
24749	4.6871	5.0909	0.1	4974.8
24750	4.5952	5.3636	0.1	5025.7
24751	4.6871	5.2727	0.1	4988.2
24752	4.5952	5.5455	0.1	5040.1
24753	4.6871	5.4545	0.1	5001.9
24754	4.5952	5.7273	0.1	5054.8
24755	4.6871	5.6364	0.1	5015.8
24756	4.6871	5.8182	0.1	5030.3
24757	4.5952	5.9091	0.1	5067.4
24758	4.779	0.27273	0.1	4991.4
24759	4.871	0.18182	0.1	4966.7
24760	4.779	9.0909e-002	0.1	5003.3
24761	4.779	0.45455	0.1	4977.7
24762	4.871	0.36364	0.1	4953.3
24763	4.779	0.63636	0.1	4964.4
24764	4.871	0.54545	0.1	4940.3
24765	4.779	0.81818	0.1	4951.3
24766	4.871	0.72727	0.1	4927.5
24767	4.779	1.	0.1	4938.6
24768	4.871	0.90909	0.1	4915.
24769	4.779	1.1818	0.1	4926.5
24770	4.871	1.0909	0.1	4903.1
24771	4.779	1.3636	0.1	4915.1
24772	4.871	1.2727	0.1	4891.7
24773	4.779	1.5455	0.1	4904.4
24774	4.871	1.4545	0.1	4881.
24775	4.779	1.7273	0.1	4894.7
24776	4.871	1.6364	0.1	4871.1
24777	4.779	1.9091	0.1	4886.1
24778	4.871	1.8182	0.1	4862.3
24779	4.779	2.0909	0.1	4878.5
24780	4.871	2.	0.1	4854.4
24781	4.779	2.2727	0.1	4872.3
24782	4.871	2.1818	0.1	4847.7
24783	4.779	2.4545	0.1	4867.3
24784	4.871	2.3636	0.1	4842.3
24785	4.779	2.6364	0.1	4863.7
24786	4.871	2.5455	0.1	4838.2
24787	4.779	2.8182	0.1	4861.5
24788	4.871	2.7273	0.1	4835.4
24789	4.779	3.	0.1	4860.8
24790	4.871	2.9091	0.1	4834.
24791	4.779	3.1818	0.1	4861.5
24792	4.871	3.0909	0.1	4834.
24793	4.779	3.3636	0.1	4863.7
24794	4.871	3.2727	0.1	4835.4
24795	4.779	3.5455	0.1	4867.3
24796	4.871	3.4545	0.1	4838.2
24797	4.779	3.7273	0.1	4872.3
24798	4.871	3.6364	0.1	4842.3
24799	4.779	3.9091	0.1	4878.5
24800	4.871	3.8182	0.1	4847.7
24801	4.779	4.0909	0.1	4886.1
24802	4.871	4.	0.1	4854.4
24803	4.779	4.2727	0.1	4894.7
24804	4.871	4.1818	0.1	4862.3
24805	4.779	4.4545	0.1	4904.4
24806	4.871	4.3636	0.1	4871.1
24807	4.779	4.6364	0.1	4915.1
24808	4.871	4.5455	0.1	4881.
24809	4.779	4.8182	0.1	4926.5
24810	4.871	4.7273	0.1	4891.7
24811	4.779	5.	0.1	4938.6
24812	4.871	4.9091	0.1	4903.1
24813	4.779	5.1818	0.1	4951.3
24814	4.871	5.0909	0.1	4915.
24815	4.779	5.3636	0.1	4964.4
24816	4.871	5.2727	0.1	4927.5
24817	4.779	5.5455	0.1	4977.7
24818	4.871	5.4545	0.1	4940.3
24819	4.779	5.7273	0.1	4991.4
24820	4.871	5.6364	0.1	4953.3
24821	4.871	5.8182	0.1	4966.7
24822	4.779	5.9091	0.1	5003.3
24823	4.9629	0.27273	0.1	4928.6
24824	5.0548	0.18182	0.1	4903.7
24825	4.9629	9.0909e-002	0.1	4939.7
24826	4.9629	0.45455	0.1	4915.9
24827	5.0548	0.36364	0.1	4891.3
24828	4.9629	0.63636	0.1	4903.5
24829	5.0548	0.54545	0.1	4879.2
24830	4.9629	0.81818	0.1	4891.3
24831	5.0548	0.72727	0.1	4867.3
24832	4.9629	1.	0.1	4879.5
24833	5.0548	0.90909	0.1	4855.7
24834	4.9629	1.1818	0.1	4868.2
24835	5.0548	1.0909	0.1	4844.6
24836	4.9629	1.3636	0.1	4857.6
24837	5.0548	1.2727	0.1	4834.
24838	4.9629	1.5455	0.1	4847.7
24839	5.0548	1.4545	0.1	4824.
24840	4.9629	1.7273	0.1	4838.7
24841	5.0548	1.6364	0.1	4814.9
24842	4.9629	1.9091	0.1	4830.6
24843	5.0548	1.8182	0.1	4806.6
24844	4.9629	2.0909	0.1	4823.6
24845	5.0548	2.	0.1	4799.4
24846	4.9629	2.2727	0.1	4817.8
24847	5.0548	2.1818	0.1	4793.1
24848	4.9629	2.4545	0.1	4813.2
24849	5.0548	2.3636	0.1	4788.1
24850	4.9629	2.6364	0.1	4809.8
24851	5.0548	2.5455	0.1	4784.2
24852	4.9629	2.8182	0.1	4807.8
24853	5.0548	2.7273	0.1	4781.6
24854	4.9629	3.	0.1	4807.1
24855	5.0548	2.9091	0.1	4780.3
24856	4.9629	3.1818	0.1	4807.8
24857	5.0548	3.0909	0.1	4780.3
24858	4.9629	3.3636	0.1	4809.8
24859	5.0548	3.2727	0.1	4781.6
24860	4.9629	3.5455	0.1	4813.2
24861	5.0548	3.4545	0.1	4784.2
24862	4.9629	3.7273	0.1	4817.8
24863	5.0548	3.6364	0.1	4788.1
24864	4.9629	3.9091	0.1	4823.6
24865	5.0548	3.8182	0.1	4793.1
24866	4.9629	4.0909	0.1	4830.6
24867	5.0548	4.	0.1	4799.4
24868	4.9629	4.2727	0.1	4838.7
24869	5.0548	4.1818	0.1	4806.6
24870	4.9629	4.4545	0.1	4847.7
24871	5.0548	4.3636	0.1	4814.9
24872	4.9629	4.6364	0.1	4857.6
24873	5.0548	4.5455	0.1	4824.
24874	4.9629	4.8182	0.1	4868.2
24875	5.0548	4.7273	0.1	4834.
24876	4.9629	5.	0.1	4879.5
24877	5.0548	4.9091	0.1	4844.6
24878	4.9629	5.1818	0.1	4891.3
24879	5.0548	5.0909	0.1	4855.7
24880	4.9629	5.3636	0.1	4903.5
24881	5.0548	5.2727	0.1	4867.3
24882	4.9629	5.5455	0.1	4915.9
24883	5.0548	5.4545	0.1	4879.2
24884	4.9629	5.7273	0.1	4928.6
24885	5.0548	5.6364	0.1	4891.3
24886	5.0548	5.8182	0.1	4903.7
24887	4.9629	5.9091	0.1	4939.7
24888	5.1467	0.27273	0.1	4866.4
24889	5.2386	0.18182	0.1	4841.4
24890	5.1467	9.0909e-002	0.1	4876.8
24891	5.1467	0.45455	0.1	4854.6
24892	5.2386	0.36364	0.1	4829.8
24893	5.1467	0.63636	0.1	4843.1
24894	5.2386	0.54545	0.1	4818.6
24895	5.1467	0.81818	0.1	4831.7
24896	5.2386	0.72727	0.1	4807.5
24897	5.1467	1.	0.1	4820.8
24898	5.2386	0.90909	0.1	4796.8
24899	5.1467	1.1818	0.1	4810.3
24900	5.2386	1.0909	0.1	4786.4
24901	5.1467	1.3636	0.1	4800.4
24902	5.2386	1.2727	0.1	4776.6
24903	5.1467	1.5455	0.1	4791.2
24904	5.2386	1.4545	0.1	4767.4
24905	5.1467	1.7273	0.1	4782.9
24906	5.2386	1.6364	0.1	4758.9
24907	5.1467	1.9091	0.1	4775.4
24908	5.2386	1.8182	0.1	4751.2
24909	5.1467	2.0909	0.1	4768.9
24910	5.2386	2.	0.1	4744.4
24911	5.1467	2.2727	0.1	4763.4
24912	5.2386	2.1818	0.1	4738.7
24913	5.1467	2.4545	0.1	4759.2
24914	5.2386	2.3636	0.1	4734.
24915	5.1467	2.6364	0.1	4756.
24916	5.2386	2.5455	0.1	4730.4
24917	5.1467	2.8182	0.1	4754.2
24918	5.2386	2.7273	0.1	4728.
24919	5.1467	3.	0.1	4753.5
24920	5.2386	2.9091	0.1	4726.8
24921	5.1467	3.1818	0.1	4754.2
24922	5.2386	3.0909	0.1	4726.8
24923	5.1467	3.3636	0.1	4756.
24924	5.2386	3.2727	0.1	4728.
24925	5.1467	3.5455	0.1	4759.2
24926	5.2386	3.4545	0.1	4730.4
24927	5.1467	3.7273	0.1	4763.4
24928	5.2386	3.6364	0.1	4734.
24929	5.1467	3.9091	0.1	4768.9
24930	5.2386	3.8182	0.1	4738.7
24931	5.1467	4.0909	0.1	4775.4
24932	5.2386	4.	0.1	4744.4
24933	5.1467	4.2727	0.1	4782.9
24934	5.2386	4.1818	0.1	4751.2
24935	5.1467	4.4545	0.1	4791.2
24936	5.2386	4.3636	0.1	4758.9
24937	5.1467	4.6364	0.1	4800.4
24938	5.2386	4.5455	0.1	4767.4
24939	5.1467	4.8182	0.1	4810.3
24940	5.2386	4.7273	0.1	4776.6
24941	5.1467	5.	0.1	4820.8
24942	5.2386	4.9091	0.1	4786.4
24943	5.1467	5.1818	0.1	4831.7
24944	5.2386	5.0909	0.1	4796.8
24945	5.1467	5.3636	0.1	4843.1
24946	5.2386	5.2727	0.1	4807.5
24947	5.1467	5.5455	0.1	4854.6
24948	5.2386	5.4545	0.1	4818.6
24949	5.1467	5.7273	0.1	4866.4
24950	5.2386	5.6364	0.1	4829.8
24951	5.2386	5.8182	0.1	4841.4
24952	5.1467	5.9091	0.1	4876.8
24953	5.3305	0.27273	0.1	4804.8
24954	5.4224	0.18182	0.1	4779.7
24955	5.3305	9.0909e-002	0.1	4814.5
24956	5.3305	0.45455	0.1	4793.8
24957	5.4224	0.36364	0.1	4768.9
24958	5.3305	0.63636	0.1	4783.1
24959	5.4224	0.54545	0.1	4758.5
24960	5.3305	0.81818	0.1	4772.6
24961	5.4224	0.72727	0.1	4748.2
24962	5.3305	1.	0.1	4762.4
24963	5.4224	0.90909	0.1	4738.2
24964	5.3305	1.1818	0.1	4752.7
24965	5.4224	1.0909	0.1	4728.6
24966	5.3305	1.3636	0.1	4743.5
24967	5.4224	1.2727	0.1	4719.5
24968	5.3305	1.5455	0.1	4735.
24969	5.4224	1.4545	0.1	4710.9
24970	5.3305	1.7273	0.1	4727.2
24971	5.4224	1.6364	0.1	4703.
24972	5.3305	1.9091	0.1	4720.3
24973	5.4224	1.8182	0.1	4695.9
24974	5.3305	2.0909	0.1	4714.3
24975	5.4224	2.	0.1	4689.7
24976	5.3305	2.2727	0.1	4709.2
24977	5.4224	2.1818	0.1	4684.3
24978	5.3305	2.4545	0.1	4705.2
24979	5.4224	2.3636	0.1	4680.
24980	5.3305	2.6364	0.1	4702.4
24981	5.4224	2.5455	0.1	4676.7
24982	5.3305	2.8182	0.1	4700.6
24983	5.4224	2.7273	0.1	4674.4
24984	5.3305	3.	0.1	4700.
24985	5.4224	2.9091	0.1	4673.3
24986	5.3305	3.1818	0.1	4700.6
24987	5.4224	3.0909	0.1	4673.3
24988	5.3305	3.3636	0.1	4702.4
24989	5.4224	3.2727	0.1	4674.4
24990	5.3305	3.5455	0.1	4705.2
24991	5.4224	3.4545	0.1	4676.7
24992	5.3305	3.7273	0.1	4709.2
24993	5.4224	3.6364	0.1	4680.
24994	5.3305	3.9091	0.1	4714.3
24995	5.4224	3.8182	0.1	4684.3
24996	5.3305	4.0909	0.1	4720.3
24997	5.4224	4.	0.1	4689.7
24998	5.3305	4.2727	0.1	4727.2
24999	5.4224	4.1818	0.1	4695.9
25000	5.3305	4.4545	0.1	4735.
25001	5.4224	4.3636	0.1	4703.
25002	5.3305	4.6364	0.1	4743.5
25003	5.4224	4.5455	0.1	4710.9
25004	5.3305	4.8182	0.1	4752.7
25005	5.4224	4.7273	0.1	4719.5
25006	5.3305	5.	0.1	4762.4
25007	5.4224	4.9091	0.1	4728.6
25008	5.3305	5.1818	0.1	4772.6
25009	5.4224	5.0909	0.1	4738.2
25010	5.3305	5.3636	0.1	4783.1
25011	5.4224	5.2727	0.1	4748.2
25012	5.3305	5.5455	0.1	4793.8
25013	5.4224	5.4545	0.1	4758.5
25014	5.3305	5.7273	0.1	4804.8
25015	5.4224	5.6364	0.1	4768.9
25016	5.4224	5.8182	0.1	4779.7
25017	5.3305	5.9091	0.1	4814.5
25018	5.5143	0.27273	0.1	4743.8
25019	5.6062	0.18182	0.1	4718.5
25020	5.5143	9.0909e-002	0.1	4752.8
25021	5.5143	0.45455	0.1	4733.6
25022	5.6062	0.36364	0.1	4708.5
25023	5.5143	0.63636	0.1	4723.6
25024	5.6062	0.54545	0.1	4698.8
25025	5.5143	0.81818	0.1	4713.8
25026	5.6062	0.72727	0.1	4689.3
25027	5.5143	1.	0.1	4704.4
25028	5.6062	0.90909	0.1	4680.
25029	5.5143	1.1818	0.1	4695.4
25030	5.6062	1.0909	0.1	4671.1
25031	5.5143	1.3636	0.1	4686.9
25032	5.6062	1.2727	0.1	4662.6
25033	5.5143	1.5455	0.1	4679.
25034	5.6062	1.4545	0.1	4654.7
25035	5.5143	1.7273	0.1	4671.8
25036	5.6062	1.6364	0.1	4647.4
25037	5.5143	1.9091	0.1	4665.3
25038	5.6062	1.8182	0.1	4640.8
25039	5.5143	2.0909	0.1	4659.8
25040	5.6062	2.	0.1	4635.
25041	5.5143	2.2727	0.1	4655.1
25042	5.6062	2.1818	0.1	4630.1
25043	5.5143	2.4545	0.1	4651.4
25044	5.6062	2.3636	0.1	4626.1
25045	5.5143	2.6364	0.1	4648.7
25046	5.6062	2.5455	0.1	4623.
25047	5.5143	2.8182	0.1	4647.1
25048	5.6062	2.7273	0.1	4620.9
25049	5.5143	3.	0.1	4646.6
25050	5.6062	2.9091	0.1	4619.9
25051	5.5143	3.1818	0.1	4647.1
25052	5.6062	3.0909	0.1	4619.9
25053	5.5143	3.3636	0.1	4648.7
25054	5.6062	3.2727	0.1	4620.9
25055	5.5143	3.5455	0.1	4651.4
25056	5.6062	3.4545	0.1	4623.
25057	5.5143	3.7273	0.1	4655.1
25058	5.6062	3.6364	0.1	4626.1
25059	5.5143	3.9091	0.1	4659.8
25060	5.6062	3.8182	0.1	4630.1
25061	5.5143	4.0909	0.1	4665.3
25062	5.6062	4.	0.1	4635.
25063	5.5143	4.2727	0.1	4671.8
25064	5.6062	4.1818	0.1	4640.8
25065	5.5143	4.4545	0.1	4679.
25066	5.6062	4.3636	0.1	4647.4
25067	5.5143	4.6364	0.1	4686.9
25068	5.6062	4.5455	0.1	4654.7
25069	5.5143	4.8182	0.1	4695.4
25070	5.6062	4.7273	0.1	4662.6
25071	5.5143	5.	0.1	4704.4
25072	5.6062	4.9091	0.1	4671.1
25073	5.5143	5.1818	0.1	4713.8
25074	5.6062	5.0909	0.1	4680.
25075	5.5143	5.3636	0.1	4723.6
25076	5.6062	5.2727	0.1	4689.3
25077	5.5143	5.5455	0.1	4733.6
25078	5.6062	5.4545	0.1	4698.8
25079	5.5143	5.7273	0.1	4743.8
25080	5.6062	5.6364	0.1	4708.5
25081	5.6062	5.8182	0.1	4718.5
25082	5.5143	5.9091	0.1	4752.8
25083	5.6981	0.27273	0.1	4683.3
25084	5.79	0.18182	0.1	4658.
25085	5.6981	9.0909e-002	0.1	4691.6
25086	5.6981	0.45455	0.1	4673.8
25087	5.79	0.36364	0.1	4648.6
25088	5.6981	0.63636	0.1	4664.5
25089	5.79	0.54545	0.1	4639.6
25090	5.6981	0.81818	0.1	4655.5
25091	5.79	0.72727	0.1	4630.8
25092	5.6981	1.	0.1	4646.7
25093	5.79	0.90909	0.1	4622.2
25094	5.6981	1.1818	0.1	4638.3
25095	5.79	1.0909	0.1	4613.9
25096	5.6981	1.3636	0.1	4630.5
25097	5.79	1.2727	0.1	4606.
25098	5.6981	1.5455	0.1	4623.1
25099	5.79	1.4545	0.1	4598.7
25100	5.6981	1.7273	0.1	4616.5
25101	5.79	1.6364	0.1	4591.9
25102	5.6981	1.9091	0.1	4610.5
25103	5.79	1.8182	0.1	4585.9
25104	5.6981	2.0909	0.1	4605.4
25105	5.79	2.	0.1	4580.5
25106	5.6981	2.2727	0.1	4601.
25107	5.79	2.1818	0.1	4575.9
25108	5.6981	2.4545	0.1	4597.6
25109	5.79	2.3636	0.1	4572.2
25110	5.6981	2.6364	0.1	4595.2
25111	5.79	2.5455	0.1	4569.4
25112	5.6981	2.8182	0.1	4593.7
25113	5.79	2.7273	0.1	4567.5
25114	5.6981	3.	0.1	4593.2
25115	5.79	2.9091	0.1	4566.5
25116	5.6981	3.1818	0.1	4593.7
25117	5.79	3.0909	0.1	4566.5
25118	5.6981	3.3636	0.1	4595.2
25119	5.79	3.2727	0.1	4567.5
25120	5.6981	3.5455	0.1	4597.6
25121	5.79	3.4545	0.1	4569.4
25122	5.6981	3.7273	0.1	4601.
25123	5.79	3.6364	0.1	4572.2
25124	5.6981	3.9091	0.1	4605.4
25125	5.79	3.8182	0.1	4575.9
25126	5.6981	4.0909	0.1	4610.5
25127	5.79	4.	0.1	4580.5
25128	5.6981	4.2727	0.1	4616.5
25129	5.79	4.1818	0.1	4585.9
25130	5.6981	4.4545	0.1	4623.1
25131	5.79	4.3636	0.1	4591.9
25132	5.6981	4.6364	0.1	4630.5
25133	5.79	4.5455	0.1	4598.7
25134	5.6981	4.8182	0.1	4638.3
25135	5.79	4.7273	0.1	4606.
25136	5.6981	5.	0.1	4646.7
25137	5.79	4.9091	0.1	4613.9
25138	5.6981	5.1818	0.1	4655.5
25139	5.79	5.0909	0.1	4622.2
25140	5.6981	5.3636	0.1	4664.5
25141	5.79	5.2727	0.1	4630.8
25142	5.6981	5.5455	0.1	4673.8
25143	5.79	5.4545	0.1	4639.6
25144	5.6981	5.7273	0.1	4683.3
25145	5.79	5.6364	0.1	4648.6
25146	5.79	5.8182	0.1	4658.
25147	5.6981	5.9091	0.1	4691.6
25148	5.8819	0.27273	0.1	4623.3
25149	5.9738	0.18182	0.1	4598.
25150	5.8819	9.0909e-002	0.1	4631.
25151	5.8819	0.45455	0.1	4614.5
25152	5.9738	0.36364	0.1	4589.3
25153	5.8819	0.63636	0.1	4605.9
25154	5.9738	0.54545	0.1	4580.9
25155	5.8819	0.81818	0.1	4597.5
25156	5.9738	0.72727	0.1	4572.6
25157	5.8819	1.	0.1	4589.3
25158	5.9738	0.90909	0.1	4564.7
25159	5.8819	1.1818	0.1	4581.6
25160	5.9738	1.0909	0.1	4557.
25161	5.8819	1.3636	0.1	4574.3
25162	5.9738	1.2727	0.1	4549.7
25163	5.8819	1.5455	0.1	4567.5
25164	5.9738	1.4545	0.1	4542.9
25165	5.8819	1.7273	0.1	4561.3
25166	5.9738	1.6364	0.1	4536.7
25167	5.8819	1.9091	0.1	4555.8
25168	5.9738	1.8182	0.1	4531.
25169	5.8819	2.0909	0.1	4551.1
25170	5.9738	2.	0.1	4526.1
25171	5.8819	2.2727	0.1	4547.1
25172	5.9738	2.1818	0.1	4521.8
25173	5.8819	2.4545	0.1	4543.9
25174	5.9738	2.3636	0.1	4518.4
25175	5.8819	2.6364	0.1	4541.6
25176	5.9738	2.5455	0.1	4515.8
25177	5.8819	2.8182	0.1	4540.3
25178	5.9738	2.7273	0.1	4514.
25179	5.8819	3.	0.1	4539.8
25180	5.9738	2.9091	0.1	4513.1
25181	5.8819	3.1818	0.1	4540.3
25182	5.9738	3.0909	0.1	4513.1
25183	5.8819	3.3636	0.1	4541.6
25184	5.9738	3.2727	0.1	4514.
25185	5.8819	3.5455	0.1	4543.9
25186	5.9738	3.4545	0.1	4515.8
25187	5.8819	3.7273	0.1	4547.1
25188	5.9738	3.6364	0.1	4518.4
25189	5.8819	3.9091	0.1	4551.1
25190	5.9738	3.8182	0.1	4521.8
25191	5.8819	4.0909	0.1	4555.8
25192	5.9738	4.	0.1	4526.1
25193	5.8819	4.2727	0.1	4561.3
25194	5.9738	4.1818	0.1	4531.
25195	5.8819	4.4545	0.1	4567.5
25196	5.9738	4.3636	0.1	4536.7
25197	5.8819	4.6364	0.1	4574.3
25198	5.9738	4.5455	0.1	4542.9
25199	5.8819	4.8182	0.1	4581.6
25200	5.9738	4.7273	0.1	4549.7
25201	5.8819	5.	0.1	4589.3
25202	5.9738	4.9091	0.1	4557.
25203	5.8819	5.1818	0.1	4597.5
25204	5.9738	5.0909	0.1	4564.7
25205	5.8819	5.3636	0.1	4605.9
25206	5.9738	5.2727	0.1	4572.6
25207	5.8819	5.5455	0.1	4614.5
25208	5.9738	5.4545	0.1	4580.9
25209	5.8819	5.7273	0.1	4623.3
25210	5.9738	5.6364	0.1	4589.3
25211	5.9738	5.8182	0.1	4598.
25212	5.8819	5.9091	0.1	4631.
25213	6.0657	0.27273	0.1	4563.9
25214	6.1576	0.18182	0.1	4538.5
25215	6.0657	9.0909e-002	0.1	4571.
25216	6.0657	0.45455	0.1	4555.7
25217	6.1576	0.36364	0.1	4530.3
25218	6.0657	0.63636	0.1	4547.7
25219	6.1576	0.54545	0.1	4522.6
25220	6.0657	0.81818	0.1	4539.8
25221	6.1576	0.72727	0.1	4514.9
25222	6.0657	1.	0.1	4532.3
25223	6.1576	0.90909	0.1	4507.5
25224	6.0657	1.1818	0.1	4525.1
25225	6.1576	1.0909	0.1	4500.4
25226	6.0657	1.3636	0.1	4518.3
25227	6.1576	1.2727	0.1	4493.6
25228	6.0657	1.5455	0.1	4512.1
25229	6.1576	1.4545	0.1	4487.3
25230	6.0657	1.7273	0.1	4506.4
25231	6.1576	1.6364	0.1	4481.6
25232	6.0657	1.9091	0.1	4501.3
25233	6.1576	1.8182	0.1	4476.3
25234	6.0657	2.0909	0.1	4496.9
25235	6.1576	2.	0.1	4471.8
25236	6.0657	2.2727	0.1	4493.2
25237	6.1576	2.1818	0.1	4467.9
25238	6.0657	2.4545	0.1	4490.3
25239	6.1576	2.3636	0.1	4464.7
25240	6.0657	2.6364	0.1	4488.2
25241	6.1576	2.5455	0.1	4462.3
25242	6.0657	2.8182	0.1	4486.9
25243	6.1576	2.7273	0.1	4460.6
25244	6.0657	3.	0.1	4486.5
25245	6.1576	2.9091	0.1	4459.8
25246	6.0657	3.1818	0.1	4486.9
25247	6.1576	3.0909	0.1	4459.8
25248	6.0657	3.3636	0.1	4488.2
25249	6.1576	3.2727	0.1	4460.6
25250	6.0657	3.5455	0.1	4490.3
25251	6.1576	3.4545	0.1	4462.3
25252	6.0657	3.7273	0.1	4493.2
25253	6.1576	3.6364	0.1	4464.7
25254	6.0657	3.9091	0.1	4496.9
25255	6.1576	3.8182	0.1	4467.9
25256	6.0657	4.0909	0.1	4501.3
25257	6.1576	4.	0.1	4471.8
25258	6.0657	4.2727	0.1	4506.4
25259	6.1576	4.1818	0.1	4476.3
25260	6.0657	4.4545	0.1	4512.1
25261	6.1576	4.3636	0.1	4481.6
25262	6.0657	4.6364	0.1	4518.3
25263	6.1576	4.5455	0.1	4487.3
25264	6.0657	4.8182	0.1	4525.1
25265	6.1576	4.7273	0.1	4493.6
25266	6.0657	5.	0.1	4532.3
25267	6.1576	4.9091	0.1	4500.4
25268	6.0657	5.1818	0.1	4539.8
25269	6.1576	5.0909	0.1	4507.5
25270	6.0657	5.3636	0.1	4547.7
25271	6.1576	5.2727	0.1	4514.9
25272	6.0657	5.5455	0.1	4555.7
25273	6.1576	5.4545	0.1	4522.6
25274	6.0657	5.7273	0.1	4563.9
25275	6.1576	5.6364	0.1	4530.3
25276	6.1576	5.8182	0.1	4538.5
25277	6.0657	5.9091	0.1	4571.
25278	6.2495	0.27273	0.1	4504.9
25279	6.3414	0.18182	0.1	4479.5
25280	6.2495	9.0909e-002	0.1	4511.4
25281	6.2495	0.45455	0.1	4497.2
25282	6.3414	0.36364	0.1	4471.9
25283	6.2495	0.63636	0.1	4489.8
25284	6.3414	0.54545	0.1	4464.6
25285	6.2495	0.81818	0.1	4482.6
25286	6.3414	0.72727	0.1	4457.5
25287	6.2495	1.	0.1	4475.6
25288	6.3414	0.90909	0.1	4450.6
25289	6.2495	1.1818	0.1	4468.9
25290	6.3414	1.0909	0.1	4444.
25291	6.2495	1.3636	0.1	4462.6
25292	6.3414	1.2727	0.1	4437.8
25293	6.2495	1.5455	0.1	4456.8
25294	6.3414	1.4545	0.1	4432.
25295	6.2495	1.7273	0.1	4451.5
25296	6.3414	1.6364	0.1	4426.6
25297	6.2495	1.9091	0.1	4446.8
25298	6.3414	1.8182	0.1	4421.8
25299	6.2495	2.0909	0.1	4442.8
25300	6.3414	2.	0.1	4417.6
25301	6.2495	2.2727	0.1	4439.4
25302	6.3414	2.1818	0.1	4413.9
25303	6.2495	2.4545	0.1	4436.7
25304	6.3414	2.3636	0.1	4411.
25305	6.2495	2.6364	0.1	4434.7
25306	6.3414	2.5455	0.1	4408.8
25307	6.2495	2.8182	0.1	4433.5
25308	6.3414	2.7273	0.1	4407.3
25309	6.2495	3.	0.1	4433.2
25310	6.3414	2.9091	0.1	4406.5
25311	6.2495	3.1818	0.1	4433.5
25312	6.3414	3.0909	0.1	4406.5
25313	6.2495	3.3636	0.1	4434.7
25314	6.3414	3.2727	0.1	4407.3
25315	6.2495	3.5455	0.1	4436.7
25316	6.3414	3.4545	0.1	4408.8
25317	6.2495	3.7273	0.1	4439.4
25318	6.3414	3.6364	0.1	4411.
25319	6.2495	3.9091	0.1	4442.8
25320	6.3414	3.8182	0.1	4413.9
25321	6.2495	4.0909	0.1	4446.8
25322	6.3414	4.	0.1	4417.6
25323	6.2495	4.2727	0.1	4451.5
25324	6.3414	4.1818	0.1	4421.8
25325	6.2495	4.4545	0.1	4456.8
25326	6.3414	4.3636	0.1	4426.6
25327	6.2495	4.6364	0.1	4462.6
25328	6.3414	4.5455	0.1	4432.
25329	6.2495	4.8182	0.1	4468.9
25330	6.3414	4.7273	0.1	4437.8
25331	6.2495	5.	0.1	4475.6
25332	6.3414	4.9091	0.1	4444.
25333	6.2495	5.1818	0.1	4482.6
25334	6.3414	5.0909	0.1	4450.6
25335	6.2495	5.3636	0.1	4489.8
25336	6.3414	5.2727	0.1	4457.5
25337	6.2495	5.5455	0.1	4497.2
25338	6.3414	5.4545	0.1	4464.6
25339	6.2495	5.7273	0.1	4504.9
25340	6.3414	5.6364	0.1	4471.9
25341	6.3414	5.8182	0.1	4479.5
25342	6.2495	5.9091	0.1	4511.4
25343	6.4333	0.27273	0.1	4446.5
25344	6.5252	0.18182	0.1	4421.
25345	6.4333	9.0909e-002	0.1	4452.3
25346	6.4333	0.45455	0.1	4439.3
25347	6.5252	0.36364	0.1	4413.8
25348	6.4333	0.63636	0.1	4432.3
25349	6.5252	0.54545	0.1	4407.1
25350	6.4333	0.81818	0.1	4425.6
25351	6.5252	0.72727	0.1	4400.5
25352	6.4333	1.	0.1	4419.1
25353	6.5252	0.90909	0.1	4394.1
25354	6.4333	1.1818	0.1	4412.9
25355	6.5252	1.0909	0.1	4388.
25356	6.4333	1.3636	0.1	4407.1
25357	6.5252	1.2727	0.1	4382.2
25358	6.4333	1.5455	0.1	4401.8
25359	6.5252	1.4545	0.1	4376.8
25360	6.4333	1.7273	0.1	4396.9
25361	6.5252	1.6364	0.1	4371.8
25362	6.4333	1.9091	0.1	4392.5
25363	6.5252	1.8182	0.1	4367.4
25364	6.4333	2.0909	0.1	4388.7
25365	6.5252	2.	0.1	4363.5
25366	6.4333	2.2727	0.1	4385.6
25367	6.5252	2.1818	0.1	4360.1
25368	6.4333	2.4545	0.1	4383.1
25369	6.5252	2.3636	0.1	4357.4
25370	6.4333	2.6364	0.1	4381.3
25371	6.5252	2.5455	0.1	4355.3
25372	6.4333	2.8182	0.1	4380.2
25373	6.5252	2.7273	0.1	4354.
25374	6.4333	3.	0.1	4379.9
25375	6.5252	2.9091	0.1	4353.3
25376	6.4333	3.1818	0.1	4380.2
25377	6.5252	3.0909	0.1	4353.3
25378	6.4333	3.3636	0.1	4381.3
25379	6.5252	3.2727	0.1	4354.
25380	6.4333	3.5455	0.1	4383.1
25381	6.5252	3.4545	0.1	4355.3
25382	6.4333	3.7273	0.1	4385.6
25383	6.5252	3.6364	0.1	4357.4
25384	6.4333	3.9091	0.1	4388.7
25385	6.5252	3.8182	0.1	4360.1
25386	6.4333	4.0909	0.1	4392.5
25387	6.5252	4.	0.1	4363.5
25388	6.4333	4.2727	0.1	4396.9
25389	6.5252	4.1818	0.1	4367.4
25390	6.4333	4.4545	0.1	4401.8
25391	6.5252	4.3636	0.1	4371.8
25392	6.4333	4.6364	0.1	4407.1
25393	6.5252	4.5455	0.1	4376.8
25394	6.4333	4.8182	0.1	4412.9
25395	6.5252	4.7273	0.1	4382.2
25396	6.4333	5.	0.1	4419.1
25397	6.5252	4.9091	0.1	4388.
25398	6.4333	5.1818	0.1	4425.6
25399	6.5252	5.0909	0.1	4394.1
25400	6.4333	5.3636	0.1	4432.3
25401	6.5252	5.2727	0.1	4400.5
25402	6.4333	5.5455	0.1	4439.3
25403	6.5252	5.4545	0.1	4407.1
25404	6.4333	5.7273	0.1	4446.5
25405	6.5252	5.6364	0.1	4413.8
25406	6.5252	5.8182	0.1	4421.
25407	6.4333	5.9091	0.1	4452.3
25408	6.6171	0.27273	0.1	4388.4
25409	6.709	0.18182	0.1	4363.
25410	6.6171	9.0909e-002	0.1	4393.7
25411	6.6171	0.45455	0.1	4381.7
25412	6.709	0.36364	0.1	4356.2
25413	6.6171	0.63636	0.1	4375.2
25414	6.709	0.54545	0.1	4349.9
25415	6.6171	0.81818	0.1	4369.
25416	6.709	0.72727	0.1	4343.8
25417	6.6171	1.	0.1	4363.
25418	6.709	0.90909	0.1	4337.9
25419	6.6171	1.1818	0.1	4357.2
25420	6.709	1.0909	0.1	4332.2
25421	6.6171	1.3636	0.1	4351.9
25422	6.709	1.2727	0.1	4326.8
25423	6.6171	1.5455	0.1	4346.9
25424	6.709	1.4545	0.1	4321.8
25425	6.6171	1.7273	0.1	4342.4
25426	6.709	1.6364	0.1	4317.2
25427	6.6171	1.9091	0.1	4338.3
25428	6.709	1.8182	0.1	4313.1
25429	6.6171	2.0909	0.1	4334.8
25430	6.709	2.	0.1	4309.5
25431	6.6171	2.2727	0.1	4331.9
25432	6.709	2.1818	0.1	4306.4
25433	6.6171	2.4545	0.1	4329.6
25434	6.709	2.3636	0.1	4303.9
25435	6.6171	2.6364	0.1	4328.
25436	6.709	2.5455	0.1	4302.
25437	6.6171	2.8182	0.1	4327.
25438	6.709	2.7273	0.1	4300.7
25439	6.6171	3.	0.1	4326.6
25440	6.709	2.9091	0.1	4300.1
25441	6.6171	3.1818	0.1	4327.
25442	6.709	3.0909	0.1	4300.1
25443	6.6171	3.3636	0.1	4328.
25444	6.709	3.2727	0.1	4300.7
25445	6.6171	3.5455	0.1	4329.6
25446	6.709	3.4545	0.1	4302.
25447	6.6171	3.7273	0.1	4331.9
25448	6.709	3.6364	0.1	4303.9
25449	6.6171	3.9091	0.1	4334.8
25450	6.709	3.8182	0.1	4306.4
25451	6.6171	4.0909	0.1	4338.3
25452	6.709	4.	0.1	4309.5
25453	6.6171	4.2727	0.1	4342.4
25454	6.709	4.1818	0.1	4313.1
25455	6.6171	4.4545	0.1	4346.9
25456	6.709	4.3636	0.1	4317.2
25457	6.6171	4.6364	0.1	4351.9
25458	6.709	4.5455	0.1	4321.8
25459	6.6171	4.8182	0.1	4357.2
25460	6.709	4.7273	0.1	4326.8
25461	6.6171	5.	0.1	4363.
25462	6.709	4.9091	0.1	4332.2
25463	6.6171	5.1818	0.1	4369.
25464	6.709	5.0909	0.1	4337.9
25465	6.6171	5.3636	0.1	4375.2
25466	6.709	5.2727	0.1	4343.8
25467	6.6171	5.5455	0.1	4381.7
25468	6.709	5.4545	0.1	4349.9
25469	6.6171	5.7273	0.1	4388.4
25470	6.709	5.6364	0.1	4356.2
25471	6.709	5.8182	0.1	4363.
25472	6.6171	5.9091	0.1	4393.7
25473	6.801	0.27273	0.1	4330.8
25474	6.8929	0.18182	0.1	4305.4
25475	6.801	9.0909e-002	0.1	4335.5
25476	6.801	0.45455	0.1	4324.5
25477	6.8929	0.36364	0.1	4299.
25478	6.801	0.63636	0.1	4318.5
25479	6.8929	0.54545	0.1	4293.2
25480	6.801	0.81818	0.1	4312.7
25481	6.8929	0.72727	0.1	4287.4
25482	6.801	1.	0.1	4307.1
25483	6.8929	0.90909	0.1	4281.9
25484	6.801	1.1818	0.1	4301.8
25485	6.8929	1.0909	0.1	4276.6
25486	6.801	1.3636	0.1	4296.8
25487	6.8929	1.2727	0.1	4271.7
25488	6.801	1.5455	0.1	4292.2
25489	6.8929	1.4545	0.1	4267.
25490	6.801	1.7273	0.1	4288.
25491	6.8929	1.6364	0.1	4262.8
25492	6.801	1.9091	0.1	4284.3
25493	6.8929	1.8182	0.1	4259.
25494	6.801	2.0909	0.1	4281.
25495	6.8929	2.	0.1	4255.6
25496	6.801	2.2727	0.1	4278.3
25497	6.8929	2.1818	0.1	4252.8
25498	6.801	2.4545	0.1	4276.2
25499	6.8929	2.3636	0.1	4250.4
25500	6.801	2.6364	0.1	4274.7
25501	6.8929	2.5455	0.1	4248.7
25502	6.801	2.8182	0.1	4273.8
25503	6.8929	2.7273	0.1	4247.5
25504	6.801	3.	0.1	4273.5
25505	6.8929	2.9091	0.1	4246.9
25506	6.801	3.1818	0.1	4273.8
25507	6.8929	3.0909	0.1	4246.9
25508	6.801	3.3636	0.1	4274.7
25509	6.8929	3.2727	0.1	4247.5
25510	6.801	3.5455	0.1	4276.2
25511	6.8929	3.4545	0.1	4248.7
25512	6.801	3.7273	0.1	4278.3
25513	6.8929	3.6364	0.1	4250.4
25514	6.801	3.9091	0.1	4281.
25515	6.8929	3.8182	0.1	4252.8
25516	6.801	4.0909	0.1	4284.3
25517	6.8929	4.	0.1	4255.6
25518	6.801	4.2727	0.1	4288.
25519	6.8929	4.1818	0.1	4259.
25520	6.801	4.4545	0.1	4292.2
25521	6.8929	4.3636	0.1	4262.8
25522	6.801	4.6364	0.1	4296.8
25523	6.8929	4.5455	0.1	4267.
25524	6.801	4.8182	0.1	4301.8
25525	6.8929	4.7273	0.1	4271.7
25526	6.801	5.	0.1	4307.1
25527	6.8929	4.9091	0.1	4276.6
25528	6.801	5.1818	0.1	4312.7
25529	6.8929	5.0909	0.1	4281.9
25530	6.801	5.3636	0.1	4318.5
25531	6.8929	5.2727	0.1	4287.4
25532	6.801	5.5455	0.1	4324.5
25533	6.8929	5.4545	0.1	4293.1
25534	6.801	5.7273	0.1	4330.8
25535	6.8929	5.6364	0.1	4299.
25536	6.8929	5.8182	0.1	4305.4
25537	6.801	5.9091	0.1	4335.5
25538	6.9848	0.27273	0.1	4273.6
25539	7.0767	0.18182	0.1	4248.2
25540	6.9848	9.0909e-002	0.1	4277.8
25541	6.9848	0.45455	0.1	4267.7
25542	7.0767	0.36364	0.1	4242.2
25543	6.9848	0.63636	0.1	4262.1
25544	7.0767	0.54545	0.1	4236.7
25545	6.9848	0.81818	0.1	4256.7
25546	7.0767	0.72727	0.1	4231.4
25547	6.9848	1.	0.1	4251.5
25548	7.0767	0.90909	0.1	4226.3
25549	6.9848	1.1818	0.1	4246.5
25550	7.0767	1.0909	0.1	4221.4
25551	6.9848	1.3636	0.1	4241.9
25552	7.0767	1.2727	0.1	4216.7
25553	6.9848	1.5455	0.1	4237.6
25554	7.0767	1.4545	0.1	4212.4
25555	6.9848	1.7273	0.1	4233.8
25556	7.0767	1.6364	0.1	4208.5
25557	6.9848	1.9091	0.1	4230.3
25558	7.0767	1.8182	0.1	4205.
25559	6.9848	2.0909	0.1	4227.3
25560	7.0767	2.	0.1	4201.9
25561	6.9848	2.2727	0.1	4224.8
25562	7.0767	2.1818	0.1	4199.2
25563	6.9848	2.4545	0.1	4222.9
25564	7.0767	2.3636	0.1	4197.1
25565	6.9848	2.6364	0.1	4221.5
25566	7.0767	2.5455	0.1	4195.4
25567	6.9848	2.8182	0.1	4220.6
25568	7.0767	2.7273	0.1	4194.4
25569	6.9848	3.	0.1	4220.3
25570	7.0767	2.9091	0.1	4193.8
25571	6.9848	3.1818	0.1	4220.6
25572	7.0767	3.0909	0.1	4193.8
25573	6.9848	3.3636	0.1	4221.5
25574	7.0767	3.2727	0.1	4194.4
25575	6.9848	3.5455	0.1	4222.9
25576	7.0767	3.4545	0.1	4195.4
25577	6.9848	3.7273	0.1	4224.8
25578	7.0767	3.6364	0.1	4197.1
25579	6.9848	3.9091	0.1	4227.3
25580	7.0767	3.8182	0.1	4199.2
25581	6.9848	4.0909	0.1	4230.3
25582	7.0767	4.	0.1	4201.9
25583	6.9848	4.2727	0.1	4233.8
25584	7.0767	4.1818	0.1	4205.
25585	6.9848	4.4545	0.1	4237.6
25586	7.0767	4.3636	0.1	4208.5
25587	6.9848	4.6364	0.1	4241.9
25588	7.0767	4.5455	0.1	4212.4
25589	6.9848	4.8182	0.1	4246.5
25590	7.0767	4.7273	0.1	4216.7
25591	6.9848	5.	0.1	4251.5
25592	7.0767	4.9091	0.1	4221.4
25593	6.9848	5.1818	0.1	4256.7
25594	7.0767	5.0909	0.1	4226.3
25595	6.9848	5.3636	0.1	4262.1
25596	7.0767	5.2727	0.1	4231.4
25597	6.9848	5.5455	0.1	4267.7
25598	7.0767	5.4545	0.1	4236.7
25599	6.9848	5.7273	0.1	4273.6
25600	7.0767	5.6364	0.1	4242.2
25601	7.0767	5.8182	0.1	4248.2
25602	6.9848	5.9091	0.1	4277.8
25603	7.1686	0.27273	0.1	4216.7
25604	7.2605	0.18182	0.1	4191.4
25605	7.1686	9.0909e-002	0.1	4220.5
25606	7.1686	0.45455	0.1	4211.2
25607	7.2605	0.36364	0.1	4185.7
25608	7.1686	0.63636	0.1	4206.
25609	7.2605	0.54545	0.1	4180.6
25610	7.1686	0.81818	0.1	4201.
25611	7.2605	0.72727	0.1	4175.6
25612	7.1686	1.	0.1	4196.1
25613	7.2605	0.90909	0.1	4170.9
25614	7.1686	1.1818	0.1	4191.5
25615	7.2605	1.0909	0.1	4166.3
25616	7.1686	1.3636	0.1	4187.3
25617	7.2605	1.2727	0.1	4162.
25618	7.1686	1.5455	0.1	4183.3
25619	7.2605	1.4545	0.1	4158.
25620	7.1686	1.7273	0.1	4179.7
25621	7.2605	1.6364	0.1	4154.4
25622	7.1686	1.9091	0.1	4176.5
25623	7.2605	1.8182	0.1	4151.1
25624	7.1686	2.0909	0.1	4173.7
25625	7.2605	2.	0.1	4148.2
25626	7.1686	2.2727	0.1	4171.4
25627	7.2605	2.1818	0.1	4145.8
25628	7.1686	2.4545	0.1	4169.6
25629	7.2605	2.3636	0.1	4143.8
25630	7.1686	2.6364	0.1	4168.3
25631	7.2605	2.5455	0.1	4142.3
25632	7.1686	2.8182	0.1	4167.5
25633	7.2605	2.7273	0.1	4141.3
25634	7.1686	3.	0.1	4167.3
25635	7.2605	2.9091	0.1	4140.8
25636	7.1686	3.1818	0.1	4167.5
25637	7.2605	3.0909	0.1	4140.8
25638	7.1686	3.3636	0.1	4168.3
25639	7.2605	3.2727	0.1	4141.3
25640	7.1686	3.5455	0.1	4169.6
25641	7.2605	3.4545	0.1	4142.3
25642	7.1686	3.7273	0.1	4171.4
25643	7.2605	3.6364	0.1	4143.8
25644	7.1686	3.9091	0.1	4173.7
25645	7.2605	3.8182	0.1	4145.8
25646	7.1686	4.0909	0.1	4176.5
25647	7.2605	4.	0.1	4148.2
25648	7.1686	4.2727	0.1	4179.7
25649	7.2605	4.1818	0.1	4151.1
25650	7.1686	4.4545	0.1	4183.3
25651	7.2605	4.3636	0.1	4154.4
25652	7.1686	4.6364	0.1	4187.3
25653	7.2605	4.5455	0.1	4158.
25654	7.1686	4.8182	0.1	4191.5
25655	7.2605	4.7273	0.1	4162.
25656	7.1686	5.	0.1	4196.1
25657	7.2605	4.9091	0.1	4166.3
25658	7.1686	5.1818	0.1	4201.
25659	7.2605	5.0909	0.1	4170.9
25660	7.1686	5.3636	0.1	4206.
25661	7.2605	5.2727	0.1	4175.6
25662	7.1686	5.5455	0.1	4211.2
25663	7.2605	5.4545	0.1	4180.6
25664	7.1686	5.7273	0.1	4216.7
25665	7.2605	5.6364	0.1	4185.7
25666	7.2605	5.8182	0.1	4191.4
25667	7.1686	5.9091	0.1	4220.5
25668	7.3524	0.27273	0.1	4160.3
25669	7.4443	0.18182	0.1	4134.9
25670	7.3524	9.0909e-002	0.1	4163.6
25671	7.3524	0.45455	0.1	4155.1
25672	7.4443	0.36364	0.1	4129.5
25673	7.3524	0.63636	0.1	4150.2
25674	7.4443	0.54545	0.1	4124.8
25675	7.3524	0.81818	0.1	4145.5
25676	7.4443	0.72727	0.1	4120.2
25677	7.3524	1.	0.1	4141.
25678	7.4443	0.90909	0.1	4115.7
25679	7.3524	1.1818	0.1	4136.8
25680	7.4443	1.0909	0.1	4111.5
25681	7.3524	1.3636	0.1	4132.8
25682	7.4443	1.2727	0.1	4107.5
25683	7.3524	1.5455	0.1	4129.1
25684	7.4443	1.4545	0.1	4103.8
25685	7.3524	1.7273	0.1	4125.8
25686	7.4443	1.6364	0.1	4100.4
25687	7.3524	1.9091	0.1	4122.8
25688	7.4443	1.8182	0.1	4097.4
25689	7.3524	2.0909	0.1	4120.3
25690	7.4443	2.	0.1	4094.7
25691	7.3524	2.2727	0.1	4118.1
25692	7.4443	2.1818	0.1	4092.5
25693	7.3524	2.4545	0.1	4116.5
25694	7.4443	2.3636	0.1	4090.6
25695	7.3524	2.6364	0.1	4115.3
25696	7.4443	2.5455	0.1	4089.2
25697	7.3524	2.8182	0.1	4114.5
25698	7.4443	2.7273	0.1	4088.3
25699	7.3524	3.	0.1	4114.3
25700	7.4443	2.9091	0.1	4087.8
25701	7.3524	3.1818	0.1	4114.5
25702	7.4443	3.0909	0.1	4087.8
25703	7.3524	3.3636	0.1	4115.3
25704	7.4443	3.2727	0.1	4088.3
25705	7.3524	3.5455	0.1	4116.5
25706	7.4443	3.4545	0.1	4089.2
25707	7.3524	3.7273	0.1	4118.1
25708	7.4443	3.6364	0.1	4090.6
25709	7.3524	3.9091	0.1	4120.3
25710	7.4443	3.8182	0.1	4092.5
25711	7.3524	4.0909	0.1	4122.8
25712	7.4443	4.	0.1	4094.7
25713	7.3524	4.2727	0.1	4125.8
25714	7.4443	4.1818	0.1	4097.4
25715	7.3524	4.4545	0.1	4129.1
25716	7.4443	4.3636	0.1	4100.4
25717	7.3524	4.6364	0.1	4132.8
25718	7.4443	4.5455	0.1	4103.8
25719	7.3524	4.8182	0.1	4136.8
25720	7.4443	4.7273	0.1	4107.5
25721	7.3524	5.	0.1	4141.
25722	7.4443	4.9091	0.1	4111.5
25723	7.3524	5.1818	0.1	4145.5
25724	7.4443	5.0909	0.1	4115.7
25725	7.3524	5.3636	0.1	4150.2
25726	7.4443	5.2727	0.1	4120.2
25727	7.3524	5.5455	0.1	4155.1
25728	7.4443	5.4545	0.1	4124.8
25729	7.3524	5.7273	0.1	4160.3
25730	7.4443	5.6364	0.1	4129.5
25731	7.4443	5.8182	0.1	4134.9
25732	7.3524	5.9091	0.1	4163.6
25733	7.5362	0.27273	0.1	4104.2
25734	7.6281	0.18182	0.1	4078.9
25735	7.5362	9.0909e-002	0.1	4107.
25736	7.5362	0.45455	0.1	4099.3
25737	7.6281	0.36364	0.1	4073.7
25738	7.5362	0.63636	0.1	4094.7
25739	7.6281	0.54545	0.1	4069.3
25740	7.5362	0.81818	0.1	4090.4
25741	7.6281	0.72727	0.1	4065.
25742	7.5362	1.	0.1	4086.2
25743	7.6281	0.90909	0.1	4060.9
25744	7.5362	1.1818	0.1	4082.2
25745	7.6281	1.0909	0.1	4056.9
25746	7.5362	1.3636	0.1	4078.5
25747	7.6281	1.2727	0.1	4053.2
25748	7.5362	1.5455	0.1	4075.1
25749	7.6281	1.4545	0.1	4049.8
25750	7.5362	1.7273	0.1	4072.
25751	7.6281	1.6364	0.1	4046.6
25752	7.5362	1.9091	0.1	4069.3
25753	7.6281	1.8182	0.1	4043.8
25754	7.5362	2.0909	0.1	4066.9
25755	7.6281	2.	0.1	4041.3
25756	7.5362	2.2727	0.1	4064.9
25757	7.6281	2.1818	0.1	4039.2
25758	7.5362	2.4545	0.1	4063.4
25759	7.6281	2.3636	0.1	4037.5
25760	7.5362	2.6364	0.1	4062.3
25761	7.6281	2.5455	0.1	4036.3
25762	7.5362	2.8182	0.1	4061.6
25763	7.6281	2.7273	0.1	4035.4
25764	7.5362	3.	0.1	4061.4
25765	7.6281	2.9091	0.1	4034.9
25766	7.5362	3.1818	0.1	4061.6
25767	7.6281	3.0909	0.1	4034.9
25768	7.5362	3.3636	0.1	4062.3
25769	7.6281	3.2727	0.1	4035.4
25770	7.5362	3.5455	0.1	4063.4
25771	7.6281	3.4545	0.1	4036.3
25772	7.5362	3.7273	0.1	4064.9
25773	7.6281	3.6364	0.1	4037.5
25774	7.5362	3.9091	0.1	4066.9
25775	7.6281	3.8182	0.1	4039.2
25776	7.5362	4.0909	0.1	4069.3
25777	7.6281	4.	0.1	4041.3
25778	7.5362	4.2727	0.1	4072.
25779	7.6281	4.1818	0.1	4043.8
25780	7.5362	4.4545	0.1	4075.1
25781	7.6281	4.3636	0.1	4046.6
25782	7.5362	4.6364	0.1	4078.5
25783	7.6281	4.5455	0.1	4049.8
25784	7.5362	4.8182	0.1	4082.2
25785	7.6281	4.7273	0.1	4053.2
25786	7.5362	5.	0.1	4086.2
25787	7.6281	4.9091	0.1	4056.9
25788	7.5362	5.1818	0.1	4090.4
25789	7.6281	5.0909	0.1	4060.9
25790	7.5362	5.3636	0.1	4094.7
25791	7.6281	5.2727	0.1	4065.
25792	7.5362	5.5455	0.1	4099.3
25793	7.6281	5.4545	0.1	4069.3
25794	7.5362	5.7273	0.1	4104.2
25795	7.6281	5.6364	0.1	4073.7
25796	7.6281	5.8182	0.1	4078.9
25797	7.5362	5.9091	0.1	4107.
25798	7.72	0.27273	0.1	4048.4
25799	7.8119	0.18182	0.1	4023.2
25800	7.72	9.0909e-002	0.1	4050.9
25801	7.72	0.45455	0.1	4043.8
25802	7.8119	0.36364	0.1	4018.3
25803	7.72	0.63636	0.1	4039.6
25804	7.8119	0.54545	0.1	4014.1
25805	7.72	0.81818	0.1	4035.5
25806	7.8119	0.72727	0.1	4010.1
25807	7.72	1.	0.1	4031.6
25808	7.8119	0.90909	0.1	4006.2
25809	7.72	1.1818	0.1	4027.9
25810	7.8119	1.0909	0.1	4002.6
25811	7.72	1.3636	0.1	4024.5
25812	7.8119	1.2727	0.1	3999.1
25813	7.72	1.5455	0.1	4021.3
25814	7.8119	1.4545	0.1	3995.9
25815	7.72	1.7273	0.1	4018.4
25816	7.8119	1.6364	0.1	3993.
25817	7.72	1.9091	0.1	4015.9
25818	7.8119	1.8182	0.1	3990.4
25819	7.72	2.0909	0.1	4013.7
25820	7.8119	2.	0.1	3988.1
25821	7.72	2.2727	0.1	4011.8
25822	7.8119	2.1818	0.1	3986.1
25823	7.72	2.4545	0.1	4010.4
25824	7.8119	2.3636	0.1	3984.6
25825	7.72	2.6364	0.1	4009.4
25826	7.8119	2.5455	0.1	3983.4
25827	7.72	2.8182	0.1	4008.7
25828	7.8119	2.7273	0.1	3982.6
25829	7.72	3.	0.1	4008.5
25830	7.8119	2.9091	0.1	3982.2
25831	7.72	3.1818	0.1	4008.7
25832	7.8119	3.0909	0.1	3982.2
25833	7.72	3.3636	0.1	4009.4
25834	7.8119	3.2727	0.1	3982.6
25835	7.72	3.5455	0.1	4010.4
25836	7.8119	3.4545	0.1	3983.4
25837	7.72	3.7273	0.1	4011.8
25838	7.8119	3.6364	0.1	3984.6
25839	7.72	3.9091	0.1	4013.7
25840	7.8119	3.8182	0.1	3986.1
25841	7.72	4.0909	0.1	4015.9
25842	7.8119	4.	0.1	3988.1
25843	7.72	4.2727	0.1	4018.4
25844	7.8119	4.1818	0.1	3990.4
25845	7.72	4.4545	0.1	4021.3
25846	7.8119	4.3636	0.1	3993.
25847	7.72	4.6364	0.1	4024.5
25848	7.8119	4.5455	0.1	3995.9
25849	7.72	4.8182	0.1	4027.9
25850	7.8119	4.7273	0.1	3999.1
25851	7.72	5.	0.1	4031.6
25852	7.8119	4.9091	0.1	4002.6
25853	7.72	5.1818	0.1	4035.5
25854	7.8119	5.0909	0.1	4006.2
25855	7.72	5.3636	0.1	4039.6
25856	7.8119	5.2727	0.1	4010.1
25857	7.72	5.5455	0.1	4043.8
25858	7.8119	5.4545	0.1	4014.1
25859	7.72	5.7273	0.1	4048.4
25860	7.8119	5.6364	0.1	4018.3
25861	7.8119	5.8182	0.1	4023.2
25862	7.72	5.9091	0.1	4050.9
25863	7.9038	0.27273	0.1	3993.
25864	7.9957	0.18182	0.1	3967.8
25865	7.9038	9.0909e-002	0.1	3995.1
25866	7.9038	0.45455	0.1	3988.6
25867	7.9957	0.36364	0.1	3963.1
25868	7.9038	0.63636	0.1	3984.7
25869	7.9957	0.54545	0.1	3959.2
25870	7.9038	0.81818	0.1	3980.8
25871	7.9957	0.72727	0.1	3955.5
25872	7.9038	1.	0.1	3977.2
25873	7.9957	0.90909	0.1	3951.9
25874	7.9038	1.1818	0.1	3973.8
25875	7.9957	1.0909	0.1	3948.4
25876	7.9038	1.3636	0.1	3970.6
25877	7.9957	1.2727	0.1	3945.2
25878	7.9038	1.5455	0.1	3967.6
25879	7.9957	1.4545	0.1	3942.3
25880	7.9038	1.7273	0.1	3965.
25881	7.9957	1.6364	0.1	3939.5
25882	7.9038	1.9091	0.1	3962.6
25883	7.9957	1.8182	0.1	3937.1
25884	7.9038	2.0909	0.1	3960.6
25885	7.9957	2.	0.1	3935.
25886	7.9038	2.2727	0.1	3958.9
25887	7.9957	2.1818	0.1	3933.2
25888	7.9038	2.4545	0.1	3957.5
25889	7.9957	2.3636	0.1	3931.7
25890	7.9038	2.6364	0.1	3956.6
25891	7.9957	2.5455	0.1	3930.6
25892	7.9038	2.8182	0.1	3956.
25893	7.9957	2.7273	0.1	3929.9
25894	7.9038	3.	0.1	3955.8
25895	7.9957	2.9091	0.1	3929.5
25896	7.9038	3.1818	0.1	3956.
25897	7.9957	3.0909	0.1	3929.5
25898	7.9038	3.3636	0.1	3956.6
25899	7.9957	3.2727	0.1	3929.9
25900	7.9038	3.5455	0.1	3957.5
25901	7.9957	3.4545	0.1	3930.6
25902	7.9038	3.7273	0.1	3958.9
25903	7.9957	3.6364	0.1	3931.7
25904	7.9038	3.9091	0.1	3960.6
25905	7.9957	3.8182	0.1	3933.2
25906	7.9038	4.0909	0.1	3962.6
25907	7.9957	4.	0.1	3935.
25908	7.9038	4.2727	0.1	3965.
25909	7.9957	4.1818	0.1	3937.1
25910	7.9038	4.4545	0.1	3967.6
25911	7.9957	4.3636	0.1	3939.5
25912	7.9038	4.6364	0.1	3970.6
25913	7.9957	4.5455	0.1	3942.3
25914	7.9038	4.8182	0.1	3973.8
25915	7.9957	4.7273	0.1	3945.2
25916	7.9038	5.	0.1	3977.2
25917	7.9957	4.9091	0.1	3948.4
25918	7.9038	5.1818	0.1	3980.8
25919	7.9957	5.0909	0.1	3951.9
25920	7.9038	5.3636	0.1	3984.6
25921	7.9957	5.2727	0.1	3955.5
25922	7.9038	5.5455	0.1	3988.6
25923	7.9957	5.4545	0.1	3959.2
25924	7.9038	5.7273	0.1	3993.
25925	7.9957	5.6364	0.1	3963.1
25926	7.9957	5.8182	0.1	3967.8
25927	7.9038	5.9091	0.1	3995.1
25928	8.0876	0.27273	0.1	3937.9
25929	8.1795	0.18182	0.1	3912.7
25930	8.0876	9.0909e-002	0.1	3939.6
25931	8.0876	0.45455	0.1	3933.7
25932	8.1795	0.36364	0.1	3908.3
25933	8.0876	0.63636	0.1	3930.
25934	8.1795	0.54545	0.1	3904.6
25935	8.0876	0.81818	0.1	3926.5
25936	8.1795	0.72727	0.1	3901.1
25937	8.0876	1.	0.1	3923.1
25938	8.1795	0.90909	0.1	3897.7
25939	8.0876	1.1818	0.1	3919.9
25940	8.1795	1.0909	0.1	3894.5
25941	8.0876	1.3636	0.1	3916.9
25942	8.1795	1.2727	0.1	3891.6
25943	8.0876	1.5455	0.1	3914.2
25944	8.1795	1.4545	0.1	3888.8
25945	8.0876	1.7273	0.1	3911.7
25946	8.1795	1.6364	0.1	3886.3
25947	8.0876	1.9091	0.1	3909.5
25948	8.1795	1.8182	0.1	3884.
25949	8.0876	2.0909	0.1	3907.6
25950	8.1795	2.	0.1	3882.
25951	8.0876	2.2727	0.1	3906.
25952	8.1795	2.1818	0.1	3880.3
25953	8.0876	2.4545	0.1	3904.8
25954	8.1795	2.3636	0.1	3879.
25955	8.0876	2.6364	0.1	3903.9
25956	8.1795	2.5455	0.1	3877.9
25957	8.0876	2.8182	0.1	3903.3
25958	8.1795	2.7273	0.1	3877.3
25959	8.0876	3.	0.1	3903.2
25960	8.1795	2.9091	0.1	3876.9
25961	8.0876	3.1818	0.1	3903.3
25962	8.1795	3.0909	0.1	3876.9
25963	8.0876	3.3636	0.1	3903.9
25964	8.1795	3.2727	0.1	3877.3
25965	8.0876	3.5455	0.1	3904.8
25966	8.1795	3.4545	0.1	3877.9
25967	8.0876	3.7273	0.1	3906.
25968	8.1795	3.6364	0.1	3879.
25969	8.0876	3.9091	0.1	3907.6
25970	8.1795	3.8182	0.1	3880.3
25971	8.0876	4.0909	0.1	3909.5
25972	8.1795	4.	0.1	3882.
25973	8.0876	4.2727	0.1	3911.7
25974	8.1795	4.1818	0.1	3884.
25975	8.0876	4.4545	0.1	3914.2
25976	8.1795	4.3636	0.1	3886.3
25977	8.0876	4.6364	0.1	3916.9
25978	8.1795	4.5455	0.1	3888.8
25979	8.0876	4.8182	0.1	3919.9
25980	8.1795	4.7273	0.1	3891.6
25981	8.0876	5.	0.1	3923.1
25982	8.1795	4.9091	0.1	3894.5
25983	8.0876	5.1818	0.1	3926.5
25984	8.1795	5.0909	0.1	3897.7
25985	8.0876	5.3636	0.1	3930.
25986	8.1795	5.2727	0.1	3901.1
25987	8.0876	5.5455	0.1	3933.7
25988	8.1795	5.4545	0.1	3904.6
25989	8.0876	5.7273	0.1	3937.9
25990	8.1795	5.6364	0.1	3908.3
25991	8.1795	5.8182	0.1	3912.7
25992	8.0876	5.9091	0.1	3939.6
25993	8.2714	0.27273	0.1	3883.1
25994	8.3633	0.18182	0.1	3858.
25995	8.2714	9.0909e-002	0.1	3884.4
25996	8.2714	0.45455	0.1	3879.1
25997	8.3633	0.36364	0.1	3853.7
25998	8.2714	0.63636	0.1	3875.7
25999	8.3633	0.54545	0.1	3850.3
26000	8.2714	0.81818	0.1	3872.3
26001	8.3633	0.72727	0.1	3847.
26002	8.2714	1.	0.1	3869.2
26003	8.3633	0.90909	0.1	3843.8
26004	8.2714	1.1818	0.1	3866.2
26005	8.3633	1.0909	0.1	3840.9
26006	8.2714	1.3636	0.1	3863.4
26007	8.3633	1.2727	0.1	3838.1
26008	8.2714	1.5455	0.1	3860.9
26009	8.3633	1.4545	0.1	3835.5
26010	8.2714	1.7273	0.1	3858.6
26011	8.3633	1.6364	0.1	3833.1
26012	8.2714	1.9091	0.1	3856.5
26013	8.3633	1.8182	0.1	3831.
26014	8.2714	2.0909	0.1	3854.8
26015	8.3633	2.	0.1	3829.2
26016	8.2714	2.2727	0.1	3853.3
26017	8.3633	2.1818	0.1	3827.6
26018	8.2714	2.4545	0.1	3852.1
26019	8.3633	2.3636	0.1	3826.4
26020	8.2714	2.6364	0.1	3851.3
26021	8.3633	2.5455	0.1	3825.4
26022	8.2714	2.8182	0.1	3850.8
26023	8.3633	2.7273	0.1	3824.8
26024	8.2714	3.	0.1	3850.6
26025	8.3633	2.9091	0.1	3824.4
26026	8.2714	3.1818	0.1	3850.8
26027	8.3633	3.0909	0.1	3824.4
26028	8.2714	3.3636	0.1	3851.3
26029	8.3633	3.2727	0.1	3824.8
26030	8.2714	3.5455	0.1	3852.1
26031	8.3633	3.4545	0.1	3825.4
26032	8.2714	3.7273	0.1	3853.3
26033	8.3633	3.6364	0.1	3826.4
26034	8.2714	3.9091	0.1	3854.8
26035	8.3633	3.8182	0.1	3827.6
26036	8.2714	4.0909	0.1	3856.5
26037	8.3633	4.	0.1	3829.2
26038	8.2714	4.2727	0.1	3858.6
26039	8.3633	4.1818	0.1	3831.
26040	8.2714	4.4545	0.1	3860.9
26041	8.3633	4.3636	0.1	3833.1
26042	8.2714	4.6364	0.1	3863.4
26043	8.3633	4.5455	0.1	3835.5
26044	8.2714	4.8182	0.1	3866.2
26045	8.3633	4.7273	0.1	3838.1
26046	8.2714	5.	0.1	3869.2
26047	8.3633	4.9091	0.1	3840.9
26048	8.2714	5.1818	0.1	3872.3
26049	8.3633	5.0909	0.1	3843.8
26050	8.2714	5.3636	0.1	3875.7
26051	8.3633	5.2727	0.1	3847.
26052	8.2714	5.5455	0.1	3879.1
26053	8.3633	5.4545	0.1	3850.3
26054	8.2714	5.7273	0.1	3883.1
26055	8.3633	5.6364	0.1	3853.7
26056	8.3633	5.8182	0.1	3858.
26057	8.2714	5.9091	0.1	3884.4
26058	8.4552	0.27273	0.1	3828.6
26059	8.5471	0.18182	0.1	3803.5
26060	8.4552	9.0909e-002	0.1	3829.6
26061	8.4552	0.45455	0.1	3824.8
26062	8.5471	0.36364	0.1	3799.4
26063	8.4552	0.63636	0.1	3821.6
26064	8.5471	0.54545	0.1	3796.2
26065	8.4552	0.81818	0.1	3818.5
26066	8.5471	0.72727	0.1	3793.1
26067	8.4552	1.	0.1	3815.5
26068	8.5471	0.90909	0.1	3790.2
26069	8.4552	1.1818	0.1	3812.7
26070	8.5471	1.0909	0.1	3787.4
26071	8.4552	1.3636	0.1	3810.1
26072	8.5471	1.2727	0.1	3784.8
26073	8.4552	1.5455	0.1	3807.7
26074	8.5471	1.4545	0.1	3782.4
26075	8.4552	1.7273	0.1	3805.6
26076	8.5471	1.6364	0.1	3780.2
26077	8.4552	1.9091	0.1	3803.7
26078	8.5471	1.8182	0.1	3778.2
26079	8.4552	2.0909	0.1	3802.1
26080	8.5471	2.	0.1	3776.5
26081	8.4552	2.2727	0.1	3800.7
26082	8.5471	2.1818	0.1	3775.1
26083	8.4552	2.4545	0.1	3799.6
26084	8.5471	2.3636	0.1	3773.9
26085	8.4552	2.6364	0.1	3798.9
26086	8.5471	2.5455	0.1	3773.
26087	8.4552	2.8182	0.1	3798.4
26088	8.5471	2.7273	0.1	3772.4
26089	8.4552	3.	0.1	3798.2
26090	8.5471	2.9091	0.1	3772.1
26091	8.4552	3.1818	0.1	3798.4
26092	8.5471	3.0909	0.1	3772.1
26093	8.4552	3.3636	0.1	3798.9
26094	8.5471	3.2727	0.1	3772.4
26095	8.4552	3.5455	0.1	3799.6
26096	8.5471	3.4545	0.1	3773.
26097	8.4552	3.7273	0.1	3800.7
26098	8.5471	3.6364	0.1	3773.9
26099	8.4552	3.9091	0.1	3802.1
26100	8.5471	3.8182	0.1	3775.1
26101	8.4552	4.0909	0.1	3803.7
26102	8.5471	4.	0.1	3776.5
26103	8.4552	4.2727	0.1	3805.6
26104	8.5471	4.1818	0.1	3778.2
26105	8.4552	4.4545	0.1	3807.7
26106	8.5471	4.3636	0.1	3780.2
26107	8.4552	4.6364	0.1	3810.1
26108	8.5471	4.5455	0.1	3782.4
26109	8.4552	4.8182	0.1	3812.7
26110	8.5471	4.7273	0.1	3784.8
26111	8.4552	5.	0.1	3815.5
26112	8.5471	4.9091	0.1	3787.4
26113	8.4552	5.1818	0.1	3818.5
26114	8.5471	5.0909	0.1	3790.2
26115	8.4552	5.3636	0.1	3821.6
26116	8.5471	5.2727	0.1	3793.1
26117	8.4552	5.5455	0.1	3824.8
26118	8.5471	5.4545	0.1	3796.2
26119	8.4552	5.7273	0.1	3828.6
26120	8.5471	5.6364	0.1	3799.4
26121	8.5471	5.8182	0.1	3803.5
26122	8.4552	5.9091	0.1	3829.6
26123	8.639	0.27273	0.1	3774.3
26124	8.731	0.18182	0.1	3749.4
26125	8.639	9.0909e-002	0.1	3775.1
26126	8.639	0.45455	0.1	3770.8
26127	8.731	0.36364	0.1	3745.4
26128	8.639	0.63636	0.1	3767.7
26129	8.731	0.54545	0.1	3742.4
26130	8.639	0.81818	0.1	3764.8
26131	8.731	0.72727	0.1	3739.5
26132	8.639	1.	0.1	3762.1
26133	8.731	0.90909	0.1	3736.7
26134	8.639	1.1818	0.1	3759.4
26135	8.731	1.0909	0.1	3734.1
26136	8.639	1.3636	0.1	3757.
26137	8.731	1.2727	0.1	3731.7
26138	8.639	1.5455	0.1	3754.8
26139	8.731	1.4545	0.1	3729.5
26140	8.639	1.7273	0.1	3752.8
26141	8.731	1.6364	0.1	3727.4
26142	8.639	1.9091	0.1	3751.
26143	8.731	1.8182	0.1	3725.6
26144	8.639	2.0909	0.1	3749.5
26145	8.731	2.	0.1	3724.
26146	8.639	2.2727	0.1	3748.2
26147	8.731	2.1818	0.1	3722.6
26148	8.639	2.4545	0.1	3747.2
26149	8.731	2.3636	0.1	3721.5
26150	8.639	2.6364	0.1	3746.5
26151	8.731	2.5455	0.1	3720.7
26152	8.639	2.8182	0.1	3746.1
26153	8.731	2.7273	0.1	3720.2
26154	8.639	3.	0.1	3746.
26155	8.731	2.9091	0.1	3719.9
26156	8.639	3.1818	0.1	3746.1
26157	8.731	3.0909	0.1	3719.9
26158	8.639	3.3636	0.1	3746.5
26159	8.731	3.2727	0.1	3720.2
26160	8.639	3.5455	0.1	3747.2
26161	8.731	3.4545	0.1	3720.7
26162	8.639	3.7273	0.1	3748.2
26163	8.731	3.6364	0.1	3721.5
26164	8.639	3.9091	0.1	3749.5
26165	8.731	3.8182	0.1	3722.6
26166	8.639	4.0909	0.1	3751.
26167	8.731	4.	0.1	3724.
26168	8.639	4.2727	0.1	3752.8
26169	8.731	4.1818	0.1	3725.6
26170	8.639	4.4545	0.1	3754.8
26171	8.731	4.3636	0.1	3727.4
26172	8.639	4.6364	0.1	3757.
26173	8.731	4.5455	0.1	3729.5
26174	8.639	4.8182	0.1	3759.4
26175	8.731	4.7273	0.1	3731.7
26176	8.639	5.	0.1	3762.1
26177	8.731	4.9091	0.1	3734.1
26178	8.639	5.1818	0.1	3764.8
26179	8.731	5.0909	0.1	3736.7
26180	8.639	5.3636	0.1	3767.7
26181	8.731	5.2727	0.1	3739.5
26182	8.639	5.5455	0.1	3770.8
26183	8.731	5.4545	0.1	3742.4
26184	8.639	5.7273	0.1	3774.3
26185	8.731	5.6364	0.1	3745.4
26186	8.731	5.8182	0.1	3749.4
26187	8.639	5.9091	0.1	3775.1
26188	8.8229	0.27273	0.1	3720.4
26189	8.9148	0.18182	0.1	3695.5
26190	8.8229	9.0909e-002	0.1	3720.9
26191	8.8229	0.45455	0.1	3717.
26192	8.9148	0.36364	0.1	3691.7
26193	8.8229	0.63636	0.1	3714.1
26194	8.9148	0.54545	0.1	3688.8
26195	8.8229	0.81818	0.1	3711.4
26196	8.9148	0.72727	0.1	3686.1
26197	8.8229	1.	0.1	3708.8
26198	8.9148	0.90909	0.1	3683.5
26199	8.8229	1.1818	0.1	3706.4
26200	8.9148	1.0909	0.1	3681.1
26201	8.8229	1.3636	0.1	3704.1
26202	8.9148	1.2727	0.1	3678.8
26203	8.8229	1.5455	0.1	3702.
26204	8.9148	1.4545	0.1	3676.7
26205	8.8229	1.7273	0.1	3700.2
26206	8.9148	1.6364	0.1	3674.8
26207	8.8229	1.9091	0.1	3698.5
26208	8.9148	1.8182	0.1	3673.1
26209	8.8229	2.0909	0.1	3697.1
26210	8.9148	2.	0.1	3671.6
26211	8.8229	2.2727	0.1	3695.9
26212	8.9148	2.1818	0.1	3670.4
26213	8.8229	2.4545	0.1	3695.
26214	8.9148	2.3636	0.1	3669.3
26215	8.8229	2.6364	0.1	3694.3
26216	8.9148	2.5455	0.1	3668.6
26217	8.8229	2.8182	0.1	3693.9
26218	8.9148	2.7273	0.1	3668.
26219	8.8229	3.	0.1	3693.8
26220	8.9148	2.9091	0.1	3667.8
26221	8.8229	3.1818	0.1	3693.9
26222	8.9148	3.0909	0.1	3667.8
26223	8.8229	3.3636	0.1	3694.3
26224	8.9148	3.2727	0.1	3668.
26225	8.8229	3.5455	0.1	3695.
26226	8.9148	3.4545	0.1	3668.6
26227	8.8229	3.7273	0.1	3695.9
26228	8.9148	3.6364	0.1	3669.3
26229	8.8229	3.9091	0.1	3697.1
26230	8.9148	3.8182	0.1	3670.4
26231	8.8229	4.0909	0.1	3698.5
26232	8.9148	4.	0.1	3671.6
26233	8.8229	4.2727	0.1	3700.2
26234	8.9148	4.1818	0.1	3673.1
26235	8.8229	4.4545	0.1	3702.
26236	8.9148	4.3636	0.1	3674.8
26237	8.8229	4.6364	0.1	3704.1
26238	8.9148	4.5455	0.1	3676.7
26239	8.8229	4.8182	0.1	3706.4
26240	8.9148	4.7273	0.1	3678.8
26241	8.8229	5.	0.1	3708.8
26242	8.9148	4.9091	0.1	3681.1
26243	8.8229	5.1818	0.1	3711.4
26244	8.9148	5.0909	0.1	3683.5
26245	8.8229	5.3636	0.1	3714.1
26246	8.9148	5.2727	0.1	3686.1
26247	8.8229	5.5455	0.1	3717.
26248	8.9148	5.4545	0.1	3688.8
26249	8.8229	5.7273	0.1	3720.4
26250	8.9148	5.6364	0.1	3691.7
26251	8.9148	5.8182	0.1	3695.5
26252	8.8229	5.9091	0.1	3720.9
26253	9.0067	0.27273	0.1	3666.7
26254	9.0986	0.18182	0.1	3641.9
26255	9.0067	9.0909e-002	0.1	3666.9
26256	9.0067	0.45455	0.1	3663.5
26257	9.0986	0.36364	0.1	3638.2
26258	9.0067	0.63636	0.1	3660.8
26259	9.0986	0.54545	0.1	3635.5
26260	9.0067	0.81818	0.1	3658.2
26261	9.0986	0.72727	0.1	3633.
26262	9.0067	1.	0.1	3655.8
26263	9.0986	0.90909	0.1	3630.5
26264	9.0067	1.1818	0.1	3653.5
26265	9.0986	1.0909	0.1	3628.3
26266	9.0067	1.3636	0.1	3651.4
26267	9.0986	1.2727	0.1	3626.1
26268	9.0067	1.5455	0.1	3649.5
26269	9.0986	1.4545	0.1	3624.2
26270	9.0067	1.7273	0.1	3647.7
26271	9.0986	1.6364	0.1	3622.4
26272	9.0067	1.9091	0.1	3646.2
26273	9.0986	1.8182	0.1	3620.8
26274	9.0067	2.0909	0.1	3644.8
26275	9.0986	2.	0.1	3619.4
26276	9.0067	2.2727	0.1	3643.8
26277	9.0986	2.1818	0.1	3618.2
26278	9.0067	2.4545	0.1	3642.9
26279	9.0986	2.3636	0.1	3617.3
26280	9.0067	2.6364	0.1	3642.3
26281	9.0986	2.5455	0.1	3616.6
26282	9.0067	2.8182	0.1	3641.9
26283	9.0986	2.7273	0.1	3616.1
26284	9.0067	3.	0.1	3641.8
26285	9.0986	2.9091	0.1	3615.8
26286	9.0067	3.1818	0.1	3641.9
26287	9.0986	3.0909	0.1	3615.8
26288	9.0067	3.3636	0.1	3642.3
26289	9.0986	3.2727	0.1	3616.1
26290	9.0067	3.5455	0.1	3642.9
26291	9.0986	3.4545	0.1	3616.6
26292	9.0067	3.7273	0.1	3643.8
26293	9.0986	3.6364	0.1	3617.3
26294	9.0067	3.9091	0.1	3644.8
26295	9.0986	3.8182	0.1	3618.2
26296	9.0067	4.0909	0.1	3646.2
26297	9.0986	4.	0.1	3619.4
26298	9.0067	4.2727	0.1	3647.7
26299	9.0986	4.1818	0.1	3620.8
26300	9.0067	4.4545	0.1	3649.5
26301	9.0986	4.3636	0.1	3622.4
26302	9.0067	4.6364	0.1	3651.4
26303	9.0986	4.5455	0.1	3624.2
26304	9.0067	4.8182	0.1	3653.5
26305	9.0986	4.7273	0.1	3626.1
26306	9.0067	5.	0.1	3655.8
26307	9.0986	4.9091	0.1	3628.3
26308	9.0067	5.1818	0.1	3658.2
26309	9.0986	5.0909	0.1	3630.5
26310	9.0067	5.3636	0.1	3660.8
26311	9.0986	5.2727	0.1	3633.
26312	9.0067	5.5455	0.1	3663.5
26313	9.0986	5.4545	0.1	3635.5
26314	9.0067	5.7273	0.1	3666.7
26315	9.0986	5.6364	0.1	3638.2
26316	9.0986	5.8182	0.1	3641.9
26317	9.0067	5.9091	0.1	3666.9
26318	9.1905	0.27273	0.1	3613.3
26319	9.2824	0.18182	0.1	3588.6
26320	9.1905	9.0909e-002	0.1	3613.3
26321	9.1905	0.45455	0.1	3610.2
26322	9.2824	0.36364	0.1	3585.
26323	9.1905	0.63636	0.1	3607.7
26324	9.2824	0.54545	0.1	3582.5
26325	9.1905	0.81818	0.1	3605.3
26326	9.2824	0.72727	0.1	3580.1
26327	9.1905	1.	0.1	3603.
26328	9.2824	0.90909	0.1	3577.8
26329	9.1905	1.1818	0.1	3600.9
26330	9.2824	1.0909	0.1	3575.6
26331	9.1905	1.3636	0.1	3598.9
26332	9.2824	1.2727	0.1	3573.6
26333	9.1905	1.5455	0.1	3597.1
26334	9.2824	1.4545	0.1	3571.8
26335	9.1905	1.7273	0.1	3595.4
26336	9.2824	1.6364	0.1	3570.1
26337	9.1905	1.9091	0.1	3594.
26338	9.2824	1.8182	0.1	3568.6
26339	9.1905	2.0909	0.1	3592.8
26340	9.2824	2.	0.1	3567.3
26341	9.1905	2.2727	0.1	3591.7
26342	9.2824	2.1818	0.1	3566.2
26343	9.1905	2.4545	0.1	3590.9
26344	9.2824	2.3636	0.1	3565.4
26345	9.1905	2.6364	0.1	3590.3
26346	9.2824	2.5455	0.1	3564.7
26347	9.1905	2.8182	0.1	3590.
26348	9.2824	2.7273	0.1	3564.2
26349	9.1905	3.	0.1	3589.9
26350	9.2824	2.9091	0.1	3564.
26351	9.1905	3.1818	0.1	3590.
26352	9.2824	3.0909	0.1	3564.
26353	9.1905	3.3636	0.1	3590.3
26354	9.2824	3.2727	0.1	3564.2
26355	9.1905	3.5455	0.1	3590.9
26356	9.2824	3.4545	0.1	3564.7
26357	9.1905	3.7273	0.1	3591.7
26358	9.2824	3.6364	0.1	3565.4
26359	9.1905	3.9091	0.1	3592.8
26360	9.2824	3.8182	0.1	3566.2
26361	9.1905	4.0909	0.1	3594.
26362	9.2824	4.	0.1	3567.3
26363	9.1905	4.2727	0.1	3595.4
26364	9.2824	4.1818	0.1	3568.6
26365	9.1905	4.4545	0.1	3597.1
26366	9.2824	4.3636	0.1	3570.1
26367	9.1905	4.6364	0.1	3598.9
26368	9.2824	4.5455	0.1	3571.8
26369	9.1905	4.8182	0.1	3600.9
26370	9.2824	4.7273	0.1	3573.6
26371	9.1905	5.	0.1	3603.
26372	9.2824	4.9091	0.1	3575.6
26373	9.1905	5.1818	0.1	3605.3
26374	9.2824	5.0909	0.1	3577.8
26375	9.1905	5.3636	0.1	3607.7
26376	9.2824	5.2727	0.1	3580.1
26377	9.1905	5.5455	0.1	3610.2
26378	9.2824	5.4545	0.1	3582.5
26379	9.1905	5.7273	0.1	3613.3
26380	9.2824	5.6364	0.1	3585.
26381	9.2824	5.8182	0.1	3588.6
26382	9.1905	5.9091	0.1	3613.3
26383	9.3743	0.27273	0.1	3560.2
26384	9.4662	0.18182	0.1	3535.5
26385	9.3743	9.0909e-002	0.1	3559.9
26386	9.3743	0.45455	0.1	3557.2
26387	9.4662	0.36364	0.1	3532.
26388	9.3743	0.63636	0.1	3554.8
26389	9.4662	0.54545	0.1	3529.6
26390	9.3743	0.81818	0.1	3552.5
26391	9.4662	0.72727	0.1	3527.4
26392	9.3743	1.	0.1	3550.4
26393	9.4662	0.90909	0.1	3525.2
26394	9.3743	1.1818	0.1	3548.4
26395	9.4662	1.0909	0.1	3523.2
26396	9.3743	1.3636	0.1	3546.5
26397	9.4662	1.2727	0.1	3521.3
26398	9.3743	1.5455	0.1	3544.8
26399	9.4662	1.4545	0.1	3519.6
26400	9.3743	1.7273	0.1	3543.3
26401	9.4662	1.6364	0.1	3518.1
26402	9.3743	1.9091	0.1	3542.
26403	9.4662	1.8182	0.1	3516.7
26404	9.3743	2.0909	0.1	3540.8
26405	9.4662	2.	0.1	3515.4
26406	9.3743	2.2727	0.1	3539.9
26407	9.4662	2.1818	0.1	3514.4
26408	9.3743	2.4545	0.1	3539.1
26409	9.4662	2.3636	0.1	3513.6
26410	9.3743	2.6364	0.1	3538.6
26411	9.4662	2.5455	0.1	3513.
26412	9.3743	2.8182	0.1	3538.2
26413	9.4662	2.7273	0.1	3512.6
26414	9.3743	3.	0.1	3538.1
26415	9.4662	2.9091	0.1	3512.3
26416	9.3743	3.1818	0.1	3538.2
26417	9.4662	3.0909	0.1	3512.3
26418	9.3743	3.3636	0.1	3538.6
26419	9.4662	3.2727	0.1	3512.6
26420	9.3743	3.5455	0.1	3539.1
26421	9.4662	3.4545	0.1	3513.
26422	9.3743	3.7273	0.1	3539.9
26423	9.4662	3.6364	0.1	3513.6
26424	9.3743	3.9091	0.1	3540.8
26425	9.4662	3.8182	0.1	3514.4
26426	9.3743	4.0909	0.1	3542.
26427	9.4662	4.	0.1	3515.4
26428	9.3743	4.2727	0.1	3543.3
26429	9.4662	4.1818	0.1	3516.7
26430	9.3743	4.4545	0.1	3544.8
26431	9.4662	4.3636	0.1	3518.
26432	9.3743	4.6364	0.1	3546.5
26433	9.4662	4.5455	0.1	3519.6
26434	9.3743	4.8182	0.1	3548.4
26435	9.4662	4.7273	0.1	3521.3
26436	9.3743	5.	0.1	3550.4
26437	9.4662	4.9091	0.1	3523.2
26438	9.3743	5.1818	0.1	3552.5
26439	9.4662	5.0909	0.1	3525.2
26440	9.3743	5.3636	0.1	3554.8
26441	9.4662	5.2727	0.1	3527.4
26442	9.3743	5.5455	0.1	3557.2
26443	9.4662	5.4545	0.1	3529.6
26444	9.3743	5.7273	0.1	3560.2
26445	9.4662	5.6364	0.1	3532.
26446	9.4662	5.8182	0.1	3535.5
26447	9.3743	5.9091	0.1	3559.9
26448	9.5581	0.27273	0.1	3507.3
26449	9.65	0.18182	0.1	3482.7
26450	9.5581	9.0909e-002	0.1	3506.8
26451	9.5581	0.45455	0.1	3504.4
26452	9.65	0.36364	0.1	3479.3
26453	9.5581	0.63636	0.1	3502.2
26454	9.65	0.54545	0.1	3477.
26455	9.5581	0.81818	0.1	3500.
26456	9.65	0.72727	0.1	3474.9
26457	9.5581	1.	0.1	3498.
26458	9.65	0.90909	0.1	3472.9
26459	9.5581	1.1818	0.1	3496.1
26460	9.65	1.0909	0.1	3471.
26461	9.5581	1.3636	0.1	3494.4
26462	9.65	1.2727	0.1	3469.2
26463	9.5581	1.5455	0.1	3492.8
26464	9.65	1.4545	0.1	3467.6
26465	9.5581	1.7273	0.1	3491.4
26466	9.65	1.6364	0.1	3466.2
26467	9.5581	1.9091	0.1	3490.1
26468	9.65	1.8182	0.1	3464.9
26469	9.5581	2.0909	0.1	3489.
26470	9.65	2.	0.1	3463.7
26471	9.5581	2.2727	0.1	3488.1
26472	9.65	2.1818	0.1	3462.8
26473	9.5581	2.4545	0.1	3487.4
26474	9.65	2.3636	0.1	3462.
26475	9.5581	2.6364	0.1	3486.9
26476	9.65	2.5455	0.1	3461.4
26477	9.5581	2.8182	0.1	3486.6
26478	9.65	2.7273	0.1	3461.
26479	9.5581	3.	0.1	3486.5
26480	9.65	2.9091	0.1	3460.8
26481	9.5581	3.1818	0.1	3486.6
26482	9.65	3.0909	0.1	3460.8
26483	9.5581	3.3636	0.1	3486.9
26484	9.65	3.2727	0.1	3461.
26485	9.5581	3.5455	0.1	3487.4
26486	9.65	3.4545	0.1	3461.4
26487	9.5581	3.7273	0.1	3488.1
26488	9.65	3.6364	0.1	3462.
26489	9.5581	3.9091	0.1	3489.
26490	9.65	3.8182	0.1	3462.8
26491	9.5581	4.0909	0.1	3490.1
26492	9.65	4.	0.1	3463.7
26493	9.5581	4.2727	0.1	3491.4
26494	9.65	4.1818	0.1	3464.9
26495	9.5581	4.4545	0.1	3492.8
26496	9.65	4.3636	0.1	3466.2
26497	9.5581	4.6364	0.1	3494.4
26498	9.65	4.5455	0.1	3467.6
26499	9.5581	4.8182	0.1	3496.1
26500	9.65	4.7273	0.1	3469.2
26501	9.5581	5.	0.1	3498.
26502	9.65	4.9091	0.1	3471.
26503	9.5581	5.1818	0.1	3500.
26504	9.65	5.0909	0.1	3472.9
26505	9.5581	5.3636	0.1	3502.2
26506	9.65	5.2727	0.1	3474.9
26507	9.5581	5.5455	0.1	3504.4
26508	9.65	5.4545	0.1	3477.
26509	9.5581	5.7273	0.1	3507.3
26510	9.65	5.6364	0.1	3479.3
26511	9.65	5.8182	0.1	3482.7
26512	9.5581	5.9091	0.1	3506.8
26513	9.7419	0.27273	0.1	3454.6
26514	9.8338	0.18182	0.1	3430.1
26515	9.7419	9.0909e-002	0.1	3453.9
26516	9.7419	0.45455	0.1	3451.9
26517	9.8338	0.36364	0.1	3426.8
26518	9.7419	0.63636	0.1	3449.8
26519	9.8338	0.54545	0.1	3424.7
26520	9.7419	0.81818	0.1	3447.8
26521	9.8338	0.72727	0.1	3422.7
26522	9.7419	1.	0.1	3445.9
26523	9.8338	0.90909	0.1	3420.8
26524	9.7419	1.1818	0.1	3444.1
26525	9.8338	1.0909	0.1	3419.
26526	9.7419	1.3636	0.1	3442.4
26527	9.8338	1.2727	0.1	3417.3
26528	9.7419	1.5455	0.1	3441.
26529	9.8338	1.4545	0.1	3415.8
26530	9.7419	1.7273	0.1	3439.6
26531	9.8338	1.6364	0.1	3414.4
26532	9.7419	1.9091	0.1	3438.4
26533	9.8338	1.8182	0.1	3413.2
26534	9.7419	2.0909	0.1	3437.4
26535	9.8338	2.	0.1	3412.2
26536	9.7419	2.2727	0.1	3436.6
26537	9.8338	2.1818	0.1	3411.3
26538	9.7419	2.4545	0.1	3435.9
26539	9.8338	2.3636	0.1	3410.5
26540	9.7419	2.6364	0.1	3435.5
26541	9.8338	2.5455	0.1	3410.
26542	9.7419	2.8182	0.1	3435.2
26543	9.8338	2.7273	0.1	3409.6
26544	9.7419	3.	0.1	3435.1
26545	9.8338	2.9091	0.1	3409.5
26546	9.7419	3.1818	0.1	3435.2
26547	9.8338	3.0909	0.1	3409.5
26548	9.7419	3.3636	0.1	3435.5
26549	9.8338	3.2727	0.1	3409.6
26550	9.7419	3.5455	0.1	3435.9
26551	9.8338	3.4545	0.1	3410.
26552	9.7419	3.7273	0.1	3436.6
26553	9.8338	3.6364	0.1	3410.5
26554	9.7419	3.9091	0.1	3437.4
26555	9.8338	3.8182	0.1	3411.3
26556	9.7419	4.0909	0.1	3438.4
26557	9.8338	4.	0.1	3412.2
26558	9.7419	4.2727	0.1	3439.6
26559	9.8338	4.1818	0.1	3413.2
26560	9.7419	4.4545	0.1	3441.
26561	9.8338	4.3636	0.1	3414.4
26562	9.7419	4.6364	0.1	3442.4
26563	9.8338	4.5455	0.1	3415.8
26564	9.7419	4.8182	0.1	3444.1
26565	9.8338	4.7273	0.1	3417.3
26566	9.7419	5.	0.1	3445.9
26567	9.8338	4.9091	0.1	3419.
26568	9.7419	5.1818	0.1	3447.8
26569	9.8338	5.0909	0.1	3420.8
26570	9.7419	5.3636	0.1	3449.8
26571	9.8338	5.2727	0.1	3422.7
26572	9.7419	5.5455	0.1	3451.9
26573	9.8338	5.4545	0.1	3424.7
26574	9.7419	5.7273	0.1	3454.6
26575	9.8338	5.6364	0.1	3426.8
26576	9.8338	5.8182	0.1	3430.1
26577	9.7419	5.9091	0.1	3453.9
26578	9.9257	0.27273	0.1	3402.2
26579	10.018	0.18182	0.1	3377.8
26580	9.9257	9.0909e-002	0.1	3401.3
26581	9.9257	0.45455	0.1	3399.6
26582	10.018	0.36364	0.1	3374.6
26583	9.9257	0.63636	0.1	3397.6
26584	10.018	0.54545	0.1	3372.6
26585	9.9257	0.81818	0.1	3395.7
26586	10.018	0.72727	0.1	3370.7
26587	9.9257	1.	0.1	3393.9
26588	10.018	0.90909	0.1	3368.9
26589	9.9257	1.1818	0.1	3392.2
26590	10.018	1.0909	0.1	3367.2
26591	9.9257	1.3636	0.1	3390.7
26592	10.018	1.2727	0.1	3365.6
26593	9.9257	1.5455	0.1	3389.3
26594	10.018	1.4545	0.1	3364.2
26595	9.9257	1.7273	0.1	3388.
26596	10.018	1.6364	0.1	3362.9
26597	9.9257	1.9091	0.1	3386.9
26598	10.018	1.8182	0.1	3361.8
26599	9.9257	2.0909	0.1	3386.
26600	10.018	2.	0.1	3360.8
26601	9.9257	2.2727	0.1	3385.2
26602	10.018	2.1818	0.1	3359.9
26603	9.9257	2.4545	0.1	3384.6
26604	10.018	2.3636	0.1	3359.3
26605	9.9257	2.6364	0.1	3384.2
26606	10.018	2.5455	0.1	3358.8
26607	9.9257	2.8182	0.1	3383.9
26608	10.018	2.7273	0.1	3358.4
26609	9.9257	3.	0.1	3383.8
26610	10.018	2.9091	0.1	3358.2
26611	9.9257	3.1818	0.1	3383.9
26612	10.018	3.0909	0.1	3358.2
26613	9.9257	3.3636	0.1	3384.2
26614	10.018	3.2727	0.1	3358.4
26615	9.9257	3.5455	0.1	3384.6
26616	10.018	3.4545	0.1	3358.8
26617	9.9257	3.7273	0.1	3385.2
26618	10.018	3.6364	0.1	3359.3
26619	9.9257	3.9091	0.1	3386.
26620	10.018	3.8182	0.1	3359.9
26621	9.9257	4.0909	0.1	3386.9
26622	10.018	4.	0.1	3360.8
26623	9.9257	4.2727	0.1	3388.
26624	10.018	4.1818	0.1	3361.8
26625	9.9257	4.4545	0.1	3389.3
26626	10.018	4.3636	0.1	3362.9
26627	9.9257	4.6364	0.1	3390.7
26628	10.018	4.5455	0.1	3364.2
26629	9.9257	4.8182	0.1	3392.2
26630	10.018	4.7273	0.1	3365.6
26631	9.9257	5.	0.1	3393.9
26632	10.018	4.9091	0.1	3367.2
26633	9.9257	5.1818	0.1	3395.7
26634	10.018	5.0909	0.1	3368.9
26635	9.9257	5.3636	0.1	3397.6
26636	10.018	5.2727	0.1	3370.7
26637	9.9257	5.5455	0.1	3399.6
26638	10.018	5.4545	0.1	3372.6
26639	9.9257	5.7273	0.1	3402.2
26640	10.018	5.6364	0.1	3374.6
26641	10.018	5.8182	0.1	3377.8
26642	9.9257	5.9091	0.1	3401.3
26643	10.11	0.27273	0.1	3350.1
26644	10.201	0.18182	0.1	3325.7
26645	10.11	9.0909e-002	0.1	3349.
26646	10.11	0.45455	0.1	3347.5
26647	10.201	0.36364	0.1	3322.6
26648	10.11	0.63636	0.1	3345.6
26649	10.201	0.54545	0.1	3320.6
26650	10.11	0.81818	0.1	3343.8
26651	10.201	0.72727	0.1	3318.8
26652	10.11	1.	0.1	3342.1
26653	10.201	0.90909	0.1	3317.2
26654	10.11	1.1818	0.1	3340.6
26655	10.201	1.0909	0.1	3315.6
26656	10.11	1.3636	0.1	3339.1
26657	10.201	1.2727	0.1	3314.1
26658	10.11	1.5455	0.1	3337.8
26659	10.201	1.4545	0.1	3312.8
26660	10.11	1.7273	0.1	3336.6
26661	10.201	1.6364	0.1	3311.6
26662	10.11	1.9091	0.1	3335.6
26663	10.201	1.8182	0.1	3310.5
26664	10.11	2.0909	0.1	3334.7
26665	10.201	2.	0.1	3309.6
26666	10.11	2.2727	0.1	3334.
26667	10.201	2.1818	0.1	3308.8
26668	10.11	2.4545	0.1	3333.4
26669	10.201	2.3636	0.1	3308.1
26670	10.11	2.6364	0.1	3333.
26671	10.201	2.5455	0.1	3307.7
26672	10.11	2.8182	0.1	3332.8
26673	10.201	2.7273	0.1	3307.4
26674	10.11	3.	0.1	3332.7
26675	10.201	2.9091	0.1	3307.2
26676	10.11	3.1818	0.1	3332.8
26677	10.201	3.0909	0.1	3307.2
26678	10.11	3.3636	0.1	3333.
26679	10.201	3.2727	0.1	3307.4
26680	10.11	3.5455	0.1	3333.4
26681	10.201	3.4545	0.1	3307.7
26682	10.11	3.7273	0.1	3334.
26683	10.201	3.6364	0.1	3308.1
26684	10.11	3.9091	0.1	3334.7
26685	10.201	3.8182	0.1	3308.8
26686	10.11	4.0909	0.1	3335.6
26687	10.201	4.	0.1	3309.6
26688	10.11	4.2727	0.1	3336.6
26689	10.201	4.1818	0.1	3310.5
26690	10.11	4.4545	0.1	3337.8
26691	10.201	4.3636	0.1	3311.6
26692	10.11	4.6364	0.1	3339.1
26693	10.201	4.5455	0.1	3312.8
26694	10.11	4.8182	0.1	3340.6
26695	10.201	4.7273	0.1	3314.1
26696	10.11	5.	0.1	3342.1
26697	10.201	4.9091	0.1	3315.6
26698	10.11	5.1818	0.1	3343.8
26699	10.201	5.0909	0.1	3317.2
26700	10.11	5.3636	0.1	3345.6
26701	10.201	5.2727	0.1	3318.8
26702	10.11	5.5455	0.1	3347.5
26703	10.201	5.4545	0.1	3320.6
26704	10.11	5.7273	0.1	3350.1
26705	10.201	5.6364	0.1	3322.6
26706	10.201	5.8182	0.1	3325.7
26707	10.11	5.9091	0.1	3349.
26708	10.293	0.27273	0.1	3298.1
26709	10.385	0.18182	0.1	3273.9
26710	10.293	9.0909e-002	0.1	3296.9
26711	10.293	0.45455	0.1	3295.7
26712	10.385	0.36364	0.1	3270.8
26713	10.293	0.63636	0.1	3293.9
26714	10.385	0.54545	0.1	3269.
26715	10.293	0.81818	0.1	3292.2
26716	10.385	0.72727	0.1	3267.3
26717	10.293	1.	0.1	3290.6
26718	10.385	0.90909	0.1	3265.7
26719	10.293	1.1818	0.1	3289.1
26720	10.385	1.0909	0.1	3264.2
26721	10.293	1.3636	0.1	3287.7
26722	10.385	1.2727	0.1	3262.8
26723	10.293	1.5455	0.1	3286.5
26724	10.385	1.4545	0.1	3261.5
26725	10.293	1.7273	0.1	3285.4
26726	10.385	1.6364	0.1	3260.4
26727	10.293	1.9091	0.1	3284.4
26728	10.385	1.8182	0.1	3259.4
26729	10.293	2.0909	0.1	3283.6
26730	10.385	2.	0.1	3258.5
26731	10.293	2.2727	0.1	3282.9
26732	10.385	2.1818	0.1	3257.8
26733	10.293	2.4545	0.1	3282.4
26734	10.385	2.3636	0.1	3257.2
26735	10.293	2.6364	0.1	3282.
26736	10.385	2.5455	0.1	3256.8
26737	10.293	2.8182	0.1	3281.8
26738	10.385	2.7273	0.1	3256.5
26739	10.293	3.	0.1	3281.7
26740	10.385	2.9091	0.1	3256.3
26741	10.293	3.1818	0.1	3281.8
26742	10.385	3.0909	0.1	3256.3
26743	10.293	3.3636	0.1	3282.
26744	10.385	3.2727	0.1	3256.5
26745	10.293	3.5455	0.1	3282.4
26746	10.385	3.4545	0.1	3256.8
26747	10.293	3.7273	0.1	3282.9
26748	10.385	3.6364	0.1	3257.2
26749	10.293	3.9091	0.1	3283.6
26750	10.385	3.8182	0.1	3257.8
26751	10.293	4.0909	0.1	3284.4
26752	10.385	4.	0.1	3258.5
26753	10.293	4.2727	0.1	3285.4
26754	10.385	4.1818	0.1	3259.4
26755	10.293	4.4545	0.1	3286.5
26756	10.385	4.3636	0.1	3260.4
26757	10.293	4.6364	0.1	3287.7
26758	10.385	4.5455	0.1	3261.5
26759	10.293	4.8182	0.1	3289.1
26760	10.385	4.7273	0.1	3262.8
26761	10.293	5.	0.1	3290.6
26762	10.385	4.9091	0.1	3264.2
26763	10.293	5.1818	0.1	3292.2
26764	10.385	5.0909	0.1	3265.7
26765	10.293	5.3636	0.1	3293.9
26766	10.385	5.2727	0.1	3267.3
26767	10.293	5.5455	0.1	3295.7
26768	10.385	5.4545	0.1	3269.
26769	10.293	5.7273	0.1	3298.1
26770	10.385	5.6364	0.1	3270.8
26771	10.385	5.8182	0.1	3273.9
26772	10.293	5.9091	0.1	3296.9
26773	10.477	0.27273	0.1	3246.4
26774	10.569	0.18182	0.1	3222.2
26775	10.477	9.0909e-002	0.1	3245.
26776	10.477	0.45455	0.1	3244.1
26777	10.569	0.36364	0.1	3219.3
26778	10.477	0.63636	0.1	3242.3
26779	10.569	0.54545	0.1	3217.5
26780	10.477	0.81818	0.1	3240.7
26781	10.569	0.72727	0.1	3215.9
26782	10.477	1.	0.1	3239.2
26783	10.569	0.90909	0.1	3214.4
26784	10.477	1.1818	0.1	3237.8
26785	10.569	1.0909	0.1	3213.
26786	10.477	1.3636	0.1	3236.6
26787	10.569	1.2727	0.1	3211.7
26788	10.477	1.5455	0.1	3235.4
26789	10.569	1.4545	0.1	3210.5
26790	10.477	1.7273	0.1	3234.4
26791	10.569	1.6364	0.1	3209.4
26792	10.477	1.9091	0.1	3233.5
26793	10.569	1.8182	0.1	3208.5
26794	10.477	2.0909	0.1	3232.7
26795	10.569	2.	0.1	3207.7
26796	10.477	2.2727	0.1	3232.
26797	10.569	2.1818	0.1	3207.
26798	10.477	2.4545	0.1	3231.5
26799	10.569	2.3636	0.1	3206.4
26800	10.477	2.6364	0.1	3231.2
26801	10.569	2.5455	0.1	3206.
26802	10.477	2.8182	0.1	3231.
26803	10.569	2.7273	0.1	3205.7
26804	10.477	3.	0.1	3230.9
26805	10.569	2.9091	0.1	3205.6
26806	10.477	3.1818	0.1	3231.
26807	10.569	3.0909	0.1	3205.6
26808	10.477	3.3636	0.1	3231.2
26809	10.569	3.2727	0.1	3205.7
26810	10.477	3.5455	0.1	3231.5
26811	10.569	3.4545	0.1	3206.
26812	10.477	3.7273	0.1	3232.
26813	10.569	3.6364	0.1	3206.4
26814	10.477	3.9091	0.1	3232.7
26815	10.569	3.8182	0.1	3207.
26816	10.477	4.0909	0.1	3233.5
26817	10.569	4.	0.1	3207.7
26818	10.477	4.2727	0.1	3234.4
26819	10.569	4.1818	0.1	3208.5
26820	10.477	4.4545	0.1	3235.4
26821	10.569	4.3636	0.1	3209.4
26822	10.477	4.6364	0.1	3236.6
26823	10.569	4.5455	0.1	3210.5
26824	10.477	4.8182	0.1	3237.8
26825	10.569	4.7273	0.1	3211.7
26826	10.477	5.	0.1	3239.2
26827	10.569	4.9091	0.1	3213.
26828	10.477	5.1818	0.1	3240.7
26829	10.569	5.0909	0.1	3214.4
26830	10.477	5.3636	0.1	3242.3
26831	10.569	5.2727	0.1	3215.9
26832	10.477	5.5455	0.1	3244.1
26833	10.569	5.4545	0.1	3217.5
26834	10.477	5.7273	0.1	3246.4
26835	10.569	5.6364	0.1	3219.3
26836	10.569	5.8182	0.1	3222.2
26837	10.477	5.9091	0.1	3245.
26838	10.661	0.27273	0.1	3195.
26839	10.753	0.18182	0.1	3170.8
26840	10.661	9.0909e-002	0.1	3193.4
26841	10.661	0.45455	0.1	3192.7
26842	10.753	0.36364	0.1	3167.9
26843	10.661	0.63636	0.1	3191.
26844	10.753	0.54545	0.1	3166.2
26845	10.661	0.81818	0.1	3189.5
26846	10.753	0.72727	0.1	3164.7
26847	10.661	1.	0.1	3188.1
26848	10.753	0.90909	0.1	3163.3
26849	10.661	1.1818	0.1	3186.8
26850	10.753	1.0909	0.1	3162.
26851	10.661	1.3636	0.1	3185.6
26852	10.753	1.2727	0.1	3160.7
26853	10.661	1.5455	0.1	3184.5
26854	10.753	1.4545	0.1	3159.6
26855	10.661	1.7273	0.1	3183.5
26856	10.753	1.6364	0.1	3158.6
26857	10.661	1.9091	0.1	3182.7
26858	10.753	1.8182	0.1	3157.7
26859	10.661	2.0909	0.1	3181.9
26860	10.753	2.	0.1	3157.
26861	10.661	2.2727	0.1	3181.3
26862	10.753	2.1818	0.1	3156.3
26863	10.661	2.4545	0.1	3180.9
26864	10.753	2.3636	0.1	3155.8
26865	10.661	2.6364	0.1	3180.5
26866	10.753	2.5455	0.1	3155.4
26867	10.661	2.8182	0.1	3180.3
26868	10.753	2.7273	0.1	3155.2
26869	10.661	3.	0.1	3180.3
26870	10.753	2.9091	0.1	3155.
26871	10.661	3.1818	0.1	3180.3
26872	10.753	3.0909	0.1	3155.
26873	10.661	3.3636	0.1	3180.5
26874	10.753	3.2727	0.1	3155.2
26875	10.661	3.5455	0.1	3180.9
26876	10.753	3.4545	0.1	3155.4
26877	10.661	3.7273	0.1	3181.3
26878	10.753	3.6364	0.1	3155.8
26879	10.661	3.9091	0.1	3181.9
26880	10.753	3.8182	0.1	3156.3
26881	10.661	4.0909	0.1	3182.7
26882	10.753	4.	0.1	3157.
26883	10.661	4.2727	0.1	3183.5
26884	10.753	4.1818	0.1	3157.7
26885	10.661	4.4545	0.1	3184.5
26886	10.753	4.3636	0.1	3158.6
26887	10.661	4.6364	0.1	3185.6
26888	10.753	4.5455	0.1	3159.6
26889	10.661	4.8182	0.1	3186.8
26890	10.753	4.7273	0.1	3160.7
26891	10.661	5.	0.1	3188.1
26892	10.753	4.9091	0.1	3162.
26893	10.661	5.1818	0.1	3189.5
26894	10.753	5.0909	0.1	3163.3
26895	10.661	5.3636	0.1	3191.
26896	10.753	5.2727	0.1	3164.7
26897	10.661	5.5455	0.1	3192.7
26898	10.753	5.4545	0.1	3166.2
26899	10.661	5.7273	0.1	3195.
26900	10.753	5.6364	0.1	3167.9
26901	10.753	5.8182	0.1	3170.8
26902	10.661	5.9091	0.1	3193.4
26903	10.845	0.27273	0.1	3143.7
26904	10.937	0.18182	0.1	3119.7
26905	10.845	9.0909e-002	0.1	3142.
26906	10.845	0.45455	0.1	3141.5
26907	10.937	0.36364	0.1	3116.8
26908	10.845	0.63636	0.1	3139.9
26909	10.937	0.54545	0.1	3115.2
26910	10.845	0.81818	0.1	3138.5
26911	10.937	0.72727	0.1	3113.7
26912	10.845	1.	0.1	3137.1
26913	10.937	0.90909	0.1	3112.4
26914	10.845	1.1818	0.1	3135.9
26915	10.937	1.0909	0.1	3111.2
26916	10.845	1.3636	0.1	3134.8
26917	10.937	1.2727	0.1	3110.
26918	10.845	1.5455	0.1	3133.8
26919	10.937	1.4545	0.1	3109.
26920	10.845	1.7273	0.1	3132.8
26921	10.937	1.6364	0.1	3108.
26922	10.845	1.9091	0.1	3132.
26923	10.937	1.8182	0.1	3107.2
26924	10.845	2.0909	0.1	3131.4
26925	10.937	2.	0.1	3106.5
26926	10.845	2.2727	0.1	3130.8
26927	10.937	2.1818	0.1	3105.9
26928	10.845	2.4545	0.1	3130.4
26929	10.937	2.3636	0.1	3105.4
26930	10.845	2.6364	0.1	3130.1
26931	10.937	2.5455	0.1	3105.
26932	10.845	2.8182	0.1	3129.9
26933	10.937	2.7273	0.1	3104.8
26934	10.845	3.	0.1	3129.8
26935	10.937	2.9091	0.1	3104.7
26936	10.845	3.1818	0.1	3129.9
26937	10.937	3.0909	0.1	3104.7
26938	10.845	3.3636	0.1	3130.1
26939	10.937	3.2727	0.1	3104.8
26940	10.845	3.5455	0.1	3130.4
26941	10.937	3.4545	0.1	3105.
26942	10.845	3.7273	0.1	3130.8
26943	10.937	3.6364	0.1	3105.4
26944	10.845	3.9091	0.1	3131.4
26945	10.937	3.8182	0.1	3105.9
26946	10.845	4.0909	0.1	3132.
26947	10.937	4.	0.1	3106.5
26948	10.845	4.2727	0.1	3132.8
26949	10.937	4.1818	0.1	3107.2
26950	10.845	4.4545	0.1	3133.8
26951	10.937	4.3636	0.1	3108.
26952	10.845	4.6364	0.1	3134.8
26953	10.937	4.5455	0.1	3109.
26954	10.845	4.8182	0.1	3135.9
26955	10.937	4.7273	0.1	3110.
26956	10.845	5.	0.1	3137.1
26957	10.937	4.9091	0.1	3111.2
26958	10.845	5.1818	0.1	3138.5
26959	10.937	5.0909	0.1	3112.4
26960	10.845	5.3636	0.1	3139.9
26961	10.937	5.2727	0.1	3113.7
26962	10.845	5.5455	0.1	3141.5
26963	10.937	5.4545	0.1	3115.2
26964	10.845	5.7273	0.1	3143.7
26965	10.937	5.6364	0.1	3116.8
26966	10.937	5.8182	0.1	3119.7
26967	10.845	5.9091	0.1	3142.
26968	11.029	0.27273	0.1	3092.7
26969	11.12	0.18182	0.1	3068.7
26970	11.029	9.0909e-002	0.1	3090.8
26971	11.029	0.45455	0.1	3090.5
26972	11.12	0.36364	0.1	3065.9
26973	11.029	0.63636	0.1	3089.
26974	11.12	0.54545	0.1	3064.4
26975	11.029	0.81818	0.1	3087.7
26976	11.12	0.72727	0.1	3063.
26977	11.029	1.	0.1	3086.4
26978	11.12	0.90909	0.1	3061.7
26979	11.029	1.1818	0.1	3085.2
26980	11.12	1.0909	0.1	3060.5
26981	11.029	1.3636	0.1	3084.2
26982	11.12	1.2727	0.1	3059.5
26983	11.029	1.5455	0.1	3083.2
26984	11.12	1.4545	0.1	3058.5
26985	11.029	1.7273	0.1	3082.4
26986	11.12	1.6364	0.1	3057.6
26987	11.029	1.9091	0.1	3081.6
26988	11.12	1.8182	0.1	3056.8
26989	11.029	2.0909	0.1	3081.
26990	11.12	2.	0.1	3056.2
26991	11.029	2.2727	0.1	3080.5
26992	11.12	2.1818	0.1	3055.6
26993	11.029	2.4545	0.1	3080.
26994	11.12	2.3636	0.1	3055.2
26995	11.029	2.6364	0.1	3079.8
26996	11.12	2.5455	0.1	3054.8
26997	11.029	2.8182	0.1	3079.6
26998	11.12	2.7273	0.1	3054.6
26999	11.029	3.	0.1	3079.5
27000	11.12	2.9091	0.1	3054.5
27001	11.029	3.1818	0.1	3079.6
27002	11.12	3.0909	0.1	3054.5
27003	11.029	3.3636	0.1	3079.8
27004	11.12	3.2727	0.1	3054.6
27005	11.029	3.5455	0.1	3080.
27006	11.12	3.4545	0.1	3054.8
27007	11.029	3.7273	0.1	3080.5
27008	11.12	3.6364	0.1	3055.2
27009	11.029	3.9091	0.1	3081.
27010	11.12	3.8182	0.1	3055.6
27011	11.029	4.0909	0.1	3081.6
27012	11.12	4.	0.1	3056.2
27013	11.029	4.2727	0.1	3082.4
27014	11.12	4.1818	0.1	3056.8
27015	11.029	4.4545	0.1	3083.2
27016	11.12	4.3636	0.1	3057.6
27017	11.029	4.6364	0.1	3084.2
27018	11.12	4.5455	0.1	3058.5
27019	11.029	4.8182	0.1	3085.2
27020	11.12	4.7273	0.1	3059.5
27021	11.029	5.	0.1	3086.4
27022	11.12	4.9091	0.1	3060.5
27023	11.029	5.1818	0.1	3087.7
27024	11.12	5.0909	0.1	3061.7
27025	11.029	5.3636	0.1	3089.
27026	11.12	5.2727	0.1	3063.
27027	11.029	5.5455	0.1	3090.5
27028	11.12	5.4545	0.1	3064.4
27029	11.029	5.7273	0.1	3092.7
27030	11.12	5.6364	0.1	3065.9
27031	11.12	5.8182	0.1	3068.7
27032	11.029	5.9091	0.1	3090.8
27033	11.212	0.27273	0.1	3041.8
27034	11.304	0.18182	0.1	3018.
27035	11.212	9.0909e-002	0.1	3039.8
27036	11.212	0.45455	0.1	3039.7
27037	11.304	0.36364	0.1	3015.2
27038	11.212	0.63636	0.1	3038.3
27039	11.304	0.54545	0.1	3013.7
27040	11.212	0.81818	0.1	3037.
27041	11.304	0.72727	0.1	3012.4
27042	11.212	1.	0.1	3035.9
27043	11.304	0.90909	0.1	3011.2
27044	11.212	1.1818	0.1	3034.8
27045	11.304	1.0909	0.1	3010.1
27046	11.212	1.3636	0.1	3033.8
27047	11.304	1.2727	0.1	3009.1
27048	11.212	1.5455	0.1	3032.9
27049	11.304	1.4545	0.1	3008.2
27050	11.212	1.7273	0.1	3032.1
27051	11.304	1.6364	0.1	3007.4
27052	11.212	1.9091	0.1	3031.4
27053	11.304	1.8182	0.1	3006.7
27054	11.212	2.0909	0.1	3030.8
27055	11.304	2.	0.1	3006.
27056	11.212	2.2727	0.1	3030.3
27057	11.304	2.1818	0.1	3005.5
27058	11.212	2.4545	0.1	3029.9
27059	11.304	2.3636	0.1	3005.1
27060	11.212	2.6364	0.1	3029.6
27061	11.304	2.5455	0.1	3004.8
27062	11.212	2.8182	0.1	3029.5
27063	11.304	2.7273	0.1	3004.6
27064	11.212	3.	0.1	3029.4
27065	11.304	2.9091	0.1	3004.5
27066	11.212	3.1818	0.1	3029.5
27067	11.304	3.0909	0.1	3004.5
27068	11.212	3.3636	0.1	3029.6
27069	11.304	3.2727	0.1	3004.6
27070	11.212	3.5455	0.1	3029.9
27071	11.304	3.4545	0.1	3004.8
27072	11.212	3.7273	0.1	3030.3
27073	11.304	3.6364	0.1	3005.1
27074	11.212	3.9091	0.1	3030.8
27075	11.304	3.8182	0.1	3005.5
27076	11.212	4.0909	0.1	3031.4
27077	11.304	4.	0.1	3006.
27078	11.212	4.2727	0.1	3032.1
27079	11.304	4.1818	0.1	3006.7
27080	11.212	4.4545	0.1	3032.9
27081	11.304	4.3636	0.1	3007.4
27082	11.212	4.6364	0.1	3033.8
27083	11.304	4.5455	0.1	3008.2
27084	11.212	4.8182	0.1	3034.8
27085	11.304	4.7273	0.1	3009.1
27086	11.212	5.	0.1	3035.9
27087	11.304	4.9091	0.1	3010.1
27088	11.212	5.1818	0.1	3037.
27089	11.304	5.0909	0.1	3011.2
27090	11.212	5.3636	0.1	3038.3
27091	11.304	5.2727	0.1	3012.4
27092	11.212	5.5455	0.1	3039.7
27093	11.304	5.4545	0.1	3013.7
27094	11.212	5.7273	0.1	3041.8
27095	11.304	5.6364	0.1	3015.2
27096	11.304	5.8182	0.1	3018.
27097	11.212	5.9091	0.1	3039.8
27098	11.396	0.27273	0.1	2991.2
27099	11.488	0.18182	0.1	2967.4
27100	11.396	9.0909e-002	0.1	2989.1
27101	11.396	0.45455	0.1	2989.2
27102	11.488	0.36364	0.1	2964.7
27103	11.396	0.63636	0.1	2987.8
27104	11.488	0.54545	0.1	2963.3
27105	11.396	0.81818	0.1	2986.6
27106	11.488	0.72727	0.1	2962.1
27107	11.396	1.	0.1	2985.5
27108	11.488	0.90909	0.1	2961.
27109	11.396	1.1818	0.1	2984.5
27110	11.488	1.0909	0.1	2959.9
27111	11.396	1.3636	0.1	2983.5
27112	11.488	1.2727	0.1	2959.
27113	11.396	1.5455	0.1	2982.7
27114	11.488	1.4545	0.1	2958.1
27115	11.396	1.7273	0.1	2982.
27116	11.488	1.6364	0.1	2957.3
27117	11.396	1.9091	0.1	2981.3
27118	11.488	1.8182	0.1	2956.7
27119	11.396	2.0909	0.1	2980.8
27120	11.488	2.	0.1	2956.1
27121	11.396	2.2727	0.1	2980.3
27122	11.488	2.1818	0.1	2955.6
27123	11.396	2.4545	0.1	2979.9
27124	11.488	2.3636	0.1	2955.2
27125	11.396	2.6364	0.1	2979.7
27126	11.488	2.5455	0.1	2954.9
27127	11.396	2.8182	0.1	2979.5
27128	11.488	2.7273	0.1	2954.7
27129	11.396	3.	0.1	2979.5
27130	11.488	2.9091	0.1	2954.6
27131	11.396	3.1818	0.1	2979.5
27132	11.488	3.0909	0.1	2954.6
27133	11.396	3.3636	0.1	2979.7
27134	11.488	3.2727	0.1	2954.7
27135	11.396	3.5455	0.1	2979.9
27136	11.488	3.4545	0.1	2954.9
27137	11.396	3.7273	0.1	2980.3
27138	11.488	3.6364	0.1	2955.2
27139	11.396	3.9091	0.1	2980.8
27140	11.488	3.8182	0.1	2955.6
27141	11.396	4.0909	0.1	2981.3
27142	11.488	4.	0.1	2956.1
27143	11.396	4.2727	0.1	2982.
27144	11.488	4.1818	0.1	2956.7
27145	11.396	4.4545	0.1	2982.7
27146	11.488	4.3636	0.1	2957.3
27147	11.396	4.6364	0.1	2983.5
27148	11.488	4.5455	0.1	2958.1
27149	11.396	4.8182	0.1	2984.5
27150	11.488	4.7273	0.1	2959.
27151	11.396	5.	0.1	2985.5
27152	11.488	4.9091	0.1	2959.9
27153	11.396	5.1818	0.1	2986.6
27154	11.488	5.0909	0.1	2961.
27155	11.396	5.3636	0.1	2987.8
27156	11.488	5.2727	0.1	2962.1
27157	11.396	5.5455	0.1	2989.2
27158	11.488	5.4545	0.1	2963.3
27159	11.396	5.7273	0.1	2991.2
27160	11.488	5.6364	0.1	2964.7
27161	11.488	5.8182	0.1	2967.4
27162	11.396	5.9091	0.1	2989.1
27163	11.58	0.27273	0.1	2940.8
27164	11.672	0.18182	0.1	2917.1
27165	11.58	9.0909e-002	0.1	2938.5
27166	11.58	0.45455	0.1	2938.8
27167	11.672	0.36364	0.1	2914.4
27168	11.58	0.63636	0.1	2937.5
27169	11.672	0.54545	0.1	2913.1
27170	11.58	0.81818	0.1	2936.4
27171	11.672	0.72727	0.1	2911.9
27172	11.58	1.	0.1	2935.4
27173	11.672	0.90909	0.1	2910.9
27174	11.58	1.1818	0.1	2934.4
27175	11.672	1.0909	0.1	2909.9
27176	11.58	1.3636	0.1	2933.5
27177	11.672	1.2727	0.1	2909.
27178	11.58	1.5455	0.1	2932.7
27179	11.672	1.4545	0.1	2908.2
27180	11.58	1.7273	0.1	2932.
27181	11.672	1.6364	0.1	2907.5
27182	11.58	1.9091	0.1	2931.4
27183	11.672	1.8182	0.1	2906.9
27184	11.58	2.0909	0.1	2930.9
27185	11.672	2.	0.1	2906.3
27186	11.58	2.2727	0.1	2930.5
27187	11.672	2.1818	0.1	2905.9
27188	11.58	2.4545	0.1	2930.2
27189	11.672	2.3636	0.1	2905.5
27190	11.58	2.6364	0.1	2929.9
27191	11.672	2.5455	0.1	2905.2
27192	11.58	2.8182	0.1	2929.8
27193	11.672	2.7273	0.1	2905.1
27194	11.58	3.	0.1	2929.7
27195	11.672	2.9091	0.1	2905.
27196	11.58	3.1818	0.1	2929.8
27197	11.672	3.0909	0.1	2905.
27198	11.58	3.3636	0.1	2929.9
27199	11.672	3.2727	0.1	2905.1
27200	11.58	3.5455	0.1	2930.2
27201	11.672	3.4545	0.1	2905.2
27202	11.58	3.7273	0.1	2930.5
27203	11.672	3.6364	0.1	2905.5
27204	11.58	3.9091	0.1	2930.9
27205	11.672	3.8182	0.1	2905.9
27206	11.58	4.0909	0.1	2931.4
27207	11.672	4.	0.1	2906.3
27208	11.58	4.2727	0.1	2932.
27209	11.672	4.1818	0.1	2906.9
27210	11.58	4.4545	0.1	2932.7
27211	11.672	4.3636	0.1	2907.5
27212	11.58	4.6364	0.1	2933.5
27213	11.672	4.5455	0.1	2908.2
27214	11.58	4.8182	0.1	2934.4
27215	11.672	4.7273	0.1	2909.
27216	11.58	5.	0.1	2935.4
27217	11.672	4.9091	0.1	2909.9
27218	11.58	5.1818	0.1	2936.4
27219	11.672	5.0909	0.1	2910.9
27220	11.58	5.3636	0.1	2937.5
27221	11.672	5.2727	0.1	2911.9
27222	11.58	5.5455	0.1	2938.8
27223	11.672	5.4545	0.1	2913.1
27224	11.58	5.7273	0.1	2940.8
27225	11.672	5.6364	0.1	2914.4
27226	11.672	5.8182	0.1	2917.1
27227	11.58	5.9091	0.1	2938.5
27228	11.764	0.27273	0.1	2890.6
27229	11.856	0.18182	0.1	2866.9
27230	11.764	9.0909e-002	0.1	2888.2
27231	11.764	0.45455	0.1	2888.7
27232	11.856	0.36364	0.1	2864.3
27233	11.764	0.63636	0.1	2887.5
27234	11.856	0.54545	0.1	2863.1
27235	11.764	0.81818	0.1	2886.4
27236	11.856	0.72727	0.1	2862.
27237	11.764	1.	0.1	2885.4
27238	11.856	0.90909	0.1	2861.
27239	11.764	1.1818	0.1	2884.5
27240	11.856	1.0909	0.1	2860.1
27241	11.764	1.3636	0.1	2883.7
27242	11.856	1.2727	0.1	2859.2
27243	11.764	1.5455	0.1	2883.
27244	11.856	1.4545	0.1	2858.5
27245	11.764	1.7273	0.1	2882.3
27246	11.856	1.6364	0.1	2857.8
27247	11.764	1.9091	0.1	2881.7
27248	11.856	1.8182	0.1	2857.3
27249	11.764	2.0909	0.1	2881.3
27250	11.856	2.	0.1	2856.8
27251	11.764	2.2727	0.1	2880.9
27252	11.856	2.1818	0.1	2856.3
27253	11.764	2.4545	0.1	2880.6
27254	11.856	2.3636	0.1	2856.
27255	11.764	2.6364	0.1	2880.4
27256	11.856	2.5455	0.1	2855.8
27257	11.764	2.8182	0.1	2880.2
27258	11.856	2.7273	0.1	2855.6
27259	11.764	3.	0.1	2880.2
27260	11.856	2.9091	0.1	2855.5
27261	11.764	3.1818	0.1	2880.2
27262	11.856	3.0909	0.1	2855.5
27263	11.764	3.3636	0.1	2880.4
27264	11.856	3.2727	0.1	2855.6
27265	11.764	3.5455	0.1	2880.6
27266	11.856	3.4545	0.1	2855.8
27267	11.764	3.7273	0.1	2880.9
27268	11.856	3.6364	0.1	2856.
27269	11.764	3.9091	0.1	2881.3
27270	11.856	3.8182	0.1	2856.3
27271	11.764	4.0909	0.1	2881.7
27272	11.856	4.	0.1	2856.8
27273	11.764	4.2727	0.1	2882.3
27274	11.856	4.1818	0.1	2857.3
27275	11.764	4.4545	0.1	2883.
27276	11.856	4.3636	0.1	2857.8
27277	11.764	4.6364	0.1	2883.7
27278	11.856	4.5455	0.1	2858.5
27279	11.764	4.8182	0.1	2884.5
27280	11.856	4.7273	0.1	2859.2
27281	11.764	5.	0.1	2885.4
27282	11.856	4.9091	0.1	2860.1
27283	11.764	5.1818	0.1	2886.4
27284	11.856	5.0909	0.1	2861.
27285	11.764	5.3636	0.1	2887.5
27286	11.856	5.2727	0.1	2862.
27287	11.764	5.5455	0.1	2888.7
27288	11.856	5.4545	0.1	2863.1
27289	11.764	5.7273	0.1	2890.6
27290	11.856	5.6364	0.1	2864.3
27291	11.856	5.8182	0.1	2866.9
27292	11.764	5.9091	0.1	2888.2
27293	11.948	0.27273	0.1	2840.6
27294	12.04	0.18182	0.1	2817.
27295	11.948	9.0909e-002	0.1	2838.1
27296	11.948	0.45455	0.1	2838.7
27297	12.04	0.36364	0.1	2814.4
27298	11.948	0.63636	0.1	2837.6
27299	12.04	0.54545	0.1	2813.2
27300	11.948	0.81818	0.1	2836.6
27301	12.04	0.72727	0.1	2812.2
27302	11.948	1.	0.1	2835.6
27303	12.04	0.90909	0.1	2811.3
27304	11.948	1.1818	0.1	2834.8
27305	12.04	1.0909	0.1	2810.4
27306	11.948	1.3636	0.1	2834.
27307	12.04	1.2727	0.1	2809.7
27308	11.948	1.5455	0.1	2833.4
27309	12.04	1.4545	0.1	2809.
27310	11.948	1.7273	0.1	2832.8
27311	12.04	1.6364	0.1	2808.4
27312	11.948	1.9091	0.1	2832.3
27313	12.04	1.8182	0.1	2807.8
27314	11.948	2.0909	0.1	2831.8
27315	12.04	2.	0.1	2807.4
27316	11.948	2.2727	0.1	2831.5
27317	12.04	2.1818	0.1	2807.
27318	11.948	2.4545	0.1	2831.2
27319	12.04	2.3636	0.1	2806.7
27320	11.948	2.6364	0.1	2831.
27321	12.04	2.5455	0.1	2806.5
27322	11.948	2.8182	0.1	2830.9
27323	12.04	2.7273	0.1	2806.3
27324	11.948	3.	0.1	2830.8
27325	12.04	2.9091	0.1	2806.2
27326	11.948	3.1818	0.1	2830.9
27327	12.04	3.0909	0.1	2806.2
27328	11.948	3.3636	0.1	2831.
27329	12.04	3.2727	0.1	2806.3
27330	11.948	3.5455	0.1	2831.2
27331	12.04	3.4545	0.1	2806.5
27332	11.948	3.7273	0.1	2831.5
27333	12.04	3.6364	0.1	2806.7
27334	11.948	3.9091	0.1	2831.8
27335	12.04	3.8182	0.1	2807.
27336	11.948	4.0909	0.1	2832.3
27337	12.04	4.	0.1	2807.4
27338	11.948	4.2727	0.1	2832.8
27339	12.04	4.1818	0.1	2807.8
27340	11.948	4.4545	0.1	2833.4
27341	12.04	4.3636	0.1	2808.4
27342	11.948	4.6364	0.1	2834.
27343	12.04	4.5455	0.1	2809.
27344	11.948	4.8182	0.1	2834.8
27345	12.04	4.7273	0.1	2809.7
27346	11.948	5.	0.1	2835.6
27347	12.04	4.9091	0.1	2810.4
27348	11.948	5.1818	0.1	2836.6
27349	12.04	5.0909	0.1	2811.3
27350	11.948	5.3636	0.1	2837.6
27351	12.04	5.2727	0.1	2812.2
27352	11.948	5.5455	0.1	2838.7
27353	12.04	5.4545	0.1	2813.2
27354	11.948	5.7273	0.1	2840.6
27355	12.04	5.6364	0.1	2814.4
27356	12.04	5.8182	0.1	2817.
27357	11.948	5.9091	0.1	2838.1
27358	12.131	0.27273	0.1	2790.8
27359	12.223	0.18182	0.1	2767.3
27360	12.131	9.0909e-002	0.1	2788.2
27361	12.131	0.45455	0.1	2788.9
27362	12.223	0.36364	0.1	2764.7
27363	12.131	0.63636	0.1	2787.9
27364	12.223	0.54545	0.1	2763.6
27365	12.131	0.81818	0.1	2786.9
27366	12.223	0.72727	0.1	2762.7
27367	12.131	1.	0.1	2786.1
27368	12.223	0.90909	0.1	2761.8
27369	12.131	1.1818	0.1	2785.3
27370	12.223	1.0909	0.1	2761.
27371	12.131	1.3636	0.1	2784.6
27372	12.223	1.2727	0.1	2760.3
27373	12.131	1.5455	0.1	2784.
27374	12.223	1.4545	0.1	2759.7
27375	12.131	1.7273	0.1	2783.4
27376	12.223	1.6364	0.1	2759.1
27377	12.131	1.9091	0.1	2783.
27378	12.223	1.8182	0.1	2758.6
27379	12.131	2.0909	0.1	2782.6
27380	12.223	2.	0.1	2758.2
27381	12.131	2.2727	0.1	2782.2
27382	12.223	2.1818	0.1	2757.9
27383	12.131	2.4545	0.1	2782.
27384	12.223	2.3636	0.1	2757.6
27385	12.131	2.6364	0.1	2781.8
27386	12.223	2.5455	0.1	2757.4
27387	12.131	2.8182	0.1	2781.7
27388	12.223	2.7273	0.1	2757.2
27389	12.131	3.	0.1	2781.6
27390	12.223	2.9091	0.1	2757.2
27391	12.131	3.1818	0.1	2781.7
27392	12.223	3.0909	0.1	2757.2
27393	12.131	3.3636	0.1	2781.8
27394	12.223	3.2727	0.1	2757.2
27395	12.131	3.5455	0.1	2782.
27396	12.223	3.4545	0.1	2757.4
27397	12.131	3.7273	0.1	2782.2
27398	12.223	3.6364	0.1	2757.6
27399	12.131	3.9091	0.1	2782.6
27400	12.223	3.8182	0.1	2757.9
27401	12.131	4.0909	0.1	2783.
27402	12.223	4.	0.1	2758.2
27403	12.131	4.2727	0.1	2783.4
27404	12.223	4.1818	0.1	2758.6
27405	12.131	4.4545	0.1	2784.
27406	12.223	4.3636	0.1	2759.1
27407	12.131	4.6364	0.1	2784.6
27408	12.223	4.5455	0.1	2759.7
27409	12.131	4.8182	0.1	2785.3
27410	12.223	4.7273	0.1	2760.3
27411	12.131	5.	0.1	2786.1
27412	12.223	4.9091	0.1	2761.
27413	12.131	5.1818	0.1	2786.9
27414	12.223	5.0909	0.1	2761.8
27415	12.131	5.3636	0.1	2787.9
27416	12.223	5.2727	0.1	2762.7
27417	12.131	5.5455	0.1	2788.9
27418	12.223	5.4545	0.1	2763.6
27419	12.131	5.7273	0.1	2790.8
27420	12.223	5.6364	0.1	2764.7
27421	12.223	5.8182	0.1	2767.3
27422	12.131	5.9091	0.1	2788.2
27423	12.315	0.27273	0.1	2741.1
27424	12.407	0.18182	0.1	2717.7
27425	12.315	9.0909e-002	0.1	2738.4
27426	12.315	0.45455	0.1	2739.4
27427	12.407	0.36364	0.1	2715.2
27428	12.315	0.63636	0.1	2738.4
27429	12.407	0.54545	0.1	2714.2
27430	12.315	0.81818	0.1	2737.5
27431	12.407	0.72727	0.1	2713.3
27432	12.315	1.	0.1	2736.7
27433	12.407	0.90909	0.1	2712.5
27434	12.315	1.1818	0.1	2736.
27435	12.407	1.0909	0.1	2711.8
27436	12.315	1.3636	0.1	2735.3
27437	12.407	1.2727	0.1	2711.1
27438	12.315	1.5455	0.1	2734.8
27439	12.407	1.4545	0.1	2710.5
27440	12.315	1.7273	0.1	2734.3
27441	12.407	1.6364	0.1	2710.
27442	12.315	1.9091	0.1	2733.9
27443	12.407	1.8182	0.1	2709.6
27444	12.315	2.0909	0.1	2733.5
27445	12.407	2.	0.1	2709.2
27446	12.315	2.2727	0.1	2733.2
27447	12.407	2.1818	0.1	2708.9
27448	12.315	2.4545	0.1	2733.
27449	12.407	2.3636	0.1	2708.7
27450	12.315	2.6364	0.1	2732.8
27451	12.407	2.5455	0.1	2708.5
27452	12.315	2.8182	0.1	2732.7
27453	12.407	2.7273	0.1	2708.3
27454	12.315	3.	0.1	2732.7
27455	12.407	2.9091	0.1	2708.3
27456	12.315	3.1818	0.1	2732.7
27457	12.407	3.0909	0.1	2708.3
27458	12.315	3.3636	0.1	2732.8
27459	12.407	3.2727	0.1	2708.3
27460	12.315	3.5455	0.1	2733.
27461	12.407	3.4545	0.1	2708.5
27462	12.315	3.7273	0.1	2733.2
27463	12.407	3.6364	0.1	2708.7
27464	12.315	3.9091	0.1	2733.5
27465	12.407	3.8182	0.1	2708.9
27466	12.315	4.0909	0.1	2733.9
27467	12.407	4.	0.1	2709.2
27468	12.315	4.2727	0.1	2734.3
27469	12.407	4.1818	0.1	2709.6
27470	12.315	4.4545	0.1	2734.8
27471	12.407	4.3636	0.1	2710.
27472	12.315	4.6364	0.1	2735.3
27473	12.407	4.5455	0.1	2710.5
27474	12.315	4.8182	0.1	2736.
27475	12.407	4.7273	0.1	2711.1
27476	12.315	5.	0.1	2736.7
27477	12.407	4.9091	0.1	2711.8
27478	12.315	5.1818	0.1	2737.5
27479	12.407	5.0909	0.1	2712.5
27480	12.315	5.3636	0.1	2738.4
27481	12.407	5.2727	0.1	2713.3
27482	12.315	5.5455	0.1	2739.4
27483	12.407	5.4545	0.1	2714.2
27484	12.315	5.7273	0.1	2741.1
27485	12.407	5.6364	0.1	2715.2
27486	12.407	5.8182	0.1	2717.7
27487	12.315	5.9091	0.1	2738.4
27488	12.499	0.27273	0.1	2691.7
27489	12.591	0.18182	0.1	2668.3
27490	12.499	9.0909e-002	0.1	2688.9
27491	12.499	0.45455	0.1	2690.
27492	12.591	0.36364	0.1	2665.9
27493	12.499	0.63636	0.1	2689.
27494	12.591	0.54545	0.1	2664.9
27495	12.499	0.81818	0.1	2688.2
27496	12.591	0.72727	0.1	2664.1
27497	12.499	1.	0.1	2687.5
27498	12.591	0.90909	0.1	2663.4
27499	12.499	1.1818	0.1	2686.9
27500	12.591	1.0909	0.1	2662.7
27501	12.499	1.3636	0.1	2686.3
27502	12.591	1.2727	0.1	2662.1
27503	12.499	1.5455	0.1	2685.8
27504	12.591	1.4545	0.1	2661.6
27505	12.499	1.7273	0.1	2685.3
27506	12.591	1.6364	0.1	2661.2
27507	12.499	1.9091	0.1	2684.9
27508	12.591	1.8182	0.1	2660.8
27509	12.499	2.0909	0.1	2684.6
27510	12.591	2.	0.1	2660.4
27511	12.499	2.2727	0.1	2684.4
27512	12.591	2.1818	0.1	2660.2
27513	12.499	2.4545	0.1	2684.1
27514	12.591	2.3636	0.1	2659.9
27515	12.499	2.6364	0.1	2684.
27516	12.591	2.5455	0.1	2659.8
27517	12.499	2.8182	0.1	2683.9
27518	12.591	2.7273	0.1	2659.7
27519	12.499	3.	0.1	2683.9
27520	12.591	2.9091	0.1	2659.6
27521	12.499	3.1818	0.1	2683.9
27522	12.591	3.0909	0.1	2659.6
27523	12.499	3.3636	0.1	2684.
27524	12.591	3.2727	0.1	2659.7
27525	12.499	3.5455	0.1	2684.1
27526	12.591	3.4545	0.1	2659.8
27527	12.499	3.7273	0.1	2684.4
27528	12.591	3.6364	0.1	2659.9
27529	12.499	3.9091	0.1	2684.6
27530	12.591	3.8182	0.1	2660.2
27531	12.499	4.0909	0.1	2684.9
27532	12.591	4.	0.1	2660.4
27533	12.499	4.2727	0.1	2685.3
27534	12.591	4.1818	0.1	2660.8
27535	12.499	4.4545	0.1	2685.8
27536	12.591	4.3636	0.1	2661.2
27537	12.499	4.6364	0.1	2686.3
27538	12.591	4.5455	0.1	2661.6
27539	12.499	4.8182	0.1	2686.9
27540	12.591	4.7273	0.1	2662.1
27541	12.499	5.	0.1	2687.5
27542	12.591	4.9091	0.1	2662.7
27543	12.499	5.1818	0.1	2688.2
27544	12.591	5.0909	0.1	2663.4
27545	12.499	5.3636	0.1	2689.
27546	12.591	5.2727	0.1	2664.1
27547	12.499	5.5455	0.1	2690.
27548	12.591	5.4545	0.1	2664.9
27549	12.499	5.7273	0.1	2691.7
27550	12.591	5.6364	0.1	2665.9
27551	12.591	5.8182	0.1	2668.3
27552	12.499	5.9091	0.1	2688.9
27553	12.683	0.27273	0.1	2642.4
27554	12.775	0.18182	0.1	2619.1
27555	12.683	9.0909e-002	0.1	2639.5
27556	12.683	0.45455	0.1	2640.8
27557	12.775	0.36364	0.1	2616.7
27558	12.683	0.63636	0.1	2639.9
27559	12.775	0.54545	0.1	2615.8
27560	12.683	0.81818	0.1	2639.2
27561	12.775	0.72727	0.1	2615.1
27562	12.683	1.	0.1	2638.5
27563	12.775	0.90909	0.1	2614.4
27564	12.683	1.1818	0.1	2637.9
27565	12.775	1.0909	0.1	2613.8
27566	12.683	1.3636	0.1	2637.4
27567	12.775	1.2727	0.1	2613.3
27568	12.683	1.5455	0.1	2637.
27569	12.775	1.4545	0.1	2612.9
27570	12.683	1.7273	0.1	2636.6
27571	12.775	1.6364	0.1	2612.5
27572	12.683	1.9091	0.1	2636.2
27573	12.775	1.8182	0.1	2612.1
27574	12.683	2.0909	0.1	2635.9
27575	12.775	2.	0.1	2611.8
27576	12.683	2.2727	0.1	2635.7
27577	12.775	2.1818	0.1	2611.6
27578	12.683	2.4545	0.1	2635.5
27579	12.775	2.3636	0.1	2611.4
27580	12.683	2.6364	0.1	2635.4
27581	12.775	2.5455	0.1	2611.3
27582	12.683	2.8182	0.1	2635.3
27583	12.775	2.7273	0.1	2611.2
27584	12.683	3.	0.1	2635.3
27585	12.775	2.9091	0.1	2611.1
27586	12.683	3.1818	0.1	2635.3
27587	12.775	3.0909	0.1	2611.1
27588	12.683	3.3636	0.1	2635.4
27589	12.775	3.2727	0.1	2611.2
27590	12.683	3.5455	0.1	2635.5
27591	12.775	3.4545	0.1	2611.3
27592	12.683	3.7273	0.1	2635.7
27593	12.775	3.6364	0.1	2611.4
27594	12.683	3.9091	0.1	2635.9
27595	12.775	3.8182	0.1	2611.6
27596	12.683	4.0909	0.1	2636.2
27597	12.775	4.	0.1	2611.8
27598	12.683	4.2727	0.1	2636.6
27599	12.775	4.1818	0.1	2612.1
27600	12.683	4.4545	0.1	2637.
27601	12.775	4.3636	0.1	2612.5
27602	12.683	4.6364	0.1	2637.4
27603	12.775	4.5455	0.1	2612.9
27604	12.683	4.8182	0.1	2637.9
27605	12.775	4.7273	0.1	2613.3
27606	12.683	5.	0.1	2638.5
27607	12.775	4.9091	0.1	2613.8
27608	12.683	5.1818	0.1	2639.2
27609	12.775	5.0909	0.1	2614.4
27610	12.683	5.3636	0.1	2639.9
27611	12.775	5.2727	0.1	2615.1
27612	12.683	5.5455	0.1	2640.8
27613	12.775	5.4545	0.1	2615.8
27614	12.683	5.7273	0.1	2642.4
27615	12.775	5.6364	0.1	2616.7
27616	12.775	5.8182	0.1	2619.1
27617	12.683	5.9091	0.1	2639.5
27618	12.867	0.27273	0.1	2593.3
27619	12.959	0.18182	0.1	2570.
27620	12.867	9.0909e-002	0.1	2590.3
27621	12.867	0.45455	0.1	2591.7
27622	12.959	0.36364	0.1	2567.7
27623	12.867	0.63636	0.1	2590.9
27624	12.959	0.54545	0.1	2566.9
27625	12.867	0.81818	0.1	2590.3
27626	12.959	0.72727	0.1	2566.2
27627	12.867	1.	0.1	2589.7
27628	12.959	0.90909	0.1	2565.7
27629	12.867	1.1818	0.1	2589.2
27630	12.959	1.0909	0.1	2565.2
27631	12.867	1.3636	0.1	2588.7
27632	12.959	1.2727	0.1	2564.7
27633	12.867	1.5455	0.1	2588.4
27634	12.959	1.4545	0.1	2564.3
27635	12.867	1.7273	0.1	2588.
27636	12.959	1.6364	0.1	2564.
27637	12.867	1.9091	0.1	2587.7
27638	12.959	1.8182	0.1	2563.7
27639	12.867	2.0909	0.1	2587.5
27640	12.959	2.	0.1	2563.5
27641	12.867	2.2727	0.1	2587.3
27642	12.959	2.1818	0.1	2563.3
27643	12.867	2.4545	0.1	2587.1
27644	12.959	2.3636	0.1	2563.1
27645	12.867	2.6364	0.1	2587.
27646	12.959	2.5455	0.1	2563.
27647	12.867	2.8182	0.1	2587.
27648	12.959	2.7273	0.1	2562.9
27649	12.867	3.	0.1	2586.9
27650	12.959	2.9091	0.1	2562.9
27651	12.867	3.1818	0.1	2587.
27652	12.959	3.0909	0.1	2562.9
27653	12.867	3.3636	0.1	2587.
27654	12.959	3.2727	0.1	2562.9
27655	12.867	3.5455	0.1	2587.1
27656	12.959	3.4545	0.1	2563.
27657	12.867	3.7273	0.1	2587.3
27658	12.959	3.6364	0.1	2563.1
27659	12.867	3.9091	0.1	2587.5
27660	12.959	3.8182	0.1	2563.3
27661	12.867	4.0909	0.1	2587.7
27662	12.959	4.	0.1	2563.5
27663	12.867	4.2727	0.1	2588.
27664	12.959	4.1818	0.1	2563.7
27665	12.867	4.4545	0.1	2588.4
27666	12.959	4.3636	0.1	2564.
27667	12.867	4.6364	0.1	2588.7
27668	12.959	4.5455	0.1	2564.3
27669	12.867	4.8182	0.1	2589.2
27670	12.959	4.7273	0.1	2564.7
27671	12.867	5.	0.1	2589.7
27672	12.959	4.9091	0.1	2565.2
27673	12.867	5.1818	0.1	2590.3
27674	12.959	5.0909	0.1	2565.7
27675	12.867	5.3636	0.1	2590.9
27676	12.959	5.2727	0.1	2566.2
27677	12.867	5.5455	0.1	2591.7
27678	12.959	5.4545	0.1	2566.9
27679	12.867	5.7273	0.1	2593.3
27680	12.959	5.6364	0.1	2567.7
27681	12.959	5.8182	0.1	2570.
27682	12.867	5.9091	0.1	2590.3
27683	13.05	0.27273	0.1	2544.4
27684	13.142	0.18182	0.1	2521.2
27685	13.05	9.0909e-002	0.1	2541.3
27686	13.05	0.45455	0.1	2542.9
27687	13.142	0.36364	0.1	2518.9
27688	13.05	0.63636	0.1	2542.2
27689	13.142	0.54545	0.1	2518.2
27690	13.05	0.81818	0.1	2541.6
27691	13.142	0.72727	0.1	2517.6
27692	13.05	1.	0.1	2541.1
27693	13.142	0.90909	0.1	2517.1
27694	13.05	1.1818	0.1	2540.6
27695	13.142	1.0909	0.1	2516.7
27696	13.05	1.3636	0.1	2540.3
27697	13.142	1.2727	0.1	2516.3
27698	13.05	1.5455	0.1	2539.9
27699	13.142	1.4545	0.1	2516.
27700	13.05	1.7273	0.1	2539.7
27701	13.142	1.6364	0.1	2515.7
27702	13.05	1.9091	0.1	2539.4
27703	13.142	1.8182	0.1	2515.5
27704	13.05	2.0909	0.1	2539.2
27705	13.142	2.	0.1	2515.3
27706	13.05	2.2727	0.1	2539.1
27707	13.142	2.1818	0.1	2515.1
27708	13.05	2.4545	0.1	2538.9
27709	13.142	2.3636	0.1	2515.
27710	13.05	2.6364	0.1	2538.8
27711	13.142	2.5455	0.1	2514.9
27712	13.05	2.8182	0.1	2538.8
27713	13.142	2.7273	0.1	2514.8
27714	13.05	3.	0.1	2538.8
27715	13.142	2.9091	0.1	2514.8
27716	13.05	3.1818	0.1	2538.8
27717	13.142	3.0909	0.1	2514.8
27718	13.05	3.3636	0.1	2538.8
27719	13.142	3.2727	0.1	2514.8
27720	13.05	3.5455	0.1	2538.9
27721	13.142	3.4545	0.1	2514.9
27722	13.05	3.7273	0.1	2539.1
27723	13.142	3.6364	0.1	2515.
27724	13.05	3.9091	0.1	2539.2
27725	13.142	3.8182	0.1	2515.1
27726	13.05	4.0909	0.1	2539.4
27727	13.142	4.	0.1	2515.3
27728	13.05	4.2727	0.1	2539.7
27729	13.142	4.1818	0.1	2515.5
27730	13.05	4.4545	0.1	2539.9
27731	13.142	4.3636	0.1	2515.7
27732	13.05	4.6364	0.1	2540.3
27733	13.142	4.5455	0.1	2516.
27734	13.05	4.8182	0.1	2540.6
27735	13.142	4.7273	0.1	2516.3
27736	13.05	5.	0.1	2541.1
27737	13.142	4.9091	0.1	2516.7
27738	13.05	5.1818	0.1	2541.6
27739	13.142	5.0909	0.1	2517.1
27740	13.05	5.3636	0.1	2542.2
27741	13.142	5.2727	0.1	2517.6
27742	13.05	5.5455	0.1	2542.9
27743	13.142	5.4545	0.1	2518.2
27744	13.05	5.7273	0.1	2544.4
27745	13.142	5.6364	0.1	2518.9
27746	13.142	5.8182	0.1	2521.2
27747	13.05	5.9091	0.1	2541.3
27748	13.234	0.27273	0.1	2495.6
27749	13.326	0.18182	0.1	2472.4
27750	13.234	9.0909e-002	0.1	2492.4
27751	13.234	0.45455	0.1	2494.2
27752	13.326	0.36364	0.1	2470.2
27753	13.234	0.63636	0.1	2493.5
27754	13.326	0.54545	0.1	2469.6
27755	13.234	0.81818	0.1	2493.1
27756	13.326	0.72727	0.1	2469.1
27757	13.234	1.	0.1	2492.6
27758	13.326	0.90909	0.1	2468.7
27759	13.234	1.1818	0.1	2492.3
27760	13.326	1.0909	0.1	2468.3
27761	13.234	1.3636	0.1	2492.
27762	13.326	1.2727	0.1	2468.1
27763	13.234	1.5455	0.1	2491.7
27764	13.326	1.4545	0.1	2467.8
27765	13.234	1.7273	0.1	2491.5
27766	13.326	1.6364	0.1	2467.6
27767	13.234	1.9091	0.1	2491.3
27768	13.326	1.8182	0.1	2467.5
27769	13.234	2.0909	0.1	2491.2
27770	13.326	2.	0.1	2467.3
27771	13.234	2.2727	0.1	2491.1
27772	13.326	2.1818	0.1	2467.2
27773	13.234	2.4545	0.1	2491.
27774	13.326	2.3636	0.1	2467.1
27775	13.234	2.6364	0.1	2490.9
27776	13.326	2.5455	0.1	2467.1
27777	13.234	2.8182	0.1	2490.8
27778	13.326	2.7273	0.1	2467.
27779	13.234	3.	0.1	2490.8
27780	13.326	2.9091	0.1	2467.
27781	13.234	3.1818	0.1	2490.8
27782	13.326	3.0909	0.1	2467.
27783	13.234	3.3636	0.1	2490.9
27784	13.326	3.2727	0.1	2467.
27785	13.234	3.5455	0.1	2491.
27786	13.326	3.4545	0.1	2467.1
27787	13.234	3.7273	0.1	2491.1
27788	13.326	3.6364	0.1	2467.1
27789	13.234	3.9091	0.1	2491.2
27790	13.326	3.8182	0.1	2467.2
27791	13.234	4.0909	0.1	2491.3
27792	13.326	4.	0.1	2467.3
27793	13.234	4.2727	0.1	2491.5
27794	13.326	4.1818	0.1	2467.5
27795	13.234	4.4545	0.1	2491.7
27796	13.326	4.3636	0.1	2467.6
27797	13.234	4.6364	0.1	2492.
27798	13.326	4.5455	0.1	2467.8
27799	13.234	4.8182	0.1	2492.3
27800	13.326	4.7273	0.1	2468.1
27801	13.234	5.	0.1	2492.6
27802	13.326	4.9091	0.1	2468.3
27803	13.234	5.1818	0.1	2493.1
27804	13.326	5.0909	0.1	2468.7
27805	13.234	5.3636	0.1	2493.5
27806	13.326	5.2727	0.1	2469.1
27807	13.234	5.5455	0.1	2494.2
27808	13.326	5.4545	0.1	2469.6
27809	13.234	5.7273	0.1	2495.6
27810	13.326	5.6364	0.1	2470.2
27811	13.326	5.8182	0.1	2472.4
27812	13.234	5.9091	0.1	2492.4
27813	13.418	0.27273	0.1	2447.
27814	13.51	0.18182	0.1	2423.8
27815	13.418	9.0909e-002	0.1	2443.7
27816	13.418	0.45455	0.1	2445.6
27817	13.51	0.36364	0.1	2421.7
27818	13.418	0.63636	0.1	2445.1
27819	13.51	0.54545	0.1	2421.1
27820	13.418	0.81818	0.1	2444.7
27821	13.51	0.72727	0.1	2420.8
27822	13.418	1.	0.1	2444.4
27823	13.51	0.90909	0.1	2420.4
27824	13.418	1.1818	0.1	2444.1
27825	13.51	1.0909	0.1	2420.2
27826	13.418	1.3636	0.1	2443.9
27827	13.51	1.2727	0.1	2420.
27828	13.418	1.5455	0.1	2443.7
27829	13.51	1.4545	0.1	2419.9
27830	13.418	1.7273	0.1	2443.6
27831	13.51	1.6364	0.1	2419.8
27832	13.418	1.9091	0.1	2443.4
27833	13.51	1.8182	0.1	2419.7
27834	13.418	2.0909	0.1	2443.3
27835	13.51	2.	0.1	2419.6
27836	13.418	2.2727	0.1	2443.3
27837	13.51	2.1818	0.1	2419.5
27838	13.418	2.4545	0.1	2443.2
27839	13.51	2.3636	0.1	2419.5
27840	13.418	2.6364	0.1	2443.2
27841	13.51	2.5455	0.1	2419.4
27842	13.418	2.8182	0.1	2443.1
27843	13.51	2.7273	0.1	2419.4
27844	13.418	3.	0.1	2443.1
27845	13.51	2.9091	0.1	2419.4
27846	13.418	3.1818	0.1	2443.1
27847	13.51	3.0909	0.1	2419.4
27848	13.418	3.3636	0.1	2443.2
27849	13.51	3.2727	0.1	2419.4
27850	13.418	3.5455	0.1	2443.2
27851	13.51	3.4545	0.1	2419.4
27852	13.418	3.7273	0.1	2443.3
27853	13.51	3.6364	0.1	2419.5
27854	13.418	3.9091	0.1	2443.3
27855	13.51	3.8182	0.1	2419.5
27856	13.418	4.0909	0.1	2443.4
27857	13.51	4.	0.1	2419.6
27858	13.418	4.2727	0.1	2443.6
27859	13.51	4.1818	0.1	2419.7
27860	13.418	4.4545	0.1	2443.7
27861	13.51	4.3636	0.1	2419.8
27862	13.418	4.6364	0.1	2443.9
27863	13.51	4.5455	0.1	2419.9
27864	13.418	4.8182	0.1	2444.1
27865	13.51	4.7273	0.1	2420.
27866	13.418	5.	0.1	2444.4
27867	13.51	4.9091	0.1	2420.2
27868	13.418	5.1818	0.1	2444.7
27869	13.51	5.0909	0.1	2420.4
27870	13.418	5.3636	0.1	2445.1
27871	13.51	5.2727	0.1	2420.8
27872	13.418	5.5455	0.1	2445.6
27873	13.51	5.4545	0.1	2421.1
27874	13.418	5.7273	0.1	2447.
27875	13.51	5.6364	0.1	2421.7
27876	13.51	5.8182	0.1	2423.8
27877	13.418	5.9091	0.1	2443.7
27878	13.602	0.27273	0.1	2398.4
27879	13.694	0.18182	0.1	2375.3
27880	13.602	9.0909e-002	0.1	2395.1
27881	13.602	0.45455	0.1	2397.2
27882	13.694	0.36364	0.1	2373.3
27883	13.602	0.63636	0.1	2396.8
27884	13.694	0.54545	0.1	2372.8
27885	13.602	0.81818	0.1	2396.5
27886	13.694	0.72727	0.1	2372.6
27887	13.602	1.	0.1	2396.3
27888	13.694	0.90909	0.1	2372.4
27889	13.602	1.1818	0.1	2396.1
27890	13.694	1.0909	0.1	2372.2
27891	13.602	1.3636	0.1	2396.
27892	13.694	1.2727	0.1	2372.2
27893	13.602	1.5455	0.1	2395.9
27894	13.694	1.4545	0.1	2372.1
27895	13.602	1.7273	0.1	2395.8
27896	13.694	1.6364	0.1	2372.1
27897	13.602	1.9091	0.1	2395.8
27898	13.694	1.8182	0.1	2372.1
27899	13.602	2.0909	0.1	2395.7
27900	13.694	2.	0.1	2372.1
27901	13.602	2.2727	0.1	2395.7
27902	13.694	2.1818	0.1	2372.
27903	13.602	2.4545	0.1	2395.7
27904	13.694	2.3636	0.1	2372.
27905	13.602	2.6364	0.1	2395.7
27906	13.694	2.5455	0.1	2372.
27907	13.602	2.8182	0.1	2395.6
27908	13.694	2.7273	0.1	2372.
27909	13.602	3.	0.1	2395.6
27910	13.694	2.9091	0.1	2372.
27911	13.602	3.1818	0.1	2395.6
27912	13.694	3.0909	0.1	2372.
27913	13.602	3.3636	0.1	2395.7
27914	13.694	3.2727	0.1	2372.
27915	13.602	3.5455	0.1	2395.7
27916	13.694	3.4545	0.1	2372.
27917	13.602	3.7273	0.1	2395.7
27918	13.694	3.6364	0.1	2372.
27919	13.602	3.9091	0.1	2395.7
27920	13.694	3.8182	0.1	2372.
27921	13.602	4.0909	0.1	2395.8
27922	13.694	4.	0.1	2372.1
27923	13.602	4.2727	0.1	2395.8
27924	13.694	4.1818	0.1	2372.1
27925	13.602	4.4545	0.1	2395.9
27926	13.694	4.3636	0.1	2372.1
27927	13.602	4.6364	0.1	2396.
27928	13.694	4.5455	0.1	2372.1
27929	13.602	4.8182	0.1	2396.1
27930	13.694	4.7273	0.1	2372.2
27931	13.602	5.	0.1	2396.3
27932	13.694	4.9091	0.1	2372.2
27933	13.602	5.1818	0.1	2396.5
27934	13.694	5.0909	0.1	2372.4
27935	13.602	5.3636	0.1	2396.8
27936	13.694	5.2727	0.1	2372.6
27937	13.602	5.5455	0.1	2397.2
27938	13.694	5.4545	0.1	2372.8
27939	13.602	5.7273	0.1	2398.4
27940	13.694	5.6364	0.1	2373.3
27941	13.694	5.8182	0.1	2375.3
27942	13.602	5.9091	0.1	2395.1
27943	13.786	0.27273	0.1	2350.
27944	13.878	0.18182	0.1	2326.9
27945	13.786	9.0909e-002	0.1	2346.6
27946	13.786	0.45455	0.1	2348.9
27947	13.878	0.36364	0.1	2325.
27948	13.786	0.63636	0.1	2348.6
27949	13.878	0.54545	0.1	2324.7
27950	13.786	0.81818	0.1	2348.4
27951	13.878	0.72727	0.1	2324.5
27952	13.786	1.	0.1	2348.3
27953	13.878	0.90909	0.1	2324.5
27954	13.786	1.1818	0.1	2348.3
27955	13.878	1.0909	0.1	2324.5
27956	13.786	1.3636	0.1	2348.3
27957	13.878	1.2727	0.1	2324.5
27958	13.786	1.5455	0.1	2348.3
27959	13.878	1.4545	0.1	2324.5
27960	13.786	1.7273	0.1	2348.3
27961	13.878	1.6364	0.1	2324.6
27962	13.786	1.9091	0.1	2348.3
27963	13.878	1.8182	0.1	2324.7
27964	13.786	2.0909	0.1	2348.4
27965	13.878	2.	0.1	2324.8
27966	13.786	2.2727	0.1	2348.4
27967	13.878	2.1818	0.1	2324.8
27968	13.786	2.4545	0.1	2348.4
27969	13.878	2.3636	0.1	2324.9
27970	13.786	2.6364	0.1	2348.4
27971	13.878	2.5455	0.1	2324.9
27972	13.786	2.8182	0.1	2348.4
27973	13.878	2.7273	0.1	2324.9
27974	13.786	3.	0.1	2348.4
27975	13.878	2.9091	0.1	2324.9
27976	13.786	3.1818	0.1	2348.4
27977	13.878	3.0909	0.1	2324.9
27978	13.786	3.3636	0.1	2348.4
27979	13.878	3.2727	0.1	2324.9
27980	13.786	3.5455	0.1	2348.4
27981	13.878	3.4545	0.1	2324.9
27982	13.786	3.7273	0.1	2348.4
27983	13.878	3.6364	0.1	2324.9
27984	13.786	3.9091	0.1	2348.4
27985	13.878	3.8182	0.1	2324.8
27986	13.786	4.0909	0.1	2348.3
27987	13.878	4.	0.1	2324.8
27988	13.786	4.2727	0.1	2348.3
27989	13.878	4.1818	0.1	2324.7
27990	13.786	4.4545	0.1	2348.3
27991	13.878	4.3636	0.1	2324.6
27992	13.786	4.6364	0.1	2348.3
27993	13.878	4.5455	0.1	2324.5
27994	13.786	4.8182	0.1	2348.3
27995	13.878	4.7273	0.1	2324.5
27996	13.786	5.	0.1	2348.3
27997	13.878	4.9091	0.1	2324.5
27998	13.786	5.1818	0.1	2348.4
27999	13.878	5.0909	0.1	2324.5
28000	13.786	5.3636	0.1	2348.6
28001	13.878	5.2727	0.1	2324.5
28002	13.786	5.5455	0.1	2348.9
28003	13.878	5.4545	0.1	2324.7
28004	13.786	5.7273	0.1	2350.
28005	13.878	5.6364	0.1	2325.
28006	13.878	5.8182	0.1	2326.9
28007	13.786	5.9091	0.1	2346.6
28008	13.97	0.27273	0.1	2301.7
28009	14.061	0.18182	0.1	2278.5
28010	13.97	9.0909e-002	0.1	2298.2
28011	13.97	0.45455	0.1	2300.7
28012	14.061	0.36364	0.1	2276.8
28013	13.97	0.63636	0.1	2300.6
28014	14.061	0.54545	0.1	2276.6
28015	13.97	0.81818	0.1	2300.5
28016	14.061	0.72727	0.1	2276.6
28017	13.97	1.	0.1	2300.6
28018	14.061	0.90909	0.1	2276.7
28019	13.97	1.1818	0.1	2300.6
28020	14.061	1.0909	0.1	2276.8
28021	13.97	1.3636	0.1	2300.7
28022	14.061	1.2727	0.1	2277.
28023	13.97	1.5455	0.1	2300.9
28024	14.061	1.4545	0.1	2277.2
28025	13.97	1.7273	0.1	2301.
28026	14.061	1.6364	0.1	2277.4
28027	13.97	1.9091	0.1	2301.1
28028	14.061	1.8182	0.1	2277.5
28029	13.97	2.0909	0.1	2301.2
28030	14.061	2.	0.1	2277.7
28031	13.97	2.2727	0.1	2301.3
28032	14.061	2.1818	0.1	2277.8
28033	13.97	2.4545	0.1	2301.4
28034	14.061	2.3636	0.1	2278.
28035	13.97	2.6364	0.1	2301.4
28036	14.061	2.5455	0.1	2278.
28037	13.97	2.8182	0.1	2301.4
28038	14.061	2.7273	0.1	2278.1
28039	13.97	3.	0.1	2301.5
28040	14.061	2.9091	0.1	2278.1
28041	13.97	3.1818	0.1	2301.4
28042	14.061	3.0909	0.1	2278.1
28043	13.97	3.3636	0.1	2301.4
28044	14.061	3.2727	0.1	2278.1
28045	13.97	3.5455	0.1	2301.4
28046	14.061	3.4545	0.1	2278.
28047	13.97	3.7273	0.1	2301.3
28048	14.061	3.6364	0.1	2278.
28049	13.97	3.9091	0.1	2301.2
28050	14.061	3.8182	0.1	2277.8
28051	13.97	4.0909	0.1	2301.1
28052	14.061	4.	0.1	2277.7
28053	13.97	4.2727	0.1	2301.
28054	14.061	4.1818	0.1	2277.5
28055	13.97	4.4545	0.1	2300.9
28056	14.061	4.3636	0.1	2277.4
28057	13.97	4.6364	0.1	2300.7
28058	14.061	4.5455	0.1	2277.2
28059	13.97	4.8182	0.1	2300.6
28060	14.061	4.7273	0.1	2277.
28061	13.97	5.	0.1	2300.6
28062	14.061	4.9091	0.1	2276.8
28063	13.97	5.1818	0.1	2300.5
28064	14.061	5.0909	0.1	2276.7
28065	13.97	5.3636	0.1	2300.6
28066	14.061	5.2727	0.1	2276.6
28067	13.97	5.5455	0.1	2300.7
28068	14.061	5.4545	0.1	2276.6
28069	13.97	5.7273	0.1	2301.7
28070	14.061	5.6364	0.1	2276.8
28071	14.061	5.8182	0.1	2278.5
28072	13.97	5.9091	0.1	2298.2
28073	14.153	0.27273	0.1	2253.5
28074	14.245	0.18182	0.1	2230.2
28075	14.153	9.0909e-002	0.1	2249.8
28076	14.153	0.45455	0.1	2252.6
28077	14.245	0.36364	0.1	2228.7
28078	14.153	0.63636	0.1	2252.6
28079	14.245	0.54545	0.1	2228.6
28080	14.153	0.81818	0.1	2252.7
28081	14.245	0.72727	0.1	2228.8
28082	14.153	1.	0.1	2252.9
28083	14.245	0.90909	0.1	2229.
28084	14.153	1.1818	0.1	2253.2
28085	14.245	1.0909	0.1	2229.3
28086	14.153	1.3636	0.1	2253.4
28087	14.245	1.2727	0.1	2229.7
28088	14.153	1.5455	0.1	2253.7
28089	14.245	1.4545	0.1	2230.
28090	14.153	1.7273	0.1	2253.9
28091	14.245	1.6364	0.1	2230.3
28092	14.153	1.9091	0.1	2254.1
28093	14.245	1.8182	0.1	2230.6
28094	14.153	2.0909	0.1	2254.3
28095	14.245	2.	0.1	2230.9
28096	14.153	2.2727	0.1	2254.5
28097	14.245	2.1818	0.1	2231.1
28098	14.153	2.4545	0.1	2254.6
28099	14.245	2.3636	0.1	2231.3
28100	14.153	2.6364	0.1	2254.7
28101	14.245	2.5455	0.1	2231.5
28102	14.153	2.8182	0.1	2254.8
28103	14.245	2.7273	0.1	2231.5
28104	14.153	3.	0.1	2254.8
28105	14.245	2.9091	0.1	2231.6
28106	14.153	3.1818	0.1	2254.8
28107	14.245	3.0909	0.1	2231.6
28108	14.153	3.3636	0.1	2254.7
28109	14.245	3.2727	0.1	2231.5
28110	14.153	3.5455	0.1	2254.6
28111	14.245	3.4545	0.1	2231.5
28112	14.153	3.7273	0.1	2254.5
28113	14.245	3.6364	0.1	2231.3
28114	14.153	3.9091	0.1	2254.3
28115	14.245	3.8182	0.1	2231.1
28116	14.153	4.0909	0.1	2254.1
28117	14.245	4.	0.1	2230.9
28118	14.153	4.2727	0.1	2253.9
28119	14.245	4.1818	0.1	2230.6
28120	14.153	4.4545	0.1	2253.7
28121	14.245	4.3636	0.1	2230.3
28122	14.153	4.6364	0.1	2253.4
28123	14.245	4.5455	0.1	2230.
28124	14.153	4.8182	0.1	2253.2
28125	14.245	4.7273	0.1	2229.7
28126	14.153	5.	0.1	2252.9
28127	14.245	4.9091	0.1	2229.3
28128	14.153	5.1818	0.1	2252.7
28129	14.245	5.0909	0.1	2229.
28130	14.153	5.3636	0.1	2252.6
28131	14.245	5.2727	0.1	2228.8
28132	14.153	5.5455	0.1	2252.6
28133	14.245	5.4545	0.1	2228.6
28134	14.153	5.7273	0.1	2253.5
28135	14.245	5.6364	0.1	2228.7
28136	14.245	5.8182	0.1	2230.2
28137	14.153	5.9091	0.1	2249.8
28138	14.337	0.27273	0.1	2205.3
28139	14.429	0.18182	0.1	2182.
28140	14.337	9.0909e-002	0.1	2201.5
28141	14.337	0.45455	0.1	2204.6
28142	14.429	0.36364	0.1	2180.6
28143	14.337	0.63636	0.1	2204.8
28144	14.429	0.54545	0.1	2180.7
28145	14.337	0.81818	0.1	2205.1
28146	14.429	0.72727	0.1	2181.1
28147	14.337	1.	0.1	2205.4
28148	14.429	0.90909	0.1	2181.5
28149	14.337	1.1818	0.1	2205.8
28150	14.429	1.0909	0.1	2182.
28151	14.337	1.3636	0.1	2206.3
28152	14.429	1.2727	0.1	2182.5
28153	14.337	1.5455	0.1	2206.7
28154	14.429	1.4545	0.1	2183.
28155	14.337	1.7273	0.1	2207.1
28156	14.429	1.6364	0.1	2183.5
28157	14.337	1.9091	0.1	2207.4
28158	14.429	1.8182	0.1	2184.
28159	14.337	2.0909	0.1	2207.7
28160	14.429	2.	0.1	2184.4
28161	14.337	2.2727	0.1	2207.9
28162	14.429	2.1818	0.1	2184.7
28163	14.337	2.4545	0.1	2208.1
28164	14.429	2.3636	0.1	2185.
28165	14.337	2.6364	0.1	2208.3
28166	14.429	2.5455	0.1	2185.2
28167	14.337	2.8182	0.1	2208.4
28168	14.429	2.7273	0.1	2185.3
28169	14.337	3.	0.1	2208.4
28170	14.429	2.9091	0.1	2185.4
28171	14.337	3.1818	0.1	2208.4
28172	14.429	3.0909	0.1	2185.4
28173	14.337	3.3636	0.1	2208.3
28174	14.429	3.2727	0.1	2185.3
28175	14.337	3.5455	0.1	2208.1
28176	14.429	3.4545	0.1	2185.2
28177	14.337	3.7273	0.1	2207.9
28178	14.429	3.6364	0.1	2185.
28179	14.337	3.9091	0.1	2207.7
28180	14.429	3.8182	0.1	2184.7
28181	14.337	4.0909	0.1	2207.4
28182	14.429	4.	0.1	2184.4
28183	14.337	4.2727	0.1	2207.1
28184	14.429	4.1818	0.1	2184.
28185	14.337	4.4545	0.1	2206.7
28186	14.429	4.3636	0.1	2183.5
28187	14.337	4.6364	0.1	2206.3
28188	14.429	4.5455	0.1	2183.
28189	14.337	4.8182	0.1	2205.8
28190	14.429	4.7273	0.1	2182.5
28191	14.337	5.	0.1	2205.4
28192	14.429	4.9091	0.1	2182.
28193	14.337	5.1818	0.1	2205.1
28194	14.429	5.0909	0.1	2181.5
28195	14.337	5.3636	0.1	2204.8
28196	14.429	5.2727	0.1	2181.1
28197	14.337	5.5455	0.1	2204.6
28198	14.429	5.4545	0.1	2180.7
28199	14.337	5.7273	0.1	2205.3
28200	14.429	5.6364	0.1	2180.6
28201	14.429	5.8182	0.1	2182.
28202	14.337	5.9091	0.1	2201.5
28203	14.521	0.27273	0.1	2157.1
28204	14.613	0.18182	0.1	2133.6
28205	14.521	9.0909e-002	0.1	2153.2
28206	14.521	0.45455	0.1	2156.6
28207	14.613	0.36364	0.1	2132.4
28208	14.521	0.63636	0.1	2157.
28209	14.613	0.54545	0.1	2132.8
28210	14.521	0.81818	0.1	2157.5
28211	14.613	0.72727	0.1	2133.4
28212	14.521	1.	0.1	2158.1
28213	14.613	0.90909	0.1	2134.1
28214	14.521	1.1818	0.1	2158.7
28215	14.613	1.0909	0.1	2134.8
28216	14.521	1.3636	0.1	2159.3
28217	14.613	1.2727	0.1	2135.5
28218	14.521	1.5455	0.1	2159.9
28219	14.613	1.4545	0.1	2136.3
28220	14.521	1.7273	0.1	2160.4
28221	14.613	1.6364	0.1	2137.
28222	14.521	1.9091	0.1	2160.9
28223	14.613	1.8182	0.1	2137.6
28224	14.521	2.0909	0.1	2161.4
28225	14.613	2.	0.1	2138.1
28226	14.521	2.2727	0.1	2161.7
28227	14.613	2.1818	0.1	2138.6
28228	14.521	2.4545	0.1	2162.
28229	14.613	2.3636	0.1	2139.
28230	14.521	2.6364	0.1	2162.2
28231	14.613	2.5455	0.1	2139.2
28232	14.521	2.8182	0.1	2162.3
28233	14.613	2.7273	0.1	2139.4
28234	14.521	3.	0.1	2162.3
28235	14.613	2.9091	0.1	2139.5
28236	14.521	3.1818	0.1	2162.3
28237	14.613	3.0909	0.1	2139.5
28238	14.521	3.3636	0.1	2162.2
28239	14.613	3.2727	0.1	2139.4
28240	14.521	3.5455	0.1	2162.
28241	14.613	3.4545	0.1	2139.2
28242	14.521	3.7273	0.1	2161.7
28243	14.613	3.6364	0.1	2139.
28244	14.521	3.9091	0.1	2161.4
28245	14.613	3.8182	0.1	2138.6
28246	14.521	4.0909	0.1	2160.9
28247	14.613	4.	0.1	2138.1
28248	14.521	4.2727	0.1	2160.4
28249	14.613	4.1818	0.1	2137.6
28250	14.521	4.4545	0.1	2159.9
28251	14.613	4.3636	0.1	2137.
28252	14.521	4.6364	0.1	2159.3
28253	14.613	4.5455	0.1	2136.3
28254	14.521	4.8182	0.1	2158.7
28255	14.613	4.7273	0.1	2135.5
28256	14.521	5.	0.1	2158.1
28257	14.613	4.9091	0.1	2134.8
28258	14.521	5.1818	0.1	2157.5
28259	14.613	5.0909	0.1	2134.1
28260	14.521	5.3636	0.1	2157.
28261	14.613	5.2727	0.1	2133.4
28262	14.521	5.5455	0.1	2156.6
28263	14.613	5.4545	0.1	2132.8
28264	14.521	5.7273	0.1	2157.1
28265	14.613	5.6364	0.1	2132.4
28266	14.613	5.8182	0.1	2133.6
28267	14.521	5.9091	0.1	2153.2
28268	14.705	0.27273	0.1	2108.8
28269	14.797	0.18182	0.1	2085.2
28270	14.705	9.0909e-002	0.1	2104.8
28271	14.705	0.45455	0.1	2108.6
28272	14.797	0.36364	0.1	2084.2
28273	14.705	0.63636	0.1	2109.2
28274	14.797	0.54545	0.1	2084.9
28275	14.705	0.81818	0.1	2109.9
28276	14.797	0.72727	0.1	2085.7
28277	14.705	1.	0.1	2110.8
28278	14.797	0.90909	0.1	2086.7
28279	14.705	1.1818	0.1	2111.6
28280	14.797	1.0909	0.1	2087.7
28281	14.705	1.3636	0.1	2112.5
28282	14.797	1.2727	0.1	2088.7
28283	14.705	1.5455	0.1	2113.3
28284	14.797	1.4545	0.1	2089.7
28285	14.705	1.7273	0.1	2114.1
28286	14.797	1.6364	0.1	2090.6
28287	14.705	1.9091	0.1	2114.7
28288	14.797	1.8182	0.1	2091.4
28289	14.705	2.0909	0.1	2115.3
28290	14.797	2.	0.1	2092.2
28291	14.705	2.2727	0.1	2115.8
28292	14.797	2.1818	0.1	2092.8
28293	14.705	2.4545	0.1	2116.2
28294	14.797	2.3636	0.1	2093.3
28295	14.705	2.6364	0.1	2116.5
28296	14.797	2.5455	0.1	2093.7
28297	14.705	2.8182	0.1	2116.6
28298	14.797	2.7273	0.1	2093.9
28299	14.705	3.	0.1	2116.7
28300	14.797	2.9091	0.1	2094.1
28301	14.705	3.1818	0.1	2116.6
28302	14.797	3.0909	0.1	2094.1
28303	14.705	3.3636	0.1	2116.5
28304	14.797	3.2727	0.1	2093.9
28305	14.705	3.5455	0.1	2116.2
28306	14.797	3.4545	0.1	2093.7
28307	14.705	3.7273	0.1	2115.8
28308	14.797	3.6364	0.1	2093.3
28309	14.705	3.9091	0.1	2115.3
28310	14.797	3.8182	0.1	2092.8
28311	14.705	4.0909	0.1	2114.7
28312	14.797	4.	0.1	2092.2
28313	14.705	4.2727	0.1	2114.1
28314	14.797	4.1818	0.1	2091.4
28315	14.705	4.4545	0.1	2113.3
28316	14.797	4.3636	0.1	2090.6
28317	14.705	4.6364	0.1	2112.5
28318	14.797	4.5455	0.1	2089.7
28319	14.705	4.8182	0.1	2111.6
28320	14.797	4.7273	0.1	2088.7
28321	14.705	5.	0.1	2110.8
28322	14.797	4.9091	0.1	2087.7
28323	14.705	5.1818	0.1	2109.9
28324	14.797	5.0909	0.1	2086.7
28325	14.705	5.3636	0.1	2109.2
28326	14.797	5.2727	0.1	2085.7
28327	14.705	5.5455	0.1	2108.6
28328	14.797	5.4545	0.1	2084.9
28329	14.705	5.7273	0.1	2108.8
28330	14.797	5.6364	0.1	2084.2
28331	14.797	5.8182	0.1	2085.2
28332	14.705	5.9091	0.1	2104.8
28333	14.889	0.27273	0.1	2060.5
28334	14.98	0.18182	0.1	2036.6
28335	14.889	9.0909e-002	0.1	2056.3
28336	14.889	0.45455	0.1	2060.5
28337	14.98	0.36364	0.1	2035.9
28338	14.889	0.63636	0.1	2061.4
28339	14.98	0.54545	0.1	2036.8
28340	14.889	0.81818	0.1	2062.4
28341	14.98	0.72727	0.1	2038.
28342	14.889	1.	0.1	2063.6
28343	14.98	0.90909	0.1	2039.3
28344	14.889	1.1818	0.1	2064.7
28345	14.98	1.0909	0.1	2040.7
28346	14.889	1.3636	0.1	2065.9
28347	14.98	1.2727	0.1	2042.
28348	14.889	1.5455	0.1	2067.
28349	14.98	1.4545	0.1	2043.3
28350	14.889	1.7273	0.1	2068.
28351	14.98	1.6364	0.1	2044.5
28352	14.889	1.9091	0.1	2068.9
28353	14.98	1.8182	0.1	2045.6
28354	14.889	2.0909	0.1	2069.6
28355	14.98	2.	0.1	2046.6
28356	14.889	2.2727	0.1	2070.3
28357	14.98	2.1818	0.1	2047.4
28358	14.889	2.4545	0.1	2070.8
28359	14.98	2.3636	0.1	2048.1
28360	14.889	2.6364	0.1	2071.1
28361	14.98	2.5455	0.1	2048.6
28362	14.889	2.8182	0.1	2071.4
28363	14.98	2.7273	0.1	2048.9
28364	14.889	3.	0.1	2071.4
28365	14.98	2.9091	0.1	2049.1
28366	14.889	3.1818	0.1	2071.4
28367	14.98	3.0909	0.1	2049.1
28368	14.889	3.3636	0.1	2071.1
28369	14.98	3.2727	0.1	2048.9
28370	14.889	3.5455	0.1	2070.8
28371	14.98	3.4545	0.1	2048.6
28372	14.889	3.7273	0.1	2070.3
28373	14.98	3.6364	0.1	2048.1
28374	14.889	3.9091	0.1	2069.6
28375	14.98	3.8182	0.1	2047.4
28376	14.889	4.0909	0.1	2068.9
28377	14.98	4.	0.1	2046.6
28378	14.889	4.2727	0.1	2068.
28379	14.98	4.1818	0.1	2045.6
28380	14.889	4.4545	0.1	2067.
28381	14.98	4.3636	0.1	2044.5
28382	14.889	4.6364	0.1	2065.9
28383	14.98	4.5455	0.1	2043.3
28384	14.889	4.8182	0.1	2064.7
28385	14.98	4.7273	0.1	2042.
28386	14.889	5.	0.1	2063.6
28387	14.98	4.9091	0.1	2040.7
28388	14.889	5.1818	0.1	2062.4
28389	14.98	5.0909	0.1	2039.3
28390	14.889	5.3636	0.1	2061.4
28391	14.98	5.2727	0.1	2038.
28392	14.889	5.5455	0.1	2060.5
28393	14.98	5.4545	0.1	2036.8
28394	14.889	5.7273	0.1	2060.5
28395	14.98	5.6364	0.1	2035.9
28396	14.98	5.8182	0.1	2036.6
28397	14.889	5.9091	0.1	2056.3
28398	15.072	0.27273	0.1	2011.9
28399	15.164	0.18182	0.1	1987.7
28400	15.072	9.0909e-002	0.1	2007.6
28401	15.072	0.45455	0.1	2012.3
28402	15.164	0.36364	0.1	1987.4
28403	15.072	0.63636	0.1	2013.5
28404	15.164	0.54545	0.1	1988.7
28405	15.072	0.81818	0.1	2014.9
28406	15.164	0.72727	0.1	1990.2
28407	15.072	1.	0.1	2016.4
28408	15.164	0.90909	0.1	1991.9
28409	15.072	1.1818	0.1	2017.9
28410	15.164	1.0909	0.1	1993.7
28411	15.072	1.3636	0.1	2019.4
28412	15.164	1.2727	0.1	1995.4
28413	15.072	1.5455	0.1	2020.8
28414	15.164	1.4545	0.1	1997.1
28415	15.072	1.7273	0.1	2022.1
28416	15.164	1.6364	0.1	1998.7
28417	15.072	1.9091	0.1	2023.3
28418	15.164	1.8182	0.1	2000.1
28419	15.072	2.0909	0.1	2024.3
28420	15.164	2.	0.1	2001.4
28421	15.072	2.2727	0.1	2025.2
28422	15.164	2.1818	0.1	2002.4
28423	15.072	2.4545	0.1	2025.8
28424	15.164	2.3636	0.1	2003.3
28425	15.072	2.6364	0.1	2026.3
28426	15.164	2.5455	0.1	2003.9
28427	15.072	2.8182	0.1	2026.6
28428	15.164	2.7273	0.1	2004.4
28429	15.072	3.	0.1	2026.7
28430	15.164	2.9091	0.1	2004.6
28431	15.072	3.1818	0.1	2026.6
28432	15.164	3.0909	0.1	2004.6
28433	15.072	3.3636	0.1	2026.3
28434	15.164	3.2727	0.1	2004.4
28435	15.072	3.5455	0.1	2025.8
28436	15.164	3.4545	0.1	2003.9
28437	15.072	3.7273	0.1	2025.2
28438	15.164	3.6364	0.1	2003.3
28439	15.072	3.9091	0.1	2024.3
28440	15.164	3.8182	0.1	2002.4
28441	15.072	4.0909	0.1	2023.3
28442	15.164	4.	0.1	2001.4
28443	15.072	4.2727	0.1	2022.1
28444	15.164	4.1818	0.1	2000.1
28445	15.072	4.4545	0.1	2020.8
28446	15.164	4.3636	0.1	1998.7
28447	15.072	4.6364	0.1	2019.4
28448	15.164	4.5455	0.1	1997.1
28449	15.072	4.8182	0.1	2017.9
28450	15.164	4.7273	0.1	1995.4
28451	15.072	5.	0.1	2016.4
28452	15.164	4.9091	0.1	1993.7
28453	15.072	5.1818	0.1	2014.9
28454	15.164	5.0909	0.1	1991.9
28455	15.072	5.3636	0.1	2013.5
28456	15.164	5.2727	0.1	1990.2
28457	15.072	5.5455	0.1	2012.3
28458	15.164	5.4545	0.1	1988.7
28459	15.072	5.7273	0.1	2011.9
28460	15.164	5.6364	0.1	1987.4
28461	15.164	5.8182	0.1	1987.7
28462	15.072	5.9091	0.1	2007.6
28463	15.256	0.27273	0.1	1963.1
28464	15.348	0.18182	0.1	1938.5
28465	15.256	9.0909e-002	0.1	1958.6
28466	15.256	0.45455	0.1	1963.8
28467	15.348	0.36364	0.1	1938.6
28468	15.256	0.63636	0.1	1965.4
28469	15.348	0.54545	0.1	1940.3
28470	15.256	0.81818	0.1	1967.3
28471	15.348	0.72727	0.1	1942.3
28472	15.256	1.	0.1	1969.2
28473	15.348	0.90909	0.1	1944.5
28474	15.256	1.1818	0.1	1971.2
28475	15.348	1.0909	0.1	1946.7
28476	15.256	1.3636	0.1	1973.1
28477	15.348	1.2727	0.1	1949.
28478	15.256	1.5455	0.1	1974.9
28479	15.348	1.4545	0.1	1951.1
28480	15.256	1.7273	0.1	1976.6
28481	15.348	1.6364	0.1	1953.1
28482	15.256	1.9091	0.1	1978.1
28483	15.348	1.8182	0.1	1955.
28484	15.256	2.0909	0.1	1979.4
28485	15.348	2.	0.1	1956.6
28486	15.256	2.2727	0.1	1980.5
28487	15.348	2.1818	0.1	1957.9
28488	15.256	2.4545	0.1	1981.4
28489	15.348	2.3636	0.1	1959.
28490	15.256	2.6364	0.1	1982.
28491	15.348	2.5455	0.1	1959.9
28492	15.256	2.8182	0.1	1982.3
28493	15.348	2.7273	0.1	1960.4
28494	15.256	3.	0.1	1982.5
28495	15.348	2.9091	0.1	1960.7
28496	15.256	3.1818	0.1	1982.3
28497	15.348	3.0909	0.1	1960.7
28498	15.256	3.3636	0.1	1982.
28499	15.348	3.2727	0.1	1960.4
28500	15.256	3.5455	0.1	1981.4
28501	15.348	3.4545	0.1	1959.9
28502	15.256	3.7273	0.1	1980.5
28503	15.348	3.6364	0.1	1959.
28504	15.256	3.9091	0.1	1979.4
28505	15.348	3.8182	0.1	1957.9
28506	15.256	4.0909	0.1	1978.1
28507	15.348	4.	0.1	1956.6
28508	15.256	4.2727	0.1	1976.6
28509	15.348	4.1818	0.1	1955.
28510	15.256	4.4545	0.1	1974.9
28511	15.348	4.3636	0.1	1953.1
28512	15.256	4.6364	0.1	1973.1
28513	15.348	4.5455	0.1	1951.1
28514	15.256	4.8182	0.1	1971.2
28515	15.348	4.7273	0.1	1949.
28516	15.256	5.	0.1	1969.2
28517	15.348	4.9091	0.1	1946.7
28518	15.256	5.1818	0.1	1967.3
28519	15.348	5.0909	0.1	1944.5
28520	15.256	5.3636	0.1	1965.4
28521	15.348	5.2727	0.1	1942.3
28522	15.256	5.5455	0.1	1963.8
28523	15.348	5.4545	0.1	1940.3
28524	15.256	5.7273	0.1	1963.1
28525	15.348	5.6364	0.1	1938.6
28526	15.348	5.8182	0.1	1938.5
28527	15.256	5.9091	0.1	1958.6
28528	15.44	0.27273	0.1	1913.9
28529	15.532	0.18182	0.1	1888.8
28530	15.44	9.0909e-002	0.1	1909.2
28531	15.44	0.45455	0.1	1915.1
28532	15.532	0.36364	0.1	1889.4
28533	15.44	0.63636	0.1	1917.2
28534	15.532	0.54545	0.1	1891.6
28535	15.44	0.81818	0.1	1919.5
28536	15.532	0.72727	0.1	1894.1
28537	15.44	1.	0.1	1922.
28538	15.532	0.90909	0.1	1896.9
28539	15.44	1.1818	0.1	1924.5
28540	15.532	1.0909	0.1	1899.7
28541	15.44	1.3636	0.1	1926.9
28542	15.532	1.2727	0.1	1902.6
28543	15.44	1.5455	0.1	1929.3
28544	15.532	1.4545	0.1	1905.3
28545	15.44	1.7273	0.1	1931.4
28546	15.532	1.6364	0.1	1907.9
28547	15.44	1.9091	0.1	1933.4
28548	15.532	1.8182	0.1	1910.2
28549	15.44	2.0909	0.1	1935.
28550	15.532	2.	0.1	1912.2
28551	15.44	2.2727	0.1	1936.4
28552	15.532	2.1818	0.1	1914.
28553	15.44	2.4545	0.1	1937.5
28554	15.532	2.3636	0.1	1915.4
28555	15.44	2.6364	0.1	1938.3
28556	15.532	2.5455	0.1	1916.5
28557	15.44	2.8182	0.1	1938.8
28558	15.532	2.7273	0.1	1917.2
28559	15.44	3.	0.1	1938.9
28560	15.532	2.9091	0.1	1917.6
28561	15.44	3.1818	0.1	1938.8
28562	15.532	3.0909	0.1	1917.6
28563	15.44	3.3636	0.1	1938.3
28564	15.532	3.2727	0.1	1917.2
28565	15.44	3.5455	0.1	1937.5
28566	15.532	3.4545	0.1	1916.5
28567	15.44	3.7273	0.1	1936.4
28568	15.532	3.6364	0.1	1915.4
28569	15.44	3.9091	0.1	1935.
28570	15.532	3.8182	0.1	1914.
28571	15.44	4.0909	0.1	1933.4
28572	15.532	4.	0.1	1912.2
28573	15.44	4.2727	0.1	1931.4
28574	15.532	4.1818	0.1	1910.2
28575	15.44	4.4545	0.1	1929.3
28576	15.532	4.3636	0.1	1907.9
28577	15.44	4.6364	0.1	1926.9
28578	15.532	4.5455	0.1	1905.3
28579	15.44	4.8182	0.1	1924.5
28580	15.532	4.7273	0.1	1902.6
28581	15.44	5.	0.1	1922.
28582	15.532	4.9091	0.1	1899.7
28583	15.44	5.1818	0.1	1919.5
28584	15.532	5.0909	0.1	1896.9
28585	15.44	5.3636	0.1	1917.2
28586	15.532	5.2727	0.1	1894.1
28587	15.44	5.5455	0.1	1915.1
28588	15.532	5.4545	0.1	1891.6
28589	15.44	5.7273	0.1	1913.9
28590	15.532	5.6364	0.1	1889.4
28591	15.532	5.8182	0.1	1888.8
28592	15.44	5.9091	0.1	1909.2
28593	15.624	0.27273	0.1	1864.2
28594	15.716	0.18182	0.1	1838.4
28595	15.624	9.0909e-002	0.1	1859.2
28596	15.624	0.45455	0.1	1865.8
28597	15.716	0.36364	0.1	1839.6
28598	15.624	0.63636	0.1	1868.5
28599	15.716	0.54545	0.1	1842.3
28600	15.624	0.81818	0.1	1871.5
28601	15.716	0.72727	0.1	1845.6
28602	15.624	1.	0.1	1874.6
28603	15.716	0.90909	0.1	1849.1
28604	15.624	1.1818	0.1	1877.8
28605	15.716	1.0909	0.1	1852.6
28606	15.624	1.3636	0.1	1880.9
28607	15.716	1.2727	0.1	1856.2
28608	15.624	1.5455	0.1	1883.9
28609	15.716	1.4545	0.1	1859.7
28610	15.624	1.7273	0.1	1886.6
28611	15.716	1.6364	0.1	1862.9
28612	15.624	1.9091	0.1	1889.1
28613	15.716	1.8182	0.1	1865.9
28614	15.624	2.0909	0.1	1891.2
28615	15.716	2.	0.1	1868.5
28616	15.624	2.2727	0.1	1893.
28617	15.716	2.1818	0.1	1870.7
28618	15.624	2.4545	0.1	1894.4
28619	15.716	2.3636	0.1	1872.5
28620	15.624	2.6364	0.1	1895.4
28621	15.716	2.5455	0.1	1873.9
28622	15.624	2.8182	0.1	1896.
28623	15.716	2.7273	0.1	1874.8
28624	15.624	3.	0.1	1896.2
28625	15.716	2.9091	0.1	1875.3
28626	15.624	3.1818	0.1	1896.
28627	15.716	3.0909	0.1	1875.3
28628	15.624	3.3636	0.1	1895.4
28629	15.716	3.2727	0.1	1874.8
28630	15.624	3.5455	0.1	1894.4
28631	15.716	3.4545	0.1	1873.9
28632	15.624	3.7273	0.1	1893.
28633	15.716	3.6364	0.1	1872.5
28634	15.624	3.9091	0.1	1891.2
28635	15.716	3.8182	0.1	1870.7
28636	15.624	4.0909	0.1	1889.1
28637	15.716	4.	0.1	1868.5
28638	15.624	4.2727	0.1	1886.6
28639	15.716	4.1818	0.1	1865.9
28640	15.624	4.4545	0.1	1883.9
28641	15.716	4.3636	0.1	1862.9
28642	15.624	4.6364	0.1	1880.9
28643	15.716	4.5455	0.1	1859.7
28644	15.624	4.8182	0.1	1877.8
28645	15.716	4.7273	0.1	1856.2
28646	15.624	5.	0.1	1874.6
28647	15.716	4.9091	0.1	1852.6
28648	15.624	5.1818	0.1	1871.5
28649	15.716	5.0909	0.1	1849.1
28650	15.624	5.3636	0.1	1868.5
28651	15.716	5.2727	0.1	1845.6
28652	15.624	5.5455	0.1	1865.8
28653	15.716	5.4545	0.1	1842.3
28654	15.624	5.7273	0.1	1864.2
28655	15.716	5.6364	0.1	1839.6
28656	15.716	5.8182	0.1	1838.4
28657	15.624	5.9091	0.1	1859.2
28658	15.808	0.27273	0.1	1813.7
28659	15.9	0.18182	0.1	1787.1
28660	15.808	9.0909e-002	0.1	1808.5
28661	15.808	0.45455	0.1	1816.
28662	15.9	0.36364	0.1	1789.
28663	15.808	0.63636	0.1	1819.4
28664	15.9	0.54545	0.1	1792.5
28665	15.808	0.81818	0.1	1823.1
28666	15.9	0.72727	0.1	1796.5
28667	15.808	1.	0.1	1827.1
28668	15.9	0.90909	0.1	1800.9
28669	15.808	1.1818	0.1	1831.
28670	15.9	1.0909	0.1	1805.4
28671	15.808	1.3636	0.1	1835.
28672	15.9	1.2727	0.1	1809.8
28673	15.808	1.5455	0.1	1838.7
28674	15.9	1.4545	0.1	1814.2
28675	15.808	1.7273	0.1	1842.2
28676	15.9	1.6364	0.1	1818.3
28677	15.808	1.9091	0.1	1845.3
28678	15.9	1.8182	0.1	1822.1
28679	15.808	2.0909	0.1	1848.
28680	15.9	2.	0.1	1825.4
28681	15.808	2.2727	0.1	1850.3
28682	15.9	2.1818	0.1	1828.2
28683	15.808	2.4545	0.1	1852.1
28684	15.9	2.3636	0.1	1830.6
28685	15.808	2.6364	0.1	1853.4
28686	15.9	2.5455	0.1	1832.3
28687	15.808	2.8182	0.1	1854.1
28688	15.9	2.7273	0.1	1833.5
28689	15.808	3.	0.1	1854.4
28690	15.9	2.9091	0.1	1834.1
28691	15.808	3.1818	0.1	1854.1
28692	15.9	3.0909	0.1	1834.1
28693	15.808	3.3636	0.1	1853.4
28694	15.9	3.2727	0.1	1833.5
28695	15.808	3.5455	0.1	1852.1
28696	15.9	3.4545	0.1	1832.3
28697	15.808	3.7273	0.1	1850.3
28698	15.9	3.6364	0.1	1830.6
28699	15.808	3.9091	0.1	1848.
28700	15.9	3.8182	0.1	1828.2
28701	15.808	4.0909	0.1	1845.3
28702	15.9	4.	0.1	1825.4
28703	15.808	4.2727	0.1	1842.2
28704	15.9	4.1818	0.1	1822.1
28705	15.808	4.4545	0.1	1838.7
28706	15.9	4.3636	0.1	1818.3
28707	15.808	4.6364	0.1	1835.
28708	15.9	4.5455	0.1	1814.2
28709	15.808	4.8182	0.1	1831.
28710	15.9	4.7273	0.1	1809.8
28711	15.808	5.	0.1	1827.1
28712	15.9	4.9091	0.1	1805.4
28713	15.808	5.1818	0.1	1823.1
28714	15.9	5.0909	0.1	1800.9
28715	15.808	5.3636	0.1	1819.4
28716	15.9	5.2727	0.1	1796.5
28717	15.808	5.5455	0.1	1816.
28718	15.9	5.4545	0.1	1792.5
28719	15.808	5.7273	0.1	1813.7
28720	15.9	5.6364	0.1	1789.
28721	15.9	5.8182	0.1	1787.1
28722	15.808	5.9091	0.1	1808.5
28723	15.991	0.27273	0.1	1762.3
28724	16.083	0.18182	0.1	1734.8
28725	15.991	9.0909e-002	0.1	1756.7
28726	15.991	0.45455	0.1	1765.4
28727	16.083	0.36364	0.1	1737.4
28728	15.991	0.63636	0.1	1769.6
28729	16.083	0.54545	0.1	1741.8
28730	15.991	0.81818	0.1	1774.3
28731	16.083	0.72727	0.1	1746.8
28732	15.991	1.	0.1	1779.2
28733	16.083	0.90909	0.1	1752.2
28734	15.991	1.1818	0.1	1784.2
28735	16.083	1.0909	0.1	1757.8
28736	15.991	1.3636	0.1	1789.1
28737	16.083	1.2727	0.1	1763.4
28738	15.991	1.5455	0.1	1793.8
28739	16.083	1.4545	0.1	1768.9
28740	15.991	1.7273	0.1	1798.2
28741	16.083	1.6364	0.1	1774.1
28742	15.991	1.9091	0.1	1802.1
28743	16.083	1.8182	0.1	1778.8
28744	15.991	2.0909	0.1	1805.6
28745	16.083	2.	0.1	1783.1
28746	15.991	2.2727	0.1	1808.5
28747	16.083	2.1818	0.1	1786.7
28748	15.991	2.4545	0.1	1810.8
28749	16.083	2.3636	0.1	1789.7
28750	15.991	2.6364	0.1	1812.5
28751	16.083	2.5455	0.1	1791.9
28752	15.991	2.8182	0.1	1813.5
28753	16.083	2.7273	0.1	1793.4
28754	15.991	3.	0.1	1813.8
28755	16.083	2.9091	0.1	1794.2
28756	15.991	3.1818	0.1	1813.5
28757	16.083	3.0909	0.1	1794.2
28758	15.991	3.3636	0.1	1812.5
28759	16.083	3.2727	0.1	1793.4
28760	15.991	3.5455	0.1	1810.8
28761	16.083	3.4545	0.1	1791.9
28762	15.991	3.7273	0.1	1808.5
28763	16.083	3.6364	0.1	1789.7
28764	15.991	3.9091	0.1	1805.6
28765	16.083	3.8182	0.1	1786.7
28766	15.991	4.0909	0.1	1802.1
28767	16.083	4.	0.1	1783.1
28768	15.991	4.2727	0.1	1798.2
28769	16.083	4.1818	0.1	1778.8
28770	15.991	4.4545	0.1	1793.8
28771	16.083	4.3636	0.1	1774.1
28772	15.991	4.6364	0.1	1789.1
28773	16.083	4.5455	0.1	1768.9
28774	15.991	4.8182	0.1	1784.2
28775	16.083	4.7273	0.1	1763.4
28776	15.991	5.	0.1	1779.2
28777	16.083	4.9091	0.1	1757.8
28778	15.991	5.1818	0.1	1774.3
28779	16.083	5.0909	0.1	1752.2
28780	15.991	5.3636	0.1	1769.6
28781	16.083	5.2727	0.1	1746.8
28782	15.991	5.5455	0.1	1765.4
28783	16.083	5.4545	0.1	1741.8
28784	15.991	5.7273	0.1	1762.3
28785	16.083	5.6364	0.1	1737.4
28786	16.083	5.8182	0.1	1734.8
28787	15.991	5.9091	0.1	1756.7
28788	16.175	0.27273	0.1	1709.7
28789	16.267	0.18182	0.1	1680.9
28790	16.175	9.0909e-002	0.1	1703.7
28791	16.175	0.45455	0.1	1713.7
28792	16.267	0.36364	0.1	1684.5
28793	16.175	0.63636	0.1	1718.9
28794	16.267	0.54545	0.1	1689.9
28795	16.175	0.81818	0.1	1724.7
28796	16.267	0.72727	0.1	1696.1
28797	16.175	1.	0.1	1730.8
28798	16.267	0.90909	0.1	1702.8
28799	16.175	1.1818	0.1	1737.
28800	16.267	1.0909	0.1	1709.8
28801	16.175	1.3636	0.1	1743.2
28802	16.267	1.2727	0.1	1716.8
28803	16.175	1.5455	0.1	1749.2
28804	16.267	1.4545	0.1	1723.7
28805	16.175	1.7273	0.1	1754.7
28806	16.267	1.6364	0.1	1730.3
28807	16.175	1.9091	0.1	1759.7
28808	16.267	1.8182	0.1	1736.3
28809	16.175	2.0909	0.1	1764.2
28810	16.267	2.	0.1	1741.7
28811	16.175	2.2727	0.1	1767.9
28812	16.267	2.1818	0.1	1746.3
28813	16.175	2.4545	0.1	1770.8
28814	16.267	2.3636	0.1	1750.1
28815	16.175	2.6364	0.1	1772.9
28816	16.267	2.5455	0.1	1753.
28817	16.175	2.8182	0.1	1774.2
28818	16.267	2.7273	0.1	1755.
28819	16.175	3.	0.1	1774.6
28820	16.267	2.9091	0.1	1755.9
28821	16.175	3.1818	0.1	1774.2
28822	16.267	3.0909	0.1	1755.9
28823	16.175	3.3636	0.1	1772.9
28824	16.267	3.2727	0.1	1755.
28825	16.175	3.5455	0.1	1770.8
28826	16.267	3.4545	0.1	1753.
28827	16.175	3.7273	0.1	1767.9
28828	16.267	3.6364	0.1	1750.1
28829	16.175	3.9091	0.1	1764.2
28830	16.267	3.8182	0.1	1746.3
28831	16.175	4.0909	0.1	1759.7
28832	16.267	4.	0.1	1741.7
28833	16.175	4.2727	0.1	1754.7
28834	16.267	4.1818	0.1	1736.3
28835	16.175	4.4545	0.1	1749.2
28836	16.267	4.3636	0.1	1730.3
28837	16.175	4.6364	0.1	1743.2
28838	16.267	4.5455	0.1	1723.7
28839	16.175	4.8182	0.1	1737.
28840	16.267	4.7273	0.1	1716.8
28841	16.175	5.	0.1	1730.8
28842	16.267	4.9091	0.1	1709.8
28843	16.175	5.1818	0.1	1724.7
28844	16.267	5.0909	0.1	1702.8
28845	16.175	5.3636	0.1	1718.9
28846	16.267	5.2727	0.1	1696.1
28847	16.175	5.5455	0.1	1713.7
28848	16.267	5.4545	0.1	1689.9
28849	16.175	5.7273	0.1	1709.7
28850	16.267	5.6364	0.1	1684.5
28851	16.267	5.8182	0.1	1680.9
28852	16.175	5.9091	0.1	1703.7
28853	16.359	0.27273	0.1	1655.6
28854	16.451	0.18182	0.1	1625.2
28855	16.359	9.0909e-002	0.1	1649.1
28856	16.359	0.45455	0.1	1660.7
28857	16.451	0.36364	0.1	1630.
28858	16.359	0.63636	0.1	1667.1
28859	16.451	0.54545	0.1	1636.6
28860	16.359	0.81818	0.1	1674.2
28861	16.451	0.72727	0.1	1644.2
28862	16.359	1.	0.1	1681.8
28863	16.451	0.90909	0.1	1652.5
28864	16.359	1.1818	0.1	1689.6
28865	16.451	1.0909	0.1	1661.2
28866	16.359	1.3636	0.1	1697.3
28867	16.451	1.2727	0.1	1670.
28868	16.359	1.5455	0.1	1704.8
28869	16.451	1.4545	0.1	1678.7
28870	16.359	1.7273	0.1	1711.8
28871	16.451	1.6364	0.1	1686.9
28872	16.359	1.9091	0.1	1718.2
28873	16.451	1.8182	0.1	1694.6
28874	16.359	2.0909	0.1	1723.9
28875	16.451	2.	0.1	1701.4
28876	16.359	2.2727	0.1	1728.6
28877	16.451	2.1818	0.1	1707.4
28878	16.359	2.4545	0.1	1732.3
28879	16.451	2.3636	0.1	1712.2
28880	16.359	2.6364	0.1	1735.
28881	16.451	2.5455	0.1	1715.9
28882	16.359	2.8182	0.1	1736.7
28883	16.451	2.7273	0.1	1718.4
28884	16.359	3.	0.1	1737.2
28885	16.451	2.9091	0.1	1719.7
28886	16.359	3.1818	0.1	1736.7
28887	16.451	3.0909	0.1	1719.7
28888	16.359	3.3636	0.1	1735.
28889	16.451	3.2727	0.1	1718.4
28890	16.359	3.5455	0.1	1732.3
28891	16.451	3.4545	0.1	1715.9
28892	16.359	3.7273	0.1	1728.6
28893	16.451	3.6364	0.1	1712.2
28894	16.359	3.9091	0.1	1723.9
28895	16.451	3.8182	0.1	1707.4
28896	16.359	4.0909	0.1	1718.2
28897	16.451	4.	0.1	1701.4
28898	16.359	4.2727	0.1	1711.8
28899	16.451	4.1818	0.1	1694.6
28900	16.359	4.4545	0.1	1704.8
28901	16.451	4.3636	0.1	1686.9
28902	16.359	4.6364	0.1	1697.3
28903	16.451	4.5455	0.1	1678.7
28904	16.359	4.8182	0.1	1689.6
28905	16.451	4.7273	0.1	1670.
28906	16.359	5.	0.1	1681.8
28907	16.451	4.9091	0.1	1661.2
28908	16.359	5.1818	0.1	1674.2
28909	16.451	5.0909	0.1	1652.5
28910	16.359	5.3636	0.1	1667.1
28911	16.451	5.2727	0.1	1644.2
28912	16.359	5.5455	0.1	1660.7
28913	16.451	5.4545	0.1	1636.6
28914	16.359	5.7273	0.1	1655.6
28915	16.451	5.6364	0.1	1630.
28916	16.451	5.8182	0.1	1625.2
28917	16.359	5.9091	0.1	1649.1
28918	16.543	0.27273	0.1	1599.5
28919	16.635	0.18182	0.1	1567.3
28920	16.543	9.0909e-002	0.1	1592.5
28921	16.543	0.45455	0.1	1605.9
28922	16.635	0.36364	0.1	1573.3
28923	16.543	0.63636	0.1	1613.7
28924	16.635	0.54545	0.1	1581.4
28925	16.543	0.81818	0.1	1622.5
28926	16.635	0.72727	0.1	1590.8
28927	16.543	1.	0.1	1631.9
28928	16.635	0.90909	0.1	1601.
28929	16.543	1.1818	0.1	1641.7
28930	16.635	1.0909	0.1	1611.8
28931	16.543	1.3636	0.1	1651.4
28932	16.635	1.2727	0.1	1622.8
28933	16.543	1.5455	0.1	1660.8
28934	16.635	1.4545	0.1	1633.7
28935	16.543	1.7273	0.1	1669.7
28936	16.635	1.6364	0.1	1644.2
28937	16.543	1.9091	0.1	1677.8
28938	16.635	1.8182	0.1	1653.9
28939	16.543	2.0909	0.1	1684.9
28940	16.635	2.	0.1	1662.6
28941	16.543	2.2727	0.1	1691.
28942	16.635	2.1818	0.1	1670.1
28943	16.543	2.4545	0.1	1695.8
28944	16.635	2.3636	0.1	1676.3
28945	16.543	2.6364	0.1	1699.3
28946	16.635	2.5455	0.1	1681.1
28947	16.543	2.8182	0.1	1701.4
28948	16.635	2.7273	0.1	1684.3
28949	16.543	3.	0.1	1702.1
28950	16.635	2.9091	0.1	1685.9
28951	16.543	3.1818	0.1	1701.4
28952	16.635	3.0909	0.1	1685.9
28953	16.543	3.3636	0.1	1699.3
28954	16.635	3.2727	0.1	1684.3
28955	16.543	3.5455	0.1	1695.8
28956	16.635	3.4545	0.1	1681.1
28957	16.543	3.7273	0.1	1691.
28958	16.635	3.6364	0.1	1676.3
28959	16.543	3.9091	0.1	1684.9
28960	16.635	3.8182	0.1	1670.1
28961	16.543	4.0909	0.1	1677.8
28962	16.635	4.	0.1	1662.6
28963	16.543	4.2727	0.1	1669.7
28964	16.635	4.1818	0.1	1653.9
28965	16.543	4.4545	0.1	1660.8
28966	16.635	4.3636	0.1	1644.2
28967	16.543	4.6364	0.1	1651.4
28968	16.635	4.5455	0.1	1633.7
28969	16.543	4.8182	0.1	1641.7
28970	16.635	4.7273	0.1	1622.8
28971	16.543	5.	0.1	1631.9
28972	16.635	4.9091	0.1	1611.8
28973	16.543	5.1818	0.1	1622.5
28974	16.635	5.0909	0.1	1601.
28975	16.543	5.3636	0.1	1613.7
28976	16.635	5.2727	0.1	1590.8
28977	16.543	5.5455	0.1	1605.9
28978	16.635	5.4545	0.1	1581.4
28979	16.543	5.7273	0.1	1599.5
28980	16.635	5.6364	0.1	1573.3
28981	16.635	5.8182	0.1	1567.3
28982	16.543	5.9091	0.1	1592.5
28983	16.727	0.27273	0.1	1541.
28984	16.819	0.18182	0.1	1506.5
28985	16.727	9.0909e-002	0.1	1533.3
28986	16.727	0.45455	0.1	1548.8
28987	16.819	0.36364	0.1	1514.
28988	16.727	0.63636	0.1	1558.5
28989	16.819	0.54545	0.1	1523.9
28990	16.727	0.81818	0.1	1569.3
28991	16.819	0.72727	0.1	1535.3
28992	16.727	1.	0.1	1580.9
28993	16.819	0.90909	0.1	1548.
28994	16.727	1.1818	0.1	1593.
28995	16.819	1.0909	0.1	1561.4
28996	16.727	1.3636	0.1	1605.2
28997	16.819	1.2727	0.1	1575.2
28998	16.727	1.5455	0.1	1617.1
28999	16.819	1.4545	0.1	1588.8
29000	16.727	1.7273	0.1	1628.4
29001	16.819	1.6364	0.1	1602.
29002	16.727	1.9091	0.1	1638.7
29003	16.819	1.8182	0.1	1614.3
29004	16.727	2.0909	0.1	1647.8
29005	16.819	2.	0.1	1625.5
29006	16.727	2.2727	0.1	1655.5
29007	16.819	2.1818	0.1	1635.1
29008	16.727	2.4545	0.1	1661.6
29009	16.819	2.3636	0.1	1643.
29010	16.727	2.6364	0.1	1666.1
29011	16.819	2.5455	0.1	1649.1
29012	16.727	2.8182	0.1	1668.8
29013	16.819	2.7273	0.1	1653.3
29014	16.727	3.	0.1	1669.7
29015	16.819	2.9091	0.1	1655.3
29016	16.727	3.1818	0.1	1668.8
29017	16.819	3.0909	0.1	1655.3
29018	16.727	3.3636	0.1	1666.1
29019	16.819	3.2727	0.1	1653.3
29020	16.727	3.5455	0.1	1661.6
29021	16.819	3.4545	0.1	1649.1
29022	16.727	3.7273	0.1	1655.5
29023	16.819	3.6364	0.1	1643.
29024	16.727	3.9091	0.1	1647.8
29025	16.819	3.8182	0.1	1635.1
29026	16.727	4.0909	0.1	1638.7
29027	16.819	4.	0.1	1625.5
29028	16.727	4.2727	0.1	1628.4
29029	16.819	4.1818	0.1	1614.3
29030	16.727	4.4545	0.1	1617.1
29031	16.819	4.3636	0.1	1602.
29032	16.727	4.6364	0.1	1605.2
29033	16.819	4.5455	0.1	1588.8
29034	16.727	4.8182	0.1	1593.
29035	16.819	4.7273	0.1	1575.2
29036	16.727	5.	0.1	1580.9
29037	16.819	4.9091	0.1	1561.4
29038	16.727	5.1818	0.1	1569.3
29039	16.819	5.0909	0.1	1548.
29040	16.727	5.3636	0.1	1558.5
29041	16.819	5.2727	0.1	1535.3
29042	16.727	5.5455	0.1	1548.8
29043	16.819	5.4545	0.1	1523.9
29044	16.727	5.7273	0.1	1541.
29045	16.819	5.6364	0.1	1514.
29046	16.819	5.8182	0.1	1506.5
29047	16.727	5.9091	0.1	1533.3
29048	16.91	0.27273	0.1	1479.4
29049	17.002	0.18182	0.1	1442.1
29050	16.91	9.0909e-002	0.1	1470.9
29051	16.91	0.45455	0.1	1489.
29052	17.002	0.36364	0.1	1451.4
29053	16.91	0.63636	0.1	1500.8
29054	17.002	0.54545	0.1	1463.4
29055	16.91	0.81818	0.1	1514.
29056	17.002	0.72727	0.1	1477.3
29057	16.91	1.	0.1	1528.4
29058	17.002	0.90909	0.1	1492.9
29059	16.91	1.1818	0.1	1543.5
29060	17.002	1.0909	0.1	1509.5
29061	16.91	1.3636	0.1	1558.8
29062	17.002	1.2727	0.1	1526.8
29063	16.91	1.5455	0.1	1573.8
29064	17.002	1.4545	0.1	1544.
29065	16.91	1.7273	0.1	1588.
29066	17.002	1.6364	0.1	1560.7
29067	16.91	1.9091	0.1	1601.1
29068	17.002	1.8182	0.1	1576.3
29069	16.91	2.0909	0.1	1612.8
29070	17.002	2.	0.1	1590.4
29071	16.91	2.2727	0.1	1622.6
29072	17.002	2.1818	0.1	1602.7
29073	16.91	2.4545	0.1	1630.5
29074	17.002	2.3636	0.1	1612.9
29075	16.91	2.6364	0.1	1636.3
29076	17.002	2.5455	0.1	1620.8
29077	16.91	2.8182	0.1	1639.8
29078	17.002	2.7273	0.1	1626.1
29079	16.91	3.	0.1	1640.9
29080	17.002	2.9091	0.1	1628.8
29081	16.91	3.1818	0.1	1639.8
29082	17.002	3.0909	0.1	1628.8
29083	16.91	3.3636	0.1	1636.3
29084	17.002	3.2727	0.1	1626.1
29085	16.91	3.5455	0.1	1630.5
29086	17.002	3.4545	0.1	1620.8
29087	16.91	3.7273	0.1	1622.6
29088	17.002	3.6364	0.1	1612.9
29089	16.91	3.9091	0.1	1612.8
29090	17.002	3.8182	0.1	1602.7
29091	16.91	4.0909	0.1	1601.1
29092	17.002	4.	0.1	1590.4
29093	16.91	4.2727	0.1	1588.
29094	17.002	4.1818	0.1	1576.3
29095	16.91	4.4545	0.1	1573.8
29096	17.002	4.3636	0.1	1560.7
29097	16.91	4.6364	0.1	1558.8
29098	17.002	4.5455	0.1	1544.
29099	16.91	4.8182	0.1	1543.5
29100	17.002	4.7273	0.1	1526.8
29101	16.91	5.	0.1	1528.4
29102	17.002	4.9091	0.1	1509.5
29103	16.91	5.1818	0.1	1514.
29104	17.002	5.0909	0.1	1492.9
29105	16.91	5.3636	0.1	1500.8
29106	17.002	5.2727	0.1	1477.3
29107	16.91	5.5455	0.1	1489.
29108	17.002	5.4545	0.1	1463.4
29109	16.91	5.7273	0.1	1479.4
29110	17.002	5.6364	0.1	1451.4
29111	17.002	5.8182	0.1	1442.1
29112	16.91	5.9091	0.1	1470.9
29113	17.094	0.27273	0.1	1414.
29114	17.186	0.18182	0.1	1373.4
29115	17.094	9.0909e-002	0.1	1404.6
29116	17.094	0.45455	0.1	1425.7
29117	17.186	0.36364	0.1	1384.7
29118	17.094	0.63636	0.1	1440.
29119	17.186	0.54545	0.1	1399.1
29120	17.094	0.81818	0.1	1456.2
29121	17.186	0.72727	0.1	1416.1
29122	17.094	1.	0.1	1474.
29123	17.186	0.90909	0.1	1435.2
29124	17.094	1.1818	0.1	1492.8
29125	17.186	1.0909	0.1	1455.9
29126	17.094	1.3636	0.1	1512.
29127	17.186	1.2727	0.1	1477.4
29128	17.094	1.5455	0.1	1530.9
29129	17.186	1.4545	0.1	1499.1
29130	17.094	1.7273	0.1	1549.
29131	17.186	1.6364	0.1	1520.2
29132	17.094	1.9091	0.1	1565.6
29133	17.186	1.8182	0.1	1540.1
29134	17.094	2.0909	0.1	1580.4
29135	17.186	2.	0.1	1558.1
29136	17.094	2.2727	0.1	1593.1
29137	17.186	2.1818	0.1	1573.8
29138	17.094	2.4545	0.1	1603.2
29139	17.186	2.3636	0.1	1586.9
29140	17.094	2.6364	0.1	1610.6
29141	17.186	2.5455	0.1	1597.
29142	17.094	2.8182	0.1	1615.1
29143	17.186	2.7273	0.1	1603.8
29144	17.094	3.	0.1	1616.6
29145	17.186	2.9091	0.1	1607.3
29146	17.094	3.1818	0.1	1615.1
29147	17.186	3.0909	0.1	1607.3
29148	17.094	3.3636	0.1	1610.6
29149	17.186	3.2727	0.1	1603.8
29150	17.094	3.5455	0.1	1603.2
29151	17.186	3.4545	0.1	1597.
29152	17.094	3.7273	0.1	1593.1
29153	17.186	3.6364	0.1	1586.9
29154	17.094	3.9091	0.1	1580.4
29155	17.186	3.8182	0.1	1573.8
29156	17.094	4.0909	0.1	1565.6
29157	17.186	4.	0.1	1558.1
29158	17.094	4.2727	0.1	1549.
29159	17.186	4.1818	0.1	1540.1
29160	17.094	4.4545	0.1	1530.9
29161	17.186	4.3636	0.1	1520.2
29162	17.094	4.6364	0.1	1512.
29163	17.186	4.5455	0.1	1499.1
29164	17.094	4.8182	0.1	1492.8
29165	17.186	4.7273	0.1	1477.4
29166	17.094	5.	0.1	1474.
29167	17.186	4.9091	0.1	1455.9
29168	17.094	5.1818	0.1	1456.2
29169	17.186	5.0909	0.1	1435.2
29170	17.094	5.3636	0.1	1440.
29171	17.186	5.2727	0.1	1416.1
29172	17.094	5.5455	0.1	1425.7
29173	17.186	5.4545	0.1	1399.1
29174	17.094	5.7273	0.1	1414.
29175	17.186	5.6364	0.1	1384.7
29176	17.186	5.8182	0.1	1373.4
29177	17.094	5.9091	0.1	1404.6
29178	17.278	0.27273	0.1	1344.
29179	17.37	0.18182	0.1	1299.5
29180	17.278	9.0909e-002	0.1	1333.4
29181	17.278	0.45455	0.1	1358.1
29182	17.37	0.36364	0.1	1313.1
29183	17.278	0.63636	0.1	1375.3
29184	17.37	0.54545	0.1	1330.3
29185	17.278	0.81818	0.1	1395.2
29186	17.37	0.72727	0.1	1350.9
29187	17.278	1.	0.1	1417.2
29188	17.37	0.90909	0.1	1374.3
29189	17.278	1.1818	0.1	1440.6
29190	17.37	1.0909	0.1	1399.9
29191	17.278	1.3636	0.1	1464.6
29192	17.37	1.2727	0.1	1426.8
29193	17.278	1.5455	0.1	1488.5
29194	17.37	1.4545	0.1	1454.1
29195	17.278	1.7273	0.1	1511.4
29196	17.37	1.6364	0.1	1480.9
29197	17.278	1.9091	0.1	1532.6
29198	17.37	1.8182	0.1	1506.1
29199	17.278	2.0909	0.1	1551.5
29200	17.37	2.	0.1	1529.1
29201	17.278	2.2727	0.1	1567.7
29202	17.37	2.1818	0.1	1549.3
29203	17.278	2.4545	0.1	1580.7
29204	17.37	2.3636	0.1	1566.
29205	17.278	2.6364	0.1	1590.2
29206	17.37	2.5455	0.1	1579.
29207	17.278	2.8182	0.1	1596.1
29208	17.37	2.7273	0.1	1587.9
29209	17.278	3.	0.1	1598.
29210	17.37	2.9091	0.1	1592.4
29211	17.278	3.1818	0.1	1596.1
29212	17.37	3.0909	0.1	1592.4
29213	17.278	3.3636	0.1	1590.2
29214	17.37	3.2727	0.1	1587.9
29215	17.278	3.5455	0.1	1580.7
29216	17.37	3.4545	0.1	1579.
29217	17.278	3.7273	0.1	1567.7
29218	17.37	3.6364	0.1	1566.
29219	17.278	3.9091	0.1	1551.5
29220	17.37	3.8182	0.1	1549.3
29221	17.278	4.0909	0.1	1532.6
29222	17.37	4.	0.1	1529.1
29223	17.278	4.2727	0.1	1511.4
29224	17.37	4.1818	0.1	1506.1
29225	17.278	4.4545	0.1	1488.5
29226	17.37	4.3636	0.1	1480.9
29227	17.278	4.6364	0.1	1464.6
29228	17.37	4.5455	0.1	1454.1
29229	17.278	4.8182	0.1	1440.6
29230	17.37	4.7273	0.1	1426.8
29231	17.278	5.	0.1	1417.2
29232	17.37	4.9091	0.1	1399.9
29233	17.278	5.1818	0.1	1395.2
29234	17.37	5.0909	0.1	1374.3
29235	17.278	5.3636	0.1	1375.3
29236	17.37	5.2727	0.1	1350.9
29237	17.278	5.5455	0.1	1358.1
29238	17.37	5.4545	0.1	1330.3
29239	17.278	5.7273	0.1	1344.
29240	17.37	5.6364	0.1	1313.1
29241	17.37	5.8182	0.1	1299.5
29242	17.278	5.9091	0.1	1333.4
29243	17.462	0.27273	0.1	1268.5
29244	17.554	0.18182	0.1	1219.4
29245	17.462	9.0909e-002	0.1	1256.5
29246	17.462	0.45455	0.1	1285.3
29247	17.554	0.36364	0.1	1235.4
29248	17.462	0.63636	0.1	1305.9
29249	17.554	0.54545	0.1	1255.8
29250	17.462	0.81818	0.1	1330.1
29251	17.554	0.72727	0.1	1280.6
29252	17.462	1.	0.1	1357.2
29253	17.554	0.90909	0.1	1309.3
29254	17.462	1.1818	0.1	1386.3
29255	17.554	1.0909	0.1	1341.
29256	17.462	1.3636	0.1	1416.5
29257	17.554	1.2727	0.1	1374.6
29258	17.462	1.5455	0.1	1446.7
29259	17.554	1.4545	0.1	1409.1
29260	17.462	1.7273	0.1	1475.7
29261	17.554	1.6364	0.1	1443.
29262	17.462	1.9091	0.1	1502.8
29263	17.554	1.8182	0.1	1475.2
29264	17.462	2.0909	0.1	1527.
29265	17.554	2.	0.1	1504.5
29266	17.462	2.2727	0.1	1547.7
29267	17.554	2.1818	0.1	1530.3
29268	17.462	2.4545	0.1	1564.4
29269	17.554	2.3636	0.1	1551.8
29270	17.462	2.6364	0.1	1576.6
29271	17.554	2.5455	0.1	1568.5
29272	17.462	2.8182	0.1	1584.2
29273	17.554	2.7273	0.1	1579.9
29274	17.462	3.	0.1	1586.7
29275	17.554	2.9091	0.1	1585.7
29276	17.462	3.1818	0.1	1584.2
29277	17.554	3.0909	0.1	1585.7
29278	17.462	3.3636	0.1	1576.6
29279	17.554	3.2727	0.1	1579.9
29280	17.462	3.5455	0.1	1564.4
29281	17.554	3.4545	0.1	1568.5
29282	17.462	3.7273	0.1	1547.7
29283	17.554	3.6364	0.1	1551.8
29284	17.462	3.9091	0.1	1527.
29285	17.554	3.8182	0.1	1530.3
29286	17.462	4.0909	0.1	1502.8
29287	17.554	4.	0.1	1504.5
29288	17.462	4.2727	0.1	1475.7
29289	17.554	4.1818	0.1	1475.2
29290	17.462	4.4545	0.1	1446.7
29291	17.554	4.3636	0.1	1443.
29292	17.462	4.6364	0.1	1416.5
29293	17.554	4.5455	0.1	1409.1
29294	17.462	4.8182	0.1	1386.3
29295	17.554	4.7273	0.1	1374.6
29296	17.462	5.	0.1	1357.2
29297	17.554	4.9091	0.1	1341.
29298	17.462	5.1818	0.1	1330.1
29299	17.554	5.0909	0.1	1309.3
29300	17.462	5.3636	0.1	1305.9
29301	17.554	5.2727	0.1	1280.6
29302	17.462	5.5455	0.1	1285.3
29303	17.554	5.4545	0.1	1255.8
29304	17.462	5.7273	0.1	1268.5
29305	17.554	5.6364	0.1	1235.4
29306	17.554	5.8182	0.1	1219.4
29307	17.462	5.9091	0.1	1256.5
29308	17.646	0.27273	0.1	1186.3
29309	17.738	0.18182	0.1	1132.
29310	17.646	9.0909e-002	0.1	1172.8
29311	17.646	0.45455	0.1	1206.
29312	17.738	0.36364	0.1	1150.6
29313	17.646	0.63636	0.1	1230.7
29314	17.738	0.54545	0.1	1174.6
29315	17.646	0.81818	0.1	1260.
29316	17.738	0.72727	0.1	1204.4
29317	17.646	1.	0.1	1293.3
29318	17.738	0.90909	0.1	1239.2
29319	17.646	1.1818	0.1	1329.6
29320	17.738	1.0909	0.1	1278.3
29321	17.646	1.3636	0.1	1367.5
29322	17.738	1.2727	0.1	1320.4
29323	17.646	1.5455	0.1	1405.6
29324	17.738	1.4545	0.1	1363.9
29325	17.646	1.7273	0.1	1442.6
29326	17.738	1.6364	0.1	1407.
29327	17.646	1.9091	0.1	1477.
29328	17.738	1.8182	0.1	1448.
29329	17.646	2.0909	0.1	1508.
29330	17.738	2.	0.1	1485.6
29331	17.646	2.2727	0.1	1534.5
29332	17.738	2.1818	0.1	1518.6
29333	17.646	2.4545	0.1	1555.9
29334	17.738	2.3636	0.1	1546.1
29335	17.646	2.6364	0.1	1571.7
29336	17.738	2.5455	0.1	1567.5
29337	17.646	2.8182	0.1	1581.4
29338	17.738	2.7273	0.1	1582.2
29339	17.646	3.	0.1	1584.7
29340	17.738	2.9091	0.1	1589.7
29341	17.646	3.1818	0.1	1581.4
29342	17.738	3.0909	0.1	1589.7
29343	17.646	3.3636	0.1	1571.7
29344	17.738	3.2727	0.1	1582.2
29345	17.646	3.5455	0.1	1555.9
29346	17.738	3.4545	0.1	1567.5
29347	17.646	3.7273	0.1	1534.5
29348	17.738	3.6364	0.1	1546.1
29349	17.646	3.9091	0.1	1508.
29350	17.738	3.8182	0.1	1518.6
29351	17.646	4.0909	0.1	1477.
29352	17.738	4.	0.1	1485.6
29353	17.646	4.2727	0.1	1442.6
29354	17.738	4.1818	0.1	1448.
29355	17.646	4.4545	0.1	1405.6
29356	17.738	4.3636	0.1	1407.
29357	17.646	4.6364	0.1	1367.5
29358	17.738	4.5455	0.1	1363.9
29359	17.646	4.8182	0.1	1329.6
29360	17.738	4.7273	0.1	1320.4
29361	17.646	5.	0.1	1293.3
29362	17.738	4.9091	0.1	1278.3
29363	17.646	5.1818	0.1	1260.
29364	17.738	5.0909	0.1	1239.2
29365	17.646	5.3636	0.1	1230.7
29366	17.738	5.2727	0.1	1204.4
29367	17.646	5.5455	0.1	1206.
29368	17.738	5.4545	0.1	1174.6
29369	17.646	5.7273	0.1	1186.3
29370	17.738	5.6364	0.1	1150.6
29371	17.738	5.8182	0.1	1132.
29372	17.646	5.9091	0.1	1172.8
29373	17.83	0.27273	0.1	1096.3
29374	17.921	0.18182	0.1	1036.2
29375	17.83	9.0909e-002	0.1	1081.
29376	17.83	0.45455	0.1	1119.3
29377	17.921	0.36364	0.1	1057.5
29378	17.83	0.63636	0.1	1148.6
29379	17.921	0.54545	0.1	1085.5
29380	17.83	0.81818	0.1	1183.9
29381	17.921	0.72727	0.1	1120.9
29382	17.83	1.	0.1	1224.7
29383	17.921	0.90909	0.1	1163.
29384	17.83	1.1818	0.1	1269.7
29385	17.921	1.0909	0.1	1211.2
29386	17.83	1.3636	0.1	1317.3
29387	17.921	1.2727	0.1	1263.7
29388	17.83	1.5455	0.1	1365.6
29389	17.921	1.4545	0.1	1318.6
29390	17.83	1.7273	0.1	1412.7
29391	17.921	1.6364	0.1	1373.5
29392	17.83	1.9091	0.1	1456.7
29393	17.921	1.8182	0.1	1426.
29394	17.83	2.0909	0.1	1496.3
29395	17.921	2.	0.1	1474.1
29396	17.83	2.2727	0.1	1530.3
29397	17.921	2.1818	0.1	1516.4
29398	17.83	2.4545	0.1	1557.7
29399	17.921	2.3636	0.1	1551.6
29400	17.83	2.6364	0.1	1578.
29401	17.921	2.5455	0.1	1579.
29402	17.83	2.8182	0.1	1590.5
29403	17.921	2.7273	0.1	1597.7
29404	17.83	3.	0.1	1594.7
29405	17.921	2.9091	0.1	1607.3
29406	17.83	3.1818	0.1	1590.5
29407	17.921	3.0909	0.1	1607.3
29408	17.83	3.3636	0.1	1578.
29409	17.921	3.2727	0.1	1597.7
29410	17.83	3.5455	0.1	1557.7
29411	17.921	3.4545	0.1	1579.
29412	17.83	3.7273	0.1	1530.3
29413	17.921	3.6364	0.1	1551.6
29414	17.83	3.9091	0.1	1496.3
29415	17.921	3.8182	0.1	1516.4
29416	17.83	4.0909	0.1	1456.7
29417	17.921	4.	0.1	1474.1
29418	17.83	4.2727	0.1	1412.7
29419	17.921	4.1818	0.1	1426.
29420	17.83	4.4545	0.1	1365.6
29421	17.921	4.3636	0.1	1373.5
29422	17.83	4.6364	0.1	1317.3
29423	17.921	4.5455	0.1	1318.6
29424	17.83	4.8182	0.1	1269.7
29425	17.921	4.7273	0.1	1263.7
29426	17.83	5.	0.1	1224.7
29427	17.921	4.9091	0.1	1211.2
29428	17.83	5.1818	0.1	1183.9
29429	17.921	5.0909	0.1	1163.
29430	17.83	5.3636	0.1	1148.6
29431	17.921	5.2727	0.1	1120.9
29432	17.83	5.5455	0.1	1119.3
29433	17.921	5.4545	0.1	1085.5
29434	17.83	5.7273	0.1	1096.3
29435	17.921	5.6364	0.1	1057.5
29436	17.921	5.8182	0.1	1036.2
29437	17.83	5.9091	0.1	1081.
29438	18.013	0.27273	0.1	997.46
29439	18.105	0.18182	0.1	931.22
29440	18.013	9.0909e-002	0.1	980.06
29441	18.013	0.45455	0.1	1023.9
29442	18.105	0.36364	0.1	954.99
29443	18.013	0.63636	0.1	1058.3
29444	18.105	0.54545	0.1	987.34
29445	18.013	0.81818	0.1	1100.6
29446	18.105	0.72727	0.1	1029.
29447	18.013	1.	0.1	1150.3
29448	18.105	0.90909	0.1	1079.6
29449	18.013	1.1818	0.1	1206.
29450	18.105	1.0909	0.1	1138.5
29451	18.013	1.3636	0.1	1265.7
29452	18.105	1.2727	0.1	1203.8
29453	18.013	1.5455	0.1	1327.1
29454	18.105	1.4545	0.1	1273.2
29455	18.013	1.7273	0.1	1387.2
29456	18.105	1.6364	0.1	1343.4
29457	18.013	1.9091	0.1	1443.7
29458	18.105	1.8182	0.1	1411.1
29459	18.013	2.0909	0.1	1494.4
29460	18.105	2.	0.1	1473.1
29461	18.013	2.2727	0.1	1537.9
29462	18.105	2.1818	0.1	1527.2
29463	18.013	2.4545	0.1	1572.9
29464	18.105	2.3636	0.1	1572.2
29465	18.013	2.6364	0.1	1598.7
29466	18.105	2.5455	0.1	1606.7
29467	18.013	2.8182	0.1	1614.5
29468	18.105	2.7273	0.1	1630.2
29469	18.013	3.	0.1	1619.8
29470	18.105	2.9091	0.1	1642.
29471	18.013	3.1818	0.1	1614.5
29472	18.105	3.0909	0.1	1642.
29473	18.013	3.3636	0.1	1598.7
29474	18.105	3.2727	0.1	1630.2
29475	18.013	3.5455	0.1	1572.9
29476	18.105	3.4545	0.1	1606.7
29477	18.013	3.7273	0.1	1537.9
29478	18.105	3.6364	0.1	1572.2
29479	18.013	3.9091	0.1	1494.4
29480	18.105	3.8182	0.1	1527.2
29481	18.013	4.0909	0.1	1443.7
29482	18.105	4.	0.1	1473.1
29483	18.013	4.2727	0.1	1387.2
29484	18.105	4.1818	0.1	1411.1
29485	18.013	4.4545	0.1	1327.1
29486	18.105	4.3636	0.1	1343.4
29487	18.013	4.6364	0.1	1265.7
29488	18.105	4.5455	0.1	1273.2
29489	18.013	4.8182	0.1	1206.
29490	18.105	4.7273	0.1	1203.8
29491	18.013	5.	0.1	1150.3
29492	18.105	4.9091	0.1	1138.5
29493	18.013	5.1818	0.1	1100.6
29494	18.105	5.0909	0.1	1079.6
29495	18.013	5.3636	0.1	1058.3
29496	18.105	5.2727	0.1	1029.
29497	18.013	5.5455	0.1	1023.9
29498	18.105	5.4545	0.1	987.34
29499	18.013	5.7273	0.1	997.46
29500	18.105	5.6364	0.1	954.99
29501	18.105	5.8182	0.1	931.22
29502	18.013	5.9091	0.1	980.06
29503	18.197	0.27273	0.1	888.87
29504	18.289	0.18182	0.1	816.28
29505	18.197	9.0909e-002	0.1	869.14
29506	18.197	0.45455	0.1	918.81
29507	18.289	0.36364	0.1	842.43
29508	18.197	0.63636	0.1	958.79
29509	18.289	0.54545	0.1	879.36
29510	18.197	0.81818	0.1	1009.1
29511	18.289	0.72727	0.1	927.95
29512	18.197	1.	0.1	1069.1
29513	18.289	0.90909	0.1	988.13
29514	18.197	1.1818	0.1	1137.6
29515	18.289	1.0909	0.1	1059.3
29516	18.197	1.3636	0.1	1212.5
29517	18.289	1.2727	0.1	1140.
29518	18.197	1.5455	0.1	1290.6
29519	18.289	1.4545	0.1	1227.7
29520	18.197	1.7273	0.1	1368.
29521	18.289	1.6364	0.1	1318.2
29522	18.197	1.9091	0.1	1440.9
29523	18.289	1.8182	0.1	1406.2
29524	18.197	2.0909	0.1	1506.1
29525	18.289	2.	0.1	1486.9
29526	18.197	2.2727	0.1	1561.6
29527	18.289	2.1818	0.1	1556.6
29528	18.197	2.4545	0.1	1606.
29529	18.289	2.3636	0.1	1613.3
29530	18.197	2.6364	0.1	1638.1
29531	18.289	2.5455	0.1	1655.9
29532	18.197	2.8182	0.1	1657.5
29533	18.289	2.7273	0.1	1684.
29534	18.197	3.	0.1	1664.
29535	18.289	2.9091	0.1	1697.9
29536	18.197	3.1818	0.1	1657.5
29537	18.289	3.0909	0.1	1697.9
29538	18.197	3.3636	0.1	1638.1
29539	18.289	3.2727	0.1	1684.
29540	18.197	3.5455	0.1	1606.
29541	18.289	3.4545	0.1	1655.9
29542	18.197	3.7273	0.1	1561.6
29543	18.289	3.6364	0.1	1613.3
29544	18.197	3.9091	0.1	1506.1
29545	18.289	3.8182	0.1	1556.6
29546	18.197	4.0909	0.1	1440.9
29547	18.289	4.	0.1	1486.9
29548	18.197	4.2727	0.1	1368.
29549	18.289	4.1818	0.1	1406.2
29550	18.197	4.4545	0.1	1290.6
29551	18.289	4.3636	0.1	1318.2
29552	18.197	4.6364	0.1	1212.5
29553	18.289	4.5455	0.1	1227.7
29554	18.197	4.8182	0.1	1137.6
29555	18.289	4.7273	0.1	1140.
29556	18.197	5.	0.1	1069.1
29557	18.289	4.9091	0.1	1059.3
29558	18.197	5.1818	0.1	1009.1
29559	18.289	5.0909	0.1	988.13
29560	18.197	5.3636	0.1	958.79
29561	18.289	5.2727	0.1	927.95
29562	18.197	5.5455	0.1	918.81
29563	18.289	5.4545	0.1	879.36
29564	18.197	5.7273	0.1	888.87
29565	18.289	5.6364	0.1	842.43
29566	18.289	5.8182	0.1	816.28
29567	18.197	5.9091	0.1	869.14
29568	18.381	0.27273	0.1	770.07
29569	18.473	0.18182	0.1	691.32
29570	18.381	9.0909e-002	0.1	747.69
29571	18.381	0.45455	0.1	803.6
29572	18.473	0.36364	0.1	719.75
29573	18.381	0.63636	0.1	849.72
29574	18.473	0.54545	0.1	761.77
29575	18.381	0.81818	0.1	908.76
29576	18.473	0.72727	0.1	817.97
29577	18.381	1.	0.1	980.43
29578	18.473	0.90909	0.1	888.35
29579	18.381	1.1818	0.1	1063.9
29580	18.473	1.0909	0.1	972.9
29581	18.381	1.3636	0.1	1157.3
29582	18.473	1.2727	0.1	1071.2
29583	18.381	1.5455	0.1	1256.9
29584	18.473	1.4545	0.1	1181.6
29585	18.381	1.7273	0.1	1357.5
29586	18.473	1.6364	0.1	1299.4
29587	18.381	1.9091	0.1	1452.8
29588	18.473	1.8182	0.1	1416.4
29589	18.381	2.0909	0.1	1537.6
29590	18.473	2.	0.1	1523.4
29591	18.381	2.2727	0.1	1608.3
29592	18.473	2.1818	0.1	1613.8
29593	18.381	2.4545	0.1	1663.2
29594	18.473	2.3636	0.1	1684.2
29595	18.381	2.6364	0.1	1701.7
29596	18.473	2.5455	0.1	1733.8
29597	18.381	2.8182	0.1	1724.1
29598	18.473	2.7273	0.1	1764.2
29599	18.381	3.	0.1	1731.4
29600	18.473	2.9091	0.1	1778.4
29601	18.381	3.1818	0.1	1724.1
29602	18.473	3.0909	0.1	1778.4
29603	18.381	3.3636	0.1	1701.7
29604	18.473	3.2727	0.1	1764.2
29605	18.381	3.5455	0.1	1663.2
29606	18.473	3.4545	0.1	1733.8
29607	18.381	3.7273	0.1	1608.3
29608	18.473	3.6364	0.1	1684.2
29609	18.381	3.9091	0.1	1537.6
29610	18.473	3.8182	0.1	1613.8
29611	18.381	4.0909	0.1	1452.8
29612	18.473	4.	0.1	1523.4
29613	18.381	4.2727	0.1	1357.5
29614	18.473	4.1818	0.1	1416.4
29615	18.381	4.4545	0.1	1256.9
29616	18.473	4.3636	0.1	1299.4
29617	18.381	4.6364	0.1	1157.3
29618	18.473	4.5455	0.1	1181.6
29619	18.381	4.8182	0.1	1063.9
29620	18.473	4.7273	0.1	1071.2
29621	18.381	5.	0.1	980.43
29622	18.473	4.9091	0.1	972.9
29623	18.381	5.1818	0.1	908.76
29624	18.473	5.0909	0.1	888.35
29625	18.381	5.3636	0.1	849.72
29626	18.473	5.2727	0.1	817.97
29627	18.381	5.5455	0.1	803.6
29628	18.473	5.4545	0.1	761.77
29629	18.381	5.7273	0.1	770.07
29630	18.473	5.6364	0.1	719.75
29631	18.473	5.8182	0.1	691.32
29632	18.381	5.9091	0.1	747.69
29633	18.565	0.27273	0.1	641.42
29634	18.657	0.18182	0.1	557.07
29635	18.565	9.0909e-002	0.1	615.81
29636	18.565	0.45455	0.1	679.
29637	18.657	0.36364	0.1	588.39
29638	18.565	0.63636	0.1	732.05
29639	18.657	0.54545	0.1	636.8
29640	18.565	0.81818	0.1	800.49
29641	18.657	0.72727	0.1	701.46
29642	18.565	1.	0.1	884.39
29643	18.657	0.90909	0.1	782.07
29644	18.565	1.1818	0.1	984.03
29645	18.657	1.0909	0.1	879.61
29646	18.565	1.3636	0.1	1099.1
29647	18.657	1.2727	0.1	995.97
29648	18.565	1.5455	0.1	1226.7
29649	18.657	1.4545	0.1	1133.1
29650	18.565	1.7273	0.1	1359.9
29651	18.657	1.6364	0.1	1288.1
29652	18.565	1.9091	0.1	1487.6
29653	18.657	1.8182	0.1	1449.9
29654	18.565	2.0909	0.1	1599.8
29655	18.657	2.	0.1	1598.8
29656	18.565	2.2727	0.1	1689.6
29657	18.657	2.1818	0.1	1717.1
29658	18.565	2.4545	0.1	1754.5
29659	18.657	2.3636	0.1	1800.7
29660	18.565	2.6364	0.1	1796.
29661	18.657	2.5455	0.1	1850.
29662	18.565	2.8182	0.1	1818.
29663	18.657	2.7273	0.1	1874.5
29664	18.565	3.	0.1	1824.8
29665	18.657	2.9091	0.1	1884.1
29666	18.565	3.1818	0.1	1818.
29667	18.657	3.0909	0.1	1884.1
29668	18.565	3.3636	0.1	1796.
29669	18.657	3.2727	0.1	1874.5
29670	18.565	3.5455	0.1	1754.5
29671	18.657	3.4545	0.1	1850.
29672	18.565	3.7273	0.1	1689.6
29673	18.657	3.6364	0.1	1800.7
29674	18.565	3.9091	0.1	1599.8
29675	18.657	3.8182	0.1	1717.1
29676	18.565	4.0909	0.1	1487.6
29677	18.657	4.	0.1	1598.8
29678	18.565	4.2727	0.1	1359.9
29679	18.657	4.1818	0.1	1449.9
29680	18.565	4.4545	0.1	1226.7
29681	18.657	4.3636	0.1	1288.1
29682	18.565	4.6364	0.1	1099.1
29683	18.657	4.5455	0.1	1133.1
29684	18.565	4.8182	0.1	984.03
29685	18.657	4.7273	0.1	995.97
29686	18.565	5.	0.1	884.39
29687	18.657	4.9091	0.1	879.61
29688	18.565	5.1818	0.1	800.49
29689	18.657	5.0909	0.1	782.07
29690	18.565	5.3636	0.1	732.05
29691	18.657	5.2727	0.1	701.46
29692	18.565	5.5455	0.1	679.
29693	18.657	5.4545	0.1	636.8
29694	18.565	5.7273	0.1	641.42
29695	18.657	5.6364	0.1	588.39
29696	18.657	5.8182	0.1	557.07
29697	18.565	5.9091	0.1	615.81
29698	18.749	0.27273	0.1	504.83
29699	18.84	0.18182	0.1	415.31
29700	18.749	9.0909e-002	0.1	474.5
29701	18.749	0.45455	0.1	548.26
29702	18.84	0.36364	0.1	452.73
29703	18.749	0.63636	0.1	609.83
29704	18.84	0.54545	0.1	510.89
29705	18.749	0.81818	0.1	687.93
29706	18.84	0.72727	0.1	585.15
29707	18.749	1.	0.1	783.08
29708	18.84	0.90909	0.1	674.74
29709	18.749	1.1818	0.1	897.8
29710	18.84	1.0909	0.1	782.08
29711	18.749	1.3636	0.1	1036.1
29712	18.84	1.2727	0.1	912.9
29713	18.749	1.5455	0.1	1199.2
29714	18.84	1.4545	0.1	1075.4
29715	18.749	1.7273	0.1	1380.3
29716	18.84	1.6364	0.1	1281.6
29717	18.749	1.9091	0.1	1561.5
29718	18.84	1.8182	0.1	1521.8
29719	18.749	2.0909	0.1	1715.8
29720	18.84	2.	0.1	1746.5
29721	18.749	2.2727	0.1	1827.6
29722	18.84	2.1818	0.1	1912.2
29723	18.749	2.4545	0.1	1895.4
29724	18.84	2.3636	0.1	1991.7
29725	18.749	2.6364	0.1	1927.7
29726	18.84	2.5455	0.1	2013.4
29727	18.749	2.8182	0.1	1939.8
29728	18.84	2.7273	0.1	2012.3
29729	18.749	3.	0.1	1942.7
29730	18.84	2.9091	0.1	2007.9
29731	18.749	3.1818	0.1	1939.8
29732	18.84	3.0909	0.1	2007.9
29733	18.749	3.3636	0.1	1927.7
29734	18.84	3.2727	0.1	2012.3
29735	18.749	3.5455	0.1	1895.4
29736	18.84	3.4545	0.1	2013.4
29737	18.749	3.7273	0.1	1827.6
29738	18.84	3.6364	0.1	1991.7
29739	18.749	3.9091	0.1	1715.8
29740	18.84	3.8182	0.1	1912.2
29741	18.749	4.0909	0.1	1561.5
29742	18.84	4.	0.1	1746.5
29743	18.749	4.2727	0.1	1380.3
29744	18.84	4.1818	0.1	1521.8
29745	18.749	4.4545	0.1	1199.2
29746	18.84	4.3636	0.1	1281.6
29747	18.749	4.6364	0.1	1036.1
29748	18.84	4.5455	0.1	1075.4
29749	18.749	4.8182	0.1	897.8
29750	18.84	4.7273	0.1	912.9
29751	18.749	5.	0.1	783.08
29752	18.84	4.9091	0.1	782.08
29753	18.749	5.1818	0.1	687.93
29754	18.84	5.0909	0.1	674.74
29755	18.749	5.3636	0.1	609.83
29756	18.84	5.2727	0.1	585.15
29757	18.749	5.5455	0.1	548.26
29758	18.84	5.4545	0.1	510.89
29759	18.749	5.7273	0.1	504.83
29760	18.84	5.6364	0.1	452.73
29761	18.84	5.8182	0.1	415.31
29762	18.749	5.9091	0.1	474.5
29763	18.932	0.27273	0.1	365.19
29764	19.024	0.18182	0.1	272.36
29765	18.932	9.0909e-002	0.1	325.57
29766	18.932	0.45455	0.1	419.99
29767	19.024	0.36364	0.1	328.98
29768	18.932	0.63636	0.1	492.88
29769	19.024	0.54545	0.1	404.31
29770	18.932	0.81818	0.1	579.87
29771	19.024	0.72727	0.1	490.14
29772	18.932	1.	0.1	682.62
29773	19.024	0.90909	0.1	587.37
29774	18.932	1.1818	0.1	807.
29775	19.024	1.0909	0.1	700.68
29776	18.932	1.3636	0.1	962.8
29777	19.024	1.2727	0.1	838.61
29778	18.932	1.5455	0.1	1167.
29779	19.024	1.4545	0.1	1018.6
29780	18.932	1.7273	0.1	1428.2
29781	19.024	1.6364	0.1	1264.7
29782	18.932	1.9091	0.1	1704.8
29783	19.024	1.8182	0.1	1689.5
29784	18.932	2.0909	0.1	1940.5
29785	19.024	2.	0.1	2202.8
29786	18.932	2.2727	0.1	2074.1
29787	19.024	2.1818	0.1	2320.
29788	18.932	2.4545	0.1	2108.
29789	19.024	2.3636	0.1	2293.2
29790	18.932	2.6364	0.1	2096.8
29791	19.024	2.5455	0.1	2214.6
29792	18.932	2.8182	0.1	2079.5
29793	19.024	2.7273	0.1	2158.3
29794	18.932	3.	0.1	2072.4
29795	19.024	2.9091	0.1	2128.9
29796	18.932	3.1818	0.1	2079.5
29797	19.024	3.0909	0.1	2128.9
29798	18.932	3.3636	0.1	2096.8
29799	19.024	3.2727	0.1	2158.3
29800	18.932	3.5455	0.1	2108.
29801	19.024	3.4545	0.1	2214.6
29802	18.932	3.7273	0.1	2074.1
29803	19.024	3.6364	0.1	2293.2
29804	18.932	3.9091	0.1	1940.5
29805	19.024	3.8182	0.1	2320.
29806	18.932	4.0909	0.1	1704.8
29807	19.024	4.	0.1	2202.8
29808	18.932	4.2727	0.1	1428.2
29809	19.024	4.1818	0.1	1689.5
29810	18.932	4.4545	0.1	1167.
29811	19.024	4.3636	0.1	1264.7
29812	18.932	4.6364	0.1	962.8
29813	19.024	4.5455	0.1	1018.6
29814	18.932	4.8182	0.1	807.
29815	19.024	4.7273	0.1	838.61
29816	18.932	5.	0.1	682.62
29817	19.024	4.9091	0.1	700.68
29818	18.932	5.1818	0.1	579.87
29819	19.024	5.0909	0.1	587.37
29820	18.932	5.3636	0.1	492.88
29821	19.024	5.2727	0.1	490.14
29822	18.932	5.5455	0.1	419.99
29823	19.024	5.4545	0.1	404.31
29824	18.932	5.7273	0.1	365.19
29825	19.024	5.6364	0.1	328.98
29826	19.024	5.8182	0.1	272.36
29827	18.932	5.9091	0.1	325.57
29828	19.116	0.27273	0.1	244.47
29829	19.208	0.18182	0.1	143.64
29830	19.116	9.0909e-002	0.1	175.04
29831	19.116	0.45455	0.1	325.
29832	19.208	0.36364	0.1	214.59
29833	19.116	0.63636	0.1	413.68
29834	19.208	0.54545	0.1	285.18
29835	19.116	0.81818	0.1	509.99
29836	19.208	0.72727	0.1	357.14
29837	19.116	1.	0.1	618.65
29838	19.208	0.90909	0.1	434.33
29839	19.116	1.1818	0.1	747.55
29840	19.208	1.0909	0.1	521.85
29841	19.116	1.3636	0.1	913.24
29842	19.208	1.2727	0.1	627.18
29843	19.116	1.5455	0.1	1143.5
29844	19.208	1.4545	0.1	767.17
29845	19.116	1.7273	0.1	1548.4
29846	19.208	1.6364	0.1	966.8
29847	19.116	1.9091	0.1	2178.2
29848	19.208	1.8182	0.1	1327.8
29849	19.116	2.0909	0.1	2562.
29850	19.208	2.	0.1	3730.7
29851	19.116	2.2727	0.1	2534.2
29852	19.208	2.1818	0.1	3028.8
29853	19.116	2.4545	0.1	2398.4
29854	19.208	2.3636	0.1	2627.7
29855	19.116	2.6364	0.1	2275.6
29856	19.208	2.5455	0.1	2394.7
29857	19.116	2.8182	0.1	2207.2
29858	19.208	2.7273	0.1	2268.4
29859	19.116	3.	0.1	2184.9
29860	19.208	2.9091	0.1	2211.8
29861	19.116	3.1818	0.1	2207.2
29862	19.208	3.0909	0.1	2211.8
29863	19.116	3.3636	0.1	2275.6
29864	19.208	3.2727	0.1	2268.4
29865	19.116	3.5455	0.1	2398.4
29866	19.208	3.4545	0.1	2394.7
29867	19.116	3.7273	0.1	2534.2
29868	19.208	3.6364	0.1	2627.7
29869	19.116	3.9091	0.1	2562.
29870	19.208	3.8182	0.1	3028.8
29871	19.116	4.0909	0.1	2178.2
29872	19.208	4.	0.1	3730.7
29873	19.116	4.2727	0.1	1548.4
29874	19.208	4.1818	0.1	1327.8
29875	19.116	4.4545	0.1	1143.5
29876	19.208	4.3636	0.1	966.8
29877	19.116	4.6364	0.1	913.24
29878	19.208	4.5455	0.1	767.17
29879	19.116	4.8182	0.1	747.56
29880	19.208	4.7273	0.1	627.18
29881	19.116	5.	0.1	618.65
29882	19.208	4.9091	0.1	521.85
29883	19.116	5.1818	0.1	509.99
29884	19.208	5.0909	0.1	434.33
29885	19.116	5.3636	0.1	413.68
29886	19.208	5.2727	0.1	357.14
29887	19.116	5.5455	0.1	325.
29888	19.208	5.4545	0.1	285.18
29889	19.116	5.7273	0.1	244.47
29890	19.208	5.6364	0.1	214.59
29891	19.208	5.8182	0.1	143.64
29892	19.116	5.9091	0.1	175.04
29893	19.467	3.7273	0.1	3167.1
29894	19.383	3.8182	0.1	3496.8
29895	19.467	3.9091	0.1	4303.3
29896	19.467	3.5455	0.1	2619.8
29897	19.383	3.6364	0.1	2781.5
29898	19.467	3.3636	0.1	2364.2
29899	19.383	3.4545	0.1	2458.
29900	19.467	3.1818	0.1	2242.8
29901	19.383	3.2727	0.1	2293.2
29902	19.467	3.	0.1	2206.4
29903	19.383	3.0909	0.1	2222.6
29904	19.467	2.8182	0.1	2242.8
29905	19.383	2.9091	0.1	2222.6
29906	19.467	2.6364	0.1	2364.2
29907	19.383	2.7273	0.1	2293.2
29908	19.467	2.4545	0.1	2619.8
29909	19.383	2.5455	0.1	2458.
29910	19.467	2.2727	0.1	3167.1
29911	19.383	2.3636	0.1	2781.5
29912	19.383	2.1818	0.1	3496.8
29913	19.467	2.0909	0.1	4303.3
29914	19.3	3.7273	0.1	3149.7
29915	19.3	3.9091	0.1	4157.5
29916	19.3	3.5455	0.1	2631.
29917	19.3	3.3636	0.1	2389.8
29918	19.3	3.1818	0.1	2273.4
29919	19.3	3.	0.1	2238.6
29920	19.3	2.8182	0.1	2273.4
29921	19.3	2.6364	0.1	2389.8
29922	19.3	2.4545	0.1	2631.
29923	19.3	2.2727	0.1	3149.7
29924	19.3	2.0909	0.1	4157.5
29925	19.467	5.7273	0.1	112.53
29926	19.467	5.9091	0.1	43.175
29927	19.467	5.8182	5.e-002	16.693
29928	19.467	5.5455	0.1	174.35
29929	19.467	5.6364	5.e-002	36.097
29930	19.467	5.3636	0.1	235.04
29931	19.467	5.4545	5.e-002	55.225
29932	19.467	5.1818	0.1	300.94
29933	19.467	5.2727	5.e-002	76.171
29934	19.467	5.	0.1	377.32
29935	19.467	5.0909	5.e-002	100.25
29936	19.467	4.8182	0.1	471.12
29937	19.467	4.9091	5.e-002	129.39
29938	19.467	4.6364	0.1	595.72
29939	19.467	4.7273	5.e-002	166.74
29940	19.467	4.4545	0.1	768.19
29941	19.467	4.5455	5.e-002	218.12
29942	19.467	4.2727	0.1	1098.9
29943	19.467	4.3636	5.e-002	299.07
29944	19.467	4.0909	0.1	2964.6
29945	19.467	4.1818	5.e-002	518.76
29946	19.383	4.	0.1	4492.2
29947	19.467	4.	5.e-002	462.68
29948	19.3	4.0909	0.1	2683.4
29949	19.3	4.	5.e-002	691.69
29950	19.3	4.2727	0.1	926.5
29951	19.3	4.1818	5.e-002	719.87
29952	19.3	4.4545	0.1	672.7
29953	19.3	4.3636	5.e-002	454.67
29954	19.3	4.6364	0.1	547.04
29955	19.3	4.5455	5.e-002	341.46
29956	19.3	4.8182	0.1	454.03
29957	19.3	4.7273	5.e-002	270.
29958	19.3	5.	0.1	381.
29959	19.3	4.9091	5.e-002	214.89
29960	19.3	5.1818	0.1	317.68
29961	19.3	5.0909	5.e-002	169.72
29962	19.3	5.3636	0.1	259.11
29963	19.3	5.2727	5.e-002	130.62
29964	19.3	5.5455	0.1	200.87
29965	19.3	5.4545	5.e-002	95.384
29966	19.3	5.7273	0.1	136.27
29967	19.3	5.6364	5.e-002	62.554
29968	19.3	5.9091	0.1	55.357
29969	19.3	5.8182	5.e-002	29.816
29970	19.467	0.27273	0.1	112.53
29971	19.467	9.0909e-002	0.1	43.175
29972	19.467	0.18182	5.e-002	16.693
29973	19.467	0.45455	0.1	174.35
29974	19.467	0.36364	5.e-002	36.097
29975	19.467	0.63636	0.1	235.04
29976	19.467	0.54545	5.e-002	55.225
29977	19.467	0.81818	0.1	300.94
29978	19.467	0.72727	5.e-002	76.171
29979	19.467	1.	0.1	377.32
29980	19.467	0.90909	5.e-002	100.25
29981	19.467	1.1818	0.1	471.12
29982	19.467	1.0909	5.e-002	129.39
29983	19.467	1.3636	0.1	595.72
29984	19.467	1.2727	5.e-002	166.74
29985	19.467	1.5455	0.1	768.19
29986	19.467	1.4545	5.e-002	218.12
29987	19.467	1.7273	0.1	1098.9
29988	19.467	1.6364	5.e-002	299.07
29989	19.467	1.9091	0.1	2964.6
29990	19.467	1.8182	5.e-002	518.76
29991	19.383	2.	0.1	4492.2
29992	19.467	2.	5.e-002	462.68
29993	19.3	1.9091	0.1	2683.4
29994	19.3	2.	5.e-002	691.69
29995	19.3	1.7273	0.1	926.5
29996	19.3	1.8182	5.e-002	719.87
29997	19.3	1.5455	0.1	672.7
29998	19.3	1.6364	5.e-002	454.67
29999	19.3	1.3636	0.1	547.04
30000	19.3	1.4545	5.e-002	341.46
30001	19.3	1.1818	0.1	454.03
30002	19.3	1.2727	5.e-002	270.
30003	19.3	1.	0.1	381.
30004	19.3	1.0909	5.e-002	214.89
30005	19.3	0.81818	0.1	317.68
30006	19.3	0.90909	5.e-002	169.72
30007	19.3	0.63636	0.1	259.11
30008	19.3	0.72727	5.e-002	130.62
30009	19.3	0.45455	0.1	200.87
30010	19.3	0.54545	5.e-002	95.384
30011	19.3	0.27273	0.1	136.27
30012	19.3	0.36364	5.e-002	62.553
30013	19.3	9.0909e-002	0.1	55.357
30014	19.3	0.18182	5.e-002	29.816
30015	19.557	6.	0.1	52.194
30016	19.467	6.	5.e-002	5.6039
30017	19.739	6.	0.1	142.63
30018	19.648	6.	5.e-002	6.0853
30019	19.92	6.	0.1	224.61
30020	19.829	6.	5.e-002	14.625
30021	20.101	6.	0.1	292.55
30022	20.011	6.	5.e-002	19.757
30023	20.283	6.	0.1	347.23
30024	20.192	6.	5.e-002	23.158
30025	20.464	6.	0.1	388.91
30026	20.373	6.	5.e-002	25.261
30027	20.645	6.	0.1	418.2
30028	20.555	6.	5.e-002	26.479
30029	20.827	6.	0.1	436.14
30030	20.736	6.	5.e-002	27.099
30031	21.008	6.	0.1	444.04
30032	20.917	6.	5.e-002	27.336
30033	21.189	6.	0.1	443.26
30034	21.099	6.	5.e-002	27.335
30035	21.371	6.	0.1	435.16
30036	21.28	6.	5.e-002	27.189
30037	21.552	6.	0.1	420.96
30038	21.461	6.	5.e-002	26.953
30039	21.733	6.	0.1	401.78
30040	21.643	6.	5.e-002	26.652
30041	21.915	6.	0.1	378.56
30042	21.824	6.	5.e-002	26.292
30043	22.096	6.	0.1	352.1
30044	22.005	6.	5.e-002	25.865
30045	22.277	6.	0.1	323.09
30046	22.187	6.	5.e-002	25.354
30047	22.459	6.	0.1	292.06
30048	22.368	6.	5.e-002	24.738
30049	22.64	6.	0.1	259.49
30050	22.549	6.	5.e-002	23.987
30051	22.821	6.	0.1	225.75
30052	22.731	6.	5.e-002	23.068
30053	23.003	6.	0.1	191.18
30054	22.912	6.	5.e-002	21.943
30055	23.184	6.	0.1	156.06
30056	23.093	6.	5.e-002	20.56
30057	23.365	6.	0.1	120.69
30058	23.275	6.	5.e-002	18.852
30059	23.547	6.	0.1	85.417
30060	23.456	6.	5.e-002	16.72
30061	23.728	6.	0.1	50.883
30062	23.637	6.	5.e-002	13.974
30063	23.909	6.	0.1	19.274
30064	23.819	6.	5.e-002	10.094
30065	24.	5.9091	0.1	6.1349
30066	24.	6.	5.e-002	4.5822
30067	24.	5.7273	0.1	6.7156
30068	24.	5.8182	5.e-002	4.1686
30069	24.	5.5455	0.1	6.8299
30070	24.	5.6364	5.e-002	4.3963
30071	24.	5.3636	0.1	6.8579
30072	24.	5.4545	5.e-002	4.6397
30073	24.	5.1818	0.1	6.8497
30074	24.	5.2727	5.e-002	4.7553
30075	24.	5.	0.1	6.8223
30076	24.	5.0909	5.e-002	4.8015
30077	24.	4.8182	0.1	6.7893
30078	24.	4.9091	5.e-002	4.8017
30079	24.	4.6364	0.1	6.7541
30080	24.	4.7273	5.e-002	4.7719
30081	24.	4.4545	0.1	6.7193
30082	24.	4.5455	5.e-002	4.7231
30083	24.	4.2727	0.1	6.6861
30084	24.	4.3636	5.e-002	4.6633
30085	24.	4.0909	0.1	6.6556
30086	24.	4.1818	5.e-002	4.5988
30087	24.	3.9091	0.1	6.6285
30088	24.	4.	5.e-002	4.5345
30089	24.	3.7273	0.1	6.6054
30090	24.	3.8182	5.e-002	4.4747
30091	24.	3.5455	0.1	6.5867
30092	24.	3.6364	5.e-002	4.4227
30093	24.	3.3636	0.1	6.573
30094	24.	3.4545	5.e-002	4.3811
30095	24.	3.1818	0.1	6.5646
30096	24.	3.2727	5.e-002	4.3522
30097	24.	3.	0.1	6.5618
30098	24.	3.0909	5.e-002	4.3374
30099	24.	2.8182	0.1	6.5646
30100	24.	2.9091	5.e-002	4.3374
30101	24.	2.6364	0.1	6.573
30102	24.	2.7273	5.e-002	4.3522
30103	24.	2.4545	0.1	6.5867
30104	24.	2.5455	5.e-002	4.3811
30105	24.	2.2727	0.1	6.6054
30106	24.	2.3636	5.e-002	4.4227
30107	24.	2.0909	0.1	6.6285
30108	24.	2.1818	5.e-002	4.4747
30109	24.	1.9091	0.1	6.6556
30110	24.	2.	5.e-002	4.5345
30111	24.	1.7273	0.1	6.6861
30112	24.	1.8182	5.e-002	4.5988
30113	24.	1.5455	0.1	6.7193
30114	24.	1.6364	5.e-002	4.6633
30115	24.	1.3636	0.1	6.7541
30116	24.	1.4545	5.e-002	4.7231
30117	24.	1.1818	0.1	6.7893
30118	24.	1.2727	5.e-002	4.7719
30119	24.	1.	0.1	6.8223
30120	24.	1.0909	5.e-002	4.8017
30121	24.	0.81818	0.1	6.8497
30122	24.	0.90909	5.e-002	4.8015
30123	24.	0.63636	0.1	6.8579
30124	24.	0.72727	5.e-002	4.7553
30125	24.	0.45455	0.1	6.8299
30126	24.	0.54545	5.e-002	4.6397
30127	24.	0.27273	0.1	6.7156
30128	24.	0.36364	5.e-002	4.3963
30129	24.	9.0909e-002	0.1	6.1349
30130	24.	0.18182	5.e-002	4.1686
30131	2.3842e-015	0.27273	0.1	3541.7
30132	7.9472e-016	9.0909e-002	0.1	1435.9
30133	1.6109e-015	0.18182	5.e-002	95.451
30134	3.9736e-015	0.45455	0.1	5160.5
30135	3.2219e-015	0.36364	5.e-002	49.697
30136	5.563e-015	0.63636	0.1	6008.4
30137	4.8328e-015	0.54545	5.e-002	44.942
30138	7.1525e-015	0.81818	0.1	6546.3
30139	6.4438e-015	0.72727	5.e-002	39.535
30140	8.7419e-015	1.	0.1	6915.4
30141	8.0547e-015	0.90909	5.e-002	33.646
30142	1.0331e-014	1.1818	0.1	7182.8
30143	9.6657e-015	1.0909	5.e-002	28.578
30144	1.1921e-014	1.3636	0.1	7382.9
30145	1.1277e-014	1.2727	5.e-002	24.468
30146	1.351e-014	1.5455	0.1	7535.7
30147	1.2888e-014	1.4545	5.e-002	21.129
30148	1.51e-014	1.7273	0.1	7653.7
30149	1.4498e-014	1.6364	5.e-002	18.424
30150	1.6689e-014	1.9091	0.1	7745.2
30151	1.6109e-014	1.8182	5.e-002	16.244
30152	1.8279e-014	2.0909	0.1	7815.8
30153	1.772e-014	2.	5.e-002	14.5
30154	1.9868e-014	2.2727	0.1	7869.3
30155	1.9331e-014	2.1818	5.e-002	13.128
30156	2.1457e-014	2.4545	0.1	7908.6
30157	2.0942e-014	2.3636	5.e-002	12.081
30158	2.3047e-014	2.6364	0.1	7935.5
30159	2.2553e-014	2.5455	5.e-002	11.323
30160	2.4636e-014	2.8182	0.1	7951.1
30161	2.4164e-014	2.7273	5.e-002	10.831
30162	2.6226e-014	3.	0.1	7956.3
30163	2.5775e-014	2.9091	5.e-002	10.588
30164	2.7815e-014	3.1818	0.1	7951.1
30165	2.7386e-014	3.0909	5.e-002	10.588
30166	2.9405e-014	3.3636	0.1	7935.5
30167	2.8997e-014	3.2727	5.e-002	10.831
30168	3.0994e-014	3.5455	0.1	7908.6
30169	3.0608e-014	3.4545	5.e-002	11.323
30170	3.2583e-014	3.7273	0.1	7869.3
30171	3.2219e-014	3.6364	5.e-002	12.081
30172	3.4173e-014	3.9091	0.1	7815.8
30173	3.383e-014	3.8182	5.e-002	13.128
30174	3.5762e-014	4.0909	0.1	7745.2
30175	3.5441e-014	4.	5.e-002	14.5
30176	3.7352e-014	4.2727	0.1	7653.7
30177	3.7052e-014	4.1818	5.e-002	16.243
30178	3.8941e-014	4.4545	0.1	7535.7
30179	3.8663e-014	4.3636	5.e-002	18.424
30180	4.0531e-014	4.6364	0.1	7382.9
30181	4.0274e-014	4.5455	5.e-002	21.128
30182	4.212e-014	4.8182	0.1	7182.8
30183	4.1885e-014	4.7273	5.e-002	24.467
30184	4.371e-014	5.	0.1	6915.4
30185	4.3495e-014	4.9091	5.e-002	28.578
30186	4.5299e-014	5.1818	0.1	6546.3
30187	4.5106e-014	5.0909	5.e-002	33.646
30188	4.6888e-014	5.3636	0.1	6008.3
30189	4.6717e-014	5.2727	5.e-002	39.534
30190	4.8478e-014	5.5455	0.1	5160.5
30191	4.8328e-014	5.4545	5.e-002	44.942
30192	5.0067e-014	5.7273	0.1	3541.7
30193	4.9939e-014	5.6364	5.e-002	49.697
30194	5.1657e-014	5.9091	0.1	1435.9
30195	5.155e-014	5.8182	5.e-002	95.451
30196	23.909	0.	0.1	19.274
30197	24.	0.	5.e-002	4.5822
30198	23.728	0.	0.1	50.883
30199	23.819	0.	5.e-002	10.094
30200	23.547	0.	0.1	85.417
30201	23.637	0.	5.e-002	13.974
30202	23.365	0.	0.1	120.69
30203	23.456	0.	5.e-002	16.72
30204	23.184	0.	0.1	156.06
30205	23.275	0.	5.e-002	18.852
30206	23.003	0.	0.1	191.18
30207	23.093	0.	5.e-002	20.56
30208	22.821	0.	0.1	225.75
30209	22.912	0.	5.e-002	21.943
30210	22.64	0.	0.1	259.49
30211	22.731	0.	5.e-002	23.068
30212	22.459	0.	0.1	292.06
30213	22.549	0.	5.e-002	23.987
30214	22.277	0.	0.1	323.09
30215	22.368	0.	5.e-002	24.738
30216	22.096	0.	0.1	352.1
30217	22.187	0.	5.e-002	25.354
30218	21.915	0.	0.1	378.56
30219	22.005	0.	5.e-002	25.865
30220	21.733	0.	0.1	401.78
30221	21.824	0.	5.e-002	26.292
30222	21.552	0.	0.1	420.96
30223	21.643	0.	5.e-002	26.652
30224	21.371	0.	0.1	435.16
30225	21.461	0.	5.e-002	26.953
30226	21.189	0.	0.1	443.26
30227	21.28	0.	5.e-002	27.189
30228	21.008	0.	0.1	444.04
30229	21.099	0.	5.e-002	27.335
30230	20.827	0.	0.1	436.14
30231	20.917	0.	5.e-002	27.336
30232	20.645	0.	0.1	418.2
30233	20.736	0.	5.e-002	27.099
30234	20.464	0.	0.1	388.91
30235	20.555	0.	5.e-002	26.479
30236	20.283	0.	0.1	347.23
30237	20.373	0.	5.e-002	25.261
30238	20.101	0.	0.1	292.55
30239	20.192	0.	5.e-002	23.158
30240	19.92	0.	0.1	224.61
30241	20.011	0.	5.e-002	19.757
30242	19.739	0.	0.1	142.63
30243	19.829	0.	5.e-002	14.625
30244	19.557	0.	0.1	52.194
30245	19.648	0.	5.e-002	6.0853
30246	19.467	0.	5.e-002	5.6039
30247	19.208	1.3523e-029	0.1	81.889
30248	19.3	1.3588e-029	5.e-002	8.1052
30249	19.024	1.3394e-029	0.1	233.68
30250	19.116	0.	5.e-002	1.5264
30251	18.84	1.3264e-029	0.1	389.24
30252	18.932	0.	5.e-002	5.9539
30253	18.657	1.3135e-029	0.1	536.09
30254	18.749	0.	5.e-002	5.884
30255	18.473	1.3005e-029	0.1	673.79
30256	18.565	0.	5.e-002	3.5188
30257	18.289	1.2876e-029	0.1	801.34
30258	18.381	0.	5.e-002	1.9079
30259	18.105	1.2747e-029	0.1	918.28
30260	18.197	0.	5.e-002	6.3489
30261	17.921	1.2617e-029	0.1	1024.8
30262	18.013	0.	5.e-002	11.793
30263	17.738	1.2488e-029	0.1	1121.7
30264	17.83	0.	5.e-002	17.375
30265	17.554	1.2358e-029	0.1	1210.
30266	17.646	0.	5.e-002	22.814
30267	17.37	1.2229e-029	0.1	1290.7
30268	17.462	0.	5.e-002	27.951
30269	17.186	1.2099e-029	0.1	1365.
30270	17.278	0.	5.e-002	32.704
30271	17.002	1.197e-029	0.1	1434.
30272	17.094	0.	5.e-002	37.038
30273	16.819	1.1841e-029	0.1	1498.5
30274	16.91	0.	5.e-002	40.952
30275	16.635	1.1711e-029	0.1	1559.5
30276	16.727	0.	5.e-002	44.462
30277	16.451	1.1582e-029	0.1	1617.6
30278	16.543	0.	5.e-002	47.598
30279	16.267	1.1452e-029	0.1	1673.3
30280	16.359	0.	5.e-002	50.394
30281	16.083	1.1323e-029	0.1	1727.2
30282	16.175	0.	5.e-002	52.885
30283	15.9	1.1194e-029	0.1	1779.6
30284	15.991	0.	5.e-002	55.106
30285	15.716	1.1064e-029	0.1	1830.9
30286	15.808	0.	5.e-002	57.087
30287	15.532	1.0935e-029	0.1	1881.3
30288	15.624	0.	5.e-002	58.859
30289	15.348	1.0805e-029	0.1	1931.1
30290	15.44	0.	5.e-002	60.447
30291	15.164	1.0676e-029	0.1	1980.3
30292	15.256	0.	5.e-002	61.874
30293	14.98	1.0547e-029	0.1	2029.2
30294	15.072	0.	5.e-002	63.16
30295	14.797	1.0417e-029	0.1	2077.9
30296	14.889	0.	5.e-002	64.32
30297	14.613	1.0288e-029	0.1	2126.4
30298	14.705	0.	5.e-002	65.371
30299	14.429	1.0158e-029	0.1	2174.8
30300	14.521	0.	5.e-002	66.324
30301	14.245	1.0029e-029	0.1	2223.1
30302	14.337	0.	5.e-002	67.19
30303	14.061	9.8996e-030	0.1	2271.5
30304	14.153	0.	5.e-002	67.977
30305	13.878	9.7702e-030	0.1	2319.9
30306	13.97	0.	5.e-002	68.694
30307	13.694	9.6408e-030	0.1	2368.4
30308	13.786	0.	5.e-002	69.346
30309	13.51	9.5114e-030	0.1	2417.
30310	13.602	0.	5.e-002	69.938
30311	13.326	9.382e-030	0.1	2465.7
30312	13.418	0.	5.e-002	70.474
30313	13.142	9.2526e-030	0.1	2514.6
30314	13.234	0.	5.e-002	70.959
30315	12.959	9.1231e-030	0.1	2563.6
30316	13.05	0.	5.e-002	71.394
30317	12.775	8.9937e-030	0.1	2612.7
30318	12.867	0.	5.e-002	71.782
30319	12.591	8.8643e-030	0.1	2662.
30320	12.683	0.	5.e-002	72.125
30321	12.407	8.7349e-030	0.1	2711.6
30322	12.499	0.	5.e-002	72.422
30323	12.223	8.6055e-030	0.1	2761.2
30324	12.315	0.	5.e-002	72.676
30325	12.04	8.4761e-030	0.1	2811.1
30326	12.131	0.	5.e-002	72.885
30327	11.856	8.3467e-030	0.1	2861.2
30328	11.948	0.	5.e-002	73.051
30329	11.672	8.2173e-030	0.1	2911.5
30330	11.764	0.	5.e-002	73.171
30331	11.488	8.0879e-030	0.1	2962.
30332	11.58	0.	5.e-002	73.246
30333	11.304	7.9585e-030	0.1	3012.7
30334	11.396	0.	5.e-002	73.273
30335	11.12	7.8291e-030	0.1	3063.6
30336	11.212	0.	5.e-002	73.252
30337	10.937	7.6997e-030	0.1	3114.8
30338	11.029	0.	5.e-002	73.18
30339	10.753	7.5703e-030	0.1	3166.2
30340	10.845	0.	5.e-002	73.055
30341	10.569	7.4409e-030	0.1	3217.8
30342	10.661	0.	5.e-002	72.873
30343	10.385	7.3115e-030	0.1	3269.6
30344	10.477	0.	5.e-002	72.633
30345	10.201	7.1821e-030	0.1	3321.7
30346	10.293	0.	5.e-002	72.33
30347	10.018	7.0526e-030	0.1	3374.
30348	10.11	0.	5.e-002	71.961
30349	9.8338	6.9232e-030	0.1	3426.6
30350	9.9257	0.	5.e-002	71.521
30351	9.65	6.7938e-030	0.1	3479.4
30352	9.7419	0.	5.e-002	71.005
30353	9.4662	6.6644e-030	0.1	3532.5
30354	9.5581	0.	5.e-002	70.408
30355	9.2824	6.535e-030	0.1	3585.9
30356	9.3743	0.	5.e-002	69.724
30357	9.0986	6.4056e-030	0.1	3639.5
30358	9.1905	0.	5.e-002	68.947
30359	8.9148	6.2762e-030	0.1	3693.5
30360	9.0067	0.	5.e-002	68.07
30361	8.731	6.1468e-030	0.1	3747.7
30362	8.8229	0.	5.e-002	67.085
30363	8.5471	6.0174e-030	0.1	3802.2
30364	8.639	0.	5.e-002	65.984
30365	8.3633	5.888e-030	0.1	3857.1
30366	8.4552	0.	5.e-002	64.758
30367	8.1795	5.7586e-030	0.1	3912.2
30368	8.2714	0.	5.e-002	63.398
30369	7.9957	5.6292e-030	0.1	3967.7
30370	8.0876	0.	5.e-002	61.891
30371	7.8119	5.4998e-030	0.1	4023.6
30372	7.9038	0.	5.e-002	60.228
30373	7.6281	5.3704e-030	0.1	4079.7
30374	7.72	0.	5.e-002	58.396
30375	7.4443	5.241e-030	0.1	4136.3
30376	7.5362	0.	5.e-002	56.38
30377	7.2605	5.1115e-030	0.1	4193.3
30378	7.3524	0.	5.e-002	54.166
30379	7.0767	4.9821e-030	0.1	4250.6
30380	7.1686	0.	5.e-002	51.739
30381	6.8929	4.8527e-030	0.1	4308.4
30382	6.9848	0.	5.e-002	49.082
30383	6.709	4.7233e-030	0.1	4366.6
30384	6.801	0.	5.e-002	46.175
30385	6.5252	4.5939e-030	0.1	4425.2
30386	6.6171	0.	5.e-002	42.999
30387	6.3414	4.4645e-030	0.1	4484.4
30388	6.4333	0.	5.e-002	39.533
30389	6.1576	4.3351e-030	0.1	4544.
30390	6.2495	0.	5.e-002	35.753
30391	5.9738	4.2057e-030	0.1	4604.1
30392	6.0657	0.	5.e-002	31.636
30393	5.79	4.0763e-030	0.1	4664.7
30394	5.8819	0.	5.e-002	27.154
30395	5.6062	3.9469e-030	0.1	4725.9
30396	5.6981	0.	5.e-002	22.282
30397	5.4224	3.8175e-030	0.1	4787.7
30398	5.5143	0.	5.e-002	16.993
30399	5.2386	3.6881e-030	0.1	4850.
30400	5.3305	0.	5.e-002	11.275
30401	5.0548	3.5587e-030	0.1	4912.9
30402	5.1467	0.	5.e-002	5.2124
30403	4.871	3.4293e-030	0.1	4976.4
30404	4.9629	0.	5.e-002	2.8026
30405	4.6871	3.2999e-030	0.1	5040.5
30406	4.779	0.	5.e-002	9.5893
30407	4.5033	3.1705e-030	0.1	5105.1
30408	4.5952	0.	5.e-002	17.516
30409	4.3195	3.041e-030	0.1	5170.3
30410	4.4114	0.	5.e-002	26.174
30411	4.1357	2.9116e-030	0.1	5236.
30412	4.2276	0.	5.e-002	35.578
30413	3.9519	2.7822e-030	0.1	5302.1
30414	4.0438	0.	5.e-002	45.775
30415	3.7681	2.6528e-030	0.1	5368.6
30416	3.86	0.	5.e-002	56.825
30417	3.5843	2.5234e-030	0.1	5435.2
30418	3.6762	0.	5.e-002	68.794
30419	3.4005	2.394e-030	0.1	5501.8
30420	3.4924	0.	5.e-002	81.755
30421	3.2167	2.2646e-030	0.1	5568.1
30422	3.3086	0.	5.e-002	95.791
30423	3.0329	2.1352e-030	0.1	5633.7
30424	3.1248	0.	5.e-002	110.99
30425	2.849	2.0058e-030	0.1	5698.2
30426	2.941	0.	5.e-002	127.46
30427	2.6652	1.8764e-030	0.1	5760.9
30428	2.7571	0.	5.e-002	145.31
30429	2.4814	1.747e-030	0.1	5821.
30430	2.5733	0.	5.e-002	164.67
30431	2.2976	1.6176e-030	0.1	5877.2
30432	2.3895	0.	5.e-002	185.71
30433	2.1138	1.4882e-030	0.1	5928.1
30434	2.2057	0.	5.e-002	208.59
30435	1.93	1.3588e-030	0.1	5971.5
30436	2.0219	0.	5.e-002	233.55
30437	1.7462	1.2294e-030	0.1	6004.5
30438	1.8381	0.	5.e-002	260.85
30439	1.5624	1.1e-030	0.1	6023.
30440	1.6543	0.	5.e-002	290.83
30441	1.3786	9.7055e-031	0.1	6021.1
30442	1.4705	0.	5.e-002	323.96
30443	1.1948	8.4114e-031	0.1	5989.7
30444	1.2867	0.	5.e-002	360.82
30445	1.011	7.1173e-031	0.1	5914.8
30446	1.1029	0.	5.e-002	402.32
30447	0.82714	5.8233e-031	0.1	5773.
30448	0.91905	0.	5.e-002	449.69
30449	0.64333	4.5292e-031	0.1	5518.9
30450	0.73524	0.	5.e-002	505.41
30451	0.45952	3.2352e-031	0.1	5066.6
30452	0.55143	0.	5.e-002	572.9
30453	0.27571	1.9411e-031	0.1	4159.1
30454	0.36762	0.	5.e-002	663.94
30455	9.1905e-002	6.4703e-032	0.1	1946.6
30456	0.18381	0.	5.e-002	844.85
30457	0.	0.	5.e-002	1118.7
30458	9.1905e-002	6.	0.1	1946.6
30459	5.2451e-014	6.	5.e-002	1118.7
30460	0.27571	6.	0.1	4159.1
30461	0.18381	6.	5.e-002	844.85
30462	0.45952	6.	0.1	5066.6
30463	0.36762	6.	5.e-002	663.94
30464	0.64333	6.	0.1	5518.9
30465	0.55143	6.	5.e-002	572.9
30466	0.82714	6.	0.1	5773.
30467	0.73524	6.	5.e-002	505.41
30468	1.011	6.	0.1	5914.8
30469	0.91905	6.	5.e-002	449.69
30470	1.1948	6.	0.1	5989.7
30471	1.1029	6.	5.e-002	402.32
30472	1.3786	6.	0.1	6021.1
30473	1.2867	6.	5.e-002	360.82
30474	1.5624	6.	0.1	6023.
30475	1.4705	6.	5.e-002	323.96
30476	1.7462	6.	0.1	6004.5
30477	1.6543	6.	5.e-002	290.83
30478	1.93	6.	0.1	5971.5
30479	1.8381	6.	5.e-002	260.85
30480	2.1138	6.	0.1	5928.1
30481	2.0219	6.	5.e-002	233.55
30482	2.2976	6.	0.1	5877.2
30483	2.2057	6.	5.e-002	208.59
30484	2.4814	6.	0.1	5821.
30485	2.3895	6.	5.e-002	185.71
30486	2.6652	6.	0.1	5760.9
30487	2.5733	6.	5.e-002	164.67
30488	2.849	6.	0.1	5698.2
30489	2.7571	6.	5.e-002	145.31
30490	3.0329	6.	0.1	5633.7
30491	2.941	6.	5.e-002	127.46
30492	3.2167	6.	0.1	5568.1
30493	3.1248	6.	5.e-002	110.99
30494	3.4005	6.	0.1	5501.8
30495	3.3086	6.	5.e-002	95.791
30496	3.5843	6.	0.1	5435.2
30497	3.4924	6.	5.e-002	81.755
30498	3.7681	6.	0.1	5368.6
30499	3.6762	6.	5.e-002	68.794
30500	3.9519	6.	0.1	5302.1
30501	3.86	6.	5.e-002	56.825
30502	4.1357	6.	0.1	5236.
30503	4.0438	6.	5.e-002	45.775
30504	4.3195	6.	0.1	5170.3
30505	4.2276	6.	5.e-002	35.578
30506	4.5033	6.	0.1	5105.1
30507	4.4114	6.	5.e-002	26.174
30508	4.6871	6.	0.1	5040.5
30509	4.5952	6.	5.e-002	17.515
30510	4.871	6.	0.1	4976.4
30511	4.779	6.	5.e-002	9.5892
30512	5.0548	6.	0.1	4912.9
30513	4.9629	6.	5.e-002	2.8026
30514	5.2386	6.	0.1	4850.
30515	5.1467	6.	5.e-002	5.2121
30516	5.4224	6.	0.1	4787.7
30517	5.3305	6.	5.e-002	11.274
30518	5.6062	6.	0.1	4725.9
30519	5.5143	6.	5.e-002	16.993
30520	5.79	6.	0.1	4664.7
30521	5.6981	6.	5.e-002	22.282
30522	5.9738	6.	0.1	4604.1
30523	5.8819	6.	5.e-002	27.154
30524	6.1576	6.	0.1	4544.
30525	6.0657	6.	5.e-002	31.635
30526	6.3414	6.	0.1	4484.4
30527	6.2495	6.	5.e-002	35.753
30528	6.5252	6.	0.1	4425.2
30529	6.4333	6.	5.e-002	39.533
30530	6.709	6.	0.1	4366.6
30531	6.6171	6.	5.e-002	42.999
30532	6.8929	6.	0.1	4308.4
30533	6.801	6.	5.e-002	46.175
30534	7.0767	6.	0.1	4250.6
30535	6.9848	6.	5.e-002	49.081
30536	7.2605	6.	0.1	4193.3
30537	7.1686	6.	5.e-002	51.739
30538	7.4443	6.	0.1	4136.3
30539	7.3524	6.	5.e-002	54.166
30540	7.6281	6.	0.1	4079.7
30541	7.5362	6.	5.e-002	56.379
30542	7.8119	6.	0.1	4023.6
30543	7.72	6.	5.e-002	58.395
30544	7.9957	6.	0.1	3967.7
30545	7.9038	6.	5.e-002	60.228
30546	8.1795	6.	0.1	3912.2
30547	8.0876	6.	5.e-002	61.891
30548	8.3633	6.	0.1	3857.1
30549	8.2714	6.	5.e-002	63.397
30550	8.5471	6.	0.1	3802.2
30551	8.4552	6.	5.e-002	64.758
30552	8.731	6.	0.1	3747.7
30553	8.639	6.	5.e-002	65.984
30554	8.9148	6.	0.1	3693.5
30555	8.8229	6.	5.e-002	67.085
30556	9.0986	6.	0.1	3639.5
30557	9.0067	6.	5.e-002	68.07
30558	9.2824	6.	0.1	3585.9
30559	9.1905	6.	5.e-002	68.947
30560	9.4662	6.	0.1	3532.5
30561	9.3743	6.	5.e-002	69.724
30562	9.65	6.	0.1	3479.4
30563	9.5581	6.	5.e-002	70.407
30564	9.8338	6.	0.1	3426.6
30565	9.7419	6.	5.e-002	71.004
30566	10.018	6.	0.1	3374.
30567	9.9257	6.	5.e-002	71.52
30568	10.201	6.	0.1	3321.7
30569	10.11	6.	5.e-002	71.961
30570	10.385	6.	0.1	3269.6
30571	10.293	6.	5.e-002	72.33
30572	10.569	6.	0.1	3217.8
30573	10.477	6.	5.e-002	72.633
30574	10.753	6.	0.1	3166.2
30575	10.661	6.	5.e-002	72.873
30576	10.937	6.	0.1	3114.8
30577	10.845	6.	5.e-002	73.054
30578	11.12	6.	0.1	3063.6
30579	11.029	6.	5.e-002	73.18
30580	11.304	6.	0.1	3012.7
30581	11.212	6.	5.e-002	73.252
30582	11.488	6.	0.1	2962.
30583	11.396	6.	5.e-002	73.273
30584	11.672	6.	0.1	2911.5
30585	11.58	6.	5.e-002	73.246
30586	11.856	6.	0.1	2861.2
30587	11.764	6.	5.e-002	73.171
30588	12.04	6.	0.1	2811.1
30589	11.948	6.	5.e-002	73.05
30590	12.223	6.	0.1	2761.2
30591	12.131	6.	5.e-002	72.885
30592	12.407	6.	0.1	2711.6
30593	12.315	6.	5.e-002	72.676
30594	12.591	6.	0.1	2662.
30595	12.499	6.	5.e-002	72.422
30596	12.775	6.	0.1	2612.7
30597	12.683	6.	5.e-002	72.124
30598	12.959	6.	0.1	2563.6
30599	12.867	6.	5.e-002	71.782
30600	13.142	6.	0.1	2514.6
30601	13.05	6.	5.e-002	71.394
30602	13.326	6.	0.1	2465.7
30603	13.234	6.	5.e-002	70.959
30604	13.51	6.	0.1	2417.
30605	13.418	6.	5.e-002	70.474
30606	13.694	6.	0.1	2368.4
30607	13.602	6.	5.e-002	69.937
30608	13.878	6.	0.1	2319.9
30609	13.786	6.	5.e-002	69.345
30610	14.061	6.	0.1	2271.5
30611	13.97	6.	5.e-002	68.694
30612	14.245	6.	0.1	2223.1
30613	14.153	6.	5.e-002	67.977
30614	14.429	6.	0.1	2174.8
30615	14.337	6.	5.e-002	67.19
30616	14.613	6.	0.1	2126.4
30617	14.521	6.	5.e-002	66.324
30618	14.797	6.	0.1	2077.9
30619	14.705	6.	5.e-002	65.371
30620	14.98	6.	0.1	2029.2
30621	14.889	6.	5.e-002	64.32
30622	15.164	6.	0.1	1980.3
30623	15.072	6.	5.e-002	63.159
30624	15.348	6.	0.1	1931.1
30625	15.256	6.	5.e-002	61.874
30626	15.532	6.	0.1	1881.3
30627	15.44	6.	5.e-002	60.447
30628	15.716	6.	0.1	1830.9
30629	15.624	6.	5.e-002	58.859
30630	15.9	6.	0.1	1779.6
30631	15.808	6.	5.e-002	57.087
30632	16.083	6.	0.1	1727.2
30633	15.991	6.	5.e-002	55.105
30634	16.267	6.	0.1	1673.3
30635	16.175	6.	5.e-002	52.885
30636	16.451	6.	0.1	1617.6
30637	16.359	6.	5.e-002	50.394
30638	16.635	6.	0.1	1559.5
30639	16.543	6.	5.e-002	47.598
30640	16.819	6.	0.1	1498.5
30641	16.727	6.	5.e-002	44.462
30642	17.002	6.	0.1	1434.
30643	16.91	6.	5.e-002	40.951
30644	17.186	6.	0.1	1365.
30645	17.094	6.	5.e-002	37.038
30646	17.37	6.	0.1	1290.7
30647	17.278	6.	5.e-002	32.704
30648	17.554	6.	0.1	1210.
30649	17.462	6.	5.e-002	27.951
30650	17.738	6.	0.1	1121.7
30651	17.646	6.	5.e-002	22.813
30652	17.921	6.	0.1	1024.8
30653	17.83	6.	5.e-002	17.375
30654	18.105	6.	0.1	918.28
30655	18.013	6.	5.e-002	11.792
30656	18.289	6.	0.1	801.34
30657	18.197	6.	5.e-002	6.3488
30658	18.473	6.	0.1	673.79
30659	18.381	6.	5.e-002	1.9079
30660	18.657	6.	0.1	536.09
30661	18.565	6.	5.e-002	3.5189
30662	18.84	6.	0.1	389.24
30663	18.749	6.	5.e-002	5.884
30664	19.024	6.	0.1	233.68
30665	18.932	6.	5.e-002	5.9539
30666	19.208	6.	0.1	81.889
30667	19.116	6.	5.e-002	1.5264
30668	19.3	6.	5.e-002	8.1052
30669	19.024	6.	0.	2.9825
30670	19.208	6.	0.	1.0206
30671	18.84	6.	0.	3.0407
30672	18.657	6.	0.	3.044
30673	18.473	6.	0.	2.9678
30674	18.289	6.	0.	2.9356
30675	18.105	6.	0.	3.0142
30676	17.921	6.	0.	3.1987
30677	17.738	6.	0.	3.4691
30678	17.554	6.	0.	3.7972
30679	17.37	6.	0.	4.1561
30680	17.186	6.	0.	4.523
30681	17.002	6.	0.	4.8806
30682	16.819	6.	0.	5.2165
30683	16.635	6.	0.	5.5232
30684	16.451	6.	0.	5.7967
30685	16.267	6.	0.	6.0356
30686	16.083	6.	0.	6.2405
30687	15.9	6.	0.	6.413
30688	15.716	6.	0.	6.5554
30689	15.532	6.	0.	6.6703
30690	15.348	6.	0.	6.7604
30691	15.164	6.	0.	6.8283
30692	14.98	6.	0.	6.8765
30693	14.797	6.	0.	6.9072
30694	14.613	6.	0.	6.9224
30695	14.429	6.	0.	6.9238
30696	14.245	6.	0.	6.9129
30697	14.061	6.	0.	6.891
30698	13.878	6.	0.	6.8593
30699	13.694	6.	0.	6.8187
30700	13.51	6.	0.	6.7699
30701	13.326	6.	0.	6.7138
30702	13.142	6.	0.	6.6507
30703	12.959	6.	0.	6.581
30704	12.775	6.	0.	6.5052
30705	12.591	6.	0.	6.4235
30706	12.407	6.	0.	6.3361
30707	12.223	6.	0.	6.2431
30708	12.04	6.	0.	6.1444
30709	11.856	6.	0.	6.0402
30710	11.672	6.	0.	5.9304
30711	11.488	6.	0.	5.8149
30712	11.304	6.	0.	5.6934
30713	11.12	6.	0.	5.5658
30714	10.937	6.	0.	5.4321
30715	10.753	6.	0.	5.2918
30716	10.569	6.	0.	5.1446
30717	10.385	6.	0.	4.9904
30718	10.201	6.	0.	4.8287
30719	10.018	6.	0.	4.6591
30720	9.8338	6.	0.	4.4814
30721	9.65	6.	0.	4.2951
30722	9.4662	6.	0.	4.0999
30723	9.2824	6.	0.	3.8952
30724	9.0986	6.	0.	3.6808
30725	8.9148	6.	0.	3.4563
30726	8.731	6.	0.	3.2213
30727	8.5471	6.	0.	2.9754
30728	8.3633	6.	0.	2.7184
30729	8.1795	6.	0.	2.4502
30730	7.9957	6.	0.	2.1706
30731	7.8119	6.	0.	1.8795
30732	7.6281	6.	0.	1.5772
30733	7.4443	6.	0.	1.2639
30734	7.2605	6.	0.	0.94022
30735	7.0767	6.	0.	0.60717
30736	6.8929	6.	0.	0.46769
30737	6.709	6.	0.	0.51045
30738	6.5252	6.	0.	0.55695
30739	6.3414	6.	0.	0.60727
30740	6.1576	6.	0.	0.66169
30741	5.9738	6.	0.	0.72054
30742	5.79	6.	0.	0.78417
30743	5.6062	6.	0.	0.85297
30744	5.4224	6.	0.	0.92738
30745	5.2386	6.	0.	1.0079
30746	5.0548	6.	0.	1.095
30747	4.871	6.	0.	1.1893
30748	4.6871	6.	0.	1.2916
30749	4.5033	6.	0.	1.4026
30750	4.3195	6.	0.	1.5236
30751	4.1357	6.	0.	1.6559
30752	3.9519	6.	0.	1.8017
30753	3.7681	6.	0.	1.9648
30754	3.5843	6.	0.	2.1526
30755	3.4005	6.	0.	2.3834
30756	3.2167	6.	0.	2.7212
30757	3.0329	6.	0.	3.4526
30758	2.849	6.	0.	5.126
30759	2.6652	6.	0.	7.6459
30760	2.4814	6.	0.	10.887
30761	2.2976	6.	0.	14.919
30762	2.1138	6.	0.	19.885
30763	1.93	6.	0.	25.985
30764	1.7462	6.	0.	33.492
30765	1.5624	6.	0.	42.774
30766	1.3786	6.	0.	54.381
30767	1.1948	6.	0.	69.089
30768	1.011	6.	0.	88.327
30769	0.82714	6.	0.	114.17
30770	0.64333	6.	0.	151.95
30771	0.45952	6.	0.	213.58
30772	0.27571	6.	0.	335.37
30773	9.1905e-002	6.	0.	899.53
30774	19.3	5.9091	0.	9.0907
30775	5.1657e-014	5.9091	0.	144.5
30776	0.27571	1.9411e-031	0.	335.37
30777	9.1905e-002	6.4703e-032	0.	899.53
30778	0.45952	3.2352e-031	0.	213.58
30779	0.64333	4.5292e-031	0.	151.95
30780	0.82714	5.8233e-031	0.	114.17
30781	1.011	7.1173e-031	0.	88.327
30782	1.1948	8.4114e-031	0.	69.089
30783	1.3786	9.7055e-031	0.	54.381
30784	1.5624	1.1e-030	0.	42.774
30785	1.7462	1.2294e-030	0.	33.492
30786	1.93	1.3588e-030	0.	25.985
30787	2.1138	1.4882e-030	0.	19.885
30788	2.2976	1.6176e-030	0.	14.919
30789	2.4814	1.747e-030	0.	10.887
30790	2.6652	1.8764e-030	0.	7.6458
30791	2.849	2.0058e-030	0.	5.126
30792	3.0329	2.1352e-030	0.	3.4525
30793	3.2167	2.2646e-030	0.	2.7212
30794	3.4005	2.394e-030	0.	2.3834
30795	3.5843	2.5234e-030	0.	2.1526
30796	3.7681	2.6528e-030	0.	1.9648
30797	3.9519	2.7822e-030	0.	1.8017
30798	4.1357	2.9116e-030	0.	1.6559
30799	4.3195	3.041e-030	0.	1.5236
30800	4.5033	3.1705e-030	0.	1.4026
30801	4.6871	3.2999e-030	0.	1.2916
30802	4.871	3.4293e-030	0.	1.1893
30803	5.0548	3.5587e-030	0.	1.095
30804	5.2386	3.6881e-030	0.	1.0079
30805	5.4224	3.8175e-030	0.	0.92738
30806	5.6062	3.9469e-030	0.	0.85297
30807	5.79	4.0763e-030	0.	0.78417
30808	5.9738	4.2057e-030	0.	0.72054
30809	6.1576	4.3351e-030	0.	0.66169
30810	6.3414	4.4645e-030	0.	0.60727
30811	6.5252	4.5939e-030	0.	0.55695
30812	6.709	4.7233e-030	0.	0.51045
30813	6.8929	4.8527e-030	0.	0.46769
30814	7.0767	4.9821e-030	0.	0.60719
30815	7.2605	5.1115e-030	0.	0.94023
30816	7.4443	5.241e-030	0.	1.2639
30817	7.6281	5.3704e-030	0.	1.5772
30818	7.8119	5.4998e-030	0.	1.8795
30819	7.9957	5.6292e-030	0.	2.1706
30820	8.1795	5.7586e-030	0.	2.4502
30821	8.3633	5.888e-030	0.	2.7185
30822	8.5471	6.0174e-030	0.	2.9754
30823	8.731	6.1468e-030	0.	3.2213
30824	8.9148	6.2762e-030	0.	3.4563
30825	9.0986	6.4056e-030	0.	3.6809
30826	9.2824	6.535e-030	0.	3.8953
30827	9.4662	6.6644e-030	0.	4.0999
30828	9.65	6.7938e-030	0.	4.2952
30829	9.8338	6.9232e-030	0.	4.4815
30830	10.018	7.0526e-030	0.	4.6592
30831	10.201	7.1821e-030	0.	4.8287
30832	10.385	7.3115e-030	0.	4.9904
30833	10.569	7.4409e-030	0.	5.1447
30834	10.753	7.5703e-030	0.	5.2918
30835	10.937	7.6997e-030	0.	5.4321
30836	11.12	7.8291e-030	0.	5.5659
30837	11.304	7.9585e-030	0.	5.6934
30838	11.488	8.0879e-030	0.	5.8149
30839	11.672	8.2173e-030	0.	5.9305
30840	11.856	8.3467e-030	0.	6.0403
30841	12.04	8.4761e-030	0.	6.1445
30842	12.223	8.6055e-030	0.	6.2431
30843	12.407	8.7349e-030	0.	6.3362
30844	12.591	8.8643e-030	0.	6.4236
30845	12.775	8.9937e-030	0.	6.5053
30846	12.959	9.1231e-030	0.	6.5811
30847	13.142	9.2526e-030	0.	6.6507
30848	13.326	9.382e-030	0.	6.7138
30849	13.51	9.5114e-030	0.	6.77
30850	13.694	9.6408e-030	0.	6.8187
30851	13.878	9.7702e-030	0.	6.8594
30852	14.061	9.8996e-030	0.	6.8911
30853	14.245	1.0029e-029	0.	6.9129
30854	14.429	1.0158e-029	0.	6.9238
30855	14.613	1.0288e-029	0.	6.9225
30856	14.797	1.0417e-029	0.	6.9073
30857	14.98	1.0547e-029	0.	6.8766
30858	15.164	1.0676e-029	0.	6.8284
30859	15.348	1.0805e-029	0.	6.7604
30860	15.532	1.0935e-029	0.	6.6703
30861	15.716	1.1064e-029	0.	6.5554
30862	15.9	1.1194e-029	0.	6.413
30863	16.083	1.1323e-029	0.	6.2405
30864	16.267	1.1452e-029	0.	6.0357
30865	16.451	1.1582e-029	0.	5.7967
30866	16.635	1.1711e-029	0.	5.5232
30867	16.819	1.1841e-029	0.	5.2165
30868	17.002	1.197e-029	0.	4.8806
30869	17.186	1.2099e-029	0.	4.5231
30870	17.37	1.2229e-029	0.	4.1561
30871	17.554	1.2358e-029	0.	3.7972
30872	17.738	1.2488e-029	0.	3.4691
30873	17.921	1.2617e-029	0.	3.1987
30874	18.105	1.2747e-029	0.	3.0142
30875	18.289	1.2876e-029	0.	2.9356
30876	18.473	1.3005e-029	0.	2.9678
30877	18.657	1.3135e-029	0.	3.044
30878	18.84	1.3264e-029	0.	3.0407
30879	19.024	1.3394e-029	0.	2.9825
30880	19.208	1.3523e-029	0.	1.0206
30881	19.3	9.0909e-002	0.	9.0907
30882	7.9472e-016	9.0909e-002	0.	144.5
30883	19.739	0.	0.	4.9371
30884	19.557	0.	0.	1.5658
30885	19.92	0.	0.	6.5473
30886	20.101	0.	0.	7.4073
30887	20.283	0.	0.	7.6665
30888	20.464	0.	0.	7.5594
30889	20.645	0.	0.	7.2768
30890	20.827	0.	0.	6.9315
30891	21.008	0.	0.	6.5955
30892	21.189	0.	0.	6.3094
30893	21.371	0.	0.	6.0941
30894	21.552	0.	0.	5.9576
30895	21.733	0.	0.	5.9001
30896	21.915	0.	0.	5.9177
30897	22.096	0.	0.	6.0039
30898	22.277	0.	0.	6.1509
30899	22.459	0.	0.	6.3503
30900	22.64	0.	0.	6.5929
30901	22.821	0.	0.	6.8686
30902	23.003	0.	0.	7.1651
30903	23.184	0.	0.	7.4685
30904	23.365	0.	0.	7.7462
30905	23.547	0.	0.	8.0061
30906	23.728	0.	0.	7.7798
30907	23.909	0.	0.	6.2887
30908	19.467	9.0909e-002	0.	3.8717
30909	24.	9.0909e-002	0.	15.663
30910	5.0067e-014	5.7273	0.	-1664.
30911	4.8478e-014	5.5455	0.	-2513.7
30912	4.6888e-014	5.3636	0.	-2947.
30913	4.5299e-014	5.1818	0.	-3216.6
30914	4.371e-014	5.	0.	-3400.8
30915	4.212e-014	4.8182	0.	-3534.
30916	4.0531e-014	4.6364	0.	-3633.5
30917	3.8941e-014	4.4545	0.	-3709.4
30918	3.7352e-014	4.2727	0.	-3768.
30919	3.5762e-014	4.0909	0.	-3813.5
30920	3.4173e-014	3.9091	0.	-3848.6
30921	3.2583e-014	3.7273	0.	-3875.3
30922	3.0994e-014	3.5455	0.	-3894.8
30923	2.9405e-014	3.3636	0.	-3908.3
30924	2.7815e-014	3.1818	0.	-3916.2
30925	2.6226e-014	3.	0.	-3918.8
30926	2.4636e-014	2.8182	0.	-3916.2
30927	2.3047e-014	2.6364	0.	-3908.3
30928	2.1457e-014	2.4545	0.	-3894.8
30929	1.9868e-014	2.2727	0.	-3875.3
30930	1.8279e-014	2.0909	0.	-3848.6
30931	1.6689e-014	1.9091	0.	-3813.5
30932	1.51e-014	1.7273	0.	-3768.
30933	1.351e-014	1.5455	0.	-3709.4
30934	1.1921e-014	1.3636	0.	-3633.5
30935	1.0331e-014	1.1818	0.	-3534.
30936	8.7419e-015	1.	0.	-3400.8
30937	7.1525e-015	0.81818	0.	-3216.6
30938	5.563e-015	0.63636	0.	-2947.
30939	3.9736e-015	0.45455	0.	-2513.7
30940	2.3842e-015	0.27273	0.	-1664.
30941	24.	0.27273	0.	36.991
30942	24.	0.45455	0.	52.303
30943	24.	0.63636	0.	62.76
30944	24.	0.81818	0.	70.092
30945	24.	1.	0.	75.097
30946	24.	1.1818	0.	78.29
30947	24.	1.3636	0.	80.068
30948	24.	1.5455	0.	80.76
30949	24.	1.7273	0.	80.656
30950	24.	1.9091	0.	80.014
30951	24.	2.0909	0.	79.062
30952	24.	2.2727	0.	77.998
30953	24.	2.4545	0.	76.99
30954	24.	2.6364	0.	76.173
30955	24.	2.8182	0.	75.642
30956	24.	3.	0.	75.459
30957	24.	3.1818	0.	75.642
30958	24.	3.3636	0.	76.173
30959	24.	3.5455	0.	76.99
30960	24.	3.7273	0.	77.998
30961	24.	3.9091	0.	79.062
30962	24.	4.0909	0.	80.014
30963	24.	4.2727	0.	80.656
30964	24.	4.4545	0.	80.76
30965	24.	4.6364	0.	80.068
30966	24.	4.8182	0.	78.29
30967	24.	5.	0.	75.097
30968	24.	5.1818	0.	70.092
30969	24.	5.3636	0.	62.76
30970	24.	5.5455	0.	52.303
30971	24.	5.7273	0.	36.991
30972	24.	5.9091	0.	15.663
30973	23.909	6.	0.	6.2886
30974	23.728	6.	0.	7.7798
30975	23.547	6.	0.	8.0061
30976	23.365	6.	0.	7.7462
30977	23.184	6.	0.	7.4685
30978	23.003	6.	0.	7.1651
30979	22.821	6.	0.	6.8686
30980	22.64	6.	0.	6.5929
30981	22.459	6.	0.	6.3503
30982	22.277	6.	0.	6.1509
30983	22.096	6.	0.	6.0038
30984	21.915	6.	0.	5.9177
30985	21.733	6.	0.	5.9001
30986	21.552	6.	0.	5.9576
30987	21.371	6.	0.	6.0941
30988	21.189	6.	0.	6.3094
30989	21.008	6.	0.	6.5954
30990	20.827	6.	0.	6.9314
30991	20.645	6.	0.	7.2768
30992	20.464	6.	0.	7.5594
30993	20.283	6.	0.	7.6665
30994	20.101	6.	0.	7.4073
30995	19.92	6.	0.	6.5473
30996	19.739	6.	0.	4.9371
30997	19.557	6.	0.	1.5658
30998	19.467	5.9091	0.	3.8717
30999	19.3	1.7273	0.	1309.6
31000	19.3	1.9091	0.	1470.6
31001	19.3	1.5455	0.	805.92
31002	19.3	1.3636	0.	609.52
31003	19.3	1.1818	0.	456.6
31004	19.3	1.	0.	340.88
31005	19.3	0.81818	0.	247.56
31006	19.3	0.63636	0.	170.16
31007	19.3	0.45455	0.	105.56
31008	19.3	0.27273	0.	52.436
31009	19.383	2.	0.	632.94
31010	19.467	0.27273	0.	21.714
31011	19.467	0.45455	0.	41.25
31012	19.467	0.63636	0.	63.804
31013	19.467	0.81818	0.	90.339
31014	19.467	1.	0.	122.57
31015	19.467	1.1818	0.	163.4
31016	19.467	1.3636	0.	221.49
31017	19.467	1.5455	0.	283.75
31018	19.467	1.7273	0.	547.95
31019	19.467	1.9091	0.	490.53
31020	19.3	4.2727	0.	1309.6
31021	19.3	4.0909	0.	1470.5
31022	19.3	4.4545	0.	805.92
31023	19.3	4.6364	0.	609.52
31024	19.3	4.8182	0.	456.6
31025	19.3	5.	0.	340.88
31026	19.3	5.1818	0.	247.56
31027	19.3	5.3636	0.	170.16
31028	19.3	5.5455	0.	105.56
31029	19.3	5.7273	0.	52.436
31030	19.383	4.	0.	632.94
31031	19.467	5.7273	0.	21.714
31032	19.467	5.5455	0.	41.25
31033	19.467	5.3636	0.	63.804
31034	19.467	5.1818	0.	90.339
31035	19.467	5.	0.	122.57
31036	19.467	4.8182	0.	163.4
31037	19.467	4.6364	0.	221.49
31038	19.467	4.4545	0.	283.75
31039	19.467	4.2727	0.	547.95
31040	19.467	4.0909	0.	490.53
