Node Number	X Location (in)	Y Location (in)	Z Location (in)	Middle Principal Stress (psi)
1	20.6	2.1818	0.	43.815
2	20.6	2.3636	0.	-6.2349
3	20.6	2.5455	0.	-2.0535e-002
4	20.6	2.7273	0.	-0.74613
5	20.6	2.9091	0.	-0.43079
6	20.6	3.0909	0.	-0.43079
7	20.6	3.2727	0.	-0.74613
8	20.6	3.4545	0.	-2.0534e-002
9	20.6	3.6364	0.	-6.2349
10	20.6	3.8182	0.	43.815
11	20.767	2.1818	0.	-13.921
12	20.767	2.3636	0.	-7.8229
13	20.767	2.5455	0.	0.31225
14	20.767	2.7273	0.	-0.80213
15	20.767	2.9091	0.	-0.37056
16	20.767	3.0909	0.	-0.37056
17	20.767	3.2727	0.	-0.80213
18	20.767	3.4545	0.	0.31225
19	20.767	3.6364	0.	-7.8229
20	20.767	3.8182	0.	-13.921
21	20.416	5.8182	0.	-2.7723
22	20.416	5.6364	0.	-1.2019
23	20.416	5.4545	0.	-0.96216
24	20.416	5.2727	0.	-0.88223
25	20.416	5.0909	0.	-0.86148
26	20.416	4.9091	0.	-1.1942
27	20.416	4.7273	0.	-0.56768
28	20.416	4.5455	0.	-4.1222
29	20.416	4.3636	0.	5.5625
30	20.416	4.1818	0.	-21.251
31	20.416	4.	0.	-105.61
32	20.416	3.8182	0.	6.2991
33	20.416	3.6364	0.	-3.8264
34	20.416	3.4545	0.	0.9295
35	20.416	3.2727	0.	-0.73035
36	20.416	3.0909	0.	-0.21699
37	20.416	2.9091	0.	-0.21699
38	20.416	2.7273	0.	-0.73035
39	20.416	2.5455	0.	0.9295
40	20.416	2.3636	0.	-3.8264
41	20.416	2.1818	0.	6.2991
42	20.416	2.	0.	-105.61
43	20.416	1.8182	0.	-21.251
44	20.416	1.6364	0.	5.5625
45	20.416	1.4545	0.	-4.1222
46	20.416	1.2727	0.	-0.56768
47	20.416	1.0909	0.	-1.1942
48	20.416	0.90909	0.	-0.86148
49	20.416	0.72727	0.	-0.88223
50	20.416	0.54545	0.	-0.96216
51	20.416	0.36364	0.	-1.2019
52	20.416	0.18182	0.	-2.7723
53	20.232	5.8182	0.	0.24173
54	20.232	5.6364	0.	0.3442
55	20.232	5.4545	0.	0.40678
56	20.232	5.2727	0.	0.47068
57	20.232	5.0909	0.	0.50304
58	20.232	4.9091	0.	0.58008
59	20.232	4.7273	0.	0.55357
60	20.232	4.5455	0.	0.56146
61	20.232	4.3636	0.	1.7766
62	20.232	4.1818	0.	4.2777
63	20.232	4.	0.	11.695
64	20.232	3.8182	0.	6.4995
65	20.232	3.6364	0.	-1.0458
66	20.232	3.4545	0.	0.13805
67	20.232	3.2727	0.	-0.10967
68	20.232	3.0909	0.	-9.4302e-002
69	20.232	2.9091	0.	-9.4301e-002
70	20.232	2.7273	0.	-0.10967
71	20.232	2.5455	0.	0.13805
72	20.232	2.3636	0.	-1.0458
73	20.232	2.1818	0.	6.4995
74	20.232	2.	0.	11.695
75	20.232	1.8182	0.	4.2777
76	20.232	1.6364	0.	1.7766
77	20.232	1.4545	0.	0.56146
78	20.232	1.2727	0.	0.55357
79	20.232	1.0909	0.	0.58008
80	20.232	0.90909	0.	0.50304
81	20.232	0.72727	0.	0.47068
82	20.232	0.54545	0.	0.40678
83	20.232	0.36364	0.	0.3442
84	20.232	0.18182	0.	0.24172
85	20.048	5.8182	0.	0.2651
86	20.048	5.6364	0.	9.2492e-002
87	20.048	5.4545	0.	9.4236e-002
88	20.048	5.2727	0.	5.0431e-002
89	20.048	5.0909	0.	1.7316e-002
90	20.048	4.9091	0.	-7.0255e-002
91	20.048	4.7273	0.	-0.1063
92	20.048	4.5455	0.	-4.9364e-002
93	20.048	4.3636	0.	-1.6134
94	20.048	4.1818	0.	-0.61027
95	20.048	4.	0.	-1.9358
96	20.048	3.8182	0.	-1.7941
97	20.048	3.6364	0.	0.80004
98	20.048	3.4545	0.	3.6438e-002
99	20.048	3.2727	0.	5.1261e-002
100	20.048	3.0909	0.	1.4123e-002
101	20.048	2.9091	0.	1.4124e-002
102	20.048	2.7273	0.	5.126e-002
103	20.048	2.5455	0.	3.6438e-002
104	20.048	2.3636	0.	0.80004
105	20.048	2.1818	0.	-1.7941
106	20.048	2.	0.	-1.9358
107	20.048	1.8182	0.	-0.61027
108	20.048	1.6364	0.	-1.6134
109	20.048	1.4545	0.	-4.9365e-002
110	20.048	1.2727	0.	-0.1063
111	20.048	1.0909	0.	-7.0254e-002
112	20.048	0.90909	0.	1.7318e-002
113	20.048	0.72727	0.	5.0434e-002
114	20.048	0.54545	0.	9.4233e-002
115	20.048	0.36364	0.	9.2493e-002
116	20.048	0.18182	0.	0.2651
117	19.864	5.8182	0.	0.30008
118	19.864	5.6364	0.	0.12189
119	19.864	5.4545	0.	0.14233
120	19.864	5.2727	0.	9.6178e-002
121	19.864	5.0909	0.	6.3584e-002
122	19.864	4.9091	0.	3.4079e-002
123	19.864	4.7273	0.	-2.488e-002
124	19.864	4.5455	0.	-8.2008e-002
125	19.864	4.3636	0.	0.31012
126	19.864	4.1818	0.	6.8225e-002
127	19.864	4.	0.	0.44557
128	19.864	3.8182	0.	0.70099
129	19.864	3.6364	0.	5.1327e-002
130	19.864	3.4545	0.	8.805e-002
131	19.864	3.2727	0.	8.4428e-002
132	19.864	3.0909	0.	6.5525e-002
133	19.864	2.9091	0.	6.5525e-002
134	19.864	2.7273	0.	8.4429e-002
135	19.864	2.5455	0.	8.8051e-002
136	19.864	2.3636	0.	5.1327e-002
137	19.864	2.1818	0.	0.70099
138	19.864	2.	0.	0.44557
139	19.864	1.8182	0.	6.8225e-002
140	19.864	1.6364	0.	0.31012
141	19.864	1.4545	0.	-8.2007e-002
142	19.864	1.2727	0.	-2.4881e-002
143	19.864	1.0909	0.	3.408e-002
144	19.864	0.90909	0.	6.3584e-002
145	19.864	0.72727	0.	9.6181e-002
146	19.864	0.54545	0.	0.14233
147	19.864	0.36364	0.	0.12189
148	19.864	0.18182	0.	0.30008
149	19.68	5.8182	0.	0.15839
150	19.68	5.6364	0.	3.9305e-002
151	19.68	5.4545	0.	9.3118e-002
152	19.68	5.2727	0.	5.2584e-002
153	19.68	5.0909	0.	2.8078e-002
154	19.68	4.9091	0.	2.0866e-003
155	19.68	4.7273	0.	-9.0132e-003
156	19.68	4.5455	0.	-2.3472e-002
157	19.68	4.3636	0.	-8.8916e-002
158	19.68	4.1818	0.	-1.5995e-002
159	19.68	4.	0.	-7.0117e-002
160	19.68	3.8182	0.	-0.11119
161	19.68	3.6364	0.	4.0574e-002
162	19.68	3.4545	0.	7.2372e-002
163	19.68	3.2727	0.	6.6378e-002
164	19.68	3.0909	0.	7.2368e-002
165	19.68	2.9091	0.	7.2368e-002
166	19.68	2.7273	0.	6.6376e-002
167	19.68	2.5455	0.	7.2373e-002
168	19.68	2.3636	0.	4.0573e-002
169	19.68	2.1818	0.	-0.11119
170	19.68	2.	0.	-7.0118e-002
171	19.68	1.8182	0.	-1.5995e-002
172	19.68	1.6364	0.	-8.8914e-002
173	19.68	1.4545	0.	-2.3472e-002
174	19.68	1.2727	0.	-9.0113e-003
175	19.68	1.0909	0.	2.0872e-003
176	19.68	0.90909	0.	2.808e-002
177	19.68	0.72727	0.	5.2585e-002
178	19.68	0.54545	0.	9.312e-002
179	19.68	0.36364	0.	3.9303e-002
180	19.68	0.18182	0.	0.15839
181	19.496	5.8182	0.	4.3502e-002
182	19.496	5.6364	0.	-1.2912e-002
183	19.496	5.4545	0.	7.0022e-002
184	19.496	5.2727	0.	4.1165e-002
185	19.496	5.0909	0.	3.0118e-002
186	19.496	4.9091	0.	1.7744e-002
187	19.496	4.7273	0.	1.1008e-002
188	19.496	4.5455	0.	1.5768e-002
189	19.496	4.3636	0.	3.2806e-002
190	19.496	4.1818	0.	2.43e-002
191	19.496	4.	0.	3.5585e-002
192	19.496	3.8182	0.	4.5794e-002
193	19.496	3.6364	0.	2.7973e-002
194	19.496	3.4545	0.	3.6577e-002
195	19.496	3.2727	0.	5.4705e-002
196	19.496	3.0909	0.	6.1449e-002
197	19.496	2.9091	0.	6.145e-002
198	19.496	2.7273	0.	5.4705e-002
199	19.496	2.5455	0.	3.6577e-002
200	19.496	2.3636	0.	2.7973e-002
201	19.496	2.1818	0.	4.5794e-002
202	19.496	2.	0.	3.5585e-002
203	19.496	1.8182	0.	2.4301e-002
204	19.496	1.6364	0.	3.2805e-002
205	19.496	1.4545	0.	1.5769e-002
206	19.496	1.2727	0.	1.1007e-002
207	19.496	1.0909	0.	1.7746e-002
208	19.496	0.90909	0.	3.0119e-002
209	19.496	0.72727	0.	4.1166e-002
210	19.496	0.54545	0.	7.0022e-002
211	19.496	0.36364	0.	-1.2912e-002
212	19.496	0.18182	0.	4.3503e-002
213	19.313	5.8182	0.	-4.1886e-002
214	19.313	5.6364	0.	-5.2548e-002
215	19.313	5.4545	0.	4.8978e-002
216	19.313	5.2727	0.	3.1073e-002
217	19.313	5.0909	0.	2.8749e-002
218	19.313	4.9091	0.	2.3584e-002
219	19.313	4.7273	0.	2.2375e-002
220	19.313	4.5455	0.	2.1884e-002
221	19.313	4.3636	0.	1.9143e-002
222	19.313	4.1818	0.	1.694e-002
223	19.313	4.	0.	8.5954e-003
224	19.313	3.8182	0.	5.3578e-003
225	19.313	3.6364	0.	1.6855e-002
226	19.313	3.4545	0.	3.0337e-002
227	19.313	3.2727	0.	4.1393e-002
228	19.313	3.0909	0.	4.846e-002
229	19.313	2.9091	0.	4.8461e-002
230	19.313	2.7273	0.	4.1394e-002
231	19.313	2.5455	0.	3.0337e-002
232	19.313	2.3636	0.	1.6854e-002
233	19.313	2.1818	0.	5.3574e-003
234	19.313	2.	0.	8.597e-003
235	19.313	1.8182	0.	1.694e-002
236	19.313	1.6364	0.	1.9143e-002
237	19.313	1.4545	0.	2.1884e-002
238	19.313	1.2727	0.	2.2374e-002
239	19.313	1.0909	0.	2.3585e-002
240	19.313	0.90909	0.	2.8749e-002
241	19.313	0.72727	0.	3.1076e-002
242	19.313	0.54545	0.	4.8979e-002
243	19.313	0.36364	0.	-5.2547e-002
244	19.313	0.18182	0.	-4.189e-002
245	19.129	5.8182	0.	-9.0756e-002
246	19.129	5.6364	0.	-7.5772e-002
247	19.129	5.4545	0.	3.5125e-002
248	19.129	5.2727	0.	2.5717e-002
249	19.129	5.0909	0.	2.9354e-002
250	19.129	4.9091	0.	2.8027e-002
251	19.129	4.7273	0.	2.8378e-002
252	19.129	4.5455	0.	2.8441e-002
253	19.129	4.3636	0.	2.7215e-002
254	19.129	4.1818	0.	2.3102e-002
255	19.129	4.	0.	1.9149e-002
256	19.129	3.8182	0.	1.7193e-002
257	19.129	3.6364	0.	1.8604e-002
258	19.129	3.4545	0.	2.5034e-002
259	19.129	3.2727	0.	3.2951e-002
260	19.129	3.0909	0.	3.7984e-002
261	19.129	2.9091	0.	3.7983e-002
262	19.129	2.7273	0.	3.2951e-002
263	19.129	2.5455	0.	2.5035e-002
264	19.129	2.3636	0.	1.8603e-002
265	19.129	2.1818	0.	1.7194e-002
266	19.129	2.	0.	1.915e-002
267	19.129	1.8182	0.	2.3103e-002
268	19.129	1.6364	0.	2.7216e-002
269	19.129	1.4545	0.	2.8442e-002
270	19.129	1.2727	0.	2.8379e-002
271	19.129	1.0909	0.	2.8027e-002
272	19.129	0.90909	0.	2.9355e-002
273	19.129	0.72727	0.	2.5719e-002
274	19.129	0.54545	0.	3.5124e-002
275	19.129	0.36364	0.	-7.5773e-002
276	19.129	0.18182	0.	-9.0756e-002
277	18.945	5.8182	0.	-0.11223
278	18.945	5.6364	0.	-8.7976e-002
279	18.945	5.4545	0.	2.494e-002
280	18.945	5.2727	0.	2.1516e-002
281	18.945	5.0909	0.	2.8658e-002
282	18.945	4.9091	0.	2.9484e-002
283	18.945	4.7273	0.	3.0342e-002
284	18.945	4.5455	0.	2.9783e-002
285	18.945	4.3636	0.	2.755e-002
286	18.945	4.1818	0.	2.386e-002
287	18.945	4.	0.	1.9779e-002
288	18.945	3.8182	0.	1.7605e-002
289	18.945	3.6364	0.	1.8885e-002
290	18.945	3.4545	0.	2.2787e-002
291	18.945	3.2727	0.	2.7419e-002
292	18.945	3.0909	0.	3.0519e-002
293	18.945	2.9091	0.	3.0521e-002
294	18.945	2.7273	0.	2.742e-002
295	18.945	2.5455	0.	2.2787e-002
296	18.945	2.3636	0.	1.8885e-002
297	18.945	2.1818	0.	1.7605e-002
298	18.945	2.	0.	1.9777e-002
299	18.945	1.8182	0.	2.3859e-002
300	18.945	1.6364	0.	2.755e-002
301	18.945	1.4545	0.	2.9783e-002
302	18.945	1.2727	0.	3.0342e-002
303	18.945	1.0909	0.	2.9484e-002
304	18.945	0.90909	0.	2.8661e-002
305	18.945	0.72727	0.	2.1519e-002
306	18.945	0.54545	0.	2.4941e-002
307	18.945	0.36364	0.	-8.7978e-002
308	18.945	0.18182	0.	-0.11223
309	18.761	5.8182	0.	-0.11513
310	18.761	5.6364	0.	-9.2437e-002
311	18.761	5.4545	0.	1.745e-002
312	18.761	5.2727	0.	1.8055e-002
313	18.761	5.0909	0.	2.7132e-002
314	18.761	4.9091	0.	2.9199e-002
315	18.761	4.7273	0.	3.0439e-002
316	18.761	4.5455	0.	2.9942e-002
317	18.761	4.3636	0.	2.8026e-002
318	18.761	4.1818	0.	2.4982e-002
319	18.761	4.	0.	2.1848e-002
320	18.761	3.8182	0.	1.9801e-002
321	18.761	3.6364	0.	1.9643e-002
322	18.761	3.4545	0.	2.134e-002
323	18.761	3.2727	0.	2.3781e-002
324	18.761	3.0909	0.	2.5495e-002
325	18.761	2.9091	0.	2.5495e-002
326	18.761	2.7273	0.	2.378e-002
327	18.761	2.5455	0.	2.1339e-002
328	18.761	2.3636	0.	1.9643e-002
329	18.761	2.1818	0.	1.98e-002
330	18.761	2.	0.	2.1848e-002
331	18.761	1.8182	0.	2.4981e-002
332	18.761	1.6364	0.	2.8025e-002
333	18.761	1.4545	0.	2.9943e-002
334	18.761	1.2727	0.	3.044e-002
335	18.761	1.0909	0.	2.92e-002
336	18.761	0.90909	0.	2.7134e-002
337	18.761	0.72727	0.	1.8053e-002
338	18.761	0.54545	0.	1.745e-002
339	18.761	0.36364	0.	-9.244e-002
340	18.761	0.18182	0.	-0.11513
341	18.577	5.8182	0.	-0.1073
342	18.577	5.6364	0.	-9.2025e-002
343	18.577	5.4545	0.	1.1702e-002
344	18.577	5.2727	0.	1.4895e-002
345	18.577	5.0909	0.	2.4921e-002
346	18.577	4.9091	0.	2.7762e-002
347	18.577	4.7273	0.	2.9292e-002
348	18.577	4.5455	0.	2.8986e-002
349	18.577	4.3636	0.	2.7402e-002
350	18.577	4.1818	0.	2.4944e-002
351	18.577	4.	0.	2.235e-002
352	18.577	3.8182	0.	2.0446e-002
353	18.577	3.6364	0.	1.977e-002
354	18.577	3.4545	0.	2.0259e-002
355	18.577	3.2727	0.	2.1316e-002
356	18.577	3.0909	0.	2.2132e-002
357	18.577	2.9091	0.	2.2133e-002
358	18.577	2.7273	0.	2.1317e-002
359	18.577	2.5455	0.	2.0259e-002
360	18.577	2.3636	0.	1.977e-002
361	18.577	2.1818	0.	2.0447e-002
362	18.577	2.	0.	2.2351e-002
363	18.577	1.8182	0.	2.4943e-002
364	18.577	1.6364	0.	2.7402e-002
365	18.577	1.4545	0.	2.8986e-002
366	18.577	1.2727	0.	2.9293e-002
367	18.577	1.0909	0.	2.7762e-002
368	18.577	0.90909	0.	2.4923e-002
369	18.577	0.72727	0.	1.4895e-002
370	18.577	0.54545	0.	1.1702e-002
371	18.577	0.36364	0.	-9.2028e-002
372	18.577	0.18182	0.	-0.1073
373	18.393	5.8182	0.	-9.4302e-002
374	18.393	5.6364	0.	-8.8673e-002
375	18.393	5.4545	0.	7.2124e-003
376	18.393	5.2727	0.	1.1986e-002
377	18.393	5.0909	0.	2.235e-002
378	18.393	4.9091	0.	2.5688e-002
379	18.393	4.7273	0.	2.7497e-002
380	18.393	4.5455	0.	2.7483e-002
381	18.393	4.3636	0.	2.6317e-002
382	18.393	4.1818	0.	2.4391e-002
383	18.393	4.	0.	2.2285e-002
384	18.393	3.8182	0.	2.0548e-002
385	18.393	3.6364	0.	1.9548e-002
386	18.393	3.4545	0.	1.932e-002
387	18.393	3.2727	0.	1.9566e-002
388	18.393	3.0909	0.	1.9846e-002
389	18.393	2.9091	0.	1.9847e-002
390	18.393	2.7273	0.	1.9566e-002
391	18.393	2.5455	0.	1.932e-002
392	18.393	2.3636	0.	1.9547e-002
393	18.393	2.1818	0.	2.0548e-002
394	18.393	2.	0.	2.2285e-002
395	18.393	1.8182	0.	2.4393e-002
396	18.393	1.6364	0.	2.6316e-002
397	18.393	1.4545	0.	2.7484e-002
398	18.393	1.2727	0.	2.7497e-002
399	18.393	1.0909	0.	2.5687e-002
400	18.393	0.90909	0.	2.2351e-002
401	18.393	0.72727	0.	1.1989e-002
402	18.393	0.54545	0.	7.2146e-003
403	18.393	0.36364	0.	-8.8675e-002
404	18.393	0.18182	0.	-9.4305e-002
405	18.209	5.8182	0.	-7.9721e-002
406	18.209	5.6364	0.	-8.3714e-002
407	18.209	5.4545	0.	3.6638e-003
408	18.209	5.2727	0.	9.3239e-003
409	18.209	5.0909	0.	1.9645e-002
410	18.209	4.9091	0.	2.3305e-002
411	18.209	4.7273	0.	2.5351e-002
412	18.209	4.5455	0.	2.5641e-002
413	18.209	4.3636	0.	2.4862e-002
414	18.209	4.1818	0.	2.3389e-002
415	18.209	4.	0.	2.1676e-002
416	18.209	3.8182	0.	2.0129e-002
417	18.209	3.6364	0.	1.9028e-002
418	18.209	3.4545	0.	1.8444e-002
419	18.209	3.2727	0.	1.8252e-002
420	18.209	3.0909	0.	1.8235e-002
421	18.209	2.9091	0.	1.8236e-002
422	18.209	2.7273	0.	1.8252e-002
423	18.209	2.5455	0.	1.8445e-002
424	18.209	2.3636	0.	1.9028e-002
425	18.209	2.1818	0.	2.013e-002
426	18.209	2.	0.	2.1676e-002
427	18.209	1.8182	0.	2.3389e-002
428	18.209	1.6364	0.	2.4863e-002
429	18.209	1.4545	0.	2.5641e-002
430	18.209	1.2727	0.	2.5351e-002
431	18.209	1.0909	0.	2.3306e-002
432	18.209	0.90909	0.	1.9646e-002
433	18.209	0.72727	0.	9.3255e-003
434	18.209	0.54545	0.	3.6637e-003
435	18.209	0.36364	0.	-8.3713e-002
436	18.209	0.18182	0.	-7.972e-002
437	18.025	5.8182	0.	-6.5609e-002
438	18.025	5.6364	0.	-7.8003e-002
439	18.025	5.4545	0.	8.5241e-004
440	18.025	5.2727	0.	6.925e-003
441	18.025	5.0909	0.	1.6972e-002
442	18.025	4.9091	0.	2.0825e-002
443	18.025	4.7273	0.	2.3067e-002
444	18.025	4.5455	0.	2.3641e-002
445	18.025	4.3636	0.	2.3215e-002
446	18.025	4.1818	0.	2.2128e-002
447	18.025	4.	0.	2.0759e-002
448	18.025	3.8182	0.	1.942e-002
449	18.025	3.6364	0.	1.8338e-002
450	18.025	3.4545	0.	1.7608e-002
451	18.025	3.2727	0.	1.7206e-002
452	18.025	3.0909	0.	1.7041e-002
453	18.025	2.9091	0.	1.7041e-002
454	18.025	2.7273	0.	1.7207e-002
455	18.025	2.5455	0.	1.7608e-002
456	18.025	2.3636	0.	1.8338e-002
457	18.025	2.1818	0.	1.942e-002
458	18.025	2.	0.	2.0757e-002
459	18.025	1.8182	0.	2.2128e-002
460	18.025	1.6364	0.	2.3214e-002
461	18.025	1.4545	0.	2.3642e-002
462	18.025	1.2727	0.	2.3067e-002
463	18.025	1.0909	0.	2.0827e-002
464	18.025	0.90909	0.	1.6974e-002
465	18.025	0.72727	0.	6.9264e-003
466	18.025	0.54545	0.	8.5069e-004
467	18.025	0.36364	0.	-7.8004e-002
468	18.025	0.18182	0.	-6.5607e-002
469	17.841	5.8182	0.	-5.3e-002
470	17.841	5.6364	0.	-7.2105e-002
471	17.841	5.4545	0.	-1.3857e-003
472	17.841	5.2727	0.	4.7816e-003
473	17.841	5.0909	0.	1.4416e-002
474	17.841	4.9091	0.	1.8365e-002
475	17.841	4.7273	0.	2.0757e-002
476	17.841	4.5455	0.	2.1581e-002
477	17.841	4.3636	0.	2.1462e-002
478	17.841	4.1818	0.	2.0708e-002
479	17.841	4.	0.	1.9642e-002
480	17.841	3.8182	0.	1.8518e-002
481	17.841	3.6364	0.	1.7531e-002
482	17.841	3.4545	0.	1.6786e-002
483	17.841	3.2727	0.	1.6311e-002
484	17.841	3.0909	0.	1.6086e-002
485	17.841	2.9091	0.	1.6085e-002
486	17.841	2.7273	0.	1.6312e-002
487	17.841	2.5455	0.	1.6787e-002
488	17.841	2.3636	0.	1.7532e-002
489	17.841	2.1818	0.	1.8519e-002
490	17.841	2.	0.	1.9642e-002
491	17.841	1.8182	0.	2.0709e-002
492	17.841	1.6364	0.	2.1462e-002
493	17.841	1.4545	0.	2.158e-002
494	17.841	1.2727	0.	2.0758e-002
495	17.841	1.0909	0.	1.8367e-002
496	17.841	0.90909	0.	1.4417e-002
497	17.841	0.72727	0.	4.7834e-003
498	17.841	0.54545	0.	-1.3861e-003
499	17.841	0.36364	0.	-7.2106e-002
500	17.841	0.18182	0.	-5.3e-002
501	17.657	5.8182	0.	-4.2243e-002
502	17.657	5.6364	0.	-6.6325e-002
503	17.657	5.4545	0.	-3.1377e-003
504	17.657	5.2727	0.	2.9184e-003
505	17.657	5.0909	0.	1.2062e-002
506	17.657	4.9091	0.	1.6037e-002
507	17.657	4.7273	0.	1.8535e-002
508	17.657	4.5455	0.	1.9569e-002
509	17.657	4.3636	0.	1.9712e-002
510	17.657	4.1818	0.	1.925e-002
511	17.657	4.	0.	1.8454e-002
512	17.657	3.8182	0.	1.7547e-002
513	17.657	3.6364	0.	1.6694e-002
514	17.657	3.4545	0.	1.6004e-002
515	17.657	3.2727	0.	1.5535e-002
516	17.657	3.0909	0.	1.5301e-002
517	17.657	2.9091	0.	1.5302e-002
518	17.657	2.7273	0.	1.5535e-002
519	17.657	2.5455	0.	1.6005e-002
520	17.657	2.3636	0.	1.6692e-002
521	17.657	2.1818	0.	1.7546e-002
522	17.657	2.	0.	1.8455e-002
523	17.657	1.8182	0.	1.925e-002
524	17.657	1.6364	0.	1.9713e-002
525	17.657	1.4545	0.	1.9569e-002
526	17.657	1.2727	0.	1.8537e-002
527	17.657	1.0909	0.	1.6036e-002
528	17.657	0.90909	0.	1.2063e-002
529	17.657	0.72727	0.	2.9204e-003
530	17.657	0.54545	0.	-3.1367e-003
531	17.657	0.36364	0.	-6.6326e-002
532	17.657	0.18182	0.	-4.2245e-002
533	17.473	5.8182	0.	-3.3344e-002
534	17.473	5.6364	0.	-6.0843e-002
535	17.473	5.4545	0.	-4.4875e-003
536	17.473	5.2727	0.	1.3301e-003
537	17.473	5.0909	0.	9.9465e-003
538	17.473	4.9091	0.	1.3892e-002
539	17.473	4.7273	0.	1.6457e-002
540	17.473	4.5455	0.	1.7664e-002
541	17.473	4.3636	0.	1.8033e-002
542	17.473	4.1818	0.	1.782e-002
543	17.473	4.	0.	1.7269e-002
544	17.473	3.8182	0.	1.6566e-002
545	17.473	3.6364	0.	1.5866e-002
546	17.473	3.4545	0.	1.5272e-002
547	17.473	3.2727	0.	1.4849e-002
548	17.473	3.0909	0.	1.4631e-002
549	17.473	2.9091	0.	1.4632e-002
550	17.473	2.7273	0.	1.4849e-002
551	17.473	2.5455	0.	1.5273e-002
552	17.473	2.3636	0.	1.5866e-002
553	17.473	2.1818	0.	1.6567e-002
554	17.473	2.	0.	1.7268e-002
555	17.473	1.8182	0.	1.7821e-002
556	17.473	1.6364	0.	1.8032e-002
557	17.473	1.4545	0.	1.7665e-002
558	17.473	1.2727	0.	1.6457e-002
559	17.473	1.0909	0.	1.3892e-002
560	17.473	0.90909	0.	9.9472e-003
561	17.473	0.72727	0.	1.331e-003
562	17.473	0.54545	0.	-4.4883e-003
563	17.473	0.36364	0.	-6.0843e-002
564	17.473	0.18182	0.	-3.3345e-002
565	17.289	5.8182	0.	-2.6128e-002
566	17.289	5.6364	0.	-5.5747e-002
567	17.289	5.4545	0.	-5.4982e-003
568	17.289	5.2727	0.	2.2476e-006
569	17.289	5.0909	0.	8.0837e-003
570	17.289	4.9091	0.	1.1959e-002
571	17.289	4.7273	0.	1.4561e-002
572	17.289	4.5455	0.	1.5904e-002
573	17.289	4.3636	0.	1.6463e-002
574	17.289	4.1818	0.	1.6469e-002
575	17.289	4.	0.	1.6133e-002
576	17.289	3.8182	0.	1.5625e-002
577	17.289	3.6364	0.	1.5077e-002
578	17.289	3.4545	0.	1.4593e-002
579	17.289	3.2727	0.	1.4237e-002
580	17.289	3.0909	0.	1.405e-002
581	17.289	2.9091	0.	1.405e-002
582	17.289	2.7273	0.	1.4238e-002
583	17.289	2.5455	0.	1.4593e-002
584	17.289	2.3636	0.	1.5078e-002
585	17.289	2.1818	0.	1.5624e-002
586	17.289	2.	0.	1.6134e-002
587	17.289	1.8182	0.	1.6469e-002
588	17.289	1.6364	0.	1.6464e-002
589	17.289	1.4545	0.	1.5905e-002
590	17.289	1.2727	0.	1.4559e-002
591	17.289	1.0909	0.	1.1961e-002
592	17.289	0.90909	0.	8.0852e-003
593	17.289	0.72727	0.	2.8233e-006
594	17.289	0.54545	0.	-5.4974e-003
595	17.289	0.36364	0.	-5.5748e-002
596	17.289	0.18182	0.	-2.6128e-002
597	17.105	5.8182	0.	-2.0357e-002
598	17.105	5.6364	0.	-5.1073e-002
599	17.105	5.4545	0.	-6.2324e-003
600	17.105	5.2727	0.	-1.0851e-003
601	17.105	5.0909	0.	6.4705e-003
602	17.105	4.9091	0.	1.0248e-002
603	17.105	4.7273	0.	1.2857e-002
604	17.105	4.5455	0.	1.4308e-002
605	17.105	4.3636	0.	1.5026e-002
606	17.105	4.1818	0.	1.5218e-002
607	17.105	4.	0.	1.5072e-002
608	17.105	3.8182	0.	1.4742e-002
609	17.105	3.6364	0.	1.4343e-002
610	17.105	3.4545	0.	1.397e-002
611	17.105	3.2727	0.	1.3687e-002
612	17.105	3.0909	0.	1.3536e-002
613	17.105	2.9091	0.	1.3535e-002
614	17.105	2.7273	0.	1.3686e-002
615	17.105	2.5455	0.	1.397e-002
616	17.105	2.3636	0.	1.4344e-002
617	17.105	2.1818	0.	1.474e-002
618	17.105	2.	0.	1.5074e-002
619	17.105	1.8182	0.	1.5217e-002
620	17.105	1.6364	0.	1.5026e-002
621	17.105	1.4545	0.	1.4309e-002
622	17.105	1.2727	0.	1.2857e-002
623	17.105	1.0909	0.	1.0249e-002
624	17.105	0.90909	0.	6.4718e-003
625	17.105	0.72727	0.	-1.083e-003
626	17.105	0.54545	0.	-6.233e-003
627	17.105	0.36364	0.	-5.1074e-002
628	17.105	0.18182	0.	-2.0358e-002
629	16.921	5.8182	0.	-1.5788e-002
630	16.921	5.6364	0.	-4.6825e-002
631	16.921	5.4545	0.	-6.7444e-003
632	16.921	5.2727	0.	-1.9625e-003
633	16.921	5.0909	0.	5.0886e-003
634	16.921	4.9091	0.	8.7499e-003
635	16.921	4.7273	0.	1.1345e-002
636	16.921	4.5455	0.	1.2877e-002
637	16.921	4.3636	0.	1.3725e-002
638	16.921	4.1818	0.	1.4075e-002
639	16.921	4.	0.	1.4097e-002
640	16.921	3.8182	0.	1.3924e-002
641	16.921	3.6364	0.	1.3661e-002
642	16.921	3.4545	0.	1.3394e-002
643	16.921	3.2727	0.	1.3184e-002
644	16.921	3.0909	0.	1.3069e-002
645	16.921	2.9091	0.	1.3069e-002
646	16.921	2.7273	0.	1.3184e-002
647	16.921	2.5455	0.	1.3394e-002
648	16.921	2.3636	0.	1.3661e-002
649	16.921	2.1818	0.	1.3924e-002
650	16.921	2.	0.	1.4098e-002
651	16.921	1.8182	0.	1.4076e-002
652	16.921	1.6364	0.	1.3726e-002
653	16.921	1.4545	0.	1.2877e-002
654	16.921	1.2727	0.	1.1346e-002
655	16.921	1.0909	0.	8.7503e-003
656	16.921	0.90909	0.	5.0901e-003
657	16.921	0.72727	0.	-1.9615e-003
658	16.921	0.54545	0.	-6.7457e-003
659	16.921	0.36364	0.	-4.6825e-002
660	16.921	0.18182	0.	-1.5786e-002
661	16.737	5.8182	0.	-1.2196e-002
662	16.737	5.6364	0.	-4.2989e-002
663	16.737	5.4545	0.	-7.0795e-003
664	16.737	5.2727	0.	-2.6604e-003
665	16.737	5.0909	0.	3.9128e-003
666	16.737	4.9091	0.	7.446e-003
667	16.737	4.7273	0.	1.0012e-002
668	16.737	4.5455	0.	1.1601e-002
669	16.737	4.3636	0.	1.2554e-002
670	16.737	4.1818	0.	1.304e-002
671	16.737	4.	0.	1.3205e-002
672	16.737	3.8182	0.	1.317e-002
673	16.737	3.6364	0.	1.3029e-002
674	16.737	3.4545	0.	1.2862e-002
675	16.737	3.2727	0.	1.2717e-002
676	16.737	3.0909	0.	1.2637e-002
677	16.737	2.9091	0.	1.2638e-002
678	16.737	2.7273	0.	1.2718e-002
679	16.737	2.5455	0.	1.2863e-002
680	16.737	2.3636	0.	1.303e-002
681	16.737	2.1818	0.	1.317e-002
682	16.737	2.	0.	1.3206e-002
683	16.737	1.8182	0.	1.3038e-002
684	16.737	1.6364	0.	1.2557e-002
685	16.737	1.4545	0.	1.1602e-002
686	16.737	1.2727	0.	1.0012e-002
687	16.737	1.0909	0.	7.4468e-003
688	16.737	0.90909	0.	3.9132e-003
689	16.737	0.72727	0.	-2.6582e-003
690	16.737	0.54545	0.	-7.0794e-003
691	16.737	0.36364	0.	-4.2991e-002
692	16.737	0.18182	0.	-1.2194e-002
693	16.554	5.8182	0.	-9.4111e-003
694	16.554	5.6364	0.	-3.9564e-002
695	16.554	5.4545	0.	-7.3035e-003
696	16.554	5.2727	0.	-3.2302e-003
697	16.554	5.0909	0.	2.8942e-003
698	16.554	4.9091	0.	6.2931e-003
699	16.554	4.7273	0.	8.8157e-003
700	16.554	4.5455	0.	1.0445e-002
701	16.554	4.3636	0.	1.1483e-002
702	16.554	4.1818	0.	1.2079e-002
703	16.554	4.	0.	1.2366e-002
704	16.554	3.8182	0.	1.2451e-002
705	16.554	3.6364	0.	1.2419e-002
706	16.554	3.4545	0.	1.2336e-002
707	16.554	3.2727	0.	1.2254e-002
708	16.554	3.0909	0.	1.2204e-002
709	16.554	2.9091	0.	1.2204e-002
710	16.554	2.7273	0.	1.2254e-002
711	16.554	2.5455	0.	1.2337e-002
712	16.554	2.3636	0.	1.2418e-002
713	16.554	2.1818	0.	1.2451e-002
714	16.554	2.	0.	1.2367e-002
715	16.554	1.8182	0.	1.208e-002
716	16.554	1.6364	0.	1.1483e-002
717	16.554	1.4545	0.	1.0445e-002
718	16.554	1.2727	0.	8.8153e-003
719	16.554	1.0909	0.	6.2929e-003
720	16.554	0.90909	0.	2.8959e-003
721	16.554	0.72727	0.	-3.2281e-003
722	16.554	0.54545	0.	-7.3034e-003
723	16.554	0.36364	0.	-3.9565e-002
724	16.554	0.18182	0.	-9.4124e-003
725	16.37	5.8182	0.	-7.2454e-003
726	16.37	5.6364	0.	-3.6488e-002
727	16.37	5.4545	0.	-7.419e-003
728	16.37	5.2727	0.	-3.6706e-003
729	16.37	5.0909	0.	2.0386e-003
730	16.37	4.9091	0.	5.3004e-003
731	16.37	4.7273	0.	7.7714e-003
732	16.37	4.5455	0.	9.4237e-003
733	16.37	4.3636	0.	1.0527e-002
734	16.37	4.1818	0.	1.1214e-002
735	16.37	4.	0.	1.1605e-002
736	16.37	3.8182	0.	1.1792e-002
737	16.37	3.6364	0.	1.1851e-002
738	16.37	3.4545	0.	1.1833e-002
739	16.37	3.2727	0.	1.1817e-002
740	16.37	3.0909	0.	1.1795e-002
741	16.37	2.9091	0.	1.1795e-002
742	16.37	2.7273	0.	1.1817e-002
743	16.37	2.5455	0.	1.1833e-002
744	16.37	2.3636	0.	1.1852e-002
745	16.37	2.1818	0.	1.1792e-002
746	16.37	2.	0.	1.1604e-002
747	16.37	1.8182	0.	1.1215e-002
748	16.37	1.6364	0.	1.0528e-002
749	16.37	1.4545	0.	9.4229e-003
750	16.37	1.2727	0.	7.7721e-003
751	16.37	1.0909	0.	5.3015e-003
752	16.37	0.90909	0.	2.04e-003
753	16.37	0.72727	0.	-3.6688e-003
754	16.37	0.54545	0.	-7.4179e-003
755	16.37	0.36364	0.	-3.649e-002
756	16.37	0.18182	0.	-7.2461e-003
757	16.186	5.8182	0.	-5.5623e-003
758	16.186	5.6364	0.	-3.372e-002
759	16.186	5.4545	0.	-7.4418e-003
760	16.186	5.2727	0.	-3.9969e-003
761	16.186	5.0909	0.	1.3287e-003
762	16.186	4.9091	0.	4.4534e-003
763	16.186	4.7273	0.	6.8665e-003
764	16.186	4.5455	0.	8.5279e-003
765	16.186	4.3636	0.	9.6894e-003
766	16.186	4.1818	0.	1.0453e-002
767	16.186	4.	0.	1.0919e-002
768	16.186	3.8182	0.	1.1193e-002
769	16.186	3.6364	0.	1.1331e-002
770	16.186	3.4545	0.	1.139e-002
771	16.186	3.2727	0.	1.1408e-002
772	16.186	3.0909	0.	1.1409e-002
773	16.186	2.9091	0.	1.141e-002
774	16.186	2.7273	0.	1.1408e-002
775	16.186	2.5455	0.	1.1391e-002
776	16.186	2.3636	0.	1.1331e-002
777	16.186	2.1818	0.	1.1192e-002
778	16.186	2.	0.	1.092e-002
779	16.186	1.8182	0.	1.0453e-002
780	16.186	1.6364	0.	9.6894e-003
781	16.186	1.4545	0.	8.5296e-003
782	16.186	1.2727	0.	6.8658e-003
783	16.186	1.0909	0.	4.4548e-003
784	16.186	0.90909	0.	1.3302e-003
785	16.186	0.72727	0.	-3.9946e-003
786	16.186	0.54545	0.	-7.4434e-003
787	16.186	0.36364	0.	-3.3722e-002
788	16.186	0.18182	0.	-5.5604e-003
789	16.002	5.8182	0.	-4.2483e-003
790	16.002	5.6364	0.	-3.1217e-002
791	16.002	5.4545	0.	-7.3894e-003
792	16.002	5.2727	0.	-4.2205e-003
793	16.002	5.0909	0.	7.5264e-004
794	16.002	4.9091	0.	3.7437e-003
795	16.002	4.7273	0.	6.0937e-003
796	16.002	4.5455	0.	7.7551e-003
797	16.002	4.3636	0.	8.9447e-003
798	16.002	4.1818	0.	9.764e-003
799	16.002	4.	0.	1.031e-002
800	16.002	3.8182	0.	1.0655e-002
801	16.002	3.6364	0.	1.0861e-002
802	16.002	3.4545	0.	1.0976e-002
803	16.002	3.2727	0.	1.1031e-002
804	16.002	3.0909	0.	1.1053e-002
805	16.002	2.9091	0.	1.1053e-002
806	16.002	2.7273	0.	1.1031e-002
807	16.002	2.5455	0.	1.0975e-002
808	16.002	2.3636	0.	1.0862e-002
809	16.002	2.1818	0.	1.0655e-002
810	16.002	2.	0.	1.031e-002
811	16.002	1.8182	0.	9.7639e-003
812	16.002	1.6364	0.	8.9444e-003
813	16.002	1.4545	0.	7.7556e-003
814	16.002	1.2727	0.	6.0935e-003
815	16.002	1.0909	0.	3.7441e-003
816	16.002	0.90909	0.	7.5298e-004
817	16.002	0.72727	0.	-4.2174e-003
818	16.002	0.54545	0.	-7.3906e-003
819	16.002	0.36364	0.	-3.1217e-002
820	16.002	0.18182	0.	-4.2469e-003
821	15.818	5.8182	0.	-3.2195e-003
822	15.818	5.6364	0.	-2.8944e-002
823	15.818	5.4545	0.	-7.2737e-003
824	15.818	5.2727	0.	-4.3546e-003
825	15.818	5.0909	0.	2.9105e-004
826	15.818	4.9091	0.	3.1521e-003
827	15.818	4.7273	0.	5.4364e-003
828	15.818	4.5455	0.	7.0901e-003
829	15.818	4.3636	0.	8.3025e-003
830	15.818	4.1818	0.	9.1689e-003
831	15.818	4.	0.	9.7704e-003
832	15.818	3.8182	0.	1.0176e-002
833	15.818	3.6364	0.	1.0436e-002
834	15.818	3.4545	0.	1.0597e-002
835	15.818	3.2727	0.	1.0686e-002
836	15.818	3.0909	0.	1.0726e-002
837	15.818	2.9091	0.	1.0725e-002
838	15.818	2.7273	0.	1.0686e-002
839	15.818	2.5455	0.	1.0597e-002
840	15.818	2.3636	0.	1.0437e-002
841	15.818	2.1818	0.	1.0175e-002
842	15.818	2.	0.	9.7712e-003
843	15.818	1.8182	0.	9.1682e-003
844	15.818	1.6364	0.	8.3037e-003
845	15.818	1.4545	0.	7.0895e-003
846	15.818	1.2727	0.	5.4364e-003
847	15.818	1.0909	0.	3.154e-003
848	15.818	0.90909	0.	2.9237e-004
849	15.818	0.72727	0.	-4.3535e-003
850	15.818	0.54545	0.	-7.2724e-003
851	15.818	0.36364	0.	-2.8945e-002
852	15.818	0.18182	0.	-3.2199e-003
853	15.634	5.8182	0.	-2.4175e-003
854	15.634	5.6364	0.	-2.6879e-002
855	15.634	5.4545	0.	-7.1124e-003
856	15.634	5.2727	0.	-4.4221e-003
857	15.634	5.0909	0.	-7.5346e-005
858	15.634	4.9091	0.	2.6616e-003
859	15.634	4.7273	0.	4.8774e-003
860	15.634	4.5455	0.	6.5145e-003
861	15.634	4.3636	0.	7.742e-003
862	15.634	4.1818	0.	8.6423e-003
863	15.634	4.	0.	9.2909e-003
864	15.634	3.8182	0.	9.7419e-003
865	15.634	3.6364	0.	1.0049e-002
866	15.634	3.4545	0.	1.0248e-002
867	15.634	3.2727	0.	1.0366e-002
868	15.634	3.0909	0.	1.0419e-002
869	15.634	2.9091	0.	1.0419e-002
870	15.634	2.7273	0.	1.0366e-002
871	15.634	2.5455	0.	1.0249e-002
872	15.634	2.3636	0.	1.005e-002
873	15.634	2.1818	0.	9.7429e-003
874	15.634	2.	0.	9.29e-003
875	15.634	1.8182	0.	8.6431e-003
876	15.634	1.6364	0.	7.7431e-003
877	15.634	1.4545	0.	6.5144e-003
878	15.634	1.2727	0.	4.8782e-003
879	15.634	1.0909	0.	2.6618e-003
880	15.634	0.90909	0.	-7.3709e-005
881	15.634	0.72727	0.	-4.4209e-003
882	15.634	0.54545	0.	-7.1126e-003
883	15.634	0.36364	0.	-2.6879e-002
884	15.634	0.18182	0.	-2.4187e-003
885	15.45	5.8182	0.	-1.7995e-003
886	15.45	5.6364	0.	-2.4998e-002
887	15.45	5.4545	0.	-6.9236e-003
888	15.45	5.2727	0.	-4.4406e-003
889	15.45	5.0909	0.	-3.6822e-004
890	15.45	4.9091	0.	2.2483e-003
891	15.45	4.7273	0.	4.395e-003
892	15.45	4.5455	0.	6.0117e-003
893	15.45	4.3636	0.	7.2463e-003
894	15.45	4.1818	0.	8.172e-003
895	15.45	4.	0.	8.8537e-003
896	15.45	3.8182	0.	9.3459e-003
897	15.45	3.6364	0.	9.69e-003
898	15.45	3.4545	0.	9.9209e-003
899	15.45	3.2727	0.	1.006e-002
900	15.45	3.0909	0.	1.0125e-002
901	15.45	2.9091	0.	1.0126e-002
902	15.45	2.7273	0.	1.0059e-002
903	15.45	2.5455	0.	9.9205e-003
904	15.45	2.3636	0.	9.6895e-003
905	15.45	2.1818	0.	9.3475e-003
906	15.45	2.	0.	8.8541e-003
907	15.45	1.8182	0.	8.1717e-003
908	15.45	1.6364	0.	7.2466e-003
909	15.45	1.4545	0.	6.0121e-003
910	15.45	1.2727	0.	4.3953e-003
911	15.45	1.0909	0.	2.2487e-003
912	15.45	0.90909	0.	-3.661e-004
913	15.45	0.72727	0.	-4.4391e-003
914	15.45	0.54545	0.	-6.9227e-003
915	15.45	0.36364	0.	-2.4998e-002
916	15.45	0.18182	0.	-1.8005e-003
917	15.266	5.8182	0.	-1.3576e-003
918	15.266	5.6364	0.	-2.3312e-002
919	15.266	5.4545	0.	-6.7469e-003
920	15.266	5.2727	0.	-4.4518e-003
921	15.266	5.0909	0.	-6.3288e-004
922	15.266	4.9091	0.	1.867e-003
923	15.266	4.7273	0.	3.9478e-003
924	15.266	4.5455	0.	5.5363e-003
925	15.266	4.3636	0.	6.7733e-003
926	15.266	4.1818	0.	7.7132e-003
927	15.266	4.	0.	8.4259e-003
928	15.266	3.8182	0.	8.9462e-003
929	15.266	3.6364	0.	9.3222e-003
930	15.266	3.4545	0.	9.577e-003
931	15.266	3.2727	0.	9.7354e-003
932	15.266	3.0909	0.	9.8098e-003
933	15.266	2.9091	0.	9.811e-003
934	15.266	2.7273	0.	9.7357e-003
935	15.266	2.5455	0.	9.5774e-003
936	15.266	2.3636	0.	9.3214e-003
937	15.266	2.1818	0.	8.9477e-003
938	15.266	2.	0.	8.4251e-003
939	15.266	1.8182	0.	7.7154e-003
940	15.266	1.6364	0.	6.7722e-003
941	15.266	1.4545	0.	5.5372e-003
942	15.266	1.2727	0.	3.9476e-003
943	15.266	1.0909	0.	1.8678e-003
944	15.266	0.90909	0.	-6.3146e-004
945	15.266	0.72727	0.	-4.4498e-003
946	15.266	0.54545	0.	-6.7475e-003
947	15.266	0.36364	0.	-2.3311e-002
948	15.266	0.18182	0.	-1.3568e-003
949	15.082	5.8182	0.	-1.031e-003
950	15.082	5.6364	0.	-2.1765e-002
951	15.082	5.4545	0.	-6.5562e-003
952	15.082	5.2727	0.	-4.4314e-003
953	15.082	5.0909	0.	-8.4743e-004
954	15.082	4.9091	0.	1.5426e-003
955	15.082	4.7273	0.	3.5533e-003
956	15.082	4.5455	0.	5.1141e-003
957	15.082	4.3636	0.	6.3444e-003
958	15.082	4.1818	0.	7.2986e-003
959	15.082	4.	0.	8.0285e-003
960	15.082	3.8182	0.	8.5759e-003
961	15.082	3.6364	0.	8.974e-003
962	15.082	3.4545	0.	9.2507e-003
963	15.082	3.2727	0.	9.4231e-003
964	15.082	3.0909	0.	9.5068e-003
965	15.082	2.9091	0.	9.5068e-003
966	15.082	2.7273	0.	9.4226e-003
967	15.082	2.5455	0.	9.2508e-003
968	15.082	2.3636	0.	8.9737e-003
969	15.082	2.1818	0.	8.5756e-003
970	15.082	2.	0.	8.0283e-003
971	15.082	1.8182	0.	7.2993e-003
972	15.082	1.6364	0.	6.3457e-003
973	15.082	1.4545	0.	5.1145e-003
974	15.082	1.2727	0.	3.5545e-003
975	15.082	1.0909	0.	1.5433e-003
976	15.082	0.90909	0.	-8.463e-004
977	15.082	0.72727	0.	-4.4289e-003
978	15.082	0.54545	0.	-6.5577e-003
979	15.082	0.36364	0.	-2.1765e-002
980	15.082	0.18182	0.	-1.0304e-003
981	14.898	5.8182	0.	-7.9122e-004
982	14.898	5.6364	0.	-2.0332e-002
983	14.898	5.4545	0.	-6.3524e-003
984	14.898	5.2727	0.	-4.3791e-003
985	14.898	5.0909	0.	-1.0162e-003
986	14.898	4.9091	0.	1.2688e-003
987	14.898	4.7273	0.	3.2106e-003
988	14.898	4.5455	0.	4.742e-003
989	14.898	4.3636	0.	5.9627e-003
990	14.898	4.1818	0.	6.9218e-003
991	14.898	4.	0.	7.6666e-003
992	14.898	3.8182	0.	8.2314e-003
993	14.898	3.6364	0.	8.6494e-003
994	14.898	3.4545	0.	8.9418e-003
995	14.898	3.2727	0.	9.1283e-003
996	14.898	3.0909	0.	9.2176e-003
997	14.898	2.9091	0.	9.2178e-003
998	14.898	2.7273	0.	9.1282e-003
999	14.898	2.5455	0.	8.9425e-003
1000	14.898	2.3636	0.	8.6493e-003
1001	14.898	2.1818	0.	8.2305e-003
1002	14.898	2.	0.	7.6673e-003
1003	14.898	1.8182	0.	6.9219e-003
1004	14.898	1.6364	0.	5.9632e-003
1005	14.898	1.4545	0.	4.7415e-003
1006	14.898	1.2727	0.	3.2115e-003
1007	14.898	1.0909	0.	1.2686e-003
1008	14.898	0.90909	0.	-1.0138e-003
1009	14.898	0.72727	0.	-4.3787e-003
1010	14.898	0.54545	0.	-6.3534e-003
1011	14.898	0.36364	0.	-2.0333e-002
1012	14.898	0.18182	0.	-7.8892e-004
1013	14.714	5.8182	0.	-6.1161e-004
1014	14.714	5.6364	0.	-1.899e-002
1015	14.714	5.4545	0.	-6.1284e-003
1016	14.714	5.2727	0.	-4.2961e-003
1017	14.714	5.0909	0.	-1.1361e-003
1018	14.714	4.9091	0.	1.0452e-003
1019	14.714	4.7273	0.	2.9224e-003
1020	14.714	4.5455	0.	4.4198e-003
1021	14.714	4.3636	0.	5.628e-003
1022	14.714	4.1818	0.	6.5887e-003
1023	14.714	4.	0.	7.3431e-003
1024	14.714	3.8182	0.	7.9221e-003
1025	14.714	3.6364	0.	8.3552e-003
1026	14.714	3.4545	0.	8.6617e-003
1027	14.714	3.2727	0.	8.8571e-003
1028	14.714	3.0909	0.	8.9522e-003
1029	14.714	2.9091	0.	8.9525e-003
1030	14.714	2.7273	0.	8.8571e-003
1031	14.714	2.5455	0.	8.6617e-003
1032	14.714	2.3636	0.	8.3553e-003
1033	14.714	2.1818	0.	7.9223e-003
1034	14.714	2.	0.	7.3425e-003
1035	14.714	1.8182	0.	6.5898e-003
1036	14.714	1.6364	0.	5.6284e-003
1037	14.714	1.4545	0.	4.4186e-003
1038	14.714	1.2727	0.	2.9231e-003
1039	14.714	1.0909	0.	1.0464e-003
1040	14.714	0.90909	0.	-1.1342e-003
1041	14.714	0.72727	0.	-4.295e-003
1042	14.714	0.54545	0.	-6.1295e-003
1043	14.714	0.36364	0.	-1.899e-002
1044	14.714	0.18182	0.	-6.0947e-004
1045	14.53	5.8182	0.	-4.7725e-004
1046	14.53	5.6364	0.	-1.772e-002
1047	14.53	5.4545	0.	-5.8847e-003
1048	14.53	5.2727	0.	-4.1828e-003
1049	14.53	5.0909	0.	-1.215e-003
1050	14.53	4.9091	0.	8.6927e-004
1051	14.53	4.7273	0.	2.6805e-003
1052	14.53	4.5455	0.	4.141e-003
1053	14.53	4.3636	0.	5.3347e-003
1054	14.53	4.1818	0.	6.2936e-003
1055	14.53	4.	0.	7.055e-003
1056	14.53	3.8182	0.	7.6448e-003
1057	14.53	3.6364	0.	8.0894e-003
1058	14.53	3.4545	0.	8.4064e-003
1059	14.53	3.2727	0.	8.6115e-003
1060	14.53	3.0909	0.	8.7102e-003
1061	14.53	2.9091	0.	8.7107e-003
1062	14.53	2.7273	0.	8.6113e-003
1063	14.53	2.5455	0.	8.4082e-003
1064	14.53	2.3636	0.	8.0894e-003
1065	14.53	2.1818	0.	7.6454e-003
1066	14.53	2.	0.	7.0551e-003
1067	14.53	1.8182	0.	6.2939e-003
1068	14.53	1.6364	0.	5.3352e-003
1069	14.53	1.4545	0.	4.1421e-003
1070	14.53	1.2727	0.	2.6814e-003
1071	14.53	1.0909	0.	8.6945e-004
1072	14.53	0.90909	0.	-1.213e-003
1073	14.53	0.72727	0.	-4.181e-003
1074	14.53	0.54545	0.	-5.8841e-003
1075	14.53	0.36364	0.	-1.772e-002
1076	14.53	0.18182	0.	-4.7763e-004
1077	14.346	5.8182	0.	-3.8461e-004
1078	14.346	5.6364	0.	-1.6515e-002
1079	14.346	5.4545	0.	-5.6321e-003
1080	14.346	5.2727	0.	-4.0491e-003
1081	14.346	5.0909	0.	-1.2616e-003
1082	14.346	4.9091	0.	7.2479e-004
1083	14.346	4.7273	0.	2.4707e-003
1084	14.346	4.5455	0.	3.8968e-003
1085	14.346	4.3636	0.	5.0735e-003
1086	14.346	4.1818	0.	6.0267e-003
1087	14.346	4.	0.	6.7912e-003
1088	14.346	3.8182	0.	7.3882e-003
1089	14.346	3.6364	0.	7.8437e-003
1090	14.346	3.4545	0.	8.1697e-003
1091	14.346	3.2727	0.	8.3802e-003
1092	14.346	3.0909	0.	8.4842e-003
1093	14.346	2.9091	0.	8.4836e-003
1094	14.346	2.7273	0.	8.3806e-003
1095	14.346	2.5455	0.	8.1704e-003
1096	14.346	2.3636	0.	7.8438e-003
1097	14.346	2.1818	0.	7.3896e-003
1098	14.346	2.	0.	6.7921e-003
1099	14.346	1.8182	0.	6.0275e-003
1100	14.346	1.6364	0.	5.073e-003
1101	14.346	1.4545	0.	3.8979e-003
1102	14.346	1.2727	0.	2.4711e-003
1103	14.346	1.0909	0.	7.2565e-004
1104	14.346	0.90909	0.	-1.261e-003
1105	14.346	0.72727	0.	-4.0474e-003
1106	14.346	0.54545	0.	-5.6323e-003
1107	14.346	0.36364	0.	-1.6516e-002
1108	14.346	0.18182	0.	-3.8432e-004
1109	14.163	5.8182	0.	-3.3307e-004
1110	14.163	5.6364	0.	-1.5373e-002
1111	14.163	5.4545	0.	-5.3774e-003
1112	14.163	5.2727	0.	-3.9053e-003
1113	14.163	5.0909	0.	-1.2937e-003
1114	14.163	4.9091	0.	6.0185e-004
1115	14.163	4.7273	0.	2.2828e-003
1116	14.163	4.5455	0.	3.6717e-003
1117	14.163	4.3636	0.	4.8287e-003
1118	14.163	4.1818	0.	5.7768e-003
1119	14.163	4.	0.	6.5421e-003
1120	14.163	3.8182	0.	7.1471e-003
1121	14.163	3.6364	0.	7.6082e-003
1122	14.163	3.4545	0.	7.9421e-003
1123	14.163	3.2727	0.	8.1587e-003
1124	14.163	3.0909	0.	8.2646e-003
1125	14.163	2.9091	0.	8.2641e-003
1126	14.163	2.7273	0.	8.1583e-003
1127	14.163	2.5455	0.	7.9428e-003
1128	14.163	2.3636	0.	7.6081e-003
1129	14.163	2.1818	0.	7.1471e-003
1130	14.163	2.	0.	6.5425e-003
1131	14.163	1.8182	0.	5.7773e-003
1132	14.163	1.6364	0.	4.8283e-003
1133	14.163	1.4545	0.	3.6724e-003
1134	14.163	1.2727	0.	2.2838e-003
1135	14.163	1.0909	0.	6.0267e-004
1136	14.163	0.90909	0.	-1.2922e-003
1137	14.163	0.72727	0.	-3.9037e-003
1138	14.163	0.54545	0.	-5.3785e-003
1139	14.163	0.36364	0.	-1.5373e-002
1140	14.163	0.18182	0.	-3.3156e-004
1141	13.979	5.8182	0.	-3.5315e-004
1142	13.979	5.6364	0.	-1.4319e-002
1143	13.979	5.4545	0.	-5.1604e-003
1144	13.979	5.2727	0.	-3.7926e-003
1145	13.979	5.0909	0.	-1.3484e-003
1146	13.979	4.9091	0.	4.5517e-004
1147	13.979	4.7273	0.	2.0706e-003
1148	13.979	4.5455	0.	3.422e-003
1149	13.979	4.3636	0.	4.5589e-003
1150	13.979	4.1818	0.	5.4991e-003
1151	13.979	4.	0.	6.2658e-003
1152	13.979	3.8182	0.	6.8742e-003
1153	13.979	3.6364	0.	7.3427e-003
1154	13.979	3.4545	0.	7.6829e-003
1155	13.979	3.2727	0.	7.9045e-003
1156	13.979	3.0909	0.	8.0133e-003
1157	13.979	2.9091	0.	8.0142e-003
1158	13.979	2.7273	0.	7.9032e-003
1159	13.979	2.5455	0.	7.6839e-003
1160	13.979	2.3636	0.	7.3421e-003
1161	13.979	2.1818	0.	6.8737e-003
1162	13.979	2.	0.	6.265e-003
1163	13.979	1.8182	0.	5.4997e-003
1164	13.979	1.6364	0.	4.5597e-003
1165	13.979	1.4545	0.	3.4234e-003
1166	13.979	1.2727	0.	2.0718e-003
1167	13.979	1.0909	0.	4.5624e-004
1168	13.979	0.90909	0.	-1.3469e-003
1169	13.979	0.72727	0.	-3.7914e-003
1170	13.979	0.54545	0.	-5.1629e-003
1171	13.979	0.36364	0.	-1.4319e-002
1172	13.979	0.18182	0.	-3.5078e-004
1173	13.795	5.8182	0.	-4.0519e-004
1174	13.795	5.6364	0.	-1.3305e-002
1175	13.795	5.4545	0.	-4.9436e-003
1176	13.795	5.2727	0.	-3.6746e-003
1177	13.795	5.0909	0.	-1.3941e-003
1178	13.795	4.9091	0.	3.1854e-004
1179	13.795	4.7273	0.	1.8695e-003
1180	13.795	4.5455	0.	3.182e-003
1181	13.795	4.3636	0.	4.2977e-003
1182	13.795	4.1818	0.	5.2295e-003
1183	13.795	4.	0.	5.994e-003
1184	13.795	3.8182	0.	6.6081e-003
1185	13.795	3.6364	0.	7.0828e-003
1186	13.795	3.4545	0.	7.4293e-003
1187	13.795	3.2727	0.	7.6563e-003
1188	13.795	3.0909	0.	7.7674e-003
1189	13.795	2.9091	0.	7.7674e-003
1190	13.795	2.7273	0.	7.6562e-003
1191	13.795	2.5455	0.	7.4298e-003
1192	13.795	2.3636	0.	7.0821e-003
1193	13.795	2.1818	0.	6.6078e-003
1194	13.795	2.	0.	5.9952e-003
1195	13.795	1.8182	0.	5.2291e-003
1196	13.795	1.6364	0.	4.2991e-003
1197	13.795	1.4545	0.	3.1826e-003
1198	13.795	1.2727	0.	1.8696e-003
1199	13.795	1.0909	0.	3.1869e-004
1200	13.795	0.90909	0.	-1.3919e-003
1201	13.795	0.72727	0.	-3.6749e-003
1202	13.795	0.54545	0.	-4.9448e-003
1203	13.795	0.36364	0.	-1.3305e-002
1204	13.795	0.18182	0.	-4.0454e-004
1205	13.611	5.8182	0.	-4.8018e-004
1206	13.611	5.6364	0.	-1.2317e-002
1207	13.611	5.4545	0.	-4.7204e-003
1208	13.611	5.2727	0.	-3.5479e-003
1209	13.611	5.0909	0.	-1.427e-003
1210	13.611	4.9091	0.	1.9427e-004
1211	13.611	4.7273	0.	1.6787e-003
1212	13.611	4.5455	0.	2.9524e-003
1213	13.611	4.3636	0.	4.0456e-003
1214	13.611	4.1818	0.	4.9682e-003
1215	13.611	4.	0.	5.7336e-003
1216	13.611	3.8182	0.	6.3511e-003
1217	13.611	3.6364	0.	6.8323e-003
1218	13.611	3.4545	0.	7.1862e-003
1219	13.611	3.2727	0.	7.4181e-003
1220	13.611	3.0909	0.	7.5326e-003
1221	13.611	2.9091	0.	7.5325e-003
1222	13.611	2.7273	0.	7.4184e-003
1223	13.611	2.5455	0.	7.1866e-003
1224	13.611	2.3636	0.	6.8327e-003
1225	13.611	2.1818	0.	6.3511e-003
1226	13.611	2.	0.	5.7329e-003
1227	13.611	1.8182	0.	4.9689e-003
1228	13.611	1.6364	0.	4.0457e-003
1229	13.611	1.4545	0.	2.9526e-003
1230	13.611	1.2727	0.	1.6798e-003
1231	13.611	1.0909	0.	1.9439e-004
1232	13.611	0.90909	0.	-1.425e-003
1233	13.611	0.72727	0.	-3.5471e-003
1234	13.611	0.54545	0.	-4.7204e-003
1235	13.611	0.36364	0.	-1.2318e-002
1236	13.611	0.18182	0.	-4.7864e-004
1237	13.427	5.8182	0.	-5.6332e-004
1238	13.427	5.6364	0.	-1.1336e-002
1239	13.427	5.4545	0.	-4.4786e-003
1240	13.427	5.2727	0.	-3.4003e-003
1241	13.427	5.0909	0.	-1.4392e-003
1242	13.427	4.9091	0.	8.806e-005
1243	13.427	4.7273	0.	1.505e-003
1244	13.427	4.5455	0.	2.7375e-003
1245	13.427	4.3636	0.	3.8078e-003
1246	13.427	4.1818	0.	4.7224e-003
1247	13.427	4.	0.	5.4873e-003
1248	13.427	3.8182	0.	6.1105e-003
1249	13.427	3.6364	0.	6.6006e-003
1250	13.427	3.4545	0.	6.9615e-003
1251	13.427	3.2727	0.	7.2002e-003
1252	13.427	3.0909	0.	7.3179e-003
1253	13.427	2.9091	0.	7.3186e-003
1254	13.427	2.7273	0.	7.2002e-003
1255	13.427	2.5455	0.	6.9624e-003
1256	13.427	2.3636	0.	6.5998e-003
1257	13.427	2.1818	0.	6.1108e-003
1258	13.427	2.	0.	5.488e-003
1259	13.427	1.8182	0.	4.7221e-003
1260	13.427	1.6364	0.	3.8086e-003
1261	13.427	1.4545	0.	2.7366e-003
1262	13.427	1.2727	0.	1.506e-003
1263	13.427	1.0909	0.	8.8104e-005
1264	13.427	0.90909	0.	-1.4384e-003
1265	13.427	0.72727	0.	-3.3995e-003
1266	13.427	0.54545	0.	-4.4793e-003
1267	13.427	0.36364	0.	-1.1335e-002
1268	13.427	0.18182	0.	-5.6279e-004
1269	13.243	5.8182	0.	-6.5567e-004
1270	13.243	5.6364	0.	-1.0352e-002
1271	13.243	5.4545	0.	-4.2196e-003
1272	13.243	5.2727	0.	-3.2348e-003
1273	13.243	5.0909	0.	-1.4336e-003
1274	13.243	4.9091	0.	-3.6837e-006
1275	13.243	4.7273	0.	1.3426e-003
1276	13.243	4.5455	0.	2.5308e-003
1277	13.243	4.3636	0.	3.578e-003
1278	13.243	4.1818	0.	4.4841e-003
1279	13.243	4.	0.	5.2516e-003
1280	13.243	3.8182	0.	5.8829e-003
1281	13.243	3.6364	0.	6.3824e-003
1282	13.243	3.4545	0.	6.756e-003
1283	13.243	3.2727	0.	7.0016e-003
1284	13.243	3.0909	0.	7.1245e-003
1285	13.243	2.9091	0.	7.1242e-003
1286	13.243	2.7273	0.	7.0019e-003
1287	13.243	2.5455	0.	6.7561e-003
1288	13.243	2.3636	0.	6.3832e-003
1289	13.243	2.1818	0.	5.8828e-003
1290	13.243	2.	0.	5.2513e-003
1291	13.243	1.8182	0.	4.4848e-003
1292	13.243	1.6364	0.	3.5784e-003
1293	13.243	1.4545	0.	2.5321e-003
1294	13.243	1.2727	0.	1.3429e-003
1295	13.243	1.0909	0.	-1.9877e-006
1296	13.243	0.90909	0.	-1.4328e-003
1297	13.243	0.72727	0.	-3.2331e-003
1298	13.243	0.54545	0.	-4.2188e-003
1299	13.243	0.36364	0.	-1.0351e-002
1300	13.243	0.18182	0.	-6.5495e-004
1301	13.059	5.8182	0.	-7.6338e-004
1302	13.059	5.6364	0.	-9.3657e-003
1303	13.059	5.4545	0.	-3.9486e-003
1304	13.059	5.2727	0.	-3.058e-003
1305	13.059	5.0909	0.	-1.4228e-003
1306	13.059	4.9091	0.	-9.4888e-005
1307	13.059	4.7273	0.	1.1744e-003
1308	13.059	4.5455	0.	2.316e-003
1309	13.059	4.3636	0.	3.3374e-003
1310	13.059	4.1818	0.	4.2366e-003
1311	13.059	4.	0.	5.0089e-003
1312	13.059	3.8182	0.	5.6526e-003
1313	13.059	3.6364	0.	6.1678e-003
1314	13.059	3.4545	0.	6.5552e-003
1315	13.059	3.2727	0.	6.8127e-003
1316	13.059	3.0909	0.	6.9412e-003
1317	13.059	2.9091	0.	6.9415e-003
1318	13.059	2.7273	0.	6.8132e-003
1319	13.059	2.5455	0.	6.5558e-003
1320	13.059	2.3636	0.	6.1679e-003
1321	13.059	2.1818	0.	5.6526e-003
1322	13.059	2.	0.	5.0096e-003
1323	13.059	1.8182	0.	4.2368e-003
1324	13.059	1.6364	0.	3.3382e-003
1325	13.059	1.4545	0.	2.3159e-003
1326	13.059	1.2727	0.	1.175e-003
1327	13.059	1.0909	0.	-9.4632e-005
1328	13.059	0.90909	0.	-1.4222e-003
1329	13.059	0.72727	0.	-3.0571e-003
1330	13.059	0.54545	0.	-3.9472e-003
1331	13.059	0.36364	0.	-9.365e-003
1332	13.059	0.18182	0.	-7.6356e-004
1333	12.875	5.8182	0.	-8.9631e-004
1334	12.875	5.6364	0.	-8.3778e-003
1335	12.875	5.4545	0.	-3.6727e-003
1336	12.875	5.2727	0.	-2.8803e-003
1337	12.875	5.0909	0.	-1.419e-003
1338	12.875	4.9091	0.	-2.0196e-004
1339	12.875	4.7273	0.	9.8181e-004
1340	12.875	4.5455	0.	2.07e-003
1341	12.875	4.3636	0.	3.0649e-003
1342	12.875	4.1818	0.	3.9567e-003
1343	12.875	4.	0.	4.7373e-003
1344	12.875	3.8182	0.	5.4003e-003
1345	12.875	3.6364	0.	5.9387e-003
1346	12.875	3.4545	0.	6.348e-003
1347	12.875	3.2727	0.	6.6225e-003
1348	12.875	3.0909	0.	6.7608e-003
1349	12.875	2.9091	0.	6.7609e-003
1350	12.875	2.7273	0.	6.6221e-003
1351	12.875	2.5455	0.	6.3482e-003
1352	12.875	2.3636	0.	5.9383e-003
1353	12.875	2.1818	0.	5.3998e-003
1354	12.875	2.	0.	4.738e-003
1355	12.875	1.8182	0.	3.9572e-003
1356	12.875	1.6364	0.	3.0649e-003
1357	12.875	1.4545	0.	2.0699e-003
1358	12.875	1.2727	0.	9.8299e-004
1359	12.875	1.0909	0.	-2.0161e-004
1360	12.875	0.90909	0.	-1.4171e-003
1361	12.875	0.72727	0.	-2.8793e-003
1362	12.875	0.54545	0.	-3.673e-003
1363	12.875	0.36364	0.	-8.378e-003
1364	12.875	0.18182	0.	-8.96e-004
1365	12.691	5.8182	0.	-1.0987e-003
1366	12.691	5.6364	0.	-7.4272e-003
1367	12.691	5.4545	0.	-3.4367e-003
1368	12.691	5.2727	0.	-2.7493e-003
1369	12.691	5.0909	0.	-1.4713e-003
1370	12.691	4.9091	0.	-3.808e-004
1371	12.691	4.7273	0.	7.0487e-004
1372	12.691	4.5455	0.	1.7273e-003
1373	12.691	4.3636	0.	2.688e-003
1374	12.691	4.1818	0.	3.5737e-003
1375	12.691	4.	0.	4.3697e-003
1376	12.691	3.8182	0.	5.0611e-003
1377	12.691	3.6364	0.	5.6351e-003
1378	12.691	3.4545	0.	6.0809e-003
1379	12.691	3.2727	0.	6.3833e-003
1380	12.691	3.0909	0.	6.5366e-003
1381	12.691	2.9091	0.	6.5367e-003
1382	12.691	2.7273	0.	6.383e-003
1383	12.691	2.5455	0.	6.0809e-003
1384	12.691	2.3636	0.	5.6359e-003
1385	12.691	2.1818	0.	5.0612e-003
1386	12.691	2.	0.	4.3705e-003
1387	12.691	1.8182	0.	3.5748e-003
1388	12.691	1.6364	0.	2.6891e-003
1389	12.691	1.4545	0.	1.7285e-003
1390	12.691	1.2727	0.	7.0526e-004
1391	12.691	1.0909	0.	-3.7981e-004
1392	12.691	0.90909	0.	-1.4702e-003
1393	12.691	0.72727	0.	-2.7476e-003
1394	12.691	0.54545	0.	-3.4371e-003
1395	12.691	0.36364	0.	-7.427e-003
1396	12.691	0.18182	0.	-1.098e-003
1397	12.507	5.8182	0.	-1.331e-003
1398	12.507	5.6364	0.	-6.463e-003
1399	12.507	5.4545	0.	-3.196e-003
1400	12.507	5.2727	0.	-2.6207e-003
1401	12.507	5.0909	0.	-1.5471e-003
1402	12.507	4.9091	0.	-6.0431e-004
1403	12.507	4.7273	0.	3.5758e-004
1404	12.507	4.5455	0.	1.2957e-003
1405	12.507	4.3636	0.	2.2076e-003
1406	12.507	4.1818	0.	3.0806e-003
1407	12.507	4.	0.	3.8978e-003
1408	12.507	3.8182	0.	4.635e-003
1409	12.507	3.6364	0.	5.2688e-003
1410	12.507	3.4545	0.	5.7759e-003
1411	12.507	3.2727	0.	6.1297e-003
1412	12.507	3.0909	0.	6.3105e-003
1413	12.507	2.9091	0.	6.3106e-003
1414	12.507	2.7273	0.	6.1291e-003
1415	12.507	2.5455	0.	5.7764e-003
1416	12.507	2.3636	0.	5.2692e-003
1417	12.507	2.1818	0.	4.6347e-003
1418	12.507	2.	0.	3.898e-003
1419	12.507	1.8182	0.	3.0805e-003
1420	12.507	1.6364	0.	2.2077e-003
1421	12.507	1.4545	0.	1.2954e-003
1422	12.507	1.2727	0.	3.5814e-004
1423	12.507	1.0909	0.	-6.0482e-004
1424	12.507	0.90909	0.	-1.5452e-003
1425	12.507	0.72727	0.	-2.619e-003
1426	12.507	0.54545	0.	-3.196e-003
1427	12.507	0.36364	0.	-6.4621e-003
1428	12.507	0.18182	0.	-1.3306e-003
1429	12.323	5.8182	0.	-1.5902e-003
1430	12.323	5.6364	0.	-5.4698e-003
1431	12.323	5.4545	0.	-2.942e-003
1432	12.323	5.2727	0.	-2.4923e-003
1433	12.323	5.0909	0.	-1.6498e-003
1434	12.323	4.9091	0.	-8.9404e-004
1435	12.323	4.7273	0.	-1.0057e-004
1436	12.323	4.5455	0.	7.0429e-004
1437	12.323	4.3636	0.	1.5275e-003
1438	12.323	4.1818	0.	2.3623e-003
1439	12.323	4.	0.	3.1966e-003
1440	12.323	3.8182	0.	4.0042e-003
1441	12.323	3.6364	0.	4.7474e-003
1442	12.323	3.4545	0.	5.3786e-003
1443	12.323	3.2727	0.	5.8409e-003
1444	12.323	3.0909	0.	6.0865e-003
1445	12.323	2.9091	0.	6.0863e-003
1446	12.323	2.7273	0.	5.8414e-003
1447	12.323	2.5455	0.	5.3783e-003
1448	12.323	2.3636	0.	4.7482e-003
1449	12.323	2.1818	0.	4.0043e-003
1450	12.323	2.	0.	3.1972e-003
1451	12.323	1.8182	0.	2.3629e-003
1452	12.323	1.6364	0.	1.5272e-003
1453	12.323	1.4545	0.	7.0492e-004
1454	12.323	1.2727	0.	-9.9746e-005
1455	12.323	1.0909	0.	-8.9362e-004
1456	12.323	0.90909	0.	-1.6489e-003
1457	12.323	0.72727	0.	-2.4916e-003
1458	12.323	0.54545	0.	-2.9413e-003
1459	12.323	0.36364	0.	-5.4696e-003
1460	12.323	0.18182	0.	-1.5892e-003
1461	12.139	5.8182	0.	-1.8679e-003
1462	12.139	5.6364	0.	-4.4302e-003
1463	12.139	5.4545	0.	-2.6614e-003
1464	12.139	5.2727	0.	-2.358e-003
1465	12.139	5.0909	0.	-1.791e-003
1466	12.139	4.9091	0.	-1.2897e-003
1467	12.139	4.7273	0.	-7.5872e-004
1468	12.139	4.5455	0.	-2.0553e-004
1469	12.139	4.3636	0.	3.9192e-004
1470	12.139	4.1818	0.	1.0547e-003
1471	12.139	4.	0.	1.8017e-003
1472	12.139	3.8182	0.	2.6451e-003
1473	12.139	3.6364	0.	3.5751e-003
1474	12.139	3.4545	0.	4.5272e-003
1475	12.139	3.2727	0.	5.3558e-003
1476	12.139	3.0909	0.	5.8535e-003
1477	12.139	2.9091	0.	5.8535e-003
1478	12.139	2.7273	0.	5.3561e-003
1479	12.139	2.5455	0.	4.5273e-003
1480	12.139	2.3636	0.	3.5751e-003
1481	12.139	2.1818	0.	2.645e-003
1482	12.139	2.	0.	1.8021e-003
1483	12.139	1.8182	0.	1.0548e-003
1484	12.139	1.6364	0.	3.9242e-004
1485	12.139	1.4545	0.	-2.0476e-004
1486	12.139	1.2727	0.	-7.5846e-004
1487	12.139	1.0909	0.	-1.289e-003
1488	12.139	0.90909	0.	-1.79e-003
1489	12.139	0.72727	0.	-2.3568e-003
1490	12.139	0.54545	0.	-2.6608e-003
1491	12.139	0.36364	0.	-4.4298e-003
1492	12.139	0.18182	0.	-1.8673e-003
1493	11.955	5.8182	0.	-2.1725e-003
1494	11.955	5.6364	0.	-3.3364e-003
1495	11.955	5.4545	0.	-2.3533e-003
1496	11.955	5.2727	0.	-2.2261e-003
1497	11.955	5.0909	0.	-2.0084e-003
1498	11.955	4.9091	0.	-1.8971e-003
1499	11.955	4.7273	0.	-1.8638e-003
1500	11.955	4.5455	0.	-1.9576e-003
1501	11.955	4.3636	0.	-2.2537e-003
1502	11.955	4.1818	0.	-2.9391e-003
1503	11.955	4.	0.	-4.6115e-003
1504	11.955	3.8182	0.	-1.0464e-002
1505	11.955	3.6364	0.	-9.1812e-002
1506	11.955	3.4545	0.	-0.37628
1507	11.955	3.2727	0.	-0.58499
1508	11.955	3.0909	0.	-0.69052
1509	11.955	2.9091	0.	-0.69052
1510	11.955	2.7273	0.	-0.585
1511	11.955	2.5455	0.	-0.37629
1512	11.955	2.3636	0.	-9.1828e-002
1513	11.955	2.1818	0.	-1.0464e-002
1514	11.955	2.	0.	-4.6117e-003
1515	11.955	1.8182	0.	-2.9394e-003
1516	11.955	1.6364	0.	-2.2535e-003
1517	11.955	1.4545	0.	-1.9575e-003
1518	11.955	1.2727	0.	-1.8635e-003
1519	11.955	1.0909	0.	-1.8969e-003
1520	11.955	0.90909	0.	-2.0071e-003
1521	11.955	0.72727	0.	-2.2251e-003
1522	11.955	0.54545	0.	-2.3526e-003
1523	11.955	0.36364	0.	-3.3357e-003
1524	11.955	0.18182	0.	-2.1716e-003
1525	11.771	5.8182	0.	-2.5189e-003
1526	11.771	5.6364	0.	-2.1906e-003
1527	11.771	5.4545	0.	-2.0271e-003
1528	11.771	5.2727	0.	-2.1221e-003
1529	11.771	5.0909	0.	-2.3908e-003
1530	11.771	4.9091	0.	-2.9873e-003
1531	11.771	4.7273	0.	-4.2341e-003
1532	11.771	4.5455	0.	-7.2135e-003
1533	11.771	4.3636	0.	-1.8692e-002
1534	11.771	4.1818	0.	-0.26696
1535	11.771	4.	0.	-0.94777
1536	11.771	3.8182	0.	-1.544
1537	11.771	3.6364	0.	-2.0275
1538	11.771	3.4545	0.	-2.3934
1539	11.771	3.2727	0.	-2.6388
1540	11.771	3.0909	0.	-2.7619
1541	11.771	2.9091	0.	-2.7619
1542	11.771	2.7273	0.	-2.6388
1543	11.771	2.5455	0.	-2.3934
1544	11.771	2.3636	0.	-2.0276
1545	11.771	2.1818	0.	-1.544
1546	11.771	2.	0.	-0.94779
1547	11.771	1.8182	0.	-0.26698
1548	11.771	1.6364	0.	-1.8693e-002
1549	11.771	1.4545	0.	-7.2134e-003
1550	11.771	1.2727	0.	-4.2333e-003
1551	11.771	1.0909	0.	-2.9874e-003
1552	11.771	0.90909	0.	-2.3896e-003
1553	11.771	0.72727	0.	-2.1209e-003
1554	11.771	0.54545	0.	-2.0262e-003
1555	11.771	0.36364	0.	-2.1902e-003
1556	11.771	0.18182	0.	-2.5182e-003
1557	11.587	5.8182	0.	-2.9283e-003
1558	11.587	5.6364	0.	-9.9644e-004
1559	11.587	5.4545	0.	-1.691e-003
1560	11.587	5.2727	0.	-2.0896e-003
1561	11.587	5.0909	0.	-3.1269e-003
1562	11.587	4.9091	0.	-5.4275e-003
1563	11.587	4.7273	0.	-1.2886e-002
1564	11.587	4.5455	0.	-0.15212
1565	11.587	4.3636	0.	-1.1136
1566	11.587	4.1818	0.	-2.0433
1567	11.587	4.	0.	-2.855
1568	11.587	3.8182	0.	-3.5403
1569	11.587	3.6364	0.	-4.0941
1570	11.587	3.4545	0.	-4.5128
1571	11.587	3.2727	0.	-4.7934
1572	11.587	3.0909	0.	-4.9342
1573	11.587	2.9091	0.	-4.9342
1574	11.587	2.7273	0.	-4.7934
1575	11.587	2.5455	0.	-4.5128
1576	11.587	2.3636	0.	-4.0942
1577	11.587	2.1818	0.	-3.5403
1578	11.587	2.	0.	-2.855
1579	11.587	1.8182	0.	-2.0434
1580	11.587	1.6364	0.	-1.1137
1581	11.587	1.4545	0.	-0.15214
1582	11.587	1.2727	0.	-1.2886e-002
1583	11.587	1.0909	0.	-5.4271e-003
1584	11.587	0.90909	0.	-3.1262e-003
1585	11.587	0.72727	0.	-2.0879e-003
1586	11.587	0.54545	0.	-1.6902e-003
1587	11.587	0.36364	0.	-9.9619e-004
1588	11.587	0.18182	0.	-2.9277e-003
1589	11.404	5.8182	0.	-3.4637e-003
1590	11.404	5.6364	0.	2.0241e-004
1591	11.404	5.4545	0.	-1.3989e-003
1592	11.404	5.2727	0.	-2.2443e-003
1593	11.404	5.0909	0.	-4.8064e-003
1594	11.404	4.9091	0.	-1.4579e-002
1595	11.404	4.7273	0.	-0.42452
1596	11.404	4.5455	0.	-1.7063
1597	11.404	4.3636	0.	-2.8915
1598	11.404	4.1818	0.	-3.9482
1599	11.404	4.	0.	-4.8677
1600	11.404	3.8182	0.	-5.6436
1601	11.404	3.6364	0.	-6.2706
1602	11.404	3.4545	0.	-6.7445
1603	11.404	3.2727	0.	-7.0623
1604	11.404	3.0909	0.	-7.2217
1605	11.404	2.9091	0.	-7.2217
1606	11.404	2.7273	0.	-7.0623
1607	11.404	2.5455	0.	-6.7445
1608	11.404	2.3636	0.	-6.2706
1609	11.404	2.1818	0.	-5.6436
1610	11.404	2.	0.	-4.8677
1611	11.404	1.8182	0.	-3.9483
1612	11.404	1.6364	0.	-2.8916
1613	11.404	1.4545	0.	-1.7063
1614	11.404	1.2727	0.	-0.42455
1615	11.404	1.0909	0.	-1.4579e-002
1616	11.404	0.90909	0.	-4.8046e-003
1617	11.404	0.72727	0.	-2.2426e-003
1618	11.404	0.54545	0.	-1.399e-003
1619	11.404	0.36364	0.	2.0312e-004
1620	11.404	0.18182	0.	-3.4628e-003
1621	11.22	5.8182	0.	-4.0958e-003
1622	11.22	5.6364	0.	1.4622e-003
1623	11.22	5.4545	0.	-1.1057e-003
1624	11.22	5.2727	0.	-2.7041e-003
1625	11.22	5.0909	0.	-9.9421e-003
1626	11.22	4.9091	0.	-0.40753
1627	11.22	4.7273	0.	-1.9743
1628	11.22	4.5455	0.	-3.4425
1629	11.22	4.3636	0.	-4.7752
1630	11.22	4.1818	0.	-5.962
1631	11.22	4.	0.	-6.9945
1632	11.22	3.8182	0.	-7.8659
1633	11.22	3.6364	0.	-8.5701
1634	11.22	3.4545	0.	-9.1025
1635	11.22	3.2727	0.	-9.4595
1636	11.22	3.0909	0.	-9.6386
1637	11.22	2.9091	0.	-9.6386
1638	11.22	2.7273	0.	-9.4595
1639	11.22	2.5455	0.	-9.1026
1640	11.22	2.3636	0.	-8.5702
1641	11.22	2.1818	0.	-7.8659
1642	11.22	2.	0.	-6.9945
1643	11.22	1.8182	0.	-5.962
1644	11.22	1.6364	0.	-4.7753
1645	11.22	1.4545	0.	-3.4426
1646	11.22	1.2727	0.	-1.9743
1647	11.22	1.0909	0.	-0.40757
1648	11.22	0.90909	0.	-9.9408e-003
1649	11.22	0.72727	0.	-2.7038e-003
1650	11.22	0.54545	0.	-1.1061e-003
1651	11.22	0.36364	0.	1.4624e-003
1652	11.22	0.18182	0.	-4.094e-003
1653	11.036	5.8182	0.	-4.8408e-003
1654	11.036	5.6364	0.	2.7956e-003
1655	11.036	5.4545	0.	-8.1488e-004
1656	11.036	5.2727	0.	-4.014e-003
1657	11.036	5.0909	0.	-9.795e-002
1658	11.036	4.9091	0.	-1.8669
1659	11.036	4.7273	0.	-3.6456
1660	11.036	4.5455	0.	-5.2849
1661	11.036	4.3636	0.	-6.7719
1662	11.036	4.1818	0.	-8.0962
1663	11.036	4.	0.	-9.2485
1664	11.036	3.8182	0.	-10.221
1665	11.036	3.6364	0.	-11.007
1666	11.036	3.4545	0.	-11.602
1667	11.036	3.2727	0.	-12.001
1668	11.036	3.0909	0.	-12.201
1669	11.036	2.9091	0.	-12.201
1670	11.036	2.7273	0.	-12.001
1671	11.036	2.5455	0.	-11.602
1672	11.036	2.3636	0.	-11.007
1673	11.036	2.1818	0.	-10.221
1674	11.036	2.	0.	-9.2486
1675	11.036	1.8182	0.	-8.0962
1676	11.036	1.6364	0.	-6.772
1677	11.036	1.4545	0.	-5.285
1678	11.036	1.2727	0.	-3.6456
1679	11.036	1.0909	0.	-1.8669
1680	11.036	0.90909	0.	-9.7968e-002
1681	11.036	0.72727	0.	-4.0129e-003
1682	11.036	0.54545	0.	-8.1479e-004
1683	11.036	0.36364	0.	2.7963e-003
1684	11.036	0.18182	0.	-4.8397e-003
1685	10.852	5.8182	0.	-5.7171e-003
1686	10.852	5.6364	0.	4.2205e-003
1687	10.852	5.4545	0.	-5.415e-004
1688	10.852	5.2727	0.	-9.5507e-003
1689	10.852	5.0909	0.	-1.3324
1690	10.852	4.9091	0.	-3.447
1691	10.852	4.7273	0.	-5.4228
1692	10.852	4.5455	0.	-7.2426
1693	10.852	4.3636	0.	-8.8934
1694	10.852	4.1818	0.	-10.364
1695	10.852	4.	0.	-11.644
1696	10.852	3.8182	0.	-12.724
1697	10.852	3.6364	0.	-13.598
1698	10.852	3.4545	0.	-14.259
1699	10.852	3.2727	0.	-14.702
1700	10.852	3.0909	0.	-14.924
1701	10.852	2.9091	0.	-14.924
1702	10.852	2.7273	0.	-14.702
1703	10.852	2.5455	0.	-14.259
1704	10.852	2.3636	0.	-13.598
1705	10.852	2.1818	0.	-12.724
1706	10.852	2.	0.	-11.644
1707	10.852	1.8182	0.	-10.364
1708	10.852	1.6364	0.	-8.8935
1709	10.852	1.4545	0.	-7.2426
1710	10.852	1.2727	0.	-5.4228
1711	10.852	1.0909	0.	-3.4471
1712	10.852	0.90909	0.	-1.3324
1713	10.852	0.72727	0.	-9.5504e-003
1714	10.852	0.54545	0.	-5.4112e-004
1715	10.852	0.36364	0.	4.2212e-003
1716	10.852	0.18182	0.	-5.7162e-003
1717	10.668	5.8182	0.	-6.7689e-003
1718	10.668	5.6364	0.	5.7366e-003
1719	10.668	5.4545	0.	-3.7726e-004
1720	10.668	5.2727	0.	-0.33126
1721	10.668	5.0909	0.	-2.7905
1722	10.668	4.9091	0.	-5.131
1723	10.668	4.7273	0.	-7.3152
1724	10.668	4.5455	0.	-9.3272
1725	10.668	4.3636	0.	-11.153
1726	10.668	4.1818	0.	-12.78
1727	10.668	4.	0.	-14.196
1728	10.668	3.8182	0.	-15.392
1729	10.668	3.6364	0.	-16.359
1730	10.668	3.4545	0.	-17.09
1731	10.668	3.2727	0.	-17.58
1732	10.668	3.0909	0.	-17.826
1733	10.668	2.9091	0.	-17.826
1734	10.668	2.7273	0.	-17.58
1735	10.668	2.5455	0.	-17.09
1736	10.668	2.3636	0.	-16.359
1737	10.668	2.1818	0.	-15.392
1738	10.668	2.	0.	-14.196
1739	10.668	1.8182	0.	-12.78
1740	10.668	1.6364	0.	-11.153
1741	10.668	1.4545	0.	-9.3273
1742	10.668	1.2727	0.	-7.3152
1743	10.668	1.0909	0.	-5.1311
1744	10.668	0.90909	0.	-2.7905
1745	10.668	0.72727	0.	-0.3313
1746	10.668	0.54545	0.	-3.7581e-004
1747	10.668	0.36364	0.	5.7375e-003
1748	10.668	0.18182	0.	-6.7683e-003
1749	10.484	5.8182	0.	-8.0685e-003
1750	10.484	5.6364	0.	7.3255e-003
1751	10.484	5.4545	0.	-7.501e-004
1752	10.484	5.2727	0.	-1.6168
1753	10.484	5.0909	0.	-4.3485
1754	10.484	4.9091	0.	-6.9273
1755	10.484	4.7273	0.	-9.3341
1756	10.484	4.5455	0.	-11.552
1757	10.484	4.3636	0.	-13.565
1758	10.484	4.1818	0.	-15.358
1759	10.484	4.	0.	-16.921
1760	10.484	3.8182	0.	-18.24
1761	10.484	3.6364	0.	-19.307
1762	10.484	3.4545	0.	-20.113
1763	10.484	3.2727	0.	-20.655
1764	10.484	3.0909	0.	-20.926
1765	10.484	2.9091	0.	-20.926
1766	10.484	2.7273	0.	-20.655
1767	10.484	2.5455	0.	-20.113
1768	10.484	2.3636	0.	-19.307
1769	10.484	2.1818	0.	-18.24
1770	10.484	2.	0.	-16.921
1771	10.484	1.8182	0.	-15.358
1772	10.484	1.6364	0.	-13.565
1773	10.484	1.4545	0.	-11.552
1774	10.484	1.2727	0.	-9.3341
1775	10.484	1.0909	0.	-6.9274
1776	10.484	0.90909	0.	-4.3485
1777	10.484	0.72727	0.	-1.6169
1778	10.484	0.54545	0.	-7.5055e-004
1779	10.484	0.36364	0.	7.3273e-003
1780	10.484	0.18182	0.	-8.0674e-003
1781	10.3	5.8182	0.	-9.7131e-003
1782	10.3	5.6364	0.	8.947e-003
1783	10.3	5.4545	0.	-1.4006e-002
1784	10.3	5.2727	0.	-3.0104
1785	10.3	5.0909	0.	-6.0125
1786	10.3	4.9091	0.	-8.8463
1787	10.3	4.7273	0.	-11.492
1788	10.3	4.5455	0.	-13.93
1789	10.3	4.3636	0.	-16.143
1790	10.3	4.1818	0.	-18.117
1791	10.3	4.	0.	-19.835
1792	10.3	3.8182	0.	-21.287
1793	10.3	3.6364	0.	-22.461
1794	10.3	3.4545	0.	-23.349
1795	10.3	3.2727	0.	-23.945
1796	10.3	3.0909	0.	-24.243
1797	10.3	2.9091	0.	-24.243
1798	10.3	2.7273	0.	-23.945
1799	10.3	2.5455	0.	-23.349
1800	10.3	2.3636	0.	-22.461
1801	10.3	2.1818	0.	-21.287
1802	10.3	2.	0.	-19.835
1803	10.3	1.8182	0.	-18.117
1804	10.3	1.6364	0.	-16.144
1805	10.3	1.4545	0.	-13.93
1806	10.3	1.2727	0.	-11.492
1807	10.3	1.0909	0.	-8.8463
1808	10.3	0.90909	0.	-6.0126
1809	10.3	0.72727	0.	-3.0105
1810	10.3	0.54545	0.	-1.401e-002
1811	10.3	0.36364	0.	8.9481e-003
1812	10.3	0.18182	0.	-9.7123e-003
1813	10.116	5.8182	0.	-1.1896e-002
1814	10.116	5.6364	0.	1.0443e-002
1815	10.116	5.4545	0.	-1.0467
1816	10.116	5.2727	0.	-4.501
1817	10.116	5.0909	0.	-7.7922
1818	10.116	4.9091	0.	-10.9
1819	10.116	4.7273	0.	-13.801
1820	10.116	4.5455	0.	-16.477
1821	10.116	4.3636	0.	-18.906
1822	10.116	4.1818	0.	-21.072
1823	10.116	4.	0.	-22.959
1824	10.116	3.8182	0.	-24.553
1825	10.116	3.6364	0.	-25.842
1826	10.116	3.4545	0.	-26.817
1827	10.116	3.2727	0.	-27.472
1828	10.116	3.0909	0.	-27.8
1829	10.116	2.9091	0.	-27.8
1830	10.116	2.7273	0.	-27.472
1831	10.116	2.5455	0.	-26.817
1832	10.116	2.3636	0.	-25.842
1833	10.116	2.1818	0.	-24.553
1834	10.116	2.	0.	-22.959
1835	10.116	1.8182	0.	-21.072
1836	10.116	1.6364	0.	-18.906
1837	10.116	1.4545	0.	-16.477
1838	10.116	1.2727	0.	-13.801
1839	10.116	1.0909	0.	-10.9
1840	10.116	0.90909	0.	-7.7922
1841	10.116	0.72727	0.	-4.501
1842	10.116	0.54545	0.	-1.0467
1843	10.116	0.36364	0.	1.0445e-002
1844	10.116	0.18182	0.	-1.1894e-002
1845	9.9321	5.8182	0.	-1.4722e-002
1846	9.9321	5.6364	0.	1.1562e-002
1847	9.9321	5.4545	0.	-2.3164
1848	9.9321	5.2727	0.	-6.0955
1849	9.9321	5.0909	0.	-9.6975
1850	9.9321	4.9091	0.	-13.1
1851	9.9321	4.7273	0.	-16.277
1852	9.9321	4.5455	0.	-19.207
1853	9.9321	4.3636	0.	-21.869
1854	9.9321	4.1818	0.	-24.243
1855	9.9321	4.	0.	-26.31
1856	9.9321	3.8182	0.	-28.058
1857	9.9321	3.6364	0.	-29.471
1858	9.9321	3.4545	0.	-30.54
1859	9.9321	3.2727	0.	-31.258
1860	9.9321	3.0909	0.	-31.618
1861	9.9321	2.9091	0.	-31.618
1862	9.9321	2.7273	0.	-31.258
1863	9.9321	2.5455	0.	-30.54
1864	9.9321	2.3636	0.	-29.471
1865	9.9321	2.1818	0.	-28.058
1866	9.9321	2.	0.	-26.31
1867	9.9321	1.8182	0.	-24.243
1868	9.9321	1.6364	0.	-21.869
1869	9.9321	1.4545	0.	-19.207
1870	9.9321	1.2727	0.	-16.277
1871	9.9321	1.0909	0.	-13.1
1872	9.9321	0.90909	0.	-9.6976
1873	9.9321	0.72727	0.	-6.0955
1874	9.9321	0.54545	0.	-2.3164
1875	9.9321	0.36364	0.	1.1562e-002
1876	9.9321	0.18182	0.	-1.4722e-002
1877	9.7482	5.8182	0.	-1.8459e-002
1878	9.7482	5.6364	0.	9.8007e-003
1879	9.7482	5.4545	0.	-3.6744
1880	9.7482	5.2727	0.	-7.803
1881	9.7482	5.0909	0.	-11.74
1882	9.7482	4.9091	0.	-15.459
1883	9.7482	4.7273	0.	-18.934
1884	9.7482	4.5455	0.	-22.139
1885	9.7482	4.3636	0.	-25.051
1886	9.7482	4.1818	0.	-27.649
1887	9.7482	4.	0.	-29.912
1888	9.7482	3.8182	0.	-31.824
1889	9.7482	3.6364	0.	-33.372
1890	9.7482	3.4545	0.	-34.543
1891	9.7482	3.2727	0.	-35.328
1892	9.7482	3.0909	0.	-35.722
1893	9.7482	2.9091	0.	-35.722
1894	9.7482	2.7273	0.	-35.328
1895	9.7482	2.5455	0.	-34.543
1896	9.7482	2.3636	0.	-33.372
1897	9.7482	2.1818	0.	-31.824
1898	9.7482	2.	0.	-29.912
1899	9.7482	1.8182	0.	-27.649
1900	9.7482	1.6364	0.	-25.051
1901	9.7482	1.4545	0.	-22.139
1902	9.7482	1.2727	0.	-18.934
1903	9.7482	1.0909	0.	-15.459
1904	9.7482	0.90909	0.	-11.74
1905	9.7482	0.72727	0.	-7.803
1906	9.7482	0.54545	0.	-3.6745
1907	9.7482	0.36364	0.	9.8026e-003
1908	9.7482	0.18182	0.	-1.8458e-002
1909	9.5643	5.8182	0.	-2.364e-002
1910	9.5643	5.6364	0.	-0.39756
1911	9.5643	5.4545	0.	-5.1278
1912	9.5643	5.2727	0.	-9.6331
1913	9.5643	5.0909	0.	-13.931
1914	9.5643	4.9091	0.	-17.993
1915	9.5643	4.7273	0.	-21.789
1916	9.5643	4.5455	0.	-25.291
1917	9.5643	4.3636	0.	-28.473
1918	9.5643	4.1818	0.	-31.312
1919	9.5643	4.	0.	-33.786
1920	9.5643	3.8182	0.	-35.877
1921	9.5643	3.6364	0.	-37.569
1922	9.5643	3.4545	0.	-38.849
1923	9.5643	3.2727	0.	-39.708
1924	9.5643	3.0909	0.	-40.139
1925	9.5643	2.9091	0.	-40.139
1926	9.5643	2.7273	0.	-39.708
1927	9.5643	2.5455	0.	-38.849
1928	9.5643	2.3636	0.	-37.569
1929	9.5643	2.1818	0.	-35.877
1930	9.5643	2.	0.	-33.786
1931	9.5643	1.8182	0.	-31.312
1932	9.5643	1.6364	0.	-28.473
1933	9.5643	1.4545	0.	-25.291
1934	9.5643	1.2727	0.	-21.789
1935	9.5643	1.0909	0.	-17.993
1936	9.5643	0.90909	0.	-13.931
1937	9.5643	0.72727	0.	-9.6331
1938	9.5643	0.54545	0.	-5.1278
1939	9.5643	0.36364	0.	-0.39757
1940	9.5643	0.18182	0.	-2.3639e-002
1941	9.3804	5.8182	0.	-3.1101e-002
1942	9.3804	5.6364	0.	-1.5262
1943	9.3804	5.4545	0.	-6.6842
1944	9.3804	5.2727	0.	-11.596
1945	9.3804	5.0909	0.	-16.284
1946	9.3804	4.9091	0.	-20.716
1947	9.3804	4.7273	0.	-24.858
1948	9.3804	4.5455	0.	-28.681
1949	9.3804	4.3636	0.	-32.155
1950	9.3804	4.1818	0.	-35.255
1951	9.3804	4.	0.	-37.957
1952	9.3804	3.8182	0.	-40.241
1953	9.3804	3.6364	0.	-42.089
1954	9.3804	3.4545	0.	-43.488
1955	9.3804	3.2727	0.	-44.427
1956	9.3804	3.0909	0.	-44.898
1957	9.3804	2.9091	0.	-44.898
1958	9.3804	2.7273	0.	-44.427
1959	9.3804	2.5455	0.	-43.488
1960	9.3804	2.3636	0.	-42.089
1961	9.3804	2.1818	0.	-40.241
1962	9.3804	2.	0.	-37.957
1963	9.3804	1.8182	0.	-35.255
1964	9.3804	1.6364	0.	-32.155
1965	9.3804	1.4545	0.	-28.681
1966	9.3804	1.2727	0.	-24.858
1967	9.3804	1.0909	0.	-20.716
1968	9.3804	0.90909	0.	-16.284
1969	9.3804	0.72727	0.	-11.596
1970	9.3804	0.54545	0.	-6.6842
1971	9.3804	0.36364	0.	-1.5262
1972	9.3804	0.18182	0.	-3.11e-002
1973	9.1964	5.8182	0.	-4.2435e-002
1974	9.1964	5.6364	0.	-2.7392
1975	9.1964	5.4545	0.	-8.3521
1976	9.1964	5.2727	0.	-13.704
1977	9.1964	5.0909	0.	-18.813
1978	9.1964	4.9091	0.	-23.645
1979	9.1964	4.7273	0.	-28.162
1980	9.1964	4.5455	0.	-32.331
1981	9.1964	4.3636	0.	-36.121
1982	9.1964	4.1818	0.	-39.503
1983	9.1964	4.	0.	-42.452
1984	9.1964	3.8182	0.	-44.945
1985	9.1964	3.6364	0.	-46.962
1986	9.1964	3.4545	0.	-48.489
1987	9.1964	3.2727	0.	-49.514
1988	9.1964	3.0909	0.	-50.028
1989	9.1964	2.9091	0.	-50.028
1990	9.1964	2.7273	0.	-49.514
1991	9.1964	2.5455	0.	-48.489
1992	9.1964	2.3636	0.	-46.962
1993	9.1964	2.1818	0.	-44.945
1994	9.1964	2.	0.	-42.452
1995	9.1964	1.8182	0.	-39.503
1996	9.1964	1.6364	0.	-36.121
1997	9.1964	1.4545	0.	-32.331
1998	9.1964	1.2727	0.	-28.162
1999	9.1964	1.0909	0.	-23.645
2000	9.1964	0.90909	0.	-18.813
2001	9.1964	0.72727	0.	-13.704
2002	9.1964	0.54545	0.	-8.3521
2003	9.1964	0.36364	0.	-2.7392
2004	9.1964	0.18182	0.	-4.2434e-002
2005	9.0125	5.8182	0.	-6.1034e-002
2006	9.0125	5.6364	0.	-4.0365
2007	9.0125	5.4545	0.	-10.141
2008	9.0125	5.2727	0.	-15.968
2009	9.0125	5.0909	0.	-21.533
2010	9.0125	4.9091	0.	-26.797
2011	9.0125	4.7273	0.	-31.719
2012	9.0125	4.5455	0.	-36.264
2013	9.0125	4.3636	0.	-40.396
2014	9.0125	4.1818	0.	-44.083
2015	9.0125	4.	0.	-47.299
2016	9.0125	3.8182	0.	-50.018
2017	9.0125	3.6364	0.	-52.218
2018	9.0125	3.4545	0.	-53.884
2019	9.0125	3.2727	0.	-55.002
2020	9.0125	3.0909	0.	-55.563
2021	9.0125	2.9091	0.	-55.563
2022	9.0125	2.7273	0.	-55.002
2023	9.0125	2.5455	0.	-53.884
2024	9.0125	2.3636	0.	-52.219
2025	9.0125	2.1818	0.	-50.018
2026	9.0125	2.	0.	-47.299
2027	9.0125	1.8182	0.	-44.084
2028	9.0125	1.6364	0.	-40.396
2029	9.0125	1.4545	0.	-36.264
2030	9.0125	1.2727	0.	-31.719
2031	9.0125	1.0909	0.	-26.797
2032	9.0125	0.90909	0.	-21.533
2033	9.0125	0.72727	0.	-15.968
2034	9.0125	0.54545	0.	-10.141
2035	9.0125	0.36364	0.	-4.0365
2036	9.0125	0.18182	0.	-6.1034e-002
2037	8.8286	5.8182	0.	-9.5412e-002
2038	8.8286	5.6364	0.	-5.4241
2039	8.8286	5.4545	0.	-12.059
2040	8.8286	5.2727	0.	-18.401
2041	8.8286	5.0909	0.	-24.459
2042	8.8286	4.9091	0.	-30.191
2043	8.8286	4.7273	0.	-35.552
2044	8.8286	4.5455	0.	-40.503
2045	8.8286	4.3636	0.	-45.005
2046	8.8286	4.1818	0.	-49.024
2047	8.8286	4.	0.	-52.529
2048	8.8286	3.8182	0.	-55.493
2049	8.8286	3.6364	0.	-57.892
2050	8.8286	3.4545	0.	-59.708
2051	8.8286	3.2727	0.	-60.927
2052	8.8286	3.0909	0.	-61.539
2053	8.8286	2.9091	0.	-61.539
2054	8.8286	2.7273	0.	-60.927
2055	8.8286	2.5455	0.	-59.708
2056	8.8286	2.3636	0.	-57.892
2057	8.8286	2.1818	0.	-55.493
2058	8.8286	2.	0.	-52.529
2059	8.8286	1.8182	0.	-49.024
2060	8.8286	1.6364	0.	-45.005
2061	8.8286	1.4545	0.	-40.503
2062	8.8286	1.2727	0.	-35.552
2063	8.8286	1.0909	0.	-30.191
2064	8.8286	0.90909	0.	-24.459
2065	8.8286	0.72727	0.	-18.401
2066	8.8286	0.54545	0.	-12.059
2067	8.8286	0.36364	0.	-5.4241
2068	8.8286	0.18182	0.	-9.5412e-002
2069	8.6446	5.8182	0.	-0.17259
2070	8.6446	5.6364	0.	-6.9085
2071	8.6446	5.4545	0.	-14.118
2072	8.6446	5.2727	0.	-21.016
2073	8.6446	5.0909	0.	-27.609
2074	8.6446	4.9091	0.	-33.847
2075	8.6446	4.7273	0.	-39.684
2076	8.6446	4.5455	0.	-45.075
2077	8.6446	4.3636	0.	-49.978
2078	8.6446	4.1818	0.	-54.356
2079	8.6446	4.	0.	-58.175
2080	8.6446	3.8182	0.	-61.404
2081	8.6446	3.6364	0.	-64.019
2082	8.6446	3.4545	0.	-65.999
2083	8.6446	3.2727	0.	-67.327
2084	8.6446	3.0909	0.	-67.994
2085	8.6446	2.9091	0.	-67.994
2086	8.6446	2.7273	0.	-67.327
2087	8.6446	2.5455	0.	-65.999
2088	8.6446	2.3636	0.	-64.019
2089	8.6446	2.1818	0.	-61.404
2090	8.6446	2.	0.	-58.175
2091	8.6446	1.8182	0.	-54.356
2092	8.6446	1.6364	0.	-49.978
2093	8.6446	1.4545	0.	-45.075
2094	8.6446	1.2727	0.	-39.684
2095	8.6446	1.0909	0.	-33.847
2096	8.6446	0.90909	0.	-27.609
2097	8.6446	0.72727	0.	-21.016
2098	8.6446	0.54545	0.	-14.118
2099	8.6446	0.36364	0.	-6.9085
2100	8.6446	0.18182	0.	-0.17259
2101	8.4607	5.8182	0.	-0.40166
2102	8.4607	5.6364	0.	-8.4968
2103	8.4607	5.4545	0.	-16.328
2104	8.4607	5.2727	0.	-23.829
2105	8.4607	5.0909	0.	-31.
2106	8.4607	4.9091	0.	-37.787
2107	8.4607	4.7273	0.	-44.139
2108	8.4607	4.5455	0.	-50.007
2109	8.4607	4.3636	0.	-55.346
2110	8.4607	4.1818	0.	-60.113
2111	8.4607	4.	0.	-64.273
2112	8.4607	3.8182	0.	-67.79
2113	8.4607	3.6364	0.	-70.639
2114	8.4607	3.4545	0.	-72.796
2115	8.4607	3.2727	0.	-74.243
2116	8.4607	3.0909	0.	-74.97
2117	8.4607	2.9091	0.	-74.97
2118	8.4607	2.7273	0.	-74.243
2119	8.4607	2.5455	0.	-72.796
2120	8.4607	2.3636	0.	-70.639
2121	8.4607	2.1818	0.	-67.791
2122	8.4607	2.	0.	-64.273
2123	8.4607	1.8182	0.	-60.114
2124	8.4607	1.6364	0.	-55.346
2125	8.4607	1.4545	0.	-50.007
2126	8.4607	1.2727	0.	-44.139
2127	8.4607	1.0909	0.	-37.787
2128	8.4607	0.90909	0.	-31.
2129	8.4607	0.72727	0.	-23.829
2130	8.4607	0.54545	0.	-16.328
2131	8.4607	0.36364	0.	-8.4968
2132	8.4607	0.18182	0.	-0.40166
2133	8.2768	5.8182	0.	-1.0356
2134	8.2768	5.6364	0.	-10.196
2135	8.2768	5.4545	0.	-18.701
2136	8.2768	5.2727	0.	-26.855
2137	8.2768	5.0909	0.	-34.652
2138	8.2768	4.9091	0.	-42.034
2139	8.2768	4.7273	0.	-48.945
2140	8.2768	4.5455	0.	-55.331
2141	8.2768	4.3636	0.	-61.141
2142	8.2768	4.1818	0.	-66.332
2143	8.2768	4.	0.	-70.861
2144	8.2768	3.8182	0.	-74.692
2145	8.2768	3.6364	0.	-77.794
2146	8.2768	3.4545	0.	-80.143
2147	8.2768	3.2727	0.	-81.72
2148	8.2768	3.0909	0.	-82.512
2149	8.2768	2.9091	0.	-82.512
2150	8.2768	2.7273	0.	-81.72
2151	8.2768	2.5455	0.	-80.143
2152	8.2768	2.3636	0.	-77.794
2153	8.2768	2.1818	0.	-74.692
2154	8.2768	2.	0.	-70.861
2155	8.2768	1.8182	0.	-66.332
2156	8.2768	1.6364	0.	-61.142
2157	8.2768	1.4545	0.	-55.331
2158	8.2768	1.2727	0.	-48.945
2159	8.2768	1.0909	0.	-42.034
2160	8.2768	0.90909	0.	-34.652
2161	8.2768	0.72727	0.	-26.855
2162	8.2768	0.54545	0.	-18.701
2163	8.2768	0.36364	0.	-10.196
2164	8.2768	0.18182	0.	-1.0356
2165	8.0929	5.8182	0.	-2.0106
2166	8.0929	5.6364	0.	-12.015
2167	8.0929	5.4545	0.	-21.249
2168	8.0929	5.2727	0.	-30.11
2169	8.0929	5.0909	0.	-38.586
2170	8.0929	4.9091	0.	-46.613
2171	8.0929	4.7273	0.	-54.13
2172	8.0929	4.5455	0.	-61.077
2173	8.0929	4.3636	0.	-67.401
2174	8.0929	4.1818	0.	-73.05
2175	8.0929	4.	0.	-77.98
2176	8.0929	3.8182	0.	-82.152
2177	8.0929	3.6364	0.	-85.53
2178	8.0929	3.4545	0.	-88.089
2179	8.0929	3.2727	0.	-89.806
2180	8.0929	3.0909	0.	-90.669
2181	8.0929	2.9091	0.	-90.669
2182	8.0929	2.7273	0.	-89.806
2183	8.0929	2.5455	0.	-88.089
2184	8.0929	2.3636	0.	-85.53
2185	8.0929	2.1818	0.	-82.152
2186	8.0929	2.	0.	-77.98
2187	8.0929	1.8182	0.	-73.05
2188	8.0929	1.6364	0.	-67.401
2189	8.0929	1.4545	0.	-61.077
2190	8.0929	1.2727	0.	-54.13
2191	8.0929	1.0909	0.	-46.613
2192	8.0929	0.90909	0.	-38.586
2193	8.0929	0.72727	0.	-30.11
2194	8.0929	0.54545	0.	-21.249
2195	8.0929	0.36364	0.	-12.015
2196	8.0929	0.18182	0.	-2.0106
2197	7.9089	5.8182	0.	-3.1364
2198	7.9089	5.6364	0.	-13.961
2199	7.9089	5.4545	0.	-23.985
2200	7.9089	5.2727	0.	-33.612
2201	7.9089	5.0909	0.	-42.824
2202	7.9089	4.9091	0.	-51.551
2203	7.9089	4.7273	0.	-59.725
2204	7.9089	4.5455	0.	-67.282
2205	7.9089	4.3636	0.	-74.162
2206	7.9089	4.1818	0.	-80.311
2207	7.9089	4.	0.	-85.677
2208	7.9089	3.8182	0.	-90.218
2209	7.9089	3.6364	0.	-93.897
2210	7.9089	3.4545	0.	-96.683
2211	7.9089	3.2727	0.	-98.554
2212	7.9089	3.0909	0.	-99.493
2213	7.9089	2.9091	0.	-99.493
2214	7.9089	2.7273	0.	-98.554
2215	7.9089	2.5455	0.	-96.683
2216	7.9089	2.3636	0.	-93.897
2217	7.9089	2.1818	0.	-90.218
2218	7.9089	2.	0.	-85.677
2219	7.9089	1.8182	0.	-80.311
2220	7.9089	1.6364	0.	-74.162
2221	7.9089	1.4545	0.	-67.282
2222	7.9089	1.2727	0.	-59.725
2223	7.9089	1.0909	0.	-51.551
2224	7.9089	0.90909	0.	-42.824
2225	7.9089	0.72727	0.	-33.612
2226	7.9089	0.54545	0.	-23.985
2227	7.9089	0.36364	0.	-13.961
2228	7.9089	0.18182	0.	-3.1364
2229	7.725	5.8182	0.	-4.3586
2230	7.725	5.6364	0.	-16.043
2231	7.725	5.4545	0.	-26.923
2232	7.725	5.2727	0.	-37.38
2233	7.725	5.0909	0.	-47.39
2234	7.725	4.9091	0.	-56.876
2235	7.725	4.7273	0.	-65.764
2236	7.725	4.5455	0.	-73.983
2237	7.725	4.3636	0.	-81.468
2238	7.725	4.1818	0.	-88.158
2239	7.725	4.	0.	-93.999
2240	7.725	3.8182	0.	-98.943
2241	7.725	3.6364	0.	-102.95
2242	7.725	3.4545	0.	-105.98
2243	7.725	3.2727	0.	-108.02
2244	7.725	3.0909	0.	-109.04
2245	7.725	2.9091	0.	-109.04
2246	7.725	2.7273	0.	-108.02
2247	7.725	2.5455	0.	-105.98
2248	7.725	2.3636	0.	-102.95
2249	7.725	2.1818	0.	-98.943
2250	7.725	2.	0.	-93.999
2251	7.725	1.8182	0.	-88.158
2252	7.725	1.6364	0.	-81.468
2253	7.725	1.4545	0.	-73.983
2254	7.725	1.2727	0.	-65.764
2255	7.725	1.0909	0.	-56.876
2256	7.725	0.90909	0.	-47.39
2257	7.725	0.72727	0.	-37.38
2258	7.725	0.54545	0.	-26.923
2259	7.725	0.36364	0.	-16.043
2260	7.725	0.18182	0.	-4.3586
2261	7.5411	5.8182	0.	-5.6648
2262	7.5411	5.6364	0.	-18.27
2263	7.5411	5.4545	0.	-30.077
2264	7.5411	5.2727	0.	-41.434
2265	7.5411	5.0909	0.	-52.31
2266	7.5411	4.9091	0.	-62.619
2267	7.5411	4.7273	0.	-72.282
2268	7.5411	4.5455	0.	-81.22
2269	7.5411	4.3636	0.	-89.362
2270	7.5411	4.1818	0.	-96.641
2271	7.5411	4.	0.	-103.
2272	7.5411	3.8182	0.	-108.38
2273	7.5411	3.6364	0.	-112.74
2274	7.5411	3.4545	0.	-116.04
2275	7.5411	3.2727	0.	-118.26
2276	7.5411	3.0909	0.	-119.38
2277	7.5411	2.9091	0.	-119.38
2278	7.5411	2.7273	0.	-118.26
2279	7.5411	2.5455	0.	-116.04
2280	7.5411	2.3636	0.	-112.74
2281	7.5411	2.1818	0.	-108.38
2282	7.5411	2.	0.	-103.
2283	7.5411	1.8182	0.	-96.641
2284	7.5411	1.6364	0.	-89.362
2285	7.5411	1.4545	0.	-81.22
2286	7.5411	1.2727	0.	-72.282
2287	7.5411	1.0909	0.	-62.619
2288	7.5411	0.90909	0.	-52.31
2289	7.5411	0.72727	0.	-41.434
2290	7.5411	0.54545	0.	-30.077
2291	7.5411	0.36364	0.	-18.27
2292	7.5411	0.18182	0.	-5.6648
2293	7.3571	5.8182	0.	-7.0524
2294	7.3571	5.6364	0.	-20.65
2295	7.3571	5.4545	0.	-33.462
2296	7.3571	5.2727	0.	-45.794
2297	7.3571	5.0909	0.	-57.609
2298	7.3571	4.9091	0.	-68.813
2299	7.3571	4.7273	0.	-79.317
2300	7.3571	4.5455	0.	-89.036
2301	7.3571	4.3636	0.	-97.893
2302	7.3571	4.1818	0.	-105.81
2303	7.3571	4.	0.	-112.73
2304	7.3571	3.8182	0.	-118.59
2305	7.3571	3.6364	0.	-123.34
2306	7.3571	3.4545	0.	-126.94
2307	7.3571	3.2727	0.	-129.35
2308	7.3571	3.0909	0.	-130.56
2309	7.3571	2.9091	0.	-130.56
2310	7.3571	2.7273	0.	-129.35
2311	7.3571	2.5455	0.	-126.94
2312	7.3571	2.3636	0.	-123.34
2313	7.3571	2.1818	0.	-118.59
2314	7.3571	2.	0.	-112.73
2315	7.3571	1.8182	0.	-105.81
2316	7.3571	1.6364	0.	-97.893
2317	7.3571	1.4545	0.	-89.036
2318	7.3571	1.2727	0.	-79.317
2319	7.3571	1.0909	0.	-68.813
2320	7.3571	0.90909	0.	-57.609
2321	7.3571	0.72727	0.	-45.794
2322	7.3571	0.54545	0.	-33.462
2323	7.3571	0.36364	0.	-20.65
2324	7.3571	0.18182	0.	-7.0524
2325	7.1732	5.8182	0.	-8.5215
2326	7.1732	5.6364	0.	-23.195
2327	7.1732	5.4545	0.	-37.095
2328	7.1732	5.2727	0.	-50.485
2329	7.1732	5.0909	0.	-63.318
2330	7.1732	4.9091	0.	-75.492
2331	7.1732	4.7273	0.	-86.91
2332	7.1732	4.5455	0.	-97.479
2333	7.1732	4.3636	0.	-107.11
2334	7.1732	4.1818	0.	-115.73
2335	7.1732	4.	0.	-123.26
2336	7.1732	3.8182	0.	-129.64
2337	7.1732	3.6364	0.	-134.81
2338	7.1732	3.4545	0.	-138.73
2339	7.1732	3.2727	0.	-141.36
2340	7.1732	3.0909	0.	-142.68
2341	7.1732	2.9091	0.	-142.68
2342	7.1732	2.7273	0.	-141.36
2343	7.1732	2.5455	0.	-138.73
2344	7.1732	2.3636	0.	-134.81
2345	7.1732	2.1818	0.	-129.64
2346	7.1732	2.	0.	-123.26
2347	7.1732	1.8182	0.	-115.73
2348	7.1732	1.6364	0.	-107.11
2349	7.1732	1.4545	0.	-97.479
2350	7.1732	1.2727	0.	-86.91
2351	7.1732	1.0909	0.	-75.492
2352	7.1732	0.90909	0.	-63.318
2353	7.1732	0.72727	0.	-50.485
2354	7.1732	0.54545	0.	-37.095
2355	7.1732	0.36364	0.	-23.195
2356	7.1732	0.18182	0.	-8.5215
2357	6.9893	5.8182	0.	-10.073
2358	6.9893	5.6364	0.	-25.912
2359	6.9893	5.4545	0.	-40.991
2360	6.9893	5.2727	0.	-55.528
2361	6.9893	5.0909	0.	-69.466
2362	6.9893	4.9091	0.	-82.693
2363	6.9893	4.7273	0.	-95.104
2364	6.9893	4.5455	0.	-106.6
2365	6.9893	4.3636	0.	-117.08
2366	6.9893	4.1818	0.	-126.45
2367	6.9893	4.	0.	-134.65
2368	6.9893	3.8182	0.	-141.59
2369	6.9893	3.6364	0.	-147.22
2370	6.9893	3.4545	0.	-151.49
2371	6.9893	3.2727	0.	-154.36
2372	6.9893	3.0909	0.	-155.8
2373	6.9893	2.9091	0.	-155.8
2374	6.9893	2.7273	0.	-154.36
2375	6.9893	2.5455	0.	-151.49
2376	6.9893	2.3636	0.	-147.22
2377	6.9893	2.1818	0.	-141.59
2378	6.9893	2.	0.	-134.65
2379	6.9893	1.8182	0.	-126.45
2380	6.9893	1.6364	0.	-117.08
2381	6.9893	1.4545	0.	-106.6
2382	6.9893	1.2727	0.	-95.104
2383	6.9893	1.0909	0.	-82.694
2384	6.9893	0.90909	0.	-69.466
2385	6.9893	0.72727	0.	-55.528
2386	6.9893	0.54545	0.	-40.991
2387	6.9893	0.36364	0.	-25.912
2388	6.9893	0.18182	0.	-10.073
2389	6.8054	5.8182	0.	-11.709
2390	6.8054	5.6364	0.	-28.812
2391	6.8054	5.4545	0.	-45.169
2392	6.8054	5.2727	0.	-60.949
2393	6.8054	5.0909	0.	-76.086
2394	6.8054	4.9091	0.	-90.458
2395	6.8054	4.7273	0.	-103.95
2396	6.8054	4.5455	0.	-116.45
2397	6.8054	4.3636	0.	-127.85
2398	6.8054	4.1818	0.	-138.05
2399	6.8054	4.	0.	-146.97
2400	6.8054	3.8182	0.	-154.53
2401	6.8054	3.6364	0.	-160.66
2402	6.8054	3.4545	0.	-165.31
2403	6.8054	3.2727	0.	-168.43
2404	6.8054	3.0909	0.	-170.
2405	6.8054	2.9091	0.	-170.
2406	6.8054	2.7273	0.	-168.43
2407	6.8054	2.5455	0.	-165.31
2408	6.8054	2.3636	0.	-160.66
2409	6.8054	2.1818	0.	-154.53
2410	6.8054	2.	0.	-146.97
2411	6.8054	1.8182	0.	-138.05
2412	6.8054	1.6364	0.	-127.85
2413	6.8054	1.4545	0.	-116.45
2414	6.8054	1.2727	0.	-103.95
2415	6.8054	1.0909	0.	-90.458
2416	6.8054	0.90909	0.	-76.086
2417	6.8054	0.72727	0.	-60.949
2418	6.8054	0.54545	0.	-45.169
2419	6.8054	0.36364	0.	-28.812
2420	6.8054	0.18182	0.	-11.709
2421	6.6214	5.8182	0.	-13.43
2422	6.6214	5.6364	0.	-31.905
2423	6.6214	5.4545	0.	-49.647
2424	6.6214	5.2727	0.	-66.774
2425	6.6214	5.0909	0.	-83.212
2426	6.6214	4.9091	0.	-98.827
2427	6.6214	4.7273	0.	-113.49
2428	6.6214	4.5455	0.	-127.08
2429	6.6214	4.3636	0.	-139.48
2430	6.6214	4.1818	0.	-150.59
2431	6.6214	4.	0.	-160.3
2432	6.6214	3.8182	0.	-168.54
2433	6.6214	3.6364	0.	-175.21
2434	6.6214	3.4545	0.	-180.28
2435	6.6214	3.2727	0.	-183.68
2436	6.6214	3.0909	0.	-185.39
2437	6.6214	2.9091	0.	-185.39
2438	6.6214	2.7273	0.	-183.68
2439	6.6214	2.5455	0.	-180.28
2440	6.6214	2.3636	0.	-175.21
2441	6.6214	2.1818	0.	-168.54
2442	6.6214	2.	0.	-160.3
2443	6.6214	1.8182	0.	-150.59
2444	6.6214	1.6364	0.	-139.48
2445	6.6214	1.4545	0.	-127.08
2446	6.6214	1.2727	0.	-113.49
2447	6.6214	1.0909	0.	-98.827
2448	6.6214	0.90909	0.	-83.212
2449	6.6214	0.72727	0.	-66.774
2450	6.6214	0.54545	0.	-49.647
2451	6.6214	0.36364	0.	-31.905
2452	6.6214	0.18182	0.	-13.43
2453	6.4375	5.8182	0.	-15.236
2454	6.4375	5.6364	0.	-35.2
2455	6.4375	5.4545	0.	-54.443
2456	6.4375	5.2727	0.	-73.031
2457	6.4375	5.0909	0.	-90.881
2458	6.4375	4.9091	0.	-107.85
2459	6.4375	4.7273	0.	-123.79
2460	6.4375	4.5455	0.	-138.57
2461	6.4375	4.3636	0.	-152.06
2462	6.4375	4.1818	0.	-164.15
2463	6.4375	4.	0.	-174.72
2464	6.4375	3.8182	0.	-183.69
2465	6.4375	3.6364	0.	-190.97
2466	6.4375	3.4545	0.	-196.49
2467	6.4375	3.2727	0.	-200.19
2468	6.4375	3.0909	0.	-202.06
2469	6.4375	2.9091	0.	-202.06
2470	6.4375	2.7273	0.	-200.19
2471	6.4375	2.5455	0.	-196.49
2472	6.4375	2.3636	0.	-190.97
2473	6.4375	2.1818	0.	-183.69
2474	6.4375	2.	0.	-174.72
2475	6.4375	1.8182	0.	-164.15
2476	6.4375	1.6364	0.	-152.06
2477	6.4375	1.4545	0.	-138.57
2478	6.4375	1.2727	0.	-123.79
2479	6.4375	1.0909	0.	-107.85
2480	6.4375	0.90909	0.	-90.881
2481	6.4375	0.72727	0.	-73.031
2482	6.4375	0.54545	0.	-54.443
2483	6.4375	0.36364	0.	-35.2
2484	6.4375	0.18182	0.	-15.236
2485	6.2536	5.8182	0.	-17.126
2486	6.2536	5.6364	0.	-38.708
2487	6.2536	5.4545	0.	-59.575
2488	6.2536	5.2727	0.	-79.748
2489	6.2536	5.0909	0.	-99.131
2490	6.2536	4.9091	0.	-117.56
2491	6.2536	4.7273	0.	-134.89
2492	6.2536	4.5455	0.	-150.97
2493	6.2536	4.3636	0.	-165.65
2494	6.2536	4.1818	0.	-178.81
2495	6.2536	4.	0.	-190.33
2496	6.2536	3.8182	0.	-200.09
2497	6.2536	3.6364	0.	-208.02
2498	6.2536	3.4545	0.	-214.04
2499	6.2536	3.2727	0.	-218.08
2500	6.2536	3.0909	0.	-220.11
2501	6.2536	2.9091	0.	-220.11
2502	6.2536	2.7273	0.	-218.08
2503	6.2536	2.5455	0.	-214.04
2504	6.2536	2.3636	0.	-208.02
2505	6.2536	2.1818	0.	-200.09
2506	6.2536	2.	0.	-190.33
2507	6.2536	1.8182	0.	-178.81
2508	6.2536	1.6364	0.	-165.65
2509	6.2536	1.4545	0.	-150.97
2510	6.2536	1.2727	0.	-134.89
2511	6.2536	1.0909	0.	-117.56
2512	6.2536	0.90909	0.	-99.131
2513	6.2536	0.72727	0.	-79.748
2514	6.2536	0.54545	0.	-59.575
2515	6.2536	0.36364	0.	-38.708
2516	6.2536	0.18182	0.	-17.126
2517	6.0696	5.8182	0.	-19.098
2518	6.0696	5.6364	0.	-42.437
2519	6.0696	5.4545	0.	-65.065
2520	6.0696	5.2727	0.	-86.956
2521	6.0696	5.0909	0.	-108.
2522	6.0696	4.9091	0.	-128.03
2523	6.0696	4.7273	0.	-146.87
2524	6.0696	4.5455	0.	-164.35
2525	6.0696	4.3636	0.	-180.33
2526	6.0696	4.1818	0.	-194.66
2527	6.0696	4.	0.	-207.2
2528	6.0696	3.8182	0.	-217.85
2529	6.0696	3.6364	0.	-226.49
2530	6.0696	3.4545	0.	-233.05
2531	6.0696	3.2727	0.	-237.45
2532	6.0696	3.0909	0.	-239.67
2533	6.0696	2.9091	0.	-239.67
2534	6.0696	2.7273	0.	-237.45
2535	6.0696	2.5455	0.	-233.05
2536	6.0696	2.3636	0.	-226.49
2537	6.0696	2.1818	0.	-217.85
2538	6.0696	2.	0.	-207.2
2539	6.0696	1.8182	0.	-194.66
2540	6.0696	1.6364	0.	-180.33
2541	6.0696	1.4545	0.	-164.35
2542	6.0696	1.2727	0.	-146.87
2543	6.0696	1.0909	0.	-128.03
2544	6.0696	0.90909	0.	-108.
2545	6.0696	0.72727	0.	-86.956
2546	6.0696	0.54545	0.	-65.065
2547	6.0696	0.36364	0.	-42.437
2548	6.0696	0.18182	0.	-19.098
2549	5.8857	5.8182	0.	-21.151
2550	5.8857	5.6364	0.	-46.397
2551	5.8857	5.4545	0.	-70.932
2552	5.8857	5.2727	0.	-94.686
2553	5.8857	5.0909	0.	-117.54
2554	5.8857	4.9091	0.	-139.3
2555	5.8857	4.7273	0.	-159.78
2556	5.8857	4.5455	0.	-178.8
2557	5.8857	4.3636	0.	-196.19
2558	5.8857	4.1818	0.	-211.79
2559	5.8857	4.	0.	-225.46
2560	5.8857	3.8182	0.	-237.06
2561	5.8857	3.6364	0.	-246.48
2562	5.8857	3.4545	0.	-253.63
2563	5.8857	3.2727	0.	-258.44
2564	5.8857	3.0909	0.	-260.85
2565	5.8857	2.9091	0.	-260.85
2566	5.8857	2.7273	0.	-258.44
2567	5.8857	2.5455	0.	-253.63
2568	5.8857	2.3636	0.	-246.48
2569	5.8857	2.1818	0.	-237.06
2570	5.8857	2.	0.	-225.46
2571	5.8857	1.8182	0.	-211.79
2572	5.8857	1.6364	0.	-196.19
2573	5.8857	1.4545	0.	-178.8
2574	5.8857	1.2727	0.	-159.78
2575	5.8857	1.0909	0.	-139.3
2576	5.8857	0.90909	0.	-117.54
2577	5.8857	0.72727	0.	-94.686
2578	5.8857	0.54545	0.	-70.932
2579	5.8857	0.36364	0.	-46.397
2580	5.8857	0.18182	0.	-21.151
2581	5.7018	5.8182	0.	-23.278
2582	5.7018	5.6364	0.	-50.596
2583	5.7018	5.4545	0.	-77.196
2584	5.7018	5.2727	0.	-102.97
2585	5.7018	5.0909	0.	-127.78
2586	5.7018	4.9091	0.	-151.43
2587	5.7018	4.7273	0.	-173.69
2588	5.7018	4.5455	0.	-194.39
2589	5.7018	4.3636	0.	-213.32
2590	5.7018	4.1818	0.	-230.32
2591	5.7018	4.	0.	-245.21
2592	5.7018	3.8182	0.	-257.86
2593	5.7018	3.6364	0.	-268.13
2594	5.7018	3.4545	0.	-275.93
2595	5.7018	3.2727	0.	-281.17
2596	5.7018	3.0909	0.	-283.81
2597	5.7018	2.9091	0.	-283.81
2598	5.7018	2.7273	0.	-281.17
2599	5.7018	2.5455	0.	-275.93
2600	5.7018	2.3636	0.	-268.13
2601	5.7018	2.1818	0.	-257.86
2602	5.7018	2.	0.	-245.21
2603	5.7018	1.8182	0.	-230.32
2604	5.7018	1.6364	0.	-213.32
2605	5.7018	1.4545	0.	-194.39
2606	5.7018	1.2727	0.	-173.69
2607	5.7018	1.0909	0.	-151.43
2608	5.7018	0.90909	0.	-127.78
2609	5.7018	0.72727	0.	-102.97
2610	5.7018	0.54545	0.	-77.196
2611	5.7018	0.36364	0.	-50.596
2612	5.7018	0.18182	0.	-23.278
2613	5.5179	5.8182	0.	-25.473
2614	5.5179	5.6364	0.	-55.041
2615	5.5179	5.4545	0.	-83.878
2616	5.5179	5.2727	0.	-111.84
2617	5.5179	5.0909	0.	-138.79
2618	5.5179	4.9091	0.	-164.48
2619	5.5179	4.7273	0.	-188.69
2620	5.5179	4.5455	0.	-211.21
2621	5.5179	4.3636	0.	-231.83
2622	5.5179	4.1818	0.	-250.34
2623	5.5179	4.	0.	-266.57
2624	5.5179	3.8182	0.	-280.36
2625	5.5179	3.6364	0.	-291.56
2626	5.5179	3.4545	0.	-300.07
2627	5.5179	3.2727	0.	-305.79
2628	5.5179	3.0909	0.	-308.67
2629	5.5179	2.9091	0.	-308.67
2630	5.5179	2.7273	0.	-305.79
2631	5.5179	2.5455	0.	-300.07
2632	5.5179	2.3636	0.	-291.56
2633	5.5179	2.1818	0.	-280.36
2634	5.5179	2.	0.	-266.57
2635	5.5179	1.8182	0.	-250.34
2636	5.5179	1.6364	0.	-231.83
2637	5.5179	1.4545	0.	-211.21
2638	5.5179	1.2727	0.	-188.69
2639	5.5179	1.0909	0.	-164.48
2640	5.5179	0.90909	0.	-138.79
2641	5.5179	0.72727	0.	-111.84
2642	5.5179	0.54545	0.	-83.878
2643	5.5179	0.36364	0.	-55.041
2644	5.5179	0.18182	0.	-25.473
2645	5.3339	5.8182	0.	-27.727
2646	5.3339	5.6364	0.	-59.738
2647	5.3339	5.4545	0.	-90.997
2648	5.3339	5.2727	0.	-121.34
2649	5.3339	5.0909	0.	-150.59
2650	5.3339	4.9091	0.	-178.51
2651	5.3339	4.7273	0.	-204.85
2652	5.3339	4.5455	0.	-229.36
2653	5.3339	4.3636	0.	-251.8
2654	5.3339	4.1818	0.	-271.98
2655	5.3339	4.	0.	-289.67
2656	5.3339	3.8182	0.	-304.71
2657	5.3339	3.6364	0.	-316.93
2658	5.3339	3.4545	0.	-326.21
2659	5.3339	3.2727	0.	-332.46
2660	5.3339	3.0909	0.	-335.59
2661	5.3339	2.9091	0.	-335.59
2662	5.3339	2.7273	0.	-332.46
2663	5.3339	2.5455	0.	-326.21
2664	5.3339	2.3636	0.	-316.93
2665	5.3339	2.1818	0.	-304.71
2666	5.3339	2.	0.	-289.67
2667	5.3339	1.8182	0.	-271.98
2668	5.3339	1.6364	0.	-251.8
2669	5.3339	1.4545	0.	-229.36
2670	5.3339	1.2727	0.	-204.85
2671	5.3339	1.0909	0.	-178.51
2672	5.3339	0.90909	0.	-150.59
2673	5.3339	0.72727	0.	-121.34
2674	5.3339	0.54545	0.	-90.997
2675	5.3339	0.36364	0.	-59.738
2676	5.3339	0.18182	0.	-27.727
2677	5.15	5.8182	0.	-30.028
2678	5.15	5.6364	0.	-64.692
2679	5.15	5.4545	0.	-98.574
2680	5.15	5.2727	0.	-131.49
2681	5.15	5.0909	0.	-163.26
2682	5.15	4.9091	0.	-193.6
2683	5.15	4.7273	0.	-222.25
2684	5.15	4.5455	0.	-248.92
2685	5.15	4.3636	0.	-273.37
2686	5.15	4.1818	0.	-295.36
2687	5.15	4.	0.	-314.65
2688	5.15	3.8182	0.	-331.05
2689	5.15	3.6364	0.	-344.39
2690	5.15	3.4545	0.	-354.52
2691	5.15	3.2727	0.	-361.33
2692	5.15	3.0909	0.	-364.76
2693	5.15	2.9091	0.	-364.76
2694	5.15	2.7273	0.	-361.33
2695	5.15	2.5455	0.	-354.52
2696	5.15	2.3636	0.	-344.39
2697	5.15	2.1818	0.	-331.05
2698	5.15	2.	0.	-314.65
2699	5.15	1.8182	0.	-295.36
2700	5.15	1.6364	0.	-273.37
2701	5.15	1.4545	0.	-248.92
2702	5.15	1.2727	0.	-222.25
2703	5.15	1.0909	0.	-193.6
2704	5.15	0.90909	0.	-163.26
2705	5.15	0.72727	0.	-131.49
2706	5.15	0.54545	0.	-98.574
2707	5.15	0.36364	0.	-64.692
2708	5.15	0.18182	0.	-30.028
2709	4.9661	5.8182	0.	-32.36
2710	4.9661	5.6364	0.	-69.906
2711	4.9661	5.4545	0.	-106.63
2712	4.9661	5.2727	0.	-142.34
2713	4.9661	5.0909	0.	-176.84
2714	4.9661	4.9091	0.	-209.82
2715	4.9661	4.7273	0.	-240.98
2716	4.9661	4.5455	0.	-270.02
2717	4.9661	4.3636	0.	-296.66
2718	4.9661	4.1818	0.	-320.62
2719	4.9661	4.	0.	-341.65
2720	4.9661	3.8182	0.	-359.55
2721	4.9661	3.6364	0.	-374.1
2722	4.9661	3.4545	0.	-385.16
2723	4.9661	3.2727	0.	-392.6
2724	4.9661	3.0909	0.	-396.34
2725	4.9661	2.9091	0.	-396.34
2726	4.9661	2.7273	0.	-392.6
2727	4.9661	2.5455	0.	-385.16
2728	4.9661	2.3636	0.	-374.1
2729	4.9661	2.1818	0.	-359.55
2730	4.9661	2.	0.	-341.65
2731	4.9661	1.8182	0.	-320.62
2732	4.9661	1.6364	0.	-296.66
2733	4.9661	1.4545	0.	-270.02
2734	4.9661	1.2727	0.	-240.98
2735	4.9661	1.0909	0.	-209.82
2736	4.9661	0.90909	0.	-176.84
2737	4.9661	0.72727	0.	-142.34
2738	4.9661	0.54545	0.	-106.63
2739	4.9661	0.36364	0.	-69.906
2740	4.9661	0.18182	0.	-32.36
2741	4.7821	5.8182	0.	-34.706
2742	4.7821	5.6364	0.	-75.382
2743	4.7821	5.4545	0.	-115.18
2744	4.7821	5.2727	0.	-153.92
2745	4.7821	5.0909	0.	-191.39
2746	4.7821	4.9091	0.	-227.25
2747	4.7821	4.7273	0.	-261.15
2748	4.7821	4.5455	0.	-292.77
2749	4.7821	4.3636	0.	-321.78
2750	4.7821	4.1818	0.	-347.9
2751	4.7821	4.	0.	-370.85
2752	4.7821	3.8182	0.	-390.37
2753	4.7821	3.6364	0.	-406.25
2754	4.7821	3.4545	0.	-418.32
2755	4.7821	3.2727	0.	-426.44
2756	4.7821	3.0909	0.	-430.52
2757	4.7821	2.9091	0.	-430.52
2758	4.7821	2.7273	0.	-426.44
2759	4.7821	2.5455	0.	-418.32
2760	4.7821	2.3636	0.	-406.25
2761	4.7821	2.1818	0.	-390.37
2762	4.7821	2.	0.	-370.85
2763	4.7821	1.8182	0.	-347.9
2764	4.7821	1.6364	0.	-321.78
2765	4.7821	1.4545	0.	-292.77
2766	4.7821	1.2727	0.	-261.15
2767	4.7821	1.0909	0.	-227.25
2768	4.7821	0.90909	0.	-191.39
2769	4.7821	0.72727	0.	-153.92
2770	4.7821	0.54545	0.	-115.18
2771	4.7821	0.36364	0.	-75.382
2772	4.7821	0.18182	0.	-34.706
2773	4.5982	5.8182	0.	-37.041
2774	4.5982	5.6364	0.	-81.117
2775	4.5982	5.4545	0.	-124.25
2776	4.5982	5.2727	0.	-166.28
2777	4.5982	5.0909	0.	-206.98
2778	4.5982	4.9091	0.	-245.96
2779	4.5982	4.7273	0.	-282.85
2780	4.5982	4.5455	0.	-317.28
2781	4.5982	4.3636	0.	-348.9
2782	4.5982	4.1818	0.	-377.38
2783	4.5982	4.	0.	-402.4
2784	4.5982	3.8182	0.	-423.7
2785	4.5982	3.6364	0.	-441.03
2786	4.5982	3.4545	0.	-454.2
2787	4.5982	3.2727	0.	-463.07
2788	4.5982	3.0909	0.	-467.52
2789	4.5982	2.9091	0.	-467.52
2790	4.5982	2.7273	0.	-463.07
2791	4.5982	2.5455	0.	-454.2
2792	4.5982	2.3636	0.	-441.03
2793	4.5982	2.1818	0.	-423.7
2794	4.5982	2.	0.	-402.4
2795	4.5982	1.8182	0.	-377.38
2796	4.5982	1.6364	0.	-348.9
2797	4.5982	1.4545	0.	-317.28
2798	4.5982	1.2727	0.	-282.85
2799	4.5982	1.0909	0.	-245.96
2800	4.5982	0.90909	0.	-206.98
2801	4.5982	0.72727	0.	-166.28
2802	4.5982	0.54545	0.	-124.25
2803	4.5982	0.36364	0.	-81.117
2804	4.5982	0.18182	0.	-37.041
2805	4.4143	5.8182	0.	-39.337
2806	4.4143	5.6364	0.	-87.108
2807	4.4143	5.4545	0.	-133.85
2808	4.4143	5.2727	0.	-179.46
2809	4.4143	5.0909	0.	-223.67
2810	4.4143	4.9091	0.	-266.05
2811	4.4143	4.7273	0.	-306.2
2812	4.4143	4.5455	0.	-343.7
2813	4.4143	4.3636	0.	-378.16
2814	4.4143	4.1818	0.	-409.2
2815	4.4143	4.	0.	-436.49
2816	4.4143	3.8182	0.	-459.73
2817	4.4143	3.6364	0.	-478.64
2818	4.4143	3.4545	0.	-493.01
2819	4.4143	3.2727	0.	-502.69
2820	4.4143	3.0909	0.	-507.55
2821	4.4143	2.9091	0.	-507.55
2822	4.4143	2.7273	0.	-502.69
2823	4.4143	2.5455	0.	-493.01
2824	4.4143	2.3636	0.	-478.64
2825	4.4143	2.1818	0.	-459.73
2826	4.4143	2.	0.	-436.49
2827	4.4143	1.8182	0.	-409.2
2828	4.4143	1.6364	0.	-378.16
2829	4.4143	1.4545	0.	-343.7
2830	4.4143	1.2727	0.	-306.2
2831	4.4143	1.0909	0.	-266.05
2832	4.4143	0.90909	0.	-223.67
2833	4.4143	0.72727	0.	-179.46
2834	4.4143	0.54545	0.	-133.85
2835	4.4143	0.36364	0.	-87.108
2836	4.4143	0.18182	0.	-39.337
2837	4.2304	5.8182	0.	-41.562
2838	4.2304	5.6364	0.	-93.35
2839	4.2304	5.4545	0.	-144.01
2840	4.2304	5.2727	0.	-193.5
2841	4.2304	5.0909	0.	-241.53
2842	4.2304	4.9091	0.	-287.62
2843	4.2304	4.7273	0.	-331.32
2844	4.2304	4.5455	0.	-372.17
2845	4.2304	4.3636	0.	-409.72
2846	4.2304	4.1818	0.	-443.57
2847	4.2304	4.	0.	-473.33
2848	4.2304	3.8182	0.	-498.67
2849	4.2304	3.6364	0.	-519.29
2850	4.2304	3.4545	0.	-534.97
2851	4.2304	3.2727	0.	-545.52
2852	4.2304	3.0909	0.	-550.83
2853	4.2304	2.9091	0.	-550.83
2854	4.2304	2.7273	0.	-545.52
2855	4.2304	2.5455	0.	-534.97
2856	4.2304	2.3636	0.	-519.29
2857	4.2304	2.1818	0.	-498.67
2858	4.2304	2.	0.	-473.33
2859	4.2304	1.8182	0.	-443.57
2860	4.2304	1.6364	0.	-409.72
2861	4.2304	1.4545	0.	-372.17
2862	4.2304	1.2727	0.	-331.32
2863	4.2304	1.0909	0.	-287.62
2864	4.2304	0.90909	0.	-241.53
2865	4.2304	0.72727	0.	-193.5
2866	4.2304	0.54545	0.	-144.01
2867	4.2304	0.36364	0.	-93.35
2868	4.2304	0.18182	0.	-41.562
2869	4.0464	5.8182	0.	-43.675
2870	4.0464	5.6364	0.	-99.832
2871	4.0464	5.4545	0.	-154.74
2872	4.0464	5.2727	0.	-208.45
2873	4.0464	5.0909	0.	-260.64
2874	4.0464	4.9091	0.	-310.79
2875	4.0464	4.7273	0.	-358.36
2876	4.0464	4.5455	0.	-402.86
2877	4.0464	4.3636	0.	-443.78
2878	4.0464	4.1818	0.	-480.68
2879	4.0464	4.	0.	-513.12
2880	4.0464	3.8182	0.	-540.74
2881	4.0464	3.6364	0.	-563.22
2882	4.0464	3.4545	0.	-580.31
2883	4.0464	3.2727	0.	-591.82
2884	4.0464	3.0909	0.	-597.6
2885	4.0464	2.9091	0.	-597.6
2886	4.0464	2.7273	0.	-591.82
2887	4.0464	2.5455	0.	-580.31
2888	4.0464	2.3636	0.	-563.22
2889	4.0464	2.1818	0.	-540.74
2890	4.0464	2.	0.	-513.12
2891	4.0464	1.8182	0.	-480.68
2892	4.0464	1.6364	0.	-443.78
2893	4.0464	1.4545	0.	-402.86
2894	4.0464	1.2727	0.	-358.36
2895	4.0464	1.0909	0.	-310.79
2896	4.0464	0.90909	0.	-260.64
2897	4.0464	0.72727	0.	-208.45
2898	4.0464	0.54545	0.	-154.74
2899	4.0464	0.36364	0.	-99.832
2900	4.0464	0.18182	0.	-43.675
2901	3.8625	5.8182	0.	-45.631
2902	3.8625	5.6364	0.	-106.54
2903	3.8625	5.4545	0.	-166.07
2904	3.8625	5.2727	0.	-224.38
2905	3.8625	5.0909	0.	-281.11
2906	3.8625	4.9091	0.	-335.66
2907	3.8625	4.7273	0.	-387.47
2908	3.8625	4.5455	0.	-435.94
2909	3.8625	4.3636	0.	-480.53
2910	3.8625	4.1818	0.	-520.74
2911	3.8625	4.	0.	-556.09
2912	3.8625	3.8182	0.	-586.18
2913	3.8625	3.6364	0.	-610.67
2914	3.8625	3.4545	0.	-629.28
2915	3.8625	3.2727	0.	-641.8
2916	3.8625	3.0909	0.	-648.1
2917	3.8625	2.9091	0.	-648.1
2918	3.8625	2.7273	0.	-641.8
2919	3.8625	2.5455	0.	-629.28
2920	3.8625	2.3636	0.	-610.67
2921	3.8625	2.1818	0.	-586.18
2922	3.8625	2.	0.	-556.09
2923	3.8625	1.8182	0.	-520.74
2924	3.8625	1.6364	0.	-480.53
2925	3.8625	1.4545	0.	-435.94
2926	3.8625	1.2727	0.	-387.47
2927	3.8625	1.0909	0.	-335.66
2928	3.8625	0.90909	0.	-281.11
2929	3.8625	0.72727	0.	-224.38
2930	3.8625	0.54545	0.	-166.07
2931	3.8625	0.36364	0.	-106.54
2932	3.8625	0.18182	0.	-45.631
2933	3.6786	5.8182	0.	-47.375
2934	3.6786	5.6364	0.	-113.47
2935	3.6786	5.4545	0.	-178.02
2936	3.6786	5.2727	0.	-241.34
2937	3.6786	5.0909	0.	-303.02
2938	3.6786	4.9091	0.	-362.4
2939	3.6786	4.7273	0.	-418.81
2940	3.6786	4.5455	0.	-471.62
2941	3.6786	4.3636	0.	-520.2
2942	3.6786	4.1818	0.	-563.99
2943	3.6786	4.	0.	-602.48
2944	3.6786	3.8182	0.	-635.23
2945	3.6786	3.6364	0.	-661.87
2946	3.6786	3.4545	0.	-682.11
2947	3.6786	3.2727	0.	-695.73
2948	3.6786	3.0909	0.	-702.57
2949	3.6786	2.9091	0.	-702.57
2950	3.6786	2.7273	0.	-695.73
2951	3.6786	2.5455	0.	-682.11
2952	3.6786	2.3636	0.	-661.87
2953	3.6786	2.1818	0.	-635.23
2954	3.6786	2.	0.	-602.48
2955	3.6786	1.8182	0.	-563.99
2956	3.6786	1.6364	0.	-520.2
2957	3.6786	1.4545	0.	-471.62
2958	3.6786	1.2727	0.	-418.81
2959	3.6786	1.0909	0.	-362.4
2960	3.6786	0.90909	0.	-303.02
2961	3.6786	0.72727	0.	-241.34
2962	3.6786	0.54545	0.	-178.02
2963	3.6786	0.36364	0.	-113.47
2964	3.6786	0.18182	0.	-47.375
2965	3.4946	5.8182	0.	-48.847
2966	3.4946	5.6364	0.	-120.6
2967	3.4946	5.4545	0.	-190.62
2968	3.4946	5.2727	0.	-259.41
2969	3.4946	5.0909	0.	-326.5
2970	3.4946	4.9091	0.	-391.15
2971	3.4946	4.7273	0.	-452.6
2972	3.4946	4.5455	0.	-510.12
2973	3.4946	4.3636	0.	-563.03
2974	3.4946	4.1818	0.	-610.69
2975	3.4946	4.	0.	-652.56
2976	3.4946	3.8182	0.	-688.16
2977	3.4946	3.6364	0.	-717.09
2978	3.4946	3.4545	0.	-739.06
2979	3.4946	3.2727	0.	-753.83
2980	3.4946	3.0909	0.	-761.25
2981	3.4946	2.9091	0.	-761.25
2982	3.4946	2.7273	0.	-753.83
2983	3.4946	2.5455	0.	-739.06
2984	3.4946	2.3636	0.	-717.09
2985	3.4946	2.1818	0.	-688.16
2986	3.4946	2.	0.	-652.56
2987	3.4946	1.8182	0.	-610.69
2988	3.4946	1.6364	0.	-563.03
2989	3.4946	1.4545	0.	-510.12
2990	3.4946	1.2727	0.	-452.6
2991	3.4946	1.0909	0.	-391.15
2992	3.4946	0.90909	0.	-326.5
2993	3.4946	0.72727	0.	-259.41
2994	3.4946	0.54545	0.	-190.62
2995	3.4946	0.36364	0.	-120.6
2996	3.4946	0.18182	0.	-48.847
2997	3.3107	5.8182	0.	-49.976
2998	3.3107	5.6364	0.	-127.91
2999	3.3107	5.4545	0.	-203.91
3000	3.3107	5.2727	0.	-278.68
3001	3.3107	5.0909	0.	-351.72
3002	3.3107	4.9091	0.	-422.13
3003	3.3107	4.7273	0.	-489.07
3004	3.3107	4.5455	0.	-551.72
3005	3.3107	4.3636	0.	-609.3
3006	3.3107	4.1818	0.	-661.13
3007	3.3107	4.	0.	-706.6
3008	3.3107	3.8182	0.	-745.23
3009	3.3107	3.6364	0.	-776.59
3010	3.3107	3.4545	0.	-800.37
3011	3.3107	3.2727	0.	-816.36
3012	3.3107	3.0909	0.	-824.38
3013	3.3107	2.9091	0.	-824.38
3014	3.3107	2.7273	0.	-816.36
3015	3.3107	2.5455	0.	-800.37
3016	3.3107	2.3636	0.	-776.59
3017	3.3107	2.1818	0.	-745.23
3018	3.3107	2.	0.	-706.6
3019	3.3107	1.8182	0.	-661.13
3020	3.3107	1.6364	0.	-609.3
3021	3.3107	1.4545	0.	-551.72
3022	3.3107	1.2727	0.	-489.07
3023	3.3107	1.0909	0.	-422.13
3024	3.3107	0.90909	0.	-351.72
3025	3.3107	0.72727	0.	-278.68
3026	3.3107	0.54545	0.	-203.91
3027	3.3107	0.36364	0.	-127.91
3028	3.3107	0.18182	0.	-49.976
3029	3.1268	5.8182	0.	-50.685
3030	3.1268	5.6364	0.	-135.39
3031	3.1268	5.4545	0.	-217.94
3032	3.1268	5.2727	0.	-299.29
3033	3.1268	5.0909	0.	-378.84
3034	3.1268	4.9091	0.	-455.58
3035	3.1268	4.7273	0.	-528.52
3036	3.1268	4.5455	0.	-596.72
3037	3.1268	4.3636	0.	-659.34
3038	3.1268	4.1818	0.	-715.62
3039	3.1268	4.	0.	-764.92
3040	3.1268	3.8182	0.	-806.72
3041	3.1268	3.6364	0.	-840.62
3042	3.1268	3.4545	0.	-866.29
3043	3.1268	3.2727	0.	-883.52
3044	3.1268	3.0909	0.	-892.17
3045	3.1268	2.9091	0.	-892.17
3046	3.1268	2.7273	0.	-883.52
3047	3.1268	2.5455	0.	-866.29
3048	3.1268	2.3636	0.	-840.62
3049	3.1268	2.1818	0.	-806.72
3050	3.1268	2.	0.	-764.92
3051	3.1268	1.8182	0.	-715.62
3052	3.1268	1.6364	0.	-659.34
3053	3.1268	1.4545	0.	-596.72
3054	3.1268	1.2727	0.	-528.52
3055	3.1268	1.0909	0.	-455.58
3056	3.1268	0.90909	0.	-378.84
3057	3.1268	0.72727	0.	-299.29
3058	3.1268	0.54545	0.	-217.94
3059	3.1268	0.36364	0.	-135.39
3060	3.1268	0.18182	0.	-50.685
3061	2.9429	5.8182	0.	-50.886
3062	2.9429	5.6364	0.	-143.03
3063	2.9429	5.4545	0.	-232.78
3064	2.9429	5.2727	0.	-321.4
3065	2.9429	5.0909	0.	-408.13
3066	2.9429	4.9091	0.	-491.8
3067	2.9429	4.7273	0.	-571.28
3068	2.9429	4.5455	0.	-645.5
3069	2.9429	4.3636	0.	-713.52
3070	2.9429	4.1818	0.	-774.52
3071	2.9429	4.	0.	-827.83
3072	2.9429	3.8182	0.	-872.94
3073	2.9429	3.6364	0.	-909.43
3074	2.9429	3.4545	0.	-937.02
3075	2.9429	3.2727	0.	-955.51
3076	2.9429	3.0909	0.	-964.79
3077	2.9429	2.9091	0.	-964.79
3078	2.9429	2.7273	0.	-955.51
3079	2.9429	2.5455	0.	-937.02
3080	2.9429	2.3636	0.	-909.43
3081	2.9429	2.1818	0.	-872.94
3082	2.9429	2.	0.	-827.83
3083	2.9429	1.8182	0.	-774.52
3084	2.9429	1.6364	0.	-713.52
3085	2.9429	1.4545	0.	-645.5
3086	2.9429	1.2727	0.	-571.28
3087	2.9429	1.0909	0.	-491.8
3088	2.9429	0.90909	0.	-408.13
3089	2.9429	0.72727	0.	-321.4
3090	2.9429	0.54545	0.	-232.78
3091	2.9429	0.36364	0.	-143.03
3092	2.9429	0.18182	0.	-50.886
3093	2.7589	5.8182	0.	-50.485
3094	2.7589	5.6364	0.	-150.83
3095	2.7589	5.4545	0.	-248.56
3096	2.7589	5.2727	0.	-345.21
3097	2.7589	5.0909	0.	-439.88
3098	2.7589	4.9091	0.	-531.18
3099	2.7589	4.7273	0.	-617.79
3100	2.7589	4.5455	0.	-698.51
3101	2.7589	4.3636	0.	-772.27
3102	2.7589	4.1818	0.	-838.23
3103	2.7589	4.	0.	-895.69
3104	2.7589	3.8182	0.	-944.15
3105	2.7589	3.6364	0.	-983.25
3106	2.7589	3.4545	0.	-1012.8
3107	2.7589	3.2727	0.	-1032.5
3108	2.7589	3.0909	0.	-1042.4
3109	2.7589	2.9091	0.	-1042.4
3110	2.7589	2.7273	0.	-1032.5
3111	2.7589	2.5455	0.	-1012.8
3112	2.7589	2.3636	0.	-983.25
3113	2.7589	2.1818	0.	-944.15
3114	2.7589	2.	0.	-895.69
3115	2.7589	1.8182	0.	-838.23
3116	2.7589	1.6364	0.	-772.27
3117	2.7589	1.4545	0.	-698.51
3118	2.7589	1.2727	0.	-617.79
3119	2.7589	1.0909	0.	-531.18
3120	2.7589	0.90909	0.	-439.88
3121	2.7589	0.72727	0.	-345.21
3122	2.7589	0.54545	0.	-248.56
3123	2.7589	0.36364	0.	-150.83
3124	2.7589	0.18182	0.	-50.485
3125	2.575	5.8182	0.	-49.383
3126	2.575	5.6364	0.	-158.8
3127	2.575	5.4545	0.	-265.41
3128	2.575	5.2727	0.	-371.02
3129	2.575	5.0909	0.	-474.51
3130	2.575	4.9091	0.	-574.22
3131	2.575	4.7273	0.	-668.6
3132	2.575	4.5455	0.	-756.28
3133	2.575	4.3636	0.	-836.11
3134	2.575	4.1818	0.	-907.18
3135	2.575	4.	0.	-968.85
3136	2.575	3.8182	0.	-1020.7
3137	2.575	3.6364	0.	-1062.3
3138	2.575	3.4545	0.	-1093.6
3139	2.575	3.2727	0.	-1114.5
3140	2.575	3.0909	0.	-1125.
3141	2.575	2.9091	0.	-1125.
3142	2.575	2.7273	0.	-1114.5
3143	2.575	2.5455	0.	-1093.6
3144	2.575	2.3636	0.	-1062.3
3145	2.575	2.1818	0.	-1020.7
3146	2.575	2.	0.	-968.85
3147	2.575	1.8182	0.	-907.18
3148	2.575	1.6364	0.	-836.11
3149	2.575	1.4545	0.	-756.28
3150	2.575	1.2727	0.	-668.6
3151	2.575	1.0909	0.	-574.22
3152	2.575	0.90909	0.	-474.51
3153	2.575	0.72727	0.	-371.02
3154	2.575	0.54545	0.	-265.41
3155	2.575	0.36364	0.	-158.8
3156	2.575	0.18182	0.	-49.383
3157	2.3911	5.8182	0.	-47.481
3158	2.3911	5.6364	0.	-166.99
3159	2.3911	5.4545	0.	-283.57
3160	2.3911	5.2727	0.	-399.24
3161	2.3911	5.0909	0.	-512.57
3162	2.3911	4.9091	0.	-621.57
3163	2.3911	4.7273	0.	-724.39
3164	2.3911	4.5455	0.	-819.49
3165	2.3911	4.3636	0.	-905.62
3166	2.3911	4.1818	0.	-981.89
3167	2.3911	4.	0.	-1047.7
3168	2.3911	3.8182	0.	-1102.7
3169	2.3911	3.6364	0.	-1146.7
3170	2.3911	3.4545	0.	-1179.7
3171	2.3911	3.2727	0.	-1201.7
3172	2.3911	3.0909	0.	-1212.7
3173	2.3911	2.9091	0.	-1212.7
3174	2.3911	2.7273	0.	-1201.7
3175	2.3911	2.5455	0.	-1179.7
3176	2.3911	2.3636	0.	-1146.7
3177	2.3911	2.1818	0.	-1102.7
3178	2.3911	2.	0.	-1047.7
3179	2.3911	1.8182	0.	-981.89
3180	2.3911	1.6364	0.	-905.62
3181	2.3911	1.4545	0.	-819.49
3182	2.3911	1.2727	0.	-724.39
3183	2.3911	1.0909	0.	-621.57
3184	2.3911	0.90909	0.	-512.57
3185	2.3911	0.72727	0.	-399.24
3186	2.3911	0.54545	0.	-283.57
3187	2.3911	0.36364	0.	-166.99
3188	2.3911	0.18182	0.	-47.481
3189	2.2071	5.8182	0.	-44.694
3190	2.2071	5.6364	0.	-175.47
3191	2.2071	5.4545	0.	-303.37
3192	2.2071	5.2727	0.	-430.44
3193	2.2071	5.0909	0.	-554.83
3194	2.2071	4.9091	0.	-674.09
3195	2.2071	4.7273	0.	-786.05
3196	2.2071	4.5455	0.	-888.95
3197	2.2071	4.3636	0.	-981.52
3198	2.2071	4.1818	0.	-1062.9
3199	2.2071	4.	0.	-1132.6
3200	2.2071	3.8182	0.	-1190.5
3201	2.2071	3.6364	0.	-1236.6
3202	2.2071	3.4545	0.	-1271.
3203	2.2071	3.2727	0.	-1293.8
3204	2.2071	3.0909	0.	-1305.2
3205	2.2071	2.9091	0.	-1305.2
3206	2.2071	2.7273	0.	-1293.8
3207	2.2071	2.5455	0.	-1271.
3208	2.2071	2.3636	0.	-1236.6
3209	2.2071	2.1818	0.	-1190.5
3210	2.2071	2.	0.	-1132.6
3211	2.2071	1.8182	0.	-1062.9
3212	2.2071	1.6364	0.	-981.52
3213	2.2071	1.4545	0.	-888.95
3214	2.2071	1.2727	0.	-786.05
3215	2.2071	1.0909	0.	-674.09
3216	2.2071	0.90909	0.	-554.83
3217	2.2071	0.72727	0.	-430.44
3218	2.2071	0.54545	0.	-303.37
3219	2.2071	0.36364	0.	-175.47
3220	2.2071	0.18182	0.	-44.693
3221	2.0232	5.8182	0.	-40.969
3222	2.0232	5.6364	0.	-184.4
3223	2.0232	5.4545	0.	-325.29
3224	2.0232	5.2727	0.	-465.42
3225	2.0232	5.0909	0.	-602.32
3226	2.0232	4.9091	0.	-732.93
3227	2.0232	4.7273	0.	-854.69
3228	2.0232	4.5455	0.	-965.67
3229	2.0232	4.3636	0.	-1064.6
3230	2.0232	4.1818	0.	-1150.8
3231	2.0232	4.	0.	-1224.
3232	2.0232	3.8182	0.	-1284.3
3233	2.0232	3.6364	0.	-1332.
3234	2.0232	3.4545	0.	-1367.4
3235	2.0232	3.2727	0.	-1390.8
3236	2.0232	3.0909	0.	-1402.4
3237	2.0232	2.9091	0.	-1402.4
3238	2.0232	2.7273	0.	-1390.8
3239	2.0232	2.5455	0.	-1367.4
3240	2.0232	2.3636	0.	-1332.
3241	2.0232	2.1818	0.	-1284.3
3242	2.0232	2.	0.	-1224.
3243	2.0232	1.8182	0.	-1150.8
3244	2.0232	1.6364	0.	-1064.6
3245	2.0232	1.4545	0.	-965.67
3246	2.0232	1.2727	0.	-854.69
3247	2.0232	1.0909	0.	-732.93
3248	2.0232	0.90909	0.	-602.32
3249	2.0232	0.72727	0.	-465.42
3250	2.0232	0.54545	0.	-325.29
3251	2.0232	0.36364	0.	-184.4
3252	2.0232	0.18182	0.	-40.969
3253	1.8393	5.8182	0.	-36.349
3254	1.8393	5.6364	0.	-194.02
3255	1.8393	5.4545	0.	-350.09
3256	1.8393	5.2727	0.	-505.35
3257	1.8393	5.0909	0.	-656.46
3258	1.8393	4.9091	0.	-799.59
3259	1.8393	4.7273	0.	-931.73
3260	1.8393	4.5455	0.	-1050.8
3261	1.8393	4.3636	0.	-1155.7
3262	1.8393	4.1818	0.	-1246.1
3263	1.8393	4.	0.	-1322.1
3264	1.8393	3.8182	0.	-1384.
3265	1.8393	3.6364	0.	-1432.7
3266	1.8393	3.4545	0.	-1468.5
3267	1.8393	3.2727	0.	-1492.1
3268	1.8393	3.0909	0.	-1503.8
3269	1.8393	2.9091	0.	-1503.8
3270	1.8393	2.7273	0.	-1492.1
3271	1.8393	2.5455	0.	-1468.5
3272	1.8393	2.3636	0.	-1432.7
3273	1.8393	2.1818	0.	-1384.
3274	1.8393	2.	0.	-1322.1
3275	1.8393	1.8182	0.	-1246.1
3276	1.8393	1.6364	0.	-1155.7
3277	1.8393	1.4545	0.	-1050.8
3278	1.8393	1.2727	0.	-931.73
3279	1.8393	1.0909	0.	-799.59
3280	1.8393	0.90909	0.	-656.46
3281	1.8393	0.72727	0.	-505.35
3282	1.8393	0.54545	0.	-350.09
3283	1.8393	0.36364	0.	-194.02
3284	1.8393	0.18182	0.	-36.349
3285	1.6554	5.8182	0.	-31.051
3286	1.6554	5.6364	0.	-204.76
3287	1.6554	5.4545	0.	-378.86
3288	1.6554	5.2727	0.	-551.9
3289	1.6554	5.0909	0.	-719.25
3290	1.6554	4.9091	0.	-876.07
3291	1.6554	4.7273	0.	-1018.9
3292	1.6554	4.5455	0.	-1145.8
3293	1.6554	4.3636	0.	-1255.9
3294	1.6554	4.1818	0.	-1349.4
3295	1.6554	4.	0.	-1427.
3296	1.6554	3.8182	0.	-1489.6
3297	1.6554	3.6364	0.	-1538.3
3298	1.6554	3.4545	0.	-1573.9
3299	1.6554	3.2727	0.	-1597.3
3300	1.6554	3.0909	0.	-1608.8
3301	1.6554	2.9091	0.	-1608.8
3302	1.6554	2.7273	0.	-1597.3
3303	1.6554	2.5455	0.	-1573.9
3304	1.6554	2.3636	0.	-1538.3
3305	1.6554	2.1818	0.	-1489.6
3306	1.6554	2.	0.	-1427.
3307	1.6554	1.8182	0.	-1349.4
3308	1.6554	1.6364	0.	-1255.9
3309	1.6554	1.4545	0.	-1145.8
3310	1.6554	1.2727	0.	-1018.9
3311	1.6554	1.0909	0.	-876.07
3312	1.6554	0.90909	0.	-719.25
3313	1.6554	0.72727	0.	-551.9
3314	1.6554	0.54545	0.	-378.86
3315	1.6554	0.36364	0.	-204.76
3316	1.6554	0.18182	0.	-31.051
3317	1.4714	5.8182	0.	-25.624
3318	1.4714	5.6364	0.	-217.37
3319	1.4714	5.4545	0.	-413.4
3320	1.4714	5.2727	0.	-607.63
3321	1.4714	5.0909	0.	-793.52
3322	1.4714	4.9091	0.	-965.04
3323	1.4714	4.7273	0.	-1118.4
3324	1.4714	4.5455	0.	-1252.1
3325	1.4714	4.3636	0.	-1366.
3326	1.4714	4.1818	0.	-1461.
3327	1.4714	4.	0.	-1538.8
3328	1.4714	3.8182	0.	-1600.7
3329	1.4714	3.6364	0.	-1648.4
3330	1.4714	3.4545	0.	-1683.
3331	1.4714	3.2727	0.	-1705.6
3332	1.4714	3.0909	0.	-1716.7
3333	1.4714	2.9091	0.	-1716.7
3334	1.4714	2.7273	0.	-1705.6
3335	1.4714	2.5455	0.	-1683.
3336	1.4714	2.3636	0.	-1648.4
3337	1.4714	2.1818	0.	-1600.7
3338	1.4714	2.	0.	-1538.8
3339	1.4714	1.8182	0.	-1461.
3340	1.4714	1.6364	0.	-1366.
3341	1.4714	1.4545	0.	-1252.1
3342	1.4714	1.2727	0.	-1118.4
3343	1.4714	1.0909	0.	-965.04
3344	1.4714	0.90909	0.	-793.52
3345	1.4714	0.72727	0.	-607.63
3346	1.4714	0.54545	0.	-413.4
3347	1.4714	0.36364	0.	-217.37
3348	1.4714	0.18182	0.	-25.624
3349	1.2875	5.8182	0.	-20.776
3350	1.2875	5.6364	0.	-233.02
3351	1.2875	5.4545	0.	-456.38
3352	1.2875	5.2727	0.	-676.15
3353	1.2875	5.0909	0.	-883.01
3354	1.2875	4.9091	0.	-1069.6
3355	1.2875	4.7273	0.	-1232.5
3356	1.2875	4.5455	0.	-1370.9
3357	1.2875	4.3636	0.	-1486.3
3358	1.2875	4.1818	0.	-1580.7
3359	1.2875	4.	0.	-1656.6
3360	1.2875	3.8182	0.	-1716.4
3361	1.2875	3.6364	0.	-1761.9
3362	1.2875	3.4545	0.	-1794.7
3363	1.2875	3.2727	0.	-1815.9
3364	1.2875	3.0909	0.	-1826.3
3365	1.2875	2.9091	0.	-1826.3
3366	1.2875	2.7273	0.	-1815.9
3367	1.2875	2.5455	0.	-1794.7
3368	1.2875	2.3636	0.	-1761.9
3369	1.2875	2.1818	0.	-1716.4
3370	1.2875	2.	0.	-1656.6
3371	1.2875	1.8182	0.	-1580.7
3372	1.2875	1.6364	0.	-1486.3
3373	1.2875	1.4545	0.	-1370.9
3374	1.2875	1.2727	0.	-1232.5
3375	1.2875	1.0909	0.	-1069.6
3376	1.2875	0.90909	0.	-883.01
3377	1.2875	0.72727	0.	-676.15
3378	1.2875	0.54545	0.	-456.38
3379	1.2875	0.36364	0.	-233.02
3380	1.2875	0.18182	0.	-20.776
3381	1.1036	5.8182	0.	-17.555
3382	1.1036	5.6364	0.	-254.38
3383	1.1036	5.4545	0.	-512.97
3384	1.1036	5.2727	0.	-763.8
3385	1.1036	5.0909	0.	-993.69
3386	1.1036	4.9091	0.	-1194.5
3387	1.1036	4.7273	0.	-1364.1
3388	1.1036	4.5455	0.	-1504.
3389	1.1036	4.3636	0.	-1617.5
3390	1.1036	4.1818	0.	-1708.5
3391	1.1036	4.	0.	-1780.4
3392	1.1036	3.8182	0.	-1836.2
3393	1.1036	3.6364	0.	-1878.3
3394	1.1036	3.4545	0.	-1908.5
3395	1.1036	3.2727	0.	-1927.9
3396	1.1036	3.0909	0.	-1937.4
3397	1.1036	2.9091	0.	-1937.4
3398	1.1036	2.7273	0.	-1927.9
3399	1.1036	2.5455	0.	-1908.5
3400	1.1036	2.3636	0.	-1878.3
3401	1.1036	2.1818	0.	-1836.2
3402	1.1036	2.	0.	-1780.4
3403	1.1036	1.8182	0.	-1708.5
3404	1.1036	1.6364	0.	-1617.5
3405	1.1036	1.4545	0.	-1504.
3406	1.1036	1.2727	0.	-1364.1
3407	1.1036	1.0909	0.	-1194.5
3408	1.1036	0.90909	0.	-993.69
3409	1.1036	0.72727	0.	-763.8
3410	1.1036	0.54545	0.	-512.97
3411	1.1036	0.36364	0.	-254.38
3412	1.1036	0.18182	0.	-17.555
3413	0.91964	5.8182	0.	-14.376
3414	0.91964	5.6364	0.	-284.29
3415	0.91964	5.4545	0.	-589.12
3416	0.91964	5.2727	0.	-876.9
3417	0.91964	5.0909	0.	-1129.8
3418	0.91964	4.9091	0.	-1340.9
3419	0.91964	4.7273	0.	-1511.9
3420	0.91964	4.5455	0.	-1648.
3421	0.91964	4.3636	0.	-1755.5
3422	0.91964	4.1818	0.	-1839.8
3423	0.91964	4.	0.	-1905.3
3424	0.91964	3.8182	0.	-1955.6
3425	0.91964	3.6364	0.	-1993.2
3426	0.91964	3.4545	0.	-2020.
3427	0.91964	3.2727	0.	-2037.2
3428	0.91964	3.0909	0.	-2045.6
3429	0.91964	2.9091	0.	-2045.6
3430	0.91964	2.7273	0.	-2037.2
3431	0.91964	2.5455	0.	-2020.
3432	0.91964	2.3636	0.	-1993.2
3433	0.91964	2.1818	0.	-1955.6
3434	0.91964	2.	0.	-1905.3
3435	0.91964	1.8182	0.	-1839.8
3436	0.91964	1.6364	0.	-1755.5
3437	0.91964	1.4545	0.	-1648.
3438	0.91964	1.2727	0.	-1511.9
3439	0.91964	1.0909	0.	-1340.9
3440	0.91964	0.90909	0.	-1129.8
3441	0.91964	0.72727	0.	-876.9
3442	0.91964	0.54545	0.	-589.12
3443	0.91964	0.36364	0.	-284.29
3444	0.91964	0.18182	0.	-14.376
3445	0.73571	5.8182	0.	-18.451
3446	0.73571	5.6364	0.	-338.
3447	0.73571	5.4545	0.	-707.48
3448	0.73571	5.2727	0.	-1037.6
3449	0.73571	5.0909	0.	-1309.
3450	0.73571	4.9091	0.	-1522.
3451	0.73571	4.7273	0.	-1686.2
3452	0.73571	4.5455	0.	-1812.2
3453	0.73571	4.3636	0.	-1909.1
3454	0.73571	4.1818	0.	-1983.7
3455	0.73571	4.	0.	-2041.1
3456	0.73571	3.8182	0.	-2084.7
3457	0.73571	3.6364	0.	-2117.2
3458	0.73571	3.4545	0.	-2140.2
3459	0.73571	3.2727	0.	-2155.
3460	0.73571	3.0909	0.	-2162.2
3461	0.73571	2.9091	0.	-2162.2
3462	0.73571	2.7273	0.	-2155.
3463	0.73571	2.5455	0.	-2140.2
3464	0.73571	2.3636	0.	-2117.2
3465	0.73571	2.1818	0.	-2084.7
3466	0.73571	2.	0.	-2041.1
3467	0.73571	1.8182	0.	-1983.7
3468	0.73571	1.6364	0.	-1909.1
3469	0.73571	1.4545	0.	-1812.2
3470	0.73571	1.2727	0.	-1686.2
3471	0.73571	1.0909	0.	-1522.
3472	0.73571	0.90909	0.	-1309.
3473	0.73571	0.72727	0.	-1037.6
3474	0.73571	0.54545	0.	-707.48
3475	0.73571	0.36364	0.	-338.
3476	0.73571	0.18182	0.	-18.451
3477	0.55179	5.8182	0.	-0.79092
3478	0.55179	5.6364	0.	-412.54
3479	0.55179	5.4545	0.	-860.69
3480	0.55179	5.2727	0.	-1223.6
3481	0.55179	5.0909	0.	-1494.5
3482	0.55179	4.9091	0.	-1692.2
3483	0.55179	4.7273	0.	-1837.3
3484	0.55179	4.5455	0.	-1945.3
3485	0.55179	4.3636	0.	-2027.
3486	0.55179	4.1818	0.	-2089.3
3487	0.55179	4.	0.	-2136.9
3488	0.55179	3.8182	0.	-2173.
3489	0.55179	3.6364	0.	-2199.9
3490	0.55179	3.4545	0.	-2219.
3491	0.55179	3.2727	0.	-2231.2
3492	0.55179	3.0909	0.	-2237.1
3493	0.55179	2.9091	0.	-2237.1
3494	0.55179	2.7273	0.	-2231.2
3495	0.55179	2.5455	0.	-2219.
3496	0.55179	2.3636	0.	-2199.9
3497	0.55179	2.1818	0.	-2173.
3498	0.55179	2.	0.	-2136.9
3499	0.55179	1.8182	0.	-2089.3
3500	0.55179	1.6364	0.	-2027.
3501	0.55179	1.4545	0.	-1945.3
3502	0.55179	1.2727	0.	-1837.3
3503	0.55179	1.0909	0.	-1692.2
3504	0.55179	0.90909	0.	-1494.5
3505	0.55179	0.72727	0.	-1223.6
3506	0.55179	0.54545	0.	-860.69
3507	0.55179	0.36364	0.	-412.54
3508	0.55179	0.18182	0.	-0.79092
3509	0.36786	5.8182	0.	-81.759
3510	0.36786	5.6364	0.	-660.27
3511	0.36786	5.4545	0.	-1219.
3512	0.36786	5.2727	0.	-1591.9
3513	0.36786	5.0909	0.	-1839.6
3514	0.36786	4.9091	0.	-2009.4
3515	0.36786	4.7273	0.	-2130.7
3516	0.36786	4.5455	0.	-2220.2
3517	0.36786	4.3636	0.	-2287.8
3518	0.36786	4.1818	0.	-2339.5
3519	0.36786	4.	0.	-2379.1
3520	0.36786	3.8182	0.	-2409.3
3521	0.36786	3.6364	0.	-2431.9
3522	0.36786	3.4545	0.	-2447.9
3523	0.36786	3.2727	0.	-2458.1
3524	0.36786	3.0909	0.	-2463.2
3525	0.36786	2.9091	0.	-2463.2
3526	0.36786	2.7273	0.	-2458.1
3527	0.36786	2.5455	0.	-2447.9
3528	0.36786	2.3636	0.	-2431.9
3529	0.36786	2.1818	0.	-2409.3
3530	0.36786	2.	0.	-2379.1
3531	0.36786	1.8182	0.	-2339.5
3532	0.36786	1.6364	0.	-2287.8
3533	0.36786	1.4545	0.	-2220.2
3534	0.36786	1.2727	0.	-2130.7
3535	0.36786	1.0909	0.	-2009.4
3536	0.36786	0.90909	0.	-1839.6
3537	0.36786	0.72727	0.	-1591.9
3538	0.36786	0.54545	0.	-1219.
3539	0.36786	0.36364	0.	-660.27
3540	0.36786	0.18182	0.	-81.759
3541	0.18393	5.8182	0.	6.2116e-002
3542	0.18393	5.6364	0.	-821.28
3543	0.18393	5.4545	0.	-1257.1
3544	0.18393	5.2727	0.	-1506.6
3545	0.18393	5.0909	0.	-1663.8
3546	0.18393	4.9091	0.	-1772.2
3547	0.18393	4.7273	0.	-1850.9
3548	0.18393	4.5455	0.	-1909.9
3549	0.18393	4.3636	0.	-1955.1
3550	0.18393	4.1818	0.	-1990.
3551	0.18393	4.	0.	-2016.9
3552	0.18393	3.8182	0.	-2037.6
3553	0.18393	3.6364	0.	-2053.1
3554	0.18393	3.4545	0.	-2064.1
3555	0.18393	3.2727	0.	-2071.2
3556	0.18393	3.0909	0.	-2074.7
3557	0.18393	2.9091	0.	-2074.7
3558	0.18393	2.7273	0.	-2071.2
3559	0.18393	2.5455	0.	-2064.1
3560	0.18393	2.3636	0.	-2053.1
3561	0.18393	2.1818	0.	-2037.6
3562	0.18393	2.	0.	-2016.9
3563	0.18393	1.8182	0.	-1990.
3564	0.18393	1.6364	0.	-1955.1
3565	0.18393	1.4545	0.	-1909.9
3566	0.18393	1.2727	0.	-1850.9
3567	0.18393	1.0909	0.	-1772.2
3568	0.18393	0.90909	0.	-1663.8
3569	0.18393	0.72727	0.	-1506.6
3570	0.18393	0.54545	0.	-1257.1
3571	0.18393	0.36364	0.	-821.28
3572	0.18393	0.18182	0.	6.2161e-002
3573	20.946	0.18182	0.	-3.5727
3574	20.946	0.36364	0.	-2.0017
3575	20.946	0.54545	0.	-1.5694
3576	20.946	0.72727	0.	-1.4489
3577	20.946	0.90909	0.	-1.5312
3578	20.946	1.0909	0.	-1.9449
3579	20.946	1.2727	0.	-2.0755
3580	20.946	1.4545	0.	-4.8984
3581	20.946	1.6364	0.	-1.2317
3582	20.946	1.8182	0.	-33.186
3583	20.946	2.	0.	-90.49
3584	20.946	2.1818	0.	-28.637
3585	20.946	2.3636	0.	-4.6987
3586	20.946	2.5455	0.	0.46261
3587	20.946	2.7273	0.	-0.5658
3588	20.946	2.9091	0.	-3.1328e-002
3589	20.946	3.0909	0.	-3.1328e-002
3590	20.946	3.2727	0.	-0.5658
3591	20.946	3.4545	0.	0.46262
3592	20.946	3.6364	0.	-4.6987
3593	20.946	3.8182	0.	-28.637
3594	20.946	4.	0.	-90.49
3595	20.946	4.1818	0.	-33.186
3596	20.946	4.3636	0.	-1.2317
3597	20.946	4.5455	0.	-4.8984
3598	20.946	4.7273	0.	-2.0755
3599	20.946	4.9091	0.	-1.9449
3600	20.946	5.0909	0.	-1.5312
3601	20.946	5.2727	0.	-1.4489
3602	20.946	5.4545	0.	-1.5694
3603	20.946	5.6364	0.	-2.0017
3604	20.946	5.8182	0.	-3.5727
3605	21.126	0.18182	0.	-1.6487
3606	21.126	0.36364	0.	-1.9698
3607	21.126	0.54545	0.	-1.4805
3608	21.126	0.72727	0.	-1.1363
3609	21.126	0.90909	0.	-1.0602
3610	21.126	1.0909	0.	-1.133
3611	21.126	1.2727	0.	-1.4241
3612	21.126	1.4545	0.	-2.302
3613	21.126	1.6364	0.	-3.4582
3614	21.126	1.8182	0.	-7.9097
3615	21.126	2.	0.	-36.763
3616	21.126	2.1818	0.	-25.914
3617	21.126	2.3636	0.	-8.2579
3618	21.126	2.5455	0.	-1.0072
3619	21.126	2.7273	0.	-0.16149
3620	21.126	2.9091	0.	3.4599e-002
3621	21.126	3.0909	0.	3.4599e-002
3622	21.126	3.2727	0.	-0.16149
3623	21.126	3.4545	0.	-1.0072
3624	21.126	3.6364	0.	-8.2579
3625	21.126	3.8182	0.	-25.914
3626	21.126	4.	0.	-36.763
3627	21.126	4.1818	0.	-7.9097
3628	21.126	4.3636	0.	-3.4582
3629	21.126	4.5455	0.	-2.302
3630	21.126	4.7273	0.	-1.4241
3631	21.126	4.9091	0.	-1.133
3632	21.126	5.0909	0.	-1.0602
3633	21.126	5.2727	0.	-1.1363
3634	21.126	5.4545	0.	-1.4805
3635	21.126	5.6364	0.	-1.9698
3636	21.126	5.8182	0.	-1.6487
3637	21.306	0.18182	0.	-0.88182
3638	21.306	0.36364	0.	-1.5687
3639	21.306	0.54545	0.	-1.9699
3640	21.306	0.72727	0.	-2.0048
3641	21.306	0.90909	0.	-2.1226
3642	21.306	1.0909	0.	-2.5819
3643	21.306	1.2727	0.	-3.8936
3644	21.306	1.4545	0.	-8.581
3645	21.306	1.6364	0.	-27.294
3646	21.306	1.8182	0.	-58.342
3647	21.306	2.	0.	-77.555
3648	21.306	2.1818	0.	-69.843
3649	21.306	2.3636	0.	-42.26
3650	21.306	2.5455	0.	-15.439
3651	21.306	2.7273	0.	-1.7332
3652	21.306	2.9091	0.	0.16258
3653	21.306	3.0909	0.	0.16258
3654	21.306	3.2727	0.	-1.7332
3655	21.306	3.4545	0.	-15.439
3656	21.306	3.6364	0.	-42.26
3657	21.306	3.8182	0.	-69.843
3658	21.306	4.	0.	-77.555
3659	21.306	4.1818	0.	-58.342
3660	21.306	4.3636	0.	-27.294
3661	21.306	4.5455	0.	-8.581
3662	21.306	4.7273	0.	-3.8936
3663	21.306	4.9091	0.	-2.5818
3664	21.306	5.0909	0.	-2.1226
3665	21.306	5.2727	0.	-2.0048
3666	21.306	5.4545	0.	-1.9699
3667	21.306	5.6364	0.	-1.5687
3668	21.306	5.8182	0.	-0.88182
3669	21.485	0.18182	0.	-0.42181
3670	21.485	0.36364	0.	-0.87333
3671	21.485	0.54545	0.	-1.794
3672	21.485	0.72727	0.	-3.167
3673	21.485	0.90909	0.	-5.532
3674	21.485	1.0909	0.	-10.339
3675	21.485	1.2727	0.	-19.723
3676	21.485	1.4545	0.	-35.524
3677	21.485	1.6364	0.	-57.524
3678	21.485	1.8182	0.	-80.628
3679	21.485	2.	0.	-94.124
3680	21.485	2.1818	0.	-91.495
3681	21.485	2.3636	0.	-76.239
3682	21.485	2.5455	0.	-57.536
3683	21.485	2.7273	0.	-42.838
3684	21.485	2.9091	0.	-35.133
3685	21.485	3.0909	0.	-35.133
3686	21.485	3.2727	0.	-42.838
3687	21.485	3.4545	0.	-57.536
3688	21.485	3.6364	0.	-76.239
3689	21.485	3.8182	0.	-91.495
3690	21.485	4.	0.	-94.124
3691	21.485	4.1818	0.	-80.628
3692	21.485	4.3636	0.	-57.523
3693	21.485	4.5455	0.	-35.524
3694	21.485	4.7273	0.	-19.723
3695	21.485	4.9091	0.	-10.339
3696	21.485	5.0909	0.	-5.5319
3697	21.485	5.2727	0.	-3.167
3698	21.485	5.4545	0.	-1.794
3699	21.485	5.6364	0.	-0.87333
3700	21.485	5.8182	0.	-0.42182
3701	21.665	0.18182	0.	-0.22298
3702	21.665	0.36364	0.	-0.4783
3703	21.665	0.54545	0.	-1.33
3704	21.665	0.72727	0.	-4.3546
3705	21.665	0.90909	0.	-10.736
3706	21.665	1.0909	0.	-20.199
3707	21.665	1.2727	0.	-33.316
3708	21.665	1.4545	0.	-50.392
3709	21.665	1.6364	0.	-70.091
3710	21.665	1.8182	0.	-88.294
3711	21.665	2.	0.	-99.605
3712	21.665	2.1818	0.	-100.85
3713	21.665	2.3636	0.	-93.686
3714	21.665	2.5455	0.	-82.97
3715	21.665	2.7273	0.	-73.45
3716	21.665	2.9091	0.	-68.091
3717	21.665	3.0909	0.	-68.091
3718	21.665	3.2727	0.	-73.45
3719	21.665	3.4545	0.	-82.97
3720	21.665	3.6364	0.	-93.686
3721	21.665	3.8182	0.	-100.85
3722	21.665	4.	0.	-99.605
3723	21.665	4.1818	0.	-88.294
3724	21.665	4.3636	0.	-70.091
3725	21.665	4.5455	0.	-50.392
3726	21.665	4.7273	0.	-33.316
3727	21.665	4.9091	0.	-20.199
3728	21.665	5.0909	0.	-10.736
3729	21.665	5.2727	0.	-4.3546
3730	21.665	5.4545	0.	-1.33
3731	21.665	5.6364	0.	-0.4783
3732	21.665	5.8182	0.	-0.22298
3733	21.844	0.18182	0.	-0.11626
3734	21.844	0.36364	0.	-0.26211
3735	21.844	0.54545	0.	-0.83051
3736	21.844	0.72727	0.	-4.5931
3737	21.844	0.90909	0.	-13.112
3738	21.844	1.0909	0.	-24.457
3739	21.844	1.2727	0.	-38.545
3740	21.844	1.4545	0.	-54.989
3741	21.844	1.6364	0.	-72.291
3742	21.844	1.8182	0.	-87.704
3743	21.844	2.	0.	-98.178
3744	21.844	2.1818	0.	-102.1
3745	21.844	2.3636	0.	-100.28
3746	21.844	2.5455	0.	-95.299
3747	21.844	2.7273	0.	-90.142
3748	21.844	2.9091	0.	-87.017
3749	21.844	3.0909	0.	-87.017
3750	21.844	3.2727	0.	-90.142
3751	21.844	3.4545	0.	-95.299
3752	21.844	3.6364	0.	-100.28
3753	21.844	3.8182	0.	-102.1
3754	21.844	4.	0.	-98.178
3755	21.844	4.1818	0.	-87.704
3756	21.844	4.3636	0.	-72.291
3757	21.844	4.5455	0.	-54.989
3758	21.844	4.7273	0.	-38.545
3759	21.844	4.9091	0.	-24.457
3760	21.844	5.0909	0.	-13.112
3761	21.844	5.2727	0.	-4.5931
3762	21.844	5.4545	0.	-0.8305
3763	21.844	5.6364	0.	-0.26212
3764	21.844	5.8182	0.	-0.11627
3765	22.024	0.18182	0.	-6.0906e-002
3766	22.024	0.36364	0.	-0.14532
3767	22.024	0.54545	0.	-0.4548
3768	22.024	0.72727	0.	-3.8606
3769	22.024	0.90909	0.	-12.95
3770	22.024	1.0909	0.	-24.61
3771	22.024	1.2727	0.	-38.369
3772	22.024	1.4545	0.	-53.576
3773	22.024	1.6364	0.	-68.929
3774	22.024	1.8182	0.	-82.566
3775	22.024	2.	0.	-92.665
3776	22.024	2.1818	0.	-98.275
3777	22.024	2.3636	0.	-99.779
3778	22.024	2.5455	0.	-98.625
3779	22.024	2.7273	0.	-96.603
3780	22.024	2.9091	0.	-95.192
3781	22.024	3.0909	0.	-95.192
3782	22.024	3.2727	0.	-96.603
3783	22.024	3.4545	0.	-98.625
3784	22.024	3.6364	0.	-99.779
3785	22.024	3.8182	0.	-98.275
3786	22.024	4.	0.	-92.664
3787	22.024	4.1818	0.	-82.566
3788	22.024	4.3636	0.	-68.929
3789	22.024	4.5455	0.	-53.575
3790	22.024	4.7273	0.	-38.369
3791	22.024	4.9091	0.	-24.61
3792	22.024	5.0909	0.	-12.95
3793	22.024	5.2727	0.	-3.8605
3794	22.024	5.4545	0.	-0.45479
3795	22.024	5.6364	0.	-0.14532
3796	22.024	5.8182	0.	-6.0908e-002
3797	22.204	0.18182	0.	-3.0485e-002
3798	22.204	0.36364	0.	-7.8314e-002
3799	22.204	0.54545	0.	-0.21887
3800	22.204	0.72727	0.	-2.445
3801	22.204	0.90909	0.	-11.085
3802	22.204	1.0909	0.	-22.169
3803	22.204	1.2727	0.	-34.949
3804	22.204	1.4545	0.	-48.723
3805	22.204	1.6364	0.	-62.427
3806	22.204	1.8182	0.	-74.756
3807	22.204	2.	0.	-84.526
3808	22.204	2.1818	0.	-91.107
3809	22.204	2.3636	0.	-94.64
3810	22.204	2.5455	0.	-95.907
3811	22.204	2.7273	0.	-95.962
3812	22.204	2.9091	0.	-95.727
3813	22.204	3.0909	0.	-95.727
3814	22.204	3.2727	0.	-95.962
3815	22.204	3.4545	0.	-95.907
3816	22.204	3.6364	0.	-94.64
3817	22.204	3.8182	0.	-91.107
3818	22.204	4.	0.	-84.526
3819	22.204	4.1818	0.	-74.756
3820	22.204	4.3636	0.	-62.427
3821	22.204	4.5455	0.	-48.722
3822	22.204	4.7273	0.	-34.949
3823	22.204	4.9091	0.	-22.169
3824	22.204	5.0909	0.	-11.085
3825	22.204	5.2727	0.	-2.445
3826	22.204	5.4545	0.	-0.21887
3827	22.204	5.6364	0.	-7.8313e-002
3828	22.204	5.8182	0.	-3.0487e-002
3829	22.383	0.18182	0.	-1.4314e-002
3830	22.383	0.36364	0.	-3.9652e-002
3831	22.383	0.54545	0.	-8.7836e-002
3832	22.383	0.72727	0.	-0.85737
3833	22.383	0.90909	0.	-8.0713
3834	22.383	1.0909	0.	-18.095
3835	22.383	1.2727	0.	-29.596
3836	22.383	1.4545	0.	-41.903
3837	22.383	1.6364	0.	-54.153
3838	22.383	1.8182	0.	-65.386
3839	22.383	2.	0.	-74.762
3840	22.383	2.1818	0.	-81.8
3841	22.383	2.3636	0.	-86.488
3842	22.383	2.5455	0.	-89.216
3843	22.383	2.7273	0.	-90.567
3844	22.383	2.9091	0.	-91.083
3845	22.383	3.0909	0.	-91.083
3846	22.383	3.2727	0.	-90.567
3847	22.383	3.4545	0.	-89.216
3848	22.383	3.6364	0.	-86.488
3849	22.383	3.8182	0.	-81.8
3850	22.383	4.	0.	-74.762
3851	22.383	4.1818	0.	-65.386
3852	22.383	4.3636	0.	-54.153
3853	22.383	4.5455	0.	-41.903
3854	22.383	4.7273	0.	-29.596
3855	22.383	4.9091	0.	-18.095
3856	22.383	5.0909	0.	-8.0712
3857	22.383	5.2727	0.	-0.85736
3858	22.383	5.4545	0.	-8.7834e-002
3859	22.383	5.6364	0.	-3.9651e-002
3860	22.383	5.8182	0.	-1.4317e-002
3861	22.563	0.18182	0.	-6.6724e-003
3862	22.563	0.36364	0.	-1.8089e-002
3863	22.563	0.54545	0.	-2.0108e-002
3864	22.563	0.72727	0.	-0.16038
3865	22.563	0.90909	0.	-4.2337
3866	22.563	1.0909	0.	-12.936
3867	22.563	1.2727	0.	-23.05
3868	22.563	1.4545	0.	-33.932
3869	22.563	1.6364	0.	-44.869
3870	22.563	1.8182	0.	-55.111
3871	22.563	2.	0.	-64.01
3872	22.563	2.1818	0.	-71.155
3873	22.563	2.3636	0.	-76.429
3874	22.563	2.5455	0.	-79.98
3875	22.563	2.7273	0.	-82.095
3876	22.563	2.9091	0.	-83.065
3877	22.563	3.0909	0.	-83.065
3878	22.563	3.2727	0.	-82.095
3879	22.563	3.4545	0.	-79.98
3880	22.563	3.6364	0.	-76.429
3881	22.563	3.8182	0.	-71.155
3882	22.563	4.	0.	-64.01
3883	22.563	4.1818	0.	-55.111
3884	22.563	4.3636	0.	-44.869
3885	22.563	4.5455	0.	-33.932
3886	22.563	4.7273	0.	-23.05
3887	22.563	4.9091	0.	-12.936
3888	22.563	5.0909	0.	-4.2337
3889	22.563	5.2727	0.	-0.16037
3890	22.563	5.4545	0.	-2.0101e-002
3891	22.563	5.6364	0.	-1.8084e-002
3892	22.563	5.8182	0.	-6.6752e-003
3893	22.743	0.18182	0.	-5.0317e-003
3894	22.743	0.36364	0.	-7.3625e-003
3895	22.743	0.54545	0.	1.4129e-002
3896	22.743	0.72727	0.	-1.2434e-002
3897	22.743	0.90909	0.	-0.45722
3898	22.743	1.0909	0.	-6.9765
3899	22.743	1.2727	0.	-15.698
3900	22.743	1.4545	0.	-25.243
3901	22.743	1.6364	0.	-34.99
3902	22.743	1.8182	0.	-44.32
3903	22.743	2.	0.	-52.69
3904	22.743	2.1818	0.	-59.719
3905	22.743	2.3636	0.	-65.221
3906	22.743	2.5455	0.	-69.188
3907	22.743	2.7273	0.	-71.72
3908	22.743	2.9091	0.	-72.945
3909	22.743	3.0909	0.	-72.945
3910	22.743	3.2727	0.	-71.72
3911	22.743	3.4545	0.	-69.188
3912	22.743	3.6364	0.	-65.221
3913	22.743	3.8182	0.	-59.719
3914	22.743	4.	0.	-52.69
3915	22.743	4.1818	0.	-44.32
3916	22.743	4.3636	0.	-34.99
3917	22.743	4.5455	0.	-25.243
3918	22.743	4.7273	0.	-15.698
3919	22.743	4.9091	0.	-6.9764
3920	22.743	5.0909	0.	-0.45721
3921	22.743	5.2727	0.	-1.2437e-002
3922	22.743	5.4545	0.	1.4132e-002
3923	22.743	5.6364	0.	-7.3614e-003
3924	22.743	5.8182	0.	-5.0325e-003
3925	22.922	0.18182	0.	-7.7816e-003
3926	22.922	0.36364	0.	-2.4939e-003
3927	22.922	0.54545	0.	3.3675e-002
3928	22.922	0.72727	0.	3.3997e-002
3929	22.922	0.90909	0.	9.7475e-003
3930	22.922	1.0909	0.	-0.73818
3931	22.922	1.2727	0.	-7.7265
3932	22.922	1.4545	0.	-16.048
3933	22.922	1.6364	0.	-24.737
3934	22.922	1.8182	0.	-33.239
3935	22.922	2.	0.	-41.071
3936	22.922	2.1818	0.	-47.864
3937	22.922	2.3636	0.	-53.382
3938	22.922	2.5455	0.	-57.518
3939	22.922	2.7273	0.	-60.253
3940	22.922	2.9091	0.	-61.609
3941	22.922	3.0909	0.	-61.609
3942	22.922	3.2727	0.	-60.252
3943	22.922	3.4545	0.	-57.518
3944	22.922	3.6364	0.	-53.382
3945	22.922	3.8182	0.	-47.864
3946	22.922	4.	0.	-41.071
3947	22.922	4.1818	0.	-33.239
3948	22.922	4.3636	0.	-24.737
3949	22.922	4.5455	0.	-16.048
3950	22.922	4.7273	0.	-7.7264
3951	22.922	4.9091	0.	-0.73814
3952	22.922	5.0909	0.	9.747e-003
3953	22.922	5.2727	0.	3.3995e-002
3954	22.922	5.4545	0.	3.367e-002
3955	22.922	5.6364	0.	-2.4933e-003
3956	22.922	5.8182	0.	-7.7797e-003
3957	23.102	0.18182	0.	-1.6033e-002
3958	23.102	0.36364	0.	-1.6871e-003
3959	23.102	0.54545	0.	4.7229e-002
3960	23.102	0.72727	0.	5.732e-002
3961	23.102	0.90909	0.	6.1167e-002
3962	23.102	1.0909	0.	4.5902e-002
3963	23.102	1.2727	0.	-0.2287
3964	23.102	1.4545	0.	-6.4488
3965	23.102	1.6364	0.	-14.212
3966	23.102	1.8182	0.	-21.993
3967	23.102	2.	0.	-29.325
3968	23.102	2.1818	0.	-35.84
3969	23.102	2.3636	0.	-41.268
3970	23.102	2.5455	0.	-45.438
3971	23.102	2.7273	0.	-48.253
3972	23.102	2.9091	0.	-49.669
3973	23.102	3.0909	0.	-49.669
3974	23.102	3.2727	0.	-48.253
3975	23.102	3.4545	0.	-45.438
3976	23.102	3.6364	0.	-41.268
3977	23.102	3.8182	0.	-35.84
3978	23.102	4.	0.	-29.325
3979	23.102	4.1818	0.	-21.993
3980	23.102	4.3636	0.	-14.212
3981	23.102	4.5455	0.	-6.4487
3982	23.102	4.7273	0.	-0.22869
3983	23.102	4.9091	0.	4.59e-002
3984	23.102	5.0909	0.	6.1168e-002
3985	23.102	5.2727	0.	5.7317e-002
3986	23.102	5.4545	0.	4.7235e-002
3987	23.102	5.6364	0.	-1.6878e-003
3988	23.102	5.8182	0.	-1.6037e-002
3989	23.281	0.18182	0.	-2.4056e-002
3990	23.281	0.36364	0.	6.3017e-003
3991	23.281	0.54545	0.	7.065e-002
3992	23.281	0.72727	0.	8.6501e-002
3993	23.281	0.90909	0.	9.8411e-002
3994	23.281	1.0909	0.	0.10278
3995	23.281	1.2727	0.	9.9474e-002
3996	23.281	1.4545	0.	5.5609e-002
3997	23.281	1.6364	0.	-3.4792
3998	23.281	1.8182	0.	-10.637
3999	23.281	2.	0.	-17.548
4000	23.281	2.1818	0.	-23.807
4001	23.281	2.3636	0.	-29.119
4002	23.281	2.5455	0.	-33.268
4003	23.281	2.7273	0.	-36.108
4004	23.281	2.9091	0.	-37.549
4005	23.281	3.0909	0.	-37.549
4006	23.281	3.2727	0.	-36.108
4007	23.281	3.4545	0.	-33.268
4008	23.281	3.6364	0.	-29.119
4009	23.281	3.8182	0.	-23.807
4010	23.281	4.	0.	-17.548
4011	23.281	4.1818	0.	-10.637
4012	23.281	4.3636	0.	-3.4792
4013	23.281	4.5455	0.	5.561e-002
4014	23.281	4.7273	0.	9.9476e-002
4015	23.281	4.9091	0.	0.10278
4016	23.281	5.0909	0.	9.8411e-002
4017	23.281	5.2727	0.	8.6499e-002
4018	23.281	5.4545	0.	7.0651e-002
4019	23.281	5.6364	0.	6.3031e-003
4020	23.281	5.8182	0.	-2.406e-002
4021	23.461	0.18182	0.	-5.4053e-002
4022	23.461	0.36364	0.	-1.1536e-003
4023	23.461	0.54545	0.	7.8641e-002
4024	23.461	0.72727	0.	0.10031
4025	23.461	0.90909	0.	0.11686
4026	23.461	1.0909	0.	0.12647
4027	23.461	1.2727	0.	0.13352
4028	23.461	1.4545	0.	0.13782
4029	23.461	1.6364	0.	0.13626
4030	23.461	1.8182	0.	5.3905e-003
4031	23.461	2.	0.	-5.7918
4032	23.461	2.1818	0.	-11.867
4033	23.461	2.3636	0.	-17.101
4034	23.461	2.5455	0.	-21.241
4035	23.461	2.7273	0.	-24.103
4036	23.461	2.9091	0.	-25.565
4037	23.461	3.0909	0.	-25.565
4038	23.461	3.2727	0.	-24.103
4039	23.461	3.4545	0.	-21.241
4040	23.461	3.6364	0.	-17.101
4041	23.461	3.8182	0.	-11.867
4042	23.461	4.	0.	-5.7918
4043	23.461	4.1818	0.	5.3886e-003
4044	23.461	4.3636	0.	0.13626
4045	23.461	4.5455	0.	0.13783
4046	23.461	4.7273	0.	0.13352
4047	23.461	4.9091	0.	0.12647
4048	23.461	5.0909	0.	0.11686
4049	23.461	5.2727	0.	0.10031
4050	23.461	5.4545	0.	7.864e-002
4051	23.461	5.6364	0.	-1.1513e-003
4052	23.461	5.8182	0.	-5.4048e-002
4053	23.641	0.18182	0.	-2.5089e-002
4054	23.641	0.36364	0.	9.9866e-002
4055	23.641	0.54545	0.	0.22233
4056	23.641	0.72727	0.	0.24896
4057	23.641	0.90909	0.	0.27379
4058	23.641	1.0909	0.	0.28987
4059	23.641	1.2727	0.	0.30366
4060	23.641	1.4545	0.	0.31574
4061	23.641	1.6364	0.	0.32691
4062	23.641	1.8182	0.	0.33734
4063	23.641	2.	0.	0.34675
4064	23.641	2.1818	0.	3.7084e-002
4065	23.641	2.3636	0.	-5.2083
4066	23.641	2.5455	0.	-9.4208
4067	23.641	2.7273	0.	-12.363
4068	23.641	2.9091	0.	-13.876
4069	23.641	3.0909	0.	-13.876
4070	23.641	3.2727	0.	-12.363
4071	23.641	3.4545	0.	-9.4208
4072	23.641	3.6364	0.	-5.2083
4073	23.641	3.8182	0.	3.7109e-002
4074	23.641	4.	0.	0.34675
4075	23.641	4.1818	0.	0.33734
4076	23.641	4.3636	0.	0.32692
4077	23.641	4.5455	0.	0.31573
4078	23.641	4.7273	0.	0.30366
4079	23.641	4.9091	0.	0.28987
4080	23.641	5.0909	0.	0.27379
4081	23.641	5.2727	0.	0.24896
4082	23.641	5.4545	0.	0.22233
4083	23.641	5.6364	0.	9.9869e-002
4084	23.641	5.8182	0.	-2.5087e-002
4085	23.82	0.18182	0.	-0.37011
4086	23.82	0.36364	0.	-0.14957
4087	23.82	0.54545	0.	3.2959e-002
4088	23.82	0.72727	0.	6.9207e-002
4089	23.82	0.90909	0.	0.10492
4090	23.82	1.0909	0.	0.12774
4091	23.82	1.2727	0.	0.14662
4092	23.82	1.4545	0.	0.16207
4093	23.82	1.6364	0.	0.17507
4094	23.82	1.8182	0.	0.18568
4095	23.82	2.	0.	0.19353
4096	23.82	2.1818	0.	0.19727
4097	23.82	2.3636	0.	0.19183
4098	23.82	2.5455	0.	0.13611
4099	23.82	2.7273	0.	-1.2462
4100	23.82	2.9091	0.	-2.8914
4101	23.82	3.0909	0.	-2.8914
4102	23.82	3.2727	0.	-1.2462
4103	23.82	3.4545	0.	0.13611
4104	23.82	3.6364	0.	0.19183
4105	23.82	3.8182	0.	0.19727
4106	23.82	4.	0.	0.19353
4107	23.82	4.1818	0.	0.18568
4108	23.82	4.3636	0.	0.17507
4109	23.82	4.5455	0.	0.16207
4110	23.82	4.7273	0.	0.14662
4111	23.82	4.9091	0.	0.12774
4112	23.82	5.0909	0.	0.10492
4113	23.82	5.2727	0.	6.9203e-002
4114	23.82	5.4545	0.	3.296e-002
4115	23.82	5.6364	0.	-0.14956
4116	23.82	5.8182	0.	-0.37011
4117	23.82	5.8182	0.1	0.37011
4118	23.82	5.6364	0.1	0.14956
4119	23.82	5.4545	0.1	-3.296e-002
4120	23.82	5.2727	0.1	-6.9204e-002
4121	23.82	5.0909	0.1	-0.10492
4122	23.82	4.9091	0.1	-0.12773
4123	23.82	4.7273	0.1	-0.14662
4124	23.82	4.5455	0.1	-0.16207
4125	23.82	4.3636	0.1	-0.17507
4126	23.82	4.1818	0.1	-0.18568
4127	23.82	4.	0.1	-0.19353
4128	23.82	3.8182	0.1	-0.19727
4129	23.82	3.6364	0.1	-0.19183
4130	23.82	3.4545	0.1	-0.13611
4131	23.82	3.2727	0.1	1.2462
4132	23.82	3.0909	0.1	2.8914
4133	23.82	2.9091	0.1	2.8914
4134	23.82	2.7273	0.1	1.2462
4135	23.82	2.5455	0.1	-0.1361
4136	23.82	2.3636	0.1	-0.19183
4137	23.82	2.1818	0.1	-0.19727
4138	23.82	2.	0.1	-0.19353
4139	23.82	1.8182	0.1	-0.18568
4140	23.82	1.6364	0.1	-0.17507
4141	23.82	1.4545	0.1	-0.16207
4142	23.82	1.2727	0.1	-0.14662
4143	23.82	1.0909	0.1	-0.12774
4144	23.82	0.90909	0.1	-0.10492
4145	23.82	0.72727	0.1	-6.9207e-002
4146	23.82	0.54545	0.1	-3.2959e-002
4147	23.82	0.36364	0.1	0.14957
4148	23.82	0.18182	0.1	0.37011
4149	23.641	5.8182	0.1	2.5089e-002
4150	23.641	5.6364	0.1	-9.9868e-002
4151	23.641	5.4545	0.1	-0.22233
4152	23.641	5.2727	0.1	-0.24895
4153	23.641	5.0909	0.1	-0.27379
4154	23.641	4.9091	0.1	-0.28987
4155	23.641	4.7273	0.1	-0.30366
4156	23.641	4.5455	0.1	-0.31573
4157	23.641	4.3636	0.1	-0.32691
4158	23.641	4.1818	0.1	-0.33734
4159	23.641	4.	0.1	-0.34675
4160	23.641	3.8182	0.1	-3.7075e-002
4161	23.641	3.6364	0.1	5.2083
4162	23.641	3.4545	0.1	9.4209
4163	23.641	3.2727	0.1	12.363
4164	23.641	3.0909	0.1	13.876
4165	23.641	2.9091	0.1	13.876
4166	23.641	2.7273	0.1	12.363
4167	23.641	2.5455	0.1	9.4209
4168	23.641	2.3636	0.1	5.2083
4169	23.641	2.1818	0.1	-3.7059e-002
4170	23.641	2.	0.1	-0.34675
4171	23.641	1.8182	0.1	-0.33734
4172	23.641	1.6364	0.1	-0.32691
4173	23.641	1.4545	0.1	-0.31574
4174	23.641	1.2727	0.1	-0.30366
4175	23.641	1.0909	0.1	-0.28987
4176	23.641	0.90909	0.1	-0.27379
4177	23.641	0.72727	0.1	-0.24895
4178	23.641	0.54545	0.1	-0.22233
4179	23.641	0.36364	0.1	-9.9866e-002
4180	23.641	0.18182	0.1	2.5092e-002
4181	23.461	5.8182	0.1	5.4049e-002
4182	23.461	5.6364	0.1	1.1529e-003
4183	23.461	5.4545	0.1	-7.864e-002
4184	23.461	5.2727	0.1	-0.10031
4185	23.461	5.0909	0.1	-0.11686
4186	23.461	4.9091	0.1	-0.12647
4187	23.461	4.7273	0.1	-0.13352
4188	23.461	4.5455	0.1	-0.13783
4189	23.461	4.3636	0.1	-0.13626
4190	23.461	4.1818	0.1	-5.3913e-003
4191	23.461	4.	0.1	5.7918
4192	23.461	3.8182	0.1	11.867
4193	23.461	3.6364	0.1	17.101
4194	23.461	3.4545	0.1	21.241
4195	23.461	3.2727	0.1	24.103
4196	23.461	3.0909	0.1	25.565
4197	23.461	2.9091	0.1	25.565
4198	23.461	2.7273	0.1	24.103
4199	23.461	2.5455	0.1	21.241
4200	23.461	2.3636	0.1	17.101
4201	23.461	2.1818	0.1	11.867
4202	23.461	2.	0.1	5.7918
4203	23.461	1.8182	0.1	-5.3809e-003
4204	23.461	1.6364	0.1	-0.13626
4205	23.461	1.4545	0.1	-0.13783
4206	23.461	1.2727	0.1	-0.13352
4207	23.461	1.0909	0.1	-0.12647
4208	23.461	0.90909	0.1	-0.11686
4209	23.461	0.72727	0.1	-0.10031
4210	23.461	0.54545	0.1	-7.8642e-002
4211	23.461	0.36364	0.1	1.1527e-003
4212	23.461	0.18182	0.1	5.4053e-002
4213	23.281	5.8182	0.1	2.406e-002
4214	23.281	5.6364	0.1	-6.3035e-003
4215	23.281	5.4545	0.1	-7.0653e-002
4216	23.281	5.2727	0.1	-8.6501e-002
4217	23.281	5.0909	0.1	-9.8414e-002
4218	23.281	4.9091	0.1	-0.10278
4219	23.281	4.7273	0.1	-9.9477e-002
4220	23.281	4.5455	0.1	-5.561e-002
4221	23.281	4.3636	0.1	3.4792
4222	23.281	4.1818	0.1	10.637
4223	23.281	4.	0.1	17.548
4224	23.281	3.8182	0.1	23.807
4225	23.281	3.6364	0.1	29.119
4226	23.281	3.4545	0.1	33.268
4227	23.281	3.2727	0.1	36.108
4228	23.281	3.0909	0.1	37.549
4229	23.281	2.9091	0.1	37.549
4230	23.281	2.7273	0.1	36.108
4231	23.281	2.5455	0.1	33.268
4232	23.281	2.3636	0.1	29.119
4233	23.281	2.1818	0.1	23.807
4234	23.281	2.	0.1	17.548
4235	23.281	1.8182	0.1	10.637
4236	23.281	1.6364	0.1	3.4793
4237	23.281	1.4545	0.1	-5.5608e-002
4238	23.281	1.2727	0.1	-9.9478e-002
4239	23.281	1.0909	0.1	-0.10278
4240	23.281	0.90909	0.1	-9.8413e-002
4241	23.281	0.72727	0.1	-8.6501e-002
4242	23.281	0.54545	0.1	-7.065e-002
4243	23.281	0.36364	0.1	-6.3021e-003
4244	23.281	0.18182	0.1	2.4056e-002
4245	23.102	5.8182	0.1	1.6036e-002
4246	23.102	5.6364	0.1	1.6881e-003
4247	23.102	5.4545	0.1	-4.7233e-002
4248	23.102	5.2727	0.1	-5.7319e-002
4249	23.102	5.0909	0.1	-6.1166e-002
4250	23.102	4.9091	0.1	-4.5899e-002
4251	23.102	4.7273	0.1	0.2287
4252	23.102	4.5455	0.1	6.4487
4253	23.102	4.3636	0.1	14.212
4254	23.102	4.1818	0.1	21.993
4255	23.102	4.	0.1	29.325
4256	23.102	3.8182	0.1	35.84
4257	23.102	3.6364	0.1	41.268
4258	23.102	3.4545	0.1	45.438
4259	23.102	3.2727	0.1	48.253
4260	23.102	3.0909	0.1	49.669
4261	23.102	2.9091	0.1	49.669
4262	23.102	2.7273	0.1	48.253
4263	23.102	2.5455	0.1	45.438
4264	23.102	2.3636	0.1	41.268
4265	23.102	2.1818	0.1	35.84
4266	23.102	2.	0.1	29.326
4267	23.102	1.8182	0.1	21.993
4268	23.102	1.6364	0.1	14.212
4269	23.102	1.4545	0.1	6.4488
4270	23.102	1.2727	0.1	0.2287
4271	23.102	1.0909	0.1	-4.59e-002
4272	23.102	0.90909	0.1	-6.1167e-002
4273	23.102	0.72727	0.1	-5.732e-002
4274	23.102	0.54545	0.1	-4.7228e-002
4275	23.102	0.36364	0.1	1.6885e-003
4276	23.102	0.18182	0.1	1.6034e-002
4277	22.922	5.8182	0.1	7.7788e-003
4278	22.922	5.6364	0.1	2.4936e-003
4279	22.922	5.4545	0.1	-3.3672e-002
4280	22.922	5.2727	0.1	-3.3995e-002
4281	22.922	5.0909	0.1	-9.7486e-003
4282	22.922	4.9091	0.1	0.73815
4283	22.922	4.7273	0.1	7.7264
4284	22.922	4.5455	0.1	16.048
4285	22.922	4.3636	0.1	24.737
4286	22.922	4.1818	0.1	33.239
4287	22.922	4.	0.1	41.071
4288	22.922	3.8182	0.1	47.864
4289	22.922	3.6364	0.1	53.382
4290	22.922	3.4545	0.1	57.518
4291	22.922	3.2727	0.1	60.253
4292	22.922	3.0909	0.1	61.609
4293	22.922	2.9091	0.1	61.609
4294	22.922	2.7273	0.1	60.253
4295	22.922	2.5455	0.1	57.518
4296	22.922	2.3636	0.1	53.382
4297	22.922	2.1818	0.1	47.864
4298	22.922	2.	0.1	41.071
4299	22.922	1.8182	0.1	33.239
4300	22.922	1.6364	0.1	24.737
4301	22.922	1.4545	0.1	16.048
4302	22.922	1.2727	0.1	7.7265
4303	22.922	1.0909	0.1	0.73819
4304	22.922	0.90909	0.1	-9.7478e-003
4305	22.922	0.72727	0.1	-3.3996e-002
4306	22.922	0.54545	0.1	-3.3673e-002
4307	22.922	0.36364	0.1	2.4946e-003
4308	22.922	0.18182	0.1	7.7812e-003
4309	22.743	5.8182	0.1	5.0305e-003
4310	22.743	5.6364	0.1	7.3598e-003
4311	22.743	5.4545	0.1	-1.4133e-002
4312	22.743	5.2727	0.1	1.2436e-002
4313	22.743	5.0909	0.1	0.45721
4314	22.743	4.9091	0.1	6.9765
4315	22.743	4.7273	0.1	15.698
4316	22.743	4.5455	0.1	25.243
4317	22.743	4.3636	0.1	34.99
4318	22.743	4.1818	0.1	44.32
4319	22.743	4.	0.1	52.69
4320	22.743	3.8182	0.1	59.719
4321	22.743	3.6364	0.1	65.221
4322	22.743	3.4545	0.1	69.188
4323	22.743	3.2727	0.1	71.72
4324	22.743	3.0909	0.1	72.945
4325	22.743	2.9091	0.1	72.945
4326	22.743	2.7273	0.1	71.72
4327	22.743	2.5455	0.1	69.188
4328	22.743	2.3636	0.1	65.221
4329	22.743	2.1818	0.1	59.719
4330	22.743	2.	0.1	52.69
4331	22.743	1.8182	0.1	44.32
4332	22.743	1.6364	0.1	34.991
4333	22.743	1.4545	0.1	25.243
4334	22.743	1.2727	0.1	15.698
4335	22.743	1.0909	0.1	6.9765
4336	22.743	0.90909	0.1	0.45723
4337	22.743	0.72727	0.1	1.2436e-002
4338	22.743	0.54545	0.1	-1.4131e-002
4339	22.743	0.36364	0.1	7.3622e-003
4340	22.743	0.18182	0.1	5.0313e-003
4341	22.563	5.8182	0.1	6.6768e-003
4342	22.563	5.6364	0.1	1.8085e-002
4343	22.563	5.4545	0.1	2.0104e-002
4344	22.563	5.2727	0.1	0.16038
4345	22.563	5.0909	0.1	4.2337
4346	22.563	4.9091	0.1	12.936
4347	22.563	4.7273	0.1	23.05
4348	22.563	4.5455	0.1	33.932
4349	22.563	4.3636	0.1	44.869
4350	22.563	4.1818	0.1	55.111
4351	22.563	4.	0.1	64.01
4352	22.563	3.8182	0.1	71.155
4353	22.563	3.6364	0.1	76.429
4354	22.563	3.4545	0.1	79.98
4355	22.563	3.2727	0.1	82.095
4356	22.563	3.0909	0.1	83.065
4357	22.563	2.9091	0.1	83.065
4358	22.563	2.7273	0.1	82.095
4359	22.563	2.5455	0.1	79.98
4360	22.563	2.3636	0.1	76.429
4361	22.563	2.1818	0.1	71.155
4362	22.563	2.	0.1	64.01
4363	22.563	1.8182	0.1	55.111
4364	22.563	1.6364	0.1	44.869
4365	22.563	1.4545	0.1	33.932
4366	22.563	1.2727	0.1	23.05
4367	22.563	1.0909	0.1	12.936
4368	22.563	0.90909	0.1	4.2338
4369	22.563	0.72727	0.1	0.16038
4370	22.563	0.54545	0.1	2.0108e-002
4371	22.563	0.36364	0.1	1.8089e-002
4372	22.563	0.18182	0.1	6.6733e-003
4373	22.383	5.8182	0.1	1.4315e-002
4374	22.383	5.6364	0.1	3.965e-002
4375	22.383	5.4545	0.1	8.7833e-002
4376	22.383	5.2727	0.1	0.85736
4377	22.383	5.0909	0.1	8.0712
4378	22.383	4.9091	0.1	18.095
4379	22.383	4.7273	0.1	29.596
4380	22.383	4.5455	0.1	41.903
4381	22.383	4.3636	0.1	54.153
4382	22.383	4.1818	0.1	65.386
4383	22.383	4.	0.1	74.762
4384	22.383	3.8182	0.1	81.8
4385	22.383	3.6364	0.1	86.488
4386	22.383	3.4545	0.1	89.216
4387	22.383	3.2727	0.1	90.567
4388	22.383	3.0909	0.1	91.083
4389	22.383	2.9091	0.1	91.083
4390	22.383	2.7273	0.1	90.567
4391	22.383	2.5455	0.1	89.216
4392	22.383	2.3636	0.1	86.488
4393	22.383	2.1818	0.1	81.8
4394	22.383	2.	0.1	74.762
4395	22.383	1.8182	0.1	65.386
4396	22.383	1.6364	0.1	54.153
4397	22.383	1.4545	0.1	41.903
4398	22.383	1.2727	0.1	29.596
4399	22.383	1.0909	0.1	18.095
4400	22.383	0.90909	0.1	8.0713
4401	22.383	0.72727	0.1	0.85738
4402	22.383	0.54545	0.1	8.7838e-002
4403	22.383	0.36364	0.1	3.965e-002
4404	22.383	0.18182	0.1	1.4313e-002
4405	22.204	5.8182	0.1	3.0484e-002
4406	22.204	5.6364	0.1	7.8313e-002
4407	22.204	5.4545	0.1	0.21887
4408	22.204	5.2727	0.1	2.445
4409	22.204	5.0909	0.1	11.085
4410	22.204	4.9091	0.1	22.169
4411	22.204	4.7273	0.1	34.949
4412	22.204	4.5455	0.1	48.722
4413	22.204	4.3636	0.1	62.427
4414	22.204	4.1818	0.1	74.756
4415	22.204	4.	0.1	84.526
4416	22.204	3.8182	0.1	91.107
4417	22.204	3.6364	0.1	94.64
4418	22.204	3.4545	0.1	95.907
4419	22.204	3.2727	0.1	95.962
4420	22.204	3.0909	0.1	95.727
4421	22.204	2.9091	0.1	95.727
4422	22.204	2.7273	0.1	95.962
4423	22.204	2.5455	0.1	95.907
4424	22.204	2.3636	0.1	94.64
4425	22.204	2.1818	0.1	91.107
4426	22.204	2.	0.1	84.526
4427	22.204	1.8182	0.1	74.756
4428	22.204	1.6364	0.1	62.427
4429	22.204	1.4545	0.1	48.723
4430	22.204	1.2727	0.1	34.949
4431	22.204	1.0909	0.1	22.169
4432	22.204	0.90909	0.1	11.085
4433	22.204	0.72727	0.1	2.445
4434	22.204	0.54545	0.1	0.21887
4435	22.204	0.36364	0.1	7.8314e-002
4436	22.204	0.18182	0.1	3.0485e-002
4437	22.024	5.8182	0.1	6.0907e-002
4438	22.024	5.6364	0.1	0.14532
4439	22.024	5.4545	0.1	0.45479
4440	22.024	5.2727	0.1	3.8605
4441	22.024	5.0909	0.1	12.95
4442	22.024	4.9091	0.1	24.61
4443	22.024	4.7273	0.1	38.369
4444	22.024	4.5455	0.1	53.575
4445	22.024	4.3636	0.1	68.929
4446	22.024	4.1818	0.1	82.566
4447	22.024	4.	0.1	92.664
4448	22.024	3.8182	0.1	98.275
4449	22.024	3.6364	0.1	99.779
4450	22.024	3.4545	0.1	98.625
4451	22.024	3.2727	0.1	96.603
4452	22.024	3.0909	0.1	95.192
4453	22.024	2.9091	0.1	95.192
4454	22.024	2.7273	0.1	96.603
4455	22.024	2.5455	0.1	98.625
4456	22.024	2.3636	0.1	99.779
4457	22.024	2.1818	0.1	98.275
4458	22.024	2.	0.1	92.665
4459	22.024	1.8182	0.1	82.566
4460	22.024	1.6364	0.1	68.929
4461	22.024	1.4545	0.1	53.576
4462	22.024	1.2727	0.1	38.369
4463	22.024	1.0909	0.1	24.61
4464	22.024	0.90909	0.1	12.95
4465	22.024	0.72727	0.1	3.8606
4466	22.024	0.54545	0.1	0.45479
4467	22.024	0.36364	0.1	0.14532
4468	22.024	0.18182	0.1	6.0906e-002
4469	21.844	5.8182	0.1	0.11627
4470	21.844	5.6364	0.1	0.26211
4471	21.844	5.4545	0.1	0.8305
4472	21.844	5.2727	0.1	4.5931
4473	21.844	5.0909	0.1	13.112
4474	21.844	4.9091	0.1	24.457
4475	21.844	4.7273	0.1	38.545
4476	21.844	4.5455	0.1	54.989
4477	21.844	4.3636	0.1	72.291
4478	21.844	4.1818	0.1	87.704
4479	21.844	4.	0.1	98.178
4480	21.844	3.8182	0.1	102.1
4481	21.844	3.6364	0.1	100.28
4482	21.844	3.4545	0.1	95.299
4483	21.844	3.2727	0.1	90.142
4484	21.844	3.0909	0.1	87.017
4485	21.844	2.9091	0.1	87.017
4486	21.844	2.7273	0.1	90.142
4487	21.844	2.5455	0.1	95.299
4488	21.844	2.3636	0.1	100.28
4489	21.844	2.1818	0.1	102.1
4490	21.844	2.	0.1	98.178
4491	21.844	1.8182	0.1	87.704
4492	21.844	1.6364	0.1	72.291
4493	21.844	1.4545	0.1	54.989
4494	21.844	1.2727	0.1	38.545
4495	21.844	1.0909	0.1	24.457
4496	21.844	0.90909	0.1	13.112
4497	21.844	0.72727	0.1	4.5931
4498	21.844	0.54545	0.1	0.83051
4499	21.844	0.36364	0.1	0.26212
4500	21.844	0.18182	0.1	0.11627
4501	21.665	5.8182	0.1	0.22298
4502	21.665	5.6364	0.1	0.4783
4503	21.665	5.4545	0.1	1.33
4504	21.665	5.2727	0.1	4.3546
4505	21.665	5.0909	0.1	10.736
4506	21.665	4.9091	0.1	20.199
4507	21.665	4.7273	0.1	33.316
4508	21.665	4.5455	0.1	50.392
4509	21.665	4.3636	0.1	70.091
4510	21.665	4.1818	0.1	88.294
4511	21.665	4.	0.1	99.605
4512	21.665	3.8182	0.1	100.85
4513	21.665	3.6364	0.1	93.686
4514	21.665	3.4545	0.1	82.97
4515	21.665	3.2727	0.1	73.45
4516	21.665	3.0909	0.1	68.091
4517	21.665	2.9091	0.1	68.091
4518	21.665	2.7273	0.1	73.45
4519	21.665	2.5455	0.1	82.97
4520	21.665	2.3636	0.1	93.686
4521	21.665	2.1818	0.1	100.85
4522	21.665	2.	0.1	99.605
4523	21.665	1.8182	0.1	88.294
4524	21.665	1.6364	0.1	70.091
4525	21.665	1.4545	0.1	50.392
4526	21.665	1.2727	0.1	33.316
4527	21.665	1.0909	0.1	20.199
4528	21.665	0.90909	0.1	10.736
4529	21.665	0.72727	0.1	4.3546
4530	21.665	0.54545	0.1	1.33
4531	21.665	0.36364	0.1	0.4783
4532	21.665	0.18182	0.1	0.22298
4533	21.485	5.8182	0.1	0.42182
4534	21.485	5.6364	0.1	0.87333
4535	21.485	5.4545	0.1	1.794
4536	21.485	5.2727	0.1	3.167
4537	21.485	5.0909	0.1	5.5319
4538	21.485	4.9091	0.1	10.339
4539	21.485	4.7273	0.1	19.723
4540	21.485	4.5455	0.1	35.524
4541	21.485	4.3636	0.1	57.523
4542	21.485	4.1818	0.1	80.628
4543	21.485	4.	0.1	94.124
4544	21.485	3.8182	0.1	91.495
4545	21.485	3.6364	0.1	76.239
4546	21.485	3.4545	0.1	57.536
4547	21.485	3.2727	0.1	42.838
4548	21.485	3.0909	0.1	35.133
4549	21.485	2.9091	0.1	35.133
4550	21.485	2.7273	0.1	42.838
4551	21.485	2.5455	0.1	57.536
4552	21.485	2.3636	0.1	76.239
4553	21.485	2.1818	0.1	91.495
4554	21.485	2.	0.1	94.124
4555	21.485	1.8182	0.1	80.628
4556	21.485	1.6364	0.1	57.524
4557	21.485	1.4545	0.1	35.524
4558	21.485	1.2727	0.1	19.723
4559	21.485	1.0909	0.1	10.339
4560	21.485	0.90909	0.1	5.532
4561	21.485	0.72727	0.1	3.167
4562	21.485	0.54545	0.1	1.794
4563	21.485	0.36364	0.1	0.87333
4564	21.485	0.18182	0.1	0.42182
4565	21.306	5.8182	0.1	0.88183
4566	21.306	5.6364	0.1	1.5687
4567	21.306	5.4545	0.1	1.9699
4568	21.306	5.2727	0.1	2.0048
4569	21.306	5.0909	0.1	2.1226
4570	21.306	4.9091	0.1	2.5819
4571	21.306	4.7273	0.1	3.8936
4572	21.306	4.5455	0.1	8.581
4573	21.306	4.3636	0.1	27.294
4574	21.306	4.1818	0.1	58.342
4575	21.306	4.	0.1	77.555
4576	21.306	3.8182	0.1	69.843
4577	21.306	3.6364	0.1	42.26
4578	21.306	3.4545	0.1	15.439
4579	21.306	3.2727	0.1	1.7332
4580	21.306	3.0909	0.1	-0.16258
4581	21.306	2.9091	0.1	-0.16258
4582	21.306	2.7273	0.1	1.7332
4583	21.306	2.5455	0.1	15.439
4584	21.306	2.3636	0.1	42.26
4585	21.306	2.1818	0.1	69.843
4586	21.306	2.	0.1	77.555
4587	21.306	1.8182	0.1	58.342
4588	21.306	1.6364	0.1	27.294
4589	21.306	1.4545	0.1	8.581
4590	21.306	1.2727	0.1	3.8936
4591	21.306	1.0909	0.1	2.5819
4592	21.306	0.90909	0.1	2.1226
4593	21.306	0.72727	0.1	2.0049
4594	21.306	0.54545	0.1	1.9699
4595	21.306	0.36364	0.1	1.5687
4596	21.306	0.18182	0.1	0.88182
4597	21.126	5.8182	0.1	1.6487
4598	21.126	5.6364	0.1	1.9698
4599	21.126	5.4545	0.1	1.4805
4600	21.126	5.2727	0.1	1.1363
4601	21.126	5.0909	0.1	1.0602
4602	21.126	4.9091	0.1	1.133
4603	21.126	4.7273	0.1	1.4241
4604	21.126	4.5455	0.1	2.302
4605	21.126	4.3636	0.1	3.4582
4606	21.126	4.1818	0.1	7.9097
4607	21.126	4.	0.1	36.763
4608	21.126	3.8182	0.1	25.914
4609	21.126	3.6364	0.1	8.2579
4610	21.126	3.4545	0.1	1.0072
4611	21.126	3.2727	0.1	0.16149
4612	21.126	3.0909	0.1	-3.4598e-002
4613	21.126	2.9091	0.1	-3.4598e-002
4614	21.126	2.7273	0.1	0.16149
4615	21.126	2.5455	0.1	1.0072
4616	21.126	2.3636	0.1	8.2579
4617	21.126	2.1818	0.1	25.914
4618	21.126	2.	0.1	36.763
4619	21.126	1.8182	0.1	7.9097
4620	21.126	1.6364	0.1	3.4582
4621	21.126	1.4545	0.1	2.302
4622	21.126	1.2727	0.1	1.4241
4623	21.126	1.0909	0.1	1.133
4624	21.126	0.90909	0.1	1.0602
4625	21.126	0.72727	0.1	1.1363
4626	21.126	0.54545	0.1	1.4805
4627	21.126	0.36364	0.1	1.9698
4628	21.126	0.18182	0.1	1.6487
4629	20.946	5.8182	0.1	3.5727
4630	20.946	5.6364	0.1	2.0017
4631	20.946	5.4545	0.1	1.5694
4632	20.946	5.2727	0.1	1.4489
4633	20.946	5.0909	0.1	1.5312
4634	20.946	4.9091	0.1	1.9449
4635	20.946	4.7273	0.1	2.0755
4636	20.946	4.5455	0.1	4.8984
4637	20.946	4.3636	0.1	1.2317
4638	20.946	4.1818	0.1	33.186
4639	20.946	4.	0.1	90.49
4640	20.946	3.8182	0.1	28.637
4641	20.946	3.6364	0.1	4.6987
4642	20.946	3.4545	0.1	-0.46262
4643	20.946	3.2727	0.1	0.5658
4644	20.946	3.0909	0.1	3.1329e-002
4645	20.946	2.9091	0.1	3.1329e-002
4646	20.946	2.7273	0.1	0.5658
4647	20.946	2.5455	0.1	-0.46261
4648	20.946	2.3636	0.1	4.6987
4649	20.946	2.1818	0.1	28.637
4650	20.946	2.	0.1	90.49
4651	20.946	1.8182	0.1	33.186
4652	20.946	1.6364	0.1	1.2317
4653	20.946	1.4545	0.1	4.8984
4654	20.946	1.2727	0.1	2.0755
4655	20.946	1.0909	0.1	1.9449
4656	20.946	0.90909	0.1	1.5312
4657	20.946	0.72727	0.1	1.4489
4658	20.946	0.54545	0.1	1.5694
4659	20.946	0.36364	0.1	2.0017
4660	20.946	0.18182	0.1	3.5727
4661	0.18393	0.18182	0.1	-6.2161e-002
4662	0.18393	0.36364	0.1	821.28
4663	0.18393	0.54545	0.1	1257.1
4664	0.18393	0.72727	0.1	1506.6
4665	0.18393	0.90909	0.1	1663.8
4666	0.18393	1.0909	0.1	1772.2
4667	0.18393	1.2727	0.1	1850.9
4668	0.18393	1.4545	0.1	1909.9
4669	0.18393	1.6364	0.1	1955.1
4670	0.18393	1.8182	0.1	1990.
4671	0.18393	2.	0.1	2016.9
4672	0.18393	2.1818	0.1	2037.6
4673	0.18393	2.3636	0.1	2053.1
4674	0.18393	2.5455	0.1	2064.1
4675	0.18393	2.7273	0.1	2071.2
4676	0.18393	2.9091	0.1	2074.7
4677	0.18393	3.0909	0.1	2074.7
4678	0.18393	3.2727	0.1	2071.2
4679	0.18393	3.4545	0.1	2064.1
4680	0.18393	3.6364	0.1	2053.1
4681	0.18393	3.8182	0.1	2037.6
4682	0.18393	4.	0.1	2016.9
4683	0.18393	4.1818	0.1	1990.
4684	0.18393	4.3636	0.1	1955.1
4685	0.18393	4.5455	0.1	1909.9
4686	0.18393	4.7273	0.1	1850.9
4687	0.18393	4.9091	0.1	1772.2
4688	0.18393	5.0909	0.1	1663.8
4689	0.18393	5.2727	0.1	1506.6
4690	0.18393	5.4545	0.1	1257.1
4691	0.18393	5.6364	0.1	821.28
4692	0.18393	5.8182	0.1	-6.2097e-002
4693	0.36786	0.18182	0.1	81.759
4694	0.36786	0.36364	0.1	660.27
4695	0.36786	0.54545	0.1	1219.
4696	0.36786	0.72727	0.1	1591.9
4697	0.36786	0.90909	0.1	1839.6
4698	0.36786	1.0909	0.1	2009.4
4699	0.36786	1.2727	0.1	2130.7
4700	0.36786	1.4545	0.1	2220.2
4701	0.36786	1.6364	0.1	2287.8
4702	0.36786	1.8182	0.1	2339.5
4703	0.36786	2.	0.1	2379.1
4704	0.36786	2.1818	0.1	2409.3
4705	0.36786	2.3636	0.1	2431.9
4706	0.36786	2.5455	0.1	2447.9
4707	0.36786	2.7273	0.1	2458.1
4708	0.36786	2.9091	0.1	2463.2
4709	0.36786	3.0909	0.1	2463.2
4710	0.36786	3.2727	0.1	2458.1
4711	0.36786	3.4545	0.1	2447.9
4712	0.36786	3.6364	0.1	2431.9
4713	0.36786	3.8182	0.1	2409.3
4714	0.36786	4.	0.1	2379.1
4715	0.36786	4.1818	0.1	2339.5
4716	0.36786	4.3636	0.1	2287.8
4717	0.36786	4.5455	0.1	2220.2
4718	0.36786	4.7273	0.1	2130.7
4719	0.36786	4.9091	0.1	2009.4
4720	0.36786	5.0909	0.1	1839.6
4721	0.36786	5.2727	0.1	1591.9
4722	0.36786	5.4545	0.1	1219.
4723	0.36786	5.6364	0.1	660.27
4724	0.36786	5.8182	0.1	81.759
4725	0.55179	0.18182	0.1	0.79092
4726	0.55179	0.36364	0.1	412.54
4727	0.55179	0.54545	0.1	860.69
4728	0.55179	0.72727	0.1	1223.6
4729	0.55179	0.90909	0.1	1494.5
4730	0.55179	1.0909	0.1	1692.2
4731	0.55179	1.2727	0.1	1837.3
4732	0.55179	1.4545	0.1	1945.3
4733	0.55179	1.6364	0.1	2027.
4734	0.55179	1.8182	0.1	2089.3
4735	0.55179	2.	0.1	2136.9
4736	0.55179	2.1818	0.1	2173.
4737	0.55179	2.3636	0.1	2199.9
4738	0.55179	2.5455	0.1	2219.
4739	0.55179	2.7273	0.1	2231.2
4740	0.55179	2.9091	0.1	2237.1
4741	0.55179	3.0909	0.1	2237.1
4742	0.55179	3.2727	0.1	2231.2
4743	0.55179	3.4545	0.1	2219.
4744	0.55179	3.6364	0.1	2199.9
4745	0.55179	3.8182	0.1	2173.
4746	0.55179	4.	0.1	2136.9
4747	0.55179	4.1818	0.1	2089.3
4748	0.55179	4.3636	0.1	2027.
4749	0.55179	4.5455	0.1	1945.3
4750	0.55179	4.7273	0.1	1837.3
4751	0.55179	4.9091	0.1	1692.2
4752	0.55179	5.0909	0.1	1494.5
4753	0.55179	5.2727	0.1	1223.6
4754	0.55179	5.4545	0.1	860.69
4755	0.55179	5.6364	0.1	412.54
4756	0.55179	5.8182	0.1	0.79093
4757	0.73571	0.18182	0.1	18.451
4758	0.73571	0.36364	0.1	338.
4759	0.73571	0.54545	0.1	707.48
4760	0.73571	0.72727	0.1	1037.6
4761	0.73571	0.90909	0.1	1309.
4762	0.73571	1.0909	0.1	1522.
4763	0.73571	1.2727	0.1	1686.2
4764	0.73571	1.4545	0.1	1812.2
4765	0.73571	1.6364	0.1	1909.1
4766	0.73571	1.8182	0.1	1983.7
4767	0.73571	2.	0.1	2041.1
4768	0.73571	2.1818	0.1	2084.7
4769	0.73571	2.3636	0.1	2117.2
4770	0.73571	2.5455	0.1	2140.2
4771	0.73571	2.7273	0.1	2155.
4772	0.73571	2.9091	0.1	2162.2
4773	0.73571	3.0909	0.1	2162.2
4774	0.73571	3.2727	0.1	2155.
4775	0.73571	3.4545	0.1	2140.2
4776	0.73571	3.6364	0.1	2117.2
4777	0.73571	3.8182	0.1	2084.7
4778	0.73571	4.	0.1	2041.1
4779	0.73571	4.1818	0.1	1983.7
4780	0.73571	4.3636	0.1	1909.1
4781	0.73571	4.5455	0.1	1812.2
4782	0.73571	4.7273	0.1	1686.2
4783	0.73571	4.9091	0.1	1522.
4784	0.73571	5.0909	0.1	1309.
4785	0.73571	5.2727	0.1	1037.6
4786	0.73571	5.4545	0.1	707.48
4787	0.73571	5.6364	0.1	338.
4788	0.73571	5.8182	0.1	18.451
4789	0.91964	0.18182	0.1	14.376
4790	0.91964	0.36364	0.1	284.29
4791	0.91964	0.54545	0.1	589.12
4792	0.91964	0.72727	0.1	876.9
4793	0.91964	0.90909	0.1	1129.8
4794	0.91964	1.0909	0.1	1340.9
4795	0.91964	1.2727	0.1	1511.9
4796	0.91964	1.4545	0.1	1648.
4797	0.91964	1.6364	0.1	1755.5
4798	0.91964	1.8182	0.1	1839.8
4799	0.91964	2.	0.1	1905.3
4800	0.91964	2.1818	0.1	1955.6
4801	0.91964	2.3636	0.1	1993.2
4802	0.91964	2.5455	0.1	2020.
4803	0.91964	2.7273	0.1	2037.2
4804	0.91964	2.9091	0.1	2045.6
4805	0.91964	3.0909	0.1	2045.6
4806	0.91964	3.2727	0.1	2037.2
4807	0.91964	3.4545	0.1	2020.
4808	0.91964	3.6364	0.1	1993.2
4809	0.91964	3.8182	0.1	1955.6
4810	0.91964	4.	0.1	1905.3
4811	0.91964	4.1818	0.1	1839.8
4812	0.91964	4.3636	0.1	1755.5
4813	0.91964	4.5455	0.1	1648.
4814	0.91964	4.7273	0.1	1511.9
4815	0.91964	4.9091	0.1	1340.9
4816	0.91964	5.0909	0.1	1129.8
4817	0.91964	5.2727	0.1	876.9
4818	0.91964	5.4545	0.1	589.12
4819	0.91964	5.6364	0.1	284.29
4820	0.91964	5.8182	0.1	14.376
4821	1.1036	0.18182	0.1	17.555
4822	1.1036	0.36364	0.1	254.38
4823	1.1036	0.54545	0.1	512.97
4824	1.1036	0.72727	0.1	763.8
4825	1.1036	0.90909	0.1	993.69
4826	1.1036	1.0909	0.1	1194.5
4827	1.1036	1.2727	0.1	1364.1
4828	1.1036	1.4545	0.1	1504.
4829	1.1036	1.6364	0.1	1617.5
4830	1.1036	1.8182	0.1	1708.5
4831	1.1036	2.	0.1	1780.4
4832	1.1036	2.1818	0.1	1836.2
4833	1.1036	2.3636	0.1	1878.3
4834	1.1036	2.5455	0.1	1908.5
4835	1.1036	2.7273	0.1	1927.9
4836	1.1036	2.9091	0.1	1937.4
4837	1.1036	3.0909	0.1	1937.4
4838	1.1036	3.2727	0.1	1927.9
4839	1.1036	3.4545	0.1	1908.5
4840	1.1036	3.6364	0.1	1878.3
4841	1.1036	3.8182	0.1	1836.2
4842	1.1036	4.	0.1	1780.4
4843	1.1036	4.1818	0.1	1708.5
4844	1.1036	4.3636	0.1	1617.5
4845	1.1036	4.5455	0.1	1504.
4846	1.1036	4.7273	0.1	1364.1
4847	1.1036	4.9091	0.1	1194.5
4848	1.1036	5.0909	0.1	993.69
4849	1.1036	5.2727	0.1	763.8
4850	1.1036	5.4545	0.1	512.97
4851	1.1036	5.6364	0.1	254.38
4852	1.1036	5.8182	0.1	17.555
4853	1.2875	0.18182	0.1	20.776
4854	1.2875	0.36364	0.1	233.02
4855	1.2875	0.54545	0.1	456.38
4856	1.2875	0.72727	0.1	676.15
4857	1.2875	0.90909	0.1	883.01
4858	1.2875	1.0909	0.1	1069.6
4859	1.2875	1.2727	0.1	1232.5
4860	1.2875	1.4545	0.1	1370.9
4861	1.2875	1.6364	0.1	1486.3
4862	1.2875	1.8182	0.1	1580.7
4863	1.2875	2.	0.1	1656.6
4864	1.2875	2.1818	0.1	1716.4
4865	1.2875	2.3636	0.1	1761.9
4866	1.2875	2.5455	0.1	1794.7
4867	1.2875	2.7273	0.1	1815.9
4868	1.2875	2.9091	0.1	1826.3
4869	1.2875	3.0909	0.1	1826.3
4870	1.2875	3.2727	0.1	1815.9
4871	1.2875	3.4545	0.1	1794.7
4872	1.2875	3.6364	0.1	1761.9
4873	1.2875	3.8182	0.1	1716.4
4874	1.2875	4.	0.1	1656.6
4875	1.2875	4.1818	0.1	1580.7
4876	1.2875	4.3636	0.1	1486.3
4877	1.2875	4.5455	0.1	1370.9
4878	1.2875	4.7273	0.1	1232.5
4879	1.2875	4.9091	0.1	1069.6
4880	1.2875	5.0909	0.1	883.01
4881	1.2875	5.2727	0.1	676.15
4882	1.2875	5.4545	0.1	456.38
4883	1.2875	5.6364	0.1	233.02
4884	1.2875	5.8182	0.1	20.776
4885	1.4714	0.18182	0.1	25.624
4886	1.4714	0.36364	0.1	217.37
4887	1.4714	0.54545	0.1	413.4
4888	1.4714	0.72727	0.1	607.63
4889	1.4714	0.90909	0.1	793.52
4890	1.4714	1.0909	0.1	965.04
4891	1.4714	1.2727	0.1	1118.4
4892	1.4714	1.4545	0.1	1252.1
4893	1.4714	1.6364	0.1	1366.
4894	1.4714	1.8182	0.1	1461.
4895	1.4714	2.	0.1	1538.8
4896	1.4714	2.1818	0.1	1600.7
4897	1.4714	2.3636	0.1	1648.4
4898	1.4714	2.5455	0.1	1683.
4899	1.4714	2.7273	0.1	1705.6
4900	1.4714	2.9091	0.1	1716.7
4901	1.4714	3.0909	0.1	1716.7
4902	1.4714	3.2727	0.1	1705.6
4903	1.4714	3.4545	0.1	1683.
4904	1.4714	3.6364	0.1	1648.4
4905	1.4714	3.8182	0.1	1600.7
4906	1.4714	4.	0.1	1538.8
4907	1.4714	4.1818	0.1	1461.
4908	1.4714	4.3636	0.1	1366.
4909	1.4714	4.5455	0.1	1252.1
4910	1.4714	4.7273	0.1	1118.4
4911	1.4714	4.9091	0.1	965.04
4912	1.4714	5.0909	0.1	793.52
4913	1.4714	5.2727	0.1	607.63
4914	1.4714	5.4545	0.1	413.4
4915	1.4714	5.6364	0.1	217.37
4916	1.4714	5.8182	0.1	25.624
4917	1.6554	0.18182	0.1	31.051
4918	1.6554	0.36364	0.1	204.76
4919	1.6554	0.54545	0.1	378.86
4920	1.6554	0.72727	0.1	551.9
4921	1.6554	0.90909	0.1	719.25
4922	1.6554	1.0909	0.1	876.07
4923	1.6554	1.2727	0.1	1018.9
4924	1.6554	1.4545	0.1	1145.8
4925	1.6554	1.6364	0.1	1255.9
4926	1.6554	1.8182	0.1	1349.4
4927	1.6554	2.	0.1	1427.
4928	1.6554	2.1818	0.1	1489.6
4929	1.6554	2.3636	0.1	1538.3
4930	1.6554	2.5455	0.1	1573.9
4931	1.6554	2.7273	0.1	1597.3
4932	1.6554	2.9091	0.1	1608.8
4933	1.6554	3.0909	0.1	1608.8
4934	1.6554	3.2727	0.1	1597.3
4935	1.6554	3.4545	0.1	1573.9
4936	1.6554	3.6364	0.1	1538.3
4937	1.6554	3.8182	0.1	1489.6
4938	1.6554	4.	0.1	1427.
4939	1.6554	4.1818	0.1	1349.4
4940	1.6554	4.3636	0.1	1255.9
4941	1.6554	4.5455	0.1	1145.8
4942	1.6554	4.7273	0.1	1018.9
4943	1.6554	4.9091	0.1	876.07
4944	1.6554	5.0909	0.1	719.25
4945	1.6554	5.2727	0.1	551.9
4946	1.6554	5.4545	0.1	378.86
4947	1.6554	5.6364	0.1	204.76
4948	1.6554	5.8182	0.1	31.051
4949	1.8393	0.18182	0.1	36.349
4950	1.8393	0.36364	0.1	194.02
4951	1.8393	0.54545	0.1	350.09
4952	1.8393	0.72727	0.1	505.35
4953	1.8393	0.90909	0.1	656.46
4954	1.8393	1.0909	0.1	799.59
4955	1.8393	1.2727	0.1	931.73
4956	1.8393	1.4545	0.1	1050.8
4957	1.8393	1.6364	0.1	1155.7
4958	1.8393	1.8182	0.1	1246.1
4959	1.8393	2.	0.1	1322.1
4960	1.8393	2.1818	0.1	1384.
4961	1.8393	2.3636	0.1	1432.7
4962	1.8393	2.5455	0.1	1468.5
4963	1.8393	2.7273	0.1	1492.1
4964	1.8393	2.9091	0.1	1503.8
4965	1.8393	3.0909	0.1	1503.8
4966	1.8393	3.2727	0.1	1492.1
4967	1.8393	3.4545	0.1	1468.5
4968	1.8393	3.6364	0.1	1432.7
4969	1.8393	3.8182	0.1	1384.
4970	1.8393	4.	0.1	1322.1
4971	1.8393	4.1818	0.1	1246.1
4972	1.8393	4.3636	0.1	1155.7
4973	1.8393	4.5455	0.1	1050.8
4974	1.8393	4.7273	0.1	931.73
4975	1.8393	4.9091	0.1	799.59
4976	1.8393	5.0909	0.1	656.46
4977	1.8393	5.2727	0.1	505.35
4978	1.8393	5.4545	0.1	350.09
4979	1.8393	5.6364	0.1	194.02
4980	1.8393	5.8182	0.1	36.349
4981	2.0232	0.18182	0.1	40.969
4982	2.0232	0.36364	0.1	184.4
4983	2.0232	0.54545	0.1	325.29
4984	2.0232	0.72727	0.1	465.42
4985	2.0232	0.90909	0.1	602.32
4986	2.0232	1.0909	0.1	732.93
4987	2.0232	1.2727	0.1	854.69
4988	2.0232	1.4545	0.1	965.67
4989	2.0232	1.6364	0.1	1064.6
4990	2.0232	1.8182	0.1	1150.8
4991	2.0232	2.	0.1	1224.
4992	2.0232	2.1818	0.1	1284.3
4993	2.0232	2.3636	0.1	1332.
4994	2.0232	2.5455	0.1	1367.4
4995	2.0232	2.7273	0.1	1390.8
4996	2.0232	2.9091	0.1	1402.4
4997	2.0232	3.0909	0.1	1402.4
4998	2.0232	3.2727	0.1	1390.8
4999	2.0232	3.4545	0.1	1367.4
5000	2.0232	3.6364	0.1	1332.
5001	2.0232	3.8182	0.1	1284.3
5002	2.0232	4.	0.1	1224.
5003	2.0232	4.1818	0.1	1150.8
5004	2.0232	4.3636	0.1	1064.6
5005	2.0232	4.5455	0.1	965.67
5006	2.0232	4.7273	0.1	854.69
5007	2.0232	4.9091	0.1	732.93
5008	2.0232	5.0909	0.1	602.32
5009	2.0232	5.2727	0.1	465.42
5010	2.0232	5.4545	0.1	325.29
5011	2.0232	5.6364	0.1	184.4
5012	2.0232	5.8182	0.1	40.969
5013	2.2071	0.18182	0.1	44.693
5014	2.2071	0.36364	0.1	175.47
5015	2.2071	0.54545	0.1	303.37
5016	2.2071	0.72727	0.1	430.44
5017	2.2071	0.90909	0.1	554.83
5018	2.2071	1.0909	0.1	674.09
5019	2.2071	1.2727	0.1	786.05
5020	2.2071	1.4545	0.1	888.95
5021	2.2071	1.6364	0.1	981.52
5022	2.2071	1.8182	0.1	1062.9
5023	2.2071	2.	0.1	1132.6
5024	2.2071	2.1818	0.1	1190.5
5025	2.2071	2.3636	0.1	1236.6
5026	2.2071	2.5455	0.1	1271.
5027	2.2071	2.7273	0.1	1293.8
5028	2.2071	2.9091	0.1	1305.2
5029	2.2071	3.0909	0.1	1305.2
5030	2.2071	3.2727	0.1	1293.8
5031	2.2071	3.4545	0.1	1271.
5032	2.2071	3.6364	0.1	1236.6
5033	2.2071	3.8182	0.1	1190.5
5034	2.2071	4.	0.1	1132.6
5035	2.2071	4.1818	0.1	1062.9
5036	2.2071	4.3636	0.1	981.52
5037	2.2071	4.5455	0.1	888.95
5038	2.2071	4.7273	0.1	786.05
5039	2.2071	4.9091	0.1	674.09
5040	2.2071	5.0909	0.1	554.83
5041	2.2071	5.2727	0.1	430.44
5042	2.2071	5.4545	0.1	303.37
5043	2.2071	5.6364	0.1	175.47
5044	2.2071	5.8182	0.1	44.694
5045	2.3911	0.18182	0.1	47.481
5046	2.3911	0.36364	0.1	166.99
5047	2.3911	0.54545	0.1	283.57
5048	2.3911	0.72727	0.1	399.24
5049	2.3911	0.90909	0.1	512.57
5050	2.3911	1.0909	0.1	621.57
5051	2.3911	1.2727	0.1	724.39
5052	2.3911	1.4545	0.1	819.49
5053	2.3911	1.6364	0.1	905.62
5054	2.3911	1.8182	0.1	981.89
5055	2.3911	2.	0.1	1047.7
5056	2.3911	2.1818	0.1	1102.7
5057	2.3911	2.3636	0.1	1146.7
5058	2.3911	2.5455	0.1	1179.7
5059	2.3911	2.7273	0.1	1201.7
5060	2.3911	2.9091	0.1	1212.7
5061	2.3911	3.0909	0.1	1212.7
5062	2.3911	3.2727	0.1	1201.7
5063	2.3911	3.4545	0.1	1179.7
5064	2.3911	3.6364	0.1	1146.7
5065	2.3911	3.8182	0.1	1102.7
5066	2.3911	4.	0.1	1047.7
5067	2.3911	4.1818	0.1	981.89
5068	2.3911	4.3636	0.1	905.62
5069	2.3911	4.5455	0.1	819.49
5070	2.3911	4.7273	0.1	724.39
5071	2.3911	4.9091	0.1	621.57
5072	2.3911	5.0909	0.1	512.57
5073	2.3911	5.2727	0.1	399.24
5074	2.3911	5.4545	0.1	283.57
5075	2.3911	5.6364	0.1	166.99
5076	2.3911	5.8182	0.1	47.481
5077	2.575	0.18182	0.1	49.383
5078	2.575	0.36364	0.1	158.8
5079	2.575	0.54545	0.1	265.41
5080	2.575	0.72727	0.1	371.02
5081	2.575	0.90909	0.1	474.51
5082	2.575	1.0909	0.1	574.22
5083	2.575	1.2727	0.1	668.6
5084	2.575	1.4545	0.1	756.28
5085	2.575	1.6364	0.1	836.11
5086	2.575	1.8182	0.1	907.18
5087	2.575	2.	0.1	968.85
5088	2.575	2.1818	0.1	1020.7
5089	2.575	2.3636	0.1	1062.3
5090	2.575	2.5455	0.1	1093.6
5091	2.575	2.7273	0.1	1114.5
5092	2.575	2.9091	0.1	1125.
5093	2.575	3.0909	0.1	1125.
5094	2.575	3.2727	0.1	1114.5
5095	2.575	3.4545	0.1	1093.6
5096	2.575	3.6364	0.1	1062.3
5097	2.575	3.8182	0.1	1020.7
5098	2.575	4.	0.1	968.85
5099	2.575	4.1818	0.1	907.18
5100	2.575	4.3636	0.1	836.11
5101	2.575	4.5455	0.1	756.28
5102	2.575	4.7273	0.1	668.6
5103	2.575	4.9091	0.1	574.22
5104	2.575	5.0909	0.1	474.51
5105	2.575	5.2727	0.1	371.02
5106	2.575	5.4545	0.1	265.41
5107	2.575	5.6364	0.1	158.8
5108	2.575	5.8182	0.1	49.383
5109	2.7589	0.18182	0.1	50.485
5110	2.7589	0.36364	0.1	150.83
5111	2.7589	0.54545	0.1	248.56
5112	2.7589	0.72727	0.1	345.21
5113	2.7589	0.90909	0.1	439.88
5114	2.7589	1.0909	0.1	531.18
5115	2.7589	1.2727	0.1	617.79
5116	2.7589	1.4545	0.1	698.51
5117	2.7589	1.6364	0.1	772.27
5118	2.7589	1.8182	0.1	838.23
5119	2.7589	2.	0.1	895.69
5120	2.7589	2.1818	0.1	944.15
5121	2.7589	2.3636	0.1	983.25
5122	2.7589	2.5455	0.1	1012.8
5123	2.7589	2.7273	0.1	1032.5
5124	2.7589	2.9091	0.1	1042.4
5125	2.7589	3.0909	0.1	1042.4
5126	2.7589	3.2727	0.1	1032.5
5127	2.7589	3.4545	0.1	1012.8
5128	2.7589	3.6364	0.1	983.25
5129	2.7589	3.8182	0.1	944.15
5130	2.7589	4.	0.1	895.69
5131	2.7589	4.1818	0.1	838.23
5132	2.7589	4.3636	0.1	772.27
5133	2.7589	4.5455	0.1	698.51
5134	2.7589	4.7273	0.1	617.79
5135	2.7589	4.9091	0.1	531.18
5136	2.7589	5.0909	0.1	439.88
5137	2.7589	5.2727	0.1	345.21
5138	2.7589	5.4545	0.1	248.56
5139	2.7589	5.6364	0.1	150.83
5140	2.7589	5.8182	0.1	50.485
5141	2.9429	0.18182	0.1	50.886
5142	2.9429	0.36364	0.1	143.03
5143	2.9429	0.54545	0.1	232.78
5144	2.9429	0.72727	0.1	321.4
5145	2.9429	0.90909	0.1	408.13
5146	2.9429	1.0909	0.1	491.8
5147	2.9429	1.2727	0.1	571.28
5148	2.9429	1.4545	0.1	645.5
5149	2.9429	1.6364	0.1	713.52
5150	2.9429	1.8182	0.1	774.52
5151	2.9429	2.	0.1	827.83
5152	2.9429	2.1818	0.1	872.94
5153	2.9429	2.3636	0.1	909.43
5154	2.9429	2.5455	0.1	937.02
5155	2.9429	2.7273	0.1	955.51
5156	2.9429	2.9091	0.1	964.79
5157	2.9429	3.0909	0.1	964.79
5158	2.9429	3.2727	0.1	955.51
5159	2.9429	3.4545	0.1	937.02
5160	2.9429	3.6364	0.1	909.43
5161	2.9429	3.8182	0.1	872.94
5162	2.9429	4.	0.1	827.83
5163	2.9429	4.1818	0.1	774.52
5164	2.9429	4.3636	0.1	713.52
5165	2.9429	4.5455	0.1	645.5
5166	2.9429	4.7273	0.1	571.28
5167	2.9429	4.9091	0.1	491.8
5168	2.9429	5.0909	0.1	408.13
5169	2.9429	5.2727	0.1	321.4
5170	2.9429	5.4545	0.1	232.78
5171	2.9429	5.6364	0.1	143.03
5172	2.9429	5.8182	0.1	50.886
5173	3.1268	0.18182	0.1	50.685
5174	3.1268	0.36364	0.1	135.39
5175	3.1268	0.54545	0.1	217.94
5176	3.1268	0.72727	0.1	299.29
5177	3.1268	0.90909	0.1	378.84
5178	3.1268	1.0909	0.1	455.58
5179	3.1268	1.2727	0.1	528.52
5180	3.1268	1.4545	0.1	596.72
5181	3.1268	1.6364	0.1	659.34
5182	3.1268	1.8182	0.1	715.62
5183	3.1268	2.	0.1	764.92
5184	3.1268	2.1818	0.1	806.72
5185	3.1268	2.3636	0.1	840.62
5186	3.1268	2.5455	0.1	866.29
5187	3.1268	2.7273	0.1	883.52
5188	3.1268	2.9091	0.1	892.17
5189	3.1268	3.0909	0.1	892.17
5190	3.1268	3.2727	0.1	883.52
5191	3.1268	3.4545	0.1	866.29
5192	3.1268	3.6364	0.1	840.62
5193	3.1268	3.8182	0.1	806.72
5194	3.1268	4.	0.1	764.92
5195	3.1268	4.1818	0.1	715.62
5196	3.1268	4.3636	0.1	659.34
5197	3.1268	4.5455	0.1	596.72
5198	3.1268	4.7273	0.1	528.52
5199	3.1268	4.9091	0.1	455.58
5200	3.1268	5.0909	0.1	378.84
5201	3.1268	5.2727	0.1	299.29
5202	3.1268	5.4545	0.1	217.94
5203	3.1268	5.6364	0.1	135.39
5204	3.1268	5.8182	0.1	50.685
5205	3.3107	0.18182	0.1	49.976
5206	3.3107	0.36364	0.1	127.91
5207	3.3107	0.54545	0.1	203.91
5208	3.3107	0.72727	0.1	278.68
5209	3.3107	0.90909	0.1	351.72
5210	3.3107	1.0909	0.1	422.13
5211	3.3107	1.2727	0.1	489.07
5212	3.3107	1.4545	0.1	551.72
5213	3.3107	1.6364	0.1	609.3
5214	3.3107	1.8182	0.1	661.13
5215	3.3107	2.	0.1	706.6
5216	3.3107	2.1818	0.1	745.23
5217	3.3107	2.3636	0.1	776.59
5218	3.3107	2.5455	0.1	800.37
5219	3.3107	2.7273	0.1	816.36
5220	3.3107	2.9091	0.1	824.38
5221	3.3107	3.0909	0.1	824.38
5222	3.3107	3.2727	0.1	816.36
5223	3.3107	3.4545	0.1	800.37
5224	3.3107	3.6364	0.1	776.59
5225	3.3107	3.8182	0.1	745.23
5226	3.3107	4.	0.1	706.6
5227	3.3107	4.1818	0.1	661.13
5228	3.3107	4.3636	0.1	609.3
5229	3.3107	4.5455	0.1	551.72
5230	3.3107	4.7273	0.1	489.07
5231	3.3107	4.9091	0.1	422.13
5232	3.3107	5.0909	0.1	351.72
5233	3.3107	5.2727	0.1	278.68
5234	3.3107	5.4545	0.1	203.91
5235	3.3107	5.6364	0.1	127.91
5236	3.3107	5.8182	0.1	49.976
5237	3.4946	0.18182	0.1	48.847
5238	3.4946	0.36364	0.1	120.6
5239	3.4946	0.54545	0.1	190.62
5240	3.4946	0.72727	0.1	259.41
5241	3.4946	0.90909	0.1	326.5
5242	3.4946	1.0909	0.1	391.15
5243	3.4946	1.2727	0.1	452.6
5244	3.4946	1.4545	0.1	510.12
5245	3.4946	1.6364	0.1	563.03
5246	3.4946	1.8182	0.1	610.69
5247	3.4946	2.	0.1	652.56
5248	3.4946	2.1818	0.1	688.16
5249	3.4946	2.3636	0.1	717.09
5250	3.4946	2.5455	0.1	739.06
5251	3.4946	2.7273	0.1	753.83
5252	3.4946	2.9091	0.1	761.25
5253	3.4946	3.0909	0.1	761.25
5254	3.4946	3.2727	0.1	753.83
5255	3.4946	3.4545	0.1	739.06
5256	3.4946	3.6364	0.1	717.09
5257	3.4946	3.8182	0.1	688.16
5258	3.4946	4.	0.1	652.56
5259	3.4946	4.1818	0.1	610.69
5260	3.4946	4.3636	0.1	563.03
5261	3.4946	4.5455	0.1	510.12
5262	3.4946	4.7273	0.1	452.6
5263	3.4946	4.9091	0.1	391.15
5264	3.4946	5.0909	0.1	326.5
5265	3.4946	5.2727	0.1	259.41
5266	3.4946	5.4545	0.1	190.62
5267	3.4946	5.6364	0.1	120.6
5268	3.4946	5.8182	0.1	48.847
5269	3.6786	0.18182	0.1	47.375
5270	3.6786	0.36364	0.1	113.47
5271	3.6786	0.54545	0.1	178.02
5272	3.6786	0.72727	0.1	241.34
5273	3.6786	0.90909	0.1	303.02
5274	3.6786	1.0909	0.1	362.4
5275	3.6786	1.2727	0.1	418.81
5276	3.6786	1.4545	0.1	471.62
5277	3.6786	1.6364	0.1	520.2
5278	3.6786	1.8182	0.1	563.99
5279	3.6786	2.	0.1	602.48
5280	3.6786	2.1818	0.1	635.23
5281	3.6786	2.3636	0.1	661.87
5282	3.6786	2.5455	0.1	682.11
5283	3.6786	2.7273	0.1	695.73
5284	3.6786	2.9091	0.1	702.57
5285	3.6786	3.0909	0.1	702.57
5286	3.6786	3.2727	0.1	695.73
5287	3.6786	3.4545	0.1	682.11
5288	3.6786	3.6364	0.1	661.87
5289	3.6786	3.8182	0.1	635.23
5290	3.6786	4.	0.1	602.48
5291	3.6786	4.1818	0.1	563.99
5292	3.6786	4.3636	0.1	520.2
5293	3.6786	4.5455	0.1	471.62
5294	3.6786	4.7273	0.1	418.81
5295	3.6786	4.9091	0.1	362.4
5296	3.6786	5.0909	0.1	303.02
5297	3.6786	5.2727	0.1	241.34
5298	3.6786	5.4545	0.1	178.02
5299	3.6786	5.6364	0.1	113.47
5300	3.6786	5.8182	0.1	47.375
5301	3.8625	0.18182	0.1	45.631
5302	3.8625	0.36364	0.1	106.54
5303	3.8625	0.54545	0.1	166.07
5304	3.8625	0.72727	0.1	224.38
5305	3.8625	0.90909	0.1	281.11
5306	3.8625	1.0909	0.1	335.66
5307	3.8625	1.2727	0.1	387.47
5308	3.8625	1.4545	0.1	435.94
5309	3.8625	1.6364	0.1	480.53
5310	3.8625	1.8182	0.1	520.74
5311	3.8625	2.	0.1	556.09
5312	3.8625	2.1818	0.1	586.18
5313	3.8625	2.3636	0.1	610.67
5314	3.8625	2.5455	0.1	629.28
5315	3.8625	2.7273	0.1	641.8
5316	3.8625	2.9091	0.1	648.1
5317	3.8625	3.0909	0.1	648.1
5318	3.8625	3.2727	0.1	641.8
5319	3.8625	3.4545	0.1	629.28
5320	3.8625	3.6364	0.1	610.67
5321	3.8625	3.8182	0.1	586.18
5322	3.8625	4.	0.1	556.09
5323	3.8625	4.1818	0.1	520.74
5324	3.8625	4.3636	0.1	480.53
5325	3.8625	4.5455	0.1	435.94
5326	3.8625	4.7273	0.1	387.47
5327	3.8625	4.9091	0.1	335.66
5328	3.8625	5.0909	0.1	281.11
5329	3.8625	5.2727	0.1	224.38
5330	3.8625	5.4545	0.1	166.07
5331	3.8625	5.6364	0.1	106.54
5332	3.8625	5.8182	0.1	45.631
5333	4.0464	0.18182	0.1	43.675
5334	4.0464	0.36364	0.1	99.832
5335	4.0464	0.54545	0.1	154.74
5336	4.0464	0.72727	0.1	208.45
5337	4.0464	0.90909	0.1	260.64
5338	4.0464	1.0909	0.1	310.79
5339	4.0464	1.2727	0.1	358.36
5340	4.0464	1.4545	0.1	402.86
5341	4.0464	1.6364	0.1	443.78
5342	4.0464	1.8182	0.1	480.68
5343	4.0464	2.	0.1	513.12
5344	4.0464	2.1818	0.1	540.74
5345	4.0464	2.3636	0.1	563.22
5346	4.0464	2.5455	0.1	580.31
5347	4.0464	2.7273	0.1	591.82
5348	4.0464	2.9091	0.1	597.6
5349	4.0464	3.0909	0.1	597.6
5350	4.0464	3.2727	0.1	591.82
5351	4.0464	3.4545	0.1	580.31
5352	4.0464	3.6364	0.1	563.22
5353	4.0464	3.8182	0.1	540.74
5354	4.0464	4.	0.1	513.12
5355	4.0464	4.1818	0.1	480.68
5356	4.0464	4.3636	0.1	443.78
5357	4.0464	4.5455	0.1	402.86
5358	4.0464	4.7273	0.1	358.36
5359	4.0464	4.9091	0.1	310.79
5360	4.0464	5.0909	0.1	260.64
5361	4.0464	5.2727	0.1	208.45
5362	4.0464	5.4545	0.1	154.74
5363	4.0464	5.6364	0.1	99.832
5364	4.0464	5.8182	0.1	43.675
5365	4.2304	0.18182	0.1	41.562
5366	4.2304	0.36364	0.1	93.35
5367	4.2304	0.54545	0.1	144.01
5368	4.2304	0.72727	0.1	193.5
5369	4.2304	0.90909	0.1	241.53
5370	4.2304	1.0909	0.1	287.62
5371	4.2304	1.2727	0.1	331.32
5372	4.2304	1.4545	0.1	372.17
5373	4.2304	1.6364	0.1	409.72
5374	4.2304	1.8182	0.1	443.57
5375	4.2304	2.	0.1	473.33
5376	4.2304	2.1818	0.1	498.67
5377	4.2304	2.3636	0.1	519.29
5378	4.2304	2.5455	0.1	534.97
5379	4.2304	2.7273	0.1	545.52
5380	4.2304	2.9091	0.1	550.83
5381	4.2304	3.0909	0.1	550.83
5382	4.2304	3.2727	0.1	545.52
5383	4.2304	3.4545	0.1	534.97
5384	4.2304	3.6364	0.1	519.29
5385	4.2304	3.8182	0.1	498.67
5386	4.2304	4.	0.1	473.33
5387	4.2304	4.1818	0.1	443.57
5388	4.2304	4.3636	0.1	409.72
5389	4.2304	4.5455	0.1	372.17
5390	4.2304	4.7273	0.1	331.32
5391	4.2304	4.9091	0.1	287.62
5392	4.2304	5.0909	0.1	241.53
5393	4.2304	5.2727	0.1	193.5
5394	4.2304	5.4545	0.1	144.01
5395	4.2304	5.6364	0.1	93.35
5396	4.2304	5.8182	0.1	41.562
5397	4.4143	0.18182	0.1	39.337
5398	4.4143	0.36364	0.1	87.108
5399	4.4143	0.54545	0.1	133.85
5400	4.4143	0.72727	0.1	179.46
5401	4.4143	0.90909	0.1	223.67
5402	4.4143	1.0909	0.1	266.05
5403	4.4143	1.2727	0.1	306.2
5404	4.4143	1.4545	0.1	343.7
5405	4.4143	1.6364	0.1	378.16
5406	4.4143	1.8182	0.1	409.2
5407	4.4143	2.	0.1	436.49
5408	4.4143	2.1818	0.1	459.73
5409	4.4143	2.3636	0.1	478.64
5410	4.4143	2.5455	0.1	493.01
5411	4.4143	2.7273	0.1	502.69
5412	4.4143	2.9091	0.1	507.55
5413	4.4143	3.0909	0.1	507.55
5414	4.4143	3.2727	0.1	502.69
5415	4.4143	3.4545	0.1	493.01
5416	4.4143	3.6364	0.1	478.64
5417	4.4143	3.8182	0.1	459.73
5418	4.4143	4.	0.1	436.49
5419	4.4143	4.1818	0.1	409.2
5420	4.4143	4.3636	0.1	378.16
5421	4.4143	4.5455	0.1	343.7
5422	4.4143	4.7273	0.1	306.2
5423	4.4143	4.9091	0.1	266.05
5424	4.4143	5.0909	0.1	223.67
5425	4.4143	5.2727	0.1	179.46
5426	4.4143	5.4545	0.1	133.85
5427	4.4143	5.6364	0.1	87.108
5428	4.4143	5.8182	0.1	39.337
5429	4.5982	0.18182	0.1	37.041
5430	4.5982	0.36364	0.1	81.117
5431	4.5982	0.54545	0.1	124.25
5432	4.5982	0.72727	0.1	166.28
5433	4.5982	0.90909	0.1	206.98
5434	4.5982	1.0909	0.1	245.96
5435	4.5982	1.2727	0.1	282.85
5436	4.5982	1.4545	0.1	317.28
5437	4.5982	1.6364	0.1	348.9
5438	4.5982	1.8182	0.1	377.38
5439	4.5982	2.	0.1	402.4
5440	4.5982	2.1818	0.1	423.7
5441	4.5982	2.3636	0.1	441.03
5442	4.5982	2.5455	0.1	454.2
5443	4.5982	2.7273	0.1	463.07
5444	4.5982	2.9091	0.1	467.52
5445	4.5982	3.0909	0.1	467.52
5446	4.5982	3.2727	0.1	463.07
5447	4.5982	3.4545	0.1	454.2
5448	4.5982	3.6364	0.1	441.03
5449	4.5982	3.8182	0.1	423.7
5450	4.5982	4.	0.1	402.4
5451	4.5982	4.1818	0.1	377.38
5452	4.5982	4.3636	0.1	348.9
5453	4.5982	4.5455	0.1	317.28
5454	4.5982	4.7273	0.1	282.85
5455	4.5982	4.9091	0.1	245.96
5456	4.5982	5.0909	0.1	206.98
5457	4.5982	5.2727	0.1	166.28
5458	4.5982	5.4545	0.1	124.25
5459	4.5982	5.6364	0.1	81.117
5460	4.5982	5.8182	0.1	37.041
5461	4.7821	0.18182	0.1	34.706
5462	4.7821	0.36364	0.1	75.382
5463	4.7821	0.54545	0.1	115.18
5464	4.7821	0.72727	0.1	153.92
5465	4.7821	0.90909	0.1	191.39
5466	4.7821	1.0909	0.1	227.25
5467	4.7821	1.2727	0.1	261.15
5468	4.7821	1.4545	0.1	292.77
5469	4.7821	1.6364	0.1	321.78
5470	4.7821	1.8182	0.1	347.9
5471	4.7821	2.	0.1	370.85
5472	4.7821	2.1818	0.1	390.37
5473	4.7821	2.3636	0.1	406.25
5474	4.7821	2.5455	0.1	418.32
5475	4.7821	2.7273	0.1	426.44
5476	4.7821	2.9091	0.1	430.52
5477	4.7821	3.0909	0.1	430.52
5478	4.7821	3.2727	0.1	426.44
5479	4.7821	3.4545	0.1	418.32
5480	4.7821	3.6364	0.1	406.25
5481	4.7821	3.8182	0.1	390.37
5482	4.7821	4.	0.1	370.85
5483	4.7821	4.1818	0.1	347.9
5484	4.7821	4.3636	0.1	321.78
5485	4.7821	4.5455	0.1	292.77
5486	4.7821	4.7273	0.1	261.15
5487	4.7821	4.9091	0.1	227.25
5488	4.7821	5.0909	0.1	191.39
5489	4.7821	5.2727	0.1	153.92
5490	4.7821	5.4545	0.1	115.18
5491	4.7821	5.6364	0.1	75.382
5492	4.7821	5.8182	0.1	34.706
5493	4.9661	0.18182	0.1	32.36
5494	4.9661	0.36364	0.1	69.906
5495	4.9661	0.54545	0.1	106.63
5496	4.9661	0.72727	0.1	142.34
5497	4.9661	0.90909	0.1	176.84
5498	4.9661	1.0909	0.1	209.82
5499	4.9661	1.2727	0.1	240.98
5500	4.9661	1.4545	0.1	270.02
5501	4.9661	1.6364	0.1	296.66
5502	4.9661	1.8182	0.1	320.62
5503	4.9661	2.	0.1	341.65
5504	4.9661	2.1818	0.1	359.55
5505	4.9661	2.3636	0.1	374.1
5506	4.9661	2.5455	0.1	385.16
5507	4.9661	2.7273	0.1	392.6
5508	4.9661	2.9091	0.1	396.34
5509	4.9661	3.0909	0.1	396.34
5510	4.9661	3.2727	0.1	392.6
5511	4.9661	3.4545	0.1	385.16
5512	4.9661	3.6364	0.1	374.1
5513	4.9661	3.8182	0.1	359.55
5514	4.9661	4.	0.1	341.65
5515	4.9661	4.1818	0.1	320.62
5516	4.9661	4.3636	0.1	296.66
5517	4.9661	4.5455	0.1	270.02
5518	4.9661	4.7273	0.1	240.98
5519	4.9661	4.9091	0.1	209.82
5520	4.9661	5.0909	0.1	176.84
5521	4.9661	5.2727	0.1	142.34
5522	4.9661	5.4545	0.1	106.63
5523	4.9661	5.6364	0.1	69.906
5524	4.9661	5.8182	0.1	32.36
5525	5.15	0.18182	0.1	30.028
5526	5.15	0.36364	0.1	64.692
5527	5.15	0.54545	0.1	98.574
5528	5.15	0.72727	0.1	131.49
5529	5.15	0.90909	0.1	163.26
5530	5.15	1.0909	0.1	193.6
5531	5.15	1.2727	0.1	222.25
5532	5.15	1.4545	0.1	248.92
5533	5.15	1.6364	0.1	273.37
5534	5.15	1.8182	0.1	295.36
5535	5.15	2.	0.1	314.65
5536	5.15	2.1818	0.1	331.05
5537	5.15	2.3636	0.1	344.39
5538	5.15	2.5455	0.1	354.52
5539	5.15	2.7273	0.1	361.33
5540	5.15	2.9091	0.1	364.76
5541	5.15	3.0909	0.1	364.76
5542	5.15	3.2727	0.1	361.33
5543	5.15	3.4545	0.1	354.52
5544	5.15	3.6364	0.1	344.39
5545	5.15	3.8182	0.1	331.05
5546	5.15	4.	0.1	314.65
5547	5.15	4.1818	0.1	295.36
5548	5.15	4.3636	0.1	273.37
5549	5.15	4.5455	0.1	248.92
5550	5.15	4.7273	0.1	222.25
5551	5.15	4.9091	0.1	193.6
5552	5.15	5.0909	0.1	163.26
5553	5.15	5.2727	0.1	131.49
5554	5.15	5.4545	0.1	98.574
5555	5.15	5.6364	0.1	64.692
5556	5.15	5.8182	0.1	30.028
5557	5.3339	0.18182	0.1	27.727
5558	5.3339	0.36364	0.1	59.738
5559	5.3339	0.54545	0.1	90.997
5560	5.3339	0.72727	0.1	121.34
5561	5.3339	0.90909	0.1	150.59
5562	5.3339	1.0909	0.1	178.51
5563	5.3339	1.2727	0.1	204.85
5564	5.3339	1.4545	0.1	229.36
5565	5.3339	1.6364	0.1	251.8
5566	5.3339	1.8182	0.1	271.98
5567	5.3339	2.	0.1	289.67
5568	5.3339	2.1818	0.1	304.71
5569	5.3339	2.3636	0.1	316.93
5570	5.3339	2.5455	0.1	326.21
5571	5.3339	2.7273	0.1	332.46
5572	5.3339	2.9091	0.1	335.59
5573	5.3339	3.0909	0.1	335.59
5574	5.3339	3.2727	0.1	332.46
5575	5.3339	3.4545	0.1	326.21
5576	5.3339	3.6364	0.1	316.93
5577	5.3339	3.8182	0.1	304.71
5578	5.3339	4.	0.1	289.67
5579	5.3339	4.1818	0.1	271.98
5580	5.3339	4.3636	0.1	251.8
5581	5.3339	4.5455	0.1	229.36
5582	5.3339	4.7273	0.1	204.85
5583	5.3339	4.9091	0.1	178.51
5584	5.3339	5.0909	0.1	150.59
5585	5.3339	5.2727	0.1	121.34
5586	5.3339	5.4545	0.1	90.997
5587	5.3339	5.6364	0.1	59.738
5588	5.3339	5.8182	0.1	27.727
5589	5.5179	0.18182	0.1	25.473
5590	5.5179	0.36364	0.1	55.041
5591	5.5179	0.54545	0.1	83.878
5592	5.5179	0.72727	0.1	111.84
5593	5.5179	0.90909	0.1	138.79
5594	5.5179	1.0909	0.1	164.48
5595	5.5179	1.2727	0.1	188.69
5596	5.5179	1.4545	0.1	211.21
5597	5.5179	1.6364	0.1	231.83
5598	5.5179	1.8182	0.1	250.34
5599	5.5179	2.	0.1	266.57
5600	5.5179	2.1818	0.1	280.36
5601	5.5179	2.3636	0.1	291.56
5602	5.5179	2.5455	0.1	300.07
5603	5.5179	2.7273	0.1	305.79
5604	5.5179	2.9091	0.1	308.67
5605	5.5179	3.0909	0.1	308.67
5606	5.5179	3.2727	0.1	305.79
5607	5.5179	3.4545	0.1	300.07
5608	5.5179	3.6364	0.1	291.56
5609	5.5179	3.8182	0.1	280.36
5610	5.5179	4.	0.1	266.57
5611	5.5179	4.1818	0.1	250.34
5612	5.5179	4.3636	0.1	231.83
5613	5.5179	4.5455	0.1	211.21
5614	5.5179	4.7273	0.1	188.69
5615	5.5179	4.9091	0.1	164.48
5616	5.5179	5.0909	0.1	138.79
5617	5.5179	5.2727	0.1	111.84
5618	5.5179	5.4545	0.1	83.878
5619	5.5179	5.6364	0.1	55.041
5620	5.5179	5.8182	0.1	25.473
5621	5.7018	0.18182	0.1	23.278
5622	5.7018	0.36364	0.1	50.596
5623	5.7018	0.54545	0.1	77.196
5624	5.7018	0.72727	0.1	102.97
5625	5.7018	0.90909	0.1	127.78
5626	5.7018	1.0909	0.1	151.43
5627	5.7018	1.2727	0.1	173.69
5628	5.7018	1.4545	0.1	194.39
5629	5.7018	1.6364	0.1	213.32
5630	5.7018	1.8182	0.1	230.32
5631	5.7018	2.	0.1	245.21
5632	5.7018	2.1818	0.1	257.86
5633	5.7018	2.3636	0.1	268.13
5634	5.7018	2.5455	0.1	275.93
5635	5.7018	2.7273	0.1	281.17
5636	5.7018	2.9091	0.1	283.81
5637	5.7018	3.0909	0.1	283.81
5638	5.7018	3.2727	0.1	281.17
5639	5.7018	3.4545	0.1	275.93
5640	5.7018	3.6364	0.1	268.13
5641	5.7018	3.8182	0.1	257.86
5642	5.7018	4.	0.1	245.21
5643	5.7018	4.1818	0.1	230.32
5644	5.7018	4.3636	0.1	213.32
5645	5.7018	4.5455	0.1	194.39
5646	5.7018	4.7273	0.1	173.69
5647	5.7018	4.9091	0.1	151.43
5648	5.7018	5.0909	0.1	127.78
5649	5.7018	5.2727	0.1	102.97
5650	5.7018	5.4545	0.1	77.196
5651	5.7018	5.6364	0.1	50.596
5652	5.7018	5.8182	0.1	23.278
5653	5.8857	0.18182	0.1	21.151
5654	5.8857	0.36364	0.1	46.397
5655	5.8857	0.54545	0.1	70.932
5656	5.8857	0.72727	0.1	94.686
5657	5.8857	0.90909	0.1	117.54
5658	5.8857	1.0909	0.1	139.3
5659	5.8857	1.2727	0.1	159.78
5660	5.8857	1.4545	0.1	178.8
5661	5.8857	1.6364	0.1	196.19
5662	5.8857	1.8182	0.1	211.79
5663	5.8857	2.	0.1	225.46
5664	5.8857	2.1818	0.1	237.06
5665	5.8857	2.3636	0.1	246.48
5666	5.8857	2.5455	0.1	253.63
5667	5.8857	2.7273	0.1	258.44
5668	5.8857	2.9091	0.1	260.85
5669	5.8857	3.0909	0.1	260.85
5670	5.8857	3.2727	0.1	258.44
5671	5.8857	3.4545	0.1	253.63
5672	5.8857	3.6364	0.1	246.48
5673	5.8857	3.8182	0.1	237.06
5674	5.8857	4.	0.1	225.46
5675	5.8857	4.1818	0.1	211.79
5676	5.8857	4.3636	0.1	196.19
5677	5.8857	4.5455	0.1	178.8
5678	5.8857	4.7273	0.1	159.78
5679	5.8857	4.9091	0.1	139.3
5680	5.8857	5.0909	0.1	117.54
5681	5.8857	5.2727	0.1	94.686
5682	5.8857	5.4545	0.1	70.932
5683	5.8857	5.6364	0.1	46.397
5684	5.8857	5.8182	0.1	21.151
5685	6.0696	0.18182	0.1	19.098
5686	6.0696	0.36364	0.1	42.437
5687	6.0696	0.54545	0.1	65.065
5688	6.0696	0.72727	0.1	86.956
5689	6.0696	0.90909	0.1	108.
5690	6.0696	1.0909	0.1	128.03
5691	6.0696	1.2727	0.1	146.87
5692	6.0696	1.4545	0.1	164.35
5693	6.0696	1.6364	0.1	180.33
5694	6.0696	1.8182	0.1	194.66
5695	6.0696	2.	0.1	207.2
5696	6.0696	2.1818	0.1	217.85
5697	6.0696	2.3636	0.1	226.49
5698	6.0696	2.5455	0.1	233.05
5699	6.0696	2.7273	0.1	237.45
5700	6.0696	2.9091	0.1	239.67
5701	6.0696	3.0909	0.1	239.67
5702	6.0696	3.2727	0.1	237.45
5703	6.0696	3.4545	0.1	233.05
5704	6.0696	3.6364	0.1	226.49
5705	6.0696	3.8182	0.1	217.85
5706	6.0696	4.	0.1	207.2
5707	6.0696	4.1818	0.1	194.66
5708	6.0696	4.3636	0.1	180.33
5709	6.0696	4.5455	0.1	164.35
5710	6.0696	4.7273	0.1	146.87
5711	6.0696	4.9091	0.1	128.03
5712	6.0696	5.0909	0.1	108.
5713	6.0696	5.2727	0.1	86.956
5714	6.0696	5.4545	0.1	65.065
5715	6.0696	5.6364	0.1	42.437
5716	6.0696	5.8182	0.1	19.098
5717	6.2536	0.18182	0.1	17.126
5718	6.2536	0.36364	0.1	38.708
5719	6.2536	0.54545	0.1	59.575
5720	6.2536	0.72727	0.1	79.748
5721	6.2536	0.90909	0.1	99.131
5722	6.2536	1.0909	0.1	117.56
5723	6.2536	1.2727	0.1	134.89
5724	6.2536	1.4545	0.1	150.97
5725	6.2536	1.6364	0.1	165.65
5726	6.2536	1.8182	0.1	178.81
5727	6.2536	2.	0.1	190.33
5728	6.2536	2.1818	0.1	200.09
5729	6.2536	2.3636	0.1	208.02
5730	6.2536	2.5455	0.1	214.04
5731	6.2536	2.7273	0.1	218.08
5732	6.2536	2.9091	0.1	220.11
5733	6.2536	3.0909	0.1	220.11
5734	6.2536	3.2727	0.1	218.08
5735	6.2536	3.4545	0.1	214.04
5736	6.2536	3.6364	0.1	208.02
5737	6.2536	3.8182	0.1	200.09
5738	6.2536	4.	0.1	190.33
5739	6.2536	4.1818	0.1	178.81
5740	6.2536	4.3636	0.1	165.65
5741	6.2536	4.5455	0.1	150.97
5742	6.2536	4.7273	0.1	134.89
5743	6.2536	4.9091	0.1	117.56
5744	6.2536	5.0909	0.1	99.131
5745	6.2536	5.2727	0.1	79.748
5746	6.2536	5.4545	0.1	59.575
5747	6.2536	5.6364	0.1	38.708
5748	6.2536	5.8182	0.1	17.126
5749	6.4375	0.18182	0.1	15.236
5750	6.4375	0.36364	0.1	35.2
5751	6.4375	0.54545	0.1	54.443
5752	6.4375	0.72727	0.1	73.031
5753	6.4375	0.90909	0.1	90.881
5754	6.4375	1.0909	0.1	107.85
5755	6.4375	1.2727	0.1	123.79
5756	6.4375	1.4545	0.1	138.57
5757	6.4375	1.6364	0.1	152.06
5758	6.4375	1.8182	0.1	164.15
5759	6.4375	2.	0.1	174.72
5760	6.4375	2.1818	0.1	183.69
5761	6.4375	2.3636	0.1	190.97
5762	6.4375	2.5455	0.1	196.49
5763	6.4375	2.7273	0.1	200.19
5764	6.4375	2.9091	0.1	202.06
5765	6.4375	3.0909	0.1	202.06
5766	6.4375	3.2727	0.1	200.19
5767	6.4375	3.4545	0.1	196.49
5768	6.4375	3.6364	0.1	190.97
5769	6.4375	3.8182	0.1	183.69
5770	6.4375	4.	0.1	174.72
5771	6.4375	4.1818	0.1	164.15
5772	6.4375	4.3636	0.1	152.06
5773	6.4375	4.5455	0.1	138.57
5774	6.4375	4.7273	0.1	123.79
5775	6.4375	4.9091	0.1	107.85
5776	6.4375	5.0909	0.1	90.881
5777	6.4375	5.2727	0.1	73.031
5778	6.4375	5.4545	0.1	54.443
5779	6.4375	5.6364	0.1	35.2
5780	6.4375	5.8182	0.1	15.236
5781	6.6214	0.18182	0.1	13.43
5782	6.6214	0.36364	0.1	31.905
5783	6.6214	0.54545	0.1	49.647
5784	6.6214	0.72727	0.1	66.774
5785	6.6214	0.90909	0.1	83.212
5786	6.6214	1.0909	0.1	98.827
5787	6.6214	1.2727	0.1	113.49
5788	6.6214	1.4545	0.1	127.08
5789	6.6214	1.6364	0.1	139.48
5790	6.6214	1.8182	0.1	150.59
5791	6.6214	2.	0.1	160.3
5792	6.6214	2.1818	0.1	168.54
5793	6.6214	2.3636	0.1	175.21
5794	6.6214	2.5455	0.1	180.28
5795	6.6214	2.7273	0.1	183.68
5796	6.6214	2.9091	0.1	185.39
5797	6.6214	3.0909	0.1	185.39
5798	6.6214	3.2727	0.1	183.68
5799	6.6214	3.4545	0.1	180.28
5800	6.6214	3.6364	0.1	175.21
5801	6.6214	3.8182	0.1	168.54
5802	6.6214	4.	0.1	160.3
5803	6.6214	4.1818	0.1	150.59
5804	6.6214	4.3636	0.1	139.48
5805	6.6214	4.5455	0.1	127.08
5806	6.6214	4.7273	0.1	113.49
5807	6.6214	4.9091	0.1	98.827
5808	6.6214	5.0909	0.1	83.212
5809	6.6214	5.2727	0.1	66.774
5810	6.6214	5.4545	0.1	49.647
5811	6.6214	5.6364	0.1	31.905
5812	6.6214	5.8182	0.1	13.43
5813	6.8054	0.18182	0.1	11.709
5814	6.8054	0.36364	0.1	28.812
5815	6.8054	0.54545	0.1	45.169
5816	6.8054	0.72727	0.1	60.949
5817	6.8054	0.90909	0.1	76.086
5818	6.8054	1.0909	0.1	90.458
5819	6.8054	1.2727	0.1	103.95
5820	6.8054	1.4545	0.1	116.45
5821	6.8054	1.6364	0.1	127.85
5822	6.8054	1.8182	0.1	138.05
5823	6.8054	2.	0.1	146.97
5824	6.8054	2.1818	0.1	154.53
5825	6.8054	2.3636	0.1	160.66
5826	6.8054	2.5455	0.1	165.31
5827	6.8054	2.7273	0.1	168.43
5828	6.8054	2.9091	0.1	170.
5829	6.8054	3.0909	0.1	170.
5830	6.8054	3.2727	0.1	168.43
5831	6.8054	3.4545	0.1	165.31
5832	6.8054	3.6364	0.1	160.66
5833	6.8054	3.8182	0.1	154.53
5834	6.8054	4.	0.1	146.97
5835	6.8054	4.1818	0.1	138.05
5836	6.8054	4.3636	0.1	127.85
5837	6.8054	4.5455	0.1	116.45
5838	6.8054	4.7273	0.1	103.95
5839	6.8054	4.9091	0.1	90.458
5840	6.8054	5.0909	0.1	76.086
5841	6.8054	5.2727	0.1	60.949
5842	6.8054	5.4545	0.1	45.169
5843	6.8054	5.6364	0.1	28.812
5844	6.8054	5.8182	0.1	11.709
5845	6.9893	0.18182	0.1	10.073
5846	6.9893	0.36364	0.1	25.912
5847	6.9893	0.54545	0.1	40.991
5848	6.9893	0.72727	0.1	55.528
5849	6.9893	0.90909	0.1	69.466
5850	6.9893	1.0909	0.1	82.694
5851	6.9893	1.2727	0.1	95.104
5852	6.9893	1.4545	0.1	106.6
5853	6.9893	1.6364	0.1	117.08
5854	6.9893	1.8182	0.1	126.45
5855	6.9893	2.	0.1	134.65
5856	6.9893	2.1818	0.1	141.59
5857	6.9893	2.3636	0.1	147.22
5858	6.9893	2.5455	0.1	151.49
5859	6.9893	2.7273	0.1	154.36
5860	6.9893	2.9091	0.1	155.8
5861	6.9893	3.0909	0.1	155.8
5862	6.9893	3.2727	0.1	154.36
5863	6.9893	3.4545	0.1	151.49
5864	6.9893	3.6364	0.1	147.22
5865	6.9893	3.8182	0.1	141.59
5866	6.9893	4.	0.1	134.65
5867	6.9893	4.1818	0.1	126.45
5868	6.9893	4.3636	0.1	117.08
5869	6.9893	4.5455	0.1	106.6
5870	6.9893	4.7273	0.1	95.104
5871	6.9893	4.9091	0.1	82.693
5872	6.9893	5.0909	0.1	69.466
5873	6.9893	5.2727	0.1	55.528
5874	6.9893	5.4545	0.1	40.991
5875	6.9893	5.6364	0.1	25.912
5876	6.9893	5.8182	0.1	10.073
5877	7.1732	0.18182	0.1	8.5215
5878	7.1732	0.36364	0.1	23.195
5879	7.1732	0.54545	0.1	37.095
5880	7.1732	0.72727	0.1	50.485
5881	7.1732	0.90909	0.1	63.318
5882	7.1732	1.0909	0.1	75.492
5883	7.1732	1.2727	0.1	86.91
5884	7.1732	1.4545	0.1	97.479
5885	7.1732	1.6364	0.1	107.11
5886	7.1732	1.8182	0.1	115.73
5887	7.1732	2.	0.1	123.26
5888	7.1732	2.1818	0.1	129.64
5889	7.1732	2.3636	0.1	134.81
5890	7.1732	2.5455	0.1	138.73
5891	7.1732	2.7273	0.1	141.36
5892	7.1732	2.9091	0.1	142.68
5893	7.1732	3.0909	0.1	142.68
5894	7.1732	3.2727	0.1	141.36
5895	7.1732	3.4545	0.1	138.73
5896	7.1732	3.6364	0.1	134.81
5897	7.1732	3.8182	0.1	129.64
5898	7.1732	4.	0.1	123.26
5899	7.1732	4.1818	0.1	115.73
5900	7.1732	4.3636	0.1	107.11
5901	7.1732	4.5455	0.1	97.479
5902	7.1732	4.7273	0.1	86.91
5903	7.1732	4.9091	0.1	75.492
5904	7.1732	5.0909	0.1	63.318
5905	7.1732	5.2727	0.1	50.485
5906	7.1732	5.4545	0.1	37.095
5907	7.1732	5.6364	0.1	23.195
5908	7.1732	5.8182	0.1	8.5215
5909	7.3571	0.18182	0.1	7.0524
5910	7.3571	0.36364	0.1	20.65
5911	7.3571	0.54545	0.1	33.462
5912	7.3571	0.72727	0.1	45.794
5913	7.3571	0.90909	0.1	57.609
5914	7.3571	1.0909	0.1	68.813
5915	7.3571	1.2727	0.1	79.317
5916	7.3571	1.4545	0.1	89.036
5917	7.3571	1.6364	0.1	97.893
5918	7.3571	1.8182	0.1	105.81
5919	7.3571	2.	0.1	112.73
5920	7.3571	2.1818	0.1	118.59
5921	7.3571	2.3636	0.1	123.34
5922	7.3571	2.5455	0.1	126.94
5923	7.3571	2.7273	0.1	129.35
5924	7.3571	2.9091	0.1	130.56
5925	7.3571	3.0909	0.1	130.56
5926	7.3571	3.2727	0.1	129.35
5927	7.3571	3.4545	0.1	126.94
5928	7.3571	3.6364	0.1	123.34
5929	7.3571	3.8182	0.1	118.59
5930	7.3571	4.	0.1	112.73
5931	7.3571	4.1818	0.1	105.81
5932	7.3571	4.3636	0.1	97.893
5933	7.3571	4.5455	0.1	89.036
5934	7.3571	4.7273	0.1	79.317
5935	7.3571	4.9091	0.1	68.813
5936	7.3571	5.0909	0.1	57.609
5937	7.3571	5.2727	0.1	45.794
5938	7.3571	5.4545	0.1	33.462
5939	7.3571	5.6364	0.1	20.65
5940	7.3571	5.8182	0.1	7.0524
5941	7.5411	0.18182	0.1	5.6648
5942	7.5411	0.36364	0.1	18.27
5943	7.5411	0.54545	0.1	30.077
5944	7.5411	0.72727	0.1	41.434
5945	7.5411	0.90909	0.1	52.31
5946	7.5411	1.0909	0.1	62.619
5947	7.5411	1.2727	0.1	72.282
5948	7.5411	1.4545	0.1	81.22
5949	7.5411	1.6364	0.1	89.362
5950	7.5411	1.8182	0.1	96.641
5951	7.5411	2.	0.1	103.
5952	7.5411	2.1818	0.1	108.38
5953	7.5411	2.3636	0.1	112.74
5954	7.5411	2.5455	0.1	116.04
5955	7.5411	2.7273	0.1	118.26
5956	7.5411	2.9091	0.1	119.38
5957	7.5411	3.0909	0.1	119.38
5958	7.5411	3.2727	0.1	118.26
5959	7.5411	3.4545	0.1	116.04
5960	7.5411	3.6364	0.1	112.74
5961	7.5411	3.8182	0.1	108.38
5962	7.5411	4.	0.1	103.
5963	7.5411	4.1818	0.1	96.641
5964	7.5411	4.3636	0.1	89.362
5965	7.5411	4.5455	0.1	81.22
5966	7.5411	4.7273	0.1	72.282
5967	7.5411	4.9091	0.1	62.619
5968	7.5411	5.0909	0.1	52.31
5969	7.5411	5.2727	0.1	41.434
5970	7.5411	5.4545	0.1	30.077
5971	7.5411	5.6364	0.1	18.27
5972	7.5411	5.8182	0.1	5.6648
5973	7.725	0.18182	0.1	4.3586
5974	7.725	0.36364	0.1	16.043
5975	7.725	0.54545	0.1	26.923
5976	7.725	0.72727	0.1	37.38
5977	7.725	0.90909	0.1	47.39
5978	7.725	1.0909	0.1	56.876
5979	7.725	1.2727	0.1	65.764
5980	7.725	1.4545	0.1	73.983
5981	7.725	1.6364	0.1	81.468
5982	7.725	1.8182	0.1	88.158
5983	7.725	2.	0.1	93.999
5984	7.725	2.1818	0.1	98.943
5985	7.725	2.3636	0.1	102.95
5986	7.725	2.5455	0.1	105.98
5987	7.725	2.7273	0.1	108.02
5988	7.725	2.9091	0.1	109.04
5989	7.725	3.0909	0.1	109.04
5990	7.725	3.2727	0.1	108.02
5991	7.725	3.4545	0.1	105.98
5992	7.725	3.6364	0.1	102.95
5993	7.725	3.8182	0.1	98.943
5994	7.725	4.	0.1	93.999
5995	7.725	4.1818	0.1	88.158
5996	7.725	4.3636	0.1	81.468
5997	7.725	4.5455	0.1	73.983
5998	7.725	4.7273	0.1	65.764
5999	7.725	4.9091	0.1	56.876
6000	7.725	5.0909	0.1	47.39
6001	7.725	5.2727	0.1	37.38
6002	7.725	5.4545	0.1	26.923
6003	7.725	5.6364	0.1	16.043
6004	7.725	5.8182	0.1	4.3586
6005	7.9089	0.18182	0.1	3.1364
6006	7.9089	0.36364	0.1	13.961
6007	7.9089	0.54545	0.1	23.985
6008	7.9089	0.72727	0.1	33.612
6009	7.9089	0.90909	0.1	42.824
6010	7.9089	1.0909	0.1	51.551
6011	7.9089	1.2727	0.1	59.725
6012	7.9089	1.4545	0.1	67.282
6013	7.9089	1.6364	0.1	74.162
6014	7.9089	1.8182	0.1	80.311
6015	7.9089	2.	0.1	85.677
6016	7.9089	2.1818	0.1	90.218
6017	7.9089	2.3636	0.1	93.897
6018	7.9089	2.5455	0.1	96.683
6019	7.9089	2.7273	0.1	98.554
6020	7.9089	2.9091	0.1	99.493
6021	7.9089	3.0909	0.1	99.493
6022	7.9089	3.2727	0.1	98.554
6023	7.9089	3.4545	0.1	96.683
6024	7.9089	3.6364	0.1	93.897
6025	7.9089	3.8182	0.1	90.218
6026	7.9089	4.	0.1	85.677
6027	7.9089	4.1818	0.1	80.311
6028	7.9089	4.3636	0.1	74.162
6029	7.9089	4.5455	0.1	67.282
6030	7.9089	4.7273	0.1	59.725
6031	7.9089	4.9091	0.1	51.551
6032	7.9089	5.0909	0.1	42.824
6033	7.9089	5.2727	0.1	33.612
6034	7.9089	5.4545	0.1	23.985
6035	7.9089	5.6364	0.1	13.961
6036	7.9089	5.8182	0.1	3.1364
6037	8.0929	0.18182	0.1	2.0106
6038	8.0929	0.36364	0.1	12.015
6039	8.0929	0.54545	0.1	21.249
6040	8.0929	0.72727	0.1	30.11
6041	8.0929	0.90909	0.1	38.586
6042	8.0929	1.0909	0.1	46.613
6043	8.0929	1.2727	0.1	54.13
6044	8.0929	1.4545	0.1	61.077
6045	8.0929	1.6364	0.1	67.401
6046	8.0929	1.8182	0.1	73.05
6047	8.0929	2.	0.1	77.98
6048	8.0929	2.1818	0.1	82.152
6049	8.0929	2.3636	0.1	85.53
6050	8.0929	2.5455	0.1	88.089
6051	8.0929	2.7273	0.1	89.806
6052	8.0929	2.9091	0.1	90.669
6053	8.0929	3.0909	0.1	90.669
6054	8.0929	3.2727	0.1	89.806
6055	8.0929	3.4545	0.1	88.089
6056	8.0929	3.6364	0.1	85.53
6057	8.0929	3.8182	0.1	82.152
6058	8.0929	4.	0.1	77.98
6059	8.0929	4.1818	0.1	73.05
6060	8.0929	4.3636	0.1	67.401
6061	8.0929	4.5455	0.1	61.077
6062	8.0929	4.7273	0.1	54.13
6063	8.0929	4.9091	0.1	46.613
6064	8.0929	5.0909	0.1	38.586
6065	8.0929	5.2727	0.1	30.11
6066	8.0929	5.4545	0.1	21.249
6067	8.0929	5.6364	0.1	12.015
6068	8.0929	5.8182	0.1	2.0106
6069	8.2768	0.18182	0.1	1.0356
6070	8.2768	0.36364	0.1	10.196
6071	8.2768	0.54545	0.1	18.701
6072	8.2768	0.72727	0.1	26.855
6073	8.2768	0.90909	0.1	34.652
6074	8.2768	1.0909	0.1	42.034
6075	8.2768	1.2727	0.1	48.945
6076	8.2768	1.4545	0.1	55.331
6077	8.2768	1.6364	0.1	61.142
6078	8.2768	1.8182	0.1	66.332
6079	8.2768	2.	0.1	70.861
6080	8.2768	2.1818	0.1	74.692
6081	8.2768	2.3636	0.1	77.794
6082	8.2768	2.5455	0.1	80.143
6083	8.2768	2.7273	0.1	81.72
6084	8.2768	2.9091	0.1	82.512
6085	8.2768	3.0909	0.1	82.512
6086	8.2768	3.2727	0.1	81.72
6087	8.2768	3.4545	0.1	80.143
6088	8.2768	3.6364	0.1	77.794
6089	8.2768	3.8182	0.1	74.692
6090	8.2768	4.	0.1	70.861
6091	8.2768	4.1818	0.1	66.332
6092	8.2768	4.3636	0.1	61.141
6093	8.2768	4.5455	0.1	55.331
6094	8.2768	4.7273	0.1	48.945
6095	8.2768	4.9091	0.1	42.034
6096	8.2768	5.0909	0.1	34.652
6097	8.2768	5.2727	0.1	26.855
6098	8.2768	5.4545	0.1	18.701
6099	8.2768	5.6364	0.1	10.196
6100	8.2768	5.8182	0.1	1.0356
6101	8.4607	0.18182	0.1	0.40166
6102	8.4607	0.36364	0.1	8.4968
6103	8.4607	0.54545	0.1	16.328
6104	8.4607	0.72727	0.1	23.829
6105	8.4607	0.90909	0.1	31.
6106	8.4607	1.0909	0.1	37.787
6107	8.4607	1.2727	0.1	44.139
6108	8.4607	1.4545	0.1	50.007
6109	8.4607	1.6364	0.1	55.346
6110	8.4607	1.8182	0.1	60.114
6111	8.4607	2.	0.1	64.273
6112	8.4607	2.1818	0.1	67.791
6113	8.4607	2.3636	0.1	70.639
6114	8.4607	2.5455	0.1	72.796
6115	8.4607	2.7273	0.1	74.243
6116	8.4607	2.9091	0.1	74.97
6117	8.4607	3.0909	0.1	74.97
6118	8.4607	3.2727	0.1	74.243
6119	8.4607	3.4545	0.1	72.796
6120	8.4607	3.6364	0.1	70.639
6121	8.4607	3.8182	0.1	67.79
6122	8.4607	4.	0.1	64.273
6123	8.4607	4.1818	0.1	60.113
6124	8.4607	4.3636	0.1	55.346
6125	8.4607	4.5455	0.1	50.007
6126	8.4607	4.7273	0.1	44.139
6127	8.4607	4.9091	0.1	37.787
6128	8.4607	5.0909	0.1	31.
6129	8.4607	5.2727	0.1	23.829
6130	8.4607	5.4545	0.1	16.328
6131	8.4607	5.6364	0.1	8.4968
6132	8.4607	5.8182	0.1	0.40166
6133	8.6446	0.18182	0.1	0.17259
6134	8.6446	0.36364	0.1	6.9086
6135	8.6446	0.54545	0.1	14.118
6136	8.6446	0.72727	0.1	21.016
6137	8.6446	0.90909	0.1	27.609
6138	8.6446	1.0909	0.1	33.847
6139	8.6446	1.2727	0.1	39.684
6140	8.6446	1.4545	0.1	45.075
6141	8.6446	1.6364	0.1	49.978
6142	8.6446	1.8182	0.1	54.356
6143	8.6446	2.	0.1	58.175
6144	8.6446	2.1818	0.1	61.404
6145	8.6446	2.3636	0.1	64.019
6146	8.6446	2.5455	0.1	65.999
6147	8.6446	2.7273	0.1	67.327
6148	8.6446	2.9091	0.1	67.994
6149	8.6446	3.0909	0.1	67.994
6150	8.6446	3.2727	0.1	67.327
6151	8.6446	3.4545	0.1	65.999
6152	8.6446	3.6364	0.1	64.019
6153	8.6446	3.8182	0.1	61.404
6154	8.6446	4.	0.1	58.175
6155	8.6446	4.1818	0.1	54.356
6156	8.6446	4.3636	0.1	49.978
6157	8.6446	4.5455	0.1	45.075
6158	8.6446	4.7273	0.1	39.684
6159	8.6446	4.9091	0.1	33.847
6160	8.6446	5.0909	0.1	27.609
6161	8.6446	5.2727	0.1	21.016
6162	8.6446	5.4545	0.1	14.118
6163	8.6446	5.6364	0.1	6.9085
6164	8.6446	5.8182	0.1	0.17259
6165	8.8286	0.18182	0.1	9.5412e-002
6166	8.8286	0.36364	0.1	5.4242
6167	8.8286	0.54545	0.1	12.059
6168	8.8286	0.72727	0.1	18.401
6169	8.8286	0.90909	0.1	24.459
6170	8.8286	1.0909	0.1	30.191
6171	8.8286	1.2727	0.1	35.552
6172	8.8286	1.4545	0.1	40.503
6173	8.8286	1.6364	0.1	45.005
6174	8.8286	1.8182	0.1	49.024
6175	8.8286	2.	0.1	52.529
6176	8.8286	2.1818	0.1	55.493
6177	8.8286	2.3636	0.1	57.892
6178	8.8286	2.5455	0.1	59.708
6179	8.8286	2.7273	0.1	60.927
6180	8.8286	2.9091	0.1	61.539
6181	8.8286	3.0909	0.1	61.539
6182	8.8286	3.2727	0.1	60.927
6183	8.8286	3.4545	0.1	59.708
6184	8.8286	3.6364	0.1	57.892
6185	8.8286	3.8182	0.1	55.493
6186	8.8286	4.	0.1	52.529
6187	8.8286	4.1818	0.1	49.024
6188	8.8286	4.3636	0.1	45.005
6189	8.8286	4.5455	0.1	40.503
6190	8.8286	4.7273	0.1	35.552
6191	8.8286	4.9091	0.1	30.191
6192	8.8286	5.0909	0.1	24.459
6193	8.8286	5.2727	0.1	18.401
6194	8.8286	5.4545	0.1	12.059
6195	8.8286	5.6364	0.1	5.4241
6196	8.8286	5.8182	0.1	9.5412e-002
6197	9.0125	0.18182	0.1	6.1033e-002
6198	9.0125	0.36364	0.1	4.0366
6199	9.0125	0.54545	0.1	10.141
6200	9.0125	0.72727	0.1	15.968
6201	9.0125	0.90909	0.1	21.533
6202	9.0125	1.0909	0.1	26.797
6203	9.0125	1.2727	0.1	31.719
6204	9.0125	1.4545	0.1	36.264
6205	9.0125	1.6364	0.1	40.396
6206	9.0125	1.8182	0.1	44.084
6207	9.0125	2.	0.1	47.299
6208	9.0125	2.1818	0.1	50.018
6209	9.0125	2.3636	0.1	52.219
6210	9.0125	2.5455	0.1	53.884
6211	9.0125	2.7273	0.1	55.002
6212	9.0125	2.9091	0.1	55.563
6213	9.0125	3.0909	0.1	55.563
6214	9.0125	3.2727	0.1	55.002
6215	9.0125	3.4545	0.1	53.884
6216	9.0125	3.6364	0.1	52.218
6217	9.0125	3.8182	0.1	50.018
6218	9.0125	4.	0.1	47.299
6219	9.0125	4.1818	0.1	44.083
6220	9.0125	4.3636	0.1	40.396
6221	9.0125	4.5455	0.1	36.264
6222	9.0125	4.7273	0.1	31.719
6223	9.0125	4.9091	0.1	26.797
6224	9.0125	5.0909	0.1	21.533
6225	9.0125	5.2727	0.1	15.968
6226	9.0125	5.4545	0.1	10.141
6227	9.0125	5.6364	0.1	4.0365
6228	9.0125	5.8182	0.1	6.1034e-002
6229	9.1964	0.18182	0.1	4.2434e-002
6230	9.1964	0.36364	0.1	2.7392
6231	9.1964	0.54545	0.1	8.3521
6232	9.1964	0.72727	0.1	13.704
6233	9.1964	0.90909	0.1	18.813
6234	9.1964	1.0909	0.1	23.645
6235	9.1964	1.2727	0.1	28.162
6236	9.1964	1.4545	0.1	32.331
6237	9.1964	1.6364	0.1	36.121
6238	9.1964	1.8182	0.1	39.503
6239	9.1964	2.	0.1	42.452
6240	9.1964	2.1818	0.1	44.945
6241	9.1964	2.3636	0.1	46.962
6242	9.1964	2.5455	0.1	48.489
6243	9.1964	2.7273	0.1	49.514
6244	9.1964	2.9091	0.1	50.028
6245	9.1964	3.0909	0.1	50.028
6246	9.1964	3.2727	0.1	49.514
6247	9.1964	3.4545	0.1	48.489
6248	9.1964	3.6364	0.1	46.962
6249	9.1964	3.8182	0.1	44.945
6250	9.1964	4.	0.1	42.452
6251	9.1964	4.1818	0.1	39.503
6252	9.1964	4.3636	0.1	36.121
6253	9.1964	4.5455	0.1	32.331
6254	9.1964	4.7273	0.1	28.162
6255	9.1964	4.9091	0.1	23.645
6256	9.1964	5.0909	0.1	18.813
6257	9.1964	5.2727	0.1	13.704
6258	9.1964	5.4545	0.1	8.3521
6259	9.1964	5.6364	0.1	2.7392
6260	9.1964	5.8182	0.1	4.2435e-002
6261	9.3804	0.18182	0.1	3.11e-002
6262	9.3804	0.36364	0.1	1.5262
6263	9.3804	0.54545	0.1	6.6842
6264	9.3804	0.72727	0.1	11.596
6265	9.3804	0.90909	0.1	16.284
6266	9.3804	1.0909	0.1	20.716
6267	9.3804	1.2727	0.1	24.858
6268	9.3804	1.4545	0.1	28.681
6269	9.3804	1.6364	0.1	32.155
6270	9.3804	1.8182	0.1	35.255
6271	9.3804	2.	0.1	37.957
6272	9.3804	2.1818	0.1	40.241
6273	9.3804	2.3636	0.1	42.089
6274	9.3804	2.5455	0.1	43.488
6275	9.3804	2.7273	0.1	44.427
6276	9.3804	2.9091	0.1	44.898
6277	9.3804	3.0909	0.1	44.898
6278	9.3804	3.2727	0.1	44.427
6279	9.3804	3.4545	0.1	43.488
6280	9.3804	3.6364	0.1	42.089
6281	9.3804	3.8182	0.1	40.241
6282	9.3804	4.	0.1	37.957
6283	9.3804	4.1818	0.1	35.255
6284	9.3804	4.3636	0.1	32.155
6285	9.3804	4.5455	0.1	28.681
6286	9.3804	4.7273	0.1	24.858
6287	9.3804	4.9091	0.1	20.716
6288	9.3804	5.0909	0.1	16.284
6289	9.3804	5.2727	0.1	11.596
6290	9.3804	5.4545	0.1	6.6842
6291	9.3804	5.6364	0.1	1.5262
6292	9.3804	5.8182	0.1	3.1101e-002
6293	9.5643	0.18182	0.1	2.3639e-002
6294	9.5643	0.36364	0.1	0.39757
6295	9.5643	0.54545	0.1	5.1278
6296	9.5643	0.72727	0.1	9.6331
6297	9.5643	0.90909	0.1	13.931
6298	9.5643	1.0909	0.1	17.993
6299	9.5643	1.2727	0.1	21.789
6300	9.5643	1.4545	0.1	25.291
6301	9.5643	1.6364	0.1	28.473
6302	9.5643	1.8182	0.1	31.312
6303	9.5643	2.	0.1	33.786
6304	9.5643	2.1818	0.1	35.877
6305	9.5643	2.3636	0.1	37.569
6306	9.5643	2.5455	0.1	38.849
6307	9.5643	2.7273	0.1	39.708
6308	9.5643	2.9091	0.1	40.139
6309	9.5643	3.0909	0.1	40.139
6310	9.5643	3.2727	0.1	39.708
6311	9.5643	3.4545	0.1	38.849
6312	9.5643	3.6364	0.1	37.569
6313	9.5643	3.8182	0.1	35.877
6314	9.5643	4.	0.1	33.786
6315	9.5643	4.1818	0.1	31.312
6316	9.5643	4.3636	0.1	28.473
6317	9.5643	4.5455	0.1	25.291
6318	9.5643	4.7273	0.1	21.789
6319	9.5643	4.9091	0.1	17.993
6320	9.5643	5.0909	0.1	13.931
6321	9.5643	5.2727	0.1	9.6331
6322	9.5643	5.4545	0.1	5.1278
6323	9.5643	5.6364	0.1	0.39756
6324	9.5643	5.8182	0.1	2.364e-002
6325	9.7482	0.18182	0.1	1.8458e-002
6326	9.7482	0.36364	0.1	-9.8024e-003
6327	9.7482	0.54545	0.1	3.6745
6328	9.7482	0.72727	0.1	7.803
6329	9.7482	0.90909	0.1	11.74
6330	9.7482	1.0909	0.1	15.459
6331	9.7482	1.2727	0.1	18.934
6332	9.7482	1.4545	0.1	22.139
6333	9.7482	1.6364	0.1	25.051
6334	9.7482	1.8182	0.1	27.649
6335	9.7482	2.	0.1	29.912
6336	9.7482	2.1818	0.1	31.824
6337	9.7482	2.3636	0.1	33.372
6338	9.7482	2.5455	0.1	34.543
6339	9.7482	2.7273	0.1	35.328
6340	9.7482	2.9091	0.1	35.722
6341	9.7482	3.0909	0.1	35.722
6342	9.7482	3.2727	0.1	35.328
6343	9.7482	3.4545	0.1	34.543
6344	9.7482	3.6364	0.1	33.372
6345	9.7482	3.8182	0.1	31.824
6346	9.7482	4.	0.1	29.912
6347	9.7482	4.1818	0.1	27.649
6348	9.7482	4.3636	0.1	25.051
6349	9.7482	4.5455	0.1	22.139
6350	9.7482	4.7273	0.1	18.934
6351	9.7482	4.9091	0.1	15.459
6352	9.7482	5.0909	0.1	11.74
6353	9.7482	5.2727	0.1	7.803
6354	9.7482	5.4545	0.1	3.6744
6355	9.7482	5.6364	0.1	-9.8011e-003
6356	9.7482	5.8182	0.1	1.8459e-002
6357	9.9321	0.18182	0.1	1.4721e-002
6358	9.9321	0.36364	0.1	-1.1562e-002
6359	9.9321	0.54545	0.1	2.3164
6360	9.9321	0.72727	0.1	6.0955
6361	9.9321	0.90909	0.1	9.6976
6362	9.9321	1.0909	0.1	13.1
6363	9.9321	1.2727	0.1	16.277
6364	9.9321	1.4545	0.1	19.207
6365	9.9321	1.6364	0.1	21.869
6366	9.9321	1.8182	0.1	24.243
6367	9.9321	2.	0.1	26.31
6368	9.9321	2.1818	0.1	28.058
6369	9.9321	2.3636	0.1	29.471
6370	9.9321	2.5455	0.1	30.54
6371	9.9321	2.7273	0.1	31.258
6372	9.9321	2.9091	0.1	31.618
6373	9.9321	3.0909	0.1	31.618
6374	9.9321	3.2727	0.1	31.258
6375	9.9321	3.4545	0.1	30.54
6376	9.9321	3.6364	0.1	29.471
6377	9.9321	3.8182	0.1	28.058
6378	9.9321	4.	0.1	26.31
6379	9.9321	4.1818	0.1	24.243
6380	9.9321	4.3636	0.1	21.869
6381	9.9321	4.5455	0.1	19.207
6382	9.9321	4.7273	0.1	16.277
6383	9.9321	4.9091	0.1	13.1
6384	9.9321	5.0909	0.1	9.6975
6385	9.9321	5.2727	0.1	6.0955
6386	9.9321	5.4545	0.1	2.3164
6387	9.9321	5.6364	0.1	-1.1561e-002
6388	9.9321	5.8182	0.1	1.4722e-002
6389	10.116	0.18182	0.1	1.1894e-002
6390	10.116	0.36364	0.1	-1.0445e-002
6391	10.116	0.54545	0.1	1.0468
6392	10.116	0.72727	0.1	4.501
6393	10.116	0.90909	0.1	7.7922
6394	10.116	1.0909	0.1	10.9
6395	10.116	1.2727	0.1	13.801
6396	10.116	1.4545	0.1	16.477
6397	10.116	1.6364	0.1	18.906
6398	10.116	1.8182	0.1	21.072
6399	10.116	2.	0.1	22.959
6400	10.116	2.1818	0.1	24.553
6401	10.116	2.3636	0.1	25.842
6402	10.116	2.5455	0.1	26.817
6403	10.116	2.7273	0.1	27.472
6404	10.116	2.9091	0.1	27.8
6405	10.116	3.0909	0.1	27.8
6406	10.116	3.2727	0.1	27.472
6407	10.116	3.4545	0.1	26.817
6408	10.116	3.6364	0.1	25.842
6409	10.116	3.8182	0.1	24.553
6410	10.116	4.	0.1	22.959
6411	10.116	4.1818	0.1	21.072
6412	10.116	4.3636	0.1	18.906
6413	10.116	4.5455	0.1	16.477
6414	10.116	4.7273	0.1	13.801
6415	10.116	4.9091	0.1	10.9
6416	10.116	5.0909	0.1	7.7922
6417	10.116	5.2727	0.1	4.501
6418	10.116	5.4545	0.1	1.0467
6419	10.116	5.6364	0.1	-1.0443e-002
6420	10.116	5.8182	0.1	1.1896e-002
6421	10.3	0.18182	0.1	9.7124e-003
6422	10.3	0.36364	0.1	-8.9476e-003
6423	10.3	0.54545	0.1	1.4011e-002
6424	10.3	0.72727	0.1	3.0105
6425	10.3	0.90909	0.1	6.0126
6426	10.3	1.0909	0.1	8.8463
6427	10.3	1.2727	0.1	11.492
6428	10.3	1.4545	0.1	13.93
6429	10.3	1.6364	0.1	16.144
6430	10.3	1.8182	0.1	18.117
6431	10.3	2.	0.1	19.835
6432	10.3	2.1818	0.1	21.287
6433	10.3	2.3636	0.1	22.461
6434	10.3	2.5455	0.1	23.349
6435	10.3	2.7273	0.1	23.945
6436	10.3	2.9091	0.1	24.243
6437	10.3	3.0909	0.1	24.243
6438	10.3	3.2727	0.1	23.945
6439	10.3	3.4545	0.1	23.349
6440	10.3	3.6364	0.1	22.461
6441	10.3	3.8182	0.1	21.287
6442	10.3	4.	0.1	19.835
6443	10.3	4.1818	0.1	18.117
6444	10.3	4.3636	0.1	16.143
6445	10.3	4.5455	0.1	13.93
6446	10.3	4.7273	0.1	11.492
6447	10.3	4.9091	0.1	8.8463
6448	10.3	5.0909	0.1	6.0125
6449	10.3	5.2727	0.1	3.0104
6450	10.3	5.4545	0.1	1.4007e-002
6451	10.3	5.6364	0.1	-8.9467e-003
6452	10.3	5.8182	0.1	9.713e-003
6453	10.484	0.18182	0.1	8.0674e-003
6454	10.484	0.36364	0.1	-7.3265e-003
6455	10.484	0.54545	0.1	7.5031e-004
6456	10.484	0.72727	0.1	1.6169
6457	10.484	0.90909	0.1	4.3485
6458	10.484	1.0909	0.1	6.9274
6459	10.484	1.2727	0.1	9.3342
6460	10.484	1.4545	0.1	11.552
6461	10.484	1.6364	0.1	13.565
6462	10.484	1.8182	0.1	15.358
6463	10.484	2.	0.1	16.921
6464	10.484	2.1818	0.1	18.24
6465	10.484	2.3636	0.1	19.307
6466	10.484	2.5455	0.1	20.113
6467	10.484	2.7273	0.1	20.655
6468	10.484	2.9091	0.1	20.926
6469	10.484	3.0909	0.1	20.926
6470	10.484	3.2727	0.1	20.655
6471	10.484	3.4545	0.1	20.113
6472	10.484	3.6364	0.1	19.307
6473	10.484	3.8182	0.1	18.24
6474	10.484	4.	0.1	16.92
6475	10.484	4.1818	0.1	15.358
6476	10.484	4.3636	0.1	13.565
6477	10.484	4.5455	0.1	11.552
6478	10.484	4.7273	0.1	9.3341
6479	10.484	4.9091	0.1	6.9273
6480	10.484	5.0909	0.1	4.3485
6481	10.484	5.2727	0.1	1.6168
6482	10.484	5.4545	0.1	7.5044e-004
6483	10.484	5.6364	0.1	-7.3252e-003
6484	10.484	5.8182	0.1	8.0685e-003
6485	10.668	0.18182	0.1	6.7685e-003
6486	10.668	0.36364	0.1	-5.7375e-003
6487	10.668	0.54545	0.1	3.7638e-004
6488	10.668	0.72727	0.1	0.3313
6489	10.668	0.90909	0.1	2.7905
6490	10.668	1.0909	0.1	5.1311
6491	10.668	1.2727	0.1	7.3153
6492	10.668	1.4545	0.1	9.3273
6493	10.668	1.6364	0.1	11.153
6494	10.668	1.8182	0.1	12.78
6495	10.668	2.	0.1	14.196
6496	10.668	2.1818	0.1	15.392
6497	10.668	2.3636	0.1	16.359
6498	10.668	2.5455	0.1	17.09
6499	10.668	2.7273	0.1	17.58
6500	10.668	2.9091	0.1	17.826
6501	10.668	3.0909	0.1	17.826
6502	10.668	3.2727	0.1	17.58
6503	10.668	3.4545	0.1	17.09
6504	10.668	3.6364	0.1	16.359
6505	10.668	3.8182	0.1	15.392
6506	10.668	4.	0.1	14.196
6507	10.668	4.1818	0.1	12.78
6508	10.668	4.3636	0.1	11.153
6509	10.668	4.5455	0.1	9.3272
6510	10.668	4.7273	0.1	7.3152
6511	10.668	4.9091	0.1	5.131
6512	10.668	5.0909	0.1	2.7905
6513	10.668	5.2727	0.1	0.33126
6514	10.668	5.4545	0.1	3.767e-004
6515	10.668	5.6364	0.1	-5.7367e-003
6516	10.668	5.8182	0.1	6.7691e-003
6517	10.852	0.18182	0.1	5.7161e-003
6518	10.852	0.36364	0.1	-4.2212e-003
6519	10.852	0.54545	0.1	5.413e-004
6520	10.852	0.72727	0.1	9.5499e-003
6521	10.852	0.90909	0.1	1.3324
6522	10.852	1.0909	0.1	3.4471
6523	10.852	1.2727	0.1	5.4228
6524	10.852	1.4545	0.1	7.2426
6525	10.852	1.6364	0.1	8.8935
6526	10.852	1.8182	0.1	10.364
6527	10.852	2.	0.1	11.644
6528	10.852	2.1818	0.1	12.724
6529	10.852	2.3636	0.1	13.598
6530	10.852	2.5455	0.1	14.259
6531	10.852	2.7273	0.1	14.702
6532	10.852	2.9091	0.1	14.924
6533	10.852	3.0909	0.1	14.924
6534	10.852	3.2727	0.1	14.702
6535	10.852	3.4545	0.1	14.259
6536	10.852	3.6364	0.1	13.598
6537	10.852	3.8182	0.1	12.724
6538	10.852	4.	0.1	11.644
6539	10.852	4.1818	0.1	10.364
6540	10.852	4.3636	0.1	8.8934
6541	10.852	4.5455	0.1	7.2426
6542	10.852	4.7273	0.1	5.4228
6543	10.852	4.9091	0.1	3.447
6544	10.852	5.0909	0.1	1.3324
6545	10.852	5.2727	0.1	9.5503e-003
6546	10.852	5.4545	0.1	5.4121e-004
6547	10.852	5.6364	0.1	-4.2202e-003
6548	10.852	5.8182	0.1	5.7167e-003
6549	11.036	0.18182	0.1	4.8393e-003
6550	11.036	0.36364	0.1	-2.7963e-003
6551	11.036	0.54545	0.1	8.147e-004
6552	11.036	0.72727	0.1	4.0133e-003
6553	11.036	0.90909	0.1	9.7967e-002
6554	11.036	1.0909	0.1	1.8669
6555	11.036	1.2727	0.1	3.6456
6556	11.036	1.4545	0.1	5.285
6557	11.036	1.6364	0.1	6.772
6558	11.036	1.8182	0.1	8.0962
6559	11.036	2.	0.1	9.2486
6560	11.036	2.1818	0.1	10.221
6561	11.036	2.3636	0.1	11.007
6562	11.036	2.5455	0.1	11.602
6563	11.036	2.7273	0.1	12.001
6564	11.036	2.9091	0.1	12.201
6565	11.036	3.0909	0.1	12.201
6566	11.036	3.2727	0.1	12.001
6567	11.036	3.4545	0.1	11.602
6568	11.036	3.6364	0.1	11.007
6569	11.036	3.8182	0.1	10.221
6570	11.036	4.	0.1	9.2485
6571	11.036	4.1818	0.1	8.0962
6572	11.036	4.3636	0.1	6.7719
6573	11.036	4.5455	0.1	5.2849
6574	11.036	4.7273	0.1	3.6456
6575	11.036	4.9091	0.1	1.8669
6576	11.036	5.0909	0.1	9.795e-002
6577	11.036	5.2727	0.1	4.0143e-003
6578	11.036	5.4545	0.1	8.1419e-004
6579	11.036	5.6364	0.1	-2.7956e-003
6580	11.036	5.8182	0.1	4.8409e-003
6581	11.22	0.18182	0.1	4.094e-003
6582	11.22	0.36364	0.1	-1.4627e-003
6583	11.22	0.54545	0.1	1.1061e-003
6584	11.22	0.72727	0.1	2.7038e-003
6585	11.22	0.90909	0.1	9.9413e-003
6586	11.22	1.0909	0.1	0.40757
6587	11.22	1.2727	0.1	1.9743
6588	11.22	1.4545	0.1	3.4426
6589	11.22	1.6364	0.1	4.7753
6590	11.22	1.8182	0.1	5.962
6591	11.22	2.	0.1	6.9945
6592	11.22	2.1818	0.1	7.8659
6593	11.22	2.3636	0.1	8.5702
6594	11.22	2.5455	0.1	9.1026
6595	11.22	2.7273	0.1	9.4595
6596	11.22	2.9091	0.1	9.6386
6597	11.22	3.0909	0.1	9.6386
6598	11.22	3.2727	0.1	9.4595
6599	11.22	3.4545	0.1	9.1025
6600	11.22	3.6364	0.1	8.5701
6601	11.22	3.8182	0.1	7.8659
6602	11.22	4.	0.1	6.9945
6603	11.22	4.1818	0.1	5.962
6604	11.22	4.3636	0.1	4.7752
6605	11.22	4.5455	0.1	3.4425
6606	11.22	4.7273	0.1	1.9743
6607	11.22	4.9091	0.1	0.40753
6608	11.22	5.0909	0.1	9.9422e-003
6609	11.22	5.2727	0.1	2.7046e-003
6610	11.22	5.4545	0.1	1.1055e-003
6611	11.22	5.6364	0.1	-1.462e-003
6612	11.22	5.8182	0.1	4.0958e-003
6613	11.404	0.18182	0.1	3.4628e-003
6614	11.404	0.36364	0.1	-2.0326e-004
6615	11.404	0.54545	0.1	1.3995e-003
6616	11.404	0.72727	0.1	2.2426e-003
6617	11.404	0.90909	0.1	4.8046e-003
6618	11.404	1.0909	0.1	1.458e-002
6619	11.404	1.2727	0.1	0.42455
6620	11.404	1.4545	0.1	1.7063
6621	11.404	1.6364	0.1	2.8916
6622	11.404	1.8182	0.1	3.9483
6623	11.404	2.	0.1	4.8677
6624	11.404	2.1818	0.1	5.6436
6625	11.404	2.3636	0.1	6.2706
6626	11.404	2.5455	0.1	6.7445
6627	11.404	2.7273	0.1	7.0623
6628	11.404	2.9091	0.1	7.2217
6629	11.404	3.0909	0.1	7.2217
6630	11.404	3.2727	0.1	7.0623
6631	11.404	3.4545	0.1	6.7445
6632	11.404	3.6364	0.1	6.2706
6633	11.404	3.8182	0.1	5.6436
6634	11.404	4.	0.1	4.8677
6635	11.404	4.1818	0.1	3.9482
6636	11.404	4.3636	0.1	2.8915
6637	11.404	4.5455	0.1	1.7063
6638	11.404	4.7273	0.1	0.42452
6639	11.404	4.9091	0.1	1.4579e-002
6640	11.404	5.0909	0.1	4.8065e-003
6641	11.404	5.2727	0.1	2.2439e-003
6642	11.404	5.4545	0.1	1.3988e-003
6643	11.404	5.6364	0.1	-2.0265e-004
6644	11.404	5.8182	0.1	3.4638e-003
6645	11.587	0.18182	0.1	2.9281e-003
6646	11.587	0.36364	0.1	9.9609e-004
6647	11.587	0.54545	0.1	1.6907e-003
6648	11.587	0.72727	0.1	2.0876e-003
6649	11.587	0.90909	0.1	3.1263e-003
6650	11.587	1.0909	0.1	5.4273e-003
6651	11.587	1.2727	0.1	1.2887e-002
6652	11.587	1.4545	0.1	0.15215
6653	11.587	1.6364	0.1	1.1137
6654	11.587	1.8182	0.1	2.0434
6655	11.587	2.	0.1	2.855
6656	11.587	2.1818	0.1	3.5403
6657	11.587	2.3636	0.1	4.0942
6658	11.587	2.5455	0.1	4.5128
6659	11.587	2.7273	0.1	4.7934
6660	11.587	2.9091	0.1	4.9342
6661	11.587	3.0909	0.1	4.9342
6662	11.587	3.2727	0.1	4.7934
6663	11.587	3.4545	0.1	4.5128
6664	11.587	3.6364	0.1	4.0941
6665	11.587	3.8182	0.1	3.5403
6666	11.587	4.	0.1	2.855
6667	11.587	4.1818	0.1	2.0433
6668	11.587	4.3636	0.1	1.1136
6669	11.587	4.5455	0.1	0.15212
6670	11.587	4.7273	0.1	1.2886e-002
6671	11.587	4.9091	0.1	5.4277e-003
6672	11.587	5.0909	0.1	3.1272e-003
6673	11.587	5.2727	0.1	2.0896e-003
6674	11.587	5.4545	0.1	1.6911e-003
6675	11.587	5.6364	0.1	9.9658e-004
6676	11.587	5.8182	0.1	2.9288e-003
6677	11.771	0.18182	0.1	2.5186e-003
6678	11.771	0.36364	0.1	2.1906e-003
6679	11.771	0.54545	0.1	2.0262e-003
6680	11.771	0.72727	0.1	2.1219e-003
6681	11.771	0.90909	0.1	2.3892e-003
6682	11.771	1.0909	0.1	2.9876e-003
6683	11.771	1.2727	0.1	4.2331e-003
6684	11.771	1.4545	0.1	7.2135e-003
6685	11.771	1.6364	0.1	1.8692e-002
6686	11.771	1.8182	0.1	0.26698
6687	11.771	2.	0.1	0.9478
6688	11.771	2.1818	0.1	1.544
6689	11.771	2.3636	0.1	2.0276
6690	11.771	2.5455	0.1	2.3934
6691	11.771	2.7273	0.1	2.6388
6692	11.771	2.9091	0.1	2.7619
6693	11.771	3.0909	0.1	2.7619
6694	11.771	3.2727	0.1	2.6388
6695	11.771	3.4545	0.1	2.3934
6696	11.771	3.6364	0.1	2.0275
6697	11.771	3.8182	0.1	1.544
6698	11.771	4.	0.1	0.94777
6699	11.771	4.1818	0.1	0.26695
6700	11.771	4.3636	0.1	1.8692e-002
6701	11.771	4.5455	0.1	7.2135e-003
6702	11.771	4.7273	0.1	4.2338e-003
6703	11.771	4.9091	0.1	2.9876e-003
6704	11.771	5.0909	0.1	2.3909e-003
6705	11.771	5.2727	0.1	2.1224e-003
6706	11.771	5.4545	0.1	2.0268e-003
6707	11.771	5.6364	0.1	2.191e-003
6708	11.771	5.8182	0.1	2.5186e-003
6709	11.955	0.18182	0.1	2.1715e-003
6710	11.955	0.36364	0.1	3.3353e-003
6711	11.955	0.54545	0.1	2.3529e-003
6712	11.955	0.72727	0.1	2.2239e-003
6713	11.955	0.90909	0.1	2.0073e-003
6714	11.955	1.0909	0.1	1.8965e-003
6715	11.955	1.2727	0.1	1.8635e-003
6716	11.955	1.4545	0.1	1.9574e-003
6717	11.955	1.6364	0.1	2.2529e-003
6718	11.955	1.8182	0.1	2.9394e-003
6719	11.955	2.	0.1	4.6116e-003
6720	11.955	2.1818	0.1	1.0464e-002
6721	11.955	2.3636	0.1	9.1829e-002
6722	11.955	2.5455	0.1	0.37629
6723	11.955	2.7273	0.1	0.585
6724	11.955	2.9091	0.1	0.69053
6725	11.955	3.0909	0.1	0.69052
6726	11.955	3.2727	0.1	0.58499
6727	11.955	3.4545	0.1	0.37628
6728	11.955	3.6364	0.1	9.1812e-002
6729	11.955	3.8182	0.1	1.0464e-002
6730	11.955	4.	0.1	4.6118e-003
6731	11.955	4.1818	0.1	2.9395e-003
6732	11.955	4.3636	0.1	2.2534e-003
6733	11.955	4.5455	0.1	1.9572e-003
6734	11.955	4.7273	0.1	1.8642e-003
6735	11.955	4.9091	0.1	1.8969e-003
6736	11.955	5.0909	0.1	2.0087e-003
6737	11.955	5.2727	0.1	2.2258e-003
6738	11.955	5.4545	0.1	2.3533e-003
6739	11.955	5.6364	0.1	3.3362e-003
6740	11.955	5.8182	0.1	2.172e-003
6741	12.139	0.18182	0.1	1.8675e-003
6742	12.139	0.36364	0.1	4.4299e-003
6743	12.139	0.54545	0.1	2.6605e-003
6744	12.139	0.72727	0.1	2.3568e-003
6745	12.139	0.90909	0.1	1.7892e-003
6746	12.139	1.0909	0.1	1.2888e-003
6747	12.139	1.2727	0.1	7.5804e-004
6748	12.139	1.4545	0.1	2.0469e-004
6749	12.139	1.6364	0.1	-3.9283e-004
6750	12.139	1.8182	0.1	-1.0548e-003
6751	12.139	2.	0.1	-1.802e-003
6752	12.139	2.1818	0.1	-2.6452e-003
6753	12.139	2.3636	0.1	-3.5751e-003
6754	12.139	2.5455	0.1	-4.5274e-003
6755	12.139	2.7273	0.1	-5.3561e-003
6756	12.139	2.9091	0.1	-5.8535e-003
6757	12.139	3.0909	0.1	-5.8535e-003
6758	12.139	3.2727	0.1	-5.3562e-003
6759	12.139	3.4545	0.1	-4.5276e-003
6760	12.139	3.6364	0.1	-3.5747e-003
6761	12.139	3.8182	0.1	-2.645e-003
6762	12.139	4.	0.1	-1.8019e-003
6763	12.139	4.1818	0.1	-1.0548e-003
6764	12.139	4.3636	0.1	-3.9242e-004
6765	12.139	4.5455	0.1	2.0492e-004
6766	12.139	4.7273	0.1	7.5862e-004
6767	12.139	4.9091	0.1	1.2893e-003
6768	12.139	5.0909	0.1	1.7904e-003
6769	12.139	5.2727	0.1	2.3577e-003
6770	12.139	5.4545	0.1	2.6615e-003
6771	12.139	5.6364	0.1	4.4301e-003
6772	12.139	5.8182	0.1	1.8683e-003
6773	12.323	0.18182	0.1	1.5896e-003
6774	12.323	0.36364	0.1	5.4698e-003
6775	12.323	0.54545	0.1	2.9411e-003
6776	12.323	0.72727	0.1	2.4918e-003
6777	12.323	0.90909	0.1	1.6487e-003
6778	12.323	1.0909	0.1	8.9323e-004
6779	12.323	1.2727	0.1	1.0036e-004
6780	12.323	1.4545	0.1	-7.0519e-004
6781	12.323	1.6364	0.1	-1.5278e-003
6782	12.323	1.8182	0.1	-2.3634e-003
6783	12.323	2.	0.1	-3.1973e-003
6784	12.323	2.1818	0.1	-4.0043e-003
6785	12.323	2.3636	0.1	-4.7477e-003
6786	12.323	2.5455	0.1	-5.3791e-003
6787	12.323	2.7273	0.1	-5.841e-003
6788	12.323	2.9091	0.1	-6.0866e-003
6789	12.323	3.0909	0.1	-6.0864e-003
6790	12.323	3.2727	0.1	-5.8409e-003
6791	12.323	3.4545	0.1	-5.3786e-003
6792	12.323	3.6364	0.1	-4.7474e-003
6793	12.323	3.8182	0.1	-4.004e-003
6794	12.323	4.	0.1	-3.1971e-003
6795	12.323	4.1818	0.1	-2.363e-003
6796	12.323	4.3636	0.1	-1.5276e-003
6797	12.323	4.5455	0.1	-7.0433e-004
6798	12.323	4.7273	0.1	1.0048e-004
6799	12.323	4.9091	0.1	8.9403e-004
6800	12.323	5.0909	0.1	1.6497e-003
6801	12.323	5.2727	0.1	2.4924e-003
6802	12.323	5.4545	0.1	2.9423e-003
6803	12.323	5.6364	0.1	5.4701e-003
6804	12.323	5.8182	0.1	1.5899e-003
6805	12.507	0.18182	0.1	1.3307e-003
6806	12.507	0.36364	0.1	6.4627e-003
6807	12.507	0.54545	0.1	3.1957e-003
6808	12.507	0.72727	0.1	2.6197e-003
6809	12.507	0.90909	0.1	1.5459e-003
6810	12.507	1.0909	0.1	6.0456e-004
6811	12.507	1.2727	0.1	-3.5739e-004
6812	12.507	1.4545	0.1	-1.2953e-003
6813	12.507	1.6364	0.1	-2.2072e-003
6814	12.507	1.8182	0.1	-3.0806e-003
6815	12.507	2.	0.1	-3.8974e-003
6816	12.507	2.1818	0.1	-4.6349e-003
6817	12.507	2.3636	0.1	-5.2694e-003
6818	12.507	2.5455	0.1	-5.776e-003
6819	12.507	2.7273	0.1	-6.1289e-003
6820	12.507	2.9091	0.1	-6.3104e-003
6821	12.507	3.0909	0.1	-6.31e-003
6822	12.507	3.2727	0.1	-6.1291e-003
6823	12.507	3.4545	0.1	-5.7759e-003
6824	12.507	3.6364	0.1	-5.2688e-003
6825	12.507	3.8182	0.1	-4.6349e-003
6826	12.507	4.	0.1	-3.8971e-003
6827	12.507	4.1818	0.1	-3.0806e-003
6828	12.507	4.3636	0.1	-2.2072e-003
6829	12.507	4.5455	0.1	-1.2953e-003
6830	12.507	4.7273	0.1	-3.5755e-004
6831	12.507	4.9091	0.1	6.0483e-004
6832	12.507	5.0909	0.1	1.5468e-003
6833	12.507	5.2727	0.1	2.6205e-003
6834	12.507	5.4545	0.1	3.1964e-003
6835	12.507	5.6364	0.1	6.4628e-003
6836	12.507	5.8182	0.1	1.3315e-003
6837	12.691	0.18182	0.1	1.0981e-003
6838	12.691	0.36364	0.1	7.4271e-003
6839	12.691	0.54545	0.1	3.4368e-003
6840	12.691	0.72727	0.1	2.7476e-003
6841	12.691	0.90909	0.1	1.4702e-003
6842	12.691	1.0909	0.1	3.8039e-004
6843	12.691	1.2727	0.1	-7.0511e-004
6844	12.691	1.4545	0.1	-1.7283e-003
6845	12.691	1.6364	0.1	-2.689e-003
6846	12.691	1.8182	0.1	-3.5745e-003
6847	12.691	2.	0.1	-4.3698e-003
6848	12.691	2.1818	0.1	-5.0613e-003
6849	12.691	2.3636	0.1	-5.6355e-003
6850	12.691	2.5455	0.1	-6.0807e-003
6851	12.691	2.7273	0.1	-6.3832e-003
6852	12.691	2.9091	0.1	-6.5366e-003
6853	12.691	3.0909	0.1	-6.536e-003
6854	12.691	3.2727	0.1	-6.383e-003
6855	12.691	3.4545	0.1	-6.0806e-003
6856	12.691	3.6364	0.1	-5.6352e-003
6857	12.691	3.8182	0.1	-5.0612e-003
6858	12.691	4.	0.1	-4.3695e-003
6859	12.691	4.1818	0.1	-3.5739e-003
6860	12.691	4.3636	0.1	-2.6882e-003
6861	12.691	4.5455	0.1	-1.7276e-003
6862	12.691	4.7273	0.1	-7.0431e-004
6863	12.691	4.9091	0.1	3.8103e-004
6864	12.691	5.0909	0.1	1.4711e-003
6865	12.691	5.2727	0.1	2.7489e-003
6866	12.691	5.4545	0.1	3.4368e-003
6867	12.691	5.6364	0.1	7.4274e-003
6868	12.691	5.8182	0.1	1.0981e-003
6869	12.875	0.18182	0.1	8.957e-004
6870	12.875	0.36364	0.1	8.378e-003
6871	12.875	0.54545	0.1	3.6727e-003
6872	12.875	0.72727	0.1	2.8795e-003
6873	12.875	0.90909	0.1	1.4167e-003
6874	12.875	1.0909	0.1	2.0172e-004
6875	12.875	1.2727	0.1	-9.8272e-004
6876	12.875	1.4545	0.1	-2.0707e-003
6877	12.875	1.6364	0.1	-3.0651e-003
6878	12.875	1.8182	0.1	-3.9566e-003
6879	12.875	2.	0.1	-4.7381e-003
6880	12.875	2.1818	0.1	-5.4004e-003
6881	12.875	2.3636	0.1	-5.9383e-003
6882	12.875	2.5455	0.1	-6.3477e-003
6883	12.875	2.7273	0.1	-6.6224e-003
6884	12.875	2.9091	0.1	-6.7609e-003
6885	12.875	3.0909	0.1	-6.7607e-003
6886	12.875	3.2727	0.1	-6.623e-003
6887	12.875	3.4545	0.1	-6.3479e-003
6888	12.875	3.6364	0.1	-5.9389e-003
6889	12.875	3.8182	0.1	-5.3997e-003
6890	12.875	4.	0.1	-4.7378e-003
6891	12.875	4.1818	0.1	-3.9567e-003
6892	12.875	4.3636	0.1	-3.0651e-003
6893	12.875	4.5455	0.1	-2.0704e-003
6894	12.875	4.7273	0.1	-9.8202e-004
6895	12.875	4.9091	0.1	2.0177e-004
6896	12.875	5.0909	0.1	1.4192e-003
6897	12.875	5.2727	0.1	2.8809e-003
6898	12.875	5.4545	0.1	3.6728e-003
6899	12.875	5.6364	0.1	8.3781e-003
6900	12.875	5.8182	0.1	8.9601e-004
6901	13.059	0.18182	0.1	7.6359e-004
6902	13.059	0.36364	0.1	9.3652e-003
6903	13.059	0.54545	0.1	3.9473e-003
6904	13.059	0.72727	0.1	3.057e-003
6905	13.059	0.90909	0.1	1.4223e-003
6906	13.059	1.0909	0.1	9.441e-005
6907	13.059	1.2727	0.1	-1.1744e-003
6908	13.059	1.4545	0.1	-2.316e-003
6909	13.059	1.6364	0.1	-3.3386e-003
6910	13.059	1.8182	0.1	-4.2368e-003
6911	13.059	2.	0.1	-5.0088e-003
6912	13.059	2.1818	0.1	-5.6523e-003
6913	13.059	2.3636	0.1	-6.1673e-003
6914	13.059	2.5455	0.1	-6.5557e-003
6915	13.059	2.7273	0.1	-6.8126e-003
6916	13.059	2.9091	0.1	-6.9412e-003
6917	13.059	3.0909	0.1	-6.9412e-003
6918	13.059	3.2727	0.1	-6.812e-003
6919	13.059	3.4545	0.1	-6.5546e-003
6920	13.059	3.6364	0.1	-6.1678e-003
6921	13.059	3.8182	0.1	-5.6527e-003
6922	13.059	4.	0.1	-5.0084e-003
6923	13.059	4.1818	0.1	-4.2364e-003
6924	13.059	4.3636	0.1	-3.3381e-003
6925	13.059	4.5455	0.1	-2.3153e-003
6926	13.059	4.7273	0.1	-1.1745e-003
6927	13.059	4.9091	0.1	9.5196e-005
6928	13.059	5.0909	0.1	1.4234e-003
6929	13.059	5.2727	0.1	3.0583e-003
6930	13.059	5.4545	0.1	3.9491e-003
6931	13.059	5.6364	0.1	9.366e-003
6932	13.059	5.8182	0.1	7.6364e-004
6933	13.243	0.18182	0.1	6.5452e-004
6934	13.243	0.36364	0.1	1.0351e-002
6935	13.243	0.54545	0.1	4.2192e-003
6936	13.243	0.72727	0.1	3.2333e-003
6937	13.243	0.90909	0.1	1.4331e-003
6938	13.243	1.0909	0.1	2.4395e-006
6939	13.243	1.2727	0.1	-1.3426e-003
6940	13.243	1.4545	0.1	-2.5315e-003
6941	13.243	1.6364	0.1	-3.5787e-003
6942	13.243	1.8182	0.1	-4.4847e-003
6943	13.243	2.	0.1	-5.2517e-003
6944	13.243	2.1818	0.1	-5.8832e-003
6945	13.243	2.3636	0.1	-6.3833e-003
6946	13.243	2.5455	0.1	-6.7557e-003
6947	13.243	2.7273	0.1	-7.0016e-003
6948	13.243	2.9091	0.1	-7.1242e-003
6949	13.243	3.0909	0.1	-7.1245e-003
6950	13.243	3.2727	0.1	-7.0017e-003
6951	13.243	3.4545	0.1	-6.7558e-003
6952	13.243	3.6364	0.1	-6.3828e-003
6953	13.243	3.8182	0.1	-5.8826e-003
6954	13.243	4.	0.1	-5.2514e-003
6955	13.243	4.1818	0.1	-4.4841e-003
6956	13.243	4.3636	0.1	-3.5785e-003
6957	13.243	4.5455	0.1	-2.5317e-003
6958	13.243	4.7273	0.1	-1.3423e-003
6959	13.243	4.9091	0.1	3.2623e-006
6960	13.243	5.0909	0.1	1.4341e-003
6961	13.243	5.2727	0.1	3.2349e-003
6962	13.243	5.4545	0.1	4.2192e-003
6963	13.243	5.6364	0.1	1.0352e-002
6964	13.243	5.8182	0.1	6.5561e-004
6965	13.427	0.18182	0.1	5.6274e-004
6966	13.427	0.36364	0.1	1.1335e-002
6967	13.427	0.54545	0.1	4.4788e-003
6968	13.427	0.72727	0.1	3.3996e-003
6969	13.427	0.90909	0.1	1.4381e-003
6970	13.427	1.0909	0.1	-8.8442e-005
6971	13.427	1.2727	0.1	-1.5056e-003
6972	13.427	1.4545	0.1	-2.7375e-003
6973	13.427	1.6364	0.1	-3.8082e-003
6974	13.427	1.8182	0.1	-4.7223e-003
6975	13.427	2.	0.1	-5.4878e-003
6976	13.427	2.1818	0.1	-6.1105e-003
6977	13.427	2.3636	0.1	-6.6003e-003
6978	13.427	2.5455	0.1	-6.9626e-003
6979	13.427	2.7273	0.1	-7.2002e-003
6980	13.427	2.9091	0.1	-7.3184e-003
6981	13.427	3.0909	0.1	-7.3183e-003
6982	13.427	3.2727	0.1	-7.2005e-003
6983	13.427	3.4545	0.1	-6.9626e-003
6984	13.427	3.6364	0.1	-6.6001e-003
6985	13.427	3.8182	0.1	-6.1108e-003
6986	13.427	4.	0.1	-5.4873e-003
6987	13.427	4.1818	0.1	-4.7219e-003
6988	13.427	4.3636	0.1	-3.808e-003
6989	13.427	4.5455	0.1	-2.737e-003
6990	13.427	4.7273	0.1	-1.5053e-003
6991	13.427	4.9091	0.1	-8.8406e-005
6992	13.427	5.0909	0.1	1.4389e-003
6993	13.427	5.2727	0.1	3.4004e-003
6994	13.427	5.4545	0.1	4.4791e-003
6995	13.427	5.6364	0.1	1.1336e-002
6996	13.427	5.8182	0.1	5.6359e-004
6997	13.611	0.18182	0.1	4.7892e-004
6998	13.611	0.36364	0.1	1.2317e-002
6999	13.611	0.54545	0.1	4.7211e-003
7000	13.611	0.72727	0.1	3.5469e-003
7001	13.611	0.90909	0.1	1.4251e-003
7002	13.611	1.0909	0.1	-1.9493e-004
7003	13.611	1.2727	0.1	-1.6795e-003
7004	13.611	1.4545	0.1	-2.9526e-003
7005	13.611	1.6364	0.1	-4.0458e-003
7006	13.611	1.8182	0.1	-4.9683e-003
7007	13.611	2.	0.1	-5.7335e-003
7008	13.611	2.1818	0.1	-6.3514e-003
7009	13.611	2.3636	0.1	-6.8322e-003
7010	13.611	2.5455	0.1	-7.1862e-003
7011	13.611	2.7273	0.1	-7.4181e-003
7012	13.611	2.9091	0.1	-7.5326e-003
7013	13.611	3.0909	0.1	-7.5322e-003
7014	13.611	3.2727	0.1	-7.4185e-003
7015	13.611	3.4545	0.1	-7.1856e-003
7016	13.611	3.6364	0.1	-6.8323e-003
7017	13.611	3.8182	0.1	-6.3507e-003
7018	13.611	4.	0.1	-5.7335e-003
7019	13.611	4.1818	0.1	-4.9681e-003
7020	13.611	4.3636	0.1	-4.0463e-003
7021	13.611	4.5455	0.1	-2.9521e-003
7022	13.611	4.7273	0.1	-1.679e-003
7023	13.611	4.9091	0.1	-1.9394e-004
7024	13.611	5.0909	0.1	1.427e-003
7025	13.611	5.2727	0.1	3.5482e-003
7026	13.611	5.4545	0.1	4.72e-003
7027	13.611	5.6364	0.1	1.2317e-002
7028	13.611	5.8182	0.1	4.8021e-004
7029	13.795	0.18182	0.1	4.0419e-004
7030	13.795	0.36364	0.1	1.3305e-002
7031	13.795	0.54545	0.1	4.9442e-003
7032	13.795	0.72727	0.1	3.6746e-003
7033	13.795	0.90909	0.1	1.3918e-003
7034	13.795	1.0909	0.1	-3.188e-004
7035	13.795	1.2727	0.1	-1.8698e-003
7036	13.795	1.4545	0.1	-3.1827e-003
7037	13.795	1.6364	0.1	-4.2983e-003
7038	13.795	1.8182	0.1	-5.2296e-003
7039	13.795	2.	0.1	-5.995e-003
7040	13.795	2.1818	0.1	-6.6077e-003
7041	13.795	2.3636	0.1	-7.0831e-003
7042	13.795	2.5455	0.1	-7.4296e-003
7043	13.795	2.7273	0.1	-7.6562e-003
7044	13.795	2.9091	0.1	-7.7675e-003
7045	13.795	3.0909	0.1	-7.7677e-003
7046	13.795	3.2727	0.1	-7.656e-003
7047	13.795	3.4545	0.1	-7.4298e-003
7048	13.795	3.6364	0.1	-7.0825e-003
7049	13.795	3.8182	0.1	-6.6078e-003
7050	13.795	4.	0.1	-5.9949e-003
7051	13.795	4.1818	0.1	-5.2294e-003
7052	13.795	4.3636	0.1	-4.2976e-003
7053	13.795	4.5455	0.1	-3.1826e-003
7054	13.795	4.7273	0.1	-1.8694e-003
7055	13.795	4.9091	0.1	-3.1853e-004
7056	13.795	5.0909	0.1	1.3943e-003
7057	13.795	5.2727	0.1	3.6748e-003
7058	13.795	5.4545	0.1	4.9436e-003
7059	13.795	5.6364	0.1	1.3305e-002
7060	13.795	5.8182	0.1	4.0525e-004
7061	13.979	0.18182	0.1	3.508e-004
7062	13.979	0.36364	0.1	1.4318e-002
7063	13.979	0.54545	0.1	5.1622e-003
7064	13.979	0.72727	0.1	3.7925e-003
7065	13.979	0.90909	0.1	1.3472e-003
7066	13.979	1.0909	0.1	-4.5598e-004
7067	13.979	1.2727	0.1	-2.0711e-003
7068	13.979	1.4545	0.1	-3.4235e-003
7069	13.979	1.6364	0.1	-4.5595e-003
7070	13.979	1.8182	0.1	-5.4994e-003
7071	13.979	2.	0.1	-6.2651e-003
7072	13.979	2.1818	0.1	-6.8738e-003
7073	13.979	2.3636	0.1	-7.3421e-003
7074	13.979	2.5455	0.1	-7.6834e-003
7075	13.979	2.7273	0.1	-7.9043e-003
7076	13.979	2.9091	0.1	-8.0133e-003
7077	13.979	3.0909	0.1	-8.0133e-003
7078	13.979	3.2727	0.1	-7.9043e-003
7079	13.979	3.4545	0.1	-7.6825e-003
7080	13.979	3.6364	0.1	-7.3423e-003
7081	13.979	3.8182	0.1	-6.8739e-003
7082	13.979	4.	0.1	-6.2653e-003
7083	13.979	4.1818	0.1	-5.499e-003
7084	13.979	4.3636	0.1	-4.559e-003
7085	13.979	4.5455	0.1	-3.422e-003
7086	13.979	4.7273	0.1	-2.0713e-003
7087	13.979	4.9091	0.1	-4.5518e-004
7088	13.979	5.0909	0.1	1.3487e-003
7089	13.979	5.2727	0.1	3.7927e-003
7090	13.979	5.4545	0.1	5.1611e-003
7091	13.979	5.6364	0.1	1.4319e-002
7092	13.979	5.8182	0.1	3.5337e-004
7093	14.163	0.18182	0.1	3.3074e-004
7094	14.163	0.36364	0.1	1.5373e-002
7095	14.163	0.54545	0.1	5.3787e-003
7096	14.163	0.72727	0.1	3.9043e-003
7097	14.163	0.90909	0.1	1.2915e-003
7098	14.163	1.0909	0.1	-6.0213e-004
7099	14.163	1.2727	0.1	-2.283e-003
7100	14.163	1.4545	0.1	-3.6729e-003
7101	14.163	1.6364	0.1	-4.8287e-003
7102	14.163	1.8182	0.1	-5.7772e-003
7103	14.163	2.	0.1	-6.5427e-003
7104	14.163	2.1818	0.1	-7.1467e-003
7105	14.163	2.3636	0.1	-7.6084e-003
7106	14.163	2.5455	0.1	-7.9427e-003
7107	14.163	2.7273	0.1	-8.1584e-003
7108	14.163	2.9091	0.1	-8.2646e-003
7109	14.163	3.0909	0.1	-8.2644e-003
7110	14.163	3.2727	0.1	-8.1581e-003
7111	14.163	3.4545	0.1	-7.9428e-003
7112	14.163	3.6364	0.1	-7.6077e-003
7113	14.163	3.8182	0.1	-7.1467e-003
7114	14.163	4.	0.1	-6.5425e-003
7115	14.163	4.1818	0.1	-5.7767e-003
7116	14.163	4.3636	0.1	-4.8289e-003
7117	14.163	4.5455	0.1	-3.6719e-003
7118	14.163	4.7273	0.1	-2.2828e-003
7119	14.163	4.9091	0.1	-6.0158e-004
7120	14.163	5.0909	0.1	1.2929e-003
7121	14.163	5.2727	0.1	3.9049e-003
7122	14.163	5.4545	0.1	5.3778e-003
7123	14.163	5.6364	0.1	1.5372e-002
7124	14.163	5.8182	0.1	3.3297e-004
7125	14.346	0.18182	0.1	3.8488e-004
7126	14.346	0.36364	0.1	1.6515e-002
7127	14.346	0.54545	0.1	5.6325e-003
7128	14.346	0.72727	0.1	4.0478e-003
7129	14.346	0.90909	0.1	1.2616e-003
7130	14.346	1.0909	0.1	-7.2559e-004
7131	14.346	1.2727	0.1	-2.4716e-003
7132	14.346	1.4545	0.1	-3.8975e-003
7133	14.346	1.6364	0.1	-5.0732e-003
7134	14.346	1.8182	0.1	-6.027e-003
7135	14.346	2.	0.1	-6.7918e-003
7136	14.346	2.1818	0.1	-7.3896e-003
7137	14.346	2.3636	0.1	-7.8437e-003
7138	14.346	2.5455	0.1	-8.1699e-003
7139	14.346	2.7273	0.1	-8.3806e-003
7140	14.346	2.9091	0.1	-8.4833e-003
7141	14.346	3.0909	0.1	-8.4837e-003
7142	14.346	3.2727	0.1	-8.3805e-003
7143	14.346	3.4545	0.1	-8.1702e-003
7144	14.346	3.6364	0.1	-7.8433e-003
7145	14.346	3.8182	0.1	-7.3885e-003
7146	14.346	4.	0.1	-6.7917e-003
7147	14.346	4.1818	0.1	-6.0267e-003
7148	14.346	4.3636	0.1	-5.0726e-003
7149	14.346	4.5455	0.1	-3.8966e-003
7150	14.346	4.7273	0.1	-2.471e-003
7151	14.346	4.9091	0.1	-7.2493e-004
7152	14.346	5.0909	0.1	1.263e-003
7153	14.346	5.2727	0.1	4.0484e-003
7154	14.346	5.4545	0.1	5.632e-003
7155	14.346	5.6364	0.1	1.6516e-002
7156	14.346	5.8182	0.1	3.8519e-004
7157	14.53	0.18182	0.1	4.7759e-004
7158	14.53	0.36364	0.1	1.7721e-002
7159	14.53	0.54545	0.1	5.8845e-003
7160	14.53	0.72727	0.1	4.1807e-003
7161	14.53	0.90909	0.1	1.2121e-003
7162	14.53	1.0909	0.1	-8.6956e-004
7163	14.53	1.2727	0.1	-2.6811e-003
7164	14.53	1.4545	0.1	-4.1423e-003
7165	14.53	1.6364	0.1	-5.3356e-003
7166	14.53	1.8182	0.1	-6.2943e-003
7167	14.53	2.	0.1	-7.0553e-003
7168	14.53	2.1818	0.1	-7.6447e-003
7169	14.53	2.3636	0.1	-8.0898e-003
7170	14.53	2.5455	0.1	-8.4076e-003
7171	14.53	2.7273	0.1	-8.6113e-003
7172	14.53	2.9091	0.1	-8.7101e-003
7173	14.53	3.0909	0.1	-8.7105e-003
7174	14.53	3.2727	0.1	-8.6112e-003
7175	14.53	3.4545	0.1	-8.4067e-003
7176	14.53	3.6364	0.1	-8.089e-003
7177	14.53	3.8182	0.1	-7.6451e-003
7178	14.53	4.	0.1	-7.0551e-003
7179	14.53	4.1818	0.1	-6.2936e-003
7180	14.53	4.3636	0.1	-5.3358e-003
7181	14.53	4.5455	0.1	-4.142e-003
7182	14.53	4.7273	0.1	-2.6801e-003
7183	14.53	4.9091	0.1	-8.6945e-004
7184	14.53	5.0909	0.1	1.2146e-003
7185	14.53	5.2727	0.1	4.1816e-003
7186	14.53	5.4545	0.1	5.8847e-003
7187	14.53	5.6364	0.1	1.772e-002
7188	14.53	5.8182	0.1	4.7739e-004
7189	14.714	0.18182	0.1	6.0944e-004
7190	14.714	0.36364	0.1	1.8989e-002
7191	14.714	0.54545	0.1	6.1296e-003
7192	14.714	0.72727	0.1	4.2948e-003
7193	14.714	0.90909	0.1	1.1346e-003
7194	14.714	1.0909	0.1	-1.0467e-003
7195	14.714	1.2727	0.1	-2.9231e-003
7196	14.714	1.4545	0.1	-4.4189e-003
7197	14.714	1.6364	0.1	-5.6287e-003
7198	14.714	1.8182	0.1	-6.5891e-003
7199	14.714	2.	0.1	-7.3431e-003
7200	14.714	2.1818	0.1	-7.9224e-003
7201	14.714	2.3636	0.1	-8.3551e-003
7202	14.714	2.5455	0.1	-8.662e-003
7203	14.714	2.7273	0.1	-8.857e-003
7204	14.714	2.9091	0.1	-8.9523e-003
7205	14.714	3.0909	0.1	-8.9528e-003
7206	14.714	3.2727	0.1	-8.8572e-003
7207	14.714	3.4545	0.1	-8.6623e-003
7208	14.714	3.6364	0.1	-8.3546e-003
7209	14.714	3.8182	0.1	-7.9222e-003
7210	14.714	4.	0.1	-7.3431e-003
7211	14.714	4.1818	0.1	-6.5891e-003
7212	14.714	4.3636	0.1	-5.628e-003
7213	14.714	4.5455	0.1	-4.4205e-003
7214	14.714	4.7273	0.1	-2.9224e-003
7215	14.714	4.9091	0.1	-1.0452e-003
7216	14.714	5.0909	0.1	1.1362e-003
7217	14.714	5.2727	0.1	4.2961e-003
7218	14.714	5.4545	0.1	6.128e-003
7219	14.714	5.6364	0.1	1.899e-002
7220	14.714	5.8182	0.1	6.1144e-004
7221	14.898	0.18182	0.1	7.8973e-004
7222	14.898	0.36364	0.1	2.0333e-002
7223	14.898	0.54545	0.1	6.3531e-003
7224	14.898	0.72727	0.1	4.3789e-003
7225	14.898	0.90909	0.1	1.0152e-003
7226	14.898	1.0909	0.1	-1.2694e-003
7227	14.898	1.2727	0.1	-3.2115e-003
7228	14.898	1.4545	0.1	-4.7413e-003
7229	14.898	1.6364	0.1	-5.9628e-003
7230	14.898	1.8182	0.1	-6.9218e-003
7231	14.898	2.	0.1	-7.6666e-003
7232	14.898	2.1818	0.1	-8.2312e-003
7233	14.898	2.3636	0.1	-8.6492e-003
7234	14.898	2.5455	0.1	-8.9431e-003
7235	14.898	2.7273	0.1	-9.128e-003
7236	14.898	2.9091	0.1	-9.2179e-003
7237	14.898	3.0909	0.1	-9.2173e-003
7238	14.898	3.2727	0.1	-9.1285e-003
7239	14.898	3.4545	0.1	-8.9417e-003
7240	14.898	3.6364	0.1	-8.649e-003
7241	14.898	3.8182	0.1	-8.2314e-003
7242	14.898	4.	0.1	-7.6663e-003
7243	14.898	4.1818	0.1	-6.9215e-003
7244	14.898	4.3636	0.1	-5.9623e-003
7245	14.898	4.5455	0.1	-4.7415e-003
7246	14.898	4.7273	0.1	-3.2114e-003
7247	14.898	4.9091	0.1	-1.2689e-003
7248	14.898	5.0909	0.1	1.0164e-003
7249	14.898	5.2727	0.1	4.3799e-003
7250	14.898	5.4545	0.1	6.3526e-003
7251	14.898	5.6364	0.1	2.0333e-002
7252	14.898	5.8182	0.1	7.9129e-004
7253	15.082	0.18182	0.1	1.03e-003
7254	15.082	0.36364	0.1	2.1764e-002
7255	15.082	0.54545	0.1	6.5582e-003
7256	15.082	0.72727	0.1	4.4285e-003
7257	15.082	0.90909	0.1	8.4658e-004
7258	15.082	1.0909	0.1	-1.543e-003
7259	15.082	1.2727	0.1	-3.5541e-003
7260	15.082	1.4545	0.1	-5.1149e-003
7261	15.082	1.6364	0.1	-6.3456e-003
7262	15.082	1.8182	0.1	-7.2988e-003
7263	15.082	2.	0.1	-8.0287e-003
7264	15.082	2.1818	0.1	-8.5752e-003
7265	15.082	2.3636	0.1	-8.9741e-003
7266	15.082	2.5455	0.1	-9.2498e-003
7267	15.082	2.7273	0.1	-9.4229e-003
7268	15.082	2.9091	0.1	-9.5066e-003
7269	15.082	3.0909	0.1	-9.5069e-003
7270	15.082	3.2727	0.1	-9.4234e-003
7271	15.082	3.4545	0.1	-9.2501e-003
7272	15.082	3.6364	0.1	-8.9745e-003
7273	15.082	3.8182	0.1	-8.5748e-003
7274	15.082	4.	0.1	-8.0287e-003
7275	15.082	4.1818	0.1	-7.2983e-003
7276	15.082	4.3636	0.1	-6.3454e-003
7277	15.082	4.5455	0.1	-5.1138e-003
7278	15.082	4.7273	0.1	-3.553e-003
7279	15.082	4.9091	0.1	-1.5424e-003
7280	15.082	5.0909	0.1	8.4787e-004
7281	15.082	5.2727	0.1	4.4311e-003
7282	15.082	5.4545	0.1	6.5568e-003
7283	15.082	5.6364	0.1	2.1765e-002
7284	15.082	5.8182	0.1	1.0314e-003
7285	15.266	0.18182	0.1	1.3577e-003
7286	15.266	0.36364	0.1	2.3311e-002
7287	15.266	0.54545	0.1	6.7478e-003
7288	15.266	0.72727	0.1	4.4499e-003
7289	15.266	0.90909	0.1	6.3164e-004
7290	15.266	1.0909	0.1	-1.8679e-003
7291	15.266	1.2727	0.1	-3.9471e-003
7292	15.266	1.4545	0.1	-5.5372e-003
7293	15.266	1.6364	0.1	-6.7727e-003
7294	15.266	1.8182	0.1	-7.7155e-003
7295	15.266	2.	0.1	-8.4242e-003
7296	15.266	2.1818	0.1	-8.9473e-003
7297	15.266	2.3636	0.1	-9.3213e-003
7298	15.266	2.5455	0.1	-9.5773e-003
7299	15.266	2.7273	0.1	-9.7354e-003
7300	15.266	2.9091	0.1	-9.8105e-003
7301	15.266	3.0909	0.1	-9.8101e-003
7302	15.266	3.2727	0.1	-9.7353e-003
7303	15.266	3.4545	0.1	-9.5762e-003
7304	15.266	3.6364	0.1	-9.3214e-003
7305	15.266	3.8182	0.1	-8.9465e-003
7306	15.266	4.	0.1	-8.4255e-003
7307	15.266	4.1818	0.1	-7.714e-003
7308	15.266	4.3636	0.1	-6.7731e-003
7309	15.266	4.5455	0.1	-5.5363e-003
7310	15.266	4.7273	0.1	-3.947e-003
7311	15.266	4.9091	0.1	-1.868e-003
7312	15.266	5.0909	0.1	6.3357e-004
7313	15.266	5.2727	0.1	4.4509e-003
7314	15.266	5.4545	0.1	6.7469e-003
7315	15.266	5.6364	0.1	2.3312e-002
7316	15.266	5.8182	0.1	1.3575e-003
7317	15.45	0.18182	0.1	1.8006e-003
7318	15.45	0.36364	0.1	2.4998e-002
7319	15.45	0.54545	0.1	6.9229e-003
7320	15.45	0.72727	0.1	4.4385e-003
7321	15.45	0.90909	0.1	3.665e-004
7322	15.45	1.0909	0.1	-2.2479e-003
7323	15.45	1.2727	0.1	-4.3954e-003
7324	15.45	1.4545	0.1	-6.0116e-003
7325	15.45	1.6364	0.1	-7.2471e-003
7326	15.45	1.8182	0.1	-8.171e-003
7327	15.45	2.	0.1	-8.8543e-003
7328	15.45	2.1818	0.1	-9.3461e-003
7329	15.45	2.3636	0.1	-9.69e-003
7330	15.45	2.5455	0.1	-9.9206e-003
7331	15.45	2.7273	0.1	-1.0059e-002
7332	15.45	2.9091	0.1	-1.0125e-002
7333	15.45	3.0909	0.1	-1.0125e-002
7334	15.45	3.2727	0.1	-1.006e-002
7335	15.45	3.4545	0.1	-9.9201e-003
7336	15.45	3.6364	0.1	-9.6895e-003
7337	15.45	3.8182	0.1	-9.3461e-003
7338	15.45	4.	0.1	-8.8539e-003
7339	15.45	4.1818	0.1	-8.1716e-003
7340	15.45	4.3636	0.1	-7.2462e-003
7341	15.45	4.5455	0.1	-6.0112e-003
7342	15.45	4.7273	0.1	-4.3942e-003
7343	15.45	4.9091	0.1	-2.2486e-003
7344	15.45	5.0909	0.1	3.6823e-004
7345	15.45	5.2727	0.1	4.4409e-003
7346	15.45	5.4545	0.1	6.9236e-003
7347	15.45	5.6364	0.1	2.4999e-002
7348	15.45	5.8182	0.1	1.7998e-003
7349	15.634	0.18182	0.1	2.4194e-003
7350	15.634	0.36364	0.1	2.688e-002
7351	15.634	0.54545	0.1	7.1123e-003
7352	15.634	0.72727	0.1	4.4214e-003
7353	15.634	0.90909	0.1	7.3937e-005
7354	15.634	1.0909	0.1	-2.6612e-003
7355	15.634	1.2727	0.1	-4.8772e-003
7356	15.634	1.4545	0.1	-6.5143e-003
7357	15.634	1.6364	0.1	-7.7427e-003
7358	15.634	1.8182	0.1	-8.643e-003
7359	15.634	2.	0.1	-9.2902e-003
7360	15.634	2.1818	0.1	-9.743e-003
7361	15.634	2.3636	0.1	-1.005e-002
7362	15.634	2.5455	0.1	-1.0248e-002
7363	15.634	2.7273	0.1	-1.0366e-002
7364	15.634	2.9091	0.1	-1.0418e-002
7365	15.634	3.0909	0.1	-1.0419e-002
7366	15.634	3.2727	0.1	-1.0364e-002
7367	15.634	3.4545	0.1	-1.0249e-002
7368	15.634	3.6364	0.1	-1.005e-002
7369	15.634	3.8182	0.1	-9.7423e-003
7370	15.634	4.	0.1	-9.2902e-003
7371	15.634	4.1818	0.1	-8.6421e-003
7372	15.634	4.3636	0.1	-7.7428e-003
7373	15.634	4.5455	0.1	-6.5143e-003
7374	15.634	4.7273	0.1	-4.8772e-003
7375	15.634	4.9091	0.1	-2.6606e-003
7376	15.634	5.0909	0.1	7.5658e-005
7377	15.634	5.2727	0.1	4.4221e-003
7378	15.634	5.4545	0.1	7.1131e-003
7379	15.634	5.6364	0.1	2.6879e-002
7380	15.634	5.8182	0.1	2.4181e-003
7381	15.818	0.18182	0.1	3.2199e-003
7382	15.818	0.36364	0.1	2.8944e-002
7383	15.818	0.54545	0.1	7.2723e-003
7384	15.818	0.72727	0.1	4.3528e-003
7385	15.818	0.90909	0.1	-2.9241e-004
7386	15.818	1.0909	0.1	-3.1541e-003
7387	15.818	1.2727	0.1	-5.4363e-003
7388	15.818	1.4545	0.1	-7.0905e-003
7389	15.818	1.6364	0.1	-8.3037e-003
7390	15.818	1.8182	0.1	-9.1691e-003
7391	15.818	2.	0.1	-9.7714e-003
7392	15.818	2.1818	0.1	-1.0175e-002
7393	15.818	2.3636	0.1	-1.0437e-002
7394	15.818	2.5455	0.1	-1.0597e-002
7395	15.818	2.7273	0.1	-1.0686e-002
7396	15.818	2.9091	0.1	-1.0726e-002
7397	15.818	3.0909	0.1	-1.0726e-002
7398	15.818	3.2727	0.1	-1.0686e-002
7399	15.818	3.4545	0.1	-1.0597e-002
7400	15.818	3.6364	0.1	-1.0436e-002
7401	15.818	3.8182	0.1	-1.0176e-002
7402	15.818	4.	0.1	-9.7709e-003
7403	15.818	4.1818	0.1	-9.1692e-003
7404	15.818	4.3636	0.1	-8.3029e-003
7405	15.818	4.5455	0.1	-7.0902e-003
7406	15.818	4.7273	0.1	-5.4365e-003
7407	15.818	4.9091	0.1	-3.1531e-003
7408	15.818	5.0909	0.1	-2.9145e-004
7409	15.818	5.2727	0.1	4.3551e-003
7410	15.818	5.4545	0.1	7.2736e-003
7411	15.818	5.6364	0.1	2.8945e-002
7412	15.818	5.8182	0.1	3.2192e-003
7413	16.002	0.18182	0.1	4.2463e-003
7414	16.002	0.36364	0.1	3.1217e-002
7415	16.002	0.54545	0.1	7.3897e-003
7416	16.002	0.72727	0.1	4.218e-003
7417	16.002	0.90909	0.1	-7.535e-004
7418	16.002	1.0909	0.1	-3.744e-003
7419	16.002	1.2727	0.1	-6.0933e-003
7420	16.002	1.4545	0.1	-7.7553e-003
7421	16.002	1.6364	0.1	-8.9448e-003
7422	16.002	1.8182	0.1	-9.7642e-003
7423	16.002	2.	0.1	-1.031e-002
7424	16.002	2.1818	0.1	-1.0656e-002
7425	16.002	2.3636	0.1	-1.0861e-002
7426	16.002	2.5455	0.1	-1.0975e-002
7427	16.002	2.7273	0.1	-1.1031e-002
7428	16.002	2.9091	0.1	-1.1053e-002
7429	16.002	3.0909	0.1	-1.1053e-002
7430	16.002	3.2727	0.1	-1.1031e-002
7431	16.002	3.4545	0.1	-1.0975e-002
7432	16.002	3.6364	0.1	-1.0861e-002
7433	16.002	3.8182	0.1	-1.0655e-002
7434	16.002	4.	0.1	-1.031e-002
7435	16.002	4.1818	0.1	-9.7637e-003
7436	16.002	4.3636	0.1	-8.9448e-003
7437	16.002	4.5455	0.1	-7.7551e-003
7438	16.002	4.7273	0.1	-6.0927e-003
7439	16.002	4.9091	0.1	-3.7439e-003
7440	16.002	5.0909	0.1	-7.5238e-004
7441	16.002	5.2727	0.1	4.2198e-003
7442	16.002	5.4545	0.1	7.3889e-003
7443	16.002	5.6364	0.1	3.1217e-002
7444	16.002	5.8182	0.1	4.2483e-003
7445	16.186	0.18182	0.1	5.5599e-003
7446	16.186	0.36364	0.1	3.3721e-002
7447	16.186	0.54545	0.1	7.4438e-003
7448	16.186	0.72727	0.1	3.9955e-003
7449	16.186	0.90909	0.1	-1.33e-003
7450	16.186	1.0909	0.1	-4.4545e-003
7451	16.186	1.2727	0.1	-6.8666e-003
7452	16.186	1.4545	0.1	-8.529e-003
7453	16.186	1.6364	0.1	-9.6894e-003
7454	16.186	1.8182	0.1	-1.0453e-002
7455	16.186	2.	0.1	-1.0919e-002
7456	16.186	2.1818	0.1	-1.1191e-002
7457	16.186	2.3636	0.1	-1.1331e-002
7458	16.186	2.5455	0.1	-1.1391e-002
7459	16.186	2.7273	0.1	-1.1407e-002
7460	16.186	2.9091	0.1	-1.1409e-002
7461	16.186	3.0909	0.1	-1.1409e-002
7462	16.186	3.2727	0.1	-1.1408e-002
7463	16.186	3.4545	0.1	-1.1391e-002
7464	16.186	3.6364	0.1	-1.1331e-002
7465	16.186	3.8182	0.1	-1.1193e-002
7466	16.186	4.	0.1	-1.0919e-002
7467	16.186	4.1818	0.1	-1.0453e-002
7468	16.186	4.3636	0.1	-9.6894e-003
7469	16.186	4.5455	0.1	-8.5286e-003
7470	16.186	4.7273	0.1	-6.8662e-003
7471	16.186	4.9091	0.1	-4.454e-003
7472	16.186	5.0909	0.1	-1.3287e-003
7473	16.186	5.2727	0.1	3.9961e-003
7474	16.186	5.4545	0.1	7.4431e-003
7475	16.186	5.6364	0.1	3.372e-002
7476	16.186	5.8182	0.1	5.5617e-003
7477	16.37	0.18182	0.1	7.2461e-003
7478	16.37	0.36364	0.1	3.649e-002
7479	16.37	0.54545	0.1	7.4183e-003
7480	16.37	0.72727	0.1	3.6684e-003
7481	16.37	0.90909	0.1	-2.04e-003
7482	16.37	1.0909	0.1	-5.3014e-003
7483	16.37	1.2727	0.1	-7.7714e-003
7484	16.37	1.4545	0.1	-9.4229e-003
7485	16.37	1.6364	0.1	-1.0528e-002
7486	16.37	1.8182	0.1	-1.1215e-002
7487	16.37	2.	0.1	-1.1604e-002
7488	16.37	2.1818	0.1	-1.1791e-002
7489	16.37	2.3636	0.1	-1.1853e-002
7490	16.37	2.5455	0.1	-1.1833e-002
7491	16.37	2.7273	0.1	-1.1817e-002
7492	16.37	2.9091	0.1	-1.1794e-002
7493	16.37	3.0909	0.1	-1.1795e-002
7494	16.37	3.2727	0.1	-1.1816e-002
7495	16.37	3.4545	0.1	-1.1833e-002
7496	16.37	3.6364	0.1	-1.1852e-002
7497	16.37	3.8182	0.1	-1.1791e-002
7498	16.37	4.	0.1	-1.1605e-002
7499	16.37	4.1818	0.1	-1.1214e-002
7500	16.37	4.3636	0.1	-1.0527e-002
7501	16.37	4.5455	0.1	-9.4234e-003
7502	16.37	4.7273	0.1	-7.7704e-003
7503	16.37	4.9091	0.1	-5.3001e-003
7504	16.37	5.0909	0.1	-2.0386e-003
7505	16.37	5.2727	0.1	3.6706e-003
7506	16.37	5.4545	0.1	7.4188e-003
7507	16.37	5.6364	0.1	3.6489e-002
7508	16.37	5.8182	0.1	7.2452e-003
7509	16.554	0.18182	0.1	9.4119e-003
7510	16.554	0.36364	0.1	3.9565e-002
7511	16.554	0.54545	0.1	7.3024e-003
7512	16.554	0.72727	0.1	3.228e-003
7513	16.554	0.90909	0.1	-2.896e-003
7514	16.554	1.0909	0.1	-6.2938e-003
7515	16.554	1.2727	0.1	-8.8162e-003
7516	16.554	1.4545	0.1	-1.0445e-002
7517	16.554	1.6364	0.1	-1.1484e-002
7518	16.554	1.8182	0.1	-1.2079e-002
7519	16.554	2.	0.1	-1.2366e-002
7520	16.554	2.1818	0.1	-1.2451e-002
7521	16.554	2.3636	0.1	-1.2418e-002
7522	16.554	2.5455	0.1	-1.2337e-002
7523	16.554	2.7273	0.1	-1.2254e-002
7524	16.554	2.9091	0.1	-1.2205e-002
7525	16.554	3.0909	0.1	-1.2204e-002
7526	16.554	3.2727	0.1	-1.2254e-002
7527	16.554	3.4545	0.1	-1.2337e-002
7528	16.554	3.6364	0.1	-1.2418e-002
7529	16.554	3.8182	0.1	-1.2451e-002
7530	16.554	4.	0.1	-1.2366e-002
7531	16.554	4.1818	0.1	-1.2078e-002
7532	16.554	4.3636	0.1	-1.1484e-002
7533	16.554	4.5455	0.1	-1.0445e-002
7534	16.554	4.7273	0.1	-8.8166e-003
7535	16.554	4.9091	0.1	-6.2933e-003
7536	16.554	5.0909	0.1	-2.8944e-003
7537	16.554	5.2727	0.1	3.2299e-003
7538	16.554	5.4545	0.1	7.3039e-003
7539	16.554	5.6364	0.1	3.9565e-002
7540	16.554	5.8182	0.1	9.4107e-003
7541	16.737	0.18182	0.1	1.2193e-002
7542	16.737	0.36364	0.1	4.2991e-002
7543	16.737	0.54545	0.1	7.0796e-003
7544	16.737	0.72727	0.1	2.6579e-003
7545	16.737	0.90909	0.1	-3.9134e-003
7546	16.737	1.0909	0.1	-7.4467e-003
7547	16.737	1.2727	0.1	-1.0012e-002
7548	16.737	1.4545	0.1	-1.1602e-002
7549	16.737	1.6364	0.1	-1.2556e-002
7550	16.737	1.8182	0.1	-1.3039e-002
7551	16.737	2.	0.1	-1.3205e-002
7552	16.737	2.1818	0.1	-1.317e-002
7553	16.737	2.3636	0.1	-1.303e-002
7554	16.737	2.5455	0.1	-1.2862e-002
7555	16.737	2.7273	0.1	-1.2718e-002
7556	16.737	2.9091	0.1	-1.2637e-002
7557	16.737	3.0909	0.1	-1.2637e-002
7558	16.737	3.2727	0.1	-1.2718e-002
7559	16.737	3.4545	0.1	-1.286e-002
7560	16.737	3.6364	0.1	-1.3029e-002
7561	16.737	3.8182	0.1	-1.317e-002
7562	16.737	4.	0.1	-1.3204e-002
7563	16.737	4.1818	0.1	-1.304e-002
7564	16.737	4.3636	0.1	-1.2555e-002
7565	16.737	4.5455	0.1	-1.1602e-002
7566	16.737	4.7273	0.1	-1.0012e-002
7567	16.737	4.9091	0.1	-7.4461e-003
7568	16.737	5.0909	0.1	-3.9123e-003
7569	16.737	5.2727	0.1	2.66e-003
7570	16.737	5.4545	0.1	7.0792e-003
7571	16.737	5.6364	0.1	4.2989e-002
7572	16.737	5.8182	0.1	1.2196e-002
7573	16.921	0.18182	0.1	1.5787e-002
7574	16.921	0.36364	0.1	4.6825e-002
7575	16.921	0.54545	0.1	6.7452e-003
7576	16.921	0.72727	0.1	1.9613e-003
7577	16.921	0.90909	0.1	-5.0897e-003
7578	16.921	1.0909	0.1	-8.7506e-003
7579	16.921	1.2727	0.1	-1.1345e-002
7580	16.921	1.4545	0.1	-1.2877e-002
7581	16.921	1.6364	0.1	-1.3726e-002
7582	16.921	1.8182	0.1	-1.4075e-002
7583	16.921	2.	0.1	-1.4098e-002
7584	16.921	2.1818	0.1	-1.3924e-002
7585	16.921	2.3636	0.1	-1.3661e-002
7586	16.921	2.5455	0.1	-1.3395e-002
7587	16.921	2.7273	0.1	-1.3184e-002
7588	16.921	2.9091	0.1	-1.307e-002
7589	16.921	3.0909	0.1	-1.3069e-002
7590	16.921	3.2727	0.1	-1.3184e-002
7591	16.921	3.4545	0.1	-1.3395e-002
7592	16.921	3.6364	0.1	-1.3661e-002
7593	16.921	3.8182	0.1	-1.3923e-002
7594	16.921	4.	0.1	-1.4098e-002
7595	16.921	4.1818	0.1	-1.4075e-002
7596	16.921	4.3636	0.1	-1.3726e-002
7597	16.921	4.5455	0.1	-1.2877e-002
7598	16.921	4.7273	0.1	-1.1345e-002
7599	16.921	4.9091	0.1	-8.75e-003
7600	16.921	5.0909	0.1	-5.0887e-003
7601	16.921	5.2727	0.1	1.962e-003
7602	16.921	5.4545	0.1	6.7442e-003
7603	16.921	5.6364	0.1	4.6825e-002
7604	16.921	5.8182	0.1	1.5788e-002
7605	17.105	0.18182	0.1	2.0359e-002
7606	17.105	0.36364	0.1	5.1074e-002
7607	17.105	0.54545	0.1	6.2329e-003
7608	17.105	0.72727	0.1	1.0839e-003
7609	17.105	0.90909	0.1	-6.473e-003
7610	17.105	1.0909	0.1	-1.0249e-002
7611	17.105	1.2727	0.1	-1.2858e-002
7612	17.105	1.4545	0.1	-1.431e-002
7613	17.105	1.6364	0.1	-1.5026e-002
7614	17.105	1.8182	0.1	-1.5218e-002
7615	17.105	2.	0.1	-1.5074e-002
7616	17.105	2.1818	0.1	-1.474e-002
7617	17.105	2.3636	0.1	-1.4343e-002
7618	17.105	2.5455	0.1	-1.397e-002
7619	17.105	2.7273	0.1	-1.3687e-002
7620	17.105	2.9091	0.1	-1.3536e-002
7621	17.105	3.0909	0.1	-1.3535e-002
7622	17.105	3.2727	0.1	-1.3687e-002
7623	17.105	3.4545	0.1	-1.397e-002
7624	17.105	3.6364	0.1	-1.4343e-002
7625	17.105	3.8182	0.1	-1.4741e-002
7626	17.105	4.	0.1	-1.5073e-002
7627	17.105	4.1818	0.1	-1.5217e-002
7628	17.105	4.3636	0.1	-1.5026e-002
7629	17.105	4.5455	0.1	-1.4308e-002
7630	17.105	4.7273	0.1	-1.2857e-002
7631	17.105	4.9091	0.1	-1.0249e-002
7632	17.105	5.0909	0.1	-6.4703e-003
7633	17.105	5.2727	0.1	1.0854e-003
7634	17.105	5.4545	0.1	6.2329e-003
7635	17.105	5.6364	0.1	5.1073e-002
7636	17.105	5.8182	0.1	2.0357e-002
7637	17.289	0.18182	0.1	2.6129e-002
7638	17.289	0.36364	0.1	5.575e-002
7639	17.289	0.54545	0.1	5.4983e-003
7640	17.289	0.72727	0.1	-2.643e-006
7641	17.289	0.90909	0.1	-8.0845e-003
7642	17.289	1.0909	0.1	-1.196e-002
7643	17.289	1.2727	0.1	-1.4559e-002
7644	17.289	1.4545	0.1	-1.5904e-002
7645	17.289	1.6364	0.1	-1.6463e-002
7646	17.289	1.8182	0.1	-1.6468e-002
7647	17.289	2.	0.1	-1.6133e-002
7648	17.289	2.1818	0.1	-1.5624e-002
7649	17.289	2.3636	0.1	-1.5077e-002
7650	17.289	2.5455	0.1	-1.4593e-002
7651	17.289	2.7273	0.1	-1.4236e-002
7652	17.289	2.9091	0.1	-1.4049e-002
7653	17.289	3.0909	0.1	-1.405e-002
7654	17.289	3.2727	0.1	-1.4236e-002
7655	17.289	3.4545	0.1	-1.4592e-002
7656	17.289	3.6364	0.1	-1.5077e-002
7657	17.289	3.8182	0.1	-1.5624e-002
7658	17.289	4.	0.1	-1.6132e-002
7659	17.289	4.1818	0.1	-1.6468e-002
7660	17.289	4.3636	0.1	-1.6463e-002
7661	17.289	4.5455	0.1	-1.5904e-002
7662	17.289	4.7273	0.1	-1.456e-002
7663	17.289	4.9091	0.1	-1.1959e-002
7664	17.289	5.0909	0.1	-8.084e-003
7665	17.289	5.2727	0.1	-1.6473e-006
7666	17.289	5.4545	0.1	5.4992e-003
7667	17.289	5.6364	0.1	5.5747e-002
7668	17.289	5.8182	0.1	2.6128e-002
7669	17.473	0.18182	0.1	3.3345e-002
7670	17.473	0.36364	0.1	6.0844e-002
7671	17.473	0.54545	0.1	4.488e-003
7672	17.473	0.72727	0.1	-1.3307e-003
7673	17.473	0.90909	0.1	-9.9478e-003
7674	17.473	1.0909	0.1	-1.3891e-002
7675	17.473	1.2727	0.1	-1.6457e-002
7676	17.473	1.4545	0.1	-1.7663e-002
7677	17.473	1.6364	0.1	-1.8032e-002
7678	17.473	1.8182	0.1	-1.782e-002
7679	17.473	2.	0.1	-1.7268e-002
7680	17.473	2.1818	0.1	-1.6567e-002
7681	17.473	2.3636	0.1	-1.5866e-002
7682	17.473	2.5455	0.1	-1.5272e-002
7683	17.473	2.7273	0.1	-1.4849e-002
7684	17.473	2.9091	0.1	-1.4631e-002
7685	17.473	3.0909	0.1	-1.4631e-002
7686	17.473	3.2727	0.1	-1.4849e-002
7687	17.473	3.4545	0.1	-1.5271e-002
7688	17.473	3.6364	0.1	-1.5865e-002
7689	17.473	3.8182	0.1	-1.6566e-002
7690	17.473	4.	0.1	-1.7268e-002
7691	17.473	4.1818	0.1	-1.7819e-002
7692	17.473	4.3636	0.1	-1.8032e-002
7693	17.473	4.5455	0.1	-1.7662e-002
7694	17.473	4.7273	0.1	-1.6457e-002
7695	17.473	4.9091	0.1	-1.389e-002
7696	17.473	5.0909	0.1	-9.9456e-003
7697	17.473	5.2727	0.1	-1.3283e-003
7698	17.473	5.4545	0.1	4.4875e-003
7699	17.473	5.6364	0.1	6.0844e-002
7700	17.473	5.8182	0.1	3.3345e-002
7701	17.657	0.18182	0.1	4.2243e-002
7702	17.657	0.36364	0.1	6.6326e-002
7703	17.657	0.54545	0.1	3.1377e-003
7704	17.657	0.72727	0.1	-2.9214e-003
7705	17.657	0.90909	0.1	-1.2063e-002
7706	17.657	1.0909	0.1	-1.6037e-002
7707	17.657	1.2727	0.1	-1.8536e-002
7708	17.657	1.4545	0.1	-1.9569e-002
7709	17.657	1.6364	0.1	-1.9714e-002
7710	17.657	1.8182	0.1	-1.9249e-002
7711	17.657	2.	0.1	-1.8455e-002
7712	17.657	2.1818	0.1	-1.7545e-002
7713	17.657	2.3636	0.1	-1.6693e-002
7714	17.657	2.5455	0.1	-1.6005e-002
7715	17.657	2.7273	0.1	-1.5535e-002
7716	17.657	2.9091	0.1	-1.5301e-002
7717	17.657	3.0909	0.1	-1.53e-002
7718	17.657	3.2727	0.1	-1.5536e-002
7719	17.657	3.4545	0.1	-1.6005e-002
7720	17.657	3.6364	0.1	-1.6693e-002
7721	17.657	3.8182	0.1	-1.7546e-002
7722	17.657	4.	0.1	-1.8454e-002
7723	17.657	4.1818	0.1	-1.925e-002
7724	17.657	4.3636	0.1	-1.9713e-002
7725	17.657	4.5455	0.1	-1.9569e-002
7726	17.657	4.7273	0.1	-1.8534e-002
7727	17.657	4.9091	0.1	-1.6037e-002
7728	17.657	5.0909	0.1	-1.2063e-002
7729	17.657	5.2727	0.1	-2.9187e-003
7730	17.657	5.4545	0.1	3.1376e-003
7731	17.657	5.6364	0.1	6.6325e-002
7732	17.657	5.8182	0.1	4.2243e-002
7733	17.841	0.18182	0.1	5.3001e-002
7734	17.841	0.36364	0.1	7.2106e-002
7735	17.841	0.54545	0.1	1.3853e-003
7736	17.841	0.72727	0.1	-4.7845e-003
7737	17.841	0.90909	0.1	-1.4417e-002
7738	17.841	1.0909	0.1	-1.8367e-002
7739	17.841	1.2727	0.1	-2.0758e-002
7740	17.841	1.4545	0.1	-2.1581e-002
7741	17.841	1.6364	0.1	-2.1461e-002
7742	17.841	1.8182	0.1	-2.0708e-002
7743	17.841	2.	0.1	-1.9643e-002
7744	17.841	2.1818	0.1	-1.8519e-002
7745	17.841	2.3636	0.1	-1.7531e-002
7746	17.841	2.5455	0.1	-1.6786e-002
7747	17.841	2.7273	0.1	-1.6312e-002
7748	17.841	2.9091	0.1	-1.6086e-002
7749	17.841	3.0909	0.1	-1.6086e-002
7750	17.841	3.2727	0.1	-1.6311e-002
7751	17.841	3.4545	0.1	-1.6787e-002
7752	17.841	3.6364	0.1	-1.753e-002
7753	17.841	3.8182	0.1	-1.8519e-002
7754	17.841	4.	0.1	-1.9643e-002
7755	17.841	4.1818	0.1	-2.0709e-002
7756	17.841	4.3636	0.1	-2.1461e-002
7757	17.841	4.5455	0.1	-2.1581e-002
7758	17.841	4.7273	0.1	-2.0758e-002
7759	17.841	4.9091	0.1	-1.8365e-002
7760	17.841	5.0909	0.1	-1.4416e-002
7761	17.841	5.2727	0.1	-4.782e-003
7762	17.841	5.4545	0.1	1.3861e-003
7763	17.841	5.6364	0.1	7.2106e-002
7764	17.841	5.8182	0.1	5.3e-002
7765	18.025	0.18182	0.1	6.5609e-002
7766	18.025	0.36364	0.1	7.8004e-002
7767	18.025	0.54545	0.1	-8.5036e-004
7768	18.025	0.72727	0.1	-6.9262e-003
7769	18.025	0.90909	0.1	-1.6973e-002
7770	18.025	1.0909	0.1	-2.0826e-002
7771	18.025	1.2727	0.1	-2.3067e-002
7772	18.025	1.4545	0.1	-2.3641e-002
7773	18.025	1.6364	0.1	-2.3214e-002
7774	18.025	1.8182	0.1	-2.2128e-002
7775	18.025	2.	0.1	-2.0758e-002
7776	18.025	2.1818	0.1	-1.9419e-002
7777	18.025	2.3636	0.1	-1.8338e-002
7778	18.025	2.5455	0.1	-1.7609e-002
7779	18.025	2.7273	0.1	-1.7206e-002
7780	18.025	2.9091	0.1	-1.7041e-002
7781	18.025	3.0909	0.1	-1.7041e-002
7782	18.025	3.2727	0.1	-1.7205e-002
7783	18.025	3.4545	0.1	-1.7608e-002
7784	18.025	3.6364	0.1	-1.8337e-002
7785	18.025	3.8182	0.1	-1.942e-002
7786	18.025	4.	0.1	-2.0758e-002
7787	18.025	4.1818	0.1	-2.2127e-002
7788	18.025	4.3636	0.1	-2.3214e-002
7789	18.025	4.5455	0.1	-2.3642e-002
7790	18.025	4.7273	0.1	-2.3067e-002
7791	18.025	4.9091	0.1	-2.0824e-002
7792	18.025	5.0909	0.1	-1.6972e-002
7793	18.025	5.2727	0.1	-6.925e-003
7794	18.025	5.4545	0.1	-8.5191e-004
7795	18.025	5.6364	0.1	7.8003e-002
7796	18.025	5.8182	0.1	6.561e-002
7797	18.209	0.18182	0.1	7.9721e-002
7798	18.209	0.36364	0.1	8.3713e-002
7799	18.209	0.54545	0.1	-3.6636e-003
7800	18.209	0.72727	0.1	-9.3254e-003
7801	18.209	0.90909	0.1	-1.9645e-002
7802	18.209	1.0909	0.1	-2.3305e-002
7803	18.209	1.2727	0.1	-2.5351e-002
7804	18.209	1.4545	0.1	-2.5641e-002
7805	18.209	1.6364	0.1	-2.4862e-002
7806	18.209	1.8182	0.1	-2.3388e-002
7807	18.209	2.	0.1	-2.1676e-002
7808	18.209	2.1818	0.1	-2.0129e-002
7809	18.209	2.3636	0.1	-1.9028e-002
7810	18.209	2.5455	0.1	-1.8444e-002
7811	18.209	2.7273	0.1	-1.8252e-002
7812	18.209	2.9091	0.1	-1.8234e-002
7813	18.209	3.0909	0.1	-1.8235e-002
7814	18.209	3.2727	0.1	-1.8251e-002
7815	18.209	3.4545	0.1	-1.8444e-002
7816	18.209	3.6364	0.1	-1.9029e-002
7817	18.209	3.8182	0.1	-2.013e-002
7818	18.209	4.	0.1	-2.1676e-002
7819	18.209	4.1818	0.1	-2.3388e-002
7820	18.209	4.3636	0.1	-2.4862e-002
7821	18.209	4.5455	0.1	-2.5642e-002
7822	18.209	4.7273	0.1	-2.5351e-002
7823	18.209	4.9091	0.1	-2.3304e-002
7824	18.209	5.0909	0.1	-1.9645e-002
7825	18.209	5.2727	0.1	-9.3238e-003
7826	18.209	5.4545	0.1	-3.6627e-003
7827	18.209	5.6364	0.1	8.3713e-002
7828	18.209	5.8182	0.1	7.9721e-002
7829	18.393	0.18182	0.1	9.4304e-002
7830	18.393	0.36364	0.1	8.8674e-002
7831	18.393	0.54545	0.1	-7.2143e-003
7832	18.393	0.72727	0.1	-1.199e-002
7833	18.393	0.90909	0.1	-2.2351e-002
7834	18.393	1.0909	0.1	-2.5688e-002
7835	18.393	1.2727	0.1	-2.7496e-002
7836	18.393	1.4545	0.1	-2.7484e-002
7837	18.393	1.6364	0.1	-2.6316e-002
7838	18.393	1.8182	0.1	-2.4393e-002
7839	18.393	2.	0.1	-2.2284e-002
7840	18.393	2.1818	0.1	-2.0548e-002
7841	18.393	2.3636	0.1	-1.9547e-002
7842	18.393	2.5455	0.1	-1.9321e-002
7843	18.393	2.7273	0.1	-1.9566e-002
7844	18.393	2.9091	0.1	-1.9847e-002
7845	18.393	3.0909	0.1	-1.9846e-002
7846	18.393	3.2727	0.1	-1.9567e-002
7847	18.393	3.4545	0.1	-1.932e-002
7848	18.393	3.6364	0.1	-1.9548e-002
7849	18.393	3.8182	0.1	-2.0547e-002
7850	18.393	4.	0.1	-2.2286e-002
7851	18.393	4.1818	0.1	-2.4392e-002
7852	18.393	4.3636	0.1	-2.6316e-002
7853	18.393	4.5455	0.1	-2.7484e-002
7854	18.393	4.7273	0.1	-2.7496e-002
7855	18.393	4.9091	0.1	-2.5688e-002
7856	18.393	5.0909	0.1	-2.2351e-002
7857	18.393	5.2727	0.1	-1.1986e-002
7858	18.393	5.4545	0.1	-7.2117e-003
7859	18.393	5.6364	0.1	8.8674e-002
7860	18.393	5.8182	0.1	9.4303e-002
7861	18.577	0.18182	0.1	0.1073
7862	18.577	0.36364	0.1	9.2027e-002
7863	18.577	0.54545	0.1	-1.1701e-002
7864	18.577	0.72727	0.1	-1.4897e-002
7865	18.577	0.90909	0.1	-2.4923e-002
7866	18.577	1.0909	0.1	-2.7762e-002
7867	18.577	1.2727	0.1	-2.9294e-002
7868	18.577	1.4545	0.1	-2.8986e-002
7869	18.577	1.6364	0.1	-2.7403e-002
7870	18.577	1.8182	0.1	-2.4944e-002
7871	18.577	2.	0.1	-2.2351e-002
7872	18.577	2.1818	0.1	-2.0447e-002
7873	18.577	2.3636	0.1	-1.9771e-002
7874	18.577	2.5455	0.1	-2.0259e-002
7875	18.577	2.7273	0.1	-2.1317e-002
7876	18.577	2.9091	0.1	-2.2132e-002
7877	18.577	3.0909	0.1	-2.2132e-002
7878	18.577	3.2727	0.1	-2.1317e-002
7879	18.577	3.4545	0.1	-2.0258e-002
7880	18.577	3.6364	0.1	-1.9771e-002
7881	18.577	3.8182	0.1	-2.0446e-002
7882	18.577	4.	0.1	-2.2351e-002
7883	18.577	4.1818	0.1	-2.4944e-002
7884	18.577	4.3636	0.1	-2.7402e-002
7885	18.577	4.5455	0.1	-2.8986e-002
7886	18.577	4.7273	0.1	-2.9293e-002
7887	18.577	4.9091	0.1	-2.7762e-002
7888	18.577	5.0909	0.1	-2.4922e-002
7889	18.577	5.2727	0.1	-1.4895e-002
7890	18.577	5.4545	0.1	-1.1703e-002
7891	18.577	5.6364	0.1	9.2026e-002
7892	18.577	5.8182	0.1	0.1073
7893	18.761	0.18182	0.1	0.11513
7894	18.761	0.36364	0.1	9.2441e-002
7895	18.761	0.54545	0.1	-1.745e-002
7896	18.761	0.72727	0.1	-1.8053e-002
7897	18.761	0.90909	0.1	-2.7132e-002
7898	18.761	1.0909	0.1	-2.9198e-002
7899	18.761	1.2727	0.1	-3.0439e-002
7900	18.761	1.4545	0.1	-2.9942e-002
7901	18.761	1.6364	0.1	-2.8026e-002
7902	18.761	1.8182	0.1	-2.4979e-002
7903	18.761	2.	0.1	-2.1848e-002
7904	18.761	2.1818	0.1	-1.9799e-002
7905	18.761	2.3636	0.1	-1.9642e-002
7906	18.761	2.5455	0.1	-2.1339e-002
7907	18.761	2.7273	0.1	-2.3781e-002
7908	18.761	2.9091	0.1	-2.5493e-002
7909	18.761	3.0909	0.1	-2.5494e-002
7910	18.761	3.2727	0.1	-2.3779e-002
7911	18.761	3.4545	0.1	-2.1339e-002
7912	18.761	3.6364	0.1	-1.9643e-002
7913	18.761	3.8182	0.1	-1.9801e-002
7914	18.761	4.	0.1	-2.1847e-002
7915	18.761	4.1818	0.1	-2.498e-002
7916	18.761	4.3636	0.1	-2.8025e-002
7917	18.761	4.5455	0.1	-2.9942e-002
7918	18.761	4.7273	0.1	-3.0438e-002
7919	18.761	4.9091	0.1	-2.9198e-002
7920	18.761	5.0909	0.1	-2.7131e-002
7921	18.761	5.2727	0.1	-1.8054e-002
7922	18.761	5.4545	0.1	-1.745e-002
7923	18.761	5.6364	0.1	9.2439e-002
7924	18.761	5.8182	0.1	0.11513
7925	18.945	0.18182	0.1	0.11223
7926	18.945	0.36364	0.1	8.7979e-002
7927	18.945	0.54545	0.1	-2.4941e-002
7928	18.945	0.72727	0.1	-2.1517e-002
7929	18.945	0.90909	0.1	-2.8661e-002
7930	18.945	1.0909	0.1	-2.9483e-002
7931	18.945	1.2727	0.1	-3.0341e-002
7932	18.945	1.4545	0.1	-2.9784e-002
7933	18.945	1.6364	0.1	-2.755e-002
7934	18.945	1.8182	0.1	-2.3859e-002
7935	18.945	2.	0.1	-1.9777e-002
7936	18.945	2.1818	0.1	-1.7604e-002
7937	18.945	2.3636	0.1	-1.8884e-002
7938	18.945	2.5455	0.1	-2.2786e-002
7939	18.945	2.7273	0.1	-2.7419e-002
7940	18.945	2.9091	0.1	-3.0521e-002
7941	18.945	3.0909	0.1	-3.0519e-002
7942	18.945	3.2727	0.1	-2.7419e-002
7943	18.945	3.4545	0.1	-2.2786e-002
7944	18.945	3.6364	0.1	-1.8884e-002
7945	18.945	3.8182	0.1	-1.7605e-002
7946	18.945	4.	0.1	-1.9777e-002
7947	18.945	4.1818	0.1	-2.3859e-002
7948	18.945	4.3636	0.1	-2.755e-002
7949	18.945	4.5455	0.1	-2.9783e-002
7950	18.945	4.7273	0.1	-3.0341e-002
7951	18.945	4.9091	0.1	-2.9483e-002
7952	18.945	5.0909	0.1	-2.8659e-002
7953	18.945	5.2727	0.1	-2.1515e-002
7954	18.945	5.4545	0.1	-2.494e-002
7955	18.945	5.6364	0.1	8.7977e-002
7956	18.945	5.8182	0.1	0.11223
7957	19.129	0.18182	0.1	9.0756e-002
7958	19.129	0.36364	0.1	7.5774e-002
7959	19.129	0.54545	0.1	-3.5125e-002
7960	19.129	0.72727	0.1	-2.5719e-002
7961	19.129	0.90909	0.1	-2.9356e-002
7962	19.129	1.0909	0.1	-2.8027e-002
7963	19.129	1.2727	0.1	-2.8379e-002
7964	19.129	1.4545	0.1	-2.8442e-002
7965	19.129	1.6364	0.1	-2.7216e-002
7966	19.129	1.8182	0.1	-2.3102e-002
7967	19.129	2.	0.1	-1.9149e-002
7968	19.129	2.1818	0.1	-1.7195e-002
7969	19.129	2.3636	0.1	-1.8603e-002
7970	19.129	2.5455	0.1	-2.5035e-002
7971	19.129	2.7273	0.1	-3.295e-002
7972	19.129	2.9091	0.1	-3.7983e-002
7973	19.129	3.0909	0.1	-3.7984e-002
7974	19.129	3.2727	0.1	-3.295e-002
7975	19.129	3.4545	0.1	-2.5035e-002
7976	19.129	3.6364	0.1	-1.8603e-002
7977	19.129	3.8182	0.1	-1.7193e-002
7978	19.129	4.	0.1	-1.9149e-002
7979	19.129	4.1818	0.1	-2.3103e-002
7980	19.129	4.3636	0.1	-2.7215e-002
7981	19.129	4.5455	0.1	-2.8441e-002
7982	19.129	4.7273	0.1	-2.8378e-002
7983	19.129	4.9091	0.1	-2.8027e-002
7984	19.129	5.0909	0.1	-2.9354e-002
7985	19.129	5.2727	0.1	-2.5717e-002
7986	19.129	5.4545	0.1	-3.5125e-002
7987	19.129	5.6364	0.1	7.5772e-002
7988	19.129	5.8182	0.1	9.0756e-002
7989	19.313	0.18182	0.1	4.1889e-002
7990	19.313	0.36364	0.1	5.2548e-002
7991	19.313	0.54545	0.1	-4.8979e-002
7992	19.313	0.72727	0.1	-3.1076e-002
7993	19.313	0.90909	0.1	-2.8749e-002
7994	19.313	1.0909	0.1	-2.3585e-002
7995	19.313	1.2727	0.1	-2.2375e-002
7996	19.313	1.4545	0.1	-2.1884e-002
7997	19.313	1.6364	0.1	-1.9143e-002
7998	19.313	1.8182	0.1	-1.694e-002
7999	19.313	2.	0.1	-8.5964e-003
8000	19.313	2.1818	0.1	-5.3575e-003
8001	19.313	2.3636	0.1	-1.6854e-002
8002	19.313	2.5455	0.1	-3.0339e-002
8003	19.313	2.7273	0.1	-4.1393e-002
8004	19.313	2.9091	0.1	-4.8459e-002
8005	19.313	3.0909	0.1	-4.8459e-002
8006	19.313	3.2727	0.1	-4.1393e-002
8007	19.313	3.4545	0.1	-3.0338e-002
8008	19.313	3.6364	0.1	-1.6854e-002
8009	19.313	3.8182	0.1	-5.3578e-003
8010	19.313	4.	0.1	-8.5962e-003
8011	19.313	4.1818	0.1	-1.694e-002
8012	19.313	4.3636	0.1	-1.9143e-002
8013	19.313	4.5455	0.1	-2.1883e-002
8014	19.313	4.7273	0.1	-2.2374e-002
8015	19.313	4.9091	0.1	-2.3584e-002
8016	19.313	5.0909	0.1	-2.8748e-002
8017	19.313	5.2727	0.1	-3.1073e-002
8018	19.313	5.4545	0.1	-4.8977e-002
8019	19.313	5.6364	0.1	5.2549e-002
8020	19.313	5.8182	0.1	4.1887e-002
8021	19.496	0.18182	0.1	-4.3502e-002
8022	19.496	0.36364	0.1	1.2912e-002
8023	19.496	0.54545	0.1	-7.0022e-002
8024	19.496	0.72727	0.1	-4.1167e-002
8025	19.496	0.90909	0.1	-3.0119e-002
8026	19.496	1.0909	0.1	-1.7747e-002
8027	19.496	1.2727	0.1	-1.1009e-002
8028	19.496	1.4545	0.1	-1.5768e-002
8029	19.496	1.6364	0.1	-3.2807e-002
8030	19.496	1.8182	0.1	-2.4301e-002
8031	19.496	2.	0.1	-3.5585e-002
8032	19.496	2.1818	0.1	-4.5794e-002
8033	19.496	2.3636	0.1	-2.7972e-002
8034	19.496	2.5455	0.1	-3.6577e-002
8035	19.496	2.7273	0.1	-5.4706e-002
8036	19.496	2.9091	0.1	-6.145e-002
8037	19.496	3.0909	0.1	-6.145e-002
8038	19.496	3.2727	0.1	-5.4706e-002
8039	19.496	3.4545	0.1	-3.6576e-002
8040	19.496	3.6364	0.1	-2.7974e-002
8041	19.496	3.8182	0.1	-4.5794e-002
8042	19.496	4.	0.1	-3.5585e-002
8043	19.496	4.1818	0.1	-2.4301e-002
8044	19.496	4.3636	0.1	-3.2807e-002
8045	19.496	4.5455	0.1	-1.5768e-002
8046	19.496	4.7273	0.1	-1.1007e-002
8047	19.496	4.9091	0.1	-1.7745e-002
8048	19.496	5.0909	0.1	-3.0118e-002
8049	19.496	5.2727	0.1	-4.1165e-002
8050	19.496	5.4545	0.1	-7.0023e-002
8051	19.496	5.6364	0.1	1.291e-002
8052	19.496	5.8182	0.1	-4.3503e-002
8053	19.68	0.18182	0.1	-0.15839
8054	19.68	0.36364	0.1	-3.9304e-002
8055	19.68	0.54545	0.1	-9.3119e-002
8056	19.68	0.72727	0.1	-5.2585e-002
8057	19.68	0.90909	0.1	-2.808e-002
8058	19.68	1.0909	0.1	-2.0872e-003
8059	19.68	1.2727	0.1	9.0119e-003
8060	19.68	1.4545	0.1	2.3471e-002
8061	19.68	1.6364	0.1	8.8915e-002
8062	19.68	1.8182	0.1	1.5994e-002
8063	19.68	2.	0.1	7.0118e-002
8064	19.68	2.1818	0.1	0.11119
8065	19.68	2.3636	0.1	-4.0572e-002
8066	19.68	2.5455	0.1	-7.2374e-002
8067	19.68	2.7273	0.1	-6.6377e-002
8068	19.68	2.9091	0.1	-7.2368e-002
8069	19.68	3.0909	0.1	-7.2369e-002
8070	19.68	3.2727	0.1	-6.6377e-002
8071	19.68	3.4545	0.1	-7.2372e-002
8072	19.68	3.6364	0.1	-4.0573e-002
8073	19.68	3.8182	0.1	0.11119
8074	19.68	4.	0.1	7.0117e-002
8075	19.68	4.1818	0.1	1.5995e-002
8076	19.68	4.3636	0.1	8.8916e-002
8077	19.68	4.5455	0.1	2.347e-002
8078	19.68	4.7273	0.1	9.0129e-003
8079	19.68	4.9091	0.1	-2.0862e-003
8080	19.68	5.0909	0.1	-2.8078e-002
8081	19.68	5.2727	0.1	-5.2585e-002
8082	19.68	5.4545	0.1	-9.3118e-002
8083	19.68	5.6364	0.1	-3.9306e-002
8084	19.68	5.8182	0.1	-0.15839
8085	19.864	0.18182	0.1	-0.30008
8086	19.864	0.36364	0.1	-0.12189
8087	19.864	0.54545	0.1	-0.14233
8088	19.864	0.72727	0.1	-9.618e-002
8089	19.864	0.90909	0.1	-6.3584e-002
8090	19.864	1.0909	0.1	-3.408e-002
8091	19.864	1.2727	0.1	2.4881e-002
8092	19.864	1.4545	0.1	8.2008e-002
8093	19.864	1.6364	0.1	-0.31012
8094	19.864	1.8182	0.1	-6.8225e-002
8095	19.864	2.	0.1	-0.44557
8096	19.864	2.1818	0.1	-0.70099
8097	19.864	2.3636	0.1	-5.1327e-002
8098	19.864	2.5455	0.1	-8.8051e-002
8099	19.864	2.7273	0.1	-8.4428e-002
8100	19.864	2.9091	0.1	-6.5524e-002
8101	19.864	3.0909	0.1	-6.5525e-002
8102	19.864	3.2727	0.1	-8.4427e-002
8103	19.864	3.4545	0.1	-8.8051e-002
8104	19.864	3.6364	0.1	-5.1327e-002
8105	19.864	3.8182	0.1	-0.70099
8106	19.864	4.	0.1	-0.44557
8107	19.864	4.1818	0.1	-6.8225e-002
8108	19.864	4.3636	0.1	-0.31012
8109	19.864	4.5455	0.1	8.2008e-002
8110	19.864	4.7273	0.1	2.4882e-002
8111	19.864	4.9091	0.1	-3.4079e-002
8112	19.864	5.0909	0.1	-6.3583e-002
8113	19.864	5.2727	0.1	-9.6178e-002
8114	19.864	5.4545	0.1	-0.14233
8115	19.864	5.6364	0.1	-0.12189
8116	19.864	5.8182	0.1	-0.30008
8117	20.048	0.18182	0.1	-0.2651
8118	20.048	0.36364	0.1	-9.2492e-002
8119	20.048	0.54545	0.1	-9.4234e-002
8120	20.048	0.72727	0.1	-5.0434e-002
8121	20.048	0.90909	0.1	-1.7318e-002
8122	20.048	1.0909	0.1	7.0254e-002
8123	20.048	1.2727	0.1	0.1063
8124	20.048	1.4545	0.1	4.9364e-002
8125	20.048	1.6364	0.1	1.6134
8126	20.048	1.8182	0.1	0.61027
8127	20.048	2.	0.1	1.9358
8128	20.048	2.1818	0.1	1.7941
8129	20.048	2.3636	0.1	-0.80004
8130	20.048	2.5455	0.1	-3.6438e-002
8131	20.048	2.7273	0.1	-5.126e-002
8132	20.048	2.9091	0.1	-1.4124e-002
8133	20.048	3.0909	0.1	-1.4123e-002
8134	20.048	3.2727	0.1	-5.1261e-002
8135	20.048	3.4545	0.1	-3.6438e-002
8136	20.048	3.6364	0.1	-0.80004
8137	20.048	3.8182	0.1	1.7941
8138	20.048	4.	0.1	1.9358
8139	20.048	4.1818	0.1	0.61027
8140	20.048	4.3636	0.1	1.6134
8141	20.048	4.5455	0.1	4.9364e-002
8142	20.048	4.7273	0.1	0.1063
8143	20.048	4.9091	0.1	7.0254e-002
8144	20.048	5.0909	0.1	-1.7317e-002
8145	20.048	5.2727	0.1	-5.0432e-002
8146	20.048	5.4545	0.1	-9.4235e-002
8147	20.048	5.6364	0.1	-9.2493e-002
8148	20.048	5.8182	0.1	-0.2651
8149	20.232	0.18182	0.1	-0.24172
8150	20.232	0.36364	0.1	-0.3442
8151	20.232	0.54545	0.1	-0.40678
8152	20.232	0.72727	0.1	-0.47068
8153	20.232	0.90909	0.1	-0.50304
8154	20.232	1.0909	0.1	-0.58008
8155	20.232	1.2727	0.1	-0.55357
8156	20.232	1.4545	0.1	-0.56146
8157	20.232	1.6364	0.1	-1.7766
8158	20.232	1.8182	0.1	-4.2777
8159	20.232	2.	0.1	-11.695
8160	20.232	2.1818	0.1	-6.4995
8161	20.232	2.3636	0.1	1.0458
8162	20.232	2.5455	0.1	-0.13805
8163	20.232	2.7273	0.1	0.10967
8164	20.232	2.9091	0.1	9.4301e-002
8165	20.232	3.0909	0.1	9.4303e-002
8166	20.232	3.2727	0.1	0.10967
8167	20.232	3.4545	0.1	-0.13805
8168	20.232	3.6364	0.1	1.0458
8169	20.232	3.8182	0.1	-6.4994
8170	20.232	4.	0.1	-11.695
8171	20.232	4.1818	0.1	-4.2777
8172	20.232	4.3636	0.1	-1.7766
8173	20.232	4.5455	0.1	-0.56146
8174	20.232	4.7273	0.1	-0.55357
8175	20.232	4.9091	0.1	-0.58008
8176	20.232	5.0909	0.1	-0.50304
8177	20.232	5.2727	0.1	-0.47068
8178	20.232	5.4545	0.1	-0.40678
8179	20.232	5.6364	0.1	-0.3442
8180	20.232	5.8182	0.1	-0.24173
8181	20.416	0.18182	0.1	2.7723
8182	20.416	0.36364	0.1	1.2019
8183	20.416	0.54545	0.1	0.96216
8184	20.416	0.72727	0.1	0.88223
8185	20.416	0.90909	0.1	0.86148
8186	20.416	1.0909	0.1	1.1942
8187	20.416	1.2727	0.1	0.56768
8188	20.416	1.4545	0.1	4.1222
8189	20.416	1.6364	0.1	-5.5625
8190	20.416	1.8182	0.1	21.251
8191	20.416	2.	0.1	105.61
8192	20.416	2.1818	0.1	-6.2991
8193	20.416	2.3636	0.1	3.8264
8194	20.416	2.5455	0.1	-0.9295
8195	20.416	2.7273	0.1	0.73035
8196	20.416	2.9091	0.1	0.21699
8197	20.416	3.0909	0.1	0.21699
8198	20.416	3.2727	0.1	0.73035
8199	20.416	3.4545	0.1	-0.9295
8200	20.416	3.6364	0.1	3.8264
8201	20.416	3.8182	0.1	-6.2991
8202	20.416	4.	0.1	105.61
8203	20.416	4.1818	0.1	21.251
8204	20.416	4.3636	0.1	-5.5625
8205	20.416	4.5455	0.1	4.1222
8206	20.416	4.7273	0.1	0.56768
8207	20.416	4.9091	0.1	1.1942
8208	20.416	5.0909	0.1	0.86148
8209	20.416	5.2727	0.1	0.88223
8210	20.416	5.4545	0.1	0.96216
8211	20.416	5.6364	0.1	1.2019
8212	20.416	5.8182	0.1	2.7723
8213	20.767	3.8182	0.1	13.921
8214	20.767	3.6364	0.1	7.8229
8215	20.767	3.4545	0.1	-0.31225
8216	20.767	3.2727	0.1	0.80213
8217	20.767	3.0909	0.1	0.37056
8218	20.767	2.9091	0.1	0.37056
8219	20.767	2.7273	0.1	0.80213
8220	20.767	2.5455	0.1	-0.31225
8221	20.767	2.3636	0.1	7.8229
8222	20.767	2.1818	0.1	13.921
8223	20.6	3.8182	0.1	-43.815
8224	20.6	3.6364	0.1	6.2349
8225	20.6	3.4545	0.1	2.0534e-002
8226	20.6	3.2727	0.1	0.74613
8227	20.6	3.0909	0.1	0.43078
8228	20.6	2.9091	0.1	0.43078
8229	20.6	2.7273	0.1	0.74613
8230	20.6	2.5455	0.1	2.0535e-002
8231	20.6	2.3636	0.1	6.2349
8232	20.6	2.1818	0.1	-43.815
8233	20.767	5.8182	0.1	-1.0363
8234	20.767	5.6364	0.1	-1.7736
8235	20.767	5.4545	0.1	-1.8312
8236	20.767	5.2727	0.1	-2.1181
8237	20.767	5.0909	0.1	-2.5787
8238	20.767	4.9091	0.1	-3.036
8239	20.767	4.7273	0.1	-4.6571
8240	20.767	4.5455	0.1	-4.356
8241	20.767	4.3636	0.1	-18.011
8242	20.767	4.1818	0.1	6.3274
8243	20.767	4.	0.1	370.45
8244	20.6	4.	0.1	89.416
8245	20.6	4.1818	0.1	4.3421
8246	20.6	4.3636	0.1	-23.373
8247	20.6	4.5455	0.1	-6.035
8248	20.6	4.7273	0.1	-7.3703
8249	20.6	4.9091	0.1	-5.1799
8250	20.6	5.0909	0.1	-4.7703
8251	20.6	5.2727	0.1	-4.2066
8252	20.6	5.4545	0.1	-3.8658
8253	20.6	5.6364	0.1	-3.7747
8254	20.6	5.8182	0.1	-3.0487
8255	20.767	0.18182	0.1	-1.0363
8256	20.767	0.36364	0.1	-1.7736
8257	20.767	0.54545	0.1	-1.8312
8258	20.767	0.72727	0.1	-2.1181
8259	20.767	0.90909	0.1	-2.5788
8260	20.767	1.0909	0.1	-3.036
8261	20.767	1.2727	0.1	-4.6571
8262	20.767	1.4545	0.1	-4.356
8263	20.767	1.6364	0.1	-18.011
8264	20.767	1.8182	0.1	6.3274
8265	20.767	2.	0.1	370.45
8266	20.6	2.	0.1	89.416
8267	20.6	1.8182	0.1	4.3421
8268	20.6	1.6364	0.1	-23.373
8269	20.6	1.4545	0.1	-6.035
8270	20.6	1.2727	0.1	-7.3703
8271	20.6	1.0909	0.1	-5.1799
8272	20.6	0.90909	0.1	-4.7703
8273	20.6	0.72727	0.1	-4.2066
8274	20.6	0.54545	0.1	-3.8658
8275	20.6	0.36364	0.1	-3.7747
8276	20.6	0.18182	0.1	-3.0487
8277	20.767	6.	0.1	4.0261
8278	20.946	6.	0.1	0.21018
8279	21.126	6.	0.1	-0.60013
8280	21.306	6.	0.1	-0.3093
8281	21.485	6.	0.1	-0.21681
8282	21.665	6.	0.1	-0.10983
8283	21.844	6.	0.1	-4.137e-002
8284	22.024	6.	0.1	7.7402e-003
8285	22.204	6.	0.1	4.1522e-002
8286	22.383	6.	0.1	6.732e-002
8287	22.563	6.	0.1	9.0262e-002
8288	22.743	6.	0.1	0.11463
8289	22.922	6.	0.1	0.1436
8290	23.102	6.	0.1	0.1814
8291	23.281	6.	0.1	0.22777
8292	23.461	6.	0.1	0.30654
8293	23.641	6.	0.1	0.37084
8294	23.82	6.	0.1	0.73142
8295	24.	6.	0.1	-1.1822
8296	24.	5.8182	0.1	-2.2342
8297	24.	5.6364	0.1	-2.2468
8298	24.	5.4545	0.1	-2.397
8299	24.	5.2727	0.1	-2.423
8300	24.	5.0909	0.1	-2.4573
8301	24.	4.9091	0.1	-2.4847
8302	24.	4.7273	0.1	-2.5125
8303	24.	4.5455	0.1	-2.5401
8304	24.	4.3636	0.1	-2.568
8305	24.	4.1818	0.1	-2.5958
8306	24.	4.	0.1	-2.6227
8307	24.	3.8182	0.1	-2.6479
8308	24.	3.6364	0.1	-2.6701
8309	24.	3.4545	0.1	-2.6882
8310	24.	3.2727	0.1	-2.701
8311	24.	3.0909	0.1	-2.7077
8312	24.	2.9091	0.1	-2.7077
8313	24.	2.7273	0.1	-2.701
8314	24.	2.5455	0.1	-2.6882
8315	24.	2.3636	0.1	-2.6701
8316	24.	2.1818	0.1	-2.6479
8317	24.	2.	0.1	-2.6227
8318	24.	1.8182	0.1	-2.5958
8319	24.	1.6364	0.1	-2.568
8320	24.	1.4545	0.1	-2.5401
8321	24.	1.2727	0.1	-2.5125
8322	24.	1.0909	0.1	-2.4847
8323	24.	0.90909	0.1	-2.4573
8324	24.	0.72727	0.1	-2.423
8325	24.	0.54545	0.1	-2.397
8326	24.	0.36364	0.1	-2.2468
8327	24.	0.18182	0.1	-2.2342
8328	1.5894e-015	0.18182	0.1	1193.8
8329	3.1789e-015	0.36364	0.1	2307.3
8330	4.7683e-015	0.54545	0.1	2823.8
8331	6.3578e-015	0.72727	0.1	3132.8
8332	7.9472e-015	0.90909	0.1	3340.
8333	9.5366e-015	1.0909	0.1	3488.5
8334	1.1126e-014	1.2727	0.1	3598.7
8335	1.2716e-014	1.4545	0.1	3682.5
8336	1.4305e-014	1.6364	0.1	3747.
8337	1.5894e-014	1.8182	0.1	3797.1
8338	1.7484e-014	2.	0.1	3835.9
8339	1.9073e-014	2.1818	0.1	3865.6
8340	2.0663e-014	2.3636	0.1	3887.9
8341	2.2252e-014	2.5455	0.1	3903.7
8342	2.3842e-014	2.7273	0.1	3913.8
8343	2.5431e-014	2.9091	0.1	3918.7
8344	2.702e-014	3.0909	0.1	3918.7
8345	2.861e-014	3.2727	0.1	3913.8
8346	3.0199e-014	3.4545	0.1	3903.7
8347	3.1789e-014	3.6364	0.1	3887.9
8348	3.3378e-014	3.8182	0.1	3865.6
8349	3.4968e-014	4.	0.1	3835.9
8350	3.6557e-014	4.1818	0.1	3797.1
8351	3.8147e-014	4.3636	0.1	3747.
8352	3.9736e-014	4.5455	0.1	3682.5
8353	4.1325e-014	4.7273	0.1	3598.7
8354	4.2915e-014	4.9091	0.1	3488.5
8355	4.4504e-014	5.0909	0.1	3340.
8356	4.6094e-014	5.2727	0.1	3132.8
8357	4.7683e-014	5.4545	0.1	2823.8
8358	4.9273e-014	5.6364	0.1	2307.3
8359	5.0862e-014	5.8182	0.1	1193.8
8360	24.	0.	0.1	-1.1822
8361	23.82	0.	0.1	0.73141
8362	23.641	0.	0.1	0.37084
8363	23.461	0.	0.1	0.30654
8364	23.281	0.	0.1	0.22778
8365	23.102	0.	0.1	0.1814
8366	22.922	0.	0.1	0.14361
8367	22.743	0.	0.1	0.11463
8368	22.563	0.	0.1	9.0259e-002
8369	22.383	0.	0.1	6.7325e-002
8370	22.204	0.	0.1	4.1528e-002
8371	22.024	0.	0.1	7.7422e-003
8372	21.844	0.	0.1	-4.1367e-002
8373	21.665	0.	0.1	-0.10983
8374	21.485	0.	0.1	-0.21681
8375	21.306	0.	0.1	-0.3093
8376	21.126	0.	0.1	-0.60012
8377	20.946	0.	0.1	0.21019
8378	20.767	0.	0.1	4.0261
8379	20.6	0.	0.1	6.687
8380	20.416	-2.4047e-030	0.1	0.91121
8381	20.232	-2.383e-030	0.1	-0.26446
8382	20.048	-2.3614e-030	0.1	0.28582
8383	19.864	-2.3397e-030	0.1	0.46578
8384	19.68	-2.318e-030	0.1	0.66254
8385	19.496	-2.2964e-030	0.1	0.76522
8386	19.313	-2.2747e-030	0.1	0.80936
8387	19.129	-2.2531e-030	0.1	0.80556
8388	18.945	-2.2314e-030	0.1	0.77166
8389	18.761	-2.2097e-030	0.1	0.72044
8390	18.577	-2.1881e-030	0.1	0.66132
8391	18.393	-2.1664e-030	0.1	0.60037
8392	18.209	-2.1447e-030	0.1	0.54126
8393	18.025	-2.1231e-030	0.1	0.48604
8394	17.841	-2.1014e-030	0.1	0.43567
8395	17.657	-2.0797e-030	0.1	0.39043
8396	17.473	-2.0581e-030	0.1	0.3502
8397	17.289	-2.0364e-030	0.1	0.31466
8398	17.105	-2.0148e-030	0.1	0.28337
8399	16.921	-1.9931e-030	0.1	0.25588
8400	16.737	-1.9714e-030	0.1	0.23174
8401	16.554	-1.9498e-030	0.1	0.21053
8402	16.37	-1.9281e-030	0.1	0.19185
8403	16.186	-1.9064e-030	0.1	0.17534
8404	16.002	-1.8848e-030	0.1	0.16069
8405	15.818	-1.8631e-030	0.1	0.14763
8406	15.634	-1.8414e-030	0.1	0.13592
8407	15.45	-1.8198e-030	0.1	0.12538
8408	15.266	-1.7981e-030	0.1	0.11586
8409	15.082	-1.7764e-030	0.1	0.10719
8410	14.898	-1.7548e-030	0.1	9.9221e-002
8411	14.714	-1.7331e-030	0.1	9.1845e-002
8412	14.53	-1.7115e-030	0.1	8.4962e-002
8413	14.346	-1.6898e-030	0.1	7.8498e-002
8414	14.163	-1.6681e-030	0.1	7.238e-002
8415	13.979	-1.6465e-030	0.1	6.6576e-002
8416	13.795	-1.6248e-030	0.1	6.0991e-002
8417	13.611	-1.6031e-030	0.1	5.5572e-002
8418	13.427	-1.5815e-030	0.1	5.0258e-002
8419	13.243	-1.5598e-030	0.1	4.5e-002
8420	13.059	-1.5381e-030	0.1	3.9767e-002
8421	12.875	-1.5165e-030	0.1	3.4521e-002
8422	12.691	-1.4948e-030	0.1	2.9262e-002
8423	12.507	-1.4732e-030	0.1	2.3913e-002
8424	12.323	-1.4515e-030	0.1	1.843e-002
8425	12.139	-1.4298e-030	0.1	1.2765e-002
8426	11.955	-1.4082e-030	0.1	6.8768e-003
8427	11.771	-1.3865e-030	0.1	7.1974e-004
8428	11.587	-1.3648e-030	0.1	-5.6915e-003
8429	11.404	-1.3432e-030	0.1	-1.2405e-002
8430	11.22	-1.3215e-030	0.1	-1.9494e-002
8431	11.036	-1.2998e-030	0.1	-2.7008e-002
8432	10.852	-1.2782e-030	0.1	-3.5008e-002
8433	10.668	-1.2565e-030	0.1	-4.3547e-002
8434	10.484	-1.2348e-030	0.1	-5.267e-002
8435	10.3	-1.2132e-030	0.1	-6.2428e-002
8436	10.116	-1.1915e-030	0.1	-7.2825e-002
8437	9.9321	-1.1699e-030	0.1	-8.4e-002
8438	9.7482	-1.1482e-030	0.1	-9.6045e-002
8439	9.5643	-1.1265e-030	0.1	-0.109
8440	9.3804	-1.1049e-030	0.1	-0.12294
8441	9.1964	-1.0832e-030	0.1	-0.13797
8442	9.0125	-1.0615e-030	0.1	-0.15419
8443	8.8286	-1.0399e-030	0.1	-0.17168
8444	8.6446	-1.0182e-030	0.1	-0.19057
8445	8.4607	-9.9654e-031	0.1	-0.21097
8446	8.2768	-9.7488e-031	0.1	-0.23302
8447	8.0929	-9.5322e-031	0.1	-0.25685
8448	7.9089	-9.3155e-031	0.1	-0.28261
8449	7.725	-9.0989e-031	0.1	-0.31047
8450	7.5411	-8.8822e-031	0.1	-0.34057
8451	7.3571	-8.6656e-031	0.1	-0.37312
8452	7.1732	-8.449e-031	0.1	-0.40823
8453	6.9893	-8.2323e-031	0.1	-0.43946
8454	6.8054	-8.0157e-031	0.1	-0.10654
8455	6.6214	-7.799e-031	0.1	0.2461
8456	6.4375	-7.5824e-031	0.1	0.60285
8457	6.2536	-7.3658e-031	0.1	0.96094
8458	6.0696	-7.1491e-031	0.1	1.3169
8459	5.8857	-6.9325e-031	0.1	1.6666
8460	5.7018	-6.7158e-031	0.1	2.0047
8461	5.5179	-6.4992e-031	0.1	2.3251
8462	5.3339	-6.2826e-031	0.1	2.6202
8463	5.15	-6.0659e-031	0.1	2.8811
8464	4.9661	-5.8493e-031	0.1	3.0969
8465	4.7821	-5.6326e-031	0.1	3.2549
8466	4.5982	-5.416e-031	0.1	3.3403
8467	4.4143	-5.1994e-031	0.1	3.3355
8468	4.2304	-4.9827e-031	0.1	3.2201
8469	4.0464	-4.7661e-031	0.1	2.9704
8470	3.8625	-4.5494e-031	0.1	2.5596
8471	3.6786	-4.3328e-031	0.1	1.958
8472	3.4946	-4.1162e-031	0.1	1.1359
8473	3.3107	-3.8995e-031	0.1	7.7703e-002
8474	3.1268	-3.6829e-031	0.1	-1.1425
8475	2.9429	-3.4662e-031	0.1	-2.1054
8476	2.7589	-3.2496e-031	0.1	-2.5952
8477	2.575	-3.033e-031	0.1	-2.9312
8478	2.3911	-2.8163e-031	0.1	-3.2395
8479	2.2071	-2.5997e-031	0.1	-3.5551
8480	2.0232	-2.383e-031	0.1	-3.8934
8481	1.8393	-2.1664e-031	0.1	-4.2644
8482	1.6554	-1.9498e-031	0.1	-4.6829
8483	1.4714	-1.7331e-031	0.1	-5.149
8484	1.2875	-1.5165e-031	0.1	-5.726
8485	1.1036	-1.2998e-031	0.1	-6.2845
8486	0.91964	-1.0832e-031	0.1	-7.3544
8487	0.73571	-8.6656e-032	0.1	-7.5179
8488	0.55179	-6.4992e-032	0.1	-10.274
8489	0.36786	-4.3328e-032	0.1	-16.497
8490	0.18393	-2.1664e-032	0.1	51.694
8491	0.	0.	0.1	-353.42
8492	3.937e-014	6.	0.1	-353.42
8493	0.18393	6.	0.1	51.694
8494	0.36786	6.	0.1	-16.497
8495	0.55179	6.	0.1	-10.274
8496	0.73571	6.	0.1	-7.5179
8497	0.91964	6.	0.1	-7.3544
8498	1.1036	6.	0.1	-6.2845
8499	1.2875	6.	0.1	-5.726
8500	1.4714	6.	0.1	-5.149
8501	1.6554	6.	0.1	-4.6829
8502	1.8393	6.	0.1	-4.2644
8503	2.0232	6.	0.1	-3.8934
8504	2.2071	6.	0.1	-3.5551
8505	2.3911	6.	0.1	-3.2395
8506	2.575	6.	0.1	-2.9312
8507	2.7589	6.	0.1	-2.5952
8508	2.9429	6.	0.1	-2.1054
8509	3.1268	6.	0.1	-1.1425
8510	3.3107	6.	0.1	7.7708e-002
8511	3.4946	6.	0.1	1.1359
8512	3.6786	6.	0.1	1.958
8513	3.8625	6.	0.1	2.5596
8514	4.0464	6.	0.1	2.9704
8515	4.2304	6.	0.1	3.2201
8516	4.4143	6.	0.1	3.3355
8517	4.5982	6.	0.1	3.3403
8518	4.7821	6.	0.1	3.2549
8519	4.9661	6.	0.1	3.0969
8520	5.15	6.	0.1	2.8811
8521	5.3339	6.	0.1	2.6202
8522	5.5179	6.	0.1	2.3251
8523	5.7018	6.	0.1	2.0047
8524	5.8857	6.	0.1	1.6666
8525	6.0696	6.	0.1	1.3169
8526	6.2536	6.	0.1	0.96094
8527	6.4375	6.	0.1	0.60285
8528	6.6214	6.	0.1	0.2461
8529	6.8054	6.	0.1	-0.10654
8530	6.9893	6.	0.1	-0.43946
8531	7.1732	6.	0.1	-0.40823
8532	7.3571	6.	0.1	-0.37312
8533	7.5411	6.	0.1	-0.34057
8534	7.725	6.	0.1	-0.31047
8535	7.9089	6.	0.1	-0.28261
8536	8.0929	6.	0.1	-0.25685
8537	8.2768	6.	0.1	-0.23302
8538	8.4607	6.	0.1	-0.21097
8539	8.6446	6.	0.1	-0.19057
8540	8.8286	6.	0.1	-0.17168
8541	9.0125	6.	0.1	-0.15419
8542	9.1964	6.	0.1	-0.13797
8543	9.3804	6.	0.1	-0.12294
8544	9.5643	6.	0.1	-0.109
8545	9.7482	6.	0.1	-9.6045e-002
8546	9.9321	6.	0.1	-8.3999e-002
8547	10.116	6.	0.1	-7.2824e-002
8548	10.3	6.	0.1	-6.2428e-002
8549	10.484	6.	0.1	-5.2669e-002
8550	10.668	6.	0.1	-4.3546e-002
8551	10.852	6.	0.1	-3.5007e-002
8552	11.036	6.	0.1	-2.7007e-002
8553	11.22	6.	0.1	-1.9494e-002
8554	11.404	6.	0.1	-1.2405e-002
8555	11.587	6.	0.1	-5.691e-003
8556	11.771	6.	0.1	7.2072e-004
8557	11.955	6.	0.1	6.8772e-003
8558	12.139	6.	0.1	1.2765e-002
8559	12.323	6.	0.1	1.8431e-002
8560	12.507	6.	0.1	2.3913e-002
8561	12.691	6.	0.1	2.9262e-002
8562	12.875	6.	0.1	3.4522e-002
8563	13.059	6.	0.1	3.9768e-002
8564	13.243	6.	0.1	4.5e-002
8565	13.427	6.	0.1	5.0257e-002
8566	13.611	6.	0.1	5.5572e-002
8567	13.795	6.	0.1	6.0991e-002
8568	13.979	6.	0.1	6.6574e-002
8569	14.163	6.	0.1	7.238e-002
8570	14.346	6.	0.1	7.8498e-002
8571	14.53	6.	0.1	8.4963e-002
8572	14.714	6.	0.1	9.1844e-002
8573	14.898	6.	0.1	9.9219e-002
8574	15.082	6.	0.1	0.10718
8575	15.266	6.	0.1	0.11586
8576	15.45	6.	0.1	0.12538
8577	15.634	6.	0.1	0.13592
8578	15.818	6.	0.1	0.14763
8579	16.002	6.	0.1	0.16069
8580	16.186	6.	0.1	0.17534
8581	16.37	6.	0.1	0.19185
8582	16.554	6.	0.1	0.21053
8583	16.737	6.	0.1	0.23174
8584	16.921	6.	0.1	0.25588
8585	17.105	6.	0.1	0.28337
8586	17.289	6.	0.1	0.31466
8587	17.473	6.	0.1	0.3502
8588	17.657	6.	0.1	0.39043
8589	17.841	6.	0.1	0.43567
8590	18.025	6.	0.1	0.48604
8591	18.209	6.	0.1	0.54126
8592	18.393	6.	0.1	0.60037
8593	18.577	6.	0.1	0.66132
8594	18.761	6.	0.1	0.72044
8595	18.945	6.	0.1	0.77166
8596	19.129	6.	0.1	0.80556
8597	19.313	6.	0.1	0.80936
8598	19.496	6.	0.1	0.76522
8599	19.68	6.	0.1	0.66254
8600	19.864	6.	0.1	0.46578
8601	20.048	6.	0.1	0.28582
8602	20.232	6.	0.1	-0.26446
8603	20.416	6.	0.1	0.91121
8604	20.6	6.	0.1	6.687
8605	20.416	6.	0.	-0.91121
8606	20.232	6.	0.	0.26446
8607	20.048	6.	0.	-0.28582
8608	19.864	6.	0.	-0.46578
8609	19.68	6.	0.	-0.66254
8610	19.496	6.	0.	-0.76522
8611	19.313	6.	0.	-0.80936
8612	19.129	6.	0.	-0.80556
8613	18.945	6.	0.	-0.77166
8614	18.761	6.	0.	-0.72044
8615	18.577	6.	0.	-0.66132
8616	18.393	6.	0.	-0.60036
8617	18.209	6.	0.	-0.54126
8618	18.025	6.	0.	-0.48604
8619	17.841	6.	0.	-0.43567
8620	17.657	6.	0.	-0.39043
8621	17.473	6.	0.	-0.3502
8622	17.289	6.	0.	-0.31466
8623	17.105	6.	0.	-0.28337
8624	16.921	6.	0.	-0.25588
8625	16.737	6.	0.	-0.23174
8626	16.554	6.	0.	-0.21053
8627	16.37	6.	0.	-0.19185
8628	16.186	6.	0.	-0.17534
8629	16.002	6.	0.	-0.16069
8630	15.818	6.	0.	-0.14763
8631	15.634	6.	0.	-0.13592
8632	15.45	6.	0.	-0.12538
8633	15.266	6.	0.	-0.11586
8634	15.082	6.	0.	-0.10718
8635	14.898	6.	0.	-9.9218e-002
8636	14.714	6.	0.	-9.1844e-002
8637	14.53	6.	0.	-8.4962e-002
8638	14.346	6.	0.	-7.8497e-002
8639	14.163	6.	0.	-7.2379e-002
8640	13.979	6.	0.	-6.6574e-002
8641	13.795	6.	0.	-6.0991e-002
8642	13.611	6.	0.	-5.5571e-002
8643	13.427	6.	0.	-5.0256e-002
8644	13.243	6.	0.	-4.4999e-002
8645	13.059	6.	0.	-3.9767e-002
8646	12.875	6.	0.	-3.4521e-002
8647	12.691	6.	0.	-2.9262e-002
8648	12.507	6.	0.	-2.3913e-002
8649	12.323	6.	0.	-1.843e-002
8650	12.139	6.	0.	-1.2765e-002
8651	11.955	6.	0.	-6.877e-003
8652	11.771	6.	0.	-7.189e-004
8653	11.587	6.	0.	5.6916e-003
8654	11.404	6.	0.	1.2405e-002
8655	11.22	6.	0.	1.9494e-002
8656	11.036	6.	0.	2.7007e-002
8657	10.852	6.	0.	3.5008e-002
8658	10.668	6.	0.	4.3547e-002
8659	10.484	6.	0.	5.267e-002
8660	10.3	6.	0.	6.2428e-002
8661	10.116	6.	0.	7.2825e-002
8662	9.9321	6.	0.	8.3999e-002
8663	9.7482	6.	0.	9.6045e-002
8664	9.5643	6.	0.	0.109
8665	9.3804	6.	0.	0.12294
8666	9.1964	6.	0.	0.13797
8667	9.0125	6.	0.	0.15419
8668	8.8286	6.	0.	0.17168
8669	8.6446	6.	0.	0.19057
8670	8.4607	6.	0.	0.21097
8671	8.2768	6.	0.	0.23302
8672	8.0929	6.	0.	0.25685
8673	7.9089	6.	0.	0.28261
8674	7.725	6.	0.	0.31047
8675	7.5411	6.	0.	0.34057
8676	7.3571	6.	0.	0.37312
8677	7.1732	6.	0.	0.40823
8678	6.9893	6.	0.	0.43946
8679	6.8054	6.	0.	0.10654
8680	6.6214	6.	0.	-0.2461
8681	6.4375	6.	0.	-0.60285
8682	6.2536	6.	0.	-0.96094
8683	6.0696	6.	0.	-1.3169
8684	5.8857	6.	0.	-1.6666
8685	5.7018	6.	0.	-2.0047
8686	5.5179	6.	0.	-2.3251
8687	5.3339	6.	0.	-2.6202
8688	5.15	6.	0.	-2.8811
8689	4.9661	6.	0.	-3.0969
8690	4.7821	6.	0.	-3.2549
8691	4.5982	6.	0.	-3.3403
8692	4.4143	6.	0.	-3.3355
8693	4.2304	6.	0.	-3.2201
8694	4.0464	6.	0.	-2.9704
8695	3.8625	6.	0.	-2.5596
8696	3.6786	6.	0.	-1.958
8697	3.4946	6.	0.	-1.1359
8698	3.3107	6.	0.	-7.7708e-002
8699	3.1268	6.	0.	1.1425
8700	2.9429	6.	0.	2.1054
8701	2.7589	6.	0.	2.5952
8702	2.575	6.	0.	2.9312
8703	2.3911	6.	0.	3.2395
8704	2.2071	6.	0.	3.5551
8705	2.0232	6.	0.	3.8934
8706	1.8393	6.	0.	4.2644
8707	1.6554	6.	0.	4.6829
8708	1.4714	6.	0.	5.149
8709	1.2875	6.	0.	5.726
8710	1.1036	6.	0.	6.2845
8711	0.91964	6.	0.	7.3544
8712	0.73571	6.	0.	7.5179
8713	0.55179	6.	0.	10.274
8714	0.36786	6.	0.	16.497
8715	0.18393	6.	0.	-51.694
8716	20.6	6.	0.	-6.687
8717	3.937e-014	6.	0.	353.42
8718	0.18393	-2.1664e-032	0.	-51.694
8719	0.36786	-4.3328e-032	0.	16.497
8720	0.55179	-6.4992e-032	0.	10.274
8721	0.73571	-8.6656e-032	0.	7.5179
8722	0.91964	-1.0832e-031	0.	7.3544
8723	1.1036	-1.2998e-031	0.	6.2845
8724	1.2875	-1.5165e-031	0.	5.726
8725	1.4714	-1.7331e-031	0.	5.149
8726	1.6554	-1.9498e-031	0.	4.6829
8727	1.8393	-2.1664e-031	0.	4.2644
8728	2.0232	-2.383e-031	0.	3.8934
8729	2.2071	-2.5997e-031	0.	3.5551
8730	2.3911	-2.8163e-031	0.	3.2395
8731	2.575	-3.033e-031	0.	2.9312
8732	2.7589	-3.2496e-031	0.	2.5952
8733	2.9429	-3.4662e-031	0.	2.1054
8734	3.1268	-3.6829e-031	0.	1.1425
8735	3.3107	-3.8995e-031	0.	-7.7703e-002
8736	3.4946	-4.1162e-031	0.	-1.1359
8737	3.6786	-4.3328e-031	0.	-1.958
8738	3.8625	-4.5494e-031	0.	-2.5596
8739	4.0464	-4.7661e-031	0.	-2.9704
8740	4.2304	-4.9827e-031	0.	-3.2201
8741	4.4143	-5.1994e-031	0.	-3.3355
8742	4.5982	-5.416e-031	0.	-3.3403
8743	4.7821	-5.6326e-031	0.	-3.2549
8744	4.9661	-5.8493e-031	0.	-3.0969
8745	5.15	-6.0659e-031	0.	-2.8811
8746	5.3339	-6.2826e-031	0.	-2.6202
8747	5.5179	-6.4992e-031	0.	-2.3251
8748	5.7018	-6.7158e-031	0.	-2.0047
8749	5.8857	-6.9325e-031	0.	-1.6666
8750	6.0696	-7.1491e-031	0.	-1.3169
8751	6.2536	-7.3658e-031	0.	-0.96094
8752	6.4375	-7.5824e-031	0.	-0.60285
8753	6.6214	-7.799e-031	0.	-0.2461
8754	6.8054	-8.0157e-031	0.	0.10654
8755	6.9893	-8.2323e-031	0.	0.43946
8756	7.1732	-8.449e-031	0.	0.40823
8757	7.3571	-8.6656e-031	0.	0.37312
8758	7.5411	-8.8822e-031	0.	0.34057
8759	7.725	-9.0989e-031	0.	0.31047
8760	7.9089	-9.3155e-031	0.	0.28261
8761	8.0929	-9.5322e-031	0.	0.25685
8762	8.2768	-9.7488e-031	0.	0.23302
8763	8.4607	-9.9654e-031	0.	0.21097
8764	8.6446	-1.0182e-030	0.	0.19057
8765	8.8286	-1.0399e-030	0.	0.17168
8766	9.0125	-1.0615e-030	0.	0.15419
8767	9.1964	-1.0832e-030	0.	0.13797
8768	9.3804	-1.1049e-030	0.	0.12294
8769	9.5643	-1.1265e-030	0.	0.109
8770	9.7482	-1.1482e-030	0.	9.6046e-002
8771	9.9321	-1.1699e-030	0.	8.4e-002
8772	10.116	-1.1915e-030	0.	7.2825e-002
8773	10.3	-1.2132e-030	0.	6.2429e-002
8774	10.484	-1.2348e-030	0.	5.2671e-002
8775	10.668	-1.2565e-030	0.	4.3548e-002
8776	10.852	-1.2782e-030	0.	3.5008e-002
8777	11.036	-1.2998e-030	0.	2.7008e-002
8778	11.22	-1.3215e-030	0.	1.9494e-002
8779	11.404	-1.3432e-030	0.	1.2406e-002
8780	11.587	-1.3648e-030	0.	5.6918e-003
8781	11.771	-1.3865e-030	0.	-7.1864e-004
8782	11.955	-1.4082e-030	0.	-6.8776e-003
8783	12.139	-1.4298e-030	0.	-1.2765e-002
8784	12.323	-1.4515e-030	0.	-1.8429e-002
8785	12.507	-1.4732e-030	0.	-2.3913e-002
8786	12.691	-1.4948e-030	0.	-2.9262e-002
8787	12.875	-1.5165e-030	0.	-3.4521e-002
8788	13.059	-1.5381e-030	0.	-3.9767e-002
8789	13.243	-1.5598e-030	0.	-4.4999e-002
8790	13.427	-1.5815e-030	0.	-5.0257e-002
8791	13.611	-1.6031e-030	0.	-5.5571e-002
8792	13.795	-1.6248e-030	0.	-6.0991e-002
8793	13.979	-1.6465e-030	0.	-6.6575e-002
8794	14.163	-1.6681e-030	0.	-7.2377e-002
8795	14.346	-1.6898e-030	0.	-7.8498e-002
8796	14.53	-1.7115e-030	0.	-8.4963e-002
8797	14.714	-1.7331e-030	0.	-9.1843e-002
8798	14.898	-1.7548e-030	0.	-9.9219e-002
8799	15.082	-1.7764e-030	0.	-0.10718
8800	15.266	-1.7981e-030	0.	-0.11586
8801	15.45	-1.8198e-030	0.	-0.12538
8802	15.634	-1.8414e-030	0.	-0.13592
8803	15.818	-1.8631e-030	0.	-0.14763
8804	16.002	-1.8848e-030	0.	-0.16069
8805	16.186	-1.9064e-030	0.	-0.17534
8806	16.37	-1.9281e-030	0.	-0.19185
8807	16.554	-1.9498e-030	0.	-0.21053
8808	16.737	-1.9714e-030	0.	-0.23174
8809	16.921	-1.9931e-030	0.	-0.25588
8810	17.105	-2.0148e-030	0.	-0.28337
8811	17.289	-2.0364e-030	0.	-0.31465
8812	17.473	-2.0581e-030	0.	-0.3502
8813	17.657	-2.0797e-030	0.	-0.39043
8814	17.841	-2.1014e-030	0.	-0.43567
8815	18.025	-2.1231e-030	0.	-0.48604
8816	18.209	-2.1447e-030	0.	-0.54126
8817	18.393	-2.1664e-030	0.	-0.60037
8818	18.577	-2.1881e-030	0.	-0.66132
8819	18.761	-2.2097e-030	0.	-0.72044
8820	18.945	-2.2314e-030	0.	-0.77166
8821	19.129	-2.2531e-030	0.	-0.80556
8822	19.313	-2.2747e-030	0.	-0.80936
8823	19.496	-2.2964e-030	0.	-0.76522
8824	19.68	-2.318e-030	0.	-0.66254
8825	19.864	-2.3397e-030	0.	-0.46578
8826	20.048	-2.3614e-030	0.	-0.28582
8827	20.232	-2.383e-030	0.	0.26446
8828	20.416	-2.4047e-030	0.	-0.91121
8829	20.6	0.	0.	-6.687
8830	0.	0.	0.	353.42
8831	20.946	0.	0.	-0.21019
8832	21.126	0.	0.	0.60013
8833	21.306	0.	0.	0.3093
8834	21.485	0.	0.	0.21681
8835	21.665	0.	0.	0.10983
8836	21.844	0.	0.	4.1368e-002
8837	22.024	0.	0.	-7.7421e-003
8838	22.204	0.	0.	-4.1526e-002
8839	22.383	0.	0.	-6.732e-002
8840	22.563	0.	0.	-9.0259e-002
8841	22.743	0.	0.	-0.11463
8842	22.922	0.	0.	-0.1436
8843	23.102	0.	0.	-0.1814
8844	23.281	0.	0.	-0.22777
8845	23.461	0.	0.	-0.30654
8846	23.641	0.	0.	-0.37084
8847	23.82	0.	0.	-0.73141
8848	20.767	0.	0.	-4.0261
8849	24.	0.	0.	1.1823
8850	5.0862e-014	5.8182	0.	-1193.8
8851	4.9273e-014	5.6364	0.	-2307.3
8852	4.7683e-014	5.4545	0.	-2823.8
8853	4.6094e-014	5.2727	0.	-3132.8
8854	4.4504e-014	5.0909	0.	-3340.
8855	4.2915e-014	4.9091	0.	-3488.5
8856	4.1325e-014	4.7273	0.	-3598.7
8857	3.9736e-014	4.5455	0.	-3682.5
8858	3.8147e-014	4.3636	0.	-3747.
8859	3.6557e-014	4.1818	0.	-3797.1
8860	3.4968e-014	4.	0.	-3835.9
8861	3.3378e-014	3.8182	0.	-3865.6
8862	3.1789e-014	3.6364	0.	-3887.9
8863	3.0199e-014	3.4545	0.	-3903.7
8864	2.861e-014	3.2727	0.	-3913.8
8865	2.702e-014	3.0909	0.	-3918.7
8866	2.5431e-014	2.9091	0.	-3918.7
8867	2.3842e-014	2.7273	0.	-3913.8
8868	2.2252e-014	2.5455	0.	-3903.7
8869	2.0663e-014	2.3636	0.	-3887.9
8870	1.9073e-014	2.1818	0.	-3865.6
8871	1.7484e-014	2.	0.	-3835.9
8872	1.5894e-014	1.8182	0.	-3797.1
8873	1.4305e-014	1.6364	0.	-3747.
8874	1.2716e-014	1.4545	0.	-3682.5
8875	1.1126e-014	1.2727	0.	-3598.7
8876	9.5366e-015	1.0909	0.	-3488.5
8877	7.9472e-015	0.90909	0.	-3340.
8878	6.3578e-015	0.72727	0.	-3132.8
8879	4.7683e-015	0.54545	0.	-2823.8
8880	3.1789e-015	0.36364	0.	-2307.3
8881	1.5894e-015	0.18182	0.	-1193.8
8882	24.	0.18182	0.	2.2342
8883	24.	0.36364	0.	2.2468
8884	24.	0.54545	0.	2.397
8885	24.	0.72727	0.	2.423
8886	24.	0.90909	0.	2.4573
8887	24.	1.0909	0.	2.4847
8888	24.	1.2727	0.	2.5125
8889	24.	1.4545	0.	2.5401
8890	24.	1.6364	0.	2.568
8891	24.	1.8182	0.	2.5958
8892	24.	2.	0.	2.6227
8893	24.	2.1818	0.	2.6479
8894	24.	2.3636	0.	2.6701
8895	24.	2.5455	0.	2.6882
8896	24.	2.7273	0.	2.701
8897	24.	2.9091	0.	2.7077
8898	24.	3.0909	0.	2.7077
8899	24.	3.2727	0.	2.701
8900	24.	3.4545	0.	2.6882
8901	24.	3.6364	0.	2.6701
8902	24.	3.8182	0.	2.6479
8903	24.	4.	0.	2.6227
8904	24.	4.1818	0.	2.5958
8905	24.	4.3636	0.	2.568
8906	24.	4.5455	0.	2.5401
8907	24.	4.7273	0.	2.5125
8908	24.	4.9091	0.	2.4847
8909	24.	5.0909	0.	2.4573
8910	24.	5.2727	0.	2.423
8911	24.	5.4545	0.	2.397
8912	24.	5.6364	0.	2.2468
8913	24.	5.8182	0.	2.2342
8914	24.	6.	0.	1.1823
8915	23.82	6.	0.	-0.73141
8916	23.641	6.	0.	-0.37084
8917	23.461	6.	0.	-0.30654
8918	23.281	6.	0.	-0.22778
8919	23.102	6.	0.	-0.1814
8920	22.922	6.	0.	-0.1436
8921	22.743	6.	0.	-0.11463
8922	22.563	6.	0.	-9.0261e-002
8923	22.383	6.	0.	-6.7319e-002
8924	22.204	6.	0.	-4.1522e-002
8925	22.024	6.	0.	-7.7397e-003
8926	21.844	6.	0.	4.137e-002
8927	21.665	6.	0.	0.10983
8928	21.485	6.	0.	0.21681
8929	21.306	6.	0.	0.3093
8930	21.126	6.	0.	0.60013
8931	20.946	6.	0.	-0.21019
8932	20.767	6.	0.	-4.0261
8933	20.6	1.8182	0.	-4.3421
8934	20.6	1.6364	0.	23.373
8935	20.6	1.4545	0.	6.035
8936	20.6	1.2727	0.	7.3703
8937	20.6	1.0909	0.	5.1799
8938	20.6	0.90909	0.	4.7703
8939	20.6	0.72727	0.	4.2066
8940	20.6	0.54545	0.	3.8658
8941	20.6	0.36364	0.	3.7747
8942	20.6	0.18182	0.	3.0487
8943	20.6	2.	0.	-89.416
8944	20.767	0.18182	0.	1.0363
8945	20.767	0.36364	0.	1.7736
8946	20.767	0.54545	0.	1.8312
8947	20.767	0.72727	0.	2.1181
8948	20.767	0.90909	0.	2.5788
8949	20.767	1.0909	0.	3.036
8950	20.767	1.2727	0.	4.6571
8951	20.767	1.4545	0.	4.356
8952	20.767	1.6364	0.	18.011
8953	20.767	1.8182	0.	-6.3274
8954	20.767	2.	0.	-370.45
8955	20.6	4.1818	0.	-4.3421
8956	20.6	4.3636	0.	23.373
8957	20.6	4.5455	0.	6.035
8958	20.6	4.7273	0.	7.3703
8959	20.6	4.9091	0.	5.1799
8960	20.6	5.0909	0.	4.7703
8961	20.6	5.2727	0.	4.2066
8962	20.6	5.4545	0.	3.8658
8963	20.6	5.6364	0.	3.7747
8964	20.6	5.8182	0.	3.0487
8965	20.6	4.	0.	-89.416
8966	20.767	5.8182	0.	1.0363
8967	20.767	5.6364	0.	1.7736
8968	20.767	5.4545	0.	1.8312
8969	20.767	5.2727	0.	2.1181
8970	20.767	5.0909	0.	2.5788
8971	20.767	4.9091	0.	3.036
8972	20.767	4.7273	0.	4.6571
8973	20.767	4.5455	0.	4.356
8974	20.767	4.3636	0.	18.011
8975	20.767	4.1818	0.	-6.3274
8976	20.767	4.	0.	-370.45
8977	20.6	2.2727	0.	18.554
8978	20.683	2.1818	0.	23.841
8979	20.508	2.1818	0.	25.426
8980	20.6	2.1818	5.e-002	-1.4373e-005
8981	20.6	2.0909	0.	-29.806
8982	20.6	2.4545	0.	-3.1131
8983	20.683	2.3636	0.	-6.8742
8984	20.508	2.3636	0.	-4.9831
8985	20.6	2.3636	5.e-002	-1.3877e-005
8986	20.6	2.6364	0.	-0.38523
8987	20.683	2.5455	0.	0.15841
8988	20.508	2.5455	0.	0.44997
8989	20.6	2.5455	5.e-002	-1.0663e-005
8990	20.6	2.8182	0.	-0.5866
8991	20.683	2.7273	0.	-0.77543
8992	20.508	2.7273	0.	-0.7396
8993	20.6	2.7273	5.e-002	-7.9491e-006
8994	20.6	3.	0.	-0.42934
8995	20.683	2.9091	0.	-0.40394
8996	20.508	2.9091	0.	-0.32619
8997	20.6	2.9091	5.e-002	-9.6631e-006
8998	20.6	3.1818	0.	-0.5866
8999	20.683	3.0909	0.	-0.40394
9000	20.508	3.0909	0.	-0.32619
9001	20.6	3.0909	5.e-002	-1.6471e-007
9002	20.6	3.3636	0.	-0.38523
9003	20.683	3.2727	0.	-0.77543
9004	20.508	3.2727	0.	-0.7396
9005	20.6	3.2727	5.e-002	4.1526e-006
9006	20.6	3.5455	0.	-3.1131
9007	20.683	3.4545	0.	0.15841
9008	20.508	3.4545	0.	0.44997
9009	20.6	3.4545	5.e-002	9.768e-008
9010	20.6	3.7273	0.	18.554
9011	20.683	3.6364	0.	-6.8742
9012	20.508	3.6364	0.	-4.9831
9013	20.6	3.6364	5.e-002	9.0602e-006
9014	20.683	3.8182	0.	23.84
9015	20.508	3.8182	0.	25.426
9016	20.6	3.8182	5.e-002	-3.9987e-006
9017	20.6	3.9091	0.	-29.806
9018	20.767	2.2727	0.	-7.4201
9019	20.856	2.1818	0.	-19.845
9020	20.767	2.1818	5.e-002	-7.0601e-006
9021	20.767	2.0909	0.	-187.13
9022	20.767	2.4545	0.	-3.663
9023	20.856	2.3636	0.	-5.9397
9024	20.767	2.3636	5.e-002	1.3811e-006
9025	20.767	2.6364	0.	-0.23322
9026	20.856	2.5455	0.	0.49441
9027	20.767	2.5455	5.e-002	7.6142e-006
9028	20.767	2.8182	0.	-0.5796
9029	20.856	2.7273	0.	-0.67742
9030	20.767	2.7273	5.e-002	5.0443e-006
9031	20.767	3.	0.	-0.36569
9032	20.856	2.9091	0.	-0.20424
9033	20.767	2.9091	5.e-002	-8.2481e-007
9034	20.767	3.1818	0.	-0.5796
9035	20.856	3.0909	0.	-0.20424
9036	20.767	3.0909	5.e-002	-4.5692e-006
9037	20.767	3.3636	0.	-0.23322
9038	20.856	3.2727	0.	-0.67742
9039	20.767	3.2727	5.e-002	-9.334e-007
9040	20.767	3.5455	0.	-3.663
9041	20.856	3.4545	0.	0.49441
9042	20.767	3.4545	5.e-002	-9.5178e-006
9043	20.767	3.7273	0.	-7.4201
9044	20.856	3.6364	0.	-5.9397
9045	20.767	3.6364	5.e-002	-4.7964e-006
9046	20.856	3.8182	0.	-19.845
9047	20.767	3.8182	5.e-002	-2.7664e-006
9048	20.767	3.9091	0.	-187.13
9049	20.416	5.7273	0.	-1.7354
9050	20.324	5.8182	0.	-1.2147
9051	20.416	5.8182	5.e-002	7.1278e-006
9052	20.416	5.9091	0.	-1.9527
9053	20.508	5.8182	0.	0.696
9054	20.416	5.5455	0.	-1.0255
9055	20.324	5.6364	0.	-0.42301
9056	20.416	5.6364	5.e-002	7.6294e-006
9057	20.508	5.6364	0.	0.6044
9058	20.416	5.3636	0.	-0.90649
9059	20.324	5.4545	0.	-0.26232
9060	20.416	5.4545	5.e-002	7.2516e-006
9061	20.508	5.4545	0.	0.41206
9062	20.416	5.1818	0.	-0.86576
9063	20.324	5.2727	0.	-0.18355
9064	20.416	5.2727	5.e-002	5.0459e-006
9065	20.508	5.2727	0.	0.40485
9066	20.416	5.	0.	-1.0249
9067	20.324	5.0909	0.	-0.15011
9068	20.416	5.0909	5.e-002	5.251e-006
9069	20.508	5.0909	0.	0.49031
9070	20.416	4.8182	0.	-0.88023
9071	20.324	4.9091	0.	-0.26947
9072	20.416	4.9091	5.e-002	1.0546e-005
9073	20.508	4.9091	0.	0.14805
9074	20.416	4.6364	0.	-2.3447
9075	20.324	4.7273	0.	5.0392e-002
9076	20.416	4.7273	5.e-002	6.5206e-006
9077	20.508	4.7273	0.	1.3986
9078	20.416	4.4545	0.	0.71997
9079	20.324	4.5455	0.	-1.7262
9080	20.416	4.5455	5.e-002	8.1402e-006
9081	20.508	4.5455	0.	-3.7373
9082	20.416	4.2727	0.	-8.0454
9083	20.324	4.3636	0.	3.7843
9084	20.416	4.3636	5.e-002	7.0292e-006
9085	20.508	4.3636	0.	14.834
9086	20.416	4.0909	0.	-65.078
9087	20.324	4.1818	0.	-8.8214
9088	20.416	4.1818	5.e-002	7.1036e-006
9089	20.508	4.1818	0.	-65.242
9090	20.416	3.9091	0.	-48.062
9091	20.324	4.	0.	-46.77
9092	20.416	4.	5.e-002	-3.172e-014
9093	20.508	4.	0.	-56.013
9094	20.416	3.7273	0.	1.1439
9095	20.324	3.8182	0.	6.4808
9096	20.416	3.8182	5.e-002	3.2712e-006
9097	20.416	3.5455	0.	-1.4568
9098	20.324	3.6364	0.	-2.4307
9099	20.416	3.6364	5.e-002	-1.2159e-006
9100	20.416	3.3636	0.	9.7312e-002
9101	20.324	3.4545	0.	0.54135
9102	20.416	3.4545	5.e-002	5.2966e-006
9103	20.416	3.1818	0.	-0.47395
9104	20.324	3.2727	0.	-0.42
9105	20.416	3.2727	5.e-002	-8.097e-007
9106	20.416	3.	0.	-0.2166
9107	20.324	3.0909	0.	-0.15625
9108	20.416	3.0909	5.e-002	5.6652e-007
9109	20.416	2.8182	0.	-0.47396
9110	20.324	2.9091	0.	-0.15625
9111	20.416	2.9091	5.e-002	-4.2993e-006
9112	20.416	2.6364	0.	9.7313e-002
9113	20.324	2.7273	0.	-0.42
9114	20.416	2.7273	5.e-002	-4.5749e-006
9115	20.416	2.4545	0.	-1.4568
9116	20.324	2.5455	0.	0.54136
9117	20.416	2.5455	5.e-002	-4.8064e-006
9118	20.416	2.2727	0.	1.1439
9119	20.324	2.3636	0.	-2.4307
9120	20.416	2.3636	5.e-002	-3.1348e-006
9121	20.416	2.0909	0.	-48.062
9122	20.324	2.1818	0.	6.4808
9123	20.416	2.1818	5.e-002	-1.101e-005
9124	20.416	1.9091	0.	-65.078
9125	20.324	2.	0.	-46.77
9126	20.416	2.	5.e-002	9.4944e-006
9127	20.508	2.	0.	-56.013
9128	20.416	1.7273	0.	-8.0454
9129	20.324	1.8182	0.	-8.8214
9130	20.416	1.8182	5.e-002	-1.4733e-005
9131	20.508	1.8182	0.	-65.242
9132	20.416	1.5455	0.	0.71998
9133	20.324	1.6364	0.	3.7843
9134	20.416	1.6364	5.e-002	-6.429e-006
9135	20.508	1.6364	0.	14.834
9136	20.416	1.3636	0.	-2.3447
9137	20.324	1.4545	0.	-1.7262
9138	20.416	1.4545	5.e-002	-8.8575e-007
9139	20.508	1.4545	0.	-3.7373
9140	20.416	1.1818	0.	-0.88023
9141	20.324	1.2727	0.	5.0393e-002
9142	20.416	1.2727	5.e-002	6.2048e-007
9143	20.508	1.2727	0.	1.3986
9144	20.416	1.	0.	-1.0249
9145	20.324	1.0909	0.	-0.26947
9146	20.416	1.0909	5.e-002	2.8348e-006
9147	20.508	1.0909	0.	0.14805
9148	20.416	0.81818	0.	-0.86576
9149	20.324	0.90909	0.	-0.15011
9150	20.416	0.90909	5.e-002	2.4656e-006
9151	20.508	0.90909	0.	0.49031
9152	20.416	0.63636	0.	-0.90649
9153	20.324	0.72727	0.	-0.18355
9154	20.416	0.72727	5.e-002	2.3666e-006
9155	20.508	0.72727	0.	0.40485
9156	20.416	0.45455	0.	-1.0255
9157	20.324	0.54545	0.	-0.26232
9158	20.416	0.54545	5.e-002	3.6532e-006
9159	20.508	0.54545	0.	0.41206
9160	20.416	0.27273	0.	-1.7354
9161	20.324	0.36364	0.	-0.42301
9162	20.416	0.36364	5.e-002	4.3653e-006
9163	20.508	0.36364	0.	0.6044
9164	20.324	0.18182	0.	-1.2147
9165	20.416	0.18182	5.e-002	6.4432e-006
9166	20.416	9.0909e-002	0.	-1.9527
9167	20.508	0.18182	0.	0.696
9168	20.232	5.7273	0.	0.32315
9169	20.14	5.8182	0.	0.32723
9170	20.232	5.8182	5.e-002	7.0932e-006
9171	20.232	5.9091	0.	0.24208
9172	20.232	5.5455	0.	0.38773
9173	20.14	5.6364	0.	0.24531
9174	20.232	5.6364	5.e-002	7.4937e-006
9175	20.232	5.3636	0.	0.4431
9176	20.14	5.4545	0.	0.26222
9177	20.232	5.4545	5.e-002	9.6462e-006
9178	20.232	5.1818	0.	0.48876
9179	20.14	5.2727	0.	0.26715
9180	20.232	5.2727	5.e-002	5.7427e-006
9181	20.232	5.	0.	0.54248
9182	20.14	5.0909	0.	0.26437
9183	20.232	5.0909	5.e-002	5.6538e-006
9184	20.232	4.8182	0.	0.56751
9185	20.14	4.9091	0.	0.2574
9186	20.232	4.9091	5.e-002	1.9403e-006
9187	20.232	4.6364	0.	0.55751
9188	20.14	4.7273	0.	0.22221
9189	20.232	4.7273	5.e-002	9.5918e-007
9190	20.232	4.4545	0.	1.1585
9191	20.14	4.5455	0.	0.24692
9192	20.232	4.5455	5.e-002	9.5301e-006
9193	20.232	4.2727	0.	3.0709
9194	20.14	4.3636	0.	7.9546e-002
9195	20.232	4.3636	5.e-002	3.6818e-006
9196	20.232	4.0909	0.	7.9509
9197	20.14	4.1818	0.	1.87
9198	20.232	4.1818	5.e-002	6.4116e-006
9199	20.232	3.9091	0.	9.0872
9200	20.14	4.	0.	4.8672
9201	20.232	4.	5.e-002	-2.9643e-006
9202	20.232	3.7273	0.	2.7355
9203	20.14	3.8182	0.	2.3149
9204	20.232	3.8182	5.e-002	3.8228e-006
9205	20.232	3.5455	0.	-0.45212
9206	20.14	3.6364	0.	-0.12471
9207	20.232	3.6364	5.e-002	5.7591e-006
9208	20.232	3.3636	0.	1.2157e-002
9209	20.14	3.4545	0.	8.901e-002
9210	20.232	3.4545	5.e-002	9.251e-007
9211	20.232	3.1818	0.	-0.10242
9212	20.14	3.2727	0.	-2.8238e-002
9213	20.232	3.2727	5.e-002	-2.2039e-006
9214	20.232	3.	0.	-9.4298e-002
9215	20.14	3.0909	0.	-4.0016e-002
9216	20.232	3.0909	5.e-002	-3.8625e-006
9217	20.232	2.8182	0.	-0.10242
9218	20.14	2.9091	0.	-4.0015e-002
9219	20.232	2.9091	5.e-002	-1.8566e-006
9220	20.232	2.6364	0.	1.2158e-002
9221	20.14	2.7273	0.	-2.8238e-002
9222	20.232	2.7273	5.e-002	2.3247e-007
9223	20.232	2.4545	0.	-0.45212
9224	20.14	2.5455	0.	8.901e-002
9225	20.232	2.5455	5.e-002	-3.2783e-006
9226	20.232	2.2727	0.	2.7355
9227	20.14	2.3636	0.	-0.12471
9228	20.232	2.3636	5.e-002	-2.3148e-006
9229	20.232	2.0909	0.	9.0872
9230	20.14	2.1818	0.	2.3149
9231	20.232	2.1818	5.e-002	7.9359e-006
9232	20.232	1.9091	0.	7.9509
9233	20.14	2.	0.	4.8672
9234	20.232	2.	5.e-002	-3.5387e-006
9235	20.232	1.7273	0.	3.0709
9236	20.14	1.8182	0.	1.87
9237	20.232	1.8182	5.e-002	-1.4323e-005
9238	20.232	1.5455	0.	1.1585
9239	20.14	1.6364	0.	7.9547e-002
9240	20.232	1.6364	5.e-002	-6.2139e-006
9241	20.232	1.3636	0.	0.55751
9242	20.14	1.4545	0.	0.24692
9243	20.232	1.4545	5.e-002	9.0024e-007
9244	20.232	1.1818	0.	0.56751
9245	20.14	1.2727	0.	0.22221
9246	20.232	1.2727	5.e-002	1.1083e-006
9247	20.232	1.	0.	0.54248
9248	20.14	1.0909	0.	0.2574
9249	20.232	1.0909	5.e-002	6.7381e-008
9250	20.232	0.81818	0.	0.48876
9251	20.14	0.90909	0.	0.26437
9252	20.232	0.90909	5.e-002	1.8311e-007
9253	20.232	0.63636	0.	0.4431
9254	20.14	0.72727	0.	0.26715
9255	20.232	0.72727	5.e-002	4.3656e-007
9256	20.232	0.45455	0.	0.38773
9257	20.14	0.54545	0.	0.26221
9258	20.232	0.54545	5.e-002	3.9333e-006
9259	20.232	0.27273	0.	0.32315
9260	20.14	0.36364	0.	0.24531
9261	20.232	0.36364	5.e-002	3.9842e-006
9262	20.14	0.18182	0.	0.32723
9263	20.232	0.18182	5.e-002	4.351e-006
9264	20.232	9.0909e-002	0.	0.24208
9265	20.048	5.7273	0.	0.17607
9266	19.956	5.8182	0.	0.30197
9267	20.048	5.8182	5.e-002	4.5117e-006
9268	20.048	5.9091	0.	5.9517e-002
9269	20.048	5.5455	0.	9.3174e-002
9270	19.956	5.6364	0.	0.11521
9271	20.048	5.6364	5.e-002	6.5773e-006
9272	20.048	5.3636	0.	7.2401e-002
9273	19.956	5.4545	0.	0.12192
9274	20.048	5.4545	5.e-002	8.22e-006
9275	20.048	5.1818	0.	3.3885e-002
9276	19.956	5.2727	0.	7.466e-002
9277	20.048	5.2727	5.e-002	4.2916e-006
9278	20.048	5.	0.	-2.6563e-002
9279	19.956	5.0909	0.	4.0352e-002
9280	20.048	5.0909	5.e-002	3.8795e-006
9281	20.048	4.8182	0.	-8.8814e-002
9282	19.956	4.9091	0.	-1.9594e-002
9283	20.048	4.9091	5.e-002	1.8787e-006
9284	20.048	4.6364	0.	-7.9397e-002
9285	19.956	4.7273	0.	-6.8045e-002
9286	20.048	4.7273	5.e-002	-5.142e-007
9287	20.048	4.4545	0.	-0.8327
9288	19.956	4.5455	0.	-6.8419e-002
9289	20.048	4.5455	5.e-002	7.8841e-006
9290	20.048	4.2727	0.	-1.1241
9291	19.956	4.3636	0.	-0.65485
9292	20.048	4.3636	5.e-002	4.5581e-006
9293	20.048	4.0909	0.	-1.2771
9294	19.956	4.1818	0.	-0.27115
9295	20.048	4.1818	5.e-002	5.6288e-006
9296	20.048	3.9091	0.	-1.8651
9297	19.956	4.	0.	-0.7493
9298	20.048	4.	5.e-002	-1.965e-006
9299	20.048	3.7273	0.	-0.48802
9300	19.956	3.8182	0.	-0.54925
9301	20.048	3.8182	5.e-002	-1.7807e-006
9302	20.048	3.5455	0.	0.42186
9303	19.956	3.6364	0.	0.42133
9304	20.048	3.6364	5.e-002	-2.5094e-007
9305	20.048	3.3636	0.	4.5055e-002
9306	19.956	3.4545	0.	6.1331e-002
9307	20.048	3.4545	5.e-002	-1.1299e-006
9308	20.048	3.1818	0.	3.3028e-002
9309	19.956	3.2727	0.	6.7757e-002
9310	20.048	3.2727	5.e-002	-8.9735e-007
9311	20.048	3.	0.	1.437e-002
9312	19.956	3.0909	0.	3.9695e-002
9313	20.048	3.0909	5.e-002	-2.1403e-006
9314	20.048	2.8182	0.	3.3029e-002
9315	19.956	2.9091	0.	3.9695e-002
9316	20.048	2.9091	5.e-002	1.688e-007
9317	20.048	2.6364	0.	4.5055e-002
9318	19.956	2.7273	0.	6.7757e-002
9319	20.048	2.7273	5.e-002	8.9735e-007
9320	20.048	2.4545	0.	0.42186
9321	19.956	2.5455	0.	6.1331e-002
9322	20.048	2.5455	5.e-002	-5.9213e-007
9323	20.048	2.2727	0.	-0.48801
9324	19.956	2.3636	0.	0.42133
9325	20.048	2.3636	5.e-002	1.6676e-006
9326	20.048	2.0909	0.	-1.8651
9327	19.956	2.1818	0.	-0.54925
9328	20.048	2.1818	5.e-002	5.5676e-007
9329	20.048	1.9091	0.	-1.2771
9330	19.956	2.	0.	-0.7493
9331	20.048	2.	5.e-002	-1.1329e-005
9332	20.048	1.7273	0.	-1.1241
9333	19.956	1.8182	0.	-0.27115
9334	20.048	1.8182	5.e-002	-1.1067e-005
9335	20.048	1.5455	0.	-0.83269
9336	19.956	1.6364	0.	-0.65485
9337	20.048	1.6364	5.e-002	-5.5293e-006
9338	20.048	1.3636	0.	-7.9397e-002
9339	19.956	1.4545	0.	-6.8419e-002
9340	20.048	1.4545	5.e-002	-2.5466e-007
9341	20.048	1.1818	0.	-8.8813e-002
9342	19.956	1.2727	0.	-6.8045e-002
9343	20.048	1.2727	5.e-002	-1.3425e-006
9344	20.048	1.	0.	-2.6562e-002
9345	19.956	1.0909	0.	-1.9593e-002
9346	20.048	1.0909	5.e-002	-3.7001e-006
9347	20.048	0.81818	0.	3.3887e-002
9348	19.956	0.90909	0.	4.0353e-002
9349	20.048	0.90909	5.e-002	-8.7273e-007
9350	20.048	0.63636	0.	7.2401e-002
9351	19.956	0.72727	0.	7.4662e-002
9352	20.048	0.72727	5.e-002	-2.2845e-006
9353	20.048	0.45455	0.	9.3173e-002
9354	19.956	0.54545	0.	0.12192
9355	20.048	0.54545	5.e-002	-2.2762e-006
9356	20.048	0.27273	0.	0.17607
9357	19.956	0.36364	0.	0.11521
9358	20.048	0.36364	5.e-002	4.4877e-007
9359	19.956	0.18182	0.	0.30197
9360	20.048	0.18182	5.e-002	3.9956e-006
9361	20.048	9.0909e-002	0.	5.9517e-002
9362	19.864	5.7273	0.	0.21296
9363	19.772	5.8182	0.	0.23163
9364	19.864	5.8182	5.e-002	5.3276e-006
9365	19.864	5.9091	0.	0.12285
9366	19.864	5.5455	0.	0.13184
9367	19.772	5.6364	0.	8.1648e-002
9368	19.864	5.6364	5.e-002	6.0491e-006
9369	19.864	5.3636	0.	0.11885
9370	19.772	5.4545	0.	0.11805
9371	19.864	5.4545	5.e-002	7.2452e-006
9372	19.864	5.1818	0.	7.9491e-002
9373	19.772	5.2727	0.	7.4074e-002
9374	19.864	5.2727	5.e-002	4.8044e-006
9375	19.864	5.	0.	4.8352e-002
9376	19.772	5.0909	0.	4.5026e-002
9377	19.864	5.0909	5.e-002	4.2637e-006
9378	19.864	4.8182	0.	3.867e-003
9379	19.772	4.9091	0.	1.6948e-002
9380	19.864	4.9091	5.e-002	3.8332e-006
9381	19.864	4.6364	0.	-5.4565e-002
9382	19.772	4.7273	0.	-1.816e-002
9383	19.864	4.7273	5.e-002	-1.4982e-008
9384	19.864	4.4545	0.	0.11224
9385	19.772	4.5455	0.	-5.3509e-002
9386	19.864	4.5455	5.e-002	2.1959e-006
9387	19.864	4.2727	0.	0.18774
9388	19.772	4.3636	0.	0.11068
9389	19.864	4.3636	5.e-002	1.5505e-006
9390	19.864	4.0909	0.	0.25604
9391	19.772	4.1818	0.	2.6161e-002
9392	19.864	4.1818	5.e-002	5.2018e-006
9393	19.864	3.9091	0.	0.57244
9394	19.772	4.	0.	0.1871
9395	19.864	4.	5.e-002	1.5686e-007
9396	19.864	3.7273	0.	0.37705
9397	19.772	3.8182	0.	0.293
9398	19.864	3.8182	5.e-002	-4.3737e-015
9399	19.864	3.5455	0.	7.2381e-002
9400	19.772	3.6364	0.	4.4104e-002
9401	19.864	3.6364	5.e-002	-9.6306e-007
9402	19.864	3.3636	0.	8.8113e-002
9403	19.772	3.4545	0.	7.9051e-002
9404	19.864	3.4545	5.e-002	-1.6014e-006
9405	19.864	3.1818	0.	7.6043e-002
9406	19.772	3.2727	0.	7.4825e-002
9407	19.864	3.2727	5.e-002	-7.4021e-007
9408	19.864	3.	0.	6.6349e-002
9409	19.772	3.0909	0.	6.8548e-002
9410	19.864	3.0909	5.e-002	-2.8624e-007
9411	19.864	2.8182	0.	7.6043e-002
9412	19.772	2.9091	0.	6.8547e-002
9413	19.864	2.9091	5.e-002	2.1795e-006
9414	19.864	2.6364	0.	8.8114e-002
9415	19.772	2.7273	0.	7.4825e-002
9416	19.864	2.7273	5.e-002	3.2502e-006
9417	19.864	2.4545	0.	7.2381e-002
9418	19.772	2.5455	0.	7.9052e-002
9419	19.864	2.5455	5.e-002	1.6014e-006
9420	19.864	2.2727	0.	0.37705
9421	19.772	2.3636	0.	4.4103e-002
9422	19.864	2.3636	5.e-002	3.8145e-006
9423	19.864	2.0909	0.	0.57244
9424	19.772	2.1818	0.	0.293
9425	19.864	2.1818	5.e-002	-7.965e-006
9426	19.864	1.9091	0.	0.25604
9427	19.772	2.	0.	0.1871
9428	19.864	2.	5.e-002	-1.5686e-007
9429	19.864	1.7273	0.	0.18774
9430	19.772	1.8182	0.	2.6161e-002
9431	19.864	1.8182	5.e-002	-7.1072e-006
9432	19.864	1.5455	0.	0.11224
9433	19.772	1.6364	0.	0.11068
9434	19.864	1.6364	5.e-002	-1.228e-005
9435	19.864	1.3636	0.	-5.4565e-002
9436	19.772	1.4545	0.	-5.3509e-002
9437	19.864	1.4545	5.e-002	-5.1941e-006
9438	19.864	1.1818	0.	3.8672e-003
9439	19.772	1.2727	0.	-1.816e-002
9440	19.864	1.2727	5.e-002	3.0023e-008
9441	19.864	1.	0.	4.8353e-002
9442	19.772	1.0909	0.	1.6949e-002
9443	19.864	1.0909	5.e-002	2.5026e-006
9444	19.864	0.81818	0.	7.9492e-002
9445	19.772	0.90909	0.	4.5027e-002
9446	19.864	0.90909	5.e-002	3.844e-007
9447	19.864	0.63636	0.	0.11886
9448	19.772	0.72727	0.	7.4076e-002
9449	19.864	0.72727	5.e-002	-4.199e-007
9450	19.864	0.45455	0.	0.13184
9451	19.772	0.54545	0.	0.11805
9452	19.864	0.54545	5.e-002	-2.687e-006
9453	19.864	0.27273	0.	0.21296
9454	19.772	0.36364	0.	8.1647e-002
9455	19.864	0.36364	5.e-002	-5.716e-007
9456	19.772	0.18182	0.	0.23163
9457	19.864	0.18182	5.e-002	3.0729e-006
9458	19.864	9.0909e-002	0.	0.12285
9459	19.68	5.7273	0.	0.11242
9460	19.588	5.8182	0.	9.8061e-002
9461	19.68	5.8182	5.e-002	4.7132e-006
9462	19.68	5.9091	0.	7.9256e-002
9463	19.68	5.5455	0.	6.7652e-002
9464	19.588	5.6364	0.	1.2308e-002
9465	19.68	5.6364	5.e-002	4.2451e-006
9466	19.68	5.3636	0.	7.2997e-002
9467	19.588	5.4545	0.	8.0892e-002
9468	19.68	5.4545	5.e-002	7.0444e-006
9469	19.68	5.1818	0.	4.0149e-002
9470	19.588	5.2727	0.	4.6188e-002
9471	19.68	5.2727	5.e-002	1.887e-006
9472	19.68	5.	0.	1.4737e-002
9473	19.588	5.0909	0.	2.8385e-002
9474	19.68	5.0909	5.e-002	3.8362e-006
9475	19.68	4.8182	0.	-3.966e-003
9476	19.588	4.9091	0.	9.2595e-003
9477	19.68	4.9091	5.e-002	1.906e-006
9478	19.68	4.6364	0.	-1.6901e-002
9479	19.588	4.7273	0.	5.3814e-004
9480	19.68	4.7273	5.e-002	-1.9004e-006
9481	19.68	4.4545	0.	-5.6847e-002
9482	19.588	4.5455	0.	-4.0035e-003
9483	19.68	4.5455	5.e-002	1.1407e-006
9484	19.68	4.2727	0.	-5.2931e-002
9485	19.588	4.3636	0.	-2.7968e-002
9486	19.68	4.3636	5.e-002	-1.4392e-006
9487	19.68	4.0909	0.	-4.3476e-002
9488	19.588	4.1818	0.	4.2133e-003
9489	19.68	4.1818	5.e-002	-4.4302e-007
9490	19.68	3.9091	0.	-9.1051e-002
9491	19.588	4.	0.	-1.7462e-002
9492	19.68	4.	5.e-002	-2.2075e-007
9493	19.68	3.7273	0.	-3.5027e-002
9494	19.588	3.8182	0.	-3.3186e-002
9495	19.68	3.8182	5.e-002	-6.7304e-007
9496	19.68	3.5455	0.	5.7727e-002
9497	19.588	3.6364	0.	3.3514e-002
9498	19.68	3.6364	5.e-002	-9.3613e-016
9499	19.68	3.3636	0.	7.0868e-002
9500	19.588	3.4545	0.	5.3729e-002
9501	19.68	3.4545	5.e-002	-8.6948e-016
9502	19.68	3.1818	0.	7.0663e-002
9503	19.588	3.2727	0.	5.9982e-002
9504	19.68	3.2727	5.e-002	-3.5615e-006
9505	19.68	3.	0.	7.3543e-002
9506	19.588	3.0909	0.	6.6462e-002
9507	19.68	3.0909	5.e-002	-6.2409e-008
9508	19.68	2.8182	0.	7.0662e-002
9509	19.588	2.9091	0.	6.6462e-002
9510	19.68	2.9091	5.e-002	2.4963e-007
9511	19.68	2.6364	0.	7.0867e-002
9512	19.588	2.7273	0.	5.9982e-002
9513	19.68	2.7273	5.e-002	1.042e-006
9514	19.68	2.4545	0.	5.7727e-002
9515	19.588	2.5455	0.	5.3729e-002
9516	19.68	2.5455	5.e-002	1.8868e-006
9517	19.68	2.2727	0.	-3.5027e-002
9518	19.588	2.3636	0.	3.3514e-002
9519	19.68	2.3636	5.e-002	1.6434e-006
9520	19.68	2.0909	0.	-9.1051e-002
9521	19.588	2.1818	0.	-3.3185e-002
9522	19.68	2.1818	5.e-002	-1.3731e-005
9523	19.68	1.9091	0.	-4.3476e-002
9524	19.588	2.	0.	-1.7462e-002
9525	19.68	2.	5.e-002	-2.6721e-006
9526	19.68	1.7273	0.	-5.2929e-002
9527	19.588	1.8182	0.	4.2139e-003
9528	19.68	1.8182	5.e-002	-6.3888e-006
9529	19.68	1.5455	0.	-5.6846e-002
9530	19.588	1.6364	0.	-2.7968e-002
9531	19.68	1.6364	5.e-002	-6.1877e-006
9532	19.68	1.3636	0.	-1.69e-002
9533	19.588	1.4545	0.	-4.0031e-003
9534	19.68	1.4545	5.e-002	-4.9978e-006
9535	19.68	1.1818	0.	-3.9649e-003
9536	19.588	1.2727	0.	5.3901e-004
9537	19.68	1.2727	5.e-002	-2.1307e-006
9538	19.68	1.	0.	1.4739e-002
9539	19.588	1.0909	0.	9.2607e-003
9540	19.68	1.0909	5.e-002	2.2095e-006
9541	19.68	0.81818	0.	4.0151e-002
9542	19.588	0.90909	0.	2.8386e-002
9543	19.68	0.90909	5.e-002	2.4679e-006
9544	19.68	0.63636	0.	7.2998e-002
9545	19.588	0.72727	0.	4.6189e-002
9546	19.68	0.72727	5.e-002	2.8305e-006
9547	19.68	0.45455	0.	6.7653e-002
9548	19.588	0.54545	0.	8.0893e-002
9549	19.68	0.54545	5.e-002	3.2915e-006
9550	19.68	0.27273	0.	0.11242
9551	19.588	0.36364	0.	1.2307e-002
9552	19.68	0.36364	5.e-002	1.2602e-006
9553	19.588	0.18182	0.	9.8061e-002
9554	19.68	0.18182	5.e-002	1.7205e-006
9555	19.68	9.0909e-002	0.	7.9256e-002
9556	19.496	5.7273	0.	3.8424e-002
9557	19.404	5.8182	0.	-3.0236e-003
9558	19.496	5.8182	5.e-002	4.1765e-006
9559	19.496	5.9091	0.	5.8213e-002
9560	19.496	5.5455	0.	3.1461e-002
9561	19.404	5.6364	0.	-3.3917e-002
9562	19.496	5.6364	5.e-002	5.107e-006
9563	19.496	5.3636	0.	5.6337e-002
9564	19.404	5.4545	0.	5.8717e-002
9565	19.496	5.4545	5.e-002	7.6294e-006
9566	19.496	5.1818	0.	3.5791e-002
9567	19.404	5.2727	0.	3.5508e-002
9568	19.496	5.2727	5.e-002	3.0514e-006
9569	19.496	5.	0.	2.3846e-002
9570	19.404	5.0909	0.	2.8947e-002
9571	19.496	5.0909	5.e-002	2.7686e-006
9572	19.496	4.8182	0.	1.4165e-002
9573	19.404	4.9091	0.	2.0321e-002
9574	19.496	4.9091	5.e-002	7.4337e-011
9575	19.496	4.6364	0.	1.3126e-002
9576	19.404	4.7273	0.	1.6527e-002
9577	19.496	4.7273	5.e-002	6.9565e-008
9578	19.496	4.4545	0.	2.4044e-002
9579	19.404	4.5455	0.	1.8837e-002
9580	19.496	4.5455	5.e-002	1.3142e-006
9581	19.496	4.2727	0.	2.8354e-002
9582	19.404	4.3636	0.	2.609e-002
9583	19.496	4.3636	5.e-002	-8.6017e-008
9584	19.496	4.0909	0.	2.9698e-002
9585	19.404	4.1818	0.	2.0736e-002
9586	19.496	4.1818	5.e-002	-1.111e-006
9587	19.496	3.9091	0.	4.0426e-002
9588	19.404	4.	0.	2.2127e-002
9589	19.496	4.	5.e-002	1.1368e-005
9590	19.496	3.7273	0.	3.6933e-002
9591	19.404	3.8182	0.	2.5463e-002
9592	19.496	3.8182	5.e-002	-5.0142e-008
9593	19.496	3.5455	0.	3.2887e-002
9594	19.404	3.6364	0.	2.2125e-002
9595	19.496	3.6364	5.e-002	1.4802e-005
9596	19.496	3.3636	0.	4.6669e-002
9597	19.404	3.4545	0.	3.3072e-002
9598	19.496	3.4545	5.e-002	-1.7062e-015
9599	19.496	3.1818	0.	5.9232e-002
9600	19.404	3.2727	0.	4.7663e-002
9601	19.496	3.2727	5.e-002	5.3966e-006
9602	19.496	3.	0.	6.2614e-002
9603	19.404	3.0909	0.	5.4596e-002
9604	19.496	3.0909	5.e-002	-1.4901e-007
9605	19.496	2.8182	0.	5.9232e-002
9606	19.404	2.9091	0.	5.4596e-002
9607	19.496	2.9091	5.e-002	3.9393e-006
9608	19.496	2.6364	0.	4.6669e-002
9609	19.404	2.7273	0.	4.7663e-002
9610	19.496	2.7273	5.e-002	3.0566e-006
9611	19.496	2.4545	0.	3.2887e-002
9612	19.404	2.5455	0.	3.3072e-002
9613	19.496	2.5455	5.e-002	2.7499e-006
9614	19.496	2.2727	0.	3.6933e-002
9615	19.404	2.3636	0.	2.2125e-002
9616	19.496	2.3636	5.e-002	1.0324e-006
9617	19.496	2.0909	0.	4.0426e-002
9618	19.404	2.1818	0.	2.5463e-002
9619	19.496	2.1818	5.e-002	-1.4255e-006
9620	19.496	1.9091	0.	2.9698e-002
9621	19.404	2.	0.	2.2127e-002
9622	19.496	2.	5.e-002	-1.5361e-005
9623	19.496	1.7273	0.	2.8354e-002
9624	19.404	1.8182	0.	2.0736e-002
9625	19.496	1.8182	5.e-002	-4.7528e-006
9626	19.496	1.5455	0.	2.4044e-002
9627	19.404	1.6364	0.	2.6089e-002
9628	19.496	1.6364	5.e-002	-4.5254e-006
9629	19.496	1.3636	0.	1.3126e-002
9630	19.404	1.4545	0.	1.8838e-002
9631	19.496	1.4545	5.e-002	-1.7639e-006
9632	19.496	1.1818	0.	1.4166e-002
9633	19.404	1.2727	0.	1.6526e-002
9634	19.496	1.2727	5.e-002	-4.1425e-006
9635	19.496	1.	0.	2.3848e-002
9636	19.404	1.0909	0.	2.0323e-002
9637	19.496	1.0909	5.e-002	-2.3816e-008
9638	19.496	0.81818	0.	3.5792e-002
9639	19.404	0.90909	0.	2.8948e-002
9640	19.496	0.90909	5.e-002	2.9595e-006
9641	19.496	0.63636	0.	5.6338e-002
9642	19.404	0.72727	0.	3.551e-002
9643	19.496	0.72727	5.e-002	4.3336e-006
9644	19.496	0.45455	0.	3.1461e-002
9645	19.404	0.54545	0.	5.8718e-002
9646	19.496	0.54545	5.e-002	6.2475e-006
9647	19.496	0.27273	0.	3.8424e-002
9648	19.404	0.36364	0.	-3.3917e-002
9649	19.496	0.36364	5.e-002	6.4938e-006
9650	19.404	0.18182	0.	-3.0251e-003
9651	19.496	0.18182	5.e-002	5.9843e-006
9652	19.496	9.0909e-002	0.	5.8215e-002
9653	19.313	5.7273	0.	-1.9341e-002
9654	19.221	5.8182	0.	-6.9614e-002
9655	19.313	5.8182	5.e-002	4.9518e-006
9656	19.313	5.9091	0.	3.7571e-002
9657	19.313	5.5455	0.	2.0371e-003
9658	19.221	5.6364	0.	-6.5183e-002
9659	19.313	5.6364	5.e-002	5.6895e-006
9660	19.313	5.3636	0.	4.119e-002
9661	19.221	5.4545	0.	4.1414e-002
9662	19.313	5.4545	5.e-002	6.578e-006
9663	19.313	5.1818	0.	3.0325e-002
9664	19.221	5.2727	0.	2.7949e-002
9665	19.313	5.2727	5.e-002	2.681e-006
9666	19.313	5.	0.	2.6296e-002
9667	19.221	5.0909	0.	2.8747e-002
9668	19.313	5.0909	5.e-002	8.083e-007
9669	19.313	4.8182	0.	2.2978e-002
9670	19.221	4.9091	0.	2.5633e-002
9671	19.313	4.9091	5.e-002	3.7749e-008
9672	19.313	4.6364	0.	2.2069e-002
9673	19.221	4.7273	0.	2.533e-002
9674	19.313	4.7273	5.e-002	-1.4139e-006
9675	19.313	4.4545	0.	2.0436e-002
9676	19.221	4.5455	0.	2.5219e-002
9677	19.313	4.5455	5.e-002	4.289e-007
9678	19.313	4.2727	0.	1.7937e-002
9679	19.221	4.3636	0.	2.3299e-002
9680	19.313	4.3636	5.e-002	6.8518e-007
9681	19.313	4.0909	0.	1.2607e-002
9682	19.221	4.1818	0.	2.0157e-002
9683	19.313	4.1818	5.e-002	3.2841e-006
9684	19.313	3.9091	0.	6.8051e-003
9685	19.221	4.	0.	1.3981e-002
9686	19.313	4.	5.e-002	7.5213e-006
9687	19.313	3.7273	0.	1.11e-002
9688	19.221	3.8182	0.	1.1309e-002
9689	19.313	3.8182	5.e-002	1.2506e-005
9690	19.313	3.5455	0.	2.3931e-002
9691	19.221	3.6364	0.	1.7655e-002
9692	19.313	3.6364	5.e-002	1.468e-005
9693	19.313	3.3636	0.	3.6545e-002
9694	19.221	3.4545	0.	2.7512e-002
9695	19.313	3.4545	5.e-002	3.0518e-005
9696	19.313	3.1818	0.	4.5818e-002
9697	19.221	3.2727	0.	3.6944e-002
9698	19.313	3.2727	5.e-002	-8.8497e-007
9699	19.313	3.	0.	4.9415e-002
9700	19.221	3.0909	0.	4.2977e-002
9701	19.313	3.0909	5.e-002	-1.0408e-006
9702	19.313	2.8182	0.	4.5818e-002
9703	19.221	2.9091	0.	4.2977e-002
9704	19.313	2.9091	5.e-002	2.9278e-006
9705	19.313	2.6364	0.	3.6545e-002
9706	19.221	2.7273	0.	3.6944e-002
9707	19.313	2.7273	5.e-002	1.5978e-006
9708	19.313	2.4545	0.	2.393e-002
9709	19.221	2.5455	0.	2.7512e-002
9710	19.313	2.5455	5.e-002	-1.5638e-009
9711	19.313	2.2727	0.	1.11e-002
9712	19.221	2.3636	0.	1.7654e-002
9713	19.313	2.3636	5.e-002	-1.6773e-006
9714	19.313	2.0909	0.	6.8056e-003
9715	19.221	2.1818	0.	1.131e-002
9716	19.313	2.1818	5.e-002	-3.1433e-006
9717	19.313	1.9091	0.	1.2607e-002
9718	19.221	2.	0.	1.3982e-002
9719	19.313	2.	5.e-002	-4.8345e-006
9720	19.313	1.7273	0.	1.7937e-002
9721	19.221	1.8182	0.	2.0157e-002
9722	19.313	1.8182	5.e-002	-4.0747e-006
9723	19.313	1.5455	0.	2.0436e-002
9724	19.221	1.6364	0.	2.3299e-002
9725	19.313	1.6364	5.e-002	-2.494e-006
9726	19.313	1.3636	0.	2.2069e-002
9727	19.221	1.4545	0.	2.522e-002
9728	19.313	1.4545	5.e-002	-3.604e-007
9729	19.313	1.1818	0.	2.2978e-002
9730	19.221	1.2727	0.	2.533e-002
9731	19.313	1.2727	5.e-002	9.5078e-007
9732	19.313	1.	0.	2.6296e-002
9733	19.221	1.0909	0.	2.5633e-002
9734	19.313	1.0909	5.e-002	-1.3803e-007
9735	19.313	0.81818	0.	3.0326e-002
9736	19.221	0.90909	0.	2.8747e-002
9737	19.313	0.90909	5.e-002	3.047e-006
9738	19.313	0.63636	0.	4.1192e-002
9739	19.221	0.72727	0.	2.7951e-002
9740	19.313	0.72727	5.e-002	3.2656e-006
9741	19.313	0.45455	0.	2.0376e-003
9742	19.221	0.54545	0.	4.1413e-002
9743	19.313	0.54545	5.e-002	5.3397e-006
9744	19.313	0.27273	0.	-1.9343e-002
9745	19.221	0.36364	0.	-6.5184e-002
9746	19.313	0.36364	5.e-002	3.4856e-006
9747	19.221	0.18182	0.	-6.9616e-002
9748	19.313	0.18182	5.e-002	5.094e-006
9749	19.313	9.0909e-002	0.	3.7568e-002
9750	19.129	5.7273	0.	-5.5253e-002
9751	19.037	5.8182	0.	-0.10388
9752	19.129	5.8182	5.e-002	6.68e-006
9753	19.129	5.9091	0.	2.356e-002
9754	19.129	5.5455	0.	-1.6091e-002
9755	19.037	5.6364	0.	-8.2649e-002
9756	19.129	5.6364	5.e-002	4.6226e-006
9757	19.129	5.3636	0.	3.1816e-002
9758	19.037	5.4545	0.	2.9568e-002
9759	19.129	5.4545	5.e-002	5.735e-006
9760	19.129	5.1818	0.	2.811e-002
9761	19.037	5.2727	0.	2.3313e-002
9762	19.129	5.2727	5.e-002	3.5561e-006
9763	19.129	5.	0.	2.8951e-002
9764	19.037	5.0909	0.	2.8821e-002
9765	19.129	5.0909	5.e-002	2.8161e-006
9766	19.129	4.8182	0.	2.8317e-002
9767	19.037	4.9091	0.	2.8672e-002
9768	19.129	4.9091	5.e-002	4.9027e-008
9769	19.129	4.6364	0.	2.8448e-002
9770	19.037	4.7273	0.	2.9364e-002
9771	19.129	4.7273	5.e-002	6.4165e-007
9772	19.129	4.4545	0.	2.7818e-002
9773	19.037	4.5455	0.	2.9183e-002
9774	19.129	4.5455	5.e-002	5.0776e-006
9775	19.129	4.2727	0.	2.5101e-002
9776	19.037	4.3636	0.	2.7498e-002
9777	19.129	4.3636	5.e-002	4.4559e-006
9778	19.129	4.0909	0.	2.1019e-002
9779	19.037	4.1818	0.	2.3615e-002
9780	19.129	4.1818	5.e-002	4.5189e-007
9781	19.129	3.9091	0.	1.8058e-002
9782	19.037	4.	0.	1.9588e-002
9783	19.129	4.	5.e-002	7.0824e-006
9784	19.129	3.7273	0.	1.7884e-002
9785	19.037	3.8182	0.	1.7482e-002
9786	19.129	3.8182	5.e-002	2.3823e-006
9787	19.129	3.5455	0.	2.2016e-002
9788	19.037	3.6364	0.	1.8758e-002
9789	19.129	3.6364	5.e-002	2.0273e-005
9790	19.129	3.3636	0.	2.9437e-002
9791	19.037	3.4545	0.	2.3847e-002
9792	19.129	3.4545	5.e-002	2.4173e-006
9793	19.129	3.1818	0.	3.6099e-002
9794	19.037	3.2727	0.	3.0062e-002
9795	19.129	3.2727	5.e-002	1.1601e-005
9796	19.129	3.	0.	3.8683e-002
9797	19.037	3.0909	0.	3.41e-002
9798	19.129	3.0909	5.e-002	3.6184e-006
9799	19.129	2.8182	0.	3.6099e-002
9800	19.037	2.9091	0.	3.41e-002
9801	19.129	2.9091	5.e-002	1.464e-006
9802	19.129	2.6364	0.	2.9438e-002
9803	19.037	2.7273	0.	3.0063e-002
9804	19.129	2.7273	5.e-002	-1.6026e-006
9805	19.129	2.4545	0.	2.2015e-002
9806	19.037	2.5455	0.	2.3847e-002
9807	19.129	2.5455	5.e-002	-2.5131e-006
9808	19.129	2.2727	0.	1.7884e-002
9809	19.037	2.3636	0.	1.8757e-002
9810	19.129	2.3636	5.e-002	1.5661e-005
9811	19.129	2.0909	0.	1.8059e-002
9812	19.037	2.1818	0.	1.7483e-002
9813	19.129	2.1818	5.e-002	-1.3134e-006
9814	19.129	1.9091	0.	2.1019e-002
9815	19.037	2.	0.	1.9588e-002
9816	19.129	2.	5.e-002	9.2958e-006
9817	19.129	1.7273	0.	2.5102e-002
9818	19.037	1.8182	0.	2.3615e-002
9819	19.129	1.8182	5.e-002	-9.0378e-007
9820	19.129	1.5455	0.	2.7819e-002
9821	19.037	1.6364	0.	2.7498e-002
9822	19.129	1.6364	5.e-002	-1.5953e-007
9823	19.129	1.3636	0.	2.8449e-002
9824	19.037	1.4545	0.	2.9184e-002
9825	19.129	1.4545	5.e-002	-1.6638e-006
9826	19.129	1.1818	0.	2.8317e-002
9827	19.037	1.2727	0.	2.9364e-002
9828	19.129	1.2727	5.e-002	4.6582e-006
9829	19.129	1.	0.	2.8951e-002
9830	19.037	1.0909	0.	2.8672e-002
9831	19.129	1.0909	5.e-002	2.7001e-006
9832	19.129	0.81818	0.	2.8111e-002
9833	19.037	0.90909	0.	2.8824e-002
9834	19.129	0.90909	5.e-002	2.2443e-006
9835	19.129	0.63636	0.	3.1816e-002
9836	19.037	0.72727	0.	2.3315e-002
9837	19.129	0.72727	5.e-002	3.7017e-006
9838	19.129	0.45455	0.	-1.6093e-002
9839	19.037	0.54545	0.	2.9567e-002
9840	19.129	0.54545	5.e-002	4.3472e-006
9841	19.129	0.27273	0.	-5.5254e-002
9842	19.037	0.36364	0.	-8.2651e-002
9843	19.129	0.36364	5.e-002	3.8926e-006
9844	19.037	0.18182	0.	-0.10388
9845	19.129	0.18182	5.e-002	7.5642e-006
9846	19.129	9.0909e-002	0.	2.3562e-002
9847	18.945	5.7273	0.	-7.5163e-002
9848	18.853	5.8182	0.	-0.11523
9849	18.945	5.8182	5.e-002	5.3251e-006
9850	18.945	5.9091	0.	1.3404e-002
9851	18.945	5.5455	0.	-2.7257e-002
9852	18.853	5.6364	0.	-9.0761e-002
9853	18.945	5.6364	5.e-002	4.4106e-006
9854	18.945	5.3636	0.	2.4705e-002
9855	18.853	5.4545	0.	2.0871e-002
9856	18.945	5.4545	5.e-002	5.7219e-006
9857	18.945	5.1818	0.	2.5734e-002
9858	18.853	5.2727	0.	1.9585e-002
9859	18.945	5.2727	5.e-002	2.6078e-006
9860	18.945	5.	0.	2.9395e-002
9861	18.853	5.0909	0.	2.7785e-002
9862	18.945	5.0909	5.e-002	2.752e-006
9863	18.945	4.8182	0.	3.0083e-002
9864	18.853	4.9091	0.	2.9305e-002
9865	18.945	4.9091	5.e-002	2.9318e-006
9866	18.945	4.6364	0.	3.0144e-002
9867	18.853	4.7273	0.	3.0415e-002
9868	18.945	4.7273	5.e-002	6.7285e-007
9869	18.945	4.4545	0.	2.8688e-002
9870	18.853	4.5455	0.	2.9933e-002
9871	18.945	4.5455	5.e-002	4.0613e-006
9872	18.945	4.2727	0.	2.5675e-002
9873	18.853	4.3636	0.	2.7891e-002
9874	18.945	4.3636	5.e-002	3.6682e-006
9875	18.945	4.0909	0.	2.175e-002
9876	18.853	4.1818	0.	2.454e-002
9877	18.945	4.1818	5.e-002	1.9347e-006
9878	18.945	3.9091	0.	1.8617e-002
9879	18.853	4.	0.	2.0929e-002
9880	18.945	4.	5.e-002	4.7856e-006
9881	18.945	3.7273	0.	1.8232e-002
9882	18.853	3.8182	0.	1.8794e-002
9883	18.945	3.8182	5.e-002	1.0118e-005
9884	18.945	3.5455	0.	2.0956e-002
9885	18.853	3.6364	0.	1.9309e-002
9886	18.945	3.6364	5.e-002	1.3782e-005
9887	18.945	3.3636	0.	2.5391e-002
9888	18.853	3.4545	0.	2.2052e-002
9889	18.945	3.4545	5.e-002	1.2485e-005
9890	18.945	3.1818	0.	2.9394e-002
9891	18.853	3.2727	0.	2.554e-002
9892	18.945	3.2727	5.e-002	4.2161e-006
9893	18.945	3.	0.	3.0996e-002
9894	18.853	3.0909	0.	2.7919e-002
9895	18.945	3.0909	5.e-002	4.4945e-006
9896	18.945	2.8182	0.	2.9395e-002
9897	18.853	2.9091	0.	2.792e-002
9898	18.945	2.9091	5.e-002	4.0241e-006
9899	18.945	2.6364	0.	2.5391e-002
9900	18.853	2.7273	0.	2.554e-002
9901	18.945	2.7273	5.e-002	2.0149e-006
9902	18.945	2.4545	0.	2.0956e-002
9903	18.853	2.5455	0.	2.2051e-002
9904	18.945	2.5455	5.e-002	8.8119e-006
9905	18.945	2.2727	0.	1.8232e-002
9906	18.853	2.3636	0.	1.9308e-002
9907	18.945	2.3636	5.e-002	9.7028e-006
9908	18.945	2.0909	0.	1.8617e-002
9909	18.853	2.1818	0.	1.8794e-002
9910	18.945	2.1818	5.e-002	9.0263e-006
9911	18.945	1.9091	0.	2.1748e-002
9912	18.853	2.	0.	2.0929e-002
9913	18.945	2.	5.e-002	6.1186e-006
9914	18.945	1.7273	0.	2.5675e-002
9915	18.853	1.8182	0.	2.4539e-002
9916	18.945	1.8182	5.e-002	-2.0429e-007
9917	18.945	1.5455	0.	2.8688e-002
9918	18.853	1.6364	0.	2.7891e-002
9919	18.945	1.6364	5.e-002	-1.4301e-006
9920	18.945	1.3636	0.	3.0144e-002
9921	18.853	1.4545	0.	2.9934e-002
9922	18.945	1.4545	5.e-002	1.2415e-006
9923	18.945	1.1818	0.	3.0082e-002
9924	18.853	1.2727	0.	3.0415e-002
9925	18.945	1.2727	5.e-002	1.7666e-006
9926	18.945	1.	0.	2.9397e-002
9927	18.853	1.0909	0.	2.9305e-002
9928	18.945	1.0909	5.e-002	4.5092e-006
9929	18.945	0.81818	0.	2.5737e-002
9930	18.853	0.90909	0.	2.7788e-002
9931	18.945	0.90909	5.e-002	4.4185e-006
9932	18.945	0.63636	0.	2.4707e-002
9933	18.853	0.72727	0.	1.9586e-002
9934	18.945	0.72727	5.e-002	5.8287e-006
9935	18.945	0.45455	0.	-2.7257e-002
9936	18.853	0.54545	0.	2.0872e-002
9937	18.945	0.54545	5.e-002	6.117e-006
9938	18.945	0.27273	0.	-7.5166e-002
9939	18.853	0.36364	0.	-9.0763e-002
9940	18.945	0.36364	5.e-002	7.1708e-006
9941	18.853	0.18182	0.	-0.11524
9942	18.945	0.18182	5.e-002	6.6249e-006
9943	18.945	9.0909e-002	0.	1.3404e-002
9944	18.761	5.7273	0.	-8.3557e-002
9945	18.669	5.8182	0.	-0.11213
9946	18.761	5.8182	5.e-002	5.1758e-006
9947	18.761	5.9091	0.	6.3401e-003
9948	18.761	5.5455	0.	-3.3457e-002
9949	18.669	5.6364	0.	-9.2616e-002
9950	18.761	5.6364	5.e-002	3.7025e-006
9951	18.761	5.3636	0.	1.9211e-002
9952	18.669	5.4545	0.	1.4355e-002
9953	18.761	5.4545	5.e-002	7.2115e-006
9954	18.761	5.1818	0.	2.3255e-002
9955	18.669	5.2727	0.	1.6344e-002
9956	18.761	5.2727	5.e-002	4.3827e-006
9957	18.761	5.	0.	2.851e-002
9958	18.669	5.0909	0.	2.5962e-002
9959	18.761	5.0909	5.e-002	2.6725e-006
9960	18.761	4.8182	0.	3.0008e-002
9961	18.669	4.9091	0.	2.8467e-002
9962	18.761	4.9091	5.e-002	1.9411e-006
9963	18.761	4.6364	0.	3.0289e-002
9964	18.669	4.7273	0.	2.9897e-002
9965	18.761	4.7273	5.e-002	5.0506e-007
9966	18.761	4.4545	0.	2.902e-002
9967	18.669	4.5455	0.	2.9529e-002
9968	18.761	4.5455	5.e-002	3.256e-006
9969	18.761	4.2727	0.	2.6493e-002
9970	18.669	4.3636	0.	2.7802e-002
9971	18.761	4.3636	5.e-002	1.3275e-006
9972	18.761	4.0909	0.	2.3371e-002
9973	18.669	4.1818	0.	2.5063e-002
9974	18.761	4.1818	5.e-002	6.4002e-006
9975	18.761	3.9091	0.	2.0776e-002
9976	18.669	4.	0.	2.2198e-002
9977	18.761	4.	5.e-002	8.7026e-006
9978	18.761	3.7273	0.	1.9712e-002
9979	18.669	3.8182	0.	2.0206e-002
9980	18.761	3.8182	5.e-002	2.8713e-006
9981	18.761	3.5455	0.	2.0566e-002
9982	18.669	3.6364	0.	1.9757e-002
9983	18.761	3.6364	5.e-002	7.3157e-006
9984	18.761	3.3636	0.	2.2743e-002
9985	18.669	3.4545	0.	2.081e-002
9986	18.761	3.4545	5.e-002	8.482e-006
9987	18.761	3.1818	0.	2.4911e-002
9988	18.669	3.2727	0.	2.2522e-002
9989	18.761	3.2727	5.e-002	6.7177e-006
9990	18.761	3.	0.	2.5804e-002
9991	18.669	3.0909	0.	2.3765e-002
9992	18.761	3.0909	5.e-002	6.4411e-006
9993	18.761	2.8182	0.	2.4911e-002
9994	18.669	2.9091	0.	2.3765e-002
9995	18.761	2.9091	5.e-002	6.2613e-006
9996	18.761	2.6364	0.	2.2742e-002
9997	18.669	2.7273	0.	2.2522e-002
9998	18.761	2.7273	5.e-002	3.5155e-006
9999	18.761	2.4545	0.	2.0566e-002
10000	18.669	2.5455	0.	2.0809e-002
10001	18.761	2.5455	5.e-002	5.7563e-006
10002	18.761	2.2727	0.	1.9712e-002
10003	18.669	2.3636	0.	1.9757e-002
10004	18.761	2.3636	5.e-002	3.7068e-006
10005	18.761	2.0909	0.	2.0776e-002
10006	18.669	2.1818	0.	2.0206e-002
10007	18.761	2.1818	5.e-002	2.5167e-006
10008	18.761	1.9091	0.	2.3371e-002
10009	18.669	2.	0.	2.2199e-002
10010	18.761	2.	5.e-002	3.1217e-006
10011	18.761	1.7273	0.	2.6492e-002
10012	18.669	1.8182	0.	2.5062e-002
10013	18.761	1.8182	5.e-002	1.1434e-006
10014	18.761	1.5455	0.	2.9021e-002
10015	18.669	1.6364	0.	2.7802e-002
10016	18.761	1.6364	5.e-002	1.9995e-006
10017	18.761	1.3636	0.	3.029e-002
10018	18.669	1.4545	0.	2.9529e-002
10019	18.761	1.4545	5.e-002	3.7648e-006
10020	18.761	1.1818	0.	3.0009e-002
10021	18.669	1.2727	0.	2.9898e-002
10022	18.761	1.2727	5.e-002	3.8296e-006
10023	18.761	1.	0.	2.8512e-002
10024	18.669	1.0909	0.	2.8467e-002
10025	18.761	1.0909	5.e-002	4.6612e-006
10026	18.761	0.81818	0.	2.3255e-002
10027	18.669	0.90909	0.	2.5964e-002
10028	18.761	0.90909	5.e-002	6.4856e-006
10029	18.761	0.63636	0.	1.921e-002
10030	18.669	0.72727	0.	1.6344e-002
10031	18.761	0.72727	5.e-002	8.7068e-006
10032	18.761	0.45455	0.	-3.3459e-002
10033	18.669	0.54545	0.	1.4355e-002
10034	18.761	0.54545	5.e-002	1.0556e-005
10035	18.761	0.27273	0.	-8.3559e-002
10036	18.669	0.36364	0.	-9.2618e-002
10037	18.761	0.36364	5.e-002	1.1844e-005
10038	18.669	0.18182	0.	-0.11213
10039	18.761	0.18182	5.e-002	1.0015e-005
10040	18.761	9.0909e-002	0.	6.3423e-003
10041	18.577	5.7273	0.	-8.4554e-002
10042	18.485	5.8182	0.	-0.10128
10043	18.577	5.8182	5.e-002	6.3119e-006
10044	18.577	5.9091	0.	1.3789e-003
10045	18.577	5.5455	0.	-3.6498e-002
10046	18.485	5.6364	0.	-9.0612e-002
10047	18.577	5.6364	5.e-002	5.1689e-006
10048	18.577	5.3636	0.	1.4676e-002
10049	18.485	5.4545	0.	9.3076e-003
10050	18.577	5.4545	5.e-002	6.3726e-006
10051	18.577	5.1818	0.	2.0548e-002
10052	18.485	5.2727	0.	1.3356e-002
10053	18.577	5.2727	5.e-002	1.9239e-006
10054	18.577	5.	0.	2.6679e-002
10055	18.485	5.0909	0.	2.3599e-002
10056	18.577	5.0909	5.e-002	3.7787e-006
10057	18.577	4.8182	0.	2.8715e-002
10058	18.485	4.9091	0.	2.6724e-002
10059	18.577	4.9091	5.e-002	1.8972e-006
10060	18.577	4.6364	0.	2.9242e-002
10061	18.485	4.7273	0.	2.8426e-002
10062	18.577	4.7273	5.e-002	2.2086e-007
10063	18.577	4.4545	0.	2.8238e-002
10064	18.485	4.5455	0.	2.829e-002
10065	18.577	4.5455	5.e-002	2.2067e-006
10066	18.577	4.2727	0.	2.6174e-002
10067	18.485	4.3636	0.	2.6932e-002
10068	18.577	4.3636	5.e-002	5.4071e-008
10069	18.577	4.0909	0.	2.3621e-002
10070	18.485	4.1818	0.	2.4749e-002
10071	18.577	4.1818	5.e-002	2.0924e-006
10072	18.577	3.9091	0.	2.1367e-002
10073	18.485	4.	0.	2.2398e-002
10074	18.577	4.	5.e-002	3.591e-006
10075	18.577	3.7273	0.	2.01e-002
10076	18.485	3.8182	0.	2.0565e-002
10077	18.577	3.8182	5.e-002	2.6155e-006
10078	18.577	3.5455	0.	2.0059e-002
10079	18.485	3.6364	0.	1.9704e-002
10080	18.577	3.6364	5.e-002	5.4515e-006
10081	18.577	3.3636	0.	2.09e-002
10082	18.485	3.4545	0.	1.9807e-002
10083	18.577	3.4545	5.e-002	4.8598e-006
10084	18.577	3.1818	0.	2.1894e-002
10085	18.485	3.2727	0.	2.0432e-002
10086	18.577	3.2727	5.e-002	2.7182e-006
10087	18.577	3.	0.	2.2324e-002
10088	18.485	3.0909	0.	2.0964e-002
10089	18.577	3.0909	5.e-002	4.0335e-006
10090	18.577	2.8182	0.	2.1895e-002
10091	18.485	2.9091	0.	2.0965e-002
10092	18.577	2.9091	5.e-002	4.5646e-006
10093	18.577	2.6364	0.	2.09e-002
10094	18.485	2.7273	0.	2.0432e-002
10095	18.577	2.7273	5.e-002	3.2713e-006
10096	18.577	2.4545	0.	2.0059e-002
10097	18.485	2.5455	0.	1.9807e-002
10098	18.577	2.5455	5.e-002	3.095e-006
10099	18.577	2.2727	0.	2.0101e-002
10100	18.485	2.3636	0.	1.9704e-002
10101	18.577	2.3636	5.e-002	7.5964e-006
10102	18.577	2.0909	0.	2.1367e-002
10103	18.485	2.1818	0.	2.0565e-002
10104	18.577	2.1818	5.e-002	3.5437e-006
10105	18.577	1.9091	0.	2.3621e-002
10106	18.485	2.	0.	2.2398e-002
10107	18.577	2.	5.e-002	1.5649e-006
10108	18.577	1.7273	0.	2.6174e-002
10109	18.485	1.8182	0.	2.4749e-002
10110	18.577	1.8182	5.e-002	1.8101e-006
10111	18.577	1.5455	0.	2.8238e-002
10112	18.485	1.6364	0.	2.6932e-002
10113	18.577	1.6364	5.e-002	2.6195e-006
10114	18.577	1.3636	0.	2.9242e-002
10115	18.485	1.4545	0.	2.8291e-002
10116	18.577	1.4545	5.e-002	2.9309e-006
10117	18.577	1.1818	0.	2.8716e-002
10118	18.485	1.2727	0.	2.8427e-002
10119	18.577	1.2727	5.e-002	3.3977e-006
10120	18.577	1.	0.	2.6681e-002
10121	18.485	1.0909	0.	2.6724e-002
10122	18.577	1.0909	5.e-002	2.8944e-006
10123	18.577	0.81818	0.	2.0549e-002
10124	18.485	0.90909	0.	2.3601e-002
10125	18.577	0.90909	5.e-002	1.4761e-006
10126	18.577	0.63636	0.	1.4677e-002
10127	18.485	0.72727	0.	1.3358e-002
10128	18.577	0.72727	5.e-002	5.6992e-006
10129	18.577	0.45455	0.	-3.6499e-002
10130	18.485	0.54545	0.	9.3089e-003
10131	18.577	0.54545	5.e-002	7.9422e-006
10132	18.577	0.27273	0.	-8.4556e-002
10133	18.485	0.36364	0.	-9.0614e-002
10134	18.577	0.36364	5.e-002	7.6854e-006
10135	18.485	0.18182	0.	-0.10128
10136	18.577	0.18182	5.e-002	9.8368e-006
10137	18.577	9.0909e-002	0.	1.3808e-003
10138	18.393	5.7273	0.	-8.1122e-002
10139	18.301	5.8182	0.	-8.7219e-002
10140	18.393	5.8182	5.e-002	1.1273e-005
10141	18.393	5.9091	0.	-2.0955e-003
10142	18.393	5.5455	0.	-3.7506e-002
10143	18.301	5.6364	0.	-8.6371e-002
10144	18.393	5.6364	5.e-002	7.0102e-006
10145	18.393	5.3636	0.	1.0864e-002
10146	18.301	5.4545	0.	5.3373e-003
10147	18.393	5.4545	5.e-002	6.9379e-006
10148	18.393	5.1818	0.	1.7766e-002
10149	18.301	5.2727	0.	1.0601e-002
10150	18.393	5.2727	5.e-002	3.5509e-006
10151	18.393	5.	0.	2.4341e-002
10152	18.301	5.0909	0.	2.0978e-002
10153	18.393	5.0909	5.e-002	2.9107e-006
10154	18.393	4.8182	0.	2.6774e-002
10155	18.301	4.9091	0.	2.4504e-002
10156	18.393	4.9091	5.e-002	9.4601e-007
10157	18.393	4.6364	0.	2.759e-002
10158	18.301	4.7273	0.	2.6453e-002
10159	18.393	4.7273	5.e-002	-9.108e-007
10160	18.393	4.4545	0.	2.6946e-002
10161	18.301	4.5455	0.	2.6608e-002
10162	18.393	4.5455	5.e-002	2.1807e-006
10163	18.393	4.2727	0.	2.5363e-002
10164	18.301	4.3636	0.	2.5647e-002
10165	18.393	4.3636	5.e-002	2.2505e-007
10166	18.393	4.0909	0.	2.3325e-002
10167	18.301	4.1818	0.	2.3954e-002
10168	18.393	4.1818	5.e-002	-2.7254e-007
10169	18.393	3.9091	0.	2.1397e-002
10170	18.301	4.	0.	2.2043e-002
10171	18.393	4.	5.e-002	8.7509e-007
10172	18.393	3.7273	0.	2.0042e-002
10173	18.301	3.8182	0.	2.0392e-002
10174	18.393	3.8182	5.e-002	9.5183e-007
10175	18.393	3.5455	0.	1.9459e-002
10176	18.301	3.6364	0.	1.9326e-002
10177	18.393	3.6364	5.e-002	4.4456e-006
10178	18.393	3.3636	0.	1.951e-002
10179	18.301	3.4545	0.	1.89e-002
10180	18.393	3.4545	5.e-002	4.0764e-006
10181	18.393	3.1818	0.	1.9808e-002
10182	18.301	3.2727	0.	1.8908e-002
10183	18.393	3.2727	5.e-002	2.23e-006
10184	18.393	3.	0.	1.9962e-002
10185	18.301	3.0909	0.	1.9029e-002
10186	18.393	3.0909	5.e-002	3.894e-006
10187	18.393	2.8182	0.	1.9808e-002
10188	18.301	2.9091	0.	1.9029e-002
10189	18.393	2.9091	5.e-002	5.6429e-006
10190	18.393	2.6364	0.	1.9509e-002
10191	18.301	2.7273	0.	1.8908e-002
10192	18.393	2.7273	5.e-002	4.5278e-006
10193	18.393	2.4545	0.	1.9459e-002
10194	18.301	2.5455	0.	1.89e-002
10195	18.393	2.5455	5.e-002	5.1016e-006
10196	18.393	2.2727	0.	2.0041e-002
10197	18.301	2.3636	0.	1.9325e-002
10198	18.393	2.3636	5.e-002	3.7193e-006
10199	18.393	2.0909	0.	2.1397e-002
10200	18.301	2.1818	0.	2.0393e-002
10201	18.393	2.1818	5.e-002	2.2411e-006
10202	18.393	1.9091	0.	2.3325e-002
10203	18.301	2.	0.	2.2043e-002
10204	18.393	2.	5.e-002	2.165e-006
10205	18.393	1.7273	0.	2.5364e-002
10206	18.301	1.8182	0.	2.3955e-002
10207	18.393	1.8182	5.e-002	3.0311e-006
10208	18.393	1.5455	0.	2.6946e-002
10209	18.301	1.6364	0.	2.5648e-002
10210	18.393	1.6364	5.e-002	3.6196e-006
10211	18.393	1.3636	0.	2.7591e-002
10212	18.301	1.4545	0.	2.6609e-002
10213	18.393	1.4545	5.e-002	2.427e-006
10214	18.393	1.1818	0.	2.6774e-002
10215	18.301	1.2727	0.	2.6453e-002
10216	18.393	1.2727	5.e-002	3.64e-006
10217	18.393	1.	0.	2.4341e-002
10218	18.301	1.0909	0.	2.4504e-002
10219	18.393	1.0909	5.e-002	2.9821e-006
10220	18.393	0.81818	0.	1.7768e-002
10221	18.301	0.90909	0.	2.0979e-002
10222	18.393	0.90909	5.e-002	4.1897e-006
10223	18.393	0.63636	0.	1.0866e-002
10224	18.301	0.72727	0.	1.0603e-002
10225	18.393	0.72727	5.e-002	4.5599e-006
10226	18.393	0.45455	0.	-3.7506e-002
10227	18.301	0.54545	0.	5.3383e-003
10228	18.393	0.54545	5.e-002	6.5683e-006
10229	18.393	0.27273	0.	-8.1125e-002
10230	18.301	0.36364	0.	-8.6371e-002
10231	18.393	0.36364	5.e-002	7.5651e-006
10232	18.301	0.18182	0.	-8.722e-002
10233	18.393	0.18182	5.e-002	7.5343e-006
10234	18.393	9.0909e-002	0.	-2.0975e-003
10235	18.209	5.7273	0.	-7.5335e-002
10236	18.117	5.8182	0.	-7.2716e-002
10237	18.209	5.8182	5.e-002	9.1952e-006
10238	18.209	5.9091	0.	-4.5294e-003
10239	18.209	5.5455	0.	-3.7254e-002
10240	18.117	5.6364	0.	-8.0977e-002
10241	18.209	5.6364	5.e-002	7.7819e-006
10242	18.209	5.3636	0.	7.6307e-003
10243	18.117	5.4545	0.	2.1899e-003
10244	18.209	5.4545	5.e-002	8.542e-006
10245	18.209	5.1818	0.	1.5033e-002
10246	18.117	5.2727	0.	8.09e-003
10247	18.209	5.2727	5.e-002	3.1666e-006
10248	18.209	5.	0.	2.1773e-002
10249	18.117	5.0909	0.	1.8299e-002
10250	18.209	5.0909	5.e-002	3.8691e-006
10251	18.209	4.8182	0.	2.4498e-002
10252	18.117	4.9091	0.	2.2075e-002
10253	18.209	4.9091	5.e-002	9.3563e-007
10254	18.209	4.6364	0.	2.5592e-002
10255	18.117	4.7273	0.	2.4234e-002
10256	18.209	4.7273	5.e-002	1.3319e-008
10257	18.209	4.4545	0.	2.5298e-002
10258	18.117	4.5455	0.	2.4679e-002
10259	18.209	4.5455	5.e-002	1.1603e-006
10260	18.209	4.2727	0.	2.414e-002
10261	18.117	4.3636	0.	2.4084e-002
10262	18.209	4.3636	5.e-002	1.2544e-006
10263	18.209	4.0909	0.	2.2527e-002
10264	18.117	4.1818	0.	2.2808e-002
10265	18.209	4.1818	5.e-002	8.3417e-007
10266	18.209	3.9091	0.	2.0891e-002
10267	18.117	4.	0.	2.1265e-002
10268	18.209	4.	5.e-002	1.8186e-006
10269	18.209	3.7273	0.	1.9573e-002
10270	18.117	3.8182	0.	1.9816e-002
10271	18.209	3.8182	5.e-002	5.694e-007
10272	18.209	3.5455	0.	1.8749e-002
10273	18.117	3.6364	0.	1.8712e-002
10274	18.209	3.6364	5.e-002	4.2128e-006
10275	18.209	3.3636	0.	1.8385e-002
10276	18.117	3.4545	0.	1.8041e-002
10277	18.209	3.4545	5.e-002	4.1157e-006
10278	18.209	3.1818	0.	1.8301e-002
10279	18.117	3.2727	0.	1.7732e-002
10280	18.209	3.2727	5.e-002	3.1345e-006
10281	18.209	3.	0.	1.8301e-002
10282	18.117	3.0909	0.	1.7633e-002
10283	18.209	3.0909	5.e-002	4.8342e-006
10284	18.209	2.8182	0.	1.8301e-002
10285	18.117	2.9091	0.	1.7633e-002
10286	18.209	2.9091	5.e-002	4.7134e-006
10287	18.209	2.6364	0.	1.8386e-002
10288	18.117	2.7273	0.	1.7732e-002
10289	18.209	2.7273	5.e-002	6.4612e-006
10290	18.209	2.4545	0.	1.875e-002
10291	18.117	2.5455	0.	1.8042e-002
10292	18.209	2.5455	5.e-002	4.5794e-006
10293	18.209	2.2727	0.	1.9574e-002
10294	18.117	2.3636	0.	1.8712e-002
10295	18.209	2.3636	5.e-002	3.3974e-006
10296	18.209	2.0909	0.	2.0891e-002
10297	18.117	2.1818	0.	1.9816e-002
10298	18.209	2.1818	5.e-002	3.2882e-006
10299	18.209	1.9091	0.	2.2527e-002
10300	18.117	2.	0.	2.1265e-002
10301	18.209	2.	5.e-002	3.7232e-006
10302	18.209	1.7273	0.	2.414e-002
10303	18.117	1.8182	0.	2.2808e-002
10304	18.209	1.8182	5.e-002	4.5915e-006
10305	18.209	1.5455	0.	2.5299e-002
10306	18.117	1.6364	0.	2.4084e-002
10307	18.209	1.6364	5.e-002	4.3912e-006
10308	18.209	1.3636	0.	2.5591e-002
10309	18.117	1.4545	0.	2.4679e-002
10310	18.209	1.4545	5.e-002	1.6079e-006
10311	18.209	1.1818	0.	2.4499e-002
10312	18.117	1.2727	0.	2.4235e-002
10313	18.209	1.2727	5.e-002	2.792e-006
10314	18.209	1.	0.	2.1774e-002
10315	18.117	1.0909	0.	2.2076e-002
10316	18.209	1.0909	5.e-002	3.0207e-006
10317	18.209	0.81818	0.	1.5034e-002
10318	18.117	0.90909	0.	1.83e-002
10319	18.209	0.90909	5.e-002	3.3204e-006
10320	18.209	0.63636	0.	7.6315e-003
10321	18.117	0.72727	0.	8.0915e-003
10322	18.209	0.72727	5.e-002	4.1808e-006
10323	18.209	0.45455	0.	-3.7254e-002
10324	18.117	0.54545	0.	2.189e-003
10325	18.209	0.54545	5.e-002	4.4345e-006
10326	18.209	0.27273	0.	-7.5334e-002
10327	18.117	0.36364	0.	-8.0977e-002
10328	18.209	0.36364	5.e-002	9.6214e-006
10329	18.117	0.18182	0.	-7.2714e-002
10330	18.209	0.18182	5.e-002	9.6567e-006
10331	18.209	9.0909e-002	0.	-4.53e-003
10332	18.025	5.7273	0.	-6.8538e-002
10333	17.933	5.8182	0.	-5.9273e-002
10334	18.025	5.8182	5.e-002	9.2001e-006
10335	18.025	5.9091	0.	-6.2225e-003
10336	18.025	5.5455	0.	-3.6238e-002
10337	17.933	5.6364	0.	-7.5134e-002
10338	18.025	5.6364	5.e-002	6.2323e-006
10339	18.025	5.3636	0.	4.8963e-003
10340	17.933	5.4545	0.	-3.1298e-004
10341	18.025	5.4545	5.e-002	7.8419e-006
10342	18.025	5.1818	0.	1.2444e-002
10343	17.933	5.2727	0.	5.8314e-003
10344	18.025	5.2727	5.e-002	4.4791e-006
10345	18.025	5.	0.	1.9171e-002
10346	17.933	5.0909	0.	1.569e-002
10347	18.025	5.0909	5.e-002	3.7495e-006
10348	18.025	4.8182	0.	2.2103e-002
10349	17.933	4.9091	0.	1.9606e-002
10350	18.025	4.9091	5.e-002	1.8399e-006
10351	18.025	4.6364	0.	2.3444e-002
10352	17.933	4.7273	0.	2.1933e-002
10353	18.025	4.7273	5.e-002	-3.3669e-009
10354	18.025	4.4545	0.	2.3475e-002
10355	17.933	4.5455	0.	2.2641e-002
10356	18.025	4.5455	5.e-002	3.9162e-006
10357	18.025	4.2727	0.	2.2689e-002
10358	17.933	4.3636	0.	2.2374e-002
10359	18.025	4.3636	5.e-002	2.2094e-006
10360	18.025	4.0909	0.	2.1444e-002
10361	17.933	4.1818	0.	2.1455e-002
10362	18.025	4.1818	5.e-002	2.3199e-006
10363	18.025	3.9091	0.	2.0083e-002
10364	17.933	4.	0.	2.0236e-002
10365	18.025	4.	5.e-002	3.3967e-006
10366	18.025	3.7273	0.	1.8875e-002
10367	17.933	3.8182	0.	1.9e-002
10368	18.025	3.8182	5.e-002	3.1988e-006
10369	18.025	3.5455	0.	1.7978e-002
10370	17.933	3.6364	0.	1.7956e-002
10371	18.025	3.6364	5.e-002	5.1518e-006
10372	18.025	3.3636	0.	1.7426e-002
10373	17.933	3.4545	0.	1.7209e-002
10374	18.025	3.4545	5.e-002	5.2172e-006
10375	18.025	3.1818	0.	1.7155e-002
10376	17.933	3.2727	0.	1.6762e-002
10377	18.025	3.2727	5.e-002	4.0135e-006
10378	18.025	3.	0.	1.7077e-002
10379	17.933	3.0909	0.	1.6562e-002
10380	18.025	3.0909	5.e-002	5.7818e-006
10381	18.025	2.8182	0.	1.7155e-002
10382	17.933	2.9091	0.	1.6561e-002
10383	18.025	2.9091	5.e-002	5.661e-006
10384	18.025	2.6364	0.	1.7427e-002
10385	17.933	2.7273	0.	1.6763e-002
10386	18.025	2.7273	5.e-002	5.5203e-006
10387	18.025	2.4545	0.	1.7979e-002
10388	17.933	2.5455	0.	1.721e-002
10389	18.025	2.5455	5.e-002	4.5405e-006
10390	18.025	2.2727	0.	1.8874e-002
10391	17.933	2.3636	0.	1.7957e-002
10392	18.025	2.3636	5.e-002	3.395e-006
10393	18.025	2.0909	0.	2.0082e-002
10394	17.933	2.1818	0.	1.9e-002
10395	18.025	2.1818	5.e-002	5.1233e-006
10396	18.025	1.9091	0.	2.1444e-002
10397	17.933	2.	0.	2.0236e-002
10398	18.025	2.	5.e-002	3.5143e-006
10399	18.025	1.7273	0.	2.2689e-002
10400	17.933	1.8182	0.	2.1456e-002
10401	18.025	1.8182	5.e-002	4.3149e-006
10402	18.025	1.5455	0.	2.3475e-002
10403	17.933	1.6364	0.	2.2373e-002
10404	18.025	1.6364	5.e-002	4.4764e-006
10405	18.025	1.3636	0.	2.3445e-002
10406	17.933	1.4545	0.	2.2641e-002
10407	18.025	1.4545	5.e-002	3.6603e-006
10408	18.025	1.1818	0.	2.2105e-002
10409	17.933	1.2727	0.	2.1934e-002
10410	18.025	1.2727	5.e-002	2.8901e-006
10411	18.025	1.	0.	1.9173e-002
10412	17.933	1.0909	0.	1.9607e-002
10413	18.025	1.0909	5.e-002	4.1663e-006
10414	18.025	0.81818	0.	1.2446e-002
10415	17.933	0.90909	0.	1.5692e-002
10416	18.025	0.90909	5.e-002	4.9823e-006
10417	18.025	0.63636	0.	4.8961e-003
10418	17.933	0.72727	0.	5.833e-003
10419	18.025	0.72727	5.e-002	6.6691e-006
10420	18.025	0.45455	0.	-3.6239e-002
10421	17.933	0.54545	0.	-3.1403e-004
10422	18.025	0.54545	5.e-002	6.2508e-006
10423	18.025	0.27273	0.	-6.8538e-002
10424	17.933	0.36364	0.	-7.5134e-002
10425	18.025	0.36364	5.e-002	7.9549e-006
10426	17.933	0.18182	0.	-5.9272e-002
10427	18.025	0.18182	5.e-002	6.4559e-006
10428	18.025	9.0909e-002	0.	-6.2223e-003
10429	17.841	5.7273	0.	-6.1583e-002
10430	17.749	5.8182	0.	-4.7553e-002
10431	17.841	5.8182	5.e-002	5.482e-006
10432	17.841	5.9091	0.	-7.4011e-003
10433	17.841	5.5455	0.	-3.4802e-002
10434	17.749	5.6364	0.	-6.9268e-002
10435	17.841	5.6364	5.e-002	6.5274e-006
10436	17.841	5.3636	0.	2.5816e-003
10437	17.749	5.4545	0.	-2.2934e-003
10438	17.841	5.4545	5.e-002	6.1507e-006
10439	17.841	5.1818	0.	1.0043e-002
10440	17.749	5.2727	0.	3.8361e-003
10441	17.841	5.2727	5.e-002	2.305e-006
10442	17.841	5.	0.	1.6638e-002
10443	17.749	5.0909	0.	1.3238e-002
10444	17.841	5.0909	5.e-002	2.568e-006
10445	17.841	4.8182	0.	1.9706e-002
10446	17.749	4.9091	0.	1.7211e-002
10447	17.841	4.9091	5.e-002	-1.4316e-007
10448	17.841	4.6364	0.	2.1253e-002
10449	17.749	4.7273	0.	1.9664e-002
10450	17.841	4.7273	5.e-002	-4.3134e-008
10451	17.841	4.4545	0.	2.1567e-002
10452	17.749	4.5455	0.	2.0598e-002
10453	17.841	4.5455	5.e-002	1.9483e-006
10454	17.841	4.2727	0.	2.1105e-002
10455	17.749	4.3636	0.	2.0614e-002
10456	17.841	4.3636	5.e-002	2.2502e-007
10457	17.841	4.0909	0.	2.018e-002
10458	17.749	4.1818	0.	2.0007e-002
10459	17.841	4.1818	5.e-002	-6.2735e-007
10460	17.841	3.9091	0.	1.9077e-002
10461	17.749	4.	0.	1.9075e-002
10462	17.841	4.	5.e-002	4.1692e-007
10463	17.841	3.7273	0.	1.8021e-002
10464	17.749	3.8182	0.	1.8055e-002
10465	17.841	3.8182	5.e-002	4.5088e-007
10466	17.841	3.5455	0.	1.716e-002
10467	17.749	3.6364	0.	1.7129e-002
10468	17.841	3.6364	5.e-002	2.2276e-006
10469	17.841	3.3636	0.	1.6557e-002
10470	17.749	3.4545	0.	1.6405e-002
10471	17.841	3.4545	5.e-002	4.1038e-006
10472	17.841	3.1818	0.	1.6214e-002
10473	17.749	3.2727	0.	1.5926e-002
10474	17.841	3.2727	5.e-002	3.9632e-006
10475	17.841	3.	0.	1.6103e-002
10476	17.749	3.0909	0.	1.5693e-002
10477	17.841	3.0909	5.e-002	3.8628e-006
10478	17.841	2.8182	0.	1.6214e-002
10479	17.749	2.9091	0.	1.5693e-002
10480	17.841	2.9091	5.e-002	3.76e-006
10481	17.841	2.6364	0.	1.6558e-002
10482	17.749	2.7273	0.	1.5927e-002
10483	17.841	2.7273	5.e-002	3.6308e-006
10484	17.841	2.4545	0.	1.7161e-002
10485	17.749	2.5455	0.	1.6405e-002
10486	17.841	2.5455	5.e-002	2.6012e-006
10487	17.841	2.2727	0.	1.8022e-002
10488	17.749	2.3636	0.	1.7129e-002
10489	17.841	2.3636	5.e-002	2.612e-006
10490	17.841	2.0909	0.	1.9078e-002
10491	17.749	2.1818	0.	1.8055e-002
10492	17.841	2.1818	5.e-002	2.6079e-006
10493	17.841	1.9091	0.	2.018e-002
10494	17.749	2.	0.	1.9075e-002
10495	17.841	2.	5.e-002	2.5226e-006
10496	17.841	1.7273	0.	2.1106e-002
10497	17.749	1.8182	0.	2.0007e-002
10498	17.841	1.8182	5.e-002	3.479e-006
10499	17.841	1.5455	0.	2.1566e-002
10500	17.749	1.6364	0.	2.0615e-002
10501	17.841	1.6364	5.e-002	2.6202e-006
10502	17.841	1.3636	0.	2.1253e-002
10503	17.749	1.4545	0.	2.0598e-002
10504	17.841	1.4545	5.e-002	1.8297e-006
10505	17.841	1.1818	0.	1.9707e-002
10506	17.749	1.2727	0.	1.9665e-002
10507	17.841	1.2727	5.e-002	1.0364e-006
10508	17.841	1.	0.	1.664e-002
10509	17.749	1.0909	0.	1.7211e-002
10510	17.841	1.0909	5.e-002	1.1919e-006
10511	17.841	0.81818	0.	1.0045e-002
10512	17.749	0.90909	0.	1.324e-002
10513	17.841	0.90909	5.e-002	1.8062e-006
10514	17.841	0.63636	0.	2.5823e-003
10515	17.749	0.72727	0.	3.838e-003
10516	17.841	0.72727	5.e-002	3.8925e-006
10517	17.841	0.45455	0.	-3.4803e-002
10518	17.749	0.54545	0.	-2.2931e-003
10519	17.841	0.54545	5.e-002	6.5118e-006
10520	17.841	0.27273	0.	-6.1583e-002
10521	17.749	0.36364	0.	-6.9269e-002
10522	17.841	0.36364	5.e-002	8.1587e-006
10523	17.749	0.18182	0.	-4.7554e-002
10524	17.841	0.18182	5.e-002	9.6337e-006
10525	17.841	9.0909e-002	0.	-7.4008e-003
10526	17.657	5.7273	0.	-5.4922e-002
10527	17.565	5.8182	0.	-3.7714e-002
10528	17.657	5.8182	5.e-002	1.2839e-005
10529	17.657	5.9091	0.	-8.1852e-003
10530	17.657	5.5455	0.	-3.3135e-002
10531	17.565	5.6364	0.	-6.3619e-002
10532	17.657	5.6364	5.e-002	5.5007e-006
10533	17.657	5.3636	0.	6.5958e-004
10534	17.565	5.4545	0.	-3.8344e-003
10535	17.657	5.4545	5.e-002	5.4312e-006
10536	17.657	5.1818	0.	7.8863e-003
10537	17.565	5.2727	0.	2.1154e-003
10538	17.657	5.2727	5.e-002	1.4795e-006
10539	17.657	5.	0.	1.4273e-002
10540	17.565	5.0909	0.	1.1005e-002
10541	17.657	5.0909	5.e-002	1.8405e-006
10542	17.657	4.8182	0.	1.7419e-002
10543	17.565	4.9091	0.	1.4973e-002
10544	17.657	4.9091	5.e-002	4.0953e-007
10545	17.657	4.6364	0.	1.9131e-002
10546	17.565	4.7273	0.	1.751e-002
10547	17.657	4.7273	5.e-002	-2.915e-008
10548	17.657	4.4545	0.	1.9685e-002
10549	17.565	4.5455	0.	1.8635e-002
10550	17.657	4.5455	5.e-002	9.4335e-007
10551	17.657	4.2727	0.	1.9503e-002
10552	17.565	4.3636	0.	1.8893e-002
10553	17.657	4.3636	5.e-002	6.3684e-008
10554	17.657	4.0909	0.	1.886e-002
10555	17.565	4.1818	0.	1.8556e-002
10556	17.657	4.1818	5.e-002	-1.7883e-006
10557	17.657	3.9091	0.	1.8001e-002
10558	17.565	4.	0.	1.7881e-002
10559	17.657	4.	5.e-002	-7.0331e-007
10560	17.657	3.7273	0.	1.7118e-002
10561	17.565	3.8182	0.	1.7073e-002
10562	17.657	3.8182	5.e-002	2.3878e-007
10563	17.657	3.5455	0.	1.6348e-002
10564	17.565	3.6364	0.	1.6291e-002
10565	17.657	3.6364	5.e-002	3.9973e-006
10566	17.657	3.3636	0.	1.5773e-002
10567	17.565	3.4545	0.	1.5645e-002
10568	17.657	3.4545	5.e-002	1.0776e-006
10569	17.657	3.1818	0.	1.5424e-002
10570	17.565	3.2727	0.	1.5195e-002
10571	17.657	3.2727	5.e-002	9.0269e-008
10572	17.657	3.	0.	1.5309e-002
10573	17.565	3.0909	0.	1.4966e-002
10574	17.657	3.0909	5.e-002	3.8436e-006
10575	17.657	2.8182	0.	1.5425e-002
10576	17.565	2.9091	0.	1.4967e-002
10577	17.657	2.9091	5.e-002	3.7839e-006
10578	17.657	2.6364	0.	1.5773e-002
10579	17.565	2.7273	0.	1.5195e-002
10580	17.657	2.7273	5.e-002	2.7689e-006
10581	17.657	2.4545	0.	1.6348e-002
10582	17.565	2.5455	0.	1.5646e-002
10583	17.657	2.5455	5.e-002	2.6907e-006
10584	17.657	2.2727	0.	1.7117e-002
10585	17.565	2.3636	0.	1.6291e-002
10586	17.657	2.3636	5.e-002	2.6737e-006
10587	17.657	2.0909	0.	1.8001e-002
10588	17.565	2.1818	0.	1.7073e-002
10589	17.657	2.1818	5.e-002	2.7552e-006
10590	17.657	1.9091	0.	1.886e-002
10591	17.565	2.	0.	1.7881e-002
10592	17.657	2.	5.e-002	2.6884e-006
10593	17.657	1.7273	0.	1.9504e-002
10594	17.565	1.8182	0.	1.8556e-002
10595	17.657	1.8182	5.e-002	1.7442e-006
10596	17.657	1.5455	0.	1.9686e-002
10597	17.565	1.6364	0.	1.8893e-002
10598	17.657	1.6364	5.e-002	1.832e-006
10599	17.657	1.3636	0.	1.9131e-002
10600	17.565	1.4545	0.	1.8635e-002
10601	17.657	1.4545	5.e-002	1.9252e-006
10602	17.657	1.1818	0.	1.7419e-002
10603	17.565	1.2727	0.	1.7511e-002
10604	17.657	1.2727	5.e-002	2.0332e-006
10605	17.657	1.	0.	1.4273e-002
10606	17.565	1.0909	0.	1.4972e-002
10607	17.657	1.0909	5.e-002	1.7163e-006
10608	17.657	0.81818	0.	7.8878e-003
10609	17.565	0.90909	0.	1.1006e-002
10610	17.657	0.90909	5.e-002	2.1416e-006
10611	17.657	0.63636	0.	6.6106e-004
10612	17.565	0.72727	0.	2.1168e-003
10613	17.657	0.72727	5.e-002	2.9378e-006
10614	17.657	0.45455	0.	-3.3134e-002
10615	17.565	0.54545	0.	-3.8344e-003
10616	17.657	0.54545	5.e-002	5.4512e-006
10617	17.657	0.27273	0.	-5.4923e-002
10618	17.565	0.36364	0.	-6.3619e-002
10619	17.657	0.36364	5.e-002	5.0352e-006
10620	17.565	0.18182	0.	-3.7716e-002
10621	17.657	0.18182	5.e-002	5.6857e-006
10622	17.657	9.0909e-002	0.	-8.1854e-003
10623	17.473	5.7273	0.	-4.8795e-002
10624	17.381	5.8182	0.	-2.9659e-002
10625	17.473	5.8182	5.e-002	1.5684e-005
10626	17.473	5.9091	0.	-8.6736e-003
10627	17.473	5.5455	0.	-3.1366e-002
10628	17.381	5.6364	0.	-5.8318e-002
10629	17.473	5.6364	5.e-002	8.1148e-006
10630	17.473	5.3636	0.	-9.1282e-004
10631	17.381	5.4545	0.	-5.0081e-003
10632	17.473	5.4545	5.e-002	8.2559e-006
10633	17.473	5.1818	0.	5.99e-003
10634	17.381	5.2727	0.	6.605e-004
10635	17.473	5.2727	5.e-002	4.6527e-006
10636	17.473	5.	0.	1.2122e-002
10637	17.381	5.0909	0.	9.0169e-003
10638	17.473	5.0909	5.e-002	5.2368e-006
10639	17.473	4.8182	0.	1.5296e-002
10640	17.381	4.9091	0.	1.2933e-002
10641	17.473	4.9091	5.e-002	2.9491e-006
10642	17.473	4.6364	0.	1.7134e-002
10643	17.381	4.7273	0.	1.552e-002
10644	17.473	4.7273	5.e-002	1.4141e-006
10645	17.473	4.4545	0.	1.7891e-002
10646	17.381	4.5455	0.	1.6798e-002
10647	17.473	4.5455	5.e-002	3.7783e-006
10648	17.473	4.2727	0.	1.795e-002
10649	17.381	4.3636	0.	1.7263e-002
10650	17.473	4.3636	5.e-002	2.3881e-006
10651	17.473	4.0909	0.	1.7555e-002
10652	17.381	4.1818	0.	1.716e-002
10653	17.473	4.1818	5.e-002	2.8958e-006
10654	17.473	3.9091	0.	1.6921e-002
10655	17.381	4.	0.	1.6715e-002
10656	17.473	4.	5.e-002	1.9774e-006
10657	17.473	3.7273	0.	1.6216e-002
10658	17.381	3.8182	0.	1.6107e-002
10659	17.473	3.8182	5.e-002	2.936e-006
10660	17.473	3.5455	0.	1.5568e-002
10661	17.381	3.6364	0.	1.548e-002
10662	17.473	3.6364	5.e-002	4.8159e-006
10663	17.473	3.3636	0.	1.5061e-002
10664	17.381	3.4545	0.	1.4938e-002
10665	17.473	3.4545	5.e-002	3.8566e-006
10666	17.473	3.1818	0.	1.4742e-002
10667	17.381	3.2727	0.	1.4545e-002
10668	17.473	3.2727	5.e-002	3.8466e-006
10669	17.473	3.	0.	1.4634e-002
10670	17.381	3.0909	0.	1.4341e-002
10671	17.473	3.0909	5.e-002	3.8217e-006
10672	17.473	2.8182	0.	1.4742e-002
10673	17.381	2.9091	0.	1.4341e-002
10674	17.473	2.9091	5.e-002	4.7597e-006
10675	17.473	2.6364	0.	1.5062e-002
10676	17.381	2.7273	0.	1.4546e-002
10677	17.473	2.7273	5.e-002	4.7416e-006
10678	17.473	2.4545	0.	1.5568e-002
10679	17.381	2.5455	0.	1.4938e-002
10680	17.473	2.5455	5.e-002	4.7325e-006
10681	17.473	2.2727	0.	1.6216e-002
10682	17.381	2.3636	0.	1.548e-002
10683	17.473	2.3636	5.e-002	4.6857e-006
10684	17.473	2.0909	0.	1.6921e-002
10685	17.381	2.1818	0.	1.6107e-002
10686	17.473	2.1818	5.e-002	4.6952e-006
10687	17.473	1.9091	0.	1.7556e-002
10688	17.381	2.	0.	1.6715e-002
10689	17.473	2.	5.e-002	5.6282e-006
10690	17.473	1.7273	0.	1.795e-002
10691	17.381	1.8182	0.	1.7161e-002
10692	17.473	1.8182	5.e-002	6.6239e-006
10693	17.473	1.5455	0.	1.7892e-002
10694	17.381	1.6364	0.	1.7264e-002
10695	17.473	1.6364	5.e-002	5.2415e-006
10696	17.473	1.3636	0.	1.7135e-002
10697	17.381	1.4545	0.	1.6799e-002
10698	17.473	1.4545	5.e-002	4.308e-006
10699	17.473	1.1818	0.	1.5296e-002
10700	17.381	1.2727	0.	1.552e-002
10701	17.473	1.2727	5.e-002	4.3555e-006
10702	17.473	1.	0.	1.2122e-002
10703	17.381	1.0909	0.	1.2934e-002
10704	17.473	1.0909	5.e-002	4.0558e-006
10705	17.473	0.81818	0.	5.9909e-003
10706	17.381	0.90909	0.	9.018e-003
10707	17.473	0.90909	5.e-002	4.1373e-006
10708	17.473	0.63636	0.	-9.1277e-004
10709	17.381	0.72727	0.	6.6124e-004
10710	17.473	0.72727	5.e-002	5.7495e-006
10711	17.473	0.45455	0.	-3.1367e-002
10712	17.381	0.54545	0.	-5.008e-003
10713	17.473	0.54545	5.e-002	8.2456e-006
10714	17.473	0.27273	0.	-4.8796e-002
10715	17.381	0.36364	0.	-5.8319e-002
10716	17.473	0.36364	5.e-002	7.9748e-006
10717	17.381	0.18182	0.	-2.9659e-002
10718	17.473	0.18182	5.e-002	5.8533e-006
10719	17.473	9.0909e-002	0.	-8.6751e-003
10720	17.289	5.7273	0.	-4.3297e-002
10721	17.197	5.8182	0.	-2.3174e-002
10722	17.289	5.8182	5.e-002	7.021e-006
10723	17.289	5.9091	0.	-8.9354e-003
10724	17.289	5.5455	0.	-2.9574e-002
10725	17.197	5.6364	0.	-5.3425e-002
10726	17.289	5.6364	5.e-002	5.7581e-006
10727	17.289	5.3636	0.	-2.1738e-003
10728	17.197	5.4545	0.	-5.876e-003
10729	17.289	5.4545	5.e-002	8.4356e-006
10730	17.289	5.1818	0.	4.3547e-003
10731	17.197	5.2727	0.	-5.4509e-004
10732	17.289	5.2727	5.e-002	5.0295e-006
10733	17.289	5.	0.	1.0204e-002
10734	17.197	5.0909	0.	7.279e-003
10735	17.289	5.0909	5.e-002	4.361e-006
10736	17.289	4.8182	0.	1.3372e-002
10737	17.197	4.9091	0.	1.111e-002
10738	17.289	4.9091	5.e-002	4.021e-006
10739	17.289	4.6364	0.	1.5301e-002
10740	17.197	4.7273	0.	1.3718e-002
10741	17.289	4.7273	5.e-002	1.5785e-006
10742	17.289	4.4545	0.	1.6226e-002
10743	17.197	4.5455	0.	1.5117e-002
10744	17.289	4.5455	5.e-002	2.8977e-006
10745	17.289	4.2727	0.	1.6491e-002
10746	17.197	4.3636	0.	1.5756e-002
10747	17.289	4.3636	5.e-002	1.443e-006
10748	17.289	4.0909	0.	1.6314e-002
10749	17.197	4.1818	0.	1.5855e-002
10750	17.289	4.1818	5.e-002	1.9073e-006
10751	17.289	3.9091	0.	1.5884e-002
10752	17.197	4.	0.	1.5613e-002
10753	17.289	4.	5.e-002	1.9195e-006
10754	17.289	3.7273	0.	1.5352e-002
10755	17.197	3.8182	0.	1.5191e-002
10756	17.289	3.8182	5.e-002	3.3481e-006
10757	17.289	3.5455	0.	1.4835e-002
10758	17.197	3.6364	0.	1.4716e-002
10759	17.289	3.6364	5.e-002	3.8178e-006
10760	17.289	3.3636	0.	1.4415e-002
10761	17.197	3.4545	0.	1.4285e-002
10762	17.289	3.4545	5.e-002	3.8165e-006
10763	17.289	3.1818	0.	1.4144e-002
10764	17.197	3.2727	0.	1.3963e-002
10765	17.289	3.2727	5.e-002	3.8103e-006
10766	17.289	3.	0.	1.405e-002
10767	17.197	3.0909	0.	1.3793e-002
10768	17.289	3.0909	5.e-002	4.289e-006
10769	17.289	2.8182	0.	1.4144e-002
10770	17.197	2.9091	0.	1.3793e-002
10771	17.289	2.9091	5.e-002	6.6772e-006
10772	17.289	2.6364	0.	1.4415e-002
10773	17.197	2.7273	0.	1.3963e-002
10774	17.289	2.7273	5.e-002	5.729e-006
10775	17.289	2.4545	0.	1.4836e-002
10776	17.197	2.5455	0.	1.4285e-002
10777	17.289	2.5455	5.e-002	4.7668e-006
10778	17.289	2.2727	0.	1.5353e-002
10779	17.197	2.3636	0.	1.4717e-002
10780	17.289	2.3636	5.e-002	4.7592e-006
10781	17.289	2.0909	0.	1.5885e-002
10782	17.197	2.1818	0.	1.519e-002
10783	17.289	2.1818	5.e-002	3.8137e-006
10784	17.289	1.9091	0.	1.6314e-002
10785	17.197	2.	0.	1.5614e-002
10786	17.289	2.	5.e-002	3.8198e-006
10787	17.289	1.7273	0.	1.6491e-002
10788	17.197	1.8182	0.	1.5854e-002
10789	17.289	1.8182	5.e-002	5.2454e-006
10790	17.289	1.5455	0.	1.6227e-002
10791	17.197	1.6364	0.	1.5757e-002
10792	17.289	1.6364	5.e-002	4.2923e-006
10793	17.289	1.3636	0.	1.5301e-002
10794	17.197	1.4545	0.	1.5118e-002
10795	17.289	1.4545	5.e-002	4.2974e-006
10796	17.289	1.1818	0.	1.3372e-002
10797	17.197	1.2727	0.	1.3717e-002
10798	17.289	1.2727	5.e-002	4.3584e-006
10799	17.289	1.	0.	1.0206e-002
10800	17.197	1.0909	0.	1.1111e-002
10801	17.289	1.0909	5.e-002	2.3701e-006
10802	17.289	0.81818	0.	4.3558e-003
10803	17.197	0.90909	0.	7.2805e-003
10804	17.289	0.90909	5.e-002	3.4553e-006
10805	17.289	0.63636	0.	-2.1731e-003
10806	17.197	0.72727	0.	-5.4376e-004
10807	17.289	0.72727	5.e-002	5.1193e-006
10808	17.289	0.45455	0.	-2.9575e-002
10809	17.197	0.54545	0.	-5.8759e-003
10810	17.289	0.54545	5.e-002	7.9848e-006
10811	17.289	0.27273	0.	-4.3297e-002
10812	17.197	0.36364	0.	-5.3426e-002
10813	17.289	0.36364	5.e-002	7.2734e-006
10814	17.197	0.18182	0.	-2.3174e-002
10815	17.289	0.18182	5.e-002	9.881e-006
10816	17.289	9.0909e-002	0.	-8.9337e-003
10817	17.105	5.7273	0.	-3.8439e-002
10818	17.013	5.8182	0.	-1.8014e-002
10819	17.105	5.8182	5.e-002	1.46e-005
10820	17.105	5.9091	0.	-9.0228e-003
10821	17.105	5.5455	0.	-2.7813e-002
10822	17.013	5.6364	0.	-4.8959e-002
10823	17.105	5.6364	5.e-002	5.1208e-006
10824	17.105	5.3636	0.	-3.165e-003
10825	17.013	5.4545	0.	-6.496e-003
10826	17.105	5.4545	5.e-002	6.5549e-006
10827	17.105	5.1818	0.	2.9686e-003
10828	17.013	5.2727	0.	-1.5262e-003
10829	17.105	5.2727	5.e-002	3.4981e-006
10830	17.105	5.	0.	8.5245e-003
10831	17.013	5.0909	0.	5.7814e-003
10832	17.105	5.0909	5.e-002	3.5599e-006
10833	17.105	4.8182	0.	1.1656e-002
10834	17.013	4.9091	0.	9.504e-003
10835	17.105	4.9091	5.e-002	2.128e-006
10836	17.105	4.6364	0.	1.3648e-002
10837	17.013	4.7273	0.	1.2108e-002
10838	17.105	4.7273	5.e-002	7.032e-007
10839	17.105	4.4545	0.	1.4708e-002
10840	17.013	4.5455	0.	1.3601e-002
10841	17.105	4.5455	5.e-002	1.9187e-006
10842	17.105	4.2727	0.	1.5147e-002
10843	17.013	4.3636	0.	1.4384e-002
10844	17.105	4.3636	5.e-002	8.1936e-009
10845	17.105	4.0909	0.	1.5159e-002
10846	17.013	4.1818	0.	1.4655e-002
10847	17.105	4.1818	5.e-002	6.3625e-009
10848	17.105	3.9091	0.	1.4915e-002
10849	17.013	4.	0.	1.4592e-002
10850	17.105	4.	5.e-002	9.5377e-007
10851	17.105	3.7273	0.	1.4546e-002
10852	17.013	3.8182	0.	1.4339e-002
10853	17.105	3.8182	5.e-002	1.4322e-006
10854	17.105	3.5455	0.	1.4158e-002
10855	17.013	3.6364	0.	1.4006e-002
10856	17.105	3.6364	5.e-002	3.3347e-006
10857	17.105	3.3636	0.	1.3829e-002
10858	17.013	3.4545	0.	1.3684e-002
10859	17.105	3.4545	5.e-002	3.3358e-006
10860	17.105	3.1818	0.	1.3611e-002
10861	17.013	3.2727	0.	1.3436e-002
10862	17.105	3.2727	5.e-002	1.9069e-006
10863	17.105	3.	0.	1.3536e-002
10864	17.013	3.0909	0.	1.3302e-002
10865	17.105	3.0909	5.e-002	3.3371e-006
10866	17.105	2.8182	0.	1.3611e-002
10867	17.013	2.9091	0.	1.3302e-002
10868	17.105	2.9091	5.e-002	4.2922e-006
10869	17.105	2.6364	0.	1.3828e-002
10870	17.013	2.7273	0.	1.3436e-002
10871	17.105	2.7273	5.e-002	3.8155e-006
10872	17.105	2.4545	0.	1.4158e-002
10873	17.013	2.5455	0.	1.3684e-002
10874	17.105	2.5455	5.e-002	3.8154e-006
10875	17.105	2.2727	0.	1.4545e-002
10876	17.013	2.3636	0.	1.4006e-002
10877	17.105	2.3636	5.e-002	3.8204e-006
10878	17.105	2.0909	0.	1.4915e-002
10879	17.013	2.1818	0.	1.4338e-002
10880	17.105	2.1818	5.e-002	3.3324e-006
10881	17.105	1.9091	0.	1.516e-002
10882	17.013	2.	0.	1.4593e-002
10883	17.105	2.	5.e-002	3.338e-006
10884	17.105	1.7273	0.	1.5147e-002
10885	17.013	1.8182	0.	1.4655e-002
10886	17.105	1.8182	5.e-002	2.8568e-006
10887	17.105	1.5455	0.	1.4709e-002
10888	17.013	1.6364	0.	1.4385e-002
10889	17.105	1.6364	5.e-002	2.3917e-006
10890	17.105	1.3636	0.	1.3648e-002
10891	17.013	1.4545	0.	1.3601e-002
10892	17.105	1.4545	5.e-002	2.8289e-006
10893	17.105	1.1818	0.	1.1656e-002
10894	17.013	1.2727	0.	1.2109e-002
10895	17.105	1.2727	5.e-002	2.9148e-006
10896	17.105	1.	0.	8.5253e-003
10897	17.013	1.0909	0.	9.5044e-003
10898	17.105	1.0909	5.e-002	2.7318e-006
10899	17.105	0.81818	0.	2.9703e-003
10900	17.013	0.90909	0.	5.7828e-003
10901	17.105	0.90909	5.e-002	2.9371e-006
10902	17.105	0.63636	0.	-3.1643e-003
10903	17.013	0.72727	0.	-1.5247e-003
10904	17.105	0.72727	5.e-002	4.7238e-006
10905	17.105	0.45455	0.	-2.7814e-002
10906	17.013	0.54545	0.	-6.497e-003
10907	17.105	0.54545	5.e-002	6.0525e-006
10908	17.105	0.27273	0.	-3.844e-002
10909	17.013	0.36364	0.	-4.8959e-002
10910	17.105	0.36364	5.e-002	5.6149e-006
10911	17.013	0.18182	0.	-1.8013e-002
10912	17.105	0.18182	5.e-002	8.0908e-006
10913	17.105	9.0909e-002	0.	-9.0232e-003
10914	16.921	5.7273	0.	-3.4193e-002
10915	16.829	5.8182	0.	-1.3943e-002
10916	16.921	5.8182	5.e-002	1.6188e-005
10917	16.921	5.9091	0.	-8.9833e-003
10918	16.921	5.5455	0.	-2.6116e-002
10919	16.829	5.6364	0.	-4.4913e-002
10920	16.921	5.6364	5.e-002	6.3942e-006
10921	16.921	5.3636	0.	-3.9297e-003
10922	16.829	5.4545	0.	-6.9174e-003
10923	16.921	5.4545	5.e-002	6.5791e-006
10924	16.921	5.1818	0.	1.8071e-003
10925	16.829	5.2727	0.	-2.313e-003
10926	16.921	5.2727	5.e-002	2.9897e-006
10927	16.921	5.	0.	7.0685e-003
10928	16.829	5.0909	0.	4.5024e-003
10929	16.921	5.0909	5.e-002	2.6045e-006
10930	16.921	4.8182	0.	1.0142e-002
10931	16.829	4.9091	0.	8.1019e-003
10932	16.921	4.9091	5.e-002	1.957e-006
10933	16.921	4.6364	0.	1.2173e-002
10934	16.829	4.7273	0.	1.0684e-002
10935	16.921	4.7273	5.e-002	-3.2093e-007
10936	16.921	4.4545	0.	1.3341e-002
10937	16.829	4.5455	0.	1.2246e-002
10938	16.921	4.5455	5.e-002	1.8414e-006
10939	16.921	4.2727	0.	1.3926e-002
10940	16.829	4.3636	0.	1.3146e-002
10941	16.921	4.3636	5.e-002	-4.6164e-007
10942	16.921	4.0909	0.	1.4102e-002
10943	16.829	4.1818	0.	1.3564e-002
10944	16.921	4.1818	5.e-002	-4.7676e-007
10945	16.921	3.9091	0.	1.402e-002
10946	16.829	4.	0.	1.3656e-002
10947	16.921	4.	5.e-002	-4.8173e-007
10948	16.921	3.7273	0.	1.3798e-002
10949	16.829	3.8182	0.	1.3551e-002
10950	16.921	3.8182	5.e-002	-7.03e-010
10951	16.921	3.5455	0.	1.3531e-002
10952	16.829	3.6364	0.	1.3348e-002
10953	16.921	3.6364	5.e-002	1.9084e-006
10954	16.921	3.3636	0.	1.3291e-002
10955	16.829	3.4545	0.	1.3129e-002
10956	16.921	3.4545	5.e-002	9.5799e-007
10957	16.921	3.1818	0.	1.3128e-002
10958	16.829	3.2727	0.	1.2951e-002
10959	16.921	3.2727	5.e-002	1.9081e-006
10960	16.921	3.	0.	1.307e-002
10961	16.829	3.0909	0.	1.2852e-002
10962	16.921	3.0909	5.e-002	1.9074e-006
10963	16.921	2.8182	0.	1.3127e-002
10964	16.829	2.9091	0.	1.2853e-002
10965	16.921	2.9091	5.e-002	2.8608e-006
10966	16.921	2.6364	0.	1.3291e-002
10967	16.829	2.7273	0.	1.2951e-002
10968	16.921	2.7273	5.e-002	2.8605e-006
10969	16.921	2.4545	0.	1.3531e-002
10970	16.829	2.5455	0.	1.313e-002
10971	16.921	2.5455	5.e-002	2.8611e-006
10972	16.921	2.2727	0.	1.3798e-002
10973	16.829	2.3636	0.	1.3348e-002
10974	16.921	2.3636	5.e-002	2.3833e-006
10975	16.921	2.0909	0.	1.402e-002
10976	16.829	2.1818	0.	1.3551e-002
10977	16.921	2.1818	5.e-002	2.3835e-006
10978	16.921	1.9091	0.	1.4102e-002
10979	16.829	2.	0.	1.3657e-002
10980	16.921	2.	5.e-002	1.9132e-006
10981	16.921	1.7273	0.	1.3926e-002
10982	16.829	1.8182	0.	1.3563e-002
10983	16.921	1.8182	5.e-002	2.8656e-006
10984	16.921	1.5455	0.	1.3341e-002
10985	16.829	1.6364	0.	1.3148e-002
10986	16.921	1.6364	5.e-002	2.398e-006
10987	16.921	1.3636	0.	1.2173e-002
10988	16.829	1.4545	0.	1.2246e-002
10989	16.921	1.4545	5.e-002	1.9098e-006
10990	16.921	1.1818	0.	1.0143e-002
10991	16.829	1.2727	0.	1.0684e-002
10992	16.921	1.2727	5.e-002	2.9766e-006
10993	16.921	1.	0.	7.0694e-003
10994	16.829	1.0909	0.	8.1025e-003
10995	16.921	1.0909	5.e-002	3.0233e-006
10996	16.921	0.81818	0.	1.8084e-003
10997	16.829	0.90909	0.	4.5033e-003
10998	16.921	0.90909	5.e-002	2.8771e-006
10999	16.921	0.63636	0.	-3.9299e-003
11000	16.829	0.72727	0.	-2.3114e-003
11001	16.921	0.72727	5.e-002	4.2097e-006
11002	16.921	0.45455	0.	-2.6117e-002
11003	16.829	0.54545	0.	-6.918e-003
11004	16.921	0.54545	5.e-002	3.3881e-006
11005	16.921	0.27273	0.	-3.4192e-002
11006	16.829	0.36364	0.	-4.4914e-002
11007	16.921	0.36364	5.e-002	4.2412e-006
11008	16.829	0.18182	0.	-1.3941e-002
11009	16.921	0.18182	5.e-002	3.0034e-006
11010	16.921	9.0909e-002	0.	-8.9828e-003
11011	16.737	5.7273	0.	-3.0507e-002
11012	16.646	5.8182	0.	-1.0764e-002
11013	16.737	5.8182	5.e-002	1.1165e-005
11014	16.737	5.9091	0.	-8.8525e-003
11015	16.737	5.5455	0.	-2.4506e-002
11016	16.646	5.6364	0.	-4.128e-002
11017	16.737	5.6364	5.e-002	5.4871e-006
11018	16.737	5.3636	0.	-4.5067e-003
11019	16.646	5.4545	0.	-7.1955e-003
11020	16.737	5.4545	5.e-002	5.1558e-006
11021	16.737	5.1818	0.	8.4203e-004
11022	16.646	5.2727	0.	-2.9464e-003
11023	16.737	5.2727	5.e-002	2.6025e-006
11024	16.737	5.	0.	5.8144e-003
11025	16.646	5.0909	0.	3.4049e-003
11026	16.737	5.0909	5.e-002	2.6083e-006
11027	16.737	4.8182	0.	8.8163e-003
11028	16.646	4.9091	0.	6.8727e-003
11029	16.737	4.9091	5.e-002	1.1212e-006
11030	16.737	4.6364	0.	1.0864e-002
11031	16.646	4.7273	0.	9.4179e-003
11032	16.737	4.7273	5.e-002	-8.8157e-007
11033	16.737	4.4545	0.	1.2116e-002
11034	16.646	4.5455	0.	1.1028e-002
11035	16.737	4.5455	5.e-002	1.3997e-006
11036	16.737	4.2727	0.	1.2823e-002
11037	16.646	4.3636	0.	1.2023e-002
11038	16.737	4.3636	5.e-002	-1.9101e-006
11039	16.737	4.0909	0.	1.3139e-002
11040	16.646	4.1818	0.	1.2564e-002
11041	16.737	4.1818	5.e-002	-9.6069e-007
11042	16.737	3.9091	0.	1.3198e-002
11043	16.646	4.	0.	1.2789e-002
11044	16.737	4.	5.e-002	-1.4493e-006
11045	16.737	3.7273	0.	1.3107e-002
11046	16.646	3.8182	0.	1.2813e-002
11047	16.737	3.8182	5.e-002	-1.0207e-008
11048	16.737	3.5455	0.	1.295e-002
11049	16.646	3.6364	0.	1.2725e-002
11050	16.737	3.6364	5.e-002	9.5009e-007
11051	16.737	3.3636	0.	1.2793e-002
11052	16.646	3.4545	0.	1.2599e-002
11053	16.737	3.4545	5.e-002	1.9057e-006
11054	16.737	3.1818	0.	1.2679e-002
11055	16.646	3.2727	0.	1.2486e-002
11056	16.737	3.2727	5.e-002	1.4103e-010
11057	16.737	3.	0.	1.2639e-002
11058	16.646	3.0909	0.	1.242e-002
11059	16.737	3.0909	5.e-002	1.9075e-006
11060	16.737	2.8182	0.	1.268e-002
11061	16.646	2.9091	0.	1.2421e-002
11062	16.737	2.9091	5.e-002	3.3377e-006
11063	16.737	2.6364	0.	1.2793e-002
11064	16.646	2.7273	0.	1.2485e-002
11065	16.737	2.7273	5.e-002	2.8609e-006
11066	16.737	2.4545	0.	1.2951e-002
11067	16.646	2.5455	0.	1.26e-002
11068	16.737	2.5455	5.e-002	1.909e-006
11069	16.737	2.2727	0.	1.3107e-002
11070	16.646	2.3636	0.	1.2725e-002
11071	16.737	2.3636	5.e-002	1.9122e-006
11072	16.737	2.0909	0.	1.3199e-002
11073	16.646	2.1818	0.	1.2813e-002
11074	16.737	2.1818	5.e-002	2.4072e-006
11075	16.737	1.9091	0.	1.3139e-002
11076	16.646	2.	0.	1.279e-002
11077	16.737	2.	5.e-002	2.4065e-006
11078	16.737	1.7273	0.	1.2823e-002
11079	16.646	1.8182	0.	1.2563e-002
11080	16.737	1.8182	5.e-002	2.4605e-006
11081	16.737	1.5455	0.	1.2118e-002
11082	16.646	1.6364	0.	1.2024e-002
11083	16.737	1.6364	5.e-002	2.418e-006
11084	16.737	1.3636	0.	1.0865e-002
11085	16.646	1.4545	0.	1.1028e-002
11086	16.737	1.4545	5.e-002	2.5196e-006
11087	16.737	1.1818	0.	8.8167e-003
11088	16.646	1.2727	0.	9.4177e-003
11089	16.737	1.2727	5.e-002	2.0291e-006
11090	16.737	1.	0.	5.815e-003
11091	16.646	1.0909	0.	6.873e-003
11092	16.737	1.0909	5.e-002	2.9064e-006
11093	16.737	0.81818	0.	8.4335e-004
11094	16.646	0.90909	0.	3.406e-003
11095	16.737	0.90909	5.e-002	3.6267e-006
11096	16.737	0.63636	0.	-4.5055e-003
11097	16.646	0.72727	0.	-2.9443e-003
11098	16.737	0.72727	5.e-002	3.4294e-006
11099	16.737	0.45455	0.	-2.4507e-002
11100	16.646	0.54545	0.	-7.1954e-003
11101	16.737	0.54545	5.e-002	3.662e-006
11102	16.737	0.27273	0.	-3.0507e-002
11103	16.646	0.36364	0.	-4.1282e-002
11104	16.737	0.36364	5.e-002	3.172e-006
11105	16.646	0.18182	0.	-1.0763e-002
11106	16.737	0.18182	5.e-002	3.6368e-006
11107	16.737	9.0909e-002	0.	-8.8528e-003
11108	16.554	5.7273	0.	-2.7345e-002
11109	16.462	5.8182	0.	-8.296e-003
11110	16.554	5.8182	5.e-002	1.4965e-005
11111	16.554	5.9091	0.	-8.682e-003
11112	16.554	5.5455	0.	-2.302e-002
11113	16.462	5.6364	0.	-3.8029e-002
11114	16.554	5.6364	5.e-002	4.2872e-006
11115	16.554	5.3636	0.	-4.9558e-003
11116	16.462	5.4545	0.	-7.3642e-003
11117	16.554	5.4545	5.e-002	5.3784e-006
11118	16.554	5.1818	0.	2.2771e-005
11119	16.462	5.2727	0.	-3.4512e-003
11120	16.554	5.2727	5.e-002	2.4727e-006
11121	16.554	5.	0.	4.7158e-003
11122	16.462	5.0909	0.	2.4675e-003
11123	16.554	5.0909	5.e-002	2.0844e-006
11124	16.554	4.8182	0.	7.6353e-003
11125	16.462	4.9091	0.	5.7992e-003
11126	16.554	4.9091	5.e-002	1.2953e-006
11127	16.554	4.6364	0.	9.6849e-003
11128	16.462	4.7273	0.	8.2968e-003
11129	16.554	4.7273	5.e-002	-6.9666e-007
11130	16.554	4.4545	0.	1.1001e-002
11131	16.462	4.5455	0.	9.9377e-003
11132	16.554	4.5455	5.e-002	5.7069e-007
11133	16.554	4.2727	0.	1.1807e-002
11134	16.462	4.3636	0.	1.1009e-002
11135	16.554	4.3636	5.e-002	-9.5491e-007
11136	16.554	4.0909	0.	1.224e-002
11137	16.462	4.1818	0.	1.165e-002
11138	16.554	4.1818	5.e-002	-1.4432e-006
11139	16.554	3.9091	0.	1.2421e-002
11140	16.462	4.	0.	1.1988e-002
11141	16.554	4.	5.e-002	-1.4269e-006
11142	16.554	3.7273	0.	1.2443e-002
11143	16.462	3.8182	0.	1.2123e-002
11144	16.554	3.8182	5.e-002	-4.7395e-007
11145	16.554	3.5455	0.	1.2383e-002
11146	16.462	3.6364	0.	1.2136e-002
11147	16.554	3.6364	5.e-002	2.3818e-006
11148	16.554	3.3636	0.	1.23e-002
11149	16.462	3.4545	0.	1.2091e-002
11150	16.554	3.4545	5.e-002	1.9062e-006
11151	16.554	3.1818	0.	1.2233e-002
11152	16.462	3.2727	0.	1.2035e-002
11153	16.554	3.2727	5.e-002	4.7614e-007
11154	16.554	3.	0.	1.2208e-002
11155	16.462	3.0909	0.	1.1999e-002
11156	16.554	3.0909	5.e-002	2.3842e-006
11157	16.554	2.8182	0.	1.2233e-002
11158	16.462	2.9091	0.	1.1999e-002
11159	16.554	2.9091	5.e-002	3.338e-006
11160	16.554	2.6364	0.	1.23e-002
11161	16.462	2.7273	0.	1.2035e-002
11162	16.554	2.7273	5.e-002	2.3854e-006
11163	16.554	2.4545	0.	1.2383e-002
11164	16.462	2.5455	0.	1.2091e-002
11165	16.554	2.5455	5.e-002	2.8617e-006
11166	16.554	2.2727	0.	1.2443e-002
11167	16.462	2.3636	0.	1.2136e-002
11168	16.554	2.3636	5.e-002	1.905e-006
11169	16.554	2.0909	0.	1.2421e-002
11170	16.462	2.1818	0.	1.2123e-002
11171	16.554	2.1818	5.e-002	1.4439e-006
11172	16.554	1.9091	0.	1.2241e-002
11173	16.462	2.	0.	1.1988e-002
11174	16.554	2.	5.e-002	1.9308e-006
11175	16.554	1.7273	0.	1.1807e-002
11176	16.462	1.8182	0.	1.1651e-002
11177	16.554	1.8182	5.e-002	2.3967e-006
11178	16.554	1.5455	0.	1.1002e-002
11179	16.462	1.6364	0.	1.1009e-002
11180	16.554	1.6364	5.e-002	2.4077e-006
11181	16.554	1.3636	0.	9.6851e-003
11182	16.462	1.4545	0.	9.9378e-003
11183	16.554	1.4545	5.e-002	1.8542e-006
11184	16.554	1.1818	0.	7.635e-003
11185	16.462	1.2727	0.	8.297e-003
11186	16.554	1.2727	5.e-002	2.8899e-006
11187	16.554	1.	0.	4.7166e-003
11188	16.462	1.0909	0.	5.7997e-003
11189	16.554	1.0909	5.e-002	2.2456e-006
11190	16.554	0.81818	0.	2.4712e-005
11191	16.462	0.90909	0.	2.4691e-003
11192	16.554	0.90909	5.e-002	4.1425e-006
11193	16.554	0.63636	0.	-4.9546e-003
11194	16.462	0.72727	0.	-3.4493e-003
11195	16.554	0.72727	5.e-002	4.6037e-006
11196	16.554	0.45455	0.	-2.302e-002
11197	16.462	0.54545	0.	-7.3636e-003
11198	16.554	0.54545	5.e-002	4.1545e-006
11199	16.554	0.27273	0.	-2.7346e-002
11200	16.462	0.36364	0.	-3.8029e-002
11201	16.554	0.36364	5.e-002	4.1954e-006
11202	16.462	0.18182	0.	-8.297e-003
11203	16.554	0.18182	5.e-002	2.7015e-006
11204	16.554	9.0909e-002	0.	-8.6821e-003
11205	16.37	5.7273	0.	-2.4614e-002
11206	16.278	5.8182	0.	-6.3779e-003
11207	16.37	5.8182	5.e-002	8.2114e-006
11208	16.37	5.9091	0.	-8.4642e-003
11209	16.37	5.5455	0.	-2.1631e-002
11210	16.278	5.6364	0.	-3.5106e-002
11211	16.37	5.6364	5.e-002	3.9117e-006
11212	16.37	5.3636	0.	-5.2785e-003
11213	16.278	5.4545	0.	-7.4326e-003
11214	16.37	5.4545	5.e-002	4.7853e-006
11215	16.37	5.1818	0.	-6.4729e-004
11216	16.278	5.2727	0.	-3.8343e-003
11217	16.37	5.2727	5.e-002	2.2311e-006
11218	16.37	5.	0.	3.7801e-003
11219	16.278	5.0909	0.	1.6846e-003
11220	16.37	5.0909	5.e-002	2.0979e-006
11221	16.37	4.8182	0.	6.5993e-003
11222	16.278	4.9091	0.	4.8789e-003
11223	16.37	4.9091	5.e-002	1.848e-006
11224	16.37	4.6364	0.	8.6493e-003
11225	16.278	4.7273	0.	7.3314e-003
11226	16.37	4.7273	5.e-002	-3.146e-007
11227	16.37	4.4545	0.	1.0012e-002
11228	16.278	4.5455	0.	8.9786e-003
11229	16.37	4.5455	5.e-002	4.2515e-007
11230	16.37	4.2727	0.	1.0897e-002
11231	16.278	4.3636	0.	1.0108e-002
11232	16.37	4.3636	5.e-002	-9.9682e-007
11233	16.37	4.0909	0.	1.1428e-002
11234	16.278	4.1818	0.	1.0831e-002
11235	16.37	4.1818	5.e-002	-1.4353e-006
11236	16.37	3.9091	0.	1.1712e-002
11237	16.278	4.	0.	1.1263e-002
11238	16.37	4.	5.e-002	-9.4882e-007
11239	16.37	3.7273	0.	1.1832e-002
11240	16.278	3.8182	0.	1.1493e-002
11241	16.37	3.8182	5.e-002	-4.8619e-007
11242	16.37	3.5455	0.	1.1857e-002
11243	16.278	3.6364	0.	1.1591e-002
11244	16.37	3.6364	5.e-002	1.4315e-006
11245	16.37	3.3636	0.	1.1838e-002
11246	16.278	3.4545	0.	1.1618e-002
11247	16.37	3.4545	5.e-002	1.9081e-006
11248	16.37	3.1818	0.	1.1811e-002
11249	16.278	3.2727	0.	1.1612e-002
11250	16.37	3.2727	5.e-002	1.2565e-010
11251	16.37	3.	0.	1.18e-002
11252	16.278	3.0909	0.	1.1601e-002
11253	16.37	3.0909	5.e-002	1.9076e-006
11254	16.37	2.8182	0.	1.1811e-002
11255	16.278	2.9091	0.	1.1601e-002
11256	16.37	2.9091	5.e-002	3.3378e-006
11257	16.37	2.6364	0.	1.1837e-002
11258	16.278	2.7273	0.	1.1612e-002
11259	16.37	2.7273	5.e-002	3.8155e-006
11260	16.37	2.4545	0.	1.1856e-002
11261	16.278	2.5455	0.	1.1618e-002
11262	16.37	2.5455	5.e-002	2.3825e-006
11263	16.37	2.2727	0.	1.1832e-002
11264	16.278	2.3636	0.	1.1592e-002
11265	16.37	2.3636	5.e-002	1.9043e-006
11266	16.37	2.0909	0.	1.1712e-002
11267	16.278	2.1818	0.	1.1493e-002
11268	16.37	2.1818	5.e-002	1.449e-006
11269	16.37	1.9091	0.	1.1428e-002
11270	16.278	2.	0.	1.1264e-002
11271	16.37	2.	5.e-002	1.9205e-006
11272	16.37	1.7273	0.	1.0897e-002
11273	16.278	1.8182	0.	1.0832e-002
11274	16.37	1.8182	5.e-002	1.9147e-006
11275	16.37	1.5455	0.	1.0012e-002
11276	16.278	1.6364	0.	1.0108e-002
11277	16.37	1.6364	5.e-002	1.4286e-006
11278	16.37	1.3636	0.	8.6493e-003
11279	16.278	1.4545	0.	8.979e-003
11280	16.37	1.4545	5.e-002	2.5005e-006
11281	16.37	1.1818	0.	6.5992e-003
11282	16.278	1.2727	0.	7.3313e-003
11283	16.37	1.2727	5.e-002	1.8467e-006
11284	16.37	1.	0.	3.7814e-003
11285	16.278	1.0909	0.	4.8802e-003
11286	16.37	1.0909	5.e-002	1.6634e-006
11287	16.37	0.81818	0.	-6.4574e-004
11288	16.278	0.90909	0.	1.686e-003
11289	16.37	0.90909	5.e-002	3.1174e-006
11290	16.37	0.63636	0.	-5.277e-003
11291	16.278	0.72727	0.	-3.8323e-003
11292	16.37	0.72727	5.e-002	4.651e-006
11293	16.37	0.45455	0.	-2.1631e-002
11294	16.278	0.54545	0.	-7.4328e-003
11295	16.37	0.54545	5.e-002	4.6125e-006
11296	16.37	0.27273	0.	-2.4615e-002
11297	16.278	0.36364	0.	-3.5107e-002
11298	16.37	0.36364	5.e-002	4.7956e-006
11299	16.278	0.18182	0.	-6.3773e-003
11300	16.37	0.18182	5.e-002	1.296e-006
11301	16.37	9.0909e-002	0.	-8.4637e-003
11302	16.186	5.7273	0.	-2.2249e-002
11303	16.094	5.8182	0.	-4.8845e-003
11304	16.186	5.8182	5.e-002	8.5166e-006
11305	16.186	5.9091	0.	-8.2106e-003
11306	16.186	5.5455	0.	-2.0333e-002
11307	16.094	5.6364	0.	-3.2469e-002
11308	16.186	5.6364	5.e-002	4.6623e-006
11309	16.186	5.3636	0.	-5.4914e-003
11310	16.094	5.4545	0.	-7.4173e-003
11311	16.186	5.4545	5.e-002	5.4713e-006
11312	16.186	5.1818	0.	-1.1849e-003
11313	16.094	5.2727	0.	-4.1091e-003
11314	16.186	5.2727	5.e-002	2.0623e-006
11315	16.186	5.	0.	2.9913e-003
11316	16.094	5.0909	0.	1.0414e-003
11317	16.186	5.0909	5.e-002	2.3275e-006
11318	16.186	4.8182	0.	5.7293e-003
11319	16.094	4.9091	0.	4.1001e-003
11320	16.186	4.9091	5.e-002	8.0732e-007
11321	16.186	4.6364	0.	7.7463e-003
11322	16.094	4.7273	0.	6.4821e-003
11323	16.186	4.7273	5.e-002	-1.1222e-006
11324	16.186	4.4545	0.	9.1406e-003
11325	16.094	4.5455	0.	8.1436e-003
11326	16.186	4.5455	5.e-002	-2.7987e-008
11327	16.186	4.2727	0.	1.0097e-002
11328	16.094	4.3636	0.	9.3156e-003
11329	16.186	4.3636	5.e-002	-1.489e-006
11330	16.186	4.0909	0.	1.07e-002
11331	16.094	4.1818	0.	1.0105e-002
11332	16.186	4.1818	5.e-002	-9.7222e-007
11333	16.186	3.9091	0.	1.107e-002
11334	16.094	4.	0.	1.0616e-002
11335	16.186	4.	5.e-002	-1.5724e-009
11336	16.186	3.7273	0.	1.1273e-002
11337	16.094	3.8182	0.	1.0924e-002
11338	16.186	3.8182	5.e-002	-2.3883e-008
11339	16.186	3.5455	0.	1.1369e-002
11340	16.094	3.6364	0.	1.1096e-002
11341	16.186	3.6364	5.e-002	1.4208e-006
11342	16.186	3.3636	0.	1.1407e-002
11343	16.094	3.4545	0.	1.1183e-002
11344	16.186	3.4545	5.e-002	9.4484e-007
11345	16.186	3.1818	0.	1.1415e-002
11346	16.094	3.2727	0.	1.1219e-002
11347	16.186	3.2727	5.e-002	9.4852e-007
11348	16.186	3.	0.	1.1416e-002
11349	16.094	3.0909	0.	1.123e-002
11350	16.186	3.0909	5.e-002	1.4291e-006
11351	16.186	2.8182	0.	1.1416e-002
11352	16.094	2.9091	0.	1.1231e-002
11353	16.186	2.9091	5.e-002	1.9089e-006
11354	16.186	2.6364	0.	1.1407e-002
11355	16.094	2.7273	0.	1.1219e-002
11356	16.186	2.7273	5.e-002	2.8657e-006
11357	16.186	2.4545	0.	1.137e-002
11358	16.094	2.5455	0.	1.1183e-002
11359	16.186	2.5455	5.e-002	2.3911e-006
11360	16.186	2.2727	0.	1.1273e-002
11361	16.094	2.3636	0.	1.1097e-002
11362	16.186	2.3636	5.e-002	1.9167e-006
11363	16.186	2.0909	0.	1.107e-002
11364	16.094	2.1818	0.	1.0924e-002
11365	16.186	2.1818	5.e-002	1.9369e-006
11366	16.186	1.9091	0.	1.0701e-002
11367	16.094	2.	0.	1.0616e-002
11368	16.186	2.	5.e-002	1.9122e-006
11369	16.186	1.7273	0.	1.0097e-002
11370	16.094	1.8182	0.	1.0105e-002
11371	16.186	1.8182	5.e-002	2.43e-006
11372	16.186	1.5455	0.	9.1415e-003
11373	16.094	1.6364	0.	9.3155e-003
11374	16.186	1.6364	5.e-002	3.3647e-006
11375	16.186	1.3636	0.	7.7467e-003
11376	16.094	1.4545	0.	8.1447e-003
11377	16.186	1.4545	5.e-002	1.9275e-006
11378	16.186	1.1818	0.	5.7296e-003
11379	16.094	1.2727	0.	6.4816e-003
11380	16.186	1.2727	5.e-002	2.1747e-006
11381	16.186	1.	0.	2.9928e-003
11382	16.094	1.0909	0.	4.1011e-003
11383	16.186	1.0909	5.e-002	2.424e-006
11384	16.186	0.81818	0.	-1.183e-003
11385	16.094	0.90909	0.	1.0423e-003
11386	16.186	0.90909	5.e-002	1.9547e-006
11387	16.186	0.63636	0.	-5.491e-003
11388	16.094	0.72727	0.	-4.1064e-003
11389	16.186	0.72727	5.e-002	3.0108e-006
11390	16.186	0.45455	0.	-2.0334e-002
11391	16.094	0.54545	0.	-7.4186e-003
11392	16.186	0.54545	5.e-002	3.0897e-006
11393	16.186	0.27273	0.	-2.2249e-002
11394	16.094	0.36364	0.	-3.247e-002
11395	16.186	0.36364	5.e-002	5.2406e-006
11396	16.094	0.18182	0.	-4.8828e-003
11397	16.186	0.18182	5.e-002	4.9862e-006
11398	16.186	9.0909e-002	0.	-8.2097e-003
11399	16.002	5.7273	0.	-2.0188e-002
11400	15.91	5.8182	0.	-3.7171e-003
11401	16.002	5.8182	5.e-002	9.0717e-006
11402	16.002	5.9091	0.	-7.925e-003
11403	16.002	5.5455	0.	-1.9114e-002
11404	15.91	5.6364	0.	-3.0081e-002
11405	16.002	5.6364	5.e-002	4.3648e-006
11406	16.002	5.3636	0.	-5.61e-003
11407	15.91	5.4545	0.	-7.3328e-003
11408	16.002	5.4545	5.e-002	4.3009e-006
11409	16.002	5.1818	0.	-1.6021e-003
11410	15.91	5.2727	0.	-4.2879e-003
11411	16.002	5.2727	5.e-002	1.1278e-006
11412	16.002	5.	0.	2.339e-003
11413	15.91	5.0909	0.	5.2246e-004
11414	16.002	5.0909	5.e-002	1.5393e-006
11415	16.002	4.8182	0.	4.9829e-003
11416	15.91	4.9091	0.	3.4492e-003
11417	16.002	4.9091	5.e-002	6.0537e-007
11418	16.002	4.6364	0.	6.9707e-003
11419	15.91	4.7273	0.	5.7666e-003
11420	16.002	4.7273	5.e-002	-8.2409e-007
11421	16.002	4.4545	0.	8.384e-003
11422	15.91	4.5455	0.	7.4242e-003
11423	16.002	4.5455	5.e-002	4.9498e-007
11424	16.002	4.2727	0.	9.3799e-003
11425	15.91	4.3636	0.	8.625e-003
11426	16.002	4.3636	5.e-002	-1.9352e-006
11427	16.002	4.0909	0.	1.0056e-002
11428	15.91	4.1818	0.	9.4676e-003
11429	16.002	4.1818	5.e-002	-1.5411e-006
11430	16.002	3.9091	0.	1.0497e-002
11431	15.91	4.	0.	1.0041e-002
11432	16.002	4.	5.e-002	-1.0236e-006
11433	16.002	3.7273	0.	1.077e-002
11434	15.91	3.8182	0.	1.0415e-002
11435	16.002	3.8182	5.e-002	-1.0045e-006
11436	16.002	3.5455	0.	1.0928e-002
11437	15.91	3.6364	0.	1.0648e-002
11438	16.002	3.6364	5.e-002	1.3879e-006
11439	16.002	3.3636	0.	1.1012e-002
11440	15.91	3.4545	0.	1.0786e-002
11441	16.002	3.4545	5.e-002	9.3385e-007
11442	16.002	3.1818	0.	1.105e-002
11443	15.91	3.2727	0.	1.0858e-002
11444	16.002	3.2727	5.e-002	-1.3427e-008
11445	16.002	3.	0.	1.1061e-002
11446	15.91	3.0909	0.	1.0888e-002
11447	16.002	3.0909	5.e-002	4.7262e-007
11448	16.002	2.8182	0.	1.105e-002
11449	15.91	2.9091	0.	1.0888e-002
11450	16.002	2.9091	5.e-002	1.9116e-006
11451	16.002	2.6364	0.	1.1012e-002
11452	15.91	2.7273	0.	1.0858e-002
11453	16.002	2.7273	5.e-002	2.3989e-006
11454	16.002	2.4545	0.	1.0929e-002
11455	15.91	2.5455	0.	1.0785e-002
11456	16.002	2.5455	5.e-002	2.4054e-006
11457	16.002	2.2727	0.	1.0771e-002
11458	15.91	2.3636	0.	1.0649e-002
11459	16.002	2.3636	5.e-002	1.9389e-006
11460	16.002	2.0909	0.	1.0498e-002
11461	15.91	2.1818	0.	1.0415e-002
11462	16.002	2.1818	5.e-002	1.0042e-006
11463	16.002	1.9091	0.	1.0056e-002
11464	15.91	2.	0.	1.0041e-002
11465	16.002	2.	5.e-002	1.957e-006
11466	16.002	1.7273	0.	9.3797e-003
11467	15.91	1.8182	0.	9.4671e-003
11468	16.002	1.8182	5.e-002	1.9646e-006
11469	16.002	1.5455	0.	8.3841e-003
11470	15.91	1.6364	0.	8.6255e-003
11471	16.002	1.6364	5.e-002	1.013e-006
11472	16.002	1.3636	0.	6.9709e-003
11473	15.91	1.4545	0.	7.4241e-003
11474	16.002	1.4545	5.e-002	1.9776e-006
11475	16.002	1.1818	0.	4.983e-003
11476	15.91	1.2727	0.	5.7665e-003
11477	16.002	1.2727	5.e-002	1.5779e-006
11478	16.002	1.	0.	2.3394e-003
11479	15.91	1.0909	0.	3.4503e-003
11480	16.002	1.0909	5.e-002	2.6818e-006
11481	16.002	0.81818	0.	-1.6004e-003
11482	15.91	0.90909	0.	5.2329e-004
11483	16.002	0.90909	5.e-002	2.1948e-006
11484	16.002	0.63636	0.	-5.609e-003
11485	15.91	0.72727	0.	-4.2858e-003
11486	16.002	0.72727	5.e-002	1.3179e-006
11487	16.002	0.45455	0.	-1.9115e-002
11488	15.91	0.54545	0.	-7.3327e-003
11489	16.002	0.54545	5.e-002	-6.4839e-007
11490	16.002	0.27273	0.	-2.0187e-002
11491	15.91	0.36364	0.	-3.0081e-002
11492	16.002	0.36364	5.e-002	3.1209e-007
11493	15.91	0.18182	0.	-3.7166e-003
11494	16.002	0.18182	5.e-002	1.058e-005
11495	16.002	9.0909e-002	0.	-7.9253e-003
11496	15.818	5.7273	0.	-1.838e-002
11497	15.726	5.8182	0.	-2.8049e-003
11498	15.818	5.8182	5.e-002	2.3666e-005
11499	15.818	5.9091	0.	-7.6153e-003
11500	15.818	5.5455	0.	-1.7968e-002
11501	15.726	5.6364	0.	-2.7912e-002
11502	15.818	5.6364	5.e-002	4.0111e-006
11503	15.818	5.3636	0.	-5.6475e-003
11504	15.726	5.4545	0.	-7.194e-003
11505	15.818	5.4545	5.e-002	4.664e-006
11506	15.818	5.1818	0.	-1.9153e-003
11507	15.726	5.2727	0.	-4.3886e-003
11508	15.818	5.2727	5.e-002	1.8356e-006
11509	15.818	5.	0.	1.8038e-003
11510	15.726	5.0909	0.	1.0837e-004
11511	15.818	5.0909	5.e-002	1.3667e-006
11512	15.818	4.8182	0.	4.3537e-003
11513	15.726	4.9091	0.	2.9079e-003
11514	15.818	4.9091	5.e-002	2.5911e-007
11515	15.818	4.6364	0.	6.3071e-003
11516	15.726	4.7273	0.	5.1582e-003
11517	15.818	4.7273	5.e-002	-8.519e-007
11518	15.818	4.4545	0.	7.7292e-003
11519	15.726	4.5455	0.	6.8036e-003
11520	15.818	4.5455	5.e-002	9.0238e-007
11521	15.818	4.2727	0.	8.7609e-003
11522	15.726	4.3636	0.	8.0233e-003
11523	15.818	4.3636	5.e-002	-1.0272e-006
11524	15.818	4.0909	0.	9.4893e-003
11525	15.726	4.1818	0.	8.9064e-003
11526	15.818	4.1818	5.e-002	-1.5662e-006
11527	15.818	3.9091	0.	9.9887e-003
11528	15.726	4.	0.	9.5311e-003
11529	15.818	4.	5.e-002	-1.0186e-006
11530	15.818	3.7273	0.	1.0319e-002
11531	15.726	3.8182	0.	9.9588e-003
11532	15.818	3.8182	5.e-002	-5.296e-007
11533	15.818	3.5455	0.	1.0528e-002
11534	15.726	3.6364	0.	1.0243e-002
11535	15.818	3.6364	5.e-002	9.1077e-007
11536	15.818	3.3636	0.	1.0651e-002
11537	15.726	3.4545	0.	1.0422e-002
11538	15.818	3.4545	5.e-002	9.2481e-007
11539	15.818	3.1818	0.	1.0714e-002
11540	15.726	3.2727	0.	1.0525e-002
11541	15.818	3.2727	5.e-002	-1.7953e-008
11542	15.818	3.	0.	1.0734e-002
11543	15.726	3.0909	0.	1.0571e-002
11544	15.818	3.0909	5.e-002	1.9026e-006
11545	15.818	2.8182	0.	1.0715e-002
11546	15.726	2.9091	0.	1.0571e-002
11547	15.818	2.9091	5.e-002	1.9121e-006
11548	15.818	2.6364	0.	1.0651e-002
11549	15.726	2.7273	0.	1.0525e-002
11550	15.818	2.7273	5.e-002	2.3998e-006
11551	15.818	2.4545	0.	1.0528e-002
11552	15.726	2.5455	0.	1.0423e-002
11553	15.818	2.5455	5.e-002	1.9352e-006
11554	15.818	2.2727	0.	1.0319e-002
11555	15.726	2.3636	0.	1.0243e-002
11556	15.818	2.3636	5.e-002	1.9485e-006
11557	15.818	2.0909	0.	9.9889e-003
11558	15.726	2.1818	0.	9.9591e-003
11559	15.818	2.1818	5.e-002	1.9562e-006
11560	15.818	1.9091	0.	9.4894e-003
11561	15.726	2.	0.	9.531e-003
11562	15.818	2.	5.e-002	5.4808e-007
11563	15.818	1.7273	0.	8.7612e-003
11564	15.726	1.8182	0.	8.9064e-003
11565	15.818	1.8182	5.e-002	1.9794e-006
11566	15.818	1.5455	0.	7.7295e-003
11567	15.726	1.6364	0.	8.0245e-003
11568	15.818	1.6364	5.e-002	2.0248e-006
11569	15.818	1.3636	0.	6.3067e-003
11570	15.726	1.4545	0.	6.8032e-003
11571	15.818	1.4545	5.e-002	1.9974e-006
11572	15.818	1.1818	0.	4.3546e-003
11573	15.726	1.2727	0.	5.1586e-003
11574	15.818	1.2727	5.e-002	2.1007e-006
11575	15.818	1.	0.	1.8055e-003
11576	15.726	1.0909	0.	2.909e-003
11577	15.818	1.0909	5.e-002	2.373e-006
11578	15.818	0.81818	0.	-1.9141e-003
11579	15.726	0.90909	0.	1.0985e-004
11580	15.818	0.90909	5.e-002	2.1895e-006
11581	15.818	0.63636	0.	-5.6463e-003
11582	15.726	0.72727	0.	-4.3875e-003
11583	15.818	0.72727	5.e-002	1.9723e-006
11584	15.818	0.45455	0.	-1.7967e-002
11585	15.726	0.54545	0.	-7.1934e-003
11586	15.818	0.54545	5.e-002	1.4012e-006
11587	15.818	0.27273	0.	-1.8381e-002
11588	15.726	0.36364	0.	-2.7912e-002
11589	15.818	0.36364	5.e-002	1.4063e-006
11590	15.726	0.18182	0.	-2.8058e-003
11591	15.818	0.18182	5.e-002	1.3052e-006
11592	15.818	9.0909e-002	0.	-7.6154e-003
11593	15.634	5.7273	0.	-1.6792e-002
11594	15.542	5.8182	0.	-2.0975e-003
11595	15.634	5.8182	5.e-002	2.5167e-005
11596	15.634	5.9091	0.	-7.2928e-003
11597	15.634	5.5455	0.	-1.6893e-002
11598	15.542	5.6364	0.	-2.5938e-002
11599	15.634	5.6364	5.e-002	4.1487e-006
11600	15.634	5.3636	0.	-5.625e-003
11601	15.542	5.4545	0.	-7.0187e-003
11602	15.634	5.4545	5.e-002	5.5953e-006
11603	15.634	5.1818	0.	-2.1459e-003
11604	15.542	5.2727	0.	-4.4315e-003
11605	15.634	5.2727	5.e-002	2.6131e-006
11606	15.634	5.	0.	1.3676e-003
11607	15.542	5.0909	0.	-2.2133e-004
11608	15.634	5.0909	5.e-002	2.8392e-006
11609	15.634	4.8182	0.	3.8245e-003
11610	15.542	4.9091	0.	2.4558e-003
11611	15.634	4.9091	5.e-002	1.8465e-006
11612	15.634	4.6364	0.	5.7373e-003
11613	15.542	4.7273	0.	4.6373e-003
11614	15.634	4.7273	5.e-002	3.4263e-007
11615	15.634	4.4545	0.	7.16e-003
11616	15.542	4.5455	0.	6.2641e-003
11617	15.634	4.5455	5.e-002	1.7869e-006
11618	15.634	4.2727	0.	8.2169e-003
11619	15.542	4.3636	0.	7.495e-003
11620	15.634	4.3636	5.e-002	-8.8083e-008
11621	15.634	4.0909	0.	8.9864e-003
11622	15.542	4.1818	0.	8.4077e-003
11623	15.634	4.1818	5.e-002	-1.0127e-007
11624	15.634	3.9091	0.	9.5325e-003
11625	15.542	4.	0.	9.0726e-003
11626	15.634	4.	5.e-002	-9.7891e-008
11627	15.634	3.7273	0.	9.9091e-003
11628	15.542	3.8182	0.	9.5438e-003
11629	15.634	3.8182	5.e-002	4.311e-007
11630	15.634	3.5455	0.	1.016e-002
11631	15.542	3.6364	0.	9.8692e-003
11632	15.634	3.6364	5.e-002	2.3422e-006
11633	15.634	3.3636	0.	1.0318e-002
11634	15.542	3.4545	0.	1.0084e-002
11635	15.634	3.4545	5.e-002	1.8774e-006
11636	15.634	3.1818	0.	1.0402e-002
11637	15.542	3.2727	0.	1.0212e-002
11638	15.634	3.2727	5.e-002	1.4175e-006
11639	15.634	3.	0.	1.0428e-002
11640	15.542	3.0909	0.	1.0271e-002
11641	15.634	3.0909	5.e-002	2.38e-006
11642	15.634	2.8182	0.	1.0402e-002
11643	15.542	2.9091	0.	1.0271e-002
11644	15.634	2.9091	5.e-002	3.8186e-006
11645	15.634	2.6364	0.	1.0318e-002
11646	15.542	2.7273	0.	1.0212e-002
11647	15.634	2.7273	5.e-002	3.8286e-006
11648	15.634	2.4545	0.	1.0162e-002
11649	15.542	2.5455	0.	1.0084e-002
11650	15.634	2.5455	5.e-002	2.888e-006
11651	15.634	2.2727	0.	9.9102e-003
11652	15.542	2.3636	0.	9.8696e-003
11653	15.634	2.3636	5.e-002	2.8996e-006
11654	15.634	2.0909	0.	9.5326e-003
11655	15.542	2.1818	0.	9.5451e-003
11656	15.634	2.1818	5.e-002	2.4301e-006
11657	15.634	1.9091	0.	8.9863e-003
11658	15.542	2.	0.	9.0723e-003
11659	15.634	2.	5.e-002	2.2296e-006
11660	15.634	1.7273	0.	8.2179e-003
11661	15.542	1.8182	0.	8.408e-003
11662	15.634	1.8182	5.e-002	2.903e-006
11663	15.634	1.5455	0.	7.1605e-003
11664	15.542	1.6364	0.	7.4957e-003
11665	15.634	1.6364	5.e-002	2.9309e-006
11666	15.634	1.3636	0.	5.7377e-003
11667	15.542	1.4545	0.	6.2643e-003
11668	15.634	1.4545	5.e-002	2.7081e-006
11669	15.634	1.1818	0.	3.825e-003
11670	15.542	1.2727	0.	4.6378e-003
11671	15.634	1.2727	5.e-002	2.9902e-006
11672	15.634	1.	0.	1.3685e-003
11673	15.542	1.0909	0.	2.4561e-003
11674	15.634	1.0909	5.e-002	3.0525e-006
11675	15.634	0.81818	0.	-2.1445e-003
11676	15.542	0.90909	0.	-2.1945e-004
11677	15.634	0.90909	5.e-002	3.239e-006
11678	15.634	0.63636	0.	-5.6244e-003
11679	15.542	0.72727	0.	-4.4302e-003
11680	15.634	0.72727	5.e-002	3.434e-006
11681	15.634	0.45455	0.	-1.6893e-002
11682	15.542	0.54545	0.	-7.0183e-003
11683	15.634	0.54545	5.e-002	3.2218e-006
11684	15.634	0.27273	0.	-1.6793e-002
11685	15.542	0.36364	0.	-2.5939e-002
11686	15.634	0.36364	5.e-002	3.5561e-006
11687	15.542	0.18182	0.	-2.0986e-003
11688	15.634	0.18182	5.e-002	1.7508e-005
11689	15.634	9.0909e-002	0.	-7.293e-003
11690	15.45	5.7273	0.	-1.5393e-002
11691	15.358	5.8182	0.	-1.5696e-003
11692	15.45	5.8182	5.e-002	2.6817e-005
11693	15.45	5.9091	0.	-6.969e-003
11694	15.45	5.5455	0.	-1.5889e-002
11695	15.358	5.6364	0.	-2.4154e-002
11696	15.45	5.6364	5.e-002	4.1268e-006
11697	15.45	5.3636	0.	-5.5608e-003
11698	15.358	5.4545	0.	-6.8358e-003
11699	15.45	5.4545	5.e-002	5.2838e-006
11700	15.45	5.1818	0.	-2.3137e-003
11701	15.358	5.2727	0.	-4.4463e-003
11702	15.45	5.2727	5.e-002	2.9871e-006
11703	15.45	5.	0.	1.0073e-003
11704	15.358	5.0909	0.	-5.0014e-004
11705	15.45	5.0909	5.e-002	2.5367e-006
11706	15.45	4.8182	0.	3.3724e-003
11707	15.358	4.9091	0.	2.0584e-003
11708	15.45	4.9091	5.e-002	1.2305e-006
11709	15.45	4.6364	0.	5.2424e-003
11710	15.358	4.7273	0.	4.1723e-003
11711	15.45	4.7273	5.e-002	-2.7372e-008
11712	15.45	4.4545	0.	6.6595e-003
11713	15.358	4.5455	0.	5.7749e-003
11714	15.45	4.5455	5.e-002	1.8757e-006
11715	15.45	4.2727	0.	7.7335e-003
11716	15.358	4.3636	0.	7.0105e-003
11717	15.45	4.3636	5.e-002	1.6544e-007
11718	15.45	4.0909	0.	8.5327e-003
11719	15.358	4.1818	0.	7.9431e-003
11720	15.45	4.1818	5.e-002	-4.2764e-008
11721	15.45	3.9091	0.	9.1163e-003
11722	15.358	4.	0.	8.64e-003
11723	15.45	4.	5.e-002	-4.5407e-008
11724	15.45	3.7273	0.	9.532e-003
11725	15.358	3.8182	0.	9.1459e-003
11726	15.45	3.8182	5.e-002	4.3869e-007
11727	15.45	3.5455	0.	9.8178e-003
11728	15.358	3.6364	0.	9.5056e-003
11729	15.45	3.6364	5.e-002	2.1175e-006
11730	15.45	3.3636	0.	1.0002e-002
11731	15.358	3.4545	0.	9.7482e-003
11732	15.45	3.4545	5.e-002	2.5993e-006
11733	15.45	3.1818	0.	1.0103e-002
11734	15.358	3.2727	0.	9.8968e-003
11735	15.45	3.2727	5.e-002	9.3976e-007
11736	15.45	3.	0.	1.0136e-002
11737	15.358	3.0909	0.	9.9666e-003
11738	15.45	3.0909	5.e-002	2.3805e-006
11739	15.45	2.8182	0.	1.0103e-002
11740	15.358	2.9091	0.	9.9673e-003
11741	15.45	2.9091	5.e-002	3.3417e-006
11742	15.45	2.6364	0.	1.0001e-002
11743	15.358	2.7273	0.	9.8967e-003
11744	15.45	2.7273	5.e-002	2.8724e-006
11745	15.45	2.4545	0.	9.8174e-003
11746	15.358	2.5455	0.	9.7483e-003
11747	15.45	2.5455	5.e-002	2.8872e-006
11748	15.45	2.2727	0.	9.5326e-003
11749	15.358	2.3636	0.	9.505e-003
11750	15.45	2.3636	5.e-002	2.8766e-006
11751	15.45	2.0909	0.	9.1173e-003
11752	15.358	2.1818	0.	9.1474e-003
11753	15.45	2.1818	5.e-002	1.93e-006
11754	15.45	1.9091	0.	8.5327e-003
11755	15.358	2.	0.	8.6397e-003
11756	15.45	2.	5.e-002	2.1704e-006
11757	15.45	1.7273	0.	7.7335e-003
11758	15.358	1.8182	0.	7.944e-003
11759	15.45	1.8182	5.e-002	2.4723e-006
11760	15.45	1.5455	0.	6.6599e-003
11761	15.358	1.6364	0.	7.0101e-003
11762	15.45	1.6364	5.e-002	2.4519e-006
11763	15.45	1.3636	0.	5.2427e-003
11764	15.358	1.4545	0.	5.7755e-003
11765	15.45	1.4545	5.e-002	2.704e-006
11766	15.45	1.1818	0.	3.3728e-003
11767	15.358	1.2727	0.	4.1724e-003
11768	15.45	1.2727	5.e-002	2.5057e-006
11769	15.45	1.	0.	1.0086e-003
11770	15.358	1.0909	0.	2.059e-003
11771	15.45	1.0909	5.e-002	1.9667e-006
11772	15.45	0.81818	0.	-2.312e-003
11773	15.358	0.90909	0.	-4.9837e-004
11774	15.45	0.90909	5.e-002	1.4631e-006
11775	15.45	0.63636	0.	-5.5596e-003
11776	15.358	0.72727	0.	-4.4446e-003
11777	15.45	0.72727	5.e-002	2.0242e-006
11778	15.45	0.45455	0.	-1.5889e-002
11779	15.358	0.54545	0.	-6.8356e-003
11780	15.45	0.54545	5.e-002	3.7367e-006
11781	15.45	0.27273	0.	-1.5394e-002
11782	15.358	0.36364	0.	-2.4154e-002
11783	15.45	0.36364	5.e-002	3.8548e-006
11784	15.358	0.18182	0.	-1.5696e-003
11785	15.45	0.18182	5.e-002	1.5584e-006
11786	15.45	9.0909e-002	0.	-6.9692e-003
11787	15.266	5.7273	0.	-1.4188e-002
11788	15.174	5.8182	0.	-1.1869e-003
11789	15.266	5.8182	5.e-002	2.8717e-005
11790	15.266	5.9091	0.	-6.6776e-003
11791	15.266	5.5455	0.	-1.4983e-002
11792	15.174	5.6364	0.	-2.2538e-002
11793	15.266	5.6364	5.e-002	3.2771e-006
11794	15.266	5.3636	0.	-5.4963e-003
11795	15.174	5.4545	0.	-6.652e-003
11796	15.266	5.4545	5.e-002	4.7859e-006
11797	15.266	5.1818	0.	-2.4626e-003
11798	15.174	5.2727	0.	-4.4416e-003
11799	15.266	5.2727	5.e-002	1.868e-006
11800	15.266	5.	0.	6.7775e-004
11801	15.174	5.0909	0.	-7.3977e-004
11802	15.266	5.0909	5.e-002	2.3858e-006
11803	15.266	4.8182	0.	2.9542e-003
11804	15.174	4.9091	0.	1.7055e-003
11805	15.266	4.9091	5.e-002	1.008e-006
11806	15.266	4.6364	0.	4.7787e-003
11807	15.174	4.7273	0.	3.7513e-003
11808	15.266	4.7273	5.e-002	-1.9415e-007
11809	15.266	4.4545	0.	6.1841e-003
11810	15.174	4.5455	0.	5.326e-003
11811	15.266	4.5455	5.e-002	8.8953e-007
11812	15.266	4.2727	0.	7.267e-003
11813	15.174	4.3636	0.	6.5594e-003
11814	15.266	4.3636	5.e-002	-5.4194e-008
11815	15.266	4.0909	0.	8.0893e-003
11816	15.174	4.1818	0.	7.5063e-003
11817	15.266	4.1818	5.e-002	-7.5176e-007
11818	15.266	3.9091	0.	8.7028e-003
11819	15.174	4.	0.	8.2273e-003
11820	15.266	4.	5.e-002	-2.5712e-007
11821	15.266	3.7273	0.	9.1487e-003
11822	15.174	3.8182	0.	8.7609e-003
11823	15.266	3.8182	5.e-002	2.3468e-007
11824	15.266	3.5455	0.	9.4625e-003
11825	15.174	3.6364	0.	9.1476e-003
11826	15.266	3.6364	5.e-002	1.4141e-006
11827	15.266	3.3636	0.	9.668e-003
11828	15.174	3.4545	0.	9.4131e-003
11829	15.266	3.4545	5.e-002	1.8934e-006
11830	15.266	3.1818	0.	9.7838e-003
11831	15.174	3.2727	0.	9.5784e-003
11832	15.266	3.2727	5.e-002	9.4693e-007
11833	15.266	3.	0.	9.8214e-003
11834	15.174	3.0909	0.	9.6574e-003
11835	15.266	3.0909	5.e-002	1.905e-006
11836	15.266	2.8182	0.	9.7846e-003
11837	15.174	2.9091	0.	9.658e-003
11838	15.266	2.9091	5.e-002	2.8632e-006
11839	15.266	2.6364	0.	9.6684e-003
11840	15.174	2.7273	0.	9.5783e-003
11841	15.266	2.7273	5.e-002	2.6296e-006
11842	15.266	2.4545	0.	9.4623e-003
11843	15.174	2.5455	0.	9.4134e-003
11844	15.266	2.5455	5.e-002	2.6366e-006
11845	15.266	2.2727	0.	9.149e-003
11846	15.174	2.3636	0.	9.1471e-003
11847	15.266	2.3636	5.e-002	2.159e-006
11848	15.266	2.0909	0.	8.703e-003
11849	15.174	2.1818	0.	8.7614e-003
11850	15.266	2.1818	5.e-002	2.4099e-006
11851	15.266	1.9091	0.	8.0899e-003
11852	15.174	2.	0.	8.2267e-003
11853	15.266	2.	5.e-002	1.9313e-006
11854	15.266	1.7273	0.	7.2676e-003
11855	15.174	1.8182	0.	7.5077e-003
11856	15.266	1.8182	5.e-002	1.9238e-006
11857	15.266	1.5455	0.	6.184e-003
11858	15.174	1.6364	0.	6.5596e-003
11859	15.266	1.6364	5.e-002	1.6676e-006
11860	15.266	1.3636	0.	4.7791e-003
11861	15.174	1.4545	0.	5.3266e-003
11862	15.266	1.4545	5.e-002	2.0018e-006
11863	15.266	1.1818	0.	2.9545e-003
11864	15.174	1.2727	0.	3.7519e-003
11865	15.266	1.2727	5.e-002	1.9705e-006
11866	15.266	1.	0.	6.7886e-004
11867	15.174	1.0909	0.	1.7062e-003
11868	15.266	1.0909	5.e-002	1.008e-006
11869	15.266	0.81818	0.	-2.4609e-003
11870	15.174	0.90909	0.	-7.3849e-004
11871	15.266	0.90909	5.e-002	-4.7575e-007
11872	15.266	0.63636	0.	-5.4956e-003
11873	15.174	0.72727	0.	-4.4394e-003
11874	15.266	0.72727	5.e-002	-2.1928e-007
11875	15.266	0.45455	0.	-1.4983e-002
11876	15.174	0.54545	0.	-6.653e-003
11877	15.266	0.54545	5.e-002	8.644e-007
11878	15.266	0.27273	0.	-1.4187e-002
11879	15.174	0.36364	0.	-2.2538e-002
11880	15.266	0.36364	5.e-002	2.4056e-006
11881	15.174	0.18182	0.	-1.1861e-003
11882	15.266	0.18182	5.e-002	1.2531e-005
11883	15.266	9.0909e-002	0.	-6.677e-003
11884	15.082	5.7273	0.	-1.3118e-002
11885	14.99	5.8182	0.	-9.049e-004
11886	15.082	5.8182	5.e-002	2.0646e-005
11887	15.082	5.9091	0.	-6.3904e-003
11888	15.082	5.5455	0.	-1.4134e-002
11889	14.99	5.6364	0.	-2.1048e-002
11890	15.082	5.6364	5.e-002	3.7323e-006
11891	15.082	5.3636	0.	-5.4066e-003
11892	14.99	5.4545	0.	-6.4546e-003
11893	15.082	5.4545	5.e-002	4.8421e-006
11894	15.082	5.1818	0.	-2.5695e-003
11895	14.99	5.2727	0.	-4.4052e-003
11896	15.082	5.2727	5.e-002	1.9904e-006
11897	15.082	5.	0.	4.0219e-004
11898	14.99	5.0909	0.	-9.3144e-004
11899	15.082	5.0909	5.e-002	2.2024e-006
11900	15.082	4.8182	0.	2.591e-003
11901	14.99	4.9091	0.	1.4064e-003
11902	15.082	4.9091	5.e-002	1.6389e-006
11903	15.082	4.6364	0.	4.3682e-003
11904	14.99	4.7273	0.	3.3827e-003
11905	15.082	4.7273	5.e-002	-9.6197e-009
11906	15.082	4.4545	0.	5.7573e-003
11907	14.99	4.5455	0.	4.9288e-003
11908	15.082	4.5455	5.e-002	1.6973e-006
11909	15.082	4.2727	0.	6.8447e-003
11910	14.99	4.3636	0.	6.1541e-003
11911	15.082	4.3636	5.e-002	-8.0889e-008
11912	15.082	4.0909	0.	7.6831e-003
11913	14.99	4.1818	0.	7.1105e-003
11914	15.082	4.1818	5.e-002	-3.1778e-007
11915	15.082	3.9091	0.	8.319e-003
11916	14.99	4.	0.	7.8476e-003
11917	15.082	4.	5.e-002	-7.245e-008
11918	15.082	3.7273	0.	8.7897e-003
11919	14.99	3.8182	0.	8.4034e-003
11920	15.082	3.8182	5.e-002	2.0188e-007
11921	15.082	3.5455	0.	9.1257e-003
11922	14.99	3.6364	0.	8.8112e-003
11923	15.082	3.6364	5.e-002	2.1274e-006
11924	15.082	3.3636	0.	9.3492e-003
11925	14.99	3.4545	0.	9.0955e-003
11926	15.082	3.4545	5.e-002	2.1243e-006
11927	15.082	3.1818	0.	9.4768e-003
11928	14.99	3.2727	0.	9.2749e-003
11929	15.082	3.2727	5.e-002	1.6588e-006
11930	15.082	3.	0.	9.5184e-003
11931	14.99	3.0909	0.	9.3613e-003
11932	15.082	3.0909	5.e-002	2.1422e-006
11933	15.082	2.8182	0.	9.4765e-003
11934	14.99	2.9091	0.	9.3614e-003
11935	15.082	2.9091	5.e-002	2.8646e-006
11936	15.082	2.6364	0.	9.3491e-003
11937	14.99	2.7273	0.	9.2746e-003
11938	15.082	2.7273	5.e-002	3.3509e-006
11939	15.082	2.4545	0.	9.1256e-003
11940	14.99	2.5455	0.	9.096e-003
11941	15.082	2.5455	5.e-002	2.8775e-006
11942	15.082	2.2727	0.	8.7894e-003
11943	14.99	2.3636	0.	8.811e-003
11944	15.082	2.3636	5.e-002	2.8869e-006
11945	15.082	2.0909	0.	8.3187e-003
11946	14.99	2.1818	0.	8.4028e-003
11947	15.082	2.1818	5.e-002	2.1924e-006
11948	15.082	1.9091	0.	7.6833e-003
11949	14.99	2.	0.	7.8478e-003
11950	15.082	2.	5.e-002	2.4196e-006
11951	15.082	1.7273	0.	6.8457e-003
11952	14.99	1.8182	0.	7.1109e-003
11953	15.082	1.8182	5.e-002	2.7029e-006
11954	15.082	1.5455	0.	5.7582e-003
11955	14.99	1.6364	0.	6.155e-003
11956	15.082	1.6364	5.e-002	2.6835e-006
11957	15.082	1.3636	0.	4.369e-003
11958	14.99	1.4545	0.	4.9287e-003
11959	15.082	1.4545	5.e-002	2.2335e-006
11960	15.082	1.1818	0.	2.592e-003
11961	14.99	1.2727	0.	3.3838e-003
11962	15.082	1.2727	5.e-002	2.9159e-006
11963	15.082	1.	0.	4.0311e-004
11964	14.99	1.0909	0.	1.4066e-003
11965	15.082	1.0909	5.e-002	2.1493e-006
11966	15.082	0.81818	0.	-2.5677e-003
11967	14.99	0.90909	0.	-9.2966e-004
11968	15.082	0.90909	5.e-002	1.0161e-006
11969	15.082	0.63636	0.	-5.4061e-003
11970	14.99	0.72727	0.	-4.4038e-003
11971	15.082	0.72727	5.e-002	-4.7569e-007
11972	15.082	0.45455	0.	-1.4135e-002
11973	14.99	0.54545	0.	-6.4559e-003
11974	15.082	0.54545	5.e-002	-1.646e-006
11975	15.082	0.27273	0.	-1.3118e-002
11976	14.99	0.36364	0.	-2.1049e-002
11977	15.082	0.36364	5.e-002	-5.6114e-007
11978	14.99	0.18182	0.	-9.0345e-004
11979	15.082	0.18182	5.e-002	2.2229e-005
11980	15.082	9.0909e-002	0.	-6.3901e-003
11981	14.898	5.7273	0.	-1.2156e-002
11982	14.806	5.8182	0.	-6.9615e-004
11983	14.898	5.8182	5.e-002	3.2084e-005
11984	14.898	5.9091	0.	-6.1049e-003
11985	14.898	5.5455	0.	-1.3332e-002
11986	14.806	5.6364	0.	-1.9661e-002
11987	14.898	5.6364	5.e-002	3.6244e-006
11988	14.898	5.3636	0.	-5.2923e-003
11989	14.806	5.4545	0.	-6.2406e-003
11990	14.898	5.4545	5.e-002	4.6272e-006
11991	14.898	5.1818	0.	-2.6366e-003
11992	14.806	5.2727	0.	-4.3376e-003
11993	14.898	5.2727	5.e-002	2.3879e-006
11994	14.898	5.	0.	1.7526e-004
11995	14.806	5.0909	0.	-1.0757e-003
11996	14.898	5.0909	5.e-002	1.7983e-006
11997	14.898	4.8182	0.	2.2793e-003
11998	14.806	4.9091	0.	1.1577e-003
11999	14.898	4.9091	5.e-002	1.3094e-006
12000	14.898	4.6364	0.	4.0086e-003
12001	14.806	4.7273	0.	3.0673e-003
12002	14.898	4.7273	5.e-002	-5.9207e-008
12003	14.898	4.4545	0.	5.3791e-003
12004	14.806	4.5455	0.	4.5816e-003
12005	14.898	4.5455	5.e-002	8.9649e-007
12006	14.898	4.2727	0.	6.4647e-003
12007	14.806	4.3636	0.	5.7959e-003
12008	14.898	4.3636	5.e-002	-2.7586e-007
12009	14.898	4.0909	0.	7.3134e-003
12010	14.806	4.1818	0.	6.7556e-003
12011	14.898	4.1818	5.e-002	-4.7661e-007
12012	14.898	3.9091	0.	7.9658e-003
12013	14.806	4.	0.	7.5049e-003
12014	14.898	4.	5.e-002	-5.1852e-007
12015	14.898	3.7273	0.	8.4554e-003
12016	14.806	3.8182	0.	8.0766e-003
12017	14.898	3.8182	5.e-002	2.1053e-007
12018	14.898	3.5455	0.	8.8093e-003
12019	14.806	3.6364	0.	8.5018e-003
12020	14.898	3.6364	5.e-002	1.8751e-006
12021	14.898	3.3636	0.	9.0479e-003
12022	14.806	3.4545	0.	8.8011e-003
12023	14.898	3.4545	5.e-002	1.8884e-006
12024	14.898	3.1818	0.	9.1853e-003
12025	14.806	3.2727	0.	8.9919e-003
12026	14.898	3.2727	5.e-002	1.1833e-006
12027	14.898	3.	0.	9.2298e-003
12028	14.806	3.0909	0.	9.0841e-003
12029	14.898	3.0909	5.e-002	1.9046e-006
12030	14.898	2.8182	0.	9.1853e-003
12031	14.806	2.9091	0.	9.0843e-003
12032	14.898	2.9091	5.e-002	2.8643e-006
12033	14.898	2.6364	0.	9.0481e-003
12034	14.806	2.7273	0.	8.9918e-003
12035	14.898	2.7273	5.e-002	2.8713e-006
12036	14.898	2.4545	0.	8.8096e-003
12037	14.806	2.5455	0.	8.8015e-003
12038	14.898	2.5455	5.e-002	2.3991e-006
12039	14.898	2.2727	0.	8.4549e-003
12040	14.806	2.3636	0.	8.5019e-003
12041	14.898	2.3636	5.e-002	2.4052e-006
12042	14.898	2.0909	0.	7.9657e-003
12043	14.806	2.1818	0.	8.0762e-003
12044	14.898	2.1818	5.e-002	1.9348e-006
12045	14.898	1.9091	0.	7.3139e-003
12046	14.806	2.	0.	7.505e-003
12047	14.898	2.	5.e-002	1.9341e-006
12048	14.898	1.7273	0.	6.465e-003
12049	14.806	1.8182	0.	6.7562e-003
12050	14.898	1.8182	5.e-002	1.948e-006
12051	14.898	1.5455	0.	5.3791e-003
12052	14.806	1.6364	0.	5.7964e-003
12053	14.898	1.6364	5.e-002	2.2245e-006
12054	14.898	1.3636	0.	4.0088e-003
12055	14.806	1.4545	0.	4.5808e-003
12056	14.898	1.4545	5.e-002	2.2536e-006
12057	14.898	1.1818	0.	2.2796e-003
12058	14.806	1.2727	0.	3.0681e-003
12059	14.898	1.2727	5.e-002	1.7358e-006
12060	14.898	1.	0.	1.7638e-004
12061	14.806	1.0909	0.	1.1582e-003
12062	14.898	1.0909	5.e-002	2.1385e-006
12063	14.898	0.81818	0.	-2.6352e-003
12064	14.806	0.90909	0.	-1.0736e-003
12065	14.898	0.90909	5.e-002	1.9701e-006
12066	14.898	0.63636	0.	-5.2927e-003
12067	14.806	0.72727	0.	-4.3368e-003
12068	14.898	0.72727	5.e-002	3.5597e-007
12069	14.898	0.45455	0.	-1.3333e-002
12070	14.806	0.54545	0.	-6.2417e-003
12071	14.898	0.54545	5.e-002	-6.385e-007
12072	14.898	0.27273	0.	-1.2156e-002
12073	14.806	0.36364	0.	-1.9661e-002
12074	14.898	0.36364	5.e-002	-8.2427e-007
12075	14.806	0.18182	0.	-6.9392e-004
12076	14.898	0.18182	5.e-002	1.082e-005
12077	14.898	9.0909e-002	0.	-6.1047e-003
12078	14.714	5.7273	0.	-1.1278e-002
12079	14.622	5.8182	0.	-5.3992e-004
12080	14.714	5.8182	5.e-002	1.0412e-006
12081	14.714	5.9091	0.	-5.8125e-003
12082	14.714	5.5455	0.	-1.2563e-002
12083	14.622	5.6364	0.	-1.8354e-002
12084	14.714	5.6364	5.e-002	3.3288e-006
12085	14.714	5.3636	0.	-5.1511e-003
12086	14.622	5.4545	0.	-6.0067e-003
12087	14.714	5.4545	5.e-002	4.2277e-006
12088	14.714	5.1818	0.	-2.6632e-003
12089	14.622	5.2727	0.	-4.2394e-003
12090	14.714	5.2727	5.e-002	1.5368e-006
12091	14.714	5.	0.	-1.7979e-006
12092	14.622	5.0909	0.	-1.1751e-003
12093	14.714	5.0909	5.e-002	1.6211e-006
12094	14.714	4.8182	0.	2.0199e-003
12095	14.622	4.9091	0.	9.5791e-004
12096	14.714	4.9091	5.e-002	5.1368e-007
12097	14.714	4.6364	0.	3.7012e-003
12098	14.622	4.7273	0.	2.8023e-003
12099	14.714	4.7273	5.e-002	-5.3547e-007
12100	14.714	4.4545	0.	5.0493e-003
12101	14.622	4.5455	0.	4.2811e-003
12102	14.714	4.5455	5.e-002	9.2355e-007
12103	14.714	4.2727	0.	6.1301e-003
12104	14.622	4.3636	0.	5.4819e-003
12105	14.714	4.3636	5.e-002	-9.3539e-007
12106	14.714	4.0909	0.	6.9849e-003
12107	14.622	4.1818	0.	6.4415e-003
12108	14.714	4.1818	5.e-002	-7.5421e-007
12109	14.714	3.9091	0.	7.6494e-003
12110	14.622	4.	0.	7.1992e-003
12111	14.714	4.	5.e-002	-7.5517e-007
12112	14.714	3.7273	0.	8.1538e-003
12113	14.622	3.8182	0.	7.7833e-003
12114	14.714	3.8182	5.e-002	-2.6481e-007
12115	14.714	3.5455	0.	8.5224e-003
12116	14.622	3.6364	0.	8.2219e-003
12117	14.714	3.6364	5.e-002	1.417e-006
12118	14.714	3.3636	0.	8.7726e-003
12119	14.622	3.4545	0.	8.5334e-003
12120	14.714	3.4545	5.e-002	9.4284e-007
12121	14.714	3.1818	0.	8.9174e-003
12122	14.622	3.2727	0.	8.7336e-003
12123	14.714	3.2727	5.e-002	2.3367e-007
12124	14.714	3.	0.	8.9649e-003
12125	14.622	3.0909	0.	8.8304e-003
12126	14.714	3.0909	5.e-002	1.1907e-006
12127	14.714	2.8182	0.	8.9175e-003
12128	14.622	2.9091	0.	8.8308e-003
12129	14.714	2.9091	5.e-002	2.1469e-006
12130	14.714	2.6364	0.	8.7726e-003
12131	14.622	2.7273	0.	8.7334e-003
12132	14.714	2.7273	5.e-002	1.9111e-006
12133	14.714	2.4545	0.	8.5225e-003
12134	14.622	2.5455	0.	8.5343e-003
12135	14.714	2.5455	5.e-002	1.9162e-006
12136	14.714	2.2727	0.	8.154e-003
12137	14.622	2.3636	0.	8.222e-003
12138	14.714	2.3636	5.e-002	1.9106e-006
12139	14.714	2.0909	0.	7.6492e-003
12140	14.622	2.1818	0.	7.7837e-003
12141	14.714	2.1818	5.e-002	1.4435e-006
12142	14.714	1.9091	0.	6.9851e-003
12143	14.622	2.	0.	7.1989e-003
12144	14.714	2.	5.e-002	1.4481e-006
12145	14.714	1.7273	0.	6.1309e-003
12146	14.622	1.8182	0.	6.4422e-003
12147	14.714	1.8182	5.e-002	1.7204e-006
12148	14.714	1.5455	0.	5.049e-003
12149	14.622	1.6364	0.	5.4824e-003
12150	14.714	1.6364	5.e-002	1.4297e-006
12151	14.714	1.3636	0.	3.701e-003
12152	14.622	1.4545	0.	4.2811e-003
12153	14.714	1.4545	5.e-002	1.1618e-006
12154	14.714	1.1818	0.	2.0208e-003
12155	14.622	1.2727	0.	2.803e-003
12156	14.714	1.2727	5.e-002	1.0718e-006
12157	14.714	1.	0.	-2.5105e-007
12158	14.622	1.0909	0.	9.5861e-004
12159	14.714	1.0909	5.e-002	7.8923e-007
12160	14.714	0.81818	0.	-2.6617e-003
12161	14.622	0.90909	0.	-1.1731e-003
12162	14.714	0.90909	5.e-002	7.1445e-007
12163	14.714	0.63636	0.	-5.1511e-003
12164	14.622	0.72727	0.	-4.2379e-003
12165	14.714	0.72727	5.e-002	3.8521e-008
12166	14.714	0.45455	0.	-1.2563e-002
12167	14.622	0.54545	0.	-6.007e-003
12168	14.714	0.54545	5.e-002	-5.3531e-007
12169	14.714	0.27273	0.	-1.1277e-002
12170	14.622	0.36364	0.	-1.8354e-002
12171	14.714	0.36364	5.e-002	-2.9722e-007
12172	14.622	0.18182	0.	-5.3904e-004
12173	14.714	0.18182	5.e-002	-1.1912e-006
12174	14.714	9.0909e-002	0.	-5.8109e-003
12175	14.53	5.7273	0.	-1.0465e-002
12176	14.438	5.8182	0.	-4.2701e-004
12177	14.53	5.8182	5.e-002	2.4063e-006
12178	14.53	5.9091	0.	-5.5135e-003
12179	14.53	5.5455	0.	-1.1816e-002
12180	14.438	5.6364	0.	-1.7117e-002
12181	14.53	5.6364	5.e-002	3.5006e-006
12182	14.53	5.3636	0.	-4.9833e-003
12183	14.438	5.4545	0.	-5.7585e-003
12184	14.53	5.4545	5.e-002	4.2838e-006
12185	14.53	5.1818	0.	-2.6534e-003
12186	14.438	5.2727	0.	-4.1158e-003
12187	14.53	5.2727	5.e-002	1.8747e-006
12188	14.53	5.	0.	-1.3424e-004
12189	14.438	5.0909	0.	-1.2379e-003
12190	14.53	5.0909	5.e-002	1.8932e-006
12191	14.53	4.8182	0.	1.8077e-003
12192	14.438	4.9091	0.	7.9778e-004
12193	14.53	4.9091	5.e-002	1.1087e-006
12194	14.53	4.6364	0.	3.4387e-003
12195	14.438	4.7273	0.	2.5765e-003
12196	14.53	4.7273	5.e-002	-2.7583e-007
12197	14.53	4.4545	0.	4.7619e-003
12198	14.438	4.5455	0.	4.0197e-003
12199	14.53	4.5455	5.e-002	8.3391e-007
12200	14.53	4.2727	0.	5.8352e-003
12201	14.438	4.3636	0.	5.2048e-003
12202	14.53	4.3636	5.e-002	-9.3771e-007
12203	14.53	4.0909	0.	6.6928e-003
12204	14.438	4.1818	0.	6.1606e-003
12205	14.53	4.1818	5.e-002	-9.5332e-007
12206	14.53	3.9091	0.	7.3666e-003
12207	14.438	4.	0.	6.9232e-003
12208	14.53	4.	5.e-002	-4.6877e-007
12209	14.53	3.7273	0.	7.8823e-003
12210	14.438	3.8182	0.	7.5164e-003
12211	14.53	3.8182	5.e-002	-2.0463e-009
12212	14.53	3.5455	0.	8.2621e-003
12213	14.438	3.6364	0.	7.9662e-003
12214	14.53	3.6364	5.e-002	1.4239e-006
12215	14.53	3.3636	0.	8.5224e-003
12216	14.438	3.4545	0.	8.2875e-003
12217	14.53	3.4545	5.e-002	1.1917e-006
12218	14.53	3.1818	0.	8.6739e-003
12219	14.438	3.2727	0.	8.4951e-003
12220	14.53	3.2727	5.e-002	2.3841e-007
12221	14.53	3.	0.	8.7234e-003
12222	14.438	3.0909	0.	8.5964e-003
12223	14.53	3.0909	5.e-002	1.6694e-006
12224	14.53	2.8182	0.	8.674e-003
12225	14.438	2.9091	0.	8.5964e-003
12226	14.53	2.9091	5.e-002	2.622e-006
12227	14.53	2.6364	0.	8.5232e-003
12228	14.438	2.7273	0.	8.4953e-003
12229	14.53	2.7273	5.e-002	1.9063e-006
12230	14.53	2.4545	0.	8.263e-003
12231	14.438	2.5455	0.	8.2887e-003
12232	14.53	2.5455	5.e-002	2.1404e-006
12233	14.53	2.2727	0.	7.8826e-003
12234	14.438	2.3636	0.	7.9662e-003
12235	14.53	2.3636	5.e-002	1.9102e-006
12236	14.53	2.0909	0.	7.3669e-003
12237	14.438	2.1818	0.	7.5174e-003
12238	14.53	2.1818	5.e-002	1.679e-006
12239	14.53	1.9091	0.	6.693e-003
12240	14.438	2.	0.	6.9238e-003
12241	14.53	2.	5.e-002	1.4306e-006
12242	14.53	1.7273	0.	5.8356e-003
12243	14.438	1.8182	0.	6.1611e-003
12244	14.53	1.8182	5.e-002	1.9066e-006
12245	14.53	1.5455	0.	4.7628e-003
12246	14.438	1.6364	0.	5.2048e-003
12247	14.53	1.6364	5.e-002	1.3868e-006
12248	14.53	1.3636	0.	3.4397e-003
12249	14.438	1.4545	0.	4.0208e-003
12250	14.53	1.4545	5.e-002	1.3803e-006
12251	14.53	1.1818	0.	1.8082e-003
12252	14.438	1.2727	0.	2.5771e-003
12253	14.53	1.2727	5.e-002	9.6083e-007
12254	14.53	1.	0.	-1.331e-004
12255	14.438	1.0909	0.	7.983e-004
12256	14.53	1.0909	5.e-002	-6.6694e-008
12257	14.53	0.81818	0.	-2.6515e-003
12258	14.438	0.90909	0.	-1.2365e-003
12259	14.53	0.90909	5.e-002	-1.9902e-007
12260	14.53	0.63636	0.	-4.9821e-003
12261	14.438	0.72727	0.	-4.1141e-003
12262	14.53	0.72727	5.e-002	9.9872e-007
12263	14.53	0.45455	0.	-1.1816e-002
12264	14.438	0.54545	0.	-5.7583e-003
12265	14.53	0.54545	5.e-002	7.1397e-007
12266	14.53	0.27273	0.	-1.0465e-002
12267	14.438	0.36364	0.	-1.7117e-002
12268	14.53	0.36364	5.e-002	-3.6587e-007
12269	14.438	0.18182	0.	-4.2705e-004
12270	14.53	0.18182	5.e-002	4.6886e-005
12271	14.53	9.0909e-002	0.	-5.5133e-003
12272	14.346	5.7273	0.	-9.7125e-003
12273	14.254	5.8182	0.	-3.5537e-004
12274	14.346	5.8182	5.e-002	5.3977e-007
12275	14.346	5.9091	0.	-5.2139e-003
12276	14.346	5.5455	0.	-1.1096e-002
12277	14.254	5.6364	0.	-1.5944e-002
12278	14.346	5.6364	5.e-002	3.3908e-006
12279	14.346	5.3636	0.	-4.7997e-003
12280	14.254	5.4545	0.	-5.5048e-003
12281	14.346	5.4545	5.e-002	4.2124e-006
12282	14.346	5.1818	0.	-2.6167e-003
12283	14.254	5.2727	0.	-3.977e-003
12284	14.346	5.2727	5.e-002	1.8454e-006
12285	14.346	5.	0.	-2.3453e-004
12286	14.254	5.0909	0.	-1.2772e-003
12287	14.346	5.0909	5.e-002	2.0873e-006
12288	14.346	4.8182	0.	1.6273e-003
12289	14.254	4.9091	0.	6.6414e-004
12290	14.346	4.9091	5.e-002	1.0947e-006
12291	14.346	4.6364	0.	3.2096e-003
12292	14.254	4.7273	0.	2.3777e-003
12293	14.346	4.7273	5.e-002	-6.1843e-008
12294	14.346	4.4545	0.	4.5079e-003
12295	14.254	4.5455	0.	3.7852e-003
12296	14.346	4.5455	5.e-002	9.5313e-007
12297	14.346	4.2727	0.	5.5703e-003
12298	14.254	4.3636	0.	4.9519e-003
12299	14.346	4.3636	5.e-002	-1.5904e-007
12300	14.346	4.0909	0.	6.4271e-003
12301	14.254	4.1818	0.	5.9023e-003
12302	14.346	4.1818	5.e-002	-9.5337e-007
12303	14.346	3.9091	0.	7.1062e-003
12304	14.254	4.	0.	6.6669e-003
12305	14.346	4.	5.e-002	-2.5271e-007
12306	14.346	3.7273	0.	7.6313e-003
12307	14.254	3.8182	0.	7.2677e-003
12308	14.346	3.8182	5.e-002	-2.3838e-007
12309	14.346	3.5455	0.	8.0211e-003
12310	14.254	3.6364	0.	7.7257e-003
12311	14.346	3.6364	5.e-002	1.4331e-006
12312	14.346	3.3636	0.	8.2887e-003
12313	14.254	3.4545	0.	8.0554e-003
12314	14.346	3.4545	5.e-002	1.435e-006
12315	14.346	3.1818	0.	8.4456e-003
12316	14.254	3.2727	0.	8.2688e-003
12317	14.346	3.2727	5.e-002	4.7731e-007
12318	14.346	3.	0.	8.4972e-003
12319	14.254	3.0909	0.	8.3737e-003
12320	14.346	3.0909	5.e-002	1.4315e-006
12321	14.346	2.8182	0.	8.4455e-003
12322	14.254	2.9091	0.	8.3732e-003
12323	14.346	2.9091	5.e-002	2.3834e-006
12324	14.346	2.6364	0.	8.2893e-003
12325	14.254	2.7273	0.	8.2688e-003
12326	14.346	2.7273	5.e-002	2.3818e-006
12327	14.346	2.4545	0.	8.0215e-003
12328	14.254	2.5455	0.	8.0561e-003
12329	14.346	2.5455	5.e-002	1.9041e-006
12330	14.346	2.2727	0.	7.632e-003
12331	14.254	2.3636	0.	7.7256e-003
12332	14.346	2.3636	5.e-002	1.8946e-006
12333	14.346	2.0909	0.	7.1074e-003
12334	14.254	2.1818	0.	7.2683e-003
12335	14.346	2.1818	5.e-002	1.6454e-006
12336	14.346	1.9091	0.	6.428e-003
12337	14.254	2.	0.	6.6676e-003
12338	14.346	2.	5.e-002	1.8782e-006
12339	14.346	1.7273	0.	5.5704e-003
12340	14.254	1.8182	0.	5.903e-003
12341	14.346	1.8182	5.e-002	1.8481e-006
12342	14.346	1.5455	0.	4.5081e-003
12343	14.254	1.6364	0.	4.9514e-003
12344	14.346	1.6364	5.e-002	1.9991e-006
12345	14.346	1.3636	0.	3.2103e-003
12346	14.254	1.4545	0.	3.7861e-003
12347	14.346	1.4545	5.e-002	2.0812e-006
12348	14.346	1.1818	0.	1.6279e-003
12349	14.254	1.2727	0.	2.3784e-003
12350	14.346	1.2727	5.e-002	1.684e-006
12351	14.346	1.	0.	-2.3377e-004
12352	14.254	1.0909	0.	6.6498e-004
12353	14.346	1.0909	5.e-002	3.5976e-007
12354	14.346	0.81818	0.	-2.6155e-003
12355	14.254	0.90909	0.	-1.2761e-003
12356	14.346	0.90909	5.e-002	-7.2124e-007
12357	14.346	0.63636	0.	-4.799e-003
12358	14.254	0.72727	0.	-3.9754e-003
12359	14.346	0.72727	5.e-002	2.1431e-008
12360	14.346	0.45455	0.	-1.1097e-002
12361	14.254	0.54545	0.	-5.5055e-003
12362	14.346	0.54545	5.e-002	1.7854e-007
12363	14.346	0.27273	0.	-9.7124e-003
12364	14.254	0.36364	0.	-1.5944e-002
12365	14.346	0.36364	5.e-002	8.4771e-007
12366	14.254	0.18182	0.	-3.5447e-004
12367	14.346	0.18182	5.e-002	2.6242e-005
12368	14.346	9.0909e-002	0.	-5.2136e-003
12369	14.163	5.7273	0.	-9.0167e-003
12370	14.071	5.8182	0.	-3.3998e-004
12371	14.163	5.8182	5.e-002	5.0905e-005
12372	14.163	5.9091	0.	-4.9211e-003
12373	14.163	5.5455	0.	-1.0405e-002
12374	14.071	5.6364	0.	-1.4845e-002
12375	14.163	5.6364	5.e-002	3.5611e-006
12376	14.163	5.3636	0.	-4.609e-003
12377	14.071	5.4545	0.	-5.2689e-003
12378	14.163	5.4545	5.e-002	4.4944e-006
12379	14.163	5.1818	0.	-2.5672e-003
12380	14.071	5.2727	0.	-3.8488e-003
12381	14.163	5.2727	5.e-002	2.0311e-006
12382	14.163	5.	0.	-3.1661e-004
12383	14.071	5.0909	0.	-1.3204e-003
12384	14.163	5.0909	5.e-002	1.8145e-006
12385	14.163	4.8182	0.	1.4687e-003
12386	14.071	4.9091	0.	5.2944e-004
12387	14.163	4.9091	5.e-002	1.1912e-006
12388	14.163	4.6364	0.	3.0009e-003
12389	14.071	4.7273	0.	2.1778e-003
12390	14.163	4.7273	5.e-002	-1.1914e-007
12391	14.163	4.4545	0.	4.2715e-003
12392	14.071	4.5455	0.	3.548e-003
12393	14.163	4.5455	5.e-002	1.3255e-006
12394	14.163	4.2727	0.	5.322e-003
12395	14.071	4.3636	0.	4.6947e-003
12396	14.163	4.3636	5.e-002	-5.1343e-007
12397	14.163	4.0909	0.	6.1771e-003
12398	14.071	4.1818	0.	5.6387e-003
12399	14.163	4.1818	5.e-002	-3.5753e-007
12400	14.163	3.9091	0.	6.8609e-003
12401	14.071	4.	0.	6.4044e-003
12402	14.163	4.	5.e-002	-3.6492e-007
12403	14.163	3.7273	0.	7.3929e-003
12404	14.071	3.8182	0.	7.0108e-003
12405	14.163	3.8182	5.e-002	2.2762e-007
12406	14.163	3.5455	0.	7.7897e-003
12407	14.071	3.6364	0.	7.4753e-003
12408	14.163	3.6364	5.e-002	1.9095e-006
12409	14.163	3.3636	0.	8.0644e-003
12410	14.071	3.4545	0.	7.8121e-003
12411	14.163	3.4545	5.e-002	1.4334e-006
12412	14.163	3.1818	0.	8.2253e-003
12413	14.071	3.2727	0.	8.031e-003
12414	14.163	3.2727	5.e-002	1.1929e-006
12415	14.163	3.	0.	8.2779e-003
12416	14.071	3.0909	0.	8.1383e-003
12417	14.163	3.0909	5.e-002	1.9081e-006
12418	14.163	2.8182	0.	8.2249e-003
12419	14.071	2.9091	0.	8.1385e-003
12420	14.163	2.9091	5.e-002	2.1449e-006
12421	14.163	2.6364	0.	8.0646e-003
12422	14.071	2.7273	0.	8.0302e-003
12423	14.163	2.7273	5.e-002	2.6208e-006
12424	14.163	2.4545	0.	7.79e-003
12425	14.071	2.5455	0.	7.8129e-003
12426	14.163	2.5455	5.e-002	2.1368e-006
12427	14.163	2.2727	0.	7.3929e-003
12428	14.071	2.3636	0.	7.4749e-003
12429	14.163	2.3636	5.e-002	2.1396e-006
12430	14.163	2.0909	0.	6.8611e-003
12431	14.071	2.1818	0.	7.0105e-003
12432	14.163	2.1818	5.e-002	2.124e-006
12433	14.163	1.9091	0.	6.1776e-003
12434	14.071	2.	0.	6.4041e-003
12435	14.163	2.	5.e-002	1.7613e-006
12436	14.163	1.7273	0.	5.3221e-003
12437	14.071	1.8182	0.	5.6392e-003
12438	14.163	1.8182	5.e-002	2.2727e-006
12439	14.163	1.5455	0.	4.2716e-003
12440	14.071	1.6364	0.	4.695e-003
12441	14.163	1.6364	5.e-002	2.0714e-006
12442	14.163	1.3636	0.	3.0017e-003
12443	14.071	1.4545	0.	3.549e-003
12444	14.163	1.4545	5.e-002	2.6213e-006
12445	14.163	1.1818	0.	1.4695e-003
12446	14.071	1.2727	0.	2.1789e-003
12447	14.163	1.2727	5.e-002	2.2726e-006
12448	14.163	1.	0.	-3.1544e-004
12449	14.071	1.0909	0.	5.3039e-004
12450	14.163	1.0909	5.e-002	1.5857e-006
12451	14.163	0.81818	0.	-2.5656e-003
12452	14.071	0.90909	0.	-1.3189e-003
12453	14.163	0.90909	5.e-002	5.6575e-007
12454	14.163	0.63636	0.	-4.6088e-003
12455	14.071	0.72727	0.	-3.8473e-003
12456	14.163	0.72727	5.e-002	6.5513e-007
12457	14.163	0.45455	0.	-1.0405e-002
12458	14.071	0.54545	0.	-5.2708e-003
12459	14.163	0.54545	5.e-002	-3.6519e-007
12460	14.163	0.27273	0.	-9.0161e-003
12461	14.071	0.36364	0.	-1.4846e-002
12462	14.163	0.36364	5.e-002	-7.9494e-007
12463	14.071	0.18182	0.	-3.3804e-004
12464	14.163	0.18182	5.e-002	-2.5757e-006
12465	14.163	9.0909e-002	0.	-4.9196e-003
12466	13.979	5.7273	0.	-8.4056e-003
12467	13.887	5.8182	0.	-3.763e-004
12468	13.979	5.8182	5.e-002	2.9008e-005
12469	13.979	5.9091	0.	-4.6708e-003
12470	13.979	5.5455	0.	-9.7745e-003
12471	13.887	5.6364	0.	-1.3812e-002
12472	13.979	5.6364	5.e-002	3.1223e-006
12473	13.979	5.3636	0.	-4.4519e-003
12474	13.887	5.4545	0.	-5.052e-003
12475	13.979	5.4545	5.e-002	4.2086e-006
12476	13.979	5.1818	0.	-2.5441e-003
12477	13.887	5.2727	0.	-3.7334e-003
12478	13.979	5.2727	5.e-002	1.6633e-006
12479	13.979	5.	0.	-4.2169e-004
12480	13.887	5.0909	0.	-1.3705e-003
12481	13.979	5.0909	5.e-002	1.5417e-006
12482	13.979	4.8182	0.	1.286e-003
12483	13.887	4.9091	0.	3.8794e-004
12484	13.979	4.9091	5.e-002	9.299e-007
12485	13.979	4.6364	0.	2.7677e-003
12486	13.887	4.7273	0.	1.9714e-003
12487	13.979	4.7273	5.e-002	-4.6094e-007
12488	13.979	4.4545	0.	4.0102e-003
12489	13.887	4.5455	0.	3.3034e-003
12490	13.979	4.5455	5.e-002	7.1497e-007
12491	13.979	4.2727	0.	5.0473e-003
12492	13.887	4.3636	0.	4.4295e-003
12493	13.979	4.3636	5.e-002	-8.0057e-007
12494	13.979	4.0909	0.	5.8996e-003
12495	13.887	4.1818	0.	5.3653e-003
12496	13.979	4.1818	5.e-002	-5.9591e-007
12497	13.979	3.9091	0.	6.5861e-003
12498	13.887	4.	0.	6.1305e-003
12499	13.979	4.	5.e-002	-7.0523e-007
12500	13.979	3.7273	0.	7.1238e-003
12501	13.887	3.8182	0.	6.7415e-003
12502	13.979	3.8182	5.e-002	-1.258e-007
12503	13.979	3.5455	0.	7.5275e-003
12504	13.887	3.6364	0.	7.2127e-003
12505	13.979	3.6364	5.e-002	1.4324e-006
12506	13.979	3.3636	0.	7.8079e-003
12507	13.887	3.4545	0.	7.5558e-003
12508	13.979	3.4545	5.e-002	1.0756e-006
12509	13.979	3.1818	0.	7.9729e-003
12510	13.887	3.2727	0.	7.7798e-003
12511	13.979	3.2727	5.e-002	7.1606e-007
12512	13.979	3.	0.	8.0276e-003
12513	13.887	3.0909	0.	7.8897e-003
12514	13.979	3.0909	5.e-002	1.4316e-006
12515	13.979	2.8182	0.	7.9727e-003
12516	13.887	2.9091	0.	7.8902e-003
12517	13.979	2.9091	5.e-002	2.383e-006
12518	13.979	2.6364	0.	7.8078e-003
12519	13.887	2.7273	0.	7.7792e-003
12520	13.979	2.7273	5.e-002	1.4281e-006
12521	13.979	2.4545	0.	7.5277e-003
12522	13.887	2.5455	0.	7.5565e-003
12523	13.979	2.5455	5.e-002	1.5388e-006
12524	13.979	2.2727	0.	7.1232e-003
12525	13.887	2.3636	0.	7.212e-003
12526	13.979	2.3636	5.e-002	1.5344e-006
12527	13.979	2.0909	0.	6.5854e-003
12528	13.887	2.1818	0.	6.741e-003
12529	13.979	2.1818	5.e-002	1.427e-006
12530	13.979	1.9091	0.	5.8994e-003
12531	13.887	2.	0.	6.1307e-003
12532	13.979	2.	5.e-002	1.513e-006
12533	13.979	1.7273	0.	5.048e-003
12534	13.887	1.8182	0.	5.3653e-003
12535	13.979	1.8182	5.e-002	1.878e-006
12536	13.979	1.5455	0.	4.0113e-003
12537	13.887	1.6364	0.	4.4306e-003
12538	13.979	1.6364	5.e-002	1.6201e-006
12539	13.979	1.3636	0.	2.769e-003
12540	13.887	1.4545	0.	3.3044e-003
12541	13.979	1.4545	5.e-002	2.2641e-006
12542	13.979	1.1818	0.	1.2871e-003
12543	13.887	1.2727	0.	1.972e-003
12544	13.979	1.2727	5.e-002	2.0151e-006
12545	13.979	1.	0.	-4.204e-004
12546	13.887	1.0909	0.	3.8856e-004
12547	13.979	1.0909	5.e-002	2.2867e-006
12548	13.979	0.81818	0.	-2.5427e-003
12549	13.887	0.90909	0.	-1.3687e-003
12550	13.979	0.90909	5.e-002	1.6881e-006
12551	13.979	0.63636	0.	-4.4525e-003
12552	13.887	0.72727	0.	-3.7328e-003
12553	13.979	0.72727	5.e-002	8.6564e-007
12554	13.979	0.45455	0.	-9.776e-003
12555	13.887	0.54545	0.	-5.0539e-003
12556	13.979	0.54545	5.e-002	-1.1583e-006
12557	13.979	0.27273	0.	-8.4046e-003
12558	13.887	0.36364	0.	-1.3812e-002
12559	13.979	0.36364	5.e-002	1.4128e-007
12560	13.887	0.18182	0.	-3.7479e-004
12561	13.979	0.18182	5.e-002	4.8225e-007
12562	13.979	9.0909e-002	0.	-4.6701e-003
12563	13.795	5.7273	0.	-7.8347e-003
12564	13.703	5.8182	0.	-4.3999e-004
12565	13.795	5.8182	5.e-002	3.8619e-007
12566	13.795	5.9091	0.	-4.4272e-003
12567	13.795	5.5455	0.	-9.1636e-003
12568	13.703	5.6364	0.	-1.2811e-002
12569	13.795	5.6364	5.e-002	2.5651e-006
12570	13.795	5.3636	0.	-4.2915e-003
12571	13.703	5.4545	0.	-4.832e-003
12572	13.795	5.4545	5.e-002	3.7102e-006
12573	13.795	5.1818	0.	-2.5136e-003
12574	13.703	5.2727	0.	-3.6109e-003
12575	13.795	5.2727	5.e-002	1.7124e-006
12576	13.795	5.	0.	-5.1717e-004
12577	13.703	5.0909	0.	-1.4097e-003
12578	13.795	5.0909	5.e-002	1.4892e-006
12579	13.795	4.8182	0.	1.1139e-003
12580	13.703	4.9091	0.	2.5771e-004
12581	13.795	4.9091	5.e-002	6.7118e-007
12582	13.795	4.6364	0.	2.5448e-003
12583	13.703	4.7273	0.	1.7757e-003
12584	13.795	4.7273	5.e-002	-4.2465e-007
12585	13.795	4.4545	0.	3.758e-003
12586	13.703	4.5455	0.	3.0689e-003
12587	13.795	4.5455	5.e-002	8.0955e-007
12588	13.795	4.2727	0.	4.7808e-003
12589	13.703	4.3636	0.	4.1732e-003
12590	13.795	4.3636	5.e-002	-8.2645e-007
12591	13.795	4.0909	0.	5.6282e-003
12592	13.703	4.1818	0.	5.1001e-003
12593	13.795	4.1818	5.e-002	-1.0727e-006
12594	13.795	3.9091	0.	6.3168e-003
12595	13.703	4.	0.	5.8647e-003
12596	13.795	4.	5.e-002	-1.0756e-006
12597	13.795	3.7273	0.	6.8606e-003
12598	13.703	3.8182	0.	6.4801e-003
12599	13.795	3.8182	5.e-002	-4.8575e-007
12600	13.795	3.5455	0.	7.2708e-003
12601	13.703	3.6364	0.	6.9577e-003
12602	13.795	3.6364	5.e-002	1.3043e-006
12603	13.795	3.3636	0.	7.5572e-003
12604	13.703	3.4545	0.	7.3075e-003
12605	13.795	3.4545	5.e-002	9.4954e-007
12606	13.795	3.1818	0.	7.7261e-003
12607	13.703	3.2727	0.	7.5367e-003
12608	13.795	3.2727	5.e-002	5.931e-007
12609	13.795	3.	0.	7.7816e-003
12610	13.703	3.0909	0.	7.6494e-003
12611	13.795	3.0909	5.e-002	1.0728e-006
12612	13.795	2.8182	0.	7.7261e-003
12613	13.703	2.9091	0.	7.6494e-003
12614	13.795	2.9091	5.e-002	2.0267e-006
12615	13.795	2.6364	0.	7.5575e-003
12616	13.703	2.7273	0.	7.5368e-003
12617	13.795	2.7273	5.e-002	2.0265e-006
12618	13.795	2.4545	0.	7.2707e-003
12619	13.703	2.5455	0.	7.308e-003
12620	13.795	2.5455	5.e-002	1.6672e-006
12621	13.795	2.2727	0.	6.8601e-003
12622	13.703	2.3636	0.	6.9575e-003
12623	13.795	2.3636	5.e-002	1.7811e-006
12624	13.795	2.0909	0.	6.3173e-003
12625	13.703	2.1818	0.	6.4799e-003
12626	13.795	2.1818	5.e-002	1.6598e-006
12627	13.795	1.9091	0.	5.6286e-003
12628	13.703	2.	0.	5.8649e-003
12629	13.795	2.	5.e-002	1.6577e-006
12630	13.795	1.7273	0.	4.7814e-003
12631	13.703	1.8182	0.	5.1003e-003
12632	13.795	1.8182	5.e-002	2.0262e-006
12633	13.795	1.5455	0.	3.759e-003
12634	13.703	1.6364	0.	4.174e-003
12635	13.795	1.6364	5.e-002	2.0338e-006
12636	13.795	1.3636	0.	2.5452e-003
12637	13.703	1.4545	0.	3.0693e-003
12638	13.795	1.4545	5.e-002	2.1103e-006
12639	13.795	1.1818	0.	1.1141e-003
12640	13.703	1.2727	0.	1.7763e-003
12641	13.795	1.2727	5.e-002	1.9866e-006
12642	13.795	1.	0.	-5.16e-004
12643	13.703	1.0909	0.	2.5784e-004
12644	13.795	1.0909	5.e-002	2.5936e-006
12645	13.795	0.81818	0.	-2.5126e-003
12646	13.703	0.90909	0.	-1.4076e-003
12647	13.795	0.90909	5.e-002	2.3827e-006
12648	13.795	0.63636	0.	-4.2922e-003
12649	13.703	0.72727	0.	-3.6106e-003
12650	13.795	0.72727	5.e-002	1.2736e-006
12651	13.795	0.45455	0.	-9.164e-003
12652	13.703	0.54545	0.	-4.8326e-003
12653	13.795	0.54545	5.e-002	1.0481e-006
12654	13.795	0.27273	0.	-7.8342e-003
12655	13.703	0.36364	0.	-1.2811e-002
12656	13.795	0.36364	5.e-002	1.5458e-006
12657	13.703	0.18182	0.	-4.3891e-004
12658	13.795	0.18182	5.e-002	2.6754e-005
12659	13.795	9.0909e-002	0.	-4.4263e-003
12660	13.611	5.7273	0.	-7.2913e-003
12661	13.519	5.8182	0.	-5.1917e-004
12662	13.611	5.8182	5.e-002	-9.3836e-007
12663	13.611	5.9091	0.	-4.1838e-003
12664	13.611	5.5455	0.	-8.5612e-003
12665	13.519	5.6364	0.	-1.1826e-002
12666	13.611	5.6364	5.e-002	2.6379e-006
12667	13.611	5.3636	0.	-4.1228e-003
12668	13.519	5.4545	0.	-4.5995e-003
12669	13.611	5.4545	5.e-002	3.6631e-006
12670	13.611	5.1818	0.	-2.472e-003
12671	13.519	5.2727	0.	-3.4737e-003
12672	13.611	5.2727	5.e-002	1.8398e-006
12673	13.611	5.	0.	-6.0002e-004
12674	13.519	5.0909	0.	-1.4321e-003
12675	13.611	5.0909	5.e-002	1.463e-006
12676	13.611	4.8182	0.	9.531e-004
12677	13.519	4.9091	0.	1.4276e-004
12678	13.611	4.9091	5.e-002	7.7454e-007
12679	13.611	4.6364	0.	2.3321e-003
12680	13.519	4.7273	0.	1.5938e-003
12681	13.611	4.7273	5.e-002	-3.8227e-007
12682	13.611	4.4545	0.	3.5154e-003
12683	13.519	4.5455	0.	2.8471e-003
12684	13.611	4.5455	5.e-002	7.0836e-007
12685	13.611	4.2727	0.	4.523e-003
12686	13.519	4.3636	0.	3.9288e-003
12687	13.611	4.3636	5.e-002	-7.0885e-007
12688	13.611	4.0909	0.	5.3666e-003
12689	13.519	4.1818	0.	4.847e-003
12690	13.611	4.1818	5.e-002	-9.489e-007
12691	13.611	3.9091	0.	6.0578e-003
12692	13.519	4.	0.	5.6118e-003
12693	13.611	4.	5.e-002	-3.7732e-007
12694	13.611	3.7273	0.	6.6069e-003
12695	13.519	3.8182	0.	6.2317e-003
12696	13.611	3.8182	5.e-002	-1.5425e-008
12697	13.611	3.5455	0.	7.0242e-003
12698	13.519	3.6364	0.	6.7168e-003
12699	13.611	3.6364	5.e-002	1.192e-006
12700	13.611	3.3636	0.	7.3169e-003
12701	13.519	3.4545	0.	7.0738e-003
12702	13.611	3.4545	5.e-002	1.3082e-006
12703	13.611	3.1818	0.	7.49e-003
12704	13.519	3.2727	0.	7.3087e-003
12705	13.611	3.2727	5.e-002	4.7354e-007
12706	13.611	3.	0.	7.5472e-003
12707	13.519	3.0909	0.	7.4247e-003
12708	13.611	3.0909	5.e-002	1.1912e-006
12709	13.611	2.8182	0.	7.4901e-003
12710	13.519	2.9091	0.	7.425e-003
12711	13.611	2.9091	5.e-002	2.266e-006
12712	13.611	2.6364	0.	7.3172e-003
12713	13.519	2.7273	0.	7.3089e-003
12714	13.611	2.7273	5.e-002	2.0285e-006
12715	13.611	2.4545	0.	7.0245e-003
12716	13.519	2.5455	0.	7.0744e-003
12717	13.611	2.5455	5.e-002	2.0322e-006
12718	13.611	2.2727	0.	6.607e-003
12719	13.519	2.3636	0.	6.7166e-003
12720	13.611	2.3636	5.e-002	2.0265e-006
12721	13.611	2.0909	0.	6.0574e-003
12722	13.519	2.1818	0.	6.2318e-003
12723	13.611	2.1818	5.e-002	1.9217e-006
12724	13.611	1.9091	0.	5.3666e-003
12725	13.519	2.	0.	5.6118e-003
12726	13.611	2.	5.e-002	1.9104e-006
12727	13.611	1.7273	0.	4.5234e-003
12728	13.519	1.8182	0.	4.8473e-003
12729	13.611	1.8182	5.e-002	2.1266e-006
12730	13.611	1.5455	0.	3.5156e-003
12731	13.519	1.6364	0.	3.9292e-003
12732	13.611	1.6364	5.e-002	2.2708e-006
12733	13.611	1.3636	0.	2.3328e-003
12734	13.519	1.4545	0.	2.8468e-003
12735	13.611	1.4545	5.e-002	2.3037e-006
12736	13.611	1.1818	0.	9.537e-004
12737	13.519	1.2727	0.	1.5949e-003
12738	13.611	1.2727	5.e-002	2.527e-006
12739	13.611	1.	0.	-5.9898e-004
12740	13.519	1.0909	0.	1.4284e-004
12741	13.611	1.0909	5.e-002	2.642e-006
12742	13.611	0.81818	0.	-2.4706e-003
12743	13.519	0.90909	0.	-1.4307e-003
12744	13.611	0.90909	5.e-002	2.9357e-006
12745	13.611	0.63636	0.	-4.1225e-003
12746	13.519	0.72727	0.	-3.4729e-003
12747	13.611	0.72727	5.e-002	3.1273e-006
12748	13.611	0.45455	0.	-8.5613e-003
12749	13.519	0.54545	0.	-4.5999e-003
12750	13.611	0.54545	5.e-002	3.0972e-006
12751	13.611	0.27273	0.	-7.2906e-003
12752	13.519	0.36364	0.	-1.1826e-002
12753	13.611	0.36364	5.e-002	1.6078e-006
12754	13.519	0.18182	0.	-5.1814e-004
12755	13.611	0.18182	5.e-002	2.4381e-005
12756	13.611	9.0909e-002	0.	-4.1835e-003
12757	13.427	5.7273	0.	-6.7573e-003
12758	13.335	5.8182	0.	-6.0697e-004
12759	13.427	5.8182	5.e-002	2.7062e-005
12760	13.427	5.9091	0.	-3.9295e-003
12761	13.427	5.5455	0.	-7.9516e-003
12762	13.335	5.6364	0.	-1.0844e-002
12763	13.427	5.6364	5.e-002	3.0809e-006
12764	13.427	5.3636	0.	-3.9339e-003
12765	13.335	5.4545	0.	-4.3491e-003
12766	13.427	5.4545	5.e-002	3.4963e-006
12767	13.427	5.1818	0.	-2.4095e-003
12768	13.335	5.2727	0.	-3.317e-003
12769	13.427	5.2727	5.e-002	1.3907e-006
12770	13.427	5.	0.	-6.635e-004
12771	13.335	5.0909	0.	-1.4352e-003
12772	13.427	5.0909	5.e-002	1.0587e-006
12773	13.427	4.8182	0.	8.0975e-004
12774	13.335	4.9091	0.	4.419e-005
12775	13.427	4.9091	5.e-002	4.6699e-007
12776	13.427	4.6364	0.	2.1352e-003
12777	13.335	4.7273	0.	1.4264e-003
12778	13.427	4.7273	5.e-002	-7.4616e-007
12779	13.427	4.4545	0.	3.2871e-003
12780	13.335	4.5455	0.	2.637e-003
12781	13.427	4.5455	5.e-002	6.9391e-007
12782	13.427	4.2727	0.	4.2799e-003
12783	13.335	4.3636	0.	3.6957e-003
12784	13.427	4.3636	5.e-002	-1.0018e-006
12785	13.427	4.0909	0.	5.1198e-003
12786	13.335	4.1818	0.	4.6057e-003
12787	13.427	4.1818	5.e-002	-1.1142e-006
12788	13.427	3.9091	0.	5.8139e-003
12789	13.335	4.	0.	5.3715e-003
12790	13.427	4.	5.e-002	-6.134e-007
12791	13.427	3.7273	0.	6.3706e-003
12792	13.335	3.8182	0.	5.9981e-003
12793	13.427	3.8182	5.e-002	-3.842e-007
12794	13.427	3.5455	0.	6.7961e-003
12795	13.335	3.6364	0.	6.4922e-003
12796	13.427	3.6364	5.e-002	1.1702e-006
12797	13.427	3.3636	0.	7.0959e-003
12798	13.335	3.4545	0.	6.8589e-003
12799	13.427	3.4545	5.e-002	7.036e-007
12800	13.427	3.1818	0.	7.2741e-003
12801	13.335	3.2727	0.	7.1006e-003
12802	13.427	3.2727	5.e-002	1.1109e-007
12803	13.427	3.	0.	7.3333e-003
12804	13.335	3.0909	0.	7.2207e-003
12805	13.427	3.0909	5.e-002	1.1901e-006
12806	13.427	2.8182	0.	7.2744e-003
12807	13.335	2.9091	0.	7.2208e-003
12808	13.427	2.9091	5.e-002	1.7901e-006
12809	13.427	2.6364	0.	7.0963e-003
12810	13.335	2.7273	0.	7.1007e-003
12811	13.427	2.7273	5.e-002	1.7945e-006
12812	13.427	2.4545	0.	6.7962e-003
12813	13.335	2.5455	0.	6.8594e-003
12814	13.427	2.5455	5.e-002	1.5594e-006
12815	13.427	2.2727	0.	6.3704e-003
12816	13.335	2.3636	0.	6.4922e-003
12817	13.427	2.3636	5.e-002	1.7935e-006
12818	13.427	2.0909	0.	5.8144e-003
12819	13.335	2.1818	0.	5.9982e-003
12820	13.427	2.1818	5.e-002	1.5654e-006
12821	13.427	1.9091	0.	5.12e-003
12822	13.335	2.	0.	5.3717e-003
12823	13.427	2.	5.e-002	1.7992e-006
12824	13.427	1.7273	0.	4.2801e-003
12825	13.335	1.8182	0.	4.606e-003
12826	13.427	1.8182	5.e-002	2.1662e-006
12827	13.427	1.5455	0.	3.2871e-003
12828	13.335	1.6364	0.	3.6963e-003
12829	13.427	1.6364	5.e-002	2.1744e-006
12830	13.427	1.3636	0.	2.1353e-003
12831	13.335	1.4545	0.	2.6372e-003
12832	13.427	1.4545	5.e-002	2.0857e-006
12833	13.427	1.1818	0.	8.1026e-004
12834	13.335	1.2727	0.	1.427e-003
12835	13.427	1.2727	5.e-002	2.3794e-006
12836	13.427	1.	0.	-6.6309e-004
12837	13.335	1.0909	0.	4.5061e-005
12838	13.427	1.0909	5.e-002	2.3685e-006
12839	13.427	0.81818	0.	-2.4087e-003
12840	13.335	0.90909	0.	-1.4344e-003
12841	13.427	0.90909	5.e-002	2.8767e-006
12842	13.427	0.63636	0.	-3.9339e-003
12843	13.335	0.72727	0.	-3.3158e-003
12844	13.427	0.72727	5.e-002	3.8964e-006
12845	13.427	0.45455	0.	-7.9515e-003
12846	13.335	0.54545	0.	-4.349e-003
12847	13.427	0.54545	5.e-002	4.1111e-006
12848	13.427	0.27273	0.	-6.7567e-003
12849	13.335	0.36364	0.	-1.0843e-002
12850	13.427	0.36364	5.e-002	2.1313e-006
12851	13.335	0.18182	0.	-6.0635e-004
12852	13.427	0.18182	5.e-002	2.0726e-007
12853	13.427	9.0909e-002	0.	-3.93e-003
12854	13.243	5.7273	0.	-6.2285e-003
12855	13.151	5.8182	0.	-7.0699e-004
12856	13.243	5.8182	5.e-002	2.6536e-005
12857	13.243	5.9091	0.	-3.6644e-003
12858	13.243	5.5455	0.	-7.3312e-003
12859	13.151	5.6364	0.	-9.8586e-003
12860	13.243	5.6364	5.e-002	2.8048e-006
12861	13.243	5.3636	0.	-3.7268e-003
12862	13.151	5.4545	0.	-4.0841e-003
12863	13.243	5.4545	5.e-002	3.1414e-006
12864	13.243	5.1818	0.	-2.3288e-003
12865	13.151	5.2727	0.	-3.1457e-003
12866	13.243	5.2727	5.e-002	8.3161e-007
12867	13.243	5.	0.	-7.1086e-004
12868	13.151	5.0909	0.	-1.4266e-003
12869	13.243	5.0909	5.e-002	9.3871e-007
12870	13.243	4.8182	0.	6.7907e-004
12871	13.151	4.9091	0.	-4.6691e-005
12872	13.243	4.9091	5.e-002	-9.0509e-010
12873	13.243	4.6364	0.	1.9478e-003
12874	13.151	4.7273	0.	1.2619e-003
12875	13.243	4.7273	5.e-002	-9.1553e-007
12876	13.243	4.4545	0.	3.0666e-003
12877	13.151	4.5455	0.	2.4273e-003
12878	13.243	4.5455	5.e-002	-5.9595e-008
12879	13.243	4.2727	0.	4.0442e-003
12880	13.151	4.3636	0.	3.4617e-003
12881	13.243	4.3636	5.e-002	-1.1287e-006
12882	13.243	4.0909	0.	4.8818e-003
12883	13.151	4.1818	0.	4.364e-003
12884	13.243	4.1818	5.e-002	-1.4067e-006
12885	13.243	3.9091	0.	5.5818e-003
12886	13.151	4.	0.	5.1333e-003
12887	13.243	4.	5.e-002	-9.8179e-007
12888	13.243	3.7273	0.	6.1476e-003
12889	13.151	3.8182	0.	5.77e-003
12890	13.243	3.8182	5.e-002	-6.2041e-007
12891	13.243	3.5455	0.	6.5844e-003
12892	13.151	3.6364	0.	6.2764e-003
12893	13.243	3.6364	5.e-002	6.9715e-007
12894	13.243	3.3636	0.	6.8943e-003
12895	13.151	3.4545	0.	6.6561e-003
12896	13.243	3.4545	5.e-002	5.8639e-007
12897	13.243	3.1818	0.	7.0787e-003
12898	13.151	3.2727	0.	6.907e-003
12899	13.243	3.2727	5.e-002	1.1172e-007
12900	13.243	3.	0.	7.14e-003
12901	13.151	3.0909	0.	7.0324e-003
12902	13.243	3.0909	5.e-002	7.1336e-007
12903	13.243	2.8182	0.	7.0786e-003
12904	13.151	2.9091	0.	7.0323e-003
12905	13.243	2.9091	5.e-002	1.5517e-006
12906	13.243	2.6364	0.	6.8945e-003
12907	13.151	2.7273	0.	6.9074e-003
12908	13.243	2.7273	5.e-002	1.6744e-006
12909	13.243	2.4545	0.	6.5849e-003
12910	13.151	2.5455	0.	6.6564e-003
12911	13.243	2.5455	5.e-002	1.5564e-006
12912	13.243	2.2727	0.	6.148e-003
12913	13.151	2.3636	0.	6.2769e-003
12914	13.243	2.3636	5.e-002	1.6736e-006
12915	13.243	2.0909	0.	5.5816e-003
12916	13.151	2.1818	0.	5.7699e-003
12917	13.243	2.1818	5.e-002	1.3247e-006
12918	13.243	1.9091	0.	4.882e-003
12919	13.151	2.	0.	5.1335e-003
12920	13.243	2.	5.e-002	1.3263e-006
12921	13.243	1.7273	0.	4.0448e-003
12922	13.151	1.8182	0.	4.3645e-003
12923	13.243	1.8182	5.e-002	1.8835e-006
12924	13.243	1.5455	0.	3.0675e-003
12925	13.151	1.6364	0.	3.4623e-003
12926	13.243	1.6364	5.e-002	1.812e-006
12927	13.243	1.3636	0.	1.9486e-003
12928	13.151	1.4545	0.	2.4279e-003
12929	13.243	1.4545	5.e-002	2.1934e-006
12930	13.243	1.1818	0.	6.8008e-004
12931	13.151	1.2727	0.	1.2624e-003
12932	13.243	1.2727	5.e-002	2.3512e-006
12933	13.243	1.	0.	-7.0962e-004
12934	13.151	1.0909	0.	-4.5714e-005
12935	13.243	1.0909	5.e-002	2.5624e-006
12936	13.243	0.81818	0.	-2.3276e-003
12937	13.151	0.90909	0.	-1.4259e-003
12938	13.243	0.90909	5.e-002	3.065e-006
12939	13.243	0.63636	0.	-3.7256e-003
12940	13.151	0.72727	0.	-3.1445e-003
12941	13.243	0.72727	5.e-002	3.1877e-006
12942	13.243	0.45455	0.	-7.3306e-003
12943	13.151	0.54545	0.	-4.0829e-003
12944	13.243	0.54545	5.e-002	3.3052e-006
12945	13.243	0.27273	0.	-6.2279e-003
12946	13.151	0.36364	0.	-9.858e-003
12947	13.243	0.36364	5.e-002	2.1194e-006
12948	13.151	0.18182	0.	-7.0672e-004
12949	13.243	0.18182	5.e-002	1.5723e-006
12950	13.243	9.0909e-002	0.	-3.6641e-003
12951	13.059	5.7273	0.	-5.7072e-003
12952	12.967	5.8182	0.	-8.2723e-004
12953	13.059	5.8182	5.e-002	3.7948e-007
12954	13.059	5.9091	0.	-3.3964e-003
12955	13.059	5.5455	0.	-6.7027e-003
12956	12.967	5.6364	0.	-8.8715e-003
12957	13.059	5.6364	5.e-002	2.5777e-006
12958	13.059	5.3636	0.	-3.5075e-003
12959	12.967	5.4545	0.	-3.8106e-003
12960	13.059	5.4545	5.e-002	3.846e-006
12961	13.059	5.1818	0.	-2.2396e-003
12962	12.967	5.2727	0.	-2.9683e-003
12963	13.059	5.2727	5.e-002	1.8472e-006
12964	13.059	5.	0.	-7.5536e-004
12965	12.967	5.0909	0.	-1.4188e-003
12966	13.059	5.0909	5.e-002	1.8851e-006
12967	13.059	4.8182	0.	5.4554e-004
12968	12.967	4.9091	0.	-1.4494e-004
12969	13.059	4.9091	5.e-002	1.1958e-006
12970	13.059	4.6364	0.	1.753e-003
12971	12.967	4.7273	0.	1.0829e-003
12972	13.059	4.7273	5.e-002	1.0506e-007
12973	13.059	4.4545	0.	2.8364e-003
12974	12.967	4.5455	0.	2.1987e-003
12975	13.059	4.5455	5.e-002	1.4135e-006
12976	13.059	4.2727	0.	3.7983e-003
12977	12.967	4.3636	0.	3.2071e-003
12978	13.059	4.3636	5.e-002	-1.5056e-008
12979	13.059	4.0909	0.	4.6354e-003
12980	12.967	4.1818	0.	4.1024e-003
12981	13.059	4.1818	5.e-002	3.1288e-008
12982	13.059	3.9091	0.	5.3446e-003
12983	12.967	4.	0.	4.8781e-003
12984	13.059	4.	5.e-002	1.5986e-007
12985	13.059	3.7273	0.	5.925e-003
12986	12.967	3.8182	0.	5.5302e-003
12987	13.059	3.8182	5.e-002	5.2109e-007
12988	13.059	3.5455	0.	6.377e-003
12989	12.967	3.6364	0.	6.0557e-003
12990	13.059	3.6364	5.e-002	1.828e-006
12991	13.059	3.3636	0.	6.7e-003
12992	12.967	3.4545	0.	6.4528e-003
12993	13.059	3.4545	5.e-002	1.9004e-006
12994	13.059	3.1818	0.	6.8934e-003
12995	12.967	3.2727	0.	6.7178e-003
12996	13.059	3.2727	5.e-002	1.4268e-006
12997	13.059	3.	0.	6.9578e-003
12998	12.967	3.0909	0.	6.8506e-003
12999	13.059	3.0909	5.e-002	1.8464e-006
13000	13.059	2.8182	0.	6.8937e-003
13001	12.967	2.9091	0.	6.8507e-003
13002	13.059	2.9091	5.e-002	2.6835e-006
13003	13.059	2.6364	0.	6.7006e-003
13004	12.967	2.7273	0.	6.7178e-003
13005	13.059	2.7273	5.e-002	2.6864e-006
13006	13.059	2.4545	0.	6.3774e-003
13007	12.967	2.5455	0.	6.4531e-003
13008	13.059	2.5455	5.e-002	2.4508e-006
13009	13.059	2.2727	0.	5.925e-003
13010	12.967	2.3636	0.	6.0556e-003
13011	13.059	2.3636	5.e-002	2.5112e-006
13012	13.059	2.0909	0.	5.3449e-003
13013	12.967	2.1818	0.	5.53e-003
13014	13.059	2.1818	5.e-002	2.3892e-006
13015	13.059	1.9091	0.	4.6359e-003
13016	12.967	2.	0.	4.8788e-003
13017	13.059	2.	5.e-002	2.5818e-006
13018	13.059	1.7273	0.	3.7988e-003
13019	12.967	1.8182	0.	4.1028e-003
13020	13.059	1.8182	5.e-002	2.9952e-006
13021	13.059	1.5455	0.	2.8367e-003
13022	12.967	1.6364	0.	3.2075e-003
13023	13.059	1.6364	5.e-002	2.923e-006
13024	13.059	1.3636	0.	1.7533e-003
13025	12.967	1.4545	0.	2.1986e-003
13026	13.059	1.4545	5.e-002	3.0598e-006
13027	13.059	1.1818	0.	5.4595e-004
13028	12.967	1.2727	0.	1.0837e-003
13029	13.059	1.2727	5.e-002	3.3008e-006
13030	13.059	1.	0.	-7.5495e-004
13031	12.967	1.0909	0.	-1.4464e-004
13032	13.059	1.0909	5.e-002	3.7561e-006
13033	13.059	0.81818	0.	-2.2389e-003
13034	12.967	0.90909	0.	-1.4176e-003
13035	13.059	0.90909	5.e-002	4.0283e-006
13036	13.059	0.63636	0.	-3.5064e-003
13037	12.967	0.72727	0.	-2.9674e-003
13038	13.059	0.72727	5.e-002	3.7914e-006
13039	13.059	0.45455	0.	-6.7016e-003
13040	12.967	0.54545	0.	-3.81e-003
13041	13.059	0.54545	5.e-002	2.5648e-006
13042	13.059	0.27273	0.	-5.7069e-003
13043	12.967	0.36364	0.	-8.8713e-003
13044	13.059	0.36364	5.e-002	3.0874e-006
13045	12.967	0.18182	0.	-8.2717e-004
13046	13.059	0.18182	5.e-002	2.1044e-006
13047	13.059	9.0909e-002	0.	-3.3963e-003
13048	12.875	5.7273	0.	-5.198e-003
13049	12.783	5.8182	0.	-9.9473e-004
13050	12.875	5.8182	5.e-002	5.7016e-007
13051	12.875	5.9091	0.	-3.132e-003
13052	12.875	5.5455	0.	-6.0698e-003
13053	12.783	5.6364	0.	-7.9023e-003
13054	12.875	5.6364	5.e-002	2.1124e-006
13055	12.875	5.3636	0.	-3.2847e-003
13056	12.783	5.4545	0.	-3.5546e-003
13057	12.875	5.4545	5.e-002	3.0801e-006
13058	12.875	5.1818	0.	-2.1532e-003
13059	12.783	5.2727	0.	-2.8137e-003
13060	12.875	5.2727	5.e-002	1.1889e-006
13061	12.875	5.	0.	-8.1136e-004
13062	12.783	5.0909	0.	-1.4424e-003
13063	12.875	5.0909	5.e-002	1.2962e-006
13064	12.875	4.8182	0.	3.9158e-004
13065	12.783	4.9091	0.	-2.8651e-004
13066	12.875	4.9091	5.e-002	5.9597e-007
13067	12.875	4.6364	0.	1.5301e-003
13068	12.783	4.7273	0.	8.5031e-004
13069	12.875	4.7273	5.e-002	-3.7356e-007
13070	12.875	4.4545	0.	2.574e-003
13071	12.783	4.5455	0.	1.9073e-003
13072	12.875	4.5455	5.e-002	7.4152e-007
13073	12.875	4.2727	0.	3.5196e-003
13074	12.783	4.3636	0.	2.8861e-003
13075	12.875	4.3636	5.e-002	-5.3467e-007
13076	12.875	4.0909	0.	4.358e-003
13077	12.783	4.1818	0.	3.7749e-003
13078	12.875	4.1818	5.e-002	-6.8011e-007
13079	12.875	3.9091	0.	5.0817e-003
13080	12.783	4.	0.	4.5623e-003
13081	12.875	4.	5.e-002	-4.325e-007
13082	12.875	3.7273	0.	5.6841e-003
13083	12.783	3.8182	0.	5.2377e-003
13084	12.875	3.8182	5.e-002	-6.7815e-008
13085	12.875	3.5455	0.	6.1593e-003
13086	12.783	3.6364	0.	5.7917e-003
13087	12.875	3.6364	5.e-002	1.305e-006
13088	12.875	3.3636	0.	6.5022e-003
13089	12.783	3.4545	0.	6.217e-003
13090	12.875	3.4545	5.e-002	1.1282e-006
13091	12.875	3.1818	0.	6.7092e-003
13092	12.783	3.2727	0.	6.5036e-003
13093	12.875	3.2727	5.e-002	5.3384e-007
13094	12.875	3.	0.	6.7786e-003
13095	12.783	3.0909	0.	6.6483e-003
13096	12.875	3.0909	5.e-002	1.4298e-006
13097	12.875	2.8182	0.	6.7091e-003
13098	12.783	2.9091	0.	6.6485e-003
13099	12.875	2.9091	5.e-002	2.0869e-006
13100	12.875	2.6364	0.	6.5021e-003
13101	12.783	2.7273	0.	6.5033e-003
13102	12.875	2.7273	5.e-002	1.969e-006
13103	12.875	2.4545	0.	6.1592e-003
13104	12.783	2.5455	0.	6.2171e-003
13105	12.875	2.5455	5.e-002	1.7915e-006
13106	12.875	2.2727	0.	5.6836e-003
13107	12.783	2.3636	0.	5.7919e-003
13108	12.875	2.3636	5.e-002	2.0265e-006
13109	12.875	2.0909	0.	5.0818e-003
13110	12.783	2.1818	0.	5.2375e-003
13111	12.875	2.1818	5.e-002	1.7881e-006
13112	12.875	1.9091	0.	4.3586e-003
13113	12.783	2.	0.	4.563e-003
13114	12.875	2.	5.e-002	1.9124e-006
13115	12.875	1.7273	0.	3.5199e-003
13116	12.783	1.8182	0.	3.7757e-003
13117	12.875	1.8182	5.e-002	2.3841e-006
13118	12.875	1.5455	0.	2.574e-003
13119	12.783	1.6364	0.	2.8867e-003
13120	12.875	1.6364	5.e-002	2.1456e-006
13121	12.875	1.3636	0.	1.5306e-003
13122	12.783	1.4545	0.	1.9079e-003
13123	12.875	1.4545	5.e-002	2.4734e-006
13124	12.875	1.1818	0.	3.9235e-004
13125	12.783	1.2727	0.	8.5109e-004
13126	12.875	1.2727	5.e-002	2.5848e-006
13127	12.875	1.	0.	-8.1023e-004
13128	12.783	1.0909	0.	-2.8584e-004
13129	12.875	1.0909	5.e-002	2.4473e-006
13130	12.875	0.81818	0.	-2.1518e-003
13131	12.783	0.90909	0.	-1.4409e-003
13132	12.875	0.90909	5.e-002	2.6212e-006
13133	12.875	0.63636	0.	-3.2843e-003
13134	12.783	0.72727	0.	-2.8124e-003
13135	12.875	0.72727	5.e-002	2.8605e-006
13136	12.875	0.45455	0.	-6.07e-003
13137	12.783	0.54545	0.	-3.5549e-003
13138	12.875	0.54545	5.e-002	2.4953e-006
13139	12.875	0.27273	0.	-5.1979e-003
13140	12.783	0.36364	0.	-7.9023e-003
13141	12.875	0.36364	5.e-002	2.4914e-006
13142	12.783	0.18182	0.	-9.9427e-004
13143	12.875	0.18182	5.e-002	4.8421e-005
13144	12.875	9.0909e-002	0.	-3.1314e-003
13145	12.691	5.7273	0.	-4.7421e-003
13146	12.599	5.8182	0.	-1.2119e-003
13147	12.691	5.8182	5.e-002	9.659e-007
13148	12.691	5.9091	0.	-2.9139e-003
13149	12.691	5.5455	0.	-5.4743e-003
13150	12.599	5.6364	0.	-6.9448e-003
13151	12.691	5.6364	5.e-002	2.3944e-006
13152	12.691	5.3636	0.	-3.1044e-003
13153	12.599	5.4545	0.	-3.3162e-003
13154	12.691	5.4545	5.e-002	3.0615e-006
13155	12.691	5.1818	0.	-2.1179e-003
13156	12.599	5.2727	0.	-2.6835e-003
13157	12.691	5.2727	5.e-002	1.2554e-006
13158	12.691	5.	0.	-9.3131e-004
13159	12.599	5.0909	0.	-1.5054e-003
13160	12.691	5.0909	5.e-002	1.2814e-006
13161	12.691	4.8182	0.	1.5924e-004
13162	12.599	4.9091	0.	-4.8538e-004
13163	12.691	4.9091	5.e-002	7.3252e-007
13164	12.691	4.6364	0.	1.2159e-003
13165	12.599	4.7273	0.	5.421e-004
13166	12.691	4.7273	5.e-002	-8.3831e-008
13167	12.691	4.4545	0.	2.2102e-003
13168	12.599	4.5455	0.	1.5259e-003
13169	12.691	4.5455	5.e-002	8.0602e-007
13170	12.691	4.2727	0.	3.1364e-003
13171	12.599	4.3636	0.	2.4648e-003
13172	12.691	4.3636	5.e-002	-5.2874e-007
13173	12.691	4.0909	0.	3.9802e-003
13174	12.599	4.1818	0.	3.3453e-003
13175	12.691	4.1818	5.e-002	-5.4575e-007
13176	12.691	3.9091	0.	4.7268e-003
13177	12.599	4.	0.	4.1512e-003
13178	12.691	4.	5.e-002	-3.3117e-007
13179	12.691	3.7273	0.	5.3622e-003
13180	12.599	3.8182	0.	4.8629e-003
13181	12.691	3.8182	5.e-002	1.0997e-007
13182	12.691	3.5455	0.	5.8744e-003
13183	12.599	3.6364	0.	5.4628e-003
13184	12.691	3.6364	5.e-002	1.1827e-006
13185	12.691	3.3636	0.	6.2504e-003
13186	12.599	3.4545	0.	5.9346e-003
13187	12.691	3.4545	5.e-002	1.188e-006
13188	12.691	3.1818	0.	6.4794e-003
13189	12.599	3.2727	0.	6.2587e-003
13190	12.691	3.2727	5.e-002	8.325e-007
13191	12.691	3.	0.	6.5565e-003
13192	12.599	3.0909	0.	6.4234e-003
13193	12.691	3.0909	5.e-002	1.4299e-006
13194	12.691	2.8182	0.	6.4793e-003
13195	12.599	2.9091	0.	6.4235e-003
13196	12.691	2.9091	5.e-002	2.0867e-006
13197	12.691	2.6364	0.	6.2502e-003
13198	12.599	2.7273	0.	6.2582e-003
13199	12.691	2.7273	5.e-002	1.8502e-006
13200	12.691	2.4545	0.	5.8748e-003
13201	12.599	2.5455	0.	5.9348e-003
13202	12.691	2.5455	5.e-002	1.8503e-006
13203	12.691	2.2727	0.	5.3626e-003
13204	12.599	2.3636	0.	5.4633e-003
13205	12.691	2.3636	5.e-002	1.8479e-006
13206	12.691	2.0909	0.	4.7272e-003
13207	12.599	2.1818	0.	4.8628e-003
13208	12.691	2.1818	5.e-002	1.7049e-006
13209	12.691	1.9091	0.	3.9811e-003
13210	12.599	2.	0.	4.1517e-003
13211	12.691	2.	5.e-002	1.941e-006
13212	12.691	1.7273	0.	3.1375e-003
13213	12.599	1.8182	0.	3.3458e-003
13214	12.691	1.8182	5.e-002	2.3353e-006
13215	12.691	1.5455	0.	2.2114e-003
13216	12.599	1.6364	0.	2.4654e-003
13217	12.691	1.6364	5.e-002	2.426e-006
13218	12.691	1.3636	0.	1.2167e-003
13219	12.599	1.4545	0.	1.5263e-003
13220	12.691	1.4545	5.e-002	2.397e-006
13221	12.691	1.1818	0.	1.5992e-004
13222	12.599	1.2727	0.	5.4257e-004
13223	12.691	1.2727	5.e-002	2.3542e-006
13224	12.691	1.	0.	-9.3026e-004
13225	12.599	1.0909	0.	-4.8514e-004
13226	12.691	1.0909	5.e-002	2.2818e-006
13227	12.691	0.81818	0.	-2.1165e-003
13228	12.599	0.90909	0.	-1.5038e-003
13229	12.691	0.90909	5.e-002	2.1815e-006
13230	12.691	0.63636	0.	-3.1037e-003
13231	12.599	0.72727	0.	-2.6818e-003
13232	12.691	0.72727	5.e-002	2.6132e-006
13233	12.691	0.45455	0.	-5.4744e-003
13234	12.599	0.54545	0.	-3.3164e-003
13235	12.691	0.54545	5.e-002	2.7335e-006
13236	12.691	0.27273	0.	-4.7416e-003
13237	12.599	0.36364	0.	-6.9443e-003
13238	12.691	0.36364	5.e-002	3.2357e-006
13239	12.599	0.18182	0.	-1.2114e-003
13240	12.691	0.18182	5.e-002	1.0733e-006
13241	12.691	9.0909e-002	0.	-2.9129e-003
13242	12.507	5.7273	0.	-4.2938e-003
13243	12.415	5.8182	0.	-1.4573e-003
13244	12.507	5.8182	5.e-002	1.6213e-006
13245	12.507	5.9091	0.	-2.702e-003
13246	12.507	5.5455	0.	-4.8682e-003
13247	12.415	5.6364	0.	-5.9661e-003
13248	12.507	5.6364	5.e-002	2.9053e-006
13249	12.507	5.3636	0.	-2.9219e-003
13250	12.415	5.4545	0.	-3.0688e-003
13251	12.507	5.4545	5.e-002	3.5536e-006
13252	12.507	5.1818	0.	-2.0947e-003
13253	12.415	5.2727	0.	-2.5545e-003
13254	12.507	5.2727	5.e-002	1.6944e-006
13255	12.507	5.	0.	-1.085e-003
13256	12.415	5.0909	0.	-1.5928e-003
13257	12.507	5.0909	5.e-002	1.6135e-006
13258	12.507	4.8182	0.	-1.3083e-004
13259	12.415	4.9091	0.	-7.3792e-004
13260	12.507	4.9091	5.e-002	9.3751e-007
13261	12.507	4.6364	0.	8.214e-004
13262	12.415	4.7273	0.	1.4696e-004
13263	12.507	4.7273	5.e-002	-9.7342e-009
13264	12.507	4.4545	0.	1.7491e-003
13265	12.415	4.5455	0.	1.0266e-003
13266	12.507	4.5455	5.e-002	1.0845e-006
13267	12.507	4.2727	0.	2.6448e-003
13268	12.415	4.3636	0.	1.9019e-003
13269	12.507	4.3636	5.e-002	-8.1174e-008
13270	12.507	4.0909	0.	3.4936e-003
13271	12.415	4.1818	0.	2.7618e-003
13272	12.507	4.1818	5.e-002	-3.1892e-007
13273	12.507	3.9091	0.	4.275e-003
13274	12.415	4.	0.	3.5897e-003
13275	12.507	4.	5.e-002	-1.0279e-008
13276	12.507	3.7273	0.	4.9648e-003
13277	12.415	3.8182	0.	4.3593e-003
13278	12.507	3.8182	5.e-002	1.6882e-007
13279	12.507	3.5455	0.	5.5394e-003
13280	12.415	3.6364	0.	5.0396e-003
13281	12.507	3.6364	5.e-002	1.3961e-006
13282	12.507	3.3636	0.	5.9733e-003
13283	12.415	3.4545	0.	5.597e-003
13284	12.507	3.4545	5.e-002	1.2783e-006
13285	12.507	3.1818	0.	6.2429e-003
13286	12.415	3.2727	0.	5.9932e-003
13287	12.507	3.2727	5.e-002	9.2183e-007
13288	12.507	3.	0.	6.3342e-003
13289	12.415	3.0909	0.	6.1991e-003
13290	12.507	3.0909	5.e-002	1.5193e-006
13291	12.507	2.8182	0.	6.2426e-003
13292	12.415	2.9091	0.	6.199e-003
13293	12.507	2.9091	5.e-002	2.1463e-006
13294	12.507	2.6364	0.	5.9732e-003
13295	12.415	2.7273	0.	5.9932e-003
13296	12.507	2.7273	5.e-002	2.0286e-006
13297	12.507	2.4545	0.	5.5398e-003
13298	12.415	2.5455	0.	5.597e-003
13299	12.507	2.5455	5.e-002	1.8802e-006
13300	12.507	2.2727	0.	4.9648e-003
13301	12.415	2.3636	0.	5.0402e-003
13302	12.507	2.3636	5.e-002	1.9417e-006
13303	12.507	2.0909	0.	4.2749e-003
13304	12.415	2.1818	0.	4.3591e-003
13305	12.507	2.1818	5.e-002	1.7644e-006
13306	12.507	1.9091	0.	3.4937e-003
13307	12.415	2.	0.	3.5902e-003
13308	12.507	2.	5.e-002	1.9127e-006
13309	12.507	1.7273	0.	2.6448e-003
13310	12.415	1.8182	0.	2.7621e-003
13311	12.507	1.8182	5.e-002	2.167e-006
13312	12.507	1.5455	0.	1.749e-003
13313	12.415	1.6364	0.	1.9019e-003
13314	12.507	1.6364	5.e-002	2.3918e-006
13315	12.507	1.3636	0.	8.2149e-004
13316	12.415	1.4545	0.	1.0267e-003
13317	12.507	1.4545	5.e-002	2.3641e-006
13318	12.507	1.1818	0.	-1.3081e-004
13319	12.415	1.2727	0.	1.4765e-004
13320	12.507	1.2727	5.e-002	2.629e-006
13321	12.507	1.	0.	-1.0843e-003
13322	12.415	1.0909	0.	-7.3796e-004
13323	12.507	1.0909	5.e-002	2.5902e-006
13324	12.507	0.81818	0.	-2.0929e-003
13325	12.415	0.90909	0.	-1.5914e-003
13326	12.507	0.90909	5.e-002	2.7806e-006
13327	12.507	0.63636	0.	-2.921e-003
13328	12.415	0.72727	0.	-2.5533e-003
13329	12.507	0.72727	5.e-002	2.5423e-006
13330	12.507	0.45455	0.	-4.8678e-003
13331	12.415	0.54545	0.	-3.0684e-003
13332	12.507	0.54545	5.e-002	1.8282e-006
13333	12.507	0.27273	0.	-4.2932e-003
13334	12.415	0.36364	0.	-5.9656e-003
13335	12.507	0.36364	5.e-002	1.3302e-006
13336	12.415	0.18182	0.	-1.4566e-003
13337	12.507	0.18182	5.e-002	3.0268e-006
13338	12.507	9.0909e-002	0.	-2.7018e-003
13339	12.323	5.7273	0.	-3.8434e-003
13340	12.231	5.8182	0.	-1.7254e-003
13341	12.323	5.8182	5.e-002	9.6201e-006
13342	12.323	5.9091	0.	-2.4903e-003
13343	12.323	5.5455	0.	-4.2391e-003
13344	12.231	5.6364	0.	-4.9497e-003
13345	12.323	5.6364	5.e-002	2.3095e-006
13346	12.323	5.3636	0.	-2.7314e-003
13347	12.231	5.4545	0.	-2.8014e-003
13348	12.323	5.4545	5.e-002	2.9715e-006
13349	12.323	5.1818	0.	-2.0838e-003
13350	12.231	5.2727	0.	-2.4223e-003
13351	12.323	5.2727	5.e-002	1.1633e-006
13352	12.323	5.	0.	-1.2842e-003
13353	12.231	5.0909	0.	-1.7116e-003
13354	12.323	5.0909	5.e-002	8.194e-007
13355	12.323	4.8182	0.	-5.0902e-004
13356	12.231	4.9091	0.	-1.0726e-003
13357	12.323	4.9091	5.e-002	1.7845e-007
13358	12.323	4.6364	0.	2.9109e-004
13359	12.231	4.7273	0.	-3.944e-004
13360	12.323	4.7273	5.e-002	-7.201e-007
13361	12.323	4.4545	0.	1.1067e-003
13362	12.231	4.5455	0.	3.0715e-004
13363	12.323	4.5455	5.e-002	8.8311e-008
13364	12.323	4.2727	0.	1.9381e-003
13365	12.231	4.3636	0.	1.0464e-003
13366	12.323	4.3636	5.e-002	-1.0815e-006
13367	12.323	4.0909	0.	2.7764e-003
13368	12.231	4.1818	0.	1.8284e-003
13369	12.323	4.1818	5.e-002	-1.355e-006
13370	12.323	3.9091	0.	3.6026e-003
13371	12.231	4.	0.	2.6508e-003
13372	12.323	4.	5.e-002	-1.0767e-006
13373	12.323	3.7273	0.	4.3847e-003
13374	12.231	3.8182	0.	3.4959e-003
13375	12.323	3.8182	5.e-002	-6.6687e-007
13376	12.323	3.5455	0.	5.0798e-003
13377	12.231	3.6364	0.	4.3263e-003
13378	12.323	3.6364	5.e-002	4.9715e-007
13379	12.323	3.3636	0.	5.6341e-003
13380	12.231	3.4545	0.	5.0769e-003
13381	12.323	3.4545	5.e-002	3.7071e-007
13382	12.323	3.1818	0.	5.9938e-003
13383	12.231	3.2727	0.	5.6573e-003
13384	12.323	3.2727	5.e-002	-1.4261e-007
13385	12.323	3.	0.	6.1186e-003
13386	12.231	3.0909	0.	5.9773e-003
13387	12.323	3.0909	5.e-002	4.9143e-007
13388	12.323	2.8182	0.	5.9939e-003
13389	12.231	2.9091	0.	5.9772e-003
13390	12.323	2.9091	5.e-002	1.1253e-006
13391	12.323	2.6364	0.	5.6342e-003
13392	12.231	2.7273	0.	5.6577e-003
13393	12.323	2.7273	5.e-002	1.2303e-006
13394	12.323	2.4545	0.	5.08e-003
13395	12.231	2.5455	0.	5.0768e-003
13396	12.323	2.5455	5.e-002	8.2093e-007
13397	12.323	2.2727	0.	4.3852e-003
13398	12.231	2.3636	0.	4.3267e-003
13399	12.323	2.3636	5.e-002	1.0675e-006
13400	12.323	2.0909	0.	3.6029e-003
13401	12.231	2.1818	0.	3.4959e-003
13402	12.323	2.1818	5.e-002	8.8297e-007
13403	12.323	1.9091	0.	2.777e-003
13404	12.231	2.	0.	2.6513e-003
13405	12.323	2.	5.e-002	9.202e-007
13406	12.323	1.7273	0.	1.9383e-003
13407	12.231	1.8182	0.	1.8287e-003
13408	12.323	1.8182	5.e-002	1.1507e-006
13409	12.323	1.5455	0.	1.1068e-003
13410	12.231	1.6364	0.	1.0465e-003
13411	12.323	1.6364	5.e-002	1.099e-006
13412	12.323	1.3636	0.	2.9181e-004
13413	12.231	1.4545	0.	3.0784e-004
13414	12.323	1.4545	5.e-002	1.4076e-006
13415	12.323	1.1818	0.	-5.084e-004
13416	12.231	1.2727	0.	-3.9386e-004
13417	12.323	1.2727	5.e-002	1.5953e-006
13418	12.323	1.	0.	-1.2836e-003
13419	12.231	1.0909	0.	-1.0721e-003
13420	12.323	1.0909	5.e-002	1.9007e-006
13421	12.323	0.81818	0.	-2.083e-003
13422	12.231	0.90909	0.	-1.7107e-003
13423	12.323	0.90909	5.e-002	2.3302e-006
13424	12.323	0.63636	0.	-2.7307e-003
13425	12.231	0.72727	0.	-2.4214e-003
13426	12.323	0.72727	5.e-002	1.2069e-006
13427	12.323	0.45455	0.	-4.2387e-003
13428	12.231	0.54545	0.	-2.8008e-003
13429	12.323	0.54545	5.e-002	-2.1541e-007
13430	12.323	0.27273	0.	-3.8428e-003
13431	12.231	0.36364	0.	-4.9494e-003
13432	12.323	0.36364	5.e-002	-7.0031e-008
13433	12.231	0.18182	0.	-1.7246e-003
13434	12.323	0.18182	5.e-002	9.7959e-007
13435	12.323	9.0909e-002	0.	-2.4894e-003
13436	12.139	5.7273	0.	-3.3779e-003
13437	12.047	5.8182	0.	-2.016e-003
13438	12.139	5.8182	5.e-002	8.3904e-006
13439	12.139	5.9091	0.	-2.2692e-003
13440	12.139	5.5455	0.	-3.5714e-003
13441	12.047	5.6364	0.	-3.883e-003
13442	12.139	5.6364	5.e-002	2.2202e-006
13443	12.139	5.3636	0.	-2.5222e-003
13444	12.047	5.4545	0.	-2.507e-003
13445	12.139	5.4545	5.e-002	2.8168e-006
13446	12.139	5.1818	0.	-2.0864e-003
13447	12.047	5.2727	0.	-2.2878e-003
13448	12.139	5.2727	5.e-002	8.1956e-007
13449	12.139	5.	0.	-1.5526e-003
13450	12.047	5.0909	0.	-1.885e-003
13451	12.139	5.0909	5.e-002	6.3659e-007
13452	12.139	4.8182	0.	-1.0371e-003
13453	12.047	4.9091	0.	-1.5565e-003
13454	12.139	4.9091	5.e-002	-1.7002e-007
13455	12.139	4.6364	0.	-4.9592e-004
13456	12.047	4.7273	0.	-1.2307e-003
13457	12.139	4.7273	5.e-002	-9.7053e-007
13458	12.139	4.4545	0.	7.8245e-005
13459	12.047	4.5455	0.	-9.161e-004
13460	12.139	4.5455	5.e-002	-1.5259e-007
13461	12.139	4.2727	0.	7.071e-004
13462	12.047	4.3636	0.	-5.9717e-004
13463	12.139	4.3636	5.e-002	-1.3119e-006
13464	12.139	4.0909	0.	1.4112e-003
13465	12.047	4.1818	0.	-2.5307e-004
13466	12.139	4.1818	5.e-002	-1.4308e-006
13467	12.139	3.9091	0.	2.2074e-003
13468	12.047	4.	0.	1.4649e-004
13469	12.139	4.	5.e-002	-1.296e-006
13470	12.139	3.7273	0.	3.0996e-003
13471	12.047	3.8182	0.	6.5583e-004
13472	12.139	3.8182	5.e-002	-8.7848e-007
13473	12.139	3.5455	0.	4.0547e-003
13474	12.047	3.6364	0.	1.3746e-003
13475	12.139	3.6364	5.e-002	1.945e-007
13476	12.139	3.3636	0.	4.9694e-003
13477	12.047	3.4545	0.	2.4566e-003
13478	12.139	3.4545	5.e-002	6.0602e-010
13479	12.139	3.1818	0.	5.6599e-003
13480	12.047	3.2727	0.	4.0173e-003
13481	12.139	3.2727	5.e-002	-4.9127e-007
13482	12.139	3.	0.	5.9214e-003
13483	12.047	3.0909	0.	5.5611e-003
13484	12.139	3.0909	5.e-002	1.4918e-007
13485	12.139	2.8182	0.	5.66e-003
13486	12.047	2.9091	0.	5.561e-003
13487	12.139	2.9091	5.e-002	7.449e-007
13488	12.139	2.6364	0.	4.9696e-003
13489	12.047	2.7273	0.	4.0174e-003
13490	12.139	2.7273	5.e-002	7.2966e-007
13491	12.139	2.4545	0.	4.0548e-003
13492	12.047	2.5455	0.	2.4565e-003
13493	12.139	2.5455	5.e-002	5.0595e-007
13494	12.139	2.2727	0.	3.0996e-003
13495	12.047	2.3636	0.	1.3747e-003
13496	12.139	2.3636	5.e-002	6.3997e-007
13497	12.139	2.0909	0.	2.2076e-003
13498	12.047	2.1818	0.	6.559e-004
13499	12.139	2.1818	5.e-002	3.7184e-007
13500	12.139	1.9091	0.	1.4115e-003
13501	12.047	2.	0.	1.4671e-004
13502	12.139	2.	5.e-002	4.7647e-007
13503	12.139	1.7273	0.	7.0741e-004
13504	12.047	1.8182	0.	-2.5312e-004
13505	12.139	1.8182	5.e-002	7.3038e-007
13506	12.139	1.5455	0.	7.8879e-005
13507	12.047	1.6364	0.	-5.9678e-004
13508	12.139	1.6364	5.e-002	6.8659e-007
13509	12.139	1.3636	0.	-4.954e-004
13510	12.047	1.4545	0.	-9.1564e-004
13511	12.139	1.4545	5.e-002	8.9527e-007
13512	12.139	1.1818	0.	-1.0367e-003
13513	12.047	1.2727	0.	-1.2304e-003
13514	12.139	1.2727	5.e-002	8.8321e-007
13515	12.139	1.	0.	-1.5518e-003
13516	12.047	1.0909	0.	-1.5561e-003
13517	12.139	1.0909	5.e-002	1.1206e-006
13518	12.139	0.81818	0.	-2.0853e-003
13519	12.047	0.90909	0.	-1.8839e-003
13520	12.139	0.90909	5.e-002	5.5565e-007
13521	12.139	0.63636	0.	-2.5213e-003
13522	12.047	0.72727	0.	-2.2867e-003
13523	12.139	0.72727	5.e-002	5.4802e-007
13524	12.139	0.45455	0.	-3.5709e-003
13525	12.047	0.54545	0.	-2.5063e-003
13526	12.139	0.54545	5.e-002	1.3413e-006
13527	12.139	0.27273	0.	-3.3774e-003
13528	12.047	0.36364	0.	-3.8825e-003
13529	12.139	0.36364	5.e-002	1.6742e-006
13530	12.047	0.18182	0.	-2.0152e-003
13531	12.139	0.18182	5.e-002	1.7611e-006
13532	12.139	9.0909e-002	0.	-2.2687e-003
13533	11.955	5.7273	0.	-2.8975e-003
13534	11.863	5.8182	0.	-2.3407e-003
13535	11.955	5.8182	5.e-002	2.2336e-006
13536	11.955	5.9091	0.	-2.0414e-003
13537	11.955	5.5455	0.	-2.8598e-003
13538	11.863	5.6364	0.	-2.7631e-003
13539	11.955	5.6364	5.e-002	2.1085e-006
13540	11.955	5.3636	0.	-2.2966e-003
13541	11.863	5.4545	0.	-2.1897e-003
13542	11.955	5.4545	5.e-002	2.7716e-006
13543	11.955	5.1818	0.	-2.1223e-003
13544	11.863	5.2727	0.	-2.1673e-003
13545	11.955	5.2727	5.e-002	8.6427e-007
13546	11.955	5.	0.	-1.9555e-003
13547	11.863	5.0909	0.	-2.1723e-003
13548	11.955	5.0909	5.e-002	7.469e-007
13549	11.955	4.8182	0.	-1.8794e-003
13550	11.863	4.9091	0.	-2.3575e-003
13551	11.955	4.9091	5.e-002	-4.2373e-015
13552	11.955	4.6364	0.	-1.9024e-003
13553	11.863	4.7273	0.	-2.7959e-003
13554	11.955	4.7273	5.e-002	-9.1885e-007
13555	11.955	4.4545	0.	-2.082e-003
13556	11.863	4.5455	0.	-3.7282e-003
13557	11.955	4.5455	5.e-002	-8.6397e-008
13558	11.955	4.2727	0.	-2.5335e-003
13559	11.863	4.3636	0.	-5.8671e-003
13560	11.955	4.3636	5.e-002	-1.1856e-006
13561	11.955	4.0909	0.	-3.5759e-003
13562	11.863	4.1818	0.	-1.276e-002
13563	11.955	4.1818	5.e-002	-1.3018e-006
13564	11.955	3.9091	0.	-6.4452e-003
13565	11.863	4.	0.	-0.10424
13566	11.955	4.	5.e-002	-1.2442e-006
13567	11.955	3.7273	0.	-2.2772e-002
13568	11.863	3.8182	0.	-0.59705
13569	11.955	3.8182	5.e-002	-1.0364e-006
13570	11.955	3.5455	0.	-0.23413
13571	11.863	3.6364	0.	-1.0435
13572	11.955	3.6364	5.e-002	6.1809e-008
13573	11.955	3.3636	0.	-0.49002
13574	11.863	3.4545	0.	-1.3833
13575	11.955	3.4545	5.e-002	-8.6911e-008
13576	11.955	3.1818	0.	-0.64754
13577	11.863	3.2727	0.	-1.6116
13578	11.955	3.2727	5.e-002	-5.0485e-007
13579	11.955	3.	0.	-0.70035
13580	11.863	3.0909	0.	-1.7262
13581	11.955	3.0909	5.e-002	1.0487e-007
13582	11.955	2.8182	0.	-0.64755
13583	11.863	2.9091	0.	-1.7262
13584	11.955	2.9091	5.e-002	6.6995e-007
13585	11.955	2.6364	0.	-0.49004
13586	11.863	2.7273	0.	-1.6116
13587	11.955	2.7273	5.e-002	5.795e-007
13588	11.955	2.4545	0.	-0.23415
13589	11.863	2.5455	0.	-1.3834
13590	11.955	2.5455	5.e-002	3.3943e-007
13591	11.955	2.2727	0.	-2.2776e-002
13592	11.863	2.3636	0.	-1.0435
13593	11.955	2.3636	5.e-002	4.7247e-007
13594	11.955	2.0909	0.	-6.4456e-003
13595	11.863	2.1818	0.	-0.59708
13596	11.955	2.1818	5.e-002	3.8344e-007
13597	11.955	1.9091	0.	-3.5762e-003
13598	11.863	2.	0.	-0.10426
13599	11.955	2.	5.e-002	3.5315e-007
13600	11.955	1.7273	0.	-2.5335e-003
13601	11.863	1.8182	0.	-1.2761e-002
13602	11.955	1.8182	5.e-002	5.8974e-007
13603	11.955	1.5455	0.	-2.0818e-003
13604	11.863	1.6364	0.	-5.8671e-003
13605	11.955	1.6364	5.e-002	4.674e-007
13606	11.955	1.3636	0.	-1.9022e-003
13607	11.863	1.4545	0.	-3.728e-003
13608	11.955	1.4545	5.e-002	6.2592e-007
13609	11.955	1.1818	0.	-1.8791e-003
13610	11.863	1.2727	0.	-2.7953e-003
13611	11.955	1.2727	5.e-002	6.8294e-007
13612	11.955	1.	0.	-1.9548e-003
13613	11.863	1.0909	0.	-2.3574e-003
13614	11.955	1.0909	5.e-002	5.048e-007
13615	11.955	0.81818	0.	-2.1212e-003
13616	11.863	0.90909	0.	-2.1711e-003
13617	11.955	0.90909	5.e-002	2.3657e-007
13618	11.955	0.63636	0.	-2.2957e-003
13619	11.863	0.72727	0.	-2.1662e-003
13620	11.955	0.72727	5.e-002	9.244e-007
13621	11.955	0.45455	0.	-2.8591e-003
13622	11.863	0.54545	0.	-2.1888e-003
13623	11.955	0.54545	5.e-002	1.9371e-006
13624	11.955	0.27273	0.	-2.8967e-003
13625	11.863	0.36364	0.	-2.7626e-003
13626	11.955	0.36364	5.e-002	2.6227e-006
13627	11.863	0.18182	0.	-2.3399e-003
13628	11.955	0.18182	5.e-002	3.7429e-006
13629	11.955	9.0909e-002	0.	-2.0411e-003
13630	11.771	5.7273	0.	-2.4109e-003
13631	11.679	5.8182	0.	-2.7175e-003
13632	11.771	5.8182	5.e-002	2.5325e-006
13633	11.771	5.9091	0.	-1.8195e-003
13634	11.771	5.5455	0.	-2.109e-003
13635	11.679	5.6364	0.	-1.593e-003
13636	11.771	5.6364	5.e-002	2.4737e-006
13637	11.771	5.3636	0.	-2.0688e-003
13638	11.679	5.4545	0.	-1.8582e-003
13639	11.771	5.4545	5.e-002	2.8908e-006
13640	11.771	5.1818	0.	-2.2401e-003
13641	11.679	5.2727	0.	-2.094e-003
13642	11.771	5.2727	5.e-002	1.2626e-006
13643	11.771	5.	0.	-2.6489e-003
13644	11.679	5.0909	0.	-2.6996e-003
13645	11.771	5.0909	5.e-002	1.0732e-006
13646	11.771	4.8182	0.	-3.506e-003
13647	11.679	4.9091	0.	-3.9405e-003
13648	11.771	4.9091	5.e-002	4.0313e-007
13649	11.771	4.6364	0.	-5.3745e-003
13650	11.679	4.7273	0.	-6.8931e-003
13651	11.771	4.7273	5.e-002	-6.331e-007
13652	11.771	4.4545	0.	-1.0634e-002
13653	11.679	4.5455	0.	-1.8111e-002
13654	11.771	4.5455	5.e-002	3.5038e-007
13655	11.771	4.2727	0.	-5.1582e-002
13656	11.679	4.3636	0.	-0.29905
13657	11.771	4.3636	5.e-002	-7.2406e-007
13658	11.771	4.0909	0.	-0.60851
13659	11.679	4.1818	0.	-1.1417
13660	11.771	4.1818	5.e-002	-9.9892e-007
13661	11.771	3.9091	0.	-1.2553
13662	11.679	4.	0.	-1.9
13663	11.771	4.	5.e-002	-8.9582e-007
13664	11.771	3.7273	0.	-1.7955
13665	11.679	3.8182	0.	-2.5418
13666	11.771	3.8182	5.e-002	-6.7041e-007
13667	11.771	3.5455	0.	-2.2203
13668	11.679	3.6364	0.	-3.0607
13669	11.771	3.6364	5.e-002	4.6341e-007
13670	11.771	3.3636	0.	-2.5258
13671	11.679	3.4545	0.	-3.4531
13672	11.771	3.4545	5.e-002	3.6813e-007
13673	11.771	3.1818	0.	-2.71
13674	11.679	3.2727	0.	-3.7161
13675	11.771	3.2727	5.e-002	-1.7738e-007
13676	11.771	3.	0.	-2.7716
13677	11.679	3.0909	0.	-3.848
13678	11.771	3.0909	5.e-002	4.4059e-007
13679	11.771	2.8182	0.	-2.71
13680	11.679	2.9091	0.	-3.848
13681	11.771	2.9091	5.e-002	1.0141e-006
13682	11.771	2.6364	0.	-2.5258
13683	11.679	2.7273	0.	-3.7161
13684	11.771	2.7273	5.e-002	8.7328e-007
13685	11.771	2.4545	0.	-2.2203
13686	11.679	2.5455	0.	-3.4531
13687	11.771	2.5455	5.e-002	6.8764e-007
13688	11.771	2.2727	0.	-1.7955
13689	11.679	2.3636	0.	-3.0608
13690	11.771	2.3636	5.e-002	7.2714e-007
13691	11.771	2.0909	0.	-1.2553
13692	11.679	2.1818	0.	-2.5418
13693	11.771	2.1818	5.e-002	7.5609e-007
13694	11.771	1.9091	0.	-0.60853
13695	11.679	2.	0.	-1.9
13696	11.771	2.	5.e-002	4.5712e-007
13697	11.771	1.7273	0.	-5.1588e-002
13698	11.679	1.8182	0.	-1.1417
13699	11.771	1.8182	5.e-002	8.2827e-007
13700	11.771	1.5455	0.	-1.0634e-002
13701	11.679	1.6364	0.	-0.29908
13702	11.771	1.6364	5.e-002	5.6715e-007
13703	11.771	1.3636	0.	-5.374e-003
13704	11.679	1.4545	0.	-1.8112e-002
13705	11.771	1.4545	5.e-002	6.7867e-007
13706	11.771	1.1818	0.	-3.5056e-003
13707	11.679	1.2727	0.	-6.8922e-003
13708	11.771	1.2727	5.e-002	6.8593e-007
13709	11.771	1.	0.	-2.6483e-003
13710	11.679	1.0909	0.	-3.9403e-003
13711	11.771	1.0909	5.e-002	6.5671e-007
13712	11.771	0.81818	0.	-2.2389e-003
13713	11.679	0.90909	0.	-2.6987e-003
13714	11.771	0.90909	5.e-002	8.7505e-007
13715	11.771	0.63636	0.	-2.0678e-003
13716	11.679	0.72727	0.	-2.0926e-003
13717	11.771	0.72727	5.e-002	1.2517e-006
13718	11.771	0.45455	0.	-2.1083e-003
13719	11.679	0.54545	0.	-1.8573e-003
13720	11.771	0.54545	5.e-002	1.7413e-006
13721	11.771	0.27273	0.	-2.4104e-003
13722	11.679	0.36364	0.	-1.5927e-003
13723	11.771	0.36364	5.e-002	2.6764e-006
13724	11.679	0.18182	0.	-2.7169e-003
13725	11.771	0.18182	5.e-002	2.5921e-006
13726	11.771	9.0909e-002	0.	-1.8188e-003
13727	11.587	5.7273	0.	-1.9315e-003
13728	11.496	5.8182	0.	-3.1887e-003
13729	11.587	5.8182	5.e-002	2.5772e-006
13730	11.587	5.9091	0.	-1.6157e-003
13731	11.587	5.5455	0.	-1.3232e-003
13732	11.496	5.6364	0.	-3.9633e-004
13733	11.587	5.6364	5.e-002	2.7425e-006
13734	11.587	5.3636	0.	-1.8584e-003
13735	11.496	5.4545	0.	-1.5436e-003
13736	11.587	5.4545	5.e-002	3.4132e-006
13737	11.587	5.1818	0.	-2.5298e-003
13738	11.496	5.2727	0.	-2.1439e-003
13739	11.587	5.2727	5.e-002	1.7434e-006
13740	11.587	5.	0.	-4.0349e-003
13741	11.496	5.0909	0.	-3.7996e-003
13742	11.587	5.0909	5.e-002	1.5956e-006
13743	11.587	4.8182	0.	-7.8775e-003
13744	11.496	4.9091	0.	-8.2401e-003
13745	11.587	4.9091	5.e-002	1.0552e-006
13746	11.587	4.6364	0.	-2.7927e-002
13747	11.496	4.7273	0.	-4.0658e-002
13748	11.587	4.7273	5.e-002	1.6232e-007
13749	11.587	4.4545	0.	-0.60961
13750	11.496	4.5455	0.	-0.89074
13751	11.587	4.5455	5.e-002	1.0622e-006
13752	11.587	4.2727	0.	-1.5876
13753	11.496	4.3636	0.	-2.0011
13754	11.587	4.3636	5.e-002	-1.6323e-007
13755	11.587	4.0909	0.	-2.4589
13756	11.496	4.1818	0.	-2.9955
13757	11.587	4.1818	5.e-002	-3.997e-007
13758	11.587	3.9091	0.	-3.2074
13759	11.496	4.	0.	-3.8613
13760	11.587	4.	5.e-002	-3.189e-007
13761	11.587	3.7273	0.	-3.8269
13762	11.496	3.8182	0.	-4.5919
13763	11.587	3.8182	5.e-002	1.5126e-008
13764	11.587	3.5455	0.	-4.3131
13765	11.496	3.6364	0.	-5.1824
13766	11.587	3.6364	5.e-002	1.0972e-006
13767	11.587	3.3636	0.	-4.6626
13768	11.496	3.4545	0.	-5.6287
13769	11.587	3.4545	5.e-002	9.2939e-007
13770	11.587	3.1818	0.	-4.8733
13771	11.496	3.2727	0.	-5.9279
13772	11.587	3.2727	5.e-002	4.5112e-007
13773	11.587	3.	0.	-4.9437
13774	11.496	3.0909	0.	-6.078
13775	11.587	3.0909	5.e-002	1.0741e-006
13776	11.587	2.8182	0.	-4.8733
13777	11.496	2.9091	0.	-6.078
13778	11.587	2.9091	5.e-002	1.4888e-006
13779	11.587	2.6364	0.	-4.6627
13780	11.496	2.7273	0.	-5.9279
13781	11.587	2.7273	5.e-002	1.5759e-006
13782	11.587	2.4545	0.	-4.3131
13783	11.496	2.5455	0.	-5.6287
13784	11.587	2.5455	5.e-002	1.1866e-006
13785	11.587	2.2727	0.	-3.8269
13786	11.496	2.3636	0.	-5.1824
13787	11.587	2.3636	5.e-002	1.4068e-006
13788	11.587	2.0909	0.	-3.2074
13789	11.496	2.1818	0.	-4.592
13790	11.587	2.1818	5.e-002	1.1216e-006
13791	11.587	1.9091	0.	-2.459
13792	11.496	2.	0.	-3.8613
13793	11.587	2.	5.e-002	1.128e-006
13794	11.587	1.7273	0.	-1.5876
13795	11.496	1.8182	0.	-2.9956
13796	11.587	1.8182	5.e-002	1.3284e-006
13797	11.587	1.5455	0.	-0.60965
13798	11.496	1.6364	0.	-2.0012
13799	11.587	1.6364	5.e-002	1.2743e-006
13800	11.587	1.3636	0.	-2.7928e-002
13801	11.496	1.4545	0.	-0.89078
13802	11.587	1.4545	5.e-002	1.1082e-006
13803	11.587	1.1818	0.	-7.8768e-003
13804	11.496	1.2727	0.	-4.0661e-002
13805	11.587	1.2727	5.e-002	1.1719e-006
13806	11.587	1.	0.	-4.0344e-003
13807	11.496	1.0909	0.	-8.2399e-003
13808	11.587	1.0909	5.e-002	1.1054e-006
13809	11.587	0.81818	0.	-2.5286e-003
13810	11.496	0.90909	0.	-3.7983e-003
13811	11.587	0.90909	5.e-002	9.2504e-007
13812	11.587	0.63636	0.	-1.8571e-003
13813	11.496	0.72727	0.	-2.1422e-003
13814	11.587	0.72727	5.e-002	1.3741e-006
13815	11.587	0.45455	0.	-1.3227e-003
13816	11.496	0.54545	0.	-1.5432e-003
13817	11.587	0.54545	5.e-002	2.1545e-006
13818	11.587	0.27273	0.	-1.9311e-003
13819	11.496	0.36364	0.	-3.9586e-004
13820	11.587	0.36364	5.e-002	2.0563e-006
13821	11.496	0.18182	0.	-3.1879e-003
13822	11.587	0.18182	5.e-002	1.9622e-006
13823	11.587	9.0909e-002	0.	-1.6151e-003
13824	11.404	5.7273	0.	-1.5141e-003
13825	11.312	5.8182	0.	-3.7707e-003
13826	11.404	5.8182	5.e-002	2.0475e-006
13827	11.404	5.9091	0.	-1.4874e-003
13828	11.404	5.5455	0.	-5.4855e-004
13829	11.312	5.6364	0.	8.3326e-004
13830	11.404	5.6364	5.e-002	2.1951e-006
13831	11.404	5.3636	0.	-1.7344e-003
13832	11.312	5.4545	0.	-1.2499e-003
13833	11.404	5.4545	5.e-002	2.9824e-006
13834	11.404	5.1818	0.	-3.2371e-003
13835	11.312	5.2727	0.	-2.4207e-003
13836	11.404	5.2727	5.e-002	1.3857e-006
13837	11.404	5.	0.	-7.7092e-003
13838	11.312	5.0909	0.	-6.5595e-003
13839	11.404	5.0909	5.e-002	1.3649e-006
13840	11.404	4.8182	0.	-4.6331e-002
13841	11.312	4.9091	0.	-4.3784e-002
13842	11.404	4.9091	5.e-002	9.1897e-007
13843	11.404	4.6364	0.	-1.0664
13844	11.312	4.7273	0.	-1.1894
13845	11.404	4.7273	5.e-002	-5.483e-008
13846	11.404	4.4545	0.	-2.3085
13847	11.312	4.5455	0.	-2.5739
13848	11.404	4.5455	5.e-002	8.3954e-007
13849	11.404	4.2727	0.	-3.4297
13850	11.312	4.3636	0.	-3.8334
13851	11.404	4.3636	5.e-002	-3.1008e-007
13852	11.404	4.0909	0.	-4.4177
13853	11.312	4.1818	0.	-4.9552
13854	11.404	4.1818	5.e-002	-4.7681e-007
13855	11.404	3.9091	0.	-5.2652
13856	11.312	4.	0.	-5.9312
13857	11.404	4.	5.e-002	-4.3494e-007
13858	11.404	3.7273	0.	-5.9666
13859	11.312	3.8182	0.	-6.7548
13860	11.404	3.8182	5.e-002	-1.9756e-007
13861	11.404	3.5455	0.	-6.5169
13862	11.312	3.6364	0.	-7.4204
13863	11.404	3.6364	5.e-002	9.0216e-007
13864	11.404	3.3636	0.	-6.9127
13865	11.312	3.4545	0.	-7.9236
13866	11.404	3.4545	5.e-002	6.0812e-007
13867	11.404	3.1818	0.	-7.1513
13868	11.312	3.2727	0.	-8.2609
13869	11.404	3.2727	5.e-002	3.0339e-007
13870	11.404	3.	0.	-7.2309
13871	11.312	3.0909	0.	-8.4301
13872	11.404	3.0909	5.e-002	8.3604e-007
13873	11.404	2.8182	0.	-7.1513
13874	11.312	2.9091	0.	-8.4301
13875	11.404	2.9091	5.e-002	1.3096e-006
13876	11.404	2.6364	0.	-6.9127
13877	11.312	2.7273	0.	-8.2609
13878	11.404	2.7273	5.e-002	1.1872e-006
13879	11.404	2.4545	0.	-6.517
13880	11.312	2.5455	0.	-7.9236
13881	11.404	2.5455	5.e-002	1.0065e-006
13882	11.404	2.2727	0.	-5.9666
13883	11.312	2.3636	0.	-7.4204
13884	11.404	2.3636	5.e-002	9.415e-007
13885	11.404	2.0909	0.	-5.2653
13886	11.312	2.1818	0.	-6.7548
13887	11.404	2.1818	5.e-002	9.1031e-007
13888	11.404	1.9091	0.	-4.4177
13889	11.312	2.	0.	-5.9312
13890	11.404	2.	5.e-002	7.0437e-007
13891	11.404	1.7273	0.	-3.4297
13892	11.312	1.8182	0.	-4.9552
13893	11.404	1.8182	5.e-002	1.1049e-006
13894	11.404	1.5455	0.	-2.3085
13895	11.312	1.6364	0.	-3.8334
13896	11.404	1.6364	5.e-002	9.6763e-007
13897	11.404	1.3636	0.	-1.0664
13898	11.312	1.4545	0.	-2.5739
13899	11.404	1.4545	5.e-002	9.395e-007
13900	11.404	1.1818	0.	-4.6336e-002
13901	11.312	1.2727	0.	-1.1895
13902	11.404	1.2727	5.e-002	8.7223e-007
13903	11.404	1.	0.	-7.7083e-003
13904	11.312	1.0909	0.	-4.3788e-002
13905	11.404	1.0909	5.e-002	7.869e-007
13906	11.404	0.81818	0.	-3.2353e-003
13907	11.312	0.90909	0.	-6.5578e-003
13908	11.404	0.90909	5.e-002	1.9216e-007
13909	11.404	0.63636	0.	-1.7336e-003
13910	11.312	0.72727	0.	-2.4197e-003
13911	11.404	0.72727	5.e-002	2.3095e-007
13912	11.404	0.45455	0.	-5.4826e-004
13913	11.312	0.54545	0.	-1.2502e-003
13914	11.404	0.54545	5.e-002	9.1826e-008
13915	11.404	0.27273	0.	-1.5132e-003
13916	11.312	0.36364	0.	8.3369e-004
13917	11.404	0.36364	5.e-002	8.4535e-007
13918	11.312	0.18182	0.	-3.7693e-003
13919	11.404	0.18182	5.e-002	2.9885e-006
13920	11.404	9.0909e-002	0.	-1.4864e-003
13921	11.22	5.7273	0.	-1.1184e-003
13922	11.128	5.8182	0.	-4.4568e-003
13923	11.22	5.8182	5.e-002	1.5173e-006
13924	11.22	5.9091	0.	-1.3945e-003
13925	11.22	5.5455	0.	2.7037e-004
13926	11.128	5.6364	0.	2.1303e-003
13927	11.22	5.6364	5.e-002	2.056e-006
13928	11.22	5.3636	0.	-1.6875e-003
13929	11.128	5.4545	0.	-9.5569e-004
13930	11.22	5.4545	5.e-002	2.8616e-006
13931	11.22	5.1818	0.	-4.9306e-003
13932	11.128	5.2727	0.	-3.1893e-003
13933	11.22	5.2727	5.e-002	1.379e-006
13934	11.22	5.	0.	-3.0952e-002
13935	11.128	5.0909	0.	-1.9765e-002
13936	11.22	5.0909	5.e-002	1.2207e-006
13937	11.22	4.8182	0.	-1.1904
13938	11.128	4.9091	0.	-1.127
13939	11.22	4.9091	5.e-002	6.1086e-007
13940	11.22	4.6364	0.	-2.7181
13941	11.128	4.7273	0.	-2.8097
13942	11.22	4.7273	5.e-002	-2.7545e-007
13943	11.22	4.4545	0.	-4.1187
13944	11.128	4.5455	0.	-4.3638
13945	11.22	4.5455	5.e-002	6.6824e-007
13946	11.22	4.2727	0.	-5.3783
13947	11.128	4.3636	0.	-5.7737
13948	11.22	4.3636	5.e-002	-6.1641e-007
13949	11.22	4.0909	0.	-6.4878
13950	11.128	4.1818	0.	-7.0292
13951	11.22	4.1818	5.e-002	-6.556e-007
13952	11.22	3.9091	0.	-7.4396
13953	11.128	4.	0.	-8.1216
13954	11.22	4.	5.e-002	-5.7862e-007
13955	11.22	3.7273	0.	-8.2272
13956	11.128	3.8182	0.	-9.0436
13957	11.22	3.8182	5.e-002	-3.9136e-007
13958	11.22	3.5455	0.	-8.8455
13959	11.128	3.6364	0.	-9.7889
13960	11.22	3.6364	5.e-002	7.8598e-007
13961	11.22	3.3636	0.	-9.2901
13962	11.128	3.4545	0.	-10.352
13963	11.22	3.4545	5.e-002	4.2653e-007
13964	11.22	3.1818	0.	-9.5581
13965	11.128	3.2727	0.	-10.73
13966	11.22	3.2727	5.e-002	6.201e-009
13967	11.22	3.	0.	-9.6476
13968	11.128	3.0909	0.	-10.92
13969	11.22	3.0909	5.e-002	4.1933e-007
13970	11.22	2.8182	0.	-9.5581
13971	11.128	2.9091	0.	-10.92
13972	11.22	2.9091	5.e-002	1.0113e-006
13973	11.22	2.6364	0.	-9.2901
13974	11.128	2.7273	0.	-10.73
13975	11.22	2.7273	5.e-002	1.0067e-006
13976	11.22	2.4545	0.	-8.8455
13977	11.128	2.5455	0.	-10.352
13978	11.22	2.5455	5.e-002	6.4634e-007
13979	11.22	2.2727	0.	-8.2273
13980	11.128	2.3636	0.	-9.7889
13981	11.22	2.3636	5.e-002	8.8378e-007
13982	11.22	2.0909	0.	-7.4396
13983	11.128	2.1818	0.	-9.0436
13984	11.22	2.1818	5.e-002	5.859e-007
13985	11.22	1.9091	0.	-6.4878
13986	11.128	2.	0.	-8.1217
13987	11.22	2.	5.e-002	6.9981e-007
13988	11.22	1.7273	0.	-5.3783
13989	11.128	1.8182	0.	-7.0292
13990	11.22	1.8182	5.e-002	6.556e-007
13991	11.22	1.5455	0.	-4.1187
13992	11.128	1.6364	0.	-5.7738
13993	11.22	1.6364	5.e-002	8.1479e-007
13994	11.22	1.3636	0.	-2.7181
13995	11.128	1.4545	0.	-4.3639
13996	11.22	1.4545	5.e-002	6.3434e-007
13997	11.22	1.1818	0.	-1.1904
13998	11.128	1.2727	0.	-2.8097
13999	11.22	1.2727	5.e-002	6.1049e-007
14000	11.22	1.	0.	-3.0954e-002
14001	11.128	1.0909	0.	-1.1271
14002	11.22	1.0909	5.e-002	8.3434e-007
14003	11.22	0.81818	0.	-4.9297e-003
14004	11.128	0.90909	0.	-1.9765e-002
14005	11.22	0.90909	5.e-002	5.6335e-008
14006	11.22	0.63636	0.	-1.6876e-003
14007	11.128	0.72727	0.	-3.1887e-003
14008	11.22	0.72727	5.e-002	-8.2502e-007
14009	11.22	0.45455	0.	2.702e-004
14010	11.128	0.54545	0.	-9.5588e-004
14011	11.22	0.54545	5.e-002	-1.542e-006
14012	11.22	0.27273	0.	-1.1173e-003
14013	11.128	0.36364	0.	2.1307e-003
14014	11.22	0.36364	5.e-002	1.3409e-007
14015	11.128	0.18182	0.	-4.4553e-003
14016	11.22	0.18182	5.e-002	1.2892e-006
14017	11.22	9.0909e-002	0.	-1.3936e-003
14018	11.036	5.7273	0.	-7.511e-004
14019	10.944	5.8182	0.	-5.2641e-003
14020	11.036	5.8182	5.e-002	3.0052e-006
14021	11.036	5.9091	0.	-1.3452e-003
14022	11.036	5.5455	0.	1.147e-003
14023	10.944	5.6364	0.	3.5166e-003
14024	11.036	5.6364	5.e-002	2.0344e-006
14025	11.036	5.3636	0.	-1.8111e-003
14026	10.944	5.4545	0.	-6.6811e-004
14027	11.036	5.4545	5.e-002	2.2583e-006
14028	11.036	5.1818	0.	-1.1106e-002
14029	10.944	5.2727	0.	-5.6635e-003
14030	11.036	5.2727	5.e-002	9.0184e-007
14031	11.036	5.	0.	-0.92925
14032	10.944	5.0909	0.	-0.65623
14033	11.036	5.0909	5.e-002	7.4487e-007
14034	11.036	4.8182	0.	-2.7658
14035	10.944	4.9091	0.	-2.6568
14036	11.036	4.9091	5.e-002	2.3808e-007
14037	11.036	4.6364	0.	-4.4751
14038	10.944	4.7273	0.	-4.5344
14039	11.036	4.7273	5.e-002	-5.6777e-007
14040	11.036	4.4545	0.	-6.0381
14041	10.944	4.5455	0.	-6.264
14042	11.036	4.5455	5.e-002	1.7878e-007
14043	11.036	4.2727	0.	-7.4435
14044	10.944	4.3636	0.	-7.8329
14045	11.036	4.3636	5.e-002	-7.1023e-007
14046	11.036	4.0909	0.	-8.6816
14047	10.944	4.1818	0.	-9.2302
14048	11.036	4.1818	5.e-002	-9.3185e-007
14049	11.036	3.9091	0.	-9.744
14050	10.944	4.	0.	-10.446
14051	11.036	4.	5.e-002	-1.0633e-006
14052	11.036	3.7273	0.	-10.623
14053	10.944	3.8182	0.	-11.473
14054	11.036	3.8182	5.e-002	-6.9148e-007
14055	11.036	3.5455	0.	-11.314
14056	10.944	3.6364	0.	-12.303
14057	11.036	3.6364	5.e-002	1.3932e-007
14058	11.036	3.3636	0.	-11.81
14059	10.944	3.4545	0.	-12.93
14060	11.036	3.4545	5.e-002	1.3055e-007
14061	11.036	3.1818	0.	-12.109
14062	10.944	3.2727	0.	-13.351
14063	11.036	3.2727	5.e-002	-3.4913e-007
14064	11.036	3.	0.	-12.209
14065	10.944	3.0909	0.	-13.562
14066	11.036	3.0909	5.e-002	3.6027e-007
14067	11.036	2.8182	0.	-12.109
14068	10.944	2.9091	0.	-13.562
14069	11.036	2.9091	5.e-002	5.9329e-007
14070	11.036	2.6364	0.	-11.81
14071	10.944	2.7273	0.	-13.351
14072	11.036	2.7273	5.e-002	5.8737e-007
14073	11.036	2.4545	0.	-11.314
14074	10.944	2.5455	0.	-12.93
14075	11.036	2.5455	5.e-002	2.2707e-007
14076	11.036	2.2727	0.	-10.623
14077	10.944	2.3636	0.	-12.303
14078	11.036	2.3636	5.e-002	3.464e-007
14079	11.036	2.0909	0.	-9.744
14080	10.944	2.1818	0.	-11.473
14081	11.036	2.1818	5.e-002	-1.5817e-008
14082	11.036	1.9091	0.	-8.6817
14083	10.944	2.	0.	-10.446
14084	11.036	2.	5.e-002	2.1824e-008
14085	11.036	1.7273	0.	-7.4435
14086	10.944	1.8182	0.	-9.2303
14087	11.036	1.8182	5.e-002	3.7379e-007
14088	11.036	1.5455	0.	-6.0381
14089	10.944	1.6364	0.	-7.8329
14090	11.036	1.6364	5.e-002	3.3337e-007
14091	11.036	1.3636	0.	-4.4751
14092	10.944	1.4545	0.	-6.264
14093	11.036	1.4545	5.e-002	3.6442e-007
14094	11.036	1.1818	0.	-2.7658
14095	10.944	1.2727	0.	-4.5345
14096	11.036	1.2727	5.e-002	3.079e-007
14097	11.036	1.	0.	-0.92929
14098	10.944	1.0909	0.	-2.6568
14099	11.036	1.0909	5.e-002	1.8608e-007
14100	11.036	0.81818	0.	-1.1105e-002
14101	10.944	0.90909	0.	-0.65628
14102	11.036	0.90909	5.e-002	-2.6943e-007
14103	11.036	0.63636	0.	-1.8106e-003
14104	10.944	0.72727	0.	-5.6627e-003
14105	11.036	0.72727	5.e-002	-5.3848e-007
14106	11.036	0.45455	0.	1.1473e-003
14107	10.944	0.54545	0.	-6.6788e-004
14108	11.036	0.54545	5.e-002	-9.9892e-007
14109	11.036	0.27273	0.	-7.5017e-004
14110	10.944	0.36364	0.	3.5165e-003
14111	11.036	0.36364	5.e-002	-1.1918e-007
14112	10.944	0.18182	0.	-5.2631e-003
14113	11.036	0.18182	5.e-002	1.1011e-006
14114	11.036	9.0909e-002	0.	-1.3436e-003
14115	10.852	5.7273	0.	-4.2047e-004
14116	10.76	5.8182	0.	-6.2235e-003
14117	10.852	5.8182	5.e-002	1.3789e-006
14118	10.852	5.9091	0.	-1.3409e-003
14119	10.852	5.5455	0.	2.1016e-003
14120	10.76	5.6364	0.	4.9821e-003
14121	10.852	5.6364	5.e-002	1.9761e-006
14122	10.852	5.3636	0.	-2.4117e-003
14123	10.76	5.4545	0.	-4.311e-004
14124	10.852	5.4545	5.e-002	2.3584e-006
14125	10.852	5.1818	0.	-0.25714
14126	10.76	5.2727	0.	-2.8138e-002
14127	10.852	5.2727	5.e-002	9.5329e-007
14128	10.852	5.	0.	-2.3987
14129	10.76	5.0909	0.	-2.061
14130	10.852	5.0909	5.e-002	7.7456e-007
14131	10.852	4.8182	0.	-4.4448
14132	10.76	4.9091	0.	-4.2894
14133	10.852	4.9091	5.e-002	1.7875e-007
14134	10.852	4.6364	0.	-6.3424
14135	10.76	4.7273	0.	-6.3694
14136	10.852	4.7273	5.e-002	-4.171e-007
14137	10.852	4.4545	0.	-8.0775
14138	10.76	4.5455	0.	-8.2852
14139	10.852	4.5455	5.e-002	2.9794e-007
14140	10.852	4.2727	0.	-9.6379
14141	10.76	4.3636	0.	-10.023
14142	10.852	4.3636	5.e-002	-8.3427e-007
14143	10.852	4.0909	0.	-11.013
14144	10.76	4.1818	0.	-11.572
14145	10.852	4.1818	5.e-002	-9.2185e-007
14146	10.852	3.9091	0.	-12.193
14147	10.76	4.	0.	-12.92
14148	10.852	4.	5.e-002	-8.1879e-007
14149	10.852	3.7273	0.	-13.17
14150	10.76	3.8182	0.	-14.058
14151	10.852	3.8182	5.e-002	-3.3574e-007
14152	10.852	3.5455	0.	-13.937
14153	10.76	3.6364	0.	-14.978
14154	10.852	3.6364	5.e-002	6.0347e-007
14155	10.852	3.3636	0.	-14.489
14156	10.76	3.4545	0.	-15.674
14157	10.852	3.4545	5.e-002	2.492e-007
14158	10.852	3.1818	0.	-14.821
14159	10.76	3.2727	0.	-16.141
14160	10.852	3.2727	5.e-002	-1.1349e-007
14161	10.852	3.	0.	-14.932
14162	10.76	3.0909	0.	-16.375
14163	10.852	3.0909	5.e-002	3.5981e-007
14164	10.852	2.8182	0.	-14.821
14165	10.76	2.9091	0.	-16.375
14166	10.852	2.9091	5.e-002	7.1293e-007
14167	10.852	2.6364	0.	-14.489
14168	10.76	2.7273	0.	-16.141
14169	10.852	2.7273	5.e-002	7.0826e-007
14170	10.852	2.4545	0.	-13.937
14171	10.76	2.5455	0.	-15.674
14172	10.852	2.5455	5.e-002	5.8254e-007
14173	10.852	2.2727	0.	-13.17
14174	10.76	2.3636	0.	-14.978
14175	10.852	2.3636	5.e-002	1.1174e-007
14176	10.852	2.0909	0.	-12.193
14177	10.76	2.1818	0.	-14.058
14178	10.852	2.1818	5.e-002	1.0332e-007
14179	10.852	1.9091	0.	-11.013
14180	10.76	2.	0.	-12.92
14181	10.852	2.	5.e-002	2.2436e-007
14182	10.852	1.7273	0.	-9.638
14183	10.76	1.8182	0.	-11.572
14184	10.852	1.8182	5.e-002	7.2079e-007
14185	10.852	1.5455	0.	-8.0775
14186	10.76	1.6364	0.	-10.023
14187	10.852	1.6364	5.e-002	2.3836e-007
14188	10.852	1.3636	0.	-6.3424
14189	10.76	1.4545	0.	-8.2852
14190	10.852	1.4545	5.e-002	5.0452e-007
14191	10.852	1.1818	0.	-4.4448
14192	10.76	1.2727	0.	-6.3694
14193	10.852	1.2727	5.e-002	3.9277e-007
14194	10.852	1.	0.	-2.3988
14195	10.76	1.0909	0.	-4.2894
14196	10.852	1.0909	5.e-002	4.5298e-007
14197	10.852	0.81818	0.	-0.25718
14198	10.76	0.90909	0.	-2.061
14199	10.852	0.90909	5.e-002	2.0854e-007
14200	10.852	0.63636	0.	-2.4112e-003
14201	10.76	0.72727	0.	-2.814e-002
14202	10.852	0.72727	5.e-002	-5.9581e-008
14203	10.852	0.45455	0.	2.1022e-003
14204	10.76	0.54545	0.	-4.3018e-004
14205	10.852	0.54545	5.e-002	-4.5679e-007
14206	10.852	0.27273	0.	-4.1958e-004
14207	10.76	0.36364	0.	4.9829e-003
14208	10.852	0.36364	5.e-002	-1.0798e-007
14209	10.76	0.18182	0.	-6.2228e-003
14210	10.852	0.18182	5.e-002	9.1926e-007
14211	10.852	9.0909e-002	0.	-1.3401e-003
14212	10.668	5.7273	0.	-1.6251e-004
14213	10.576	5.8182	0.	-7.3926e-003
14214	10.668	5.8182	5.e-002	4.4088e-006
14215	10.668	5.9091	0.	-1.4076e-003
14216	10.668	5.5455	0.	3.14e-003
14217	10.576	5.6364	0.	6.5375e-003
14218	10.668	5.6364	5.e-002	2.0917e-006
14219	10.668	5.3636	0.	-5.3199e-003
14220	10.576	5.4545	0.	-4.3143e-004
14221	10.668	5.4545	5.e-002	2.6955e-006
14222	10.668	5.1818	0.	-1.5618
14223	10.576	5.2727	0.	-0.9669
14224	10.668	5.2727	5.e-002	1.3106e-006
14225	10.668	5.	0.	-3.9706
14226	10.576	5.0909	0.	-3.5699
14227	10.668	5.0909	5.e-002	1.3589e-006
14228	10.668	4.8182	0.	-6.2328
14229	10.576	4.9091	0.	-6.0296
14230	10.668	4.9091	5.e-002	7.5753e-007
14231	10.668	4.6364	0.	-8.3307
14232	10.576	4.7273	0.	-8.3251
14233	10.668	4.7273	5.e-002	-5.6294e-009
14234	10.668	4.4545	0.	-10.249
14235	10.576	4.5455	0.	-10.44
14236	10.668	4.5455	5.e-002	7.2677e-007
14237	10.668	4.2727	0.	-11.975
14238	10.576	4.3636	0.	-12.359
14239	10.668	4.3636	5.e-002	-2.0413e-007
14240	10.668	4.0909	0.	-13.496
14241	10.576	4.1818	0.	-14.069
14242	10.668	4.1818	5.e-002	-6.8456e-007
14243	10.668	3.9091	0.	-14.802
14244	10.576	4.	0.	-15.558
14245	10.668	4.	5.e-002	-3.311e-007
14246	10.668	3.7273	0.	-15.884
14247	10.576	3.8182	0.	-16.816
14248	10.668	3.8182	5.e-002	2.2084e-008
14249	10.668	3.5455	0.	-16.732
14250	10.576	3.6364	0.	-17.833
14251	10.668	3.6364	5.e-002	8.544e-007
14252	10.668	3.3636	0.	-17.343
14253	10.576	3.4545	0.	-18.602
14254	10.668	3.4545	5.e-002	6.1446e-007
14255	10.668	3.1818	0.	-17.711
14256	10.576	3.2727	0.	-19.117
14257	10.668	3.2727	5.e-002	1.2779e-007
14258	10.668	3.	0.	-17.834
14259	10.576	3.0909	0.	-19.376
14260	10.668	3.0909	5.e-002	9.5622e-007
14261	10.668	2.8182	0.	-17.711
14262	10.576	2.9091	0.	-19.376
14263	10.668	2.9091	5.e-002	1.6661e-006
14264	10.668	2.6364	0.	-17.343
14265	10.576	2.7273	0.	-19.117
14266	10.668	2.7273	5.e-002	1.3027e-006
14267	10.668	2.4545	0.	-16.733
14268	10.576	2.5455	0.	-18.602
14269	10.668	2.5455	5.e-002	1.1808e-006
14270	10.668	2.2727	0.	-15.884
14271	10.576	2.3636	0.	-17.833
14272	10.668	2.3636	5.e-002	9.387e-007
14273	10.668	2.0909	0.	-14.802
14274	10.576	2.1818	0.	-16.816
14275	10.668	2.1818	5.e-002	9.2451e-007
14276	10.668	1.9091	0.	-13.497
14277	10.576	2.	0.	-15.558
14278	10.668	2.	5.e-002	9.4614e-007
14279	10.668	1.7273	0.	-11.975
14280	10.576	1.8182	0.	-14.069
14281	10.668	1.8182	5.e-002	1.0421e-006
14282	10.668	1.5455	0.	-10.249
14283	10.576	1.6364	0.	-12.359
14284	10.668	1.6364	5.e-002	9.1916e-007
14285	10.668	1.3636	0.	-8.3307
14286	10.576	1.4545	0.	-10.44
14287	10.668	1.4545	5.e-002	1.035e-006
14288	10.668	1.1818	0.	-6.2329
14289	10.576	1.2727	0.	-8.3251
14290	10.668	1.2727	5.e-002	1.132e-006
14291	10.668	1.	0.	-3.9707
14292	10.576	1.0909	0.	-6.0297
14293	10.668	1.0909	5.e-002	1.1658e-006
14294	10.668	0.81818	0.	-1.5618
14295	10.576	0.90909	0.	-3.5699
14296	10.668	0.90909	5.e-002	1.1914e-006
14297	10.668	0.63636	0.	-5.3191e-003
14298	10.576	0.72727	0.	-0.96693
14299	10.668	0.72727	5.e-002	6.2549e-007
14300	10.668	0.45455	0.	3.1412e-003
14301	10.576	0.54545	0.	-4.3091e-004
14302	10.668	0.54545	5.e-002	4.3188e-007
14303	10.668	0.27273	0.	-1.6176e-004
14304	10.576	0.36364	0.	6.5388e-003
14305	10.668	0.36364	5.e-002	-1.0304e-015
14306	10.576	0.18182	0.	-7.3917e-003
14307	10.668	0.18182	5.e-002	2.3196e-006
14308	10.668	9.0909e-002	0.	-1.4071e-003
14309	10.484	5.7273	0.	-4.633e-005
14310	10.392	5.8182	0.	-8.855e-003
14311	10.484	5.8182	5.e-002	1.5394e-006
14312	10.484	5.9091	0.	-1.5872e-003
14313	10.484	5.5455	0.	4.2599e-003
14314	10.392	5.6364	0.	8.1492e-003
14315	10.484	5.6364	5.e-002	2.1547e-006
14316	10.484	5.3636	0.	-0.21435
14317	10.392	5.4545	0.	-2.0524e-003
14318	10.484	5.4545	5.e-002	2.5907e-006
14319	10.484	5.1818	0.	-2.9924
14320	10.392	5.2727	0.	-2.314
14321	10.484	5.2727	5.e-002	1.3103e-006
14322	10.484	5.	0.	-5.6477
14323	10.392	5.0909	0.	-5.1811
14324	10.484	5.0909	5.e-002	1.1544e-006
14325	10.484	4.8182	0.	-8.1403
14326	10.392	4.9091	0.	-7.8873
14327	10.484	4.9091	5.e-002	7.9512e-007
14328	10.484	4.6364	0.	-10.452
14329	10.392	4.7273	0.	-10.413
14330	10.484	4.7273	5.e-002	-5.373e-008
14331	10.484	4.4545	0.	-12.567
14332	10.392	4.5455	0.	-12.741
14333	10.484	4.5455	5.e-002	3.7335e-007
14334	10.484	4.2727	0.	-14.47
14335	10.392	4.3636	0.	-14.854
14336	10.484	4.3636	5.e-002	-2.6656e-008
14337	10.484	4.0909	0.	-16.148
14338	10.392	4.1818	0.	-16.738
14339	10.484	4.1818	5.e-002	-1.6771e-007
14340	10.484	3.9091	0.	-17.588
14341	10.392	4.	0.	-18.378
14342	10.484	4.	5.e-002	-3.2696e-007
14343	10.484	3.7273	0.	-18.781
14344	10.392	3.8182	0.	-19.763
14345	10.484	3.8182	5.e-002	2.5112e-007
14346	10.484	3.5455	0.	-19.718
14347	10.392	3.6364	0.	-20.884
14348	10.484	3.6364	5.e-002	9.6363e-007
14349	10.484	3.3636	0.	-20.392
14350	10.392	3.4545	0.	-21.731
14351	10.484	3.4545	5.e-002	4.9135e-007
14352	10.484	3.1818	0.	-20.798
14353	10.392	3.2727	0.	-22.3
14354	10.484	3.2727	5.e-002	4.8736e-007
14355	10.484	3.	0.	-20.934
14356	10.392	3.0909	0.	-22.585
14357	10.484	3.0909	5.e-002	7.1838e-007
14358	10.484	2.8182	0.	-20.798
14359	10.392	2.9091	0.	-22.585
14360	10.484	2.9091	5.e-002	1.4274e-006
14361	10.484	2.6364	0.	-20.392
14362	10.392	2.7273	0.	-22.3
14363	10.484	2.7273	5.e-002	1.4201e-006
14364	10.484	2.4545	0.	-19.718
14365	10.392	2.5455	0.	-21.731
14366	10.484	2.5455	5.e-002	1.1775e-006
14367	10.484	2.2727	0.	-18.781
14368	10.392	2.3636	0.	-20.884
14369	10.484	2.3636	5.e-002	1.1618e-006
14370	10.484	2.0909	0.	-17.588
14371	10.392	2.1818	0.	-19.763
14372	10.484	2.1818	5.e-002	9.4076e-007
14373	10.484	1.9091	0.	-16.148
14374	10.392	2.	0.	-18.378
14375	10.484	2.	5.e-002	9.2285e-007
14376	10.484	1.7273	0.	-14.47
14377	10.392	1.8182	0.	-16.738
14378	10.484	1.8182	5.e-002	1.3241e-006
14379	10.484	1.5455	0.	-12.567
14380	10.392	1.6364	0.	-14.854
14381	10.484	1.6364	5.e-002	9.268e-007
14382	10.484	1.3636	0.	-10.452
14383	10.392	1.4545	0.	-12.741
14384	10.484	1.4545	5.e-002	1.0723e-006
14385	10.484	1.1818	0.	-8.1403
14386	10.392	1.2727	0.	-10.413
14387	10.484	1.2727	5.e-002	1.1444e-006
14388	10.484	1.	0.	-5.6478
14389	10.392	1.0909	0.	-7.8874
14390	10.484	1.0909	5.e-002	1.0126e-006
14391	10.484	0.81818	0.	-2.9924
14392	10.392	0.90909	0.	-5.1811
14393	10.484	0.90909	5.e-002	1.3774e-006
14394	10.484	0.63636	0.	-0.21438
14395	10.392	0.72727	0.	-2.314
14396	10.484	0.72727	5.e-002	1.2507e-006
14397	10.484	0.45455	0.	4.2606e-003
14398	10.392	0.54545	0.	-2.053e-003
14399	10.484	0.54545	5.e-002	6.9434e-007
14400	10.484	0.27273	0.	-4.4837e-005
14401	10.392	0.36364	0.	8.1506e-003
14402	10.484	0.36364	5.e-002	7.8158e-007
14403	10.392	0.18182	0.	-8.854e-003
14404	10.484	0.18182	5.e-002	9.9236e-007
14405	10.484	9.0909e-002	0.	-1.5861e-003
14406	10.3	5.7273	0.	-1.8153e-004
14407	10.208	5.8182	0.	-1.0754e-002
14408	10.3	5.8182	5.e-002	1.5041e-006
14409	10.3	5.9091	0.	-1.9351e-003
14410	10.3	5.5455	0.	5.4556e-003
14411	10.208	5.6364	0.	9.7266e-003
14412	10.3	5.6364	5.e-002	2.0463e-006
14413	10.3	5.3636	0.	-1.4453
14414	10.208	5.4545	0.	-0.45551
14415	10.3	5.4545	5.e-002	2.5899e-006
14416	10.3	5.1818	0.	-4.5215
14417	10.208	5.2727	0.	-3.7564
14418	10.3	5.2727	5.e-002	1.521e-006
14419	10.3	5.	0.	-7.4391
14420	10.208	5.0909	0.	-6.903
14421	10.3	5.0909	5.e-002	1.4301e-006
14422	10.3	4.8182	0.	-10.178
14423	10.208	4.9091	0.	-9.8736
14424	10.3	4.9091	5.e-002	1.0698e-006
14425	10.3	4.6364	0.	-12.72
14426	10.208	4.7273	0.	-12.647
14427	10.3	4.7273	5.e-002	-5.0879e-009
14428	10.3	4.4545	0.	-15.045
14429	10.208	4.5455	0.	-15.204
14430	10.3	4.5455	5.e-002	1.0159e-006
14431	10.3	4.2727	0.	-17.139
14432	10.208	4.3636	0.	-17.525
14433	10.3	4.3636	5.e-002	4.5428e-008
14434	10.3	4.0909	0.	-18.984
14435	10.208	4.1818	0.	-19.595
14436	10.3	4.1818	5.e-002	1.3702e-008
14437	10.3	3.9091	0.	-20.569
14438	10.208	4.	0.	-21.397
14439	10.3	4.	5.e-002	3.4948e-008
14440	10.3	3.7273	0.	-21.882
14441	10.208	3.8182	0.	-22.92
14442	10.3	3.8182	5.e-002	5.0584e-007
14443	10.3	3.5455	0.	-22.913
14444	10.208	3.6364	0.	-24.151
14445	10.3	3.6364	5.e-002	1.6846e-006
14446	10.3	3.3636	0.	-23.654
14447	10.208	3.4545	0.	-25.083
14448	10.3	3.4545	5.e-002	9.6189e-007
14449	10.3	3.1818	0.	-24.102
14450	10.208	3.2727	0.	-25.708
14451	10.3	3.2727	5.e-002	7.2359e-007
14452	10.3	3.	0.	-24.251
14453	10.208	3.0909	0.	-26.022
14454	10.3	3.0909	5.e-002	1.4332e-006
14455	10.3	2.8182	0.	-24.102
14456	10.208	2.9091	0.	-26.022
14457	10.3	2.9091	5.e-002	1.9048e-006
14458	10.3	2.6364	0.	-23.654
14459	10.208	2.7273	0.	-25.708
14460	10.3	2.7273	5.e-002	1.8998e-006
14461	10.3	2.4545	0.	-22.913
14462	10.208	2.5455	0.	-25.083
14463	10.3	2.5455	5.e-002	1.4263e-006
14464	10.3	2.2727	0.	-21.882
14465	10.208	2.3636	0.	-24.151
14466	10.3	2.3636	5.e-002	1.6616e-006
14467	10.3	2.0909	0.	-20.569
14468	10.208	2.1818	0.	-22.92
14469	10.3	2.1818	5.e-002	1.1773e-006
14470	10.3	1.9091	0.	-18.984
14471	10.208	2.	0.	-21.397
14472	10.3	2.	5.e-002	1.6684e-006
14473	10.3	1.7273	0.	-17.139
14474	10.208	1.8182	0.	-19.595
14475	10.3	1.8182	5.e-002	1.4436e-006
14476	10.3	1.5455	0.	-15.045
14477	10.208	1.6364	0.	-17.525
14478	10.3	1.6364	5.e-002	1.4297e-006
14479	10.3	1.3636	0.	-12.72
14480	10.208	1.4545	0.	-15.204
14481	10.3	1.4545	5.e-002	1.1913e-006
14482	10.3	1.1818	0.	-10.178
14483	10.208	1.2727	0.	-12.647
14484	10.3	1.2727	5.e-002	1.3103e-006
14485	10.3	1.	0.	-7.4391
14486	10.208	1.0909	0.	-9.8736
14487	10.3	1.0909	5.e-002	1.4568e-006
14488	10.3	0.81818	0.	-4.5215
14489	10.208	0.90909	0.	-6.9031
14490	10.3	0.90909	5.e-002	1.3998e-006
14491	10.3	0.63636	0.	-1.4453
14492	10.208	0.72727	0.	-3.7564
14493	10.3	0.72727	5.e-002	1.7267e-006
14494	10.3	0.45455	0.	5.456e-003
14495	10.208	0.54545	0.	-0.45554
14496	10.3	0.54545	5.e-002	1.6416e-006
14497	10.3	0.27273	0.	-1.8053e-004
14498	10.208	0.36364	0.	9.7277e-003
14499	10.3	0.36364	5.e-002	1.7561e-006
14500	10.208	0.18182	0.	-1.0753e-002
14501	10.3	0.18182	5.e-002	1.5481e-006
14502	10.3	9.0909e-002	0.	-1.9342e-003
14503	10.116	5.7273	0.	-8.1109e-004
14504	10.024	5.8182	0.	-1.3236e-002
14505	10.116	5.8182	5.e-002	6.3741e-006
14506	10.116	5.9091	0.	-2.5824e-003
14507	10.116	5.5455	0.	6.6651e-003
14508	10.024	5.6364	0.	1.1109e-002
14509	10.116	5.6364	5.e-002	1.9555e-006
14510	10.116	5.3636	0.	-2.784
14511	10.024	5.4545	0.	-1.6822
14512	10.116	5.4545	5.e-002	2.2616e-006
14513	10.116	5.1818	0.	-6.1564
14514	10.024	5.2727	0.	-5.299
14515	10.116	5.2727	5.e-002	1.3945e-006
14516	10.116	5.	0.	-9.3553
14517	10.024	5.0909	0.	-8.7456
14518	10.116	5.0909	5.e-002	1.1905e-006
14519	10.116	4.8182	0.	-12.36
14520	10.024	4.9091	0.	-12.
14521	10.116	4.9091	5.e-002	8.6935e-007
14522	10.116	4.6364	0.	-15.148
14523	10.024	4.7273	0.	-15.04
14524	10.116	4.7273	5.e-002	1.5073e-007
14525	10.116	4.4545	0.	-17.7
14526	10.024	4.5455	0.	-17.842
14527	10.116	4.5455	5.e-002	9.5283e-007
14528	10.116	4.2727	0.	-19.997
14529	10.024	4.3636	0.	-20.388
14530	10.116	4.3636	5.e-002	-2.1593e-007
14531	10.116	4.0909	0.	-22.023
14532	10.024	4.1818	0.	-22.657
14533	10.116	4.1818	5.e-002	-1.7485e-007
14534	10.116	3.9091	0.	-23.763
14535	10.024	4.	0.	-24.635
14536	10.116	4.	5.e-002	1.3156e-008
14537	10.116	3.7273	0.	-25.205
14538	10.024	3.8182	0.	-26.305
14539	10.116	3.8182	5.e-002	4.7669e-007
14540	10.116	3.5455	0.	-26.337
14541	10.024	3.6364	0.	-27.657
14542	10.116	3.6364	5.e-002	1.2179e-006
14543	10.116	3.3636	0.	-27.152
14544	10.024	3.4545	0.	-28.679
14545	10.116	3.4545	5.e-002	1.2014e-006
14546	10.116	3.1818	0.	-27.643
14547	10.024	3.2727	0.	-29.365
14548	10.116	3.2727	5.e-002	4.839e-007
14549	10.116	3.	0.	-27.807
14550	10.024	3.0909	0.	-29.709
14551	10.116	3.0909	5.e-002	9.5604e-007
14552	10.116	2.8182	0.	-27.643
14553	10.024	2.9091	0.	-29.709
14554	10.116	2.9091	5.e-002	1.6675e-006
14555	10.116	2.6364	0.	-27.152
14556	10.024	2.7273	0.	-29.365
14557	10.116	2.7273	5.e-002	1.185e-006
14558	10.116	2.4545	0.	-26.337
14559	10.024	2.5455	0.	-28.679
14560	10.116	2.5455	5.e-002	1.1826e-006
14561	10.116	2.2727	0.	-25.205
14562	10.024	2.3636	0.	-27.657
14563	10.116	2.3636	5.e-002	1.4043e-006
14564	10.116	2.0909	0.	-23.763
14565	10.024	2.1818	0.	-26.305
14566	10.116	2.1818	5.e-002	9.3691e-007
14567	10.116	1.9091	0.	-22.023
14568	10.024	2.	0.	-24.635
14569	10.116	2.	5.e-002	1.1718e-006
14570	10.116	1.7273	0.	-19.997
14571	10.024	1.8182	0.	-22.657
14572	10.116	1.8182	5.e-002	1.4473e-006
14573	10.116	1.5455	0.	-17.7
14574	10.024	1.6364	0.	-20.388
14575	10.116	1.6364	5.e-002	1.162e-006
14576	10.116	1.3636	0.	-15.148
14577	10.024	1.4545	0.	-17.842
14578	10.116	1.4545	5.e-002	1.0152e-006
14579	10.116	1.1818	0.	-12.36
14580	10.024	1.2727	0.	-15.04
14581	10.116	1.2727	5.e-002	1.4607e-006
14582	10.116	1.	0.	-9.3554
14583	10.024	1.0909	0.	-12.
14584	10.116	1.0909	5.e-002	1.2266e-006
14585	10.116	0.81818	0.	-6.1564
14586	10.024	0.90909	0.	-8.7456
14587	10.116	0.90909	5.e-002	1.0715e-006
14588	10.116	0.63636	0.	-2.784
14589	10.024	0.72727	0.	-5.2991
14590	10.116	0.72727	5.e-002	1.369e-006
14591	10.116	0.45455	0.	6.6661e-003
14592	10.024	0.54545	0.	-1.6823
14593	10.116	0.54545	5.e-002	1.9914e-006
14594	10.116	0.27273	0.	-8.0947e-004
14595	10.024	0.36364	0.	1.111e-002
14596	10.116	0.36364	5.e-002	1.8068e-006
14597	10.024	0.18182	0.	-1.3235e-002
14598	10.116	0.18182	5.e-002	6.243e-006
14599	10.116	9.0909e-002	0.	-2.5811e-003
14600	9.9321	5.7273	0.	-2.1866e-003
14601	9.8402	5.8182	0.	-1.648e-002
14602	9.9321	5.8182	5.e-002	1.3262e-006
14603	9.9321	5.9091	0.	-3.5414e-003
14604	9.9321	5.5455	0.	-0.33076
14605	9.8402	5.6364	0.	1.1544e-002
14606	9.9321	5.6364	5.e-002	1.9626e-006
14607	9.9321	5.3636	0.	-4.2161
14608	9.8402	5.4545	0.	-2.9964
14609	9.9321	5.4545	5.e-002	2.2607e-006
14610	9.9321	5.1818	0.	-7.9061
14611	9.8402	5.2727	0.	-6.9501
14612	9.9321	5.2727	5.e-002	1.1305e-006
14613	9.9321	5.	0.	-11.408
14614	9.8402	5.0909	0.	-10.719
14615	9.9321	5.0909	5.e-002	1.3091e-006
14616	9.9321	4.8182	0.	-14.697
14617	9.8402	4.9091	0.	-14.28
14618	9.9321	4.9091	5.e-002	4.0223e-007
14619	9.9321	4.6364	0.	-17.751
14620	9.8402	4.7273	0.	-17.606
14621	9.9321	4.7273	5.e-002	1.6879e-007
14622	9.9321	4.4545	0.	-20.546
14623	9.8402	4.5455	0.	-20.674
14624	9.9321	4.5455	5.e-002	6.5043e-007
14625	9.9321	4.2727	0.	-23.064
14626	9.8402	4.3636	0.	-23.461
14627	9.9321	4.3636	5.e-002	-5.2071e-015
14628	9.9321	4.0909	0.	-25.284
14629	9.8402	4.1818	0.	-25.946
14630	9.9321	4.1818	5.e-002	-2.3824e-007
14631	9.9321	3.9091	0.	-27.191
14632	9.8402	4.	0.	-28.111
14633	9.9321	4.	5.e-002	2.2268e-008
14634	9.9321	3.7273	0.	-28.772
14635	9.8402	3.8182	0.	-29.941
14636	9.9321	3.8182	5.e-002	1.1524e-008
14637	9.9321	3.5455	0.	-30.013
14638	9.8402	3.6364	0.	-31.422
14639	9.9321	3.6364	5.e-002	9.3885e-007
14640	9.9321	3.3636	0.	-30.906
14641	9.8402	3.4545	0.	-32.542
14642	9.9321	3.4545	5.e-002	1.4446e-006
14643	9.9321	3.1818	0.	-31.445
14644	9.8402	3.2727	0.	-33.293
14645	9.9321	3.2727	5.e-002	4.8318e-007
14646	9.9321	3.	0.	-31.625
14647	9.8402	3.0909	0.	-33.67
14648	9.9321	3.0909	5.e-002	1.4328e-006
14649	9.9321	2.8182	0.	-31.445
14650	9.8402	2.9091	0.	-33.67
14651	9.9321	2.9091	5.e-002	1.4285e-006
14652	9.9321	2.6364	0.	-30.906
14653	9.8402	2.7273	0.	-33.293
14654	9.9321	2.7273	5.e-002	1.6609e-006
14655	9.9321	2.4545	0.	-30.013
14656	9.8402	2.5455	0.	-32.542
14657	9.9321	2.5455	5.e-002	9.4675e-007
14658	9.9321	2.2727	0.	-28.772
14659	9.8402	2.3636	0.	-31.422
14660	9.9321	2.3636	5.e-002	1.6539e-006
14661	9.9321	2.0909	0.	-27.191
14662	9.8402	2.1818	0.	-29.941
14663	9.9321	2.1818	5.e-002	1.1846e-006
14664	9.9321	1.9091	0.	-25.284
14665	9.8402	2.	0.	-28.111
14666	9.9321	2.	5.e-002	9.5315e-007
14667	9.9321	1.7273	0.	-23.064
14668	9.8402	1.8182	0.	-25.946
14669	9.9321	1.8182	5.e-002	1.1397e-006
14670	9.9321	1.5455	0.	-20.546
14671	9.8402	1.6364	0.	-23.461
14672	9.9321	1.6364	5.e-002	1.191e-006
14673	9.9321	1.3636	0.	-17.751
14674	9.8402	1.4545	0.	-20.674
14675	9.9321	1.4545	5.e-002	9.526e-007
14676	9.9321	1.1818	0.	-14.697
14677	9.8402	1.2727	0.	-17.606
14678	9.9321	1.2727	5.e-002	1.1905e-006
14679	9.9321	1.	0.	-11.408
14680	9.8402	1.0909	0.	-14.28
14681	9.9321	1.0909	5.e-002	1.2354e-006
14682	9.9321	0.81818	0.	-7.9062
14683	9.8402	0.90909	0.	-10.719
14684	9.9321	0.90909	5.e-002	1.4281e-006
14685	9.9321	0.63636	0.	-4.2161
14686	9.8402	0.72727	0.	-6.9502
14687	9.9321	0.72727	5.e-002	1.4704e-006
14688	9.9321	0.45455	0.	-0.33078
14689	9.8402	0.54545	0.	-2.9964
14690	9.9321	0.54545	5.e-002	1.4873e-006
14691	9.9321	0.27273	0.	-2.186e-003
14692	9.8402	0.36364	0.	1.1545e-002
14693	9.9321	0.36364	5.e-002	1.7248e-006
14694	9.8402	0.18182	0.	-1.648e-002
14695	9.9321	0.18182	5.e-002	-1.0812e-007
14696	9.9321	9.0909e-002	0.	-3.5404e-003
14697	9.7482	5.7273	0.	-5.0004e-003
14698	9.6563	5.8182	0.	-2.0875e-002
14699	9.7482	5.8182	5.e-002	1.3217e-006
14700	9.7482	5.9091	0.	-4.924e-003
14701	9.7482	5.5455	0.	-1.5088
14702	9.6563	5.6364	0.	-1.1313e-002
14703	9.7482	5.6364	5.e-002	1.8426e-006
14704	9.7482	5.3636	0.	-5.7486
14705	9.6563	5.4545	0.	-4.4022
14706	9.7482	5.4545	5.e-002	2.2595e-006
14707	9.7482	5.1818	0.	-9.7808
14708	9.6563	5.2727	0.	-8.719
14709	9.7482	5.2727	5.e-002	1.4273e-006
14710	9.7482	5.	0.	-13.608
14711	9.6563	5.0909	0.	-12.836
14712	9.7482	5.0909	5.e-002	1.3727e-006
14713	9.7482	4.8182	0.	-17.205
14714	9.6563	4.9091	0.	-16.727
14715	9.7482	4.9091	5.e-002	8.6564e-007
14716	9.7482	4.6364	0.	-20.545
14717	9.6563	4.7273	0.	-20.362
14718	9.7482	4.7273	5.e-002	4.7604e-007
14719	9.7482	4.4545	0.	-23.603
14720	9.6563	4.5455	0.	-23.716
14721	9.7482	4.5455	5.e-002	1.515e-006
14722	9.7482	4.2727	0.	-26.358
14723	9.6563	4.3636	0.	-26.763
14724	9.7482	4.3636	5.e-002	3.0919e-007
14725	9.7482	4.0909	0.	-28.788
14726	9.6563	4.1818	0.	-29.481
14727	9.7482	4.1818	5.e-002	2.6615e-007
14728	9.7482	3.9091	0.	-30.875
14729	9.6563	4.	0.	-31.849
14730	9.7482	4.	5.e-002	7.813e-007
14731	9.7482	3.7273	0.	-32.605
14732	9.6563	3.8182	0.	-33.851
14733	9.7482	3.8182	5.e-002	1.2473e-006
14734	9.7482	3.5455	0.	-33.964
14735	9.6563	3.6364	0.	-35.47
14736	9.7482	3.6364	5.e-002	7.4768e-007
14737	9.7482	3.3636	0.	-34.942
14738	9.6563	3.4545	0.	-36.696
14739	9.7482	3.4545	5.e-002	1.1978e-006
14740	9.7482	3.1818	0.	-35.532
14741	9.6563	3.2727	0.	-37.518
14742	9.7482	3.2727	5.e-002	4.8214e-007
14743	9.7482	3.	0.	-35.729
14744	9.6563	3.0909	0.	-37.931
14745	9.7482	3.0909	5.e-002	1.4328e-006
14746	9.7482	2.8182	0.	-35.532
14747	9.6563	2.9091	0.	-37.931
14748	9.7482	2.9091	5.e-002	9.5208e-007
14749	9.7482	2.6364	0.	-34.942
14750	9.6563	2.7273	0.	-37.518
14751	9.7482	2.7273	5.e-002	1.4233e-006
14752	9.7482	2.4545	0.	-33.964
14753	9.6563	2.5455	0.	-36.696
14754	9.7482	2.5455	5.e-002	1.8894e-006
14755	9.7482	2.2727	0.	-32.605
14756	9.6563	2.3636	0.	-35.47
14757	9.7482	2.3636	5.e-002	1.4301e-006
14758	9.7482	2.0909	0.	-30.875
14759	9.6563	2.1818	0.	-33.851
14760	9.7482	2.1818	5.e-002	1.8794e-006
14761	9.7482	1.9091	0.	-28.788
14762	9.6563	2.	0.	-31.849
14763	9.7482	2.	5.e-002	9.9466e-007
14764	9.7482	1.7273	0.	-26.358
14765	9.6563	1.8182	0.	-29.481
14766	9.7482	1.8182	5.e-002	1.6954e-006
14767	9.7482	1.5455	0.	-23.603
14768	9.6563	1.6364	0.	-26.763
14769	9.7482	1.6364	5.e-002	1.9051e-006
14770	9.7482	1.3636	0.	-20.545
14771	9.6563	1.4545	0.	-23.716
14772	9.7482	1.4545	5.e-002	1.4285e-006
14773	9.7482	1.1818	0.	-17.205
14774	9.6563	1.2727	0.	-20.362
14775	9.7482	1.2727	5.e-002	1.9042e-006
14776	9.7482	1.	0.	-13.608
14777	9.6563	1.0909	0.	-16.727
14778	9.7482	1.0909	5.e-002	2.0195e-006
14779	9.7482	0.81818	0.	-9.7808
14780	9.6563	0.90909	0.	-12.836
14781	9.7482	0.90909	5.e-002	1.9033e-006
14782	9.7482	0.63636	0.	-5.7486
14783	9.6563	0.72727	0.	-8.719
14784	9.7482	0.72727	5.e-002	1.903e-006
14785	9.7482	0.45455	0.	-1.5088
14786	9.6563	0.54545	0.	-4.4022
14787	9.7482	0.54545	5.e-002	1.6054e-006
14788	9.7482	0.27273	0.	-4.9991e-003
14789	9.6563	0.36364	0.	-1.1312e-002
14790	9.7482	0.36364	5.e-002	1.4562e-006
14791	9.6563	0.18182	0.	-2.0874e-002
14792	9.7482	0.18182	5.e-002	1.2352e-006
14793	9.7482	9.0909e-002	0.	-4.9236e-003
14794	9.5643	5.7273	0.	-1.1143e-002
14795	9.4723	5.8182	0.	-2.7079e-002
14796	9.5643	5.8182	5.e-002	1.1696e-006
14797	9.5643	5.9091	0.	-6.9923e-003
14798	9.5643	5.5455	0.	-2.7677
14799	9.4723	5.6364	0.	-0.9609
14800	9.5643	5.6364	5.e-002	1.4552e-006
14801	9.5643	5.3636	0.	-7.3901
14802	9.4723	5.4545	0.	-5.9071
14803	9.5643	5.4545	5.e-002	2.0204e-006
14804	9.5643	5.1818	0.	-11.791
14805	9.4723	5.2727	0.	-10.616
14806	9.5643	5.2727	5.e-002	8.1747e-007
14807	9.5643	5.	0.	-15.971
14808	9.4723	5.0909	0.	-15.109
14809	9.5643	5.0909	5.e-002	7.1337e-007
14810	9.5643	4.8182	0.	-19.899
14811	9.4723	4.9091	0.	-19.355
14812	9.5643	4.9091	5.e-002	3.1005e-007
14813	9.5643	4.6364	0.	-23.548
14814	9.4723	4.7273	0.	-23.324
14815	9.5643	4.7273	5.e-002	-1.747e-007
14816	9.5643	4.4545	0.	-26.889
14817	9.4723	4.5455	0.	-26.987
14818	9.5643	4.5455	5.e-002	7.14e-007
14819	9.5643	4.2727	0.	-29.9
14820	9.4723	4.3636	0.	-30.315
14821	9.5643	4.3636	5.e-002	1.1653e-007
14822	9.5643	4.0909	0.	-32.556
14823	9.4723	4.1818	0.	-33.284
14824	9.5643	4.1818	5.e-002	3.2117e-008
14825	9.5643	3.9091	0.	-34.838
14826	9.4723	4.	0.	-35.872
14827	9.5643	4.	5.e-002	2.5781e-008
14828	9.5643	3.7273	0.	-36.729
14829	9.4723	3.8182	0.	-38.059
14830	9.5643	3.8182	5.e-002	4.607e-008
14831	9.5643	3.5455	0.	-38.215
14832	9.4723	3.6364	0.	-39.829
14833	9.5643	3.6364	5.e-002	9.8253e-007
14834	9.5643	3.3636	0.	-39.285
14835	9.4723	3.4545	0.	-41.169
14836	9.5643	3.4545	5.e-002	4.9558e-007
14837	9.5643	3.1818	0.	-39.93
14838	9.4723	3.2727	0.	-42.067
14839	9.5643	3.2727	5.e-002	4.8471e-007
14840	9.5643	3.	0.	-40.145
14841	9.4723	3.0909	0.	-42.518
14842	9.5643	3.0909	5.e-002	1.4328e-006
14843	9.5643	2.8182	0.	-39.93
14844	9.4723	2.9091	0.	-42.518
14845	9.5643	2.9091	5.e-002	1.4275e-006
14846	9.5643	2.6364	0.	-39.285
14847	9.4723	2.7273	0.	-42.067
14848	9.5643	2.7273	5.e-002	1.4225e-006
14849	9.5643	2.4545	0.	-38.215
14850	9.4723	2.5455	0.	-41.169
14851	9.5643	2.5455	5.e-002	1.8931e-006
14852	9.5643	2.2727	0.	-36.729
14853	9.4723	2.3636	0.	-39.829
14854	9.5643	2.3636	5.e-002	4.8772e-007
14855	9.5643	2.0909	0.	-34.838
14856	9.4723	2.1818	0.	-38.059
14857	9.5643	2.1818	5.e-002	1.4297e-006
14858	9.5643	1.9091	0.	-32.556
14859	9.4723	2.	0.	-35.872
14860	9.5643	2.	5.e-002	1.1357e-006
14861	9.5643	1.7273	0.	-29.9
14862	9.4723	1.8182	0.	-33.284
14863	9.5643	1.8182	5.e-002	1.1586e-006
14864	9.5643	1.5455	0.	-26.889
14865	9.4723	1.6364	0.	-30.315
14866	9.5643	1.6364	5.e-002	1.1904e-006
14867	9.5643	1.3636	0.	-23.548
14868	9.4723	1.4545	0.	-26.987
14869	9.5643	1.4545	5.e-002	1.27e-006
14870	9.5643	1.1818	0.	-19.899
14871	9.4723	1.2727	0.	-23.324
14872	9.5643	1.2727	5.e-002	1.4275e-006
14873	9.5643	1.	0.	-15.971
14874	9.4723	1.0909	0.	-19.355
14875	9.5643	1.0909	5.e-002	1.1893e-006
14876	9.5643	0.81818	0.	-11.791
14877	9.4723	0.90909	0.	-15.109
14878	9.5643	0.90909	5.e-002	1.189e-006
14879	9.5643	0.63636	0.	-7.3901
14880	9.4723	0.72727	0.	-10.616
14881	9.5643	0.72727	5.e-002	1.6642e-006
14882	9.5643	0.45455	0.	-2.7677
14883	9.4723	0.54545	0.	-5.9072
14884	9.5643	0.54545	5.e-002	1.6368e-006
14885	9.5643	0.27273	0.	-1.1142e-002
14886	9.4723	0.36364	0.	-0.96091
14887	9.5643	0.36364	5.e-002	1.574e-006
14888	9.4723	0.18182	0.	-2.7078e-002
14889	9.5643	0.18182	5.e-002	1.4251e-006
14890	9.5643	9.0909e-002	0.	-6.9913e-003
14891	9.3804	5.7273	0.	-2.6946e-002
14892	9.2884	5.8182	0.	-3.6239e-002
14893	9.3804	5.8182	5.e-002	2.7092e-006
14894	9.3804	5.9091	0.	-1.0079e-002
14895	9.3804	5.5455	0.	-4.114
14896	9.2884	5.6364	0.	-2.1339
14897	9.3804	5.6364	5.e-002	1.4994e-006
14898	9.3804	5.3636	0.	-9.1497
14899	9.2884	5.4545	0.	-7.5194
14900	9.3804	5.4545	5.e-002	1.8975e-006
14901	9.3804	5.1818	0.	-13.949
14902	9.2884	5.2727	0.	-12.651
14903	9.3804	5.2727	5.e-002	1.1668e-006
14904	9.3804	5.	0.	-18.509
14905	9.2884	5.0909	0.	-17.55
14906	9.3804	5.0909	5.e-002	6.0424e-007
14907	9.3804	4.8182	0.	-22.795
14908	9.2884	4.9091	0.	-22.181
14909	9.3804	4.9091	5.e-002	-3.8276e-015
14910	9.3804	4.6364	0.	-26.777
14911	9.2884	4.7273	0.	-26.511
14912	9.3804	4.7273	5.e-002	2.3402e-007
14913	9.3804	4.4545	0.	-30.425
14914	9.2884	4.5455	0.	-30.507
14915	9.3804	4.5455	5.e-002	-2.1066e-015
14916	9.3804	4.2727	0.	-33.712
14917	9.2884	4.3636	0.	-34.139
14918	9.3804	4.3636	5.e-002	-1.6852e-015
14919	9.3804	4.0909	0.	-36.613
14920	9.2884	4.1818	0.	-37.38
14921	9.3804	4.1818	5.e-002	-9.0975e-007
14922	9.3804	3.9091	0.	-39.105
14923	9.2884	4.	0.	-40.205
14924	9.3804	4.	5.e-002	3.0702e-008
14925	9.3804	3.7273	0.	-41.171
14926	9.2884	3.8182	0.	-42.593
14927	9.3804	3.8182	5.e-002	7.6553e-008
14928	9.3804	3.5455	0.	-42.795
14929	9.2884	3.6364	0.	-44.526
14930	9.3804	3.6364	5.e-002	4.8667e-007
14931	9.3804	3.3636	0.	-43.963
14932	9.2884	3.4545	0.	-45.989
14933	9.3804	3.4545	5.e-002	1.4291e-008
14934	9.3804	3.1818	0.	-44.668
14935	9.2884	3.2727	0.	-46.97
14936	9.3804	3.2727	5.e-002	4.8811e-007
14937	9.3804	3.	0.	-44.903
14938	9.2884	3.0909	0.	-47.463
14939	9.3804	3.0909	5.e-002	4.8049e-007
14940	9.3804	2.8182	0.	-44.668
14941	9.2884	2.9091	0.	-47.463
14942	9.3804	2.9091	5.e-002	1.4272e-006
14943	9.3804	2.6364	0.	-43.963
14944	9.2884	2.7273	0.	-46.97
14945	9.3804	2.7273	5.e-002	4.7062e-007
14946	9.3804	2.4545	0.	-42.795
14947	9.2884	2.5455	0.	-45.989
14948	9.3804	2.5455	5.e-002	9.5326e-007
14949	9.3804	2.2727	0.	-41.171
14950	9.2884	2.3636	0.	-44.526
14951	9.3804	2.3636	5.e-002	9.432e-007
14952	9.3804	2.0909	0.	-39.105
14953	9.2884	2.1818	0.	-42.593
14954	9.3804	2.1818	5.e-002	1.906e-006
14955	9.3804	1.9091	0.	-36.613
14956	9.2884	2.	0.	-40.205
14957	9.3804	2.	5.e-002	1.844e-006
14958	9.3804	1.7273	0.	-33.712
14959	9.2884	1.8182	0.	-37.38
14960	9.3804	1.8182	5.e-002	1.8761e-006
14961	9.3804	1.5455	0.	-30.425
14962	9.2884	1.6364	0.	-34.139
14963	9.3804	1.6364	5.e-002	3.9565e-007
14964	9.3804	1.3636	0.	-26.777
14965	9.2884	1.4545	0.	-30.507
14966	9.3804	1.4545	5.e-002	9.5161e-007
14967	9.3804	1.1818	0.	-22.795
14968	9.2884	1.2727	0.	-26.511
14969	9.3804	1.2727	5.e-002	1.5049e-006
14970	9.3804	1.	0.	-18.509
14971	9.2884	1.0909	0.	-22.181
14972	9.3804	1.0909	5.e-002	1.4263e-006
14973	9.3804	0.81818	0.	-13.949
14974	9.2884	0.90909	0.	-17.55
14975	9.3804	0.90909	5.e-002	1.4259e-006
14976	9.3804	0.63636	0.	-9.1497
14977	9.2884	0.72727	0.	-12.651
14978	9.3804	0.72727	5.e-002	2.1116e-006
14979	9.3804	0.45455	0.	-4.114
14980	9.2884	0.54545	0.	-7.5194
14981	9.3804	0.54545	5.e-002	1.8975e-006
14982	9.3804	0.27273	0.	-2.6945e-002
14983	9.2884	0.36364	0.	-2.1339
14984	9.3804	0.36364	5.e-002	1.6616e-006
14985	9.2884	0.18182	0.	-3.6238e-002
14986	9.3804	0.18182	5.e-002	1.4986e-006
14987	9.3804	9.0909e-002	0.	-1.0078e-002
14988	9.1964	5.7273	0.	-9.2722e-002
14989	9.1045	5.8182	0.	-5.0657e-002
14990	9.1964	5.8182	5.e-002	1.2233e-006
14991	9.1964	5.9091	0.	-1.475e-002
14992	9.1964	5.5455	0.	-5.5549
14993	9.1045	5.6364	0.	-3.3893
14994	9.1964	5.6364	5.e-002	1.3042e-006
14995	9.1964	5.3636	0.	-11.037
14996	9.1045	5.4545	0.	-9.2477
14997	9.1964	5.4545	5.e-002	1.6857e-006
14998	9.1964	5.1818	0.	-16.267
14999	9.1045	5.2727	0.	-14.837
15000	9.1964	5.2727	5.e-002	2.5188e-007
15001	9.1964	5.	0.	-21.237
15002	9.1045	5.0909	0.	-20.174
15003	9.1964	5.0909	5.e-002	5.9199e-007
15004	9.1964	4.8182	0.	-25.911
15005	9.1045	4.9091	0.	-25.222
15006	9.1964	4.9091	5.e-002	3.5155e-007
15007	9.1964	4.6364	0.	-30.254
15008	9.1045	4.7273	0.	-29.941
15009	9.1964	4.7273	5.e-002	-2.3767e-007
15010	9.1964	4.4545	0.	-34.233
15011	9.1045	4.5455	0.	-34.298
15012	9.1964	4.5455	5.e-002	1.7904e-007
15013	9.1964	4.2727	0.	-37.819
15014	9.1045	4.3636	0.	-38.259
15015	9.1964	4.3636	5.e-002	-3.8703e-007
15016	9.1964	4.0909	0.	-40.984
15017	9.1045	4.1818	0.	-41.794
15018	9.1964	4.1818	5.e-002	1.3062e-007
15019	9.1964	3.9091	0.	-43.704
15020	9.1045	4.	0.	-44.876
15021	9.1964	4.	5.e-002	-3.6982e-007
15022	9.1964	3.7273	0.	-45.959
15023	9.1045	3.8182	0.	-47.481
15024	9.1964	3.8182	5.e-002	8.2987e-008
15025	9.1964	3.5455	0.	-47.731
15026	9.1045	3.6364	0.	-49.59
15027	9.1964	3.6364	5.e-002	5.0985e-007
15028	9.1964	3.3636	0.	-49.007
15029	9.1045	3.4545	0.	-51.187
15030	9.1964	3.4545	5.e-002	5.0927e-007
15031	9.1964	3.1818	0.	-49.776
15032	9.1045	3.2727	0.	-52.258
15033	9.1964	3.2727	5.e-002	2.3145e-008
15034	9.1964	3.	0.	-50.033
15035	9.1045	3.0909	0.	-52.795
15036	9.1964	3.0909	5.e-002	9.6006e-007
15037	9.1964	2.8182	0.	-49.776
15038	9.1045	2.9091	0.	-52.795
15039	9.1964	2.9091	5.e-002	1.9016e-006
15040	9.1964	2.6364	0.	-49.007
15041	9.1045	2.7273	0.	-52.258
15042	9.1964	2.7273	5.e-002	4.6374e-007
15043	9.1964	2.4545	0.	-47.731
15044	9.1045	2.5455	0.	-51.187
15045	9.1964	2.5455	5.e-002	1.4147e-006
15046	9.1964	2.2727	0.	-45.959
15047	9.1045	2.3636	0.	-49.59
15048	9.1964	2.3636	5.e-002	4.4331e-007
15049	9.1964	2.0909	0.	-43.704
15050	9.1045	2.1818	0.	-47.481
15051	9.1964	2.1818	5.e-002	5.0307e-007
15052	9.1964	1.9091	0.	-40.984
15053	9.1045	2.	0.	-44.876
15054	9.1964	2.	5.e-002	1.9435e-006
15055	9.1964	1.7273	0.	-37.819
15056	9.1045	1.8182	0.	-41.794
15057	9.1964	1.8182	5.e-002	4.367e-007
15058	9.1964	1.5455	0.	-34.233
15059	9.1045	1.6364	0.	-38.259
15060	9.1964	1.6364	5.e-002	3.8703e-007
15061	9.1964	1.3636	0.	-30.254
15062	9.1045	1.4545	0.	-34.298
15063	9.1964	1.4545	5.e-002	7.1336e-007
15064	9.1964	1.1818	0.	-25.911
15065	9.1045	1.2727	0.	-29.941
15066	9.1964	1.2727	5.e-002	9.5069e-007
15067	9.1964	1.	0.	-21.237
15068	9.1045	1.0909	0.	-25.222
15069	9.1964	1.0909	5.e-002	1.4254e-006
15070	9.1964	0.81818	0.	-16.267
15071	9.1045	0.90909	0.	-20.174
15072	9.1964	0.90909	5.e-002	1.6623e-006
15073	9.1964	0.63636	0.	-11.037
15074	9.1045	0.72727	0.	-14.837
15075	9.1964	0.72727	5.e-002	1.5359e-006
15076	9.1964	0.45455	0.	-5.5549
15077	9.1045	0.54545	0.	-9.2477
15078	9.1964	0.54545	5.e-002	1.6857e-006
15079	9.1964	0.27273	0.	-9.2722e-002
15080	9.1045	0.36364	0.	-3.3893
15081	9.1964	0.36364	5.e-002	1.8807e-006
15082	9.1045	0.18182	0.	-5.0656e-002
15083	9.1964	0.18182	5.e-002	1.0731e-006
15084	9.1964	9.0909e-002	0.	-1.4749e-002
15085	9.0125	5.7273	0.	-0.61143
15086	8.9205	5.8182	0.	-7.5626e-002
15087	9.0125	5.8182	5.e-002	2.5796e-006
15088	9.0125	5.9091	0.	-2.2025e-002
15089	9.0125	5.5455	0.	-7.0978
15090	8.9205	5.6364	0.	-4.7319
15091	9.0125	5.6364	5.e-002	1.3867e-006
15092	9.0125	5.3636	0.	-13.063
15093	8.9205	5.4545	0.	-11.101
15094	9.0125	5.4545	5.e-002	1.9532e-006
15095	9.0125	5.1818	0.	-18.759
15096	8.9205	5.2727	0.	-17.185
15097	9.0125	5.2727	5.e-002	3.7604e-007
15098	9.0125	5.	0.	-24.173
15099	8.9205	5.0909	0.	-22.997
15100	9.0125	5.0909	5.e-002	7.5628e-007
15101	9.0125	4.8182	0.	-29.265
15102	8.9205	4.9091	0.	-28.495
15103	9.0125	4.9091	5.e-002	2.3738e-007
15104	9.0125	4.6364	0.	-33.998
15105	8.9205	4.7273	0.	-33.637
15106	9.0125	4.7273	5.e-002	1.1612e-007
15107	9.0125	4.4545	0.	-38.336
15108	8.9205	4.5455	0.	-38.384
15109	9.0125	4.5455	5.e-002	2.0641e-007
15110	9.0125	4.2727	0.	-42.246
15111	8.9205	4.3636	0.	-42.701
15112	9.0125	4.3636	5.e-002	3.7375e-007
15113	9.0125	4.0909	0.	-45.697
15114	8.9205	4.1818	0.	-46.554
15115	9.0125	4.1818	5.e-002	-3.2622e-007
15116	9.0125	3.9091	0.	-48.664
15117	8.9205	4.	0.	-49.914
15118	9.0125	4.	5.e-002	1.2143e-007
15119	9.0125	3.7273	0.	-51.124
15120	8.9205	3.8182	0.	-52.756
15121	9.0125	3.8182	5.e-002	1.2401e-007
15122	9.0125	3.5455	0.	-53.057
15123	8.9205	3.6364	0.	-55.055
15124	9.0125	3.6364	5.e-002	6.102e-008
15125	9.0125	3.3636	0.	-54.448
15126	8.9205	3.4545	0.	-56.796
15127	9.0125	3.4545	5.e-002	4.3984e-008
15128	9.0125	3.1818	0.	-55.287
15129	8.9205	3.2727	0.	-57.964
15130	9.0125	3.2727	5.e-002	5.0711e-007
15131	9.0125	3.	0.	-55.568
15132	8.9205	3.0909	0.	-58.551
15133	9.0125	3.0909	5.e-002	4.8615e-007
15134	9.0125	2.8182	0.	-55.287
15135	8.9205	2.9091	0.	-58.551
15136	9.0125	2.9091	5.e-002	1.898e-006
15137	9.0125	2.6364	0.	-54.448
15138	8.9205	2.7273	0.	-57.964
15139	9.0125	2.7273	5.e-002	1.8817e-006
15140	9.0125	2.4545	0.	-53.057
15141	8.9205	2.5455	0.	-56.796
15142	9.0125	2.5455	5.e-002	9.0937e-007
15143	9.0125	2.2727	0.	-51.124
15144	8.9205	2.3636	0.	-55.055
15145	9.0125	2.3636	5.e-002	4.1551e-007
15146	9.0125	2.0909	0.	-48.664
15147	8.9205	2.1818	0.	-52.756
15148	9.0125	2.1818	5.e-002	3.8333e-007
15149	9.0125	1.9091	0.	-45.697
15150	8.9205	2.	0.	-49.914
15151	9.0125	2.	5.e-002	-2.7836e-008
15152	9.0125	1.7273	0.	-42.246
15153	8.9205	1.8182	0.	-46.554
15154	9.0125	1.8182	5.e-002	3.8926e-007
15155	9.0125	1.5455	0.	-38.336
15156	8.9205	1.6364	0.	-42.701
15157	9.0125	1.6364	5.e-002	9.5116e-007
15158	9.0125	1.3636	0.	-33.998
15159	8.9205	1.4545	0.	-38.384
15160	9.0125	1.4545	5.e-002	8.4251e-007
15161	9.0125	1.1818	0.	-29.265
15162	8.9205	1.2727	0.	-33.637
15163	9.0125	1.2727	5.e-002	4.7371e-007
15164	9.0125	1.	0.	-24.173
15165	8.9205	1.0909	0.	-28.495
15166	9.0125	1.0909	5.e-002	1.1869e-006
15167	9.0125	0.81818	0.	-18.759
15168	8.9205	0.90909	0.	-22.997
15169	9.0125	0.90909	5.e-002	1.1863e-006
15170	9.0125	0.63636	0.	-13.063
15171	8.9205	0.72727	0.	-17.185
15172	9.0125	0.72727	5.e-002	9.0796e-007
15173	9.0125	0.45455	0.	-7.0978
15174	8.9205	0.54545	0.	-11.101
15175	9.0125	0.54545	5.e-002	1.3093e-006
15176	9.0125	0.27273	0.	-0.61143
15177	8.9205	0.36364	0.	-4.732
15178	9.0125	0.36364	5.e-002	1.4666e-006
15179	8.9205	0.18182	0.	-7.5625e-002
15180	9.0125	0.18182	5.e-002	-2.8865e-007
15181	9.0125	9.0909e-002	0.	-2.2024e-002
15182	8.8286	5.7273	0.	-1.6687
15183	8.7366	5.8182	0.	-0.12596
15184	8.8286	5.8182	5.e-002	6.5928e-006
15185	8.8286	5.9091	0.	-3.3928e-002
15186	8.8286	5.5455	0.	-8.7508
15187	8.7366	5.6364	0.	-6.1681
15188	8.8286	5.6364	5.e-002	1.1825e-006
15189	8.8286	5.3636	0.	-15.238
15190	8.7366	5.4545	0.	-13.09
15191	8.8286	5.4545	5.e-002	1.6573e-006
15192	8.8286	5.1818	0.	-21.438
15193	8.7366	5.2727	0.	-19.71
15194	8.8286	5.2727	5.e-002	7.1063e-007
15195	8.8286	5.	0.	-27.332
15196	8.7366	5.0909	0.	-26.035
15197	8.8286	5.0909	5.e-002	1.0376e-006
15198	8.8286	4.8182	0.	-32.878
15199	8.7366	4.9091	0.	-32.02
15200	8.8286	4.9091	5.e-002	8.4972e-007
15201	8.8286	4.6364	0.	-38.034
15202	8.7366	4.7273	0.	-37.619
15203	8.8286	4.7273	5.e-002	-6.4808e-008
15204	8.8286	4.4545	0.	-42.76
15205	8.7366	4.5455	0.	-42.79
15206	8.8286	4.5455	5.e-002	2.375e-007
15207	8.8286	4.2727	0.	-47.02
15208	8.7366	4.3636	0.	-47.492
15209	8.8286	4.3636	5.e-002	2.1479e-007
15210	8.8286	4.0909	0.	-50.782
15211	8.7366	4.1818	0.	-51.691
15212	8.8286	4.1818	5.e-002	1.9017e-007
15213	8.8286	3.9091	0.	-54.016
15214	8.7366	4.	0.	-55.352
15215	8.8286	4.	5.e-002	1.2291e-007
15216	8.8286	3.7273	0.	-56.697
15217	8.7366	3.8182	0.	-58.449
15218	8.8286	3.8182	5.e-002	6.8061e-008
15219	8.8286	3.5455	0.	-58.805
15220	8.7366	3.6364	0.	-60.956
15221	8.8286	3.6364	5.e-002	6.6973e-008
15222	8.8286	3.3636	0.	-60.322
15223	8.7366	3.4545	0.	-62.853
15224	8.8286	3.4545	5.e-002	5.2491e-007
15225	8.8286	3.1818	0.	-61.237
15226	8.7366	3.2727	0.	-64.127
15227	8.8286	3.2727	5.e-002	3.6609e-008
15228	8.8286	3.	0.	-61.543
15229	8.7366	3.0909	0.	-64.766
15230	8.8286	3.0909	5.e-002	4.8905e-007
15231	8.8286	2.8182	0.	-61.237
15232	8.7366	2.9091	0.	-64.766
15233	8.8286	2.9091	5.e-002	-1.0184e-008
15234	8.8286	2.6364	0.	-60.322
15235	8.7366	2.7273	0.	-64.127
15236	8.8286	2.7273	5.e-002	9.2604e-007
15237	8.8286	2.4545	0.	-58.805
15238	8.7366	2.5455	0.	-62.853
15239	8.8286	2.5455	5.e-002	9.0501e-007
15240	8.8286	2.2727	0.	-56.697
15241	8.7366	2.3636	0.	-60.956
15242	8.8286	2.3636	5.e-002	8.7255e-007
15243	8.8286	2.0909	0.	-54.016
15244	8.7366	2.1818	0.	-58.449
15245	8.8286	2.1818	5.e-002	3.7414e-007
15246	8.8286	1.9091	0.	-50.782
15247	8.7366	2.	0.	-55.352
15248	8.8286	2.	5.e-002	3.5305e-007
15249	8.8286	1.7273	0.	-47.02
15250	8.7366	1.8182	0.	-51.691
15251	8.8286	1.8182	5.e-002	8.0867e-007
15252	8.8286	1.5455	0.	-42.76
15253	8.7366	1.6364	0.	-47.492
15254	8.8286	1.6364	5.e-002	8.4325e-007
15255	8.8286	1.3636	0.	-38.034
15256	8.7366	1.4545	0.	-42.79
15257	8.8286	1.4545	5.e-002	-1.1581e-015
15258	8.8286	1.1818	0.	-32.878
15259	8.7366	1.2727	0.	-37.619
15260	8.8286	1.2727	5.e-002	1.2301e-006
15261	8.8286	1.	0.	-27.332
15262	8.7366	1.0909	0.	-32.02
15263	8.8286	1.0909	5.e-002	5.7323e-007
15264	8.8286	0.81818	0.	-21.438
15265	8.7366	0.90909	0.	-26.035
15266	8.8286	0.90909	5.e-002	5.0821e-007
15267	8.8286	0.63636	0.	-15.238
15268	8.7366	0.72727	0.	-19.71
15269	8.8286	0.72727	5.e-002	1.1844e-006
15270	8.8286	0.45455	0.	-8.7508
15271	8.7366	0.54545	0.	-13.09
15272	8.8286	0.54545	5.e-002	6.668e-007
15273	8.8286	0.27273	0.	-1.6687
15274	8.7366	0.36364	0.	-6.1681
15275	8.8286	0.36364	5.e-002	1.1961e-006
15276	8.7366	0.18182	0.	-0.12596
15277	8.8286	0.18182	5.e-002	1.3836e-006
15278	8.8286	9.0909e-002	0.	-3.3927e-002
15279	8.6446	5.7273	0.	-2.858
15280	8.5527	5.8182	0.	-0.25592
15281	8.6446	5.8182	5.e-002	6.5866e-006
15282	8.6446	5.9091	0.	-5.4957e-002
15283	8.6446	5.5455	0.	-10.522
15284	8.5527	5.6364	0.	-7.7046
15285	8.6446	5.6364	5.e-002	2.3079e-006
15286	8.6446	5.3636	0.	-17.575
15287	8.5527	5.4545	0.	-15.225
15288	8.6446	5.4545	5.e-002	2.0657e-006
15289	8.6446	5.1818	0.	-24.32
15290	8.5527	5.2727	0.	-22.424
15291	8.6446	5.2727	5.e-002	8.7754e-007
15292	8.6446	5.	0.	-30.735
15293	8.5527	5.0909	0.	-29.306
15294	8.6446	5.0909	5.e-002	1.7982e-006
15295	8.6446	4.8182	0.	-36.772
15296	8.5527	4.9091	0.	-35.818
15297	8.6446	4.9091	5.e-002	6.2541e-007
15298	8.6446	4.6364	0.	-42.385
15299	8.5527	4.7273	0.	-41.912
15300	8.6446	4.7273	5.e-002	1.4148e-007
15301	8.6446	4.4545	0.	-47.532
15302	8.5527	4.5455	0.	-47.542
15303	8.6446	4.5455	5.e-002	9.4921e-007
15304	8.6446	4.2727	0.	-52.173
15305	8.5527	4.3636	0.	-52.663
15306	8.6446	4.3636	5.e-002	1.1766e-007
15307	8.6446	4.0909	0.	-56.271
15308	8.5527	4.1818	0.	-57.235
15309	8.6446	4.1818	5.e-002	-3.7125e-007
15310	8.6446	3.9091	0.	-59.794
15311	8.5527	4.	0.	-61.224
15312	8.6446	4.	5.e-002	1.7948e-007
15313	8.6446	3.7273	0.	-62.716
15314	8.5527	3.8182	0.	-64.598
15315	8.6446	3.8182	5.e-002	7.4536e-008
15316	8.6446	3.5455	0.	-65.013
15317	8.5527	3.6364	0.	-67.329
15318	8.6446	3.6364	5.e-002	5.933e-007
15319	8.6446	3.3636	0.	-66.667
15320	8.5527	3.4545	0.	-69.397
15321	8.6446	3.4545	5.e-002	5.4003e-007
15322	8.6446	3.1818	0.	-67.665
15323	8.5527	3.2727	0.	-70.785
15324	8.6446	3.2727	5.e-002	3.5094e-008
15325	8.6446	3.	0.	-67.998
15326	8.5527	3.0909	0.	-71.482
15327	8.6446	3.0909	5.e-002	1.2877e-008
15328	8.6446	2.8182	0.	-67.665
15329	8.5527	2.9091	0.	-71.482
15330	8.6446	2.9091	5.e-002	-1.1922e-008
15331	8.6446	2.6364	0.	-66.667
15332	8.5527	2.7273	0.	-70.785
15333	8.6446	2.7273	5.e-002	1.8719e-006
15334	8.6446	2.4545	0.	-65.013
15335	8.5527	2.5455	0.	-69.397
15336	8.6446	2.5455	5.e-002	8.7921e-007
15337	8.6446	2.2727	0.	-62.716
15338	8.5527	2.3636	0.	-67.329
15339	8.6446	2.3636	5.e-002	-7.3771e-008
15340	8.6446	2.0909	0.	-59.795
15341	8.5527	2.1818	0.	-64.598
15342	8.6446	2.1818	5.e-002	8.4041e-007
15343	8.6446	1.9091	0.	-56.271
15344	8.5527	2.	0.	-61.224
15345	8.6446	2.	5.e-002	3.8604e-007
15346	8.6446	1.7273	0.	-52.173
15347	8.5527	1.8182	0.	-57.235
15348	8.6446	1.8182	5.e-002	8.4666e-007
15349	8.6446	1.5455	0.	-47.532
15350	8.5527	1.6364	0.	-52.663
15351	8.6446	1.6364	5.e-002	1.3074e-006
15352	8.6446	1.3636	0.	-42.385
15353	8.5527	1.4545	0.	-47.542
15354	8.6446	1.4545	5.e-002	1.1636e-006
15355	8.6446	1.1818	0.	-36.772
15356	8.5527	1.2727	0.	-41.912
15357	8.6446	1.2727	5.e-002	1.4226e-006
15358	8.6446	1.	0.	-30.735
15359	8.5527	1.0909	0.	-35.818
15360	8.6446	1.0909	5.e-002	1.592e-006
15361	8.6446	0.81818	0.	-24.32
15362	8.5527	0.90909	0.	-29.306
15363	8.6446	0.90909	5.e-002	1.4773e-006
15364	8.6446	0.63636	0.	-17.575
15365	8.5527	0.72727	0.	-22.424
15366	8.6446	0.72727	5.e-002	1.1828e-006
15367	8.6446	0.45455	0.	-10.522
15368	8.5527	0.54545	0.	-15.225
15369	8.6446	0.54545	5.e-002	1.1258e-006
15370	8.6446	0.27273	0.	-2.858
15371	8.5527	0.36364	0.	-7.7046
15372	8.6446	0.36364	5.e-002	1.4776e-006
15373	8.5527	0.18182	0.	-0.25592
15374	8.6446	0.18182	5.e-002	-4.4486e-007
15375	8.6446	9.0909e-002	0.	-5.4956e-002
15376	8.4607	5.7273	0.	-4.138
15377	8.3687	5.8182	0.	-0.66544
15378	8.4607	5.8182	5.e-002	9.7927e-007
15379	8.4607	5.9091	0.	-9.7032e-002
15380	8.4607	5.5455	0.	-12.421
15381	8.3687	5.6364	0.	-9.3487
15382	8.4607	5.6364	5.e-002	1.4703e-006
15383	8.4607	5.3636	0.	-20.087
15384	8.3687	5.4545	0.	-17.517
15385	8.4607	5.4545	5.e-002	1.416e-006
15386	8.4607	5.1818	0.	-27.422
15387	8.3687	5.2727	0.	-25.343
15388	8.4607	5.2727	5.e-002	1.7007e-006
15389	8.4607	5.	0.	-34.4
15390	8.3687	5.0909	0.	-32.827
15391	8.4607	5.0909	5.e-002	1.9398e-006
15392	8.4607	4.8182	0.	-40.969
15393	8.3687	4.9091	0.	-39.912
15394	8.4607	4.9091	5.e-002	6.3905e-007
15395	8.4607	4.6364	0.	-47.079
15396	8.3687	4.7273	0.	-46.543
15397	8.4607	4.7273	5.e-002	-7.8677e-016
15398	8.4607	4.4545	0.	-52.682
15399	8.3687	4.5455	0.	-52.67
15400	8.4607	4.5455	5.e-002	3.1307e-007
15401	8.4607	4.2727	0.	-57.735
15402	8.3687	4.3636	0.	-58.244
15403	8.4607	4.3636	5.e-002	1.2862e-007
15404	8.4607	4.0909	0.	-62.198
15405	8.3687	4.1818	0.	-63.223
15406	8.4607	4.1818	5.e-002	2.2297e-007
15407	8.4607	3.9091	0.	-66.036
15408	8.3687	4.	0.	-67.567
15409	8.4607	4.	5.e-002	1.4713e-007
15410	8.4607	3.7273	0.	-69.219
15411	8.3687	3.8182	0.	-71.241
15412	8.4607	3.8182	5.e-002	4.073e-008
15413	8.4607	3.5455	0.	-71.721
15414	8.3687	3.6364	0.	-74.217
15415	8.4607	3.6364	5.e-002	1.6524e-007
15416	8.4607	3.3636	0.	-73.523
15417	8.3687	3.4545	0.	-76.47
15418	8.4607	3.4545	5.e-002	1.0583e-006
15419	8.4607	3.1818	0.	-74.61
15420	8.3687	3.2727	0.	-77.982
15421	8.4607	3.2727	5.e-002	4.1839e-008
15422	8.4607	3.	0.	-74.974
15423	8.3687	3.0909	0.	-78.741
15424	8.4607	3.0909	5.e-002	9.6706e-007
15425	8.4607	2.8182	0.	-74.61
15426	8.3687	2.9091	0.	-78.741
15427	8.4607	2.9091	5.e-002	9.3966e-007
15428	8.4607	2.6364	0.	-73.523
15429	8.3687	2.7273	0.	-77.982
15430	8.4607	2.7273	5.e-002	-3.8352e-008
15431	8.4607	2.4545	0.	-71.721
15432	8.3687	2.5455	0.	-76.47
15433	8.4607	2.5455	5.e-002	-6.2946e-008
15434	8.4607	2.2727	0.	-69.219
15435	8.3687	2.3636	0.	-74.217
15436	8.4607	2.3636	5.e-002	-4.5622e-008
15437	8.4607	2.0909	0.	-66.036
15438	8.3687	2.1818	0.	-71.241
15439	8.4607	2.1818	5.e-002	7.8901e-007
15440	8.4607	1.9091	0.	-62.198
15441	8.3687	2.	0.	-67.567
15442	8.4607	2.	5.e-002	1.7552e-006
15443	8.4607	1.7273	0.	-57.735
15444	8.3687	1.8182	0.	-63.223
15445	8.4607	1.8182	5.e-002	7.7949e-007
15446	8.4607	1.5455	0.	-52.682
15447	8.3687	1.6364	0.	-58.245
15448	8.4607	1.6364	5.e-002	8.8501e-007
15449	8.4607	1.3636	0.	-47.079
15450	8.3687	1.4545	0.	-52.67
15451	8.4607	1.4545	5.e-002	6.4495e-007
15452	8.4607	1.1818	0.	-40.969
15453	8.3687	1.2727	0.	-46.543
15454	8.4607	1.2727	5.e-002	6.3791e-007
15455	8.4607	1.	0.	-34.4
15456	8.3687	1.0909	0.	-39.912
15457	8.4607	1.0909	5.e-002	3.0736e-007
15458	8.4607	0.81818	0.	-27.422
15459	8.3687	0.90909	0.	-32.827
15460	8.4607	0.90909	5.e-002	2.0006e-006
15461	8.4607	0.63636	0.	-20.087
15462	8.3687	0.72727	0.	-25.343
15463	8.4607	0.72727	5.e-002	8.632e-007
15464	8.4607	0.45455	0.	-12.421
15465	8.3687	0.54545	0.	-17.517
15466	8.4607	0.54545	5.e-002	6.0659e-007
15467	8.4607	0.27273	0.	-4.138
15468	8.3687	0.36364	0.	-9.3487
15469	8.4607	0.36364	5.e-002	9.4253e-007
15470	8.3687	0.18182	0.	-0.66545
15471	8.4607	0.18182	5.e-002	8.079e-007
15472	8.4607	9.0909e-002	0.	-9.7032e-002
15473	8.2768	5.7273	0.	-5.5072
15474	8.1848	5.8182	0.	-1.5064
15475	8.2768	5.8182	5.e-002	7.101e-007
15476	8.2768	5.9091	0.	-0.19826
15477	8.2768	5.5455	0.	-14.457
15478	8.1848	5.6364	0.	-11.108
15479	8.2768	5.6364	5.e-002	1.6015e-006
15480	8.2768	5.3636	0.	-22.786
15481	8.1848	5.4545	0.	-19.977
15482	8.2768	5.4545	5.e-002	1.8575e-006
15483	8.2768	5.1818	0.	-30.76
15484	8.1848	5.2727	0.	-28.484
15485	8.2768	5.2727	5.e-002	1.2499e-006
15486	8.2768	5.	0.	-38.35
15487	8.1848	5.0909	0.	-36.621
15488	8.2768	5.0909	5.e-002	6.2277e-007
15489	8.2768	4.8182	0.	-45.496
15490	8.1848	4.9091	0.	-44.325
15491	8.2768	4.9091	5.e-002	9.3093e-007
15492	8.2768	4.6364	0.	-52.143
15493	8.1848	4.7273	0.	-51.539
15494	8.2768	4.7273	5.e-002	-6.3157e-008
15495	8.2768	4.4545	0.	-58.241
15496	8.1848	4.5455	0.	-58.205
15497	8.2768	4.5455	5.e-002	9.4731e-007
15498	8.2768	4.2727	0.	-63.741
15499	8.1848	4.3636	0.	-64.272
15500	8.2768	4.3636	5.e-002	-3.3391e-007
15501	8.2768	4.0909	0.	-68.6
15502	8.1848	4.1818	0.	-69.692
15503	8.2768	4.1818	5.e-002	1.6347e-007
15504	8.2768	3.9091	0.	-72.78
15505	8.1848	4.	0.	-74.421
15506	8.2768	4.	5.e-002	1.07e-007
15507	8.2768	3.7273	0.	-76.247
15508	8.1848	3.8182	0.	-78.422
15509	8.2768	3.8182	5.e-002	1.333e-007
15510	8.2768	3.5455	0.	-78.972
15511	8.1848	3.6364	0.	-81.663
15512	8.2768	3.6364	5.e-002	8.7436e-008
15513	8.2768	3.3636	0.	-80.935
15514	8.1848	3.4545	0.	-84.116
15515	8.2768	3.4545	5.e-002	1.9564e-006
15516	8.2768	3.1818	0.	-82.119
15517	8.1848	3.2727	0.	-85.763
15518	8.2768	3.2727	5.e-002	5.325e-008
15519	8.2768	3.	0.	-82.515
15520	8.1848	3.0909	0.	-86.59
15521	8.2768	3.0909	5.e-002	9.6977e-007
15522	8.2768	2.8182	0.	-82.119
15523	8.1848	2.9091	0.	-86.59
15524	8.2768	2.9091	5.e-002	-1.4391e-008
15525	8.2768	2.6364	0.	-80.935
15526	8.1848	2.7273	0.	-85.763
15527	8.2768	2.7273	5.e-002	1.8612e-006
15528	8.2768	2.4545	0.	-78.972
15529	8.1848	2.5455	0.	-84.116
15530	8.2768	2.5455	5.e-002	-1.0083e-007
15531	8.2768	2.2727	0.	-76.247
15532	8.1848	2.3636	0.	-81.663
15533	8.2768	2.3636	5.e-002	1.7999e-006
15534	8.2768	2.0909	0.	-72.78
15535	8.1848	2.1818	0.	-78.422
15536	8.2768	2.1818	5.e-002	-1.333e-007
15537	8.2768	1.9091	0.	-68.6
15538	8.1848	2.	0.	-74.421
15539	8.2768	2.	5.e-002	7.9016e-007
15540	8.2768	1.7273	0.	-63.741
15541	8.1848	1.8182	0.	-69.692
15542	8.2768	1.8182	5.e-002	8.3117e-007
15543	8.2768	1.5455	0.	-58.241
15544	8.1848	1.6364	0.	-64.272
15545	8.2768	1.6364	5.e-002	1.9359e-007
15546	8.2768	1.3636	0.	-52.143
15547	8.1848	1.4545	0.	-58.205
15548	8.2768	1.4545	5.e-002	6.3681e-007
15549	8.2768	1.1818	0.	-45.496
15550	8.1848	1.2727	0.	-51.539
15551	8.2768	1.2727	5.e-002	1.3226e-006
15552	8.2768	1.	0.	-38.35
15553	8.1848	1.0909	0.	-44.325
15554	8.2768	1.0909	5.e-002	1.3329e-006
15555	8.2768	0.81818	0.	-30.76
15556	8.1848	0.90909	0.	-36.621
15557	8.2768	0.90909	5.e-002	1.375e-006
15558	8.2768	0.63636	0.	-22.786
15559	8.1848	0.72727	0.	-28.484
15560	8.2768	0.72727	5.e-002	7.7721e-007
15561	8.2768	0.45455	0.	-14.457
15562	8.1848	0.54545	0.	-19.977
15563	8.2768	0.54545	5.e-002	9.421e-007
15564	8.2768	0.27273	0.	-5.5072
15565	8.1848	0.36364	0.	-11.108
15566	8.2768	0.36364	5.e-002	1.293e-006
15567	8.1848	0.18182	0.	-1.5065
15568	8.2768	0.18182	5.e-002	1.0529e-006
15569	8.2768	9.0909e-002	0.	-0.19826
15570	8.0929	5.7273	0.	-6.9691
15571	8.0009	5.8182	0.	-2.5708
15572	8.0929	5.8182	5.e-002	6.3176e-006
15573	8.0929	5.9091	0.	-0.46775
15574	8.0929	5.5455	0.	-16.64
15575	8.0009	5.6364	0.	-12.991
15576	8.0929	5.6364	5.e-002	1.0551e-006
15577	8.0929	5.3636	0.	-25.687
15578	8.0009	5.4545	0.	-22.619
15579	8.0929	5.4545	5.e-002	1.6162e-006
15580	8.0929	5.1818	0.	-34.355
15581	8.0009	5.2727	0.	-31.863
15582	8.0929	5.2727	5.e-002	4.0704e-007
15583	8.0929	5.	0.	-42.606
15584	8.0009	5.0909	0.	-40.707
15585	8.0929	5.0909	5.e-002	9.421e-007
15586	8.0929	4.8182	0.	-50.377
15587	8.0009	4.9091	0.	-49.084
15588	8.0929	4.9091	5.e-002	6.6887e-007
15589	8.0929	4.6364	0.	-57.609
15590	8.0009	4.7273	0.	-56.929
15591	8.0929	4.7273	5.e-002	-1.8597e-007
15592	8.0929	4.4545	0.	-64.244
15593	8.0009	4.5455	0.	-64.181
15594	8.0929	4.5455	5.e-002	2.5362e-007
15595	8.0929	4.2727	0.	-70.23
15596	8.0009	4.3636	0.	-70.783
15597	8.0929	4.3636	5.e-002	-5.2109e-007
15598	8.0929	4.0909	0.	-75.519
15599	8.0009	4.1818	0.	-76.681
15600	8.0929	4.1818	5.e-002	1.3526e-007
15601	8.0929	3.9091	0.	-80.07
15602	8.0009	4.	0.	-81.829
15603	8.0929	4.	5.e-002	1.1653e-007
15604	8.0929	3.7273	0.	-83.844
15605	8.0009	3.8182	0.	-86.185
15606	8.0929	3.8182	5.e-002	1.4517e-007
15607	8.0929	3.5455	0.	-86.813
15608	8.0009	3.6364	0.	-89.714
15609	8.0929	3.6364	5.e-002	1.0474e-006
15610	8.0929	3.3636	0.	-88.951
15611	8.0009	3.4545	0.	-92.386
15612	8.0929	3.4545	5.e-002	6.8636e-008
15613	8.0929	3.1818	0.	-90.24
15614	8.0009	3.2727	0.	-94.18
15615	8.0929	3.2727	5.e-002	4.5572e-008
15616	8.0929	3.	0.	-90.672
15617	8.0009	3.0909	0.	-95.081
15618	8.0929	3.0909	5.e-002	9.7026e-007
15619	8.0929	2.8182	0.	-90.24
15620	8.0009	2.9091	0.	-95.081
15621	8.0929	2.9091	5.e-002	9.3702e-007
15622	8.0929	2.6364	0.	-88.951
15623	8.0009	2.7273	0.	-94.18
15624	8.0929	2.7273	5.e-002	-4.5572e-008
15625	8.0929	2.4545	0.	-86.813
15626	8.0009	2.5455	0.	-92.386
15627	8.0929	2.5455	5.e-002	-8.2363e-008
15628	8.0929	2.2727	0.	-83.844
15629	8.0009	2.3636	0.	-89.714
15630	8.0929	2.3636	5.e-002	-9.523e-008
15631	8.0929	2.0909	0.	-80.07
15632	8.0009	2.1818	0.	-86.185
15633	8.0929	2.1818	5.e-002	8.0604e-007
15634	8.0929	1.9091	0.	-75.519
15635	8.0009	2.	0.	-81.829
15636	8.0929	2.	5.e-002	-5.8265e-008
15637	8.0929	1.7273	0.	-70.23
15638	8.0009	1.8182	0.	-76.681
15639	8.0929	1.8182	5.e-002	7.4596e-007
15640	8.0929	1.5455	0.	-64.244
15641	8.0009	1.6364	0.	-70.783
15642	8.0929	1.6364	5.e-002	8.711e-007
15643	8.0929	1.3636	0.	-57.609
15644	8.0009	1.4545	0.	-64.181
15645	8.0929	1.4545	5.e-002	1.2501e-006
15646	8.0929	1.1818	0.	-50.377
15647	8.0009	1.2727	0.	-56.929
15648	8.0929	1.2727	5.e-002	1.2332e-006
15649	8.0929	1.	0.	-42.606
15650	8.0009	1.0909	0.	-49.084
15651	8.0929	1.0909	5.e-002	4.7168e-007
15652	8.0929	0.81818	0.	-34.355
15653	8.0009	0.90909	0.	-40.707
15654	8.0929	0.90909	5.e-002	2.6221e-007
15655	8.0929	0.63636	0.	-25.687
15656	8.0009	0.72727	0.	-31.863
15657	8.0929	0.72727	5.e-002	1.1128e-006
15658	8.0929	0.45455	0.	-16.64
15659	8.0009	0.54545	0.	-22.619
15660	8.0929	0.54545	5.e-002	1.3812e-006
15661	8.0929	0.27273	0.	-6.9691
15662	8.0009	0.36364	0.	-12.991
15663	8.0929	0.36364	5.e-002	9.2862e-007
15664	8.0009	0.18182	0.	-2.5708
15665	8.0929	0.18182	5.e-002	9.3077e-007
15666	8.0929	9.0909e-002	0.	-0.46775
15667	7.9089	5.7273	0.	-8.5287
15668	7.817	5.8182	0.	-3.7486
15669	7.9089	5.8182	5.e-002	9.0664e-007
15670	7.9089	5.9091	0.	-0.97978
15671	7.9089	5.5455	0.	-18.981
15672	7.817	5.6364	0.	-15.005
15673	7.9089	5.6364	5.e-002	1.5345e-006
15674	7.9089	5.3636	0.	-28.806
15675	7.817	5.4545	0.	-25.457
15676	7.9089	5.4545	5.e-002	1.9297e-006
15677	7.9089	5.1818	0.	-38.225
15678	7.817	5.2727	0.	-35.498
15679	7.9089	5.2727	5.e-002	9.3859e-007
15680	7.9089	5.	0.	-47.194
15681	7.817	5.0909	0.	-45.109
15682	7.9089	5.0909	5.e-002	6.9708e-007
15683	7.9089	4.8182	0.	-55.644
15684	7.817	4.9091	0.	-54.216
15685	7.9089	4.9091	5.e-002	-1.2128e-015
15686	7.9089	4.6364	0.	-63.509
15687	7.817	4.7273	0.	-62.746
15688	7.9089	4.7273	5.e-002	-1.9195e-015
15689	7.9089	4.4545	0.	-70.727
15690	7.817	4.5455	0.	-70.634
15691	7.9089	4.5455	5.e-002	9.1909e-008
15692	7.9089	4.2727	0.	-77.24
15693	7.817	4.3636	0.	-77.816
15694	7.9089	4.3636	5.e-002	2.4923e-007
15695	7.9089	4.0909	0.	-82.997
15696	7.817	4.1818	0.	-84.235
15697	7.9089	4.1818	5.e-002	-1.6018e-006
15698	7.9089	3.9091	0.	-87.951
15699	7.817	4.	0.	-89.839
15700	7.9089	4.	5.e-002	3.2536e-007
15701	7.9089	3.7273	0.	-92.061
15702	7.817	3.8182	0.	-94.581
15703	7.9089	3.8182	5.e-002	1.3156e-007
15704	7.9089	3.5455	0.	-95.293
15705	7.817	3.6364	0.	-98.423
15706	7.9089	3.6364	5.e-002	2.0269e-007
15707	7.9089	3.3636	0.	-97.621
15708	7.817	3.4545	0.	-101.33
15709	7.9089	3.4545	5.e-002	1.9951e-006
15710	7.9089	3.1818	0.	-99.026
15711	7.817	3.2727	0.	-103.29
15712	7.9089	3.2727	5.e-002	7.8497e-008
15713	7.9089	3.	0.	-99.495
15714	7.817	3.0909	0.	-104.27
15715	7.9089	3.0909	5.e-002	9.736e-007
15716	7.9089	2.8182	0.	-99.026
15717	7.817	2.9091	0.	-104.27
15718	7.9089	2.9091	5.e-002	9.3367e-007
15719	7.9089	2.6364	0.	-97.621
15720	7.817	2.7273	0.	-103.29
15721	7.9089	2.7273	5.e-002	-4.3168e-008
15722	7.9089	2.4545	0.	-95.293
15723	7.817	2.5455	0.	-101.33
15724	7.9089	2.5455	5.e-002	8.4076e-007
15725	7.9089	2.2727	0.	-92.061
15726	7.817	2.3636	0.	-98.423
15727	7.9089	2.3636	5.e-002	-6.6586e-008
15728	7.9089	2.0909	0.	-87.951
15729	7.817	2.1818	0.	-94.581
15730	7.9089	2.1818	5.e-002	-1.5787e-007
15731	7.9089	1.9091	0.	-82.997
15732	7.817	2.	0.	-89.839
15733	7.9089	2.	5.e-002	7.1931e-008
15734	7.9089	1.7273	0.	-77.24
15735	7.817	1.8182	0.	-84.235
15736	7.9089	1.8182	5.e-002	-1.4707e-007
15737	7.9089	1.5455	0.	-70.727
15738	7.817	1.6364	0.	-77.816
15739	7.9089	1.6364	5.e-002	6.9715e-007
15740	7.9089	1.3636	0.	-63.509
15741	7.817	1.4545	0.	-70.634
15742	7.9089	1.4545	5.e-002	1.6137e-006
15743	7.9089	1.1818	0.	-55.644
15744	7.817	1.2727	0.	-62.746
15745	7.9089	1.2727	5.e-002	7.4314e-007
15746	7.9089	1.	0.	-47.194
15747	7.817	1.0909	0.	-54.216
15748	7.9089	1.0909	5.e-002	4.7073e-007
15749	7.9089	0.81818	0.	-38.225
15750	7.817	0.90909	0.	-45.109
15751	7.9089	0.90909	5.e-002	2.4288e-007
15752	7.9089	0.63636	0.	-28.806
15753	7.817	0.72727	0.	-35.498
15754	7.9089	0.72727	5.e-002	1.1699e-006
15755	7.9089	0.45455	0.	-18.981
15756	7.817	0.54545	0.	-25.457
15757	7.9089	0.54545	5.e-002	9.2393e-007
15758	7.9089	0.27273	0.	-8.5287
15759	7.817	0.36364	0.	-15.005
15760	7.9089	0.36364	5.e-002	8.5726e-007
15761	7.817	0.18182	0.	-3.7486
15762	7.9089	0.18182	5.e-002	9.3115e-007
15763	7.9089	9.0909e-002	0.	-0.97979
15764	7.725	5.7273	0.	-10.191
15765	7.633	5.8182	0.	-5.0143
15766	7.725	5.8182	5.e-002	7.3547e-007
15767	7.725	5.9091	0.	-1.6363
15768	7.725	5.5455	0.	-21.491
15769	7.633	5.6364	0.	-17.16
15770	7.725	5.6364	5.e-002	1.9254e-006
15771	7.725	5.3636	0.	-32.158
15772	7.633	5.4545	0.	-28.503
15773	7.725	5.4545	5.e-002	1.9393e-006
15774	7.725	5.1818	0.	-42.391
15775	7.633	5.2727	0.	-39.409
15776	7.725	5.2727	5.e-002	1.1409e-006
15777	7.725	5.	0.	-52.139
15778	7.633	5.0909	0.	-49.852
15779	7.725	5.0909	5.e-002	9.6171e-007
15780	7.725	4.8182	0.	-61.325
15781	7.633	4.9091	0.	-59.75
15782	7.725	4.9091	5.e-002	1.155e-006
15783	7.725	4.6364	0.	-69.878
15784	7.633	4.7273	0.	-69.025
15785	7.725	4.7273	5.e-002	6.1727e-007
15786	7.725	4.4545	0.	-77.729
15787	7.633	4.5455	0.	-77.603
15788	7.725	4.5455	5.e-002	5.3719e-007
15789	7.725	4.2727	0.	-84.816
15790	7.633	4.3636	0.	-85.416
15791	7.725	4.3636	5.e-002	9.0182e-008
15792	7.725	4.0909	0.	-91.081
15793	7.633	4.1818	0.	-92.401
15794	7.725	4.1818	5.e-002	-4.1223e-007
15795	7.725	3.9091	0.	-96.473
15796	7.633	4.	0.	-98.499
15797	7.725	4.	5.e-002	2.0638e-007
15798	7.725	3.7273	0.	-100.95
15799	7.633	3.8182	0.	-103.66
15800	7.725	3.8182	5.e-002	4.1999e-007
15801	7.725	3.5455	0.	-104.47
15802	7.633	3.6364	0.	-107.84
15803	7.725	3.6364	5.e-002	1.8057e-007
15804	7.725	3.3636	0.	-107.
15805	7.633	3.4545	0.	-111.01
15806	7.725	3.4545	5.e-002	1.0541e-007
15807	7.725	3.1818	0.	-108.53
15808	7.633	3.2727	0.	-113.14
15809	7.725	3.2727	5.e-002	6.3634e-008
15810	7.725	3.	0.	-109.04
15811	7.633	3.0909	0.	-114.21
15812	7.725	3.0909	5.e-002	2.2913e-008
15813	7.725	2.8182	0.	-108.53
15814	7.633	2.9091	0.	-114.21
15815	7.725	2.9091	5.e-002	-2.2913e-008
15816	7.725	2.6364	0.	-107.
15817	7.633	2.7273	0.	-113.14
15818	7.725	2.7273	5.e-002	-7.3424e-008
15819	7.725	2.4545	0.	-104.47
15820	7.633	2.5455	0.	-111.01
15821	7.725	2.5455	5.e-002	-1.0541e-007
15822	7.725	2.2727	0.	-100.95
15823	7.633	2.3636	0.	-107.84
15824	7.725	2.3636	5.e-002	-6.6901e-008
15825	7.725	2.0909	0.	-96.473
15826	7.633	2.1818	0.	-103.66
15827	7.725	2.1818	5.e-002	8.8878e-007
15828	7.725	1.9091	0.	-91.081
15829	7.633	2.	0.	-98.499
15830	7.725	2.	5.e-002	-2.7517e-007
15831	7.725	1.7273	0.	-84.816
15832	7.633	1.8182	0.	-92.401
15833	7.725	1.8182	5.e-002	-1.5967e-007
15834	7.725	1.5455	0.	-77.729
15835	7.633	1.6364	0.	-85.416
15836	7.725	1.6364	5.e-002	-2.7055e-007
15837	7.725	1.3636	0.	-69.878
15838	7.633	1.4545	0.	-77.603
15839	7.725	1.4545	5.e-002	5.4408e-007
15840	7.725	1.1818	0.	-61.325
15841	7.633	1.2727	0.	-69.025
15842	7.725	1.2727	5.e-002	6.5385e-007
15843	7.725	1.	0.	-52.139
15844	7.633	1.0909	0.	-59.75
15845	7.725	1.0909	5.e-002	4.6542e-007
15846	7.725	0.81818	0.	-42.391
15847	7.633	0.90909	0.	-49.853
15848	7.725	0.90909	5.e-002	-7.3946e-007
15849	7.725	0.63636	0.	-32.158
15850	7.633	0.72727	0.	-39.409
15851	7.725	0.72727	5.e-002	1.5063e-006
15852	7.725	0.45455	0.	-21.491
15853	7.633	0.54545	0.	-28.503
15854	7.725	0.54545	5.e-002	4.3183e-007
15855	7.725	0.27273	0.	-10.191
15856	7.633	0.36364	0.	-17.16
15857	7.725	0.36364	5.e-002	1.4056e-006
15858	7.633	0.18182	0.	-5.0143
15859	7.725	0.18182	5.e-002	8.3353e-007
15860	7.725	9.0909e-002	0.	-1.6363
15861	7.5411	5.7273	0.	-11.963
15862	7.4491	5.8182	0.	-6.3621
15863	7.5411	5.8182	5.e-002	7.849e-007
15864	7.5411	5.9091	0.	-2.3693
15865	7.5411	5.5455	0.	-24.181
15866	7.4491	5.6364	0.	-19.464
15867	7.5411	5.6364	5.e-002	3.7288e-006
15868	7.5411	5.3636	0.	-35.762
15869	7.4491	5.4545	0.	-31.773
15870	7.5411	5.4545	5.e-002	1.629e-006
15871	7.5411	5.1818	0.	-46.878
15872	7.4491	5.2727	0.	-43.617
15873	7.5411	5.2727	5.e-002	1.4182e-006
15874	7.5411	5.	0.	-57.47
15875	7.4491	5.0909	0.	-54.962
15876	7.5411	5.0909	5.e-002	1.6119e-006
15877	7.5411	4.8182	0.	-67.455
15878	7.4491	4.9091	0.	-65.719
15879	7.5411	4.9091	5.e-002	-2.923e-015
15880	7.5411	4.6364	0.	-76.755
15881	7.4491	4.7273	0.	-75.801
15882	7.5411	4.7273	5.e-002	3.5271e-007
15883	7.5411	4.4545	0.	-85.294
15884	7.4491	4.5455	0.	-85.13
15885	7.5411	4.5455	5.e-002	9.029e-007
15886	7.5411	4.2727	0.	-93.005
15887	7.4491	4.3636	0.	-93.629
15888	7.5411	4.3636	5.e-002	1.9551e-007
15889	7.5411	4.0909	0.	-99.822
15890	7.4491	4.1818	0.	-101.23
15891	7.5411	4.1818	5.e-002	5.1314e-007
15892	7.5411	3.9091	0.	-105.69
15893	7.4491	4.	0.	-107.87
15894	7.5411	4.	5.e-002	4.8628e-007
15895	7.5411	3.7273	0.	-110.56
15896	7.4491	3.8182	0.	-113.49
15897	7.5411	3.8182	5.e-002	2.4793e-007
15898	7.5411	3.5455	0.	-114.39
15899	7.4491	3.6364	0.	-118.04
15900	7.5411	3.6364	5.e-002	3.3112e-007
15901	7.5411	3.3636	0.	-117.16
15902	7.4491	3.4545	0.	-121.49
15903	7.5411	3.4545	5.e-002	1.1436e-007
15904	7.5411	3.1818	0.	-118.82
15905	7.4491	3.2727	0.	-123.81
15906	7.5411	3.2727	5.e-002	7.4355e-008
15907	7.5411	3.	0.	-119.38
15908	7.4491	3.0909	0.	-124.97
15909	7.5411	3.0909	5.e-002	9.7804e-007
15910	7.5411	2.8182	0.	-118.82
15911	7.4491	2.9091	0.	-124.97
15912	7.5411	2.9091	5.e-002	9.2832e-007
15913	7.5411	2.6364	0.	-117.16
15914	7.4491	2.7273	0.	-123.81
15915	7.5411	2.7273	5.e-002	8.7619e-007
15916	7.5411	2.4545	0.	-114.39
15917	7.4491	2.5455	0.	-121.49
15918	7.5411	2.5455	5.e-002	8.2921e-007
15919	7.5411	2.2727	0.	-110.56
15920	7.4491	2.3636	0.	-118.04
15921	7.5411	2.3636	5.e-002	-9.0683e-008
15922	7.5411	2.0909	0.	-105.69
15923	7.4491	2.1818	0.	-113.49
15924	7.5411	2.1818	5.e-002	7.9467e-007
15925	7.5411	1.9091	0.	-99.822
15926	7.4491	2.	0.	-107.87
15927	7.5411	2.	5.e-002	-7.3209e-008
15928	7.5411	1.7273	0.	-93.005
15929	7.4491	1.8182	0.	-101.23
15930	7.5411	1.8182	5.e-002	-6.1817e-009
15931	7.5411	1.5455	0.	-85.294
15932	7.4491	1.6364	0.	-93.629
15933	7.5411	1.6364	5.e-002	-2.9326e-007
15934	7.5411	1.3636	0.	-76.755
15935	7.4491	1.4545	0.	-85.13
15936	7.5411	1.4545	5.e-002	1.8116e-007
15937	7.5411	1.1818	0.	-67.455
15938	7.4491	1.2727	0.	-75.801
15939	7.5411	1.2727	5.e-002	-3.5271e-007
15940	7.5411	1.	0.	-57.47
15941	7.4491	1.0909	0.	-65.719
15942	7.5411	1.0909	5.e-002	-2.5212e-007
15943	7.5411	0.81818	0.	-46.878
15944	7.4491	0.90909	0.	-54.962
15945	7.5411	0.90909	5.e-002	1.0778e-006
15946	7.5411	0.63636	0.	-35.762
15947	7.4491	0.72727	0.	-43.617
15948	7.5411	0.72727	5.e-002	1.399e-006
15949	7.5411	0.45455	0.	-24.181
15950	7.4491	0.54545	0.	-31.773
15951	7.5411	0.54545	5.e-002	1.1636e-006
15952	7.5411	0.27273	0.	-11.963
15953	7.4491	0.36364	0.	-19.464
15954	7.5411	0.36364	5.e-002	1.4477e-006
15955	7.4491	0.18182	0.	-6.3621
15956	7.5411	0.18182	5.e-002	7.849e-007
15957	7.5411	9.0909e-002	0.	-2.3693
15958	7.3571	5.7273	0.	-13.85
15959	7.2652	5.8182	0.	-7.7911
15960	7.3571	5.8182	5.e-002	6.8716e-007
15961	7.3571	5.9091	0.	-3.1583
15962	7.3571	5.5455	0.	-27.063
15963	7.2652	5.6364	0.	-21.926
15964	7.3571	5.6364	5.e-002	3.2013e-006
15965	7.3571	5.3636	0.	-39.635
15966	7.2652	5.4545	0.	-35.282
15967	7.3571	5.4545	5.e-002	1.1586e-006
15968	7.3571	5.1818	0.	-51.708
15969	7.2652	5.2727	0.	-48.143
15970	7.3571	5.2727	5.e-002	-4.2951e-015
15971	7.3571	5.	0.	-63.216
15972	7.2652	5.0909	0.	-60.467
15973	7.3571	5.0909	5.e-002	1.899e-006
15974	7.3571	4.8182	0.	-74.069
15975	7.2652	4.9091	0.	-72.155
15976	7.3571	4.9091	5.e-002	1.3636e-007
15977	7.3571	4.6364	0.	-84.18
15978	7.2652	4.7273	0.	-83.115
15979	7.3571	4.7273	5.e-002	2.544e-007
15980	7.3571	4.4545	0.	-93.468
15981	7.2652	4.5455	0.	-93.26
15982	7.3571	4.5455	5.e-002	1.17e-007
15983	7.3571	4.2727	0.	-101.86
15984	7.2652	4.3636	0.	-102.5
15985	7.3571	4.3636	5.e-002	4.2325e-007
15986	7.3571	4.0909	0.	-109.27
15987	7.2652	4.1818	0.	-110.77
15988	7.3571	4.1818	5.e-002	-1.6175e-007
15989	7.3571	3.9091	0.	-115.66
15990	7.2652	4.	0.	-118.
15991	7.3571	4.	5.e-002	6.8363e-007
15992	7.3571	3.7273	0.	-120.97
15993	7.2652	3.8182	0.	-124.11
15994	7.3571	3.8182	5.e-002	2.3501e-007
15995	7.3571	3.5455	0.	-125.14
15996	7.2652	3.6364	0.	-129.07
15997	7.3571	3.6364	5.e-002	1.9832e-007
15998	7.3571	3.3636	0.	-128.15
15999	7.2652	3.4545	0.	-132.83
16000	7.3571	3.4545	5.e-002	2.0282e-006
16001	7.3571	3.1818	0.	-129.96
16002	7.2652	3.2727	0.	-135.35
16003	7.3571	3.2727	5.e-002	8.3467e-008
16004	7.3571	3.	0.	-130.57
16005	7.2652	3.0909	0.	-136.62
16006	7.3571	3.0909	5.e-002	2.6948e-008
16007	7.3571	2.8182	0.	-129.96
16008	7.2652	2.9091	0.	-136.62
16009	7.3571	2.9091	5.e-002	-2.7429e-008
16010	7.3571	2.6364	0.	-128.15
16011	7.2652	2.7273	0.	-135.35
16012	7.3571	2.7273	5.e-002	-8.0589e-008
16013	7.3571	2.4545	0.	-125.14
16014	7.2652	2.5455	0.	-132.83
16015	7.3571	2.5455	5.e-002	-1.5254e-007
16016	7.3571	2.2727	0.	-120.97
16017	7.2652	2.3636	0.	-129.07
16018	7.3571	2.3636	5.e-002	7.7886e-007
16019	7.3571	2.0909	0.	-115.66
16020	7.2652	2.1818	0.	-124.11
16021	7.3571	2.1818	5.e-002	7.1391e-007
16022	7.3571	1.9091	0.	-109.27
16023	7.2652	2.	0.	-118.
16024	7.3571	2.	5.e-002	2.1328e-006
16025	7.3571	1.7273	0.	-101.86
16026	7.2652	1.8182	0.	-110.77
16027	7.3571	1.8182	5.e-002	5.6951e-007
16028	7.3571	1.5455	0.	-93.468
16029	7.2652	1.6364	0.	-102.5
16030	7.3571	1.6364	5.e-002	-4.2325e-007
16031	7.3571	1.3636	0.	-84.18
16032	7.2652	1.4545	0.	-93.26
16033	7.3571	1.4545	5.e-002	-1.17e-007
16034	7.3571	1.1818	0.	-74.069
16035	7.2652	1.2727	0.	-83.115
16036	7.3571	1.2727	5.e-002	6.8199e-007
16037	7.3571	1.	0.	-63.216
16038	7.2652	1.0909	0.	-72.155
16039	7.3571	1.0909	5.e-002	6.6104e-007
16040	7.3571	0.81818	0.	-51.708
16041	7.2652	0.90909	0.	-60.467
16042	7.3571	0.90909	5.e-002	2.3647e-006
16043	7.3571	0.63636	0.	-39.635
16044	7.2652	0.72727	0.	-48.143
16045	7.3571	0.72727	5.e-002	-1.4093e-007
16046	7.3571	0.45455	0.	-27.063
16047	7.2652	0.54545	0.	-35.282
16048	7.3571	0.54545	5.e-002	3.8007e-007
16049	7.3571	0.27273	0.	-13.85
16050	7.2652	0.36364	0.	-21.926
16051	7.3571	0.36364	5.e-002	3.5762e-007
16052	7.2652	0.18182	0.	-7.7911
16053	7.3571	0.18182	5.e-002	7.8532e-007
16054	7.3571	9.0909e-002	0.	-3.1583
16055	7.1732	5.7273	0.	-15.858
16056	7.0813	5.8182	0.	-9.3023
16057	7.1732	5.8182	5.e-002	7.8575e-007
16058	7.1732	5.9091	0.	-3.997
16059	7.1732	5.5455	0.	-30.151
16060	7.0813	5.6364	0.	-24.557
16061	7.1732	5.6364	5.e-002	9.1827e-007
16062	7.1732	5.3636	0.	-43.796
16063	7.0813	5.4545	0.	-39.047
16064	7.1732	5.4545	5.e-002	1.3835e-006
16065	7.1732	5.1818	0.	-56.907
16066	7.0813	5.2727	0.	-53.01
16067	7.1732	5.2727	5.e-002	2.6371e-006
16068	7.1732	5.	0.	-69.409
16069	7.0813	5.0909	0.	-66.395
16070	7.1732	5.0909	5.e-002	-1.2584e-015
16071	7.1732	4.8182	0.	-81.204
16072	7.0813	4.9091	0.	-79.096
16073	7.1732	4.9091	5.e-002	1.4727e-007
16074	7.1732	4.6364	0.	-92.197
16075	7.0813	4.7273	0.	-91.01
16076	7.1732	4.7273	5.e-002	1.5695e-006
16077	7.1732	4.4545	0.	-102.3
16078	7.0813	4.5455	0.	-102.04
16079	7.1732	4.5455	5.e-002	1.3452e-006
16080	7.1732	4.2727	0.	-111.42
16081	7.0813	4.3636	0.	-112.1
16082	7.1732	4.3636	5.e-002	3.4316e-007
16083	7.1732	4.0909	0.	-119.5
16084	7.0813	4.1818	0.	-121.09
16085	7.1732	4.1818	5.e-002	-5.8808e-007
16086	7.1732	3.9091	0.	-126.45
16087	7.0813	4.	0.	-128.96
16088	7.1732	4.	5.e-002	7.7918e-007
16089	7.1732	3.7273	0.	-132.22
16090	7.0813	3.8182	0.	-135.62
16091	7.1732	3.8182	5.e-002	2.9063e-007
16092	7.1732	3.5455	0.	-136.77
16093	7.0813	3.6364	0.	-141.02
16094	7.1732	3.6364	5.e-002	4.2103e-007
16095	7.1732	3.3636	0.	-140.04
16096	7.0813	3.4545	0.	-145.11
16097	7.1732	3.4545	5.e-002	1.3417e-007
16098	7.1732	3.1818	0.	-142.02
16099	7.0813	3.2727	0.	-147.86
16100	7.1732	3.2727	5.e-002	1.9995e-006
16101	7.1732	3.	0.	-142.68
16102	7.0813	3.0909	0.	-149.24
16103	7.1732	3.0909	5.e-002	1.9424e-006
16104	7.1732	2.8182	0.	-142.02
16105	7.0813	2.9091	0.	-149.24
16106	7.1732	2.9091	5.e-002	1.8814e-006
16107	7.1732	2.6364	0.	-140.04
16108	7.0813	2.7273	0.	-147.86
16109	7.1732	2.7273	5.e-002	1.8126e-006
16110	7.1732	2.4545	0.	-136.77
16111	7.0813	2.5455	0.	-145.11
16112	7.1732	2.5455	5.e-002	-1.6514e-007
16113	7.1732	2.2727	0.	-132.22
16114	7.0813	2.3636	0.	-141.02
16115	7.1732	2.3636	5.e-002	2.0341e-008
16116	7.1732	2.0909	0.	-126.45
16117	7.0813	2.1818	0.	-135.62
16118	7.1732	2.1818	5.e-002	-2.1797e-007
16119	7.1732	1.9091	0.	-119.5
16120	7.0813	2.	0.	-128.96
16121	7.1732	2.	5.e-002	-3.4959e-007
16122	7.1732	1.7273	0.	-111.42
16123	7.0813	1.8182	0.	-121.09
16124	7.1732	1.8182	5.e-002	1.6322e-006
16125	7.1732	1.5455	0.	-102.3
16126	7.0813	1.6364	0.	-112.1
16127	7.1732	1.6364	5.e-002	-3.4316e-007
16128	7.1732	1.3636	0.	-92.197
16129	7.0813	1.4545	0.	-102.04
16130	7.1732	1.4545	5.e-002	8.3946e-007
16131	7.1732	1.1818	0.	-81.204
16132	7.0813	1.2727	0.	-91.01
16133	7.1732	1.2727	5.e-002	1.9533e-006
16134	7.1732	1.	0.	-69.409
16135	7.0813	1.0909	0.	-79.096
16136	7.1732	1.0909	5.e-002	6.3583e-007
16137	7.1732	0.81818	0.	-56.907
16138	7.0813	0.90909	0.	-66.395
16139	7.1732	0.90909	5.e-002	6.1558e-007
16140	7.1732	0.63636	0.	-43.796
16141	7.0813	0.72727	0.	-53.01
16142	7.1732	0.72727	5.e-002	1.0604e-006
16143	7.1732	0.45455	0.	-30.151
16144	7.0813	0.54545	0.	-39.047
16145	7.1732	0.54545	5.e-002	1.0434e-006
16146	7.1732	0.27273	0.	-15.858
16147	7.0813	0.36364	0.	-24.557
16148	7.1732	0.36364	5.e-002	5.5766e-007
16149	7.0813	0.18182	0.	-9.3023
16150	7.1732	0.18182	5.e-002	7.8575e-007
16151	7.1732	9.0909e-002	0.	-3.997
16152	6.9893	5.7273	0.	-17.993
16153	6.8973	5.8182	0.	-10.897
16154	6.9893	5.8182	5.e-002	2.2953e-005
16155	6.9893	5.9091	0.	-4.8832
16156	6.9893	5.5455	0.	-33.458
16157	6.8973	5.6364	0.	-27.367
16158	6.9893	5.6364	5.e-002	3.3174e-006
16159	6.9893	5.3636	0.	-48.265
16160	6.8973	5.4545	0.	-43.085
16161	6.9893	5.4545	5.e-002	2.8011e-006
16162	6.9893	5.1818	0.	-62.502
16163	6.8973	5.2727	0.	-58.243
16164	6.9893	5.2727	5.e-002	2.6173e-006
16165	6.9893	5.	0.	-76.084
16166	6.8973	5.0909	0.	-72.78
16167	6.9893	5.0909	5.e-002	2.2952e-006
16168	6.9893	4.8182	0.	-88.902
16169	6.8973	4.9091	0.	-86.579
16170	6.9893	4.9091	5.e-002	4.7638e-007
16171	6.9893	4.6364	0.	-100.85
16172	6.8973	4.7273	0.	-99.529
16173	6.9893	4.7273	5.e-002	-4.8537e-007
16174	6.9893	4.4545	0.	-111.84
16175	6.8973	4.5455	0.	-111.52
16176	6.9893	4.5455	5.e-002	1.5488e-006
16177	6.9893	4.2727	0.	-121.77
16178	6.8973	4.3636	0.	-122.46
16179	6.9893	4.3636	5.e-002	5.9772e-007
16180	6.9893	4.0909	0.	-130.55
16181	6.8973	4.1818	0.	-132.25
16182	6.9893	4.1818	5.e-002	4.3783e-007
16183	6.9893	3.9091	0.	-138.12
16184	6.8973	4.	0.	-140.81
16185	6.9893	4.	5.e-002	-1.5107e-006
16186	6.9893	3.7273	0.	-144.41
16187	6.8973	3.8182	0.	-148.06
16188	6.9893	3.8182	5.e-002	2.9452e-007
16189	6.9893	3.5455	0.	-149.36
16190	6.8973	3.6364	0.	-153.94
16191	6.9893	3.6364	5.e-002	5.0575e-007
16192	6.9893	3.3636	0.	-152.92
16193	6.8973	3.4545	0.	-158.4
16194	6.9893	3.4545	5.e-002	1.6744e-007
16195	6.9893	3.1818	0.	-155.08
16196	6.8973	3.2727	0.	-161.4
16197	6.9893	3.2727	5.e-002	1.0788e-007
16198	6.9893	3.	0.	-155.8
16199	6.8973	3.0909	0.	-162.9
16200	6.9893	3.0909	5.e-002	3.4951e-008
16201	6.9893	2.8182	0.	-155.08
16202	6.8973	2.9091	0.	-162.9
16203	6.9893	2.9091	5.e-002	1.8719e-006
16204	6.9893	2.6364	0.	-152.92
16205	6.8973	2.7273	0.	-161.4
16206	6.9893	2.7273	5.e-002	-1.045e-007
16207	6.9893	2.4545	0.	-149.36
16208	6.8973	2.5455	0.	-158.4
16209	6.9893	2.5455	5.e-002	-1.786e-007
16210	6.9893	2.2727	0.	-144.41
16211	6.8973	2.3636	0.	-153.94
16212	6.9893	2.3636	5.e-002	1.06e-008
16213	6.9893	2.0909	0.	-138.12
16214	6.8973	2.1818	0.	-148.06
16215	6.9893	2.1818	5.e-002	-2.7488e-007
16216	6.9893	1.9091	0.	-130.55
16217	6.8973	2.	0.	-140.81
16218	6.9893	2.	5.e-002	-3.7774e-007
16219	6.9893	1.7273	0.	-121.77
16220	6.8973	1.8182	0.	-132.25
16221	6.9893	1.8182	5.e-002	6.1257e-007
16222	6.9893	1.5455	0.	-111.84
16223	6.8973	1.6364	0.	-122.46
16224	6.9893	1.6364	5.e-002	-3.7047e-007
16225	6.9893	1.3636	0.	-100.85
16226	6.8973	1.4545	0.	-111.52
16227	6.9893	1.4545	5.e-002	1.9368e-006
16228	6.9893	1.1818	0.	-88.902
16229	6.8973	1.2727	0.	-99.529
16230	6.9893	1.2727	5.e-002	-2.9645e-007
16231	6.9893	1.	0.	-76.084
16232	6.8973	1.0909	0.	-86.579
16233	6.9893	1.0909	5.e-002	-3.1759e-007
16234	6.9893	0.81818	0.	-62.502
16235	6.8973	0.90909	0.	-72.78
16236	6.9893	0.90909	5.e-002	-3.3618e-007
16237	6.9893	0.63636	0.	-48.265
16238	6.8973	0.72727	0.	-58.243
16239	6.9893	0.72727	5.e-002	5.6777e-007
16240	6.9893	0.45455	0.	-33.458
16241	6.8973	0.54545	0.	-43.085
16242	6.9893	0.54545	5.e-002	-3.1507e-015
16243	6.9893	0.27273	0.	-17.993
16244	6.8973	0.36364	0.	-27.367
16245	6.9893	0.36364	5.e-002	5.2502e-007
16246	6.8973	0.18182	0.	-10.897
16247	6.9893	0.18182	5.e-002	5.4049e-007
16248	6.9893	9.0909e-002	0.	-4.8832
16249	6.8054	5.7273	0.	-20.26
16250	6.7134	5.8182	0.	-12.576
16251	6.8054	5.8182	5.e-002	5.8993e-007
16252	6.8054	5.9091	0.	-5.8159
16253	6.8054	5.5455	0.	-36.996
16254	6.7134	5.6364	0.	-30.364
16255	6.8054	5.6364	5.e-002	1.1325e-006
16256	6.8054	5.3636	0.	-53.064
16257	6.7134	5.4545	0.	-47.413
16258	6.8054	5.4545	5.e-002	4.5554e-007
16259	6.8054	5.1818	0.	-68.522
16260	6.7134	5.2727	0.	-63.866
16261	6.8054	5.2727	5.e-002	6.4665e-007
16262	6.8054	5.	0.	-83.276
16263	6.7134	5.0909	0.	-79.654
16264	6.8054	5.0909	5.e-002	2.4619e-006
16265	6.8054	4.8182	0.	-97.206
16266	6.7134	4.9091	0.	-94.646
16267	6.8054	4.9091	5.e-002	2.5415e-006
16268	6.8054	4.6364	0.	-110.2
16269	6.7134	4.7273	0.	-108.72
16270	6.8054	4.7273	5.e-002	6.3861e-007
16271	6.8054	4.4545	0.	-122.15
16272	6.7134	4.5455	0.	-121.77
16273	6.8054	4.5455	5.e-002	1.9281e-006
16274	6.8054	4.2727	0.	-132.95
16275	6.7134	4.3636	0.	-133.67
16276	6.8054	4.3636	5.e-002	5.326e-007
16277	6.8054	4.0909	0.	-142.51
16278	6.7134	4.1818	0.	-144.32
16279	6.8054	4.1818	5.e-002	4.1329e-007
16280	6.8054	3.9091	0.	-150.75
16281	6.7134	4.	0.	-153.64
16282	6.8054	4.	5.e-002	-6.6869e-008
16283	6.8054	3.7273	0.	-157.6
16284	6.7134	3.8182	0.	-161.53
16285	6.8054	3.8182	5.e-002	3.6043e-007
16286	6.8054	3.5455	0.	-162.99
16287	6.7134	3.6364	0.	-167.94
16288	6.8054	3.6364	5.e-002	2.758e-007
16289	6.8054	3.3636	0.	-166.87
16290	6.7134	3.4545	0.	-172.8
16291	6.8054	3.4545	5.e-002	2.0505e-007
16292	6.8054	3.1818	0.	-169.22
16293	6.7134	3.2727	0.	-176.06
16294	6.8054	3.2727	5.e-002	1.2023e-007
16295	6.8054	3.	0.	-170.
16296	6.7134	3.0909	0.	-177.7
16297	6.8054	3.0909	5.e-002	4.0825e-008
16298	6.8054	2.8182	0.	-169.22
16299	6.7134	2.9091	0.	-177.7
16300	6.8054	2.9091	5.e-002	-4.052e-008
16301	6.8054	2.6364	0.	-166.87
16302	6.7134	2.7273	0.	-176.06
16303	6.8054	2.7273	5.e-002	-1.2388e-007
16304	6.8054	2.4545	0.	-162.99
16305	6.7134	2.5455	0.	-172.8
16306	6.8054	2.5455	5.e-002	-2.0505e-007
16307	6.8054	2.2727	0.	-157.6
16308	6.7134	2.3636	0.	-167.94
16309	6.8054	2.3636	5.e-002	-2.6744e-007
16310	6.8054	2.0909	0.	-150.75
16311	6.7134	2.1818	0.	-161.53
16312	6.8054	2.1818	5.e-002	-3.3923e-007
16313	6.8054	1.9091	0.	-142.51
16314	6.7134	2.	0.	-153.64
16315	6.8054	2.	5.e-002	2.9765e-007
16316	6.8054	1.7273	0.	-132.95
16317	6.7134	1.8182	0.	-144.32
16318	6.8054	1.8182	5.e-002	-4.1329e-007
16319	6.8054	1.5455	0.	-122.15
16320	6.7134	1.6364	0.	-133.67
16321	6.8054	1.6364	5.e-002	-3.9945e-007
16322	6.8054	1.3636	0.	-110.2
16323	6.7134	1.4545	0.	-121.77
16324	6.8054	1.4545	5.e-002	1.1195e-006
16325	6.8054	1.1818	0.	-97.206
16326	6.7134	1.2727	0.	-108.72
16327	6.8054	1.2727	5.e-002	-4.7896e-007
16328	6.8054	1.	0.	-83.276
16329	6.7134	1.0909	0.	-94.646
16330	6.8054	1.0909	5.e-002	1.3311e-006
16331	6.8054	0.81818	0.	-68.522
16332	6.7134	0.90909	0.	-79.654
16333	6.8054	0.90909	5.e-002	-1.8089e-007
16334	6.8054	0.63636	0.	-53.064
16335	6.7134	0.72727	0.	-63.866
16336	6.8054	0.72727	5.e-002	-1.1109e-007
16337	6.8054	0.45455	0.	-36.996
16338	6.7134	0.54545	0.	-47.413
16339	6.8054	0.54545	5.e-002	1.2302e-007
16340	6.8054	0.27273	0.	-20.26
16341	6.7134	0.36364	0.	-30.364
16342	6.8054	0.36364	5.e-002	7.1699e-007
16343	6.7134	0.18182	0.	-12.576
16344	6.8054	0.18182	5.e-002	6.8825e-007
16345	6.8054	9.0909e-002	0.	-5.8159
16346	6.6214	5.7273	0.	-22.666
16347	6.5295	5.8182	0.	-14.34
16348	6.6214	5.8182	5.e-002	5.9022e-007
16349	6.6214	5.9091	0.	-6.7946
16350	6.6214	5.5455	0.	-40.781
16351	6.5295	5.6364	0.	-33.559
16352	6.6214	5.6364	5.e-002	1.568e-006
16353	6.6214	5.3636	0.	-58.215
16354	6.5295	5.4545	0.	-52.051
16355	6.6214	5.4545	5.e-002	4.2287e-007
16356	6.6214	5.1818	0.	-74.997
16357	6.5295	5.2727	0.	-69.908
16358	6.6214	5.2727	5.e-002	9.0811e-007
16359	6.6214	5.	0.	-91.023
16360	6.5295	5.0909	0.	-87.052
16361	6.6214	5.0909	5.e-002	3.0376e-006
16362	6.6214	4.8182	0.	-106.16
16363	6.5295	4.9091	0.	-103.34
16364	6.6214	4.9091	5.e-002	2.7242e-006
16365	6.6214	4.6364	0.	-120.29
16366	6.5295	4.7273	0.	-118.64
16367	6.6214	4.7273	5.e-002	1.4689e-006
16368	6.6214	4.4545	0.	-133.28
16369	6.5295	4.5455	0.	-132.83
16370	6.6214	4.5455	5.e-002	5.5381e-007
16371	6.6214	4.2727	0.	-145.04
16372	6.5295	4.3636	0.	-145.77
16373	6.6214	4.3636	5.e-002	5.0184e-007
16374	6.6214	4.0909	0.	-155.45
16375	6.5295	4.1818	0.	-157.37
16376	6.6214	4.1818	5.e-002	4.7714e-007
16377	6.6214	3.9091	0.	-164.42
16378	6.5295	4.	0.	-167.51
16379	6.6214	4.	5.e-002	1.2611e-006
16380	6.6214	3.7273	0.	-171.88
16381	6.5295	3.8182	0.	-176.11
16382	6.6214	3.8182	5.e-002	3.7737e-007
16383	6.6214	3.5455	0.	-177.75
16384	6.5295	3.6364	0.	-183.09
16385	6.6214	3.6364	5.e-002	3.0666e-007
16386	6.6214	3.3636	0.	-181.98
16387	6.5295	3.4545	0.	-188.38
16388	6.6214	3.4545	5.e-002	2.2789e-007
16389	6.6214	3.1818	0.	-184.53
16390	6.5295	3.2727	0.	-191.94
16391	6.6214	3.2727	5.e-002	1.3869e-007
16392	6.6214	3.	0.	-185.39
16393	6.5295	3.0909	0.	-193.72
16394	6.6214	3.0909	5.e-002	4.6065e-008
16395	6.6214	2.8182	0.	-184.53
16396	6.5295	2.9091	0.	-193.72
16397	6.6214	2.9091	5.e-002	-4.6394e-008
16398	6.6214	2.6364	0.	-181.98
16399	6.5295	2.7273	0.	-191.94
16400	6.6214	2.7273	5.e-002	-1.3869e-007
16401	6.6214	2.4545	0.	-177.75
16402	6.5295	2.5455	0.	-188.38
16403	6.6214	2.5455	5.e-002	-2.2138e-007
16404	6.6214	2.2727	0.	-171.88
16405	6.5295	2.3636	0.	-183.09
16406	6.6214	2.3636	5.e-002	-2.9764e-007
16407	6.6214	2.0909	0.	-164.42
16408	6.5295	2.1818	0.	-176.11
16409	6.6214	2.1818	5.e-002	-3.6593e-007
16410	6.6214	1.9091	0.	-155.45
16411	6.5295	2.	0.	-167.51
16412	6.6214	2.	5.e-002	2.2911e-006
16413	6.6214	1.7273	0.	-145.04
16414	6.5295	1.8182	0.	-157.37
16415	6.6214	1.8182	5.e-002	-4.1352e-007
16416	6.6214	1.5455	0.	-133.28
16417	6.5295	1.6364	0.	-145.77
16418	6.6214	1.6364	5.e-002	-5.0184e-007
16419	6.6214	1.3636	0.	-120.29
16420	6.5295	1.4545	0.	-132.83
16421	6.6214	1.4545	5.e-002	-3.9558e-007
16422	6.6214	1.1818	0.	-106.16
16423	6.5295	1.2727	0.	-118.64
16424	6.6214	1.2727	5.e-002	1.3604e-006
16425	6.6214	1.	0.	-91.023
16426	6.5295	1.0909	0.	-103.34
16427	6.6214	1.0909	5.e-002	2.173e-006
16428	6.6214	0.81818	0.	-74.997
16429	6.5295	0.90909	0.	-87.052
16430	6.6214	0.90909	5.e-002	-3.8864e-007
16431	6.6214	0.63636	0.	-58.216
16432	6.5295	0.72727	0.	-69.908
16433	6.6214	0.72727	5.e-002	7.047e-007
16434	6.6214	0.45455	0.	-40.781
16435	6.5295	0.54545	0.	-52.051
16436	6.6214	0.54545	5.e-002	4.8136e-007
16437	6.6214	0.27273	0.	-22.666
16438	6.5295	0.36364	0.	-33.559
16439	6.6214	0.36364	5.e-002	2.2467e-007
16440	6.5295	0.18182	0.	-14.34
16441	6.6214	0.18182	5.e-002	7.8695e-007
16442	6.6214	9.0909e-002	0.	-6.7946
16443	6.4375	5.7273	0.	-25.215
16444	6.3455	5.8182	0.	-16.189
16445	6.4375	5.8182	5.e-002	1.1238e-005
16446	6.4375	5.9091	0.	-7.8183
16447	6.4375	5.5455	0.	-44.826
16448	6.3455	5.6364	0.	-36.961
16449	6.4375	5.6364	5.e-002	5.637e-006
16450	6.4375	5.3636	0.	-63.741
16451	6.3455	5.4545	0.	-57.016
16452	6.4375	5.4545	5.e-002	4.4823e-007
16453	6.4375	5.1818	0.	-81.96
16454	6.3455	5.2727	0.	-76.396
16455	6.4375	5.2727	5.e-002	6.5403e-007
16456	6.4375	5.	0.	-99.366
16457	6.3455	5.0909	0.	-95.012
16458	6.4375	5.0909	5.e-002	2.2282e-006
16459	6.4375	4.8182	0.	-115.82
16460	6.3455	4.9091	0.	-112.71
16461	6.4375	4.9091	5.e-002	5.9152e-007
16462	6.4375	4.6364	0.	-131.18
16463	6.3455	4.7273	0.	-129.34
16464	6.4375	4.7273	5.e-002	4.6096e-007
16465	6.4375	4.4545	0.	-145.31
16466	6.3455	4.5455	0.	-144.77
16467	6.4375	4.5455	5.e-002	5.9515e-007
16468	6.4375	4.2727	0.	-158.1
16469	6.3455	4.3636	0.	-158.86
16470	6.4375	4.3636	5.e-002	5.3971e-007
16471	6.4375	4.0909	0.	-169.44
16472	6.3455	4.1818	0.	-171.48
16473	6.4375	4.1818	5.e-002	5.6488e-007
16474	6.4375	3.9091	0.	-179.21
16475	6.3455	4.	0.	-182.53
16476	6.4375	4.	5.e-002	4.8822e-007
16477	6.4375	3.7273	0.	-187.33
16478	6.3455	3.8182	0.	-191.89
16479	6.4375	3.8182	5.e-002	1.0846e-006
16480	6.4375	3.5455	0.	-193.73
16481	6.3455	3.6364	0.	-199.5
16482	6.4375	3.6364	5.e-002	3.4524e-007
16483	6.4375	3.3636	0.	-198.34
16484	6.3455	3.4545	0.	-205.26
16485	6.4375	3.4545	5.e-002	2.3653e-006
16486	6.4375	3.1818	0.	-201.12
16487	6.3455	3.2727	0.	-209.14
16488	6.4375	3.2727	5.e-002	1.5495e-007
16489	6.4375	3.	0.	-202.06
16490	6.3455	3.0909	0.	-211.08
16491	6.4375	3.0909	5.e-002	1.9584e-006
16492	6.4375	2.8182	0.	-201.12
16493	6.3455	2.9091	0.	-211.08
16494	6.4375	2.9091	5.e-002	1.8556e-006
16495	6.4375	2.6364	0.	-198.34
16496	6.3455	2.7273	0.	-209.14
16497	6.4375	2.7273	5.e-002	-1.5389e-007
16498	6.4375	2.4545	0.	-193.73
16499	6.3455	2.5455	0.	-205.26
16500	6.4375	2.5455	5.e-002	-3.5852e-008
16501	6.4375	2.2727	0.	-187.33
16502	6.3455	2.3636	0.	-199.5
16503	6.4375	2.3636	5.e-002	-3.3552e-007
16504	6.4375	2.0909	0.	-179.21
16505	6.3455	2.1818	0.	-191.89
16506	6.4375	2.1818	5.e-002	2.4656e-007
16507	6.4375	1.9091	0.	-169.44
16508	6.3455	2.	0.	-182.53
16509	6.4375	2.	5.e-002	-4.7343e-007
16510	6.4375	1.7273	0.	-158.1
16511	6.3455	1.8182	0.	-171.48
16512	6.4375	1.8182	5.e-002	-4.9641e-007
16513	6.4375	1.5455	0.	-145.31
16514	6.3455	1.6364	0.	-158.86
16515	6.4375	1.6364	5.e-002	-6.1681e-007
16516	6.4375	1.3636	0.	-131.18
16517	6.3455	1.4545	0.	-144.77
16518	6.4375	1.4545	5.e-002	-5.1013e-007
16519	6.4375	1.1818	0.	-115.82
16520	6.3455	1.2727	0.	-129.34
16521	6.4375	1.2727	5.e-002	-4.6096e-007
16522	6.4375	1.	0.	-99.366
16523	6.3455	1.0909	0.	-112.71
16524	6.4375	1.0909	5.e-002	1.2305e-006
16525	6.4375	0.81818	0.	-81.96
16526	6.3455	0.90909	0.	-95.012
16527	6.4375	0.90909	5.e-002	6.9735e-007
16528	6.4375	0.63636	0.	-63.741
16529	6.3455	0.72727	0.	-76.396
16530	6.4375	0.72727	5.e-002	4.649e-007
16531	6.4375	0.45455	0.	-44.826
16532	6.3455	0.54545	0.	-57.016
16533	6.4375	0.54545	5.e-002	2.2177e-007
16534	6.4375	0.27273	0.	-25.215
16535	6.3455	0.36364	0.	-36.961
16536	6.4375	0.36364	5.e-002	2.226e-007
16537	6.3455	0.18182	0.	-16.189
16538	6.4375	0.18182	5.e-002	7.8731e-007
16539	6.4375	9.0909e-002	0.	-7.8183
16540	6.2536	5.7273	0.	-27.913
16541	6.1616	5.8182	0.	-18.121
16542	6.2536	5.8182	5.e-002	2.9536e-007
16543	6.2536	5.9091	0.	-8.8858
16544	6.2536	5.5455	0.	-49.146
16545	6.1616	5.6364	0.	-40.58
16546	6.2536	5.6364	5.e-002	4.4056e-007
16547	6.2536	5.3636	0.	-69.666
16548	6.1616	5.4545	0.	-62.328
16549	6.2536	5.4545	5.e-002	5.1523e-006
16550	6.2536	5.1818	0.	-89.443
16551	6.1616	5.2727	0.	-83.359
16552	6.2536	5.2727	5.e-002	6.996e-007
16553	6.2536	5.	0.	-108.35
16554	6.1616	5.0909	0.	-103.57
16555	6.2536	5.0909	5.e-002	4.4612e-007
16556	6.2536	4.8182	0.	-126.23
16557	6.1616	4.9091	0.	-122.8
16558	6.2536	4.9091	5.e-002	5.2806e-007
16559	6.2536	4.6364	0.	-142.93
16560	6.1616	4.7273	0.	-140.88
16561	6.2536	4.7273	5.e-002	5.9307e-007
16562	6.2536	4.4545	0.	-158.31
16563	6.1616	4.5455	0.	-157.66
16564	6.2536	4.5455	5.e-002	6.3866e-007
16565	6.2536	4.2727	0.	-172.23
16566	6.1616	4.3636	0.	-172.99
16567	6.2536	4.3636	5.e-002	-1.2062e-006
16568	6.2536	4.0909	0.	-184.57
16569	6.1616	4.1818	0.	-186.74
16570	6.2536	4.1818	5.e-002	2.1025e-006
16571	6.2536	3.9091	0.	-195.21
16572	6.1616	4.	0.	-198.77
16573	6.2536	4.	5.e-002	5.5509e-007
16574	6.2536	3.7273	0.	-204.06
16575	6.1616	3.8182	0.	-208.97
16576	6.2536	3.8182	5.e-002	4.8095e-007
16577	6.2536	3.5455	0.	-211.03
16578	6.1616	3.6364	0.	-217.26
16579	6.2536	3.6364	5.e-002	3.8763e-007
16580	6.2536	3.3636	0.	-216.06
16581	6.1616	3.4545	0.	-223.54
16582	6.2536	3.4545	5.e-002	5.2905e-007
16583	6.2536	3.1818	0.	-219.09
16584	6.1616	3.2727	0.	-227.77
16585	6.2536	3.2727	5.e-002	1.7163e-007
16586	6.2536	3.	0.	-220.11
16587	6.1616	3.0909	0.	-229.89
16588	6.2536	3.0909	5.e-002	5.724e-008
16589	6.2536	2.8182	0.	-219.09
16590	6.1616	2.9091	0.	-229.89
16591	6.2536	2.9091	5.e-002	-5.7814e-008
16592	6.2536	2.6364	0.	-216.06
16593	6.1616	2.7273	0.	-227.77
16594	6.2536	2.7273	5.e-002	-1.7277e-007
16595	6.2536	2.4545	0.	-211.03
16596	6.1616	2.5455	0.	-223.54
16597	6.2536	2.5455	5.e-002	-2.9199e-008
16598	6.2536	2.2727	0.	-204.06
16599	6.1616	2.3636	0.	-217.26
16600	6.2536	2.3636	5.e-002	-3.7191e-007
16601	6.2536	2.0909	0.	-195.21
16602	6.1616	2.1818	0.	-208.97
16603	6.2536	2.1818	5.e-002	1.4224e-006
16604	6.2536	1.9091	0.	-184.57
16605	6.1616	2.	0.	-198.77
16606	6.2536	2.	5.e-002	-5.2922e-007
16607	6.2536	1.7273	0.	-172.23
16608	6.1616	1.8182	0.	-186.74
16609	6.2536	1.8182	5.e-002	9.1102e-007
16610	6.2536	1.5455	0.	-158.31
16611	6.1616	1.6364	0.	-172.99
16612	6.2536	1.6364	5.e-002	-6.2109e-007
16613	6.2536	1.3636	0.	-142.93
16614	6.1616	1.4545	0.	-157.66
16615	6.2536	1.4545	5.e-002	-6.3866e-007
16616	6.2536	1.1818	0.	-126.23
16617	6.1616	1.2727	0.	-140.88
16618	6.2536	1.2727	5.e-002	-5.9307e-007
16619	6.2536	1.	0.	-108.35
16620	6.1616	1.0909	0.	-122.8
16621	6.2536	1.0909	5.e-002	-5.2806e-007
16622	6.2536	0.81818	0.	-89.443
16623	6.1616	0.90909	0.	-103.57
16624	6.2536	0.90909	5.e-002	-5.5765e-007
16625	6.2536	0.63636	0.	-69.666
16626	6.1616	0.72727	0.	-83.359
16627	6.2536	0.72727	5.e-002	-2.332e-007
16628	6.2536	0.45455	0.	-49.146
16629	6.1616	0.54545	0.	-62.328
16630	6.2536	0.54545	5.e-002	1.5333e-006
16631	6.2536	0.27273	0.	-27.913
16632	6.1616	0.36364	0.	-40.58
16633	6.2536	0.36364	5.e-002	-2.5283e-007
16634	6.1616	0.18182	0.	-18.121
16635	6.2536	0.18182	5.e-002	3.9381e-007
16636	6.2536	9.0909e-002	0.	-8.8858
16637	6.0696	5.7273	0.	-30.762
16638	5.9777	5.8182	0.	-20.135
16639	6.0696	5.8182	5.e-002	1.1004e-005
16640	6.0696	5.9091	0.	-9.9949
16641	6.0696	5.5455	0.	-53.755
16642	5.9777	5.6364	0.	-44.426
16643	6.0696	5.6364	5.e-002	9.7274e-007
16644	6.0696	5.3636	0.	-76.015
16645	5.9777	5.4545	0.	-68.007
16646	6.0696	5.4545	5.e-002	6.9704e-007
16647	6.0696	5.1818	0.	-97.483
16648	5.9777	5.2727	0.	-90.829
16649	6.0696	5.2727	5.e-002	4.987e-006
16650	6.0696	5.	0.	-118.02
16651	5.9777	5.0909	0.	-112.78
16652	6.0696	5.0909	5.e-002	5.3621e-007
16653	6.0696	4.8182	0.	-137.45
16654	5.9777	4.9091	0.	-133.67
16655	6.0696	4.9091	5.e-002	6.2117e-007
16656	6.0696	4.6364	0.	-155.61
16657	5.9777	4.7273	0.	-153.33
16658	6.0696	4.7273	5.e-002	6.4146e-007
16659	6.0696	4.4545	0.	-172.34
16660	5.9777	4.5455	0.	-171.58
16661	6.0696	4.5455	5.e-002	6.7212e-007
16662	6.0696	4.2727	0.	-187.49
16663	5.9777	4.3636	0.	-188.26
16664	6.0696	4.3636	5.e-002	6.6618e-007
16665	6.0696	4.0909	0.	-200.93
16666	5.9777	4.1818	0.	-203.23
16667	6.0696	4.1818	5.e-002	6.322e-007
16668	6.0696	3.9091	0.	-212.53
16669	5.9777	4.	0.	-216.33
16670	6.0696	4.	5.e-002	5.8156e-007
16671	6.0696	3.7273	0.	-222.17
16672	5.9777	3.8182	0.	-227.46
16673	6.0696	3.8182	5.e-002	1.4012e-006
16674	6.0696	3.5455	0.	-229.77
16675	5.9777	3.6364	0.	-236.49
16676	6.0696	3.6364	5.e-002	4.2846e-007
16677	6.0696	3.3636	0.	-235.25
16678	5.9777	3.4545	0.	-243.34
16679	6.0696	3.4545	5.e-002	3.0159e-007
16680	6.0696	3.1818	0.	-238.56
16681	5.9777	3.2727	0.	-247.95
16682	6.0696	3.2727	5.e-002	1.8735e-007
16683	6.0696	3.	0.	-239.67
16684	5.9777	3.0909	0.	-250.26
16685	6.0696	3.0909	5.e-002	6.2292e-008
16686	6.0696	2.8182	0.	-238.56
16687	5.9777	2.9091	0.	-250.26
16688	6.0696	2.9091	5.e-002	-6.2704e-008
16689	6.0696	2.6364	0.	-235.25
16690	5.9777	2.7273	0.	-247.95
16691	6.0696	2.7273	5.e-002	-1.8242e-007
16692	6.0696	2.4545	0.	-229.77
16693	5.9777	2.5455	0.	-243.34
16694	6.0696	2.5455	5.e-002	-3.0159e-007
16695	6.0696	2.2727	0.	-222.17
16696	5.9777	2.3636	0.	-236.49
16697	6.0696	2.3636	5.e-002	-3.8336e-007
16698	6.0696	2.0909	0.	-212.53
16699	5.9777	2.1818	0.	-227.46
16700	6.0696	2.1818	5.e-002	3.8801e-007
16701	6.0696	1.9091	0.	-200.93
16702	5.9777	2.	0.	-216.33
16703	6.0696	2.	5.e-002	-5.8156e-007
16704	6.0696	1.7273	0.	-187.49
16705	5.9777	1.8182	0.	-203.23
16706	6.0696	1.8182	5.e-002	-6.5196e-007
16707	6.0696	1.5455	0.	-172.34
16708	5.9777	1.6364	0.	-188.26
16709	6.0696	1.6364	5.e-002	-6.4398e-007
16710	6.0696	1.3636	0.	-155.61
16711	5.9777	1.4545	0.	-171.58
16712	6.0696	1.4545	5.e-002	-6.8434e-007
16713	6.0696	1.1818	0.	-137.45
16714	5.9777	1.2727	0.	-153.33
16715	6.0696	1.2727	5.e-002	-6.6129e-007
16716	6.0696	1.	0.	-118.02
16717	5.9777	1.0909	0.	-133.67
16718	6.0696	1.0909	5.e-002	-6.2117e-007
16719	6.0696	0.81818	0.	-97.483
16720	5.9777	0.90909	0.	-112.78
16721	6.0696	0.90909	5.e-002	-4.7664e-007
16722	6.0696	0.63636	0.	-76.015
16723	5.9777	0.72727	0.	-90.829
16724	6.0696	0.72727	5.e-002	5.8828e-006
16725	6.0696	0.45455	0.	-53.755
16726	5.9777	0.54545	0.	-68.007
16727	6.0696	0.54545	5.e-002	4.9049e-007
16728	6.0696	0.27273	0.	-30.762
16729	5.9777	0.36364	0.	-44.426
16730	6.0696	0.36364	5.e-002	3.3342e-007
16731	5.9777	0.18182	0.	-20.135
16732	6.0696	0.18182	5.e-002	-4.2735e-007
16733	6.0696	9.0909e-002	0.	-9.9949
16734	5.8857	5.7273	0.	-33.765
16735	5.7937	5.8182	0.	-22.226
16736	5.8857	5.8182	5.e-002	1.1186e-005
16737	5.8857	5.9091	0.	-11.143
16738	5.8857	5.5455	0.	-58.668
16739	5.7937	5.6364	0.	-48.507
16740	5.8857	5.6364	5.e-002	1.2865e-006
16741	5.8857	5.3636	0.	-82.812
16742	5.7937	5.4545	0.	-74.074
16743	5.8857	5.4545	5.e-002	2.0079e-006
16744	5.8857	5.1818	0.	-106.12
16745	5.7937	5.2727	0.	-98.837
16746	5.8857	5.2727	5.e-002	1.4698e-006
16747	5.8857	5.	0.	-128.42
16748	5.7937	5.0909	0.	-122.67
16749	5.8857	5.0909	5.e-002	6.0353e-007
16750	5.8857	4.8182	0.	-149.54
16751	5.7937	4.9091	0.	-145.37
16752	5.8857	4.9091	5.e-002	6.4798e-007
16753	5.8857	4.6364	0.	-169.29
16754	5.7937	4.7273	0.	-166.74
16755	5.8857	4.7273	5.e-002	2.5353e-006
16756	5.8857	4.4545	0.	-187.49
16757	5.7937	4.5455	0.	-186.6
16758	5.8857	4.5455	5.e-002	7.3216e-007
16759	5.8857	4.2727	0.	-203.99
16760	5.7937	4.3636	0.	-204.76
16761	5.8857	4.3636	5.e-002	3.2487e-006
16762	5.8857	4.0909	0.	-218.63
16763	5.7937	4.1818	0.	-221.06
16764	5.8857	4.1818	5.e-002	6.7792e-007
16765	5.8857	3.9091	0.	-231.26
16766	5.7937	4.	0.	-235.34
16767	5.8857	4.	5.e-002	2.1082e-006
16768	5.8857	3.7273	0.	-241.77
16769	5.7937	3.8182	0.	-247.46
16770	5.8857	3.8182	5.e-002	5.826e-007
16771	5.8857	3.5455	0.	-250.06
16772	5.7937	3.6364	0.	-257.31
16773	5.8857	3.6364	5.e-002	1.1229e-006
16774	5.8857	3.3636	0.	-256.04
16775	5.7937	3.4545	0.	-264.78
16776	5.8857	3.4545	5.e-002	6.7416e-007
16777	5.8857	3.1818	0.	-259.65
16778	5.7937	3.2727	0.	-269.81
16779	5.8857	3.2727	5.e-002	4.4936e-007
16780	5.8857	3.	0.	-260.86
16781	5.7937	3.0909	0.	-272.33
16782	5.8857	3.0909	5.e-002	8.2397e-008
16783	5.8857	2.8182	0.	-259.65
16784	5.7937	2.9091	0.	-272.33
16785	5.8857	2.9091	5.e-002	-5.5726e-008
16786	5.8857	2.6364	0.	-256.04
16787	5.7937	2.7273	0.	-269.81
16788	5.8857	2.7273	5.e-002	3.5427e-008
16789	5.8857	2.4545	0.	-250.06
16790	5.7937	2.5455	0.	-264.78
16791	5.8857	2.5455	5.e-002	-9.8884e-009
16792	5.8857	2.2727	0.	-241.77
16793	5.7937	2.3636	0.	-257.31
16794	5.8857	2.3636	5.e-002	1.5303e-007
16795	5.8857	2.0909	0.	-231.26
16796	5.7937	2.1818	0.	-247.46
16797	5.8857	2.1818	5.e-002	-5.826e-007
16798	5.8857	1.9091	0.	-218.63
16799	5.7937	2.	0.	-235.34
16800	5.8857	2.	5.e-002	-6.2425e-007
16801	5.8857	1.7273	0.	-203.99
16802	5.7937	1.8182	0.	-221.06
16803	5.8857	1.8182	5.e-002	-7.6266e-007
16804	5.8857	1.5455	0.	-187.49
16805	5.7937	1.6364	0.	-204.76
16806	5.8857	1.6364	5.e-002	1.774e-006
16807	5.8857	1.3636	0.	-169.29
16808	5.7937	1.4545	0.	-186.6
16809	5.8857	1.4545	5.e-002	-8.3676e-007
16810	5.8857	1.1818	0.	-149.54
16811	5.7937	1.2727	0.	-166.74
16812	5.8857	1.2727	5.e-002	-7.3495e-007
16813	5.8857	1.	0.	-128.42
16814	5.7937	1.0909	0.	-145.37
16815	5.8857	1.0909	5.e-002	-7.2333e-007
16816	5.8857	0.81818	0.	-106.12
16817	5.7937	0.90909	0.	-122.67
16818	5.8857	0.90909	5.e-002	-6.8294e-007
16819	5.8857	0.63636	0.	-82.812
16820	5.7937	0.72727	0.	-98.837
16821	5.8857	0.72727	5.e-002	-5.9668e-007
16822	5.8857	0.45455	0.	-58.668
16823	5.7937	0.54545	0.	-74.074
16824	5.8857	0.54545	5.e-002	-5.4945e-007
16825	5.8857	0.27273	0.	-33.765
16826	5.7937	0.36364	0.	-48.507
16827	5.8857	0.36364	5.e-002	-2.8483e-007
16828	5.7937	0.18182	0.	-22.226
16829	5.8857	0.18182	5.e-002	3.2847e-008
16830	5.8857	9.0909e-002	0.	-11.143
16831	5.7018	5.7273	0.	-36.925
16832	5.6098	5.8182	0.	-24.388
16833	5.7018	5.8182	5.e-002	7.8829e-007
16834	5.7018	5.9091	0.	-12.326
16835	5.7018	5.5455	0.	-63.899
16836	5.6098	5.6364	0.	-52.83
16837	5.7018	5.6364	5.e-002	1.2983e-006
16838	5.7018	5.3636	0.	-90.086
16839	5.6098	5.4545	0.	-80.548
16840	5.7018	5.4545	5.e-002	4.7395e-007
16841	5.7018	5.1818	0.	-115.38
16842	5.6098	5.2727	0.	-107.42
16843	5.7018	5.2727	5.e-002	5.4612e-007
16844	5.7018	5.	0.	-139.61
16845	5.6098	5.0909	0.	-133.29
16846	5.7018	5.0909	5.e-002	8.1121e-007
16847	5.7018	4.8182	0.	-162.56
16848	5.6098	4.9091	0.	-157.96
16849	5.7018	4.9091	5.e-002	7.064e-007
16850	5.7018	4.6364	0.	-184.04
16851	5.6098	4.7273	0.	-181.2
16852	5.7018	4.7273	5.e-002	4.9171e-006
16853	5.7018	4.4545	0.	-203.86
16854	5.6098	4.5455	0.	-202.81
16855	5.7018	4.5455	5.e-002	7.8206e-007
16856	5.7018	4.2727	0.	-221.82
16857	5.6098	4.3636	0.	-222.58
16858	5.7018	4.3636	5.e-002	7.1231e-007
16859	5.7018	4.0909	0.	-237.76
16860	5.6098	4.1818	0.	-240.33
16861	5.7018	4.1818	5.e-002	8.1672e-007
16862	5.7018	3.9091	0.	-251.53
16863	5.6098	4.	0.	-255.89
16864	5.7018	4.	5.e-002	7.0866e-007
16865	5.7018	3.7273	0.	-262.99
16866	5.6098	3.8182	0.	-269.11
16867	5.7018	3.8182	5.e-002	5.2655e-007
16868	5.7018	3.5455	0.	-272.03
16869	5.6098	3.6364	0.	-279.85
16870	5.7018	3.6364	5.e-002	5.027e-006
16871	5.7018	3.3636	0.	-278.55
16872	5.6098	3.4545	0.	-288.
16873	5.7018	3.4545	5.e-002	3.3938e-007
16874	5.7018	3.1818	0.	-282.49
16875	5.6098	3.2727	0.	-293.48
16876	5.7018	3.2727	5.e-002	2.2829e-007
16877	5.7018	3.	0.	-283.81
16878	5.6098	3.0909	0.	-296.24
16879	5.7018	3.0909	5.e-002	7.7396e-008
16880	5.7018	2.8182	0.	-282.49
16881	5.6098	2.9091	0.	-296.24
16882	5.7018	2.9091	5.e-002	-7.7397e-008
16883	5.7018	2.6364	0.	-278.55
16884	5.6098	2.7273	0.	-293.48
16885	5.7018	2.7273	5.e-002	3.5719e-006
16886	5.7018	2.4545	0.	-272.03
16887	5.6098	2.5455	0.	-288.
16888	5.7018	2.5455	5.e-002	-3.7709e-007
16889	5.7018	2.2727	0.	-262.99
16890	5.6098	2.3636	0.	-279.85
16891	5.7018	2.3636	5.e-002	2.4251e-007
16892	5.7018	2.0909	0.	-251.53
16893	5.6098	2.1818	0.	-269.11
16894	5.7018	2.1818	5.e-002	1.2779e-006
16895	5.7018	1.9091	0.	-237.76
16896	5.6098	2.	0.	-255.89
16897	5.7018	2.	5.e-002	-7.0866e-007
16898	5.7018	1.7273	0.	-221.82
16899	5.6098	1.8182	0.	-240.33
16900	5.7018	1.8182	5.e-002	-7.2598e-007
16901	5.7018	1.5455	0.	-203.86
16902	5.6098	1.6364	0.	-222.58
16903	5.7018	1.6364	5.e-002	-8.1407e-007
16904	5.7018	1.3636	0.	-184.04
16905	5.6098	1.4545	0.	-202.81
16906	5.7018	1.4545	5.e-002	-8.9378e-007
16907	5.7018	1.1818	0.	-162.56
16908	5.6098	1.2727	0.	-181.2
16909	5.7018	1.2727	5.e-002	3.3491e-006
16910	5.7018	1.	0.	-139.61
16911	5.6098	1.0909	0.	-157.96
16912	5.7018	1.0909	5.e-002	-7.7062e-007
16913	5.7018	0.81818	0.	-115.38
16914	5.6098	0.90909	0.	-133.29
16915	5.7018	0.90909	5.e-002	-8.1121e-007
16916	5.7018	0.63636	0.	-90.086
16917	5.6098	0.72727	0.	-107.42
16918	5.7018	0.72727	5.e-002	1.92e-007
16919	5.7018	0.45455	0.	-63.899
16920	5.6098	0.54545	0.	-80.548
16921	5.7018	0.54545	5.e-002	2.1247e-006
16922	5.7018	0.27273	0.	-36.925
16923	5.6098	0.36364	0.	-52.83
16924	5.7018	0.36364	5.e-002	6.9591e-007
16925	5.6098	0.18182	0.	-24.388
16926	5.7018	0.18182	5.e-002	2.1361e-007
16927	5.7018	9.0909e-002	0.	-12.326
16928	5.5179	5.7273	0.	-40.242
16929	5.4259	5.8182	0.	-26.615
16930	5.5179	5.8182	5.e-002	2.1732e-005
16931	5.5179	5.9091	0.	-13.538
16932	5.5179	5.5455	0.	-69.462
16933	5.4259	5.6364	0.	-57.403
16934	5.5179	5.6364	5.e-002	2.0421e-006
16935	5.5179	5.3636	0.	-97.862
16936	5.4259	5.4545	0.	-87.45
16937	5.5179	5.4545	5.e-002	3.8609e-007
16938	5.5179	5.1818	0.	-125.32
16939	5.4259	5.2727	0.	-116.6
16940	5.5179	5.2727	5.e-002	5.978e-007
16941	5.5179	5.	0.	-151.63
16942	5.4259	5.0909	0.	-144.7
16943	5.5179	5.0909	5.e-002	6.8696e-006
16944	5.5179	4.8182	0.	-176.59
16945	5.4259	4.9091	0.	-171.51
16946	5.5179	4.9091	5.e-002	8.1935e-007
16947	5.5179	4.6364	0.	-199.95
16948	5.4259	4.7273	0.	-196.78
16949	5.5179	4.7273	5.e-002	1.0274e-006
16950	5.5179	4.4545	0.	-221.52
16951	5.4259	4.5455	0.	-220.29
16952	5.5179	4.5455	5.e-002	7.1481e-007
16953	5.5179	4.2727	0.	-241.08
16954	5.4259	4.3636	0.	-241.82
16955	5.5179	4.3636	5.e-002	4.4409e-006
16956	5.5179	4.0909	0.	-258.45
16957	5.4259	4.1818	0.	-261.16
16958	5.5179	4.1818	5.e-002	7.7637e-007
16959	5.5179	3.9091	0.	-273.46
16960	5.4259	4.	0.	-278.12
16961	5.5179	4.	5.e-002	7.5885e-007
16962	5.5179	3.7273	0.	-285.96
16963	5.4259	3.8182	0.	-292.53
16964	5.5179	3.8182	5.e-002	7.0562e-007
16965	5.5179	3.5455	0.	-295.82
16966	5.4259	3.6364	0.	-304.25
16967	5.5179	3.6364	5.e-002	5.5904e-007
16968	5.5179	3.3636	0.	-302.93
16969	5.4259	3.4545	0.	-313.14
16970	5.5179	3.4545	5.e-002	4.0497e-007
16971	5.5179	3.1818	0.	-307.23
16972	5.4259	3.2727	0.	-319.12
16973	5.5179	3.2727	5.e-002	2.453e-007
16974	5.5179	3.	0.	-308.67
16975	5.4259	3.0909	0.	-322.13
16976	5.5179	3.0909	5.e-002	8.4213e-008
16977	5.5179	2.8182	0.	-307.23
16978	5.4259	2.9091	0.	-322.13
16979	5.5179	2.9091	5.e-002	-8.524e-008
16980	5.5179	2.6364	0.	-302.93
16981	5.4259	2.7273	0.	-319.12
16982	5.5179	2.7273	5.e-002	-2.453e-007
16983	5.5179	2.4545	0.	-295.82
16984	5.4259	2.5455	0.	-313.14
16985	5.5179	2.5455	5.e-002	-4.0497e-007
16986	5.5179	2.2727	0.	-285.96
16987	5.4259	2.3636	0.	-304.25
16988	5.5179	2.3636	5.e-002	-6.1494e-007
16989	5.5179	2.0909	0.	-273.46
16990	5.4259	2.1818	0.	-292.53
16991	5.5179	2.1818	5.e-002	-7.7618e-007
16992	5.5179	1.9091	0.	-258.45
16993	5.4259	2.	0.	-278.12
16994	5.5179	2.	5.e-002	-7.5885e-007
16995	5.5179	1.7273	0.	-241.08
16996	5.4259	1.8182	0.	-261.16
16997	5.5179	1.8182	5.e-002	9.5135e-007
16998	5.5179	1.5455	0.	-221.52
16999	5.4259	1.6364	0.	-241.82
17000	5.5179	1.6364	5.e-002	-8.6935e-007
17001	5.5179	1.3636	0.	-199.95
17002	5.4259	1.4545	0.	-220.29
17003	5.5179	1.4545	5.e-002	-1.1913e-006
17004	5.5179	1.1818	0.	-176.59
17005	5.4259	1.2727	0.	-196.78
17006	5.5179	1.2727	5.e-002	-1.0274e-006
17007	5.5179	1.	0.	-151.63
17008	5.4259	1.0909	0.	-171.51
17009	5.5179	1.0909	5.e-002	-9.559e-007
17010	5.5179	0.81818	0.	-125.32
17011	5.4259	0.90909	0.	-144.7
17012	5.5179	0.90909	5.e-002	5.4341e-006
17013	5.5179	0.63636	0.	-97.862
17014	5.4259	0.72727	0.	-116.6
17015	5.5179	0.72727	5.e-002	-7.4725e-007
17016	5.5179	0.45455	0.	-69.462
17017	5.4259	0.54545	0.	-87.45
17018	5.5179	0.54545	5.e-002	-7.7217e-007
17019	5.5179	0.27273	0.	-40.242
17020	5.4259	0.36364	0.	-57.403
17021	5.5179	0.36364	5.e-002	1.1767e-007
17022	5.4259	0.18182	0.	-26.615
17023	5.5179	0.18182	5.e-002	4.9812e-008
17024	5.5179	9.0909e-002	0.	-13.538
17025	5.3339	5.7273	0.	-43.714
17026	5.242	5.8182	0.	-28.894
17027	5.3339	5.8182	5.e-002	6.7057e-007
17028	5.3339	5.9091	0.	-14.772
17029	5.3339	5.5455	0.	-75.369
17030	5.242	5.6364	0.	-62.23
17031	5.3339	5.6364	5.e-002	1.7912e-005
17032	5.3339	5.3636	0.	-106.17
17033	5.242	5.4545	0.	-94.8
17034	5.3339	5.4545	5.e-002	9.4114e-006
17035	5.3339	5.1818	0.	-135.97
17036	5.242	5.2727	0.	-126.43
17037	5.3339	5.2727	5.e-002	6.3236e-007
17038	5.3339	5.	0.	-164.55
17039	5.242	5.0909	0.	-156.94
17040	5.3339	5.0909	5.e-002	3.0414e-007
17041	5.3339	4.8182	0.	-191.68
17042	5.242	4.9091	0.	-186.07
17043	5.3339	4.9091	5.e-002	7.4401e-006
17044	5.3339	4.6364	0.	-217.1
17045	5.242	4.7273	0.	-213.56
17046	5.3339	4.7273	5.e-002	6.3134e-006
17047	5.3339	4.4545	0.	-240.58
17048	5.242	4.5455	0.	-239.15
17049	5.3339	4.5455	5.e-002	1.0145e-006
17050	5.3339	4.2727	0.	-261.89
17051	5.242	4.3636	0.	-262.6
17052	5.3339	4.3636	5.e-002	9.2687e-007
17053	5.3339	4.0909	0.	-280.82
17054	5.242	4.1818	0.	-283.67
17055	5.3339	4.1818	5.e-002	4.0698e-006
17056	5.3339	3.9091	0.	-297.19
17057	5.242	4.	0.	-302.16
17058	5.3339	4.	5.e-002	7.2134e-007
17059	5.3339	3.7273	0.	-310.82
17060	5.242	3.8182	0.	-317.88
17061	5.3339	3.8182	5.e-002	6.0445e-007
17062	5.3339	3.5455	0.	-321.57
17063	5.242	3.6364	0.	-330.66
17064	5.3339	3.6364	5.e-002	5.9926e-007
17065	5.3339	3.3636	0.	-329.34
17066	5.242	3.4545	0.	-340.37
17067	5.3339	3.4545	5.e-002	4.7793e-007
17068	5.3339	3.1818	0.	-334.03
17069	5.242	3.2727	0.	-346.89
17070	5.3339	3.2727	5.e-002	2.6333e-007
17071	5.3339	3.	0.	-335.6
17072	5.242	3.0909	0.	-350.18
17073	5.3339	3.0909	5.e-002	9.1532e-008
17074	5.3339	2.8182	0.	-334.03
17075	5.242	2.9091	0.	-350.18
17076	5.3339	2.9091	5.e-002	-9.3737e-008
17077	5.3339	2.6364	0.	-329.34
17078	5.242	2.7273	0.	-346.89
17079	5.3339	2.7273	5.e-002	-2.7649e-007
17080	5.3339	2.4545	0.	-321.57
17081	5.242	2.5455	0.	-340.37
17082	5.3339	2.5455	5.e-002	-3.4758e-007
17083	5.3339	2.2727	0.	-310.82
17084	5.242	2.3636	0.	-330.66
17085	5.3339	2.3636	5.e-002	-7.1911e-007
17086	5.3339	2.0909	0.	-297.19
17087	5.242	2.1818	0.	-317.88
17088	5.3339	2.1818	5.e-002	-6.8001e-007
17089	5.3339	1.9091	0.	-280.82
17090	5.242	2.	0.	-302.16
17091	5.3339	2.	5.e-002	-7.2134e-007
17092	5.3339	1.7273	0.	-261.89
17093	5.242	1.8182	0.	-283.67
17094	5.3339	1.8182	5.e-002	-8.2904e-007
17095	5.3339	1.5455	0.	-240.58
17096	5.242	1.6364	0.	-262.6
17097	5.3339	1.6364	5.e-002	-9.2687e-007
17098	5.3339	1.3636	0.	-217.1
17099	5.242	1.4545	0.	-239.15
17100	5.3339	1.4545	5.e-002	-1.0145e-006
17101	5.3339	1.1818	0.	-191.68
17102	5.242	1.2727	0.	-213.56
17103	5.3339	1.2727	5.e-002	-1.0918e-006
17104	5.3339	1.	0.	-164.55
17105	5.242	1.0909	0.	-186.07
17106	5.3339	1.0909	5.e-002	-5.7953e-007
17107	5.3339	0.81818	0.	-135.97
17108	5.242	0.90909	0.	-156.94
17109	5.3339	0.90909	5.e-002	4.7162e-007
17110	5.3339	0.63636	0.	-106.17
17111	5.242	0.72727	0.	-126.43
17112	5.3339	0.72727	5.e-002	-9.4855e-007
17113	5.3339	0.45455	0.	-75.369
17114	5.242	0.54545	0.	-94.8
17115	5.3339	0.54545	5.e-002	-6.5248e-007
17116	5.3339	0.27273	0.	-43.714
17117	5.242	0.36364	0.	-62.23
17118	5.3339	0.36364	5.e-002	-9.2e-009
17119	5.242	0.18182	0.	-28.894
17120	5.3339	0.18182	5.e-002	-1.0183e-007
17121	5.3339	9.0909e-002	0.	-14.772
17122	5.15	5.7273	0.	-47.337
17123	5.058	5.8182	0.	-31.213
17124	5.15	5.8182	5.e-002	5.5811e-007
17125	5.15	5.9091	0.	-16.02
17126	5.15	5.5455	0.	-81.634
17127	5.058	5.6364	0.	-67.316
17128	5.15	5.6364	5.e-002	1.726e-006
17129	5.15	5.3636	0.	-115.03
17130	5.058	5.4545	0.	-102.62
17131	5.15	5.4545	5.e-002	6.8729e-007
17132	5.15	5.1818	0.	-147.38
17133	5.058	5.2727	0.	-136.93
17134	5.15	5.2727	5.e-002	3.3359e-007
17135	5.15	5.	0.	-178.43
17136	5.058	5.0909	0.	-170.06
17137	5.15	5.0909	5.e-002	8.6168e-006
17138	5.15	4.8182	0.	-207.93
17139	5.058	4.9091	0.	-201.73
17140	5.15	4.9091	5.e-002	1.2269e-006
17141	5.15	4.6364	0.	-235.59
17142	5.058	4.7273	0.	-231.63
17143	5.15	4.7273	5.e-002	1.1578e-006
17144	5.15	4.4545	0.	-261.15
17145	5.058	4.5455	0.	-259.48
17146	5.15	4.5455	5.e-002	6.417e-006
17147	5.15	4.2727	0.	-284.37
17148	5.058	4.3636	0.	-285.02
17149	5.15	4.3636	5.e-002	9.8648e-007
17150	5.15	4.0909	0.	-305.
17151	5.058	4.1818	0.	-307.99
17152	5.15	4.1818	5.e-002	8.8389e-007
17153	5.15	3.9091	0.	-322.85
17154	5.058	4.	0.	-328.16
17155	5.15	4.	5.e-002	7.7029e-007
17156	5.15	3.7273	0.	-337.72
17157	5.058	3.8182	0.	-345.3
17158	5.15	3.8182	5.e-002	6.464e-007
17159	5.15	3.5455	0.	-349.45
17160	5.058	3.6364	0.	-359.24
17161	5.15	3.6364	5.e-002	1.7675e-006
17162	5.15	3.3636	0.	-357.93
17163	5.058	3.4545	0.	-369.84
17164	5.15	3.4545	5.e-002	5.5875e-007
17165	5.15	3.1818	0.	-363.05
17166	5.058	3.2727	0.	-376.96
17167	5.15	3.2727	5.e-002	4.972e-007
17168	5.15	3.	0.	-364.76
17169	5.058	3.0909	0.	-380.55
17170	5.15	3.0909	5.e-002	1.2342e-007
17171	5.15	2.8182	0.	-363.05
17172	5.058	2.9091	0.	-380.55
17173	5.15	2.9091	5.e-002	-7.0587e-008
17174	5.15	2.6364	0.	-357.93
17175	5.058	2.7273	0.	-376.96
17176	5.15	2.7273	5.e-002	-8.1693e-008
17177	5.15	2.4545	0.	-349.45
17178	5.058	2.5455	0.	-369.84
17179	5.15	2.5455	5.e-002	-5.5875e-007
17180	5.15	2.2727	0.	-337.72
17181	5.058	2.3636	0.	-359.24
17182	5.15	2.3636	5.e-002	4.8422e-007
17183	5.15	2.0909	0.	-322.85
17184	5.058	2.1818	0.	-345.3
17185	5.15	2.1818	5.e-002	2.8938e-006
17186	5.15	1.9091	0.	-305.
17187	5.058	2.	0.	-328.16
17188	5.15	2.	5.e-002	-9.6287e-007
17189	5.15	1.7273	0.	-284.37
17190	5.058	1.8182	0.	-307.99
17191	5.15	1.8182	5.e-002	-8.8389e-007
17192	5.15	1.5455	0.	-261.15
17193	5.058	1.6364	0.	-285.02
17194	5.15	1.6364	5.e-002	-1.2331e-006
17195	5.15	1.3636	0.	-235.59
17196	5.058	1.4545	0.	-259.48
17197	5.15	1.4545	5.e-002	-1.0778e-006
17198	5.15	1.1818	0.	-207.93
17199	5.058	1.2727	0.	-231.63
17200	5.15	1.2727	5.e-002	-8.6838e-007
17201	5.15	1.	0.	-178.43
17202	5.058	1.0909	0.	-201.73
17203	5.15	1.0909	5.e-002	-1.2269e-006
17204	5.15	0.81818	0.	-147.38
17205	5.058	0.90909	0.	-170.06
17206	5.15	0.90909	5.e-002	-9.642e-007
17207	5.15	0.63636	0.	-115.03
17208	5.058	0.72727	0.	-136.93
17209	5.15	0.72727	5.e-002	-6.6719e-007
17210	5.15	0.45455	0.	-81.634
17211	5.058	0.54545	0.	-102.62
17212	5.15	0.54545	5.e-002	-3.4364e-007
17213	5.15	0.27273	0.	-47.337
17214	5.058	0.36364	0.	-67.316
17215	5.15	0.36364	5.e-002	4.4958e-007
17216	5.058	0.18182	0.	-31.213
17217	5.15	0.18182	5.e-002	-5.4155e-007
17218	5.15	9.0909e-002	0.	-16.02
17219	4.9661	5.7273	0.	-51.105
17220	4.8741	5.8182	0.	-33.555
17221	4.9661	5.8182	5.e-002	-1.6253e-015
17222	4.9661	5.9091	0.	-17.271
17223	4.9661	5.5455	0.	-88.268
17224	4.8741	5.6364	0.	-72.663
17225	4.9661	5.6364	5.e-002	1.93e-006
17226	4.9661	5.3636	0.	-124.49
17227	4.8741	5.4545	0.	-110.92
17228	4.9661	5.4545	5.e-002	7.2186e-007
17229	4.9661	5.1818	0.	-159.59
17230	4.8741	5.2727	0.	-148.15
17231	4.9661	5.2727	5.e-002	-3.875e-015
17232	4.9661	5.	0.	-193.33
17233	4.8741	5.0909	0.	-184.13
17234	4.9661	5.0909	5.e-002	9.7184e-006
17235	4.9661	4.8182	0.	-225.4
17236	4.8741	4.9091	0.	-218.55
17237	4.9661	4.9091	5.e-002	6.4784e-007
17238	4.9661	4.6364	0.	-255.5
17239	4.8741	4.7273	0.	-251.08
17240	4.9661	4.7273	5.e-002	6.1256e-007
17241	4.9661	4.4545	0.	-283.34
17242	4.8741	4.5455	0.	-281.4
17243	4.9661	4.5455	5.e-002	1.1427e-006
17244	4.9661	4.2727	0.	-308.64
17245	4.8741	4.3636	0.	-309.23
17246	4.9661	4.3636	5.e-002	6.5911e-006
17247	4.9661	4.0909	0.	-331.14
17248	4.8741	4.1818	0.	-334.27
17249	4.9661	4.1818	5.e-002	9.4077e-007
17250	4.9661	3.9091	0.	-350.6
17251	4.8741	4.	0.	-356.26
17252	4.9661	4.	5.e-002	-2.8075e-006
17253	4.9661	3.7273	0.	-366.83
17254	4.8741	3.8182	0.	-374.96
17255	4.9661	3.8182	5.e-002	8.6285e-007
17256	4.9661	3.5455	0.	-379.63
17257	4.8741	3.6364	0.	-390.18
17258	4.9661	3.6364	5.e-002	5.4886e-007
17259	4.9661	3.3636	0.	-388.88
17260	4.8741	3.4545	0.	-401.74
17261	4.9661	3.4545	5.e-002	4.4856e-007
17262	4.9661	3.1818	0.	-394.47
17263	4.8741	3.2727	0.	-409.52
17264	4.9661	3.2727	5.e-002	2.7223e-007
17265	4.9661	3.	0.	-396.34
17266	4.8741	3.0909	0.	-413.43
17267	4.9661	3.0909	5.e-002	1.0141e-007
17268	4.9661	2.8182	0.	-394.47
17269	4.8741	2.9091	0.	-413.43
17270	4.9661	2.9091	5.e-002	-1.0394e-007
17271	4.9661	2.6364	0.	-388.88
17272	4.8741	2.7273	0.	-409.52
17273	4.9661	2.7273	5.e-002	-3.6297e-007
17274	4.9661	2.4545	0.	-379.63
17275	4.8741	2.5455	0.	-401.74
17276	4.9661	2.5455	5.e-002	3.2243e-006
17277	4.9661	2.2727	0.	-366.83
17278	4.8741	2.3636	0.	-390.18
17279	4.9661	2.3636	5.e-002	-6.8607e-007
17280	4.9661	2.0909	0.	-350.6
17281	4.8741	2.1818	0.	-374.96
17282	4.9661	2.1818	5.e-002	-6.9028e-007
17283	4.9661	1.9091	0.	-331.14
17284	4.8741	2.	0.	-356.26
17285	4.9661	2.	5.e-002	-8.2131e-007
17286	4.9661	1.7273	0.	-308.64
17287	4.8741	1.8182	0.	-334.27
17288	4.9661	1.8182	5.e-002	-9.4077e-007
17289	4.9661	1.5455	0.	-283.34
17290	4.8741	1.6364	0.	-309.23
17291	4.9661	1.6364	5.e-002	-1.048e-006
17292	4.9661	1.3636	0.	-255.5
17293	4.8741	1.4545	0.	-281.4
17294	4.9661	1.4545	5.e-002	-1.1427e-006
17295	4.9661	1.1818	0.	-225.4
17296	4.8741	1.2727	0.	-251.08
17297	4.9661	1.2727	5.e-002	-1.5307e-007
17298	4.9661	1.	0.	-193.33
17299	4.8741	1.0909	0.	-218.55
17300	4.9661	1.0909	5.e-002	-6.4784e-007
17301	4.9661	0.81818	0.	-159.59
17302	4.8741	0.90909	0.	-184.13
17303	4.9661	0.90909	5.e-002	9.9881e-006
17304	4.9661	0.63636	0.	-124.49
17305	4.8741	0.72727	0.	-148.15
17306	4.9661	0.72727	5.e-002	-1.5228e-015
17307	4.9661	0.45455	0.	-88.268
17308	4.8741	0.54545	0.	-110.92
17309	4.9661	0.54545	5.e-002	-3.6093e-007
17310	4.9661	0.27273	0.	-51.105
17311	4.8741	0.36364	0.	-72.663
17312	4.9661	0.36364	5.e-002	4.8396e-008
17313	4.8741	0.18182	0.	-33.555
17314	4.9661	0.18182	5.e-002	3.2892e-008
17315	4.9661	9.0909e-002	0.	-17.271
17316	4.7821	5.7273	0.	-55.01
17317	4.6902	5.8182	0.	-35.898
17318	4.7821	5.8182	5.e-002	1.173e-005
17319	4.7821	5.9091	0.	-18.51
17320	4.7821	5.5455	0.	-95.281
17321	4.6902	5.6364	0.	-78.271
17322	4.7821	5.6364	5.e-002	-1.5632e-015
17323	4.7821	5.3636	0.	-134.55
17324	4.6902	5.4545	0.	-119.74
17325	4.7821	5.4545	5.e-002	1.5235e-006
17326	4.7821	5.1818	0.	-172.66
17327	4.6902	5.2727	0.	-160.12
17328	4.7821	5.2727	5.e-002	7.3649e-007
17329	4.7821	5.	0.	-209.32
17330	4.6902	5.0909	0.	-199.2
17331	4.7821	5.0909	5.e-002	7.122e-007
17332	4.7821	4.8182	0.	-244.2
17333	4.6902	4.9091	0.	-236.62
17334	4.7821	4.9091	5.e-002	-1.5617e-015
17335	4.7821	4.6364	0.	-276.96
17336	4.6902	4.7273	0.	-272.01
17337	4.7821	4.7273	5.e-002	9.3795e-006
17338	4.7821	4.4545	0.	-307.28
17339	4.6902	4.5455	0.	-305.04
17340	4.7821	4.5455	5.e-002	1.2089e-006
17341	4.7821	4.2727	0.	-334.85
17342	4.6902	4.3636	0.	-335.35
17343	4.7821	4.3636	5.e-002	1.6666e-006
17344	4.7821	4.0909	0.	-359.38
17345	4.6902	4.1818	0.	-362.65
17346	4.7821	4.1818	5.e-002	4.9974e-007
17347	4.7821	3.9091	0.	-380.61
17348	4.6902	4.	0.	-386.63
17349	4.7821	4.	5.e-002	-2.2912e-006
17350	4.7821	3.7273	0.	-398.31
17351	4.6902	3.8182	0.	-407.04
17352	4.7821	3.8182	5.e-002	1.104e-006
17353	4.7821	3.5455	0.	-412.29
17354	4.6902	3.6364	0.	-423.64
17355	4.7821	3.6364	5.e-002	5.8604e-007
17356	4.7821	3.3636	0.	-422.39
17357	4.6902	3.4545	0.	-436.26
17358	4.7821	3.4545	5.e-002	5.3275e-007
17359	4.7821	3.1818	0.	-428.49
17360	4.6902	3.2727	0.	-444.75
17361	4.7821	3.2727	5.e-002	3.5592e-007
17362	4.7821	3.	0.	-430.53
17363	4.6902	3.0909	0.	-449.02
17364	4.7821	3.0909	5.e-002	1.1123e-007
17365	4.7821	2.8182	0.	-428.49
17366	4.6902	2.9091	0.	-449.02
17367	4.7821	2.9091	5.e-002	-1.1123e-007
17368	4.7821	2.6364	0.	-422.39
17369	4.6902	2.7273	0.	-444.75
17370	4.7821	2.7273	5.e-002	-3.8828e-007
17371	4.7821	2.4545	0.	-412.29
17372	4.6902	2.5455	0.	-436.26
17373	4.7821	2.5455	5.e-002	-4.262e-007
17374	4.7821	2.2727	0.	-398.31
17375	4.6902	2.3636	0.	-423.64
17376	4.7821	2.3636	5.e-002	-7.3255e-007
17377	4.7821	2.0909	0.	-380.61
17378	4.6902	2.1818	0.	-407.04
17379	4.7821	2.1818	5.e-002	-9.1999e-007
17380	4.7821	1.9091	0.	-359.38
17381	4.6902	2.	0.	-386.63
17382	4.7821	2.	5.e-002	-1.3113e-006
17383	4.7821	1.7273	0.	-334.85
17384	4.6902	1.8182	0.	-362.65
17385	4.7821	1.8182	5.e-002	-4.9974e-007
17386	4.7821	1.5455	0.	-307.28
17387	4.6902	1.6364	0.	-335.35
17388	4.7821	1.6364	5.e-002	-1.6666e-006
17389	4.7821	1.3636	0.	-276.96
17390	4.6902	1.4545	0.	-305.04
17391	4.7821	1.4545	5.e-002	1.5693e-006
17392	4.7821	1.1818	0.	-244.2
17393	4.6902	1.2727	0.	-272.01
17394	4.7821	1.2727	5.e-002	6.793e-006
17395	4.7821	1.	0.	-209.32
17396	4.6902	1.0909	0.	-236.62
17397	4.7821	1.0909	5.e-002	-1.5617e-015
17398	4.7821	0.81818	0.	-172.66
17399	4.6902	0.90909	0.	-199.2
17400	4.7821	0.90909	5.e-002	-2.1366e-006
17401	4.7821	0.63636	0.	-134.55
17402	4.6902	0.72727	0.	-160.12
17403	4.7821	0.72727	5.e-002	-7.3649e-007
17404	4.7821	0.45455	0.	-95.281
17405	4.6902	0.54545	0.	-119.74
17406	4.7821	0.54545	5.e-002	-7.5586e-007
17407	4.7821	0.27273	0.	-55.01
17408	4.6902	0.36364	0.	-78.271
17409	4.7821	0.36364	5.e-002	-7.6786e-007
17410	4.6902	0.18182	0.	-35.898
17411	4.7821	0.18182	5.e-002	1.1007e-005
17412	4.7821	9.0909e-002	0.	-18.51
17413	4.5982	5.7273	0.	-59.038
17414	4.5062	5.8182	0.	-38.217
17415	4.5982	5.8182	5.e-002	3.937e-007
17416	4.5982	5.9091	0.	-19.722
17417	4.5982	5.5455	0.	-102.68
17418	4.5062	5.6364	0.	-84.137
17419	4.5982	5.6364	5.e-002	-1.6091e-015
17420	4.5982	5.3636	0.	-145.27
17421	4.5062	5.4545	0.	-129.08
17422	4.5982	5.4545	5.e-002	1.3372e-005
17423	4.5982	5.1818	0.	-186.63
17424	4.5062	5.2727	0.	-172.89
17425	4.5982	5.2727	5.e-002	2.6591e-005
17426	4.5982	5.	0.	-226.47
17427	4.5062	5.0909	0.	-215.34
17428	4.5982	5.0909	5.e-002	1.2271e-005
17429	4.5982	4.8182	0.	-264.4
17430	4.5062	4.9091	0.	-256.02
17431	4.5982	4.9091	5.e-002	1.4337e-006
17432	4.5982	4.6364	0.	-300.06
17433	4.5062	4.7273	0.	-294.54
17434	4.5982	4.7273	5.e-002	1.0511e-005
17435	4.5982	4.4545	0.	-333.09
17436	4.5062	4.5455	0.	-330.5
17437	4.5982	4.5455	5.e-002	9.748e-006
17438	4.5982	4.2727	0.	-363.14
17439	4.5062	4.3636	0.	-363.54
17440	4.5982	4.3636	5.e-002	1.7632e-006
17441	4.5982	4.0909	0.	-389.89
17442	4.5062	4.1818	0.	-393.3
17443	4.5982	4.1818	5.e-002	1.0597e-006
17444	4.5982	3.9091	0.	-413.05
17445	4.5062	4.	0.	-419.45
17446	4.5982	4.	5.e-002	9.2884e-007
17447	4.5982	3.7273	0.	-432.37
17448	4.5062	3.8182	0.	-441.72
17449	4.5982	3.8182	5.e-002	-2.4713e-006
17450	4.5982	3.5455	0.	-447.62
17451	4.5062	3.6364	0.	-459.83
17452	4.5982	3.6364	5.e-002	7.8091e-007
17453	4.5982	3.3636	0.	-458.64
17454	4.5062	3.4545	0.	-473.61
17455	4.5982	3.4545	5.e-002	1.3354e-006
17456	4.5982	3.1818	0.	-465.31
17457	4.5062	3.2727	0.	-482.88
17458	4.5982	3.2727	5.e-002	3.1105e-007
17459	4.5982	3.	0.	-467.54
17460	4.5062	3.0909	0.	-487.54
17461	4.5982	3.0909	5.e-002	1.1886e-007
17462	4.5982	2.8182	0.	-465.31
17463	4.5062	2.9091	0.	-487.54
17464	4.5982	2.9091	5.e-002	-1.1886e-007
17465	4.5982	2.6364	0.	-458.64
17466	4.5062	2.7273	0.	-482.88
17467	4.5982	2.7273	5.e-002	-3.4561e-007
17468	4.5982	2.4545	0.	-447.62
17469	4.5062	2.5455	0.	-473.61
17470	4.5982	2.5455	5.e-002	4.2566e-007
17471	4.5982	2.2727	0.	-432.37
17472	4.5062	2.3636	0.	-459.83
17473	4.5982	2.3636	5.e-002	-9.3709e-007
17474	4.5982	2.0909	0.	-413.05
17475	4.5062	2.1818	0.	-441.72
17476	4.5982	2.1818	5.e-002	-1.1751e-006
17477	4.5982	1.9091	0.	-389.89
17478	4.5062	2.	0.	-419.45
17479	4.5982	2.	5.e-002	-9.2884e-007
17480	4.5982	1.7273	0.	-363.14
17481	4.5062	1.8182	0.	-393.3
17482	4.5982	1.8182	5.e-002	-1.0597e-006
17483	4.5982	1.5455	0.	-333.09
17484	4.5062	1.6364	0.	-363.54
17485	4.5982	1.6364	5.e-002	-1.1755e-006
17486	4.5982	1.3636	0.	-300.06
17487	4.5062	1.4545	0.	-330.5
17488	4.5982	1.4545	5.e-002	-1.9139e-006
17489	4.5982	1.1818	0.	-264.4
17490	4.5062	1.2727	0.	-294.54
17491	4.5982	1.2727	5.e-002	-6.8087e-007
17492	4.5982	1.	0.	-226.47
17493	4.5062	1.0909	0.	-256.02
17494	4.5982	1.0909	5.e-002	-1.4337e-006
17495	4.5982	0.81818	0.	-186.63
17496	4.5062	0.90909	0.	-215.34
17497	4.5982	0.90909	5.e-002	8.0075e-007
17498	4.5982	0.63636	0.	-145.27
17499	4.5062	0.72727	0.	-172.89
17500	4.5982	0.72727	5.e-002	1.1755e-005
17501	4.5982	0.45455	0.	-102.68
17502	4.5062	0.54545	0.	-129.08
17503	4.5982	0.54545	5.e-002	-7.8892e-007
17504	4.5982	0.27273	0.	-59.038
17505	4.5062	0.36364	0.	-84.137
17506	4.5982	0.36364	5.e-002	-5.5139e-008
17507	4.5062	0.18182	0.	-38.217
17508	4.5982	0.18182	5.e-002	-7.2368e-007
17509	4.5982	9.0909e-002	0.	-19.722
17510	4.4143	5.7273	0.	-63.174
17511	4.3223	5.8182	0.	-40.481
17512	4.4143	5.8182	5.e-002	3.9338e-007
17513	4.4143	5.9091	0.	-20.886
17514	4.4143	5.5455	0.	-110.48
17515	4.3223	5.6364	0.	-90.257
17516	4.4143	5.6364	5.e-002	2.2576e-006
17517	4.4143	5.3636	0.	-156.66
17518	4.3223	5.4545	0.	-138.96
17519	4.4143	5.4545	5.e-002	1.6412e-006
17520	4.4143	5.1818	0.	-201.56
17521	4.3223	5.2727	0.	-186.51
17522	4.4143	5.2727	5.e-002	1.606e-006
17523	4.4143	5.	0.	-244.86
17524	4.3223	5.0909	0.	-232.62
17525	4.4143	5.0909	5.e-002	1.5599e-006
17526	4.4143	4.8182	0.	-286.12
17527	4.3223	4.9091	0.	-276.86
17528	4.4143	4.9091	5.e-002	1.5017e-006
17529	4.4143	4.6364	0.	-324.95
17530	4.3223	4.7273	0.	-318.78
17531	4.4143	4.7273	5.e-002	1.2467e-005
17532	4.4143	4.4545	0.	-360.93
17533	4.3223	4.5455	0.	-357.95
17534	4.4143	4.5455	5.e-002	9.5247e-006
17535	4.4143	4.2727	0.	-393.69
17536	4.3223	4.3636	0.	-393.96
17537	4.4143	4.3636	5.e-002	7.9587e-006
17538	4.4143	4.0909	0.	-422.86
17539	4.3223	4.1818	0.	-426.4
17540	4.4143	4.1818	5.e-002	1.1212e-006
17541	4.4143	3.9091	0.	-448.12
17542	4.3223	4.	0.	-454.92
17543	4.4143	4.	5.e-002	6.2103e-006
17544	4.4143	3.7273	0.	-469.19
17545	4.3223	3.8182	0.	-479.2
17546	4.4143	3.8182	5.e-002	4.3067e-006
17547	4.4143	3.5455	0.	-485.84
17548	4.3223	3.6364	0.	-498.97
17549	4.4143	3.6364	5.e-002	2.7443e-006
17550	4.4143	3.3636	0.	-497.86
17551	4.3223	3.4545	0.	-513.99
17552	4.4143	3.4545	5.e-002	4.846e-007
17553	4.4143	3.1818	0.	-505.13
17554	4.3223	3.2727	0.	-524.11
17555	4.4143	3.2727	5.e-002	4.4221e-007
17556	4.4143	3.	0.	-507.57
17557	4.3223	3.0909	0.	-529.19
17558	4.4143	3.0909	5.e-002	1.3607e-007
17559	4.4143	2.8182	0.	-505.13
17560	4.3223	2.9091	0.	-529.19
17561	4.4143	2.9091	5.e-002	-1.3607e-007
17562	4.4143	2.6364	0.	-497.86
17563	4.3223	2.7273	0.	-524.11
17564	4.4143	2.7273	5.e-002	-4.0536e-007
17565	4.4143	2.4545	0.	-485.84
17566	4.3223	2.5455	0.	-513.99
17567	4.4143	2.5455	5.e-002	-6.0575e-007
17568	4.4143	2.2727	0.	-469.19
17569	4.3223	2.3636	0.	-498.97
17570	4.4143	2.3636	5.e-002	-6.6474e-007
17571	4.4143	2.0909	0.	-448.12
17572	4.3223	2.1818	0.	-479.2
17573	4.4143	2.1818	5.e-002	-1.6645e-006
17574	4.4143	1.9091	0.	-422.86
17575	4.3223	2.	0.	-454.92
17576	4.4143	2.	5.e-002	7.7813e-006
17577	4.4143	1.7273	0.	-393.69
17578	4.3223	1.8182	0.	-426.4
17579	4.4143	1.8182	5.e-002	-5.6061e-007
17580	4.4143	1.5455	0.	-360.93
17581	4.3223	1.6364	0.	-393.96
17582	4.4143	1.6364	5.e-002	-6.2033e-007
17583	4.4143	1.3636	0.	-324.95
17584	4.3223	1.4545	0.	-357.95
17585	4.4143	1.4545	5.e-002	7.5097e-006
17586	4.4143	1.1818	0.	-286.12
17587	4.3223	1.2727	0.	-318.78
17588	4.4143	1.2727	5.e-002	-1.43e-006
17589	4.4143	1.	0.	-244.86
17590	4.3223	1.0909	0.	-276.86
17591	4.4143	1.0909	5.e-002	-1.6464e-015
17592	4.4143	0.81818	0.	-201.56
17593	4.3223	0.90909	0.	-232.62
17594	4.4143	0.90909	5.e-002	-1.5599e-006
17595	4.4143	0.63636	0.	-156.66
17596	4.3223	0.72727	0.	-186.51
17597	4.4143	0.72727	5.e-002	-1.606e-006
17598	4.4143	0.45455	0.	-110.48
17599	4.3223	0.54545	0.	-138.96
17600	4.4143	0.54545	5.e-002	-1.6411e-015
17601	4.4143	0.27273	0.	-63.174
17602	4.3223	0.36364	0.	-90.257
17603	4.4143	0.36364	5.e-002	-1.6587e-015
17604	4.3223	0.18182	0.	-40.481
17605	4.4143	0.18182	5.e-002	-2.0649e-015
17606	4.4143	9.0909e-002	0.	-20.886
17607	4.2304	5.7273	0.	-67.397
17608	4.1384	5.8182	0.	-42.654
17609	4.2304	5.8182	5.e-002	-2.2326e-015
17610	4.2304	5.9091	0.	-21.979
17611	4.2304	5.5455	0.	-118.68
17612	4.1384	5.6364	0.	-96.623
17613	4.2304	5.6364	5.e-002	-1.7121e-015
17614	4.2304	5.3636	0.	-168.76
17615	4.1384	5.4545	0.	-149.41
17616	4.2304	5.4545	5.e-002	1.701e-006
17617	4.2304	5.1818	0.	-217.51
17618	4.1384	5.2727	0.	-201.01
17619	4.2304	5.2727	5.e-002	3.1457e-005
17620	4.2304	5.	0.	-264.58
17621	4.1384	5.0909	0.	-251.11
17622	4.2304	5.0909	5.e-002	1.615e-005
17623	4.2304	4.8182	0.	-309.47
17624	4.1384	4.9091	0.	-299.23
17625	4.2304	4.9091	5.e-002	-1.6952e-015
17626	4.2304	4.6364	0.	-351.75
17627	4.1384	4.7273	0.	-344.87
17628	4.2304	4.7273	5.e-002	2.9946e-006
17629	4.2304	4.4545	0.	-390.95
17630	4.1384	4.5455	0.	-387.53
17631	4.2304	4.5455	5.e-002	2.821e-006
17632	4.2304	4.2727	0.	-426.65
17633	4.1384	4.3636	0.	-426.77
17634	4.2304	4.3636	5.e-002	1.3062e-006
17635	4.2304	4.0909	0.	-458.46
17636	4.1384	4.1818	0.	-462.14
17637	4.2304	4.1818	5.e-002	1.1835e-006
17638	4.2304	3.9091	0.	-486.01
17639	4.1384	4.	0.	-493.23
17640	4.2304	4.	5.e-002	5.9979e-006
17641	4.2304	3.7273	0.	-509.
17642	4.1384	3.8182	0.	-519.71
17643	4.2304	3.8182	5.e-002	1.3234e-006
17644	4.2304	3.5455	0.	-527.15
17645	4.1384	3.6364	0.	-541.26
17646	4.2304	3.6364	5.e-002	1.4117e-006
17647	4.2304	3.3636	0.	-540.27
17648	4.1384	3.4545	0.	-557.64
17649	4.2304	3.4545	5.e-002	6.4403e-007
17650	4.2304	3.1818	0.	-548.2
17651	4.1384	3.2727	0.	-568.67
17652	4.2304	3.2727	5.e-002	3.9213e-007
17653	4.2304	3.	0.	-550.85
17654	4.1384	3.0909	0.	-574.22
17655	4.2304	3.0909	5.e-002	1.3827e-007
17656	4.2304	2.8182	0.	-548.2
17657	4.1384	2.9091	0.	-574.22
17658	4.2304	2.9091	5.e-002	-1.3827e-007
17659	4.2304	2.6364	0.	-540.27
17660	4.1384	2.7273	0.	-568.67
17661	4.2304	2.7273	5.e-002	-3.9213e-007
17662	4.2304	2.4545	0.	-527.15
17663	4.1384	2.5455	0.	-557.64
17664	4.2304	2.5455	5.e-002	-5.1522e-007
17665	4.2304	2.2727	0.	-509.
17666	4.1384	2.3636	0.	-541.26
17667	4.2304	2.3636	5.e-002	-7.0585e-007
17668	4.2304	2.0909	0.	-486.01
17669	4.1384	2.1818	0.	-519.71
17670	4.2304	2.1818	5.e-002	-1.3234e-006
17671	4.2304	1.9091	0.	-458.46
17672	4.1384	2.	0.	-493.23
17673	4.2304	2.	5.e-002	-1.5629e-006
17674	4.2304	1.7273	0.	-426.65
17675	4.1384	1.8182	0.	-462.14
17676	4.2304	1.8182	5.e-002	-1.1835e-006
17677	4.2304	1.5455	0.	-390.95
17678	4.1384	1.6364	0.	-426.77
17679	4.2304	1.6364	5.e-002	-1.3062e-006
17680	4.2304	1.3636	0.	-351.75
17681	4.1384	1.4545	0.	-387.53
17682	4.2304	1.4545	5.e-002	-1.4105e-006
17683	4.2304	1.1818	0.	-309.47
17684	4.1384	1.2727	0.	-344.87
17685	4.2304	1.2727	5.e-002	-1.4973e-006
17686	4.2304	1.	0.	-264.58
17687	4.1384	1.0909	0.	-299.23
17688	4.2304	1.0909	5.e-002	-1.6952e-015
17689	4.2304	0.81818	0.	-217.51
17690	4.1384	0.90909	0.	-251.11
17691	4.2304	0.90909	5.e-002	-1.6947e-015
17692	4.2304	0.63636	0.	-168.76
17693	4.1384	0.72727	0.	-201.01
17694	4.2304	0.72727	5.e-002	-5.0052e-006
17695	4.2304	0.45455	0.	-118.68
17696	4.1384	0.54545	0.	-149.41
17697	4.2304	0.54545	5.e-002	-4.8594e-015
17698	4.2304	0.27273	0.	-67.397
17699	4.1384	0.36364	0.	-96.623
17700	4.2304	0.36364	5.e-002	-1.7121e-015
17701	4.1384	0.18182	0.	-42.654
17702	4.2304	0.18182	5.e-002	-2.2326e-015
17703	4.2304	9.0909e-002	0.	-21.979
17704	4.0464	5.7273	0.	-71.683
17705	3.9545	5.8182	0.	-44.693
17706	4.0464	5.8182	5.e-002	3.9239e-007
17707	4.0464	5.9091	0.	-22.973
17708	4.0464	5.5455	0.	-127.28
17709	3.9545	5.6364	0.	-103.22
17710	4.0464	5.6364	5.e-002	-8.362e-015
17711	4.0464	5.3636	0.	-181.6
17712	3.9545	5.4545	0.	-160.44
17713	4.0464	5.4545	5.e-002	-1.7409e-015
17714	4.0464	5.1818	0.	-234.55
17715	3.9545	5.2727	0.	-216.45
17716	4.0464	5.2727	5.e-002	-1.7446e-015
17717	4.0464	5.	0.	-285.71
17718	3.9545	5.0909	0.	-270.91
17719	4.0464	5.0909	5.e-002	1.6857e-006
17720	4.0464	4.8182	0.	-334.57
17721	3.9545	4.9091	0.	-323.25
17722	4.0464	4.9091	5.e-002	2.9438e-005
17723	4.0464	4.6364	0.	-380.61
17724	3.9545	4.7273	0.	-372.94
17725	4.0464	4.7273	5.e-002	1.5629e-006
17726	4.0464	4.4545	0.	-423.33
17727	3.9545	4.5455	0.	-419.42
17728	4.0464	4.5455	5.e-002	-1.7435e-015
17729	4.0464	4.2727	0.	-462.24
17730	3.9545	4.3636	0.	-462.18
17731	4.0464	4.3636	5.e-002	1.3715e-006
17732	4.0464	4.0909	0.	-496.91
17733	3.9545	4.1818	0.	-500.72
17734	4.0464	4.1818	5.e-002	-1.7322e-015
17735	4.0464	3.9091	0.	-526.95
17736	3.9545	4.	0.	-534.61
17737	4.0464	4.	5.e-002	1.0996e-006
17738	4.0464	3.7273	0.	-552.
17739	3.9545	3.8182	0.	-563.47
17740	4.0464	3.8182	5.e-002	9.33e-007
17741	4.0464	3.5455	0.	-571.79
17742	3.9545	3.6364	0.	-586.95
17743	4.0464	3.6364	5.e-002	1.1216e-006
17744	4.0464	3.3636	0.	-586.09
17745	3.9545	3.4545	0.	-604.8
17746	4.0464	3.4545	5.e-002	1.9625e-006
17747	4.0464	3.1818	0.	-594.74
17748	3.9545	3.2727	0.	-616.81
17749	4.0464	3.2727	5.e-002	4.9953e-007
17750	4.0464	3.	0.	-597.63
17751	3.9545	3.0909	0.	-622.85
17752	4.0464	3.0909	5.e-002	1.4684e-007
17753	4.0464	2.8182	0.	-594.74
17754	3.9545	2.9091	0.	-622.85
17755	4.0464	2.9091	5.e-002	-1.4684e-007
17756	4.0464	2.6364	0.	-586.09
17757	3.9545	2.7273	0.	-616.81
17758	4.0464	2.7273	5.e-002	-5.8278e-007
17759	4.0464	2.4545	0.	-571.79
17760	3.9545	2.5455	0.	-604.8
17761	4.0464	2.5455	5.e-002	5.9629e-007
17762	4.0464	2.2727	0.	-552.
17763	3.9545	2.3636	0.	-586.95
17764	4.0464	2.3636	5.e-002	-3.7386e-007
17765	4.0464	2.0909	0.	-526.95
17766	3.9545	2.1818	0.	-563.47
17767	4.0464	2.1818	5.e-002	-9.33e-007
17768	4.0464	1.9091	0.	-496.91
17769	3.9545	2.	0.	-534.61
17770	4.0464	2.	5.e-002	-1.6494e-006
17771	4.0464	1.7273	0.	-462.24
17772	3.9545	1.8182	0.	-500.72
17773	4.0464	1.8182	5.e-002	-1.7322e-015
17774	4.0464	1.5455	0.	-423.33
17775	3.9545	1.6364	0.	-462.18
17776	4.0464	1.6364	5.e-002	-1.3715e-006
17777	4.0464	1.3636	0.	-380.61
17778	3.9545	1.4545	0.	-419.42
17779	4.0464	1.4545	5.e-002	-1.4767e-006
17780	4.0464	1.1818	0.	-334.57
17781	3.9545	1.2727	0.	-372.94
17782	4.0464	1.2727	5.e-002	-1.7472e-015
17783	4.0464	1.	0.	-285.71
17784	3.9545	1.0909	0.	-323.25
17785	4.0464	1.0909	5.e-002	-3.2637e-006
17786	4.0464	0.81818	0.	-234.55
17787	3.9545	0.90909	0.	-270.91
17788	4.0464	0.90909	5.e-002	-1.6857e-006
17789	4.0464	0.63636	0.	-181.6
17790	3.9545	0.72727	0.	-216.45
17791	4.0464	0.72727	5.e-002	-1.7446e-015
17792	4.0464	0.45455	0.	-127.28
17793	3.9545	0.54545	0.	-160.44
17794	4.0464	0.54545	5.e-002	-1.756e-006
17795	4.0464	0.27273	0.	-71.683
17796	3.9545	0.36364	0.	-103.22
17797	4.0464	0.36364	5.e-002	-1.7697e-015
17798	3.9545	0.18182	0.	-44.693
17799	4.0464	0.18182	5.e-002	-2.4116e-015
17800	4.0464	9.0909e-002	0.	-22.973
17801	3.8625	5.7273	0.	-76.002
17802	3.7705	5.8182	0.	-46.549
17803	3.8625	5.8182	5.e-002	3.9167e-007
17804	3.8625	5.9091	0.	-23.835
17805	3.8625	5.5455	0.	-136.3
17806	3.7705	5.6364	0.	-110.05
17807	3.8625	5.6364	5.e-002	2.0391e-005
17808	3.8625	5.3636	0.	-195.22
17809	3.7705	5.4545	0.	-172.09
17810	3.8625	5.4545	5.e-002	1.2618e-006
17811	3.8625	5.1818	0.	-252.74
17812	3.7705	5.2727	0.	-232.89
17813	3.8625	5.2727	5.e-002	-1.8022e-015
17814	3.8625	5.	0.	-308.38
17815	3.7705	5.0909	0.	-292.1
17816	3.8625	5.0909	5.e-002	1.7425e-006
17817	3.8625	4.8182	0.	-361.56
17818	3.7705	4.9091	0.	-349.06
17819	3.8625	4.9091	5.e-002	1.6922e-006
17820	3.8625	4.6364	0.	-411.71
17821	3.7705	4.7273	0.	-403.17
17822	3.8625	4.7273	5.e-002	1.626e-006
17823	3.8625	4.4545	0.	-458.24
17824	3.7705	4.5455	0.	-453.8
17825	3.8625	4.5455	5.e-002	-1.803e-015
17826	3.8625	4.2727	0.	-500.65
17827	3.7705	4.3636	0.	-500.39
17828	3.8625	4.3636	5.e-002	1.4359e-006
17829	3.8625	4.0909	0.	-538.43
17830	3.7705	4.1818	0.	-542.38
17831	3.8625	4.1818	5.e-002	1.3081e-006
17832	3.8625	3.9091	0.	-571.15
17833	3.7705	4.	0.	-579.3
17834	3.8625	4.	5.e-002	7.417e-006
17835	3.8625	3.7273	0.	-598.45
17836	3.7705	3.8182	0.	-610.71
17837	3.8625	3.8182	5.e-002	1.476e-006
17838	3.8625	3.5455	0.	-620.
17839	3.7705	3.6364	0.	-636.28
17840	3.8625	3.6364	5.e-002	1.5798e-006
17841	3.8625	3.3636	0.	-635.57
17842	3.7705	3.4545	0.	-655.7
17843	3.8625	3.4545	5.e-002	7.2253e-007
17844	3.8625	3.1818	0.	-644.98
17845	3.7705	3.2727	0.	-668.76
17846	3.8625	3.2727	5.e-002	4.4067e-007
17847	3.8625	3.	0.	-648.13
17848	3.7705	3.0909	0.	-675.33
17849	3.8625	3.0909	5.e-002	1.5551e-007
17850	3.8625	2.8182	0.	-644.98
17851	3.7705	2.9091	0.	-675.33
17852	3.8625	2.9091	5.e-002	-1.5551e-007
17853	3.8625	2.6364	0.	-635.57
17854	3.7705	2.7273	0.	-668.76
17855	3.8625	2.7273	5.e-002	-4.4067e-007
17856	3.8625	2.4545	0.	-620.
17857	3.7705	2.5455	0.	-655.7
17858	3.8625	2.5455	5.e-002	-8.6704e-007
17859	3.8625	2.2727	0.	-598.45
17860	3.7705	2.3636	0.	-636.28
17861	3.8625	2.3636	5.e-002	-1.771e-015
17862	3.8625	2.0909	0.	-571.15
17863	3.7705	2.1818	0.	-610.71
17864	3.8625	2.1818	5.e-002	-4.92e-007
17865	3.8625	1.9091	0.	-538.43
17866	3.7705	2.	0.	-579.3
17867	3.8625	2.	5.e-002	-2.3146e-006
17868	3.8625	1.7273	0.	-500.65
17869	3.7705	1.8182	0.	-542.38
17870	3.8625	1.8182	5.e-002	-1.7909e-015
17871	3.8625	1.5455	0.	-458.24
17872	3.7705	1.6364	0.	-500.39
17873	3.8625	1.6364	5.e-002	-1.4359e-006
17874	3.8625	1.3636	0.	-411.71
17875	3.7705	1.4545	0.	-453.8
17876	3.8625	1.4545	5.e-002	-1.5413e-006
17877	3.8625	1.1818	0.	-361.56
17878	3.7705	1.2727	0.	-403.17
17879	3.8625	1.2727	5.e-002	-1.8067e-015
17880	3.8625	1.	0.	-308.38
17881	3.7705	1.0909	0.	-349.06
17882	3.8625	1.0909	5.e-002	-1.6922e-006
17883	3.8625	0.81818	0.	-252.74
17884	3.7705	0.90909	0.	-292.1
17885	3.8625	0.90909	5.e-002	-1.7425e-006
17886	3.8625	0.63636	0.	-195.22
17887	3.7705	0.72727	0.	-232.89
17888	3.8625	0.72727	5.e-002	-1.8022e-015
17889	3.8625	0.45455	0.	-136.3
17890	3.7705	0.54545	0.	-172.09
17891	3.8625	0.54545	5.e-002	-1.7976e-015
17892	3.8625	0.27273	0.	-76.002
17893	3.7705	0.36364	0.	-110.05
17894	3.8625	0.36364	5.e-002	6.3506e-007
17895	3.7705	0.18182	0.	-46.549
17896	3.8625	0.18182	5.e-002	-2.6024e-015
17897	3.8625	9.0909e-002	0.	-23.835
17898	3.6786	5.7273	0.	-80.319
17899	3.5866	5.8182	0.	-48.163
17900	3.6786	5.8182	5.e-002	1.1018e-005
17901	3.6786	5.9091	0.	-24.526
17902	3.6786	5.5455	0.	-145.74
17903	3.5866	5.6364	0.	-117.08
17904	3.6786	5.6364	5.e-002	2.241e-005
17905	3.6786	5.3636	0.	-209.68
17906	3.5866	5.4545	0.	-184.36
17907	3.6786	5.4545	5.e-002	-1.8593e-015
17908	3.6786	5.1818	0.	-272.17
17909	3.5866	5.2727	0.	-250.41
17910	3.6786	5.2727	5.e-002	2.3517e-005
17911	3.6786	5.	0.	-332.71
17912	3.5866	5.0909	0.	-314.8
17913	3.6786	5.0909	5.e-002	-1.8713e-015
17914	3.6786	4.8182	0.	-390.6
17915	3.5866	4.9091	0.	-376.81
17916	3.6786	4.9091	5.e-002	1.7479e-006
17917	3.6786	4.6364	0.	-445.22
17918	3.5866	4.7273	0.	-435.74
17919	3.6786	4.7273	5.e-002	1.7918e-005
17920	3.6786	4.4545	0.	-495.92
17921	3.5866	4.5455	0.	-490.9
17922	3.6786	4.5455	5.e-002	-1.869e-015
17923	3.6786	4.2727	0.	-542.11
17924	3.5866	4.3636	0.	-541.64
17925	3.6786	4.3636	5.e-002	1.4985e-006
17926	3.6786	4.0909	0.	-583.25
17927	3.5866	4.1818	0.	-587.36
17928	3.6786	4.1818	5.e-002	9.2708e-006
17929	3.6786	3.9091	0.	-618.88
17930	3.5866	4.	0.	-627.53
17931	3.6786	4.	5.e-002	9.4135e-006
17932	3.6786	3.7273	0.	-648.58
17933	3.5866	3.8182	0.	-661.7
17934	3.6786	3.8182	5.e-002	1.552e-006
17935	3.6786	3.5455	0.	-672.03
17936	3.5866	3.6364	0.	-689.49
17937	3.6786	3.6364	5.e-002	1.6637e-006
17938	3.6786	3.3636	0.	-688.96
17939	3.5866	3.4545	0.	-710.59
17940	3.6786	3.4545	5.e-002	9.1416e-007
17941	3.6786	3.1818	0.	-699.19
17942	3.5866	3.2727	0.	-724.78
17943	3.6786	3.2727	5.e-002	4.6496e-007
17944	3.6786	3.	0.	-702.61
17945	3.5866	3.0909	0.	-731.91
17946	3.6786	3.0909	5.e-002	1.7196e-007
17947	3.6786	2.8182	0.	-699.19
17948	3.5866	2.9091	0.	-731.91
17949	3.6786	2.9091	5.e-002	-1.7196e-007
17950	3.6786	2.6364	0.	-688.96
17951	3.5866	2.7273	0.	-724.78
17952	3.6786	2.7273	5.e-002	-5.5795e-007
17953	3.6786	2.4545	0.	-672.03
17954	3.5866	2.5455	0.	-710.59
17955	3.6786	2.5455	5.e-002	-1.2189e-006
17956	3.6786	2.2727	0.	-648.58
17957	3.5866	2.3636	0.	-689.49
17958	3.6786	2.3636	5.e-002	-4.1594e-007
17959	3.6786	2.0909	0.	-618.88
17960	3.5866	2.1818	0.	-661.7
17961	3.6786	2.1818	5.e-002	-1.552e-006
17962	3.6786	1.9091	0.	-583.25
17963	3.5866	2.	0.	-627.53
17964	3.6786	2.	5.e-002	5.7704e-006
17965	3.6786	1.7273	0.	-542.11
17966	3.5866	1.8182	0.	-587.36
17967	3.6786	1.8182	5.e-002	5.1633e-006
17968	3.6786	1.5455	0.	-495.92
17969	3.5866	1.6364	0.	-541.64
17970	3.6786	1.6364	5.e-002	-2.997e-006
17971	3.6786	1.3636	0.	-445.22
17972	3.5866	1.4545	0.	-490.9
17973	3.6786	1.4545	5.e-002	-1.6033e-006
17974	3.6786	1.1818	0.	-390.6
17975	3.5866	1.2727	0.	-435.74
17976	3.6786	1.2727	5.e-002	-1.6855e-006
17977	3.6786	1.	0.	-332.71
17978	3.5866	1.0909	0.	-376.81
17979	3.6786	1.0909	5.e-002	-1.8736e-015
17980	3.6786	0.81818	0.	-272.17
17981	3.5866	0.90909	0.	-314.8
17982	3.6786	0.90909	5.e-002	-1.7936e-006
17983	3.6786	0.63636	0.	-209.68
17984	3.5866	0.72727	0.	-250.41
17985	3.6786	0.72727	5.e-002	1.9865e-005
17986	3.6786	0.45455	0.	-145.74
17987	3.5866	0.54545	0.	-184.36
17988	3.6786	0.54545	5.e-002	-1.8593e-015
17989	3.6786	0.27273	0.	-80.319
17990	3.5866	0.36364	0.	-117.08
17991	3.6786	0.36364	5.e-002	-1.898e-015
17992	3.5866	0.18182	0.	-48.163
17993	3.6786	0.18182	5.e-002	-1.0764e-006
17994	3.6786	9.0909e-002	0.	-24.526
17995	3.4946	5.7273	0.	-84.594
17996	3.4027	5.8182	0.	-49.47
17997	3.4946	5.8182	5.e-002	2.2331e-005
17998	3.4946	5.9091	0.	-25.001
17999	3.4946	5.5455	0.	-155.6
18000	3.4027	5.6364	0.	-124.31
18001	3.4946	5.6364	5.e-002	1.1389e-006
18002	3.4946	5.3636	0.	-225.01
18003	3.4027	5.4545	0.	-197.31
18004	3.4946	5.4545	5.e-002	2.5294e-005
18005	3.4946	5.1818	0.	-292.95
18006	3.4027	5.2727	0.	-269.09
18007	3.4946	5.2727	5.e-002	2.4024e-005
18008	3.4946	5.	0.	-358.83
18009	3.4027	5.0909	0.	-339.16
18010	3.4946	5.0909	5.e-002	2.2332e-005
18011	3.4946	4.8182	0.	-421.88
18012	3.4027	4.9091	0.	-406.68
18013	3.4946	4.9091	5.e-002	-2.5706e-015
18014	3.4946	4.6364	0.	-481.37
18015	3.4027	4.7273	0.	-470.87
18016	3.4946	4.7273	5.e-002	1.977e-005
18017	3.4946	4.4545	0.	-536.59
18018	3.4027	4.5455	0.	-530.95
18019	3.4946	4.5455	5.e-002	-1.9427e-015
18020	3.4946	4.2727	0.	-586.88
18021	3.4027	4.3636	0.	-586.19
18022	3.4946	4.3636	5.e-002	-1.937e-015
18023	3.4946	4.0909	0.	-631.65
18024	3.4027	4.1818	0.	-635.93
18025	3.4946	4.1818	5.e-002	3.9509e-006
18026	3.4946	3.9091	0.	-670.39
18027	3.4027	4.	0.	-679.6
18028	3.4946	4.	5.e-002	-5.3906e-006
18029	3.4946	3.7273	0.	-702.67
18030	3.4027	3.8182	0.	-716.7
18031	3.4946	3.8182	5.e-002	2.1684e-006
18032	3.4946	3.5455	0.	-728.12
18033	3.4027	3.6364	0.	-746.85
18034	3.4946	3.6364	5.e-002	4.6934e-006
18035	3.4946	3.3636	0.	-746.5
18036	3.4027	3.4545	0.	-769.72
18037	3.4946	3.4545	5.e-002	2.7305e-006
18038	3.4946	3.1818	0.	-757.6
18039	3.4027	3.2727	0.	-785.09
18040	3.4946	3.2727	5.e-002	3.9096e-007
18041	3.4946	3.	0.	-761.31
18042	3.4027	3.0909	0.	-792.82
18043	3.4946	3.0909	5.e-002	1.6436e-007
18044	3.4946	2.8182	0.	-757.6
18045	3.4027	2.9091	0.	-792.82
18046	3.4946	2.9091	5.e-002	-1.6436e-007
18047	3.4946	2.6364	0.	-746.5
18048	3.4027	2.7273	0.	-785.09
18049	3.4946	2.7273	5.e-002	-6.8419e-007
18050	3.4946	2.4545	0.	-728.12
18051	3.4027	2.5455	0.	-769.72
18052	3.4946	2.5455	5.e-002	8.1001e-007
18053	3.4946	2.2727	0.	-702.67
18054	3.4027	2.3636	0.	-746.85
18055	3.4946	2.3636	5.e-002	1.638e-006
18056	3.4946	2.0909	0.	-670.39
18057	3.4027	2.1818	0.	-716.7
18058	3.4946	2.1818	5.e-002	-2.1684e-006
18059	3.4946	1.9091	0.	-631.65
18060	3.4027	2.	0.	-679.6
18061	3.4946	2.	5.e-002	-2.5401e-006
18062	3.4946	1.7273	0.	-586.88
18063	3.4027	1.8182	0.	-635.93
18064	3.4946	1.8182	5.e-002	-5.7135e-006
18065	3.4946	1.5455	0.	-536.59
18066	3.4027	1.6364	0.	-586.19
18067	3.4946	1.6364	5.e-002	-4.6758e-006
18068	3.4946	1.3636	0.	-481.37
18069	3.4027	1.4545	0.	-530.95
18070	3.4946	1.4545	5.e-002	1.0554e-005
18071	3.4946	1.1818	0.	-421.88
18072	3.4027	1.2727	0.	-470.87
18073	3.4946	1.2727	5.e-002	-1.7404e-006
18074	3.4946	1.	0.	-358.83
18075	3.4027	1.0909	0.	-406.68
18076	3.4946	1.0909	5.e-002	-3.5952e-006
18077	3.4946	0.81818	0.	-292.95
18078	3.4027	0.90909	0.	-339.16
18079	3.4946	0.90909	5.e-002	-3.6749e-006
18080	3.4946	0.63636	0.	-225.01
18081	3.4027	0.72727	0.	-269.09
18082	3.4946	0.72727	5.e-002	-1.935e-015
18083	3.4946	0.45455	0.	-155.6
18084	3.4027	0.54545	0.	-197.31
18085	3.4946	0.54545	5.e-002	-1.9267e-015
18086	3.4946	0.27273	0.	-84.594
18087	3.4027	0.36364	0.	-124.31
18088	3.4946	0.36364	5.e-002	-3.7421e-006
18089	3.4027	0.18182	0.	-49.47
18090	3.4946	0.18182	5.e-002	-1.4748e-006
18091	3.4946	9.0909e-002	0.	-25.001
18092	3.3107	5.7273	0.	-88.783
18093	3.2188	5.8182	0.	-50.396
18094	3.3107	5.8182	5.e-002	1.2128e-005
18095	3.3107	5.9091	0.	-25.207
18096	3.3107	5.5455	0.	-165.89
18097	3.2188	5.6364	0.	-131.71
18098	3.3107	5.6364	5.e-002	2.6955e-005
18099	3.3107	5.3636	0.	-241.29
18100	3.2188	5.4545	0.	-210.98
18101	3.3107	5.4545	5.e-002	-2.0006e-015
18102	3.3107	5.1818	0.	-315.2
18103	3.2188	5.2727	0.	-289.04
18104	3.3107	5.2727	5.e-002	3.7823e-006
18105	3.3107	5.	0.	-386.92
18106	3.2188	5.0909	0.	-365.33
18107	3.3107	5.0909	5.e-002	4.9401e-005
18108	3.3107	4.8182	0.	-455.61
18109	3.2188	4.9091	0.	-438.9
18110	3.3107	4.9091	5.e-002	-2.0273e-015
18111	3.3107	4.6364	0.	-520.41
18112	3.2188	4.7273	0.	-508.84
18113	3.3107	4.7273	5.e-002	-2.028e-015
18114	3.3107	4.4545	0.	-580.53
18115	3.2188	4.5455	0.	-574.26
18116	3.3107	4.5455	5.e-002	1.7159e-006
18117	3.3107	4.2727	0.	-635.24
18118	3.2188	4.3636	0.	-634.35
18119	3.3107	4.3636	5.e-002	3.2307e-006
18120	3.3107	4.0909	0.	-683.9
18121	3.2188	4.1818	0.	-688.39
18122	3.3107	4.1818	5.e-002	1.4849e-006
18123	3.3107	3.9091	0.	-725.96
18124	3.2188	4.	0.	-735.78
18125	3.3107	4.	5.e-002	-2.0051e-015
18126	3.3107	3.7273	0.	-760.96
18127	3.2188	3.8182	0.	-775.99
18128	3.3107	3.8182	5.e-002	7.0853e-006
18129	3.3107	3.5455	0.	-788.54
18130	3.2188	3.6364	0.	-808.61
18131	3.3107	3.6364	5.e-002	4.6303e-006
18132	3.3107	3.3636	0.	-808.43
18133	3.2188	3.4545	0.	-833.33
18134	3.3107	3.4545	5.e-002	6.6957e-007
18135	3.3107	3.1818	0.	-820.43
18136	3.2188	3.2727	0.	-849.94
18137	3.3107	3.2727	5.e-002	4.0908e-007
18138	3.3107	3.	0.	-824.45
18139	3.2188	3.0909	0.	-858.27
18140	3.3107	3.0909	5.e-002	2.6873e-007
18141	3.3107	2.8182	0.	-820.43
18142	3.2188	2.9091	0.	-858.27
18143	3.3107	2.9091	5.e-002	7.527e-006
18144	3.3107	2.6364	0.	-808.43
18145	3.2188	2.7273	0.	-849.94
18146	3.3107	2.7273	5.e-002	-4.0908e-007
18147	3.3107	2.4545	0.	-788.54
18148	3.2188	2.5455	0.	-833.33
18149	3.3107	2.5455	5.e-002	-1.0044e-006
18150	3.3107	2.2727	0.	-760.96
18151	3.2188	2.3636	0.	-808.61
18152	3.3107	2.3636	5.e-002	9.9702e-006
18153	3.3107	2.0909	0.	-725.96
18154	3.2188	2.1818	0.	-775.99
18155	3.3107	2.1818	5.e-002	4.8217e-006
18156	3.3107	1.9091	0.	-683.9
18157	3.2188	2.	0.	-735.78
18158	3.3107	2.	5.e-002	-1.3235e-006
18159	3.3107	1.7273	0.	-635.24
18160	3.2188	1.8182	0.	-688.39
18161	3.3107	1.8182	5.e-002	-2.9699e-006
18162	3.3107	1.5455	0.	-580.53
18163	3.2188	1.6364	0.	-634.35
18164	3.3107	1.6364	5.e-002	-1.6153e-006
18165	3.3107	1.3636	0.	-520.41
18166	3.2188	1.4545	0.	-574.26
18167	3.3107	1.4545	5.e-002	-1.7159e-006
18168	3.3107	1.1818	0.	-455.61
18169	3.2188	1.2727	0.	-508.84
18170	3.3107	1.2727	5.e-002	-3.5789e-006
18171	3.3107	1.	0.	-386.92
18172	3.2188	1.0909	0.	-438.9
18173	3.3107	1.0909	5.e-002	-2.0273e-015
18174	3.3107	0.81818	0.	-315.2
18175	3.2188	0.90909	0.	-365.33
18176	3.3107	0.90909	5.e-002	-3.7448e-006
18177	3.3107	0.63636	0.	-241.29
18178	3.2188	0.72727	0.	-289.04
18179	3.3107	0.72727	5.e-002	-2.0117e-015
18180	3.3107	0.45455	0.	-165.89
18181	3.2188	0.54545	0.	-210.98
18182	3.3107	0.54545	5.e-002	-2.0006e-015
18183	3.3107	0.27273	0.	-88.783
18184	3.2188	0.36364	0.	-131.71
18185	3.3107	0.36364	5.e-002	-3.7886e-006
18186	3.2188	0.18182	0.	-50.396
18187	3.3107	0.18182	5.e-002	3.8815e-007
18188	3.3107	9.0909e-002	0.	-25.207
18189	3.1268	5.7273	0.	-92.835
18190	3.0348	5.8182	0.	-50.859
18191	3.1268	5.8182	5.e-002	3.8632e-007
18192	3.1268	5.9091	0.	-25.086
18193	3.1268	5.5455	0.	-176.65
18194	3.0348	5.6364	0.	-139.28
18195	3.1268	5.6364	5.e-002	2.9523e-005
18196	3.1268	5.3636	0.	-258.61
18197	3.0348	5.4545	0.	-225.43
18198	3.1268	5.4545	5.e-002	-2.082e-015
18199	3.1268	5.1818	0.	-339.07
18200	3.0348	5.2727	0.	-310.41
18201	3.1268	5.2727	5.e-002	-2.097e-015
18202	3.1268	5.	0.	-417.21
18203	3.0348	5.0909	0.	-393.54
18204	3.1268	5.0909	5.e-002	-2.1104e-015
18205	3.1268	4.8182	0.	-492.05
18206	3.0348	4.9091	0.	-473.74
18207	3.1268	4.9091	5.e-002	3.7472e-006
18208	3.1268	4.6364	0.	-562.63
18209	3.0348	4.7273	0.	-549.94
18210	3.1268	4.7273	5.e-002	2.5664e-005
18211	3.1268	4.4545	0.	-628.05
18212	3.0348	4.5455	0.	-621.15
18213	3.1268	4.5455	5.e-002	3.5291e-006
18214	3.1268	4.2727	0.	-687.51
18215	3.0348	4.3636	0.	-686.46
18216	3.1268	4.3636	5.e-002	1.6678e-006
18217	3.1268	4.0909	0.	-740.31
18218	3.0348	4.1818	0.	-745.09
18219	3.1268	4.1818	5.e-002	3.0758e-006
18220	3.1268	3.9091	0.	-785.87
18221	3.0348	4.	0.	-796.39
18222	3.1268	4.	5.e-002	1.3738e-006
18223	3.1268	3.7273	0.	-823.73
18224	3.0348	3.8182	0.	-839.84
18225	3.1268	3.8182	5.e-002	-2.0918e-015
18226	3.1268	3.5455	0.	-853.52
18227	3.0348	3.6364	0.	-875.03
18228	3.1268	3.6364	5.e-002	4.7459e-007
18229	3.1268	3.3636	0.	-874.98
18230	3.0348	3.4545	0.	-901.66
18231	3.1268	3.4545	5.e-002	-2.0815e-015
18232	3.1268	3.1818	0.	-887.92
18233	3.0348	3.2727	0.	-919.52
18234	3.1268	3.2727	5.e-002	4.2581e-007
18235	3.1268	3.	0.	-892.24
18236	3.0348	3.0909	0.	-928.48
18237	3.1268	3.0909	5.e-002	1.7904e-007
18238	3.1268	2.8182	0.	-887.92
18239	3.0348	2.9091	0.	-928.48
18240	3.1268	2.9091	5.e-002	-1.7904e-007
18241	3.1268	2.6364	0.	-874.98
18242	3.0348	2.7273	0.	-919.52
18243	3.1268	2.7273	5.e-002	-7.4516e-007
18244	3.1268	2.4545	0.	-853.52
18245	3.0348	2.5455	0.	-901.66
18246	3.1268	2.5455	5.e-002	-1.3937e-006
18247	3.1268	2.2727	0.	-823.73
18248	3.0348	2.3636	0.	-875.03
18249	3.1268	2.3636	5.e-002	-1.4238e-006
18250	3.1268	2.0909	0.	-785.87
18251	3.0348	2.1818	0.	-839.84
18252	3.1268	2.1818	5.e-002	-2.353e-006
18253	3.1268	1.9091	0.	-740.31
18254	3.0348	2.	0.	-796.39
18255	3.1268	2.	5.e-002	-2.0985e-015
18256	3.1268	1.7273	0.	-687.51
18257	3.0348	1.8182	0.	-745.09
18258	3.1268	1.8182	5.e-002	-1.5379e-006
18259	3.1268	1.5455	0.	-628.05
18260	3.0348	1.6364	0.	-686.46
18261	3.1268	1.6364	5.e-002	-3.3355e-006
18262	3.1268	1.3636	0.	-562.63
18263	3.0348	1.4545	0.	-621.15
18264	3.1268	1.4545	5.e-002	-2.1174e-015
18265	3.1268	1.1818	0.	-492.05
18266	3.0348	1.2727	0.	-549.94
18267	3.1268	1.2727	5.e-002	-2.1197e-015
18268	3.1268	1.	0.	-417.21
18269	3.0348	1.0909	0.	-473.74
18270	3.1268	1.0909	5.e-002	-7.4943e-006
18271	3.1268	0.81818	0.	-339.07
18272	3.0348	0.90909	0.	-393.54
18273	3.1268	0.90909	5.e-002	-3.7927e-006
18274	3.1268	0.63636	0.	-258.61
18275	3.0348	0.72727	0.	-310.41
18276	3.1268	0.72727	5.e-002	-2.097e-015
18277	3.1268	0.45455	0.	-176.65
18278	3.0348	0.54545	0.	-225.43
18279	3.1268	0.54545	5.e-002	-2.082e-015
18280	3.1268	0.27273	0.	-92.835
18281	3.0348	0.36364	0.	-139.28
18282	3.1268	0.36364	5.e-002	-2.1282e-015
18283	3.0348	0.18182	0.	-50.859
18284	3.1268	0.18182	5.e-002	-3.4855e-015
18285	3.1268	9.0909e-002	0.	-25.086
18286	2.9429	5.7273	0.	-96.698
18287	2.8509	5.8182	0.	-50.768
18288	2.9429	5.8182	5.e-002	-3.7355e-015
18289	2.9429	5.9091	0.	-24.566
18290	2.9429	5.5455	0.	-187.89
18291	2.8509	5.6364	0.	-147.01
18292	2.9429	5.6364	5.e-002	-2.2172e-015
18293	2.9429	5.3636	0.	-277.08
18294	2.8509	5.4545	0.	-240.75
18295	2.9429	5.4545	5.e-002	-2.1722e-015
18296	2.9429	5.1818	0.	-364.76
18297	2.8509	5.2727	0.	-333.37
18298	2.9429	5.2727	5.e-002	-2.1923e-015
18299	2.9429	5.	0.	-449.96
18300	2.8509	5.0909	0.	-424.07
18301	2.9429	5.0909	5.e-002	3.8141e-006
18302	2.9429	4.8182	0.	-531.55
18303	2.8509	4.9091	0.	-511.55
18304	2.9429	4.9091	5.e-002	3.7929e-006
18305	2.9429	4.6364	0.	-608.41
18306	2.8509	4.7273	0.	-594.58
18307	2.9429	4.7273	5.e-002	2.4154e-005
18308	2.9429	4.4545	0.	-679.54
18309	2.8509	4.5455	0.	-672.04
18310	2.9429	4.5455	5.e-002	2.0743e-005
18311	2.9429	4.2727	0.	-744.06
18312	2.8509	4.3636	0.	-742.93
18313	2.9429	4.3636	5.e-002	3.4302e-006
18314	2.9429	4.0909	0.	-801.23
18315	2.8509	4.1818	0.	-806.4
18316	2.9429	4.1818	5.e-002	3.1729e-006
18317	2.9429	3.9091	0.	-850.45
18318	2.8509	4.	0.	-861.78
18319	2.9429	4.	5.e-002	2.8398e-006
18320	2.9429	3.7273	0.	-891.25
18321	2.8509	3.8182	0.	-908.55
18322	2.9429	3.8182	5.e-002	8.2393e-006
18323	2.9429	3.5455	0.	-923.3
18324	2.8509	3.6364	0.	-946.35
18325	2.9429	3.6364	5.e-002	5.341e-006
18326	2.9429	3.3636	0.	-946.35
18327	2.8509	3.4545	0.	-974.89
18328	2.9429	3.4545	5.e-002	7.2113e-007
18329	2.9429	3.1818	0.	-960.24
18330	2.8509	3.2727	0.	-994.
18331	2.9429	3.2727	5.e-002	1.5961e-006
18332	2.9429	3.	0.	-964.88
18333	2.8509	3.0909	0.	-1003.6
18334	2.9429	3.0909	5.e-002	2.0373e-007
18335	2.9429	2.8182	0.	-960.24
18336	2.8509	2.9091	0.	-1003.6
18337	2.9429	2.9091	5.e-002	-1.8521e-007
18338	2.9429	2.6364	0.	-946.35
18339	2.8509	2.7273	0.	-994.
18340	2.9429	2.7273	5.e-002	1.6437e-007
18341	2.9429	2.4545	0.	-923.3
18342	2.8509	2.5455	0.	-974.89
18343	2.9429	2.5455	5.e-002	-1.0817e-006
18344	2.9429	2.2727	0.	-891.25
18345	2.8509	2.3636	0.	-946.35
18346	2.9429	2.3636	5.e-002	4.3587e-006
18347	2.9429	2.0909	0.	-850.45
18348	2.8509	2.1818	0.	-908.55
18349	2.9429	2.1818	5.e-002	-1.2172e-006
18350	2.9429	1.9091	0.	-801.23
18351	2.8509	2.	0.	-861.78
18352	2.9429	2.	5.e-002	-1.4199e-006
18353	2.9429	1.7273	0.	-744.06
18354	2.8509	1.8182	0.	-806.4
18355	2.9429	1.8182	5.e-002	-1.5864e-006
18356	2.9429	1.5455	0.	-679.54
18357	2.8509	1.6364	0.	-742.93
18358	2.9429	1.6364	5.e-002	1.7165e-005
18359	2.9429	1.3636	0.	-608.41
18360	2.8509	1.4545	0.	-672.04
18361	2.9429	1.4545	5.e-002	-2.2213e-015
18362	2.9429	1.1818	0.	-531.55
18363	2.8509	1.2727	0.	-594.58
18364	2.9429	1.2727	5.e-002	-2.2227e-015
18365	2.9429	1.	0.	-449.96
18366	2.8509	1.0909	0.	-511.55
18367	2.9429	1.0909	5.e-002	-2.2194e-015
18368	2.9429	0.81818	0.	-364.76
18369	2.8509	0.90909	0.	-424.07
18370	2.9429	0.90909	5.e-002	-2.2096e-015
18371	2.9429	0.63636	0.	-277.08
18372	2.8509	0.72727	0.	-333.37
18373	2.9429	0.72727	5.e-002	-2.1923e-015
18374	2.9429	0.45455	0.	-187.89
18375	2.8509	0.54545	0.	-240.75
18376	2.9429	0.54545	5.e-002	-2.1722e-015
18377	2.9429	0.27273	0.	-96.698
18378	2.8509	0.36364	0.	-147.01
18379	2.9429	0.36364	5.e-002	-2.2172e-015
18380	2.8509	0.18182	0.	-50.768
18381	2.9429	0.18182	5.e-002	-3.0208e-006
18382	2.9429	9.0909e-002	0.	-24.566
18383	2.7589	5.7273	0.	-100.32
18384	2.667	5.8182	0.	-50.026
18385	2.7589	5.8182	5.e-002	3.0562e-006
18386	2.7589	5.9091	0.	-23.568
18387	2.7589	5.5455	0.	-199.67
18388	2.667	5.6364	0.	-154.9
18389	2.7589	5.6364	5.e-002	-2.314e-015
18390	2.7589	5.3636	0.	-296.87
18391	2.667	5.4545	0.	-257.07
18392	2.7589	5.4545	5.e-002	3.7272e-006
18393	2.7589	5.1818	0.	-392.54
18394	2.667	5.2727	0.	-358.19
18395	2.7589	5.2727	5.e-002	7.5349e-006
18396	2.7589	5.	0.	-485.53
18397	2.667	5.0909	0.	-457.26
18398	2.7589	5.0909	5.e-002	-2.3218e-015
18399	2.7589	4.8182	0.	-574.5
18400	2.667	4.9091	0.	-552.76
18401	2.7589	4.9091	5.e-002	5.971e-005
18402	2.7589	4.6364	0.	-658.17
18403	2.667	4.7273	0.	-643.25
18404	2.7589	4.7273	5.e-002	-2.3392e-015
18405	2.7589	4.4545	0.	-735.42
18406	2.667	4.5455	0.	-727.43
18407	2.7589	4.5455	5.e-002	-2.3385e-015
18408	2.7589	4.2727	0.	-805.3
18409	2.667	4.3636	0.	-804.22
18410	2.7589	4.3636	5.e-002	1.8625e-005
18411	2.7589	4.0909	0.	-867.02
18412	2.667	4.1818	0.	-872.73
18413	2.7589	4.1818	5.e-002	3.2593e-006
18414	2.7589	3.9091	0.	-919.99
18415	2.667	4.	0.	-932.29
18416	2.7589	4.	5.e-002	1.2357e-005
18417	2.7589	3.7273	0.	-963.79
18418	2.667	3.8182	0.	-982.41
18419	2.7589	3.8182	5.e-002	8.7583e-006
18420	2.7589	3.5455	0.	-998.1
18421	2.667	3.6364	0.	-1022.8
18422	2.7589	3.6364	5.e-002	5.6472e-006
18423	2.7589	3.3636	0.	-1022.7
18424	2.667	3.4545	0.	-1053.2
18425	2.7589	3.4545	5.e-002	3.7071e-007
18426	2.7589	3.1818	0.	-1037.5
18427	2.667	3.2727	0.	-1073.5
18428	2.7589	3.2727	5.e-002	6.7897e-007
18429	2.7589	3.	0.	-1042.5
18430	2.667	3.0909	0.	-1083.7
18431	2.7589	3.0909	5.e-002	2.0924e-007
18432	2.7589	2.8182	0.	-1037.5
18433	2.667	2.9091	0.	-1083.7
18434	2.7589	2.9091	5.e-002	-2.2826e-007
18435	2.7589	2.6364	0.	-1022.7
18436	2.667	2.7273	0.	-1073.5
18437	2.7589	2.7273	5.e-002	-9.0529e-007
18438	2.7589	2.4545	0.	-998.1
18439	2.667	2.5455	0.	-1053.2
18440	2.7589	2.5455	5.e-002	-7.4143e-007
18441	2.7589	2.2727	0.	-963.79
18442	2.667	2.3636	0.	-1022.8
18443	2.7589	2.3636	5.e-002	-1.0107e-006
18444	2.7589	2.0909	0.	-919.99
18445	2.667	2.1818	0.	-982.41
18446	2.7589	2.1818	5.e-002	-2.5055e-006
18447	2.7589	1.9091	0.	-867.02
18448	2.667	2.	0.	-932.29
18449	2.7589	2.	5.e-002	2.0331e-005
18450	2.7589	1.7273	0.	-805.3
18451	2.667	1.8182	0.	-872.73
18452	2.7589	1.8182	5.e-002	-3.2593e-006
18453	2.7589	1.5455	0.	-735.42
18454	2.667	1.6364	0.	-804.22
18455	2.7589	1.6364	5.e-002	-2.3346e-015
18456	2.7589	1.3636	0.	-658.17
18457	2.667	1.4545	0.	-727.43
18458	2.7589	1.4545	5.e-002	-2.3385e-015
18459	2.7589	1.1818	0.	-574.5
18460	2.667	1.2727	0.	-643.25
18461	2.7589	1.2727	5.e-002	-2.3392e-015
18462	2.7589	1.	0.	-485.53
18463	2.667	1.0909	0.	-552.76
18464	2.7589	1.0909	5.e-002	-2.3344e-015
18465	2.7589	0.81818	0.	-392.54
18466	2.667	0.90909	0.	-457.26
18467	2.7589	0.90909	5.e-002	-2.3218e-015
18468	2.7589	0.63636	0.	-296.87
18469	2.667	0.72727	0.	-358.19
18470	2.7589	0.72727	5.e-002	-7.5349e-006
18471	2.7589	0.45455	0.	-199.67
18472	2.667	0.54545	0.	-257.07
18473	2.7589	0.54545	5.e-002	-3.7272e-006
18474	2.7589	0.27273	0.	-100.32
18475	2.667	0.36364	0.	-154.9
18476	2.7589	0.36364	5.e-002	-2.314e-015
18477	2.667	0.18182	0.	-50.026
18478	2.7589	0.18182	5.e-002	-3.9957e-015
18479	2.7589	9.0909e-002	0.	-23.568
18480	2.575	5.7273	0.	-103.64
18481	2.483	5.8182	0.	-48.533
18482	2.575	5.8182	5.e-002	2.6219e-005
18483	2.575	5.9091	0.	-22.001
18484	2.575	5.5455	0.	-212.08
18485	2.483	5.6364	0.	-163.
18486	2.575	5.6364	5.e-002	7.7438e-005
18487	2.575	5.3636	0.	-318.21
18488	2.483	5.4545	0.	-274.59
18489	2.575	5.4545	5.e-002	-2.3886e-015
18490	2.575	5.1818	0.	-422.76
18491	2.483	5.2727	0.	-385.22
18492	2.575	5.2727	5.e-002	3.8607e-005
18493	2.575	5.	0.	-524.37
18494	2.483	5.0909	0.	-493.62
18495	2.575	5.0909	5.e-002	3.5894e-005
18496	2.575	4.8182	0.	-621.43
18497	2.483	4.9091	0.	-597.96
18498	2.575	4.9091	5.e-002	3.6359e-005
18499	2.575	4.6364	0.	-712.47
18500	2.483	4.7273	0.	-696.55
18501	2.575	4.7273	5.e-002	-2.4713e-015
18502	2.575	4.4545	0.	-796.24
18503	2.483	4.5455	0.	-787.93
18504	2.575	4.5455	5.e-002	7.4775e-006
18505	2.575	4.2727	0.	-871.7
18506	2.483	4.3636	0.	-870.89
18507	2.575	4.3636	5.e-002	4.522e-005
18508	2.575	4.0909	0.	-938.09
18509	2.483	4.1818	0.	-944.56
18510	2.575	4.1818	5.e-002	6.6672e-006
18511	2.575	3.9091	0.	-994.84
18512	2.483	4.	0.	-1008.3
18513	2.575	4.	5.e-002	1.1575e-005
18514	2.575	3.7273	0.	-1041.6
18515	2.483	3.8182	0.	-1061.7
18516	2.575	3.8182	5.e-002	1.2819e-006
18517	2.575	3.5455	0.	-1078.1
18518	2.483	3.6364	0.	-1104.5
18519	2.575	3.6364	5.e-002	-2.4581e-015
18520	2.575	3.3636	0.	-1104.2
18521	2.483	3.4545	0.	-1136.7
18522	2.575	3.4545	5.e-002	1.5134e-006
18523	2.575	3.1818	0.	-1119.9
18524	2.483	3.2727	0.	-1158.1
18525	2.575	3.2727	5.e-002	4.6143e-007
18526	2.575	3.	0.	-1125.1
18527	2.483	3.0909	0.	-1168.8
18528	2.575	3.0909	5.e-002	2.7537e-007
18529	2.575	2.8182	0.	-1119.9
18530	2.483	2.9091	0.	-1168.8
18531	2.575	2.9091	5.e-002	-1.1219e-007
18532	2.575	2.6364	0.	-1104.2
18533	2.483	2.7273	0.	-1158.1
18534	2.575	2.7273	5.e-002	-4.6143e-007
18535	2.575	2.4545	0.	-1078.1
18536	2.483	2.5455	0.	-1136.7
18537	2.575	2.5455	5.e-002	-1.5134e-006
18538	2.575	2.2727	0.	-1041.6
18539	2.483	2.3636	0.	-1104.5
18540	2.575	2.3636	5.e-002	-2.4581e-015
18541	2.575	2.0909	0.	-994.84
18542	2.483	2.1818	0.	-1061.7
18543	2.575	2.1818	5.e-002	-1.2819e-006
18544	2.575	1.9091	0.	-938.09
18545	2.483	2.	0.	-1008.3
18546	2.575	2.	5.e-002	-2.9909e-006
18547	2.575	1.7273	0.	-871.7
18548	2.483	1.8182	0.	-944.56
18549	2.575	1.8182	5.e-002	-2.4642e-015
18550	2.575	1.5455	0.	-796.24
18551	2.483	1.6364	0.	-870.89
18552	2.575	1.6364	5.e-002	2.0048e-005
18553	2.575	1.3636	0.	-712.47
18554	2.483	1.4545	0.	-787.93
18555	2.575	1.4545	5.e-002	-3.7387e-006
18556	2.575	1.1818	0.	-621.43
18557	2.483	1.2727	0.	-696.55
18558	2.575	1.2727	5.e-002	2.4883e-005
18559	2.575	1.	0.	-524.37
18560	2.483	1.0909	0.	-597.96
18561	2.575	1.0909	5.e-002	-3.8062e-006
18562	2.575	0.81818	0.	-422.76
18563	2.483	0.90909	0.	-493.62
18564	2.575	0.90909	5.e-002	-2.4501e-015
18565	2.575	0.63636	0.	-318.21
18566	2.483	0.72727	0.	-385.22
18567	2.575	0.72727	5.e-002	-2.4231e-015
18568	2.575	0.45455	0.	-212.08
18569	2.483	0.54545	0.	-274.59
18570	2.575	0.54545	5.e-002	2.5682e-006
18571	2.575	0.27273	0.	-103.64
18572	2.483	0.36364	0.	-163.
18573	2.575	0.36364	5.e-002	-2.4206e-015
18574	2.483	0.18182	0.	-48.533
18575	2.575	0.18182	5.e-002	-4.2647e-015
18576	2.575	9.0909e-002	0.	-22.001
18577	2.3911	5.7273	0.	-106.61
18578	2.2991	5.8182	0.	-46.196
18579	2.3911	5.8182	5.e-002	-4.54e-015
18580	2.3911	5.9091	0.	-19.76
18581	2.3911	5.5455	0.	-225.25
18582	2.2991	5.6364	0.	-171.35
18583	2.3911	5.6364	5.e-002	-2.5404e-015
18584	2.3911	5.3636	0.	-341.39
18585	2.2991	5.4545	0.	-293.58
18586	2.3911	5.4545	5.e-002	6.827e-006
18587	2.3911	5.1818	0.	-455.91
18588	2.2991	5.2727	0.	-414.94
18589	2.3911	5.2727	5.e-002	-2.5661e-015
18590	2.3911	5.	0.	-567.08
18591	2.2991	5.0909	0.	-533.79
18592	2.3911	5.0909	5.e-002	4.2707e-005
18593	2.3911	4.8182	0.	-673.
18594	2.2991	4.9091	0.	-647.9
18595	2.3911	4.9091	5.e-002	3.7672e-006
18596	2.3911	4.6364	0.	-771.98
18597	2.2991	4.7273	0.	-755.28
18598	2.3911	4.7273	5.e-002	4.2442e-005
18599	2.3911	4.4545	0.	-862.61
18600	2.2991	4.5455	0.	-854.26
18601	2.3911	4.5455	5.e-002	-2.6222e-015
18602	2.3911	4.2727	0.	-943.83
18603	2.2991	4.3636	0.	-943.6
18604	2.3911	4.3636	5.e-002	4.6404e-005
18605	2.3911	4.0909	0.	-1014.9
18606	2.2991	4.1818	0.	-1022.4
18607	2.3911	4.1818	5.e-002	1.6588e-005
18608	2.3911	3.9091	0.	-1075.3
18609	2.2991	4.	0.	-1090.2
18610	2.3911	4.	5.e-002	-2.6166e-015
18611	2.3911	3.7273	0.	-1124.8
18612	2.2991	3.8182	0.	-1146.6
18613	2.3911	3.8182	5.e-002	5.2131e-006
18614	2.3911	3.5455	0.	-1163.3
18615	2.2991	3.6364	0.	-1191.7
18616	2.3911	3.6364	5.e-002	2.0957e-006
18617	2.3911	3.3636	0.	-1190.8
18618	2.2991	3.4545	0.	-1225.4
18619	2.3911	3.4545	5.e-002	2.9516e-006
18620	2.3911	3.1818	0.	-1207.3
18621	2.2991	3.2727	0.	-1247.8
18622	2.3911	3.2727	5.e-002	4.6622e-007
18623	2.3911	3.	0.	-1212.8
18624	2.2991	3.0909	0.	-1258.9
18625	2.3911	3.0909	5.e-002	2.1517e-007
18626	2.3911	2.8182	0.	-1207.3
18627	2.2991	2.9091	0.	-1258.9
18628	2.3911	2.9091	5.e-002	-2.1517e-007
18629	2.3911	2.6364	0.	-1190.8
18630	2.2991	2.7273	0.	-1247.8
18631	2.3911	2.7273	5.e-002	-6.9934e-007
18632	2.3911	2.4545	0.	-1163.3
18633	2.2991	2.5455	0.	-1225.4
18634	2.3911	2.5455	5.e-002	1.0368e-006
18635	2.3911	2.2727	0.	-1124.8
18636	2.2991	2.3636	0.	-1191.7
18637	2.3911	2.3636	5.e-002	-1.0479e-006
18638	2.3911	2.0909	0.	-1075.3
18639	2.2991	2.1818	0.	-1146.6
18640	2.3911	2.1818	5.e-002	-2.6177e-015
18641	2.3911	1.9091	0.	-1014.9
18642	2.2991	2.	0.	-1090.2
18643	2.3911	2.	5.e-002	-9.1359e-006
18644	2.3911	1.7273	0.	-943.83
18645	2.2991	1.8182	0.	-1022.4
18646	2.3911	1.8182	5.e-002	-3.3941e-006
18647	2.3911	1.5455	0.	-862.61
18648	2.2991	1.6364	0.	-943.6
18649	2.3911	1.6364	5.e-002	-3.6398e-006
18650	2.3911	1.3636	0.	-771.98
18651	2.2991	1.4545	0.	-854.26
18652	2.3911	1.4545	5.e-002	-2.6222e-015
18653	2.3911	1.1818	0.	-673.
18654	2.2991	1.2727	0.	-755.28
18655	2.3911	1.2727	5.e-002	-3.8142e-006
18656	2.3911	1.	0.	-567.08
18657	2.2991	1.0909	0.	-647.9
18658	2.3911	1.0909	5.e-002	-2.6157e-015
18659	2.3911	0.81818	0.	-455.91
18660	2.2991	0.90909	0.	-533.79
18661	2.3911	0.90909	5.e-002	-3.6628e-006
18662	2.3911	0.63636	0.	-341.39
18663	2.2991	0.72727	0.	-414.94
18664	2.3911	0.72727	5.e-002	-2.5661e-015
18665	2.3911	0.45455	0.	-225.25
18666	2.2991	0.54545	0.	-293.58
18667	2.3911	0.54545	5.e-002	-2.5221e-015
18668	2.3911	0.27273	0.	-106.61
18669	2.2991	0.36364	0.	-171.35
18670	2.3911	0.36364	5.e-002	-2.5404e-015
18671	2.2991	0.18182	0.	-46.196
18672	2.3911	0.18182	5.e-002	-4.54e-015
18673	2.3911	9.0909e-002	0.	-19.76
18674	2.2071	5.7273	0.	-109.2
18675	2.1152	5.8182	0.	-42.942
18676	2.2071	5.8182	5.e-002	-4.8185e-015
18677	2.2071	5.9091	0.	-16.733
18678	2.2071	5.5455	0.	-239.38
18679	2.1152	5.6364	0.	-180.07
18680	2.2071	5.6364	5.e-002	-2.6784e-015
18681	2.2071	5.3636	0.	-366.89
18682	2.1152	5.4545	0.	-314.45
18683	2.2071	5.4545	5.e-002	-2.6806e-015
18684	2.2071	5.1818	0.	-492.63
18685	2.1152	5.2727	0.	-448.04
18686	2.2071	5.2727	5.e-002	4.5583e-005
18687	2.2071	5.	0.	-614.48
18688	2.1152	5.0909	0.	-578.67
18689	2.2071	5.0909	5.e-002	-2.7721e-015
18690	2.2071	4.8182	0.	-730.1
18691	2.1152	4.9091	0.	-703.58
18692	2.2071	4.9091	5.e-002	3.8089e-005
18693	2.2071	4.6364	0.	-837.55
18694	2.1152	4.7273	0.	-820.42
18695	2.2071	4.7273	5.e-002	7.411e-005
18696	2.2071	4.4545	0.	-935.31
18697	2.1152	4.5455	0.	-927.35
18698	2.2071	4.5455	5.e-002	3.178e-005
18699	2.2071	4.2727	0.	-1022.3
18700	2.1152	4.3636	0.	-1023.1
18701	2.2071	4.3636	5.e-002	2.9924e-005
18702	2.2071	4.0909	0.	-1097.9
18703	2.1152	4.1818	0.	-1106.9
18704	2.2071	4.1818	5.e-002	6.8789e-006
18705	2.2071	3.9091	0.	-1161.7
18706	2.1152	4.	0.	-1178.3
18707	2.2071	4.	5.e-002	3.0823e-006
18708	2.2071	3.7273	0.	-1213.7
18709	2.1152	3.8182	0.	-1237.4
18710	2.2071	3.8182	5.e-002	2.6308e-006
18711	2.2071	3.5455	0.	-1254.
18712	2.1152	3.6364	0.	-1284.3
18713	2.2071	3.6364	5.e-002	2.1082e-006
18714	2.2071	3.3636	0.	-1282.6
18715	2.1152	3.4545	0.	-1319.2
18716	2.2071	3.4545	5.e-002	1.1521e-006
18717	2.2071	3.1818	0.	-1299.7
18718	2.1152	3.2727	0.	-1342.3
18719	2.2071	3.2727	5.e-002	2.3321e-007
18720	2.2071	3.	0.	-1305.3
18721	2.1152	3.0909	0.	-1353.8
18722	2.2071	3.0909	5.e-002	2.9815e-007
18723	2.2071	2.8182	0.	-1299.7
18724	2.1152	2.9091	0.	-1353.8
18725	2.2071	2.9091	5.e-002	-1.1228e-007
18726	2.2071	2.6364	0.	-1282.6
18727	2.1152	2.7273	0.	-1342.3
18728	2.2071	2.7273	5.e-002	-2.3321e-007
18729	2.2071	2.4545	0.	-1254.
18730	2.1152	2.5455	0.	-1319.2
18731	2.2071	2.5455	5.e-002	-7.6806e-007
18732	2.2071	2.2727	0.	-1213.7
18733	2.1152	2.3636	0.	-1284.3
18734	2.2071	2.3636	5.e-002	-1.0541e-006
18735	2.2071	2.0909	0.	-1161.7
18736	2.1152	2.1818	0.	-1237.4
18737	2.2071	2.1818	5.e-002	-1.3154e-006
18738	2.2071	1.9091	0.	-1097.9
18739	2.1152	2.	0.	-1178.3
18740	2.2071	2.	5.e-002	-3.0823e-006
18741	2.2071	1.7273	0.	-1022.3
18742	2.1152	1.8182	0.	-1106.9
18743	2.2071	1.8182	5.e-002	-2.7921e-015
18744	2.2071	1.5455	0.	-935.31
18745	2.1152	1.6364	0.	-1023.1
18746	2.2071	1.6364	5.e-002	-2.7925e-015
18747	2.2071	1.3636	0.	-837.55
18748	2.1152	1.4545	0.	-927.35
18749	2.2071	1.4545	5.e-002	-2.7946e-015
18750	2.2071	1.1818	0.	-730.1
18751	2.1152	1.2727	0.	-820.42
18752	2.2071	1.2727	5.e-002	3.4724e-006
18753	2.2071	1.	0.	-614.48
18754	2.1152	1.0909	0.	-703.58
18755	2.2071	1.0909	5.e-002	-2.7901e-015
18756	2.2071	0.81818	0.	-492.63
18757	2.1152	0.90909	0.	-578.67
18758	2.2071	0.90909	5.e-002	-7.0434e-006
18759	2.2071	0.63636	0.	-366.89
18760	2.1152	0.72727	0.	-448.04
18761	2.2071	0.72727	5.e-002	-2.7353e-015
18762	2.2071	0.45455	0.	-239.38
18763	2.1152	0.54545	0.	-314.45
18764	2.2071	0.54545	5.e-002	-2.6806e-015
18765	2.2071	0.27273	0.	-109.2
18766	2.1152	0.36364	0.	-180.07
18767	2.2071	0.36364	5.e-002	-2.6784e-015
18768	2.1152	0.18182	0.	-42.942
18769	2.2071	0.18182	5.e-002	-4.8185e-015
18770	2.2071	9.0909e-002	0.	-16.733
18771	2.0232	5.7273	0.	-111.38
18772	1.9312	5.8182	0.	-38.759
18773	2.0232	5.8182	5.e-002	-5.0955e-015
18774	2.0232	5.9091	0.	-12.819
18775	2.0232	5.5455	0.	-254.8
18776	1.9312	5.6364	0.	-189.37
18777	2.0232	5.6364	5.e-002	-2.8434e-015
18778	2.0232	5.3636	0.	-395.34
18779	1.9312	5.4545	0.	-337.83
18780	2.0232	5.4545	5.e-002	-2.8741e-015
18781	2.0232	5.1818	0.	-533.87
18782	1.9312	5.2727	0.	-485.5
18783	2.0232	5.2727	5.e-002	-2.9395e-015
18784	2.0232	5.	0.	-667.64
18785	1.9312	5.0909	0.	-629.48
18786	2.0232	5.0909	5.e-002	1.3317e-005
18787	2.0232	4.8182	0.	-793.85
18788	1.9312	4.9091	0.	-766.33
18789	2.0232	4.9091	5.e-002	-2.994e-015
18790	2.0232	4.6364	0.	-910.25
18791	1.9312	4.7273	0.	-893.25
18792	2.0232	4.7273	5.e-002	1.0613e-004
18793	2.0232	4.4545	0.	-1015.2
18794	1.9312	4.5455	0.	-1008.3
18795	2.0232	4.5455	5.e-002	-2.9921e-015
18796	2.0232	4.2727	0.	-1107.8
18797	1.9312	4.3636	0.	-1110.2
18798	2.0232	4.3636	5.e-002	-2.9899e-015
18799	2.0232	4.0909	0.	-1187.5
18800	1.9312	4.1818	0.	-1198.5
18801	2.0232	4.1818	5.e-002	-2.9918e-015
18802	2.0232	3.9091	0.	-1254.3
18803	1.9312	4.	0.	-1273.
18804	2.0232	4.	5.e-002	3.0989e-006
18805	2.0232	3.7273	0.	-1308.3
18806	1.9312	3.8182	0.	-1334.2
18807	2.0232	3.8182	5.e-002	1.3168e-006
18808	2.0232	3.5455	0.	-1349.8
18809	1.9312	3.6364	0.	-1382.3
18810	2.0232	3.6364	5.e-002	1.0503e-006
18811	2.0232	3.3636	0.	-1379.2
18812	1.9312	3.4545	0.	-1417.9
18813	2.0232	3.4545	5.e-002	2.2867e-006
18814	2.0232	3.1818	0.	-1396.7
18815	1.9312	3.2727	0.	-1441.4
18816	2.0232	3.2727	5.e-002	9.2303e-007
18817	2.0232	3.	0.	-1402.5
18818	1.9312	3.0909	0.	-1453.1
18819	2.0232	3.0909	5.e-002	2.124e-007
18820	2.0232	2.8182	0.	-1396.7
18821	1.9312	2.9091	0.	-1453.1
18822	2.0232	2.9091	5.e-002	-1.9309e-007
18823	2.0232	2.6364	0.	-1379.2
18824	1.9312	2.7273	0.	-1441.4
18825	2.0232	2.7273	5.e-002	-9.2303e-007
18826	2.0232	2.4545	0.	-1349.8
18827	1.9312	2.5455	0.	-1417.9
18828	2.0232	2.5455	5.e-002	-7.6222e-007
18829	2.0232	2.2727	0.	-1308.3
18830	1.9312	2.3636	0.	-1382.3
18831	2.0232	2.3636	5.e-002	-2.1007e-006
18832	2.0232	2.0909	0.	-1254.3
18833	1.9312	2.1818	0.	-1334.2
18834	2.0232	2.1818	5.e-002	-2.6336e-006
18835	2.0232	1.9091	0.	-1187.5
18836	1.9312	2.	0.	-1273.
18837	2.0232	2.	5.e-002	-2.9983e-015
18838	2.0232	1.7273	0.	-1107.8
18839	1.9312	1.8182	0.	-1198.5
18840	2.0232	1.8182	5.e-002	-2.9918e-015
18841	2.0232	1.5455	0.	-1015.2
18842	1.9312	1.6364	0.	-1110.2
18843	2.0232	1.6364	5.e-002	-3.7123e-006
18844	2.0232	1.3636	0.	-910.25
18845	1.9312	1.4545	0.	-1008.3
18846	2.0232	1.4545	5.e-002	2.5669e-005
18847	2.0232	1.1818	0.	-793.85
18848	1.9312	1.2727	0.	-893.25
18849	2.0232	1.2727	5.e-002	-2.9955e-015
18850	2.0232	1.	0.	-667.64
18851	1.9312	1.0909	0.	-766.33
18852	2.0232	1.0909	5.e-002	-2.994e-015
18853	2.0232	0.81818	0.	-533.87
18854	1.9312	0.90909	0.	-629.48
18855	2.0232	0.90909	5.e-002	-2.9786e-015
18856	2.0232	0.63636	0.	-395.34
18857	1.9312	0.72727	0.	-485.5
18858	2.0232	0.72727	5.e-002	-2.9395e-015
18859	2.0232	0.45455	0.	-254.8
18860	1.9312	0.54545	0.	-337.83
18861	2.0232	0.54545	5.e-002	-2.8741e-015
18862	2.0232	0.27273	0.	-111.38
18863	1.9312	0.36364	0.	-189.37
18864	2.0232	0.36364	5.e-002	-2.8434e-015
18865	1.9312	0.18182	0.	-38.759
18866	2.0232	0.18182	5.e-002	-5.0955e-015
18867	2.0232	9.0909e-002	0.	-12.819
18868	1.8393	5.7273	0.	-113.19
18869	1.7473	5.8182	0.	-33.764
18870	1.8393	5.8182	5.e-002	1.8033e-005
18871	1.8393	5.9091	0.	-8.0451
18872	1.8393	5.5455	0.	-271.99
18873	1.7473	5.6364	0.	-199.57
18874	1.8393	5.6364	5.e-002	5.9034e-005
18875	1.8393	5.3636	0.	-427.7
18876	1.7473	5.4545	0.	-364.63
18877	1.8393	5.4545	5.e-002	-3.1175e-015
18878	1.8393	5.1818	0.	-580.91
18879	1.7473	5.2727	0.	-528.76
18880	1.8393	5.2727	5.e-002	-3.1915e-015
18881	1.8393	5.	0.	-728.06
18882	1.7473	5.0909	0.	-687.95
18883	1.8393	5.0909	5.e-002	-3.2275e-015
18884	1.8393	4.8182	0.	-865.72
18885	1.7473	4.9091	0.	-837.89
18886	1.8393	4.9091	5.e-002	4.5524e-005
18887	1.8393	4.6364	0.	-991.37
18888	1.7473	4.7273	0.	-975.36
18889	1.8393	4.7273	5.e-002	-3.228e-015
18890	1.8393	4.4545	0.	-1103.4
18891	1.7473	4.5455	0.	-1098.3
18892	1.8393	4.5455	5.e-002	3.067e-005
18893	1.8393	4.2727	0.	-1201.1
18894	1.7473	4.3636	0.	-1205.8
18895	1.8393	4.3636	5.e-002	1.6695e-005
18896	1.8393	4.0909	0.	-1284.2
18897	1.7473	4.1818	0.	-1297.8
18898	1.8393	4.1818	5.e-002	3.4772e-006
18899	1.8393	3.9091	0.	-1353.2
18900	1.7473	4.	0.	-1374.5
18901	1.8393	4.	5.e-002	-3.2322e-015
18902	1.8393	3.7273	0.	-1408.5
18903	1.7473	3.8182	0.	-1436.8
18904	1.8393	3.8182	5.e-002	1.3058e-006
18905	1.8393	3.5455	0.	-1450.7
18906	1.7473	3.6364	0.	-1485.5
18907	1.8393	3.6364	5.e-002	5.9237e-006
18908	1.8393	3.3636	0.	-1480.4
18909	1.7473	3.4545	0.	-1521.2
18910	1.8393	3.4545	5.e-002	1.4955e-006
18911	1.8393	3.1818	0.	-1498.1
18912	1.7473	3.2727	0.	-1544.7
18913	1.8393	3.2727	5.e-002	6.7681e-007
18914	1.8393	3.	0.	-1503.9
18915	1.7473	3.0909	0.	-1556.3
18916	1.8393	3.0909	5.e-002	1.696e-007
18917	1.8393	2.8182	0.	-1498.1
18918	1.7473	2.9091	0.	-1556.3
18919	1.8393	2.9091	5.e-002	-2.2614e-007
18920	1.8393	2.6364	0.	-1480.4
18921	1.7473	2.7273	0.	-1544.7
18922	1.8393	2.7273	5.e-002	-9.0241e-007
18923	1.8393	2.4545	0.	-1450.7
18924	1.7473	2.5455	0.	-1521.2
18925	1.8393	2.5455	5.e-002	-1.4955e-006
18926	1.8393	2.2727	0.	-1408.5
18927	1.7473	2.3636	0.	-1485.5
18928	1.8393	2.3636	5.e-002	2.8174e-006
18929	1.8393	2.0909	0.	-1353.2
18930	1.7473	2.1818	0.	-1436.8
18931	1.8393	2.1818	5.e-002	-2.6116e-006
18932	1.8393	1.9091	0.	-1284.2
18933	1.7473	2.	0.	-1374.5
18934	1.8393	2.	5.e-002	-3.2322e-015
18935	1.8393	1.7273	0.	-1201.1
18936	1.7473	1.8182	0.	-1297.8
18937	1.8393	1.8182	5.e-002	-6.9544e-006
18938	1.8393	1.5455	0.	-1103.4
18939	1.7473	1.6364	0.	-1205.8
18940	1.8393	1.6364	5.e-002	2.4086e-005
18941	1.8393	1.3636	0.	-991.37
18942	1.7473	1.4545	0.	-1098.3
18943	1.8393	1.4545	5.e-002	-3.2197e-015
18944	1.8393	1.1818	0.	-865.72
18945	1.7473	1.2727	0.	-975.36
18946	1.8393	1.2727	5.e-002	-3.228e-015
18947	1.8393	1.	0.	-728.06
18948	1.7473	1.0909	0.	-837.89
18949	1.8393	1.0909	5.e-002	-6.927e-006
18950	1.8393	0.81818	0.	-580.91
18951	1.7473	0.90909	0.	-687.95
18952	1.8393	0.90909	5.e-002	-3.2275e-015
18953	1.8393	0.63636	0.	-427.7
18954	1.7473	0.72727	0.	-528.76
18955	1.8393	0.72727	5.e-002	-5.3191e-006
18956	1.8393	0.45455	0.	-271.99
18957	1.7473	0.54545	0.	-364.63
18958	1.8393	0.54545	5.e-002	-4.5347e-006
18959	1.8393	0.27273	0.	-113.19
18960	1.7473	0.36364	0.	-199.57
18961	1.8393	0.36364	5.e-002	-3.0496e-015
18962	1.7473	0.18182	0.	-33.764
18963	1.8393	0.18182	5.e-002	-1.6646e-005
18964	1.8393	9.0909e-002	0.	-8.0451
18965	1.6554	5.7273	0.	-114.73
18966	1.5634	5.8182	0.	-28.33
18967	1.6554	5.8182	5.e-002	-5.6162e-015
18968	1.6554	5.9091	0.	-3.2976
18969	1.6554	5.5455	0.	-291.74
18970	1.5634	5.6364	0.	-211.29
18971	1.6554	5.6364	5.e-002	-3.3203e-015
18972	1.6554	5.3636	0.	-465.37
18973	1.5634	5.4545	0.	-396.31
18974	1.6554	5.4545	5.e-002	-3.4333e-015
18975	1.6554	5.1818	0.	-635.6
18976	1.5634	5.2727	0.	-579.9
18977	1.6554	5.2727	5.e-002	-3.5089e-015
18978	1.6554	5.	0.	-797.72
18979	1.5634	5.0909	0.	-756.47
18980	1.6554	5.0909	5.e-002	-3.5313e-015
18981	1.6554	4.8182	0.	-947.59
18982	1.5634	4.9091	0.	-920.61
18983	1.6554	4.9091	5.e-002	6.6454e-006
18984	1.6554	4.6364	0.	-1082.5
18985	1.5634	4.7273	0.	-1068.7
18986	1.6554	4.7273	5.e-002	-3.4994e-015
18987	1.6554	4.4545	0.	-1201.
18988	1.5634	4.5455	0.	-1198.9
18989	1.6554	4.5455	5.e-002	3.8131e-006
18990	1.6554	4.2727	0.	-1302.8
18991	1.5634	4.3636	0.	-1310.9
18992	1.6554	4.3636	5.e-002	3.7325e-006
18993	1.6554	4.0909	0.	-1388.4
18994	1.5634	4.1818	0.	-1405.2
18995	1.6554	4.1818	5.e-002	2.1194e-005
18996	1.6554	3.9091	0.	-1458.5
18997	1.5634	4.	0.	-1482.9
18998	1.6554	4.	5.e-002	1.5317e-005
18999	1.6554	3.7273	0.	-1514.1
19000	1.5634	3.8182	0.	-1545.2
19001	1.6554	3.8182	5.e-002	9.1846e-006
19002	1.6554	3.5455	0.	-1556.3
19003	1.5634	3.6364	0.	-1593.3
19004	1.6554	3.6364	5.e-002	5.623e-006
19005	1.6554	3.3636	0.	-1585.7
19006	1.5634	3.4545	0.	-1628.5
19007	1.6554	3.4545	5.e-002	7.2427e-007
19008	1.6554	3.1818	0.	-1603.2
19009	1.5634	3.2727	0.	-1651.4
19010	1.6554	3.2727	5.e-002	2.1771e-007
19011	1.6554	3.	0.	-1608.9
19012	1.5634	3.0909	0.	-1662.7
19013	1.6554	3.0909	5.e-002	2.7008e-007
19014	1.6554	2.8182	0.	-1603.2
19015	1.5634	2.9091	0.	-1662.7
19016	1.6554	2.9091	5.e-002	-9.2943e-008
19017	1.6554	2.6364	0.	-1585.7
19018	1.5634	2.7273	0.	-1651.4
19019	1.6554	2.7273	5.e-002	1.527e-007
19020	1.6554	2.4545	0.	-1556.3
19021	1.5634	2.5455	0.	-1628.5
19022	1.6554	2.5455	5.e-002	-7.2427e-007
19023	1.6554	2.2727	0.	-1514.1
19024	1.5634	2.3636	0.	-1593.3
19025	1.6554	2.3636	5.e-002	1.5891e-006
19026	1.6554	2.0909	0.	-1458.5
19027	1.5634	2.1818	0.	-1545.2
19028	1.6554	2.1818	5.e-002	6.623e-006
19029	1.6554	1.9091	0.	-1388.4
19030	1.5634	2.	0.	-1482.9
19031	1.6554	2.	5.e-002	-3.5013e-015
19032	1.6554	1.7273	0.	-1302.8
19033	1.5634	1.8182	0.	-1405.2
19034	1.6554	1.8182	5.e-002	-3.4854e-015
19035	1.6554	1.5455	0.	-1201.
19036	1.5634	1.6364	0.	-1310.9
19037	1.6554	1.6364	5.e-002	3.342e-005
19038	1.6554	1.3636	0.	-1082.5
19039	1.5634	1.4545	0.	-1198.9
19040	1.6554	1.4545	5.e-002	3.1399e-005
19041	1.6554	1.1818	0.	-947.59
19042	1.5634	1.2727	0.	-1068.7
19043	1.6554	1.2727	5.e-002	-3.4994e-015
19044	1.6554	1.	0.	-797.72
19045	1.5634	1.0909	0.	-920.61
19046	1.6554	1.0909	5.e-002	-3.5206e-015
19047	1.6554	0.81818	0.	-635.6
19048	1.5634	0.90909	0.	-756.47
19049	1.6554	0.90909	5.e-002	-3.5313e-015
19050	1.6554	0.63636	0.	-465.37
19051	1.5634	0.72727	0.	-579.9
19052	1.6554	0.72727	5.e-002	-3.5089e-015
19053	1.6554	0.45455	0.	-291.74
19054	1.5634	0.54545	0.	-396.31
19055	1.6554	0.54545	5.e-002	-3.4333e-015
19056	1.6554	0.27273	0.	-114.73
19057	1.5634	0.36364	0.	-211.29
19058	1.6554	0.36364	5.e-002	-3.3203e-015
19059	1.5634	0.18182	0.	-28.33
19060	1.6554	0.18182	5.e-002	-5.6162e-015
19061	1.6554	9.0909e-002	0.	-3.2976
19062	1.4714	5.7273	0.	-116.23
19063	1.3795	5.8182	0.	-23.12
19064	1.4714	5.8182	5.e-002	-5.8404e-015
19065	1.4714	5.9091	0.	-0.96769
19066	1.4714	5.5455	0.	-315.3
19067	1.3795	5.6364	0.	-225.46
19068	1.4714	5.6364	5.e-002	-3.6941e-015
19069	1.4714	5.3636	0.	-510.51
19070	1.3795	5.4545	0.	-435.09
19071	1.4714	5.4545	5.e-002	-3.8548e-015
19072	1.4714	5.1818	0.	-700.63
19073	1.3795	5.2727	0.	-642.02
19074	1.4714	5.2727	5.e-002	-3.9156e-015
19075	1.4714	5.	0.	-879.38
19076	1.3795	5.0909	0.	-838.34
19077	1.4714	5.0909	5.e-002	-3.9055e-015
19078	1.4714	4.8182	0.	-1041.9
19079	1.3795	4.9091	0.	-1017.4
19080	1.4714	4.9091	5.e-002	-3.8622e-015
19081	1.4714	4.6364	0.	-1185.4
19082	1.3795	4.7273	0.	-1175.5
19083	1.4714	4.7273	5.e-002	5.4173e-005
19084	1.4714	4.4545	0.	-1309.2
19085	1.3795	4.5455	0.	-1311.5
19086	1.4714	4.5455	5.e-002	3.8128e-006
19087	1.4714	4.2727	0.	-1413.7
19088	1.3795	4.3636	0.	-1426.1
19089	1.4714	4.3636	5.e-002	7.4395e-006
19090	1.4714	4.0909	0.	-1500.1
19091	1.3795	4.1818	0.	-1520.9
19092	1.4714	4.1818	5.e-002	3.4213e-006
19093	1.4714	3.9091	0.	-1569.9
19094	1.3795	4.	0.	-1597.7
19095	1.4714	4.	5.e-002	-3.8118e-015
19096	1.4714	3.7273	0.	-1624.7
19097	1.3795	3.8182	0.	-1658.6
19098	1.4714	3.8182	5.e-002	1.2402e-006
19099	1.4714	3.5455	0.	-1665.9
19100	1.3795	3.6364	0.	-1705.1
19101	1.4714	3.6364	5.e-002	1.9377e-006
19102	1.4714	3.3636	0.	-1694.4
19103	1.3795	3.4545	0.	-1738.8
19104	1.4714	3.4545	5.e-002	1.3836e-006
19105	1.4714	3.1818	0.	-1711.3
19106	1.3795	3.2727	0.	-1760.7
19107	1.4714	3.2727	5.e-002	2.0715e-007
19108	1.4714	3.	0.	-1716.8
19109	1.3795	3.0909	0.	-1771.5
19110	1.4714	3.0909	5.e-002	2.5227e-007
19111	1.4714	2.8182	0.	-1711.3
19112	1.3795	2.9091	0.	-1771.5
19113	1.4714	2.9091	5.e-002	-9.2511e-008
19114	1.4714	2.6364	0.	-1694.4
19115	1.3795	2.7273	0.	-1760.7
19116	1.4714	2.7273	5.e-002	-4.1431e-007
19117	1.4714	2.4545	0.	-1665.9
19118	1.3795	2.5455	0.	-1738.8
19119	1.4714	2.5455	5.e-002	-6.9179e-007
19120	1.4714	2.2727	0.	-1624.7
19121	1.3795	2.3636	0.	-1705.1
19122	1.4714	2.3636	5.e-002	-9.6887e-007
19123	1.4714	2.0909	0.	-1569.9
19124	1.3795	2.1818	0.	-1658.6
19125	1.4714	2.1818	5.e-002	7.3319e-006
19126	1.4714	1.9091	0.	-1500.1
19127	1.3795	2.	0.	-1597.7
19128	1.4714	2.	5.e-002	-2.9884e-006
19129	1.4714	1.7273	0.	-1413.7
19130	1.3795	1.8182	0.	-1520.9
19131	1.4714	1.8182	5.e-002	-3.4213e-006
19132	1.4714	1.5455	0.	-1309.2
19133	1.3795	1.6364	0.	-1426.1
19134	1.4714	1.6364	5.e-002	-3.7824e-015
19135	1.4714	1.3636	0.	-1185.4
19136	1.3795	1.4545	0.	-1311.5
19137	1.4714	1.4545	5.e-002	-3.8128e-006
19138	1.4714	1.1818	0.	-1041.9
19139	1.3795	1.2727	0.	-1175.5
19140	1.4714	1.2727	5.e-002	-3.8178e-015
19141	1.4714	1.	0.	-879.38
19142	1.3795	1.0909	0.	-1017.4
19143	1.4714	1.0909	5.e-002	-3.8622e-015
19144	1.4714	0.81818	0.	-700.63
19145	1.3795	0.90909	0.	-838.34
19146	1.4714	0.90909	5.e-002	-3.9055e-015
19147	1.4714	0.63636	0.	-510.51
19148	1.3795	0.72727	0.	-642.02
19149	1.4714	0.72727	5.e-002	-3.9156e-015
19150	1.4714	0.45455	0.	-315.3
19151	1.3795	0.54545	0.	-435.09
19152	1.4714	0.54545	5.e-002	-3.8548e-015
19153	1.4714	0.27273	0.	-116.23
19154	1.3795	0.36364	0.	-225.46
19155	1.4714	0.36364	5.e-002	-3.6941e-015
19156	1.3795	0.18182	0.	-23.12
19157	1.4714	0.18182	5.e-002	-5.8404e-015
19158	1.4714	9.0909e-002	0.	-0.96769
19159	1.2875	5.7273	0.	-118.12
19160	1.1955	5.8182	0.	-19.063
19161	1.2875	5.8182	5.e-002	-6.0247e-015
19162	1.2875	5.9091	0.	-0.16894
19163	1.2875	5.5455	0.	-344.59
19164	1.1955	5.6364	0.	-244.01
19165	1.2875	5.6364	5.e-002	6.1023e-005
19166	1.2875	5.3636	0.	-566.28
19167	1.1955	5.4545	0.	-484.89
19168	1.2875	5.4545	5.e-002	-4.4308e-015
19169	1.2875	5.1818	0.	-779.68
19170	1.1955	5.2727	0.	-720.09
19171	1.2875	5.2727	5.e-002	2.4846e-006
19172	1.2875	5.	0.	-976.49
19173	1.1955	5.0909	0.	-938.4
19174	1.2875	5.0909	5.e-002	7.4301e-007
19175	1.2875	4.8182	0.	-1151.3
19176	1.1955	4.9091	0.	-1132.1
19177	1.2875	4.9091	5.e-002	4.8216e-005
19178	1.2875	4.6364	0.	-1301.9
19179	1.1955	4.7273	0.	-1298.3
19180	1.2875	4.7273	5.e-002	-4.193e-015
19181	1.2875	4.4545	0.	-1428.8
19182	1.1955	4.5455	0.	-1437.5
19183	1.2875	4.5455	5.e-002	7.6292e-006
19184	1.2875	4.2727	0.	-1533.7
19185	1.1955	4.3636	0.	-1551.9
19186	1.2875	4.3636	5.e-002	-4.1387e-015
19187	1.2875	4.0909	0.	-1618.9
19188	1.1955	4.1818	0.	-1644.6
19189	1.2875	4.1818	5.e-002	1.1307e-005
19190	1.2875	3.9091	0.	-1686.7
19191	1.1955	4.	0.	-1718.5
19192	1.2875	4.	5.e-002	2.8817e-006
19193	1.2875	3.7273	0.	-1739.3
19194	1.1955	3.8182	0.	-1776.3
19195	1.2875	3.8182	5.e-002	7.765e-006
19196	1.2875	3.5455	0.	-1778.4
19197	1.1955	3.6364	0.	-1820.1
19198	1.2875	3.6364	5.e-002	3.6676e-006
19199	1.2875	3.3636	0.	-1805.4
19200	1.1955	3.4545	0.	-1851.6
19201	1.2875	3.4545	5.e-002	6.5095e-007
19202	1.2875	3.1818	0.	-1821.2
19203	1.1955	3.2727	0.	-1871.9
19204	1.2875	3.2727	5.e-002	1.5293e-005
19205	1.2875	3.	0.	-1826.4
19206	1.1955	3.0909	0.	-1881.9
19207	1.2875	3.0909	5.e-002	1.6135e-007
19208	1.2875	2.8182	0.	-1821.2
19209	1.1955	2.9091	0.	-1881.9
19210	1.2875	2.9091	5.e-002	-1.2908e-007
19211	1.2875	2.6364	0.	-1805.4
19212	1.1955	2.7273	0.	-1871.9
19213	1.2875	2.7273	5.e-002	4.4537e-007
19214	1.2875	2.4545	0.	-1778.4
19215	1.1955	2.5455	0.	-1851.6
19216	1.2875	2.5455	5.e-002	-3.2548e-007
19217	1.2875	2.2727	0.	-1739.3
19218	1.1955	2.3636	0.	-1820.1
19219	1.2875	2.3636	5.e-002	-9.1689e-007
19220	1.2875	2.0909	0.	-1686.7
19221	1.1955	2.1818	0.	-1776.3
19222	1.2875	2.1818	5.e-002	2.0195e-005
19223	1.2875	1.9091	0.	-1618.9
19224	1.1955	2.	0.	-1718.5
19225	1.2875	2.	5.e-002	-2.8817e-006
19226	1.2875	1.7273	0.	-1533.7
19227	1.1955	1.8182	0.	-1644.6
19228	1.2875	1.8182	5.e-002	-4.1487e-015
19229	1.2875	1.5455	0.	-1428.8
19230	1.1955	1.6364	0.	-1551.9
19231	1.2875	1.6364	5.e-002	-4.1387e-015
19232	1.2875	1.3636	0.	-1301.9
19233	1.1955	1.4545	0.	-1437.5
19234	1.2875	1.4545	5.e-002	-3.8146e-006
19235	1.2875	1.1818	0.	-1151.3
19236	1.1955	1.2727	0.	-1298.3
19237	1.2875	1.2727	5.e-002	-4.193e-015
19238	1.2875	1.	0.	-976.49
19239	1.1955	1.0909	0.	-1132.1
19240	1.2875	1.0909	5.e-002	-4.2706e-015
19241	1.2875	0.81818	0.	-779.68
19242	1.1955	0.90909	0.	-938.4
19243	1.2875	0.90909	5.e-002	5.5091e-005
19244	1.2875	0.63636	0.	-566.28
19245	1.1955	0.72727	0.	-720.09
19246	1.2875	0.72727	5.e-002	-2.4846e-006
19247	1.2875	0.45455	0.	-344.59
19248	1.1955	0.54545	0.	-484.89
19249	1.2875	0.54545	5.e-002	-4.4308e-015
19250	1.2875	0.27273	0.	-118.12
19251	1.1955	0.36364	0.	-244.01
19252	1.2875	0.36364	5.e-002	-4.2336e-015
19253	1.1955	0.18182	0.	-19.063
19254	1.2875	0.18182	5.e-002	-6.0247e-015
19255	1.2875	9.0909e-002	0.	-0.16894
19256	1.1036	5.7273	0.	-121.7
19257	1.0116	5.8182	0.	-15.952
19258	1.1036	5.8182	5.e-002	3.2551e-005
19259	1.1036	5.9091	0.	4.0598e-004
19260	1.1036	5.5455	0.	-383.56
19261	1.0116	5.6364	0.	-269.72
19262	1.1036	5.6364	5.e-002	-2.2167e-006
19263	1.1036	5.3636	0.	-638.45
19264	1.0116	5.4545	0.	-551.26
19265	1.1036	5.4545	5.e-002	1.2165e-004
19266	1.1036	5.1818	0.	-878.93
19267	1.0116	5.2727	0.	-820.42
19268	1.1036	5.2727	5.e-002	6.0312e-005
19269	1.1036	5.	0.	-1094.4
19270	1.0116	5.0909	0.	-1061.7
19271	1.1036	5.0909	5.e-002	-4.9384e-015
19272	1.1036	4.8182	0.	-1279.6
19273	1.0116	4.9091	0.	-1267.7
19274	1.1036	4.9091	5.e-002	-4.7609e-015
19275	1.1036	4.6364	0.	-1434.3
19276	1.0116	4.7273	0.	-1438.
19277	1.1036	4.7273	5.e-002	5.321e-005
19278	1.1036	4.4545	0.	-1561.
19279	1.0116	4.5455	0.	-1576.
19280	1.1036	4.5455	5.e-002	-4.5813e-015
19281	1.1036	4.2727	0.	-1663.2
19282	1.0116	4.3636	0.	-1686.6
19283	1.1036	4.3636	5.e-002	2.0597e-005
19284	1.1036	4.0909	0.	-1744.7
19285	1.0116	4.1818	0.	-1774.2
19286	1.1036	4.1818	5.e-002	1.4078e-005
19287	1.1036	3.9091	0.	-1808.5
19288	1.0116	4.	0.	-1842.9
19289	1.1036	4.	5.e-002	8.1915e-006
19290	1.1036	3.7273	0.	-1857.4
19291	1.0116	3.8182	0.	-1896.
19292	1.1036	3.8182	5.e-002	-4.6023e-015
19293	1.1036	3.5455	0.	-1893.5
19294	1.0116	3.6364	0.	-1935.8
19295	1.1036	3.6364	5.e-002	8.5268e-007
19296	1.1036	3.3636	0.	-1918.3
19297	1.0116	3.4545	0.	-1964.3
19298	1.1036	3.4545	5.e-002	9.0339e-007
19299	1.1036	3.1818	0.	-1932.7
19300	1.0116	3.2727	0.	-1982.5
19301	1.1036	3.2727	5.e-002	7.1654e-007
19302	1.1036	3.	0.	-1937.5
19303	1.0116	3.0909	0.	-1991.5
19304	1.1036	3.0909	5.e-002	1.7821e-007
19305	1.1036	2.8182	0.	-1932.7
19306	1.0116	2.9091	0.	-1991.5
19307	1.1036	2.9091	5.e-002	-1.1888e-007
19308	1.1036	2.6364	0.	-1918.3
19309	1.0116	2.7273	0.	-1982.5
19310	1.1036	2.7273	5.e-002	-1.7914e-007
19311	1.1036	2.4545	0.	-1893.5
19312	1.0116	2.5455	0.	-1964.3
19313	1.1036	2.5455	5.e-002	9.5901e-007
19314	1.1036	2.2727	0.	-1857.4
19315	1.0116	2.3636	0.	-1935.8
19316	1.1036	2.3636	5.e-002	-8.5268e-007
19317	1.1036	2.0909	0.	-1808.5
19318	1.0116	2.1818	0.	-1896.
19319	1.1036	2.1818	5.e-002	1.8415e-005
19320	1.1036	1.9091	0.	-1744.7
19321	1.0116	2.	0.	-1842.9
19322	1.1036	2.	5.e-002	-4.5847e-015
19323	1.1036	1.7273	0.	-1663.2
19324	1.0116	1.8182	0.	-1774.2
19325	1.1036	1.8182	5.e-002	-4.5691e-015
19326	1.1036	1.5455	0.	-1561.
19327	1.0116	1.6364	0.	-1686.6
19328	1.1036	1.6364	5.e-002	-4.5634e-015
19329	1.1036	1.3636	0.	-1434.3
19330	1.0116	1.4545	0.	-1576.
19331	1.1036	1.4545	5.e-002	4.2322e-006
19332	1.1036	1.1818	0.	-1279.6
19333	1.0116	1.2727	0.	-1438.
19334	1.1036	1.2727	5.e-002	-4.6414e-015
19335	1.1036	1.	0.	-1094.4
19336	1.0116	1.0909	0.	-1267.7
19337	1.1036	1.0909	5.e-002	-4.7609e-015
19338	1.1036	0.81818	0.	-878.93
19339	1.0116	0.90909	0.	-1061.7
19340	1.1036	0.90909	5.e-002	-4.9384e-015
19341	1.1036	0.63636	0.	-638.45
19342	1.0116	0.72727	0.	-820.42
19343	1.1036	0.72727	5.e-002	-1.6506e-006
19344	1.1036	0.45455	0.	-383.56
19345	1.0116	0.54545	0.	-551.26
19346	1.1036	0.54545	5.e-002	-5.2314e-015
19347	1.1036	0.27273	0.	-121.7
19348	1.0116	0.36364	0.	-269.72
19349	1.1036	0.36364	5.e-002	-5.0435e-015
19350	1.0116	0.18182	0.	-15.952
19351	1.1036	0.18182	5.e-002	-3.2551e-005
19352	1.1036	9.0909e-002	0.	4.0659e-004
19353	0.91964	5.7273	0.	-127.84
19354	0.82768	5.8182	0.	-16.431
19355	0.91964	5.8182	5.e-002	4.291e-005
19356	0.91964	5.9091	0.	1.0266
19357	0.91964	5.5455	0.	-436.62
19358	0.82768	5.6364	0.	-311.61
19359	0.91964	5.6364	5.e-002	-6.2893e-015
19360	0.91964	5.3636	0.	-733.21
19361	0.82768	5.4545	0.	-648.47
19362	0.91964	5.4545	5.e-002	1.1584e-004
19363	0.91964	5.1818	0.	-1003.7
19364	0.82768	5.2727	0.	-957.29
19365	0.91964	5.2727	5.e-002	6.3014e-005
19366	0.91964	5.	0.	-1235.8
19367	0.82768	5.0909	0.	-1219.4
19368	0.91964	5.0909	5.e-002	4.2383e-006
19369	0.91964	4.8182	0.	-1426.8
19370	0.82768	4.9091	0.	-1431.5
19371	0.91964	4.9091	5.e-002	6.4757e-006
19372	0.91964	4.6364	0.	-1580.3
19373	0.82768	4.7273	0.	-1599.2
19374	0.91964	4.7273	5.e-002	7.5135e-006
19375	0.91964	4.4545	0.	-1702.
19376	0.82768	4.5455	0.	-1730.3
19377	0.91964	4.5455	5.e-002	8.7892e-006
19378	0.91964	4.2727	0.	-1797.8
19379	0.82768	4.3636	0.	-1832.4
19380	0.91964	4.3636	5.e-002	1.7924e-005
19381	0.91964	4.0909	0.	-1872.7
19382	0.82768	4.1818	0.	-1911.8
19383	0.91964	4.1818	5.e-002	1.2259e-005
19384	0.91964	3.9091	0.	-1930.6
19385	0.82768	4.	0.	-1973.3
19386	0.91964	4.	5.e-002	1.0279e-005
19387	0.91964	3.7273	0.	-1974.6
19388	0.82768	3.8182	0.	-2020.2
19389	0.91964	3.8182	5.e-002	3.0629e-006
19390	0.91964	3.5455	0.	-2006.7
19391	0.82768	3.6364	0.	-2055.2
19392	0.91964	3.6364	5.e-002	1.5372e-005
19393	0.91964	3.3636	0.	-2028.7
19394	0.82768	3.4545	0.	-2080.1
19395	0.91964	3.4545	5.e-002	2.7438e-007
19396	0.91964	3.1818	0.	-2041.5
19397	0.82768	3.2727	0.	-2096.1
19398	0.91964	3.2727	5.e-002	3.2569e-007
19399	0.91964	3.	0.	-2045.7
19400	0.82768	3.0909	0.	-2103.9
19401	0.91964	3.0909	5.e-002	1.8386e-007
19402	0.91964	2.8182	0.	-2041.5
19403	0.82768	2.9091	0.	-2103.9
19404	0.91964	2.9091	5.e-002	-5.9034e-008
19405	0.91964	2.6364	0.	-2028.7
19406	0.82768	2.7273	0.	-2096.1
19407	0.91964	2.7273	5.e-002	-3.2569e-007
19408	0.91964	2.4545	0.	-2006.7
19409	0.82768	2.5455	0.	-2080.1
19410	0.91964	2.5455	5.e-002	-5.4877e-007
19411	0.91964	2.2727	0.	-1974.6
19412	0.82768	2.3636	0.	-2055.2
19413	0.91964	2.3636	5.e-002	-5.0473e-015
19414	0.91964	2.0909	0.	-1930.6
19415	0.82768	2.1818	0.	-2020.2
19416	0.91964	2.1818	5.e-002	-1.021e-006
19417	0.91964	1.9091	0.	-1872.7
19418	0.82768	2.	0.	-1973.3
19419	0.91964	2.	5.e-002	-5.0489e-015
19420	0.91964	1.7273	0.	-1797.8
19421	0.82768	1.8182	0.	-1911.8
19422	0.91964	1.8182	5.e-002	-5.0514e-015
19423	0.91964	1.5455	0.	-1702.
19424	0.82768	1.6364	0.	-1832.4
19425	0.91964	1.6364	5.e-002	-5.0623e-015
19426	0.91964	1.3636	0.	-1580.3
19427	0.82768	1.4545	0.	-1730.3
19428	0.91964	1.4545	5.e-002	-3.7704e-006
19429	0.91964	1.1818	0.	-1426.8
19430	0.82768	1.2727	0.	-1599.2
19431	0.91964	1.2727	5.e-002	-5.1778e-015
19432	0.91964	1.	0.	-1235.8
19433	0.82768	1.0909	0.	-1431.5
19434	0.91964	1.0909	5.e-002	-5.3456e-015
19435	0.91964	0.81818	0.	-1003.7
19436	0.82768	0.90909	0.	-1219.4
19437	0.91964	0.90909	5.e-002	-5.6301e-015
19438	0.91964	0.63636	0.	-733.21
19439	0.82768	0.72727	0.	-957.29
19440	0.91964	0.72727	5.e-002	-6.0107e-015
19441	0.91964	0.45455	0.	-436.62
19442	0.82768	0.54545	0.	-648.47
19443	0.91964	0.54545	5.e-002	-6.3526e-015
19444	0.91964	0.27273	0.	-127.84
19445	0.82768	0.36364	0.	-311.61
19446	0.91964	0.36364	5.e-002	-6.2893e-015
19447	0.82768	0.18182	0.	-16.431
19448	0.91964	0.18182	5.e-002	-6.326e-015
19449	0.91964	9.0909e-002	0.	1.0266
19450	0.73571	5.7273	0.	-146.03
19451	0.64375	5.8182	0.	-9.8836
19452	0.73571	5.8182	5.e-002	5.6015e-005
19453	0.73571	5.9091	0.	-1.4266
19454	0.73571	5.5455	0.	-522.8
19455	0.64375	5.6364	0.	-375.7
19456	0.73571	5.6364	5.e-002	5.2665e-005
19457	0.73571	5.3636	0.	-873.08
19458	0.64375	5.4545	0.	-784.12
19459	0.73571	5.4545	5.e-002	-7.9062e-015
19460	0.73571	5.1818	0.	-1174.
19461	0.64375	5.2727	0.	-1130.7
19462	0.73571	5.2727	5.e-002	-7.1204e-015
19463	0.73571	5.	0.	-1416.2
19464	0.64375	5.0909	0.	-1402.
19465	0.73571	5.0909	5.e-002	-6.4825e-015
19466	0.73571	4.8182	0.	-1604.7
19467	0.64375	4.9091	0.	-1607.5
19468	0.73571	4.9091	5.e-002	-6.0893e-015
19469	0.73571	4.6364	0.	-1749.6
19470	0.64375	4.7273	0.	-1762.1
19471	0.73571	4.7273	5.e-002	3.8448e-005
19472	0.73571	4.4545	0.	-1860.9
19473	0.64375	4.5455	0.	-1879.1
19474	0.73571	4.5455	5.e-002	7.285e-006
19475	0.73571	4.2727	0.	-1946.6
19476	0.64375	4.3636	0.	-1968.3
19477	0.73571	4.3636	5.e-002	1.7722e-005
19478	0.73571	4.0909	0.	-2012.5
19479	0.64375	4.1818	0.	-2036.7
19480	0.73571	4.1818	5.e-002	1.3856e-006
19481	0.73571	3.9091	0.	-2063.
19482	0.64375	4.	0.	-2089.1
19483	0.73571	4.	5.e-002	7.2512e-006
19484	0.73571	3.7273	0.	-2101.
19485	0.64375	3.8182	0.	-2129.
19486	0.73571	3.8182	5.e-002	1.8262e-006
19487	0.73571	3.5455	0.	-2128.8
19488	0.64375	3.6364	0.	-2158.6
19489	0.73571	3.6364	5.e-002	3.4708e-007
19490	0.73571	3.3636	0.	-2147.6
19491	0.64375	3.4545	0.	-2179.6
19492	0.73571	3.4545	5.e-002	-5.5305e-015
19493	0.73571	3.1818	0.	-2158.6
19494	0.64375	3.2727	0.	-2193.1
19495	0.73571	3.2727	5.e-002	2.8848e-007
19496	0.73571	3.	0.	-2162.2
19497	0.64375	3.0909	0.	-2199.6
19498	0.73571	3.0909	5.e-002	9.5549e-008
19499	0.73571	2.8182	0.	-2158.6
19500	0.64375	2.9091	0.	-2199.6
19501	0.73571	2.9091	5.e-002	-8.9577e-008
19502	0.73571	2.6364	0.	-2147.6
19503	0.64375	2.7273	0.	-2193.1
19504	0.73571	2.7273	5.e-002	-2.1636e-007
19505	0.73571	2.4545	0.	-2128.8
19506	0.64375	2.5455	0.	-2179.6
19507	0.73571	2.5455	5.e-002	-4.8689e-007
19508	0.73571	2.2727	0.	-2101.
19509	0.64375	2.3636	0.	-2158.6
19510	0.73571	2.3636	5.e-002	-5.553e-015
19511	0.73571	2.0909	0.	-2063.
19512	0.64375	2.1818	0.	-2129.
19513	0.73571	2.1818	5.e-002	-5.5813e-015
19514	0.73571	1.9091	0.	-2012.5
19515	0.64375	2.	0.	-2089.1
19516	0.73571	2.	5.e-002	-1.1447e-006
19517	0.73571	1.7273	0.	-1946.6
19518	0.64375	1.8182	0.	-2036.7
19519	0.73571	1.8182	5.e-002	-1.3856e-006
19520	0.73571	1.5455	0.	-1860.9
19521	0.64375	1.6364	0.	-1968.3
19522	0.73571	1.6364	5.e-002	1.4477e-005
19523	0.73571	1.3636	0.	-1749.6
19524	0.64375	1.4545	0.	-1879.1
19525	0.73571	1.4545	5.e-002	9.8958e-006
19526	0.73571	1.1818	0.	-1604.7
19527	0.64375	1.2727	0.	-1762.1
19528	0.73571	1.2727	5.e-002	-5.8776e-015
19529	0.73571	1.	0.	-1416.2
19530	0.64375	1.0909	0.	-1607.5
19531	0.73571	1.0909	5.e-002	-6.0893e-015
19532	0.73571	0.81818	0.	-1174.
19533	0.64375	0.90909	0.	-1402.
19534	0.73571	0.90909	5.e-002	-6.4825e-015
19535	0.73571	0.63636	0.	-873.08
19536	0.64375	0.72727	0.	-1130.7
19537	0.73571	0.72727	5.e-002	-7.1204e-015
19538	0.73571	0.45455	0.	-522.8
19539	0.64375	0.54545	0.	-784.12
19540	0.73571	0.54545	5.e-002	-7.9062e-015
19541	0.73571	0.27273	0.	-146.03
19542	0.64375	0.36364	0.	-375.7
19543	0.73571	0.36364	5.e-002	-8.2614e-015
19544	0.64375	0.18182	0.	-9.8836
19545	0.73571	0.18182	5.e-002	-6.8194e-015
19546	0.73571	9.0909e-002	0.	-1.4266
19547	0.55179	5.7273	0.	-169.4
19548	0.45982	5.8182	0.	-41.497
19549	0.55179	5.8182	5.e-002	2.8454e-008
19550	0.55179	5.9091	0.	9.0474
19551	0.55179	5.5455	0.	-637.31
19552	0.45982	5.6364	0.	-536.64
19553	0.55179	5.6364	5.e-002	-1.1972e-005
19554	0.55179	5.3636	0.	-1043.4
19555	0.45982	5.4545	0.	-1039.9
19556	0.55179	5.4545	5.e-002	-9.9625e-015
19557	0.55179	5.1818	0.	-1360.2
19558	0.45982	5.2727	0.	-1408.4
19559	0.55179	5.2727	5.e-002	5.9849e-005
19560	0.55179	5.	0.	-1594.2
19561	0.45982	5.0909	0.	-1668.
19562	0.55179	5.0909	5.e-002	2.9062e-006
19563	0.55179	4.8182	0.	-1765.3
19564	0.45982	4.9091	0.	-1851.6
19565	0.55179	4.9091	5.e-002	-6.9438e-015
19566	0.55179	4.6364	0.	-1891.7
19567	0.45982	4.7273	0.	-1984.7
19568	0.55179	4.7273	5.e-002	3.7576e-006
19569	0.55179	4.4545	0.	-1986.4
19570	0.45982	4.5455	0.	-2083.3
19571	0.55179	4.5455	5.e-002	2.8094e-005
19572	0.55179	4.2727	0.	-2058.3
19573	0.45982	4.3636	0.	-2157.7
19574	0.55179	4.3636	5.e-002	1.4889e-006
19575	0.55179	4.0909	0.	-2113.2
19576	0.45982	4.1818	0.	-2214.6
19577	0.55179	4.1818	5.e-002	1.2548e-006
19578	0.55179	3.9091	0.	-2155.
19579	0.45982	4.	0.	-2258.1
19580	0.55179	4.	5.e-002	2.0595e-006
19581	0.55179	3.7273	0.	-2186.5
19582	0.45982	3.8182	0.	-2291.3
19583	0.55179	3.8182	5.e-002	4.0942e-007
19584	0.55179	3.5455	0.	-2209.5
19585	0.45982	3.6364	0.	-2315.9
19586	0.55179	3.6364	5.e-002	1.6663e-006
19587	0.55179	3.3636	0.	-2225.1
19588	0.45982	3.4545	0.	-2333.4
19589	0.55179	3.4545	5.e-002	4.3579e-007
19590	0.55179	3.1818	0.	-2234.2
19591	0.45982	3.2727	0.	-2344.7
19592	0.55179	3.2727	5.e-002	5.3903e-007
19593	0.55179	3.	0.	-2237.2
19594	0.45982	3.0909	0.	-2350.1
19595	0.55179	3.0909	5.e-002	9.4813e-008
19596	0.55179	2.8182	0.	-2234.2
19597	0.45982	2.9091	0.	-2350.1
19598	0.55179	2.9091	5.e-002	-3.3448e-008
19599	0.55179	2.6364	0.	-2225.1
19600	0.45982	2.7273	0.	-2344.7
19601	0.55179	2.7273	5.e-002	-1.2909e-007
19602	0.55179	2.4545	0.	-2209.5
19603	0.45982	2.5455	0.	-2333.4
19604	0.55179	2.5455	5.e-002	3.7144e-007
19605	0.55179	2.2727	0.	-2186.5
19606	0.45982	2.3636	0.	-2315.9
19607	0.55179	2.3636	5.e-002	-5.9055e-015
19608	0.55179	2.0909	0.	-2155.
19609	0.45982	2.1818	0.	-2291.3
19610	0.55179	2.1818	5.e-002	-5.9769e-015
19611	0.55179	1.9091	0.	-2113.2
19612	0.45982	2.	0.	-2258.1
19613	0.55179	2.	5.e-002	-1.0298e-006
19614	0.55179	1.7273	0.	-2058.3
19615	0.45982	1.8182	0.	-2214.6
19616	0.55179	1.8182	5.e-002	-1.2548e-006
19617	0.55179	1.5455	0.	-1986.4
19618	0.45982	1.6364	0.	-2157.7
19619	0.55179	1.6364	5.e-002	-1.4889e-006
19620	0.55179	1.3636	0.	-1891.7
19621	0.45982	1.4545	0.	-2083.3
19622	0.55179	1.4545	5.e-002	-6.4461e-015
19623	0.55179	1.1818	0.	-1765.3
19624	0.45982	1.2727	0.	-1984.7
19625	0.55179	1.2727	5.e-002	-6.6439e-015
19626	0.55179	1.	0.	-1594.2
19627	0.45982	1.0909	0.	-1851.6
19628	0.55179	1.0909	5.e-002	3.2635e-005
19629	0.55179	0.81818	0.	-1360.2
19630	0.45982	0.90909	0.	-1668.
19631	0.55179	0.90909	5.e-002	-7.4714e-015
19632	0.55179	0.63636	0.	-1043.4
19633	0.45982	0.72727	0.	-1408.4
19634	0.55179	0.72727	5.e-002	-8.4223e-015
19635	0.55179	0.45455	0.	-637.31
19636	0.45982	0.54545	0.	-1039.9
19637	0.55179	0.54545	5.e-002	-9.9625e-015
19638	0.55179	0.27273	0.	-169.4
19639	0.45982	0.36364	0.	-536.64
19640	0.55179	0.36364	5.e-002	-1.1449e-014
19641	0.45982	0.18182	0.	-41.497
19642	0.55179	0.18182	5.e-002	-8.5343e-015
19643	0.55179	9.0909e-002	0.	9.0474
19644	0.36786	5.7273	0.	-306.62
19645	0.27589	5.8182	0.	-3.153
19646	0.36786	5.8182	5.e-002	4.7464e-005
19647	0.36786	5.9091	0.	-23.652
19648	0.36786	5.5455	0.	-942.13
19649	0.27589	5.6364	0.	-743.09
19650	0.36786	5.6364	5.e-002	-9.9659e-006
19651	0.36786	5.3636	0.	-1407.9
19652	0.27589	5.4545	0.	-1244.2
19653	0.36786	5.4545	5.e-002	4.8994e-007
19654	0.36786	5.1818	0.	-1717.2
19655	0.27589	5.2727	0.	-1554.4
19656	0.36786	5.2727	5.e-002	1.0342e-004
19657	0.36786	5.	0.	-1925.2
19658	0.27589	5.0909	0.	-1755.1
19659	0.36786	5.0909	5.e-002	1.7327e-005
19660	0.36786	4.8182	0.	-2070.4
19661	0.27589	4.9091	0.	-1892.9
19662	0.36786	4.9091	5.e-002	2.2017e-005
19663	0.36786	4.6364	0.	-2175.7
19664	0.27589	4.7273	0.	-1992.1
19665	0.36786	4.7273	5.e-002	1.6213e-005
19666	0.36786	4.4545	0.	-2254.1
19667	0.27589	4.5455	0.	-2065.9
19668	0.36786	4.5455	5.e-002	1.2222e-005
19669	0.36786	4.2727	0.	-2313.7
19670	0.27589	4.3636	0.	-2121.9
19671	0.36786	4.3636	5.e-002	3.0624e-005
19672	0.36786	4.0909	0.	-2359.3
19673	0.27589	4.1818	0.	-2165.
19674	0.36786	4.1818	5.e-002	1.0163e-006
19675	0.36786	3.9091	0.	-2394.3
19676	0.27589	4.	0.	-2198.2
19677	0.36786	4.	5.e-002	1.2384e-006
19678	0.36786	3.7273	0.	-2420.6
19679	0.27589	3.8182	0.	-2223.6
19680	0.36786	3.8182	5.e-002	6.5232e-007
19681	0.36786	3.5455	0.	-2439.9
19682	0.27589	3.6364	0.	-2242.5
19683	0.36786	3.6364	5.e-002	4.9318e-007
19684	0.36786	3.3636	0.	-2453.
19685	0.27589	3.4545	0.	-2256.
19686	0.36786	3.4545	5.e-002	2.5861e-007
19687	0.36786	3.1818	0.	-2460.7
19688	0.27589	3.2727	0.	-2264.7
19689	0.36786	3.2727	5.e-002	1.5296e-007
19690	0.36786	3.	0.	-2463.2
19691	0.27589	3.0909	0.	-2268.9
19692	0.36786	3.0909	5.e-002	6.1298e-008
19693	0.36786	2.8182	0.	-2460.7
19694	0.27589	2.9091	0.	-2268.9
19695	0.36786	2.9091	5.e-002	-3.7966e-008
19696	0.36786	2.6364	0.	-2453.
19697	0.27589	2.7273	0.	-2264.7
19698	0.36786	2.7273	5.e-002	7.2982e-008
19699	0.36786	2.4545	0.	-2439.9
19700	0.27589	2.5455	0.	-2256.
19701	0.36786	2.5455	5.e-002	-8.6202e-008
19702	0.36786	2.2727	0.	-2420.6
19703	0.27589	2.3636	0.	-2242.5
19704	0.36786	2.3636	5.e-002	-6.9504e-015
19705	0.36786	2.0909	0.	-2394.3
19706	0.27589	2.1818	0.	-2223.6
19707	0.36786	2.1818	5.e-002	1.8403e-006
19708	0.36786	1.9091	0.	-2359.3
19709	0.27589	2.	0.	-2198.2
19710	0.36786	2.	5.e-002	-7.2165e-015
19711	0.36786	1.7273	0.	-2313.7
19712	0.27589	1.8182	0.	-2165.
19713	0.36786	1.8182	5.e-002	-7.4e-015
19714	0.36786	1.5455	0.	-2254.1
19715	0.27589	1.6364	0.	-2121.9
19716	0.36786	1.6364	5.e-002	-7.6209e-015
19717	0.36786	1.3636	0.	-2175.7
19718	0.27589	1.4545	0.	-2065.9
19719	0.36786	1.4545	5.e-002	-7.885e-015
19720	0.36786	1.1818	0.	-2070.4
19721	0.27589	1.2727	0.	-1992.1
19722	0.36786	1.2727	5.e-002	-8.2056e-015
19723	0.36786	1.	0.	-1925.2
19724	0.27589	1.0909	0.	-1892.9
19725	0.36786	1.0909	5.e-002	-8.6192e-015
19726	0.36786	0.81818	0.	-1717.2
19727	0.27589	0.90909	0.	-1755.1
19728	0.36786	0.90909	5.e-002	-3.7385e-006
19729	0.36786	0.63636	0.	-1407.9
19730	0.27589	0.72727	0.	-1554.4
19731	0.36786	0.72727	5.e-002	-1.0379e-014
19732	0.36786	0.45455	0.	-942.13
19733	0.27589	0.54545	0.	-1244.2
19734	0.36786	0.54545	5.e-002	-1.2614e-014
19735	0.36786	0.27273	0.	-306.62
19736	0.27589	0.36364	0.	-743.09
19737	0.36786	0.36364	5.e-002	-1.6568e-014
19738	0.27589	0.18182	0.	-3.1529
19739	0.36786	0.18182	5.e-002	-1.4921e-014
19740	0.36786	9.0909e-002	0.	-23.652
19741	0.18393	5.7273	0.	-412.1
19742	0.18393	5.8182	5.e-002	2.5395e-005
19743	0.18393	5.9091	0.	88.475
19744	9.1964e-002	5.8182	0.	-571.72
19745	0.18393	5.5455	0.	-1044.7
19746	0.18393	5.6364	5.e-002	1.189e-004
19747	9.1964e-002	5.6364	0.	-1563.9
19748	0.18393	5.3636	0.	-1383.5
19749	0.18393	5.4545	5.e-002	-1.5592e-014
19750	9.1964e-002	5.4545	0.	-2040.
19751	0.18393	5.1818	0.	-1585.7
19752	0.18393	5.2727	5.e-002	8.337e-006
19753	9.1964e-002	5.2727	0.	-2318.2
19754	0.18393	5.	0.	-1718.2
19755	0.18393	5.0909	5.e-002	3.2537e-005
19756	9.1964e-002	5.0909	0.	-2500.3
19757	0.18393	4.8182	0.	-1811.6
19758	0.18393	4.9091	5.e-002	1.8351e-006
19759	9.1964e-002	4.9091	0.	-2628.9
19760	0.18393	4.6364	0.	-1880.5
19761	0.18393	4.7273	5.e-002	3.3659e-006
19762	9.1964e-002	4.7273	0.	-2723.5
19763	0.18393	4.4545	0.	-1932.5
19764	0.18393	4.5455	5.e-002	3.0047e-006
19765	9.1964e-002	4.5455	0.	-2795.1
19766	0.18393	4.2727	0.	-1972.5
19767	0.18393	4.3636	5.e-002	1.3816e-005
19768	9.1964e-002	4.3636	0.	-2850.2
19769	0.18393	4.0909	0.	-2003.5
19770	0.18393	4.1818	5.e-002	1.127e-006
19771	9.1964e-002	4.1818	0.	-2892.8
19772	0.18393	3.9091	0.	-2027.3
19773	0.18393	4.	5.e-002	9.4349e-007
19774	9.1964e-002	4.	0.	-2925.9
19775	0.18393	3.7273	0.	-2045.4
19776	0.18393	3.8182	5.e-002	6.69e-007
19777	9.1964e-002	3.8182	0.	-2951.2
19778	0.18393	3.5455	0.	-2058.6
19779	0.18393	3.6364	5.e-002	3.0212e-005
19780	9.1964e-002	3.6364	0.	-2970.2
19781	0.18393	3.3636	0.	-2067.7
19782	0.18393	3.4545	5.e-002	1.0587e-006
19783	9.1964e-002	3.4545	0.	-2983.7
19784	0.18393	3.1818	0.	-2073.
19785	0.18393	3.2727	5.e-002	1.4075e-007
19786	9.1964e-002	3.2727	0.	-2992.4
19787	0.18393	3.	0.	-2074.7
19788	0.18393	3.0909	5.e-002	1.5291e-005
19789	9.1964e-002	3.0909	0.	-2996.7
19790	0.18393	2.8182	0.	-2073.
19791	0.18393	2.9091	5.e-002	1.5219e-005
19792	9.1964e-002	2.9091	0.	-2996.7
19793	0.18393	2.6364	0.	-2067.7
19794	0.18393	2.7273	5.e-002	-7.8192e-008
19795	9.1964e-002	2.7273	0.	-2992.4
19796	0.18393	2.4545	0.	-2058.6
19797	0.18393	2.5455	5.e-002	1.4968e-005
19798	9.1964e-002	2.5455	0.	-2983.7
19799	0.18393	2.2727	0.	-2045.4
19800	0.18393	2.3636	5.e-002	1.6381e-005
19801	9.1964e-002	2.3636	0.	-2970.2
19802	0.18393	2.0909	0.	-2027.3
19803	0.18393	2.1818	5.e-002	2.5591e-006
19804	9.1964e-002	2.1818	0.	-2951.2
19805	0.18393	1.9091	0.	-2003.5
19806	0.18393	2.	5.e-002	-2.3587e-007
19807	9.1964e-002	2.	0.	-2925.9
19808	0.18393	1.7273	0.	-1972.5
19809	0.18393	1.8182	5.e-002	1.3785e-005
19810	9.1964e-002	1.8182	0.	-2892.8
19811	0.18393	1.5455	0.	-1932.5
19812	0.18393	1.6364	5.e-002	-6.518e-015
19813	9.1964e-002	1.6364	0.	-2850.2
19814	0.18393	1.3636	0.	-1880.5
19815	0.18393	1.4545	5.e-002	-7.0803e-015
19816	9.1964e-002	1.4545	0.	-2795.1
19817	0.18393	1.1818	0.	-1811.6
19818	0.18393	1.2727	5.e-002	-7.8011e-015
19819	9.1964e-002	1.2727	0.	-2723.5
19820	0.18393	1.	0.	-1718.2
19821	0.18393	1.0909	5.e-002	-8.7457e-015
19822	9.1964e-002	1.0909	0.	-2628.9
19823	0.18393	0.81818	0.	-1585.7
19824	0.18393	0.90909	5.e-002	-1.0041e-014
19825	9.1964e-002	0.90909	0.	-2500.3
19826	0.18393	0.63636	0.	-1383.5
19827	0.18393	0.72727	5.e-002	-1.1938e-014
19828	9.1964e-002	0.72727	0.	-2318.2
19829	0.18393	0.45455	0.	-1044.7
19830	0.18393	0.54545	5.e-002	-1.5592e-014
19831	9.1964e-002	0.54545	0.	-2040.
19832	0.18393	0.27273	0.	-412.1
19833	0.18393	0.36364	5.e-002	-9.719e-008
19834	9.1964e-002	0.36364	0.	-1563.9
19835	0.18393	0.18182	5.e-002	-3.6041e-014
19836	0.18393	9.0909e-002	0.	88.475
19837	9.1964e-002	0.18182	0.	-571.72
19838	20.946	0.27273	0.	-2.759
19839	21.036	0.18182	0.	-2.8368
19840	20.946	0.18182	5.e-002	5.4401e-006
19841	20.946	9.0909e-002	0.	-1.879
19842	20.856	0.18182	0.	-0.49313
19843	20.946	0.45455	0.	-1.7201
19844	21.036	0.36364	0.	-2.1766
19845	20.946	0.36364	5.e-002	6.4395e-006
19846	20.856	0.36364	0.	0.4094
19847	20.946	0.63636	0.	-1.4903
19848	21.036	0.54545	0.	-1.5819
19849	20.946	0.54545	5.e-002	8.3481e-006
19850	20.856	0.54545	0.	0.27896
19851	20.946	0.81818	0.	-1.4842
19852	21.036	0.72727	0.	-1.3368
19853	20.946	0.72727	5.e-002	1.1579e-005
19854	20.856	0.72727	0.	0.29095
19855	20.946	1.	0.	-1.7365
19856	21.036	0.90909	0.	-1.3419
19857	20.946	0.90909	5.e-002	1.18e-005
19858	20.856	0.90909	0.	0.34885
19859	20.946	1.1818	0.	-2.0105
19860	21.036	1.0909	0.	-1.5878
19861	20.946	1.0909	5.e-002	1.0581e-005
19862	20.856	1.0909	0.	0.17661
19863	20.946	1.3636	0.	-3.4885
19864	21.036	1.2727	0.	-1.805
19865	20.946	1.2727	5.e-002	1.1904e-005
19866	20.856	1.2727	0.	0.92315
19867	20.946	1.5455	0.	-3.0459
19868	21.036	1.4545	0.	-3.5995
19869	20.946	1.4545	5.e-002	6.6159e-006
19870	20.856	1.4545	0.	-2.1003
19871	20.946	1.7273	0.	-16.89
19872	21.036	1.6364	0.	-2.1595
19873	20.946	1.6364	5.e-002	1.0259e-005
19874	20.856	1.6364	0.	10.577
19875	20.946	1.9091	0.	-61.962
19876	21.036	1.8182	0.	-18.708
19877	20.946	1.8182	5.e-002	4.0707e-007
19878	20.856	1.8182	0.	-45.468
19879	20.946	2.0909	0.	-41.733
19880	21.036	2.	0.	-39.378
19881	20.946	2.	5.e-002	1.1967e-005
19882	20.856	2.	0.	-161.13
19883	20.946	2.2727	0.	-12.394
19884	21.036	2.1818	0.	-21.831
19885	20.946	2.1818	5.e-002	9.9612e-006
19886	20.946	2.4545	0.	-1.9281
19887	21.036	2.3636	0.	-5.1103
19888	20.946	2.3636	5.e-002	-7.2421e-006
19889	20.946	2.6364	0.	3.2987e-002
19890	21.036	2.5455	0.	-0.11971
19891	20.946	2.5455	5.e-002	6.9275e-006
19892	20.946	2.8182	0.	-0.27996
19893	21.036	2.7273	0.	-0.32977
19894	20.946	2.7273	5.e-002	3.4162e-006
19895	20.946	3.	0.	-1.7352e-002
19896	21.036	2.9091	0.	1.0722e-003
19897	20.946	2.9091	5.e-002	-1.9004e-007
19898	20.946	3.1818	0.	-0.27996
19899	21.036	3.0909	0.	1.0722e-003
19900	20.946	3.0909	5.e-002	-3.4238e-006
19901	20.946	3.3636	0.	3.2987e-002
19902	21.036	3.2727	0.	-0.32977
19903	20.946	3.2727	5.e-002	-7.9736e-006
19904	20.946	3.5455	0.	-1.9281
19905	21.036	3.4545	0.	-0.11971
19906	20.946	3.4545	5.e-002	-7.9021e-006
19907	20.946	3.7273	0.	-12.394
19908	21.036	3.6364	0.	-5.1103
19909	20.946	3.6364	5.e-002	-1.3546e-005
19910	20.946	3.9091	0.	-41.733
19911	21.036	3.8182	0.	-21.831
19912	20.946	3.8182	5.e-002	-7.5662e-007
19913	20.946	4.0909	0.	-61.962
19914	21.036	4.	0.	-39.378
19915	20.946	4.	5.e-002	1.0402e-005
19916	20.856	4.	0.	-161.13
19917	20.946	4.2727	0.	-16.89
19918	21.036	4.1818	0.	-18.708
19919	20.946	4.1818	5.e-002	-1.4852e-005
19920	20.856	4.1818	0.	-45.468
19921	20.946	4.4545	0.	-3.0459
19922	21.036	4.3636	0.	-2.1595
19923	20.946	4.3636	5.e-002	4.6197e-006
19924	20.856	4.3636	0.	10.577
19925	20.946	4.6364	0.	-3.4885
19926	21.036	4.5455	0.	-3.5995
19927	20.946	4.5455	5.e-002	7.9566e-006
19928	20.856	4.5455	0.	-2.1003
19929	20.946	4.8182	0.	-2.0105
19930	21.036	4.7273	0.	-1.805
19931	20.946	4.7273	5.e-002	6.378e-006
19932	20.856	4.7273	0.	0.92315
19933	20.946	5.	0.	-1.7365
19934	21.036	4.9091	0.	-1.5878
19935	20.946	4.9091	5.e-002	7.6739e-006
19936	20.856	4.9091	0.	0.1766
19937	20.946	5.1818	0.	-1.4842
19938	21.036	5.0909	0.	-1.3419
19939	20.946	5.0909	5.e-002	8.7797e-006
19940	20.856	5.0909	0.	0.34885
19941	20.946	5.3636	0.	-1.4903
19942	21.036	5.2727	0.	-1.3368
19943	20.946	5.2727	5.e-002	5.6292e-006
19944	20.856	5.2727	0.	0.29095
19945	20.946	5.5455	0.	-1.7201
19946	21.036	5.4545	0.	-1.5819
19947	20.946	5.4545	5.e-002	7.5925e-006
19948	20.856	5.4545	0.	0.27896
19949	20.946	5.7273	0.	-2.759
19950	21.036	5.6364	0.	-2.1766
19951	20.946	5.6364	5.e-002	7.5409e-006
19952	20.856	5.6364	0.	0.40939
19953	21.036	5.8182	0.	-2.8368
19954	20.946	5.8182	5.e-002	6.7777e-006
19955	20.946	5.9091	0.	-1.879
19956	20.856	5.8182	0.	-0.49313
19957	21.126	0.27273	0.	-1.9485
19958	21.216	0.18182	0.	-1.2297
19959	21.126	0.18182	5.e-002	4.6612e-006
19960	21.126	9.0909e-002	0.	-5.505e-002
19961	21.126	0.45455	0.	-1.7085
19962	21.216	0.36364	0.	-1.9129
19963	21.126	0.36364	5.e-002	7.4968e-006
19964	21.126	0.63636	0.	-1.2779
19965	21.216	0.54545	0.	-1.8127
19966	21.126	0.54545	5.e-002	5.8455e-006
19967	21.126	0.81818	0.	-1.0868
19968	21.216	0.72727	0.	-1.538
19969	21.126	0.72727	5.e-002	2.3252e-006
19970	21.126	1.	0.	-1.0941
19971	21.216	0.90909	0.	-1.4793
19972	21.126	0.90909	5.e-002	5.9267e-006
19973	21.126	1.1818	0.	-1.2786
19974	21.216	1.0909	0.	-1.6379
19975	21.126	1.0909	5.e-002	9.2651e-006
19976	21.126	1.3636	0.	-1.8501
19977	21.216	1.2727	0.	-2.084
19978	21.126	1.2727	5.e-002	9.5071e-006
19979	21.126	1.5455	0.	-2.7979
19980	21.216	1.4545	0.	-3.3134
19981	21.126	1.4545	5.e-002	7.2837e-006
19982	21.126	1.7273	0.	-4.6106
19983	21.216	1.6364	0.	-7.3859
19984	21.126	1.6364	5.e-002	8.8071e-006
19985	21.126	1.9091	0.	-13.989
19986	21.216	1.8182	0.	-26.586
19987	21.126	1.8182	5.e-002	8.8427e-006
19988	21.126	2.0909	0.	-32.83
19989	21.216	2.	0.	-58.095
19990	21.126	2.	5.e-002	7.5198e-006
19991	21.126	2.2727	0.	-14.784
19992	21.216	2.1818	0.	-46.789
19993	21.126	2.1818	5.e-002	7.4203e-006
19994	21.126	2.4545	0.	-3.8525
19995	21.216	2.3636	0.	-16.915
19996	21.126	2.3636	5.e-002	5.3187e-006
19997	21.126	2.6364	0.	-0.45121
19998	21.216	2.5455	0.	-2.2069
19999	21.126	2.5455	5.e-002	3.795e-006
20000	21.126	2.8182	0.	-1.5428e-002
20001	21.216	2.7273	0.	-0.23168
20002	21.126	2.7273	5.e-002	2.8109e-006
20003	21.126	3.	0.	6.4393e-002
20004	21.216	2.9091	0.	0.12854
20005	21.126	2.9091	5.e-002	2.6964e-006
20006	21.126	3.1818	0.	-1.5429e-002
20007	21.216	3.0909	0.	0.12854
20008	21.126	3.0909	5.e-002	-2.6964e-006
20009	21.126	3.3636	0.	-0.45121
20010	21.216	3.2727	0.	-0.23168
20011	21.126	3.2727	5.e-002	-4.1381e-006
20012	21.126	3.5455	0.	-3.8525
20013	21.216	3.4545	0.	-2.2069
20014	21.126	3.4545	5.e-002	-4.5967e-006
20015	21.126	3.7273	0.	-14.783
20016	21.216	3.6364	0.	-16.915
20017	21.126	3.6364	5.e-002	-2.5314e-006
20018	21.126	3.9091	0.	-32.83
20019	21.216	3.8182	0.	-46.789
20020	21.126	3.8182	5.e-002	-2.0367e-007
20021	21.126	4.0909	0.	-13.989
20022	21.216	4.	0.	-58.095
20023	21.126	4.	5.e-002	5.8608e-006
20024	21.126	4.2727	0.	-4.6106
20025	21.216	4.1818	0.	-26.586
20026	21.126	4.1818	5.e-002	9.8152e-006
20027	21.126	4.4545	0.	-2.7979
20028	21.216	4.3636	0.	-7.3859
20029	21.126	4.3636	5.e-002	1.3777e-005
20030	21.126	4.6364	0.	-1.8501
20031	21.216	4.5455	0.	-3.3134
20032	21.126	4.5455	5.e-002	3.9044e-006
20033	21.126	4.8182	0.	-1.2786
20034	21.216	4.7273	0.	-2.084
20035	21.126	4.7273	5.e-002	5.6331e-006
20036	21.126	5.	0.	-1.0941
20037	21.216	4.9091	0.	-1.6379
20038	21.126	4.9091	5.e-002	3.0193e-006
20039	21.126	5.1818	0.	-1.0868
20040	21.216	5.0909	0.	-1.4792
20041	21.126	5.0909	5.e-002	7.0376e-006
20042	21.126	5.3636	0.	-1.2779
20043	21.216	5.2727	0.	-1.538
20044	21.126	5.2727	5.e-002	5.8844e-006
20045	21.126	5.5455	0.	-1.7085
20046	21.216	5.4545	0.	-1.8127
20047	21.126	5.4545	5.e-002	5.9286e-006
20048	21.126	5.7273	0.	-1.9485
20049	21.216	5.6364	0.	-1.9129
20050	21.126	5.6364	5.e-002	7.7501e-006
20051	21.216	5.8182	0.	-1.2297
20052	21.126	5.8182	5.e-002	6.5865e-006
20053	21.126	5.9091	0.	-5.5048e-002
20054	21.306	0.27273	0.	-1.21
20055	21.395	0.18182	0.	-0.62955
20056	21.306	0.18182	5.e-002	2.5432e-006
20057	21.306	9.0909e-002	0.	1.3434e-002
20058	21.306	0.45455	0.	-1.8225
20059	21.395	0.36364	0.	-1.2354
20060	21.306	0.36364	5.e-002	8.0074e-007
20061	21.306	0.63636	0.	-2.0073
20062	21.395	0.54545	0.	-1.9986
20063	21.306	0.54545	5.e-002	3.3682e-006
20064	21.306	0.81818	0.	-2.0683
20065	21.395	0.72727	0.	-2.5635
20066	21.306	0.72727	5.e-002	5.3476e-006
20067	21.306	1.	0.	-2.3531
20068	21.395	0.90909	0.	-3.2702
20069	21.306	0.90909	5.e-002	1.0599e-005
20070	21.306	1.1818	0.	-3.1917
20071	21.395	1.0909	0.	-4.8617
20072	21.306	1.0909	5.e-002	1.0398e-005
20073	21.306	1.3636	0.	-5.7934
20074	21.395	1.2727	0.	-9.4603
20075	21.306	1.2727	5.e-002	8.8112e-006
20076	21.306	1.5455	0.	-16.967
20077	21.395	1.4545	0.	-21.179
20078	21.306	1.4545	5.e-002	6.6067e-006
20079	21.306	1.7273	0.	-42.714
20080	21.395	1.6364	0.	-43.079
20081	21.306	1.6364	5.e-002	1.1802e-005
20082	21.306	1.9091	0.	-68.332
20083	21.395	1.8182	0.	-70.36
20084	21.306	1.8182	5.e-002	2.1868e-005
20085	21.306	2.0909	0.	-74.768
20086	21.395	2.	0.	-86.551
20087	21.306	2.	5.e-002	7.6288e-006
20088	21.306	2.2727	0.	-57.779
20089	21.395	2.1818	0.	-81.016
20090	21.306	2.1818	5.e-002	8.9772e-006
20091	21.306	2.4545	0.	-30.535
20092	21.395	2.3636	0.	-59.121
20093	21.306	2.3636	5.e-002	7.4576e-006
20094	21.306	2.6364	0.	-8.4902
20095	21.395	2.5455	0.	-35.793
20096	21.306	2.5455	5.e-002	6.7059e-006
20097	21.306	2.8182	0.	-0.43785
20098	21.395	2.7273	0.	-19.177
20099	21.306	2.7273	5.e-002	4.2857e-006
20100	21.306	3.	0.	0.28219
20101	21.395	2.9091	0.	-10.688
20102	21.306	2.9091	5.e-002	3.178e-006
20103	21.306	3.1818	0.	-0.43785
20104	21.395	3.0909	0.	-10.688
20105	21.306	3.0909	5.e-002	9.1882e-007
20106	21.306	3.3636	0.	-8.4902
20107	21.395	3.2727	0.	-19.177
20108	21.306	3.2727	5.e-002	-9.6062e-008
20109	21.306	3.5455	0.	-30.535
20110	21.395	3.4545	0.	-35.792
20111	21.306	3.4545	5.e-002	1.3994e-007
20112	21.306	3.7273	0.	-57.779
20113	21.395	3.6364	0.	-59.121
20114	21.306	3.6364	5.e-002	-1.9965e-007
20115	21.306	3.9091	0.	-74.768
20116	21.395	3.8182	0.	-81.016
20117	21.306	3.8182	5.e-002	3.9138e-006
20118	21.306	4.0909	0.	-68.332
20119	21.395	4.	0.	-86.551
20120	21.306	4.	5.e-002	-5.3796e-015
20121	21.306	4.2727	0.	-42.714
20122	21.395	4.1818	0.	-70.36
20123	21.306	4.1818	5.e-002	8.2964e-006
20124	21.306	4.4545	0.	-16.967
20125	21.395	4.3636	0.	-43.079
20126	21.306	4.3636	5.e-002	1.5251e-005
20127	21.306	4.6364	0.	-5.7934
20128	21.395	4.5455	0.	-21.179
20129	21.306	4.5455	5.e-002	1.0552e-005
20130	21.306	4.8182	0.	-3.1917
20131	21.395	4.7273	0.	-9.4603
20132	21.306	4.7273	5.e-002	7.3546e-006
20133	21.306	5.	0.	-2.3531
20134	21.395	4.9091	0.	-4.8617
20135	21.306	4.9091	5.e-002	4.6755e-006
20136	21.306	5.1818	0.	-2.0683
20137	21.395	5.0909	0.	-3.2702
20138	21.306	5.0909	5.e-002	9.2017e-006
20139	21.306	5.3636	0.	-2.0073
20140	21.395	5.2727	0.	-2.5635
20141	21.306	5.2727	5.e-002	9.675e-006
20142	21.306	5.5455	0.	-1.8225
20143	21.395	5.4545	0.	-1.9986
20144	21.306	5.4545	5.e-002	8.4046e-006
20145	21.306	5.7273	0.	-1.21
20146	21.395	5.6364	0.	-1.2354
20147	21.306	5.6364	5.e-002	7.407e-006
20148	21.395	5.8182	0.	-0.62955
20149	21.306	5.8182	5.e-002	7.4571e-006
20150	21.306	5.9091	0.	1.3434e-002
20151	21.485	0.27273	0.	-0.61395
20152	21.575	0.18182	0.	-0.31178
20153	21.485	0.18182	5.e-002	-3.5436e-007
20154	21.485	9.0909e-002	0.	7.5284e-002
20155	21.485	0.45455	0.	-1.2873
20156	21.575	0.36364	0.	-0.66284
20157	21.485	0.36364	5.e-002	1.9888e-006
20158	21.485	0.63636	0.	-2.4439
20159	21.575	0.54545	0.	-1.6296
20160	21.485	0.54545	5.e-002	3.1758e-006
20161	21.485	0.81818	0.	-4.2849
20162	21.575	0.72727	0.	-3.9038
20163	21.485	0.72727	5.e-002	7.2032e-006
20164	21.485	1.	0.	-7.8162
20165	21.575	0.90909	0.	-8.3377
20166	21.485	0.90909	5.e-002	4.5212e-006
20167	21.485	1.1818	0.	-14.915
20168	21.575	1.0909	0.	-15.695
20169	21.485	1.0909	5.e-002	2.4609e-006
20170	21.485	1.3636	0.	-27.567
20171	21.575	1.2727	0.	-27.132
20172	21.485	1.2727	5.e-002	6.1089e-006
20173	21.485	1.5455	0.	-46.533
20174	21.575	1.4545	0.	-43.638
20175	21.485	1.4545	5.e-002	7.8838e-006
20176	21.485	1.7273	0.	-69.153
20177	21.575	1.6364	0.	-64.465
20178	21.485	1.6364	5.e-002	1.1727e-005
20179	21.485	1.9091	0.	-87.585
20180	21.575	1.8182	0.	-85.055
20181	21.485	1.8182	5.e-002	1.156e-005
20182	21.485	2.0909	0.	-93.299
20183	21.575	2.	0.	-97.354
20184	21.485	2.	5.e-002	9.1564e-006
20185	21.485	2.2727	0.	-84.745
20186	21.575	2.1818	0.	-96.494
20187	21.485	2.1818	5.e-002	9.1986e-006
20188	21.485	2.4545	0.	-68.06
20189	21.575	2.3636	0.	-85.108
20190	21.485	2.3636	5.e-002	5.5595e-006
20191	21.485	2.6364	0.	-51.439
20192	21.575	2.5455	0.	-70.283
20193	21.485	2.5455	5.e-002	5.0923e-006
20194	21.485	2.8182	0.	-40.206
20195	21.575	2.7273	0.	-58.138
20196	21.485	2.7273	5.e-002	2.7763e-006
20197	21.485	3.	0.	-36.328
20198	21.575	2.9091	0.	-51.61
20199	21.485	2.9091	5.e-002	2.9248e-006
20200	21.485	3.1818	0.	-40.206
20201	21.575	3.0909	0.	-51.61
20202	21.485	3.0909	5.e-002	1.3614e-006
20203	21.485	3.3636	0.	-51.439
20204	21.575	3.2727	0.	-58.138
20205	21.485	3.2727	5.e-002	1.2482e-006
20206	21.485	3.5455	0.	-68.06
20207	21.575	3.4545	0.	-70.283
20208	21.485	3.4545	5.e-002	-4.411e-007
20209	21.485	3.7273	0.	-84.745
20210	21.575	3.6364	0.	-85.108
20211	21.485	3.6364	5.e-002	3.813e-006
20212	21.485	3.9091	0.	-93.299
20213	21.575	3.8182	0.	-96.494
20214	21.485	3.8182	5.e-002	1.2773e-006
20215	21.485	4.0909	0.	-87.585
20216	21.575	4.	0.	-97.354
20217	21.485	4.	5.e-002	4.5773e-006
20218	21.485	4.2727	0.	-69.153
20219	21.575	4.1818	0.	-85.055
20220	21.485	4.1818	5.e-002	1.903e-006
20221	21.485	4.4545	0.	-46.533
20222	21.575	4.3636	0.	-64.465
20223	21.485	4.3636	5.e-002	5.1805e-006
20224	21.485	4.6364	0.	-27.567
20225	21.575	4.5455	0.	-43.638
20226	21.485	4.5455	5.e-002	7.5898e-006
20227	21.485	4.8182	0.	-14.915
20228	21.575	4.7273	0.	-27.132
20229	21.485	4.7273	5.e-002	3.0374e-006
20230	21.485	5.	0.	-7.8162
20231	21.575	4.9091	0.	-15.695
20232	21.485	4.9091	5.e-002	8.1375e-006
20233	21.485	5.1818	0.	-4.2849
20234	21.575	5.0909	0.	-8.3376
20235	21.485	5.0909	5.e-002	4.5259e-006
20236	21.485	5.3636	0.	-2.4439
20237	21.575	5.2727	0.	-3.9038
20238	21.485	5.2727	5.e-002	7.3981e-006
20239	21.485	5.5455	0.	-1.2873
20240	21.575	5.4545	0.	-1.6296
20241	21.485	5.4545	5.e-002	8.1635e-006
20242	21.485	5.7273	0.	-0.61395
20243	21.575	5.6364	0.	-0.66284
20244	21.485	5.6364	5.e-002	8.8696e-006
20245	21.575	5.8182	0.	-0.31178
20246	21.485	5.8182	5.e-002	4.8083e-006
20247	21.485	5.9091	0.	7.5282e-002
20248	21.665	0.27273	0.	-0.33174
20249	21.755	0.18182	0.	-0.16445
20250	21.665	0.18182	5.e-002	-3.0533e-006
20251	21.665	9.0909e-002	0.	6.4094e-002
20252	21.665	0.45455	0.	-0.79182
20253	21.755	0.36364	0.	-0.36016
20254	21.665	0.36364	5.e-002	-1.3215e-005
20255	21.665	0.63636	0.	-2.4977
20256	21.755	0.54545	0.	-1.0965
20257	21.665	0.54545	5.e-002	-4.5257e-006
20258	21.665	0.81818	0.	-7.3946
20259	21.755	0.72727	0.	-4.6519
20260	21.665	0.72727	5.e-002	-9.2424e-007
20261	21.665	1.	0.	-15.42
20262	21.755	0.90909	0.	-12.237
20263	21.665	0.90909	5.e-002	5.358e-006
20264	21.665	1.1818	0.	-26.732
20265	21.755	1.0909	0.	-22.729
20266	21.665	1.0909	5.e-002	-7.5467e-007
20267	21.665	1.3636	0.	-41.843
20268	21.755	1.2727	0.	-36.374
20269	21.665	1.2727	5.e-002	5.2756e-006
20270	21.665	1.5455	0.	-60.25
20271	21.755	1.4545	0.	-53.138
20272	21.665	1.4545	5.e-002	6.698e-006
20273	21.665	1.7273	0.	-79.229
20274	21.755	1.6364	0.	-71.617
20275	21.665	1.6364	5.e-002	1.2659e-005
20276	21.665	1.9091	0.	-94.051
20277	21.755	1.8182	0.	-88.389
20278	21.665	1.8182	5.e-002	8.6322e-006
20279	21.665	2.0909	0.	-100.47
20280	21.755	2.	0.	-99.226
20281	21.665	2.	5.e-002	5.8583e-006
20282	21.665	2.2727	0.	-97.722
20283	21.755	2.1818	0.	-101.73
20284	21.665	2.1818	5.e-002	7.9552e-006
20285	21.665	2.4545	0.	-88.989
20286	21.755	2.3636	0.	-97.128
20287	21.665	2.3636	5.e-002	4.5266e-006
20288	21.665	2.6364	0.	-79.005
20289	21.755	2.5455	0.	-89.2
20290	21.665	2.5455	5.e-002	3.673e-006
20291	21.665	2.8182	0.	-71.621
20292	21.755	2.7273	0.	-81.815
20293	21.665	2.7273	5.e-002	1.6443e-006
20294	21.665	3.	0.	-68.954
20295	21.755	2.9091	0.	-77.556
20296	21.665	2.9091	5.e-002	8.4912e-007
20297	21.665	3.1818	0.	-71.621
20298	21.755	3.0909	0.	-77.556
20299	21.665	3.0909	5.e-002	1.0382e-006
20300	21.665	3.3636	0.	-79.005
20301	21.755	3.2727	0.	-81.815
20302	21.665	3.2727	5.e-002	3.0306e-006
20303	21.665	3.5455	0.	-88.989
20304	21.755	3.4545	0.	-89.2
20305	21.665	3.4545	5.e-002	8.2647e-008
20306	21.665	3.7273	0.	-97.722
20307	21.755	3.6364	0.	-97.128
20308	21.665	3.6364	5.e-002	6.4544e-007
20309	21.665	3.9091	0.	-100.47
20310	21.755	3.8182	0.	-101.73
20311	21.665	3.8182	5.e-002	-8.0035e-007
20312	21.665	4.0909	0.	-94.051
20313	21.755	4.	0.	-99.226
20314	21.665	4.	5.e-002	-1.2709e-006
20315	21.665	4.2727	0.	-79.229
20316	21.755	4.1818	0.	-88.389
20317	21.665	4.1818	5.e-002	-8.1712e-006
20318	21.665	4.4545	0.	-60.25
20319	21.755	4.3636	0.	-71.617
20320	21.665	4.3636	5.e-002	-4.8963e-015
20321	21.665	4.6364	0.	-41.843
20322	21.755	4.5455	0.	-53.138
20323	21.665	4.5455	5.e-002	-5.8674e-006
20324	21.665	4.8182	0.	-26.732
20325	21.755	4.7273	0.	-36.374
20326	21.665	4.7273	5.e-002	-4.762e-007
20327	21.665	5.	0.	-15.42
20328	21.755	4.9091	0.	-22.729
20329	21.665	4.9091	5.e-002	4.8945e-007
20330	21.665	5.1818	0.	-7.3946
20331	21.755	5.0909	0.	-12.237
20332	21.665	5.0909	5.e-002	1.7036e-006
20333	21.665	5.3636	0.	-2.4977
20334	21.755	5.2727	0.	-4.6519
20335	21.665	5.2727	5.e-002	5.4155e-006
20336	21.665	5.5455	0.	-0.79181
20337	21.755	5.4545	0.	-1.0965
20338	21.665	5.4545	5.e-002	6.9884e-006
20339	21.665	5.7273	0.	-0.33174
20340	21.755	5.6364	0.	-0.36016
20341	21.665	5.6364	5.e-002	9.1694e-006
20342	21.755	5.8182	0.	-0.16446
20343	21.665	5.8182	5.e-002	6.556e-006
20344	21.665	5.9091	0.	6.4094e-002
20345	21.844	0.27273	0.	-0.18059
20346	21.934	0.18182	0.	-8.5846e-002
20347	21.844	0.18182	5.e-002	-4.071e-006
20348	21.844	9.0909e-002	0.	5.9084e-002
20349	21.844	0.45455	0.	-0.44886
20350	21.934	0.36364	0.	-0.19775
20351	21.844	0.36364	5.e-002	-3.3941e-006
20352	21.844	0.63636	0.	-2.0577
20353	21.934	0.54545	0.	-0.63421
20354	21.844	0.54545	5.e-002	-5.7951e-006
20355	21.844	0.81818	0.	-8.7203
20356	21.934	0.72727	0.	-4.3446
20357	21.844	0.72727	5.e-002	-4.7113e-006
20358	21.844	1.	0.	-18.76
20359	21.934	0.90909	0.	-13.225
20360	21.844	0.90909	5.e-002	-3.3088e-006
20361	21.844	1.1818	0.	-31.489
20362	21.934	1.0909	0.	-24.775
20363	21.844	1.0909	5.e-002	-1.3983e-006
20364	21.844	1.3636	0.	-46.761
20365	21.934	1.2727	0.	-38.725
20366	21.844	1.2727	5.e-002	-1.3624e-006
20367	21.844	1.5455	0.	-63.642
20368	21.934	1.4545	0.	-54.558
20369	21.844	1.4545	5.e-002	8.154e-007
20370	21.844	1.7273	0.	-80.014
20371	21.934	1.6364	0.	-70.879
20372	21.844	1.6364	5.e-002	7.6261e-006
20373	21.844	1.9091	0.	-92.992
20374	21.934	1.8182	0.	-85.387
20375	21.844	1.8182	5.e-002	3.4896e-006
20376	21.844	2.0909	0.	-100.26
20377	21.934	2.	0.	-95.643
20378	21.844	2.	5.e-002	5.9808e-006
20379	21.844	2.2727	0.	-101.43
20380	21.934	2.1818	0.	-100.36
20381	21.844	2.1818	5.e-002	4.0322e-006
20382	21.844	2.4545	0.	-98.162
20383	21.934	2.3636	0.	-100.14
20384	21.844	2.3636	5.e-002	4.3989e-006
20385	21.844	2.6364	0.	-93.202
20386	21.934	2.5455	0.	-97.021
20387	21.844	2.5455	5.e-002	2.2785e-006
20388	21.844	2.8182	0.	-89.125
20389	21.934	2.7273	0.	-93.393
20390	21.844	2.7273	5.e-002	6.2936e-008
20391	21.844	3.	0.	-87.583
20392	21.934	2.9091	0.	-91.107
20393	21.844	2.9091	5.e-002	1.903e-006
20394	21.844	3.1818	0.	-89.125
20395	21.934	3.0909	0.	-91.107
20396	21.844	3.0909	5.e-002	4.3774e-009
20397	21.844	3.3636	0.	-93.202
20398	21.934	3.2727	0.	-93.393
20399	21.844	3.2727	5.e-002	-4.3188e-008
20400	21.844	3.5455	0.	-98.162
20401	21.934	3.4545	0.	-97.021
20402	21.844	3.4545	5.e-002	-3.4846e-007
20403	21.844	3.7273	0.	-101.43
20404	21.934	3.6364	0.	-100.14
20405	21.844	3.6364	5.e-002	-6.6098e-007
20406	21.844	3.9091	0.	-100.26
20407	21.934	3.8182	0.	-100.36
20408	21.844	3.8182	5.e-002	-1.7888e-006
20409	21.844	4.0909	0.	-92.992
20410	21.934	4.	0.	-95.643
20411	21.844	4.	5.e-002	-3.8618e-006
20412	21.844	4.2727	0.	-80.014
20413	21.934	4.1818	0.	-85.387
20414	21.844	4.1818	5.e-002	-5.8324e-006
20415	21.844	4.4545	0.	-63.642
20416	21.934	4.3636	0.	-70.879
20417	21.844	4.3636	5.e-002	-7.3895e-006
20418	21.844	4.6364	0.	-46.761
20419	21.934	4.5455	0.	-54.557
20420	21.844	4.5455	5.e-002	-7.0719e-006
20421	21.844	4.8182	0.	-31.489
20422	21.934	4.7273	0.	-38.725
20423	21.844	4.7273	5.e-002	-3.0848e-006
20424	21.844	5.	0.	-18.76
20425	21.934	4.9091	0.	-24.775
20426	21.844	4.9091	5.e-002	-1.1559e-005
20427	21.844	5.1818	0.	-8.7203
20428	21.934	5.0909	0.	-13.225
20429	21.844	5.0909	5.e-002	-3.8998e-006
20430	21.844	5.3636	0.	-2.0577
20431	21.934	5.2727	0.	-4.3446
20432	21.844	5.2727	5.e-002	-6.7109e-006
20433	21.844	5.5455	0.	-0.44886
20434	21.934	5.4545	0.	-0.63421
20435	21.844	5.4545	5.e-002	-4.025e-006
20436	21.844	5.7273	0.	-0.18059
20437	21.934	5.6364	0.	-0.19775
20438	21.844	5.6364	5.e-002	4.325e-006
20439	21.934	5.8182	0.	-8.5849e-002
20440	21.844	5.8182	5.e-002	7.6002e-006
20441	21.844	5.9091	0.	5.9083e-002
20442	22.024	0.27273	0.	-9.9854e-002
20443	22.114	0.18182	0.	-4.4099e-002
20444	22.024	0.18182	5.e-002	3.6662e-006
20445	22.024	9.0909e-002	0.	5.2382e-002
20446	22.024	0.45455	0.	-0.24301
20447	22.114	0.36364	0.	-0.10826
20448	22.024	0.36364	5.e-002	-9.4001e-006
20449	22.024	0.63636	0.	-1.3257
20450	22.114	0.54545	0.	-0.32397
20451	22.024	0.54545	5.e-002	-5.2809e-006
20452	22.024	0.81818	0.	-8.2756
20453	22.114	0.72727	0.	-3.2076
20454	22.024	0.72727	5.e-002	-1.68e-006
20455	22.024	1.	0.	-18.762
20456	22.114	0.90909	0.	-12.126
20457	22.024	0.90909	5.e-002	2.0347e-007
20458	22.024	1.1818	0.	-31.482
20459	22.114	1.0909	0.	-23.527
20460	22.024	1.0909	5.e-002	-1.0127e-006
20461	22.024	1.3636	0.	-45.969
20462	22.114	1.2727	0.	-36.815
20463	22.024	1.2727	5.e-002	-3.1224e-006
20464	22.024	1.5455	0.	-61.252
20465	22.114	1.4545	0.	-51.313
20466	22.024	1.4545	5.e-002	-1.82e-006
20467	22.024	1.7273	0.	-75.755
20468	22.114	1.6364	0.	-65.843
20469	22.024	1.6364	5.e-002	2.8248e-006
20470	22.024	1.9091	0.	-87.642
20471	22.114	1.8182	0.	-78.819
20472	22.024	1.8182	5.e-002	3.7512e-006
20473	22.024	2.0909	0.	-95.536
20474	22.114	2.	0.	-88.737
20475	22.024	2.	5.e-002	2.8046e-006
20476	22.024	2.2727	0.	-99.159
20477	22.114	2.1818	0.	-94.805
20478	22.024	2.1818	5.e-002	3.6259e-006
20479	22.024	2.4545	0.	-99.414
20480	22.114	2.3636	0.	-97.288
20481	22.024	2.3636	5.e-002	3.5843e-006
20482	22.024	2.6364	0.	-97.899
20483	22.114	2.5455	0.	-97.309
20484	22.024	2.5455	5.e-002	4.2644e-006
20485	22.024	2.8182	0.	-96.232
20486	22.114	2.7273	0.	-96.298
20487	22.024	2.7273	5.e-002	1.1392e-006
20488	22.024	3.	0.	-95.544
20489	22.114	2.9091	0.	-95.461
20490	22.024	2.9091	5.e-002	1.9463e-006
20491	22.024	3.1818	0.	-96.232
20492	22.114	3.0909	0.	-95.461
20493	22.024	3.0909	5.e-002	9.2028e-007
20494	22.024	3.3636	0.	-97.899
20495	22.114	3.2727	0.	-96.298
20496	22.024	3.2727	5.e-002	8.1322e-007
20497	22.024	3.5455	0.	-99.414
20498	22.114	3.4545	0.	-97.309
20499	22.024	3.4545	5.e-002	8.272e-007
20500	22.024	3.7273	0.	-99.159
20501	22.114	3.6364	0.	-97.288
20502	22.024	3.6364	5.e-002	2.4546e-006
20503	22.024	3.9091	0.	-95.536
20504	22.114	3.8182	0.	-94.805
20505	22.024	3.8182	5.e-002	8.2065e-007
20506	22.024	4.0909	0.	-87.642
20507	22.114	4.	0.	-88.737
20508	22.024	4.	5.e-002	1.6312e-006
20509	22.024	4.2727	0.	-75.755
20510	22.114	4.1818	0.	-78.819
20511	22.024	4.1818	5.e-002	-3.9037e-006
20512	22.024	4.4545	0.	-61.252
20513	22.114	4.3636	0.	-65.843
20514	22.024	4.3636	5.e-002	-1.2354e-006
20515	22.024	4.6364	0.	-45.969
20516	22.114	4.5455	0.	-51.313
20517	22.024	4.5455	5.e-002	-8.0998e-006
20518	22.024	4.8182	0.	-31.482
20519	22.114	4.7273	0.	-36.815
20520	22.024	4.7273	5.e-002	-4.7677e-006
20521	22.024	5.	0.	-18.762
20522	22.114	4.9091	0.	-23.527
20523	22.024	4.9091	5.e-002	-3.6325e-006
20524	22.024	5.1818	0.	-8.2756
20525	22.114	5.0909	0.	-12.126
20526	22.024	5.0909	5.e-002	-5.6436e-006
20527	22.024	5.3636	0.	-1.3257
20528	22.114	5.2727	0.	-3.2076
20529	22.024	5.2727	5.e-002	-2.3423e-006
20530	22.024	5.5455	0.	-0.24301
20531	22.114	5.4545	0.	-0.32397
20532	22.024	5.4545	5.e-002	-5.1794e-006
20533	22.024	5.7273	0.	-9.9855e-002
20534	22.114	5.6364	0.	-0.10826
20535	22.024	5.6364	5.e-002	-2.3413e-007
20536	22.114	5.8182	0.	-4.41e-002
20537	22.024	5.8182	5.e-002	5.6947e-006
20538	22.024	5.9091	0.	5.2381e-002
20539	22.204	0.27273	0.	-5.3893e-002
20540	22.294	0.18182	0.	-2.1356e-002
20541	22.204	0.18182	5.e-002	4.9997e-006
20542	22.204	9.0909e-002	0.	4.7657e-002
20543	22.204	0.45455	0.	-0.12203
20544	22.294	0.36364	0.	-5.6776e-002
20545	22.204	0.36364	5.e-002	-4.4367e-006
20546	22.204	0.63636	0.	-0.61957
20547	22.294	0.54545	0.	-0.14395
20548	22.204	0.54545	5.e-002	-2.8364e-006
20549	22.204	0.81818	0.	-6.596
20550	22.294	0.72727	0.	-1.5898
20551	22.204	0.72727	5.e-002	1.5196e-006
20552	22.204	1.	0.	-16.611
20553	22.294	0.90909	0.	-9.636
20554	22.204	0.90909	5.e-002	3.0499e-006
20555	22.204	1.1818	0.	-28.554
20556	22.294	1.0909	0.	-20.208
20557	22.204	1.0909	5.e-002	1.3878e-006
20558	22.204	1.3636	0.	-41.833
20559	22.294	1.2727	0.	-32.36
20560	22.204	1.2727	5.e-002	4.1853e-006
20561	22.204	1.5455	0.	-55.574
20562	22.294	1.4545	0.	-45.408
20563	22.204	1.4545	5.e-002	3.796e-006
20564	22.204	1.7273	0.	-68.595
20565	22.294	1.6364	0.	-58.388
20566	22.204	1.6364	5.e-002	3.9066e-006
20567	22.204	1.9091	0.	-79.655
20568	22.294	1.8182	0.	-70.166
20569	22.204	1.8182	5.e-002	5.3324e-006
20570	22.204	2.0909	0.	-87.853
20571	22.294	2.	0.	-79.731
20572	22.204	2.	5.e-002	4.7577e-006
20573	22.204	2.2727	0.	-92.947
20574	22.294	2.1818	0.	-86.524
20575	22.204	2.1818	5.e-002	4.4703e-006
20576	22.204	2.4545	0.	-95.394
20577	22.294	2.3636	0.	-90.614
20578	22.204	2.3636	5.e-002	5.4132e-006
20579	22.204	2.6364	0.	-96.101
20580	22.294	2.5455	0.	-92.59
20581	22.204	2.5455	5.e-002	5.1352e-006
20582	22.204	2.8182	0.	-96.043
20583	22.294	2.7273	0.	-93.275
20584	22.204	2.7273	5.e-002	4.0071e-006
20585	22.204	3.	0.	-95.937
20586	22.294	2.9091	0.	-93.406
20587	22.204	2.9091	5.e-002	2.9099e-006
20588	22.204	3.1818	0.	-96.043
20589	22.294	3.0909	0.	-93.406
20590	22.204	3.0909	5.e-002	1.8629e-006
20591	22.204	3.3636	0.	-96.1
20592	22.294	3.2727	0.	-93.275
20593	22.204	3.2727	5.e-002	3.7129e-006
20594	22.204	3.5455	0.	-95.394
20595	22.294	3.4545	0.	-92.59
20596	22.204	3.4545	5.e-002	3.7776e-006
20597	22.204	3.7273	0.	-92.947
20598	22.294	3.6364	0.	-90.614
20599	22.204	3.6364	5.e-002	3.4518e-006
20600	22.204	3.9091	0.	-87.853
20601	22.294	3.8182	0.	-86.524
20602	22.204	3.8182	5.e-002	3.3392e-006
20603	22.204	4.0909	0.	-79.655
20604	22.294	4.	0.	-79.731
20605	22.204	4.	5.e-002	4.3521e-006
20606	22.204	4.2727	0.	-68.595
20607	22.294	4.1818	0.	-70.166
20608	22.204	4.1818	5.e-002	7.3399e-007
20609	22.204	4.4545	0.	-55.574
20610	22.294	4.3636	0.	-58.388
20611	22.204	4.3636	5.e-002	2.4242e-006
20612	22.204	4.6364	0.	-41.833
20613	22.294	4.5455	0.	-45.408
20614	22.204	4.5455	5.e-002	1.6433e-006
20615	22.204	4.8182	0.	-28.553
20616	22.294	4.7273	0.	-32.36
20617	22.204	4.7273	5.e-002	-4.4015e-007
20618	22.204	5.	0.	-16.611
20619	22.294	4.9091	0.	-20.208
20620	22.204	4.9091	5.e-002	-1.4902e-006
20621	22.204	5.1818	0.	-6.596
20622	22.294	5.0909	0.	-9.636
20623	22.204	5.0909	5.e-002	1.6508e-006
20624	22.204	5.3636	0.	-0.61956
20625	22.294	5.2727	0.	-1.5898
20626	22.204	5.2727	5.e-002	3.5976e-006
20627	22.204	5.5455	0.	-0.12203
20628	22.294	5.4545	0.	-0.14395
20629	22.204	5.4545	5.e-002	4.235e-006
20630	22.204	5.7273	0.	-5.3893e-002
20631	22.294	5.6364	0.	-5.6775e-002
20632	22.204	5.6364	5.e-002	6.9578e-006
20633	22.294	5.8182	0.	-2.1358e-002
20634	22.204	5.8182	5.e-002	4.8826e-006
20635	22.204	5.9091	0.	4.7658e-002
20636	22.383	0.27273	0.	-2.7948e-002
20637	22.473	0.18182	0.	-9.7258e-003
20638	22.383	0.18182	5.e-002	1.7205e-006
20639	22.383	9.0909e-002	0.	4.3922e-002
20640	22.383	0.45455	0.	-5.2831e-002
20641	22.473	0.36364	0.	-2.7494e-002
20642	22.383	0.36364	5.e-002	5.4908e-006
20643	22.383	0.63636	0.	-0.21608
20644	22.473	0.54545	0.	-4.8679e-002
20645	22.383	0.54545	5.e-002	6.6851e-006
20646	22.383	0.81818	0.	-4.0598
20647	22.473	0.72727	0.	-0.37387
20648	22.383	0.72727	5.e-002	4.7482e-006
20649	22.383	1.	0.	-13.067
20650	22.473	0.90909	0.	-6.1747
20651	22.383	0.90909	5.e-002	4.8357e-006
20652	22.383	1.1818	0.	-23.842
20653	22.473	1.0909	0.	-15.555
20654	22.383	1.0909	5.e-002	4.3201e-006
20655	22.383	1.3636	0.	-35.748
20656	22.473	1.2727	0.	-26.37
20657	22.383	1.2727	5.e-002	4.1426e-006
20658	22.383	1.5455	0.	-48.028
20659	22.473	1.4545	0.	-37.97
20660	22.383	1.4545	5.e-002	5.0621e-006
20661	22.383	1.7273	0.	-59.772
20662	22.473	1.6364	0.	-49.566
20663	22.383	1.6364	5.e-002	4.7661e-006
20664	22.383	1.9091	0.	-70.083
20665	22.473	1.8182	0.	-60.303
20666	22.383	1.8182	5.e-002	6.9049e-006
20667	22.383	2.0909	0.	-78.302
20668	22.473	2.	0.	-69.436
20669	22.383	2.	5.e-002	5.9065e-006
20670	22.383	2.2727	0.	-84.186
20671	22.473	2.1818	0.	-76.519
20672	22.383	2.1818	5.e-002	7.4149e-006
20673	22.383	2.4545	0.	-87.92
20674	22.473	2.3636	0.	-81.488
20675	22.383	2.3636	5.e-002	6.586e-006
20676	22.383	2.6364	0.	-89.987
20677	22.473	2.5455	0.	-84.615
20678	22.383	2.5455	5.e-002	6.6551e-006
20679	22.383	2.8182	0.	-90.941
20680	22.473	2.7273	0.	-86.338
20681	22.383	2.7273	5.e-002	5.7017e-006
20682	22.383	3.	0.	-91.207
20683	22.473	2.9091	0.	-87.075
20684	22.383	2.9091	5.e-002	6.6549e-006
20685	22.383	3.1818	0.	-90.941
20686	22.473	3.0909	0.	-87.075
20687	22.383	3.0909	5.e-002	5.7497e-006
20688	22.383	3.3636	0.	-89.987
20689	22.473	3.2727	0.	-86.338
20690	22.383	3.2727	5.e-002	5.8719e-006
20691	22.383	3.5455	0.	-87.92
20692	22.473	3.4545	0.	-84.615
20693	22.383	3.4545	5.e-002	6.1175e-006
20694	22.383	3.7273	0.	-84.186
20695	22.473	3.6364	0.	-81.488
20696	22.383	3.6364	5.e-002	6.2434e-006
20697	22.383	3.9091	0.	-78.302
20698	22.473	3.8182	0.	-76.519
20699	22.383	3.8182	5.e-002	6.9501e-006
20700	22.383	4.0909	0.	-70.083
20701	22.473	4.	0.	-69.436
20702	22.383	4.	5.e-002	8.8709e-006
20703	22.383	4.2727	0.	-59.772
20704	22.473	4.1818	0.	-60.303
20705	22.383	4.1818	5.e-002	7.6011e-006
20706	22.383	4.4545	0.	-48.028
20707	22.473	4.3636	0.	-49.566
20708	22.383	4.3636	5.e-002	7.8869e-006
20709	22.383	4.6364	0.	-35.748
20710	22.473	4.5455	0.	-37.97
20711	22.383	4.5455	5.e-002	6.2166e-006
20712	22.383	4.8182	0.	-23.842
20713	22.473	4.7273	0.	-26.37
20714	22.383	4.7273	5.e-002	8.3874e-006
20715	22.383	5.	0.	-13.066
20716	22.473	4.9091	0.	-15.555
20717	22.383	4.9091	5.e-002	8.8259e-006
20718	22.383	5.1818	0.	-4.0597
20719	22.473	5.0909	0.	-6.1747
20720	22.383	5.0909	5.e-002	8.7901e-006
20721	22.383	5.3636	0.	-0.21608
20722	22.473	5.2727	0.	-0.37387
20723	22.383	5.2727	5.e-002	1.0986e-005
20724	22.383	5.5455	0.	-5.283e-002
20725	22.473	5.4545	0.	-4.8674e-002
20726	22.383	5.4545	5.e-002	1.1575e-005
20727	22.383	5.7273	0.	-2.7949e-002
20728	22.473	5.6364	0.	-2.7491e-002
20729	22.383	5.6364	5.e-002	1.2761e-005
20730	22.473	5.8182	0.	-9.7283e-003
20731	22.383	5.8182	5.e-002	3.7503e-006
20732	22.383	5.9091	0.	4.3922e-002
20733	22.563	0.27273	0.	-1.4205e-002
20734	22.653	0.18182	0.	-5.2285e-003
20735	22.563	0.18182	5.e-002	6.6472e-006
20736	22.563	9.0909e-002	0.	4.1357e-002
20737	22.563	0.45455	0.	-1.462e-002
20738	22.653	0.36364	0.	-1.1938e-002
20739	22.563	0.36364	5.e-002	1.054e-005
20740	22.563	0.63636	0.	-5.4966e-002
20741	22.653	0.54545	0.	-4.9162e-004
20742	22.563	0.54545	5.e-002	1.0874e-005
20743	22.563	0.81818	0.	-1.1174
20744	22.653	0.72727	0.	-6.1559e-002
20745	22.563	0.72727	5.e-002	9.8711e-006
20746	22.563	1.	0.	-8.5546
20747	22.653	0.90909	0.	-2.0613
20748	22.563	0.90909	5.e-002	7.2562e-006
20749	22.563	1.1818	0.	-17.989
20750	22.653	1.0909	0.	-9.9723
20751	22.563	1.0909	5.e-002	8.6364e-006
20752	22.563	1.3636	0.	-28.49
20753	22.653	1.2727	0.	-19.397
20754	22.563	1.2727	5.e-002	8.009e-006
20755	22.563	1.5455	0.	-39.401
20756	22.653	1.4545	0.	-29.614
20757	22.563	1.4545	5.e-002	8.7679e-006
20758	22.563	1.7273	0.	-49.992
20759	22.653	1.6364	0.	-39.958
20760	22.563	1.6364	5.e-002	9.2121e-006
20761	22.563	1.9091	0.	-59.566
20762	22.653	1.8182	0.	-49.743
20763	22.563	1.8182	5.e-002	8.9887e-006
20764	22.563	2.0909	0.	-67.595
20765	22.653	2.	0.	-58.376
20766	22.563	2.	5.e-002	9.24e-006
20767	22.563	2.2727	0.	-73.816
20768	22.653	2.1818	0.	-65.458
20769	22.563	2.1818	5.e-002	9.6806e-006
20770	22.563	2.4545	0.	-78.244
20771	22.653	2.3636	0.	-70.841
20772	22.563	2.3636	5.e-002	7.8097e-006
20773	22.563	2.6364	0.	-81.093
20774	22.653	2.5455	0.	-74.593
20775	22.563	2.5455	5.e-002	8.6877e-006
20776	22.563	2.8182	0.	-82.648
20777	22.653	2.7273	0.	-76.911
20778	22.563	2.7273	5.e-002	6.649e-006
20779	22.563	3.	0.	-83.137
20780	22.653	2.9091	0.	-78.005
20781	22.563	2.9091	5.e-002	8.5665e-006
20782	22.563	3.1818	0.	-82.648
20783	22.653	3.0909	0.	-78.005
20784	22.563	3.0909	5.e-002	6.6966e-006
20785	22.563	3.3636	0.	-81.093
20786	22.653	3.2727	0.	-76.911
20787	22.563	3.2727	5.e-002	6.7995e-006
20788	22.563	3.5455	0.	-78.244
20789	22.653	3.4545	0.	-74.593
20790	22.563	3.4545	5.e-002	7.9617e-006
20791	22.563	3.7273	0.	-73.816
20792	22.653	3.6364	0.	-70.841
20793	22.563	3.6364	5.e-002	9.1256e-006
20794	22.563	3.9091	0.	-67.595
20795	22.653	3.8182	0.	-65.458
20796	22.563	3.8182	5.e-002	1.1109e-005
20797	22.563	4.0909	0.	-59.566
20798	22.653	4.	0.	-58.376
20799	22.563	4.	5.e-002	1.0587e-005
20800	22.563	4.2727	0.	-49.991
20801	22.653	4.1818	0.	-49.743
20802	22.563	4.1818	5.e-002	9.7705e-006
20803	22.563	4.4545	0.	-39.4
20804	22.653	4.3636	0.	-39.958
20805	22.563	4.3636	5.e-002	1.1193e-005
20806	22.563	4.6364	0.	-28.49
20807	22.653	4.5455	0.	-29.614
20808	22.563	4.5455	5.e-002	1.0291e-005
20809	22.563	4.8182	0.	-17.989
20810	22.653	4.7273	0.	-19.397
20811	22.563	4.7273	5.e-002	1.3004e-005
20812	22.563	5.	0.	-8.5545
20813	22.653	4.9091	0.	-9.9722
20814	22.563	4.9091	5.e-002	1.2827e-005
20815	22.563	5.1818	0.	-1.1173
20816	22.653	5.0909	0.	-2.0613
20817	22.563	5.0909	5.e-002	1.1059e-005
20818	22.563	5.3636	0.	-5.4961e-002
20819	22.653	5.2727	0.	-6.1559e-002
20820	22.563	5.2727	5.e-002	1.3762e-005
20821	22.563	5.5455	0.	-1.4614e-002
20822	22.653	5.4545	0.	-4.8703e-004
20823	22.563	5.4545	5.e-002	1.2986e-005
20824	22.563	5.7273	0.	-1.4204e-002
20825	22.653	5.6364	0.	-1.1935e-002
20826	22.563	5.6364	5.e-002	1.301e-005
20827	22.653	5.8182	0.	-5.2304e-003
20828	22.563	5.8182	5.e-002	9.3612e-006
20829	22.563	5.9091	0.	4.1352e-002
20830	22.743	0.27273	0.	-8.6425e-003
20831	22.832	0.18182	0.	-5.8651e-003
20832	22.743	0.18182	5.e-002	7.5265e-006
20833	22.743	9.0909e-002	0.	4.0216e-002
20834	22.743	0.45455	0.	5.5656e-003
20835	22.832	0.36364	0.	-4.6118e-003
20836	22.743	0.36364	5.e-002	5.1939e-006
20837	22.743	0.63636	0.	7.1569e-003
20838	22.832	0.54545	0.	2.4781e-002
20839	22.743	0.54545	5.e-002	2.9978e-006
20840	22.743	0.81818	0.	-7.2751e-002
20841	22.832	0.72727	0.	1.5581e-002
20842	22.743	0.72727	5.e-002	6.1527e-006
20843	22.743	1.	0.	-3.3243
20844	22.832	0.90909	0.	-6.8065e-002
20845	22.743	0.90909	5.e-002	8.6523e-006
20846	22.743	1.1818	0.	-11.329
20847	22.832	1.0909	0.	-3.6878
20848	22.743	1.0909	5.e-002	9.4002e-006
20849	22.743	1.3636	0.	-20.469
20850	22.832	1.2727	0.	-11.718
20851	22.743	1.2727	5.e-002	7.7424e-006
20852	22.743	1.5455	0.	-30.117
20853	22.832	1.4545	0.	-20.656
20854	22.743	1.4545	5.e-002	8.6706e-006
20855	22.743	1.7273	0.	-39.657
20856	22.832	1.6364	0.	-29.875
20857	22.743	1.6364	5.e-002	7.8458e-006
20858	22.743	1.9091	0.	-48.508
20859	22.832	1.8182	0.	-38.791
20860	22.743	1.8182	5.e-002	7.651e-006
20861	22.743	2.0909	0.	-56.212
20862	22.832	2.	0.	-46.892
20863	22.743	2.	5.e-002	7.8482e-006
20864	22.743	2.2727	0.	-62.484
20865	22.832	2.1818	0.	-53.801
20866	22.743	2.1818	5.e-002	7.7162e-006
20867	22.743	2.4545	0.	-67.228
20868	22.832	2.3636	0.	-59.308
20869	22.743	2.3636	5.e-002	8.0867e-006
20870	22.743	2.6364	0.	-70.487
20871	22.832	2.5455	0.	-63.357
20872	22.743	2.5455	5.e-002	9.6882e-006
20873	22.743	2.8182	0.	-72.372
20874	22.832	2.7273	0.	-65.988
20875	22.743	2.7273	5.e-002	7.7191e-006
20876	22.743	3.	0.	-72.987
20877	22.832	2.9091	0.	-67.277
20878	22.743	2.9091	5.e-002	7.6533e-006
20879	22.743	3.1818	0.	-72.372
20880	22.832	3.0909	0.	-67.277
20881	22.743	3.0909	5.e-002	6.6617e-006
20882	22.743	3.3636	0.	-70.487
20883	22.832	3.2727	0.	-65.988
20884	22.743	3.2727	5.e-002	7.6136e-006
20885	22.743	3.5455	0.	-67.228
20886	22.832	3.4545	0.	-63.357
20887	22.743	3.4545	5.e-002	7.6554e-006
20888	22.743	3.7273	0.	-62.484
20889	22.832	3.6364	0.	-59.308
20890	22.743	3.6364	5.e-002	8.7749e-006
20891	22.743	3.9091	0.	-56.212
20892	22.832	3.8182	0.	-53.801
20893	22.743	3.8182	5.e-002	9.3761e-006
20894	22.743	4.0909	0.	-48.508
20895	22.832	4.	0.	-46.892
20896	22.743	4.	5.e-002	8.5683e-006
20897	22.743	4.2727	0.	-39.656
20898	22.832	4.1818	0.	-38.791
20899	22.743	4.1818	5.e-002	8.2222e-006
20900	22.743	4.4545	0.	-30.117
20901	22.832	4.3636	0.	-29.875
20902	22.743	4.3636	5.e-002	1.0404e-005
20903	22.743	4.6364	0.	-20.469
20904	22.832	4.5455	0.	-20.656
20905	22.743	4.5455	5.e-002	8.5638e-006
20906	22.743	4.8182	0.	-11.329
20907	22.832	4.7273	0.	-11.718
20908	22.743	4.7273	5.e-002	1.026e-005
20909	22.743	5.	0.	-3.3242
20910	22.832	4.9091	0.	-3.6877
20911	22.743	4.9091	5.e-002	1.0157e-005
20912	22.743	5.1818	0.	-7.2752e-002
20913	22.832	5.0909	0.	-6.8064e-002
20914	22.743	5.0909	5.e-002	8.2324e-006
20915	22.743	5.3636	0.	7.1569e-003
20916	22.832	5.2727	0.	1.5579e-002
20917	22.743	5.2727	5.e-002	9.7314e-006
20918	22.743	5.5455	0.	5.5677e-003
20919	22.832	5.4545	0.	2.4781e-002
20920	22.743	5.4545	5.e-002	9.9036e-006
20921	22.743	5.7273	0.	-8.6423e-003
20922	22.832	5.6364	0.	-4.6109e-003
20923	22.743	5.6364	5.e-002	9.7137e-006
20924	22.832	5.8182	0.	-5.8646e-003
20925	22.743	5.8182	5.e-002	7.3611e-006
20926	22.743	5.9091	0.	4.0216e-002
20927	22.922	0.27273	0.	-8.1399e-003
20928	23.012	0.18182	0.	-1.1424e-002
20929	22.922	0.18182	5.e-002	9.476e-006
20930	22.922	9.0909e-002	0.	4.1763e-002
20931	22.922	0.45455	0.	1.7086e-002
20932	23.012	0.36364	0.	-2.2084e-003
20933	22.922	0.36364	5.e-002	5.2735e-006
20934	22.922	0.63636	0.	3.5913e-002
20935	23.012	0.54545	0.	4.0372e-002
20936	22.922	0.54545	5.e-002	8.2962e-006
20937	22.922	0.81818	0.	2.8339e-002
20938	23.012	0.72727	0.	4.6408e-002
20939	22.922	0.72727	5.e-002	8.2488e-006
20940	22.922	1.	0.	-5.9738e-002
20941	23.012	0.90909	0.	4.1702e-002
20942	22.922	0.90909	5.e-002	8.5191e-006
20943	22.922	1.1818	0.	-4.0399
20944	23.012	1.0909	0.	-2.4729e-002
20945	22.922	1.0909	5.e-002	7.941e-006
20946	22.922	1.3636	0.	-11.882
20947	23.012	1.2727	0.	-3.4976
20948	22.922	1.2727	5.e-002	6.0378e-006
20949	22.922	1.5455	0.	-20.392
20950	23.012	1.4545	0.	-11.245
20951	22.922	1.4545	5.e-002	6.4374e-006
20952	22.922	1.7273	0.	-28.989
20953	23.012	1.6364	0.	-19.477
20954	22.922	1.6364	5.e-002	6.4283e-006
20955	22.922	1.9091	0.	-37.158
20956	23.012	1.8182	0.	-27.619
20957	22.922	1.8182	5.e-002	5.3067e-006
20958	22.922	2.0909	0.	-44.473
20959	23.012	2.	0.	-35.201
20960	22.922	2.	5.e-002	6.5893e-006
20961	22.922	2.2727	0.	-50.632
20962	23.012	2.1818	0.	-41.854
20963	22.922	2.1818	5.e-002	7.1443e-006
20964	22.922	2.4545	0.	-55.464
20965	23.012	2.3636	0.	-47.327
20966	22.922	2.3636	5.e-002	7.4142e-006
20967	22.922	2.6364	0.	-58.905
20968	23.012	2.5455	0.	-51.479
20969	22.922	2.5455	5.e-002	7.9607e-006
20970	22.922	2.8182	0.	-60.955
20971	23.012	2.7273	0.	-54.253
20972	22.922	2.7273	5.e-002	6.3085e-006
20973	22.922	3.	0.	-61.634
20974	23.012	2.9091	0.	-55.639
20975	22.922	2.9091	5.e-002	8.4597e-006
20976	22.922	3.1818	0.	-60.955
20977	23.012	3.0909	0.	-55.639
20978	22.922	3.0909	5.e-002	8.7129e-006
20979	22.922	3.3636	0.	-58.905
20980	23.012	3.2727	0.	-54.253
20981	22.922	3.2727	5.e-002	8.0674e-006
20982	22.922	3.5455	0.	-55.464
20983	23.012	3.4545	0.	-51.479
20984	22.922	3.4545	5.e-002	9.4062e-006
20985	22.922	3.7273	0.	-50.632
20986	23.012	3.6364	0.	-47.327
20987	22.922	3.6364	5.e-002	1.1181e-005
20988	22.922	3.9091	0.	-44.473
20989	23.012	3.8182	0.	-41.854
20990	22.922	3.8182	5.e-002	1.1236e-005
20991	22.922	4.0909	0.	-37.158
20992	23.012	4.	0.	-35.201
20993	22.922	4.	5.e-002	1.1606e-005
20994	22.922	4.2727	0.	-28.989
20995	23.012	4.1818	0.	-27.619
20996	22.922	4.1818	5.e-002	1.0159e-005
20997	22.922	4.4545	0.	-20.392
20998	23.012	4.3636	0.	-19.476
20999	22.922	4.3636	5.e-002	1.218e-005
21000	22.922	4.6364	0.	-11.882
21001	23.012	4.5455	0.	-11.245
21002	22.922	4.5455	5.e-002	1.1039e-005
21003	22.922	4.8182	0.	-4.0398
21004	23.012	4.7273	0.	-3.4975
21005	22.922	4.7273	5.e-002	1.2211e-005
21006	22.922	5.	0.	-5.9737e-002
21007	23.012	4.9091	0.	-2.4729e-002
21008	22.922	4.9091	5.e-002	1.2591e-005
21009	22.922	5.1818	0.	2.8338e-002
21010	23.012	5.0909	0.	4.1703e-002
21011	22.922	5.0909	5.e-002	9.7798e-006
21012	22.922	5.3636	0.	3.591e-002
21013	23.012	5.2727	0.	4.6406e-002
21014	22.922	5.2727	5.e-002	1.0562e-005
21015	22.922	5.5455	0.	1.7084e-002
21016	23.012	5.4545	0.	4.0373e-002
21017	22.922	5.4545	5.e-002	9.3967e-006
21018	22.922	5.7273	0.	-8.1386e-003
21019	23.012	5.6364	0.	-2.2084e-003
21020	22.922	5.6364	5.e-002	8.8819e-006
21021	23.012	5.8182	0.	-1.1425e-002
21022	22.922	5.8182	5.e-002	5.1439e-006
21023	22.922	5.9091	0.	4.1767e-002
21024	23.102	0.27273	0.	-1.2307e-002
21025	23.192	0.18182	0.	-1.9628e-002
21026	23.102	0.18182	5.e-002	3.9943e-006
21027	23.102	9.0909e-002	0.	4.6255e-002
21028	23.102	0.45455	0.	2.4268e-002
21029	23.192	0.36364	0.	1.6607e-003
21030	23.102	0.36364	5.e-002	1.0368e-005
21031	23.102	0.63636	0.	5.3541e-002
21032	23.192	0.54545	0.	5.8074e-002
21033	23.102	0.54545	5.e-002	1.285e-005
21034	23.102	0.81818	0.	6.0753e-002
21035	23.192	0.72727	0.	7.1167e-002
21036	23.102	0.72727	5.e-002	1.1053e-005
21037	23.102	1.	0.	5.7633e-002
21038	23.192	0.90909	0.	7.9796e-002
21039	23.102	0.90909	5.e-002	1.0079e-005
21040	23.102	1.1818	0.	1.0805e-002
21041	23.192	1.0909	0.	7.8382e-002
21042	23.102	1.0909	5.e-002	1.1288e-005
21043	23.102	1.3636	0.	-2.8645
21044	23.192	1.2727	0.	5.2061e-002
21045	23.102	1.2727	5.e-002	9.1995e-006
21046	23.102	1.5455	0.	-10.325
21047	23.192	1.4545	0.	-1.5648
21048	23.102	1.4545	5.e-002	8.6123e-006
21049	23.102	1.7273	0.	-18.102
21050	23.192	1.6364	0.	-8.8313
21051	23.102	1.6364	5.e-002	9.1802e-006
21052	23.102	1.9091	0.	-25.661
21053	23.192	1.8182	0.	-16.314
21054	23.102	1.8182	5.e-002	8.7335e-006
21055	23.102	2.0909	0.	-32.586
21056	23.192	2.	0.	-23.436
21057	23.102	2.	5.e-002	9.8215e-006
21058	23.102	2.2727	0.	-38.561
21059	23.192	2.1818	0.	-29.823
21060	23.102	2.1818	5.e-002	1.0067e-005
21061	23.102	2.4545	0.	-43.363
21062	23.192	2.3636	0.	-35.194
21063	23.102	2.3636	5.e-002	1.0619e-005
21064	23.102	2.6364	0.	-46.859
21065	23.192	2.5455	0.	-39.353
21066	23.102	2.5455	5.e-002	1.108e-005
21067	23.102	2.8182	0.	-48.977
21068	23.192	2.7273	0.	-42.181
21069	23.102	2.7273	5.e-002	1.1211e-005
21070	23.102	3.	0.	-49.686
21071	23.192	2.9091	0.	-43.609
21072	23.102	2.9091	5.e-002	1.1838e-005
21073	23.102	3.1818	0.	-48.977
21074	23.192	3.0909	0.	-43.609
21075	23.102	3.0909	5.e-002	1.0582e-005
21076	23.102	3.3636	0.	-46.859
21077	23.192	3.2727	0.	-42.181
21078	23.102	3.2727	5.e-002	1.1282e-005
21079	23.102	3.5455	0.	-43.363
21080	23.192	3.4545	0.	-39.353
21081	23.102	3.4545	5.e-002	1.2015e-005
21082	23.102	3.7273	0.	-38.561
21083	23.192	3.6364	0.	-35.194
21084	23.102	3.6364	5.e-002	1.3794e-005
21085	23.102	3.9091	0.	-32.586
21086	23.192	3.8182	0.	-29.823
21087	23.102	3.8182	5.e-002	1.3516e-005
21088	23.102	4.0909	0.	-25.661
21089	23.192	4.	0.	-23.436
21090	23.102	4.	5.e-002	1.3824e-005
21091	23.102	4.2727	0.	-18.102
21092	23.192	4.1818	0.	-16.314
21093	23.102	4.1818	5.e-002	1.3075e-005
21094	23.102	4.4545	0.	-10.325
21095	23.192	4.3636	0.	-8.8313
21096	23.102	4.3636	5.e-002	1.4881e-005
21097	23.102	4.6364	0.	-2.8644
21098	23.192	4.5455	0.	-1.5647
21099	23.102	4.5455	5.e-002	1.283e-005
21100	23.102	4.8182	0.	1.0805e-002
21101	23.192	4.7273	0.	5.2063e-002
21102	23.102	4.7273	5.e-002	1.4336e-005
21103	23.102	5.	0.	5.7633e-002
21104	23.192	4.9091	0.	7.8381e-002
21105	23.102	4.9091	5.e-002	1.3814e-005
21106	23.102	5.1818	0.	6.0753e-002
21107	23.192	5.0909	0.	7.9796e-002
21108	23.102	5.0909	5.e-002	1.1181e-005
21109	23.102	5.3636	0.	5.3543e-002
21110	23.192	5.2727	0.	7.1165e-002
21111	23.102	5.2727	5.e-002	1.1277e-005
21112	23.102	5.5455	0.	2.427e-002
21113	23.192	5.4545	0.	5.8078e-002
21114	23.102	5.4545	5.e-002	1.0251e-005
21115	23.102	5.7273	0.	-1.2309e-002
21116	23.192	5.6364	0.	1.6612e-003
21117	23.102	5.6364	5.e-002	9.3913e-006
21118	23.192	5.8182	0.	-1.9632e-002
21119	23.102	5.8182	5.e-002	4.8356e-006
21120	23.102	5.9091	0.	4.6254e-002
21121	23.281	0.27273	0.	-1.2296e-002
21122	23.371	0.18182	0.	-3.885e-002
21123	23.281	0.18182	5.e-002	1.971e-006
21124	23.281	9.0909e-002	0.	6.2206e-002
21125	23.281	0.45455	0.	4.04e-002
21126	23.371	0.36364	0.	9.3047e-004
21127	23.281	0.36364	5.e-002	3.1464e-006
21128	23.281	0.63636	0.	7.9743e-002
21129	23.371	0.54545	0.	7.2527e-002
21130	23.281	0.54545	5.e-002	9.1177e-006
21131	23.281	0.81818	0.	9.3279e-002
21132	23.371	0.72727	0.	9.1125e-002
21133	23.281	0.72727	5.e-002	1.0869e-005
21134	23.281	1.	0.	0.10147
21135	23.371	0.90909	0.	0.1054
21136	23.281	0.90909	5.e-002	1.0014e-005
21137	23.281	1.1818	0.	0.1029
21138	23.371	1.0909	0.	0.11283
21139	23.281	1.0909	5.e-002	7.5633e-006
21140	23.281	1.3636	0.	9.0317e-002
21141	23.371	1.2727	0.	0.11657
21142	23.281	1.2727	5.e-002	4.8697e-006
21143	23.281	1.5455	0.	-0.38837
21144	23.371	1.4545	0.	0.11307
21145	23.281	1.4545	5.e-002	6.5501e-006
21146	23.281	1.7273	0.	-7.0459
21147	23.371	1.6364	0.	4.2297e-002
21148	23.281	1.6364	5.e-002	7.5832e-006
21149	23.281	1.9091	0.	-14.093
21150	23.371	1.8182	0.	-4.9227
21151	23.281	1.8182	5.e-002	7.4919e-006
21152	23.281	2.0909	0.	-20.68
21153	23.371	2.	0.	-11.671
21154	23.281	2.	5.e-002	8.013e-006
21155	23.281	2.2727	0.	-26.468
21156	23.371	2.1818	0.	-17.84
21157	23.281	2.1818	5.e-002	8.1592e-006
21158	23.281	2.4545	0.	-31.201
21159	23.371	2.3636	0.	-23.112
21160	23.281	2.3636	5.e-002	8.6559e-006
21161	23.281	2.6364	0.	-34.699
21162	23.371	2.5455	0.	-27.256
21163	23.281	2.5455	5.e-002	8.8984e-006
21164	23.281	2.8182	0.	-36.841
21165	23.371	2.7273	0.	-30.106
21166	23.281	2.7273	5.e-002	7.9756e-006
21167	23.281	3.	0.	-37.562
21168	23.371	2.9091	0.	-31.557
21169	23.281	2.9091	5.e-002	8.7017e-006
21170	23.281	3.1818	0.	-36.841
21171	23.371	3.0909	0.	-31.557
21172	23.281	3.0909	5.e-002	7.5124e-006
21173	23.281	3.3636	0.	-34.699
21174	23.371	3.2727	0.	-30.106
21175	23.281	3.2727	5.e-002	8.2506e-006
21176	23.281	3.5455	0.	-31.201
21177	23.371	3.4545	0.	-27.256
21178	23.281	3.4545	5.e-002	7.8163e-006
21179	23.281	3.7273	0.	-26.468
21180	23.371	3.6364	0.	-23.112
21181	23.281	3.6364	5.e-002	7.9237e-006
21182	23.281	3.9091	0.	-20.68
21183	23.371	3.8182	0.	-17.84
21184	23.281	3.8182	5.e-002	8.6465e-006
21185	23.281	4.0909	0.	-14.093
21186	23.371	4.	0.	-11.671
21187	23.281	4.	5.e-002	7.3837e-006
21188	23.281	4.2727	0.	-7.0458
21189	23.371	4.1818	0.	-4.9226
21190	23.281	4.1818	5.e-002	6.6949e-006
21191	23.281	4.4545	0.	-0.38833
21192	23.371	4.3636	0.	4.2299e-002
21193	23.281	4.3636	5.e-002	8.8739e-006
21194	23.281	4.6364	0.	9.0318e-002
21195	23.371	4.5455	0.	0.11307
21196	23.281	4.5455	5.e-002	6.4783e-006
21197	23.281	4.8182	0.	0.1029
21198	23.371	4.7273	0.	0.11657
21199	23.281	4.7273	5.e-002	7.6169e-006
21200	23.281	5.	0.	0.10147
21201	23.371	4.9091	0.	0.11283
21202	23.281	4.9091	5.e-002	7.2191e-006
21203	23.281	5.1818	0.	9.3278e-002
21204	23.371	5.0909	0.	0.1054
21205	23.281	5.0909	5.e-002	4.9563e-006
21206	23.281	5.3636	0.	7.9743e-002
21207	23.371	5.2727	0.	9.1126e-002
21208	23.281	5.2727	5.e-002	5.9741e-006
21209	23.281	5.5455	0.	4.0401e-002
21210	23.371	5.4545	0.	7.2527e-002
21211	23.281	5.4545	5.e-002	5.0008e-006
21212	23.281	5.7273	0.	-1.2297e-002
21213	23.371	5.6364	0.	9.3227e-004
21214	23.281	5.6364	5.e-002	6.1225e-006
21215	23.371	5.8182	0.	-3.885e-002
21216	23.281	5.8182	5.e-002	4.9271e-006
21217	23.281	5.9091	0.	6.2202e-002
21218	23.461	0.27273	0.	-2.9702e-002
21219	23.551	0.18182	0.	-4.0286e-002
21220	23.461	0.18182	5.e-002	4.8098e-006
21221	23.461	9.0909e-002	0.	7.4601e-002
21222	23.461	0.45455	0.	4.1482e-002
21223	23.551	0.36364	0.	4.4593e-002
21224	23.461	0.36364	5.e-002	4.4414e-006
21225	23.461	0.63636	0.	9.0738e-002
21226	23.551	0.54545	0.	0.14469
21227	23.461	0.54545	5.e-002	6.1498e-006
21228	23.461	0.81818	0.	0.10924
21229	23.551	0.72727	0.	0.16828
21230	23.461	0.72727	5.e-002	9.7565e-006
21231	23.461	1.	0.	0.1221
21232	23.551	0.90909	0.	0.18867
21233	23.461	0.90909	5.e-002	1.2183e-005
21234	23.461	1.1818	0.	0.13039
21235	23.551	1.0909	0.	0.20139
21236	23.461	1.0909	5.e-002	1.0741e-005
21237	23.461	1.3636	0.	0.13623
21238	23.551	1.2727	0.	0.2119
21239	23.461	1.2727	5.e-002	9.3567e-006
21240	23.461	1.5455	0.	0.13868
21241	23.551	1.4545	0.	0.22067
21242	23.461	1.4545	5.e-002	9.7796e-006
21243	23.461	1.7273	0.	0.12599
21244	23.551	1.6364	0.	0.22809
21245	23.461	1.6364	5.e-002	1.0747e-005
21246	23.461	1.9091	0.	-2.5073
21247	23.551	1.8182	0.	0.23224
21248	23.461	1.8182	5.e-002	1.0495e-005
21249	23.461	2.0909	0.	-8.8299
21250	23.551	2.	0.	-4.2628e-002
21251	23.461	2.	5.e-002	1.0831e-005
21252	23.461	2.2727	0.	-14.488
21253	23.551	2.1818	0.	-5.9272
21254	23.461	2.1818	5.e-002	1.1871e-005
21255	23.461	2.4545	0.	-19.178
21256	23.551	2.3636	0.	-11.169
21257	23.461	2.3636	5.e-002	1.2209e-005
21258	23.461	2.6364	0.	-22.682
21259	23.551	2.5455	0.	-15.34
21260	23.461	2.5455	5.e-002	1.2089e-005
21261	23.461	2.8182	0.	-24.847
21262	23.551	2.7273	0.	-18.237
21263	23.461	2.7273	5.e-002	1.1321e-005
21264	23.461	3.	0.	-25.579
21265	23.551	2.9091	0.	-19.721
21266	23.461	2.9091	5.e-002	1.1959e-005
21267	23.461	3.1818	0.	-24.847
21268	23.551	3.0909	0.	-19.721
21269	23.461	3.0909	5.e-002	1.1648e-005
21270	23.461	3.3636	0.	-22.682
21271	23.551	3.2727	0.	-18.237
21272	23.461	3.2727	5.e-002	1.231e-005
21273	23.461	3.5455	0.	-19.178
21274	23.551	3.4545	0.	-15.34
21275	23.461	3.4545	5.e-002	1.2321e-005
21276	23.461	3.7273	0.	-14.488
21277	23.551	3.6364	0.	-11.169
21278	23.461	3.6364	5.e-002	1.3361e-005
21279	23.461	3.9091	0.	-8.8299
21280	23.551	3.8182	0.	-5.9272
21281	23.461	3.8182	5.e-002	1.339e-005
21282	23.461	4.0909	0.	-2.5073
21283	23.551	4.	0.	-4.2613e-002
21284	23.461	4.	5.e-002	1.2516e-005
21285	23.461	4.2727	0.	0.12598
21286	23.551	4.1818	0.	0.23224
21287	23.461	4.1818	5.e-002	1.1139e-005
21288	23.461	4.4545	0.	0.13868
21289	23.551	4.3636	0.	0.22809
21290	23.461	4.3636	5.e-002	1.2891e-005
21291	23.461	4.6364	0.	0.13623
21292	23.551	4.5455	0.	0.22067
21293	23.461	4.5455	5.e-002	1.0643e-005
21294	23.461	4.8182	0.	0.13039
21295	23.551	4.7273	0.	0.2119
21296	23.461	4.7273	5.e-002	1.196e-005
21297	23.461	5.	0.	0.1221
21298	23.551	4.9091	0.	0.20139
21299	23.461	4.9091	5.e-002	1.1346e-005
21300	23.461	5.1818	0.	0.10924
21301	23.551	5.0909	0.	0.18867
21302	23.461	5.0909	5.e-002	8.3437e-006
21303	23.461	5.3636	0.	9.0738e-002
21304	23.551	5.2727	0.	0.16828
21305	23.461	5.2727	5.e-002	9.3525e-006
21306	23.461	5.5455	0.	4.1482e-002
21307	23.551	5.4545	0.	0.14469
21308	23.461	5.4545	5.e-002	8.29e-006
21309	23.461	5.7273	0.	-2.9699e-002
21310	23.551	5.6364	0.	4.4596e-002
21311	23.461	5.6364	5.e-002	9.0187e-006
21312	23.551	5.8182	0.	-4.0283e-002
21313	23.461	5.8182	5.e-002	6.3399e-006
21314	23.461	5.9091	0.	7.4605e-002
21315	23.641	0.27273	0.	3.995e-002
21316	23.731	0.18182	0.	-0.20268
21317	23.641	0.18182	5.e-002	1.0707e-005
21318	23.641	9.0909e-002	0.	0.17483
21319	23.641	0.45455	0.	0.16486
21320	23.731	0.36364	0.	-4.6151e-002
21321	23.641	0.36364	5.e-002	7.7969e-006
21322	23.641	0.63636	0.	0.237
21323	23.731	0.54545	0.	0.10327
21324	23.641	0.54545	5.e-002	4.9281e-006
21325	23.641	0.81818	0.	0.26193
21326	23.731	0.72727	0.	0.13343
21327	23.641	0.72727	5.e-002	7.7835e-006
21328	23.641	1.	0.	0.2821
21329	23.731	0.90909	0.	0.16303
21330	23.641	0.90909	5.e-002	1.233e-005
21331	23.641	1.1818	0.	0.29691
21332	23.731	1.0909	0.	0.18216
21333	23.641	1.0909	5.e-002	1.3873e-005
21334	23.641	1.3636	0.	0.30979
21335	23.731	1.2727	0.	0.1984
21336	23.641	1.2727	5.e-002	1.222e-005
21337	23.641	1.5455	0.	0.32139
21338	23.731	1.4545	0.	0.21224
21339	23.641	1.4545	5.e-002	1.241e-005
21340	23.641	1.7273	0.	0.33219
21341	23.731	1.6364	0.	0.22452
21342	23.641	1.6364	5.e-002	1.2793e-005
21343	23.641	1.9091	0.	0.34219
21344	23.731	1.8182	0.	0.23532
21345	23.641	1.8182	5.e-002	1.2272e-005
21346	23.641	2.0909	0.	0.35032
21347	23.731	2.	0.	0.24419
21348	23.641	2.	5.e-002	1.3178e-005
21349	23.641	2.2727	0.	-2.5832
21350	23.731	2.1818	0.	0.24874
21351	23.641	2.1818	5.e-002	1.3981e-005
21352	23.641	2.4545	0.	-7.3234
21353	23.731	2.3636	0.	0.15551
21354	23.641	2.3636	5.e-002	1.4931e-005
21355	23.641	2.6364	0.	-10.905
21356	23.731	2.5455	0.	-3.7384
21357	23.641	2.5455	5.e-002	1.5043e-005
21358	23.641	2.8182	0.	-13.136
21359	23.731	2.7273	0.	-6.7992
21360	23.641	2.7273	5.e-002	1.4138e-005
21361	23.641	3.	0.	-13.894
21362	23.731	2.9091	0.	-8.3852
21363	23.641	2.9091	5.e-002	1.4649e-005
21364	23.641	3.1818	0.	-13.136
21365	23.731	3.0909	0.	-8.3852
21366	23.641	3.0909	5.e-002	1.444e-005
21367	23.641	3.3636	0.	-10.905
21368	23.731	3.2727	0.	-6.7991
21369	23.641	3.2727	5.e-002	1.5205e-005
21370	23.641	3.5455	0.	-7.3234
21371	23.731	3.4545	0.	-3.7384
21372	23.641	3.4545	5.e-002	1.4775e-005
21373	23.641	3.7273	0.	-2.5832
21374	23.731	3.6364	0.	0.15551
21375	23.641	3.6364	5.e-002	1.61e-005
21376	23.641	3.9091	0.	0.35032
21377	23.731	3.8182	0.	0.24873
21378	23.641	3.8182	5.e-002	1.6826e-005
21379	23.641	4.0909	0.	0.34219
21380	23.731	4.	0.	0.24418
21381	23.641	4.	5.e-002	1.5718e-005
21382	23.641	4.2727	0.	0.33219
21383	23.731	4.1818	0.	0.23532
21384	23.641	4.1818	5.e-002	1.4182e-005
21385	23.641	4.4545	0.	0.32139
21386	23.731	4.3636	0.	0.22452
21387	23.641	4.3636	5.e-002	1.6075e-005
21388	23.641	4.6364	0.	0.30978
21389	23.731	4.5455	0.	0.21224
21390	23.641	4.5455	5.e-002	1.3444e-005
21391	23.641	4.8182	0.	0.29691
21392	23.731	4.7273	0.	0.1984
21393	23.641	4.7273	5.e-002	1.3432e-005
21394	23.641	5.	0.	0.28209
21395	23.731	4.9091	0.	0.18216
21396	23.641	4.9091	5.e-002	1.3313e-005
21397	23.641	5.1818	0.	0.26193
21398	23.731	5.0909	0.	0.16303
21399	23.641	5.0909	5.e-002	1.0188e-005
21400	23.641	5.3636	0.	0.237
21401	23.731	5.2727	0.	0.13343
21402	23.641	5.2727	5.e-002	1.0807e-005
21403	23.641	5.5455	0.	0.16486
21404	23.731	5.4545	0.	0.10327
21405	23.641	5.4545	5.e-002	1.0034e-005
21406	23.641	5.7273	0.	3.9952e-002
21407	23.731	5.6364	0.	-4.6148e-002
21408	23.641	5.6364	5.e-002	1.0258e-005
21409	23.731	5.8182	0.	-0.20268
21410	23.641	5.8182	5.e-002	6.9208e-006
21411	23.641	5.9091	0.	0.17483
21412	23.82	0.27273	0.	-0.24547
21413	23.82	0.18182	5.e-002	7.0519e-006
21414	23.82	9.0909e-002	0.	-8.8405e-003
21415	23.91	0.18182	0.	0.117
21416	23.82	0.45455	0.	-5.3738e-002
21417	23.82	0.36364	5.e-002	-3.6371e-007
21418	23.91	0.36364	0.	0.27888
21419	23.82	0.63636	0.	5.2263e-002
21420	23.82	0.54545	5.e-002	1.9289e-006
21421	23.91	0.54545	0.	0.41761
21422	23.82	0.81818	0.	8.7386e-002
21423	23.82	0.72727	5.e-002	5.0003e-006
21424	23.91	0.72727	0.	0.42249
21425	23.82	1.	0.	0.11639
21426	23.82	0.90909	5.e-002	8.6121e-006
21427	23.91	0.90909	0.	0.43662
21428	23.82	1.1818	0.	0.13717
21429	23.82	1.0909	5.e-002	1.1399e-005
21430	23.91	1.0909	0.	0.44224
21431	23.82	1.3636	0.	0.15435
21432	23.82	1.2727	5.e-002	1.242e-005
21433	23.91	1.2727	0.	0.44722
21434	23.82	1.5455	0.	0.16863
21435	23.82	1.4545	5.e-002	1.2907e-005
21436	23.91	1.4545	0.	0.45115
21437	23.82	1.7273	0.	0.18055
21438	23.82	1.6364	5.e-002	1.3578e-005
21439	23.91	1.6364	0.	0.45487
21440	23.82	1.9091	0.	0.19001
21441	23.82	1.8182	5.e-002	1.3352e-005
21442	23.91	1.8182	0.	0.45853
21443	23.82	2.0909	0.	0.19633
21444	23.82	2.	5.e-002	1.4029e-005
21445	23.91	2.	0.	0.4623
21446	23.82	2.2727	0.	0.19723
21447	23.82	2.1818	5.e-002	1.4987e-005
21448	23.91	2.1818	0.	0.46623
21449	23.82	2.4545	0.	0.18187
21450	23.82	2.3636	5.e-002	1.5099e-005
21451	23.91	2.3636	0.	0.47054
21452	23.82	2.6364	0.	-7.5439e-002
21453	23.82	2.5455	5.e-002	1.5758e-005
21454	23.91	2.5455	0.	0.47597
21455	23.82	2.8182	0.	-2.0886
21456	23.82	2.7273	5.e-002	1.4669e-005
21457	23.91	2.7273	0.	0.48518
21458	23.82	3.	0.	-2.9289
21459	23.82	2.9091	5.e-002	1.6271e-005
21460	23.91	2.9091	0.	0.50345
21461	23.82	3.1818	0.	-2.0886
21462	23.82	3.0909	5.e-002	1.5393e-005
21463	23.91	3.0909	0.	0.50345
21464	23.82	3.3636	0.	-7.5436e-002
21465	23.82	3.2727	5.e-002	1.6269e-005
21466	23.91	3.2727	0.	0.48518
21467	23.82	3.5455	0.	0.18187
21468	23.82	3.4545	5.e-002	1.6179e-005
21469	23.91	3.4545	0.	0.47597
21470	23.82	3.7273	0.	0.19723
21471	23.82	3.6364	5.e-002	1.7106e-005
21472	23.91	3.6364	0.	0.47054
21473	23.82	3.9091	0.	0.19633
21474	23.82	3.8182	5.e-002	1.775e-005
21475	23.91	3.8182	0.	0.46623
21476	23.82	4.0909	0.	0.19001
21477	23.82	4.	5.e-002	1.6503e-005
21478	23.91	4.	0.	0.4623
21479	23.82	4.2727	0.	0.18055
21480	23.82	4.1818	5.e-002	1.5091e-005
21481	23.91	4.1818	0.	0.45853
21482	23.82	4.4545	0.	0.16863
21483	23.82	4.3636	5.e-002	1.6281e-005
21484	23.91	4.3636	0.	0.45487
21485	23.82	4.6364	0.	0.15435
21486	23.82	4.5455	5.e-002	1.3903e-005
21487	23.91	4.5455	0.	0.45115
21488	23.82	4.8182	0.	0.13717
21489	23.82	4.7273	5.e-002	1.4366e-005
21490	23.91	4.7273	0.	0.44722
21491	23.82	5.	0.	0.11639
21492	23.82	4.9091	5.e-002	1.3774e-005
21493	23.91	4.9091	0.	0.44224
21494	23.82	5.1818	0.	8.7383e-002
21495	23.82	5.0909	5.e-002	1.0367e-005
21496	23.91	5.0909	0.	0.43662
21497	23.82	5.3636	0.	5.2261e-002
21498	23.82	5.2727	5.e-002	1.056e-005
21499	23.91	5.2727	0.	0.42249
21500	23.82	5.5455	0.	-5.3736e-002
21501	23.82	5.4545	5.e-002	1.0112e-005
21502	23.91	5.4545	0.	0.41761
21503	23.82	5.7273	0.	-0.24546
21504	23.82	5.6364	5.e-002	1.011e-005
21505	23.91	5.6364	0.	0.27888
21506	23.82	5.8182	5.e-002	1.036e-005
21507	23.91	5.8182	0.	0.117
21508	23.82	5.9091	0.	-8.84e-003
21509	23.82	5.7273	0.1	0.24546
21510	23.731	5.8182	0.1	0.20268
21511	23.82	5.9091	0.1	8.8407e-003
21512	23.91	5.8182	0.1	-0.117
21513	23.82	5.5455	0.1	5.3736e-002
21514	23.731	5.6364	0.1	4.6149e-002
21515	23.91	5.6364	0.1	-0.27888
21516	23.82	5.3636	0.1	-5.2261e-002
21517	23.731	5.4545	0.1	-0.10327
21518	23.91	5.4545	0.1	-0.41761
21519	23.82	5.1818	0.1	-8.7384e-002
21520	23.731	5.2727	0.1	-0.13343
21521	23.91	5.2727	0.1	-0.42249
21522	23.82	5.	0.1	-0.11639
21523	23.731	5.0909	0.1	-0.16303
21524	23.91	5.0909	0.1	-0.43662
21525	23.82	4.8182	0.1	-0.13717
21526	23.731	4.9091	0.1	-0.18216
21527	23.91	4.9091	0.1	-0.44224
21528	23.82	4.6364	0.1	-0.15435
21529	23.731	4.7273	0.1	-0.1984
21530	23.91	4.7273	0.1	-0.44722
21531	23.82	4.4545	0.1	-0.16863
21532	23.731	4.5455	0.1	-0.21223
21533	23.91	4.5455	0.1	-0.45115
21534	23.82	4.2727	0.1	-0.18055
21535	23.731	4.3636	0.1	-0.22452
21536	23.91	4.3636	0.1	-0.45487
21537	23.82	4.0909	0.1	-0.19001
21538	23.731	4.1818	0.1	-0.23532
21539	23.91	4.1818	0.1	-0.45853
21540	23.82	3.9091	0.1	-0.19633
21541	23.731	4.	0.1	-0.24418
21542	23.91	4.	0.1	-0.46229
21543	23.82	3.7273	0.1	-0.19723
21544	23.731	3.8182	0.1	-0.24873
21545	23.91	3.8182	0.1	-0.46623
21546	23.82	3.5455	0.1	-0.18187
21547	23.731	3.6364	0.1	-0.15551
21548	23.91	3.6364	0.1	-0.47054
21549	23.82	3.3636	0.1	7.5447e-002
21550	23.731	3.4545	0.1	3.7384
21551	23.91	3.4545	0.1	-0.47597
21552	23.82	3.1818	0.1	2.0887
21553	23.731	3.2727	0.1	6.7992
21554	23.91	3.2727	0.1	-0.48518
21555	23.82	3.	0.1	2.9289
21556	23.731	3.0909	0.1	8.3853
21557	23.91	3.0909	0.1	-0.50345
21558	23.82	2.8182	0.1	2.0887
21559	23.731	2.9091	0.1	8.3853
21560	23.91	2.9091	0.1	-0.50345
21561	23.82	2.6364	0.1	7.5453e-002
21562	23.731	2.7273	0.1	6.7992
21563	23.91	2.7273	0.1	-0.48518
21564	23.82	2.4545	0.1	-0.18187
21565	23.731	2.5455	0.1	3.7384
21566	23.91	2.5455	0.1	-0.47597
21567	23.82	2.2727	0.1	-0.19723
21568	23.731	2.3636	0.1	-0.1555
21569	23.91	2.3636	0.1	-0.47054
21570	23.82	2.0909	0.1	-0.19633
21571	23.731	2.1818	0.1	-0.24873
21572	23.91	2.1818	0.1	-0.46623
21573	23.82	1.9091	0.1	-0.19001
21574	23.731	2.	0.1	-0.24418
21575	23.91	2.	0.1	-0.4623
21576	23.82	1.7273	0.1	-0.18055
21577	23.731	1.8182	0.1	-0.23532
21578	23.91	1.8182	0.1	-0.45853
21579	23.82	1.5455	0.1	-0.16863
21580	23.731	1.6364	0.1	-0.22452
21581	23.91	1.6364	0.1	-0.45487
21582	23.82	1.3636	0.1	-0.15434
21583	23.731	1.4545	0.1	-0.21223
21584	23.91	1.4545	0.1	-0.45115
21585	23.82	1.1818	0.1	-0.13717
21586	23.731	1.2727	0.1	-0.1984
21587	23.91	1.2727	0.1	-0.44722
21588	23.82	1.	0.1	-0.11639
21589	23.731	1.0909	0.1	-0.18216
21590	23.91	1.0909	0.1	-0.44224
21591	23.82	0.81818	0.1	-8.7385e-002
21592	23.731	0.90909	0.1	-0.16303
21593	23.91	0.90909	0.1	-0.43662
21594	23.82	0.63636	0.1	-5.2262e-002
21595	23.731	0.72727	0.1	-0.13343
21596	23.91	0.72727	0.1	-0.42249
21597	23.82	0.45455	0.1	5.3739e-002
21598	23.731	0.54545	0.1	-0.10327
21599	23.91	0.54545	0.1	-0.41761
21600	23.82	0.27273	0.1	0.24547
21601	23.731	0.36364	0.1	4.6151e-002
21602	23.91	0.36364	0.1	-0.27888
21603	23.731	0.18182	0.1	0.20268
21604	23.91	0.18182	0.1	-0.117
21605	23.82	9.0909e-002	0.1	8.8421e-003
21606	23.641	5.7273	0.1	-3.9951e-002
21607	23.551	5.8182	0.1	4.0284e-002
21608	23.641	5.9091	0.1	-0.17483
21609	23.641	5.5455	0.1	-0.16486
21610	23.551	5.6364	0.1	-4.4595e-002
21611	23.641	5.3636	0.1	-0.237
21612	23.551	5.4545	0.1	-0.14469
21613	23.641	5.1818	0.1	-0.26193
21614	23.551	5.2727	0.1	-0.16828
21615	23.641	5.	0.1	-0.28209
21616	23.551	5.0909	0.1	-0.18867
21617	23.641	4.8182	0.1	-0.29691
21618	23.551	4.9091	0.1	-0.20139
21619	23.641	4.6364	0.1	-0.30978
21620	23.551	4.7273	0.1	-0.2119
21621	23.641	4.4545	0.1	-0.32139
21622	23.551	4.5455	0.1	-0.22067
21623	23.641	4.2727	0.1	-0.33219
21624	23.551	4.3636	0.1	-0.22809
21625	23.641	4.0909	0.1	-0.34219
21626	23.551	4.1818	0.1	-0.23224
21627	23.641	3.9091	0.1	-0.35032
21628	23.551	4.	0.1	4.2628e-002
21629	23.641	3.7273	0.1	2.5832
21630	23.551	3.8182	0.1	5.9272
21631	23.641	3.5455	0.1	7.3234
21632	23.551	3.6364	0.1	11.169
21633	23.641	3.3636	0.1	10.905
21634	23.551	3.4545	0.1	15.34
21635	23.641	3.1818	0.1	13.136
21636	23.551	3.2727	0.1	18.237
21637	23.641	3.	0.1	13.894
21638	23.551	3.0909	0.1	19.721
21639	23.641	2.8182	0.1	13.136
21640	23.551	2.9091	0.1	19.721
21641	23.641	2.6364	0.1	10.905
21642	23.551	2.7273	0.1	18.237
21643	23.641	2.4545	0.1	7.3234
21644	23.551	2.5455	0.1	15.34
21645	23.641	2.2727	0.1	2.5832
21646	23.551	2.3636	0.1	11.169
21647	23.641	2.0909	0.1	-0.35032
21648	23.551	2.1818	0.1	5.9272
21649	23.641	1.9091	0.1	-0.34219
21650	23.551	2.	0.1	4.2644e-002
21651	23.641	1.7273	0.1	-0.33219
21652	23.551	1.8182	0.1	-0.23224
21653	23.641	1.5455	0.1	-0.32139
21654	23.551	1.6364	0.1	-0.22809
21655	23.641	1.3636	0.1	-0.30979
21656	23.551	1.4545	0.1	-0.22067
21657	23.641	1.1818	0.1	-0.29691
21658	23.551	1.2727	0.1	-0.2119
21659	23.641	1.	0.1	-0.28209
21660	23.551	1.0909	0.1	-0.20139
21661	23.641	0.81818	0.1	-0.26193
21662	23.551	0.90909	0.1	-0.18867
21663	23.641	0.63636	0.1	-0.237
21664	23.551	0.72727	0.1	-0.16828
21665	23.641	0.45455	0.1	-0.16486
21666	23.551	0.54545	0.1	-0.14469
21667	23.641	0.27273	0.1	-3.9949e-002
21668	23.551	0.36364	0.1	-4.4594e-002
21669	23.551	0.18182	0.1	4.0288e-002
21670	23.641	9.0909e-002	0.1	-0.17483
21671	23.461	5.7273	0.1	2.97e-002
21672	23.371	5.8182	0.1	3.885e-002
21673	23.461	5.9091	0.1	-7.4603e-002
21674	23.461	5.5455	0.1	-4.1482e-002
21675	23.371	5.6364	0.1	-9.3164e-004
21676	23.461	5.3636	0.1	-9.0738e-002
21677	23.371	5.4545	0.1	-7.2528e-002
21678	23.461	5.1818	0.1	-0.10924
21679	23.371	5.2727	0.1	-9.1126e-002
21680	23.461	5.	0.1	-0.1221
21681	23.371	5.0909	0.1	-0.10541
21682	23.461	4.8182	0.1	-0.13039
21683	23.371	4.9091	0.1	-0.11283
21684	23.461	4.6364	0.1	-0.13623
21685	23.371	4.7273	0.1	-0.11658
21686	23.461	4.4545	0.1	-0.13868
21687	23.371	4.5455	0.1	-0.11307
21688	23.461	4.2727	0.1	-0.12599
21689	23.371	4.3636	0.1	-4.2299e-002
21690	23.461	4.0909	0.1	2.5073
21691	23.371	4.1818	0.1	4.9226
21692	23.461	3.9091	0.1	8.8299
21693	23.371	4.	0.1	11.671
21694	23.461	3.7273	0.1	14.488
21695	23.371	3.8182	0.1	17.84
21696	23.461	3.5455	0.1	19.178
21697	23.371	3.6364	0.1	23.112
21698	23.461	3.3636	0.1	22.683
21699	23.371	3.4545	0.1	27.256
21700	23.461	3.1818	0.1	24.847
21701	23.371	3.2727	0.1	30.106
21702	23.461	3.	0.1	25.579
21703	23.371	3.0909	0.1	31.557
21704	23.461	2.8182	0.1	24.847
21705	23.371	2.9091	0.1	31.557
21706	23.461	2.6364	0.1	22.683
21707	23.371	2.7273	0.1	30.106
21708	23.461	2.4545	0.1	19.178
21709	23.371	2.5455	0.1	27.256
21710	23.461	2.2727	0.1	14.488
21711	23.371	2.3636	0.1	23.112
21712	23.461	2.0909	0.1	8.83
21713	23.371	2.1818	0.1	17.84
21714	23.461	1.9091	0.1	2.5074
21715	23.371	2.	0.1	11.671
21716	23.461	1.7273	0.1	-0.12599
21717	23.371	1.8182	0.1	4.9227
21718	23.461	1.5455	0.1	-0.13868
21719	23.371	1.6364	0.1	-4.2296e-002
21720	23.461	1.3636	0.1	-0.13623
21721	23.371	1.4545	0.1	-0.11307
21722	23.461	1.1818	0.1	-0.13039
21723	23.371	1.2727	0.1	-0.11658
21724	23.461	1.	0.1	-0.1221
21725	23.371	1.0909	0.1	-0.11283
21726	23.461	0.81818	0.1	-0.10924
21727	23.371	0.90909	0.1	-0.10541
21728	23.461	0.63636	0.1	-9.0739e-002
21729	23.371	0.72727	0.1	-9.1126e-002
21730	23.461	0.45455	0.1	-4.1483e-002
21731	23.371	0.54545	0.1	-7.2528e-002
21732	23.461	0.27273	0.1	2.9702e-002
21733	23.371	0.36364	0.1	-9.3106e-004
21734	23.371	0.18182	0.1	3.885e-002
21735	23.461	9.0909e-002	0.1	-7.4603e-002
21736	23.281	5.7273	0.1	1.2297e-002
21737	23.192	5.8182	0.1	1.9631e-002
21738	23.281	5.9091	0.1	-6.2203e-002
21739	23.281	5.5455	0.1	-4.0402e-002
21740	23.192	5.6364	0.1	-1.6612e-003
21741	23.281	5.3636	0.1	-7.9744e-002
21742	23.192	5.4545	0.1	-5.8078e-002
21743	23.281	5.1818	0.1	-9.3281e-002
21744	23.192	5.2727	0.1	-7.1166e-002
21745	23.281	5.	0.1	-0.10148
21746	23.192	5.0909	0.1	-7.9797e-002
21747	23.281	4.8182	0.1	-0.1029
21748	23.192	4.9091	0.1	-7.838e-002
21749	23.281	4.6364	0.1	-9.0318e-002
21750	23.192	4.7273	0.1	-5.2062e-002
21751	23.281	4.4545	0.1	0.38834
21752	23.192	4.5455	0.1	1.5647
21753	23.281	4.2727	0.1	7.0458
21754	23.192	4.3636	0.1	8.8313
21755	23.281	4.0909	0.1	14.093
21756	23.192	4.1818	0.1	16.314
21757	23.281	3.9091	0.1	20.68
21758	23.192	4.	0.1	23.436
21759	23.281	3.7273	0.1	26.468
21760	23.192	3.8182	0.1	29.823
21761	23.281	3.5455	0.1	31.201
21762	23.192	3.6364	0.1	35.194
21763	23.281	3.3636	0.1	34.699
21764	23.192	3.4545	0.1	39.353
21765	23.281	3.1818	0.1	36.841
21766	23.192	3.2727	0.1	42.181
21767	23.281	3.	0.1	37.562
21768	23.192	3.0909	0.1	43.609
21769	23.281	2.8182	0.1	36.841
21770	23.192	2.9091	0.1	43.609
21771	23.281	2.6364	0.1	34.699
21772	23.192	2.7273	0.1	42.181
21773	23.281	2.4545	0.1	31.201
21774	23.192	2.5455	0.1	39.353
21775	23.281	2.2727	0.1	26.468
21776	23.192	2.3636	0.1	35.194
21777	23.281	2.0909	0.1	20.68
21778	23.192	2.1818	0.1	29.823
21779	23.281	1.9091	0.1	14.093
21780	23.192	2.	0.1	23.436
21781	23.281	1.7273	0.1	7.0459
21782	23.192	1.8182	0.1	16.314
21783	23.281	1.5455	0.1	0.38838
21784	23.192	1.6364	0.1	8.8313
21785	23.281	1.3636	0.1	-9.0318e-002
21786	23.192	1.4545	0.1	1.5648
21787	23.281	1.1818	0.1	-0.1029
21788	23.192	1.2727	0.1	-5.2064e-002
21789	23.281	1.	0.1	-0.10147
21790	23.192	1.0909	0.1	-7.8381e-002
21791	23.281	0.81818	0.1	-9.328e-002
21792	23.192	0.90909	0.1	-7.9797e-002
21793	23.281	0.63636	0.1	-7.9743e-002
21794	23.192	0.72727	0.1	-7.1167e-002
21795	23.281	0.45455	0.1	-4.04e-002
21796	23.192	0.54545	0.1	-5.8074e-002
21797	23.281	0.27273	0.1	1.2296e-002
21798	23.192	0.36364	0.1	-1.6603e-003
21799	23.192	0.18182	0.1	1.9629e-002
21800	23.281	9.0909e-002	0.1	-6.2206e-002
21801	23.102	5.7273	0.1	1.2309e-002
21802	23.012	5.8182	0.1	1.1424e-002
21803	23.102	5.9091	0.1	-4.6254e-002
21804	23.102	5.5455	0.1	-2.4269e-002
21805	23.012	5.6364	0.1	2.2088e-003
21806	23.102	5.3636	0.1	-5.3543e-002
21807	23.012	5.4545	0.1	-4.0373e-002
21808	23.102	5.1818	0.1	-6.0753e-002
21809	23.012	5.2727	0.1	-4.6407e-002
21810	23.102	5.	0.1	-5.7632e-002
21811	23.012	5.0909	0.1	-4.1702e-002
21812	23.102	4.8182	0.1	-1.0803e-002
21813	23.012	4.9091	0.1	2.4731e-002
21814	23.102	4.6364	0.1	2.8644
21815	23.012	4.7273	0.1	3.4975
21816	23.102	4.4545	0.1	10.325
21817	23.012	4.5455	0.1	11.245
21818	23.102	4.2727	0.1	18.102
21819	23.012	4.3636	0.1	19.477
21820	23.102	4.0909	0.1	25.661
21821	23.012	4.1818	0.1	27.619
21822	23.102	3.9091	0.1	32.586
21823	23.012	4.	0.1	35.201
21824	23.102	3.7273	0.1	38.561
21825	23.012	3.8182	0.1	41.854
21826	23.102	3.5455	0.1	43.363
21827	23.012	3.6364	0.1	47.327
21828	23.102	3.3636	0.1	46.859
21829	23.012	3.4545	0.1	51.479
21830	23.102	3.1818	0.1	48.977
21831	23.012	3.2727	0.1	54.253
21832	23.102	3.	0.1	49.686
21833	23.012	3.0909	0.1	55.639
21834	23.102	2.8182	0.1	48.977
21835	23.012	2.9091	0.1	55.639
21836	23.102	2.6364	0.1	46.859
21837	23.012	2.7273	0.1	54.253
21838	23.102	2.4545	0.1	43.363
21839	23.012	2.5455	0.1	51.479
21840	23.102	2.2727	0.1	38.561
21841	23.012	2.3636	0.1	47.327
21842	23.102	2.0909	0.1	32.586
21843	23.012	2.1818	0.1	41.854
21844	23.102	1.9091	0.1	25.661
21845	23.012	2.	0.1	35.201
21846	23.102	1.7273	0.1	18.102
21847	23.012	1.8182	0.1	27.619
21848	23.102	1.5455	0.1	10.325
21849	23.012	1.6364	0.1	19.477
21850	23.102	1.3636	0.1	2.8645
21851	23.012	1.4545	0.1	11.245
21852	23.102	1.1818	0.1	-1.0804e-002
21853	23.012	1.2727	0.1	3.4976
21854	23.102	1.	0.1	-5.7633e-002
21855	23.012	1.0909	0.1	2.473e-002
21856	23.102	0.81818	0.1	-6.0753e-002
21857	23.012	0.90909	0.1	-4.1703e-002
21858	23.102	0.63636	0.1	-5.3541e-002
21859	23.012	0.72727	0.1	-4.6408e-002
21860	23.102	0.45455	0.1	-2.4267e-002
21861	23.012	0.54545	0.1	-4.0371e-002
21862	23.102	0.27273	0.1	1.2308e-002
21863	23.012	0.36364	0.1	2.2094e-003
21864	23.012	0.18182	0.1	1.1424e-002
21865	23.102	9.0909e-002	0.1	-4.6252e-002
21866	22.922	5.7273	0.1	8.1383e-003
21867	22.832	5.8182	0.1	5.8631e-003
21868	22.922	5.9091	0.1	-4.1766e-002
21869	22.922	5.5455	0.1	-1.7085e-002
21870	22.832	5.6364	0.1	4.6102e-003
21871	22.922	5.3636	0.1	-3.591e-002
21872	22.832	5.4545	0.1	-2.4782e-002
21873	22.922	5.1818	0.1	-2.8339e-002
21874	22.832	5.2727	0.1	-1.5579e-002
21875	22.922	5.	0.1	5.9736e-002
21876	22.832	5.0909	0.1	6.8063e-002
21877	22.922	4.8182	0.1	4.0398
21878	22.832	4.9091	0.1	3.6878
21879	22.922	4.6364	0.1	11.882
21880	22.832	4.7273	0.1	11.718
21881	22.922	4.4545	0.1	20.392
21882	22.832	4.5455	0.1	20.656
21883	22.922	4.2727	0.1	28.989
21884	22.832	4.3636	0.1	29.875
21885	22.922	4.0909	0.1	37.158
21886	22.832	4.1818	0.1	38.791
21887	22.922	3.9091	0.1	44.473
21888	22.832	4.	0.1	46.892
21889	22.922	3.7273	0.1	50.632
21890	22.832	3.8182	0.1	53.801
21891	22.922	3.5455	0.1	55.464
21892	22.832	3.6364	0.1	59.308
21893	22.922	3.3636	0.1	58.905
21894	22.832	3.4545	0.1	63.357
21895	22.922	3.1818	0.1	60.955
21896	22.832	3.2727	0.1	65.988
21897	22.922	3.	0.1	61.634
21898	22.832	3.0909	0.1	67.277
21899	22.922	2.8182	0.1	60.955
21900	22.832	2.9091	0.1	67.277
21901	22.922	2.6364	0.1	58.905
21902	22.832	2.7273	0.1	65.988
21903	22.922	2.4545	0.1	55.464
21904	22.832	2.5455	0.1	63.357
21905	22.922	2.2727	0.1	50.632
21906	22.832	2.3636	0.1	59.308
21907	22.922	2.0909	0.1	44.473
21908	22.832	2.1818	0.1	53.801
21909	22.922	1.9091	0.1	37.158
21910	22.832	2.	0.1	46.892
21911	22.922	1.7273	0.1	28.989
21912	22.832	1.8182	0.1	38.791
21913	22.922	1.5455	0.1	20.392
21914	22.832	1.6364	0.1	29.875
21915	22.922	1.3636	0.1	11.882
21916	22.832	1.4545	0.1	20.656
21917	22.922	1.1818	0.1	4.0399
21918	22.832	1.2727	0.1	11.718
21919	22.922	1.	0.1	5.9738e-002
21920	22.832	1.0909	0.1	3.6878
21921	22.922	0.81818	0.1	-2.8339e-002
21922	22.832	0.90909	0.1	6.8064e-002
21923	22.922	0.63636	0.1	-3.5912e-002
21924	22.832	0.72727	0.1	-1.558e-002
21925	22.922	0.45455	0.1	-1.7085e-002
21926	22.832	0.54545	0.1	-2.4782e-002
21927	22.922	0.27273	0.1	8.14e-003
21928	22.832	0.36364	0.1	4.6118e-003
21929	22.832	0.18182	0.1	5.8648e-003
21930	22.922	9.0909e-002	0.1	-4.1764e-002
21931	22.743	5.7273	0.1	8.6405e-003
21932	22.653	5.8182	0.1	5.2301e-003
21933	22.743	5.9091	0.1	-4.0215e-002
21934	22.743	5.5455	0.1	-5.5689e-003
21935	22.653	5.6364	0.1	1.1934e-002
21936	22.743	5.3636	0.1	-7.1577e-003
21937	22.653	5.4545	0.1	4.877e-004
21938	22.743	5.1818	0.1	7.2751e-002
21939	22.653	5.2727	0.1	6.156e-002
21940	22.743	5.	0.1	3.3242
21941	22.653	5.0909	0.1	2.0613
21942	22.743	4.8182	0.1	11.329
21943	22.653	4.9091	0.1	9.9722
21944	22.743	4.6364	0.1	20.469
21945	22.653	4.7273	0.1	19.397
21946	22.743	4.4545	0.1	30.117
21947	22.653	4.5455	0.1	29.614
21948	22.743	4.2727	0.1	39.656
21949	22.653	4.3636	0.1	39.958
21950	22.743	4.0909	0.1	48.508
21951	22.653	4.1818	0.1	49.743
21952	22.743	3.9091	0.1	56.212
21953	22.653	4.	0.1	58.376
21954	22.743	3.7273	0.1	62.484
21955	22.653	3.8182	0.1	65.458
21956	22.743	3.5455	0.1	67.228
21957	22.653	3.6364	0.1	70.841
21958	22.743	3.3636	0.1	70.487
21959	22.653	3.4545	0.1	74.593
21960	22.743	3.1818	0.1	72.372
21961	22.653	3.2727	0.1	76.912
21962	22.743	3.	0.1	72.987
21963	22.653	3.0909	0.1	78.005
21964	22.743	2.8182	0.1	72.372
21965	22.653	2.9091	0.1	78.005
21966	22.743	2.6364	0.1	70.487
21967	22.653	2.7273	0.1	76.912
21968	22.743	2.4545	0.1	67.228
21969	22.653	2.5455	0.1	74.593
21970	22.743	2.2727	0.1	62.484
21971	22.653	2.3636	0.1	70.841
21972	22.743	2.0909	0.1	56.212
21973	22.653	2.1818	0.1	65.458
21974	22.743	1.9091	0.1	48.508
21975	22.653	2.	0.1	58.376
21976	22.743	1.7273	0.1	39.657
21977	22.653	1.8182	0.1	49.743
21978	22.743	1.5455	0.1	30.117
21979	22.653	1.6364	0.1	39.958
21980	22.743	1.3636	0.1	20.469
21981	22.653	1.4545	0.1	29.614
21982	22.743	1.1818	0.1	11.329
21983	22.653	1.2727	0.1	19.397
21984	22.743	1.	0.1	3.3243
21985	22.653	1.0909	0.1	9.9723
21986	22.743	0.81818	0.1	7.2751e-002
21987	22.653	0.90909	0.1	2.0614
21988	22.743	0.63636	0.1	-7.1569e-003
21989	22.653	0.72727	0.1	6.1559e-002
21990	22.743	0.45455	0.1	-5.5665e-003
21991	22.653	0.54545	0.1	4.9085e-004
21992	22.743	0.27273	0.1	8.642e-003
21993	22.653	0.36364	0.1	1.1938e-002
21994	22.653	0.18182	0.1	5.2287e-003
21995	22.743	9.0909e-002	0.1	-4.0215e-002
21996	22.563	5.7273	0.1	1.4205e-002
21997	22.473	5.8182	0.1	9.7286e-003
21998	22.563	5.9091	0.1	-4.1352e-002
21999	22.563	5.5455	0.1	1.4616e-002
22000	22.473	5.6364	0.1	2.7491e-002
22001	22.563	5.3636	0.1	5.4964e-002
22002	22.473	5.4545	0.1	4.8675e-002
22003	22.563	5.1818	0.1	1.1173
22004	22.473	5.2727	0.1	0.37387
22005	22.563	5.	0.1	8.5545
22006	22.473	5.0909	0.1	6.1747
22007	22.563	4.8182	0.1	17.989
22008	22.473	4.9091	0.1	15.555
22009	22.563	4.6364	0.1	28.49
22010	22.473	4.7273	0.1	26.37
22011	22.563	4.4545	0.1	39.4
22012	22.473	4.5455	0.1	37.97
22013	22.563	4.2727	0.1	49.991
22014	22.473	4.3636	0.1	49.566
22015	22.563	4.0909	0.1	59.566
22016	22.473	4.1818	0.1	60.303
22017	22.563	3.9091	0.1	67.595
22018	22.473	4.	0.1	69.436
22019	22.563	3.7273	0.1	73.816
22020	22.473	3.8182	0.1	76.519
22021	22.563	3.5455	0.1	78.244
22022	22.473	3.6364	0.1	81.488
22023	22.563	3.3636	0.1	81.093
22024	22.473	3.4545	0.1	84.615
22025	22.563	3.1818	0.1	82.648
22026	22.473	3.2727	0.1	86.338
22027	22.563	3.	0.1	83.137
22028	22.473	3.0909	0.1	87.075
22029	22.563	2.8182	0.1	82.648
22030	22.473	2.9091	0.1	87.075
22031	22.563	2.6364	0.1	81.093
22032	22.473	2.7273	0.1	86.338
22033	22.563	2.4545	0.1	78.244
22034	22.473	2.5455	0.1	84.615
22035	22.563	2.2727	0.1	73.816
22036	22.473	2.3636	0.1	81.488
22037	22.563	2.0909	0.1	67.595
22038	22.473	2.1818	0.1	76.519
22039	22.563	1.9091	0.1	59.566
22040	22.473	2.	0.1	69.436
22041	22.563	1.7273	0.1	49.992
22042	22.473	1.8182	0.1	60.303
22043	22.563	1.5455	0.1	39.401
22044	22.473	1.6364	0.1	49.566
22045	22.563	1.3636	0.1	28.49
22046	22.473	1.4545	0.1	37.97
22047	22.563	1.1818	0.1	17.989
22048	22.473	1.2727	0.1	26.37
22049	22.563	1.	0.1	8.5546
22050	22.473	1.0909	0.1	15.555
22051	22.563	0.81818	0.1	1.1174
22052	22.473	0.90909	0.1	6.1747
22053	22.563	0.63636	0.1	5.4965e-002
22054	22.473	0.72727	0.1	0.37388
22055	22.563	0.45455	0.1	1.462e-002
22056	22.473	0.54545	0.1	4.8679e-002
22057	22.563	0.27273	0.1	1.4206e-002
22058	22.473	0.36364	0.1	2.7493e-002
22059	22.473	0.18182	0.1	9.7257e-003
22060	22.563	9.0909e-002	0.1	-4.1357e-002
22061	22.383	5.7273	0.1	2.7948e-002
22062	22.294	5.8182	0.1	2.1356e-002
22063	22.383	5.9091	0.1	-4.392e-002
22064	22.383	5.5455	0.1	5.2829e-002
22065	22.294	5.6364	0.1	5.6774e-002
22066	22.383	5.3636	0.1	0.21608
22067	22.294	5.4545	0.1	0.14395
22068	22.383	5.1818	0.1	4.0598
22069	22.294	5.2727	0.1	1.5898
22070	22.383	5.	0.1	13.066
22071	22.294	5.0909	0.1	9.636
22072	22.383	4.8182	0.1	23.842
22073	22.294	4.9091	0.1	20.208
22074	22.383	4.6364	0.1	35.748
22075	22.294	4.7273	0.1	32.36
22076	22.383	4.4545	0.1	48.028
22077	22.294	4.5455	0.1	45.408
22078	22.383	4.2727	0.1	59.772
22079	22.294	4.3636	0.1	58.388
22080	22.383	4.0909	0.1	70.083
22081	22.294	4.1818	0.1	70.166
22082	22.383	3.9091	0.1	78.302
22083	22.294	4.	0.1	79.731
22084	22.383	3.7273	0.1	84.186
22085	22.294	3.8182	0.1	86.524
22086	22.383	3.5455	0.1	87.92
22087	22.294	3.6364	0.1	90.614
22088	22.383	3.3636	0.1	89.987
22089	22.294	3.4545	0.1	92.59
22090	22.383	3.1818	0.1	90.941
22091	22.294	3.2727	0.1	93.275
22092	22.383	3.	0.1	91.207
22093	22.294	3.0909	0.1	93.406
22094	22.383	2.8182	0.1	90.941
22095	22.294	2.9091	0.1	93.406
22096	22.383	2.6364	0.1	89.987
22097	22.294	2.7273	0.1	93.275
22098	22.383	2.4545	0.1	87.92
22099	22.294	2.5455	0.1	92.59
22100	22.383	2.2727	0.1	84.186
22101	22.294	2.3636	0.1	90.614
22102	22.383	2.0909	0.1	78.302
22103	22.294	2.1818	0.1	86.524
22104	22.383	1.9091	0.1	70.083
22105	22.294	2.	0.1	79.731
22106	22.383	1.7273	0.1	59.772
22107	22.294	1.8182	0.1	70.166
22108	22.383	1.5455	0.1	48.028
22109	22.294	1.6364	0.1	58.388
22110	22.383	1.3636	0.1	35.748
22111	22.294	1.4545	0.1	45.408
22112	22.383	1.1818	0.1	23.842
22113	22.294	1.2727	0.1	32.36
22114	22.383	1.	0.1	13.067
22115	22.294	1.0909	0.1	20.208
22116	22.383	0.81818	0.1	4.0598
22117	22.294	0.90909	0.1	9.636
22118	22.383	0.63636	0.1	0.21609
22119	22.294	0.72727	0.1	1.5898
22120	22.383	0.45455	0.1	5.2831e-002
22121	22.294	0.54545	0.1	0.14395
22122	22.383	0.27273	0.1	2.7947e-002
22123	22.294	0.36364	0.1	5.6775e-002
22124	22.294	0.18182	0.1	2.1355e-002
22125	22.383	9.0909e-002	0.1	-4.3921e-002
22126	22.204	5.7273	0.1	5.3892e-002
22127	22.114	5.8182	0.1	4.4099e-002
22128	22.204	5.9091	0.1	-4.7659e-002
22129	22.204	5.5455	0.1	0.12203
22130	22.114	5.6364	0.1	0.10826
22131	22.204	5.3636	0.1	0.61957
22132	22.114	5.4545	0.1	0.32397
22133	22.204	5.1818	0.1	6.596
22134	22.114	5.2727	0.1	3.2076
22135	22.204	5.	0.1	16.611
22136	22.114	5.0909	0.1	12.126
22137	22.204	4.8182	0.1	28.553
22138	22.114	4.9091	0.1	23.527
22139	22.204	4.6364	0.1	41.833
22140	22.114	4.7273	0.1	36.815
22141	22.204	4.4545	0.1	55.574
22142	22.114	4.5455	0.1	51.313
22143	22.204	4.2727	0.1	68.595
22144	22.114	4.3636	0.1	65.843
22145	22.204	4.0909	0.1	79.655
22146	22.114	4.1818	0.1	78.819
22147	22.204	3.9091	0.1	87.853
22148	22.114	4.	0.1	88.737
22149	22.204	3.7273	0.1	92.947
22150	22.114	3.8182	0.1	94.805
22151	22.204	3.5455	0.1	95.394
22152	22.114	3.6364	0.1	97.288
22153	22.204	3.3636	0.1	96.1
22154	22.114	3.4545	0.1	97.309
22155	22.204	3.1818	0.1	96.043
22156	22.114	3.2727	0.1	96.298
22157	22.204	3.	0.1	95.937
22158	22.114	3.0909	0.1	95.461
22159	22.204	2.8182	0.1	96.043
22160	22.114	2.9091	0.1	95.461
22161	22.204	2.6364	0.1	96.101
22162	22.114	2.7273	0.1	96.298
22163	22.204	2.4545	0.1	95.394
22164	22.114	2.5455	0.1	97.309
22165	22.204	2.2727	0.1	92.947
22166	22.114	2.3636	0.1	97.288
22167	22.204	2.0909	0.1	87.853
22168	22.114	2.1818	0.1	94.805
22169	22.204	1.9091	0.1	79.655
22170	22.114	2.	0.1	88.737
22171	22.204	1.7273	0.1	68.595
22172	22.114	1.8182	0.1	78.819
22173	22.204	1.5455	0.1	55.574
22174	22.114	1.6364	0.1	65.843
22175	22.204	1.3636	0.1	41.833
22176	22.114	1.4545	0.1	51.313
22177	22.204	1.1818	0.1	28.554
22178	22.114	1.2727	0.1	36.815
22179	22.204	1.	0.1	16.611
22180	22.114	1.0909	0.1	23.527
22181	22.204	0.81818	0.1	6.596
22182	22.114	0.90909	0.1	12.126
22183	22.204	0.63636	0.1	0.61957
22184	22.114	0.72727	0.1	3.2076
22185	22.204	0.45455	0.1	0.12203
22186	22.114	0.54545	0.1	0.32397
22187	22.204	0.27273	0.1	5.3893e-002
22188	22.114	0.36364	0.1	0.10826
22189	22.114	0.18182	0.1	4.4098e-002
22190	22.204	9.0909e-002	0.1	-4.7656e-002
22191	22.024	5.7273	0.1	9.9855e-002
22192	21.934	5.8182	0.1	8.5849e-002
22193	22.024	5.9091	0.1	-5.2381e-002
22194	22.024	5.5455	0.1	0.24301
22195	21.934	5.6364	0.1	0.19775
22196	22.024	5.3636	0.1	1.3257
22197	21.934	5.4545	0.1	0.63421
22198	22.024	5.1818	0.1	8.2756
22199	21.934	5.2727	0.1	4.3446
22200	22.024	5.	0.1	18.762
22201	21.934	5.0909	0.1	13.225
22202	22.024	4.8182	0.1	31.482
22203	21.934	4.9091	0.1	24.775
22204	22.024	4.6364	0.1	45.969
22205	21.934	4.7273	0.1	38.725
22206	22.024	4.4545	0.1	61.252
22207	21.934	4.5455	0.1	54.557
22208	22.024	4.2727	0.1	75.755
22209	21.934	4.3636	0.1	70.879
22210	22.024	4.0909	0.1	87.642
22211	21.934	4.1818	0.1	85.387
22212	22.024	3.9091	0.1	95.536
22213	21.934	4.	0.1	95.643
22214	22.024	3.7273	0.1	99.159
22215	21.934	3.8182	0.1	100.36
22216	22.024	3.5455	0.1	99.414
22217	21.934	3.6364	0.1	100.14
22218	22.024	3.3636	0.1	97.899
22219	21.934	3.4545	0.1	97.021
22220	22.024	3.1818	0.1	96.232
22221	21.934	3.2727	0.1	93.393
22222	22.024	3.	0.1	95.544
22223	21.934	3.0909	0.1	91.107
22224	22.024	2.8182	0.1	96.232
22225	21.934	2.9091	0.1	91.107
22226	22.024	2.6364	0.1	97.899
22227	21.934	2.7273	0.1	93.393
22228	22.024	2.4545	0.1	99.414
22229	21.934	2.5455	0.1	97.021
22230	22.024	2.2727	0.1	99.159
22231	21.934	2.3636	0.1	100.14
22232	22.024	2.0909	0.1	95.536
22233	21.934	2.1818	0.1	100.36
22234	22.024	1.9091	0.1	87.642
22235	21.934	2.	0.1	95.643
22236	22.024	1.7273	0.1	75.755
22237	21.934	1.8182	0.1	85.387
22238	22.024	1.5455	0.1	61.252
22239	21.934	1.6364	0.1	70.879
22240	22.024	1.3636	0.1	45.969
22241	21.934	1.4545	0.1	54.558
22242	22.024	1.1818	0.1	31.482
22243	21.934	1.2727	0.1	38.725
22244	22.024	1.	0.1	18.762
22245	21.934	1.0909	0.1	24.775
22246	22.024	0.81818	0.1	8.2756
22247	21.934	0.90909	0.1	13.225
22248	22.024	0.63636	0.1	1.3257
22249	21.934	0.72727	0.1	4.3447
22250	22.024	0.45455	0.1	0.24301
22251	21.934	0.54545	0.1	0.63421
22252	22.024	0.27273	0.1	9.9855e-002
22253	21.934	0.36364	0.1	0.19775
22254	21.934	0.18182	0.1	8.5847e-002
22255	22.024	9.0909e-002	0.1	-5.2382e-002
22256	21.844	5.7273	0.1	0.18059
22257	21.755	5.8182	0.1	0.16446
22258	21.844	5.9091	0.1	-5.9081e-002
22259	21.844	5.5455	0.1	0.44886
22260	21.755	5.6364	0.1	0.36016
22261	21.844	5.3636	0.1	2.0577
22262	21.755	5.4545	0.1	1.0965
22263	21.844	5.1818	0.1	8.7203
22264	21.755	5.2727	0.1	4.6519
22265	21.844	5.	0.1	18.76
22266	21.755	5.0909	0.1	12.237
22267	21.844	4.8182	0.1	31.489
22268	21.755	4.9091	0.1	22.729
22269	21.844	4.6364	0.1	46.761
22270	21.755	4.7273	0.1	36.374
22271	21.844	4.4545	0.1	63.642
22272	21.755	4.5455	0.1	53.138
22273	21.844	4.2727	0.1	80.014
22274	21.755	4.3636	0.1	71.617
22275	21.844	4.0909	0.1	92.992
22276	21.755	4.1818	0.1	88.389
22277	21.844	3.9091	0.1	100.26
22278	21.755	4.	0.1	99.226
22279	21.844	3.7273	0.1	101.43
22280	21.755	3.8182	0.1	101.73
22281	21.844	3.5455	0.1	98.162
22282	21.755	3.6364	0.1	97.128
22283	21.844	3.3636	0.1	93.202
22284	21.755	3.4545	0.1	89.2
22285	21.844	3.1818	0.1	89.125
22286	21.755	3.2727	0.1	81.815
22287	21.844	3.	0.1	87.583
22288	21.755	3.0909	0.1	77.556
22289	21.844	2.8182	0.1	89.125
22290	21.755	2.9091	0.1	77.556
22291	21.844	2.6364	0.1	93.202
22292	21.755	2.7273	0.1	81.815
22293	21.844	2.4545	0.1	98.162
22294	21.755	2.5455	0.1	89.2
22295	21.844	2.2727	0.1	101.43
22296	21.755	2.3636	0.1	97.129
22297	21.844	2.0909	0.1	100.26
22298	21.755	2.1818	0.1	101.73
22299	21.844	1.9091	0.1	92.992
22300	21.755	2.	0.1	99.226
22301	21.844	1.7273	0.1	80.014
22302	21.755	1.8182	0.1	88.389
22303	21.844	1.5455	0.1	63.642
22304	21.755	1.6364	0.1	71.617
22305	21.844	1.3636	0.1	46.761
22306	21.755	1.4545	0.1	53.138
22307	21.844	1.1818	0.1	31.489
22308	21.755	1.2727	0.1	36.374
22309	21.844	1.	0.1	18.76
22310	21.755	1.0909	0.1	22.729
22311	21.844	0.81818	0.1	8.7203
22312	21.755	0.90909	0.1	12.237
22313	21.844	0.63636	0.1	2.0577
22314	21.755	0.72727	0.1	4.6519
22315	21.844	0.45455	0.1	0.44886
22316	21.755	0.54545	0.1	1.0965
22317	21.844	0.27273	0.1	0.18059
22318	21.755	0.36364	0.1	0.36016
22319	21.755	0.18182	0.1	0.16446
22320	21.844	9.0909e-002	0.1	-5.9084e-002
22321	21.665	5.7273	0.1	0.33174
22322	21.575	5.8182	0.1	0.31178
22323	21.665	5.9091	0.1	-6.4094e-002
22324	21.665	5.5455	0.1	0.79182
22325	21.575	5.6364	0.1	0.66284
22326	21.665	5.3636	0.1	2.4977
22327	21.575	5.4545	0.1	1.6296
22328	21.665	5.1818	0.1	7.3946
22329	21.575	5.2727	0.1	3.9038
22330	21.665	5.	0.1	15.42
22331	21.575	5.0909	0.1	8.3376
22332	21.665	4.8182	0.1	26.732
22333	21.575	4.9091	0.1	15.695
22334	21.665	4.6364	0.1	41.843
22335	21.575	4.7273	0.1	27.132
22336	21.665	4.4545	0.1	60.25
22337	21.575	4.5455	0.1	43.638
22338	21.665	4.2727	0.1	79.229
22339	21.575	4.3636	0.1	64.465
22340	21.665	4.0909	0.1	94.051
22341	21.575	4.1818	0.1	85.055
22342	21.665	3.9091	0.1	100.47
22343	21.575	4.	0.1	97.354
22344	21.665	3.7273	0.1	97.722
22345	21.575	3.8182	0.1	96.494
22346	21.665	3.5455	0.1	88.989
22347	21.575	3.6364	0.1	85.108
22348	21.665	3.3636	0.1	79.005
22349	21.575	3.4545	0.1	70.283
22350	21.665	3.1818	0.1	71.621
22351	21.575	3.2727	0.1	58.138
22352	21.665	3.	0.1	68.954
22353	21.575	3.0909	0.1	51.61
22354	21.665	2.8182	0.1	71.621
22355	21.575	2.9091	0.1	51.61
22356	21.665	2.6364	0.1	79.005
22357	21.575	2.7273	0.1	58.138
22358	21.665	2.4545	0.1	88.989
22359	21.575	2.5455	0.1	70.283
22360	21.665	2.2727	0.1	97.722
22361	21.575	2.3636	0.1	85.108
22362	21.665	2.0909	0.1	100.47
22363	21.575	2.1818	0.1	96.494
22364	21.665	1.9091	0.1	94.051
22365	21.575	2.	0.1	97.354
22366	21.665	1.7273	0.1	79.229
22367	21.575	1.8182	0.1	85.055
22368	21.665	1.5455	0.1	60.25
22369	21.575	1.6364	0.1	64.465
22370	21.665	1.3636	0.1	41.843
22371	21.575	1.4545	0.1	43.638
22372	21.665	1.1818	0.1	26.732
22373	21.575	1.2727	0.1	27.132
22374	21.665	1.	0.1	15.42
22375	21.575	1.0909	0.1	15.695
22376	21.665	0.81818	0.1	7.3946
22377	21.575	0.90909	0.1	8.3377
22378	21.665	0.63636	0.1	2.4977
22379	21.575	0.72727	0.1	3.9038
22380	21.665	0.45455	0.1	0.79181
22381	21.575	0.54545	0.1	1.6296
22382	21.665	0.27273	0.1	0.33174
22383	21.575	0.36364	0.1	0.66284
22384	21.575	0.18182	0.1	0.31178
22385	21.665	9.0909e-002	0.1	-6.4095e-002
22386	21.485	5.7273	0.1	0.61395
22387	21.395	5.8182	0.1	0.62955
22388	21.485	5.9091	0.1	-7.5281e-002
22389	21.485	5.5455	0.1	1.2873
22390	21.395	5.6364	0.1	1.2354
22391	21.485	5.3636	0.1	2.4439
22392	21.395	5.4545	0.1	1.9986
22393	21.485	5.1818	0.1	4.2849
22394	21.395	5.2727	0.1	2.5635
22395	21.485	5.	0.1	7.8162
22396	21.395	5.0909	0.1	3.2702
22397	21.485	4.8182	0.1	14.915
22398	21.395	4.9091	0.1	4.8617
22399	21.485	4.6364	0.1	27.567
22400	21.395	4.7273	0.1	9.4603
22401	21.485	4.4545	0.1	46.533
22402	21.395	4.5455	0.1	21.179
22403	21.485	4.2727	0.1	69.153
22404	21.395	4.3636	0.1	43.079
22405	21.485	4.0909	0.1	87.585
22406	21.395	4.1818	0.1	70.36
22407	21.485	3.9091	0.1	93.299
22408	21.395	4.	0.1	86.551
22409	21.485	3.7273	0.1	84.745
22410	21.395	3.8182	0.1	81.016
22411	21.485	3.5455	0.1	68.06
22412	21.395	3.6364	0.1	59.121
22413	21.485	3.3636	0.1	51.439
22414	21.395	3.4545	0.1	35.793
22415	21.485	3.1818	0.1	40.206
22416	21.395	3.2727	0.1	19.177
22417	21.485	3.	0.1	36.328
22418	21.395	3.0909	0.1	10.688
22419	21.485	2.8182	0.1	40.206
22420	21.395	2.9091	0.1	10.688
22421	21.485	2.6364	0.1	51.439
22422	21.395	2.7273	0.1	19.177
22423	21.485	2.4545	0.1	68.06
22424	21.395	2.5455	0.1	35.793
22425	21.485	2.2727	0.1	84.745
22426	21.395	2.3636	0.1	59.121
22427	21.485	2.0909	0.1	93.299
22428	21.395	2.1818	0.1	81.016
22429	21.485	1.9091	0.1	87.585
22430	21.395	2.	0.1	86.551
22431	21.485	1.7273	0.1	69.153
22432	21.395	1.8182	0.1	70.36
22433	21.485	1.5455	0.1	46.533
22434	21.395	1.6364	0.1	43.079
22435	21.485	1.3636	0.1	27.567
22436	21.395	1.4545	0.1	21.179
22437	21.485	1.1818	0.1	14.915
22438	21.395	1.2727	0.1	9.4603
22439	21.485	1.	0.1	7.8162
22440	21.395	1.0909	0.1	4.8617
22441	21.485	0.81818	0.1	4.2849
22442	21.395	0.90909	0.1	3.2702
22443	21.485	0.63636	0.1	2.4439
22444	21.395	0.72727	0.1	2.5635
22445	21.485	0.45455	0.1	1.2873
22446	21.395	0.54545	0.1	1.9986
22447	21.485	0.27273	0.1	0.61395
22448	21.395	0.36364	0.1	1.2354
22449	21.395	0.18182	0.1	0.62955
22450	21.485	9.0909e-002	0.1	-7.5283e-002
22451	21.306	5.7273	0.1	1.21
22452	21.216	5.8182	0.1	1.2297
22453	21.306	5.9091	0.1	-1.3433e-002
22454	21.306	5.5455	0.1	1.8225
22455	21.216	5.6364	0.1	1.9129
22456	21.306	5.3636	0.1	2.0073
22457	21.216	5.4545	0.1	1.8127
22458	21.306	5.1818	0.1	2.0683
22459	21.216	5.2727	0.1	1.538
22460	21.306	5.	0.1	2.3531
22461	21.216	5.0909	0.1	1.4792
22462	21.306	4.8182	0.1	3.1917
22463	21.216	4.9091	0.1	1.6379
22464	21.306	4.6364	0.1	5.7934
22465	21.216	4.7273	0.1	2.084
22466	21.306	4.4545	0.1	16.967
22467	21.216	4.5455	0.1	3.3134
22468	21.306	4.2727	0.1	42.714
22469	21.216	4.3636	0.1	7.3859
22470	21.306	4.0909	0.1	68.332
22471	21.216	4.1818	0.1	26.586
22472	21.306	3.9091	0.1	74.768
22473	21.216	4.	0.1	58.095
22474	21.306	3.7273	0.1	57.779
22475	21.216	3.8182	0.1	46.789
22476	21.306	3.5455	0.1	30.535
22477	21.216	3.6364	0.1	16.915
22478	21.306	3.3636	0.1	8.4902
22479	21.216	3.4545	0.1	2.2069
22480	21.306	3.1818	0.1	0.43785
22481	21.216	3.2727	0.1	0.23168
22482	21.306	3.	0.1	-0.28219
22483	21.216	3.0909	0.1	-0.12854
22484	21.306	2.8182	0.1	0.43785
22485	21.216	2.9091	0.1	-0.12854
22486	21.306	2.6364	0.1	8.4902
22487	21.216	2.7273	0.1	0.23168
22488	21.306	2.4545	0.1	30.535
22489	21.216	2.5455	0.1	2.2069
22490	21.306	2.2727	0.1	57.779
22491	21.216	2.3636	0.1	16.915
22492	21.306	2.0909	0.1	74.768
22493	21.216	2.1818	0.1	46.789
22494	21.306	1.9091	0.1	68.332
22495	21.216	2.	0.1	58.095
22496	21.306	1.7273	0.1	42.714
22497	21.216	1.8182	0.1	26.586
22498	21.306	1.5455	0.1	16.967
22499	21.216	1.6364	0.1	7.3859
22500	21.306	1.3636	0.1	5.7934
22501	21.216	1.4545	0.1	3.3134
22502	21.306	1.1818	0.1	3.1917
22503	21.216	1.2727	0.1	2.084
22504	21.306	1.	0.1	2.3531
22505	21.216	1.0909	0.1	1.6379
22506	21.306	0.81818	0.1	2.0683
22507	21.216	0.90909	0.1	1.4793
22508	21.306	0.63636	0.1	2.0073
22509	21.216	0.72727	0.1	1.5381
22510	21.306	0.45455	0.1	1.8225
22511	21.216	0.54545	0.1	1.8127
22512	21.306	0.27273	0.1	1.21
22513	21.216	0.36364	0.1	1.9129
22514	21.216	0.18182	0.1	1.2297
22515	21.306	9.0909e-002	0.1	-1.3434e-002
22516	21.126	5.7273	0.1	1.9485
22517	21.036	5.8182	0.1	2.8368
22518	21.126	5.9091	0.1	5.5051e-002
22519	21.126	5.5455	0.1	1.7085
22520	21.036	5.6364	0.1	2.1766
22521	21.126	5.3636	0.1	1.2779
22522	21.036	5.4545	0.1	1.5819
22523	21.126	5.1818	0.1	1.0868
22524	21.036	5.2727	0.1	1.3368
22525	21.126	5.	0.1	1.0941
22526	21.036	5.0909	0.1	1.3419
22527	21.126	4.8182	0.1	1.2786
22528	21.036	4.9091	0.1	1.5878
22529	21.126	4.6364	0.1	1.8501
22530	21.036	4.7273	0.1	1.805
22531	21.126	4.4545	0.1	2.7979
22532	21.036	4.5455	0.1	3.5995
22533	21.126	4.2727	0.1	4.6106
22534	21.036	4.3636	0.1	2.1595
22535	21.126	4.0909	0.1	13.989
22536	21.036	4.1818	0.1	18.708
22537	21.126	3.9091	0.1	32.83
22538	21.036	4.	0.1	39.378
22539	21.126	3.7273	0.1	14.783
22540	21.036	3.8182	0.1	21.831
22541	21.126	3.5455	0.1	3.8525
22542	21.036	3.6364	0.1	5.1103
22543	21.126	3.3636	0.1	0.45121
22544	21.036	3.4545	0.1	0.11971
22545	21.126	3.1818	0.1	1.5429e-002
22546	21.036	3.2727	0.1	0.32977
22547	21.126	3.	0.1	-6.4393e-002
22548	21.036	3.0909	0.1	-1.0717e-003
22549	21.126	2.8182	0.1	1.5428e-002
22550	21.036	2.9091	0.1	-1.0712e-003
22551	21.126	2.6364	0.1	0.4512
22552	21.036	2.7273	0.1	0.32977
22553	21.126	2.4545	0.1	3.8525
22554	21.036	2.5455	0.1	0.11971
22555	21.126	2.2727	0.1	14.784
22556	21.036	2.3636	0.1	5.1103
22557	21.126	2.0909	0.1	32.83
22558	21.036	2.1818	0.1	21.831
22559	21.126	1.9091	0.1	13.989
22560	21.036	2.	0.1	39.378
22561	21.126	1.7273	0.1	4.6106
22562	21.036	1.8182	0.1	18.708
22563	21.126	1.5455	0.1	2.7979
22564	21.036	1.6364	0.1	2.1595
22565	21.126	1.3636	0.1	1.8501
22566	21.036	1.4545	0.1	3.5995
22567	21.126	1.1818	0.1	1.2786
22568	21.036	1.2727	0.1	1.805
22569	21.126	1.	0.1	1.0941
22570	21.036	1.0909	0.1	1.5878
22571	21.126	0.81818	0.1	1.0868
22572	21.036	0.90909	0.1	1.3419
22573	21.126	0.63636	0.1	1.2779
22574	21.036	0.72727	0.1	1.3368
22575	21.126	0.45455	0.1	1.7085
22576	21.036	0.54545	0.1	1.5819
22577	21.126	0.27273	0.1	1.9485
22578	21.036	0.36364	0.1	2.1766
22579	21.036	0.18182	0.1	2.8368
22580	21.126	9.0909e-002	0.1	5.5053e-002
22581	20.946	5.7273	0.1	2.759
22582	20.856	5.8182	0.1	0.49313
22583	20.946	5.9091	0.1	1.879
22584	20.946	5.5455	0.1	1.7201
22585	20.856	5.6364	0.1	-0.40939
22586	20.946	5.3636	0.1	1.4903
22587	20.856	5.4545	0.1	-0.27896
22588	20.946	5.1818	0.1	1.4842
22589	20.856	5.2727	0.1	-0.29095
22590	20.946	5.	0.1	1.7365
22591	20.856	5.0909	0.1	-0.34885
22592	20.946	4.8182	0.1	2.0105
22593	20.856	4.9091	0.1	-0.1766
22594	20.946	4.6364	0.1	3.4885
22595	20.856	4.7273	0.1	-0.92315
22596	20.946	4.4545	0.1	3.0459
22597	20.856	4.5455	0.1	2.1003
22598	20.946	4.2727	0.1	16.89
22599	20.856	4.3636	0.1	-10.577
22600	20.946	4.0909	0.1	61.962
22601	20.856	4.1818	0.1	45.468
22602	20.946	3.9091	0.1	41.733
22603	20.856	4.	0.1	161.13
22604	20.946	3.7273	0.1	12.394
22605	20.856	3.8182	0.1	19.845
22606	20.946	3.5455	0.1	1.9281
22607	20.856	3.6364	0.1	5.9397
22608	20.946	3.3636	0.1	-3.2987e-002
22609	20.856	3.4545	0.1	-0.49441
22610	20.946	3.1818	0.1	0.27996
22611	20.856	3.2727	0.1	0.67742
22612	20.946	3.	0.1	1.7353e-002
22613	20.856	3.0909	0.1	0.20424
22614	20.946	2.8182	0.1	0.27996
22615	20.856	2.9091	0.1	0.20424
22616	20.946	2.6364	0.1	-3.2986e-002
22617	20.856	2.7273	0.1	0.67742
22618	20.946	2.4545	0.1	1.9281
22619	20.856	2.5455	0.1	-0.49441
22620	20.946	2.2727	0.1	12.394
22621	20.856	2.3636	0.1	5.9397
22622	20.946	2.0909	0.1	41.733
22623	20.856	2.1818	0.1	19.845
22624	20.946	1.9091	0.1	61.962
22625	20.856	2.	0.1	161.13
22626	20.946	1.7273	0.1	16.89
22627	20.856	1.8182	0.1	45.468
22628	20.946	1.5455	0.1	3.0459
22629	20.856	1.6364	0.1	-10.577
22630	20.946	1.3636	0.1	3.4885
22631	20.856	1.4545	0.1	2.1003
22632	20.946	1.1818	0.1	2.0105
22633	20.856	1.2727	0.1	-0.92315
22634	20.946	1.	0.1	1.7365
22635	20.856	1.0909	0.1	-0.1766
22636	20.946	0.81818	0.1	1.4842
22637	20.856	0.90909	0.1	-0.34885
22638	20.946	0.63636	0.1	1.4903
22639	20.856	0.72727	0.1	-0.29095
22640	20.946	0.45455	0.1	1.7201
22641	20.856	0.54545	0.1	-0.27896
22642	20.946	0.27273	0.1	2.759
22643	20.856	0.36364	0.1	-0.40939
22644	20.856	0.18182	0.1	0.49313
22645	20.946	9.0909e-002	0.1	1.879
22646	0.18393	0.27273	0.1	412.1
22647	0.27589	0.18182	0.1	3.1529
22648	9.1964e-002	0.18182	0.1	571.72
22649	0.18393	9.0909e-002	0.1	-88.475
22650	0.18393	0.45455	0.1	1044.7
22651	0.27589	0.36364	0.1	743.09
22652	9.1964e-002	0.36364	0.1	1563.9
22653	0.18393	0.63636	0.1	1383.5
22654	0.27589	0.54545	0.1	1244.2
22655	9.1964e-002	0.54545	0.1	2040.
22656	0.18393	0.81818	0.1	1585.7
22657	0.27589	0.72727	0.1	1554.4
22658	9.1964e-002	0.72727	0.1	2318.2
22659	0.18393	1.	0.1	1718.2
22660	0.27589	0.90909	0.1	1755.1
22661	9.1964e-002	0.90909	0.1	2500.3
22662	0.18393	1.1818	0.1	1811.6
22663	0.27589	1.0909	0.1	1892.9
22664	9.1964e-002	1.0909	0.1	2628.9
22665	0.18393	1.3636	0.1	1880.5
22666	0.27589	1.2727	0.1	1992.1
22667	9.1964e-002	1.2727	0.1	2723.5
22668	0.18393	1.5455	0.1	1932.5
22669	0.27589	1.4545	0.1	2065.9
22670	9.1964e-002	1.4545	0.1	2795.1
22671	0.18393	1.7273	0.1	1972.5
22672	0.27589	1.6364	0.1	2121.9
22673	9.1964e-002	1.6364	0.1	2850.2
22674	0.18393	1.9091	0.1	2003.5
22675	0.27589	1.8182	0.1	2165.
22676	9.1964e-002	1.8182	0.1	2892.8
22677	0.18393	2.0909	0.1	2027.3
22678	0.27589	2.	0.1	2198.2
22679	9.1964e-002	2.	0.1	2925.9
22680	0.18393	2.2727	0.1	2045.4
22681	0.27589	2.1818	0.1	2223.6
22682	9.1964e-002	2.1818	0.1	2951.2
22683	0.18393	2.4545	0.1	2058.6
22684	0.27589	2.3636	0.1	2242.5
22685	9.1964e-002	2.3636	0.1	2970.2
22686	0.18393	2.6364	0.1	2067.7
22687	0.27589	2.5455	0.1	2256.
22688	9.1964e-002	2.5455	0.1	2983.7
22689	0.18393	2.8182	0.1	2073.
22690	0.27589	2.7273	0.1	2264.7
22691	9.1964e-002	2.7273	0.1	2992.4
22692	0.18393	3.	0.1	2074.7
22693	0.27589	2.9091	0.1	2268.9
22694	9.1964e-002	2.9091	0.1	2996.7
22695	0.18393	3.1818	0.1	2073.
22696	0.27589	3.0909	0.1	2268.9
22697	9.1964e-002	3.0909	0.1	2996.7
22698	0.18393	3.3636	0.1	2067.7
22699	0.27589	3.2727	0.1	2264.7
22700	9.1964e-002	3.2727	0.1	2992.4
22701	0.18393	3.5455	0.1	2058.6
22702	0.27589	3.4545	0.1	2256.
22703	9.1964e-002	3.4545	0.1	2983.7
22704	0.18393	3.7273	0.1	2045.4
22705	0.27589	3.6364	0.1	2242.5
22706	9.1964e-002	3.6364	0.1	2970.2
22707	0.18393	3.9091	0.1	2027.3
22708	0.27589	3.8182	0.1	2223.6
22709	9.1964e-002	3.8182	0.1	2951.2
22710	0.18393	4.0909	0.1	2003.5
22711	0.27589	4.	0.1	2198.2
22712	9.1964e-002	4.	0.1	2925.9
22713	0.18393	4.2727	0.1	1972.5
22714	0.27589	4.1818	0.1	2165.
22715	9.1964e-002	4.1818	0.1	2892.8
22716	0.18393	4.4545	0.1	1932.5
22717	0.27589	4.3636	0.1	2121.9
22718	9.1964e-002	4.3636	0.1	2850.2
22719	0.18393	4.6364	0.1	1880.5
22720	0.27589	4.5455	0.1	2065.9
22721	9.1964e-002	4.5455	0.1	2795.1
22722	0.18393	4.8182	0.1	1811.6
22723	0.27589	4.7273	0.1	1992.1
22724	9.1964e-002	4.7273	0.1	2723.5
22725	0.18393	5.	0.1	1718.2
22726	0.27589	4.9091	0.1	1892.9
22727	9.1964e-002	4.9091	0.1	2628.9
22728	0.18393	5.1818	0.1	1585.7
22729	0.27589	5.0909	0.1	1755.1
22730	9.1964e-002	5.0909	0.1	2500.3
22731	0.18393	5.3636	0.1	1383.5
22732	0.27589	5.2727	0.1	1554.4
22733	9.1964e-002	5.2727	0.1	2318.2
22734	0.18393	5.5455	0.1	1044.7
22735	0.27589	5.4545	0.1	1244.2
22736	9.1964e-002	5.4545	0.1	2040.
22737	0.18393	5.7273	0.1	412.1
22738	0.27589	5.6364	0.1	743.09
22739	9.1964e-002	5.6364	0.1	1563.9
22740	0.27589	5.8182	0.1	3.153
22741	9.1964e-002	5.8182	0.1	571.72
22742	0.18393	5.9091	0.1	-88.475
22743	0.36786	0.27273	0.1	306.62
22744	0.45982	0.18182	0.1	41.497
22745	0.36786	9.0909e-002	0.1	23.652
22746	0.36786	0.45455	0.1	942.13
22747	0.45982	0.36364	0.1	536.64
22748	0.36786	0.63636	0.1	1407.9
22749	0.45982	0.54545	0.1	1039.9
22750	0.36786	0.81818	0.1	1717.2
22751	0.45982	0.72727	0.1	1408.4
22752	0.36786	1.	0.1	1925.2
22753	0.45982	0.90909	0.1	1668.
22754	0.36786	1.1818	0.1	2070.4
22755	0.45982	1.0909	0.1	1851.6
22756	0.36786	1.3636	0.1	2175.7
22757	0.45982	1.2727	0.1	1984.7
22758	0.36786	1.5455	0.1	2254.1
22759	0.45982	1.4545	0.1	2083.3
22760	0.36786	1.7273	0.1	2313.7
22761	0.45982	1.6364	0.1	2157.7
22762	0.36786	1.9091	0.1	2359.3
22763	0.45982	1.8182	0.1	2214.6
22764	0.36786	2.0909	0.1	2394.3
22765	0.45982	2.	0.1	2258.1
22766	0.36786	2.2727	0.1	2420.6
22767	0.45982	2.1818	0.1	2291.3
22768	0.36786	2.4545	0.1	2439.9
22769	0.45982	2.3636	0.1	2315.9
22770	0.36786	2.6364	0.1	2453.
22771	0.45982	2.5455	0.1	2333.4
22772	0.36786	2.8182	0.1	2460.7
22773	0.45982	2.7273	0.1	2344.7
22774	0.36786	3.	0.1	2463.2
22775	0.45982	2.9091	0.1	2350.1
22776	0.36786	3.1818	0.1	2460.7
22777	0.45982	3.0909	0.1	2350.1
22778	0.36786	3.3636	0.1	2453.
22779	0.45982	3.2727	0.1	2344.7
22780	0.36786	3.5455	0.1	2439.9
22781	0.45982	3.4545	0.1	2333.4
22782	0.36786	3.7273	0.1	2420.6
22783	0.45982	3.6364	0.1	2315.9
22784	0.36786	3.9091	0.1	2394.3
22785	0.45982	3.8182	0.1	2291.3
22786	0.36786	4.0909	0.1	2359.3
22787	0.45982	4.	0.1	2258.1
22788	0.36786	4.2727	0.1	2313.7
22789	0.45982	4.1818	0.1	2214.6
22790	0.36786	4.4545	0.1	2254.1
22791	0.45982	4.3636	0.1	2157.7
22792	0.36786	4.6364	0.1	2175.7
22793	0.45982	4.5455	0.1	2083.3
22794	0.36786	4.8182	0.1	2070.4
22795	0.45982	4.7273	0.1	1984.7
22796	0.36786	5.	0.1	1925.2
22797	0.45982	4.9091	0.1	1851.6
22798	0.36786	5.1818	0.1	1717.2
22799	0.45982	5.0909	0.1	1668.
22800	0.36786	5.3636	0.1	1407.9
22801	0.45982	5.2727	0.1	1408.4
22802	0.36786	5.5455	0.1	942.13
22803	0.45982	5.4545	0.1	1039.9
22804	0.36786	5.7273	0.1	306.62
22805	0.45982	5.6364	0.1	536.64
22806	0.45982	5.8182	0.1	41.497
22807	0.36786	5.9091	0.1	23.652
22808	0.55179	0.27273	0.1	169.4
22809	0.64375	0.18182	0.1	9.8836
22810	0.55179	9.0909e-002	0.1	-9.0474
22811	0.55179	0.45455	0.1	637.31
22812	0.64375	0.36364	0.1	375.7
22813	0.55179	0.63636	0.1	1043.4
22814	0.64375	0.54545	0.1	784.12
22815	0.55179	0.81818	0.1	1360.2
22816	0.64375	0.72727	0.1	1130.7
22817	0.55179	1.	0.1	1594.2
22818	0.64375	0.90909	0.1	1402.
22819	0.55179	1.1818	0.1	1765.3
22820	0.64375	1.0909	0.1	1607.5
22821	0.55179	1.3636	0.1	1891.7
22822	0.64375	1.2727	0.1	1762.1
22823	0.55179	1.5455	0.1	1986.4
22824	0.64375	1.4545	0.1	1879.1
22825	0.55179	1.7273	0.1	2058.3
22826	0.64375	1.6364	0.1	1968.3
22827	0.55179	1.9091	0.1	2113.2
22828	0.64375	1.8182	0.1	2036.7
22829	0.55179	2.0909	0.1	2155.
22830	0.64375	2.	0.1	2089.1
22831	0.55179	2.2727	0.1	2186.5
22832	0.64375	2.1818	0.1	2129.
22833	0.55179	2.4545	0.1	2209.5
22834	0.64375	2.3636	0.1	2158.6
22835	0.55179	2.6364	0.1	2225.1
22836	0.64375	2.5455	0.1	2179.6
22837	0.55179	2.8182	0.1	2234.2
22838	0.64375	2.7273	0.1	2193.1
22839	0.55179	3.	0.1	2237.2
22840	0.64375	2.9091	0.1	2199.6
22841	0.55179	3.1818	0.1	2234.2
22842	0.64375	3.0909	0.1	2199.6
22843	0.55179	3.3636	0.1	2225.1
22844	0.64375	3.2727	0.1	2193.1
22845	0.55179	3.5455	0.1	2209.5
22846	0.64375	3.4545	0.1	2179.6
22847	0.55179	3.7273	0.1	2186.5
22848	0.64375	3.6364	0.1	2158.6
22849	0.55179	3.9091	0.1	2155.
22850	0.64375	3.8182	0.1	2129.
22851	0.55179	4.0909	0.1	2113.2
22852	0.64375	4.	0.1	2089.1
22853	0.55179	4.2727	0.1	2058.3
22854	0.64375	4.1818	0.1	2036.7
22855	0.55179	4.4545	0.1	1986.4
22856	0.64375	4.3636	0.1	1968.3
22857	0.55179	4.6364	0.1	1891.7
22858	0.64375	4.5455	0.1	1879.1
22859	0.55179	4.8182	0.1	1765.3
22860	0.64375	4.7273	0.1	1762.1
22861	0.55179	5.	0.1	1594.2
22862	0.64375	4.9091	0.1	1607.5
22863	0.55179	5.1818	0.1	1360.2
22864	0.64375	5.0909	0.1	1402.
22865	0.55179	5.3636	0.1	1043.4
22866	0.64375	5.2727	0.1	1130.7
22867	0.55179	5.5455	0.1	637.31
22868	0.64375	5.4545	0.1	784.12
22869	0.55179	5.7273	0.1	169.4
22870	0.64375	5.6364	0.1	375.7
22871	0.64375	5.8182	0.1	9.8836
22872	0.55179	5.9091	0.1	-9.0474
22873	0.73571	0.27273	0.1	146.03
22874	0.82768	0.18182	0.1	16.431
22875	0.73571	9.0909e-002	0.1	1.4266
22876	0.73571	0.45455	0.1	522.8
22877	0.82768	0.36364	0.1	311.61
22878	0.73571	0.63636	0.1	873.08
22879	0.82768	0.54545	0.1	648.47
22880	0.73571	0.81818	0.1	1174.
22881	0.82768	0.72727	0.1	957.29
22882	0.73571	1.	0.1	1416.2
22883	0.82768	0.90909	0.1	1219.4
22884	0.73571	1.1818	0.1	1604.7
22885	0.82768	1.0909	0.1	1431.5
22886	0.73571	1.3636	0.1	1749.6
22887	0.82768	1.2727	0.1	1599.2
22888	0.73571	1.5455	0.1	1860.9
22889	0.82768	1.4545	0.1	1730.3
22890	0.73571	1.7273	0.1	1946.6
22891	0.82768	1.6364	0.1	1832.4
22892	0.73571	1.9091	0.1	2012.5
22893	0.82768	1.8182	0.1	1911.8
22894	0.73571	2.0909	0.1	2063.
22895	0.82768	2.	0.1	1973.3
22896	0.73571	2.2727	0.1	2101.
22897	0.82768	2.1818	0.1	2020.2
22898	0.73571	2.4545	0.1	2128.8
22899	0.82768	2.3636	0.1	2055.2
22900	0.73571	2.6364	0.1	2147.6
22901	0.82768	2.5455	0.1	2080.1
22902	0.73571	2.8182	0.1	2158.6
22903	0.82768	2.7273	0.1	2096.1
22904	0.73571	3.	0.1	2162.2
22905	0.82768	2.9091	0.1	2103.9
22906	0.73571	3.1818	0.1	2158.6
22907	0.82768	3.0909	0.1	2103.9
22908	0.73571	3.3636	0.1	2147.6
22909	0.82768	3.2727	0.1	2096.1
22910	0.73571	3.5455	0.1	2128.8
22911	0.82768	3.4545	0.1	2080.1
22912	0.73571	3.7273	0.1	2101.
22913	0.82768	3.6364	0.1	2055.2
22914	0.73571	3.9091	0.1	2063.
22915	0.82768	3.8182	0.1	2020.2
22916	0.73571	4.0909	0.1	2012.5
22917	0.82768	4.	0.1	1973.3
22918	0.73571	4.2727	0.1	1946.6
22919	0.82768	4.1818	0.1	1911.8
22920	0.73571	4.4545	0.1	1860.9
22921	0.82768	4.3636	0.1	1832.4
22922	0.73571	4.6364	0.1	1749.6
22923	0.82768	4.5455	0.1	1730.3
22924	0.73571	4.8182	0.1	1604.7
22925	0.82768	4.7273	0.1	1599.2
22926	0.73571	5.	0.1	1416.2
22927	0.82768	4.9091	0.1	1431.5
22928	0.73571	5.1818	0.1	1174.
22929	0.82768	5.0909	0.1	1219.4
22930	0.73571	5.3636	0.1	873.08
22931	0.82768	5.2727	0.1	957.29
22932	0.73571	5.5455	0.1	522.8
22933	0.82768	5.4545	0.1	648.47
22934	0.73571	5.7273	0.1	146.03
22935	0.82768	5.6364	0.1	311.61
22936	0.82768	5.8182	0.1	16.431
22937	0.73571	5.9091	0.1	1.4266
22938	0.91964	0.27273	0.1	127.84
22939	1.0116	0.18182	0.1	15.952
22940	0.91964	9.0909e-002	0.1	-1.0266
22941	0.91964	0.45455	0.1	436.62
22942	1.0116	0.36364	0.1	269.72
22943	0.91964	0.63636	0.1	733.21
22944	1.0116	0.54545	0.1	551.26
22945	0.91964	0.81818	0.1	1003.7
22946	1.0116	0.72727	0.1	820.42
22947	0.91964	1.	0.1	1235.8
22948	1.0116	0.90909	0.1	1061.7
22949	0.91964	1.1818	0.1	1426.8
22950	1.0116	1.0909	0.1	1267.7
22951	0.91964	1.3636	0.1	1580.3
22952	1.0116	1.2727	0.1	1438.
22953	0.91964	1.5455	0.1	1702.
22954	1.0116	1.4545	0.1	1576.
22955	0.91964	1.7273	0.1	1797.8
22956	1.0116	1.6364	0.1	1686.6
22957	0.91964	1.9091	0.1	1872.7
22958	1.0116	1.8182	0.1	1774.2
22959	0.91964	2.0909	0.1	1930.6
22960	1.0116	2.	0.1	1842.9
22961	0.91964	2.2727	0.1	1974.6
22962	1.0116	2.1818	0.1	1896.
22963	0.91964	2.4545	0.1	2006.7
22964	1.0116	2.3636	0.1	1935.8
22965	0.91964	2.6364	0.1	2028.7
22966	1.0116	2.5455	0.1	1964.3
22967	0.91964	2.8182	0.1	2041.5
22968	1.0116	2.7273	0.1	1982.5
22969	0.91964	3.	0.1	2045.7
22970	1.0116	2.9091	0.1	1991.5
22971	0.91964	3.1818	0.1	2041.5
22972	1.0116	3.0909	0.1	1991.5
22973	0.91964	3.3636	0.1	2028.7
22974	1.0116	3.2727	0.1	1982.5
22975	0.91964	3.5455	0.1	2006.7
22976	1.0116	3.4545	0.1	1964.3
22977	0.91964	3.7273	0.1	1974.6
22978	1.0116	3.6364	0.1	1935.8
22979	0.91964	3.9091	0.1	1930.6
22980	1.0116	3.8182	0.1	1896.
22981	0.91964	4.0909	0.1	1872.7
22982	1.0116	4.	0.1	1842.9
22983	0.91964	4.2727	0.1	1797.8
22984	1.0116	4.1818	0.1	1774.2
22985	0.91964	4.4545	0.1	1702.
22986	1.0116	4.3636	0.1	1686.6
22987	0.91964	4.6364	0.1	1580.3
22988	1.0116	4.5455	0.1	1576.
22989	0.91964	4.8182	0.1	1426.8
22990	1.0116	4.7273	0.1	1438.
22991	0.91964	5.	0.1	1235.8
22992	1.0116	4.9091	0.1	1267.7
22993	0.91964	5.1818	0.1	1003.7
22994	1.0116	5.0909	0.1	1061.7
22995	0.91964	5.3636	0.1	733.21
22996	1.0116	5.2727	0.1	820.42
22997	0.91964	5.5455	0.1	436.62
22998	1.0116	5.4545	0.1	551.26
22999	0.91964	5.7273	0.1	127.84
23000	1.0116	5.6364	0.1	269.72
23001	1.0116	5.8182	0.1	15.952
23002	0.91964	5.9091	0.1	-1.0266
23003	1.1036	0.27273	0.1	121.7
23004	1.1955	0.18182	0.1	19.063
23005	1.1036	9.0909e-002	0.1	-4.0663e-004
23006	1.1036	0.45455	0.1	383.56
23007	1.1955	0.36364	0.1	244.01
23008	1.1036	0.63636	0.1	638.45
23009	1.1955	0.54545	0.1	484.89
23010	1.1036	0.81818	0.1	878.93
23011	1.1955	0.72727	0.1	720.09
23012	1.1036	1.	0.1	1094.4
23013	1.1955	0.90909	0.1	938.4
23014	1.1036	1.1818	0.1	1279.6
23015	1.1955	1.0909	0.1	1132.1
23016	1.1036	1.3636	0.1	1434.3
23017	1.1955	1.2727	0.1	1298.3
23018	1.1036	1.5455	0.1	1561.
23019	1.1955	1.4545	0.1	1437.5
23020	1.1036	1.7273	0.1	1663.2
23021	1.1955	1.6364	0.1	1551.9
23022	1.1036	1.9091	0.1	1744.7
23023	1.1955	1.8182	0.1	1644.6
23024	1.1036	2.0909	0.1	1808.5
23025	1.1955	2.	0.1	1718.5
23026	1.1036	2.2727	0.1	1857.4
23027	1.1955	2.1818	0.1	1776.3
23028	1.1036	2.4545	0.1	1893.5
23029	1.1955	2.3636	0.1	1820.1
23030	1.1036	2.6364	0.1	1918.3
23031	1.1955	2.5455	0.1	1851.6
23032	1.1036	2.8182	0.1	1932.7
23033	1.1955	2.7273	0.1	1871.9
23034	1.1036	3.	0.1	1937.5
23035	1.1955	2.9091	0.1	1881.9
23036	1.1036	3.1818	0.1	1932.7
23037	1.1955	3.0909	0.1	1881.9
23038	1.1036	3.3636	0.1	1918.3
23039	1.1955	3.2727	0.1	1871.9
23040	1.1036	3.5455	0.1	1893.5
23041	1.1955	3.4545	0.1	1851.6
23042	1.1036	3.7273	0.1	1857.4
23043	1.1955	3.6364	0.1	1820.1
23044	1.1036	3.9091	0.1	1808.5
23045	1.1955	3.8182	0.1	1776.3
23046	1.1036	4.0909	0.1	1744.7
23047	1.1955	4.	0.1	1718.5
23048	1.1036	4.2727	0.1	1663.2
23049	1.1955	4.1818	0.1	1644.6
23050	1.1036	4.4545	0.1	1561.
23051	1.1955	4.3636	0.1	1551.9
23052	1.1036	4.6364	0.1	1434.3
23053	1.1955	4.5455	0.1	1437.5
23054	1.1036	4.8182	0.1	1279.6
23055	1.1955	4.7273	0.1	1298.3
23056	1.1036	5.	0.1	1094.4
23057	1.1955	4.9091	0.1	1132.1
23058	1.1036	5.1818	0.1	878.93
23059	1.1955	5.0909	0.1	938.4
23060	1.1036	5.3636	0.1	638.45
23061	1.1955	5.2727	0.1	720.09
23062	1.1036	5.5455	0.1	383.56
23063	1.1955	5.4545	0.1	484.89
23064	1.1036	5.7273	0.1	121.7
23065	1.1955	5.6364	0.1	244.01
23066	1.1955	5.8182	0.1	19.063
23067	1.1036	5.9091	0.1	-4.0594e-004
23068	1.2875	0.27273	0.1	118.12
23069	1.3795	0.18182	0.1	23.12
23070	1.2875	9.0909e-002	0.1	0.16894
23071	1.2875	0.45455	0.1	344.59
23072	1.3795	0.36364	0.1	225.46
23073	1.2875	0.63636	0.1	566.28
23074	1.3795	0.54545	0.1	435.09
23075	1.2875	0.81818	0.1	779.68
23076	1.3795	0.72727	0.1	642.02
23077	1.2875	1.	0.1	976.49
23078	1.3795	0.90909	0.1	838.34
23079	1.2875	1.1818	0.1	1151.3
23080	1.3795	1.0909	0.1	1017.4
23081	1.2875	1.3636	0.1	1301.9
23082	1.3795	1.2727	0.1	1175.5
23083	1.2875	1.5455	0.1	1428.8
23084	1.3795	1.4545	0.1	1311.5
23085	1.2875	1.7273	0.1	1533.7
23086	1.3795	1.6364	0.1	1426.1
23087	1.2875	1.9091	0.1	1618.9
23088	1.3795	1.8182	0.1	1520.9
23089	1.2875	2.0909	0.1	1686.7
23090	1.3795	2.	0.1	1597.7
23091	1.2875	2.2727	0.1	1739.3
23092	1.3795	2.1818	0.1	1658.6
23093	1.2875	2.4545	0.1	1778.4
23094	1.3795	2.3636	0.1	1705.1
23095	1.2875	2.6364	0.1	1805.4
23096	1.3795	2.5455	0.1	1738.8
23097	1.2875	2.8182	0.1	1821.2
23098	1.3795	2.7273	0.1	1760.7
23099	1.2875	3.	0.1	1826.4
23100	1.3795	2.9091	0.1	1771.5
23101	1.2875	3.1818	0.1	1821.2
23102	1.3795	3.0909	0.1	1771.5
23103	1.2875	3.3636	0.1	1805.4
23104	1.3795	3.2727	0.1	1760.7
23105	1.2875	3.5455	0.1	1778.4
23106	1.3795	3.4545	0.1	1738.8
23107	1.2875	3.7273	0.1	1739.3
23108	1.3795	3.6364	0.1	1705.1
23109	1.2875	3.9091	0.1	1686.7
23110	1.3795	3.8182	0.1	1658.6
23111	1.2875	4.0909	0.1	1618.9
23112	1.3795	4.	0.1	1597.7
23113	1.2875	4.2727	0.1	1533.7
23114	1.3795	4.1818	0.1	1520.9
23115	1.2875	4.4545	0.1	1428.8
23116	1.3795	4.3636	0.1	1426.1
23117	1.2875	4.6364	0.1	1301.9
23118	1.3795	4.5455	0.1	1311.5
23119	1.2875	4.8182	0.1	1151.3
23120	1.3795	4.7273	0.1	1175.5
23121	1.2875	5.	0.1	976.49
23122	1.3795	4.9091	0.1	1017.4
23123	1.2875	5.1818	0.1	779.68
23124	1.3795	5.0909	0.1	838.34
23125	1.2875	5.3636	0.1	566.28
23126	1.3795	5.2727	0.1	642.02
23127	1.2875	5.5455	0.1	344.59
23128	1.3795	5.4545	0.1	435.09
23129	1.2875	5.7273	0.1	118.12
23130	1.3795	5.6364	0.1	225.46
23131	1.3795	5.8182	0.1	23.12
23132	1.2875	5.9091	0.1	0.16894
23133	1.4714	0.27273	0.1	116.23
23134	1.5634	0.18182	0.1	28.33
23135	1.4714	9.0909e-002	0.1	0.96769
23136	1.4714	0.45455	0.1	315.3
23137	1.5634	0.36364	0.1	211.29
23138	1.4714	0.63636	0.1	510.51
23139	1.5634	0.54545	0.1	396.31
23140	1.4714	0.81818	0.1	700.63
23141	1.5634	0.72727	0.1	579.9
23142	1.4714	1.	0.1	879.38
23143	1.5634	0.90909	0.1	756.47
23144	1.4714	1.1818	0.1	1041.9
23145	1.5634	1.0909	0.1	920.61
23146	1.4714	1.3636	0.1	1185.4
23147	1.5634	1.2727	0.1	1068.7
23148	1.4714	1.5455	0.1	1309.2
23149	1.5634	1.4545	0.1	1198.9
23150	1.4714	1.7273	0.1	1413.7
23151	1.5634	1.6364	0.1	1310.9
23152	1.4714	1.9091	0.1	1500.1
23153	1.5634	1.8182	0.1	1405.2
23154	1.4714	2.0909	0.1	1569.9
23155	1.5634	2.	0.1	1482.9
23156	1.4714	2.2727	0.1	1624.7
23157	1.5634	2.1818	0.1	1545.2
23158	1.4714	2.4545	0.1	1665.9
23159	1.5634	2.3636	0.1	1593.3
23160	1.4714	2.6364	0.1	1694.4
23161	1.5634	2.5455	0.1	1628.5
23162	1.4714	2.8182	0.1	1711.3
23163	1.5634	2.7273	0.1	1651.4
23164	1.4714	3.	0.1	1716.8
23165	1.5634	2.9091	0.1	1662.7
23166	1.4714	3.1818	0.1	1711.3
23167	1.5634	3.0909	0.1	1662.7
23168	1.4714	3.3636	0.1	1694.4
23169	1.5634	3.2727	0.1	1651.4
23170	1.4714	3.5455	0.1	1665.9
23171	1.5634	3.4545	0.1	1628.5
23172	1.4714	3.7273	0.1	1624.7
23173	1.5634	3.6364	0.1	1593.3
23174	1.4714	3.9091	0.1	1569.9
23175	1.5634	3.8182	0.1	1545.2
23176	1.4714	4.0909	0.1	1500.1
23177	1.5634	4.	0.1	1482.9
23178	1.4714	4.2727	0.1	1413.7
23179	1.5634	4.1818	0.1	1405.2
23180	1.4714	4.4545	0.1	1309.2
23181	1.5634	4.3636	0.1	1310.9
23182	1.4714	4.6364	0.1	1185.4
23183	1.5634	4.5455	0.1	1198.9
23184	1.4714	4.8182	0.1	1041.9
23185	1.5634	4.7273	0.1	1068.7
23186	1.4714	5.	0.1	879.38
23187	1.5634	4.9091	0.1	920.61
23188	1.4714	5.1818	0.1	700.63
23189	1.5634	5.0909	0.1	756.47
23190	1.4714	5.3636	0.1	510.51
23191	1.5634	5.2727	0.1	579.9
23192	1.4714	5.5455	0.1	315.3
23193	1.5634	5.4545	0.1	396.31
23194	1.4714	5.7273	0.1	116.23
23195	1.5634	5.6364	0.1	211.29
23196	1.5634	5.8182	0.1	28.33
23197	1.4714	5.9091	0.1	0.96769
23198	1.6554	0.27273	0.1	114.73
23199	1.7473	0.18182	0.1	33.764
23200	1.6554	9.0909e-002	0.1	3.2976
23201	1.6554	0.45455	0.1	291.74
23202	1.7473	0.36364	0.1	199.57
23203	1.6554	0.63636	0.1	465.37
23204	1.7473	0.54545	0.1	364.63
23205	1.6554	0.81818	0.1	635.6
23206	1.7473	0.72727	0.1	528.76
23207	1.6554	1.	0.1	797.72
23208	1.7473	0.90909	0.1	687.95
23209	1.6554	1.1818	0.1	947.59
23210	1.7473	1.0909	0.1	837.89
23211	1.6554	1.3636	0.1	1082.5
23212	1.7473	1.2727	0.1	975.36
23213	1.6554	1.5455	0.1	1201.
23214	1.7473	1.4545	0.1	1098.3
23215	1.6554	1.7273	0.1	1302.8
23216	1.7473	1.6364	0.1	1205.8
23217	1.6554	1.9091	0.1	1388.4
23218	1.7473	1.8182	0.1	1297.8
23219	1.6554	2.0909	0.1	1458.5
23220	1.7473	2.	0.1	1374.5
23221	1.6554	2.2727	0.1	1514.1
23222	1.7473	2.1818	0.1	1436.8
23223	1.6554	2.4545	0.1	1556.3
23224	1.7473	2.3636	0.1	1485.5
23225	1.6554	2.6364	0.1	1585.7
23226	1.7473	2.5455	0.1	1521.2
23227	1.6554	2.8182	0.1	1603.2
23228	1.7473	2.7273	0.1	1544.7
23229	1.6554	3.	0.1	1608.9
23230	1.7473	2.9091	0.1	1556.3
23231	1.6554	3.1818	0.1	1603.2
23232	1.7473	3.0909	0.1	1556.3
23233	1.6554	3.3636	0.1	1585.7
23234	1.7473	3.2727	0.1	1544.7
23235	1.6554	3.5455	0.1	1556.3
23236	1.7473	3.4545	0.1	1521.2
23237	1.6554	3.7273	0.1	1514.1
23238	1.7473	3.6364	0.1	1485.5
23239	1.6554	3.9091	0.1	1458.5
23240	1.7473	3.8182	0.1	1436.8
23241	1.6554	4.0909	0.1	1388.4
23242	1.7473	4.	0.1	1374.5
23243	1.6554	4.2727	0.1	1302.8
23244	1.7473	4.1818	0.1	1297.8
23245	1.6554	4.4545	0.1	1201.
23246	1.7473	4.3636	0.1	1205.8
23247	1.6554	4.6364	0.1	1082.5
23248	1.7473	4.5455	0.1	1098.3
23249	1.6554	4.8182	0.1	947.59
23250	1.7473	4.7273	0.1	975.36
23251	1.6554	5.	0.1	797.72
23252	1.7473	4.9091	0.1	837.89
23253	1.6554	5.1818	0.1	635.6
23254	1.7473	5.0909	0.1	687.95
23255	1.6554	5.3636	0.1	465.37
23256	1.7473	5.2727	0.1	528.76
23257	1.6554	5.5455	0.1	291.74
23258	1.7473	5.4545	0.1	364.63
23259	1.6554	5.7273	0.1	114.73
23260	1.7473	5.6364	0.1	199.57
23261	1.7473	5.8182	0.1	33.764
23262	1.6554	5.9091	0.1	3.2976
23263	1.8393	0.27273	0.1	113.19
23264	1.9312	0.18182	0.1	38.759
23265	1.8393	9.0909e-002	0.1	8.0451
23266	1.8393	0.45455	0.1	271.99
23267	1.9312	0.36364	0.1	189.37
23268	1.8393	0.63636	0.1	427.7
23269	1.9312	0.54545	0.1	337.83
23270	1.8393	0.81818	0.1	580.91
23271	1.9312	0.72727	0.1	485.5
23272	1.8393	1.	0.1	728.06
23273	1.9312	0.90909	0.1	629.48
23274	1.8393	1.1818	0.1	865.72
23275	1.9312	1.0909	0.1	766.33
23276	1.8393	1.3636	0.1	991.37
23277	1.9312	1.2727	0.1	893.25
23278	1.8393	1.5455	0.1	1103.4
23279	1.9312	1.4545	0.1	1008.3
23280	1.8393	1.7273	0.1	1201.1
23281	1.9312	1.6364	0.1	1110.2
23282	1.8393	1.9091	0.1	1284.2
23283	1.9312	1.8182	0.1	1198.5
23284	1.8393	2.0909	0.1	1353.2
23285	1.9312	2.	0.1	1273.
23286	1.8393	2.2727	0.1	1408.5
23287	1.9312	2.1818	0.1	1334.2
23288	1.8393	2.4545	0.1	1450.7
23289	1.9312	2.3636	0.1	1382.3
23290	1.8393	2.6364	0.1	1480.4
23291	1.9312	2.5455	0.1	1417.9
23292	1.8393	2.8182	0.1	1498.1
23293	1.9312	2.7273	0.1	1441.4
23294	1.8393	3.	0.1	1503.9
23295	1.9312	2.9091	0.1	1453.1
23296	1.8393	3.1818	0.1	1498.1
23297	1.9312	3.0909	0.1	1453.1
23298	1.8393	3.3636	0.1	1480.4
23299	1.9312	3.2727	0.1	1441.4
23300	1.8393	3.5455	0.1	1450.7
23301	1.9312	3.4545	0.1	1417.9
23302	1.8393	3.7273	0.1	1408.5
23303	1.9312	3.6364	0.1	1382.3
23304	1.8393	3.9091	0.1	1353.2
23305	1.9312	3.8182	0.1	1334.2
23306	1.8393	4.0909	0.1	1284.2
23307	1.9312	4.	0.1	1273.
23308	1.8393	4.2727	0.1	1201.1
23309	1.9312	4.1818	0.1	1198.5
23310	1.8393	4.4545	0.1	1103.4
23311	1.9312	4.3636	0.1	1110.2
23312	1.8393	4.6364	0.1	991.37
23313	1.9312	4.5455	0.1	1008.3
23314	1.8393	4.8182	0.1	865.72
23315	1.9312	4.7273	0.1	893.25
23316	1.8393	5.	0.1	728.06
23317	1.9312	4.9091	0.1	766.33
23318	1.8393	5.1818	0.1	580.91
23319	1.9312	5.0909	0.1	629.48
23320	1.8393	5.3636	0.1	427.7
23321	1.9312	5.2727	0.1	485.5
23322	1.8393	5.5455	0.1	271.99
23323	1.9312	5.4545	0.1	337.83
23324	1.8393	5.7273	0.1	113.19
23325	1.9312	5.6364	0.1	189.37
23326	1.9312	5.8182	0.1	38.759
23327	1.8393	5.9091	0.1	8.0451
23328	2.0232	0.27273	0.1	111.38
23329	2.1152	0.18182	0.1	42.942
23330	2.0232	9.0909e-002	0.1	12.819
23331	2.0232	0.45455	0.1	254.8
23332	2.1152	0.36364	0.1	180.07
23333	2.0232	0.63636	0.1	395.34
23334	2.1152	0.54545	0.1	314.45
23335	2.0232	0.81818	0.1	533.87
23336	2.1152	0.72727	0.1	448.04
23337	2.0232	1.	0.1	667.64
23338	2.1152	0.90909	0.1	578.67
23339	2.0232	1.1818	0.1	793.85
23340	2.1152	1.0909	0.1	703.58
23341	2.0232	1.3636	0.1	910.25
23342	2.1152	1.2727	0.1	820.42
23343	2.0232	1.5455	0.1	1015.2
23344	2.1152	1.4545	0.1	927.35
23345	2.0232	1.7273	0.1	1107.8
23346	2.1152	1.6364	0.1	1023.1
23347	2.0232	1.9091	0.1	1187.5
23348	2.1152	1.8182	0.1	1106.9
23349	2.0232	2.0909	0.1	1254.3
23350	2.1152	2.	0.1	1178.3
23351	2.0232	2.2727	0.1	1308.3
23352	2.1152	2.1818	0.1	1237.4
23353	2.0232	2.4545	0.1	1349.8
23354	2.1152	2.3636	0.1	1284.3
23355	2.0232	2.6364	0.1	1379.2
23356	2.1152	2.5455	0.1	1319.2
23357	2.0232	2.8182	0.1	1396.7
23358	2.1152	2.7273	0.1	1342.3
23359	2.0232	3.	0.1	1402.5
23360	2.1152	2.9091	0.1	1353.8
23361	2.0232	3.1818	0.1	1396.7
23362	2.1152	3.0909	0.1	1353.8
23363	2.0232	3.3636	0.1	1379.2
23364	2.1152	3.2727	0.1	1342.3
23365	2.0232	3.5455	0.1	1349.8
23366	2.1152	3.4545	0.1	1319.2
23367	2.0232	3.7273	0.1	1308.3
23368	2.1152	3.6364	0.1	1284.3
23369	2.0232	3.9091	0.1	1254.3
23370	2.1152	3.8182	0.1	1237.4
23371	2.0232	4.0909	0.1	1187.5
23372	2.1152	4.	0.1	1178.3
23373	2.0232	4.2727	0.1	1107.8
23374	2.1152	4.1818	0.1	1106.9
23375	2.0232	4.4545	0.1	1015.2
23376	2.1152	4.3636	0.1	1023.1
23377	2.0232	4.6364	0.1	910.25
23378	2.1152	4.5455	0.1	927.35
23379	2.0232	4.8182	0.1	793.85
23380	2.1152	4.7273	0.1	820.42
23381	2.0232	5.	0.1	667.64
23382	2.1152	4.9091	0.1	703.58
23383	2.0232	5.1818	0.1	533.87
23384	2.1152	5.0909	0.1	578.67
23385	2.0232	5.3636	0.1	395.34
23386	2.1152	5.2727	0.1	448.04
23387	2.0232	5.5455	0.1	254.8
23388	2.1152	5.4545	0.1	314.45
23389	2.0232	5.7273	0.1	111.38
23390	2.1152	5.6364	0.1	180.07
23391	2.1152	5.8182	0.1	42.942
23392	2.0232	5.9091	0.1	12.819
23393	2.2071	0.27273	0.1	109.2
23394	2.2991	0.18182	0.1	46.196
23395	2.2071	9.0909e-002	0.1	16.733
23396	2.2071	0.45455	0.1	239.38
23397	2.2991	0.36364	0.1	171.35
23398	2.2071	0.63636	0.1	366.89
23399	2.2991	0.54545	0.1	293.58
23400	2.2071	0.81818	0.1	492.63
23401	2.2991	0.72727	0.1	414.94
23402	2.2071	1.	0.1	614.48
23403	2.2991	0.90909	0.1	533.79
23404	2.2071	1.1818	0.1	730.1
23405	2.2991	1.0909	0.1	647.9
23406	2.2071	1.3636	0.1	837.55
23407	2.2991	1.2727	0.1	755.28
23408	2.2071	1.5455	0.1	935.31
23409	2.2991	1.4545	0.1	854.26
23410	2.2071	1.7273	0.1	1022.3
23411	2.2991	1.6364	0.1	943.6
23412	2.2071	1.9091	0.1	1097.9
23413	2.2991	1.8182	0.1	1022.4
23414	2.2071	2.0909	0.1	1161.7
23415	2.2991	2.	0.1	1090.2
23416	2.2071	2.2727	0.1	1213.7
23417	2.2991	2.1818	0.1	1146.6
23418	2.2071	2.4545	0.1	1254.
23419	2.2991	2.3636	0.1	1191.7
23420	2.2071	2.6364	0.1	1282.6
23421	2.2991	2.5455	0.1	1225.4
23422	2.2071	2.8182	0.1	1299.7
23423	2.2991	2.7273	0.1	1247.8
23424	2.2071	3.	0.1	1305.3
23425	2.2991	2.9091	0.1	1258.9
23426	2.2071	3.1818	0.1	1299.7
23427	2.2991	3.0909	0.1	1258.9
23428	2.2071	3.3636	0.1	1282.6
23429	2.2991	3.2727	0.1	1247.8
23430	2.2071	3.5455	0.1	1254.
23431	2.2991	3.4545	0.1	1225.4
23432	2.2071	3.7273	0.1	1213.7
23433	2.2991	3.6364	0.1	1191.7
23434	2.2071	3.9091	0.1	1161.7
23435	2.2991	3.8182	0.1	1146.6
23436	2.2071	4.0909	0.1	1097.9
23437	2.2991	4.	0.1	1090.2
23438	2.2071	4.2727	0.1	1022.3
23439	2.2991	4.1818	0.1	1022.4
23440	2.2071	4.4545	0.1	935.31
23441	2.2991	4.3636	0.1	943.6
23442	2.2071	4.6364	0.1	837.55
23443	2.2991	4.5455	0.1	854.26
23444	2.2071	4.8182	0.1	730.1
23445	2.2991	4.7273	0.1	755.28
23446	2.2071	5.	0.1	614.48
23447	2.2991	4.9091	0.1	647.9
23448	2.2071	5.1818	0.1	492.63
23449	2.2991	5.0909	0.1	533.79
23450	2.2071	5.3636	0.1	366.89
23451	2.2991	5.2727	0.1	414.94
23452	2.2071	5.5455	0.1	239.38
23453	2.2991	5.4545	0.1	293.58
23454	2.2071	5.7273	0.1	109.2
23455	2.2991	5.6364	0.1	171.35
23456	2.2991	5.8182	0.1	46.196
23457	2.2071	5.9091	0.1	16.733
23458	2.3911	0.27273	0.1	106.61
23459	2.483	0.18182	0.1	48.533
23460	2.3911	9.0909e-002	0.1	19.76
23461	2.3911	0.45455	0.1	225.25
23462	2.483	0.36364	0.1	163.
23463	2.3911	0.63636	0.1	341.39
23464	2.483	0.54545	0.1	274.59
23465	2.3911	0.81818	0.1	455.91
23466	2.483	0.72727	0.1	385.22
23467	2.3911	1.	0.1	567.08
23468	2.483	0.90909	0.1	493.62
23469	2.3911	1.1818	0.1	673.
23470	2.483	1.0909	0.1	597.96
23471	2.3911	1.3636	0.1	771.98
23472	2.483	1.2727	0.1	696.55
23473	2.3911	1.5455	0.1	862.61
23474	2.483	1.4545	0.1	787.93
23475	2.3911	1.7273	0.1	943.83
23476	2.483	1.6364	0.1	870.89
23477	2.3911	1.9091	0.1	1014.9
23478	2.483	1.8182	0.1	944.56
23479	2.3911	2.0909	0.1	1075.3
23480	2.483	2.	0.1	1008.3
23481	2.3911	2.2727	0.1	1124.8
23482	2.483	2.1818	0.1	1061.7
23483	2.3911	2.4545	0.1	1163.3
23484	2.483	2.3636	0.1	1104.5
23485	2.3911	2.6364	0.1	1190.8
23486	2.483	2.5455	0.1	1136.7
23487	2.3911	2.8182	0.1	1207.3
23488	2.483	2.7273	0.1	1158.1
23489	2.3911	3.	0.1	1212.8
23490	2.483	2.9091	0.1	1168.8
23491	2.3911	3.1818	0.1	1207.3
23492	2.483	3.0909	0.1	1168.8
23493	2.3911	3.3636	0.1	1190.8
23494	2.483	3.2727	0.1	1158.1
23495	2.3911	3.5455	0.1	1163.3
23496	2.483	3.4545	0.1	1136.7
23497	2.3911	3.7273	0.1	1124.8
23498	2.483	3.6364	0.1	1104.5
23499	2.3911	3.9091	0.1	1075.3
23500	2.483	3.8182	0.1	1061.7
23501	2.3911	4.0909	0.1	1014.9
23502	2.483	4.	0.1	1008.3
23503	2.3911	4.2727	0.1	943.83
23504	2.483	4.1818	0.1	944.56
23505	2.3911	4.4545	0.1	862.61
23506	2.483	4.3636	0.1	870.89
23507	2.3911	4.6364	0.1	771.98
23508	2.483	4.5455	0.1	787.93
23509	2.3911	4.8182	0.1	673.
23510	2.483	4.7273	0.1	696.55
23511	2.3911	5.	0.1	567.08
23512	2.483	4.9091	0.1	597.96
23513	2.3911	5.1818	0.1	455.91
23514	2.483	5.0909	0.1	493.62
23515	2.3911	5.3636	0.1	341.39
23516	2.483	5.2727	0.1	385.22
23517	2.3911	5.5455	0.1	225.25
23518	2.483	5.4545	0.1	274.59
23519	2.3911	5.7273	0.1	106.61
23520	2.483	5.6364	0.1	163.
23521	2.483	5.8182	0.1	48.533
23522	2.3911	5.9091	0.1	19.76
23523	2.575	0.27273	0.1	103.64
23524	2.667	0.18182	0.1	50.026
23525	2.575	9.0909e-002	0.1	22.001
23526	2.575	0.45455	0.1	212.08
23527	2.667	0.36364	0.1	154.9
23528	2.575	0.63636	0.1	318.21
23529	2.667	0.54545	0.1	257.07
23530	2.575	0.81818	0.1	422.76
23531	2.667	0.72727	0.1	358.19
23532	2.575	1.	0.1	524.37
23533	2.667	0.90909	0.1	457.26
23534	2.575	1.1818	0.1	621.43
23535	2.667	1.0909	0.1	552.76
23536	2.575	1.3636	0.1	712.47
23537	2.667	1.2727	0.1	643.25
23538	2.575	1.5455	0.1	796.24
23539	2.667	1.4545	0.1	727.43
23540	2.575	1.7273	0.1	871.7
23541	2.667	1.6364	0.1	804.22
23542	2.575	1.9091	0.1	938.09
23543	2.667	1.8182	0.1	872.73
23544	2.575	2.0909	0.1	994.84
23545	2.667	2.	0.1	932.29
23546	2.575	2.2727	0.1	1041.6
23547	2.667	2.1818	0.1	982.41
23548	2.575	2.4545	0.1	1078.1
23549	2.667	2.3636	0.1	1022.8
23550	2.575	2.6364	0.1	1104.2
23551	2.667	2.5455	0.1	1053.2
23552	2.575	2.8182	0.1	1119.9
23553	2.667	2.7273	0.1	1073.5
23554	2.575	3.	0.1	1125.1
23555	2.667	2.9091	0.1	1083.7
23556	2.575	3.1818	0.1	1119.9
23557	2.667	3.0909	0.1	1083.7
23558	2.575	3.3636	0.1	1104.2
23559	2.667	3.2727	0.1	1073.5
23560	2.575	3.5455	0.1	1078.1
23561	2.667	3.4545	0.1	1053.2
23562	2.575	3.7273	0.1	1041.6
23563	2.667	3.6364	0.1	1022.8
23564	2.575	3.9091	0.1	994.84
23565	2.667	3.8182	0.1	982.41
23566	2.575	4.0909	0.1	938.09
23567	2.667	4.	0.1	932.29
23568	2.575	4.2727	0.1	871.7
23569	2.667	4.1818	0.1	872.73
23570	2.575	4.4545	0.1	796.24
23571	2.667	4.3636	0.1	804.22
23572	2.575	4.6364	0.1	712.47
23573	2.667	4.5455	0.1	727.43
23574	2.575	4.8182	0.1	621.43
23575	2.667	4.7273	0.1	643.25
23576	2.575	5.	0.1	524.37
23577	2.667	4.9091	0.1	552.76
23578	2.575	5.1818	0.1	422.76
23579	2.667	5.0909	0.1	457.26
23580	2.575	5.3636	0.1	318.21
23581	2.667	5.2727	0.1	358.19
23582	2.575	5.5455	0.1	212.08
23583	2.667	5.4545	0.1	257.07
23584	2.575	5.7273	0.1	103.64
23585	2.667	5.6364	0.1	154.9
23586	2.667	5.8182	0.1	50.026
23587	2.575	5.9091	0.1	22.001
23588	2.7589	0.27273	0.1	100.32
23589	2.8509	0.18182	0.1	50.768
23590	2.7589	9.0909e-002	0.1	23.568
23591	2.7589	0.45455	0.1	199.67
23592	2.8509	0.36364	0.1	147.01
23593	2.7589	0.63636	0.1	296.87
23594	2.8509	0.54545	0.1	240.75
23595	2.7589	0.81818	0.1	392.54
23596	2.8509	0.72727	0.1	333.37
23597	2.7589	1.	0.1	485.53
23598	2.8509	0.90909	0.1	424.07
23599	2.7589	1.1818	0.1	574.5
23600	2.8509	1.0909	0.1	511.55
23601	2.7589	1.3636	0.1	658.17
23602	2.8509	1.2727	0.1	594.58
23603	2.7589	1.5455	0.1	735.42
23604	2.8509	1.4545	0.1	672.04
23605	2.7589	1.7273	0.1	805.3
23606	2.8509	1.6364	0.1	742.93
23607	2.7589	1.9091	0.1	867.02
23608	2.8509	1.8182	0.1	806.4
23609	2.7589	2.0909	0.1	919.99
23610	2.8509	2.	0.1	861.78
23611	2.7589	2.2727	0.1	963.79
23612	2.8509	2.1818	0.1	908.55
23613	2.7589	2.4545	0.1	998.1
23614	2.8509	2.3636	0.1	946.35
23615	2.7589	2.6364	0.1	1022.7
23616	2.8509	2.5455	0.1	974.89
23617	2.7589	2.8182	0.1	1037.5
23618	2.8509	2.7273	0.1	994.
23619	2.7589	3.	0.1	1042.5
23620	2.8509	2.9091	0.1	1003.6
23621	2.7589	3.1818	0.1	1037.5
23622	2.8509	3.0909	0.1	1003.6
23623	2.7589	3.3636	0.1	1022.7
23624	2.8509	3.2727	0.1	994.
23625	2.7589	3.5455	0.1	998.1
23626	2.8509	3.4545	0.1	974.89
23627	2.7589	3.7273	0.1	963.79
23628	2.8509	3.6364	0.1	946.35
23629	2.7589	3.9091	0.1	919.99
23630	2.8509	3.8182	0.1	908.55
23631	2.7589	4.0909	0.1	867.02
23632	2.8509	4.	0.1	861.78
23633	2.7589	4.2727	0.1	805.3
23634	2.8509	4.1818	0.1	806.4
23635	2.7589	4.4545	0.1	735.42
23636	2.8509	4.3636	0.1	742.93
23637	2.7589	4.6364	0.1	658.17
23638	2.8509	4.5455	0.1	672.04
23639	2.7589	4.8182	0.1	574.5
23640	2.8509	4.7273	0.1	594.58
23641	2.7589	5.	0.1	485.53
23642	2.8509	4.9091	0.1	511.55
23643	2.7589	5.1818	0.1	392.54
23644	2.8509	5.0909	0.1	424.07
23645	2.7589	5.3636	0.1	296.87
23646	2.8509	5.2727	0.1	333.37
23647	2.7589	5.5455	0.1	199.67
23648	2.8509	5.4545	0.1	240.75
23649	2.7589	5.7273	0.1	100.32
23650	2.8509	5.6364	0.1	147.01
23651	2.8509	5.8182	0.1	50.768
23652	2.7589	5.9091	0.1	23.568
23653	2.9429	0.27273	0.1	96.698
23654	3.0348	0.18182	0.1	50.859
23655	2.9429	9.0909e-002	0.1	24.566
23656	2.9429	0.45455	0.1	187.89
23657	3.0348	0.36364	0.1	139.28
23658	2.9429	0.63636	0.1	277.08
23659	3.0348	0.54545	0.1	225.43
23660	2.9429	0.81818	0.1	364.76
23661	3.0348	0.72727	0.1	310.41
23662	2.9429	1.	0.1	449.96
23663	3.0348	0.90909	0.1	393.54
23664	2.9429	1.1818	0.1	531.55
23665	3.0348	1.0909	0.1	473.74
23666	2.9429	1.3636	0.1	608.41
23667	3.0348	1.2727	0.1	549.94
23668	2.9429	1.5455	0.1	679.54
23669	3.0348	1.4545	0.1	621.15
23670	2.9429	1.7273	0.1	744.06
23671	3.0348	1.6364	0.1	686.46
23672	2.9429	1.9091	0.1	801.23
23673	3.0348	1.8182	0.1	745.09
23674	2.9429	2.0909	0.1	850.45
23675	3.0348	2.	0.1	796.39
23676	2.9429	2.2727	0.1	891.25
23677	3.0348	2.1818	0.1	839.84
23678	2.9429	2.4545	0.1	923.3
23679	3.0348	2.3636	0.1	875.03
23680	2.9429	2.6364	0.1	946.35
23681	3.0348	2.5455	0.1	901.66
23682	2.9429	2.8182	0.1	960.24
23683	3.0348	2.7273	0.1	919.52
23684	2.9429	3.	0.1	964.88
23685	3.0348	2.9091	0.1	928.48
23686	2.9429	3.1818	0.1	960.24
23687	3.0348	3.0909	0.1	928.48
23688	2.9429	3.3636	0.1	946.35
23689	3.0348	3.2727	0.1	919.52
23690	2.9429	3.5455	0.1	923.3
23691	3.0348	3.4545	0.1	901.66
23692	2.9429	3.7273	0.1	891.25
23693	3.0348	3.6364	0.1	875.03
23694	2.9429	3.9091	0.1	850.45
23695	3.0348	3.8182	0.1	839.84
23696	2.9429	4.0909	0.1	801.23
23697	3.0348	4.	0.1	796.39
23698	2.9429	4.2727	0.1	744.06
23699	3.0348	4.1818	0.1	745.09
23700	2.9429	4.4545	0.1	679.54
23701	3.0348	4.3636	0.1	686.46
23702	2.9429	4.6364	0.1	608.41
23703	3.0348	4.5455	0.1	621.15
23704	2.9429	4.8182	0.1	531.55
23705	3.0348	4.7273	0.1	549.94
23706	2.9429	5.	0.1	449.96
23707	3.0348	4.9091	0.1	473.74
23708	2.9429	5.1818	0.1	364.76
23709	3.0348	5.0909	0.1	393.54
23710	2.9429	5.3636	0.1	277.08
23711	3.0348	5.2727	0.1	310.41
23712	2.9429	5.5455	0.1	187.89
23713	3.0348	5.4545	0.1	225.43
23714	2.9429	5.7273	0.1	96.698
23715	3.0348	5.6364	0.1	139.28
23716	3.0348	5.8182	0.1	50.859
23717	2.9429	5.9091	0.1	24.566
23718	3.1268	0.27273	0.1	92.835
23719	3.2188	0.18182	0.1	50.396
23720	3.1268	9.0909e-002	0.1	25.086
23721	3.1268	0.45455	0.1	176.65
23722	3.2188	0.36364	0.1	131.71
23723	3.1268	0.63636	0.1	258.61
23724	3.2188	0.54545	0.1	210.98
23725	3.1268	0.81818	0.1	339.07
23726	3.2188	0.72727	0.1	289.04
23727	3.1268	1.	0.1	417.21
23728	3.2188	0.90909	0.1	365.33
23729	3.1268	1.1818	0.1	492.05
23730	3.2188	1.0909	0.1	438.9
23731	3.1268	1.3636	0.1	562.63
23732	3.2188	1.2727	0.1	508.84
23733	3.1268	1.5455	0.1	628.05
23734	3.2188	1.4545	0.1	574.26
23735	3.1268	1.7273	0.1	687.51
23736	3.2188	1.6364	0.1	634.35
23737	3.1268	1.9091	0.1	740.31
23738	3.2188	1.8182	0.1	688.39
23739	3.1268	2.0909	0.1	785.87
23740	3.2188	2.	0.1	735.78
23741	3.1268	2.2727	0.1	823.73
23742	3.2188	2.1818	0.1	775.99
23743	3.1268	2.4545	0.1	853.52
23744	3.2188	2.3636	0.1	808.61
23745	3.1268	2.6364	0.1	874.98
23746	3.2188	2.5455	0.1	833.33
23747	3.1268	2.8182	0.1	887.92
23748	3.2188	2.7273	0.1	849.94
23749	3.1268	3.	0.1	892.24
23750	3.2188	2.9091	0.1	858.27
23751	3.1268	3.1818	0.1	887.92
23752	3.2188	3.0909	0.1	858.27
23753	3.1268	3.3636	0.1	874.98
23754	3.2188	3.2727	0.1	849.94
23755	3.1268	3.5455	0.1	853.52
23756	3.2188	3.4545	0.1	833.33
23757	3.1268	3.7273	0.1	823.73
23758	3.2188	3.6364	0.1	808.61
23759	3.1268	3.9091	0.1	785.87
23760	3.2188	3.8182	0.1	775.99
23761	3.1268	4.0909	0.1	740.31
23762	3.2188	4.	0.1	735.78
23763	3.1268	4.2727	0.1	687.51
23764	3.2188	4.1818	0.1	688.39
23765	3.1268	4.4545	0.1	628.05
23766	3.2188	4.3636	0.1	634.35
23767	3.1268	4.6364	0.1	562.63
23768	3.2188	4.5455	0.1	574.26
23769	3.1268	4.8182	0.1	492.05
23770	3.2188	4.7273	0.1	508.84
23771	3.1268	5.	0.1	417.21
23772	3.2188	4.9091	0.1	438.9
23773	3.1268	5.1818	0.1	339.07
23774	3.2188	5.0909	0.1	365.33
23775	3.1268	5.3636	0.1	258.61
23776	3.2188	5.2727	0.1	289.04
23777	3.1268	5.5455	0.1	176.65
23778	3.2188	5.4545	0.1	210.98
23779	3.1268	5.7273	0.1	92.835
23780	3.2188	5.6364	0.1	131.71
23781	3.2188	5.8182	0.1	50.396
23782	3.1268	5.9091	0.1	25.086
23783	3.3107	0.27273	0.1	88.783
23784	3.4027	0.18182	0.1	49.47
23785	3.3107	9.0909e-002	0.1	25.207
23786	3.3107	0.45455	0.1	165.89
23787	3.4027	0.36364	0.1	124.31
23788	3.3107	0.63636	0.1	241.29
23789	3.4027	0.54545	0.1	197.31
23790	3.3107	0.81818	0.1	315.2
23791	3.4027	0.72727	0.1	269.09
23792	3.3107	1.	0.1	386.92
23793	3.4027	0.90909	0.1	339.16
23794	3.3107	1.1818	0.1	455.61
23795	3.4027	1.0909	0.1	406.68
23796	3.3107	1.3636	0.1	520.41
23797	3.4027	1.2727	0.1	470.87
23798	3.3107	1.5455	0.1	580.53
23799	3.4027	1.4545	0.1	530.95
23800	3.3107	1.7273	0.1	635.24
23801	3.4027	1.6364	0.1	586.19
23802	3.3107	1.9091	0.1	683.9
23803	3.4027	1.8182	0.1	635.93
23804	3.3107	2.0909	0.1	725.96
23805	3.4027	2.	0.1	679.6
23806	3.3107	2.2727	0.1	760.96
23807	3.4027	2.1818	0.1	716.7
23808	3.3107	2.4545	0.1	788.54
23809	3.4027	2.3636	0.1	746.85
23810	3.3107	2.6364	0.1	808.43
23811	3.4027	2.5455	0.1	769.72
23812	3.3107	2.8182	0.1	820.43
23813	3.4027	2.7273	0.1	785.09
23814	3.3107	3.	0.1	824.45
23815	3.4027	2.9091	0.1	792.82
23816	3.3107	3.1818	0.1	820.43
23817	3.4027	3.0909	0.1	792.82
23818	3.3107	3.3636	0.1	808.43
23819	3.4027	3.2727	0.1	785.09
23820	3.3107	3.5455	0.1	788.54
23821	3.4027	3.4545	0.1	769.72
23822	3.3107	3.7273	0.1	760.96
23823	3.4027	3.6364	0.1	746.85
23824	3.3107	3.9091	0.1	725.96
23825	3.4027	3.8182	0.1	716.7
23826	3.3107	4.0909	0.1	683.9
23827	3.4027	4.	0.1	679.6
23828	3.3107	4.2727	0.1	635.24
23829	3.4027	4.1818	0.1	635.93
23830	3.3107	4.4545	0.1	580.53
23831	3.4027	4.3636	0.1	586.19
23832	3.3107	4.6364	0.1	520.41
23833	3.4027	4.5455	0.1	530.95
23834	3.3107	4.8182	0.1	455.61
23835	3.4027	4.7273	0.1	470.87
23836	3.3107	5.	0.1	386.92
23837	3.4027	4.9091	0.1	406.68
23838	3.3107	5.1818	0.1	315.2
23839	3.4027	5.0909	0.1	339.16
23840	3.3107	5.3636	0.1	241.29
23841	3.4027	5.2727	0.1	269.09
23842	3.3107	5.5455	0.1	165.89
23843	3.4027	5.4545	0.1	197.31
23844	3.3107	5.7273	0.1	88.783
23845	3.4027	5.6364	0.1	124.31
23846	3.4027	5.8182	0.1	49.47
23847	3.3107	5.9091	0.1	25.207
23848	3.4946	0.27273	0.1	84.594
23849	3.5866	0.18182	0.1	48.163
23850	3.4946	9.0909e-002	0.1	25.001
23851	3.4946	0.45455	0.1	155.6
23852	3.5866	0.36364	0.1	117.08
23853	3.4946	0.63636	0.1	225.01
23854	3.5866	0.54545	0.1	184.36
23855	3.4946	0.81818	0.1	292.95
23856	3.5866	0.72727	0.1	250.41
23857	3.4946	1.	0.1	358.83
23858	3.5866	0.90909	0.1	314.8
23859	3.4946	1.1818	0.1	421.88
23860	3.5866	1.0909	0.1	376.81
23861	3.4946	1.3636	0.1	481.37
23862	3.5866	1.2727	0.1	435.74
23863	3.4946	1.5455	0.1	536.59
23864	3.5866	1.4545	0.1	490.9
23865	3.4946	1.7273	0.1	586.88
23866	3.5866	1.6364	0.1	541.64
23867	3.4946	1.9091	0.1	631.65
23868	3.5866	1.8182	0.1	587.36
23869	3.4946	2.0909	0.1	670.39
23870	3.5866	2.	0.1	627.53
23871	3.4946	2.2727	0.1	702.67
23872	3.5866	2.1818	0.1	661.7
23873	3.4946	2.4545	0.1	728.12
23874	3.5866	2.3636	0.1	689.49
23875	3.4946	2.6364	0.1	746.5
23876	3.5866	2.5455	0.1	710.59
23877	3.4946	2.8182	0.1	757.6
23878	3.5866	2.7273	0.1	724.78
23879	3.4946	3.	0.1	761.31
23880	3.5866	2.9091	0.1	731.91
23881	3.4946	3.1818	0.1	757.6
23882	3.5866	3.0909	0.1	731.91
23883	3.4946	3.3636	0.1	746.5
23884	3.5866	3.2727	0.1	724.78
23885	3.4946	3.5455	0.1	728.12
23886	3.5866	3.4545	0.1	710.59
23887	3.4946	3.7273	0.1	702.67
23888	3.5866	3.6364	0.1	689.49
23889	3.4946	3.9091	0.1	670.39
23890	3.5866	3.8182	0.1	661.7
23891	3.4946	4.0909	0.1	631.65
23892	3.5866	4.	0.1	627.53
23893	3.4946	4.2727	0.1	586.88
23894	3.5866	4.1818	0.1	587.36
23895	3.4946	4.4545	0.1	536.59
23896	3.5866	4.3636	0.1	541.64
23897	3.4946	4.6364	0.1	481.37
23898	3.5866	4.5455	0.1	490.9
23899	3.4946	4.8182	0.1	421.88
23900	3.5866	4.7273	0.1	435.74
23901	3.4946	5.	0.1	358.83
23902	3.5866	4.9091	0.1	376.81
23903	3.4946	5.1818	0.1	292.95
23904	3.5866	5.0909	0.1	314.8
23905	3.4946	5.3636	0.1	225.01
23906	3.5866	5.2727	0.1	250.41
23907	3.4946	5.5455	0.1	155.6
23908	3.5866	5.4545	0.1	184.36
23909	3.4946	5.7273	0.1	84.594
23910	3.5866	5.6364	0.1	117.08
23911	3.5866	5.8182	0.1	48.163
23912	3.4946	5.9091	0.1	25.001
23913	3.6786	0.27273	0.1	80.319
23914	3.7705	0.18182	0.1	46.549
23915	3.6786	9.0909e-002	0.1	24.526
23916	3.6786	0.45455	0.1	145.74
23917	3.7705	0.36364	0.1	110.05
23918	3.6786	0.63636	0.1	209.68
23919	3.7705	0.54545	0.1	172.09
23920	3.6786	0.81818	0.1	272.17
23921	3.7705	0.72727	0.1	232.89
23922	3.6786	1.	0.1	332.71
23923	3.7705	0.90909	0.1	292.1
23924	3.6786	1.1818	0.1	390.6
23925	3.7705	1.0909	0.1	349.06
23926	3.6786	1.3636	0.1	445.22
23927	3.7705	1.2727	0.1	403.17
23928	3.6786	1.5455	0.1	495.92
23929	3.7705	1.4545	0.1	453.8
23930	3.6786	1.7273	0.1	542.11
23931	3.7705	1.6364	0.1	500.39
23932	3.6786	1.9091	0.1	583.25
23933	3.7705	1.8182	0.1	542.38
23934	3.6786	2.0909	0.1	618.88
23935	3.7705	2.	0.1	579.3
23936	3.6786	2.2727	0.1	648.58
23937	3.7705	2.1818	0.1	610.71
23938	3.6786	2.4545	0.1	672.03
23939	3.7705	2.3636	0.1	636.28
23940	3.6786	2.6364	0.1	688.96
23941	3.7705	2.5455	0.1	655.7
23942	3.6786	2.8182	0.1	699.19
23943	3.7705	2.7273	0.1	668.76
23944	3.6786	3.	0.1	702.61
23945	3.7705	2.9091	0.1	675.33
23946	3.6786	3.1818	0.1	699.19
23947	3.7705	3.0909	0.1	675.33
23948	3.6786	3.3636	0.1	688.96
23949	3.7705	3.2727	0.1	668.76
23950	3.6786	3.5455	0.1	672.03
23951	3.7705	3.4545	0.1	655.7
23952	3.6786	3.7273	0.1	648.58
23953	3.7705	3.6364	0.1	636.28
23954	3.6786	3.9091	0.1	618.88
23955	3.7705	3.8182	0.1	610.71
23956	3.6786	4.0909	0.1	583.25
23957	3.7705	4.	0.1	579.3
23958	3.6786	4.2727	0.1	542.11
23959	3.7705	4.1818	0.1	542.38
23960	3.6786	4.4545	0.1	495.92
23961	3.7705	4.3636	0.1	500.39
23962	3.6786	4.6364	0.1	445.22
23963	3.7705	4.5455	0.1	453.8
23964	3.6786	4.8182	0.1	390.6
23965	3.7705	4.7273	0.1	403.17
23966	3.6786	5.	0.1	332.71
23967	3.7705	4.9091	0.1	349.06
23968	3.6786	5.1818	0.1	272.17
23969	3.7705	5.0909	0.1	292.1
23970	3.6786	5.3636	0.1	209.68
23971	3.7705	5.2727	0.1	232.89
23972	3.6786	5.5455	0.1	145.74
23973	3.7705	5.4545	0.1	172.09
23974	3.6786	5.7273	0.1	80.319
23975	3.7705	5.6364	0.1	110.05
23976	3.7705	5.8182	0.1	46.549
23977	3.6786	5.9091	0.1	24.526
23978	3.8625	0.27273	0.1	76.002
23979	3.9545	0.18182	0.1	44.693
23980	3.8625	9.0909e-002	0.1	23.835
23981	3.8625	0.45455	0.1	136.3
23982	3.9545	0.36364	0.1	103.22
23983	3.8625	0.63636	0.1	195.22
23984	3.9545	0.54545	0.1	160.44
23985	3.8625	0.81818	0.1	252.74
23986	3.9545	0.72727	0.1	216.45
23987	3.8625	1.	0.1	308.38
23988	3.9545	0.90909	0.1	270.91
23989	3.8625	1.1818	0.1	361.56
23990	3.9545	1.0909	0.1	323.25
23991	3.8625	1.3636	0.1	411.71
23992	3.9545	1.2727	0.1	372.94
23993	3.8625	1.5455	0.1	458.24
23994	3.9545	1.4545	0.1	419.42
23995	3.8625	1.7273	0.1	500.65
23996	3.9545	1.6364	0.1	462.18
23997	3.8625	1.9091	0.1	538.43
23998	3.9545	1.8182	0.1	500.72
23999	3.8625	2.0909	0.1	571.15
24000	3.9545	2.	0.1	534.61
24001	3.8625	2.2727	0.1	598.45
24002	3.9545	2.1818	0.1	563.47
24003	3.8625	2.4545	0.1	620.
24004	3.9545	2.3636	0.1	586.95
24005	3.8625	2.6364	0.1	635.57
24006	3.9545	2.5455	0.1	604.8
24007	3.8625	2.8182	0.1	644.98
24008	3.9545	2.7273	0.1	616.81
24009	3.8625	3.	0.1	648.13
24010	3.9545	2.9091	0.1	622.85
24011	3.8625	3.1818	0.1	644.98
24012	3.9545	3.0909	0.1	622.85
24013	3.8625	3.3636	0.1	635.57
24014	3.9545	3.2727	0.1	616.81
24015	3.8625	3.5455	0.1	620.
24016	3.9545	3.4545	0.1	604.8
24017	3.8625	3.7273	0.1	598.45
24018	3.9545	3.6364	0.1	586.95
24019	3.8625	3.9091	0.1	571.15
24020	3.9545	3.8182	0.1	563.47
24021	3.8625	4.0909	0.1	538.43
24022	3.9545	4.	0.1	534.61
24023	3.8625	4.2727	0.1	500.65
24024	3.9545	4.1818	0.1	500.72
24025	3.8625	4.4545	0.1	458.24
24026	3.9545	4.3636	0.1	462.18
24027	3.8625	4.6364	0.1	411.71
24028	3.9545	4.5455	0.1	419.42
24029	3.8625	4.8182	0.1	361.56
24030	3.9545	4.7273	0.1	372.94
24031	3.8625	5.	0.1	308.38
24032	3.9545	4.9091	0.1	323.25
24033	3.8625	5.1818	0.1	252.74
24034	3.9545	5.0909	0.1	270.91
24035	3.8625	5.3636	0.1	195.22
24036	3.9545	5.2727	0.1	216.45
24037	3.8625	5.5455	0.1	136.3
24038	3.9545	5.4545	0.1	160.44
24039	3.8625	5.7273	0.1	76.002
24040	3.9545	5.6364	0.1	103.22
24041	3.9545	5.8182	0.1	44.693
24042	3.8625	5.9091	0.1	23.835
24043	4.0464	0.27273	0.1	71.683
24044	4.1384	0.18182	0.1	42.654
24045	4.0464	9.0909e-002	0.1	22.973
24046	4.0464	0.45455	0.1	127.28
24047	4.1384	0.36364	0.1	96.623
24048	4.0464	0.63636	0.1	181.6
24049	4.1384	0.54545	0.1	149.41
24050	4.0464	0.81818	0.1	234.55
24051	4.1384	0.72727	0.1	201.01
24052	4.0464	1.	0.1	285.71
24053	4.1384	0.90909	0.1	251.11
24054	4.0464	1.1818	0.1	334.57
24055	4.1384	1.0909	0.1	299.23
24056	4.0464	1.3636	0.1	380.61
24057	4.1384	1.2727	0.1	344.87
24058	4.0464	1.5455	0.1	423.33
24059	4.1384	1.4545	0.1	387.53
24060	4.0464	1.7273	0.1	462.24
24061	4.1384	1.6364	0.1	426.77
24062	4.0464	1.9091	0.1	496.91
24063	4.1384	1.8182	0.1	462.14
24064	4.0464	2.0909	0.1	526.95
24065	4.1384	2.	0.1	493.23
24066	4.0464	2.2727	0.1	552.
24067	4.1384	2.1818	0.1	519.71
24068	4.0464	2.4545	0.1	571.79
24069	4.1384	2.3636	0.1	541.26
24070	4.0464	2.6364	0.1	586.09
24071	4.1384	2.5455	0.1	557.64
24072	4.0464	2.8182	0.1	594.74
24073	4.1384	2.7273	0.1	568.67
24074	4.0464	3.	0.1	597.63
24075	4.1384	2.9091	0.1	574.22
24076	4.0464	3.1818	0.1	594.74
24077	4.1384	3.0909	0.1	574.22
24078	4.0464	3.3636	0.1	586.09
24079	4.1384	3.2727	0.1	568.67
24080	4.0464	3.5455	0.1	571.79
24081	4.1384	3.4545	0.1	557.64
24082	4.0464	3.7273	0.1	552.
24083	4.1384	3.6364	0.1	541.26
24084	4.0464	3.9091	0.1	526.95
24085	4.1384	3.8182	0.1	519.71
24086	4.0464	4.0909	0.1	496.91
24087	4.1384	4.	0.1	493.23
24088	4.0464	4.2727	0.1	462.24
24089	4.1384	4.1818	0.1	462.14
24090	4.0464	4.4545	0.1	423.33
24091	4.1384	4.3636	0.1	426.77
24092	4.0464	4.6364	0.1	380.61
24093	4.1384	4.5455	0.1	387.53
24094	4.0464	4.8182	0.1	334.57
24095	4.1384	4.7273	0.1	344.87
24096	4.0464	5.	0.1	285.71
24097	4.1384	4.9091	0.1	299.23
24098	4.0464	5.1818	0.1	234.55
24099	4.1384	5.0909	0.1	251.11
24100	4.0464	5.3636	0.1	181.6
24101	4.1384	5.2727	0.1	201.01
24102	4.0464	5.5455	0.1	127.28
24103	4.1384	5.4545	0.1	149.41
24104	4.0464	5.7273	0.1	71.683
24105	4.1384	5.6364	0.1	96.623
24106	4.1384	5.8182	0.1	42.654
24107	4.0464	5.9091	0.1	22.973
24108	4.2304	0.27273	0.1	67.397
24109	4.3223	0.18182	0.1	40.481
24110	4.2304	9.0909e-002	0.1	21.979
24111	4.2304	0.45455	0.1	118.68
24112	4.3223	0.36364	0.1	90.257
24113	4.2304	0.63636	0.1	168.76
24114	4.3223	0.54545	0.1	138.96
24115	4.2304	0.81818	0.1	217.51
24116	4.3223	0.72727	0.1	186.51
24117	4.2304	1.	0.1	264.58
24118	4.3223	0.90909	0.1	232.62
24119	4.2304	1.1818	0.1	309.47
24120	4.3223	1.0909	0.1	276.86
24121	4.2304	1.3636	0.1	351.75
24122	4.3223	1.2727	0.1	318.78
24123	4.2304	1.5455	0.1	390.95
24124	4.3223	1.4545	0.1	357.95
24125	4.2304	1.7273	0.1	426.65
24126	4.3223	1.6364	0.1	393.96
24127	4.2304	1.9091	0.1	458.46
24128	4.3223	1.8182	0.1	426.4
24129	4.2304	2.0909	0.1	486.01
24130	4.3223	2.	0.1	454.92
24131	4.2304	2.2727	0.1	509.
24132	4.3223	2.1818	0.1	479.2
24133	4.2304	2.4545	0.1	527.15
24134	4.3223	2.3636	0.1	498.97
24135	4.2304	2.6364	0.1	540.27
24136	4.3223	2.5455	0.1	513.99
24137	4.2304	2.8182	0.1	548.2
24138	4.3223	2.7273	0.1	524.11
24139	4.2304	3.	0.1	550.85
24140	4.3223	2.9091	0.1	529.19
24141	4.2304	3.1818	0.1	548.2
24142	4.3223	3.0909	0.1	529.19
24143	4.2304	3.3636	0.1	540.27
24144	4.3223	3.2727	0.1	524.11
24145	4.2304	3.5455	0.1	527.15
24146	4.3223	3.4545	0.1	513.99
24147	4.2304	3.7273	0.1	509.
24148	4.3223	3.6364	0.1	498.97
24149	4.2304	3.9091	0.1	486.01
24150	4.3223	3.8182	0.1	479.2
24151	4.2304	4.0909	0.1	458.46
24152	4.3223	4.	0.1	454.92
24153	4.2304	4.2727	0.1	426.65
24154	4.3223	4.1818	0.1	426.4
24155	4.2304	4.4545	0.1	390.95
24156	4.3223	4.3636	0.1	393.96
24157	4.2304	4.6364	0.1	351.75
24158	4.3223	4.5455	0.1	357.95
24159	4.2304	4.8182	0.1	309.47
24160	4.3223	4.7273	0.1	318.78
24161	4.2304	5.	0.1	264.58
24162	4.3223	4.9091	0.1	276.86
24163	4.2304	5.1818	0.1	217.51
24164	4.3223	5.0909	0.1	232.62
24165	4.2304	5.3636	0.1	168.76
24166	4.3223	5.2727	0.1	186.51
24167	4.2304	5.5455	0.1	118.68
24168	4.3223	5.4545	0.1	138.96
24169	4.2304	5.7273	0.1	67.397
24170	4.3223	5.6364	0.1	90.257
24171	4.3223	5.8182	0.1	40.481
24172	4.2304	5.9091	0.1	21.979
24173	4.4143	0.27273	0.1	63.174
24174	4.5062	0.18182	0.1	38.217
24175	4.4143	9.0909e-002	0.1	20.886
24176	4.4143	0.45455	0.1	110.48
24177	4.5062	0.36364	0.1	84.137
24178	4.4143	0.63636	0.1	156.66
24179	4.5062	0.54545	0.1	129.08
24180	4.4143	0.81818	0.1	201.56
24181	4.5062	0.72727	0.1	172.89
24182	4.4143	1.	0.1	244.86
24183	4.5062	0.90909	0.1	215.34
24184	4.4143	1.1818	0.1	286.12
24185	4.5062	1.0909	0.1	256.02
24186	4.4143	1.3636	0.1	324.95
24187	4.5062	1.2727	0.1	294.54
24188	4.4143	1.5455	0.1	360.93
24189	4.5062	1.4545	0.1	330.5
24190	4.4143	1.7273	0.1	393.69
24191	4.5062	1.6364	0.1	363.54
24192	4.4143	1.9091	0.1	422.86
24193	4.5062	1.8182	0.1	393.3
24194	4.4143	2.0909	0.1	448.12
24195	4.5062	2.	0.1	419.45
24196	4.4143	2.2727	0.1	469.19
24197	4.5062	2.1818	0.1	441.72
24198	4.4143	2.4545	0.1	485.84
24199	4.5062	2.3636	0.1	459.83
24200	4.4143	2.6364	0.1	497.86
24201	4.5062	2.5455	0.1	473.61
24202	4.4143	2.8182	0.1	505.13
24203	4.5062	2.7273	0.1	482.88
24204	4.4143	3.	0.1	507.57
24205	4.5062	2.9091	0.1	487.54
24206	4.4143	3.1818	0.1	505.13
24207	4.5062	3.0909	0.1	487.54
24208	4.4143	3.3636	0.1	497.86
24209	4.5062	3.2727	0.1	482.88
24210	4.4143	3.5455	0.1	485.84
24211	4.5062	3.4545	0.1	473.61
24212	4.4143	3.7273	0.1	469.19
24213	4.5062	3.6364	0.1	459.83
24214	4.4143	3.9091	0.1	448.12
24215	4.5062	3.8182	0.1	441.72
24216	4.4143	4.0909	0.1	422.86
24217	4.5062	4.	0.1	419.45
24218	4.4143	4.2727	0.1	393.69
24219	4.5062	4.1818	0.1	393.3
24220	4.4143	4.4545	0.1	360.93
24221	4.5062	4.3636	0.1	363.54
24222	4.4143	4.6364	0.1	324.95
24223	4.5062	4.5455	0.1	330.5
24224	4.4143	4.8182	0.1	286.12
24225	4.5062	4.7273	0.1	294.54
24226	4.4143	5.	0.1	244.86
24227	4.5062	4.9091	0.1	256.02
24228	4.4143	5.1818	0.1	201.56
24229	4.5062	5.0909	0.1	215.34
24230	4.4143	5.3636	0.1	156.66
24231	4.5062	5.2727	0.1	172.89
24232	4.4143	5.5455	0.1	110.48
24233	4.5062	5.4545	0.1	129.08
24234	4.4143	5.7273	0.1	63.174
24235	4.5062	5.6364	0.1	84.137
24236	4.5062	5.8182	0.1	38.217
24237	4.4143	5.9091	0.1	20.886
24238	4.5982	0.27273	0.1	59.038
24239	4.6902	0.18182	0.1	35.898
24240	4.5982	9.0909e-002	0.1	19.722
24241	4.5982	0.45455	0.1	102.68
24242	4.6902	0.36364	0.1	78.271
24243	4.5982	0.63636	0.1	145.27
24244	4.6902	0.54545	0.1	119.74
24245	4.5982	0.81818	0.1	186.63
24246	4.6902	0.72727	0.1	160.12
24247	4.5982	1.	0.1	226.47
24248	4.6902	0.90909	0.1	199.2
24249	4.5982	1.1818	0.1	264.4
24250	4.6902	1.0909	0.1	236.62
24251	4.5982	1.3636	0.1	300.06
24252	4.6902	1.2727	0.1	272.01
24253	4.5982	1.5455	0.1	333.09
24254	4.6902	1.4545	0.1	305.04
24255	4.5982	1.7273	0.1	363.14
24256	4.6902	1.6364	0.1	335.35
24257	4.5982	1.9091	0.1	389.89
24258	4.6902	1.8182	0.1	362.65
24259	4.5982	2.0909	0.1	413.05
24260	4.6902	2.	0.1	386.63
24261	4.5982	2.2727	0.1	432.37
24262	4.6902	2.1818	0.1	407.04
24263	4.5982	2.4545	0.1	447.62
24264	4.6902	2.3636	0.1	423.64
24265	4.5982	2.6364	0.1	458.64
24266	4.6902	2.5455	0.1	436.26
24267	4.5982	2.8182	0.1	465.31
24268	4.6902	2.7273	0.1	444.75
24269	4.5982	3.	0.1	467.54
24270	4.6902	2.9091	0.1	449.02
24271	4.5982	3.1818	0.1	465.31
24272	4.6902	3.0909	0.1	449.02
24273	4.5982	3.3636	0.1	458.64
24274	4.6902	3.2727	0.1	444.75
24275	4.5982	3.5455	0.1	447.62
24276	4.6902	3.4545	0.1	436.26
24277	4.5982	3.7273	0.1	432.37
24278	4.6902	3.6364	0.1	423.64
24279	4.5982	3.9091	0.1	413.05
24280	4.6902	3.8182	0.1	407.04
24281	4.5982	4.0909	0.1	389.89
24282	4.6902	4.	0.1	386.63
24283	4.5982	4.2727	0.1	363.14
24284	4.6902	4.1818	0.1	362.65
24285	4.5982	4.4545	0.1	333.09
24286	4.6902	4.3636	0.1	335.35
24287	4.5982	4.6364	0.1	300.06
24288	4.6902	4.5455	0.1	305.04
24289	4.5982	4.8182	0.1	264.4
24290	4.6902	4.7273	0.1	272.01
24291	4.5982	5.	0.1	226.47
24292	4.6902	4.9091	0.1	236.62
24293	4.5982	5.1818	0.1	186.63
24294	4.6902	5.0909	0.1	199.2
24295	4.5982	5.3636	0.1	145.27
24296	4.6902	5.2727	0.1	160.12
24297	4.5982	5.5455	0.1	102.68
24298	4.6902	5.4545	0.1	119.74
24299	4.5982	5.7273	0.1	59.038
24300	4.6902	5.6364	0.1	78.271
24301	4.6902	5.8182	0.1	35.898
24302	4.5982	5.9091	0.1	19.722
24303	4.7821	0.27273	0.1	55.01
24304	4.8741	0.18182	0.1	33.555
24305	4.7821	9.0909e-002	0.1	18.51
24306	4.7821	0.45455	0.1	95.281
24307	4.8741	0.36364	0.1	72.663
24308	4.7821	0.63636	0.1	134.55
24309	4.8741	0.54545	0.1	110.92
24310	4.7821	0.81818	0.1	172.66
24311	4.8741	0.72727	0.1	148.15
24312	4.7821	1.	0.1	209.32
24313	4.8741	0.90909	0.1	184.13
24314	4.7821	1.1818	0.1	244.2
24315	4.8741	1.0909	0.1	218.55
24316	4.7821	1.3636	0.1	276.96
24317	4.8741	1.2727	0.1	251.08
24318	4.7821	1.5455	0.1	307.28
24319	4.8741	1.4545	0.1	281.4
24320	4.7821	1.7273	0.1	334.85
24321	4.8741	1.6364	0.1	309.23
24322	4.7821	1.9091	0.1	359.38
24323	4.8741	1.8182	0.1	334.27
24324	4.7821	2.0909	0.1	380.61
24325	4.8741	2.	0.1	356.26
24326	4.7821	2.2727	0.1	398.31
24327	4.8741	2.1818	0.1	374.96
24328	4.7821	2.4545	0.1	412.29
24329	4.8741	2.3636	0.1	390.18
24330	4.7821	2.6364	0.1	422.39
24331	4.8741	2.5455	0.1	401.74
24332	4.7821	2.8182	0.1	428.49
24333	4.8741	2.7273	0.1	409.52
24334	4.7821	3.	0.1	430.53
24335	4.8741	2.9091	0.1	413.43
24336	4.7821	3.1818	0.1	428.49
24337	4.8741	3.0909	0.1	413.43
24338	4.7821	3.3636	0.1	422.39
24339	4.8741	3.2727	0.1	409.52
24340	4.7821	3.5455	0.1	412.29
24341	4.8741	3.4545	0.1	401.74
24342	4.7821	3.7273	0.1	398.31
24343	4.8741	3.6364	0.1	390.18
24344	4.7821	3.9091	0.1	380.61
24345	4.8741	3.8182	0.1	374.96
24346	4.7821	4.0909	0.1	359.38
24347	4.8741	4.	0.1	356.26
24348	4.7821	4.2727	0.1	334.85
24349	4.8741	4.1818	0.1	334.27
24350	4.7821	4.4545	0.1	307.28
24351	4.8741	4.3636	0.1	309.23
24352	4.7821	4.6364	0.1	276.96
24353	4.8741	4.5455	0.1	281.4
24354	4.7821	4.8182	0.1	244.2
24355	4.8741	4.7273	0.1	251.08
24356	4.7821	5.	0.1	209.32
24357	4.8741	4.9091	0.1	218.55
24358	4.7821	5.1818	0.1	172.66
24359	4.8741	5.0909	0.1	184.13
24360	4.7821	5.3636	0.1	134.55
24361	4.8741	5.2727	0.1	148.15
24362	4.7821	5.5455	0.1	95.281
24363	4.8741	5.4545	0.1	110.92
24364	4.7821	5.7273	0.1	55.01
24365	4.8741	5.6364	0.1	72.663
24366	4.8741	5.8182	0.1	33.555
24367	4.7821	5.9091	0.1	18.51
24368	4.9661	0.27273	0.1	51.105
24369	5.058	0.18182	0.1	31.213
24370	4.9661	9.0909e-002	0.1	17.271
24371	4.9661	0.45455	0.1	88.268
24372	5.058	0.36364	0.1	67.316
24373	4.9661	0.63636	0.1	124.49
24374	5.058	0.54545	0.1	102.62
24375	4.9661	0.81818	0.1	159.59
24376	5.058	0.72727	0.1	136.93
24377	4.9661	1.	0.1	193.33
24378	5.058	0.90909	0.1	170.06
24379	4.9661	1.1818	0.1	225.4
24380	5.058	1.0909	0.1	201.73
24381	4.9661	1.3636	0.1	255.5
24382	5.058	1.2727	0.1	231.63
24383	4.9661	1.5455	0.1	283.34
24384	5.058	1.4545	0.1	259.48
24385	4.9661	1.7273	0.1	308.64
24386	5.058	1.6364	0.1	285.02
24387	4.9661	1.9091	0.1	331.14
24388	5.058	1.8182	0.1	307.99
24389	4.9661	2.0909	0.1	350.6
24390	5.058	2.	0.1	328.16
24391	4.9661	2.2727	0.1	366.83
24392	5.058	2.1818	0.1	345.3
24393	4.9661	2.4545	0.1	379.63
24394	5.058	2.3636	0.1	359.24
24395	4.9661	2.6364	0.1	388.88
24396	5.058	2.5455	0.1	369.84
24397	4.9661	2.8182	0.1	394.47
24398	5.058	2.7273	0.1	376.96
24399	4.9661	3.	0.1	396.34
24400	5.058	2.9091	0.1	380.55
24401	4.9661	3.1818	0.1	394.47
24402	5.058	3.0909	0.1	380.55
24403	4.9661	3.3636	0.1	388.88
24404	5.058	3.2727	0.1	376.96
24405	4.9661	3.5455	0.1	379.63
24406	5.058	3.4545	0.1	369.84
24407	4.9661	3.7273	0.1	366.83
24408	5.058	3.6364	0.1	359.24
24409	4.9661	3.9091	0.1	350.6
24410	5.058	3.8182	0.1	345.3
24411	4.9661	4.0909	0.1	331.14
24412	5.058	4.	0.1	328.16
24413	4.9661	4.2727	0.1	308.64
24414	5.058	4.1818	0.1	307.99
24415	4.9661	4.4545	0.1	283.34
24416	5.058	4.3636	0.1	285.02
24417	4.9661	4.6364	0.1	255.5
24418	5.058	4.5455	0.1	259.48
24419	4.9661	4.8182	0.1	225.4
24420	5.058	4.7273	0.1	231.63
24421	4.9661	5.	0.1	193.33
24422	5.058	4.9091	0.1	201.73
24423	4.9661	5.1818	0.1	159.59
24424	5.058	5.0909	0.1	170.06
24425	4.9661	5.3636	0.1	124.49
24426	5.058	5.2727	0.1	136.93
24427	4.9661	5.5455	0.1	88.268
24428	5.058	5.4545	0.1	102.62
24429	4.9661	5.7273	0.1	51.105
24430	5.058	5.6364	0.1	67.316
24431	5.058	5.8182	0.1	31.213
24432	4.9661	5.9091	0.1	17.271
24433	5.15	0.27273	0.1	47.337
24434	5.242	0.18182	0.1	28.894
24435	5.15	9.0909e-002	0.1	16.02
24436	5.15	0.45455	0.1	81.634
24437	5.242	0.36364	0.1	62.23
24438	5.15	0.63636	0.1	115.03
24439	5.242	0.54545	0.1	94.8
24440	5.15	0.81818	0.1	147.38
24441	5.242	0.72727	0.1	126.43
24442	5.15	1.	0.1	178.43
24443	5.242	0.90909	0.1	156.94
24444	5.15	1.1818	0.1	207.93
24445	5.242	1.0909	0.1	186.07
24446	5.15	1.3636	0.1	235.59
24447	5.242	1.2727	0.1	213.56
24448	5.15	1.5455	0.1	261.15
24449	5.242	1.4545	0.1	239.15
24450	5.15	1.7273	0.1	284.37
24451	5.242	1.6364	0.1	262.6
24452	5.15	1.9091	0.1	305.
24453	5.242	1.8182	0.1	283.67
24454	5.15	2.0909	0.1	322.85
24455	5.242	2.	0.1	302.16
24456	5.15	2.2727	0.1	337.72
24457	5.242	2.1818	0.1	317.88
24458	5.15	2.4545	0.1	349.45
24459	5.242	2.3636	0.1	330.66
24460	5.15	2.6364	0.1	357.93
24461	5.242	2.5455	0.1	340.37
24462	5.15	2.8182	0.1	363.05
24463	5.242	2.7273	0.1	346.89
24464	5.15	3.	0.1	364.76
24465	5.242	2.9091	0.1	350.18
24466	5.15	3.1818	0.1	363.05
24467	5.242	3.0909	0.1	350.18
24468	5.15	3.3636	0.1	357.93
24469	5.242	3.2727	0.1	346.89
24470	5.15	3.5455	0.1	349.45
24471	5.242	3.4545	0.1	340.37
24472	5.15	3.7273	0.1	337.72
24473	5.242	3.6364	0.1	330.66
24474	5.15	3.9091	0.1	322.85
24475	5.242	3.8182	0.1	317.88
24476	5.15	4.0909	0.1	305.
24477	5.242	4.	0.1	302.16
24478	5.15	4.2727	0.1	284.37
24479	5.242	4.1818	0.1	283.67
24480	5.15	4.4545	0.1	261.15
24481	5.242	4.3636	0.1	262.6
24482	5.15	4.6364	0.1	235.59
24483	5.242	4.5455	0.1	239.15
24484	5.15	4.8182	0.1	207.93
24485	5.242	4.7273	0.1	213.56
24486	5.15	5.	0.1	178.43
24487	5.242	4.9091	0.1	186.07
24488	5.15	5.1818	0.1	147.38
24489	5.242	5.0909	0.1	156.94
24490	5.15	5.3636	0.1	115.03
24491	5.242	5.2727	0.1	126.43
24492	5.15	5.5455	0.1	81.634
24493	5.242	5.4545	0.1	94.8
24494	5.15	5.7273	0.1	47.337
24495	5.242	5.6364	0.1	62.23
24496	5.242	5.8182	0.1	28.894
24497	5.15	5.9091	0.1	16.02
24498	5.3339	0.27273	0.1	43.714
24499	5.4259	0.18182	0.1	26.615
24500	5.3339	9.0909e-002	0.1	14.772
24501	5.3339	0.45455	0.1	75.369
24502	5.4259	0.36364	0.1	57.403
24503	5.3339	0.63636	0.1	106.17
24504	5.4259	0.54545	0.1	87.45
24505	5.3339	0.81818	0.1	135.97
24506	5.4259	0.72727	0.1	116.6
24507	5.3339	1.	0.1	164.55
24508	5.4259	0.90909	0.1	144.7
24509	5.3339	1.1818	0.1	191.68
24510	5.4259	1.0909	0.1	171.51
24511	5.3339	1.3636	0.1	217.1
24512	5.4259	1.2727	0.1	196.78
24513	5.3339	1.5455	0.1	240.58
24514	5.4259	1.4545	0.1	220.29
24515	5.3339	1.7273	0.1	261.89
24516	5.4259	1.6364	0.1	241.82
24517	5.3339	1.9091	0.1	280.82
24518	5.4259	1.8182	0.1	261.16
24519	5.3339	2.0909	0.1	297.19
24520	5.4259	2.	0.1	278.12
24521	5.3339	2.2727	0.1	310.82
24522	5.4259	2.1818	0.1	292.53
24523	5.3339	2.4545	0.1	321.57
24524	5.4259	2.3636	0.1	304.25
24525	5.3339	2.6364	0.1	329.34
24526	5.4259	2.5455	0.1	313.14
24527	5.3339	2.8182	0.1	334.03
24528	5.4259	2.7273	0.1	319.12
24529	5.3339	3.	0.1	335.6
24530	5.4259	2.9091	0.1	322.13
24531	5.3339	3.1818	0.1	334.03
24532	5.4259	3.0909	0.1	322.13
24533	5.3339	3.3636	0.1	329.34
24534	5.4259	3.2727	0.1	319.12
24535	5.3339	3.5455	0.1	321.57
24536	5.4259	3.4545	0.1	313.14
24537	5.3339	3.7273	0.1	310.82
24538	5.4259	3.6364	0.1	304.25
24539	5.3339	3.9091	0.1	297.19
24540	5.4259	3.8182	0.1	292.53
24541	5.3339	4.0909	0.1	280.82
24542	5.4259	4.	0.1	278.12
24543	5.3339	4.2727	0.1	261.89
24544	5.4259	4.1818	0.1	261.16
24545	5.3339	4.4545	0.1	240.58
24546	5.4259	4.3636	0.1	241.82
24547	5.3339	4.6364	0.1	217.1
24548	5.4259	4.5455	0.1	220.29
24549	5.3339	4.8182	0.1	191.68
24550	5.4259	4.7273	0.1	196.78
24551	5.3339	5.	0.1	164.55
24552	5.4259	4.9091	0.1	171.51
24553	5.3339	5.1818	0.1	135.97
24554	5.4259	5.0909	0.1	144.7
24555	5.3339	5.3636	0.1	106.17
24556	5.4259	5.2727	0.1	116.6
24557	5.3339	5.5455	0.1	75.369
24558	5.4259	5.4545	0.1	87.45
24559	5.3339	5.7273	0.1	43.714
24560	5.4259	5.6364	0.1	57.403
24561	5.4259	5.8182	0.1	26.615
24562	5.3339	5.9091	0.1	14.772
24563	5.5179	0.27273	0.1	40.242
24564	5.6098	0.18182	0.1	24.388
24565	5.5179	9.0909e-002	0.1	13.538
24566	5.5179	0.45455	0.1	69.462
24567	5.6098	0.36364	0.1	52.83
24568	5.5179	0.63636	0.1	97.862
24569	5.6098	0.54545	0.1	80.548
24570	5.5179	0.81818	0.1	125.32
24571	5.6098	0.72727	0.1	107.42
24572	5.5179	1.	0.1	151.63
24573	5.6098	0.90909	0.1	133.29
24574	5.5179	1.1818	0.1	176.59
24575	5.6098	1.0909	0.1	157.96
24576	5.5179	1.3636	0.1	199.95
24577	5.6098	1.2727	0.1	181.2
24578	5.5179	1.5455	0.1	221.52
24579	5.6098	1.4545	0.1	202.81
24580	5.5179	1.7273	0.1	241.08
24581	5.6098	1.6364	0.1	222.58
24582	5.5179	1.9091	0.1	258.45
24583	5.6098	1.8182	0.1	240.33
24584	5.5179	2.0909	0.1	273.46
24585	5.6098	2.	0.1	255.89
24586	5.5179	2.2727	0.1	285.96
24587	5.6098	2.1818	0.1	269.11
24588	5.5179	2.4545	0.1	295.82
24589	5.6098	2.3636	0.1	279.85
24590	5.5179	2.6364	0.1	302.93
24591	5.6098	2.5455	0.1	288.
24592	5.5179	2.8182	0.1	307.23
24593	5.6098	2.7273	0.1	293.48
24594	5.5179	3.	0.1	308.67
24595	5.6098	2.9091	0.1	296.24
24596	5.5179	3.1818	0.1	307.23
24597	5.6098	3.0909	0.1	296.24
24598	5.5179	3.3636	0.1	302.93
24599	5.6098	3.2727	0.1	293.48
24600	5.5179	3.5455	0.1	295.82
24601	5.6098	3.4545	0.1	288.
24602	5.5179	3.7273	0.1	285.96
24603	5.6098	3.6364	0.1	279.85
24604	5.5179	3.9091	0.1	273.46
24605	5.6098	3.8182	0.1	269.11
24606	5.5179	4.0909	0.1	258.45
24607	5.6098	4.	0.1	255.89
24608	5.5179	4.2727	0.1	241.08
24609	5.6098	4.1818	0.1	240.33
24610	5.5179	4.4545	0.1	221.52
24611	5.6098	4.3636	0.1	222.58
24612	5.5179	4.6364	0.1	199.95
24613	5.6098	4.5455	0.1	202.81
24614	5.5179	4.8182	0.1	176.59
24615	5.6098	4.7273	0.1	181.2
24616	5.5179	5.	0.1	151.63
24617	5.6098	4.9091	0.1	157.96
24618	5.5179	5.1818	0.1	125.32
24619	5.6098	5.0909	0.1	133.29
24620	5.5179	5.3636	0.1	97.862
24621	5.6098	5.2727	0.1	107.42
24622	5.5179	5.5455	0.1	69.462
24623	5.6098	5.4545	0.1	80.548
24624	5.5179	5.7273	0.1	40.242
24625	5.6098	5.6364	0.1	52.83
24626	5.6098	5.8182	0.1	24.388
24627	5.5179	5.9091	0.1	13.538
24628	5.7018	0.27273	0.1	36.925
24629	5.7937	0.18182	0.1	22.226
24630	5.7018	9.0909e-002	0.1	12.326
24631	5.7018	0.45455	0.1	63.899
24632	5.7937	0.36364	0.1	48.507
24633	5.7018	0.63636	0.1	90.086
24634	5.7937	0.54545	0.1	74.074
24635	5.7018	0.81818	0.1	115.38
24636	5.7937	0.72727	0.1	98.837
24637	5.7018	1.	0.1	139.61
24638	5.7937	0.90909	0.1	122.67
24639	5.7018	1.1818	0.1	162.56
24640	5.7937	1.0909	0.1	145.37
24641	5.7018	1.3636	0.1	184.04
24642	5.7937	1.2727	0.1	166.74
24643	5.7018	1.5455	0.1	203.86
24644	5.7937	1.4545	0.1	186.6
24645	5.7018	1.7273	0.1	221.82
24646	5.7937	1.6364	0.1	204.76
24647	5.7018	1.9091	0.1	237.76
24648	5.7937	1.8182	0.1	221.06
24649	5.7018	2.0909	0.1	251.53
24650	5.7937	2.	0.1	235.34
24651	5.7018	2.2727	0.1	262.99
24652	5.7937	2.1818	0.1	247.46
24653	5.7018	2.4545	0.1	272.03
24654	5.7937	2.3636	0.1	257.31
24655	5.7018	2.6364	0.1	278.55
24656	5.7937	2.5455	0.1	264.78
24657	5.7018	2.8182	0.1	282.49
24658	5.7937	2.7273	0.1	269.81
24659	5.7018	3.	0.1	283.81
24660	5.7937	2.9091	0.1	272.33
24661	5.7018	3.1818	0.1	282.49
24662	5.7937	3.0909	0.1	272.33
24663	5.7018	3.3636	0.1	278.55
24664	5.7937	3.2727	0.1	269.81
24665	5.7018	3.5455	0.1	272.03
24666	5.7937	3.4545	0.1	264.78
24667	5.7018	3.7273	0.1	262.99
24668	5.7937	3.6364	0.1	257.31
24669	5.7018	3.9091	0.1	251.53
24670	5.7937	3.8182	0.1	247.46
24671	5.7018	4.0909	0.1	237.76
24672	5.7937	4.	0.1	235.34
24673	5.7018	4.2727	0.1	221.82
24674	5.7937	4.1818	0.1	221.06
24675	5.7018	4.4545	0.1	203.86
24676	5.7937	4.3636	0.1	204.76
24677	5.7018	4.6364	0.1	184.04
24678	5.7937	4.5455	0.1	186.6
24679	5.7018	4.8182	0.1	162.56
24680	5.7937	4.7273	0.1	166.74
24681	5.7018	5.	0.1	139.61
24682	5.7937	4.9091	0.1	145.37
24683	5.7018	5.1818	0.1	115.38
24684	5.7937	5.0909	0.1	122.67
24685	5.7018	5.3636	0.1	90.086
24686	5.7937	5.2727	0.1	98.837
24687	5.7018	5.5455	0.1	63.899
24688	5.7937	5.4545	0.1	74.074
24689	5.7018	5.7273	0.1	36.925
24690	5.7937	5.6364	0.1	48.507
24691	5.7937	5.8182	0.1	22.226
24692	5.7018	5.9091	0.1	12.326
24693	5.8857	0.27273	0.1	33.765
24694	5.9777	0.18182	0.1	20.135
24695	5.8857	9.0909e-002	0.1	11.143
24696	5.8857	0.45455	0.1	58.668
24697	5.9777	0.36364	0.1	44.426
24698	5.8857	0.63636	0.1	82.812
24699	5.9777	0.54545	0.1	68.007
24700	5.8857	0.81818	0.1	106.12
24701	5.9777	0.72727	0.1	90.829
24702	5.8857	1.	0.1	128.42
24703	5.9777	0.90909	0.1	112.78
24704	5.8857	1.1818	0.1	149.54
24705	5.9777	1.0909	0.1	133.67
24706	5.8857	1.3636	0.1	169.29
24707	5.9777	1.2727	0.1	153.33
24708	5.8857	1.5455	0.1	187.49
24709	5.9777	1.4545	0.1	171.58
24710	5.8857	1.7273	0.1	203.99
24711	5.9777	1.6364	0.1	188.26
24712	5.8857	1.9091	0.1	218.63
24713	5.9777	1.8182	0.1	203.23
24714	5.8857	2.0909	0.1	231.26
24715	5.9777	2.	0.1	216.33
24716	5.8857	2.2727	0.1	241.77
24717	5.9777	2.1818	0.1	227.46
24718	5.8857	2.4545	0.1	250.06
24719	5.9777	2.3636	0.1	236.49
24720	5.8857	2.6364	0.1	256.04
24721	5.9777	2.5455	0.1	243.34
24722	5.8857	2.8182	0.1	259.65
24723	5.9777	2.7273	0.1	247.95
24724	5.8857	3.	0.1	260.86
24725	5.9777	2.9091	0.1	250.26
24726	5.8857	3.1818	0.1	259.65
24727	5.9777	3.0909	0.1	250.26
24728	5.8857	3.3636	0.1	256.04
24729	5.9777	3.2727	0.1	247.95
24730	5.8857	3.5455	0.1	250.06
24731	5.9777	3.4545	0.1	243.34
24732	5.8857	3.7273	0.1	241.77
24733	5.9777	3.6364	0.1	236.49
24734	5.8857	3.9091	0.1	231.26
24735	5.9777	3.8182	0.1	227.46
24736	5.8857	4.0909	0.1	218.63
24737	5.9777	4.	0.1	216.33
24738	5.8857	4.2727	0.1	203.99
24739	5.9777	4.1818	0.1	203.23
24740	5.8857	4.4545	0.1	187.49
24741	5.9777	4.3636	0.1	188.26
24742	5.8857	4.6364	0.1	169.29
24743	5.9777	4.5455	0.1	171.58
24744	5.8857	4.8182	0.1	149.54
24745	5.9777	4.7273	0.1	153.33
24746	5.8857	5.	0.1	128.42
24747	5.9777	4.9091	0.1	133.67
24748	5.8857	5.1818	0.1	106.12
24749	5.9777	5.0909	0.1	112.78
24750	5.8857	5.3636	0.1	82.812
24751	5.9777	5.2727	0.1	90.829
24752	5.8857	5.5455	0.1	58.668
24753	5.9777	5.4545	0.1	68.007
24754	5.8857	5.7273	0.1	33.765
24755	5.9777	5.6364	0.1	44.426
24756	5.9777	5.8182	0.1	20.135
24757	5.8857	5.9091	0.1	11.143
24758	6.0696	0.27273	0.1	30.762
24759	6.1616	0.18182	0.1	18.121
24760	6.0696	9.0909e-002	0.1	9.9949
24761	6.0696	0.45455	0.1	53.755
24762	6.1616	0.36364	0.1	40.58
24763	6.0696	0.63636	0.1	76.015
24764	6.1616	0.54545	0.1	62.328
24765	6.0696	0.81818	0.1	97.483
24766	6.1616	0.72727	0.1	83.359
24767	6.0696	1.	0.1	118.02
24768	6.1616	0.90909	0.1	103.57
24769	6.0696	1.1818	0.1	137.45
24770	6.1616	1.0909	0.1	122.8
24771	6.0696	1.3636	0.1	155.61
24772	6.1616	1.2727	0.1	140.88
24773	6.0696	1.5455	0.1	172.34
24774	6.1616	1.4545	0.1	157.66
24775	6.0696	1.7273	0.1	187.49
24776	6.1616	1.6364	0.1	172.99
24777	6.0696	1.9091	0.1	200.93
24778	6.1616	1.8182	0.1	186.74
24779	6.0696	2.0909	0.1	212.53
24780	6.1616	2.	0.1	198.77
24781	6.0696	2.2727	0.1	222.17
24782	6.1616	2.1818	0.1	208.97
24783	6.0696	2.4545	0.1	229.77
24784	6.1616	2.3636	0.1	217.26
24785	6.0696	2.6364	0.1	235.25
24786	6.1616	2.5455	0.1	223.54
24787	6.0696	2.8182	0.1	238.56
24788	6.1616	2.7273	0.1	227.77
24789	6.0696	3.	0.1	239.67
24790	6.1616	2.9091	0.1	229.89
24791	6.0696	3.1818	0.1	238.56
24792	6.1616	3.0909	0.1	229.89
24793	6.0696	3.3636	0.1	235.25
24794	6.1616	3.2727	0.1	227.77
24795	6.0696	3.5455	0.1	229.77
24796	6.1616	3.4545	0.1	223.54
24797	6.0696	3.7273	0.1	222.17
24798	6.1616	3.6364	0.1	217.26
24799	6.0696	3.9091	0.1	212.53
24800	6.1616	3.8182	0.1	208.97
24801	6.0696	4.0909	0.1	200.93
24802	6.1616	4.	0.1	198.77
24803	6.0696	4.2727	0.1	187.49
24804	6.1616	4.1818	0.1	186.74
24805	6.0696	4.4545	0.1	172.34
24806	6.1616	4.3636	0.1	172.99
24807	6.0696	4.6364	0.1	155.61
24808	6.1616	4.5455	0.1	157.66
24809	6.0696	4.8182	0.1	137.45
24810	6.1616	4.7273	0.1	140.88
24811	6.0696	5.	0.1	118.02
24812	6.1616	4.9091	0.1	122.8
24813	6.0696	5.1818	0.1	97.483
24814	6.1616	5.0909	0.1	103.57
24815	6.0696	5.3636	0.1	76.015
24816	6.1616	5.2727	0.1	83.359
24817	6.0696	5.5455	0.1	53.755
24818	6.1616	5.4545	0.1	62.328
24819	6.0696	5.7273	0.1	30.762
24820	6.1616	5.6364	0.1	40.58
24821	6.1616	5.8182	0.1	18.121
24822	6.0696	5.9091	0.1	9.9949
24823	6.2536	0.27273	0.1	27.913
24824	6.3455	0.18182	0.1	16.189
24825	6.2536	9.0909e-002	0.1	8.8858
24826	6.2536	0.45455	0.1	49.146
24827	6.3455	0.36364	0.1	36.961
24828	6.2536	0.63636	0.1	69.666
24829	6.3455	0.54545	0.1	57.016
24830	6.2536	0.81818	0.1	89.443
24831	6.3455	0.72727	0.1	76.396
24832	6.2536	1.	0.1	108.35
24833	6.3455	0.90909	0.1	95.012
24834	6.2536	1.1818	0.1	126.23
24835	6.3455	1.0909	0.1	112.71
24836	6.2536	1.3636	0.1	142.93
24837	6.3455	1.2727	0.1	129.34
24838	6.2536	1.5455	0.1	158.31
24839	6.3455	1.4545	0.1	144.77
24840	6.2536	1.7273	0.1	172.23
24841	6.3455	1.6364	0.1	158.86
24842	6.2536	1.9091	0.1	184.57
24843	6.3455	1.8182	0.1	171.48
24844	6.2536	2.0909	0.1	195.21
24845	6.3455	2.	0.1	182.53
24846	6.2536	2.2727	0.1	204.06
24847	6.3455	2.1818	0.1	191.89
24848	6.2536	2.4545	0.1	211.03
24849	6.3455	2.3636	0.1	199.5
24850	6.2536	2.6364	0.1	216.06
24851	6.3455	2.5455	0.1	205.26
24852	6.2536	2.8182	0.1	219.09
24853	6.3455	2.7273	0.1	209.14
24854	6.2536	3.	0.1	220.11
24855	6.3455	2.9091	0.1	211.08
24856	6.2536	3.1818	0.1	219.09
24857	6.3455	3.0909	0.1	211.08
24858	6.2536	3.3636	0.1	216.06
24859	6.3455	3.2727	0.1	209.14
24860	6.2536	3.5455	0.1	211.03
24861	6.3455	3.4545	0.1	205.26
24862	6.2536	3.7273	0.1	204.06
24863	6.3455	3.6364	0.1	199.5
24864	6.2536	3.9091	0.1	195.21
24865	6.3455	3.8182	0.1	191.89
24866	6.2536	4.0909	0.1	184.57
24867	6.3455	4.	0.1	182.53
24868	6.2536	4.2727	0.1	172.23
24869	6.3455	4.1818	0.1	171.48
24870	6.2536	4.4545	0.1	158.31
24871	6.3455	4.3636	0.1	158.86
24872	6.2536	4.6364	0.1	142.93
24873	6.3455	4.5455	0.1	144.77
24874	6.2536	4.8182	0.1	126.23
24875	6.3455	4.7273	0.1	129.34
24876	6.2536	5.	0.1	108.35
24877	6.3455	4.9091	0.1	112.71
24878	6.2536	5.1818	0.1	89.443
24879	6.3455	5.0909	0.1	95.012
24880	6.2536	5.3636	0.1	69.666
24881	6.3455	5.2727	0.1	76.396
24882	6.2536	5.5455	0.1	49.146
24883	6.3455	5.4545	0.1	57.016
24884	6.2536	5.7273	0.1	27.913
24885	6.3455	5.6364	0.1	36.961
24886	6.3455	5.8182	0.1	16.189
24887	6.2536	5.9091	0.1	8.8858
24888	6.4375	0.27273	0.1	25.215
24889	6.5295	0.18182	0.1	14.34
24890	6.4375	9.0909e-002	0.1	7.8183
24891	6.4375	0.45455	0.1	44.826
24892	6.5295	0.36364	0.1	33.559
24893	6.4375	0.63636	0.1	63.741
24894	6.5295	0.54545	0.1	52.051
24895	6.4375	0.81818	0.1	81.96
24896	6.5295	0.72727	0.1	69.908
24897	6.4375	1.	0.1	99.366
24898	6.5295	0.90909	0.1	87.052
24899	6.4375	1.1818	0.1	115.82
24900	6.5295	1.0909	0.1	103.34
24901	6.4375	1.3636	0.1	131.18
24902	6.5295	1.2727	0.1	118.64
24903	6.4375	1.5455	0.1	145.31
24904	6.5295	1.4545	0.1	132.83
24905	6.4375	1.7273	0.1	158.1
24906	6.5295	1.6364	0.1	145.77
24907	6.4375	1.9091	0.1	169.44
24908	6.5295	1.8182	0.1	157.37
24909	6.4375	2.0909	0.1	179.21
24910	6.5295	2.	0.1	167.51
24911	6.4375	2.2727	0.1	187.33
24912	6.5295	2.1818	0.1	176.11
24913	6.4375	2.4545	0.1	193.73
24914	6.5295	2.3636	0.1	183.09
24915	6.4375	2.6364	0.1	198.34
24916	6.5295	2.5455	0.1	188.38
24917	6.4375	2.8182	0.1	201.12
24918	6.5295	2.7273	0.1	191.94
24919	6.4375	3.	0.1	202.06
24920	6.5295	2.9091	0.1	193.72
24921	6.4375	3.1818	0.1	201.12
24922	6.5295	3.0909	0.1	193.72
24923	6.4375	3.3636	0.1	198.34
24924	6.5295	3.2727	0.1	191.94
24925	6.4375	3.5455	0.1	193.73
24926	6.5295	3.4545	0.1	188.38
24927	6.4375	3.7273	0.1	187.33
24928	6.5295	3.6364	0.1	183.09
24929	6.4375	3.9091	0.1	179.21
24930	6.5295	3.8182	0.1	176.11
24931	6.4375	4.0909	0.1	169.44
24932	6.5295	4.	0.1	167.51
24933	6.4375	4.2727	0.1	158.1
24934	6.5295	4.1818	0.1	157.37
24935	6.4375	4.4545	0.1	145.31
24936	6.5295	4.3636	0.1	145.77
24937	6.4375	4.6364	0.1	131.18
24938	6.5295	4.5455	0.1	132.83
24939	6.4375	4.8182	0.1	115.82
24940	6.5295	4.7273	0.1	118.64
24941	6.4375	5.	0.1	99.366
24942	6.5295	4.9091	0.1	103.34
24943	6.4375	5.1818	0.1	81.96
24944	6.5295	5.0909	0.1	87.052
24945	6.4375	5.3636	0.1	63.741
24946	6.5295	5.2727	0.1	69.908
24947	6.4375	5.5455	0.1	44.826
24948	6.5295	5.4545	0.1	52.051
24949	6.4375	5.7273	0.1	25.215
24950	6.5295	5.6364	0.1	33.559
24951	6.5295	5.8182	0.1	14.34
24952	6.4375	5.9091	0.1	7.8183
24953	6.6214	0.27273	0.1	22.666
24954	6.7134	0.18182	0.1	12.576
24955	6.6214	9.0909e-002	0.1	6.7946
24956	6.6214	0.45455	0.1	40.781
24957	6.7134	0.36364	0.1	30.364
24958	6.6214	0.63636	0.1	58.216
24959	6.7134	0.54545	0.1	47.413
24960	6.6214	0.81818	0.1	74.997
24961	6.7134	0.72727	0.1	63.866
24962	6.6214	1.	0.1	91.023
24963	6.7134	0.90909	0.1	79.654
24964	6.6214	1.1818	0.1	106.16
24965	6.7134	1.0909	0.1	94.646
24966	6.6214	1.3636	0.1	120.29
24967	6.7134	1.2727	0.1	108.72
24968	6.6214	1.5455	0.1	133.28
24969	6.7134	1.4545	0.1	121.77
24970	6.6214	1.7273	0.1	145.04
24971	6.7134	1.6364	0.1	133.67
24972	6.6214	1.9091	0.1	155.45
24973	6.7134	1.8182	0.1	144.32
24974	6.6214	2.0909	0.1	164.42
24975	6.7134	2.	0.1	153.64
24976	6.6214	2.2727	0.1	171.88
24977	6.7134	2.1818	0.1	161.53
24978	6.6214	2.4545	0.1	177.75
24979	6.7134	2.3636	0.1	167.94
24980	6.6214	2.6364	0.1	181.98
24981	6.7134	2.5455	0.1	172.8
24982	6.6214	2.8182	0.1	184.53
24983	6.7134	2.7273	0.1	176.06
24984	6.6214	3.	0.1	185.39
24985	6.7134	2.9091	0.1	177.7
24986	6.6214	3.1818	0.1	184.53
24987	6.7134	3.0909	0.1	177.7
24988	6.6214	3.3636	0.1	181.98
24989	6.7134	3.2727	0.1	176.06
24990	6.6214	3.5455	0.1	177.75
24991	6.7134	3.4545	0.1	172.8
24992	6.6214	3.7273	0.1	171.88
24993	6.7134	3.6364	0.1	167.94
24994	6.6214	3.9091	0.1	164.42
24995	6.7134	3.8182	0.1	161.53
24996	6.6214	4.0909	0.1	155.45
24997	6.7134	4.	0.1	153.64
24998	6.6214	4.2727	0.1	145.04
24999	6.7134	4.1818	0.1	144.32
25000	6.6214	4.4545	0.1	133.28
25001	6.7134	4.3636	0.1	133.67
25002	6.6214	4.6364	0.1	120.29
25003	6.7134	4.5455	0.1	121.77
25004	6.6214	4.8182	0.1	106.16
25005	6.7134	4.7273	0.1	108.72
25006	6.6214	5.	0.1	91.023
25007	6.7134	4.9091	0.1	94.646
25008	6.6214	5.1818	0.1	74.997
25009	6.7134	5.0909	0.1	79.654
25010	6.6214	5.3636	0.1	58.215
25011	6.7134	5.2727	0.1	63.866
25012	6.6214	5.5455	0.1	40.781
25013	6.7134	5.4545	0.1	47.413
25014	6.6214	5.7273	0.1	22.666
25015	6.7134	5.6364	0.1	30.364
25016	6.7134	5.8182	0.1	12.576
25017	6.6214	5.9091	0.1	6.7946
25018	6.8054	0.27273	0.1	20.26
25019	6.8973	0.18182	0.1	10.897
25020	6.8054	9.0909e-002	0.1	5.8159
25021	6.8054	0.45455	0.1	36.996
25022	6.8973	0.36364	0.1	27.367
25023	6.8054	0.63636	0.1	53.064
25024	6.8973	0.54545	0.1	43.085
25025	6.8054	0.81818	0.1	68.522
25026	6.8973	0.72727	0.1	58.243
25027	6.8054	1.	0.1	83.276
25028	6.8973	0.90909	0.1	72.78
25029	6.8054	1.1818	0.1	97.206
25030	6.8973	1.0909	0.1	86.579
25031	6.8054	1.3636	0.1	110.2
25032	6.8973	1.2727	0.1	99.529
25033	6.8054	1.5455	0.1	122.15
25034	6.8973	1.4545	0.1	111.52
25035	6.8054	1.7273	0.1	132.95
25036	6.8973	1.6364	0.1	122.46
25037	6.8054	1.9091	0.1	142.51
25038	6.8973	1.8182	0.1	132.25
25039	6.8054	2.0909	0.1	150.75
25040	6.8973	2.	0.1	140.81
25041	6.8054	2.2727	0.1	157.6
25042	6.8973	2.1818	0.1	148.06
25043	6.8054	2.4545	0.1	162.99
25044	6.8973	2.3636	0.1	153.94
25045	6.8054	2.6364	0.1	166.87
25046	6.8973	2.5455	0.1	158.4
25047	6.8054	2.8182	0.1	169.22
25048	6.8973	2.7273	0.1	161.4
25049	6.8054	3.	0.1	170.
25050	6.8973	2.9091	0.1	162.9
25051	6.8054	3.1818	0.1	169.22
25052	6.8973	3.0909	0.1	162.9
25053	6.8054	3.3636	0.1	166.87
25054	6.8973	3.2727	0.1	161.4
25055	6.8054	3.5455	0.1	162.99
25056	6.8973	3.4545	0.1	158.4
25057	6.8054	3.7273	0.1	157.6
25058	6.8973	3.6364	0.1	153.94
25059	6.8054	3.9091	0.1	150.75
25060	6.8973	3.8182	0.1	148.06
25061	6.8054	4.0909	0.1	142.51
25062	6.8973	4.	0.1	140.81
25063	6.8054	4.2727	0.1	132.95
25064	6.8973	4.1818	0.1	132.25
25065	6.8054	4.4545	0.1	122.15
25066	6.8973	4.3636	0.1	122.46
25067	6.8054	4.6364	0.1	110.2
25068	6.8973	4.5455	0.1	111.52
25069	6.8054	4.8182	0.1	97.206
25070	6.8973	4.7273	0.1	99.529
25071	6.8054	5.	0.1	83.276
25072	6.8973	4.9091	0.1	86.579
25073	6.8054	5.1818	0.1	68.522
25074	6.8973	5.0909	0.1	72.78
25075	6.8054	5.3636	0.1	53.064
25076	6.8973	5.2727	0.1	58.243
25077	6.8054	5.5455	0.1	36.996
25078	6.8973	5.4545	0.1	43.085
25079	6.8054	5.7273	0.1	20.26
25080	6.8973	5.6364	0.1	27.367
25081	6.8973	5.8182	0.1	10.897
25082	6.8054	5.9091	0.1	5.8159
25083	6.9893	0.27273	0.1	17.993
25084	7.0813	0.18182	0.1	9.3023
25085	6.9893	9.0909e-002	0.1	4.8832
25086	6.9893	0.45455	0.1	33.458
25087	7.0813	0.36364	0.1	24.557
25088	6.9893	0.63636	0.1	48.265
25089	7.0813	0.54545	0.1	39.047
25090	6.9893	0.81818	0.1	62.502
25091	7.0813	0.72727	0.1	53.01
25092	6.9893	1.	0.1	76.084
25093	7.0813	0.90909	0.1	66.395
25094	6.9893	1.1818	0.1	88.902
25095	7.0813	1.0909	0.1	79.096
25096	6.9893	1.3636	0.1	100.85
25097	7.0813	1.2727	0.1	91.01
25098	6.9893	1.5455	0.1	111.84
25099	7.0813	1.4545	0.1	102.04
25100	6.9893	1.7273	0.1	121.77
25101	7.0813	1.6364	0.1	112.1
25102	6.9893	1.9091	0.1	130.55
25103	7.0813	1.8182	0.1	121.09
25104	6.9893	2.0909	0.1	138.12
25105	7.0813	2.	0.1	128.96
25106	6.9893	2.2727	0.1	144.41
25107	7.0813	2.1818	0.1	135.62
25108	6.9893	2.4545	0.1	149.36
25109	7.0813	2.3636	0.1	141.02
25110	6.9893	2.6364	0.1	152.92
25111	7.0813	2.5455	0.1	145.11
25112	6.9893	2.8182	0.1	155.08
25113	7.0813	2.7273	0.1	147.86
25114	6.9893	3.	0.1	155.8
25115	7.0813	2.9091	0.1	149.24
25116	6.9893	3.1818	0.1	155.08
25117	7.0813	3.0909	0.1	149.24
25118	6.9893	3.3636	0.1	152.92
25119	7.0813	3.2727	0.1	147.86
25120	6.9893	3.5455	0.1	149.36
25121	7.0813	3.4545	0.1	145.11
25122	6.9893	3.7273	0.1	144.41
25123	7.0813	3.6364	0.1	141.02
25124	6.9893	3.9091	0.1	138.12
25125	7.0813	3.8182	0.1	135.62
25126	6.9893	4.0909	0.1	130.55
25127	7.0813	4.	0.1	128.96
25128	6.9893	4.2727	0.1	121.77
25129	7.0813	4.1818	0.1	121.09
25130	6.9893	4.4545	0.1	111.84
25131	7.0813	4.3636	0.1	112.1
25132	6.9893	4.6364	0.1	100.85
25133	7.0813	4.5455	0.1	102.04
25134	6.9893	4.8182	0.1	88.902
25135	7.0813	4.7273	0.1	91.01
25136	6.9893	5.	0.1	76.084
25137	7.0813	4.9091	0.1	79.096
25138	6.9893	5.1818	0.1	62.502
25139	7.0813	5.0909	0.1	66.395
25140	6.9893	5.3636	0.1	48.265
25141	7.0813	5.2727	0.1	53.01
25142	6.9893	5.5455	0.1	33.458
25143	7.0813	5.4545	0.1	39.047
25144	6.9893	5.7273	0.1	17.993
25145	7.0813	5.6364	0.1	24.557
25146	7.0813	5.8182	0.1	9.3023
25147	6.9893	5.9091	0.1	4.8832
25148	7.1732	0.27273	0.1	15.858
25149	7.2652	0.18182	0.1	7.7911
25150	7.1732	9.0909e-002	0.1	3.997
25151	7.1732	0.45455	0.1	30.151
25152	7.2652	0.36364	0.1	21.926
25153	7.1732	0.63636	0.1	43.796
25154	7.2652	0.54545	0.1	35.282
25155	7.1732	0.81818	0.1	56.907
25156	7.2652	0.72727	0.1	48.143
25157	7.1732	1.	0.1	69.409
25158	7.2652	0.90909	0.1	60.467
25159	7.1732	1.1818	0.1	81.204
25160	7.2652	1.0909	0.1	72.155
25161	7.1732	1.3636	0.1	92.197
25162	7.2652	1.2727	0.1	83.115
25163	7.1732	1.5455	0.1	102.3
25164	7.2652	1.4545	0.1	93.26
25165	7.1732	1.7273	0.1	111.42
25166	7.2652	1.6364	0.1	102.5
25167	7.1732	1.9091	0.1	119.5
25168	7.2652	1.8182	0.1	110.77
25169	7.1732	2.0909	0.1	126.45
25170	7.2652	2.	0.1	118.
25171	7.1732	2.2727	0.1	132.22
25172	7.2652	2.1818	0.1	124.11
25173	7.1732	2.4545	0.1	136.77
25174	7.2652	2.3636	0.1	129.07
25175	7.1732	2.6364	0.1	140.04
25176	7.2652	2.5455	0.1	132.83
25177	7.1732	2.8182	0.1	142.02
25178	7.2652	2.7273	0.1	135.35
25179	7.1732	3.	0.1	142.68
25180	7.2652	2.9091	0.1	136.62
25181	7.1732	3.1818	0.1	142.02
25182	7.2652	3.0909	0.1	136.62
25183	7.1732	3.3636	0.1	140.04
25184	7.2652	3.2727	0.1	135.35
25185	7.1732	3.5455	0.1	136.77
25186	7.2652	3.4545	0.1	132.83
25187	7.1732	3.7273	0.1	132.22
25188	7.2652	3.6364	0.1	129.07
25189	7.1732	3.9091	0.1	126.45
25190	7.2652	3.8182	0.1	124.11
25191	7.1732	4.0909	0.1	119.5
25192	7.2652	4.	0.1	118.
25193	7.1732	4.2727	0.1	111.42
25194	7.2652	4.1818	0.1	110.77
25195	7.1732	4.4545	0.1	102.3
25196	7.2652	4.3636	0.1	102.5
25197	7.1732	4.6364	0.1	92.197
25198	7.2652	4.5455	0.1	93.26
25199	7.1732	4.8182	0.1	81.204
25200	7.2652	4.7273	0.1	83.115
25201	7.1732	5.	0.1	69.409
25202	7.2652	4.9091	0.1	72.155
25203	7.1732	5.1818	0.1	56.907
25204	7.2652	5.0909	0.1	60.467
25205	7.1732	5.3636	0.1	43.796
25206	7.2652	5.2727	0.1	48.143
25207	7.1732	5.5455	0.1	30.151
25208	7.2652	5.4545	0.1	35.282
25209	7.1732	5.7273	0.1	15.858
25210	7.2652	5.6364	0.1	21.926
25211	7.2652	5.8182	0.1	7.7911
25212	7.1732	5.9091	0.1	3.997
25213	7.3571	0.27273	0.1	13.85
25214	7.4491	0.18182	0.1	6.3621
25215	7.3571	9.0909e-002	0.1	3.1583
25216	7.3571	0.45455	0.1	27.063
25217	7.4491	0.36364	0.1	19.464
25218	7.3571	0.63636	0.1	39.635
25219	7.4491	0.54545	0.1	31.773
25220	7.3571	0.81818	0.1	51.708
25221	7.4491	0.72727	0.1	43.617
25222	7.3571	1.	0.1	63.216
25223	7.4491	0.90909	0.1	54.962
25224	7.3571	1.1818	0.1	74.069
25225	7.4491	1.0909	0.1	65.719
25226	7.3571	1.3636	0.1	84.18
25227	7.4491	1.2727	0.1	75.801
25228	7.3571	1.5455	0.1	93.468
25229	7.4491	1.4545	0.1	85.13
25230	7.3571	1.7273	0.1	101.86
25231	7.4491	1.6364	0.1	93.629
25232	7.3571	1.9091	0.1	109.27
25233	7.4491	1.8182	0.1	101.23
25234	7.3571	2.0909	0.1	115.66
25235	7.4491	2.	0.1	107.87
25236	7.3571	2.2727	0.1	120.97
25237	7.4491	2.1818	0.1	113.49
25238	7.3571	2.4545	0.1	125.14
25239	7.4491	2.3636	0.1	118.04
25240	7.3571	2.6364	0.1	128.15
25241	7.4491	2.5455	0.1	121.49
25242	7.3571	2.8182	0.1	129.96
25243	7.4491	2.7273	0.1	123.81
25244	7.3571	3.	0.1	130.57
25245	7.4491	2.9091	0.1	124.97
25246	7.3571	3.1818	0.1	129.96
25247	7.4491	3.0909	0.1	124.97
25248	7.3571	3.3636	0.1	128.15
25249	7.4491	3.2727	0.1	123.81
25250	7.3571	3.5455	0.1	125.14
25251	7.4491	3.4545	0.1	121.49
25252	7.3571	3.7273	0.1	120.97
25253	7.4491	3.6364	0.1	118.04
25254	7.3571	3.9091	0.1	115.66
25255	7.4491	3.8182	0.1	113.49
25256	7.3571	4.0909	0.1	109.27
25257	7.4491	4.	0.1	107.87
25258	7.3571	4.2727	0.1	101.86
25259	7.4491	4.1818	0.1	101.23
25260	7.3571	4.4545	0.1	93.468
25261	7.4491	4.3636	0.1	93.629
25262	7.3571	4.6364	0.1	84.18
25263	7.4491	4.5455	0.1	85.13
25264	7.3571	4.8182	0.1	74.069
25265	7.4491	4.7273	0.1	75.801
25266	7.3571	5.	0.1	63.216
25267	7.4491	4.9091	0.1	65.719
25268	7.3571	5.1818	0.1	51.708
25269	7.4491	5.0909	0.1	54.962
25270	7.3571	5.3636	0.1	39.635
25271	7.4491	5.2727	0.1	43.617
25272	7.3571	5.5455	0.1	27.063
25273	7.4491	5.4545	0.1	31.773
25274	7.3571	5.7273	0.1	13.85
25275	7.4491	5.6364	0.1	19.464
25276	7.4491	5.8182	0.1	6.3621
25277	7.3571	5.9091	0.1	3.1583
25278	7.5411	0.27273	0.1	11.963
25279	7.633	0.18182	0.1	5.0143
25280	7.5411	9.0909e-002	0.1	2.3693
25281	7.5411	0.45455	0.1	24.181
25282	7.633	0.36364	0.1	17.16
25283	7.5411	0.63636	0.1	35.762
25284	7.633	0.54545	0.1	28.503
25285	7.5411	0.81818	0.1	46.878
25286	7.633	0.72727	0.1	39.409
25287	7.5411	1.	0.1	57.47
25288	7.633	0.90909	0.1	49.853
25289	7.5411	1.1818	0.1	67.455
25290	7.633	1.0909	0.1	59.75
25291	7.5411	1.3636	0.1	76.755
25292	7.633	1.2727	0.1	69.025
25293	7.5411	1.5455	0.1	85.294
25294	7.633	1.4545	0.1	77.603
25295	7.5411	1.7273	0.1	93.005
25296	7.633	1.6364	0.1	85.416
25297	7.5411	1.9091	0.1	99.822
25298	7.633	1.8182	0.1	92.401
25299	7.5411	2.0909	0.1	105.69
25300	7.633	2.	0.1	98.499
25301	7.5411	2.2727	0.1	110.56
25302	7.633	2.1818	0.1	103.66
25303	7.5411	2.4545	0.1	114.39
25304	7.633	2.3636	0.1	107.84
25305	7.5411	2.6364	0.1	117.16
25306	7.633	2.5455	0.1	111.01
25307	7.5411	2.8182	0.1	118.82
25308	7.633	2.7273	0.1	113.14
25309	7.5411	3.	0.1	119.38
25310	7.633	2.9091	0.1	114.21
25311	7.5411	3.1818	0.1	118.82
25312	7.633	3.0909	0.1	114.21
25313	7.5411	3.3636	0.1	117.16
25314	7.633	3.2727	0.1	113.14
25315	7.5411	3.5455	0.1	114.39
25316	7.633	3.4545	0.1	111.01
25317	7.5411	3.7273	0.1	110.56
25318	7.633	3.6364	0.1	107.84
25319	7.5411	3.9091	0.1	105.69
25320	7.633	3.8182	0.1	103.66
25321	7.5411	4.0909	0.1	99.822
25322	7.633	4.	0.1	98.499
25323	7.5411	4.2727	0.1	93.005
25324	7.633	4.1818	0.1	92.401
25325	7.5411	4.4545	0.1	85.294
25326	7.633	4.3636	0.1	85.416
25327	7.5411	4.6364	0.1	76.755
25328	7.633	4.5455	0.1	77.603
25329	7.5411	4.8182	0.1	67.455
25330	7.633	4.7273	0.1	69.025
25331	7.5411	5.	0.1	57.47
25332	7.633	4.9091	0.1	59.75
25333	7.5411	5.1818	0.1	46.878
25334	7.633	5.0909	0.1	49.852
25335	7.5411	5.3636	0.1	35.762
25336	7.633	5.2727	0.1	39.409
25337	7.5411	5.5455	0.1	24.181
25338	7.633	5.4545	0.1	28.503
25339	7.5411	5.7273	0.1	11.963
25340	7.633	5.6364	0.1	17.16
25341	7.633	5.8182	0.1	5.0143
25342	7.5411	5.9091	0.1	2.3693
25343	7.725	0.27273	0.1	10.191
25344	7.817	0.18182	0.1	3.7486
25345	7.725	9.0909e-002	0.1	1.6363
25346	7.725	0.45455	0.1	21.491
25347	7.817	0.36364	0.1	15.005
25348	7.725	0.63636	0.1	32.158
25349	7.817	0.54545	0.1	25.457
25350	7.725	0.81818	0.1	42.391
25351	7.817	0.72727	0.1	35.498
25352	7.725	1.	0.1	52.139
25353	7.817	0.90909	0.1	45.109
25354	7.725	1.1818	0.1	61.325
25355	7.817	1.0909	0.1	54.216
25356	7.725	1.3636	0.1	69.878
25357	7.817	1.2727	0.1	62.746
25358	7.725	1.5455	0.1	77.729
25359	7.817	1.4545	0.1	70.634
25360	7.725	1.7273	0.1	84.816
25361	7.817	1.6364	0.1	77.816
25362	7.725	1.9091	0.1	91.081
25363	7.817	1.8182	0.1	84.235
25364	7.725	2.0909	0.1	96.473
25365	7.817	2.	0.1	89.839
25366	7.725	2.2727	0.1	100.95
25367	7.817	2.1818	0.1	94.581
25368	7.725	2.4545	0.1	104.47
25369	7.817	2.3636	0.1	98.423
25370	7.725	2.6364	0.1	107.
25371	7.817	2.5455	0.1	101.33
25372	7.725	2.8182	0.1	108.53
25373	7.817	2.7273	0.1	103.29
25374	7.725	3.	0.1	109.04
25375	7.817	2.9091	0.1	104.27
25376	7.725	3.1818	0.1	108.53
25377	7.817	3.0909	0.1	104.27
25378	7.725	3.3636	0.1	107.
25379	7.817	3.2727	0.1	103.29
25380	7.725	3.5455	0.1	104.47
25381	7.817	3.4545	0.1	101.33
25382	7.725	3.7273	0.1	100.95
25383	7.817	3.6364	0.1	98.423
25384	7.725	3.9091	0.1	96.473
25385	7.817	3.8182	0.1	94.581
25386	7.725	4.0909	0.1	91.081
25387	7.817	4.	0.1	89.839
25388	7.725	4.2727	0.1	84.816
25389	7.817	4.1818	0.1	84.235
25390	7.725	4.4545	0.1	77.729
25391	7.817	4.3636	0.1	77.816
25392	7.725	4.6364	0.1	69.878
25393	7.817	4.5455	0.1	70.634
25394	7.725	4.8182	0.1	61.325
25395	7.817	4.7273	0.1	62.746
25396	7.725	5.	0.1	52.139
25397	7.817	4.9091	0.1	54.216
25398	7.725	5.1818	0.1	42.391
25399	7.817	5.0909	0.1	45.109
25400	7.725	5.3636	0.1	32.158
25401	7.817	5.2727	0.1	35.498
25402	7.725	5.5455	0.1	21.491
25403	7.817	5.4545	0.1	25.457
25404	7.725	5.7273	0.1	10.191
25405	7.817	5.6364	0.1	15.005
25406	7.817	5.8182	0.1	3.7486
25407	7.725	5.9091	0.1	1.6363
25408	7.9089	0.27273	0.1	8.5287
25409	8.0009	0.18182	0.1	2.5708
25410	7.9089	9.0909e-002	0.1	0.97979
25411	7.9089	0.45455	0.1	18.981
25412	8.0009	0.36364	0.1	12.991
25413	7.9089	0.63636	0.1	28.806
25414	8.0009	0.54545	0.1	22.619
25415	7.9089	0.81818	0.1	38.225
25416	8.0009	0.72727	0.1	31.863
25417	7.9089	1.	0.1	47.194
25418	8.0009	0.90909	0.1	40.707
25419	7.9089	1.1818	0.1	55.644
25420	8.0009	1.0909	0.1	49.084
25421	7.9089	1.3636	0.1	63.509
25422	8.0009	1.2727	0.1	56.929
25423	7.9089	1.5455	0.1	70.727
25424	8.0009	1.4545	0.1	64.181
25425	7.9089	1.7273	0.1	77.24
25426	8.0009	1.6364	0.1	70.783
25427	7.9089	1.9091	0.1	82.997
25428	8.0009	1.8182	0.1	76.681
25429	7.9089	2.0909	0.1	87.951
25430	8.0009	2.	0.1	81.829
25431	7.9089	2.2727	0.1	92.061
25432	8.0009	2.1818	0.1	86.185
25433	7.9089	2.4545	0.1	95.293
25434	8.0009	2.3636	0.1	89.714
25435	7.9089	2.6364	0.1	97.621
25436	8.0009	2.5455	0.1	92.386
25437	7.9089	2.8182	0.1	99.026
25438	8.0009	2.7273	0.1	94.18
25439	7.9089	3.	0.1	99.495
25440	8.0009	2.9091	0.1	95.081
25441	7.9089	3.1818	0.1	99.026
25442	8.0009	3.0909	0.1	95.081
25443	7.9089	3.3636	0.1	97.621
25444	8.0009	3.2727	0.1	94.18
25445	7.9089	3.5455	0.1	95.293
25446	8.0009	3.4545	0.1	92.386
25447	7.9089	3.7273	0.1	92.061
25448	8.0009	3.6364	0.1	89.714
25449	7.9089	3.9091	0.1	87.951
25450	8.0009	3.8182	0.1	86.185
25451	7.9089	4.0909	0.1	82.997
25452	8.0009	4.	0.1	81.829
25453	7.9089	4.2727	0.1	77.24
25454	8.0009	4.1818	0.1	76.681
25455	7.9089	4.4545	0.1	70.727
25456	8.0009	4.3636	0.1	70.783
25457	7.9089	4.6364	0.1	63.509
25458	8.0009	4.5455	0.1	64.181
25459	7.9089	4.8182	0.1	55.644
25460	8.0009	4.7273	0.1	56.929
25461	7.9089	5.	0.1	47.194
25462	8.0009	4.9091	0.1	49.084
25463	7.9089	5.1818	0.1	38.225
25464	8.0009	5.0909	0.1	40.707
25465	7.9089	5.3636	0.1	28.806
25466	8.0009	5.2727	0.1	31.863
25467	7.9089	5.5455	0.1	18.981
25468	8.0009	5.4545	0.1	22.619
25469	7.9089	5.7273	0.1	8.5287
25470	8.0009	5.6364	0.1	12.991
25471	8.0009	5.8182	0.1	2.5708
25472	7.9089	5.9091	0.1	0.97979
25473	8.0929	0.27273	0.1	6.9691
25474	8.1848	0.18182	0.1	1.5065
25475	8.0929	9.0909e-002	0.1	0.46776
25476	8.0929	0.45455	0.1	16.64
25477	8.1848	0.36364	0.1	11.108
25478	8.0929	0.63636	0.1	25.687
25479	8.1848	0.54545	0.1	19.977
25480	8.0929	0.81818	0.1	34.355
25481	8.1848	0.72727	0.1	28.484
25482	8.0929	1.	0.1	42.606
25483	8.1848	0.90909	0.1	36.621
25484	8.0929	1.1818	0.1	50.377
25485	8.1848	1.0909	0.1	44.325
25486	8.0929	1.3636	0.1	57.609
25487	8.1848	1.2727	0.1	51.539
25488	8.0929	1.5455	0.1	64.244
25489	8.1848	1.4545	0.1	58.205
25490	8.0929	1.7273	0.1	70.23
25491	8.1848	1.6364	0.1	64.272
25492	8.0929	1.9091	0.1	75.519
25493	8.1848	1.8182	0.1	69.692
25494	8.0929	2.0909	0.1	80.07
25495	8.1848	2.	0.1	74.421
25496	8.0929	2.2727	0.1	83.844
25497	8.1848	2.1818	0.1	78.422
25498	8.0929	2.4545	0.1	86.813
25499	8.1848	2.3636	0.1	81.663
25500	8.0929	2.6364	0.1	88.951
25501	8.1848	2.5455	0.1	84.116
25502	8.0929	2.8182	0.1	90.24
25503	8.1848	2.7273	0.1	85.763
25504	8.0929	3.	0.1	90.672
25505	8.1848	2.9091	0.1	86.59
25506	8.0929	3.1818	0.1	90.24
25507	8.1848	3.0909	0.1	86.59
25508	8.0929	3.3636	0.1	88.951
25509	8.1848	3.2727	0.1	85.763
25510	8.0929	3.5455	0.1	86.813
25511	8.1848	3.4545	0.1	84.116
25512	8.0929	3.7273	0.1	83.844
25513	8.1848	3.6364	0.1	81.663
25514	8.0929	3.9091	0.1	80.07
25515	8.1848	3.8182	0.1	78.422
25516	8.0929	4.0909	0.1	75.519
25517	8.1848	4.	0.1	74.421
25518	8.0929	4.2727	0.1	70.23
25519	8.1848	4.1818	0.1	69.692
25520	8.0929	4.4545	0.1	64.244
25521	8.1848	4.3636	0.1	64.272
25522	8.0929	4.6364	0.1	57.609
25523	8.1848	4.5455	0.1	58.205
25524	8.0929	4.8182	0.1	50.377
25525	8.1848	4.7273	0.1	51.539
25526	8.0929	5.	0.1	42.606
25527	8.1848	4.9091	0.1	44.325
25528	8.0929	5.1818	0.1	34.355
25529	8.1848	5.0909	0.1	36.621
25530	8.0929	5.3636	0.1	25.687
25531	8.1848	5.2727	0.1	28.484
25532	8.0929	5.5455	0.1	16.64
25533	8.1848	5.4545	0.1	19.977
25534	8.0929	5.7273	0.1	6.9691
25535	8.1848	5.6364	0.1	11.108
25536	8.1848	5.8182	0.1	1.5065
25537	8.0929	5.9091	0.1	0.46775
25538	8.2768	0.27273	0.1	5.5072
25539	8.3687	0.18182	0.1	0.66545
25540	8.2768	9.0909e-002	0.1	0.19826
25541	8.2768	0.45455	0.1	14.457
25542	8.3687	0.36364	0.1	9.3487
25543	8.2768	0.63636	0.1	22.786
25544	8.3687	0.54545	0.1	17.517
25545	8.2768	0.81818	0.1	30.76
25546	8.3687	0.72727	0.1	25.343
25547	8.2768	1.	0.1	38.35
25548	8.3687	0.90909	0.1	32.827
25549	8.2768	1.1818	0.1	45.496
25550	8.3687	1.0909	0.1	39.912
25551	8.2768	1.3636	0.1	52.143
25552	8.3687	1.2727	0.1	46.543
25553	8.2768	1.5455	0.1	58.241
25554	8.3687	1.4545	0.1	52.67
25555	8.2768	1.7273	0.1	63.741
25556	8.3687	1.6364	0.1	58.245
25557	8.2768	1.9091	0.1	68.6
25558	8.3687	1.8182	0.1	63.223
25559	8.2768	2.0909	0.1	72.78
25560	8.3687	2.	0.1	67.567
25561	8.2768	2.2727	0.1	76.247
25562	8.3687	2.1818	0.1	71.241
25563	8.2768	2.4545	0.1	78.972
25564	8.3687	2.3636	0.1	74.217
25565	8.2768	2.6364	0.1	80.935
25566	8.3687	2.5455	0.1	76.47
25567	8.2768	2.8182	0.1	82.119
25568	8.3687	2.7273	0.1	77.982
25569	8.2768	3.	0.1	82.515
25570	8.3687	2.9091	0.1	78.741
25571	8.2768	3.1818	0.1	82.119
25572	8.3687	3.0909	0.1	78.741
25573	8.2768	3.3636	0.1	80.935
25574	8.3687	3.2727	0.1	77.982
25575	8.2768	3.5455	0.1	78.972
25576	8.3687	3.4545	0.1	76.47
25577	8.2768	3.7273	0.1	76.247
25578	8.3687	3.6364	0.1	74.217
25579	8.2768	3.9091	0.1	72.78
25580	8.3687	3.8182	0.1	71.241
25581	8.2768	4.0909	0.1	68.6
25582	8.3687	4.	0.1	67.567
25583	8.2768	4.2727	0.1	63.741
25584	8.3687	4.1818	0.1	63.223
25585	8.2768	4.4545	0.1	58.241
25586	8.3687	4.3636	0.1	58.244
25587	8.2768	4.6364	0.1	52.143
25588	8.3687	4.5455	0.1	52.67
25589	8.2768	4.8182	0.1	45.496
25590	8.3687	4.7273	0.1	46.543
25591	8.2768	5.	0.1	38.35
25592	8.3687	4.9091	0.1	39.912
25593	8.2768	5.1818	0.1	30.76
25594	8.3687	5.0909	0.1	32.827
25595	8.2768	5.3636	0.1	22.786
25596	8.3687	5.2727	0.1	25.343
25597	8.2768	5.5455	0.1	14.457
25598	8.3687	5.4545	0.1	17.517
25599	8.2768	5.7273	0.1	5.5072
25600	8.3687	5.6364	0.1	9.3487
25601	8.3687	5.8182	0.1	0.66544
25602	8.2768	5.9091	0.1	0.19826
25603	8.4607	0.27273	0.1	4.138
25604	8.5527	0.18182	0.1	0.25592
25605	8.4607	9.0909e-002	0.1	9.7032e-002
25606	8.4607	0.45455	0.1	12.421
25607	8.5527	0.36364	0.1	7.7046
25608	8.4607	0.63636	0.1	20.087
25609	8.5527	0.54545	0.1	15.225
25610	8.4607	0.81818	0.1	27.422
25611	8.5527	0.72727	0.1	22.424
25612	8.4607	1.	0.1	34.4
25613	8.5527	0.90909	0.1	29.306
25614	8.4607	1.1818	0.1	40.969
25615	8.5527	1.0909	0.1	35.818
25616	8.4607	1.3636	0.1	47.079
25617	8.5527	1.2727	0.1	41.912
25618	8.4607	1.5455	0.1	52.682
25619	8.5527	1.4545	0.1	47.542
25620	8.4607	1.7273	0.1	57.735
25621	8.5527	1.6364	0.1	52.663
25622	8.4607	1.9091	0.1	62.198
25623	8.5527	1.8182	0.1	57.235
25624	8.4607	2.0909	0.1	66.036
25625	8.5527	2.	0.1	61.224
25626	8.4607	2.2727	0.1	69.219
25627	8.5527	2.1818	0.1	64.598
25628	8.4607	2.4545	0.1	71.721
25629	8.5527	2.3636	0.1	67.329
25630	8.4607	2.6364	0.1	73.523
25631	8.5527	2.5455	0.1	69.397
25632	8.4607	2.8182	0.1	74.61
25633	8.5527	2.7273	0.1	70.785
25634	8.4607	3.	0.1	74.974
25635	8.5527	2.9091	0.1	71.482
25636	8.4607	3.1818	0.1	74.61
25637	8.5527	3.0909	0.1	71.482
25638	8.4607	3.3636	0.1	73.523
25639	8.5527	3.2727	0.1	70.785
25640	8.4607	3.5455	0.1	71.721
25641	8.5527	3.4545	0.1	69.397
25642	8.4607	3.7273	0.1	69.219
25643	8.5527	3.6364	0.1	67.329
25644	8.4607	3.9091	0.1	66.036
25645	8.5527	3.8182	0.1	64.598
25646	8.4607	4.0909	0.1	62.198
25647	8.5527	4.	0.1	61.224
25648	8.4607	4.2727	0.1	57.735
25649	8.5527	4.1818	0.1	57.235
25650	8.4607	4.4545	0.1	52.682
25651	8.5527	4.3636	0.1	52.663
25652	8.4607	4.6364	0.1	47.079
25653	8.5527	4.5455	0.1	47.542
25654	8.4607	4.8182	0.1	40.969
25655	8.5527	4.7273	0.1	41.912
25656	8.4607	5.	0.1	34.4
25657	8.5527	4.9091	0.1	35.818
25658	8.4607	5.1818	0.1	27.422
25659	8.5527	5.0909	0.1	29.306
25660	8.4607	5.3636	0.1	20.087
25661	8.5527	5.2727	0.1	22.424
25662	8.4607	5.5455	0.1	12.421
25663	8.5527	5.4545	0.1	15.225
25664	8.4607	5.7273	0.1	4.138
25665	8.5527	5.6364	0.1	7.7046
25666	8.5527	5.8182	0.1	0.25592
25667	8.4607	5.9091	0.1	9.7033e-002
25668	8.6446	0.27273	0.1	2.858
25669	8.7366	0.18182	0.1	0.12596
25670	8.6446	9.0909e-002	0.1	5.4956e-002
25671	8.6446	0.45455	0.1	10.522
25672	8.7366	0.36364	0.1	6.1681
25673	8.6446	0.63636	0.1	17.575
25674	8.7366	0.54545	0.1	13.09
25675	8.6446	0.81818	0.1	24.32
25676	8.7366	0.72727	0.1	19.71
25677	8.6446	1.	0.1	30.735
25678	8.7366	0.90909	0.1	26.035
25679	8.6446	1.1818	0.1	36.772
25680	8.7366	1.0909	0.1	32.02
25681	8.6446	1.3636	0.1	42.385
25682	8.7366	1.2727	0.1	37.619
25683	8.6446	1.5455	0.1	47.532
25684	8.7366	1.4545	0.1	42.79
25685	8.6446	1.7273	0.1	52.173
25686	8.7366	1.6364	0.1	47.492
25687	8.6446	1.9091	0.1	56.271
25688	8.7366	1.8182	0.1	51.691
25689	8.6446	2.0909	0.1	59.795
25690	8.7366	2.	0.1	55.352
25691	8.6446	2.2727	0.1	62.716
25692	8.7366	2.1818	0.1	58.449
25693	8.6446	2.4545	0.1	65.013
25694	8.7366	2.3636	0.1	60.956
25695	8.6446	2.6364	0.1	66.667
25696	8.7366	2.5455	0.1	62.853
25697	8.6446	2.8182	0.1	67.665
25698	8.7366	2.7273	0.1	64.127
25699	8.6446	3.	0.1	67.998
25700	8.7366	2.9091	0.1	64.766
25701	8.6446	3.1818	0.1	67.665
25702	8.7366	3.0909	0.1	64.766
25703	8.6446	3.3636	0.1	66.667
25704	8.7366	3.2727	0.1	64.127
25705	8.6446	3.5455	0.1	65.013
25706	8.7366	3.4545	0.1	62.853
25707	8.6446	3.7273	0.1	62.716
25708	8.7366	3.6364	0.1	60.956
25709	8.6446	3.9091	0.1	59.794
25710	8.7366	3.8182	0.1	58.449
25711	8.6446	4.0909	0.1	56.271
25712	8.7366	4.	0.1	55.352
25713	8.6446	4.2727	0.1	52.173
25714	8.7366	4.1818	0.1	51.691
25715	8.6446	4.4545	0.1	47.532
25716	8.7366	4.3636	0.1	47.492
25717	8.6446	4.6364	0.1	42.385
25718	8.7366	4.5455	0.1	42.79
25719	8.6446	4.8182	0.1	36.772
25720	8.7366	4.7273	0.1	37.619
25721	8.6446	5.	0.1	30.735
25722	8.7366	4.9091	0.1	32.02
25723	8.6446	5.1818	0.1	24.32
25724	8.7366	5.0909	0.1	26.035
25725	8.6446	5.3636	0.1	17.575
25726	8.7366	5.2727	0.1	19.71
25727	8.6446	5.5455	0.1	10.522
25728	8.7366	5.4545	0.1	13.09
25729	8.6446	5.7273	0.1	2.858
25730	8.7366	5.6364	0.1	6.1681
25731	8.7366	5.8182	0.1	0.12596
25732	8.6446	5.9091	0.1	5.4957e-002
25733	8.8286	0.27273	0.1	1.6687
25734	8.9205	0.18182	0.1	7.5625e-002
25735	8.8286	9.0909e-002	0.1	3.3928e-002
25736	8.8286	0.45455	0.1	8.7508
25737	8.9205	0.36364	0.1	4.732
25738	8.8286	0.63636	0.1	15.238
25739	8.9205	0.54545	0.1	11.101
25740	8.8286	0.81818	0.1	21.438
25741	8.9205	0.72727	0.1	17.185
25742	8.8286	1.	0.1	27.332
25743	8.9205	0.90909	0.1	22.997
25744	8.8286	1.1818	0.1	32.878
25745	8.9205	1.0909	0.1	28.495
25746	8.8286	1.3636	0.1	38.034
25747	8.9205	1.2727	0.1	33.637
25748	8.8286	1.5455	0.1	42.76
25749	8.9205	1.4545	0.1	38.384
25750	8.8286	1.7273	0.1	47.02
25751	8.9205	1.6364	0.1	42.701
25752	8.8286	1.9091	0.1	50.782
25753	8.9205	1.8182	0.1	46.554
25754	8.8286	2.0909	0.1	54.016
25755	8.9205	2.	0.1	49.914
25756	8.8286	2.2727	0.1	56.697
25757	8.9205	2.1818	0.1	52.756
25758	8.8286	2.4545	0.1	58.805
25759	8.9205	2.3636	0.1	55.055
25760	8.8286	2.6364	0.1	60.322
25761	8.9205	2.5455	0.1	56.796
25762	8.8286	2.8182	0.1	61.237
25763	8.9205	2.7273	0.1	57.964
25764	8.8286	3.	0.1	61.543
25765	8.9205	2.9091	0.1	58.551
25766	8.8286	3.1818	0.1	61.237
25767	8.9205	3.0909	0.1	58.551
25768	8.8286	3.3636	0.1	60.322
25769	8.9205	3.2727	0.1	57.964
25770	8.8286	3.5455	0.1	58.805
25771	8.9205	3.4545	0.1	56.796
25772	8.8286	3.7273	0.1	56.697
25773	8.9205	3.6364	0.1	55.055
25774	8.8286	3.9091	0.1	54.016
25775	8.9205	3.8182	0.1	52.756
25776	8.8286	4.0909	0.1	50.782
25777	8.9205	4.	0.1	49.914
25778	8.8286	4.2727	0.1	47.02
25779	8.9205	4.1818	0.1	46.554
25780	8.8286	4.4545	0.1	42.76
25781	8.9205	4.3636	0.1	42.701
25782	8.8286	4.6364	0.1	38.034
25783	8.9205	4.5455	0.1	38.384
25784	8.8286	4.8182	0.1	32.878
25785	8.9205	4.7273	0.1	33.637
25786	8.8286	5.	0.1	27.332
25787	8.9205	4.9091	0.1	28.495
25788	8.8286	5.1818	0.1	21.438
25789	8.9205	5.0909	0.1	22.997
25790	8.8286	5.3636	0.1	15.238
25791	8.9205	5.2727	0.1	17.185
25792	8.8286	5.5455	0.1	8.7508
25793	8.9205	5.4545	0.1	11.101
25794	8.8286	5.7273	0.1	1.6687
25795	8.9205	5.6364	0.1	4.7319
25796	8.9205	5.8182	0.1	7.5626e-002
25797	8.8286	5.9091	0.1	3.3929e-002
25798	9.0125	0.27273	0.1	0.61143
25799	9.1045	0.18182	0.1	5.0656e-002
25800	9.0125	9.0909e-002	0.1	2.2024e-002
25801	9.0125	0.45455	0.1	7.0978
25802	9.1045	0.36364	0.1	3.3893
25803	9.0125	0.63636	0.1	13.063
25804	9.1045	0.54545	0.1	9.2477
25805	9.0125	0.81818	0.1	18.759
25806	9.1045	0.72727	0.1	14.837
25807	9.0125	1.	0.1	24.173
25808	9.1045	0.90909	0.1	20.174
25809	9.0125	1.1818	0.1	29.265
25810	9.1045	1.0909	0.1	25.222
25811	9.0125	1.3636	0.1	33.998
25812	9.1045	1.2727	0.1	29.941
25813	9.0125	1.5455	0.1	38.336
25814	9.1045	1.4545	0.1	34.298
25815	9.0125	1.7273	0.1	42.246
25816	9.1045	1.6364	0.1	38.259
25817	9.0125	1.9091	0.1	45.697
25818	9.1045	1.8182	0.1	41.794
25819	9.0125	2.0909	0.1	48.664
25820	9.1045	2.	0.1	44.876
25821	9.0125	2.2727	0.1	51.124
25822	9.1045	2.1818	0.1	47.481
25823	9.0125	2.4545	0.1	53.057
25824	9.1045	2.3636	0.1	49.59
25825	9.0125	2.6364	0.1	54.448
25826	9.1045	2.5455	0.1	51.187
25827	9.0125	2.8182	0.1	55.287
25828	9.1045	2.7273	0.1	52.258
25829	9.0125	3.	0.1	55.568
25830	9.1045	2.9091	0.1	52.795
25831	9.0125	3.1818	0.1	55.287
25832	9.1045	3.0909	0.1	52.795
25833	9.0125	3.3636	0.1	54.448
25834	9.1045	3.2727	0.1	52.258
25835	9.0125	3.5455	0.1	53.057
25836	9.1045	3.4545	0.1	51.187
25837	9.0125	3.7273	0.1	51.124
25838	9.1045	3.6364	0.1	49.59
25839	9.0125	3.9091	0.1	48.664
25840	9.1045	3.8182	0.1	47.481
25841	9.0125	4.0909	0.1	45.697
25842	9.1045	4.	0.1	44.876
25843	9.0125	4.2727	0.1	42.246
25844	9.1045	4.1818	0.1	41.794
25845	9.0125	4.4545	0.1	38.336
25846	9.1045	4.3636	0.1	38.259
25847	9.0125	4.6364	0.1	33.998
25848	9.1045	4.5455	0.1	34.298
25849	9.0125	4.8182	0.1	29.265
25850	9.1045	4.7273	0.1	29.941
25851	9.0125	5.	0.1	24.173
25852	9.1045	4.9091	0.1	25.222
25853	9.0125	5.1818	0.1	18.759
25854	9.1045	5.0909	0.1	20.174
25855	9.0125	5.3636	0.1	13.063
25856	9.1045	5.2727	0.1	14.837
25857	9.0125	5.5455	0.1	7.0978
25858	9.1045	5.4545	0.1	9.2477
25859	9.0125	5.7273	0.1	0.61143
25860	9.1045	5.6364	0.1	3.3893
25861	9.1045	5.8182	0.1	5.0657e-002
25862	9.0125	5.9091	0.1	2.2025e-002
25863	9.1964	0.27273	0.1	9.2722e-002
25864	9.2884	0.18182	0.1	3.6238e-002
25865	9.1964	9.0909e-002	0.1	1.4749e-002
25866	9.1964	0.45455	0.1	5.5549
25867	9.2884	0.36364	0.1	2.1339
25868	9.1964	0.63636	0.1	11.037
25869	9.2884	0.54545	0.1	7.5194
25870	9.1964	0.81818	0.1	16.267
25871	9.2884	0.72727	0.1	12.651
25872	9.1964	1.	0.1	21.237
25873	9.2884	0.90909	0.1	17.55
25874	9.1964	1.1818	0.1	25.911
25875	9.2884	1.0909	0.1	22.181
25876	9.1964	1.3636	0.1	30.254
25877	9.2884	1.2727	0.1	26.511
25878	9.1964	1.5455	0.1	34.233
25879	9.2884	1.4545	0.1	30.507
25880	9.1964	1.7273	0.1	37.819
25881	9.2884	1.6364	0.1	34.139
25882	9.1964	1.9091	0.1	40.984
25883	9.2884	1.8182	0.1	37.38
25884	9.1964	2.0909	0.1	43.704
25885	9.2884	2.	0.1	40.205
25886	9.1964	2.2727	0.1	45.959
25887	9.2884	2.1818	0.1	42.593
25888	9.1964	2.4545	0.1	47.731
25889	9.2884	2.3636	0.1	44.526
25890	9.1964	2.6364	0.1	49.007
25891	9.2884	2.5455	0.1	45.989
25892	9.1964	2.8182	0.1	49.776
25893	9.2884	2.7273	0.1	46.97
25894	9.1964	3.	0.1	50.033
25895	9.2884	2.9091	0.1	47.463
25896	9.1964	3.1818	0.1	49.776
25897	9.2884	3.0909	0.1	47.463
25898	9.1964	3.3636	0.1	49.007
25899	9.2884	3.2727	0.1	46.97
25900	9.1964	3.5455	0.1	47.731
25901	9.2884	3.4545	0.1	45.989
25902	9.1964	3.7273	0.1	45.959
25903	9.2884	3.6364	0.1	44.526
25904	9.1964	3.9091	0.1	43.704
25905	9.2884	3.8182	0.1	42.593
25906	9.1964	4.0909	0.1	40.984
25907	9.2884	4.	0.1	40.205
25908	9.1964	4.2727	0.1	37.819
25909	9.2884	4.1818	0.1	37.38
25910	9.1964	4.4545	0.1	34.233
25911	9.2884	4.3636	0.1	34.139
25912	9.1964	4.6364	0.1	30.254
25913	9.2884	4.5455	0.1	30.507
25914	9.1964	4.8182	0.1	25.911
25915	9.2884	4.7273	0.1	26.511
25916	9.1964	5.	0.1	21.237
25917	9.2884	4.9091	0.1	22.181
25918	9.1964	5.1818	0.1	16.267
25919	9.2884	5.0909	0.1	17.55
25920	9.1964	5.3636	0.1	11.037
25921	9.2884	5.2727	0.1	12.651
25922	9.1964	5.5455	0.1	5.5549
25923	9.2884	5.4545	0.1	7.5194
25924	9.1964	5.7273	0.1	9.2723e-002
25925	9.2884	5.6364	0.1	2.1339
25926	9.2884	5.8182	0.1	3.6239e-002
25927	9.1964	5.9091	0.1	1.475e-002
25928	9.3804	0.27273	0.1	2.6945e-002
25929	9.4723	0.18182	0.1	2.7078e-002
25930	9.3804	9.0909e-002	0.1	1.0078e-002
25931	9.3804	0.45455	0.1	4.114
25932	9.4723	0.36364	0.1	0.96091
25933	9.3804	0.63636	0.1	9.1497
25934	9.4723	0.54545	0.1	5.9072
25935	9.3804	0.81818	0.1	13.949
25936	9.4723	0.72727	0.1	10.616
25937	9.3804	1.	0.1	18.509
25938	9.4723	0.90909	0.1	15.109
25939	9.3804	1.1818	0.1	22.795
25940	9.4723	1.0909	0.1	19.355
25941	9.3804	1.3636	0.1	26.777
25942	9.4723	1.2727	0.1	23.324
25943	9.3804	1.5455	0.1	30.425
25944	9.4723	1.4545	0.1	26.987
25945	9.3804	1.7273	0.1	33.712
25946	9.4723	1.6364	0.1	30.315
25947	9.3804	1.9091	0.1	36.613
25948	9.4723	1.8182	0.1	33.284
25949	9.3804	2.0909	0.1	39.105
25950	9.4723	2.	0.1	35.872
25951	9.3804	2.2727	0.1	41.171
25952	9.4723	2.1818	0.1	38.059
25953	9.3804	2.4545	0.1	42.795
25954	9.4723	2.3636	0.1	39.829
25955	9.3804	2.6364	0.1	43.963
25956	9.4723	2.5455	0.1	41.169
25957	9.3804	2.8182	0.1	44.668
25958	9.4723	2.7273	0.1	42.067
25959	9.3804	3.	0.1	44.903
25960	9.4723	2.9091	0.1	42.518
25961	9.3804	3.1818	0.1	44.668
25962	9.4723	3.0909	0.1	42.518
25963	9.3804	3.3636	0.1	43.963
25964	9.4723	3.2727	0.1	42.067
25965	9.3804	3.5455	0.1	42.795
25966	9.4723	3.4545	0.1	41.169
25967	9.3804	3.7273	0.1	41.171
25968	9.4723	3.6364	0.1	39.829
25969	9.3804	3.9091	0.1	39.105
25970	9.4723	3.8182	0.1	38.059
25971	9.3804	4.0909	0.1	36.613
25972	9.4723	4.	0.1	35.872
25973	9.3804	4.2727	0.1	33.712
25974	9.4723	4.1818	0.1	33.284
25975	9.3804	4.4545	0.1	30.425
25976	9.4723	4.3636	0.1	30.315
25977	9.3804	4.6364	0.1	26.777
25978	9.4723	4.5455	0.1	26.987
25979	9.3804	4.8182	0.1	22.795
25980	9.4723	4.7273	0.1	23.324
25981	9.3804	5.	0.1	18.509
25982	9.4723	4.9091	0.1	19.355
25983	9.3804	5.1818	0.1	13.949
25984	9.4723	5.0909	0.1	15.109
25985	9.3804	5.3636	0.1	9.1497
25986	9.4723	5.2727	0.1	10.616
25987	9.3804	5.5455	0.1	4.114
25988	9.4723	5.4545	0.1	5.9071
25989	9.3804	5.7273	0.1	2.6946e-002
25990	9.4723	5.6364	0.1	0.9609
25991	9.4723	5.8182	0.1	2.7079e-002
25992	9.3804	5.9091	0.1	1.0079e-002
25993	9.5643	0.27273	0.1	1.1142e-002
25994	9.6563	0.18182	0.1	2.0875e-002
25995	9.5643	9.0909e-002	0.1	6.9921e-003
25996	9.5643	0.45455	0.1	2.7677
25997	9.6563	0.36364	0.1	1.1312e-002
25998	9.5643	0.63636	0.1	7.3901
25999	9.6563	0.54545	0.1	4.4022
26000	9.5643	0.81818	0.1	11.791
26001	9.6563	0.72727	0.1	8.719
26002	9.5643	1.	0.1	15.971
26003	9.6563	0.90909	0.1	12.836
26004	9.5643	1.1818	0.1	19.899
26005	9.6563	1.0909	0.1	16.727
26006	9.5643	1.3636	0.1	23.548
26007	9.6563	1.2727	0.1	20.362
26008	9.5643	1.5455	0.1	26.889
26009	9.6563	1.4545	0.1	23.716
26010	9.5643	1.7273	0.1	29.9
26011	9.6563	1.6364	0.1	26.763
26012	9.5643	1.9091	0.1	32.556
26013	9.6563	1.8182	0.1	29.481
26014	9.5643	2.0909	0.1	34.838
26015	9.6563	2.	0.1	31.849
26016	9.5643	2.2727	0.1	36.729
26017	9.6563	2.1818	0.1	33.851
26018	9.5643	2.4545	0.1	38.215
26019	9.6563	2.3636	0.1	35.47
26020	9.5643	2.6364	0.1	39.285
26021	9.6563	2.5455	0.1	36.696
26022	9.5643	2.8182	0.1	39.93
26023	9.6563	2.7273	0.1	37.518
26024	9.5643	3.	0.1	40.145
26025	9.6563	2.9091	0.1	37.931
26026	9.5643	3.1818	0.1	39.93
26027	9.6563	3.0909	0.1	37.931
26028	9.5643	3.3636	0.1	39.285
26029	9.6563	3.2727	0.1	37.518
26030	9.5643	3.5455	0.1	38.215
26031	9.6563	3.4545	0.1	36.696
26032	9.5643	3.7273	0.1	36.729
26033	9.6563	3.6364	0.1	35.47
26034	9.5643	3.9091	0.1	34.838
26035	9.6563	3.8182	0.1	33.851
26036	9.5643	4.0909	0.1	32.556
26037	9.6563	4.	0.1	31.849
26038	9.5643	4.2727	0.1	29.9
26039	9.6563	4.1818	0.1	29.481
26040	9.5643	4.4545	0.1	26.889
26041	9.6563	4.3636	0.1	26.763
26042	9.5643	4.6364	0.1	23.548
26043	9.6563	4.5455	0.1	23.716
26044	9.5643	4.8182	0.1	19.899
26045	9.6563	4.7273	0.1	20.362
26046	9.5643	5.	0.1	15.971
26047	9.6563	4.9091	0.1	16.727
26048	9.5643	5.1818	0.1	11.791
26049	9.6563	5.0909	0.1	12.836
26050	9.5643	5.3636	0.1	7.3901
26051	9.6563	5.2727	0.1	8.719
26052	9.5643	5.5455	0.1	2.7677
26053	9.6563	5.4545	0.1	4.4022
26054	9.5643	5.7273	0.1	1.1143e-002
26055	9.6563	5.6364	0.1	1.1313e-002
26056	9.6563	5.8182	0.1	2.0876e-002
26057	9.5643	5.9091	0.1	6.9923e-003
26058	9.7482	0.27273	0.1	4.9994e-003
26059	9.8402	0.18182	0.1	1.6479e-002
26060	9.7482	9.0909e-002	0.1	4.9233e-003
26061	9.7482	0.45455	0.1	1.5088
26062	9.8402	0.36364	0.1	-1.1545e-002
26063	9.7482	0.63636	0.1	5.7486
26064	9.8402	0.54545	0.1	2.9964
26065	9.7482	0.81818	0.1	9.7808
26066	9.8402	0.72727	0.1	6.9502
26067	9.7482	1.	0.1	13.608
26068	9.8402	0.90909	0.1	10.719
26069	9.7482	1.1818	0.1	17.205
26070	9.8402	1.0909	0.1	14.28
26071	9.7482	1.3636	0.1	20.545
26072	9.8402	1.2727	0.1	17.606
26073	9.7482	1.5455	0.1	23.603
26074	9.8402	1.4545	0.1	20.674
26075	9.7482	1.7273	0.1	26.358
26076	9.8402	1.6364	0.1	23.461
26077	9.7482	1.9091	0.1	28.788
26078	9.8402	1.8182	0.1	25.946
26079	9.7482	2.0909	0.1	30.875
26080	9.8402	2.	0.1	28.111
26081	9.7482	2.2727	0.1	32.605
26082	9.8402	2.1818	0.1	29.941
26083	9.7482	2.4545	0.1	33.964
26084	9.8402	2.3636	0.1	31.422
26085	9.7482	2.6364	0.1	34.942
26086	9.8402	2.5455	0.1	32.542
26087	9.7482	2.8182	0.1	35.532
26088	9.8402	2.7273	0.1	33.293
26089	9.7482	3.	0.1	35.729
26090	9.8402	2.9091	0.1	33.67
26091	9.7482	3.1818	0.1	35.532
26092	9.8402	3.0909	0.1	33.67
26093	9.7482	3.3636	0.1	34.942
26094	9.8402	3.2727	0.1	33.293
26095	9.7482	3.5455	0.1	33.964
26096	9.8402	3.4545	0.1	32.542
26097	9.7482	3.7273	0.1	32.605
26098	9.8402	3.6364	0.1	31.422
26099	9.7482	3.9091	0.1	30.875
26100	9.8402	3.8182	0.1	29.941
26101	9.7482	4.0909	0.1	28.788
26102	9.8402	4.	0.1	28.111
26103	9.7482	4.2727	0.1	26.358
26104	9.8402	4.1818	0.1	25.946
26105	9.7482	4.4545	0.1	23.603
26106	9.8402	4.3636	0.1	23.461
26107	9.7482	4.6364	0.1	20.545
26108	9.8402	4.5455	0.1	20.674
26109	9.7482	4.8182	0.1	17.205
26110	9.8402	4.7273	0.1	17.606
26111	9.7482	5.	0.1	13.608
26112	9.8402	4.9091	0.1	14.28
26113	9.7482	5.1818	0.1	9.7808
26114	9.8402	5.0909	0.1	10.719
26115	9.7482	5.3636	0.1	5.7486
26116	9.8402	5.2727	0.1	6.9501
26117	9.7482	5.5455	0.1	1.5088
26118	9.8402	5.4545	0.1	2.9964
26119	9.7482	5.7273	0.1	5.0005e-003
26120	9.8402	5.6364	0.1	-1.1544e-002
26121	9.8402	5.8182	0.1	1.648e-002
26122	9.7482	5.9091	0.1	4.9243e-003
26123	9.9321	0.27273	0.1	2.1859e-003
26124	10.024	0.18182	0.1	1.3235e-002
26125	9.9321	9.0909e-002	0.1	3.5405e-003
26126	9.9321	0.45455	0.1	0.33078
26127	10.024	0.36364	0.1	-1.111e-002
26128	9.9321	0.63636	0.1	4.2161
26129	10.024	0.54545	0.1	1.6823
26130	9.9321	0.81818	0.1	7.9062
26131	10.024	0.72727	0.1	5.2991
26132	9.9321	1.	0.1	11.408
26133	10.024	0.90909	0.1	8.7456
26134	9.9321	1.1818	0.1	14.697
26135	10.024	1.0909	0.1	12.
26136	9.9321	1.3636	0.1	17.751
26137	10.024	1.2727	0.1	15.04
26138	9.9321	1.5455	0.1	20.546
26139	10.024	1.4545	0.1	17.842
26140	9.9321	1.7273	0.1	23.064
26141	10.024	1.6364	0.1	20.388
26142	9.9321	1.9091	0.1	25.284
26143	10.024	1.8182	0.1	22.657
26144	9.9321	2.0909	0.1	27.191
26145	10.024	2.	0.1	24.635
26146	9.9321	2.2727	0.1	28.772
26147	10.024	2.1818	0.1	26.305
26148	9.9321	2.4545	0.1	30.013
26149	10.024	2.3636	0.1	27.657
26150	9.9321	2.6364	0.1	30.906
26151	10.024	2.5455	0.1	28.679
26152	9.9321	2.8182	0.1	31.445
26153	10.024	2.7273	0.1	29.365
26154	9.9321	3.	0.1	31.625
26155	10.024	2.9091	0.1	29.709
26156	9.9321	3.1818	0.1	31.445
26157	10.024	3.0909	0.1	29.709
26158	9.9321	3.3636	0.1	30.906
26159	10.024	3.2727	0.1	29.365
26160	9.9321	3.5455	0.1	30.013
26161	10.024	3.4545	0.1	28.679
26162	9.9321	3.7273	0.1	28.772
26163	10.024	3.6364	0.1	27.657
26164	9.9321	3.9091	0.1	27.191
26165	10.024	3.8182	0.1	26.305
26166	9.9321	4.0909	0.1	25.284
26167	10.024	4.	0.1	24.635
26168	9.9321	4.2727	0.1	23.064
26169	10.024	4.1818	0.1	22.657
26170	9.9321	4.4545	0.1	20.546
26171	10.024	4.3636	0.1	20.388
26172	9.9321	4.6364	0.1	17.751
26173	10.024	4.5455	0.1	17.842
26174	9.9321	4.8182	0.1	14.697
26175	10.024	4.7273	0.1	15.04
26176	9.9321	5.	0.1	11.408
26177	10.024	4.9091	0.1	12.
26178	9.9321	5.1818	0.1	7.9061
26179	10.024	5.0909	0.1	8.7456
26180	9.9321	5.3636	0.1	4.2161
26181	10.024	5.2727	0.1	5.299
26182	9.9321	5.5455	0.1	0.33076
26183	10.024	5.4545	0.1	1.6822
26184	9.9321	5.7273	0.1	2.1867e-003
26185	10.024	5.6364	0.1	-1.1109e-002
26186	10.024	5.8182	0.1	1.3236e-002
26187	9.9321	5.9091	0.1	3.5412e-003
26188	10.116	0.27273	0.1	8.0956e-004
26189	10.208	0.18182	0.1	1.0753e-002
26190	10.116	9.0909e-002	0.1	2.5813e-003
26191	10.116	0.45455	0.1	-6.6661e-003
26192	10.208	0.36364	0.1	-9.7275e-003
26193	10.116	0.63636	0.1	2.784
26194	10.208	0.54545	0.1	0.45555
26195	10.116	0.81818	0.1	6.1564
26196	10.208	0.72727	0.1	3.7564
26197	10.116	1.	0.1	9.3554
26198	10.208	0.90909	0.1	6.9031
26199	10.116	1.1818	0.1	12.36
26200	10.208	1.0909	0.1	9.8736
26201	10.116	1.3636	0.1	15.148
26202	10.208	1.2727	0.1	12.647
26203	10.116	1.5455	0.1	17.7
26204	10.208	1.4545	0.1	15.204
26205	10.116	1.7273	0.1	19.997
26206	10.208	1.6364	0.1	17.525
26207	10.116	1.9091	0.1	22.023
26208	10.208	1.8182	0.1	19.595
26209	10.116	2.0909	0.1	23.763
26210	10.208	2.	0.1	21.397
26211	10.116	2.2727	0.1	25.205
26212	10.208	2.1818	0.1	22.92
26213	10.116	2.4545	0.1	26.337
26214	10.208	2.3636	0.1	24.151
26215	10.116	2.6364	0.1	27.152
26216	10.208	2.5455	0.1	25.083
26217	10.116	2.8182	0.1	27.643
26218	10.208	2.7273	0.1	25.708
26219	10.116	3.	0.1	27.807
26220	10.208	2.9091	0.1	26.022
26221	10.116	3.1818	0.1	27.643
26222	10.208	3.0909	0.1	26.022
26223	10.116	3.3636	0.1	27.152
26224	10.208	3.2727	0.1	25.708
26225	10.116	3.5455	0.1	26.337
26226	10.208	3.4545	0.1	25.083
26227	10.116	3.7273	0.1	25.205
26228	10.208	3.6364	0.1	24.151
26229	10.116	3.9091	0.1	23.763
26230	10.208	3.8182	0.1	22.92
26231	10.116	4.0909	0.1	22.023
26232	10.208	4.	0.1	21.397
26233	10.116	4.2727	0.1	19.997
26234	10.208	4.1818	0.1	19.595
26235	10.116	4.4545	0.1	17.7
26236	10.208	4.3636	0.1	17.525
26237	10.116	4.6364	0.1	15.148
26238	10.208	4.5455	0.1	15.204
26239	10.116	4.8182	0.1	12.36
26240	10.208	4.7273	0.1	12.647
26241	10.116	5.	0.1	9.3553
26242	10.208	4.9091	0.1	9.8736
26243	10.116	5.1818	0.1	6.1564
26244	10.208	5.0909	0.1	6.903
26245	10.116	5.3636	0.1	2.784
26246	10.208	5.2727	0.1	3.7564
26247	10.116	5.5455	0.1	-6.665e-003
26248	10.208	5.4545	0.1	0.45552
26249	10.116	5.7273	0.1	8.111e-004
26250	10.208	5.6364	0.1	-9.7263e-003
26251	10.208	5.8182	0.1	1.0754e-002
26252	10.116	5.9091	0.1	2.5828e-003
26253	10.3	0.27273	0.1	1.8084e-004
26254	10.392	0.18182	0.1	8.8541e-003
26255	10.3	9.0909e-002	0.1	1.9345e-003
26256	10.3	0.45455	0.1	-5.4557e-003
26257	10.392	0.36364	0.1	-8.15e-003
26258	10.3	0.63636	0.1	1.4453
26259	10.392	0.54545	0.1	2.053e-003
26260	10.3	0.81818	0.1	4.5215
26261	10.392	0.72727	0.1	2.314
26262	10.3	1.	0.1	7.4391
26263	10.392	0.90909	0.1	5.1811
26264	10.3	1.1818	0.1	10.178
26265	10.392	1.0909	0.1	7.8874
26266	10.3	1.3636	0.1	12.72
26267	10.392	1.2727	0.1	10.413
26268	10.3	1.5455	0.1	15.045
26269	10.392	1.4545	0.1	12.741
26270	10.3	1.7273	0.1	17.139
26271	10.392	1.6364	0.1	14.854
26272	10.3	1.9091	0.1	18.984
26273	10.392	1.8182	0.1	16.738
26274	10.3	2.0909	0.1	20.569
26275	10.392	2.	0.1	18.378
26276	10.3	2.2727	0.1	21.882
26277	10.392	2.1818	0.1	19.763
26278	10.3	2.4545	0.1	22.913
26279	10.392	2.3636	0.1	20.884
26280	10.3	2.6364	0.1	23.654
26281	10.392	2.5455	0.1	21.731
26282	10.3	2.8182	0.1	24.102
26283	10.392	2.7273	0.1	22.3
26284	10.3	3.	0.1	24.251
26285	10.392	2.9091	0.1	22.585
26286	10.3	3.1818	0.1	24.102
26287	10.392	3.0909	0.1	22.585
26288	10.3	3.3636	0.1	23.654
26289	10.392	3.2727	0.1	22.3
26290	10.3	3.5455	0.1	22.913
26291	10.392	3.4545	0.1	21.731
26292	10.3	3.7273	0.1	21.882
26293	10.392	3.6364	0.1	20.884
26294	10.3	3.9091	0.1	20.569
26295	10.392	3.8182	0.1	19.763
26296	10.3	4.0909	0.1	18.984
26297	10.392	4.	0.1	18.378
26298	10.3	4.2727	0.1	17.139
26299	10.392	4.1818	0.1	16.738
26300	10.3	4.4545	0.1	15.045
26301	10.392	4.3636	0.1	14.854
26302	10.3	4.6364	0.1	12.72
26303	10.392	4.5455	0.1	12.741
26304	10.3	4.8182	0.1	10.178
26305	10.392	4.7273	0.1	10.413
26306	10.3	5.	0.1	7.4391
26307	10.392	4.9091	0.1	7.8873
26308	10.3	5.1818	0.1	4.5215
26309	10.392	5.0909	0.1	5.1811
26310	10.3	5.3636	0.1	1.4453
26311	10.392	5.2727	0.1	2.314
26312	10.3	5.5455	0.1	-5.4554e-003
26313	10.392	5.4545	0.1	2.0526e-003
26314	10.3	5.7273	0.1	1.8162e-004
26315	10.392	5.6364	0.1	-8.1489e-003
26316	10.392	5.8182	0.1	8.8549e-003
26317	10.3	5.9091	0.1	1.9351e-003
26318	10.484	0.27273	0.1	4.5195e-005
26319	10.576	0.18182	0.1	7.3918e-003
26320	10.484	9.0909e-002	0.1	1.5863e-003
26321	10.484	0.45455	0.1	-4.2603e-003
26322	10.576	0.36364	0.1	-6.5384e-003
26323	10.484	0.63636	0.1	0.21438
26324	10.576	0.54545	0.1	4.3107e-004
26325	10.484	0.81818	0.1	2.9924
26326	10.576	0.72727	0.1	0.96694
26327	10.484	1.	0.1	5.6478
26328	10.576	0.90909	0.1	3.5699
26329	10.484	1.1818	0.1	8.1403
26330	10.576	1.0909	0.1	6.0297
26331	10.484	1.3636	0.1	10.452
26332	10.576	1.2727	0.1	8.3251
26333	10.484	1.5455	0.1	12.567
26334	10.576	1.4545	0.1	10.44
26335	10.484	1.7273	0.1	14.47
26336	10.576	1.6364	0.1	12.359
26337	10.484	1.9091	0.1	16.148
26338	10.576	1.8182	0.1	14.069
26339	10.484	2.0909	0.1	17.588
26340	10.576	2.	0.1	15.558
26341	10.484	2.2727	0.1	18.781
26342	10.576	2.1818	0.1	16.816
26343	10.484	2.4545	0.1	19.718
26344	10.576	2.3636	0.1	17.833
26345	10.484	2.6364	0.1	20.392
26346	10.576	2.5455	0.1	18.602
26347	10.484	2.8182	0.1	20.798
26348	10.576	2.7273	0.1	19.117
26349	10.484	3.	0.1	20.934
26350	10.576	2.9091	0.1	19.376
26351	10.484	3.1818	0.1	20.798
26352	10.576	3.0909	0.1	19.376
26353	10.484	3.3636	0.1	20.392
26354	10.576	3.2727	0.1	19.117
26355	10.484	3.5455	0.1	19.718
26356	10.576	3.4545	0.1	18.602
26357	10.484	3.7273	0.1	18.781
26358	10.576	3.6364	0.1	17.833
26359	10.484	3.9091	0.1	17.588
26360	10.576	3.8182	0.1	16.816
26361	10.484	4.0909	0.1	16.148
26362	10.576	4.	0.1	15.558
26363	10.484	4.2727	0.1	14.47
26364	10.576	4.1818	0.1	14.069
26365	10.484	4.4545	0.1	12.567
26366	10.576	4.3636	0.1	12.359
26367	10.484	4.6364	0.1	10.452
26368	10.576	4.5455	0.1	10.44
26369	10.484	4.8182	0.1	8.1403
26370	10.576	4.7273	0.1	8.3251
26371	10.484	5.	0.1	5.6477
26372	10.576	4.9091	0.1	6.0296
26373	10.484	5.1818	0.1	2.9924
26374	10.576	5.0909	0.1	3.5699
26375	10.484	5.3636	0.1	0.21435
26376	10.576	5.2727	0.1	0.9669
26377	10.484	5.5455	0.1	-4.2595e-003
26378	10.576	5.4545	0.1	4.3131e-004
26379	10.484	5.7273	0.1	4.6448e-005
26380	10.576	5.6364	0.1	-6.5374e-003
26381	10.576	5.8182	0.1	7.3927e-003
26382	10.484	5.9091	0.1	1.5876e-003
26383	10.668	0.27273	0.1	1.6182e-004
26384	10.76	0.18182	0.1	6.2228e-003
26385	10.668	9.0909e-002	0.1	1.407e-003
26386	10.668	0.45455	0.1	-3.1409e-003
26387	10.76	0.36364	0.1	-4.9829e-003
26388	10.668	0.63636	0.1	5.3196e-003
26389	10.76	0.54545	0.1	4.3055e-004
26390	10.668	0.81818	0.1	1.5618
26391	10.76	0.72727	0.1	2.814e-002
26392	10.668	1.	0.1	3.9707
26393	10.76	0.90909	0.1	2.061
26394	10.668	1.1818	0.1	6.2329
26395	10.76	1.0909	0.1	4.2894
26396	10.668	1.3636	0.1	8.3307
26397	10.76	1.2727	0.1	6.3694
26398	10.668	1.5455	0.1	10.249
26399	10.76	1.4545	0.1	8.2852
26400	10.668	1.7273	0.1	11.975
26401	10.76	1.6364	0.1	10.023
26402	10.668	1.9091	0.1	13.497
26403	10.76	1.8182	0.1	11.572
26404	10.668	2.0909	0.1	14.802
26405	10.76	2.	0.1	12.92
26406	10.668	2.2727	0.1	15.884
26407	10.76	2.1818	0.1	14.058
26408	10.668	2.4545	0.1	16.733
26409	10.76	2.3636	0.1	14.978
26410	10.668	2.6364	0.1	17.343
26411	10.76	2.5455	0.1	15.674
26412	10.668	2.8182	0.1	17.711
26413	10.76	2.7273	0.1	16.141
26414	10.668	3.	0.1	17.834
26415	10.76	2.9091	0.1	16.375
26416	10.668	3.1818	0.1	17.711
26417	10.76	3.0909	0.1	16.375
26418	10.668	3.3636	0.1	17.343
26419	10.76	3.2727	0.1	16.141
26420	10.668	3.5455	0.1	16.732
26421	10.76	3.4545	0.1	15.674
26422	10.668	3.7273	0.1	15.884
26423	10.76	3.6364	0.1	14.978
26424	10.668	3.9091	0.1	14.802
26425	10.76	3.8182	0.1	14.058
26426	10.668	4.0909	0.1	13.496
26427	10.76	4.	0.1	12.92
26428	10.668	4.2727	0.1	11.975
26429	10.76	4.1818	0.1	11.572
26430	10.668	4.4545	0.1	10.249
26431	10.76	4.3636	0.1	10.023
26432	10.668	4.6364	0.1	8.3307
26433	10.76	4.5455	0.1	8.2852
26434	10.668	4.8182	0.1	6.2328
26435	10.76	4.7273	0.1	6.3694
26436	10.668	5.	0.1	3.9706
26437	10.76	4.9091	0.1	4.2894
26438	10.668	5.1818	0.1	1.5618
26439	10.76	5.0909	0.1	2.061
26440	10.668	5.3636	0.1	5.3196e-003
26441	10.76	5.2727	0.1	2.8137e-002
26442	10.668	5.5455	0.1	-3.1403e-003
26443	10.76	5.4545	0.1	4.3068e-004
26444	10.668	5.7273	0.1	1.6257e-004
26445	10.76	5.6364	0.1	-4.982e-003
26446	10.76	5.8182	0.1	6.2234e-003
26447	10.668	5.9091	0.1	1.4077e-003
26448	10.852	0.27273	0.1	4.1961e-004
26449	10.944	0.18182	0.1	5.2629e-003
26450	10.852	9.0909e-002	0.1	1.3401e-003
26451	10.852	0.45455	0.1	-2.1021e-003
26452	10.944	0.36364	0.1	-3.5166e-003
26453	10.852	0.63636	0.1	2.4111e-003
26454	10.944	0.54545	0.1	6.6792e-004
26455	10.852	0.81818	0.1	0.25718
26456	10.944	0.72727	0.1	5.6627e-003
26457	10.852	1.	0.1	2.3988
26458	10.944	0.90909	0.1	0.65628
26459	10.852	1.1818	0.1	4.4448
26460	10.944	1.0909	0.1	2.6568
26461	10.852	1.3636	0.1	6.3424
26462	10.944	1.2727	0.1	4.5345
26463	10.852	1.5455	0.1	8.0775
26464	10.944	1.4545	0.1	6.264
26465	10.852	1.7273	0.1	9.638
26466	10.944	1.6364	0.1	7.8329
26467	10.852	1.9091	0.1	11.013
26468	10.944	1.8182	0.1	9.2303
26469	10.852	2.0909	0.1	12.193
26470	10.944	2.	0.1	10.446
26471	10.852	2.2727	0.1	13.17
26472	10.944	2.1818	0.1	11.473
26473	10.852	2.4545	0.1	13.937
26474	10.944	2.3636	0.1	12.303
26475	10.852	2.6364	0.1	14.489
26476	10.944	2.5455	0.1	12.93
26477	10.852	2.8182	0.1	14.821
26478	10.944	2.7273	0.1	13.351
26479	10.852	3.	0.1	14.932
26480	10.944	2.9091	0.1	13.562
26481	10.852	3.1818	0.1	14.821
26482	10.944	3.0909	0.1	13.562
26483	10.852	3.3636	0.1	14.489
26484	10.944	3.2727	0.1	13.351
26485	10.852	3.5455	0.1	13.937
26486	10.944	3.4545	0.1	12.93
26487	10.852	3.7273	0.1	13.17
26488	10.944	3.6364	0.1	12.303
26489	10.852	3.9091	0.1	12.193
26490	10.944	3.8182	0.1	11.473
26491	10.852	4.0909	0.1	11.013
26492	10.944	4.	0.1	10.446
26493	10.852	4.2727	0.1	9.6379
26494	10.944	4.1818	0.1	9.2302
26495	10.852	4.4545	0.1	8.0775
26496	10.944	4.3636	0.1	7.8329
26497	10.852	4.6364	0.1	6.3424
26498	10.944	4.5455	0.1	6.264
26499	10.852	4.8182	0.1	4.4448
26500	10.944	4.7273	0.1	4.5344
26501	10.852	5.	0.1	2.3987
26502	10.944	4.9091	0.1	2.6568
26503	10.852	5.1818	0.1	0.25715
26504	10.944	5.0909	0.1	0.65623
26505	10.852	5.3636	0.1	2.4114e-003
26506	10.944	5.2727	0.1	5.6635e-003
26507	10.852	5.5455	0.1	-2.1016e-003
26508	10.944	5.4545	0.1	6.6762e-004
26509	10.852	5.7273	0.1	4.2045e-004
26510	10.944	5.6364	0.1	-3.5166e-003
26511	10.944	5.8182	0.1	5.264e-003
26512	10.852	5.9091	0.1	1.3412e-003
26513	11.036	0.27273	0.1	7.4997e-004
26514	11.128	0.18182	0.1	4.4551e-003
26515	11.036	9.0909e-002	0.1	1.3438e-003
26516	11.036	0.45455	0.1	-1.1474e-003
26517	11.128	0.36364	0.1	-2.1309e-003
26518	11.036	0.63636	0.1	1.8107e-003
26519	11.128	0.54545	0.1	9.5583e-004
26520	11.036	0.81818	0.1	1.1105e-002
26521	11.128	0.72727	0.1	3.1888e-003
26522	11.036	1.	0.1	0.92929
26523	11.128	0.90909	0.1	1.9765e-002
26524	11.036	1.1818	0.1	2.7658
26525	11.128	1.0909	0.1	1.1271
26526	11.036	1.3636	0.1	4.4751
26527	11.128	1.2727	0.1	2.8097
26528	11.036	1.5455	0.1	6.0381
26529	11.128	1.4545	0.1	4.3639
26530	11.036	1.7273	0.1	7.4435
26531	11.128	1.6364	0.1	5.7738
26532	11.036	1.9091	0.1	8.6817
26533	11.128	1.8182	0.1	7.0292
26534	11.036	2.0909	0.1	9.744
26535	11.128	2.	0.1	8.1217
26536	11.036	2.2727	0.1	10.623
26537	11.128	2.1818	0.1	9.0436
26538	11.036	2.4545	0.1	11.314
26539	11.128	2.3636	0.1	9.7889
26540	11.036	2.6364	0.1	11.81
26541	11.128	2.5455	0.1	10.352
26542	11.036	2.8182	0.1	12.109
26543	11.128	2.7273	0.1	10.73
26544	11.036	3.	0.1	12.209
26545	11.128	2.9091	0.1	10.92
26546	11.036	3.1818	0.1	12.109
26547	11.128	3.0909	0.1	10.92
26548	11.036	3.3636	0.1	11.81
26549	11.128	3.2727	0.1	10.73
26550	11.036	3.5455	0.1	11.314
26551	11.128	3.4545	0.1	10.352
26552	11.036	3.7273	0.1	10.623
26553	11.128	3.6364	0.1	9.7889
26554	11.036	3.9091	0.1	9.744
26555	11.128	3.8182	0.1	9.0436
26556	11.036	4.0909	0.1	8.6816
26557	11.128	4.	0.1	8.1216
26558	11.036	4.2727	0.1	7.4435
26559	11.128	4.1818	0.1	7.0292
26560	11.036	4.4545	0.1	6.0381
26561	11.128	4.3636	0.1	5.7737
26562	11.036	4.6364	0.1	4.4751
26563	11.128	4.5455	0.1	4.3639
26564	11.036	4.8182	0.1	2.7658
26565	11.128	4.7273	0.1	2.8097
26566	11.036	5.	0.1	0.92925
26567	11.128	4.9091	0.1	1.127
26568	11.036	5.1818	0.1	1.1106e-002
26569	11.128	5.0909	0.1	1.9765e-002
26570	11.036	5.3636	0.1	1.811e-003
26571	11.128	5.2727	0.1	3.1897e-003
26572	11.036	5.5455	0.1	-1.1473e-003
26573	11.128	5.4545	0.1	9.5528e-004
26574	11.036	5.7273	0.1	7.5116e-004
26575	11.128	5.6364	0.1	-2.1302e-003
26576	11.128	5.8182	0.1	4.4568e-003
26577	11.036	5.9091	0.1	1.3452e-003
26578	11.22	0.27273	0.1	1.1173e-003
26579	11.312	0.18182	0.1	3.7693e-003
26580	11.22	9.0909e-002	0.1	1.3939e-003
26581	11.22	0.45455	0.1	-2.704e-004
26582	11.312	0.36364	0.1	-8.3393e-004
26583	11.22	0.63636	0.1	1.6875e-003
26584	11.312	0.54545	0.1	1.2504e-003
26585	11.22	0.81818	0.1	4.9299e-003
26586	11.312	0.72727	0.1	2.4197e-003
26587	11.22	1.	0.1	3.0955e-002
26588	11.312	0.90909	0.1	6.5581e-003
26589	11.22	1.1818	0.1	1.1904
26590	11.312	1.0909	0.1	4.3788e-002
26591	11.22	1.3636	0.1	2.7181
26592	11.312	1.2727	0.1	1.1895
26593	11.22	1.5455	0.1	4.1187
26594	11.312	1.4545	0.1	2.5739
26595	11.22	1.7273	0.1	5.3783
26596	11.312	1.6364	0.1	3.8334
26597	11.22	1.9091	0.1	6.4878
26598	11.312	1.8182	0.1	4.9552
26599	11.22	2.0909	0.1	7.4396
26600	11.312	2.	0.1	5.9312
26601	11.22	2.2727	0.1	8.2273
26602	11.312	2.1818	0.1	6.7548
26603	11.22	2.4545	0.1	8.8455
26604	11.312	2.3636	0.1	7.4204
26605	11.22	2.6364	0.1	9.2901
26606	11.312	2.5455	0.1	7.9236
26607	11.22	2.8182	0.1	9.5581
26608	11.312	2.7273	0.1	8.2609
26609	11.22	3.	0.1	9.6476
26610	11.312	2.9091	0.1	8.4301
26611	11.22	3.1818	0.1	9.5581
26612	11.312	3.0909	0.1	8.4301
26613	11.22	3.3636	0.1	9.2901
26614	11.312	3.2727	0.1	8.2609
26615	11.22	3.5455	0.1	8.8455
26616	11.312	3.4545	0.1	7.9236
26617	11.22	3.7273	0.1	8.2272
26618	11.312	3.6364	0.1	7.4204
26619	11.22	3.9091	0.1	7.4396
26620	11.312	3.8182	0.1	6.7548
26621	11.22	4.0909	0.1	6.4878
26622	11.312	4.	0.1	5.9312
26623	11.22	4.2727	0.1	5.3783
26624	11.312	4.1818	0.1	4.9552
26625	11.22	4.4545	0.1	4.1187
26626	11.312	4.3636	0.1	3.8334
26627	11.22	4.6364	0.1	2.7181
26628	11.312	4.5455	0.1	2.5739
26629	11.22	4.8182	0.1	1.1904
26630	11.312	4.7273	0.1	1.1894
26631	11.22	5.	0.1	3.0953e-002
26632	11.312	4.9091	0.1	4.3784e-002
26633	11.22	5.1818	0.1	4.9309e-003
26634	11.312	5.0909	0.1	6.5596e-003
26635	11.22	5.3636	0.1	1.6877e-003
26636	11.312	5.2727	0.1	2.4208e-003
26637	11.22	5.5455	0.1	-2.7033e-004
26638	11.312	5.4545	0.1	1.2498e-003
26639	11.22	5.7273	0.1	1.1185e-003
26640	11.312	5.6364	0.1	-8.3328e-004
26641	11.312	5.8182	0.1	3.7707e-003
26642	11.22	5.9091	0.1	1.3948e-003
26643	11.404	0.27273	0.1	1.5132e-003
26644	11.496	0.18182	0.1	3.1881e-003
26645	11.404	9.0909e-002	0.1	1.4869e-003
26646	11.404	0.45455	0.1	5.4842e-004
26647	11.496	0.36364	0.1	3.9574e-004
26648	11.404	0.63636	0.1	1.7338e-003
26649	11.496	0.54545	0.1	1.5437e-003
26650	11.404	0.81818	0.1	3.2353e-003
26651	11.496	0.72727	0.1	2.1421e-003
26652	11.404	1.	0.1	7.7084e-003
26653	11.496	0.90909	0.1	3.7984e-003
26654	11.404	1.1818	0.1	4.6336e-002
26655	11.496	1.0909	0.1	8.2401e-003
26656	11.404	1.3636	0.1	1.0664
26657	11.496	1.2727	0.1	4.0662e-002
26658	11.404	1.5455	0.1	2.3085
26659	11.496	1.4545	0.1	0.89078
26660	11.404	1.7273	0.1	3.4297
26661	11.496	1.6364	0.1	2.0012
26662	11.404	1.9091	0.1	4.4177
26663	11.496	1.8182	0.1	2.9956
26664	11.404	2.0909	0.1	5.2653
26665	11.496	2.	0.1	3.8613
26666	11.404	2.2727	0.1	5.9666
26667	11.496	2.1818	0.1	4.592
26668	11.404	2.4545	0.1	6.517
26669	11.496	2.3636	0.1	5.1824
26670	11.404	2.6364	0.1	6.9127
26671	11.496	2.5455	0.1	5.6287
26672	11.404	2.8182	0.1	7.1513
26673	11.496	2.7273	0.1	5.9279
26674	11.404	3.	0.1	7.2309
26675	11.496	2.9091	0.1	6.078
26676	11.404	3.1818	0.1	7.1513
26677	11.496	3.0909	0.1	6.078
26678	11.404	3.3636	0.1	6.9127
26679	11.496	3.2727	0.1	5.9279
26680	11.404	3.5455	0.1	6.5169
26681	11.496	3.4545	0.1	5.6287
26682	11.404	3.7273	0.1	5.9666
26683	11.496	3.6364	0.1	5.1824
26684	11.404	3.9091	0.1	5.2652
26685	11.496	3.8182	0.1	4.5919
26686	11.404	4.0909	0.1	4.4177
26687	11.496	4.	0.1	3.8613
26688	11.404	4.2727	0.1	3.4297
26689	11.496	4.1818	0.1	2.9955
26690	11.404	4.4545	0.1	2.3085
26691	11.496	4.3636	0.1	2.0011
26692	11.404	4.6364	0.1	1.0664
26693	11.496	4.5455	0.1	0.89074
26694	11.404	4.8182	0.1	4.6331e-002
26695	11.496	4.7273	0.1	4.0658e-002
26696	11.404	5.	0.1	7.7093e-003
26697	11.496	4.9091	0.1	8.2402e-003
26698	11.404	5.1818	0.1	3.237e-003
26699	11.496	5.0909	0.1	3.7998e-003
26700	11.404	5.3636	0.1	1.7341e-003
26701	11.496	5.2727	0.1	2.1437e-003
26702	11.404	5.5455	0.1	5.4839e-004
26703	11.496	5.4545	0.1	1.5436e-003
26704	11.404	5.7273	0.1	1.514e-003
26705	11.496	5.6364	0.1	3.9629e-004
26706	11.496	5.8182	0.1	3.189e-003
26707	11.404	5.9091	0.1	1.4875e-003
26708	11.587	0.27273	0.1	1.9312e-003
26709	11.679	0.18182	0.1	2.7173e-003
26710	11.587	9.0909e-002	0.1	1.6156e-003
26711	11.587	0.45455	0.1	1.3229e-003
26712	11.679	0.36364	0.1	1.5928e-003
26713	11.587	0.63636	0.1	1.8572e-003
26714	11.679	0.54545	0.1	1.8576e-003
26715	11.587	0.81818	0.1	2.5285e-003
26716	11.679	0.72727	0.1	2.0929e-003
26717	11.587	1.	0.1	4.0345e-003
26718	11.679	0.90909	0.1	2.6985e-003
26719	11.587	1.1818	0.1	7.8774e-003
26720	11.679	1.0909	0.1	3.9405e-003
26721	11.587	1.3636	0.1	2.7929e-002
26722	11.679	1.2727	0.1	6.8926e-003
26723	11.587	1.5455	0.1	0.60965
26724	11.679	1.4545	0.1	1.8112e-002
26725	11.587	1.7273	0.1	1.5876
26726	11.679	1.6364	0.1	0.29908
26727	11.587	1.9091	0.1	2.459
26728	11.679	1.8182	0.1	1.1417
26729	11.587	2.0909	0.1	3.2074
26730	11.679	2.	0.1	1.9
26731	11.587	2.2727	0.1	3.8269
26732	11.679	2.1818	0.1	2.5418
26733	11.587	2.4545	0.1	4.3131
26734	11.679	2.3636	0.1	3.0608
26735	11.587	2.6364	0.1	4.6627
26736	11.679	2.5455	0.1	3.4531
26737	11.587	2.8182	0.1	4.8733
26738	11.679	2.7273	0.1	3.7161
26739	11.587	3.	0.1	4.9437
26740	11.679	2.9091	0.1	3.848
26741	11.587	3.1818	0.1	4.8733
26742	11.679	3.0909	0.1	3.848
26743	11.587	3.3636	0.1	4.6627
26744	11.679	3.2727	0.1	3.7161
26745	11.587	3.5455	0.1	4.3131
26746	11.679	3.4545	0.1	3.4531
26747	11.587	3.7273	0.1	3.8269
26748	11.679	3.6364	0.1	3.0607
26749	11.587	3.9091	0.1	3.2074
26750	11.679	3.8182	0.1	2.5418
26751	11.587	4.0909	0.1	2.4589
26752	11.679	4.	0.1	1.9
26753	11.587	4.2727	0.1	1.5876
26754	11.679	4.1818	0.1	1.1417
26755	11.587	4.4545	0.1	0.60961
26756	11.679	4.3636	0.1	0.29905
26757	11.587	4.6364	0.1	2.7927e-002
26758	11.679	4.5455	0.1	1.8111e-002
26759	11.587	4.8182	0.1	7.8775e-003
26760	11.679	4.7273	0.1	6.8928e-003
26761	11.587	5.	0.1	4.0352e-003
26762	11.679	4.9091	0.1	3.9408e-003
26763	11.587	5.1818	0.1	2.53e-003
26764	11.679	5.0909	0.1	2.6998e-003
26765	11.587	5.3636	0.1	1.8584e-003
26766	11.679	5.2727	0.1	2.0942e-003
26767	11.587	5.5455	0.1	1.3233e-003
26768	11.679	5.4545	0.1	1.8581e-003
26769	11.587	5.7273	0.1	1.9319e-003
26770	11.679	5.6364	0.1	1.5933e-003
26771	11.679	5.8182	0.1	2.7177e-003
26772	11.587	5.9091	0.1	1.6165e-003
26773	11.771	0.27273	0.1	2.4108e-003
26774	11.863	0.18182	0.1	2.34e-003
26775	11.771	9.0909e-002	0.1	1.819e-003
26776	11.771	0.45455	0.1	2.1085e-003
26777	11.863	0.36364	0.1	2.7626e-003
26778	11.771	0.63636	0.1	2.0683e-003
26779	11.863	0.54545	0.1	2.189e-003
26780	11.771	0.81818	0.1	2.2392e-003
26781	11.863	0.72727	0.1	2.1661e-003
26782	11.771	1.	0.1	2.6482e-003
26783	11.863	0.90909	0.1	2.171e-003
26784	11.771	1.1818	0.1	3.5056e-003
26785	11.863	1.0909	0.1	2.3574e-003
26786	11.771	1.3636	0.1	5.3739e-003
26787	11.863	1.2727	0.1	2.7953e-003
26788	11.771	1.5455	0.1	1.0634e-002
26789	11.863	1.4545	0.1	3.728e-003
26790	11.771	1.7273	0.1	5.1588e-002
26791	11.863	1.6364	0.1	5.8665e-003
26792	11.771	1.9091	0.1	0.60853
26793	11.863	1.8182	0.1	1.2761e-002
26794	11.771	2.0909	0.1	1.2553
26795	11.863	2.	0.1	0.10426
26796	11.771	2.2727	0.1	1.7955
26797	11.863	2.1818	0.1	0.59708
26798	11.771	2.4545	0.1	2.2203
26799	11.863	2.3636	0.1	1.0435
26800	11.771	2.6364	0.1	2.5258
26801	11.863	2.5455	0.1	1.3834
26802	11.771	2.8182	0.1	2.71
26803	11.863	2.7273	0.1	1.6116
26804	11.771	3.	0.1	2.7716
26805	11.863	2.9091	0.1	1.7262
26806	11.771	3.1818	0.1	2.71
26807	11.863	3.0909	0.1	1.7262
26808	11.771	3.3636	0.1	2.5258
26809	11.863	3.2727	0.1	1.6116
26810	11.771	3.5455	0.1	2.2203
26811	11.863	3.4545	0.1	1.3833
26812	11.771	3.7273	0.1	1.7955
26813	11.863	3.6364	0.1	1.0435
26814	11.771	3.9091	0.1	1.2553
26815	11.863	3.8182	0.1	0.59705
26816	11.771	4.0909	0.1	0.6085
26817	11.863	4.	0.1	0.10424
26818	11.771	4.2727	0.1	5.1582e-002
26819	11.863	4.1818	0.1	1.276e-002
26820	11.771	4.4545	0.1	1.0634e-002
26821	11.863	4.3636	0.1	5.8671e-003
26822	11.771	4.6364	0.1	5.3743e-003
26823	11.863	4.5455	0.1	3.728e-003
26824	11.771	4.8182	0.1	3.506e-003
26825	11.863	4.7273	0.1	2.7959e-003
26826	11.771	5.	0.1	2.6491e-003
26827	11.863	4.9091	0.1	2.3576e-003
26828	11.771	5.1818	0.1	2.2403e-003
26829	11.863	5.0909	0.1	2.1725e-003
26830	11.771	5.3636	0.1	2.0688e-003
26831	11.863	5.2727	0.1	2.1673e-003
26832	11.771	5.5455	0.1	2.109e-003
26833	11.863	5.4545	0.1	2.1895e-003
26834	11.771	5.7273	0.1	2.411e-003
26835	11.863	5.6364	0.1	2.7632e-003
26836	11.863	5.8182	0.1	2.3403e-003
26837	11.771	5.9091	0.1	1.8197e-003
26838	11.955	0.27273	0.1	2.8964e-003
26839	12.047	0.18182	0.1	2.0152e-003
26840	11.955	9.0909e-002	0.1	2.0415e-003
26841	11.955	0.45455	0.1	2.859e-003
26842	12.047	0.36364	0.1	3.8823e-003
26843	11.955	0.63636	0.1	2.2953e-003
26844	12.047	0.54545	0.1	2.5063e-003
26845	11.955	0.81818	0.1	2.1206e-003
26846	12.047	0.72727	0.1	2.2861e-003
26847	11.955	1.	0.1	1.9547e-003
26848	12.047	0.90909	0.1	1.8836e-003
26849	11.955	1.1818	0.1	1.8789e-003
26850	12.047	1.0909	0.1	1.5558e-003
26851	11.955	1.3636	0.1	1.9022e-003
26852	12.047	1.2727	0.1	1.2302e-003
26853	11.955	1.5455	0.1	2.0815e-003
26854	12.047	1.4545	0.1	9.1559e-004
26855	11.955	1.7273	0.1	2.5332e-003
26856	12.047	1.6364	0.1	5.9629e-004
26857	11.955	1.9091	0.1	3.5761e-003
26858	12.047	1.8182	0.1	2.5312e-004
26859	11.955	2.0909	0.1	6.4454e-003
26860	12.047	2.	0.1	-1.4664e-004
26861	11.955	2.2727	0.1	2.2775e-002
26862	12.047	2.1818	0.1	-6.56e-004
26863	11.955	2.4545	0.1	0.23415
26864	12.047	2.3636	0.1	-1.3748e-003
26865	11.955	2.6364	0.1	0.49004
26866	12.047	2.5455	0.1	-2.4569e-003
26867	11.955	2.8182	0.1	0.64755
26868	12.047	2.7273	0.1	-4.0174e-003
26869	11.955	3.	0.1	0.70035
26870	12.047	2.9091	0.1	-5.561e-003
26871	11.955	3.1818	0.1	0.64754
26872	12.047	3.0909	0.1	-5.561e-003
26873	11.955	3.3636	0.1	0.49002
26874	12.047	3.2727	0.1	-4.0176e-003
26875	11.955	3.5455	0.1	0.23413
26876	12.047	3.4545	0.1	-2.4569e-003
26877	11.955	3.7273	0.1	2.2772e-002
26878	12.047	3.6364	0.1	-1.3746e-003
26879	11.955	3.9091	0.1	6.4454e-003
26880	12.047	3.8182	0.1	-6.5578e-004
26881	11.955	4.0909	0.1	3.5763e-003
26882	12.047	4.	0.1	-1.4645e-004
26883	11.955	4.2727	0.1	2.5335e-003
26884	12.047	4.1818	0.1	2.5324e-004
26885	11.955	4.4545	0.1	2.0816e-003
26886	12.047	4.3636	0.1	5.9673e-004
26887	11.955	4.6364	0.1	1.9023e-003
26888	12.047	4.5455	0.1	9.1557e-004
26889	11.955	4.8182	0.1	1.8795e-003
26890	12.047	4.7273	0.1	1.2308e-003
26891	11.955	5.	0.1	1.9556e-003
26892	12.047	4.9091	0.1	1.5563e-003
26893	11.955	5.1818	0.1	2.1223e-003
26894	12.047	5.0909	0.1	1.8849e-003
26895	11.955	5.3636	0.1	2.2964e-003
26896	12.047	5.2727	0.1	2.2875e-003
26897	11.955	5.5455	0.1	2.8597e-003
26898	12.047	5.4545	0.1	2.507e-003
26899	11.955	5.7273	0.1	2.8972e-003
26900	12.047	5.6364	0.1	3.8828e-003
26901	12.047	5.8182	0.1	2.0159e-003
26902	11.955	5.9091	0.1	2.0413e-003
26903	12.139	0.27273	0.1	3.3775e-003
26904	12.231	0.18182	0.1	1.7249e-003
26905	12.139	9.0909e-002	0.1	2.2689e-003
26906	12.139	0.45455	0.1	3.5708e-003
26907	12.231	0.36364	0.1	4.9496e-003
26908	12.139	0.63636	0.1	2.5211e-003
26909	12.231	0.54545	0.1	2.8005e-003
26910	12.139	0.81818	0.1	2.0849e-003
26911	12.231	0.72727	0.1	2.4215e-003
26912	12.139	1.	0.1	1.5513e-003
26913	12.231	0.90909	0.1	1.7102e-003
26914	12.139	1.1818	0.1	1.0363e-003
26915	12.231	1.0909	0.1	1.0718e-003
26916	12.139	1.3636	0.1	4.9516e-004
26917	12.231	1.2727	0.1	3.9395e-004
26918	12.139	1.5455	0.1	-7.9123e-005
26919	12.231	1.4545	0.1	-3.0802e-004
26920	12.139	1.7273	0.1	-7.0762e-004
26921	12.231	1.6364	0.1	-1.047e-003
26922	12.139	1.9091	0.1	-1.4114e-003
26923	12.231	1.8182	0.1	-1.829e-003
26924	12.139	2.0909	0.1	-2.2076e-003
26925	12.231	2.	0.1	-2.6513e-003
26926	12.139	2.2727	0.1	-3.0997e-003
26927	12.231	2.1818	0.1	-3.4961e-003
26928	12.139	2.4545	0.1	-4.0549e-003
26929	12.231	2.3636	0.1	-4.3264e-003
26930	12.139	2.6364	0.1	-4.9697e-003
26931	12.231	2.5455	0.1	-5.0772e-003
26932	12.139	2.8182	0.1	-5.6601e-003
26933	12.231	2.7273	0.1	-5.6576e-003
26934	12.139	3.	0.1	-5.9214e-003
26935	12.231	2.9091	0.1	-5.9773e-003
26936	12.139	3.1818	0.1	-5.6601e-003
26937	12.231	3.0909	0.1	-5.9773e-003
26938	12.139	3.3636	0.1	-4.9698e-003
26939	12.231	3.2727	0.1	-5.6575e-003
26940	12.139	3.5455	0.1	-4.0547e-003
26941	12.231	3.4545	0.1	-5.077e-003
26942	12.139	3.7273	0.1	-3.0994e-003
26943	12.231	3.6364	0.1	-4.3261e-003
26944	12.139	3.9091	0.1	-2.2074e-003
26945	12.231	3.8182	0.1	-3.4958e-003
26946	12.139	4.0909	0.1	-1.4113e-003
26947	12.231	4.	0.1	-2.6511e-003
26948	12.139	4.2727	0.1	-7.0738e-004
26949	12.231	4.1818	0.1	-1.8288e-003
26950	12.139	4.4545	0.1	-7.8799e-005
26951	12.231	4.3636	0.1	-1.0467e-003
26952	12.139	4.6364	0.1	4.9557e-004
26953	12.231	4.5455	0.1	-3.0746e-004
26954	12.139	4.8182	0.1	1.0368e-003
26955	12.231	4.7273	0.1	3.9431e-004
26956	12.139	5.	0.1	1.5521e-003
26957	12.231	4.9091	0.1	1.0725e-003
26958	12.139	5.1818	0.1	2.086e-003
26959	12.231	5.0909	0.1	1.7113e-003
26960	12.139	5.3636	0.1	2.5221e-003
26961	12.231	5.2727	0.1	2.4222e-003
26962	12.139	5.5455	0.1	3.5714e-003
26963	12.231	5.4545	0.1	2.8017e-003
26964	12.139	5.7273	0.1	3.3781e-003
26965	12.231	5.6364	0.1	4.9498e-003
26966	12.231	5.8182	0.1	1.7254e-003
26967	12.139	5.9091	0.1	2.2697e-003
26968	12.323	0.27273	0.1	3.8431e-003
26969	12.415	0.18182	0.1	1.4569e-003
26970	12.323	9.0909e-002	0.1	2.4894e-003
26971	12.323	0.45455	0.1	4.2387e-003
26972	12.415	0.36364	0.1	5.966e-003
26973	12.323	0.63636	0.1	2.7307e-003
26974	12.415	0.54545	0.1	3.0682e-003
26975	12.323	0.81818	0.1	2.083e-003
26976	12.415	0.72727	0.1	2.5538e-003
26977	12.323	1.	0.1	1.2833e-003
26978	12.415	0.90909	0.1	1.5916e-003
26979	12.323	1.1818	0.1	5.0852e-004
26980	12.415	1.0909	0.1	7.3764e-004
26981	12.323	1.3636	0.1	-2.9164e-004
26982	12.415	1.2727	0.1	-1.4697e-004
26983	12.323	1.5455	0.1	-1.1073e-003
26984	12.415	1.4545	0.1	-1.0268e-003
26985	12.323	1.7273	0.1	-1.9388e-003
26986	12.415	1.6364	0.1	-1.9019e-003
26987	12.323	1.9091	0.1	-2.7773e-003
26988	12.415	1.8182	0.1	-2.7624e-003
26989	12.323	2.0909	0.1	-3.603e-003
26990	12.415	2.	0.1	-3.5899e-003
26991	12.323	2.2727	0.1	-4.3849e-003
26992	12.415	2.1818	0.1	-4.3593e-003
26993	12.323	2.4545	0.1	-5.0801e-003
26994	12.415	2.3636	0.1	-5.04e-003
26995	12.323	2.6364	0.1	-5.6344e-003
26996	12.415	2.5455	0.1	-5.5972e-003
26997	12.323	2.8182	0.1	-5.9939e-003
26998	12.415	2.7273	0.1	-5.9929e-003
26999	12.323	3.	0.1	-6.1187e-003
27000	12.415	2.9091	0.1	-6.1991e-003
27001	12.323	3.1818	0.1	-5.9937e-003
27002	12.415	3.0909	0.1	-6.1988e-003
27003	12.323	3.3636	0.1	-5.6341e-003
27004	12.415	3.2727	0.1	-5.9929e-003
27005	12.323	3.5455	0.1	-5.0798e-003
27006	12.415	3.4545	0.1	-5.5969e-003
27007	12.323	3.7273	0.1	-4.3847e-003
27008	12.415	3.6364	0.1	-5.0396e-003
27009	12.323	3.9091	0.1	-3.6027e-003
27010	12.415	3.8182	0.1	-4.3592e-003
27011	12.323	4.0909	0.1	-2.777e-003
27012	12.415	4.	0.1	-3.5896e-003
27013	12.323	4.2727	0.1	-1.9386e-003
27014	12.415	4.1818	0.1	-2.7621e-003
27015	12.323	4.4545	0.1	-1.1068e-003
27016	12.415	4.3636	0.1	-1.9018e-003
27017	12.323	4.6364	0.1	-2.9115e-004
27018	12.415	4.5455	0.1	-1.0264e-003
27019	12.323	4.8182	0.1	5.0897e-004
27020	12.415	4.7273	0.1	-1.4699e-004
27021	12.323	5.	0.1	1.2842e-003
27022	12.415	4.9091	0.1	7.3818e-004
27023	12.323	5.1818	0.1	2.0838e-003
27024	12.415	5.0909	0.1	1.5926e-003
27025	12.323	5.3636	0.1	2.7316e-003
27026	12.415	5.2727	0.1	2.5545e-003
27027	12.323	5.5455	0.1	4.2395e-003
27028	12.415	5.4545	0.1	3.0692e-003
27029	12.323	5.7273	0.1	3.8434e-003
27030	12.415	5.6364	0.1	5.9662e-003
27031	12.415	5.8182	0.1	1.4574e-003
27032	12.323	5.9091	0.1	2.4904e-003
27033	12.507	0.27273	0.1	4.2934e-003
27034	12.599	0.18182	0.1	1.2114e-003
27035	12.507	9.0909e-002	0.1	2.7014e-003
27036	12.507	0.45455	0.1	4.8679e-003
27037	12.599	0.36364	0.1	6.9447e-003
27038	12.507	0.63636	0.1	2.9213e-003
27039	12.599	0.54545	0.1	3.3161e-003
27040	12.507	0.81818	0.1	2.0936e-003
27041	12.599	0.72727	0.1	2.6822e-003
27042	12.507	1.	0.1	1.0845e-003
27043	12.599	0.90909	0.1	1.5042e-003
27044	12.507	1.1818	0.1	1.3106e-004
27045	12.599	1.0909	0.1	4.853e-004
27046	12.507	1.3636	0.1	-8.2108e-004
27047	12.599	1.2727	0.1	-5.4212e-004
27048	12.507	1.5455	0.1	-1.7487e-003
27049	12.599	1.4545	0.1	-1.5262e-003
27050	12.507	1.7273	0.1	-2.6446e-003
27051	12.599	1.6364	0.1	-2.4651e-003
27052	12.507	1.9091	0.1	-3.4935e-003
27053	12.599	1.8182	0.1	-3.3457e-003
27054	12.507	2.0909	0.1	-4.2747e-003
27055	12.599	2.	0.1	-4.1511e-003
27056	12.507	2.2727	0.1	-4.965e-003
27057	12.599	2.1818	0.1	-4.863e-003
27058	12.507	2.4545	0.1	-5.5397e-003
27059	12.599	2.3636	0.1	-5.4633e-003
27060	12.507	2.6364	0.1	-5.9729e-003
27061	12.599	2.5455	0.1	-5.9346e-003
27062	12.507	2.8182	0.1	-6.2425e-003
27063	12.599	2.7273	0.1	-6.2583e-003
27064	12.507	3.	0.1	-6.3338e-003
27065	12.599	2.9091	0.1	-6.4234e-003
27066	12.507	3.1818	0.1	-6.2423e-003
27067	12.599	3.0909	0.1	-6.4229e-003
27068	12.507	3.3636	0.1	-5.9729e-003
27069	12.599	3.2727	0.1	-6.2582e-003
27070	12.507	3.5455	0.1	-5.5394e-003
27071	12.599	3.4545	0.1	-5.9345e-003
27072	12.507	3.7273	0.1	-4.9648e-003
27073	12.599	3.6364	0.1	-5.4628e-003
27074	12.507	3.9091	0.1	-4.2746e-003
27075	12.599	3.8182	0.1	-4.8629e-003
27076	12.507	4.0909	0.1	-3.4933e-003
27077	12.599	4.	0.1	-4.1508e-003
27078	12.507	4.2727	0.1	-2.6446e-003
27079	12.599	4.1818	0.1	-3.3454e-003
27080	12.507	4.4545	0.1	-1.7487e-003
27081	12.599	4.3636	0.1	-2.4647e-003
27082	12.507	4.6364	0.1	-8.212e-004
27083	12.599	4.5455	0.1	-1.5258e-003
27084	12.507	4.8182	0.1	1.3111e-004
27085	12.599	4.7273	0.1	-5.418e-004
27086	12.507	5.	0.1	1.0851e-003
27087	12.599	4.9091	0.1	4.8576e-004
27088	12.507	5.1818	0.1	2.0945e-003
27089	12.599	5.0909	0.1	1.5051e-003
27090	12.507	5.3636	0.1	2.922e-003
27091	12.599	5.2727	0.1	2.6833e-003
27092	12.507	5.5455	0.1	4.8683e-003
27093	12.599	5.4545	0.1	3.3165e-003
27094	12.507	5.7273	0.1	4.2939e-003
27095	12.599	5.6364	0.1	6.9449e-003
27096	12.599	5.8182	0.1	1.2118e-003
27097	12.507	5.9091	0.1	2.7022e-003
27098	12.691	0.27273	0.1	4.7418e-003
27099	12.783	0.18182	0.1	9.9417e-004
27100	12.691	9.0909e-002	0.1	2.9142e-003
27101	12.691	0.45455	0.1	5.4743e-003
27102	12.783	0.36364	0.1	7.9024e-003
27103	12.691	0.63636	0.1	3.1036e-003
27104	12.783	0.54545	0.1	3.5547e-003
27105	12.691	0.81818	0.1	2.1165e-003
27106	12.783	0.72727	0.1	2.8125e-003
27107	12.691	1.	0.1	9.3052e-004
27108	12.783	0.90909	0.1	1.4406e-003
27109	12.691	1.1818	0.1	-1.5956e-004
27110	12.783	1.0909	0.1	2.8618e-004
27111	12.691	1.3636	0.1	-1.2165e-003
27112	12.783	1.2727	0.1	-8.5088e-004
27113	12.691	1.5455	0.1	-2.2113e-003
27114	12.783	1.4545	0.1	-1.9082e-003
27115	12.691	1.7273	0.1	-3.1373e-003
27116	12.783	1.6364	0.1	-2.8867e-003
27117	12.691	1.9091	0.1	-3.9806e-003
27118	12.783	1.8182	0.1	-3.7752e-003
27119	12.691	2.0909	0.1	-4.7269e-003
27120	12.783	2.	0.1	-4.5627e-003
27121	12.691	2.2727	0.1	-5.3625e-003
27122	12.783	2.1818	0.1	-5.2379e-003
27123	12.691	2.4545	0.1	-5.8746e-003
27124	12.783	2.3636	0.1	-5.7917e-003
27125	12.691	2.6364	0.1	-6.2502e-003
27126	12.783	2.5455	0.1	-6.2168e-003
27127	12.691	2.8182	0.1	-6.4794e-003
27128	12.783	2.7273	0.1	-6.5035e-003
27129	12.691	3.	0.1	-6.5562e-003
27130	12.783	2.9091	0.1	-6.6484e-003
27131	12.691	3.1818	0.1	-6.479e-003
27132	12.783	3.0909	0.1	-6.648e-003
27133	12.691	3.3636	0.1	-6.2501e-003
27134	12.783	3.2727	0.1	-6.5037e-003
27135	12.691	3.5455	0.1	-5.8744e-003
27136	12.783	3.4545	0.1	-6.2168e-003
27137	12.691	3.7273	0.1	-5.3623e-003
27138	12.783	3.6364	0.1	-5.7919e-003
27139	12.691	3.9091	0.1	-4.7268e-003
27140	12.783	3.8182	0.1	-5.2375e-003
27141	12.691	4.0909	0.1	-3.9802e-003
27142	12.783	4.	0.1	-4.5625e-003
27143	12.691	4.2727	0.1	-3.1366e-003
27144	12.783	4.1818	0.1	-3.775e-003
27145	12.691	4.4545	0.1	-2.2105e-003
27146	12.783	4.3636	0.1	-2.8863e-003
27147	12.691	4.6364	0.1	-1.2158e-003
27148	12.783	4.5455	0.1	-1.9077e-003
27149	12.691	4.8182	0.1	-1.5884e-004
27150	12.783	4.7273	0.1	-8.5013e-004
27151	12.691	5.	0.1	9.3132e-004
27152	12.783	4.9091	0.1	2.8653e-004
27153	12.691	5.1818	0.1	2.1176e-003
27154	12.783	5.0909	0.1	1.4424e-003
27155	12.691	5.3636	0.1	3.1043e-003
27156	12.783	5.2727	0.1	2.8138e-003
27157	12.691	5.5455	0.1	5.4744e-003
27158	12.783	5.4545	0.1	3.5547e-003
27159	12.691	5.7273	0.1	4.742e-003
27160	12.783	5.6364	0.1	7.9025e-003
27161	12.783	5.8182	0.1	9.9432e-004
27162	12.691	5.9091	0.1	2.9138e-003
27163	12.875	0.27273	0.1	5.1978e-003
27164	12.967	0.18182	0.1	8.2703e-004
27165	12.875	9.0909e-002	0.1	3.1311e-003
27166	12.875	0.45455	0.1	6.0699e-003
27167	12.967	0.36364	0.1	8.8714e-003
27168	12.875	0.63636	0.1	3.2843e-003
27169	12.967	0.54545	0.1	3.8099e-003
27170	12.875	0.81818	0.1	2.1517e-003
27171	12.967	0.72727	0.1	2.9675e-003
27172	12.875	1.	0.1	8.101e-004
27173	12.967	0.90909	0.1	1.4174e-003
27174	12.875	1.1818	0.1	-3.9216e-004
27175	12.967	1.0909	0.1	1.4458e-004
27176	12.875	1.3636	0.1	-1.5309e-003
27177	12.967	1.2727	0.1	-1.0833e-003
27178	12.875	1.5455	0.1	-2.5744e-003
27179	12.967	1.4545	0.1	-2.199e-003
27180	12.875	1.7273	0.1	-3.5197e-003
27181	12.967	1.6364	0.1	-3.2078e-003
27182	12.875	1.9091	0.1	-4.3583e-003
27183	12.967	1.8182	0.1	-4.1025e-003
27184	12.875	2.0909	0.1	-5.0821e-003
27185	12.967	2.	0.1	-4.8784e-003
27186	12.875	2.2727	0.1	-5.6839e-003
27187	12.967	2.1818	0.1	-5.5302e-003
27188	12.875	2.4545	0.1	-6.1589e-003
27189	12.967	2.3636	0.1	-6.0552e-003
27190	12.875	2.6364	0.1	-6.502e-003
27191	12.967	2.5455	0.1	-6.4529e-003
27192	12.875	2.8182	0.1	-6.7092e-003
27193	12.967	2.7273	0.1	-6.7176e-003
27194	12.875	3.	0.1	-6.7786e-003
27195	12.967	2.9091	0.1	-6.8506e-003
27196	12.875	3.1818	0.1	-6.7094e-003
27197	12.967	3.0909	0.1	-6.8505e-003
27198	12.875	3.3636	0.1	-6.5024e-003
27199	12.967	3.2727	0.1	-6.7176e-003
27200	12.875	3.5455	0.1	-6.1594e-003
27201	12.967	3.4545	0.1	-6.4524e-003
27202	12.875	3.7273	0.1	-5.6839e-003
27203	12.967	3.6364	0.1	-6.0558e-003
27204	12.875	3.9091	0.1	-5.0817e-003
27205	12.967	3.8182	0.1	-5.53e-003
27206	12.875	4.0909	0.1	-4.3583e-003
27207	12.967	4.	0.1	-4.8781e-003
27208	12.875	4.2727	0.1	-3.5198e-003
27209	12.967	4.1818	0.1	-4.1023e-003
27210	12.875	4.4545	0.1	-2.5743e-003
27211	12.967	4.3636	0.1	-3.2076e-003
27212	12.875	4.6364	0.1	-1.5304e-003
27213	12.967	4.5455	0.1	-2.1985e-003
27214	12.875	4.8182	0.1	-3.9178e-004
27215	12.967	4.7273	0.1	-1.083e-003
27216	12.875	5.	0.1	8.1136e-004
27217	12.967	4.9091	0.1	1.45e-004
27218	12.875	5.1818	0.1	2.1536e-003
27219	12.967	5.0909	0.1	1.4192e-003
27220	12.875	5.3636	0.1	3.285e-003
27221	12.967	5.2727	0.1	2.9687e-003
27222	12.875	5.5455	0.1	6.07e-003
27223	12.967	5.4545	0.1	3.8108e-003
27224	12.875	5.7273	0.1	5.198e-003
27225	12.967	5.6364	0.1	8.8718e-003
27226	12.967	5.8182	0.1	8.2722e-004
27227	12.875	5.9091	0.1	3.132e-003
27228	13.059	0.27273	0.1	5.7071e-003
27229	13.151	0.18182	0.1	7.0652e-004
27230	13.059	9.0909e-002	0.1	3.397e-003
27231	13.059	0.45455	0.1	6.7018e-003
27232	13.151	0.36364	0.1	9.858e-003
27233	13.059	0.63636	0.1	3.5064e-003
27234	13.151	0.54545	0.1	4.0832e-003
27235	13.059	0.81818	0.1	2.2389e-003
27236	13.151	0.72727	0.1	3.1445e-003
27237	13.059	1.	0.1	7.5487e-004
27238	13.151	0.90909	0.1	1.4261e-003
27239	13.059	1.1818	0.1	-5.4579e-004
27240	13.151	1.0909	0.1	4.583e-005
27241	13.059	1.3636	0.1	-1.753e-003
27242	13.151	1.2727	0.1	-1.2619e-003
27243	13.059	1.5455	0.1	-2.837e-003
27244	13.151	1.4545	0.1	-2.4277e-003
27245	13.059	1.7273	0.1	-3.799e-003
27246	13.151	1.6364	0.1	-3.4626e-003
27247	13.059	1.9091	0.1	-4.6355e-003
27248	13.151	1.8182	0.1	-4.3644e-003
27249	13.059	2.0909	0.1	-5.3444e-003
27250	13.151	2.	0.1	-5.1334e-003
27251	13.059	2.2727	0.1	-5.9246e-003
27252	13.151	2.1818	0.1	-5.77e-003
27253	13.059	2.4545	0.1	-6.3771e-003
27254	13.151	2.3636	0.1	-6.2766e-003
27255	13.059	2.6364	0.1	-6.7003e-003
27256	13.151	2.5455	0.1	-6.6562e-003
27257	13.059	2.8182	0.1	-6.8933e-003
27258	13.151	2.7273	0.1	-6.907e-003
27259	13.059	3.	0.1	-6.9577e-003
27260	13.151	2.9091	0.1	-7.0322e-003
27261	13.059	3.1818	0.1	-6.893e-003
27262	13.151	3.0909	0.1	-7.0324e-003
27263	13.059	3.3636	0.1	-6.6994e-003
27264	13.151	3.2727	0.1	-6.9067e-003
27265	13.059	3.5455	0.1	-6.3768e-003
27266	13.151	3.4545	0.1	-6.6557e-003
27267	13.059	3.7273	0.1	-5.9251e-003
27268	13.151	3.6364	0.1	-6.2766e-003
27269	13.059	3.9091	0.1	-5.3444e-003
27270	13.151	3.8182	0.1	-5.7699e-003
27271	13.059	4.0909	0.1	-4.6351e-003
27272	13.151	4.	0.1	-5.133e-003
27273	13.059	4.2727	0.1	-3.7986e-003
27274	13.151	4.1818	0.1	-4.3639e-003
27275	13.059	4.4545	0.1	-2.8364e-003
27276	13.151	4.3636	0.1	-3.4623e-003
27277	13.059	4.6364	0.1	-1.7528e-003
27278	13.151	4.5455	0.1	-2.4274e-003
27279	13.059	4.8182	0.1	-5.4543e-004
27280	13.151	4.7273	0.1	-1.2618e-003
27281	13.059	5.	0.1	7.5581e-004
27282	13.151	4.9091	0.1	4.6634e-005
27283	13.059	5.1818	0.1	2.24e-003
27284	13.151	5.0909	0.1	1.4272e-003
27285	13.059	5.3636	0.1	3.5079e-003
27286	13.151	5.2727	0.1	3.1459e-003
27287	13.059	5.5455	0.1	6.7031e-003
27288	13.151	5.4545	0.1	4.0841e-003
27289	13.059	5.7273	0.1	5.7075e-003
27290	13.151	5.6364	0.1	9.8588e-003
27291	13.151	5.8182	0.1	7.0709e-004
27292	13.059	5.9091	0.1	3.397e-003
27293	13.243	0.27273	0.1	6.2276e-003
27294	13.335	0.18182	0.1	6.0611e-004
27295	13.243	9.0909e-002	0.1	3.6642e-003
27296	13.243	0.45455	0.1	7.3307e-003
27297	13.335	0.36364	0.1	1.0843e-002
27298	13.243	0.63636	0.1	3.7259e-003
27299	13.335	0.54545	0.1	4.349e-003
27300	13.243	0.81818	0.1	2.3278e-003
27301	13.335	0.72727	0.1	3.3159e-003
27302	13.243	1.	0.1	7.0997e-004
27303	13.335	0.90909	0.1	1.4343e-003
27304	13.243	1.1818	0.1	-6.7969e-004
27305	13.335	1.0909	0.1	-4.5004e-005
27306	13.243	1.3636	0.1	-1.9481e-003
27307	13.335	1.2727	0.1	-1.4267e-003
27308	13.243	1.5455	0.1	-3.0674e-003
27309	13.335	1.4545	0.1	-2.6374e-003
27310	13.243	1.7273	0.1	-4.0449e-003
27311	13.335	1.6364	0.1	-3.6963e-003
27312	13.243	1.9091	0.1	-4.8821e-003
27313	13.335	1.8182	0.1	-4.606e-003
27314	13.243	2.0909	0.1	-5.582e-003
27315	13.335	2.	0.1	-5.3718e-003
27316	13.243	2.2727	0.1	-6.1482e-003
27317	13.335	2.1818	0.1	-5.9982e-003
27318	13.243	2.4545	0.1	-6.5848e-003
27319	13.335	2.3636	0.1	-6.4925e-003
27320	13.243	2.6364	0.1	-6.8941e-003
27321	13.335	2.5455	0.1	-6.8593e-003
27322	13.243	2.8182	0.1	-7.0785e-003
27323	13.335	2.7273	0.1	-7.1006e-003
27324	13.243	3.	0.1	-7.14e-003
27325	13.335	2.9091	0.1	-7.2208e-003
27326	13.243	3.1818	0.1	-7.0787e-003
27327	13.335	3.0909	0.1	-7.2208e-003
27328	13.243	3.3636	0.1	-6.8942e-003
27329	13.335	3.2727	0.1	-7.1008e-003
27330	13.243	3.5455	0.1	-6.5846e-003
27331	13.335	3.4545	0.1	-6.8593e-003
27332	13.243	3.7273	0.1	-6.1476e-003
27333	13.335	3.6364	0.1	-6.4921e-003
27334	13.243	3.9091	0.1	-5.5815e-003
27335	13.335	3.8182	0.1	-5.998e-003
27336	13.243	4.0909	0.1	-4.8817e-003
27337	13.335	4.	0.1	-5.3713e-003
27338	13.243	4.2727	0.1	-4.0445e-003
27339	13.335	4.1818	0.1	-4.6055e-003
27340	13.243	4.4545	0.1	-3.0674e-003
27341	13.335	4.3636	0.1	-3.6961e-003
27342	13.243	4.6364	0.1	-1.9481e-003
27343	13.335	4.5455	0.1	-2.6372e-003
27344	13.243	4.8182	0.1	-6.7914e-004
27345	13.335	4.7273	0.1	-1.4264e-003
27346	13.243	5.	0.1	7.109e-004
27347	13.335	4.9091	0.1	-4.4574e-005
27348	13.243	5.1818	0.1	2.3291e-003
27349	13.335	5.0909	0.1	1.4353e-003
27350	13.243	5.3636	0.1	3.7266e-003
27351	13.335	5.2727	0.1	3.3171e-003
27352	13.243	5.5455	0.1	7.331e-003
27353	13.335	5.4545	0.1	4.3491e-003
27354	13.243	5.7273	0.1	6.2285e-003
27355	13.335	5.6364	0.1	1.0844e-002
27356	13.335	5.8182	0.1	6.0707e-004
27357	13.243	5.9091	0.1	3.6645e-003
27358	13.427	0.27273	0.1	6.7567e-003
27359	13.519	0.18182	0.1	5.1826e-004
27360	13.427	9.0909e-002	0.1	3.9302e-003
27361	13.427	0.45455	0.1	7.9513e-003
27362	13.519	0.36364	0.1	1.1826e-002
27363	13.427	0.63636	0.1	3.9336e-003
27364	13.519	0.54545	0.1	4.5999e-003
27365	13.427	0.81818	0.1	2.4085e-003
27366	13.519	0.72727	0.1	3.4728e-003
27367	13.427	1.	0.1	6.6275e-004
27368	13.519	0.90909	0.1	1.4306e-003
27369	13.427	1.1818	0.1	-8.1024e-004
27370	13.519	1.0909	0.1	-1.4328e-004
27371	13.427	1.3636	0.1	-2.1355e-003
27372	13.519	1.2727	0.1	-1.5946e-003
27373	13.427	1.5455	0.1	-3.2873e-003
27374	13.519	1.4545	0.1	-2.8472e-003
27375	13.427	1.7273	0.1	-4.28e-003
27376	13.519	1.6364	0.1	-3.9291e-003
27377	13.427	1.9091	0.1	-5.12e-003
27378	13.519	1.8182	0.1	-4.8471e-003
27379	13.427	2.0909	0.1	-5.8142e-003
27380	13.519	2.	0.1	-5.612e-003
27381	13.427	2.2727	0.1	-6.3704e-003
27382	13.519	2.1818	0.1	-6.2318e-003
27383	13.427	2.4545	0.1	-6.7965e-003
27384	13.519	2.3636	0.1	-6.7166e-003
27385	13.427	2.6364	0.1	-7.0965e-003
27386	13.519	2.5455	0.1	-7.0743e-003
27387	13.427	2.8182	0.1	-7.2744e-003
27388	13.519	2.7273	0.1	-7.3088e-003
27389	13.427	3.	0.1	-7.3334e-003
27390	13.519	2.9091	0.1	-7.425e-003
27391	13.427	3.1818	0.1	-7.2744e-003
27392	13.519	3.0909	0.1	-7.4247e-003
27393	13.427	3.3636	0.1	-7.0966e-003
27394	13.519	3.2727	0.1	-7.3091e-003
27395	13.427	3.5455	0.1	-6.7964e-003
27396	13.519	3.4545	0.1	-7.074e-003
27397	13.427	3.7273	0.1	-6.3705e-003
27398	13.519	3.6364	0.1	-6.7165e-003
27399	13.427	3.9091	0.1	-5.814e-003
27400	13.519	3.8182	0.1	-6.2316e-003
27401	13.427	4.0909	0.1	-5.1195e-003
27402	13.519	4.	0.1	-5.6117e-003
27403	13.427	4.2727	0.1	-4.2797e-003
27404	13.519	4.1818	0.1	-4.8468e-003
27405	13.427	4.4545	0.1	-3.287e-003
27406	13.519	4.3636	0.1	-3.9292e-003
27407	13.427	4.6364	0.1	-2.1351e-003
27408	13.519	4.5455	0.1	-2.8467e-003
27409	13.427	4.8182	0.1	-8.1007e-004
27410	13.519	4.7273	0.1	-1.5942e-003
27411	13.427	5.	0.1	6.6317e-004
27412	13.519	4.9091	0.1	-1.4277e-004
27413	13.427	5.1818	0.1	2.4093e-003
27414	13.519	5.0909	0.1	1.4319e-003
27415	13.427	5.3636	0.1	3.9342e-003
27416	13.519	5.2727	0.1	3.4739e-003
27417	13.427	5.5455	0.1	7.9518e-003
27418	13.519	5.4545	0.1	4.5995e-003
27419	13.427	5.7273	0.1	6.7575e-003
27420	13.519	5.6364	0.1	1.1826e-002
27421	13.519	5.8182	0.1	5.1933e-004
27422	13.427	5.9091	0.1	3.9303e-003
27423	13.611	0.27273	0.1	7.2906e-003
27424	13.703	0.18182	0.1	4.3887e-004
27425	13.611	9.0909e-002	0.1	4.1829e-003
27426	13.611	0.45455	0.1	8.5615e-003
27427	13.703	0.36364	0.1	1.2811e-002
27428	13.611	0.63636	0.1	4.1227e-003
27429	13.703	0.54545	0.1	4.8327e-003
27430	13.611	0.81818	0.1	2.4705e-003
27431	13.703	0.72727	0.1	3.6104e-003
27432	13.611	1.	0.1	5.9873e-004
27433	13.703	0.90909	0.1	1.4076e-003
27434	13.611	1.1818	0.1	-9.5385e-004
27435	13.703	1.0909	0.1	-2.5817e-004
27436	13.611	1.3636	0.1	-2.3327e-003
27437	13.703	1.2727	0.1	-1.7762e-003
27438	13.611	1.5455	0.1	-3.5156e-003
27439	13.703	1.4545	0.1	-3.0693e-003
27440	13.611	1.7273	0.1	-4.5232e-003
27441	13.703	1.6364	0.1	-4.1736e-003
27442	13.611	1.9091	0.1	-5.3667e-003
27443	13.703	1.8182	0.1	-5.1003e-003
27444	13.611	2.0909	0.1	-6.0579e-003
27445	13.703	2.	0.1	-5.8652e-003
27446	13.611	2.2727	0.1	-6.6069e-003
27447	13.703	2.1818	0.1	-6.48e-003
27448	13.611	2.4545	0.1	-7.0241e-003
27449	13.703	2.3636	0.1	-6.9577e-003
27450	13.611	2.6364	0.1	-7.3169e-003
27451	13.703	2.5455	0.1	-7.3077e-003
27452	13.611	2.8182	0.1	-7.49e-003
27453	13.703	2.7273	0.1	-7.5367e-003
27454	13.611	3.	0.1	-7.547e-003
27455	13.703	2.9091	0.1	-7.6494e-003
27456	13.611	3.1818	0.1	-7.49e-003
27457	13.703	3.0909	0.1	-7.6494e-003
27458	13.611	3.3636	0.1	-7.3167e-003
27459	13.703	3.2727	0.1	-7.5368e-003
27460	13.611	3.5455	0.1	-7.0238e-003
27461	13.703	3.4545	0.1	-7.3075e-003
27462	13.611	3.7273	0.1	-6.6066e-003
27463	13.703	3.6364	0.1	-6.9575e-003
27464	13.611	3.9091	0.1	-6.0575e-003
27465	13.703	3.8182	0.1	-6.4798e-003
27466	13.611	4.0909	0.1	-5.3666e-003
27467	13.703	4.	0.1	-5.8651e-003
27468	13.611	4.2727	0.1	-4.5233e-003
27469	13.703	4.1818	0.1	-5.1001e-003
27470	13.611	4.4545	0.1	-3.5156e-003
27471	13.703	4.3636	0.1	-4.1735e-003
27472	13.611	4.6364	0.1	-2.3322e-003
27473	13.703	4.5455	0.1	-3.069e-003
27474	13.611	4.8182	0.1	-9.531e-004
27475	13.703	4.7273	0.1	-1.7758e-003
27476	13.611	5.	0.1	6.0019e-004
27477	13.703	4.9091	0.1	-2.5753e-004
27478	13.611	5.1818	0.1	2.4722e-003
27479	13.703	5.0909	0.1	1.4098e-003
27480	13.611	5.3636	0.1	4.1228e-003
27481	13.703	5.2727	0.1	3.6111e-003
27482	13.611	5.5455	0.1	8.561e-003
27483	13.703	5.4545	0.1	4.8318e-003
27484	13.611	5.7273	0.1	7.2913e-003
27485	13.703	5.6364	0.1	1.2811e-002
27486	13.703	5.8182	0.1	4.4005e-004
27487	13.611	5.9091	0.1	4.1838e-003
27488	13.795	0.27273	0.1	7.8342e-003
27489	13.887	0.18182	0.1	3.7462e-004
27490	13.795	9.0909e-002	0.1	4.4268e-003
27491	13.795	0.45455	0.1	9.1639e-003
27492	13.887	0.36364	0.1	1.3811e-002
27493	13.795	0.63636	0.1	4.2918e-003
27494	13.887	0.54545	0.1	5.0533e-003
27495	13.795	0.81818	0.1	2.5124e-003
27496	13.887	0.72727	0.1	3.7333e-003
27497	13.795	1.	0.1	5.1589e-004
27498	13.887	0.90909	0.1	1.3688e-003
27499	13.795	1.1818	0.1	-1.1142e-003
27500	13.887	1.0909	0.1	-3.8848e-004
27501	13.795	1.3636	0.1	-2.5453e-003
27502	13.887	1.2727	0.1	-1.9717e-003
27503	13.795	1.5455	0.1	-3.7586e-003
27504	13.887	1.4545	0.1	-3.3044e-003
27505	13.795	1.7273	0.1	-4.7812e-003
27506	13.887	1.6364	0.1	-4.4301e-003
27507	13.795	1.9091	0.1	-5.6288e-003
27508	13.887	1.8182	0.1	-5.3655e-003
27509	13.795	2.0909	0.1	-6.3171e-003
27510	13.887	2.	0.1	-6.1307e-003
27511	13.795	2.2727	0.1	-6.8606e-003
27512	13.887	2.1818	0.1	-6.741e-003
27513	13.795	2.4545	0.1	-7.2711e-003
27514	13.887	2.3636	0.1	-7.2126e-003
27515	13.795	2.6364	0.1	-7.5573e-003
27516	13.887	2.5455	0.1	-7.5562e-003
27517	13.795	2.8182	0.1	-7.7261e-003
27518	13.887	2.7273	0.1	-7.7797e-003
27519	13.795	3.	0.1	-7.7818e-003
27520	13.887	2.9091	0.1	-7.8898e-003
27521	13.795	3.1818	0.1	-7.7261e-003
27522	13.887	3.0909	0.1	-7.8898e-003
27523	13.795	3.3636	0.1	-7.5574e-003
27524	13.887	3.2727	0.1	-7.7796e-003
27525	13.795	3.5455	0.1	-7.2709e-003
27526	13.887	3.4545	0.1	-7.5558e-003
27527	13.795	3.7273	0.1	-6.8603e-003
27528	13.887	3.6364	0.1	-7.2123e-003
27529	13.795	3.9091	0.1	-6.3171e-003
27530	13.887	3.8182	0.1	-6.7411e-003
27531	13.795	4.0909	0.1	-5.6287e-003
27532	13.887	4.	0.1	-6.1307e-003
27533	13.795	4.2727	0.1	-4.7808e-003
27534	13.887	4.1818	0.1	-5.3652e-003
27535	13.795	4.4545	0.1	-3.7582e-003
27536	13.887	4.3636	0.1	-4.4295e-003
27537	13.795	4.6364	0.1	-2.5451e-003
27538	13.887	4.5455	0.1	-3.3036e-003
27539	13.795	4.8182	0.1	-1.1139e-003
27540	13.887	4.7273	0.1	-1.9717e-003
27541	13.795	5.	0.1	5.1728e-004
27542	13.887	4.9091	0.1	-3.8794e-004
27543	13.795	5.1818	0.1	2.5138e-003
27544	13.887	5.0909	0.1	1.3708e-003
27545	13.795	5.3636	0.1	4.2916e-003
27546	13.887	5.2727	0.1	3.7335e-003
27547	13.795	5.5455	0.1	9.1635e-003
27548	13.887	5.4545	0.1	5.0524e-003
27549	13.795	5.7273	0.1	7.8347e-003
27550	13.887	5.6364	0.1	1.3812e-002
27551	13.887	5.8182	0.1	3.7644e-004
27552	13.795	5.9091	0.1	4.4274e-003
27553	13.979	0.27273	0.1	8.4042e-003
27554	14.071	0.18182	0.1	3.3764e-004
27555	13.979	9.0909e-002	0.1	4.6704e-003
27556	13.979	0.45455	0.1	9.7752e-003
27557	14.071	0.36364	0.1	1.4845e-002
27558	13.979	0.63636	0.1	4.4528e-003
27559	14.071	0.54545	0.1	5.2705e-003
27560	13.979	0.81818	0.1	2.5434e-003
27561	14.071	0.72727	0.1	3.8482e-003
27562	13.979	1.	0.1	4.2068e-004
27563	14.071	0.90909	0.1	1.3187e-003
27564	13.979	1.1818	0.1	-1.2867e-003
27565	14.071	1.0909	0.1	-5.2999e-004
27566	13.979	1.3636	0.1	-2.7687e-003
27567	14.071	1.2727	0.1	-2.1782e-003
27568	13.979	1.5455	0.1	-4.0112e-003
27569	14.071	1.4545	0.1	-3.5493e-003
27570	13.979	1.7273	0.1	-5.0478e-003
27571	14.071	1.6364	0.1	-4.695e-003
27572	13.979	1.9091	0.1	-5.8994e-003
27573	14.071	1.8182	0.1	-5.639e-003
27574	13.979	2.0909	0.1	-6.5856e-003
27575	14.071	2.	0.1	-6.4043e-003
27576	13.979	2.2727	0.1	-7.1232e-003
27577	14.071	2.1818	0.1	-7.0104e-003
27578	13.979	2.4545	0.1	-7.5274e-003
27579	14.071	2.3636	0.1	-7.4751e-003
27580	13.979	2.6364	0.1	-7.8081e-003
27581	14.071	2.5455	0.1	-7.8126e-003
27582	13.979	2.8182	0.1	-7.9728e-003
27583	14.071	2.7273	0.1	-8.0308e-003
27584	13.979	3.	0.1	-8.0272e-003
27585	14.071	2.9091	0.1	-8.1383e-003
27586	13.979	3.1818	0.1	-7.9728e-003
27587	14.071	3.0909	0.1	-8.1381e-003
27588	13.979	3.3636	0.1	-7.8076e-003
27589	14.071	3.2727	0.1	-8.0306e-003
27590	13.979	3.5455	0.1	-7.527e-003
27591	14.071	3.4545	0.1	-7.8122e-003
27592	13.979	3.7273	0.1	-7.1234e-003
27593	14.071	3.6364	0.1	-7.4748e-003
27594	13.979	3.9091	0.1	-6.5857e-003
27595	14.071	3.8182	0.1	-7.0104e-003
27596	13.979	4.0909	0.1	-5.8992e-003
27597	14.071	4.	0.1	-6.4043e-003
27598	13.979	4.2727	0.1	-5.0473e-003
27599	14.071	4.1818	0.1	-5.6385e-003
27600	13.979	4.4545	0.1	-4.0102e-003
27601	14.071	4.3636	0.1	-4.6949e-003
27602	13.979	4.6364	0.1	-2.768e-003
27603	14.071	4.5455	0.1	-3.548e-003
27604	13.979	4.8182	0.1	-1.2863e-003
27605	14.071	4.7273	0.1	-2.1781e-003
27606	13.979	5.	0.1	4.2184e-004
27607	14.071	4.9091	0.1	-5.2931e-004
27608	13.979	5.1818	0.1	2.5443e-003
27609	14.071	5.0909	0.1	1.3202e-003
27610	13.979	5.3636	0.1	4.4523e-003
27611	14.071	5.2727	0.1	3.8486e-003
27612	13.979	5.5455	0.1	9.7751e-003
27613	14.071	5.4545	0.1	5.2695e-003
27614	13.979	5.7273	0.1	8.4059e-003
27615	14.071	5.6364	0.1	1.4845e-002
27616	14.071	5.8182	0.1	3.4004e-004
27617	13.979	5.9091	0.1	4.6707e-003
27618	14.163	0.27273	0.1	9.0156e-003
27619	14.254	0.18182	0.1	3.5433e-004
27620	14.163	9.0909e-002	0.1	4.919e-003
27621	14.163	0.45455	0.1	1.0405e-002
27622	14.254	0.36364	0.1	1.5944e-002
27623	14.163	0.63636	0.1	4.6092e-003
27624	14.254	0.54545	0.1	5.5057e-003
27625	14.163	0.81818	0.1	2.5656e-003
27626	14.254	0.72727	0.1	3.9759e-003
27627	14.163	1.	0.1	3.1535e-004
27628	14.254	0.90909	0.1	1.276e-003
27629	14.163	1.1818	0.1	-1.4689e-003
27630	14.254	1.0909	0.1	-6.6468e-004
27631	14.163	1.3636	0.1	-3.0016e-003
27632	14.254	1.2727	0.1	-2.3782e-003
27633	14.163	1.5455	0.1	-4.2721e-003
27634	14.254	1.4545	0.1	-3.7862e-003
27635	14.163	1.7273	0.1	-5.3222e-003
27636	14.254	1.6364	0.1	-4.9517e-003
27637	14.163	1.9091	0.1	-6.1776e-003
27638	14.254	1.8182	0.1	-5.9026e-003
27639	14.163	2.0909	0.1	-6.861e-003
27640	14.254	2.	0.1	-6.6675e-003
27641	14.163	2.2727	0.1	-7.3928e-003
27642	14.254	2.1818	0.1	-7.2681e-003
27643	14.163	2.4545	0.1	-7.7901e-003
27644	14.254	2.3636	0.1	-7.7258e-003
27645	14.163	2.6364	0.1	-8.0645e-003
27646	14.254	2.5455	0.1	-8.0558e-003
27647	14.163	2.8182	0.1	-8.2251e-003
27648	14.254	2.7273	0.1	-8.2689e-003
27649	14.163	3.	0.1	-8.278e-003
27650	14.254	2.9091	0.1	-8.3732e-003
27651	14.163	3.1818	0.1	-8.2249e-003
27652	14.254	3.0909	0.1	-8.3733e-003
27653	14.163	3.3636	0.1	-8.0645e-003
27654	14.254	3.2727	0.1	-8.2687e-003
27655	14.163	3.5455	0.1	-7.7898e-003
27656	14.254	3.4545	0.1	-8.056e-003
27657	14.163	3.7273	0.1	-7.3925e-003
27658	14.254	3.6364	0.1	-7.7253e-003
27659	14.163	3.9091	0.1	-6.8609e-003
27660	14.254	3.8182	0.1	-7.2676e-003
27661	14.163	4.0909	0.1	-6.1772e-003
27662	14.254	4.	0.1	-6.6674e-003
27663	14.163	4.2727	0.1	-5.3221e-003
27664	14.254	4.1818	0.1	-5.9023e-003
27665	14.163	4.4545	0.1	-4.2716e-003
27666	14.254	4.3636	0.1	-4.9515e-003
27667	14.163	4.6364	0.1	-3.0009e-003
27668	14.254	4.5455	0.1	-3.7852e-003
27669	14.163	4.8182	0.1	-1.4685e-003
27670	14.254	4.7273	0.1	-2.3778e-003
27671	14.163	5.	0.1	3.1634e-004
27672	14.254	4.9091	0.1	-6.6408e-004
27673	14.163	5.1818	0.1	2.5666e-003
27674	14.254	5.0909	0.1	1.2774e-003
27675	14.163	5.3636	0.1	4.6091e-003
27676	14.254	5.2727	0.1	3.9765e-003
27677	14.163	5.5455	0.1	1.0405e-002
27678	14.254	5.4545	0.1	5.505e-003
27679	14.163	5.7273	0.1	9.0165e-003
27680	14.254	5.6364	0.1	1.5944e-002
27681	14.254	5.8182	0.1	3.5561e-004
27682	14.163	5.9091	0.1	4.9217e-003
27683	14.346	0.27273	0.1	9.7126e-003
27684	14.438	0.18182	0.1	4.2731e-004
27685	14.346	9.0909e-002	0.1	5.2149e-003
27686	14.346	0.45455	0.1	1.1097e-002
27687	14.438	0.36364	0.1	1.7118e-002
27688	14.346	0.63636	0.1	4.7993e-003
27689	14.438	0.54545	0.1	5.7586e-003
27690	14.346	0.81818	0.1	2.616e-003
27691	14.438	0.72727	0.1	4.1141e-003
27692	14.346	1.	0.1	2.3412e-004
27693	14.438	0.90909	0.1	1.2364e-003
27694	14.346	1.1818	0.1	-1.6281e-003
27695	14.438	1.0909	0.1	-7.9832e-004
27696	14.346	1.3636	0.1	-3.2104e-003
27697	14.438	1.2727	0.1	-2.5772e-003
27698	14.346	1.5455	0.1	-4.5081e-003
27699	14.438	1.4545	0.1	-4.0208e-003
27700	14.346	1.7273	0.1	-5.5703e-003
27701	14.438	1.6364	0.1	-5.2051e-003
27702	14.346	1.9091	0.1	-6.4275e-003
27703	14.438	1.8182	0.1	-6.1611e-003
27704	14.346	2.0909	0.1	-7.1072e-003
27705	14.438	2.	0.1	-6.9237e-003
27706	14.346	2.2727	0.1	-7.6319e-003
27707	14.438	2.1818	0.1	-7.517e-003
27708	14.346	2.4545	0.1	-8.0212e-003
27709	14.438	2.3636	0.1	-7.9664e-003
27710	14.346	2.6364	0.1	-8.289e-003
27711	14.438	2.5455	0.1	-8.2882e-003
27712	14.346	2.8182	0.1	-8.4453e-003
27713	14.438	2.7273	0.1	-8.4953e-003
27714	14.346	3.	0.1	-8.4968e-003
27715	14.438	2.9091	0.1	-8.5959e-003
27716	14.346	3.1818	0.1	-8.4455e-003
27717	14.438	3.0909	0.1	-8.5963e-003
27718	14.346	3.3636	0.1	-8.2891e-003
27719	14.438	3.2727	0.1	-8.4952e-003
27720	14.346	3.5455	0.1	-8.0211e-003
27721	14.438	3.4545	0.1	-8.2879e-003
27722	14.346	3.7273	0.1	-7.6312e-003
27723	14.438	3.6364	0.1	-7.9658e-003
27724	14.346	3.9091	0.1	-7.1066e-003
27725	14.438	3.8182	0.1	-7.5167e-003
27726	14.346	4.0909	0.1	-6.4273e-003
27727	14.438	4.	0.1	-6.9235e-003
27728	14.346	4.2727	0.1	-5.5698e-003
27729	14.438	4.1818	0.1	-6.1606e-003
27730	14.346	4.4545	0.1	-4.5073e-003
27731	14.438	4.3636	0.1	-5.2049e-003
27732	14.346	4.6364	0.1	-3.2096e-003
27733	14.438	4.5455	0.1	-4.0201e-003
27734	14.346	4.8182	0.1	-1.6275e-003
27735	14.438	4.7273	0.1	-2.5764e-003
27736	14.346	5.	0.1	2.3515e-004
27737	14.438	4.9091	0.1	-7.9793e-004
27738	14.346	5.1818	0.1	2.617e-003
27739	14.438	5.0909	0.1	1.2383e-003
27740	14.346	5.3636	0.1	4.7993e-003
27741	14.438	5.2727	0.1	4.1149e-003
27742	14.346	5.5455	0.1	1.1097e-002
27743	14.438	5.4545	0.1	5.7585e-003
27744	14.346	5.7273	0.1	9.7132e-003
27745	14.438	5.6364	0.1	1.7118e-002
27746	14.438	5.8182	0.1	4.2736e-004
27747	14.346	5.9091	0.1	5.2145e-003
27748	14.53	0.27273	0.1	1.0466e-002
27749	14.622	0.18182	0.1	5.39e-004
27750	14.53	9.0909e-002	0.1	5.5129e-003
27751	14.53	0.45455	0.1	1.1817e-002
27752	14.622	0.36364	0.1	1.8354e-002
27753	14.53	0.63636	0.1	4.9822e-003
27754	14.622	0.54545	0.1	6.0072e-003
27755	14.53	0.81818	0.1	2.6509e-003
27756	14.622	0.72727	0.1	4.2377e-003
27757	14.53	1.	0.1	1.3262e-004
27758	14.622	0.90909	0.1	1.1729e-003
27759	14.53	1.1818	0.1	-1.8081e-003
27760	14.622	1.0909	0.1	-9.5881e-004
27761	14.53	1.3636	0.1	-3.4397e-003
27762	14.622	1.2727	0.1	-2.8029e-003
27763	14.53	1.5455	0.1	-4.7631e-003
27764	14.622	1.4545	0.1	-4.2814e-003
27765	14.53	1.7273	0.1	-5.836e-003
27766	14.622	1.6364	0.1	-5.4828e-003
27767	14.53	1.9091	0.1	-6.6934e-003
27768	14.622	1.8182	0.1	-6.4421e-003
27769	14.53	2.0909	0.1	-7.3667e-003
27770	14.622	2.	0.1	-7.1993e-003
27771	14.53	2.2727	0.1	-7.8825e-003
27772	14.622	2.1818	0.1	-7.7834e-003
27773	14.53	2.4545	0.1	-8.2629e-003
27774	14.622	2.3636	0.1	-8.2221e-003
27775	14.53	2.6364	0.1	-8.5229e-003
27776	14.622	2.5455	0.1	-8.5342e-003
27777	14.53	2.8182	0.1	-8.6737e-003
27778	14.622	2.7273	0.1	-8.7334e-003
27779	14.53	3.	0.1	-8.7232e-003
27780	14.622	2.9091	0.1	-8.8304e-003
27781	14.53	3.1818	0.1	-8.6739e-003
27782	14.622	3.0909	0.1	-8.8308e-003
27783	14.53	3.3636	0.1	-8.5224e-003
27784	14.622	3.2727	0.1	-8.7335e-003
27785	14.53	3.5455	0.1	-8.262e-003
27786	14.622	3.4545	0.1	-8.5339e-003
27787	14.53	3.7273	0.1	-7.8823e-003
27788	14.622	3.6364	0.1	-8.2214e-003
27789	14.53	3.9091	0.1	-7.3668e-003
27790	14.622	3.8182	0.1	-7.7835e-003
27791	14.53	4.0909	0.1	-6.6929e-003
27792	14.622	4.	0.1	-7.1992e-003
27793	14.53	4.2727	0.1	-5.8357e-003
27794	14.622	4.1818	0.1	-6.4417e-003
27795	14.53	4.4545	0.1	-4.763e-003
27796	14.622	4.3636	0.1	-5.4825e-003
27797	14.53	4.6364	0.1	-3.439e-003
27798	14.622	4.5455	0.1	-4.282e-003
27799	14.53	4.8182	0.1	-1.8076e-003
27800	14.622	4.7273	0.1	-2.8021e-003
27801	14.53	5.	0.1	1.3394e-004
27802	14.622	4.9091	0.1	-9.5804e-004
27803	14.53	5.1818	0.1	2.6526e-003
27804	14.622	5.0909	0.1	1.175e-003
27805	14.53	5.3636	0.1	4.9827e-003
27806	14.622	5.2727	0.1	4.2388e-003
27807	14.53	5.5455	0.1	1.1817e-002
27808	14.622	5.4545	0.1	6.0065e-003
27809	14.53	5.7273	0.1	1.0465e-002
27810	14.622	5.6364	0.1	1.8355e-002
27811	14.622	5.8182	0.1	5.399e-004
27812	14.53	5.9091	0.1	5.5138e-003
27813	14.714	0.27273	0.1	1.1276e-002
27814	14.806	0.18182	0.1	6.9432e-004
27815	14.714	9.0909e-002	0.1	5.8115e-003
27816	14.714	0.45455	0.1	1.2563e-002
27817	14.806	0.36364	0.1	1.9661e-002
27818	14.714	0.63636	0.1	5.151e-003
27819	14.806	0.54545	0.1	6.2416e-003
27820	14.714	0.81818	0.1	2.6618e-003
27821	14.806	0.72727	0.1	4.3368e-003
27822	14.714	1.	0.1	3.1687e-007
27823	14.806	0.90909	0.1	1.0745e-003
27824	14.714	1.1818	0.1	-2.021e-003
27825	14.806	1.0909	0.1	-1.1587e-003
27826	14.714	1.3636	0.1	-3.7011e-003
27827	14.806	1.2727	0.1	-3.0681e-003
27828	14.714	1.5455	0.1	-5.0492e-003
27829	14.806	1.4545	0.1	-4.5808e-003
27830	14.714	1.7273	0.1	-6.1307e-003
27831	14.806	1.6364	0.1	-5.7964e-003
27832	14.714	1.9091	0.1	-6.9851e-003
27833	14.806	1.8182	0.1	-6.7558e-003
27834	14.714	2.0909	0.1	-7.6496e-003
27835	14.806	2.	0.1	-7.5049e-003
27836	14.714	2.2727	0.1	-8.1539e-003
27837	14.806	2.1818	0.1	-8.0766e-003
27838	14.714	2.4545	0.1	-8.5225e-003
27839	14.806	2.3636	0.1	-8.5017e-003
27840	14.714	2.6364	0.1	-8.7726e-003
27841	14.806	2.5455	0.1	-8.8019e-003
27842	14.714	2.8182	0.1	-8.9174e-003
27843	14.806	2.7273	0.1	-8.9917e-003
27844	14.714	3.	0.1	-8.9651e-003
27845	14.806	2.9091	0.1	-9.0843e-003
27846	14.714	3.1818	0.1	-8.9177e-003
27847	14.806	3.0909	0.1	-9.0842e-003
27848	14.714	3.3636	0.1	-8.7729e-003
27849	14.806	3.2727	0.1	-8.9921e-003
27850	14.714	3.5455	0.1	-8.5224e-003
27851	14.806	3.4545	0.1	-8.8014e-003
27852	14.714	3.7273	0.1	-8.1535e-003
27853	14.806	3.6364	0.1	-8.5013e-003
27854	14.714	3.9091	0.1	-7.6494e-003
27855	14.806	3.8182	0.1	-8.0766e-003
27856	14.714	4.0909	0.1	-6.9851e-003
27857	14.806	4.	0.1	-7.5048e-003
27858	14.714	4.2727	0.1	-6.1303e-003
27859	14.806	4.1818	0.1	-6.7556e-003
27860	14.714	4.4545	0.1	-5.0497e-003
27861	14.806	4.3636	0.1	-5.7957e-003
27862	14.714	4.6364	0.1	-3.7016e-003
27863	14.806	4.5455	0.1	-4.5817e-003
27864	14.714	4.8182	0.1	-2.0199e-003
27865	14.806	4.7273	0.1	-3.0676e-003
27866	14.714	5.	0.1	1.7981e-006
27867	14.806	4.9091	0.1	-1.1578e-003
27868	14.714	5.1818	0.1	2.6632e-003
27869	14.806	5.0909	0.1	1.0759e-003
27870	14.714	5.3636	0.1	5.1508e-003
27871	14.806	5.2727	0.1	4.338e-003
27872	14.714	5.5455	0.1	1.2562e-002
27873	14.806	5.4545	0.1	6.2405e-003
27874	14.714	5.7273	0.1	1.1278e-002
27875	14.806	5.6364	0.1	1.9661e-002
27876	14.806	5.8182	0.1	6.961e-004
27877	14.714	5.9091	0.1	5.8127e-003
27878	14.898	0.27273	0.1	1.2156e-002
27879	14.99	0.18182	0.1	9.0363e-004
27880	14.898	9.0909e-002	0.1	6.1048e-003
27881	14.898	0.45455	0.1	1.3333e-002
27882	14.99	0.36364	0.1	2.1048e-002
27883	14.898	0.63636	0.1	5.2927e-003
27884	14.99	0.54545	0.1	6.4559e-003
27885	14.898	0.81818	0.1	2.636e-003
27886	14.99	0.72727	0.1	4.4037e-003
27887	14.898	1.	0.1	-1.7604e-004
27888	14.99	0.90909	0.1	9.305e-004
27889	14.898	1.1818	0.1	-2.28e-003
27890	14.99	1.0909	0.1	-1.4068e-003
27891	14.898	1.3636	0.1	-4.0087e-003
27892	14.99	1.2727	0.1	-3.3836e-003
27893	14.898	1.5455	0.1	-5.3788e-003
27894	14.99	1.4545	0.1	-4.9288e-003
27895	14.898	1.7273	0.1	-6.4648e-003
27896	14.99	1.6364	0.1	-6.1548e-003
27897	14.898	1.9091	0.1	-7.3134e-003
27898	14.99	1.8182	0.1	-7.1106e-003
27899	14.898	2.0909	0.1	-7.9657e-003
27900	14.99	2.	0.1	-7.8477e-003
27901	14.898	2.2727	0.1	-8.4552e-003
27902	14.99	2.1818	0.1	-8.403e-003
27903	14.898	2.4545	0.1	-8.8099e-003
27904	14.99	2.3636	0.1	-8.8112e-003
27905	14.898	2.6364	0.1	-9.0484e-003
27906	14.99	2.5455	0.1	-9.0958e-003
27907	14.898	2.8182	0.1	-9.1853e-003
27908	14.99	2.7273	0.1	-9.2746e-003
27909	14.898	3.	0.1	-9.2297e-003
27910	14.99	2.9091	0.1	-9.3614e-003
27911	14.898	3.1818	0.1	-9.1852e-003
27912	14.99	3.0909	0.1	-9.3612e-003
27913	14.898	3.3636	0.1	-9.0479e-003
27914	14.99	3.2727	0.1	-9.2751e-003
27915	14.898	3.5455	0.1	-8.809e-003
27916	14.99	3.4545	0.1	-9.0952e-003
27917	14.898	3.7273	0.1	-8.4552e-003
27918	14.99	3.6364	0.1	-8.8112e-003
27919	14.898	3.9091	0.1	-7.9657e-003
27920	14.99	3.8182	0.1	-8.4029e-003
27921	14.898	4.0909	0.1	-7.3132e-003
27922	14.99	4.	0.1	-7.8475e-003
27923	14.898	4.2727	0.1	-6.4644e-003
27924	14.99	4.1818	0.1	-7.1102e-003
27925	14.898	4.4545	0.1	-5.3787e-003
27926	14.99	4.3636	0.1	-6.1544e-003
27927	14.898	4.6364	0.1	-4.0087e-003
27928	14.99	4.5455	0.1	-4.9284e-003
27929	14.898	4.8182	0.1	-2.2797e-003
27930	14.99	4.7273	0.1	-3.383e-003
27931	14.898	5.	0.1	-1.7524e-004
27932	14.99	4.9091	0.1	-1.4064e-003
27933	14.898	5.1818	0.1	2.6371e-003
27934	14.99	5.0909	0.1	9.3174e-004
27935	14.898	5.3636	0.1	5.2929e-003
27936	14.99	5.2727	0.1	4.4055e-003
27937	14.898	5.5455	0.1	1.3333e-002
27938	14.99	5.4545	0.1	6.455e-003
27939	14.898	5.7273	0.1	1.2157e-002
27940	14.99	5.6364	0.1	2.1048e-002
27941	14.99	5.8182	0.1	9.0513e-004
27942	14.898	5.9091	0.1	6.1056e-003
27943	15.082	0.27273	0.1	1.3117e-002
27944	15.174	0.18182	0.1	1.1864e-003
27945	15.082	9.0909e-002	0.1	6.3902e-003
27946	15.082	0.45455	0.1	1.4135e-002
27947	15.174	0.36364	0.1	2.2537e-002
27948	15.082	0.63636	0.1	5.4061e-003
27949	15.174	0.54545	0.1	6.6534e-003
27950	15.082	0.81818	0.1	2.5676e-003
27951	15.174	0.72727	0.1	4.4393e-003
27952	15.082	1.	0.1	-4.0282e-004
27953	15.174	0.90909	0.1	7.3872e-004
27954	15.082	1.1818	0.1	-2.5916e-003
27955	15.174	1.0909	0.1	-1.7061e-003
27956	15.082	1.3636	0.1	-4.369e-003
27957	15.174	1.2727	0.1	-3.7514e-003
27958	15.082	1.5455	0.1	-5.7582e-003
27959	15.174	1.4545	0.1	-5.3268e-003
27960	15.082	1.7273	0.1	-6.8453e-003
27961	15.174	1.6364	0.1	-6.5597e-003
27962	15.082	1.9091	0.1	-7.6833e-003
27963	15.174	1.8182	0.1	-7.5075e-003
27964	15.082	2.0909	0.1	-8.3187e-003
27965	15.174	2.	0.1	-8.2265e-003
27966	15.082	2.2727	0.1	-8.7894e-003
27967	15.174	2.1818	0.1	-8.761e-003
27968	15.082	2.4545	0.1	-9.1253e-003
27969	15.174	2.3636	0.1	-9.1472e-003
27970	15.082	2.6364	0.1	-9.3487e-003
27971	15.174	2.5455	0.1	-9.4129e-003
27972	15.082	2.8182	0.1	-9.4766e-003
27973	15.174	2.7273	0.1	-9.5783e-003
27974	15.082	3.	0.1	-9.5184e-003
27975	15.174	2.9091	0.1	-9.6577e-003
27976	15.082	3.1818	0.1	-9.477e-003
27977	15.174	3.0909	0.1	-9.6576e-003
27978	15.082	3.3636	0.1	-9.3491e-003
27979	15.174	3.2727	0.1	-9.5785e-003
27980	15.082	3.5455	0.1	-9.1256e-003
27981	15.174	3.4545	0.1	-9.4124e-003
27982	15.082	3.7273	0.1	-8.7894e-003
27983	15.174	3.6364	0.1	-9.1475e-003
27984	15.082	3.9091	0.1	-8.3185e-003
27985	15.174	3.8182	0.1	-8.7604e-003
27986	15.082	4.0909	0.1	-7.683e-003
27987	15.174	4.	0.1	-8.2272e-003
27988	15.082	4.2727	0.1	-6.845e-003
27989	15.174	4.1818	0.1	-7.5065e-003
27990	15.082	4.4545	0.1	-5.7576e-003
27991	15.174	4.3636	0.1	-6.5599e-003
27992	15.082	4.6364	0.1	-4.3679e-003
27993	15.174	4.5455	0.1	-5.3258e-003
27994	15.082	4.8182	0.1	-2.5908e-003
27995	15.174	4.7273	0.1	-3.7508e-003
27996	15.082	5.	0.1	-4.0191e-004
27997	15.174	4.9091	0.1	-1.7059e-003
27998	15.082	5.1818	0.1	2.5696e-003
27999	15.174	5.0909	0.1	7.4033e-004
28000	15.082	5.3636	0.1	5.4067e-003
28001	15.174	5.2727	0.1	4.4411e-003
28002	15.082	5.5455	0.1	1.4134e-002
28003	15.174	5.4545	0.1	6.6522e-003
28004	15.082	5.7273	0.1	1.3118e-002
28005	15.174	5.6364	0.1	2.2538e-002
28006	15.174	5.8182	0.1	1.187e-003
28007	15.082	5.9091	0.1	6.391e-003
28008	15.266	0.27273	0.1	1.4187e-002
28009	15.358	0.18182	0.1	1.5701e-003
28010	15.266	9.0909e-002	0.1	6.6778e-003
28011	15.266	0.45455	0.1	1.4983e-002
28012	15.358	0.36364	0.1	2.4154e-002
28013	15.266	0.63636	0.1	5.4958e-003
28014	15.358	0.54545	0.1	6.8359e-003
28015	15.266	0.81818	0.1	2.4611e-003
28016	15.358	0.72727	0.1	4.4443e-003
28017	15.266	1.	0.1	-6.7883e-004
28018	15.358	0.90909	0.1	4.9866e-004
28019	15.266	1.1818	0.1	-2.9543e-003
28020	15.358	1.0909	0.1	-2.0586e-003
28021	15.266	1.3636	0.1	-4.7789e-003
28022	15.358	1.2727	0.1	-4.1722e-003
28023	15.266	1.5455	0.1	-6.1842e-003
28024	15.358	1.4545	0.1	-5.7753e-003
28025	15.266	1.7273	0.1	-7.2679e-003
28026	15.358	1.6364	0.1	-7.0106e-003
28027	15.266	1.9091	0.1	-8.0896e-003
28028	15.358	1.8182	0.1	-7.9437e-003
28029	15.266	2.0909	0.1	-8.7024e-003
28030	15.358	2.	0.1	-8.6394e-003
28031	15.266	2.2727	0.1	-9.1488e-003
28032	15.358	2.1818	0.1	-9.1465e-003
28033	15.266	2.4545	0.1	-9.4622e-003
28034	15.358	2.3636	0.1	-9.5052e-003
28035	15.266	2.6364	0.1	-9.6682e-003
28036	15.358	2.5455	0.1	-9.7483e-003
28037	15.266	2.8182	0.1	-9.7842e-003
28038	15.358	2.7273	0.1	-9.8965e-003
28039	15.266	3.	0.1	-9.8214e-003
28040	15.358	2.9091	0.1	-9.967e-003
28041	15.266	3.1818	0.1	-9.7839e-003
28042	15.358	3.0909	0.1	-9.9665e-003
28043	15.266	3.3636	0.1	-9.6676e-003
28044	15.358	3.2727	0.1	-9.8966e-003
28045	15.266	3.5455	0.1	-9.4617e-003
28046	15.358	3.4545	0.1	-9.7474e-003
28047	15.266	3.7273	0.1	-9.1484e-003
28048	15.358	3.6364	0.1	-9.505e-003
28049	15.266	3.9091	0.1	-8.7027e-003
28050	15.358	3.8182	0.1	-9.1461e-003
28051	15.266	4.0909	0.1	-8.0895e-003
28052	15.358	4.	0.1	-8.6398e-003
28053	15.266	4.2727	0.1	-7.2674e-003
28054	15.358	4.1818	0.1	-7.9433e-003
28055	15.266	4.4545	0.1	-6.184e-003
28056	15.358	4.3636	0.1	-7.0104e-003
28057	15.266	4.6364	0.1	-4.7784e-003
28058	15.358	4.5455	0.1	-5.7746e-003
28059	15.266	4.8182	0.1	-2.9543e-003
28060	15.358	4.7273	0.1	-4.1715e-003
28061	15.266	5.	0.1	-6.7795e-004
28062	15.358	4.9091	0.1	-2.0591e-003
28063	15.266	5.1818	0.1	2.4625e-003
28064	15.358	5.0909	0.1	5.0049e-004
28065	15.266	5.3636	0.1	5.4958e-003
28066	15.358	5.2727	0.1	4.446e-003
28067	15.266	5.5455	0.1	1.4983e-002
28068	15.358	5.4545	0.1	6.8357e-003
28069	15.266	5.7273	0.1	1.4188e-002
28070	15.358	5.6364	0.1	2.4155e-002
28071	15.358	5.8182	0.1	1.5696e-003
28072	15.266	5.9091	0.1	6.6781e-003
28073	15.45	0.27273	0.1	1.5394e-002
28074	15.542	0.18182	0.1	2.0989e-003
28075	15.45	9.0909e-002	0.1	6.9701e-003
28076	15.45	0.45455	0.1	1.5889e-002
28077	15.542	0.36364	0.1	2.5939e-002
28078	15.45	0.63636	0.1	5.5594e-003
28079	15.542	0.54545	0.1	7.0183e-003
28080	15.45	0.81818	0.1	2.3118e-003
28081	15.542	0.72727	0.1	4.4301e-003
28082	15.45	1.	0.1	-1.008e-003
28083	15.542	0.90909	0.1	2.1977e-004
28084	15.45	1.1818	0.1	-3.3724e-003
28085	15.542	1.0909	0.1	-2.4554e-003
28086	15.45	1.3636	0.1	-5.2425e-003
28087	15.542	1.2727	0.1	-4.6374e-003
28088	15.45	1.5455	0.1	-6.6599e-003
28089	15.542	1.4545	0.1	-6.264e-003
28090	15.45	1.7273	0.1	-7.7334e-003
28091	15.542	1.6364	0.1	-7.4958e-003
28092	15.45	1.9091	0.1	-8.5324e-003
28093	15.542	1.8182	0.1	-8.4076e-003
28094	15.45	2.0909	0.1	-9.1167e-003
28095	15.542	2.	0.1	-9.0725e-003
28096	15.45	2.2727	0.1	-9.5321e-003
28097	15.542	2.1818	0.1	-9.5445e-003
28098	15.45	2.4545	0.1	-9.8176e-003
28099	15.542	2.3636	0.1	-9.8697e-003
28100	15.45	2.6364	0.1	-1.0001e-002
28101	15.542	2.5455	0.1	-1.0084e-002
28102	15.45	2.8182	0.1	-1.0103e-002
28103	15.542	2.7273	0.1	-1.0212e-002
28104	15.45	3.	0.1	-1.0135e-002
28105	15.542	2.9091	0.1	-1.0271e-002
28106	15.45	3.1818	0.1	-1.0103e-002
28107	15.542	3.0909	0.1	-1.0271e-002
28108	15.45	3.3636	0.1	-1.0001e-002
28109	15.542	3.2727	0.1	-1.0211e-002
28110	15.45	3.5455	0.1	-9.8171e-003
28111	15.542	3.4545	0.1	-1.0084e-002
28112	15.45	3.7273	0.1	-9.5319e-003
28113	15.542	3.6364	0.1	-9.8691e-003
28114	15.45	3.9091	0.1	-9.1164e-003
28115	15.542	3.8182	0.1	-9.5441e-003
28116	15.45	4.0909	0.1	-8.5326e-003
28117	15.542	4.	0.1	-9.0723e-003
28118	15.45	4.2727	0.1	-7.7332e-003
28119	15.542	4.1818	0.1	-8.4075e-003
28120	15.45	4.4545	0.1	-6.6592e-003
28121	15.542	4.3636	0.1	-7.4954e-003
28122	15.45	4.6364	0.1	-5.2417e-003
28123	15.542	4.5455	0.1	-6.2638e-003
28124	15.45	4.8182	0.1	-3.3721e-003
28125	15.542	4.7273	0.1	-4.6368e-003
28126	15.45	5.	0.1	-1.0075e-003
28127	15.542	4.9091	0.1	-2.4555e-003
28128	15.45	5.1818	0.1	2.3139e-003
28129	15.542	5.0909	0.1	2.215e-004
28130	15.45	5.3636	0.1	5.561e-003
28131	15.542	5.2727	0.1	4.4317e-003
28132	15.45	5.5455	0.1	1.589e-002
28133	15.542	5.4545	0.1	7.019e-003
28134	15.45	5.7273	0.1	1.5394e-002
28135	15.542	5.6364	0.1	2.5938e-002
28136	15.542	5.8182	0.1	2.0979e-003
28137	15.45	5.9091	0.1	6.9696e-003
28138	15.634	0.27273	0.1	1.6793e-002
28139	15.726	0.18182	0.1	2.8061e-003
28140	15.634	9.0909e-002	0.1	7.2933e-003
28141	15.634	0.45455	0.1	1.6893e-002
28142	15.726	0.36364	0.1	2.7912e-002
28143	15.634	0.63636	0.1	5.6245e-003
28144	15.726	0.54545	0.1	7.1932e-003
28145	15.634	0.81818	0.1	2.1448e-003
28146	15.726	0.72727	0.1	4.3873e-003
28147	15.634	1.	0.1	-1.3681e-003
28148	15.726	0.90909	0.1	-1.0975e-004
28149	15.634	1.1818	0.1	-3.8242e-003
28150	15.726	1.0909	0.1	-2.9087e-003
28151	15.634	1.3636	0.1	-5.7371e-003
28152	15.726	1.2727	0.1	-5.158e-003
28153	15.634	1.5455	0.1	-7.1602e-003
28154	15.726	1.4545	0.1	-6.8037e-003
28155	15.634	1.7273	0.1	-8.2176e-003
28156	15.726	1.6364	0.1	-8.0243e-003
28157	15.634	1.9091	0.1	-8.9864e-003
28158	15.726	1.8182	0.1	-8.9068e-003
28159	15.634	2.0909	0.1	-9.5327e-003
28160	15.726	2.	0.1	-9.5312e-003
28161	15.634	2.2727	0.1	-9.9101e-003
28162	15.726	2.1818	0.1	-9.9593e-003
28163	15.634	2.4545	0.1	-1.0161e-002
28164	15.726	2.3636	0.1	-1.0243e-002
28165	15.634	2.6364	0.1	-1.0317e-002
28166	15.726	2.5455	0.1	-1.0422e-002
28167	15.634	2.8182	0.1	-1.0402e-002
28168	15.726	2.7273	0.1	-1.0525e-002
28169	15.634	3.	0.1	-1.0428e-002
28170	15.726	2.9091	0.1	-1.0571e-002
28171	15.634	3.1818	0.1	-1.0401e-002
28172	15.726	3.0909	0.1	-1.0571e-002
28173	15.634	3.3636	0.1	-1.0317e-002
28174	15.726	3.2727	0.1	-1.0524e-002
28175	15.634	3.5455	0.1	-1.0161e-002
28176	15.726	3.4545	0.1	-1.0422e-002
28177	15.634	3.7273	0.1	-9.9094e-003
28178	15.726	3.6364	0.1	-1.0243e-002
28179	15.634	3.9091	0.1	-9.5324e-003
28180	15.726	3.8182	0.1	-9.959e-003
28181	15.634	4.0909	0.1	-8.9859e-003
28182	15.726	4.	0.1	-9.531e-003
28183	15.634	4.2727	0.1	-8.2173e-003
28184	15.726	4.1818	0.1	-8.9064e-003
28185	15.634	4.4545	0.1	-7.1603e-003
28186	15.726	4.3636	0.1	-8.0239e-003
28187	15.634	4.6364	0.1	-5.7371e-003
28188	15.726	4.5455	0.1	-6.8035e-003
28189	15.634	4.8182	0.1	-3.8239e-003
28190	15.726	4.7273	0.1	-5.1581e-003
28191	15.634	5.	0.1	-1.3669e-003
28192	15.726	4.9091	0.1	-2.9079e-003
28193	15.634	5.1818	0.1	2.146e-003
28194	15.726	5.0909	0.1	-1.0841e-004
28195	15.634	5.3636	0.1	5.6253e-003
28196	15.726	5.2727	0.1	4.3889e-003
28197	15.634	5.5455	0.1	1.6893e-002
28198	15.726	5.4545	0.1	7.1943e-003
28199	15.634	5.7273	0.1	1.6792e-002
28200	15.726	5.6364	0.1	2.7912e-002
28201	15.726	5.8182	0.1	2.8051e-003
28202	15.634	5.9091	0.1	7.2935e-003
28203	15.818	0.27273	0.1	1.838e-002
28204	15.91	0.18182	0.1	3.7163e-003
28205	15.818	9.0909e-002	0.1	7.6156e-003
28206	15.818	0.45455	0.1	1.7967e-002
28207	15.91	0.36364	0.1	3.0081e-002
28208	15.818	0.63636	0.1	5.6459e-003
28209	15.91	0.54545	0.1	7.3322e-003
28210	15.818	0.81818	0.1	1.9137e-003
28211	15.91	0.72727	0.1	4.2857e-003
28212	15.818	1.	0.1	-1.8055e-003
28213	15.91	0.90909	0.1	-5.2357e-004
28214	15.818	1.1818	0.1	-4.3546e-003
28215	15.91	1.0909	0.1	-3.4503e-003
28216	15.818	1.3636	0.1	-6.3072e-003
28217	15.91	1.2727	0.1	-5.7664e-003
28218	15.818	1.5455	0.1	-7.7301e-003
28219	15.91	1.4545	0.1	-7.4245e-003
28220	15.818	1.7273	0.1	-8.7616e-003
28221	15.91	1.6364	0.1	-8.6257e-003
28222	15.818	1.9091	0.1	-9.4899e-003
28223	15.91	1.8182	0.1	-9.4677e-003
28224	15.818	2.0909	0.1	-9.9891e-003
28225	15.91	2.	0.1	-1.0042e-002
28226	15.818	2.2727	0.1	-1.0319e-002
28227	15.91	2.1818	0.1	-1.0416e-002
28228	15.818	2.4545	0.1	-1.0528e-002
28229	15.91	2.3636	0.1	-1.0649e-002
28230	15.818	2.6364	0.1	-1.0651e-002
28231	15.91	2.5455	0.1	-1.0786e-002
28232	15.818	2.8182	0.1	-1.0715e-002
28233	15.91	2.7273	0.1	-1.0858e-002
28234	15.818	3.	0.1	-1.0734e-002
28235	15.91	2.9091	0.1	-1.0888e-002
28236	15.818	3.1818	0.1	-1.0715e-002
28237	15.91	3.0909	0.1	-1.0889e-002
28238	15.818	3.3636	0.1	-1.0651e-002
28239	15.91	3.2727	0.1	-1.0858e-002
28240	15.818	3.5455	0.1	-1.0528e-002
28241	15.91	3.4545	0.1	-1.0786e-002
28242	15.818	3.7273	0.1	-1.0319e-002
28243	15.91	3.6364	0.1	-1.0648e-002
28244	15.818	3.9091	0.1	-9.989e-003
28245	15.91	3.8182	0.1	-1.0415e-002
28246	15.818	4.0909	0.1	-9.4897e-003
28247	15.91	4.	0.1	-1.0041e-002
28248	15.818	4.2727	0.1	-8.7612e-003
28249	15.91	4.1818	0.1	-9.4675e-003
28250	15.818	4.4545	0.1	-7.7295e-003
28251	15.91	4.3636	0.1	-8.6253e-003
28252	15.818	4.6364	0.1	-6.3072e-003
28253	15.91	4.5455	0.1	-7.4243e-003
28254	15.818	4.8182	0.1	-4.3542e-003
28255	15.91	4.7273	0.1	-5.7662e-003
28256	15.818	5.	0.1	-1.8045e-003
28257	15.91	4.9091	0.1	-3.4498e-003
28258	15.818	5.1818	0.1	1.9154e-003
28259	15.91	5.0909	0.1	-5.2253e-004
28260	15.818	5.3636	0.1	5.6477e-003
28261	15.91	5.2727	0.1	4.2878e-003
28262	15.818	5.5455	0.1	1.7968e-002
28263	15.91	5.4545	0.1	7.3325e-003
28264	15.818	5.7273	0.1	1.838e-002
28265	15.91	5.6364	0.1	3.0081e-002
28266	15.91	5.8182	0.1	3.717e-003
28267	15.818	5.9091	0.1	7.6155e-003
28268	16.002	0.27273	0.1	2.0186e-002
28269	16.094	0.18182	0.1	4.8823e-003
28270	16.002	9.0909e-002	0.1	7.9246e-003
28271	16.002	0.45455	0.1	1.9114e-002
28272	16.094	0.36364	0.1	3.2469e-002
28273	16.002	0.63636	0.1	5.6089e-003
28274	16.094	0.54545	0.1	7.4184e-003
28275	16.002	0.81818	0.1	1.6004e-003
28276	16.094	0.72727	0.1	4.1072e-003
28277	16.002	1.	0.1	-2.3396e-003
28278	16.094	0.90909	0.1	-1.0425e-003
28279	16.002	1.1818	0.1	-4.9828e-003
28280	16.094	1.0909	0.1	-4.1008e-003
28281	16.002	1.3636	0.1	-6.9706e-003
28282	16.094	1.2727	0.1	-6.4819e-003
28283	16.002	1.5455	0.1	-8.3841e-003
28284	16.094	1.4545	0.1	-8.1442e-003
28285	16.002	1.7273	0.1	-9.38e-003
28286	16.094	1.6364	0.1	-9.3155e-003
28287	16.002	1.9091	0.1	-1.0057e-002
28288	16.094	1.8182	0.1	-1.0105e-002
28289	16.002	2.0909	0.1	-1.0498e-002
28290	16.094	2.	0.1	-1.0616e-002
28291	16.002	2.2727	0.1	-1.077e-002
28292	16.094	2.1818	0.1	-1.0924e-002
28293	16.002	2.4545	0.1	-1.0928e-002
28294	16.094	2.3636	0.1	-1.1096e-002
28295	16.002	2.6364	0.1	-1.1012e-002
28296	16.094	2.5455	0.1	-1.1183e-002
28297	16.002	2.8182	0.1	-1.105e-002
28298	16.094	2.7273	0.1	-1.1219e-002
28299	16.002	3.	0.1	-1.1061e-002
28300	16.094	2.9091	0.1	-1.123e-002
28301	16.002	3.1818	0.1	-1.105e-002
28302	16.094	3.0909	0.1	-1.123e-002
28303	16.002	3.3636	0.1	-1.1012e-002
28304	16.094	3.2727	0.1	-1.1219e-002
28305	16.002	3.5455	0.1	-1.0928e-002
28306	16.094	3.4545	0.1	-1.1183e-002
28307	16.002	3.7273	0.1	-1.077e-002
28308	16.094	3.6364	0.1	-1.1096e-002
28309	16.002	3.9091	0.1	-1.0498e-002
28310	16.094	3.8182	0.1	-1.0924e-002
28311	16.002	4.0909	0.1	-1.0056e-002
28312	16.094	4.	0.1	-1.0616e-002
28313	16.002	4.2727	0.1	-9.3798e-003
28314	16.094	4.1818	0.1	-1.0105e-002
28315	16.002	4.4545	0.1	-8.3841e-003
28316	16.094	4.3636	0.1	-9.3157e-003
28317	16.002	4.6364	0.1	-6.9702e-003
28318	16.094	4.5455	0.1	-8.1439e-003
28319	16.002	4.8182	0.1	-4.9825e-003
28320	16.094	4.7273	0.1	-6.4814e-003
28321	16.002	5.	0.1	-2.339e-003
28322	16.094	4.9091	0.1	-4.1005e-003
28323	16.002	5.1818	0.1	1.6019e-003
28324	16.094	5.0909	0.1	-1.0413e-003
28325	16.002	5.3636	0.1	5.6094e-003
28326	16.094	5.2727	0.1	4.1084e-003
28327	16.002	5.5455	0.1	1.9114e-002
28328	16.094	5.4545	0.1	7.4176e-003
28329	16.002	5.7273	0.1	2.0188e-002
28330	16.094	5.6364	0.1	3.2469e-002
28331	16.094	5.8182	0.1	4.8842e-003
28332	16.002	5.9091	0.1	7.9256e-003
28333	16.186	0.27273	0.1	2.2248e-002
28334	16.278	0.18182	0.1	6.3771e-003
28335	16.186	9.0909e-002	0.1	8.2106e-003
28336	16.186	0.45455	0.1	2.0334e-002
28337	16.278	0.36364	0.1	3.5107e-002
28338	16.186	0.63636	0.1	5.4917e-003
28339	16.278	0.54545	0.1	7.4332e-003
28340	16.186	0.81818	0.1	1.1836e-003
28341	16.278	0.72727	0.1	3.8326e-003
28342	16.186	1.	0.1	-2.9925e-003
28343	16.278	0.90909	0.1	-1.6859e-003
28344	16.186	1.1818	0.1	-5.7298e-003
28345	16.278	1.0909	0.1	-4.8799e-003
28346	16.186	1.3636	0.1	-7.7468e-003
28347	16.278	1.2727	0.1	-7.3313e-003
28348	16.186	1.5455	0.1	-9.141e-003
28349	16.278	1.4545	0.1	-8.9787e-003
28350	16.186	1.7273	0.1	-1.0097e-002
28351	16.278	1.6364	0.1	-1.0108e-002
28352	16.186	1.9091	0.1	-1.07e-002
28353	16.278	1.8182	0.1	-1.0831e-002
28354	16.186	2.0909	0.1	-1.107e-002
28355	16.278	2.	0.1	-1.1263e-002
28356	16.186	2.2727	0.1	-1.1272e-002
28357	16.278	2.1818	0.1	-1.1492e-002
28358	16.186	2.4545	0.1	-1.137e-002
28359	16.278	2.3636	0.1	-1.1592e-002
28360	16.186	2.6364	0.1	-1.1406e-002
28361	16.278	2.5455	0.1	-1.1618e-002
28362	16.186	2.8182	0.1	-1.1415e-002
28363	16.278	2.7273	0.1	-1.1611e-002
28364	16.186	3.	0.1	-1.1415e-002
28365	16.278	2.9091	0.1	-1.1601e-002
28366	16.186	3.1818	0.1	-1.1415e-002
28367	16.278	3.0909	0.1	-1.1601e-002
28368	16.186	3.3636	0.1	-1.1407e-002
28369	16.278	3.2727	0.1	-1.1611e-002
28370	16.186	3.5455	0.1	-1.137e-002
28371	16.278	3.4545	0.1	-1.1618e-002
28372	16.186	3.7273	0.1	-1.1273e-002
28373	16.278	3.6364	0.1	-1.1592e-002
28374	16.186	3.9091	0.1	-1.107e-002
28375	16.278	3.8182	0.1	-1.1493e-002
28376	16.186	4.0909	0.1	-1.07e-002
28377	16.278	4.	0.1	-1.1263e-002
28378	16.186	4.2727	0.1	-1.0097e-002
28379	16.278	4.1818	0.1	-1.0831e-002
28380	16.186	4.4545	0.1	-9.1409e-003
28381	16.278	4.3636	0.1	-1.0108e-002
28382	16.186	4.6364	0.1	-7.7464e-003
28383	16.278	4.5455	0.1	-8.9787e-003
28384	16.186	4.8182	0.1	-5.7294e-003
28385	16.278	4.7273	0.1	-7.3314e-003
28386	16.186	5.	0.1	-2.9916e-003
28387	16.278	4.9091	0.1	-4.879e-003
28388	16.186	5.1818	0.1	1.1845e-003
28389	16.278	5.0909	0.1	-1.6846e-003
28390	16.186	5.3636	0.1	5.4917e-003
28391	16.278	5.2727	0.1	3.8339e-003
28392	16.186	5.5455	0.1	2.0333e-002
28393	16.278	5.4545	0.1	7.4331e-003
28394	16.186	5.7273	0.1	2.2249e-002
28395	16.278	5.6364	0.1	3.5106e-002
28396	16.278	5.8182	0.1	6.3775e-003
28397	16.186	5.9091	0.1	8.2108e-003
28398	16.37	0.27273	0.1	2.4615e-002
28399	16.462	0.18182	0.1	8.2968e-003
28400	16.37	9.0909e-002	0.1	8.4648e-003
28401	16.37	0.45455	0.1	2.1631e-002
28402	16.462	0.36364	0.1	3.803e-002
28403	16.37	0.63636	0.1	5.277e-003
28404	16.462	0.54545	0.1	7.3633e-003
28405	16.37	0.81818	0.1	6.4553e-004
28406	16.462	0.72727	0.1	3.449e-003
28407	16.37	1.	0.1	-3.7813e-003
28408	16.462	0.90909	0.1	-2.4691e-003
28409	16.37	1.1818	0.1	-6.5992e-003
28410	16.462	1.0909	0.1	-5.8001e-003
28411	16.37	1.3636	0.1	-8.649e-003
28412	16.462	1.2727	0.1	-8.2971e-003
28413	16.37	1.5455	0.1	-1.0012e-002
28414	16.462	1.4545	0.1	-9.9374e-003
28415	16.37	1.7273	0.1	-1.0897e-002
28416	16.462	1.6364	0.1	-1.1009e-002
28417	16.37	1.9091	0.1	-1.1428e-002
28418	16.462	1.8182	0.1	-1.165e-002
28419	16.37	2.0909	0.1	-1.1711e-002
28420	16.462	2.	0.1	-1.1988e-002
28421	16.37	2.2727	0.1	-1.1832e-002
28422	16.462	2.1818	0.1	-1.2123e-002
28423	16.37	2.4545	0.1	-1.1857e-002
28424	16.462	2.3636	0.1	-1.2136e-002
28425	16.37	2.6364	0.1	-1.1837e-002
28426	16.462	2.5455	0.1	-1.2092e-002
28427	16.37	2.8182	0.1	-1.1811e-002
28428	16.462	2.7273	0.1	-1.2035e-002
28429	16.37	3.	0.1	-1.1799e-002
28430	16.462	2.9091	0.1	-1.1999e-002
28431	16.37	3.1818	0.1	-1.181e-002
28432	16.462	3.0909	0.1	-1.1999e-002
28433	16.37	3.3636	0.1	-1.1837e-002
28434	16.462	3.2727	0.1	-1.2035e-002
28435	16.37	3.5455	0.1	-1.1856e-002
28436	16.462	3.4545	0.1	-1.2091e-002
28437	16.37	3.7273	0.1	-1.1831e-002
28438	16.462	3.6364	0.1	-1.2136e-002
28439	16.37	3.9091	0.1	-1.1711e-002
28440	16.462	3.8182	0.1	-1.2123e-002
28441	16.37	4.0909	0.1	-1.1428e-002
28442	16.462	4.	0.1	-1.1988e-002
28443	16.37	4.2727	0.1	-1.0897e-002
28444	16.462	4.1818	0.1	-1.1649e-002
28445	16.37	4.4545	0.1	-1.0012e-002
28446	16.462	4.3636	0.1	-1.1009e-002
28447	16.37	4.6364	0.1	-8.6487e-003
28448	16.462	4.5455	0.1	-9.9375e-003
28449	16.37	4.8182	0.1	-6.5993e-003
28450	16.462	4.7273	0.1	-8.2968e-003
28451	16.37	5.	0.1	-3.78e-003
28452	16.462	4.9091	0.1	-5.7992e-003
28453	16.37	5.1818	0.1	6.4725e-004
28454	16.462	5.0909	0.1	-2.4677e-003
28455	16.37	5.3636	0.1	5.2784e-003
28456	16.462	5.2727	0.1	3.451e-003
28457	16.37	5.5455	0.1	2.1631e-002
28458	16.462	5.4545	0.1	7.3643e-003
28459	16.37	5.7273	0.1	2.4614e-002
28460	16.462	5.6364	0.1	3.8029e-002
28461	16.462	5.8182	0.1	8.2958e-003
28462	16.37	5.9091	0.1	8.4644e-003
28463	16.554	0.27273	0.1	2.7346e-002
28464	16.646	0.18182	0.1	1.0763e-002
28465	16.554	9.0909e-002	0.1	8.6822e-003
28466	16.554	0.45455	0.1	2.3019e-002
28467	16.646	0.36364	0.1	4.1282e-002
28468	16.554	0.63636	0.1	4.9541e-003
28469	16.646	0.54545	0.1	7.195e-003
28470	16.554	0.81818	0.1	-2.4828e-005
28471	16.646	0.72727	0.1	2.9441e-003
28472	16.554	1.	0.1	-4.7171e-003
28473	16.646	0.90909	0.1	-3.4061e-003
28474	16.554	1.1818	0.1	-7.6359e-003
28475	16.646	1.0909	0.1	-6.8734e-003
28476	16.554	1.3636	0.1	-9.6852e-003
28477	16.646	1.2727	0.1	-9.4183e-003
28478	16.554	1.5455	0.1	-1.1002e-002
28479	16.646	1.4545	0.1	-1.1028e-002
28480	16.554	1.7273	0.1	-1.1807e-002
28481	16.646	1.6364	0.1	-1.2025e-002
28482	16.554	1.9091	0.1	-1.2241e-002
28483	16.646	1.8182	0.1	-1.2564e-002
28484	16.554	2.0909	0.1	-1.2421e-002
28485	16.646	2.	0.1	-1.2789e-002
28486	16.554	2.2727	0.1	-1.2443e-002
28487	16.646	2.1818	0.1	-1.2813e-002
28488	16.554	2.4545	0.1	-1.2384e-002
28489	16.646	2.3636	0.1	-1.2726e-002
28490	16.554	2.6364	0.1	-1.23e-002
28491	16.646	2.5455	0.1	-1.26e-002
28492	16.554	2.8182	0.1	-1.2233e-002
28493	16.646	2.7273	0.1	-1.2486e-002
28494	16.554	3.	0.1	-1.2208e-002
28495	16.646	2.9091	0.1	-1.242e-002
28496	16.554	3.1818	0.1	-1.2233e-002
28497	16.646	3.0909	0.1	-1.242e-002
28498	16.554	3.3636	0.1	-1.23e-002
28499	16.646	3.2727	0.1	-1.2486e-002
28500	16.554	3.5455	0.1	-1.2383e-002
28501	16.646	3.4545	0.1	-1.2599e-002
28502	16.554	3.7273	0.1	-1.2443e-002
28503	16.646	3.6364	0.1	-1.2725e-002
28504	16.554	3.9091	0.1	-1.2421e-002
28505	16.646	3.8182	0.1	-1.2813e-002
28506	16.554	4.0909	0.1	-1.224e-002
28507	16.646	4.	0.1	-1.2789e-002
28508	16.554	4.2727	0.1	-1.1807e-002
28509	16.646	4.1818	0.1	-1.2564e-002
28510	16.554	4.4545	0.1	-1.1002e-002
28511	16.646	4.3636	0.1	-1.2024e-002
28512	16.554	4.6364	0.1	-9.6854e-003
28513	16.646	4.5455	0.1	-1.1028e-002
28514	16.554	4.8182	0.1	-7.6359e-003
28515	16.646	4.7273	0.1	-9.4183e-003
28516	16.554	5.	0.1	-4.716e-003
28517	16.646	4.9091	0.1	-6.8729e-003
28518	16.554	5.1818	0.1	-2.3069e-005
28519	16.646	5.0909	0.1	-3.4047e-003
28520	16.554	5.3636	0.1	4.9558e-003
28521	16.646	5.2727	0.1	2.9461e-003
28522	16.554	5.5455	0.1	2.302e-002
28523	16.646	5.4545	0.1	7.1955e-003
28524	16.554	5.7273	0.1	2.7345e-002
28525	16.646	5.6364	0.1	4.1281e-002
28526	16.646	5.8182	0.1	1.0763e-002
28527	16.554	5.9091	0.1	8.6818e-003
28528	16.737	0.27273	0.1	3.0507e-002
28529	16.829	0.18182	0.1	1.3941e-002
28530	16.737	9.0909e-002	0.1	8.8524e-003
28531	16.737	0.45455	0.1	2.4507e-002
28532	16.829	0.36364	0.1	4.4914e-002
28533	16.737	0.63636	0.1	4.5055e-003
28534	16.829	0.54545	0.1	6.9178e-003
28535	16.737	0.81818	0.1	-8.4353e-004
28536	16.829	0.72727	0.1	2.3112e-003
28537	16.737	1.	0.1	-5.815e-003
28538	16.829	0.90909	0.1	-4.5032e-003
28539	16.737	1.1818	0.1	-8.8168e-003
28540	16.829	1.0909	0.1	-8.1026e-003
28541	16.737	1.3636	0.1	-1.0865e-002
28542	16.829	1.2727	0.1	-1.0684e-002
28543	16.737	1.5455	0.1	-1.2118e-002
28544	16.829	1.4545	0.1	-1.2246e-002
28545	16.737	1.7273	0.1	-1.2823e-002
28546	16.829	1.6364	0.1	-1.3147e-002
28547	16.737	1.9091	0.1	-1.3139e-002
28548	16.829	1.8182	0.1	-1.3563e-002
28549	16.737	2.0909	0.1	-1.3198e-002
28550	16.829	2.	0.1	-1.3657e-002
28551	16.737	2.2727	0.1	-1.3107e-002
28552	16.829	2.1818	0.1	-1.3551e-002
28553	16.737	2.4545	0.1	-1.295e-002
28554	16.829	2.3636	0.1	-1.3348e-002
28555	16.737	2.6364	0.1	-1.2793e-002
28556	16.829	2.5455	0.1	-1.313e-002
28557	16.737	2.8182	0.1	-1.268e-002
28558	16.829	2.7273	0.1	-1.2951e-002
28559	16.737	3.	0.1	-1.2639e-002
28560	16.829	2.9091	0.1	-1.2853e-002
28561	16.737	3.1818	0.1	-1.268e-002
28562	16.829	3.0909	0.1	-1.2852e-002
28563	16.737	3.3636	0.1	-1.2792e-002
28564	16.829	3.2727	0.1	-1.2952e-002
28565	16.737	3.5455	0.1	-1.2949e-002
28566	16.829	3.4545	0.1	-1.3129e-002
28567	16.737	3.7273	0.1	-1.3106e-002
28568	16.829	3.6364	0.1	-1.3348e-002
28569	16.737	3.9091	0.1	-1.3198e-002
28570	16.829	3.8182	0.1	-1.355e-002
28571	16.737	4.0909	0.1	-1.3139e-002
28572	16.829	4.	0.1	-1.3656e-002
28573	16.737	4.2727	0.1	-1.2823e-002
28574	16.829	4.1818	0.1	-1.3563e-002
28575	16.737	4.4545	0.1	-1.2117e-002
28576	16.829	4.3636	0.1	-1.3147e-002
28577	16.737	4.6364	0.1	-1.0865e-002
28578	16.829	4.5455	0.1	-1.2246e-002
28579	16.737	4.8182	0.1	-8.8164e-003
28580	16.829	4.7273	0.1	-1.0684e-002
28581	16.737	5.	0.1	-5.8142e-003
28582	16.829	4.9091	0.1	-8.102e-003
28583	16.737	5.1818	0.1	-8.4193e-004
28584	16.829	5.0909	0.1	-4.5021e-003
28585	16.737	5.3636	0.1	4.5064e-003
28586	16.829	5.2727	0.1	2.3126e-003
28587	16.737	5.5455	0.1	2.4506e-002
28588	16.829	5.4545	0.1	6.9171e-003
28589	16.737	5.7273	0.1	3.0507e-002
28590	16.829	5.6364	0.1	4.4913e-002
28591	16.829	5.8182	0.1	1.3943e-002
28592	16.737	5.9091	0.1	8.8534e-003
28593	16.921	0.27273	0.1	3.4193e-002
28594	17.013	0.18182	0.1	1.8014e-002
28595	16.921	9.0909e-002	0.1	8.9835e-003
28596	16.921	0.45455	0.1	2.6117e-002
28597	17.013	0.36364	0.1	4.8959e-002
28598	16.921	0.63636	0.1	3.9295e-003
28599	17.013	0.54545	0.1	6.4966e-003
28600	16.921	0.81818	0.1	-1.8082e-003
28601	17.013	0.72727	0.1	1.525e-003
28602	16.921	1.	0.1	-7.0693e-003
28603	17.013	0.90909	0.1	-5.7832e-003
28604	16.921	1.1818	0.1	-1.0142e-002
28605	17.013	1.0909	0.1	-9.5046e-003
28606	16.921	1.3636	0.1	-1.2172e-002
28607	17.013	1.2727	0.1	-1.2108e-002
28608	16.921	1.5455	0.1	-1.3341e-002
28609	17.013	1.4545	0.1	-1.3601e-002
28610	16.921	1.7273	0.1	-1.3926e-002
28611	17.013	1.6364	0.1	-1.4385e-002
28612	16.921	1.9091	0.1	-1.4103e-002
28613	17.013	1.8182	0.1	-1.4655e-002
28614	16.921	2.0909	0.1	-1.402e-002
28615	17.013	2.	0.1	-1.4593e-002
28616	16.921	2.2727	0.1	-1.3798e-002
28617	17.013	2.1818	0.1	-1.4338e-002
28618	16.921	2.4545	0.1	-1.3531e-002
28619	17.013	2.3636	0.1	-1.4006e-002
28620	16.921	2.6364	0.1	-1.3291e-002
28621	17.013	2.5455	0.1	-1.3685e-002
28622	16.921	2.8182	0.1	-1.3128e-002
28623	17.013	2.7273	0.1	-1.3436e-002
28624	16.921	3.	0.1	-1.307e-002
28625	17.013	2.9091	0.1	-1.3302e-002
28626	16.921	3.1818	0.1	-1.3128e-002
28627	17.013	3.0909	0.1	-1.3302e-002
28628	16.921	3.3636	0.1	-1.3291e-002
28629	17.013	3.2727	0.1	-1.3436e-002
28630	16.921	3.5455	0.1	-1.3531e-002
28631	17.013	3.4545	0.1	-1.3685e-002
28632	16.921	3.7273	0.1	-1.3797e-002
28633	17.013	3.6364	0.1	-1.4006e-002
28634	16.921	3.9091	0.1	-1.402e-002
28635	17.013	3.8182	0.1	-1.4338e-002
28636	16.921	4.0909	0.1	-1.4102e-002
28637	17.013	4.	0.1	-1.4593e-002
28638	16.921	4.2727	0.1	-1.3925e-002
28639	17.013	4.1818	0.1	-1.4654e-002
28640	16.921	4.4545	0.1	-1.3341e-002
28641	17.013	4.3636	0.1	-1.4385e-002
28642	16.921	4.6364	0.1	-1.2172e-002
28643	17.013	4.5455	0.1	-1.3601e-002
28644	16.921	4.8182	0.1	-1.0142e-002
28645	17.013	4.7273	0.1	-1.2108e-002
28646	16.921	5.	0.1	-7.0686e-003
28647	17.013	4.9091	0.1	-9.5042e-003
28648	16.921	5.1818	0.1	-1.8074e-003
28649	17.013	5.0909	0.1	-5.7813e-003
28650	16.921	5.3636	0.1	3.9293e-003
28651	17.013	5.2727	0.1	1.5261e-003
28652	16.921	5.5455	0.1	2.6117e-002
28653	17.013	5.4545	0.1	6.4961e-003
28654	16.921	5.7273	0.1	3.4193e-002
28655	17.013	5.6364	0.1	4.8959e-002
28656	17.013	5.8182	0.1	1.8014e-002
28657	16.921	5.9091	0.1	8.9834e-003
28658	17.105	0.27273	0.1	3.844e-002
28659	17.197	0.18182	0.1	2.3175e-002
28660	17.105	9.0909e-002	0.1	9.0236e-003
28661	17.105	0.45455	0.1	2.7814e-002
28662	17.197	0.36364	0.1	5.3427e-002
28663	17.105	0.63636	0.1	3.1647e-003
28664	17.197	0.54545	0.1	5.8763e-003
28665	17.105	0.81818	0.1	-2.9704e-003
28666	17.197	0.72727	0.1	5.443e-004
28667	17.105	1.	0.1	-8.526e-003
28668	17.197	0.90909	0.1	-7.2807e-003
28669	17.105	1.1818	0.1	-1.1656e-002
28670	17.197	1.0909	0.1	-1.1111e-002
28671	17.105	1.3636	0.1	-1.3649e-002
28672	17.197	1.2727	0.1	-1.3718e-002
28673	17.105	1.5455	0.1	-1.4709e-002
28674	17.197	1.4545	0.1	-1.5118e-002
28675	17.105	1.7273	0.1	-1.5147e-002
28676	17.197	1.6364	0.1	-1.5756e-002
28677	17.105	1.9091	0.1	-1.516e-002
28678	17.197	1.8182	0.1	-1.5854e-002
28679	17.105	2.0909	0.1	-1.4915e-002
28680	17.197	2.	0.1	-1.5614e-002
28681	17.105	2.2727	0.1	-1.4545e-002
28682	17.197	2.1818	0.1	-1.519e-002
28683	17.105	2.4545	0.1	-1.4158e-002
28684	17.197	2.3636	0.1	-1.4716e-002
28685	17.105	2.6364	0.1	-1.3829e-002
28686	17.197	2.5455	0.1	-1.4285e-002
28687	17.105	2.8182	0.1	-1.3611e-002
28688	17.197	2.7273	0.1	-1.3963e-002
28689	17.105	3.	0.1	-1.3535e-002
28690	17.197	2.9091	0.1	-1.3792e-002
28691	17.105	3.1818	0.1	-1.3611e-002
28692	17.197	3.0909	0.1	-1.3792e-002
28693	17.105	3.3636	0.1	-1.3829e-002
28694	17.197	3.2727	0.1	-1.3963e-002
28695	17.105	3.5455	0.1	-1.4158e-002
28696	17.197	3.4545	0.1	-1.4284e-002
28697	17.105	3.7273	0.1	-1.4546e-002
28698	17.197	3.6364	0.1	-1.4716e-002
28699	17.105	3.9091	0.1	-1.4915e-002
28700	17.197	3.8182	0.1	-1.5191e-002
28701	17.105	4.0909	0.1	-1.516e-002
28702	17.197	4.	0.1	-1.5613e-002
28703	17.105	4.2727	0.1	-1.5147e-002
28704	17.197	4.1818	0.1	-1.5854e-002
28705	17.105	4.4545	0.1	-1.4708e-002
28706	17.197	4.3636	0.1	-1.5756e-002
28707	17.105	4.6364	0.1	-1.3648e-002
28708	17.197	4.5455	0.1	-1.5117e-002
28709	17.105	4.8182	0.1	-1.1656e-002
28710	17.197	4.7273	0.1	-1.3718e-002
28711	17.105	5.	0.1	-8.5245e-003
28712	17.197	4.9091	0.1	-1.111e-002
28713	17.105	5.1818	0.1	-2.9684e-003
28714	17.197	5.0909	0.1	-7.2791e-003
28715	17.105	5.3636	0.1	3.1654e-003
28716	17.197	5.2727	0.1	5.4552e-004
28717	17.105	5.5455	0.1	2.7813e-002
28718	17.197	5.4545	0.1	5.8767e-003
28719	17.105	5.7273	0.1	3.8439e-002
28720	17.197	5.6364	0.1	5.3425e-002
28721	17.197	5.8182	0.1	2.3174e-002
28722	17.105	5.9091	0.1	9.0234e-003
28723	17.289	0.27273	0.1	4.3298e-002
28724	17.381	0.18182	0.1	2.966e-002
28725	17.289	9.0909e-002	0.1	8.9351e-003
28726	17.289	0.45455	0.1	2.9576e-002
28727	17.381	0.36364	0.1	5.8319e-002
28728	17.289	0.63636	0.1	2.1736e-003
28729	17.381	0.54545	0.1	5.0083e-003
28730	17.289	0.81818	0.1	-4.3553e-003
28731	17.381	0.72727	0.1	-6.6103e-004
28732	17.289	1.	0.1	-1.0205e-002
28733	17.381	0.90909	0.1	-9.0179e-003
28734	17.289	1.1818	0.1	-1.3371e-002
28735	17.381	1.0909	0.1	-1.2933e-002
28736	17.289	1.3636	0.1	-1.5301e-002
28737	17.381	1.2727	0.1	-1.552e-002
28738	17.289	1.5455	0.1	-1.6226e-002
28739	17.381	1.4545	0.1	-1.6798e-002
28740	17.289	1.7273	0.1	-1.649e-002
28741	17.381	1.6364	0.1	-1.7263e-002
28742	17.289	1.9091	0.1	-1.6313e-002
28743	17.381	1.8182	0.1	-1.7159e-002
28744	17.289	2.0909	0.1	-1.5884e-002
28745	17.381	2.	0.1	-1.6715e-002
28746	17.289	2.2727	0.1	-1.5352e-002
28747	17.381	2.1818	0.1	-1.6107e-002
28748	17.289	2.4545	0.1	-1.4835e-002
28749	17.381	2.3636	0.1	-1.548e-002
28750	17.289	2.6364	0.1	-1.4414e-002
28751	17.381	2.5455	0.1	-1.4937e-002
28752	17.289	2.8182	0.1	-1.4143e-002
28753	17.381	2.7273	0.1	-1.4544e-002
28754	17.289	3.	0.1	-1.405e-002
28755	17.381	2.9091	0.1	-1.434e-002
28756	17.289	3.1818	0.1	-1.4143e-002
28757	17.381	3.0909	0.1	-1.4341e-002
28758	17.289	3.3636	0.1	-1.4414e-002
28759	17.381	3.2727	0.1	-1.4545e-002
28760	17.289	3.5455	0.1	-1.4835e-002
28761	17.381	3.4545	0.1	-1.4937e-002
28762	17.289	3.7273	0.1	-1.5352e-002
28763	17.381	3.6364	0.1	-1.5479e-002
28764	17.289	3.9091	0.1	-1.5884e-002
28765	17.381	3.8182	0.1	-1.6107e-002
28766	17.289	4.0909	0.1	-1.6313e-002
28767	17.381	4.	0.1	-1.6714e-002
28768	17.289	4.2727	0.1	-1.649e-002
28769	17.381	4.1818	0.1	-1.7159e-002
28770	17.289	4.4545	0.1	-1.6226e-002
28771	17.381	4.3636	0.1	-1.7263e-002
28772	17.289	4.6364	0.1	-1.5301e-002
28773	17.381	4.5455	0.1	-1.6797e-002
28774	17.289	4.8182	0.1	-1.3371e-002
28775	17.381	4.7273	0.1	-1.552e-002
28776	17.289	5.	0.1	-1.0204e-002
28777	17.381	4.9091	0.1	-1.2932e-002
28778	17.289	5.1818	0.1	-4.3546e-003
28779	17.381	5.0909	0.1	-9.0165e-003
28780	17.289	5.3636	0.1	2.1746e-003
28781	17.381	5.2727	0.1	-6.5933e-004
28782	17.289	5.5455	0.1	2.9575e-002
28783	17.381	5.4545	0.1	5.0085e-003
28784	17.289	5.7273	0.1	4.3297e-002
28785	17.381	5.6364	0.1	5.8319e-002
28786	17.381	5.8182	0.1	2.9659e-002
28787	17.289	5.9091	0.1	8.9355e-003
28788	17.473	0.27273	0.1	4.8796e-002
28789	17.565	0.18182	0.1	3.7715e-002
28790	17.473	9.0909e-002	0.1	8.6763e-003
28791	17.473	0.45455	0.1	3.1367e-002
28792	17.565	0.36364	0.1	6.362e-002
28793	17.473	0.63636	0.1	9.1271e-004
28794	17.565	0.54545	0.1	3.8347e-003
28795	17.473	0.81818	0.1	-5.991e-003
28796	17.565	0.72727	0.1	-2.1172e-003
28797	17.473	1.	0.1	-1.2122e-002
28798	17.565	0.90909	0.1	-1.1006e-002
28799	17.473	1.1818	0.1	-1.5295e-002
28800	17.565	1.0909	0.1	-1.4973e-002
28801	17.473	1.3636	0.1	-1.7134e-002
28802	17.565	1.2727	0.1	-1.7511e-002
28803	17.473	1.5455	0.1	-1.7891e-002
28804	17.565	1.4545	0.1	-1.8634e-002
28805	17.473	1.7273	0.1	-1.795e-002
28806	17.565	1.6364	0.1	-1.8893e-002
28807	17.473	1.9091	0.1	-1.7555e-002
28808	17.565	1.8182	0.1	-1.8555e-002
28809	17.473	2.0909	0.1	-1.6921e-002
28810	17.565	2.	0.1	-1.7881e-002
28811	17.473	2.2727	0.1	-1.6216e-002
28812	17.565	2.1818	0.1	-1.7072e-002
28813	17.473	2.4545	0.1	-1.5568e-002
28814	17.565	2.3636	0.1	-1.6291e-002
28815	17.473	2.6364	0.1	-1.5061e-002
28816	17.565	2.5455	0.1	-1.5645e-002
28817	17.473	2.8182	0.1	-1.4742e-002
28818	17.565	2.7273	0.1	-1.5194e-002
28819	17.473	3.	0.1	-1.4634e-002
28820	17.565	2.9091	0.1	-1.4966e-002
28821	17.473	3.1818	0.1	-1.4742e-002
28822	17.565	3.0909	0.1	-1.4966e-002
28823	17.473	3.3636	0.1	-1.5061e-002
28824	17.565	3.2727	0.1	-1.5195e-002
28825	17.473	3.5455	0.1	-1.5567e-002
28826	17.565	3.4545	0.1	-1.5645e-002
28827	17.473	3.7273	0.1	-1.6215e-002
28828	17.565	3.6364	0.1	-1.6291e-002
28829	17.473	3.9091	0.1	-1.6921e-002
28830	17.565	3.8182	0.1	-1.7073e-002
28831	17.473	4.0909	0.1	-1.7555e-002
28832	17.565	4.	0.1	-1.7881e-002
28833	17.473	4.2727	0.1	-1.7949e-002
28834	17.565	4.1818	0.1	-1.8556e-002
28835	17.473	4.4545	0.1	-1.7891e-002
28836	17.565	4.3636	0.1	-1.8893e-002
28837	17.473	4.6364	0.1	-1.7134e-002
28838	17.565	4.5455	0.1	-1.8634e-002
28839	17.473	4.8182	0.1	-1.5295e-002
28840	17.565	4.7273	0.1	-1.751e-002
28841	17.473	5.	0.1	-1.212e-002
28842	17.565	4.9091	0.1	-1.4972e-002
28843	17.473	5.1818	0.1	-5.9887e-003
28844	17.565	5.0909	0.1	-1.1005e-002
28845	17.473	5.3636	0.1	9.1365e-004
28846	17.565	5.2727	0.1	-2.1147e-003
28847	17.473	5.5455	0.1	3.1367e-002
28848	17.565	5.4545	0.1	3.8343e-003
28849	17.473	5.7273	0.1	4.8797e-002
28850	17.565	5.6364	0.1	6.362e-002
28851	17.565	5.8182	0.1	3.7715e-002
28852	17.473	5.9091	0.1	8.6752e-003
28853	17.657	0.27273	0.1	5.4923e-002
28854	17.749	0.18182	0.1	4.7554e-002
28855	17.657	9.0909e-002	0.1	8.1844e-003
28856	17.657	0.45455	0.1	3.3135e-002
28857	17.749	0.36364	0.1	6.9269e-002
28858	17.657	0.63636	0.1	-6.6106e-004
28859	17.749	0.54545	0.1	2.2932e-003
28860	17.657	0.81818	0.1	-7.8882e-003
28861	17.749	0.72727	0.1	-3.839e-003
28862	17.657	1.	0.1	-1.4274e-002
28863	17.749	0.90909	0.1	-1.3239e-002
28864	17.657	1.1818	0.1	-1.7419e-002
28865	17.749	1.0909	0.1	-1.7212e-002
28866	17.657	1.3636	0.1	-1.9131e-002
28867	17.749	1.2727	0.1	-1.9664e-002
28868	17.657	1.5455	0.1	-1.9686e-002
28869	17.749	1.4545	0.1	-2.0599e-002
28870	17.657	1.7273	0.1	-1.9504e-002
28871	17.749	1.6364	0.1	-2.0614e-002
28872	17.657	1.9091	0.1	-1.886e-002
28873	17.749	1.8182	0.1	-2.0007e-002
28874	17.657	2.0909	0.1	-1.8e-002
28875	17.749	2.	0.1	-1.9075e-002
28876	17.657	2.2727	0.1	-1.7117e-002
28877	17.749	2.1818	0.1	-1.8054e-002
28878	17.657	2.4545	0.1	-1.6348e-002
28879	17.749	2.3636	0.1	-1.7128e-002
28880	17.657	2.6364	0.1	-1.5773e-002
28881	17.749	2.5455	0.1	-1.6405e-002
28882	17.657	2.8182	0.1	-1.5424e-002
28883	17.749	2.7273	0.1	-1.5927e-002
28884	17.657	3.	0.1	-1.5308e-002
28885	17.749	2.9091	0.1	-1.5693e-002
28886	17.657	3.1818	0.1	-1.5424e-002
28887	17.749	3.0909	0.1	-1.5693e-002
28888	17.657	3.3636	0.1	-1.5773e-002
28889	17.749	3.2727	0.1	-1.5927e-002
28890	17.657	3.5455	0.1	-1.6348e-002
28891	17.749	3.4545	0.1	-1.6405e-002
28892	17.657	3.7273	0.1	-1.7118e-002
28893	17.749	3.6364	0.1	-1.7128e-002
28894	17.657	3.9091	0.1	-1.8001e-002
28895	17.749	3.8182	0.1	-1.8055e-002
28896	17.657	4.0909	0.1	-1.886e-002
28897	17.749	4.	0.1	-1.9075e-002
28898	17.657	4.2727	0.1	-1.9504e-002
28899	17.749	4.1818	0.1	-2.0008e-002
28900	17.657	4.4545	0.1	-1.9686e-002
28901	17.749	4.3636	0.1	-2.0614e-002
28902	17.657	4.6364	0.1	-1.913e-002
28903	17.749	4.5455	0.1	-2.0599e-002
28904	17.657	4.8182	0.1	-1.7418e-002
28905	17.749	4.7273	0.1	-1.9664e-002
28906	17.657	5.	0.1	-1.4274e-002
28907	17.749	4.9091	0.1	-1.7211e-002
28908	17.657	5.1818	0.1	-7.8868e-003
28909	17.749	5.0909	0.1	-1.3239e-002
28910	17.657	5.3636	0.1	-6.5978e-004
28911	17.749	5.2727	0.1	-3.8364e-003
28912	17.657	5.5455	0.1	3.3135e-002
28913	17.749	5.4545	0.1	2.2935e-003
28914	17.657	5.7273	0.1	5.4922e-002
28915	17.749	5.6364	0.1	6.9268e-002
28916	17.749	5.8182	0.1	4.7553e-002
28917	17.657	5.9091	0.1	8.1857e-003
28918	17.841	0.27273	0.1	6.1584e-002
28919	17.933	0.18182	0.1	5.9273e-002
28920	17.841	9.0909e-002	0.1	7.4023e-003
28921	17.841	0.45455	0.1	3.4802e-002
28922	17.933	0.36364	0.1	7.5134e-002
28923	17.841	0.63636	0.1	-2.5833e-003
28924	17.933	0.54545	0.1	3.138e-004
28925	17.841	0.81818	0.1	-1.0045e-002
28926	17.933	0.72727	0.1	-5.8334e-003
28927	17.841	1.	0.1	-1.664e-002
28928	17.933	0.90909	0.1	-1.5691e-002
28929	17.841	1.1818	0.1	-1.9707e-002
28930	17.933	1.0909	0.1	-1.9607e-002
28931	17.841	1.3636	0.1	-2.1253e-002
28932	17.933	1.2727	0.1	-2.1934e-002
28933	17.841	1.5455	0.1	-2.1567e-002
28934	17.933	1.4545	0.1	-2.2641e-002
28935	17.841	1.7273	0.1	-2.1105e-002
28936	17.933	1.6364	0.1	-2.2373e-002
28937	17.841	1.9091	0.1	-2.0181e-002
28938	17.933	1.8182	0.1	-2.1456e-002
28939	17.841	2.0909	0.1	-1.9078e-002
28940	17.933	2.	0.1	-2.0237e-002
28941	17.841	2.2727	0.1	-1.8022e-002
28942	17.933	2.1818	0.1	-1.8999e-002
28943	17.841	2.4545	0.1	-1.716e-002
28944	17.933	2.3636	0.1	-1.7957e-002
28945	17.841	2.6364	0.1	-1.6558e-002
28946	17.933	2.5455	0.1	-1.721e-002
28947	17.841	2.8182	0.1	-1.6214e-002
28948	17.933	2.7273	0.1	-1.6762e-002
28949	17.841	3.	0.1	-1.6104e-002
28950	17.933	2.9091	0.1	-1.6562e-002
28951	17.841	3.1818	0.1	-1.6214e-002
28952	17.933	3.0909	0.1	-1.6562e-002
28953	17.841	3.3636	0.1	-1.6558e-002
28954	17.933	3.2727	0.1	-1.6762e-002
28955	17.841	3.5455	0.1	-1.716e-002
28956	17.933	3.4545	0.1	-1.721e-002
28957	17.841	3.7273	0.1	-1.8021e-002
28958	17.933	3.6364	0.1	-1.7956e-002
28959	17.841	3.9091	0.1	-1.9078e-002
28960	17.933	3.8182	0.1	-1.9e-002
28961	17.841	4.0909	0.1	-2.0181e-002
28962	17.933	4.	0.1	-2.0236e-002
28963	17.841	4.2727	0.1	-2.1106e-002
28964	17.933	4.1818	0.1	-2.1456e-002
28965	17.841	4.4545	0.1	-2.1567e-002
28966	17.933	4.3636	0.1	-2.2373e-002
28967	17.841	4.6364	0.1	-2.1254e-002
28968	17.933	4.5455	0.1	-2.2641e-002
28969	17.841	4.8182	0.1	-1.9706e-002
28970	17.933	4.7273	0.1	-2.1934e-002
28971	17.841	5.	0.1	-1.6638e-002
28972	17.933	4.9091	0.1	-1.9605e-002
28973	17.841	5.1818	0.1	-1.0043e-002
28974	17.933	5.0909	0.1	-1.569e-002
28975	17.841	5.3636	0.1	-2.5817e-003
28976	17.933	5.2727	0.1	-5.8316e-003
28977	17.841	5.5455	0.1	3.4802e-002
28978	17.933	5.4545	0.1	3.1342e-004
28979	17.841	5.7273	0.1	6.1583e-002
28980	17.933	5.6364	0.1	7.5134e-002
28981	17.933	5.8182	0.1	5.9273e-002
28982	17.841	5.9091	0.1	7.4013e-003
28983	18.025	0.27273	0.1	6.8539e-002
28984	18.117	0.18182	0.1	7.2715e-002
28985	18.025	9.0909e-002	0.1	6.2227e-003
28986	18.025	0.45455	0.1	3.6239e-002
28987	18.117	0.36364	0.1	8.0978e-002
28988	18.025	0.63636	0.1	-4.8959e-003
28989	18.117	0.54545	0.1	-2.1888e-003
28990	18.025	0.81818	0.1	-1.2446e-002
28991	18.117	0.72727	0.1	-8.0914e-003
28992	18.025	1.	0.1	-1.9172e-002
28993	18.117	0.90909	0.1	-1.83e-002
28994	18.025	1.1818	0.1	-2.2104e-002
28995	18.117	1.0909	0.1	-2.2075e-002
28996	18.025	1.3636	0.1	-2.3444e-002
28997	18.117	1.2727	0.1	-2.4234e-002
28998	18.025	1.5455	0.1	-2.3474e-002
28999	18.117	1.4545	0.1	-2.4679e-002
29000	18.025	1.7273	0.1	-2.2689e-002
29001	18.117	1.6364	0.1	-2.4084e-002
29002	18.025	1.9091	0.1	-2.1444e-002
29003	18.117	1.8182	0.1	-2.2807e-002
29004	18.025	2.0909	0.1	-2.0082e-002
29005	18.117	2.	0.1	-2.1265e-002
29006	18.025	2.2727	0.1	-1.8874e-002
29007	18.117	2.1818	0.1	-1.9815e-002
29008	18.025	2.4545	0.1	-1.7979e-002
29009	18.117	2.3636	0.1	-1.8713e-002
29010	18.025	2.6364	0.1	-1.7427e-002
29011	18.117	2.5455	0.1	-1.8042e-002
29012	18.025	2.8182	0.1	-1.7154e-002
29013	18.117	2.7273	0.1	-1.7731e-002
29014	18.025	3.	0.1	-1.7076e-002
29015	18.117	2.9091	0.1	-1.7632e-002
29016	18.025	3.1818	0.1	-1.7154e-002
29017	18.117	3.0909	0.1	-1.7633e-002
29018	18.025	3.3636	0.1	-1.7426e-002
29019	18.117	3.2727	0.1	-1.7731e-002
29020	18.025	3.5455	0.1	-1.7978e-002
29021	18.117	3.4545	0.1	-1.8041e-002
29022	18.025	3.7273	0.1	-1.8874e-002
29023	18.117	3.6364	0.1	-1.8712e-002
29024	18.025	3.9091	0.1	-2.0082e-002
29025	18.117	3.8182	0.1	-1.9816e-002
29026	18.025	4.0909	0.1	-2.1443e-002
29027	18.117	4.	0.1	-2.1265e-002
29028	18.025	4.2727	0.1	-2.2689e-002
29029	18.117	4.1818	0.1	-2.2807e-002
29030	18.025	4.4545	0.1	-2.3475e-002
29031	18.117	4.3636	0.1	-2.4084e-002
29032	18.025	4.6364	0.1	-2.3444e-002
29033	18.117	4.5455	0.1	-2.4679e-002
29034	18.025	4.8182	0.1	-2.2103e-002
29035	18.117	4.7273	0.1	-2.4234e-002
29036	18.025	5.	0.1	-1.9171e-002
29037	18.117	4.9091	0.1	-2.2074e-002
29038	18.025	5.1818	0.1	-1.2444e-002
29039	18.117	5.0909	0.1	-1.8299e-002
29040	18.025	5.3636	0.1	-4.896e-003
29041	18.117	5.2727	0.1	-8.09e-003
29042	18.025	5.5455	0.1	3.6238e-002
29043	18.117	5.4545	0.1	-2.1891e-003
29044	18.025	5.7273	0.1	6.8539e-002
29045	18.117	5.6364	0.1	8.0977e-002
29046	18.117	5.8182	0.1	7.2716e-002
29047	18.025	5.9091	0.1	6.2233e-003
29048	18.209	0.27273	0.1	7.5335e-002
29049	18.301	0.18182	0.1	8.7221e-002
29050	18.209	9.0909e-002	0.1	4.5311e-003
29051	18.209	0.45455	0.1	3.7254e-002
29052	18.301	0.36364	0.1	8.6371e-002
29053	18.209	0.63636	0.1	-7.6314e-003
29054	18.301	0.54545	0.1	-5.3381e-003
29055	18.209	0.81818	0.1	-1.5033e-002
29056	18.301	0.72727	0.1	-1.0604e-002
29057	18.209	1.	0.1	-2.1773e-002
29058	18.301	0.90909	0.1	-2.0978e-002
29059	18.209	1.1818	0.1	-2.4498e-002
29060	18.301	1.0909	0.1	-2.4504e-002
29061	18.209	1.3636	0.1	-2.5592e-002
29062	18.301	1.2727	0.1	-2.6452e-002
29063	18.209	1.5455	0.1	-2.5299e-002
29064	18.301	1.4545	0.1	-2.6609e-002
29065	18.209	1.7273	0.1	-2.414e-002
29066	18.301	1.6364	0.1	-2.5647e-002
29067	18.209	1.9091	0.1	-2.2527e-002
29068	18.301	1.8182	0.1	-2.3954e-002
29069	18.209	2.0909	0.1	-2.0891e-002
29070	18.301	2.	0.1	-2.2043e-002
29071	18.209	2.2727	0.1	-1.9573e-002
29072	18.301	2.1818	0.1	-2.0392e-002
29073	18.209	2.4545	0.1	-1.8749e-002
29074	18.301	2.3636	0.1	-1.9326e-002
29075	18.209	2.6364	0.1	-1.8385e-002
29076	18.301	2.5455	0.1	-1.89e-002
29077	18.209	2.8182	0.1	-1.8301e-002
29078	18.301	2.7273	0.1	-1.8908e-002
29079	18.209	3.	0.1	-1.8301e-002
29080	18.301	2.9091	0.1	-1.9029e-002
29081	18.209	3.1818	0.1	-1.8301e-002
29082	18.301	3.0909	0.1	-1.9029e-002
29083	18.209	3.3636	0.1	-1.8385e-002
29084	18.301	3.2727	0.1	-1.8908e-002
29085	18.209	3.5455	0.1	-1.8749e-002
29086	18.301	3.4545	0.1	-1.89e-002
29087	18.209	3.7273	0.1	-1.9574e-002
29088	18.301	3.6364	0.1	-1.9326e-002
29089	18.209	3.9091	0.1	-2.0891e-002
29090	18.301	3.8182	0.1	-2.0392e-002
29091	18.209	4.0909	0.1	-2.2527e-002
29092	18.301	4.	0.1	-2.2043e-002
29093	18.209	4.2727	0.1	-2.414e-002
29094	18.301	4.1818	0.1	-2.3954e-002
29095	18.209	4.4545	0.1	-2.5299e-002
29096	18.301	4.3636	0.1	-2.5647e-002
29097	18.209	4.6364	0.1	-2.5592e-002
29098	18.301	4.5455	0.1	-2.6609e-002
29099	18.209	4.8182	0.1	-2.4498e-002
29100	18.301	4.7273	0.1	-2.6453e-002
29101	18.209	5.	0.1	-2.1773e-002
29102	18.301	4.9091	0.1	-2.4503e-002
29103	18.209	5.1818	0.1	-1.5033e-002
29104	18.301	5.0909	0.1	-2.0978e-002
29105	18.209	5.3636	0.1	-7.6301e-003
29106	18.301	5.2727	0.1	-1.0601e-002
29107	18.209	5.5455	0.1	3.7254e-002
29108	18.301	5.4545	0.1	-5.3363e-003
29109	18.209	5.7273	0.1	7.5335e-002
29110	18.301	5.6364	0.1	8.6371e-002
29111	18.301	5.8182	0.1	8.722e-002
29112	18.209	5.9091	0.1	4.5302e-003
29113	18.393	0.27273	0.1	8.1124e-002
29114	18.485	0.18182	0.1	0.10128
29115	18.393	9.0909e-002	0.1	2.0983e-003
29116	18.393	0.45455	0.1	3.7506e-002
29117	18.485	0.36364	0.1	9.0613e-002
29118	18.393	0.63636	0.1	-1.0867e-002
29119	18.485	0.54545	0.1	-9.3084e-003
29120	18.393	0.81818	0.1	-1.7769e-002
29121	18.485	0.72727	0.1	-1.3359e-002
29122	18.393	1.	0.1	-2.4342e-002
29123	18.485	0.90909	0.1	-2.3601e-002
29124	18.393	1.1818	0.1	-2.6774e-002
29125	18.485	1.0909	0.1	-2.6725e-002
29126	18.393	1.3636	0.1	-2.759e-002
29127	18.485	1.2727	0.1	-2.8427e-002
29128	18.393	1.5455	0.1	-2.6946e-002
29129	18.485	1.4545	0.1	-2.8291e-002
29130	18.393	1.7273	0.1	-2.5363e-002
29131	18.485	1.6364	0.1	-2.6932e-002
29132	18.393	1.9091	0.1	-2.3325e-002
29133	18.485	1.8182	0.1	-2.4749e-002
29134	18.393	2.0909	0.1	-2.1397e-002
29135	18.485	2.	0.1	-2.2398e-002
29136	18.393	2.2727	0.1	-2.0042e-002
29137	18.485	2.1818	0.1	-2.0566e-002
29138	18.393	2.4545	0.1	-1.9459e-002
29139	18.485	2.3636	0.1	-1.9705e-002
29140	18.393	2.6364	0.1	-1.951e-002
29141	18.485	2.5455	0.1	-1.9807e-002
29142	18.393	2.8182	0.1	-1.9808e-002
29143	18.485	2.7273	0.1	-2.0433e-002
29144	18.393	3.	0.1	-1.9962e-002
29145	18.485	2.9091	0.1	-2.0965e-002
29146	18.393	3.1818	0.1	-1.9808e-002
29147	18.485	3.0909	0.1	-2.0965e-002
29148	18.393	3.3636	0.1	-1.951e-002
29149	18.485	3.2727	0.1	-2.0433e-002
29150	18.393	3.5455	0.1	-1.9459e-002
29151	18.485	3.4545	0.1	-1.9806e-002
29152	18.393	3.7273	0.1	-2.0041e-002
29153	18.485	3.6364	0.1	-1.9705e-002
29154	18.393	3.9091	0.1	-2.1397e-002
29155	18.485	3.8182	0.1	-2.0565e-002
29156	18.393	4.0909	0.1	-2.3325e-002
29157	18.485	4.	0.1	-2.2398e-002
29158	18.393	4.2727	0.1	-2.5363e-002
29159	18.485	4.1818	0.1	-2.4749e-002
29160	18.393	4.4545	0.1	-2.6946e-002
29161	18.485	4.3636	0.1	-2.6932e-002
29162	18.393	4.6364	0.1	-2.759e-002
29163	18.485	4.5455	0.1	-2.829e-002
29164	18.393	4.8182	0.1	-2.6774e-002
29165	18.485	4.7273	0.1	-2.8426e-002
29166	18.393	5.	0.1	-2.4341e-002
29167	18.485	4.9091	0.1	-2.6724e-002
29168	18.393	5.1818	0.1	-1.7767e-002
29169	18.485	5.0909	0.1	-2.36e-002
29170	18.393	5.3636	0.1	-1.0863e-002
29171	18.485	5.2727	0.1	-1.3356e-002
29172	18.393	5.5455	0.1	3.7507e-002
29173	18.485	5.4545	0.1	-9.3077e-003
29174	18.393	5.7273	0.1	8.1123e-002
29175	18.485	5.6364	0.1	9.0612e-002
29176	18.485	5.8182	0.1	0.10128
29177	18.393	5.9091	0.1	2.0965e-003
29178	18.577	0.27273	0.1	8.4555e-002
29179	18.669	0.18182	0.1	0.11213
29180	18.577	9.0909e-002	0.1	-1.3813e-003
29181	18.577	0.45455	0.1	3.6499e-002
29182	18.669	0.36364	0.1	9.2619e-002
29183	18.577	0.63636	0.1	-1.4677e-002
29184	18.669	0.54545	0.1	-1.4354e-002
29185	18.577	0.81818	0.1	-2.055e-002
29186	18.669	0.72727	0.1	-1.6345e-002
29187	18.577	1.	0.1	-2.6681e-002
29188	18.669	0.90909	0.1	-2.5963e-002
29189	18.577	1.1818	0.1	-2.8717e-002
29190	18.669	1.0909	0.1	-2.8467e-002
29191	18.577	1.3636	0.1	-2.9242e-002
29192	18.669	1.2727	0.1	-2.9898e-002
29193	18.577	1.5455	0.1	-2.8238e-002
29194	18.669	1.4545	0.1	-2.9529e-002
29195	18.577	1.7273	0.1	-2.6174e-002
29196	18.669	1.6364	0.1	-2.7802e-002
29197	18.577	1.9091	0.1	-2.3622e-002
29198	18.669	1.8182	0.1	-2.5062e-002
29199	18.577	2.0909	0.1	-2.1368e-002
29200	18.669	2.	0.1	-2.2199e-002
29201	18.577	2.2727	0.1	-2.0101e-002
29202	18.669	2.1818	0.1	-2.0205e-002
29203	18.577	2.4545	0.1	-2.006e-002
29204	18.669	2.3636	0.1	-1.9757e-002
29205	18.577	2.6364	0.1	-2.09e-002
29206	18.669	2.5455	0.1	-2.0809e-002
29207	18.577	2.8182	0.1	-2.1895e-002
29208	18.669	2.7273	0.1	-2.2522e-002
29209	18.577	3.	0.1	-2.2325e-002
29210	18.669	2.9091	0.1	-2.3765e-002
29211	18.577	3.1818	0.1	-2.1895e-002
29212	18.669	3.0909	0.1	-2.3765e-002
29213	18.577	3.3636	0.1	-2.09e-002
29214	18.669	3.2727	0.1	-2.2522e-002
29215	18.577	3.5455	0.1	-2.0059e-002
29216	18.669	3.4545	0.1	-2.0809e-002
29217	18.577	3.7273	0.1	-2.0101e-002
29218	18.669	3.6364	0.1	-1.9757e-002
29219	18.577	3.9091	0.1	-2.1367e-002
29220	18.669	3.8182	0.1	-2.0205e-002
29221	18.577	4.0909	0.1	-2.3621e-002
29222	18.669	4.	0.1	-2.2198e-002
29223	18.577	4.2727	0.1	-2.6174e-002
29224	18.669	4.1818	0.1	-2.5062e-002
29225	18.577	4.4545	0.1	-2.8238e-002
29226	18.669	4.3636	0.1	-2.7802e-002
29227	18.577	4.6364	0.1	-2.9242e-002
29228	18.669	4.5455	0.1	-2.9529e-002
29229	18.577	4.8182	0.1	-2.8716e-002
29230	18.669	4.7273	0.1	-2.9897e-002
29231	18.577	5.	0.1	-2.668e-002
29232	18.669	4.9091	0.1	-2.8467e-002
29233	18.577	5.1818	0.1	-2.0548e-002
29234	18.669	5.0909	0.1	-2.5962e-002
29235	18.577	5.3636	0.1	-1.4677e-002
29236	18.669	5.2727	0.1	-1.6344e-002
29237	18.577	5.5455	0.1	3.6498e-002
29238	18.669	5.4545	0.1	-1.4355e-002
29239	18.577	5.7273	0.1	8.4555e-002
29240	18.669	5.6364	0.1	9.2617e-002
29241	18.669	5.8182	0.1	0.11213
29242	18.577	5.9091	0.1	-1.378e-003
29243	18.761	0.27273	0.1	8.356e-002
29244	18.853	0.18182	0.1	0.11524
29245	18.761	9.0909e-002	0.1	-6.3409e-003
29246	18.761	0.45455	0.1	3.346e-002
29247	18.853	0.36364	0.1	9.0764e-002
29248	18.761	0.63636	0.1	-1.921e-002
29249	18.853	0.54545	0.1	-2.0871e-002
29250	18.761	0.81818	0.1	-2.3254e-002
29251	18.853	0.72727	0.1	-1.9585e-002
29252	18.761	1.	0.1	-2.851e-002
29253	18.853	0.90909	0.1	-2.7787e-002
29254	18.761	1.1818	0.1	-3.0008e-002
29255	18.853	1.0909	0.1	-2.9304e-002
29256	18.761	1.3636	0.1	-3.0289e-002
29257	18.853	1.2727	0.1	-3.0414e-002
29258	18.761	1.5455	0.1	-2.902e-002
29259	18.853	1.4545	0.1	-2.9934e-002
29260	18.761	1.7273	0.1	-2.6491e-002
29261	18.853	1.6364	0.1	-2.7891e-002
29262	18.761	1.9091	0.1	-2.337e-002
29263	18.853	1.8182	0.1	-2.4538e-002
29264	18.761	2.0909	0.1	-2.0775e-002
29265	18.853	2.	0.1	-2.0929e-002
29266	18.761	2.2727	0.1	-1.9711e-002
29267	18.853	2.1818	0.1	-1.8793e-002
29268	18.761	2.4545	0.1	-2.0565e-002
29269	18.853	2.3636	0.1	-1.9308e-002
29270	18.761	2.6364	0.1	-2.2742e-002
29271	18.853	2.5455	0.1	-2.2051e-002
29272	18.761	2.8182	0.1	-2.491e-002
29273	18.853	2.7273	0.1	-2.5539e-002
29274	18.761	3.	0.1	-2.5802e-002
29275	18.853	2.9091	0.1	-2.7919e-002
29276	18.761	3.1818	0.1	-2.491e-002
29277	18.853	3.0909	0.1	-2.7919e-002
29278	18.761	3.3636	0.1	-2.2742e-002
29279	18.853	3.2727	0.1	-2.5539e-002
29280	18.761	3.5455	0.1	-2.0565e-002
29281	18.853	3.4545	0.1	-2.2051e-002
29282	18.761	3.7273	0.1	-1.9712e-002
29283	18.853	3.6364	0.1	-1.9308e-002
29284	18.761	3.9091	0.1	-2.0775e-002
29285	18.853	3.8182	0.1	-1.8793e-002
29286	18.761	4.0909	0.1	-2.337e-002
29287	18.853	4.	0.1	-2.0928e-002
29288	18.761	4.2727	0.1	-2.6491e-002
29289	18.853	4.1818	0.1	-2.4539e-002
29290	18.761	4.4545	0.1	-2.902e-002
29291	18.853	4.3636	0.1	-2.7891e-002
29292	18.761	4.6364	0.1	-3.0289e-002
29293	18.853	4.5455	0.1	-2.9934e-002
29294	18.761	4.8182	0.1	-3.0007e-002
29295	18.853	4.7273	0.1	-3.0414e-002
29296	18.761	5.	0.1	-2.851e-002
29297	18.853	4.9091	0.1	-2.9304e-002
29298	18.761	5.1818	0.1	-2.3254e-002
29299	18.853	5.0909	0.1	-2.7785e-002
29300	18.761	5.3636	0.1	-1.9211e-002
29301	18.853	5.2727	0.1	-1.9585e-002
29302	18.761	5.5455	0.1	3.3458e-002
29303	18.853	5.4545	0.1	-2.0871e-002
29304	18.761	5.7273	0.1	8.3558e-002
29305	18.853	5.6364	0.1	9.0762e-002
29306	18.853	5.8182	0.1	0.11524
29307	18.761	5.9091	0.1	-6.3394e-003
29308	18.945	0.27273	0.1	7.5166e-002
29309	19.037	0.18182	0.1	0.10388
29310	18.945	9.0909e-002	0.1	-1.3403e-002
29311	18.945	0.45455	0.1	2.7258e-002
29312	19.037	0.36364	0.1	8.2651e-002
29313	18.945	0.63636	0.1	-2.4706e-002
29314	19.037	0.54545	0.1	-2.9568e-002
29315	18.945	0.81818	0.1	-2.5736e-002
29316	19.037	0.72727	0.1	-2.3314e-002
29317	18.945	1.	0.1	-2.9397e-002
29318	19.037	0.90909	0.1	-2.8824e-002
29319	18.945	1.1818	0.1	-3.0082e-002
29320	19.037	1.0909	0.1	-2.8672e-002
29321	18.945	1.3636	0.1	-3.0144e-002
29322	19.037	1.2727	0.1	-2.9364e-002
29323	18.945	1.5455	0.1	-2.8689e-002
29324	19.037	1.4545	0.1	-2.9184e-002
29325	18.945	1.7273	0.1	-2.5675e-002
29326	19.037	1.6364	0.1	-2.7498e-002
29327	18.945	1.9091	0.1	-2.1749e-002
29328	19.037	1.8182	0.1	-2.3614e-002
29329	18.945	2.0909	0.1	-1.8617e-002
29330	19.037	2.	0.1	-1.9588e-002
29331	18.945	2.2727	0.1	-1.8231e-002
29332	19.037	2.1818	0.1	-1.7483e-002
29333	18.945	2.4545	0.1	-2.0956e-002
29334	19.037	2.3636	0.1	-1.8757e-002
29335	18.945	2.6364	0.1	-2.539e-002
29336	19.037	2.5455	0.1	-2.3846e-002
29337	18.945	2.8182	0.1	-2.9394e-002
29338	19.037	2.7273	0.1	-3.0062e-002
29339	18.945	3.	0.1	-3.0997e-002
29340	19.037	2.9091	0.1	-3.41e-002
29341	18.945	3.1818	0.1	-2.9393e-002
29342	19.037	3.0909	0.1	-3.41e-002
29343	18.945	3.3636	0.1	-2.539e-002
29344	19.037	3.2727	0.1	-3.0062e-002
29345	18.945	3.5455	0.1	-2.0955e-002
29346	19.037	3.4545	0.1	-2.3846e-002
29347	18.945	3.7273	0.1	-1.8231e-002
29348	19.037	3.6364	0.1	-1.8756e-002
29349	18.945	3.9091	0.1	-1.8616e-002
29350	19.037	3.8182	0.1	-1.7482e-002
29351	18.945	4.0909	0.1	-2.1748e-002
29352	19.037	4.	0.1	-1.9588e-002
29353	18.945	4.2727	0.1	-2.5675e-002
29354	19.037	4.1818	0.1	-2.3614e-002
29355	18.945	4.4545	0.1	-2.8688e-002
29356	19.037	4.3636	0.1	-2.7498e-002
29357	18.945	4.6364	0.1	-3.0144e-002
29358	19.037	4.5455	0.1	-2.9183e-002
29359	18.945	4.8182	0.1	-3.0082e-002
29360	19.037	4.7273	0.1	-2.9363e-002
29361	18.945	5.	0.1	-2.9395e-002
29362	19.037	4.9091	0.1	-2.8671e-002
29363	18.945	5.1818	0.1	-2.5734e-002
29364	19.037	5.0909	0.1	-2.8822e-002
29365	18.945	5.3636	0.1	-2.4705e-002
29366	19.037	5.2727	0.1	-2.3313e-002
29367	18.945	5.5455	0.1	2.7257e-002
29368	19.037	5.4545	0.1	-2.9567e-002
29369	18.945	5.7273	0.1	7.5165e-002
29370	19.037	5.6364	0.1	8.2649e-002
29371	19.037	5.8182	0.1	0.10388
29372	18.945	5.9091	0.1	-1.3403e-002
29373	19.129	0.27273	0.1	5.5254e-002
29374	19.221	0.18182	0.1	6.9615e-002
29375	19.129	9.0909e-002	0.1	-2.356e-002
29376	19.129	0.45455	0.1	1.6092e-002
29377	19.221	0.36364	0.1	6.5184e-002
29378	19.129	0.63636	0.1	-3.1817e-002
29379	19.221	0.54545	0.1	-4.1414e-002
29380	19.129	0.81818	0.1	-2.8111e-002
29381	19.221	0.72727	0.1	-2.795e-002
29382	19.129	1.	0.1	-2.8952e-002
29383	19.221	0.90909	0.1	-2.8748e-002
29384	19.129	1.1818	0.1	-2.8317e-002
29385	19.221	1.0909	0.1	-2.5633e-002
29386	19.129	1.3636	0.1	-2.8449e-002
29387	19.221	1.2727	0.1	-2.533e-002
29388	19.129	1.5455	0.1	-2.7819e-002
29389	19.221	1.4545	0.1	-2.522e-002
29390	19.129	1.7273	0.1	-2.5101e-002
29391	19.221	1.6364	0.1	-2.3299e-002
29392	19.129	1.9091	0.1	-2.1019e-002
29393	19.221	1.8182	0.1	-2.0157e-002
29394	19.129	2.0909	0.1	-1.8059e-002
29395	19.221	2.	0.1	-1.3981e-002
29396	19.129	2.2727	0.1	-1.7884e-002
29397	19.221	2.1818	0.1	-1.131e-002
29398	19.129	2.4545	0.1	-2.2015e-002
29399	19.221	2.3636	0.1	-1.7654e-002
29400	19.129	2.6364	0.1	-2.9437e-002
29401	19.221	2.5455	0.1	-2.7513e-002
29402	19.129	2.8182	0.1	-3.6098e-002
29403	19.221	2.7273	0.1	-3.6943e-002
29404	19.129	3.	0.1	-3.8683e-002
29405	19.221	2.9091	0.1	-4.2976e-002
29406	19.129	3.1818	0.1	-3.6099e-002
29407	19.221	3.0909	0.1	-4.2977e-002
29408	19.129	3.3636	0.1	-2.9437e-002
29409	19.221	3.2727	0.1	-3.6944e-002
29410	19.129	3.5455	0.1	-2.2015e-002
29411	19.221	3.4545	0.1	-2.7512e-002
29412	19.129	3.7273	0.1	-1.7883e-002
29413	19.221	3.6364	0.1	-1.7654e-002
29414	19.129	3.9091	0.1	-1.8058e-002
29415	19.221	3.8182	0.1	-1.1309e-002
29416	19.129	4.0909	0.1	-2.1019e-002
29417	19.221	4.	0.1	-1.3981e-002
29418	19.129	4.2727	0.1	-2.5101e-002
29419	19.221	4.1818	0.1	-2.0157e-002
29420	19.129	4.4545	0.1	-2.7818e-002
29421	19.221	4.3636	0.1	-2.3299e-002
29422	19.129	4.6364	0.1	-2.8448e-002
29423	19.221	4.5455	0.1	-2.5219e-002
29424	19.129	4.8182	0.1	-2.8317e-002
29425	19.221	4.7273	0.1	-2.533e-002
29426	19.129	5.	0.1	-2.8951e-002
29427	19.221	4.9091	0.1	-2.5633e-002
29428	19.129	5.1818	0.1	-2.8109e-002
29429	19.221	5.0909	0.1	-2.8746e-002
29430	19.129	5.3636	0.1	-3.1816e-002
29431	19.221	5.2727	0.1	-2.7948e-002
29432	19.129	5.5455	0.1	1.6091e-002
29433	19.221	5.4545	0.1	-4.1413e-002
29434	19.129	5.7273	0.1	5.5253e-002
29435	19.221	5.6364	0.1	6.5184e-002
29436	19.221	5.8182	0.1	6.9614e-002
29437	19.129	5.9091	0.1	-2.356e-002
29438	19.313	0.27273	0.1	1.9343e-002
29439	19.404	0.18182	0.1	3.0248e-003
29440	19.313	9.0909e-002	0.1	-3.7568e-002
29441	19.313	0.45455	0.1	-2.0377e-003
29442	19.404	0.36364	0.1	3.3918e-002
29443	19.313	0.63636	0.1	-4.1192e-002
29444	19.404	0.54545	0.1	-5.8718e-002
29445	19.313	0.81818	0.1	-3.0326e-002
29446	19.404	0.72727	0.1	-3.5511e-002
29447	19.313	1.	0.1	-2.6296e-002
29448	19.404	0.90909	0.1	-2.8948e-002
29449	19.313	1.1818	0.1	-2.2978e-002
29450	19.404	1.0909	0.1	-2.0323e-002
29451	19.313	1.3636	0.1	-2.207e-002
29452	19.404	1.2727	0.1	-1.6527e-002
29453	19.313	1.5455	0.1	-2.0435e-002
29454	19.404	1.4545	0.1	-1.8837e-002
29455	19.313	1.7273	0.1	-1.7937e-002
29456	19.404	1.6364	0.1	-2.609e-002
29457	19.313	1.9091	0.1	-1.2607e-002
29458	19.404	1.8182	0.1	-2.0736e-002
29459	19.313	2.0909	0.1	-6.8054e-003
29460	19.404	2.	0.1	-2.2127e-002
29461	19.313	2.2727	0.1	-1.11e-002
29462	19.404	2.1818	0.1	-2.5463e-002
29463	19.313	2.4545	0.1	-2.3931e-002
29464	19.404	2.3636	0.1	-2.2125e-002
29465	19.313	2.6364	0.1	-3.6546e-002
29466	19.404	2.5455	0.1	-3.3073e-002
29467	19.313	2.8182	0.1	-4.5817e-002
29468	19.404	2.7273	0.1	-4.7663e-002
29469	19.313	3.	0.1	-4.9414e-002
29470	19.404	2.9091	0.1	-5.4595e-002
29471	19.313	3.1818	0.1	-4.5817e-002
29472	19.404	3.0909	0.1	-5.4595e-002
29473	19.313	3.3636	0.1	-3.6545e-002
29474	19.404	3.2727	0.1	-4.7663e-002
29475	19.313	3.5455	0.1	-2.3931e-002
29476	19.404	3.4545	0.1	-3.3071e-002
29477	19.313	3.7273	0.1	-1.11e-002
29478	19.404	3.6364	0.1	-2.2126e-002
29479	19.313	3.9091	0.1	-6.8055e-003
29480	19.404	3.8182	0.1	-2.5463e-002
29481	19.313	4.0909	0.1	-1.2607e-002
29482	19.404	4.	0.1	-2.2127e-002
29483	19.313	4.2727	0.1	-1.7937e-002
29484	19.404	4.1818	0.1	-2.0736e-002
29485	19.313	4.4545	0.1	-2.0435e-002
29486	19.404	4.3636	0.1	-2.609e-002
29487	19.313	4.6364	0.1	-2.2069e-002
29488	19.404	4.5455	0.1	-1.8837e-002
29489	19.313	4.8182	0.1	-2.2977e-002
29490	19.404	4.7273	0.1	-1.6526e-002
29491	19.313	5.	0.1	-2.6295e-002
29492	19.404	4.9091	0.1	-2.0321e-002
29493	19.313	5.1818	0.1	-3.0324e-002
29494	19.404	5.0909	0.1	-2.8947e-002
29495	19.313	5.3636	0.1	-4.1189e-002
29496	19.404	5.2727	0.1	-3.5508e-002
29497	19.313	5.5455	0.1	-2.0357e-003
29498	19.404	5.4545	0.1	-5.8717e-002
29499	19.313	5.7273	0.1	1.9342e-002
29500	19.404	5.6364	0.1	3.3918e-002
29501	19.404	5.8182	0.1	3.0236e-003
29502	19.313	5.9091	0.1	-3.757e-002
29503	19.496	0.27273	0.1	-3.8424e-002
29504	19.588	0.18182	0.1	-9.8062e-002
29505	19.496	9.0909e-002	0.1	-5.8214e-002
29506	19.496	0.45455	0.1	-3.1461e-002
29507	19.588	0.36364	0.1	-1.2308e-002
29508	19.496	0.63636	0.1	-5.6338e-002
29509	19.588	0.54545	0.1	-8.0892e-002
29510	19.496	0.81818	0.1	-3.5792e-002
29511	19.588	0.72727	0.1	-4.619e-002
29512	19.496	1.	0.1	-2.3848e-002
29513	19.588	0.90909	0.1	-2.8386e-002
29514	19.496	1.1818	0.1	-1.4167e-002
29515	19.588	1.0909	0.1	-9.2612e-003
29516	19.496	1.3636	0.1	-1.3127e-002
29517	19.588	1.2727	0.1	-5.3943e-004
29518	19.496	1.5455	0.1	-2.4044e-002
29519	19.588	1.4545	0.1	4.0033e-003
29520	19.496	1.7273	0.1	-2.8355e-002
29521	19.588	1.6364	0.1	2.7967e-002
29522	19.496	1.9091	0.1	-2.9698e-002
29523	19.588	1.8182	0.1	-4.2143e-003
29524	19.496	2.0909	0.1	-4.0426e-002
29525	19.588	2.	0.1	1.7462e-002
29526	19.496	2.2727	0.1	-3.6933e-002
29527	19.588	2.1818	0.1	3.3184e-002
29528	19.496	2.4545	0.1	-3.2886e-002
29529	19.588	2.3636	0.1	-3.3513e-002
29530	19.496	2.6364	0.1	-4.6669e-002
29531	19.588	2.5455	0.1	-5.373e-002
29532	19.496	2.8182	0.1	-5.9233e-002
29533	19.588	2.7273	0.1	-5.9982e-002
29534	19.496	3.	0.1	-6.2614e-002
29535	19.588	2.9091	0.1	-6.6462e-002
29536	19.496	3.1818	0.1	-5.9232e-002
29537	19.588	3.0909	0.1	-6.6463e-002
29538	19.496	3.3636	0.1	-4.6669e-002
29539	19.588	3.2727	0.1	-5.9982e-002
29540	19.496	3.5455	0.1	-3.2887e-002
29541	19.588	3.4545	0.1	-5.3729e-002
29542	19.496	3.7273	0.1	-3.6934e-002
29543	19.588	3.6364	0.1	-3.3515e-002
29544	19.496	3.9091	0.1	-4.0426e-002
29545	19.588	3.8182	0.1	3.3185e-002
29546	19.496	4.0909	0.1	-2.9698e-002
29547	19.588	4.	0.1	1.7462e-002
29548	19.496	4.2727	0.1	-2.8355e-002
29549	19.588	4.1818	0.1	-4.2138e-003
29550	19.496	4.4545	0.1	-2.4044e-002
29551	19.588	4.3636	0.1	2.7968e-002
29552	19.496	4.6364	0.1	-1.3126e-002
29553	19.588	4.5455	0.1	4.0027e-003
29554	19.496	4.8182	0.1	-1.4165e-002
29555	19.588	4.7273	0.1	-5.3797e-004
29556	19.496	5.	0.1	-2.3847e-002
29557	19.588	4.9091	0.1	-9.2596e-003
29558	19.496	5.1818	0.1	-3.5791e-002
29559	19.588	5.0909	0.1	-2.8385e-002
29560	19.496	5.3636	0.1	-5.6337e-002
29561	19.588	5.2727	0.1	-4.6188e-002
29562	19.496	5.5455	0.1	-3.1462e-002
29563	19.588	5.4545	0.1	-8.0892e-002
29564	19.496	5.7273	0.1	-3.8425e-002
29565	19.588	5.6364	0.1	-1.2309e-002
29566	19.588	5.8182	0.1	-9.8062e-002
29567	19.496	5.9091	0.1	-5.8213e-002
29568	19.68	0.27273	0.1	-0.11242
29569	19.772	0.18182	0.1	-0.23163
29570	19.68	9.0909e-002	0.1	-7.9256e-002
29571	19.68	0.45455	0.1	-6.7653e-002
29572	19.772	0.36364	0.1	-8.1647e-002
29573	19.68	0.63636	0.1	-7.2998e-002
29574	19.772	0.54545	0.1	-0.11805
29575	19.68	0.81818	0.1	-4.0151e-002
29576	19.772	0.72727	0.1	-7.4075e-002
29577	19.68	1.	0.1	-1.4739e-002
29578	19.772	0.90909	0.1	-4.5027e-002
29579	19.68	1.1818	0.1	3.9651e-003
29580	19.772	1.0909	0.1	-1.6949e-002
29581	19.68	1.3636	0.1	1.69e-002
29582	19.772	1.2727	0.1	1.816e-002
29583	19.68	1.5455	0.1	5.6846e-002
29584	19.772	1.4545	0.1	5.3508e-002
29585	19.68	1.7273	0.1	5.2929e-002
29586	19.772	1.6364	0.1	-0.11068
29587	19.68	1.9091	0.1	4.3476e-002
29588	19.772	1.8182	0.1	-2.6161e-002
29589	19.68	2.0909	0.1	9.105e-002
29590	19.772	2.	0.1	-0.1871
29591	19.68	2.2727	0.1	3.5027e-002
29592	19.772	2.1818	0.1	-0.293
29593	19.68	2.4545	0.1	-5.7727e-002
29594	19.772	2.3636	0.1	-4.4103e-002
29595	19.68	2.6364	0.1	-7.0868e-002
29596	19.772	2.5455	0.1	-7.9052e-002
29597	19.68	2.8182	0.1	-7.0662e-002
29598	19.772	2.7273	0.1	-7.4824e-002
29599	19.68	3.	0.1	-7.3543e-002
29600	19.772	2.9091	0.1	-6.8547e-002
29601	19.68	3.1818	0.1	-7.0663e-002
29602	19.772	3.0909	0.1	-6.8548e-002
29603	19.68	3.3636	0.1	-7.0867e-002
29604	19.772	3.2727	0.1	-7.4824e-002
29605	19.68	3.5455	0.1	-5.7726e-002
29606	19.772	3.4545	0.1	-7.9052e-002
29607	19.68	3.7273	0.1	3.5027e-002
29608	19.772	3.6364	0.1	-4.4103e-002
29609	19.68	3.9091	0.1	9.105e-002
29610	19.772	3.8182	0.1	-0.293
29611	19.68	4.0909	0.1	4.3476e-002
29612	19.772	4.	0.1	-0.1871
29613	19.68	4.2727	0.1	5.293e-002
29614	19.772	4.1818	0.1	-2.6161e-002
29615	19.68	4.4545	0.1	5.6846e-002
29616	19.772	4.3636	0.1	-0.11068
29617	19.68	4.6364	0.1	1.69e-002
29618	19.772	4.5455	0.1	5.3508e-002
29619	19.68	4.8182	0.1	3.9661e-003
29620	19.772	4.7273	0.1	1.8161e-002
29621	19.68	5.	0.1	-1.4737e-002
29622	19.772	4.9091	0.1	-1.6948e-002
29623	19.68	5.1818	0.1	-4.015e-002
29624	19.772	5.0909	0.1	-4.5025e-002
29625	19.68	5.3636	0.1	-7.2997e-002
29626	19.772	5.2727	0.1	-7.4074e-002
29627	19.68	5.5455	0.1	-6.7653e-002
29628	19.772	5.4545	0.1	-0.11805
29629	19.68	5.7273	0.1	-0.11242
29630	19.772	5.6364	0.1	-8.1649e-002
29631	19.772	5.8182	0.1	-0.23163
29632	19.68	5.9091	0.1	-7.9256e-002
29633	19.864	0.27273	0.1	-0.21296
29634	19.956	0.18182	0.1	-0.30197
29635	19.864	9.0909e-002	0.1	-0.12285
29636	19.864	0.45455	0.1	-0.13184
29637	19.956	0.36364	0.1	-0.11521
29638	19.864	0.63636	0.1	-0.11885
29639	19.956	0.54545	0.1	-0.12192
29640	19.864	0.81818	0.1	-7.9492e-002
29641	19.956	0.72727	0.1	-7.4662e-002
29642	19.864	1.	0.1	-4.8353e-002
29643	19.956	0.90909	0.1	-4.0353e-002
29644	19.864	1.1818	0.1	-3.8671e-003
29645	19.956	1.0909	0.1	1.9593e-002
29646	19.864	1.3636	0.1	5.4566e-002
29647	19.956	1.2727	0.1	6.8045e-002
29648	19.864	1.5455	0.1	-0.11224
29649	19.956	1.4545	0.1	6.8418e-002
29650	19.864	1.7273	0.1	-0.18774
29651	19.956	1.6364	0.1	0.65485
29652	19.864	1.9091	0.1	-0.25604
29653	19.956	1.8182	0.1	0.27115
29654	19.864	2.0909	0.1	-0.57244
29655	19.956	2.	0.1	0.7493
29656	19.864	2.2727	0.1	-0.37705
29657	19.956	2.1818	0.1	0.54925
29658	19.864	2.4545	0.1	-7.2381e-002
29659	19.956	2.3636	0.1	-0.42133
29660	19.864	2.6364	0.1	-8.8113e-002
29661	19.956	2.5455	0.1	-6.1331e-002
29662	19.864	2.8182	0.1	-7.6042e-002
29663	19.956	2.7273	0.1	-6.7756e-002
29664	19.864	3.	0.1	-6.6348e-002
29665	19.956	2.9091	0.1	-3.9695e-002
29666	19.864	3.1818	0.1	-7.6042e-002
29667	19.956	3.0909	0.1	-3.9695e-002
29668	19.864	3.3636	0.1	-8.8113e-002
29669	19.956	3.2727	0.1	-6.7756e-002
29670	19.864	3.5455	0.1	-7.2382e-002
29671	19.956	3.4545	0.1	-6.1332e-002
29672	19.864	3.7273	0.1	-0.37705
29673	19.956	3.6364	0.1	-0.42133
29674	19.864	3.9091	0.1	-0.57244
29675	19.956	3.8182	0.1	0.54925
29676	19.864	4.0909	0.1	-0.25604
29677	19.956	4.	0.1	0.7493
29678	19.864	4.2727	0.1	-0.18774
29679	19.956	4.1818	0.1	0.27115
29680	19.864	4.4545	0.1	-0.11224
29681	19.956	4.3636	0.1	0.65485
29682	19.864	4.6364	0.1	5.4566e-002
29683	19.956	4.5455	0.1	6.8419e-002
29684	19.864	4.8182	0.1	-3.8662e-003
29685	19.956	4.7273	0.1	6.8045e-002
29686	19.864	5.	0.1	-4.8352e-002
29687	19.956	4.9091	0.1	1.9594e-002
29688	19.864	5.1818	0.1	-7.949e-002
29689	19.956	5.0909	0.1	-4.0352e-002
29690	19.864	5.3636	0.1	-0.11885
29691	19.956	5.2727	0.1	-7.466e-002
29692	19.864	5.5455	0.1	-0.13184
29693	19.956	5.4545	0.1	-0.12192
29694	19.864	5.7273	0.1	-0.21296
29695	19.956	5.6364	0.1	-0.11521
29696	19.956	5.8182	0.1	-0.30197
29697	19.864	5.9091	0.1	-0.12285
29698	20.048	0.27273	0.1	-0.17607
29699	20.14	0.18182	0.1	-0.32723
29700	20.048	9.0909e-002	0.1	-5.9518e-002
29701	20.048	0.45455	0.1	-9.3173e-002
29702	20.14	0.36364	0.1	-0.24531
29703	20.048	0.63636	0.1	-7.2401e-002
29704	20.14	0.54545	0.1	-0.26221
29705	20.048	0.81818	0.1	-3.3887e-002
29706	20.14	0.72727	0.1	-0.26715
29707	20.048	1.	0.1	2.6562e-002
29708	20.14	0.90909	0.1	-0.26437
29709	20.048	1.1818	0.1	8.8813e-002
29710	20.14	1.0909	0.1	-0.2574
29711	20.048	1.3636	0.1	7.9397e-002
29712	20.14	1.2727	0.1	-0.22221
29713	20.048	1.5455	0.1	0.83269
29714	20.14	1.4545	0.1	-0.24692
29715	20.048	1.7273	0.1	1.1241
29716	20.14	1.6364	0.1	-7.9547e-002
29717	20.048	1.9091	0.1	1.2771
29718	20.14	1.8182	0.1	-1.87
29719	20.048	2.0909	0.1	1.8651
29720	20.14	2.	0.1	-4.8672
29721	20.048	2.2727	0.1	0.48802
29722	20.14	2.1818	0.1	-2.3149
29723	20.048	2.4545	0.1	-0.42186
29724	20.14	2.3636	0.1	0.12471
29725	20.048	2.6364	0.1	-4.5054e-002
29726	20.14	2.5455	0.1	-8.9011e-002
29727	20.048	2.8182	0.1	-3.3028e-002
29728	20.14	2.7273	0.1	2.8239e-002
29729	20.048	3.	0.1	-1.437e-002
29730	20.14	2.9091	0.1	4.0016e-002
29731	20.048	3.1818	0.1	-3.3028e-002
29732	20.14	3.0909	0.1	4.0017e-002
29733	20.048	3.3636	0.1	-4.5055e-002
29734	20.14	3.2727	0.1	2.8238e-002
29735	20.048	3.5455	0.1	-0.42186
29736	20.14	3.4545	0.1	-8.901e-002
29737	20.048	3.7273	0.1	0.48802
29738	20.14	3.6364	0.1	0.12471
29739	20.048	3.9091	0.1	1.8651
29740	20.14	3.8182	0.1	-2.3149
29741	20.048	4.0909	0.1	1.2771
29742	20.14	4.	0.1	-4.8672
29743	20.048	4.2727	0.1	1.1241
29744	20.14	4.1818	0.1	-1.87
29745	20.048	4.4545	0.1	0.83269
29746	20.14	4.3636	0.1	-7.9546e-002
29747	20.048	4.6364	0.1	7.9397e-002
29748	20.14	4.5455	0.1	-0.24692
29749	20.048	4.8182	0.1	8.8813e-002
29750	20.14	4.7273	0.1	-0.22221
29751	20.048	5.	0.1	2.6562e-002
29752	20.14	4.9091	0.1	-0.2574
29753	20.048	5.1818	0.1	-3.3886e-002
29754	20.14	5.0909	0.1	-0.26437
29755	20.048	5.3636	0.1	-7.2401e-002
29756	20.14	5.2727	0.1	-0.26714
29757	20.048	5.5455	0.1	-9.3174e-002
29758	20.14	5.4545	0.1	-0.26222
29759	20.048	5.7273	0.1	-0.17607
29760	20.14	5.6364	0.1	-0.24531
29761	20.14	5.8182	0.1	-0.32723
29762	20.048	5.9091	0.1	-5.9518e-002
29763	20.232	0.27273	0.1	-0.32315
29764	20.324	0.18182	0.1	1.2147
29765	20.232	9.0909e-002	0.1	-0.24208
29766	20.232	0.45455	0.1	-0.38773
29767	20.324	0.36364	0.1	0.42301
29768	20.232	0.63636	0.1	-0.4431
29769	20.324	0.54545	0.1	0.26232
29770	20.232	0.81818	0.1	-0.48876
29771	20.324	0.72727	0.1	0.18355
29772	20.232	1.	0.1	-0.54248
29773	20.324	0.90909	0.1	0.15011
29774	20.232	1.1818	0.1	-0.56751
29775	20.324	1.0909	0.1	0.26947
29776	20.232	1.3636	0.1	-0.55751
29777	20.324	1.2727	0.1	-5.0393e-002
29778	20.232	1.5455	0.1	-1.1585
29779	20.324	1.4545	0.1	1.7262
29780	20.232	1.7273	0.1	-3.0709
29781	20.324	1.6364	0.1	-3.7843
29782	20.232	1.9091	0.1	-7.9509
29783	20.324	1.8182	0.1	8.8214
29784	20.232	2.0909	0.1	-9.0872
29785	20.324	2.	0.1	46.77
29786	20.232	2.2727	0.1	-2.7355
29787	20.324	2.1818	0.1	-6.4808
29788	20.232	2.4545	0.1	0.45212
29789	20.324	2.3636	0.1	2.4307
29790	20.232	2.6364	0.1	-1.2158e-002
29791	20.324	2.5455	0.1	-0.54136
29792	20.232	2.8182	0.1	0.10242
29793	20.324	2.7273	0.1	0.42
29794	20.232	3.	0.1	9.4299e-002
29795	20.324	2.9091	0.1	0.15625
29796	20.232	3.1818	0.1	0.10242
29797	20.324	3.0909	0.1	0.15625
29798	20.232	3.3636	0.1	-1.2157e-002
29799	20.324	3.2727	0.1	0.42
29800	20.232	3.5455	0.1	0.45212
29801	20.324	3.4545	0.1	-0.54136
29802	20.232	3.7273	0.1	-2.7355
29803	20.324	3.6364	0.1	2.4307
29804	20.232	3.9091	0.1	-9.0872
29805	20.324	3.8182	0.1	-6.4808
29806	20.232	4.0909	0.1	-7.9509
29807	20.324	4.	0.1	46.77
29808	20.232	4.2727	0.1	-3.0709
29809	20.324	4.1818	0.1	8.8214
29810	20.232	4.4545	0.1	-1.1585
29811	20.324	4.3636	0.1	-3.7843
29812	20.232	4.6364	0.1	-0.55751
29813	20.324	4.5455	0.1	1.7262
29814	20.232	4.8182	0.1	-0.56751
29815	20.324	4.7273	0.1	-5.0392e-002
29816	20.232	5.	0.1	-0.54248
29817	20.324	4.9091	0.1	0.26947
29818	20.232	5.1818	0.1	-0.48875
29819	20.324	5.0909	0.1	0.15011
29820	20.232	5.3636	0.1	-0.4431
29821	20.324	5.2727	0.1	0.18355
29822	20.232	5.5455	0.1	-0.38773
29823	20.324	5.4545	0.1	0.26232
29824	20.232	5.7273	0.1	-0.32315
29825	20.324	5.6364	0.1	0.42301
29826	20.324	5.8182	0.1	1.2147
29827	20.232	5.9091	0.1	-0.24208
29828	20.416	0.27273	0.1	1.7354
29829	20.508	0.18182	0.1	-0.696
29830	20.416	9.0909e-002	0.1	1.9527
29831	20.416	0.45455	0.1	1.0255
29832	20.508	0.36364	0.1	-0.6044
29833	20.416	0.63636	0.1	0.90649
29834	20.508	0.54545	0.1	-0.41206
29835	20.416	0.81818	0.1	0.86576
29836	20.508	0.72727	0.1	-0.40485
29837	20.416	1.	0.1	1.0249
29838	20.508	0.90909	0.1	-0.49031
29839	20.416	1.1818	0.1	0.88023
29840	20.508	1.0909	0.1	-0.14804
29841	20.416	1.3636	0.1	2.3447
29842	20.508	1.2727	0.1	-1.3986
29843	20.416	1.5455	0.1	-0.71998
29844	20.508	1.4545	0.1	3.7373
29845	20.416	1.7273	0.1	8.0454
29846	20.508	1.6364	0.1	-14.834
29847	20.416	1.9091	0.1	65.078
29848	20.508	1.8182	0.1	65.242
29849	20.416	2.0909	0.1	48.062
29850	20.508	2.	0.1	56.013
29851	20.416	2.2727	0.1	-1.1439
29852	20.508	2.1818	0.1	-25.426
29853	20.416	2.4545	0.1	1.4568
29854	20.508	2.3636	0.1	4.9831
29855	20.416	2.6364	0.1	-9.7313e-002
29856	20.508	2.5455	0.1	-0.44997
29857	20.416	2.8182	0.1	0.47396
29858	20.508	2.7273	0.1	0.7396
29859	20.416	3.	0.1	0.2166
29860	20.508	2.9091	0.1	0.32618
29861	20.416	3.1818	0.1	0.47396
29862	20.508	3.0909	0.1	0.32618
29863	20.416	3.3636	0.1	-9.7313e-002
29864	20.508	3.2727	0.1	0.7396
29865	20.416	3.5455	0.1	1.4568
29866	20.508	3.4545	0.1	-0.44997
29867	20.416	3.7273	0.1	-1.1439
29868	20.508	3.6364	0.1	4.9831
29869	20.416	3.9091	0.1	48.062
29870	20.508	3.8182	0.1	-25.426
29871	20.416	4.0909	0.1	65.078
29872	20.508	4.	0.1	56.013
29873	20.416	4.2727	0.1	8.0454
29874	20.508	4.1818	0.1	65.242
29875	20.416	4.4545	0.1	-0.71997
29876	20.508	4.3636	0.1	-14.834
29877	20.416	4.6364	0.1	2.3447
29878	20.508	4.5455	0.1	3.7373
29879	20.416	4.8182	0.1	0.88023
29880	20.508	4.7273	0.1	-1.3986
29881	20.416	5.	0.1	1.0249
29882	20.508	4.9091	0.1	-0.14805
29883	20.416	5.1818	0.1	0.86576
29884	20.508	5.0909	0.1	-0.49031
29885	20.416	5.3636	0.1	0.90649
29886	20.508	5.2727	0.1	-0.40485
29887	20.416	5.5455	0.1	1.0255
29888	20.508	5.4545	0.1	-0.41206
29889	20.416	5.7273	0.1	1.7354
29890	20.508	5.6364	0.1	-0.6044
29891	20.508	5.8182	0.1	-0.696
29892	20.416	5.9091	0.1	1.9527
29893	20.767	3.7273	0.1	7.4201
29894	20.683	3.8182	0.1	-23.841
29895	20.767	3.9091	0.1	187.13
29896	20.767	3.5455	0.1	3.663
29897	20.683	3.6364	0.1	6.8742
29898	20.767	3.3636	0.1	0.23322
29899	20.683	3.4545	0.1	-0.15841
29900	20.767	3.1818	0.1	0.5796
29901	20.683	3.2727	0.1	0.77543
29902	20.767	3.	0.1	0.36569
29903	20.683	3.0909	0.1	0.40394
29904	20.767	2.8182	0.1	0.5796
29905	20.683	2.9091	0.1	0.40394
29906	20.767	2.6364	0.1	0.23322
29907	20.683	2.7273	0.1	0.77543
29908	20.767	2.4545	0.1	3.663
29909	20.683	2.5455	0.1	-0.15841
29910	20.767	2.2727	0.1	7.4201
29911	20.683	2.3636	0.1	6.8742
29912	20.683	2.1818	0.1	-23.84
29913	20.767	2.0909	0.1	187.13
29914	20.6	3.7273	0.1	-18.554
29915	20.6	3.9091	0.1	29.806
29916	20.6	3.5455	0.1	3.1131
29917	20.6	3.3636	0.1	0.38523
29918	20.6	3.1818	0.1	0.5866
29919	20.6	3.	0.1	0.42934
29920	20.6	2.8182	0.1	0.5866
29921	20.6	2.6364	0.1	0.38523
29922	20.6	2.4545	0.1	3.1131
29923	20.6	2.2727	0.1	-18.554
29924	20.6	2.0909	0.1	29.806
29925	20.767	5.7273	0.1	-1.5002
29926	20.767	5.9091	0.1	0.52686
29927	20.767	5.8182	5.e-002	2.9801e-006
29928	20.767	5.5455	0.1	-1.8079
29929	20.767	5.6364	5.e-002	3.8503e-006
29930	20.767	5.3636	0.1	-1.9758
29931	20.767	5.4545	5.e-002	3.5847e-006
29932	20.767	5.1818	0.1	-2.3488
29933	20.767	5.2727	5.e-002	3.7007e-006
29934	20.767	5.	0.1	-2.8073
29935	20.767	5.0909	5.e-002	4.4409e-006
29936	20.767	4.8182	0.1	-3.848
29937	20.767	4.9091	5.e-002	4.4826e-006
29938	20.767	4.6364	0.1	-4.5352
29939	20.767	4.7273	5.e-002	4.1242e-006
29940	20.767	4.4545	0.1	-11.953
29941	20.767	4.5455	5.e-002	4.4968e-006
29942	20.767	4.2727	0.1	-10.427
29943	20.767	4.3636	5.e-002	6.4693e-006
29944	20.767	4.0909	0.1	292.53
29945	20.767	4.1818	5.e-002	4.548e-006
29946	20.683	4.	0.1	322.58
29947	20.767	4.	5.e-002	-3.8815e-005
29948	20.6	4.0909	0.1	163.29
29949	20.6	4.	5.e-002	-1.7958e-006
29950	20.6	4.2727	0.1	-9.326
29951	20.6	4.1818	5.e-002	1.1491e-005
29952	20.6	4.4545	0.1	-15.005
29953	20.6	4.3636	5.e-002	8.1166e-006
29954	20.6	4.6364	0.1	-6.7058
29955	20.6	4.5455	5.e-002	6.9023e-006
29956	20.6	4.8182	0.1	-6.2757
29957	20.6	4.7273	5.e-002	5.9673e-006
29958	20.6	5.	0.1	-4.9751
29959	20.6	4.9091	5.e-002	6.0706e-006
29960	20.6	5.1818	0.1	-4.4887
29961	20.6	5.0909	5.e-002	6.1935e-006
29962	20.6	5.3636	0.1	-4.0368
29963	20.6	5.2727	5.e-002	5.9462e-006
29964	20.6	5.5455	0.1	-3.8234
29965	20.6	5.4545	5.e-002	5.8069e-006
29966	20.6	5.7273	0.1	-3.4781
29967	20.6	5.6364	5.e-002	7.88e-006
29968	20.6	5.9091	0.1	-1.7941
29969	20.6	5.8182	5.e-002	5.2137e-006
29970	20.767	0.27273	0.1	-1.5002
29971	20.767	9.0909e-002	0.1	0.52686
29972	20.767	0.18182	5.e-002	-8.7952e-006
29973	20.767	0.45455	0.1	-1.8079
29974	20.767	0.36364	5.e-002	5.7664e-006
29975	20.767	0.63636	0.1	-1.9758
29976	20.767	0.54545	5.e-002	3.6672e-006
29977	20.767	0.81818	0.1	-2.3488
29978	20.767	0.72727	5.e-002	4.1993e-006
29979	20.767	1.	0.1	-2.8073
29980	20.767	0.90909	5.e-002	4.2294e-006
29981	20.767	1.1818	0.1	-3.848
29982	20.767	1.0909	5.e-002	4.5475e-006
29983	20.767	1.3636	0.1	-4.5352
29984	20.767	1.2727	5.e-002	4.0977e-006
29985	20.767	1.5455	0.1	-11.953
29986	20.767	1.4545	5.e-002	4.7335e-006
29987	20.767	1.7273	0.1	-10.427
29988	20.767	1.6364	5.e-002	1.8712e-006
29989	20.767	1.9091	0.1	292.53
29990	20.767	1.8182	5.e-002	1.6163e-005
29991	20.683	2.	0.1	322.58
29992	20.767	2.	5.e-002	-1.5176e-005
29993	20.6	1.9091	0.1	163.29
29994	20.6	2.	5.e-002	2.6477e-005
29995	20.6	1.7273	0.1	-9.326
29996	20.6	1.8182	5.e-002	1.3234e-005
29997	20.6	1.5455	0.1	-15.005
29998	20.6	1.6364	5.e-002	5.6755e-006
29999	20.6	1.3636	0.1	-6.7058
30000	20.6	1.4545	5.e-002	5.9472e-006
30001	20.6	1.1818	0.1	-6.2757
30002	20.6	1.2727	5.e-002	7.3549e-006
30003	20.6	1.	0.1	-4.9751
30004	20.6	1.0909	5.e-002	7.1583e-006
30005	20.6	0.81818	0.1	-4.4887
30006	20.6	0.90909	5.e-002	6.4367e-006
30007	20.6	0.63636	0.1	-4.0368
30008	20.6	0.72727	5.e-002	6.5633e-006
30009	20.6	0.45455	0.1	-3.8234
30010	20.6	0.54545	5.e-002	6.7184e-006
30011	20.6	0.27273	0.1	-3.4781
30012	20.6	0.36364	5.e-002	7.5716e-006
30013	20.6	9.0909e-002	0.1	-1.7941
30014	20.6	0.18182	5.e-002	3.9425e-006
30015	20.856	6.	0.1	2.0844
30016	20.767	6.	5.e-002	-2.2482e-006
30017	21.036	6.	0.1	-0.31742
30018	20.946	6.	5.e-002	4.453e-007
30019	21.216	6.	0.1	-0.46937
30020	21.126	6.	5.e-002	9.0717e-006
30021	21.395	6.	0.1	-0.2665
30022	21.306	6.	5.e-002	8.5767e-006
30023	21.575	6.	0.1	-0.16435
30024	21.485	6.	5.e-002	5.3713e-006
30025	21.755	6.	0.1	-7.6041e-002
30026	21.665	6.	5.e-002	6.6009e-006
30027	21.934	6.	0.1	-1.7019e-002
30028	21.844	6.	5.e-002	6.1616e-006
30029	22.114	6.	0.1	2.4517e-002
30030	22.024	6.	5.e-002	6.7704e-006
30031	22.294	6.	0.1	5.4348e-002
30032	22.204	6.	5.e-002	6.0338e-006
30033	22.473	6.	0.1	7.8739e-002
30034	22.383	6.	5.e-002	7.1244e-006
30035	22.653	6.	0.1	0.10241
30036	22.563	6.	5.e-002	7.4195e-006
30037	22.832	6.	0.1	0.12909
30038	22.743	6.	5.e-002	7.3537e-006
30039	23.012	6.	0.1	0.1625
30040	22.922	6.	5.e-002	7.9268e-006
30041	23.192	6.	0.1	0.20462
30042	23.102	6.	5.e-002	7.3147e-006
30043	23.371	6.	0.1	0.26733
30044	23.281	6.	5.e-002	4.87e-006
30045	23.551	6.	0.1	0.33913
30046	23.461	6.	5.e-002	7.5459e-006
30047	23.731	6.	0.1	0.55395
30048	23.641	6.	5.e-002	5.5264e-006
30049	23.91	6.	0.1	0.34248
30050	23.82	6.	5.e-002	7.1562e-006
30051	24.	5.9091	0.1	-2.4297
30052	24.	6.	5.e-002	2.937e-005
30053	24.	5.7273	0.1	-2.2608
30054	24.	5.8182	5.e-002	1.0904e-005
30055	24.	5.5455	0.1	-2.3238
30056	24.	5.6364	5.e-002	1.0186e-005
30057	24.	5.3636	0.1	-2.4105
30058	24.	5.4545	5.e-002	9.7868e-006
30059	24.	5.1818	0.1	-2.4403
30060	24.	5.2727	5.e-002	1.0401e-005
30061	24.	5.	0.1	-2.4711
30062	24.	5.0909	5.e-002	8.3156e-006
30063	24.	4.8182	0.1	-2.4986
30064	24.	4.9091	5.e-002	8.7894e-006
30065	24.	4.6364	0.1	-2.5263
30066	24.	4.7273	5.e-002	1.0284e-005
30067	24.	4.4545	0.1	-2.5541
30068	24.	4.5455	5.e-002	1.0125e-005
30069	24.	4.2727	0.1	-2.5819
30070	24.	4.3636	5.e-002	1.1068e-005
30071	24.	4.0909	0.1	-2.6092
30072	24.	4.1818	5.e-002	1.046e-005
30073	24.	3.9091	0.1	-2.6353
30074	24.	4.	5.e-002	1.1735e-005
30075	24.	3.7273	0.1	-2.659
30076	24.	3.8182	5.e-002	1.327e-005
30077	24.	3.5455	0.1	-2.6792
30078	24.	3.6364	5.e-002	1.4161e-005
30079	24.	3.3636	0.1	-2.6946
30080	24.	3.4545	5.e-002	1.4898e-005
30081	24.	3.1818	0.1	-2.7044
30082	24.	3.2727	5.e-002	1.7956e-005
30083	24.	3.	0.1	-2.7077
30084	24.	3.0909	5.e-002	1.7371e-005
30085	24.	2.8182	0.1	-2.7044
30086	24.	2.9091	5.e-002	1.7133e-005
30087	24.	2.6364	0.1	-2.6946
30088	24.	2.7273	5.e-002	1.5864e-005
30089	24.	2.4545	0.1	-2.6792
30090	24.	2.5455	5.e-002	1.5626e-005
30091	24.	2.2727	0.1	-2.659
30092	24.	2.3636	5.e-002	1.372e-005
30093	24.	2.0909	0.1	-2.6353
30094	24.	2.1818	5.e-002	1.2244e-005
30095	24.	1.9091	0.1	-2.6092
30096	24.	2.	5.e-002	1.044e-005
30097	24.	1.7273	0.1	-2.5819
30098	24.	1.8182	5.e-002	1.1158e-005
30099	24.	1.5455	0.1	-2.5541
30100	24.	1.6364	5.e-002	1.1343e-005
30101	24.	1.3636	0.1	-2.5263
30102	24.	1.4545	5.e-002	9.9269e-006
30103	24.	1.1818	0.1	-2.4986
30104	24.	1.2727	5.e-002	9.8213e-006
30105	24.	1.	0.1	-2.4711
30106	24.	1.0909	5.e-002	8.8477e-006
30107	24.	0.81818	0.1	-2.4403
30108	24.	0.90909	5.e-002	8.792e-006
30109	24.	0.63636	0.1	-2.4105
30110	24.	0.72727	5.e-002	6.5502e-006
30111	24.	0.45455	0.1	-2.3238
30112	24.	0.54545	5.e-002	3.17e-006
30113	24.	0.27273	0.1	-2.2608
30114	24.	0.36364	5.e-002	9.5876e-007
30115	24.	9.0909e-002	0.1	-2.4297
30116	24.	0.18182	5.e-002	9.1818e-006
30117	2.3842e-015	0.27273	0.1	1763.1
30118	7.9472e-016	9.0909e-002	0.1	377.49
30119	1.6109e-015	0.18182	5.e-002	-2.0258e-014
30120	3.9736e-015	0.45455	0.1	2565.5
30121	3.2219e-015	0.36364	5.e-002	-1.0536e-014
30122	5.563e-015	0.63636	0.1	2978.3
30123	4.8328e-015	0.54545	5.e-002	-9.5245e-015
30124	7.1525e-015	0.81818	0.1	3236.4
30125	6.4438e-015	0.72727	5.e-002	-8.376e-015
30126	8.7419e-015	1.	0.1	3414.3
30127	8.0547e-015	0.90909	5.e-002	2.1479e-007
30128	1.0331e-014	1.1818	0.1	3543.6
30129	9.6657e-015	1.0909	5.e-002	2.7486e-007
30130	1.1921e-014	1.3636	0.1	3640.6
30131	1.1277e-014	1.2727	5.e-002	2.3975e-007
30132	1.351e-014	1.5455	0.1	3714.7
30133	1.2888e-014	1.4545	5.e-002	1.4116e-007
30134	1.51e-014	1.7273	0.1	3772.
30135	1.4498e-014	1.6364	5.e-002	1.2495e-007
30136	1.6689e-014	1.9091	0.1	3816.5
30137	1.6109e-014	1.8182	5.e-002	5.4925e-008
30138	1.8279e-014	2.0909	0.1	3850.8
30139	1.772e-014	2.	5.e-002	6.0471e-005
30140	1.9868e-014	2.2727	0.1	3876.8
30141	1.9331e-014	2.1818	5.e-002	-2.7721e-015
30142	2.1457e-014	2.4545	0.1	3895.8
30143	2.0942e-014	2.3636	5.e-002	5.4358e-007
30144	2.3047e-014	2.6364	0.1	3908.8
30145	2.2553e-014	2.5455	5.e-002	-2.389e-015
30146	2.4636e-014	2.8182	0.1	3916.3
30147	2.4164e-014	2.7273	5.e-002	-1.3251e-008
30148	2.6226e-014	3.	0.1	3918.7
30149	2.5775e-014	2.9091	5.e-002	-7.7228e-009
30150	2.7815e-014	3.1818	0.1	3916.3
30151	2.7386e-014	3.0909	5.e-002	1.1064e-008
30152	2.9405e-014	3.3636	0.1	3908.8
30153	2.8997e-014	3.2727	5.e-002	4.3288e-008
30154	3.0994e-014	3.5455	0.1	3895.8
30155	3.0608e-014	3.4545	5.e-002	9.2715e-008
30156	3.2583e-014	3.7273	0.1	3876.8
30157	3.2219e-014	3.6364	5.e-002	1.4287e-007
30158	3.4173e-014	3.9091	0.1	3850.8
30159	3.383e-014	3.8182	5.e-002	2.2896e-007
30160	3.5762e-014	4.0909	0.1	3816.5
30161	3.5441e-014	4.	5.e-002	3.3234e-007
30162	3.7352e-014	4.2727	0.1	3772.
30163	3.7052e-014	4.1818	5.e-002	2.0811e-006
30164	3.8941e-014	4.4545	0.1	3714.7
30165	3.8663e-014	4.3636	5.e-002	6.0531e-005
30166	4.0531e-014	4.6364	0.1	3640.6
30167	4.0274e-014	4.5455	5.e-002	7.7639e-007
30168	4.212e-014	4.8182	0.1	3543.6
30169	4.1885e-014	4.7273	5.e-002	6.384e-005
30170	4.371e-014	5.	0.1	3414.3
30171	4.3495e-014	4.9091	5.e-002	6.0609e-006
30172	4.5299e-014	5.1818	0.1	3236.4
30173	4.5106e-014	5.0909	5.e-002	1.9331e-006
30174	4.6888e-014	5.3636	0.1	2978.3
30175	4.6717e-014	5.2727	5.e-002	5.9055e-005
30176	4.8478e-014	5.5455	0.1	2565.5
30177	4.8328e-014	5.4545	5.e-002	5.4825e-005
30178	5.0067e-014	5.7273	0.1	1763.1
30179	4.9939e-014	5.6364	5.e-002	5.5703e-006
30180	5.1657e-014	5.9091	0.1	377.49
30181	5.155e-014	5.8182	5.e-002	1.4805e-005
30182	23.91	0.	0.1	0.34248
30183	24.	0.	5.e-002	2.4231e-005
30184	23.731	0.	0.1	0.55395
30185	23.82	0.	5.e-002	4.7944e-006
30186	23.551	0.	0.1	0.33913
30187	23.641	0.	5.e-002	9.0318e-006
30188	23.371	0.	0.1	0.26733
30189	23.461	0.	5.e-002	7.8437e-006
30190	23.192	0.	0.1	0.20462
30191	23.281	0.	5.e-002	7.8711e-006
30192	23.012	0.	0.1	0.1625
30193	23.102	0.	5.e-002	6.3037e-006
30194	22.832	0.	0.1	0.12909
30195	22.922	0.	5.e-002	9.7285e-006
30196	22.653	0.	0.1	0.10241
30197	22.743	0.	5.e-002	7.5239e-006
30198	22.473	0.	0.1	7.874e-002
30199	22.563	0.	5.e-002	5.6306e-006
30200	22.294	0.	0.1	5.4353e-002
30201	22.383	0.	5.e-002	6.4952e-006
30202	22.114	0.	0.1	2.452e-002
30203	22.204	0.	5.e-002	6.6646e-006
30204	21.934	0.	0.1	-1.7017e-002
30205	22.024	0.	5.e-002	6.1205e-006
30206	21.755	0.	0.1	-7.6038e-002
30207	21.844	0.	5.e-002	5.1483e-006
30208	21.575	0.	0.1	-0.16435
30209	21.665	0.	5.e-002	7.2854e-006
30210	21.395	0.	0.1	-0.2665
30211	21.485	0.	5.e-002	7.6329e-006
30212	21.216	0.	0.1	-0.46937
30213	21.306	0.	5.e-002	4.5359e-006
30214	21.036	0.	0.1	-0.31742
30215	21.126	0.	5.e-002	8.7057e-006
30216	20.856	0.	0.1	2.0844
30217	20.946	0.	5.e-002	4.2054e-006
30218	20.767	0.	5.e-002	-1.5176e-006
30219	20.508	-2.4155e-030	0.1	3.6378
30220	20.6	-2.4264e-030	5.e-002	7.1554e-006
30221	20.324	-2.3939e-030	0.1	0.23781
30222	20.416	0.	5.e-002	5.7935e-008
30223	20.14	-2.3722e-030	0.1	-3.0936e-002
30224	20.232	0.	5.e-002	6.3839e-006
30225	19.956	-2.3505e-030	0.1	0.36639
30226	20.048	0.	5.e-002	5.1523e-006
30227	19.772	-2.3289e-030	0.1	0.56323
30228	19.864	0.	5.e-002	1.1544e-006
30229	19.588	-2.3072e-030	0.1	0.71499
30230	19.68	0.	5.e-002	4.9154e-006
30231	19.404	-2.2856e-030	0.1	0.78879
30232	19.496	0.	5.e-002	4.8958e-006
30233	19.221	-2.2639e-030	0.1	0.80866
30234	19.313	0.	5.e-002	6.5865e-006
30235	19.037	-2.2422e-030	0.1	0.78941
30236	19.129	0.	5.e-002	5.4914e-006
30237	18.853	-2.2206e-030	0.1	0.74653
30238	18.945	0.	5.e-002	5.9268e-006
30239	18.669	-2.1989e-030	0.1	0.69116
30240	18.761	0.	5.e-002	4.9371e-006
30241	18.485	-2.1772e-030	0.1	0.631
30242	18.577	0.	5.e-002	3.7451e-006
30243	18.301	-2.1556e-030	0.1	0.5709
30244	18.393	0.	5.e-002	4.405e-006
30245	18.117	-2.1339e-030	0.1	0.5137
30246	18.209	0.	5.e-002	4.4813e-006
30247	17.933	-2.1122e-030	0.1	0.46088
30248	18.025	0.	5.e-002	5.2035e-006
30249	17.749	-2.0906e-030	0.1	0.41306
30250	17.841	0.	5.e-002	3.4586e-006
30251	17.565	-2.0689e-030	0.1	0.37032
30252	17.657	0.	5.e-002	2.4433e-006
30253	17.381	-2.0472e-030	0.1	0.33243
30254	17.473	0.	5.e-002	4.7655e-006
30255	17.197	-2.0256e-030	0.1	0.29901
30256	17.289	0.	5.e-002	4.9466e-006
30257	17.013	-2.0039e-030	0.1	0.26963
30258	17.105	0.	5.e-002	3.9362e-006
30259	16.829	-1.9823e-030	0.1	0.24381
30260	16.921	0.	5.e-002	3.7548e-006
30261	16.646	-1.9606e-030	0.1	0.22114
30262	16.737	0.	5.e-002	4.6842e-006
30263	16.462	-1.9389e-030	0.1	0.20119
30264	16.554	0.	5.e-002	4.1734e-006
30265	16.278	-1.9173e-030	0.1	0.1836
30266	16.37	0.	5.e-002	3.9357e-006
30267	16.094	-1.8956e-030	0.1	0.16802
30268	16.186	0.	5.e-002	4.2326e-006
30269	15.91	-1.8739e-030	0.1	0.15416
30270	16.002	0.	5.e-002	3.6358e-006
30271	15.726	-1.8523e-030	0.1	0.14177
30272	15.818	0.	5.e-002	3.6954e-006
30273	15.542	-1.8306e-030	0.1	0.13065
30274	15.634	0.	5.e-002	4.1723e-006
30275	15.358	-1.8089e-030	0.1	0.12062
30276	15.45	0.	5.e-002	2.9802e-006
30277	15.174	-1.7873e-030	0.1	0.11152
30278	15.266	0.	5.e-002	3.7551e-006
30279	14.99	-1.7656e-030	0.1	0.1032
30280	15.082	0.	5.e-002	3.159e-006
30281	14.806	-1.744e-030	0.1	9.5533e-002
30282	14.898	0.	5.e-002	4.4109e-006
30283	14.622	-1.7223e-030	0.1	8.8404e-002
30284	14.714	0.	5.e-002	3.7551e-006
30285	14.438	-1.7006e-030	0.1	8.173e-002
30286	14.53	0.	5.e-002	3.3974e-006
30287	14.254	-1.679e-030	0.1	7.5439e-002
30288	14.346	0.	5.e-002	2.861e-006
30289	14.071	-1.6573e-030	0.1	6.9478e-002
30290	14.163	0.	5.e-002	3.2784e-006
30291	13.887	-1.6356e-030	0.1	6.3783e-002
30292	13.979	0.	5.e-002	3.3976e-006
30293	13.703	-1.614e-030	0.1	5.8281e-002
30294	13.795	0.	5.e-002	2.861e-006
30295	13.519	-1.5923e-030	0.1	5.2915e-002
30296	13.611	0.	5.e-002	3.6359e-006
30297	13.335	-1.5706e-030	0.1	4.7629e-002
30298	13.427	0.	5.e-002	3.1591e-006
30299	13.151	-1.549e-030	0.1	4.2384e-002
30300	13.243	0.	5.e-002	2.5672e-006
30301	12.967	-1.5273e-030	0.1	3.7144e-002
30302	13.059	0.	5.e-002	2.8051e-006
30303	12.783	-1.5056e-030	0.1	3.1892e-002
30304	12.875	0.	5.e-002	2.7983e-006
30305	12.599	-1.484e-030	0.1	2.6587e-002
30306	12.691	0.	5.e-002	2.0835e-006
30307	12.415	-1.4623e-030	0.1	2.1171e-002
30308	12.507	0.	5.e-002	3.2761e-006
30309	12.231	-1.4407e-030	0.1	1.5597e-002
30310	12.323	0.	5.e-002	2.5018e-006
30311	12.047	-1.419e-030	0.1	9.822e-003
30312	12.139	0.	5.e-002	2.3246e-006
30313	11.863	-1.3973e-030	0.1	3.8067e-003
30314	11.955	0.	5.e-002	1.7876e-006
30315	11.679	-1.3757e-030	0.1	-2.4774e-003
30316	11.771	0.	5.e-002	1.9073e-006
30317	11.496	-1.354e-030	0.1	-9.0484e-003
30318	11.587	0.	5.e-002	2.3246e-006
30319	11.312	-1.3323e-030	0.1	-1.5949e-002
30320	11.404	0.	5.e-002	2.1458e-006
30321	11.128	-1.3107e-030	0.1	-2.3251e-002
30322	11.22	0.	5.e-002	2.0266e-006
30323	10.944	-1.289e-030	0.1	-3.1008e-002
30324	11.036	0.	5.e-002	1.8477e-006
30325	10.76	-1.2673e-030	0.1	-3.9277e-002
30326	10.852	0.	5.e-002	2.0895e-006
30327	10.576	-1.2457e-030	0.1	-4.8108e-002
30328	10.668	0.	5.e-002	2.1416e-006
30329	10.392	-1.224e-030	0.1	-5.7549e-002
30330	10.484	0.	5.e-002	1.9669e-006
30331	10.208	-1.2024e-030	0.1	-6.7626e-002
30332	10.3	0.	5.e-002	1.8477e-006
30333	10.024	-1.1807e-030	0.1	-7.8412e-002
30334	10.116	0.	5.e-002	1.662e-006
30335	9.8402	-1.159e-030	0.1	-9.0022e-002
30336	9.9321	0.	5.e-002	1.3628e-006
30337	9.6563	-1.1374e-030	0.1	-0.10252
30338	9.7482	0.	5.e-002	1.6689e-006
30339	9.4723	-1.1157e-030	0.1	-0.11597
30340	9.5643	0.	5.e-002	1.3709e-006
30341	9.2884	-1.094e-030	0.1	-0.13046
30342	9.3804	0.	5.e-002	1.3709e-006
30343	9.1045	-1.0724e-030	0.1	-0.14608
30344	9.1964	0.	5.e-002	1.5634e-006
30345	8.9205	-1.0507e-030	0.1	-0.16293
30346	9.0125	0.	5.e-002	1.2076e-006
30347	8.7366	-1.029e-030	0.1	-0.18112
30348	8.8286	0.	5.e-002	1.1325e-006
30349	8.5527	-1.0074e-030	0.1	-0.20077
30350	8.6446	0.	5.e-002	1.2915e-006
30351	8.3687	-9.8571e-031	0.1	-0.222
30352	8.4607	0.	5.e-002	1.0749e-006
30353	8.1848	-9.6405e-031	0.1	-0.24494
30354	8.2768	0.	5.e-002	1.192e-006
30355	8.0009	-9.4238e-031	0.1	-0.26973
30356	8.0929	0.	5.e-002	1.0728e-006
30357	7.817	-9.2072e-031	0.1	-0.29654
30358	7.9089	0.	5.e-002	1.1324e-006
30359	7.633	-8.9906e-031	0.1	-0.32552
30360	7.725	0.	5.e-002	7.9815e-007
30361	7.4491	-8.7739e-031	0.1	-0.35685
30362	7.5411	0.	5.e-002	9.5356e-007
30363	7.2652	-8.5573e-031	0.1	-0.39069
30364	7.3571	0.	5.e-002	7.8742e-007
30365	7.0813	-8.3406e-031	0.1	-0.42703
30366	7.1732	0.	5.e-002	8.9389e-007
30367	6.8973	-8.124e-031	0.1	-0.277
30368	6.9893	0.	5.e-002	7.7466e-007
30369	6.7134	-7.9074e-031	0.1	7.262e-002
30370	6.8054	0.	5.e-002	7.868e-007
30371	6.5295	-7.6907e-031	0.1	0.42767
30372	6.6214	0.	5.e-002	7.3219e-007
30373	6.3455	-7.4741e-031	0.1	0.78549
30374	6.4375	0.	5.e-002	7.0502e-007
30375	6.1616	-7.2574e-031	0.1	1.143
30376	6.2536	0.	5.e-002	6.55e-007
30377	5.9777	-7.0408e-031	0.1	1.4963
30378	6.0696	0.	5.e-002	6.5467e-007
30379	5.7937	-6.8242e-031	0.1	1.8408
30380	5.8857	0.	5.e-002	3.8247e-007
30381	5.6098	-6.6075e-031	0.1	2.1707
30382	5.7018	0.	5.e-002	6.529e-007
30383	5.4259	-6.3909e-031	0.1	2.4792
30384	5.5179	0.	5.e-002	7.0789e-007
30385	5.242	-6.1742e-031	0.1	2.758
30386	5.3339	0.	5.e-002	4.7231e-007
30387	5.058	-5.9576e-031	0.1	2.9973
30388	5.15	0.	5.e-002	2.8864e-007
30389	4.8741	-5.741e-031	0.1	3.1853
30390	4.9661	0.	5.e-002	1.2906e-007
30391	4.6902	-5.5243e-031	0.1	3.3083
30392	4.7821	0.	5.e-002	1.7923e-007
30393	4.5062	-5.3077e-031	0.1	3.35
30394	4.5982	0.	5.e-002	1.22e-007
30395	4.3223	-5.091e-031	0.1	3.2915
30396	4.4143	0.	5.e-002	1.873e-007
30397	4.1384	-4.8744e-031	0.1	3.1107
30398	4.2304	0.	5.e-002	3.5543e-007
30399	3.9545	-4.6578e-031	0.1	2.7823
30400	4.0464	0.	5.e-002	-9.6669e-015
30401	3.7705	-4.4411e-031	0.1	2.278
30402	3.8625	0.	5.e-002	-1.201e-014
30403	3.5866	-4.2245e-031	0.1	1.5673
30404	3.6786	0.	5.e-002	-1.4548e-014
30405	3.4027	-4.0078e-031	0.1	0.62443
30406	3.4946	0.	5.e-002	-1.7296e-014
30407	3.2188	-3.7912e-031	0.1	-0.53978
30408	3.3107	0.	5.e-002	-2.0272e-014
30409	3.0348	-3.5746e-031	0.1	-1.705
30410	3.1268	0.	5.e-002	-2.3496e-014
30411	2.8509	-3.3579e-031	0.1	-2.3913
30412	2.9429	0.	5.e-002	-2.6988e-014
30413	2.667	-3.1413e-031	0.1	-2.7744
30414	2.7589	0.	5.e-002	-3.0773e-014
30415	2.483	-2.9246e-031	0.1	-3.0894
30416	2.575	0.	5.e-002	-3.488e-014
30417	2.2991	-2.708e-031	0.1	-3.3992
30418	2.3911	0.	5.e-002	-3.9341e-014
30419	2.1152	-2.4914e-031	0.1	-3.7253
30420	2.2071	0.	5.e-002	-4.4194e-014
30421	1.9312	-2.2747e-031	0.1	-4.0795
30422	2.0232	0.	5.e-002	-4.9487e-014
30423	1.7473	-2.0581e-031	0.1	-4.474
30424	1.8393	0.	5.e-002	-5.5277e-014
30425	1.5634	-1.8414e-031	0.1	-4.9161
30426	1.6554	0.	5.e-002	-6.1637e-014
30427	1.3795	-1.6248e-031	0.1	-5.4376
30428	1.4714	0.	5.e-002	-6.8664e-014
30429	1.1955	-1.4082e-031	0.1	-6.005
30430	1.2875	0.	5.e-002	-7.6484e-014
30431	1.0116	-1.1915e-031	0.1	-6.819
30432	1.1036	0.	5.e-002	-8.5287e-014
30433	0.82768	-9.7488e-032	0.1	-7.4338
30434	0.91964	0.	5.e-002	-9.5335e-014
30435	0.64375	-7.5824e-032	0.1	-8.8849
30436	0.73571	0.	5.e-002	-1.0716e-013
30437	0.45982	-5.416e-032	0.1	-13.398
30438	0.55179	0.	5.e-002	-1.2147e-013
30439	0.27589	-3.2496e-032	0.1	19.079
30440	0.36786	0.	5.e-002	-1.4079e-013
30441	9.1964e-002	-1.0832e-032	0.1	-165.63
30442	0.18393	0.	5.e-002	-1.7917e-013
30443	0.	0.	5.e-002	-2.3728e-013
30444	9.1964e-002	6.	0.1	-165.63
30445	5.2451e-014	6.	5.e-002	3.0532e-005
30446	0.27589	6.	0.1	19.079
30447	0.18393	6.	5.e-002	3.9653e-012
30448	0.45982	6.	0.1	-13.398
30449	0.36786	6.	5.e-002	-1.4079e-013
30450	0.64375	6.	0.1	-8.885
30451	0.55179	6.	5.e-002	-1.2147e-013
30452	0.82768	6.	0.1	-7.4338
30453	0.73571	6.	5.e-002	-1.0716e-013
30454	1.0116	6.	0.1	-6.819
30455	0.91964	6.	5.e-002	8.6999e-008
30456	1.1955	6.	0.1	-6.005
30457	1.1036	6.	5.e-002	-8.5287e-014
30458	1.3795	6.	0.1	-5.4376
30459	1.2875	6.	5.e-002	-7.6484e-014
30460	1.5634	6.	0.1	-4.9161
30461	1.4714	6.	5.e-002	-6.8664e-014
30462	1.7473	6.	0.1	-4.474
30463	1.6554	6.	5.e-002	-6.1637e-014
30464	1.9312	6.	0.1	-4.0795
30465	1.8393	6.	5.e-002	-5.5277e-014
30466	2.1152	6.	0.1	-3.7253
30467	2.0232	6.	5.e-002	-4.9487e-014
30468	2.2991	6.	0.1	-3.3992
30469	2.2071	6.	5.e-002	-4.4194e-014
30470	2.483	6.	0.1	-3.0894
30471	2.3911	6.	5.e-002	-3.9341e-014
30472	2.667	6.	0.1	-2.7744
30473	2.575	6.	5.e-002	-3.488e-014
30474	2.8509	6.	0.1	-2.3913
30475	2.7589	6.	5.e-002	-3.0773e-014
30476	3.0348	6.	0.1	-1.705
30477	2.9429	6.	5.e-002	-2.6988e-014
30478	3.2188	6.	0.1	-0.53978
30479	3.1268	6.	5.e-002	1.9494e-007
30480	3.4027	6.	0.1	0.62443
30481	3.3107	6.	5.e-002	-2.0272e-014
30482	3.5866	6.	0.1	1.5673
30483	3.4946	6.	5.e-002	-1.7296e-014
30484	3.7705	6.	0.1	2.278
30485	3.6786	6.	5.e-002	3.196e-007
30486	3.9545	6.	0.1	2.7823
30487	3.8625	6.	5.e-002	-1.201e-014
30488	4.1384	6.	0.1	3.1107
30489	4.0464	6.	5.e-002	5.2967e-007
30490	4.3223	6.	0.1	3.2915
30491	4.2304	6.	5.e-002	-7.5048e-015
30492	4.5062	6.	0.1	3.35
30493	4.4143	6.	5.e-002	3.8366e-007
30494	4.6902	6.	0.1	3.3083
30495	4.5982	6.	5.e-002	2.6321e-007
30496	4.8741	6.	0.1	3.1853
30497	4.7821	6.	5.e-002	2.8194e-007
30498	5.058	6.	0.1	2.9973
30499	4.9661	6.	5.e-002	1.8068e-007
30500	5.242	6.	0.1	2.758
30501	5.15	6.	5.e-002	3.6736e-007
30502	5.4259	6.	0.1	2.4792
30503	5.3339	6.	5.e-002	3.2789e-006
30504	5.6098	6.	0.1	2.1707
30505	5.5179	6.	5.e-002	4.4325e-007
30506	5.7937	6.	0.1	1.8408
30507	5.7018	6.	5.e-002	4.726e-007
30508	5.9777	6.	0.1	1.4963
30509	5.8857	6.	5.e-002	6.5408e-007
30510	6.1616	6.	0.1	1.143
30511	6.0696	6.	5.e-002	6.5852e-007
30512	6.3455	6.	0.1	0.78548
30513	6.2536	6.	5.e-002	7.1495e-007
30514	6.5295	6.	0.1	0.42767
30515	6.4375	6.	5.e-002	6.887e-007
30516	6.7134	6.	0.1	7.2617e-002
30517	6.6214	6.	5.e-002	8.338e-007
30518	6.8973	6.	0.1	-0.277
30519	6.8054	6.	5.e-002	7.7459e-007
30520	7.0813	6.	0.1	-0.42703
30521	6.9893	6.	5.e-002	8.3425e-007
30522	7.2652	6.	0.1	-0.39069
30523	7.1732	6.	5.e-002	8.343e-007
30524	7.4491	6.	0.1	-0.35685
30525	7.3571	6.	5.e-002	8.8126e-007
30526	7.633	6.	0.1	-0.32552
30527	7.5411	6.	5.e-002	7.932e-007
30528	7.817	6.	0.1	-0.29654
30529	7.725	6.	5.e-002	9.8983e-007
30530	8.0009	6.	0.1	-0.26973
30531	7.9089	6.	5.e-002	1.0728e-006
30532	8.1848	6.	0.1	-0.24494
30533	8.0929	6.	5.e-002	1.2267e-006
30534	8.3687	6.	0.1	-0.22199
30535	8.2768	6.	5.e-002	9.2854e-007
30536	8.5527	6.	0.1	-0.20077
30537	8.4607	6.	5.e-002	1.1941e-006
30538	8.7366	6.	0.1	-0.18112
30539	8.6446	6.	5.e-002	1.2319e-006
30540	8.9205	6.	0.1	-0.16293
30541	8.8286	6.	5.e-002	1.4305e-006
30542	9.1045	6.	0.1	-0.14608
30543	9.0125	6.	5.e-002	1.0574e-006
30544	9.2884	6.	0.1	-0.13046
30545	9.1964	6.	5.e-002	1.3854e-006
30546	9.4723	6.	0.1	-0.11597
30547	9.3804	6.	5.e-002	1.3588e-006
30548	9.6563	6.	0.1	-0.10252
30549	9.5643	6.	5.e-002	1.4305e-006
30550	9.8402	6.	0.1	-9.0022e-002
30551	9.7482	6.	5.e-002	1.4212e-006
30552	10.024	6.	0.1	-7.8411e-002
30553	9.9321	6.	5.e-002	1.6609e-006
30554	10.208	6.	0.1	-6.7626e-002
30555	10.116	6.	5.e-002	1.662e-006
30556	10.392	6.	0.1	-5.7548e-002
30557	10.3	6.	5.e-002	1.7226e-006
30558	10.576	6.	0.1	-4.8108e-002
30559	10.484	6.	5.e-002	1.7235e-006
30560	10.76	6.	0.1	-3.9277e-002
30561	10.668	6.	5.e-002	2.0224e-006
30562	10.944	6.	0.1	-3.1007e-002
30563	10.852	6.	5.e-002	1.6126e-006
30564	11.128	6.	0.1	-2.325e-002
30565	11.036	6.	5.e-002	2.2676e-006
30566	11.312	6.	0.1	-1.5949e-002
30567	11.22	6.	5.e-002	1.3728e-006
30568	11.496	6.	0.1	-9.048e-003
30569	11.404	6.	5.e-002	2.0253e-006
30570	11.679	6.	0.1	-2.4766e-003
30571	11.587	6.	5.e-002	2.2656e-006
30572	11.863	6.	0.1	3.8075e-003
30573	11.771	6.	5.e-002	2.265e-006
30574	12.047	6.	0.1	9.8221e-003
30575	11.955	6.	5.e-002	2.1458e-006
30576	12.231	6.	0.1	1.5598e-002
30577	12.139	6.	5.e-002	2.1469e-006
30578	12.415	6.	0.1	2.1172e-002
30579	12.323	6.	5.e-002	2.0862e-006
30580	12.599	6.	0.1	2.6588e-002
30581	12.507	6.	5.e-002	2.9781e-006
30582	12.783	6.	0.1	3.1892e-002
30583	12.691	6.	5.e-002	2.0266e-006
30584	12.967	6.	0.1	3.7145e-002
30585	12.875	6.	5.e-002	2.8014e-006
30586	13.151	6.	0.1	4.2384e-002
30587	13.059	6.	5.e-002	2.2054e-006
30588	13.335	6.	0.1	4.7629e-002
30589	13.243	6.	5.e-002	2.7377e-006
30590	13.519	6.	0.1	5.2914e-002
30591	13.427	6.	5.e-002	3.3379e-006
30592	13.703	6.	0.1	5.8281e-002
30593	13.611	6.	5.e-002	2.7366e-006
30594	13.887	6.	0.1	6.3783e-002
30595	13.795	6.	5.e-002	2.4439e-006
30596	14.071	6.	0.1	6.9477e-002
30597	13.979	6.	5.e-002	2.9143e-006
30598	14.254	6.	0.1	7.5439e-002
30599	14.163	6.	5.e-002	3.2186e-006
30600	14.438	6.	0.1	8.173e-002
30601	14.346	6.	5.e-002	2.7418e-006
30602	14.622	6.	0.1	8.8403e-002
30603	14.53	6.	5.e-002	3.2189e-006
30604	14.806	6.	0.1	9.5531e-002
30605	14.714	6.	5.e-002	3.2786e-006
30606	14.99	6.	0.1	0.1032
30607	14.898	6.	5.e-002	3.3382e-006
30608	15.174	6.	0.1	0.11152
30609	15.082	6.	5.e-002	3.0994e-006
30610	15.358	6.	0.1	0.12062
30611	15.266	6.	5.e-002	3.8152e-006
30612	15.542	6.	0.1	0.13065
30613	15.45	6.	5.e-002	3.4574e-006
30614	15.726	6.	0.1	0.14177
30615	15.634	6.	5.e-002	3.5767e-006
30616	15.91	6.	0.1	0.15416
30617	15.818	6.	5.e-002	4.292e-006
30618	16.094	6.	0.1	0.16802
30619	16.002	6.	5.e-002	3.5172e-006
30620	16.278	6.	0.1	0.1836
30621	16.186	6.	5.e-002	4.4106e-006
30622	16.462	6.	0.1	0.20119
30623	16.37	6.	5.e-002	2.9801e-006
30624	16.646	6.	0.1	0.22114
30625	16.554	6.	5.e-002	4.3266e-006
30626	16.829	6.	0.1	0.24381
30627	16.737	6.	5.e-002	4.5618e-006
30628	17.013	6.	0.1	0.26963
30629	16.921	6.	5.e-002	5.1014e-006
30630	17.197	6.	0.1	0.29901
30631	17.105	6.	5.e-002	3.6713e-006
30632	17.381	6.	0.1	0.33243
30633	17.289	6.	5.e-002	4.6522e-006
30634	17.565	6.	0.1	0.37032
30635	17.473	6.	5.e-002	4.5936e-006
30636	17.749	6.	0.1	0.41306
30637	17.657	6.	5.e-002	4.5421e-006
30638	17.933	6.	0.1	0.46088
30639	17.841	6.	5.e-002	4.1364e-006
30640	18.117	6.	0.1	0.51369
30641	18.025	6.	5.e-002	4.6208e-006
30642	18.301	6.	0.1	0.5709
30643	18.209	6.	5.e-002	5.0536e-006
30644	18.485	6.	0.1	0.631
30645	18.393	6.	5.e-002	5.0882e-006
30646	18.669	6.	0.1	0.69116
30647	18.577	6.	5.e-002	5.9427e-006
30648	18.853	6.	0.1	0.74654
30649	18.761	6.	5.e-002	5.3872e-006
30650	19.037	6.	0.1	0.78941
30651	18.945	6.	5.e-002	4.3293e-006
30652	19.221	6.	0.1	0.80866
30653	19.129	6.	5.e-002	5.7453e-006
30654	19.404	6.	0.1	0.78879
30655	19.313	6.	5.e-002	6.0637e-006
30656	19.588	6.	0.1	0.71499
30657	19.496	6.	5.e-002	4.6679e-006
30658	19.772	6.	0.1	0.56323
30659	19.68	6.	5.e-002	4.8673e-006
30660	19.956	6.	0.1	0.36638
30661	19.864	6.	5.e-002	3.3514e-006
30662	20.14	6.	0.1	-3.0937e-002
30663	20.048	6.	5.e-002	8.0432e-006
30664	20.324	6.	0.1	0.23781
30665	20.232	6.	5.e-002	6.3283e-006
30666	20.508	6.	0.1	3.6378
30667	20.416	6.	5.e-002	6.0905e-006
30668	20.6	6.	5.e-002	1.1341e-006
30669	20.324	6.	0.	-0.23781
30670	20.508	6.	0.	-3.6378
30671	20.14	6.	0.	3.0937e-002
30672	19.956	6.	0.	-0.36638
30673	19.772	6.	0.	-0.56323
30674	19.588	6.	0.	-0.71499
30675	19.404	6.	0.	-0.78879
30676	19.221	6.	0.	-0.80866
30677	19.037	6.	0.	-0.78941
30678	18.853	6.	0.	-0.74654
30679	18.669	6.	0.	-0.69116
30680	18.485	6.	0.	-0.631
30681	18.301	6.	0.	-0.5709
30682	18.117	6.	0.	-0.51369
30683	17.933	6.	0.	-0.46088
30684	17.749	6.	0.	-0.41306
30685	17.565	6.	0.	-0.37032
30686	17.381	6.	0.	-0.33243
30687	17.197	6.	0.	-0.29901
30688	17.013	6.	0.	-0.26962
30689	16.829	6.	0.	-0.24381
30690	16.646	6.	0.	-0.22113
30691	16.462	6.	0.	-0.20119
30692	16.278	6.	0.	-0.1836
30693	16.094	6.	0.	-0.16802
30694	15.91	6.	0.	-0.15416
30695	15.726	6.	0.	-0.14177
30696	15.542	6.	0.	-0.13065
30697	15.358	6.	0.	-0.12062
30698	15.174	6.	0.	-0.11152
30699	14.99	6.	0.	-0.1032
30700	14.806	6.	0.	-9.5531e-002
30701	14.622	6.	0.	-8.8403e-002
30702	14.438	6.	0.	-8.173e-002
30703	14.254	6.	0.	-7.5438e-002
30704	14.071	6.	0.	-6.9476e-002
30705	13.887	6.	0.	-6.3782e-002
30706	13.703	6.	0.	-5.8281e-002
30707	13.519	6.	0.	-5.2914e-002
30708	13.335	6.	0.	-4.7628e-002
30709	13.151	6.	0.	-4.2383e-002
30710	12.967	6.	0.	-3.7144e-002
30711	12.783	6.	0.	-3.1892e-002
30712	12.599	6.	0.	-2.6587e-002
30713	12.415	6.	0.	-2.1171e-002
30714	12.231	6.	0.	-1.5598e-002
30715	12.047	6.	0.	-9.8223e-003
30716	11.863	6.	0.	-3.8072e-003
30717	11.679	6.	0.	2.4771e-003
30718	11.496	6.	0.	9.0483e-003
30719	11.312	6.	0.	1.5949e-002
30720	11.128	6.	0.	2.325e-002
30721	10.944	6.	0.	3.1007e-002
30722	10.76	6.	0.	3.9277e-002
30723	10.576	6.	0.	4.8108e-002
30724	10.392	6.	0.	5.7549e-002
30725	10.208	6.	0.	6.7626e-002
30726	10.024	6.	0.	7.8412e-002
30727	9.8402	6.	0.	9.0022e-002
30728	9.6563	6.	0.	0.10252
30729	9.4723	6.	0.	0.11597
30730	9.2884	6.	0.	0.13046
30731	9.1045	6.	0.	0.14608
30732	8.9205	6.	0.	0.16293
30733	8.7366	6.	0.	0.18112
30734	8.5527	6.	0.	0.20077
30735	8.3687	6.	0.	0.222
30736	8.1848	6.	0.	0.24494
30737	8.0009	6.	0.	0.26973
30738	7.817	6.	0.	0.29654
30739	7.633	6.	0.	0.32552
30740	7.4491	6.	0.	0.35685
30741	7.2652	6.	0.	0.39069
30742	7.0813	6.	0.	0.42703
30743	6.8973	6.	0.	0.27701
30744	6.7134	6.	0.	-7.2616e-002
30745	6.5295	6.	0.	-0.42767
30746	6.3455	6.	0.	-0.78548
30747	6.1616	6.	0.	-1.143
30748	5.9777	6.	0.	-1.4963
30749	5.7937	6.	0.	-1.8408
30750	5.6098	6.	0.	-2.1707
30751	5.4259	6.	0.	-2.4792
30752	5.242	6.	0.	-2.758
30753	5.058	6.	0.	-2.9973
30754	4.8741	6.	0.	-3.1853
30755	4.6902	6.	0.	-3.3083
30756	4.5062	6.	0.	-3.35
30757	4.3223	6.	0.	-3.2915
30758	4.1384	6.	0.	-3.1107
30759	3.9545	6.	0.	-2.7823
30760	3.7705	6.	0.	-2.278
30761	3.5866	6.	0.	-1.5673
30762	3.4027	6.	0.	-0.62443
30763	3.2188	6.	0.	0.53978
30764	3.0348	6.	0.	1.705
30765	2.8509	6.	0.	2.3913
30766	2.667	6.	0.	2.7744
30767	2.483	6.	0.	3.0894
30768	2.2991	6.	0.	3.3992
30769	2.1152	6.	0.	3.7253
30770	1.9312	6.	0.	4.0795
30771	1.7473	6.	0.	4.474
30772	1.5634	6.	0.	4.9161
30773	1.3795	6.	0.	5.4376
30774	1.1955	6.	0.	6.005
30775	1.0116	6.	0.	6.819
30776	0.82768	6.	0.	7.4338
30777	0.64375	6.	0.	8.885
30778	0.45982	6.	0.	13.398
30779	0.27589	6.	0.	-19.079
30780	9.1964e-002	6.	0.	165.63
30781	20.6	5.9091	0.	1.7941
30782	5.1657e-014	5.9091	0.	-377.49
30783	0.27589	-3.2496e-032	0.	-19.079
30784	9.1964e-002	-1.0832e-032	0.	165.63
30785	0.45982	-5.416e-032	0.	13.398
30786	0.64375	-7.5824e-032	0.	8.885
30787	0.82768	-9.7488e-032	0.	7.4338
30788	1.0116	-1.1915e-031	0.	6.819
30789	1.1955	-1.4082e-031	0.	6.005
30790	1.3795	-1.6248e-031	0.	5.4376
30791	1.5634	-1.8414e-031	0.	4.9161
30792	1.7473	-2.0581e-031	0.	4.474
30793	1.9312	-2.2747e-031	0.	4.0795
30794	2.1152	-2.4914e-031	0.	3.7253
30795	2.2991	-2.708e-031	0.	3.3992
30796	2.483	-2.9246e-031	0.	3.0894
30797	2.667	-3.1413e-031	0.	2.7744
30798	2.8509	-3.3579e-031	0.	2.3913
30799	3.0348	-3.5746e-031	0.	1.705
30800	3.2188	-3.7912e-031	0.	0.53978
30801	3.4027	-4.0078e-031	0.	-0.62443
30802	3.5866	-4.2245e-031	0.	-1.5673
30803	3.7705	-4.4411e-031	0.	-2.278
30804	3.9545	-4.6578e-031	0.	-2.7823
30805	4.1384	-4.8744e-031	0.	-3.1107
30806	4.3223	-5.091e-031	0.	-3.2915
30807	4.5062	-5.3077e-031	0.	-3.35
30808	4.6902	-5.5243e-031	0.	-3.3083
30809	4.8741	-5.741e-031	0.	-3.1853
30810	5.058	-5.9576e-031	0.	-2.9973
30811	5.242	-6.1742e-031	0.	-2.758
30812	5.4259	-6.3909e-031	0.	-2.4792
30813	5.6098	-6.6075e-031	0.	-2.1707
30814	5.7937	-6.8242e-031	0.	-1.8408
30815	5.9777	-7.0408e-031	0.	-1.4963
30816	6.1616	-7.2574e-031	0.	-1.143
30817	6.3455	-7.4741e-031	0.	-0.78549
30818	6.5295	-7.6907e-031	0.	-0.42767
30819	6.7134	-7.9074e-031	0.	-7.2618e-002
30820	6.8973	-8.124e-031	0.	0.277
30821	7.0813	-8.3406e-031	0.	0.42703
30822	7.2652	-8.5573e-031	0.	0.39069
30823	7.4491	-8.7739e-031	0.	0.35685
30824	7.633	-8.9906e-031	0.	0.32552
30825	7.817	-9.2072e-031	0.	0.29654
30826	8.0009	-9.4238e-031	0.	0.26973
30827	8.1848	-9.6405e-031	0.	0.24494
30828	8.3687	-9.8571e-031	0.	0.222
30829	8.5527	-1.0074e-030	0.	0.20077
30830	8.7366	-1.029e-030	0.	0.18113
30831	8.9205	-1.0507e-030	0.	0.16293
30832	9.1045	-1.0724e-030	0.	0.14608
30833	9.2884	-1.094e-030	0.	0.13046
30834	9.4723	-1.1157e-030	0.	0.11597
30835	9.6563	-1.1374e-030	0.	0.10252
30836	9.8402	-1.159e-030	0.	9.0022e-002
30837	10.024	-1.1807e-030	0.	7.8412e-002
30838	10.208	-1.2024e-030	0.	6.7627e-002
30839	10.392	-1.224e-030	0.	5.7549e-002
30840	10.576	-1.2457e-030	0.	4.8109e-002
30841	10.76	-1.2673e-030	0.	3.9278e-002
30842	10.944	-1.289e-030	0.	3.1008e-002
30843	11.128	-1.3107e-030	0.	2.3251e-002
30844	11.312	-1.3323e-030	0.	1.595e-002
30845	11.496	-1.354e-030	0.	9.0487e-003
30846	11.679	-1.3757e-030	0.	2.4774e-003
30847	11.863	-1.3973e-030	0.	-3.8073e-003
30848	12.047	-1.419e-030	0.	-9.8226e-003
30849	12.231	-1.4407e-030	0.	-1.5597e-002
30850	12.415	-1.4623e-030	0.	-2.1171e-002
30851	12.599	-1.484e-030	0.	-2.6587e-002
30852	12.783	-1.5056e-030	0.	-3.1891e-002
30853	12.967	-1.5273e-030	0.	-3.7144e-002
30854	13.151	-1.549e-030	0.	-4.2383e-002
30855	13.335	-1.5706e-030	0.	-4.7628e-002
30856	13.519	-1.5923e-030	0.	-5.2914e-002
30857	13.703	-1.614e-030	0.	-5.8281e-002
30858	13.887	-1.6356e-030	0.	-6.3783e-002
30859	14.071	-1.6573e-030	0.	-6.9476e-002
30860	14.254	-1.679e-030	0.	-7.5438e-002
30861	14.438	-1.7006e-030	0.	-8.173e-002
30862	14.622	-1.7223e-030	0.	-8.8403e-002
30863	14.806	-1.744e-030	0.	-9.5531e-002
30864	14.99	-1.7656e-030	0.	-0.1032
30865	15.174	-1.7873e-030	0.	-0.11152
30866	15.358	-1.8089e-030	0.	-0.12062
30867	15.542	-1.8306e-030	0.	-0.13065
30868	15.726	-1.8523e-030	0.	-0.14177
30869	15.91	-1.8739e-030	0.	-0.15416
30870	16.094	-1.8956e-030	0.	-0.16802
30871	16.278	-1.9173e-030	0.	-0.1836
30872	16.462	-1.9389e-030	0.	-0.20119
30873	16.646	-1.9606e-030	0.	-0.22113
30874	16.829	-1.9823e-030	0.	-0.24381
30875	17.013	-2.0039e-030	0.	-0.26963
30876	17.197	-2.0256e-030	0.	-0.29901
30877	17.381	-2.0472e-030	0.	-0.33243
30878	17.565	-2.0689e-030	0.	-0.37032
30879	17.749	-2.0906e-030	0.	-0.41306
30880	17.933	-2.1122e-030	0.	-0.46088
30881	18.117	-2.1339e-030	0.	-0.5137
30882	18.301	-2.1556e-030	0.	-0.5709
30883	18.485	-2.1772e-030	0.	-0.631
30884	18.669	-2.1989e-030	0.	-0.69116
30885	18.853	-2.2206e-030	0.	-0.74653
30886	19.037	-2.2422e-030	0.	-0.78941
30887	19.221	-2.2639e-030	0.	-0.80866
30888	19.404	-2.2856e-030	0.	-0.78879
30889	19.588	-2.3072e-030	0.	-0.71499
30890	19.772	-2.3289e-030	0.	-0.56323
30891	19.956	-2.3505e-030	0.	-0.36638
30892	20.14	-2.3722e-030	0.	3.0937e-002
30893	20.324	-2.3939e-030	0.	-0.23781
30894	20.508	-2.4155e-030	0.	-3.6378
30895	20.6	9.0909e-002	0.	1.7941
30896	7.9472e-016	9.0909e-002	0.	-377.49
30897	21.036	0.	0.	0.31742
30898	20.856	0.	0.	-2.0844
30899	21.216	0.	0.	0.46937
30900	21.395	0.	0.	0.2665
30901	21.575	0.	0.	0.16435
30902	21.755	0.	0.	7.6039e-002
30903	21.934	0.	0.	1.7017e-002
30904	22.114	0.	0.	-2.452e-002
30905	22.294	0.	0.	-5.435e-002
30906	22.473	0.	0.	-7.8738e-002
30907	22.653	0.	0.	-0.10241
30908	22.832	0.	0.	-0.12909
30909	23.012	0.	0.	-0.1625
30910	23.192	0.	0.	-0.20462
30911	23.371	0.	0.	-0.26733
30912	23.551	0.	0.	-0.33913
30913	23.731	0.	0.	-0.55395
30914	23.91	0.	0.	-0.34247
30915	20.767	9.0909e-002	0.	-0.52686
30916	24.	9.0909e-002	0.	2.4297
30917	5.0067e-014	5.7273	0.	-1763.1
30918	4.8478e-014	5.5455	0.	-2565.5
30919	4.6888e-014	5.3636	0.	-2978.3
30920	4.5299e-014	5.1818	0.	-3236.4
30921	4.371e-014	5.	0.	-3414.3
30922	4.212e-014	4.8182	0.	-3543.6
30923	4.0531e-014	4.6364	0.	-3640.6
30924	3.8941e-014	4.4545	0.	-3714.7
30925	3.7352e-014	4.2727	0.	-3772.
30926	3.5762e-014	4.0909	0.	-3816.5
30927	3.4173e-014	3.9091	0.	-3850.8
30928	3.2583e-014	3.7273	0.	-3876.8
30929	3.0994e-014	3.5455	0.	-3895.8
30930	2.9405e-014	3.3636	0.	-3908.8
30931	2.7815e-014	3.1818	0.	-3916.3
30932	2.6226e-014	3.	0.	-3918.7
30933	2.4636e-014	2.8182	0.	-3916.3
30934	2.3047e-014	2.6364	0.	-3908.8
30935	2.1457e-014	2.4545	0.	-3895.8
30936	1.9868e-014	2.2727	0.	-3876.8
30937	1.8279e-014	2.0909	0.	-3850.8
30938	1.6689e-014	1.9091	0.	-3816.5
30939	1.51e-014	1.7273	0.	-3772.
30940	1.351e-014	1.5455	0.	-3714.7
30941	1.1921e-014	1.3636	0.	-3640.6
30942	1.0331e-014	1.1818	0.	-3543.6
30943	8.7419e-015	1.	0.	-3414.3
30944	7.1525e-015	0.81818	0.	-3236.4
30945	5.563e-015	0.63636	0.	-2978.3
30946	3.9736e-015	0.45455	0.	-2565.5
30947	2.3842e-015	0.27273	0.	-1763.1
30948	24.	0.27273	0.	2.2608
30949	24.	0.45455	0.	2.3238
30950	24.	0.63636	0.	2.4105
30951	24.	0.81818	0.	2.4403
30952	24.	1.	0.	2.4711
30953	24.	1.1818	0.	2.4986
30954	24.	1.3636	0.	2.5263
30955	24.	1.5455	0.	2.5541
30956	24.	1.7273	0.	2.5819
30957	24.	1.9091	0.	2.6093
30958	24.	2.0909	0.	2.6353
30959	24.	2.2727	0.	2.659
30960	24.	2.4545	0.	2.6792
30961	24.	2.6364	0.	2.6946
30962	24.	2.8182	0.	2.7044
30963	24.	3.	0.	2.7077
30964	24.	3.1818	0.	2.7044
30965	24.	3.3636	0.	2.6946
30966	24.	3.5455	0.	2.6792
30967	24.	3.7273	0.	2.659
30968	24.	3.9091	0.	2.6353
30969	24.	4.0909	0.	2.6093
30970	24.	4.2727	0.	2.5819
30971	24.	4.4545	0.	2.5541
30972	24.	4.6364	0.	2.5263
30973	24.	4.8182	0.	2.4986
30974	24.	5.	0.	2.4711
30975	24.	5.1818	0.	2.4403
30976	24.	5.3636	0.	2.4105
30977	24.	5.5455	0.	2.3238
30978	24.	5.7273	0.	2.2608
30979	24.	5.9091	0.	2.4297
30980	23.91	6.	0.	-0.34247
30981	23.731	6.	0.	-0.55395
30982	23.551	6.	0.	-0.33913
30983	23.371	6.	0.	-0.26733
30984	23.192	6.	0.	-0.20462
30985	23.012	6.	0.	-0.1625
30986	22.832	6.	0.	-0.12909
30987	22.653	6.	0.	-0.10241
30988	22.473	6.	0.	-7.8738e-002
30989	22.294	6.	0.	-5.4348e-002
30990	22.114	6.	0.	-2.4516e-002
30991	21.934	6.	0.	1.7019e-002
30992	21.755	6.	0.	7.6041e-002
30993	21.575	6.	0.	0.16435
30994	21.395	6.	0.	0.2665
30995	21.216	6.	0.	0.46937
30996	21.036	6.	0.	0.31742
30997	20.856	6.	0.	-2.0844
30998	20.767	5.9091	0.	-0.52685
30999	20.6	1.7273	0.	9.326
31000	20.6	1.9091	0.	-163.29
31001	20.6	1.5455	0.	15.005
31002	20.6	1.3636	0.	6.7058
31003	20.6	1.1818	0.	6.2757
31004	20.6	1.	0.	4.9751
31005	20.6	0.81818	0.	4.4887
31006	20.6	0.63636	0.	4.0368
31007	20.6	0.45455	0.	3.8234
31008	20.6	0.27273	0.	3.4781
31009	20.683	2.	0.	-322.58
31010	20.767	0.27273	0.	1.5002
31011	20.767	0.45455	0.	1.8079
31012	20.767	0.63636	0.	1.9758
31013	20.767	0.81818	0.	2.3488
31014	20.767	1.	0.	2.8073
31015	20.767	1.1818	0.	3.848
31016	20.767	1.3636	0.	4.5352
31017	20.767	1.5455	0.	11.953
31018	20.767	1.7273	0.	10.427
31019	20.767	1.9091	0.	-292.53
31020	20.6	4.2727	0.	9.326
31021	20.6	4.0909	0.	-163.29
31022	20.6	4.4545	0.	15.005
31023	20.6	4.6364	0.	6.7058
31024	20.6	4.8182	0.	6.2757
31025	20.6	5.	0.	4.9751
31026	20.6	5.1818	0.	4.4887
31027	20.6	5.3636	0.	4.0368
31028	20.6	5.5455	0.	3.8234
31029	20.6	5.7273	0.	3.4781
31030	20.683	4.	0.	-322.58
31031	20.767	5.7273	0.	1.5002
31032	20.767	5.5455	0.	1.8079
31033	20.767	5.3636	0.	1.9758
31034	20.767	5.1818	0.	2.3488
31035	20.767	5.	0.	2.8073
31036	20.767	4.8182	0.	3.848
31037	20.767	4.6364	0.	4.5352
31038	20.767	4.4545	0.	11.953
31039	20.767	4.2727	0.	10.427
31040	20.767	4.0909	0.	-292.53
