Node Number	X Location (in)	Y Location (in)	Z Location (in)	Equivalent (von-Mises) Stress (psi)
1	4.4674	2.3626	0.	1616.1
2	6.0242	3.8082	0.	1225.9
3	5.8958	1.2378	0.	820.05
4	4.5376	4.4549	0.	1294.3
5	5.9069	4.8026	0.	813.47
6	4.3828	1.6837	0.	1296.8
7	6.7948	3.8505	0.	1047.
8	3.7785	2.4461	0.	1391.4
9	7.5121	3.1636	0.	809.59
10	2.1406	3.5108	0.	1219.9
11	8.6104	2.042	0.	678.33
12	9.6802	2.0102	0.	588.79
13	10.768	1.9814	0.	507.35
14	11.875	1.9913	0.	430.46
15	12.98	2.0242	0.	358.78
16	14.082	2.0242	0.	293.26
17	15.187	1.9899	0.	233.99
18	16.297	1.9588	0.	181.32
19	17.397	1.9665	0.	135.86
20	18.483	1.9856	0.	97.285
21	19.578	2.1334	0.	67.071
22	20.727	3.7267	0.	40.664
23	19.631	3.8537	0.	65.354
24	18.501	3.9283	0.	97.301
25	17.389	3.9373	0.	135.98
26	16.283	3.9221	0.	181.88
27	15.184	3.9033	0.	234.19
28	14.082	3.9033	0.	293.34
29	12.98	3.9033	0.	358.8
30	11.878	3.9033	0.	430.12
31	10.788	3.9344	0.	506.38
32	9.7169	3.9814	0.	585.01
33	8.6741	4.0434	0.	672.78
34	4.8791	3.2092	0.	2009.4
35	5.3523	2.5935	0.	2150.3
36	22.916	4.8382	0.	11.855
37	21.812	4.8427	0.	22.347
38	20.719	4.8756	0.	39.61
39	19.62	4.9187	0.	64.301
40	18.503	4.9509	0.	96.611
41	17.388	4.9516	0.	135.8
42	16.286	4.9516	0.	181.8
43	15.184	4.9516	0.	234.56
44	14.082	4.9516	0.	294.22
45	12.98	4.9516	0.	360.73
46	11.878	4.9516	0.	433.38
47	10.792	4.9716	0.	511.31
48	9.7169	4.9975	0.	593.74
49	8.6716	5.043	0.	673.54
50	7.6133	5.1202	0.	740.26
51	6.4833	5.2114	0.	680.28
52	5.9977	4.3757	0.	962.88
53	22.9	1.2109	0.	12.238
54	22.899	2.4268	0.	15.685
55	22.899	3.6358	0.	15.454
56	6.5002	0.8698	0.	667.82
57	7.581	0.97311	0.	736.85
58	8.622	1.0021	0.	678.15
59	9.6865	1.0028	0.	595.29
60	10.777	1.0217	0.	511.97
61	11.88	1.0237	0.	433.32
62	12.981	1.0283	0.	360.39
63	14.081	1.0282	0.	294.15
64	15.182	1.0222	0.	234.61
65	16.285	1.0058	0.	181.89
66	17.386	0.99465	0.	135.78
67	18.5	1.0121	0.	96.627
68	19.628	1.0975	0.	64.598
69	20.721	1.1972	0.	39.137
70	21.798	1.2264	0.	22.767
71	4.0952	0.53229	0.	892.26
72	4.3189	1.0329	0.	921.85
73	0.9861	1.1657	0.	1438.2
74	1.9628	1.0476	0.	1304.9
75	3.026	0.7948	0.	1174.7
76	1.0325	4.7765	0.	1439.1
77	1.07	3.5792	0.	1521.6
78	1.0328	2.3637	0.	1533.8
79	4.08	4.9516	0.	1006.4
80	3.0118	5.0236	0.	1204.4
81	2.019	4.8354	0.	1286.3
82	4.4782	4.7529	0.	1118.
83	4.4577	3.833	0.	1571.8
84	6.0123	1.7275	0.	1032.7
85	5.9419	2.3593	0.	1430.7
86	6.8756	4.3786	0.	871.28
87	21.802	3.6819	0.	24.681
88	21.801	2.4498	0.	24.693
89	3.6469	1.2497	0.	1172.6
90	2.04	2.0967	0.	1272.2
91	4.1109	4.461	0.	1232.4
92	4.1183	3.1882	0.	1628.8
93	6.7544	1.858	0.	899.5
94	5.6672	3.1047	0.	1669.2
95	5.0518	2.8488	0.	1842.4
96	7.6305	1.9953	0.	779.85
97	3.5932	1.8307	0.	1234.5
98	4.1535	4.012	0.	1436.2
99	2.7939	1.9653	0.	1224.8
100	3.0808	4.1347	0.	1239.
101	20.672	2.4708	0.	43.015
102	19.577	2.819	0.	67.47
103	18.492	2.9712	0.	97.481
104	17.389	2.952	0.	136.33
105	16.289	2.9062	0.	181.64
106	15.184	2.8549	0.	234.13
107	14.082	2.8549	0.	293.09
108	12.98	2.8549	0.	358.27
109	11.878	2.8549	0.	429.05
110	10.773	2.9082	0.	505.3
111	9.6704	2.9831	0.	586.53
112	8.6134	3.0524	0.	677.45
113	6.537	2.6635	0.	1092.7
114	6.3272	3.2765	0.	1286.1
115	7.73	4.1851	0.	760.84
116	3.4636	3.4982	0.	1244.3
117	3.0019	2.8578	0.	1272.5
118	3.0019	2.8578	0.1	1272.5
119	3.4636	3.4982	0.1	1244.3
120	7.73	4.1851	0.1	760.84
121	6.3272	3.2765	0.1	1286.1
122	6.537	2.6635	0.1	1092.7
123	8.6134	3.0524	0.1	677.45
124	9.6704	2.9831	0.1	586.53
125	10.773	2.9082	0.1	505.3
126	11.878	2.8549	0.1	429.05
127	12.98	2.8549	0.1	358.27
128	14.082	2.8549	0.1	293.09
129	15.184	2.8549	0.1	234.13
130	16.289	2.9062	0.1	181.64
131	17.389	2.952	0.1	136.33
132	18.492	2.9712	0.1	97.481
133	19.577	2.819	0.1	67.47
134	20.672	2.4708	0.1	43.015
135	3.0808	4.1347	0.1	1239.
136	2.7939	1.9653	0.1	1224.8
137	4.1535	4.012	0.1	1436.2
138	3.5932	1.8307	0.1	1234.5
139	7.6305	1.9953	0.1	779.85
140	5.0518	2.8488	0.1	1842.4
141	5.6672	3.1047	0.1	1669.2
142	6.7544	1.858	0.1	899.5
143	4.1183	3.1882	0.1	1628.8
144	4.1109	4.461	0.1	1232.4
145	2.04	2.0967	0.1	1272.2
146	3.6469	1.2497	0.1	1172.6
147	21.801	2.4498	0.1	24.693
148	21.802	3.6819	0.1	24.681
149	6.8756	4.3786	0.1	871.28
150	5.9419	2.3593	0.1	1430.7
151	6.0123	1.7275	0.1	1032.7
152	4.4577	3.833	0.1	1571.8
153	4.4782	4.7529	0.1	1118.
154	2.019	4.8354	0.1	1286.3
155	3.0118	5.0236	0.1	1204.4
156	4.08	4.9516	0.1	1006.4
157	1.0328	2.3637	0.1	1533.8
158	1.07	3.5792	0.1	1521.6
159	1.0325	4.7765	0.1	1439.1
160	3.026	0.7948	0.1	1174.7
161	1.9628	1.0476	0.1	1304.9
162	0.9861	1.1657	0.1	1438.2
163	4.3189	1.0329	0.1	921.85
164	4.0952	0.53229	0.1	892.26
165	21.798	1.2264	0.1	22.767
166	20.721	1.1972	0.1	39.137
167	19.628	1.0975	0.1	64.598
168	18.5	1.0121	0.1	96.627
169	17.386	0.99465	0.1	135.78
170	16.285	1.0058	0.1	181.89
171	15.182	1.0222	0.1	234.61
172	14.081	1.0282	0.1	294.15
173	12.981	1.0283	0.1	360.39
174	11.88	1.0237	0.1	433.32
175	10.777	1.0217	0.1	511.97
176	9.6865	1.0028	0.1	595.29
177	8.622	1.0021	0.1	678.15
178	7.581	0.97311	0.1	736.85
179	6.5002	0.8698	0.1	667.82
180	22.899	3.6358	0.1	15.454
181	22.899	2.4268	0.1	15.685
182	22.9	1.2109	0.1	12.238
183	5.9977	4.3757	0.1	962.88
184	6.4833	5.2114	0.1	680.28
185	7.6133	5.1202	0.1	740.26
186	8.6716	5.043	0.1	673.54
187	9.7169	4.9975	0.1	593.74
188	10.792	4.9716	0.1	511.31
189	11.878	4.9516	0.1	433.38
190	12.98	4.9516	0.1	360.73
191	14.082	4.9516	0.1	294.22
192	15.184	4.9516	0.1	234.56
193	16.286	4.9516	0.1	181.8
194	17.388	4.9516	0.1	135.8
195	18.503	4.9509	0.1	96.611
196	19.62	4.9187	0.1	64.301
197	20.719	4.8756	0.1	39.61
198	21.812	4.8427	0.1	22.347
199	22.916	4.8382	0.1	11.855
200	5.3523	2.5935	0.1	2150.3
201	4.8791	3.2092	0.1	2009.4
202	8.6741	4.0434	0.1	672.78
203	9.7169	3.9814	0.1	585.01
204	10.788	3.9344	0.1	506.38
205	11.878	3.9033	0.1	430.12
206	12.98	3.9033	0.1	358.8
207	14.082	3.9033	0.1	293.34
208	15.184	3.9033	0.1	234.19
209	16.283	3.9221	0.1	181.88
210	17.389	3.9373	0.1	135.98
211	18.501	3.9283	0.1	97.301
212	19.631	3.8537	0.1	65.354
213	20.727	3.7267	0.1	40.664
214	19.578	2.1334	0.1	67.071
215	18.483	1.9856	0.1	97.285
216	17.397	1.9665	0.1	135.86
217	16.297	1.9588	0.1	181.32
218	15.187	1.9899	0.1	233.99
219	14.082	2.0242	0.1	293.26
220	12.98	2.0242	0.1	358.78
221	11.875	1.9913	0.1	430.46
222	10.768	1.9814	0.1	507.35
223	9.6802	2.0102	0.1	588.79
224	8.6104	2.042	0.1	678.33
225	2.1406	3.5108	0.1	1219.9
226	7.5121	3.1636	0.1	809.59
227	3.7785	2.4461	0.1	1391.4
228	6.7948	3.8505	0.1	1047.
229	4.3828	1.6837	0.1	1296.8
230	5.9069	4.8026	0.1	813.47
231	4.5376	4.4549	0.1	1294.3
232	5.8958	1.2378	0.1	820.05
233	6.0242	3.8082	0.1	1225.9
234	4.4674	2.3626	0.1	1616.1
235	5.2667	5.5	0.1	579.51
236	5.2667	5.	0.1	745.54
237	5.2667	4.5	0.1	1763.9
238	5.2667	4.	0.1	3189.9
239	5.1	4.	0.1	3399.
240	5.1	4.5	0.1	2000.7
241	5.1	5.	0.1	780.1
242	5.1	5.5	0.1	607.36
243	5.2667	0.5	0.1	606.3
244	5.2667	1.	0.1	649.75
245	5.2667	1.5	0.1	1593.6
246	5.2667	2.	0.1	3866.9
247	5.1	2.	0.1	3882.1
248	5.1	1.5	0.1	2037.4
249	5.1	1.	0.1	918.25
250	5.1	0.5	0.1	524.17
251	5.2667	6.	0.1	323.29
252	6.3686	6.	0.1	552.58
253	7.4706	6.	0.1	706.25
254	8.5725	6.	0.1	686.48
255	9.6745	6.	0.1	605.98
256	10.776	6.	0.1	518.96
257	11.878	6.	0.1	437.82
258	12.98	6.	0.1	363.5
259	14.082	6.	0.1	295.85
260	15.184	6.	0.1	235.55
261	16.286	6.	0.1	182.39
262	17.388	6.	0.1	136.13
263	18.49	6.	0.1	97.095
264	19.592	6.	0.1	64.494
265	20.694	6.	0.1	39.721
266	21.796	6.	0.1	21.459
267	22.898	6.	0.1	9.8532
268	24.	6.	0.1	4.5764
269	24.	4.8	0.1	8.2264
270	24.	3.6	0.1	12.44
271	24.	2.4	0.1	12.463
272	24.	1.2	0.1	8.4021
273	1.049e-014	1.2	0.1	1001.9
274	2.0981e-014	2.4	0.1	1053.5
275	3.1471e-014	3.6	0.1	1057.9
276	4.1961e-014	4.8	0.1	1011.1
277	24.	0.	0.1	4.653
278	22.898	0.	0.1	10.24
279	21.796	0.	0.1	21.933
280	20.694	0.	0.1	39.366
281	19.592	0.	0.1	64.251
282	18.49	0.	0.1	97.174
283	17.388	0.	0.1	136.
284	16.286	0.	0.1	182.25
285	15.184	0.	0.1	235.55
286	14.082	0.	0.1	295.85
287	12.98	0.	0.1	363.05
288	11.878	0.	0.1	437.63
289	10.776	0.	0.1	519.49
290	9.6745	0.	0.1	606.04
291	8.5725	0.	0.1	682.48
292	7.4706	0.	0.1	690.27
293	6.3686	0.	0.1	546.22
294	5.2667	0.	0.1	307.37
295	5.1	0.	0.1	415.82
296	4.08	1.747e-030	0.1	757.54
297	3.06	1.3102e-030	0.1	1180.
298	2.04	8.7349e-031	0.1	1411.2
299	1.02	4.3675e-031	0.1	1420.9
300	0.	0.	0.1	761.21
301	3.937e-014	6.	0.1	762.66
302	1.02	6.	0.1	1415.6
303	2.04	6.	0.1	1413.
304	3.06	6.	0.1	1170.3
305	4.08	6.	0.1	854.11
306	5.1	6.	0.1	534.54
307	4.08	6.	0.	854.11
308	3.06	6.	0.	1170.3
309	2.04	6.	0.	1413.
310	1.02	6.	0.	1415.6
311	5.1	6.	0.	534.54
312	3.937e-014	6.	0.	762.66
313	1.02	4.3675e-031	0.	1420.9
314	2.04	8.7349e-031	0.	1411.2
315	3.06	1.3102e-030	0.	1180.
316	4.08	1.747e-030	0.	757.54
317	5.1	0.	0.	415.82
318	0.	0.	0.	761.21
319	6.3686	0.	0.	546.22
320	7.4706	0.	0.	690.27
321	8.5725	0.	0.	682.48
322	9.6745	0.	0.	606.04
323	10.776	0.	0.	519.49
324	11.878	0.	0.	437.63
325	12.98	0.	0.	363.05
326	14.082	0.	0.	295.85
327	15.184	0.	0.	235.55
328	16.286	0.	0.	182.25
329	17.388	0.	0.	136.
330	18.49	0.	0.	97.174
331	19.592	0.	0.	64.251
332	20.694	0.	0.	39.366
333	21.796	0.	0.	21.933
334	22.898	0.	0.	10.24
335	5.2667	0.	0.	307.37
336	24.	0.	0.	4.653
337	4.1961e-014	4.8	0.	1011.1
338	3.1471e-014	3.6	0.	1057.9
339	2.0981e-014	2.4	0.	1053.5
340	1.049e-014	1.2	0.	1001.9
341	24.	1.2	0.	8.4021
342	24.	2.4	0.	12.463
343	24.	3.6	0.	12.44
344	24.	4.8	0.	8.2264
345	24.	6.	0.	4.5764
346	22.898	6.	0.	9.8532
347	21.796	6.	0.	21.459
348	20.694	6.	0.	39.721
349	19.592	6.	0.	64.494
350	18.49	6.	0.	97.095
351	17.388	6.	0.	136.13
352	16.286	6.	0.	182.39
353	15.184	6.	0.	235.55
354	14.082	6.	0.	295.85
355	12.98	6.	0.	363.5
356	11.878	6.	0.	437.82
357	10.776	6.	0.	518.96
358	9.6745	6.	0.	605.98
359	8.5725	6.	0.	686.48
360	7.4706	6.	0.	706.25
361	6.3686	6.	0.	552.58
362	5.2667	6.	0.	323.29
363	5.1	1.5	0.	2037.4
364	5.1	1.	0.	918.25
365	5.1	0.5	0.	524.17
366	5.1	2.	0.	3882.1
367	5.2667	0.5	0.	606.3
368	5.2667	1.	0.	649.75
369	5.2667	1.5	0.	1593.6
370	5.2667	2.	0.	3866.9
371	5.1	4.5	0.	2000.7
372	5.1	5.	0.	780.1
373	5.1	5.5	0.	607.36
374	5.1	4.	0.	3399.
375	5.2667	5.5	0.	579.51
376	5.2667	5.	0.	745.54
377	5.2667	4.5	0.	1763.9
378	5.2667	4.	0.	3189.9
379	4.4251	2.0231	0.	1450.1
380	4.1229	2.4043	0.	1484.8
381	4.6732	2.7859	0.	1777.6
382	4.4674	2.3626	5.e-002	24.051
383	4.7837	2.1813	0.	2745.
384	6.4095	3.8294	0.	1117.8
385	6.011	4.092	0.	1093.1
386	6.1757	3.5424	0.	1224.6
387	6.0242	3.8082	5.e-002	95.924
388	5.6455	3.9041	0.	2205.1
389	6.198	1.0538	0.	721.86
390	5.9541	1.4826	0.	915.49
391	5.8958	1.2378	5.e-002	32.624
392	5.5812	1.1189	0.	695.6
393	4.5079	4.6039	0.	1198.6
394	4.4977	4.1439	0.	1411.1
395	4.3243	4.4579	0.	1243.3
396	4.5376	4.4549	5.e-002	115.8
397	4.8188	4.4774	0.	1548.
398	6.1951	5.007	0.	722.53
399	5.9523	4.5891	0.	868.26
400	5.9069	4.8026	5.e-002	27.678
401	5.5868	4.9013	0.	739.3
402	4.3508	1.3583	0.	1106.3
403	3.988	1.7572	0.	1250.1
404	4.3828	1.6837	5.e-002	68.856
405	4.7414	1.5918	0.	1574.1
406	7.1535	3.507	0.	927.96
407	6.8352	4.1145	0.	956.91
408	6.7948	3.8505	5.e-002	41.349
409	3.9484	2.8172	0.	1508.3
410	3.6858	2.1384	0.	1308.5
411	3.3902	2.6519	0.	1330.5
412	3.7785	2.4461	5.e-002	43.767
413	7.5713	2.5794	0.	794.35
414	8.0628	3.108	0.	743.24
415	7.0246	2.9135	0.	950.56
416	6.9197	3.2201	0.	1046.6
417	7.6211	3.6743	0.	784.98
418	7.5121	3.1636	5.e-002	16.914
419	1.6053	3.545	0.	1367.1
420	2.0798	4.1731	0.	1249.2
421	2.0903	2.8038	0.	1244.
422	2.6107	3.8228	0.	1227.6
423	2.5713	3.1843	0.	1245.5
424	2.1406	3.5108	5.e-002	40.1
425	9.1453	2.0261	0.	633.52
426	8.6162	1.522	0.	678.12
427	8.1204	2.0186	0.	729.05
428	8.6119	2.5472	0.	677.84
429	8.6104	2.042	5.e-002	9.248
430	10.224	1.9958	0.	548.03
431	9.6833	1.5065	0.	591.93
432	9.6753	2.4966	0.	587.61
433	9.6802	2.0102	5.e-002	7.729
434	11.321	1.9864	0.	468.89
435	10.773	1.5016	0.	509.52
436	10.771	2.4448	0.	506.25
437	10.768	1.9814	5.e-002	6.7564
438	12.428	2.0078	0.	394.61
439	11.877	1.5075	0.	431.73
440	11.877	2.4231	0.	429.65
441	11.875	1.9913	5.e-002	6.202
442	13.531	2.0242	0.	326.01
443	12.981	1.5262	0.	359.39
444	12.98	2.4395	0.	358.4
445	12.98	2.0242	5.e-002	5.5675
446	14.635	2.007	0.	263.62
447	14.082	1.5262	0.	293.49
448	14.082	2.4395	0.	293.03
449	14.082	2.0242	5.e-002	5.067
450	15.742	1.9743	0.	207.64
451	15.185	1.5061	0.	234.07
452	15.186	2.4224	0.	233.89
453	15.187	1.9899	5.e-002	4.6145
454	16.847	1.9626	0.	158.58
455	16.291	1.4823	0.	181.37
456	16.293	2.4325	0.	181.27
457	16.297	1.9588	5.e-002	3.9574
458	17.94	1.976	0.	116.56
459	17.391	1.4806	0.	135.58
460	17.393	2.4593	0.	135.84
461	17.397	1.9665	5.e-002	2.8466
462	19.03	2.0595	0.	82.151
463	18.491	1.4988	0.	96.637
464	18.487	2.4784	0.	97.237
465	18.483	1.9856	5.e-002	2.5319
466	19.603	1.6155	0.	65.585
467	20.125	2.3021	0.	54.952
468	19.578	2.4762	0.	67.081
469	19.578	2.1334	5.e-002	2.7816
470	20.179	3.7902	0.	52.93
471	20.723	4.3012	0.	39.748
472	21.265	3.7043	0.	32.555
473	20.7	3.0988	0.	41.561
474	20.727	3.7267	5.e-002	1.2504
475	19.066	3.891	0.	81.302
476	19.626	4.3862	0.	64.533
477	19.604	3.3364	0.	66.22
478	19.631	3.8537	5.e-002	2.2211
479	17.945	3.9328	0.	116.62
480	18.502	4.4396	0.	96.682
481	18.497	3.4498	0.	97.114
482	18.501	3.9283	5.e-002	3.0306
483	16.836	3.9297	0.	158.91
484	17.388	4.4445	0.	135.62
485	17.389	3.4447	0.	135.93
486	17.389	3.9373	5.e-002	3.6919
487	15.734	3.9127	0.	208.03
488	16.285	4.4369	0.	181.57
489	16.286	3.4142	0.	181.53
490	16.283	3.9221	5.e-002	3.9617
491	14.633	3.9033	0.	263.76
492	15.184	4.4275	0.	234.11
493	15.184	3.3791	0.	233.93
494	15.184	3.9033	5.e-002	4.3104
495	13.531	3.9033	0.	326.06
496	14.082	4.4275	0.	293.53
497	14.082	3.3791	0.	293.
498	14.082	3.9033	5.e-002	4.8576
499	12.429	3.9033	0.	394.45
500	12.98	4.4275	0.	359.54
501	12.98	3.3791	0.	358.34
502	12.98	3.9033	5.e-002	5.4348
503	11.333	3.9188	0.	468.23
504	11.878	4.4275	0.	431.55
505	11.878	3.3791	0.	429.43
506	11.878	3.9033	5.e-002	5.8504
507	10.253	3.9579	0.	545.67
508	10.79	4.453	0.	508.68
509	10.781	3.4213	0.	505.74
510	10.788	3.9344	5.e-002	6.7644
511	9.1955	4.0124	0.	628.86
512	9.7169	4.4895	0.	589.22
513	9.6937	3.4823	0.	585.72
514	9.7169	3.9814	5.e-002	6.1448
515	8.6729	4.5432	0.	673.
516	8.6438	3.5479	0.	675.09
517	8.2021	4.1142	0.	716.77
518	8.6741	4.0434	5.e-002	11.019
519	4.4987	3.1987	0.	1809.
520	5.2731	3.157	0.	1829.6
521	4.9654	3.029	0.	1923.4
522	4.8791	3.2092	5.e-002	149.33
523	4.9895	3.6046	0.	2666.9
524	5.5097	2.8491	0.	1898.7
525	5.202	2.7211	0.	1993.1
526	5.3523	2.5935	5.e-002	160.6
527	5.3095	2.2968	0.	2904.6
528	22.364	4.8405	0.	16.933
529	22.907	4.237	0.	13.46
530	22.916	4.8382	5.e-002	0.72332
531	23.458	4.8191	0.	9.871
532	22.907	5.4191	0.	10.477
533	21.265	4.8591	0.	30.891
534	21.807	4.2623	0.	23.182
535	21.812	4.8427	5.e-002	1.1238
536	21.804	5.4213	0.	21.518
537	20.169	4.8971	0.	51.902
538	20.719	4.8756	5.e-002	1.5706
539	20.706	5.4378	0.	39.302
540	19.061	4.9348	0.	80.42
541	19.62	4.9187	5.e-002	2.284
542	19.606	5.4593	0.	64.082
543	17.945	4.9512	0.	116.17
544	18.503	4.9509	5.e-002	2.7827
545	18.496	5.4754	0.	96.565
546	16.837	4.9516	0.	158.77
547	17.388	4.9516	5.e-002	3.3416
548	17.388	5.4758	0.	135.69
549	15.735	4.9516	0.	208.16
550	16.286	4.9516	5.e-002	3.8474
551	16.286	5.4758	0.	181.83
552	14.633	4.9516	0.	264.37
553	15.184	4.9516	5.e-002	4.3479
554	15.184	5.4758	0.	234.79
555	13.531	4.9516	0.	327.45
556	14.082	4.9516	5.e-002	4.9755
557	14.082	5.4758	0.	294.78
558	12.429	4.9516	0.	397.03
559	12.98	4.9516	5.e-002	5.5152
560	12.98	5.4758	0.	361.87
561	11.335	4.9616	0.	472.32
562	11.878	4.9516	5.e-002	5.9365
563	11.878	5.4758	0.	435.37
564	10.254	4.9845	0.	552.49
565	10.792	4.9716	5.e-002	6.6103
566	10.784	5.4858	0.	514.93
567	9.1943	5.0202	0.	633.6
568	9.7169	4.9975	5.e-002	6.735
569	9.6957	5.4987	0.	599.7
570	8.1425	5.0816	0.	706.85
571	8.6716	5.043	5.e-002	6.7917
572	8.6221	5.5215	0.	679.89
573	7.0483	5.1658	0.	702.22
574	7.6716	4.6526	0.	750.36
575	7.6133	5.1202	5.e-002	5.3457
576	7.5419	5.5601	0.	723.15
577	6.6794	4.795	0.	770.74
578	6.4833	5.2114	5.e-002	37.35
579	6.4259	5.6057	0.	615.08
580	5.875	5.3557	0.	596.44
581	6.4366	4.3772	0.	903.76
582	5.9977	4.3757	5.e-002	81.986
583	5.6322	4.4379	0.	1281.8
584	22.9	1.8189	0.	13.74
585	22.349	1.2187	0.	17.346
586	22.9	1.2109	5.e-002	0.82084
587	22.899	0.60547	0.	10.847
588	23.45	1.2055	0.	10.177
589	22.899	3.0313	0.	15.445
590	22.35	2.4383	0.	19.971
591	22.899	2.4268	5.e-002	0.82578
592	23.45	2.4134	0.	14.009
593	22.35	3.6588	0.	19.854
594	22.899	3.6358	5.e-002	0.75773
595	23.449	3.6179	0.	13.868
596	7.0406	0.92145	0.	693.08
597	6.6273	1.3639	0.	777.17
598	6.5002	0.8698	5.e-002	36.677
599	6.4344	0.4349	0.	605.78
600	5.8834	0.6849	0.	607.25
601	8.1015	0.98759	0.	707.4
602	7.6057	1.4842	0.	757.82
603	7.581	0.97311	5.e-002	7.3604
604	7.5258	0.48655	0.	713.42
605	9.1543	1.0024	0.	636.68
606	8.622	1.0021	5.e-002	9.3348
607	8.5973	0.50104	0.	680.19
608	10.232	1.0122	0.	553.58
609	9.6865	1.0028	5.e-002	7.0551
610	9.6805	0.50139	0.	600.48
611	11.328	1.0227	0.	472.62
612	10.777	1.0217	5.e-002	6.5643
613	10.777	0.51085	0.	515.53
614	12.43	1.026	0.	396.83
615	11.88	1.0237	5.e-002	6.1182
616	11.879	0.51186	0.	435.26
617	13.531	1.0282	0.	327.25
618	12.981	1.0283	5.e-002	5.3193
619	12.981	0.51414	0.	361.48
620	14.632	1.0252	0.	264.36
621	14.081	1.0282	5.e-002	4.7701
622	14.082	0.51409	0.	294.75
623	15.734	1.014	0.	208.22
624	15.182	1.0222	5.e-002	4.4355
625	15.183	0.5111	0.	234.84
626	16.835	1.0002	0.	158.81
627	16.285	1.0058	5.e-002	4.0454
628	16.286	0.50288	0.	181.83
629	17.943	1.0034	0.	116.17
630	17.386	0.99465	5.e-002	3.5889
631	17.387	0.49732	0.	135.64
632	19.064	1.0548	0.	80.584
633	18.5	1.0121	5.e-002	2.8168
634	18.495	0.50605	0.	96.627
635	20.174	1.1474	0.	51.816
636	19.628	1.0975	5.e-002	2.1769
637	19.61	0.54877	0.	64.112
638	21.259	1.2118	0.	30.854
639	20.696	1.834	0.	40.732
640	20.721	1.1972	5.e-002	1.3126
641	20.707	0.59862	0.	38.844
642	21.799	1.8381	0.	23.388
643	21.798	1.2264	5.e-002	1.0038
644	21.797	0.61319	0.	21.916
645	4.207	0.78257	0.	902.64
646	3.5606	0.66355	0.	1024.8
647	4.0952	0.53229	5.e-002	56.781
648	4.0876	0.26615	0.	819.42
649	4.5976	0.51615	0.	679.71
650	3.9829	1.1413	0.	1028.3
651	4.3189	1.0329	5.e-002	60.21
652	4.7094	1.0164	0.	871.88
653	1.4744	1.1067	0.	1364.7
654	1.0095	1.7647	0.	1483.4
655	0.9861	1.1657	5.e-002	28.124
656	1.0031	0.58284	0.	1420.3
657	0.49305	1.1828	0.	1200.3
658	2.4944	0.92122	0.	1239.1
659	2.0014	1.5722	0.	1285.7
660	1.9628	1.0476	5.e-002	20.118
661	2.0014	0.52381	0.	1356.
662	3.3364	1.0223	0.	1172.6
663	2.91	1.3801	0.	1195.5
664	3.026	0.7948	5.e-002	32.148
665	3.043	0.3974	0.	1175.9
666	1.0513	4.1778	0.	1477.4
667	1.5258	4.8059	0.	1356.1
668	1.0325	4.7765	5.e-002	28.745
669	1.0263	5.3882	0.	1417.4
670	0.51627	4.7882	0.	1205.7
671	1.0514	2.9714	0.	1526.6
672	1.07	3.5792	5.e-002	12.664
673	0.53498	3.5896	0.	1268.4
674	1.5364	2.2302	0.	1398.
675	1.0328	2.3637	5.e-002	15.284
676	0.51642	2.3818	0.	1272.3
677	3.5459	4.9876	0.	1092.9
678	4.2791	4.8522	0.	1036.2
679	4.0954	4.7063	0.	1117.2
680	4.08	4.9516	5.e-002	49.243
681	4.08	5.4758	0.	929.61
682	4.59	5.2258	0.	764.14
683	2.5154	4.9295	0.	1244.9
684	3.0463	4.5792	0.	1220.1
685	3.0118	5.0236	5.e-002	10.447
686	3.0359	5.5118	0.	1186.4
687	2.019	4.8354	5.e-002	24.936
688	2.0295	5.4177	0.	1347.8
689	4.4782	4.7529	5.e-002	14.344
690	4.7891	4.8764	0.	879.52
691	4.288	3.5106	0.	1571.5
692	4.3056	3.9225	0.	1496.8
693	4.4577	3.833	5.e-002	109.16
694	4.7788	3.9165	0.	2479.2
695	5.9771	2.0434	0.	1223.6
696	6.3834	1.7927	0.	941.8
697	6.0123	1.7275	5.e-002	61.017
698	5.6395	1.6137	0.	1249.7
699	5.8046	2.732	0.	1514.7
700	6.2395	2.5114	0.	1240.6
701	5.9419	2.3593	5.e-002	26.296
702	5.6043	2.1796	0.	2639.
703	7.3028	4.2818	0.	814.7
704	6.8756	4.3786	5.e-002	26.021
705	21.801	3.0658	0.	24.457
706	21.802	3.6819	5.e-002	1.0314
707	21.236	2.4603	0.	33.688
708	21.801	2.4498	5.e-002	0.87273
709	3.62	1.5402	0.	1202.4
710	3.6469	1.2497	5.e-002	32.379
711	2.417	2.031	0.	1247.8
712	2.04	2.0967	5.e-002	33.067
713	4.1322	4.2365	0.	1329.4
714	3.5958	4.2979	0.	1222.6
715	4.1109	4.461	5.e-002	35.873
716	3.7909	3.3432	0.	1434.
717	4.1183	3.1882	5.e-002	68.954
718	7.1924	1.9266	0.	837.71
719	6.6457	2.2607	0.	993.33
720	6.7544	1.858	5.e-002	17.139
721	5.9972	3.1906	0.	1468.4
722	5.6672	3.1047	5.e-002	138.91
723	5.4669	3.5524	0.	2378.7
724	5.0518	2.8488	5.e-002	23.729
725	5.0759	2.4244	0.	2794.4
726	7.6305	1.9953	5.e-002	11.323
727	3.1936	1.898	0.	1225.5
728	3.5932	1.8307	5.e-002	36.718
729	3.8085	3.7551	0.	1336.5
730	4.1535	4.012	5.e-002	45.09
731	2.8979	2.4115	0.	1247.7
732	2.7939	1.9653	5.e-002	9.8857
733	3.2722	3.8165	0.	1240.6
734	3.0808	4.1347	5.e-002	28.945
735	20.124	2.6449	0.	55.136
736	20.672	2.4708	5.e-002	0.65157
737	19.035	2.8951	0.	82.446
738	19.577	2.819	5.e-002	2.9771
739	17.941	2.9616	0.	116.88
740	18.492	2.9712	5.e-002	2.752
741	16.839	2.9291	0.	158.97
742	17.389	2.952	5.e-002	2.9311
743	15.737	2.8806	0.	207.88
744	16.289	2.9062	5.e-002	3.8772
745	14.633	2.8549	0.	263.61
746	15.184	2.8549	5.e-002	4.4341
747	13.531	2.8549	0.	325.67
748	14.082	2.8549	5.e-002	5.066
749	12.429	2.8549	0.	393.65
750	12.98	2.8549	5.e-002	5.622
751	11.326	2.8815	0.	467.16
752	11.878	2.8549	5.e-002	5.9301
753	10.222	2.9456	0.	545.89
754	10.773	2.9082	5.e-002	6.5267
755	9.1419	3.0178	0.	631.93
756	9.6704	2.9831	5.e-002	6.8804
757	8.6134	3.0524	5.e-002	9.3789
758	6.4321	2.97	0.	1188.3
759	6.537	2.6635	5.e-002	46.653
760	6.3272	3.2765	5.e-002	115.06
761	7.73	4.1851	5.e-002	9.2256
762	3.2328	3.178	0.	1256.4
763	3.4636	3.4982	5.e-002	50.268
764	3.0019	2.8578	5.e-002	32.731
765	3.2328	3.178	0.1	1256.4
766	2.8979	2.4115	0.1	1247.7
767	2.5713	3.1843	0.1	1245.5
768	3.3902	2.6519	0.1	1330.5
769	3.2722	3.8165	0.1	1240.6
770	3.8085	3.7551	0.1	1336.5
771	3.7909	3.3432	0.1	1434.
772	7.3028	4.2818	0.1	814.7
773	7.6716	4.6526	0.1	750.36
774	8.2021	4.1142	0.1	716.77
775	7.6211	3.6743	0.1	784.98
776	6.4321	2.97	0.1	1188.3
777	5.9972	3.1906	0.1	1468.4
778	6.9197	3.2201	0.1	1046.6
779	6.1757	3.5424	0.1	1224.6
780	6.6457	2.2607	0.1	993.33
781	6.2395	2.5114	0.1	1240.6
782	7.0246	2.9135	0.1	950.56
783	9.1419	3.0178	0.1	631.93
784	8.6438	3.5479	0.1	675.09
785	8.6119	2.5472	0.1	677.84
786	8.0628	3.108	0.1	743.24
787	10.222	2.9456	0.1	545.89
788	9.6937	3.4823	0.1	585.72
789	9.6753	2.4966	0.1	587.61
790	11.326	2.8815	0.1	467.16
791	10.781	3.4213	0.1	505.74
792	10.771	2.4448	0.1	506.25
793	12.429	2.8549	0.1	393.65
794	11.878	3.3791	0.1	429.43
795	11.877	2.4231	0.1	429.65
796	13.531	2.8549	0.1	325.67
797	12.98	3.3791	0.1	358.34
798	12.98	2.4395	0.1	358.4
799	14.633	2.8549	0.1	263.61
800	14.082	3.3791	0.1	293.
801	14.082	2.4395	0.1	293.03
802	15.737	2.8806	0.1	207.88
803	15.184	3.3791	0.1	233.93
804	15.186	2.4224	0.1	233.89
805	16.839	2.9291	0.1	158.97
806	16.286	3.4142	0.1	181.53
807	16.293	2.4325	0.1	181.27
808	17.941	2.9616	0.1	116.88
809	17.389	3.4447	0.1	135.93
810	17.393	2.4593	0.1	135.84
811	19.035	2.8951	0.1	82.446
812	18.497	3.4498	0.1	97.114
813	18.487	2.4784	0.1	97.237
814	20.124	2.6449	0.1	55.136
815	19.604	3.3364	0.1	66.22
816	19.578	2.4762	0.1	67.081
817	21.236	2.4603	0.1	33.688
818	20.696	1.834	0.1	40.732
819	20.7	3.0988	0.1	41.561
820	20.125	2.3021	0.1	54.952
821	3.5958	4.2979	0.1	1222.6
822	3.0463	4.5792	0.1	1220.1
823	2.6107	3.8228	0.1	1227.6
824	3.1936	1.898	0.1	1225.5
825	2.417	2.031	0.1	1247.8
826	2.91	1.3801	0.1	1195.5
827	4.1322	4.2365	0.1	1329.4
828	4.3056	3.9225	0.1	1496.8
829	3.62	1.5402	0.1	1202.4
830	3.6858	2.1384	0.1	1308.5
831	3.988	1.7572	0.1	1250.1
832	7.1924	1.9266	0.1	837.71
833	7.6057	1.4842	0.1	757.82
834	8.1204	2.0186	0.1	729.05
835	7.5713	2.5794	0.1	794.35
836	5.202	2.7211	0.1	1993.1
837	4.9654	3.029	0.1	1923.4
838	5.0759	2.4244	0.1	2794.4
839	5.8046	2.732	0.1	1514.7
840	5.5097	2.8491	0.1	1898.7
841	5.2731	3.157	0.1	1829.6
842	5.4669	3.5524	0.1	2378.7
843	6.3834	1.7927	0.1	941.8
844	6.6273	1.3639	0.1	777.17
845	4.288	3.5106	0.1	1571.5
846	4.4987	3.1987	0.1	1809.
847	3.9484	2.8172	0.1	1508.3
848	4.0954	4.7063	0.1	1117.2
849	4.3243	4.4579	0.1	1243.3
850	1.5364	2.2302	0.1	1398.
851	2.0014	1.5722	0.1	1285.7
852	2.0903	2.8038	0.1	1244.
853	3.3364	1.0223	0.1	1172.6
854	3.9829	1.1413	0.1	1028.3
855	21.801	3.0658	0.1	24.457
856	21.799	1.8381	0.1	23.388
857	22.35	2.4383	0.1	19.971
858	22.35	3.6588	0.1	19.854
859	21.807	4.2623	0.1	23.182
860	21.265	3.7043	0.1	32.555
861	6.4366	4.3772	0.1	903.76
862	6.6794	4.795	0.1	770.74
863	6.8352	4.1145	0.1	956.91
864	5.9771	2.0434	0.1	1223.6
865	5.6043	2.1796	0.1	2639.
866	5.9541	1.4826	0.1	915.49
867	5.6395	1.6137	0.1	1249.7
868	4.4977	4.1439	0.1	1411.1
869	4.7788	3.9165	0.1	2479.2
870	4.2791	4.8522	0.1	1036.2
871	4.5079	4.6039	0.1	1198.6
872	4.7891	4.8764	0.1	879.52
873	2.5154	4.9295	0.1	1244.9
874	1.5258	4.8059	0.1	1356.1
875	2.0798	4.1731	0.1	1249.2
876	2.0295	5.4177	0.1	1347.8
877	3.5459	4.9876	0.1	1092.9
878	3.0359	5.5118	0.1	1186.4
879	4.59	5.2258	0.1	764.14
880	4.08	5.4758	0.1	929.61
881	1.0514	2.9714	0.1	1526.6
882	1.0095	1.7647	0.1	1483.4
883	0.51642	2.3818	0.1	1272.3
884	1.0513	4.1778	0.1	1477.4
885	1.6053	3.545	0.1	1367.1
886	0.53498	3.5896	0.1	1268.4
887	0.51627	4.7882	0.1	1205.7
888	1.0263	5.3882	0.1	1417.4
889	2.4944	0.92122	0.1	1239.1
890	3.5606	0.66355	0.1	1024.8
891	3.043	0.3974	0.1	1175.9
892	1.4744	1.1067	0.1	1364.7
893	2.0014	0.52381	0.1	1356.
894	0.49305	1.1828	0.1	1200.3
895	1.0031	0.58284	0.1	1420.3
896	4.207	0.78257	0.1	902.64
897	4.3508	1.3583	0.1	1106.3
898	4.7094	1.0164	0.1	871.88
899	4.5976	0.51615	0.1	679.71
900	4.0876	0.26615	0.1	819.42
901	21.259	1.2118	0.1	30.854
902	22.349	1.2187	0.1	17.346
903	21.797	0.61319	0.1	21.916
904	20.174	1.1474	0.1	51.816
905	20.707	0.59862	0.1	38.844
906	19.064	1.0548	0.1	80.584
907	19.603	1.6155	0.1	65.585
908	19.61	0.54877	0.1	64.112
909	17.943	1.0034	0.1	116.17
910	18.491	1.4988	0.1	96.637
911	18.495	0.50605	0.1	96.627
912	16.835	1.0002	0.1	158.81
913	17.391	1.4806	0.1	135.58
914	17.387	0.49732	0.1	135.64
915	15.734	1.014	0.1	208.22
916	16.291	1.4823	0.1	181.37
917	16.286	0.50288	0.1	181.83
918	14.632	1.0252	0.1	264.36
919	15.185	1.5061	0.1	234.07
920	15.183	0.5111	0.1	234.84
921	13.531	1.0282	0.1	327.25
922	14.082	1.5262	0.1	293.49
923	14.082	0.51409	0.1	294.75
924	12.43	1.026	0.1	396.83
925	12.981	1.5262	0.1	359.39
926	12.981	0.51414	0.1	361.48
927	11.328	1.0227	0.1	472.62
928	11.877	1.5075	0.1	431.73
929	11.879	0.51186	0.1	435.26
930	10.232	1.0122	0.1	553.58
931	10.773	1.5016	0.1	509.52
932	10.777	0.51085	0.1	515.53
933	9.1543	1.0024	0.1	636.68
934	9.6833	1.5065	0.1	591.93
935	9.6805	0.50139	0.1	600.48
936	8.1015	0.98759	0.1	707.4
937	8.6162	1.522	0.1	678.12
938	8.5973	0.50104	0.1	680.19
939	7.0406	0.92145	0.1	693.08
940	7.5258	0.48655	0.1	713.42
941	6.198	1.0538	0.1	721.86
942	5.8834	0.6849	0.1	607.25
943	6.4344	0.4349	0.1	605.78
944	22.899	3.0313	0.1	15.445
945	22.907	4.237	0.1	13.46
946	23.449	3.6179	0.1	13.868
947	22.9	1.8189	0.1	13.74
948	23.45	2.4134	0.1	14.009
949	23.45	1.2055	0.1	10.177
950	22.899	0.60547	0.1	10.847
951	5.9523	4.5891	0.1	868.26
952	6.011	4.092	0.1	1093.1
953	5.6322	4.4379	0.1	1281.8
954	7.0483	5.1658	0.1	702.22
955	6.1951	5.007	0.1	722.53
956	5.875	5.3557	0.1	596.44
957	6.4259	5.6057	0.1	615.08
958	8.1425	5.0816	0.1	706.85
959	7.5419	5.5601	0.1	723.15
960	9.1943	5.0202	0.1	633.6
961	8.6729	4.5432	0.1	673.
962	8.6221	5.5215	0.1	679.89
963	10.254	4.9845	0.1	552.49
964	9.7169	4.4895	0.1	589.22
965	9.6957	5.4987	0.1	599.7
966	11.335	4.9616	0.1	472.32
967	10.79	4.453	0.1	508.68
968	10.784	5.4858	0.1	514.93
969	12.429	4.9516	0.1	397.03
970	11.878	4.4275	0.1	431.55
971	11.878	5.4758	0.1	435.37
972	13.531	4.9516	0.1	327.45
973	12.98	4.4275	0.1	359.54
974	12.98	5.4758	0.1	361.87
975	14.633	4.9516	0.1	264.37
976	14.082	4.4275	0.1	293.53
977	14.082	5.4758	0.1	294.78
978	15.735	4.9516	0.1	208.16
979	15.184	4.4275	0.1	234.11
980	15.184	5.4758	0.1	234.79
981	16.837	4.9516	0.1	158.77
982	16.285	4.4369	0.1	181.57
983	16.286	5.4758	0.1	181.83
984	17.945	4.9512	0.1	116.17
985	17.388	4.4445	0.1	135.62
986	17.388	5.4758	0.1	135.69
987	19.061	4.9348	0.1	80.42
988	18.502	4.4396	0.1	96.682
989	18.496	5.4754	0.1	96.565
990	20.169	4.8971	0.1	51.902
991	19.626	4.3862	0.1	64.533
992	19.606	5.4593	0.1	64.082
993	21.265	4.8591	0.1	30.891
994	20.723	4.3012	0.1	39.748
995	20.706	5.4378	0.1	39.302
996	22.364	4.8405	0.1	16.933
997	21.804	5.4213	0.1	21.518
998	22.907	5.4191	0.1	10.477
999	23.458	4.8191	0.1	9.871
1000	5.3095	2.2968	0.1	2904.6
1001	4.6732	2.7859	0.1	1777.6
1002	4.9895	3.6046	0.1	2666.9
1003	9.1955	4.0124	0.1	628.86
1004	10.253	3.9579	0.1	545.67
1005	11.333	3.9188	0.1	468.23
1006	12.429	3.9033	0.1	394.45
1007	13.531	3.9033	0.1	326.06
1008	14.633	3.9033	0.1	263.76
1009	15.734	3.9127	0.1	208.03
1010	16.836	3.9297	0.1	158.91
1011	17.945	3.9328	0.1	116.62
1012	19.066	3.891	0.1	81.302
1013	20.179	3.7902	0.1	52.93
1014	19.03	2.0595	0.1	82.151
1015	17.94	1.976	0.1	116.56
1016	16.847	1.9626	0.1	158.58
1017	15.742	1.9743	0.1	207.64
1018	14.635	2.007	0.1	263.62
1019	13.531	2.0242	0.1	326.01
1020	12.428	2.0078	0.1	394.61
1021	11.321	1.9864	0.1	468.89
1022	10.224	1.9958	0.1	548.03
1023	9.1453	2.0261	0.1	633.52
1024	7.1535	3.507	0.1	927.96
1025	4.1229	2.4043	0.1	1484.8
1026	6.4095	3.8294	0.1	1117.8
1027	4.4251	2.0231	0.1	1450.1
1028	4.7414	1.5918	0.1	1574.1
1029	5.5868	4.9013	0.1	739.3
1030	4.8188	4.4774	0.1	1548.
1031	5.5812	1.1189	0.1	695.6
1032	5.6455	3.9041	0.1	2205.1
1033	4.7837	2.1813	0.1	2745.
1034	5.2667	5.25	0.1	658.08
1035	5.2667	5.75	0.1	424.97
1036	5.2667	5.5	5.e-002	92.448
1037	5.2667	4.75	0.1	1241.3
1038	5.2667	5.	5.e-002	177.69
1039	5.2667	4.25	0.1	2339.5
1040	5.2667	4.5	5.e-002	201.28
1041	5.1833	4.	0.1	2979.2
1042	5.2667	4.	5.e-002	93.769
1043	5.1	4.25	0.1	2421.5
1044	5.1	4.	5.e-002	196.55
1045	5.1	4.75	0.1	1361.7
1046	5.1	4.5	5.e-002	311.36
1047	5.1	5.25	0.1	684.25
1048	5.1	5.	5.e-002	217.24
1049	5.1	5.75	0.1	423.4
1050	5.1	5.5	5.e-002	118.12
1051	5.2667	0.75	0.1	623.24
1052	5.2667	0.25	0.1	426.43
1053	5.2667	0.5	5.e-002	101.5
1054	5.2667	1.25	0.1	1110.9
1055	5.2667	1.	5.e-002	130.88
1056	5.2667	1.75	0.1	2597.7
1057	5.2667	1.5	5.e-002	204.23
1058	5.1833	2.	0.1	3473.1
1059	5.2667	2.	5.e-002	236.45
1060	5.1	1.75	0.1	2761.1
1061	5.1	2.	5.e-002	198.99
1062	5.1	1.25	0.1	1472.2
1063	5.1	1.5	5.e-002	327.34
1064	5.1	0.75	0.1	711.94
1065	5.1	1.	5.e-002	138.61
1066	5.1	0.25	0.1	453.53
1067	5.1	0.5	5.e-002	68.07
1068	5.8176	6.	0.1	429.15
1069	5.2667	6.	5.e-002	58.65
1070	6.9196	6.	0.1	621.69
1071	6.3686	6.	5.e-002	11.361
1072	8.0216	6.	0.1	696.33
1073	7.4706	6.	5.e-002	1.8372
1074	9.1235	6.	0.1	646.16
1075	8.5725	6.	5.e-002	11.729
1076	10.225	6.	0.1	562.39
1077	9.6745	6.	5.e-002	13.497
1078	11.327	6.	0.1	478.34
1079	10.776	6.	5.e-002	13.402
1080	12.429	6.	0.1	400.61
1081	11.878	6.	5.e-002	12.959
1082	13.531	6.	0.1	329.64
1083	12.98	6.	5.e-002	12.423
1084	14.633	6.	0.1	265.66
1085	14.082	6.	5.e-002	11.453
1086	15.735	6.	0.1	208.92
1087	15.184	6.	5.e-002	10.272
1088	16.837	6.	0.1	159.21
1089	16.286	6.	5.e-002	9.0986
1090	17.939	6.	0.1	116.54
1091	17.388	6.	5.e-002	7.8349
1092	19.041	6.	0.1	80.711
1093	18.49	6.	5.e-002	6.6763
1094	20.143	6.	0.1	51.98
1095	19.592	6.	5.e-002	5.1559
1096	21.245	6.	0.1	30.428
1097	20.694	6.	5.e-002	3.691
1098	22.347	6.	0.1	15.451
1099	21.796	6.	5.e-002	2.4102
1100	23.449	6.	0.1	7.0261
1101	22.898	6.	5.e-002	1.3368
1102	24.	5.4	0.1	6.2084
1103	24.	6.	5.e-002	0.30754
1104	24.	4.2	0.1	10.308
1105	24.	4.8	5.e-002	0.46654
1106	24.	3.	0.1	12.426
1107	24.	3.6	5.e-002	0.48339
1108	24.	1.8	0.1	10.399
1109	24.	2.4	5.e-002	0.52823
1110	24.	0.6	0.1	6.3259
1111	24.	1.2	5.e-002	0.5279
1112	1.5735e-014	1.8	0.1	1026.7
1113	5.2451e-015	0.6	0.1	841.53
1114	1.0632e-014	1.2	5.e-002	65.952
1115	2.6226e-014	3.	0.1	1055.7
1116	2.1264e-014	2.4	5.e-002	25.99
1117	3.6716e-014	4.2	0.1	1033.5
1118	3.1897e-014	3.6	5.e-002	29.665
1119	4.7206e-014	5.4	0.1	847.63
1120	4.2529e-014	4.8	5.e-002	60.857
1121	23.449	0.	0.1	7.2619
1122	24.	0.	5.e-002	0.29004
1123	22.347	0.	0.1	15.862
1124	22.898	0.	5.e-002	1.3308
1125	21.245	0.	0.1	30.465
1126	21.796	0.	5.e-002	2.4314
1127	20.143	0.	0.1	51.705
1128	20.694	0.	5.e-002	3.365
1129	19.041	0.	0.1	80.633
1130	19.592	0.	5.e-002	5.1353
1131	17.939	0.	0.1	116.51
1132	18.49	0.	5.e-002	6.8532
1133	16.837	0.	0.1	159.07
1134	17.388	0.	5.e-002	8.1666
1135	15.735	0.	0.1	208.85
1136	16.286	0.	5.e-002	9.2907
1137	14.633	0.	0.1	265.66
1138	15.184	0.	5.e-002	10.37
1139	13.531	0.	0.1	329.41
1140	14.082	0.	5.e-002	11.527
1141	12.429	0.	0.1	400.29
1142	12.98	0.	5.e-002	12.573
1143	11.327	0.	0.1	478.51
1144	11.878	0.	5.e-002	13.457
1145	10.225	0.	0.1	562.69
1146	10.776	0.	5.e-002	13.688
1147	9.1235	0.	0.1	644.17
1148	9.6745	0.	5.e-002	12.672
1149	8.0216	0.	0.1	686.33
1150	8.5725	0.	5.e-002	8.7214
1151	6.9196	0.	0.1	609.51
1152	7.4706	0.	5.e-002	3.2183
1153	5.8176	0.	0.1	416.24
1154	6.3686	0.	5.e-002	10.118
1155	5.2667	0.	5.e-002	62.25
1156	4.59	1.9654e-030	0.1	578.11
1157	5.1	2.1837e-030	5.e-002	67.138
1158	3.57	1.5286e-030	0.1	968.25
1159	4.08	0.	5.e-002	17.441
1160	2.55	1.0919e-030	0.1	1293.4
1161	3.06	0.	5.e-002	18.144
1162	1.53	6.5512e-031	0.1	1409.6
1163	2.04	0.	5.e-002	34.366
1164	0.51	2.1837e-031	0.1	1048.
1165	1.02	0.	5.e-002	52.903
1166	0.	0.	5.e-002	381.31
1167	0.51	6.	0.1	1046.5
1168	5.2451e-014	6.	5.e-002	379.76
1169	1.53	6.	0.1	1407.9
1170	1.02	6.	5.e-002	52.96
1171	2.55	6.	0.1	1288.3
1172	2.04	6.	5.e-002	24.807
1173	3.57	6.	0.1	997.39
1174	3.06	6.	5.e-002	2.345
1175	4.59	6.	0.1	617.04
1176	4.08	6.	5.e-002	22.234
1177	5.1	6.	5.e-002	171.15
1178	3.57	6.	0.	997.39
1179	4.59	6.	0.	617.04
1180	2.55	6.	0.	1288.3
1181	1.53	6.	0.	1407.9
1182	0.51	6.	0.	1046.5
1183	5.1	5.75	0.	423.4
1184	4.7206e-014	5.4	0.	847.63
1185	1.53	6.5512e-031	0.	1409.6
1186	0.51	2.1837e-031	0.	1048.
1187	2.55	1.0919e-030	0.	1293.4
1188	3.57	1.5286e-030	0.	968.25
1189	4.59	1.9654e-030	0.	578.11
1190	5.1	0.25	0.	453.53
1191	5.2451e-015	0.6	0.	841.53
1192	6.9196	0.	0.	609.51
1193	5.8176	0.	0.	416.24
1194	8.0216	0.	0.	686.33
1195	9.1235	0.	0.	644.17
1196	10.225	0.	0.	562.69
1197	11.327	0.	0.	478.51
1198	12.429	0.	0.	400.29
1199	13.531	0.	0.	329.41
1200	14.633	0.	0.	265.66
1201	15.735	0.	0.	208.85
1202	16.837	0.	0.	159.07
1203	17.939	0.	0.	116.51
1204	19.041	0.	0.	80.633
1205	20.143	0.	0.	51.705
1206	21.245	0.	0.	30.465
1207	22.347	0.	0.	15.862
1208	23.449	0.	0.	7.2619
1209	5.2667	0.25	0.	426.43
1210	24.	0.6	0.	6.3259
1211	3.6716e-014	4.2	0.	1033.5
1212	2.6226e-014	3.	0.	1055.7
1213	1.5735e-014	1.8	0.	1026.7
1214	24.	1.8	0.	10.399
1215	24.	3.	0.	12.426
1216	24.	4.2	0.	10.308
1217	24.	5.4	0.	6.2084
1218	23.449	6.	0.	7.0261
1219	22.347	6.	0.	15.451
1220	21.245	6.	0.	30.428
1221	20.143	6.	0.	51.98
1222	19.041	6.	0.	80.711
1223	17.939	6.	0.	116.54
1224	16.837	6.	0.	159.21
1225	15.735	6.	0.	208.92
1226	14.633	6.	0.	265.66
1227	13.531	6.	0.	329.64
1228	12.429	6.	0.	400.61
1229	11.327	6.	0.	478.34
1230	10.225	6.	0.	562.39
1231	9.1235	6.	0.	646.16
1232	8.0216	6.	0.	696.33
1233	6.9196	6.	0.	621.69
1234	5.8176	6.	0.	429.15
1235	5.2667	5.75	0.	424.97
1236	5.1	1.25	0.	1472.2
1237	5.1	1.75	0.	2761.1
1238	5.1	0.75	0.	711.94
1239	5.1833	2.	0.	3473.1
1240	5.2667	0.75	0.	623.24
1241	5.2667	1.25	0.	1110.9
1242	5.2667	1.75	0.	2597.7
1243	5.1	4.75	0.	1361.7
1244	5.1	4.25	0.	2421.5
1245	5.1	5.25	0.	684.25
1246	5.1833	4.	0.	2979.2
1247	5.2667	5.25	0.	658.08
1248	5.2667	4.75	0.	1241.3
1249	5.2667	4.25	0.	2339.5
