Node Number	X Location (in)	Y Location (in)	Z Location (in)	Minimum Principal Stress (psi)
1	22.1	2.1818	0.	-1392.
2	22.1	2.3636	0.	-1076.5
3	22.1	2.5455	0.	-948.5
4	22.1	2.7273	0.	-883.09
5	22.1	2.9091	0.	-855.37
6	22.1	3.0909	0.	-855.37
7	22.1	3.2727	0.	-883.09
8	22.1	3.4545	0.	-948.5
9	22.1	3.6364	0.	-1076.5
10	22.1	3.8182	0.	-1392.
11	22.44	2.	0.	-1029.1
12	22.613	2.	0.	-667.74
13	22.787	2.	0.	-509.39
14	22.96	2.	0.	-400.26
15	23.133	2.	0.	-319.09
16	23.307	2.	0.	-254.87
17	23.48	2.	0.	-203.51
18	23.653	2.	0.	-164.08
19	23.827	2.	0.	-139.81
20	23.827	4.	0.	-139.81
21	23.653	4.	0.	-164.08
22	23.48	4.	0.	-203.51
23	23.307	4.	0.	-254.87
24	23.133	4.	0.	-319.09
25	22.96	4.	0.	-400.26
26	22.787	4.	0.	-509.39
27	22.613	4.	0.	-667.74
28	22.44	4.	0.	-1029.1
29	21.916	5.8182	0.	-94.554
30	21.916	5.6364	0.	-126.22
31	21.916	5.4545	0.	-162.48
32	21.916	5.2727	0.	-200.77
33	21.916	5.0909	0.	-242.08
34	21.916	4.9091	0.	-288.51
35	21.916	4.7273	0.	-343.48
36	21.916	4.5455	0.	-416.17
37	21.916	4.3636	0.	-517.58
38	21.916	4.1818	0.	-733.21
39	21.916	4.	0.	-1033.7
40	21.916	3.8182	0.	-1023.6
41	21.916	3.6364	0.	-966.83
42	21.916	3.4545	0.	-907.64
43	21.916	3.2727	0.	-872.54
44	21.916	3.0909	0.	-855.53
45	21.916	2.9091	0.	-855.53
46	21.916	2.7273	0.	-872.54
47	21.916	2.5455	0.	-907.64
48	21.916	2.3636	0.	-966.83
49	21.916	2.1818	0.	-1023.6
50	21.916	2.	0.	-1033.7
51	21.916	1.8182	0.	-733.21
52	21.916	1.6364	0.	-517.58
53	21.916	1.4545	0.	-416.17
54	21.916	1.2727	0.	-343.48
55	21.916	1.0909	0.	-288.51
56	21.916	0.90909	0.	-242.08
57	21.916	0.72727	0.	-200.77
58	21.916	0.54545	0.	-162.48
59	21.916	0.36364	0.	-126.22
60	21.916	0.18182	0.	-94.554
61	21.732	5.8182	0.	-163.84
62	21.732	5.6364	0.	-183.19
63	21.732	5.4545	0.	-211.13
64	21.732	5.2727	0.	-244.87
65	21.732	5.0909	0.	-284.01
66	21.732	4.9091	0.	-329.85
67	21.732	4.7273	0.	-385.66
68	21.732	4.5455	0.	-456.21
69	21.732	4.3636	0.	-552.75
70	21.732	4.1818	0.	-668.54
71	21.732	4.	0.	-772.76
72	21.732	3.8182	0.	-836.77
73	21.732	3.6364	0.	-853.93
74	21.732	3.4545	0.	-849.42
75	21.732	3.2727	0.	-841.13
76	21.732	3.0909	0.	-835.66
77	21.732	2.9091	0.	-835.66
78	21.732	2.7273	0.	-841.13
79	21.732	2.5455	0.	-849.42
80	21.732	2.3636	0.	-853.93
81	21.732	2.1818	0.	-836.77
82	21.732	2.	0.	-772.76
83	21.732	1.8182	0.	-668.54
84	21.732	1.6364	0.	-552.75
85	21.732	1.4545	0.	-456.21
86	21.732	1.2727	0.	-385.66
87	21.732	1.0909	0.	-329.85
88	21.732	0.90909	0.	-284.01
89	21.732	0.72727	0.	-244.87
90	21.732	0.54545	0.	-211.13
91	21.732	0.36364	0.	-183.19
92	21.732	0.18182	0.	-163.84
93	21.548	5.8182	0.	-239.41
94	21.548	5.6364	0.	-255.19
95	21.548	5.4545	0.	-278.44
96	21.548	5.2727	0.	-308.6
97	21.548	5.0909	0.	-345.37
98	21.548	4.9091	0.	-389.39
99	21.548	4.7273	0.	-442.1
100	21.548	4.5455	0.	-505.42
101	21.548	4.3636	0.	-578.29
102	21.548	4.1818	0.	-654.37
103	21.548	4.	0.	-719.98
104	21.548	3.8182	0.	-764.52
105	21.548	3.6364	0.	-791.46
106	21.548	3.4545	0.	-804.56
107	21.548	3.2727	0.	-809.62
108	21.548	3.0909	0.	-811.12
109	21.548	2.9091	0.	-811.12
110	21.548	2.7273	0.	-809.62
111	21.548	2.5455	0.	-804.56
112	21.548	2.3636	0.	-791.46
113	21.548	2.1818	0.	-764.52
114	21.548	2.	0.	-719.98
115	21.548	1.8182	0.	-654.37
116	21.548	1.6364	0.	-578.29
117	21.548	1.4545	0.	-505.42
118	21.548	1.2727	0.	-442.1
119	21.548	1.0909	0.	-389.39
120	21.548	0.90909	0.	-345.37
121	21.548	0.72727	0.	-308.6
122	21.548	0.54545	0.	-278.44
123	21.548	0.36364	0.	-255.19
124	21.548	0.18182	0.	-239.41
125	21.363	5.8182	0.	-314.84
126	21.363	5.6364	0.	-329.22
127	21.363	5.4545	0.	-349.64
128	21.363	5.2727	0.	-376.5
129	21.363	5.0909	0.	-409.76
130	21.363	4.9091	0.	-449.51
131	21.363	4.7273	0.	-495.81
132	21.363	4.5455	0.	-548.06
133	21.363	4.3636	0.	-603.88
134	21.363	4.1818	0.	-657.81
135	21.363	4.	0.	-703.95
136	21.363	3.8182	0.	-738.93
137	21.363	3.6364	0.	-763.23
138	21.363	3.4545	0.	-779.
139	21.363	3.2727	0.	-788.11
140	21.363	3.0909	0.	-792.19
141	21.363	2.9091	0.	-792.19
142	21.363	2.7273	0.	-788.11
143	21.363	2.5455	0.	-779.
144	21.363	2.3636	0.	-763.23
145	21.363	2.1818	0.	-738.93
146	21.363	2.	0.	-703.95
147	21.363	1.8182	0.	-657.81
148	21.363	1.6364	0.	-603.88
149	21.363	1.4545	0.	-548.06
150	21.363	1.2727	0.	-495.81
151	21.363	1.0909	0.	-449.51
152	21.363	0.90909	0.	-409.76
153	21.363	0.72727	0.	-376.5
154	21.363	0.54545	0.	-349.64
155	21.363	0.36364	0.	-329.22
156	21.363	0.18182	0.	-314.84
157	21.179	5.8182	0.	-388.49
158	21.179	5.6364	0.	-401.88
159	21.179	5.4545	0.	-420.19
160	21.179	5.2727	0.	-444.
161	21.179	5.0909	0.	-473.26
162	21.179	4.9091	0.	-507.72
163	21.179	4.7273	0.	-546.73
164	21.179	4.5455	0.	-588.95
165	21.179	4.3636	0.	-631.88
166	21.179	4.1818	0.	-672.22
167	21.179	4.	0.	-706.89
168	21.179	3.8182	0.	-734.38
169	21.179	3.6364	0.	-754.87
170	21.179	3.4545	0.	-769.26
171	21.179	3.2727	0.	-778.38
172	21.179	3.0909	0.	-782.79
173	21.179	2.9091	0.	-782.79
174	21.179	2.7273	0.	-778.38
175	21.179	2.5455	0.	-769.26
176	21.179	2.3636	0.	-754.87
177	21.179	2.1818	0.	-734.38
178	21.179	2.	0.	-706.89
179	21.179	1.8182	0.	-672.22
180	21.179	1.6364	0.	-631.88
181	21.179	1.4545	0.	-588.95
182	21.179	1.2727	0.	-546.73
183	21.179	1.0909	0.	-507.72
184	21.179	0.90909	0.	-473.26
185	21.179	0.72727	0.	-444.
186	21.179	0.54545	0.	-420.19
187	21.179	0.36364	0.	-401.88
188	21.179	0.18182	0.	-388.49
189	20.995	5.8182	0.	-459.37
190	20.995	5.6364	0.	-471.67
191	20.995	5.4545	0.	-488.06
192	20.995	5.2727	0.	-508.96
193	20.995	5.0909	0.	-534.2
194	20.995	4.9091	0.	-563.35
195	20.995	4.7273	0.	-595.52
196	20.995	4.5455	0.	-629.3
197	20.995	4.3636	0.	-662.78
198	20.995	4.1818	0.	-693.79
199	20.995	4.	0.	-720.61
200	20.995	3.8182	0.	-742.37
201	20.995	3.6364	0.	-759.11
202	20.995	3.4545	0.	-771.25
203	20.995	3.2727	0.	-779.17
204	20.995	3.0909	0.	-783.09
205	20.995	2.9091	0.	-783.09
206	20.995	2.7273	0.	-779.17
207	20.995	2.5455	0.	-771.25
208	20.995	2.3636	0.	-759.11
209	20.995	2.1818	0.	-742.37
210	20.995	2.	0.	-720.61
211	20.995	1.8182	0.	-693.79
212	20.995	1.6364	0.	-662.78
213	20.995	1.4545	0.	-629.3
214	20.995	1.2727	0.	-595.52
215	20.995	1.0909	0.	-563.35
216	20.995	0.90909	0.	-534.2
217	20.995	0.72727	0.	-508.96
218	20.995	0.54545	0.	-488.06
219	20.995	0.36364	0.	-471.67
220	20.995	0.18182	0.	-459.37
221	20.811	5.8182	0.	-527.01
222	20.811	5.6364	0.	-538.07
223	20.811	5.4545	0.	-552.57
224	20.811	5.2727	0.	-570.68
225	20.811	5.0909	0.	-592.15
226	20.811	4.9091	0.	-616.44
227	20.811	4.7273	0.	-642.68
228	20.811	4.5455	0.	-669.69
229	20.811	4.3636	0.	-696.01
230	20.811	4.1818	0.	-720.24
231	20.811	4.	0.	-741.28
232	20.811	3.8182	0.	-758.59
233	20.811	3.6364	0.	-772.11
234	20.811	3.4545	0.	-782.04
235	20.811	3.2727	0.	-788.57
236	20.811	3.0909	0.	-791.82
237	20.811	2.9091	0.	-791.82
238	20.811	2.7273	0.	-788.57
239	20.811	2.5455	0.	-782.04
240	20.811	2.3636	0.	-772.11
241	20.811	2.1818	0.	-758.59
242	20.811	2.	0.	-741.28
243	20.811	1.8182	0.	-720.24
244	20.811	1.6364	0.	-696.01
245	20.811	1.4545	0.	-669.69
246	20.811	1.2727	0.	-642.68
247	20.811	1.0909	0.	-616.44
248	20.811	0.90909	0.	-592.15
249	20.811	0.72727	0.	-570.68
250	20.811	0.54545	0.	-552.57
251	20.811	0.36364	0.	-538.07
252	20.811	0.18182	0.	-527.01
253	20.627	5.8182	0.	-591.3
254	20.627	5.6364	0.	-601.
255	20.627	5.4545	0.	-613.66
256	20.627	5.2727	0.	-629.19
257	20.627	5.0909	0.	-647.24
258	20.627	4.9091	0.	-667.31
259	20.627	4.7273	0.	-688.62
260	20.627	4.5455	0.	-710.22
261	20.627	4.3636	0.	-731.07
262	20.627	4.1818	0.	-750.17
263	20.627	4.	0.	-766.82
264	20.627	3.8182	0.	-780.62
265	20.627	3.6364	0.	-791.49
266	20.627	3.4545	0.	-799.51
267	20.627	3.2727	0.	-804.8
268	20.627	3.0909	0.	-807.43
269	20.627	2.9091	0.	-807.43
270	20.627	2.7273	0.	-804.8
271	20.627	2.5455	0.	-799.51
272	20.627	2.3636	0.	-791.49
273	20.627	2.1818	0.	-780.62
274	20.627	2.	0.	-766.82
275	20.627	1.8182	0.	-750.17
276	20.627	1.6364	0.	-731.07
277	20.627	1.4545	0.	-710.22
278	20.627	1.2727	0.	-688.62
279	20.627	1.0909	0.	-667.31
280	20.627	0.90909	0.	-647.24
281	20.627	0.72727	0.	-629.19
282	20.627	0.54545	0.	-613.66
283	20.627	0.36364	0.	-601.
284	20.627	0.18182	0.	-591.3
285	20.442	5.8182	0.	-652.39
286	20.442	5.6364	0.	-660.7
287	20.442	5.4545	0.	-671.61
288	20.442	5.2727	0.	-684.78
289	20.442	5.0909	0.	-699.86
290	20.442	4.9091	0.	-716.35
291	20.442	4.7273	0.	-733.62
292	20.442	4.5455	0.	-750.94
293	20.442	4.3636	0.	-767.52
294	20.442	4.1818	0.	-782.69
295	20.442	4.	0.	-795.93
296	20.442	3.8182	0.	-806.95
297	20.442	3.6364	0.	-815.68
298	20.442	3.4545	0.	-822.14
299	20.442	3.2727	0.	-826.4
300	20.442	3.0909	0.	-828.52
301	20.442	2.9091	0.	-828.52
302	20.442	2.7273	0.	-826.4
303	20.442	2.5455	0.	-822.14
304	20.442	2.3636	0.	-815.68
305	20.442	2.1818	0.	-806.95
306	20.442	2.	0.	-795.93
307	20.442	1.8182	0.	-782.69
308	20.442	1.6364	0.	-767.52
309	20.442	1.4545	0.	-750.94
310	20.442	1.2727	0.	-733.62
311	20.442	1.0909	0.	-716.35
312	20.442	0.90909	0.	-699.86
313	20.442	0.72727	0.	-684.78
314	20.442	0.54545	0.	-671.61
315	20.442	0.36364	0.	-660.7
316	20.442	0.18182	0.	-652.39
317	20.258	5.8182	0.	-710.54
318	20.258	5.6364	0.	-717.49
319	20.258	5.4545	0.	-726.79
320	20.258	5.2727	0.	-737.89
321	20.258	5.0909	0.	-750.4
322	20.258	4.9091	0.	-763.92
323	20.258	4.7273	0.	-777.92
324	20.258	4.5455	0.	-791.83
325	20.258	4.3636	0.	-805.08
326	20.258	4.1818	0.	-817.17
327	20.258	4.	0.	-827.74
328	20.258	3.8182	0.	-836.57
329	20.258	3.6364	0.	-843.59
330	20.258	3.4545	0.	-848.78
331	20.258	3.2727	0.	-852.21
332	20.258	3.0909	0.	-853.92
333	20.258	2.9091	0.	-853.92
334	20.258	2.7273	0.	-852.21
335	20.258	2.5455	0.	-848.78
336	20.258	2.3636	0.	-843.59
337	20.258	2.1818	0.	-836.57
338	20.258	2.	0.	-827.74
339	20.258	1.8182	0.	-817.17
340	20.258	1.6364	0.	-805.08
341	20.258	1.4545	0.	-791.83
342	20.258	1.2727	0.	-777.92
343	20.258	1.0909	0.	-763.92
344	20.258	0.90909	0.	-750.4
345	20.258	0.72727	0.	-737.89
346	20.258	0.54545	0.	-726.79
347	20.258	0.36364	0.	-717.49
348	20.258	0.18182	0.	-710.54
349	20.074	5.8182	0.	-766.11
350	20.074	5.6364	0.	-771.79
351	20.074	5.4545	0.	-779.64
352	20.074	5.2727	0.	-788.92
353	20.074	5.0909	0.	-799.27
354	20.074	4.9091	0.	-810.33
355	20.074	4.7273	0.	-821.69
356	20.074	4.5455	0.	-832.89
357	20.074	4.3636	0.	-843.51
358	20.074	4.1818	0.	-853.19
359	20.074	4.	0.	-861.66
360	20.074	3.8182	0.	-868.75
361	20.074	3.6364	0.	-874.39
362	20.074	3.4545	0.	-878.59
363	20.074	3.2727	0.	-881.35
364	20.074	3.0909	0.	-882.73
365	20.074	2.9091	0.	-882.73
366	20.074	2.7273	0.	-881.35
367	20.074	2.5455	0.	-878.59
368	20.074	2.3636	0.	-874.39
369	20.074	2.1818	0.	-868.75
370	20.074	2.	0.	-861.66
371	20.074	1.8182	0.	-853.19
372	20.074	1.6364	0.	-843.51
373	20.074	1.4545	0.	-832.89
374	20.074	1.2727	0.	-821.69
375	20.074	1.0909	0.	-810.33
376	20.074	0.90909	0.	-799.27
377	20.074	0.72727	0.	-788.92
378	20.074	0.54545	0.	-779.64
379	20.074	0.36364	0.	-771.79
380	20.074	0.18182	0.	-766.11
381	19.89	5.8182	0.	-819.46
382	19.89	5.6364	0.	-823.98
383	19.89	5.4545	0.	-830.55
384	19.89	5.2727	0.	-838.28
385	19.89	5.0909	0.	-846.82
386	19.89	4.9091	0.	-855.86
387	19.89	4.7273	0.	-865.07
388	19.89	4.5455	0.	-874.11
389	19.89	4.3636	0.	-882.66
390	19.89	4.1818	0.	-890.43
391	19.89	4.	0.	-897.24
392	19.89	3.8182	0.	-902.95
393	19.89	3.6364	0.	-907.5
394	19.89	3.4545	0.	-910.89
395	19.89	3.2727	0.	-913.12
396	19.89	3.0909	0.	-914.24
397	19.89	2.9091	0.	-914.24
398	19.89	2.7273	0.	-913.12
399	19.89	2.5455	0.	-910.89
400	19.89	2.3636	0.	-907.5
401	19.89	2.1818	0.	-902.95
402	19.89	2.	0.	-897.24
403	19.89	1.8182	0.	-890.43
404	19.89	1.6364	0.	-882.66
405	19.89	1.4545	0.	-874.11
406	19.89	1.2727	0.	-865.07
407	19.89	1.0909	0.	-855.86
408	19.89	0.90909	0.	-846.82
409	19.89	0.72727	0.	-838.28
410	19.89	0.54545	0.	-830.55
411	19.89	0.36364	0.	-823.98
412	19.89	0.18182	0.	-819.46
413	19.706	5.8182	0.	-870.95
414	19.706	5.6364	0.	-874.43
415	19.706	5.4545	0.	-879.89
416	19.706	5.2727	0.	-886.3
417	19.706	5.0909	0.	-893.32
418	19.706	4.9091	0.	-900.71
419	19.706	4.7273	0.	-908.19
420	19.706	4.5455	0.	-915.51
421	19.706	4.3636	0.	-922.4
422	19.706	4.1818	0.	-928.66
423	19.706	4.	0.	-934.15
424	19.706	3.8182	0.	-938.76
425	19.706	3.6364	0.	-942.44
426	19.706	3.4545	0.	-945.18
427	19.706	3.2727	0.	-947.
428	19.706	3.0909	0.	-947.9
429	19.706	2.9091	0.	-947.9
430	19.706	2.7273	0.	-947.
431	19.706	2.5455	0.	-945.18
432	19.706	2.3636	0.	-942.44
433	19.706	2.1818	0.	-938.76
434	19.706	2.	0.	-934.15
435	19.706	1.8182	0.	-928.66
436	19.706	1.6364	0.	-922.4
437	19.706	1.4545	0.	-915.51
438	19.706	1.2727	0.	-908.2
439	19.706	1.0909	0.	-900.71
440	19.706	0.90909	0.	-893.32
441	19.706	0.72727	0.	-886.3
442	19.706	0.54545	0.	-879.89
443	19.706	0.36364	0.	-874.43
444	19.706	0.18182	0.	-870.95
445	19.522	5.8182	0.	-920.91
446	19.522	5.6364	0.	-923.47
447	19.522	5.4545	0.	-927.97
448	19.522	5.2727	0.	-933.26
449	19.522	5.0909	0.	-939.02
450	19.522	4.9091	0.	-945.06
451	19.522	4.7273	0.	-951.15
452	19.522	4.5455	0.	-957.07
453	19.522	4.3636	0.	-962.64
454	19.522	4.1818	0.	-967.71
455	19.522	4.	0.	-972.14
456	19.522	3.8182	0.	-975.87
457	19.522	3.6364	0.	-978.86
458	19.522	3.4545	0.	-981.08
459	19.522	3.2727	0.	-982.56
460	19.522	3.0909	0.	-983.3
461	19.522	2.9091	0.	-983.3
462	19.522	2.7273	0.	-982.56
463	19.522	2.5455	0.	-981.08
464	19.522	2.3636	0.	-978.86
465	19.522	2.1818	0.	-975.87
466	19.522	2.	0.	-972.14
467	19.522	1.8182	0.	-967.71
468	19.522	1.6364	0.	-962.64
469	19.522	1.4545	0.	-957.07
470	19.522	1.2727	0.	-951.15
471	19.522	1.0909	0.	-945.06
472	19.522	0.90909	0.	-939.02
473	19.522	0.72727	0.	-933.26
474	19.522	0.54545	0.	-927.97
475	19.522	0.36364	0.	-923.47
476	19.522	0.18182	0.	-920.91
477	19.337	5.8182	0.	-969.62
478	19.337	5.6364	0.	-971.38
479	19.337	5.4545	0.	-975.06
480	19.337	5.2727	0.	-979.4
481	19.337	5.0909	0.	-984.12
482	19.337	4.9091	0.	-989.05
483	19.337	4.7273	0.	-994.
484	19.337	4.5455	0.	-998.81
485	19.337	4.3636	0.	-1003.3
486	19.337	4.1818	0.	-1007.4
487	19.337	4.	0.	-1011.
488	19.337	3.8182	0.	-1014.
489	19.337	3.6364	0.	-1016.5
490	19.337	3.4545	0.	-1018.3
491	19.337	3.2727	0.	-1019.5
492	19.337	3.0909	0.	-1020.1
493	19.337	2.9091	0.	-1020.1
494	19.337	2.7273	0.	-1019.5
495	19.337	2.5455	0.	-1018.3
496	19.337	2.3636	0.	-1016.5
497	19.337	2.1818	0.	-1014.
498	19.337	2.	0.	-1011.
499	19.337	1.8182	0.	-1007.4
500	19.337	1.6364	0.	-1003.3
501	19.337	1.4545	0.	-998.81
502	19.337	1.2727	0.	-994.
503	19.337	1.0909	0.	-989.05
504	19.337	0.90909	0.	-984.12
505	19.337	0.72727	0.	-979.4
506	19.337	0.54545	0.	-975.06
507	19.337	0.36364	0.	-971.38
508	19.337	0.18182	0.	-969.62
509	19.153	5.8182	0.	-1017.3
510	19.153	5.6364	0.	-1018.4
511	19.153	5.4545	0.	-1021.4
512	19.153	5.2727	0.	-1024.9
513	19.153	5.0909	0.	-1028.8
514	19.153	4.9091	0.	-1032.8
515	19.153	4.7273	0.	-1036.8
516	19.153	4.5455	0.	-1040.7
517	19.153	4.3636	0.	-1044.4
518	19.153	4.1818	0.	-1047.7
519	19.153	4.	0.	-1050.6
520	19.153	3.8182	0.	-1053.1
521	19.153	3.6364	0.	-1055.1
522	19.153	3.4545	0.	-1056.6
523	19.153	3.2727	0.	-1057.5
524	19.153	3.0909	0.	-1058.
525	19.153	2.9091	0.	-1058.
526	19.153	2.7273	0.	-1057.5
527	19.153	2.5455	0.	-1056.6
528	19.153	2.3636	0.	-1055.1
529	19.153	2.1818	0.	-1053.1
530	19.153	2.	0.	-1050.6
531	19.153	1.8182	0.	-1047.7
532	19.153	1.6364	0.	-1044.4
533	19.153	1.4545	0.	-1040.7
534	19.153	1.2727	0.	-1036.8
535	19.153	1.0909	0.	-1032.8
536	19.153	0.90909	0.	-1028.8
537	19.153	0.72727	0.	-1024.9
538	19.153	0.54545	0.	-1021.4
539	19.153	0.36364	0.	-1018.4
540	19.153	0.18182	0.	-1017.3
541	18.969	5.8182	0.	-1064.2
542	18.969	5.6364	0.	-1064.7
543	18.969	5.4545	0.	-1067.1
544	18.969	5.2727	0.	-1070.
545	18.969	5.0909	0.	-1073.1
546	18.969	4.9091	0.	-1076.4
547	18.969	4.7273	0.	-1079.6
548	18.969	4.5455	0.	-1082.8
549	18.969	4.3636	0.	-1085.8
550	18.969	4.1818	0.	-1088.5
551	18.969	4.	0.	-1090.9
552	18.969	3.8182	0.	-1092.9
553	18.969	3.6364	0.	-1094.5
554	18.969	3.4545	0.	-1095.7
555	18.969	3.2727	0.	-1096.5
556	18.969	3.0909	0.	-1096.9
557	18.969	2.9091	0.	-1096.9
558	18.969	2.7273	0.	-1096.5
559	18.969	2.5455	0.	-1095.7
560	18.969	2.3636	0.	-1094.5
561	18.969	2.1818	0.	-1092.9
562	18.969	2.	0.	-1090.9
563	18.969	1.8182	0.	-1088.5
564	18.969	1.6364	0.	-1085.8
565	18.969	1.4545	0.	-1082.8
566	18.969	1.2727	0.	-1079.6
567	18.969	1.0909	0.	-1076.4
568	18.969	0.90909	0.	-1073.1
569	18.969	0.72727	0.	-1070.
570	18.969	0.54545	0.	-1067.1
571	18.969	0.36364	0.	-1064.7
572	18.969	0.18182	0.	-1064.2
573	18.785	5.8182	0.	-1110.5
574	18.785	5.6364	0.	-1110.5
575	18.785	5.4545	0.	-1112.4
576	18.785	5.2727	0.	-1114.7
577	18.785	5.0909	0.	-1117.2
578	18.785	4.9091	0.	-1119.9
579	18.785	4.7273	0.	-1122.5
580	18.785	4.5455	0.	-1125.1
581	18.785	4.3636	0.	-1127.5
582	18.785	4.1818	0.	-1129.7
583	18.785	4.	0.	-1131.7
584	18.785	3.8182	0.	-1133.3
585	18.785	3.6364	0.	-1134.6
586	18.785	3.4545	0.	-1135.6
587	18.785	3.2727	0.	-1136.3
588	18.785	3.0909	0.	-1136.6
589	18.785	2.9091	0.	-1136.6
590	18.785	2.7273	0.	-1136.3
591	18.785	2.5455	0.	-1135.6
592	18.785	2.3636	0.	-1134.6
593	18.785	2.1818	0.	-1133.3
594	18.785	2.	0.	-1131.7
595	18.785	1.8182	0.	-1129.7
596	18.785	1.6364	0.	-1127.5
597	18.785	1.4545	0.	-1125.1
598	18.785	1.2727	0.	-1122.5
599	18.785	1.0909	0.	-1119.9
600	18.785	0.90909	0.	-1117.2
601	18.785	0.72727	0.	-1114.7
602	18.785	0.54545	0.	-1112.4
603	18.785	0.36364	0.	-1110.5
604	18.785	0.18182	0.	-1110.5
605	18.601	5.8182	0.	-1156.3
606	18.601	5.6364	0.	-1155.9
607	18.601	5.4545	0.	-1157.3
608	18.601	5.2727	0.	-1159.1
609	18.601	5.0909	0.	-1161.2
610	18.601	4.9091	0.	-1163.3
611	18.601	4.7273	0.	-1165.5
612	18.601	4.5455	0.	-1167.6
613	18.601	4.3636	0.	-1169.5
614	18.601	4.1818	0.	-1171.3
615	18.601	4.	0.	-1172.9
616	18.601	3.8182	0.	-1174.2
617	18.601	3.6364	0.	-1175.3
618	18.601	3.4545	0.	-1176.1
619	18.601	3.2727	0.	-1176.7
620	18.601	3.0909	0.	-1176.9
621	18.601	2.9091	0.	-1176.9
622	18.601	2.7273	0.	-1176.7
623	18.601	2.5455	0.	-1176.1
624	18.601	2.3636	0.	-1175.3
625	18.601	2.1818	0.	-1174.2
626	18.601	2.	0.	-1172.9
627	18.601	1.8182	0.	-1171.3
628	18.601	1.6364	0.	-1169.5
629	18.601	1.4545	0.	-1167.6
630	18.601	1.2727	0.	-1165.5
631	18.601	1.0909	0.	-1163.3
632	18.601	0.90909	0.	-1161.2
633	18.601	0.72727	0.	-1159.1
634	18.601	0.54545	0.	-1157.3
635	18.601	0.36364	0.	-1155.9
636	18.601	0.18182	0.	-1156.3
637	18.417	5.8182	0.	-1201.8
638	18.417	5.6364	0.	-1200.9
639	18.417	5.4545	0.	-1202.
640	18.417	5.2727	0.	-1203.5
641	18.417	5.0909	0.	-1205.1
642	18.417	4.9091	0.	-1206.8
643	18.417	4.7273	0.	-1208.5
644	18.417	4.5455	0.	-1210.2
645	18.417	4.3636	0.	-1211.8
646	18.417	4.1818	0.	-1213.3
647	18.417	4.	0.	-1214.5
648	18.417	3.8182	0.	-1215.6
649	18.417	3.6364	0.	-1216.5
650	18.417	3.4545	0.	-1217.2
651	18.417	3.2727	0.	-1217.6
652	18.417	3.0909	0.	-1217.8
653	18.417	2.9091	0.	-1217.8
654	18.417	2.7273	0.	-1217.6
655	18.417	2.5455	0.	-1217.2
656	18.417	2.3636	0.	-1216.5
657	18.417	2.1818	0.	-1215.6
658	18.417	2.	0.	-1214.5
659	18.417	1.8182	0.	-1213.3
660	18.417	1.6364	0.	-1211.8
661	18.417	1.4545	0.	-1210.2
662	18.417	1.2727	0.	-1208.5
663	18.417	1.0909	0.	-1206.8
664	18.417	0.90909	0.	-1205.1
665	18.417	0.72727	0.	-1203.5
666	18.417	0.54545	0.	-1202.
667	18.417	0.36364	0.	-1200.9
668	18.417	0.18182	0.	-1201.8
669	18.233	5.8182	0.	-1247.
670	18.233	5.6364	0.	-1245.8
671	18.233	5.4545	0.	-1246.6
672	18.233	5.2727	0.	-1247.7
673	18.233	5.0909	0.	-1249.
674	18.233	4.9091	0.	-1250.3
675	18.233	4.7273	0.	-1251.7
676	18.233	4.5455	0.	-1253.1
677	18.233	4.3636	0.	-1254.3
678	18.233	4.1818	0.	-1255.5
679	18.233	4.	0.	-1256.6
680	18.233	3.8182	0.	-1257.4
681	18.233	3.6364	0.	-1258.2
682	18.233	3.4545	0.	-1258.7
683	18.233	3.2727	0.	-1259.1
684	18.233	3.0909	0.	-1259.2
685	18.233	2.9091	0.	-1259.2
686	18.233	2.7273	0.	-1259.1
687	18.233	2.5455	0.	-1258.7
688	18.233	2.3636	0.	-1258.2
689	18.233	2.1818	0.	-1257.4
690	18.233	2.	0.	-1256.6
691	18.233	1.8182	0.	-1255.5
692	18.233	1.6364	0.	-1254.3
693	18.233	1.4545	0.	-1253.1
694	18.233	1.2727	0.	-1251.7
695	18.233	1.0909	0.	-1250.3
696	18.233	0.90909	0.	-1249.
697	18.233	0.72727	0.	-1247.7
698	18.233	0.54545	0.	-1246.6
699	18.233	0.36364	0.	-1245.8
700	18.233	0.18182	0.	-1247.
701	18.048	5.8182	0.	-1292.
702	18.048	5.6364	0.	-1290.6
703	18.048	5.4545	0.	-1291.1
704	18.048	5.2727	0.	-1291.9
705	18.048	5.0909	0.	-1292.9
706	18.048	4.9091	0.	-1293.9
707	18.048	4.7273	0.	-1295.
708	18.048	4.5455	0.	-1296.1
709	18.048	4.3636	0.	-1297.1
710	18.048	4.1818	0.	-1298.1
711	18.048	4.	0.	-1298.9
712	18.048	3.8182	0.	-1299.6
713	18.048	3.6364	0.	-1300.2
714	18.048	3.4545	0.	-1300.6
715	18.048	3.2727	0.	-1300.9
716	18.048	3.0909	0.	-1301.1
717	18.048	2.9091	0.	-1301.1
718	18.048	2.7273	0.	-1300.9
719	18.048	2.5455	0.	-1300.6
720	18.048	2.3636	0.	-1300.2
721	18.048	2.1818	0.	-1299.6
722	18.048	2.	0.	-1298.9
723	18.048	1.8182	0.	-1298.1
724	18.048	1.6364	0.	-1297.1
725	18.048	1.4545	0.	-1296.1
726	18.048	1.2727	0.	-1295.
727	18.048	1.0909	0.	-1293.9
728	18.048	0.90909	0.	-1292.9
729	18.048	0.72727	0.	-1291.9
730	18.048	0.54545	0.	-1291.1
731	18.048	0.36364	0.	-1290.6
732	18.048	0.18182	0.	-1292.
733	17.864	5.8182	0.	-1336.9
734	17.864	5.6364	0.	-1335.2
735	17.864	5.4545	0.	-1335.5
736	17.864	5.2727	0.	-1336.1
737	17.864	5.0909	0.	-1336.8
738	17.864	4.9091	0.	-1337.6
739	17.864	4.7273	0.	-1338.5
740	17.864	4.5455	0.	-1339.3
741	17.864	4.3636	0.	-1340.1
742	17.864	4.1818	0.	-1340.9
743	17.864	4.	0.	-1341.6
744	17.864	3.8182	0.	-1342.1
745	17.864	3.6364	0.	-1342.6
746	17.864	3.4545	0.	-1343.
747	17.864	3.2727	0.	-1343.2
748	17.864	3.0909	0.	-1343.3
749	17.864	2.9091	0.	-1343.3
750	17.864	2.7273	0.	-1343.2
751	17.864	2.5455	0.	-1343.
752	17.864	2.3636	0.	-1342.6
753	17.864	2.1818	0.	-1342.1
754	17.864	2.	0.	-1341.6
755	17.864	1.8182	0.	-1340.9
756	17.864	1.6364	0.	-1340.1
757	17.864	1.4545	0.	-1339.3
758	17.864	1.2727	0.	-1338.5
759	17.864	1.0909	0.	-1337.6
760	17.864	0.90909	0.	-1336.8
761	17.864	0.72727	0.	-1336.1
762	17.864	0.54545	0.	-1335.5
763	17.864	0.36364	0.	-1335.2
764	17.864	0.18182	0.	-1336.9
765	17.68	5.8182	0.	-1381.7
766	17.68	5.6364	0.	-1379.9
767	17.68	5.4545	0.	-1380.
768	17.68	5.2727	0.	-1380.4
769	17.68	5.0909	0.	-1380.9
770	17.68	4.9091	0.	-1381.5
771	17.68	4.7273	0.	-1382.1
772	17.68	4.5455	0.	-1382.7
773	17.68	4.3636	0.	-1383.4
774	17.68	4.1818	0.	-1384.
775	17.68	4.	0.	-1384.5
776	17.68	3.8182	0.	-1384.9
777	17.68	3.6364	0.	-1385.3
778	17.68	3.4545	0.	-1385.6
779	17.68	3.2727	0.	-1385.8
780	17.68	3.0909	0.	-1385.9
781	17.68	2.9091	0.	-1385.9
782	17.68	2.7273	0.	-1385.8
783	17.68	2.5455	0.	-1385.6
784	17.68	2.3636	0.	-1385.3
785	17.68	2.1818	0.	-1384.9
786	17.68	2.	0.	-1384.5
787	17.68	1.8182	0.	-1384.
788	17.68	1.6364	0.	-1383.4
789	17.68	1.4545	0.	-1382.7
790	17.68	1.2727	0.	-1382.1
791	17.68	1.0909	0.	-1381.5
792	17.68	0.90909	0.	-1380.9
793	17.68	0.72727	0.	-1380.4
794	17.68	0.54545	0.	-1380.
795	17.68	0.36364	0.	-1379.9
796	17.68	0.18182	0.	-1381.7
797	17.496	5.8182	0.	-1426.6
798	17.496	5.6364	0.	-1424.6
799	17.496	5.4545	0.	-1424.5
800	17.496	5.2727	0.	-1424.7
801	17.496	5.0909	0.	-1425.
802	17.496	4.9091	0.	-1425.4
803	17.496	4.7273	0.	-1425.9
804	17.496	4.5455	0.	-1426.4
805	17.496	4.3636	0.	-1426.8
806	17.496	4.1818	0.	-1427.3
807	17.496	4.	0.	-1427.7
808	17.496	3.8182	0.	-1428.
809	17.496	3.6364	0.	-1428.3
810	17.496	3.4545	0.	-1428.6
811	17.496	3.2727	0.	-1428.7
812	17.496	3.0909	0.	-1428.8
813	17.496	2.9091	0.	-1428.8
814	17.496	2.7273	0.	-1428.7
815	17.496	2.5455	0.	-1428.6
816	17.496	2.3636	0.	-1428.3
817	17.496	2.1818	0.	-1428.
818	17.496	2.	0.	-1427.7
819	17.496	1.8182	0.	-1427.3
820	17.496	1.6364	0.	-1426.8
821	17.496	1.4545	0.	-1426.4
822	17.496	1.2727	0.	-1425.9
823	17.496	1.0909	0.	-1425.4
824	17.496	0.90909	0.	-1425.
825	17.496	0.72727	0.	-1424.7
826	17.496	0.54545	0.	-1424.5
827	17.496	0.36364	0.	-1424.6
828	17.496	0.18182	0.	-1426.6
829	17.312	5.8182	0.	-1471.4
830	17.312	5.6364	0.	-1469.3
831	17.312	5.4545	0.	-1469.
832	17.312	5.2727	0.	-1469.1
833	17.312	5.0909	0.	-1469.3
834	17.312	4.9091	0.	-1469.5
835	17.312	4.7273	0.	-1469.8
836	17.312	4.5455	0.	-1470.2
837	17.312	4.3636	0.	-1470.5
838	17.312	4.1818	0.	-1470.8
839	17.312	4.	0.	-1471.1
840	17.312	3.8182	0.	-1471.4
841	17.312	3.6364	0.	-1471.6
842	17.312	3.4545	0.	-1471.8
843	17.312	3.2727	0.	-1471.9
844	17.312	3.0909	0.	-1472.
845	17.312	2.9091	0.	-1472.
846	17.312	2.7273	0.	-1471.9
847	17.312	2.5455	0.	-1471.8
848	17.312	2.3636	0.	-1471.6
849	17.312	2.1818	0.	-1471.4
850	17.312	2.	0.	-1471.1
851	17.312	1.8182	0.	-1470.8
852	17.312	1.6364	0.	-1470.5
853	17.312	1.4545	0.	-1470.2
854	17.312	1.2727	0.	-1469.8
855	17.312	1.0909	0.	-1469.5
856	17.312	0.90909	0.	-1469.3
857	17.312	0.72727	0.	-1469.1
858	17.312	0.54545	0.	-1469.
859	17.312	0.36364	0.	-1469.3
860	17.312	0.18182	0.	-1471.4
861	17.128	5.8182	0.	-1516.3
862	17.128	5.6364	0.	-1514.
863	17.128	5.4545	0.	-1513.7
864	17.128	5.2727	0.	-1513.6
865	17.128	5.0909	0.	-1513.6
866	17.128	4.9091	0.	-1513.8
867	17.128	4.7273	0.	-1513.9
868	17.128	4.5455	0.	-1514.2
869	17.128	4.3636	0.	-1514.4
870	17.128	4.1818	0.	-1514.6
871	17.128	4.	0.	-1514.8
872	17.128	3.8182	0.	-1515.
873	17.128	3.6364	0.	-1515.2
874	17.128	3.4545	0.	-1515.3
875	17.128	3.2727	0.	-1515.4
876	17.128	3.0909	0.	-1515.4
877	17.128	2.9091	0.	-1515.4
878	17.128	2.7273	0.	-1515.4
879	17.128	2.5455	0.	-1515.3
880	17.128	2.3636	0.	-1515.2
881	17.128	2.1818	0.	-1515.
882	17.128	2.	0.	-1514.8
883	17.128	1.8182	0.	-1514.6
884	17.128	1.6364	0.	-1514.4
885	17.128	1.4545	0.	-1514.2
886	17.128	1.2727	0.	-1513.9
887	17.128	1.0909	0.	-1513.8
888	17.128	0.90909	0.	-1513.6
889	17.128	0.72727	0.	-1513.6
890	17.128	0.54545	0.	-1513.7
891	17.128	0.36364	0.	-1514.
892	17.128	0.18182	0.	-1516.3
893	16.943	5.8182	0.	-1561.3
894	16.943	5.6364	0.	-1558.9
895	16.943	5.4545	0.	-1558.5
896	16.943	5.2727	0.	-1558.3
897	16.943	5.0909	0.	-1558.2
898	16.943	4.9091	0.	-1558.2
899	16.943	4.7273	0.	-1558.2
900	16.943	4.5455	0.	-1558.4
901	16.943	4.3636	0.	-1558.5
902	16.943	4.1818	0.	-1558.6
903	16.943	4.	0.	-1558.8
904	16.943	3.8182	0.	-1558.9
905	16.943	3.6364	0.	-1559.
906	16.943	3.4545	0.	-1559.1
907	16.943	3.2727	0.	-1559.2
908	16.943	3.0909	0.	-1559.2
909	16.943	2.9091	0.	-1559.2
910	16.943	2.7273	0.	-1559.2
911	16.943	2.5455	0.	-1559.1
912	16.943	2.3636	0.	-1559.
913	16.943	2.1818	0.	-1558.9
914	16.943	2.	0.	-1558.8
915	16.943	1.8182	0.	-1558.6
916	16.943	1.6364	0.	-1558.5
917	16.943	1.4545	0.	-1558.4
918	16.943	1.2727	0.	-1558.2
919	16.943	1.0909	0.	-1558.2
920	16.943	0.90909	0.	-1558.2
921	16.943	0.72727	0.	-1558.3
922	16.943	0.54545	0.	-1558.5
923	16.943	0.36364	0.	-1558.9
924	16.943	0.18182	0.	-1561.3
925	16.759	5.8182	0.	-1606.3
926	16.759	5.6364	0.	-1603.9
927	16.759	5.4545	0.	-1603.3
928	16.759	5.2727	0.	-1603.
929	16.759	5.0909	0.	-1602.9
930	16.759	4.9091	0.	-1602.8
931	16.759	4.7273	0.	-1602.7
932	16.759	4.5455	0.	-1602.7
933	16.759	4.3636	0.	-1602.8
934	16.759	4.1818	0.	-1602.9
935	16.759	4.	0.	-1602.9
936	16.759	3.8182	0.	-1603.
937	16.759	3.6364	0.	-1603.1
938	16.759	3.4545	0.	-1603.1
939	16.759	3.2727	0.	-1603.2
940	16.759	3.0909	0.	-1603.2
941	16.759	2.9091	0.	-1603.2
942	16.759	2.7273	0.	-1603.2
943	16.759	2.5455	0.	-1603.1
944	16.759	2.3636	0.	-1603.1
945	16.759	2.1818	0.	-1603.
946	16.759	2.	0.	-1602.9
947	16.759	1.8182	0.	-1602.9
948	16.759	1.6364	0.	-1602.8
949	16.759	1.4545	0.	-1602.7
950	16.759	1.2727	0.	-1602.7
951	16.759	1.0909	0.	-1602.8
952	16.759	0.90909	0.	-1602.9
953	16.759	0.72727	0.	-1603.
954	16.759	0.54545	0.	-1603.3
955	16.759	0.36364	0.	-1603.9
956	16.759	0.18182	0.	-1606.3
957	16.575	5.8182	0.	-1651.5
958	16.575	5.6364	0.	-1649.
959	16.575	5.4545	0.	-1648.4
960	16.575	5.2727	0.	-1648.
961	16.575	5.0909	0.	-1647.7
962	16.575	4.9091	0.	-1647.5
963	16.575	4.7273	0.	-1647.4
964	16.575	4.5455	0.	-1647.3
965	16.575	4.3636	0.	-1647.3
966	16.575	4.1818	0.	-1647.3
967	16.575	4.	0.	-1647.3
968	16.575	3.8182	0.	-1647.3
969	16.575	3.6364	0.	-1647.4
970	16.575	3.4545	0.	-1647.4
971	16.575	3.2727	0.	-1647.4
972	16.575	3.0909	0.	-1647.4
973	16.575	2.9091	0.	-1647.4
974	16.575	2.7273	0.	-1647.4
975	16.575	2.5455	0.	-1647.4
976	16.575	2.3636	0.	-1647.4
977	16.575	2.1818	0.	-1647.3
978	16.575	2.	0.	-1647.3
979	16.575	1.8182	0.	-1647.3
980	16.575	1.6364	0.	-1647.3
981	16.575	1.4545	0.	-1647.3
982	16.575	1.2727	0.	-1647.4
983	16.575	1.0909	0.	-1647.5
984	16.575	0.90909	0.	-1647.7
985	16.575	0.72727	0.	-1648.
986	16.575	0.54545	0.	-1648.4
987	16.575	0.36364	0.	-1649.
988	16.575	0.18182	0.	-1651.5
989	16.391	5.8182	0.	-1696.8
990	16.391	5.6364	0.	-1694.2
991	16.391	5.4545	0.	-1693.5
992	16.391	5.2727	0.	-1693.1
993	16.391	5.0909	0.	-1692.7
994	16.391	4.9091	0.	-1692.4
995	16.391	4.7273	0.	-1692.2
996	16.391	4.5455	0.	-1692.1
997	16.391	4.3636	0.	-1692.
998	16.391	4.1818	0.	-1692.
999	16.391	4.	0.	-1691.9
1000	16.391	3.8182	0.	-1691.9
1001	16.391	3.6364	0.	-1691.9
1002	16.391	3.4545	0.	-1691.9
1003	16.391	3.2727	0.	-1691.9
1004	16.391	3.0909	0.	-1691.9
1005	16.391	2.9091	0.	-1691.9
1006	16.391	2.7273	0.	-1691.9
1007	16.391	2.5455	0.	-1691.9
1008	16.391	2.3636	0.	-1691.9
1009	16.391	2.1818	0.	-1691.9
1010	16.391	2.	0.	-1691.9
1011	16.391	1.8182	0.	-1692.
1012	16.391	1.6364	0.	-1692.
1013	16.391	1.4545	0.	-1692.1
1014	16.391	1.2727	0.	-1692.2
1015	16.391	1.0909	0.	-1692.4
1016	16.391	0.90909	0.	-1692.7
1017	16.391	0.72727	0.	-1693.1
1018	16.391	0.54545	0.	-1693.5
1019	16.391	0.36364	0.	-1694.2
1020	16.391	0.18182	0.	-1696.8
1021	16.207	5.8182	0.	-1742.2
1022	16.207	5.6364	0.	-1739.6
1023	16.207	5.4545	0.	-1738.8
1024	16.207	5.2727	0.	-1738.3
1025	16.207	5.0909	0.	-1737.9
1026	16.207	4.9091	0.	-1737.5
1027	16.207	4.7273	0.	-1737.3
1028	16.207	4.5455	0.	-1737.1
1029	16.207	4.3636	0.	-1736.9
1030	16.207	4.1818	0.	-1736.8
1031	16.207	4.	0.	-1736.7
1032	16.207	3.8182	0.	-1736.7
1033	16.207	3.6364	0.	-1736.6
1034	16.207	3.4545	0.	-1736.6
1035	16.207	3.2727	0.	-1736.6
1036	16.207	3.0909	0.	-1736.6
1037	16.207	2.9091	0.	-1736.6
1038	16.207	2.7273	0.	-1736.6
1039	16.207	2.5455	0.	-1736.6
1040	16.207	2.3636	0.	-1736.6
1041	16.207	2.1818	0.	-1736.7
1042	16.207	2.	0.	-1736.7
1043	16.207	1.8182	0.	-1736.8
1044	16.207	1.6364	0.	-1736.9
1045	16.207	1.4545	0.	-1737.1
1046	16.207	1.2727	0.	-1737.3
1047	16.207	1.0909	0.	-1737.5
1048	16.207	0.90909	0.	-1737.9
1049	16.207	0.72727	0.	-1738.3
1050	16.207	0.54545	0.	-1738.8
1051	16.207	0.36364	0.	-1739.6
1052	16.207	0.18182	0.	-1742.2
1053	16.022	5.8182	0.	-1787.8
1054	16.022	5.6364	0.	-1785.1
1055	16.022	5.4545	0.	-1784.3
1056	16.022	5.2727	0.	-1783.7
1057	16.022	5.0909	0.	-1783.2
1058	16.022	4.9091	0.	-1782.8
1059	16.022	4.7273	0.	-1782.5
1060	16.022	4.5455	0.	-1782.3
1061	16.022	4.3636	0.	-1782.
1062	16.022	4.1818	0.	-1781.9
1063	16.022	4.	0.	-1781.8
1064	16.022	3.8182	0.	-1781.7
1065	16.022	3.6364	0.	-1781.6
1066	16.022	3.4545	0.	-1781.5
1067	16.022	3.2727	0.	-1781.5
1068	16.022	3.0909	0.	-1781.5
1069	16.022	2.9091	0.	-1781.5
1070	16.022	2.7273	0.	-1781.5
1071	16.022	2.5455	0.	-1781.5
1072	16.022	2.3636	0.	-1781.6
1073	16.022	2.1818	0.	-1781.7
1074	16.022	2.	0.	-1781.8
1075	16.022	1.8182	0.	-1781.9
1076	16.022	1.6364	0.	-1782.
1077	16.022	1.4545	0.	-1782.3
1078	16.022	1.2727	0.	-1782.5
1079	16.022	1.0909	0.	-1782.8
1080	16.022	0.90909	0.	-1783.2
1081	16.022	0.72727	0.	-1783.7
1082	16.022	0.54545	0.	-1784.3
1083	16.022	0.36364	0.	-1785.1
1084	16.022	0.18182	0.	-1787.8
1085	15.838	5.8182	0.	-1833.5
1086	15.838	5.6364	0.	-1830.8
1087	15.838	5.4545	0.	-1829.9
1088	15.838	5.2727	0.	-1829.3
1089	15.838	5.0909	0.	-1828.8
1090	15.838	4.9091	0.	-1828.3
1091	15.838	4.7273	0.	-1827.9
1092	15.838	4.5455	0.	-1827.6
1093	15.838	4.3636	0.	-1827.4
1094	15.838	4.1818	0.	-1827.2
1095	15.838	4.	0.	-1827.
1096	15.838	3.8182	0.	-1826.9
1097	15.838	3.6364	0.	-1826.8
1098	15.838	3.4545	0.	-1826.7
1099	15.838	3.2727	0.	-1826.7
1100	15.838	3.0909	0.	-1826.6
1101	15.838	2.9091	0.	-1826.6
1102	15.838	2.7273	0.	-1826.7
1103	15.838	2.5455	0.	-1826.7
1104	15.838	2.3636	0.	-1826.8
1105	15.838	2.1818	0.	-1826.9
1106	15.838	2.	0.	-1827.
1107	15.838	1.8182	0.	-1827.2
1108	15.838	1.6364	0.	-1827.4
1109	15.838	1.4545	0.	-1827.6
1110	15.838	1.2727	0.	-1827.9
1111	15.838	1.0909	0.	-1828.3
1112	15.838	0.90909	0.	-1828.8
1113	15.838	0.72727	0.	-1829.3
1114	15.838	0.54545	0.	-1829.9
1115	15.838	0.36364	0.	-1830.8
1116	15.838	0.18182	0.	-1833.5
1117	15.654	5.8182	0.	-1879.4
1118	15.654	5.6364	0.	-1876.6
1119	15.654	5.4545	0.	-1875.7
1120	15.654	5.2727	0.	-1875.1
1121	15.654	5.0909	0.	-1874.5
1122	15.654	4.9091	0.	-1874.
1123	15.654	4.7273	0.	-1873.5
1124	15.654	4.5455	0.	-1873.2
1125	15.654	4.3636	0.	-1872.9
1126	15.654	4.1818	0.	-1872.6
1127	15.654	4.	0.	-1872.5
1128	15.654	3.8182	0.	-1872.3
1129	15.654	3.6364	0.	-1872.2
1130	15.654	3.4545	0.	-1872.1
1131	15.654	3.2727	0.	-1872.
1132	15.654	3.0909	0.	-1872.
1133	15.654	2.9091	0.	-1872.
1134	15.654	2.7273	0.	-1872.
1135	15.654	2.5455	0.	-1872.1
1136	15.654	2.3636	0.	-1872.2
1137	15.654	2.1818	0.	-1872.3
1138	15.654	2.	0.	-1872.5
1139	15.654	1.8182	0.	-1872.6
1140	15.654	1.6364	0.	-1872.9
1141	15.654	1.4545	0.	-1873.2
1142	15.654	1.2727	0.	-1873.5
1143	15.654	1.0909	0.	-1874.
1144	15.654	0.90909	0.	-1874.5
1145	15.654	0.72727	0.	-1875.1
1146	15.654	0.54545	0.	-1875.7
1147	15.654	0.36364	0.	-1876.6
1148	15.654	0.18182	0.	-1879.4
1149	15.47	5.8182	0.	-1925.4
1150	15.47	5.6364	0.	-1922.7
1151	15.47	5.4545	0.	-1921.7
1152	15.47	5.2727	0.	-1921.
1153	15.47	5.0909	0.	-1920.4
1154	15.47	4.9091	0.	-1919.8
1155	15.47	4.7273	0.	-1919.3
1156	15.47	4.5455	0.	-1918.9
1157	15.47	4.3636	0.	-1918.6
1158	15.47	4.1818	0.	-1918.3
1159	15.47	4.	0.	-1918.1
1160	15.47	3.8182	0.	-1917.9
1161	15.47	3.6364	0.	-1917.8
1162	15.47	3.4545	0.	-1917.7
1163	15.47	3.2727	0.	-1917.6
1164	15.47	3.0909	0.	-1917.6
1165	15.47	2.9091	0.	-1917.6
1166	15.47	2.7273	0.	-1917.6
1167	15.47	2.5455	0.	-1917.7
1168	15.47	2.3636	0.	-1917.8
1169	15.47	2.1818	0.	-1917.9
1170	15.47	2.	0.	-1918.1
1171	15.47	1.8182	0.	-1918.3
1172	15.47	1.6364	0.	-1918.6
1173	15.47	1.4545	0.	-1918.9
1174	15.47	1.2727	0.	-1919.3
1175	15.47	1.0909	0.	-1919.8
1176	15.47	0.90909	0.	-1920.4
1177	15.47	0.72727	0.	-1921.
1178	15.47	0.54545	0.	-1921.7
1179	15.47	0.36364	0.	-1922.7
1180	15.47	0.18182	0.	-1925.4
1181	15.286	5.8182	0.	-1971.7
1182	15.286	5.6364	0.	-1968.9
1183	15.286	5.4545	0.	-1967.9
1184	15.286	5.2727	0.	-1967.1
1185	15.286	5.0909	0.	-1966.4
1186	15.286	4.9091	0.	-1965.8
1187	15.286	4.7273	0.	-1965.3
1188	15.286	4.5455	0.	-1964.9
1189	15.286	4.3636	0.	-1964.5
1190	15.286	4.1818	0.	-1964.2
1191	15.286	4.	0.	-1964.
1192	15.286	3.8182	0.	-1963.8
1193	15.286	3.6364	0.	-1963.6
1194	15.286	3.4545	0.	-1963.5
1195	15.286	3.2727	0.	-1963.4
1196	15.286	3.0909	0.	-1963.4
1197	15.286	2.9091	0.	-1963.4
1198	15.286	2.7273	0.	-1963.4
1199	15.286	2.5455	0.	-1963.5
1200	15.286	2.3636	0.	-1963.6
1201	15.286	2.1818	0.	-1963.8
1202	15.286	2.	0.	-1964.
1203	15.286	1.8182	0.	-1964.2
1204	15.286	1.6364	0.	-1964.5
1205	15.286	1.4545	0.	-1964.9
1206	15.286	1.2727	0.	-1965.3
1207	15.286	1.0909	0.	-1965.8
1208	15.286	0.90909	0.	-1966.4
1209	15.286	0.72727	0.	-1967.1
1210	15.286	0.54545	0.	-1967.9
1211	15.286	0.36364	0.	-1968.9
1212	15.286	0.18182	0.	-1971.7
1213	15.102	5.8182	0.	-2018.
1214	15.102	5.6364	0.	-2015.2
1215	15.102	5.4545	0.	-2014.2
1216	15.102	5.2727	0.	-2013.4
1217	15.102	5.0909	0.	-2012.7
1218	15.102	4.9091	0.	-2012.1
1219	15.102	4.7273	0.	-2011.5
1220	15.102	4.5455	0.	-2011.1
1221	15.102	4.3636	0.	-2010.7
1222	15.102	4.1818	0.	-2010.3
1223	15.102	4.	0.	-2010.
1224	15.102	3.8182	0.	-2009.8
1225	15.102	3.6364	0.	-2009.6
1226	15.102	3.4545	0.	-2009.5
1227	15.102	3.2727	0.	-2009.4
1228	15.102	3.0909	0.	-2009.4
1229	15.102	2.9091	0.	-2009.4
1230	15.102	2.7273	0.	-2009.4
1231	15.102	2.5455	0.	-2009.5
1232	15.102	2.3636	0.	-2009.6
1233	15.102	2.1818	0.	-2009.8
1234	15.102	2.	0.	-2010.
1235	15.102	1.8182	0.	-2010.3
1236	15.102	1.6364	0.	-2010.7
1237	15.102	1.4545	0.	-2011.1
1238	15.102	1.2727	0.	-2011.5
1239	15.102	1.0909	0.	-2012.1
1240	15.102	0.90909	0.	-2012.7
1241	15.102	0.72727	0.	-2013.4
1242	15.102	0.54545	0.	-2014.2
1243	15.102	0.36364	0.	-2015.2
1244	15.102	0.18182	0.	-2018.
1245	14.917	5.8182	0.	-2064.6
1246	14.917	5.6364	0.	-2061.8
1247	14.917	5.4545	0.	-2060.7
1248	14.917	5.2727	0.	-2059.9
1249	14.917	5.0909	0.	-2059.1
1250	14.917	4.9091	0.	-2058.5
1251	14.917	4.7273	0.	-2057.9
1252	14.917	4.5455	0.	-2057.4
1253	14.917	4.3636	0.	-2057.
1254	14.917	4.1818	0.	-2056.6
1255	14.917	4.	0.	-2056.3
1256	14.917	3.8182	0.	-2056.1
1257	14.917	3.6364	0.	-2055.9
1258	14.917	3.4545	0.	-2055.7
1259	14.917	3.2727	0.	-2055.6
1260	14.917	3.0909	0.	-2055.6
1261	14.917	2.9091	0.	-2055.6
1262	14.917	2.7273	0.	-2055.6
1263	14.917	2.5455	0.	-2055.7
1264	14.917	2.3636	0.	-2055.9
1265	14.917	2.1818	0.	-2056.1
1266	14.917	2.	0.	-2056.3
1267	14.917	1.8182	0.	-2056.6
1268	14.917	1.6364	0.	-2057.
1269	14.917	1.4545	0.	-2057.4
1270	14.917	1.2727	0.	-2057.9
1271	14.917	1.0909	0.	-2058.5
1272	14.917	0.90909	0.	-2059.1
1273	14.917	0.72727	0.	-2059.9
1274	14.917	0.54545	0.	-2060.7
1275	14.917	0.36364	0.	-2061.8
1276	14.917	0.18182	0.	-2064.6
1277	14.733	5.8182	0.	-2111.4
1278	14.733	5.6364	0.	-2108.5
1279	14.733	5.4545	0.	-2107.4
1280	14.733	5.2727	0.	-2106.6
1281	14.733	5.0909	0.	-2105.8
1282	14.733	4.9091	0.	-2105.1
1283	14.733	4.7273	0.	-2104.5
1284	14.733	4.5455	0.	-2104.
1285	14.733	4.3636	0.	-2103.5
1286	14.733	4.1818	0.	-2103.1
1287	14.733	4.	0.	-2102.8
1288	14.733	3.8182	0.	-2102.5
1289	14.733	3.6364	0.	-2102.3
1290	14.733	3.4545	0.	-2102.1
1291	14.733	3.2727	0.	-2102.
1292	14.733	3.0909	0.	-2102.
1293	14.733	2.9091	0.	-2102.
1294	14.733	2.7273	0.	-2102.
1295	14.733	2.5455	0.	-2102.1
1296	14.733	2.3636	0.	-2102.3
1297	14.733	2.1818	0.	-2102.5
1298	14.733	2.	0.	-2102.8
1299	14.733	1.8182	0.	-2103.1
1300	14.733	1.6364	0.	-2103.5
1301	14.733	1.4545	0.	-2104.
1302	14.733	1.2727	0.	-2104.5
1303	14.733	1.0909	0.	-2105.1
1304	14.733	0.90909	0.	-2105.8
1305	14.733	0.72727	0.	-2106.6
1306	14.733	0.54545	0.	-2107.4
1307	14.733	0.36364	0.	-2108.5
1308	14.733	0.18182	0.	-2111.4
1309	14.549	5.8182	0.	-2158.3
1310	14.549	5.6364	0.	-2155.4
1311	14.549	5.4545	0.	-2154.3
1312	14.549	5.2727	0.	-2153.4
1313	14.549	5.0909	0.	-2152.6
1314	14.549	4.9091	0.	-2151.9
1315	14.549	4.7273	0.	-2151.3
1316	14.549	4.5455	0.	-2150.7
1317	14.549	4.3636	0.	-2150.2
1318	14.549	4.1818	0.	-2149.8
1319	14.549	4.	0.	-2149.4
1320	14.549	3.8182	0.	-2149.2
1321	14.549	3.6364	0.	-2148.9
1322	14.549	3.4545	0.	-2148.8
1323	14.549	3.2727	0.	-2148.6
1324	14.549	3.0909	0.	-2148.6
1325	14.549	2.9091	0.	-2148.6
1326	14.549	2.7273	0.	-2148.6
1327	14.549	2.5455	0.	-2148.8
1328	14.549	2.3636	0.	-2148.9
1329	14.549	2.1818	0.	-2149.2
1330	14.549	2.	0.	-2149.4
1331	14.549	1.8182	0.	-2149.8
1332	14.549	1.6364	0.	-2150.2
1333	14.549	1.4545	0.	-2150.7
1334	14.549	1.2727	0.	-2151.3
1335	14.549	1.0909	0.	-2151.9
1336	14.549	0.90909	0.	-2152.6
1337	14.549	0.72727	0.	-2153.4
1338	14.549	0.54545	0.	-2154.3
1339	14.549	0.36364	0.	-2155.4
1340	14.549	0.18182	0.	-2158.3
1341	14.365	5.8182	0.	-2205.4
1342	14.365	5.6364	0.	-2202.5
1343	14.365	5.4545	0.	-2201.4
1344	14.365	5.2727	0.	-2200.5
1345	14.365	5.0909	0.	-2199.6
1346	14.365	4.9091	0.	-2198.9
1347	14.365	4.7273	0.	-2198.2
1348	14.365	4.5455	0.	-2197.6
1349	14.365	4.3636	0.	-2197.1
1350	14.365	4.1818	0.	-2196.7
1351	14.365	4.	0.	-2196.3
1352	14.365	3.8182	0.	-2196.
1353	14.365	3.6364	0.	-2195.8
1354	14.365	3.4545	0.	-2195.6
1355	14.365	3.2727	0.	-2195.5
1356	14.365	3.0909	0.	-2195.4
1357	14.365	2.9091	0.	-2195.4
1358	14.365	2.7273	0.	-2195.5
1359	14.365	2.5455	0.	-2195.6
1360	14.365	2.3636	0.	-2195.8
1361	14.365	2.1818	0.	-2196.
1362	14.365	2.	0.	-2196.3
1363	14.365	1.8182	0.	-2196.7
1364	14.365	1.6364	0.	-2197.1
1365	14.365	1.4545	0.	-2197.6
1366	14.365	1.2727	0.	-2198.2
1367	14.365	1.0909	0.	-2198.9
1368	14.365	0.90909	0.	-2199.6
1369	14.365	0.72727	0.	-2200.5
1370	14.365	0.54545	0.	-2201.4
1371	14.365	0.36364	0.	-2202.5
1372	14.365	0.18182	0.	-2205.4
1373	14.181	5.8182	0.	-2252.7
1374	14.181	5.6364	0.	-2249.8
1375	14.181	5.4545	0.	-2248.7
1376	14.181	5.2727	0.	-2247.7
1377	14.181	5.0909	0.	-2246.9
1378	14.181	4.9091	0.	-2246.1
1379	14.181	4.7273	0.	-2245.4
1380	14.181	4.5455	0.	-2244.8
1381	14.181	4.3636	0.	-2244.2
1382	14.181	4.1818	0.	-2243.8
1383	14.181	4.	0.	-2243.4
1384	14.181	3.8182	0.	-2243.1
1385	14.181	3.6364	0.	-2242.8
1386	14.181	3.4545	0.	-2242.6
1387	14.181	3.2727	0.	-2242.5
1388	14.181	3.0909	0.	-2242.4
1389	14.181	2.9091	0.	-2242.4
1390	14.181	2.7273	0.	-2242.5
1391	14.181	2.5455	0.	-2242.6
1392	14.181	2.3636	0.	-2242.8
1393	14.181	2.1818	0.	-2243.1
1394	14.181	2.	0.	-2243.4
1395	14.181	1.8182	0.	-2243.8
1396	14.181	1.6364	0.	-2244.2
1397	14.181	1.4545	0.	-2244.8
1398	14.181	1.2727	0.	-2245.4
1399	14.181	1.0909	0.	-2246.1
1400	14.181	0.90909	0.	-2246.9
1401	14.181	0.72727	0.	-2247.7
1402	14.181	0.54545	0.	-2248.7
1403	14.181	0.36364	0.	-2249.8
1404	14.181	0.18182	0.	-2252.7
1405	13.997	5.8182	0.	-2300.2
1406	13.997	5.6364	0.	-2297.3
1407	13.997	5.4545	0.	-2296.1
1408	13.997	5.2727	0.	-2295.2
1409	13.997	5.0909	0.	-2294.3
1410	13.997	4.9091	0.	-2293.5
1411	13.997	4.7273	0.	-2292.7
1412	13.997	4.5455	0.	-2292.1
1413	13.997	4.3636	0.	-2291.5
1414	13.997	4.1818	0.	-2291.1
1415	13.997	4.	0.	-2290.6
1416	13.997	3.8182	0.	-2290.3
1417	13.997	3.6364	0.	-2290.
1418	13.997	3.4545	0.	-2289.8
1419	13.997	3.2727	0.	-2289.7
1420	13.997	3.0909	0.	-2289.6
1421	13.997	2.9091	0.	-2289.6
1422	13.997	2.7273	0.	-2289.7
1423	13.997	2.5455	0.	-2289.8
1424	13.997	2.3636	0.	-2290.
1425	13.997	2.1818	0.	-2290.3
1426	13.997	2.	0.	-2290.6
1427	13.997	1.8182	0.	-2291.1
1428	13.997	1.6364	0.	-2291.5
1429	13.997	1.4545	0.	-2292.1
1430	13.997	1.2727	0.	-2292.7
1431	13.997	1.0909	0.	-2293.5
1432	13.997	0.90909	0.	-2294.3
1433	13.997	0.72727	0.	-2295.2
1434	13.997	0.54545	0.	-2296.1
1435	13.997	0.36364	0.	-2297.3
1436	13.997	0.18182	0.	-2300.2
1437	13.813	5.8182	0.	-2347.9
1438	13.813	5.6364	0.	-2345.
1439	13.813	5.4545	0.	-2343.8
1440	13.813	5.2727	0.	-2342.8
1441	13.813	5.0909	0.	-2341.9
1442	13.813	4.9091	0.	-2341.
1443	13.813	4.7273	0.	-2340.3
1444	13.813	4.5455	0.	-2339.6
1445	13.813	4.3636	0.	-2339.
1446	13.813	4.1818	0.	-2338.5
1447	13.813	4.	0.	-2338.1
1448	13.813	3.8182	0.	-2337.8
1449	13.813	3.6364	0.	-2337.5
1450	13.813	3.4545	0.	-2337.3
1451	13.813	3.2727	0.	-2337.1
1452	13.813	3.0909	0.	-2337.
1453	13.813	2.9091	0.	-2337.
1454	13.813	2.7273	0.	-2337.1
1455	13.813	2.5455	0.	-2337.3
1456	13.813	2.3636	0.	-2337.5
1457	13.813	2.1818	0.	-2337.8
1458	13.813	2.	0.	-2338.1
1459	13.813	1.8182	0.	-2338.5
1460	13.813	1.6364	0.	-2339.
1461	13.813	1.4545	0.	-2339.6
1462	13.813	1.2727	0.	-2340.3
1463	13.813	1.0909	0.	-2341.
1464	13.813	0.90909	0.	-2341.9
1465	13.813	0.72727	0.	-2342.8
1466	13.813	0.54545	0.	-2343.8
1467	13.813	0.36364	0.	-2345.
1468	13.813	0.18182	0.	-2347.9
1469	13.628	5.8182	0.	-2395.8
1470	13.628	5.6364	0.	-2392.9
1471	13.628	5.4545	0.	-2391.7
1472	13.628	5.2727	0.	-2390.6
1473	13.628	5.0909	0.	-2389.7
1474	13.628	4.9091	0.	-2388.8
1475	13.628	4.7273	0.	-2388.
1476	13.628	4.5455	0.	-2387.4
1477	13.628	4.3636	0.	-2386.7
1478	13.628	4.1818	0.	-2386.2
1479	13.628	4.	0.	-2385.8
1480	13.628	3.8182	0.	-2385.4
1481	13.628	3.6364	0.	-2385.1
1482	13.628	3.4545	0.	-2384.9
1483	13.628	3.2727	0.	-2384.7
1484	13.628	3.0909	0.	-2384.7
1485	13.628	2.9091	0.	-2384.7
1486	13.628	2.7273	0.	-2384.7
1487	13.628	2.5455	0.	-2384.9
1488	13.628	2.3636	0.	-2385.1
1489	13.628	2.1818	0.	-2385.4
1490	13.628	2.	0.	-2385.8
1491	13.628	1.8182	0.	-2386.2
1492	13.628	1.6364	0.	-2386.7
1493	13.628	1.4545	0.	-2387.4
1494	13.628	1.2727	0.	-2388.
1495	13.628	1.0909	0.	-2388.8
1496	13.628	0.90909	0.	-2389.7
1497	13.628	0.72727	0.	-2390.6
1498	13.628	0.54545	0.	-2391.7
1499	13.628	0.36364	0.	-2392.9
1500	13.628	0.18182	0.	-2395.8
1501	13.444	5.8182	0.	-2443.8
1502	13.444	5.6364	0.	-2441.
1503	13.444	5.4545	0.	-2439.7
1504	13.444	5.2727	0.	-2438.6
1505	13.444	5.0909	0.	-2437.7
1506	13.444	4.9091	0.	-2436.8
1507	13.444	4.7273	0.	-2436.
1508	13.444	4.5455	0.	-2435.3
1509	13.444	4.3636	0.	-2434.6
1510	13.444	4.1818	0.	-2434.1
1511	13.444	4.	0.	-2433.6
1512	13.444	3.8182	0.	-2433.2
1513	13.444	3.6364	0.	-2432.9
1514	13.444	3.4545	0.	-2432.7
1515	13.444	3.2727	0.	-2432.5
1516	13.444	3.0909	0.	-2432.5
1517	13.444	2.9091	0.	-2432.5
1518	13.444	2.7273	0.	-2432.5
1519	13.444	2.5455	0.	-2432.7
1520	13.444	2.3636	0.	-2432.9
1521	13.444	2.1818	0.	-2433.2
1522	13.444	2.	0.	-2433.6
1523	13.444	1.8182	0.	-2434.1
1524	13.444	1.6364	0.	-2434.6
1525	13.444	1.4545	0.	-2435.3
1526	13.444	1.2727	0.	-2436.
1527	13.444	1.0909	0.	-2436.8
1528	13.444	0.90909	0.	-2437.7
1529	13.444	0.72727	0.	-2438.6
1530	13.444	0.54545	0.	-2439.7
1531	13.444	0.36364	0.	-2441.
1532	13.444	0.18182	0.	-2443.8
1533	13.26	5.8182	0.	-2492.1
1534	13.26	5.6364	0.	-2489.2
1535	13.26	5.4545	0.	-2488.
1536	13.26	5.2727	0.	-2486.9
1537	13.26	5.0909	0.	-2485.9
1538	13.26	4.9091	0.	-2485.
1539	13.26	4.7273	0.	-2484.1
1540	13.26	4.5455	0.	-2483.4
1541	13.26	4.3636	0.	-2482.7
1542	13.26	4.1818	0.	-2482.2
1543	13.26	4.	0.	-2481.7
1544	13.26	3.8182	0.	-2481.3
1545	13.26	3.6364	0.	-2481.
1546	13.26	3.4545	0.	-2480.7
1547	13.26	3.2727	0.	-2480.6
1548	13.26	3.0909	0.	-2480.5
1549	13.26	2.9091	0.	-2480.5
1550	13.26	2.7273	0.	-2480.6
1551	13.26	2.5455	0.	-2480.7
1552	13.26	2.3636	0.	-2481.
1553	13.26	2.1818	0.	-2481.3
1554	13.26	2.	0.	-2481.7
1555	13.26	1.8182	0.	-2482.2
1556	13.26	1.6364	0.	-2482.7
1557	13.26	1.4545	0.	-2483.4
1558	13.26	1.2727	0.	-2484.1
1559	13.26	1.0909	0.	-2485.
1560	13.26	0.90909	0.	-2485.9
1561	13.26	0.72727	0.	-2486.9
1562	13.26	0.54545	0.	-2488.
1563	13.26	0.36364	0.	-2489.2
1564	13.26	0.18182	0.	-2492.1
1565	13.076	5.8182	0.	-2540.6
1566	13.076	5.6364	0.	-2537.7
1567	13.076	5.4545	0.	-2536.4
1568	13.076	5.2727	0.	-2535.3
1569	13.076	5.0909	0.	-2534.3
1570	13.076	4.9091	0.	-2533.3
1571	13.076	4.7273	0.	-2532.5
1572	13.076	4.5455	0.	-2531.7
1573	13.076	4.3636	0.	-2531.
1574	13.076	4.1818	0.	-2530.4
1575	13.076	4.	0.	-2529.9
1576	13.076	3.8182	0.	-2529.5
1577	13.076	3.6364	0.	-2529.2
1578	13.076	3.4545	0.	-2528.9
1579	13.076	3.2727	0.	-2528.8
1580	13.076	3.0909	0.	-2528.7
1581	13.076	2.9091	0.	-2528.7
1582	13.076	2.7273	0.	-2528.8
1583	13.076	2.5455	0.	-2528.9
1584	13.076	2.3636	0.	-2529.2
1585	13.076	2.1818	0.	-2529.5
1586	13.076	2.	0.	-2529.9
1587	13.076	1.8182	0.	-2530.4
1588	13.076	1.6364	0.	-2531.
1589	13.076	1.4545	0.	-2531.7
1590	13.076	1.2727	0.	-2532.5
1591	13.076	1.0909	0.	-2533.3
1592	13.076	0.90909	0.	-2534.3
1593	13.076	0.72727	0.	-2535.3
1594	13.076	0.54545	0.	-2536.4
1595	13.076	0.36364	0.	-2537.7
1596	13.076	0.18182	0.	-2540.6
1597	12.892	5.8182	0.	-2589.3
1598	12.892	5.6364	0.	-2586.4
1599	12.892	5.4545	0.	-2585.1
1600	12.892	5.2727	0.	-2583.9
1601	12.892	5.0909	0.	-2582.8
1602	12.892	4.9091	0.	-2581.9
1603	12.892	4.7273	0.	-2581.
1604	12.892	4.5455	0.	-2580.2
1605	12.892	4.3636	0.	-2579.5
1606	12.892	4.1818	0.	-2578.9
1607	12.892	4.	0.	-2578.4
1608	12.892	3.8182	0.	-2577.9
1609	12.892	3.6364	0.	-2577.6
1610	12.892	3.4545	0.	-2577.3
1611	12.892	3.2727	0.	-2577.2
1612	12.892	3.0909	0.	-2577.1
1613	12.892	2.9091	0.	-2577.1
1614	12.892	2.7273	0.	-2577.2
1615	12.892	2.5455	0.	-2577.3
1616	12.892	2.3636	0.	-2577.6
1617	12.892	2.1818	0.	-2577.9
1618	12.892	2.	0.	-2578.4
1619	12.892	1.8182	0.	-2578.9
1620	12.892	1.6364	0.	-2579.5
1621	12.892	1.4545	0.	-2580.2
1622	12.892	1.2727	0.	-2581.
1623	12.892	1.0909	0.	-2581.9
1624	12.892	0.90909	0.	-2582.8
1625	12.892	0.72727	0.	-2583.9
1626	12.892	0.54545	0.	-2585.1
1627	12.892	0.36364	0.	-2586.4
1628	12.892	0.18182	0.	-2589.3
1629	12.708	5.8182	0.	-2638.2
1630	12.708	5.6364	0.	-2635.3
1631	12.708	5.4545	0.	-2633.9
1632	12.708	5.2727	0.	-2632.7
1633	12.708	5.0909	0.	-2631.6
1634	12.708	4.9091	0.	-2630.6
1635	12.708	4.7273	0.	-2629.7
1636	12.708	4.5455	0.	-2628.9
1637	12.708	4.3636	0.	-2628.2
1638	12.708	4.1818	0.	-2627.6
1639	12.708	4.	0.	-2627.
1640	12.708	3.8182	0.	-2626.6
1641	12.708	3.6364	0.	-2626.2
1642	12.708	3.4545	0.	-2625.9
1643	12.708	3.2727	0.	-2625.7
1644	12.708	3.0909	0.	-2625.6
1645	12.708	2.9091	0.	-2625.6
1646	12.708	2.7273	0.	-2625.7
1647	12.708	2.5455	0.	-2625.9
1648	12.708	2.3636	0.	-2626.2
1649	12.708	2.1818	0.	-2626.6
1650	12.708	2.	0.	-2627.
1651	12.708	1.8182	0.	-2627.6
1652	12.708	1.6364	0.	-2628.2
1653	12.708	1.4545	0.	-2628.9
1654	12.708	1.2727	0.	-2629.7
1655	12.708	1.0909	0.	-2630.6
1656	12.708	0.90909	0.	-2631.6
1657	12.708	0.72727	0.	-2632.7
1658	12.708	0.54545	0.	-2633.9
1659	12.708	0.36364	0.	-2635.3
1660	12.708	0.18182	0.	-2638.2
1661	12.523	5.8182	0.	-2687.2
1662	12.523	5.6364	0.	-2684.3
1663	12.523	5.4545	0.	-2683.
1664	12.523	5.2727	0.	-2681.7
1665	12.523	5.0909	0.	-2680.6
1666	12.523	4.9091	0.	-2679.6
1667	12.523	4.7273	0.	-2678.7
1668	12.523	4.5455	0.	-2677.8
1669	12.523	4.3636	0.	-2677.1
1670	12.523	4.1818	0.	-2676.4
1671	12.523	4.	0.	-2675.8
1672	12.523	3.8182	0.	-2675.4
1673	12.523	3.6364	0.	-2675.
1674	12.523	3.4545	0.	-2674.7
1675	12.523	3.2727	0.	-2674.5
1676	12.523	3.0909	0.	-2674.4
1677	12.523	2.9091	0.	-2674.4
1678	12.523	2.7273	0.	-2674.5
1679	12.523	2.5455	0.	-2674.7
1680	12.523	2.3636	0.	-2675.
1681	12.523	2.1818	0.	-2675.4
1682	12.523	2.	0.	-2675.8
1683	12.523	1.8182	0.	-2676.4
1684	12.523	1.6364	0.	-2677.1
1685	12.523	1.4545	0.	-2677.8
1686	12.523	1.2727	0.	-2678.7
1687	12.523	1.0909	0.	-2679.6
1688	12.523	0.90909	0.	-2680.6
1689	12.523	0.72727	0.	-2681.7
1690	12.523	0.54545	0.	-2683.
1691	12.523	0.36364	0.	-2684.3
1692	12.523	0.18182	0.	-2687.2
1693	12.339	5.8182	0.	-2736.5
1694	12.339	5.6364	0.	-2733.6
1695	12.339	5.4545	0.	-2732.2
1696	12.339	5.2727	0.	-2731.
1697	12.339	5.0909	0.	-2729.8
1698	12.339	4.9091	0.	-2728.8
1699	12.339	4.7273	0.	-2727.8
1700	12.339	4.5455	0.	-2726.9
1701	12.339	4.3636	0.	-2726.1
1702	12.339	4.1818	0.	-2725.4
1703	12.339	4.	0.	-2724.9
1704	12.339	3.8182	0.	-2724.4
1705	12.339	3.6364	0.	-2724.
1706	12.339	3.4545	0.	-2723.7
1707	12.339	3.2727	0.	-2723.5
1708	12.339	3.0909	0.	-2723.4
1709	12.339	2.9091	0.	-2723.4
1710	12.339	2.7273	0.	-2723.5
1711	12.339	2.5455	0.	-2723.7
1712	12.339	2.3636	0.	-2724.
1713	12.339	2.1818	0.	-2724.4
1714	12.339	2.	0.	-2724.9
1715	12.339	1.8182	0.	-2725.4
1716	12.339	1.6364	0.	-2726.1
1717	12.339	1.4545	0.	-2726.9
1718	12.339	1.2727	0.	-2727.8
1719	12.339	1.0909	0.	-2728.8
1720	12.339	0.90909	0.	-2729.8
1721	12.339	0.72727	0.	-2731.
1722	12.339	0.54545	0.	-2732.2
1723	12.339	0.36364	0.	-2733.6
1724	12.339	0.18182	0.	-2736.5
1725	12.155	5.8182	0.	-2786.1
1726	12.155	5.6364	0.	-2783.1
1727	12.155	5.4545	0.	-2781.7
1728	12.155	5.2727	0.	-2780.4
1729	12.155	5.0909	0.	-2779.2
1730	12.155	4.9091	0.	-2778.1
1731	12.155	4.7273	0.	-2777.1
1732	12.155	4.5455	0.	-2776.2
1733	12.155	4.3636	0.	-2775.4
1734	12.155	4.1818	0.	-2774.7
1735	12.155	4.	0.	-2774.1
1736	12.155	3.8182	0.	-2773.6
1737	12.155	3.6364	0.	-2773.1
1738	12.155	3.4545	0.	-2772.8
1739	12.155	3.2727	0.	-2772.6
1740	12.155	3.0909	0.	-2772.5
1741	12.155	2.9091	0.	-2772.5
1742	12.155	2.7273	0.	-2772.6
1743	12.155	2.5455	0.	-2772.8
1744	12.155	2.3636	0.	-2773.1
1745	12.155	2.1818	0.	-2773.6
1746	12.155	2.	0.	-2774.1
1747	12.155	1.8182	0.	-2774.7
1748	12.155	1.6364	0.	-2775.4
1749	12.155	1.4545	0.	-2776.2
1750	12.155	1.2727	0.	-2777.1
1751	12.155	1.0909	0.	-2778.1
1752	12.155	0.90909	0.	-2779.2
1753	12.155	0.72727	0.	-2780.4
1754	12.155	0.54545	0.	-2781.7
1755	12.155	0.36364	0.	-2783.1
1756	12.155	0.18182	0.	-2786.1
1757	11.971	5.8182	0.	-2835.8
1758	11.971	5.6364	0.	-2832.8
1759	11.971	5.4545	0.	-2831.3
1760	11.971	5.2727	0.	-2830.
1761	11.971	5.0909	0.	-2828.8
1762	11.971	4.9091	0.	-2827.7
1763	11.971	4.7273	0.	-2826.6
1764	11.971	4.5455	0.	-2825.7
1765	11.971	4.3636	0.	-2824.8
1766	11.971	4.1818	0.	-2824.1
1767	11.971	4.	0.	-2823.5
1768	11.971	3.8182	0.	-2822.9
1769	11.971	3.6364	0.	-2822.5
1770	11.971	3.4545	0.	-2822.2
1771	11.971	3.2727	0.	-2822.
1772	11.971	3.0909	0.	-2821.9
1773	11.971	2.9091	0.	-2821.9
1774	11.971	2.7273	0.	-2822.
1775	11.971	2.5455	0.	-2822.2
1776	11.971	2.3636	0.	-2822.5
1777	11.971	2.1818	0.	-2822.9
1778	11.971	2.	0.	-2823.5
1779	11.971	1.8182	0.	-2824.1
1780	11.971	1.6364	0.	-2824.8
1781	11.971	1.4545	0.	-2825.7
1782	11.971	1.2727	0.	-2826.6
1783	11.971	1.0909	0.	-2827.7
1784	11.971	0.90909	0.	-2828.8
1785	11.971	0.72727	0.	-2830.
1786	11.971	0.54545	0.	-2831.3
1787	11.971	0.36364	0.	-2832.8
1788	11.971	0.18182	0.	-2835.8
1789	11.787	5.8182	0.	-2885.7
1790	11.787	5.6364	0.	-2882.7
1791	11.787	5.4545	0.	-2881.2
1792	11.787	5.2727	0.	-2879.9
1793	11.787	5.0909	0.	-2878.6
1794	11.787	4.9091	0.	-2877.4
1795	11.787	4.7273	0.	-2876.3
1796	11.787	4.5455	0.	-2875.4
1797	11.787	4.3636	0.	-2874.5
1798	11.787	4.1818	0.	-2873.7
1799	11.787	4.	0.	-2873.1
1800	11.787	3.8182	0.	-2872.5
1801	11.787	3.6364	0.	-2872.1
1802	11.787	3.4545	0.	-2871.7
1803	11.787	3.2727	0.	-2871.5
1804	11.787	3.0909	0.	-2871.4
1805	11.787	2.9091	0.	-2871.4
1806	11.787	2.7273	0.	-2871.5
1807	11.787	2.5455	0.	-2871.7
1808	11.787	2.3636	0.	-2872.1
1809	11.787	2.1818	0.	-2872.5
1810	11.787	2.	0.	-2873.1
1811	11.787	1.8182	0.	-2873.7
1812	11.787	1.6364	0.	-2874.5
1813	11.787	1.4545	0.	-2875.4
1814	11.787	1.2727	0.	-2876.3
1815	11.787	1.0909	0.	-2877.4
1816	11.787	0.90909	0.	-2878.6
1817	11.787	0.72727	0.	-2879.9
1818	11.787	0.54545	0.	-2881.2
1819	11.787	0.36364	0.	-2882.7
1820	11.787	0.18182	0.	-2885.7
1821	11.602	5.8182	0.	-2935.9
1822	11.602	5.6364	0.	-2932.9
1823	11.602	5.4545	0.	-2931.3
1824	11.602	5.2727	0.	-2929.9
1825	11.602	5.0909	0.	-2928.6
1826	11.602	4.9091	0.	-2927.4
1827	11.602	4.7273	0.	-2926.3
1828	11.602	4.5455	0.	-2925.2
1829	11.602	4.3636	0.	-2924.3
1830	11.602	4.1818	0.	-2923.5
1831	11.602	4.	0.	-2922.8
1832	11.602	3.8182	0.	-2922.2
1833	11.602	3.6364	0.	-2921.8
1834	11.602	3.4545	0.	-2921.4
1835	11.602	3.2727	0.	-2921.2
1836	11.602	3.0909	0.	-2921.1
1837	11.602	2.9091	0.	-2921.1
1838	11.602	2.7273	0.	-2921.2
1839	11.602	2.5455	0.	-2921.4
1840	11.602	2.3636	0.	-2921.8
1841	11.602	2.1818	0.	-2922.2
1842	11.602	2.	0.	-2922.8
1843	11.602	1.8182	0.	-2923.5
1844	11.602	1.6364	0.	-2924.3
1845	11.602	1.4545	0.	-2925.2
1846	11.602	1.2727	0.	-2926.3
1847	11.602	1.0909	0.	-2927.4
1848	11.602	0.90909	0.	-2928.6
1849	11.602	0.72727	0.	-2929.9
1850	11.602	0.54545	0.	-2931.3
1851	11.602	0.36364	0.	-2932.9
1852	11.602	0.18182	0.	-2935.9
1853	11.418	5.8182	0.	-2986.2
1854	11.418	5.6364	0.	-2983.2
1855	11.418	5.4545	0.	-2981.6
1856	11.418	5.2727	0.	-2980.1
1857	11.418	5.0909	0.	-2978.8
1858	11.418	4.9091	0.	-2977.5
1859	11.418	4.7273	0.	-2976.4
1860	11.418	4.5455	0.	-2975.3
1861	11.418	4.3636	0.	-2974.4
1862	11.418	4.1818	0.	-2973.5
1863	11.418	4.	0.	-2972.8
1864	11.418	3.8182	0.	-2972.2
1865	11.418	3.6364	0.	-2971.7
1866	11.418	3.4545	0.	-2971.3
1867	11.418	3.2727	0.	-2971.1
1868	11.418	3.0909	0.	-2971.
1869	11.418	2.9091	0.	-2971.
1870	11.418	2.7273	0.	-2971.1
1871	11.418	2.5455	0.	-2971.3
1872	11.418	2.3636	0.	-2971.7
1873	11.418	2.1818	0.	-2972.2
1874	11.418	2.	0.	-2972.8
1875	11.418	1.8182	0.	-2973.5
1876	11.418	1.6364	0.	-2974.4
1877	11.418	1.4545	0.	-2975.3
1878	11.418	1.2727	0.	-2976.4
1879	11.418	1.0909	0.	-2977.5
1880	11.418	0.90909	0.	-2978.8
1881	11.418	0.72727	0.	-2980.1
1882	11.418	0.54545	0.	-2981.6
1883	11.418	0.36364	0.	-2983.2
1884	11.418	0.18182	0.	-2986.2
1885	11.234	5.8182	0.	-3036.8
1886	11.234	5.6364	0.	-3033.8
1887	11.234	5.4545	0.	-3032.1
1888	11.234	5.2727	0.	-3030.6
1889	11.234	5.0909	0.	-3029.2
1890	11.234	4.9091	0.	-3027.9
1891	11.234	4.7273	0.	-3026.7
1892	11.234	4.5455	0.	-3025.6
1893	11.234	4.3636	0.	-3024.6
1894	11.234	4.1818	0.	-3023.7
1895	11.234	4.	0.	-3022.9
1896	11.234	3.8182	0.	-3022.3
1897	11.234	3.6364	0.	-3021.8
1898	11.234	3.4545	0.	-3021.4
1899	11.234	3.2727	0.	-3021.1
1900	11.234	3.0909	0.	-3021.
1901	11.234	2.9091	0.	-3021.
1902	11.234	2.7273	0.	-3021.1
1903	11.234	2.5455	0.	-3021.4
1904	11.234	2.3636	0.	-3021.8
1905	11.234	2.1818	0.	-3022.3
1906	11.234	2.	0.	-3022.9
1907	11.234	1.8182	0.	-3023.7
1908	11.234	1.6364	0.	-3024.6
1909	11.234	1.4545	0.	-3025.6
1910	11.234	1.2727	0.	-3026.7
1911	11.234	1.0909	0.	-3027.9
1912	11.234	0.90909	0.	-3029.2
1913	11.234	0.72727	0.	-3030.6
1914	11.234	0.54545	0.	-3032.1
1915	11.234	0.36364	0.	-3033.8
1916	11.234	0.18182	0.	-3036.8
1917	11.05	5.8182	0.	-3087.6
1918	11.05	5.6364	0.	-3084.6
1919	11.05	5.4545	0.	-3082.8
1920	11.05	5.2727	0.	-3081.3
1921	11.05	5.0909	0.	-3079.8
1922	11.05	4.9091	0.	-3078.4
1923	11.05	4.7273	0.	-3077.2
1924	11.05	4.5455	0.	-3076.
1925	11.05	4.3636	0.	-3075.
1926	11.05	4.1818	0.	-3074.1
1927	11.05	4.	0.	-3073.3
1928	11.05	3.8182	0.	-3072.6
1929	11.05	3.6364	0.	-3072.1
1930	11.05	3.4545	0.	-3071.7
1931	11.05	3.2727	0.	-3071.4
1932	11.05	3.0909	0.	-3071.3
1933	11.05	2.9091	0.	-3071.3
1934	11.05	2.7273	0.	-3071.4
1935	11.05	2.5455	0.	-3071.7
1936	11.05	2.3636	0.	-3072.1
1937	11.05	2.1818	0.	-3072.6
1938	11.05	2.	0.	-3073.3
1939	11.05	1.8182	0.	-3074.1
1940	11.05	1.6364	0.	-3075.
1941	11.05	1.4545	0.	-3076.
1942	11.05	1.2727	0.	-3077.2
1943	11.05	1.0909	0.	-3078.4
1944	11.05	0.90909	0.	-3079.8
1945	11.05	0.72727	0.	-3081.3
1946	11.05	0.54545	0.	-3082.8
1947	11.05	0.36364	0.	-3084.6
1948	11.05	0.18182	0.	-3087.6
1949	10.866	5.8182	0.	-3138.7
1950	10.866	5.6364	0.	-3135.6
1951	10.866	5.4545	0.	-3133.8
1952	10.866	5.2727	0.	-3132.1
1953	10.866	5.0909	0.	-3130.6
1954	10.866	4.9091	0.	-3129.2
1955	10.866	4.7273	0.	-3127.9
1956	10.866	4.5455	0.	-3126.7
1957	10.866	4.3636	0.	-3125.6
1958	10.866	4.1818	0.	-3124.6
1959	10.866	4.	0.	-3123.8
1960	10.866	3.8182	0.	-3123.1
1961	10.866	3.6364	0.	-3122.5
1962	10.866	3.4545	0.	-3122.1
1963	10.866	3.2727	0.	-3121.8
1964	10.866	3.0909	0.	-3121.7
1965	10.866	2.9091	0.	-3121.7
1966	10.866	2.7273	0.	-3121.8
1967	10.866	2.5455	0.	-3122.1
1968	10.866	2.3636	0.	-3122.5
1969	10.866	2.1818	0.	-3123.1
1970	10.866	2.	0.	-3123.8
1971	10.866	1.8182	0.	-3124.6
1972	10.866	1.6364	0.	-3125.6
1973	10.866	1.4545	0.	-3126.7
1974	10.866	1.2727	0.	-3127.9
1975	10.866	1.0909	0.	-3129.2
1976	10.866	0.90909	0.	-3130.6
1977	10.866	0.72727	0.	-3132.1
1978	10.866	0.54545	0.	-3133.8
1979	10.866	0.36364	0.	-3135.6
1980	10.866	0.18182	0.	-3138.7
1981	10.682	5.8182	0.	-3189.9
1982	10.682	5.6364	0.	-3186.8
1983	10.682	5.4545	0.	-3184.9
1984	10.682	5.2727	0.	-3183.2
1985	10.682	5.0909	0.	-3181.6
1986	10.682	4.9091	0.	-3180.1
1987	10.682	4.7273	0.	-3178.8
1988	10.682	4.5455	0.	-3177.5
1989	10.682	4.3636	0.	-3176.4
1990	10.682	4.1818	0.	-3175.3
1991	10.682	4.	0.	-3174.5
1992	10.682	3.8182	0.	-3173.7
1993	10.682	3.6364	0.	-3173.1
1994	10.682	3.4545	0.	-3172.7
1995	10.682	3.2727	0.	-3172.4
1996	10.682	3.0909	0.	-3172.2
1997	10.682	2.9091	0.	-3172.2
1998	10.682	2.7273	0.	-3172.4
1999	10.682	2.5455	0.	-3172.7
2000	10.682	2.3636	0.	-3173.1
2001	10.682	2.1818	0.	-3173.7
2002	10.682	2.	0.	-3174.5
2003	10.682	1.8182	0.	-3175.3
2004	10.682	1.6364	0.	-3176.4
2005	10.682	1.4545	0.	-3177.5
2006	10.682	1.2727	0.	-3178.8
2007	10.682	1.0909	0.	-3180.1
2008	10.682	0.90909	0.	-3181.6
2009	10.682	0.72727	0.	-3183.2
2010	10.682	0.54545	0.	-3184.9
2011	10.682	0.36364	0.	-3186.8
2012	10.682	0.18182	0.	-3189.9
2013	10.498	5.8182	0.	-3241.4
2014	10.498	5.6364	0.	-3238.2
2015	10.498	5.4545	0.	-3236.3
2016	10.498	5.2727	0.	-3234.5
2017	10.498	5.0909	0.	-3232.9
2018	10.498	4.9091	0.	-3231.3
2019	10.498	4.7273	0.	-3229.8
2020	10.498	4.5455	0.	-3228.5
2021	10.498	4.3636	0.	-3227.3
2022	10.498	4.1818	0.	-3226.3
2023	10.498	4.	0.	-3225.3
2024	10.498	3.8182	0.	-3224.6
2025	10.498	3.6364	0.	-3223.9
2026	10.498	3.4545	0.	-3223.5
2027	10.498	3.2727	0.	-3223.2
2028	10.498	3.0909	0.	-3223.
2029	10.498	2.9091	0.	-3223.
2030	10.498	2.7273	0.	-3223.2
2031	10.498	2.5455	0.	-3223.5
2032	10.498	2.3636	0.	-3223.9
2033	10.498	2.1818	0.	-3224.6
2034	10.498	2.	0.	-3225.3
2035	10.498	1.8182	0.	-3226.3
2036	10.498	1.6364	0.	-3227.3
2037	10.498	1.4545	0.	-3228.5
2038	10.498	1.2727	0.	-3229.8
2039	10.498	1.0909	0.	-3231.3
2040	10.498	0.90909	0.	-3232.9
2041	10.498	0.72727	0.	-3234.5
2042	10.498	0.54545	0.	-3236.3
2043	10.498	0.36364	0.	-3238.2
2044	10.498	0.18182	0.	-3241.4
2045	10.313	5.8182	0.	-3293.2
2046	10.313	5.6364	0.	-3289.9
2047	10.313	5.4545	0.	-3287.9
2048	10.313	5.2727	0.	-3286.
2049	10.313	5.0909	0.	-3284.3
2050	10.313	4.9091	0.	-3282.6
2051	10.313	4.7273	0.	-3281.1
2052	10.313	4.5455	0.	-3279.7
2053	10.313	4.3636	0.	-3278.5
2054	10.313	4.1818	0.	-3277.4
2055	10.313	4.	0.	-3276.4
2056	10.313	3.8182	0.	-3275.6
2057	10.313	3.6364	0.	-3274.9
2058	10.313	3.4545	0.	-3274.4
2059	10.313	3.2727	0.	-3274.1
2060	10.313	3.0909	0.	-3273.9
2061	10.313	2.9091	0.	-3273.9
2062	10.313	2.7273	0.	-3274.1
2063	10.313	2.5455	0.	-3274.4
2064	10.313	2.3636	0.	-3274.9
2065	10.313	2.1818	0.	-3275.6
2066	10.313	2.	0.	-3276.4
2067	10.313	1.8182	0.	-3277.4
2068	10.313	1.6364	0.	-3278.5
2069	10.313	1.4545	0.	-3279.7
2070	10.313	1.2727	0.	-3281.1
2071	10.313	1.0909	0.	-3282.7
2072	10.313	0.90909	0.	-3284.3
2073	10.313	0.72727	0.	-3286.
2074	10.313	0.54545	0.	-3287.9
2075	10.313	0.36364	0.	-3289.9
2076	10.313	0.18182	0.	-3293.2
2077	10.129	5.8182	0.	-3345.1
2078	10.129	5.6364	0.	-3341.8
2079	10.129	5.4545	0.	-3339.7
2080	10.129	5.2727	0.	-3337.8
2081	10.129	5.0909	0.	-3335.9
2082	10.129	4.9091	0.	-3334.2
2083	10.129	4.7273	0.	-3332.6
2084	10.129	4.5455	0.	-3331.1
2085	10.129	4.3636	0.	-3329.8
2086	10.129	4.1818	0.	-3328.6
2087	10.129	4.	0.	-3327.6
2088	10.129	3.8182	0.	-3326.8
2089	10.129	3.6364	0.	-3326.1
2090	10.129	3.4545	0.	-3325.5
2091	10.129	3.2727	0.	-3325.2
2092	10.129	3.0909	0.	-3325.
2093	10.129	2.9091	0.	-3325.
2094	10.129	2.7273	0.	-3325.2
2095	10.129	2.5455	0.	-3325.5
2096	10.129	2.3636	0.	-3326.1
2097	10.129	2.1818	0.	-3326.8
2098	10.129	2.	0.	-3327.6
2099	10.129	1.8182	0.	-3328.6
2100	10.129	1.6364	0.	-3329.8
2101	10.129	1.4545	0.	-3331.1
2102	10.129	1.2727	0.	-3332.6
2103	10.129	1.0909	0.	-3334.2
2104	10.129	0.90909	0.	-3335.9
2105	10.129	0.72727	0.	-3337.8
2106	10.129	0.54545	0.	-3339.7
2107	10.129	0.36364	0.	-3341.8
2108	10.129	0.18182	0.	-3345.1
2109	9.945	5.8182	0.	-3397.3
2110	9.945	5.6364	0.	-3394.
2111	9.945	5.4545	0.	-3391.8
2112	9.945	5.2727	0.	-3389.7
2113	9.945	5.0909	0.	-3387.8
2114	9.945	4.9091	0.	-3386.
2115	9.945	4.7273	0.	-3384.3
2116	9.945	4.5455	0.	-3382.7
2117	9.945	4.3636	0.	-3381.3
2118	9.945	4.1818	0.	-3380.1
2119	9.945	4.	0.	-3379.
2120	9.945	3.8182	0.	-3378.1
2121	9.945	3.6364	0.	-3377.4
2122	9.945	3.4545	0.	-3376.8
2123	9.945	3.2727	0.	-3376.4
2124	9.945	3.0909	0.	-3376.2
2125	9.945	2.9091	0.	-3376.2
2126	9.945	2.7273	0.	-3376.4
2127	9.945	2.5455	0.	-3376.8
2128	9.945	2.3636	0.	-3377.4
2129	9.945	2.1818	0.	-3378.1
2130	9.945	2.	0.	-3379.
2131	9.945	1.8182	0.	-3380.1
2132	9.945	1.6364	0.	-3381.3
2133	9.945	1.4545	0.	-3382.7
2134	9.945	1.2727	0.	-3384.3
2135	9.945	1.0909	0.	-3386.
2136	9.945	0.90909	0.	-3387.8
2137	9.945	0.72727	0.	-3389.7
2138	9.945	0.54545	0.	-3391.8
2139	9.945	0.36364	0.	-3394.
2140	9.945	0.18182	0.	-3397.3
2141	9.7608	5.8182	0.	-3449.8
2142	9.7608	5.6364	0.	-3446.4
2143	9.7608	5.4545	0.	-3444.1
2144	9.7608	5.2727	0.	-3441.9
2145	9.7608	5.0909	0.	-3439.9
2146	9.7608	4.9091	0.	-3438.
2147	9.7608	4.7273	0.	-3436.2
2148	9.7608	4.5455	0.	-3434.5
2149	9.7608	4.3636	0.	-3433.
2150	9.7608	4.1818	0.	-3431.7
2151	9.7608	4.	0.	-3430.6
2152	9.7608	3.8182	0.	-3429.6
2153	9.7608	3.6364	0.	-3428.8
2154	9.7608	3.4545	0.	-3428.2
2155	9.7608	3.2727	0.	-3427.8
2156	9.7608	3.0909	0.	-3427.6
2157	9.7608	2.9091	0.	-3427.6
2158	9.7608	2.7273	0.	-3427.8
2159	9.7608	2.5455	0.	-3428.2
2160	9.7608	2.3636	0.	-3428.8
2161	9.7608	2.1818	0.	-3429.6
2162	9.7608	2.	0.	-3430.6
2163	9.7608	1.8182	0.	-3431.7
2164	9.7608	1.6364	0.	-3433.
2165	9.7608	1.4545	0.	-3434.5
2166	9.7608	1.2727	0.	-3436.2
2167	9.7608	1.0909	0.	-3438.
2168	9.7608	0.90909	0.	-3439.9
2169	9.7608	0.72727	0.	-3441.9
2170	9.7608	0.54545	0.	-3444.1
2171	9.7608	0.36364	0.	-3446.4
2172	9.7608	0.18182	0.	-3449.8
2173	9.5767	5.8182	0.	-3502.5
2174	9.5767	5.6364	0.	-3499.
2175	9.5767	5.4545	0.	-3496.6
2176	9.5767	5.2727	0.	-3494.3
2177	9.5767	5.0909	0.	-3492.2
2178	9.5767	4.9091	0.	-3490.1
2179	9.5767	4.7273	0.	-3488.2
2180	9.5767	4.5455	0.	-3486.5
2181	9.5767	4.3636	0.	-3484.9
2182	9.5767	4.1818	0.	-3483.5
2183	9.5767	4.	0.	-3482.3
2184	9.5767	3.8182	0.	-3481.3
2185	9.5767	3.6364	0.	-3480.5
2186	9.5767	3.4545	0.	-3479.8
2187	9.5767	3.2727	0.	-3479.4
2188	9.5767	3.0909	0.	-3479.2
2189	9.5767	2.9091	0.	-3479.2
2190	9.5767	2.7273	0.	-3479.4
2191	9.5767	2.5455	0.	-3479.8
2192	9.5767	2.3636	0.	-3480.5
2193	9.5767	2.1818	0.	-3481.3
2194	9.5767	2.	0.	-3482.3
2195	9.5767	1.8182	0.	-3483.5
2196	9.5767	1.6364	0.	-3484.9
2197	9.5767	1.4545	0.	-3486.5
2198	9.5767	1.2727	0.	-3488.2
2199	9.5767	1.0909	0.	-3490.1
2200	9.5767	0.90909	0.	-3492.2
2201	9.5767	0.72727	0.	-3494.3
2202	9.5767	0.54545	0.	-3496.6
2203	9.5767	0.36364	0.	-3499.
2204	9.5767	0.18182	0.	-3502.5
2205	9.3925	5.8182	0.	-3555.5
2206	9.3925	5.6364	0.	-3551.9
2207	9.3925	5.4545	0.	-3549.3
2208	9.3925	5.2727	0.	-3546.9
2209	9.3925	5.0909	0.	-3544.7
2210	9.3925	4.9091	0.	-3542.5
2211	9.3925	4.7273	0.	-3540.5
2212	9.3925	4.5455	0.	-3538.7
2213	9.3925	4.3636	0.	-3537.
2214	9.3925	4.1818	0.	-3535.5
2215	9.3925	4.	0.	-3534.2
2216	9.3925	3.8182	0.	-3533.1
2217	9.3925	3.6364	0.	-3532.3
2218	9.3925	3.4545	0.	-3531.6
2219	9.3925	3.2727	0.	-3531.1
2220	9.3925	3.0909	0.	-3530.9
2221	9.3925	2.9091	0.	-3530.9
2222	9.3925	2.7273	0.	-3531.1
2223	9.3925	2.5455	0.	-3531.6
2224	9.3925	2.3636	0.	-3532.3
2225	9.3925	2.1818	0.	-3533.1
2226	9.3925	2.	0.	-3534.2
2227	9.3925	1.8182	0.	-3535.5
2228	9.3925	1.6364	0.	-3537.
2229	9.3925	1.4545	0.	-3538.7
2230	9.3925	1.2727	0.	-3540.5
2231	9.3925	1.0909	0.	-3542.5
2232	9.3925	0.90909	0.	-3544.7
2233	9.3925	0.72727	0.	-3546.9
2234	9.3925	0.54545	0.	-3549.3
2235	9.3925	0.36364	0.	-3551.9
2236	9.3925	0.18182	0.	-3555.5
2237	9.2083	5.8182	0.	-3608.7
2238	9.2083	5.6364	0.	-3605.
2239	9.2083	5.4545	0.	-3602.3
2240	9.2083	5.2727	0.	-3599.8
2241	9.2083	5.0909	0.	-3597.4
2242	9.2083	4.9091	0.	-3595.1
2243	9.2083	4.7273	0.	-3593.
2244	9.2083	4.5455	0.	-3591.
2245	9.2083	4.3636	0.	-3589.3
2246	9.2083	4.1818	0.	-3587.7
2247	9.2083	4.	0.	-3586.3
2248	9.2083	3.8182	0.	-3585.1
2249	9.2083	3.6364	0.	-3584.2
2250	9.2083	3.4545	0.	-3583.5
2251	9.2083	3.2727	0.	-3583.
2252	9.2083	3.0909	0.	-3582.8
2253	9.2083	2.9091	0.	-3582.8
2254	9.2083	2.7273	0.	-3583.
2255	9.2083	2.5455	0.	-3583.5
2256	9.2083	2.3636	0.	-3584.2
2257	9.2083	2.1818	0.	-3585.1
2258	9.2083	2.	0.	-3586.3
2259	9.2083	1.8182	0.	-3587.7
2260	9.2083	1.6364	0.	-3589.3
2261	9.2083	1.4545	0.	-3591.
2262	9.2083	1.2727	0.	-3593.
2263	9.2083	1.0909	0.	-3595.1
2264	9.2083	0.90909	0.	-3597.4
2265	9.2083	0.72727	0.	-3599.8
2266	9.2083	0.54545	0.	-3602.3
2267	9.2083	0.36364	0.	-3605.
2268	9.2083	0.18182	0.	-3608.7
2269	9.0242	5.8182	0.	-3662.2
2270	9.0242	5.6364	0.	-3658.4
2271	9.0242	5.4545	0.	-3655.5
2272	9.0242	5.2727	0.	-3652.9
2273	9.0242	5.0909	0.	-3650.3
2274	9.0242	4.9091	0.	-3647.9
2275	9.0242	4.7273	0.	-3645.6
2276	9.0242	4.5455	0.	-3643.6
2277	9.0242	4.3636	0.	-3641.7
2278	9.0242	4.1818	0.	-3640.
2279	9.0242	4.	0.	-3638.5
2280	9.0242	3.8182	0.	-3637.3
2281	9.0242	3.6364	0.	-3636.3
2282	9.0242	3.4545	0.	-3635.5
2283	9.0242	3.2727	0.	-3635.
2284	9.0242	3.0909	0.	-3634.8
2285	9.0242	2.9091	0.	-3634.8
2286	9.0242	2.7273	0.	-3635.
2287	9.0242	2.5455	0.	-3635.5
2288	9.0242	2.3636	0.	-3636.3
2289	9.0242	2.1818	0.	-3637.3
2290	9.0242	2.	0.	-3638.5
2291	9.0242	1.8182	0.	-3640.
2292	9.0242	1.6364	0.	-3641.7
2293	9.0242	1.4545	0.	-3643.6
2294	9.0242	1.2727	0.	-3645.6
2295	9.0242	1.0909	0.	-3647.9
2296	9.0242	0.90909	0.	-3650.3
2297	9.0242	0.72727	0.	-3652.9
2298	9.0242	0.54545	0.	-3655.5
2299	9.0242	0.36364	0.	-3658.4
2300	9.0242	0.18182	0.	-3662.2
2301	8.84	5.8182	0.	-3716.
2302	8.84	5.6364	0.	-3712.
2303	8.84	5.4545	0.	-3709.
2304	8.84	5.2727	0.	-3706.2
2305	8.84	5.0909	0.	-3703.5
2306	8.84	4.9091	0.	-3700.9
2307	8.84	4.7273	0.	-3698.5
2308	8.84	4.5455	0.	-3696.3
2309	8.84	4.3636	0.	-3694.3
2310	8.84	4.1818	0.	-3692.5
2311	8.84	4.	0.	-3690.9
2312	8.84	3.8182	0.	-3689.6
2313	8.84	3.6364	0.	-3688.5
2314	8.84	3.4545	0.	-3687.7
2315	8.84	3.2727	0.	-3687.2
2316	8.84	3.0909	0.	-3686.9
2317	8.84	2.9091	0.	-3686.9
2318	8.84	2.7273	0.	-3687.2
2319	8.84	2.5455	0.	-3687.7
2320	8.84	2.3636	0.	-3688.5
2321	8.84	2.1818	0.	-3689.6
2322	8.84	2.	0.	-3690.9
2323	8.84	1.8182	0.	-3692.5
2324	8.84	1.6364	0.	-3694.3
2325	8.84	1.4545	0.	-3696.3
2326	8.84	1.2727	0.	-3698.5
2327	8.84	1.0909	0.	-3700.9
2328	8.84	0.90909	0.	-3703.5
2329	8.84	0.72727	0.	-3706.2
2330	8.84	0.54545	0.	-3709.
2331	8.84	0.36364	0.	-3712.
2332	8.84	0.18182	0.	-3716.
2333	8.6558	5.8182	0.	-3770.
2334	8.6558	5.6364	0.	-3765.9
2335	8.6558	5.4545	0.	-3762.8
2336	8.6558	5.2727	0.	-3759.7
2337	8.6558	5.0909	0.	-3756.9
2338	8.6558	4.9091	0.	-3754.1
2339	8.6558	4.7273	0.	-3751.6
2340	8.6558	4.5455	0.	-3749.2
2341	8.6558	4.3636	0.	-3747.1
2342	8.6558	4.1818	0.	-3745.1
2343	8.6558	4.	0.	-3743.5
2344	8.6558	3.8182	0.	-3742.1
2345	8.6558	3.6364	0.	-3740.9
2346	8.6558	3.4545	0.	-3740.
2347	8.6558	3.2727	0.	-3739.5
2348	8.6558	3.0909	0.	-3739.2
2349	8.6558	2.9091	0.	-3739.2
2350	8.6558	2.7273	0.	-3739.5
2351	8.6558	2.5455	0.	-3740.
2352	8.6558	2.3636	0.	-3740.9
2353	8.6558	2.1818	0.	-3742.1
2354	8.6558	2.	0.	-3743.5
2355	8.6558	1.8182	0.	-3745.1
2356	8.6558	1.6364	0.	-3747.1
2357	8.6558	1.4545	0.	-3749.2
2358	8.6558	1.2727	0.	-3751.6
2359	8.6558	1.0909	0.	-3754.1
2360	8.6558	0.90909	0.	-3756.9
2361	8.6558	0.72727	0.	-3759.7
2362	8.6558	0.54545	0.	-3762.8
2363	8.6558	0.36364	0.	-3765.9
2364	8.6558	0.18182	0.	-3770.
2365	8.4717	5.8182	0.	-3824.4
2366	8.4717	5.6364	0.	-3820.1
2367	8.4717	5.4545	0.	-3816.8
2368	8.4717	5.2727	0.	-3813.5
2369	8.4717	5.0909	0.	-3810.5
2370	8.4717	4.9091	0.	-3807.6
2371	8.4717	4.7273	0.	-3804.8
2372	8.4717	4.5455	0.	-3802.3
2373	8.4717	4.3636	0.	-3800.
2374	8.4717	4.1818	0.	-3798.
2375	8.4717	4.	0.	-3796.2
2376	8.4717	3.8182	0.	-3794.7
2377	8.4717	3.6364	0.	-3793.4
2378	8.4717	3.4545	0.	-3792.5
2379	8.4717	3.2727	0.	-3791.9
2380	8.4717	3.0909	0.	-3791.6
2381	8.4717	2.9091	0.	-3791.6
2382	8.4717	2.7273	0.	-3791.9
2383	8.4717	2.5455	0.	-3792.5
2384	8.4717	2.3636	0.	-3793.4
2385	8.4717	2.1818	0.	-3794.7
2386	8.4717	2.	0.	-3796.2
2387	8.4717	1.8182	0.	-3798.
2388	8.4717	1.6364	0.	-3800.
2389	8.4717	1.4545	0.	-3802.3
2390	8.4717	1.2727	0.	-3804.8
2391	8.4717	1.0909	0.	-3807.6
2392	8.4717	0.90909	0.	-3810.5
2393	8.4717	0.72727	0.	-3813.5
2394	8.4717	0.54545	0.	-3816.8
2395	8.4717	0.36364	0.	-3820.1
2396	8.4717	0.18182	0.	-3824.4
2397	8.2875	5.8182	0.	-3879.
2398	8.2875	5.6364	0.	-3874.6
2399	8.2875	5.4545	0.	-3871.
2400	8.2875	5.2727	0.	-3867.6
2401	8.2875	5.0909	0.	-3864.3
2402	8.2875	4.9091	0.	-3861.2
2403	8.2875	4.7273	0.	-3858.3
2404	8.2875	4.5455	0.	-3855.6
2405	8.2875	4.3636	0.	-3853.1
2406	8.2875	4.1818	0.	-3850.9
2407	8.2875	4.	0.	-3849.
2408	8.2875	3.8182	0.	-3847.4
2409	8.2875	3.6364	0.	-3846.1
2410	8.2875	3.4545	0.	-3845.1
2411	8.2875	3.2727	0.	-3844.4
2412	8.2875	3.0909	0.	-3844.1
2413	8.2875	2.9091	0.	-3844.1
2414	8.2875	2.7273	0.	-3844.4
2415	8.2875	2.5455	0.	-3845.1
2416	8.2875	2.3636	0.	-3846.1
2417	8.2875	2.1818	0.	-3847.4
2418	8.2875	2.	0.	-3849.
2419	8.2875	1.8182	0.	-3850.9
2420	8.2875	1.6364	0.	-3853.1
2421	8.2875	1.4545	0.	-3855.6
2422	8.2875	1.2727	0.	-3858.3
2423	8.2875	1.0909	0.	-3861.2
2424	8.2875	0.90909	0.	-3864.3
2425	8.2875	0.72727	0.	-3867.6
2426	8.2875	0.54545	0.	-3871.
2427	8.2875	0.36364	0.	-3874.6
2428	8.2875	0.18182	0.	-3879.
2429	8.1033	5.8182	0.	-3934.
2430	8.1033	5.6364	0.	-3929.4
2431	8.1033	5.4545	0.	-3925.6
2432	8.1033	5.2727	0.	-3921.9
2433	8.1033	5.0909	0.	-3918.4
2434	8.1033	4.9091	0.	-3915.1
2435	8.1033	4.7273	0.	-3912.
2436	8.1033	4.5455	0.	-3909.1
2437	8.1033	4.3636	0.	-3906.4
2438	8.1033	4.1818	0.	-3904.1
2439	8.1033	4.	0.	-3902.
2440	8.1033	3.8182	0.	-3900.3
2441	8.1033	3.6364	0.	-3898.9
2442	8.1033	3.4545	0.	-3897.8
2443	8.1033	3.2727	0.	-3897.1
2444	8.1033	3.0909	0.	-3896.7
2445	8.1033	2.9091	0.	-3896.7
2446	8.1033	2.7273	0.	-3897.1
2447	8.1033	2.5455	0.	-3897.8
2448	8.1033	2.3636	0.	-3898.9
2449	8.1033	2.1818	0.	-3900.3
2450	8.1033	2.	0.	-3902.
2451	8.1033	1.8182	0.	-3904.1
2452	8.1033	1.6364	0.	-3906.4
2453	8.1033	1.4545	0.	-3909.1
2454	8.1033	1.2727	0.	-3912.
2455	8.1033	1.0909	0.	-3915.1
2456	8.1033	0.90909	0.	-3918.4
2457	8.1033	0.72727	0.	-3921.9
2458	8.1033	0.54545	0.	-3925.6
2459	8.1033	0.36364	0.	-3929.4
2460	8.1033	0.18182	0.	-3934.
2461	7.9192	5.8182	0.	-3989.2
2462	7.9192	5.6364	0.	-3984.4
2463	7.9192	5.4545	0.	-3980.4
2464	7.9192	5.2727	0.	-3976.5
2465	7.9192	5.0909	0.	-3972.7
2466	7.9192	4.9091	0.	-3969.2
2467	7.9192	4.7273	0.	-3965.8
2468	7.9192	4.5455	0.	-3962.7
2469	7.9192	4.3636	0.	-3959.9
2470	7.9192	4.1818	0.	-3957.4
2471	7.9192	4.	0.	-3955.2
2472	7.9192	3.8182	0.	-3953.3
2473	7.9192	3.6364	0.	-3951.8
2474	7.9192	3.4545	0.	-3950.6
2475	7.9192	3.2727	0.	-3949.8
2476	7.9192	3.0909	0.	-3949.4
2477	7.9192	2.9091	0.	-3949.4
2478	7.9192	2.7273	0.	-3949.8
2479	7.9192	2.5455	0.	-3950.6
2480	7.9192	2.3636	0.	-3951.8
2481	7.9192	2.1818	0.	-3953.3
2482	7.9192	2.	0.	-3955.2
2483	7.9192	1.8182	0.	-3957.4
2484	7.9192	1.6364	0.	-3959.9
2485	7.9192	1.4545	0.	-3962.7
2486	7.9192	1.2727	0.	-3965.8
2487	7.9192	1.0909	0.	-3969.2
2488	7.9192	0.90909	0.	-3972.7
2489	7.9192	0.72727	0.	-3976.5
2490	7.9192	0.54545	0.	-3980.4
2491	7.9192	0.36364	0.	-3984.4
2492	7.9192	0.18182	0.	-3989.2
2493	7.735	5.8182	0.	-4044.8
2494	7.735	5.6364	0.	-4039.8
2495	7.735	5.4545	0.	-4035.5
2496	7.735	5.2727	0.	-4031.3
2497	7.735	5.0909	0.	-4027.3
2498	7.735	4.9091	0.	-4023.5
2499	7.735	4.7273	0.	-4019.9
2500	7.735	4.5455	0.	-4016.6
2501	7.735	4.3636	0.	-4013.5
2502	7.735	4.1818	0.	-4010.8
2503	7.735	4.	0.	-4008.4
2504	7.735	3.8182	0.	-4006.4
2505	7.735	3.6364	0.	-4004.8
2506	7.735	3.4545	0.	-4003.5
2507	7.735	3.2727	0.	-4002.7
2508	7.735	3.0909	0.	-4002.3
2509	7.735	2.9091	0.	-4002.3
2510	7.735	2.7273	0.	-4002.7
2511	7.735	2.5455	0.	-4003.5
2512	7.735	2.3636	0.	-4004.8
2513	7.735	2.1818	0.	-4006.4
2514	7.735	2.	0.	-4008.4
2515	7.735	1.8182	0.	-4010.8
2516	7.735	1.6364	0.	-4013.5
2517	7.735	1.4545	0.	-4016.6
2518	7.735	1.2727	0.	-4019.9
2519	7.735	1.0909	0.	-4023.5
2520	7.735	0.90909	0.	-4027.3
2521	7.735	0.72727	0.	-4031.3
2522	7.735	0.54545	0.	-4035.5
2523	7.735	0.36364	0.	-4039.8
2524	7.735	0.18182	0.	-4044.8
2525	7.5508	5.8182	0.	-4100.8
2526	7.5508	5.6364	0.	-4095.5
2527	7.5508	5.4545	0.	-4090.9
2528	7.5508	5.2727	0.	-4086.4
2529	7.5508	5.0909	0.	-4082.1
2530	7.5508	4.9091	0.	-4078.
2531	7.5508	4.7273	0.	-4074.2
2532	7.5508	4.5455	0.	-4070.6
2533	7.5508	4.3636	0.	-4067.3
2534	7.5508	4.1818	0.	-4064.4
2535	7.5508	4.	0.	-4061.9
2536	7.5508	3.8182	0.	-4059.7
2537	7.5508	3.6364	0.	-4057.9
2538	7.5508	3.4545	0.	-4056.6
2539	7.5508	3.2727	0.	-4055.7
2540	7.5508	3.0909	0.	-4055.2
2541	7.5508	2.9091	0.	-4055.2
2542	7.5508	2.7273	0.	-4055.7
2543	7.5508	2.5455	0.	-4056.6
2544	7.5508	2.3636	0.	-4057.9
2545	7.5508	2.1818	0.	-4059.7
2546	7.5508	2.	0.	-4061.9
2547	7.5508	1.8182	0.	-4064.4
2548	7.5508	1.6364	0.	-4067.3
2549	7.5508	1.4545	0.	-4070.6
2550	7.5508	1.2727	0.	-4074.2
2551	7.5508	1.0909	0.	-4078.
2552	7.5508	0.90909	0.	-4082.1
2553	7.5508	0.72727	0.	-4086.4
2554	7.5508	0.54545	0.	-4090.9
2555	7.5508	0.36364	0.	-4095.5
2556	7.5508	0.18182	0.	-4100.8
2557	7.3667	5.8182	0.	-4157.1
2558	7.3667	5.6364	0.	-4151.5
2559	7.3667	5.4545	0.	-4146.6
2560	7.3667	5.2727	0.	-4141.8
2561	7.3667	5.0909	0.	-4137.2
2562	7.3667	4.9091	0.	-4132.8
2563	7.3667	4.7273	0.	-4128.7
2564	7.3667	4.5455	0.	-4124.8
2565	7.3667	4.3636	0.	-4121.3
2566	7.3667	4.1818	0.	-4118.2
2567	7.3667	4.	0.	-4115.4
2568	7.3667	3.8182	0.	-4113.
2569	7.3667	3.6364	0.	-4111.1
2570	7.3667	3.4545	0.	-4109.7
2571	7.3667	3.2727	0.	-4108.7
2572	7.3667	3.0909	0.	-4108.2
2573	7.3667	2.9091	0.	-4108.2
2574	7.3667	2.7273	0.	-4108.7
2575	7.3667	2.5455	0.	-4109.7
2576	7.3667	2.3636	0.	-4111.1
2577	7.3667	2.1818	0.	-4113.
2578	7.3667	2.	0.	-4115.4
2579	7.3667	1.8182	0.	-4118.2
2580	7.3667	1.6364	0.	-4121.3
2581	7.3667	1.4545	0.	-4124.8
2582	7.3667	1.2727	0.	-4128.7
2583	7.3667	1.0909	0.	-4132.8
2584	7.3667	0.90909	0.	-4137.2
2585	7.3667	0.72727	0.	-4141.8
2586	7.3667	0.54545	0.	-4146.6
2587	7.3667	0.36364	0.	-4151.5
2588	7.3667	0.18182	0.	-4157.1
2589	7.1825	5.8182	0.	-4213.7
2590	7.1825	5.6364	0.	-4207.9
2591	7.1825	5.4545	0.	-4202.6
2592	7.1825	5.2727	0.	-4197.5
2593	7.1825	5.0909	0.	-4192.5
2594	7.1825	4.9091	0.	-4187.8
2595	7.1825	4.7273	0.	-4183.4
2596	7.1825	4.5455	0.	-4179.2
2597	7.1825	4.3636	0.	-4175.5
2598	7.1825	4.1818	0.	-4172.
2599	7.1825	4.	0.	-4169.1
2600	7.1825	3.8182	0.	-4166.5
2601	7.1825	3.6364	0.	-4164.5
2602	7.1825	3.4545	0.	-4162.9
2603	7.1825	3.2727	0.	-4161.9
2604	7.1825	3.0909	0.	-4161.3
2605	7.1825	2.9091	0.	-4161.3
2606	7.1825	2.7273	0.	-4161.9
2607	7.1825	2.5455	0.	-4162.9
2608	7.1825	2.3636	0.	-4164.5
2609	7.1825	2.1818	0.	-4166.5
2610	7.1825	2.	0.	-4169.1
2611	7.1825	1.8182	0.	-4172.
2612	7.1825	1.6364	0.	-4175.5
2613	7.1825	1.4545	0.	-4179.2
2614	7.1825	1.2727	0.	-4183.4
2615	7.1825	1.0909	0.	-4187.8
2616	7.1825	0.90909	0.	-4192.5
2617	7.1825	0.72727	0.	-4197.5
2618	7.1825	0.54545	0.	-4202.6
2619	7.1825	0.36364	0.	-4207.9
2620	7.1825	0.18182	0.	-4213.7
2621	6.9983	5.8182	0.	-4270.8
2622	6.9983	5.6364	0.	-4264.6
2623	6.9983	5.4545	0.	-4259.
2624	6.9983	5.2727	0.	-4253.5
2625	6.9983	5.0909	0.	-4248.2
2626	6.9983	4.9091	0.	-4243.1
2627	6.9983	4.7273	0.	-4238.3
2628	6.9983	4.5455	0.	-4233.8
2629	6.9983	4.3636	0.	-4229.7
2630	6.9983	4.1818	0.	-4226.1
2631	6.9983	4.	0.	-4222.9
2632	6.9983	3.8182	0.	-4220.1
2633	6.9983	3.6364	0.	-4217.9
2634	6.9983	3.4545	0.	-4216.2
2635	6.9983	3.2727	0.	-4215.1
2636	6.9983	3.0909	0.	-4214.5
2637	6.9983	2.9091	0.	-4214.5
2638	6.9983	2.7273	0.	-4215.1
2639	6.9983	2.5455	0.	-4216.2
2640	6.9983	2.3636	0.	-4217.9
2641	6.9983	2.1818	0.	-4220.1
2642	6.9983	2.	0.	-4222.9
2643	6.9983	1.8182	0.	-4226.1
2644	6.9983	1.6364	0.	-4229.7
2645	6.9983	1.4545	0.	-4233.8
2646	6.9983	1.2727	0.	-4238.3
2647	6.9983	1.0909	0.	-4243.1
2648	6.9983	0.90909	0.	-4248.2
2649	6.9983	0.72727	0.	-4253.5
2650	6.9983	0.54545	0.	-4259.
2651	6.9983	0.36364	0.	-4264.6
2652	6.9983	0.18182	0.	-4270.8
2653	6.8142	5.8182	0.	-4328.3
2654	6.8142	5.6364	0.	-4321.7
2655	6.8142	5.4545	0.	-4315.7
2656	6.8142	5.2727	0.	-4309.7
2657	6.8142	5.0909	0.	-4304.
2658	6.8142	4.9091	0.	-4298.6
2659	6.8142	4.7273	0.	-4293.4
2660	6.8142	4.5455	0.	-4288.6
2661	6.8142	4.3636	0.	-4284.2
2662	6.8142	4.1818	0.	-4280.2
2663	6.8142	4.	0.	-4276.8
2664	6.8142	3.8182	0.	-4273.8
2665	6.8142	3.6364	0.	-4271.4
2666	6.8142	3.4545	0.	-4269.6
2667	6.8142	3.2727	0.	-4268.4
2668	6.8142	3.0909	0.	-4267.7
2669	6.8142	2.9091	0.	-4267.7
2670	6.8142	2.7273	0.	-4268.4
2671	6.8142	2.5455	0.	-4269.6
2672	6.8142	2.3636	0.	-4271.4
2673	6.8142	2.1818	0.	-4273.8
2674	6.8142	2.	0.	-4276.8
2675	6.8142	1.8182	0.	-4280.2
2676	6.8142	1.6364	0.	-4284.2
2677	6.8142	1.4545	0.	-4288.6
2678	6.8142	1.2727	0.	-4293.4
2679	6.8142	1.0909	0.	-4298.6
2680	6.8142	0.90909	0.	-4304.
2681	6.8142	0.72727	0.	-4309.7
2682	6.8142	0.54545	0.	-4315.7
2683	6.8142	0.36364	0.	-4321.7
2684	6.8142	0.18182	0.	-4328.3
2685	6.63	5.8182	0.	-4386.2
2686	6.63	5.6364	0.	-4379.2
2687	6.63	5.4545	0.	-4372.7
2688	6.63	5.2727	0.	-4366.4
2689	6.63	5.0909	0.	-4360.2
2690	6.63	4.9091	0.	-4354.3
2691	6.63	4.7273	0.	-4348.8
2692	6.63	4.5455	0.	-4343.6
2693	6.63	4.3636	0.	-4338.8
2694	6.63	4.1818	0.	-4334.6
2695	6.63	4.	0.	-4330.8
2696	6.63	3.8182	0.	-4327.6
2697	6.63	3.6364	0.	-4325.
2698	6.63	3.4545	0.	-4323.
2699	6.63	3.2727	0.	-4321.7
2700	6.63	3.0909	0.	-4321.
2701	6.63	2.9091	0.	-4321.
2702	6.63	2.7273	0.	-4321.7
2703	6.63	2.5455	0.	-4323.
2704	6.63	2.3636	0.	-4325.
2705	6.63	2.1818	0.	-4327.6
2706	6.63	2.	0.	-4330.8
2707	6.63	1.8182	0.	-4334.6
2708	6.63	1.6364	0.	-4338.8
2709	6.63	1.4545	0.	-4343.6
2710	6.63	1.2727	0.	-4348.8
2711	6.63	1.0909	0.	-4354.3
2712	6.63	0.90909	0.	-4360.2
2713	6.63	0.72727	0.	-4366.4
2714	6.63	0.54545	0.	-4372.7
2715	6.63	0.36364	0.	-4379.2
2716	6.63	0.18182	0.	-4386.2
2717	6.4458	5.8182	0.	-4444.5
2718	6.4458	5.6364	0.	-4437.1
2719	6.4458	5.4545	0.	-4430.1
2720	6.4458	5.2727	0.	-4423.3
2721	6.4458	5.0909	0.	-4416.7
2722	6.4458	4.9091	0.	-4410.3
2723	6.4458	4.7273	0.	-4404.4
2724	6.4458	4.5455	0.	-4398.8
2725	6.4458	4.3636	0.	-4393.6
2726	6.4458	4.1818	0.	-4389.
2727	6.4458	4.	0.	-4384.9
2728	6.4458	3.8182	0.	-4381.5
2729	6.4458	3.6364	0.	-4378.7
2730	6.4458	3.4545	0.	-4376.5
2731	6.4458	3.2727	0.	-4375.1
2732	6.4458	3.0909	0.	-4374.4
2733	6.4458	2.9091	0.	-4374.4
2734	6.4458	2.7273	0.	-4375.1
2735	6.4458	2.5455	0.	-4376.5
2736	6.4458	2.3636	0.	-4378.7
2737	6.4458	2.1818	0.	-4381.5
2738	6.4458	2.	0.	-4384.9
2739	6.4458	1.8182	0.	-4389.
2740	6.4458	1.6364	0.	-4393.6
2741	6.4458	1.4545	0.	-4398.8
2742	6.4458	1.2727	0.	-4404.4
2743	6.4458	1.0909	0.	-4410.3
2744	6.4458	0.90909	0.	-4416.7
2745	6.4458	0.72727	0.	-4423.3
2746	6.4458	0.54545	0.	-4430.1
2747	6.4458	0.36364	0.	-4437.1
2748	6.4458	0.18182	0.	-4444.5
2749	6.2617	5.8182	0.	-4503.3
2750	6.2617	5.6364	0.	-4495.4
2751	6.2617	5.4545	0.	-4487.9
2752	6.2617	5.2727	0.	-4480.6
2753	6.2617	5.0909	0.	-4473.5
2754	6.2617	4.9091	0.	-4466.6
2755	6.2617	4.7273	0.	-4460.2
2756	6.2617	4.5455	0.	-4454.1
2757	6.2617	4.3636	0.	-4448.6
2758	6.2617	4.1818	0.	-4443.6
2759	6.2617	4.	0.	-4439.2
2760	6.2617	3.8182	0.	-4435.4
2761	6.2617	3.6364	0.	-4432.4
2762	6.2617	3.4545	0.	-4430.1
2763	6.2617	3.2727	0.	-4428.5
2764	6.2617	3.0909	0.	-4427.7
2765	6.2617	2.9091	0.	-4427.7
2766	6.2617	2.7273	0.	-4428.5
2767	6.2617	2.5455	0.	-4430.1
2768	6.2617	2.3636	0.	-4432.4
2769	6.2617	2.1818	0.	-4435.4
2770	6.2617	2.	0.	-4439.2
2771	6.2617	1.8182	0.	-4443.6
2772	6.2617	1.6364	0.	-4448.6
2773	6.2617	1.4545	0.	-4454.1
2774	6.2617	1.2727	0.	-4460.2
2775	6.2617	1.0909	0.	-4466.6
2776	6.2617	0.90909	0.	-4473.5
2777	6.2617	0.72727	0.	-4480.6
2778	6.2617	0.54545	0.	-4487.9
2779	6.2617	0.36364	0.	-4495.4
2780	6.2617	0.18182	0.	-4503.3
2781	6.0775	5.8182	0.	-4562.6
2782	6.0775	5.6364	0.	-4554.2
2783	6.0775	5.4545	0.	-4546.1
2784	6.0775	5.2727	0.	-4538.2
2785	6.0775	5.0909	0.	-4530.5
2786	6.0775	4.9091	0.	-4523.2
2787	6.0775	4.7273	0.	-4516.2
2788	6.0775	4.5455	0.	-4509.7
2789	6.0775	4.3636	0.	-4503.7
2790	6.0775	4.1818	0.	-4498.3
2791	6.0775	4.	0.	-4493.5
2792	6.0775	3.8182	0.	-4489.5
2793	6.0775	3.6364	0.	-4486.2
2794	6.0775	3.4545	0.	-4483.7
2795	6.0775	3.2727	0.	-4482.
2796	6.0775	3.0909	0.	-4481.2
2797	6.0775	2.9091	0.	-4481.2
2798	6.0775	2.7273	0.	-4482.
2799	6.0775	2.5455	0.	-4483.7
2800	6.0775	2.3636	0.	-4486.2
2801	6.0775	2.1818	0.	-4489.5
2802	6.0775	2.	0.	-4493.5
2803	6.0775	1.8182	0.	-4498.3
2804	6.0775	1.6364	0.	-4503.7
2805	6.0775	1.4545	0.	-4509.7
2806	6.0775	1.2727	0.	-4516.2
2807	6.0775	1.0909	0.	-4523.2
2808	6.0775	0.90909	0.	-4530.5
2809	6.0775	0.72727	0.	-4538.2
2810	6.0775	0.54545	0.	-4546.1
2811	6.0775	0.36364	0.	-4554.2
2812	6.0775	0.18182	0.	-4562.6
2813	5.8933	5.8182	0.	-4622.4
2814	5.8933	5.6364	0.	-4613.4
2815	5.8933	5.4545	0.	-4604.7
2816	5.8933	5.2727	0.	-4596.2
2817	5.8933	5.0909	0.	-4588.
2818	5.8933	4.9091	0.	-4580.
2819	5.8933	4.7273	0.	-4572.5
2820	5.8933	4.5455	0.	-4565.5
2821	5.8933	4.3636	0.	-4559.
2822	5.8933	4.1818	0.	-4553.2
2823	5.8933	4.	0.	-4548.
2824	5.8933	3.8182	0.	-4543.6
2825	5.8933	3.6364	0.	-4540.1
2826	5.8933	3.4545	0.	-4537.4
2827	5.8933	3.2727	0.	-4535.5
2828	5.8933	3.0909	0.	-4534.6
2829	5.8933	2.9091	0.	-4534.6
2830	5.8933	2.7273	0.	-4535.5
2831	5.8933	2.5455	0.	-4537.4
2832	5.8933	2.3636	0.	-4540.1
2833	5.8933	2.1818	0.	-4543.6
2834	5.8933	2.	0.	-4548.
2835	5.8933	1.8182	0.	-4553.2
2836	5.8933	1.6364	0.	-4559.
2837	5.8933	1.4545	0.	-4565.5
2838	5.8933	1.2727	0.	-4572.5
2839	5.8933	1.0909	0.	-4580.
2840	5.8933	0.90909	0.	-4588.
2841	5.8933	0.72727	0.	-4596.2
2842	5.8933	0.54545	0.	-4604.7
2843	5.8933	0.36364	0.	-4613.4
2844	5.8933	0.18182	0.	-4622.4
2845	5.7092	5.8182	0.	-4682.8
2846	5.7092	5.6364	0.	-4673.1
2847	5.7092	5.4545	0.	-4663.8
2848	5.7092	5.2727	0.	-4654.6
2849	5.7092	5.0909	0.	-4645.7
2850	5.7092	4.9091	0.	-4637.2
2851	5.7092	4.7273	0.	-4629.
2852	5.7092	4.5455	0.	-4621.4
2853	5.7092	4.3636	0.	-4614.5
2854	5.7092	4.1818	0.	-4608.1
2855	5.7092	4.	0.	-4602.6
2856	5.7092	3.8182	0.	-4597.9
2857	5.7092	3.6364	0.	-4594.
2858	5.7092	3.4545	0.	-4591.1
2859	5.7092	3.2727	0.	-4589.1
2860	5.7092	3.0909	0.	-4588.1
2861	5.7092	2.9091	0.	-4588.1
2862	5.7092	2.7273	0.	-4589.1
2863	5.7092	2.5455	0.	-4591.1
2864	5.7092	2.3636	0.	-4594.
2865	5.7092	2.1818	0.	-4597.9
2866	5.7092	2.	0.	-4602.6
2867	5.7092	1.8182	0.	-4608.1
2868	5.7092	1.6364	0.	-4614.5
2869	5.7092	1.4545	0.	-4621.4
2870	5.7092	1.2727	0.	-4629.
2871	5.7092	1.0909	0.	-4637.2
2872	5.7092	0.90909	0.	-4645.7
2873	5.7092	0.72727	0.	-4654.6
2874	5.7092	0.54545	0.	-4663.8
2875	5.7092	0.36364	0.	-4673.1
2876	5.7092	0.18182	0.	-4682.8
2877	5.525	5.8182	0.	-4743.7
2878	5.525	5.6364	0.	-4733.3
2879	5.525	5.4545	0.	-4723.3
2880	5.525	5.2727	0.	-4713.4
2881	5.525	5.0909	0.	-4703.8
2882	5.525	4.9091	0.	-4694.6
2883	5.525	4.7273	0.	-4685.8
2884	5.525	4.5455	0.	-4677.6
2885	5.525	4.3636	0.	-4670.1
2886	5.525	4.1818	0.	-4663.3
2887	5.525	4.	0.	-4657.3
2888	5.525	3.8182	0.	-4652.2
2889	5.525	3.6364	0.	-4648.
2890	5.525	3.4545	0.	-4644.8
2891	5.525	3.2727	0.	-4642.7
2892	5.525	3.0909	0.	-4641.6
2893	5.525	2.9091	0.	-4641.6
2894	5.525	2.7273	0.	-4642.7
2895	5.525	2.5455	0.	-4644.8
2896	5.525	2.3636	0.	-4648.
2897	5.525	2.1818	0.	-4652.2
2898	5.525	2.	0.	-4657.3
2899	5.525	1.8182	0.	-4663.3
2900	5.525	1.6364	0.	-4670.1
2901	5.525	1.4545	0.	-4677.6
2902	5.525	1.2727	0.	-4685.8
2903	5.525	1.0909	0.	-4694.6
2904	5.525	0.90909	0.	-4703.8
2905	5.525	0.72727	0.	-4713.4
2906	5.525	0.54545	0.	-4723.3
2907	5.525	0.36364	0.	-4733.3
2908	5.525	0.18182	0.	-4743.7
2909	5.3408	5.8182	0.	-4805.1
2910	5.3408	5.6364	0.	-4794.
2911	5.3408	5.4545	0.	-4783.3
2912	5.3408	5.2727	0.	-4772.6
2913	5.3408	5.0909	0.	-4762.3
2914	5.3408	4.9091	0.	-4752.4
2915	5.3408	4.7273	0.	-4742.9
2916	5.3408	4.5455	0.	-4734.1
2917	5.3408	4.3636	0.	-4725.9
2918	5.3408	4.1818	0.	-4718.6
2919	5.3408	4.	0.	-4712.1
2920	5.3408	3.8182	0.	-4706.6
2921	5.3408	3.6364	0.	-4702.1
2922	5.3408	3.4545	0.	-4698.6
2923	5.3408	3.2727	0.	-4696.3
2924	5.3408	3.0909	0.	-4695.2
2925	5.3408	2.9091	0.	-4695.2
2926	5.3408	2.7273	0.	-4696.3
2927	5.3408	2.5455	0.	-4698.6
2928	5.3408	2.3636	0.	-4702.1
2929	5.3408	2.1818	0.	-4706.6
2930	5.3408	2.	0.	-4712.1
2931	5.3408	1.8182	0.	-4718.6
2932	5.3408	1.6364	0.	-4725.9
2933	5.3408	1.4545	0.	-4734.1
2934	5.3408	1.2727	0.	-4742.9
2935	5.3408	1.0909	0.	-4752.4
2936	5.3408	0.90909	0.	-4762.3
2937	5.3408	0.72727	0.	-4772.6
2938	5.3408	0.54545	0.	-4783.3
2939	5.3408	0.36364	0.	-4794.
2940	5.3408	0.18182	0.	-4805.1
2941	5.1567	5.8182	0.	-4867.2
2942	5.1567	5.6364	0.	-4855.3
2943	5.1567	5.4545	0.	-4843.7
2944	5.1567	5.2727	0.	-4832.3
2945	5.1567	5.0909	0.	-4821.1
2946	5.1567	4.9091	0.	-4810.4
2947	5.1567	4.7273	0.	-4800.3
2948	5.1567	4.5455	0.	-4790.7
2949	5.1567	4.3636	0.	-4782.
2950	5.1567	4.1818	0.	-4774.
2951	5.1567	4.	0.	-4767.
2952	5.1567	3.8182	0.	-4761.1
2953	5.1567	3.6364	0.	-4756.2
2954	5.1567	3.4545	0.	-4752.5
2955	5.1567	3.2727	0.	-4750.
2956	5.1567	3.0909	0.	-4748.8
2957	5.1567	2.9091	0.	-4748.8
2958	5.1567	2.7273	0.	-4750.
2959	5.1567	2.5455	0.	-4752.5
2960	5.1567	2.3636	0.	-4756.2
2961	5.1567	2.1818	0.	-4761.1
2962	5.1567	2.	0.	-4767.
2963	5.1567	1.8182	0.	-4774.
2964	5.1567	1.6364	0.	-4782.
2965	5.1567	1.4545	0.	-4790.7
2966	5.1567	1.2727	0.	-4800.3
2967	5.1567	1.0909	0.	-4810.4
2968	5.1567	0.90909	0.	-4821.1
2969	5.1567	0.72727	0.	-4832.3
2970	5.1567	0.54545	0.	-4843.7
2971	5.1567	0.36364	0.	-4855.3
2972	5.1567	0.18182	0.	-4867.2
2973	4.9725	5.8182	0.	-4930.
2974	4.9725	5.6364	0.	-4917.1
2975	4.9725	5.4545	0.	-4904.6
2976	4.9725	5.2727	0.	-4892.3
2977	4.9725	5.0909	0.	-4880.4
2978	4.9725	4.9091	0.	-4868.9
2979	4.9725	4.7273	0.	-4857.9
2980	4.9725	4.5455	0.	-4847.6
2981	4.9725	4.3636	0.	-4838.2
2982	4.9725	4.1818	0.	-4829.6
2983	4.9725	4.	0.	-4822.1
2984	4.9725	3.8182	0.	-4815.7
2985	4.9725	3.6364	0.	-4810.5
2986	4.9725	3.4545	0.	-4806.5
2987	4.9725	3.2727	0.	-4803.8
2988	4.9725	3.0909	0.	-4802.5
2989	4.9725	2.9091	0.	-4802.5
2990	4.9725	2.7273	0.	-4803.8
2991	4.9725	2.5455	0.	-4806.5
2992	4.9725	2.3636	0.	-4810.5
2993	4.9725	2.1818	0.	-4815.7
2994	4.9725	2.	0.	-4822.1
2995	4.9725	1.8182	0.	-4829.6
2996	4.9725	1.6364	0.	-4838.2
2997	4.9725	1.4545	0.	-4847.6
2998	4.9725	1.2727	0.	-4857.9
2999	4.9725	1.0909	0.	-4868.9
3000	4.9725	0.90909	0.	-4880.4
3001	4.9725	0.72727	0.	-4892.3
3002	4.9725	0.54545	0.	-4904.6
3003	4.9725	0.36364	0.	-4917.1
3004	4.9725	0.18182	0.	-4930.
3005	4.7883	5.8182	0.	-4993.4
3006	4.7883	5.6364	0.	-4979.5
3007	4.7883	5.4545	0.	-4966.1
3008	4.7883	5.2727	0.	-4952.9
3009	4.7883	5.0909	0.	-4940.
3010	4.7883	4.9091	0.	-4927.6
3011	4.7883	4.7273	0.	-4915.8
3012	4.7883	4.5455	0.	-4904.8
3013	4.7883	4.3636	0.	-4894.6
3014	4.7883	4.1818	0.	-4885.5
3015	4.7883	4.	0.	-4877.4
3016	4.7883	3.8182	0.	-4870.5
3017	4.7883	3.6364	0.	-4864.9
3018	4.7883	3.4545	0.	-4860.6
3019	4.7883	3.2727	0.	-4857.7
3020	4.7883	3.0909	0.	-4856.2
3021	4.7883	2.9091	0.	-4856.2
3022	4.7883	2.7273	0.	-4857.7
3023	4.7883	2.5455	0.	-4860.6
3024	4.7883	2.3636	0.	-4864.9
3025	4.7883	2.1818	0.	-4870.5
3026	4.7883	2.	0.	-4877.4
3027	4.7883	1.8182	0.	-4885.5
3028	4.7883	1.6364	0.	-4894.6
3029	4.7883	1.4545	0.	-4904.8
3030	4.7883	1.2727	0.	-4915.8
3031	4.7883	1.0909	0.	-4927.6
3032	4.7883	0.90909	0.	-4940.
3033	4.7883	0.72727	0.	-4952.9
3034	4.7883	0.54545	0.	-4966.1
3035	4.7883	0.36364	0.	-4979.5
3036	4.7883	0.18182	0.	-4993.4
3037	4.6042	5.8182	0.	-5057.4
3038	4.6042	5.6364	0.	-5042.4
3039	4.6042	5.4545	0.	-5028.
3040	4.6042	5.2727	0.	-5013.8
3041	4.6042	5.0909	0.	-5000.
3042	4.6042	4.9091	0.	-4986.7
3043	4.6042	4.7273	0.	-4974.1
3044	4.6042	4.5455	0.	-4962.2
3045	4.6042	4.3636	0.	-4951.3
3046	4.6042	4.1818	0.	-4941.5
3047	4.6042	4.	0.	-4932.8
3048	4.6042	3.8182	0.	-4925.4
3049	4.6042	3.6364	0.	-4919.4
3050	4.6042	3.4545	0.	-4914.8
3051	4.6042	3.2727	0.	-4911.7
3052	4.6042	3.0909	0.	-4910.2
3053	4.6042	2.9091	0.	-4910.2
3054	4.6042	2.7273	0.	-4911.7
3055	4.6042	2.5455	0.	-4914.8
3056	4.6042	2.3636	0.	-4919.4
3057	4.6042	2.1818	0.	-4925.4
3058	4.6042	2.	0.	-4932.8
3059	4.6042	1.8182	0.	-4941.5
3060	4.6042	1.6364	0.	-4951.3
3061	4.6042	1.4545	0.	-4962.2
3062	4.6042	1.2727	0.	-4974.1
3063	4.6042	1.0909	0.	-4986.7
3064	4.6042	0.90909	0.	-5000.
3065	4.6042	0.72727	0.	-5013.8
3066	4.6042	0.54545	0.	-5028.
3067	4.6042	0.36364	0.	-5042.4
3068	4.6042	0.18182	0.	-5057.4
3069	4.42	5.8182	0.	-5122.1
3070	4.42	5.6364	0.	-5105.9
3071	4.42	5.4545	0.	-5090.5
3072	4.42	5.2727	0.	-5075.2
3073	4.42	5.0909	0.	-5060.4
3074	4.42	4.9091	0.	-5046.2
3075	4.42	4.7273	0.	-5032.6
3076	4.42	4.5455	0.	-5020.
3077	4.42	4.3636	0.	-5008.3
3078	4.42	4.1818	0.	-4997.7
3079	4.42	4.	0.	-4988.5
3080	4.42	3.8182	0.	-4980.6
3081	4.42	3.6364	0.	-4974.1
3082	4.42	3.4545	0.	-4969.3
3083	4.42	3.2727	0.	-4966.
3084	4.42	3.0909	0.	-4964.3
3085	4.42	2.9091	0.	-4964.3
3086	4.42	2.7273	0.	-4966.
3087	4.42	2.5455	0.	-4969.3
3088	4.42	2.3636	0.	-4974.1
3089	4.42	2.1818	0.	-4980.6
3090	4.42	2.	0.	-4988.5
3091	4.42	1.8182	0.	-4997.7
3092	4.42	1.6364	0.	-5008.3
3093	4.42	1.4545	0.	-5020.
3094	4.42	1.2727	0.	-5032.6
3095	4.42	1.0909	0.	-5046.2
3096	4.42	0.90909	0.	-5060.4
3097	4.42	0.72727	0.	-5075.2
3098	4.42	0.54545	0.	-5090.5
3099	4.42	0.36364	0.	-5105.9
3100	4.42	0.18182	0.	-5122.1
3101	4.2358	5.8182	0.	-5187.5
3102	4.2358	5.6364	0.	-5170.
3103	4.2358	5.4545	0.	-5153.4
3104	4.2358	5.2727	0.	-5137.1
3105	4.2358	5.0909	0.	-5121.2
3106	4.2358	4.9091	0.	-5106.
3107	4.2358	4.7273	0.	-5091.5
3108	4.2358	4.5455	0.	-5078.
3109	4.2358	4.3636	0.	-5065.5
3110	4.2358	4.1818	0.	-5054.3
3111	4.2358	4.	0.	-5044.4
3112	4.2358	3.8182	0.	-5036.
3113	4.2358	3.6364	0.	-5029.2
3114	4.2358	3.4545	0.	-5024.
3115	4.2358	3.2727	0.	-5020.5
3116	4.2358	3.0909	0.	-5018.7
3117	4.2358	2.9091	0.	-5018.7
3118	4.2358	2.7273	0.	-5020.5
3119	4.2358	2.5455	0.	-5024.
3120	4.2358	2.3636	0.	-5029.2
3121	4.2358	2.1818	0.	-5036.
3122	4.2358	2.	0.	-5044.4
3123	4.2358	1.8182	0.	-5054.3
3124	4.2358	1.6364	0.	-5065.5
3125	4.2358	1.4545	0.	-5078.
3126	4.2358	1.2727	0.	-5091.5
3127	4.2358	1.0909	0.	-5106.
3128	4.2358	0.90909	0.	-5121.2
3129	4.2358	0.72727	0.	-5137.1
3130	4.2358	0.54545	0.	-5153.4
3131	4.2358	0.36364	0.	-5170.
3132	4.2358	0.18182	0.	-5187.5
3133	4.0517	5.8182	0.	-5253.5
3134	4.0517	5.6364	0.	-5234.6
3135	4.0517	5.4545	0.	-5216.8
3136	4.0517	5.2727	0.	-5199.3
3137	4.0517	5.0909	0.	-5182.4
3138	4.0517	4.9091	0.	-5166.1
3139	4.0517	4.7273	0.	-5150.7
3140	4.0517	4.5455	0.	-5136.3
3141	4.0517	4.3636	0.	-5123.1
3142	4.0517	4.1818	0.	-5111.2
3143	4.0517	4.	0.	-5100.7
3144	4.0517	3.8182	0.	-5091.8
3145	4.0517	3.6364	0.	-5084.6
3146	4.0517	3.4545	0.	-5079.1
3147	4.0517	3.2727	0.	-5075.4
3148	4.0517	3.0909	0.	-5073.6
3149	4.0517	2.9091	0.	-5073.6
3150	4.0517	2.7273	0.	-5075.4
3151	4.0517	2.5455	0.	-5079.1
3152	4.0517	2.3636	0.	-5084.6
3153	4.0517	2.1818	0.	-5091.8
3154	4.0517	2.	0.	-5100.7
3155	4.0517	1.8182	0.	-5111.2
3156	4.0517	1.6364	0.	-5123.1
3157	4.0517	1.4545	0.	-5136.3
3158	4.0517	1.2727	0.	-5150.7
3159	4.0517	1.0909	0.	-5166.1
3160	4.0517	0.90909	0.	-5182.4
3161	4.0517	0.72727	0.	-5199.3
3162	4.0517	0.54545	0.	-5216.8
3163	4.0517	0.36364	0.	-5234.6
3164	4.0517	0.18182	0.	-5253.5
3165	3.8675	5.8182	0.	-5320.
3166	3.8675	5.6364	0.	-5299.6
3167	3.8675	5.4545	0.	-5280.6
3168	3.8675	5.2727	0.	-5261.9
3169	3.8675	5.0909	0.	-5243.9
3170	3.8675	4.9091	0.	-5226.6
3171	3.8675	4.7273	0.	-5210.2
3172	3.8675	4.5455	0.	-5194.9
3173	3.8675	4.3636	0.	-5180.9
3174	3.8675	4.1818	0.	-5168.4
3175	3.8675	4.	0.	-5157.4
3176	3.8675	3.8182	0.	-5148.1
3177	3.8675	3.6364	0.	-5140.5
3178	3.8675	3.4545	0.	-5134.8
3179	3.8675	3.2727	0.	-5130.9
3180	3.8675	3.0909	0.	-5129.
3181	3.8675	2.9091	0.	-5129.
3182	3.8675	2.7273	0.	-5130.9
3183	3.8675	2.5455	0.	-5134.8
3184	3.8675	2.3636	0.	-5140.5
3185	3.8675	2.1818	0.	-5148.1
3186	3.8675	2.	0.	-5157.4
3187	3.8675	1.8182	0.	-5168.4
3188	3.8675	1.6364	0.	-5180.9
3189	3.8675	1.4545	0.	-5194.9
3190	3.8675	1.2727	0.	-5210.2
3191	3.8675	1.0909	0.	-5226.6
3192	3.8675	0.90909	0.	-5243.9
3193	3.8675	0.72727	0.	-5261.9
3194	3.8675	0.54545	0.	-5280.6
3195	3.8675	0.36364	0.	-5299.6
3196	3.8675	0.18182	0.	-5320.
3197	3.6833	5.8182	0.	-5387.1
3198	3.6833	5.6364	0.	-5365.
3199	3.6833	5.4545	0.	-5344.7
3200	3.6833	5.2727	0.	-5324.8
3201	3.6833	5.0909	0.	-5305.6
3202	3.6833	4.9091	0.	-5287.3
3203	3.6833	4.7273	0.	-5270.
3204	3.6833	4.5455	0.	-5253.9
3205	3.6833	4.3636	0.	-5239.2
3206	3.6833	4.1818	0.	-5226.1
3207	3.6833	4.	0.	-5214.6
3208	3.6833	3.8182	0.	-5204.9
3209	3.6833	3.6364	0.	-5197.1
3210	3.6833	3.4545	0.	-5191.1
3211	3.6833	3.2727	0.	-5187.2
3212	3.6833	3.0909	0.	-5185.2
3213	3.6833	2.9091	0.	-5185.2
3214	3.6833	2.7273	0.	-5187.2
3215	3.6833	2.5455	0.	-5191.1
3216	3.6833	2.3636	0.	-5197.1
3217	3.6833	2.1818	0.	-5204.9
3218	3.6833	2.	0.	-5214.6
3219	3.6833	1.8182	0.	-5226.1
3220	3.6833	1.6364	0.	-5239.2
3221	3.6833	1.4545	0.	-5253.9
3222	3.6833	1.2727	0.	-5270.
3223	3.6833	1.0909	0.	-5287.3
3224	3.6833	0.90909	0.	-5305.6
3225	3.6833	0.72727	0.	-5324.8
3226	3.6833	0.54545	0.	-5344.7
3227	3.6833	0.36364	0.	-5365.
3228	3.6833	0.18182	0.	-5387.1
3229	3.4992	5.8182	0.	-5454.6
3230	3.4992	5.6364	0.	-5430.7
3231	3.4992	5.4545	0.	-5409.
3232	3.4992	5.2727	0.	-5387.9
3233	3.4992	5.0909	0.	-5367.5
3234	3.4992	4.9091	0.	-5348.2
3235	3.4992	4.7273	0.	-5330.
3236	3.4992	4.5455	0.	-5313.2
3237	3.4992	4.3636	0.	-5297.9
3238	3.4992	4.1818	0.	-5284.3
3239	3.4992	4.	0.	-5272.5
3240	3.4992	3.8182	0.	-5262.5
3241	3.4992	3.6364	0.	-5254.5
3242	3.4992	3.4545	0.	-5248.4
3243	3.4992	3.2727	0.	-5244.4
3244	3.4992	3.0909	0.	-5242.3
3245	3.4992	2.9091	0.	-5242.3
3246	3.4992	2.7273	0.	-5244.4
3247	3.4992	2.5455	0.	-5248.4
3248	3.4992	2.3636	0.	-5254.5
3249	3.4992	2.1818	0.	-5262.5
3250	3.4992	2.	0.	-5272.5
3251	3.4992	1.8182	0.	-5284.3
3252	3.4992	1.6364	0.	-5297.9
3253	3.4992	1.4545	0.	-5313.2
3254	3.4992	1.2727	0.	-5330.
3255	3.4992	1.0909	0.	-5348.2
3256	3.4992	0.90909	0.	-5367.5
3257	3.4992	0.72727	0.	-5387.9
3258	3.4992	0.54545	0.	-5409.
3259	3.4992	0.36364	0.	-5430.7
3260	3.4992	0.18182	0.	-5454.6
3261	3.315	5.8182	0.	-5522.3
3262	3.315	5.6364	0.	-5496.4
3263	3.315	5.4545	0.	-5473.3
3264	3.315	5.2727	0.	-5450.9
3265	3.315	5.0909	0.	-5429.5
3266	3.315	4.9091	0.	-5409.2
3267	3.315	4.7273	0.	-5390.3
3268	3.315	4.5455	0.	-5372.9
3269	3.315	4.3636	0.	-5357.1
3270	3.315	4.1818	0.	-5343.2
3271	3.315	4.	0.	-5331.2
3272	3.315	3.8182	0.	-5321.1
3273	3.315	3.6364	0.	-5313.
3274	3.315	3.4545	0.	-5306.9
3275	3.315	3.2727	0.	-5302.9
3276	3.315	3.0909	0.	-5300.9
3277	3.315	2.9091	0.	-5300.9
3278	3.315	2.7273	0.	-5302.9
3279	3.315	2.5455	0.	-5306.9
3280	3.315	2.3636	0.	-5313.
3281	3.315	2.1818	0.	-5321.1
3282	3.315	2.	0.	-5331.2
3283	3.315	1.8182	0.	-5343.2
3284	3.315	1.6364	0.	-5357.1
3285	3.315	1.4545	0.	-5372.9
3286	3.315	1.2727	0.	-5390.3
3287	3.315	1.0909	0.	-5409.2
3288	3.315	0.90909	0.	-5429.5
3289	3.315	0.72727	0.	-5450.9
3290	3.315	0.54545	0.	-5473.3
3291	3.315	0.36364	0.	-5496.4
3292	3.315	0.18182	0.	-5522.3
3293	3.1308	5.8182	0.	-5589.9
3294	3.1308	5.6364	0.	-5561.9
3295	3.1308	5.4545	0.	-5537.4
3296	3.1308	5.2727	0.	-5513.8
3297	3.1308	5.0909	0.	-5491.3
3298	3.1308	4.9091	0.	-5470.2
3299	3.1308	4.7273	0.	-5450.7
3300	3.1308	4.5455	0.	-5432.8
3301	3.1308	4.3636	0.	-5416.9
3302	3.1308	4.1818	0.	-5402.9
3303	3.1308	4.	0.	-5390.9
3304	3.1308	3.8182	0.	-5380.9
3305	3.1308	3.6364	0.	-5373.
3306	3.1308	3.4545	0.	-5367.
3307	3.1308	3.2727	0.	-5363.1
3308	3.1308	3.0909	0.	-5361.2
3309	3.1308	2.9091	0.	-5361.2
3310	3.1308	2.7273	0.	-5363.1
3311	3.1308	2.5455	0.	-5367.
3312	3.1308	2.3636	0.	-5373.
3313	3.1308	2.1818	0.	-5380.9
3314	3.1308	2.	0.	-5390.9
3315	3.1308	1.8182	0.	-5402.9
3316	3.1308	1.6364	0.	-5416.9
3317	3.1308	1.4545	0.	-5432.8
3318	3.1308	1.2727	0.	-5450.7
3319	3.1308	1.0909	0.	-5470.2
3320	3.1308	0.90909	0.	-5491.3
3321	3.1308	0.72727	0.	-5513.8
3322	3.1308	0.54545	0.	-5537.4
3323	3.1308	0.36364	0.	-5561.9
3324	3.1308	0.18182	0.	-5589.9
3325	2.9467	5.8182	0.	-5657.2
3326	2.9467	5.6364	0.	-5626.9
3327	2.9467	5.4545	0.	-5600.9
3328	2.9467	5.2727	0.	-5576.2
3329	2.9467	5.0909	0.	-5552.8
3330	2.9467	4.9091	0.	-5531.
3331	2.9467	4.7273	0.	-5511.1
3332	2.9467	4.5455	0.	-5493.1
3333	2.9467	4.3636	0.	-5477.2
3334	2.9467	4.1818	0.	-5463.5
3335	2.9467	4.	0.	-5451.8
3336	2.9467	3.8182	0.	-5442.3
3337	2.9467	3.6364	0.	-5434.8
3338	2.9467	3.4545	0.	-5429.2
3339	2.9467	3.2727	0.	-5425.5
3340	2.9467	3.0909	0.	-5423.7
3341	2.9467	2.9091	0.	-5423.7
3342	2.9467	2.7273	0.	-5425.5
3343	2.9467	2.5455	0.	-5429.2
3344	2.9467	2.3636	0.	-5434.8
3345	2.9467	2.1818	0.	-5442.3
3346	2.9467	2.	0.	-5451.8
3347	2.9467	1.8182	0.	-5463.5
3348	2.9467	1.6364	0.	-5477.2
3349	2.9467	1.4545	0.	-5493.1
3350	2.9467	1.2727	0.	-5511.1
3351	2.9467	1.0909	0.	-5531.
3352	2.9467	0.90909	0.	-5552.8
3353	2.9467	0.72727	0.	-5576.2
3354	2.9467	0.54545	0.	-5600.9
3355	2.9467	0.36364	0.	-5626.9
3356	2.9467	0.18182	0.	-5657.2
3357	2.7625	5.8182	0.	-5723.7
3358	2.7625	5.6364	0.	-5690.8
3359	2.7625	5.4545	0.	-5663.5
3360	2.7625	5.2727	0.	-5637.6
3361	2.7625	5.0909	0.	-5613.5
3362	2.7625	4.9091	0.	-5591.4
3363	2.7625	4.7273	0.	-5571.4
3364	2.7625	4.5455	0.	-5553.7
3365	2.7625	4.3636	0.	-5538.3
3366	2.7625	4.1818	0.	-5525.3
3367	2.7625	4.	0.	-5514.4
3368	2.7625	3.8182	0.	-5505.7
3369	2.7625	3.6364	0.	-5498.9
3370	2.7625	3.4545	0.	-5494.
3371	2.7625	3.2727	0.	-5490.8
3372	2.7625	3.0909	0.	-5489.2
3373	2.7625	2.9091	0.	-5489.2
3374	2.7625	2.7273	0.	-5490.8
3375	2.7625	2.5455	0.	-5494.
3376	2.7625	2.3636	0.	-5498.9
3377	2.7625	2.1818	0.	-5505.7
3378	2.7625	2.	0.	-5514.4
3379	2.7625	1.8182	0.	-5525.3
3380	2.7625	1.6364	0.	-5538.3
3381	2.7625	1.4545	0.	-5553.7
3382	2.7625	1.2727	0.	-5571.4
3383	2.7625	1.0909	0.	-5591.4
3384	2.7625	0.90909	0.	-5613.5
3385	2.7625	0.72727	0.	-5637.6
3386	2.7625	0.54545	0.	-5663.5
3387	2.7625	0.36364	0.	-5690.8
3388	2.7625	0.18182	0.	-5723.7
3389	2.5783	5.8182	0.	-5788.7
3390	2.5783	5.6364	0.	-5753.1
3391	2.5783	5.4545	0.	-5724.4
3392	2.5783	5.2727	0.	-5697.6
3393	2.5783	5.0909	0.	-5673.1
3394	2.5783	4.9091	0.	-5651.
3395	2.5783	4.7273	0.	-5631.4
3396	2.5783	4.5455	0.	-5614.5
3397	2.5783	4.3636	0.	-5600.3
3398	2.5783	4.1818	0.	-5588.5
3399	2.5783	4.	0.	-5579.
3400	2.5783	3.8182	0.	-5571.6
3401	2.5783	3.6364	0.	-5566.1
3402	2.5783	3.4545	0.	-5562.2
3403	2.5783	3.2727	0.	-5559.7
3404	2.5783	3.0909	0.	-5558.5
3405	2.5783	2.9091	0.	-5558.5
3406	2.5783	2.7273	0.	-5559.7
3407	2.5783	2.5455	0.	-5562.2
3408	2.5783	2.3636	0.	-5566.1
3409	2.5783	2.1818	0.	-5571.6
3410	2.5783	2.	0.	-5579.
3411	2.5783	1.8182	0.	-5588.5
3412	2.5783	1.6364	0.	-5600.3
3413	2.5783	1.4545	0.	-5614.5
3414	2.5783	1.2727	0.	-5631.4
3415	2.5783	1.0909	0.	-5651.
3416	2.5783	0.90909	0.	-5673.1
3417	2.5783	0.72727	0.	-5697.6
3418	2.5783	0.54545	0.	-5724.4
3419	2.5783	0.36364	0.	-5753.1
3420	2.5783	0.18182	0.	-5788.7
3421	2.3942	5.8182	0.	-5851.3
3422	2.3942	5.6364	0.	-5812.9
3423	2.3942	5.4545	0.	-5782.9
3424	2.3942	5.2727	0.	-5755.5
3425	2.3942	5.0909	0.	-5731.
3426	2.3942	4.9091	0.	-5709.4
3427	2.3942	4.7273	0.	-5690.9
3428	2.3942	4.5455	0.	-5675.6
3429	2.3942	4.3636	0.	-5663.2
3430	2.3942	4.1818	0.	-5653.5
3431	2.3942	4.	0.	-5646.2
3432	2.3942	3.8182	0.	-5640.8
3433	2.3942	3.6364	0.	-5637.1
3434	2.3942	3.4545	0.	-5634.6
3435	2.3942	3.2727	0.	-5633.2
3436	2.3942	3.0909	0.	-5632.5
3437	2.3942	2.9091	0.	-5632.5
3438	2.3942	2.7273	0.	-5633.2
3439	2.3942	2.5455	0.	-5634.6
3440	2.3942	2.3636	0.	-5637.1
3441	2.3942	2.1818	0.	-5640.8
3442	2.3942	2.	0.	-5646.2
3443	2.3942	1.8182	0.	-5653.5
3444	2.3942	1.6364	0.	-5663.2
3445	2.3942	1.4545	0.	-5675.6
3446	2.3942	1.2727	0.	-5690.9
3447	2.3942	1.0909	0.	-5709.4
3448	2.3942	0.90909	0.	-5731.
3449	2.3942	0.72727	0.	-5755.5
3450	2.3942	0.54545	0.	-5782.9
3451	2.3942	0.36364	0.	-5812.9
3452	2.3942	0.18182	0.	-5851.3
3453	2.21	5.8182	0.	-5910.5
3454	2.21	5.6364	0.	-5868.9
3455	2.21	5.4545	0.	-5837.8
3456	2.21	5.2727	0.	-5810.3
3457	2.21	5.0909	0.	-5786.3
3458	2.21	4.9091	0.	-5766.
3459	2.21	4.7273	0.	-5749.6
3460	2.21	4.5455	0.	-5736.8
3461	2.21	4.3636	0.	-5727.4
3462	2.21	4.1818	0.	-5720.8
3463	2.21	4.	0.	-5716.6
3464	2.21	3.8182	0.	-5714.1
3465	2.21	3.6364	0.	-5712.9
3466	2.21	3.4545	0.	-5712.5
3467	2.21	3.2727	0.	-5712.4
3468	2.21	3.0909	0.	-5712.4
3469	2.21	2.9091	0.	-5712.4
3470	2.21	2.7273	0.	-5712.4
3471	2.21	2.5455	0.	-5712.5
3472	2.21	2.3636	0.	-5712.9
3473	2.21	2.1818	0.	-5714.1
3474	2.21	2.	0.	-5716.6
3475	2.21	1.8182	0.	-5720.8
3476	2.21	1.6364	0.	-5727.4
3477	2.21	1.4545	0.	-5736.8
3478	2.21	1.2727	0.	-5749.6
3479	2.21	1.0909	0.	-5766.
3480	2.21	0.90909	0.	-5786.3
3481	2.21	0.72727	0.	-5810.3
3482	2.21	0.54545	0.	-5837.8
3483	2.21	0.36364	0.	-5868.9
3484	2.21	0.18182	0.	-5910.5
3485	2.0258	5.8182	0.	-5964.6
3486	2.0258	5.6364	0.	-5919.6
3487	2.0258	5.4545	0.	-5887.8
3488	2.0258	5.2727	0.	-5860.6
3489	2.0258	5.0909	0.	-5838.1
3490	2.0258	4.9091	0.	-5820.3
3491	2.0258	4.7273	0.	-5807.1
3492	2.0258	4.5455	0.	-5798.3
3493	2.0258	4.3636	0.	-5793.2
3494	2.0258	4.1818	0.	-5791.1
3495	2.0258	4.	0.	-5791.1
3496	2.0258	3.8182	0.	-5792.6
3497	2.0258	3.6364	0.	-5794.8
3498	2.0258	3.4545	0.	-5797.
3499	2.0258	3.2727	0.	-5798.7
3500	2.0258	3.0909	0.	-5799.6
3501	2.0258	2.9091	0.	-5799.6
3502	2.0258	2.7273	0.	-5798.7
3503	2.0258	2.5455	0.	-5797.
3504	2.0258	2.3636	0.	-5794.8
3505	2.0258	2.1818	0.	-5792.6
3506	2.0258	2.	0.	-5791.1
3507	2.0258	1.8182	0.	-5791.1
3508	2.0258	1.6364	0.	-5793.2
3509	2.0258	1.4545	0.	-5798.3
3510	2.0258	1.2727	0.	-5807.1
3511	2.0258	1.0909	0.	-5820.3
3512	2.0258	0.90909	0.	-5838.1
3513	2.0258	0.72727	0.	-5860.6
3514	2.0258	0.54545	0.	-5887.8
3515	2.0258	0.36364	0.	-5919.6
3516	2.0258	0.18182	0.	-5964.6
3517	1.8417	5.8182	0.	-6011.3
3518	1.8417	5.6364	0.	-5962.9
3519	1.8417	5.4545	0.	-5930.9
3520	1.8417	5.2727	0.	-5905.
3521	1.8417	5.0909	0.	-5885.2
3522	1.8417	4.9091	0.	-5871.4
3523	1.8417	4.7273	0.	-5863.3
3524	1.8417	4.5455	0.	-5860.2
3525	1.8417	4.3636	0.	-5861.2
3526	1.8417	4.1818	0.	-5865.2
3527	1.8417	4.	0.	-5871.1
3528	1.8417	3.8182	0.	-5877.7
3529	1.8417	3.6364	0.	-5884.2
3530	1.8417	3.4545	0.	-5889.7
3531	1.8417	3.2727	0.	-5893.7
3532	1.8417	3.0909	0.	-5895.8
3533	1.8417	2.9091	0.	-5895.8
3534	1.8417	2.7273	0.	-5893.7
3535	1.8417	2.5455	0.	-5889.7
3536	1.8417	2.3636	0.	-5884.2
3537	1.8417	2.1818	0.	-5877.7
3538	1.8417	2.	0.	-5871.1
3539	1.8417	1.8182	0.	-5865.2
3540	1.8417	1.6364	0.	-5861.2
3541	1.8417	1.4545	0.	-5860.2
3542	1.8417	1.2727	0.	-5863.3
3543	1.8417	1.0909	0.	-5871.4
3544	1.8417	0.90909	0.	-5885.2
3545	1.8417	0.72727	0.	-5905.
3546	1.8417	0.54545	0.	-5930.9
3547	1.8417	0.36364	0.	-5962.9
3548	1.8417	0.18182	0.	-6011.3
3549	1.6575	5.8182	0.	-6047.7
3550	1.6575	5.6364	0.	-5995.7
3551	1.6575	5.4545	0.	-5964.3
3552	1.6575	5.2727	0.	-5941.1
3553	1.6575	5.0909	0.	-5925.9
3554	1.6575	4.9091	0.	-5918.4
3555	1.6575	4.7273	0.	-5917.9
3556	1.6575	4.5455	0.	-5923.
3557	1.6575	4.3636	0.	-5932.5
3558	1.6575	4.1818	0.	-5944.6
3559	1.6575	4.	0.	-5957.9
3560	1.6575	3.8182	0.	-5971.1
3561	1.6575	3.6364	0.	-5982.9
3562	1.6575	3.4545	0.	-5992.5
3563	1.6575	3.2727	0.	-5999.3
3564	1.6575	3.0909	0.	-6002.8
3565	1.6575	2.9091	0.	-6002.8
3566	1.6575	2.7273	0.	-5999.3
3567	1.6575	2.5455	0.	-5992.5
3568	1.6575	2.3636	0.	-5982.9
3569	1.6575	2.1818	0.	-5971.1
3570	1.6575	2.	0.	-5957.9
3571	1.6575	1.8182	0.	-5944.6
3572	1.6575	1.6364	0.	-5932.5
3573	1.6575	1.4545	0.	-5923.
3574	1.6575	1.2727	0.	-5917.9
3575	1.6575	1.0909	0.	-5918.4
3576	1.6575	0.90909	0.	-5925.9
3577	1.6575	0.72727	0.	-5941.1
3578	1.6575	0.54545	0.	-5964.3
3579	1.6575	0.36364	0.	-5995.7
3580	1.6575	0.18182	0.	-6047.7
3581	1.4733	5.8182	0.	-6069.2
3582	1.4733	5.6364	0.	-6013.8
3583	1.4733	5.4545	0.	-5984.5
3584	1.4733	5.2727	0.	-5966.3
3585	1.4733	5.0909	0.	-5958.6
3586	1.4733	4.9091	0.	-5960.7
3587	1.4733	4.7273	0.	-5971.1
3588	1.4733	4.5455	0.	-5987.8
3589	1.4733	4.3636	0.	-6008.5
3590	1.4733	4.1818	0.	-6031.2
3591	1.4733	4.	0.	-6053.9
3592	1.4733	3.8182	0.	-6074.9
3593	1.4733	3.6364	0.	-6093.1
3594	1.4733	3.4545	0.	-6107.5
3595	1.4733	3.2727	0.	-6117.5
3596	1.4733	3.0909	0.	-6122.6
3597	1.4733	2.9091	0.	-6122.6
3598	1.4733	2.7273	0.	-6117.5
3599	1.4733	2.5455	0.	-6107.5
3600	1.4733	2.3636	0.	-6093.1
3601	1.4733	2.1818	0.	-6074.9
3602	1.4733	2.	0.	-6053.9
3603	1.4733	1.8182	0.	-6031.2
3604	1.4733	1.6364	0.	-6008.5
3605	1.4733	1.4545	0.	-5987.8
3606	1.4733	1.2727	0.	-5971.1
3607	1.4733	1.0909	0.	-5960.7
3608	1.4733	0.90909	0.	-5958.6
3609	1.4733	0.72727	0.	-5966.3
3610	1.4733	0.54545	0.	-5984.5
3611	1.4733	0.36364	0.	-6013.8
3612	1.4733	0.18182	0.	-6069.2
3613	1.2892	5.8182	0.	-6069.3
3614	1.2892	5.6364	0.	-6011.2
3615	1.2892	5.4545	0.	-5986.3
3616	1.2892	5.2727	0.	-5976.8
3617	1.2892	5.0909	0.	-5981.3
3618	1.2892	4.9091	0.	-5997.9
3619	1.2892	4.7273	0.	-6024.
3620	1.2892	4.5455	0.	-6056.3
3621	1.2892	4.3636	0.	-6091.8
3622	1.2892	4.1818	0.	-6127.6
3623	1.2892	4.	0.	-6161.6
3624	1.2892	3.8182	0.	-6191.9
3625	1.2892	3.6364	0.	-6217.3
3626	1.2892	3.4545	0.	-6237.
3627	1.2892	3.2727	0.	-6250.4
3628	1.2892	3.0909	0.	-6257.2
3629	1.2892	2.9091	0.	-6257.2
3630	1.2892	2.7273	0.	-6250.4
3631	1.2892	2.5455	0.	-6237.
3632	1.2892	2.3636	0.	-6217.3
3633	1.2892	2.1818	0.	-6191.9
3634	1.2892	2.	0.	-6161.6
3635	1.2892	1.8182	0.	-6127.6
3636	1.2892	1.6364	0.	-6091.8
3637	1.2892	1.4545	0.	-6056.3
3638	1.2892	1.2727	0.	-6024.
3639	1.2892	1.0909	0.	-5997.9
3640	1.2892	0.90909	0.	-5981.3
3641	1.2892	0.72727	0.	-5976.8
3642	1.2892	0.54545	0.	-5986.3
3643	1.2892	0.36364	0.	-6011.2
3644	1.2892	0.18182	0.	-6069.3
3645	1.105	5.8182	0.	-6038.2
3646	1.105	5.6364	0.	-5979.
3647	1.105	5.4545	0.	-5963.2
3648	1.105	5.2727	0.	-5968.7
3649	1.105	5.0909	0.	-5992.5
3650	1.105	4.9091	0.	-6031.
3651	1.105	4.7273	0.	-6079.2
3652	1.105	4.5455	0.	-6132.4
3653	1.105	4.3636	0.	-6186.4
3654	1.105	4.1818	0.	-6238.
3655	1.105	4.	0.	-6284.8
3656	1.105	3.8182	0.	-6325.3
3657	1.105	3.6364	0.	-6358.5
3658	1.105	3.4545	0.	-6383.7
3659	1.105	3.2727	0.	-6400.7
3660	1.105	3.0909	0.	-6409.2
3661	1.105	2.9091	0.	-6409.2
3662	1.105	2.7273	0.	-6400.7
3663	1.105	2.5455	0.	-6383.7
3664	1.105	2.3636	0.	-6358.5
3665	1.105	2.1818	0.	-6325.3
3666	1.105	2.	0.	-6284.8
3667	1.105	1.8182	0.	-6238.
3668	1.105	1.6364	0.	-6186.4
3669	1.105	1.4545	0.	-6132.4
3670	1.105	1.2727	0.	-6079.2
3671	1.105	1.0909	0.	-6031.
3672	1.105	0.90909	0.	-5992.5
3673	1.105	0.72727	0.	-5968.7
3674	1.105	0.54545	0.	-5963.2
3675	1.105	0.36364	0.	-5979.
3676	1.105	0.18182	0.	-6038.2
3677	0.92083	5.8182	0.	-5959.4
3678	0.92083	5.6364	0.	-5903.1
3679	0.92083	5.4545	0.	-5904.9
3680	0.92083	5.2727	0.	-5936.5
3681	0.92083	5.0909	0.	-5991.6
3682	0.92083	4.9091	0.	-6062.5
3683	0.92083	4.7273	0.	-6141.2
3684	0.92083	4.5455	0.	-6221.
3685	0.92083	4.3636	0.	-6297.1
3686	0.92083	4.1818	0.	-6366.3
3687	0.92083	4.	0.	-6426.8
3688	0.92083	3.8182	0.	-6477.6
3689	0.92083	3.6364	0.	-6518.4
3690	0.92083	3.4545	0.	-6548.9
3691	0.92083	3.2727	0.	-6569.2
3692	0.92083	3.0909	0.	-6579.3
3693	0.92083	2.9091	0.	-6579.3
3694	0.92083	2.7273	0.	-6569.2
3695	0.92083	2.5455	0.	-6548.9
3696	0.92083	2.3636	0.	-6518.4
3697	0.92083	2.1818	0.	-6477.6
3698	0.92083	2.	0.	-6426.8
3699	0.92083	1.8182	0.	-6366.3
3700	0.92083	1.6364	0.	-6297.1
3701	0.92083	1.4545	0.	-6221.
3702	0.92083	1.2727	0.	-6141.2
3703	0.92083	1.0909	0.	-6062.5
3704	0.92083	0.90909	0.	-5991.6
3705	0.92083	0.72727	0.	-5936.5
3706	0.92083	0.54545	0.	-5904.9
3707	0.92083	0.36364	0.	-5903.1
3708	0.92083	0.18182	0.	-5959.4
3709	0.73667	5.8182	0.	-5807.5
3710	0.73667	5.6364	0.	-5764.9
3711	0.73667	5.4545	0.	-5802.6
3712	0.73667	5.2727	0.	-5881.7
3713	0.73667	5.0909	0.	-5987.6
3714	0.73667	4.9091	0.	-6105.8
3715	0.73667	4.7273	0.	-6224.4
3716	0.73667	4.5455	0.	-6335.9
3717	0.73667	4.3636	0.	-6436.1
3718	0.73667	4.1818	0.	-6523.3
3719	0.73667	4.	0.	-6597.
3720	0.73667	3.8182	0.	-6657.2
3721	0.73667	3.6364	0.	-6704.5
3722	0.73667	3.4545	0.	-6739.4
3723	0.73667	3.2727	0.	-6762.4
3724	0.73667	3.0909	0.	-6773.8
3725	0.73667	2.9091	0.	-6773.8
3726	0.73667	2.7273	0.	-6762.4
3727	0.73667	2.5455	0.	-6739.4
3728	0.73667	2.3636	0.	-6704.5
3729	0.73667	2.1818	0.	-6657.2
3730	0.73667	2.	0.	-6597.
3731	0.73667	1.8182	0.	-6523.3
3732	0.73667	1.6364	0.	-6436.1
3733	0.73667	1.4545	0.	-6335.9
3734	0.73667	1.2727	0.	-6224.4
3735	0.73667	1.0909	0.	-6105.8
3736	0.73667	0.90909	0.	-5987.6
3737	0.73667	0.72727	0.	-5881.7
3738	0.73667	0.54545	0.	-5802.6
3739	0.73667	0.36364	0.	-5764.9
3740	0.73667	0.18182	0.	-5807.5
3741	0.5525	5.8182	0.	-5523.9
3742	0.5525	5.6364	0.	-5519.
3743	0.5525	5.4545	0.	-5631.
3744	0.5525	5.2727	0.	-5796.3
3745	0.5525	5.0909	0.	-5981.7
3746	0.5525	4.9091	0.	-6163.3
3747	0.5525	4.7273	0.	-6328.7
3748	0.5525	4.5455	0.	-6473.2
3749	0.5525	4.3636	0.	-6596.2
3750	0.5525	4.1818	0.	-6698.8
3751	0.5525	4.	0.	-6782.7
3752	0.5525	3.8182	0.	-6849.7
3753	0.5525	3.6364	0.	-6901.4
3754	0.5525	3.4545	0.	-6939.1
3755	0.5525	3.2727	0.	-6963.6
3756	0.5525	3.0909	0.	-6975.8
3757	0.5525	2.9091	0.	-6975.8
3758	0.5525	2.7273	0.	-6963.6
3759	0.5525	2.5455	0.	-6939.1
3760	0.5525	2.3636	0.	-6901.4
3761	0.5525	2.1818	0.	-6849.7
3762	0.5525	2.	0.	-6782.7
3763	0.5525	1.8182	0.	-6698.8
3764	0.5525	1.6364	0.	-6596.2
3765	0.5525	1.4545	0.	-6473.2
3766	0.5525	1.2727	0.	-6328.7
3767	0.5525	1.0909	0.	-6163.3
3768	0.5525	0.90909	0.	-5981.7
3769	0.5525	0.72727	0.	-5796.3
3770	0.5525	0.54545	0.	-5631.
3771	0.5525	0.36364	0.	-5519.
3772	0.5525	0.18182	0.	-5523.9
3773	0.36833	5.8182	0.	-5028.5
3774	0.36833	5.6364	0.	-5158.8
3775	0.36833	5.4545	0.	-5452.2
3776	0.36833	5.2727	0.	-5778.4
3777	0.36833	5.0909	0.	-6077.8
3778	0.36833	4.9091	0.	-6333.2
3779	0.36833	4.7273	0.	-6544.3
3780	0.36833	4.5455	0.	-6716.6
3781	0.36833	4.3636	0.	-6856.1
3782	0.36833	4.1818	0.	-6968.4
3783	0.36833	4.	0.	-7057.9
3784	0.36833	3.8182	0.	-7127.9
3785	0.36833	3.6364	0.	-7181.2
3786	0.36833	3.4545	0.	-7219.6
3787	0.36833	3.2727	0.	-7244.4
3788	0.36833	3.0909	0.	-7256.7
3789	0.36833	2.9091	0.	-7256.7
3790	0.36833	2.7273	0.	-7244.4
3791	0.36833	2.5455	0.	-7219.6
3792	0.36833	2.3636	0.	-7181.2
3793	0.36833	2.1818	0.	-7127.9
3794	0.36833	2.	0.	-7057.9
3795	0.36833	1.8182	0.	-6968.4
3796	0.36833	1.6364	0.	-6856.1
3797	0.36833	1.4545	0.	-6716.6
3798	0.36833	1.2727	0.	-6544.3
3799	0.36833	1.0909	0.	-6333.2
3800	0.36833	0.90909	0.	-6077.8
3801	0.36833	0.72727	0.	-5778.4
3802	0.36833	0.54545	0.	-5452.2
3803	0.36833	0.36364	0.	-5158.8
3804	0.36833	0.18182	0.	-5028.5
3805	0.18417	5.8182	0.	-3889.
3806	0.18417	5.6364	0.	-4486.9
3807	0.18417	5.4545	0.	-5179.5
3808	0.18417	5.2727	0.	-5709.4
3809	0.18417	5.0909	0.	-6107.7
3810	0.18417	4.9091	0.	-6407.6
3811	0.18417	4.7273	0.	-6637.3
3812	0.18417	4.5455	0.	-6815.4
3813	0.18417	4.3636	0.	-6954.6
3814	0.18417	4.1818	0.	-7063.9
3815	0.18417	4.	0.	-7149.2
3816	0.18417	3.8182	0.	-7215.2
3817	0.18417	3.6364	0.	-7264.8
3818	0.18417	3.4545	0.	-7300.3
3819	0.18417	3.2727	0.	-7323.2
3820	0.18417	3.0909	0.	-7334.4
3821	0.18417	2.9091	0.	-7334.4
3822	0.18417	2.7273	0.	-7323.2
3823	0.18417	2.5455	0.	-7300.3
3824	0.18417	2.3636	0.	-7264.8
3825	0.18417	2.1818	0.	-7215.2
3826	0.18417	2.	0.	-7149.2
3827	0.18417	1.8182	0.	-7063.9
3828	0.18417	1.6364	0.	-6954.6
3829	0.18417	1.4545	0.	-6815.4
3830	0.18417	1.2727	0.	-6637.3
3831	0.18417	1.0909	0.	-6407.6
3832	0.18417	0.90909	0.	-6107.7
3833	0.18417	0.72727	0.	-5709.4
3834	0.18417	0.54545	0.	-5179.5
3835	0.18417	0.36364	0.	-4486.9
3836	0.18417	0.18182	0.	-3889.
3837	22.267	2.1818	0.	-1440.1
3838	22.267	2.3636	0.	-1078.9
3839	22.267	2.5455	0.	-928.33
3840	22.267	2.7273	0.	-855.69
3841	22.267	2.9091	0.	-824.74
3842	22.267	3.0909	0.	-824.74
3843	22.267	3.2727	0.	-855.69
3844	22.267	3.4545	0.	-928.33
3845	22.267	3.6364	0.	-1078.9
3846	22.267	3.8182	0.	-1440.1
3847	22.44	2.1818	0.	-1064.1
3848	22.44	2.3636	0.	-943.52
3849	22.44	2.5455	0.	-841.86
3850	22.44	2.7273	0.	-786.37
3851	22.44	2.9091	0.	-760.95
3852	22.44	3.0909	0.	-760.95
3853	22.44	3.2727	0.	-786.37
3854	22.44	3.4545	0.	-841.86
3855	22.44	3.6364	0.	-943.52
3856	22.44	3.8182	0.	-1064.1
3857	22.613	2.1818	0.	-753.11
3858	22.613	2.3636	0.	-748.54
3859	22.613	2.5455	0.	-715.63
3860	22.613	2.7273	0.	-686.56
3861	22.613	2.9091	0.	-671.44
3862	22.613	3.0909	0.	-671.44
3863	22.613	3.2727	0.	-686.56
3864	22.613	3.4545	0.	-715.63
3865	22.613	3.6364	0.	-748.54
3866	22.613	3.8182	0.	-753.11
3867	22.787	2.1818	0.	-566.5
3868	22.787	2.3636	0.	-588.
3869	22.787	2.5455	0.	-585.31
3870	22.787	2.7273	0.	-576.15
3871	22.787	2.9091	0.	-569.77
3872	22.787	3.0909	0.	-569.77
3873	22.787	3.2727	0.	-576.15
3874	22.787	3.4545	0.	-585.31
3875	22.787	3.6364	0.	-588.
3876	22.787	3.8182	0.	-566.5
3877	22.96	2.1818	0.	-440.42
3878	22.96	2.3636	0.	-462.52
3879	22.96	2.5455	0.	-469.62
3880	22.96	2.7273	0.	-469.31
3881	22.96	2.9091	0.	-467.7
3882	22.96	3.0909	0.	-467.7
3883	22.96	3.2727	0.	-469.31
3884	22.96	3.4545	0.	-469.62
3885	22.96	3.6364	0.	-462.52
3886	22.96	3.8182	0.	-440.42
3887	23.133	2.1818	0.	-346.5
3888	23.133	2.3636	0.	-363.1
3889	23.133	2.5455	0.	-370.35
3890	23.133	2.7273	0.	-372.04
3891	23.133	2.9091	0.	-371.85
3892	23.133	3.0909	0.	-371.85
3893	23.133	3.2727	0.	-372.04
3894	23.133	3.4545	0.	-370.35
3895	23.133	3.6364	0.	-363.1
3896	23.133	3.8182	0.	-346.5
3897	23.307	2.1818	0.	-272.32
3898	23.307	2.3636	0.	-282.19
3899	23.307	2.5455	0.	-285.65
3900	23.307	2.7273	0.	-285.43
3901	23.307	2.9091	0.	-284.43
3902	23.307	3.0909	0.	-284.43
3903	23.307	3.2727	0.	-285.43
3904	23.307	3.4545	0.	-285.65
3905	23.307	3.6364	0.	-282.19
3906	23.307	3.8182	0.	-272.32
3907	23.48	2.1818	0.	-213.17
3908	23.48	2.3636	0.	-216.31
3909	23.48	2.5455	0.	-214.06
3910	23.48	2.7273	0.	-209.14
3911	23.48	2.9091	0.	-205.19
3912	23.48	3.0909	0.	-205.19
3913	23.48	3.2727	0.	-209.14
3914	23.48	3.4545	0.	-214.06
3915	23.48	3.6364	0.	-216.31
3916	23.48	3.8182	0.	-213.17
3917	23.653	2.1818	0.	-168.4
3918	23.653	2.3636	0.	-166.28
3919	23.653	2.5455	0.	-158.27
3920	23.653	2.7273	0.	-146.09
3921	23.653	2.9091	0.	-133.8
3922	23.653	3.0909	0.	-133.8
3923	23.653	3.2727	0.	-146.09
3924	23.653	3.4545	0.	-158.27
3925	23.653	3.6364	0.	-166.28
3926	23.653	3.8182	0.	-168.4
3927	23.827	2.1818	0.	-141.62
3928	23.827	2.3636	0.	-137.55
3929	23.827	2.5455	0.	-128.25
3930	23.827	2.7273	0.	-115.62
3931	23.827	2.9091	0.	-104.09
3932	23.827	3.0909	0.	-104.09
3933	23.827	3.2727	0.	-115.62
3934	23.827	3.4545	0.	-128.25
3935	23.827	3.6364	0.	-137.55
3936	23.827	3.8182	0.	-141.62
3937	23.827	4.1818	0.	-132.43
3938	23.653	4.1818	0.	-153.91
3939	23.48	4.1818	0.	-187.9
3940	23.307	4.1818	0.	-230.94
3941	23.133	4.1818	0.	-283.36
3942	22.96	4.1818	0.	-347.19
3943	22.787	4.1818	0.	-427.45
3944	22.613	4.1818	0.	-535.52
3945	22.44	4.1818	0.	-726.51
3946	23.827	4.3636	0.	-120.66
3947	23.653	4.3636	0.	-139.39
3948	23.48	4.3636	0.	-168.21
3949	23.307	4.3636	0.	-203.28
3950	23.133	4.3636	0.	-244.24
3951	22.96	4.3636	0.	-291.31
3952	22.787	4.3636	0.	-345.13
3953	22.613	4.3636	0.	-403.8
3954	22.44	4.3636	0.	-472.83
3955	23.827	4.5455	0.	-106.09
3956	23.653	4.5455	0.	-122.45
3957	23.48	4.5455	0.	-146.73
3958	23.307	4.5455	0.	-174.9
3959	23.133	4.5455	0.	-206.19
3960	22.96	4.5455	0.	-239.87
3961	22.787	4.5455	0.	-274.98
3962	22.613	4.5455	0.	-308.69
3963	22.44	4.5455	0.	-342.84
3964	23.827	4.7273	0.	-90.414
3965	23.653	4.7273	0.	-104.94
3966	23.48	4.7273	0.	-125.46
3967	23.307	4.7273	0.	-148.01
3968	23.133	4.7273	0.	-171.63
3969	22.96	4.7273	0.	-195.37
3970	22.787	4.7273	0.	-217.94
3971	22.613	4.7273	0.	-237.37
3972	22.44	4.7273	0.	-256.17
3973	23.827	4.9091	0.	-75.044
3974	23.653	4.9091	0.	-88.308
3975	23.48	4.9091	0.	-105.81
3976	23.307	4.9091	0.	-123.85
3977	23.133	4.9091	0.	-141.5
3978	22.96	4.9091	0.	-157.9
3979	22.787	4.9091	0.	-172.12
3980	22.613	4.9091	0.	-183.16
3981	22.44	4.9091	0.	-194.11
3982	23.827	5.0909	0.	-61.025
3983	23.653	5.0909	0.	-73.531
3984	23.48	5.0909	0.	-88.632
3985	23.307	5.0909	0.	-103.09
3986	23.133	5.0909	0.	-116.08
3987	22.96	5.0909	0.	-126.97
3988	22.787	5.0909	0.	-135.3
3989	22.613	5.0909	0.	-140.93
3990	22.44	5.0909	0.	-147.05
3991	23.827	5.2727	0.	-48.995
3992	23.653	5.2727	0.	-61.15
3993	23.48	5.2727	0.	-74.407
3994	23.307	5.2727	0.	-86.087
3995	23.133	5.2727	0.	-95.477
3996	22.96	5.2727	0.	-102.12
3997	22.787	5.2727	0.	-105.95
3998	22.613	5.2727	0.	-107.51
3999	22.44	5.2727	0.	-110.1
4000	23.827	5.4545	0.	-39.219
4001	23.653	5.4545	0.	-51.359
4002	23.48	5.4545	0.	-63.341
4003	23.307	5.4545	0.	-73.037
4004	23.133	5.4545	0.	-79.763
4005	22.96	5.4545	0.	-83.111
4006	22.787	5.4545	0.	-83.183
4007	22.613	5.4545	0.	-81.005
4008	22.44	5.4545	0.	-80.254
4009	23.827	5.6364	0.	-31.744
4010	23.653	5.6364	0.	-44.2
4011	23.48	5.6364	0.	-55.581
4012	23.307	5.6364	0.	-64.096
4013	23.133	5.6364	0.	-69.043
4014	22.96	5.6364	0.	-69.975
4015	22.787	5.6364	0.	-66.865
4016	22.613	5.6364	0.	-60.657
4017	22.44	5.6364	0.	-55.505
4018	23.827	5.8182	0.	-26.964
4019	23.653	5.8182	0.	-40.886
4020	23.48	5.8182	0.	-52.563
4021	23.307	5.8182	0.	-60.58
4022	23.133	5.8182	0.	-64.485
4023	22.96	5.8182	0.	-63.862
4024	22.787	5.8182	0.	-58.435
4025	22.613	5.8182	0.	-48.289
4026	22.44	5.8182	0.	-35.831
4027	22.44	1.8182	0.	-726.51
4028	22.613	1.8182	0.	-535.52
4029	22.787	1.8182	0.	-427.45
4030	22.96	1.8182	0.	-347.19
4031	23.133	1.8182	0.	-283.36
4032	23.307	1.8182	0.	-230.94
4033	23.48	1.8182	0.	-187.9
4034	23.653	1.8182	0.	-153.91
4035	23.827	1.8182	0.	-132.43
4036	22.44	1.6364	0.	-472.83
4037	22.613	1.6364	0.	-403.8
4038	22.787	1.6364	0.	-345.13
4039	22.96	1.6364	0.	-291.31
4040	23.133	1.6364	0.	-244.24
4041	23.307	1.6364	0.	-203.28
4042	23.48	1.6364	0.	-168.21
4043	23.653	1.6364	0.	-139.39
4044	23.827	1.6364	0.	-120.66
4045	22.44	1.4545	0.	-342.84
4046	22.613	1.4545	0.	-308.69
4047	22.787	1.4545	0.	-274.98
4048	22.96	1.4545	0.	-239.87
4049	23.133	1.4545	0.	-206.19
4050	23.307	1.4545	0.	-174.9
4051	23.48	1.4545	0.	-146.73
4052	23.653	1.4545	0.	-122.45
4053	23.827	1.4545	0.	-106.09
4054	22.44	1.2727	0.	-256.17
4055	22.613	1.2727	0.	-237.37
4056	22.787	1.2727	0.	-217.94
4057	22.96	1.2727	0.	-195.37
4058	23.133	1.2727	0.	-171.63
4059	23.307	1.2727	0.	-148.01
4060	23.48	1.2727	0.	-125.46
4061	23.653	1.2727	0.	-104.94
4062	23.827	1.2727	0.	-90.414
4063	22.44	1.0909	0.	-194.11
4064	22.613	1.0909	0.	-183.16
4065	22.787	1.0909	0.	-172.12
4066	22.96	1.0909	0.	-157.9
4067	23.133	1.0909	0.	-141.5
4068	23.307	1.0909	0.	-123.85
4069	23.48	1.0909	0.	-105.81
4070	23.653	1.0909	0.	-88.308
4071	23.827	1.0909	0.	-75.044
4072	22.44	0.90909	0.	-147.05
4073	22.613	0.90909	0.	-140.93
4074	22.787	0.90909	0.	-135.3
4075	22.96	0.90909	0.	-126.97
4076	23.133	0.90909	0.	-116.08
4077	23.307	0.90909	0.	-103.09
4078	23.48	0.90909	0.	-88.632
4079	23.653	0.90909	0.	-73.531
4080	23.827	0.90909	0.	-61.025
4081	22.44	0.72727	0.	-110.1
4082	22.613	0.72727	0.	-107.51
4083	22.787	0.72727	0.	-105.95
4084	22.96	0.72727	0.	-102.12
4085	23.133	0.72727	0.	-95.477
4086	23.307	0.72727	0.	-86.087
4087	23.48	0.72727	0.	-74.407
4088	23.653	0.72727	0.	-61.15
4089	23.827	0.72727	0.	-48.995
4090	22.44	0.54545	0.	-80.255
4091	22.613	0.54545	0.	-81.005
4092	22.787	0.54545	0.	-83.183
4093	22.96	0.54545	0.	-83.111
4094	23.133	0.54545	0.	-79.763
4095	23.307	0.54545	0.	-73.037
4096	23.48	0.54545	0.	-63.341
4097	23.653	0.54545	0.	-51.359
4098	23.827	0.54545	0.	-39.219
4099	22.44	0.36364	0.	-55.505
4100	22.613	0.36364	0.	-60.657
4101	22.787	0.36364	0.	-66.865
4102	22.96	0.36364	0.	-69.975
4103	23.133	0.36364	0.	-69.043
4104	23.307	0.36364	0.	-64.096
4105	23.48	0.36364	0.	-55.581
4106	23.653	0.36364	0.	-44.2
4107	23.827	0.36364	0.	-31.744
4108	22.44	0.18182	0.	-35.831
4109	22.613	0.18182	0.	-48.289
4110	22.787	0.18182	0.	-58.435
4111	22.96	0.18182	0.	-63.862
4112	23.133	0.18182	0.	-64.485
4113	23.307	0.18182	0.	-60.58
4114	23.48	0.18182	0.	-52.563
4115	23.653	0.18182	0.	-40.886
4116	23.827	0.18182	0.	-26.964
4117	23.827	0.18182	0.1	-25.277
4118	23.653	0.18182	0.1	-20.633
4119	23.48	0.18182	0.1	-17.774
4120	23.307	0.18182	0.1	-15.155
4121	23.133	0.18182	0.1	-12.648
4122	22.96	0.18182	0.1	-10.176
4123	22.787	0.18182	0.1	-7.6949
4124	22.613	0.18182	0.1	-5.5226
4125	22.44	0.18182	0.1	-5.4783
4126	23.827	0.36364	0.1	-35.546
4127	23.653	0.36364	0.1	-24.385
4128	23.48	0.36364	0.1	-17.257
4129	23.307	0.36364	0.1	-11.94
4130	23.133	0.36364	0.1	-7.7724
4131	22.96	0.36364	0.1	-4.5948
4132	22.787	0.36364	0.1	-2.7334
4133	22.613	0.36364	0.1	-2.6773
4134	22.44	0.36364	0.1	-6.6419
4135	23.827	0.54545	0.1	-40.796
4136	23.653	0.54545	0.1	-26.146
4137	23.48	0.54545	0.1	-16.206
4138	23.307	0.54545	0.1	-8.8355
4139	23.133	0.54545	0.1	-3.6389
4140	22.96	0.54545	0.1	-1.3046
4141	22.787	0.54545	0.1	-1.202
4142	22.613	0.54545	0.1	-2.5181
4143	22.44	0.54545	0.1	-9.8065
4144	23.827	0.72727	0.1	-42.013
4145	23.653	0.72727	0.1	-24.777
4146	23.48	0.72727	0.1	-12.918
4147	23.307	0.72727	0.1	-4.2045
4148	23.133	0.72727	0.1	-0.52646
4149	22.96	0.72727	0.1	-0.45907
4150	22.787	0.72727	0.1	-0.77389
4151	22.613	0.72727	0.1	-2.7207
4152	22.44	0.72727	0.1	-13.571
4153	23.827	0.90909	0.1	-40.525
4154	23.653	0.90909	0.1	-20.941
4155	23.48	0.90909	0.1	-7.4816
4156	23.307	0.90909	0.1	-0.25095
4157	23.133	0.90909	0.1	-0.18353
4158	22.96	0.90909	0.1	-0.27374
4159	22.787	0.90909	0.1	-0.57791
4160	22.613	0.90909	0.1	-2.773
4161	22.44	0.90909	0.1	-17.893
4162	23.827	1.0909	0.1	-37.23
4163	23.653	1.0909	0.1	-15.309
4164	23.48	1.0909	0.1	-0.289
4165	23.307	1.0909	0.1	-9.6542e-002
4166	23.133	1.0909	0.1	-0.10706
4167	22.96	1.0909	0.1	-0.18797
4168	22.787	1.0909	0.1	-0.43367
4169	22.613	1.0909	0.1	-2.5925
4170	22.44	1.0909	0.1	-22.999
4171	23.827	1.2727	0.1	-32.752
4172	23.653	1.2727	0.1	-8.4757
4173	23.48	1.2727	0.1	-8.4255e-002
4174	23.307	1.2727	0.1	-7.5587e-002
4175	23.133	1.2727	0.1	-7.0177e-002
4176	22.96	1.2727	0.1	-0.11411
4177	22.787	1.2727	0.1	-0.31852
4178	22.613	1.2727	0.1	-2.2103
4179	22.44	1.2727	0.1	-29.582
4180	23.827	1.4545	0.1	-27.47
4181	23.653	1.4545	0.1	-1.6867
4182	23.48	1.4545	0.1	-0.10864
4183	23.307	1.4545	0.1	-7.7741e-002
4184	23.133	1.4545	0.1	-4.5265e-002
4185	22.96	1.4545	0.1	-5.4781e-002
4186	22.787	1.4545	0.1	-0.16233
4187	22.613	1.4545	0.1	-1.9125
4188	22.44	1.4545	0.1	-36.608
4189	23.827	1.6364	0.1	-21.526
4190	23.653	1.6364	0.1	-0.58666
4191	23.48	1.6364	0.1	-0.14506
4192	23.307	1.6364	0.1	-9.7535e-002
4193	23.133	1.6364	0.1	-3.939e-002
4194	22.96	1.6364	0.1	-5.1053e-002
4195	22.787	1.6364	0.1	0.24544
4196	22.613	1.6364	0.1	-1.059
4197	22.44	1.6364	0.1	-51.674
4198	23.827	1.8182	0.1	-14.902
4199	23.653	1.8182	0.1	-0.55106
4200	23.48	1.8182	0.1	-0.19335
4201	23.307	1.8182	0.1	-0.14862
4202	23.133	1.8182	0.1	-6.3915e-002
4203	22.96	1.8182	0.1	-0.11855
4204	22.787	1.8182	0.1	0.3856
4205	22.613	1.8182	0.1	-1.5616
4206	22.44	1.8182	0.1	-33.908
4207	22.44	5.8182	0.1	-5.4783
4208	22.613	5.8182	0.1	-5.5226
4209	22.787	5.8182	0.1	-7.6949
4210	22.96	5.8182	0.1	-10.176
4211	23.133	5.8182	0.1	-12.648
4212	23.307	5.8182	0.1	-15.155
4213	23.48	5.8182	0.1	-17.774
4214	23.653	5.8182	0.1	-20.633
4215	23.827	5.8182	0.1	-25.277
4216	22.44	5.6364	0.1	-6.6419
4217	22.613	5.6364	0.1	-2.6773
4218	22.787	5.6364	0.1	-2.7334
4219	22.96	5.6364	0.1	-4.5948
4220	23.133	5.6364	0.1	-7.7724
4221	23.307	5.6364	0.1	-11.94
4222	23.48	5.6364	0.1	-17.257
4223	23.653	5.6364	0.1	-24.385
4224	23.827	5.6364	0.1	-35.546
4225	22.44	5.4545	0.1	-9.8065
4226	22.613	5.4545	0.1	-2.5182
4227	22.787	5.4545	0.1	-1.202
4228	22.96	5.4545	0.1	-1.3046
4229	23.133	5.4545	0.1	-3.6389
4230	23.307	5.4545	0.1	-8.8356
4231	23.48	5.4545	0.1	-16.206
4232	23.653	5.4545	0.1	-26.146
4233	23.827	5.4545	0.1	-40.796
4234	22.44	5.2727	0.1	-13.571
4235	22.613	5.2727	0.1	-2.7207
4236	22.787	5.2727	0.1	-0.7739
4237	22.96	5.2727	0.1	-0.45908
4238	23.133	5.2727	0.1	-0.52647
4239	23.307	5.2727	0.1	-4.2046
4240	23.48	5.2727	0.1	-12.918
4241	23.653	5.2727	0.1	-24.777
4242	23.827	5.2727	0.1	-42.013
4243	22.44	5.0909	0.1	-17.893
4244	22.613	5.0909	0.1	-2.7731
4245	22.787	5.0909	0.1	-0.57791
4246	22.96	5.0909	0.1	-0.27374
4247	23.133	5.0909	0.1	-0.18353
4248	23.307	5.0909	0.1	-0.25096
4249	23.48	5.0909	0.1	-7.4817
4250	23.653	5.0909	0.1	-20.941
4251	23.827	5.0909	0.1	-40.525
4252	22.44	4.9091	0.1	-22.999
4253	22.613	4.9091	0.1	-2.5925
4254	22.787	4.9091	0.1	-0.43367
4255	22.96	4.9091	0.1	-0.18797
4256	23.133	4.9091	0.1	-0.10706
4257	23.307	4.9091	0.1	-9.6543e-002
4258	23.48	4.9091	0.1	-0.28906
4259	23.653	4.9091	0.1	-15.309
4260	23.827	4.9091	0.1	-37.23
4261	22.44	4.7273	0.1	-29.582
4262	22.613	4.7273	0.1	-2.2103
4263	22.787	4.7273	0.1	-0.31853
4264	22.96	4.7273	0.1	-0.11412
4265	23.133	4.7273	0.1	-7.0179e-002
4266	23.307	4.7273	0.1	-7.5589e-002
4267	23.48	4.7273	0.1	-8.4255e-002
4268	23.653	4.7273	0.1	-8.4758
4269	23.827	4.7273	0.1	-32.752
4270	22.44	4.5455	0.1	-36.608
4271	22.613	4.5455	0.1	-1.9125
4272	22.787	4.5455	0.1	-0.16233
4273	22.96	4.5455	0.1	-5.478e-002
4274	23.133	4.5455	0.1	-4.5266e-002
4275	23.307	4.5455	0.1	-7.7741e-002
4276	23.48	4.5455	0.1	-0.10865
4277	23.653	4.5455	0.1	-1.6867
4278	23.827	4.5455	0.1	-27.47
4279	22.44	4.3636	0.1	-51.674
4280	22.613	4.3636	0.1	-1.059
4281	22.787	4.3636	0.1	0.24544
4282	22.96	4.3636	0.1	-5.1053e-002
4283	23.133	4.3636	0.1	-3.939e-002
4284	23.307	4.3636	0.1	-9.7536e-002
4285	23.48	4.3636	0.1	-0.14506
4286	23.653	4.3636	0.1	-0.58666
4287	23.827	4.3636	0.1	-21.526
4288	22.44	4.1818	0.1	-33.908
4289	22.613	4.1818	0.1	-1.5616
4290	22.787	4.1818	0.1	0.3856
4291	22.96	4.1818	0.1	-0.11855
4292	23.133	4.1818	0.1	-6.3915e-002
4293	23.307	4.1818	0.1	-0.14862
4294	23.48	4.1818	0.1	-0.19335
4295	23.653	4.1818	0.1	-0.55106
4296	23.827	4.1818	0.1	-14.902
4297	23.827	3.8182	0.1	-3.0947
4298	23.827	3.6364	0.1	-1.4895
4299	23.827	3.4545	0.1	-0.91606
4300	23.827	3.2727	0.1	-0.64926
4301	23.827	3.0909	0.1	-0.5344
4302	23.827	2.9091	0.1	-0.53441
4303	23.827	2.7273	0.1	-0.64926
4304	23.827	2.5455	0.1	-0.91606
4305	23.827	2.3636	0.1	-1.4895
4306	23.827	2.1818	0.1	-3.0947
4307	23.653	3.8182	0.1	-0.59764
4308	23.653	3.6364	0.1	-0.60646
4309	23.653	3.4545	0.1	-0.60033
4310	23.653	3.2727	0.1	-0.58662
4311	23.653	3.0909	0.1	-0.5761
4312	23.653	2.9091	0.1	-0.5761
4313	23.653	2.7273	0.1	-0.58662
4314	23.653	2.5455	0.1	-0.60033
4315	23.653	2.3636	0.1	-0.60646
4316	23.653	2.1818	0.1	-0.59764
4317	23.48	3.8182	0.1	-0.30775
4318	23.48	3.6364	0.1	-0.34543
4319	23.48	3.4545	0.1	-0.35063
4320	23.48	3.2727	0.1	-0.33643
4321	23.48	3.0909	0.1	-0.32264
4322	23.48	2.9091	0.1	-0.32264
4323	23.48	2.7273	0.1	-0.33643
4324	23.48	2.5455	0.1	-0.35063
4325	23.48	2.3636	0.1	-0.34543
4326	23.48	2.1818	0.1	-0.30775
4327	23.307	3.8182	0.1	-0.32251
4328	23.307	3.6364	0.1	-0.37106
4329	23.307	3.4545	0.1	-0.38126
4330	23.307	3.2727	0.1	-0.35578
4331	23.307	3.0909	0.1	-0.3296
4332	23.307	2.9091	0.1	-0.3296
4333	23.307	2.7273	0.1	-0.35578
4334	23.307	2.5455	0.1	-0.38126
4335	23.307	2.3636	0.1	-0.37106
4336	23.307	2.1818	0.1	-0.32251
4337	23.133	3.8182	0.1	-0.29472
4338	23.133	3.6364	0.1	-0.46574
4339	23.133	3.4545	0.1	-0.45321
4340	23.133	3.2727	0.1	-0.37242
4341	23.133	3.0909	0.1	-0.31029
4342	23.133	2.9091	0.1	-0.31029
4343	23.133	2.7273	0.1	-0.37242
4344	23.133	2.5455	0.1	-0.45321
4345	23.133	2.3636	0.1	-0.46574
4346	23.133	2.1818	0.1	-0.29472
4347	22.96	3.8182	0.1	-0.80457
4348	22.96	3.6364	0.1	-0.71676
4349	22.96	3.4545	0.1	-0.69281
4350	22.96	3.2727	0.1	-0.44921
4351	22.96	3.0909	0.1	-0.29018
4352	22.96	2.9091	0.1	-0.29019
4353	22.96	2.7273	0.1	-0.44921
4354	22.96	2.5455	0.1	-0.69281
4355	22.96	2.3636	0.1	-0.71676
4356	22.96	2.1818	0.1	-0.80457
4357	22.787	3.8182	0.1	-0.43623
4358	22.787	3.6364	0.1	-2.2567
4359	22.787	3.4545	0.1	-1.4177
4360	22.787	3.2727	0.1	-0.81354
4361	22.787	3.0909	0.1	-0.27187
4362	22.787	2.9091	0.1	-0.27187
4363	22.787	2.7273	0.1	-0.81355
4364	22.787	2.5455	0.1	-1.4177
4365	22.787	2.3636	0.1	-2.2567
4366	22.787	2.1818	0.1	-0.43623
4367	22.613	3.8182	0.1	-7.8026
4368	22.613	3.6364	0.1	-9.9091
4369	22.613	3.4545	0.1	-17.186
4370	22.613	3.2727	0.1	-22.643
4371	22.613	3.0909	0.1	-25.321
4372	22.613	2.9091	0.1	-25.321
4373	22.613	2.7273	0.1	-22.643
4374	22.613	2.5455	0.1	-17.186
4375	22.613	2.3636	0.1	-9.9091
4376	22.613	2.1818	0.1	-7.8026
4377	22.44	3.8182	0.1	-49.4
4378	22.44	3.6364	0.1	-71.037
4379	22.44	3.4545	0.1	-72.783
4380	22.44	3.2727	0.1	-73.073
4381	22.44	3.0909	0.1	-72.604
4382	22.44	2.9091	0.1	-72.604
4383	22.44	2.7273	0.1	-73.073
4384	22.44	2.5455	0.1	-72.783
4385	22.44	2.3636	0.1	-71.037
4386	22.44	2.1818	0.1	-49.4
4387	22.267	3.8182	0.1	-174.65
4388	22.267	3.6364	0.1	-153.44
4389	22.267	3.4545	0.1	-132.08
4390	22.267	3.2727	0.1	-121.07
4391	22.267	3.0909	0.1	-115.82
4392	22.267	2.9091	0.1	-115.82
4393	22.267	2.7273	0.1	-121.07
4394	22.267	2.5455	0.1	-132.08
4395	22.267	2.3636	0.1	-153.44
4396	22.267	2.1818	0.1	-174.65
4397	0.18417	0.18182	0.1	-314.32
4398	0.18417	0.36364	0.1	-610.43
4399	0.18417	0.54545	0.1	-743.23
4400	0.18417	0.72727	0.1	-828.69
4401	0.18417	0.90909	0.1	-883.51
4402	0.18417	1.0909	0.1	-923.09
4403	0.18417	1.2727	0.1	-952.15
4404	0.18417	1.4545	0.1	-974.21
4405	0.18417	1.6364	0.1	-991.17
4406	0.18417	1.8182	0.1	-1004.3
4407	0.18417	2.	0.1	-1014.5
4408	0.18417	2.1818	0.1	-1022.3
4409	0.18417	2.3636	0.1	-1028.1
4410	0.18417	2.5455	0.1	-1032.3
4411	0.18417	2.7273	0.1	-1035.
4412	0.18417	2.9091	0.1	-1036.3
4413	0.18417	3.0909	0.1	-1036.3
4414	0.18417	3.2727	0.1	-1035.
4415	0.18417	3.4545	0.1	-1032.3
4416	0.18417	3.6364	0.1	-1028.1
4417	0.18417	3.8182	0.1	-1022.3
4418	0.18417	4.	0.1	-1014.5
4419	0.18417	4.1818	0.1	-1004.3
4420	0.18417	4.3636	0.1	-991.17
4421	0.18417	4.5455	0.1	-974.21
4422	0.18417	4.7273	0.1	-952.15
4423	0.18417	4.9091	0.1	-923.09
4424	0.18417	5.0909	0.1	-883.51
4425	0.18417	5.2727	0.1	-828.69
4426	0.18417	5.4545	0.1	-743.23
4427	0.18417	5.6364	0.1	-610.43
4428	0.18417	5.8182	0.1	-314.32
4429	0.36833	0.18182	0.1	-92.228
4430	0.36833	0.36364	0.1	137.95
4431	0.36833	0.54545	0.1	183.81
4432	0.36833	0.72727	0.1	206.95
4433	0.36833	0.90909	0.1	221.85
4434	0.36833	1.0909	0.1	232.3
4435	0.36833	1.2727	0.1	239.94
4436	0.36833	1.4545	0.1	245.7
4437	0.36833	1.6364	0.1	250.11
4438	0.36833	1.8182	0.1	253.52
4439	0.36833	2.	0.1	256.16
4440	0.36833	2.1818	0.1	258.18
4441	0.36833	2.3636	0.1	259.69
4442	0.36833	2.5455	0.1	260.76
4443	0.36833	2.7273	0.1	261.45
4444	0.36833	2.9091	0.1	261.79
4445	0.36833	3.0909	0.1	261.79
4446	0.36833	3.2727	0.1	261.45
4447	0.36833	3.4545	0.1	260.76
4448	0.36833	3.6364	0.1	259.69
4449	0.36833	3.8182	0.1	258.18
4450	0.36833	4.	0.1	256.16
4451	0.36833	4.1818	0.1	253.52
4452	0.36833	4.3636	0.1	250.11
4453	0.36833	4.5455	0.1	245.7
4454	0.36833	4.7273	0.1	239.94
4455	0.36833	4.9091	0.1	232.3
4456	0.36833	5.0909	0.1	221.85
4457	0.36833	5.2727	0.1	206.95
4458	0.36833	5.4545	0.1	183.81
4459	0.36833	5.6364	0.1	137.95
4460	0.36833	5.8182	0.1	-92.228
4461	0.5525	0.18182	0.1	-103.55
4462	0.5525	0.36364	0.1	-40.511
4463	0.5525	0.54545	0.1	-49.223
4464	0.5525	0.72727	0.1	-53.868
4465	0.5525	0.90909	0.1	-57.103
4466	0.5525	1.0909	0.1	-59.49
4467	0.5525	1.2727	0.1	-61.268
4468	0.5525	1.4545	0.1	-62.621
4469	0.5525	1.6364	0.1	-63.663
4470	0.5525	1.8182	0.1	-64.471
4471	0.5525	2.	0.1	-65.097
4472	0.5525	2.1818	0.1	-65.577
4473	0.5525	2.3636	0.1	-65.936
4474	0.5525	2.5455	0.1	-66.193
4475	0.5525	2.7273	0.1	-66.357
4476	0.5525	2.9091	0.1	-66.438
4477	0.5525	3.0909	0.1	-66.438
4478	0.5525	3.2727	0.1	-66.357
4479	0.5525	3.4545	0.1	-66.193
4480	0.5525	3.6364	0.1	-65.936
4481	0.5525	3.8182	0.1	-65.577
4482	0.5525	4.	0.1	-65.097
4483	0.5525	4.1818	0.1	-64.471
4484	0.5525	4.3636	0.1	-63.663
4485	0.5525	4.5455	0.1	-62.621
4486	0.5525	4.7273	0.1	-61.268
4487	0.5525	4.9091	0.1	-59.49
4488	0.5525	5.0909	0.1	-57.103
4489	0.5525	5.2727	0.1	-53.868
4490	0.5525	5.4545	0.1	-49.223
4491	0.5525	5.6364	0.1	-40.511
4492	0.5525	5.8182	0.1	-103.55
4493	0.73667	0.18182	0.1	-71.747
4494	0.73667	0.36364	0.1	5.736
4495	0.73667	0.54545	0.1	10.624
4496	0.73667	0.72727	0.1	12.432
4497	0.73667	0.90909	0.1	13.677
4498	0.73667	1.0909	0.1	14.467
4499	0.73667	1.2727	0.1	15.031
4500	0.73667	1.4545	0.1	15.442
4501	0.73667	1.6364	0.1	15.756
4502	0.73667	1.8182	0.1	15.997
4503	0.73667	2.	0.1	16.184
4504	0.73667	2.1818	0.1	16.327
4505	0.73667	2.3636	0.1	16.434
4506	0.73667	2.5455	0.1	16.511
4507	0.73667	2.7273	0.1	16.56
4508	0.73667	2.9091	0.1	16.584
4509	0.73667	3.0909	0.1	16.584
4510	0.73667	3.2727	0.1	16.56
4511	0.73667	3.4545	0.1	16.511
4512	0.73667	3.6364	0.1	16.434
4513	0.73667	3.8182	0.1	16.327
4514	0.73667	4.	0.1	16.184
4515	0.73667	4.1818	0.1	15.997
4516	0.73667	4.3636	0.1	15.756
4517	0.73667	4.5455	0.1	15.442
4518	0.73667	4.7273	0.1	15.031
4519	0.73667	4.9091	0.1	14.467
4520	0.73667	5.0909	0.1	13.677
4521	0.73667	5.2727	0.1	12.432
4522	0.73667	5.4545	0.1	10.624
4523	0.73667	5.6364	0.1	5.736
4524	0.73667	5.8182	0.1	-71.747
4525	0.92083	0.18182	0.1	-52.581
4526	0.92083	0.36364	0.1	-4.9297
4527	0.92083	0.54545	0.1	-3.9606
4528	0.92083	0.72727	0.1	-4.0186
4529	0.92083	0.90909	0.1	-4.0135
4530	0.92083	1.0909	0.1	-4.0737
4531	0.92083	1.2727	0.1	-4.1347
4532	0.92083	1.4545	0.1	-4.1938
4533	0.92083	1.6364	0.1	-4.2434
4534	0.92083	1.8182	0.1	-4.2835
4535	0.92083	2.	0.1	-4.3148
4536	0.92083	2.1818	0.1	-4.3386
4537	0.92083	2.3636	0.1	-4.3561
4538	0.92083	2.5455	0.1	-4.3685
4539	0.92083	2.7273	0.1	-4.3764
4540	0.92083	2.9091	0.1	-4.3802
4541	0.92083	3.0909	0.1	-4.3802
4542	0.92083	3.2727	0.1	-4.3764
4543	0.92083	3.4545	0.1	-4.3685
4544	0.92083	3.6364	0.1	-4.3561
4545	0.92083	3.8182	0.1	-4.3386
4546	0.92083	4.	0.1	-4.3148
4547	0.92083	4.1818	0.1	-4.2835
4548	0.92083	4.3636	0.1	-4.2434
4549	0.92083	4.5455	0.1	-4.1938
4550	0.92083	4.7273	0.1	-4.1347
4551	0.92083	4.9091	0.1	-4.0737
4552	0.92083	5.0909	0.1	-4.0135
4553	0.92083	5.2727	0.1	-4.0186
4554	0.92083	5.4545	0.1	-3.9606
4555	0.92083	5.6364	0.1	-4.9297
4556	0.92083	5.8182	0.1	-52.582
4557	1.105	0.18182	0.1	-35.013
4558	1.105	0.36364	0.1	-1.6945
4559	1.105	0.54545	0.1	-4.1051e-002
4560	1.105	0.72727	0.1	0.30033
4561	1.105	0.90909	0.1	0.5709
4562	1.105	1.0909	0.1	0.7086
4563	1.105	1.2727	0.1	0.79496
4564	1.105	1.4545	0.1	0.84635
4565	1.105	1.6364	0.1	0.87967
4566	1.105	1.8182	0.1	0.90237
4567	1.105	2.	0.1	0.91878
4568	1.105	2.1818	0.1	0.93099
4569	1.105	2.3636	0.1	0.94008
4570	1.105	2.5455	0.1	0.94661
4571	1.105	2.7273	0.1	0.95086
4572	1.105	2.9091	0.1	0.95295
4573	1.105	3.0909	0.1	0.95295
4574	1.105	3.2727	0.1	0.95086
4575	1.105	3.4545	0.1	0.94661
4576	1.105	3.6364	0.1	0.94008
4577	1.105	3.8182	0.1	0.93099
4578	1.105	4.	0.1	0.91878
4579	1.105	4.1818	0.1	0.90237
4580	1.105	4.3636	0.1	0.87967
4581	1.105	4.5455	0.1	0.84635
4582	1.105	4.7273	0.1	0.79496
4583	1.105	4.9091	0.1	0.7086
4584	1.105	5.0909	0.1	0.5709
4585	1.105	5.2727	0.1	0.30033
4586	1.105	5.4545	0.1	-4.1052e-002
4587	1.105	5.6364	0.1	-1.6945
4588	1.105	5.8182	0.1	-35.013
4589	1.2892	0.18182	0.1	-22.883
4590	1.2892	0.36364	0.1	-2.0835
4591	1.2892	0.54545	0.1	-0.86491
4592	1.2892	0.72727	0.1	-0.68841
4593	1.2892	0.90909	0.1	-0.51924
4594	1.2892	1.0909	0.1	-0.44239
4595	1.2892	1.2727	0.1	-0.39678
4596	1.2892	1.4545	0.1	-0.3752
4597	1.2892	1.6364	0.1	-0.3654
4598	1.2892	1.8182	0.1	-0.3619
4599	1.2892	2.	0.1	-0.36121
4600	1.2892	2.1818	0.1	-0.36163
4601	1.2892	2.3636	0.1	-0.36233
4602	1.2892	2.5455	0.1	-0.36297
4603	1.2892	2.7273	0.1	-0.36341
4604	1.2892	2.9091	0.1	-0.36363
4605	1.2892	3.0909	0.1	-0.36363
4606	1.2892	3.2727	0.1	-0.36341
4607	1.2892	3.4545	0.1	-0.36297
4608	1.2892	3.6364	0.1	-0.36233
4609	1.2892	3.8182	0.1	-0.36163
4610	1.2892	4.	0.1	-0.36121
4611	1.2892	4.1818	0.1	-0.3619
4612	1.2892	4.3636	0.1	-0.3654
4613	1.2892	4.5455	0.1	-0.3752
4614	1.2892	4.7273	0.1	-0.39678
4615	1.2892	4.9091	0.1	-0.44239
4616	1.2892	5.0909	0.1	-0.51924
4617	1.2892	5.2727	0.1	-0.68841
4618	1.2892	5.4545	0.1	-0.86491
4619	1.2892	5.6364	0.1	-2.0835
4620	1.2892	5.8182	0.1	-22.883
4621	1.4733	0.18182	0.1	-14.683
4622	1.4733	0.36364	0.1	-1.6512
4623	1.4733	0.54545	0.1	-0.53763
4624	1.4733	0.72727	0.1	-0.36587
4625	1.4733	0.90909	0.1	-0.19897
4626	1.4733	1.0909	0.1	-0.11538
4627	1.4733	1.2727	0.1	-6.1175e-002
4628	1.4733	1.4545	0.1	-3.1105e-002
4629	1.4733	1.6364	0.1	-1.4513e-002
4630	1.4733	1.8182	0.1	-6.1316e-003
4631	1.4733	2.	0.1	-2.2163e-003
4632	1.4733	2.1818	0.1	-6.4371e-004
4633	1.4733	2.3636	0.1	-1.8608e-004
4634	1.4733	2.5455	0.1	-1.8912e-004
4635	1.4733	2.7273	0.1	-3.1639e-004
4636	1.4733	2.9091	0.1	-4.1065e-004
4637	1.4733	3.0909	0.1	-4.1065e-004
4638	1.4733	3.2727	0.1	-3.164e-004
4639	1.4733	3.4545	0.1	-1.8901e-004
4640	1.4733	3.6364	0.1	-1.8609e-004
4641	1.4733	3.8182	0.1	-6.4354e-004
4642	1.4733	4.	0.1	-2.2162e-003
4643	1.4733	4.1818	0.1	-6.1315e-003
4644	1.4733	4.3636	0.1	-1.4513e-002
4645	1.4733	4.5455	0.1	-3.1104e-002
4646	1.4733	4.7273	0.1	-6.1175e-002
4647	1.4733	4.9091	0.1	-0.11538
4648	1.4733	5.0909	0.1	-0.19897
4649	1.4733	5.2727	0.1	-0.36587
4650	1.4733	5.4545	0.1	-0.53763
4651	1.4733	5.6364	0.1	-1.6512
4652	1.4733	5.8182	0.1	-14.683
4653	1.6575	0.18182	0.1	-9.692
4654	1.6575	0.36364	0.1	-1.4857
4655	1.6575	0.54545	0.1	-0.52453
4656	1.6575	0.72727	0.1	-0.38914
4657	1.6575	0.90909	0.1	-0.24642
4658	1.6575	1.0909	0.1	-0.17342
4659	1.6575	1.2727	0.1	-0.1237
4660	1.6575	1.4545	0.1	-9.4712e-002
4661	1.6575	1.6364	0.1	-7.8007e-002
4662	1.6575	1.8182	0.1	-6.9321e-002
4663	1.6575	2.	0.1	-6.5318e-002
4664	1.6575	2.1818	0.1	-6.3922e-002
4665	1.6575	2.3636	0.1	-6.3811e-002
4666	1.6575	2.5455	0.1	-6.4206e-002
4667	1.6575	2.7273	0.1	-6.4658e-002
4668	1.6575	2.9091	0.1	-6.4934e-002
4669	1.6575	3.0909	0.1	-6.4934e-002
4670	1.6575	3.2727	0.1	-6.4658e-002
4671	1.6575	3.4545	0.1	-6.4206e-002
4672	1.6575	3.6364	0.1	-6.3811e-002
4673	1.6575	3.8182	0.1	-6.3922e-002
4674	1.6575	4.	0.1	-6.5318e-002
4675	1.6575	4.1818	0.1	-6.9321e-002
4676	1.6575	4.3636	0.1	-7.8006e-002
4677	1.6575	4.5455	0.1	-9.4712e-002
4678	1.6575	4.7273	0.1	-0.1237
4679	1.6575	4.9091	0.1	-0.17342
4680	1.6575	5.0909	0.1	-0.24642
4681	1.6575	5.2727	0.1	-0.38914
4682	1.6575	5.4545	0.1	-0.52453
4683	1.6575	5.6364	0.1	-1.4857
4684	1.6575	5.8182	0.1	-9.692
4685	1.8417	0.18182	0.1	-6.6631
4686	1.8417	0.36364	0.1	-1.2991
4687	1.8417	0.54545	0.1	-0.44857
4688	1.8417	0.72727	0.1	-0.33404
4689	1.8417	0.90909	0.1	-0.20676
4690	1.8417	1.0909	0.1	-0.13995
4691	1.8417	1.2727	0.1	-9.231e-002
4692	1.8417	1.4545	0.1	-6.2753e-002
4693	1.8417	1.6364	0.1	-4.4417e-002
4694	1.8417	1.8182	0.1	-3.3898e-002
4695	1.8417	2.	0.1	-2.8307e-002
4696	1.8417	2.1818	0.1	-2.5713e-002
4697	1.8417	2.3636	0.1	-2.4787e-002
4698	1.8417	2.5455	0.1	-2.4673e-002
4699	1.8417	2.7273	0.1	-2.4841e-002
4700	1.8417	2.9091	0.1	-2.4992e-002
4701	1.8417	3.0909	0.1	-2.4992e-002
4702	1.8417	3.2727	0.1	-2.4841e-002
4703	1.8417	3.4545	0.1	-2.4673e-002
4704	1.8417	3.6364	0.1	-2.4787e-002
4705	1.8417	3.8182	0.1	-2.5713e-002
4706	1.8417	4.	0.1	-2.8307e-002
4707	1.8417	4.1818	0.1	-3.3898e-002
4708	1.8417	4.3636	0.1	-4.4417e-002
4709	1.8417	4.5455	0.1	-6.2752e-002
4710	1.8417	4.7273	0.1	-9.231e-002
4711	1.8417	4.9091	0.1	-0.13995
4712	1.8417	5.0909	0.1	-0.20676
4713	1.8417	5.2727	0.1	-0.33404
4714	1.8417	5.4545	0.1	-0.44857
4715	1.8417	5.6364	0.1	-1.2991
4716	1.8417	5.8182	0.1	-6.6631
4717	2.0258	0.18182	0.1	-4.7857
4718	2.0258	0.36364	0.1	-1.1536
4719	2.0258	0.54545	0.1	-0.40043
4720	2.0258	0.72727	0.1	-0.30497
4721	2.0258	0.90909	0.1	-0.19247
4722	2.0258	1.0909	0.1	-0.13259
4723	2.0258	1.2727	0.1	-8.8299e-002
4724	2.0258	1.4545	0.1	-5.9477e-002
4725	2.0258	1.6364	0.1	-4.0529e-002
4726	2.0258	1.8182	0.1	-2.8811e-002
4727	2.0258	2.	0.1	-2.1929e-002
4728	2.0258	2.1818	0.1	-1.8198e-002
4729	2.0258	2.3636	0.1	-1.6384e-002
4730	2.0258	2.5455	0.1	-1.5642e-002
4731	2.0258	2.7273	0.1	-1.5418e-002
4732	2.0258	2.9091	0.1	-1.5382e-002
4733	2.0258	3.0909	0.1	-1.5382e-002
4734	2.0258	3.2727	0.1	-1.5418e-002
4735	2.0258	3.4545	0.1	-1.5642e-002
4736	2.0258	3.6364	0.1	-1.6384e-002
4737	2.0258	3.8182	0.1	-1.8198e-002
4738	2.0258	4.	0.1	-2.1929e-002
4739	2.0258	4.1818	0.1	-2.8811e-002
4740	2.0258	4.3636	0.1	-4.0529e-002
4741	2.0258	4.5455	0.1	-5.9477e-002
4742	2.0258	4.7273	0.1	-8.8299e-002
4743	2.0258	4.9091	0.1	-0.13259
4744	2.0258	5.0909	0.1	-0.19247
4745	2.0258	5.2727	0.1	-0.30497
4746	2.0258	5.4545	0.1	-0.40043
4747	2.0258	5.6364	0.1	-1.1536
4748	2.0258	5.8182	0.1	-4.7857
4749	2.21	0.18182	0.1	-3.5644
4750	2.21	0.36364	0.1	-1.0262
4751	2.21	0.54545	0.1	-0.35468
4752	2.21	0.72727	0.1	-0.27419
4753	2.21	0.90909	0.1	-0.17408
4754	2.21	1.0909	0.1	-0.1203
4755	2.21	1.2727	0.1	-7.934e-002
4756	2.21	1.4545	0.1	-5.1628e-002
4757	2.21	1.6364	0.1	-3.2503e-002
4758	2.21	1.8182	0.1	-1.9917e-002
4759	2.21	2.	0.1	-1.1919e-002
4760	2.21	2.1818	0.1	-7.0888e-003
4761	2.21	2.3636	0.1	-4.3371e-003
4762	2.21	2.5455	0.1	-2.881e-003
4763	2.21	2.7273	0.1	-2.1828e-003
4764	2.21	2.9091	0.1	-1.9123e-003
4765	2.21	3.0909	0.1	-1.9123e-003
4766	2.21	3.2727	0.1	-2.1828e-003
4767	2.21	3.4545	0.1	-2.8809e-003
4768	2.21	3.6364	0.1	-4.3369e-003
4769	2.21	3.8182	0.1	-7.0886e-003
4770	2.21	4.	0.1	-1.1919e-002
4771	2.21	4.1818	0.1	-1.9917e-002
4772	2.21	4.3636	0.1	-3.2502e-002
4773	2.21	4.5455	0.1	-5.1627e-002
4774	2.21	4.7273	0.1	-7.934e-002
4775	2.21	4.9091	0.1	-0.1203
4776	2.21	5.0909	0.1	-0.17408
4777	2.21	5.2727	0.1	-0.27419
4778	2.21	5.4545	0.1	-0.35468
4779	2.21	5.6364	0.1	-1.0262
4780	2.21	5.8182	0.1	-3.5644
4781	2.3942	0.18182	0.1	-2.7343
4782	2.3942	0.36364	0.1	-0.91736
4783	2.3942	0.54545	0.1	-0.31602
4784	2.3942	0.72727	0.1	-0.24795
4785	2.3942	0.90909	0.1	-0.15863
4786	2.3942	1.0909	0.1	-0.11041
4787	2.3942	1.2727	0.1	-7.2806e-002
4788	2.3942	1.4545	0.1	-4.6572e-002
4789	2.3942	1.6364	0.1	-2.7748e-002
4790	2.3942	1.8182	0.1	-1.474e-002
4791	2.3942	2.	0.1	-5.9671e-003
4792	2.3942	2.1818	0.1	-2.6386e-004
4793	2.3942	2.3636	0.1	3.2975e-003
4794	2.3942	2.5455	0.1	5.4082e-003
4795	2.3942	2.7273	0.1	6.5586e-003
4796	2.3942	2.9091	0.1	7.059e-003
4797	2.3942	3.0909	0.1	7.059e-003
4798	2.3942	3.2727	0.1	6.5587e-003
4799	2.3942	3.4545	0.1	5.4082e-003
4800	2.3942	3.6364	0.1	3.2978e-003
4801	2.3942	3.8182	0.1	-2.6364e-004
4802	2.3942	4.	0.1	-5.9667e-003
4803	2.3942	4.1818	0.1	-1.4739e-002
4804	2.3942	4.3636	0.1	-2.7748e-002
4805	2.3942	4.5455	0.1	-4.6572e-002
4806	2.3942	4.7273	0.1	-7.2806e-002
4807	2.3942	4.9091	0.1	-0.11041
4808	2.3942	5.0909	0.1	-0.15862
4809	2.3942	5.2727	0.1	-0.24795
4810	2.3942	5.4545	0.1	-0.31602
4811	2.3942	5.6364	0.1	-0.91736
4812	2.3942	5.8182	0.1	-2.7343
4813	2.5783	0.18182	0.1	-2.1473
4814	2.5783	0.36364	0.1	-0.82267
4815	2.5783	0.54545	0.1	-0.28195
4816	2.5783	0.72727	0.1	-0.2241
4817	2.5783	0.90909	0.1	-0.14411
4818	2.5783	1.0909	0.1	-0.10083
4819	2.5783	1.2727	0.1	-6.6425e-002
4820	2.5783	1.4545	0.1	-4.1834e-002
4821	2.5783	1.6364	0.1	-2.3629e-002
4822	2.5783	1.8182	0.1	-1.0551e-002
4823	2.5783	2.	0.1	-1.3219e-003
4824	2.5783	2.1818	0.1	5.0054e-003
4825	2.5783	2.3636	0.1	9.2014e-003
4826	2.5783	2.5455	0.1	1.1854e-002
4827	2.5783	2.7273	0.1	1.3394e-002
4828	2.5783	2.9091	0.1	1.4096e-002
4829	2.5783	3.0909	0.1	1.4096e-002
4830	2.5783	3.2727	0.1	1.3394e-002
4831	2.5783	3.4545	0.1	1.1854e-002
4832	2.5783	3.6364	0.1	9.2016e-003
4833	2.5783	3.8182	0.1	5.0057e-003
4834	2.5783	4.	0.1	-1.3217e-003
4835	2.5783	4.1818	0.1	-1.0551e-002
4836	2.5783	4.3636	0.1	-2.3628e-002
4837	2.5783	4.5455	0.1	-4.1834e-002
4838	2.5783	4.7273	0.1	-6.6424e-002
4839	2.5783	4.9091	0.1	-0.10083
4840	2.5783	5.0909	0.1	-0.14411
4841	2.5783	5.2727	0.1	-0.2241
4842	2.5783	5.4545	0.1	-0.28195
4843	2.5783	5.6364	0.1	-0.82267
4844	2.5783	5.8182	0.1	-2.1473
4845	2.7625	0.18182	0.1	-1.7184
4846	2.7625	0.36364	0.1	-0.73998
4847	2.7625	0.54545	0.1	-0.25212
4848	2.7625	0.72727	0.1	-0.20275
4849	2.7625	0.90909	0.1	-0.1309
4850	2.7625	1.0909	0.1	-9.2004e-002
4851	2.7625	1.2727	0.1	-6.0596e-002
4852	2.7625	1.4545	0.1	-3.7715e-002
4853	2.7625	1.6364	0.1	-2.0346e-002
4854	2.7625	1.8182	0.1	-7.4822e-003
4855	2.7625	2.	0.1	1.922e-003
4856	2.7625	2.1818	0.1	8.6282e-003
4857	2.7625	2.3636	0.1	1.3266e-002
4858	2.7625	2.5455	0.1	1.6324e-002
4859	2.7625	2.7273	0.1	1.8165e-002
4860	2.7625	2.9091	0.1	1.9027e-002
4861	2.7625	3.0909	0.1	1.9027e-002
4862	2.7625	3.2727	0.1	1.8165e-002
4863	2.7625	3.4545	0.1	1.6324e-002
4864	2.7625	3.6364	0.1	1.3266e-002
4865	2.7625	3.8182	0.1	8.6284e-003
4866	2.7625	4.	0.1	1.9223e-003
4867	2.7625	4.1818	0.1	-7.4819e-003
4868	2.7625	4.3636	0.1	-2.0346e-002
4869	2.7625	4.5455	0.1	-3.7715e-002
4870	2.7625	4.7273	0.1	-6.0596e-002
4871	2.7625	4.9091	0.1	-9.2003e-002
4872	2.7625	5.0909	0.1	-0.13089
4873	2.7625	5.2727	0.1	-0.20275
4874	2.7625	5.4545	0.1	-0.25212
4875	2.7625	5.6364	0.1	-0.73998
4876	2.7625	5.8182	0.1	-1.7184
4877	2.9467	0.18182	0.1	-1.3966
4878	2.9467	0.36364	0.1	-0.6673
4879	2.9467	0.54545	0.1	-0.22584
4880	2.9467	0.72727	0.1	-0.18355
4881	2.9467	0.90909	0.1	-0.11883
4882	2.9467	1.0909	0.1	-8.3823e-002
4883	2.9467	1.2727	0.1	-5.5184e-002
4884	2.9467	1.4545	0.1	-3.4002e-002
4885	2.9467	1.6364	0.1	-1.7598e-002
4886	2.9467	1.8182	0.1	-5.1501e-003
4887	2.9467	2.	0.1	4.2032e-003
4888	2.9467	2.1818	0.1	1.1075e-002
4889	2.9467	2.3636	0.1	1.5975e-002
4890	2.9467	2.5455	0.1	1.9302e-002
4891	2.9467	2.7273	0.1	2.1355e-002
4892	2.9467	2.9091	0.1	2.2332e-002
4893	2.9467	3.0909	0.1	2.2333e-002
4894	2.9467	3.2727	0.1	2.1355e-002
4895	2.9467	3.4545	0.1	1.9302e-002
4896	2.9467	3.6364	0.1	1.5975e-002
4897	2.9467	3.8182	0.1	1.1075e-002
4898	2.9467	4.	0.1	4.2035e-003
4899	2.9467	4.1818	0.1	-5.1496e-003
4900	2.9467	4.3636	0.1	-1.7597e-002
4901	2.9467	4.5455	0.1	-3.4002e-002
4902	2.9467	4.7273	0.1	-5.5184e-002
4903	2.9467	4.9091	0.1	-8.3822e-002
4904	2.9467	5.0909	0.1	-0.11883
4905	2.9467	5.2727	0.1	-0.18355
4906	2.9467	5.4545	0.1	-0.22584
4907	2.9467	5.6364	0.1	-0.6673
4908	2.9467	5.8182	0.1	-1.3966
4909	3.1308	0.18182	0.1	-1.1497
4910	3.1308	0.36364	0.1	-0.60307
4911	3.1308	0.54545	0.1	-0.20263
4912	3.1308	0.72727	0.1	-0.16628
4913	3.1308	0.90909	0.1	-0.10784
4914	3.1308	1.0909	0.1	-7.6278e-002
4915	3.1308	1.2727	0.1	-5.0178e-002
4916	3.1308	1.4545	0.1	-3.0641e-002
4917	3.1308	1.6364	0.1	-1.5267e-002
4918	3.1308	1.8182	0.1	-3.3739e-003
4919	3.1308	2.	0.1	5.7569e-003
4920	3.1308	2.1818	0.1	1.2622e-002
4921	3.1308	2.3636	0.1	1.763e-002
4922	3.1308	2.5455	0.1	2.1103e-002
4923	3.1308	2.7273	0.1	2.3284e-002
4924	3.1308	2.9091	0.1	2.4335e-002
4925	3.1308	3.0909	0.1	2.4335e-002
4926	3.1308	3.2727	0.1	2.3284e-002
4927	3.1308	3.4545	0.1	2.1103e-002
4928	3.1308	3.6364	0.1	1.763e-002
4929	3.1308	3.8182	0.1	1.2622e-002
4930	3.1308	4.	0.1	5.7573e-003
4931	3.1308	4.1818	0.1	-3.3736e-003
4932	3.1308	4.3636	0.1	-1.5267e-002
4933	3.1308	4.5455	0.1	-3.0641e-002
4934	3.1308	4.7273	0.1	-5.0177e-002
4935	3.1308	4.9091	0.1	-7.6278e-002
4936	3.1308	5.0909	0.1	-0.10784
4937	3.1308	5.2727	0.1	-0.16628
4938	3.1308	5.4545	0.1	-0.20263
4939	3.1308	5.6364	0.1	-0.60307
4940	3.1308	5.8182	0.1	-1.1497
4941	3.315	0.18182	0.1	-0.9569
4942	3.315	0.36364	0.1	-0.54603
4943	3.315	0.54545	0.1	-0.18205
4944	3.315	0.72727	0.1	-0.15072
4945	3.315	0.90909	0.1	-9.7846e-002
4946	3.315	1.0909	0.1	-6.9344e-002
4947	3.315	1.2727	0.1	-4.5562e-002
4948	3.315	1.4545	0.1	-2.7591e-002
4949	3.315	1.6364	0.1	-1.3266e-002
4950	3.315	1.8182	0.1	-2.0148e-003
4951	3.315	2.	0.1	6.7715e-003
4952	3.315	2.1818	0.1	1.3496e-002
4953	3.315	2.3636	0.1	1.8489e-002
4954	3.315	2.5455	0.1	2.2006e-002
4955	3.315	2.7273	0.1	2.4244e-002
4956	3.315	2.9091	0.1	2.5331e-002
4957	3.315	3.0909	0.1	2.5331e-002
4958	3.315	3.2727	0.1	2.4244e-002
4959	3.315	3.4545	0.1	2.2007e-002
4960	3.315	3.6364	0.1	1.8489e-002
4961	3.315	3.8182	0.1	1.3496e-002
4962	3.315	4.	0.1	6.7719e-003
4963	3.315	4.1818	0.1	-2.0144e-003
4964	3.315	4.3636	0.1	-1.3266e-002
4965	3.315	4.5455	0.1	-2.7591e-002
4966	3.315	4.7273	0.1	-4.5561e-002
4967	3.315	4.9091	0.1	-6.9344e-002
4968	3.315	5.0909	0.1	-9.7845e-002
4969	3.315	5.2727	0.1	-0.15072
4970	3.315	5.4545	0.1	-0.18205
4971	3.315	5.6364	0.1	-0.54603
4972	3.315	5.8182	0.1	-0.9569
4973	3.4992	0.18182	0.1	-0.80399
4974	3.4992	0.36364	0.1	-0.4952
4975	3.4992	0.54545	0.1	-0.1638
4976	3.4992	0.72727	0.1	-0.13671
4977	3.4992	0.90909	0.1	-8.8797e-002
4978	3.4992	1.0909	0.1	-6.3026e-002
4979	3.4992	1.2727	0.1	-4.1355e-002
4980	3.4992	1.4545	0.1	-2.4858e-002
4981	3.4992	1.6364	0.1	-1.1571e-002
4982	3.4992	1.8182	0.1	-1.0077e-003
4983	3.4992	2.	0.1	7.3524e-003
4984	3.4992	2.1818	0.1	1.3841e-002
4985	3.4992	2.3636	0.1	1.8724e-002
4986	3.4992	2.5455	0.1	2.2205e-002
4987	3.4992	2.7273	0.1	2.4442e-002
4988	3.4992	2.9091	0.1	2.5535e-002
4989	3.4992	3.0909	0.1	2.5535e-002
4990	3.4992	3.2727	0.1	2.4442e-002
4991	3.4992	3.4545	0.1	2.2206e-002
4992	3.4992	3.6364	0.1	1.8724e-002
4993	3.4992	3.8182	0.1	1.3841e-002
4994	3.4992	4.	0.1	7.3529e-003
4995	3.4992	4.1818	0.1	-1.0073e-003
4996	3.4992	4.3636	0.1	-1.1571e-002
4997	3.4992	4.5455	0.1	-2.4857e-002
4998	3.4992	4.7273	0.1	-4.1355e-002
4999	3.4992	4.9091	0.1	-6.3025e-002
5000	3.4992	5.0909	0.1	-8.8796e-002
5001	3.4992	5.2727	0.1	-0.13671
5002	3.4992	5.4545	0.1	-0.1638
5003	3.4992	5.6364	0.1	-0.49519
5004	3.4992	5.8182	0.1	-0.80399
5005	3.6833	0.18182	0.1	-0.68116
5006	3.6833	0.36364	0.1	-0.4497
5007	3.6833	0.54545	0.1	-0.14754
5008	3.6833	0.72727	0.1	-0.12408
5009	3.6833	0.90909	0.1	-8.0592e-002
5010	3.6833	1.0909	0.1	-5.7263e-002
5011	3.6833	1.2727	0.1	-3.7515e-002
5012	3.6833	1.4545	0.1	-2.2393e-002
5013	3.6833	1.6364	0.1	-1.0113e-002
5014	3.6833	1.8182	0.1	-2.5627e-004
5015	3.6833	2.	0.1	7.628e-003
5016	3.6833	2.1818	0.1	1.3814e-002
5017	3.6833	2.3636	0.1	1.8519e-002
5018	3.6833	2.5455	0.1	2.1905e-002
5019	3.6833	2.7273	0.1	2.4096e-002
5020	3.6833	2.9091	0.1	2.5171e-002
5021	3.6833	3.0909	0.1	2.5171e-002
5022	3.6833	3.2727	0.1	2.4096e-002
5023	3.6833	3.4545	0.1	2.1905e-002
5024	3.6833	3.6364	0.1	1.8519e-002
5025	3.6833	3.8182	0.1	1.3815e-002
5026	3.6833	4.	0.1	7.6284e-003
5027	3.6833	4.1818	0.1	-2.5582e-004
5028	3.6833	4.3636	0.1	-1.0113e-002
5029	3.6833	4.5455	0.1	-2.2392e-002
5030	3.6833	4.7273	0.1	-3.7515e-002
5031	3.6833	4.9091	0.1	-5.7262e-002
5032	3.6833	5.0909	0.1	-8.0591e-002
5033	3.6833	5.2727	0.1	-0.12408
5034	3.6833	5.4545	0.1	-0.14754
5035	3.6833	5.6364	0.1	-0.4497
5036	3.6833	5.8182	0.1	-0.68116
5037	3.8675	0.18182	0.1	-0.58143
5038	3.8675	0.36364	0.1	-0.40884
5039	3.8675	0.54545	0.1	-0.13304
5040	3.8675	0.72727	0.1	-0.11267
5041	3.8675	0.90909	0.1	-7.3159e-002
5042	3.8675	1.0909	0.1	-5.2019e-002
5043	3.8675	1.2727	0.1	-3.4024e-002
5044	3.8675	1.4545	0.1	-2.0178e-002
5045	3.8675	1.6364	0.1	-8.8617e-003
5046	3.8675	1.8182	0.1	2.9215e-004
5047	3.8675	2.	0.1	7.6754e-003
5048	3.8675	2.1818	0.1	1.3518e-002
5049	3.8675	2.3636	0.1	1.7999e-002
5050	3.8675	2.5455	0.1	2.1246e-002
5051	3.8675	2.7273	0.1	2.336e-002
5052	3.8675	2.9091	0.1	2.4401e-002
5053	3.8675	3.0909	0.1	2.4401e-002
5054	3.8675	3.2727	0.1	2.336e-002
5055	3.8675	3.4545	0.1	2.1247e-002
5056	3.8675	3.6364	0.1	1.7999e-002
5057	3.8675	3.8182	0.1	1.3519e-002
5058	3.8675	4.	0.1	7.6758e-003
5059	3.8675	4.1818	0.1	2.9262e-004
5060	3.8675	4.3636	0.1	-8.8612e-003
5061	3.8675	4.5455	0.1	-2.0178e-002
5062	3.8675	4.7273	0.1	-3.4023e-002
5063	3.8675	4.9091	0.1	-5.2019e-002
5064	3.8675	5.0909	0.1	-7.3157e-002
5065	3.8675	5.2727	0.1	-0.11267
5066	3.8675	5.4545	0.1	-0.13304
5067	3.8675	5.6364	0.1	-0.40884
5068	3.8675	5.8182	0.1	-0.58143
5069	4.0517	0.18182	0.1	-0.49973
5070	4.0517	0.36364	0.1	-0.37208
5071	4.0517	0.54545	0.1	-0.1201
5072	4.0517	0.72727	0.1	-0.10238
5073	4.0517	0.90909	0.1	-6.6453e-002
5074	4.0517	1.0909	0.1	-4.7285e-002
5075	4.0517	1.2727	0.1	-3.0884e-002
5076	4.0517	1.4545	0.1	-1.822e-002
5077	4.0517	1.6364	0.1	-7.8147e-003
5078	4.0517	1.8182	0.1	6.5291e-004
5079	4.0517	2.	0.1	7.528e-003
5080	4.0517	2.1818	0.1	1.3006e-002
5081	4.0517	2.3636	0.1	1.7233e-002
5082	4.0517	2.5455	0.1	2.0314e-002
5083	4.0517	2.7273	0.1	2.2328e-002
5084	4.0517	2.9091	0.1	2.3323e-002
5085	4.0517	3.0909	0.1	2.3323e-002
5086	4.0517	3.2727	0.1	2.2328e-002
5087	4.0517	3.4545	0.1	2.0315e-002
5088	4.0517	3.6364	0.1	1.7233e-002
5089	4.0517	3.8182	0.1	1.3006e-002
5090	4.0517	4.	0.1	7.5284e-003
5091	4.0517	4.1818	0.1	6.5338e-004
5092	4.0517	4.3636	0.1	-7.8142e-003
5093	4.0517	4.5455	0.1	-1.822e-002
5094	4.0517	4.7273	0.1	-3.0884e-002
5095	4.0517	4.9091	0.1	-4.7284e-002
5096	4.0517	5.0909	0.1	-6.6452e-002
5097	4.0517	5.2727	0.1	-0.10238
5098	4.0517	5.4545	0.1	-0.1201
5099	4.0517	5.6364	0.1	-0.37208
5100	4.0517	5.8182	0.1	-0.49973
5101	4.2358	0.18182	0.1	-0.43225
5102	4.2358	0.36364	0.1	-0.33889
5103	4.2358	0.54545	0.1	-0.10851
5104	4.2358	0.72727	0.1	-9.3077e-002
5105	4.2358	0.90909	0.1	-6.0384e-002
5106	4.2358	1.0909	0.1	-4.2992e-002
5107	4.2358	1.2727	0.1	-2.8047e-002
5108	4.2358	1.4545	0.1	-1.6473e-002
5109	4.2358	1.6364	0.1	-6.9229e-003
5110	4.2358	1.8182	0.1	8.8567e-004
5111	4.2358	2.	0.1	7.2583e-003
5112	4.2358	2.1818	0.1	1.2363e-002
5113	4.2358	2.3636	0.1	1.6322e-002
5114	4.2358	2.5455	0.1	1.922e-002
5115	4.2358	2.7273	0.1	2.1121e-002
5116	4.2358	2.9091	0.1	2.2062e-002
5117	4.2358	3.0909	0.1	2.2062e-002
5118	4.2358	3.2727	0.1	2.1121e-002
5119	4.2358	3.4545	0.1	1.922e-002
5120	4.2358	3.6364	0.1	1.6322e-002
5121	4.2358	3.8182	0.1	1.2363e-002
5122	4.2358	4.	0.1	7.2587e-003
5123	4.2358	4.1818	0.1	8.8616e-004
5124	4.2358	4.3636	0.1	-6.9224e-003
5125	4.2358	4.5455	0.1	-1.6472e-002
5126	4.2358	4.7273	0.1	-2.8046e-002
5127	4.2358	4.9091	0.1	-4.2991e-002
5128	4.2358	5.0909	0.1	-6.0383e-002
5129	4.2358	5.2727	0.1	-9.3077e-002
5130	4.2358	5.4545	0.1	-0.10851
5131	4.2358	5.6364	0.1	-0.33889
5132	4.2358	5.8182	0.1	-0.43225
5133	4.42	0.18182	0.1	-0.37615
5134	4.42	0.36364	0.1	-0.30886
5135	4.42	0.54545	0.1	-9.8109e-002
5136	4.42	0.72727	0.1	-8.4651e-002
5137	4.42	0.90909	0.1	-5.4888e-002
5138	4.42	1.0909	0.1	-3.9103e-002
5139	4.42	1.2727	0.1	-2.5485e-002
5140	4.42	1.4545	0.1	-1.4916e-002
5141	4.42	1.6364	0.1	-6.1649e-003
5142	4.42	1.8182	0.1	1.017e-003
5143	4.42	2.	0.1	6.9022e-003
5144	4.42	2.1818	0.1	1.1636e-002
5145	4.42	2.3636	0.1	1.5322e-002
5146	4.42	2.5455	0.1	1.8029e-002
5147	4.42	2.7273	0.1	1.981e-002
5148	4.42	2.9091	0.1	2.0693e-002
5149	4.42	3.0909	0.1	2.0693e-002
5150	4.42	3.2727	0.1	1.981e-002
5151	4.42	3.4545	0.1	1.803e-002
5152	4.42	3.6364	0.1	1.5322e-002
5153	4.42	3.8182	0.1	1.1636e-002
5154	4.42	4.	0.1	6.9026e-003
5155	4.42	4.1818	0.1	1.0174e-003
5156	4.42	4.3636	0.1	-6.1642e-003
5157	4.42	4.5455	0.1	-1.4915e-002
5158	4.42	4.7273	0.1	-2.5484e-002
5159	4.42	4.9091	0.1	-3.9103e-002
5160	4.42	5.0909	0.1	-5.4887e-002
5161	4.42	5.2727	0.1	-8.4651e-002
5162	4.42	5.4545	0.1	-9.8108e-002
5163	4.42	5.6364	0.1	-0.30886
5164	4.42	5.8182	0.1	-0.37615
5165	4.6042	0.18182	0.1	-0.32927
5166	4.6042	0.36364	0.1	-0.28167
5167	4.6042	0.54545	0.1	-8.8783e-002
5168	4.6042	0.72727	0.1	-7.7039e-002
5169	4.6042	0.90909	0.1	-4.9936e-002
5170	4.6042	1.0909	0.1	-3.5607e-002
5171	4.6042	1.2727	0.1	-2.32e-002
5172	4.6042	1.4545	0.1	-1.3555e-002
5173	4.6042	1.6364	0.1	-5.5472e-003
5174	4.6042	1.8182	0.1	1.0441e-003
5175	4.6042	2.	0.1	6.4627e-003
5176	4.6042	2.1818	0.1	1.0836e-002
5177	4.6042	2.3636	0.1	1.4251e-002
5178	4.6042	2.5455	0.1	1.6766e-002
5179	4.6042	2.7273	0.1	1.8423e-002
5180	4.6042	2.9091	0.1	1.9247e-002
5181	4.6042	3.0909	0.1	1.9247e-002
5182	4.6042	3.2727	0.1	1.8423e-002
5183	4.6042	3.4545	0.1	1.6766e-002
5184	4.6042	3.6364	0.1	1.4251e-002
5185	4.6042	3.8182	0.1	1.0836e-002
5186	4.6042	4.	0.1	6.4631e-003
5187	4.6042	4.1818	0.1	1.0445e-003
5188	4.6042	4.3636	0.1	-5.5467e-003
5189	4.6042	4.5455	0.1	-1.3554e-002
5190	4.6042	4.7273	0.1	-2.32e-002
5191	4.6042	4.9091	0.1	-3.5606e-002
5192	4.6042	5.0909	0.1	-4.9935e-002
5193	4.6042	5.2727	0.1	-7.7039e-002
5194	4.6042	5.4545	0.1	-8.8783e-002
5195	4.6042	5.6364	0.1	-0.28166
5196	4.6042	5.8182	0.1	-0.32927
5197	4.7883	0.18182	0.1	-0.28989
5198	4.7883	0.36364	0.1	-0.25697
5199	4.7883	0.54545	0.1	-8.0387e-002
5200	4.7883	0.72727	0.1	-7.0133e-002
5201	4.7883	0.90909	0.1	-4.545e-002
5202	4.7883	1.0909	0.1	-3.2442e-002
5203	4.7883	1.2727	0.1	-2.1143e-002
5204	4.7883	1.4545	0.1	-1.2346e-002
5205	4.7883	1.6364	0.1	-5.0274e-003
5206	4.7883	1.8182	0.1	1.0106e-003
5207	4.7883	2.	0.1	5.9871e-003
5208	4.7883	2.1818	0.1	1.0013e-002
5209	4.7883	2.3636	0.1	1.3165e-002
5210	4.7883	2.5455	0.1	1.5492e-002
5211	4.7883	2.7273	0.1	1.7027e-002
5212	4.7883	2.9091	0.1	1.779e-002
5213	4.7883	3.0909	0.1	1.779e-002
5214	4.7883	3.2727	0.1	1.7027e-002
5215	4.7883	3.4545	0.1	1.5492e-002
5216	4.7883	3.6364	0.1	1.3166e-002
5217	4.7883	3.8182	0.1	1.0014e-002
5218	4.7883	4.	0.1	5.9875e-003
5219	4.7883	4.1818	0.1	1.0111e-003
5220	4.7883	4.3636	0.1	-5.0269e-003
5221	4.7883	4.5455	0.1	-1.2346e-002
5222	4.7883	4.7273	0.1	-2.1142e-002
5223	4.7883	4.9091	0.1	-3.2441e-002
5224	4.7883	5.0909	0.1	-4.5448e-002
5225	4.7883	5.2727	0.1	-7.0133e-002
5226	4.7883	5.4545	0.1	-8.0386e-002
5227	4.7883	5.6364	0.1	-0.25697
5228	4.7883	5.8182	0.1	-0.28989
5229	4.9725	0.18182	0.1	-0.25668
5230	4.9725	0.36364	0.1	-0.23451
5231	4.9725	0.54545	0.1	-7.2813e-002
5232	4.9725	0.72727	0.1	-6.3861e-002
5233	4.9725	0.90909	0.1	-4.1382e-002
5234	4.9725	1.0909	0.1	-2.9575e-002
5235	4.9725	1.2727	0.1	-1.9288e-002
5236	4.9725	1.4545	0.1	-1.1273e-002
5237	4.9725	1.6364	0.1	-4.5906e-003
5238	4.9725	1.8182	0.1	9.3194e-004
5239	4.9725	2.	0.1	5.4926e-003
5240	4.9725	2.1818	0.1	9.1899e-003
5241	4.9725	2.3636	0.1	1.209e-002
5242	4.9725	2.5455	0.1	1.4233e-002
5243	4.9725	2.7273	0.1	1.565e-002
5244	4.9725	2.9091	0.1	1.6354e-002
5245	4.9725	3.0909	0.1	1.6354e-002
5246	4.9725	3.2727	0.1	1.565e-002
5247	4.9725	3.4545	0.1	1.4233e-002
5248	4.9725	3.6364	0.1	1.209e-002
5249	4.9725	3.8182	0.1	9.1901e-003
5250	4.9725	4.	0.1	5.493e-003
5251	4.9725	4.1818	0.1	9.3235e-004
5252	4.9725	4.3636	0.1	-4.5901e-003
5253	4.9725	4.5455	0.1	-1.1272e-002
5254	4.9725	4.7273	0.1	-1.9288e-002
5255	4.9725	4.9091	0.1	-2.9575e-002
5256	4.9725	5.0909	0.1	-4.138e-002
5257	4.9725	5.2727	0.1	-6.3861e-002
5258	4.9725	5.4545	0.1	-7.2813e-002
5259	4.9725	5.6364	0.1	-0.23451
5260	4.9725	5.8182	0.1	-0.25668
5261	5.1567	0.18182	0.1	-0.22862
5262	5.1567	0.36364	0.1	-0.21409
5263	5.1567	0.54545	0.1	-6.5997e-002
5264	5.1567	0.72727	0.1	-5.8183e-002
5265	5.1567	0.90909	0.1	-3.7715e-002
5266	5.1567	1.0909	0.1	-2.7002e-002
5267	5.1567	1.2727	0.1	-1.7642e-002
5268	5.1567	1.4545	0.1	-1.0342e-002
5269	5.1567	1.6364	0.1	-4.2481e-003
5270	5.1567	1.8182	0.1	7.959e-004
5271	5.1567	2.	0.1	4.9678e-003
5272	5.1567	2.1818	0.1	8.3555e-003
5273	5.1567	2.3636	0.1	1.1016e-002
5274	5.1567	2.5455	0.1	1.2985e-002
5275	5.1567	2.7273	0.1	1.4288e-002
5276	5.1567	2.9091	0.1	1.4936e-002
5277	5.1567	3.0909	0.1	1.4936e-002
5278	5.1567	3.2727	0.1	1.4288e-002
5279	5.1567	3.4545	0.1	1.2985e-002
5280	5.1567	3.6364	0.1	1.1016e-002
5281	5.1567	3.8182	0.1	8.3557e-003
5282	5.1567	4.	0.1	4.9683e-003
5283	5.1567	4.1818	0.1	7.9641e-004
5284	5.1567	4.3636	0.1	-4.2475e-003
5285	5.1567	4.5455	0.1	-1.0341e-002
5286	5.1567	4.7273	0.1	-1.7641e-002
5287	5.1567	4.9091	0.1	-2.7001e-002
5288	5.1567	5.0909	0.1	-3.7713e-002
5289	5.1567	5.2727	0.1	-5.8183e-002
5290	5.1567	5.4545	0.1	-6.5997e-002
5291	5.1567	5.6364	0.1	-0.21408
5292	5.1567	5.8182	0.1	-0.22862
5293	5.3408	0.18182	0.1	-0.20485
5294	5.3408	0.36364	0.1	-0.19546
5295	5.3408	0.54545	0.1	-5.9832e-002
5296	5.3408	0.72727	0.1	-5.3017e-002
5297	5.3408	0.90909	0.1	-3.4385e-002
5298	5.3408	1.0909	0.1	-2.467e-002
5299	5.3408	1.2727	0.1	-1.6157e-002
5300	5.3408	1.4545	0.1	-9.5156e-003
5301	5.3408	1.6364	0.1	-3.9633e-003
5302	5.3408	1.8182	0.1	6.3746e-004
5303	5.3408	2.	0.1	4.4477e-003
5304	5.3408	2.1818	0.1	7.5453e-003
5305	5.3408	2.3636	0.1	9.9811e-003
5306	5.3408	2.5455	0.1	1.1785e-002
5307	5.3408	2.7273	0.1	1.298e-002
5308	5.3408	2.9091	0.1	1.3575e-002
5309	5.3408	3.0909	0.1	1.3575e-002
5310	5.3408	3.2727	0.1	1.298e-002
5311	5.3408	3.4545	0.1	1.1785e-002
5312	5.3408	3.6364	0.1	9.9814e-003
5313	5.3408	3.8182	0.1	7.5457e-003
5314	5.3408	4.	0.1	4.448e-003
5315	5.3408	4.1818	0.1	6.3793e-004
5316	5.3408	4.3636	0.1	-3.9628e-003
5317	5.3408	4.5455	0.1	-9.5149e-003
5318	5.3408	4.7273	0.1	-1.6157e-002
5319	5.3408	4.9091	0.1	-2.4669e-002
5320	5.3408	5.0909	0.1	-3.4383e-002
5321	5.3408	5.2727	0.1	-5.3016e-002
5322	5.3408	5.4545	0.1	-5.9831e-002
5323	5.3408	5.6364	0.1	-0.19546
5324	5.3408	5.8182	0.1	-0.20485
5325	5.525	0.18182	0.1	-0.18471
5326	5.525	0.36364	0.1	-0.17846
5327	5.525	0.54545	0.1	-5.4246e-002
5328	5.525	0.72727	0.1	-4.831e-002
5329	5.525	0.90909	0.1	-3.1357e-002
5330	5.525	1.0909	0.1	-2.2553e-002
5331	5.525	1.2727	0.1	-1.4818e-002
5332	5.525	1.4545	0.1	-8.7797e-003
5333	5.525	1.6364	0.1	-3.7263e-003
5334	5.525	1.8182	0.1	4.6506e-004
5335	5.525	2.	0.1	3.9395e-003
5336	5.525	2.1818	0.1	6.7674e-003
5337	5.525	2.3636	0.1	8.9927e-003
5338	5.525	2.5455	0.1	1.0643e-002
5339	5.525	2.7273	0.1	1.1735e-002
5340	5.525	2.9091	0.1	1.228e-002
5341	5.525	3.0909	0.1	1.228e-002
5342	5.525	3.2727	0.1	1.1736e-002
5343	5.525	3.4545	0.1	1.0643e-002
5344	5.525	3.6364	0.1	8.9932e-003
5345	5.525	3.8182	0.1	6.7678e-003
5346	5.525	4.	0.1	3.94e-003
5347	5.525	4.1818	0.1	4.6551e-004
5348	5.525	4.3636	0.1	-3.7257e-003
5349	5.525	4.5455	0.1	-8.7789e-003
5350	5.525	4.7273	0.1	-1.4817e-002
5351	5.525	4.9091	0.1	-2.2552e-002
5352	5.525	5.0909	0.1	-3.1356e-002
5353	5.525	5.2727	0.1	-4.8309e-002
5354	5.525	5.4545	0.1	-5.4246e-002
5355	5.525	5.6364	0.1	-0.17846
5356	5.525	5.8182	0.1	-0.1847
5357	5.7092	0.18182	0.1	-0.16768
5358	5.7092	0.36364	0.1	-0.16296
5359	5.7092	0.54545	0.1	-4.9202e-002
5360	5.7092	0.72727	0.1	-4.4041e-002
5361	5.7092	0.90909	0.1	-2.8626e-002
5362	5.7092	1.0909	0.1	-2.0653e-002
5363	5.7092	1.2727	0.1	-1.363e-002
5364	5.7092	1.4545	0.1	-8.1467e-003
5365	5.7092	1.6364	0.1	-3.5523e-003
5366	5.7092	1.8182	0.1	2.6144e-004
5367	5.7092	2.	0.1	3.4256e-003
5368	5.7092	2.1818	0.1	6.0029e-003
5369	5.7092	2.3636	0.1	8.0329e-003
5370	5.7092	2.5455	0.1	9.5382e-003
5371	5.7092	2.7273	0.1	1.0536e-002
5372	5.7092	2.9091	0.1	1.1034e-002
5373	5.7092	3.0909	0.1	1.1034e-002
5374	5.7092	3.2727	0.1	1.0536e-002
5375	5.7092	3.4545	0.1	9.5384e-003
5376	5.7092	3.6364	0.1	8.0332e-003
5377	5.7092	3.8182	0.1	6.0032e-003
5378	5.7092	4.	0.1	3.426e-003
5379	5.7092	4.1818	0.1	2.6182e-004
5380	5.7092	4.3636	0.1	-3.5517e-003
5381	5.7092	4.5455	0.1	-8.1459e-003
5382	5.7092	4.7273	0.1	-1.363e-002
5383	5.7092	4.9091	0.1	-2.0653e-002
5384	5.7092	5.0909	0.1	-2.8625e-002
5385	5.7092	5.2727	0.1	-4.404e-002
5386	5.7092	5.4545	0.1	-4.9202e-002
5387	5.7092	5.6364	0.1	-0.16296
5388	5.7092	5.8182	0.1	-0.16767
5389	5.8933	0.18182	0.1	-0.15331
5390	5.8933	0.36364	0.1	-0.14878
5391	5.8933	0.54545	0.1	-4.462e-002
5392	5.8933	0.72727	0.1	-4.0145e-002
5393	5.8933	0.90909	0.1	-2.6139e-002
5394	5.8933	1.0909	0.1	-1.8927e-002
5395	5.8933	1.2727	0.1	-1.2557e-002
5396	5.8933	1.4545	0.1	-7.582e-003
5397	5.8933	1.6364	0.1	-3.4099e-003
5398	5.8933	1.8182	0.1	5.5887e-005
5399	5.8933	2.	0.1	2.9335e-003
5400	5.8933	2.1818	0.1	5.2791e-003
5401	5.8933	2.3636	0.1	7.1278e-003
5402	5.8933	2.5455	0.1	8.4993e-003
5403	5.8933	2.7273	0.1	9.409e-003
5404	5.8933	2.9091	0.1	9.8628e-003
5405	5.8933	3.0909	0.1	9.8628e-003
5406	5.8933	3.2727	0.1	9.4092e-003
5407	5.8933	3.4545	0.1	8.4996e-003
5408	5.8933	3.6364	0.1	7.128e-003
5409	5.8933	3.8182	0.1	5.2797e-003
5410	5.8933	4.	0.1	2.9339e-003
5411	5.8933	4.1818	0.1	5.6391e-005
5412	5.8933	4.3636	0.1	-3.4092e-003
5413	5.8933	4.5455	0.1	-7.5813e-003
5414	5.8933	4.7273	0.1	-1.2557e-002
5415	5.8933	4.9091	0.1	-1.8926e-002
5416	5.8933	5.0909	0.1	-2.6138e-002
5417	5.8933	5.2727	0.1	-4.0144e-002
5418	5.8933	5.4545	0.1	-4.462e-002
5419	5.8933	5.6364	0.1	-0.14878
5420	5.8933	5.8182	0.1	-0.15331
5421	6.0775	0.18182	0.1	-0.14128
5422	6.0775	0.36364	0.1	-0.13581
5423	6.0775	0.54545	0.1	-4.0453e-002
5424	6.0775	0.72727	0.1	-3.6585e-002
5425	6.0775	0.90909	0.1	-2.3871e-002
5426	6.0775	1.0909	0.1	-1.7355e-002
5427	6.0775	1.2727	0.1	-1.1585e-002
5428	6.0775	1.4545	0.1	-7.0768e-003
5429	6.0775	1.6364	0.1	-3.2925e-003
5430	6.0775	1.8182	0.1	-1.4719e-004
5431	6.0775	2.	0.1	2.4662e-003
5432	6.0775	2.1818	0.1	4.598e-003
5433	6.0775	2.3636	0.1	6.2788e-003
5434	6.0775	2.5455	0.1	7.5263e-003
5435	6.0775	2.7273	0.1	8.3542e-003
5436	6.0775	2.9091	0.1	8.7672e-003
5437	6.0775	3.0909	0.1	8.7673e-003
5438	6.0775	3.2727	0.1	8.3543e-003
5439	6.0775	3.4545	0.1	7.5266e-003
5440	6.0775	3.6364	0.1	6.2792e-003
5441	6.0775	3.8182	0.1	4.5984e-003
5442	6.0775	4.	0.1	2.4666e-003
5443	6.0775	4.1818	0.1	-1.4663e-004
5444	6.0775	4.3636	0.1	-3.292e-003
5445	6.0775	4.5455	0.1	-7.076e-003
5446	6.0775	4.7273	0.1	-1.1584e-002
5447	6.0775	4.9091	0.1	-1.7354e-002
5448	6.0775	5.0909	0.1	-2.3869e-002
5449	6.0775	5.2727	0.1	-3.6584e-002
5450	6.0775	5.4545	0.1	-4.0453e-002
5451	6.0775	5.6364	0.1	-0.13581
5452	6.0775	5.8182	0.1	-0.14128
5453	6.2617	0.18182	0.1	-0.13135
5454	6.2617	0.36364	0.1	-0.12395
5455	6.2617	0.54545	0.1	-3.6681e-002
5456	6.2617	0.72727	0.1	-3.3353e-002
5457	6.2617	0.90909	0.1	-2.1823e-002
5458	6.2617	1.0909	0.1	-1.5945e-002
5459	6.2617	1.2727	0.1	-1.0725e-002
5460	6.2617	1.4545	0.1	-6.6459e-003
5461	6.2617	1.6364	0.1	-3.2186e-003
5462	6.2617	1.8182	0.1	-3.6764e-004
5463	6.2617	2.	0.1	2.0026e-003
5464	6.2617	2.1818	0.1	3.9371e-003
5465	6.2617	2.3636	0.1	5.4633e-003
5466	6.2617	2.5455	0.1	6.5963e-003
5467	6.2617	2.7273	0.1	7.3484e-003
5468	6.2617	2.9091	0.1	7.7237e-003
5469	6.2617	3.0909	0.1	7.7237e-003
5470	6.2617	3.2727	0.1	7.3486e-003
5471	6.2617	3.4545	0.1	6.5964e-003
5472	6.2617	3.6364	0.1	5.4635e-003
5473	6.2617	3.8182	0.1	3.9375e-003
5474	6.2617	4.	0.1	2.003e-003
5475	6.2617	4.1818	0.1	-3.6707e-004
5476	6.2617	4.3636	0.1	-3.2179e-003
5477	6.2617	4.5455	0.1	-6.6454e-003
5478	6.2617	4.7273	0.1	-1.0724e-002
5479	6.2617	4.9091	0.1	-1.5945e-002
5480	6.2617	5.0909	0.1	-2.1822e-002
5481	6.2617	5.2727	0.1	-3.3352e-002
5482	6.2617	5.4545	0.1	-3.668e-002
5483	6.2617	5.6364	0.1	-0.12395
5484	6.2617	5.8182	0.1	-0.13135
5485	6.4458	0.18182	0.1	-0.12333
5486	6.4458	0.36364	0.1	-0.11309
5487	6.4458	0.54545	0.1	-3.3242e-002
5488	6.4458	0.72727	0.1	-3.0395e-002
5489	6.4458	0.90909	0.1	-1.9953e-002
5490	6.4458	1.0909	0.1	-1.466e-002
5491	6.4458	1.2727	0.1	-9.9448e-003
5492	6.4458	1.4545	0.1	-6.2596e-003
5493	6.4458	1.6364	0.1	-3.1598e-003
5494	6.4458	1.8182	0.1	-5.7984e-004
5495	6.4458	2.	0.1	1.5666e-003
5496	6.4458	2.1818	0.1	3.3197e-003
5497	6.4458	2.3636	0.1	4.7031e-003
5498	6.4458	2.5455	0.1	5.7305e-003
5499	6.4458	2.7273	0.1	6.4129e-003
5500	6.4458	2.9091	0.1	6.7534e-003
5501	6.4458	3.0909	0.1	6.7536e-003
5502	6.4458	3.2727	0.1	6.4129e-003
5503	6.4458	3.4545	0.1	5.7306e-003
5504	6.4458	3.6364	0.1	4.7036e-003
5505	6.4458	3.8182	0.1	3.3201e-003
5506	6.4458	4.	0.1	1.5672e-003
5507	6.4458	4.1818	0.1	-5.7943e-004
5508	6.4458	4.3636	0.1	-3.1591e-003
5509	6.4458	4.5455	0.1	-6.2588e-003
5510	6.4458	4.7273	0.1	-9.9439e-003
5511	6.4458	4.9091	0.1	-1.4659e-002
5512	6.4458	5.0909	0.1	-1.9951e-002
5513	6.4458	5.2727	0.1	-3.0394e-002
5514	6.4458	5.4545	0.1	-3.3241e-002
5515	6.4458	5.6364	0.1	-0.11309
5516	6.4458	5.8182	0.1	-0.12333
5517	6.63	0.18182	0.1	-0.11711
5518	6.63	0.36364	0.1	-0.10313
5519	6.63	0.54545	0.1	-3.0102e-002
5520	6.63	0.72727	0.1	-2.7686e-002
5521	6.63	0.90909	0.1	-1.8242e-002
5522	6.63	1.0909	0.1	-1.3486e-002
5523	6.63	1.2727	0.1	-9.2345e-003
5524	6.63	1.4545	0.1	-5.9114e-003
5525	6.63	1.6364	0.1	-3.1126e-003
5526	6.63	1.8182	0.1	-7.8164e-004
5527	6.63	2.	0.1	1.1587e-003
5528	6.63	2.1818	0.1	2.7447e-003
5529	6.63	2.3636	0.1	3.9971e-003
5530	6.63	2.5455	0.1	4.9271e-003
5531	6.63	2.7273	0.1	5.5451e-003
5532	6.63	2.9091	0.1	5.8539e-003
5533	6.63	3.0909	0.1	5.8537e-003
5534	6.63	3.2727	0.1	5.5452e-003
5535	6.63	3.4545	0.1	4.9273e-003
5536	6.63	3.6364	0.1	3.9974e-003
5537	6.63	3.8182	0.1	2.7451e-003
5538	6.63	4.	0.1	1.1592e-003
5539	6.63	4.1818	0.1	-7.8134e-004
5540	6.63	4.3636	0.1	-3.1122e-003
5541	6.63	4.5455	0.1	-5.9107e-003
5542	6.63	4.7273	0.1	-9.234e-003
5543	6.63	4.9091	0.1	-1.3485e-002
5544	6.63	5.0909	0.1	-1.8241e-002
5545	6.63	5.2727	0.1	-2.7684e-002
5546	6.63	5.4545	0.1	-3.0102e-002
5547	6.63	5.6364	0.1	-0.10313
5548	6.63	5.8182	0.1	-0.11711
5549	6.8142	0.18182	0.1	-0.11271
5550	6.8142	0.36364	0.1	-9.4012e-002
5551	6.8142	0.54545	0.1	-2.7256e-002
5552	6.8142	0.72727	0.1	-2.5224e-002
5553	6.8142	0.90909	0.1	-1.6699e-002
5554	6.8142	1.0909	0.1	-1.2434e-002
5555	6.8142	1.2727	0.1	-8.6095e-003
5556	6.8142	1.4545	0.1	-5.6189e-003
5557	6.8142	1.6364	0.1	-3.0967e-003
5558	6.8142	1.8182	0.1	-9.9484e-004
5559	6.8142	2.	0.1	7.5674e-004
5560	6.8142	2.1818	0.1	2.1891e-003
5561	6.8142	2.3636	0.1	3.3207e-003
5562	6.8142	2.5455	0.1	4.1615e-003
5563	6.8142	2.7273	0.1	4.7203e-003
5564	6.8142	2.9091	0.1	4.9994e-003
5565	6.8142	3.0909	0.1	4.9994e-003
5566	6.8142	3.2727	0.1	4.7204e-003
5567	6.8142	3.4545	0.1	4.1617e-003
5568	6.8142	3.6364	0.1	3.3208e-003
5569	6.8142	3.8182	0.1	2.1897e-003
5570	6.8142	4.	0.1	7.5716e-004
5571	6.8142	4.1818	0.1	-9.9425e-004
5572	6.8142	4.3636	0.1	-3.0964e-003
5573	6.8142	4.5455	0.1	-5.618e-003
5574	6.8142	4.7273	0.1	-8.6086e-003
5575	6.8142	4.9091	0.1	-1.2433e-002
5576	6.8142	5.0909	0.1	-1.6697e-002
5577	6.8142	5.2727	0.1	-2.5223e-002
5578	6.8142	5.4545	0.1	-2.7255e-002
5579	6.8142	5.6364	0.1	-9.401e-002
5580	6.8142	5.8182	0.1	-0.11271
5581	6.9983	0.18182	0.1	-0.1102
5582	6.9983	0.36364	0.1	-8.5647e-002
5583	6.9983	0.54545	0.1	-2.4652e-002
5584	6.9983	0.72727	0.1	-2.2966e-002
5585	6.9983	0.90909	0.1	-1.5285e-002
5586	6.9983	1.0909	0.1	-1.1473e-002
5587	6.9983	1.2727	0.1	-8.0397e-003
5588	6.9983	1.4545	0.1	-5.3545e-003
5589	6.9983	1.6364	0.1	-3.0871e-003
5590	6.9983	1.8182	0.1	-1.1954e-003
5591	6.9983	2.	0.1	3.8226e-004
5592	6.9983	2.1818	0.1	1.6734e-003
5593	6.9983	2.3636	0.1	2.6944e-003
5594	6.9983	2.5455	0.1	3.4528e-003
5595	6.9983	2.7273	0.1	3.9572e-003
5596	6.9983	2.9091	0.1	4.2094e-003
5597	6.9983	3.0909	0.1	4.2094e-003
5598	6.9983	3.2727	0.1	3.9573e-003
5599	6.9983	3.4545	0.1	3.4528e-003
5600	6.9983	3.6364	0.1	2.6947e-003
5601	6.9983	3.8182	0.1	1.674e-003
5602	6.9983	4.	0.1	3.8291e-004
5603	6.9983	4.1818	0.1	-1.1949e-003
5604	6.9983	4.3636	0.1	-3.0864e-003
5605	6.9983	4.5455	0.1	-5.3539e-003
5606	6.9983	4.7273	0.1	-8.0388e-003
5607	6.9983	4.9091	0.1	-1.1472e-002
5608	6.9983	5.0909	0.1	-1.5284e-002
5609	6.9983	5.2727	0.1	-2.2965e-002
5610	6.9983	5.4545	0.1	-2.4652e-002
5611	6.9983	5.6364	0.1	-8.5646e-002
5612	6.9983	5.8182	0.1	-0.1102
5613	7.1825	0.18182	0.1	-0.10987
5614	7.1825	0.36364	0.1	-7.7968e-002
5615	7.1825	0.54545	0.1	-2.2267e-002
5616	7.1825	0.72727	0.1	-2.0894e-002
5617	7.1825	0.90909	0.1	-1.399e-002
5618	7.1825	1.0909	0.1	-1.0592e-002
5619	7.1825	1.2727	0.1	-7.5195e-003
5620	7.1825	1.4545	0.1	-5.1153e-003
5621	7.1825	1.6364	0.1	-3.0815e-003
5622	7.1825	1.8182	0.1	-1.383e-003
5623	7.1825	2.	0.1	3.5058e-005
5624	7.1825	2.1818	0.1	1.1966e-003
5625	7.1825	2.3636	0.1	2.1154e-003
5626	7.1825	2.5455	0.1	2.7981e-003
5627	7.1825	2.7273	0.1	3.2528e-003
5628	7.1825	2.9091	0.1	3.4799e-003
5629	7.1825	3.0909	0.1	3.4801e-003
5630	7.1825	3.2727	0.1	3.253e-003
5631	7.1825	3.4545	0.1	2.7986e-003
5632	7.1825	3.6364	0.1	2.1155e-003
5633	7.1825	3.8182	0.1	1.1971e-003
5634	7.1825	4.	0.1	3.5354e-005
5635	7.1825	4.1818	0.1	-1.3824e-003
5636	7.1825	4.3636	0.1	-3.0809e-003
5637	7.1825	4.5455	0.1	-5.1144e-003
5638	7.1825	4.7273	0.1	-7.519e-003
5639	7.1825	4.9091	0.1	-1.0592e-002
5640	7.1825	5.0909	0.1	-1.3988e-002
5641	7.1825	5.2727	0.1	-2.0893e-002
5642	7.1825	5.4545	0.1	-2.2267e-002
5643	7.1825	5.6364	0.1	-7.7967e-002
5644	7.1825	5.8182	0.1	-0.10987
5645	7.3667	0.18182	0.1	-0.11233
5646	7.3667	0.36364	0.1	-7.0937e-002
5647	7.3667	0.54545	0.1	-2.0104e-002
5648	7.3667	0.72727	0.1	-1.9012e-002
5649	7.3667	0.90909	0.1	-1.2823e-002
5650	7.3667	1.0909	0.1	-9.8066e-003
5651	7.3667	1.2727	0.1	-7.0652e-003
5652	7.3667	1.4545	0.1	-4.919e-003
5653	7.3667	1.6364	0.1	-3.1001e-003
5654	7.3667	1.8182	0.1	-1.5788e-003
5655	7.3667	2.	0.1	-3.0775e-004
5656	7.3667	2.1818	0.1	7.3475e-004
5657	7.3667	2.3636	0.1	1.5602e-003
5658	7.3667	2.5455	0.1	2.1737e-003
5659	7.3667	2.7273	0.1	2.5823e-003
5660	7.3667	2.9091	0.1	2.7865e-003
5661	7.3667	3.0909	0.1	2.7865e-003
5662	7.3667	3.2727	0.1	2.5823e-003
5663	7.3667	3.4545	0.1	2.1738e-003
5664	7.3667	3.6364	0.1	1.5604e-003
5665	7.3667	3.8182	0.1	7.3528e-004
5666	7.3667	4.	0.1	-3.0728e-004
5667	7.3667	4.1818	0.1	-1.5782e-003
5668	7.3667	4.3636	0.1	-3.0995e-003
5669	7.3667	4.5455	0.1	-4.9184e-003
5670	7.3667	4.7273	0.1	-7.0645e-003
5671	7.3667	4.9091	0.1	-9.806e-003
5672	7.3667	5.0909	0.1	-1.2821e-002
5673	7.3667	5.2727	0.1	-1.9011e-002
5674	7.3667	5.4545	0.1	-2.0104e-002
5675	7.3667	5.6364	0.1	-7.0936e-002
5676	7.3667	5.8182	0.1	-0.11232
5677	7.5508	0.18182	0.1	-0.1187
5678	7.5508	0.36364	0.1	-6.4478e-002
5679	7.5508	0.54545	0.1	-1.812e-002
5680	7.5508	0.72727	0.1	-1.7284e-002
5681	7.5508	0.90909	0.1	-1.1753e-002
5682	7.5508	1.0909	0.1	-9.0876e-003
5683	7.5508	1.2727	0.1	-6.6508e-003
5684	7.5508	1.4545	0.1	-4.7415e-003
5685	7.5508	1.6364	0.1	-3.1199e-003
5686	7.5508	1.8182	0.1	-1.762e-003
5687	7.5508	2.	0.1	-6.2526e-004
5688	7.5508	2.1818	0.1	3.0801e-004
5689	7.5508	2.3636	0.1	1.0474e-003
5690	7.5508	2.5455	0.1	1.5973e-003
5691	7.5508	2.7273	0.1	1.9637e-003
5692	7.5508	2.9091	0.1	2.1471e-003
5693	7.5508	3.0909	0.1	2.147e-003
5694	7.5508	3.2727	0.1	1.9639e-003
5695	7.5508	3.4545	0.1	1.5974e-003
5696	7.5508	3.6364	0.1	1.0475e-003
5697	7.5508	3.8182	0.1	3.0848e-004
5698	7.5508	4.	0.1	-6.2485e-004
5699	7.5508	4.1818	0.1	-1.7613e-003
5700	7.5508	4.3636	0.1	-3.1194e-003
5701	7.5508	4.5455	0.1	-4.741e-003
5702	7.5508	4.7273	0.1	-6.65e-003
5703	7.5508	4.9091	0.1	-9.0869e-003
5704	7.5508	5.0909	0.1	-1.1752e-002
5705	7.5508	5.2727	0.1	-1.7283e-002
5706	7.5508	5.4545	0.1	-1.8119e-002
5707	7.5508	5.6364	0.1	-6.4477e-002
5708	7.5508	5.8182	0.1	-0.1187
5709	7.735	0.18182	0.1	-0.13145
5710	7.735	0.36364	0.1	-5.8545e-002
5711	7.735	0.54545	0.1	-1.6298e-002
5712	7.735	0.72727	0.1	-1.5696e-002
5713	7.735	0.90909	0.1	-1.0772e-002
5714	7.735	1.0909	0.1	-8.4287e-003
5715	7.735	1.2727	0.1	-6.2716e-003
5716	7.735	1.4545	0.1	-4.5805e-003
5717	7.735	1.6364	0.1	-3.14e-003
5718	7.735	1.8182	0.1	-1.9317e-003
5719	7.735	2.	0.1	-9.1883e-004
5720	7.735	2.1818	0.1	-8.6004e-005
5721	7.735	2.3636	0.1	5.7444e-004
5722	7.735	2.5455	0.1	1.0659e-003
5723	7.735	2.7273	0.1	1.3939e-003
5724	7.735	2.9091	0.1	1.5578e-003
5725	7.735	3.0909	0.1	1.558e-003
5726	7.735	3.2727	0.1	1.3941e-003
5727	7.735	3.4545	0.1	1.0662e-003
5728	7.735	3.6364	0.1	5.7492e-004
5729	7.735	3.8182	0.1	-8.5768e-005
5730	7.735	4.	0.1	-9.1835e-004
5731	7.735	4.1818	0.1	-1.9313e-003
5732	7.735	4.3636	0.1	-3.1393e-003
5733	7.735	4.5455	0.1	-4.58e-003
5734	7.735	4.7273	0.1	-6.271e-003
5735	7.735	4.9091	0.1	-8.4278e-003
5736	7.735	5.0909	0.1	-1.077e-002
5737	7.735	5.2727	0.1	-1.5695e-002
5738	7.735	5.4545	0.1	-1.6298e-002
5739	7.735	5.6364	0.1	-5.8544e-002
5740	7.735	5.8182	0.1	-0.13145
5741	7.9192	0.18182	0.1	-0.15639
5742	7.9192	0.36364	0.1	-5.3115e-002
5743	7.9192	0.54545	0.1	-1.4645e-002
5744	7.9192	0.72727	0.1	-1.4257e-002
5745	7.9192	0.90909	0.1	-9.8924e-003
5746	7.9192	1.0909	0.1	-7.8453e-003
5747	7.9192	1.2727	0.1	-5.946e-003
5748	7.9192	1.4545	0.1	-4.4548e-003
5749	7.9192	1.6364	0.1	-3.1809e-003
5750	7.9192	1.8182	0.1	-2.1096e-003
5751	7.9192	2.	0.1	-1.2103e-003
5752	7.9192	2.1818	0.1	-4.6947e-004
5753	7.9192	2.3636	0.1	1.1878e-004
5754	7.9192	2.5455	0.1	5.5676e-004
5755	7.9192	2.7273	0.1	8.492e-004
5756	7.9192	2.9091	0.1	9.9551e-004
5757	7.9192	3.0909	0.1	9.9569e-004
5758	7.9192	3.2727	0.1	8.4902e-004
5759	7.9192	3.4545	0.1	5.57e-004
5760	7.9192	3.6364	0.1	1.1896e-004
5761	7.9192	3.8182	0.1	-4.6887e-004
5762	7.9192	4.	0.1	-1.21e-003
5763	7.9192	4.1818	0.1	-2.1093e-003
5764	7.9192	4.3636	0.1	-3.18e-003
5765	7.9192	4.5455	0.1	-4.454e-003
5766	7.9192	4.7273	0.1	-5.9452e-003
5767	7.9192	4.9091	0.1	-7.8448e-003
5768	7.9192	5.0909	0.1	-9.8909e-003
5769	7.9192	5.2727	0.1	-1.4256e-002
5770	7.9192	5.4545	0.1	-1.4645e-002
5771	7.9192	5.6364	0.1	-5.3114e-002
5772	7.9192	5.8182	0.1	-0.15639
5773	8.1033	0.18182	0.1	-0.21015
5774	8.1033	0.36364	0.1	-4.813e-002
5775	8.1033	0.54545	0.1	-1.3126e-002
5776	8.1033	0.72727	0.1	-1.2936e-002
5777	8.1033	0.90909	0.1	-9.087e-003
5778	8.1033	1.0909	0.1	-7.3128e-003
5779	8.1033	1.2727	0.1	-5.6494e-003
5780	8.1033	1.4545	0.1	-4.3421e-003
5781	8.1033	1.6364	0.1	-3.2205e-003
5782	8.1033	1.8182	0.1	-2.2753e-003
5783	8.1033	2.	0.1	-1.4801e-003
5784	8.1033	2.1818	0.1	-8.2381e-004
5785	8.1033	2.3636	0.1	-3.0182e-004
5786	8.1033	2.5455	0.1	8.716e-005
5787	8.1033	2.7273	0.1	3.4705e-004
5788	8.1033	2.9091	0.1	4.7744e-004
5789	8.1033	3.0909	0.1	4.7744e-004
5790	8.1033	3.2727	0.1	3.4753e-004
5791	8.1033	3.4545	0.1	8.7278e-005
5792	8.1033	3.6364	0.1	-3.014e-004
5793	8.1033	3.8182	0.1	-8.2304e-004
5794	8.1033	4.	0.1	-1.4796e-003
5795	8.1033	4.1818	0.1	-2.275e-003
5796	8.1033	4.3636	0.1	-3.2199e-003
5797	8.1033	4.5455	0.1	-4.3414e-003
5798	8.1033	4.7273	0.1	-5.649e-003
5799	8.1033	4.9091	0.1	-7.312e-003
5800	8.1033	5.0909	0.1	-9.0854e-003
5801	8.1033	5.2727	0.1	-1.2935e-002
5802	8.1033	5.4545	0.1	-1.3126e-002
5803	8.1033	5.6364	0.1	-4.8128e-002
5804	8.1033	5.8182	0.1	-0.21015
5805	8.2875	0.18182	0.1	-0.35435
5806	8.2875	0.36364	0.1	-4.3556e-002
5807	8.2875	0.54545	0.1	-1.173e-002
5808	8.2875	0.72727	0.1	-1.1723e-002
5809	8.2875	0.90909	0.1	-8.35e-003
5810	8.2875	1.0909	0.1	-6.8263e-003
5811	8.2875	1.2727	0.1	-5.3802e-003
5812	8.2875	1.4545	0.1	-4.241e-003
5813	8.2875	1.6364	0.1	-3.2593e-003
5814	8.2875	1.8182	0.1	-2.4296e-003
5815	8.2875	2.	0.1	-1.7295e-003
5816	8.2875	2.1818	0.1	-1.1503e-003
5817	8.2875	2.3636	0.1	-6.8914e-004
5818	8.2875	2.5455	0.1	-3.4529e-004
5819	8.2875	2.7273	0.1	-1.1505e-004
5820	8.2875	2.9091	0.1	3.3844e-007
5821	8.2875	3.0909	0.1	3.3864e-007
5822	8.2875	3.2727	0.1	-1.1505e-004
5823	8.2875	3.4545	0.1	-3.4517e-004
5824	8.2875	3.6364	0.1	-6.8891e-004
5825	8.2875	3.8182	0.1	-1.15e-003
5826	8.2875	4.	0.1	-1.7292e-003
5827	8.2875	4.1818	0.1	-2.4294e-003
5828	8.2875	4.3636	0.1	-3.2587e-003
5829	8.2875	4.5455	0.1	-4.2404e-003
5830	8.2875	4.7273	0.1	-5.3795e-003
5831	8.2875	4.9091	0.1	-6.826e-003
5832	8.2875	5.0909	0.1	-8.3488e-003
5833	8.2875	5.2727	0.1	-1.1722e-002
5834	8.2875	5.4545	0.1	-1.1729e-002
5835	8.2875	5.6364	0.1	-4.3555e-002
5836	8.2875	5.8182	0.1	-0.35435
5837	8.4717	0.18182	0.1	-0.78751
5838	8.4717	0.36364	0.1	-3.9388e-002
5839	8.4717	0.54545	0.1	-1.0465e-002
5840	8.4717	0.72727	0.1	-1.0631e-002
5841	8.4717	0.90909	0.1	-7.6976e-003
5842	8.4717	1.0909	0.1	-6.4033e-003
5843	8.4717	1.2727	0.1	-5.1561e-003
5844	8.4717	1.4545	0.1	-4.1711e-003
5845	8.4717	1.6364	0.1	-3.3172e-003
5846	8.4717	1.8182	0.1	-2.5931e-003
5847	8.4717	2.	0.1	-1.9801e-003
5848	8.4717	2.1818	0.1	-1.4715e-003
5849	8.4717	2.3636	0.1	-1.0658e-003
5850	8.4717	2.5455	0.1	-7.6282e-004
5851	8.4717	2.7273	0.1	-5.6001e-004
5852	8.4717	2.9091	0.1	-4.5829e-004
5853	8.4717	3.0909	0.1	-4.5805e-004
5854	8.4717	3.2727	0.1	-5.5996e-004
5855	8.4717	3.4545	0.1	-7.6282e-004
5856	8.4717	3.6364	0.1	-1.0655e-003
5857	8.4717	3.8182	0.1	-1.4711e-003
5858	8.4717	4.	0.1	-1.9794e-003
5859	8.4717	4.1818	0.1	-2.5928e-003
5860	8.4717	4.3636	0.1	-3.3166e-003
5861	8.4717	4.5455	0.1	-4.1704e-003
5862	8.4717	4.7273	0.1	-5.1552e-003
5863	8.4717	4.9091	0.1	-6.4027e-003
5864	8.4717	5.0909	0.1	-7.6962e-003
5865	8.4717	5.2727	0.1	-1.063e-002
5866	8.4717	5.4545	0.1	-1.0465e-002
5867	8.4717	5.6364	0.1	-3.9386e-002
5868	8.4717	5.8182	0.1	-0.7875
5869	8.6558	0.18182	0.1	-1.5555
5870	8.6558	0.36364	0.1	-3.5586e-002
5871	8.6558	0.54545	0.1	-9.3039e-003
5872	8.6558	0.72727	0.1	-9.6325e-003
5873	8.6558	0.90909	0.1	-7.1046e-003
5874	8.6558	1.0909	0.1	-6.0208e-003
5875	8.6558	1.2727	0.1	-4.9554e-003
5876	8.6558	1.4545	0.1	-4.1113e-003
5877	8.6558	1.6364	0.1	-3.3739e-003
5878	8.6558	1.8182	0.1	-2.7463e-003
5879	8.6558	2.	0.1	-2.2125e-003
5880	8.6558	2.1818	0.1	-1.7687e-003
5881	8.6558	2.3636	0.1	-1.4135e-003
5882	8.6558	2.5455	0.1	-1.1486e-003
5883	8.6558	2.7273	0.1	-9.7009e-004
5884	8.6558	2.9091	0.1	-8.8081e-004
5885	8.6558	3.0909	0.1	-8.8051e-004
5886	8.6558	3.2727	0.1	-9.7009e-004
5887	8.6558	3.4545	0.1	-1.1483e-003
5888	8.6558	3.6364	0.1	-1.4135e-003
5889	8.6558	3.8182	0.1	-1.7682e-003
5890	8.6558	4.	0.1	-2.2122e-003
5891	8.6558	4.1818	0.1	-2.7457e-003
5892	8.6558	4.3636	0.1	-3.3733e-003
5893	8.6558	4.5455	0.1	-4.1102e-003
5894	8.6558	4.7273	0.1	-4.9549e-003
5895	8.6558	4.9091	0.1	-6.0201e-003
5896	8.6558	5.0909	0.1	-7.1032e-003
5897	8.6558	5.2727	0.1	-9.6314e-003
5898	8.6558	5.4545	0.1	-9.3034e-003
5899	8.6558	5.6364	0.1	-3.5585e-002
5900	8.6558	5.8182	0.1	-1.5555
5901	8.84	0.18182	0.1	-2.4107
5902	8.84	0.36364	0.1	-3.2147e-002
5903	8.84	0.54545	0.1	-8.2376e-003
5904	8.84	0.72727	0.1	-8.7226e-003
5905	8.84	0.90909	0.1	-6.5685e-003
5906	8.84	1.0909	0.1	-5.6773e-003
5907	8.84	1.2727	0.1	-4.7776e-003
5908	8.84	1.4545	0.1	-4.0611e-003
5909	8.84	1.6364	0.1	-3.4303e-003
5910	8.84	1.8182	0.1	-2.8903e-003
5911	8.84	2.	0.1	-2.4292e-003
5912	8.84	2.1818	0.1	-2.0438e-003
5913	8.84	2.3636	0.1	-1.7349e-003
5914	8.84	2.5455	0.1	-1.5037e-003
5915	8.84	2.7273	0.1	-1.3481e-003
5916	8.84	2.9091	0.1	-1.2701e-003
5917	8.84	3.0909	0.1	-1.2699e-003
5918	8.84	3.2727	0.1	-1.3485e-003
5919	8.84	3.4545	0.1	-1.5035e-003
5920	8.84	3.6364	0.1	-1.7347e-003
5921	8.84	3.8182	0.1	-2.0435e-003
5922	8.84	4.	0.1	-2.4286e-003
5923	8.84	4.1818	0.1	-2.8899e-003
5924	8.84	4.3636	0.1	-3.4299e-003
5925	8.84	4.5455	0.1	-4.0604e-003
5926	8.84	4.7273	0.1	-4.7768e-003
5927	8.84	4.9091	0.1	-5.6768e-003
5928	8.84	5.0909	0.1	-6.5674e-003
5929	8.84	5.2727	0.1	-8.7215e-003
5930	8.84	5.4545	0.1	-8.2375e-003
5931	8.84	5.6364	0.1	-3.2146e-002
5932	8.84	5.8182	0.1	-2.4107
5933	9.0242	0.18182	0.1	-3.2539
5934	9.0242	0.36364	0.1	-2.9116e-002
5935	9.0242	0.54545	0.1	-7.2803e-003
5936	9.0242	0.72727	0.1	-7.9169e-003
5937	9.0242	0.90909	0.1	-6.1072e-003
5938	9.0242	1.0909	0.1	-5.3908e-003
5939	9.0242	1.2727	0.1	-4.6416e-003
5940	9.0242	1.4545	0.1	-4.0403e-003
5941	9.0242	1.6364	0.1	-3.506e-003
5942	9.0242	1.8182	0.1	-3.0449e-003
5943	9.0242	2.	0.1	-2.6495e-003
5944	9.0242	2.1818	0.1	-2.3174e-003
5945	9.0242	2.3636	0.1	-2.0505e-003
5946	9.0242	2.5455	0.1	-1.8501e-003
5947	9.0242	2.7273	0.1	-1.7155e-003
5948	9.0242	2.9091	0.1	-1.6474e-003
5949	9.0242	3.0909	0.1	-1.6474e-003
5950	9.0242	3.2727	0.1	-1.7154e-003
5951	9.0242	3.4545	0.1	-1.8502e-003
5952	9.0242	3.6364	0.1	-2.0502e-003
5953	9.0242	3.8182	0.1	-2.3171e-003
5954	9.0242	4.	0.1	-2.6491e-003
5955	9.0242	4.1818	0.1	-3.0444e-003
5956	9.0242	4.3636	0.1	-3.5055e-003
5957	9.0242	4.5455	0.1	-4.0399e-003
5958	9.0242	4.7273	0.1	-4.6408e-003
5959	9.0242	4.9091	0.1	-5.3901e-003
5960	9.0242	5.0909	0.1	-6.106e-003
5961	9.0242	5.2727	0.1	-7.9156e-003
5962	9.0242	5.4545	0.1	-7.2799e-003
5963	9.0242	5.6364	0.1	-2.9115e-002
5964	9.0242	5.8182	0.1	-3.2538
5965	9.2083	0.18182	0.1	-4.0625
5966	9.2083	0.36364	0.1	-2.6589e-002
5967	9.2083	0.54545	0.1	-6.4092e-003
5968	9.2083	0.72727	0.1	-7.1956e-003
5969	9.2083	0.90909	0.1	-5.7018e-003
5970	9.2083	1.0909	0.1	-5.1421e-003
5971	9.2083	1.2727	0.1	-4.5276e-003
5972	9.2083	1.4545	0.1	-4.0308e-003
5973	9.2083	1.6364	0.1	-3.5823e-003
5974	9.2083	1.8182	0.1	-3.1932e-003
5975	9.2083	2.	0.1	-2.8563e-003
5976	9.2083	2.1818	0.1	-2.5724e-003
5977	9.2083	2.3636	0.1	-2.3434e-003
5978	9.2083	2.5455	0.1	-2.1716e-003
5979	9.2083	2.7273	0.1	-2.055e-003
5980	9.2083	2.9091	0.1	-1.9962e-003
5981	9.2083	3.0909	0.1	-1.9961e-003
5982	9.2083	3.2727	0.1	-2.0549e-003
5983	9.2083	3.4545	0.1	-2.171e-003
5984	9.2083	3.6364	0.1	-2.3433e-003
5985	9.2083	3.8182	0.1	-2.5723e-003
5986	9.2083	4.	0.1	-2.8564e-003
5987	9.2083	4.1818	0.1	-3.1924e-003
5988	9.2083	4.3636	0.1	-3.582e-003
5989	9.2083	4.5455	0.1	-4.0302e-003
5990	9.2083	4.7273	0.1	-4.527e-003
5991	9.2083	4.9091	0.1	-5.1416e-003
5992	9.2083	5.0909	0.1	-5.6999e-003
5993	9.2083	5.2727	0.1	-7.1946e-003
5994	9.2083	5.4545	0.1	-6.4091e-003
5995	9.2083	5.6364	0.1	-2.6588e-002
5996	9.2083	5.8182	0.1	-4.0625
5997	9.3925	0.18182	0.1	-4.8315
5998	9.3925	0.36364	0.1	-2.5066e-002
5999	9.3925	0.54545	0.1	-5.6242e-003
6000	9.3925	0.72727	0.1	-6.5588e-003
6001	9.3925	0.90909	0.1	-5.3517e-003
6002	9.3925	1.0909	0.1	-4.9312e-003
6003	9.3925	1.2727	0.1	-4.4367e-003
6004	9.3925	1.4545	0.1	-4.0316e-003
6005	9.3925	1.6364	0.1	-3.6603e-003
6006	9.3925	1.8182	0.1	-3.334e-003
6007	9.3925	2.	0.1	-3.0504e-003
6008	9.3925	2.1818	0.1	-2.8095e-003
6009	9.3925	2.3636	0.1	-2.6141e-003
6010	9.3925	2.5455	0.1	-2.4673e-003
6011	9.3925	2.7273	0.1	-2.3677e-003
6012	9.3925	2.9091	0.1	-2.3173e-003
6013	9.3925	3.0909	0.1	-2.3173e-003
6014	9.3925	3.2727	0.1	-2.3677e-003
6015	9.3925	3.4545	0.1	-2.4671e-003
6016	9.3925	3.6364	0.1	-2.6136e-003
6017	9.3925	3.8182	0.1	-2.809e-003
6018	9.3925	4.	0.1	-3.05e-003
6019	9.3925	4.1818	0.1	-3.3337e-003
6020	9.3925	4.3636	0.1	-3.6595e-003
6021	9.3925	4.5455	0.1	-4.0311e-003
6022	9.3925	4.7273	0.1	-4.436e-003
6023	9.3925	4.9091	0.1	-4.9306e-003
6024	9.3925	5.0909	0.1	-5.35e-003
6025	9.3925	5.2727	0.1	-6.5575e-003
6026	9.3925	5.4545	0.1	-5.6238e-003
6027	9.3925	5.6364	0.1	-2.5065e-002
6028	9.3925	5.8182	0.1	-4.8314
6029	9.5767	0.18182	0.1	-5.5605
6030	9.5767	0.36364	0.1	-2.9922e-002
6031	9.5767	0.54545	0.1	-4.9571e-003
6032	9.5767	0.72727	0.1	-6.0378e-003
6033	9.5767	0.90909	0.1	-5.0851e-003
6034	9.5767	1.0909	0.1	-4.7844e-003
6035	9.5767	1.2727	0.1	-4.3932e-003
6036	9.5767	1.4545	0.1	-4.068e-003
6037	9.5767	1.6364	0.1	-3.7635e-003
6038	9.5767	1.8182	0.1	-3.4935e-003
6039	9.5767	2.	0.1	-3.2558e-003
6040	9.5767	2.1818	0.1	-3.0528e-003
6041	9.5767	2.3636	0.1	-2.8876e-003
6042	9.5767	2.5455	0.1	-2.763e-003
6043	9.5767	2.7273	0.1	-2.6786e-003
6044	9.5767	2.9091	0.1	-2.6353e-003
6045	9.5767	3.0909	0.1	-2.6353e-003
6046	9.5767	3.2727	0.1	-2.6784e-003
6047	9.5767	3.4545	0.1	-2.7628e-003
6048	9.5767	3.6364	0.1	-2.8876e-003
6049	9.5767	3.8182	0.1	-3.0524e-003
6050	9.5767	4.	0.1	-3.2553e-003
6051	9.5767	4.1818	0.1	-3.4929e-003
6052	9.5767	4.3636	0.1	-3.7628e-003
6053	9.5767	4.5455	0.1	-4.0677e-003
6054	9.5767	4.7273	0.1	-4.3926e-003
6055	9.5767	4.9091	0.1	-4.7839e-003
6056	9.5767	5.0909	0.1	-5.084e-003
6057	9.5767	5.2727	0.1	-6.0365e-003
6058	9.5767	5.4545	0.1	-4.9567e-003
6059	9.5767	5.6364	0.1	-2.9921e-002
6060	9.5767	5.8182	0.1	-5.5604
6061	9.7608	0.18182	0.1	-6.2507
6062	9.7608	0.36364	0.1	-0.63177
6063	9.7608	0.54545	0.1	-4.3998e-003
6064	9.7608	0.72727	0.1	-5.6119e-003
6065	9.7608	0.90909	0.1	-4.875e-003
6066	9.7608	1.0909	0.1	-4.6702e-003
6067	9.7608	1.2727	0.1	-4.3645e-003
6068	9.7608	1.4545	0.1	-4.1057e-003
6069	9.7608	1.6364	0.1	-3.8579e-003
6070	9.7608	1.8182	0.1	-3.6356e-003
6071	9.7608	2.	0.1	-3.4378e-003
6072	9.7608	2.1818	0.1	-3.2682e-003
6073	9.7608	2.3636	0.1	-3.1293e-003
6074	9.7608	2.5455	0.1	-3.024e-003
6075	9.7608	2.7273	0.1	-2.9524e-003
6076	9.7608	2.9091	0.1	-2.9161e-003
6077	9.7608	3.0909	0.1	-2.9158e-003
6078	9.7608	3.2727	0.1	-2.9524e-003
6079	9.7608	3.4545	0.1	-3.024e-003
6080	9.7608	3.6364	0.1	-3.1288e-003
6081	9.7608	3.8182	0.1	-3.2676e-003
6082	9.7608	4.	0.1	-3.4374e-003
6083	9.7608	4.1818	0.1	-3.6347e-003
6084	9.7608	4.3636	0.1	-3.8574e-003
6085	9.7608	4.5455	0.1	-4.1051e-003
6086	9.7608	4.7273	0.1	-4.3641e-003
6087	9.7608	4.9091	0.1	-4.6693e-003
6088	9.7608	5.0909	0.1	-4.8739e-003
6089	9.7608	5.2727	0.1	-5.6108e-003
6090	9.7608	5.4545	0.1	-4.3996e-003
6091	9.7608	5.6364	0.1	-0.63175
6092	9.7608	5.8182	0.1	-6.2507
6093	9.945	0.18182	0.1	-6.9041
6094	9.945	0.36364	0.1	-1.6126
6095	9.945	0.54545	0.1	-4.0674e-003
6096	9.945	0.72727	0.1	-5.3354e-003
6097	9.945	0.90909	0.1	-4.756e-003
6098	9.945	1.0909	0.1	-4.6149e-003
6099	9.945	1.2727	0.1	-4.3737e-003
6100	9.945	1.4545	0.1	-4.1667e-003
6101	9.945	1.6364	0.1	-3.9637e-003
6102	9.945	1.8182	0.1	-3.7803e-003
6103	9.945	2.	0.1	-3.6164e-003
6104	9.945	2.1818	0.1	-3.4742e-003
6105	9.945	2.3636	0.1	-3.3574e-003
6106	9.945	2.5455	0.1	-3.2691e-003
6107	9.945	2.7273	0.1	-3.2088e-003
6108	9.945	2.9091	0.1	-3.1785e-003
6109	9.945	3.0909	0.1	-3.1781e-003
6110	9.945	3.2727	0.1	-3.2088e-003
6111	9.945	3.4545	0.1	-3.2694e-003
6112	9.945	3.6364	0.1	-3.3576e-003
6113	9.945	3.8182	0.1	-3.474e-003
6114	9.945	4.	0.1	-3.6164e-003
6115	9.945	4.1818	0.1	-3.7799e-003
6116	9.945	4.3636	0.1	-3.9632e-003
6117	9.945	4.5455	0.1	-4.1662e-003
6118	9.945	4.7273	0.1	-4.3731e-003
6119	9.945	4.9091	0.1	-4.6146e-003
6120	9.945	5.0909	0.1	-4.7547e-003
6121	9.945	5.2727	0.1	-5.3344e-003
6122	9.945	5.4545	0.1	-4.0668e-003
6123	9.945	5.6364	0.1	-1.6126
6124	9.945	5.8182	0.1	-6.9041
6125	10.129	0.18182	0.1	-7.523
6126	10.129	0.36364	0.1	-2.5352
6127	10.129	0.54545	0.1	-4.5111e-003
6128	10.129	0.72727	0.1	-5.3577e-003
6129	10.129	0.90909	0.1	-4.8267e-003
6130	10.129	1.0909	0.1	-4.7028e-003
6131	10.129	1.2727	0.1	-4.4975e-003
6132	10.129	1.4545	0.1	-4.3232e-003
6133	10.129	1.6364	0.1	-4.1527e-003
6134	10.129	1.8182	0.1	-3.9982e-003
6135	10.129	2.	0.1	-3.8606e-003
6136	10.129	2.1818	0.1	-3.7412e-003
6137	10.129	2.3636	0.1	-3.6423e-003
6138	10.129	2.5455	0.1	-3.5681e-003
6139	10.129	2.7273	0.1	-3.5164e-003
6140	10.129	2.9091	0.1	-3.4901e-003
6141	10.129	3.0909	0.1	-3.4904e-003
6142	10.129	3.2727	0.1	-3.5165e-003
6143	10.129	3.4545	0.1	-3.5674e-003
6144	10.129	3.6364	0.1	-3.6418e-003
6145	10.129	3.8182	0.1	-3.74e-003
6146	10.129	4.	0.1	-3.86e-003
6147	10.129	4.1818	0.1	-3.9979e-003
6148	10.129	4.3636	0.1	-4.1522e-003
6149	10.129	4.5455	0.1	-4.3221e-003
6150	10.129	4.7273	0.1	-4.4962e-003
6151	10.129	4.9091	0.1	-4.7018e-003
6152	10.129	5.0909	0.1	-4.825e-003
6153	10.129	5.2727	0.1	-5.3563e-003
6154	10.129	5.4545	0.1	-4.5106e-003
6155	10.129	5.6364	0.1	-2.5352
6156	10.129	5.8182	0.1	-7.5229
6157	10.313	0.18182	0.1	-8.1092
6158	10.313	0.36364	0.1	-3.401
6159	10.313	0.54545	0.1	-3.0648e-002
6160	10.313	0.72727	0.1	-5.7696e-003
6161	10.313	0.90909	0.1	-5.0239e-003
6162	10.313	1.0909	0.1	-4.8348e-003
6163	10.313	1.2727	0.1	-4.6243e-003
6164	10.313	1.4545	0.1	-4.459e-003
6165	10.313	1.6364	0.1	-4.3048e-003
6166	10.313	1.8182	0.1	-4.1685e-003
6167	10.313	2.	0.1	-4.0485e-003
6168	10.313	2.1818	0.1	-3.9443e-003
6169	10.313	2.3636	0.1	-3.8596e-003
6170	10.313	2.5455	0.1	-3.7958e-003
6171	10.313	2.7273	0.1	-3.7516e-003
6172	10.313	2.9091	0.1	-3.7294e-003
6173	10.313	3.0909	0.1	-3.7292e-003
6174	10.313	3.2727	0.1	-3.7515e-003
6175	10.313	3.4545	0.1	-3.7957e-003
6176	10.313	3.6364	0.1	-3.8593e-003
6177	10.313	3.8182	0.1	-3.944e-003
6178	10.313	4.	0.1	-4.0481e-003
6179	10.313	4.1818	0.1	-4.168e-003
6180	10.313	4.3636	0.1	-4.3043e-003
6181	10.313	4.5455	0.1	-4.4585e-003
6182	10.313	4.7273	0.1	-4.6237e-003
6183	10.313	4.9091	0.1	-4.8346e-003
6184	10.313	5.0909	0.1	-5.0225e-003
6185	10.313	5.2727	0.1	-5.7684e-003
6186	10.313	5.4545	0.1	-3.0646e-002
6187	10.313	5.6364	0.1	-3.401
6188	10.313	5.8182	0.1	-8.1092
6189	10.498	0.18182	0.1	-8.6651
6190	10.498	0.36364	0.1	-4.2139
6191	10.498	0.54545	0.1	-1.0376
6192	10.498	0.72727	0.1	-7.3616e-003
6193	10.498	0.90909	0.1	-5.5038e-003
6194	10.498	1.0909	0.1	-5.0825e-003
6195	10.498	1.2727	0.1	-4.7997e-003
6196	10.498	1.4545	0.1	-4.6074e-003
6197	10.498	1.6364	0.1	-4.4479e-003
6198	10.498	1.8182	0.1	-4.3145e-003
6199	10.498	2.	0.1	-4.2016e-003
6200	10.498	2.1818	0.1	-4.1069e-003
6201	10.498	2.3636	0.1	-4.0302e-003
6202	10.498	2.5455	0.1	-3.9733e-003
6203	10.498	2.7273	0.1	-3.9342e-003
6204	10.498	2.9091	0.1	-3.9142e-003
6205	10.498	3.0909	0.1	-3.9142e-003
6206	10.498	3.2727	0.1	-3.9341e-003
6207	10.498	3.4545	0.1	-3.973e-003
6208	10.498	3.6364	0.1	-4.0299e-003
6209	10.498	3.8182	0.1	-4.1064e-003
6210	10.498	4.	0.1	-4.2013e-003
6211	10.498	4.1818	0.1	-4.3141e-003
6212	10.498	4.3636	0.1	-4.4468e-003
6213	10.498	4.5455	0.1	-4.6067e-003
6214	10.498	4.7273	0.1	-4.7988e-003
6215	10.498	4.9091	0.1	-5.0818e-003
6216	10.498	5.0909	0.1	-5.5028e-003
6217	10.498	5.2727	0.1	-7.3603e-003
6218	10.498	5.4545	0.1	-1.0376
6219	10.498	5.6364	0.1	-4.2138
6220	10.498	5.8182	0.1	-8.665
6221	10.682	0.18182	0.1	-9.1929
6222	10.682	0.36364	0.1	-4.9782
6223	10.682	0.54545	0.1	-2.0571
6224	10.682	0.72727	0.1	-1.6299e-002
6225	10.682	0.90909	0.1	-6.7834e-003
6226	10.682	1.0909	0.1	-5.7027e-003
6227	10.682	1.2727	0.1	-5.22e-003
6228	10.682	1.4545	0.1	-4.944e-003
6229	10.682	1.6364	0.1	-4.7459e-003
6230	10.682	1.8182	0.1	-4.5964e-003
6231	10.682	2.	0.1	-4.4781e-003
6232	10.682	2.1818	0.1	-4.3818e-003
6233	10.682	2.3636	0.1	-4.3076e-003
6234	10.682	2.5455	0.1	-4.2533e-003
6235	10.682	2.7273	0.1	-4.2166e-003
6236	10.682	2.9091	0.1	-4.1976e-003
6237	10.682	3.0909	0.1	-4.1976e-003
6238	10.682	3.2727	0.1	-4.2162e-003
6239	10.682	3.4545	0.1	-4.2533e-003
6240	10.682	3.6364	0.1	-4.3075e-003
6241	10.682	3.8182	0.1	-4.3818e-003
6242	10.682	4.	0.1	-4.478e-003
6243	10.682	4.1818	0.1	-4.5958e-003
6244	10.682	4.3636	0.1	-4.7455e-003
6245	10.682	4.5455	0.1	-4.9434e-003
6246	10.682	4.7273	0.1	-5.2197e-003
6247	10.682	4.9091	0.1	-5.7018e-003
6248	10.682	5.0909	0.1	-6.7813e-003
6249	10.682	5.2727	0.1	-1.6298e-002
6250	10.682	5.4545	0.1	-2.0571
6251	10.682	5.6364	0.1	-4.9782
6252	10.682	5.8182	0.1	-9.1929
6253	10.866	0.18182	0.1	-9.6945
6254	10.866	0.36364	0.1	-5.6976
6255	10.866	0.54545	0.1	-3.0135
6256	10.866	0.72727	0.1	-0.5225
6257	10.866	0.90909	0.1	-1.0063e-002
6258	10.866	1.0909	0.1	-6.7859e-003
6259	10.866	1.2727	0.1	-5.8161e-003
6260	10.866	1.4545	0.1	-5.3493e-003
6261	10.866	1.6364	0.1	-5.0615e-003
6262	10.866	1.8182	0.1	-4.8659e-003
6263	10.866	2.	0.1	-4.7223e-003
6264	10.866	2.1818	0.1	-4.6141e-003
6265	10.866	2.3636	0.1	-4.5327e-003
6266	10.866	2.5455	0.1	-4.475e-003
6267	10.866	2.7273	0.1	-4.4374e-003
6268	10.866	2.9091	0.1	-4.4182e-003
6269	10.866	3.0909	0.1	-4.418e-003
6270	10.866	3.2727	0.1	-4.4376e-003
6271	10.866	3.4545	0.1	-4.4751e-003
6272	10.866	3.6364	0.1	-4.5327e-003
6273	10.866	3.8182	0.1	-4.6138e-003
6274	10.866	4.	0.1	-4.722e-003
6275	10.866	4.1818	0.1	-4.8653e-003
6276	10.866	4.3636	0.1	-5.061e-003
6277	10.866	4.5455	0.1	-5.3483e-003
6278	10.866	4.7273	0.1	-5.8153e-003
6279	10.866	4.9091	0.1	-6.7852e-003
6280	10.866	5.0909	0.1	-1.0061e-002
6281	10.866	5.2727	0.1	-0.5225
6282	10.866	5.4545	0.1	-3.0135
6283	10.866	5.6364	0.1	-5.6976
6284	10.866	5.8182	0.1	-9.6945
6285	11.05	0.18182	0.1	-10.172
6286	11.05	0.36364	0.1	-6.3755
6287	11.05	0.54545	0.1	-3.9114
6288	11.05	0.72727	0.1	-1.6212
6289	11.05	0.90909	0.1	-2.7848e-002
6290	11.05	1.0909	0.1	-9.1149e-003
6291	11.05	1.2727	0.1	-6.8005e-003
6292	11.05	1.4545	0.1	-5.9117e-003
6293	11.05	1.6364	0.1	-5.438e-003
6294	11.05	1.8182	0.1	-5.1454e-003
6295	11.05	2.	0.1	-4.9489e-003
6296	11.05	2.1818	0.1	-4.8089e-003
6297	11.05	2.3636	0.1	-4.7097e-003
6298	11.05	2.5455	0.1	-4.6418e-003
6299	11.05	2.7273	0.1	-4.5978e-003
6300	11.05	2.9091	0.1	-4.5762e-003
6301	11.05	3.0909	0.1	-4.5763e-003
6302	11.05	3.2727	0.1	-4.5977e-003
6303	11.05	3.4545	0.1	-4.6416e-003
6304	11.05	3.6364	0.1	-4.7096e-003
6305	11.05	3.8182	0.1	-4.8086e-003
6306	11.05	4.	0.1	-4.9484e-003
6307	11.05	4.1818	0.1	-5.145e-003
6308	11.05	4.3636	0.1	-5.4375e-003
6309	11.05	4.5455	0.1	-5.9113e-003
6310	11.05	4.7273	0.1	-6.7997e-003
6311	11.05	4.9091	0.1	-9.1143e-003
6312	11.05	5.0909	0.1	-2.7847e-002
6313	11.05	5.2727	0.1	-1.6212
6314	11.05	5.4545	0.1	-3.9114
6315	11.05	5.6364	0.1	-6.3754
6316	11.05	5.8182	0.1	-10.172
6317	11.234	0.18182	0.1	-10.627
6318	11.234	0.36364	0.1	-7.0157
6319	11.234	0.54545	0.1	-4.7561
6320	11.234	0.72727	0.1	-2.6622
6321	11.234	0.90909	0.1	-0.6898
6322	11.234	1.0909	0.1	-1.6983e-002
6323	11.234	1.2727	0.1	-8.9642e-003
6324	11.234	1.4545	0.1	-7.e-003
6325	11.234	1.6364	0.1	-6.1275e-003
6326	11.234	1.8182	0.1	-5.6441e-003
6327	11.234	2.	0.1	-5.3439e-003
6328	11.234	2.1818	0.1	-5.1438e-003
6329	11.234	2.3636	0.1	-5.0079e-003
6330	11.234	2.5455	0.1	-4.918e-003
6331	11.234	2.7273	0.1	-4.8617e-003
6332	11.234	2.9091	0.1	-4.8348e-003
6333	11.234	3.0909	0.1	-4.8344e-003
6334	11.234	3.2727	0.1	-4.862e-003
6335	11.234	3.4545	0.1	-4.9178e-003
6336	11.234	3.6364	0.1	-5.0078e-003
6337	11.234	3.8182	0.1	-5.1436e-003
6338	11.234	4.	0.1	-5.3433e-003
6339	11.234	4.1818	0.1	-5.6441e-003
6340	11.234	4.3636	0.1	-6.1266e-003
6341	11.234	4.5455	0.1	-6.9994e-003
6342	11.234	4.7273	0.1	-8.9635e-003
6343	11.234	4.9091	0.1	-1.6983e-002
6344	11.234	5.0909	0.1	-0.68981
6345	11.234	5.2727	0.1	-2.6622
6346	11.234	5.4545	0.1	-4.7561
6347	11.234	5.6364	0.1	-7.0157
6348	11.234	5.8182	0.1	-10.627
6349	11.418	0.18182	0.1	-11.061
6350	11.418	0.36364	0.1	-7.6211
6351	11.418	0.54545	0.1	-5.5516
6352	11.418	0.72727	0.1	-3.6418
6353	11.418	0.90909	0.1	-1.8335
6354	11.418	1.0909	0.1	-0.20632
6355	11.418	1.2727	0.1	-1.5098e-002
6356	11.418	1.4545	0.1	-9.0779e-003
6357	11.418	1.6364	0.1	-7.1962e-003
6358	11.418	1.8182	0.1	-6.304e-003
6359	11.418	2.	0.1	-5.7996e-003
6360	11.418	2.1818	0.1	-5.4849e-003
6361	11.418	2.3636	0.1	-5.2823e-003
6362	11.418	2.5455	0.1	-5.1516e-003
6363	11.418	2.7273	0.1	-5.0732e-003
6364	11.418	2.9091	0.1	-5.035e-003
6365	11.418	3.0909	0.1	-5.0352e-003
6366	11.418	3.2727	0.1	-5.0729e-003
6367	11.418	3.4545	0.1	-5.152e-003
6368	11.418	3.6364	0.1	-5.2821e-003
6369	11.418	3.8182	0.1	-5.4849e-003
6370	11.418	4.	0.1	-5.799e-003
6371	11.418	4.1818	0.1	-6.3037e-003
6372	11.418	4.3636	0.1	-7.1958e-003
6373	11.418	4.5455	0.1	-9.0769e-003
6374	11.418	4.7273	0.1	-1.5097e-002
6375	11.418	4.9091	0.1	-0.20632
6376	11.418	5.0909	0.1	-1.8335
6377	11.418	5.2727	0.1	-3.6418
6378	11.418	5.4545	0.1	-5.5516
6379	11.418	5.6364	0.1	-7.6211
6380	11.418	5.8182	0.1	-11.061
6381	11.602	0.18182	0.1	-11.477
6382	11.602	0.36364	0.1	-8.1946
6383	11.602	0.54545	0.1	-6.3024
6384	11.602	0.72727	0.1	-4.5645
6385	11.602	0.90909	0.1	-2.9191
6386	11.602	1.0909	0.1	-1.376
6387	11.602	1.2727	0.1	-0.10302
6388	11.602	1.4545	0.1	-1.526e-002
6389	11.602	1.6364	0.1	-9.3893e-003
6390	11.602	1.8182	0.1	-7.4021e-003
6391	11.602	2.	0.1	-6.4396e-003
6392	11.602	2.1818	0.1	-5.8939e-003
6393	11.602	2.3636	0.1	-5.5614e-003
6394	11.602	2.5455	0.1	-5.3571e-003
6395	11.602	2.7273	0.1	-5.2363e-003
6396	11.602	2.9091	0.1	-5.1794e-003
6397	11.602	3.0909	0.1	-5.18e-003
6398	11.602	3.2727	0.1	-5.2364e-003
6399	11.602	3.4545	0.1	-5.357e-003
6400	11.602	3.6364	0.1	-5.5616e-003
6401	11.602	3.8182	0.1	-5.8936e-003
6402	11.602	4.	0.1	-6.4394e-003
6403	11.602	4.1818	0.1	-7.4017e-003
6404	11.602	4.3636	0.1	-9.3888e-003
6405	11.602	4.5455	0.1	-1.5259e-002
6406	11.602	4.7273	0.1	-0.10302
6407	11.602	4.9091	0.1	-1.3761
6408	11.602	5.0909	0.1	-2.9191
6409	11.602	5.2727	0.1	-4.5645
6410	11.602	5.4545	0.1	-6.3024
6411	11.602	5.6364	0.1	-8.1946
6412	11.602	5.8182	0.1	-11.477
6413	11.787	0.18182	0.1	-11.875
6414	11.787	0.36364	0.1	-8.7395
6415	11.787	0.54545	0.1	-7.0129
6416	11.787	0.72727	0.1	-5.4359
6417	11.787	0.90909	0.1	-3.9441
6418	11.787	1.0909	0.1	-2.5431
6419	11.787	1.2727	0.1	-1.2447
6420	11.787	1.4545	0.1	-0.14814
6421	11.787	1.6364	0.1	-1.7647e-002
6422	11.787	1.8182	0.1	-1.0206e-002
6423	11.787	2.	0.1	-7.8181e-003
6424	11.787	2.1818	0.1	-6.6933e-003
6425	11.787	2.3636	0.1	-6.076e-003
6426	11.787	2.5455	0.1	-5.7189e-003
6427	11.787	2.7273	0.1	-5.5164e-003
6428	11.787	2.9091	0.1	-5.4243e-003
6429	11.787	3.0909	0.1	-5.424e-003
6430	11.787	3.2727	0.1	-5.5163e-003
6431	11.787	3.4545	0.1	-5.7186e-003
6432	11.787	3.6364	0.1	-6.076e-003
6433	11.787	3.8182	0.1	-6.693e-003
6434	11.787	4.	0.1	-7.8175e-003
6435	11.787	4.1818	0.1	-1.0206e-002
6436	11.787	4.3636	0.1	-1.7646e-002
6437	11.787	4.5455	0.1	-0.14814
6438	11.787	4.7273	0.1	-1.2447
6439	11.787	4.9091	0.1	-2.5431
6440	11.787	5.0909	0.1	-3.9441
6441	11.787	5.2727	0.1	-5.4359
6442	11.787	5.4545	0.1	-7.0129
6443	11.787	5.6364	0.1	-8.7395
6444	11.787	5.8182	0.1	-11.875
6445	11.971	0.18182	0.1	-12.257
6446	11.971	0.36364	0.1	-9.258
6447	11.971	0.54545	0.1	-7.6864
6448	11.971	0.72727	0.1	-6.2603
6449	11.971	0.90909	0.1	-4.913
6450	11.971	1.0909	0.1	-3.6482
6451	11.971	1.2727	0.1	-2.4737
6452	11.971	1.4545	0.1	-1.398
6453	11.971	1.6364	0.1	-0.442
6454	11.971	1.8182	0.1	-2.8993e-002
6455	11.971	2.	0.1	-1.2208e-002
6456	11.971	2.1818	0.1	-8.4896e-003
6457	11.971	2.3636	0.1	-6.9598e-003
6458	11.971	2.5455	0.1	-6.1934e-003
6459	11.971	2.7273	0.1	-5.7943e-003
6460	11.971	2.9091	0.1	-5.6209e-003
6461	11.971	3.0909	0.1	-5.6203e-003
6462	11.971	3.2727	0.1	-5.7944e-003
6463	11.971	3.4545	0.1	-6.1933e-003
6464	11.971	3.6364	0.1	-6.9591e-003
6465	11.971	3.8182	0.1	-8.4899e-003
6466	11.971	4.	0.1	-1.2207e-002
6467	11.971	4.1818	0.1	-2.8994e-002
6468	11.971	4.3636	0.1	-0.44201
6469	11.971	4.5455	0.1	-1.398
6470	11.971	4.7273	0.1	-2.4737
6471	11.971	4.9091	0.1	-3.6483
6472	11.971	5.0909	0.1	-4.913
6473	11.971	5.2727	0.1	-6.2603
6474	11.971	5.4545	0.1	-7.6864
6475	11.971	5.6364	0.1	-9.258
6476	11.971	5.8182	0.1	-12.257
6477	12.155	0.18182	0.1	-12.625
6478	12.155	0.36364	0.1	-9.7526
6479	12.155	0.54545	0.1	-8.3266
6480	12.155	0.72727	0.1	-7.0424
6481	12.155	0.90909	0.1	-5.8312
6482	12.155	1.0909	0.1	-4.6953
6483	12.155	1.2727	0.1	-3.6409
6484	12.155	1.4545	0.1	-2.6742
6485	12.155	1.6364	0.1	-1.8009
6486	12.155	1.8182	0.1	-1.0273
6487	12.155	2.	0.1	-0.36623
6488	12.155	2.1818	0.1	-3.0012e-002
6489	12.155	2.3636	0.1	-1.112e-002
6490	12.155	2.5455	0.1	-7.5664e-003
6491	12.155	2.7273	0.1	-6.2724e-003
6492	12.155	2.9091	0.1	-5.7895e-003
6493	12.155	3.0909	0.1	-5.789e-003
6494	12.155	3.2727	0.1	-6.2728e-003
6495	12.155	3.4545	0.1	-7.566e-003
6496	12.155	3.6364	0.1	-1.112e-002
6497	12.155	3.8182	0.1	-3.0013e-002
6498	12.155	4.	0.1	-0.36624
6499	12.155	4.1818	0.1	-1.0273
6500	12.155	4.3636	0.1	-1.8009
6501	12.155	4.5455	0.1	-2.6742
6502	12.155	4.7273	0.1	-3.6409
6503	12.155	4.9091	0.1	-4.6953
6504	12.155	5.0909	0.1	-5.8312
6505	12.155	5.2727	0.1	-7.0424
6506	12.155	5.4545	0.1	-8.3266
6507	12.155	5.6364	0.1	-9.7526
6508	12.155	5.8182	0.1	-12.625
6509	12.339	0.18182	0.1	-12.979
6510	12.339	0.36364	0.1	-10.226
6511	12.339	0.54545	0.1	-8.9373
6512	12.339	0.72727	0.1	-7.7869
6513	12.339	0.90909	0.1	-6.7043
6514	12.339	1.0909	0.1	-5.6903
6515	12.339	1.2727	0.1	-4.7501
6516	12.339	1.4545	0.1	-3.8888
6517	12.339	1.6364	0.1	-3.1108
6518	12.339	1.8182	0.1	-2.4205
6519	12.339	2.	0.1	-1.8215
6520	12.339	2.1818	0.1	-1.317
6521	12.339	2.3636	0.1	-0.90979
6522	12.339	2.5455	0.1	-0.6018
6523	12.339	2.7273	0.1	-0.39459
6524	12.339	2.9091	0.1	-0.28982
6525	12.339	3.0909	0.1	-0.28982
6526	12.339	3.2727	0.1	-0.3946
6527	12.339	3.4545	0.1	-0.6018
6528	12.339	3.6364	0.1	-0.90979
6529	12.339	3.8182	0.1	-1.3171
6530	12.339	4.	0.1	-1.8215
6531	12.339	4.1818	0.1	-2.4205
6532	12.339	4.3636	0.1	-3.1108
6533	12.339	4.5455	0.1	-3.8888
6534	12.339	4.7273	0.1	-4.7501
6535	12.339	4.9091	0.1	-5.6903
6536	12.339	5.0909	0.1	-6.7043
6537	12.339	5.2727	0.1	-7.7869
6538	12.339	5.4545	0.1	-8.9373
6539	12.339	5.6364	0.1	-10.226
6540	12.339	5.8182	0.1	-12.979
6541	12.523	0.18182	0.1	-13.322
6542	12.523	0.36364	0.1	-10.68
6543	12.523	0.54545	0.1	-9.5212
6544	12.523	0.72727	0.1	-8.4977
6545	12.523	0.90909	0.1	-7.5369
6546	12.523	1.0909	0.1	-6.6386
6547	12.523	1.2727	0.1	-5.807
6548	12.523	1.4545	0.1	-5.0461
6549	12.523	1.6364	0.1	-4.3597
6550	12.523	1.8182	0.1	-3.7511
6551	12.523	2.	0.1	-3.2234
6552	12.523	2.1818	0.1	-2.7793
6553	12.523	2.3636	0.1	-2.4211
6554	12.523	2.5455	0.1	-2.1506
6555	12.523	2.7273	0.1	-1.9694
6556	12.523	2.9091	0.1	-1.8785
6557	12.523	3.0909	0.1	-1.8785
6558	12.523	3.2727	0.1	-1.9694
6559	12.523	3.4545	0.1	-2.1506
6560	12.523	3.6364	0.1	-2.4211
6561	12.523	3.8182	0.1	-2.7793
6562	12.523	4.	0.1	-3.2234
6563	12.523	4.1818	0.1	-3.7511
6564	12.523	4.3636	0.1	-4.3597
6565	12.523	4.5455	0.1	-5.0461
6566	12.523	4.7273	0.1	-5.807
6567	12.523	4.9091	0.1	-6.6386
6568	12.523	5.0909	0.1	-7.5369
6569	12.523	5.2727	0.1	-8.4977
6570	12.523	5.4545	0.1	-9.5212
6571	12.523	5.6364	0.1	-10.68
6572	12.523	5.8182	0.1	-13.322
6573	12.708	0.18182	0.1	-13.653
6574	12.708	0.36364	0.1	-11.117
6575	12.708	0.54545	0.1	-10.081
6576	12.708	0.72727	0.1	-9.1786
6577	12.708	0.90909	0.1	-8.3338
6578	12.708	1.0909	0.1	-7.5458
6579	12.708	1.2727	0.1	-6.8177
6580	12.708	1.4545	0.1	-6.1527
6581	12.708	1.6364	0.1	-5.5537
6582	12.708	1.8182	0.1	-5.0234
6583	12.708	2.	0.1	-4.5642
6584	12.708	2.1818	0.1	-4.1781
6585	12.708	2.3636	0.1	-3.867
6586	12.708	2.5455	0.1	-3.6323
6587	12.708	2.7273	0.1	-3.4752
6588	12.708	2.9091	0.1	-3.3964
6589	12.708	3.0909	0.1	-3.3964
6590	12.708	3.2727	0.1	-3.4752
6591	12.708	3.4545	0.1	-3.6323
6592	12.708	3.6364	0.1	-3.867
6593	12.708	3.8182	0.1	-4.1781
6594	12.708	4.	0.1	-4.5642
6595	12.708	4.1818	0.1	-5.0234
6596	12.708	4.3636	0.1	-5.5538
6597	12.708	4.5455	0.1	-6.1527
6598	12.708	4.7273	0.1	-6.8177
6599	12.708	4.9091	0.1	-7.5458
6600	12.708	5.0909	0.1	-8.3338
6601	12.708	5.2727	0.1	-9.1786
6602	12.708	5.4545	0.1	-10.081
6603	12.708	5.6364	0.1	-11.117
6604	12.708	5.8182	0.1	-13.653
6605	12.892	0.18182	0.1	-13.975
6606	12.892	0.36364	0.1	-11.539
6607	12.892	0.54545	0.1	-10.621
6608	12.892	0.72727	0.1	-9.8337
6609	12.892	0.90909	0.1	-9.1
6610	12.892	1.0909	0.1	-8.4176
6611	12.892	1.2727	0.1	-7.7887
6612	12.892	1.4545	0.1	-7.2156
6613	12.892	1.6364	0.1	-6.7005
6614	12.892	1.8182	0.1	-6.2452
6615	12.892	2.	0.1	-5.8516
6616	12.892	2.1818	0.1	-5.5211
6617	12.892	2.3636	0.1	-5.2551
6618	12.892	2.5455	0.1	-5.0546
6619	12.892	2.7273	0.1	-4.9205
6620	12.892	2.9091	0.1	-4.8533
6621	12.892	3.0909	0.1	-4.8533
6622	12.892	3.2727	0.1	-4.9205
6623	12.892	3.4545	0.1	-5.0547
6624	12.892	3.6364	0.1	-5.2551
6625	12.892	3.8182	0.1	-5.5212
6626	12.892	4.	0.1	-5.8516
6627	12.892	4.1818	0.1	-6.2453
6628	12.892	4.3636	0.1	-6.7005
6629	12.892	4.5455	0.1	-7.2156
6630	12.892	4.7273	0.1	-7.7887
6631	12.892	4.9091	0.1	-8.4176
6632	12.892	5.0909	0.1	-9.1
6633	12.892	5.2727	0.1	-9.8337
6634	12.892	5.4545	0.1	-10.621
6635	12.892	5.6364	0.1	-11.539
6636	12.892	5.8182	0.1	-13.975
6637	13.076	0.18182	0.1	-14.288
6638	13.076	0.36364	0.1	-11.947
6639	13.076	0.54545	0.1	-11.143
6640	13.076	0.72727	0.1	-10.466
6641	13.076	0.90909	0.1	-9.8395
6642	13.076	1.0909	0.1	-9.2587
6643	13.076	1.2727	0.1	-8.7254
6644	13.076	1.4545	0.1	-8.2409
6645	13.076	1.6364	0.1	-7.8066
6646	13.076	1.8182	0.1	-7.4238
6647	13.076	2.	0.1	-7.0934
6648	13.076	2.1818	0.1	-6.8165
6649	13.076	2.3636	0.1	-6.5939
6650	13.076	2.5455	0.1	-6.4264
6651	13.076	2.7273	0.1	-6.3144
6652	13.076	2.9091	0.1	-6.2583
6653	13.076	3.0909	0.1	-6.2583
6654	13.076	3.2727	0.1	-6.3144
6655	13.076	3.4545	0.1	-6.4264
6656	13.076	3.6364	0.1	-6.5939
6657	13.076	3.8182	0.1	-6.8165
6658	13.076	4.	0.1	-7.0934
6659	13.076	4.1818	0.1	-7.4238
6660	13.076	4.3636	0.1	-7.8067
6661	13.076	4.5455	0.1	-8.241
6662	13.076	4.7273	0.1	-8.7254
6663	13.076	4.9091	0.1	-9.2587
6664	13.076	5.0909	0.1	-9.8395
6665	13.076	5.2727	0.1	-10.466
6666	13.076	5.4545	0.1	-11.143
6667	13.076	5.6364	0.1	-11.947
6668	13.076	5.8182	0.1	-14.288
6669	13.26	0.18182	0.1	-14.593
6670	13.26	0.36364	0.1	-12.344
6671	13.26	0.54545	0.1	-11.649
6672	13.26	0.72727	0.1	-11.08
6673	13.26	0.90909	0.1	-10.557
6674	13.26	1.0909	0.1	-10.074
6675	13.26	1.2727	0.1	-9.6335
6676	13.26	1.4545	0.1	-9.2349
6677	13.26	1.6364	0.1	-8.879
6678	13.26	1.8182	0.1	-8.5663
6679	13.26	2.	0.1	-8.2972
6680	13.26	2.1818	0.1	-8.0723
6681	13.26	2.3636	0.1	-7.8919
6682	13.26	2.5455	0.1	-7.7562
6683	13.26	2.7273	0.1	-7.6657
6684	13.26	2.9091	0.1	-7.6203
6685	13.26	3.0909	0.1	-7.6203
6686	13.26	3.2727	0.1	-7.6657
6687	13.26	3.4545	0.1	-7.7562
6688	13.26	3.6364	0.1	-7.8919
6689	13.26	3.8182	0.1	-8.0723
6690	13.26	4.	0.1	-8.2973
6691	13.26	4.1818	0.1	-8.5663
6692	13.26	4.3636	0.1	-8.879
6693	13.26	4.5455	0.1	-9.235
6694	13.26	4.7273	0.1	-9.6336
6695	13.26	4.9091	0.1	-10.074
6696	13.26	5.0909	0.1	-10.557
6697	13.26	5.2727	0.1	-11.08
6698	13.26	5.4545	0.1	-11.649
6699	13.26	5.6364	0.1	-12.344
6700	13.26	5.8182	0.1	-14.593
6701	13.444	0.18182	0.1	-14.89
6702	13.444	0.36364	0.1	-12.732
6703	13.444	0.54545	0.1	-12.143
6704	13.444	0.72727	0.1	-11.678
6705	13.444	0.90909	0.1	-11.256
6706	13.444	1.0909	0.1	-10.869
6707	13.444	1.2727	0.1	-10.519
6708	13.444	1.4545	0.1	-10.204
6709	13.444	1.6364	0.1	-9.9246
6710	13.444	1.8182	0.1	-9.6803
6711	13.444	2.	0.1	-9.4711
6712	13.444	2.1818	0.1	-9.2968
6713	13.444	2.3636	0.1	-9.1575
6714	13.444	2.5455	0.1	-9.053
6715	13.444	2.7273	0.1	-8.9833
6716	13.444	2.9091	0.1	-8.9485
6717	13.444	3.0909	0.1	-8.9485
6718	13.444	3.2727	0.1	-8.9833
6719	13.444	3.4545	0.1	-9.053
6720	13.444	3.6364	0.1	-9.1575
6721	13.444	3.8182	0.1	-9.2969
6722	13.444	4.	0.1	-9.4711
6723	13.444	4.1818	0.1	-9.6803
6724	13.444	4.3636	0.1	-9.9246
6725	13.444	4.5455	0.1	-10.204
6726	13.444	4.7273	0.1	-10.519
6727	13.444	4.9091	0.1	-10.869
6728	13.444	5.0909	0.1	-11.256
6729	13.444	5.2727	0.1	-11.678
6730	13.444	5.4545	0.1	-12.143
6731	13.444	5.6364	0.1	-12.731
6732	13.444	5.8182	0.1	-14.89
6733	13.628	0.18182	0.1	-15.182
6734	13.628	0.36364	0.1	-13.111
6735	13.628	0.54545	0.1	-12.626
6736	13.628	0.72727	0.1	-12.264
6737	13.628	0.90909	0.1	-11.94
6738	13.628	1.0909	0.1	-11.648
6739	13.628	1.2727	0.1	-11.387
6740	13.628	1.4545	0.1	-11.154
6741	13.628	1.6364	0.1	-10.95
6742	13.628	1.8182	0.1	-10.773
6743	13.628	2.	0.1	-10.622
6744	13.628	2.1818	0.1	-10.498
6745	13.628	2.3636	0.1	-10.399
6746	13.628	2.5455	0.1	-10.325
6747	13.628	2.7273	0.1	-10.275
6748	13.628	2.9091	0.1	-10.251
6749	13.628	3.0909	0.1	-10.251
6750	13.628	3.2727	0.1	-10.275
6751	13.628	3.4545	0.1	-10.325
6752	13.628	3.6364	0.1	-10.399
6753	13.628	3.8182	0.1	-10.498
6754	13.628	4.	0.1	-10.622
6755	13.628	4.1818	0.1	-10.773
6756	13.628	4.3636	0.1	-10.95
6757	13.628	4.5455	0.1	-11.154
6758	13.628	4.7273	0.1	-11.387
6759	13.628	4.9091	0.1	-11.648
6760	13.628	5.0909	0.1	-11.94
6761	13.628	5.2727	0.1	-12.264
6762	13.628	5.4545	0.1	-12.627
6763	13.628	5.6364	0.1	-13.111
6764	13.628	5.8182	0.1	-15.182
6765	13.813	0.18182	0.1	-15.468
6766	13.813	0.36364	0.1	-13.483
6767	13.813	0.54545	0.1	-13.102
6768	13.813	0.72727	0.1	-12.841
6769	13.813	0.90909	0.1	-12.615
6770	13.813	1.0909	0.1	-12.416
6771	13.813	1.2727	0.1	-12.242
6772	13.813	1.4545	0.1	-12.09
6773	13.813	1.6364	0.1	-11.96
6774	13.813	1.8182	0.1	-11.85
6775	13.813	2.	0.1	-11.757
6776	13.813	2.1818	0.1	-11.682
6777	13.813	2.3636	0.1	-11.623
6778	13.813	2.5455	0.1	-11.579
6779	13.813	2.7273	0.1	-11.55
6780	13.813	2.9091	0.1	-11.536
6781	13.813	3.0909	0.1	-11.536
6782	13.813	3.2727	0.1	-11.55
6783	13.813	3.4545	0.1	-11.579
6784	13.813	3.6364	0.1	-11.623
6785	13.813	3.8182	0.1	-11.682
6786	13.813	4.	0.1	-11.757
6787	13.813	4.1818	0.1	-11.85
6788	13.813	4.3636	0.1	-11.96
6789	13.813	4.5455	0.1	-12.091
6790	13.813	4.7273	0.1	-12.242
6791	13.813	4.9091	0.1	-12.416
6792	13.813	5.0909	0.1	-12.615
6793	13.813	5.2727	0.1	-12.841
6794	13.813	5.4545	0.1	-13.102
6795	13.813	5.6364	0.1	-13.483
6796	13.813	5.8182	0.1	-15.468
6797	13.997	0.18182	0.1	-15.749
6798	13.997	0.36364	0.1	-13.85
6799	13.997	0.54545	0.1	-13.572
6800	13.997	0.72727	0.1	-13.411
6801	13.997	0.90909	0.1	-13.283
6802	13.997	1.0909	0.1	-13.176
6803	13.997	1.2727	0.1	-13.09
6804	13.997	1.4545	0.1	-13.02
6805	13.997	1.6364	0.1	-12.964
6806	13.997	1.8182	0.1	-12.919
6807	13.997	2.	0.1	-12.885
6808	13.997	2.1818	0.1	-12.858
6809	13.997	2.3636	0.1	-12.839
6810	13.997	2.5455	0.1	-12.825
6811	13.997	2.7273	0.1	-12.816
6812	13.997	2.9091	0.1	-12.812
6813	13.997	3.0909	0.1	-12.812
6814	13.997	3.2727	0.1	-12.816
6815	13.997	3.4545	0.1	-12.825
6816	13.997	3.6364	0.1	-12.839
6817	13.997	3.8182	0.1	-12.858
6818	13.997	4.	0.1	-12.885
6819	13.997	4.1818	0.1	-12.919
6820	13.997	4.3636	0.1	-12.964
6821	13.997	4.5455	0.1	-13.02
6822	13.997	4.7273	0.1	-13.09
6823	13.997	4.9091	0.1	-13.177
6824	13.997	5.0909	0.1	-13.283
6825	13.997	5.2727	0.1	-13.411
6826	13.997	5.4545	0.1	-13.572
6827	13.997	5.6364	0.1	-13.85
6828	13.997	5.8182	0.1	-15.749
6829	14.181	0.18182	0.1	-16.026
6830	14.181	0.36364	0.1	-14.214
6831	14.181	0.54545	0.1	-14.038
6832	14.181	0.72727	0.1	-13.979
6833	14.181	0.90909	0.1	-13.948
6834	14.181	1.0909	0.1	-13.935
6835	14.181	1.2727	0.1	-13.936
6836	14.181	1.4545	0.1	-13.947
6837	14.181	1.6364	0.1	-13.965
6838	14.181	1.8182	0.1	-13.987
6839	14.181	2.	0.1	-14.01
6840	14.181	2.1818	0.1	-14.033
6841	14.181	2.3636	0.1	-14.053
6842	14.181	2.5455	0.1	-14.07
6843	14.181	2.7273	0.1	-14.081
6844	14.181	2.9091	0.1	-14.087
6845	14.181	3.0909	0.1	-14.087
6846	14.181	3.2727	0.1	-14.081
6847	14.181	3.4545	0.1	-14.07
6848	14.181	3.6364	0.1	-14.053
6849	14.181	3.8182	0.1	-14.033
6850	14.181	4.	0.1	-14.01
6851	14.181	4.1818	0.1	-13.987
6852	14.181	4.3636	0.1	-13.965
6853	14.181	4.5455	0.1	-13.947
6854	14.181	4.7273	0.1	-13.936
6855	14.181	4.9091	0.1	-13.935
6856	14.181	5.0909	0.1	-13.948
6857	14.181	5.2727	0.1	-13.979
6858	14.181	5.4545	0.1	-14.038
6859	14.181	5.6364	0.1	-14.214
6860	14.181	5.8182	0.1	-16.026
6861	14.365	0.18182	0.1	-16.298
6862	14.365	0.36364	0.1	-14.575
6863	14.365	0.54545	0.1	-14.503
6864	14.365	0.72727	0.1	-14.546
6865	14.365	0.90909	0.1	-14.614
6866	14.365	1.0909	0.1	-14.695
6867	14.365	1.2727	0.1	-14.785
6868	14.365	1.4545	0.1	-14.878
6869	14.365	1.6364	0.1	-14.971
6870	14.365	1.8182	0.1	-15.06
6871	14.365	2.	0.1	-15.142
6872	14.365	2.1818	0.1	-15.214
6873	14.365	2.3636	0.1	-15.274
6874	14.365	2.5455	0.1	-15.321
6875	14.365	2.7273	0.1	-15.353
6876	14.365	2.9091	0.1	-15.369
6877	14.365	3.0909	0.1	-15.369
6878	14.365	3.2727	0.1	-15.353
6879	14.365	3.4545	0.1	-15.321
6880	14.365	3.6364	0.1	-15.274
6881	14.365	3.8182	0.1	-15.214
6882	14.365	4.	0.1	-15.142
6883	14.365	4.1818	0.1	-15.06
6884	14.365	4.3636	0.1	-14.971
6885	14.365	4.5455	0.1	-14.878
6886	14.365	4.7273	0.1	-14.785
6887	14.365	4.9091	0.1	-14.695
6888	14.365	5.0909	0.1	-14.614
6889	14.365	5.2727	0.1	-14.546
6890	14.365	5.4545	0.1	-14.503
6891	14.365	5.6364	0.1	-14.575
6892	14.365	5.8182	0.1	-16.298
6893	14.549	0.18182	0.1	-16.568
6894	14.549	0.36364	0.1	-14.936
6895	14.549	0.54545	0.1	-14.97
6896	14.549	0.72727	0.1	-15.117
6897	14.549	0.90909	0.1	-15.286
6898	14.549	1.0909	0.1	-15.463
6899	14.549	1.2727	0.1	-15.643
6900	14.549	1.4545	0.1	-15.82
6901	14.549	1.6364	0.1	-15.989
6902	14.549	1.8182	0.1	-16.146
6903	14.549	2.	0.1	-16.287
6904	14.549	2.1818	0.1	-16.409
6905	14.549	2.3636	0.1	-16.51
6906	14.549	2.5455	0.1	-16.587
6907	14.549	2.7273	0.1	-16.639
6908	14.549	2.9091	0.1	-16.666
6909	14.549	3.0909	0.1	-16.666
6910	14.549	3.2727	0.1	-16.639
6911	14.549	3.4545	0.1	-16.587
6912	14.549	3.6364	0.1	-16.51
6913	14.549	3.8182	0.1	-16.409
6914	14.549	4.	0.1	-16.287
6915	14.549	4.1818	0.1	-16.146
6916	14.549	4.3636	0.1	-15.989
6917	14.549	4.5455	0.1	-15.82
6918	14.549	4.7273	0.1	-15.643
6919	14.549	4.9091	0.1	-15.463
6920	14.549	5.0909	0.1	-15.286
6921	14.549	5.2727	0.1	-15.117
6922	14.549	5.4545	0.1	-14.97
6923	14.549	5.6364	0.1	-14.936
6924	14.549	5.8182	0.1	-16.568
6925	14.733	0.18182	0.1	-16.835
6926	14.733	0.36364	0.1	-15.297
6927	14.733	0.54545	0.1	-15.44
6928	14.733	0.72727	0.1	-15.694
6929	14.733	0.90909	0.1	-15.966
6930	14.733	1.0909	0.1	-16.242
6931	14.733	1.2727	0.1	-16.514
6932	14.733	1.4545	0.1	-16.777
6933	14.733	1.6364	0.1	-17.024
6934	14.733	1.8182	0.1	-17.25
6935	14.733	2.	0.1	-17.452
6936	14.733	2.1818	0.1	-17.625
6937	14.733	2.3636	0.1	-17.767
6938	14.733	2.5455	0.1	-17.876
6939	14.733	2.7273	0.1	-17.949
6940	14.733	2.9091	0.1	-17.986
6941	14.733	3.0909	0.1	-17.986
6942	14.733	3.2727	0.1	-17.949
6943	14.733	3.4545	0.1	-17.876
6944	14.733	3.6364	0.1	-17.767
6945	14.733	3.8182	0.1	-17.625
6946	14.733	4.	0.1	-17.452
6947	14.733	4.1818	0.1	-17.25
6948	14.733	4.3636	0.1	-17.024
6949	14.733	4.5455	0.1	-16.777
6950	14.733	4.7273	0.1	-16.514
6951	14.733	4.9091	0.1	-16.242
6952	14.733	5.0909	0.1	-15.966
6953	14.733	5.2727	0.1	-15.694
6954	14.733	5.4545	0.1	-15.44
6955	14.733	5.6364	0.1	-15.297
6956	14.733	5.8182	0.1	-16.834
6957	14.917	0.18182	0.1	-17.098
6958	14.917	0.36364	0.1	-15.66
6959	14.917	0.54545	0.1	-15.916
6960	14.917	0.72727	0.1	-16.281
6961	14.917	0.90909	0.1	-16.659
6962	14.917	1.0909	0.1	-17.037
6963	14.917	1.2727	0.1	-17.404
6964	14.917	1.4545	0.1	-17.755
6965	14.917	1.6364	0.1	-18.082
6966	14.917	1.8182	0.1	-18.38
6967	14.917	2.	0.1	-18.644
6968	14.917	2.1818	0.1	-18.87
6969	14.917	2.3636	0.1	-19.054
6970	14.917	2.5455	0.1	-19.195
6971	14.917	2.7273	0.1	-19.289
6972	14.917	2.9091	0.1	-19.337
6973	14.917	3.0909	0.1	-19.337
6974	14.917	3.2727	0.1	-19.289
6975	14.917	3.4545	0.1	-19.195
6976	14.917	3.6364	0.1	-19.054
6977	14.917	3.8182	0.1	-18.87
6978	14.917	4.	0.1	-18.644
6979	14.917	4.1818	0.1	-18.38
6980	14.917	4.3636	0.1	-18.082
6981	14.917	4.5455	0.1	-17.755
6982	14.917	4.7273	0.1	-17.405
6983	14.917	4.9091	0.1	-17.037
6984	14.917	5.0909	0.1	-16.659
6985	14.917	5.2727	0.1	-16.281
6986	14.917	5.4545	0.1	-15.916
6987	14.917	5.6364	0.1	-15.66
6988	14.917	5.8182	0.1	-17.098
6989	15.102	0.18182	0.1	-17.36
6990	15.102	0.36364	0.1	-16.027
6991	15.102	0.54545	0.1	-16.4
6992	15.102	0.72727	0.1	-16.88
6993	15.102	0.90909	0.1	-17.37
6994	15.102	1.0909	0.1	-17.853
6995	15.102	1.2727	0.1	-18.32
6996	15.102	1.4545	0.1	-18.762
6997	15.102	1.6364	0.1	-19.172
6998	15.102	1.8182	0.1	-19.544
6999	15.102	2.	0.1	-19.872
7000	15.102	2.1818	0.1	-20.152
7001	15.102	2.3636	0.1	-20.38
7002	15.102	2.5455	0.1	-20.553
7003	15.102	2.7273	0.1	-20.669
7004	15.102	2.9091	0.1	-20.728
7005	15.102	3.0909	0.1	-20.728
7006	15.102	3.2727	0.1	-20.669
7007	15.102	3.4545	0.1	-20.553
7008	15.102	3.6364	0.1	-20.38
7009	15.102	3.8182	0.1	-20.152
7010	15.102	4.	0.1	-19.872
7011	15.102	4.1818	0.1	-19.544
7012	15.102	4.3636	0.1	-19.172
7013	15.102	4.5455	0.1	-18.762
7014	15.102	4.7273	0.1	-18.32
7015	15.102	4.9091	0.1	-17.853
7016	15.102	5.0909	0.1	-17.37
7017	15.102	5.2727	0.1	-16.88
7018	15.102	5.4545	0.1	-16.4
7019	15.102	5.6364	0.1	-16.027
7020	15.102	5.8182	0.1	-17.36
7021	15.286	0.18182	0.1	-17.619
7022	15.286	0.36364	0.1	-16.398
7023	15.286	0.54545	0.1	-16.895
7024	15.286	0.72727	0.1	-17.496
7025	15.286	0.90909	0.1	-18.102
7026	15.286	1.0909	0.1	-18.696
7027	15.286	1.2727	0.1	-19.266
7028	15.286	1.4545	0.1	-19.804
7029	15.286	1.6364	0.1	-20.3
7030	15.286	1.8182	0.1	-20.748
7031	15.286	2.	0.1	-21.143
7032	15.286	2.1818	0.1	-21.478
7033	15.286	2.3636	0.1	-21.751
7034	15.286	2.5455	0.1	-21.958
7035	15.286	2.7273	0.1	-22.097
7036	15.286	2.9091	0.1	-22.167
7037	15.286	3.0909	0.1	-22.167
7038	15.286	3.2727	0.1	-22.097
7039	15.286	3.4545	0.1	-21.958
7040	15.286	3.6364	0.1	-21.751
7041	15.286	3.8182	0.1	-21.478
7042	15.286	4.	0.1	-21.143
7043	15.286	4.1818	0.1	-20.748
7044	15.286	4.3636	0.1	-20.3
7045	15.286	4.5455	0.1	-19.804
7046	15.286	4.7273	0.1	-19.266
7047	15.286	4.9091	0.1	-18.696
7048	15.286	5.0909	0.1	-18.102
7049	15.286	5.2727	0.1	-17.496
7050	15.286	5.4545	0.1	-16.895
7051	15.286	5.6364	0.1	-16.398
7052	15.286	5.8182	0.1	-17.619
7053	15.47	0.18182	0.1	-17.876
7054	15.47	0.36364	0.1	-16.775
7055	15.47	0.54545	0.1	-17.403
7056	15.47	0.72727	0.1	-18.131
7057	15.47	0.90909	0.1	-18.86
7058	15.47	1.0909	0.1	-19.57
7059	15.47	1.2727	0.1	-20.249
7060	15.47	1.4545	0.1	-20.886
7061	15.47	1.6364	0.1	-21.473
7062	15.47	1.8182	0.1	-22.001
7063	15.47	2.	0.1	-22.464
7064	15.47	2.1818	0.1	-22.858
7065	15.47	2.3636	0.1	-23.177
7066	15.47	2.5455	0.1	-23.419
7067	15.47	2.7273	0.1	-23.582
7068	15.47	2.9091	0.1	-23.663
7069	15.47	3.0909	0.1	-23.663
7070	15.47	3.2727	0.1	-23.582
7071	15.47	3.4545	0.1	-23.419
7072	15.47	3.6364	0.1	-23.177
7073	15.47	3.8182	0.1	-22.858
7074	15.47	4.	0.1	-22.464
7075	15.47	4.1818	0.1	-22.001
7076	15.47	4.3636	0.1	-21.473
7077	15.47	4.5455	0.1	-20.886
7078	15.47	4.7273	0.1	-20.249
7079	15.47	4.9091	0.1	-19.57
7080	15.47	5.0909	0.1	-18.86
7081	15.47	5.2727	0.1	-18.131
7082	15.47	5.4545	0.1	-17.403
7083	15.47	5.6364	0.1	-16.775
7084	15.47	5.8182	0.1	-17.876
7085	15.654	0.18182	0.1	-18.132
7086	15.654	0.36364	0.1	-17.16
7087	15.654	0.54545	0.1	-17.927
7088	15.654	0.72727	0.1	-18.791
7089	15.654	0.90909	0.1	-19.65
7090	15.654	1.0909	0.1	-20.483
7091	15.654	1.2727	0.1	-21.276
7092	15.654	1.4545	0.1	-22.018
7093	15.654	1.6364	0.1	-22.699
7094	15.654	1.8182	0.1	-23.31
7095	15.654	2.	0.1	-23.846
7096	15.654	2.1818	0.1	-24.299
7097	15.654	2.3636	0.1	-24.667
7098	15.654	2.5455	0.1	-24.945
7099	15.654	2.7273	0.1	-25.131
7100	15.654	2.9091	0.1	-25.225
7101	15.654	3.0909	0.1	-25.225
7102	15.654	3.2727	0.1	-25.131
7103	15.654	3.4545	0.1	-24.945
7104	15.654	3.6364	0.1	-24.667
7105	15.654	3.8182	0.1	-24.299
7106	15.654	4.	0.1	-23.846
7107	15.654	4.1818	0.1	-23.31
7108	15.654	4.3636	0.1	-22.699
7109	15.654	4.5455	0.1	-22.018
7110	15.654	4.7273	0.1	-21.276
7111	15.654	4.9091	0.1	-20.483
7112	15.654	5.0909	0.1	-19.65
7113	15.654	5.2727	0.1	-18.791
7114	15.654	5.4545	0.1	-17.927
7115	15.654	5.6364	0.1	-17.16
7116	15.654	5.8182	0.1	-18.132
7117	15.838	0.18182	0.1	-18.385
7118	15.838	0.36364	0.1	-17.554
7119	15.838	0.54545	0.1	-18.469
7120	15.838	0.72727	0.1	-19.478
7121	15.838	0.90909	0.1	-20.476
7122	15.838	1.0909	0.1	-21.439
7123	15.838	1.2727	0.1	-22.353
7124	15.838	1.4545	0.1	-23.206
7125	15.838	1.6364	0.1	-23.986
7126	15.838	1.8182	0.1	-24.685
7127	15.838	2.	0.1	-25.295
7128	15.838	2.1818	0.1	-25.811
7129	15.838	2.3636	0.1	-26.228
7130	15.838	2.5455	0.1	-26.544
7131	15.838	2.7273	0.1	-26.756
7132	15.838	2.9091	0.1	-26.862
7133	15.838	3.0909	0.1	-26.862
7134	15.838	3.2727	0.1	-26.756
7135	15.838	3.4545	0.1	-26.544
7136	15.838	3.6364	0.1	-26.229
7137	15.838	3.8182	0.1	-25.811
7138	15.838	4.	0.1	-25.295
7139	15.838	4.1818	0.1	-24.685
7140	15.838	4.3636	0.1	-23.986
7141	15.838	4.5455	0.1	-23.206
7142	15.838	4.7273	0.1	-22.353
7143	15.838	4.9091	0.1	-21.439
7144	15.838	5.0909	0.1	-20.476
7145	15.838	5.2727	0.1	-19.478
7146	15.838	5.4545	0.1	-18.469
7147	15.838	5.6364	0.1	-17.554
7148	15.838	5.8182	0.1	-18.385
7149	16.022	0.18182	0.1	-18.636
7150	16.022	0.36364	0.1	-17.96
7151	16.022	0.54545	0.1	-19.034
7152	16.022	0.72727	0.1	-20.198
7153	16.022	0.90909	0.1	-21.343
7154	16.022	1.0909	0.1	-22.445
7155	16.022	1.2727	0.1	-23.488
7156	16.022	1.4545	0.1	-24.458
7157	16.022	1.6364	0.1	-25.342
7158	16.022	1.8182	0.1	-26.133
7159	16.022	2.	0.1	-26.822
7160	16.022	2.1818	0.1	-27.403
7161	16.022	2.3636	0.1	-27.872
7162	16.022	2.5455	0.1	-28.227
7163	16.022	2.7273	0.1	-28.464
7164	16.022	2.9091	0.1	-28.583
7165	16.022	3.0909	0.1	-28.583
7166	16.022	3.2727	0.1	-28.464
7167	16.022	3.4545	0.1	-28.227
7168	16.022	3.6364	0.1	-27.872
7169	16.022	3.8182	0.1	-27.403
7170	16.022	4.	0.1	-26.822
7171	16.022	4.1818	0.1	-26.133
7172	16.022	4.3636	0.1	-25.343
7173	16.022	4.5455	0.1	-24.458
7174	16.022	4.7273	0.1	-23.488
7175	16.022	4.9091	0.1	-22.446
7176	16.022	5.0909	0.1	-21.343
7177	16.022	5.2727	0.1	-20.198
7178	16.022	5.4545	0.1	-19.034
7179	16.022	5.6364	0.1	-17.96
7180	16.022	5.8182	0.1	-18.636
7181	16.207	0.18182	0.1	-18.885
7182	16.207	0.36364	0.1	-18.377
7183	16.207	0.54545	0.1	-19.625
7184	16.207	0.72727	0.1	-20.956
7185	16.207	0.90909	0.1	-22.26
7186	16.207	1.0909	0.1	-23.51
7187	16.207	1.2727	0.1	-24.69
7188	16.207	1.4545	0.1	-25.784
7189	16.207	1.6364	0.1	-26.779
7190	16.207	1.8182	0.1	-27.665
7191	16.207	2.	0.1	-28.436
7192	16.207	2.1818	0.1	-29.085
7193	16.207	2.3636	0.1	-29.608
7194	16.207	2.5455	0.1	-30.003
7195	16.207	2.7273	0.1	-30.267
7196	16.207	2.9091	0.1	-30.399
7197	16.207	3.0909	0.1	-30.399
7198	16.207	3.2727	0.1	-30.267
7199	16.207	3.4545	0.1	-30.003
7200	16.207	3.6364	0.1	-29.608
7201	16.207	3.8182	0.1	-29.085
7202	16.207	4.	0.1	-28.436
7203	16.207	4.1818	0.1	-27.665
7204	16.207	4.3636	0.1	-26.779
7205	16.207	4.5455	0.1	-25.784
7206	16.207	4.7273	0.1	-24.69
7207	16.207	4.9091	0.1	-23.51
7208	16.207	5.0909	0.1	-22.26
7209	16.207	5.2727	0.1	-20.956
7210	16.207	5.4545	0.1	-19.625
7211	16.207	5.6364	0.1	-18.377
7212	16.207	5.8182	0.1	-18.885
7213	16.391	0.18182	0.1	-19.131
7214	16.391	0.36364	0.1	-18.81
7215	16.391	0.54545	0.1	-20.245
7216	16.391	0.72727	0.1	-21.756
7217	16.391	0.90909	0.1	-23.231
7218	16.391	1.0909	0.1	-24.641
7219	16.391	1.2727	0.1	-25.967
7220	16.391	1.4545	0.1	-27.192
7221	16.391	1.6364	0.1	-28.304
7222	16.391	1.8182	0.1	-29.292
7223	16.391	2.	0.1	-30.148
7224	16.391	2.1818	0.1	-30.868
7225	16.391	2.3636	0.1	-31.447
7226	16.391	2.5455	0.1	-31.882
7227	16.391	2.7273	0.1	-32.174
7228	16.391	2.9091	0.1	-32.319
7229	16.391	3.0909	0.1	-32.319
7230	16.391	3.2727	0.1	-32.174
7231	16.391	3.4545	0.1	-31.882
7232	16.391	3.6364	0.1	-31.447
7233	16.391	3.8182	0.1	-30.868
7234	16.391	4.	0.1	-30.148
7235	16.391	4.1818	0.1	-29.292
7236	16.391	4.3636	0.1	-28.304
7237	16.391	4.5455	0.1	-27.192
7238	16.391	4.7273	0.1	-25.967
7239	16.391	4.9091	0.1	-24.641
7240	16.391	5.0909	0.1	-23.231
7241	16.391	5.2727	0.1	-21.756
7242	16.391	5.4545	0.1	-20.245
7243	16.391	5.6364	0.1	-18.81
7244	16.391	5.8182	0.1	-19.131
7245	16.575	0.18182	0.1	-19.375
7246	16.575	0.36364	0.1	-19.26
7247	16.575	0.54545	0.1	-20.899
7248	16.575	0.72727	0.1	-22.606
7249	16.575	0.90909	0.1	-24.266
7250	16.575	1.0909	0.1	-25.847
7251	16.575	1.2727	0.1	-27.329
7252	16.575	1.4545	0.1	-28.694
7253	16.575	1.6364	0.1	-29.929
7254	16.575	1.8182	0.1	-31.023
7255	16.575	2.	0.1	-31.969
7256	16.575	2.1818	0.1	-32.762
7257	16.575	2.3636	0.1	-33.398
7258	16.575	2.5455	0.1	-33.876
7259	16.575	2.7273	0.1	-34.195
7260	16.575	2.9091	0.1	-34.355
7261	16.575	3.0909	0.1	-34.355
7262	16.575	3.2727	0.1	-34.195
7263	16.575	3.4545	0.1	-33.876
7264	16.575	3.6364	0.1	-33.398
7265	16.575	3.8182	0.1	-32.762
7266	16.575	4.	0.1	-31.969
7267	16.575	4.1818	0.1	-31.023
7268	16.575	4.3636	0.1	-29.929
7269	16.575	4.5455	0.1	-28.694
7270	16.575	4.7273	0.1	-27.329
7271	16.575	4.9091	0.1	-25.847
7272	16.575	5.0909	0.1	-24.266
7273	16.575	5.2727	0.1	-22.606
7274	16.575	5.4545	0.1	-20.899
7275	16.575	5.6364	0.1	-19.26
7276	16.575	5.8182	0.1	-19.375
7277	16.759	0.18182	0.1	-19.615
7278	16.759	0.36364	0.1	-19.728
7279	16.759	0.54545	0.1	-21.591
7280	16.759	0.72727	0.1	-23.511
7281	16.759	0.90909	0.1	-25.371
7282	16.759	1.0909	0.1	-27.138
7283	16.759	1.2727	0.1	-28.787
7284	16.759	1.4545	0.1	-30.302
7285	16.759	1.6364	0.1	-31.667
7286	16.759	1.8182	0.1	-32.872
7287	16.759	2.	0.1	-33.911
7288	16.759	2.1818	0.1	-34.78
7289	16.759	2.3636	0.1	-35.475
7290	16.759	2.5455	0.1	-35.996
7291	16.759	2.7273	0.1	-36.343
7292	16.759	2.9091	0.1	-36.517
7293	16.759	3.0909	0.1	-36.517
7294	16.759	3.2727	0.1	-36.343
7295	16.759	3.4545	0.1	-35.996
7296	16.759	3.6364	0.1	-35.475
7297	16.759	3.8182	0.1	-34.78
7298	16.759	4.	0.1	-33.911
7299	16.759	4.1818	0.1	-32.873
7300	16.759	4.3636	0.1	-31.667
7301	16.759	4.5455	0.1	-30.302
7302	16.759	4.7273	0.1	-28.788
7303	16.759	4.9091	0.1	-27.138
7304	16.759	5.0909	0.1	-25.371
7305	16.759	5.2727	0.1	-23.511
7306	16.759	5.4545	0.1	-21.591
7307	16.759	5.6364	0.1	-19.728
7308	16.759	5.8182	0.1	-19.615
7309	16.943	0.18182	0.1	-19.851
7310	16.943	0.36364	0.1	-20.219
7311	16.943	0.54545	0.1	-22.327
7312	16.943	0.72727	0.1	-24.48
7313	16.943	0.90909	0.1	-26.558
7314	16.943	1.0909	0.1	-28.524
7315	16.943	1.2727	0.1	-30.354
7316	16.943	1.4545	0.1	-32.027
7317	16.943	1.6364	0.1	-33.53
7318	16.943	1.8182	0.1	-34.852
7319	16.943	2.	0.1	-35.987
7320	16.943	2.1818	0.1	-36.933
7321	16.943	2.3636	0.1	-37.688
7322	16.943	2.5455	0.1	-38.253
7323	16.943	2.7273	0.1	-38.629
7324	16.943	2.9091	0.1	-38.816
7325	16.943	3.0909	0.1	-38.816
7326	16.943	3.2727	0.1	-38.629
7327	16.943	3.4545	0.1	-38.253
7328	16.943	3.6364	0.1	-37.688
7329	16.943	3.8182	0.1	-36.933
7330	16.943	4.	0.1	-35.987
7331	16.943	4.1818	0.1	-34.852
7332	16.943	4.3636	0.1	-33.53
7333	16.943	4.5455	0.1	-32.027
7334	16.943	4.7273	0.1	-30.354
7335	16.943	4.9091	0.1	-28.524
7336	16.943	5.0909	0.1	-26.558
7337	16.943	5.2727	0.1	-24.48
7338	16.943	5.4545	0.1	-22.327
7339	16.943	5.6364	0.1	-20.219
7340	16.943	5.8182	0.1	-19.851
7341	17.128	0.18182	0.1	-20.082
7342	17.128	0.36364	0.1	-20.735
7343	17.128	0.54545	0.1	-23.113
7344	17.128	0.72727	0.1	-25.522
7345	17.128	0.90909	0.1	-27.837
7346	17.128	1.0909	0.1	-30.019
7347	17.128	1.2727	0.1	-32.042
7348	17.128	1.4545	0.1	-33.884
7349	17.128	1.6364	0.1	-35.532
7350	17.128	1.8182	0.1	-36.976
7351	17.128	2.	0.1	-38.211
7352	17.128	2.1818	0.1	-39.236
7353	17.128	2.3636	0.1	-40.052
7354	17.128	2.5455	0.1	-40.66
7355	17.128	2.7273	0.1	-41.064
7356	17.128	2.9091	0.1	-41.265
7357	17.128	3.0909	0.1	-41.265
7358	17.128	3.2727	0.1	-41.064
7359	17.128	3.4545	0.1	-40.66
7360	17.128	3.6364	0.1	-40.052
7361	17.128	3.8182	0.1	-39.236
7362	17.128	4.	0.1	-38.211
7363	17.128	4.1818	0.1	-36.976
7364	17.128	4.3636	0.1	-35.532
7365	17.128	4.5455	0.1	-33.884
7366	17.128	4.7273	0.1	-32.042
7367	17.128	4.9091	0.1	-30.019
7368	17.128	5.0909	0.1	-27.837
7369	17.128	5.2727	0.1	-25.522
7370	17.128	5.4545	0.1	-23.113
7371	17.128	5.6364	0.1	-20.735
7372	17.128	5.8182	0.1	-20.082
7373	17.312	0.18182	0.1	-20.308
7374	17.312	0.36364	0.1	-21.28
7375	17.312	0.54545	0.1	-23.957
7376	17.312	0.72727	0.1	-26.645
7377	17.312	0.90909	0.1	-29.219
7378	17.312	1.0909	0.1	-31.636
7379	17.312	1.2727	0.1	-33.867
7380	17.312	1.4545	0.1	-35.889
7381	17.312	1.6364	0.1	-37.69
7382	17.312	1.8182	0.1	-39.261
7383	17.312	2.	0.1	-40.598
7384	17.312	2.1818	0.1	-41.703
7385	17.312	2.3636	0.1	-42.579
7386	17.312	2.5455	0.1	-43.23
7387	17.312	2.7273	0.1	-43.661
7388	17.312	2.9091	0.1	-43.876
7389	17.312	3.0909	0.1	-43.876
7390	17.312	3.2727	0.1	-43.661
7391	17.312	3.4545	0.1	-43.23
7392	17.312	3.6364	0.1	-42.579
7393	17.312	3.8182	0.1	-41.703
7394	17.312	4.	0.1	-40.598
7395	17.312	4.1818	0.1	-39.261
7396	17.312	4.3636	0.1	-37.69
7397	17.312	4.5455	0.1	-35.89
7398	17.312	4.7273	0.1	-33.867
7399	17.312	4.9091	0.1	-31.636
7400	17.312	5.0909	0.1	-29.219
7401	17.312	5.2727	0.1	-26.645
7402	17.312	5.4545	0.1	-23.957
7403	17.312	5.6364	0.1	-21.28
7404	17.312	5.8182	0.1	-20.308
7405	17.496	0.18182	0.1	-20.527
7406	17.496	0.36364	0.1	-21.857
7407	17.496	0.54545	0.1	-24.864
7408	17.496	0.72727	0.1	-27.862
7409	17.496	0.90909	0.1	-30.72
7410	17.496	1.0909	0.1	-33.391
7411	17.496	1.2727	0.1	-35.845
7412	17.496	1.4545	0.1	-38.06
7413	17.496	1.6364	0.1	-40.022
7414	17.496	1.8182	0.1	-41.724
7415	17.496	2.	0.1	-43.165
7416	17.496	2.1818	0.1	-44.35
7417	17.496	2.3636	0.1	-45.285
7418	17.496	2.5455	0.1	-45.977
7419	17.496	2.7273	0.1	-46.434
7420	17.496	2.9091	0.1	-46.661
7421	17.496	3.0909	0.1	-46.661
7422	17.496	3.2727	0.1	-46.434
7423	17.496	3.4545	0.1	-45.977
7424	17.496	3.6364	0.1	-45.285
7425	17.496	3.8182	0.1	-44.35
7426	17.496	4.	0.1	-43.165
7427	17.496	4.1818	0.1	-41.724
7428	17.496	4.3636	0.1	-40.022
7429	17.496	4.5455	0.1	-38.06
7430	17.496	4.7273	0.1	-35.845
7431	17.496	4.9091	0.1	-33.391
7432	17.496	5.0909	0.1	-30.72
7433	17.496	5.2727	0.1	-27.862
7434	17.496	5.4545	0.1	-24.864
7435	17.496	5.6364	0.1	-21.857
7436	17.496	5.8182	0.1	-20.527
7437	17.68	0.18182	0.1	-20.738
7438	17.68	0.36364	0.1	-22.471
7439	17.68	0.54545	0.1	-25.846
7440	17.68	0.72727	0.1	-29.184
7441	17.68	0.90909	0.1	-32.353
7442	17.68	1.0909	0.1	-35.302
7443	17.68	1.2727	0.1	-37.997
7444	17.68	1.4545	0.1	-40.416
7445	17.68	1.6364	0.1	-42.547
7446	17.68	1.8182	0.1	-44.384
7447	17.68	2.	0.1	-45.93
7448	17.68	2.1818	0.1	-47.194
7449	17.68	2.3636	0.1	-48.185
7450	17.68	2.5455	0.1	-48.916
7451	17.68	2.7273	0.1	-49.396
7452	17.68	2.9091	0.1	-49.634
7453	17.68	3.0909	0.1	-49.634
7454	17.68	3.2727	0.1	-49.396
7455	17.68	3.4545	0.1	-48.916
7456	17.68	3.6364	0.1	-48.185
7457	17.68	3.8182	0.1	-47.194
7458	17.68	4.	0.1	-45.93
7459	17.68	4.1818	0.1	-44.384
7460	17.68	4.3636	0.1	-42.547
7461	17.68	4.5455	0.1	-40.416
7462	17.68	4.7273	0.1	-37.997
7463	17.68	4.9091	0.1	-35.302
7464	17.68	5.0909	0.1	-32.354
7465	17.68	5.2727	0.1	-29.184
7466	17.68	5.4545	0.1	-25.846
7467	17.68	5.6364	0.1	-22.471
7468	17.68	5.8182	0.1	-20.738
7469	17.864	0.18182	0.1	-20.941
7470	17.864	0.36364	0.1	-23.127
7471	17.864	0.54545	0.1	-26.912
7472	17.864	0.72727	0.1	-30.628
7473	17.864	0.90909	0.1	-34.139
7474	17.864	1.0909	0.1	-37.39
7475	17.864	1.2727	0.1	-40.345
7476	17.864	1.4545	0.1	-42.981
7477	17.864	1.6364	0.1	-45.288
7478	17.864	1.8182	0.1	-47.263
7479	17.864	2.	0.1	-48.914
7480	17.864	2.1818	0.1	-50.253
7481	17.864	2.3636	0.1	-51.296
7482	17.864	2.5455	0.1	-52.061
7483	17.864	2.7273	0.1	-52.561
7484	17.864	2.9091	0.1	-52.808
7485	17.864	3.0909	0.1	-52.808
7486	17.864	3.2727	0.1	-52.561
7487	17.864	3.4545	0.1	-52.061
7488	17.864	3.6364	0.1	-51.297
7489	17.864	3.8182	0.1	-50.253
7490	17.864	4.	0.1	-48.914
7491	17.864	4.1818	0.1	-47.263
7492	17.864	4.3636	0.1	-45.288
7493	17.864	4.5455	0.1	-42.981
7494	17.864	4.7273	0.1	-40.345
7495	17.864	4.9091	0.1	-37.39
7496	17.864	5.0909	0.1	-34.139
7497	17.864	5.2727	0.1	-30.628
7498	17.864	5.4545	0.1	-26.912
7499	17.864	5.6364	0.1	-23.127
7500	17.864	5.8182	0.1	-20.941
7501	18.048	0.18182	0.1	-21.133
7502	18.048	0.36364	0.1	-23.832
7503	18.048	0.54545	0.1	-28.073
7504	18.048	0.72727	0.1	-32.208
7505	18.048	0.90909	0.1	-36.096
7506	18.048	1.0909	0.1	-39.677
7507	18.048	1.2727	0.1	-42.913
7508	18.048	1.4545	0.1	-45.78
7509	18.048	1.6364	0.1	-48.27
7510	18.048	1.8182	0.1	-50.385
7511	18.048	2.	0.1	-52.138
7512	18.048	2.1818	0.1	-53.548
7513	18.048	2.3636	0.1	-54.637
7514	18.048	2.5455	0.1	-55.429
7515	18.048	2.7273	0.1	-55.944
7516	18.048	2.9091	0.1	-56.197
7517	18.048	3.0909	0.1	-56.197
7518	18.048	3.2727	0.1	-55.944
7519	18.048	3.4545	0.1	-55.429
7520	18.048	3.6364	0.1	-54.637
7521	18.048	3.8182	0.1	-53.548
7522	18.048	4.	0.1	-52.138
7523	18.048	4.1818	0.1	-50.385
7524	18.048	4.3636	0.1	-48.27
7525	18.048	4.5455	0.1	-45.78
7526	18.048	4.7273	0.1	-42.913
7527	18.048	4.9091	0.1	-39.677
7528	18.048	5.0909	0.1	-36.096
7529	18.048	5.2727	0.1	-32.208
7530	18.048	5.4545	0.1	-28.073
7531	18.048	5.6364	0.1	-23.832
7532	18.048	5.8182	0.1	-21.133
7533	18.233	0.18182	0.1	-21.314
7534	18.233	0.36364	0.1	-24.591
7535	18.233	0.54545	0.1	-29.343
7536	18.233	0.72727	0.1	-33.944
7537	18.233	0.90909	0.1	-38.248
7538	18.233	1.0909	0.1	-42.19
7539	18.233	1.2727	0.1	-45.729
7540	18.233	1.4545	0.1	-48.843
7541	18.233	1.6364	0.1	-51.523
7542	18.233	1.8182	0.1	-53.779
7543	18.233	2.	0.1	-55.63
7544	18.233	2.1818	0.1	-57.102
7545	18.233	2.3636	0.1	-58.227
7546	18.233	2.5455	0.1	-59.037
7547	18.233	2.7273	0.1	-59.56
7548	18.233	2.9091	0.1	-59.816
7549	18.233	3.0909	0.1	-59.816
7550	18.233	3.2727	0.1	-59.56
7551	18.233	3.4545	0.1	-59.037
7552	18.233	3.6364	0.1	-58.227
7553	18.233	3.8182	0.1	-57.102
7554	18.233	4.	0.1	-55.63
7555	18.233	4.1818	0.1	-53.779
7556	18.233	4.3636	0.1	-51.523
7557	18.233	4.5455	0.1	-48.843
7558	18.233	4.7273	0.1	-45.729
7559	18.233	4.9091	0.1	-42.19
7560	18.233	5.0909	0.1	-38.248
7561	18.233	5.2727	0.1	-33.944
7562	18.233	5.4545	0.1	-29.343
7563	18.233	5.6364	0.1	-24.591
7564	18.233	5.8182	0.1	-21.314
7565	18.417	0.18182	0.1	-21.48
7566	18.417	0.36364	0.1	-25.413
7567	18.417	0.54545	0.1	-30.738
7568	18.417	0.72727	0.1	-35.857
7569	18.417	0.90909	0.1	-40.622
7570	18.417	1.0909	0.1	-44.961
7571	18.417	1.2727	0.1	-48.829
7572	18.417	1.4545	0.1	-52.204
7573	18.417	1.6364	0.1	-55.082
7574	18.417	1.8182	0.1	-57.477
7575	18.417	2.	0.1	-59.418
7576	18.417	2.1818	0.1	-60.941
7577	18.417	2.3636	0.1	-62.089
7578	18.417	2.5455	0.1	-62.905
7579	18.417	2.7273	0.1	-63.425
7580	18.417	2.9091	0.1	-63.678
7581	18.417	3.0909	0.1	-63.678
7582	18.417	3.2727	0.1	-63.425
7583	18.417	3.4545	0.1	-62.905
7584	18.417	3.6364	0.1	-62.089
7585	18.417	3.8182	0.1	-60.941
7586	18.417	4.	0.1	-59.418
7587	18.417	4.1818	0.1	-57.477
7588	18.417	4.3636	0.1	-55.082
7589	18.417	4.5455	0.1	-52.204
7590	18.417	4.7273	0.1	-48.829
7591	18.417	4.9091	0.1	-44.961
7592	18.417	5.0909	0.1	-40.622
7593	18.417	5.2727	0.1	-35.857
7594	18.417	5.4545	0.1	-30.738
7595	18.417	5.6364	0.1	-25.413
7596	18.417	5.8182	0.1	-21.48
7597	18.601	0.18182	0.1	-21.631
7598	18.601	0.36364	0.1	-26.305
7599	18.601	0.54545	0.1	-32.272
7600	18.601	0.72727	0.1	-37.971
7601	18.601	0.90909	0.1	-43.247
7602	18.601	1.0909	0.1	-48.022
7603	18.601	1.2727	0.1	-52.248
7604	18.601	1.4545	0.1	-55.902
7605	18.601	1.6364	0.1	-58.985
7606	18.601	1.8182	0.1	-61.517
7607	18.601	2.	0.1	-63.536
7608	18.601	2.1818	0.1	-65.094
7609	18.601	2.3636	0.1	-66.246
7610	18.601	2.5455	0.1	-67.051
7611	18.601	2.7273	0.1	-67.556
7612	18.601	2.9091	0.1	-67.799
7613	18.601	3.0909	0.1	-67.799
7614	18.601	3.2727	0.1	-67.556
7615	18.601	3.4545	0.1	-67.051
7616	18.601	3.6364	0.1	-66.246
7617	18.601	3.8182	0.1	-65.094
7618	18.601	4.	0.1	-63.536
7619	18.601	4.1818	0.1	-61.517
7620	18.601	4.3636	0.1	-58.985
7621	18.601	4.5455	0.1	-55.902
7622	18.601	4.7273	0.1	-52.248
7623	18.601	4.9091	0.1	-48.022
7624	18.601	5.0909	0.1	-43.247
7625	18.601	5.2727	0.1	-37.971
7626	18.601	5.4545	0.1	-32.272
7627	18.601	5.6364	0.1	-26.305
7628	18.601	5.8182	0.1	-21.631
7629	18.785	0.18182	0.1	-21.763
7630	18.785	0.36364	0.1	-27.276
7631	18.785	0.54545	0.1	-33.963
7632	18.785	0.72727	0.1	-40.311
7633	18.785	0.90909	0.1	-46.157
7634	18.785	1.0909	0.1	-51.415
7635	18.785	1.2727	0.1	-56.032
7636	18.785	1.4545	0.1	-59.986
7637	18.785	1.6364	0.1	-63.279
7638	18.785	1.8182	0.1	-65.942
7639	18.785	2.	0.1	-68.024
7640	18.785	2.1818	0.1	-69.595
7641	18.785	2.3636	0.1	-70.727
7642	18.785	2.5455	0.1	-71.497
7643	18.785	2.7273	0.1	-71.97
7644	18.785	2.9091	0.1	-72.193
7645	18.785	3.0909	0.1	-72.193
7646	18.785	3.2727	0.1	-71.97
7647	18.785	3.4545	0.1	-71.497
7648	18.785	3.6364	0.1	-70.727
7649	18.785	3.8182	0.1	-69.595
7650	18.785	4.	0.1	-68.024
7651	18.785	4.1818	0.1	-65.942
7652	18.785	4.3636	0.1	-63.279
7653	18.785	4.5455	0.1	-59.986
7654	18.785	4.7273	0.1	-56.032
7655	18.785	4.9091	0.1	-51.415
7656	18.785	5.0909	0.1	-46.157
7657	18.785	5.2727	0.1	-40.311
7658	18.785	5.4545	0.1	-33.963
7659	18.785	5.6364	0.1	-27.276
7660	18.785	5.8182	0.1	-21.763
7661	18.969	0.18182	0.1	-21.875
7662	18.969	0.36364	0.1	-28.334
7663	18.969	0.54545	0.1	-35.832
7664	18.969	0.72727	0.1	-42.905
7665	18.969	0.90909	0.1	-49.388
7666	18.969	1.0909	0.1	-55.184
7667	18.969	1.2727	0.1	-60.233
7668	18.969	1.4545	0.1	-64.51
7669	18.969	1.6364	0.1	-68.021
7670	18.969	1.8182	0.1	-70.806
7671	18.969	2.	0.1	-72.931
7672	18.969	2.1818	0.1	-74.484
7673	18.969	2.3636	0.1	-75.564
7674	18.969	2.5455	0.1	-76.268
7675	18.969	2.7273	0.1	-76.684
7676	18.969	2.9091	0.1	-76.874
7677	18.969	3.0909	0.1	-76.874
7678	18.969	3.2727	0.1	-76.684
7679	18.969	3.4545	0.1	-76.268
7680	18.969	3.6364	0.1	-75.564
7681	18.969	3.8182	0.1	-74.484
7682	18.969	4.	0.1	-72.931
7683	18.969	4.1818	0.1	-70.806
7684	18.969	4.3636	0.1	-68.021
7685	18.969	4.5455	0.1	-64.51
7686	18.969	4.7273	0.1	-60.233
7687	18.969	4.9091	0.1	-55.184
7688	18.969	5.0909	0.1	-49.388
7689	18.969	5.2727	0.1	-42.905
7690	18.969	5.4545	0.1	-35.832
7691	18.969	5.6364	0.1	-28.334
7692	18.969	5.8182	0.1	-21.875
7693	19.153	0.18182	0.1	-21.963
7694	19.153	0.36364	0.1	-29.489
7695	19.153	0.54545	0.1	-37.895
7696	19.153	0.72727	0.1	-45.784
7697	19.153	0.90909	0.1	-52.983
7698	19.153	1.0909	0.1	-59.381
7699	19.153	1.2727	0.1	-64.911
7700	19.153	1.4545	0.1	-69.54
7701	19.153	1.6364	0.1	-73.278
7702	19.153	1.8182	0.1	-76.174
7703	19.153	2.	0.1	-78.314
7704	19.153	2.1818	0.1	-79.81
7705	19.153	2.3636	0.1	-80.792
7706	19.153	2.5455	0.1	-81.39
7707	19.153	2.7273	0.1	-81.716
7708	19.153	2.9091	0.1	-81.857
7709	19.153	3.0909	0.1	-81.857
7710	19.153	3.2727	0.1	-81.716
7711	19.153	3.4545	0.1	-81.39
7712	19.153	3.6364	0.1	-80.792
7713	19.153	3.8182	0.1	-79.81
7714	19.153	4.	0.1	-78.314
7715	19.153	4.1818	0.1	-76.174
7716	19.153	4.3636	0.1	-73.278
7717	19.153	4.5455	0.1	-69.54
7718	19.153	4.7273	0.1	-64.911
7719	19.153	4.9091	0.1	-59.381
7720	19.153	5.0909	0.1	-52.983
7721	19.153	5.2727	0.1	-45.784
7722	19.153	5.4545	0.1	-37.895
7723	19.153	5.6364	0.1	-29.489
7724	19.153	5.8182	0.1	-21.963
7725	19.337	0.18182	0.1	-22.025
7726	19.337	0.36364	0.1	-30.747
7727	19.337	0.54545	0.1	-40.171
7728	19.337	0.72727	0.1	-48.977
7729	19.337	0.90909	0.1	-56.985
7730	19.337	1.0909	0.1	-64.067
7731	19.337	1.2727	0.1	-70.139
7732	19.337	1.4545	0.1	-75.16
7733	19.337	1.6364	0.1	-79.137
7734	19.337	1.8182	0.1	-82.129
7735	19.337	2.	0.1	-84.246
7736	19.337	2.1818	0.1	-85.632
7737	19.337	2.3636	0.1	-86.457
7738	19.337	2.5455	0.1	-86.891
7739	19.337	2.7273	0.1	-87.086
7740	19.337	2.9091	0.1	-87.153
7741	19.337	3.0909	0.1	-87.153
7742	19.337	3.2727	0.1	-87.086
7743	19.337	3.4545	0.1	-86.891
7744	19.337	3.6364	0.1	-86.457
7745	19.337	3.8182	0.1	-85.632
7746	19.337	4.	0.1	-84.246
7747	19.337	4.1818	0.1	-82.129
7748	19.337	4.3636	0.1	-79.137
7749	19.337	4.5455	0.1	-75.16
7750	19.337	4.7273	0.1	-70.139
7751	19.337	4.9091	0.1	-64.067
7752	19.337	5.0909	0.1	-56.985
7753	19.337	5.2727	0.1	-48.977
7754	19.337	5.4545	0.1	-40.171
7755	19.337	5.6364	0.1	-30.747
7756	19.337	5.8182	0.1	-22.025
7757	19.522	0.18182	0.1	-22.055
7758	19.522	0.36364	0.1	-32.112
7759	19.522	0.54545	0.1	-42.674
7760	19.522	0.72727	0.1	-52.515
7761	19.522	0.90909	0.1	-61.443
7762	19.522	1.0909	0.1	-69.309
7763	19.522	1.2727	0.1	-76.005
7764	19.522	1.4545	0.1	-81.469
7765	19.522	1.6364	0.1	-85.703
7766	19.522	1.8182	0.1	-88.775
7767	19.522	2.	0.1	-90.819
7768	19.522	2.1818	0.1	-92.024
7769	19.522	2.3636	0.1	-92.611
7770	19.522	2.5455	0.1	-92.806
7771	19.522	2.7273	0.1	-92.81
7772	19.522	2.9091	0.1	-92.772
7773	19.522	3.0909	0.1	-92.772
7774	19.522	3.2727	0.1	-92.81
7775	19.522	3.4545	0.1	-92.806
7776	19.522	3.6364	0.1	-92.611
7777	19.522	3.8182	0.1	-92.024
7778	19.522	4.	0.1	-90.819
7779	19.522	4.1818	0.1	-88.775
7780	19.522	4.3636	0.1	-85.703
7781	19.522	4.5455	0.1	-81.469
7782	19.522	4.7273	0.1	-76.005
7783	19.522	4.9091	0.1	-69.309
7784	19.522	5.0909	0.1	-61.444
7785	19.522	5.2727	0.1	-52.515
7786	19.522	5.4545	0.1	-42.674
7787	19.522	5.6364	0.1	-32.112
7788	19.522	5.8182	0.1	-22.055
7789	19.706	0.18182	0.1	-22.05
7790	19.706	0.36364	0.1	-33.582
7791	19.706	0.54545	0.1	-45.412
7792	19.706	0.72727	0.1	-56.422
7793	19.706	0.90909	0.1	-66.409
7794	19.706	1.0909	0.1	-75.189
7795	19.706	1.2727	0.1	-82.616
7796	19.706	1.4545	0.1	-88.599
7797	19.706	1.6364	0.1	-93.118
7798	19.706	1.8182	0.1	-96.247
7799	19.706	2.	0.1	-98.153
7800	19.706	2.1818	0.1	-99.08
7801	19.706	2.3636	0.1	-99.32
7802	19.706	2.5455	0.1	-99.173
7803	19.706	2.7273	0.1	-98.907
7804	19.706	2.9091	0.1	-98.721
7805	19.706	3.0909	0.1	-98.721
7806	19.706	3.2727	0.1	-98.907
7807	19.706	3.4545	0.1	-99.173
7808	19.706	3.6364	0.1	-99.32
7809	19.706	3.8182	0.1	-99.08
7810	19.706	4.	0.1	-98.153
7811	19.706	4.1818	0.1	-96.247
7812	19.706	4.3636	0.1	-93.118
7813	19.706	4.5455	0.1	-88.599
7814	19.706	4.7273	0.1	-82.616
7815	19.706	4.9091	0.1	-75.189
7816	19.706	5.0909	0.1	-66.409
7817	19.706	5.2727	0.1	-56.422
7818	19.706	5.4545	0.1	-45.412
7819	19.706	5.6364	0.1	-33.582
7820	19.706	5.8182	0.1	-22.05
7821	19.89	0.18182	0.1	-22.003
7822	19.89	0.36364	0.1	-35.145
7823	19.89	0.54545	0.1	-48.382
7824	19.89	0.72727	0.1	-60.717
7825	19.89	0.90909	0.1	-71.934
7826	19.89	1.0909	0.1	-81.8
7827	19.89	1.2727	0.1	-90.11
7828	19.89	1.4545	0.1	-96.717
7829	19.89	1.6364	0.1	-101.57
7830	19.89	1.8182	0.1	-104.73
7831	19.89	2.	0.1	-106.41
7832	19.89	2.1818	0.1	-106.92
7833	19.89	2.3636	0.1	-106.67
7834	19.89	2.5455	0.1	-106.04
7835	19.89	2.7273	0.1	-105.39
7836	19.89	2.9091	0.1	-105.
7837	19.89	3.0909	0.1	-105.
7838	19.89	3.2727	0.1	-105.39
7839	19.89	3.4545	0.1	-106.04
7840	19.89	3.6364	0.1	-106.67
7841	19.89	3.8182	0.1	-106.92
7842	19.89	4.	0.1	-106.41
7843	19.89	4.1818	0.1	-104.73
7844	19.89	4.3636	0.1	-101.57
7845	19.89	4.5455	0.1	-96.717
7846	19.89	4.7273	0.1	-90.11
7847	19.89	4.9091	0.1	-81.8
7848	19.89	5.0909	0.1	-71.934
7849	19.89	5.2727	0.1	-60.717
7850	19.89	5.4545	0.1	-48.382
7851	19.89	5.6364	0.1	-35.145
7852	19.89	5.8182	0.1	-22.003
7853	20.074	0.18182	0.1	-21.907
7854	20.074	0.36364	0.1	-36.778
7855	20.074	0.54545	0.1	-51.562
7856	20.074	0.72727	0.1	-65.407
7857	20.074	0.90909	0.1	-78.072
7858	20.074	1.0909	0.1	-89.256
7859	20.074	1.2727	0.1	-98.663
7860	20.074	1.4545	0.1	-106.05
7861	20.074	1.6364	0.1	-111.3
7862	20.074	1.8182	0.1	-114.47
7863	20.074	2.	0.1	-115.8
7864	20.074	2.1818	0.1	-115.72
7865	20.074	2.3636	0.1	-114.75
7866	20.074	2.5455	0.1	-113.44
7867	20.074	2.7273	0.1	-112.28
7868	20.074	2.9091	0.1	-111.6
7869	20.074	3.0909	0.1	-111.6
7870	20.074	3.2727	0.1	-112.28
7871	20.074	3.4545	0.1	-113.44
7872	20.074	3.6364	0.1	-114.75
7873	20.074	3.8182	0.1	-115.72
7874	20.074	4.	0.1	-115.8
7875	20.074	4.1818	0.1	-114.47
7876	20.074	4.3636	0.1	-111.3
7877	20.074	4.5455	0.1	-106.05
7878	20.074	4.7273	0.1	-98.663
7879	20.074	4.9091	0.1	-89.256
7880	20.074	5.0909	0.1	-78.072
7881	20.074	5.2727	0.1	-65.407
7882	20.074	5.4545	0.1	-51.562
7883	20.074	5.6364	0.1	-36.778
7884	20.074	5.8182	0.1	-21.907
7885	20.258	0.18182	0.1	-21.75
7886	20.258	0.36364	0.1	-38.434
7887	20.258	0.54545	0.1	-54.906
7888	20.258	0.72727	0.1	-70.477
7889	20.258	0.90909	0.1	-84.876
7890	20.258	1.0909	0.1	-97.699
7891	20.258	1.2727	0.1	-108.51
7892	20.258	1.4545	0.1	-116.91
7893	20.258	1.6364	0.1	-122.68
7894	20.258	1.8182	0.1	-125.81
7895	20.258	2.	0.1	-126.63
7896	20.258	2.1818	0.1	-125.68
7897	20.258	2.3636	0.1	-123.71
7898	20.258	2.5455	0.1	-121.45
7899	20.258	2.7273	0.1	-119.56
7900	20.258	2.9091	0.1	-118.5
7901	20.258	3.0909	0.1	-118.5
7902	20.258	3.2727	0.1	-119.56
7903	20.258	3.4545	0.1	-121.45
7904	20.258	3.6364	0.1	-123.71
7905	20.258	3.8182	0.1	-125.68
7906	20.258	4.	0.1	-126.63
7907	20.258	4.1818	0.1	-125.81
7908	20.258	4.3636	0.1	-122.68
7909	20.258	4.5455	0.1	-116.91
7910	20.258	4.7273	0.1	-108.51
7911	20.258	4.9091	0.1	-97.699
7912	20.258	5.0909	0.1	-84.876
7913	20.258	5.2727	0.1	-70.477
7914	20.258	5.4545	0.1	-54.906
7915	20.258	5.6364	0.1	-38.434
7916	20.258	5.8182	0.1	-21.75
7917	20.442	0.18182	0.1	-21.516
7918	20.442	0.36364	0.1	-40.04
7919	20.442	0.54545	0.1	-58.333
7920	20.442	0.72727	0.1	-75.891
7921	20.442	0.90909	0.1	-92.399
7922	20.442	1.0909	0.1	-107.31
7923	20.442	1.2727	0.1	-119.97
7924	20.442	1.4545	0.1	-129.75
7925	20.442	1.6364	0.1	-136.21
7926	20.442	1.8182	0.1	-139.28
7927	20.442	2.	0.1	-139.32
7928	20.442	2.1818	0.1	-137.12
7929	20.442	2.3636	0.1	-133.71
7930	20.442	2.5455	0.1	-130.13
7931	20.442	2.7273	0.1	-127.25
7932	20.442	2.9091	0.1	-125.67
7933	20.442	3.0909	0.1	-125.67
7934	20.442	3.2727	0.1	-127.25
7935	20.442	3.4545	0.1	-130.13
7936	20.442	3.6364	0.1	-133.71
7937	20.442	3.8182	0.1	-137.12
7938	20.442	4.	0.1	-139.32
7939	20.442	4.1818	0.1	-139.28
7940	20.442	4.3636	0.1	-136.21
7941	20.442	4.5455	0.1	-129.75
7942	20.442	4.7273	0.1	-119.97
7943	20.442	4.9091	0.1	-107.31
7944	20.442	5.0909	0.1	-92.399
7945	20.442	5.2727	0.1	-75.891
7946	20.442	5.4545	0.1	-58.333
7947	20.442	5.6364	0.1	-40.04
7948	20.442	5.8182	0.1	-21.516
7949	20.627	0.18182	0.1	-21.185
7950	20.627	0.36364	0.1	-41.489
7951	20.627	0.54545	0.1	-61.72
7952	20.627	0.72727	0.1	-81.578
7953	20.627	0.90909	0.1	-100.7
7954	20.627	1.0909	0.1	-118.33
7955	20.627	1.2727	0.1	-133.5
7956	20.627	1.4545	0.1	-145.22
7957	20.627	1.6364	0.1	-152.67
7958	20.627	1.8182	0.1	-155.62
7959	20.627	2.	0.1	-154.49
7960	20.627	2.1818	0.1	-150.44
7961	20.627	2.3636	0.1	-144.95
7962	20.627	2.5455	0.1	-139.52
7963	20.627	2.7273	0.1	-135.31
7964	20.627	2.9091	0.1	-133.04
7965	20.627	3.0909	0.1	-133.04
7966	20.627	3.2727	0.1	-135.31
7967	20.627	3.4545	0.1	-139.52
7968	20.627	3.6364	0.1	-144.95
7969	20.627	3.8182	0.1	-150.44
7970	20.627	4.	0.1	-154.49
7971	20.627	4.1818	0.1	-155.62
7972	20.627	4.3636	0.1	-152.67
7973	20.627	4.5455	0.1	-145.22
7974	20.627	4.7273	0.1	-133.5
7975	20.627	4.9091	0.1	-118.33
7976	20.627	5.0909	0.1	-100.7
7977	20.627	5.2727	0.1	-81.578
7978	20.627	5.4545	0.1	-61.72
7979	20.627	5.6364	0.1	-41.489
7980	20.627	5.8182	0.1	-21.185
7981	20.811	0.18182	0.1	-20.728
7982	20.811	0.36364	0.1	-42.633
7983	20.811	0.54545	0.1	-64.897
7984	20.811	0.72727	0.1	-87.443
7985	20.811	0.90909	0.1	-109.83
7986	20.811	1.0909	0.1	-131.07
7987	20.811	1.2727	0.1	-149.75
7988	20.811	1.4545	0.1	-164.27
7989	20.811	1.6364	0.1	-173.23
7990	20.811	1.8182	0.1	-175.99
7991	20.811	2.	0.1	-173.09
7992	20.811	2.1818	0.1	-166.21
7993	20.811	2.3636	0.1	-157.68
7994	20.811	2.5455	0.1	-149.66
7995	20.811	2.7273	0.1	-143.68
7996	20.811	2.9091	0.1	-140.53
7997	20.811	3.0909	0.1	-140.53
7998	20.811	3.2727	0.1	-143.68
7999	20.811	3.4545	0.1	-149.66
8000	20.811	3.6364	0.1	-157.68
8001	20.811	3.8182	0.1	-166.21
8002	20.811	4.	0.1	-173.09
8003	20.811	4.1818	0.1	-175.99
8004	20.811	4.3636	0.1	-173.23
8005	20.811	4.5455	0.1	-164.27
8006	20.811	4.7273	0.1	-149.75
8007	20.811	4.9091	0.1	-131.07
8008	20.811	5.0909	0.1	-109.83
8009	20.811	5.2727	0.1	-87.443
8010	20.811	5.4545	0.1	-64.897
8011	20.811	5.6364	0.1	-42.633
8012	20.811	5.8182	0.1	-20.728
8013	20.995	0.18182	0.1	-20.112
8014	20.995	0.36364	0.1	-43.294
8015	20.995	0.54545	0.1	-67.672
8016	20.995	0.72727	0.1	-93.387
8017	20.995	0.90909	0.1	-119.92
8018	20.995	1.0909	0.1	-145.99
8019	20.995	1.2727	0.1	-169.63
8020	20.995	1.4545	0.1	-188.37
8021	20.995	1.6364	0.1	-199.74
8022	20.995	1.8182	0.1	-202.28
8023	20.995	2.	0.1	-196.56
8024	20.995	2.1818	0.1	-185.27
8025	20.995	2.3636	0.1	-172.17
8026	20.995	2.5455	0.1	-160.53
8027	20.995	2.7273	0.1	-152.25
8028	20.995	2.9091	0.1	-148.04
8029	20.995	3.0909	0.1	-148.04
8030	20.995	3.2727	0.1	-152.25
8031	20.995	3.4545	0.1	-160.53
8032	20.995	3.6364	0.1	-172.17
8033	20.995	3.8182	0.1	-185.27
8034	20.995	4.	0.1	-196.56
8035	20.995	4.1818	0.1	-202.28
8036	20.995	4.3636	0.1	-199.74
8037	20.995	4.5455	0.1	-188.37
8038	20.995	4.7273	0.1	-169.63
8039	20.995	4.9091	0.1	-145.99
8040	20.995	5.0909	0.1	-119.92
8041	20.995	5.2727	0.1	-93.387
8042	20.995	5.4545	0.1	-67.672
8043	20.995	5.6364	0.1	-43.294
8044	20.995	5.8182	0.1	-20.112
8045	21.179	0.18182	0.1	-19.297
8046	21.179	0.36364	0.1	-43.294
8047	21.179	0.54545	0.1	-69.892
8048	21.179	0.72727	0.1	-99.391
8049	21.179	0.90909	0.1	-131.17
8050	21.179	1.0909	0.1	-163.69
8051	21.179	1.2727	0.1	-194.41
8052	21.179	1.4545	0.1	-219.71
8053	21.179	1.6364	0.1	-235.2
8054	21.179	1.8182	0.1	-237.67
8055	21.179	2.	0.1	-227.3
8056	21.179	2.1818	0.1	-208.73
8057	21.179	2.3636	0.1	-188.6
8058	21.179	2.5455	0.1	-171.92
8059	21.179	2.7273	0.1	-160.79
8060	21.179	2.9091	0.1	-155.39
8061	21.179	3.0909	0.1	-155.39
8062	21.179	3.2727	0.1	-160.79
8063	21.179	3.4545	0.1	-171.92
8064	21.179	3.6364	0.1	-188.6
8065	21.179	3.8182	0.1	-208.73
8066	21.179	4.	0.1	-227.3
8067	21.179	4.1818	0.1	-237.67
8068	21.179	4.3636	0.1	-235.2
8069	21.179	4.5455	0.1	-219.71
8070	21.179	4.7273	0.1	-194.41
8071	21.179	4.9091	0.1	-163.69
8072	21.179	5.0909	0.1	-131.17
8073	21.179	5.2727	0.1	-99.391
8074	21.179	5.4545	0.1	-69.892
8075	21.179	5.6364	0.1	-43.294
8076	21.179	5.8182	0.1	-19.297
8077	21.363	0.18182	0.1	-18.263
8078	21.363	0.36364	0.1	-42.55
8079	21.363	0.54545	0.1	-71.636
8080	21.363	0.72727	0.1	-105.73
8081	21.363	0.90909	0.1	-144.06
8082	21.363	1.0909	0.1	-184.95
8083	21.363	1.2727	0.1	-225.65
8084	21.363	1.4545	0.1	-261.42
8085	21.363	1.6364	0.1	-284.9
8086	21.363	1.8182	0.1	-287.96
8087	21.363	2.	0.1	-269.69
8088	21.363	2.1818	0.1	-238.49
8089	21.363	2.3636	0.1	-206.93
8090	21.363	2.5455	0.1	-183.31
8091	21.363	2.7273	0.1	-168.91
8092	21.363	2.9091	0.1	-162.26
8093	21.363	3.0909	0.1	-162.26
8094	21.363	3.2727	0.1	-168.91
8095	21.363	3.4545	0.1	-183.31
8096	21.363	3.6364	0.1	-206.93
8097	21.363	3.8182	0.1	-238.49
8098	21.363	4.	0.1	-269.69
8099	21.363	4.1818	0.1	-287.96
8100	21.363	4.3636	0.1	-284.9
8101	21.363	4.5455	0.1	-261.42
8102	21.363	4.7273	0.1	-225.65
8103	21.363	4.9091	0.1	-184.95
8104	21.363	5.0909	0.1	-144.06
8105	21.363	5.2727	0.1	-105.73
8106	21.363	5.4545	0.1	-71.636
8107	21.363	5.6364	0.1	-42.55
8108	21.363	5.8182	0.1	-18.263
8109	21.548	0.18182	0.1	-16.998
8110	21.548	0.36364	0.1	-41.307
8111	21.548	0.54545	0.1	-73.642
8112	21.548	0.72727	0.1	-113.41
8113	21.548	0.90909	0.1	-159.51
8114	21.548	1.0909	0.1	-210.69
8115	21.548	1.2727	0.1	-264.76
8116	21.548	1.4545	0.1	-317.36
8117	21.548	1.6364	0.1	-356.75
8118	21.548	1.8182	0.1	-364.85
8119	21.548	2.	0.1	-332.3
8120	21.548	2.1818	0.1	-276.17
8121	21.548	2.3636	0.1	-226.19
8122	21.548	2.5455	0.1	-193.71
8123	21.548	2.7273	0.1	-175.68
8124	21.548	2.9091	0.1	-167.85
8125	21.548	3.0909	0.1	-167.85
8126	21.548	3.2727	0.1	-175.68
8127	21.548	3.4545	0.1	-193.71
8128	21.548	3.6364	0.1	-226.19
8129	21.548	3.8182	0.1	-276.17
8130	21.548	4.	0.1	-332.3
8131	21.548	4.1818	0.1	-364.85
8132	21.548	4.3636	0.1	-356.75
8133	21.548	4.5455	0.1	-317.36
8134	21.548	4.7273	0.1	-264.76
8135	21.548	4.9091	0.1	-210.69
8136	21.548	5.0909	0.1	-159.51
8137	21.548	5.2727	0.1	-113.41
8138	21.548	5.4545	0.1	-73.642
8139	21.548	5.6364	0.1	-41.306
8140	21.548	5.8182	0.1	-16.998
8141	21.732	0.18182	0.1	-16.061
8142	21.732	0.36364	0.1	-41.423
8143	21.732	0.54545	0.1	-78.9
8144	21.732	0.72727	0.1	-125.54
8145	21.732	0.90909	0.1	-180.12
8146	21.732	1.0909	0.1	-242.52
8147	21.732	1.2727	0.1	-313.32
8148	21.732	1.4545	0.1	-389.92
8149	21.732	1.6364	0.1	-467.18
8150	21.732	1.8182	0.1	-502.5
8151	21.732	2.	0.1	-438.25
8152	21.732	2.1818	0.1	-327.39
8153	21.732	2.3636	0.1	-244.14
8154	21.732	2.5455	0.1	-200.55
8155	21.732	2.7273	0.1	-179.08
8156	21.732	2.9091	0.1	-170.14
8157	21.732	3.0909	0.1	-170.14
8158	21.732	3.2727	0.1	-179.08
8159	21.732	3.4545	0.1	-200.55
8160	21.732	3.6364	0.1	-244.14
8161	21.732	3.8182	0.1	-327.39
8162	21.732	4.	0.1	-438.25
8163	21.732	4.1818	0.1	-502.5
8164	21.732	4.3636	0.1	-467.18
8165	21.732	4.5455	0.1	-389.92
8166	21.732	4.7273	0.1	-313.32
8167	21.732	4.9091	0.1	-242.52
8168	21.732	5.0909	0.1	-180.12
8169	21.732	5.2727	0.1	-125.54
8170	21.732	5.4545	0.1	-78.9
8171	21.732	5.6364	0.1	-41.422
8172	21.732	5.8182	0.1	-16.061
8173	21.916	0.18182	0.1	-19.6
8174	21.916	0.36364	0.1	-52.916
8175	21.916	0.54545	0.1	-99.429
8176	21.916	0.72727	0.1	-154.72
8177	21.916	0.90909	0.1	-218.9
8178	21.916	1.0909	0.1	-293.76
8179	21.916	1.2727	0.1	-383.21
8180	21.916	1.4545	0.1	-493.04
8181	21.916	1.6364	0.1	-640.17
8182	21.916	1.8182	0.1	-798.03
8183	21.916	2.	0.1	-676.39
8184	21.916	2.1818	0.1	-390.8
8185	21.916	2.3636	0.1	-252.22
8186	21.916	2.5455	0.1	-197.79
8187	21.916	2.7273	0.1	-174.7
8188	21.916	2.9091	0.1	-164.9
8189	21.916	3.0909	0.1	-164.9
8190	21.916	3.2727	0.1	-174.7
8191	21.916	3.4545	0.1	-197.79
8192	21.916	3.6364	0.1	-252.22
8193	21.916	3.8182	0.1	-390.8
8194	21.916	4.	0.1	-676.39
8195	21.916	4.1818	0.1	-798.03
8196	21.916	4.3636	0.1	-640.17
8197	21.916	4.5455	0.1	-493.04
8198	21.916	4.7273	0.1	-383.21
8199	21.916	4.9091	0.1	-293.76
8200	21.916	5.0909	0.1	-218.9
8201	21.916	5.2727	0.1	-154.72
8202	21.916	5.4545	0.1	-99.429
8203	21.916	5.6364	0.1	-52.916
8204	21.916	5.8182	0.1	-19.6
8205	22.44	4.	0.1	26.232
8206	22.613	4.	0.1	-9.2222
8207	22.787	4.	0.1	1.2301
8208	22.96	4.	0.1	-0.58737
8209	23.133	4.	0.1	-0.11884
8210	23.307	4.	0.1	-0.23734
8211	23.48	4.	0.1	-0.25041
8212	23.653	4.	0.1	-0.57408
8213	23.827	4.	0.1	-7.9307
8214	23.827	2.	0.1	-7.9307
8215	23.653	2.	0.1	-0.57409
8216	23.48	2.	0.1	-0.25041
8217	23.307	2.	0.1	-0.23734
8218	23.133	2.	0.1	-0.11884
8219	22.96	2.	0.1	-0.58737
8220	22.787	2.	0.1	1.2301
8221	22.613	2.	0.1	-9.2222
8222	22.44	2.	0.1	26.232
8223	22.1	3.8182	0.1	-392.63
8224	22.1	3.6364	0.1	-220.38
8225	22.1	3.4545	0.1	-175.83
8226	22.1	3.2727	0.1	-154.96
8227	22.1	3.0909	0.1	-146.3
8228	22.1	2.9091	0.1	-146.3
8229	22.1	2.7273	0.1	-154.96
8230	22.1	2.5455	0.1	-175.83
8231	22.1	2.3636	0.1	-220.38
8232	22.1	2.1818	0.1	-392.63
8233	22.267	5.8182	0.1	-2.0373
8234	22.267	5.6364	0.1	-3.9308
8235	22.267	5.4545	0.1	-6.0622
8236	22.267	5.2727	0.1	-8.4815
8237	22.267	5.0909	0.1	-11.432
8238	22.267	4.9091	0.1	-15.356
8239	22.267	4.7273	0.1	-20.521
8240	22.267	4.5455	0.1	-31.493
8241	22.267	4.3636	0.1	-28.972
8242	22.267	4.1818	0.1	-163.76
8243	22.267	4.	0.1	-148.97
8244	22.1	4.	0.1	-1114.1
8245	22.1	4.1818	0.1	-964.1
8246	22.1	4.3636	0.1	-553.64
8247	22.1	4.5455	0.1	-416.92
8248	22.1	4.7273	0.1	-312.71
8249	22.1	4.9091	0.1	-235.07
8250	22.1	5.0909	0.1	-173.14
8251	22.1	5.2727	0.1	-122.
8252	22.1	5.4545	0.1	-79.327
8253	22.1	5.6364	0.1	-44.102
8254	22.1	5.8182	0.1	-16.23
8255	22.267	0.18182	0.1	-2.0373
8256	22.267	0.36364	0.1	-3.9308
8257	22.267	0.54545	0.1	-6.0622
8258	22.267	0.72727	0.1	-8.4815
8259	22.267	0.90909	0.1	-11.432
8260	22.267	1.0909	0.1	-15.356
8261	22.267	1.2727	0.1	-20.521
8262	22.267	1.4545	0.1	-31.493
8263	22.267	1.6364	0.1	-28.972
8264	22.267	1.8182	0.1	-163.76
8265	22.267	2.	0.1	-148.97
8266	22.1	2.	0.1	-1114.1
8267	22.1	1.8182	0.1	-964.1
8268	22.1	1.6364	0.1	-553.64
8269	22.1	1.4545	0.1	-416.92
8270	22.1	1.2727	0.1	-312.71
8271	22.1	1.0909	0.1	-235.07
8272	22.1	0.90909	0.1	-173.14
8273	22.1	0.72727	0.1	-122.
8274	22.1	0.54545	0.1	-79.327
8275	22.1	0.36364	0.1	-44.102
8276	22.1	0.18182	0.1	-16.23
8277	22.267	6.	0.1	-0.60191
8278	22.44	6.	0.1	-1.8133
8279	22.613	6.	0.1	-3.3883
8280	22.787	6.	0.1	-4.8688
8281	22.96	6.	0.1	-6.1905
8282	23.133	6.	0.1	-7.39
8283	23.307	6.	0.1	-8.5203
8284	23.48	6.	0.1	-9.534
8285	23.653	6.	0.1	-10.35
8286	23.827	6.	0.1	-9.4028
8287	24.	6.	0.1	-5.0734
8288	24.	5.8182	0.1	-27.858
8289	24.	5.6364	0.1	-40.592
8290	24.	5.4545	0.1	-44.63
8291	24.	5.2727	0.1	-43.97
8292	24.	5.0909	0.1	-40.674
8293	24.	4.9091	0.1	-36.214
8294	24.	4.7273	0.1	-31.527
8295	24.	4.5455	0.1	-27.041
8296	24.	4.3636	0.1	-22.802
8297	24.	4.1818	0.1	-18.645
8298	24.	4.	0.1	-14.328
8299	24.	3.8182	0.1	-9.6559
8300	24.	3.6364	0.1	-4.7329
8301	24.	3.4545	0.1	-3.5568
8302	24.	3.2727	0.1	-3.6507
8303	24.	3.0909	0.1	-3.7123
8304	24.	2.9091	0.1	-3.7123
8305	24.	2.7273	0.1	-3.6507
8306	24.	2.5455	0.1	-3.5568
8307	24.	2.3636	0.1	-4.7329
8308	24.	2.1818	0.1	-9.6559
8309	24.	2.	0.1	-14.328
8310	24.	1.8182	0.1	-18.645
8311	24.	1.6364	0.1	-22.802
8312	24.	1.4545	0.1	-27.041
8313	24.	1.2727	0.1	-31.527
8314	24.	1.0909	0.1	-36.214
8315	24.	0.90909	0.1	-40.674
8316	24.	0.72727	0.1	-43.97
8317	24.	0.54545	0.1	-44.63
8318	24.	0.36364	0.1	-40.592
8319	24.	0.18182	0.1	-27.858
8320	1.5894e-015	0.18182	0.1	1061.4
8321	3.1789e-015	0.36364	0.1	2241.3
8322	4.7683e-015	0.54545	0.1	2784.3
8323	6.3578e-015	0.72727	0.1	3108.5
8324	7.9472e-015	0.90909	0.1	3323.5
8325	9.5366e-015	1.0909	0.1	3476.6
8326	1.1126e-014	1.2727	0.1	3589.8
8327	1.2716e-014	1.4545	0.1	3675.6
8328	1.4305e-014	1.6364	0.1	3741.6
8329	1.5894e-014	1.8182	0.1	3792.8
8330	1.7484e-014	2.	0.1	3832.5
8331	1.9073e-014	2.1818	0.1	3863.
8332	2.0663e-014	2.3636	0.1	3885.8
8333	2.2252e-014	2.5455	0.1	3902.1
8334	2.3842e-014	2.7273	0.1	3912.7
8335	2.5431e-014	2.9091	0.1	3917.9
8336	2.702e-014	3.0909	0.1	3917.9
8337	2.861e-014	3.2727	0.1	3912.7
8338	3.0199e-014	3.4545	0.1	3902.1
8339	3.1789e-014	3.6364	0.1	3885.8
8340	3.3378e-014	3.8182	0.1	3863.
8341	3.4968e-014	4.	0.1	3832.5
8342	3.6557e-014	4.1818	0.1	3792.8
8343	3.8147e-014	4.3636	0.1	3741.6
8344	3.9736e-014	4.5455	0.1	3675.6
8345	4.1325e-014	4.7273	0.1	3589.8
8346	4.2915e-014	4.9091	0.1	3476.6
8347	4.4504e-014	5.0909	0.1	3323.5
8348	4.6094e-014	5.2727	0.1	3108.5
8349	4.7683e-014	5.4545	0.1	2784.3
8350	4.9273e-014	5.6364	0.1	2241.3
8351	5.0862e-014	5.8182	0.1	1061.4
8352	24.	0.	0.1	-5.0734
8353	23.827	0.	0.1	-9.4028
8354	23.653	0.	0.1	-10.35
8355	23.48	0.	0.1	-9.534
8356	23.307	0.	0.1	-8.5203
8357	23.133	0.	0.1	-7.39
8358	22.96	0.	0.1	-6.1905
8359	22.787	0.	0.1	-4.8688
8360	22.613	0.	0.1	-3.3883
8361	22.44	0.	0.1	-1.8133
8362	22.267	0.	0.1	-0.60191
8363	22.1	0.	0.1	-1.5474
8364	21.916	-1.4437e-030	0.1	-1.0788
8365	21.732	-1.4316e-030	0.1	-0.94908
8366	21.548	-1.4194e-030	0.1	-1.2463
8367	21.363	-1.4073e-030	0.1	-1.6453
8368	21.179	-1.3952e-030	0.1	-2.1172
8369	20.995	-1.383e-030	0.1	-2.6781
8370	20.811	-1.3709e-030	0.1	-3.295
8371	20.627	-1.3588e-030	0.1	-3.9389
8372	20.442	-1.3466e-030	0.1	-4.5804
8373	20.258	-1.3345e-030	0.1	-5.1968
8374	20.074	-1.3224e-030	0.1	-5.7715
8375	19.89	-1.3102e-030	0.1	-6.2944
8376	19.706	-1.2981e-030	0.1	-6.7606
8377	19.522	-1.286e-030	0.1	-7.1687
8378	19.337	-1.2738e-030	0.1	-7.5203
8379	19.153	-1.2617e-030	0.1	-7.8188
8380	18.969	-1.2496e-030	0.1	-8.0682
8381	18.785	-1.2374e-030	0.1	-8.2731
8382	18.601	-1.2253e-030	0.1	-8.4384
8383	18.417	-1.2132e-030	0.1	-8.5685
8384	18.233	-1.2011e-030	0.1	-8.6676
8385	18.048	-1.1889e-030	0.1	-8.7397
8386	17.864	-1.1768e-030	0.1	-8.7881
8387	17.68	-1.1647e-030	0.1	-8.816
8388	17.496	-1.1525e-030	0.1	-8.8262
8389	17.312	-1.1404e-030	0.1	-8.821
8390	17.128	-1.1283e-030	0.1	-8.8026
8391	16.943	-1.1161e-030	0.1	-8.7727
8392	16.759	-1.104e-030	0.1	-8.7329
8393	16.575	-1.0919e-030	0.1	-8.6846
8394	16.391	-1.0797e-030	0.1	-8.6289
8395	16.207	-1.0676e-030	0.1	-8.5669
8396	16.022	-1.0555e-030	0.1	-8.4994
8397	15.838	-1.0433e-030	0.1	-8.4272
8398	15.654	-1.0312e-030	0.1	-8.3508
8399	15.47	-1.0191e-030	0.1	-8.2707
8400	15.286	-1.0069e-030	0.1	-8.1876
8401	15.102	-9.9481e-031	0.1	-8.1016
8402	14.917	-9.8268e-031	0.1	-8.0131
8403	14.733	-9.7055e-031	0.1	-7.9224
8404	14.549	-9.5842e-031	0.1	-7.8296
8405	14.365	-9.4628e-031	0.1	-7.7347
8406	14.181	-9.3415e-031	0.1	-7.6381
8407	13.997	-9.2202e-031	0.1	-7.5397
8408	13.813	-9.0989e-031	0.1	-7.4394
8409	13.628	-8.9776e-031	0.1	-7.3375
8410	13.444	-8.8562e-031	0.1	-7.2336
8411	13.26	-8.7349e-031	0.1	-7.1277
8412	13.076	-8.6136e-031	0.1	-7.0199
8413	12.892	-8.4923e-031	0.1	-6.9099
8414	12.708	-8.371e-031	0.1	-6.7976
8415	12.523	-8.2497e-031	0.1	-6.6828
8416	12.339	-8.1283e-031	0.1	-6.5653
8417	12.155	-8.007e-031	0.1	-6.4448
8418	11.971	-7.8857e-031	0.1	-6.3213
8419	11.787	-7.7644e-031	0.1	-6.1942
8420	11.602	-7.6431e-031	0.1	-6.0633
8421	11.418	-7.5217e-031	0.1	-5.9286
8422	11.234	-7.4004e-031	0.1	-5.7894
8423	11.05	-7.2791e-031	0.1	-5.6454
8424	10.866	-7.1578e-031	0.1	-5.4964
8425	10.682	-7.0365e-031	0.1	-5.3419
8426	10.498	-6.9152e-031	0.1	-5.1814
8427	10.313	-6.7938e-031	0.1	-5.0147
8428	10.129	-6.6725e-031	0.1	-4.8413
8429	9.945	-6.5512e-031	0.1	-4.6605
8430	9.7608	-6.4299e-031	0.1	-4.4722
8431	9.5767	-6.3086e-031	0.1	-4.2757
8432	9.3925	-6.1872e-031	0.1	-4.0707
8433	9.2083	-6.0659e-031	0.1	-3.8566
8434	9.0242	-5.9446e-031	0.1	-3.6331
8435	8.84	-5.8233e-031	0.1	-3.3997
8436	8.6558	-5.702e-031	0.1	-3.156
8437	8.4717	-5.5806e-031	0.1	-2.9017
8438	8.2875	-5.4593e-031	0.1	-2.6365
8439	8.1033	-5.338e-031	0.1	-2.3601
8440	7.9192	-5.2167e-031	0.1	-2.0726
8441	7.735	-5.0954e-031	0.1	-1.7739
8442	7.5508	-4.9741e-031	0.1	-1.4643
8443	7.3667	-4.8527e-031	0.1	-1.144
8444	7.1825	-4.7314e-031	0.1	-0.8138
8445	6.9983	-4.6101e-031	0.1	-0.47723
8446	6.8142	-4.4888e-031	0.1	-0.48654
8447	6.63	-4.3675e-031	0.1	-0.53079
8448	6.4458	-4.2461e-031	0.1	-0.57877
8449	6.2617	-4.1248e-031	0.1	-0.63071
8450	6.0775	-4.0035e-031	0.1	-0.68689
8451	5.8933	-3.8822e-031	0.1	-0.74768
8452	5.7092	-3.7609e-031	0.1	-0.81344
8453	5.525	-3.6396e-031	0.1	-0.88457
8454	5.3408	-3.5182e-031	0.1	-0.96154
8455	5.1567	-3.3969e-031	0.1	-1.0448
8456	4.9725	-3.2756e-031	0.1	-1.135
8457	4.7883	-3.1543e-031	0.1	-1.2328
8458	4.6042	-3.033e-031	0.1	-1.3388
8459	4.42	-2.9116e-031	0.1	-1.4541
8460	4.2358	-2.7903e-031	0.1	-1.58
8461	4.0517	-2.669e-031	0.1	-1.7181
8462	3.8675	-2.5477e-031	0.1	-1.8711
8463	3.6833	-2.4264e-031	0.1	-2.0441
8464	3.4992	-2.305e-031	0.1	-2.2477
8465	3.315	-2.1837e-031	0.1	-2.5129
8466	3.1308	-2.0624e-031	0.1	-2.9654
8467	2.9467	-1.9411e-031	0.1	-4.0839
8468	2.7625	-1.8198e-031	0.1	-6.1825
8469	2.5783	-1.6985e-031	0.1	-9.0371
8470	2.3942	-1.5771e-031	0.1	-12.634
8471	2.21	-1.4558e-031	0.1	-17.084
8472	2.0258	-1.3345e-031	0.1	-22.557
8473	1.8417	-1.2132e-031	0.1	-29.281
8474	1.6575	-1.0919e-031	0.1	-37.574
8475	1.4733	-9.7055e-032	0.1	-47.865
8476	1.2892	-8.4923e-032	0.1	-60.83
8477	1.105	-7.2791e-032	0.1	-77.367
8478	0.92083	-6.0659e-032	0.1	-99.476
8479	0.73667	-4.8527e-032	0.1	-129.43
8480	0.5525	-3.6396e-032	0.1	-175.94
8481	0.36833	-2.4264e-032	0.1	-256.06
8482	0.18417	-1.2132e-032	0.1	-442.23
8483	0.	0.	0.1	-1820.
8484	3.937e-014	6.	0.1	-1820.
8485	0.18417	6.	0.1	-442.23
8486	0.36833	6.	0.1	-256.06
8487	0.5525	6.	0.1	-175.94
8488	0.73667	6.	0.1	-129.43
8489	0.92083	6.	0.1	-99.476
8490	1.105	6.	0.1	-77.367
8491	1.2892	6.	0.1	-60.83
8492	1.4733	6.	0.1	-47.865
8493	1.6575	6.	0.1	-37.574
8494	1.8417	6.	0.1	-29.281
8495	2.0258	6.	0.1	-22.557
8496	2.21	6.	0.1	-17.084
8497	2.3942	6.	0.1	-12.634
8498	2.5783	6.	0.1	-9.0371
8499	2.7625	6.	0.1	-6.1825
8500	2.9467	6.	0.1	-4.0839
8501	3.1308	6.	0.1	-2.9654
8502	3.315	6.	0.1	-2.5129
8503	3.4992	6.	0.1	-2.2477
8504	3.6833	6.	0.1	-2.0441
8505	3.8675	6.	0.1	-1.8711
8506	4.0517	6.	0.1	-1.7181
8507	4.2358	6.	0.1	-1.58
8508	4.42	6.	0.1	-1.4541
8509	4.6042	6.	0.1	-1.3388
8510	4.7883	6.	0.1	-1.2328
8511	4.9725	6.	0.1	-1.135
8512	5.1567	6.	0.1	-1.0448
8513	5.3408	6.	0.1	-0.96154
8514	5.525	6.	0.1	-0.88457
8515	5.7092	6.	0.1	-0.81344
8516	5.8933	6.	0.1	-0.74768
8517	6.0775	6.	0.1	-0.68689
8518	6.2617	6.	0.1	-0.63071
8519	6.4458	6.	0.1	-0.57877
8520	6.63	6.	0.1	-0.53078
8521	6.8142	6.	0.1	-0.48654
8522	6.9983	6.	0.1	-0.47722
8523	7.1825	6.	0.1	-0.81379
8524	7.3667	6.	0.1	-1.144
8525	7.5508	6.	0.1	-1.4643
8526	7.735	6.	0.1	-1.7739
8527	7.9192	6.	0.1	-2.0726
8528	8.1033	6.	0.1	-2.3601
8529	8.2875	6.	0.1	-2.6364
8530	8.4717	6.	0.1	-2.9017
8531	8.6558	6.	0.1	-3.156
8532	8.84	6.	0.1	-3.3997
8533	9.0242	6.	0.1	-3.6331
8534	9.2083	6.	0.1	-3.8566
8535	9.3925	6.	0.1	-4.0707
8536	9.5767	6.	0.1	-4.2757
8537	9.7608	6.	0.1	-4.4722
8538	9.945	6.	0.1	-4.6605
8539	10.129	6.	0.1	-4.8413
8540	10.313	6.	0.1	-5.0147
8541	10.498	6.	0.1	-5.1814
8542	10.682	6.	0.1	-5.3419
8543	10.866	6.	0.1	-5.4964
8544	11.05	6.	0.1	-5.6454
8545	11.234	6.	0.1	-5.7894
8546	11.418	6.	0.1	-5.9286
8547	11.602	6.	0.1	-6.0633
8548	11.787	6.	0.1	-6.1942
8549	11.971	6.	0.1	-6.3212
8550	12.155	6.	0.1	-6.4448
8551	12.339	6.	0.1	-6.5653
8552	12.523	6.	0.1	-6.6828
8553	12.708	6.	0.1	-6.7975
8554	12.892	6.	0.1	-6.9099
8555	13.076	6.	0.1	-7.0199
8556	13.26	6.	0.1	-7.1277
8557	13.444	6.	0.1	-7.2336
8558	13.628	6.	0.1	-7.3374
8559	13.813	6.	0.1	-7.4394
8560	13.997	6.	0.1	-7.5397
8561	14.181	6.	0.1	-7.6381
8562	14.365	6.	0.1	-7.7347
8563	14.549	6.	0.1	-7.8295
8564	14.733	6.	0.1	-7.9224
8565	14.917	6.	0.1	-8.0131
8566	15.102	6.	0.1	-8.1016
8567	15.286	6.	0.1	-8.1876
8568	15.47	6.	0.1	-8.2707
8569	15.654	6.	0.1	-8.3507
8570	15.838	6.	0.1	-8.4271
8571	16.022	6.	0.1	-8.4994
8572	16.207	6.	0.1	-8.5669
8573	16.391	6.	0.1	-8.6289
8574	16.575	6.	0.1	-8.6845
8575	16.759	6.	0.1	-8.7329
8576	16.943	6.	0.1	-8.7727
8577	17.128	6.	0.1	-8.8025
8578	17.312	6.	0.1	-8.821
8579	17.496	6.	0.1	-8.8262
8580	17.68	6.	0.1	-8.816
8581	17.864	6.	0.1	-8.7881
8582	18.048	6.	0.1	-8.7396
8583	18.233	6.	0.1	-8.6676
8584	18.417	6.	0.1	-8.5685
8585	18.601	6.	0.1	-8.4384
8586	18.785	6.	0.1	-8.2731
8587	18.969	6.	0.1	-8.0682
8588	19.153	6.	0.1	-7.8188
8589	19.337	6.	0.1	-7.5203
8590	19.522	6.	0.1	-7.1687
8591	19.706	6.	0.1	-6.7605
8592	19.89	6.	0.1	-6.2944
8593	20.074	6.	0.1	-5.7715
8594	20.258	6.	0.1	-5.1968
8595	20.442	6.	0.1	-4.5804
8596	20.627	6.	0.1	-3.9389
8597	20.811	6.	0.1	-3.295
8598	20.995	6.	0.1	-2.6781
8599	21.179	6.	0.1	-2.1172
8600	21.363	6.	0.1	-1.6453
8601	21.548	6.	0.1	-1.2463
8602	21.732	6.	0.1	-0.94909
8603	21.916	6.	0.1	-1.0788
8604	22.1	6.	0.1	-1.5474
8605	21.916	6.	0.	-72.387
8606	21.732	6.	0.	-151.87
8607	21.548	6.	0.	-230.28
8608	21.363	6.	0.	-307.14
8609	21.179	6.	0.	-381.54
8610	20.995	6.	0.	-452.79
8611	20.811	6.	0.	-520.53
8612	20.627	6.	0.	-584.75
8613	20.442	6.	0.	-645.66
8614	20.258	6.	0.	-703.57
8615	20.074	6.	0.	-758.87
8616	19.89	6.	0.	-811.96
8617	19.706	6.	0.	-863.19
8618	19.522	6.	0.	-912.91
8619	19.337	6.	0.	-961.41
8620	19.153	6.	0.	-1008.9
8621	18.969	6.	0.	-1055.7
8622	18.785	6.	0.	-1101.8
8623	18.601	6.	0.	-1147.6
8624	18.417	6.	0.	-1192.9
8625	18.233	6.	0.	-1238.1
8626	18.048	6.	0.	-1283.1
8627	17.864	6.	0.	-1327.9
8628	17.68	6.	0.	-1372.8
8629	17.496	6.	0.	-1417.6
8630	17.312	6.	0.	-1462.5
8631	17.128	6.	0.	-1507.4
8632	16.943	6.	0.	-1552.4
8633	16.759	6.	0.	-1597.6
8634	16.575	6.	0.	-1642.8
8635	16.391	6.	0.	-1688.2
8636	16.207	6.	0.	-1733.7
8637	16.022	6.	0.	-1779.3
8638	15.838	6.	0.	-1825.1
8639	15.654	6.	0.	-1871.1
8640	15.47	6.	0.	-1917.2
8641	15.286	6.	0.	-1963.5
8642	15.102	6.	0.	-2010.
8643	14.917	6.	0.	-2056.7
8644	14.733	6.	0.	-2103.5
8645	14.549	6.	0.	-2150.5
8646	14.365	6.	0.	-2197.8
8647	14.181	6.	0.	-2245.2
8648	13.997	6.	0.	-2292.8
8649	13.813	6.	0.	-2340.6
8650	13.628	6.	0.	-2388.6
8651	13.444	6.	0.	-2436.8
8652	13.26	6.	0.	-2485.2
8653	13.076	6.	0.	-2533.8
8654	12.892	6.	0.	-2582.6
8655	12.708	6.	0.	-2631.6
8656	12.523	6.	0.	-2680.8
8657	12.339	6.	0.	-2730.3
8658	12.155	6.	0.	-2779.9
8659	11.971	6.	0.	-2829.8
8660	11.787	6.	0.	-2879.9
8661	11.602	6.	0.	-2930.2
8662	11.418	6.	0.	-2980.8
8663	11.234	6.	0.	-3031.5
8664	11.05	6.	0.	-3082.5
8665	10.866	6.	0.	-3133.8
8666	10.682	6.	0.	-3185.3
8667	10.498	6.	0.	-3237.
8668	10.313	6.	0.	-3288.9
8669	10.129	6.	0.	-3341.1
8670	9.945	6.	0.	-3393.6
8671	9.7608	6.	0.	-3446.3
8672	9.5767	6.	0.	-3499.3
8673	9.3925	6.	0.	-3552.6
8674	9.2083	6.	0.	-3606.1
8675	9.0242	6.	0.	-3659.9
8676	8.84	6.	0.	-3714.1
8677	8.6558	6.	0.	-3768.5
8678	8.4717	6.	0.	-3823.2
8679	8.2875	6.	0.	-3878.2
8680	8.1033	6.	0.	-3933.6
8681	7.9192	6.	0.	-3989.3
8682	7.735	6.	0.	-4045.4
8683	7.5508	6.	0.	-4101.8
8684	7.3667	6.	0.	-4158.7
8685	7.1825	6.	0.	-4215.9
8686	6.9983	6.	0.	-4273.5
8687	6.8142	6.	0.	-4331.5
8688	6.63	6.	0.	-4390.
8689	6.4458	6.	0.	-4449.
8690	6.2617	6.	0.	-4508.4
8691	6.0775	6.	0.	-4568.3
8692	5.8933	6.	0.	-4628.8
8693	5.7092	6.	0.	-4689.8
8694	5.525	6.	0.	-4751.3
8695	5.3408	6.	0.	-4813.4
8696	5.1567	6.	0.	-4876.1
8697	4.9725	6.	0.	-4939.4
8698	4.7883	6.	0.	-5003.3
8699	4.6042	6.	0.	-5067.7
8700	4.42	6.	0.	-5132.8
8701	4.2358	6.	0.	-5198.3
8702	4.0517	6.	0.	-5264.3
8703	3.8675	6.	0.	-5330.8
8704	3.6833	6.	0.	-5397.4
8705	3.4992	6.	0.	-5464.2
8706	3.315	6.	0.	-5530.9
8707	3.1308	6.	0.	-5597.1
8708	2.9467	6.	0.	-5662.5
8709	2.7625	6.	0.	-5726.5
8710	2.5783	6.	0.	-5788.3
8711	2.3942	6.	0.	-5847.
8712	2.21	6.	0.	-5901.2
8713	2.0258	6.	0.	-5949.3
8714	1.8417	6.	0.	-5988.6
8715	1.6575	6.	0.	-6015.9
8716	1.4733	6.	0.	-6026.4
8717	1.2892	6.	0.	-6012.9
8718	1.105	6.	0.	-5964.7
8719	0.92083	6.	0.	-5864.3
8720	0.73667	6.	0.	-5682.7
8721	0.5525	6.	0.	-5358.6
8722	0.36833	6.	0.	-4783.1
8723	0.18417	6.	0.	-3571.2
8724	22.1	6.	0.	-6.3646
8725	3.937e-014	6.	0.	-763.21
8726	0.18417	-1.2132e-032	0.	-3571.2
8727	0.36833	-2.4264e-032	0.	-4783.1
8728	0.5525	-3.6396e-032	0.	-5358.6
8729	0.73667	-4.8527e-032	0.	-5682.7
8730	0.92083	-6.0659e-032	0.	-5864.3
8731	1.105	-7.2791e-032	0.	-5964.7
8732	1.2892	-8.4923e-032	0.	-6012.9
8733	1.4733	-9.7055e-032	0.	-6026.4
8734	1.6575	-1.0919e-031	0.	-6015.9
8735	1.8417	-1.2132e-031	0.	-5988.6
8736	2.0258	-1.3345e-031	0.	-5949.3
8737	2.21	-1.4558e-031	0.	-5901.2
8738	2.3942	-1.5771e-031	0.	-5847.
8739	2.5783	-1.6985e-031	0.	-5788.3
8740	2.7625	-1.8198e-031	0.	-5726.5
8741	2.9467	-1.9411e-031	0.	-5662.5
8742	3.1308	-2.0624e-031	0.	-5597.1
8743	3.315	-2.1837e-031	0.	-5530.9
8744	3.4992	-2.305e-031	0.	-5464.2
8745	3.6833	-2.4264e-031	0.	-5397.4
8746	3.8675	-2.5477e-031	0.	-5330.8
8747	4.0517	-2.669e-031	0.	-5264.3
8748	4.2358	-2.7903e-031	0.	-5198.3
8749	4.42	-2.9116e-031	0.	-5132.8
8750	4.6042	-3.033e-031	0.	-5067.7
8751	4.7883	-3.1543e-031	0.	-5003.3
8752	4.9725	-3.2756e-031	0.	-4939.4
8753	5.1567	-3.3969e-031	0.	-4876.1
8754	5.3408	-3.5182e-031	0.	-4813.4
8755	5.525	-3.6396e-031	0.	-4751.3
8756	5.7092	-3.7609e-031	0.	-4689.8
8757	5.8933	-3.8822e-031	0.	-4628.8
8758	6.0775	-4.0035e-031	0.	-4568.3
8759	6.2617	-4.1248e-031	0.	-4508.4
8760	6.4458	-4.2461e-031	0.	-4449.
8761	6.63	-4.3675e-031	0.	-4390.
8762	6.8142	-4.4888e-031	0.	-4331.5
8763	6.9983	-4.6101e-031	0.	-4273.5
8764	7.1825	-4.7314e-031	0.	-4215.9
8765	7.3667	-4.8527e-031	0.	-4158.7
8766	7.5508	-4.9741e-031	0.	-4101.8
8767	7.735	-5.0954e-031	0.	-4045.4
8768	7.9192	-5.2167e-031	0.	-3989.3
8769	8.1033	-5.338e-031	0.	-3933.6
8770	8.2875	-5.4593e-031	0.	-3878.2
8771	8.4717	-5.5806e-031	0.	-3823.2
8772	8.6558	-5.702e-031	0.	-3768.5
8773	8.84	-5.8233e-031	0.	-3714.1
8774	9.0242	-5.9446e-031	0.	-3659.9
8775	9.2083	-6.0659e-031	0.	-3606.1
8776	9.3925	-6.1872e-031	0.	-3552.6
8777	9.5767	-6.3086e-031	0.	-3499.3
8778	9.7608	-6.4299e-031	0.	-3446.3
8779	9.945	-6.5512e-031	0.	-3393.6
8780	10.129	-6.6725e-031	0.	-3341.1
8781	10.313	-6.7938e-031	0.	-3288.9
8782	10.498	-6.9152e-031	0.	-3237.
8783	10.682	-7.0365e-031	0.	-3185.3
8784	10.866	-7.1578e-031	0.	-3133.8
8785	11.05	-7.2791e-031	0.	-3082.5
8786	11.234	-7.4004e-031	0.	-3031.5
8787	11.418	-7.5217e-031	0.	-2980.8
8788	11.602	-7.6431e-031	0.	-2930.2
8789	11.787	-7.7644e-031	0.	-2879.9
8790	11.971	-7.8857e-031	0.	-2829.8
8791	12.155	-8.007e-031	0.	-2779.9
8792	12.339	-8.1283e-031	0.	-2730.3
8793	12.523	-8.2497e-031	0.	-2680.8
8794	12.708	-8.371e-031	0.	-2631.6
8795	12.892	-8.4923e-031	0.	-2582.6
8796	13.076	-8.6136e-031	0.	-2533.8
8797	13.26	-8.7349e-031	0.	-2485.2
8798	13.444	-8.8562e-031	0.	-2436.8
8799	13.628	-8.9776e-031	0.	-2388.6
8800	13.813	-9.0989e-031	0.	-2340.6
8801	13.997	-9.2202e-031	0.	-2292.8
8802	14.181	-9.3415e-031	0.	-2245.2
8803	14.365	-9.4628e-031	0.	-2197.8
8804	14.549	-9.5842e-031	0.	-2150.5
8805	14.733	-9.7055e-031	0.	-2103.5
8806	14.917	-9.8268e-031	0.	-2056.7
8807	15.102	-9.9481e-031	0.	-2010.
8808	15.286	-1.0069e-030	0.	-1963.5
8809	15.47	-1.0191e-030	0.	-1917.2
8810	15.654	-1.0312e-030	0.	-1871.1
8811	15.838	-1.0433e-030	0.	-1825.1
8812	16.022	-1.0555e-030	0.	-1779.3
8813	16.207	-1.0676e-030	0.	-1733.7
8814	16.391	-1.0797e-030	0.	-1688.2
8815	16.575	-1.0919e-030	0.	-1642.8
8816	16.759	-1.104e-030	0.	-1597.6
8817	16.943	-1.1161e-030	0.	-1552.4
8818	17.128	-1.1283e-030	0.	-1507.4
8819	17.312	-1.1404e-030	0.	-1462.5
8820	17.496	-1.1525e-030	0.	-1417.6
8821	17.68	-1.1647e-030	0.	-1372.8
8822	17.864	-1.1768e-030	0.	-1327.9
8823	18.048	-1.1889e-030	0.	-1283.1
8824	18.233	-1.2011e-030	0.	-1238.1
8825	18.417	-1.2132e-030	0.	-1192.9
8826	18.601	-1.2253e-030	0.	-1147.6
8827	18.785	-1.2374e-030	0.	-1101.8
8828	18.969	-1.2496e-030	0.	-1055.7
8829	19.153	-1.2617e-030	0.	-1008.9
8830	19.337	-1.2738e-030	0.	-961.41
8831	19.522	-1.286e-030	0.	-912.91
8832	19.706	-1.2981e-030	0.	-863.19
8833	19.89	-1.3102e-030	0.	-811.96
8834	20.074	-1.3224e-030	0.	-758.87
8835	20.258	-1.3345e-030	0.	-703.57
8836	20.442	-1.3466e-030	0.	-645.66
8837	20.627	-1.3588e-030	0.	-584.75
8838	20.811	-1.3709e-030	0.	-520.53
8839	20.995	-1.383e-030	0.	-452.79
8840	21.179	-1.3952e-030	0.	-381.54
8841	21.363	-1.4073e-030	0.	-307.14
8842	21.548	-1.4194e-030	0.	-230.28
8843	21.732	-1.4316e-030	0.	-151.87
8844	21.916	-1.4437e-030	0.	-72.387
8845	22.1	0.	0.	-6.3646
8846	0.	0.	0.	-763.21
8847	22.44	0.	0.	-21.411
8848	22.613	0.	0.	-37.89
8849	22.787	0.	0.	-48.725
8850	22.96	0.	0.	-54.502
8851	23.133	0.	0.	-55.481
8852	23.307	0.	0.	-52.049
8853	23.48	0.	0.	-44.716
8854	23.653	0.	0.	-34.074
8855	23.827	0.	0.	-20.748
8856	22.267	0.	0.	-2.3236
8857	24.	0.	0.	-4.5697
8858	5.0862e-014	5.8182	0.	-2497.8
8859	4.9273e-014	5.6364	0.	-4635.6
8860	4.7683e-014	5.4545	0.	-5684.7
8861	4.6094e-014	5.2727	0.	-6329.8
8862	4.4504e-014	5.0909	0.	-6760.3
8863	4.2915e-014	4.9091	0.	-7067.6
8864	4.1325e-014	4.7273	0.	-7295.1
8865	3.9736e-014	4.5455	0.	-7467.7
8866	3.8147e-014	4.3636	0.	-7600.6
8867	3.6557e-014	4.1818	0.	-7703.6
8868	3.4968e-014	4.	0.	-7783.4
8869	3.3378e-014	3.8182	0.	-7844.7
8870	3.1789e-014	3.6364	0.	-7890.5
8871	3.0199e-014	3.4545	0.	-7923.2
8872	2.861e-014	3.2727	0.	-7944.2
8873	2.702e-014	3.0909	0.	-7954.5
8874	2.5431e-014	2.9091	0.	-7954.5
8875	2.3842e-014	2.7273	0.	-7944.2
8876	2.2252e-014	2.5455	0.	-7923.2
8877	2.0663e-014	2.3636	0.	-7890.5
8878	1.9073e-014	2.1818	0.	-7844.7
8879	1.7484e-014	2.	0.	-7783.4
8880	1.5894e-014	1.8182	0.	-7703.6
8881	1.4305e-014	1.6364	0.	-7600.6
8882	1.2716e-014	1.4545	0.	-7467.7
8883	1.1126e-014	1.2727	0.	-7295.1
8884	9.5366e-015	1.0909	0.	-7067.6
8885	7.9472e-015	0.90909	0.	-6760.3
8886	6.3578e-015	0.72727	0.	-6329.8
8887	4.7683e-015	0.54545	0.	-5684.7
8888	3.1789e-015	0.36364	0.	-4635.6
8889	1.5894e-015	0.18182	0.	-2497.8
8890	24.	0.18182	0.	-7.4455
8891	24.	0.36364	0.	-10.802
8892	24.	0.54545	0.	-15.505
8893	24.	0.72727	0.	-22.096
8894	24.	0.90909	0.	-30.939
8895	24.	1.0909	0.	-42.184
8896	24.	1.2727	0.	-55.444
8897	24.	1.4545	0.	-69.72
8898	24.	1.6364	0.	-83.558
8899	24.	1.8182	0.	-95.368
8900	24.	2.	0.	-103.81
8901	24.	2.1818	0.	-108.16
8902	24.	2.3636	0.	-108.56
8903	24.	2.5455	0.	-106.04
8904	24.	2.7273	0.	-102.42
8905	24.	2.9091	0.	-99.82
8906	24.	3.0909	0.	-99.82
8907	24.	3.2727	0.	-102.42
8908	24.	3.4545	0.	-106.04
8909	24.	3.6364	0.	-108.56
8910	24.	3.8182	0.	-108.16
8911	24.	4.	0.	-103.81
8912	24.	4.1818	0.	-95.368
8913	24.	4.3636	0.	-83.558
8914	24.	4.5455	0.	-69.72
8915	24.	4.7273	0.	-55.444
8916	24.	4.9091	0.	-42.184
8917	24.	5.0909	0.	-30.939
8918	24.	5.2727	0.	-22.096
8919	24.	5.4545	0.	-15.505
8920	24.	5.6364	0.	-10.802
8921	24.	5.8182	0.	-7.4455
8922	24.	6.	0.	-4.5697
8923	23.827	6.	0.	-20.748
8924	23.653	6.	0.	-34.075
8925	23.48	6.	0.	-44.716
8926	23.307	6.	0.	-52.049
8927	23.133	6.	0.	-55.481
8928	22.96	6.	0.	-54.502
8929	22.787	6.	0.	-48.725
8930	22.613	6.	0.	-37.89
8931	22.44	6.	0.	-21.411
8932	22.267	6.	0.	-2.3236
8933	22.1	1.8182	0.	-408.2
8934	22.1	1.6364	0.	-275.4
8935	22.1	1.4545	0.	-226.78
8936	22.1	1.2727	0.	-190.01
8937	22.1	1.0909	0.	-162.35
8938	22.1	0.90909	0.	-138.13
8939	22.1	0.72727	0.	-115.8
8940	22.1	0.54545	0.	-93.831
8941	22.1	0.36364	0.	-70.716
8942	22.1	0.18182	0.	-42.736
8943	22.1	2.	0.	-1946.1
8944	22.267	0.18182	0.	-22.615
8945	22.267	0.36364	0.	-44.27
8946	22.267	0.54545	0.	-67.224
8947	22.267	0.72727	0.	-94.068
8948	22.267	0.90909	0.	-126.89
8949	22.267	1.0909	0.	-168.37
8950	22.267	1.2727	0.	-222.56
8951	22.267	1.4545	0.	-298.4
8952	22.267	1.6364	0.	-405.46
8953	22.267	1.8182	0.	-629.59
8954	22.267	2.	0.	-2228.1
8955	22.1	4.1818	0.	-408.2
8956	22.1	4.3636	0.	-275.4
8957	22.1	4.5455	0.	-226.78
8958	22.1	4.7273	0.	-190.01
8959	22.1	4.9091	0.	-162.35
8960	22.1	5.0909	0.	-138.13
8961	22.1	5.2727	0.	-115.8
8962	22.1	5.4545	0.	-93.831
8963	22.1	5.6364	0.	-70.716
8964	22.1	5.8182	0.	-42.736
8965	22.1	4.	0.	-1946.1
8966	22.267	5.8182	0.	-22.615
8967	22.267	5.6364	0.	-44.27
8968	22.267	5.4545	0.	-67.224
8969	22.267	5.2727	0.	-94.068
8970	22.267	5.0909	0.	-126.89
8971	22.267	4.9091	0.	-168.37
8972	22.267	4.7273	0.	-222.56
8973	22.267	4.5455	0.	-298.4
8974	22.267	4.3636	0.	-405.46
8975	22.267	4.1818	0.	-629.59
8976	22.267	4.	0.	-2228.1
8977	22.1	2.2727	0.	-1232.5
8978	22.008	2.1818	0.	-1193.3
8979	22.183	2.1818	0.	-1398.8
8980	22.1	2.1818	5.e-002	-79.328
8981	22.1	2.0909	0.	-1627.2
8982	22.1	2.4545	0.	-1012.4
8983	22.008	2.3636	0.	-1019.1
8984	22.183	2.3636	0.	-1073.3
8985	22.1	2.3636	5.e-002	-8.8513
8986	22.1	2.6364	0.	-915.65
8987	22.008	2.5455	0.	-927.25
8988	22.183	2.5455	0.	-937.24
8989	22.1	2.5455	5.e-002	-3.3565
8990	22.1	2.8182	0.	-869.09
8991	22.008	2.7273	0.	-877.59
8992	22.183	2.7273	0.	-869.08
8993	22.1	2.7273	5.e-002	-1.1344
8994	22.1	3.	0.	-855.23
8995	22.008	2.9091	0.	-855.42
8996	22.183	2.9091	0.	-840.02
8997	22.1	2.9091	5.e-002	-0.28635
8998	22.1	3.1818	0.	-869.09
8999	22.008	3.0909	0.	-855.42
9000	22.183	3.0909	0.	-840.02
9001	22.1	3.0909	5.e-002	-0.28632
9002	22.1	3.3636	0.	-915.65
9003	22.008	3.2727	0.	-877.59
9004	22.183	3.2727	0.	-869.08
9005	22.1	3.2727	5.e-002	-1.1344
9006	22.1	3.5455	0.	-1012.4
9007	22.008	3.4545	0.	-927.25
9008	22.183	3.4545	0.	-937.24
9009	22.1	3.4545	5.e-002	-3.3565
9010	22.1	3.7273	0.	-1232.5
9011	22.008	3.6364	0.	-1019.1
9012	22.183	3.6364	0.	-1073.3
9013	22.1	3.6364	5.e-002	-8.8513
9014	22.008	3.8182	0.	-1193.3
9015	22.183	3.8182	0.	-1398.8
9016	22.1	3.8182	5.e-002	-79.328
9017	22.1	3.9091	0.	-1627.2
9018	22.527	2.	0.	-848.12
9019	22.44	2.0909	0.	-1034.1
9020	22.44	1.9091	0.	-871.61
9021	22.44	2.	5.e-002	-49.083
9022	22.353	2.	0.	-1626.8
9023	22.7	2.	0.	-588.43
9024	22.613	2.0909	0.	-706.66
9025	22.613	1.9091	0.	-600.22
9026	22.613	2.	5.e-002	-14.523
9027	22.873	2.	0.	-454.79
9028	22.787	2.0909	0.	-536.37
9029	22.787	1.9091	0.	-467.76
9030	22.787	2.	5.e-002	-10.609
9031	23.047	2.	0.	-359.67
9032	22.96	2.0909	0.	-419.52
9033	22.96	1.9091	0.	-373.37
9034	22.96	2.	5.e-002	-8.2899
9035	23.22	2.	0.	-286.93
9036	23.133	2.0909	0.	-332.32
9037	23.133	1.9091	0.	-301.02
9038	23.133	2.	5.e-002	-7.1488
9039	23.393	2.	0.	-228.98
9040	23.307	2.0909	0.	-263.32
9041	23.307	1.9091	0.	-242.8
9042	23.307	2.	5.e-002	-6.4236
9043	23.567	2.	0.	-183.35
9044	23.48	2.0909	0.	-208.21
9045	23.48	1.9091	0.	-195.67
9046	23.48	2.	5.e-002	-5.9322
9047	23.74	2.	0.	-151.48
9048	23.653	2.0909	0.	-166.22
9049	23.653	1.9091	0.	-158.99
9050	23.653	2.	5.e-002	-5.5383
9051	23.827	2.0909	0.	-140.7
9052	23.827	1.9091	0.	-136.1
9053	23.827	2.	5.e-002	-5.1653
9054	23.913	2.	0.	-118.41
9055	23.74	4.	0.	-151.48
9056	23.827	3.9091	0.	-140.7
9057	23.827	4.0909	0.	-136.1
9058	23.827	4.	5.e-002	-5.1653
9059	23.913	4.	0.	-118.41
9060	23.567	4.	0.	-183.35
9061	23.653	3.9091	0.	-166.22
9062	23.653	4.0909	0.	-158.99
9063	23.653	4.	5.e-002	-5.5383
9064	23.393	4.	0.	-228.98
9065	23.48	3.9091	0.	-208.21
9066	23.48	4.0909	0.	-195.66
9067	23.48	4.	5.e-002	-5.9322
9068	23.22	4.	0.	-286.93
9069	23.307	3.9091	0.	-263.32
9070	23.307	4.0909	0.	-242.8
9071	23.307	4.	5.e-002	-6.4236
9072	23.047	4.	0.	-359.67
9073	23.133	3.9091	0.	-332.32
9074	23.133	4.0909	0.	-301.02
9075	23.133	4.	5.e-002	-7.1488
9076	22.873	4.	0.	-454.79
9077	22.96	3.9091	0.	-419.52
9078	22.96	4.0909	0.	-373.37
9079	22.96	4.	5.e-002	-8.2899
9080	22.7	4.	0.	-588.43
9081	22.787	3.9091	0.	-536.37
9082	22.787	4.0909	0.	-467.76
9083	22.787	4.	5.e-002	-10.609
9084	22.527	4.	0.	-848.11
9085	22.613	3.9091	0.	-706.66
9086	22.613	4.0909	0.	-600.22
9087	22.613	4.	5.e-002	-14.523
9088	22.44	3.9091	0.	-1034.1
9089	22.44	4.0909	0.	-871.61
9090	22.44	4.	5.e-002	-49.083
9091	22.353	4.	0.	-1626.8
9092	21.916	5.7273	0.	-110.01
9093	21.824	5.8182	0.	-127.21
9094	21.916	5.8182	5.e-002	-8.3289
9095	21.916	5.9091	0.	-80.93
9096	22.008	5.8182	0.	-63.491
9097	21.916	5.5455	0.	-144.3
9098	21.824	5.6364	0.	-151.75
9099	21.916	5.6364	5.e-002	-7.6827
9100	22.008	5.6364	0.	-92.89
9101	21.916	5.3636	0.	-181.62
9102	21.824	5.4545	0.	-183.79
9103	21.916	5.4545	5.e-002	-7.9986
9104	22.008	5.4545	0.	-121.87
9105	21.916	5.1818	0.	-221.42
9106	21.824	5.2727	0.	-219.86
9107	21.916	5.2727	5.e-002	-8.6452
9108	22.008	5.2727	0.	-150.92
9109	21.916	5.	0.	-265.27
9110	21.824	5.0909	0.	-260.02
9111	21.916	5.0909	5.e-002	-9.6378
9112	22.008	5.0909	0.	-181.37
9113	21.916	4.8182	0.	-315.94
9114	21.824	4.9091	0.	-305.89
9115	21.916	4.9091	5.e-002	-11.081
9116	22.008	4.9091	0.	-214.98
9117	21.916	4.6364	0.	-379.67
9118	21.824	4.7273	0.	-360.65
9119	21.916	4.7273	5.e-002	-13.431
9120	22.008	4.7273	0.	-254.29
9121	21.916	4.4545	0.	-466.57
9122	21.824	4.5455	0.	-431.15
9123	21.916	4.5455	5.e-002	-16.459
9124	22.008	4.5455	0.	-305.62
9125	21.916	4.2727	0.	-621.16
9126	21.824	4.3636	0.	-526.92
9127	21.916	4.3636	5.e-002	-25.183
9128	22.008	4.3636	0.	-378.01
9129	21.916	4.0909	0.	-869.55
9130	21.824	4.1818	0.	-693.73
9131	21.916	4.1818	5.e-002	-52.197
9132	22.008	4.1818	0.	-509.8
9133	21.916	3.9091	0.	-1015.6
9134	21.824	4.	0.	-900.37
9135	21.916	4.	5.e-002	-91.713
9136	22.008	4.	0.	-1467.8
9137	21.916	3.7273	0.	-994.55
9138	21.824	3.8182	0.	-929.88
9139	21.916	3.8182	5.e-002	-27.891
9140	21.916	3.5455	0.	-937.17
9141	21.824	3.6364	0.	-910.1
9142	21.916	3.6364	5.e-002	-13.122
9143	21.916	3.3636	0.	-890.09
9144	21.824	3.4545	0.	-878.36
9145	21.916	3.4545	5.e-002	-6.0105
9146	21.916	3.1818	0.	-864.03
9147	21.824	3.2727	0.	-856.78
9148	21.916	3.2727	5.e-002	-2.8324
9149	21.916	3.	0.	-855.52
9150	21.824	3.0909	0.	-845.59
9151	21.916	3.0909	5.e-002	-1.7004
9152	21.916	2.8182	0.	-864.03
9153	21.824	2.9091	0.	-845.59
9154	21.916	2.9091	5.e-002	-1.7004
9155	21.916	2.6364	0.	-890.09
9156	21.824	2.7273	0.	-856.78
9157	21.916	2.7273	5.e-002	-2.8324
9158	21.916	2.4545	0.	-937.17
9159	21.824	2.5455	0.	-878.36
9160	21.916	2.5455	5.e-002	-6.0105
9161	21.916	2.2727	0.	-994.55
9162	21.824	2.3636	0.	-910.1
9163	21.916	2.3636	5.e-002	-13.122
9164	21.916	2.0909	0.	-1015.6
9165	21.824	2.1818	0.	-929.88
9166	21.916	2.1818	5.e-002	-27.891
9167	21.916	1.9091	0.	-869.55
9168	21.824	2.	0.	-900.37
9169	21.916	2.	5.e-002	-91.713
9170	22.008	2.	0.	-1467.8
9171	21.916	1.7273	0.	-621.16
9172	21.824	1.8182	0.	-693.73
9173	21.916	1.8182	5.e-002	-52.197
9174	22.008	1.8182	0.	-509.8
9175	21.916	1.5455	0.	-466.57
9176	21.824	1.6364	0.	-526.92
9177	21.916	1.6364	5.e-002	-25.183
9178	22.008	1.6364	0.	-378.01
9179	21.916	1.3636	0.	-379.67
9180	21.824	1.4545	0.	-431.15
9181	21.916	1.4545	5.e-002	-16.459
9182	22.008	1.4545	0.	-305.62
9183	21.916	1.1818	0.	-315.94
9184	21.824	1.2727	0.	-360.65
9185	21.916	1.2727	5.e-002	-13.431
9186	22.008	1.2727	0.	-254.29
9187	21.916	1.	0.	-265.27
9188	21.824	1.0909	0.	-305.89
9189	21.916	1.0909	5.e-002	-11.081
9190	22.008	1.0909	0.	-214.98
9191	21.916	0.81818	0.	-221.42
9192	21.824	0.90909	0.	-260.02
9193	21.916	0.90909	5.e-002	-9.6378
9194	22.008	0.90909	0.	-181.37
9195	21.916	0.63636	0.	-181.62
9196	21.824	0.72727	0.	-219.86
9197	21.916	0.72727	5.e-002	-8.6452
9198	22.008	0.72727	0.	-150.92
9199	21.916	0.45455	0.	-144.3
9200	21.824	0.54545	0.	-183.79
9201	21.916	0.54545	5.e-002	-7.9986
9202	22.008	0.54545	0.	-121.87
9203	21.916	0.27273	0.	-110.01
9204	21.824	0.36364	0.	-151.75
9205	21.916	0.36364	5.e-002	-7.6827
9206	22.008	0.36364	0.	-92.889
9207	21.824	0.18182	0.	-127.21
9208	21.916	0.18182	5.e-002	-8.3289
9209	21.916	9.0909e-002	0.	-80.93
9210	22.008	0.18182	0.	-63.491
9211	21.732	5.7273	0.	-173.05
9212	21.64	5.8182	0.	-201.03
9213	21.732	5.8182	5.e-002	-8.2676
9214	21.732	5.9091	0.	-156.56
9215	21.732	5.5455	0.	-196.91
9216	21.64	5.6364	0.	-218.08
9217	21.732	5.6364	5.e-002	-7.7982
9218	21.732	5.3636	0.	-227.91
9219	21.64	5.4545	0.	-243.27
9220	21.732	5.4545	5.e-002	-8.0409
9221	21.732	5.1818	0.	-264.43
9222	21.64	5.2727	0.	-274.99
9223	21.732	5.2727	5.e-002	-8.5601
9224	21.732	5.	0.	-306.93
9225	21.64	5.0909	0.	-312.78
9226	21.732	5.0909	5.e-002	-9.3546
9227	21.732	4.8182	0.	-357.72
9228	21.64	4.9091	0.	-357.52
9229	21.732	4.9091	5.e-002	-10.474
9230	21.732	4.6364	0.	-420.75
9231	21.64	4.7273	0.	-411.52
9232	21.732	4.7273	5.e-002	-11.962
9233	21.732	4.4545	0.	-503.72
9234	21.64	4.5455	0.	-478.19
9235	21.732	4.5455	5.e-002	-14.401
9236	21.732	4.2727	0.	-608.88
9237	21.64	4.3636	0.	-563.1
9238	21.732	4.3636	5.e-002	-13.536
9239	21.732	4.0909	0.	-717.14
9240	21.64	4.1818	0.	-659.73
9241	21.732	4.1818	5.e-002	-16.134
9242	21.732	3.9091	0.	-803.25
9243	21.64	4.	0.	-746.09
9244	21.732	4.	5.e-002	-11.665
9245	21.732	3.7273	0.	-844.89
9246	21.64	3.8182	0.	-800.61
9247	21.732	3.8182	5.e-002	-14.836
9248	21.732	3.5455	0.	-851.56
9249	21.64	3.6364	0.	-822.69
9250	21.732	3.6364	5.e-002	-9.0925
9251	21.732	3.3636	0.	-845.24
9252	21.64	3.4545	0.	-826.98
9253	21.732	3.4545	5.e-002	-5.7613
9254	21.732	3.1818	0.	-838.39
9255	21.64	3.2727	0.	-825.37
9256	21.732	3.2727	5.e-002	-3.3763
9257	21.732	3.	0.	-835.66
9258	21.64	3.0909	0.	-823.39
9259	21.732	3.0909	5.e-002	-2.3849
9260	21.732	2.8182	0.	-838.39
9261	21.64	2.9091	0.	-823.39
9262	21.732	2.9091	5.e-002	-2.385
9263	21.732	2.6364	0.	-845.24
9264	21.64	2.7273	0.	-825.37
9265	21.732	2.7273	5.e-002	-3.3763
9266	21.732	2.4545	0.	-851.56
9267	21.64	2.5455	0.	-826.98
9268	21.732	2.5455	5.e-002	-5.7613
9269	21.732	2.2727	0.	-844.89
9270	21.64	2.3636	0.	-822.69
9271	21.732	2.3636	5.e-002	-9.0925
9272	21.732	2.0909	0.	-803.25
9273	21.64	2.1818	0.	-800.61
9274	21.732	2.1818	5.e-002	-14.836
9275	21.732	1.9091	0.	-717.14
9276	21.64	2.	0.	-746.09
9277	21.732	2.	5.e-002	-11.665
9278	21.732	1.7273	0.	-608.88
9279	21.64	1.8182	0.	-659.73
9280	21.732	1.8182	5.e-002	-16.134
9281	21.732	1.5455	0.	-503.72
9282	21.64	1.6364	0.	-563.1
9283	21.732	1.6364	5.e-002	-13.536
9284	21.732	1.3636	0.	-420.75
9285	21.64	1.4545	0.	-478.19
9286	21.732	1.4545	5.e-002	-14.401
9287	21.732	1.1818	0.	-357.72
9288	21.64	1.2727	0.	-411.52
9289	21.732	1.2727	5.e-002	-11.962
9290	21.732	1.	0.	-306.93
9291	21.64	1.0909	0.	-357.52
9292	21.732	1.0909	5.e-002	-10.474
9293	21.732	0.81818	0.	-264.43
9294	21.64	0.90909	0.	-312.78
9295	21.732	0.90909	5.e-002	-9.3547
9296	21.732	0.63636	0.	-227.91
9297	21.64	0.72727	0.	-274.99
9298	21.732	0.72727	5.e-002	-8.5601
9299	21.732	0.45455	0.	-196.91
9300	21.64	0.54545	0.	-243.27
9301	21.732	0.54545	5.e-002	-8.0409
9302	21.732	0.27273	0.	-173.05
9303	21.64	0.36364	0.	-218.08
9304	21.732	0.36364	5.e-002	-7.7982
9305	21.64	0.18182	0.	-201.03
9306	21.732	0.18182	5.e-002	-8.2676
9307	21.732	9.0909e-002	0.	-156.56
9308	21.548	5.7273	0.	-246.96
9309	21.455	5.8182	0.	-276.81
9310	21.548	5.8182	5.e-002	-8.1507
9311	21.548	5.9091	0.	-234.15
9312	21.548	5.5455	0.	-266.56
9313	21.455	5.6364	0.	-291.66
9314	21.548	5.6364	5.e-002	-7.8747
9315	21.548	5.3636	0.	-293.39
9316	21.455	5.4545	0.	-313.22
9317	21.548	5.4545	5.e-002	-8.0588
9318	21.548	5.1818	0.	-326.94
9319	21.455	5.2727	0.	-341.49
9320	21.548	5.2727	5.e-002	-8.422
9321	21.548	5.	0.	-367.38
9322	21.455	5.0909	0.	-376.33
9323	21.548	5.0909	5.e-002	-8.9304
9324	21.548	4.8182	0.	-415.72
9325	21.455	4.9091	0.	-418.08
9326	21.548	4.9091	5.e-002	-9.5545
9327	21.548	4.6364	0.	-473.62
9328	21.455	4.7273	0.	-467.5
9329	21.548	4.7273	5.e-002	-10.104
9330	21.548	4.4545	0.	-541.42
9331	21.455	4.5455	0.	-525.33
9332	21.548	4.5455	5.e-002	-10.132
9333	21.548	4.2727	0.	-615.44
9334	21.455	4.3636	0.	-589.95
9335	21.548	4.3636	5.e-002	-9.8174
9336	21.548	4.0909	0.	-686.25
9337	21.455	4.1818	0.	-655.48
9338	21.548	4.1818	5.e-002	-7.0086
9339	21.548	3.9091	0.	-741.67
9340	21.455	4.	0.	-711.75
9341	21.548	4.	5.e-002	-7.4329
9342	21.548	3.7273	0.	-777.77
9343	21.455	3.8182	0.	-751.68
9344	21.548	3.8182	5.e-002	-7.6946
9345	21.548	3.5455	0.	-797.92
9346	21.455	3.6364	0.	-777.33
9347	21.548	3.6364	5.e-002	-5.905
9348	21.548	3.3636	0.	-807.05
9349	21.455	3.4545	0.	-791.78
9350	21.548	3.4545	5.e-002	-4.0754
9351	21.548	3.1818	0.	-810.35
9352	21.455	3.2727	0.	-798.86
9353	21.548	3.2727	5.e-002	-2.7279
9354	21.548	3.	0.	-811.1
9355	21.455	3.0909	0.	-801.65
9356	21.548	3.0909	5.e-002	-2.0287
9357	21.548	2.8182	0.	-810.35
9358	21.455	2.9091	0.	-801.65
9359	21.548	2.9091	5.e-002	-2.0287
9360	21.548	2.6364	0.	-807.05
9361	21.455	2.7273	0.	-798.86
9362	21.548	2.7273	5.e-002	-2.7279
9363	21.548	2.4545	0.	-797.92
9364	21.455	2.5455	0.	-791.78
9365	21.548	2.5455	5.e-002	-4.0754
9366	21.548	2.2727	0.	-777.77
9367	21.455	2.3636	0.	-777.33
9368	21.548	2.3636	5.e-002	-5.9051
9369	21.548	2.0909	0.	-741.67
9370	21.455	2.1818	0.	-751.68
9371	21.548	2.1818	5.e-002	-7.6946
9372	21.548	1.9091	0.	-686.25
9373	21.455	2.	0.	-711.75
9374	21.548	2.	5.e-002	-7.4329
9375	21.548	1.7273	0.	-615.44
9376	21.455	1.8182	0.	-655.48
9377	21.548	1.8182	5.e-002	-7.0085
9378	21.548	1.5455	0.	-541.42
9379	21.455	1.6364	0.	-589.95
9380	21.548	1.6364	5.e-002	-9.8174
9381	21.548	1.3636	0.	-473.62
9382	21.455	1.4545	0.	-525.33
9383	21.548	1.4545	5.e-002	-10.132
9384	21.548	1.1818	0.	-415.72
9385	21.455	1.2727	0.	-467.5
9386	21.548	1.2727	5.e-002	-10.104
9387	21.548	1.	0.	-367.38
9388	21.455	1.0909	0.	-418.08
9389	21.548	1.0909	5.e-002	-9.5545
9390	21.548	0.81818	0.	-326.94
9391	21.455	0.90909	0.	-376.33
9392	21.548	0.90909	5.e-002	-8.9304
9393	21.548	0.63636	0.	-293.39
9394	21.455	0.72727	0.	-341.49
9395	21.548	0.72727	5.e-002	-8.4221
9396	21.548	0.45455	0.	-266.56
9397	21.455	0.54545	0.	-313.22
9398	21.548	0.54545	5.e-002	-8.0588
9399	21.548	0.27273	0.	-246.96
9400	21.455	0.36364	0.	-291.66
9401	21.548	0.36364	5.e-002	-7.8747
9402	21.455	0.18182	0.	-276.81
9403	21.548	0.18182	5.e-002	-8.1507
9404	21.548	9.0909e-002	0.	-234.15
9405	21.363	5.7273	0.	-321.78
9406	21.271	5.8182	0.	-351.47
9407	21.363	5.8182	5.e-002	-7.7866
9408	21.363	5.9091	0.	-310.65
9409	21.363	5.5455	0.	-339.23
9410	21.271	5.6364	0.	-365.23
9411	21.363	5.6364	5.e-002	-7.6963
9412	21.363	5.3636	0.	-362.95
9413	21.271	5.4545	0.	-384.43
9414	21.363	5.4545	5.e-002	-7.8055
9415	21.363	5.1818	0.	-393.08
9416	21.271	5.2727	0.	-409.61
9417	21.363	5.2727	5.e-002	-7.9923
9418	21.363	5.	0.	-429.63
9419	21.271	5.0909	0.	-440.74
9420	21.363	5.0909	5.e-002	-8.2134
9421	21.363	4.8182	0.	-472.65
9422	21.271	4.9091	0.	-477.76
9423	21.363	4.9091	5.e-002	-8.3838
9424	21.363	4.6364	0.	-521.86
9425	21.271	4.7273	0.	-520.41
9426	21.363	4.7273	5.e-002	-8.3514
9427	21.363	4.4545	0.	-575.75
9428	21.271	4.5455	0.	-567.72
9429	21.363	4.5455	5.e-002	-7.9017
9430	21.363	4.2727	0.	-630.49
9431	21.271	4.3636	0.	-617.29
9432	21.363	4.3636	5.e-002	-6.7514
9433	21.363	4.0909	0.	-680.52
9434	21.271	4.1818	0.	-664.68
9435	21.363	4.1818	5.e-002	-5.6241
9436	21.363	3.9091	0.	-721.2
9437	21.271	4.	0.	-705.27
9438	21.363	4.	5.e-002	-5.1059
9439	21.363	3.7273	0.	-750.96
9440	21.271	3.8182	0.	-736.6
9441	21.363	3.8182	5.e-002	-4.6058
9442	21.363	3.5455	0.	-771.06
9443	21.271	3.6364	0.	-759.03
9444	21.363	3.6364	5.e-002	-3.8226
9445	21.363	3.3636	0.	-783.52
9446	21.271	3.4545	0.	-774.12
9447	21.363	3.4545	5.e-002	-2.7116
9448	21.363	3.1818	0.	-790.13
9449	21.271	3.2727	0.	-783.24
9450	21.363	3.2727	5.e-002	-1.7619
9451	21.363	3.	0.	-792.17
9452	21.271	3.0909	0.	-787.49
9453	21.363	3.0909	5.e-002	-1.1591
9454	21.363	2.8182	0.	-790.13
9455	21.271	2.9091	0.	-787.49
9456	21.363	2.9091	5.e-002	-1.1591
9457	21.363	2.6364	0.	-783.52
9458	21.271	2.7273	0.	-783.24
9459	21.363	2.7273	5.e-002	-1.7619
9460	21.363	2.4545	0.	-771.06
9461	21.271	2.5455	0.	-774.12
9462	21.363	2.5455	5.e-002	-2.7116
9463	21.363	2.2727	0.	-750.96
9464	21.271	2.3636	0.	-759.03
9465	21.363	2.3636	5.e-002	-3.8227
9466	21.363	2.0909	0.	-721.2
9467	21.271	2.1818	0.	-736.6
9468	21.363	2.1818	5.e-002	-4.6058
9469	21.363	1.9091	0.	-680.52
9470	21.271	2.	0.	-705.27
9471	21.363	2.	5.e-002	-5.1059
9472	21.363	1.7273	0.	-630.49
9473	21.271	1.8182	0.	-664.68
9474	21.363	1.8182	5.e-002	-5.6241
9475	21.363	1.5455	0.	-575.75
9476	21.271	1.6364	0.	-617.29
9477	21.363	1.6364	5.e-002	-6.7514
9478	21.363	1.3636	0.	-521.86
9479	21.271	1.4545	0.	-567.72
9480	21.363	1.4545	5.e-002	-7.9017
9481	21.363	1.1818	0.	-472.65
9482	21.271	1.2727	0.	-520.41
9483	21.363	1.2727	5.e-002	-8.3514
9484	21.363	1.	0.	-429.63
9485	21.271	1.0909	0.	-477.76
9486	21.363	1.0909	5.e-002	-8.3839
9487	21.363	0.81818	0.	-393.08
9488	21.271	0.90909	0.	-440.74
9489	21.363	0.90909	5.e-002	-8.2135
9490	21.363	0.63636	0.	-362.95
9491	21.271	0.72727	0.	-409.61
9492	21.363	0.72727	5.e-002	-7.9923
9493	21.363	0.45455	0.	-339.23
9494	21.271	0.54545	0.	-384.43
9495	21.363	0.54545	5.e-002	-7.8055
9496	21.363	0.27273	0.	-321.78
9497	21.271	0.36364	0.	-365.23
9498	21.363	0.36364	5.e-002	-7.6963
9499	21.271	0.18182	0.	-351.47
9500	21.363	0.18182	5.e-002	-7.7867
9501	21.363	9.0909e-002	0.	-310.65
9502	21.179	5.7273	0.	-394.98
9503	21.087	5.8182	0.	-423.8
9504	21.179	5.8182	5.e-002	-7.2594
9505	21.179	5.9091	0.	-384.87
9506	21.179	5.5455	0.	-410.88
9507	21.087	5.6364	0.	-436.58
9508	21.179	5.6364	5.e-002	-7.3919
9509	21.179	5.3636	0.	-432.
9510	21.087	5.4545	0.	-453.83
9511	21.179	5.4545	5.e-002	-7.4347
9512	21.179	5.1818	0.	-458.59
9513	21.087	5.2727	0.	-476.09
9514	21.179	5.2727	5.e-002	-7.4797
9515	21.179	5.	0.	-490.49
9516	21.087	5.0909	0.	-503.26
9517	21.179	5.0909	5.e-002	-7.4941
9518	21.179	4.8182	0.	-527.22
9519	21.087	4.9091	0.	-535.02
9520	21.179	4.9091	5.e-002	-7.4041
9521	21.179	4.6364	0.	-567.81
9522	21.087	4.7273	0.	-570.62
9523	21.179	4.7273	5.e-002	-7.114
9524	21.179	4.4545	0.	-610.32
9525	21.087	4.5455	0.	-608.68
9526	21.179	4.5455	5.e-002	-6.5284
9527	21.179	4.2727	0.	-651.9
9528	21.087	4.3636	0.	-647.
9529	21.179	4.3636	5.e-002	-5.6793
9530	21.179	4.0909	0.	-689.4
9531	21.087	4.1818	0.	-682.81
9532	21.179	4.1818	5.e-002	-4.8036
9533	21.179	3.9091	0.	-720.52
9534	21.087	4.	0.	-713.65
9535	21.179	4.	5.e-002	-4.1633
9536	21.179	3.7273	0.	-744.56
9537	21.087	3.8182	0.	-738.33
9538	21.179	3.8182	5.e-002	-3.609
9539	21.179	3.5455	0.	-762.03
9540	21.087	3.6364	0.	-756.97
9541	21.179	3.6364	5.e-002	-2.8704
9542	21.179	3.3636	0.	-773.8
9543	21.087	3.4545	0.	-770.25
9544	21.179	3.4545	5.e-002	-2.0108
9545	21.179	3.1818	0.	-780.57
9546	21.087	3.2727	0.	-778.77
9547	21.179	3.2727	5.e-002	-1.166
9548	21.179	3.	0.	-782.78
9549	21.087	3.0909	0.	-782.94
9550	21.179	3.0909	5.e-002	-0.38495
9551	21.179	2.8182	0.	-780.57
9552	21.087	2.9091	0.	-782.94
9553	21.179	2.9091	5.e-002	-0.38496
9554	21.179	2.6364	0.	-773.8
9555	21.087	2.7273	0.	-778.77
9556	21.179	2.7273	5.e-002	-1.166
9557	21.179	2.4545	0.	-762.03
9558	21.087	2.5455	0.	-770.25
9559	21.179	2.5455	5.e-002	-2.0108
9560	21.179	2.2727	0.	-744.56
9561	21.087	2.3636	0.	-756.97
9562	21.179	2.3636	5.e-002	-2.8704
9563	21.179	2.0909	0.	-720.52
9564	21.087	2.1818	0.	-738.33
9565	21.179	2.1818	5.e-002	-3.609
9566	21.179	1.9091	0.	-689.4
9567	21.087	2.	0.	-713.65
9568	21.179	2.	5.e-002	-4.1633
9569	21.179	1.7273	0.	-651.9
9570	21.087	1.8182	0.	-682.81
9571	21.179	1.8182	5.e-002	-4.8036
9572	21.179	1.5455	0.	-610.32
9573	21.087	1.6364	0.	-647.
9574	21.179	1.6364	5.e-002	-5.6793
9575	21.179	1.3636	0.	-567.81
9576	21.087	1.4545	0.	-608.68
9577	21.179	1.4545	5.e-002	-6.5285
9578	21.179	1.1818	0.	-527.22
9579	21.087	1.2727	0.	-570.62
9580	21.179	1.2727	5.e-002	-7.114
9581	21.179	1.	0.	-490.49
9582	21.087	1.0909	0.	-535.02
9583	21.179	1.0909	5.e-002	-7.4042
9584	21.179	0.81818	0.	-458.59
9585	21.087	0.90909	0.	-503.26
9586	21.179	0.90909	5.e-002	-7.4941
9587	21.179	0.63636	0.	-432.
9588	21.087	0.72727	0.	-476.09
9589	21.179	0.72727	5.e-002	-7.4797
9590	21.179	0.45455	0.	-410.88
9591	21.087	0.54545	0.	-453.83
9592	21.179	0.54545	5.e-002	-7.4347
9593	21.179	0.27273	0.	-394.98
9594	21.087	0.36364	0.	-436.58
9595	21.179	0.36364	5.e-002	-7.392
9596	21.087	0.18182	0.	-423.8
9597	21.179	0.18182	5.e-002	-7.2594
9598	21.179	9.0909e-002	0.	-384.87
9599	20.995	5.7273	0.	-465.36
9600	20.903	5.8182	0.	-493.1
9601	20.995	5.8182	5.e-002	-6.6383
9602	20.995	5.9091	0.	-456.
9603	20.995	5.5455	0.	-479.76
9604	20.903	5.6364	0.	-504.75
9605	20.995	5.6364	5.e-002	-7.0228
9606	20.995	5.3636	0.	-498.44
9607	20.903	5.4545	0.	-520.13
9608	20.995	5.4545	5.e-002	-7.0201
9609	20.995	5.1818	0.	-521.54
9610	20.903	5.2727	0.	-539.58
9611	20.995	5.2727	5.e-002	-6.9705
9612	20.995	5.	0.	-548.77
9613	20.903	5.0909	0.	-562.89
9614	20.995	5.0909	5.e-002	-6.8638
9615	20.995	4.8182	0.	-579.43
9616	20.903	4.9091	0.	-589.58
9617	20.995	4.9091	5.e-002	-6.6536
9618	20.995	4.6364	0.	-612.4
9619	20.903	4.7273	0.	-618.8
9620	20.995	4.7273	5.e-002	-6.2905
9621	20.995	4.4545	0.	-646.
9622	20.903	4.5455	0.	-649.24
9623	20.995	4.5455	5.e-002	-5.7549
9624	20.995	4.2727	0.	-678.22
9625	20.903	4.3636	0.	-679.2
9626	20.995	4.3636	5.e-002	-5.0951
9627	20.995	4.0909	0.	-707.14
9628	20.903	4.1818	0.	-706.89
9629	20.995	4.1818	5.e-002	-4.4305
9630	20.995	3.9091	0.	-731.44
9631	20.903	4.	0.	-730.87
9632	20.995	4.	5.e-002	-3.835
9633	20.995	3.7273	0.	-750.71
9634	20.903	3.8182	0.	-750.44
9635	20.995	3.8182	5.e-002	-3.2635
9636	20.995	3.5455	0.	-765.17
9637	20.903	3.6364	0.	-765.6
9638	20.995	3.6364	5.e-002	-2.6426
9639	20.995	3.3636	0.	-775.2
9640	20.903	3.4545	0.	-776.64
9641	20.995	3.4545	5.e-002	-1.9825
9642	20.995	3.1818	0.	-781.12
9643	20.903	3.2727	0.	-783.87
9644	20.995	3.2727	5.e-002	-1.3599
9645	20.995	3.	0.	-783.08
9646	20.903	3.0909	0.	-787.45
9647	20.995	3.0909	5.e-002	-0.9168
9648	20.995	2.8182	0.	-781.12
9649	20.903	2.9091	0.	-787.45
9650	20.995	2.9091	5.e-002	-0.91679
9651	20.995	2.6364	0.	-775.21
9652	20.903	2.7273	0.	-783.87
9653	20.995	2.7273	5.e-002	-1.3599
9654	20.995	2.4545	0.	-765.17
9655	20.903	2.5455	0.	-776.64
9656	20.995	2.5455	5.e-002	-1.9825
9657	20.995	2.2727	0.	-750.71
9658	20.903	2.3636	0.	-765.6
9659	20.995	2.3636	5.e-002	-2.6426
9660	20.995	2.0909	0.	-731.44
9661	20.903	2.1818	0.	-750.44
9662	20.995	2.1818	5.e-002	-3.2635
9663	20.995	1.9091	0.	-707.14
9664	20.903	2.	0.	-730.87
9665	20.995	2.	5.e-002	-3.835
9666	20.995	1.7273	0.	-678.22
9667	20.903	1.8182	0.	-706.89
9668	20.995	1.8182	5.e-002	-4.4305
9669	20.995	1.5455	0.	-646.
9670	20.903	1.6364	0.	-679.2
9671	20.995	1.6364	5.e-002	-5.0951
9672	20.995	1.3636	0.	-612.4
9673	20.903	1.4545	0.	-649.24
9674	20.995	1.4545	5.e-002	-5.755
9675	20.995	1.1818	0.	-579.43
9676	20.903	1.2727	0.	-618.8
9677	20.995	1.2727	5.e-002	-6.2906
9678	20.995	1.	0.	-548.77
9679	20.903	1.0909	0.	-589.58
9680	20.995	1.0909	5.e-002	-6.6536
9681	20.995	0.81818	0.	-521.54
9682	20.903	0.90909	0.	-562.89
9683	20.995	0.90909	5.e-002	-6.8638
9684	20.995	0.63636	0.	-498.44
9685	20.903	0.72727	0.	-539.58
9686	20.995	0.72727	5.e-002	-6.9705
9687	20.995	0.45455	0.	-479.76
9688	20.903	0.54545	0.	-520.13
9689	20.995	0.54545	5.e-002	-7.0201
9690	20.995	0.27273	0.	-465.36
9691	20.903	0.36364	0.	-504.75
9692	20.995	0.36364	5.e-002	-7.0228
9693	20.903	0.18182	0.	-493.1
9694	20.995	0.18182	5.e-002	-6.6383
9695	20.995	9.0909e-002	0.	-456.
9696	20.811	5.7273	0.	-532.4
9697	20.719	5.8182	0.	-559.1
9698	20.811	5.8182	5.e-002	-5.9812
9699	20.811	5.9091	0.	-523.69
9700	20.811	5.5455	0.	-545.23
9701	20.719	5.6364	0.	-569.46
9702	20.811	5.6364	5.e-002	-6.6353
9703	20.811	5.3636	0.	-561.57
9704	20.719	5.4545	0.	-583.
9705	20.811	5.4545	5.e-002	-6.612
9706	20.811	5.1818	0.	-581.39
9707	20.719	5.2727	0.	-599.79
9708	20.811	5.2727	5.e-002	-6.5098
9709	20.811	5.	0.	-604.28
9710	20.719	5.0909	0.	-619.52
9711	20.811	5.0909	5.e-002	-6.3467
9712	20.811	4.8182	0.	-629.56
9713	20.719	4.9091	0.	-641.69
9714	20.811	4.9091	5.e-002	-6.0984
9715	20.811	4.6364	0.	-656.18
9716	20.719	4.7273	0.	-665.48
9717	20.811	4.7273	5.e-002	-5.7462
9718	20.811	4.4545	0.	-682.84
9719	20.719	4.5455	0.	-689.81
9720	20.811	4.5455	5.e-002	-5.2932
9721	20.811	4.2727	0.	-708.1
9722	20.719	4.3636	0.	-713.43
9723	20.811	4.3636	5.e-002	-4.777
9724	20.811	4.0909	0.	-730.73
9725	20.719	4.1818	0.	-735.13
9726	20.811	4.1818	5.e-002	-4.2518
9727	20.811	3.9091	0.	-749.91
9728	20.719	4.	0.	-754.
9729	20.811	4.	5.e-002	-3.7502
9730	20.811	3.7273	0.	-765.34
9731	20.719	3.8182	0.	-769.58
9732	20.811	3.8182	5.e-002	-3.2621
9733	20.811	3.5455	0.	-777.07
9734	20.719	3.6364	0.	-781.79
9735	20.811	3.6364	5.e-002	-2.7701
9736	20.811	3.3636	0.	-785.3
9737	20.719	3.4545	0.	-790.77
9738	20.811	3.4545	5.e-002	-2.2917
9739	20.811	3.1818	0.	-790.19
9740	20.719	3.2727	0.	-796.69
9741	20.811	3.2727	5.e-002	-1.8872
9742	20.811	3.	0.	-791.82
9743	20.719	3.0909	0.	-799.63
9744	20.811	3.0909	5.e-002	-1.6453
9745	20.811	2.8182	0.	-790.19
9746	20.719	2.9091	0.	-799.63
9747	20.811	2.9091	5.e-002	-1.6453
9748	20.811	2.6364	0.	-785.3
9749	20.719	2.7273	0.	-796.69
9750	20.811	2.7273	5.e-002	-1.8872
9751	20.811	2.4545	0.	-777.07
9752	20.719	2.5455	0.	-790.77
9753	20.811	2.5455	5.e-002	-2.2917
9754	20.811	2.2727	0.	-765.34
9755	20.719	2.3636	0.	-781.79
9756	20.811	2.3636	5.e-002	-2.7701
9757	20.811	2.0909	0.	-749.91
9758	20.719	2.1818	0.	-769.58
9759	20.811	2.1818	5.e-002	-3.2621
9760	20.811	1.9091	0.	-730.73
9761	20.719	2.	0.	-754.
9762	20.811	2.	5.e-002	-3.7502
9763	20.811	1.7273	0.	-708.1
9764	20.719	1.8182	0.	-735.13
9765	20.811	1.8182	5.e-002	-4.2518
9766	20.811	1.5455	0.	-682.84
9767	20.719	1.6364	0.	-713.43
9768	20.811	1.6364	5.e-002	-4.777
9769	20.811	1.3636	0.	-656.18
9770	20.719	1.4545	0.	-689.81
9771	20.811	1.4545	5.e-002	-5.2933
9772	20.811	1.1818	0.	-629.56
9773	20.719	1.2727	0.	-665.48
9774	20.811	1.2727	5.e-002	-5.7462
9775	20.811	1.	0.	-604.28
9776	20.719	1.0909	0.	-641.69
9777	20.811	1.0909	5.e-002	-6.0984
9778	20.811	0.81818	0.	-581.39
9779	20.719	0.90909	0.	-619.52
9780	20.811	0.90909	5.e-002	-6.3467
9781	20.811	0.63636	0.	-561.57
9782	20.719	0.72727	0.	-599.79
9783	20.811	0.72727	5.e-002	-6.5098
9784	20.811	0.45455	0.	-545.23
9785	20.719	0.54545	0.	-583.
9786	20.811	0.54545	5.e-002	-6.612
9787	20.811	0.27273	0.	-532.4
9788	20.719	0.36364	0.	-569.46
9789	20.811	0.36364	5.e-002	-6.6353
9790	20.719	0.18182	0.	-559.1
9791	20.811	0.18182	5.e-002	-5.9812
9792	20.811	9.0909e-002	0.	-523.69
9793	20.627	5.7273	0.	-596.03
9794	20.535	5.8182	0.	-621.81
9795	20.627	5.8182	5.e-002	-5.3307
9796	20.627	5.9091	0.	-587.89
9797	20.627	5.5455	0.	-607.27
9798	20.535	5.6364	0.	-630.8
9799	20.627	5.6364	5.e-002	-6.2605
9800	20.627	5.3636	0.	-621.38
9801	20.535	5.4545	0.	-642.56
9802	20.627	5.4545	5.e-002	-6.237
9803	20.627	5.1818	0.	-638.19
9804	20.535	5.2727	0.	-656.89
9805	20.627	5.2727	5.e-002	-6.1135
9806	20.627	5.	0.	-657.27
9807	20.535	5.0909	0.	-673.44
9808	20.627	5.0909	5.e-002	-5.9344
9809	20.627	4.8182	0.	-677.96
9810	20.535	4.9091	0.	-691.72
9811	20.627	4.9091	5.e-002	-5.6907
9812	20.627	4.6364	0.	-699.42
9813	20.535	4.7273	0.	-711.02
9814	20.627	4.7273	5.e-002	-5.3777
9815	20.627	4.4545	0.	-720.64
9816	20.535	4.5455	0.	-730.49
9817	20.627	4.5455	5.e-002	-5.0051
9818	20.627	4.2727	0.	-740.61
9819	20.535	4.3636	0.	-749.23
9820	20.627	4.3636	5.e-002	-4.5965
9821	20.627	4.0909	0.	-758.49
9822	20.535	4.1818	0.	-766.38
9823	20.627	4.1818	5.e-002	-4.1808
9824	20.627	3.9091	0.	-773.71
9825	20.535	4.	0.	-781.34
9826	20.627	4.	5.e-002	-3.7754
9827	20.627	3.7273	0.	-786.05
9828	20.535	3.8182	0.	-793.77
9829	20.627	3.8182	5.e-002	-3.3834
9830	20.627	3.5455	0.	-795.5
9831	20.535	3.6364	0.	-803.58
9832	20.627	3.6364	5.e-002	-3.0069
9833	20.627	3.3636	0.	-802.16
9834	20.535	3.4545	0.	-810.82
9835	20.627	3.4545	5.e-002	-2.6646
9836	20.627	3.1818	0.	-806.12
9837	20.535	3.2727	0.	-815.6
9838	20.627	3.2727	5.e-002	-2.3948
9839	20.627	3.	0.	-807.43
9840	20.535	3.0909	0.	-817.97
9841	20.627	3.0909	5.e-002	-2.2433
9842	20.627	2.8182	0.	-806.12
9843	20.535	2.9091	0.	-817.97
9844	20.627	2.9091	5.e-002	-2.2433
9845	20.627	2.6364	0.	-802.16
9846	20.535	2.7273	0.	-815.6
9847	20.627	2.7273	5.e-002	-2.3948
9848	20.627	2.4545	0.	-795.5
9849	20.535	2.5455	0.	-810.82
9850	20.627	2.5455	5.e-002	-2.6646
9851	20.627	2.2727	0.	-786.05
9852	20.535	2.3636	0.	-803.58
9853	20.627	2.3636	5.e-002	-3.0069
9854	20.627	2.0909	0.	-773.71
9855	20.535	2.1818	0.	-793.77
9856	20.627	2.1818	5.e-002	-3.3834
9857	20.627	1.9091	0.	-758.49
9858	20.535	2.	0.	-781.34
9859	20.627	2.	5.e-002	-3.7754
9860	20.627	1.7273	0.	-740.61
9861	20.535	1.8182	0.	-766.39
9862	20.627	1.8182	5.e-002	-4.1808
9863	20.627	1.5455	0.	-720.64
9864	20.535	1.6364	0.	-749.23
9865	20.627	1.6364	5.e-002	-4.5965
9866	20.627	1.3636	0.	-699.42
9867	20.535	1.4545	0.	-730.49
9868	20.627	1.4545	5.e-002	-5.0051
9869	20.627	1.1818	0.	-677.96
9870	20.535	1.2727	0.	-711.02
9871	20.627	1.2727	5.e-002	-5.3778
9872	20.627	1.	0.	-657.27
9873	20.535	1.0909	0.	-691.72
9874	20.627	1.0909	5.e-002	-5.6907
9875	20.627	0.81818	0.	-638.19
9876	20.535	0.90909	0.	-673.44
9877	20.627	0.90909	5.e-002	-5.9345
9878	20.627	0.63636	0.	-621.38
9879	20.535	0.72727	0.	-656.89
9880	20.627	0.72727	5.e-002	-6.1135
9881	20.627	0.45455	0.	-607.27
9882	20.535	0.54545	0.	-642.56
9883	20.627	0.54545	5.e-002	-6.237
9884	20.627	0.27273	0.	-596.03
9885	20.535	0.36364	0.	-630.8
9886	20.627	0.36364	5.e-002	-6.2605
9887	20.535	0.18182	0.	-621.81
9888	20.627	0.18182	5.e-002	-5.3307
9889	20.627	9.0909e-002	0.	-587.89
9890	20.442	5.7273	0.	-656.43
9891	20.35	5.8182	0.	-681.44
9892	20.442	5.8182	5.e-002	-4.7148
9893	20.442	5.9091	0.	-648.79
9894	20.442	5.5455	0.	-666.1
9895	20.35	5.6364	0.	-689.06
9896	20.442	5.6364	5.e-002	-5.9161
9897	20.442	5.3636	0.	-678.16
9898	20.35	5.4545	0.	-699.15
9899	20.442	5.4545	5.e-002	-5.9067
9900	20.442	5.1818	0.	-692.3
9901	20.35	5.2727	0.	-711.28
9902	20.442	5.2727	5.e-002	-5.782
9903	20.442	5.	0.	-708.09
9904	20.35	5.0909	0.	-725.06
9905	20.442	5.0909	5.e-002	-5.6095
9906	20.442	4.8182	0.	-724.98
9907	20.35	4.9091	0.	-740.07
9908	20.442	4.9091	5.e-002	-5.3892
9909	20.442	4.6364	0.	-742.28
9910	20.35	4.7273	0.	-755.71
9911	20.442	4.7273	5.e-002	-5.1225
9912	20.442	4.4545	0.	-759.23
9913	20.35	4.5455	0.	-771.33
9914	20.442	4.5455	5.e-002	-4.8189
9915	20.442	4.2727	0.	-775.1
9916	20.35	4.3636	0.	-786.26
9917	20.442	4.3636	5.e-002	-4.4941
9918	20.442	4.0909	0.	-789.31
9919	20.35	4.1818	0.	-799.9
9920	20.442	4.1818	5.e-002	-4.1649
9921	20.442	3.9091	0.	-801.44
9922	20.35	4.	0.	-811.82
9923	20.442	4.	5.e-002	-3.8434
9924	20.442	3.7273	0.	-811.32
9925	20.35	3.8182	0.	-821.75
9926	20.442	3.8182	5.e-002	-3.5364
9927	20.442	3.5455	0.	-818.91
9928	20.35	3.6364	0.	-829.63
9929	20.442	3.6364	5.e-002	-3.2515
9930	20.442	3.3636	0.	-824.27
9931	20.35	3.4545	0.	-835.46
9932	20.442	3.4545	5.e-002	-3.0038
9933	20.442	3.1818	0.	-827.46
9934	20.35	3.2727	0.	-839.31
9935	20.442	3.2727	5.e-002	-2.8167
9936	20.442	3.	0.	-828.52
9937	20.35	3.0909	0.	-841.22
9938	20.442	3.0909	5.e-002	-2.7151
9939	20.442	2.8182	0.	-827.46
9940	20.35	2.9091	0.	-841.22
9941	20.442	2.9091	5.e-002	-2.7151
9942	20.442	2.6364	0.	-824.27
9943	20.35	2.7273	0.	-839.31
9944	20.442	2.7273	5.e-002	-2.8168
9945	20.442	2.4545	0.	-818.91
9946	20.35	2.5455	0.	-835.46
9947	20.442	2.5455	5.e-002	-3.0038
9948	20.442	2.2727	0.	-811.32
9949	20.35	2.3636	0.	-829.63
9950	20.442	2.3636	5.e-002	-3.2515
9951	20.442	2.0909	0.	-801.44
9952	20.35	2.1818	0.	-821.75
9953	20.442	2.1818	5.e-002	-3.5364
9954	20.442	1.9091	0.	-789.31
9955	20.35	2.	0.	-811.82
9956	20.442	2.	5.e-002	-3.8435
9957	20.442	1.7273	0.	-775.1
9958	20.35	1.8182	0.	-799.9
9959	20.442	1.8182	5.e-002	-4.1649
9960	20.442	1.5455	0.	-759.23
9961	20.35	1.6364	0.	-786.26
9962	20.442	1.6364	5.e-002	-4.4941
9963	20.442	1.3636	0.	-742.28
9964	20.35	1.4545	0.	-771.33
9965	20.442	1.4545	5.e-002	-4.8189
9966	20.442	1.1818	0.	-724.98
9967	20.35	1.2727	0.	-755.71
9968	20.442	1.2727	5.e-002	-5.1226
9969	20.442	1.	0.	-708.09
9970	20.35	1.0909	0.	-740.07
9971	20.442	1.0909	5.e-002	-5.3892
9972	20.442	0.81818	0.	-692.3
9973	20.35	0.90909	0.	-725.06
9974	20.442	0.90909	5.e-002	-5.6095
9975	20.442	0.63636	0.	-678.16
9976	20.35	0.72727	0.	-711.28
9977	20.442	0.72727	5.e-002	-5.782
9978	20.442	0.45455	0.	-666.1
9979	20.35	0.54545	0.	-699.15
9980	20.442	0.54545	5.e-002	-5.9067
9981	20.442	0.27273	0.	-656.43
9982	20.35	0.36364	0.	-689.06
9983	20.442	0.36364	5.e-002	-5.9161
9984	20.35	0.18182	0.	-681.44
9985	20.442	0.18182	5.e-002	-4.7148
9986	20.442	9.0909e-002	0.	-648.79
9987	20.258	5.7273	0.	-713.91
9988	20.166	5.8182	0.	-738.31
9989	20.258	5.8182	5.e-002	-4.1491
9990	20.258	5.9091	0.	-706.72
9991	20.258	5.5455	0.	-722.09
9992	20.166	5.6364	0.	-744.62
9993	20.258	5.6364	5.e-002	-5.6108
9994	20.258	5.3636	0.	-732.31
9995	20.166	5.4545	0.	-753.19
9996	20.258	5.4545	5.e-002	-5.6238
9997	20.258	5.1818	0.	-744.13
9998	20.166	5.2727	0.	-763.37
9999	20.258	5.2727	5.e-002	-5.5092
10000	20.258	5.	0.	-757.15
10001	20.166	5.0909	0.	-774.8
10002	20.258	5.0909	5.e-002	-5.354
10003	20.258	4.8182	0.	-770.91
10004	20.166	4.9091	0.	-787.09
10005	20.258	4.9091	5.e-002	-5.1636
10006	20.258	4.6364	0.	-784.87
10007	20.166	4.7273	0.	-799.76
10008	20.258	4.7273	5.e-002	-4.9415
10009	20.258	4.4545	0.	-798.45
10010	20.166	4.5455	0.	-812.33
10011	20.258	4.5455	5.e-002	-4.6957
10012	20.258	4.2727	0.	-811.13
10013	20.166	4.3636	0.	-824.27
10014	20.258	4.3636	5.e-002	-4.437
10015	20.258	4.0909	0.	-822.46
10016	20.166	4.1818	0.	-835.16
10017	20.258	4.1818	5.e-002	-4.1767
10018	20.258	3.9091	0.	-832.16
10019	20.166	4.	0.	-844.69
10020	20.258	4.	5.e-002	-3.9238
10021	20.258	3.7273	0.	-840.08
10022	20.166	3.8182	0.	-852.66
10023	20.258	3.8182	5.e-002	-3.6854
10024	20.258	3.5455	0.	-846.18
10025	20.166	3.6364	0.	-858.99
10026	20.258	3.6364	5.e-002	-3.4697
10027	20.258	3.3636	0.	-850.5
10028	20.166	3.4545	0.	-863.68
10029	20.258	3.4545	5.e-002	-3.2878
10030	20.258	3.1818	0.	-853.06
10031	20.166	3.2727	0.	-866.78
10032	20.258	3.2727	5.e-002	-3.1542
10033	20.258	3.	0.	-853.92
10034	20.166	3.0909	0.	-868.32
10035	20.258	3.0909	5.e-002	-3.0831
10036	20.258	2.8182	0.	-853.06
10037	20.166	2.9091	0.	-868.32
10038	20.258	2.9091	5.e-002	-3.0831
10039	20.258	2.6364	0.	-850.5
10040	20.166	2.7273	0.	-866.78
10041	20.258	2.7273	5.e-002	-3.1542
10042	20.258	2.4545	0.	-846.18
10043	20.166	2.5455	0.	-863.68
10044	20.258	2.5455	5.e-002	-3.2878
10045	20.258	2.2727	0.	-840.08
10046	20.166	2.3636	0.	-858.99
10047	20.258	2.3636	5.e-002	-3.4697
10048	20.258	2.0909	0.	-832.16
10049	20.166	2.1818	0.	-852.66
10050	20.258	2.1818	5.e-002	-3.6854
10051	20.258	1.9091	0.	-822.46
10052	20.166	2.	0.	-844.69
10053	20.258	2.	5.e-002	-3.9238
10054	20.258	1.7273	0.	-811.13
10055	20.166	1.8182	0.	-835.16
10056	20.258	1.8182	5.e-002	-4.1767
10057	20.258	1.5455	0.	-798.45
10058	20.166	1.6364	0.	-824.27
10059	20.258	1.6364	5.e-002	-4.4371
10060	20.258	1.3636	0.	-784.87
10061	20.166	1.4545	0.	-812.33
10062	20.258	1.4545	5.e-002	-4.6957
10063	20.258	1.1818	0.	-770.91
10064	20.166	1.2727	0.	-799.77
10065	20.258	1.2727	5.e-002	-4.9415
10066	20.258	1.	0.	-757.15
10067	20.166	1.0909	0.	-787.09
10068	20.258	1.0909	5.e-002	-5.1636
10069	20.258	0.81818	0.	-744.13
10070	20.166	0.90909	0.	-774.8
10071	20.258	0.90909	5.e-002	-5.3541
10072	20.258	0.63636	0.	-732.31
10073	20.166	0.72727	0.	-763.37
10074	20.258	0.72727	5.e-002	-5.5092
10075	20.258	0.45455	0.	-722.09
10076	20.166	0.54545	0.	-753.19
10077	20.258	0.54545	5.e-002	-5.6239
10078	20.258	0.27273	0.	-713.91
10079	20.166	0.36364	0.	-744.62
10080	20.258	0.36364	5.e-002	-5.6108
10081	20.166	0.18182	0.	-738.31
10082	20.258	0.18182	5.e-002	-4.1491
10083	20.258	9.0909e-002	0.	-706.72
10084	20.074	5.7273	0.	-768.85
10085	19.982	5.8182	0.	-792.77
10086	20.074	5.8182	5.e-002	-3.6404
10087	20.074	5.9091	0.	-762.04
10088	20.074	5.5455	0.	-775.67
10089	19.982	5.6364	0.	-797.87
10090	20.074	5.6364	5.e-002	-5.3469
10091	20.074	5.3636	0.	-784.25
10092	19.982	5.4545	0.	-805.08
10093	20.074	5.4545	5.e-002	-5.3861
10094	20.074	5.1818	0.	-794.08
10095	19.982	5.2727	0.	-813.58
10096	20.074	5.2727	5.e-002	-5.2869
10097	20.074	5.	0.	-804.79
10098	19.982	5.0909	0.	-823.02
10099	20.074	5.0909	5.e-002	-5.1531
10100	20.074	4.8182	0.	-816.
10101	19.982	4.9091	0.	-833.07
10102	20.074	4.9091	5.e-002	-4.9929
10103	20.074	4.6364	0.	-827.28
10104	19.982	4.7273	0.	-843.36
10105	20.074	4.7273	5.e-002	-4.8106
10106	20.074	4.4545	0.	-838.2
10107	19.982	4.5455	0.	-853.48
10108	20.074	4.5455	5.e-002	-4.6125
10109	20.074	4.2727	0.	-848.35
10110	19.982	4.3636	0.	-863.07
10111	20.074	4.3636	5.e-002	-4.4066
10112	20.074	4.0909	0.	-857.43
10113	19.982	4.1818	0.	-871.8
10114	20.074	4.1818	5.e-002	-4.201
10115	20.074	3.9091	0.	-865.21
10116	19.982	4.	0.	-879.44
10117	20.074	4.	5.e-002	-4.0026
10118	20.074	3.7273	0.	-871.57
10119	19.982	3.8182	0.	-885.85
10120	20.074	3.8182	5.e-002	-3.8179
10121	20.074	3.5455	0.	-876.49
10122	19.982	3.6364	0.	-890.94
10123	20.074	3.6364	5.e-002	-3.6537
10124	20.074	3.3636	0.	-879.97
10125	19.982	3.4545	0.	-894.74
10126	20.074	3.4545	5.e-002	-3.5183
10127	20.074	3.1818	0.	-882.04
10128	19.982	3.2727	0.	-897.24
10129	20.074	3.2727	5.e-002	-3.4209
10130	20.074	3.	0.	-882.72
10131	19.982	3.0909	0.	-898.48
10132	20.074	3.0909	5.e-002	-3.3696
10133	20.074	2.8182	0.	-882.04
10134	19.982	2.9091	0.	-898.48
10135	20.074	2.9091	5.e-002	-3.3696
10136	20.074	2.6364	0.	-879.97
10137	19.982	2.7273	0.	-897.24
10138	20.074	2.7273	5.e-002	-3.4209
10139	20.074	2.4545	0.	-876.49
10140	19.982	2.5455	0.	-894.74
10141	20.074	2.5455	5.e-002	-3.5183
10142	20.074	2.2727	0.	-871.57
10143	19.982	2.3636	0.	-890.94
10144	20.074	2.3636	5.e-002	-3.6537
10145	20.074	2.0909	0.	-865.21
10146	19.982	2.1818	0.	-885.85
10147	20.074	2.1818	5.e-002	-3.8179
10148	20.074	1.9091	0.	-857.43
10149	19.982	2.	0.	-879.44
10150	20.074	2.	5.e-002	-4.0026
10151	20.074	1.7273	0.	-848.35
10152	19.982	1.8182	0.	-871.8
10153	20.074	1.8182	5.e-002	-4.201
10154	20.074	1.5455	0.	-838.2
10155	19.982	1.6364	0.	-863.07
10156	20.074	1.6364	5.e-002	-4.4067
10157	20.074	1.3636	0.	-827.28
10158	19.982	1.4545	0.	-853.48
10159	20.074	1.4545	5.e-002	-4.6125
10160	20.074	1.1818	0.	-816.
10161	19.982	1.2727	0.	-843.36
10162	20.074	1.2727	5.e-002	-4.8106
10163	20.074	1.	0.	-804.79
10164	19.982	1.0909	0.	-833.07
10165	20.074	1.0909	5.e-002	-4.9929
10166	20.074	0.81818	0.	-794.08
10167	19.982	0.90909	0.	-823.02
10168	20.074	0.90909	5.e-002	-5.1532
10169	20.074	0.63636	0.	-784.25
10170	19.982	0.72727	0.	-813.58
10171	20.074	0.72727	5.e-002	-5.2869
10172	20.074	0.45455	0.	-775.67
10173	19.982	0.54545	0.	-805.08
10174	20.074	0.54545	5.e-002	-5.3862
10175	20.074	0.27273	0.	-768.85
10176	19.982	0.36364	0.	-797.87
10177	20.074	0.36364	5.e-002	-5.347
10178	19.982	0.18182	0.	-792.77
10179	20.074	0.18182	5.e-002	-3.6404
10180	20.074	9.0909e-002	0.	-762.04
10181	19.89	5.7273	0.	-821.63
10182	19.798	5.8182	0.	-845.2
10183	19.89	5.8182	5.e-002	-3.1895
10184	19.89	5.9091	0.	-815.14
10185	19.89	5.5455	0.	-827.23
10186	19.798	5.6364	0.	-849.2
10187	19.89	5.6364	5.e-002	-5.1232
10188	19.89	5.3636	0.	-834.39
10189	19.798	5.4545	0.	-855.21
10190	19.89	5.4545	5.e-002	-5.1893
10191	19.89	5.1818	0.	-842.53
10192	19.798	5.2727	0.	-862.27
10193	19.89	5.2727	5.e-002	-5.1071
10194	19.89	5.	0.	-851.33
10195	19.798	5.0909	0.	-870.05
10196	19.89	5.0909	5.e-002	-4.995
10197	19.89	4.8182	0.	-860.46
10198	19.798	4.9091	0.	-878.27
10199	19.89	4.9091	5.e-002	-4.8627
10200	19.89	4.6364	0.	-869.59
10201	19.798	4.7273	0.	-886.62
10202	19.89	4.7273	5.e-002	-4.7145
10203	19.89	4.4545	0.	-878.38
10204	19.798	4.5455	0.	-894.8
10205	19.89	4.5455	5.e-002	-4.5556
10206	19.89	4.2727	0.	-886.54
10207	19.798	4.3636	0.	-902.52
10208	19.89	4.3636	5.e-002	-4.3919
10209	19.89	4.0909	0.	-893.83
10210	19.798	4.1818	0.	-909.54
10211	19.89	4.1818	5.e-002	-4.2295
10212	19.89	3.9091	0.	-900.09
10213	19.798	4.	0.	-915.69
10214	19.89	4.	5.e-002	-4.0741
10215	19.89	3.7273	0.	-905.22
10216	19.798	3.8182	0.	-920.85
10217	19.89	3.8182	5.e-002	-3.9308
10218	19.89	3.5455	0.	-909.19
10219	19.798	3.6364	0.	-924.97
10220	19.89	3.6364	5.e-002	-3.8052
10221	19.89	3.3636	0.	-912.
10222	19.798	3.4545	0.	-928.03
10223	19.89	3.4545	5.e-002	-3.7033
10224	19.89	3.1818	0.	-913.68
10225	19.798	3.2727	0.	-930.06
10226	19.89	3.2727	5.e-002	-3.6309
10227	19.89	3.	0.	-914.23
10228	19.798	3.0909	0.	-931.07
10229	19.89	3.0909	5.e-002	-3.5932
10230	19.89	2.8182	0.	-913.68
10231	19.798	2.9091	0.	-931.07
10232	19.89	2.9091	5.e-002	-3.5932
10233	19.89	2.6364	0.	-912.
10234	19.798	2.7273	0.	-930.06
10235	19.89	2.7273	5.e-002	-3.6309
10236	19.89	2.4545	0.	-909.19
10237	19.798	2.5455	0.	-928.03
10238	19.89	2.5455	5.e-002	-3.7033
10239	19.89	2.2727	0.	-905.22
10240	19.798	2.3636	0.	-924.97
10241	19.89	2.3636	5.e-002	-3.8052
10242	19.89	2.0909	0.	-900.09
10243	19.798	2.1818	0.	-920.85
10244	19.89	2.1818	5.e-002	-3.9308
10245	19.89	1.9091	0.	-893.83
10246	19.798	2.	0.	-915.69
10247	19.89	2.	5.e-002	-4.0741
10248	19.89	1.7273	0.	-886.54
10249	19.798	1.8182	0.	-909.54
10250	19.89	1.8182	5.e-002	-4.2295
10251	19.89	1.5455	0.	-878.38
10252	19.798	1.6364	0.	-902.52
10253	19.89	1.6364	5.e-002	-4.3919
10254	19.89	1.3636	0.	-869.59
10255	19.798	1.4545	0.	-894.8
10256	19.89	1.4545	5.e-002	-4.5556
10257	19.89	1.1818	0.	-860.46
10258	19.798	1.2727	0.	-886.62
10259	19.89	1.2727	5.e-002	-4.7145
10260	19.89	1.	0.	-851.33
10261	19.798	1.0909	0.	-878.27
10262	19.89	1.0909	5.e-002	-4.8627
10263	19.89	0.81818	0.	-842.53
10264	19.798	0.90909	0.	-870.05
10265	19.89	0.90909	5.e-002	-4.995
10266	19.89	0.63636	0.	-834.39
10267	19.798	0.72727	0.	-862.27
10268	19.89	0.72727	5.e-002	-5.1072
10269	19.89	0.45455	0.	-827.23
10270	19.798	0.54545	0.	-855.21
10271	19.89	0.54545	5.e-002	-5.1893
10272	19.89	0.27273	0.	-821.63
10273	19.798	0.36364	0.	-849.2
10274	19.89	0.36364	5.e-002	-5.1232
10275	19.798	0.18182	0.	-845.2
10276	19.89	0.18182	5.e-002	-3.1895
10277	19.89	9.0909e-002	0.	-815.14
10278	19.706	5.7273	0.	-872.6
10279	19.614	5.8182	0.	-895.93
10280	19.706	5.8182	5.e-002	-2.7938
10281	19.706	5.9091	0.	-866.4
10282	19.706	5.5455	0.	-877.13
10283	19.614	5.6364	0.	-898.95
10284	19.706	5.6364	5.e-002	-4.9363
10285	19.706	5.3636	0.	-883.07
10286	19.614	5.4545	0.	-903.93
10287	19.706	5.4545	5.e-002	-5.0281
10288	19.706	5.1818	0.	-889.79
10289	19.614	5.2727	0.	-909.77
10290	19.706	5.2727	5.e-002	-4.9626
10291	19.706	5.	0.	-897.
10292	19.614	5.0909	0.	-916.16
10293	19.706	5.0909	5.e-002	-4.8705
10294	19.706	4.8182	0.	-904.44
10295	19.614	4.9091	0.	-922.88
10296	19.706	4.9091	5.e-002	-4.7628
10297	19.706	4.6364	0.	-911.84
10298	19.614	4.7273	0.	-929.66
10299	19.706	4.7273	5.e-002	-4.6433
10300	19.706	4.4545	0.	-918.95
10301	19.614	4.5455	0.	-936.28
10302	19.706	4.5455	5.e-002	-4.5163
10303	19.706	4.2727	0.	-925.53
10304	19.614	4.3636	0.	-942.51
10305	19.706	4.3636	5.e-002	-4.3864
10306	19.706	4.0909	0.	-931.4
10307	19.614	4.1818	0.	-948.18
10308	19.706	4.1818	5.e-002	-4.2583
10309	19.706	3.9091	0.	-936.45
10310	19.614	4.	0.	-953.14
10311	19.706	4.	5.e-002	-4.1364
10312	19.706	3.7273	0.	-940.6
10313	19.614	3.8182	0.	-957.31
10314	19.706	3.8182	5.e-002	-4.0251
10315	19.706	3.5455	0.	-943.81
10316	19.614	3.6364	0.	-960.65
10317	19.706	3.6364	5.e-002	-3.9285
10318	19.706	3.3636	0.	-946.09
10319	19.614	3.4545	0.	-963.13
10320	19.706	3.4545	5.e-002	-3.8509
10321	19.706	3.1818	0.	-947.45
10322	19.614	3.2727	0.	-964.78
10323	19.706	3.2727	5.e-002	-3.7964
10324	19.706	3.	0.	-947.9
10325	19.614	3.0909	0.	-965.6
10326	19.706	3.0909	5.e-002	-3.7683
10327	19.706	2.8182	0.	-947.45
10328	19.614	2.9091	0.	-965.6
10329	19.706	2.9091	5.e-002	-3.7683
10330	19.706	2.6364	0.	-946.09
10331	19.614	2.7273	0.	-964.78
10332	19.706	2.7273	5.e-002	-3.7964
10333	19.706	2.4545	0.	-943.81
10334	19.614	2.5455	0.	-963.13
10335	19.706	2.5455	5.e-002	-3.8509
10336	19.706	2.2727	0.	-940.6
10337	19.614	2.3636	0.	-960.65
10338	19.706	2.3636	5.e-002	-3.9285
10339	19.706	2.0909	0.	-936.45
10340	19.614	2.1818	0.	-957.31
10341	19.706	2.1818	5.e-002	-4.0251
10342	19.706	1.9091	0.	-931.4
10343	19.614	2.	0.	-953.14
10344	19.706	2.	5.e-002	-4.1364
10345	19.706	1.7273	0.	-925.53
10346	19.614	1.8182	0.	-948.18
10347	19.706	1.8182	5.e-002	-4.2583
10348	19.706	1.5455	0.	-918.95
10349	19.614	1.6364	0.	-942.51
10350	19.706	1.6364	5.e-002	-4.3864
10351	19.706	1.3636	0.	-911.84
10352	19.614	1.4545	0.	-936.28
10353	19.706	1.4545	5.e-002	-4.5163
10354	19.706	1.1818	0.	-904.44
10355	19.614	1.2727	0.	-929.66
10356	19.706	1.2727	5.e-002	-4.6433
10357	19.706	1.	0.	-897.
10358	19.614	1.0909	0.	-922.88
10359	19.706	1.0909	5.e-002	-4.7628
10360	19.706	0.81818	0.	-889.79
10361	19.614	0.90909	0.	-916.16
10362	19.706	0.90909	5.e-002	-4.8705
10363	19.706	0.63636	0.	-883.07
10364	19.614	0.72727	0.	-909.77
10365	19.706	0.72727	5.e-002	-4.9626
10366	19.706	0.45455	0.	-877.13
10367	19.614	0.54545	0.	-903.93
10368	19.706	0.54545	5.e-002	-5.0281
10369	19.706	0.27273	0.	-872.6
10370	19.614	0.36364	0.	-898.95
10371	19.706	0.36364	5.e-002	-4.9364
10372	19.614	0.18182	0.	-895.93
10373	19.706	0.18182	5.e-002	-2.7938
10374	19.706	9.0909e-002	0.	-866.4
10375	19.522	5.7273	0.	-922.1
10376	19.43	5.8182	0.	-945.26
10377	19.522	5.8182	5.e-002	-2.4486
10378	19.522	5.9091	0.	-916.14
10379	19.522	5.5455	0.	-925.69
10380	19.43	5.6364	0.	-947.42
10381	19.522	5.6364	5.e-002	-4.7821
10382	19.522	5.3636	0.	-930.59
10383	19.43	5.4545	0.	-951.51
10384	19.522	5.4545	5.e-002	-4.8975
10385	19.522	5.1818	0.	-936.12
10386	19.43	5.2727	0.	-956.32
10387	19.522	5.2727	5.e-002	-4.847
10388	19.522	5.	0.	-942.03
10389	19.43	5.0909	0.	-961.57
10390	19.522	5.0909	5.e-002	-4.7726
10391	19.522	4.8182	0.	-948.09
10392	19.43	4.9091	0.	-967.05
10393	19.522	4.9091	5.e-002	-4.6858
10394	19.522	4.6364	0.	-954.1
10395	19.43	4.7273	0.	-972.57
10396	19.522	4.7273	5.e-002	-4.5901
10397	19.522	4.4545	0.	-959.85
10398	19.43	4.5455	0.	-977.94
10399	19.522	4.5455	5.e-002	-4.489
10400	19.522	4.2727	0.	-965.17
10401	19.43	4.3636	0.	-982.98
10402	19.522	4.3636	5.e-002	-4.3861
10403	19.522	4.0909	0.	-969.92
10404	19.43	4.1818	0.	-987.56
10405	19.522	4.1818	5.e-002	-4.2852
10406	19.522	3.9091	0.	-974.
10407	19.43	4.	0.	-991.58
10408	19.522	4.	5.e-002	-4.1896
10409	19.522	3.7273	0.	-977.36
10410	19.43	3.8182	0.	-994.96
10411	19.522	3.8182	5.e-002	-4.1029
10412	19.522	3.5455	0.	-979.97
10413	19.43	3.6364	0.	-997.66
10414	19.522	3.6364	5.e-002	-4.0283
10415	19.522	3.3636	0.	-981.82
10416	19.43	3.4545	0.	-999.69
10417	19.522	3.4545	5.e-002	-3.9688
10418	19.522	3.1818	0.	-982.92
10419	19.43	3.2727	0.	-1001.
10420	19.522	3.2727	5.e-002	-3.9273
10421	19.522	3.	0.	-983.29
10422	19.43	3.0909	0.	-1001.7
10423	19.522	3.0909	5.e-002	-3.906
10424	19.522	2.8182	0.	-982.92
10425	19.43	2.9091	0.	-1001.7
10426	19.522	2.9091	5.e-002	-3.906
10427	19.522	2.6364	0.	-981.82
10428	19.43	2.7273	0.	-1001.
10429	19.522	2.7273	5.e-002	-3.9274
10430	19.522	2.4545	0.	-979.97
10431	19.43	2.5455	0.	-999.69
10432	19.522	2.5455	5.e-002	-3.9688
10433	19.522	2.2727	0.	-977.36
10434	19.43	2.3636	0.	-997.66
10435	19.522	2.3636	5.e-002	-4.0283
10436	19.522	2.0909	0.	-974.
10437	19.43	2.1818	0.	-994.96
10438	19.522	2.1818	5.e-002	-4.1029
10439	19.522	1.9091	0.	-969.92
10440	19.43	2.	0.	-991.58
10441	19.522	2.	5.e-002	-4.1896
10442	19.522	1.7273	0.	-965.17
10443	19.43	1.8182	0.	-987.56
10444	19.522	1.8182	5.e-002	-4.2852
10445	19.522	1.5455	0.	-959.85
10446	19.43	1.6364	0.	-982.98
10447	19.522	1.6364	5.e-002	-4.3862
10448	19.522	1.3636	0.	-954.1
10449	19.43	1.4545	0.	-977.94
10450	19.522	1.4545	5.e-002	-4.4891
10451	19.522	1.1818	0.	-948.09
10452	19.43	1.2727	0.	-972.57
10453	19.522	1.2727	5.e-002	-4.5902
10454	19.522	1.	0.	-942.03
10455	19.43	1.0909	0.	-967.05
10456	19.522	1.0909	5.e-002	-4.6859
10457	19.522	0.81818	0.	-936.12
10458	19.43	0.90909	0.	-961.57
10459	19.522	0.90909	5.e-002	-4.7727
10460	19.522	0.63636	0.	-930.59
10461	19.43	0.72727	0.	-956.32
10462	19.522	0.72727	5.e-002	-4.8471
10463	19.522	0.45455	0.	-925.69
10464	19.43	0.54545	0.	-951.51
10465	19.522	0.54545	5.e-002	-4.8975
10466	19.522	0.27273	0.	-922.1
10467	19.43	0.36364	0.	-947.42
10468	19.522	0.36364	5.e-002	-4.7822
10469	19.43	0.18182	0.	-945.26
10470	19.522	0.18182	5.e-002	-2.4486
10471	19.522	9.0909e-002	0.	-916.14
10472	19.337	5.7273	0.	-970.41
10473	19.245	5.8182	0.	-993.47
10474	19.337	5.8182	5.e-002	-2.1487
10475	19.337	5.9091	0.	-964.66
10476	19.337	5.5455	0.	-973.19
10477	19.245	5.6364	0.	-994.89
10478	19.337	5.6364	5.e-002	-4.6563
10479	19.337	5.3636	0.	-977.21
10480	19.245	5.4545	0.	-998.21
10481	19.337	5.4545	5.e-002	-4.7927
10482	19.337	5.1818	0.	-981.74
10483	19.245	5.2727	0.	-1002.2
10484	19.337	5.2727	5.e-002	-4.7554
10485	19.337	5.	0.	-986.57
10486	19.245	5.0909	0.	-1006.4
10487	19.337	5.0909	5.e-002	-4.6961
10488	19.337	4.8182	0.	-991.51
10489	19.245	4.9091	0.	-1010.9
10490	19.337	4.9091	5.e-002	-4.6268
10491	19.337	4.6364	0.	-996.4
10492	19.245	4.7273	0.	-1015.4
10493	19.337	4.7273	5.e-002	-4.5506
10494	19.337	4.4545	0.	-1001.1
10495	19.245	4.5455	0.	-1019.8
10496	19.337	4.5455	5.e-002	-4.4704
10497	19.337	4.2727	0.	-1005.4
10498	19.245	4.3636	0.	-1023.9
10499	19.337	4.3636	5.e-002	-4.3891
10500	19.337	4.0909	0.	-1009.2
10501	19.245	4.1818	0.	-1027.6
10502	19.337	4.1818	5.e-002	-4.3096
10503	19.337	3.9091	0.	-1012.5
10504	19.245	4.	0.	-1030.8
10505	19.337	4.	5.e-002	-4.2346
10506	19.337	3.7273	0.	-1015.3
10507	19.245	3.8182	0.	-1033.6
10508	19.337	3.8182	5.e-002	-4.167
10509	19.337	3.5455	0.	-1017.4
10510	19.245	3.6364	0.	-1035.8
10511	19.337	3.6364	5.e-002	-4.1091
10512	19.337	3.3636	0.	-1018.9
10513	19.245	3.4545	0.	-1037.4
10514	19.337	3.4545	5.e-002	-4.0632
10515	19.337	3.1818	0.	-1019.8
10516	19.245	3.2727	0.	-1038.5
10517	19.337	3.2727	5.e-002	-4.0314
10518	19.337	3.	0.	-1020.1
10519	19.245	3.0909	0.	-1039.1
10520	19.337	3.0909	5.e-002	-4.0151
10521	19.337	2.8182	0.	-1019.8
10522	19.245	2.9091	0.	-1039.1
10523	19.337	2.9091	5.e-002	-4.0151
10524	19.337	2.6364	0.	-1018.9
10525	19.245	2.7273	0.	-1038.5
10526	19.337	2.7273	5.e-002	-4.0314
10527	19.337	2.4545	0.	-1017.4
10528	19.245	2.5455	0.	-1037.4
10529	19.337	2.5455	5.e-002	-4.0632
10530	19.337	2.2727	0.	-1015.3
10531	19.245	2.3636	0.	-1035.8
10532	19.337	2.3636	5.e-002	-4.1091
10533	19.337	2.0909	0.	-1012.5
10534	19.245	2.1818	0.	-1033.6
10535	19.337	2.1818	5.e-002	-4.167
10536	19.337	1.9091	0.	-1009.2
10537	19.245	2.	0.	-1030.8
10538	19.337	2.	5.e-002	-4.2346
10539	19.337	1.7273	0.	-1005.4
10540	19.245	1.8182	0.	-1027.6
10541	19.337	1.8182	5.e-002	-4.3096
10542	19.337	1.5455	0.	-1001.1
10543	19.245	1.6364	0.	-1023.9
10544	19.337	1.6364	5.e-002	-4.3891
10545	19.337	1.3636	0.	-996.4
10546	19.245	1.4545	0.	-1019.8
10547	19.337	1.4545	5.e-002	-4.4704
10548	19.337	1.1818	0.	-991.51
10549	19.245	1.2727	0.	-1015.4
10550	19.337	1.2727	5.e-002	-4.5506
10551	19.337	1.	0.	-986.57
10552	19.245	1.0909	0.	-1010.9
10553	19.337	1.0909	5.e-002	-4.6268
10554	19.337	0.81818	0.	-981.74
10555	19.245	0.90909	0.	-1006.4
10556	19.337	0.90909	5.e-002	-4.6961
10557	19.337	0.63636	0.	-977.21
10558	19.245	0.72727	0.	-1002.2
10559	19.337	0.72727	5.e-002	-4.7554
10560	19.337	0.45455	0.	-973.19
10561	19.245	0.54545	0.	-998.21
10562	19.337	0.54545	5.e-002	-4.7927
10563	19.337	0.27273	0.	-970.41
10564	19.245	0.36364	0.	-994.89
10565	19.337	0.36364	5.e-002	-4.6564
10566	19.245	0.18182	0.	-993.47
10567	19.337	0.18182	5.e-002	-2.1487
10568	19.337	9.0909e-002	0.	-964.66
10569	19.153	5.7273	0.	-1017.8
10570	19.061	5.8182	0.	-1040.8
10571	19.153	5.8182	5.e-002	-1.8885
10572	19.153	5.9091	0.	-1012.2
10573	19.153	5.5455	0.	-1019.9
10574	19.061	5.6364	0.	-1041.5
10575	19.153	5.6364	5.e-002	-4.5547
10576	19.153	5.3636	0.	-1023.1
10577	19.061	5.4545	0.	-1044.2
10578	19.153	5.4545	5.e-002	-4.7096
10579	19.153	5.1818	0.	-1026.8
10580	19.061	5.2727	0.	-1047.4
10581	19.153	5.2727	5.e-002	-4.6833
10582	19.153	5.	0.	-1030.8
10583	19.061	5.0909	0.	-1050.9
10584	19.153	5.0909	5.e-002	-4.6366
10585	19.153	4.8182	0.	-1034.8
10586	19.061	4.9091	0.	-1054.6
10587	19.153	4.9091	5.e-002	-4.5817
10588	19.153	4.6364	0.	-1038.8
10589	19.061	4.7273	0.	-1058.2
10590	19.153	4.7273	5.e-002	-4.5214
10591	19.153	4.4545	0.	-1042.5
10592	19.061	4.5455	0.	-1061.8
10593	19.153	4.5455	5.e-002	-4.458
10594	19.153	4.2727	0.	-1046.
10595	19.061	4.3636	0.	-1065.1
10596	19.153	4.3636	5.e-002	-4.3939
10597	19.153	4.0909	0.	-1049.2
10598	19.061	4.1818	0.	-1068.1
10599	19.153	4.1818	5.e-002	-4.3314
10600	19.153	3.9091	0.	-1051.9
10601	19.061	4.	0.	-1070.8
10602	19.153	4.	5.e-002	-4.2726
10603	19.153	3.7273	0.	-1054.1
10604	19.061	3.8182	0.	-1073.
10605	19.153	3.8182	5.e-002	-4.2198
10606	19.153	3.5455	0.	-1055.8
10607	19.061	3.6364	0.	-1074.8
10608	19.153	3.6364	5.e-002	-4.1747
10609	19.153	3.3636	0.	-1057.
10610	19.061	3.4545	0.	-1076.1
10611	19.153	3.4545	5.e-002	-4.1392
10612	19.153	3.1818	0.	-1057.8
10613	19.061	3.2727	0.	-1077.
10614	19.153	3.2727	5.e-002	-4.1147
10615	19.153	3.	0.	-1058.
10616	19.061	3.0909	0.	-1077.5
10617	19.153	3.0909	5.e-002	-4.1021
10618	19.153	2.8182	0.	-1057.8
10619	19.061	2.9091	0.	-1077.5
10620	19.153	2.9091	5.e-002	-4.1021
10621	19.153	2.6364	0.	-1057.
10622	19.061	2.7273	0.	-1077.
10623	19.153	2.7273	5.e-002	-4.1147
10624	19.153	2.4545	0.	-1055.8
10625	19.061	2.5455	0.	-1076.1
10626	19.153	2.5455	5.e-002	-4.1392
10627	19.153	2.2727	0.	-1054.1
10628	19.061	2.3636	0.	-1074.8
10629	19.153	2.3636	5.e-002	-4.1747
10630	19.153	2.0909	0.	-1051.9
10631	19.061	2.1818	0.	-1073.
10632	19.153	2.1818	5.e-002	-4.2198
10633	19.153	1.9091	0.	-1049.2
10634	19.061	2.	0.	-1070.8
10635	19.153	2.	5.e-002	-4.2726
10636	19.153	1.7273	0.	-1046.
10637	19.061	1.8182	0.	-1068.1
10638	19.153	1.8182	5.e-002	-4.3314
10639	19.153	1.5455	0.	-1042.5
10640	19.061	1.6364	0.	-1065.1
10641	19.153	1.6364	5.e-002	-4.3939
10642	19.153	1.3636	0.	-1038.8
10643	19.061	1.4545	0.	-1061.8
10644	19.153	1.4545	5.e-002	-4.4581
10645	19.153	1.1818	0.	-1034.8
10646	19.061	1.2727	0.	-1058.2
10647	19.153	1.2727	5.e-002	-4.5215
10648	19.153	1.	0.	-1030.8
10649	19.061	1.0909	0.	-1054.6
10650	19.153	1.0909	5.e-002	-4.5818
10651	19.153	0.81818	0.	-1026.8
10652	19.061	0.90909	0.	-1050.9
10653	19.153	0.90909	5.e-002	-4.6366
10654	19.153	0.63636	0.	-1023.1
10655	19.061	0.72727	0.	-1047.4
10656	19.153	0.72727	5.e-002	-4.6834
10657	19.153	0.45455	0.	-1019.9
10658	19.061	0.54545	0.	-1044.2
10659	19.153	0.54545	5.e-002	-4.7096
10660	19.153	0.27273	0.	-1017.8
10661	19.061	0.36364	0.	-1041.5
10662	19.153	0.36364	5.e-002	-4.5547
10663	19.061	0.18182	0.	-1040.8
10664	19.153	0.18182	5.e-002	-1.8886
10665	19.153	9.0909e-002	0.	-1012.2
10666	18.969	5.7273	0.	-1064.4
10667	18.877	5.8182	0.	-1087.4
10668	18.969	5.8182	5.e-002	-1.6629
10669	18.969	5.9091	0.	-1059.
10670	18.969	5.5455	0.	-1065.9
10671	18.877	5.6364	0.	-1087.6
10672	18.969	5.6364	5.e-002	-4.4733
10673	18.969	5.3636	0.	-1068.5
10674	18.877	5.4545	0.	-1089.7
10675	18.969	5.4545	5.e-002	-4.6443
10676	18.969	5.1818	0.	-1071.5
10677	18.877	5.2727	0.	-1092.3
10678	18.969	5.2727	5.e-002	-4.6273
10679	18.969	5.	0.	-1074.7
10680	18.877	5.0909	0.	-1095.2
10681	18.969	5.0909	5.e-002	-4.5909
10682	18.969	4.8182	0.	-1078.
10683	18.877	4.9091	0.	-1098.1
10684	18.969	4.9091	5.e-002	-4.5478
10685	18.969	4.6364	0.	-1081.2
10686	18.877	4.7273	0.	-1101.1
10687	18.969	4.7273	5.e-002	-4.5003
10688	18.969	4.4545	0.	-1084.3
10689	18.877	4.5455	0.	-1104.
10690	18.969	4.5455	5.e-002	-4.4504
10691	18.969	4.2727	0.	-1087.1
10692	18.877	4.3636	0.	-1106.7
10693	18.969	4.3636	5.e-002	-4.3999
10694	18.969	4.0909	0.	-1089.7
10695	18.877	4.1818	0.	-1109.1
10696	18.969	4.1818	5.e-002	-4.3508
10697	18.969	3.9091	0.	-1091.9
10698	18.877	4.	0.	-1111.3
10699	18.969	4.	5.e-002	-4.3048
10700	18.969	3.7273	0.	-1093.7
10701	18.877	3.8182	0.	-1113.1
10702	18.969	3.8182	5.e-002	-4.2635
10703	18.969	3.5455	0.	-1095.1
10704	18.877	3.6364	0.	-1114.6
10705	18.969	3.6364	5.e-002	-4.2284
10706	18.969	3.3636	0.	-1096.1
10707	18.877	3.4545	0.	-1115.7
10708	18.969	3.4545	5.e-002	-4.2008
10709	18.969	3.1818	0.	-1096.7
10710	18.877	3.2727	0.	-1116.4
10711	18.969	3.2727	5.e-002	-4.1818
10712	18.969	3.	0.	-1096.9
10713	18.877	3.0909	0.	-1116.8
10714	18.969	3.0909	5.e-002	-4.1721
10715	18.969	2.8182	0.	-1096.7
10716	18.877	2.9091	0.	-1116.8
10717	18.969	2.9091	5.e-002	-4.1721
10718	18.969	2.6364	0.	-1096.1
10719	18.877	2.7273	0.	-1116.4
10720	18.969	2.7273	5.e-002	-4.1818
10721	18.969	2.4545	0.	-1095.1
10722	18.877	2.5455	0.	-1115.7
10723	18.969	2.5455	5.e-002	-4.2008
10724	18.969	2.2727	0.	-1093.7
10725	18.877	2.3636	0.	-1114.6
10726	18.969	2.3636	5.e-002	-4.2284
10727	18.969	2.0909	0.	-1091.9
10728	18.877	2.1818	0.	-1113.1
10729	18.969	2.1818	5.e-002	-4.2635
10730	18.969	1.9091	0.	-1089.7
10731	18.877	2.	0.	-1111.3
10732	18.969	2.	5.e-002	-4.3048
10733	18.969	1.7273	0.	-1087.1
10734	18.877	1.8182	0.	-1109.1
10735	18.969	1.8182	5.e-002	-4.3508
10736	18.969	1.5455	0.	-1084.3
10737	18.877	1.6364	0.	-1106.7
10738	18.969	1.6364	5.e-002	-4.4
10739	18.969	1.3636	0.	-1081.2
10740	18.877	1.4545	0.	-1104.
10741	18.969	1.4545	5.e-002	-4.4504
10742	18.969	1.1818	0.	-1078.
10743	18.877	1.2727	0.	-1101.1
10744	18.969	1.2727	5.e-002	-4.5003
10745	18.969	1.	0.	-1074.7
10746	18.877	1.0909	0.	-1098.1
10747	18.969	1.0909	5.e-002	-4.5478
10748	18.969	0.81818	0.	-1071.5
10749	18.877	0.90909	0.	-1095.2
10750	18.969	0.90909	5.e-002	-4.5909
10751	18.969	0.63636	0.	-1068.5
10752	18.877	0.72727	0.	-1092.3
10753	18.969	0.72727	5.e-002	-4.6273
10754	18.969	0.45455	0.	-1065.9
10755	18.877	0.54545	0.	-1089.7
10756	18.969	0.54545	5.e-002	-4.6444
10757	18.969	0.27273	0.	-1064.4
10758	18.877	0.36364	0.	-1087.6
10759	18.969	0.36364	5.e-002	-4.4734
10760	18.877	0.18182	0.	-1087.4
10761	18.969	0.18182	5.e-002	-1.6629
10762	18.969	9.0909e-002	0.	-1059.
10763	18.785	5.7273	0.	-1110.4
10764	18.693	5.8182	0.	-1133.4
10765	18.785	5.8182	5.e-002	-1.467
10766	18.785	5.9091	0.	-1105.1
10767	18.785	5.5455	0.	-1111.4
10768	18.693	5.6364	0.	-1133.2
10769	18.785	5.6364	5.e-002	-4.409
10770	18.785	5.3636	0.	-1113.5
10771	18.693	5.4545	0.	-1134.8
10772	18.785	5.4545	5.e-002	-4.5939
10773	18.785	5.1818	0.	-1115.9
10774	18.693	5.2727	0.	-1136.9
10775	18.785	5.2727	5.e-002	-4.5844
10776	18.785	5.	0.	-1118.5
10777	18.693	5.0909	0.	-1139.2
10778	18.785	5.0909	5.e-002	-4.5564
10779	18.785	4.8182	0.	-1121.2
10780	18.693	4.9091	0.	-1141.6
10781	18.785	4.9091	5.e-002	-4.5227
10782	18.785	4.6364	0.	-1123.8
10783	18.693	4.7273	0.	-1144.
10784	18.785	4.7273	5.e-002	-4.4856
10785	18.785	4.4545	0.	-1126.3
10786	18.693	4.5455	0.	-1146.3
10787	18.785	4.5455	5.e-002	-4.4464
10788	18.785	4.2727	0.	-1128.6
10789	18.693	4.3636	0.	-1148.5
10790	18.785	4.3636	5.e-002	-4.4069
10791	18.785	4.0909	0.	-1130.7
10792	18.693	4.1818	0.	-1150.5
10793	18.785	4.1818	5.e-002	-4.3684
10794	18.785	3.9091	0.	-1132.5
10795	18.693	4.	0.	-1152.3
10796	18.785	4.	5.e-002	-4.3323
10797	18.785	3.7273	0.	-1133.9
10798	18.693	3.8182	0.	-1153.8
10799	18.785	3.8182	5.e-002	-4.3001
10800	18.785	3.5455	0.	-1135.1
10801	18.693	3.6364	0.	-1155.
10802	18.785	3.6364	5.e-002	-4.2727
10803	18.785	3.3636	0.	-1135.9
10804	18.693	3.4545	0.	-1155.9
10805	18.785	3.4545	5.e-002	-4.2512
10806	18.785	3.1818	0.	-1136.4
10807	18.693	3.2727	0.	-1156.5
10808	18.785	3.2727	5.e-002	-4.2364
10809	18.785	3.	0.	-1136.6
10810	18.693	3.0909	0.	-1156.8
10811	18.785	3.0909	5.e-002	-4.2289
10812	18.785	2.8182	0.	-1136.4
10813	18.693	2.9091	0.	-1156.8
10814	18.785	2.9091	5.e-002	-4.2289
10815	18.785	2.6364	0.	-1135.9
10816	18.693	2.7273	0.	-1156.5
10817	18.785	2.7273	5.e-002	-4.2364
10818	18.785	2.4545	0.	-1135.1
10819	18.693	2.5455	0.	-1155.9
10820	18.785	2.5455	5.e-002	-4.2512
10821	18.785	2.2727	0.	-1133.9
10822	18.693	2.3636	0.	-1155.
10823	18.785	2.3636	5.e-002	-4.2727
10824	18.785	2.0909	0.	-1132.5
10825	18.693	2.1818	0.	-1153.8
10826	18.785	2.1818	5.e-002	-4.3001
10827	18.785	1.9091	0.	-1130.7
10828	18.693	2.	0.	-1152.3
10829	18.785	2.	5.e-002	-4.3324
10830	18.785	1.7273	0.	-1128.6
10831	18.693	1.8182	0.	-1150.5
10832	18.785	1.8182	5.e-002	-4.3684
10833	18.785	1.5455	0.	-1126.3
10834	18.693	1.6364	0.	-1148.5
10835	18.785	1.6364	5.e-002	-4.4069
10836	18.785	1.3636	0.	-1123.8
10837	18.693	1.4545	0.	-1146.3
10838	18.785	1.4545	5.e-002	-4.4465
10839	18.785	1.1818	0.	-1121.2
10840	18.693	1.2727	0.	-1144.
10841	18.785	1.2727	5.e-002	-4.4856
10842	18.785	1.	0.	-1118.5
10843	18.693	1.0909	0.	-1141.6
10844	18.785	1.0909	5.e-002	-4.5228
10845	18.785	0.81818	0.	-1115.9
10846	18.693	0.90909	0.	-1139.2
10847	18.785	0.90909	5.e-002	-4.5564
10848	18.785	0.63636	0.	-1113.5
10849	18.693	0.72727	0.	-1136.9
10850	18.785	0.72727	5.e-002	-4.5845
10851	18.785	0.45455	0.	-1111.4
10852	18.693	0.54545	0.	-1134.8
10853	18.785	0.54545	5.e-002	-4.594
10854	18.785	0.27273	0.	-1110.4
10855	18.693	0.36364	0.	-1133.2
10856	18.785	0.36364	5.e-002	-4.409
10857	18.693	0.18182	0.	-1133.4
10858	18.785	0.18182	5.e-002	-1.467
10859	18.785	9.0909e-002	0.	-1105.1
10860	18.601	5.7273	0.	-1156.
10861	18.509	5.8182	0.	-1179.1
10862	18.601	5.8182	5.e-002	-1.2968
10863	18.601	5.9091	0.	-1150.8
10864	18.601	5.5455	0.	-1156.6
10865	18.509	5.6364	0.	-1178.4
10866	18.601	5.6364	5.e-002	-4.3587
10867	18.601	5.3636	0.	-1158.2
10868	18.509	5.4545	0.	-1179.7
10869	18.601	5.4545	5.e-002	-4.5558
10870	18.601	5.1818	0.	-1160.2
10871	18.509	5.2727	0.	-1181.3
10872	18.601	5.2727	5.e-002	-4.5523
10873	18.601	5.	0.	-1162.2
10874	18.509	5.0909	0.	-1183.1
10875	18.601	5.0909	5.e-002	-4.531
10876	18.601	4.8182	0.	-1164.4
10877	18.509	4.9091	0.	-1185.1
10878	18.601	4.9091	5.e-002	-4.5049
10879	18.601	4.6364	0.	-1166.5
10880	18.509	4.7273	0.	-1187.
10881	18.601	4.7273	5.e-002	-4.476
10882	18.601	4.4545	0.	-1168.5
10883	18.509	4.5455	0.	-1188.9
10884	18.601	4.5455	5.e-002	-4.4454
10885	18.601	4.2727	0.	-1170.4
10886	18.509	4.3636	0.	-1190.7
10887	18.601	4.3636	5.e-002	-4.4145
10888	18.601	4.0909	0.	-1172.1
10889	18.509	4.1818	0.	-1192.3
10890	18.601	4.1818	5.e-002	-4.3844
10891	18.601	3.9091	0.	-1173.6
10892	18.509	4.	0.	-1193.7
10893	18.601	4.	5.e-002	-4.3563
10894	18.601	3.7273	0.	-1174.8
10895	18.509	3.8182	0.	-1194.9
10896	18.601	3.8182	5.e-002	-4.3311
10897	18.601	3.5455	0.	-1175.7
10898	18.509	3.6364	0.	-1195.9
10899	18.601	3.6364	5.e-002	-4.3097
10900	18.601	3.3636	0.	-1176.4
10901	18.509	3.4545	0.	-1196.7
10902	18.601	3.4545	5.e-002	-4.293
10903	18.601	3.1818	0.	-1176.8
10904	18.509	3.2727	0.	-1197.1
10905	18.601	3.2727	5.e-002	-4.2815
10906	18.601	3.	0.	-1176.9
10907	18.509	3.0909	0.	-1197.4
10908	18.601	3.0909	5.e-002	-4.2756
10909	18.601	2.8182	0.	-1176.8
10910	18.509	2.9091	0.	-1197.4
10911	18.601	2.9091	5.e-002	-4.2756
10912	18.601	2.6364	0.	-1176.4
10913	18.509	2.7273	0.	-1197.1
10914	18.601	2.7273	5.e-002	-4.2815
10915	18.601	2.4545	0.	-1175.7
10916	18.509	2.5455	0.	-1196.7
10917	18.601	2.5455	5.e-002	-4.293
10918	18.601	2.2727	0.	-1174.8
10919	18.509	2.3636	0.	-1195.9
10920	18.601	2.3636	5.e-002	-4.3097
10921	18.601	2.0909	0.	-1173.6
10922	18.509	2.1818	0.	-1194.9
10923	18.601	2.1818	5.e-002	-4.3311
10924	18.601	1.9091	0.	-1172.1
10925	18.509	2.	0.	-1193.7
10926	18.601	2.	5.e-002	-4.3563
10927	18.601	1.7273	0.	-1170.4
10928	18.509	1.8182	0.	-1192.3
10929	18.601	1.8182	5.e-002	-4.3844
10930	18.601	1.5455	0.	-1168.5
10931	18.509	1.6364	0.	-1190.7
10932	18.601	1.6364	5.e-002	-4.4145
10933	18.601	1.3636	0.	-1166.5
10934	18.509	1.4545	0.	-1188.9
10935	18.601	1.4545	5.e-002	-4.4455
10936	18.601	1.1818	0.	-1164.4
10937	18.509	1.2727	0.	-1187.
10938	18.601	1.2727	5.e-002	-4.476
10939	18.601	1.	0.	-1162.2
10940	18.509	1.0909	0.	-1185.1
10941	18.601	1.0909	5.e-002	-4.505
10942	18.601	0.81818	0.	-1160.2
10943	18.509	0.90909	0.	-1183.1
10944	18.601	0.90909	5.e-002	-4.5311
10945	18.601	0.63636	0.	-1158.2
10946	18.509	0.72727	0.	-1181.3
10947	18.601	0.72727	5.e-002	-4.5524
10948	18.601	0.45455	0.	-1156.6
10949	18.509	0.54545	0.	-1179.7
10950	18.601	0.54545	5.e-002	-4.5558
10951	18.601	0.27273	0.	-1156.
10952	18.509	0.36364	0.	-1178.4
10953	18.601	0.36364	5.e-002	-4.3588
10954	18.509	0.18182	0.	-1179.1
10955	18.601	0.18182	5.e-002	-1.2968
10956	18.601	9.0909e-002	0.	-1150.8
10957	18.417	5.7273	0.	-1201.3
10958	18.325	5.8182	0.	-1224.4
10959	18.417	5.8182	5.e-002	-1.1484
10960	18.417	5.9091	0.	-1196.2
10961	18.417	5.5455	0.	-1201.5
10962	18.325	5.6364	0.	-1223.4
10963	18.417	5.6364	5.e-002	-4.32
10964	18.417	5.3636	0.	-1202.7
10965	18.325	5.4545	0.	-1224.3
10966	18.417	5.4545	5.e-002	-4.5276
10967	18.417	5.1818	0.	-1204.3
10968	18.325	5.2727	0.	-1225.6
10969	18.417	5.2727	5.e-002	-4.529
10970	18.417	5.	0.	-1205.9
10971	18.325	5.0909	0.	-1227.
10972	18.417	5.0909	5.e-002	-4.5131
10973	18.417	4.8182	0.	-1207.7
10974	18.325	4.9091	0.	-1228.6
10975	18.417	4.9091	5.e-002	-4.493
10976	18.417	4.6364	0.	-1209.4
10977	18.325	4.7273	0.	-1230.1
10978	18.417	4.7273	5.e-002	-4.4706
10979	18.417	4.4545	0.	-1211.
10980	18.325	4.5455	0.	-1231.6
10981	18.417	4.5455	5.e-002	-4.4469
10982	18.417	4.2727	0.	-1212.5
10983	18.325	4.3636	0.	-1233.1
10984	18.417	4.3636	5.e-002	-4.4228
10985	18.417	4.0909	0.	-1213.9
10986	18.325	4.1818	0.	-1234.4
10987	18.417	4.1818	5.e-002	-4.3993
10988	18.417	3.9091	0.	-1215.1
10989	18.325	4.	0.	-1235.6
10990	18.417	4.	5.e-002	-4.3774
10991	18.417	3.7273	0.	-1216.1
10992	18.325	3.8182	0.	-1236.5
10993	18.417	3.8182	5.e-002	-4.3577
10994	18.417	3.5455	0.	-1216.8
10995	18.325	3.6364	0.	-1237.3
10996	18.417	3.6364	5.e-002	-4.3411
10997	18.417	3.3636	0.	-1217.4
10998	18.325	3.4545	0.	-1237.9
10999	18.417	3.4545	5.e-002	-4.3281
11000	18.417	3.1818	0.	-1217.7
11001	18.325	3.2727	0.	-1238.3
11002	18.417	3.2727	5.e-002	-4.3191
11003	18.417	3.	0.	-1217.8
11004	18.325	3.0909	0.	-1238.5
11005	18.417	3.0909	5.e-002	-4.3145
11006	18.417	2.8182	0.	-1217.7
11007	18.325	2.9091	0.	-1238.5
11008	18.417	2.9091	5.e-002	-4.3145
11009	18.417	2.6364	0.	-1217.4
11010	18.325	2.7273	0.	-1238.3
11011	18.417	2.7273	5.e-002	-4.3191
11012	18.417	2.4545	0.	-1216.8
11013	18.325	2.5455	0.	-1237.9
11014	18.417	2.5455	5.e-002	-4.3281
11015	18.417	2.2727	0.	-1216.1
11016	18.325	2.3636	0.	-1237.3
11017	18.417	2.3636	5.e-002	-4.3411
11018	18.417	2.0909	0.	-1215.1
11019	18.325	2.1818	0.	-1236.5
11020	18.417	2.1818	5.e-002	-4.3577
11021	18.417	1.9091	0.	-1213.9
11022	18.325	2.	0.	-1235.6
11023	18.417	2.	5.e-002	-4.3774
11024	18.417	1.7273	0.	-1212.5
11025	18.325	1.8182	0.	-1234.4
11026	18.417	1.8182	5.e-002	-4.3993
11027	18.417	1.5455	0.	-1211.
11028	18.325	1.6364	0.	-1233.1
11029	18.417	1.6364	5.e-002	-4.4228
11030	18.417	1.3636	0.	-1209.4
11031	18.325	1.4545	0.	-1231.6
11032	18.417	1.4545	5.e-002	-4.4469
11033	18.417	1.1818	0.	-1207.7
11034	18.325	1.2727	0.	-1230.1
11035	18.417	1.2727	5.e-002	-4.4706
11036	18.417	1.	0.	-1205.9
11037	18.325	1.0909	0.	-1228.6
11038	18.417	1.0909	5.e-002	-4.493
11039	18.417	0.81818	0.	-1204.3
11040	18.325	0.90909	0.	-1227.
11041	18.417	0.90909	5.e-002	-4.5131
11042	18.417	0.63636	0.	-1202.7
11043	18.325	0.72727	0.	-1225.6
11044	18.417	0.72727	5.e-002	-4.529
11045	18.417	0.45455	0.	-1201.5
11046	18.325	0.54545	0.	-1224.3
11047	18.417	0.54545	5.e-002	-4.5276
11048	18.417	0.27273	0.	-1201.3
11049	18.325	0.36364	0.	-1223.4
11050	18.417	0.36364	5.e-002	-4.3201
11051	18.325	0.18182	0.	-1224.4
11052	18.417	0.18182	5.e-002	-1.1484
11053	18.417	9.0909e-002	0.	-1196.2
11054	18.233	5.7273	0.	-1246.3
11055	18.14	5.8182	0.	-1269.5
11056	18.233	5.8182	5.e-002	-1.0189
11057	18.233	5.9091	0.	-1241.3
11058	18.233	5.5455	0.	-1246.2
11059	18.14	5.6364	0.	-1268.2
11060	18.233	5.6364	5.e-002	-4.2909
11061	18.233	5.3636	0.	-1247.1
11062	18.14	5.4545	0.	-1268.8
11063	18.233	5.4545	5.e-002	-4.5076
11064	18.233	5.1818	0.	-1248.3
11065	18.14	5.2727	0.	-1269.8
11066	18.233	5.2727	5.e-002	-4.5129
11067	18.233	5.	0.	-1249.6
11068	18.14	5.0909	0.	-1270.9
11069	18.233	5.0909	5.e-002	-4.5012
11070	18.233	4.8182	0.	-1251.
11071	18.14	4.9091	0.	-1272.1
11072	18.233	4.9091	5.e-002	-4.4859
11073	18.233	4.6364	0.	-1252.4
11074	18.14	4.7273	0.	-1273.4
11075	18.233	4.7273	5.e-002	-4.4687
11076	18.233	4.4545	0.	-1253.7
11077	18.14	4.5455	0.	-1274.6
11078	18.233	4.5455	5.e-002	-4.4504
11079	18.233	4.2727	0.	-1254.9
11080	18.14	4.3636	0.	-1275.7
11081	18.233	4.3636	5.e-002	-4.4317
11082	18.233	4.0909	0.	-1256.
11083	18.14	4.1818	0.	-1276.8
11084	18.233	4.1818	5.e-002	-4.4135
11085	18.233	3.9091	0.	-1257.
11086	18.14	4.	0.	-1277.7
11087	18.233	4.	5.e-002	-4.3965
11088	18.233	3.7273	0.	-1257.8
11089	18.14	3.8182	0.	-1278.5
11090	18.233	3.8182	5.e-002	-4.3812
11091	18.233	3.5455	0.	-1258.4
11092	18.14	3.6364	0.	-1279.2
11093	18.233	3.6364	5.e-002	-4.3682
11094	18.233	3.3636	0.	-1258.9
11095	18.14	3.4545	0.	-1279.7
11096	18.233	3.4545	5.e-002	-4.3581
11097	18.233	3.1818	0.	-1259.1
11098	18.14	3.2727	0.	-1280.
11099	18.233	3.2727	5.e-002	-4.3511
11100	18.233	3.	0.	-1259.2
11101	18.14	3.0909	0.	-1280.2
11102	18.233	3.0909	5.e-002	-4.3476
11103	18.233	2.8182	0.	-1259.1
11104	18.14	2.9091	0.	-1280.2
11105	18.233	2.9091	5.e-002	-4.3476
11106	18.233	2.6364	0.	-1258.9
11107	18.14	2.7273	0.	-1280.
11108	18.233	2.7273	5.e-002	-4.3511
11109	18.233	2.4545	0.	-1258.4
11110	18.14	2.5455	0.	-1279.7
11111	18.233	2.5455	5.e-002	-4.3581
11112	18.233	2.2727	0.	-1257.8
11113	18.14	2.3636	0.	-1279.2
11114	18.233	2.3636	5.e-002	-4.3682
11115	18.233	2.0909	0.	-1257.
11116	18.14	2.1818	0.	-1278.5
11117	18.233	2.1818	5.e-002	-4.3812
11118	18.233	1.9091	0.	-1256.
11119	18.14	2.	0.	-1277.7
11120	18.233	2.	5.e-002	-4.3965
11121	18.233	1.7273	0.	-1254.9
11122	18.14	1.8182	0.	-1276.8
11123	18.233	1.8182	5.e-002	-4.4135
11124	18.233	1.5455	0.	-1253.7
11125	18.14	1.6364	0.	-1275.7
11126	18.233	1.6364	5.e-002	-4.4318
11127	18.233	1.3636	0.	-1252.4
11128	18.14	1.4545	0.	-1274.6
11129	18.233	1.4545	5.e-002	-4.4504
11130	18.233	1.1818	0.	-1251.
11131	18.14	1.2727	0.	-1273.4
11132	18.233	1.2727	5.e-002	-4.4687
11133	18.233	1.	0.	-1249.6
11134	18.14	1.0909	0.	-1272.1
11135	18.233	1.0909	5.e-002	-4.486
11136	18.233	0.81818	0.	-1248.3
11137	18.14	0.90909	0.	-1270.9
11138	18.233	0.90909	5.e-002	-4.5012
11139	18.233	0.63636	0.	-1247.1
11140	18.14	0.72727	0.	-1269.8
11141	18.233	0.72727	5.e-002	-4.5129
11142	18.233	0.45455	0.	-1246.2
11143	18.14	0.54545	0.	-1268.8
11144	18.233	0.54545	5.e-002	-4.5077
11145	18.233	0.27273	0.	-1246.3
11146	18.14	0.36364	0.	-1268.2
11147	18.233	0.36364	5.e-002	-4.291
11148	18.14	0.18182	0.	-1269.5
11149	18.233	0.18182	5.e-002	-1.019
11150	18.233	9.0909e-002	0.	-1241.3
11151	18.048	5.7273	0.	-1291.2
11152	17.956	5.8182	0.	-1314.4
11153	18.048	5.8182	5.e-002	-0.90567
11154	18.048	5.9091	0.	-1286.3
11155	18.048	5.5455	0.	-1290.8
11156	17.956	5.6364	0.	-1312.9
11157	18.048	5.6364	5.e-002	-4.2697
11158	18.048	5.3636	0.	-1291.5
11159	17.956	5.4545	0.	-1313.3
11160	18.048	5.4545	5.e-002	-4.4944
11161	18.048	5.1818	0.	-1292.4
11162	17.956	5.2727	0.	-1314.
11163	18.048	5.2727	5.e-002	-4.5028
11164	18.048	5.	0.	-1293.4
11165	17.956	5.0909	0.	-1314.9
11166	18.048	5.0909	5.e-002	-4.4944
11167	18.048	4.8182	0.	-1294.5
11168	17.956	4.9091	0.	-1315.8
11169	18.048	4.9091	5.e-002	-4.4829
11170	18.048	4.6364	0.	-1295.5
11171	17.956	4.7273	0.	-1316.8
11172	18.048	4.7273	5.e-002	-4.4698
11173	18.048	4.4545	0.	-1296.6
11174	17.956	4.5455	0.	-1317.7
11175	18.048	4.5455	5.e-002	-4.4557
11176	18.048	4.2727	0.	-1297.6
11177	17.956	4.3636	0.	-1318.6
11178	18.048	4.3636	5.e-002	-4.4413
11179	18.048	4.0909	0.	-1298.5
11180	17.956	4.1818	0.	-1319.5
11181	18.048	4.1818	5.e-002	-4.4272
11182	18.048	3.9091	0.	-1299.3
11183	17.956	4.	0.	-1320.2
11184	18.048	4.	5.e-002	-4.414
11185	18.048	3.7273	0.	-1299.9
11186	17.956	3.8182	0.	-1320.9
11187	18.048	3.8182	5.e-002	-4.4021
11188	18.048	3.5455	0.	-1300.4
11189	17.956	3.6364	0.	-1321.4
11190	18.048	3.6364	5.e-002	-4.3921
11191	18.048	3.3636	0.	-1300.8
11192	17.956	3.4545	0.	-1321.8
11193	18.048	3.4545	5.e-002	-4.3842
11194	18.048	3.1818	0.	-1301.
11195	17.956	3.2727	0.	-1322.1
11196	18.048	3.2727	5.e-002	-4.3788
11197	18.048	3.	0.	-1301.1
11198	17.956	3.0909	0.	-1322.2
11199	18.048	3.0909	5.e-002	-4.3761
11200	18.048	2.8182	0.	-1301.
11201	17.956	2.9091	0.	-1322.2
11202	18.048	2.9091	5.e-002	-4.3761
11203	18.048	2.6364	0.	-1300.8
11204	17.956	2.7273	0.	-1322.1
11205	18.048	2.7273	5.e-002	-4.3788
11206	18.048	2.4545	0.	-1300.4
11207	17.956	2.5455	0.	-1321.8
11208	18.048	2.5455	5.e-002	-4.3842
11209	18.048	2.2727	0.	-1299.9
11210	17.956	2.3636	0.	-1321.4
11211	18.048	2.3636	5.e-002	-4.3921
11212	18.048	2.0909	0.	-1299.3
11213	17.956	2.1818	0.	-1320.9
11214	18.048	2.1818	5.e-002	-4.4022
11215	18.048	1.9091	0.	-1298.5
11216	17.956	2.	0.	-1320.2
11217	18.048	2.	5.e-002	-4.414
11218	18.048	1.7273	0.	-1297.6
11219	17.956	1.8182	0.	-1319.5
11220	18.048	1.8182	5.e-002	-4.4272
11221	18.048	1.5455	0.	-1296.6
11222	17.956	1.6364	0.	-1318.6
11223	18.048	1.6364	5.e-002	-4.4413
11224	18.048	1.3636	0.	-1295.5
11225	17.956	1.4545	0.	-1317.7
11226	18.048	1.4545	5.e-002	-4.4557
11227	18.048	1.1818	0.	-1294.5
11228	17.956	1.2727	0.	-1316.8
11229	18.048	1.2727	5.e-002	-4.4698
11230	18.048	1.	0.	-1293.4
11231	17.956	1.0909	0.	-1315.8
11232	18.048	1.0909	5.e-002	-4.4829
11233	18.048	0.81818	0.	-1292.4
11234	17.956	0.90909	0.	-1314.9
11235	18.048	0.90909	5.e-002	-4.4944
11236	18.048	0.63636	0.	-1291.5
11237	17.956	0.72727	0.	-1314.
11238	18.048	0.72727	5.e-002	-4.5028
11239	18.048	0.45455	0.	-1290.8
11240	17.956	0.54545	0.	-1313.3
11241	18.048	0.54545	5.e-002	-4.4945
11242	18.048	0.27273	0.	-1291.2
11243	17.956	0.36364	0.	-1312.9
11244	18.048	0.36364	5.e-002	-4.2698
11245	17.956	0.18182	0.	-1314.4
11246	18.048	0.18182	5.e-002	-0.9057
11247	18.048	9.0909e-002	0.	-1286.3
11248	17.864	5.7273	0.	-1336.
11249	17.772	5.8182	0.	-1359.3
11250	17.864	5.8182	5.e-002	-0.80629
11251	17.864	5.9091	0.	-1331.2
11252	17.864	5.5455	0.	-1335.4
11253	17.772	5.6364	0.	-1357.6
11254	17.864	5.6364	5.e-002	-4.2549
11255	17.864	5.3636	0.	-1335.8
11256	17.772	5.4545	0.	-1357.8
11257	17.864	5.4545	5.e-002	-4.4867
11258	17.864	5.1818	0.	-1336.5
11259	17.772	5.2727	0.	-1358.2
11260	17.864	5.2727	5.e-002	-4.4974
11261	17.864	5.	0.	-1337.2
11262	17.772	5.0909	0.	-1358.8
11263	17.864	5.0909	5.e-002	-4.4916
11264	17.864	4.8182	0.	-1338.
11265	17.772	4.9091	0.	-1359.5
11266	17.864	4.9091	5.e-002	-4.4831
11267	17.864	4.6364	0.	-1338.9
11268	17.772	4.7273	0.	-1360.3
11269	17.864	4.7273	5.e-002	-4.4732
11270	17.864	4.4545	0.	-1339.7
11271	17.772	4.5455	0.	-1361.
11272	17.864	4.5455	5.e-002	-4.4625
11273	17.864	4.2727	0.	-1340.5
11274	17.772	4.3636	0.	-1361.8
11275	17.864	4.3636	5.e-002	-4.4515
11276	17.864	4.0909	0.	-1341.2
11277	17.772	4.1818	0.	-1362.4
11278	17.864	4.1818	5.e-002	-4.4406
11279	17.864	3.9091	0.	-1341.8
11280	17.772	4.	0.	-1363.
11281	17.864	4.	5.e-002	-4.4304
11282	17.864	3.7273	0.	-1342.4
11283	17.772	3.8182	0.	-1363.5
11284	17.864	3.8182	5.e-002	-4.4213
11285	17.864	3.5455	0.	-1342.8
11286	17.772	3.6364	0.	-1364.
11287	17.864	3.6364	5.e-002	-4.4135
11288	17.864	3.3636	0.	-1343.1
11289	17.772	3.4545	0.	-1364.3
11290	17.864	3.4545	5.e-002	-4.4074
11291	17.864	3.1818	0.	-1343.2
11292	17.772	3.2727	0.	-1364.5
11293	17.864	3.2727	5.e-002	-4.4033
11294	17.864	3.	0.	-1343.3
11295	17.772	3.0909	0.	-1364.6
11296	17.864	3.0909	5.e-002	-4.4011
11297	17.864	2.8182	0.	-1343.2
11298	17.772	2.9091	0.	-1364.6
11299	17.864	2.9091	5.e-002	-4.4011
11300	17.864	2.6364	0.	-1343.1
11301	17.772	2.7273	0.	-1364.5
11302	17.864	2.7273	5.e-002	-4.4033
11303	17.864	2.4545	0.	-1342.8
11304	17.772	2.5455	0.	-1364.3
11305	17.864	2.5455	5.e-002	-4.4074
11306	17.864	2.2727	0.	-1342.4
11307	17.772	2.3636	0.	-1364.
11308	17.864	2.3636	5.e-002	-4.4135
11309	17.864	2.0909	0.	-1341.8
11310	17.772	2.1818	0.	-1363.5
11311	17.864	2.1818	5.e-002	-4.4213
11312	17.864	1.9091	0.	-1341.2
11313	17.772	2.	0.	-1363.
11314	17.864	2.	5.e-002	-4.4305
11315	17.864	1.7273	0.	-1340.5
11316	17.772	1.8182	0.	-1362.4
11317	17.864	1.8182	5.e-002	-4.4407
11318	17.864	1.5455	0.	-1339.7
11319	17.772	1.6364	0.	-1361.8
11320	17.864	1.6364	5.e-002	-4.4515
11321	17.864	1.3636	0.	-1338.9
11322	17.772	1.4545	0.	-1361.
11323	17.864	1.4545	5.e-002	-4.4625
11324	17.864	1.1818	0.	-1338.
11325	17.772	1.2727	0.	-1360.3
11326	17.864	1.2727	5.e-002	-4.4732
11327	17.864	1.	0.	-1337.2
11328	17.772	1.0909	0.	-1359.5
11329	17.864	1.0909	5.e-002	-4.4831
11330	17.864	0.81818	0.	-1336.5
11331	17.772	0.90909	0.	-1358.8
11332	17.864	0.90909	5.e-002	-4.4917
11333	17.864	0.63636	0.	-1335.8
11334	17.772	0.72727	0.	-1358.2
11335	17.864	0.72727	5.e-002	-4.4975
11336	17.864	0.45455	0.	-1335.4
11337	17.772	0.54545	0.	-1357.8
11338	17.864	0.54545	5.e-002	-4.4867
11339	17.864	0.27273	0.	-1336.
11340	17.772	0.36364	0.	-1357.6
11341	17.864	0.36364	5.e-002	-4.2549
11342	17.772	0.18182	0.	-1359.3
11343	17.864	0.18182	5.e-002	-0.80633
11344	17.864	9.0909e-002	0.	-1331.2
11345	17.68	5.7273	0.	-1380.7
11346	17.588	5.8182	0.	-1404.2
11347	17.68	5.8182	5.e-002	-0.71902
11348	17.68	5.9091	0.	-1376.
11349	17.68	5.5455	0.	-1379.9
11350	17.588	5.6364	0.	-1402.2
11351	17.68	5.6364	5.e-002	-4.2454
11352	17.68	5.3636	0.	-1380.2
11353	17.588	5.4545	0.	-1402.2
11354	17.68	5.4545	5.e-002	-4.4834
11355	17.68	5.1818	0.	-1380.6
11356	17.588	5.2727	0.	-1402.5
11357	17.68	5.2727	5.e-002	-4.4961
11358	17.68	5.	0.	-1381.1
11359	17.588	5.0909	0.	-1402.9
11360	17.68	5.0909	5.e-002	-4.4924
11361	17.68	4.8182	0.	-1381.8
11362	17.588	4.9091	0.	-1403.4
11363	17.68	4.9091	5.e-002	-4.4861
11364	17.68	4.6364	0.	-1382.4
11365	17.588	4.7273	0.	-1404.
11366	17.68	4.7273	5.e-002	-4.4787
11367	17.68	4.4545	0.	-1383.
11368	17.588	4.5455	0.	-1404.5
11369	17.68	4.5455	5.e-002	-4.4707
11370	17.68	4.2727	0.	-1383.7
11371	17.588	4.3636	0.	-1405.1
11372	17.68	4.3636	5.e-002	-4.4623
11373	17.68	4.0909	0.	-1384.2
11374	17.588	4.1818	0.	-1405.6
11375	17.68	4.1818	5.e-002	-4.454
11376	17.68	3.9091	0.	-1384.7
11377	17.588	4.	0.	-1406.1
11378	17.68	4.	5.e-002	-4.4462
11379	17.68	3.7273	0.	-1385.1
11380	17.588	3.8182	0.	-1406.5
11381	17.68	3.8182	5.e-002	-4.4392
11382	17.68	3.5455	0.	-1385.4
11383	17.588	3.6364	0.	-1406.8
11384	17.68	3.6364	5.e-002	-4.4332
11385	17.68	3.3636	0.	-1385.7
11386	17.588	3.4545	0.	-1407.1
11387	17.68	3.4545	5.e-002	-4.4285
11388	17.68	3.1818	0.	-1385.8
11389	17.588	3.2727	0.	-1407.2
11390	17.68	3.2727	5.e-002	-4.4253
11391	17.68	3.	0.	-1385.9
11392	17.588	3.0909	0.	-1407.3
11393	17.68	3.0909	5.e-002	-4.4237
11394	17.68	2.8182	0.	-1385.8
11395	17.588	2.9091	0.	-1407.3
11396	17.68	2.9091	5.e-002	-4.4237
11397	17.68	2.6364	0.	-1385.7
11398	17.588	2.7273	0.	-1407.2
11399	17.68	2.7273	5.e-002	-4.4253
11400	17.68	2.4545	0.	-1385.4
11401	17.588	2.5455	0.	-1407.1
11402	17.68	2.5455	5.e-002	-4.4286
11403	17.68	2.2727	0.	-1385.1
11404	17.588	2.3636	0.	-1406.8
11405	17.68	2.3636	5.e-002	-4.4332
11406	17.68	2.0909	0.	-1384.7
11407	17.588	2.1818	0.	-1406.5
11408	17.68	2.1818	5.e-002	-4.4392
11409	17.68	1.9091	0.	-1384.2
11410	17.588	2.	0.	-1406.1
11411	17.68	2.	5.e-002	-4.4463
11412	17.68	1.7273	0.	-1383.7
11413	17.588	1.8182	0.	-1405.6
11414	17.68	1.8182	5.e-002	-4.4541
11415	17.68	1.5455	0.	-1383.
11416	17.588	1.6364	0.	-1405.1
11417	17.68	1.6364	5.e-002	-4.4623
11418	17.68	1.3636	0.	-1382.4
11419	17.588	1.4545	0.	-1404.5
11420	17.68	1.4545	5.e-002	-4.4707
11421	17.68	1.1818	0.	-1381.8
11422	17.588	1.2727	0.	-1404.
11423	17.68	1.2727	5.e-002	-4.4788
11424	17.68	1.	0.	-1381.1
11425	17.588	1.0909	0.	-1403.4
11426	17.68	1.0909	5.e-002	-4.4862
11427	17.68	0.81818	0.	-1380.6
11428	17.588	0.90909	0.	-1402.9
11429	17.68	0.90909	5.e-002	-4.4924
11430	17.68	0.63636	0.	-1380.2
11431	17.588	0.72727	0.	-1402.5
11432	17.68	0.72727	5.e-002	-4.4962
11433	17.68	0.45455	0.	-1379.9
11434	17.588	0.54545	0.	-1402.2
11435	17.68	0.54545	5.e-002	-4.4835
11436	17.68	0.27273	0.	-1380.7
11437	17.588	0.36364	0.	-1402.2
11438	17.68	0.36364	5.e-002	-4.2455
11439	17.588	0.18182	0.	-1404.2
11440	17.68	0.18182	5.e-002	-0.71905
11441	17.68	9.0909e-002	0.	-1376.
11442	17.496	5.7273	0.	-1425.5
11443	17.404	5.8182	0.	-1449.
11444	17.496	5.8182	5.e-002	-0.64224
11445	17.496	5.9091	0.	-1420.8
11446	17.496	5.5455	0.	-1424.5
11447	17.404	5.6364	0.	-1446.9
11448	17.496	5.6364	5.e-002	-4.2403
11449	17.496	5.3636	0.	-1424.6
11450	17.404	5.4545	0.	-1446.8
11451	17.496	5.4545	5.e-002	-4.4839
11452	17.496	5.1818	0.	-1424.8
11453	17.404	5.2727	0.	-1446.9
11454	17.496	5.2727	5.e-002	-4.4981
11455	17.496	5.	0.	-1425.2
11456	17.404	5.0909	0.	-1447.1
11457	17.496	5.0909	5.e-002	-4.4959
11458	17.496	4.8182	0.	-1425.6
11459	17.404	4.9091	0.	-1447.5
11460	17.496	4.9091	5.e-002	-4.4915
11461	17.496	4.6364	0.	-1426.1
11462	17.404	4.7273	0.	-1447.8
11463	17.496	4.7273	5.e-002	-4.4861
11464	17.496	4.4545	0.	-1426.6
11465	17.404	4.5455	0.	-1448.3
11466	17.496	4.5455	5.e-002	-4.4801
11467	17.496	4.2727	0.	-1427.
11468	17.404	4.3636	0.	-1448.7
11469	17.496	4.3636	5.e-002	-4.4738
11470	17.496	4.0909	0.	-1427.5
11471	17.404	4.1818	0.	-1449.1
11472	17.496	4.1818	5.e-002	-4.4675
11473	17.496	3.9091	0.	-1427.9
11474	17.404	4.	0.	-1449.4
11475	17.496	4.	5.e-002	-4.4616
11476	17.496	3.7273	0.	-1428.2
11477	17.404	3.8182	0.	-1449.7
11478	17.496	3.8182	5.e-002	-4.4562
11479	17.496	3.5455	0.	-1428.4
11480	17.404	3.6364	0.	-1450.
11481	17.496	3.6364	5.e-002	-4.4516
11482	17.496	3.3636	0.	-1428.6
11483	17.404	3.4545	0.	-1450.2
11484	17.496	3.4545	5.e-002	-4.4481
11485	17.496	3.1818	0.	-1428.7
11486	17.404	3.2727	0.	-1450.3
11487	17.496	3.2727	5.e-002	-4.4456
11488	17.496	3.	0.	-1428.8
11489	17.404	3.0909	0.	-1450.4
11490	17.496	3.0909	5.e-002	-4.4443
11491	17.496	2.8182	0.	-1428.7
11492	17.404	2.9091	0.	-1450.4
11493	17.496	2.9091	5.e-002	-4.4443
11494	17.496	2.6364	0.	-1428.6
11495	17.404	2.7273	0.	-1450.3
11496	17.496	2.7273	5.e-002	-4.4456
11497	17.496	2.4545	0.	-1428.4
11498	17.404	2.5455	0.	-1450.2
11499	17.496	2.5455	5.e-002	-4.4481
11500	17.496	2.2727	0.	-1428.2
11501	17.404	2.3636	0.	-1450.
11502	17.496	2.3636	5.e-002	-4.4517
11503	17.496	2.0909	0.	-1427.9
11504	17.404	2.1818	0.	-1449.7
11505	17.496	2.1818	5.e-002	-4.4562
11506	17.496	1.9091	0.	-1427.5
11507	17.404	2.	0.	-1449.4
11508	17.496	2.	5.e-002	-4.4616
11509	17.496	1.7273	0.	-1427.
11510	17.404	1.8182	0.	-1449.1
11511	17.496	1.8182	5.e-002	-4.4675
11512	17.496	1.5455	0.	-1426.6
11513	17.404	1.6364	0.	-1448.7
11514	17.496	1.6364	5.e-002	-4.4738
11515	17.496	1.3636	0.	-1426.1
11516	17.404	1.4545	0.	-1448.3
11517	17.496	1.4545	5.e-002	-4.4801
11518	17.496	1.1818	0.	-1425.6
11519	17.404	1.2727	0.	-1447.8
11520	17.496	1.2727	5.e-002	-4.4861
11521	17.496	1.	0.	-1425.2
11522	17.404	1.0909	0.	-1447.5
11523	17.496	1.0909	5.e-002	-4.4915
11524	17.496	0.81818	0.	-1424.8
11525	17.404	0.90909	0.	-1447.1
11526	17.496	0.90909	5.e-002	-4.4959
11527	17.496	0.63636	0.	-1424.6
11528	17.404	0.72727	0.	-1446.9
11529	17.496	0.72727	5.e-002	-4.4982
11530	17.496	0.45455	0.	-1424.5
11531	17.404	0.54545	0.	-1446.8
11532	17.496	0.54545	5.e-002	-4.484
11533	17.496	0.27273	0.	-1425.5
11534	17.404	0.36364	0.	-1446.9
11535	17.496	0.36364	5.e-002	-4.2404
11536	17.404	0.18182	0.	-1449.
11537	17.496	0.18182	5.e-002	-0.64226
11538	17.496	9.0909e-002	0.	-1420.8
11539	17.312	5.7273	0.	-1470.3
11540	17.22	5.8182	0.	-1493.9
11541	17.312	5.8182	5.e-002	-0.57457
11542	17.312	5.9091	0.	-1465.7
11543	17.312	5.5455	0.	-1469.1
11544	17.22	5.6364	0.	-1491.7
11545	17.312	5.6364	5.e-002	-4.2388
11546	17.312	5.3636	0.	-1469.
11547	17.22	5.4545	0.	-1491.4
11548	17.312	5.4545	5.e-002	-4.4874
11549	17.312	5.1818	0.	-1469.2
11550	17.22	5.2727	0.	-1491.4
11551	17.312	5.2727	5.e-002	-4.5028
11552	17.312	5.	0.	-1469.4
11553	17.22	5.0909	0.	-1491.5
11554	17.312	5.0909	5.e-002	-4.5018
11555	17.312	4.8182	0.	-1469.7
11556	17.22	4.9091	0.	-1491.6
11557	17.312	4.9091	5.e-002	-4.4987
11558	17.312	4.6364	0.	-1470.
11559	17.22	4.7273	0.	-1491.9
11560	17.312	4.7273	5.e-002	-4.4949
11561	17.312	4.4545	0.	-1470.3
11562	17.22	4.5455	0.	-1492.2
11563	17.312	4.5455	5.e-002	-4.4905
11564	17.312	4.2727	0.	-1470.7
11565	17.22	4.3636	0.	-1492.4
11566	17.312	4.3636	5.e-002	-4.4858
11567	17.312	4.0909	0.	-1471.
11568	17.22	4.1818	0.	-1492.7
11569	17.312	4.1818	5.e-002	-4.4811
11570	17.312	3.9091	0.	-1471.3
11571	17.22	4.	0.	-1493.
11572	17.312	4.	5.e-002	-4.4767
11573	17.312	3.7273	0.	-1471.5
11574	17.22	3.8182	0.	-1493.2
11575	17.312	3.8182	5.e-002	-4.4726
11576	17.312	3.5455	0.	-1471.7
11577	17.22	3.6364	0.	-1493.4
11578	17.312	3.6364	5.e-002	-4.4691
11579	17.312	3.3636	0.	-1471.8
11580	17.22	3.4545	0.	-1493.6
11581	17.312	3.4545	5.e-002	-4.4664
11582	17.312	3.1818	0.	-1471.9
11583	17.22	3.2727	0.	-1493.7
11584	17.312	3.2727	5.e-002	-4.4645
11585	17.312	3.	0.	-1472.
11586	17.22	3.0909	0.	-1493.7
11587	17.312	3.0909	5.e-002	-4.4636
11588	17.312	2.8182	0.	-1471.9
11589	17.22	2.9091	0.	-1493.7
11590	17.312	2.9091	5.e-002	-4.4636
11591	17.312	2.6364	0.	-1471.8
11592	17.22	2.7273	0.	-1493.7
11593	17.312	2.7273	5.e-002	-4.4645
11594	17.312	2.4545	0.	-1471.7
11595	17.22	2.5455	0.	-1493.6
11596	17.312	2.5455	5.e-002	-4.4664
11597	17.312	2.2727	0.	-1471.5
11598	17.22	2.3636	0.	-1493.4
11599	17.312	2.3636	5.e-002	-4.4691
11600	17.312	2.0909	0.	-1471.3
11601	17.22	2.1818	0.	-1493.2
11602	17.312	2.1818	5.e-002	-4.4726
11603	17.312	1.9091	0.	-1471.
11604	17.22	2.	0.	-1493.
11605	17.312	2.	5.e-002	-4.4767
11606	17.312	1.7273	0.	-1470.7
11607	17.22	1.8182	0.	-1492.7
11608	17.312	1.8182	5.e-002	-4.4811
11609	17.312	1.5455	0.	-1470.3
11610	17.22	1.6364	0.	-1492.4
11611	17.312	1.6364	5.e-002	-4.4858
11612	17.312	1.3636	0.	-1470.
11613	17.22	1.4545	0.	-1492.2
11614	17.312	1.4545	5.e-002	-4.4905
11615	17.312	1.1818	0.	-1469.7
11616	17.22	1.2727	0.	-1491.9
11617	17.312	1.2727	5.e-002	-4.4949
11618	17.312	1.	0.	-1469.4
11619	17.22	1.0909	0.	-1491.6
11620	17.312	1.0909	5.e-002	-4.4988
11621	17.312	0.81818	0.	-1469.2
11622	17.22	0.90909	0.	-1491.5
11623	17.312	0.90909	5.e-002	-4.5018
11624	17.312	0.63636	0.	-1469.
11625	17.22	0.72727	0.	-1491.4
11626	17.312	0.72727	5.e-002	-4.5028
11627	17.312	0.45455	0.	-1469.1
11628	17.22	0.54545	0.	-1491.4
11629	17.312	0.54545	5.e-002	-4.4874
11630	17.312	0.27273	0.	-1470.3
11631	17.22	0.36364	0.	-1491.7
11632	17.312	0.36364	5.e-002	-4.2388
11633	17.22	0.18182	0.	-1493.9
11634	17.312	0.18182	5.e-002	-0.5746
11635	17.312	9.0909e-002	0.	-1465.7
11636	17.128	5.7273	0.	-1515.1
11637	17.035	5.8182	0.	-1538.8
11638	17.128	5.8182	5.e-002	-0.51501
11639	17.128	5.9091	0.	-1510.6
11640	17.128	5.5455	0.	-1513.8
11641	17.035	5.6364	0.	-1536.5
11642	17.128	5.6364	5.e-002	-4.2403
11643	17.128	5.3636	0.	-1513.6
11644	17.035	5.4545	0.	-1536.1
11645	17.128	5.4545	5.e-002	-4.4934
11646	17.128	5.1818	0.	-1513.6
11647	17.035	5.2727	0.	-1535.9
11648	17.128	5.2727	5.e-002	-4.5098
11649	17.128	5.	0.	-1513.7
11650	17.035	5.0909	0.	-1535.9
11651	17.128	5.0909	5.e-002	-4.5097
11652	17.128	4.8182	0.	-1513.8
11653	17.035	4.9091	0.	-1536.
11654	17.128	4.9091	5.e-002	-4.5077
11655	17.128	4.6364	0.	-1514.
11656	17.035	4.7273	0.	-1536.1
11657	17.128	4.7273	5.e-002	-4.505
11658	17.128	4.4545	0.	-1514.3
11659	17.035	4.5455	0.	-1536.3
11660	17.128	4.5455	5.e-002	-4.5019
11661	17.128	4.2727	0.	-1514.5
11662	17.035	4.3636	0.	-1536.4
11663	17.128	4.3636	5.e-002	-4.4985
11664	17.128	4.0909	0.	-1514.7
11665	17.035	4.1818	0.	-1536.6
11666	17.128	4.1818	5.e-002	-4.495
11667	17.128	3.9091	0.	-1514.9
11668	17.035	4.	0.	-1536.8
11669	17.128	4.	5.e-002	-4.4917
11670	17.128	3.7273	0.	-1515.1
11671	17.035	3.8182	0.	-1537.
11672	17.128	3.8182	5.e-002	-4.4887
11673	17.128	3.5455	0.	-1515.2
11674	17.035	3.6364	0.	-1537.1
11675	17.128	3.6364	5.e-002	-4.4861
11676	17.128	3.3636	0.	-1515.3
11677	17.035	3.4545	0.	-1537.2
11678	17.128	3.4545	5.e-002	-4.484
11679	17.128	3.1818	0.	-1515.4
11680	17.035	3.2727	0.	-1537.3
11681	17.128	3.2727	5.e-002	-4.4826
11682	17.128	3.	0.	-1515.4
11683	17.035	3.0909	0.	-1537.3
11684	17.128	3.0909	5.e-002	-4.4819
11685	17.128	2.8182	0.	-1515.4
11686	17.035	2.9091	0.	-1537.3
11687	17.128	2.9091	5.e-002	-4.4819
11688	17.128	2.6364	0.	-1515.3
11689	17.035	2.7273	0.	-1537.3
11690	17.128	2.7273	5.e-002	-4.4826
11691	17.128	2.4545	0.	-1515.2
11692	17.035	2.5455	0.	-1537.2
11693	17.128	2.5455	5.e-002	-4.4841
11694	17.128	2.2727	0.	-1515.1
11695	17.035	2.3636	0.	-1537.1
11696	17.128	2.3636	5.e-002	-4.4861
11697	17.128	2.0909	0.	-1514.9
11698	17.035	2.1818	0.	-1537.
11699	17.128	2.1818	5.e-002	-4.4887
11700	17.128	1.9091	0.	-1514.7
11701	17.035	2.	0.	-1536.8
11702	17.128	2.	5.e-002	-4.4917
11703	17.128	1.7273	0.	-1514.5
11704	17.035	1.8182	0.	-1536.6
11705	17.128	1.8182	5.e-002	-4.4951
11706	17.128	1.5455	0.	-1514.3
11707	17.035	1.6364	0.	-1536.4
11708	17.128	1.6364	5.e-002	-4.4985
11709	17.128	1.3636	0.	-1514.
11710	17.035	1.4545	0.	-1536.3
11711	17.128	1.4545	5.e-002	-4.5019
11712	17.128	1.1818	0.	-1513.8
11713	17.035	1.2727	0.	-1536.1
11714	17.128	1.2727	5.e-002	-4.505
11715	17.128	1.	0.	-1513.7
11716	17.035	1.0909	0.	-1536.
11717	17.128	1.0909	5.e-002	-4.5077
11718	17.128	0.81818	0.	-1513.6
11719	17.035	0.90909	0.	-1535.9
11720	17.128	0.90909	5.e-002	-4.5097
11721	17.128	0.63636	0.	-1513.6
11722	17.035	0.72727	0.	-1535.9
11723	17.128	0.72727	5.e-002	-4.5098
11724	17.128	0.45455	0.	-1513.8
11725	17.035	0.54545	0.	-1536.1
11726	17.128	0.54545	5.e-002	-4.4935
11727	17.128	0.27273	0.	-1515.1
11728	17.035	0.36364	0.	-1536.5
11729	17.128	0.36364	5.e-002	-4.2403
11730	17.035	0.18182	0.	-1538.8
11731	17.128	0.18182	5.e-002	-0.51503
11732	17.128	9.0909e-002	0.	-1510.6
11733	16.943	5.7273	0.	-1560.
11734	16.851	5.8182	0.	-1583.8
11735	16.943	5.8182	5.e-002	-0.46254
11736	16.943	5.9091	0.	-1555.6
11737	16.943	5.5455	0.	-1558.7
11738	16.851	5.6364	0.	-1581.4
11739	16.943	5.6364	5.e-002	-4.2442
11740	16.943	5.3636	0.	-1558.3
11741	16.851	5.4545	0.	-1580.9
11742	16.943	5.4545	5.e-002	-4.5015
11743	16.943	5.1818	0.	-1558.2
11744	16.851	5.2727	0.	-1580.7
11745	16.943	5.2727	5.e-002	-4.5186
11746	16.943	5.	0.	-1558.2
11747	16.851	5.0909	0.	-1580.5
11748	16.943	5.0909	5.e-002	-4.5192
11749	16.943	4.8182	0.	-1558.2
11750	16.851	4.9091	0.	-1580.5
11751	16.943	4.9091	5.e-002	-4.5181
11752	16.943	4.6364	0.	-1558.3
11753	16.851	4.7273	0.	-1580.5
11754	16.943	4.7273	5.e-002	-4.5163
11755	16.943	4.4545	0.	-1558.4
11756	16.851	4.5455	0.	-1580.5
11757	16.943	4.5455	5.e-002	-4.5141
11758	16.943	4.2727	0.	-1558.5
11759	16.851	4.3636	0.	-1580.6
11760	16.943	4.3636	5.e-002	-4.5117
11761	16.943	4.0909	0.	-1558.7
11762	16.851	4.1818	0.	-1580.7
11763	16.943	4.1818	5.e-002	-4.5093
11764	16.943	3.9091	0.	-1558.8
11765	16.851	4.	0.	-1580.8
11766	16.943	4.	5.e-002	-4.5068
11767	16.943	3.7273	0.	-1558.9
11768	16.851	3.8182	0.	-1580.9
11769	16.943	3.8182	5.e-002	-4.5046
11770	16.943	3.5455	0.	-1559.
11771	16.851	3.6364	0.	-1581.
11772	16.943	3.6364	5.e-002	-4.5027
11773	16.943	3.3636	0.	-1559.1
11774	16.851	3.4545	0.	-1581.1
11775	16.943	3.4545	5.e-002	-4.5012
11776	16.943	3.1818	0.	-1559.2
11777	16.851	3.2727	0.	-1581.2
11778	16.943	3.2727	5.e-002	-4.5001
11779	16.943	3.	0.	-1559.2
11780	16.851	3.0909	0.	-1581.2
11781	16.943	3.0909	5.e-002	-4.4996
11782	16.943	2.8182	0.	-1559.2
11783	16.851	2.9091	0.	-1581.2
11784	16.943	2.9091	5.e-002	-4.4996
11785	16.943	2.6364	0.	-1559.1
11786	16.851	2.7273	0.	-1581.2
11787	16.943	2.7273	5.e-002	-4.5001
11788	16.943	2.4545	0.	-1559.
11789	16.851	2.5455	0.	-1581.1
11790	16.943	2.5455	5.e-002	-4.5012
11791	16.943	2.2727	0.	-1558.9
11792	16.851	2.3636	0.	-1581.
11793	16.943	2.3636	5.e-002	-4.5027
11794	16.943	2.0909	0.	-1558.8
11795	16.851	2.1818	0.	-1580.9
11796	16.943	2.1818	5.e-002	-4.5046
11797	16.943	1.9091	0.	-1558.7
11798	16.851	2.	0.	-1580.8
11799	16.943	2.	5.e-002	-4.5068
11800	16.943	1.7273	0.	-1558.5
11801	16.851	1.8182	0.	-1580.7
11802	16.943	1.8182	5.e-002	-4.5093
11803	16.943	1.5455	0.	-1558.4
11804	16.851	1.6364	0.	-1580.6
11805	16.943	1.6364	5.e-002	-4.5118
11806	16.943	1.3636	0.	-1558.3
11807	16.851	1.4545	0.	-1580.5
11808	16.943	1.4545	5.e-002	-4.5142
11809	16.943	1.1818	0.	-1558.2
11810	16.851	1.2727	0.	-1580.5
11811	16.943	1.2727	5.e-002	-4.5163
11812	16.943	1.	0.	-1558.2
11813	16.851	1.0909	0.	-1580.5
11814	16.943	1.0909	5.e-002	-4.5181
11815	16.943	0.81818	0.	-1558.2
11816	16.851	0.90909	0.	-1580.5
11817	16.943	0.90909	5.e-002	-4.5193
11818	16.943	0.63636	0.	-1558.3
11819	16.851	0.72727	0.	-1580.7
11820	16.943	0.72727	5.e-002	-4.5187
11821	16.943	0.45455	0.	-1558.7
11822	16.851	0.54545	0.	-1580.9
11823	16.943	0.54545	5.e-002	-4.5016
11824	16.943	0.27273	0.	-1560.
11825	16.851	0.36364	0.	-1581.4
11826	16.943	0.36364	5.e-002	-4.2443
11827	16.851	0.18182	0.	-1583.8
11828	16.943	0.18182	5.e-002	-0.46256
11829	16.943	9.0909e-002	0.	-1555.6
11830	16.759	5.7273	0.	-1605.
11831	16.667	5.8182	0.	-1628.9
11832	16.759	5.8182	5.e-002	-0.41637
11833	16.759	5.9091	0.	-1600.7
11834	16.759	5.5455	0.	-1603.6
11835	16.667	5.6364	0.	-1626.4
11836	16.759	5.6364	5.e-002	-4.2502
11837	16.759	5.3636	0.	-1603.2
11838	16.667	5.4545	0.	-1625.8
11839	16.759	5.4545	5.e-002	-4.5113
11840	16.759	5.1818	0.	-1602.9
11841	16.667	5.2727	0.	-1625.5
11842	16.759	5.2727	5.e-002	-4.529
11843	16.759	5.	0.	-1602.8
11844	16.667	5.0909	0.	-1625.3
11845	16.759	5.0909	5.e-002	-4.5301
11846	16.759	4.8182	0.	-1602.7
11847	16.667	4.9091	0.	-1625.1
11848	16.759	4.9091	5.e-002	-4.5296
11849	16.759	4.6364	0.	-1602.7
11850	16.667	4.7273	0.	-1625.1
11851	16.759	4.7273	5.e-002	-4.5285
11852	16.759	4.4545	0.	-1602.8
11853	16.667	4.5455	0.	-1625.
11854	16.759	4.5455	5.e-002	-4.5271
11855	16.759	4.2727	0.	-1602.8
11856	16.667	4.3636	0.	-1625.
11857	16.759	4.3636	5.e-002	-4.5255
11858	16.759	4.0909	0.	-1602.9
11859	16.667	4.1818	0.	-1625.1
11860	16.759	4.1818	5.e-002	-4.5238
11861	16.759	3.9091	0.	-1603.
11862	16.667	4.	0.	-1625.1
11863	16.759	4.	5.e-002	-4.522
11864	16.759	3.7273	0.	-1603.
11865	16.667	3.8182	0.	-1625.2
11866	16.759	3.8182	5.e-002	-4.5204
11867	16.759	3.5455	0.	-1603.1
11868	16.667	3.6364	0.	-1625.2
11869	16.759	3.6364	5.e-002	-4.5191
11870	16.759	3.3636	0.	-1603.1
11871	16.667	3.4545	0.	-1625.3
11872	16.759	3.4545	5.e-002	-4.5179
11873	16.759	3.1818	0.	-1603.2
11874	16.667	3.2727	0.	-1625.3
11875	16.759	3.2727	5.e-002	-4.5172
11876	16.759	3.	0.	-1603.2
11877	16.667	3.0909	0.	-1625.3
11878	16.759	3.0909	5.e-002	-4.5168
11879	16.759	2.8182	0.	-1603.2
11880	16.667	2.9091	0.	-1625.3
11881	16.759	2.9091	5.e-002	-4.5168
11882	16.759	2.6364	0.	-1603.1
11883	16.667	2.7273	0.	-1625.3
11884	16.759	2.7273	5.e-002	-4.5172
11885	16.759	2.4545	0.	-1603.1
11886	16.667	2.5455	0.	-1625.3
11887	16.759	2.5455	5.e-002	-4.518
11888	16.759	2.2727	0.	-1603.
11889	16.667	2.3636	0.	-1625.2
11890	16.759	2.3636	5.e-002	-4.5191
11891	16.759	2.0909	0.	-1603.
11892	16.667	2.1818	0.	-1625.2
11893	16.759	2.1818	5.e-002	-4.5205
11894	16.759	1.9091	0.	-1602.9
11895	16.667	2.	0.	-1625.1
11896	16.759	2.	5.e-002	-4.5221
11897	16.759	1.7273	0.	-1602.8
11898	16.667	1.8182	0.	-1625.1
11899	16.759	1.8182	5.e-002	-4.5238
11900	16.759	1.5455	0.	-1602.8
11901	16.667	1.6364	0.	-1625.
11902	16.759	1.6364	5.e-002	-4.5255
11903	16.759	1.3636	0.	-1602.7
11904	16.667	1.4545	0.	-1625.
11905	16.759	1.4545	5.e-002	-4.5272
11906	16.759	1.1818	0.	-1602.7
11907	16.667	1.2727	0.	-1625.1
11908	16.759	1.2727	5.e-002	-4.5286
11909	16.759	1.	0.	-1602.8
11910	16.667	1.0909	0.	-1625.1
11911	16.759	1.0909	5.e-002	-4.5297
11912	16.759	0.81818	0.	-1602.9
11913	16.667	0.90909	0.	-1625.3
11914	16.759	0.90909	5.e-002	-4.5302
11915	16.759	0.63636	0.	-1603.2
11916	16.667	0.72727	0.	-1625.5
11917	16.759	0.72727	5.e-002	-4.529
11918	16.759	0.45455	0.	-1603.6
11919	16.667	0.54545	0.	-1625.8
11920	16.759	0.54545	5.e-002	-4.5113
11921	16.759	0.27273	0.	-1605.
11922	16.667	0.36364	0.	-1626.4
11923	16.759	0.36364	5.e-002	-4.2503
11924	16.667	0.18182	0.	-1628.9
11925	16.759	0.18182	5.e-002	-0.41639
11926	16.759	9.0909e-002	0.	-1600.7
11927	16.575	5.7273	0.	-1650.2
11928	16.483	5.8182	0.	-1674.2
11929	16.575	5.8182	5.e-002	-0.37587
11930	16.575	5.9091	0.	-1645.9
11931	16.575	5.5455	0.	-1648.7
11932	16.483	5.6364	0.	-1671.6
11933	16.575	5.6364	5.e-002	-4.258
11934	16.575	5.3636	0.	-1648.1
11935	16.483	5.4545	0.	-1670.9
11936	16.575	5.4545	5.e-002	-4.5225
11937	16.575	5.1818	0.	-1647.8
11938	16.483	5.2727	0.	-1670.5
11939	16.575	5.2727	5.e-002	-4.5407
11940	16.575	5.	0.	-1647.6
11941	16.483	5.0909	0.	-1670.2
11942	16.575	5.0909	5.e-002	-4.5423
11943	16.575	4.8182	0.	-1647.4
11944	16.483	4.9091	0.	-1670.
11945	16.575	4.9091	5.e-002	-4.5422
11946	16.575	4.6364	0.	-1647.3
11947	16.483	4.7273	0.	-1669.8
11948	16.575	4.7273	5.e-002	-4.5417
11949	16.575	4.4545	0.	-1647.3
11950	16.483	4.5455	0.	-1669.7
11951	16.575	4.5455	5.e-002	-4.5409
11952	16.575	4.2727	0.	-1647.3
11953	16.483	4.3636	0.	-1669.7
11954	16.575	4.3636	5.e-002	-4.5398
11955	16.575	4.0909	0.	-1647.3
11956	16.483	4.1818	0.	-1669.6
11957	16.575	4.1818	5.e-002	-4.5387
11958	16.575	3.9091	0.	-1647.3
11959	16.483	4.	0.	-1669.6
11960	16.575	4.	5.e-002	-4.5375
11961	16.575	3.7273	0.	-1647.3
11962	16.483	3.8182	0.	-1669.6
11963	16.575	3.8182	5.e-002	-4.5364
11964	16.575	3.5455	0.	-1647.4
11965	16.483	3.6364	0.	-1669.6
11966	16.575	3.6364	5.e-002	-4.5354
11967	16.575	3.3636	0.	-1647.4
11968	16.483	3.4545	0.	-1669.6
11969	16.575	3.4545	5.e-002	-4.5346
11970	16.575	3.1818	0.	-1647.4
11971	16.483	3.2727	0.	-1669.6
11972	16.575	3.2727	5.e-002	-4.5341
11973	16.575	3.	0.	-1647.4
11974	16.483	3.0909	0.	-1669.6
11975	16.575	3.0909	5.e-002	-4.5338
11976	16.575	2.8182	0.	-1647.4
11977	16.483	2.9091	0.	-1669.6
11978	16.575	2.9091	5.e-002	-4.5338
11979	16.575	2.6364	0.	-1647.4
11980	16.483	2.7273	0.	-1669.6
11981	16.575	2.7273	5.e-002	-4.5341
11982	16.575	2.4545	0.	-1647.4
11983	16.483	2.5455	0.	-1669.6
11984	16.575	2.5455	5.e-002	-4.5346
11985	16.575	2.2727	0.	-1647.3
11986	16.483	2.3636	0.	-1669.6
11987	16.575	2.3636	5.e-002	-4.5354
11988	16.575	2.0909	0.	-1647.3
11989	16.483	2.1818	0.	-1669.6
11990	16.575	2.1818	5.e-002	-4.5364
11991	16.575	1.9091	0.	-1647.3
11992	16.483	2.	0.	-1669.6
11993	16.575	2.	5.e-002	-4.5375
11994	16.575	1.7273	0.	-1647.3
11995	16.483	1.8182	0.	-1669.6
11996	16.575	1.8182	5.e-002	-4.5387
11997	16.575	1.5455	0.	-1647.3
11998	16.483	1.6364	0.	-1669.7
11999	16.575	1.6364	5.e-002	-4.5399
12000	16.575	1.3636	0.	-1647.3
12001	16.483	1.4545	0.	-1669.7
12002	16.575	1.4545	5.e-002	-4.5409
12003	16.575	1.1818	0.	-1647.4
12004	16.483	1.2727	0.	-1669.8
12005	16.575	1.2727	5.e-002	-4.5417
12006	16.575	1.	0.	-1647.6
12007	16.483	1.0909	0.	-1670.
12008	16.575	1.0909	5.e-002	-4.5423
12009	16.575	0.81818	0.	-1647.8
12010	16.483	0.90909	0.	-1670.2
12011	16.575	0.90909	5.e-002	-4.5423
12012	16.575	0.63636	0.	-1648.1
12013	16.483	0.72727	0.	-1670.5
12014	16.575	0.72727	5.e-002	-4.5408
12015	16.575	0.45455	0.	-1648.7
12016	16.483	0.54545	0.	-1670.9
12017	16.575	0.54545	5.e-002	-4.5226
12018	16.575	0.27273	0.	-1650.2
12019	16.483	0.36364	0.	-1671.6
12020	16.575	0.36364	5.e-002	-4.2581
12021	16.483	0.18182	0.	-1674.2
12022	16.575	0.18182	5.e-002	-0.37589
12023	16.575	9.0909e-002	0.	-1645.9
12024	16.391	5.7273	0.	-1695.4
12025	16.299	5.8182	0.	-1719.5
12026	16.391	5.8182	5.e-002	-0.34042
12027	16.391	5.9091	0.	-1691.2
12028	16.391	5.5455	0.	-1693.8
12029	16.299	5.6364	0.	-1716.9
12030	16.391	5.6364	5.e-002	-4.2672
12031	16.391	5.3636	0.	-1693.3
12032	16.299	5.4545	0.	-1716.2
12033	16.391	5.4545	5.e-002	-4.535
12034	16.391	5.1818	0.	-1692.9
12035	16.299	5.2727	0.	-1715.7
12036	16.391	5.2727	5.e-002	-4.5536
12037	16.391	5.	0.	-1692.6
12038	16.299	5.0909	0.	-1715.3
12039	16.391	5.0909	5.e-002	-4.5554
12040	16.391	4.8182	0.	-1692.3
12041	16.299	4.9091	0.	-1715.
12042	16.391	4.9091	5.e-002	-4.5558
12043	16.391	4.6364	0.	-1692.2
12044	16.299	4.7273	0.	-1714.8
12045	16.391	4.7273	5.e-002	-4.5556
12046	16.391	4.4545	0.	-1692.
12047	16.299	4.5455	0.	-1714.6
12048	16.391	4.5455	5.e-002	-4.5553
12049	16.391	4.2727	0.	-1692.
12050	16.299	4.3636	0.	-1714.5
12051	16.391	4.3636	5.e-002	-4.5547
12052	16.391	4.0909	0.	-1691.9
12053	16.299	4.1818	0.	-1714.4
12054	16.391	4.1818	5.e-002	-4.554
12055	16.391	3.9091	0.	-1691.9
12056	16.299	4.	0.	-1714.3
12057	16.391	4.	5.e-002	-4.5532
12058	16.391	3.7273	0.	-1691.9
12059	16.299	3.8182	0.	-1714.3
12060	16.391	3.8182	5.e-002	-4.5525
12061	16.391	3.5455	0.	-1691.9
12062	16.299	3.6364	0.	-1714.3
12063	16.391	3.6364	5.e-002	-4.5518
12064	16.391	3.3636	0.	-1691.9
12065	16.299	3.4545	0.	-1714.2
12066	16.391	3.4545	5.e-002	-4.5513
12067	16.391	3.1818	0.	-1691.9
12068	16.299	3.2727	0.	-1714.2
12069	16.391	3.2727	5.e-002	-4.5509
12070	16.391	3.	0.	-1691.9
12071	16.299	3.0909	0.	-1714.2
12072	16.391	3.0909	5.e-002	-4.5508
12073	16.391	2.8182	0.	-1691.9
12074	16.299	2.9091	0.	-1714.2
12075	16.391	2.9091	5.e-002	-4.5508
12076	16.391	2.6364	0.	-1691.9
12077	16.299	2.7273	0.	-1714.2
12078	16.391	2.7273	5.e-002	-4.5509
12079	16.391	2.4545	0.	-1691.9
12080	16.299	2.5455	0.	-1714.2
12081	16.391	2.5455	5.e-002	-4.5513
12082	16.391	2.2727	0.	-1691.9
12083	16.299	2.3636	0.	-1714.3
12084	16.391	2.3636	5.e-002	-4.5519
12085	16.391	2.0909	0.	-1691.9
12086	16.299	2.1818	0.	-1714.3
12087	16.391	2.1818	5.e-002	-4.5525
12088	16.391	1.9091	0.	-1691.9
12089	16.299	2.	0.	-1714.3
12090	16.391	2.	5.e-002	-4.5532
12091	16.391	1.7273	0.	-1692.
12092	16.299	1.8182	0.	-1714.4
12093	16.391	1.8182	5.e-002	-4.554
12094	16.391	1.5455	0.	-1692.
12095	16.299	1.6364	0.	-1714.5
12096	16.391	1.6364	5.e-002	-4.5547
12097	16.391	1.3636	0.	-1692.2
12098	16.299	1.4545	0.	-1714.6
12099	16.391	1.4545	5.e-002	-4.5553
12100	16.391	1.1818	0.	-1692.3
12101	16.299	1.2727	0.	-1714.8
12102	16.391	1.2727	5.e-002	-4.5557
12103	16.391	1.	0.	-1692.6
12104	16.299	1.0909	0.	-1715.
12105	16.391	1.0909	5.e-002	-4.5558
12106	16.391	0.81818	0.	-1692.9
12107	16.299	0.90909	0.	-1715.3
12108	16.391	0.90909	5.e-002	-4.5555
12109	16.391	0.63636	0.	-1693.3
12110	16.299	0.72727	0.	-1715.7
12111	16.391	0.72727	5.e-002	-4.5536
12112	16.391	0.45455	0.	-1693.8
12113	16.299	0.54545	0.	-1716.2
12114	16.391	0.54545	5.e-002	-4.5351
12115	16.391	0.27273	0.	-1695.4
12116	16.299	0.36364	0.	-1716.9
12117	16.391	0.36364	5.e-002	-4.2673
12118	16.299	0.18182	0.	-1719.5
12119	16.391	0.18182	5.e-002	-0.34043
12120	16.391	9.0909e-002	0.	-1691.2
12121	16.207	5.7273	0.	-1740.8
12122	16.115	5.8182	0.	-1765.
12123	16.207	5.8182	5.e-002	-0.30948
12124	16.207	5.9091	0.	-1736.7
12125	16.207	5.5455	0.	-1739.2
12126	16.115	5.6364	0.	-1762.4
12127	16.207	5.6364	5.e-002	-4.2777
12128	16.207	5.3636	0.	-1738.5
12129	16.115	5.4545	0.	-1761.6
12130	16.207	5.4545	5.e-002	-4.5485
12131	16.207	5.1818	0.	-1738.1
12132	16.115	5.2727	0.	-1761.
12133	16.207	5.2727	5.e-002	-4.5673
12134	16.207	5.	0.	-1737.7
12135	16.115	5.0909	0.	-1760.6
12136	16.207	5.0909	5.e-002	-4.5694
12137	16.207	4.8182	0.	-1737.4
12138	16.115	4.9091	0.	-1760.2
12139	16.207	4.9091	5.e-002	-4.57
12140	16.207	4.6364	0.	-1737.2
12141	16.115	4.7273	0.	-1759.9
12142	16.207	4.7273	5.e-002	-4.5702
12143	16.207	4.4545	0.	-1737.
12144	16.115	4.5455	0.	-1759.7
12145	16.207	4.5455	5.e-002	-4.5701
12146	16.207	4.2727	0.	-1736.9
12147	16.115	4.3636	0.	-1759.5
12148	16.207	4.3636	5.e-002	-4.5699
12149	16.207	4.0909	0.	-1736.8
12150	16.115	4.1818	0.	-1759.4
12151	16.207	4.1818	5.e-002	-4.5696
12152	16.207	3.9091	0.	-1736.7
12153	16.115	4.	0.	-1759.2
12154	16.207	4.	5.e-002	-4.5692
12155	16.207	3.7273	0.	-1736.6
12156	16.115	3.8182	0.	-1759.2
12157	16.207	3.8182	5.e-002	-4.5687
12158	16.207	3.5455	0.	-1736.6
12159	16.115	3.6364	0.	-1759.1
12160	16.207	3.6364	5.e-002	-4.5683
12161	16.207	3.3636	0.	-1736.6
12162	16.115	3.4545	0.	-1759.1
12163	16.207	3.4545	5.e-002	-4.568
12164	16.207	3.1818	0.	-1736.6
12165	16.115	3.2727	0.	-1759.
12166	16.207	3.2727	5.e-002	-4.5678
12167	16.207	3.	0.	-1736.6
12168	16.115	3.0909	0.	-1759.
12169	16.207	3.0909	5.e-002	-4.5676
12170	16.207	2.8182	0.	-1736.6
12171	16.115	2.9091	0.	-1759.
12172	16.207	2.9091	5.e-002	-4.5676
12173	16.207	2.6364	0.	-1736.6
12174	16.115	2.7273	0.	-1759.
12175	16.207	2.7273	5.e-002	-4.5678
12176	16.207	2.4545	0.	-1736.6
12177	16.115	2.5455	0.	-1759.1
12178	16.207	2.5455	5.e-002	-4.568
12179	16.207	2.2727	0.	-1736.6
12180	16.115	2.3636	0.	-1759.1
12181	16.207	2.3636	5.e-002	-4.5683
12182	16.207	2.0909	0.	-1736.7
12183	16.115	2.1818	0.	-1759.2
12184	16.207	2.1818	5.e-002	-4.5688
12185	16.207	1.9091	0.	-1736.8
12186	16.115	2.	0.	-1759.2
12187	16.207	2.	5.e-002	-4.5692
12188	16.207	1.7273	0.	-1736.9
12189	16.115	1.8182	0.	-1759.4
12190	16.207	1.8182	5.e-002	-4.5696
12191	16.207	1.5455	0.	-1737.
12192	16.115	1.6364	0.	-1759.5
12193	16.207	1.6364	5.e-002	-4.57
12194	16.207	1.3636	0.	-1737.2
12195	16.115	1.4545	0.	-1759.7
12196	16.207	1.4545	5.e-002	-4.5702
12197	16.207	1.1818	0.	-1737.4
12198	16.115	1.2727	0.	-1759.9
12199	16.207	1.2727	5.e-002	-4.5702
12200	16.207	1.	0.	-1737.7
12201	16.115	1.0909	0.	-1760.2
12202	16.207	1.0909	5.e-002	-4.57
12203	16.207	0.81818	0.	-1738.1
12204	16.115	0.90909	0.	-1760.6
12205	16.207	0.90909	5.e-002	-4.5694
12206	16.207	0.63636	0.	-1738.5
12207	16.115	0.72727	0.	-1761.
12208	16.207	0.72727	5.e-002	-4.5674
12209	16.207	0.45455	0.	-1739.2
12210	16.115	0.54545	0.	-1761.6
12211	16.207	0.54545	5.e-002	-4.5485
12212	16.207	0.27273	0.	-1740.8
12213	16.115	0.36364	0.	-1762.4
12214	16.207	0.36364	5.e-002	-4.2777
12215	16.115	0.18182	0.	-1765.
12216	16.207	0.18182	5.e-002	-0.30949
12217	16.207	9.0909e-002	0.	-1736.7
12218	16.022	5.7273	0.	-1786.4
12219	15.93	5.8182	0.	-1810.7
12220	16.022	5.8182	5.e-002	-0.28261
12221	16.022	5.9091	0.	-1782.3
12222	16.022	5.5455	0.	-1784.7
12223	15.93	5.6364	0.	-1808.
12224	16.022	5.6364	5.e-002	-4.2892
12225	16.022	5.3636	0.	-1784.
12226	15.93	5.4545	0.	-1807.1
12227	16.022	5.4545	5.e-002	-4.5628
12228	16.022	5.1818	0.	-1783.5
12229	15.93	5.2727	0.	-1806.5
12230	16.022	5.2727	5.e-002	-4.582
12231	16.022	5.	0.	-1783.
12232	15.93	5.0909	0.	-1806.
12233	16.022	5.0909	5.e-002	-4.5842
12234	16.022	4.8182	0.	-1782.7
12235	15.93	4.9091	0.	-1805.6
12236	16.022	4.9091	5.e-002	-4.585
12237	16.022	4.6364	0.	-1782.4
12238	15.93	4.7273	0.	-1805.2
12239	16.022	4.7273	5.e-002	-4.5854
12240	16.022	4.4545	0.	-1782.1
12241	15.93	4.5455	0.	-1804.9
12242	16.022	4.5455	5.e-002	-4.5857
12243	16.022	4.2727	0.	-1782.
12244	15.93	4.3636	0.	-1804.7
12245	16.022	4.3636	5.e-002	-4.5857
12246	16.022	4.0909	0.	-1781.8
12247	15.93	4.1818	0.	-1804.5
12248	16.022	4.1818	5.e-002	-4.5856
12249	16.022	3.9091	0.	-1781.7
12250	15.93	4.	0.	-1804.4
12251	16.022	4.	5.e-002	-4.5855
12252	16.022	3.7273	0.	-1781.6
12253	15.93	3.8182	0.	-1804.3
12254	16.022	3.8182	5.e-002	-4.5853
12255	16.022	3.5455	0.	-1781.6
12256	15.93	3.6364	0.	-1804.2
12257	16.022	3.6364	5.e-002	-4.585
12258	16.022	3.3636	0.	-1781.5
12259	15.93	3.4545	0.	-1804.1
12260	16.022	3.4545	5.e-002	-4.5849
12261	16.022	3.1818	0.	-1781.5
12262	15.93	3.2727	0.	-1804.1
12263	16.022	3.2727	5.e-002	-4.5847
12264	16.022	3.	0.	-1781.5
12265	15.93	3.0909	0.	-1804.1
12266	16.022	3.0909	5.e-002	-4.5847
12267	16.022	2.8182	0.	-1781.5
12268	15.93	2.9091	0.	-1804.1
12269	16.022	2.9091	5.e-002	-4.5847
12270	16.022	2.6364	0.	-1781.5
12271	15.93	2.7273	0.	-1804.1
12272	16.022	2.7273	5.e-002	-4.5847
12273	16.022	2.4545	0.	-1781.6
12274	15.93	2.5455	0.	-1804.1
12275	16.022	2.5455	5.e-002	-4.5849
12276	16.022	2.2727	0.	-1781.6
12277	15.93	2.3636	0.	-1804.2
12278	16.022	2.3636	5.e-002	-4.5851
12279	16.022	2.0909	0.	-1781.7
12280	15.93	2.1818	0.	-1804.3
12281	16.022	2.1818	5.e-002	-4.5853
12282	16.022	1.9091	0.	-1781.8
12283	15.93	2.	0.	-1804.4
12284	16.022	2.	5.e-002	-4.5855
12285	16.022	1.7273	0.	-1782.
12286	15.93	1.8182	0.	-1804.5
12287	16.022	1.8182	5.e-002	-4.5856
12288	16.022	1.5455	0.	-1782.1
12289	15.93	1.6364	0.	-1804.7
12290	16.022	1.6364	5.e-002	-4.5857
12291	16.022	1.3636	0.	-1782.4
12292	15.93	1.4545	0.	-1804.9
12293	16.022	1.4545	5.e-002	-4.5857
12294	16.022	1.1818	0.	-1782.7
12295	15.93	1.2727	0.	-1805.2
12296	16.022	1.2727	5.e-002	-4.5855
12297	16.022	1.	0.	-1783.
12298	15.93	1.0909	0.	-1805.6
12299	16.022	1.0909	5.e-002	-4.585
12300	16.022	0.81818	0.	-1783.5
12301	15.93	0.90909	0.	-1806.
12302	16.022	0.90909	5.e-002	-4.5842
12303	16.022	0.63636	0.	-1784.
12304	15.93	0.72727	0.	-1806.5
12305	16.022	0.72727	5.e-002	-4.582
12306	16.022	0.45455	0.	-1784.7
12307	15.93	0.54545	0.	-1807.1
12308	16.022	0.54545	5.e-002	-4.5629
12309	16.022	0.27273	0.	-1786.4
12310	15.93	0.36364	0.	-1808.
12311	16.022	0.36364	5.e-002	-4.2893
12312	15.93	0.18182	0.	-1810.7
12313	16.022	0.18182	5.e-002	-0.28262
12314	16.022	9.0909e-002	0.	-1782.3
12315	15.838	5.7273	0.	-1832.1
12316	15.746	5.8182	0.	-1856.5
12317	15.838	5.8182	5.e-002	-0.25935
12318	15.838	5.9091	0.	-1828.1
12319	15.838	5.5455	0.	-1830.3
12320	15.746	5.6364	0.	-1853.7
12321	15.838	5.6364	5.e-002	-4.3017
12322	15.838	5.3636	0.	-1829.6
12323	15.746	5.4545	0.	-1852.8
12324	15.838	5.4545	5.e-002	-4.5779
12325	15.838	5.1818	0.	-1829.
12326	15.746	5.2727	0.	-1852.2
12327	15.838	5.2727	5.e-002	-4.5973
12328	15.838	5.	0.	-1828.5
12329	15.746	5.0909	0.	-1851.6
12330	15.838	5.0909	5.e-002	-4.5996
12331	15.838	4.8182	0.	-1828.1
12332	15.746	4.9091	0.	-1851.1
12333	15.838	4.9091	5.e-002	-4.6006
12334	15.838	4.6364	0.	-1827.8
12335	15.746	4.7273	0.	-1850.7
12336	15.838	4.7273	5.e-002	-4.6012
12337	15.838	4.4545	0.	-1827.5
12338	15.746	4.5455	0.	-1850.4
12339	15.838	4.5455	5.e-002	-4.6016
12340	15.838	4.2727	0.	-1827.3
12341	15.746	4.3636	0.	-1850.1
12342	15.838	4.3636	5.e-002	-4.6019
12343	15.838	4.0909	0.	-1827.1
12344	15.746	4.1818	0.	-1849.9
12345	15.838	4.1818	5.e-002	-4.602
12346	15.838	3.9091	0.	-1826.9
12347	15.746	4.	0.	-1849.7
12348	15.838	4.	5.e-002	-4.6021
12349	15.838	3.7273	0.	-1826.8
12350	15.746	3.8182	0.	-1849.6
12351	15.838	3.8182	5.e-002	-4.602
12352	15.838	3.5455	0.	-1826.7
12353	15.746	3.6364	0.	-1849.5
12354	15.838	3.6364	5.e-002	-4.602
12355	15.838	3.3636	0.	-1826.7
12356	15.746	3.4545	0.	-1849.4
12357	15.838	3.4545	5.e-002	-4.6019
12358	15.838	3.1818	0.	-1826.6
12359	15.746	3.2727	0.	-1849.3
12360	15.838	3.2727	5.e-002	-4.6019
12361	15.838	3.	0.	-1826.6
12362	15.746	3.0909	0.	-1849.3
12363	15.838	3.0909	5.e-002	-4.6019
12364	15.838	2.8182	0.	-1826.6
12365	15.746	2.9091	0.	-1849.3
12366	15.838	2.9091	5.e-002	-4.6019
12367	15.838	2.6364	0.	-1826.7
12368	15.746	2.7273	0.	-1849.3
12369	15.838	2.7273	5.e-002	-4.6019
12370	15.838	2.4545	0.	-1826.7
12371	15.746	2.5455	0.	-1849.4
12372	15.838	2.5455	5.e-002	-4.6019
12373	15.838	2.2727	0.	-1826.8
12374	15.746	2.3636	0.	-1849.5
12375	15.838	2.3636	5.e-002	-4.602
12376	15.838	2.0909	0.	-1826.9
12377	15.746	2.1818	0.	-1849.6
12378	15.838	2.1818	5.e-002	-4.602
12379	15.838	1.9091	0.	-1827.1
12380	15.746	2.	0.	-1849.7
12381	15.838	2.	5.e-002	-4.6021
12382	15.838	1.7273	0.	-1827.3
12383	15.746	1.8182	0.	-1849.9
12384	15.838	1.8182	5.e-002	-4.602
12385	15.838	1.5455	0.	-1827.5
12386	15.746	1.6364	0.	-1850.1
12387	15.838	1.6364	5.e-002	-4.6019
12388	15.838	1.3636	0.	-1827.8
12389	15.746	1.4545	0.	-1850.4
12390	15.838	1.4545	5.e-002	-4.6017
12391	15.838	1.1818	0.	-1828.1
12392	15.746	1.2727	0.	-1850.7
12393	15.838	1.2727	5.e-002	-4.6013
12394	15.838	1.	0.	-1828.5
12395	15.746	1.0909	0.	-1851.1
12396	15.838	1.0909	5.e-002	-4.6006
12397	15.838	0.81818	0.	-1829.
12398	15.746	0.90909	0.	-1851.6
12399	15.838	0.90909	5.e-002	-4.5997
12400	15.838	0.63636	0.	-1829.6
12401	15.746	0.72727	0.	-1852.2
12402	15.838	0.72727	5.e-002	-4.5974
12403	15.838	0.45455	0.	-1830.4
12404	15.746	0.54545	0.	-1852.8
12405	15.838	0.54545	5.e-002	-4.578
12406	15.838	0.27273	0.	-1832.1
12407	15.746	0.36364	0.	-1853.7
12408	15.838	0.36364	5.e-002	-4.3018
12409	15.746	0.18182	0.	-1856.5
12410	15.838	0.18182	5.e-002	-0.25935
12411	15.838	9.0909e-002	0.	-1828.1
12412	15.654	5.7273	0.	-1878.
12413	15.562	5.8182	0.	-1902.4
12414	15.654	5.8182	5.e-002	-0.23925
12415	15.654	5.9091	0.	-1874.
12416	15.654	5.5455	0.	-1876.2
12417	15.562	5.6364	0.	-1899.7
12418	15.654	5.6364	5.e-002	-4.315
12419	15.654	5.3636	0.	-1875.4
12420	15.562	5.4545	0.	-1898.7
12421	15.654	5.4545	5.e-002	-4.5936
12422	15.654	5.1818	0.	-1874.7
12423	15.562	5.2727	0.	-1898.
12424	15.654	5.2727	5.e-002	-4.6132
12425	15.654	5.	0.	-1874.2
12426	15.562	5.0909	0.	-1897.4
12427	15.654	5.0909	5.e-002	-4.6156
12428	15.654	4.8182	0.	-1873.7
12429	15.562	4.9091	0.	-1896.9
12430	15.654	4.9091	5.e-002	-4.6167
12431	15.654	4.6364	0.	-1873.3
12432	15.562	4.7273	0.	-1896.4
12433	15.654	4.7273	5.e-002	-4.6175
12434	15.654	4.4545	0.	-1873.
12435	15.562	4.5455	0.	-1896.1
12436	15.654	4.5455	5.e-002	-4.618
12437	15.654	4.2727	0.	-1872.8
12438	15.562	4.3636	0.	-1895.8
12439	15.654	4.3636	5.e-002	-4.6184
12440	15.654	4.0909	0.	-1872.5
12441	15.562	4.1818	0.	-1895.5
12442	15.654	4.1818	5.e-002	-4.6187
12443	15.654	3.9091	0.	-1872.4
12444	15.562	4.	0.	-1895.3
12445	15.654	4.	5.e-002	-4.6189
12446	15.654	3.7273	0.	-1872.2
12447	15.562	3.8182	0.	-1895.1
12448	15.654	3.8182	5.e-002	-4.619
12449	15.654	3.5455	0.	-1872.1
12450	15.562	3.6364	0.	-1895.
12451	15.654	3.6364	5.e-002	-4.6191
12452	15.654	3.3636	0.	-1872.
12453	15.562	3.4545	0.	-1894.9
12454	15.654	3.4545	5.e-002	-4.6191
12455	15.654	3.1818	0.	-1872.
12456	15.562	3.2727	0.	-1894.8
12457	15.654	3.2727	5.e-002	-4.6191
12458	15.654	3.	0.	-1872.
12459	15.562	3.0909	0.	-1894.8
12460	15.654	3.0909	5.e-002	-4.6191
12461	15.654	2.8182	0.	-1872.
12462	15.562	2.9091	0.	-1894.8
12463	15.654	2.9091	5.e-002	-4.6191
12464	15.654	2.6364	0.	-1872.
12465	15.562	2.7273	0.	-1894.8
12466	15.654	2.7273	5.e-002	-4.6191
12467	15.654	2.4545	0.	-1872.1
12468	15.562	2.5455	0.	-1894.9
12469	15.654	2.5455	5.e-002	-4.6191
12470	15.654	2.2727	0.	-1872.2
12471	15.562	2.3636	0.	-1895.
12472	15.654	2.3636	5.e-002	-4.6191
12473	15.654	2.0909	0.	-1872.4
12474	15.562	2.1818	0.	-1895.1
12475	15.654	2.1818	5.e-002	-4.619
12476	15.654	1.9091	0.	-1872.5
12477	15.562	2.	0.	-1895.3
12478	15.654	2.	5.e-002	-4.6189
12479	15.654	1.7273	0.	-1872.8
12480	15.562	1.8182	0.	-1895.5
12481	15.654	1.8182	5.e-002	-4.6188
12482	15.654	1.5455	0.	-1873.
12483	15.562	1.6364	0.	-1895.8
12484	15.654	1.6364	5.e-002	-4.6185
12485	15.654	1.3636	0.	-1873.3
12486	15.562	1.4545	0.	-1896.1
12487	15.654	1.4545	5.e-002	-4.6181
12488	15.654	1.1818	0.	-1873.7
12489	15.562	1.2727	0.	-1896.4
12490	15.654	1.2727	5.e-002	-4.6175
12491	15.654	1.	0.	-1874.2
12492	15.562	1.0909	0.	-1896.9
12493	15.654	1.0909	5.e-002	-4.6167
12494	15.654	0.81818	0.	-1874.7
12495	15.562	0.90909	0.	-1897.4
12496	15.654	0.90909	5.e-002	-4.6157
12497	15.654	0.63636	0.	-1875.4
12498	15.562	0.72727	0.	-1898.
12499	15.654	0.72727	5.e-002	-4.6133
12500	15.654	0.45455	0.	-1876.2
12501	15.562	0.54545	0.	-1898.7
12502	15.654	0.54545	5.e-002	-4.5937
12503	15.654	0.27273	0.	-1878.
12504	15.562	0.36364	0.	-1899.7
12505	15.654	0.36364	5.e-002	-4.3151
12506	15.562	0.18182	0.	-1902.4
12507	15.654	0.18182	5.e-002	-0.23925
12508	15.654	9.0909e-002	0.	-1874.
12509	15.47	5.7273	0.	-1924.
12510	15.378	5.8182	0.	-1948.6
12511	15.47	5.8182	5.e-002	-0.22191
12512	15.47	5.9091	0.	-1920.1
12513	15.47	5.5455	0.	-1922.2
12514	15.378	5.6364	0.	-1945.8
12515	15.47	5.6364	5.e-002	-4.329
12516	15.47	5.3636	0.	-1921.3
12517	15.378	5.4545	0.	-1944.8
12518	15.47	5.4545	5.e-002	-4.6099
12519	15.47	5.1818	0.	-1920.7
12520	15.378	5.2727	0.	-1944.
12521	15.47	5.2727	5.e-002	-4.6297
12522	15.47	5.	0.	-1920.1
12523	15.378	5.0909	0.	-1943.4
12524	15.47	5.0909	5.e-002	-4.6322
12525	15.47	4.8182	0.	-1919.6
12526	15.378	4.9091	0.	-1942.8
12527	15.47	4.9091	5.e-002	-4.6333
12528	15.47	4.6364	0.	-1919.1
12529	15.378	4.7273	0.	-1942.3
12530	15.47	4.7273	5.e-002	-4.6342
12531	15.47	4.4545	0.	-1918.8
12532	15.378	4.5455	0.	-1941.9
12533	15.47	4.5455	5.e-002	-4.6349
12534	15.47	4.2727	0.	-1918.5
12535	15.378	4.3636	0.	-1941.6
12536	15.47	4.3636	5.e-002	-4.6354
12537	15.47	4.0909	0.	-1918.2
12538	15.378	4.1818	0.	-1941.3
12539	15.47	4.1818	5.e-002	-4.6358
12540	15.47	3.9091	0.	-1918.
12541	15.378	4.	0.	-1941.
12542	15.47	4.	5.e-002	-4.6361
12543	15.47	3.7273	0.	-1917.8
12544	15.378	3.8182	0.	-1940.8
12545	15.47	3.8182	5.e-002	-4.6364
12546	15.47	3.5455	0.	-1917.7
12547	15.378	3.6364	0.	-1940.7
12548	15.47	3.6364	5.e-002	-4.6365
12549	15.47	3.3636	0.	-1917.6
12550	15.378	3.4545	0.	-1940.6
12551	15.47	3.4545	5.e-002	-4.6366
12552	15.47	3.1818	0.	-1917.6
12553	15.378	3.2727	0.	-1940.5
12554	15.47	3.2727	5.e-002	-4.6367
12555	15.47	3.	0.	-1917.6
12556	15.378	3.0909	0.	-1940.5
12557	15.47	3.0909	5.e-002	-4.6367
12558	15.47	2.8182	0.	-1917.6
12559	15.378	2.9091	0.	-1940.5
12560	15.47	2.9091	5.e-002	-4.6367
12561	15.47	2.6364	0.	-1917.6
12562	15.378	2.7273	0.	-1940.5
12563	15.47	2.7273	5.e-002	-4.6367
12564	15.47	2.4545	0.	-1917.7
12565	15.378	2.5455	0.	-1940.6
12566	15.47	2.5455	5.e-002	-4.6366
12567	15.47	2.2727	0.	-1917.8
12568	15.378	2.3636	0.	-1940.7
12569	15.47	2.3636	5.e-002	-4.6365
12570	15.47	2.0909	0.	-1918.
12571	15.378	2.1818	0.	-1940.8
12572	15.47	2.1818	5.e-002	-4.6364
12573	15.47	1.9091	0.	-1918.2
12574	15.378	2.	0.	-1941.
12575	15.47	2.	5.e-002	-4.6362
12576	15.47	1.7273	0.	-1918.5
12577	15.378	1.8182	0.	-1941.3
12578	15.47	1.8182	5.e-002	-4.6359
12579	15.47	1.5455	0.	-1918.8
12580	15.378	1.6364	0.	-1941.6
12581	15.47	1.6364	5.e-002	-4.6355
12582	15.47	1.3636	0.	-1919.1
12583	15.378	1.4545	0.	-1941.9
12584	15.47	1.4545	5.e-002	-4.6349
12585	15.47	1.1818	0.	-1919.6
12586	15.378	1.2727	0.	-1942.3
12587	15.47	1.2727	5.e-002	-4.6342
12588	15.47	1.	0.	-1920.1
12589	15.378	1.0909	0.	-1942.8
12590	15.47	1.0909	5.e-002	-4.6334
12591	15.47	0.81818	0.	-1920.7
12592	15.378	0.90909	0.	-1943.4
12593	15.47	0.90909	5.e-002	-4.6322
12594	15.47	0.63636	0.	-1921.3
12595	15.378	0.72727	0.	-1944.
12596	15.47	0.72727	5.e-002	-4.6298
12597	15.47	0.45455	0.	-1922.2
12598	15.378	0.54545	0.	-1944.8
12599	15.47	0.54545	5.e-002	-4.61
12600	15.47	0.27273	0.	-1924.
12601	15.378	0.36364	0.	-1945.8
12602	15.47	0.36364	5.e-002	-4.3291
12603	15.378	0.18182	0.	-1948.6
12604	15.47	0.18182	5.e-002	-0.22191
12605	15.47	9.0909e-002	0.	-1920.1
12606	15.286	5.7273	0.	-1970.2
12607	15.194	5.8182	0.	-1994.9
12608	15.286	5.8182	5.e-002	-0.20692
12609	15.286	5.9091	0.	-1966.3
12610	15.286	5.5455	0.	-1968.3
12611	15.194	5.6364	0.	-1992.
12612	15.286	5.6364	5.e-002	-4.3437
12613	15.286	5.3636	0.	-1967.5
12614	15.194	5.4545	0.	-1991.
12615	15.286	5.4545	5.e-002	-4.6268
12616	15.286	5.1818	0.	-1966.7
12617	15.194	5.2727	0.	-1990.3
12618	15.286	5.2727	5.e-002	-4.6467
12619	15.286	5.	0.	-1966.1
12620	15.194	5.0909	0.	-1989.6
12621	15.286	5.0909	5.e-002	-4.6492
12622	15.286	4.8182	0.	-1965.6
12623	15.194	4.9091	0.	-1989.
12624	15.286	4.9091	5.e-002	-4.6504
12625	15.286	4.6364	0.	-1965.1
12626	15.194	4.7273	0.	-1988.4
12627	15.286	4.7273	5.e-002	-4.6514
12628	15.286	4.4545	0.	-1964.7
12629	15.194	4.5455	0.	-1988.
12630	15.286	4.5455	5.e-002	-4.6522
12631	15.286	4.2727	0.	-1964.4
12632	15.194	4.3636	0.	-1987.6
12633	15.286	4.3636	5.e-002	-4.6528
12634	15.286	4.0909	0.	-1964.1
12635	15.194	4.1818	0.	-1987.3
12636	15.286	4.1818	5.e-002	-4.6533
12637	15.286	3.9091	0.	-1963.9
12638	15.194	4.	0.	-1987.
12639	15.286	4.	5.e-002	-4.6537
12640	15.286	3.7273	0.	-1963.7
12641	15.194	3.8182	0.	-1986.8
12642	15.286	3.8182	5.e-002	-4.654
12643	15.286	3.5455	0.	-1963.5
12644	15.194	3.6364	0.	-1986.6
12645	15.286	3.6364	5.e-002	-4.6542
12646	15.286	3.3636	0.	-1963.4
12647	15.194	3.4545	0.	-1986.5
12648	15.286	3.4545	5.e-002	-4.6544
12649	15.286	3.1818	0.	-1963.4
12650	15.194	3.2727	0.	-1986.4
12651	15.286	3.2727	5.e-002	-4.6545
12652	15.286	3.	0.	-1963.4
12653	15.194	3.0909	0.	-1986.4
12654	15.286	3.0909	5.e-002	-4.6546
12655	15.286	2.8182	0.	-1963.4
12656	15.194	2.9091	0.	-1986.4
12657	15.286	2.9091	5.e-002	-4.6546
12658	15.286	2.6364	0.	-1963.4
12659	15.194	2.7273	0.	-1986.4
12660	15.286	2.7273	5.e-002	-4.6545
12661	15.286	2.4545	0.	-1963.5
12662	15.194	2.5455	0.	-1986.5
12663	15.286	2.5455	5.e-002	-4.6544
12664	15.286	2.2727	0.	-1963.7
12665	15.194	2.3636	0.	-1986.6
12666	15.286	2.3636	5.e-002	-4.6542
12667	15.286	2.0909	0.	-1963.9
12668	15.194	2.1818	0.	-1986.8
12669	15.286	2.1818	5.e-002	-4.654
12670	15.286	1.9091	0.	-1964.1
12671	15.194	2.	0.	-1987.
12672	15.286	2.	5.e-002	-4.6537
12673	15.286	1.7273	0.	-1964.4
12674	15.194	1.8182	0.	-1987.3
12675	15.286	1.8182	5.e-002	-4.6533
12676	15.286	1.5455	0.	-1964.7
12677	15.194	1.6364	0.	-1987.6
12678	15.286	1.6364	5.e-002	-4.6528
12679	15.286	1.3636	0.	-1965.1
12680	15.194	1.4545	0.	-1988.
12681	15.286	1.4545	5.e-002	-4.6522
12682	15.286	1.1818	0.	-1965.6
12683	15.194	1.2727	0.	-1988.4
12684	15.286	1.2727	5.e-002	-4.6514
12685	15.286	1.	0.	-1966.1
12686	15.194	1.0909	0.	-1989.
12687	15.286	1.0909	5.e-002	-4.6505
12688	15.286	0.81818	0.	-1966.7
12689	15.194	0.90909	0.	-1989.6
12690	15.286	0.90909	5.e-002	-4.6493
12691	15.286	0.63636	0.	-1967.5
12692	15.194	0.72727	0.	-1990.3
12693	15.286	0.72727	5.e-002	-4.6467
12694	15.286	0.45455	0.	-1968.4
12695	15.194	0.54545	0.	-1991.
12696	15.286	0.54545	5.e-002	-4.6269
12697	15.286	0.27273	0.	-1970.2
12698	15.194	0.36364	0.	-1992.
12699	15.286	0.36364	5.e-002	-4.3438
12700	15.194	0.18182	0.	-1994.9
12701	15.286	0.18182	5.e-002	-0.20692
12702	15.286	9.0909e-002	0.	-1966.3
12703	15.102	5.7273	0.	-2016.6
12704	15.01	5.8182	0.	-2041.3
12705	15.102	5.8182	5.e-002	-0.19384
12706	15.102	5.9091	0.	-2012.8
12707	15.102	5.5455	0.	-2014.7
12708	15.01	5.6364	0.	-2038.5
12709	15.102	5.6364	5.e-002	-4.3589
12710	15.102	5.3636	0.	-2013.8
12711	15.01	5.4545	0.	-2037.5
12712	15.102	5.4545	5.e-002	-4.644
12713	15.102	5.1818	0.	-2013.
12714	15.01	5.2727	0.	-2036.6
12715	15.102	5.2727	5.e-002	-4.664
12716	15.102	5.	0.	-2012.4
12717	15.01	5.0909	0.	-2035.9
12718	15.102	5.0909	5.e-002	-4.6666
12719	15.102	4.8182	0.	-2011.8
12720	15.01	4.9091	0.	-2035.3
12721	15.102	4.9091	5.e-002	-4.6678
12722	15.102	4.6364	0.	-2011.3
12723	15.01	4.7273	0.	-2034.7
12724	15.102	4.7273	5.e-002	-4.6689
12725	15.102	4.4545	0.	-2010.8
12726	15.01	4.5455	0.	-2034.2
12727	15.102	4.5455	5.e-002	-4.6697
12728	15.102	4.2727	0.	-2010.5
12729	15.01	4.3636	0.	-2033.8
12730	15.102	4.3636	5.e-002	-4.6704
12731	15.102	4.0909	0.	-2010.2
12732	15.01	4.1818	0.	-2033.5
12733	15.102	4.1818	5.e-002	-4.671
12734	15.102	3.9091	0.	-2009.9
12735	15.01	4.	0.	-2033.2
12736	15.102	4.	5.e-002	-4.6715
12737	15.102	3.7273	0.	-2009.7
12738	15.01	3.8182	0.	-2032.9
12739	15.102	3.8182	5.e-002	-4.6718
12740	15.102	3.5455	0.	-2009.5
12741	15.01	3.6364	0.	-2032.7
12742	15.102	3.6364	5.e-002	-4.6721
12743	15.102	3.3636	0.	-2009.4
12744	15.01	3.4545	0.	-2032.6
12745	15.102	3.4545	5.e-002	-4.6723
12746	15.102	3.1818	0.	-2009.4
12747	15.01	3.2727	0.	-2032.5
12748	15.102	3.2727	5.e-002	-4.6725
12749	15.102	3.	0.	-2009.3
12750	15.01	3.0909	0.	-2032.5
12751	15.102	3.0909	5.e-002	-4.6725
12752	15.102	2.8182	0.	-2009.4
12753	15.01	2.9091	0.	-2032.5
12754	15.102	2.9091	5.e-002	-4.6725
12755	15.102	2.6364	0.	-2009.4
12756	15.01	2.7273	0.	-2032.5
12757	15.102	2.7273	5.e-002	-4.6725
12758	15.102	2.4545	0.	-2009.5
12759	15.01	2.5455	0.	-2032.6
12760	15.102	2.5455	5.e-002	-4.6724
12761	15.102	2.2727	0.	-2009.7
12762	15.01	2.3636	0.	-2032.7
12763	15.102	2.3636	5.e-002	-4.6721
12764	15.102	2.0909	0.	-2009.9
12765	15.01	2.1818	0.	-2032.9
12766	15.102	2.1818	5.e-002	-4.6719
12767	15.102	1.9091	0.	-2010.2
12768	15.01	2.	0.	-2033.2
12769	15.102	2.	5.e-002	-4.6715
12770	15.102	1.7273	0.	-2010.5
12771	15.01	1.8182	0.	-2033.5
12772	15.102	1.8182	5.e-002	-4.671
12773	15.102	1.5455	0.	-2010.8
12774	15.01	1.6364	0.	-2033.8
12775	15.102	1.6364	5.e-002	-4.6705
12776	15.102	1.3636	0.	-2011.3
12777	15.01	1.4545	0.	-2034.2
12778	15.102	1.4545	5.e-002	-4.6698
12779	15.102	1.1818	0.	-2011.8
12780	15.01	1.2727	0.	-2034.7
12781	15.102	1.2727	5.e-002	-4.6689
12782	15.102	1.	0.	-2012.4
12783	15.01	1.0909	0.	-2035.3
12784	15.102	1.0909	5.e-002	-4.6679
12785	15.102	0.81818	0.	-2013.
12786	15.01	0.90909	0.	-2035.9
12787	15.102	0.90909	5.e-002	-4.6667
12788	15.102	0.63636	0.	-2013.8
12789	15.01	0.72727	0.	-2036.6
12790	15.102	0.72727	5.e-002	-4.6641
12791	15.102	0.45455	0.	-2014.7
12792	15.01	0.54545	0.	-2037.5
12793	15.102	0.54545	5.e-002	-4.6441
12794	15.102	0.27273	0.	-2016.6
12795	15.01	0.36364	0.	-2038.5
12796	15.102	0.36364	5.e-002	-4.359
12797	15.01	0.18182	0.	-2041.3
12798	15.102	0.18182	5.e-002	-0.19384
12799	15.102	9.0909e-002	0.	-2012.8
12800	14.917	5.7273	0.	-2063.1
12801	14.825	5.8182	0.	-2088.
12802	14.917	5.8182	5.e-002	-0.18228
12803	14.917	5.9091	0.	-2059.4
12804	14.917	5.5455	0.	-2061.2
12805	14.825	5.6364	0.	-2085.1
12806	14.917	5.6364	5.e-002	-4.3747
12807	14.917	5.3636	0.	-2060.3
12808	14.825	5.4545	0.	-2084.1
12809	14.917	5.4545	5.e-002	-4.6617
12810	14.917	5.1818	0.	-2059.5
12811	14.825	5.2727	0.	-2083.2
12812	14.917	5.2727	5.e-002	-4.6818
12813	14.917	5.	0.	-2058.8
12814	14.825	5.0909	0.	-2082.5
12815	14.917	5.0909	5.e-002	-4.6844
12816	14.917	4.8182	0.	-2058.2
12817	14.825	4.9091	0.	-2081.8
12818	14.917	4.9091	5.e-002	-4.6857
12819	14.917	4.6364	0.	-2057.6
12820	14.825	4.7273	0.	-2081.2
12821	14.917	4.7273	5.e-002	-4.6868
12822	14.917	4.4545	0.	-2057.2
12823	14.825	4.5455	0.	-2080.7
12824	14.917	4.5455	5.e-002	-4.6877
12825	14.917	4.2727	0.	-2056.8
12826	14.825	4.3636	0.	-2080.2
12827	14.917	4.3636	5.e-002	-4.6885
12828	14.917	4.0909	0.	-2056.4
12829	14.825	4.1818	0.	-2079.9
12830	14.917	4.1818	5.e-002	-4.6891
12831	14.917	3.9091	0.	-2056.2
12832	14.825	4.	0.	-2079.5
12833	14.917	4.	5.e-002	-4.6896
12834	14.917	3.7273	0.	-2055.9
12835	14.825	3.8182	0.	-2079.3
12836	14.917	3.8182	5.e-002	-4.6901
12837	14.917	3.5455	0.	-2055.8
12838	14.825	3.6364	0.	-2079.1
12839	14.917	3.6364	5.e-002	-4.6904
12840	14.917	3.3636	0.	-2055.6
12841	14.825	3.4545	0.	-2078.9
12842	14.917	3.4545	5.e-002	-4.6906
12843	14.917	3.1818	0.	-2055.6
12844	14.825	3.2727	0.	-2078.8
12845	14.917	3.2727	5.e-002	-4.6908
12846	14.917	3.	0.	-2055.6
12847	14.825	3.0909	0.	-2078.8
12848	14.917	3.0909	5.e-002	-4.6909
12849	14.917	2.8182	0.	-2055.6
12850	14.825	2.9091	0.	-2078.8
12851	14.917	2.9091	5.e-002	-4.6909
12852	14.917	2.6364	0.	-2055.6
12853	14.825	2.7273	0.	-2078.8
12854	14.917	2.7273	5.e-002	-4.6908
12855	14.917	2.4545	0.	-2055.8
12856	14.825	2.5455	0.	-2078.9
12857	14.917	2.5455	5.e-002	-4.6906
12858	14.917	2.2727	0.	-2055.9
12859	14.825	2.3636	0.	-2079.1
12860	14.917	2.3636	5.e-002	-4.6904
12861	14.917	2.0909	0.	-2056.2
12862	14.825	2.1818	0.	-2079.3
12863	14.917	2.1818	5.e-002	-4.6901
12864	14.917	1.9091	0.	-2056.4
12865	14.825	2.	0.	-2079.5
12866	14.917	2.	5.e-002	-4.6897
12867	14.917	1.7273	0.	-2056.8
12868	14.825	1.8182	0.	-2079.9
12869	14.917	1.8182	5.e-002	-4.6892
12870	14.917	1.5455	0.	-2057.2
12871	14.825	1.6364	0.	-2080.2
12872	14.917	1.6364	5.e-002	-4.6885
12873	14.917	1.3636	0.	-2057.6
12874	14.825	1.4545	0.	-2080.7
12875	14.917	1.4545	5.e-002	-4.6877
12876	14.917	1.1818	0.	-2058.2
12877	14.825	1.2727	0.	-2081.2
12878	14.917	1.2727	5.e-002	-4.6869
12879	14.917	1.	0.	-2058.8
12880	14.825	1.0909	0.	-2081.8
12881	14.917	1.0909	5.e-002	-4.6858
12882	14.917	0.81818	0.	-2059.5
12883	14.825	0.90909	0.	-2082.5
12884	14.917	0.90909	5.e-002	-4.6845
12885	14.917	0.63636	0.	-2060.3
12886	14.825	0.72727	0.	-2083.2
12887	14.917	0.72727	5.e-002	-4.6819
12888	14.917	0.45455	0.	-2061.2
12889	14.825	0.54545	0.	-2084.1
12890	14.917	0.54545	5.e-002	-4.6617
12891	14.917	0.27273	0.	-2063.1
12892	14.825	0.36364	0.	-2085.1
12893	14.917	0.36364	5.e-002	-4.3748
12894	14.825	0.18182	0.	-2088.
12895	14.917	0.18182	5.e-002	-0.18227
12896	14.917	9.0909e-002	0.	-2059.4
12897	14.733	5.7273	0.	-2109.9
12898	14.641	5.8182	0.	-2134.8
12899	14.733	5.8182	5.e-002	-0.17184
12900	14.733	5.9091	0.	-2106.2
12901	14.733	5.5455	0.	-2108.
12902	14.641	5.6364	0.	-2132.
12903	14.733	5.6364	5.e-002	-4.391
12904	14.733	5.3636	0.	-2107.
12905	14.641	5.4545	0.	-2130.9
12906	14.733	5.4545	5.e-002	-4.6797
12907	14.733	5.1818	0.	-2106.2
12908	14.641	5.2727	0.	-2130.
12909	14.733	5.2727	5.e-002	-4.7
12910	14.733	5.	0.	-2105.4
12911	14.641	5.0909	0.	-2129.2
12912	14.733	5.0909	5.e-002	-4.7027
12913	14.733	4.8182	0.	-2104.8
12914	14.641	4.9091	0.	-2128.5
12915	14.733	4.9091	5.e-002	-4.704
12916	14.733	4.6364	0.	-2104.2
12917	14.641	4.7273	0.	-2127.9
12918	14.733	4.7273	5.e-002	-4.7051
12919	14.733	4.4545	0.	-2103.7
12920	14.641	4.5455	0.	-2127.3
12921	14.733	4.5455	5.e-002	-4.706
12922	14.733	4.2727	0.	-2103.3
12923	14.641	4.3636	0.	-2126.9
12924	14.733	4.3636	5.e-002	-4.7069
12925	14.733	4.0909	0.	-2102.9
12926	14.641	4.1818	0.	-2126.4
12927	14.733	4.1818	5.e-002	-4.7075
12928	14.733	3.9091	0.	-2102.6
12929	14.641	4.	0.	-2126.1
12930	14.733	4.	5.e-002	-4.7081
12931	14.733	3.7273	0.	-2102.4
12932	14.641	3.8182	0.	-2125.8
12933	14.733	3.8182	5.e-002	-4.7086
12934	14.733	3.5455	0.	-2102.2
12935	14.641	3.6364	0.	-2125.6
12936	14.733	3.6364	5.e-002	-4.709
12937	14.733	3.3636	0.	-2102.1
12938	14.641	3.4545	0.	-2125.4
12939	14.733	3.4545	5.e-002	-4.7092
12940	14.733	3.1818	0.	-2102.
12941	14.641	3.2727	0.	-2125.3
12942	14.733	3.2727	5.e-002	-4.7094
12943	14.733	3.	0.	-2102.
12944	14.641	3.0909	0.	-2125.3
12945	14.733	3.0909	5.e-002	-4.7095
12946	14.733	2.8182	0.	-2102.
12947	14.641	2.9091	0.	-2125.3
12948	14.733	2.9091	5.e-002	-4.7095
12949	14.733	2.6364	0.	-2102.1
12950	14.641	2.7273	0.	-2125.3
12951	14.733	2.7273	5.e-002	-4.7094
12952	14.733	2.4545	0.	-2102.2
12953	14.641	2.5455	0.	-2125.4
12954	14.733	2.5455	5.e-002	-4.7093
12955	14.733	2.2727	0.	-2102.4
12956	14.641	2.3636	0.	-2125.6
12957	14.733	2.3636	5.e-002	-4.709
12958	14.733	2.0909	0.	-2102.6
12959	14.641	2.1818	0.	-2125.8
12960	14.733	2.1818	5.e-002	-4.7086
12961	14.733	1.9091	0.	-2102.9
12962	14.641	2.	0.	-2126.1
12963	14.733	2.	5.e-002	-4.7082
12964	14.733	1.7273	0.	-2103.3
12965	14.641	1.8182	0.	-2126.4
12966	14.733	1.8182	5.e-002	-4.7076
12967	14.733	1.5455	0.	-2103.7
12968	14.641	1.6364	0.	-2126.9
12969	14.733	1.6364	5.e-002	-4.7069
12970	14.733	1.3636	0.	-2104.2
12971	14.641	1.4545	0.	-2127.3
12972	14.733	1.4545	5.e-002	-4.7061
12973	14.733	1.1818	0.	-2104.8
12974	14.641	1.2727	0.	-2127.9
12975	14.733	1.2727	5.e-002	-4.7051
12976	14.733	1.	0.	-2105.4
12977	14.641	1.0909	0.	-2128.5
12978	14.733	1.0909	5.e-002	-4.704
12979	14.733	0.81818	0.	-2106.2
12980	14.641	0.90909	0.	-2129.2
12981	14.733	0.90909	5.e-002	-4.7027
12982	14.733	0.63636	0.	-2107.
12983	14.641	0.72727	0.	-2130.
12984	14.733	0.72727	5.e-002	-4.7001
12985	14.733	0.45455	0.	-2108.
12986	14.641	0.54545	0.	-2130.9
12987	14.733	0.54545	5.e-002	-4.6798
12988	14.733	0.27273	0.	-2109.9
12989	14.641	0.36364	0.	-2132.
12990	14.733	0.36364	5.e-002	-4.391
12991	14.641	0.18182	0.	-2134.8
12992	14.733	0.18182	5.e-002	-0.17183
12993	14.733	9.0909e-002	0.	-2106.2
12994	14.549	5.7273	0.	-2156.8
12995	14.457	5.8182	0.	-2181.8
12996	14.549	5.8182	5.e-002	-0.16216
12997	14.549	5.9091	0.	-2153.2
12998	14.549	5.5455	0.	-2154.9
12999	14.457	5.6364	0.	-2179.
13000	14.549	5.6364	5.e-002	-4.4076
13001	14.549	5.3636	0.	-2153.9
13002	14.457	5.4545	0.	-2177.9
13003	14.549	5.4545	5.e-002	-4.698
13004	14.549	5.1818	0.	-2153.
13005	14.457	5.2727	0.	-2176.9
13006	14.549	5.2727	5.e-002	-4.7185
13007	14.549	5.	0.	-2152.2
13008	14.457	5.0909	0.	-2176.1
13009	14.549	5.0909	5.e-002	-4.7211
13010	14.549	4.8182	0.	-2151.6
13011	14.457	4.9091	0.	-2175.4
13012	14.549	4.9091	5.e-002	-4.7225
13013	14.549	4.6364	0.	-2151.
13014	14.457	4.7273	0.	-2174.7
13015	14.549	4.7273	5.e-002	-4.7236
13016	14.549	4.4545	0.	-2150.4
13017	14.457	4.5455	0.	-2174.2
13018	14.549	4.5455	5.e-002	-4.7246
13019	14.549	4.2727	0.	-2150.
13020	14.457	4.3636	0.	-2173.7
13021	14.549	4.3636	5.e-002	-4.7255
13022	14.549	4.0909	0.	-2149.6
13023	14.457	4.1818	0.	-2173.2
13024	14.549	4.1818	5.e-002	-4.7262
13025	14.549	3.9091	0.	-2149.3
13026	14.457	4.	0.	-2172.9
13027	14.549	4.	5.e-002	-4.7268
13028	14.549	3.7273	0.	-2149.
13029	14.457	3.8182	0.	-2172.6
13030	14.549	3.8182	5.e-002	-4.7273
13031	14.549	3.5455	0.	-2148.8
13032	14.457	3.6364	0.	-2172.3
13033	14.549	3.6364	5.e-002	-4.7277
13034	14.549	3.3636	0.	-2148.7
13035	14.457	3.4545	0.	-2172.2
13036	14.549	3.4545	5.e-002	-4.728
13037	14.549	3.1818	0.	-2148.6
13038	14.457	3.2727	0.	-2172.1
13039	14.549	3.2727	5.e-002	-4.7282
13040	14.549	3.	0.	-2148.6
13041	14.457	3.0909	0.	-2172.
13042	14.549	3.0909	5.e-002	-4.7283
13043	14.549	2.8182	0.	-2148.6
13044	14.457	2.9091	0.	-2172.
13045	14.549	2.9091	5.e-002	-4.7283
13046	14.549	2.6364	0.	-2148.7
13047	14.457	2.7273	0.	-2172.1
13048	14.549	2.7273	5.e-002	-4.7282
13049	14.549	2.4545	0.	-2148.8
13050	14.457	2.5455	0.	-2172.2
13051	14.549	2.5455	5.e-002	-4.728
13052	14.549	2.2727	0.	-2149.
13053	14.457	2.3636	0.	-2172.3
13054	14.549	2.3636	5.e-002	-4.7278
13055	14.549	2.0909	0.	-2149.3
13056	14.457	2.1818	0.	-2172.6
13057	14.549	2.1818	5.e-002	-4.7273
13058	14.549	1.9091	0.	-2149.6
13059	14.457	2.	0.	-2172.9
13060	14.549	2.	5.e-002	-4.7269
13061	14.549	1.7273	0.	-2150.
13062	14.457	1.8182	0.	-2173.2
13063	14.549	1.8182	5.e-002	-4.7263
13064	14.549	1.5455	0.	-2150.4
13065	14.457	1.6364	0.	-2173.7
13066	14.549	1.6364	5.e-002	-4.7255
13067	14.549	1.3636	0.	-2151.
13068	14.457	1.4545	0.	-2174.2
13069	14.549	1.4545	5.e-002	-4.7246
13070	14.549	1.1818	0.	-2151.6
13071	14.457	1.2727	0.	-2174.7
13072	14.549	1.2727	5.e-002	-4.7237
13073	14.549	1.	0.	-2152.2
13074	14.457	1.0909	0.	-2175.4
13075	14.549	1.0909	5.e-002	-4.7225
13076	14.549	0.81818	0.	-2153.
13077	14.457	0.90909	0.	-2176.1
13078	14.549	0.90909	5.e-002	-4.7212
13079	14.549	0.63636	0.	-2153.9
13080	14.457	0.72727	0.	-2176.9
13081	14.549	0.72727	5.e-002	-4.7185
13082	14.549	0.45455	0.	-2154.9
13083	14.457	0.54545	0.	-2177.9
13084	14.549	0.54545	5.e-002	-4.6981
13085	14.549	0.27273	0.	-2156.8
13086	14.457	0.36364	0.	-2179.
13087	14.549	0.36364	5.e-002	-4.4077
13088	14.457	0.18182	0.	-2181.8
13089	14.549	0.18182	5.e-002	-0.16216
13090	14.549	9.0909e-002	0.	-2153.2
13091	14.365	5.7273	0.	-2203.9
13092	14.273	5.8182	0.	-2229.
13093	14.365	5.8182	5.e-002	-0.15287
13094	14.365	5.9091	0.	-2200.4
13095	14.365	5.5455	0.	-2202.
13096	14.273	5.6364	0.	-2226.2
13097	14.365	5.6364	5.e-002	-4.4247
13098	14.365	5.3636	0.	-2200.9
13099	14.273	5.4545	0.	-2225.
13100	14.365	5.4545	5.e-002	-4.7168
13101	14.365	5.1818	0.	-2200.
13102	14.273	5.2727	0.	-2224.1
13103	14.365	5.2727	5.e-002	-4.7373
13104	14.365	5.	0.	-2199.2
13105	14.273	5.0909	0.	-2223.2
13106	14.365	5.0909	5.e-002	-4.74
13107	14.365	4.8182	0.	-2198.5
13108	14.273	4.9091	0.	-2222.5
13109	14.365	4.9091	5.e-002	-4.7414
13110	14.365	4.6364	0.	-2197.9
13111	14.273	4.7273	0.	-2221.8
13112	14.365	4.7273	5.e-002	-4.7425
13113	14.365	4.4545	0.	-2197.4
13114	14.273	4.5455	0.	-2221.2
13115	14.365	4.5455	5.e-002	-4.7435
13116	14.365	4.2727	0.	-2196.9
13117	14.273	4.3636	0.	-2220.7
13118	14.365	4.3636	5.e-002	-4.7445
13119	14.365	4.0909	0.	-2196.5
13120	14.273	4.1818	0.	-2220.2
13121	14.365	4.1818	5.e-002	-4.7452
13122	14.365	3.9091	0.	-2196.1
13123	14.273	4.	0.	-2219.8
13124	14.365	4.	5.e-002	-4.7459
13125	14.365	3.7273	0.	-2195.9
13126	14.273	3.8182	0.	-2219.5
13127	14.365	3.8182	5.e-002	-4.7464
13128	14.365	3.5455	0.	-2195.7
13129	14.273	3.6364	0.	-2219.3
13130	14.365	3.6364	5.e-002	-4.7469
13131	14.365	3.3636	0.	-2195.5
13132	14.273	3.4545	0.	-2219.1
13133	14.365	3.4545	5.e-002	-4.7472
13134	14.365	3.1818	0.	-2195.4
13135	14.273	3.2727	0.	-2219.
13136	14.365	3.2727	5.e-002	-4.7474
13137	14.365	3.	0.	-2195.4
13138	14.273	3.0909	0.	-2218.9
13139	14.365	3.0909	5.e-002	-4.7475
13140	14.365	2.8182	0.	-2195.4
13141	14.273	2.9091	0.	-2218.9
13142	14.365	2.9091	5.e-002	-4.7475
13143	14.365	2.6364	0.	-2195.5
13144	14.273	2.7273	0.	-2219.
13145	14.365	2.7273	5.e-002	-4.7474
13146	14.365	2.4545	0.	-2195.7
13147	14.273	2.5455	0.	-2219.1
13148	14.365	2.5455	5.e-002	-4.7472
13149	14.365	2.2727	0.	-2195.9
13150	14.273	2.3636	0.	-2219.3
13151	14.365	2.3636	5.e-002	-4.7469
13152	14.365	2.0909	0.	-2196.1
13153	14.273	2.1818	0.	-2219.5
13154	14.365	2.1818	5.e-002	-4.7465
13155	14.365	1.9091	0.	-2196.5
13156	14.273	2.	0.	-2219.8
13157	14.365	2.	5.e-002	-4.7459
13158	14.365	1.7273	0.	-2196.9
13159	14.273	1.8182	0.	-2220.2
13160	14.365	1.8182	5.e-002	-4.7453
13161	14.365	1.5455	0.	-2197.4
13162	14.273	1.6364	0.	-2220.7
13163	14.365	1.6364	5.e-002	-4.7445
13164	14.365	1.3636	0.	-2197.9
13165	14.273	1.4545	0.	-2221.2
13166	14.365	1.4545	5.e-002	-4.7436
13167	14.365	1.1818	0.	-2198.5
13168	14.273	1.2727	0.	-2221.8
13169	14.365	1.2727	5.e-002	-4.7426
13170	14.365	1.	0.	-2199.2
13171	14.273	1.0909	0.	-2222.5
13172	14.365	1.0909	5.e-002	-4.7414
13173	14.365	0.81818	0.	-2200.
13174	14.273	0.90909	0.	-2223.2
13175	14.365	0.90909	5.e-002	-4.74
13176	14.365	0.63636	0.	-2200.9
13177	14.273	0.72727	0.	-2224.1
13178	14.365	0.72727	5.e-002	-4.7374
13179	14.365	0.45455	0.	-2202.
13180	14.273	0.54545	0.	-2225.
13181	14.365	0.54545	5.e-002	-4.7168
13182	14.365	0.27273	0.	-2203.9
13183	14.273	0.36364	0.	-2226.2
13184	14.365	0.36364	5.e-002	-4.4248
13185	14.273	0.18182	0.	-2229.
13186	14.365	0.18182	5.e-002	-0.15288
13187	14.365	9.0909e-002	0.	-2200.4
13188	14.181	5.7273	0.	-2251.2
13189	14.089	5.8182	0.	-2276.4
13190	14.181	5.8182	5.e-002	-0.14368
13191	14.181	5.9091	0.	-2247.8
13192	14.181	5.5455	0.	-2249.2
13193	14.089	5.6364	0.	-2273.6
13194	14.181	5.6364	5.e-002	-4.4422
13195	14.181	5.3636	0.	-2248.2
13196	14.089	5.4545	0.	-2272.4
13197	14.181	5.4545	5.e-002	-4.7358
13198	14.181	5.1818	0.	-2247.3
13199	14.089	5.2727	0.	-2271.4
13200	14.181	5.2727	5.e-002	-4.7564
13201	14.181	5.	0.	-2246.5
13202	14.089	5.0909	0.	-2270.6
13203	14.181	5.0909	5.e-002	-4.7591
13204	14.181	4.8182	0.	-2245.7
13205	14.089	4.9091	0.	-2269.8
13206	14.181	4.9091	5.e-002	-4.7606
13207	14.181	4.6364	0.	-2245.1
13208	14.089	4.7273	0.	-2269.1
13209	14.181	4.7273	5.e-002	-4.7617
13210	14.181	4.4545	0.	-2244.5
13211	14.089	4.5455	0.	-2268.4
13212	14.181	4.5455	5.e-002	-4.7628
13213	14.181	4.2727	0.	-2244.
13214	14.089	4.3636	0.	-2267.9
13215	14.181	4.3636	5.e-002	-4.7638
13216	14.181	4.0909	0.	-2243.6
13217	14.089	4.1818	0.	-2267.4
13218	14.181	4.1818	5.e-002	-4.7646
13219	14.181	3.9091	0.	-2243.2
13220	14.089	4.	0.	-2267.
13221	14.181	4.	5.e-002	-4.7653
13222	14.181	3.7273	0.	-2242.9
13223	14.089	3.8182	0.	-2266.7
13224	14.181	3.8182	5.e-002	-4.7658
13225	14.181	3.5455	0.	-2242.7
13226	14.089	3.6364	0.	-2266.4
13227	14.181	3.6364	5.e-002	-4.7663
13228	14.181	3.3636	0.	-2242.5
13229	14.089	3.4545	0.	-2266.2
13230	14.181	3.4545	5.e-002	-4.7666
13231	14.181	3.1818	0.	-2242.4
13232	14.089	3.2727	0.	-2266.1
13233	14.181	3.2727	5.e-002	-4.7668
13234	14.181	3.	0.	-2242.4
13235	14.089	3.0909	0.	-2266.
13236	14.181	3.0909	5.e-002	-4.767
13237	14.181	2.8182	0.	-2242.4
13238	14.089	2.9091	0.	-2266.
13239	14.181	2.9091	5.e-002	-4.767
13240	14.181	2.6364	0.	-2242.5
13241	14.089	2.7273	0.	-2266.1
13242	14.181	2.7273	5.e-002	-4.7668
13243	14.181	2.4545	0.	-2242.7
13244	14.089	2.5455	0.	-2266.2
13245	14.181	2.5455	5.e-002	-4.7666
13246	14.181	2.2727	0.	-2242.9
13247	14.089	2.3636	0.	-2266.4
13248	14.181	2.3636	5.e-002	-4.7663
13249	14.181	2.0909	0.	-2243.2
13250	14.089	2.1818	0.	-2266.7
13251	14.181	2.1818	5.e-002	-4.7659
13252	14.181	1.9091	0.	-2243.6
13253	14.089	2.	0.	-2267.
13254	14.181	2.	5.e-002	-4.7653
13255	14.181	1.7273	0.	-2244.
13256	14.089	1.8182	0.	-2267.4
13257	14.181	1.8182	5.e-002	-4.7646
13258	14.181	1.5455	0.	-2244.5
13259	14.089	1.6364	0.	-2267.9
13260	14.181	1.6364	5.e-002	-4.7638
13261	14.181	1.3636	0.	-2245.1
13262	14.089	1.4545	0.	-2268.4
13263	14.181	1.4545	5.e-002	-4.7629
13264	14.181	1.1818	0.	-2245.7
13265	14.089	1.2727	0.	-2269.1
13266	14.181	1.2727	5.e-002	-4.7618
13267	14.181	1.	0.	-2246.5
13268	14.089	1.0909	0.	-2269.8
13269	14.181	1.0909	5.e-002	-4.7606
13270	14.181	0.81818	0.	-2247.3
13271	14.089	0.90909	0.	-2270.6
13272	14.181	0.90909	5.e-002	-4.7592
13273	14.181	0.63636	0.	-2248.2
13274	14.089	0.72727	0.	-2271.4
13275	14.181	0.72727	5.e-002	-4.7565
13276	14.181	0.45455	0.	-2249.2
13277	14.089	0.54545	0.	-2272.4
13278	14.181	0.54545	5.e-002	-4.7358
13279	14.181	0.27273	0.	-2251.2
13280	14.089	0.36364	0.	-2273.6
13281	14.181	0.36364	5.e-002	-4.4423
13282	14.089	0.18182	0.	-2276.4
13283	14.181	0.18182	5.e-002	-0.14369
13284	14.181	9.0909e-002	0.	-2247.8
13285	13.997	5.7273	0.	-2298.7
13286	13.905	5.8182	0.	-2324.
13287	13.997	5.8182	5.e-002	-0.13432
13288	13.997	5.9091	0.	-2295.3
13289	13.997	5.5455	0.	-2296.7
13290	13.905	5.6364	0.	-2321.2
13291	13.997	5.6364	5.e-002	-4.4601
13292	13.997	5.3636	0.	-2295.6
13293	13.905	5.4545	0.	-2320.
13294	13.997	5.4545	5.e-002	-4.755
13295	13.997	5.1818	0.	-2294.7
13296	13.905	5.2727	0.	-2319.
13297	13.997	5.2727	5.e-002	-4.7758
13298	13.997	5.	0.	-2293.8
13299	13.905	5.0909	0.	-2318.1
13300	13.997	5.0909	5.e-002	-4.7785
13301	13.997	4.8182	0.	-2293.1
13302	13.905	4.9091	0.	-2317.3
13303	13.997	4.9091	5.e-002	-4.78
13304	13.997	4.6364	0.	-2292.4
13305	13.905	4.7273	0.	-2316.5
13306	13.997	4.7273	5.e-002	-4.7812
13307	13.997	4.4545	0.	-2291.8
13308	13.905	4.5455	0.	-2315.9
13309	13.997	4.5455	5.e-002	-4.7823
13310	13.997	4.2727	0.	-2291.3
13311	13.905	4.3636	0.	-2315.3
13312	13.997	4.3636	5.e-002	-4.7833
13313	13.997	4.0909	0.	-2290.8
13314	13.905	4.1818	0.	-2314.8
13315	13.997	4.1818	5.e-002	-4.7841
13316	13.997	3.9091	0.	-2290.5
13317	13.905	4.	0.	-2314.4
13318	13.997	4.	5.e-002	-4.7849
13319	13.997	3.7273	0.	-2290.2
13320	13.905	3.8182	0.	-2314.
13321	13.997	3.8182	5.e-002	-4.7855
13322	13.997	3.5455	0.	-2289.9
13323	13.905	3.6364	0.	-2313.8
13324	13.997	3.6364	5.e-002	-4.7859
13325	13.997	3.3636	0.	-2289.8
13326	13.905	3.4545	0.	-2313.5
13327	13.997	3.4545	5.e-002	-4.7863
13328	13.997	3.1818	0.	-2289.7
13329	13.905	3.2727	0.	-2313.4
13330	13.997	3.2727	5.e-002	-4.7865
13331	13.997	3.	0.	-2289.6
13332	13.905	3.0909	0.	-2313.3
13333	13.997	3.0909	5.e-002	-4.7866
13334	13.997	2.8182	0.	-2289.7
13335	13.905	2.9091	0.	-2313.3
13336	13.997	2.9091	5.e-002	-4.7866
13337	13.997	2.6364	0.	-2289.8
13338	13.905	2.7273	0.	-2313.4
13339	13.997	2.7273	5.e-002	-4.7865
13340	13.997	2.4545	0.	-2289.9
13341	13.905	2.5455	0.	-2313.5
13342	13.997	2.5455	5.e-002	-4.7863
13343	13.997	2.2727	0.	-2290.2
13344	13.905	2.3636	0.	-2313.8
13345	13.997	2.3636	5.e-002	-4.7859
13346	13.997	2.0909	0.	-2290.5
13347	13.905	2.1818	0.	-2314.
13348	13.997	2.1818	5.e-002	-4.7855
13349	13.997	1.9091	0.	-2290.8
13350	13.905	2.	0.	-2314.4
13351	13.997	2.	5.e-002	-4.7849
13352	13.997	1.7273	0.	-2291.3
13353	13.905	1.8182	0.	-2314.8
13354	13.997	1.8182	5.e-002	-4.7842
13355	13.997	1.5455	0.	-2291.8
13356	13.905	1.6364	0.	-2315.3
13357	13.997	1.6364	5.e-002	-4.7833
13358	13.997	1.3636	0.	-2292.4
13359	13.905	1.4545	0.	-2315.9
13360	13.997	1.4545	5.e-002	-4.7824
13361	13.997	1.1818	0.	-2293.1
13362	13.905	1.2727	0.	-2316.5
13363	13.997	1.2727	5.e-002	-4.7813
13364	13.997	1.	0.	-2293.8
13365	13.905	1.0909	0.	-2317.3
13366	13.997	1.0909	5.e-002	-4.78
13367	13.997	0.81818	0.	-2294.7
13368	13.905	0.90909	0.	-2318.1
13369	13.997	0.90909	5.e-002	-4.7786
13370	13.997	0.63636	0.	-2295.6
13371	13.905	0.72727	0.	-2319.
13372	13.997	0.72727	5.e-002	-4.7758
13373	13.997	0.45455	0.	-2296.7
13374	13.905	0.54545	0.	-2320.
13375	13.997	0.54545	5.e-002	-4.7551
13376	13.997	0.27273	0.	-2298.7
13377	13.905	0.36364	0.	-2321.2
13378	13.997	0.36364	5.e-002	-4.4601
13379	13.905	0.18182	0.	-2324.
13380	13.997	0.18182	5.e-002	-0.13433
13381	13.997	9.0909e-002	0.	-2295.3
13382	13.813	5.7273	0.	-2346.4
13383	13.72	5.8182	0.	-2371.8
13384	13.813	5.8182	5.e-002	-0.12451
13385	13.813	5.9091	0.	-2343.1
13386	13.813	5.5455	0.	-2344.4
13387	13.72	5.6364	0.	-2368.9
13388	13.813	5.6364	5.e-002	-4.4784
13389	13.813	5.3636	0.	-2343.3
13390	13.72	5.4545	0.	-2367.7
13391	13.813	5.4545	5.e-002	-4.7745
13392	13.813	5.1818	0.	-2342.3
13393	13.72	5.2727	0.	-2366.7
13394	13.813	5.2727	5.e-002	-4.7955
13395	13.813	5.	0.	-2341.4
13396	13.72	5.0909	0.	-2365.8
13397	13.813	5.0909	5.e-002	-4.7982
13398	13.813	4.8182	0.	-2340.7
13399	13.72	4.9091	0.	-2364.9
13400	13.813	4.9091	5.e-002	-4.7998
13401	13.813	4.6364	0.	-2340.
13402	13.72	4.7273	0.	-2364.2
13403	13.813	4.7273	5.e-002	-4.8011
13404	13.813	4.4545	0.	-2339.3
13405	13.72	4.5455	0.	-2363.5
13406	13.813	4.5455	5.e-002	-4.8022
13407	13.813	4.2727	0.	-2338.8
13408	13.72	4.3636	0.	-2362.9
13409	13.813	4.3636	5.e-002	-4.8032
13410	13.813	4.0909	0.	-2338.3
13411	13.72	4.1818	0.	-2362.4
13412	13.813	4.1818	5.e-002	-4.8041
13413	13.813	3.9091	0.	-2337.9
13414	13.72	4.	0.	-2361.9
13415	13.813	4.	5.e-002	-4.8048
13416	13.813	3.7273	0.	-2337.6
13417	13.72	3.8182	0.	-2361.6
13418	13.813	3.8182	5.e-002	-4.8054
13419	13.813	3.5455	0.	-2337.4
13420	13.72	3.6364	0.	-2361.3
13421	13.813	3.6364	5.e-002	-4.806
13422	13.813	3.3636	0.	-2337.2
13423	13.72	3.4545	0.	-2361.1
13424	13.813	3.4545	5.e-002	-4.8063
13425	13.813	3.1818	0.	-2337.1
13426	13.72	3.2727	0.	-2360.9
13427	13.813	3.2727	5.e-002	-4.8066
13428	13.813	3.	0.	-2337.
13429	13.72	3.0909	0.	-2360.9
13430	13.813	3.0909	5.e-002	-4.8067
13431	13.813	2.8182	0.	-2337.1
13432	13.72	2.9091	0.	-2360.9
13433	13.813	2.9091	5.e-002	-4.8067
13434	13.813	2.6364	0.	-2337.2
13435	13.72	2.7273	0.	-2360.9
13436	13.813	2.7273	5.e-002	-4.8066
13437	13.813	2.4545	0.	-2337.4
13438	13.72	2.5455	0.	-2361.1
13439	13.813	2.5455	5.e-002	-4.8063
13440	13.813	2.2727	0.	-2337.6
13441	13.72	2.3636	0.	-2361.3
13442	13.813	2.3636	5.e-002	-4.806
13443	13.813	2.0909	0.	-2337.9
13444	13.72	2.1818	0.	-2361.6
13445	13.813	2.1818	5.e-002	-4.8055
13446	13.813	1.9091	0.	-2338.3
13447	13.72	2.	0.	-2361.9
13448	13.813	2.	5.e-002	-4.8049
13449	13.813	1.7273	0.	-2338.8
13450	13.72	1.8182	0.	-2362.4
13451	13.813	1.8182	5.e-002	-4.8041
13452	13.813	1.5455	0.	-2339.3
13453	13.72	1.6364	0.	-2362.9
13454	13.813	1.6364	5.e-002	-4.8032
13455	13.813	1.3636	0.	-2340.
13456	13.72	1.4545	0.	-2363.5
13457	13.813	1.4545	5.e-002	-4.8022
13458	13.813	1.1818	0.	-2340.7
13459	13.72	1.2727	0.	-2364.2
13460	13.813	1.2727	5.e-002	-4.8011
13461	13.813	1.	0.	-2341.4
13462	13.72	1.0909	0.	-2364.9
13463	13.813	1.0909	5.e-002	-4.7998
13464	13.813	0.81818	0.	-2342.3
13465	13.72	0.90909	0.	-2365.8
13466	13.813	0.90909	5.e-002	-4.7983
13467	13.813	0.63636	0.	-2343.3
13468	13.72	0.72727	0.	-2366.7
13469	13.813	0.72727	5.e-002	-4.7955
13470	13.813	0.45455	0.	-2344.4
13471	13.72	0.54545	0.	-2367.7
13472	13.813	0.54545	5.e-002	-4.7746
13473	13.813	0.27273	0.	-2346.4
13474	13.72	0.36364	0.	-2368.9
13475	13.813	0.36364	5.e-002	-4.4784
13476	13.72	0.18182	0.	-2371.8
13477	13.813	0.18182	5.e-002	-0.12452
13478	13.813	9.0909e-002	0.	-2343.1
13479	13.628	5.7273	0.	-2394.3
13480	13.536	5.8182	0.	-2419.8
13481	13.628	5.8182	5.e-002	-0.11404
13482	13.628	5.9091	0.	-2391.
13483	13.628	5.5455	0.	-2392.3
13484	13.536	5.6364	0.	-2416.9
13485	13.628	5.6364	5.e-002	-4.497
13486	13.628	5.3636	0.	-2391.1
13487	13.536	5.4545	0.	-2415.7
13488	13.628	5.4545	5.e-002	-4.7944
13489	13.628	5.1818	0.	-2390.1
13490	13.536	5.2727	0.	-2414.6
13491	13.628	5.2727	5.e-002	-4.8155
13492	13.628	5.	0.	-2389.2
13493	13.536	5.0909	0.	-2413.7
13494	13.628	5.0909	5.e-002	-4.8183
13495	13.628	4.8182	0.	-2388.4
13496	13.536	4.9091	0.	-2412.8
13497	13.628	4.9091	5.e-002	-4.8198
13498	13.628	4.6364	0.	-2387.7
13499	13.536	4.7273	0.	-2412.
13500	13.628	4.7273	5.e-002	-4.8212
13501	13.628	4.4545	0.	-2387.
13502	13.536	4.5455	0.	-2411.3
13503	13.628	4.5455	5.e-002	-4.8224
13504	13.628	4.2727	0.	-2386.5
13505	13.536	4.3636	0.	-2410.7
13506	13.628	4.3636	5.e-002	-4.8234
13507	13.628	4.0909	0.	-2386.
13508	13.536	4.1818	0.	-2410.2
13509	13.628	4.1818	5.e-002	-4.8243
13510	13.628	3.9091	0.	-2385.6
13511	13.536	4.	0.	-2409.7
13512	13.628	4.	5.e-002	-4.8251
13513	13.628	3.7273	0.	-2385.2
13514	13.536	3.8182	0.	-2409.3
13515	13.628	3.8182	5.e-002	-4.8257
13516	13.628	3.5455	0.	-2385.
13517	13.536	3.6364	0.	-2409.
13518	13.628	3.6364	5.e-002	-4.8263
13519	13.628	3.3636	0.	-2384.8
13520	13.536	3.4545	0.	-2408.8
13521	13.628	3.4545	5.e-002	-4.8267
13522	13.628	3.1818	0.	-2384.7
13523	13.536	3.2727	0.	-2408.6
13524	13.628	3.2727	5.e-002	-4.8269
13525	13.628	3.	0.	-2384.7
13526	13.536	3.0909	0.	-2408.6
13527	13.628	3.0909	5.e-002	-4.827
13528	13.628	2.8182	0.	-2384.7
13529	13.536	2.9091	0.	-2408.6
13530	13.628	2.9091	5.e-002	-4.827
13531	13.628	2.6364	0.	-2384.8
13532	13.536	2.7273	0.	-2408.6
13533	13.628	2.7273	5.e-002	-4.827
13534	13.628	2.4545	0.	-2385.
13535	13.536	2.5455	0.	-2408.8
13536	13.628	2.5455	5.e-002	-4.8267
13537	13.628	2.2727	0.	-2385.2
13538	13.536	2.3636	0.	-2409.
13539	13.628	2.3636	5.e-002	-4.8263
13540	13.628	2.0909	0.	-2385.6
13541	13.536	2.1818	0.	-2409.3
13542	13.628	2.1818	5.e-002	-4.8258
13543	13.628	1.9091	0.	-2386.
13544	13.536	2.	0.	-2409.7
13545	13.628	2.	5.e-002	-4.8251
13546	13.628	1.7273	0.	-2386.5
13547	13.536	1.8182	0.	-2410.2
13548	13.628	1.8182	5.e-002	-4.8243
13549	13.628	1.5455	0.	-2387.
13550	13.536	1.6364	0.	-2410.7
13551	13.628	1.6364	5.e-002	-4.8234
13552	13.628	1.3636	0.	-2387.7
13553	13.536	1.4545	0.	-2411.3
13554	13.628	1.4545	5.e-002	-4.8224
13555	13.628	1.1818	0.	-2388.4
13556	13.536	1.2727	0.	-2412.
13557	13.628	1.2727	5.e-002	-4.8212
13558	13.628	1.	0.	-2389.2
13559	13.536	1.0909	0.	-2412.8
13560	13.628	1.0909	5.e-002	-4.8199
13561	13.628	0.81818	0.	-2390.1
13562	13.536	0.90909	0.	-2413.7
13563	13.628	0.90909	5.e-002	-4.8184
13564	13.628	0.63636	0.	-2391.1
13565	13.536	0.72727	0.	-2414.6
13566	13.628	0.72727	5.e-002	-4.8155
13567	13.628	0.45455	0.	-2392.3
13568	13.536	0.54545	0.	-2415.7
13569	13.628	0.54545	5.e-002	-4.7945
13570	13.628	0.27273	0.	-2394.3
13571	13.536	0.36364	0.	-2416.9
13572	13.628	0.36364	5.e-002	-4.4971
13573	13.536	0.18182	0.	-2419.8
13574	13.628	0.18182	5.e-002	-0.11405
13575	13.628	9.0909e-002	0.	-2391.
13576	13.444	5.7273	0.	-2442.3
13577	13.352	5.8182	0.	-2468.
13578	13.444	5.8182	5.e-002	-0.10278
13579	13.444	5.9091	0.	-2439.2
13580	13.444	5.5455	0.	-2440.3
13581	13.352	5.6364	0.	-2465.1
13582	13.444	5.6364	5.e-002	-4.516
13583	13.444	5.3636	0.	-2439.2
13584	13.352	5.4545	0.	-2463.8
13585	13.444	5.4545	5.e-002	-4.8145
13586	13.444	5.1818	0.	-2438.1
13587	13.352	5.2727	0.	-2462.8
13588	13.444	5.2727	5.e-002	-4.8356
13589	13.444	5.	0.	-2437.2
13590	13.352	5.0909	0.	-2461.8
13591	13.444	5.0909	5.e-002	-4.8385
13592	13.444	4.8182	0.	-2436.4
13593	13.352	4.9091	0.	-2460.9
13594	13.444	4.9091	5.e-002	-4.8401
13595	13.444	4.6364	0.	-2435.6
13596	13.352	4.7273	0.	-2460.1
13597	13.444	4.7273	5.e-002	-4.8415
13598	13.444	4.4545	0.	-2434.9
13599	13.352	4.5455	0.	-2459.3
13600	13.444	4.5455	5.e-002	-4.8427
13601	13.444	4.2727	0.	-2434.4
13602	13.352	4.3636	0.	-2458.7
13603	13.444	4.3636	5.e-002	-4.8438
13604	13.444	4.0909	0.	-2433.9
13605	13.352	4.1818	0.	-2458.1
13606	13.444	4.1818	5.e-002	-4.8448
13607	13.444	3.9091	0.	-2433.4
13608	13.352	4.	0.	-2457.7
13609	13.444	4.	5.e-002	-4.8456
13610	13.444	3.7273	0.	-2433.1
13611	13.352	3.8182	0.	-2457.3
13612	13.444	3.8182	5.e-002	-4.8463
13613	13.444	3.5455	0.	-2432.8
13614	13.352	3.6364	0.	-2456.9
13615	13.444	3.6364	5.e-002	-4.8468
13616	13.444	3.3636	0.	-2432.6
13617	13.352	3.4545	0.	-2456.7
13618	13.444	3.4545	5.e-002	-4.8472
13619	13.444	3.1818	0.	-2432.5
13620	13.352	3.2727	0.	-2456.6
13621	13.444	3.2727	5.e-002	-4.8475
13622	13.444	3.	0.	-2432.5
13623	13.352	3.0909	0.	-2456.5
13624	13.444	3.0909	5.e-002	-4.8476
13625	13.444	2.8182	0.	-2432.5
13626	13.352	2.9091	0.	-2456.5
13627	13.444	2.9091	5.e-002	-4.8476
13628	13.444	2.6364	0.	-2432.6
13629	13.352	2.7273	0.	-2456.6
13630	13.444	2.7273	5.e-002	-4.8475
13631	13.444	2.4545	0.	-2432.8
13632	13.352	2.5455	0.	-2456.7
13633	13.444	2.5455	5.e-002	-4.8472
13634	13.444	2.2727	0.	-2433.1
13635	13.352	2.3636	0.	-2456.9
13636	13.444	2.3636	5.e-002	-4.8468
13637	13.444	2.0909	0.	-2433.4
13638	13.352	2.1818	0.	-2457.3
13639	13.444	2.1818	5.e-002	-4.8463
13640	13.444	1.9091	0.	-2433.9
13641	13.352	2.	0.	-2457.7
13642	13.444	2.	5.e-002	-4.8456
13643	13.444	1.7273	0.	-2434.4
13644	13.352	1.8182	0.	-2458.1
13645	13.444	1.8182	5.e-002	-4.8448
13646	13.444	1.5455	0.	-2434.9
13647	13.352	1.6364	0.	-2458.7
13648	13.444	1.6364	5.e-002	-4.8439
13649	13.444	1.3636	0.	-2435.6
13650	13.352	1.4545	0.	-2459.3
13651	13.444	1.4545	5.e-002	-4.8428
13652	13.444	1.1818	0.	-2436.4
13653	13.352	1.2727	0.	-2460.1
13654	13.444	1.2727	5.e-002	-4.8416
13655	13.444	1.	0.	-2437.2
13656	13.352	1.0909	0.	-2460.9
13657	13.444	1.0909	5.e-002	-4.8402
13658	13.444	0.81818	0.	-2438.1
13659	13.352	0.90909	0.	-2461.8
13660	13.444	0.90909	5.e-002	-4.8386
13661	13.444	0.63636	0.	-2439.2
13662	13.352	0.72727	0.	-2462.8
13663	13.444	0.72727	5.e-002	-4.8357
13664	13.444	0.45455	0.	-2440.3
13665	13.352	0.54545	0.	-2463.8
13666	13.444	0.54545	5.e-002	-4.8146
13667	13.444	0.27273	0.	-2442.3
13668	13.352	0.36364	0.	-2465.1
13669	13.444	0.36364	5.e-002	-4.516
13670	13.352	0.18182	0.	-2468.
13671	13.444	0.18182	5.e-002	-0.10279
13672	13.444	9.0909e-002	0.	-2439.2
13673	13.26	5.7273	0.	-2490.6
13674	13.168	5.8182	0.	-2516.3
13675	13.26	5.8182	5.e-002	-9.0535e-002
13676	13.26	5.9091	0.	-2487.5
13677	13.26	5.5455	0.	-2488.6
13678	13.168	5.6364	0.	-2513.5
13679	13.26	5.6364	5.e-002	-4.5354
13680	13.26	5.3636	0.	-2487.4
13681	13.168	5.4545	0.	-2512.2
13682	13.26	5.4545	5.e-002	-4.8349
13683	13.26	5.1818	0.	-2486.4
13684	13.168	5.2727	0.	-2511.1
13685	13.26	5.2727	5.e-002	-4.8561
13686	13.26	5.	0.	-2485.4
13687	13.168	5.0909	0.	-2510.1
13688	13.26	5.0909	5.e-002	-4.8591
13689	13.26	4.8182	0.	-2484.5
13690	13.168	4.9091	0.	-2509.1
13691	13.26	4.9091	5.e-002	-4.8608
13692	13.26	4.6364	0.	-2483.8
13693	13.168	4.7273	0.	-2508.3
13694	13.26	4.7273	5.e-002	-4.8622
13695	13.26	4.4545	0.	-2483.1
13696	13.168	4.5455	0.	-2507.6
13697	13.26	4.5455	5.e-002	-4.8635
13698	13.26	4.2727	0.	-2482.4
13699	13.168	4.3636	0.	-2506.9
13700	13.26	4.3636	5.e-002	-4.8646
13701	13.26	4.0909	0.	-2481.9
13702	13.168	4.1818	0.	-2506.3
13703	13.26	4.1818	5.e-002	-4.8656
13704	13.26	3.9091	0.	-2481.5
13705	13.168	4.	0.	-2505.8
13706	13.26	4.	5.e-002	-4.8665
13707	13.26	3.7273	0.	-2481.1
13708	13.168	3.8182	0.	-2505.4
13709	13.26	3.8182	5.e-002	-4.8672
13710	13.26	3.5455	0.	-2480.8
13711	13.168	3.6364	0.	-2505.1
13712	13.26	3.6364	5.e-002	-4.8677
13713	13.26	3.3636	0.	-2480.6
13714	13.168	3.4545	0.	-2504.8
13715	13.26	3.4545	5.e-002	-4.8682
13716	13.26	3.1818	0.	-2480.5
13717	13.168	3.2727	0.	-2504.7
13718	13.26	3.2727	5.e-002	-4.8685
13719	13.26	3.	0.	-2480.5
13720	13.168	3.0909	0.	-2504.6
13721	13.26	3.0909	5.e-002	-4.8686
13722	13.26	2.8182	0.	-2480.5
13723	13.168	2.9091	0.	-2504.6
13724	13.26	2.9091	5.e-002	-4.8686
13725	13.26	2.6364	0.	-2480.6
13726	13.168	2.7273	0.	-2504.7
13727	13.26	2.7273	5.e-002	-4.8685
13728	13.26	2.4545	0.	-2480.8
13729	13.168	2.5455	0.	-2504.8
13730	13.26	2.5455	5.e-002	-4.8682
13731	13.26	2.2727	0.	-2481.1
13732	13.168	2.3636	0.	-2505.1
13733	13.26	2.3636	5.e-002	-4.8677
13734	13.26	2.0909	0.	-2481.5
13735	13.168	2.1818	0.	-2505.4
13736	13.26	2.1818	5.e-002	-4.8672
13737	13.26	1.9091	0.	-2481.9
13738	13.168	2.	0.	-2505.8
13739	13.26	2.	5.e-002	-4.8665
13740	13.26	1.7273	0.	-2482.4
13741	13.168	1.8182	0.	-2506.3
13742	13.26	1.8182	5.e-002	-4.8657
13743	13.26	1.5455	0.	-2483.1
13744	13.168	1.6364	0.	-2506.9
13745	13.26	1.6364	5.e-002	-4.8647
13746	13.26	1.3636	0.	-2483.8
13747	13.168	1.4545	0.	-2507.6
13748	13.26	1.4545	5.e-002	-4.8635
13749	13.26	1.1818	0.	-2484.5
13750	13.168	1.2727	0.	-2508.3
13751	13.26	1.2727	5.e-002	-4.8623
13752	13.26	1.	0.	-2485.4
13753	13.168	1.0909	0.	-2509.1
13754	13.26	1.0909	5.e-002	-4.8608
13755	13.26	0.81818	0.	-2486.4
13756	13.168	0.90909	0.	-2510.1
13757	13.26	0.90909	5.e-002	-4.8592
13758	13.26	0.63636	0.	-2487.4
13759	13.168	0.72727	0.	-2511.1
13760	13.26	0.72727	5.e-002	-4.8562
13761	13.26	0.45455	0.	-2488.6
13762	13.168	0.54545	0.	-2512.2
13763	13.26	0.54545	5.e-002	-4.835
13764	13.26	0.27273	0.	-2490.6
13765	13.168	0.36364	0.	-2513.5
13766	13.26	0.36364	5.e-002	-4.5354
13767	13.168	0.18182	0.	-2516.3
13768	13.26	0.18182	5.e-002	-9.0548e-002
13769	13.26	9.0909e-002	0.	-2487.5
13770	13.076	5.7273	0.	-2539.1
13771	12.984	5.8182	0.	-2564.9
13772	13.076	5.8182	5.e-002	-7.7302e-002
13773	13.076	5.9091	0.	-2536.1
13774	13.076	5.5455	0.	-2537.
13775	12.984	5.6364	0.	-2562.
13776	13.076	5.6364	5.e-002	-4.5551
13777	13.076	5.3636	0.	-2535.8
13778	12.984	5.4545	0.	-2560.7
13779	13.076	5.4545	5.e-002	-4.8556
13780	13.076	5.1818	0.	-2534.8
13781	12.984	5.2727	0.	-2559.6
13782	13.076	5.2727	5.e-002	-4.877
13783	13.076	5.	0.	-2533.8
13784	12.984	5.0909	0.	-2558.6
13785	13.076	5.0909	5.e-002	-4.88
13786	13.076	4.8182	0.	-2532.9
13787	12.984	4.9091	0.	-2557.6
13788	13.076	4.9091	5.e-002	-4.8817
13789	13.076	4.6364	0.	-2532.1
13790	12.984	4.7273	0.	-2556.7
13791	13.076	4.7273	5.e-002	-4.8832
13792	13.076	4.4545	0.	-2531.4
13793	12.984	4.5455	0.	-2556.
13794	13.076	4.5455	5.e-002	-4.8846
13795	13.076	4.2727	0.	-2530.7
13796	12.984	4.3636	0.	-2555.3
13797	13.076	4.3636	5.e-002	-4.8858
13798	13.076	4.0909	0.	-2530.2
13799	12.984	4.1818	0.	-2554.7
13800	13.076	4.1818	5.e-002	-4.8868
13801	13.076	3.9091	0.	-2529.7
13802	12.984	4.	0.	-2554.2
13803	13.076	4.	5.e-002	-4.8877
13804	13.076	3.7273	0.	-2529.3
13805	12.984	3.8182	0.	-2553.7
13806	13.076	3.8182	5.e-002	-4.8884
13807	13.076	3.5455	0.	-2529.
13808	12.984	3.6364	0.	-2553.4
13809	13.076	3.6364	5.e-002	-4.889
13810	13.076	3.3636	0.	-2528.8
13811	12.984	3.4545	0.	-2553.1
13812	13.076	3.4545	5.e-002	-4.8895
13813	13.076	3.1818	0.	-2528.7
13814	12.984	3.2727	0.	-2553.
13815	13.076	3.2727	5.e-002	-4.8898
13816	13.076	3.	0.	-2528.7
13817	12.984	3.0909	0.	-2552.9
13818	13.076	3.0909	5.e-002	-4.8899
13819	13.076	2.8182	0.	-2528.7
13820	12.984	2.9091	0.	-2552.9
13821	13.076	2.9091	5.e-002	-4.8899
13822	13.076	2.6364	0.	-2528.8
13823	12.984	2.7273	0.	-2553.
13824	13.076	2.7273	5.e-002	-4.8898
13825	13.076	2.4545	0.	-2529.
13826	12.984	2.5455	0.	-2553.1
13827	13.076	2.5455	5.e-002	-4.8895
13828	13.076	2.2727	0.	-2529.3
13829	12.984	2.3636	0.	-2553.4
13830	13.076	2.3636	5.e-002	-4.889
13831	13.076	2.0909	0.	-2529.7
13832	12.984	2.1818	0.	-2553.7
13833	13.076	2.1818	5.e-002	-4.8884
13834	13.076	1.9091	0.	-2530.2
13835	12.984	2.	0.	-2554.2
13836	13.076	2.	5.e-002	-4.8877
13837	13.076	1.7273	0.	-2530.7
13838	12.984	1.8182	0.	-2554.7
13839	13.076	1.8182	5.e-002	-4.8868
13840	13.076	1.5455	0.	-2531.4
13841	12.984	1.6364	0.	-2555.3
13842	13.076	1.6364	5.e-002	-4.8858
13843	13.076	1.3636	0.	-2532.1
13844	12.984	1.4545	0.	-2556.
13845	13.076	1.4545	5.e-002	-4.8846
13846	13.076	1.1818	0.	-2532.9
13847	12.984	1.2727	0.	-2556.7
13848	13.076	1.2727	5.e-002	-4.8833
13849	13.076	1.	0.	-2533.8
13850	12.984	1.0909	0.	-2557.6
13851	13.076	1.0909	5.e-002	-4.8818
13852	13.076	0.81818	0.	-2534.8
13853	12.984	0.90909	0.	-2558.6
13854	13.076	0.90909	5.e-002	-4.8801
13855	13.076	0.63636	0.	-2535.8
13856	12.984	0.72727	0.	-2559.6
13857	13.076	0.72727	5.e-002	-4.877
13858	13.076	0.45455	0.	-2537.
13859	12.984	0.54545	0.	-2560.7
13860	13.076	0.54545	5.e-002	-4.8556
13861	13.076	0.27273	0.	-2539.1
13862	12.984	0.36364	0.	-2562.
13863	13.076	0.36364	5.e-002	-4.5552
13864	12.984	0.18182	0.	-2564.9
13865	13.076	0.18182	5.e-002	-7.7313e-002
13866	13.076	9.0909e-002	0.	-2536.1
13867	12.892	5.7273	0.	-2587.8
13868	12.8	5.8182	0.	-2613.7
13869	12.892	5.8182	5.e-002	-6.3234e-002
13870	12.892	5.9091	0.	-2584.9
13871	12.892	5.5455	0.	-2585.7
13872	12.8	5.6364	0.	-2610.8
13873	12.892	5.6364	5.e-002	-4.5752
13874	12.892	5.3636	0.	-2584.5
13875	12.8	5.4545	0.	-2609.5
13876	12.892	5.4545	5.e-002	-4.8764
13877	12.892	5.1818	0.	-2583.4
13878	12.8	5.2727	0.	-2608.3
13879	12.892	5.2727	5.e-002	-4.898
13880	12.892	5.	0.	-2582.4
13881	12.8	5.0909	0.	-2607.2
13882	12.892	5.0909	5.e-002	-4.9011
13883	12.892	4.8182	0.	-2581.4
13884	12.8	4.9091	0.	-2606.3
13885	12.892	4.9091	5.e-002	-4.9029
13886	12.892	4.6364	0.	-2580.6
13887	12.8	4.7273	0.	-2605.4
13888	12.892	4.7273	5.e-002	-4.9045
13889	12.892	4.4545	0.	-2579.9
13890	12.8	4.5455	0.	-2604.6
13891	12.892	4.5455	5.e-002	-4.9059
13892	12.892	4.2727	0.	-2579.2
13893	12.8	4.3636	0.	-2603.9
13894	12.892	4.3636	5.e-002	-4.9071
13895	12.892	4.0909	0.	-2578.6
13896	12.8	4.1818	0.	-2603.2
13897	12.892	4.1818	5.e-002	-4.9082
13898	12.892	3.9091	0.	-2578.1
13899	12.8	4.	0.	-2602.7
13900	12.892	4.	5.e-002	-4.9091
13901	12.892	3.7273	0.	-2577.8
13902	12.8	3.8182	0.	-2602.2
13903	12.892	3.8182	5.e-002	-4.9099
13904	12.892	3.5455	0.	-2577.4
13905	12.8	3.6364	0.	-2601.9
13906	12.892	3.6364	5.e-002	-4.9105
13907	12.892	3.3636	0.	-2577.2
13908	12.8	3.4545	0.	-2601.6
13909	12.892	3.4545	5.e-002	-4.911
13910	12.892	3.1818	0.	-2577.1
13911	12.8	3.2727	0.	-2601.4
13912	12.892	3.2727	5.e-002	-4.9113
13913	12.892	3.	0.	-2577.1
13914	12.8	3.0909	0.	-2601.4
13915	12.892	3.0909	5.e-002	-4.9115
13916	12.892	2.8182	0.	-2577.1
13917	12.8	2.9091	0.	-2601.4
13918	12.892	2.9091	5.e-002	-4.9115
13919	12.892	2.6364	0.	-2577.2
13920	12.8	2.7273	0.	-2601.4
13921	12.892	2.7273	5.e-002	-4.9113
13922	12.892	2.4545	0.	-2577.4
13923	12.8	2.5455	0.	-2601.6
13924	12.892	2.5455	5.e-002	-4.911
13925	12.892	2.2727	0.	-2577.8
13926	12.8	2.3636	0.	-2601.9
13927	12.892	2.3636	5.e-002	-4.9105
13928	12.892	2.0909	0.	-2578.1
13929	12.8	2.1818	0.	-2602.2
13930	12.892	2.1818	5.e-002	-4.9099
13931	12.892	1.9091	0.	-2578.6
13932	12.8	2.	0.	-2602.7
13933	12.892	2.	5.e-002	-4.9091
13934	12.892	1.7273	0.	-2579.2
13935	12.8	1.8182	0.	-2603.2
13936	12.892	1.8182	5.e-002	-4.9082
13937	12.892	1.5455	0.	-2579.9
13938	12.8	1.6364	0.	-2603.9
13939	12.892	1.6364	5.e-002	-4.9072
13940	12.892	1.3636	0.	-2580.6
13941	12.8	1.4545	0.	-2604.6
13942	12.892	1.4545	5.e-002	-4.9059
13943	12.892	1.1818	0.	-2581.4
13944	12.8	1.2727	0.	-2605.4
13945	12.892	1.2727	5.e-002	-4.9045
13946	12.892	1.	0.	-2582.4
13947	12.8	1.0909	0.	-2606.3
13948	12.892	1.0909	5.e-002	-4.903
13949	12.892	0.81818	0.	-2583.4
13950	12.8	0.90909	0.	-2607.2
13951	12.892	0.90909	5.e-002	-4.9012
13952	12.892	0.63636	0.	-2584.5
13953	12.8	0.72727	0.	-2608.3
13954	12.892	0.72727	5.e-002	-4.898
13955	12.892	0.45455	0.	-2585.7
13956	12.8	0.54545	0.	-2609.5
13957	12.892	0.54545	5.e-002	-4.8765
13958	12.892	0.27273	0.	-2587.8
13959	12.8	0.36364	0.	-2610.8
13960	12.892	0.36364	5.e-002	-4.5753
13961	12.8	0.18182	0.	-2613.7
13962	12.892	0.18182	5.e-002	-6.3242e-002
13963	12.892	9.0909e-002	0.	-2584.9
13964	12.708	5.7273	0.	-2636.7
13965	12.615	5.8182	0.	-2662.7
13966	12.708	5.8182	5.e-002	-4.8882e-002
13967	12.708	5.9091	0.	-2633.8
13968	12.708	5.5455	0.	-2634.6
13969	12.615	5.6364	0.	-2659.8
13970	12.708	5.6364	5.e-002	-4.5958
13971	12.708	5.3636	0.	-2633.3
13972	12.615	5.4545	0.	-2658.4
13973	12.708	5.4545	5.e-002	-4.8977
13974	12.708	5.1818	0.	-2632.2
13975	12.615	5.2727	0.	-2657.2
13976	12.708	5.2727	5.e-002	-4.9194
13977	12.708	5.	0.	-2631.1
13978	12.615	5.0909	0.	-2656.1
13979	12.708	5.0909	5.e-002	-4.9226
13980	12.708	4.8182	0.	-2630.2
13981	12.615	4.9091	0.	-2655.1
13982	12.708	4.9091	5.e-002	-4.9245
13983	12.708	4.6364	0.	-2629.3
13984	12.615	4.7273	0.	-2654.2
13985	12.708	4.7273	5.e-002	-4.9261
13986	12.708	4.4545	0.	-2628.5
13987	12.615	4.5455	0.	-2653.4
13988	12.708	4.5455	5.e-002	-4.9276
13989	12.708	4.2727	0.	-2627.9
13990	12.615	4.3636	0.	-2652.6
13991	12.708	4.3636	5.e-002	-4.9289
13992	12.708	4.0909	0.	-2627.3
13993	12.615	4.1818	0.	-2652.
13994	12.708	4.1818	5.e-002	-4.93
13995	12.708	3.9091	0.	-2626.8
13996	12.615	4.	0.	-2651.4
13997	12.708	4.	5.e-002	-4.931
13998	12.708	3.7273	0.	-2626.4
13999	12.615	3.8182	0.	-2651.
14000	12.708	3.8182	5.e-002	-4.9318
14001	12.708	3.5455	0.	-2626.
14002	12.615	3.6364	0.	-2650.6
14003	12.708	3.6364	5.e-002	-4.9325
14004	12.708	3.3636	0.	-2625.8
14005	12.615	3.4545	0.	-2650.3
14006	12.708	3.4545	5.e-002	-4.9329
14007	12.708	3.1818	0.	-2625.7
14008	12.615	3.2727	0.	-2650.1
14009	12.708	3.2727	5.e-002	-4.9333
14010	12.708	3.	0.	-2625.6
14011	12.615	3.0909	0.	-2650.
14012	12.708	3.0909	5.e-002	-4.9334
14013	12.708	2.8182	0.	-2625.7
14014	12.615	2.9091	0.	-2650.
14015	12.708	2.9091	5.e-002	-4.9334
14016	12.708	2.6364	0.	-2625.8
14017	12.615	2.7273	0.	-2650.1
14018	12.708	2.7273	5.e-002	-4.9333
14019	12.708	2.4545	0.	-2626.
14020	12.615	2.5455	0.	-2650.3
14021	12.708	2.5455	5.e-002	-4.933
14022	12.708	2.2727	0.	-2626.4
14023	12.615	2.3636	0.	-2650.6
14024	12.708	2.3636	5.e-002	-4.9325
14025	12.708	2.0909	0.	-2626.8
14026	12.615	2.1818	0.	-2651.
14027	12.708	2.1818	5.e-002	-4.9319
14028	12.708	1.9091	0.	-2627.3
14029	12.615	2.	0.	-2651.4
14030	12.708	2.	5.e-002	-4.9311
14031	12.708	1.7273	0.	-2627.9
14032	12.615	1.8182	0.	-2652.
14033	12.708	1.8182	5.e-002	-4.9301
14034	12.708	1.5455	0.	-2628.5
14035	12.615	1.6364	0.	-2652.6
14036	12.708	1.6364	5.e-002	-4.929
14037	12.708	1.3636	0.	-2629.3
14038	12.615	1.4545	0.	-2653.4
14039	12.708	1.4545	5.e-002	-4.9276
14040	12.708	1.1818	0.	-2630.2
14041	12.615	1.2727	0.	-2654.2
14042	12.708	1.2727	5.e-002	-4.9262
14043	12.708	1.	0.	-2631.1
14044	12.615	1.0909	0.	-2655.1
14045	12.708	1.0909	5.e-002	-4.9245
14046	12.708	0.81818	0.	-2632.2
14047	12.615	0.90909	0.	-2656.1
14048	12.708	0.90909	5.e-002	-4.9227
14049	12.708	0.63636	0.	-2633.3
14050	12.615	0.72727	0.	-2657.2
14051	12.708	0.72727	5.e-002	-4.9194
14052	12.708	0.45455	0.	-2634.6
14053	12.615	0.54545	0.	-2658.4
14054	12.708	0.54545	5.e-002	-4.8978
14055	12.708	0.27273	0.	-2636.7
14056	12.615	0.36364	0.	-2659.8
14057	12.708	0.36364	5.e-002	-4.5959
14058	12.615	0.18182	0.	-2662.7
14059	12.708	0.18182	5.e-002	-4.8884e-002
14060	12.708	9.0909e-002	0.	-2633.8
14061	12.523	5.7273	0.	-2685.7
14062	12.431	5.8182	0.	-2711.9
14063	12.523	5.8182	5.e-002	-3.6432e-002
14064	12.523	5.9091	0.	-2683.
14065	12.523	5.5455	0.	-2683.6
14066	12.431	5.6364	0.	-2709.
14067	12.523	5.6364	5.e-002	-4.6167
14068	12.523	5.3636	0.	-2682.3
14069	12.431	5.4545	0.	-2707.6
14070	12.523	5.4545	5.e-002	-4.9193
14071	12.523	5.1818	0.	-2681.2
14072	12.431	5.2727	0.	-2706.4
14073	12.523	5.2727	5.e-002	-4.941
14074	12.523	5.	0.	-2680.1
14075	12.431	5.0909	0.	-2705.2
14076	12.523	5.0909	5.e-002	-4.9444
14077	12.523	4.8182	0.	-2679.1
14078	12.431	4.9091	0.	-2704.2
14079	12.523	4.9091	5.e-002	-4.9464
14080	12.523	4.6364	0.	-2678.2
14081	12.431	4.7273	0.	-2703.2
14082	12.523	4.7273	5.e-002	-4.9481
14083	12.523	4.4545	0.	-2677.4
14084	12.431	4.5455	0.	-2702.4
14085	12.523	4.5455	5.e-002	-4.9497
14086	12.523	4.2727	0.	-2676.7
14087	12.431	4.3636	0.	-2701.6
14088	12.523	4.3636	5.e-002	-4.951
14089	12.523	4.0909	0.	-2676.1
14090	12.431	4.1818	0.	-2700.9
14091	12.523	4.1818	5.e-002	-4.9522
14092	12.523	3.9091	0.	-2675.6
14093	12.431	4.	0.	-2700.3
14094	12.523	4.	5.e-002	-4.9532
14095	12.523	3.7273	0.	-2675.2
14096	12.431	3.8182	0.	-2699.9
14097	12.523	3.8182	5.e-002	-4.9541
14098	12.523	3.5455	0.	-2674.8
14099	12.431	3.6364	0.	-2699.5
14100	12.523	3.6364	5.e-002	-4.9548
14101	12.523	3.3636	0.	-2674.6
14102	12.431	3.4545	0.	-2699.2
14103	12.523	3.4545	5.e-002	-4.9553
14104	12.523	3.1818	0.	-2674.5
14105	12.431	3.2727	0.	-2699.
14106	12.523	3.2727	5.e-002	-4.9556
14107	12.523	3.	0.	-2674.4
14108	12.431	3.0909	0.	-2698.9
14109	12.523	3.0909	5.e-002	-4.9558
14110	12.523	2.8182	0.	-2674.5
14111	12.431	2.9091	0.	-2698.9
14112	12.523	2.9091	5.e-002	-4.9558
14113	12.523	2.6364	0.	-2674.6
14114	12.431	2.7273	0.	-2699.
14115	12.523	2.7273	5.e-002	-4.9556
14116	12.523	2.4545	0.	-2674.8
14117	12.431	2.5455	0.	-2699.2
14118	12.523	2.5455	5.e-002	-4.9553
14119	12.523	2.2727	0.	-2675.2
14120	12.431	2.3636	0.	-2699.5
14121	12.523	2.3636	5.e-002	-4.9548
14122	12.523	2.0909	0.	-2675.6
14123	12.431	2.1818	0.	-2699.9
14124	12.523	2.1818	5.e-002	-4.9541
14125	12.523	1.9091	0.	-2676.1
14126	12.431	2.	0.	-2700.3
14127	12.523	2.	5.e-002	-4.9533
14128	12.523	1.7273	0.	-2676.7
14129	12.431	1.8182	0.	-2700.9
14130	12.523	1.8182	5.e-002	-4.9523
14131	12.523	1.5455	0.	-2677.4
14132	12.431	1.6364	0.	-2701.6
14133	12.523	1.6364	5.e-002	-4.9511
14134	12.523	1.3636	0.	-2678.2
14135	12.431	1.4545	0.	-2702.4
14136	12.523	1.4545	5.e-002	-4.9497
14137	12.523	1.1818	0.	-2679.1
14138	12.431	1.2727	0.	-2703.2
14139	12.523	1.2727	5.e-002	-4.9481
14140	12.523	1.	0.	-2680.1
14141	12.431	1.0909	0.	-2704.2
14142	12.523	1.0909	5.e-002	-4.9464
14143	12.523	0.81818	0.	-2681.2
14144	12.431	0.90909	0.	-2705.2
14145	12.523	0.90909	5.e-002	-4.9445
14146	12.523	0.63636	0.	-2682.3
14147	12.431	0.72727	0.	-2706.4
14148	12.523	0.72727	5.e-002	-4.9412
14149	12.523	0.45455	0.	-2683.6
14150	12.431	0.54545	0.	-2707.6
14151	12.523	0.54545	5.e-002	-4.9194
14152	12.523	0.27273	0.	-2685.7
14153	12.431	0.36364	0.	-2709.
14154	12.523	0.36364	5.e-002	-4.6169
14155	12.431	0.18182	0.	-2711.9
14156	12.523	0.18182	5.e-002	-3.6435e-002
14157	12.523	9.0909e-002	0.	-2683.
14158	12.339	5.7273	0.	-2735.
14159	12.247	5.8182	0.	-2761.3
14160	12.339	5.8182	5.e-002	-3.2061e-002
14161	12.339	5.9091	0.	-2732.4
14162	12.339	5.5455	0.	-2732.9
14163	12.247	5.6364	0.	-2758.4
14164	12.339	5.6364	5.e-002	-4.6381
14165	12.339	5.3636	0.	-2731.6
14166	12.247	5.4545	0.	-2756.9
14167	12.339	5.4545	5.e-002	-4.9411
14168	12.339	5.1818	0.	-2730.4
14169	12.247	5.2727	0.	-2755.7
14170	12.339	5.2727	5.e-002	-4.963
14171	12.339	5.	0.	-2729.3
14172	12.247	5.0909	0.	-2754.5
14173	12.339	5.0909	5.e-002	-4.9664
14174	12.339	4.8182	0.	-2728.3
14175	12.247	4.9091	0.	-2753.4
14176	12.339	4.9091	5.e-002	-4.9685
14177	12.339	4.6364	0.	-2727.3
14178	12.247	4.7273	0.	-2752.4
14179	12.339	4.7273	5.e-002	-4.9704
14180	12.339	4.4545	0.	-2726.5
14181	12.247	4.5455	0.	-2751.6
14182	12.339	4.5455	5.e-002	-4.9719
14183	12.339	4.2727	0.	-2725.8
14184	12.247	4.3636	0.	-2750.8
14185	12.339	4.3636	5.e-002	-4.9734
14186	12.339	4.0909	0.	-2725.1
14187	12.247	4.1818	0.	-2750.1
14188	12.339	4.1818	5.e-002	-4.9747
14189	12.339	3.9091	0.	-2724.6
14190	12.247	4.	0.	-2749.5
14191	12.339	4.	5.e-002	-4.9757
14192	12.339	3.7273	0.	-2724.2
14193	12.247	3.8182	0.	-2749.
14194	12.339	3.8182	5.e-002	-4.9766
14195	12.339	3.5455	0.	-2723.8
14196	12.247	3.6364	0.	-2748.6
14197	12.339	3.6364	5.e-002	-4.9774
14198	12.339	3.3636	0.	-2723.6
14199	12.247	3.4545	0.	-2748.3
14200	12.339	3.4545	5.e-002	-4.9779
14201	12.339	3.1818	0.	-2723.4
14202	12.247	3.2727	0.	-2748.1
14203	12.339	3.2727	5.e-002	-4.9783
14204	12.339	3.	0.	-2723.4
14205	12.247	3.0909	0.	-2748.
14206	12.339	3.0909	5.e-002	-4.9785
14207	12.339	2.8182	0.	-2723.4
14208	12.247	2.9091	0.	-2748.
14209	12.339	2.9091	5.e-002	-4.9785
14210	12.339	2.6364	0.	-2723.6
14211	12.247	2.7273	0.	-2748.1
14212	12.339	2.7273	5.e-002	-4.9783
14213	12.339	2.4545	0.	-2723.8
14214	12.247	2.5455	0.	-2748.3
14215	12.339	2.5455	5.e-002	-4.9779
14216	12.339	2.2727	0.	-2724.2
14217	12.247	2.3636	0.	-2748.6
14218	12.339	2.3636	5.e-002	-4.9774
14219	12.339	2.0909	0.	-2724.6
14220	12.247	2.1818	0.	-2749.
14221	12.339	2.1818	5.e-002	-4.9767
14222	12.339	1.9091	0.	-2725.1
14223	12.247	2.	0.	-2749.5
14224	12.339	2.	5.e-002	-4.9758
14225	12.339	1.7273	0.	-2725.8
14226	12.247	1.8182	0.	-2750.1
14227	12.339	1.8182	5.e-002	-4.9747
14228	12.339	1.5455	0.	-2726.5
14229	12.247	1.6364	0.	-2750.8
14230	12.339	1.6364	5.e-002	-4.9735
14231	12.339	1.3636	0.	-2727.3
14232	12.247	1.4545	0.	-2751.6
14233	12.339	1.4545	5.e-002	-4.972
14234	12.339	1.1818	0.	-2728.3
14235	12.247	1.2727	0.	-2752.4
14236	12.339	1.2727	5.e-002	-4.9704
14237	12.339	1.	0.	-2729.3
14238	12.247	1.0909	0.	-2753.4
14239	12.339	1.0909	5.e-002	-4.9686
14240	12.339	0.81818	0.	-2730.4
14241	12.247	0.90909	0.	-2754.5
14242	12.339	0.90909	5.e-002	-4.9665
14243	12.339	0.63636	0.	-2731.6
14244	12.247	0.72727	0.	-2755.7
14245	12.339	0.72727	5.e-002	-4.9631
14246	12.339	0.45455	0.	-2732.9
14247	12.247	0.54545	0.	-2756.9
14248	12.339	0.54545	5.e-002	-4.9412
14249	12.339	0.27273	0.	-2735.
14250	12.247	0.36364	0.	-2758.4
14251	12.339	0.36364	5.e-002	-4.6381
14252	12.247	0.18182	0.	-2761.3
14253	12.339	0.18182	5.e-002	-3.2109e-002
14254	12.339	9.0909e-002	0.	-2732.4
14255	12.155	5.7273	0.	-2784.5
14256	12.063	5.8182	0.	-2810.9
14257	12.155	5.8182	5.e-002	-4.21e-002
14258	12.155	5.9091	0.	-2782.
14259	12.155	5.5455	0.	-2782.4
14260	12.063	5.6364	0.	-2808.
14261	12.155	5.6364	5.e-002	-4.6599
14262	12.155	5.3636	0.	-2781.
14263	12.063	5.4545	0.	-2806.5
14264	12.155	5.4545	5.e-002	-4.9632
14265	12.155	5.1818	0.	-2779.8
14266	12.063	5.2727	0.	-2805.2
14267	12.155	5.2727	5.e-002	-4.9853
14268	12.155	5.	0.	-2778.6
14269	12.063	5.0909	0.	-2804.
14270	12.155	5.0909	5.e-002	-4.9889
14271	12.155	4.8182	0.	-2777.6
14272	12.063	4.9091	0.	-2802.9
14273	12.155	4.9091	5.e-002	-4.9911
14274	12.155	4.6364	0.	-2776.6
14275	12.063	4.7273	0.	-2801.9
14276	12.155	4.7273	5.e-002	-4.993
14277	12.155	4.4545	0.	-2775.8
14278	12.063	4.5455	0.	-2800.9
14279	12.155	4.5455	5.e-002	-4.9948
14280	12.155	4.2727	0.	-2775.
14281	12.063	4.3636	0.	-2800.1
14282	12.155	4.3636	5.e-002	-4.9963
14283	12.155	4.0909	0.	-2774.4
14284	12.063	4.1818	0.	-2799.4
14285	12.155	4.1818	5.e-002	-4.9976
14286	12.155	3.9091	0.	-2773.8
14287	12.063	4.	0.	-2798.8
14288	12.155	4.	5.e-002	-4.9987
14289	12.155	3.7273	0.	-2773.3
14290	12.063	3.8182	0.	-2798.2
14291	12.155	3.8182	5.e-002	-4.9997
14292	12.155	3.5455	0.	-2773.
14293	12.063	3.6364	0.	-2797.8
14294	12.155	3.6364	5.e-002	-5.0004
14295	12.155	3.3636	0.	-2772.7
14296	12.063	3.4545	0.	-2797.5
14297	12.155	3.4545	5.e-002	-5.001
14298	12.155	3.1818	0.	-2772.6
14299	12.063	3.2727	0.	-2797.3
14300	12.155	3.2727	5.e-002	-5.0014
14301	12.155	3.	0.	-2772.5
14302	12.063	3.0909	0.	-2797.2
14303	12.155	3.0909	5.e-002	-5.0016
14304	12.155	2.8182	0.	-2772.6
14305	12.063	2.9091	0.	-2797.2
14306	12.155	2.9091	5.e-002	-5.0016
14307	12.155	2.6364	0.	-2772.7
14308	12.063	2.7273	0.	-2797.3
14309	12.155	2.7273	5.e-002	-5.0014
14310	12.155	2.4545	0.	-2773.
14311	12.063	2.5455	0.	-2797.5
14312	12.155	2.5455	5.e-002	-5.0011
14313	12.155	2.2727	0.	-2773.3
14314	12.063	2.3636	0.	-2797.8
14315	12.155	2.3636	5.e-002	-5.0005
14316	12.155	2.0909	0.	-2773.8
14317	12.063	2.1818	0.	-2798.2
14318	12.155	2.1818	5.e-002	-4.9997
14319	12.155	1.9091	0.	-2774.4
14320	12.063	2.	0.	-2798.8
14321	12.155	2.	5.e-002	-4.9988
14322	12.155	1.7273	0.	-2775.
14323	12.063	1.8182	0.	-2799.4
14324	12.155	1.8182	5.e-002	-4.9977
14325	12.155	1.5455	0.	-2775.8
14326	12.063	1.6364	0.	-2800.1
14327	12.155	1.6364	5.e-002	-4.9964
14328	12.155	1.3636	0.	-2776.6
14329	12.063	1.4545	0.	-2800.9
14330	12.155	1.4545	5.e-002	-4.9948
14331	12.155	1.1818	0.	-2777.6
14332	12.063	1.2727	0.	-2801.9
14333	12.155	1.2727	5.e-002	-4.9931
14334	12.155	1.	0.	-2778.6
14335	12.063	1.0909	0.	-2802.9
14336	12.155	1.0909	5.e-002	-4.9912
14337	12.155	0.81818	0.	-2779.8
14338	12.063	0.90909	0.	-2804.
14339	12.155	0.90909	5.e-002	-4.989
14340	12.155	0.63636	0.	-2781.
14341	12.063	0.72727	0.	-2805.2
14342	12.155	0.72727	5.e-002	-4.9855
14343	12.155	0.45455	0.	-2782.4
14344	12.063	0.54545	0.	-2806.5
14345	12.155	0.54545	5.e-002	-4.9634
14346	12.155	0.27273	0.	-2784.5
14347	12.063	0.36364	0.	-2808.
14348	12.155	0.36364	5.e-002	-4.66
14349	12.063	0.18182	0.	-2810.9
14350	12.155	0.18182	5.e-002	-4.2229e-002
14351	12.155	9.0909e-002	0.	-2782.
14352	11.971	5.7273	0.	-2834.3
14353	11.879	5.8182	0.	-2860.7
14354	11.971	5.8182	5.e-002	-6.2473e-002
14355	11.971	5.9091	0.	-2831.8
14356	11.971	5.5455	0.	-2832.1
14357	11.879	5.6364	0.	-2857.8
14358	11.971	5.6364	5.e-002	-4.6823
14359	11.971	5.3636	0.	-2830.7
14360	11.879	5.4545	0.	-2856.3
14361	11.971	5.4545	5.e-002	-4.9858
14362	11.971	5.1818	0.	-2829.4
14363	11.879	5.2727	0.	-2854.9
14364	11.971	5.2727	5.e-002	-5.0081
14365	11.971	5.	0.	-2828.2
14366	11.879	5.0909	0.	-2853.7
14367	11.971	5.0909	5.e-002	-5.0118
14368	11.971	4.8182	0.	-2827.1
14369	11.879	4.9091	0.	-2852.5
14370	11.971	4.9091	5.e-002	-5.0141
14371	11.971	4.6364	0.	-2826.1
14372	11.879	4.7273	0.	-2851.5
14373	11.971	4.7273	5.e-002	-5.0161
14374	11.971	4.4545	0.	-2825.3
14375	11.879	4.5455	0.	-2850.5
14376	11.971	4.5455	5.e-002	-5.018
14377	11.971	4.2727	0.	-2824.5
14378	11.879	4.3636	0.	-2849.7
14379	11.971	4.3636	5.e-002	-5.0195
14380	11.971	4.0909	0.	-2823.8
14381	11.879	4.1818	0.	-2848.9
14382	11.971	4.1818	5.e-002	-5.021
14383	11.971	3.9091	0.	-2823.2
14384	11.879	4.	0.	-2848.3
14385	11.971	4.	5.e-002	-5.0221
14386	11.971	3.7273	0.	-2822.7
14387	11.879	3.8182	0.	-2847.7
14388	11.971	3.8182	5.e-002	-5.0231
14389	11.971	3.5455	0.	-2822.3
14390	11.879	3.6364	0.	-2847.3
14391	11.971	3.6364	5.e-002	-5.0239
14392	11.971	3.3636	0.	-2822.1
14393	11.879	3.4545	0.	-2846.9
14394	11.971	3.4545	5.e-002	-5.0245
14395	11.971	3.1818	0.	-2821.9
14396	11.879	3.2727	0.	-2846.7
14397	11.971	3.2727	5.e-002	-5.0249
14398	11.971	3.	0.	-2821.8
14399	11.879	3.0909	0.	-2846.6
14400	11.971	3.0909	5.e-002	-5.0251
14401	11.971	2.8182	0.	-2821.9
14402	11.879	2.9091	0.	-2846.6
14403	11.971	2.9091	5.e-002	-5.0251
14404	11.971	2.6364	0.	-2822.1
14405	11.879	2.7273	0.	-2846.7
14406	11.971	2.7273	5.e-002	-5.0249
14407	11.971	2.4545	0.	-2822.3
14408	11.879	2.5455	0.	-2846.9
14409	11.971	2.5455	5.e-002	-5.0245
14410	11.971	2.2727	0.	-2822.7
14411	11.879	2.3636	0.	-2847.3
14412	11.971	2.3636	5.e-002	-5.0239
14413	11.971	2.0909	0.	-2823.2
14414	11.879	2.1818	0.	-2847.7
14415	11.971	2.1818	5.e-002	-5.0232
14416	11.971	1.9091	0.	-2823.8
14417	11.879	2.	0.	-2848.3
14418	11.971	2.	5.e-002	-5.0222
14419	11.971	1.7273	0.	-2824.5
14420	11.879	1.8182	0.	-2848.9
14421	11.971	1.8182	5.e-002	-5.021
14422	11.971	1.5455	0.	-2825.3
14423	11.879	1.6364	0.	-2849.7
14424	11.971	1.6364	5.e-002	-5.0196
14425	11.971	1.3636	0.	-2826.1
14426	11.879	1.4545	0.	-2850.5
14427	11.971	1.4545	5.e-002	-5.018
14428	11.971	1.1818	0.	-2827.1
14429	11.879	1.2727	0.	-2851.5
14430	11.971	1.2727	5.e-002	-5.0162
14431	11.971	1.	0.	-2828.2
14432	11.879	1.0909	0.	-2852.5
14433	11.971	1.0909	5.e-002	-5.0142
14434	11.971	0.81818	0.	-2829.4
14435	11.879	0.90909	0.	-2853.7
14436	11.971	0.90909	5.e-002	-5.0119
14437	11.971	0.63636	0.	-2830.7
14438	11.879	0.72727	0.	-2854.9
14439	11.971	0.72727	5.e-002	-5.0082
14440	11.971	0.45455	0.	-2832.1
14441	11.879	0.54545	0.	-2856.3
14442	11.971	0.54545	5.e-002	-4.9859
14443	11.971	0.27273	0.	-2834.3
14444	11.879	0.36364	0.	-2857.8
14445	11.971	0.36364	5.e-002	-4.6823
14446	11.879	0.18182	0.	-2860.7
14447	11.971	0.18182	5.e-002	-6.259e-002
14448	11.971	9.0909e-002	0.	-2831.8
14449	11.787	5.7273	0.	-2884.2
14450	11.695	5.8182	0.	-2910.8
14451	11.787	5.8182	5.e-002	-8.8438e-002
14452	11.787	5.9091	0.	-2881.8
14453	11.787	5.5455	0.	-2882.
14454	11.695	5.6364	0.	-2907.8
14455	11.787	5.6364	5.e-002	-4.705
14456	11.787	5.3636	0.	-2880.5
14457	11.695	5.4545	0.	-2906.3
14458	11.787	5.4545	5.e-002	-5.0087
14459	11.787	5.1818	0.	-2879.2
14460	11.695	5.2727	0.	-2904.9
14461	11.787	5.2727	5.e-002	-5.0311
14462	11.787	5.	0.	-2878.
14463	11.695	5.0909	0.	-2903.6
14464	11.787	5.0909	5.e-002	-5.035
14465	11.787	4.8182	0.	-2876.9
14466	11.695	4.9091	0.	-2902.4
14467	11.787	4.9091	5.e-002	-5.0374
14468	11.787	4.6364	0.	-2875.8
14469	11.695	4.7273	0.	-2901.3
14470	11.787	4.7273	5.e-002	-5.0395
14471	11.787	4.4545	0.	-2874.9
14472	11.695	4.5455	0.	-2900.3
14473	11.787	4.5455	5.e-002	-5.0415
14474	11.787	4.2727	0.	-2874.1
14475	11.695	4.3636	0.	-2899.4
14476	11.787	4.3636	5.e-002	-5.0432
14477	11.787	4.0909	0.	-2873.4
14478	11.695	4.1818	0.	-2898.6
14479	11.787	4.1818	5.e-002	-5.0446
14480	11.787	3.9091	0.	-2872.8
14481	11.695	4.	0.	-2897.9
14482	11.787	4.	5.e-002	-5.0459
14483	11.787	3.7273	0.	-2872.3
14484	11.695	3.8182	0.	-2897.4
14485	11.787	3.8182	5.e-002	-5.0469
14486	11.787	3.5455	0.	-2871.9
14487	11.695	3.6364	0.	-2896.9
14488	11.787	3.6364	5.e-002	-5.0478
14489	11.787	3.3636	0.	-2871.6
14490	11.695	3.4545	0.	-2896.6
14491	11.787	3.4545	5.e-002	-5.0484
14492	11.787	3.1818	0.	-2871.4
14493	11.695	3.2727	0.	-2896.3
14494	11.787	3.2727	5.e-002	-5.0488
14495	11.787	3.	0.	-2871.4
14496	11.695	3.0909	0.	-2896.2
14497	11.787	3.0909	5.e-002	-5.049
14498	11.787	2.8182	0.	-2871.4
14499	11.695	2.9091	0.	-2896.2
14500	11.787	2.9091	5.e-002	-5.049
14501	11.787	2.6364	0.	-2871.6
14502	11.695	2.7273	0.	-2896.3
14503	11.787	2.7273	5.e-002	-5.0488
14504	11.787	2.4545	0.	-2871.9
14505	11.695	2.5455	0.	-2896.6
14506	11.787	2.5455	5.e-002	-5.0484
14507	11.787	2.2727	0.	-2872.3
14508	11.695	2.3636	0.	-2896.9
14509	11.787	2.3636	5.e-002	-5.0478
14510	11.787	2.0909	0.	-2872.8
14511	11.695	2.1818	0.	-2897.4
14512	11.787	2.1818	5.e-002	-5.047
14513	11.787	1.9091	0.	-2873.4
14514	11.695	2.	0.	-2897.9
14515	11.787	2.	5.e-002	-5.0459
14516	11.787	1.7273	0.	-2874.1
14517	11.695	1.8182	0.	-2898.6
14518	11.787	1.8182	5.e-002	-5.0447
14519	11.787	1.5455	0.	-2874.9
14520	11.695	1.6364	0.	-2899.4
14521	11.787	1.6364	5.e-002	-5.0432
14522	11.787	1.3636	0.	-2875.8
14523	11.695	1.4545	0.	-2900.3
14524	11.787	1.4545	5.e-002	-5.0415
14525	11.787	1.1818	0.	-2876.9
14526	11.695	1.2727	0.	-2901.3
14527	11.787	1.2727	5.e-002	-5.0396
14528	11.787	1.	0.	-2878.
14529	11.695	1.0909	0.	-2902.4
14530	11.787	1.0909	5.e-002	-5.0375
14531	11.787	0.81818	0.	-2879.2
14532	11.695	0.90909	0.	-2903.6
14533	11.787	0.90909	5.e-002	-5.035
14534	11.787	0.63636	0.	-2880.5
14535	11.695	0.72727	0.	-2904.9
14536	11.787	0.72727	5.e-002	-5.0312
14537	11.787	0.45455	0.	-2882.
14538	11.695	0.54545	0.	-2906.3
14539	11.787	0.54545	5.e-002	-5.0088
14540	11.787	0.27273	0.	-2884.2
14541	11.695	0.36364	0.	-2907.8
14542	11.787	0.36364	5.e-002	-4.7051
14543	11.695	0.18182	0.	-2910.8
14544	11.787	0.18182	5.e-002	-8.8548e-002
14545	11.787	9.0909e-002	0.	-2881.8
14546	11.602	5.7273	0.	-2934.3
14547	11.51	5.8182	0.	-2961.
14548	11.602	5.8182	5.e-002	-0.11855
14549	11.602	5.9091	0.	-2932.1
14550	11.602	5.5455	0.	-2932.1
14551	11.51	5.6364	0.	-2958.
14552	11.602	5.6364	5.e-002	-4.7284
14553	11.602	5.3636	0.	-2930.6
14554	11.51	5.4545	0.	-2956.5
14555	11.602	5.4545	5.e-002	-5.032
14556	11.602	5.1818	0.	-2929.2
14557	11.51	5.2727	0.	-2955.
14558	11.602	5.2727	5.e-002	-5.0546
14559	11.602	5.	0.	-2928.
14560	11.51	5.0909	0.	-2953.7
14561	11.602	5.0909	5.e-002	-5.0586
14562	11.602	4.8182	0.	-2926.8
14563	11.51	4.9091	0.	-2952.4
14564	11.602	4.9091	5.e-002	-5.0612
14565	11.602	4.6364	0.	-2925.7
14566	11.51	4.7273	0.	-2951.3
14567	11.602	4.7273	5.e-002	-5.0635
14568	11.602	4.4545	0.	-2924.8
14569	11.51	4.5455	0.	-2950.3
14570	11.602	4.5455	5.e-002	-5.0655
14571	11.602	4.2727	0.	-2923.9
14572	11.51	4.3636	0.	-2949.3
14573	11.602	4.3636	5.e-002	-5.0673
14574	11.602	4.0909	0.	-2923.2
14575	11.51	4.1818	0.	-2948.5
14576	11.602	4.1818	5.e-002	-5.0689
14577	11.602	3.9091	0.	-2922.5
14578	11.51	4.	0.	-2947.8
14579	11.602	4.	5.e-002	-5.0702
14580	11.602	3.7273	0.	-2922.
14581	11.51	3.8182	0.	-2947.2
14582	11.602	3.8182	5.e-002	-5.0713
14583	11.602	3.5455	0.	-2921.6
14584	11.51	3.6364	0.	-2946.7
14585	11.602	3.6364	5.e-002	-5.0722
14586	11.602	3.3636	0.	-2921.3
14587	11.51	3.4545	0.	-2946.4
14588	11.602	3.4545	5.e-002	-5.0728
14589	11.602	3.1818	0.	-2921.1
14590	11.51	3.2727	0.	-2946.1
14591	11.602	3.2727	5.e-002	-5.0733
14592	11.602	3.	0.	-2921.1
14593	11.51	3.0909	0.	-2946.
14594	11.602	3.0909	5.e-002	-5.0735
14595	11.602	2.8182	0.	-2921.1
14596	11.51	2.9091	0.	-2946.
14597	11.602	2.9091	5.e-002	-5.0735
14598	11.602	2.6364	0.	-2921.3
14599	11.51	2.7273	0.	-2946.1
14600	11.602	2.7273	5.e-002	-5.0733
14601	11.602	2.4545	0.	-2921.6
14602	11.51	2.5455	0.	-2946.4
14603	11.602	2.5455	5.e-002	-5.0728
14604	11.602	2.2727	0.	-2922.
14605	11.51	2.3636	0.	-2946.7
14606	11.602	2.3636	5.e-002	-5.0722
14607	11.602	2.0909	0.	-2922.5
14608	11.51	2.1818	0.	-2947.2
14609	11.602	2.1818	5.e-002	-5.0713
14610	11.602	1.9091	0.	-2923.2
14611	11.51	2.	0.	-2947.8
14612	11.602	2.	5.e-002	-5.0702
14613	11.602	1.7273	0.	-2923.9
14614	11.51	1.8182	0.	-2948.5
14615	11.602	1.8182	5.e-002	-5.0689
14616	11.602	1.5455	0.	-2924.8
14617	11.51	1.6364	0.	-2949.3
14618	11.602	1.6364	5.e-002	-5.0674
14619	11.602	1.3636	0.	-2925.7
14620	11.51	1.4545	0.	-2950.3
14621	11.602	1.4545	5.e-002	-5.0656
14622	11.602	1.1818	0.	-2926.8
14623	11.51	1.2727	0.	-2951.3
14624	11.602	1.2727	5.e-002	-5.0636
14625	11.602	1.	0.	-2928.
14626	11.51	1.0909	0.	-2952.4
14627	11.602	1.0909	5.e-002	-5.0613
14628	11.602	0.81818	0.	-2929.2
14629	11.51	0.90909	0.	-2953.7
14630	11.602	0.90909	5.e-002	-5.0587
14631	11.602	0.63636	0.	-2930.6
14632	11.51	0.72727	0.	-2955.
14633	11.602	0.72727	5.e-002	-5.0547
14634	11.602	0.45455	0.	-2932.1
14635	11.51	0.54545	0.	-2956.5
14636	11.602	0.54545	5.e-002	-5.0321
14637	11.602	0.27273	0.	-2934.3
14638	11.51	0.36364	0.	-2958.
14639	11.602	0.36364	5.e-002	-4.7285
14640	11.51	0.18182	0.	-2961.
14641	11.602	0.18182	5.e-002	-0.11867
14642	11.602	9.0909e-002	0.	-2932.1
14643	11.418	5.7273	0.	-2984.7
14644	11.326	5.8182	0.	-3011.5
14645	11.418	5.8182	5.e-002	-0.15233
14646	11.418	5.9091	0.	-2982.6
14647	11.418	5.5455	0.	-2982.4
14648	11.326	5.6364	0.	-3008.5
14649	11.418	5.6364	5.e-002	-4.7524
14650	11.418	5.3636	0.	-2980.9
14651	11.326	5.4545	0.	-3006.9
14652	11.418	5.4545	5.e-002	-5.0559
14653	11.418	5.1818	0.	-2979.5
14654	11.326	5.2727	0.	-3005.4
14655	11.418	5.2727	5.e-002	-5.0786
14656	11.418	5.	0.	-2978.1
14657	11.326	5.0909	0.	-3004.
14658	11.418	5.0909	5.e-002	-5.0828
14659	11.418	4.8182	0.	-2976.9
14660	11.326	4.9091	0.	-3002.7
14661	11.418	4.9091	5.e-002	-5.0855
14662	11.418	4.6364	0.	-2975.8
14663	11.326	4.7273	0.	-3001.5
14664	11.418	4.7273	5.e-002	-5.0879
14665	11.418	4.4545	0.	-2974.8
14666	11.326	4.5455	0.	-3000.4
14667	11.418	4.5455	5.e-002	-5.0901
14668	11.418	4.2727	0.	-2973.9
14669	11.326	4.3636	0.	-2999.5
14670	11.418	4.3636	5.e-002	-5.092
14671	11.418	4.0909	0.	-2973.1
14672	11.326	4.1818	0.	-2998.6
14673	11.418	4.1818	5.e-002	-5.0936
14674	11.418	3.9091	0.	-2972.5
14675	11.326	4.	0.	-2997.9
14676	11.418	4.	5.e-002	-5.095
14677	11.418	3.7273	0.	-2971.9
14678	11.326	3.8182	0.	-2997.2
14679	11.418	3.8182	5.e-002	-5.0962
14680	11.418	3.5455	0.	-2971.5
14681	11.326	3.6364	0.	-2996.7
14682	11.418	3.6364	5.e-002	-5.0971
14683	11.418	3.3636	0.	-2971.2
14684	11.326	3.4545	0.	-2996.4
14685	11.418	3.4545	5.e-002	-5.0978
14686	11.418	3.1818	0.	-2971.
14687	11.326	3.2727	0.	-2996.1
14688	11.418	3.2727	5.e-002	-5.0982
14689	11.418	3.	0.	-2970.9
14690	11.326	3.0909	0.	-2996.
14691	11.418	3.0909	5.e-002	-5.0984
14692	11.418	2.8182	0.	-2971.
14693	11.326	2.9091	0.	-2996.
14694	11.418	2.9091	5.e-002	-5.0984
14695	11.418	2.6364	0.	-2971.2
14696	11.326	2.7273	0.	-2996.1
14697	11.418	2.7273	5.e-002	-5.0982
14698	11.418	2.4545	0.	-2971.5
14699	11.326	2.5455	0.	-2996.4
14700	11.418	2.5455	5.e-002	-5.0978
14701	11.418	2.2727	0.	-2971.9
14702	11.326	2.3636	0.	-2996.7
14703	11.418	2.3636	5.e-002	-5.0971
14704	11.418	2.0909	0.	-2972.5
14705	11.326	2.1818	0.	-2997.2
14706	11.418	2.1818	5.e-002	-5.0962
14707	11.418	1.9091	0.	-2973.1
14708	11.326	2.	0.	-2997.9
14709	11.418	2.	5.e-002	-5.095
14710	11.418	1.7273	0.	-2973.9
14711	11.326	1.8182	0.	-2998.6
14712	11.418	1.8182	5.e-002	-5.0936
14713	11.418	1.5455	0.	-2974.8
14714	11.326	1.6364	0.	-2999.5
14715	11.418	1.6364	5.e-002	-5.092
14716	11.418	1.3636	0.	-2975.8
14717	11.326	1.4545	0.	-3000.4
14718	11.418	1.4545	5.e-002	-5.0901
14719	11.418	1.1818	0.	-2976.9
14720	11.326	1.2727	0.	-3001.5
14721	11.418	1.2727	5.e-002	-5.088
14722	11.418	1.	0.	-2978.1
14723	11.326	1.0909	0.	-3002.7
14724	11.418	1.0909	5.e-002	-5.0856
14725	11.418	0.81818	0.	-2979.5
14726	11.326	0.90909	0.	-3004.
14727	11.418	0.90909	5.e-002	-5.0829
14728	11.418	0.63636	0.	-2980.9
14729	11.326	0.72727	0.	-3005.4
14730	11.418	0.72727	5.e-002	-5.0787
14731	11.418	0.45455	0.	-2982.4
14732	11.326	0.54545	0.	-3006.9
14733	11.418	0.54545	5.e-002	-5.056
14734	11.418	0.27273	0.	-2984.7
14735	11.326	0.36364	0.	-3008.5
14736	11.418	0.36364	5.e-002	-4.7525
14737	11.326	0.18182	0.	-3011.5
14738	11.418	0.18182	5.e-002	-0.15243
14739	11.418	9.0909e-002	0.	-2982.6
14740	11.234	5.7273	0.	-3035.3
14741	11.142	5.8182	0.	-3062.2
14742	11.234	5.8182	5.e-002	-0.18968
14743	11.234	5.9091	0.	-3033.3
14744	11.234	5.5455	0.	-3032.9
14745	11.142	5.6364	0.	-3059.2
14746	11.234	5.6364	5.e-002	-4.7769
14747	11.234	5.3636	0.	-3031.3
14748	11.142	5.4545	0.	-3057.5
14749	11.234	5.4545	5.e-002	-5.08
14750	11.234	5.1818	0.	-3029.9
14751	11.142	5.2727	0.	-3055.9
14752	11.234	5.2727	5.e-002	-5.1029
14753	11.234	5.	0.	-3028.5
14754	11.142	5.0909	0.	-3054.5
14755	11.234	5.0909	5.e-002	-5.1073
14756	11.234	4.8182	0.	-3027.3
14757	11.142	4.9091	0.	-3053.1
14758	11.234	4.9091	5.e-002	-5.1102
14759	11.234	4.6364	0.	-3026.1
14760	11.142	4.7273	0.	-3051.9
14761	11.234	4.7273	5.e-002	-5.1127
14762	11.234	4.4545	0.	-3025.1
14763	11.142	4.5455	0.	-3050.8
14764	11.234	4.5455	5.e-002	-5.115
14765	11.234	4.2727	0.	-3024.1
14766	11.142	4.3636	0.	-3049.8
14767	11.234	4.3636	5.e-002	-5.117
14768	11.234	4.0909	0.	-3023.3
14769	11.142	4.1818	0.	-3048.9
14770	11.234	4.1818	5.e-002	-5.1187
14771	11.234	3.9091	0.	-3022.6
14772	11.142	4.	0.	-3048.1
14773	11.234	4.	5.e-002	-5.1202
14774	11.234	3.7273	0.	-3022.
14775	11.142	3.8182	0.	-3047.4
14776	11.234	3.8182	5.e-002	-5.1214
14777	11.234	3.5455	0.	-3021.6
14778	11.142	3.6364	0.	-3046.9
14779	11.234	3.6364	5.e-002	-5.1224
14780	11.234	3.3636	0.	-3021.3
14781	11.142	3.4545	0.	-3046.5
14782	11.234	3.4545	5.e-002	-5.1231
14783	11.234	3.1818	0.	-3021.1
14784	11.142	3.2727	0.	-3046.3
14785	11.234	3.2727	5.e-002	-5.1236
14786	11.234	3.	0.	-3021.
14787	11.142	3.0909	0.	-3046.1
14788	11.234	3.0909	5.e-002	-5.1239
14789	11.234	2.8182	0.	-3021.1
14790	11.142	2.9091	0.	-3046.1
14791	11.234	2.9091	5.e-002	-5.1239
14792	11.234	2.6364	0.	-3021.3
14793	11.142	2.7273	0.	-3046.3
14794	11.234	2.7273	5.e-002	-5.1236
14795	11.234	2.4545	0.	-3021.6
14796	11.142	2.5455	0.	-3046.5
14797	11.234	2.5455	5.e-002	-5.1232
14798	11.234	2.2727	0.	-3022.
14799	11.142	2.3636	0.	-3046.9
14800	11.234	2.3636	5.e-002	-5.1225
14801	11.234	2.0909	0.	-3022.6
14802	11.142	2.1818	0.	-3047.4
14803	11.234	2.1818	5.e-002	-5.1215
14804	11.234	1.9091	0.	-3023.3
14805	11.142	2.	0.	-3048.1
14806	11.234	2.	5.e-002	-5.1203
14807	11.234	1.7273	0.	-3024.1
14808	11.142	1.8182	0.	-3048.9
14809	11.234	1.8182	5.e-002	-5.1188
14810	11.234	1.5455	0.	-3025.1
14811	11.142	1.6364	0.	-3049.8
14812	11.234	1.6364	5.e-002	-5.1171
14813	11.234	1.3636	0.	-3026.1
14814	11.142	1.4545	0.	-3050.8
14815	11.234	1.4545	5.e-002	-5.1151
14816	11.234	1.1818	0.	-3027.3
14817	11.142	1.2727	0.	-3051.9
14818	11.234	1.2727	5.e-002	-5.1128
14819	11.234	1.	0.	-3028.5
14820	11.142	1.0909	0.	-3053.1
14821	11.234	1.0909	5.e-002	-5.1103
14822	11.234	0.81818	0.	-3029.9
14823	11.142	0.90909	0.	-3054.5
14824	11.234	0.90909	5.e-002	-5.1074
14825	11.234	0.63636	0.	-3031.3
14826	11.142	0.72727	0.	-3055.9
14827	11.234	0.72727	5.e-002	-5.103
14828	11.234	0.45455	0.	-3032.9
14829	11.142	0.54545	0.	-3057.5
14830	11.234	0.54545	5.e-002	-5.0801
14831	11.234	0.27273	0.	-3035.3
14832	11.142	0.36364	0.	-3059.2
14833	11.234	0.36364	5.e-002	-4.777
14834	11.142	0.18182	0.	-3062.2
14835	11.234	0.18182	5.e-002	-0.18978
14836	11.234	9.0909e-002	0.	-3033.3
14837	11.05	5.7273	0.	-3086.
14838	10.958	5.8182	0.	-3113.1
14839	11.05	5.8182	5.e-002	-0.23091
14840	11.05	5.9091	0.	-3084.2
14841	11.05	5.5455	0.	-3083.7
14842	10.958	5.6364	0.	-3110.1
14843	11.05	5.6364	5.e-002	-4.8022
14844	11.05	5.3636	0.	-3082.
14845	10.958	5.4545	0.	-3108.3
14846	11.05	5.4545	5.e-002	-5.1047
14847	11.05	5.1818	0.	-3080.5
14848	10.958	5.2727	0.	-3106.7
14849	11.05	5.2727	5.e-002	-5.1279
14850	11.05	5.	0.	-3079.1
14851	10.958	5.0909	0.	-3105.2
14852	11.05	5.0909	5.e-002	-5.1324
14853	11.05	4.8182	0.	-3077.8
14854	10.958	4.9091	0.	-3103.8
14855	11.05	4.9091	5.e-002	-5.1355
14856	11.05	4.6364	0.	-3076.6
14857	10.958	4.7273	0.	-3102.5
14858	11.05	4.7273	5.e-002	-5.1382
14859	11.05	4.4545	0.	-3075.5
14860	10.958	4.5455	0.	-3101.3
14861	11.05	4.5455	5.e-002	-5.1406
14862	11.05	4.2727	0.	-3074.5
14863	10.958	4.3636	0.	-3100.3
14864	11.05	4.3636	5.e-002	-5.1427
14865	11.05	4.0909	0.	-3073.7
14866	10.958	4.1818	0.	-3099.3
14867	11.05	4.1818	5.e-002	-5.1445
14868	11.05	3.9091	0.	-3072.9
14869	10.958	4.	0.	-3098.5
14870	11.05	4.	5.e-002	-5.1461
14871	11.05	3.7273	0.	-3072.3
14872	10.958	3.8182	0.	-3097.8
14873	11.05	3.8182	5.e-002	-5.1474
14874	11.05	3.5455	0.	-3071.9
14875	10.958	3.6364	0.	-3097.3
14876	11.05	3.6364	5.e-002	-5.1484
14877	11.05	3.3636	0.	-3071.5
14878	10.958	3.4545	0.	-3096.9
14879	11.05	3.4545	5.e-002	-5.1492
14880	11.05	3.1818	0.	-3071.3
14881	10.958	3.2727	0.	-3096.6
14882	11.05	3.2727	5.e-002	-5.1497
14883	11.05	3.	0.	-3071.2
14884	10.958	3.0909	0.	-3096.5
14885	11.05	3.0909	5.e-002	-5.15
14886	11.05	2.8182	0.	-3071.3
14887	10.958	2.9091	0.	-3096.5
14888	11.05	2.9091	5.e-002	-5.15
14889	11.05	2.6364	0.	-3071.5
14890	10.958	2.7273	0.	-3096.6
14891	11.05	2.7273	5.e-002	-5.1497
14892	11.05	2.4545	0.	-3071.9
14893	10.958	2.5455	0.	-3096.9
14894	11.05	2.5455	5.e-002	-5.1492
14895	11.05	2.2727	0.	-3072.3
14896	10.958	2.3636	0.	-3097.3
14897	11.05	2.3636	5.e-002	-5.1484
14898	11.05	2.0909	0.	-3072.9
14899	10.958	2.1818	0.	-3097.8
14900	11.05	2.1818	5.e-002	-5.1475
14901	11.05	1.9091	0.	-3073.7
14902	10.958	2.	0.	-3098.5
14903	11.05	2.	5.e-002	-5.1462
14904	11.05	1.7273	0.	-3074.5
14905	10.958	1.8182	0.	-3099.3
14906	11.05	1.8182	5.e-002	-5.1446
14907	11.05	1.5455	0.	-3075.5
14908	10.958	1.6364	0.	-3100.3
14909	11.05	1.6364	5.e-002	-5.1428
14910	11.05	1.3636	0.	-3076.6
14911	10.958	1.4545	0.	-3101.3
14912	11.05	1.4545	5.e-002	-5.1407
14913	11.05	1.1818	0.	-3077.8
14914	10.958	1.2727	0.	-3102.5
14915	11.05	1.2727	5.e-002	-5.1383
14916	11.05	1.	0.	-3079.1
14917	10.958	1.0909	0.	-3103.8
14918	11.05	1.0909	5.e-002	-5.1356
14919	11.05	0.81818	0.	-3080.5
14920	10.958	0.90909	0.	-3105.2
14921	11.05	0.90909	5.e-002	-5.1325
14922	11.05	0.63636	0.	-3082.
14923	10.958	0.72727	0.	-3106.7
14924	11.05	0.72727	5.e-002	-5.128
14925	11.05	0.45455	0.	-3083.7
14926	10.958	0.54545	0.	-3108.3
14927	11.05	0.54545	5.e-002	-5.1049
14928	11.05	0.27273	0.	-3086.
14929	10.958	0.36364	0.	-3110.1
14930	11.05	0.36364	5.e-002	-4.8023
14931	10.958	0.18182	0.	-3113.1
14932	11.05	0.18182	5.e-002	-0.23102
14933	11.05	9.0909e-002	0.	-3084.2
14934	10.866	5.7273	0.	-3137.1
14935	10.774	5.8182	0.	-3164.3
14936	10.866	5.8182	5.e-002	-0.27614
14937	10.866	5.9091	0.	-3135.4
14938	10.866	5.5455	0.	-3134.7
14939	10.774	5.6364	0.	-3161.2
14940	10.866	5.6364	5.e-002	-4.8282
14941	10.866	5.3636	0.	-3132.9
14942	10.774	5.4545	0.	-3159.3
14943	10.866	5.4545	5.e-002	-5.1301
14944	10.866	5.1818	0.	-3131.4
14945	10.774	5.2727	0.	-3157.7
14946	10.866	5.2727	5.e-002	-5.1534
14947	10.866	5.	0.	-3129.9
14948	10.774	5.0909	0.	-3156.1
14949	10.866	5.0909	5.e-002	-5.1582
14950	10.866	4.8182	0.	-3128.5
14951	10.774	4.9091	0.	-3154.7
14952	10.866	4.9091	5.e-002	-5.1614
14953	10.866	4.6364	0.	-3127.2
14954	10.774	4.7273	0.	-3153.3
14955	10.866	4.7273	5.e-002	-5.1643
14956	10.866	4.4545	0.	-3126.1
14957	10.774	4.5455	0.	-3152.1
14958	10.866	4.5455	5.e-002	-5.1668
14959	10.866	4.2727	0.	-3125.1
14960	10.774	4.3636	0.	-3151.
14961	10.866	4.3636	5.e-002	-5.169
14962	10.866	4.0909	0.	-3124.2
14963	10.774	4.1818	0.	-3150.
14964	10.866	4.1818	5.e-002	-5.171
14965	10.866	3.9091	0.	-3123.4
14966	10.774	4.	0.	-3149.1
14967	10.866	4.	5.e-002	-5.1726
14968	10.866	3.7273	0.	-3122.8
14969	10.774	3.8182	0.	-3148.4
14970	10.866	3.8182	5.e-002	-5.174
14971	10.866	3.5455	0.	-3122.3
14972	10.774	3.6364	0.	-3147.8
14973	10.866	3.6364	5.e-002	-5.1751
14974	10.866	3.3636	0.	-3121.9
14975	10.774	3.4545	0.	-3147.4
14976	10.866	3.4545	5.e-002	-5.1758
14977	10.866	3.1818	0.	-3121.7
14978	10.774	3.2727	0.	-3147.1
14979	10.866	3.2727	5.e-002	-5.1764
14980	10.866	3.	0.	-3121.7
14981	10.774	3.0909	0.	-3147.
14982	10.866	3.0909	5.e-002	-5.1766
14983	10.866	2.8182	0.	-3121.7
14984	10.774	2.9091	0.	-3147.
14985	10.866	2.9091	5.e-002	-5.1767
14986	10.866	2.6364	0.	-3121.9
14987	10.774	2.7273	0.	-3147.1
14988	10.866	2.7273	5.e-002	-5.1764
14989	10.866	2.4545	0.	-3122.3
14990	10.774	2.5455	0.	-3147.4
14991	10.866	2.5455	5.e-002	-5.1759
14992	10.866	2.2727	0.	-3122.8
14993	10.774	2.3636	0.	-3147.8
14994	10.866	2.3636	5.e-002	-5.1751
14995	10.866	2.0909	0.	-3123.4
14996	10.774	2.1818	0.	-3148.4
14997	10.866	2.1818	5.e-002	-5.174
14998	10.866	1.9091	0.	-3124.2
14999	10.774	2.	0.	-3149.1
15000	10.866	2.	5.e-002	-5.1727
15001	10.866	1.7273	0.	-3125.1
15002	10.774	1.8182	0.	-3150.
15003	10.866	1.8182	5.e-002	-5.171
15004	10.866	1.5455	0.	-3126.1
15005	10.774	1.6364	0.	-3151.
15006	10.866	1.6364	5.e-002	-5.1691
15007	10.866	1.3636	0.	-3127.2
15008	10.774	1.4545	0.	-3152.1
15009	10.866	1.4545	5.e-002	-5.1669
15010	10.866	1.1818	0.	-3128.5
15011	10.774	1.2727	0.	-3153.3
15012	10.866	1.2727	5.e-002	-5.1644
15013	10.866	1.	0.	-3129.9
15014	10.774	1.0909	0.	-3154.7
15015	10.866	1.0909	5.e-002	-5.1615
15016	10.866	0.81818	0.	-3131.4
15017	10.774	0.90909	0.	-3156.1
15018	10.866	0.90909	5.e-002	-5.1582
15019	10.866	0.63636	0.	-3132.9
15020	10.774	0.72727	0.	-3157.7
15021	10.866	0.72727	5.e-002	-5.1534
15022	10.866	0.45455	0.	-3134.7
15023	10.774	0.54545	0.	-3159.3
15024	10.866	0.54545	5.e-002	-5.1302
15025	10.866	0.27273	0.	-3137.1
15026	10.774	0.36364	0.	-3161.2
15027	10.866	0.36364	5.e-002	-4.8283
15028	10.774	0.18182	0.	-3164.3
15029	10.866	0.18182	5.e-002	-0.27625
15030	10.866	9.0909e-002	0.	-3135.4
15031	10.682	5.7273	0.	-3188.3
15032	10.59	5.8182	0.	-3215.7
15033	10.682	5.8182	5.e-002	-0.32555
15034	10.682	5.9091	0.	-3186.7
15035	10.682	5.5455	0.	-3185.8
15036	10.59	5.6364	0.	-3212.5
15037	10.682	5.6364	5.e-002	-4.855
15038	10.682	5.3636	0.	-3184.1
15039	10.59	5.4545	0.	-3210.6
15040	10.682	5.4545	5.e-002	-5.1559
15041	10.682	5.1818	0.	-3182.4
15042	10.59	5.2727	0.	-3208.9
15043	10.682	5.2727	5.e-002	-5.1794
15044	10.682	5.	0.	-3180.9
15045	10.59	5.0909	0.	-3207.2
15046	10.682	5.0909	5.e-002	-5.1844
15047	10.682	4.8182	0.	-3179.4
15048	10.59	4.9091	0.	-3205.7
15049	10.682	4.9091	5.e-002	-5.1878
15050	10.682	4.6364	0.	-3178.1
15051	10.59	4.7273	0.	-3204.3
15052	10.682	4.7273	5.e-002	-5.1909
15053	10.682	4.4545	0.	-3176.9
15054	10.59	4.5455	0.	-3203.
15055	10.682	4.5455	5.e-002	-5.1936
15056	10.682	4.2727	0.	-3175.8
15057	10.59	4.3636	0.	-3201.8
15058	10.682	4.3636	5.e-002	-5.1959
15059	10.682	4.0909	0.	-3174.9
15060	10.59	4.1818	0.	-3200.8
15061	10.682	4.1818	5.e-002	-5.1979
15062	10.682	3.9091	0.	-3174.1
15063	10.59	4.	0.	-3199.9
15064	10.682	4.	5.e-002	-5.1997
15065	10.682	3.7273	0.	-3173.4
15066	10.59	3.8182	0.	-3199.1
15067	10.682	3.8182	5.e-002	-5.2011
15068	10.682	3.5455	0.	-3172.9
15069	10.59	3.6364	0.	-3198.5
15070	10.682	3.6364	5.e-002	-5.2022
15071	10.682	3.3636	0.	-3172.5
15072	10.59	3.4545	0.	-3198.1
15073	10.682	3.4545	5.e-002	-5.2031
15074	10.682	3.1818	0.	-3172.3
15075	10.59	3.2727	0.	-3197.8
15076	10.682	3.2727	5.e-002	-5.2036
15077	10.682	3.	0.	-3172.2
15078	10.59	3.0909	0.	-3197.6
15079	10.682	3.0909	5.e-002	-5.2039
15080	10.682	2.8182	0.	-3172.3
15081	10.59	2.9091	0.	-3197.6
15082	10.682	2.9091	5.e-002	-5.2039
15083	10.682	2.6364	0.	-3172.5
15084	10.59	2.7273	0.	-3197.8
15085	10.682	2.7273	5.e-002	-5.2036
15086	10.682	2.4545	0.	-3172.9
15087	10.59	2.5455	0.	-3198.1
15088	10.682	2.5455	5.e-002	-5.2031
15089	10.682	2.2727	0.	-3173.4
15090	10.59	2.3636	0.	-3198.5
15091	10.682	2.3636	5.e-002	-5.2023
15092	10.682	2.0909	0.	-3174.1
15093	10.59	2.1818	0.	-3199.1
15094	10.682	2.1818	5.e-002	-5.2011
15095	10.682	1.9091	0.	-3174.9
15096	10.59	2.	0.	-3199.9
15097	10.682	2.	5.e-002	-5.1997
15098	10.682	1.7273	0.	-3175.8
15099	10.59	1.8182	0.	-3200.8
15100	10.682	1.8182	5.e-002	-5.198
15101	10.682	1.5455	0.	-3176.9
15102	10.59	1.6364	0.	-3201.8
15103	10.682	1.6364	5.e-002	-5.196
15104	10.682	1.3636	0.	-3178.1
15105	10.59	1.4545	0.	-3203.
15106	10.682	1.4545	5.e-002	-5.1937
15107	10.682	1.1818	0.	-3179.4
15108	10.59	1.2727	0.	-3204.3
15109	10.682	1.2727	5.e-002	-5.191
15110	10.682	1.	0.	-3180.9
15111	10.59	1.0909	0.	-3205.7
15112	10.682	1.0909	5.e-002	-5.188
15113	10.682	0.81818	0.	-3182.4
15114	10.59	0.90909	0.	-3207.2
15115	10.682	0.90909	5.e-002	-5.1845
15116	10.682	0.63636	0.	-3184.1
15117	10.59	0.72727	0.	-3208.9
15118	10.682	0.72727	5.e-002	-5.1795
15119	10.682	0.45455	0.	-3185.8
15120	10.59	0.54545	0.	-3210.6
15121	10.682	0.54545	5.e-002	-5.156
15122	10.682	0.27273	0.	-3188.3
15123	10.59	0.36364	0.	-3212.5
15124	10.682	0.36364	5.e-002	-4.8551
15125	10.59	0.18182	0.	-3215.7
15126	10.682	0.18182	5.e-002	-0.32567
15127	10.682	9.0909e-002	0.	-3186.7
15128	10.498	5.7273	0.	-3239.8
15129	10.405	5.8182	0.	-3267.3
15130	10.498	5.8182	5.e-002	-0.37964
15131	10.498	5.9091	0.	-3238.4
15132	10.498	5.5455	0.	-3237.3
15133	10.405	5.6364	0.	-3264.1
15134	10.498	5.6364	5.e-002	-4.8827
15135	10.498	5.3636	0.	-3235.4
15136	10.405	5.4545	0.	-3262.1
15137	10.498	5.4545	5.e-002	-5.1825
15138	10.498	5.1818	0.	-3233.7
15139	10.405	5.2727	0.	-3260.3
15140	10.498	5.2727	5.e-002	-5.2061
15141	10.498	5.	0.	-3232.1
15142	10.405	5.0909	0.	-3258.6
15143	10.498	5.0909	5.e-002	-5.2114
15144	10.498	4.8182	0.	-3230.6
15145	10.405	4.9091	0.	-3257.
15146	10.498	4.9091	5.e-002	-5.215
15147	10.498	4.6364	0.	-3229.2
15148	10.405	4.7273	0.	-3255.5
15149	10.498	4.7273	5.e-002	-5.2183
15150	10.498	4.4545	0.	-3227.9
15151	10.405	4.5455	0.	-3254.1
15152	10.498	4.5455	5.e-002	-5.2211
15153	10.498	4.2727	0.	-3226.8
15154	10.405	4.3636	0.	-3252.9
15155	10.498	4.3636	5.e-002	-5.2236
15156	10.498	4.0909	0.	-3225.8
15157	10.405	4.1818	0.	-3251.8
15158	10.498	4.1818	5.e-002	-5.2258
15159	10.498	3.9091	0.	-3224.9
15160	10.405	4.	0.	-3250.9
15161	10.498	4.	5.e-002	-5.2275
15162	10.498	3.7273	0.	-3224.2
15163	10.405	3.8182	0.	-3250.1
15164	10.498	3.8182	5.e-002	-5.229
15165	10.498	3.5455	0.	-3223.7
15166	10.405	3.6364	0.	-3249.4
15167	10.498	3.6364	5.e-002	-5.2302
15168	10.498	3.3636	0.	-3223.3
15169	10.405	3.4545	0.	-3248.9
15170	10.498	3.4545	5.e-002	-5.2311
15171	10.498	3.1818	0.	-3223.1
15172	10.405	3.2727	0.	-3248.6
15173	10.498	3.2727	5.e-002	-5.2317
15174	10.498	3.	0.	-3223.
15175	10.405	3.0909	0.	-3248.5
15176	10.498	3.0909	5.e-002	-5.2319
15177	10.498	2.8182	0.	-3223.1
15178	10.405	2.9091	0.	-3248.5
15179	10.498	2.9091	5.e-002	-5.232
15180	10.498	2.6364	0.	-3223.3
15181	10.405	2.7273	0.	-3248.6
15182	10.498	2.7273	5.e-002	-5.2317
15183	10.498	2.4545	0.	-3223.7
15184	10.405	2.5455	0.	-3248.9
15185	10.498	2.5455	5.e-002	-5.2311
15186	10.498	2.2727	0.	-3224.2
15187	10.405	2.3636	0.	-3249.4
15188	10.498	2.3636	5.e-002	-5.2303
15189	10.498	2.0909	0.	-3224.9
15190	10.405	2.1818	0.	-3250.1
15191	10.498	2.1818	5.e-002	-5.2291
15192	10.498	1.9091	0.	-3225.8
15193	10.405	2.	0.	-3250.9
15194	10.498	2.	5.e-002	-5.2276
15195	10.498	1.7273	0.	-3226.8
15196	10.405	1.8182	0.	-3251.8
15197	10.498	1.8182	5.e-002	-5.2258
15198	10.498	1.5455	0.	-3227.9
15199	10.405	1.6364	0.	-3252.9
15200	10.498	1.6364	5.e-002	-5.2237
15201	10.498	1.3636	0.	-3229.2
15202	10.405	1.4545	0.	-3254.1
15203	10.498	1.4545	5.e-002	-5.2212
15204	10.498	1.1818	0.	-3230.6
15205	10.405	1.2727	0.	-3255.5
15206	10.498	1.2727	5.e-002	-5.2184
15207	10.498	1.	0.	-3232.1
15208	10.405	1.0909	0.	-3257.
15209	10.498	1.0909	5.e-002	-5.2151
15210	10.498	0.81818	0.	-3233.7
15211	10.405	0.90909	0.	-3258.6
15212	10.498	0.90909	5.e-002	-5.2115
15213	10.498	0.63636	0.	-3235.4
15214	10.405	0.72727	0.	-3260.3
15215	10.498	0.72727	5.e-002	-5.2062
15216	10.498	0.45455	0.	-3237.3
15217	10.405	0.54545	0.	-3262.1
15218	10.498	0.54545	5.e-002	-5.1826
15219	10.498	0.27273	0.	-3239.8
15220	10.405	0.36364	0.	-3264.1
15221	10.498	0.36364	5.e-002	-4.8828
15222	10.405	0.18182	0.	-3267.3
15223	10.498	0.18182	5.e-002	-0.37975
15224	10.498	9.0909e-002	0.	-3238.4
15225	10.313	5.7273	0.	-3291.5
15226	10.221	5.8182	0.	-3319.1
15227	10.313	5.8182	5.e-002	-0.43867
15228	10.313	5.9091	0.	-3290.2
15229	10.313	5.5455	0.	-3288.9
15230	10.221	5.6364	0.	-3315.9
15231	10.313	5.6364	5.e-002	-4.9113
15232	10.313	5.3636	0.	-3287.
15233	10.221	5.4545	0.	-3313.8
15234	10.313	5.4545	5.e-002	-5.2098
15235	10.313	5.1818	0.	-3285.2
15236	10.221	5.2727	0.	-3311.9
15237	10.313	5.2727	5.e-002	-5.2336
15238	10.313	5.	0.	-3283.5
15239	10.221	5.0909	0.	-3310.1
15240	10.313	5.0909	5.e-002	-5.2391
15241	10.313	4.8182	0.	-3281.9
15242	10.221	4.9091	0.	-3308.4
15243	10.313	4.9091	5.e-002	-5.243
15244	10.313	4.6364	0.	-3280.4
15245	10.221	4.7273	0.	-3306.9
15246	10.313	4.7273	5.e-002	-5.2464
15247	10.313	4.4545	0.	-3279.1
15248	10.221	4.5455	0.	-3305.4
15249	10.313	4.5455	5.e-002	-5.2494
15250	10.313	4.2727	0.	-3277.9
15251	10.221	4.3636	0.	-3304.1
15252	10.313	4.3636	5.e-002	-5.2521
15253	10.313	4.0909	0.	-3276.9
15254	10.221	4.1818	0.	-3303.
15255	10.313	4.1818	5.e-002	-5.2543
15256	10.313	3.9091	0.	-3276.
15257	10.221	4.	0.	-3302.
15258	10.313	4.	5.e-002	-5.2562
15259	10.313	3.7273	0.	-3275.2
15260	10.221	3.8182	0.	-3301.2
15261	10.313	3.8182	5.e-002	-5.2577
15262	10.313	3.5455	0.	-3274.7
15263	10.221	3.6364	0.	-3300.5
15264	10.313	3.6364	5.e-002	-5.259
15265	10.313	3.3636	0.	-3274.2
15266	10.221	3.4545	0.	-3300.
15267	10.313	3.4545	5.e-002	-5.2599
15268	10.313	3.1818	0.	-3274.
15269	10.221	3.2727	0.	-3299.6
15270	10.313	3.2727	5.e-002	-5.2605
15271	10.313	3.	0.	-3273.9
15272	10.221	3.0909	0.	-3299.5
15273	10.313	3.0909	5.e-002	-5.2608
15274	10.313	2.8182	0.	-3274.
15275	10.221	2.9091	0.	-3299.5
15276	10.313	2.9091	5.e-002	-5.2608
15277	10.313	2.6364	0.	-3274.2
15278	10.221	2.7273	0.	-3299.6
15279	10.313	2.7273	5.e-002	-5.2605
15280	10.313	2.4545	0.	-3274.7
15281	10.221	2.5455	0.	-3300.
15282	10.313	2.5455	5.e-002	-5.2599
15283	10.313	2.2727	0.	-3275.2
15284	10.221	2.3636	0.	-3300.5
15285	10.313	2.3636	5.e-002	-5.259
15286	10.313	2.0909	0.	-3276.
15287	10.221	2.1818	0.	-3301.2
15288	10.313	2.1818	5.e-002	-5.2578
15289	10.313	1.9091	0.	-3276.9
15290	10.221	2.	0.	-3302.
15291	10.313	2.	5.e-002	-5.2563
15292	10.313	1.7273	0.	-3277.9
15293	10.221	1.8182	0.	-3303.
15294	10.313	1.8182	5.e-002	-5.2544
15295	10.313	1.5455	0.	-3279.1
15296	10.221	1.6364	0.	-3304.1
15297	10.313	1.6364	5.e-002	-5.2521
15298	10.313	1.3636	0.	-3280.4
15299	10.221	1.4545	0.	-3305.4
15300	10.313	1.4545	5.e-002	-5.2495
15301	10.313	1.1818	0.	-3281.9
15302	10.221	1.2727	0.	-3306.9
15303	10.313	1.2727	5.e-002	-5.2465
15304	10.313	1.	0.	-3283.5
15305	10.221	1.0909	0.	-3308.4
15306	10.313	1.0909	5.e-002	-5.2431
15307	10.313	0.81818	0.	-3285.2
15308	10.221	0.90909	0.	-3310.1
15309	10.313	0.90909	5.e-002	-5.2392
15310	10.313	0.63636	0.	-3287.
15311	10.221	0.72727	0.	-3311.9
15312	10.313	0.72727	5.e-002	-5.2337
15313	10.313	0.45455	0.	-3288.9
15314	10.221	0.54545	0.	-3313.8
15315	10.313	0.54545	5.e-002	-5.2099
15316	10.313	0.27273	0.	-3291.5
15317	10.221	0.36364	0.	-3315.9
15318	10.313	0.36364	5.e-002	-4.9115
15319	10.221	0.18182	0.	-3319.1
15320	10.313	0.18182	5.e-002	-0.43876
15321	10.313	9.0909e-002	0.	-3290.2
15322	10.129	5.7273	0.	-3343.4
15323	10.037	5.8182	0.	-3371.2
15324	10.129	5.8182	5.e-002	-0.5029
15325	10.129	5.9091	0.	-3342.4
15326	10.129	5.5455	0.	-3340.8
15327	10.037	5.6364	0.	-3367.9
15328	10.129	5.6364	5.e-002	-4.9409
15329	10.129	5.3636	0.	-3338.7
15330	10.037	5.4545	0.	-3365.7
15331	10.129	5.4545	5.e-002	-5.2377
15332	10.129	5.1818	0.	-3336.8
15333	10.037	5.2727	0.	-3363.8
15334	10.129	5.2727	5.e-002	-5.2617
15335	10.129	5.	0.	-3335.1
15336	10.037	5.0909	0.	-3361.9
15337	10.129	5.0909	5.e-002	-5.2675
15338	10.129	4.8182	0.	-3333.4
15339	10.037	4.9091	0.	-3360.1
15340	10.129	4.9091	5.e-002	-5.2716
15341	10.129	4.6364	0.	-3331.9
15342	10.037	4.7273	0.	-3358.5
15343	10.129	4.7273	5.e-002	-5.2753
15344	10.129	4.4545	0.	-3330.5
15345	10.037	4.5455	0.	-3356.9
15346	10.129	4.5455	5.e-002	-5.2785
15347	10.129	4.2727	0.	-3329.2
15348	10.037	4.3636	0.	-3355.6
15349	10.129	4.3636	5.e-002	-5.2812
15350	10.129	4.0909	0.	-3328.1
15351	10.037	4.1818	0.	-3354.4
15352	10.129	4.1818	5.e-002	-5.2836
15353	10.129	3.9091	0.	-3327.2
15354	10.037	4.	0.	-3353.3
15355	10.129	4.	5.e-002	-5.2855
15356	10.129	3.7273	0.	-3326.4
15357	10.037	3.8182	0.	-3352.4
15358	10.129	3.8182	5.e-002	-5.2872
15359	10.129	3.5455	0.	-3325.8
15360	10.037	3.6364	0.	-3351.7
15361	10.129	3.6364	5.e-002	-5.2884
15362	10.129	3.3636	0.	-3325.3
15363	10.037	3.4545	0.	-3351.2
15364	10.129	3.4545	5.e-002	-5.2894
15365	10.129	3.1818	0.	-3325.1
15366	10.037	3.2727	0.	-3350.8
15367	10.129	3.2727	5.e-002	-5.29
15368	10.129	3.	0.	-3325.
15369	10.037	3.0909	0.	-3350.6
15370	10.129	3.0909	5.e-002	-5.2903
15371	10.129	2.8182	0.	-3325.1
15372	10.037	2.9091	0.	-3350.6
15373	10.129	2.9091	5.e-002	-5.2904
15374	10.129	2.6364	0.	-3325.3
15375	10.037	2.7273	0.	-3350.8
15376	10.129	2.7273	5.e-002	-5.29
15377	10.129	2.4545	0.	-3325.8
15378	10.037	2.5455	0.	-3351.2
15379	10.129	2.5455	5.e-002	-5.2894
15380	10.129	2.2727	0.	-3326.4
15381	10.037	2.3636	0.	-3351.7
15382	10.129	2.3636	5.e-002	-5.2885
15383	10.129	2.0909	0.	-3327.2
15384	10.037	2.1818	0.	-3352.4
15385	10.129	2.1818	5.e-002	-5.2872
15386	10.129	1.9091	0.	-3328.1
15387	10.037	2.	0.	-3353.3
15388	10.129	2.	5.e-002	-5.2856
15389	10.129	1.7273	0.	-3329.2
15390	10.037	1.8182	0.	-3354.4
15391	10.129	1.8182	5.e-002	-5.2836
15392	10.129	1.5455	0.	-3330.5
15393	10.037	1.6364	0.	-3355.6
15394	10.129	1.6364	5.e-002	-5.2813
15395	10.129	1.3636	0.	-3331.9
15396	10.037	1.4545	0.	-3356.9
15397	10.129	1.4545	5.e-002	-5.2785
15398	10.129	1.1818	0.	-3333.4
15399	10.037	1.2727	0.	-3358.5
15400	10.129	1.2727	5.e-002	-5.2754
15401	10.129	1.	0.	-3335.1
15402	10.037	1.0909	0.	-3360.1
15403	10.129	1.0909	5.e-002	-5.2718
15404	10.129	0.81818	0.	-3336.8
15405	10.037	0.90909	0.	-3361.9
15406	10.129	0.90909	5.e-002	-5.2676
15407	10.129	0.63636	0.	-3338.7
15408	10.037	0.72727	0.	-3363.8
15409	10.129	0.72727	5.e-002	-5.2619
15410	10.129	0.45455	0.	-3340.8
15411	10.037	0.54545	0.	-3365.7
15412	10.129	0.54545	5.e-002	-5.2379
15413	10.129	0.27273	0.	-3343.4
15414	10.037	0.36364	0.	-3367.9
15415	10.129	0.36364	5.e-002	-4.9411
15416	10.037	0.18182	0.	-3371.2
15417	10.129	0.18182	5.e-002	-0.50301
15418	10.129	9.0909e-002	0.	-3342.4
15419	9.945	5.7273	0.	-3395.6
15420	9.8529	5.8182	0.	-3423.6
15421	9.945	5.8182	5.e-002	-0.57294
15422	9.945	5.9091	0.	-3394.7
15423	9.945	5.5455	0.	-3392.9
15424	9.8529	5.6364	0.	-3420.2
15425	9.945	5.6364	5.e-002	-4.9717
15426	9.945	5.3636	0.	-3390.7
15427	9.8529	5.4545	0.	-3417.9
15428	9.945	5.4545	5.e-002	-5.2667
15429	9.945	5.1818	0.	-3388.8
15430	9.8529	5.2727	0.	-3415.8
15431	9.945	5.2727	5.e-002	-5.2909
15432	9.945	5.	0.	-3386.9
15433	9.8529	5.0909	0.	-3413.8
15434	9.945	5.0909	5.e-002	-5.2969
15435	9.945	4.8182	0.	-3385.1
15436	9.8529	4.9091	0.	-3412.
15437	9.945	4.9091	5.e-002	-5.3013
15438	9.945	4.6364	0.	-3383.5
15439	9.8529	4.7273	0.	-3410.2
15440	9.945	4.7273	5.e-002	-5.3051
15441	9.945	4.4545	0.	-3382.
15442	9.8529	4.5455	0.	-3408.6
15443	9.945	4.5455	5.e-002	-5.3085
15444	9.945	4.2727	0.	-3380.7
15445	9.8529	4.3636	0.	-3407.2
15446	9.945	4.3636	5.e-002	-5.3114
15447	9.945	4.0909	0.	-3379.5
15448	9.8529	4.1818	0.	-3405.9
15449	9.945	4.1818	5.e-002	-5.3138
15450	9.945	3.9091	0.	-3378.5
15451	9.8529	4.	0.	-3404.8
15452	9.945	4.	5.e-002	-5.3159
15453	9.945	3.7273	0.	-3377.7
15454	9.8529	3.8182	0.	-3403.9
15455	9.945	3.8182	5.e-002	-5.3176
15456	9.945	3.5455	0.	-3377.1
15457	9.8529	3.6364	0.	-3403.1
15458	9.945	3.6364	5.e-002	-5.3189
15459	9.945	3.3636	0.	-3376.6
15460	9.8529	3.4545	0.	-3402.5
15461	9.945	3.4545	5.e-002	-5.3198
15462	9.945	3.1818	0.	-3376.3
15463	9.8529	3.2727	0.	-3402.1
15464	9.945	3.2727	5.e-002	-5.3205
15465	9.945	3.	0.	-3376.2
15466	9.8529	3.0909	0.	-3401.9
15467	9.945	3.0909	5.e-002	-5.3208
15468	9.945	2.8182	0.	-3376.3
15469	9.8529	2.9091	0.	-3401.9
15470	9.945	2.9091	5.e-002	-5.3208
15471	9.945	2.6364	0.	-3376.6
15472	9.8529	2.7273	0.	-3402.1
15473	9.945	2.7273	5.e-002	-5.3205
15474	9.945	2.4545	0.	-3377.1
15475	9.8529	2.5455	0.	-3402.5
15476	9.945	2.5455	5.e-002	-5.3199
15477	9.945	2.2727	0.	-3377.7
15478	9.8529	2.3636	0.	-3403.1
15479	9.945	2.3636	5.e-002	-5.3189
15480	9.945	2.0909	0.	-3378.5
15481	9.8529	2.1818	0.	-3403.9
15482	9.945	2.1818	5.e-002	-5.3176
15483	9.945	1.9091	0.	-3379.5
15484	9.8529	2.	0.	-3404.8
15485	9.945	2.	5.e-002	-5.3159
15486	9.945	1.7273	0.	-3380.7
15487	9.8529	1.8182	0.	-3405.9
15488	9.945	1.8182	5.e-002	-5.3139
15489	9.945	1.5455	0.	-3382.
15490	9.8529	1.6364	0.	-3407.2
15491	9.945	1.6364	5.e-002	-5.3114
15492	9.945	1.3636	0.	-3383.5
15493	9.8529	1.4545	0.	-3408.6
15494	9.945	1.4545	5.e-002	-5.3085
15495	9.945	1.1818	0.	-3385.1
15496	9.8529	1.2727	0.	-3410.2
15497	9.945	1.2727	5.e-002	-5.3052
15498	9.945	1.	0.	-3386.9
15499	9.8529	1.0909	0.	-3412.
15500	9.945	1.0909	5.e-002	-5.3014
15501	9.945	0.81818	0.	-3388.8
15502	9.8529	0.90909	0.	-3413.8
15503	9.945	0.90909	5.e-002	-5.297
15504	9.945	0.63636	0.	-3390.7
15505	9.8529	0.72727	0.	-3415.8
15506	9.945	0.72727	5.e-002	-5.291
15507	9.945	0.45455	0.	-3392.9
15508	9.8529	0.54545	0.	-3417.9
15509	9.945	0.54545	5.e-002	-5.2668
15510	9.945	0.27273	0.	-3395.6
15511	9.8529	0.36364	0.	-3420.2
15512	9.945	0.36364	5.e-002	-4.9719
15513	9.8529	0.18182	0.	-3423.6
15514	9.945	0.18182	5.e-002	-0.57307
15515	9.945	9.0909e-002	0.	-3394.7
15516	9.7608	5.7273	0.	-3448.
15517	9.6687	5.8182	0.	-3476.1
15518	9.7608	5.8182	5.e-002	-0.64919
15519	9.7608	5.9091	0.	-3447.3
15520	9.7608	5.5455	0.	-3445.2
15521	9.6687	5.6364	0.	-3472.7
15522	9.7608	5.6364	5.e-002	-5.0038
15523	9.7608	5.3636	0.	-3443.
15524	9.6687	5.4545	0.	-3470.3
15525	9.7608	5.4545	5.e-002	-5.2966
15526	9.7608	5.1818	0.	-3440.9
15527	9.6687	5.2727	0.	-3468.1
15528	9.7608	5.2727	5.e-002	-5.321
15529	9.7608	5.	0.	-3438.9
15530	9.6687	5.0909	0.	-3466.
15531	9.7608	5.0909	5.e-002	-5.3273
15532	9.7608	4.8182	0.	-3437.1
15533	9.6687	4.9091	0.	-3464.
15534	9.7608	4.9091	5.e-002	-5.3319
15535	9.7608	4.6364	0.	-3435.3
15536	9.6687	4.7273	0.	-3462.2
15537	9.7608	4.7273	5.e-002	-5.336
15538	9.7608	4.4545	0.	-3433.8
15539	9.6687	4.5455	0.	-3460.5
15540	9.7608	4.5455	5.e-002	-5.3394
15541	9.7608	4.2727	0.	-3432.4
15542	9.6687	4.3636	0.	-3459.
15543	9.7608	4.3636	5.e-002	-5.3425
15544	9.7608	4.0909	0.	-3431.1
15545	9.6687	4.1818	0.	-3457.6
15546	9.7608	4.1818	5.e-002	-5.3451
15547	9.7608	3.9091	0.	-3430.1
15548	9.6687	4.	0.	-3456.5
15549	9.7608	4.	5.e-002	-5.3472
15550	9.7608	3.7273	0.	-3429.2
15551	9.6687	3.8182	0.	-3455.5
15552	9.7608	3.8182	5.e-002	-5.349
15553	9.7608	3.5455	0.	-3428.5
15554	9.6687	3.6364	0.	-3454.6
15555	9.7608	3.6364	5.e-002	-5.3503
15556	9.7608	3.3636	0.	-3428.
15557	9.6687	3.4545	0.	-3454.
15558	9.7608	3.4545	5.e-002	-5.3513
15559	9.7608	3.1818	0.	-3427.7
15560	9.6687	3.2727	0.	-3453.6
15561	9.7608	3.2727	5.e-002	-5.352
15562	9.7608	3.	0.	-3427.6
15563	9.6687	3.0909	0.	-3453.4
15564	9.7608	3.0909	5.e-002	-5.3523
15565	9.7608	2.8182	0.	-3427.7
15566	9.6687	2.9091	0.	-3453.4
15567	9.7608	2.9091	5.e-002	-5.3523
15568	9.7608	2.6364	0.	-3428.
15569	9.6687	2.7273	0.	-3453.6
15570	9.7608	2.7273	5.e-002	-5.352
15571	9.7608	2.4545	0.	-3428.5
15572	9.6687	2.5455	0.	-3454.
15573	9.7608	2.5455	5.e-002	-5.3513
15574	9.7608	2.2727	0.	-3429.2
15575	9.6687	2.3636	0.	-3454.6
15576	9.7608	2.3636	5.e-002	-5.3504
15577	9.7608	2.0909	0.	-3430.1
15578	9.6687	2.1818	0.	-3455.5
15579	9.7608	2.1818	5.e-002	-5.349
15580	9.7608	1.9091	0.	-3431.1
15581	9.6687	2.	0.	-3456.5
15582	9.7608	2.	5.e-002	-5.3473
15583	9.7608	1.7273	0.	-3432.4
15584	9.6687	1.8182	0.	-3457.6
15585	9.7608	1.8182	5.e-002	-5.3451
15586	9.7608	1.5455	0.	-3433.8
15587	9.6687	1.6364	0.	-3459.
15588	9.7608	1.6364	5.e-002	-5.3426
15589	9.7608	1.3636	0.	-3435.3
15590	9.6687	1.4545	0.	-3460.5
15591	9.7608	1.4545	5.e-002	-5.3396
15592	9.7608	1.1818	0.	-3437.1
15593	9.6687	1.2727	0.	-3462.2
15594	9.7608	1.2727	5.e-002	-5.3361
15595	9.7608	1.	0.	-3438.9
15596	9.6687	1.0909	0.	-3464.
15597	9.7608	1.0909	5.e-002	-5.332
15598	9.7608	0.81818	0.	-3440.9
15599	9.6687	0.90909	0.	-3466.
15600	9.7608	0.90909	5.e-002	-5.3274
15601	9.7608	0.63636	0.	-3443.
15602	9.6687	0.72727	0.	-3468.1
15603	9.7608	0.72727	5.e-002	-5.3211
15604	9.7608	0.45455	0.	-3445.2
15605	9.6687	0.54545	0.	-3470.3
15606	9.7608	0.54545	5.e-002	-5.2967
15607	9.7608	0.27273	0.	-3448.
15608	9.6687	0.36364	0.	-3472.7
15609	9.7608	0.36364	5.e-002	-5.004
15610	9.6687	0.18182	0.	-3476.1
15611	9.7608	0.18182	5.e-002	-0.64931
15612	9.7608	9.0909e-002	0.	-3447.3
15613	9.5767	5.7273	0.	-3500.7
15614	9.4846	5.8182	0.	-3529.
15615	9.5767	5.8182	5.e-002	-0.73208
15616	9.5767	5.9091	0.	-3500.2
15617	9.5767	5.5455	0.	-3497.8
15618	9.4846	5.6364	0.	-3525.4
15619	9.5767	5.6364	5.e-002	-5.0373
15620	9.5767	5.3636	0.	-3495.4
15621	9.4846	5.4545	0.	-3522.9
15622	9.5767	5.4545	5.e-002	-5.3275
15623	9.5767	5.1818	0.	-3493.2
15624	9.4846	5.2727	0.	-3520.6
15625	9.5767	5.2727	5.e-002	-5.3521
15626	9.5767	5.	0.	-3491.1
15627	9.4846	5.0909	0.	-3518.4
15628	9.5767	5.0909	5.e-002	-5.3587
15629	9.5767	4.8182	0.	-3489.2
15630	9.4846	4.9091	0.	-3516.3
15631	9.5767	4.9091	5.e-002	-5.3636
15632	9.5767	4.6364	0.	-3487.4
15633	9.4846	4.7273	0.	-3514.4
15634	9.5767	4.7273	5.e-002	-5.3678
15635	9.5767	4.4545	0.	-3485.7
15636	9.4846	4.5455	0.	-3512.6
15637	9.5767	4.5455	5.e-002	-5.3715
15638	9.5767	4.2727	0.	-3484.2
15639	9.4846	4.3636	0.	-3511.
15640	9.5767	4.3636	5.e-002	-5.3747
15641	9.5767	4.0909	0.	-3482.9
15642	9.4846	4.1818	0.	-3509.5
15643	9.5767	4.1818	5.e-002	-5.3773
15644	9.5767	3.9091	0.	-3481.8
15645	9.4846	4.	0.	-3508.3
15646	9.5767	4.	5.e-002	-5.3795
15647	9.5767	3.7273	0.	-3480.9
15648	9.4846	3.8182	0.	-3507.2
15649	9.5767	3.8182	5.e-002	-5.3813
15650	9.5767	3.5455	0.	-3480.1
15651	9.4846	3.6364	0.	-3506.4
15652	9.5767	3.6364	5.e-002	-5.3827
15653	9.5767	3.3636	0.	-3479.6
15654	9.4846	3.4545	0.	-3505.7
15655	9.5767	3.4545	5.e-002	-5.3838
15656	9.5767	3.1818	0.	-3479.3
15657	9.4846	3.2727	0.	-3505.3
15658	9.5767	3.2727	5.e-002	-5.3845
15659	9.5767	3.	0.	-3479.2
15660	9.4846	3.0909	0.	-3505.1
15661	9.5767	3.0909	5.e-002	-5.3848
15662	9.5767	2.8182	0.	-3479.3
15663	9.4846	2.9091	0.	-3505.1
15664	9.5767	2.9091	5.e-002	-5.3848
15665	9.5767	2.6364	0.	-3479.6
15666	9.4846	2.7273	0.	-3505.3
15667	9.5767	2.7273	5.e-002	-5.3845
15668	9.5767	2.4545	0.	-3480.1
15669	9.4846	2.5455	0.	-3505.7
15670	9.5767	2.5455	5.e-002	-5.3838
15671	9.5767	2.2727	0.	-3480.9
15672	9.4846	2.3636	0.	-3506.4
15673	9.5767	2.3636	5.e-002	-5.3828
15674	9.5767	2.0909	0.	-3481.8
15675	9.4846	2.1818	0.	-3507.2
15676	9.5767	2.1818	5.e-002	-5.3814
15677	9.5767	1.9091	0.	-3482.9
15678	9.4846	2.	0.	-3508.3
15679	9.5767	2.	5.e-002	-5.3796
15680	9.5767	1.7273	0.	-3484.2
15681	9.4846	1.8182	0.	-3509.5
15682	9.5767	1.8182	5.e-002	-5.3774
15683	9.5767	1.5455	0.	-3485.7
15684	9.4846	1.6364	0.	-3511.
15685	9.5767	1.6364	5.e-002	-5.3747
15686	9.5767	1.3636	0.	-3487.4
15687	9.4846	1.4545	0.	-3512.6
15688	9.5767	1.4545	5.e-002	-5.3716
15689	9.5767	1.1818	0.	-3489.2
15690	9.4846	1.2727	0.	-3514.4
15691	9.5767	1.2727	5.e-002	-5.3679
15692	9.5767	1.	0.	-3491.1
15693	9.4846	1.0909	0.	-3516.3
15694	9.5767	1.0909	5.e-002	-5.3637
15695	9.5767	0.81818	0.	-3493.2
15696	9.4846	0.90909	0.	-3518.4
15697	9.5767	0.90909	5.e-002	-5.3588
15698	9.5767	0.63636	0.	-3495.4
15699	9.4846	0.72727	0.	-3520.6
15700	9.5767	0.72727	5.e-002	-5.3522
15701	9.5767	0.45455	0.	-3497.8
15702	9.4846	0.54545	0.	-3522.9
15703	9.5767	0.54545	5.e-002	-5.3276
15704	9.5767	0.27273	0.	-3500.7
15705	9.4846	0.36364	0.	-3525.4
15706	9.5767	0.36364	5.e-002	-5.0374
15707	9.4846	0.18182	0.	-3529.
15708	9.5767	0.18182	5.e-002	-0.73221
15709	9.5767	9.0909e-002	0.	-3500.2
15710	9.3925	5.7273	0.	-3553.6
15711	9.3004	5.8182	0.	-3582.1
15712	9.3925	5.8182	5.e-002	-0.82219
15713	9.3925	5.9091	0.	-3553.3
15714	9.3925	5.5455	0.	-3550.6
15715	9.3004	5.6364	0.	-3578.4
15716	9.3925	5.6364	5.e-002	-5.0722
15717	9.3925	5.3636	0.	-3548.1
15718	9.3004	5.4545	0.	-3575.8
15719	9.3925	5.4545	5.e-002	-5.3596
15720	9.3925	5.1818	0.	-3545.8
15721	9.3004	5.2727	0.	-3573.3
15722	9.3925	5.2727	5.e-002	-5.3843
15723	9.3925	5.	0.	-3543.6
15724	9.3004	5.0909	0.	-3571.
15725	9.3925	5.0909	5.e-002	-5.3913
15726	9.3925	4.8182	0.	-3541.5
15727	9.3004	4.9091	0.	-3568.8
15728	9.3925	4.9091	5.e-002	-5.3964
15729	9.3925	4.6364	0.	-3539.6
15730	9.3004	4.7273	0.	-3566.7
15731	9.3925	4.7273	5.e-002	-5.4009
15732	9.3925	4.4545	0.	-3537.8
15733	9.3004	4.5455	0.	-3564.9
15734	9.3925	4.5455	5.e-002	-5.4047
15735	9.3925	4.2727	0.	-3536.3
15736	9.3004	4.3636	0.	-3563.1
15737	9.3925	4.3636	5.e-002	-5.408
15738	9.3925	4.0909	0.	-3534.9
15739	9.3004	4.1818	0.	-3561.6
15740	9.3925	4.1818	5.e-002	-5.4108
15741	9.3925	3.9091	0.	-3533.7
15742	9.3004	4.	0.	-3560.3
15743	9.3925	4.	5.e-002	-5.4131
15744	9.3925	3.7273	0.	-3532.7
15745	9.3004	3.8182	0.	-3559.1
15746	9.3925	3.8182	5.e-002	-5.4149
15747	9.3925	3.5455	0.	-3531.9
15748	9.3004	3.6364	0.	-3558.2
15749	9.3925	3.6364	5.e-002	-5.4163
15750	9.3925	3.3636	0.	-3531.4
15751	9.3004	3.4545	0.	-3557.5
15752	9.3925	3.4545	5.e-002	-5.4174
15753	9.3925	3.1818	0.	-3531.
15754	9.3004	3.2727	0.	-3557.1
15755	9.3925	3.2727	5.e-002	-5.4181
15756	9.3925	3.	0.	-3530.9
15757	9.3004	3.0909	0.	-3556.8
15758	9.3925	3.0909	5.e-002	-5.4184
15759	9.3925	2.8182	0.	-3531.
15760	9.3004	2.9091	0.	-3556.8
15761	9.3925	2.9091	5.e-002	-5.4184
15762	9.3925	2.6364	0.	-3531.4
15763	9.3004	2.7273	0.	-3557.1
15764	9.3925	2.7273	5.e-002	-5.4181
15765	9.3925	2.4545	0.	-3531.9
15766	9.3004	2.5455	0.	-3557.5
15767	9.3925	2.5455	5.e-002	-5.4174
15768	9.3925	2.2727	0.	-3532.7
15769	9.3004	2.3636	0.	-3558.2
15770	9.3925	2.3636	5.e-002	-5.4163
15771	9.3925	2.0909	0.	-3533.7
15772	9.3004	2.1818	0.	-3559.1
15773	9.3925	2.1818	5.e-002	-5.4149
15774	9.3925	1.9091	0.	-3534.9
15775	9.3004	2.	0.	-3560.3
15776	9.3925	2.	5.e-002	-5.4131
15777	9.3925	1.7273	0.	-3536.3
15778	9.3004	1.8182	0.	-3561.6
15779	9.3925	1.8182	5.e-002	-5.4108
15780	9.3925	1.5455	0.	-3537.8
15781	9.3004	1.6364	0.	-3563.1
15782	9.3925	1.6364	5.e-002	-5.4081
15783	9.3925	1.3636	0.	-3539.6
15784	9.3004	1.4545	0.	-3564.9
15785	9.3925	1.4545	5.e-002	-5.4048
15786	9.3925	1.1818	0.	-3541.5
15787	9.3004	1.2727	0.	-3566.7
15788	9.3925	1.2727	5.e-002	-5.401
15789	9.3925	1.	0.	-3543.6
15790	9.3004	1.0909	0.	-3568.8
15791	9.3925	1.0909	5.e-002	-5.3966
15792	9.3925	0.81818	0.	-3545.8
15793	9.3004	0.90909	0.	-3571.
15794	9.3925	0.90909	5.e-002	-5.3914
15795	9.3925	0.63636	0.	-3548.1
15796	9.3004	0.72727	0.	-3573.3
15797	9.3925	0.72727	5.e-002	-5.3845
15798	9.3925	0.45455	0.	-3550.6
15799	9.3004	0.54545	0.	-3575.8
15800	9.3925	0.54545	5.e-002	-5.3597
15801	9.3925	0.27273	0.	-3553.6
15802	9.3004	0.36364	0.	-3578.4
15803	9.3925	0.36364	5.e-002	-5.0724
15804	9.3004	0.18182	0.	-3582.1
15805	9.3925	0.18182	5.e-002	-0.82231
15806	9.3925	9.0909e-002	0.	-3553.3
15807	9.2083	5.7273	0.	-3606.8
15808	9.1163	5.8182	0.	-3635.4
15809	9.2083	5.8182	5.e-002	-0.92009
15810	9.2083	5.9091	0.	-3606.8
15811	9.2083	5.5455	0.	-3603.6
15812	9.1163	5.6364	0.	-3631.7
15813	9.2083	5.6364	5.e-002	-5.1089
15814	9.2083	5.3636	0.	-3601.
15815	9.1163	5.4545	0.	-3628.9
15816	9.2083	5.4545	5.e-002	-5.393
15817	9.2083	5.1818	0.	-3598.6
15818	9.1163	5.2727	0.	-3626.3
15819	9.2083	5.2727	5.e-002	-5.4179
15820	9.2083	5.	0.	-3596.2
15821	9.1163	5.0909	0.	-3623.8
15822	9.2083	5.0909	5.e-002	-5.4251
15823	9.2083	4.8182	0.	-3594.
15824	9.1163	4.9091	0.	-3621.5
15825	9.2083	4.9091	5.e-002	-5.4305
15826	9.2083	4.6364	0.	-3592.
15827	9.1163	4.7273	0.	-3619.3
15828	9.2083	4.7273	5.e-002	-5.4352
15829	9.2083	4.4545	0.	-3590.1
15830	9.1163	4.5455	0.	-3617.3
15831	9.2083	4.5455	5.e-002	-5.4392
15832	9.2083	4.2727	0.	-3588.5
15833	9.1163	4.3636	0.	-3615.5
15834	9.2083	4.3636	5.e-002	-5.4426
15835	9.2083	4.0909	0.	-3587.
15836	9.1163	4.1818	0.	-3613.8
15837	9.2083	4.1818	5.e-002	-5.4455
15838	9.2083	3.9091	0.	-3585.7
15839	9.1163	4.	0.	-3612.4
15840	9.2083	4.	5.e-002	-5.4478
15841	9.2083	3.7273	0.	-3584.7
15842	9.1163	3.8182	0.	-3611.2
15843	9.2083	3.8182	5.e-002	-5.4497
15844	9.2083	3.5455	0.	-3583.8
15845	9.1163	3.6364	0.	-3610.2
15846	9.2083	3.6364	5.e-002	-5.4511
15847	9.2083	3.3636	0.	-3583.2
15848	9.1163	3.4545	0.	-3609.5
15849	9.2083	3.4545	5.e-002	-5.4522
15850	9.2083	3.1818	0.	-3582.9
15851	9.1163	3.2727	0.	-3609.
15852	9.2083	3.2727	5.e-002	-5.4529
15853	9.2083	3.	0.	-3582.8
15854	9.1163	3.0909	0.	-3608.8
15855	9.2083	3.0909	5.e-002	-5.4532
15856	9.2083	2.8182	0.	-3582.9
15857	9.1163	2.9091	0.	-3608.8
15858	9.2083	2.9091	5.e-002	-5.4532
15859	9.2083	2.6364	0.	-3583.2
15860	9.1163	2.7273	0.	-3609.
15861	9.2083	2.7273	5.e-002	-5.4529
15862	9.2083	2.4545	0.	-3583.8
15863	9.1163	2.5455	0.	-3609.5
15864	9.2083	2.5455	5.e-002	-5.4522
15865	9.2083	2.2727	0.	-3584.7
15866	9.1163	2.3636	0.	-3610.2
15867	9.2083	2.3636	5.e-002	-5.4512
15868	9.2083	2.0909	0.	-3585.7
15869	9.1163	2.1818	0.	-3611.2
15870	9.2083	2.1818	5.e-002	-5.4497
15871	9.2083	1.9091	0.	-3587.
15872	9.1163	2.	0.	-3612.4
15873	9.2083	2.	5.e-002	-5.4479
15874	9.2083	1.7273	0.	-3588.5
15875	9.1163	1.8182	0.	-3613.8
15876	9.2083	1.8182	5.e-002	-5.4455
15877	9.2083	1.5455	0.	-3590.1
15878	9.1163	1.6364	0.	-3615.5
15879	9.2083	1.6364	5.e-002	-5.4427
15880	9.2083	1.3636	0.	-3592.
15881	9.1163	1.4545	0.	-3617.3
15882	9.2083	1.4545	5.e-002	-5.4393
15883	9.2083	1.1818	0.	-3594.
15884	9.1163	1.2727	0.	-3619.3
15885	9.2083	1.2727	5.e-002	-5.4353
15886	9.2083	1.	0.	-3596.2
15887	9.1163	1.0909	0.	-3621.5
15888	9.2083	1.0909	5.e-002	-5.4307
15889	9.2083	0.81818	0.	-3598.6
15890	9.1163	0.90909	0.	-3623.8
15891	9.2083	0.90909	5.e-002	-5.4252
15892	9.2083	0.63636	0.	-3601.
15893	9.1163	0.72727	0.	-3626.3
15894	9.2083	0.72727	5.e-002	-5.418
15895	9.2083	0.45455	0.	-3603.6
15896	9.1163	0.54545	0.	-3628.9
15897	9.2083	0.54545	5.e-002	-5.3931
15898	9.2083	0.27273	0.	-3606.8
15899	9.1163	0.36364	0.	-3631.7
15900	9.2083	0.36364	5.e-002	-5.109
15901	9.1163	0.18182	0.	-3635.4
15902	9.2083	0.18182	5.e-002	-0.92024
15903	9.2083	9.0909e-002	0.	-3606.8
15904	9.0242	5.7273	0.	-3660.2
15905	8.9321	5.8182	0.	-3689.1
15906	9.0242	5.8182	5.e-002	-1.0264
15907	9.0242	5.9091	0.	-3660.4
15908	9.0242	5.5455	0.	-3656.9
15909	8.9321	5.6364	0.	-3685.2
15910	9.0242	5.6364	5.e-002	-5.1473
15911	9.0242	5.3636	0.	-3654.2
15912	8.9321	5.4545	0.	-3682.3
15913	9.0242	5.4545	5.e-002	-5.4277
15914	9.0242	5.1818	0.	-3651.6
15915	8.9321	5.2727	0.	-3679.5
15916	9.0242	5.2727	5.e-002	-5.4528
15917	9.0242	5.	0.	-3649.1
15918	8.9321	5.0909	0.	-3676.9
15919	9.0242	5.0909	5.e-002	-5.4604
15920	9.0242	4.8182	0.	-3646.8
15921	8.9321	4.9091	0.	-3674.4
15922	9.0242	4.9091	5.e-002	-5.4661
15923	9.0242	4.6364	0.	-3644.6
15924	8.9321	4.7273	0.	-3672.1
15925	9.0242	4.7273	5.e-002	-5.4709
15926	9.0242	4.4545	0.	-3642.6
15927	8.9321	4.5455	0.	-3669.9
15928	9.0242	4.5455	5.e-002	-5.4751
15929	9.0242	4.2727	0.	-3640.8
15930	8.9321	4.3636	0.	-3668.
15931	9.0242	4.3636	5.e-002	-5.4786
15932	9.0242	4.0909	0.	-3639.3
15933	8.9321	4.1818	0.	-3666.2
15934	9.0242	4.1818	5.e-002	-5.4815
15935	9.0242	3.9091	0.	-3637.9
15936	8.9321	4.	0.	-3664.7
15937	9.0242	4.	5.e-002	-5.4839
15938	9.0242	3.7273	0.	-3636.8
15939	8.9321	3.8182	0.	-3663.4
15940	9.0242	3.8182	5.e-002	-5.4858
15941	9.0242	3.5455	0.	-3635.9
15942	8.9321	3.6364	0.	-3662.4
15943	9.0242	3.6364	5.e-002	-5.4873
15944	9.0242	3.3636	0.	-3635.3
15945	8.9321	3.4545	0.	-3661.6
15946	9.0242	3.4545	5.e-002	-5.4883
15947	9.0242	3.1818	0.	-3634.9
15948	8.9321	3.2727	0.	-3661.1
15949	9.0242	3.2727	5.e-002	-5.489
15950	9.0242	3.	0.	-3634.8
15951	8.9321	3.0909	0.	-3660.8
15952	9.0242	3.0909	5.e-002	-5.4893
15953	9.0242	2.8182	0.	-3634.9
15954	8.9321	2.9091	0.	-3660.8
15955	9.0242	2.9091	5.e-002	-5.4893
15956	9.0242	2.6364	0.	-3635.3
15957	8.9321	2.7273	0.	-3661.1
15958	9.0242	2.7273	5.e-002	-5.489
15959	9.0242	2.4545	0.	-3635.9
15960	8.9321	2.5455	0.	-3661.6
15961	9.0242	2.5455	5.e-002	-5.4883
15962	9.0242	2.2727	0.	-3636.8
15963	8.9321	2.3636	0.	-3662.4
15964	9.0242	2.3636	5.e-002	-5.4873
15965	9.0242	2.0909	0.	-3637.9
15966	8.9321	2.1818	0.	-3663.4
15967	9.0242	2.1818	5.e-002	-5.4858
15968	9.0242	1.9091	0.	-3639.3
15969	8.9321	2.	0.	-3664.7
15970	9.0242	2.	5.e-002	-5.484
15971	9.0242	1.7273	0.	-3640.8
15972	8.9321	1.8182	0.	-3666.2
15973	9.0242	1.8182	5.e-002	-5.4816
15974	9.0242	1.5455	0.	-3642.6
15975	8.9321	1.6364	0.	-3668.
15976	9.0242	1.6364	5.e-002	-5.4787
15977	9.0242	1.3636	0.	-3644.6
15978	8.9321	1.4545	0.	-3669.9
15979	9.0242	1.4545	5.e-002	-5.4752
15980	9.0242	1.1818	0.	-3646.8
15981	8.9321	1.2727	0.	-3672.1
15982	9.0242	1.2727	5.e-002	-5.471
15983	9.0242	1.	0.	-3649.1
15984	8.9321	1.0909	0.	-3674.4
15985	9.0242	1.0909	5.e-002	-5.4662
15986	9.0242	0.81818	0.	-3651.6
15987	8.9321	0.90909	0.	-3676.9
15988	9.0242	0.90909	5.e-002	-5.4605
15989	9.0242	0.63636	0.	-3654.2
15990	8.9321	0.72727	0.	-3679.5
15991	9.0242	0.72727	5.e-002	-5.4529
15992	9.0242	0.45455	0.	-3656.9
15993	8.9321	0.54545	0.	-3682.3
15994	9.0242	0.54545	5.e-002	-5.4279
15995	9.0242	0.27273	0.	-3660.2
15996	8.9321	0.36364	0.	-3685.2
15997	9.0242	0.36364	5.e-002	-5.1474
15998	8.9321	0.18182	0.	-3689.1
15999	9.0242	0.18182	5.e-002	-1.0266
16000	9.0242	9.0909e-002	0.	-3660.4
16001	8.84	5.7273	0.	-3714.
16002	8.7479	5.8182	0.	-3743.
16003	8.84	5.8182	5.e-002	-1.1419
16004	8.84	5.9091	0.	-3714.4
16005	8.84	5.5455	0.	-3710.5
16006	8.7479	5.6364	0.	-3739.
16007	8.84	5.6364	5.e-002	-5.1878
16008	8.84	5.3636	0.	-3707.6
16009	8.7479	5.4545	0.	-3735.9
16010	8.84	5.4545	5.e-002	-5.4641
16011	8.84	5.1818	0.	-3704.8
16012	8.7479	5.2727	0.	-3733.
16013	8.84	5.2727	5.e-002	-5.4893
16014	8.84	5.	0.	-3702.2
16015	8.7479	5.0909	0.	-3730.2
16016	8.84	5.0909	5.e-002	-5.4972
16017	8.84	4.8182	0.	-3699.7
16018	8.7479	4.9091	0.	-3727.5
16019	8.84	4.9091	5.e-002	-5.5032
16020	8.84	4.6364	0.	-3697.4
16021	8.7479	4.7273	0.	-3725.
16022	8.84	4.7273	5.e-002	-5.5082
16023	8.84	4.4545	0.	-3695.3
16024	8.7479	4.5455	0.	-3722.8
16025	8.84	4.5455	5.e-002	-5.5125
16026	8.84	4.2727	0.	-3693.4
16027	8.7479	4.3636	0.	-3720.7
16028	8.84	4.3636	5.e-002	-5.5161
16029	8.84	4.0909	0.	-3691.7
16030	8.7479	4.1818	0.	-3718.8
16031	8.84	4.1818	5.e-002	-5.5191
16032	8.84	3.9091	0.	-3690.3
16033	8.7479	4.	0.	-3717.2
16034	8.84	4.	5.e-002	-5.5215
16035	8.84	3.7273	0.	-3689.1
16036	8.7479	3.8182	0.	-3715.8
16037	8.84	3.8182	5.e-002	-5.5234
16038	8.84	3.5455	0.	-3688.1
16039	8.7479	3.6364	0.	-3714.7
16040	8.84	3.6364	5.e-002	-5.5249
16041	8.84	3.3636	0.	-3687.4
16042	8.7479	3.4545	0.	-3713.9
16043	8.84	3.4545	5.e-002	-5.5259
16044	8.84	3.1818	0.	-3687.
16045	8.7479	3.2727	0.	-3713.3
16046	8.84	3.2727	5.e-002	-5.5266
16047	8.84	3.	0.	-3686.9
16048	8.7479	3.0909	0.	-3713.
16049	8.84	3.0909	5.e-002	-5.5269
16050	8.84	2.8182	0.	-3687.
16051	8.7479	2.9091	0.	-3713.
16052	8.84	2.9091	5.e-002	-5.5269
16053	8.84	2.6364	0.	-3687.4
16054	8.7479	2.7273	0.	-3713.3
16055	8.84	2.7273	5.e-002	-5.5266
16056	8.84	2.4545	0.	-3688.1
16057	8.7479	2.5455	0.	-3713.9
16058	8.84	2.5455	5.e-002	-5.5259
16059	8.84	2.2727	0.	-3689.1
16060	8.7479	2.3636	0.	-3714.7
16061	8.84	2.3636	5.e-002	-5.5249
16062	8.84	2.0909	0.	-3690.3
16063	8.7479	2.1818	0.	-3715.8
16064	8.84	2.1818	5.e-002	-5.5234
16065	8.84	1.9091	0.	-3691.7
16066	8.7479	2.	0.	-3717.2
16067	8.84	2.	5.e-002	-5.5216
16068	8.84	1.7273	0.	-3693.4
16069	8.7479	1.8182	0.	-3718.8
16070	8.84	1.8182	5.e-002	-5.5192
16071	8.84	1.5455	0.	-3695.3
16072	8.7479	1.6364	0.	-3720.7
16073	8.84	1.6364	5.e-002	-5.5162
16074	8.84	1.3636	0.	-3697.4
16075	8.7479	1.4545	0.	-3722.8
16076	8.84	1.4545	5.e-002	-5.5126
16077	8.84	1.1818	0.	-3699.7
16078	8.7479	1.2727	0.	-3725.
16079	8.84	1.2727	5.e-002	-5.5083
16080	8.84	1.	0.	-3702.2
16081	8.7479	1.0909	0.	-3727.5
16082	8.84	1.0909	5.e-002	-5.5033
16083	8.84	0.81818	0.	-3704.8
16084	8.7479	0.90909	0.	-3730.2
16085	8.84	0.90909	5.e-002	-5.4973
16086	8.84	0.63636	0.	-3707.6
16087	8.7479	0.72727	0.	-3733.
16088	8.84	0.72727	5.e-002	-5.4894
16089	8.84	0.45455	0.	-3710.5
16090	8.7479	0.54545	0.	-3735.9
16091	8.84	0.54545	5.e-002	-5.4642
16092	8.84	0.27273	0.	-3714.
16093	8.7479	0.36364	0.	-3739.
16094	8.84	0.36364	5.e-002	-5.188
16095	8.7479	0.18182	0.	-3743.
16096	8.84	0.18182	5.e-002	-1.142
16097	8.84	9.0909e-002	0.	-3714.4
16098	8.6558	5.7273	0.	-3767.9
16099	8.5638	5.8182	0.	-3797.2
16100	8.6558	5.8182	5.e-002	-1.2672
16101	8.6558	5.9091	0.	-3768.7
16102	8.6558	5.5455	0.	-3764.3
16103	8.5638	5.6364	0.	-3793.
16104	8.6558	5.6364	5.e-002	-5.2305
16105	8.6558	5.3636	0.	-3761.2
16106	8.5638	5.4545	0.	-3789.8
16107	8.6558	5.4545	5.e-002	-5.5022
16108	8.6558	5.1818	0.	-3758.3
16109	8.5638	5.2727	0.	-3786.6
16110	8.6558	5.2727	5.e-002	-5.5275
16111	8.6558	5.	0.	-3755.5
16112	8.5638	5.0909	0.	-3783.7
16113	8.6558	5.0909	5.e-002	-5.5357
16114	8.6558	4.8182	0.	-3752.8
16115	8.5638	4.9091	0.	-3780.8
16116	8.6558	4.9091	5.e-002	-5.542
16117	8.6558	4.6364	0.	-3750.4
16118	8.5638	4.7273	0.	-3778.2
16119	8.6558	4.7273	5.e-002	-5.5473
16120	8.6558	4.4545	0.	-3748.1
16121	8.5638	4.5455	0.	-3775.8
16122	8.6558	4.5455	5.e-002	-5.5517
16123	8.6558	4.2727	0.	-3746.1
16124	8.5638	4.3636	0.	-3773.5
16125	8.6558	4.3636	5.e-002	-5.5553
16126	8.6558	4.0909	0.	-3744.3
16127	8.5638	4.1818	0.	-3771.6
16128	8.6558	4.1818	5.e-002	-5.5583
16129	8.6558	3.9091	0.	-3742.8
16130	8.5638	4.	0.	-3769.8
16131	8.6558	4.	5.e-002	-5.5607
16132	8.6558	3.7273	0.	-3741.5
16133	8.5638	3.8182	0.	-3768.4
16134	8.6558	3.8182	5.e-002	-5.5626
16135	8.6558	3.5455	0.	-3740.5
16136	8.5638	3.6364	0.	-3767.2
16137	8.6558	3.6364	5.e-002	-5.564
16138	8.6558	3.3636	0.	-3739.7
16139	8.5638	3.4545	0.	-3766.3
16140	8.6558	3.4545	5.e-002	-5.565
16141	8.6558	3.1818	0.	-3739.3
16142	8.5638	3.2727	0.	-3765.7
16143	8.6558	3.2727	5.e-002	-5.5657
16144	8.6558	3.	0.	-3739.2
16145	8.5638	3.0909	0.	-3765.4
16146	8.6558	3.0909	5.e-002	-5.566
16147	8.6558	2.8182	0.	-3739.3
16148	8.5638	2.9091	0.	-3765.4
16149	8.6558	2.9091	5.e-002	-5.566
16150	8.6558	2.6364	0.	-3739.7
16151	8.5638	2.7273	0.	-3765.7
16152	8.6558	2.7273	5.e-002	-5.5657
16153	8.6558	2.4545	0.	-3740.5
16154	8.5638	2.5455	0.	-3766.3
16155	8.6558	2.5455	5.e-002	-5.5651
16156	8.6558	2.2727	0.	-3741.5
16157	8.5638	2.3636	0.	-3767.2
16158	8.6558	2.3636	5.e-002	-5.5641
16159	8.6558	2.0909	0.	-3742.8
16160	8.5638	2.1818	0.	-3768.4
16161	8.6558	2.1818	5.e-002	-5.5627
16162	8.6558	1.9091	0.	-3744.3
16163	8.5638	2.	0.	-3769.8
16164	8.6558	2.	5.e-002	-5.5608
16165	8.6558	1.7273	0.	-3746.1
16166	8.5638	1.8182	0.	-3771.6
16167	8.6558	1.8182	5.e-002	-5.5584
16168	8.6558	1.5455	0.	-3748.1
16169	8.5638	1.6364	0.	-3773.5
16170	8.6558	1.6364	5.e-002	-5.5554
16171	8.6558	1.3636	0.	-3750.4
16172	8.5638	1.4545	0.	-3775.8
16173	8.6558	1.4545	5.e-002	-5.5517
16174	8.6558	1.1818	0.	-3752.8
16175	8.5638	1.2727	0.	-3778.2
16176	8.6558	1.2727	5.e-002	-5.5473
16177	8.6558	1.	0.	-3755.5
16178	8.5638	1.0909	0.	-3780.8
16179	8.6558	1.0909	5.e-002	-5.5421
16180	8.6558	0.81818	0.	-3758.3
16181	8.5638	0.90909	0.	-3783.7
16182	8.6558	0.90909	5.e-002	-5.5359
16183	8.6558	0.63636	0.	-3761.2
16184	8.5638	0.72727	0.	-3786.6
16185	8.6558	0.72727	5.e-002	-5.5276
16186	8.6558	0.45455	0.	-3764.3
16187	8.5638	0.54545	0.	-3789.8
16188	8.6558	0.54545	5.e-002	-5.5024
16189	8.6558	0.27273	0.	-3767.9
16190	8.5638	0.36364	0.	-3793.
16191	8.6558	0.36364	5.e-002	-5.2306
16192	8.5638	0.18182	0.	-3797.2
16193	8.6558	0.18182	5.e-002	-1.2673
16194	8.6558	9.0909e-002	0.	-3768.7
16195	8.4717	5.7273	0.	-3822.2
16196	8.3796	5.8182	0.	-3851.7
16197	8.4717	5.8182	5.e-002	-1.4031
16198	8.4717	5.9091	0.	-3823.3
16199	8.4717	5.5455	0.	-3818.4
16200	8.3796	5.6364	0.	-3847.4
16201	8.4717	5.6364	5.e-002	-5.2757
16202	8.4717	5.3636	0.	-3815.1
16203	8.3796	5.4545	0.	-3843.9
16204	8.4717	5.4545	5.e-002	-5.5422
16205	8.4717	5.1818	0.	-3812.
16206	8.3796	5.2727	0.	-3840.6
16207	8.4717	5.2727	5.e-002	-5.5677
16208	8.4717	5.	0.	-3809.
16209	8.3796	5.0909	0.	-3837.4
16210	8.4717	5.0909	5.e-002	-5.5762
16211	8.4717	4.8182	0.	-3806.2
16212	8.3796	4.9091	0.	-3834.4
16213	8.4717	4.9091	5.e-002	-5.5827
16214	8.4717	4.6364	0.	-3803.6
16215	8.3796	4.7273	0.	-3831.6
16216	8.4717	4.7273	5.e-002	-5.5881
16217	8.4717	4.4545	0.	-3801.2
16218	8.3796	4.5455	0.	-3829.
16219	8.4717	4.5455	5.e-002	-5.5926
16220	8.4717	4.2727	0.	-3799.
16221	8.3796	4.3636	0.	-3826.6
16222	8.4717	4.3636	5.e-002	-5.5963
16223	8.4717	4.0909	0.	-3797.1
16224	8.3796	4.1818	0.	-3824.5
16225	8.4717	4.1818	5.e-002	-5.5993
16226	8.4717	3.9091	0.	-3795.4
16227	8.3796	4.	0.	-3822.6
16228	8.4717	4.	5.e-002	-5.6017
16229	8.4717	3.7273	0.	-3794.
16230	8.3796	3.8182	0.	-3821.
16231	8.4717	3.8182	5.e-002	-5.6035
16232	8.4717	3.5455	0.	-3793.
16233	8.3796	3.6364	0.	-3819.7
16234	8.4717	3.6364	5.e-002	-5.6049
16235	8.4717	3.3636	0.	-3792.2
16236	8.3796	3.4545	0.	-3818.8
16237	8.4717	3.4545	5.e-002	-5.6059
16238	8.4717	3.1818	0.	-3791.7
16239	8.3796	3.2727	0.	-3818.1
16240	8.4717	3.2727	5.e-002	-5.6065
16241	8.4717	3.	0.	-3791.5
16242	8.3796	3.0909	0.	-3817.8
16243	8.4717	3.0909	5.e-002	-5.6068
16244	8.4717	2.8182	0.	-3791.7
16245	8.3796	2.9091	0.	-3817.8
16246	8.4717	2.9091	5.e-002	-5.6068
16247	8.4717	2.6364	0.	-3792.2
16248	8.3796	2.7273	0.	-3818.1
16249	8.4717	2.7273	5.e-002	-5.6065
16250	8.4717	2.4545	0.	-3793.
16251	8.3796	2.5455	0.	-3818.8
16252	8.4717	2.5455	5.e-002	-5.6059
16253	8.4717	2.2727	0.	-3794.
16254	8.3796	2.3636	0.	-3819.8
16255	8.4717	2.3636	5.e-002	-5.605
16256	8.4717	2.0909	0.	-3795.4
16257	8.3796	2.1818	0.	-3821.
16258	8.4717	2.1818	5.e-002	-5.6036
16259	8.4717	1.9091	0.	-3797.1
16260	8.3796	2.	0.	-3822.6
16261	8.4717	2.	5.e-002	-5.6018
16262	8.4717	1.7273	0.	-3799.
16263	8.3796	1.8182	0.	-3824.5
16264	8.4717	1.8182	5.e-002	-5.5994
16265	8.4717	1.5455	0.	-3801.2
16266	8.3796	1.6364	0.	-3826.6
16267	8.4717	1.6364	5.e-002	-5.5964
16268	8.4717	1.3636	0.	-3803.6
16269	8.3796	1.4545	0.	-3829.
16270	8.4717	1.4545	5.e-002	-5.5927
16271	8.4717	1.1818	0.	-3806.2
16272	8.3796	1.2727	0.	-3831.6
16273	8.4717	1.2727	5.e-002	-5.5882
16274	8.4717	1.	0.	-3809.
16275	8.3796	1.0909	0.	-3834.4
16276	8.4717	1.0909	5.e-002	-5.5828
16277	8.4717	0.81818	0.	-3812.
16278	8.3796	0.90909	0.	-3837.4
16279	8.4717	0.90909	5.e-002	-5.5763
16280	8.4717	0.63636	0.	-3815.1
16281	8.3796	0.72727	0.	-3840.6
16282	8.4717	0.72727	5.e-002	-5.5678
16283	8.4717	0.45455	0.	-3818.4
16284	8.3796	0.54545	0.	-3843.9
16285	8.4717	0.54545	5.e-002	-5.5424
16286	8.4717	0.27273	0.	-3822.2
16287	8.3796	0.36364	0.	-3847.4
16288	8.4717	0.36364	5.e-002	-5.2758
16289	8.3796	0.18182	0.	-3851.7
16290	8.4717	0.18182	5.e-002	-1.4032
16291	8.4717	9.0909e-002	0.	-3823.3
16292	8.2875	5.7273	0.	-3876.8
16293	8.1954	5.8182	0.	-3906.5
16294	8.2875	5.8182	5.e-002	-1.5505
16295	8.2875	5.9091	0.	-3878.1
16296	8.2875	5.5455	0.	-3872.8
16297	8.1954	5.6364	0.	-3902.
16298	8.2875	5.6364	5.e-002	-5.3236
16299	8.2875	5.3636	0.	-3869.3
16300	8.1954	5.4545	0.	-3898.3
16301	8.2875	5.4545	5.e-002	-5.5844
16302	8.2875	5.1818	0.	-3866.
16303	8.1954	5.2727	0.	-3894.8
16304	8.2875	5.2727	5.e-002	-5.6099
16305	8.2875	5.	0.	-3862.8
16306	8.1954	5.0909	0.	-3891.4
16307	8.2875	5.0909	5.e-002	-5.6187
16308	8.2875	4.8182	0.	-3859.8
16309	8.1954	4.9091	0.	-3888.2
16310	8.2875	4.9091	5.e-002	-5.6255
16311	8.2875	4.6364	0.	-3857.
16312	8.1954	4.7273	0.	-3885.1
16313	8.2875	4.7273	5.e-002	-5.6311
16314	8.2875	4.4545	0.	-3854.4
16315	8.1954	4.5455	0.	-3882.3
16316	8.2875	4.5455	5.e-002	-5.6356
16317	8.2875	4.2727	0.	-3852.
16318	8.1954	4.3636	0.	-3879.8
16319	8.2875	4.3636	5.e-002	-5.6394
16320	8.2875	4.0909	0.	-3850.
16321	8.1954	4.1818	0.	-3877.5
16322	8.2875	4.1818	5.e-002	-5.6423
16323	8.2875	3.9091	0.	-3848.2
16324	8.1954	4.	0.	-3875.5
16325	8.2875	4.	5.e-002	-5.6446
16326	8.2875	3.7273	0.	-3846.7
16327	8.1954	3.8182	0.	-3873.8
16328	8.2875	3.8182	5.e-002	-5.6464
16329	8.2875	3.5455	0.	-3845.6
16330	8.1954	3.6364	0.	-3872.5
16331	8.2875	3.6364	5.e-002	-5.6477
16332	8.2875	3.3636	0.	-3844.7
16333	8.1954	3.4545	0.	-3871.4
16334	8.2875	3.4545	5.e-002	-5.6486
16335	8.2875	3.1818	0.	-3844.2
16336	8.1954	3.2727	0.	-3870.7
16337	8.2875	3.2727	5.e-002	-5.6492
16338	8.2875	3.	0.	-3844.1
16339	8.1954	3.0909	0.	-3870.4
16340	8.2875	3.0909	5.e-002	-5.6494
16341	8.2875	2.8182	0.	-3844.2
16342	8.1954	2.9091	0.	-3870.4
16343	8.2875	2.9091	5.e-002	-5.6494
16344	8.2875	2.6364	0.	-3844.7
16345	8.1954	2.7273	0.	-3870.7
16346	8.2875	2.7273	5.e-002	-5.6492
16347	8.2875	2.4545	0.	-3845.6
16348	8.1954	2.5455	0.	-3871.4
16349	8.2875	2.5455	5.e-002	-5.6486
16350	8.2875	2.2727	0.	-3846.7
16351	8.1954	2.3636	0.	-3872.5
16352	8.2875	2.3636	5.e-002	-5.6478
16353	8.2875	2.0909	0.	-3848.2
16354	8.1954	2.1818	0.	-3873.8
16355	8.2875	2.1818	5.e-002	-5.6464
16356	8.2875	1.9091	0.	-3850.
16357	8.1954	2.	0.	-3875.5
16358	8.2875	2.	5.e-002	-5.6447
16359	8.2875	1.7273	0.	-3852.
16360	8.1954	1.8182	0.	-3877.5
16361	8.2875	1.8182	5.e-002	-5.6424
16362	8.2875	1.5455	0.	-3854.4
16363	8.1954	1.6364	0.	-3879.8
16364	8.2875	1.6364	5.e-002	-5.6394
16365	8.2875	1.3636	0.	-3857.
16366	8.1954	1.4545	0.	-3882.3
16367	8.2875	1.4545	5.e-002	-5.6357
16368	8.2875	1.1818	0.	-3859.8
16369	8.1954	1.2727	0.	-3885.1
16370	8.2875	1.2727	5.e-002	-5.6312
16371	8.2875	1.	0.	-3862.8
16372	8.1954	1.0909	0.	-3888.2
16373	8.2875	1.0909	5.e-002	-5.6256
16374	8.2875	0.81818	0.	-3866.
16375	8.1954	0.90909	0.	-3891.4
16376	8.2875	0.90909	5.e-002	-5.6189
16377	8.2875	0.63636	0.	-3869.3
16378	8.1954	0.72727	0.	-3894.8
16379	8.2875	0.72727	5.e-002	-5.61
16380	8.2875	0.45455	0.	-3872.8
16381	8.1954	0.54545	0.	-3898.3
16382	8.2875	0.54545	5.e-002	-5.5846
16383	8.2875	0.27273	0.	-3876.8
16384	8.1954	0.36364	0.	-3902.
16385	8.2875	0.36364	5.e-002	-5.3237
16386	8.1954	0.18182	0.	-3906.5
16387	8.2875	0.18182	5.e-002	-1.5507
16388	8.2875	9.0909e-002	0.	-3878.1
16389	8.1033	5.7273	0.	-3931.6
16390	8.0112	5.8182	0.	-3961.6
16391	8.1033	5.8182	5.e-002	-1.7104
16392	8.1033	5.9091	0.	-3933.3
16393	8.1033	5.5455	0.	-3927.4
16394	8.0112	5.6364	0.	-3956.9
16395	8.1033	5.6364	5.e-002	-5.3745
16396	8.1033	5.3636	0.	-3923.7
16397	8.0112	5.4545	0.	-3953.
16398	8.1033	5.4545	5.e-002	-5.629
16399	8.1033	5.1818	0.	-3920.2
16400	8.0112	5.2727	0.	-3949.2
16401	8.1033	5.2727	5.e-002	-5.6545
16402	8.1033	5.	0.	-3916.7
16403	8.0112	5.0909	0.	-3945.6
16404	8.1033	5.0909	5.e-002	-5.6637
16405	8.1033	4.8182	0.	-3913.5
16406	8.0112	4.9091	0.	-3942.1
16407	8.1033	4.9091	5.e-002	-5.6706
16408	8.1033	4.6364	0.	-3910.5
16409	8.0112	4.7273	0.	-3938.9
16410	8.1033	4.7273	5.e-002	-5.6763
16411	8.1033	4.4545	0.	-3907.8
16412	8.0112	4.5455	0.	-3935.9
16413	8.1033	4.5455	5.e-002	-5.6809
16414	8.1033	4.2727	0.	-3905.3
16415	8.0112	4.3636	0.	-3933.2
16416	8.1033	4.3636	5.e-002	-5.6846
16417	8.1033	4.0909	0.	-3903.
16418	8.0112	4.1818	0.	-3930.7
16419	8.1033	4.1818	5.e-002	-5.6875
16420	8.1033	3.9091	0.	-3901.1
16421	8.0112	4.	0.	-3928.6
16422	8.1033	4.	5.e-002	-5.6897
16423	8.1033	3.7273	0.	-3899.6
16424	8.0112	3.8182	0.	-3926.8
16425	8.1033	3.8182	5.e-002	-5.6913
16426	8.1033	3.5455	0.	-3898.3
16427	8.0112	3.6364	0.	-3925.3
16428	8.1033	3.6364	5.e-002	-5.6925
16429	8.1033	3.3636	0.	-3897.4
16430	8.0112	3.4545	0.	-3924.2
16431	8.1033	3.4545	5.e-002	-5.6933
16432	8.1033	3.1818	0.	-3896.9
16433	8.0112	3.2727	0.	-3923.4
16434	8.1033	3.2727	5.e-002	-5.6938
16435	8.1033	3.	0.	-3896.7
16436	8.0112	3.0909	0.	-3923.1
16437	8.1033	3.0909	5.e-002	-5.6941
16438	8.1033	2.8182	0.	-3896.9
16439	8.0112	2.9091	0.	-3923.1
16440	8.1033	2.9091	5.e-002	-5.6941
16441	8.1033	2.6364	0.	-3897.4
16442	8.0112	2.7273	0.	-3923.4
16443	8.1033	2.7273	5.e-002	-5.6939
16444	8.1033	2.4545	0.	-3898.3
16445	8.0112	2.5455	0.	-3924.2
16446	8.1033	2.5455	5.e-002	-5.6934
16447	8.1033	2.2727	0.	-3899.6
16448	8.0112	2.3636	0.	-3925.3
16449	8.1033	2.3636	5.e-002	-5.6926
16450	8.1033	2.0909	0.	-3901.1
16451	8.0112	2.1818	0.	-3926.8
16452	8.1033	2.1818	5.e-002	-5.6914
16453	8.1033	1.9091	0.	-3903.
16454	8.0112	2.	0.	-3928.6
16455	8.1033	2.	5.e-002	-5.6898
16456	8.1033	1.7273	0.	-3905.3
16457	8.0112	1.8182	0.	-3930.7
16458	8.1033	1.8182	5.e-002	-5.6876
16459	8.1033	1.5455	0.	-3907.8
16460	8.0112	1.6364	0.	-3933.2
16461	8.1033	1.6364	5.e-002	-5.6847
16462	8.1033	1.3636	0.	-3910.5
16463	8.0112	1.4545	0.	-3935.9
16464	8.1033	1.4545	5.e-002	-5.681
16465	8.1033	1.1818	0.	-3913.5
16466	8.0112	1.2727	0.	-3938.9
16467	8.1033	1.2727	5.e-002	-5.6764
16468	8.1033	1.	0.	-3916.7
16469	8.0112	1.0909	0.	-3942.1
16470	8.1033	1.0909	5.e-002	-5.6707
16471	8.1033	0.81818	0.	-3920.2
16472	8.0112	0.90909	0.	-3945.6
16473	8.1033	0.90909	5.e-002	-5.6638
16474	8.1033	0.63636	0.	-3923.7
16475	8.0112	0.72727	0.	-3949.2
16476	8.1033	0.72727	5.e-002	-5.6546
16477	8.1033	0.45455	0.	-3927.4
16478	8.0112	0.54545	0.	-3953.
16479	8.1033	0.54545	5.e-002	-5.6292
16480	8.1033	0.27273	0.	-3931.6
16481	8.0112	0.36364	0.	-3956.9
16482	8.1033	0.36364	5.e-002	-5.3746
16483	8.0112	0.18182	0.	-3961.6
16484	8.1033	0.18182	5.e-002	-1.7105
16485	8.1033	9.0909e-002	0.	-3933.3
16486	7.9192	5.7273	0.	-3986.8
16487	7.8271	5.8182	0.	-4017.
16488	7.9192	5.8182	5.e-002	-1.8837
16489	7.9192	5.9091	0.	-3988.9
16490	7.9192	5.5455	0.	-3982.4
16491	7.8271	5.6364	0.	-4012.1
16492	7.9192	5.6364	5.e-002	-5.4288
16493	7.9192	5.3636	0.	-3978.4
16494	7.8271	5.4545	0.	-4007.9
16495	7.9192	5.4545	5.e-002	-5.6763
16496	7.9192	5.1818	0.	-3974.6
16497	7.8271	5.2727	0.	-4003.9
16498	7.9192	5.2727	5.e-002	-5.7017
16499	7.9192	5.	0.	-3971.
16500	7.8271	5.0909	0.	-4000.
16501	7.9192	5.0909	5.e-002	-5.7111
16502	7.9192	4.8182	0.	-3967.5
16503	7.8271	4.9091	0.	-3996.3
16504	7.9192	4.9091	5.e-002	-5.7183
16505	7.9192	4.6364	0.	-3964.3
16506	7.8271	4.7273	0.	-3992.9
16507	7.9192	4.7273	5.e-002	-5.724
16508	7.9192	4.4545	0.	-3961.3
16509	7.8271	4.5455	0.	-3989.7
16510	7.9192	4.5455	5.e-002	-5.7286
16511	7.9192	4.2727	0.	-3958.6
16512	7.8271	4.3636	0.	-3986.7
16513	7.9192	4.3636	5.e-002	-5.7323
16514	7.9192	4.0909	0.	-3956.3
16515	7.8271	4.1818	0.	-3984.1
16516	7.9192	4.1818	5.e-002	-5.735
16517	7.9192	3.9091	0.	-3954.2
16518	7.8271	4.	0.	-3981.8
16519	7.9192	4.	5.e-002	-5.737
16520	7.9192	3.7273	0.	-3952.5
16521	7.8271	3.8182	0.	-3979.8
16522	7.9192	3.8182	5.e-002	-5.7386
16523	7.9192	3.5455	0.	-3951.2
16524	7.8271	3.6364	0.	-3978.3
16525	7.9192	3.6364	5.e-002	-5.7396
16526	7.9192	3.3636	0.	-3950.2
16527	7.8271	3.4545	0.	-3977.1
16528	7.9192	3.4545	5.e-002	-5.7403
16529	7.9192	3.1818	0.	-3949.6
16530	7.8271	3.2727	0.	-3976.3
16531	7.9192	3.2727	5.e-002	-5.7407
16532	7.9192	3.	0.	-3949.4
16533	7.8271	3.0909	0.	-3975.9
16534	7.9192	3.0909	5.e-002	-5.7409
16535	7.9192	2.8182	0.	-3949.6
16536	7.8271	2.9091	0.	-3975.9
16537	7.9192	2.9091	5.e-002	-5.7409
16538	7.9192	2.6364	0.	-3950.2
16539	7.8271	2.7273	0.	-3976.3
16540	7.9192	2.7273	5.e-002	-5.7407
16541	7.9192	2.4545	0.	-3951.2
16542	7.8271	2.5455	0.	-3977.1
16543	7.9192	2.5455	5.e-002	-5.7403
16544	7.9192	2.2727	0.	-3952.5
16545	7.8271	2.3636	0.	-3978.3
16546	7.9192	2.3636	5.e-002	-5.7396
16547	7.9192	2.0909	0.	-3954.2
16548	7.8271	2.1818	0.	-3979.8
16549	7.9192	2.1818	5.e-002	-5.7386
16550	7.9192	1.9091	0.	-3956.3
16551	7.8271	2.	0.	-3981.8
16552	7.9192	2.	5.e-002	-5.7371
16553	7.9192	1.7273	0.	-3958.6
16554	7.8271	1.8182	0.	-3984.1
16555	7.9192	1.8182	5.e-002	-5.7351
16556	7.9192	1.5455	0.	-3961.3
16557	7.8271	1.6364	0.	-3986.7
16558	7.9192	1.6364	5.e-002	-5.7323
16559	7.9192	1.3636	0.	-3964.3
16560	7.8271	1.4545	0.	-3989.7
16561	7.9192	1.4545	5.e-002	-5.7287
16562	7.9192	1.1818	0.	-3967.5
16563	7.8271	1.2727	0.	-3992.9
16564	7.9192	1.2727	5.e-002	-5.7241
16565	7.9192	1.	0.	-3971.
16566	7.8271	1.0909	0.	-3996.3
16567	7.9192	1.0909	5.e-002	-5.7184
16568	7.9192	0.81818	0.	-3974.6
16569	7.8271	0.90909	0.	-4000.
16570	7.9192	0.90909	5.e-002	-5.7113
16571	7.9192	0.63636	0.	-3978.4
16572	7.8271	0.72727	0.	-4003.9
16573	7.9192	0.72727	5.e-002	-5.7018
16574	7.9192	0.45455	0.	-3982.4
16575	7.8271	0.54545	0.	-4007.9
16576	7.9192	0.54545	5.e-002	-5.6764
16577	7.9192	0.27273	0.	-3986.8
16578	7.8271	0.36364	0.	-4012.1
16579	7.9192	0.36364	5.e-002	-5.4289
16580	7.8271	0.18182	0.	-4017.
16581	7.9192	0.18182	5.e-002	-1.8838
16582	7.9192	9.0909e-002	0.	-3988.9
16583	7.735	5.7273	0.	-4042.3
16584	7.6429	5.8182	0.	-4072.8
16585	7.735	5.8182	5.e-002	-2.0715
16586	7.735	5.9091	0.	-4044.7
16587	7.735	5.5455	0.	-4037.6
16588	7.6429	5.6364	0.	-4067.6
16589	7.735	5.6364	5.e-002	-5.4867
16590	7.735	5.3636	0.	-4033.4
16591	7.6429	5.4545	0.	-4063.2
16592	7.735	5.4545	5.e-002	-5.7264
16593	7.735	5.1818	0.	-4029.3
16594	7.6429	5.2727	0.	-4058.9
16595	7.735	5.2727	5.e-002	-5.7518
16596	7.735	5.	0.	-4025.4
16597	7.6429	5.0909	0.	-4054.7
16598	7.735	5.0909	5.e-002	-5.7615
16599	7.735	4.8182	0.	-4021.7
16600	7.6429	4.9091	0.	-4050.8
16601	7.735	4.9091	5.e-002	-5.7688
16602	7.735	4.6364	0.	-4018.2
16603	7.6429	4.7273	0.	-4047.
16604	7.735	4.7273	5.e-002	-5.7746
16605	7.735	4.4545	0.	-4015.1
16606	7.6429	4.5455	0.	-4043.6
16607	7.735	4.5455	5.e-002	-5.7792
16608	7.735	4.2727	0.	-4012.2
16609	7.6429	4.3636	0.	-4040.4
16610	7.735	4.3636	5.e-002	-5.7826
16611	7.735	4.0909	0.	-4009.6
16612	7.6429	4.1818	0.	-4037.6
16613	7.735	4.1818	5.e-002	-5.7852
16614	7.735	3.9091	0.	-4007.4
16615	7.6429	4.	0.	-4035.1
16616	7.735	4.	5.e-002	-5.787
16617	7.735	3.7273	0.	-4005.6
16618	7.6429	3.8182	0.	-4033.
16619	7.735	3.8182	5.e-002	-5.7883
16620	7.735	3.5455	0.	-4004.1
16621	7.6429	3.6364	0.	-4031.3
16622	7.735	3.6364	5.e-002	-5.7891
16623	7.735	3.3636	0.	-4003.1
16624	7.6429	3.4545	0.	-4030.
16625	7.735	3.4545	5.e-002	-5.7896
16626	7.735	3.1818	0.	-4002.5
16627	7.6429	3.2727	0.	-4029.2
16628	7.735	3.2727	5.e-002	-5.7899
16629	7.735	3.	0.	-4002.3
16630	7.6429	3.0909	0.	-4028.7
16631	7.735	3.0909	5.e-002	-5.7901
16632	7.735	2.8182	0.	-4002.5
16633	7.6429	2.9091	0.	-4028.7
16634	7.735	2.9091	5.e-002	-5.7901
16635	7.735	2.6364	0.	-4003.1
16636	7.6429	2.7273	0.	-4029.2
16637	7.735	2.7273	5.e-002	-5.7899
16638	7.735	2.4545	0.	-4004.1
16639	7.6429	2.5455	0.	-4030.
16640	7.735	2.5455	5.e-002	-5.7896
16641	7.735	2.2727	0.	-4005.6
16642	7.6429	2.3636	0.	-4031.3
16643	7.735	2.3636	5.e-002	-5.7892
16644	7.735	2.0909	0.	-4007.4
16645	7.6429	2.1818	0.	-4033.
16646	7.735	2.1818	5.e-002	-5.7883
16647	7.735	1.9091	0.	-4009.6
16648	7.6429	2.	0.	-4035.1
16649	7.735	2.	5.e-002	-5.7871
16650	7.735	1.7273	0.	-4012.2
16651	7.6429	1.8182	0.	-4037.6
16652	7.735	1.8182	5.e-002	-5.7853
16653	7.735	1.5455	0.	-4015.1
16654	7.6429	1.6364	0.	-4040.4
16655	7.735	1.6364	5.e-002	-5.7827
16656	7.735	1.3636	0.	-4018.2
16657	7.6429	1.4545	0.	-4043.6
16658	7.735	1.4545	5.e-002	-5.7793
16659	7.735	1.1818	0.	-4021.7
16660	7.6429	1.2727	0.	-4047.1
16661	7.735	1.2727	5.e-002	-5.7747
16662	7.735	1.	0.	-4025.4
16663	7.6429	1.0909	0.	-4050.8
16664	7.735	1.0909	5.e-002	-5.7689
16665	7.735	0.81818	0.	-4029.3
16666	7.6429	0.90909	0.	-4054.7
16667	7.735	0.90909	5.e-002	-5.7616
16668	7.735	0.63636	0.	-4033.4
16669	7.6429	0.72727	0.	-4058.9
16670	7.735	0.72727	5.e-002	-5.7519
16671	7.735	0.45455	0.	-4037.6
16672	7.6429	0.54545	0.	-4063.2
16673	7.735	0.54545	5.e-002	-5.7266
16674	7.735	0.27273	0.	-4042.3
16675	7.6429	0.36364	0.	-4067.6
16676	7.735	0.36364	5.e-002	-5.4868
16677	7.6429	0.18182	0.	-4072.8
16678	7.735	0.18182	5.e-002	-2.0716
16679	7.735	9.0909e-002	0.	-4044.7
16680	7.5508	5.7273	0.	-4098.1
16681	7.4587	5.8182	0.	-4128.9
16682	7.5508	5.8182	5.e-002	-2.2749
16683	7.5508	5.9091	0.	-4101.
16684	7.5508	5.5455	0.	-4093.2
16685	7.4587	5.6364	0.	-4123.5
16686	7.5508	5.6364	5.e-002	-5.5487
16687	7.5508	5.3636	0.	-4088.6
16688	7.4587	5.4545	0.	-4118.7
16689	7.5508	5.4545	5.e-002	-5.7799
16690	7.5508	5.1818	0.	-4084.3
16691	7.4587	5.2727	0.	-4114.1
16692	7.5508	5.2727	5.e-002	-5.8051
16693	7.5508	5.	0.	-4080.1
16694	7.4587	5.0909	0.	-4109.7
16695	7.5508	5.0909	5.e-002	-5.815
16696	7.5508	4.8182	0.	-4076.1
16697	7.4587	4.9091	0.	-4105.4
16698	7.5508	4.9091	5.e-002	-5.8224
16699	7.5508	4.6364	0.	-4072.4
16700	7.4587	4.7273	0.	-4101.4
16701	7.5508	4.7273	5.e-002	-5.8282
16702	7.5508	4.4545	0.	-4069.
16703	7.4587	4.5455	0.	-4097.7
16704	7.5508	4.5455	5.e-002	-5.8326
16705	7.5508	4.2727	0.	-4065.9
16706	7.4587	4.3636	0.	-4094.3
16707	7.5508	4.3636	5.e-002	-5.8359
16708	7.5508	4.0909	0.	-4063.1
16709	7.4587	4.1818	0.	-4091.3
16710	7.5508	4.1818	5.e-002	-5.8383
16711	7.5508	3.9091	0.	-4060.8
16712	7.4587	4.	0.	-4088.6
16713	7.5508	4.	5.e-002	-5.8398
16714	7.5508	3.7273	0.	-4058.8
16715	7.4587	3.8182	0.	-4086.4
16716	7.5508	3.8182	5.e-002	-5.8408
16717	7.5508	3.5455	0.	-4057.2
16718	7.4587	3.6364	0.	-4084.5
16719	7.5508	3.6364	5.e-002	-5.8414
16720	7.5508	3.3636	0.	-4056.1
16721	7.4587	3.4545	0.	-4083.1
16722	7.5508	3.4545	5.e-002	-5.8417
16723	7.5508	3.1818	0.	-4055.4
16724	7.4587	3.2727	0.	-4082.2
16725	7.5508	3.2727	5.e-002	-5.8418
16726	7.5508	3.	0.	-4055.2
16727	7.4587	3.0909	0.	-4081.7
16728	7.5508	3.0909	5.e-002	-5.8419
16729	7.5508	2.8182	0.	-4055.4
16730	7.4587	2.9091	0.	-4081.7
16731	7.5508	2.9091	5.e-002	-5.8419
16732	7.5508	2.6364	0.	-4056.1
16733	7.4587	2.7273	0.	-4082.2
16734	7.5508	2.7273	5.e-002	-5.8418
16735	7.5508	2.4545	0.	-4057.2
16736	7.4587	2.5455	0.	-4083.1
16737	7.5508	2.5455	5.e-002	-5.8417
16738	7.5508	2.2727	0.	-4058.8
16739	7.4587	2.3636	0.	-4084.5
16740	7.5508	2.3636	5.e-002	-5.8414
16741	7.5508	2.0909	0.	-4060.8
16742	7.4587	2.1818	0.	-4086.4
16743	7.5508	2.1818	5.e-002	-5.8408
16744	7.5508	1.9091	0.	-4063.1
16745	7.4587	2.	0.	-4088.6
16746	7.5508	2.	5.e-002	-5.8399
16747	7.5508	1.7273	0.	-4065.9
16748	7.4587	1.8182	0.	-4091.3
16749	7.5508	1.8182	5.e-002	-5.8383
16750	7.5508	1.5455	0.	-4069.
16751	7.4587	1.6364	0.	-4094.3
16752	7.5508	1.6364	5.e-002	-5.836
16753	7.5508	1.3636	0.	-4072.4
16754	7.4587	1.4545	0.	-4097.7
16755	7.5508	1.4545	5.e-002	-5.8327
16756	7.5508	1.1818	0.	-4076.1
16757	7.4587	1.2727	0.	-4101.4
16758	7.5508	1.2727	5.e-002	-5.8283
16759	7.5508	1.	0.	-4080.1
16760	7.4587	1.0909	0.	-4105.4
16761	7.5508	1.0909	5.e-002	-5.8226
16762	7.5508	0.81818	0.	-4084.3
16763	7.4587	0.90909	0.	-4109.7
16764	7.5508	0.90909	5.e-002	-5.8152
16765	7.5508	0.63636	0.	-4088.6
16766	7.4587	0.72727	0.	-4114.1
16767	7.5508	0.72727	5.e-002	-5.8052
16768	7.5508	0.45455	0.	-4093.2
16769	7.4587	0.54545	0.	-4118.7
16770	7.5508	0.54545	5.e-002	-5.78
16771	7.5508	0.27273	0.	-4098.1
16772	7.4587	0.36364	0.	-4123.5
16773	7.5508	0.36364	5.e-002	-5.5489
16774	7.4587	0.18182	0.	-4128.9
16775	7.5508	0.18182	5.e-002	-2.2751
16776	7.5508	9.0909e-002	0.	-4101.
16777	7.3667	5.7273	0.	-4154.3
16778	7.2746	5.8182	0.	-4185.4
16779	7.3667	5.8182	5.e-002	-2.4953
16780	7.3667	5.9091	0.	-4157.6
16781	7.3667	5.5455	0.	-4149.
16782	7.2746	5.6364	0.	-4179.7
16783	7.3667	5.6364	5.e-002	-5.6152
16784	7.3667	5.3636	0.	-4144.2
16785	7.2746	5.4545	0.	-4174.6
16786	7.3667	5.4545	5.e-002	-5.837
16787	7.3667	5.1818	0.	-4139.5
16788	7.2746	5.2727	0.	-4169.6
16789	7.3667	5.2727	5.e-002	-5.8619
16790	7.3667	5.	0.	-4135.
16791	7.2746	5.0909	0.	-4164.9
16792	7.3667	5.0909	5.e-002	-5.8721
16793	7.3667	4.8182	0.	-4130.7
16794	7.2746	4.9091	0.	-4160.3
16795	7.3667	4.9091	5.e-002	-5.8795
16796	7.3667	4.6364	0.	-4126.8
16797	7.2746	4.7273	0.	-4156.
16798	7.3667	4.7273	5.e-002	-5.8852
16799	7.3667	4.4545	0.	-4123.1
16800	7.2746	4.5455	0.	-4152.
16801	7.3667	4.5455	5.e-002	-5.8895
16802	7.3667	4.2727	0.	-4119.7
16803	7.2746	4.3636	0.	-4148.4
16804	7.3667	4.3636	5.e-002	-5.8924
16805	7.3667	4.0909	0.	-4116.8
16806	7.2746	4.1818	0.	-4145.1
16807	7.3667	4.1818	5.e-002	-5.8945
16808	7.3667	3.9091	0.	-4114.2
16809	7.2746	4.	0.	-4142.2
16810	7.3667	4.	5.e-002	-5.8957
16811	7.3667	3.7273	0.	-4112.1
16812	7.2746	3.8182	0.	-4139.8
16813	7.3667	3.8182	5.e-002	-5.8963
16814	7.3667	3.5455	0.	-4110.4
16815	7.2746	3.6364	0.	-4137.8
16816	7.3667	3.6364	5.e-002	-5.8965
16817	7.3667	3.3636	0.	-4109.2
16818	7.2746	3.4545	0.	-4136.3
16819	7.3667	3.4545	5.e-002	-5.8966
16820	7.3667	3.1818	0.	-4108.5
16821	7.2746	3.2727	0.	-4135.3
16822	7.3667	3.2727	5.e-002	-5.8965
16823	7.3667	3.	0.	-4108.2
16824	7.2746	3.0909	0.	-4134.8
16825	7.3667	3.0909	5.e-002	-5.8965
16826	7.3667	2.8182	0.	-4108.5
16827	7.2746	2.9091	0.	-4134.8
16828	7.3667	2.9091	5.e-002	-5.8965
16829	7.3667	2.6364	0.	-4109.2
16830	7.2746	2.7273	0.	-4135.3
16831	7.3667	2.7273	5.e-002	-5.8965
16832	7.3667	2.4545	0.	-4110.4
16833	7.2746	2.5455	0.	-4136.3
16834	7.3667	2.5455	5.e-002	-5.8966
16835	7.3667	2.2727	0.	-4112.1
16836	7.2746	2.3636	0.	-4137.8
16837	7.3667	2.3636	5.e-002	-5.8965
16838	7.3667	2.0909	0.	-4114.2
16839	7.2746	2.1818	0.	-4139.8
16840	7.3667	2.1818	5.e-002	-5.8963
16841	7.3667	1.9091	0.	-4116.8
16842	7.2746	2.	0.	-4142.2
16843	7.3667	2.	5.e-002	-5.8957
16844	7.3667	1.7273	0.	-4119.7
16845	7.2746	1.8182	0.	-4145.1
16846	7.3667	1.8182	5.e-002	-5.8945
16847	7.3667	1.5455	0.	-4123.1
16848	7.2746	1.6364	0.	-4148.4
16849	7.3667	1.6364	5.e-002	-5.8926
16850	7.3667	1.3636	0.	-4126.8
16851	7.2746	1.4545	0.	-4152.
16852	7.3667	1.4545	5.e-002	-5.8896
16853	7.3667	1.1818	0.	-4130.7
16854	7.2746	1.2727	0.	-4156.
16855	7.3667	1.2727	5.e-002	-5.8854
16856	7.3667	1.	0.	-4135.
16857	7.2746	1.0909	0.	-4160.3
16858	7.3667	1.0909	5.e-002	-5.8797
16859	7.3667	0.81818	0.	-4139.5
16860	7.2746	0.90909	0.	-4164.9
16861	7.3667	0.90909	5.e-002	-5.8722
16862	7.3667	0.63636	0.	-4144.2
16863	7.2746	0.72727	0.	-4169.6
16864	7.3667	0.72727	5.e-002	-5.8621
16865	7.3667	0.45455	0.	-4149.
16866	7.2746	0.54545	0.	-4174.6
16867	7.3667	0.54545	5.e-002	-5.8371
16868	7.3667	0.27273	0.	-4154.3
16869	7.2746	0.36364	0.	-4179.7
16870	7.3667	0.36364	5.e-002	-5.6153
16871	7.2746	0.18182	0.	-4185.4
16872	7.3667	0.18182	5.e-002	-2.4955
16873	7.3667	9.0909e-002	0.	-4157.6
16874	7.1825	5.7273	0.	-4210.8
16875	7.0904	5.8182	0.	-4242.3
16876	7.1825	5.8182	5.e-002	-2.7339
16877	7.1825	5.9091	0.	-4214.5
16878	7.1825	5.5455	0.	-4205.2
16879	7.0904	5.6364	0.	-4236.2
16880	7.1825	5.6364	5.e-002	-5.6866
16881	7.1825	5.3636	0.	-4200.
16882	7.0904	5.4545	0.	-4230.8
16883	7.1825	5.4545	5.e-002	-5.8982
16884	7.1825	5.1818	0.	-4195.
16885	7.0904	5.2727	0.	-4225.5
16886	7.1825	5.2727	5.e-002	-5.9228
16887	7.1825	5.	0.	-4190.2
16888	7.0904	5.0909	0.	-4220.3
16889	7.1825	5.0909	5.e-002	-5.9331
16890	7.1825	4.8182	0.	-4185.6
16891	7.0904	4.9091	0.	-4215.4
16892	7.1825	4.9091	5.e-002	-5.9405
16893	7.1825	4.6364	0.	-4181.3
16894	7.0904	4.7273	0.	-4210.8
16895	7.1825	4.7273	5.e-002	-5.9461
16896	7.1825	4.4545	0.	-4177.3
16897	7.0904	4.5455	0.	-4206.5
16898	7.1825	4.5455	5.e-002	-5.95
16899	7.1825	4.2727	0.	-4173.7
16900	7.0904	4.3636	0.	-4202.6
16901	7.1825	4.3636	5.e-002	-5.9526
16902	7.1825	4.0909	0.	-4170.6
16903	7.0904	4.1818	0.	-4199.1
16904	7.1825	4.1818	5.e-002	-5.9542
16905	7.1825	3.9091	0.	-4167.8
16906	7.0904	4.	0.	-4196.
16907	7.1825	4.	5.e-002	-5.9549
16908	7.1825	3.7273	0.	-4165.5
16909	7.0904	3.8182	0.	-4193.3
16910	7.1825	3.8182	5.e-002	-5.9551
16911	7.1825	3.5455	0.	-4163.7
16912	7.0904	3.6364	0.	-4191.2
16913	7.1825	3.6364	5.e-002	-5.955
16914	7.1825	3.3636	0.	-4162.4
16915	7.0904	3.4545	0.	-4189.6
16916	7.1825	3.4545	5.e-002	-5.9547
16917	7.1825	3.1818	0.	-4161.6
16918	7.0904	3.2727	0.	-4188.5
16919	7.1825	3.2727	5.e-002	-5.9544
16920	7.1825	3.	0.	-4161.3
16921	7.0904	3.0909	0.	-4187.9
16922	7.1825	3.0909	5.e-002	-5.9543
16923	7.1825	2.8182	0.	-4161.6
16924	7.0904	2.9091	0.	-4187.9
16925	7.1825	2.9091	5.e-002	-5.9543
16926	7.1825	2.6364	0.	-4162.4
16927	7.0904	2.7273	0.	-4188.5
16928	7.1825	2.7273	5.e-002	-5.9545
16929	7.1825	2.4545	0.	-4163.7
16930	7.0904	2.5455	0.	-4189.6
16931	7.1825	2.5455	5.e-002	-5.9547
16932	7.1825	2.2727	0.	-4165.5
16933	7.0904	2.3636	0.	-4191.2
16934	7.1825	2.3636	5.e-002	-5.955
16935	7.1825	2.0909	0.	-4167.8
16936	7.0904	2.1818	0.	-4193.3
16937	7.1825	2.1818	5.e-002	-5.9552
16938	7.1825	1.9091	0.	-4170.6
16939	7.0904	2.	0.	-4196.
16940	7.1825	2.	5.e-002	-5.955
16941	7.1825	1.7273	0.	-4173.7
16942	7.0904	1.8182	0.	-4199.1
16943	7.1825	1.8182	5.e-002	-5.9542
16944	7.1825	1.5455	0.	-4177.3
16945	7.0904	1.6364	0.	-4202.6
16946	7.1825	1.6364	5.e-002	-5.9528
16947	7.1825	1.3636	0.	-4181.3
16948	7.0904	1.4545	0.	-4206.5
16949	7.1825	1.4545	5.e-002	-5.9501
16950	7.1825	1.1818	0.	-4185.6
16951	7.0904	1.2727	0.	-4210.8
16952	7.1825	1.2727	5.e-002	-5.9463
16953	7.1825	1.	0.	-4190.2
16954	7.0904	1.0909	0.	-4215.5
16955	7.1825	1.0909	5.e-002	-5.9407
16956	7.1825	0.81818	0.	-4195.
16957	7.0904	0.90909	0.	-4220.3
16958	7.1825	0.90909	5.e-002	-5.9332
16959	7.1825	0.63636	0.	-4200.
16960	7.0904	0.72727	0.	-4225.5
16961	7.1825	0.72727	5.e-002	-5.9229
16962	7.1825	0.45455	0.	-4205.2
16963	7.0904	0.54545	0.	-4230.8
16964	7.1825	0.54545	5.e-002	-5.8983
16965	7.1825	0.27273	0.	-4210.8
16966	7.0904	0.36364	0.	-4236.2
16967	7.1825	0.36364	5.e-002	-5.6868
16968	7.0904	0.18182	0.	-4242.3
16969	7.1825	0.18182	5.e-002	-2.734
16970	7.1825	9.0909e-002	0.	-4214.5
16971	6.9983	5.7273	0.	-4267.7
16972	6.9063	5.8182	0.	-4299.5
16973	6.9983	5.8182	5.e-002	-2.9922
16974	6.9983	5.9091	0.	-4271.9
16975	6.9983	5.5455	0.	-4261.8
16976	6.9063	5.6364	0.	-4293.2
16977	6.9983	5.6364	5.e-002	-5.7636
16978	6.9983	5.3636	0.	-4256.2
16979	6.9063	5.4545	0.	-4287.3
16980	6.9983	5.4545	5.e-002	-5.9638
16981	6.9983	5.1818	0.	-4250.8
16982	6.9063	5.2727	0.	-4281.6
16983	6.9983	5.2727	5.e-002	-5.988
16984	6.9983	5.	0.	-4245.6
16985	6.9063	5.0909	0.	-4276.1
16986	6.9983	5.0909	5.e-002	-5.9984
16987	6.9983	4.8182	0.	-4240.7
16988	6.9063	4.9091	0.	-4270.8
16989	6.9983	4.9091	5.e-002	-6.0058
16990	6.9983	4.6364	0.	-4236.1
16991	6.9063	4.7273	0.	-4265.9
16992	6.9983	4.7273	5.e-002	-6.0111
16993	6.9983	4.4545	0.	-4231.8
16994	6.9063	4.5455	0.	-4261.2
16995	6.9983	4.5455	5.e-002	-6.0147
16996	6.9983	4.2727	0.	-4227.9
16997	6.9063	4.3636	0.	-4257.
16998	6.9983	4.3636	5.e-002	-6.0168
16999	6.9983	4.0909	0.	-4224.5
17000	6.9063	4.1818	0.	-4253.2
17001	6.9983	4.1818	5.e-002	-6.0178
17002	6.9983	3.9091	0.	-4221.5
17003	6.9063	4.	0.	-4249.8
17004	6.9983	4.	5.e-002	-6.018
17005	6.9983	3.7273	0.	-4219.
17006	6.9063	3.8182	0.	-4247.
17007	6.9983	3.8182	5.e-002	-6.0176
17008	6.9983	3.5455	0.	-4217.1
17009	6.9063	3.6364	0.	-4244.7
17010	6.9983	3.6364	5.e-002	-6.017
17011	6.9983	3.3636	0.	-4215.6
17012	6.9063	3.4545	0.	-4242.9
17013	6.9983	3.4545	5.e-002	-6.0164
17014	6.9983	3.1818	0.	-4214.8
17015	6.9063	3.2727	0.	-4241.7
17016	6.9983	3.2727	5.e-002	-6.0159
17017	6.9983	3.	0.	-4214.5
17018	6.9063	3.0909	0.	-4241.1
17019	6.9983	3.0909	5.e-002	-6.0155
17020	6.9983	2.8182	0.	-4214.8
17021	6.9063	2.9091	0.	-4241.1
17022	6.9983	2.9091	5.e-002	-6.0155
17023	6.9983	2.6364	0.	-4215.6
17024	6.9063	2.7273	0.	-4241.7
17025	6.9983	2.7273	5.e-002	-6.0159
17026	6.9983	2.4545	0.	-4217.1
17027	6.9063	2.5455	0.	-4242.9
17028	6.9983	2.5455	5.e-002	-6.0164
17029	6.9983	2.2727	0.	-4219.
17030	6.9063	2.3636	0.	-4244.7
17031	6.9983	2.3636	5.e-002	-6.017
17032	6.9983	2.0909	0.	-4221.5
17033	6.9063	2.1818	0.	-4247.
17034	6.9983	2.1818	5.e-002	-6.0177
17035	6.9983	1.9091	0.	-4224.5
17036	6.9063	2.	0.	-4249.8
17037	6.9983	2.	5.e-002	-6.018
17038	6.9983	1.7273	0.	-4227.9
17039	6.9063	1.8182	0.	-4253.2
17040	6.9983	1.8182	5.e-002	-6.0179
17041	6.9983	1.5455	0.	-4231.8
17042	6.9063	1.6364	0.	-4257.
17043	6.9983	1.6364	5.e-002	-6.0169
17044	6.9983	1.3636	0.	-4236.1
17045	6.9063	1.4545	0.	-4261.2
17046	6.9983	1.4545	5.e-002	-6.0147
17047	6.9983	1.1818	0.	-4240.7
17048	6.9063	1.2727	0.	-4265.9
17049	6.9983	1.2727	5.e-002	-6.0112
17050	6.9983	1.	0.	-4245.6
17051	6.9063	1.0909	0.	-4270.8
17052	6.9983	1.0909	5.e-002	-6.006
17053	6.9983	0.81818	0.	-4250.8
17054	6.9063	0.90909	0.	-4276.1
17055	6.9983	0.90909	5.e-002	-5.9986
17056	6.9983	0.63636	0.	-4256.2
17057	6.9063	0.72727	0.	-4281.6
17058	6.9983	0.72727	5.e-002	-5.9882
17059	6.9983	0.45455	0.	-4261.8
17060	6.9063	0.54545	0.	-4287.3
17061	6.9983	0.54545	5.e-002	-5.964
17062	6.9983	0.27273	0.	-4267.7
17063	6.9063	0.36364	0.	-4293.2
17064	6.9983	0.36364	5.e-002	-5.7638
17065	6.9063	0.18182	0.	-4299.5
17066	6.9983	0.18182	5.e-002	-2.9924
17067	6.9983	9.0909e-002	0.	-4271.9
17068	6.8142	5.7273	0.	-4325.
17069	6.7221	5.8182	0.	-4357.2
17070	6.8142	5.8182	5.e-002	-3.2717
17071	6.8142	5.9091	0.	-4329.7
17072	6.8142	5.5455	0.	-4318.7
17073	6.7221	5.6364	0.	-4350.5
17074	6.8142	5.6364	5.e-002	-5.8466
17075	6.8142	5.3636	0.	-4312.7
17076	6.7221	5.4545	0.	-4344.2
17077	6.8142	5.4545	5.e-002	-6.0345
17078	6.8142	5.1818	0.	-4306.9
17079	6.7221	5.2727	0.	-4338.
17080	6.8142	5.2727	5.e-002	-6.0582
17081	6.8142	5.	0.	-4301.3
17082	6.7221	5.0909	0.	-4332.1
17083	6.8142	5.0909	5.e-002	-6.0686
17084	6.8142	4.8182	0.	-4296.
17085	6.7221	4.9091	0.	-4326.5
17086	6.8142	4.9091	5.e-002	-6.0758
17087	6.8142	4.6364	0.	-4291.
17088	6.7221	4.7273	0.	-4321.1
17089	6.8142	4.7273	5.e-002	-6.0808
17090	6.8142	4.4545	0.	-4286.4
17091	6.7221	4.5455	0.	-4316.1
17092	6.8142	4.5455	5.e-002	-6.0839
17093	6.8142	4.2727	0.	-4282.2
17094	6.7221	4.3636	0.	-4311.5
17095	6.8142	4.3636	5.e-002	-6.0853
17096	6.8142	4.0909	0.	-4278.5
17097	6.7221	4.1818	0.	-4307.4
17098	6.8142	4.1818	5.e-002	-6.0857
17099	6.8142	3.9091	0.	-4275.3
17100	6.7221	4.	0.	-4303.8
17101	6.8142	4.	5.e-002	-6.0852
17102	6.8142	3.7273	0.	-4272.6
17103	6.7221	3.8182	0.	-4300.7
17104	6.8142	3.8182	5.e-002	-6.0842
17105	6.8142	3.5455	0.	-4270.5
17106	6.7221	3.6364	0.	-4298.2
17107	6.8142	3.6364	5.e-002	-6.083
17108	6.8142	3.3636	0.	-4269.
17109	6.7221	3.4545	0.	-4296.3
17110	6.8142	3.4545	5.e-002	-6.0819
17111	6.8142	3.1818	0.	-4268.
17112	6.7221	3.2727	0.	-4295.
17113	6.8142	3.2727	5.e-002	-6.0811
17114	6.8142	3.	0.	-4267.7
17115	6.7221	3.0909	0.	-4294.4
17116	6.8142	3.0909	5.e-002	-6.0806
17117	6.8142	2.8182	0.	-4268.
17118	6.7221	2.9091	0.	-4294.4
17119	6.8142	2.9091	5.e-002	-6.0806
17120	6.8142	2.6364	0.	-4269.
17121	6.7221	2.7273	0.	-4295.
17122	6.8142	2.7273	5.e-002	-6.0811
17123	6.8142	2.4545	0.	-4270.5
17124	6.7221	2.5455	0.	-4296.3
17125	6.8142	2.5455	5.e-002	-6.0819
17126	6.8142	2.2727	0.	-4272.6
17127	6.7221	2.3636	0.	-4298.2
17128	6.8142	2.3636	5.e-002	-6.083
17129	6.8142	2.0909	0.	-4275.3
17130	6.7221	2.1818	0.	-4300.7
17131	6.8142	2.1818	5.e-002	-6.0842
17132	6.8142	1.9091	0.	-4278.5
17133	6.7221	2.	0.	-4303.8
17134	6.8142	2.	5.e-002	-6.0853
17135	6.8142	1.7273	0.	-4282.2
17136	6.7221	1.8182	0.	-4307.4
17137	6.8142	1.8182	5.e-002	-6.0858
17138	6.8142	1.5455	0.	-4286.4
17139	6.7221	1.6364	0.	-4311.5
17140	6.8142	1.6364	5.e-002	-6.0855
17141	6.8142	1.3636	0.	-4291.
17142	6.7221	1.4545	0.	-4316.1
17143	6.8142	1.4545	5.e-002	-6.084
17144	6.8142	1.1818	0.	-4296.
17145	6.7221	1.2727	0.	-4321.1
17146	6.8142	1.2727	5.e-002	-6.0809
17147	6.8142	1.	0.	-4301.3
17148	6.7221	1.0909	0.	-4326.5
17149	6.8142	1.0909	5.e-002	-6.076
17150	6.8142	0.81818	0.	-4306.9
17151	6.7221	0.90909	0.	-4332.1
17152	6.8142	0.90909	5.e-002	-6.0688
17153	6.8142	0.63636	0.	-4312.7
17154	6.7221	0.72727	0.	-4338.
17155	6.8142	0.72727	5.e-002	-6.0583
17156	6.8142	0.45455	0.	-4318.7
17157	6.7221	0.54545	0.	-4344.2
17158	6.8142	0.54545	5.e-002	-6.0346
17159	6.8142	0.27273	0.	-4325.
17160	6.7221	0.36364	0.	-4350.5
17161	6.8142	0.36364	5.e-002	-5.8467
17162	6.7221	0.18182	0.	-4357.2
17163	6.8142	0.18182	5.e-002	-3.2718
17164	6.8142	9.0909e-002	0.	-4329.7
17165	6.63	5.7273	0.	-4382.7
17166	6.5379	5.8182	0.	-4415.3
17167	6.63	5.8182	5.e-002	-3.574
17168	6.63	5.9091	0.	-4387.9
17169	6.63	5.5455	0.	-4375.9
17170	6.5379	5.6364	0.	-4408.1
17171	6.63	5.6364	5.e-002	-5.9362
17172	6.63	5.3636	0.	-4369.5
17173	6.5379	5.4545	0.	-4401.4
17174	6.63	5.4545	5.e-002	-6.1107
17175	6.63	5.1818	0.	-4363.3
17176	6.5379	5.2727	0.	-4394.8
17177	6.63	5.2727	5.e-002	-6.1337
17178	6.63	5.	0.	-4357.3
17179	6.5379	5.0909	0.	-4388.4
17180	6.63	5.0909	5.e-002	-6.1441
17181	6.63	4.8182	0.	-4351.5
17182	6.5379	4.9091	0.	-4382.3
17183	6.63	4.9091	5.e-002	-6.1512
17184	6.63	4.6364	0.	-4346.2
17185	6.5379	4.7273	0.	-4376.6
17186	6.63	4.7273	5.e-002	-6.1557
17187	6.63	4.4545	0.	-4341.2
17188	6.5379	4.5455	0.	-4371.2
17189	6.63	4.5455	5.e-002	-6.158
17190	6.63	4.2727	0.	-4336.7
17191	6.5379	4.3636	0.	-4366.2
17192	6.63	4.3636	5.e-002	-6.1589
17193	6.63	4.0909	0.	-4332.7
17194	6.5379	4.1818	0.	-4361.8
17195	6.63	4.1818	5.e-002	-6.1584
17196	6.63	3.9091	0.	-4329.2
17197	6.5379	4.	0.	-4357.9
17198	6.63	4.	5.e-002	-6.1571
17199	6.63	3.7273	0.	-4326.3
17200	6.5379	3.8182	0.	-4354.5
17201	6.63	3.8182	5.e-002	-6.1553
17202	6.63	3.5455	0.	-4324.
17203	6.5379	3.6364	0.	-4351.8
17204	6.63	3.6364	5.e-002	-6.1535
17205	6.63	3.3636	0.	-4322.4
17206	6.5379	3.4545	0.	-4349.8
17207	6.63	3.4545	5.e-002	-6.1518
17208	6.63	3.1818	0.	-4321.4
17209	6.5379	3.2727	0.	-4348.4
17210	6.63	3.2727	5.e-002	-6.1505
17211	6.63	3.	0.	-4321.
17212	6.5379	3.0909	0.	-4347.7
17213	6.63	3.0909	5.e-002	-6.1499
17214	6.63	2.8182	0.	-4321.4
17215	6.5379	2.9091	0.	-4347.7
17216	6.63	2.9091	5.e-002	-6.1499
17217	6.63	2.6364	0.	-4322.4
17218	6.5379	2.7273	0.	-4348.4
17219	6.63	2.7273	5.e-002	-6.1505
17220	6.63	2.4545	0.	-4324.
17221	6.5379	2.5455	0.	-4349.8
17222	6.63	2.5455	5.e-002	-6.1518
17223	6.63	2.2727	0.	-4326.3
17224	6.5379	2.3636	0.	-4351.8
17225	6.63	2.3636	5.e-002	-6.1535
17226	6.63	2.0909	0.	-4329.2
17227	6.5379	2.1818	0.	-4354.5
17228	6.63	2.1818	5.e-002	-6.1553
17229	6.63	1.9091	0.	-4332.7
17230	6.5379	2.	0.	-4357.9
17231	6.63	2.	5.e-002	-6.1571
17232	6.63	1.7273	0.	-4336.7
17233	6.5379	1.8182	0.	-4361.8
17234	6.63	1.8182	5.e-002	-6.1584
17235	6.63	1.5455	0.	-4341.2
17236	6.5379	1.6364	0.	-4366.2
17237	6.63	1.6364	5.e-002	-6.159
17238	6.63	1.3636	0.	-4346.2
17239	6.5379	1.4545	0.	-4371.2
17240	6.63	1.4545	5.e-002	-6.1582
17241	6.63	1.1818	0.	-4351.5
17242	6.5379	1.2727	0.	-4376.6
17243	6.63	1.2727	5.e-002	-6.1558
17244	6.63	1.	0.	-4357.3
17245	6.5379	1.0909	0.	-4382.3
17246	6.63	1.0909	5.e-002	-6.1513
17247	6.63	0.81818	0.	-4363.3
17248	6.5379	0.90909	0.	-4388.4
17249	6.63	0.90909	5.e-002	-6.1443
17250	6.63	0.63636	0.	-4369.5
17251	6.5379	0.72727	0.	-4394.8
17252	6.63	0.72727	5.e-002	-6.1339
17253	6.63	0.45455	0.	-4375.9
17254	6.5379	0.54545	0.	-4401.4
17255	6.63	0.54545	5.e-002	-6.1108
17256	6.63	0.27273	0.	-4382.7
17257	6.5379	0.36364	0.	-4408.1
17258	6.63	0.36364	5.e-002	-5.9364
17259	6.5379	0.18182	0.	-4415.3
17260	6.63	0.18182	5.e-002	-3.5742
17261	6.63	9.0909e-002	0.	-4387.9
17262	6.4458	5.7273	0.	-4440.8
17263	6.3538	5.8182	0.	-4473.9
17264	6.4458	5.8182	5.e-002	-3.9009
17265	6.4458	5.9091	0.	-4446.6
17266	6.4458	5.5455	0.	-4433.6
17267	6.3538	5.6364	0.	-4466.2
17268	6.4458	5.6364	5.e-002	-6.0332
17269	6.4458	5.3636	0.	-4426.7
17270	6.3538	5.4545	0.	-4459.
17271	6.4458	5.4545	5.e-002	-6.193
17272	6.4458	5.1818	0.	-4420.
17273	6.3538	5.2727	0.	-4451.9
17274	6.4458	5.2727	5.e-002	-6.2154
17275	6.4458	5.	0.	-4413.5
17276	6.3538	5.0909	0.	-4445.1
17277	6.4458	5.0909	5.e-002	-6.2257
17278	6.4458	4.8182	0.	-4407.3
17279	6.3538	4.9091	0.	-4438.5
17280	6.4458	4.9091	5.e-002	-6.2323
17281	6.4458	4.6364	0.	-4401.6
17282	6.3538	4.7273	0.	-4432.3
17283	6.4458	4.7273	5.e-002	-6.2362
17284	6.4458	4.4545	0.	-4396.2
17285	6.3538	4.5455	0.	-4426.4
17286	6.4458	4.5455	5.e-002	-6.2379
17287	6.4458	4.2727	0.	-4391.3
17288	6.3538	4.3636	0.	-4421.1
17289	6.4458	4.3636	5.e-002	-6.2378
17290	6.4458	4.0909	0.	-4387.
17291	6.3538	4.1818	0.	-4416.3
17292	6.4458	4.1818	5.e-002	-6.2364
17293	6.4458	3.9091	0.	-4383.2
17294	6.3538	4.	0.	-4412.1
17295	6.4458	4.	5.e-002	-6.2341
17296	6.4458	3.7273	0.	-4380.1
17297	6.3538	3.8182	0.	-4408.5
17298	6.4458	3.8182	5.e-002	-6.2314
17299	6.4458	3.5455	0.	-4377.6
17300	6.3538	3.6364	0.	-4405.5
17301	6.4458	3.6364	5.e-002	-6.2287
17302	6.4458	3.3636	0.	-4375.8
17303	6.3538	3.4545	0.	-4403.3
17304	6.4458	3.4545	5.e-002	-6.2264
17305	6.4458	3.1818	0.	-4374.7
17306	6.3538	3.2727	0.	-4401.8
17307	6.4458	3.2727	5.e-002	-6.2247
17308	6.4458	3.	0.	-4374.4
17309	6.3538	3.0909	0.	-4401.1
17310	6.4458	3.0909	5.e-002	-6.2238
17311	6.4458	2.8182	0.	-4374.7
17312	6.3538	2.9091	0.	-4401.1
17313	6.4458	2.9091	5.e-002	-6.2238
17314	6.4458	2.6364	0.	-4375.8
17315	6.3538	2.7273	0.	-4401.8
17316	6.4458	2.7273	5.e-002	-6.2247
17317	6.4458	2.4545	0.	-4377.6
17318	6.3538	2.5455	0.	-4403.3
17319	6.4458	2.5455	5.e-002	-6.2264
17320	6.4458	2.2727	0.	-4380.1
17321	6.3538	2.3636	0.	-4405.5
17322	6.4458	2.3636	5.e-002	-6.2288
17323	6.4458	2.0909	0.	-4383.2
17324	6.3538	2.1818	0.	-4408.5
17325	6.4458	2.1818	5.e-002	-6.2315
17326	6.4458	1.9091	0.	-4387.
17327	6.3538	2.	0.	-4412.1
17328	6.4458	2.	5.e-002	-6.2342
17329	6.4458	1.7273	0.	-4391.3
17330	6.3538	1.8182	0.	-4416.3
17331	6.4458	1.8182	5.e-002	-6.2365
17332	6.4458	1.5455	0.	-4396.2
17333	6.3538	1.6364	0.	-4421.1
17334	6.4458	1.6364	5.e-002	-6.2379
17335	6.4458	1.3636	0.	-4401.6
17336	6.3538	1.4545	0.	-4426.4
17337	6.4458	1.4545	5.e-002	-6.238
17338	6.4458	1.1818	0.	-4407.3
17339	6.3538	1.2727	0.	-4432.3
17340	6.4458	1.2727	5.e-002	-6.2363
17341	6.4458	1.	0.	-4413.5
17342	6.3538	1.0909	0.	-4438.5
17343	6.4458	1.0909	5.e-002	-6.2324
17344	6.4458	0.81818	0.	-4420.
17345	6.3538	0.90909	0.	-4445.1
17346	6.4458	0.90909	5.e-002	-6.2257
17347	6.4458	0.63636	0.	-4426.7
17348	6.3538	0.72727	0.	-4451.9
17349	6.4458	0.72727	5.e-002	-6.2155
17350	6.4458	0.45455	0.	-4433.6
17351	6.3538	0.54545	0.	-4459.
17352	6.4458	0.54545	5.e-002	-6.1931
17353	6.4458	0.27273	0.	-4440.8
17354	6.3538	0.36364	0.	-4466.2
17355	6.4458	0.36364	5.e-002	-6.0333
17356	6.3538	0.18182	0.	-4473.9
17357	6.4458	0.18182	5.e-002	-3.901
17358	6.4458	9.0909e-002	0.	-4446.6
17359	6.2617	5.7273	0.	-4499.3
17360	6.1696	5.8182	0.	-4532.9
17361	6.2617	5.8182	5.e-002	-4.2541
17362	6.2617	5.9091	0.	-4505.8
17363	6.2617	5.5455	0.	-4491.7
17364	6.1696	5.6364	0.	-4524.8
17365	6.2617	5.6364	5.e-002	-6.1381
17366	6.2617	5.3636	0.	-4484.2
17367	6.1696	5.4545	0.	-4517.
17368	6.2617	5.4545	5.e-002	-6.2821
17369	6.2617	5.1818	0.	-4477.
17370	6.1696	5.2727	0.	-4509.4
17371	6.2617	5.2727	5.e-002	-6.3036
17372	6.2617	5.	0.	-4470.
17373	6.1696	5.0909	0.	-4502.
17374	6.2617	5.0909	5.e-002	-6.3137
17375	6.2617	4.8182	0.	-4463.4
17376	6.1696	4.9091	0.	-4494.9
17377	6.2617	4.9091	5.e-002	-6.32
17378	6.2617	4.6364	0.	-4457.1
17379	6.1696	4.7273	0.	-4488.2
17380	6.2617	4.7273	5.e-002	-6.3232
17381	6.2617	4.4545	0.	-4451.3
17382	6.1696	4.5455	0.	-4481.9
17383	6.2617	4.5455	5.e-002	-6.324
17384	6.2617	4.2727	0.	-4446.1
17385	6.1696	4.3636	0.	-4476.1
17386	6.2617	4.3636	5.e-002	-6.3228
17387	6.2617	4.0909	0.	-4441.4
17388	6.1696	4.1818	0.	-4470.9
17389	6.2617	4.1818	5.e-002	-6.3202
17390	6.2617	3.9091	0.	-4437.3
17391	6.1696	4.	0.	-4466.4
17392	6.2617	4.	5.e-002	-6.3168
17393	6.2617	3.7273	0.	-4433.9
17394	6.1696	3.8182	0.	-4462.5
17395	6.2617	3.8182	5.e-002	-6.3131
17396	6.2617	3.5455	0.	-4431.2
17397	6.1696	3.6364	0.	-4459.3
17398	6.2617	3.6364	5.e-002	-6.3095
17399	6.2617	3.3636	0.	-4429.3
17400	6.1696	3.4545	0.	-4456.9
17401	6.2617	3.4545	5.e-002	-6.3064
17402	6.2617	3.1818	0.	-4428.1
17403	6.1696	3.2727	0.	-4455.3
17404	6.2617	3.2727	5.e-002	-6.3041
17405	6.2617	3.	0.	-4427.7
17406	6.1696	3.0909	0.	-4454.5
17407	6.2617	3.0909	5.e-002	-6.303
17408	6.2617	2.8182	0.	-4428.1
17409	6.1696	2.9091	0.	-4454.5
17410	6.2617	2.9091	5.e-002	-6.303
17411	6.2617	2.6364	0.	-4429.3
17412	6.1696	2.7273	0.	-4455.3
17413	6.2617	2.7273	5.e-002	-6.3041
17414	6.2617	2.4545	0.	-4431.2
17415	6.1696	2.5455	0.	-4456.9
17416	6.2617	2.5455	5.e-002	-6.3064
17417	6.2617	2.2727	0.	-4433.9
17418	6.1696	2.3636	0.	-4459.3
17419	6.2617	2.3636	5.e-002	-6.3095
17420	6.2617	2.0909	0.	-4437.3
17421	6.1696	2.1818	0.	-4462.5
17422	6.2617	2.1818	5.e-002	-6.3131
17423	6.2617	1.9091	0.	-4441.4
17424	6.1696	2.	0.	-4466.4
17425	6.2617	2.	5.e-002	-6.3169
17426	6.2617	1.7273	0.	-4446.1
17427	6.1696	1.8182	0.	-4470.9
17428	6.2617	1.8182	5.e-002	-6.3203
17429	6.2617	1.5455	0.	-4451.3
17430	6.1696	1.6364	0.	-4476.1
17431	6.2617	1.6364	5.e-002	-6.3229
17432	6.2617	1.3636	0.	-4457.1
17433	6.1696	1.4545	0.	-4481.9
17434	6.2617	1.4545	5.e-002	-6.324
17435	6.2617	1.1818	0.	-4463.4
17436	6.1696	1.2727	0.	-4488.2
17437	6.2617	1.2727	5.e-002	-6.3233
17438	6.2617	1.	0.	-4470.
17439	6.1696	1.0909	0.	-4494.9
17440	6.2617	1.0909	5.e-002	-6.32
17441	6.2617	0.81818	0.	-4477.
17442	6.1696	0.90909	0.	-4502.
17443	6.2617	0.90909	5.e-002	-6.3138
17444	6.2617	0.63636	0.	-4484.2
17445	6.1696	0.72727	0.	-4509.4
17446	6.2617	0.72727	5.e-002	-6.3037
17447	6.2617	0.45455	0.	-4491.7
17448	6.1696	0.54545	0.	-4517.
17449	6.2617	0.54545	5.e-002	-6.2822
17450	6.2617	0.27273	0.	-4499.3
17451	6.1696	0.36364	0.	-4524.8
17452	6.2617	0.36364	5.e-002	-6.1383
17453	6.1696	0.18182	0.	-4532.9
17454	6.2617	0.18182	5.e-002	-4.2543
17455	6.2617	9.0909e-002	0.	-4505.8
17456	6.0775	5.7273	0.	-4558.4
17457	5.9854	5.8182	0.	-4592.5
17458	6.0775	5.8182	5.e-002	-4.6358
17459	6.0775	5.9091	0.	-4565.4
17460	6.0775	5.5455	0.	-4550.1
17461	5.9854	5.6364	0.	-4583.8
17462	6.0775	5.6364	5.e-002	-6.2518
17463	6.0775	5.3636	0.	-4542.2
17464	5.9854	5.4545	0.	-4575.4
17465	6.0775	5.4545	5.e-002	-6.3787
17466	6.0775	5.1818	0.	-4534.4
17467	5.9854	5.2727	0.	-4567.2
17468	6.0775	5.2727	5.e-002	-6.3993
17469	6.0775	5.	0.	-4526.9
17470	5.9854	5.0909	0.	-4559.2
17471	6.0775	5.0909	5.e-002	-6.4091
17472	6.0775	4.8182	0.	-4519.7
17473	5.9854	4.9091	0.	-4551.6
17474	6.0775	4.9091	5.e-002	-6.4148
17475	6.0775	4.6364	0.	-4512.9
17476	5.9854	4.7273	0.	-4544.3
17477	6.0775	4.7273	5.e-002	-6.4172
17478	6.0775	4.4545	0.	-4506.7
17479	5.9854	4.5455	0.	-4537.6
17480	6.0775	4.5455	5.e-002	-6.4169
17481	6.0775	4.2727	0.	-4501.
17482	5.9854	4.3636	0.	-4531.3
17483	6.0775	4.3636	5.e-002	-6.4145
17484	6.0775	4.0909	0.	-4495.9
17485	5.9854	4.1818	0.	-4525.7
17486	6.0775	4.1818	5.e-002	-6.4106
17487	6.0775	3.9091	0.	-4491.5
17488	5.9854	4.	0.	-4520.8
17489	6.0775	4.	5.e-002	-6.406
17490	6.0775	3.7273	0.	-4487.9
17491	5.9854	3.8182	0.	-4516.6
17492	6.0775	3.8182	5.e-002	-6.401
17493	6.0775	3.5455	0.	-4485.
17494	5.9854	3.6364	0.	-4513.1
17495	6.0775	3.6364	5.e-002	-6.3963
17496	6.0775	3.3636	0.	-4482.9
17497	5.9854	3.4545	0.	-4510.5
17498	6.0775	3.4545	5.e-002	-6.3923
17499	6.0775	3.1818	0.	-4481.6
17500	5.9854	3.2727	0.	-4508.8
17501	6.0775	3.2727	5.e-002	-6.3894
17502	6.0775	3.	0.	-4481.2
17503	5.9854	3.0909	0.	-4507.9
17504	6.0775	3.0909	5.e-002	-6.388
17505	6.0775	2.8182	0.	-4481.6
17506	5.9854	2.9091	0.	-4507.9
17507	6.0775	2.9091	5.e-002	-6.388
17508	6.0775	2.6364	0.	-4482.9
17509	5.9854	2.7273	0.	-4508.8
17510	6.0775	2.7273	5.e-002	-6.3894
17511	6.0775	2.4545	0.	-4485.
17512	5.9854	2.5455	0.	-4510.5
17513	6.0775	2.5455	5.e-002	-6.3923
17514	6.0775	2.2727	0.	-4487.9
17515	5.9854	2.3636	0.	-4513.1
17516	6.0775	2.3636	5.e-002	-6.3963
17517	6.0775	2.0909	0.	-4491.5
17518	5.9854	2.1818	0.	-4516.6
17519	6.0775	2.1818	5.e-002	-6.401
17520	6.0775	1.9091	0.	-4495.9
17521	5.9854	2.	0.	-4520.8
17522	6.0775	2.	5.e-002	-6.406
17523	6.0775	1.7273	0.	-4501.
17524	5.9854	1.8182	0.	-4525.7
17525	6.0775	1.8182	5.e-002	-6.4107
17526	6.0775	1.5455	0.	-4506.7
17527	5.9854	1.6364	0.	-4531.3
17528	6.0775	1.6364	5.e-002	-6.4147
17529	6.0775	1.3636	0.	-4512.9
17530	5.9854	1.4545	0.	-4537.6
17531	6.0775	1.4545	5.e-002	-6.4171
17532	6.0775	1.1818	0.	-4519.7
17533	5.9854	1.2727	0.	-4544.3
17534	6.0775	1.2727	5.e-002	-6.4173
17535	6.0775	1.	0.	-4526.9
17536	5.9854	1.0909	0.	-4551.6
17537	6.0775	1.0909	5.e-002	-6.4149
17538	6.0775	0.81818	0.	-4534.4
17539	5.9854	0.90909	0.	-4559.2
17540	6.0775	0.90909	5.e-002	-6.4093
17541	6.0775	0.63636	0.	-4542.2
17542	5.9854	0.72727	0.	-4567.2
17543	6.0775	0.72727	5.e-002	-6.3994
17544	6.0775	0.45455	0.	-4550.1
17545	5.9854	0.54545	0.	-4575.4
17546	6.0775	0.54545	5.e-002	-6.3788
17547	6.0775	0.27273	0.	-4558.4
17548	5.9854	0.36364	0.	-4583.8
17549	6.0775	0.36364	5.e-002	-6.252
17550	5.9854	0.18182	0.	-4592.5
17551	6.0775	0.18182	5.e-002	-4.636
17552	6.0775	9.0909e-002	0.	-4565.4
17553	5.8933	5.7273	0.	-4617.9
17554	5.8012	5.8182	0.	-4652.6
17555	5.8933	5.8182	5.e-002	-5.0478
17556	5.8933	5.9091	0.	-4625.6
17557	5.8933	5.5455	0.	-4609.1
17558	5.8012	5.6364	0.	-4643.2
17559	5.8933	5.6364	5.e-002	-6.3751
17560	5.8933	5.3636	0.	-4600.5
17561	5.8012	5.4545	0.	-4634.3
17562	5.8933	5.4545	5.e-002	-6.4836
17563	5.8933	5.1818	0.	-4592.1
17564	5.8012	5.2727	0.	-4625.4
17565	5.8933	5.2727	5.e-002	-6.503
17566	5.8933	5.	0.	-4584.
17567	5.8012	5.0909	0.	-4616.8
17568	5.8933	5.0909	5.e-002	-6.5126
17569	5.8933	4.8182	0.	-4576.3
17570	5.8012	4.9091	0.	-4608.6
17571	5.8933	4.9091	5.e-002	-6.5177
17572	5.8933	4.6364	0.	-4569.
17573	5.8012	4.7273	0.	-4600.8
17574	5.8933	4.7273	5.e-002	-6.5191
17575	5.8933	4.4545	0.	-4562.2
17576	5.8012	4.5455	0.	-4593.4
17577	5.8933	4.5455	5.e-002	-6.5176
17578	5.8933	4.2727	0.	-4556.1
17579	5.8012	4.3636	0.	-4586.7
17580	5.8933	4.3636	5.e-002	-6.5138
17581	5.8933	4.0909	0.	-4550.6
17582	5.8012	4.1818	0.	-4580.6
17583	5.8933	4.1818	5.e-002	-6.5085
17584	5.8933	3.9091	0.	-4545.8
17585	5.8012	4.	0.	-4575.3
17586	5.8933	4.	5.e-002	-6.5022
17587	5.8933	3.7273	0.	-4541.9
17588	5.8012	3.8182	0.	-4570.8
17589	5.8933	3.8182	5.e-002	-6.4958
17590	5.8933	3.5455	0.	-4538.7
17591	5.8012	3.6364	0.	-4567.
17592	5.8933	3.6364	5.e-002	-6.4898
17593	5.8933	3.3636	0.	-4536.5
17594	5.8012	3.4545	0.	-4564.2
17595	5.8933	3.4545	5.e-002	-6.4849
17596	5.8933	3.1818	0.	-4535.1
17597	5.8012	3.2727	0.	-4562.3
17598	5.8933	3.2727	5.e-002	-6.4813
17599	5.8933	3.	0.	-4534.6
17600	5.8012	3.0909	0.	-4561.4
17601	5.8933	3.0909	5.e-002	-6.4794
17602	5.8933	2.8182	0.	-4535.1
17603	5.8012	2.9091	0.	-4561.4
17604	5.8933	2.9091	5.e-002	-6.4795
17605	5.8933	2.6364	0.	-4536.5
17606	5.8012	2.7273	0.	-4562.3
17607	5.8933	2.7273	5.e-002	-6.4813
17608	5.8933	2.4545	0.	-4538.7
17609	5.8012	2.5455	0.	-4564.2
17610	5.8933	2.5455	5.e-002	-6.4849
17611	5.8933	2.2727	0.	-4541.9
17612	5.8012	2.3636	0.	-4567.
17613	5.8933	2.3636	5.e-002	-6.4898
17614	5.8933	2.0909	0.	-4545.8
17615	5.8012	2.1818	0.	-4570.8
17616	5.8933	2.1818	5.e-002	-6.4958
17617	5.8933	1.9091	0.	-4550.6
17618	5.8012	2.	0.	-4575.3
17619	5.8933	2.	5.e-002	-6.5023
17620	5.8933	1.7273	0.	-4556.1
17621	5.8012	1.8182	0.	-4580.6
17622	5.8933	1.8182	5.e-002	-6.5085
17623	5.8933	1.5455	0.	-4562.2
17624	5.8012	1.6364	0.	-4586.7
17625	5.8933	1.6364	5.e-002	-6.5139
17626	5.8933	1.3636	0.	-4569.
17627	5.8012	1.4545	0.	-4593.4
17628	5.8933	1.4545	5.e-002	-6.5177
17629	5.8933	1.1818	0.	-4576.3
17630	5.8012	1.2727	0.	-4600.8
17631	5.8933	1.2727	5.e-002	-6.5193
17632	5.8933	1.	0.	-4584.
17633	5.8012	1.0909	0.	-4608.6
17634	5.8933	1.0909	5.e-002	-6.5179
17635	5.8933	0.81818	0.	-4592.1
17636	5.8012	0.90909	0.	-4616.8
17637	5.8933	0.90909	5.e-002	-6.5128
17638	5.8933	0.63636	0.	-4600.5
17639	5.8012	0.72727	0.	-4625.4
17640	5.8933	0.72727	5.e-002	-6.5032
17641	5.8933	0.45455	0.	-4609.1
17642	5.8012	0.54545	0.	-4634.3
17643	5.8933	0.54545	5.e-002	-6.4837
17644	5.8933	0.27273	0.	-4617.9
17645	5.8012	0.36364	0.	-4643.2
17646	5.8933	0.36364	5.e-002	-6.3753
17647	5.8012	0.18182	0.	-4652.6
17648	5.8933	0.18182	5.e-002	-5.048
17649	5.8933	9.0909e-002	0.	-4625.6
17650	5.7092	5.7273	0.	-4677.9
17651	5.6171	5.8182	0.	-4713.2
17652	5.7092	5.8182	5.e-002	-5.4924
17653	5.7092	5.9091	0.	-4686.2
17654	5.7092	5.5455	0.	-4668.4
17655	5.6171	5.6364	0.	-4703.2
17656	5.7092	5.6364	5.e-002	-6.5088
17657	5.7092	5.3636	0.	-4659.2
17658	5.6171	5.4545	0.	-4693.5
17659	5.7092	5.4545	5.e-002	-6.5975
17660	5.7092	5.1818	0.	-4650.2
17661	5.6171	5.2727	0.	-4684.
17662	5.7092	5.2727	5.e-002	-6.6158
17663	5.7092	5.	0.	-4641.4
17664	5.6171	5.0909	0.	-4674.8
17665	5.7092	5.0909	5.e-002	-6.6251
17666	5.7092	4.8182	0.	-4633.1
17667	5.6171	4.9091	0.	-4665.9
17668	5.7092	4.9091	5.e-002	-6.6295
17669	5.7092	4.6364	0.	-4625.2
17670	5.6171	4.7273	0.	-4657.4
17671	5.7092	4.7273	5.e-002	-6.6298
17672	5.7092	4.4545	0.	-4618.
17673	5.6171	4.5455	0.	-4649.5
17674	5.7092	4.5455	5.e-002	-6.6269
17675	5.7092	4.2727	0.	-4611.3
17676	5.6171	4.3636	0.	-4642.3
17677	5.7092	4.3636	5.e-002	-6.6215
17678	5.7092	4.0909	0.	-4605.4
17679	5.6171	4.1818	0.	-4635.7
17680	5.7092	4.1818	5.e-002	-6.6144
17681	5.7092	3.9091	0.	-4600.2
17682	5.6171	4.	0.	-4629.9
17683	5.7092	4.	5.e-002	-6.6064
17684	5.7092	3.7273	0.	-4595.9
17685	5.6171	3.8182	0.	-4625.
17686	5.7092	3.8182	5.e-002	-6.5984
17687	5.7092	3.5455	0.	-4592.5
17688	5.6171	3.6364	0.	-4621.
17689	5.7092	3.6364	5.e-002	-6.591
17690	5.7092	3.3636	0.	-4590.1
17691	5.6171	3.4545	0.	-4618.
17692	5.7092	3.4545	5.e-002	-6.5849
17693	5.7092	3.1818	0.	-4588.6
17694	5.6171	3.2727	0.	-4615.9
17695	5.7092	3.2727	5.e-002	-6.5805
17696	5.7092	3.	0.	-4588.1
17697	5.6171	3.0909	0.	-4614.9
17698	5.7092	3.0909	5.e-002	-6.5783
17699	5.7092	2.8182	0.	-4588.6
17700	5.6171	2.9091	0.	-4614.9
17701	5.7092	2.9091	5.e-002	-6.5783
17702	5.7092	2.6364	0.	-4590.1
17703	5.6171	2.7273	0.	-4615.9
17704	5.7092	2.7273	5.e-002	-6.5806
17705	5.7092	2.4545	0.	-4592.5
17706	5.6171	2.5455	0.	-4618.
17707	5.7092	2.5455	5.e-002	-6.5849
17708	5.7092	2.2727	0.	-4595.9
17709	5.6171	2.3636	0.	-4621.
17710	5.7092	2.3636	5.e-002	-6.591
17711	5.7092	2.0909	0.	-4600.2
17712	5.6171	2.1818	0.	-4625.
17713	5.7092	2.1818	5.e-002	-6.5985
17714	5.7092	1.9091	0.	-4605.4
17715	5.6171	2.	0.	-4629.9
17716	5.7092	2.	5.e-002	-6.6065
17717	5.7092	1.7273	0.	-4611.3
17718	5.6171	1.8182	0.	-4635.7
17719	5.7092	1.8182	5.e-002	-6.6145
17720	5.7092	1.5455	0.	-4618.
17721	5.6171	1.6364	0.	-4642.3
17722	5.7092	1.6364	5.e-002	-6.6216
17723	5.7092	1.3636	0.	-4625.2
17724	5.6171	1.4545	0.	-4649.5
17725	5.7092	1.4545	5.e-002	-6.627
17726	5.7092	1.1818	0.	-4633.1
17727	5.6171	1.2727	0.	-4657.4
17728	5.7092	1.2727	5.e-002	-6.6299
17729	5.7092	1.	0.	-4641.4
17730	5.6171	1.0909	0.	-4665.9
17731	5.7092	1.0909	5.e-002	-6.6295
17732	5.7092	0.81818	0.	-4650.2
17733	5.6171	0.90909	0.	-4674.8
17734	5.7092	0.90909	5.e-002	-6.6252
17735	5.7092	0.63636	0.	-4659.2
17736	5.6171	0.72727	0.	-4684.
17737	5.7092	0.72727	5.e-002	-6.616
17738	5.7092	0.45455	0.	-4668.4
17739	5.6171	0.54545	0.	-4693.5
17740	5.7092	0.54545	5.e-002	-6.5977
17741	5.7092	0.27273	0.	-4677.9
17742	5.6171	0.36364	0.	-4703.2
17743	5.7092	0.36364	5.e-002	-6.509
17744	5.6171	0.18182	0.	-4713.2
17745	5.7092	0.18182	5.e-002	-5.4926
17746	5.7092	9.0909e-002	0.	-4686.2
17747	5.525	5.7273	0.	-4738.5
17748	5.4329	5.8182	0.	-4774.4
17749	5.525	5.8182	5.e-002	-5.9718
17750	5.525	5.9091	0.	-4747.5
17751	5.525	5.5455	0.	-4728.3
17752	5.4329	5.6364	0.	-4763.6
17753	5.525	5.6364	5.e-002	-6.6539
17754	5.525	5.3636	0.	-4718.3
17755	5.4329	5.4545	0.	-4753.3
17756	5.525	5.4545	5.e-002	-6.7215
17757	5.525	5.1818	0.	-4708.6
17758	5.4329	5.2727	0.	-4743.
17759	5.525	5.2727	5.e-002	-6.7386
17760	5.525	5.	0.	-4699.2
17761	5.4329	5.0909	0.	-4733.
17762	5.525	5.0909	5.e-002	-6.7474
17763	5.525	4.8182	0.	-4690.2
17764	5.4329	4.9091	0.	-4723.5
17765	5.525	4.9091	5.e-002	-6.7511
17766	5.525	4.6364	0.	-4681.7
17767	5.4329	4.7273	0.	-4714.4
17768	5.525	4.7273	5.e-002	-6.7503
17769	5.525	4.4545	0.	-4673.9
17770	5.4329	4.5455	0.	-4705.9
17771	5.525	4.5455	5.e-002	-6.7458
17772	5.525	4.2727	0.	-4666.7
17773	5.4329	4.3636	0.	-4698.
17774	5.525	4.3636	5.e-002	-6.7386
17775	5.525	4.0909	0.	-4660.3
17776	5.4329	4.1818	0.	-4690.9
17777	5.525	4.1818	5.e-002	-6.7296
17778	5.525	3.9091	0.	-4654.7
17779	5.4329	4.	0.	-4684.7
17780	5.525	4.	5.e-002	-6.7197
17781	5.525	3.7273	0.	-4650.1
17782	5.4329	3.8182	0.	-4679.4
17783	5.525	3.8182	5.e-002	-6.7098
17784	5.525	3.5455	0.	-4646.4
17785	5.4329	3.6364	0.	-4675.
17786	5.525	3.6364	5.e-002	-6.7008
17787	5.525	3.3636	0.	-4643.8
17788	5.4329	3.4545	0.	-4671.7
17789	5.525	3.4545	5.e-002	-6.6934
17790	5.525	3.1818	0.	-4642.2
17791	5.4329	3.2727	0.	-4669.5
17792	5.525	3.2727	5.e-002	-6.6881
17793	5.525	3.	0.	-4641.6
17794	5.4329	3.0909	0.	-4668.4
17795	5.525	3.0909	5.e-002	-6.6854
17796	5.525	2.8182	0.	-4642.2
17797	5.4329	2.9091	0.	-4668.4
17798	5.525	2.9091	5.e-002	-6.6854
17799	5.525	2.6364	0.	-4643.8
17800	5.4329	2.7273	0.	-4669.5
17801	5.525	2.7273	5.e-002	-6.6882
17802	5.525	2.4545	0.	-4646.4
17803	5.4329	2.5455	0.	-4671.7
17804	5.525	2.5455	5.e-002	-6.6935
17805	5.525	2.2727	0.	-4650.1
17806	5.4329	2.3636	0.	-4675.
17807	5.525	2.3636	5.e-002	-6.7008
17808	5.525	2.0909	0.	-4654.7
17809	5.4329	2.1818	0.	-4679.4
17810	5.525	2.1818	5.e-002	-6.7099
17811	5.525	1.9091	0.	-4660.3
17812	5.4329	2.	0.	-4684.7
17813	5.525	2.	5.e-002	-6.7198
17814	5.525	1.7273	0.	-4666.7
17815	5.4329	1.8182	0.	-4690.9
17816	5.525	1.8182	5.e-002	-6.7297
17817	5.525	1.5455	0.	-4673.9
17818	5.4329	1.6364	0.	-4698.
17819	5.525	1.6364	5.e-002	-6.7387
17820	5.525	1.3636	0.	-4681.7
17821	5.4329	1.4545	0.	-4705.9
17822	5.525	1.4545	5.e-002	-6.7458
17823	5.525	1.1818	0.	-4690.2
17824	5.4329	1.2727	0.	-4714.4
17825	5.525	1.2727	5.e-002	-6.7503
17826	5.525	1.	0.	-4699.2
17827	5.4329	1.0909	0.	-4723.5
17828	5.525	1.0909	5.e-002	-6.7512
17829	5.525	0.81818	0.	-4708.6
17830	5.4329	0.90909	0.	-4733.
17831	5.525	0.90909	5.e-002	-6.7476
17832	5.525	0.63636	0.	-4718.3
17833	5.4329	0.72727	0.	-4743.
17834	5.525	0.72727	5.e-002	-6.7388
17835	5.525	0.45455	0.	-4728.3
17836	5.4329	0.54545	0.	-4753.3
17837	5.525	0.54545	5.e-002	-6.7216
17838	5.525	0.27273	0.	-4738.5
17839	5.4329	0.36364	0.	-4763.7
17840	5.525	0.36364	5.e-002	-6.654
17841	5.4329	0.18182	0.	-4774.4
17842	5.525	0.18182	5.e-002	-5.972
17843	5.525	9.0909e-002	0.	-4747.5
17844	5.3408	5.7273	0.	-4799.6
17845	5.2488	5.8182	0.	-4836.2
17846	5.3408	5.8182	5.e-002	-6.4883
17847	5.3408	5.9091	0.	-4809.3
17848	5.3408	5.5455	0.	-4788.6
17849	5.2488	5.6364	0.	-4824.6
17850	5.3408	5.6364	5.e-002	-6.8111
17851	5.3408	5.3636	0.	-4777.9
17852	5.2488	5.4545	0.	-4813.5
17853	5.3408	5.4545	5.e-002	-6.8565
17854	5.3408	5.1818	0.	-4767.5
17855	5.2488	5.2727	0.	-4802.4
17856	5.3408	5.2727	5.e-002	-6.8723
17857	5.3408	5.	0.	-4757.3
17858	5.2488	5.0909	0.	-4791.7
17859	5.3408	5.0909	5.e-002	-6.8809
17860	5.3408	4.8182	0.	-4747.6
17861	5.2488	4.9091	0.	-4781.4
17862	5.3408	4.9091	5.e-002	-6.8836
17863	5.3408	4.6364	0.	-4738.5
17864	5.2488	4.7273	0.	-4771.6
17865	5.3408	4.7273	5.e-002	-6.8816
17866	5.3408	4.4545	0.	-4730.
17867	5.2488	4.5455	0.	-4762.4
17868	5.3408	4.5455	5.e-002	-6.8753
17869	5.3408	4.2727	0.	-4722.3
17870	5.2488	4.3636	0.	-4753.9
17871	5.3408	4.3636	5.e-002	-6.8662
17872	5.3408	4.0909	0.	-4715.3
17873	5.2488	4.1818	0.	-4746.3
17874	5.3408	4.1818	5.e-002	-6.8551
17875	5.3408	3.9091	0.	-4709.3
17876	5.2488	4.	0.	-4739.6
17877	5.3408	4.	5.e-002	-6.8431
17878	5.3408	3.7273	0.	-4704.3
17879	5.2488	3.8182	0.	-4733.8
17880	5.3408	3.8182	5.e-002	-6.8312
17881	5.3408	3.5455	0.	-4700.4
17882	5.2488	3.6364	0.	-4729.1
17883	5.3408	3.6364	5.e-002	-6.8204
17884	5.3408	3.3636	0.	-4697.5
17885	5.2488	3.4545	0.	-4725.6
17886	5.3408	3.4545	5.e-002	-6.8115
17887	5.3408	3.1818	0.	-4695.8
17888	5.2488	3.2727	0.	-4723.2
17889	5.3408	3.2727	5.e-002	-6.8052
17890	5.3408	3.	0.	-4695.2
17891	5.2488	3.0909	0.	-4722.
17892	5.3408	3.0909	5.e-002	-6.8019
17893	5.3408	2.8182	0.	-4695.8
17894	5.2488	2.9091	0.	-4722.
17895	5.3408	2.9091	5.e-002	-6.8019
17896	5.3408	2.6364	0.	-4697.5
17897	5.2488	2.7273	0.	-4723.2
17898	5.3408	2.7273	5.e-002	-6.8052
17899	5.3408	2.4545	0.	-4700.4
17900	5.2488	2.5455	0.	-4725.6
17901	5.3408	2.5455	5.e-002	-6.8115
17902	5.3408	2.2727	0.	-4704.3
17903	5.2488	2.3636	0.	-4729.1
17904	5.3408	2.3636	5.e-002	-6.8204
17905	5.3408	2.0909	0.	-4709.3
17906	5.2488	2.1818	0.	-4733.8
17907	5.3408	2.1818	5.e-002	-6.8312
17908	5.3408	1.9091	0.	-4715.3
17909	5.2488	2.	0.	-4739.6
17910	5.3408	2.	5.e-002	-6.8431
17911	5.3408	1.7273	0.	-4722.3
17912	5.2488	1.8182	0.	-4746.3
17913	5.3408	1.8182	5.e-002	-6.8552
17914	5.3408	1.5455	0.	-4730.
17915	5.2488	1.6364	0.	-4753.9
17916	5.3408	1.6364	5.e-002	-6.8663
17917	5.3408	1.3636	0.	-4738.5
17918	5.2488	1.4545	0.	-4762.4
17919	5.3408	1.4545	5.e-002	-6.8755
17920	5.3408	1.1818	0.	-4747.6
17921	5.2488	1.2727	0.	-4771.6
17922	5.3408	1.2727	5.e-002	-6.8816
17923	5.3408	1.	0.	-4757.3
17924	5.2488	1.0909	0.	-4781.4
17925	5.3408	1.0909	5.e-002	-6.8838
17926	5.3408	0.81818	0.	-4767.5
17927	5.2488	0.90909	0.	-4791.7
17928	5.3408	0.90909	5.e-002	-6.881
17929	5.3408	0.63636	0.	-4777.9
17930	5.2488	0.72727	0.	-4802.4
17931	5.3408	0.72727	5.e-002	-6.8725
17932	5.3408	0.45455	0.	-4788.6
17933	5.2488	0.54545	0.	-4813.5
17934	5.3408	0.54545	5.e-002	-6.8566
17935	5.3408	0.27273	0.	-4799.6
17936	5.2488	0.36364	0.	-4824.6
17937	5.3408	0.36364	5.e-002	-6.8113
17938	5.2488	0.18182	0.	-4836.2
17939	5.3408	0.18182	5.e-002	-6.4885
17940	5.3408	9.0909e-002	0.	-4809.3
17941	5.1567	5.7273	0.	-4861.3
17942	5.0646	5.8182	0.	-4898.6
17943	5.1567	5.8182	5.e-002	-7.0444
17944	5.1567	5.9091	0.	-4871.7
17945	5.1567	5.5455	0.	-4849.5
17946	5.0646	5.6364	0.	-4886.2
17947	5.1567	5.6364	5.e-002	-6.9817
17948	5.1567	5.3636	0.	-4838.
17949	5.0646	5.4545	0.	-4874.2
17950	5.1567	5.4545	5.e-002	-7.0034
17951	5.1567	5.1818	0.	-4826.7
17952	5.0646	5.2727	0.	-4862.3
17953	5.1567	5.2727	5.e-002	-7.018
17954	5.1567	5.	0.	-4815.8
17955	5.0646	5.0909	0.	-4850.7
17956	5.1567	5.0909	5.e-002	-7.0263
17957	5.1567	4.8182	0.	-4805.4
17958	5.0646	4.9091	0.	-4839.6
17959	5.1567	4.9091	5.e-002	-7.0283
17960	5.1567	4.6364	0.	-4795.5
17961	5.0646	4.7273	0.	-4829.1
17962	5.1567	4.7273	5.e-002	-7.0249
17963	5.1567	4.4545	0.	-4786.3
17964	5.0646	4.5455	0.	-4819.2
17965	5.1567	4.5455	5.e-002	-7.0169
17966	5.1567	4.2727	0.	-4778.
17967	5.0646	4.3636	0.	-4810.1
17968	5.1567	4.3636	5.e-002	-7.0056
17969	5.1567	4.0909	0.	-4770.5
17970	5.0646	4.1818	0.	-4801.8
17971	5.1567	4.1818	5.e-002	-6.9923
17972	5.1567	3.9091	0.	-4764.1
17973	5.0646	4.	0.	-4794.6
17974	5.1567	4.	5.e-002	-6.9779
17975	5.1567	3.7273	0.	-4758.6
17976	5.0646	3.8182	0.	-4788.4
17977	5.1567	3.8182	5.e-002	-6.9637
17978	5.1567	3.5455	0.	-4754.4
17979	5.0646	3.6364	0.	-4783.3
17980	5.1567	3.6364	5.e-002	-6.9509
17981	5.1567	3.3636	0.	-4751.3
17982	5.0646	3.4545	0.	-4779.5
17983	5.1567	3.4545	5.e-002	-6.9404
17984	5.1567	3.1818	0.	-4749.4
17985	5.0646	3.2727	0.	-4776.9
17986	5.1567	3.2727	5.e-002	-6.933
17987	5.1567	3.	0.	-4748.8
17988	5.0646	3.0909	0.	-4775.6
17989	5.1567	3.0909	5.e-002	-6.9292
17990	5.1567	2.8182	0.	-4749.4
17991	5.0646	2.9091	0.	-4775.6
17992	5.1567	2.9091	5.e-002	-6.9292
17993	5.1567	2.6364	0.	-4751.3
17994	5.0646	2.7273	0.	-4776.9
17995	5.1567	2.7273	5.e-002	-6.933
17996	5.1567	2.4545	0.	-4754.4
17997	5.0646	2.5455	0.	-4779.5
17998	5.1567	2.5455	5.e-002	-6.9405
17999	5.1567	2.2727	0.	-4758.6
18000	5.0646	2.3636	0.	-4783.3
18001	5.1567	2.3636	5.e-002	-6.951
18002	5.1567	2.0909	0.	-4764.1
18003	5.0646	2.1818	0.	-4788.4
18004	5.1567	2.1818	5.e-002	-6.9638
18005	5.1567	1.9091	0.	-4770.5
18006	5.0646	2.	0.	-4794.6
18007	5.1567	2.	5.e-002	-6.9779
18008	5.1567	1.7273	0.	-4778.
18009	5.0646	1.8182	0.	-4801.8
18010	5.1567	1.8182	5.e-002	-6.9923
18011	5.1567	1.5455	0.	-4786.3
18012	5.0646	1.6364	0.	-4810.1
18013	5.1567	1.6364	5.e-002	-7.0058
18014	5.1567	1.3636	0.	-4795.5
18015	5.0646	1.4545	0.	-4819.2
18016	5.1567	1.4545	5.e-002	-7.0171
18017	5.1567	1.1818	0.	-4805.4
18018	5.0646	1.2727	0.	-4829.1
18019	5.1567	1.2727	5.e-002	-7.0251
18020	5.1567	1.	0.	-4815.8
18021	5.0646	1.0909	0.	-4839.6
18022	5.1567	1.0909	5.e-002	-7.0285
18023	5.1567	0.81818	0.	-4826.7
18024	5.0646	0.90909	0.	-4850.7
18025	5.1567	0.90909	5.e-002	-7.0265
18026	5.1567	0.63636	0.	-4838.
18027	5.0646	0.72727	0.	-4862.3
18028	5.1567	0.72727	5.e-002	-7.0182
18029	5.1567	0.45455	0.	-4849.5
18030	5.0646	0.54545	0.	-4874.2
18031	5.1567	0.54545	5.e-002	-7.0035
18032	5.1567	0.27273	0.	-4861.3
18033	5.0646	0.36364	0.	-4886.2
18034	5.1567	0.36364	5.e-002	-6.9819
18035	5.0646	0.18182	0.	-4898.6
18036	5.1567	0.18182	5.e-002	-7.0446
18037	5.1567	9.0909e-002	0.	-4871.7
18038	4.9725	5.7273	0.	-4923.5
18039	4.8804	5.8182	0.	-4961.6
18040	4.9725	5.8182	5.e-002	-7.6424
18041	4.9725	5.9091	0.	-4934.7
18042	4.9725	5.5455	0.	-4910.9
18043	4.8804	5.6364	0.	-4948.3
18044	4.9725	5.6364	5.e-002	-7.1664
18045	4.9725	5.3636	0.	-4898.5
18046	4.8804	5.4545	0.	-4935.3
18047	4.9725	5.4545	5.e-002	-7.1633
18048	4.9725	5.1818	0.	-4886.4
18049	4.8804	5.2727	0.	-4922.6
18050	4.9725	5.2727	5.e-002	-7.177
18051	4.9725	5.	0.	-4874.6
18052	4.8804	5.0909	0.	-4910.2
18053	4.9725	5.0909	5.e-002	-7.1853
18054	4.9725	4.8182	0.	-4863.4
18055	4.8804	4.9091	0.	-4898.2
18056	4.9725	4.9091	5.e-002	-7.1866
18057	4.9725	4.6364	0.	-4852.8
18058	4.8804	4.7273	0.	-4886.9
18059	4.9725	4.7273	5.e-002	-7.1818
18060	4.9725	4.4545	0.	-4842.9
18061	4.8804	4.5455	0.	-4876.2
18062	4.9725	4.5455	5.e-002	-7.172
18063	4.9725	4.2727	0.	-4833.9
18064	4.8804	4.3636	0.	-4866.4
18065	4.9725	4.3636	5.e-002	-7.1585
18066	4.9725	4.0909	0.	-4825.9
18067	4.8804	4.1818	0.	-4857.5
18068	4.9725	4.1818	5.e-002	-7.1425
18069	4.9725	3.9091	0.	-4818.9
18070	4.8804	4.	0.	-4849.7
18071	4.9725	4.	5.e-002	-7.1256
18072	4.9725	3.7273	0.	-4813.1
18073	4.8804	3.8182	0.	-4843.1
18074	4.9725	3.8182	5.e-002	-7.1091
18075	4.9725	3.5455	0.	-4808.5
18076	4.8804	3.6364	0.	-4837.7
18077	4.9725	3.6364	5.e-002	-7.0941
18078	4.9725	3.3636	0.	-4805.1
18079	4.8804	3.4545	0.	-4833.5
18080	4.9725	3.4545	5.e-002	-7.0819
18081	4.9725	3.1818	0.	-4803.1
18082	4.8804	3.2727	0.	-4830.7
18083	4.9725	3.2727	5.e-002	-7.0732
18084	4.9725	3.	0.	-4802.5
18085	4.8804	3.0909	0.	-4829.3
18086	4.9725	3.0909	5.e-002	-7.0687
18087	4.9725	2.8182	0.	-4803.1
18088	4.8804	2.9091	0.	-4829.3
18089	4.9725	2.9091	5.e-002	-7.0687
18090	4.9725	2.6364	0.	-4805.1
18091	4.8804	2.7273	0.	-4830.7
18092	4.9725	2.7273	5.e-002	-7.0732
18093	4.9725	2.4545	0.	-4808.5
18094	4.8804	2.5455	0.	-4833.5
18095	4.9725	2.5455	5.e-002	-7.0819
18096	4.9725	2.2727	0.	-4813.1
18097	4.8804	2.3636	0.	-4837.7
18098	4.9725	2.3636	5.e-002	-7.0942
18099	4.9725	2.0909	0.	-4818.9
18100	4.8804	2.1818	0.	-4843.1
18101	4.9725	2.1818	5.e-002	-7.1091
18102	4.9725	1.9091	0.	-4825.9
18103	4.8804	2.	0.	-4849.7
18104	4.9725	2.	5.e-002	-7.1256
18105	4.9725	1.7273	0.	-4833.9
18106	4.8804	1.8182	0.	-4857.5
18107	4.9725	1.8182	5.e-002	-7.1427
18108	4.9725	1.5455	0.	-4842.9
18109	4.8804	1.6364	0.	-4866.4
18110	4.9725	1.6364	5.e-002	-7.1586
18111	4.9725	1.3636	0.	-4852.8
18112	4.8804	1.4545	0.	-4876.2
18113	4.9725	1.4545	5.e-002	-7.1721
18114	4.9725	1.1818	0.	-4863.4
18115	4.8804	1.2727	0.	-4886.9
18116	4.9725	1.2727	5.e-002	-7.1819
18117	4.9725	1.	0.	-4874.6
18118	4.8804	1.0909	0.	-4898.2
18119	4.9725	1.0909	5.e-002	-7.1867
18120	4.9725	0.81818	0.	-4886.4
18121	4.8804	0.90909	0.	-4910.2
18122	4.9725	0.90909	5.e-002	-7.1854
18123	4.9725	0.63636	0.	-4898.5
18124	4.8804	0.72727	0.	-4922.6
18125	4.9725	0.72727	5.e-002	-7.1772
18126	4.9725	0.45455	0.	-4910.9
18127	4.8804	0.54545	0.	-4935.3
18128	4.9725	0.54545	5.e-002	-7.1635
18129	4.9725	0.27273	0.	-4923.5
18130	4.8804	0.36364	0.	-4948.3
18131	4.9725	0.36364	5.e-002	-7.1666
18132	4.8804	0.18182	0.	-4961.6
18133	4.9725	0.18182	5.e-002	-7.6426
18134	4.9725	9.0909e-002	0.	-4934.7
18135	4.7883	5.7273	0.	-4986.4
18136	4.6962	5.8182	0.	-5025.4
18137	4.7883	5.8182	5.e-002	-8.2848
18138	4.7883	5.9091	0.	-4998.2
18139	4.7883	5.5455	0.	-4972.8
18140	4.6962	5.6364	0.	-5010.9
18141	4.7883	5.6364	5.e-002	-7.3664
18142	4.7883	5.3636	0.	-4959.5
18143	4.6962	5.4545	0.	-4997.
18144	4.7883	5.4545	5.e-002	-7.3376
18145	4.7883	5.1818	0.	-4946.4
18146	4.6962	5.2727	0.	-4983.3
18147	4.7883	5.2727	5.e-002	-7.3505
18148	4.7883	5.	0.	-4933.8
18149	4.6962	5.0909	0.	-4970.
18150	4.7883	5.0909	5.e-002	-7.359
18151	4.7883	4.8182	0.	-4921.7
18152	4.6962	4.9091	0.	-4957.1
18153	4.7883	4.9091	5.e-002	-7.3598
18154	4.7883	4.6364	0.	-4910.3
18155	4.6962	4.7273	0.	-4944.9
18156	4.7883	4.7273	5.e-002	-7.3538
18157	4.7883	4.4545	0.	-4899.7
18158	4.6962	4.5455	0.	-4933.5
18159	4.7883	4.5455	5.e-002	-7.3421
18160	4.7883	4.2727	0.	-4890.
18161	4.6962	4.3636	0.	-4923.
18162	4.7883	4.3636	5.e-002	-7.3263
18163	4.7883	4.0909	0.	-4881.4
18164	4.6962	4.1818	0.	-4913.5
18165	4.7883	4.1818	5.e-002	-7.3077
18166	4.7883	3.9091	0.	-4873.9
18167	4.6962	4.	0.	-4905.1
18168	4.7883	4.	5.e-002	-7.2881
18169	4.7883	3.7273	0.	-4867.7
18170	4.6962	3.8182	0.	-4897.9
18171	4.7883	3.8182	5.e-002	-7.2689
18172	4.7883	3.5455	0.	-4862.7
18173	4.6962	3.6364	0.	-4892.1
18174	4.7883	3.6364	5.e-002	-7.2516
18175	4.7883	3.3636	0.	-4859.1
18176	4.6962	3.4545	0.	-4887.7
18177	4.7883	3.4545	5.e-002	-7.2375
18178	4.7883	3.1818	0.	-4857.
18179	4.6962	3.2727	0.	-4884.7
18180	4.7883	3.2727	5.e-002	-7.2275
18181	4.7883	3.	0.	-4856.2
18182	4.6962	3.0909	0.	-4883.2
18183	4.7883	3.0909	5.e-002	-7.2224
18184	4.7883	2.8182	0.	-4857.
18185	4.6962	2.9091	0.	-4883.2
18186	4.7883	2.9091	5.e-002	-7.2224
18187	4.7883	2.6364	0.	-4859.1
18188	4.6962	2.7273	0.	-4884.7
18189	4.7883	2.7273	5.e-002	-7.2276
18190	4.7883	2.4545	0.	-4862.7
18191	4.6962	2.5455	0.	-4887.7
18192	4.7883	2.5455	5.e-002	-7.2375
18193	4.7883	2.2727	0.	-4867.7
18194	4.6962	2.3636	0.	-4892.1
18195	4.7883	2.3636	5.e-002	-7.2517
18196	4.7883	2.0909	0.	-4873.9
18197	4.6962	2.1818	0.	-4897.9
18198	4.7883	2.1818	5.e-002	-7.2689
18199	4.7883	1.9091	0.	-4881.4
18200	4.6962	2.	0.	-4905.1
18201	4.7883	2.	5.e-002	-7.2881
18202	4.7883	1.7273	0.	-4890.
18203	4.6962	1.8182	0.	-4913.5
18204	4.7883	1.8182	5.e-002	-7.3078
18205	4.7883	1.5455	0.	-4899.7
18206	4.6962	1.6364	0.	-4923.
18207	4.7883	1.6364	5.e-002	-7.3263
18208	4.7883	1.3636	0.	-4910.3
18209	4.6962	1.4545	0.	-4933.5
18210	4.7883	1.4545	5.e-002	-7.3422
18211	4.7883	1.1818	0.	-4921.7
18212	4.6962	1.2727	0.	-4944.9
18213	4.7883	1.2727	5.e-002	-7.3539
18214	4.7883	1.	0.	-4933.8
18215	4.6962	1.0909	0.	-4957.1
18216	4.7883	1.0909	5.e-002	-7.36
18217	4.7883	0.81818	0.	-4946.4
18218	4.6962	0.90909	0.	-4970.
18219	4.7883	0.90909	5.e-002	-7.3592
18220	4.7883	0.63636	0.	-4959.5
18221	4.6962	0.72727	0.	-4983.3
18222	4.7883	0.72727	5.e-002	-7.3506
18223	4.7883	0.45455	0.	-4972.8
18224	4.6962	0.54545	0.	-4997.
18225	4.7883	0.54545	5.e-002	-7.3377
18226	4.7883	0.27273	0.	-4986.4
18227	4.6962	0.36364	0.	-5010.9
18228	4.7883	0.36364	5.e-002	-7.3666
18229	4.6962	0.18182	0.	-5025.4
18230	4.7883	0.18182	5.e-002	-8.285
18231	4.7883	9.0909e-002	0.	-4998.2
18232	4.6042	5.7273	0.	-5049.9
18233	4.5121	5.8182	0.	-5089.7
18234	4.6042	5.8182	5.e-002	-8.9741
18235	4.6042	5.9091	0.	-5062.4
18236	4.6042	5.5455	0.	-5035.2
18237	4.5121	5.6364	0.	-5074.2
18238	4.6042	5.6364	5.e-002	-7.5825
18239	4.6042	5.3636	0.	-5020.9
18240	4.5121	5.4545	0.	-5059.2
18241	4.6042	5.4545	5.e-002	-7.5273
18242	4.6042	5.1818	0.	-5006.9
18243	4.5121	5.2727	0.	-5044.5
18244	4.6042	5.2727	5.e-002	-7.54
18245	4.6042	5.	0.	-4993.4
18246	4.5121	5.0909	0.	-5030.2
18247	4.6042	5.0909	5.e-002	-7.5491
18248	4.6042	4.8182	0.	-4980.4
18249	4.5121	4.9091	0.	-5016.4
18250	4.6042	4.9091	5.e-002	-7.5498
18251	4.6042	4.6364	0.	-4968.2
18252	4.5121	4.7273	0.	-5003.3
18253	4.6042	4.7273	5.e-002	-7.5427
18254	4.6042	4.4545	0.	-4956.8
18255	4.5121	4.5455	0.	-4991.1
18256	4.6042	4.5455	5.e-002	-7.5292
18257	4.6042	4.2727	0.	-4946.4
18258	4.5121	4.3636	0.	-4979.8
18259	4.6042	4.3636	5.e-002	-7.511
18260	4.6042	4.0909	0.	-4937.1
18261	4.5121	4.1818	0.	-4969.6
18262	4.6042	4.1818	5.e-002	-7.4897
18263	4.6042	3.9091	0.	-4929.1
18264	4.5121	4.	0.	-4960.6
18265	4.6042	4.	5.e-002	-7.4672
18266	4.6042	3.7273	0.	-4922.4
18267	4.5121	3.8182	0.	-4953.
18268	4.6042	3.8182	5.e-002	-7.4454
18269	4.6042	3.5455	0.	-4917.1
18270	4.5121	3.6364	0.	-4946.8
18271	4.6042	3.6364	5.e-002	-7.4257
18272	4.6042	3.3636	0.	-4913.3
18273	4.5121	3.4545	0.	-4942.
18274	4.6042	3.4545	5.e-002	-7.4096
18275	4.6042	3.1818	0.	-4910.9
18276	4.5121	3.2727	0.	-4938.8
18277	4.6042	3.2727	5.e-002	-7.3982
18278	4.6042	3.	0.	-4910.2
18279	4.5121	3.0909	0.	-4937.2
18280	4.6042	3.0909	5.e-002	-7.3923
18281	4.6042	2.8182	0.	-4910.9
18282	4.5121	2.9091	0.	-4937.2
18283	4.6042	2.9091	5.e-002	-7.3923
18284	4.6042	2.6364	0.	-4913.3
18285	4.5121	2.7273	0.	-4938.8
18286	4.6042	2.7273	5.e-002	-7.3982
18287	4.6042	2.4545	0.	-4917.1
18288	4.5121	2.5455	0.	-4942.
18289	4.6042	2.5455	5.e-002	-7.4096
18290	4.6042	2.2727	0.	-4922.4
18291	4.5121	2.3636	0.	-4946.8
18292	4.6042	2.3636	5.e-002	-7.4257
18293	4.6042	2.0909	0.	-4929.1
18294	4.5121	2.1818	0.	-4953.
18295	4.6042	2.1818	5.e-002	-7.4454
18296	4.6042	1.9091	0.	-4937.1
18297	4.5121	2.	0.	-4960.6
18298	4.6042	2.	5.e-002	-7.4673
18299	4.6042	1.7273	0.	-4946.4
18300	4.5121	1.8182	0.	-4969.6
18301	4.6042	1.8182	5.e-002	-7.4898
18302	4.6042	1.5455	0.	-4956.8
18303	4.5121	1.6364	0.	-4979.8
18304	4.6042	1.6364	5.e-002	-7.511
18305	4.6042	1.3636	0.	-4968.2
18306	4.5121	1.4545	0.	-4991.1
18307	4.6042	1.4545	5.e-002	-7.5293
18308	4.6042	1.1818	0.	-4980.4
18309	4.5121	1.2727	0.	-5003.3
18310	4.6042	1.2727	5.e-002	-7.5428
18311	4.6042	1.	0.	-4993.4
18312	4.5121	1.0909	0.	-5016.4
18313	4.6042	1.0909	5.e-002	-7.5499
18314	4.6042	0.81818	0.	-5006.9
18315	4.5121	0.90909	0.	-5030.2
18316	4.6042	0.90909	5.e-002	-7.5492
18317	4.6042	0.63636	0.	-5020.9
18318	4.5121	0.72727	0.	-5044.5
18319	4.6042	0.72727	5.e-002	-7.5401
18320	4.6042	0.45455	0.	-5035.2
18321	4.5121	0.54545	0.	-5059.2
18322	4.6042	0.54545	5.e-002	-7.5275
18323	4.6042	0.27273	0.	-5049.9
18324	4.5121	0.36364	0.	-5074.2
18325	4.6042	0.36364	5.e-002	-7.5827
18326	4.5121	0.18182	0.	-5089.7
18327	4.6042	0.18182	5.e-002	-8.9743
18328	4.6042	9.0909e-002	0.	-5062.4
18329	4.42	5.7273	0.	-5114.
18330	4.3279	5.8182	0.	-5154.8
18331	4.42	5.8182	5.e-002	-9.7126
18332	4.42	5.9091	0.	-5127.2
18333	4.42	5.5455	0.	-5098.2
18334	4.3279	5.6364	0.	-5137.9
18335	4.42	5.6364	5.e-002	-7.8159
18336	4.42	5.3636	0.	-5082.9
18337	4.3279	5.4545	0.	-5121.9
18338	4.42	5.4545	5.e-002	-7.7339
18339	4.42	5.1818	0.	-5067.8
18340	4.3279	5.2727	0.	-5106.1
18341	4.42	5.2727	5.e-002	-7.7469
18342	4.42	5.	0.	-5053.3
18343	4.3279	5.0909	0.	-5090.8
18344	4.42	5.0909	5.e-002	-7.7574
18345	4.42	4.8182	0.	-5039.4
18346	4.3279	4.9091	0.	-5076.1
18347	4.42	4.9091	5.e-002	-7.7583
18348	4.42	4.6364	0.	-5026.3
18349	4.3279	4.7273	0.	-5062.
18350	4.42	4.7273	5.e-002	-7.7504
18351	4.42	4.4545	0.	-5014.1
18352	4.3279	4.5455	0.	-5048.9
18353	4.42	4.5455	5.e-002	-7.7354
18354	4.42	4.2727	0.	-5003.
18355	4.3279	4.3636	0.	-5036.9
18356	4.42	4.3636	5.e-002	-7.7148
18357	4.42	4.0909	0.	-4993.1
18358	4.3279	4.1818	0.	-5026.
18359	4.42	4.1818	5.e-002	-7.6909
18360	4.42	3.9091	0.	-4984.5
18361	4.3279	4.	0.	-5016.4
18362	4.42	4.	5.e-002	-7.6655
18363	4.42	3.7273	0.	-4977.4
18364	4.3279	3.8182	0.	-5008.3
18365	4.42	3.8182	5.e-002	-7.6408
18366	4.42	3.5455	0.	-4971.7
18367	4.3279	3.6364	0.	-5001.7
18368	4.42	3.6364	5.e-002	-7.6187
18369	4.42	3.3636	0.	-4967.6
18370	4.3279	3.4545	0.	-4996.6
18371	4.42	3.4545	5.e-002	-7.6006
18372	4.42	3.1818	0.	-4965.1
18373	4.3279	3.2727	0.	-4993.2
18374	4.42	3.2727	5.e-002	-7.5878
18375	4.42	3.	0.	-4964.3
18376	4.3279	3.0909	0.	-4991.5
18377	4.42	3.0909	5.e-002	-7.5812
18378	4.42	2.8182	0.	-4965.1
18379	4.3279	2.9091	0.	-4991.5
18380	4.42	2.9091	5.e-002	-7.5813
18381	4.42	2.6364	0.	-4967.6
18382	4.3279	2.7273	0.	-4993.2
18383	4.42	2.7273	5.e-002	-7.5879
18384	4.42	2.4545	0.	-4971.7
18385	4.3279	2.5455	0.	-4996.6
18386	4.42	2.5455	5.e-002	-7.6006
18387	4.42	2.2727	0.	-4977.4
18388	4.3279	2.3636	0.	-5001.7
18389	4.42	2.3636	5.e-002	-7.6187
18390	4.42	2.0909	0.	-4984.5
18391	4.3279	2.1818	0.	-5008.3
18392	4.42	2.1818	5.e-002	-7.6409
18393	4.42	1.9091	0.	-4993.1
18394	4.3279	2.	0.	-5016.4
18395	4.42	2.	5.e-002	-7.6656
18396	4.42	1.7273	0.	-5003.
18397	4.3279	1.8182	0.	-5026.
18398	4.42	1.8182	5.e-002	-7.6909
18399	4.42	1.5455	0.	-5014.1
18400	4.3279	1.6364	0.	-5036.9
18401	4.42	1.6364	5.e-002	-7.7149
18402	4.42	1.3636	0.	-5026.3
18403	4.3279	1.4545	0.	-5048.9
18404	4.42	1.4545	5.e-002	-7.7354
18405	4.42	1.1818	0.	-5039.4
18406	4.3279	1.2727	0.	-5062.
18407	4.42	1.2727	5.e-002	-7.7506
18408	4.42	1.	0.	-5053.3
18409	4.3279	1.0909	0.	-5076.1
18410	4.42	1.0909	5.e-002	-7.7584
18411	4.42	0.81818	0.	-5067.8
18412	4.3279	0.90909	0.	-5090.8
18413	4.42	0.90909	5.e-002	-7.7575
18414	4.42	0.63636	0.	-5082.9
18415	4.3279	0.72727	0.	-5106.1
18416	4.42	0.72727	5.e-002	-7.7471
18417	4.42	0.45455	0.	-5098.2
18418	4.3279	0.54545	0.	-5121.9
18419	4.42	0.54545	5.e-002	-7.734
18420	4.42	0.27273	0.	-5114.
18421	4.3279	0.36364	0.	-5137.9
18422	4.42	0.36364	5.e-002	-7.8161
18423	4.3279	0.18182	0.	-5154.8
18424	4.42	0.18182	5.e-002	-9.7128
18425	4.42	9.0909e-002	0.	-5127.2
18426	4.2358	5.7273	0.	-5178.7
18427	4.1438	5.8182	0.	-5220.4
18428	4.2358	5.8182	5.e-002	-10.503
18429	4.2358	5.9091	0.	-5192.6
18430	4.2358	5.5455	0.	-5161.7
18431	4.1438	5.6364	0.	-5202.3
18432	4.2358	5.6364	5.e-002	-8.0676
18433	4.2358	5.3636	0.	-5145.3
18434	4.1438	5.4545	0.	-5185.1
18435	4.2358	5.4545	5.e-002	-7.9587
18436	4.2358	5.1818	0.	-5129.2
18437	4.1438	5.2727	0.	-5168.2
18438	4.2358	5.2727	5.e-002	-7.9732
18439	4.2358	5.	0.	-5113.6
18440	4.1438	5.0909	0.	-5151.8
18441	4.2358	5.0909	5.e-002	-7.9858
18442	4.2358	4.8182	0.	-5098.7
18443	4.1438	4.9091	0.	-5136.
18444	4.2358	4.9091	5.e-002	-7.9877
18445	4.2358	4.6364	0.	-5084.7
18446	4.1438	4.7273	0.	-5121.1
18447	4.2358	4.7273	5.e-002	-7.9795
18448	4.2358	4.4545	0.	-5071.7
18449	4.1438	4.5455	0.	-5107.1
18450	4.2358	4.5455	5.e-002	-7.963
18451	4.2358	4.2727	0.	-5059.9
18452	4.1438	4.3636	0.	-5094.3
18453	4.2358	4.3636	5.e-002	-7.9403
18454	4.2358	4.0909	0.	-5049.3
18455	4.1438	4.1818	0.	-5082.7
18456	4.2358	4.1818	5.e-002	-7.9137
18457	4.2358	3.9091	0.	-5040.2
18458	4.1438	4.	0.	-5072.6
18459	4.2358	4.	5.e-002	-7.8856
18460	4.2358	3.7273	0.	-5032.6
18461	4.1438	3.8182	0.	-5063.9
18462	4.2358	3.8182	5.e-002	-7.8583
18463	4.2358	3.5455	0.	-5026.6
18464	4.1438	3.6364	0.	-5056.9
18465	4.2358	3.6364	5.e-002	-7.8336
18466	4.2358	3.3636	0.	-5022.2
18467	4.1438	3.4545	0.	-5051.6
18468	4.2358	3.4545	5.e-002	-7.8136
18469	4.2358	3.1818	0.	-5019.6
18470	4.1438	3.2727	0.	-5048.
18471	4.2358	3.2727	5.e-002	-7.7994
18472	4.2358	3.	0.	-5018.7
18473	4.1438	3.0909	0.	-5046.2
18474	4.2358	3.0909	5.e-002	-7.7921
18475	4.2358	2.8182	0.	-5019.6
18476	4.1438	2.9091	0.	-5046.2
18477	4.2358	2.9091	5.e-002	-7.7921
18478	4.2358	2.6364	0.	-5022.2
18479	4.1438	2.7273	0.	-5048.
18480	4.2358	2.7273	5.e-002	-7.7994
18481	4.2358	2.4545	0.	-5026.6
18482	4.1438	2.5455	0.	-5051.6
18483	4.2358	2.5455	5.e-002	-7.8136
18484	4.2358	2.2727	0.	-5032.6
18485	4.1438	2.3636	0.	-5056.9
18486	4.2358	2.3636	5.e-002	-7.8337
18487	4.2358	2.0909	0.	-5040.2
18488	4.1438	2.1818	0.	-5063.9
18489	4.2358	2.1818	5.e-002	-7.8583
18490	4.2358	1.9091	0.	-5049.3
18491	4.1438	2.	0.	-5072.6
18492	4.2358	2.	5.e-002	-7.8857
18493	4.2358	1.7273	0.	-5059.9
18494	4.1438	1.8182	0.	-5082.7
18495	4.2358	1.8182	5.e-002	-7.9139
18496	4.2358	1.5455	0.	-5071.7
18497	4.1438	1.6364	0.	-5094.3
18498	4.2358	1.6364	5.e-002	-7.9404
18499	4.2358	1.3636	0.	-5084.7
18500	4.1438	1.4545	0.	-5107.1
18501	4.2358	1.4545	5.e-002	-7.9631
18502	4.2358	1.1818	0.	-5098.7
18503	4.1438	1.2727	0.	-5121.1
18504	4.2358	1.2727	5.e-002	-7.9796
18505	4.2358	1.	0.	-5113.6
18506	4.1438	1.0909	0.	-5136.
18507	4.2358	1.0909	5.e-002	-7.9877
18508	4.2358	0.81818	0.	-5129.2
18509	4.1438	0.90909	0.	-5151.8
18510	4.2358	0.90909	5.e-002	-7.9859
18511	4.2358	0.63636	0.	-5145.3
18512	4.1438	0.72727	0.	-5168.2
18513	4.2358	0.72727	5.e-002	-7.9733
18514	4.2358	0.45455	0.	-5161.7
18515	4.1438	0.54545	0.	-5185.1
18516	4.2358	0.54545	5.e-002	-7.9588
18517	4.2358	0.27273	0.	-5178.7
18518	4.1438	0.36364	0.	-5202.3
18519	4.2358	0.36364	5.e-002	-8.0677
18520	4.1438	0.18182	0.	-5220.4
18521	4.2358	0.18182	5.e-002	-10.503
18522	4.2358	9.0909e-002	0.	-5192.6
18523	4.0517	5.7273	0.	-5244.
18524	3.9596	5.8182	0.	-5286.7
18525	4.0517	5.8182	5.e-002	-11.346
18526	4.0517	5.9091	0.	-5258.4
18527	4.0517	5.5455	0.	-5225.7
18528	3.9596	5.6364	0.	-5267.1
18529	4.0517	5.6364	5.e-002	-8.3384
18530	4.0517	5.3636	0.	-5208.1
18531	3.9596	5.4545	0.	-5248.7
18532	4.0517	5.4545	5.e-002	-8.2035
18533	4.0517	5.1818	0.	-5190.9
18534	3.9596	5.2727	0.	-5230.6
18535	4.0517	5.2727	5.e-002	-8.2206
18536	4.0517	5.	0.	-5174.3
18537	3.9596	5.0909	0.	-5213.1
18538	4.0517	5.0909	5.e-002	-8.2365
18539	4.0517	4.8182	0.	-5158.4
18540	3.9596	4.9091	0.	-5196.3
18541	4.0517	4.9091	5.e-002	-8.2402
18542	4.0517	4.6364	0.	-5143.5
18543	3.9596	4.7273	0.	-5180.4
18544	4.0517	4.7273	5.e-002	-8.2323
18545	4.0517	4.4545	0.	-5129.7
18546	3.9596	4.5455	0.	-5165.6
18547	4.0517	4.5455	5.e-002	-8.215
18548	4.0517	4.2727	0.	-5117.1
18549	3.9596	4.3636	0.	-5152.
18550	4.0517	4.3636	5.e-002	-8.1904
18551	4.0517	4.0909	0.	-5105.9
18552	3.9596	4.1818	0.	-5139.8
18553	4.0517	4.1818	5.e-002	-8.1615
18554	4.0517	3.9091	0.	-5096.2
18555	3.9596	4.	0.	-5129.
18556	4.0517	4.	5.e-002	-8.1308
18557	4.0517	3.7273	0.	-5088.2
18558	3.9596	3.8182	0.	-5119.9
18559	4.0517	3.8182	5.e-002	-8.1008
18560	4.0517	3.5455	0.	-5081.8
18561	3.9596	3.6364	0.	-5112.6
18562	4.0517	3.6364	5.e-002	-8.074
18563	4.0517	3.3636	0.	-5077.3
18564	3.9596	3.4545	0.	-5106.9
18565	4.0517	3.4545	5.e-002	-8.052
18566	4.0517	3.1818	0.	-5074.5
18567	3.9596	3.2727	0.	-5103.2
18568	4.0517	3.2727	5.e-002	-8.0367
18569	4.0517	3.	0.	-5073.6
18570	3.9596	3.0909	0.	-5101.3
18571	4.0517	3.0909	5.e-002	-8.0287
18572	4.0517	2.8182	0.	-5074.5
18573	3.9596	2.9091	0.	-5101.3
18574	4.0517	2.9091	5.e-002	-8.0287
18575	4.0517	2.6364	0.	-5077.3
18576	3.9596	2.7273	0.	-5103.2
18577	4.0517	2.7273	5.e-002	-8.0367
18578	4.0517	2.4545	0.	-5081.8
18579	3.9596	2.5455	0.	-5106.9
18580	4.0517	2.5455	5.e-002	-8.0521
18581	4.0517	2.2727	0.	-5088.2
18582	3.9596	2.3636	0.	-5112.6
18583	4.0517	2.3636	5.e-002	-8.074
18584	4.0517	2.0909	0.	-5096.2
18585	3.9596	2.1818	0.	-5119.9
18586	4.0517	2.1818	5.e-002	-8.1009
18587	4.0517	1.9091	0.	-5105.9
18588	3.9596	2.	0.	-5129.
18589	4.0517	2.	5.e-002	-8.1309
18590	4.0517	1.7273	0.	-5117.1
18591	3.9596	1.8182	0.	-5139.8
18592	4.0517	1.8182	5.e-002	-8.1616
18593	4.0517	1.5455	0.	-5129.7
18594	3.9596	1.6364	0.	-5152.
18595	4.0517	1.6364	5.e-002	-8.1906
18596	4.0517	1.3636	0.	-5143.5
18597	3.9596	1.4545	0.	-5165.6
18598	4.0517	1.4545	5.e-002	-8.215
18599	4.0517	1.1818	0.	-5158.4
18600	3.9596	1.2727	0.	-5180.4
18601	4.0517	1.2727	5.e-002	-8.2325
18602	4.0517	1.	0.	-5174.3
18603	3.9596	1.0909	0.	-5196.3
18604	4.0517	1.0909	5.e-002	-8.2403
18605	4.0517	0.81818	0.	-5190.9
18606	3.9596	0.90909	0.	-5213.1
18607	4.0517	0.90909	5.e-002	-8.2367
18608	4.0517	0.63636	0.	-5208.1
18609	3.9596	0.72727	0.	-5230.6
18610	4.0517	0.72727	5.e-002	-8.2208
18611	4.0517	0.45455	0.	-5225.7
18612	3.9596	0.54545	0.	-5248.7
18613	4.0517	0.54545	5.e-002	-8.2036
18614	4.0517	0.27273	0.	-5244.
18615	3.9596	0.36364	0.	-5267.1
18616	4.0517	0.36364	5.e-002	-8.3386
18617	3.9596	0.18182	0.	-5286.7
18618	4.0517	0.18182	5.e-002	-11.346
18619	4.0517	9.0909e-002	0.	-5258.4
18620	3.8675	5.7273	0.	-5309.8
18621	3.7754	5.8182	0.	-5353.5
18622	3.8675	5.8182	5.e-002	-12.245
18623	3.8675	5.9091	0.	-5324.8
18624	3.8675	5.5455	0.	-5290.1
18625	3.7754	5.6364	0.	-5332.3
18626	3.8675	5.6364	5.e-002	-8.6297
18627	3.8675	5.3636	0.	-5271.3
18628	3.7754	5.4545	0.	-5312.6
18629	3.8675	5.4545	5.e-002	-8.4701
18630	3.8675	5.1818	0.	-5252.9
18631	3.7754	5.2727	0.	-5293.3
18632	3.8675	5.2727	5.e-002	-8.4917
18633	3.8675	5.	0.	-5235.2
18634	3.7754	5.0909	0.	-5274.7
18635	3.8675	5.0909	5.e-002	-8.5124
18636	3.8675	4.8182	0.	-5218.4
18637	3.7754	4.9091	0.	-5256.9
18638	3.8675	4.9091	5.e-002	-8.519
18639	3.8675	4.6364	0.	-5202.6
18640	3.7754	4.7273	0.	-5240.
18641	3.8675	4.7273	5.e-002	-8.5122
18642	3.8675	4.4545	0.	-5187.9
18643	3.7754	4.5455	0.	-5224.4
18644	3.8675	4.5455	5.e-002	-8.4945
18645	3.8675	4.2727	0.	-5174.7
18646	3.7754	4.3636	0.	-5210.1
18647	3.8675	4.3636	5.e-002	-8.4686
18648	3.8675	4.0909	0.	-5162.9
18649	3.7754	4.1818	0.	-5197.2
18650	3.8675	4.1818	5.e-002	-8.4376
18651	3.8675	3.9091	0.	-5152.7
18652	3.7754	4.	0.	-5186.
18653	3.8675	4.	5.e-002	-8.4047
18654	3.8675	3.7273	0.	-5144.3
18655	3.7754	3.8182	0.	-5176.5
18656	3.8675	3.8182	5.e-002	-8.3725
18657	3.8675	3.5455	0.	-5137.6
18658	3.7754	3.6364	0.	-5168.8
18659	3.8675	3.6364	5.e-002	-8.3437
18660	3.8675	3.3636	0.	-5132.8
18661	3.7754	3.4545	0.	-5163.
18662	3.8675	3.4545	5.e-002	-8.3203
18663	3.8675	3.1818	0.	-5129.9
18664	3.7754	3.2727	0.	-5159.
18665	3.8675	3.2727	5.e-002	-8.3039
18666	3.8675	3.	0.	-5129.
18667	3.7754	3.0909	0.	-5157.1
18668	3.8675	3.0909	5.e-002	-8.2954
18669	3.8675	2.8182	0.	-5129.9
18670	3.7754	2.9091	0.	-5157.1
18671	3.8675	2.9091	5.e-002	-8.2954
18672	3.8675	2.6364	0.	-5132.8
18673	3.7754	2.7273	0.	-5159.
18674	3.8675	2.7273	5.e-002	-8.3039
18675	3.8675	2.4545	0.	-5137.6
18676	3.7754	2.5455	0.	-5163.
18677	3.8675	2.5455	5.e-002	-8.3203
18678	3.8675	2.2727	0.	-5144.3
18679	3.7754	2.3636	0.	-5168.8
18680	3.8675	2.3636	5.e-002	-8.3438
18681	3.8675	2.0909	0.	-5152.7
18682	3.7754	2.1818	0.	-5176.5
18683	3.8675	2.1818	5.e-002	-8.3726
18684	3.8675	1.9091	0.	-5162.9
18685	3.7754	2.	0.	-5186.
18686	3.8675	2.	5.e-002	-8.4047
18687	3.8675	1.7273	0.	-5174.7
18688	3.7754	1.8182	0.	-5197.2
18689	3.8675	1.8182	5.e-002	-8.4377
18690	3.8675	1.5455	0.	-5187.9
18691	3.7754	1.6364	0.	-5210.1
18692	3.8675	1.6364	5.e-002	-8.4687
18693	3.8675	1.3636	0.	-5202.6
18694	3.7754	1.4545	0.	-5224.4
18695	3.8675	1.4545	5.e-002	-8.4946
18696	3.8675	1.1818	0.	-5218.4
18697	3.7754	1.2727	0.	-5240.
18698	3.8675	1.2727	5.e-002	-8.5123
18699	3.8675	1.	0.	-5235.2
18700	3.7754	1.0909	0.	-5256.9
18701	3.8675	1.0909	5.e-002	-8.5191
18702	3.8675	0.81818	0.	-5252.9
18703	3.7754	0.90909	0.	-5274.7
18704	3.8675	0.90909	5.e-002	-8.5125
18705	3.8675	0.63636	0.	-5271.3
18706	3.7754	0.72727	0.	-5293.3
18707	3.8675	0.72727	5.e-002	-8.4919
18708	3.8675	0.45455	0.	-5290.1
18709	3.7754	0.54545	0.	-5312.6
18710	3.8675	0.54545	5.e-002	-8.4702
18711	3.8675	0.27273	0.	-5309.8
18712	3.7754	0.36364	0.	-5332.3
18713	3.8675	0.36364	5.e-002	-8.6299
18714	3.7754	0.18182	0.	-5353.5
18715	3.8675	0.18182	5.e-002	-12.245
18716	3.8675	9.0909e-002	0.	-5324.8
18717	3.6833	5.7273	0.	-5376.1
18718	3.5912	5.8182	0.	-5420.8
18719	3.6833	5.8182	5.e-002	-13.2
18720	3.6833	5.9091	0.	-5391.4
18721	3.6833	5.5455	0.	-5354.9
18722	3.5912	5.6364	0.	-5397.8
18723	3.6833	5.6364	5.e-002	-8.9425
18724	3.6833	5.3636	0.	-5334.8
18725	3.5912	5.4545	0.	-5376.8
18726	3.6833	5.4545	5.e-002	-8.7607
18727	3.6833	5.1818	0.	-5315.2
18728	3.5912	5.2727	0.	-5356.3
18729	3.6833	5.2727	5.e-002	-8.7892
18730	3.6833	5.	0.	-5296.4
18731	3.5912	5.0909	0.	-5336.5
18732	3.6833	5.0909	5.e-002	-8.8165
18733	3.6833	4.8182	0.	-5278.6
18734	3.5912	4.9091	0.	-5317.7
18735	3.6833	4.9091	5.e-002	-8.8273
18736	3.6833	4.6364	0.	-5261.9
18737	3.5912	4.7273	0.	-5300.
18738	3.6833	4.7273	5.e-002	-8.8227
18739	3.6833	4.4545	0.	-5246.6
18740	3.5912	4.5455	0.	-5283.5
18741	3.6833	4.5455	5.e-002	-8.8054
18742	3.6833	4.2727	0.	-5232.6
18743	3.5912	4.3636	0.	-5268.6
18744	3.6833	4.3636	5.e-002	-8.7787
18745	3.6833	4.0909	0.	-5220.3
18746	3.5912	4.1818	0.	-5255.2
18747	3.6833	4.1818	5.e-002	-8.7463
18748	3.6833	3.9091	0.	-5209.7
18749	3.5912	4.	0.	-5243.5
18750	3.6833	4.	5.e-002	-8.7116
18751	3.6833	3.7273	0.	-5201.
18752	3.5912	3.8182	0.	-5233.7
18753	3.6833	3.8182	5.e-002	-8.6778
18754	3.6833	3.5455	0.	-5194.1
18755	3.5912	3.6364	0.	-5225.8
18756	3.6833	3.6364	5.e-002	-8.6477
18757	3.6833	3.3636	0.	-5189.1
18758	3.5912	3.4545	0.	-5219.8
18759	3.6833	3.4545	5.e-002	-8.6233
18760	3.6833	3.1818	0.	-5186.1
18761	3.5912	3.2727	0.	-5215.8
18762	3.6833	3.2727	5.e-002	-8.6063
18763	3.6833	3.	0.	-5185.1
18764	3.5912	3.0909	0.	-5213.7
18765	3.6833	3.0909	5.e-002	-8.5974
18766	3.6833	2.8182	0.	-5186.1
18767	3.5912	2.9091	0.	-5213.7
18768	3.6833	2.9091	5.e-002	-8.5974
18769	3.6833	2.6364	0.	-5189.1
18770	3.5912	2.7273	0.	-5215.8
18771	3.6833	2.7273	5.e-002	-8.6063
18772	3.6833	2.4545	0.	-5194.1
18773	3.5912	2.5455	0.	-5219.8
18774	3.6833	2.5455	5.e-002	-8.6233
18775	3.6833	2.2727	0.	-5201.
18776	3.5912	2.3636	0.	-5225.8
18777	3.6833	2.3636	5.e-002	-8.6477
18778	3.6833	2.0909	0.	-5209.7
18779	3.5912	2.1818	0.	-5233.7
18780	3.6833	2.1818	5.e-002	-8.6779
18781	3.6833	1.9091	0.	-5220.3
18782	3.5912	2.	0.	-5243.5
18783	3.6833	2.	5.e-002	-8.7117
18784	3.6833	1.7273	0.	-5232.6
18785	3.5912	1.8182	0.	-5255.2
18786	3.6833	1.8182	5.e-002	-8.7463
18787	3.6833	1.5455	0.	-5246.6
18788	3.5912	1.6364	0.	-5268.6
18789	3.6833	1.6364	5.e-002	-8.7788
18790	3.6833	1.3636	0.	-5261.9
18791	3.5912	1.4545	0.	-5283.5
18792	3.6833	1.4545	5.e-002	-8.8055
18793	3.6833	1.1818	0.	-5278.6
18794	3.5912	1.2727	0.	-5300.
18795	3.6833	1.2727	5.e-002	-8.8228
18796	3.6833	1.	0.	-5296.4
18797	3.5912	1.0909	0.	-5317.7
18798	3.6833	1.0909	5.e-002	-8.8274
18799	3.6833	0.81818	0.	-5315.2
18800	3.5912	0.90909	0.	-5336.5
18801	3.6833	0.90909	5.e-002	-8.8166
18802	3.6833	0.63636	0.	-5334.8
18803	3.5912	0.72727	0.	-5356.3
18804	3.6833	0.72727	5.e-002	-8.7893
18805	3.6833	0.45455	0.	-5354.9
18806	3.5912	0.54545	0.	-5376.8
18807	3.6833	0.54545	5.e-002	-8.7608
18808	3.6833	0.27273	0.	-5376.1
18809	3.5912	0.36364	0.	-5397.8
18810	3.6833	0.36364	5.e-002	-8.9427
18811	3.5912	0.18182	0.	-5420.8
18812	3.6833	0.18182	5.e-002	-13.2
18813	3.6833	9.0909e-002	0.	-5391.4
18814	3.4992	5.7273	0.	-5442.6
18815	3.4071	5.8182	0.	-5488.4
18816	3.4992	5.8182	5.e-002	-14.213
18817	3.4992	5.9091	0.	-5458.3
18818	3.4992	5.5455	0.	-5419.8
18819	3.4071	5.6364	0.	-5463.5
18820	3.4992	5.6364	5.e-002	-9.2783
18821	3.4992	5.3636	0.	-5398.4
18822	3.4071	5.4545	0.	-5441.1
18823	3.4992	5.4545	5.e-002	-9.0781
18824	3.4992	5.1818	0.	-5377.7
18825	3.4071	5.2727	0.	-5419.4
18826	3.4992	5.2727	5.e-002	-9.1163
18827	3.4992	5.	0.	-5357.9
18828	3.4071	5.0909	0.	-5398.5
18829	3.4992	5.0909	5.e-002	-9.1525
18830	3.4992	4.8182	0.	-5339.1
18831	3.4071	4.9091	0.	-5378.7
18832	3.4992	4.9091	5.e-002	-9.1694
18833	3.4992	4.6364	0.	-5321.6
18834	3.4071	4.7273	0.	-5360.1
18835	3.4992	4.7273	5.e-002	-9.168
18836	3.4992	4.4545	0.	-5305.6
18837	3.4071	4.5455	0.	-5343.
18838	3.4992	4.5455	5.e-002	-9.152
18839	3.4992	4.2727	0.	-5291.1
18840	3.4071	4.3636	0.	-5327.5
18841	3.4992	4.3636	5.e-002	-9.1253
18842	3.4992	4.0909	0.	-5278.4
18843	3.4071	4.1818	0.	-5313.7
18844	3.4992	4.1818	5.e-002	-9.0921
18845	3.4992	3.9091	0.	-5267.5
18846	3.4071	4.	0.	-5301.8
18847	3.4992	4.	5.e-002	-9.0566
18848	3.4992	3.7273	0.	-5258.5
18849	3.4071	3.8182	0.	-5291.8
18850	3.4992	3.8182	5.e-002	-9.0221
18851	3.4992	3.5455	0.	-5251.4
18852	3.4071	3.6364	0.	-5283.7
18853	3.4992	3.6364	5.e-002	-8.9915
18854	3.4992	3.3636	0.	-5246.3
18855	3.4071	3.4545	0.	-5277.7
18856	3.4992	3.4545	5.e-002	-8.9669
18857	3.4992	3.1818	0.	-5243.3
18858	3.4071	3.2727	0.	-5273.6
18859	3.4992	3.2727	5.e-002	-8.9498
18860	3.4992	3.	0.	-5242.3
18861	3.4071	3.0909	0.	-5271.6
18862	3.4992	3.0909	5.e-002	-8.941
18863	3.4992	2.8182	0.	-5243.3
18864	3.4071	2.9091	0.	-5271.6
18865	3.4992	2.9091	5.e-002	-8.941
18866	3.4992	2.6364	0.	-5246.3
18867	3.4071	2.7273	0.	-5273.6
18868	3.4992	2.7273	5.e-002	-8.9498
18869	3.4992	2.4545	0.	-5251.4
18870	3.4071	2.5455	0.	-5277.7
18871	3.4992	2.5455	5.e-002	-8.967
18872	3.4992	2.2727	0.	-5258.5
18873	3.4071	2.3636	0.	-5283.7
18874	3.4992	2.3636	5.e-002	-8.9916
18875	3.4992	2.0909	0.	-5267.5
18876	3.4071	2.1818	0.	-5291.8
18877	3.4992	2.1818	5.e-002	-9.0222
18878	3.4992	1.9091	0.	-5278.4
18879	3.4071	2.	0.	-5301.8
18880	3.4992	2.	5.e-002	-9.0566
18881	3.4992	1.7273	0.	-5291.1
18882	3.4071	1.8182	0.	-5313.7
18883	3.4992	1.8182	5.e-002	-9.0922
18884	3.4992	1.5455	0.	-5305.6
18885	3.4071	1.6364	0.	-5327.5
18886	3.4992	1.6364	5.e-002	-9.1253
18887	3.4992	1.3636	0.	-5321.6
18888	3.4071	1.4545	0.	-5343.
18889	3.4992	1.4545	5.e-002	-9.1521
18890	3.4992	1.1818	0.	-5339.1
18891	3.4071	1.2727	0.	-5360.1
18892	3.4992	1.2727	5.e-002	-9.1681
18893	3.4992	1.	0.	-5357.9
18894	3.4071	1.0909	0.	-5378.7
18895	3.4992	1.0909	5.e-002	-9.1694
18896	3.4992	0.81818	0.	-5377.7
18897	3.4071	0.90909	0.	-5398.5
18898	3.4992	0.90909	5.e-002	-9.1527
18899	3.4992	0.63636	0.	-5398.4
18900	3.4071	0.72727	0.	-5419.4
18901	3.4992	0.72727	5.e-002	-9.1165
18902	3.4992	0.45455	0.	-5419.8
18903	3.4071	0.54545	0.	-5441.1
18904	3.4992	0.54545	5.e-002	-9.0782
18905	3.4992	0.27273	0.	-5442.6
18906	3.4071	0.36364	0.	-5463.5
18907	3.4992	0.36364	5.e-002	-9.2784
18908	3.4071	0.18182	0.	-5488.4
18909	3.4992	0.18182	5.e-002	-14.213
18910	3.4992	9.0909e-002	0.	-5458.3
18911	3.315	5.7273	0.	-5509.3
18912	3.2229	5.8182	0.	-5556.
18913	3.315	5.8182	5.e-002	-15.282
18914	3.315	5.9091	0.	-5525.1
18915	3.315	5.5455	0.	-5484.8
18916	3.2229	5.6364	0.	-5529.1
18917	3.315	5.6364	5.e-002	-9.6388
18918	3.315	5.3636	0.	-5462.1
18919	3.2229	5.4545	0.	-5505.3
18920	3.315	5.4545	5.e-002	-9.4258
18921	3.315	5.1818	0.	-5440.2
18922	3.2229	5.2727	0.	-5482.3
18923	3.315	5.2727	5.e-002	-9.4777
18924	3.315	5.	0.	-5419.4
18925	3.2229	5.0909	0.	-5460.4
18926	3.315	5.0909	5.e-002	-9.5255
18927	3.315	4.8182	0.	-5399.7
18928	3.2229	4.9091	0.	-5439.7
18929	3.315	4.9091	5.e-002	-9.5501
18930	3.315	4.6364	0.	-5381.6
18931	3.2229	4.7273	0.	-5420.4
18932	3.315	4.7273	5.e-002	-9.5533
18933	3.315	4.4545	0.	-5365.
18934	3.2229	4.5455	0.	-5402.8
18935	3.315	4.5455	5.e-002	-9.5395
18936	3.315	4.2727	0.	-5350.1
18937	3.2229	4.3636	0.	-5387.
18938	3.315	4.3636	5.e-002	-9.5136
18939	3.315	4.0909	0.	-5337.2
18940	3.2229	4.1818	0.	-5373.
18941	3.315	4.1818	5.e-002	-9.4807
18942	3.315	3.9091	0.	-5326.1
18943	3.2229	4.	0.	-5361.
18944	3.315	4.	5.e-002	-9.4454
18945	3.315	3.7273	0.	-5317.
18946	3.2229	3.8182	0.	-5351.
18947	3.315	3.8182	5.e-002	-9.4115
18948	3.315	3.5455	0.	-5309.9
18949	3.2229	3.6364	0.	-5343.
18950	3.315	3.6364	5.e-002	-9.3817
18951	3.315	3.3636	0.	-5304.9
18952	3.2229	3.4545	0.	-5337.
18953	3.315	3.4545	5.e-002	-9.358
18954	3.315	3.1818	0.	-5301.8
18955	3.2229	3.2727	0.	-5333.
18956	3.315	3.2727	5.e-002	-9.3417
18957	3.315	3.	0.	-5300.8
18958	3.2229	3.0909	0.	-5331.
18959	3.315	3.0909	5.e-002	-9.3335
18960	3.315	2.8182	0.	-5301.8
18961	3.2229	2.9091	0.	-5331.
18962	3.315	2.9091	5.e-002	-9.3335
18963	3.315	2.6364	0.	-5304.9
18964	3.2229	2.7273	0.	-5333.
18965	3.315	2.7273	5.e-002	-9.3417
18966	3.315	2.4545	0.	-5309.9
18967	3.2229	2.5455	0.	-5337.
18968	3.315	2.5455	5.e-002	-9.3581
18969	3.315	2.2727	0.	-5317.
18970	3.2229	2.3636	0.	-5343.
18971	3.315	2.3636	5.e-002	-9.3818
18972	3.315	2.0909	0.	-5326.1
18973	3.2229	2.1818	0.	-5351.
18974	3.315	2.1818	5.e-002	-9.4115
18975	3.315	1.9091	0.	-5337.2
18976	3.2229	2.	0.	-5361.
18977	3.315	2.	5.e-002	-9.4455
18978	3.315	1.7273	0.	-5350.1
18979	3.2229	1.8182	0.	-5373.
18980	3.315	1.8182	5.e-002	-9.4808
18981	3.315	1.5455	0.	-5365.
18982	3.2229	1.6364	0.	-5387.
18983	3.315	1.6364	5.e-002	-9.5137
18984	3.315	1.3636	0.	-5381.6
18985	3.2229	1.4545	0.	-5402.8
18986	3.315	1.4545	5.e-002	-9.5396
18987	3.315	1.1818	0.	-5399.7
18988	3.2229	1.2727	0.	-5420.4
18989	3.315	1.2727	5.e-002	-9.5534
18990	3.315	1.	0.	-5419.4
18991	3.2229	1.0909	0.	-5439.7
18992	3.315	1.0909	5.e-002	-9.5502
18993	3.315	0.81818	0.	-5440.2
18994	3.2229	0.90909	0.	-5460.4
18995	3.315	0.90909	5.e-002	-9.5257
18996	3.315	0.63636	0.	-5462.1
18997	3.2229	0.72727	0.	-5482.3
18998	3.315	0.72727	5.e-002	-9.4778
18999	3.315	0.45455	0.	-5484.9
19000	3.2229	0.54545	0.	-5505.3
19001	3.315	0.54545	5.e-002	-9.4259
19002	3.315	0.27273	0.	-5509.3
19003	3.2229	0.36364	0.	-5529.1
19004	3.315	0.36364	5.e-002	-9.6389
19005	3.2229	0.18182	0.	-5556.
19006	3.315	0.18182	5.e-002	-15.282
19007	3.315	9.0909e-002	0.	-5525.1
19008	3.1308	5.7273	0.	-5575.9
19009	3.0387	5.8182	0.	-5623.5
19010	3.1308	5.8182	5.e-002	-16.408
19011	3.1308	5.9091	0.	-5591.6
19012	3.1308	5.5455	0.	-5549.7
19013	3.0387	5.6364	0.	-5594.3
19014	3.1308	5.6364	5.e-002	-10.027
19015	3.1308	5.3636	0.	-5525.6
19016	3.0387	5.4545	0.	-5569.1
19017	3.1308	5.4545	5.e-002	-9.8087
19018	3.1308	5.1818	0.	-5502.6
19019	3.0387	5.2727	0.	-5544.9
19020	3.1308	5.2727	5.e-002	-9.8788
19021	3.1308	5.	0.	-5480.8
19022	3.0387	5.0909	0.	-5522.
19023	3.1308	5.0909	5.e-002	-9.9414
19024	3.1308	4.8182	0.	-5460.4
19025	3.0387	4.9091	0.	-5500.6
19026	3.1308	4.9091	5.e-002	-9.9758
19027	3.1308	4.6364	0.	-5441.7
19028	3.0387	4.7273	0.	-5480.8
19029	3.1308	4.7273	5.e-002	-9.9848
19030	3.1308	4.4545	0.	-5424.8
19031	3.0387	4.5455	0.	-5463.
19032	3.1308	4.5455	5.e-002	-9.974
19033	3.1308	4.2727	0.	-5409.8
19034	3.0387	4.3636	0.	-5447.
19035	3.1308	4.3636	5.e-002	-9.9498
19036	3.1308	4.0909	0.	-5396.8
19037	3.0387	4.1818	0.	-5433.1
19038	3.1308	4.1818	5.e-002	-9.9184
19039	3.1308	3.9091	0.	-5385.8
19040	3.0387	4.	0.	-5421.3
19041	3.1308	4.	5.e-002	-9.8848
19042	3.1308	3.7273	0.	-5376.9
19043	3.0387	3.8182	0.	-5411.6
19044	3.1308	3.8182	5.e-002	-9.8531
19045	3.1308	3.5455	0.	-5369.9
19046	3.0387	3.6364	0.	-5403.9
19047	3.1308	3.6364	5.e-002	-9.8259
19048	3.1308	3.3636	0.	-5365.
19049	3.0387	3.4545	0.	-5398.1
19050	3.1308	3.4545	5.e-002	-9.8047
19051	3.1308	3.1818	0.	-5362.1
19052	3.0387	3.2727	0.	-5394.3
19053	3.1308	3.2727	5.e-002	-9.7904
19054	3.1308	3.	0.	-5361.1
19055	3.0387	3.0909	0.	-5392.4
19056	3.1308	3.0909	5.e-002	-9.7832
19057	3.1308	2.8182	0.	-5362.1
19058	3.0387	2.9091	0.	-5392.4
19059	3.1308	2.9091	5.e-002	-9.7832
19060	3.1308	2.6364	0.	-5365.
19061	3.0387	2.7273	0.	-5394.3
19062	3.1308	2.7273	5.e-002	-9.7904
19063	3.1308	2.4545	0.	-5369.9
19064	3.0387	2.5455	0.	-5398.1
19065	3.1308	2.5455	5.e-002	-9.8047
19066	3.1308	2.2727	0.	-5376.9
19067	3.0387	2.3636	0.	-5403.9
19068	3.1308	2.3636	5.e-002	-9.8259
19069	3.1308	2.0909	0.	-5385.8
19070	3.0387	2.1818	0.	-5411.6
19071	3.1308	2.1818	5.e-002	-9.8531
19072	3.1308	1.9091	0.	-5396.8
19073	3.0387	2.	0.	-5421.3
19074	3.1308	2.	5.e-002	-9.8849
19075	3.1308	1.7273	0.	-5409.8
19076	3.0387	1.8182	0.	-5433.1
19077	3.1308	1.8182	5.e-002	-9.9185
19078	3.1308	1.5455	0.	-5424.8
19079	3.0387	1.6364	0.	-5447.
19080	3.1308	1.6364	5.e-002	-9.9499
19081	3.1308	1.3636	0.	-5441.7
19082	3.0387	1.4545	0.	-5463.
19083	3.1308	1.4545	5.e-002	-9.9741
19084	3.1308	1.1818	0.	-5460.4
19085	3.0387	1.2727	0.	-5480.8
19086	3.1308	1.2727	5.e-002	-9.9849
19087	3.1308	1.	0.	-5480.8
19088	3.0387	1.0909	0.	-5500.6
19089	3.1308	1.0909	5.e-002	-9.9759
19090	3.1308	0.81818	0.	-5502.6
19091	3.0387	0.90909	0.	-5522.
19092	3.1308	0.90909	5.e-002	-9.9416
19093	3.1308	0.63636	0.	-5525.6
19094	3.0387	0.72727	0.	-5544.9
19095	3.1308	0.72727	5.e-002	-9.8789
19096	3.1308	0.45455	0.	-5549.7
19097	3.0387	0.54545	0.	-5569.1
19098	3.1308	0.54545	5.e-002	-9.8088
19099	3.1308	0.27273	0.	-5575.9
19100	3.0387	0.36364	0.	-5594.3
19101	3.1308	0.36364	5.e-002	-10.027
19102	3.0387	0.18182	0.	-5623.5
19103	3.1308	0.18182	5.e-002	-16.408
19104	3.1308	9.0909e-002	0.	-5591.6
19105	2.9467	5.7273	0.	-5642.1
19106	2.8546	5.8182	0.	-5690.4
19107	2.9467	5.8182	5.e-002	-17.586
19108	2.9467	5.9091	0.	-5657.5
19109	2.9467	5.5455	0.	-5613.9
19110	2.8546	5.6364	0.	-5658.8
19111	2.9467	5.6364	5.e-002	-10.446
19112	2.9467	5.3636	0.	-5588.5
19113	2.8546	5.4545	0.	-5632.1
19114	2.9467	5.4545	5.e-002	-10.233
19115	2.9467	5.1818	0.	-5564.5
19116	2.8546	5.2727	0.	-5606.8
19117	2.9467	5.2727	5.e-002	-10.327
19118	2.9467	5.	0.	-5541.9
19119	2.8546	5.0909	0.	-5583.1
19120	2.9467	5.0909	5.e-002	-10.408
19121	2.9467	4.8182	0.	-5521.1
19122	2.8546	4.9091	0.	-5561.2
19123	2.9467	4.9091	5.e-002	-10.454
19124	2.9467	4.6364	0.	-5502.1
19125	2.8546	4.7273	0.	-5541.2
19126	2.9467	4.7273	5.e-002	-10.47
19127	2.9467	4.4545	0.	-5485.2
19128	2.8546	4.5455	0.	-5523.4
19129	2.9467	4.5455	5.e-002	-10.463
19130	2.9467	4.2727	0.	-5470.3
19131	2.8546	4.3636	0.	-5507.8
19132	2.9467	4.3636	5.e-002	-10.441
19133	2.9467	4.0909	0.	-5457.6
19134	2.8546	4.1818	0.	-5494.3
19135	2.9467	4.1818	5.e-002	-10.413
19136	2.9467	3.9091	0.	-5447.
19137	2.8546	4.	0.	-5483.1
19138	2.9467	4.	5.e-002	-10.383
19139	2.9467	3.7273	0.	-5438.5
19140	2.8546	3.8182	0.	-5474.
19141	2.9467	3.8182	5.e-002	-10.355
19142	2.9467	3.5455	0.	-5431.9
19143	2.8546	3.6364	0.	-5466.8
19144	2.9467	3.6364	5.e-002	-10.333
19145	2.9467	3.3636	0.	-5427.3
19146	2.8546	3.4545	0.	-5461.6
19147	2.9467	3.4545	5.e-002	-10.316
19148	2.9467	3.1818	0.	-5424.5
19149	2.8546	3.2727	0.	-5458.2
19150	2.9467	3.2727	5.e-002	-10.305
19151	2.9467	3.	0.	-5423.6
19152	2.8546	3.0909	0.	-5456.5
19153	2.9467	3.0909	5.e-002	-10.3
19154	2.9467	2.8182	0.	-5424.5
19155	2.8546	2.9091	0.	-5456.5
19156	2.9467	2.9091	5.e-002	-10.3
19157	2.9467	2.6364	0.	-5427.3
19158	2.8546	2.7273	0.	-5458.2
19159	2.9467	2.7273	5.e-002	-10.305
19160	2.9467	2.4545	0.	-5431.9
19161	2.8546	2.5455	0.	-5461.6
19162	2.9467	2.5455	5.e-002	-10.316
19163	2.9467	2.2727	0.	-5438.5
19164	2.8546	2.3636	0.	-5466.8
19165	2.9467	2.3636	5.e-002	-10.333
19166	2.9467	2.0909	0.	-5447.
19167	2.8546	2.1818	0.	-5474.
19168	2.9467	2.1818	5.e-002	-10.355
19169	2.9467	1.9091	0.	-5457.6
19170	2.8546	2.	0.	-5483.1
19171	2.9467	2.	5.e-002	-10.383
19172	2.9467	1.7273	0.	-5470.3
19173	2.8546	1.8182	0.	-5494.3
19174	2.9467	1.8182	5.e-002	-10.413
19175	2.9467	1.5455	0.	-5485.2
19176	2.8546	1.6364	0.	-5507.8
19177	2.9467	1.6364	5.e-002	-10.441
19178	2.9467	1.3636	0.	-5502.1
19179	2.8546	1.4545	0.	-5523.4
19180	2.9467	1.4545	5.e-002	-10.463
19181	2.9467	1.1818	0.	-5521.1
19182	2.8546	1.2727	0.	-5541.2
19183	2.9467	1.2727	5.e-002	-10.47
19184	2.9467	1.	0.	-5541.9
19185	2.8546	1.0909	0.	-5561.2
19186	2.9467	1.0909	5.e-002	-10.454
19187	2.9467	0.81818	0.	-5564.5
19188	2.8546	0.90909	0.	-5583.1
19189	2.9467	0.90909	5.e-002	-10.408
19190	2.9467	0.63636	0.	-5588.5
19191	2.8546	0.72727	0.	-5606.8
19192	2.9467	0.72727	5.e-002	-10.327
19193	2.9467	0.45455	0.	-5613.9
19194	2.8546	0.54545	0.	-5632.1
19195	2.9467	0.54545	5.e-002	-10.233
19196	2.9467	0.27273	0.	-5642.1
19197	2.8546	0.36364	0.	-5658.8
19198	2.9467	0.36364	5.e-002	-10.446
19199	2.8546	0.18182	0.	-5690.4
19200	2.9467	0.18182	5.e-002	-17.587
19201	2.9467	9.0909e-002	0.	-5657.5
19202	2.7625	5.7273	0.	-5707.3
19203	2.6704	5.8182	0.	-5756.1
19204	2.7625	5.8182	5.e-002	-18.814
19205	2.7625	5.9091	0.	-5722.1
19206	2.7625	5.5455	0.	-5677.1
19207	2.6704	5.6364	0.	-5721.9
19208	2.7625	5.6364	5.e-002	-10.901
19209	2.7625	5.3636	0.	-5650.5
19210	2.6704	5.4545	0.	-5693.8
19211	2.7625	5.4545	5.e-002	-10.71
19212	2.7625	5.1818	0.	-5625.6
19213	2.6704	5.2727	0.	-5667.6
19214	2.7625	5.2727	5.e-002	-10.834
19215	2.7625	5.	0.	-5602.5
19216	2.6704	5.0909	0.	-5643.3
19217	2.7625	5.0909	5.e-002	-10.936
19218	2.7625	4.8182	0.	-5581.4
19219	2.6704	4.9091	0.	-5621.1
19220	2.7625	4.9091	5.e-002	-10.995
19221	2.7625	4.6364	0.	-5562.5
19222	2.6704	4.7273	0.	-5601.4
19223	2.7625	4.7273	5.e-002	-11.018
19224	2.7625	4.4545	0.	-5546.
19225	2.6704	4.5455	0.	-5584.1
19226	2.7625	4.5455	5.e-002	-11.014
19227	2.7625	4.2727	0.	-5531.7
19228	2.6704	4.3636	0.	-5569.3
19229	2.7625	4.3636	5.e-002	-10.996
19230	2.7625	4.0909	0.	-5519.8
19231	2.6704	4.1818	0.	-5556.8
19232	2.7625	4.1818	5.e-002	-10.972
19233	2.7625	3.9091	0.	-5510.
19234	2.6704	4.	0.	-5546.7
19235	2.7625	4.	5.e-002	-10.948
19236	2.7625	3.7273	0.	-5502.2
19237	2.6704	3.8182	0.	-5538.6
19238	2.7625	3.8182	5.e-002	-10.928
19239	2.7625	3.5455	0.	-5496.4
19240	2.6704	3.6364	0.	-5532.5
19241	2.7625	3.6364	5.e-002	-10.913
19242	2.7625	3.3636	0.	-5492.3
19243	2.6704	3.4545	0.	-5528.1
19244	2.7625	3.4545	5.e-002	-10.903
19245	2.7625	3.1818	0.	-5489.9
19246	2.6704	3.2727	0.	-5525.3
19247	2.7625	3.2727	5.e-002	-10.898
19248	2.7625	3.	0.	-5489.1
19249	2.6704	3.0909	0.	-5523.9
19250	2.7625	3.0909	5.e-002	-10.896
19251	2.7625	2.8182	0.	-5489.9
19252	2.6704	2.9091	0.	-5523.9
19253	2.7625	2.9091	5.e-002	-10.896
19254	2.7625	2.6364	0.	-5492.3
19255	2.6704	2.7273	0.	-5525.3
19256	2.7625	2.7273	5.e-002	-10.898
19257	2.7625	2.4545	0.	-5496.4
19258	2.6704	2.5455	0.	-5528.1
19259	2.7625	2.5455	5.e-002	-10.903
19260	2.7625	2.2727	0.	-5502.2
19261	2.6704	2.3636	0.	-5532.5
19262	2.7625	2.3636	5.e-002	-10.913
19263	2.7625	2.0909	0.	-5510.
19264	2.6704	2.1818	0.	-5538.6
19265	2.7625	2.1818	5.e-002	-10.928
19266	2.7625	1.9091	0.	-5519.8
19267	2.6704	2.	0.	-5546.7
19268	2.7625	2.	5.e-002	-10.948
19269	2.7625	1.7273	0.	-5531.7
19270	2.6704	1.8182	0.	-5556.8
19271	2.7625	1.8182	5.e-002	-10.972
19272	2.7625	1.5455	0.	-5546.
19273	2.6704	1.6364	0.	-5569.3
19274	2.7625	1.6364	5.e-002	-10.996
19275	2.7625	1.3636	0.	-5562.5
19276	2.6704	1.4545	0.	-5584.1
19277	2.7625	1.4545	5.e-002	-11.015
19278	2.7625	1.1818	0.	-5581.4
19279	2.6704	1.2727	0.	-5601.4
19280	2.7625	1.2727	5.e-002	-11.018
19281	2.7625	1.	0.	-5602.5
19282	2.6704	1.0909	0.	-5621.1
19283	2.7625	1.0909	5.e-002	-10.995
19284	2.7625	0.81818	0.	-5625.6
19285	2.6704	0.90909	0.	-5643.3
19286	2.7625	0.90909	5.e-002	-10.936
19287	2.7625	0.63636	0.	-5650.5
19288	2.6704	0.72727	0.	-5667.6
19289	2.7625	0.72727	5.e-002	-10.834
19290	2.7625	0.45455	0.	-5677.1
19291	2.6704	0.54545	0.	-5693.8
19292	2.7625	0.54545	5.e-002	-10.71
19293	2.7625	0.27273	0.	-5707.3
19294	2.6704	0.36364	0.	-5721.9
19295	2.7625	0.36364	5.e-002	-10.901
19296	2.6704	0.18182	0.	-5756.1
19297	2.7625	0.18182	5.e-002	-18.814
19298	2.7625	9.0909e-002	0.	-5722.1
19299	2.5783	5.7273	0.	-5770.9
19300	2.4862	5.8182	0.	-5819.9
19301	2.5783	5.8182	5.e-002	-20.082
19302	2.5783	5.9091	0.	-5784.8
19303	2.5783	5.5455	0.	-5738.7
19304	2.4862	5.6364	0.	-5782.9
19305	2.5783	5.6364	5.e-002	-11.403
19306	2.5783	5.3636	0.	-5711.
19307	2.4862	5.4545	0.	-5753.5
19308	2.5783	5.4545	5.e-002	-11.251
19309	2.5783	5.1818	0.	-5685.4
19310	2.4862	5.2727	0.	-5726.5
19311	2.5783	5.2727	5.e-002	-11.413
19312	2.5783	5.	0.	-5662.1
19313	2.4862	5.0909	0.	-5702.
19314	2.5783	5.0909	5.e-002	-11.54
19315	2.5783	4.8182	0.	-5641.2
19316	2.4862	4.9091	0.	-5680.1
19317	2.5783	4.9091	5.e-002	-11.611
19318	2.5783	4.6364	0.	-5623.
19319	2.4862	4.7273	0.	-5661.1
19320	2.5783	4.7273	5.e-002	-11.64
19321	2.5783	4.4545	0.	-5607.4
19322	2.4862	4.5455	0.	-5645.
19323	2.5783	4.5455	5.e-002	-11.639
19324	2.5783	4.2727	0.	-5594.3
19325	2.4862	4.3636	0.	-5631.7
19326	2.5783	4.3636	5.e-002	-11.625
19327	2.5783	4.0909	0.	-5583.7
19328	2.4862	4.1818	0.	-5621.
19329	2.5783	4.1818	5.e-002	-11.606
19330	2.5783	3.9091	0.	-5575.2
19331	2.4862	4.	0.	-5612.6
19332	2.5783	4.	5.e-002	-11.591
19333	2.5783	3.7273	0.	-5568.8
19334	2.4862	3.8182	0.	-5606.2
19335	2.5783	3.8182	5.e-002	-11.581
19336	2.5783	3.5455	0.	-5564.
19337	2.4862	3.6364	0.	-5601.6
19338	2.5783	3.6364	5.e-002	-11.578
19339	2.5783	3.3636	0.	-5560.8
19340	2.4862	3.4545	0.	-5598.4
19341	2.5783	3.4545	5.e-002	-11.578
19342	2.5783	3.1818	0.	-5559.
19343	2.4862	3.2727	0.	-5596.4
19344	2.5783	3.2727	5.e-002	-11.58
19345	2.5783	3.	0.	-5558.4
19346	2.4862	3.0909	0.	-5595.5
19347	2.5783	3.0909	5.e-002	-11.582
19348	2.5783	2.8182	0.	-5559.
19349	2.4862	2.9091	0.	-5595.5
19350	2.5783	2.9091	5.e-002	-11.582
19351	2.5783	2.6364	0.	-5560.8
19352	2.4862	2.7273	0.	-5596.4
19353	2.5783	2.7273	5.e-002	-11.58
19354	2.5783	2.4545	0.	-5564.
19355	2.4862	2.5455	0.	-5598.4
19356	2.5783	2.5455	5.e-002	-11.578
19357	2.5783	2.2727	0.	-5568.8
19358	2.4862	2.3636	0.	-5601.6
19359	2.5783	2.3636	5.e-002	-11.578
19360	2.5783	2.0909	0.	-5575.2
19361	2.4862	2.1818	0.	-5606.2
19362	2.5783	2.1818	5.e-002	-11.582
19363	2.5783	1.9091	0.	-5583.7
19364	2.4862	2.	0.	-5612.6
19365	2.5783	2.	5.e-002	-11.591
19366	2.5783	1.7273	0.	-5594.3
19367	2.4862	1.8182	0.	-5621.
19368	2.5783	1.8182	5.e-002	-11.607
19369	2.5783	1.5455	0.	-5607.4
19370	2.4862	1.6364	0.	-5631.7
19371	2.5783	1.6364	5.e-002	-11.625
19372	2.5783	1.3636	0.	-5623.
19373	2.4862	1.4545	0.	-5645.
19374	2.5783	1.4545	5.e-002	-11.64
19375	2.5783	1.1818	0.	-5641.2
19376	2.4862	1.2727	0.	-5661.1
19377	2.5783	1.2727	5.e-002	-11.64
19378	2.5783	1.	0.	-5662.1
19379	2.4862	1.0909	0.	-5680.1
19380	2.5783	1.0909	5.e-002	-11.611
19381	2.5783	0.81818	0.	-5685.4
19382	2.4862	0.90909	0.	-5702.
19383	2.5783	0.90909	5.e-002	-11.54
19384	2.5783	0.63636	0.	-5711.
19385	2.4862	0.72727	0.	-5726.5
19386	2.5783	0.72727	5.e-002	-11.413
19387	2.5783	0.45455	0.	-5738.7
19388	2.4862	0.54545	0.	-5753.5
19389	2.5783	0.54545	5.e-002	-11.251
19390	2.5783	0.27273	0.	-5770.9
19391	2.4862	0.36364	0.	-5782.9
19392	2.5783	0.36364	5.e-002	-11.404
19393	2.4862	0.18182	0.	-5819.9
19394	2.5783	0.18182	5.e-002	-20.082
19395	2.5783	9.0909e-002	0.	-5784.8
19396	2.3942	5.7273	0.	-5832.1
19397	2.3021	5.8182	0.	-5880.8
19398	2.3942	5.8182	5.e-002	-21.381
19399	2.3942	5.9091	0.	-5844.6
19400	2.3942	5.5455	0.	-5797.9
19401	2.3021	5.6364	0.	-5840.8
19402	2.3942	5.6364	5.e-002	-11.967
19403	2.3942	5.3636	0.	-5769.2
19404	2.3021	5.4545	0.	-5810.2
19405	2.3942	5.4545	5.e-002	-11.879
19406	2.3942	5.1818	0.	-5743.2
19407	2.3021	5.2727	0.	-5782.8
19408	2.3942	5.2727	5.e-002	-12.086
19409	2.3942	5.	0.	-5720.2
19410	2.3021	5.0909	0.	-5758.5
19411	2.3942	5.0909	5.e-002	-12.237
19412	2.3942	4.8182	0.	-5700.1
19413	2.3021	4.9091	0.	-5737.6
19414	2.3942	4.9091	5.e-002	-12.319
19415	2.3942	4.6364	0.	-5683.2
19416	2.3021	4.7273	0.	-5720.2
19417	2.3942	4.7273	5.e-002	-12.35
19418	2.3942	4.4545	0.	-5669.3
19419	2.3021	4.5455	0.	-5706.2
19420	2.3942	4.5455	5.e-002	-12.35
19421	2.3942	4.2727	0.	-5658.3
19422	2.3021	4.3636	0.	-5695.2
19423	2.3942	4.3636	5.e-002	-12.339
19424	2.3942	4.0909	0.	-5649.7
19425	2.3021	4.1818	0.	-5687.1
19426	2.3942	4.1818	5.e-002	-12.328
19427	2.3942	3.9091	0.	-5643.4
19428	2.3021	4.	0.	-5681.4
19429	2.3942	4.	5.e-002	-12.324
19430	2.3942	3.7273	0.	-5638.8
19431	2.3021	3.8182	0.	-5677.5
19432	2.3942	3.8182	5.e-002	-12.329
19433	2.3942	3.5455	0.	-5635.8
19434	2.3021	3.6364	0.	-5675.
19435	2.3942	3.6364	5.e-002	-12.341
19436	2.3942	3.3636	0.	-5633.8
19437	2.3021	3.4545	0.	-5673.6
19438	2.3942	3.4545	5.e-002	-12.354
19439	2.3942	3.1818	0.	-5632.7
19440	2.3021	3.2727	0.	-5672.8
19441	2.3942	3.2727	5.e-002	-12.366
19442	2.3942	3.	0.	-5632.4
19443	2.3021	3.0909	0.	-5672.5
19444	2.3942	3.0909	5.e-002	-12.373
19445	2.3942	2.8182	0.	-5632.7
19446	2.3021	2.9091	0.	-5672.5
19447	2.3942	2.9091	5.e-002	-12.373
19448	2.3942	2.6364	0.	-5633.8
19449	2.3021	2.7273	0.	-5672.8
19450	2.3942	2.7273	5.e-002	-12.366
19451	2.3942	2.4545	0.	-5635.8
19452	2.3021	2.5455	0.	-5673.6
19453	2.3942	2.5455	5.e-002	-12.354
19454	2.3942	2.2727	0.	-5638.8
19455	2.3021	2.3636	0.	-5675.
19456	2.3942	2.3636	5.e-002	-12.341
19457	2.3942	2.0909	0.	-5643.4
19458	2.3021	2.1818	0.	-5677.5
19459	2.3942	2.1818	5.e-002	-12.329
19460	2.3942	1.9091	0.	-5649.7
19461	2.3021	2.	0.	-5681.4
19462	2.3942	2.	5.e-002	-12.324
19463	2.3942	1.7273	0.	-5658.3
19464	2.3021	1.8182	0.	-5687.1
19465	2.3942	1.8182	5.e-002	-12.328
19466	2.3942	1.5455	0.	-5669.3
19467	2.3021	1.6364	0.	-5695.2
19468	2.3942	1.6364	5.e-002	-12.339
19469	2.3942	1.3636	0.	-5683.2
19470	2.3021	1.4545	0.	-5706.2
19471	2.3942	1.4545	5.e-002	-12.35
19472	2.3942	1.1818	0.	-5700.1
19473	2.3021	1.2727	0.	-5720.2
19474	2.3942	1.2727	5.e-002	-12.35
19475	2.3942	1.	0.	-5720.2
19476	2.3021	1.0909	0.	-5737.6
19477	2.3942	1.0909	5.e-002	-12.319
19478	2.3942	0.81818	0.	-5743.2
19479	2.3021	0.90909	0.	-5758.5
19480	2.3942	0.90909	5.e-002	-12.237
19481	2.3942	0.63636	0.	-5769.2
19482	2.3021	0.72727	0.	-5782.8
19483	2.3942	0.72727	5.e-002	-12.086
19484	2.3942	0.45455	0.	-5797.9
19485	2.3021	0.54545	0.	-5810.2
19486	2.3942	0.54545	5.e-002	-11.879
19487	2.3942	0.27273	0.	-5832.1
19488	2.3021	0.36364	0.	-5840.8
19489	2.3942	0.36364	5.e-002	-11.967
19490	2.3021	0.18182	0.	-5880.8
19491	2.3942	0.18182	5.e-002	-21.381
19492	2.3942	9.0909e-002	0.	-5844.6
19493	2.21	5.7273	0.	-5889.7
19494	2.1179	5.8182	0.	-5937.4
19495	2.21	5.8182	5.e-002	-22.695
19496	2.21	5.9091	0.	-5900.3
19497	2.21	5.5455	0.	-5853.4
19498	2.1179	5.6364	0.	-5894.1
19499	2.21	5.6364	5.e-002	-12.616
19500	2.21	5.3636	0.	-5824.
19501	2.1179	5.4545	0.	-5862.7
19502	2.21	5.4545	5.e-002	-12.625
19503	2.21	5.1818	0.	-5798.3
19504	2.1179	5.2727	0.	-5835.3
19505	2.21	5.2727	5.e-002	-12.881
19506	2.21	5.	0.	-5776.1
19507	2.1179	5.0909	0.	-5812.1
19508	2.21	5.0909	5.e-002	-13.055
19509	2.21	4.8182	0.	-5757.8
19510	2.1179	4.9091	0.	-5793.1
19511	2.21	4.9091	5.e-002	-13.14
19512	2.21	4.6364	0.	-5743.2
19513	2.1179	4.7273	0.	-5778.3
19514	2.21	4.7273	5.e-002	-13.165
19515	2.21	4.4545	0.	-5732.
19516	2.1179	4.5455	0.	-5767.5
19517	2.21	4.5455	5.e-002	-13.162
19518	2.21	4.2727	0.	-5724.
19519	2.1179	4.3636	0.	-5760.2
19520	2.21	4.3636	5.e-002	-13.152
19521	2.21	4.0909	0.	-5718.6
19522	2.1179	4.1818	0.	-5755.9
19523	2.21	4.1818	5.e-002	-13.151
19524	2.21	3.9091	0.	-5715.2
19525	2.1179	4.	0.	-5753.8
19526	2.21	4.	5.e-002	-13.162
19527	2.21	3.7273	0.	-5713.4
19528	2.1179	3.8182	0.	-5753.4
19529	2.21	3.8182	5.e-002	-13.186
19530	2.21	3.5455	0.	-5712.6
19531	2.1179	3.6364	0.	-5753.8
19532	2.21	3.6364	5.e-002	-13.216
19533	2.21	3.3636	0.	-5712.3
19534	2.1179	3.4545	0.	-5754.7
19535	2.21	3.4545	5.e-002	-13.246
19536	2.21	3.1818	0.	-5712.3
19537	2.1179	3.2727	0.	-5755.5
19538	2.21	3.2727	5.e-002	-13.27
19539	2.21	3.	0.	-5712.3
19540	2.1179	3.0909	0.	-5756.
19541	2.21	3.0909	5.e-002	-13.284
19542	2.21	2.8182	0.	-5712.3
19543	2.1179	2.9091	0.	-5756.
19544	2.21	2.9091	5.e-002	-13.284
19545	2.21	2.6364	0.	-5712.3
19546	2.1179	2.7273	0.	-5755.5
19547	2.21	2.7273	5.e-002	-13.27
19548	2.21	2.4545	0.	-5712.6
19549	2.1179	2.5455	0.	-5754.7
19550	2.21	2.5455	5.e-002	-13.246
19551	2.21	2.2727	0.	-5713.4
19552	2.1179	2.3636	0.	-5753.8
19553	2.21	2.3636	5.e-002	-13.216
19554	2.21	2.0909	0.	-5715.2
19555	2.1179	2.1818	0.	-5753.4
19556	2.21	2.1818	5.e-002	-13.186
19557	2.21	1.9091	0.	-5718.6
19558	2.1179	2.	0.	-5753.8
19559	2.21	2.	5.e-002	-13.163
19560	2.21	1.7273	0.	-5724.
19561	2.1179	1.8182	0.	-5755.9
19562	2.21	1.8182	5.e-002	-13.151
19563	2.21	1.5455	0.	-5732.
19564	2.1179	1.6364	0.	-5760.2
19565	2.21	1.6364	5.e-002	-13.152
19566	2.21	1.3636	0.	-5743.2
19567	2.1179	1.4545	0.	-5767.5
19568	2.21	1.4545	5.e-002	-13.162
19569	2.21	1.1818	0.	-5757.8
19570	2.1179	1.2727	0.	-5778.3
19571	2.21	1.2727	5.e-002	-13.165
19572	2.21	1.	0.	-5776.1
19573	2.1179	1.0909	0.	-5793.1
19574	2.21	1.0909	5.e-002	-13.14
19575	2.21	0.81818	0.	-5798.3
19576	2.1179	0.90909	0.	-5812.1
19577	2.21	0.90909	5.e-002	-13.055
19578	2.21	0.63636	0.	-5824.1
19579	2.1179	0.72727	0.	-5835.3
19580	2.21	0.72727	5.e-002	-12.881
19581	2.21	0.45455	0.	-5853.4
19582	2.1179	0.54545	0.	-5862.7
19583	2.21	0.54545	5.e-002	-12.625
19584	2.21	0.27273	0.	-5889.7
19585	2.1179	0.36364	0.	-5894.1
19586	2.21	0.36364	5.e-002	-12.616
19587	2.1179	0.18182	0.	-5937.4
19588	2.21	0.18182	5.e-002	-22.695
19589	2.21	9.0909e-002	0.	-5900.3
19590	2.0258	5.7273	0.	-5942.1
19591	1.9338	5.8182	0.	-5987.8
19592	2.0258	5.8182	5.e-002	-24.002
19593	2.0258	5.9091	0.	-5950.1
19594	2.0258	5.5455	0.	-5903.7
19595	1.9338	5.6364	0.	-5941.1
19596	2.0258	5.6364	5.e-002	-13.392
19597	2.0258	5.3636	0.	-5874.2
19598	1.9338	5.4545	0.	-5909.2
19599	2.0258	5.4545	5.e-002	-13.534
19600	2.0258	5.1818	0.	-5849.4
19601	1.9338	5.2727	0.	-5882.7
19602	2.0258	5.2727	5.e-002	-13.842
19603	2.0258	5.	0.	-5829.2
19604	1.9338	5.0909	0.	-5861.5
19605	2.0258	5.0909	5.e-002	-14.026
19606	2.0258	4.8182	0.	-5813.7
19607	1.9338	4.9091	0.	-5845.8
19608	2.0258	4.9091	5.e-002	-14.099
19609	2.0258	4.6364	0.	-5802.7
19610	1.9338	4.7273	0.	-5835.2
19611	2.0258	4.7273	5.e-002	-14.107
19612	2.0258	4.4545	0.	-5795.6
19613	1.9338	4.5455	0.	-5829.2
19614	2.0258	4.5455	5.e-002	-14.092
19615	2.0258	4.2727	0.	-5792.
19616	1.9338	4.3636	0.	-5827.2
19617	2.0258	4.3636	5.e-002	-14.082
19618	2.0258	4.0909	0.	-5791.
19619	1.9338	4.1818	0.	-5828.1
19620	2.0258	4.1818	5.e-002	-14.092
19621	2.0258	3.9091	0.	-5791.7
19622	1.9338	4.	0.	-5831.1
19623	2.0258	4.	5.e-002	-14.122
19624	2.0258	3.7273	0.	-5793.5
19625	1.9338	3.8182	0.	-5835.2
19626	2.0258	3.8182	5.e-002	-14.169
19627	2.0258	3.5455	0.	-5795.7
19628	1.9338	3.6364	0.	-5839.5
19629	2.0258	3.6364	5.e-002	-14.221
19630	2.0258	3.3636	0.	-5797.7
19631	1.9338	3.4545	0.	-5843.3
19632	2.0258	3.4545	5.e-002	-14.27
19633	2.0258	3.1818	0.	-5799.
19634	1.9338	3.2727	0.	-5846.2
19635	2.0258	3.2727	5.e-002	-14.307
19636	2.0258	3.	0.	-5799.5
19637	1.9338	3.0909	0.	-5847.7
19638	2.0258	3.0909	5.e-002	-14.328
19639	2.0258	2.8182	0.	-5799.
19640	1.9338	2.9091	0.	-5847.7
19641	2.0258	2.9091	5.e-002	-14.328
19642	2.0258	2.6364	0.	-5797.7
19643	1.9338	2.7273	0.	-5846.2
19644	2.0258	2.7273	5.e-002	-14.307
19645	2.0258	2.4545	0.	-5795.7
19646	1.9338	2.5455	0.	-5843.3
19647	2.0258	2.5455	5.e-002	-14.27
19648	2.0258	2.2727	0.	-5793.5
19649	1.9338	2.3636	0.	-5839.5
19650	2.0258	2.3636	5.e-002	-14.221
19651	2.0258	2.0909	0.	-5791.7
19652	1.9338	2.1818	0.	-5835.2
19653	2.0258	2.1818	5.e-002	-14.169
19654	2.0258	1.9091	0.	-5791.
19655	1.9338	2.	0.	-5831.1
19656	2.0258	2.	5.e-002	-14.122
19657	2.0258	1.7273	0.	-5792.
19658	1.9338	1.8182	0.	-5828.1
19659	2.0258	1.8182	5.e-002	-14.092
19660	2.0258	1.5455	0.	-5795.6
19661	1.9338	1.6364	0.	-5827.2
19662	2.0258	1.6364	5.e-002	-14.082
19663	2.0258	1.3636	0.	-5802.7
19664	1.9338	1.4545	0.	-5829.2
19665	2.0258	1.4545	5.e-002	-14.092
19666	2.0258	1.1818	0.	-5813.7
19667	1.9338	1.2727	0.	-5835.2
19668	2.0258	1.2727	5.e-002	-14.108
19669	2.0258	1.	0.	-5829.2
19670	1.9338	1.0909	0.	-5845.8
19671	2.0258	1.0909	5.e-002	-14.099
19672	2.0258	0.81818	0.	-5849.4
19673	1.9338	0.90909	0.	-5861.5
19674	2.0258	0.90909	5.e-002	-14.026
19675	2.0258	0.63636	0.	-5874.2
19676	1.9338	0.72727	0.	-5882.7
19677	2.0258	0.72727	5.e-002	-13.842
19678	2.0258	0.45455	0.	-5903.7
19679	1.9338	0.54545	0.	-5909.2
19680	2.0258	0.54545	5.e-002	-13.534
19681	2.0258	0.27273	0.	-5942.1
19682	1.9338	0.36364	0.	-5941.1
19683	2.0258	0.36364	5.e-002	-13.392
19684	1.9338	0.18182	0.	-5987.8
19685	2.0258	0.18182	5.e-002	-24.002
19686	2.0258	9.0909e-002	0.	-5950.1
19687	1.8417	5.7273	0.	-5987.1
19688	1.7496	5.8182	0.	-6029.3
19689	1.8417	5.8182	5.e-002	-25.271
19690	1.8417	5.9091	0.	-5991.8
19691	1.8417	5.5455	0.	-5946.9
19692	1.7496	5.6364	0.	-5979.1
19693	1.8417	5.6364	5.e-002	-14.362
19694	1.8417	5.3636	0.	-5917.9
19695	1.7496	5.4545	0.	-5947.4
19696	1.8417	5.4545	5.e-002	-14.679
19697	1.8417	5.1818	0.	-5895.
19698	1.7496	5.2727	0.	-5922.9
19699	1.8417	5.2727	5.e-002	-15.027
19700	1.8417	5.	0.	-5878.2
19701	1.7496	5.0909	0.	-5905.4
19702	1.8417	5.0909	5.e-002	-15.198
19703	1.8417	4.8182	0.	-5867.3
19704	1.7496	4.9091	0.	-5894.8
19705	1.8417	4.9091	5.e-002	-15.232
19706	1.8417	4.6364	0.	-5861.7
19707	1.7496	4.7273	0.	-5890.5
19708	1.8417	4.7273	5.e-002	-15.202
19709	1.8417	4.4545	0.	-5860.6
19710	1.7496	4.5455	0.	-5891.6
19711	1.8417	4.5455	5.e-002	-15.164
19712	1.8417	4.2727	0.	-5863.1
19713	1.7496	4.3636	0.	-5896.9
19714	1.8417	4.3636	5.e-002	-15.15
19715	1.8417	4.0909	0.	-5868.
19716	1.7496	4.1818	0.	-5904.9
19717	1.8417	4.1818	5.e-002	-15.172
19718	1.8417	3.9091	0.	-5874.2
19719	1.7496	4.	0.	-5914.5
19720	1.8417	4.	5.e-002	-15.224
19721	1.8417	3.7273	0.	-5880.8
19722	1.7496	3.8182	0.	-5924.4
19723	1.8417	3.8182	5.e-002	-15.296
19724	1.8417	3.5455	0.	-5886.8
19725	1.7496	3.6364	0.	-5933.5
19726	1.8417	3.6364	5.e-002	-15.372
19727	1.8417	3.3636	0.	-5891.6
19728	1.7496	3.4545	0.	-5941.1
19729	1.8417	3.4545	5.e-002	-15.441
19730	1.8417	3.1818	0.	-5894.6
19731	1.7496	3.2727	0.	-5946.5
19732	1.8417	3.2727	5.e-002	-15.492
19733	1.8417	3.	0.	-5895.7
19734	1.7496	3.0909	0.	-5949.3
19735	1.8417	3.0909	5.e-002	-15.519
19736	1.8417	2.8182	0.	-5894.6
19737	1.7496	2.9091	0.	-5949.3
19738	1.8417	2.9091	5.e-002	-15.519
19739	1.8417	2.6364	0.	-5891.6
19740	1.7496	2.7273	0.	-5946.5
19741	1.8417	2.7273	5.e-002	-15.492
19742	1.8417	2.4545	0.	-5886.8
19743	1.7496	2.5455	0.	-5941.1
19744	1.8417	2.5455	5.e-002	-15.441
19745	1.8417	2.2727	0.	-5880.8
19746	1.7496	2.3636	0.	-5933.5
19747	1.8417	2.3636	5.e-002	-15.372
19748	1.8417	2.0909	0.	-5874.2
19749	1.7496	2.1818	0.	-5924.4
19750	1.8417	2.1818	5.e-002	-15.296
19751	1.8417	1.9091	0.	-5868.
19752	1.7496	2.	0.	-5914.5
19753	1.8417	2.	5.e-002	-15.224
19754	1.8417	1.7273	0.	-5863.1
19755	1.7496	1.8182	0.	-5904.9
19756	1.8417	1.8182	5.e-002	-15.172
19757	1.8417	1.5455	0.	-5860.6
19758	1.7496	1.6364	0.	-5896.9
19759	1.8417	1.6364	5.e-002	-15.15
19760	1.8417	1.3636	0.	-5861.7
19761	1.7496	1.4545	0.	-5891.6
19762	1.8417	1.4545	5.e-002	-15.164
19763	1.8417	1.1818	0.	-5867.3
19764	1.7496	1.2727	0.	-5890.5
19765	1.8417	1.2727	5.e-002	-15.202
19766	1.8417	1.	0.	-5878.2
19767	1.7496	1.0909	0.	-5894.8
19768	1.8417	1.0909	5.e-002	-15.232
19769	1.8417	0.81818	0.	-5895.
19770	1.7496	0.90909	0.	-5905.4
19771	1.8417	0.90909	5.e-002	-15.198
19772	1.8417	0.63636	0.	-5917.9
19773	1.7496	0.72727	0.	-5922.9
19774	1.8417	0.72727	5.e-002	-15.028
19775	1.8417	0.45455	0.	-5946.9
19776	1.7496	0.54545	0.	-5947.4
19777	1.8417	0.54545	5.e-002	-14.679
19778	1.8417	0.27273	0.	-5987.1
19779	1.7496	0.36364	0.	-5979.1
19780	1.8417	0.36364	5.e-002	-14.362
19781	1.7496	0.18182	0.	-6029.3
19782	1.8417	0.18182	5.e-002	-25.271
19783	1.8417	9.0909e-002	0.	-5991.8
19784	1.6575	5.7273	0.	-6021.6
19785	1.5654	5.8182	0.	-6058.1
19786	1.6575	5.8182	5.e-002	-26.46
19787	1.6575	5.9091	0.	-6022.
19788	1.6575	5.5455	0.	-5980.
19789	1.5654	5.6364	0.	-6004.5
19790	1.6575	5.6364	5.e-002	-15.634
19791	1.6575	5.3636	0.	-5952.7
19792	1.5654	5.4545	0.	-5974.2
19793	1.6575	5.4545	5.e-002	-16.164
19794	1.6575	5.1818	0.	-5933.5
19795	1.5654	5.2727	0.	-5953.5
19796	1.6575	5.2727	5.e-002	-16.52
19797	1.6575	5.	0.	-5922.1
19798	1.5654	5.0909	0.	-5942.2
19799	1.6575	5.0909	5.e-002	-16.627
19800	1.6575	4.8182	0.	-5918.
19801	1.5654	4.9091	0.	-5939.5
19802	1.6575	4.9091	5.e-002	-16.579
19803	1.6575	4.6364	0.	-5920.3
19804	1.5654	4.7273	0.	-5944.5
19805	1.6575	4.7273	5.e-002	-16.48
19806	1.6575	4.4545	0.	-5927.6
19807	1.5654	4.5455	0.	-5955.4
19808	1.6575	4.5455	5.e-002	-16.404
19809	1.6575	4.2727	0.	-5938.4
19810	1.5654	4.3636	0.	-5970.5
19811	1.6575	4.3636	5.e-002	-16.383
19812	1.6575	4.0909	0.	-5951.1
19813	1.5654	4.1818	0.	-5987.9
19814	1.6575	4.1818	5.e-002	-16.417
19815	1.6575	3.9091	0.	-5964.3
19816	1.5654	4.	0.	-6005.9
19817	1.6575	4.	5.e-002	-16.493
19818	1.6575	3.7273	0.	-5976.8
19819	1.5654	3.8182	0.	-6023.
19820	1.6575	3.8182	5.e-002	-16.589
19821	1.6575	3.5455	0.	-5987.6
19822	1.5654	3.6364	0.	-6038.
19823	1.6575	3.6364	5.e-002	-16.687
19824	1.6575	3.3636	0.	-5995.8
19825	1.5654	3.4545	0.	-6050.
19826	1.6575	3.4545	5.e-002	-16.772
19827	1.6575	3.1818	0.	-6000.9
19828	1.5654	3.2727	0.	-6058.4
19829	1.6575	3.2727	5.e-002	-16.834
19830	1.6575	3.	0.	-6002.6
19831	1.5654	3.0909	0.	-6062.7
19832	1.6575	3.0909	5.e-002	-16.867
19833	1.6575	2.8182	0.	-6000.9
19834	1.5654	2.9091	0.	-6062.7
19835	1.6575	2.9091	5.e-002	-16.867
19836	1.6575	2.6364	0.	-5995.8
19837	1.5654	2.7273	0.	-6058.4
19838	1.6575	2.7273	5.e-002	-16.834
19839	1.6575	2.4545	0.	-5987.6
19840	1.5654	2.5455	0.	-6050.
19841	1.6575	2.5455	5.e-002	-16.772
19842	1.6575	2.2727	0.	-5976.8
19843	1.5654	2.3636	0.	-6038.
19844	1.6575	2.3636	5.e-002	-16.687
19845	1.6575	2.0909	0.	-5964.3
19846	1.5654	2.1818	0.	-6023.
19847	1.6575	2.1818	5.e-002	-16.589
19848	1.6575	1.9091	0.	-5951.1
19849	1.5654	2.	0.	-6005.9
19850	1.6575	2.	5.e-002	-16.493
19851	1.6575	1.7273	0.	-5938.4
19852	1.5654	1.8182	0.	-5987.9
19853	1.6575	1.8182	5.e-002	-16.417
19854	1.6575	1.5455	0.	-5927.6
19855	1.5654	1.6364	0.	-5970.5
19856	1.6575	1.6364	5.e-002	-16.383
19857	1.6575	1.3636	0.	-5920.3
19858	1.5654	1.4545	0.	-5955.4
19859	1.6575	1.4545	5.e-002	-16.404
19860	1.6575	1.1818	0.	-5918.
19861	1.5654	1.2727	0.	-5944.5
19862	1.6575	1.2727	5.e-002	-16.48
19863	1.6575	1.	0.	-5922.1
19864	1.5654	1.0909	0.	-5939.5
19865	1.6575	1.0909	5.e-002	-16.579
19866	1.6575	0.81818	0.	-5933.5
19867	1.5654	0.90909	0.	-5942.2
19868	1.6575	0.90909	5.e-002	-16.627
19869	1.6575	0.63636	0.	-5952.7
19870	1.5654	0.72727	0.	-5953.5
19871	1.6575	0.72727	5.e-002	-16.52
19872	1.6575	0.45455	0.	-5980.
19873	1.5654	0.54545	0.	-5974.2
19874	1.6575	0.54545	5.e-002	-16.164
19875	1.6575	0.27273	0.	-6021.6
19876	1.5654	0.36364	0.	-6004.5
19877	1.6575	0.36364	5.e-002	-15.634
19878	1.5654	0.18182	0.	-6058.1
19879	1.6575	0.18182	5.e-002	-26.46
19880	1.6575	9.0909e-002	0.	-6022.
19881	1.4733	5.7273	0.	-6041.4
19882	1.3813	5.8182	0.	-6068.9
19883	1.4733	5.8182	5.e-002	-27.519
19884	1.4733	5.9091	0.	-6036.
19885	1.4733	5.5455	0.	-5999.1
19886	1.3813	5.6364	0.	-6012.2
19887	1.4733	5.6364	5.e-002	-17.391
19888	1.4733	5.3636	0.	-5975.3
19889	1.3813	5.4545	0.	-5985.2
19890	1.4733	5.4545	5.e-002	-18.147
19891	1.4733	5.1818	0.	-5962.4
19892	1.3813	5.2727	0.	-5971.4
19893	1.4733	5.2727	5.e-002	-18.434
19894	1.4733	5.	0.	-5959.6
19895	1.3813	5.0909	0.	-5969.9
19896	1.4733	5.0909	5.e-002	-18.389
19897	1.4733	4.8182	0.	-5965.8
19898	1.3813	4.9091	0.	-5979.3
19899	1.4733	4.9091	5.e-002	-18.187
19900	1.4733	4.6364	0.	-5979.3
19901	1.3813	4.7273	0.	-5997.5
19902	1.4733	4.7273	5.e-002	-17.98
19903	1.4733	4.4545	0.	-5998.
19904	1.3813	4.5455	0.	-6022.1
19905	1.4733	4.5455	5.e-002	-17.85
19906	1.4733	4.2727	0.	-6019.7
19907	1.3813	4.3636	0.	-6050.2
19908	1.4733	4.3636	5.e-002	-17.816
19909	1.4733	4.0909	0.	-6042.4
19910	1.3813	4.1818	0.	-6079.4
19911	1.4733	4.1818	5.e-002	-17.862
19912	1.4733	3.9091	0.	-6064.2
19913	1.3813	4.	0.	-6107.7
19914	1.4733	4.	5.e-002	-17.957
19915	1.4733	3.7273	0.	-6083.9
19916	1.3813	3.8182	0.	-6133.4
19917	1.4733	3.8182	5.e-002	-18.072
19918	1.4733	3.5455	0.	-6100.2
19919	1.3813	3.6364	0.	-6155.2
19920	1.4733	3.6364	5.e-002	-18.183
19921	1.4733	3.3636	0.	-6112.4
19922	1.3813	3.4545	0.	-6172.3
19923	1.4733	3.4545	5.e-002	-18.277
19924	1.4733	3.1818	0.	-6119.9
19925	1.3813	3.2727	0.	-6184.
19926	1.4733	3.2727	5.e-002	-18.344
19927	1.4733	3.	0.	-6122.4
19928	1.3813	3.0909	0.	-6189.9
19929	1.4733	3.0909	5.e-002	-18.378
19930	1.4733	2.8182	0.	-6119.9
19931	1.3813	2.9091	0.	-6189.9
19932	1.4733	2.9091	5.e-002	-18.378
19933	1.4733	2.6364	0.	-6112.4
19934	1.3813	2.7273	0.	-6184.
19935	1.4733	2.7273	5.e-002	-18.344
19936	1.4733	2.4545	0.	-6100.2
19937	1.3813	2.5455	0.	-6172.3
19938	1.4733	2.5455	5.e-002	-18.277
19939	1.4733	2.2727	0.	-6083.9
19940	1.3813	2.3636	0.	-6155.2
19941	1.4733	2.3636	5.e-002	-18.183
19942	1.4733	2.0909	0.	-6064.2
19943	1.3813	2.1818	0.	-6133.4
19944	1.4733	2.1818	5.e-002	-18.072
19945	1.4733	1.9091	0.	-6042.4
19946	1.3813	2.	0.	-6107.7
19947	1.4733	2.	5.e-002	-17.957
19948	1.4733	1.7273	0.	-6019.7
19949	1.3813	1.8182	0.	-6079.4
19950	1.4733	1.8182	5.e-002	-17.862
19951	1.4733	1.5455	0.	-5998.
19952	1.3813	1.6364	0.	-6050.2
19953	1.4733	1.6364	5.e-002	-17.816
19954	1.4733	1.3636	0.	-5979.3
19955	1.3813	1.4545	0.	-6022.1
19956	1.4733	1.4545	5.e-002	-17.85
19957	1.4733	1.1818	0.	-5965.8
19958	1.3813	1.2727	0.	-5997.5
19959	1.4733	1.2727	5.e-002	-17.98
19960	1.4733	1.	0.	-5959.6
19961	1.3813	1.0909	0.	-5979.3
19962	1.4733	1.0909	5.e-002	-18.187
19963	1.4733	0.81818	0.	-5962.4
19964	1.3813	0.90909	0.	-5969.9
19965	1.4733	0.90909	5.e-002	-18.389
19966	1.4733	0.63636	0.	-5975.3
19967	1.3813	0.72727	0.	-5971.4
19968	1.4733	0.72727	5.e-002	-18.434
19969	1.4733	0.45455	0.	-5999.1
19970	1.3813	0.54545	0.	-5985.2
19971	1.4733	0.54545	5.e-002	-18.147
19972	1.4733	0.27273	0.	-6041.4
19973	1.3813	0.36364	0.	-6012.2
19974	1.4733	0.36364	5.e-002	-17.391
19975	1.3813	0.18182	0.	-6068.9
19976	1.4733	0.18182	5.e-002	-27.519
19977	1.4733	9.0909e-002	0.	-6036.
19978	1.2892	5.7273	0.	-6040.1
19979	1.1971	5.8182	0.	-6053.3
19980	1.2892	5.8182	5.e-002	-28.389
19981	1.2892	5.9091	0.	-6027.
19982	1.2892	5.5455	0.	-5998.7
19983	1.1971	5.6364	0.	-5994.8
19984	1.2892	5.6364	5.e-002	-19.928
19985	1.2892	5.3636	0.	-5981.5
19986	1.1971	5.4545	0.	-5974.6
19987	1.2892	5.4545	5.e-002	-20.857
19988	1.2892	5.1818	0.	-5978.9
19989	1.1971	5.2727	0.	-5972.6
19990	1.2892	5.2727	5.e-002	-20.916
19991	1.2892	5.	0.	-5989.4
19992	1.1971	5.0909	0.	-5986.9
19993	1.2892	5.0909	5.e-002	-20.567
19994	1.2892	4.8182	0.	-6010.7
19995	1.1971	4.9091	0.	-6014.4
19996	1.2892	4.9091	5.e-002	-20.111
19997	1.2892	4.6364	0.	-6039.9
19998	1.1971	4.7273	0.	-6051.6
19999	1.2892	4.7273	5.e-002	-19.748
20000	1.2892	4.4545	0.	-6073.8
20001	1.1971	4.5455	0.	-6094.4
20002	1.2892	4.5455	5.e-002	-19.548
20003	1.2892	4.2727	0.	-6109.5
20004	1.1971	4.3636	0.	-6139.1
20005	1.2892	4.3636	5.e-002	-19.496
20006	1.2892	4.0909	0.	-6144.4
20007	1.1971	4.1818	0.	-6182.8
20008	1.2892	4.1818	5.e-002	-19.544
20009	1.2892	3.9091	0.	-6176.5
20010	1.1971	4.	0.	-6223.2
20011	1.2892	4.	5.e-002	-19.645
20012	1.2892	3.7273	0.	-6204.4
20013	1.1971	3.8182	0.	-6258.6
20014	1.2892	3.8182	5.e-002	-19.76
20015	1.2892	3.5455	0.	-6227.
20016	1.1971	3.6364	0.	-6287.9
20017	1.2892	3.6364	5.e-002	-19.868
20018	1.2892	3.3636	0.	-6243.6
20019	1.1971	3.4545	0.	-6310.4
20020	1.2892	3.4545	5.e-002	-19.955
20021	1.2892	3.1818	0.	-6253.7
20022	1.1971	3.2727	0.	-6325.6
20023	1.2892	3.2727	5.e-002	-20.016
20024	1.2892	3.	0.	-6257.1
20025	1.1971	3.0909	0.	-6333.2
20026	1.2892	3.0909	5.e-002	-20.046
20027	1.2892	2.8182	0.	-6253.7
20028	1.1971	2.9091	0.	-6333.2
20029	1.2892	2.9091	5.e-002	-20.046
20030	1.2892	2.6364	0.	-6243.6
20031	1.1971	2.7273	0.	-6325.6
20032	1.2892	2.7273	5.e-002	-20.016
20033	1.2892	2.4545	0.	-6227.
20034	1.1971	2.5455	0.	-6310.4
20035	1.2892	2.5455	5.e-002	-19.955
20036	1.2892	2.2727	0.	-6204.4
20037	1.1971	2.3636	0.	-6287.9
20038	1.2892	2.3636	5.e-002	-19.868
20039	1.2892	2.0909	0.	-6176.5
20040	1.1971	2.1818	0.	-6258.6
20041	1.2892	2.1818	5.e-002	-19.76
20042	1.2892	1.9091	0.	-6144.4
20043	1.1971	2.	0.	-6223.2
20044	1.2892	2.	5.e-002	-19.645
20045	1.2892	1.7273	0.	-6109.5
20046	1.1971	1.8182	0.	-6182.8
20047	1.2892	1.8182	5.e-002	-19.544
20048	1.2892	1.5455	0.	-6073.8
20049	1.1971	1.6364	0.	-6139.1
20050	1.2892	1.6364	5.e-002	-19.496
20051	1.2892	1.3636	0.	-6039.9
20052	1.1971	1.4545	0.	-6094.4
20053	1.2892	1.4545	5.e-002	-19.548
20054	1.2892	1.1818	0.	-6010.7
20055	1.1971	1.2727	0.	-6051.6
20056	1.2892	1.2727	5.e-002	-19.748
20057	1.2892	1.	0.	-5989.4
20058	1.1971	1.0909	0.	-6014.4
20059	1.2892	1.0909	5.e-002	-20.111
20060	1.2892	0.81818	0.	-5978.9
20061	1.1971	0.90909	0.	-5986.9
20062	1.2892	0.90909	5.e-002	-20.567
20063	1.2892	0.63636	0.	-5981.5
20064	1.1971	0.72727	0.	-5972.6
20065	1.2892	0.72727	5.e-002	-20.916
20066	1.2892	0.45455	0.	-5998.7
20067	1.1971	0.54545	0.	-5974.6
20068	1.2892	0.54545	5.e-002	-20.857
20069	1.2892	0.27273	0.	-6040.1
20070	1.1971	0.36364	0.	-5994.8
20071	1.2892	0.36364	5.e-002	-19.928
20072	1.1971	0.18182	0.	-6053.3
20073	1.2892	0.18182	5.e-002	-28.389
20074	1.2892	9.0909e-002	0.	-6027.
20075	1.105	5.7273	0.	-6008.4
20076	1.0129	5.8182	0.	-5998.2
20077	1.105	5.8182	5.e-002	-29.084
20078	1.105	5.9091	0.	-5984.6
20079	1.105	5.5455	0.	-5971.1
20080	1.0129	5.6364	0.	-5940.7
20081	1.105	5.6364	5.e-002	-23.738
20082	1.105	5.3636	0.	-5965.9
20083	1.0129	5.4545	0.	-5933.9
20084	1.105	5.4545	5.e-002	-24.625
20085	1.105	5.1818	0.	-5980.4
20086	1.0129	5.2727	0.	-5952.5
20087	1.105	5.2727	5.e-002	-24.146
20088	1.105	5.	0.	-6011.5
20089	1.0129	5.0909	0.	-5992.1
20090	1.105	5.0909	5.e-002	-23.254
20091	1.105	4.8182	0.	-6054.8
20092	1.0129	4.9091	0.	-6046.8
20093	1.105	4.9091	5.e-002	-22.422
20094	1.105	4.6364	0.	-6105.5
20095	1.0129	4.7273	0.	-6110.2
20096	1.105	4.7273	5.e-002	-21.862
20097	1.105	4.4545	0.	-6159.2
20098	1.0129	4.5455	0.	-6176.7
20099	1.105	4.5455	5.e-002	-21.581
20100	1.105	4.2727	0.	-6212.
20101	1.0129	4.3636	0.	-6241.7
20102	1.105	4.3636	5.e-002	-21.499
20103	1.105	4.0909	0.	-6261.2
20104	1.0129	4.1818	0.	-6302.1
20105	1.105	4.1818	5.e-002	-21.527
20106	1.105	3.9091	0.	-6304.9
20107	1.0129	4.	0.	-6355.8
20108	1.105	4.	5.e-002	-21.602
20109	1.105	3.7273	0.	-6341.7
20110	1.0129	3.8182	0.	-6401.4
20111	1.105	3.8182	5.e-002	-21.687
20112	1.105	3.5455	0.	-6371.
20113	1.0129	3.6364	0.	-6438.4
20114	1.105	3.6364	5.e-002	-21.762
20115	1.105	3.3636	0.	-6392.1
20116	1.0129	3.4545	0.	-6466.3
20117	1.105	3.4545	5.e-002	-21.819
20118	1.105	3.1818	0.	-6404.8
20119	1.0129	3.2727	0.	-6484.9
20120	1.105	3.2727	5.e-002	-21.857
20121	1.105	3.	0.	-6409.1
20122	1.0129	3.0909	0.	-6494.3
20123	1.105	3.0909	5.e-002	-21.876
20124	1.105	2.8182	0.	-6404.8
20125	1.0129	2.9091	0.	-6494.3
20126	1.105	2.9091	5.e-002	-21.876
20127	1.105	2.6364	0.	-6392.1
20128	1.0129	2.7273	0.	-6484.9
20129	1.105	2.7273	5.e-002	-21.857
20130	1.105	2.4545	0.	-6371.
20131	1.0129	2.5455	0.	-6466.3
20132	1.105	2.5455	5.e-002	-21.819
20133	1.105	2.2727	0.	-6341.7
20134	1.0129	2.3636	0.	-6438.4
20135	1.105	2.3636	5.e-002	-21.762
20136	1.105	2.0909	0.	-6304.9
20137	1.0129	2.1818	0.	-6401.4
20138	1.105	2.1818	5.e-002	-21.687
20139	1.105	1.9091	0.	-6261.2
20140	1.0129	2.	0.	-6355.8
20141	1.105	2.	5.e-002	-21.603
20142	1.105	1.7273	0.	-6212.
20143	1.0129	1.8182	0.	-6302.1
20144	1.105	1.8182	5.e-002	-21.527
20145	1.105	1.5455	0.	-6159.2
20146	1.0129	1.6364	0.	-6241.7
20147	1.105	1.6364	5.e-002	-21.499
20148	1.105	1.3636	0.	-6105.5
20149	1.0129	1.4545	0.	-6176.7
20150	1.105	1.4545	5.e-002	-21.581
20151	1.105	1.1818	0.	-6054.8
20152	1.0129	1.2727	0.	-6110.2
20153	1.105	1.2727	5.e-002	-21.862
20154	1.105	1.	0.	-6011.5
20155	1.0129	1.0909	0.	-6046.8
20156	1.105	1.0909	5.e-002	-22.422
20157	1.105	0.81818	0.	-5980.4
20158	1.0129	0.90909	0.	-5992.1
20159	1.105	0.90909	5.e-002	-23.254
20160	1.105	0.63636	0.	-5965.9
20161	1.0129	0.72727	0.	-5952.5
20162	1.105	0.72727	5.e-002	-24.146
20163	1.105	0.45455	0.	-5971.1
20164	1.0129	0.54545	0.	-5933.9
20165	1.105	0.54545	5.e-002	-24.625
20166	1.105	0.27273	0.	-6008.4
20167	1.0129	0.36364	0.	-5940.7
20168	1.105	0.36364	5.e-002	-23.738
20169	1.0129	0.18182	0.	-5998.2
20170	1.105	0.18182	5.e-002	-29.084
20171	1.105	9.0909e-002	0.	-5984.6
20172	0.92083	5.7273	0.	-5931.
20173	0.82875	5.8182	0.	-5882.6
20174	0.92083	5.8182	5.e-002	-29.805
20175	0.92083	5.9091	0.	-5891.7
20176	0.92083	5.5455	0.	-5903.9
20177	0.82875	5.6364	0.	-5833.5
20178	0.92083	5.6364	5.e-002	-29.602
20179	0.92083	5.3636	0.	-5920.4
20180	0.82875	5.4545	0.	-5853.6
20181	0.92083	5.4545	5.e-002	-29.906
20182	0.92083	5.1818	0.	-5963.7
20183	0.82875	5.2727	0.	-5909.1
20184	0.92083	5.2727	5.e-002	-28.302
20185	0.92083	5.	0.	-6026.6
20186	0.82875	5.0909	0.	-5989.6
20187	0.92083	5.0909	5.e-002	-26.515
20188	0.92083	4.8182	0.	-6101.5
20189	0.82875	4.9091	0.	-6084.1
20190	0.92083	4.9091	5.e-002	-25.178
20191	0.92083	4.6364	0.	-6180.8
20192	0.82875	4.7273	0.	-6182.7
20193	0.92083	4.7273	5.e-002	-24.391
20194	0.92083	4.4545	0.	-6258.8
20195	0.82875	4.5455	0.	-6278.3
20196	0.92083	4.5455	5.e-002	-24.007
20197	0.92083	4.2727	0.	-6331.5
20198	0.82875	4.3636	0.	-6366.5
20199	0.92083	4.3636	5.e-002	-23.852
20200	0.92083	4.0909	0.	-6396.4
20201	0.82875	4.1818	0.	-6444.7
20202	0.92083	4.1818	5.e-002	-23.803
20203	0.92083	3.9091	0.	-6452.1
20204	0.82875	4.	0.	-6511.8
20205	0.92083	4.	5.e-002	-23.793
20206	0.92083	3.7273	0.	-6497.9
20207	0.82875	3.8182	0.	-6567.4
20208	0.92083	3.8182	5.e-002	-23.791
20209	0.92083	3.5455	0.	-6533.6
20210	0.82875	3.6364	0.	-6611.4
20211	0.92083	3.6364	5.e-002	-23.788
20212	0.92083	3.3636	0.	-6559.
20213	0.82875	3.4545	0.	-6644.2
20214	0.92083	3.4545	5.e-002	-23.783
20215	0.92083	3.1818	0.	-6574.2
20216	0.82875	3.2727	0.	-6665.8
20217	0.92083	3.2727	5.e-002	-23.776
20218	0.92083	3.	0.	-6579.3
20219	0.82875	3.0909	0.	-6676.6
20220	0.92083	3.0909	5.e-002	-23.772
20221	0.92083	2.8182	0.	-6574.2
20222	0.82875	2.9091	0.	-6676.6
20223	0.92083	2.9091	5.e-002	-23.772
20224	0.92083	2.6364	0.	-6559.
20225	0.82875	2.7273	0.	-6665.8
20226	0.92083	2.7273	5.e-002	-23.776
20227	0.92083	2.4545	0.	-6533.6
20228	0.82875	2.5455	0.	-6644.2
20229	0.92083	2.5455	5.e-002	-23.783
20230	0.92083	2.2727	0.	-6497.9
20231	0.82875	2.3636	0.	-6611.4
20232	0.92083	2.3636	5.e-002	-23.788
20233	0.92083	2.0909	0.	-6452.1
20234	0.82875	2.1818	0.	-6567.4
20235	0.92083	2.1818	5.e-002	-23.791
20236	0.92083	1.9091	0.	-6396.4
20237	0.82875	2.	0.	-6511.8
20238	0.92083	2.	5.e-002	-23.793
20239	0.92083	1.7273	0.	-6331.5
20240	0.82875	1.8182	0.	-6444.7
20241	0.92083	1.8182	5.e-002	-23.803
20242	0.92083	1.5455	0.	-6258.8
20243	0.82875	1.6364	0.	-6366.5
20244	0.92083	1.6364	5.e-002	-23.852
20245	0.92083	1.3636	0.	-6180.8
20246	0.82875	1.4545	0.	-6278.3
20247	0.92083	1.4545	5.e-002	-24.007
20248	0.92083	1.1818	0.	-6101.5
20249	0.82875	1.2727	0.	-6182.7
20250	0.92083	1.2727	5.e-002	-24.391
20251	0.92083	1.	0.	-6026.6
20252	0.82875	1.0909	0.	-6084.1
20253	0.92083	1.0909	5.e-002	-25.178
20254	0.92083	0.81818	0.	-5963.7
20255	0.82875	0.90909	0.	-5989.6
20256	0.92083	0.90909	5.e-002	-26.515
20257	0.92083	0.63636	0.	-5920.4
20258	0.82875	0.72727	0.	-5909.1
20259	0.92083	0.72727	5.e-002	-28.302
20260	0.92083	0.45455	0.	-5903.9
20261	0.82875	0.54545	0.	-5853.6
20262	0.92083	0.54545	5.e-002	-29.906
20263	0.92083	0.27273	0.	-5931.
20264	0.82875	0.36364	0.	-5833.5
20265	0.92083	0.36364	5.e-002	-29.602
20266	0.82875	0.18182	0.	-5882.6
20267	0.92083	0.18182	5.e-002	-29.805
20268	0.92083	9.0909e-002	0.	-5891.7
20269	0.73667	5.7273	0.	-5785.7
20270	0.64458	5.8182	0.	-5664.6
20271	0.73667	5.8182	5.e-002	-32.119
20272	0.73667	5.9091	0.	-5721.1
20273	0.73667	5.5455	0.	-5783.4
20274	0.64458	5.6364	0.	-5641.5
20275	0.73667	5.6364	5.e-002	-38.888
20276	0.73667	5.3636	0.	-5841.6
20277	0.64458	5.4545	0.	-5716.8
20278	0.73667	5.4545	5.e-002	-37.226
20279	0.73667	5.1818	0.	-5933.9
20280	0.64458	5.2727	0.	-5838.9
20281	0.73667	5.2727	5.e-002	-33.534
20282	0.73667	5.	0.	-6046.
20283	0.64458	5.0909	0.	-5984.4
20284	0.73667	5.0909	5.e-002	-30.534
20285	0.73667	4.8182	0.	-6164.5
20286	0.64458	4.9091	0.	-6134.2
20287	0.73667	4.9091	5.e-002	-28.685
20288	0.73667	4.6364	0.	-6279.7
20289	0.64458	4.7273	0.	-6276.2
20290	0.73667	4.7273	5.e-002	-27.691
20291	0.73667	4.4545	0.	-6385.7
20292	0.64458	4.5455	0.	-6404.2
20293	0.73667	4.5455	5.e-002	-27.168
20294	0.73667	4.2727	0.	-6479.5
20295	0.64458	4.3636	0.	-6515.9
20296	0.73667	4.3636	5.e-002	-26.86
20297	0.73667	4.0909	0.	-6560.
20298	0.64458	4.1818	0.	-6610.9
20299	0.73667	4.1818	5.e-002	-26.642
20300	0.73667	3.9091	0.	-6627.
20301	0.64458	4.	0.	-6689.7
20302	0.73667	4.	5.e-002	-26.464
20303	0.73667	3.7273	0.	-6680.8
20304	0.64458	3.8182	0.	-6753.4
20305	0.73667	3.8182	5.e-002	-26.309
20306	0.73667	3.5455	0.	-6721.9
20307	0.64458	3.6364	0.	-6802.9
20308	0.73667	3.6364	5.e-002	-26.177
20309	0.73667	3.3636	0.	-6750.9
20310	0.64458	3.4545	0.	-6839.2
20311	0.73667	3.4545	5.e-002	-26.072
20312	0.73667	3.1818	0.	-6768.1
20313	0.64458	3.2727	0.	-6863.
20314	0.73667	3.2727	5.e-002	-25.999
20315	0.73667	3.	0.	-6773.8
20316	0.64458	3.0909	0.	-6874.8
20317	0.73667	3.0909	5.e-002	-25.961
20318	0.73667	2.8182	0.	-6768.1
20319	0.64458	2.9091	0.	-6874.8
20320	0.73667	2.9091	5.e-002	-25.961
20321	0.73667	2.6364	0.	-6750.9
20322	0.64458	2.7273	0.	-6863.
20323	0.73667	2.7273	5.e-002	-25.999
20324	0.73667	2.4545	0.	-6721.9
20325	0.64458	2.5455	0.	-6839.2
20326	0.73667	2.5455	5.e-002	-26.072
20327	0.73667	2.2727	0.	-6680.8
20328	0.64458	2.3636	0.	-6802.9
20329	0.73667	2.3636	5.e-002	-26.177
20330	0.73667	2.0909	0.	-6627.
20331	0.64458	2.1818	0.	-6753.4
20332	0.73667	2.1818	5.e-002	-26.309
20333	0.73667	1.9091	0.	-6560.
20334	0.64458	2.	0.	-6689.7
20335	0.73667	2.	5.e-002	-26.464
20336	0.73667	1.7273	0.	-6479.5
20337	0.64458	1.8182	0.	-6610.9
20338	0.73667	1.8182	5.e-002	-26.642
20339	0.73667	1.5455	0.	-6385.7
20340	0.64458	1.6364	0.	-6515.9
20341	0.73667	1.6364	5.e-002	-26.86
20342	0.73667	1.3636	0.	-6279.7
20343	0.64458	1.4545	0.	-6404.2
20344	0.73667	1.4545	5.e-002	-27.168
20345	0.73667	1.1818	0.	-6164.5
20346	0.64458	1.2727	0.	-6276.2
20347	0.73667	1.2727	5.e-002	-27.691
20348	0.73667	1.	0.	-6046.
20349	0.64458	1.0909	0.	-6134.2
20350	0.73667	1.0909	5.e-002	-28.685
20351	0.73667	0.81818	0.	-5933.9
20352	0.64458	0.90909	0.	-5984.4
20353	0.73667	0.90909	5.e-002	-30.534
20354	0.73667	0.63636	0.	-5841.6
20355	0.64458	0.72727	0.	-5838.9
20356	0.73667	0.72727	5.e-002	-33.534
20357	0.73667	0.45455	0.	-5783.4
20358	0.64458	0.54545	0.	-5716.8
20359	0.73667	0.54545	5.e-002	-37.226
20360	0.73667	0.27273	0.	-5785.7
20361	0.64458	0.36364	0.	-5641.5
20362	0.73667	0.36364	5.e-002	-38.888
20363	0.64458	0.18182	0.	-5664.6
20364	0.73667	0.18182	5.e-002	-32.119
20365	0.73667	9.0909e-002	0.	-5721.1
20366	0.5525	5.7273	0.	-5520.4
20367	0.46042	5.8182	0.	-5273.9
20368	0.5525	5.8182	5.e-002	-40.175
20369	0.5525	5.9091	0.	-5413.1
20370	0.5525	5.5455	0.	-5574.
20371	0.46042	5.6364	0.	-5338.5
20372	0.5525	5.6364	5.e-002	-53.907
20373	0.5525	5.3636	0.	-5712.3
20374	0.46042	5.4545	0.	-5541.5
20375	0.5525	5.4545	5.e-002	-46.923
20376	0.5525	5.1818	0.	-5887.8
20377	0.46042	5.2727	0.	-5786.7
20378	0.5525	5.2727	5.e-002	-39.673
20379	0.5525	5.	0.	-6071.6
20380	0.46042	5.0909	0.	-6028.8
20381	0.5525	5.0909	5.e-002	-35.196
20382	0.5525	4.8182	0.	-6245.5
20383	0.46042	4.9091	0.	-6247.4
20384	0.5525	4.9091	5.e-002	-32.714
20385	0.5525	4.6364	0.	-6400.6
20386	0.46042	4.7273	0.	-6435.8
20387	0.5525	4.7273	5.e-002	-31.305
20388	0.5525	4.4545	0.	-6534.5
20389	0.46042	4.5455	0.	-6594.4
20390	0.5525	4.5455	5.e-002	-30.376
20391	0.5525	4.2727	0.	-6647.4
20392	0.46042	4.3636	0.	-6725.8
20393	0.5525	4.3636	5.e-002	-29.67
20394	0.5525	4.0909	0.	-6740.6
20395	0.46042	4.1818	0.	-6833.4
20396	0.5525	4.1818	5.e-002	-29.085
20397	0.5525	3.9091	0.	-6816.1
20398	0.46042	4.	0.	-6920.1
20399	0.5525	4.	5.e-002	-28.59
20400	0.5525	3.7273	0.	-6875.5
20401	0.46042	3.8182	0.	-6988.7
20402	0.5525	3.8182	5.e-002	-28.175
20403	0.5525	3.5455	0.	-6920.2
20404	0.46042	3.6364	0.	-7041.2
20405	0.5525	3.6364	5.e-002	-27.839
20406	0.5525	3.3636	0.	-6951.3
20407	0.46042	3.4545	0.	-7079.3
20408	0.5525	3.4545	5.e-002	-27.586
20409	0.5525	3.1818	0.	-6969.7
20410	0.46042	3.2727	0.	-7104.
20411	0.5525	3.2727	5.e-002	-27.416
20412	0.5525	3.	0.	-6975.8
20413	0.46042	3.0909	0.	-7116.2
20414	0.5525	3.0909	5.e-002	-27.331
20415	0.5525	2.8182	0.	-6969.7
20416	0.46042	2.9091	0.	-7116.2
20417	0.5525	2.9091	5.e-002	-27.331
20418	0.5525	2.6364	0.	-6951.3
20419	0.46042	2.7273	0.	-7104.
20420	0.5525	2.7273	5.e-002	-27.416
20421	0.5525	2.4545	0.	-6920.2
20422	0.46042	2.5455	0.	-7079.3
20423	0.5525	2.5455	5.e-002	-27.586
20424	0.5525	2.2727	0.	-6875.5
20425	0.46042	2.3636	0.	-7041.2
20426	0.5525	2.3636	5.e-002	-27.839
20427	0.5525	2.0909	0.	-6816.1
20428	0.46042	2.1818	0.	-6988.7
20429	0.5525	2.1818	5.e-002	-28.175
20430	0.5525	1.9091	0.	-6740.6
20431	0.46042	2.	0.	-6920.1
20432	0.5525	2.	5.e-002	-28.59
20433	0.5525	1.7273	0.	-6647.4
20434	0.46042	1.8182	0.	-6833.4
20435	0.5525	1.8182	5.e-002	-29.086
20436	0.5525	1.5455	0.	-6534.5
20437	0.46042	1.6364	0.	-6725.8
20438	0.5525	1.6364	5.e-002	-29.67
20439	0.5525	1.3636	0.	-6400.6
20440	0.46042	1.4545	0.	-6594.4
20441	0.5525	1.4545	5.e-002	-30.377
20442	0.5525	1.1818	0.	-6245.5
20443	0.46042	1.2727	0.	-6435.8
20444	0.5525	1.2727	5.e-002	-31.305
20445	0.5525	1.	0.	-6071.6
20446	0.46042	1.0909	0.	-6247.4
20447	0.5525	1.0909	5.e-002	-32.714
20448	0.5525	0.81818	0.	-5887.8
20449	0.46042	0.90909	0.	-6028.8
20450	0.5525	0.90909	5.e-002	-35.196
20451	0.5525	0.63636	0.	-5712.3
20452	0.46042	0.72727	0.	-5786.7
20453	0.5525	0.72727	5.e-002	-39.673
20454	0.5525	0.45455	0.	-5574.
20455	0.46042	0.54545	0.	-5541.5
20456	0.5525	0.54545	5.e-002	-46.923
20457	0.5525	0.27273	0.	-5520.4
20458	0.46042	0.36364	0.	-5338.5
20459	0.5525	0.36364	5.e-002	-53.907
20460	0.46042	0.18182	0.	-5273.9
20461	0.5525	0.18182	5.e-002	-40.175
20462	0.5525	9.0909e-002	0.	-5413.1
20463	0.36833	5.7273	0.	-5090.5
20464	0.27625	5.8182	0.	-4457.8
20465	0.36833	5.8182	5.e-002	-70.237
20466	0.36833	5.9091	0.	-4872.8
20467	0.36833	5.5455	0.	-5302.2
20468	0.27625	5.6364	0.	-4820.
20469	0.36833	5.6364	5.e-002	-78.046
20470	0.36833	5.3636	0.	-5612.7
20471	0.27625	5.4545	0.	-5309.6
20472	0.36833	5.4545	5.e-002	-59.43
20473	0.36833	5.1818	0.	-5926.6
20474	0.27625	5.2727	0.	-5738.6
20475	0.36833	5.2727	5.e-002	-48.907
20476	0.36833	5.	0.	-6204.7
20477	0.27625	5.0909	0.	-6089.3
20478	0.36833	5.0909	5.e-002	-43.504
20479	0.36833	4.8182	0.	-6438.3
20480	0.27625	4.9091	0.	-6368.2
20481	0.36833	4.9091	5.e-002	-40.629
20482	0.36833	4.6364	0.	-6630.2
20483	0.27625	4.7273	0.	-6589.5
20484	0.36833	4.7273	5.e-002	-38.687
20485	0.36833	4.4545	0.	-6786.2
20486	0.27625	4.5455	0.	-6765.1
20487	0.36833	4.5455	5.e-002	-37.181
20488	0.36833	4.2727	0.	-6912.2
20489	0.27625	4.3636	0.	-6904.9
20490	0.36833	4.3636	5.e-002	-35.939
20491	0.36833	4.0909	0.	-7013.1
20492	0.27625	4.1818	0.	-7015.8
20493	0.36833	4.1818	5.e-002	-34.901
20494	0.36833	3.9091	0.	-7092.9
20495	0.27625	4.	0.	-7103.4
20496	0.36833	4.	5.e-002	-34.038
20497	0.36833	3.7273	0.	-7154.5
20498	0.27625	3.8182	0.	-7171.4
20499	0.36833	3.8182	5.e-002	-33.336
20500	0.36833	3.5455	0.	-7200.3
20501	0.27625	3.6364	0.	-7222.9
20502	0.36833	3.6364	5.e-002	-32.786
20503	0.36833	3.3636	0.	-7232.
20504	0.27625	3.4545	0.	-7259.9
20505	0.36833	3.4545	5.e-002	-32.379
20506	0.36833	3.1818	0.	-7250.5
20507	0.27625	3.2727	0.	-7283.8
20508	0.36833	3.2727	5.e-002	-32.111
20509	0.36833	3.	0.	-7256.7
20510	0.27625	3.0909	0.	-7295.5
20511	0.36833	3.0909	5.e-002	-31.978
20512	0.36833	2.8182	0.	-7250.5
20513	0.27625	2.9091	0.	-7295.5
20514	0.36833	2.9091	5.e-002	-31.978
20515	0.36833	2.6364	0.	-7232.
20516	0.27625	2.7273	0.	-7283.8
20517	0.36833	2.7273	5.e-002	-32.111
20518	0.36833	2.4545	0.	-7200.3
20519	0.27625	2.5455	0.	-7259.9
20520	0.36833	2.5455	5.e-002	-32.379
20521	0.36833	2.2727	0.	-7154.5
20522	0.27625	2.3636	0.	-7222.9
20523	0.36833	2.3636	5.e-002	-32.786
20524	0.36833	2.0909	0.	-7092.9
20525	0.27625	2.1818	0.	-7171.4
20526	0.36833	2.1818	5.e-002	-33.336
20527	0.36833	1.9091	0.	-7013.1
20528	0.27625	2.	0.	-7103.4
20529	0.36833	2.	5.e-002	-34.038
20530	0.36833	1.7273	0.	-6912.2
20531	0.27625	1.8182	0.	-7015.8
20532	0.36833	1.8182	5.e-002	-34.901
20533	0.36833	1.5455	0.	-6786.2
20534	0.27625	1.6364	0.	-6904.9
20535	0.36833	1.6364	5.e-002	-35.939
20536	0.36833	1.3636	0.	-6630.2
20537	0.27625	1.4545	0.	-6765.1
20538	0.36833	1.4545	5.e-002	-37.181
20539	0.36833	1.1818	0.	-6438.3
20540	0.27625	1.2727	0.	-6589.5
20541	0.36833	1.2727	5.e-002	-38.687
20542	0.36833	1.	0.	-6204.7
20543	0.27625	1.0909	0.	-6368.2
20544	0.36833	1.0909	5.e-002	-40.629
20545	0.36833	0.81818	0.	-5926.6
20546	0.27625	0.90909	0.	-6089.3
20547	0.36833	0.90909	5.e-002	-43.504
20548	0.36833	0.63636	0.	-5612.7
20549	0.27625	0.72727	0.	-5738.6
20550	0.36833	0.72727	5.e-002	-48.907
20551	0.36833	0.45455	0.	-5302.2
20552	0.27625	0.54545	0.	-5309.6
20553	0.36833	0.54545	5.e-002	-59.43
20554	0.36833	0.27273	0.	-5090.5
20555	0.27625	0.36364	0.	-4820.
20556	0.36833	0.36364	5.e-002	-78.046
20557	0.27625	0.18182	0.	-4457.8
20558	0.36833	0.18182	5.e-002	-70.237
20559	0.36833	9.0909e-002	0.	-4872.8
20560	0.18417	5.7273	0.	-4172.2
20561	0.18417	5.8182	5.e-002	-169.79
20562	0.18417	5.9091	0.	-3689.1
20563	9.2083e-002	5.8182	0.	-3191.9
20564	0.18417	5.5455	0.	-4827.1
20565	0.18417	5.6364	5.e-002	-108.23
20566	9.2083e-002	5.6364	0.	-4545.9
20567	0.18417	5.3636	0.	-5442.7
20568	0.18417	5.4545	5.e-002	-73.463
20569	9.2083e-002	5.4545	0.	-5424.8
20570	0.18417	5.1818	0.	-5908.
20571	0.18417	5.2727	5.e-002	-56.239
20572	9.2083e-002	5.2727	0.	-6016.2
20573	0.18417	5.	0.	-6257.4
20574	0.18417	5.0909	5.e-002	-47.299
20575	9.2083e-002	5.0909	0.	-6432.3
20576	0.18417	4.8182	0.	-6522.4
20577	0.18417	4.9091	5.e-002	-41.194
20578	9.2083e-002	4.9091	0.	-6736.7
20579	0.18417	4.6364	0.	-6726.3
20580	0.18417	4.7273	5.e-002	-36.742
20581	9.2083e-002	4.7273	0.	-6965.7
20582	0.18417	4.4545	0.	-6885.
20583	0.18417	4.5455	5.e-002	-33.343
20584	9.2083e-002	4.5455	0.	-7141.2
20585	0.18417	4.2727	0.	-7009.2
20586	0.18417	4.3636	5.e-002	-30.692
20587	9.2083e-002	4.3636	0.	-7277.4
20588	0.18417	4.0909	0.	-7106.5
20589	0.18417	4.1818	5.e-002	-28.604
20590	9.2083e-002	4.1818	0.	-7383.6
20591	0.18417	3.9091	0.	-7182.2
20592	0.18417	4.	5.e-002	-26.962
20593	9.2083e-002	4.	0.	-7466.3
20594	0.18417	3.7273	0.	-7240.
20595	0.18417	3.8182	5.e-002	-25.685
20596	9.2083e-002	3.8182	0.	-7529.9
20597	0.18417	3.5455	0.	-7282.5
20598	0.18417	3.6364	5.e-002	-24.717
20599	9.2083e-002	3.6364	0.	-7577.6
20600	0.18417	3.3636	0.	-7311.7
20601	0.18417	3.4545	5.e-002	-24.02
20602	9.2083e-002	3.4545	0.	-7611.8
20603	0.18417	3.1818	0.	-7328.8
20604	0.18417	3.2727	5.e-002	-23.569
20605	9.2083e-002	3.2727	0.	-7633.7
20606	0.18417	3.	0.	-7334.4
20607	0.18417	3.0909	5.e-002	-23.348
20608	9.2083e-002	3.0909	0.	-7644.5
20609	0.18417	2.8182	0.	-7328.8
20610	0.18417	2.9091	5.e-002	-23.348
20611	9.2083e-002	2.9091	0.	-7644.5
20612	0.18417	2.6364	0.	-7311.7
20613	0.18417	2.7273	5.e-002	-23.569
20614	9.2083e-002	2.7273	0.	-7633.7
20615	0.18417	2.4545	0.	-7282.5
20616	0.18417	2.5455	5.e-002	-24.02
20617	9.2083e-002	2.5455	0.	-7611.8
20618	0.18417	2.2727	0.	-7240.
20619	0.18417	2.3636	5.e-002	-24.717
20620	9.2083e-002	2.3636	0.	-7577.6
20621	0.18417	2.0909	0.	-7182.2
20622	0.18417	2.1818	5.e-002	-25.685
20623	9.2083e-002	2.1818	0.	-7529.9
20624	0.18417	1.9091	0.	-7106.5
20625	0.18417	2.	5.e-002	-26.962
20626	9.2083e-002	2.	0.	-7466.3
20627	0.18417	1.7273	0.	-7009.2
20628	0.18417	1.8182	5.e-002	-28.604
20629	9.2083e-002	1.8182	0.	-7383.6
20630	0.18417	1.5455	0.	-6885.
20631	0.18417	1.6364	5.e-002	-30.692
20632	9.2083e-002	1.6364	0.	-7277.4
20633	0.18417	1.3636	0.	-6726.3
20634	0.18417	1.4545	5.e-002	-33.343
20635	9.2083e-002	1.4545	0.	-7141.2
20636	0.18417	1.1818	0.	-6522.4
20637	0.18417	1.2727	5.e-002	-36.742
20638	9.2083e-002	1.2727	0.	-6965.7
20639	0.18417	1.	0.	-6257.4
20640	0.18417	1.0909	5.e-002	-41.194
20641	9.2083e-002	1.0909	0.	-6736.7
20642	0.18417	0.81818	0.	-5908.
20643	0.18417	0.90909	5.e-002	-47.299
20644	9.2083e-002	0.90909	0.	-6432.3
20645	0.18417	0.63636	0.	-5442.7
20646	0.18417	0.72727	5.e-002	-56.24
20647	9.2083e-002	0.72727	0.	-6016.2
20648	0.18417	0.45455	0.	-4827.1
20649	0.18417	0.54545	5.e-002	-73.463
20650	9.2083e-002	0.54545	0.	-5424.8
20651	0.18417	0.27273	0.	-4172.2
20652	0.18417	0.36364	5.e-002	-108.23
20653	9.2083e-002	0.36364	0.	-4545.9
20654	0.18417	0.18182	5.e-002	-169.79
20655	0.18417	9.0909e-002	0.	-3689.1
20656	9.2083e-002	0.18182	0.	-3191.9
20657	22.267	2.2727	0.	-1253.
20658	22.353	2.1818	0.	-1243.7
20659	22.267	2.1818	5.e-002	-57.063
20660	22.267	2.0909	0.	-1791.2
20661	22.267	2.4545	0.	-1002.
20662	22.353	2.3636	0.	-1008.
20663	22.267	2.3636	5.e-002	-12.206
20664	22.267	2.6364	0.	-891.28
20665	22.353	2.5455	0.	-883.93
20666	22.267	2.5455	5.e-002	-5.3674
20667	22.267	2.8182	0.	-839.68
20668	22.353	2.7273	0.	-820.71
20669	22.267	2.7273	5.e-002	-3.3168
20670	22.267	3.	0.	-824.26
20671	22.353	2.9091	0.	-792.81
20672	22.267	2.9091	5.e-002	-2.6927
20673	22.267	3.1818	0.	-839.68
20674	22.353	3.0909	0.	-792.81
20675	22.267	3.0909	5.e-002	-2.6927
20676	22.267	3.3636	0.	-891.28
20677	22.353	3.2727	0.	-820.71
20678	22.267	3.2727	5.e-002	-3.3168
20679	22.267	3.5455	0.	-1002.
20680	22.353	3.4545	0.	-883.93
20681	22.267	3.4545	5.e-002	-5.3674
20682	22.267	3.7273	0.	-1253.
20683	22.353	3.6364	0.	-1008.
20684	22.267	3.6364	5.e-002	-12.206
20685	22.353	3.8182	0.	-1243.7
20686	22.267	3.8182	5.e-002	-57.062
20687	22.267	3.9091	0.	-1791.2
20688	22.44	2.2727	0.	-994.43
20689	22.527	2.1818	0.	-908.3
20690	22.44	2.1818	5.e-002	-46.603
20691	22.44	2.4545	0.	-889.61
20692	22.527	2.3636	0.	-845.04
20693	22.44	2.3636	5.e-002	-19.369
20694	22.44	2.6364	0.	-812.5
20695	22.527	2.5455	0.	-778.22
20696	22.44	2.5455	5.e-002	-10.642
20697	22.44	2.8182	0.	-772.55
20698	22.527	2.7273	0.	-736.28
20699	22.44	2.7273	5.e-002	-6.6384
20700	22.44	3.	0.	-759.97
20701	22.527	2.9091	0.	-716.17
20702	22.44	2.9091	5.e-002	-5.362
20703	22.44	3.1818	0.	-772.55
20704	22.527	3.0909	0.	-716.17
20705	22.44	3.0909	5.e-002	-5.362
20706	22.44	3.3636	0.	-812.5
20707	22.527	3.2727	0.	-736.28
20708	22.44	3.2727	5.e-002	-6.6384
20709	22.44	3.5455	0.	-889.61
20710	22.527	3.4545	0.	-778.22
20711	22.44	3.4545	5.e-002	-10.642
20712	22.44	3.7273	0.	-994.43
20713	22.527	3.6364	0.	-845.04
20714	22.44	3.6364	5.e-002	-19.369
20715	22.527	3.8182	0.	-908.3
20716	22.44	3.8182	5.e-002	-46.603
20717	22.613	2.2727	0.	-746.18
20718	22.7	2.1818	0.	-659.8
20719	22.613	2.1818	5.e-002	-21.434
20720	22.613	2.4545	0.	-728.96
20721	22.7	2.3636	0.	-668.13
20722	22.613	2.3636	5.e-002	-17.049
20723	22.613	2.6364	0.	-699.1
20724	22.7	2.5455	0.	-650.31
20725	22.613	2.5455	5.e-002	-11.975
20726	22.613	2.8182	0.	-677.48
20727	22.7	2.7273	0.	-631.28
20728	22.613	2.7273	5.e-002	-8.7024
20729	22.613	3.	0.	-670.06
20730	22.7	2.9091	0.	-620.59
20731	22.613	2.9091	5.e-002	-7.3114
20732	22.613	3.1818	0.	-677.48
20733	22.7	3.0909	0.	-620.59
20734	22.613	3.0909	5.e-002	-7.3114
20735	22.613	3.3636	0.	-699.1
20736	22.7	3.2727	0.	-631.28
20737	22.613	3.2727	5.e-002	-8.7024
20738	22.613	3.5455	0.	-728.96
20739	22.7	3.4545	0.	-650.31
20740	22.613	3.4545	5.e-002	-11.975
20741	22.613	3.7273	0.	-746.18
20742	22.7	3.6364	0.	-668.13
20743	22.613	3.6364	5.e-002	-17.049
20744	22.7	3.8182	0.	-659.8
20745	22.613	3.8182	5.e-002	-21.434
20746	22.787	2.2727	0.	-574.96
20747	22.873	2.1818	0.	-503.46
20748	22.787	2.1818	5.e-002	-12.501
20749	22.787	2.4545	0.	-584.43
20750	22.873	2.3636	0.	-525.23
20751	22.787	2.3636	5.e-002	-13.006
20752	22.787	2.6364	0.	-578.89
20753	22.873	2.5455	0.	-527.41
20754	22.787	2.5455	5.e-002	-10.95
20755	22.787	2.8182	0.	-571.37
20756	22.873	2.7273	0.	-522.7
20757	22.787	2.7273	5.e-002	-9.2742
20758	22.787	3.	0.	-568.26
20759	22.873	2.9091	0.	-518.73
20760	22.787	2.9091	5.e-002	-8.3232
20761	22.787	3.1818	0.	-571.37
20762	22.873	3.0909	0.	-518.73
20763	22.787	3.0909	5.e-002	-8.3232
20764	22.787	3.3636	0.	-578.89
20765	22.873	3.2727	0.	-522.69
20766	22.787	3.2727	5.e-002	-9.2742
20767	22.787	3.5455	0.	-584.43
20768	22.873	3.4545	0.	-527.41
20769	22.787	3.4545	5.e-002	-10.949
20770	22.787	3.7273	0.	-574.96
20771	22.873	3.6364	0.	-525.23
20772	22.787	3.6364	5.e-002	-13.006
20773	22.873	3.8182	0.	-503.46
20774	22.787	3.8182	5.e-002	-12.501
20775	22.96	2.2727	0.	-450.2
20776	23.047	2.1818	0.	-393.45
20777	22.96	2.1818	5.e-002	-9.5184
20778	22.96	2.4545	0.	-464.58
20779	23.047	2.3636	0.	-412.77
20780	22.96	2.3636	5.e-002	-10.072
20781	22.96	2.6364	0.	-467.97
20782	23.047	2.5455	0.	-419.93
20783	22.96	2.5455	5.e-002	-9.7203
20784	22.96	2.8182	0.	-467.06
20785	23.047	2.7273	0.	-420.64
20786	22.96	2.7273	5.e-002	-9.0142
20787	22.96	3.	0.	-466.28
20788	23.047	2.9091	0.	-419.77
20789	22.96	2.9091	5.e-002	-8.5584
20790	22.96	3.1818	0.	-467.06
20791	23.047	3.0909	0.	-419.77
20792	22.96	3.0909	5.e-002	-8.5583
20793	22.96	3.3636	0.	-467.97
20794	23.047	3.2727	0.	-420.64
20795	22.96	3.2727	5.e-002	-9.0142
20796	22.96	3.5455	0.	-464.58
20797	23.047	3.4545	0.	-419.93
20798	22.96	3.4545	5.e-002	-9.7203
20799	22.96	3.7273	0.	-450.2
20800	23.047	3.6364	0.	-412.77
20801	22.96	3.6364	5.e-002	-10.072
20802	23.047	3.8182	0.	-393.45
20803	22.96	3.8182	5.e-002	-9.5184
20804	23.133	2.2727	0.	-354.01
20805	23.22	2.1818	0.	-309.31
20806	23.133	2.1818	5.e-002	-7.9319
20807	23.133	2.4545	0.	-365.69
20808	23.22	2.3636	0.	-322.51
20809	23.133	2.3636	5.e-002	-8.4918
20810	23.133	2.6364	0.	-370.01
20811	23.22	2.5455	0.	-327.87
20812	23.133	2.5455	5.e-002	-8.629
20813	23.133	2.8182	0.	-370.7
20814	23.22	2.7273	0.	-328.66
20815	23.133	2.7273	5.e-002	-8.4889
20816	23.133	3.	0.	-370.59
20817	23.22	2.9091	0.	-328.13
20818	23.133	2.9091	5.e-002	-8.3404
20819	23.133	3.1818	0.	-370.7
20820	23.22	3.0909	0.	-328.13
20821	23.133	3.0909	5.e-002	-8.3404
20822	23.133	3.3636	0.	-370.01
20823	23.22	3.2727	0.	-328.66
20824	23.133	3.2727	5.e-002	-8.4889
20825	23.133	3.5455	0.	-365.69
20826	23.22	3.4545	0.	-327.87
20827	23.133	3.4545	5.e-002	-8.629
20828	23.133	3.7273	0.	-354.01
20829	23.22	3.6364	0.	-322.51
20830	23.133	3.6364	5.e-002	-8.4918
20831	23.22	3.8182	0.	-309.31
20832	23.133	3.8182	5.e-002	-7.9319
20833	23.307	2.2727	0.	-276.75
20834	23.393	2.1818	0.	-242.4
20835	23.307	2.1818	5.e-002	-7.0294
20836	23.307	2.4545	0.	-283.17
20837	23.393	2.3636	0.	-248.8
20838	23.307	2.3636	5.e-002	-7.529
20839	23.307	2.6364	0.	-284.57
20840	23.393	2.5455	0.	-249.41
20841	23.307	2.5455	5.e-002	-7.8217
20842	23.307	2.8182	0.	-283.81
20843	23.393	2.7273	0.	-247.02
20844	23.307	2.7273	5.e-002	-7.9247
20845	23.307	3.	0.	-283.25
20846	23.393	2.9091	0.	-244.77
20847	23.307	2.9091	5.e-002	-7.9378
20848	23.307	3.1818	0.	-283.81
20849	23.393	3.0909	0.	-244.77
20850	23.307	3.0909	5.e-002	-7.9378
20851	23.307	3.3636	0.	-284.57
20852	23.393	3.2727	0.	-247.02
20853	23.307	3.2727	5.e-002	-7.9247
20854	23.307	3.5455	0.	-283.17
20855	23.393	3.4545	0.	-249.41
20856	23.307	3.4545	5.e-002	-7.8217
20857	23.307	3.7273	0.	-276.75
20858	23.393	3.6364	0.	-248.8
20859	23.307	3.6364	5.e-002	-7.529
20860	23.393	3.8182	0.	-242.4
20861	23.307	3.8182	5.e-002	-7.0294
20862	23.48	2.2727	0.	-214.46
20863	23.567	2.1818	0.	-190.05
20864	23.48	2.1818	5.e-002	-6.4383
20865	23.48	2.4545	0.	-214.69
20866	23.567	2.3636	0.	-190.16
20867	23.48	2.3636	5.e-002	-6.8918
20868	23.48	2.6364	0.	-210.8
20869	23.567	2.5455	0.	-184.64
20870	23.48	2.5455	5.e-002	-7.2281
20871	23.48	2.8182	0.	-206.02
20872	23.567	2.7273	0.	-176.07
20873	23.48	2.7273	5.e-002	-7.428
20874	23.48	3.	0.	-203.86
20875	23.567	2.9091	0.	-169.04
20876	23.48	2.9091	5.e-002	-7.5143
20877	23.48	3.1818	0.	-206.02
20878	23.567	3.0909	0.	-169.04
20879	23.48	3.0909	5.e-002	-7.5144
20880	23.48	3.3636	0.	-210.8
20881	23.567	3.2727	0.	-176.07
20882	23.48	3.2727	5.e-002	-7.428
20883	23.48	3.5455	0.	-214.69
20884	23.567	3.4545	0.	-184.64
20885	23.48	3.4545	5.e-002	-7.2281
20886	23.48	3.7273	0.	-214.46
20887	23.567	3.6364	0.	-190.16
20888	23.48	3.6364	5.e-002	-6.8918
20889	23.567	3.8182	0.	-190.05
20890	23.48	3.8182	5.e-002	-6.4383
20891	23.653	2.2727	0.	-167.29
20892	23.74	2.1818	0.	-154.19
20893	23.653	2.1818	5.e-002	-5.9971
20894	23.653	2.4545	0.	-162.16
20895	23.74	2.3636	0.	-150.5
20896	23.653	2.3636	5.e-002	-6.4305
20897	23.653	2.6364	0.	-151.91
20898	23.74	2.5455	0.	-140.81
20899	23.653	2.5455	5.e-002	-6.786
20900	23.653	2.8182	0.	-138.97
20901	23.74	2.7273	0.	-126.37
20902	23.653	2.7273	5.e-002	-7.0289
20903	23.653	3.	0.	-130.83
20904	23.74	2.9091	0.	-108.95
20905	23.653	2.9091	5.e-002	-7.1493
20906	23.653	3.1818	0.	-138.97
20907	23.74	3.0909	0.	-108.95
20908	23.653	3.0909	5.e-002	-7.1493
20909	23.653	3.3636	0.	-151.91
20910	23.74	3.2727	0.	-126.37
20911	23.653	3.2727	5.e-002	-7.0289
20912	23.653	3.5455	0.	-162.16
20913	23.74	3.4545	0.	-140.81
20914	23.653	3.4545	5.e-002	-6.786
20915	23.653	3.7273	0.	-167.29
20916	23.74	3.6364	0.	-150.5
20917	23.653	3.6364	5.e-002	-6.4305
20918	23.74	3.8182	0.	-154.19
20919	23.653	3.8182	5.e-002	-5.9971
20920	23.827	2.2727	0.	-139.57
20921	23.827	2.1818	5.e-002	-5.7128
20922	23.913	2.1818	0.	-121.46
20923	23.827	2.4545	0.	-132.87
20924	23.827	2.3636	5.e-002	-6.2106
20925	23.913	2.3636	0.	-119.71
20926	23.827	2.6364	0.	-121.79
20927	23.827	2.5455	5.e-002	-6.6067
20928	23.913	2.5455	0.	-114.16
20929	23.827	2.8182	0.	-109.12
20930	23.827	2.7273	5.e-002	-6.8727
20931	23.913	2.7273	0.	-106.95
20932	23.827	3.	0.	-102.12
20933	23.827	2.9091	5.e-002	-7.0037
20934	23.913	2.9091	0.	-101.54
20935	23.827	3.1818	0.	-109.12
20936	23.827	3.0909	5.e-002	-7.0037
20937	23.913	3.0909	0.	-101.54
20938	23.827	3.3636	0.	-121.79
20939	23.827	3.2727	5.e-002	-6.8727
20940	23.913	3.2727	0.	-106.95
20941	23.827	3.5455	0.	-132.87
20942	23.827	3.4545	5.e-002	-6.6067
20943	23.913	3.4545	0.	-114.16
20944	23.827	3.7273	0.	-139.57
20945	23.827	3.6364	5.e-002	-6.2106
20946	23.913	3.6364	0.	-119.71
20947	23.827	3.8182	5.e-002	-5.7128
20948	23.913	3.8182	0.	-121.46
20949	23.74	4.1818	0.	-142.92
20950	23.827	4.2727	0.	-126.5
20951	23.827	4.1818	5.e-002	-4.6265
20952	23.913	4.1818	0.	-110.59
20953	23.567	4.1818	0.	-170.66
20954	23.653	4.2727	0.	-146.64
20955	23.653	4.1818	5.e-002	-5.0957
20956	23.393	4.1818	0.	-209.3
20957	23.48	4.2727	0.	-178.05
20958	23.48	4.1818	5.e-002	-5.4305
20959	23.22	4.1818	0.	-257.13
20960	23.307	4.2727	0.	-217.09
20961	23.307	4.1818	5.e-002	-5.8243
20962	23.047	4.1818	0.	-315.27
20963	23.133	4.2727	0.	-263.75
20964	23.133	4.1818	5.e-002	-6.3905
20965	22.873	4.1818	0.	-387.24
20966	22.96	4.2727	0.	-319.15
20967	22.96	4.1818	5.e-002	-7.2895
20968	22.7	4.1818	0.	-481.2
20969	22.787	4.2727	0.	-386.11
20970	22.787	4.1818	5.e-002	-8.9278
20971	22.527	4.1818	0.	-629.81
20972	22.613	4.2727	0.	-469.26
20973	22.613	4.1818	5.e-002	-14.295
20974	22.44	4.2727	0.	-598.56
20975	22.44	4.1818	5.e-002	-33.626
20976	22.353	4.1818	0.	-637.9
20977	23.74	4.3636	0.	-129.88
20978	23.827	4.4545	0.	-113.31
20979	23.827	4.3636	5.e-002	-4.138
20980	23.913	4.3636	0.	-98.936
20981	23.567	4.3636	0.	-153.67
20982	23.653	4.4545	0.	-130.89
20983	23.653	4.3636	5.e-002	-4.6774
20984	23.393	4.3636	0.	-185.69
20985	23.48	4.4545	0.	-157.46
20986	23.48	4.3636	5.e-002	-4.9415
20987	23.22	4.3636	0.	-223.76
20988	23.307	4.4545	0.	-189.09
20989	23.307	4.3636	5.e-002	-5.2383
20990	23.047	4.3636	0.	-267.77
20991	23.133	4.4545	0.	-225.21
20992	23.133	4.3636	5.e-002	-5.6663
20993	22.873	4.3636	0.	-318.11
20994	22.96	4.4545	0.	-265.58
20995	22.96	4.3636	5.e-002	-6.3942
20996	22.7	4.3636	0.	-374.11
20997	22.787	4.4545	0.	-310.01
20998	22.787	4.3636	5.e-002	-7.362
20999	22.527	4.3636	0.	-436.92
21000	22.613	4.4545	0.	-356.11
21001	22.613	4.3636	5.e-002	-10.485
21002	22.44	4.4545	0.	-407.73
21003	22.44	4.3636	5.e-002	-20.171
21004	22.353	4.3636	0.	-425.18
21005	23.74	4.5455	0.	-114.19
21006	23.827	4.6364	0.	-98.153
21007	23.827	4.5455	5.e-002	-3.7138
21008	23.913	4.5455	0.	-84.913
21009	23.567	4.5455	0.	-134.52
21010	23.653	4.6364	0.	-113.63
21011	23.653	4.5455	5.e-002	-4.2662
21012	23.393	4.5455	0.	-160.79
21013	23.48	4.6364	0.	-136.06
21014	23.48	4.5455	5.e-002	-4.4427
21015	23.22	4.5455	0.	-190.55
21016	23.307	4.6364	0.	-161.44
21017	23.307	4.5455	5.e-002	-4.6283
21018	23.047	4.5455	0.	-223.
21019	23.133	4.6364	0.	-188.9
21020	23.133	4.5455	5.e-002	-4.8999
21021	22.873	4.5455	0.	-257.28
21022	22.96	4.6364	0.	-217.62
21023	22.96	4.5455	5.e-002	-5.3418
21024	22.7	4.5455	0.	-291.41
21025	22.787	4.6364	0.	-246.45
21026	22.787	4.5455	5.e-002	-6.1096
21027	22.527	4.5455	0.	-324.88
21028	22.613	4.6364	0.	-273.
21029	22.613	4.5455	5.e-002	-7.6134
21030	22.44	4.6364	0.	-299.47
21031	22.44	4.5455	5.e-002	-13.073
21032	22.353	4.5455	0.	-311.46
21033	23.74	4.7273	0.	-97.622
21034	23.827	4.8182	0.	-82.602
21035	23.827	4.7273	5.e-002	-3.3488
21036	23.913	4.7273	0.	-70.153
21037	23.567	4.7273	0.	-115.17
21038	23.653	4.8182	0.	-96.526
21039	23.653	4.7273	5.e-002	-3.8435
21040	23.393	4.7273	0.	-136.73
21041	23.48	4.8182	0.	-115.57
21042	23.48	4.7273	5.e-002	-3.9219
21043	23.22	4.7273	0.	-159.81
21044	23.307	4.8182	0.	-135.89
21045	23.307	4.7273	5.e-002	-3.9933
21046	23.047	4.7273	0.	-183.45
21047	23.133	4.8182	0.	-156.54
21048	23.133	4.7273	5.e-002	-4.1257
21049	22.873	4.7273	0.	-206.48
21050	22.96	4.8182	0.	-176.63
21051	22.96	4.7273	5.e-002	-4.3673
21052	22.7	4.7273	0.	-227.24
21053	22.787	4.8182	0.	-195.03
21054	22.787	4.7273	5.e-002	-4.8586
21055	22.527	4.7273	0.	-246.07
21056	22.613	4.8182	0.	-210.26
21057	22.613	4.7273	5.e-002	-5.8115
21058	22.44	4.8182	0.	-225.13
21059	22.44	4.7273	5.e-002	-9.5786
21060	22.353	4.7273	0.	-233.02
21061	23.74	4.9091	0.	-81.64
21062	23.827	5.	0.	-67.894
21063	23.827	4.9091	5.e-002	-3.0334
21064	23.913	4.9091	0.	-56.093
21065	23.567	4.9091	0.	-97.045
21066	23.653	5.	0.	-80.807
21067	23.653	4.9091	5.e-002	-3.4027
21068	23.393	4.9091	0.	-114.83
21069	23.48	5.	0.	-97.137
21070	23.48	4.9091	5.e-002	-3.3849
21071	23.22	4.9091	0.	-132.66
21072	23.307	5.	0.	-113.41
21073	23.307	4.9091	5.e-002	-3.3617
21074	23.047	4.9091	0.	-149.62
21075	23.133	5.	0.	-128.75
21076	23.133	4.9091	5.e-002	-3.3971
21077	22.873	4.9091	0.	-164.81
21078	22.96	5.	0.	-142.41
21079	22.96	4.9091	5.e-002	-3.5454
21080	22.7	4.9091	0.	-177.24
21081	22.787	5.	0.	-153.7
21082	22.787	4.9091	5.e-002	-3.8778
21083	22.527	4.9091	0.	-188.09
21084	22.613	5.	0.	-162.04
21085	22.613	4.9091	5.e-002	-4.5747
21086	22.44	5.	0.	-170.58
21087	22.44	4.9091	5.e-002	-7.1795
21088	22.353	4.9091	0.	-176.56
21089	23.74	5.0909	0.	-67.254
21090	23.827	5.1818	0.	-54.875
21091	23.827	5.0909	5.e-002	-2.7625
21092	23.913	5.0909	0.	-43.743
21093	23.567	5.0909	0.	-81.077
21094	23.653	5.1818	0.	-67.232
21095	23.653	5.0909	5.e-002	-2.9489
21096	23.393	5.0909	0.	-95.857
21097	23.48	5.1818	0.	-81.435
21098	23.48	5.0909	5.e-002	-2.844
21099	23.22	5.0909	0.	-109.55
21100	23.307	5.1818	0.	-94.518
21101	23.307	5.0909	5.e-002	-2.754
21102	23.047	5.0909	0.	-121.43
21103	23.133	5.1818	0.	-105.72
21104	23.133	5.0909	5.e-002	-2.7386
21105	22.873	5.0909	0.	-130.91
21106	22.96	5.1818	0.	-114.49
21107	22.96	5.0909	5.e-002	-2.8471
21108	22.7	5.0909	0.	-137.73
21109	22.787	5.1818	0.	-120.58
21110	22.787	5.0909	5.e-002	-3.1274
21111	22.527	5.0909	0.	-143.51
21112	22.613	5.1818	0.	-124.2
21113	22.613	5.0909	5.e-002	-3.6414
21114	22.44	5.1818	0.	-128.57
21115	22.44	5.0909	5.e-002	-5.5565
21116	22.353	5.0909	0.	-133.41
21117	23.74	5.2727	0.	-55.058
21118	23.827	5.3636	0.	-43.998
21119	23.827	5.2727	5.e-002	-2.5382
21120	23.913	5.2727	0.	-33.61
21121	23.567	5.2727	0.	-67.776
21122	23.653	5.3636	0.	-56.175
21123	23.653	5.2727	5.e-002	-2.4942
21124	23.393	5.2727	0.	-80.24
21125	23.48	5.3636	0.	-68.81
21126	23.48	5.2727	5.e-002	-2.3114
21127	23.22	5.2727	0.	-90.748
21128	23.307	5.3636	0.	-79.499
21129	23.307	5.2727	5.e-002	-2.1779
21130	23.047	5.2727	0.	-98.699
21131	23.133	5.3636	0.	-87.548
21132	23.133	5.2727	5.e-002	-2.1452
21133	22.873	5.2727	0.	-103.82
21134	22.96	5.3636	0.	-92.529
21135	22.96	5.2727	5.e-002	-2.255
21136	22.7	5.2727	0.	-106.36
21137	22.787	5.3636	0.	-94.478
21138	22.787	5.2727	5.e-002	-2.5208
21139	22.527	5.2727	0.	-108.34
21140	22.613	5.3636	0.	-94.197
21141	22.613	5.2727	5.e-002	-2.9495
21142	22.44	5.3636	0.	-95.162
21143	22.44	5.2727	5.e-002	-4.3838
21144	22.353	5.2727	0.	-99.309
21145	23.74	5.4545	0.	-45.283
21146	23.827	5.5455	0.	-35.423
21147	23.827	5.4545	5.e-002	-2.3708
21148	23.913	5.4545	0.	-25.741
21149	23.567	5.4545	0.	-57.348
21150	23.653	5.5455	0.	-47.75
21151	23.653	5.4545	5.e-002	-2.057
21152	23.393	5.4545	0.	-68.183
21153	23.48	5.5455	0.	-59.436
21154	23.48	5.4545	5.e-002	-1.8037
21155	23.22	5.4545	0.	-76.374
21156	23.307	5.5455	0.	-68.531
21157	23.307	5.4545	5.e-002	-1.6384
21158	23.047	5.4545	0.	-81.363
21159	23.133	5.5455	0.	-74.341
21160	23.133	5.4545	5.e-002	-1.6055
21161	22.873	5.4545	0.	-82.971
21162	22.96	5.5455	0.	-76.437
21163	22.96	5.4545	5.e-002	-1.7424
21164	22.7	5.4545	0.	-81.746
21165	22.787	5.5455	0.	-74.867
21166	22.787	5.4545	5.e-002	-2.0333
21167	22.527	5.4545	0.	-80.136
21168	22.613	5.5455	0.	-70.67
21169	22.613	5.4545	5.e-002	-2.4389
21170	22.44	5.5455	0.	-67.823
21171	22.44	5.4545	5.e-002	-3.5332
21172	22.353	5.4545	0.	-71.523
21173	23.74	5.6364	0.	-37.97
21174	23.827	5.7273	0.	-29.342
21175	23.827	5.6364	5.e-002	-2.2668
21176	23.913	5.6364	0.	-19.939
21177	23.567	5.6364	0.	-49.888
21178	23.653	5.7273	0.	-42.525
21179	23.653	5.6364	5.e-002	-1.6582
21180	23.393	5.6364	0.	-59.836
21181	23.48	5.7273	0.	-54.065
21182	23.48	5.6364	5.e-002	-1.327
21183	23.22	5.6364	0.	-66.56
21184	23.307	5.7273	0.	-62.334
21185	23.307	5.6364	5.e-002	-1.1263
21186	23.047	5.6364	0.	-69.476
21187	23.133	5.7273	0.	-66.744
21188	23.133	5.6364	5.e-002	-1.0989
21189	22.873	5.6364	0.	-68.323
21190	22.96	5.7273	0.	-66.85
21191	22.96	5.6364	5.e-002	-1.2921
21192	22.7	5.6364	0.	-63.499
21193	22.787	5.7273	0.	-62.473
21194	22.787	5.6364	5.e-002	-1.6503
21195	22.527	5.6364	0.	-57.517
21196	22.613	5.7273	0.	-54.124
21197	22.613	5.6364	5.e-002	-2.0902
21198	22.44	5.7273	0.	-45.366
21199	22.44	5.6364	5.e-002	-2.9603
21200	22.353	5.6364	0.	-48.047
21201	23.74	5.8182	0.	-33.921
21202	23.827	5.8182	5.e-002	-1.9634
21203	23.913	5.8182	0.	-15.927
21204	23.827	5.9091	0.	-23.281
21205	23.567	5.8182	0.	-46.724
21206	23.653	5.8182	5.e-002	-0.8962
21207	23.653	5.9091	0.	-36.763
21208	23.393	5.8182	0.	-56.57
21209	23.48	5.8182	5.e-002	-0.35737
21210	23.48	5.9091	0.	-47.787
21211	23.22	5.8182	0.	-62.532
21212	23.307	5.8182	5.e-002	-0.32038
21213	23.307	5.9091	0.	-55.367
21214	23.047	5.8182	0.	-64.171
21215	23.133	5.8182	5.e-002	-0.76143
21216	23.133	5.9091	0.	-58.966
21217	22.873	5.8182	0.	-61.131
21218	22.96	5.8182	5.e-002	-1.2417
21219	22.96	5.9091	0.	-58.103
21220	22.7	5.8182	0.	-53.284
21221	22.787	5.8182	5.e-002	-1.7187
21222	22.787	5.9091	0.	-52.427
21223	22.527	5.8182	0.	-41.655
21224	22.613	5.8182	5.e-002	-2.1899
21225	22.613	5.9091	0.	-41.81
21226	22.44	5.8182	5.e-002	-2.919
21227	22.44	5.9091	0.	-27.106
21228	22.353	5.8182	0.	-27.546
21229	22.527	1.8182	0.	-629.81
21230	22.44	1.7273	0.	-598.56
21231	22.44	1.8182	5.e-002	-33.626
21232	22.353	1.8182	0.	-637.9
21233	22.7	1.8182	0.	-481.2
21234	22.613	1.7273	0.	-469.26
21235	22.613	1.8182	5.e-002	-14.295
21236	22.873	1.8182	0.	-387.24
21237	22.787	1.7273	0.	-386.11
21238	22.787	1.8182	5.e-002	-8.9278
21239	23.047	1.8182	0.	-315.27
21240	22.96	1.7273	0.	-319.15
21241	22.96	1.8182	5.e-002	-7.2895
21242	23.22	1.8182	0.	-257.13
21243	23.133	1.7273	0.	-263.75
21244	23.133	1.8182	5.e-002	-6.3905
21245	23.393	1.8182	0.	-209.3
21246	23.307	1.7273	0.	-217.09
21247	23.307	1.8182	5.e-002	-5.8243
21248	23.567	1.8182	0.	-170.66
21249	23.48	1.7273	0.	-178.05
21250	23.48	1.8182	5.e-002	-5.4305
21251	23.74	1.8182	0.	-142.92
21252	23.653	1.7273	0.	-146.64
21253	23.653	1.8182	5.e-002	-5.0957
21254	23.827	1.7273	0.	-126.5
21255	23.827	1.8182	5.e-002	-4.6265
21256	23.913	1.8182	0.	-110.59
21257	22.527	1.6364	0.	-436.92
21258	22.44	1.5455	0.	-407.73
21259	22.44	1.6364	5.e-002	-20.171
21260	22.353	1.6364	0.	-425.18
21261	22.7	1.6364	0.	-374.11
21262	22.613	1.5455	0.	-356.11
21263	22.613	1.6364	5.e-002	-10.485
21264	22.873	1.6364	0.	-318.11
21265	22.787	1.5455	0.	-310.01
21266	22.787	1.6364	5.e-002	-7.3619
21267	23.047	1.6364	0.	-267.77
21268	22.96	1.5455	0.	-265.58
21269	22.96	1.6364	5.e-002	-6.3942
21270	23.22	1.6364	0.	-223.76
21271	23.133	1.5455	0.	-225.21
21272	23.133	1.6364	5.e-002	-5.6663
21273	23.393	1.6364	0.	-185.69
21274	23.307	1.5455	0.	-189.09
21275	23.307	1.6364	5.e-002	-5.2382
21276	23.567	1.6364	0.	-153.67
21277	23.48	1.5455	0.	-157.46
21278	23.48	1.6364	5.e-002	-4.9415
21279	23.74	1.6364	0.	-129.88
21280	23.653	1.5455	0.	-130.89
21281	23.653	1.6364	5.e-002	-4.6774
21282	23.827	1.5455	0.	-113.31
21283	23.827	1.6364	5.e-002	-4.138
21284	23.913	1.6364	0.	-98.936
21285	22.527	1.4545	0.	-324.88
21286	22.44	1.3636	0.	-299.47
21287	22.44	1.4545	5.e-002	-13.073
21288	22.353	1.4545	0.	-311.46
21289	22.7	1.4545	0.	-291.41
21290	22.613	1.3636	0.	-273.
21291	22.613	1.4545	5.e-002	-7.6134
21292	22.873	1.4545	0.	-257.28
21293	22.787	1.3636	0.	-246.45
21294	22.787	1.4545	5.e-002	-6.1096
21295	23.047	1.4545	0.	-223.
21296	22.96	1.3636	0.	-217.62
21297	22.96	1.4545	5.e-002	-5.3418
21298	23.22	1.4545	0.	-190.55
21299	23.133	1.3636	0.	-188.9
21300	23.133	1.4545	5.e-002	-4.8999
21301	23.393	1.4545	0.	-160.79
21302	23.307	1.3636	0.	-161.44
21303	23.307	1.4545	5.e-002	-4.6283
21304	23.567	1.4545	0.	-134.52
21305	23.48	1.3636	0.	-136.06
21306	23.48	1.4545	5.e-002	-4.4427
21307	23.74	1.4545	0.	-114.19
21308	23.653	1.3636	0.	-113.63
21309	23.653	1.4545	5.e-002	-4.2662
21310	23.827	1.3636	0.	-98.153
21311	23.827	1.4545	5.e-002	-3.7138
21312	23.913	1.4545	0.	-84.913
21313	22.527	1.2727	0.	-246.07
21314	22.44	1.1818	0.	-225.13
21315	22.44	1.2727	5.e-002	-9.5786
21316	22.353	1.2727	0.	-233.02
21317	22.7	1.2727	0.	-227.24
21318	22.613	1.1818	0.	-210.26
21319	22.613	1.2727	5.e-002	-5.8115
21320	22.873	1.2727	0.	-206.48
21321	22.787	1.1818	0.	-195.03
21322	22.787	1.2727	5.e-002	-4.8585
21323	23.047	1.2727	0.	-183.45
21324	22.96	1.1818	0.	-176.63
21325	22.96	1.2727	5.e-002	-4.3673
21326	23.22	1.2727	0.	-159.81
21327	23.133	1.1818	0.	-156.54
21328	23.133	1.2727	5.e-002	-4.1257
21329	23.393	1.2727	0.	-136.73
21330	23.307	1.1818	0.	-135.89
21331	23.307	1.2727	5.e-002	-3.9933
21332	23.567	1.2727	0.	-115.17
21333	23.48	1.1818	0.	-115.57
21334	23.48	1.2727	5.e-002	-3.9219
21335	23.74	1.2727	0.	-97.622
21336	23.653	1.1818	0.	-96.526
21337	23.653	1.2727	5.e-002	-3.8435
21338	23.827	1.1818	0.	-82.602
21339	23.827	1.2727	5.e-002	-3.3488
21340	23.913	1.2727	0.	-70.153
21341	22.527	1.0909	0.	-188.09
21342	22.44	1.	0.	-170.58
21343	22.44	1.0909	5.e-002	-7.1795
21344	22.353	1.0909	0.	-176.56
21345	22.7	1.0909	0.	-177.24
21346	22.613	1.	0.	-162.04
21347	22.613	1.0909	5.e-002	-4.5747
21348	22.873	1.0909	0.	-164.81
21349	22.787	1.	0.	-153.7
21350	22.787	1.0909	5.e-002	-3.8778
21351	23.047	1.0909	0.	-149.62
21352	22.96	1.	0.	-142.41
21353	22.96	1.0909	5.e-002	-3.5454
21354	23.22	1.0909	0.	-132.66
21355	23.133	1.	0.	-128.75
21356	23.133	1.0909	5.e-002	-3.3971
21357	23.393	1.0909	0.	-114.83
21358	23.307	1.	0.	-113.41
21359	23.307	1.0909	5.e-002	-3.3617
21360	23.567	1.0909	0.	-97.045
21361	23.48	1.	0.	-97.137
21362	23.48	1.0909	5.e-002	-3.3849
21363	23.74	1.0909	0.	-81.64
21364	23.653	1.	0.	-80.807
21365	23.653	1.0909	5.e-002	-3.4027
21366	23.827	1.	0.	-67.894
21367	23.827	1.0909	5.e-002	-3.0334
21368	23.913	1.0909	0.	-56.093
21369	22.527	0.90909	0.	-143.51
21370	22.44	0.81818	0.	-128.57
21371	22.44	0.90909	5.e-002	-5.5565
21372	22.353	0.90909	0.	-133.41
21373	22.7	0.90909	0.	-137.73
21374	22.613	0.81818	0.	-124.2
21375	22.613	0.90909	5.e-002	-3.6414
21376	22.873	0.90909	0.	-130.91
21377	22.787	0.81818	0.	-120.58
21378	22.787	0.90909	5.e-002	-3.1273
21379	23.047	0.90909	0.	-121.43
21380	22.96	0.81818	0.	-114.49
21381	22.96	0.90909	5.e-002	-2.8471
21382	23.22	0.90909	0.	-109.55
21383	23.133	0.81818	0.	-105.72
21384	23.133	0.90909	5.e-002	-2.7386
21385	23.393	0.90909	0.	-95.857
21386	23.307	0.81818	0.	-94.518
21387	23.307	0.90909	5.e-002	-2.754
21388	23.567	0.90909	0.	-81.077
21389	23.48	0.81818	0.	-81.435
21390	23.48	0.90909	5.e-002	-2.844
21391	23.74	0.90909	0.	-67.254
21392	23.653	0.81818	0.	-67.233
21393	23.653	0.90909	5.e-002	-2.9489
21394	23.827	0.81818	0.	-54.875
21395	23.827	0.90909	5.e-002	-2.7625
21396	23.913	0.90909	0.	-43.743
21397	22.527	0.72727	0.	-108.34
21398	22.44	0.63636	0.	-95.162
21399	22.44	0.72727	5.e-002	-4.3838
21400	22.353	0.72727	0.	-99.309
21401	22.7	0.72727	0.	-106.36
21402	22.613	0.63636	0.	-94.198
21403	22.613	0.72727	5.e-002	-2.9495
21404	22.873	0.72727	0.	-103.82
21405	22.787	0.63636	0.	-94.478
21406	22.787	0.72727	5.e-002	-2.5208
21407	23.047	0.72727	0.	-98.699
21408	22.96	0.63636	0.	-92.529
21409	22.96	0.72727	5.e-002	-2.255
21410	23.22	0.72727	0.	-90.748
21411	23.133	0.63636	0.	-87.548
21412	23.133	0.72727	5.e-002	-2.1452
21413	23.393	0.72727	0.	-80.24
21414	23.307	0.63636	0.	-79.499
21415	23.307	0.72727	5.e-002	-2.1779
21416	23.567	0.72727	0.	-67.776
21417	23.48	0.63636	0.	-68.81
21418	23.48	0.72727	5.e-002	-2.3114
21419	23.74	0.72727	0.	-55.058
21420	23.653	0.63636	0.	-56.175
21421	23.653	0.72727	5.e-002	-2.4942
21422	23.827	0.63636	0.	-43.998
21423	23.827	0.72727	5.e-002	-2.5382
21424	23.913	0.72727	0.	-33.61
21425	22.527	0.54545	0.	-80.136
21426	22.44	0.45455	0.	-67.823
21427	22.44	0.54545	5.e-002	-3.5332
21428	22.353	0.54545	0.	-71.523
21429	22.7	0.54545	0.	-81.746
21430	22.613	0.45455	0.	-70.67
21431	22.613	0.54545	5.e-002	-2.4389
21432	22.873	0.54545	0.	-82.971
21433	22.787	0.45455	0.	-74.867
21434	22.787	0.54545	5.e-002	-2.0333
21435	23.047	0.54545	0.	-81.363
21436	22.96	0.45455	0.	-76.437
21437	22.96	0.54545	5.e-002	-1.7424
21438	23.22	0.54545	0.	-76.374
21439	23.133	0.45455	0.	-74.341
21440	23.133	0.54545	5.e-002	-1.6055
21441	23.393	0.54545	0.	-68.183
21442	23.307	0.45455	0.	-68.531
21443	23.307	0.54545	5.e-002	-1.6384
21444	23.567	0.54545	0.	-57.348
21445	23.48	0.45455	0.	-59.436
21446	23.48	0.54545	5.e-002	-1.8037
21447	23.74	0.54545	0.	-45.283
21448	23.653	0.45455	0.	-47.75
21449	23.653	0.54545	5.e-002	-2.057
21450	23.827	0.45455	0.	-35.423
21451	23.827	0.54545	5.e-002	-2.3708
21452	23.913	0.54545	0.	-25.741
21453	22.527	0.36364	0.	-57.517
21454	22.44	0.27273	0.	-45.366
21455	22.44	0.36364	5.e-002	-2.9603
21456	22.353	0.36364	0.	-48.047
21457	22.7	0.36364	0.	-63.499
21458	22.613	0.27273	0.	-54.124
21459	22.613	0.36364	5.e-002	-2.0902
21460	22.873	0.36364	0.	-68.323
21461	22.787	0.27273	0.	-62.473
21462	22.787	0.36364	5.e-002	-1.6503
21463	23.047	0.36364	0.	-69.476
21464	22.96	0.27273	0.	-66.85
21465	22.96	0.36364	5.e-002	-1.2921
21466	23.22	0.36364	0.	-66.56
21467	23.133	0.27273	0.	-66.744
21468	23.133	0.36364	5.e-002	-1.0989
21469	23.393	0.36364	0.	-59.836
21470	23.307	0.27273	0.	-62.334
21471	23.307	0.36364	5.e-002	-1.1263
21472	23.567	0.36364	0.	-49.888
21473	23.48	0.27273	0.	-54.065
21474	23.48	0.36364	5.e-002	-1.327
21475	23.74	0.36364	0.	-37.97
21476	23.653	0.27273	0.	-42.525
21477	23.653	0.36364	5.e-002	-1.6582
21478	23.827	0.27273	0.	-29.342
21479	23.827	0.36364	5.e-002	-2.2668
21480	23.913	0.36364	0.	-19.939
21481	22.527	0.18182	0.	-41.655
21482	22.44	0.18182	5.e-002	-2.919
21483	22.44	9.0909e-002	0.	-27.106
21484	22.353	0.18182	0.	-27.546
21485	22.7	0.18182	0.	-53.284
21486	22.613	0.18182	5.e-002	-2.1899
21487	22.613	9.0909e-002	0.	-41.81
21488	22.873	0.18182	0.	-61.131
21489	22.787	0.18182	5.e-002	-1.7187
21490	22.787	9.0909e-002	0.	-52.427
21491	23.047	0.18182	0.	-64.171
21492	22.96	0.18182	5.e-002	-1.2417
21493	22.96	9.0909e-002	0.	-58.103
21494	23.22	0.18182	0.	-62.532
21495	23.133	0.18182	5.e-002	-0.76143
21496	23.133	9.0909e-002	0.	-58.966
21497	23.393	0.18182	0.	-56.57
21498	23.307	0.18182	5.e-002	-0.32037
21499	23.307	9.0909e-002	0.	-55.367
21500	23.567	0.18182	0.	-46.724
21501	23.48	0.18182	5.e-002	-0.35737
21502	23.48	9.0909e-002	0.	-47.787
21503	23.74	0.18182	0.	-33.921
21504	23.653	0.18182	5.e-002	-0.89619
21505	23.653	9.0909e-002	0.	-36.763
21506	23.827	0.18182	5.e-002	-1.9634
21507	23.827	9.0909e-002	0.	-23.281
21508	23.913	0.18182	0.	-15.927
21509	23.74	0.18182	0.1	-22.943
21510	23.827	0.27273	0.1	-30.404
21511	23.913	0.18182	0.1	-25.944
21512	23.827	9.0909e-002	0.1	-16.521
21513	23.567	0.18182	0.1	-19.199
21514	23.653	0.27273	0.1	-22.497
21515	23.653	9.0909e-002	0.1	-14.6
21516	23.393	0.18182	0.1	-16.459
21517	23.48	0.27273	0.1	-17.512
21518	23.48	9.0909e-002	0.1	-12.713
21519	23.22	0.18182	0.1	-13.896
21520	23.307	0.27273	0.1	-13.547
21521	23.307	9.0909e-002	0.1	-10.845
21522	23.047	0.18182	0.1	-11.401
21523	23.133	0.27273	0.1	-10.192
21524	23.133	9.0909e-002	0.1	-8.9696
21525	22.873	0.18182	0.1	-8.8987
21526	22.96	0.27273	0.1	-7.2969
21527	22.96	9.0909e-002	0.1	-7.0504
21528	22.7	0.18182	0.1	-6.4898
21529	22.787	0.27273	0.1	-4.9405
21530	22.787	9.0909e-002	0.1	-4.9986
21531	22.527	0.18182	0.1	-5.1608
21532	22.613	0.27273	0.1	-3.7499
21533	22.613	9.0909e-002	0.1	-2.8742
21534	22.44	0.27273	0.1	-5.8154
21535	22.353	0.18182	0.1	-1.9157
21536	22.44	9.0909e-002	0.1	-2.0178
21537	23.74	0.36364	0.1	-29.963
21538	23.827	0.45455	0.1	-38.111
21539	23.913	0.36364	0.1	-37.26
21540	23.567	0.36364	0.1	-20.819
21541	23.653	0.45455	0.1	-25.235
21542	23.393	0.36364	0.1	-14.592
21543	23.48	0.45455	0.1	-16.705
21544	23.22	0.36364	0.1	-9.8357
21545	23.307	0.45455	0.1	-10.35
21546	23.047	0.36364	0.1	-6.1149
21547	23.133	0.45455	0.1	-5.6129
21548	22.873	0.36364	0.1	-3.4942
21549	22.96	0.45455	0.1	-2.5971
21550	22.7	0.36364	0.1	-2.5118
21551	22.787	0.45455	0.1	-1.7062
21552	22.527	0.36364	0.1	-4.1523
21553	22.613	0.45455	0.1	-2.5049
21554	22.44	0.45455	0.1	-8.1553
21555	22.353	0.36364	0.1	-3.1009
21556	23.74	0.54545	0.1	-33.461
21557	23.827	0.63636	0.1	-41.296
21558	23.913	0.54545	0.1	-41.62
21559	23.567	0.54545	0.1	-21.173
21560	23.653	0.63636	0.1	-25.382
21561	23.393	0.54545	0.1	-12.507
21562	23.48	0.63636	0.1	-14.498
21563	23.22	0.54545	0.1	-6.1599
21564	23.307	0.63636	0.1	-6.4429
21565	23.047	0.54545	0.1	-2.1676
21566	23.133	0.63636	0.1	-1.4211
21567	22.873	0.54545	0.1	-1.161
21568	22.96	0.63636	0.1	-0.66008
21569	22.7	0.54545	0.1	-1.6519
21570	22.787	0.63636	0.1	-0.91091
21571	22.527	0.54545	0.1	-5.4808
21572	22.613	0.63636	0.1	-2.5875
21573	22.44	0.63636	0.1	-11.669
21574	22.353	0.54545	0.1	-5.4618
21575	23.74	0.72727	0.1	-33.375
21576	23.827	0.81818	0.1	-41.134
21577	23.913	0.72727	0.1	-41.593
21578	23.567	0.72727	0.1	-18.844
21579	23.653	0.81818	0.1	-22.751
21580	23.393	0.72727	0.1	-8.5226
21581	23.48	0.81818	0.1	-10.116
21582	23.22	0.72727	0.1	-1.5704
21583	23.307	0.81818	0.1	-1.1925
21584	23.047	0.72727	0.1	-0.4569
21585	23.133	0.81818	0.1	-0.25721
21586	22.873	0.72727	0.1	-0.57982
21587	22.96	0.81818	0.1	-0.33215
21588	22.7	0.72727	0.1	-1.3813
21589	22.787	0.81818	0.1	-0.64632
21590	22.527	0.72727	0.1	-7.2891
21591	22.613	0.81818	0.1	-2.729
21592	22.44	0.81818	0.1	-15.727
21593	22.353	0.72727	0.1	-8.0274
21594	23.74	0.90909	0.1	-30.703
21595	23.827	1.	0.1	-38.737
21596	23.913	0.90909	0.1	-38.905
21597	23.567	0.90909	0.1	-14.202
21598	23.653	1.	0.1	-18.011
21599	23.393	0.90909	0.1	-2.5983
21600	23.48	1.	0.1	-3.7608
21601	23.22	0.90909	0.1	-0.1952
21602	23.307	1.	0.1	-0.12359
21603	23.047	0.90909	0.1	-0.22306
21604	23.133	1.	0.1	-0.13154
21605	22.873	0.90909	0.1	-0.38907
21606	22.96	1.	0.1	-0.21872
21607	22.7	0.90909	0.1	-1.1877
21608	22.787	1.	0.1	-0.48839
21609	22.527	0.90909	0.1	-9.1239
21610	22.613	1.	0.1	-2.6488
21611	22.44	1.	0.1	-20.446
21612	22.353	0.90909	0.1	-10.867
21613	23.74	1.0909	0.1	-26.231
21614	23.827	1.1818	0.1	-34.862
21615	23.913	1.0909	0.1	-34.75
21616	23.567	1.0909	0.1	-7.7344
21617	23.653	1.1818	0.1	-11.785
21618	23.393	1.0909	0.1	-9.3834e-002
21619	23.48	1.1818	0.1	-7.6847e-002
21620	23.22	1.0909	0.1	-0.10027
21621	23.307	1.1818	0.1	-8.0042e-002
21622	23.047	1.0909	0.1	-0.14123
21623	23.133	1.1818	0.1	-8.2936e-002
21624	22.873	1.0909	0.1	-0.27665
21625	22.96	1.1818	0.1	-0.14372
21626	22.7	1.0909	0.1	-1.0189
21627	22.787	1.1818	0.1	-0.36281
21628	22.527	1.0909	0.1	-10.789
21629	22.613	1.1818	0.1	-2.3397
21630	22.44	1.1818	0.1	-26.285
21631	22.353	1.0909	0.1	-14.234
21632	23.74	1.2727	0.1	-20.561
21633	23.827	1.3636	0.1	-30.004
21634	23.913	1.2727	0.1	-29.907
21635	23.567	1.2727	0.1	-0.48199
21636	23.653	1.3636	0.1	-4.6916
21637	23.393	1.2727	0.1	-7.4544e-002
21638	23.48	1.3636	0.1	-9.5732e-002
21639	23.22	1.2727	0.1	-6.9977e-002
21640	23.307	1.3636	0.1	-7.3831e-002
21641	23.047	1.2727	0.1	-8.5585e-002
21642	23.133	1.3636	0.1	-5.3658e-002
21643	22.873	1.2727	0.1	-0.18564
21644	22.96	1.3636	0.1	-7.8171e-002
21645	22.7	1.2727	0.1	-0.85151
21646	22.787	1.3636	0.1	-0.22625
21647	22.527	1.2727	0.1	-12.236
21648	22.613	1.3636	0.1	-1.9874
21649	22.44	1.3636	0.1	-33.053
21650	22.353	1.2727	0.1	-18.261
21651	23.74	1.4545	0.1	-14.135
21652	23.827	1.5455	0.1	-24.413
21653	23.913	1.4545	0.1	-24.775
21654	23.567	1.4545	0.1	-0.22543
21655	23.653	1.5455	0.1	-0.72981
21656	23.393	1.4545	0.1	-8.5736e-002
21657	23.48	1.5455	0.1	-0.12632
21658	23.22	1.4545	0.1	-5.7956e-002
21659	23.307	1.5455	0.1	-8.5341e-002
21660	23.047	1.4545	0.1	-4.3892e-002
21661	23.133	1.5455	0.1	-3.8245e-002
21662	22.873	1.4545	0.1	-8.4232e-002
21663	22.96	1.5455	0.1	-4.5229e-002
21664	22.7	1.4545	0.1	-0.69772
21665	22.787	1.5455	0.1	5.9078e-002
21666	22.527	1.4545	0.1	-12.416
21667	22.613	1.5455	0.1	-1.3451
21668	22.44	1.5455	0.1	-44.022
21669	22.353	1.4545	0.1	-24.637
21670	23.74	1.6364	0.1	-7.4175
21671	23.827	1.7273	0.1	-18.124
21672	23.913	1.6364	0.1	-19.427
21673	23.567	1.6364	0.1	-0.26425
21674	23.653	1.7273	0.1	-0.55226
21675	23.393	1.6364	0.1	-0.11366
21676	23.48	1.7273	0.1	-0.16863
21677	23.22	1.6364	0.1	-6.5166e-002
21678	23.307	1.7273	0.1	-0.12075
21679	23.047	1.6364	0.1	-4.088e-002
21680	23.133	1.7273	0.1	-4.6687e-002
21681	22.873	1.6364	0.1	0.11372
21682	22.96	1.7273	0.1	-7.3482e-002
21683	22.7	1.6364	0.1	-0.23509
21684	22.787	1.7273	0.1	0.34664
21685	22.527	1.6364	0.1	-13.1
21686	22.613	1.7273	0.1	-1.1919
21687	22.44	1.7273	0.1	-40.609
21688	22.353	1.6364	0.1	-23.252
21689	23.74	1.8182	0.1	-2.4964
21690	23.827	1.9091	0.1	-11.186
21691	23.913	1.8182	0.1	-13.689
21692	23.567	1.8182	0.1	-0.31909
21693	23.653	1.9091	0.1	-0.55793
21694	23.393	1.8182	0.1	-0.16427
21695	23.48	1.9091	0.1	-0.2213
21696	23.22	1.8182	0.1	-0.10404
21697	23.307	1.9091	0.1	-0.19069
21698	23.047	1.8182	0.1	-8.9742e-002
21699	23.133	1.9091	0.1	-8.5266e-002
21700	22.873	1.8182	0.1	0.13794
21701	22.96	1.9091	0.1	-0.33673
21702	22.7	1.8182	0.1	-0.50398
21703	22.787	1.9091	0.1	0.87219
21704	22.527	1.8182	0.1	-5.7162
21705	22.613	1.9091	0.1	-4.9923
21706	22.44	1.9091	0.1	5.2273
21707	22.353	1.8182	0.1	-59.941
21708	22.527	5.8182	0.1	-5.1608
21709	22.44	5.7273	0.1	-5.8154
21710	22.353	5.8182	0.1	-1.9157
21711	22.44	5.9091	0.1	-2.0178
21712	22.7	5.8182	0.1	-6.4898
21713	22.613	5.7273	0.1	-3.7499
21714	22.613	5.9091	0.1	-2.8742
21715	22.873	5.8182	0.1	-8.8987
21716	22.787	5.7273	0.1	-4.9405
21717	22.787	5.9091	0.1	-4.9986
21718	23.047	5.8182	0.1	-11.401
21719	22.96	5.7273	0.1	-7.2969
21720	22.96	5.9091	0.1	-7.0504
21721	23.22	5.8182	0.1	-13.896
21722	23.133	5.7273	0.1	-10.192
21723	23.133	5.9091	0.1	-8.9696
21724	23.393	5.8182	0.1	-16.459
21725	23.307	5.7273	0.1	-13.547
21726	23.307	5.9091	0.1	-10.845
21727	23.567	5.8182	0.1	-19.199
21728	23.48	5.7273	0.1	-17.512
21729	23.48	5.9091	0.1	-12.713
21730	23.74	5.8182	0.1	-22.943
21731	23.653	5.7273	0.1	-22.497
21732	23.653	5.9091	0.1	-14.6
21733	23.827	5.7273	0.1	-30.404
21734	23.827	5.9091	0.1	-16.521
21735	23.913	5.8182	0.1	-25.944
21736	22.527	5.6364	0.1	-4.1523
21737	22.44	5.5455	0.1	-8.1553
21738	22.353	5.6364	0.1	-3.1009
21739	22.7	5.6364	0.1	-2.5118
21740	22.613	5.5455	0.1	-2.5049
21741	22.873	5.6364	0.1	-3.4942
21742	22.787	5.5455	0.1	-1.7062
21743	23.047	5.6364	0.1	-6.1149
21744	22.96	5.5455	0.1	-2.5971
21745	23.22	5.6364	0.1	-9.8357
21746	23.133	5.5455	0.1	-5.613
21747	23.393	5.6364	0.1	-14.592
21748	23.307	5.5455	0.1	-10.35
21749	23.567	5.6364	0.1	-20.819
21750	23.48	5.5455	0.1	-16.706
21751	23.74	5.6364	0.1	-29.963
21752	23.653	5.5455	0.1	-25.235
21753	23.827	5.5455	0.1	-38.111
21754	23.913	5.6364	0.1	-37.26
21755	22.527	5.4545	0.1	-5.4808
21756	22.44	5.3636	0.1	-11.669
21757	22.353	5.4545	0.1	-5.4618
21758	22.7	5.4545	0.1	-1.6519
21759	22.613	5.3636	0.1	-2.5875
21760	22.873	5.4545	0.1	-1.161
21761	22.787	5.3636	0.1	-0.91092
21762	23.047	5.4545	0.1	-2.1676
21763	22.96	5.3636	0.1	-0.66009
21764	23.22	5.4545	0.1	-6.1599
21765	23.133	5.3636	0.1	-1.4212
21766	23.393	5.4545	0.1	-12.507
21767	23.307	5.3636	0.1	-6.443
21768	23.567	5.4545	0.1	-21.173
21769	23.48	5.3636	0.1	-14.498
21770	23.74	5.4545	0.1	-33.461
21771	23.653	5.3636	0.1	-25.382
21772	23.827	5.3636	0.1	-41.296
21773	23.913	5.4545	0.1	-41.62
21774	22.527	5.2727	0.1	-7.2891
21775	22.44	5.1818	0.1	-15.727
21776	22.353	5.2727	0.1	-8.0274
21777	22.7	5.2727	0.1	-1.3813
21778	22.613	5.1818	0.1	-2.729
21779	22.873	5.2727	0.1	-0.57983
21780	22.787	5.1818	0.1	-0.64632
21781	23.047	5.2727	0.1	-0.4569
21782	22.96	5.1818	0.1	-0.33216
21783	23.22	5.2727	0.1	-1.5705
21784	23.133	5.1818	0.1	-0.25721
21785	23.393	5.2727	0.1	-8.5227
21786	23.307	5.1818	0.1	-1.1926
21787	23.567	5.2727	0.1	-18.844
21788	23.48	5.1818	0.1	-10.116
21789	23.74	5.2727	0.1	-33.375
21790	23.653	5.1818	0.1	-22.751
21791	23.827	5.1818	0.1	-41.134
21792	23.913	5.2727	0.1	-41.593
21793	22.527	5.0909	0.1	-9.124
21794	22.44	5.	0.1	-20.446
21795	22.353	5.0909	0.1	-10.867
21796	22.7	5.0909	0.1	-1.1877
21797	22.613	5.	0.1	-2.6488
21798	22.873	5.0909	0.1	-0.38907
21799	22.787	5.	0.1	-0.48839
21800	23.047	5.0909	0.1	-0.22306
21801	22.96	5.	0.1	-0.21872
21802	23.22	5.0909	0.1	-0.19521
21803	23.133	5.	0.1	-0.13154
21804	23.393	5.0909	0.1	-2.5984
21805	23.307	5.	0.1	-0.12359
21806	23.567	5.0909	0.1	-14.202
21807	23.48	5.	0.1	-3.7609
21808	23.74	5.0909	0.1	-30.703
21809	23.653	5.	0.1	-18.011
21810	23.827	5.	0.1	-38.737
21811	23.913	5.0909	0.1	-38.905
21812	22.527	4.9091	0.1	-10.789
21813	22.44	4.8182	0.1	-26.285
21814	22.353	4.9091	0.1	-14.234
21815	22.7	4.9091	0.1	-1.019
21816	22.613	4.8182	0.1	-2.3397
21817	22.873	4.9091	0.1	-0.27665
21818	22.787	4.8182	0.1	-0.36282
21819	23.047	4.9091	0.1	-0.14123
21820	22.96	4.8182	0.1	-0.14373
21821	23.22	4.9091	0.1	-0.10027
21822	23.133	4.8182	0.1	-8.2937e-002
21823	23.393	4.9091	0.1	-9.3835e-002
21824	23.307	4.8182	0.1	-8.0043e-002
21825	23.567	4.9091	0.1	-7.7345
21826	23.48	4.8182	0.1	-7.6847e-002
21827	23.74	4.9091	0.1	-26.231
21828	23.653	4.8182	0.1	-11.785
21829	23.827	4.8182	0.1	-34.862
21830	23.913	4.9091	0.1	-34.75
21831	22.527	4.7273	0.1	-12.236
21832	22.44	4.6364	0.1	-33.053
21833	22.353	4.7273	0.1	-18.261
21834	22.7	4.7273	0.1	-0.85151
21835	22.613	4.6364	0.1	-1.9875
21836	22.873	4.7273	0.1	-0.18564
21837	22.787	4.6364	0.1	-0.22625
21838	23.047	4.7273	0.1	-8.5586e-002
21839	22.96	4.6364	0.1	-7.8171e-002
21840	23.22	4.7273	0.1	-6.9979e-002
21841	23.133	4.6364	0.1	-5.3659e-002
21842	23.393	4.7273	0.1	-7.4545e-002
21843	23.307	4.6364	0.1	-7.3832e-002
21844	23.567	4.7273	0.1	-0.48203
21845	23.48	4.6364	0.1	-9.5733e-002
21846	23.74	4.7273	0.1	-20.561
21847	23.653	4.6364	0.1	-4.6917
21848	23.827	4.6364	0.1	-30.004
21849	23.913	4.7273	0.1	-29.907
21850	22.527	4.5455	0.1	-12.416
21851	22.44	4.4545	0.1	-44.022
21852	22.353	4.5455	0.1	-24.637
21853	22.7	4.5455	0.1	-0.69772
21854	22.613	4.4545	0.1	-1.3451
21855	22.873	4.5455	0.1	-8.4232e-002
21856	22.787	4.4545	0.1	5.9077e-002
21857	23.047	4.5455	0.1	-4.3892e-002
21858	22.96	4.4545	0.1	-4.5229e-002
21859	23.22	4.5455	0.1	-5.7957e-002
21860	23.133	4.4545	0.1	-3.8245e-002
21861	23.393	4.5455	0.1	-8.5737e-002
21862	23.307	4.4545	0.1	-8.5341e-002
21863	23.567	4.5455	0.1	-0.22543
21864	23.48	4.4545	0.1	-0.12632
21865	23.74	4.5455	0.1	-14.136
21866	23.653	4.4545	0.1	-0.72982
21867	23.827	4.4545	0.1	-24.413
21868	23.913	4.5455	0.1	-24.775
21869	22.527	4.3636	0.1	-13.1
21870	22.44	4.2727	0.1	-40.609
21871	22.353	4.3636	0.1	-23.252
21872	22.7	4.3636	0.1	-0.23509
21873	22.613	4.2727	0.1	-1.1919
21874	22.873	4.3636	0.1	0.11372
21875	22.787	4.2727	0.1	0.34664
21876	23.047	4.3636	0.1	-4.088e-002
21877	22.96	4.2727	0.1	-7.3482e-002
21878	23.22	4.3636	0.1	-6.5166e-002
21879	23.133	4.2727	0.1	-4.6686e-002
21880	23.393	4.3636	0.1	-0.11366
21881	23.307	4.2727	0.1	-0.12075
21882	23.567	4.3636	0.1	-0.26425
21883	23.48	4.2727	0.1	-0.16863
21884	23.74	4.3636	0.1	-7.4175
21885	23.653	4.2727	0.1	-0.55226
21886	23.827	4.2727	0.1	-18.124
21887	23.913	4.3636	0.1	-19.427
21888	22.527	4.1818	0.1	-5.7163
21889	22.44	4.0909	0.1	5.2272
21890	22.353	4.1818	0.1	-59.941
21891	22.7	4.1818	0.1	-0.50398
21892	22.613	4.0909	0.1	-4.9923
21893	22.873	4.1818	0.1	0.13794
21894	22.787	4.0909	0.1	0.87219
21895	23.047	4.1818	0.1	-8.9742e-002
21896	22.96	4.0909	0.1	-0.33673
21897	23.22	4.1818	0.1	-0.10404
21898	23.133	4.0909	0.1	-8.5266e-002
21899	23.393	4.1818	0.1	-0.16427
21900	23.307	4.0909	0.1	-0.19069
21901	23.567	4.1818	0.1	-0.31909
21902	23.48	4.0909	0.1	-0.2213
21903	23.74	4.1818	0.1	-2.4964
21904	23.653	4.0909	0.1	-0.55793
21905	23.827	4.0909	0.1	-11.186
21906	23.913	4.1818	0.1	-13.689
21907	23.827	3.7273	0.1	-2.0066
21908	23.74	3.8182	0.1	-0.88556
21909	23.827	3.9091	0.1	-4.8564
21910	23.913	3.8182	0.1	-0.94437
21911	23.827	3.5455	0.1	-1.1234
21912	23.74	3.6364	0.1	-0.7148
21913	23.913	3.6364	0.1	-0.70338
21914	23.827	3.3636	0.1	-0.75021
21915	23.74	3.4545	0.1	-0.60058
21916	23.913	3.4545	0.1	-0.71454
21917	23.827	3.1818	0.1	-0.57325
21918	23.74	3.2727	0.1	-0.52239
21919	23.913	3.2727	0.1	-0.73
21920	23.827	3.	0.1	-0.51918
21921	23.74	3.0909	0.1	-0.48143
21922	23.913	3.0909	0.1	-0.73886
21923	23.827	2.8182	0.1	-0.57325
21924	23.74	2.9091	0.1	-0.48143
21925	23.913	2.9091	0.1	-0.73887
21926	23.827	2.6364	0.1	-0.75021
21927	23.74	2.7273	0.1	-0.52239
21928	23.913	2.7273	0.1	-0.73
21929	23.827	2.4545	0.1	-1.1234
21930	23.74	2.5455	0.1	-0.60058
21931	23.913	2.5455	0.1	-0.71454
21932	23.827	2.2727	0.1	-2.0066
21933	23.74	2.3636	0.1	-0.7148
21934	23.913	2.3636	0.1	-0.70338
21935	23.74	2.1818	0.1	-0.88556
21936	23.827	2.0909	0.1	-4.8564
21937	23.913	2.1818	0.1	-0.94437
21938	23.653	3.7273	0.1	-0.59894
21939	23.567	3.8182	0.1	-0.42901
21940	23.653	3.9091	0.1	-0.58264
21941	23.653	3.5455	0.1	-0.60023
21942	23.567	3.6364	0.1	-0.45811
21943	23.653	3.3636	0.1	-0.59034
21944	23.567	3.4545	0.1	-0.46066
21945	23.653	3.1818	0.1	-0.57831
21946	23.567	3.2727	0.1	-0.44824
21947	23.653	3.	0.1	-0.57309
21948	23.567	3.0909	0.1	-0.43675
21949	23.653	2.8182	0.1	-0.57831
21950	23.567	2.9091	0.1	-0.43675
21951	23.653	2.6364	0.1	-0.59034
21952	23.567	2.7273	0.1	-0.44824
21953	23.653	2.4545	0.1	-0.60023
21954	23.567	2.5455	0.1	-0.46066
21955	23.653	2.2727	0.1	-0.59894
21956	23.567	2.3636	0.1	-0.45811
21957	23.567	2.1818	0.1	-0.42901
21958	23.653	2.0909	0.1	-0.58264
21959	23.48	3.7273	0.1	-0.32589
21960	23.393	3.8182	0.1	-0.3107
21961	23.48	3.9091	0.1	-0.27854
21962	23.48	3.5455	0.1	-0.34681
21963	23.393	3.6364	0.1	-0.35371
21964	23.48	3.3636	0.1	-0.34167
21965	23.393	3.4545	0.1	-0.36106
21966	23.48	3.1818	0.1	-0.32724
21967	23.393	3.2727	0.1	-0.34122
21968	23.48	3.	0.1	-0.32021
21969	23.393	3.0909	0.1	-0.32142
21970	23.48	2.8182	0.1	-0.32724
21971	23.393	2.9091	0.1	-0.32142
21972	23.48	2.6364	0.1	-0.34167
21973	23.393	2.7273	0.1	-0.34122
21974	23.48	2.4545	0.1	-0.34681
21975	23.393	2.5455	0.1	-0.36106
21976	23.48	2.2727	0.1	-0.32589
21977	23.393	2.3636	0.1	-0.35371
21978	23.393	2.1818	0.1	-0.3107
21979	23.48	2.0909	0.1	-0.27854
21980	23.307	3.7273	0.1	-0.34577
21981	23.22	3.8182	0.1	-0.30687
21982	23.307	3.9091	0.1	-0.27822
21983	23.307	3.5455	0.1	-0.37492
21984	23.22	3.6364	0.1	-0.41456
21985	23.307	3.3636	0.1	-0.36624
21986	23.22	3.4545	0.1	-0.41238
21987	23.307	3.1818	0.1	-0.33953
21988	23.22	3.2727	0.1	-0.36021
21989	23.307	3.	0.1	-0.32615
21990	23.22	3.0909	0.1	-0.31728
21991	23.307	2.8182	0.1	-0.33953
21992	23.22	2.9091	0.1	-0.31728
21993	23.307	2.6364	0.1	-0.36624
21994	23.22	2.7273	0.1	-0.36021
21995	23.307	2.4545	0.1	-0.37492
21996	23.22	2.5455	0.1	-0.41238
21997	23.307	2.2727	0.1	-0.34577
21998	23.22	2.3636	0.1	-0.41456
21999	23.22	2.1818	0.1	-0.30687
22000	23.307	2.0909	0.1	-0.27822
22001	23.133	3.7273	0.1	-0.37703
22002	23.047	3.8182	0.1	-0.54378
22003	23.133	3.9091	0.1	-0.20129
22004	23.133	3.5455	0.1	-0.45682
22005	23.047	3.6364	0.1	-0.57601
22006	23.133	3.3636	0.1	-0.40829
22007	23.047	3.4545	0.1	-0.55593
22008	23.133	3.1818	0.1	-0.33519
22009	23.047	3.2727	0.1	-0.40113
22010	23.133	3.	0.1	-0.30364
22011	23.047	3.0909	0.1	-0.29741
22012	23.133	2.8182	0.1	-0.33519
22013	23.047	2.9091	0.1	-0.29741
22014	23.133	2.6364	0.1	-0.40829
22015	23.047	2.7273	0.1	-0.40113
22016	23.133	2.4545	0.1	-0.45682
22017	23.047	2.5455	0.1	-0.55593
22018	23.133	2.2727	0.1	-0.37703
22019	23.047	2.3636	0.1	-0.57601
22020	23.047	2.1818	0.1	-0.54379
22021	23.133	2.0909	0.1	-0.20129
22022	22.96	3.7273	0.1	-0.74702
22023	22.873	3.8182	0.1	-0.58184
22024	22.96	3.9091	0.1	-0.6756
22025	22.96	3.5455	0.1	-0.69459
22026	22.873	3.6364	0.1	-1.3695
22027	22.96	3.3636	0.1	-0.5579
22028	22.873	3.4545	0.1	-0.92046
22029	22.96	3.1818	0.1	-0.35422
22030	22.873	3.2727	0.1	-0.54506
22031	22.96	3.	0.1	-0.27406
22032	22.873	3.0909	0.1	-0.26605
22033	22.96	2.8182	0.1	-0.35422
22034	22.873	2.9091	0.1	-0.26605
22035	22.96	2.6364	0.1	-0.5579
22036	22.873	2.7273	0.1	-0.54506
22037	22.96	2.4545	0.1	-0.69459
22038	22.873	2.5455	0.1	-0.92046
22039	22.96	2.2727	0.1	-0.74702
22040	22.873	2.3636	0.1	-1.3695
22041	22.873	2.1818	0.1	-0.58184
22042	22.96	2.0909	0.1	-0.6756
22043	22.787	3.7273	0.1	-1.2451
22044	22.7	3.8182	0.1	-3.6119
22045	22.787	3.9091	0.1	0.48197
22046	22.787	3.5455	0.1	-1.7564
22047	22.7	3.6364	0.1	-3.9703
22048	22.787	3.3636	0.1	-1.0529
22049	22.7	3.4545	0.1	-3.9844
22050	22.787	3.1818	0.1	-0.48118
22051	22.7	3.2727	0.1	-3.7736
22052	22.787	3.	0.1	-0.20248
22053	22.7	3.0909	0.1	-4.0231
22054	22.787	2.8182	0.1	-0.48118
22055	22.7	2.9091	0.1	-4.0231
22056	22.787	2.6364	0.1	-1.0529
22057	22.7	2.7273	0.1	-3.7736
22058	22.787	2.4545	0.1	-1.7564
22059	22.7	2.5455	0.1	-3.9844
22060	22.787	2.2727	0.1	-1.2451
22061	22.7	2.3636	0.1	-3.9703
22062	22.7	2.1818	0.1	-3.6119
22063	22.787	2.0909	0.1	0.48197
22064	22.613	3.7273	0.1	-6.815
22065	22.527	3.8182	0.1	-23.579
22066	22.613	3.9091	0.1	-7.6327
22067	22.613	3.5455	0.1	-10.466
22068	22.527	3.6364	0.1	-35.229
22069	22.613	3.3636	0.1	-17.725
22070	22.527	3.4545	0.1	-43.676
22071	22.613	3.1818	0.1	-22.381
22072	22.527	3.2727	0.1	-47.529
22073	22.613	3.	0.1	-23.884
22074	22.527	3.0909	0.1	-48.933
22075	22.613	2.8182	0.1	-22.381
22076	22.527	2.9091	0.1	-48.933
22077	22.613	2.6364	0.1	-17.725
22078	22.527	2.7273	0.1	-47.529
22079	22.613	2.4545	0.1	-10.466
22080	22.527	2.5455	0.1	-43.676
22081	22.613	2.2727	0.1	-6.815
22082	22.527	2.3636	0.1	-35.229
22083	22.527	2.1818	0.1	-23.579
22084	22.613	2.0909	0.1	-7.6327
22085	22.44	3.7273	0.1	-47.891
22086	22.353	3.8182	0.1	-99.409
22087	22.44	3.9091	0.1	0.47176
22088	22.44	3.5455	0.1	-68.647
22089	22.353	3.6364	0.1	-108.4
22090	22.44	3.3636	0.1	-71.241
22091	22.353	3.4545	0.1	-101.12
22092	22.44	3.1818	0.1	-71.712
22093	22.353	3.2727	0.1	-96.741
22094	22.44	3.	0.1	-71.604
22095	22.353	3.0909	0.1	-94.181
22096	22.44	2.8182	0.1	-71.712
22097	22.353	2.9091	0.1	-94.181
22098	22.44	2.6364	0.1	-71.24
22099	22.353	2.7273	0.1	-96.741
22100	22.44	2.4545	0.1	-68.647
22101	22.353	2.5455	0.1	-101.12
22102	22.44	2.2727	0.1	-47.891
22103	22.353	2.3636	0.1	-108.4
22104	22.353	2.1818	0.1	-99.409
22105	22.44	2.0909	0.1	0.47177
22106	22.267	3.7273	0.1	-155.41
22107	22.183	3.8182	0.1	-256.53
22108	22.267	3.9091	0.1	-106.27
22109	22.267	3.5455	0.1	-141.13
22110	22.183	3.6364	0.1	-182.32
22111	22.267	3.3636	0.1	-125.84
22112	22.183	3.4545	0.1	-152.75
22113	22.267	3.1818	0.1	-117.91
22114	22.183	3.2727	0.1	-137.7
22115	22.267	3.	0.1	-115.34
22116	22.183	3.0909	0.1	-131.03
22117	22.267	2.8182	0.1	-117.91
22118	22.183	2.9091	0.1	-131.03
22119	22.267	2.6364	0.1	-125.84
22120	22.183	2.7273	0.1	-137.7
22121	22.267	2.4545	0.1	-141.13
22122	22.183	2.5455	0.1	-152.75
22123	22.267	2.2727	0.1	-155.41
22124	22.183	2.3636	0.1	-182.32
22125	22.183	2.1818	0.1	-256.53
22126	22.267	2.0909	0.1	-106.27
22127	0.18417	0.27273	0.1	-448.11
22128	0.27625	0.18182	0.1	-164.61
22129	9.2083e-002	0.18182	0.1	400.13
22130	0.18417	9.0909e-002	0.1	-223.25
22131	0.18417	0.45455	0.1	-676.24
22132	0.27625	0.36364	0.1	-235.7
22133	9.2083e-002	0.36364	0.1	831.17
22134	0.18417	0.63636	0.1	-785.84
22135	0.27625	0.54545	0.1	-279.56
22136	9.2083e-002	0.54545	0.1	1028.3
22137	0.18417	0.81818	0.1	-856.07
22138	0.27625	0.72727	0.1	-310.8
22139	9.2083e-002	0.72727	0.1	1144.7
22140	0.18417	1.	0.1	-903.29
22141	0.27625	0.90909	0.1	-330.79
22142	9.2083e-002	0.90909	0.1	1223.3
22143	0.18417	1.1818	0.1	-937.62
22144	0.27625	1.0909	0.1	-345.37
22145	9.2083e-002	1.0909	0.1	1279.2
22146	0.18417	1.3636	0.1	-963.18
22147	0.27625	1.2727	0.1	-356.09
22148	9.2083e-002	1.2727	0.1	1320.6
22149	0.18417	1.5455	0.1	-982.69
22150	0.27625	1.4545	0.1	-364.25
22151	9.2083e-002	1.4545	0.1	1352.1
22152	0.18417	1.7273	0.1	-997.74
22153	0.27625	1.6364	0.1	-370.52
22154	9.2083e-002	1.6364	0.1	1376.3
22155	0.18417	1.9091	0.1	-1009.4
22156	0.27625	1.8182	0.1	-375.39
22157	9.2083e-002	1.8182	0.1	1395.1
22158	0.18417	2.0909	0.1	-1018.4
22159	0.27625	2.	0.1	-379.16
22160	9.2083e-002	2.	0.1	1409.6
22161	0.18417	2.2727	0.1	-1025.2
22162	0.27625	2.1818	0.1	-382.06
22163	9.2083e-002	2.1818	0.1	1420.8
22164	0.18417	2.4545	0.1	-1030.2
22165	0.27625	2.3636	0.1	-384.22
22166	9.2083e-002	2.3636	0.1	1429.2
22167	0.18417	2.6364	0.1	-1033.6
22168	0.27625	2.5455	0.1	-385.77
22169	9.2083e-002	2.5455	0.1	1435.1
22170	0.18417	2.8182	0.1	-1035.6
22171	0.27625	2.7273	0.1	-386.76
22172	9.2083e-002	2.7273	0.1	1439.
22173	0.18417	3.	0.1	-1036.3
22174	0.27625	2.9091	0.1	-387.25
22175	9.2083e-002	2.9091	0.1	1440.8
22176	0.18417	3.1818	0.1	-1035.6
22177	0.27625	3.0909	0.1	-387.25
22178	9.2083e-002	3.0909	0.1	1440.8
22179	0.18417	3.3636	0.1	-1033.6
22180	0.27625	3.2727	0.1	-386.76
22181	9.2083e-002	3.2727	0.1	1439.
22182	0.18417	3.5455	0.1	-1030.2
22183	0.27625	3.4545	0.1	-385.77
22184	9.2083e-002	3.4545	0.1	1435.1
22185	0.18417	3.7273	0.1	-1025.2
22186	0.27625	3.6364	0.1	-384.22
22187	9.2083e-002	3.6364	0.1	1429.2
22188	0.18417	3.9091	0.1	-1018.4
22189	0.27625	3.8182	0.1	-382.06
22190	9.2083e-002	3.8182	0.1	1420.8
22191	0.18417	4.0909	0.1	-1009.4
22192	0.27625	4.	0.1	-379.16
22193	9.2083e-002	4.	0.1	1409.6
22194	0.18417	4.2727	0.1	-997.74
22195	0.27625	4.1818	0.1	-375.39
22196	9.2083e-002	4.1818	0.1	1395.1
22197	0.18417	4.4545	0.1	-982.69
22198	0.27625	4.3636	0.1	-370.52
22199	9.2083e-002	4.3636	0.1	1376.3
22200	0.18417	4.6364	0.1	-963.18
22201	0.27625	4.5455	0.1	-364.25
22202	9.2083e-002	4.5455	0.1	1352.1
22203	0.18417	4.8182	0.1	-937.62
22204	0.27625	4.7273	0.1	-356.09
22205	9.2083e-002	4.7273	0.1	1320.6
22206	0.18417	5.	0.1	-903.29
22207	0.27625	4.9091	0.1	-345.37
22208	9.2083e-002	4.9091	0.1	1279.2
22209	0.18417	5.1818	0.1	-856.07
22210	0.27625	5.0909	0.1	-330.79
22211	9.2083e-002	5.0909	0.1	1223.3
22212	0.18417	5.3636	0.1	-785.84
22213	0.27625	5.2727	0.1	-310.8
22214	9.2083e-002	5.2727	0.1	1144.7
22215	0.18417	5.5455	0.1	-676.24
22216	0.27625	5.4545	0.1	-279.56
22217	9.2083e-002	5.4545	0.1	1028.3
22218	0.18417	5.7273	0.1	-448.11
22219	0.27625	5.6364	0.1	-235.7
22220	9.2083e-002	5.6364	0.1	831.17
22221	0.27625	5.8182	0.1	-164.61
22222	9.2083e-002	5.8182	0.1	400.13
22223	0.18417	5.9091	0.1	-223.25
22224	0.36833	0.27273	0.1	90.42
22225	0.46042	0.18182	0.1	-95.803
22226	0.36833	9.0909e-002	0.1	-132.15
22227	0.36833	0.45455	0.1	161.69
22228	0.46042	0.36364	0.1	48.841
22229	0.36833	0.63636	0.1	195.54
22230	0.46042	0.54545	0.1	67.309
22231	0.36833	0.81818	0.1	214.45
22232	0.46042	0.72727	0.1	76.55
22233	0.36833	1.	0.1	227.09
22234	0.46042	0.90909	0.1	82.376
22235	0.36833	1.1818	0.1	236.13
22236	0.46042	1.0909	0.1	86.411
22237	0.36833	1.3636	0.1	242.82
22238	0.46042	1.2727	0.1	89.339
22239	0.36833	1.5455	0.1	247.9
22240	0.46042	1.4545	0.1	91.54
22241	0.36833	1.7273	0.1	251.82
22242	0.46042	1.6364	0.1	93.225
22243	0.36833	1.9091	0.1	254.84
22244	0.46042	1.8182	0.1	94.526
22245	0.36833	2.0909	0.1	257.17
22246	0.46042	2.	0.1	95.531
22247	0.36833	2.2727	0.1	258.93
22248	0.46042	2.1818	0.1	96.301
22249	0.36833	2.4545	0.1	260.22
22250	0.46042	2.3636	0.1	96.876
22251	0.36833	2.6364	0.1	261.11
22252	0.46042	2.5455	0.1	97.285
22253	0.36833	2.8182	0.1	261.62
22254	0.46042	2.7273	0.1	97.548
22255	0.36833	3.	0.1	261.79
22256	0.46042	2.9091	0.1	97.677
22257	0.36833	3.1818	0.1	261.62
22258	0.46042	3.0909	0.1	97.677
22259	0.36833	3.3636	0.1	261.11
22260	0.46042	3.2727	0.1	97.548
22261	0.36833	3.5455	0.1	260.22
22262	0.46042	3.4545	0.1	97.285
22263	0.36833	3.7273	0.1	258.93
22264	0.46042	3.6364	0.1	96.876
22265	0.36833	3.9091	0.1	257.17
22266	0.46042	3.8182	0.1	96.301
22267	0.36833	4.0909	0.1	254.84
22268	0.46042	4.	0.1	95.531
22269	0.36833	4.2727	0.1	251.82
22270	0.46042	4.1818	0.1	94.526
22271	0.36833	4.4545	0.1	247.9
22272	0.46042	4.3636	0.1	93.225
22273	0.36833	4.6364	0.1	242.82
22274	0.46042	4.5455	0.1	91.54
22275	0.36833	4.8182	0.1	236.13
22276	0.46042	4.7273	0.1	89.339
22277	0.36833	5.	0.1	227.09
22278	0.46042	4.9091	0.1	86.411
22279	0.36833	5.1818	0.1	214.45
22280	0.46042	5.0909	0.1	82.376
22281	0.36833	5.3636	0.1	195.54
22282	0.46042	5.2727	0.1	76.55
22283	0.36833	5.5455	0.1	161.69
22284	0.46042	5.4545	0.1	67.309
22285	0.36833	5.7273	0.1	90.42
22286	0.46042	5.6364	0.1	48.841
22287	0.46042	5.8182	0.1	-95.803
22288	0.36833	5.9091	0.1	-132.15
22289	0.5525	0.27273	0.1	-33.773
22290	0.64458	0.18182	0.1	-86.784
22291	0.5525	9.0909e-002	0.1	-107.28
22292	0.5525	0.45455	0.1	-44.56
22293	0.64458	0.36364	0.1	-17.385
22294	0.5525	0.63636	0.1	-51.461
22295	0.64458	0.54545	0.1	-19.299
22296	0.5525	0.81818	0.1	-55.452
22297	0.64458	0.72727	0.1	-20.718
22298	0.5525	1.	0.1	-58.282
22299	0.64458	0.90909	0.1	-21.712
22300	0.5525	1.1818	0.1	-60.372
22301	0.64458	1.0909	0.1	-22.51
22302	0.5525	1.3636	0.1	-61.941
22303	0.64458	1.2727	0.1	-23.118
22304	0.5525	1.5455	0.1	-63.14
22305	0.64458	1.4545	0.1	-23.588
22306	0.5525	1.7273	0.1	-64.066
22307	0.64458	1.6364	0.1	-23.953
22308	0.5525	1.9091	0.1	-64.783
22309	0.64458	1.8182	0.1	-24.237
22310	0.5525	2.0909	0.1	-65.337
22311	0.64458	2.	0.1	-24.456
22312	0.5525	2.2727	0.1	-65.756
22313	0.64458	2.1818	0.1	-24.625
22314	0.5525	2.4545	0.1	-66.064
22315	0.64458	2.3636	0.1	-24.751
22316	0.5525	2.6364	0.1	-66.275
22317	0.64458	2.5455	0.1	-24.841
22318	0.5525	2.8182	0.1	-66.397
22319	0.64458	2.7273	0.1	-24.899
22320	0.5525	3.	0.1	-66.438
22321	0.64458	2.9091	0.1	-24.927
22322	0.5525	3.1818	0.1	-66.397
22323	0.64458	3.0909	0.1	-24.927
22324	0.5525	3.3636	0.1	-66.275
22325	0.64458	3.2727	0.1	-24.899
22326	0.5525	3.5455	0.1	-66.064
22327	0.64458	3.4545	0.1	-24.841
22328	0.5525	3.7273	0.1	-65.756
22329	0.64458	3.6364	0.1	-24.751
22330	0.5525	3.9091	0.1	-65.337
22331	0.64458	3.8182	0.1	-24.625
22332	0.5525	4.0909	0.1	-64.783
22333	0.64458	4.	0.1	-24.456
22334	0.5525	4.2727	0.1	-64.066
22335	0.64458	4.1818	0.1	-24.237
22336	0.5525	4.4545	0.1	-63.14
22337	0.64458	4.3636	0.1	-23.953
22338	0.5525	4.6364	0.1	-61.941
22339	0.64458	4.5455	0.1	-23.588
22340	0.5525	4.8182	0.1	-60.372
22341	0.64458	4.7273	0.1	-23.118
22342	0.5525	5.	0.1	-58.282
22343	0.64458	4.9091	0.1	-22.51
22344	0.5525	5.1818	0.1	-55.452
22345	0.64458	5.0909	0.1	-21.712
22346	0.5525	5.3636	0.1	-51.461
22347	0.64458	5.2727	0.1	-20.718
22348	0.5525	5.5455	0.1	-44.56
22349	0.64458	5.4545	0.1	-19.299
22350	0.5525	5.7273	0.1	-33.773
22351	0.64458	5.6364	0.1	-17.385
22352	0.64458	5.8182	0.1	-86.784
22353	0.5525	5.9091	0.1	-107.28
22354	0.73667	0.27273	0.1	-0.3961
22355	0.82875	0.18182	0.1	-61.374
22356	0.73667	9.0909e-002	0.1	-72.604
22357	0.73667	0.45455	0.1	8.4396
22358	0.82875	0.36364	0.1	0.40612
22359	0.73667	0.63636	0.1	11.592
22360	0.82875	0.54545	0.1	3.3323
22361	0.73667	0.81818	0.1	13.081
22362	0.82875	0.72727	0.1	4.2065
22363	0.73667	1.	0.1	14.085
22364	0.82875	0.90909	0.1	4.8317
22365	0.73667	1.1818	0.1	14.756
22366	0.82875	1.0909	0.1	5.1972
22367	0.73667	1.3636	0.1	15.24
22368	0.82875	1.2727	0.1	5.4483
22369	0.73667	1.5455	0.1	15.601
22370	0.82875	1.4545	0.1	5.6247
22371	0.73667	1.7273	0.1	15.878
22372	0.82875	1.6364	0.1	5.7565
22373	0.73667	1.9091	0.1	16.091
22374	0.82875	1.8182	0.1	5.8571
22375	0.73667	2.0909	0.1	16.256
22376	0.82875	2.	0.1	5.9348
22377	0.73667	2.2727	0.1	16.381
22378	0.82875	2.1818	0.1	5.9945
22379	0.73667	2.4545	0.1	16.473
22380	0.82875	2.3636	0.1	6.0393
22381	0.73667	2.6364	0.1	16.536
22382	0.82875	2.5455	0.1	6.0713
22383	0.73667	2.8182	0.1	16.572
22384	0.82875	2.7273	0.1	6.0919
22385	0.73667	3.	0.1	16.584
22386	0.82875	2.9091	0.1	6.1021
22387	0.73667	3.1818	0.1	16.572
22388	0.82875	3.0909	0.1	6.1021
22389	0.73667	3.3636	0.1	16.536
22390	0.82875	3.2727	0.1	6.0919
22391	0.73667	3.5455	0.1	16.473
22392	0.82875	3.4545	0.1	6.0713
22393	0.73667	3.7273	0.1	16.381
22394	0.82875	3.6364	0.1	6.0393
22395	0.73667	3.9091	0.1	16.256
22396	0.82875	3.8182	0.1	5.9945
22397	0.73667	4.0909	0.1	16.091
22398	0.82875	4.	0.1	5.9348
22399	0.73667	4.2727	0.1	15.878
22400	0.82875	4.1818	0.1	5.8571
22401	0.73667	4.4545	0.1	15.601
22402	0.82875	4.3636	0.1	5.7565
22403	0.73667	4.6364	0.1	15.24
22404	0.82875	4.5455	0.1	5.6247
22405	0.73667	4.8182	0.1	14.756
22406	0.82875	4.7273	0.1	5.4483
22407	0.73667	5.	0.1	14.085
22408	0.82875	4.9091	0.1	5.1972
22409	0.73667	5.1818	0.1	13.081
22410	0.82875	5.0909	0.1	4.8317
22411	0.73667	5.3636	0.1	11.592
22412	0.82875	5.2727	0.1	4.2065
22413	0.73667	5.5455	0.1	8.4396
22414	0.82875	5.4545	0.1	3.3323
22415	0.73667	5.7273	0.1	-0.3961
22416	0.82875	5.6364	0.1	0.40612
22417	0.82875	5.8182	0.1	-61.374
22418	0.73667	5.9091	0.1	-72.604
22419	0.92083	0.27273	0.1	-7.0572
22420	1.0129	0.18182	0.1	-43.214
22421	0.92083	9.0909e-002	0.1	-51.369
22422	0.92083	0.45455	0.1	-4.2573
22423	1.0129	0.36364	0.1	-3.3109
22424	0.92083	0.63636	0.1	-3.9437
22425	1.0129	0.54545	0.1	-2.0006
22426	0.92083	0.81818	0.1	-3.9961
22427	1.0129	0.72727	0.1	-1.8591
22428	0.92083	1.	0.1	-4.0332
22429	1.0129	0.90909	0.1	-1.7213
22430	0.92083	1.1818	0.1	-4.0983
22431	1.0129	1.0909	0.1	-1.6824
22432	0.92083	1.3636	0.1	-4.1608
22433	1.0129	1.2727	0.1	-1.6697
22434	0.92083	1.5455	0.1	-4.2165
22435	1.0129	1.4545	0.1	-1.6735
22436	0.92083	1.7273	0.1	-4.2621
22437	1.0129	1.6364	0.1	-1.6817
22438	0.92083	1.9091	0.1	-4.2982
22439	1.0129	1.8182	0.1	-1.6904
22440	0.92083	2.0909	0.1	-4.326
22441	1.0129	2.	0.1	-1.6978
22442	0.92083	2.2727	0.1	-4.3469
22443	1.0129	2.1818	0.1	-1.7037
22444	0.92083	2.4545	0.1	-4.362
22445	1.0129	2.3636	0.1	-1.7079
22446	0.92083	2.6364	0.1	-4.3721
22447	1.0129	2.5455	0.1	-1.7109
22448	0.92083	2.8182	0.1	-4.378
22449	1.0129	2.7273	0.1	-1.7127
22450	0.92083	3.	0.1	-4.3799
22451	1.0129	2.9091	0.1	-1.7136
22452	0.92083	3.1818	0.1	-4.378
22453	1.0129	3.0909	0.1	-1.7136
22454	0.92083	3.3636	0.1	-4.3721
22455	1.0129	3.2727	0.1	-1.7127
22456	0.92083	3.5455	0.1	-4.362
22457	1.0129	3.4545	0.1	-1.7109
22458	0.92083	3.7273	0.1	-4.3469
22459	1.0129	3.6364	0.1	-1.7079
22460	0.92083	3.9091	0.1	-4.326
22461	1.0129	3.8182	0.1	-1.7037
22462	0.92083	4.0909	0.1	-4.2982
22463	1.0129	4.	0.1	-1.6978
22464	0.92083	4.2727	0.1	-4.2621
22465	1.0129	4.1818	0.1	-1.6904
22466	0.92083	4.4545	0.1	-4.2165
22467	1.0129	4.3636	0.1	-1.6817
22468	0.92083	4.6364	0.1	-4.1608
22469	1.0129	4.5455	0.1	-1.6735
22470	0.92083	4.8182	0.1	-4.0983
22471	1.0129	4.7273	0.1	-1.6697
22472	0.92083	5.	0.1	-4.0332
22473	1.0129	4.9091	0.1	-1.6824
22474	0.92083	5.1818	0.1	-3.9961
22475	1.0129	5.0909	0.1	-1.7213
22476	0.92083	5.3636	0.1	-3.9437
22477	1.0129	5.2727	0.1	-1.8591
22478	0.92083	5.5455	0.1	-4.2573
22479	1.0129	5.4545	0.1	-2.0006
22480	0.92083	5.7273	0.1	-7.0572
22481	1.0129	5.6364	0.1	-3.3109
22482	1.0129	5.8182	0.1	-43.214
22483	0.92083	5.9091	0.1	-51.37
22484	1.105	0.27273	0.1	-3.979
22485	1.1971	0.18182	0.1	-28.413
22486	1.105	9.0909e-002	0.1	-33.665
22487	1.105	0.45455	0.1	-0.72008
22488	1.1971	0.36364	0.1	-1.8872
22489	1.105	0.63636	0.1	0.16546
22490	1.1971	0.54545	0.1	-0.4527
22491	1.105	0.81818	0.1	0.45121
22492	1.1971	0.72727	0.1	-0.19395
22493	1.105	1.	0.1	0.64814
22494	1.1971	0.90909	0.1	2.5858e-002
22495	1.105	1.1818	0.1	0.75673
22496	1.1971	1.0909	0.1	0.13315
22497	1.105	1.3636	0.1	0.82372
22498	1.1971	1.2727	0.1	0.19917
22499	1.105	1.5455	0.1	0.86499
22500	1.1971	1.4545	0.1	0.23568
22501	1.105	1.7273	0.1	0.89234
22502	1.1971	1.6364	0.1	0.25726
22503	1.105	1.9091	0.1	0.91149
22504	1.1971	1.8182	0.1	0.27036
22505	1.105	2.0909	0.1	0.92554
22506	1.1971	2.	0.1	0.2789
22507	1.105	2.2727	0.1	0.93603
22508	1.1971	2.1818	0.1	0.28478
22509	1.105	2.4545	0.1	0.94375
22510	1.1971	2.3636	0.1	0.28897
22511	1.105	2.6364	0.1	0.94907
22512	1.1971	2.5455	0.1	0.2919
22513	1.105	2.8182	0.1	0.95221
22514	1.1971	2.7273	0.1	0.2938
22515	1.105	3.	0.1	0.95324
22516	1.1971	2.9091	0.1	0.29473
22517	1.105	3.1818	0.1	0.95221
22518	1.1971	3.0909	0.1	0.29473
22519	1.105	3.3636	0.1	0.94907
22520	1.1971	3.2727	0.1	0.2938
22521	1.105	3.5455	0.1	0.94375
22522	1.1971	3.4545	0.1	0.2919
22523	1.105	3.7273	0.1	0.93603
22524	1.1971	3.6364	0.1	0.28897
22525	1.105	3.9091	0.1	0.92554
22526	1.1971	3.8182	0.1	0.28478
22527	1.105	4.0909	0.1	0.91149
22528	1.1971	4.	0.1	0.2789
22529	1.105	4.2727	0.1	0.89234
22530	1.1971	4.1818	0.1	0.27036
22531	1.105	4.4545	0.1	0.86499
22532	1.1971	4.3636	0.1	0.25726
22533	1.105	4.6364	0.1	0.82372
22534	1.1971	4.5455	0.1	0.23568
22535	1.105	4.8182	0.1	0.75673
22536	1.1971	4.7273	0.1	0.19917
22537	1.105	5.	0.1	0.64814
22538	1.1971	4.9091	0.1	0.13315
22539	1.105	5.1818	0.1	0.45121
22540	1.1971	5.0909	0.1	2.5858e-002
22541	1.105	5.3636	0.1	0.16546
22542	1.1971	5.2727	0.1	-0.19395
22543	1.105	5.5455	0.1	-0.72008
22544	1.1971	5.4545	0.1	-0.4527
22545	1.105	5.7273	0.1	-3.979
22546	1.1971	5.6364	0.1	-1.8872
22547	1.1971	5.8182	0.1	-28.413
22548	1.105	5.9091	0.1	-33.666
22549	1.2892	0.27273	0.1	-3.6417
22550	1.3813	0.18182	0.1	-18.365
22551	1.2892	9.0909e-002	0.1	-20.349
22552	1.2892	0.45455	0.1	-1.3587
22553	1.3813	0.36364	0.1	-1.8658
22554	1.2892	0.63636	0.1	-0.74822
22555	1.3813	0.54545	0.1	-0.70101
22556	1.2892	0.81818	0.1	-0.59144
22557	1.3813	0.72727	0.1	-0.52705
22558	1.2892	1.	0.1	-0.47405
22559	1.3813	0.90909	0.1	-0.35907
22560	1.2892	1.1818	0.1	-0.41547
22561	1.3813	1.0909	0.1	-0.27886
22562	1.2892	1.3636	0.1	-0.38334
22563	1.3813	1.2727	0.1	-0.22894
22564	1.2892	1.5455	0.1	-0.36853
22565	1.3813	1.4545	0.1	-0.20309
22566	1.2892	1.7273	0.1	-0.36242
22567	1.3813	1.6364	0.1	-0.18988
22568	1.2892	1.9091	0.1	-0.36068
22569	1.3813	1.8182	0.1	-0.18394
22570	1.2892	2.0909	0.1	-0.36077
22571	1.3813	2.	0.1	-0.18163
22572	1.2892	2.2727	0.1	-0.36148
22573	1.3813	2.1818	0.1	-0.18106
22574	1.2892	2.4545	0.1	-0.36224
22575	1.3813	2.3636	0.1	-0.18119
22576	1.2892	2.6364	0.1	-0.36284
22577	1.3813	2.5455	0.1	-0.18151
22578	1.2892	2.8182	0.1	-0.3632
22579	1.3813	2.7273	0.1	-0.1818
22580	1.2892	3.	0.1	-0.36332
22581	1.3813	2.9091	0.1	-0.18196
22582	1.2892	3.1818	0.1	-0.3632
22583	1.3813	3.0909	0.1	-0.18196
22584	1.2892	3.3636	0.1	-0.36284
22585	1.3813	3.2727	0.1	-0.1818
22586	1.2892	3.5455	0.1	-0.36224
22587	1.3813	3.4545	0.1	-0.18151
22588	1.2892	3.7273	0.1	-0.36148
22589	1.3813	3.6364	0.1	-0.18119
22590	1.2892	3.9091	0.1	-0.36077
22591	1.3813	3.8182	0.1	-0.18106
22592	1.2892	4.0909	0.1	-0.36068
22593	1.3813	4.	0.1	-0.18163
22594	1.2892	4.2727	0.1	-0.36242
22595	1.3813	4.1818	0.1	-0.18394
22596	1.2892	4.4545	0.1	-0.36853
22597	1.3813	4.3636	0.1	-0.18988
22598	1.2892	4.6364	0.1	-0.38334
22599	1.3813	4.5455	0.1	-0.20309
22600	1.2892	4.8182	0.1	-0.41547
22601	1.3813	4.7273	0.1	-0.22894
22602	1.2892	5.	0.1	-0.47405
22603	1.3813	4.9091	0.1	-0.27886
22604	1.2892	5.1818	0.1	-0.59144
22605	1.3813	5.0909	0.1	-0.35907
22606	1.2892	5.3636	0.1	-0.74822
22607	1.3813	5.2727	0.1	-0.52705
22608	1.2892	5.5455	0.1	-1.3587
22609	1.3813	5.4545	0.1	-0.70101
22610	1.2892	5.7273	0.1	-3.6417
22611	1.3813	5.6364	0.1	-1.8658
22612	1.3813	5.8182	0.1	-18.365
22613	1.2892	5.9091	0.1	-20.349
22614	1.4733	0.27273	0.1	-2.8543
22615	1.5654	0.18182	0.1	-11.908
22616	1.4733	9.0909e-002	0.1	-10.171
22617	1.4733	0.45455	0.1	-1.0026
22618	1.5654	0.36364	0.1	-1.567
22619	1.4733	0.63636	0.1	-0.4286
22620	1.5654	0.54545	0.1	-0.53082
22621	1.4733	0.81818	0.1	-0.27235
22622	1.5654	0.72727	0.1	-0.37741
22623	1.4733	1.	0.1	-0.15163
22624	1.5654	0.90909	0.1	-0.22265
22625	1.4733	1.1818	0.1	-8.4848e-002
22626	1.5654	1.0909	0.1	-0.14438
22627	1.4733	1.3636	0.1	-4.3872e-002
22628	1.5654	1.2727	0.1	-9.2411e-002
22629	1.4733	1.5455	0.1	-2.1244e-002
22630	1.5654	1.4545	0.1	-6.2874e-002
22631	1.4733	1.7273	0.1	-9.2059e-003
22632	1.5654	1.6364	0.1	-4.6215e-002
22633	1.4733	1.9091	0.1	-3.3514e-003
22634	1.5654	1.8182	0.1	-3.7673e-002
22635	1.4733	2.0909	0.1	-8.0292e-004
22636	1.5654	2.	0.1	-3.3709e-002
22637	1.4733	2.2727	0.1	8.2004e-005
22638	1.5654	2.1818	0.1	-3.2223e-002
22639	1.4733	2.4545	0.1	2.238e-004
22640	1.5654	2.3636	0.1	-3.194e-002
22641	1.4733	2.6364	0.1	1.0504e-004
22642	1.5654	2.5455	0.1	-3.214e-002
22643	1.4733	2.8182	0.1	-3.5152e-005
22644	1.5654	2.7273	0.1	-3.2431e-002
22645	1.4733	3.	0.1	-9.1661e-005
22646	1.5654	2.9091	0.1	-3.2616e-002
22647	1.4733	3.1818	0.1	-3.5155e-005
22648	1.5654	3.0909	0.1	-3.2616e-002
22649	1.4733	3.3636	0.1	1.051e-004
22650	1.5654	3.2727	0.1	-3.2431e-002
22651	1.4733	3.5455	0.1	2.2385e-004
22652	1.5654	3.4545	0.1	-3.2139e-002
22653	1.4733	3.7273	0.1	8.2086e-005
22654	1.5654	3.6364	0.1	-3.194e-002
22655	1.4733	3.9091	0.1	-8.0281e-004
22656	1.5654	3.8182	0.1	-3.2223e-002
22657	1.4733	4.0909	0.1	-3.3514e-003
22658	1.5654	4.	0.1	-3.3709e-002
22659	1.4733	4.2727	0.1	-9.2058e-003
22660	1.5654	4.1818	0.1	-3.7673e-002
22661	1.4733	4.4545	0.1	-2.1244e-002
22662	1.5654	4.3636	0.1	-4.6215e-002
22663	1.4733	4.6364	0.1	-4.3872e-002
22664	1.5654	4.5455	0.1	-6.2874e-002
22665	1.4733	4.8182	0.1	-8.4848e-002
22666	1.5654	4.7273	0.1	-9.2411e-002
22667	1.4733	5.	0.1	-0.15163
22668	1.5654	4.9091	0.1	-0.14438
22669	1.4733	5.1818	0.1	-0.27235
22670	1.5654	5.0909	0.1	-0.22265
22671	1.4733	5.3636	0.1	-0.4286
22672	1.5654	5.2727	0.1	-0.37741
22673	1.4733	5.5455	0.1	-1.0026
22674	1.5654	5.4545	0.1	-0.53082
22675	1.4733	5.7273	0.1	-2.8543
22676	1.5654	5.6364	0.1	-1.567
22677	1.5654	5.8182	0.1	-11.908
22678	1.4733	5.9091	0.1	-10.171
22679	1.6575	0.27273	0.1	-2.3744
22680	1.7496	0.18182	0.1	-8.0173
22681	1.6575	9.0909e-002	0.1	-3.9054
22682	1.6575	0.45455	0.1	-0.93135
22683	1.7496	0.36364	0.1	-1.3912
22684	1.6575	0.63636	0.1	-0.43771
22685	1.7496	0.54545	0.1	-0.48631
22686	1.6575	0.81818	0.1	-0.30945
22687	1.7496	0.72727	0.1	-0.3615
22688	1.6575	1.	0.1	-0.20532
22689	1.7496	0.90909	0.1	-0.22655
22690	1.6575	1.1818	0.1	-0.14568
22691	1.7496	1.0909	0.1	-0.15666
22692	1.6575	1.3636	0.1	-0.10727
22693	1.7496	1.2727	0.1	-0.10798
22694	1.6575	1.5455	0.1	-8.4992e-002
22695	1.7496	1.4545	0.1	-7.8708e-002
22696	1.6575	1.7273	0.1	-7.2664e-002
22697	1.7496	1.6364	0.1	-6.1182e-002
22698	1.6575	1.9091	0.1	-6.6564e-002
22699	1.7496	1.8182	0.1	-5.1573e-002
22700	1.6575	2.0909	0.1	-6.4031e-002
22701	1.7496	2.	0.1	-4.6771e-002
22702	1.6575	2.2727	0.1	-6.339e-002
22703	1.7496	2.1818	0.1	-4.4773e-002
22704	1.6575	2.4545	0.1	-6.3608e-002
22705	1.7496	2.3636	0.1	-4.4253e-002
22706	1.6575	2.6364	0.1	-6.4079e-002
22707	1.7496	2.5455	0.1	-4.4393e-002
22708	1.6575	2.8182	0.1	-6.4469e-002
22709	1.7496	2.7273	0.1	-4.4703e-002
22710	1.6575	3.	0.1	-6.4616e-002
22711	1.7496	2.9091	0.1	-4.4916e-002
22712	1.6575	3.1818	0.1	-6.4469e-002
22713	1.7496	3.0909	0.1	-4.4916e-002
22714	1.6575	3.3636	0.1	-6.4079e-002
22715	1.7496	3.2727	0.1	-4.4703e-002
22716	1.6575	3.5455	0.1	-6.3608e-002
22717	1.7496	3.4545	0.1	-4.4392e-002
22718	1.6575	3.7273	0.1	-6.339e-002
22719	1.7496	3.6364	0.1	-4.4253e-002
22720	1.6575	3.9091	0.1	-6.4031e-002
22721	1.7496	3.8182	0.1	-4.4773e-002
22722	1.6575	4.0909	0.1	-6.6564e-002
22723	1.7496	4.	0.1	-4.6771e-002
22724	1.6575	4.2727	0.1	-7.2664e-002
22725	1.7496	4.1818	0.1	-5.1573e-002
22726	1.6575	4.4545	0.1	-8.4992e-002
22727	1.7496	4.3636	0.1	-6.1182e-002
22728	1.6575	4.6364	0.1	-0.10727
22729	1.7496	4.5455	0.1	-7.8708e-002
22730	1.6575	4.8182	0.1	-0.14568
22731	1.7496	4.7273	0.1	-0.10798
22732	1.6575	5.	0.1	-0.20532
22733	1.7496	4.9091	0.1	-0.15666
22734	1.6575	5.1818	0.1	-0.30945
22735	1.7496	5.0909	0.1	-0.22655
22736	1.6575	5.3636	0.1	-0.43771
22737	1.7496	5.2727	0.1	-0.3615
22738	1.6575	5.5455	0.1	-0.93135
22739	1.7496	5.4545	0.1	-0.48631
22740	1.6575	5.7273	0.1	-2.3744
22741	1.7496	5.6364	0.1	-1.3912
22742	1.7496	5.8182	0.1	-8.0173
22743	1.6575	5.9091	0.1	-3.9054
22744	1.8417	0.27273	0.1	-1.9651
22745	1.9338	0.18182	0.1	-5.6358
22746	1.8417	9.0909e-002	0.1	-1.8169
22747	1.8417	0.45455	0.1	-0.81396
22748	1.9338	0.36364	0.1	-1.2254
22749	1.8417	0.63636	0.1	-0.3753
22750	1.9338	0.54545	0.1	-0.42428
22751	1.8417	0.81818	0.1	-0.26341
22752	1.9338	0.72727	0.1	-0.31942
22753	1.8417	1.	0.1	-0.16949
22754	1.9338	0.90909	0.1	-0.19957
22755	1.8417	1.1818	0.1	-0.11369
22756	1.9338	1.0909	0.1	-0.13624
22757	1.8417	1.3636	0.1	-7.5873e-002
22758	1.9338	1.2727	0.1	-9.0284e-002
22759	1.8417	1.5455	0.1	-5.2395e-002
22760	1.9338	1.4545	0.1	-6.1095e-002
22761	1.8417	1.7273	0.1	-3.827e-002
22762	1.9338	1.6364	0.1	-4.2451e-002
22763	1.8417	1.9091	0.1	-3.0419e-002
22764	1.9338	1.8182	0.1	-3.1329e-002
22765	1.8417	2.0909	0.1	-2.6466e-002
22766	1.9338	2.	0.1	-2.5088e-002
22767	1.8417	2.2727	0.1	-2.4802e-002
22768	1.9338	2.1818	0.1	-2.1922e-002
22769	1.8417	2.4545	0.1	-2.4347e-002
22770	1.9338	2.3636	0.1	-2.055e-002
22771	1.8417	2.6364	0.1	-2.4416e-002
22772	1.9338	2.5455	0.1	-2.0121e-002
22773	1.8417	2.8182	0.1	-2.4599e-002
22774	1.9338	2.7273	0.1	-2.0092e-002
22775	1.8417	3.	0.1	-2.4682e-002
22776	1.9338	2.9091	0.1	-2.0149e-002
22777	1.8417	3.1818	0.1	-2.4599e-002
22778	1.9338	3.0909	0.1	-2.0149e-002
22779	1.8417	3.3636	0.1	-2.4416e-002
22780	1.9338	3.2727	0.1	-2.0092e-002
22781	1.8417	3.5455	0.1	-2.4347e-002
22782	1.9338	3.4545	0.1	-2.012e-002
22783	1.8417	3.7273	0.1	-2.4802e-002
22784	1.9338	3.6364	0.1	-2.055e-002
22785	1.8417	3.9091	0.1	-2.6466e-002
22786	1.9338	3.8182	0.1	-2.1922e-002
22787	1.8417	4.0909	0.1	-3.0419e-002
22788	1.9338	4.	0.1	-2.5088e-002
22789	1.8417	4.2727	0.1	-3.827e-002
22790	1.9338	4.1818	0.1	-3.1328e-002
22791	1.8417	4.4545	0.1	-5.2394e-002
22792	1.9338	4.3636	0.1	-4.2451e-002
22793	1.8417	4.6364	0.1	-7.5872e-002
22794	1.9338	4.5455	0.1	-6.1095e-002
22795	1.8417	4.8182	0.1	-0.11369
22796	1.9338	4.7273	0.1	-9.0284e-002
22797	1.8417	5.	0.1	-0.16949
22798	1.9338	4.9091	0.1	-0.13624
22799	1.8417	5.1818	0.1	-0.26341
22800	1.9338	5.0909	0.1	-0.19957
22801	1.8417	5.3636	0.1	-0.3753
22802	1.9338	5.2727	0.1	-0.31942
22803	1.8417	5.5455	0.1	-0.81396
22804	1.9338	5.4545	0.1	-0.42428
22805	1.8417	5.7273	0.1	-1.9651
22806	1.9338	5.6364	0.1	-1.2254
22807	1.9338	5.8182	0.1	-5.6358
22808	1.8417	5.9091	0.1	-1.8169
22809	2.0258	0.27273	0.1	-1.6501
22810	2.1179	0.18182	0.1	-4.1251
22811	2.0258	9.0909e-002	0.1	-1.1998
22812	2.0258	0.45455	0.1	-0.72789
22813	2.1179	0.36364	0.1	-1.0891
22814	2.0258	0.63636	0.1	-0.33916
22815	2.1179	0.54545	0.1	-0.37736
22816	2.0258	0.81818	0.1	-0.24277
22817	2.1179	0.72727	0.1	-0.2895
22818	2.0258	1.	0.1	-0.15923
22819	2.1179	0.90909	0.1	-0.18323
22820	2.0258	1.1818	0.1	-0.10836
22821	2.1179	1.0909	0.1	-0.12642
22822	2.0258	1.3636	0.1	-7.2461e-002
22823	2.1179	1.2727	0.1	-8.38e-002
22824	2.0258	1.5455	0.1	-4.8967e-002
22825	2.1179	1.4545	0.1	-5.5535e-002
22826	2.0258	1.7273	0.1	-3.3886e-002
22827	2.1179	1.6364	0.1	-3.6498e-002
22828	2.0258	1.9091	0.1	-2.4756e-002
22829	2.1179	1.8182	0.1	-2.4344e-002
22830	2.0258	2.0909	0.1	-1.9567e-002
22831	2.1179	2.	0.1	-1.6902e-002
22832	2.0258	2.2727	0.1	-1.6876e-002
22833	2.1179	2.1818	0.1	-1.2618e-002
22834	2.0258	2.4545	0.1	-1.5654e-002
22835	2.1179	2.3636	0.1	-1.0333e-002
22836	2.0258	2.6364	0.1	-1.5207e-002
22837	2.1179	2.5455	0.1	-9.2328e-003
22838	2.0258	2.8182	0.1	-1.5097e-002
22839	2.1179	2.7273	0.1	-8.7706e-003
22840	2.0258	3.	0.1	-1.5086e-002
22841	2.1179	2.9091	0.1	-8.617e-003
22842	2.0258	3.1818	0.1	-1.5097e-002
22843	2.1179	3.0909	0.1	-8.617e-003
22844	2.0258	3.3636	0.1	-1.5207e-002
22845	2.1179	3.2727	0.1	-8.7706e-003
22846	2.0258	3.5455	0.1	-1.5654e-002
22847	2.1179	3.4545	0.1	-9.2328e-003
22848	2.0258	3.7273	0.1	-1.6876e-002
22849	2.1179	3.6364	0.1	-1.0333e-002
22850	2.0258	3.9091	0.1	-1.9567e-002
22851	2.1179	3.8182	0.1	-1.2618e-002
22852	2.0258	4.0909	0.1	-2.4756e-002
22853	2.1179	4.	0.1	-1.6901e-002
22854	2.0258	4.2727	0.1	-3.3886e-002
22855	2.1179	4.1818	0.1	-2.4344e-002
22856	2.0258	4.4545	0.1	-4.8967e-002
22857	2.1179	4.3636	0.1	-3.6498e-002
22858	2.0258	4.6364	0.1	-7.2461e-002
22859	2.1179	4.5455	0.1	-5.5535e-002
22860	2.0258	4.8182	0.1	-0.10836
22861	2.1179	4.7273	0.1	-8.3799e-002
22862	2.0258	5.	0.1	-0.15923
22863	2.1179	4.9091	0.1	-0.12642
22864	2.0258	5.1818	0.1	-0.24277
22865	2.1179	5.0909	0.1	-0.18323
22866	2.0258	5.3636	0.1	-0.33916
22867	2.1179	5.2727	0.1	-0.2895
22868	2.0258	5.5455	0.1	-0.72789
22869	2.1179	5.4545	0.1	-0.37736
22870	2.0258	5.7273	0.1	-1.6501
22871	2.1179	5.6364	0.1	-1.0891
22872	2.1179	5.8182	0.1	-4.1251
22873	2.0258	5.9091	0.1	-1.1998
22874	2.21	0.27273	0.1	-1.3961
22875	2.3021	0.18182	0.1	-3.12
22876	2.21	9.0909e-002	0.1	-0.92342
22877	2.21	0.45455	0.1	-0.64978
22878	2.3021	0.36364	0.1	-0.97116
22879	2.21	0.63636	0.1	-0.30289
22880	2.3021	0.54545	0.1	-0.33518
22881	2.21	0.81818	0.1	-0.21904
22882	2.3021	0.72727	0.1	-0.261
22883	2.21	1.	0.1	-0.14436
22884	2.3021	0.90909	0.1	-0.16631
22885	2.21	1.1818	0.1	-9.8032e-002
22886	2.3021	1.0909	0.1	-0.11533
22887	2.21	1.3636	0.1	-6.425e-002
22888	2.3021	1.2727	0.1	-7.6054e-002
22889	2.21	1.5455	0.1	-4.1162e-002
22890	2.3021	1.4545	0.1	-4.9084e-002
22891	2.21	1.7273	0.1	-2.5519e-002
22892	2.3021	1.6364	0.1	-3.011e-002
22893	2.21	1.9091	0.1	-1.537e-002
22894	2.3021	1.8182	0.1	-1.7313e-002
22895	2.21	2.0909	0.1	-9.0545e-003
22896	2.3021	2.	0.1	-8.9256e-003
22897	2.21	2.2727	0.1	-5.3325e-003
22898	2.3021	2.1818	0.1	-3.6571e-003
22899	2.21	2.4545	0.1	-3.2761e-003
22900	2.3021	2.3636	0.1	-4.9896e-004
22901	2.21	2.6364	0.1	-2.2299e-003
22902	2.3021	2.5455	0.1	1.2857e-003
22903	2.21	2.8182	0.1	-1.763e-003
22904	2.3021	2.7273	0.1	2.2109e-003
22905	2.21	3.	0.1	-1.6334e-003
22906	2.3021	2.9091	0.1	2.5968e-003
22907	2.21	3.1818	0.1	-1.763e-003
22908	2.3021	3.0909	0.1	2.5968e-003
22909	2.21	3.3636	0.1	-2.2298e-003
22910	2.3021	3.2727	0.1	2.211e-003
22911	2.21	3.5455	0.1	-3.276e-003
22912	2.3021	3.4545	0.1	1.2858e-003
22913	2.21	3.7273	0.1	-5.3324e-003
22914	2.3021	3.6364	0.1	-4.9871e-004
22915	2.21	3.9091	0.1	-9.0543e-003
22916	2.3021	3.8182	0.1	-3.6569e-003
22917	2.21	4.0909	0.1	-1.5369e-002
22918	2.3021	4.	0.1	-8.9253e-003
22919	2.21	4.2727	0.1	-2.5518e-002
22920	2.3021	4.1818	0.1	-1.7312e-002
22921	2.21	4.4545	0.1	-4.1161e-002
22922	2.3021	4.3636	0.1	-3.011e-002
22923	2.21	4.6364	0.1	-6.4249e-002
22924	2.3021	4.5455	0.1	-4.9084e-002
22925	2.21	4.8182	0.1	-9.8031e-002
22926	2.3021	4.7273	0.1	-7.6054e-002
22927	2.21	5.	0.1	-0.14436
22928	2.3021	4.9091	0.1	-0.11533
22929	2.21	5.1818	0.1	-0.21904
22930	2.3021	5.0909	0.1	-0.16631
22931	2.21	5.3636	0.1	-0.30289
22932	2.3021	5.2727	0.1	-0.261
22933	2.21	5.5455	0.1	-0.64977
22934	2.3021	5.4545	0.1	-0.33518
22935	2.21	5.7273	0.1	-1.3961
22936	2.3021	5.6364	0.1	-0.97116
22937	2.3021	5.8182	0.1	-3.12
22938	2.21	5.9091	0.1	-0.92342
22939	2.3942	0.27273	0.1	-1.1912
22940	2.4862	0.18182	0.1	-2.4227
22941	2.3942	9.0909e-002	0.1	-0.7631
22942	2.3942	0.45455	0.1	-0.58269
22943	2.4862	0.36364	0.1	-0.86949
22944	2.3942	0.63636	0.1	-0.27206
22945	2.4862	0.54545	0.1	-0.29884
22946	2.3942	0.81818	0.1	-0.19888
22947	2.4862	0.72727	0.1	-0.23596
22948	2.3942	1.	0.1	-0.13207
22949	2.4862	0.90909	0.1	-0.15133
22950	2.3942	1.1818	0.1	-9.0058e-002
22951	2.4862	1.0909	0.1	-0.1056
22952	2.3942	1.3636	0.1	-5.8616e-002
22953	2.4862	1.2727	0.1	-6.9597e-002
22954	2.3942	1.5455	0.1	-3.637e-002
22955	2.4862	1.4545	0.1	-4.4189e-002
22956	2.3942	1.7273	0.1	-2.0634e-002
22957	2.4862	1.6364	0.1	-2.5675e-002
22958	2.3942	1.9091	0.1	-9.8648e-003
22959	2.4862	1.8182	0.1	-1.2633e-002
22960	2.3942	2.0909	0.1	-2.7108e-003
22961	2.4862	2.	0.1	-3.6308e-003
22962	2.3942	2.2727	0.1	1.8629e-003
22963	2.4862	2.1818	0.1	2.3856e-003
22964	2.3942	2.4545	0.1	4.6586e-003
22965	2.4862	2.3636	0.1	6.2654e-003
22966	2.3942	2.6364	0.1	6.2627e-003
22967	2.4862	2.5455	0.1	8.6481e-003
22968	2.3942	2.8182	0.1	7.0732e-003
22969	2.4862	2.7273	0.1	9.9937e-003
22970	2.3942	3.	0.1	7.3185e-003
22971	2.4862	2.9091	0.1	1.0595e-002
22972	2.3942	3.1818	0.1	7.0732e-003
22973	2.4862	3.0909	0.1	1.0595e-002
22974	2.3942	3.3636	0.1	6.2628e-003
22975	2.4862	3.2727	0.1	9.9938e-003
22976	2.3942	3.5455	0.1	4.6587e-003
22977	2.4862	3.4545	0.1	8.6482e-003
22978	2.3942	3.7273	0.1	1.8632e-003
22979	2.4862	3.6364	0.1	6.2656e-003
22980	2.3942	3.9091	0.1	-2.7105e-003
22981	2.4862	3.8182	0.1	2.3859e-003
22982	2.3942	4.0909	0.1	-9.8645e-003
22983	2.4862	4.	0.1	-3.6304e-003
22984	2.3942	4.2727	0.1	-2.0634e-002
22985	2.4862	4.1818	0.1	-1.2632e-002
22986	2.3942	4.4545	0.1	-3.6369e-002
22987	2.4862	4.3636	0.1	-2.5675e-002
22988	2.3942	4.6364	0.1	-5.8615e-002
22989	2.4862	4.5455	0.1	-4.4188e-002
22990	2.3942	4.8182	0.1	-9.0057e-002
22991	2.4862	4.7273	0.1	-6.9597e-002
22992	2.3942	5.	0.1	-0.13207
22993	2.4862	4.9091	0.1	-0.1056
22994	2.3942	5.1818	0.1	-0.19888
22995	2.4862	5.0909	0.1	-0.15133
22996	2.3942	5.3636	0.1	-0.27206
22997	2.4862	5.2727	0.1	-0.23596
22998	2.3942	5.5455	0.1	-0.58268
22999	2.4862	5.4545	0.1	-0.29884
23000	2.3942	5.7273	0.1	-1.1912
23001	2.4862	5.6364	0.1	-0.86949
23002	2.4862	5.8182	0.1	-2.4227
23003	2.3942	5.9091	0.1	-0.7631
23004	2.5783	0.27273	0.1	-1.0236
23005	2.6704	0.18182	0.1	-1.9212
23006	2.5783	9.0909e-002	0.1	-0.65493
23007	2.5783	0.45455	0.1	-0.52366
23008	2.6704	0.36364	0.1	-0.78089
23009	2.5783	0.63636	0.1	-0.24444
23010	2.6704	0.54545	0.1	-0.26691
23011	2.5783	0.81818	0.1	-0.18026
23012	2.6704	0.72727	0.1	-0.21336
23013	2.5783	1.	0.1	-0.12033
23014	2.6704	0.90909	0.1	-0.13747
23015	2.5783	1.1818	0.1	-8.2274e-002
23016	2.6704	1.0909	0.1	-9.6394e-002
23017	2.5783	1.3636	0.1	-5.3191e-002
23018	2.6704	1.2727	0.1	-6.3494e-002
23019	2.5783	1.5455	0.1	-3.2037e-002
23020	2.6704	1.4545	0.1	-3.9762e-002
23021	2.5783	1.7273	0.1	-1.6551e-002
23022	2.6704	1.6364	0.1	-2.1976e-002
23023	2.5783	1.9091	0.1	-5.5019e-003
23024	2.6704	1.8182	0.1	-9.006e-003
23025	2.5783	2.0909	0.1	2.2049e-003
23026	2.6704	2.	0.1	3.1104e-004
23027	2.5783	2.2727	0.1	7.4165e-003
23028	2.6704	2.1818	0.1	6.8283e-003
23029	2.5783	2.4545	0.1	1.0807e-002
23030	2.6704	2.3636	0.1	1.1246e-002
23031	2.5783	2.6364	0.1	1.288e-002
23032	2.6704	2.5455	0.1	1.4102e-002
23033	2.5783	2.8182	0.1	1.3988e-002
23034	2.6704	2.7273	0.1	1.5793e-002
23035	2.5783	3.	0.1	1.4335e-002
23036	2.6704	2.9091	0.1	1.6575e-002
23037	2.5783	3.1818	0.1	1.3988e-002
23038	2.6704	3.0909	0.1	1.6575e-002
23039	2.5783	3.3636	0.1	1.288e-002
23040	2.6704	3.2727	0.1	1.5793e-002
23041	2.5783	3.5455	0.1	1.0807e-002
23042	2.6704	3.4545	0.1	1.4102e-002
23043	2.5783	3.7273	0.1	7.4168e-003
23044	2.6704	3.6364	0.1	1.1246e-002
23045	2.5783	3.9091	0.1	2.2052e-003
23046	2.6704	3.8182	0.1	6.8286e-003
23047	2.5783	4.0909	0.1	-5.5017e-003
23048	2.6704	4.	0.1	3.113e-004
23049	2.5783	4.2727	0.1	-1.6551e-002
23050	2.6704	4.1818	0.1	-9.0057e-003
23051	2.5783	4.4545	0.1	-3.2037e-002
23052	2.6704	4.3636	0.1	-2.1976e-002
23053	2.5783	4.6364	0.1	-5.319e-002
23054	2.6704	4.5455	0.1	-3.9761e-002
23055	2.5783	4.8182	0.1	-8.2274e-002
23056	2.6704	4.7273	0.1	-6.3494e-002
23057	2.5783	5.	0.1	-0.12033
23058	2.6704	4.9091	0.1	-9.6394e-002
23059	2.5783	5.1818	0.1	-0.18026
23060	2.6704	5.0909	0.1	-0.13747
23061	2.5783	5.3636	0.1	-0.24444
23062	2.6704	5.2727	0.1	-0.21336
23063	2.5783	5.5455	0.1	-0.52365
23064	2.6704	5.4545	0.1	-0.26691
23065	2.5783	5.7273	0.1	-1.0236
23066	2.6704	5.6364	0.1	-0.78089
23067	2.6704	5.8182	0.1	-1.9212
23068	2.5783	5.9091	0.1	-0.65493
23069	2.7625	0.27273	0.1	-0.88518
23070	2.8546	0.18182	0.1	-1.5497
23071	2.7625	9.0909e-002	0.1	-0.57505
23072	2.7625	0.45455	0.1	-0.47171
23073	2.8546	0.36364	0.1	-0.70329
23074	2.7625	0.63636	0.1	-0.21996
23075	2.8546	0.54545	0.1	-0.23887
23076	2.7625	0.81818	0.1	-0.16346
23077	2.8546	0.72727	0.1	-0.1931
23078	2.7625	1.	0.1	-0.10958
23079	2.8546	0.90909	0.1	-0.12483
23080	2.7625	1.1818	0.1	-7.5113e-002
23081	2.8546	1.0909	0.1	-8.7893e-002
23082	2.7625	1.3636	0.1	-4.8331e-002
23083	2.8546	1.2727	0.1	-5.7875e-002
23084	2.7625	1.5455	0.1	-2.8419e-002
23085	2.8546	1.4545	0.1	-3.5847e-002
23086	2.7625	1.7273	0.1	-1.3438e-002
23087	2.8546	1.6364	0.1	-1.8962e-002
23088	2.7625	1.9091	0.1	-2.3932e-003
23089	2.8546	1.8182	0.1	-6.3071e-003
23090	2.7625	2.0909	0.1	5.6003e-003
23091	2.8546	2.	0.1	3.0715e-003
23092	2.7625	2.2727	0.1	1.1229e-002
23093	2.8546	2.1818	0.1	9.8606e-003
23094	2.7625	2.4545	0.1	1.5048e-002
23095	2.8546	2.3636	0.1	1.463e-002
23096	2.7625	2.6364	0.1	1.7478e-002
23097	2.8546	2.5455	0.1	1.7822e-002
23098	2.7625	2.8182	0.1	1.8819e-002
23099	2.8546	2.7273	0.1	1.977e-002
23100	2.7625	3.	0.1	1.9246e-002
23101	2.8546	2.9091	0.1	2.069e-002
23102	2.7625	3.1818	0.1	1.8819e-002
23103	2.8546	3.0909	0.1	2.069e-002
23104	2.7625	3.3636	0.1	1.7478e-002
23105	2.8546	3.2727	0.1	1.977e-002
23106	2.7625	3.5455	0.1	1.5048e-002
23107	2.8546	3.4545	0.1	1.7822e-002
23108	2.7625	3.7273	0.1	1.1229e-002
23109	2.8546	3.6364	0.1	1.463e-002
23110	2.7625	3.9091	0.1	5.6005e-003
23111	2.8546	3.8182	0.1	9.8608e-003
23112	2.7625	4.0909	0.1	-2.3929e-003
23113	2.8546	4.	0.1	3.0717e-003
23114	2.7625	4.2727	0.1	-1.3437e-002
23115	2.8546	4.1818	0.1	-6.3067e-003
23116	2.7625	4.4545	0.1	-2.8419e-002
23117	2.8546	4.3636	0.1	-1.8962e-002
23118	2.7625	4.6364	0.1	-4.8331e-002
23119	2.8546	4.5455	0.1	-3.5846e-002
23120	2.7625	4.8182	0.1	-7.5113e-002
23121	2.8546	4.7273	0.1	-5.7875e-002
23122	2.7625	5.	0.1	-0.10958
23123	2.8546	4.9091	0.1	-8.7892e-002
23124	2.7625	5.1818	0.1	-0.16346
23125	2.8546	5.0909	0.1	-0.12483
23126	2.7625	5.3636	0.1	-0.21996
23127	2.8546	5.2727	0.1	-0.1931
23128	2.7625	5.5455	0.1	-0.47171
23129	2.8546	5.4545	0.1	-0.23887
23130	2.7625	5.7273	0.1	-0.88518
23131	2.8546	5.6364	0.1	-0.70329
23132	2.8546	5.8182	0.1	-1.5497
23133	2.7625	5.9091	0.1	-0.57504
23134	2.9467	0.27273	0.1	-0.76982
23135	3.0387	0.18182	0.1	-1.2678
23136	2.9467	9.0909e-002	0.1	-0.51244
23137	2.9467	0.45455	0.1	-0.42576
23138	3.0387	0.36364	0.1	-0.6349
23139	2.9467	0.63636	0.1	-0.19816
23140	3.0387	0.54545	0.1	-0.21414
23141	2.9467	0.81818	0.1	-0.14824
23142	3.0387	0.72727	0.1	-0.17487
23143	2.9467	1.	0.1	-9.9678e-002
23144	3.0387	0.90909	0.1	-0.11331
23145	2.9467	1.1818	0.1	-6.8457e-002
23146	3.0387	1.0909	0.1	-8.0032e-002
23147	2.9467	1.3636	0.1	-4.3866e-002
23148	3.0387	1.2727	0.1	-5.2668e-002
23149	2.9467	1.5455	0.1	-2.5259e-002
23150	3.0387	1.4545	0.1	-3.2312e-002
23151	2.9467	1.7273	0.1	-1.0951e-002
23152	3.0387	1.6364	0.1	-1.6424e-002
23153	2.9467	1.9091	0.1	-1.2895e-004
23154	3.0387	1.8182	0.1	-4.2544e-003
23155	2.9467	2.0909	0.1	7.9301e-003
23156	3.0387	2.	0.1	4.9872e-003
23157	2.9467	2.2727	0.1	1.3779e-002
23158	3.0387	2.1818	0.1	1.1855e-002
23159	2.9467	2.4545	0.1	1.7867e-002
23160	3.0387	2.3636	0.1	1.681e-002
23161	2.9467	2.6364	0.1	2.054e-002
23162	3.0387	2.5455	0.1	2.021e-002
23163	2.9467	2.8182	0.1	2.2046e-002
23164	3.0387	2.7273	0.1	2.2327e-002
23165	2.9467	3.	0.1	2.2532e-002
23166	3.0387	2.9091	0.1	2.3341e-002
23167	2.9467	3.1818	0.1	2.2046e-002
23168	3.0387	3.0909	0.1	2.3341e-002
23169	2.9467	3.3636	0.1	2.054e-002
23170	3.0387	3.2727	0.1	2.2327e-002
23171	2.9467	3.5455	0.1	1.7867e-002
23172	3.0387	3.4545	0.1	2.021e-002
23173	2.9467	3.7273	0.1	1.3779e-002
23174	3.0387	3.6364	0.1	1.681e-002
23175	2.9467	3.9091	0.1	7.9304e-003
23176	3.0387	3.8182	0.1	1.1856e-002
23177	2.9467	4.0909	0.1	-1.286e-004
23178	3.0387	4.	0.1	4.9875e-003
23179	2.9467	4.2727	0.1	-1.0951e-002
23180	3.0387	4.1818	0.1	-4.254e-003
23181	2.9467	4.4545	0.1	-2.5259e-002
23182	3.0387	4.3636	0.1	-1.6423e-002
23183	2.9467	4.6364	0.1	-4.3865e-002
23184	3.0387	4.5455	0.1	-3.2311e-002
23185	2.9467	4.8182	0.1	-6.8456e-002
23186	3.0387	4.7273	0.1	-5.2667e-002
23187	2.9467	5.	0.1	-9.9678e-002
23188	3.0387	4.9091	0.1	-8.0032e-002
23189	2.9467	5.1818	0.1	-0.14823
23190	3.0387	5.0909	0.1	-0.11331
23191	2.9467	5.3636	0.1	-0.19816
23192	3.0387	5.2727	0.1	-0.17487
23193	2.9467	5.5455	0.1	-0.42576
23194	3.0387	5.4545	0.1	-0.21414
23195	2.9467	5.7273	0.1	-0.76982
23196	3.0387	5.6364	0.1	-0.6349
23197	3.0387	5.8182	0.1	-1.2678
23198	2.9467	5.9091	0.1	-0.51244
23199	3.1308	0.27273	0.1	-0.67286
23200	3.2229	0.18182	0.1	-1.0495
23201	3.1308	9.0909e-002	0.1	-0.46131
23202	3.1308	0.45455	0.1	-0.38493
23203	3.2229	0.36364	0.1	-0.57432
23204	3.1308	0.63636	0.1	-0.17871
23205	3.2229	0.54545	0.1	-0.19226
23206	3.1308	0.81818	0.1	-0.13445
23207	3.2229	0.72727	0.1	-0.15846
23208	3.1308	1.	0.1	-9.0601e-002
23209	3.2229	0.90909	0.1	-0.10282
23210	3.1308	1.1818	0.1	-6.2301e-002
23211	3.2229	1.0909	0.1	-7.2795e-002
23212	3.1308	1.3636	0.1	-3.9765e-002
23213	3.2229	1.2727	0.1	-4.7858e-002
23214	3.1308	1.5455	0.1	-2.2475e-002
23215	3.2229	1.4545	0.1	-2.9107e-002
23216	3.1308	1.7273	0.1	-8.9449e-003
23217	3.2229	1.6364	0.1	-1.4259e-002
23218	3.1308	1.9091	0.1	1.4985e-003
23219	3.2229	1.8182	0.1	-2.688e-003
23220	3.1308	2.0909	0.1	9.4495e-003
23221	3.2229	2.	0.1	6.27e-003
23222	3.1308	2.2727	0.1	1.5354e-002
23223	3.2229	2.1818	0.1	1.3064e-002
23224	3.1308	2.4545	0.1	1.9572e-002
23225	3.2229	2.3636	0.1	1.8065e-002
23226	3.1308	2.6364	0.1	2.2385e-002
23227	3.2229	2.5455	0.1	2.156e-002
23228	3.1308	2.8182	0.1	2.3993e-002
23229	3.2229	2.7273	0.1	2.377e-002
23230	3.1308	3.	0.1	2.4515e-002
23231	3.2229	2.9091	0.1	2.4838e-002
23232	3.1308	3.1818	0.1	2.3993e-002
23233	3.2229	3.0909	0.1	2.4838e-002
23234	3.1308	3.3636	0.1	2.2385e-002
23235	3.2229	3.2727	0.1	2.377e-002
23236	3.1308	3.5455	0.1	1.9572e-002
23237	3.2229	3.4545	0.1	2.156e-002
23238	3.1308	3.7273	0.1	1.5354e-002
23239	3.2229	3.6364	0.1	1.8065e-002
23240	3.1308	3.9091	0.1	9.4498e-003
23241	3.2229	3.8182	0.1	1.3065e-002
23242	3.1308	4.0909	0.1	1.4989e-003
23243	3.2229	4.	0.1	6.2704e-003
23244	3.1308	4.2727	0.1	-8.9445e-003
23245	3.2229	4.1818	0.1	-2.6877e-003
23246	3.1308	4.4545	0.1	-2.2474e-002
23247	3.2229	4.3636	0.1	-1.4259e-002
23248	3.1308	4.6364	0.1	-3.9765e-002
23249	3.2229	4.5455	0.1	-2.9107e-002
23250	3.1308	4.8182	0.1	-6.2301e-002
23251	3.2229	4.7273	0.1	-4.7858e-002
23252	3.1308	5.	0.1	-9.06e-002
23253	3.2229	4.9091	0.1	-7.2795e-002
23254	3.1308	5.1818	0.1	-0.13445
23255	3.2229	5.0909	0.1	-0.10282
23256	3.1308	5.3636	0.1	-0.17871
23257	3.2229	5.2727	0.1	-0.15846
23258	3.1308	5.5455	0.1	-0.38493
23259	3.2229	5.4545	0.1	-0.19226
23260	3.1308	5.7273	0.1	-0.67286
23261	3.2229	5.6364	0.1	-0.57431
23262	3.2229	5.8182	0.1	-1.0495
23263	3.1308	5.9091	0.1	-0.46131
23264	3.315	0.27273	0.1	-0.59075
23265	3.4071	0.18182	0.1	-0.87771
23266	3.315	9.0909e-002	0.1	-0.41834
23267	3.315	0.45455	0.1	-0.34853
23268	3.4071	0.36364	0.1	-0.52042
23269	3.315	0.63636	0.1	-0.16132
23270	3.4071	0.54545	0.1	-0.17286
23271	3.315	0.81818	0.1	-0.12196
23272	3.4071	0.72727	0.1	-0.14368
23273	3.315	1.	0.1	-8.2298e-002
23274	3.4071	0.90909	0.1	-9.3301e-002
23275	3.315	1.1818	0.1	-5.6629e-002
23276	3.4071	1.0909	0.1	-6.6171e-002
23277	3.315	1.3636	0.1	-3.6004e-002
23278	3.4071	1.2727	0.1	-4.3449e-002
23279	3.315	1.5455	0.1	-2.0003e-002
23280	3.4071	1.4545	0.1	-2.6217e-002
23281	3.315	1.7273	0.1	-7.3061e-003
23282	3.4071	1.6364	0.1	-1.2413e-002
23283	3.315	1.9091	0.1	2.6524e-003
23284	3.4071	1.8182	0.1	-1.506e-003
23285	3.315	2.0909	0.1	1.0367e-002
23286	3.4071	2.	0.1	7.0666e-003
23287	3.315	2.2727	0.1	1.6197e-002
23288	3.4071	2.1818	0.1	1.3673e-002
23289	3.315	2.4545	0.1	2.0433e-002
23290	3.4071	2.3636	0.1	1.861e-002
23291	3.315	2.6364	0.1	2.3298e-002
23292	3.4071	2.5455	0.1	2.211e-002
23293	3.315	2.8182	0.1	2.4953e-002
23294	3.4071	2.7273	0.1	2.4347e-002
23295	3.315	3.	0.1	2.5494e-002
23296	3.4071	2.9091	0.1	2.5437e-002
23297	3.315	3.1818	0.1	2.4953e-002
23298	3.4071	3.0909	0.1	2.5437e-002
23299	3.315	3.3636	0.1	2.3298e-002
23300	3.4071	3.2727	0.1	2.4347e-002
23301	3.315	3.5455	0.1	2.0433e-002
23302	3.4071	3.4545	0.1	2.211e-002
23303	3.315	3.7273	0.1	1.6197e-002
23304	3.4071	3.6364	0.1	1.8611e-002
23305	3.315	3.9091	0.1	1.0367e-002
23306	3.4071	3.8182	0.1	1.3673e-002
23307	3.315	4.0909	0.1	2.6528e-003
23308	3.4071	4.	0.1	7.0671e-003
23309	3.315	4.2727	0.1	-7.3057e-003
23310	3.4071	4.1818	0.1	-1.5056e-003
23311	3.315	4.4545	0.1	-2.0002e-002
23312	3.4071	4.3636	0.1	-1.2412e-002
23313	3.315	4.6364	0.1	-3.6003e-002
23314	3.4071	4.5455	0.1	-2.6216e-002
23315	3.315	4.8182	0.1	-5.6629e-002
23316	3.4071	4.7273	0.1	-4.3448e-002
23317	3.315	5.	0.1	-8.2297e-002
23318	3.4071	4.9091	0.1	-6.6171e-002
23319	3.315	5.1818	0.1	-0.12196
23320	3.4071	5.0909	0.1	-9.33e-002
23321	3.315	5.3636	0.1	-0.16132
23322	3.4071	5.2727	0.1	-0.14368
23323	3.315	5.5455	0.1	-0.34853
23324	3.4071	5.4545	0.1	-0.17286
23325	3.315	5.7273	0.1	-0.59075
23326	3.4071	5.6364	0.1	-0.52042
23327	3.4071	5.8182	0.1	-0.8777
23328	3.315	5.9091	0.1	-0.41834
23329	3.4992	0.27273	0.1	-0.52075
23330	3.5912	0.18182	0.1	-0.74055
23331	3.4992	9.0909e-002	0.1	-0.38148
23332	3.4992	0.45455	0.1	-0.31599
23333	3.5912	0.36364	0.1	-0.47229
23334	3.4992	0.63636	0.1	-0.14577
23335	3.5912	0.54545	0.1	-0.15561
23336	3.4992	0.81818	0.1	-0.11069
23337	3.5912	0.72727	0.1	-0.13037
23338	3.4992	1.	0.1	-7.4755e-002
23339	3.5912	0.90909	0.1	-8.4677e-002
23340	3.4992	1.1818	0.1	-5.1456e-002
23341	3.5912	1.0909	0.1	-6.0132e-002
23342	3.4992	1.3636	0.1	-3.2596e-002
23343	3.5912	1.2727	0.1	-3.9427e-002
23344	3.4992	1.5455	0.1	-1.7834e-002
23345	3.5912	1.4545	0.1	-2.3619e-002
23346	3.4992	1.7273	0.1	-5.9909e-003
23347	3.5912	1.6364	0.1	-1.0837e-002
23348	3.4992	1.9091	0.1	3.4172e-003
23349	3.5912	1.8182	0.1	-6.2767e-004
23350	3.4992	2.0909	0.1	1.0805e-002
23351	3.5912	2.	0.1	7.494e-003
23352	3.4992	2.2727	0.1	1.6466e-002
23353	3.5912	2.1818	0.1	1.3831e-002
23354	3.4992	2.4545	0.1	2.0631e-002
23355	3.5912	2.3636	0.1	1.8625e-002
23356	3.4992	2.6364	0.1	2.3479e-002
23357	3.5912	2.5455	0.1	2.2058e-002
23358	3.4992	2.8182	0.1	2.5137e-002
23359	3.5912	2.7273	0.1	2.4272e-002
23360	3.4992	3.	0.1	2.5682e-002
23361	3.5912	2.9091	0.1	2.5356e-002
23362	3.4992	3.1818	0.1	2.5137e-002
23363	3.5912	3.0909	0.1	2.5356e-002
23364	3.4992	3.3636	0.1	2.3479e-002
23365	3.5912	3.2727	0.1	2.4272e-002
23366	3.4992	3.5455	0.1	2.0631e-002
23367	3.5912	3.4545	0.1	2.2058e-002
23368	3.4992	3.7273	0.1	1.6466e-002
23369	3.5912	3.6364	0.1	1.8625e-002
23370	3.4992	3.9091	0.1	1.0805e-002
23371	3.5912	3.8182	0.1	1.3831e-002
23372	3.4992	4.0909	0.1	3.4177e-003
23373	3.5912	4.	0.1	7.4944e-003
23374	3.4992	4.2727	0.1	-5.9905e-003
23375	3.5912	4.1818	0.1	-6.2722e-004
23376	3.4992	4.4545	0.1	-1.7834e-002
23377	3.5912	4.3636	0.1	-1.0837e-002
23378	3.4992	4.6364	0.1	-3.2595e-002
23379	3.5912	4.5455	0.1	-2.3618e-002
23380	3.4992	4.8182	0.1	-5.1455e-002
23381	3.5912	4.7273	0.1	-3.9426e-002
23382	3.4992	5.	0.1	-7.4755e-002
23383	3.5912	4.9091	0.1	-6.0132e-002
23384	3.4992	5.1818	0.1	-0.11069
23385	3.5912	5.0909	0.1	-8.4676e-002
23386	3.4992	5.3636	0.1	-0.14577
23387	3.5912	5.2727	0.1	-0.13037
23388	3.4992	5.5455	0.1	-0.31599
23389	3.5912	5.4545	0.1	-0.15561
23390	3.4992	5.7273	0.1	-0.52075
23391	3.5912	5.6364	0.1	-0.47229
23392	3.5912	5.8182	0.1	-0.74055
23393	3.4992	5.9091	0.1	-0.38148
23394	3.6833	0.27273	0.1	-0.46071
23395	3.7754	0.18182	0.1	-0.62977
23396	3.6833	9.0909e-002	0.1	-0.34935
23397	3.6833	0.45455	0.1	-0.2868
23398	3.7754	0.36364	0.1	-0.42914
23399	3.6833	0.63636	0.1	-0.13183
23400	3.7754	0.54545	0.1	-0.14025
23401	3.6833	0.81818	0.1	-0.1005
23402	3.7754	0.72727	0.1	-0.11835
23403	3.6833	1.	0.1	-6.7894e-002
23404	3.7754	0.90909	0.1	-7.686e-002
23405	3.6833	1.1818	0.1	-4.6733e-002
23406	3.7754	1.0909	0.1	-5.4631e-002
23407	3.6833	1.3636	0.1	-2.9498e-002
23408	3.7754	1.2727	0.1	-3.5762e-002
23409	3.6833	1.5455	0.1	-1.5913e-002
23410	3.7754	1.4545	0.1	-2.128e-002
23411	3.6833	1.7273	0.1	-4.918e-003
23412	3.7754	1.6364	0.1	-9.4832e-003
23413	3.6833	1.9091	0.1	3.905e-003
23414	3.7754	1.8182	0.1	2.1507e-005
23415	3.6833	2.0909	0.1	1.0908e-002
23416	3.7754	2.	0.1	7.6547e-003
23417	3.6833	2.2727	0.1	1.6331e-002
23418	3.7754	2.1818	0.1	1.3669e-002
23419	3.6833	2.4545	0.1	2.0362e-002
23420	3.7754	2.3636	0.1	1.8261e-002
23421	3.6833	2.6364	0.1	2.314e-002
23422	3.7754	2.5455	0.1	2.1578e-002
23423	3.6833	2.8182	0.1	2.4768e-002
23424	3.7754	2.7273	0.1	2.373e-002
23425	3.6833	3.	0.1	2.5304e-002
23426	3.7754	2.9091	0.1	2.4788e-002
23427	3.6833	3.1818	0.1	2.4768e-002
23428	3.7754	3.0909	0.1	2.4788e-002
23429	3.6833	3.3636	0.1	2.314e-002
23430	3.7754	3.2727	0.1	2.373e-002
23431	3.6833	3.5455	0.1	2.0362e-002
23432	3.7754	3.4545	0.1	2.1578e-002
23433	3.6833	3.7273	0.1	1.6332e-002
23434	3.7754	3.6364	0.1	1.8262e-002
23435	3.6833	3.9091	0.1	1.0908e-002
23436	3.7754	3.8182	0.1	1.3669e-002
23437	3.6833	4.0909	0.1	3.9054e-003
23438	3.7754	4.	0.1	7.6551e-003
23439	3.6833	4.2727	0.1	-4.9174e-003
23440	3.7754	4.1818	0.1	2.1973e-005
23441	3.6833	4.4545	0.1	-1.5913e-002
23442	3.7754	4.3636	0.1	-9.4827e-003
23443	3.6833	4.6364	0.1	-2.9497e-002
23444	3.7754	4.5455	0.1	-2.128e-002
23445	3.6833	4.8182	0.1	-4.6732e-002
23446	3.7754	4.7273	0.1	-3.5762e-002
23447	3.6833	5.	0.1	-6.7894e-002
23448	3.7754	4.9091	0.1	-5.463e-002
23449	3.6833	5.1818	0.1	-0.10049
23450	3.7754	5.0909	0.1	-7.6859e-002
23451	3.6833	5.3636	0.1	-0.13183
23452	3.7754	5.2727	0.1	-0.11835
23453	3.6833	5.5455	0.1	-0.2868
23454	3.7754	5.4545	0.1	-0.14025
23455	3.6833	5.7273	0.1	-0.4607
23456	3.7754	5.6364	0.1	-0.42914
23457	3.7754	5.8182	0.1	-0.62977
23458	3.6833	5.9091	0.1	-0.34935
23459	3.8675	0.27273	0.1	-0.4089
23460	3.9596	0.18182	0.1	-0.53941
23461	3.8675	9.0909e-002	0.1	-0.32103
23462	3.8675	0.45455	0.1	-0.26055
23463	3.9596	0.36364	0.1	-0.39035
23464	3.8675	0.63636	0.1	-0.11931
23465	3.9596	0.54545	0.1	-0.12653
23466	3.8675	0.81818	0.1	-9.1268e-002
23467	3.9596	0.72727	0.1	-0.1075
23468	3.8675	1.	0.1	-6.1664e-002
23469	3.9596	0.90909	0.1	-6.9793e-002
23470	3.8675	1.1818	0.1	-4.2434e-002
23471	3.9596	1.0909	0.1	-4.9643e-002
23472	3.8675	1.3636	0.1	-2.6692e-002
23473	3.9596	1.2727	0.1	-3.2448e-002
23474	3.8675	1.5455	0.1	-1.4216e-002
23475	3.9596	1.4545	0.1	-1.9195e-002
23476	3.8675	1.7273	0.1	-4.0457e-003
23477	3.9596	1.6364	0.1	-8.3346e-003
23478	3.8675	1.9091	0.1	4.1801e-003
23479	3.9596	1.8182	0.1	4.7545e-004
23480	3.8675	2.0909	0.1	1.0764e-002
23481	3.9596	2.	0.1	7.6041e-003
23482	3.8675	2.2727	0.1	1.5906e-002
23483	3.9596	2.1818	0.1	1.3264e-002
23484	3.8675	2.4545	0.1	1.9757e-002
23485	3.9596	2.3636	0.1	1.7618e-002
23486	3.8675	2.6364	0.1	2.2429e-002
23487	3.9596	2.5455	0.1	2.0782e-002
23488	3.8675	2.8182	0.1	2.4001e-002
23489	3.9596	2.7273	0.1	2.2846e-002
23490	3.8675	3.	0.1	2.452e-002
23491	3.9596	2.9091	0.1	2.3864e-002
23492	3.8675	3.1818	0.1	2.4001e-002
23493	3.9596	3.0909	0.1	2.3864e-002
23494	3.8675	3.3636	0.1	2.2429e-002
23495	3.9596	3.2727	0.1	2.2846e-002
23496	3.8675	3.5455	0.1	1.9757e-002
23497	3.9596	3.4545	0.1	2.0782e-002
23498	3.8675	3.7273	0.1	1.5907e-002
23499	3.9596	3.6364	0.1	1.7618e-002
23500	3.8675	3.9091	0.1	1.0765e-002
23501	3.9596	3.8182	0.1	1.3265e-002
23502	3.8675	4.0909	0.1	4.1806e-003
23503	3.9596	4.	0.1	7.6045e-003
23504	3.8675	4.2727	0.1	-4.0453e-003
23505	3.9596	4.1818	0.1	4.7592e-004
23506	3.8675	4.4545	0.1	-1.4215e-002
23507	3.9596	4.3636	0.1	-8.3341e-003
23508	3.8675	4.6364	0.1	-2.6692e-002
23509	3.9596	4.5455	0.1	-1.9194e-002
23510	3.8675	4.8182	0.1	-4.2433e-002
23511	3.9596	4.7273	0.1	-3.2447e-002
23512	3.8675	5.	0.1	-6.1663e-002
23513	3.9596	4.9091	0.1	-4.9643e-002
23514	3.8675	5.1818	0.1	-9.1267e-002
23515	3.9596	5.0909	0.1	-6.9792e-002
23516	3.8675	5.3636	0.1	-0.11931
23517	3.9596	5.2727	0.1	-0.1075
23518	3.8675	5.5455	0.1	-0.26055
23519	3.9596	5.4545	0.1	-0.12653
23520	3.8675	5.7273	0.1	-0.4089
23521	3.9596	5.6364	0.1	-0.39035
23522	3.9596	5.8182	0.1	-0.53941
23523	3.8675	5.9091	0.1	-0.32103
23524	4.0517	0.27273	0.1	-0.36402
23525	4.1438	0.18182	0.1	-0.46509
23526	4.0517	9.0909e-002	0.1	-0.29588
23527	4.0517	0.45455	0.1	-0.23692
23528	4.1438	0.36364	0.1	-0.35539
23529	4.0517	0.63636	0.1	-0.10807
23530	4.1438	0.54545	0.1	-0.11427
23531	4.0517	0.81818	0.1	-8.2943e-002
23532	4.1438	0.72727	0.1	-9.7712e-002
23533	4.0517	1.	0.1	-5.6039e-002
23534	4.1438	0.90909	0.1	-6.3408e-002
23535	4.0517	1.1818	0.1	-3.8557e-002
23536	4.1438	1.0909	0.1	-4.5131e-002
23537	4.0517	1.3636	0.1	-2.4186e-002
23538	4.1438	1.2727	0.1	-2.946e-002
23539	4.0517	1.5455	0.1	-1.2745e-002
23540	4.1438	1.4545	0.1	-1.7343e-002
23541	4.0517	1.7273	0.1	-3.3665e-003
23542	4.1438	1.6364	0.1	-7.3658e-003
23543	4.0517	1.9091	0.1	4.2666e-003
23544	4.1438	1.8182	0.1	7.7168e-004
23545	4.0517	2.0909	0.1	1.0417e-002
23546	4.1438	2.	0.1	7.3951e-003
23547	4.0517	2.2727	0.1	1.5252e-002
23548	4.1438	2.1818	0.1	1.2686e-002
23549	4.0517	2.4545	0.1	1.8895e-002
23550	4.1438	2.3636	0.1	1.6779e-002
23551	4.0517	2.6364	0.1	2.1434e-002
23552	4.1438	2.5455	0.1	1.9769e-002
23553	4.0517	2.8182	0.1	2.2934e-002
23554	4.1438	2.7273	0.1	2.1726e-002
23555	4.0517	3.	0.1	2.3431e-002
23556	4.1438	2.9091	0.1	2.2694e-002
23557	4.0517	3.1818	0.1	2.2935e-002
23558	4.1438	3.0909	0.1	2.2694e-002
23559	4.0517	3.3636	0.1	2.1434e-002
23560	4.1438	3.2727	0.1	2.1726e-002
23561	4.0517	3.5455	0.1	1.8895e-002
23562	4.1438	3.4545	0.1	1.9769e-002
23563	4.0517	3.7273	0.1	1.5253e-002
23564	4.1438	3.6364	0.1	1.6779e-002
23565	4.0517	3.9091	0.1	1.0418e-002
23566	4.1438	3.8182	0.1	1.2686e-002
23567	4.0517	4.0909	0.1	4.267e-003
23568	4.1438	4.	0.1	7.3955e-003
23569	4.0517	4.2727	0.1	-3.366e-003
23570	4.1438	4.1818	0.1	7.7215e-004
23571	4.0517	4.4545	0.1	-1.2744e-002
23572	4.1438	4.3636	0.1	-7.3653e-003
23573	4.0517	4.6364	0.1	-2.4185e-002
23574	4.1438	4.5455	0.1	-1.7342e-002
23575	4.0517	4.8182	0.1	-3.8556e-002
23576	4.1438	4.7273	0.1	-2.946e-002
23577	4.0517	5.	0.1	-5.6038e-002
23578	4.1438	4.9091	0.1	-4.513e-002
23579	4.0517	5.1818	0.1	-8.2942e-002
23580	4.1438	5.0909	0.1	-6.3406e-002
23581	4.0517	5.3636	0.1	-0.10807
23582	4.1438	5.2727	0.1	-9.7711e-002
23583	4.0517	5.5455	0.1	-0.23692
23584	4.1438	5.4545	0.1	-0.11427
23585	4.0517	5.7273	0.1	-0.36402
23586	4.1438	5.6364	0.1	-0.35539
23587	4.1438	5.8182	0.1	-0.46508
23588	4.0517	5.9091	0.1	-0.29588
23589	4.2358	0.27273	0.1	-0.32493
23590	4.3279	0.18182	0.1	-0.40349
23591	4.2358	9.0909e-002	0.1	-0.27338
23592	4.2358	0.45455	0.1	-0.21557
23593	4.3279	0.36364	0.1	-0.3238
23594	4.2358	0.63636	0.1	-9.7959e-002
23595	4.3279	0.54545	0.1	-0.10328
23596	4.2358	0.81818	0.1	-7.5406e-002
23597	4.3279	0.72727	0.1	-8.8849e-002
23598	4.2358	1.	0.1	-5.0942e-002
23599	4.3279	0.90909	0.1	-5.7627e-002
23600	4.2358	1.1818	0.1	-3.5045e-002
23601	4.3279	1.0909	0.1	-4.1042e-002
23602	4.2358	1.3636	0.1	-2.193e-002
23603	4.3279	1.2727	0.1	-2.6761e-002
23604	4.2358	1.5455	0.1	-1.1453e-002
23605	4.3279	1.4545	0.1	-1.5691e-002
23606	4.2358	1.7273	0.1	-2.826e-003
23607	4.3279	1.6364	0.1	-6.5414e-003
23608	4.2358	1.9091	0.1	4.2302e-003
23609	4.3279	1.8182	0.1	9.5327e-004
23610	4.2358	2.0909	0.1	9.9457e-003
23611	4.3279	2.	0.1	7.0818e-003
23612	4.2358	2.2727	0.1	1.4462e-002
23613	4.3279	2.1818	0.1	1.2001e-002
23614	4.2358	2.4545	0.1	1.788e-002
23615	4.3279	2.3636	0.1	1.5823e-002
23616	4.2358	2.6364	0.1	2.0272e-002
23617	4.3279	2.5455	0.1	1.8626e-002
23618	4.2358	2.8182	0.1	2.169e-002
23619	4.3279	2.7273	0.1	2.0466e-002
23620	4.2358	3.	0.1	2.2159e-002
23621	4.3279	2.9091	0.1	2.1378e-002
23622	4.2358	3.1818	0.1	2.169e-002
23623	4.3279	3.0909	0.1	2.1378e-002
23624	4.2358	3.3636	0.1	2.0273e-002
23625	4.3279	3.2727	0.1	2.0466e-002
23626	4.2358	3.5455	0.1	1.788e-002
23627	4.3279	3.4545	0.1	1.8626e-002
23628	4.2358	3.7273	0.1	1.4462e-002
23629	4.3279	3.6364	0.1	1.5823e-002
23630	4.2358	3.9091	0.1	9.9461e-003
23631	4.3279	3.8182	0.1	1.2001e-002
23632	4.2358	4.0909	0.1	4.2306e-003
23633	4.3279	4.	0.1	7.0822e-003
23634	4.2358	4.2727	0.1	-2.8255e-003
23635	4.3279	4.1818	0.1	9.5375e-004
23636	4.2358	4.4545	0.1	-1.1452e-002
23637	4.3279	4.3636	0.1	-6.5408e-003
23638	4.2358	4.6364	0.1	-2.1929e-002
23639	4.3279	4.5455	0.1	-1.569e-002
23640	4.2358	4.8182	0.1	-3.5044e-002
23641	4.3279	4.7273	0.1	-2.6761e-002
23642	4.2358	5.	0.1	-5.0941e-002
23643	4.3279	4.9091	0.1	-4.1041e-002
23644	4.2358	5.1818	0.1	-7.5405e-002
23645	4.3279	5.0909	0.1	-5.7625e-002
23646	4.2358	5.3636	0.1	-9.7958e-002
23647	4.3279	5.2727	0.1	-8.8848e-002
23648	4.2358	5.5455	0.1	-0.21557
23649	4.3279	5.4545	0.1	-0.10328
23650	4.2358	5.7273	0.1	-0.32493
23651	4.3279	5.6364	0.1	-0.3238
23652	4.3279	5.8182	0.1	-0.40349
23653	4.2358	5.9091	0.1	-0.27338
23654	4.42	0.27273	0.1	-0.29075
23655	4.5121	0.18182	0.1	-0.35215
23656	4.42	9.0909e-002	0.1	-0.25316
23657	4.42	0.45455	0.1	-0.19625
23658	4.5121	0.36364	0.1	-0.2952
23659	4.42	0.63636	0.1	-8.8837e-002
23660	4.5121	0.54545	0.1	-9.3422e-002
23661	4.42	0.81818	0.1	-6.8579e-002
23662	4.5121	0.72727	0.1	-8.0832e-002
23663	4.42	1.	0.1	-4.6324e-002
23664	4.5121	0.90909	0.1	-5.2404e-002
23665	4.42	1.1818	0.1	-3.1867e-002
23666	4.5121	1.0909	0.1	-3.735e-002
23667	4.42	1.3636	0.1	-1.9904e-002
23668	4.5121	1.2727	0.1	-2.4339e-002
23669	4.42	1.5455	0.1	-1.032e-002
23670	4.5121	1.4545	0.1	-1.4233e-002
23671	4.42	1.7273	0.1	-2.4008e-003
23672	4.5121	1.6364	0.1	-5.854e-003
23673	4.42	1.9091	0.1	4.1019e-003
23674	4.5121	1.8182	0.1	1.0321e-003
23675	4.42	2.0909	0.1	9.3906e-003
23676	4.5121	2.	0.1	6.6837e-003
23677	4.42	2.2727	0.1	1.3586e-002
23678	4.5121	2.1818	0.1	1.1237e-002
23679	4.42	2.4545	0.1	1.6773e-002
23680	4.5121	2.3636	0.1	1.4787e-002
23681	4.42	2.6364	0.1	1.9011e-002
23682	4.5121	2.5455	0.1	1.7398e-002
23683	4.42	2.8182	0.1	2.0339e-002
23684	4.5121	2.7273	0.1	1.9117e-002
23685	4.42	3.	0.1	2.078e-002
23686	4.5121	2.9091	0.1	1.997e-002
23687	4.42	3.1818	0.1	2.0339e-002
23688	4.5121	3.0909	0.1	1.997e-002
23689	4.42	3.3636	0.1	1.9011e-002
23690	4.5121	3.2727	0.1	1.9117e-002
23691	4.42	3.5455	0.1	1.6773e-002
23692	4.5121	3.4545	0.1	1.7398e-002
23693	4.42	3.7273	0.1	1.3587e-002
23694	4.5121	3.6364	0.1	1.4787e-002
23695	4.42	3.9091	0.1	9.3909e-003
23696	4.5121	3.8182	0.1	1.1237e-002
23697	4.42	4.0909	0.1	4.1023e-003
23698	4.5121	4.	0.1	6.6841e-003
23699	4.42	4.2727	0.1	-2.4002e-003
23700	4.5121	4.1818	0.1	1.0326e-003
23701	4.42	4.4545	0.1	-1.0319e-002
23702	4.5121	4.3636	0.1	-5.8534e-003
23703	4.42	4.6364	0.1	-1.9903e-002
23704	4.5121	4.5455	0.1	-1.4232e-002
23705	4.42	4.8182	0.1	-3.1866e-002
23706	4.5121	4.7273	0.1	-2.4338e-002
23707	4.42	5.	0.1	-4.6323e-002
23708	4.5121	4.9091	0.1	-3.7349e-002
23709	4.42	5.1818	0.1	-6.8578e-002
23710	4.5121	5.0909	0.1	-5.2403e-002
23711	4.42	5.3636	0.1	-8.8836e-002
23712	4.5121	5.2727	0.1	-8.0832e-002
23713	4.42	5.5455	0.1	-0.19625
23714	4.5121	5.4545	0.1	-9.3421e-002
23715	4.42	5.7273	0.1	-0.29075
23716	4.5121	5.6364	0.1	-0.2952
23717	4.5121	5.8182	0.1	-0.35214
23718	4.42	5.9091	0.1	-0.25316
23719	4.6042	0.27273	0.1	-0.26078
23720	4.6962	0.18182	0.1	-0.30912
23721	4.6042	9.0909e-002	0.1	-0.23496
23722	4.6042	0.45455	0.1	-0.17877
23723	4.6962	0.36364	0.1	-0.26927
23724	4.6042	0.63636	0.1	-8.0626e-002
23725	4.6962	0.54545	0.1	-8.4564e-002
23726	4.6042	0.81818	0.1	-6.2415e-002
23727	4.6962	0.72727	0.1	-7.3575e-002
23728	4.6042	1.	0.1	-4.2166e-002
23729	4.6962	0.90909	0.1	-4.7686e-002
23730	4.6042	1.1818	0.1	-2.9019e-002
23731	4.6962	1.0909	0.1	-3.402e-002
23732	4.6042	1.3636	0.1	-1.811e-002
23733	4.6962	1.2727	0.1	-2.2168e-002
23734	4.6042	1.5455	0.1	-9.3525e-003
23735	4.6962	1.4545	0.1	-1.2948e-002
23736	4.6042	1.7273	0.1	-2.0957e-003
23737	4.6962	1.6364	0.1	-5.2856e-003
23738	4.6042	1.9091	0.1	3.8814e-003
23739	4.6962	1.8182	0.1	1.0286e-003
23740	4.6042	2.0909	0.1	8.7584e-003
23741	4.6962	2.	0.1	6.2259e-003
23742	4.6042	2.2727	0.1	1.264e-002
23743	4.6962	2.1818	0.1	1.0425e-002
23744	4.6042	2.4545	0.1	1.5596e-002
23745	4.6962	2.3636	0.1	1.3709e-002
23746	4.6042	2.6364	0.1	1.7677e-002
23747	4.6962	2.5455	0.1	1.6129e-002
23748	4.6042	2.8182	0.1	1.8914e-002
23749	4.6962	2.7273	0.1	1.7726e-002
23750	4.6042	3.	0.1	1.9325e-002
23751	4.6962	2.9091	0.1	1.8519e-002
23752	4.6042	3.1818	0.1	1.8914e-002
23753	4.6962	3.0909	0.1	1.8519e-002
23754	4.6042	3.3636	0.1	1.7677e-002
23755	4.6962	3.2727	0.1	1.7726e-002
23756	4.6042	3.5455	0.1	1.5596e-002
23757	4.6962	3.4545	0.1	1.6129e-002
23758	4.6042	3.7273	0.1	1.264e-002
23759	4.6962	3.6364	0.1	1.3709e-002
23760	4.6042	3.9091	0.1	8.7587e-003
23761	4.6962	3.8182	0.1	1.0426e-002
23762	4.6042	4.0909	0.1	3.8818e-003
23763	4.6962	4.	0.1	6.2263e-003
23764	4.6042	4.2727	0.1	-2.0952e-003
23765	4.6962	4.1818	0.1	1.0291e-003
23766	4.6042	4.4545	0.1	-9.3519e-003
23767	4.6962	4.3636	0.1	-5.2851e-003
23768	4.6042	4.6364	0.1	-1.811e-002
23769	4.6962	4.5455	0.1	-1.2948e-002
23770	4.6042	4.8182	0.1	-2.9018e-002
23771	4.6962	4.7273	0.1	-2.2168e-002
23772	4.6042	5.	0.1	-4.2165e-002
23773	4.6962	4.9091	0.1	-3.4019e-002
23774	4.6042	5.1818	0.1	-6.2415e-002
23775	4.6962	5.0909	0.1	-4.7685e-002
23776	4.6042	5.3636	0.1	-8.0625e-002
23777	4.6962	5.2727	0.1	-7.3575e-002
23778	4.6042	5.5455	0.1	-0.17877
23779	4.6962	5.4545	0.1	-8.4564e-002
23780	4.6042	5.7273	0.1	-0.26078
23781	4.6962	5.6364	0.1	-0.26926
23782	4.6962	5.8182	0.1	-0.30912
23783	4.6042	5.9091	0.1	-0.23496
23784	4.7883	0.27273	0.1	-0.23439
23785	4.8804	0.18182	0.1	-0.27291
23786	4.7883	9.0909e-002	0.1	-0.21853
23787	4.7883	0.45455	0.1	-0.1629
23788	4.8804	0.36364	0.1	-0.2457
23789	4.7883	0.63636	0.1	-7.3203e-002
23790	4.8804	0.54545	0.1	-7.6583e-002
23791	4.7883	0.81818	0.1	-5.6825e-002
23792	4.8804	0.72727	0.1	-6.6988e-002
23793	4.7883	1.	0.1	-3.84e-002
23794	4.8804	0.90909	0.1	-4.341e-002
23795	4.7883	1.1818	0.1	-2.6445e-002
23796	4.8804	1.0909	0.1	-3.1005e-002
23797	4.7883	1.3636	0.1	-1.6504e-002
23798	4.8804	1.2727	0.1	-2.0213e-002
23799	4.7883	1.5455	0.1	-8.508e-003
23800	4.8804	1.4545	0.1	-1.1808e-002
23801	4.7883	1.7273	0.1	-1.868e-003
23802	4.8804	1.6364	0.1	-4.8076e-003
23803	4.7883	1.9091	0.1	3.6141e-003
23804	4.8804	1.8182	0.1	9.7232e-004
23805	4.7883	2.0909	0.1	8.0986e-003
23806	4.8804	2.	0.1	5.7406e-003
23807	4.7883	2.2727	0.1	1.1676e-002
23808	4.8804	2.1818	0.1	9.6023e-003
23809	4.7883	2.4545	0.1	1.4407e-002
23810	4.8804	2.3636	0.1	1.2628e-002
23811	4.7883	2.6364	0.1	1.6333e-002
23812	4.8804	2.5455	0.1	1.4863e-002
23813	4.7883	2.8182	0.1	1.748e-002
23814	4.8804	2.7273	0.1	1.6339e-002
23815	4.7883	3.	0.1	1.7861e-002
23816	4.8804	2.9091	0.1	1.7073e-002
23817	4.7883	3.1818	0.1	1.748e-002
23818	4.8804	3.0909	0.1	1.7073e-002
23819	4.7883	3.3636	0.1	1.6333e-002
23820	4.8804	3.2727	0.1	1.6339e-002
23821	4.7883	3.5455	0.1	1.4408e-002
23822	4.8804	3.4545	0.1	1.4863e-002
23823	4.7883	3.7273	0.1	1.1677e-002
23824	4.8804	3.6364	0.1	1.2628e-002
23825	4.7883	3.9091	0.1	8.099e-003
23826	4.8804	3.8182	0.1	9.6026e-003
23827	4.7883	4.0909	0.1	3.6145e-003
23828	4.8804	4.	0.1	5.7411e-003
23829	4.7883	4.2727	0.1	-1.8675e-003
23830	4.8804	4.1818	0.1	9.7278e-004
23831	4.7883	4.4545	0.1	-8.5073e-003
23832	4.8804	4.3636	0.1	-4.8071e-003
23833	4.7883	4.6364	0.1	-1.6503e-002
23834	4.8804	4.5455	0.1	-1.1807e-002
23835	4.7883	4.8182	0.1	-2.6444e-002
23836	4.8804	4.7273	0.1	-2.0212e-002
23837	4.7883	5.	0.1	-3.8399e-002
23838	4.8804	4.9091	0.1	-3.1004e-002
23839	4.7883	5.1818	0.1	-5.6824e-002
23840	4.8804	5.0909	0.1	-4.3409e-002
23841	4.7883	5.3636	0.1	-7.3202e-002
23842	4.8804	5.2727	0.1	-6.6987e-002
23843	4.7883	5.5455	0.1	-0.1629
23844	4.8804	5.4545	0.1	-7.6582e-002
23845	4.7883	5.7273	0.1	-0.23439
23846	4.8804	5.6364	0.1	-0.2457
23847	4.8804	5.8182	0.1	-0.27291
23848	4.7883	5.9091	0.1	-0.21853
23849	4.9725	0.27273	0.1	-0.21108
23850	5.0646	0.18182	0.1	-0.24234
23851	4.9725	9.0909e-002	0.1	-0.20369
23852	4.9725	0.45455	0.1	-0.14847
23853	5.0646	0.36364	0.1	-0.22426
23854	4.9725	0.63636	0.1	-6.6483e-002
23855	5.0646	0.54545	0.1	-6.9391e-002
23856	4.9725	0.81818	0.1	-5.175e-002
23857	5.0646	0.72727	0.1	-6.1015e-002
23858	4.9725	1.	0.1	-3.4986e-002
23859	5.0646	0.90909	0.1	-3.9543e-002
23860	4.9725	1.1818	0.1	-2.4119e-002
23861	5.0646	1.0909	0.1	-2.8286e-002
23862	4.9725	1.3636	0.1	-1.5063e-002
23863	5.0646	1.2727	0.1	-1.8463e-002
23864	4.9725	1.5455	0.1	-7.7703e-003
23865	5.0646	1.4545	0.1	-1.0806e-002
23866	4.9725	1.7273	0.1	-1.7029e-003
23867	5.0646	1.6364	0.1	-4.4182e-003
23868	4.9725	1.9091	0.1	3.316e-003
23869	5.0646	1.8182	0.1	8.6477e-004
23870	4.9725	2.0909	0.1	7.4298e-003
23871	5.0646	2.	0.1	5.2308e-003
23872	4.9725	2.2727	0.1	1.0718e-002
23873	5.0646	2.1818	0.1	8.7732e-003
23874	4.9725	2.4545	0.1	1.3232e-002
23875	5.0646	2.3636	0.1	1.1553e-002
23876	4.9725	2.6364	0.1	1.5008e-002
23877	5.0646	2.5455	0.1	1.3609e-002
23878	4.9725	2.8182	0.1	1.6066e-002
23879	5.0646	2.7273	0.1	1.4969e-002
23880	4.9725	3.	0.1	1.6418e-002
23881	5.0646	2.9091	0.1	1.5646e-002
23882	4.9725	3.1818	0.1	1.6066e-002
23883	5.0646	3.0909	0.1	1.5646e-002
23884	4.9725	3.3636	0.1	1.5008e-002
23885	5.0646	3.2727	0.1	1.4969e-002
23886	4.9725	3.5455	0.1	1.3233e-002
23887	5.0646	3.4545	0.1	1.3609e-002
23888	4.9725	3.7273	0.1	1.0718e-002
23889	5.0646	3.6364	0.1	1.1553e-002
23890	4.9725	3.9091	0.1	7.4301e-003
23891	5.0646	3.8182	0.1	8.7734e-003
23892	4.9725	4.0909	0.1	3.3165e-003
23893	5.0646	4.	0.1	5.2313e-003
23894	4.9725	4.2727	0.1	-1.7024e-003
23895	5.0646	4.1818	0.1	8.6522e-004
23896	4.9725	4.4545	0.1	-7.7698e-003
23897	5.0646	4.3636	0.1	-4.4176e-003
23898	4.9725	4.6364	0.1	-1.5063e-002
23899	5.0646	4.5455	0.1	-1.0805e-002
23900	4.9725	4.8182	0.1	-2.4118e-002
23901	5.0646	4.7273	0.1	-1.8462e-002
23902	4.9725	5.	0.1	-3.4985e-002
23903	5.0646	4.9091	0.1	-2.8285e-002
23904	4.9725	5.1818	0.1	-5.1749e-002
23905	5.0646	5.0909	0.1	-3.9542e-002
23906	4.9725	5.3636	0.1	-6.6483e-002
23907	5.0646	5.2727	0.1	-6.1014e-002
23908	4.9725	5.5455	0.1	-0.14847
23909	5.0646	5.4545	0.1	-6.939e-002
23910	4.9725	5.7273	0.1	-0.21108
23911	5.0646	5.6364	0.1	-0.22426
23912	5.0646	5.8182	0.1	-0.24234
23913	4.9725	5.9091	0.1	-0.20369
23914	5.1567	0.27273	0.1	-0.19047
23915	5.2488	0.18182	0.1	-0.21648
23916	5.1567	9.0909e-002	0.1	-0.19032
23917	5.1567	0.45455	0.1	-0.13536
23918	5.2488	0.36364	0.1	-0.20474
23919	5.1567	0.63636	0.1	-6.0416e-002
23920	5.2488	0.54545	0.1	-6.2902e-002
23921	5.1567	0.81818	0.1	-4.7162e-002
23922	5.2488	0.72727	0.1	-5.5593e-002
23923	5.1567	1.	0.1	-3.1914e-002
23924	5.2488	0.90909	0.1	-3.6046e-002
23925	5.1567	1.1818	0.1	-2.2039e-002
23926	5.2488	1.0909	0.1	-2.5833e-002
23927	5.1567	1.3636	0.1	-1.3796e-002
23928	5.2488	1.2727	0.1	-1.6898e-002
23929	5.1567	1.5455	0.1	-7.1496e-003
23930	5.2488	1.4545	0.1	-9.9275e-003
23931	5.1567	1.7273	0.1	-1.6121e-003
23932	5.2488	1.6364	0.1	-4.1047e-003
23933	5.1567	1.9091	0.1	2.9753e-003
23934	5.2488	1.8182	0.1	7.1737e-004
23935	5.1567	2.0909	0.1	6.7414e-003
23936	5.2488	2.	0.1	4.7082e-003
23937	5.1567	2.2727	0.1	9.7562e-003
23938	5.2488	2.1818	0.1	7.9507e-003
23939	5.1567	2.4545	0.1	1.2065e-002
23940	5.2488	2.3636	0.1	1.0499e-002
23941	5.1567	2.6364	0.1	1.3696e-002
23942	5.2488	2.5455	0.1	1.2385e-002
23943	5.1567	2.8182	0.1	1.467e-002
23944	5.2488	2.7273	0.1	1.3634e-002
23945	5.1567	3.	0.1	1.4993e-002
23946	5.2488	2.9091	0.1	1.4256e-002
23947	5.1567	3.1818	0.1	1.467e-002
23948	5.2488	3.0909	0.1	1.4256e-002
23949	5.1567	3.3636	0.1	1.3697e-002
23950	5.2488	3.2727	0.1	1.3634e-002
23951	5.1567	3.5455	0.1	1.2065e-002
23952	5.2488	3.4545	0.1	1.2385e-002
23953	5.1567	3.7273	0.1	9.7564e-003
23954	5.2488	3.6364	0.1	1.0499e-002
23955	5.1567	3.9091	0.1	6.7417e-003
23956	5.2488	3.8182	0.1	7.9511e-003
23957	5.1567	4.0909	0.1	2.9758e-003
23958	5.2488	4.	0.1	4.7086e-003
23959	5.1567	4.2727	0.1	-1.6115e-003
23960	5.2488	4.1818	0.1	7.1785e-004
23961	5.1567	4.4545	0.1	-7.149e-003
23962	5.2488	4.3636	0.1	-4.1042e-003
23963	5.1567	4.6364	0.1	-1.3795e-002
23964	5.2488	4.5455	0.1	-9.9268e-003
23965	5.1567	4.8182	0.1	-2.2039e-002
23966	5.2488	4.7273	0.1	-1.6897e-002
23967	5.1567	5.	0.1	-3.1913e-002
23968	5.2488	4.9091	0.1	-2.5833e-002
23969	5.1567	5.1818	0.1	-4.7161e-002
23970	5.2488	5.0909	0.1	-3.6044e-002
23971	5.1567	5.3636	0.1	-6.0416e-002
23972	5.2488	5.2727	0.1	-5.5593e-002
23973	5.1567	5.5455	0.1	-0.13536
23974	5.2488	5.4545	0.1	-6.2902e-002
23975	5.1567	5.7273	0.1	-0.19047
23976	5.2488	5.6364	0.1	-0.20474
23977	5.2488	5.8182	0.1	-0.21648
23978	5.1567	5.9091	0.1	-0.19032
23979	5.3408	0.27273	0.1	-0.17217
23980	5.4329	0.18182	0.1	-0.19456
23981	5.3408	9.0909e-002	0.1	-0.17829
23982	5.3408	0.45455	0.1	-0.12341
23983	5.4329	0.36364	0.1	-0.18694
23984	5.3408	0.63636	0.1	-5.4911e-002
23985	5.4329	0.54545	0.1	-5.7028e-002
23986	5.3408	0.81818	0.1	-4.2989e-002
23987	5.4329	0.72727	0.1	-5.0657e-002
23988	5.3408	1.	0.1	-2.9126e-002
23989	5.4329	0.90909	0.1	-3.2868e-002
23990	5.3408	1.1818	0.1	-2.0159e-002
23991	5.4329	1.0909	0.1	-2.3609e-002
23992	5.3408	1.3636	0.1	-1.266e-002
23993	5.4329	1.2727	0.1	-1.5486e-002
23994	5.3408	1.5455	0.1	-6.6083e-003
23995	5.4329	1.4545	0.1	-9.1466e-003
23996	5.3408	1.7273	0.1	-1.5602e-003
23997	5.4329	1.6364	0.1	-3.844e-003
23998	5.3408	1.9091	0.1	2.6268e-003
23999	5.4329	1.8182	0.1	5.5182e-004
24000	5.3408	2.0909	0.1	6.0683e-003
24001	5.4329	2.	0.1	4.194e-003
24002	5.3408	2.2727	0.1	8.8266e-003
24003	5.4329	2.1818	0.1	7.1566e-003
24004	5.3408	2.4545	0.1	1.0941e-002
24005	5.4329	2.3636	0.1	9.4871e-003
24006	5.3408	2.6364	0.1	1.2437e-002
24007	5.4329	2.5455	0.1	1.1214e-002
24008	5.3408	2.8182	0.1	1.3329e-002
24009	5.4329	2.7273	0.1	1.2358e-002
24010	5.3408	3.	0.1	1.3626e-002
24011	5.4329	2.9091	0.1	1.2928e-002
24012	5.3408	3.1818	0.1	1.333e-002
24013	5.4329	3.0909	0.1	1.2928e-002
24014	5.3408	3.3636	0.1	1.2437e-002
24015	5.4329	3.2727	0.1	1.2358e-002
24016	5.3408	3.5455	0.1	1.0941e-002
24017	5.4329	3.4545	0.1	1.1214e-002
24018	5.3408	3.7273	0.1	8.8269e-003
24019	5.4329	3.6364	0.1	9.4875e-003
24020	5.3408	3.9091	0.1	6.0687e-003
24021	5.4329	3.8182	0.1	7.157e-003
24022	5.3408	4.0909	0.1	2.6272e-003
24023	5.4329	4.	0.1	4.1944e-003
24024	5.3408	4.2727	0.1	-1.5597e-003
24025	5.4329	4.1818	0.1	5.5228e-004
24026	5.3408	4.4545	0.1	-6.6077e-003
24027	5.4329	4.3636	0.1	-3.8434e-003
24028	5.3408	4.6364	0.1	-1.2659e-002
24029	5.4329	4.5455	0.1	-9.1458e-003
24030	5.3408	4.8182	0.1	-2.0158e-002
24031	5.4329	4.7273	0.1	-1.5485e-002
24032	5.3408	5.	0.1	-2.9125e-002
24033	5.4329	4.9091	0.1	-2.3608e-002
24034	5.3408	5.1818	0.1	-4.2988e-002
24035	5.4329	5.0909	0.1	-3.2866e-002
24036	5.3408	5.3636	0.1	-5.4911e-002
24037	5.4329	5.2727	0.1	-5.0657e-002
24038	5.3408	5.5455	0.1	-0.12341
24039	5.4329	5.4545	0.1	-5.7028e-002
24040	5.3408	5.7273	0.1	-0.17217
24041	5.4329	5.6364	0.1	-0.18693
24042	5.4329	5.8182	0.1	-0.19456
24043	5.3408	5.9091	0.1	-0.17828
24044	5.525	0.27273	0.1	-0.1559
24045	5.6171	0.18182	0.1	-0.176
24046	5.525	9.0909e-002	0.1	-0.16749
24047	5.525	0.45455	0.1	-0.11252
24048	5.6171	0.36364	0.1	-0.17069
24049	5.525	0.63636	0.1	-4.9909e-002
24050	5.6171	0.54545	0.1	-5.1715e-002
24051	5.525	0.81818	0.1	-3.9191e-002
24052	5.6171	0.72727	0.1	-4.617e-002
24053	5.525	1.	0.1	-2.6593e-002
24054	5.6171	0.90909	0.1	-2.9989e-002
24055	5.525	1.1818	0.1	-1.8455e-002
24056	5.6171	1.0909	0.1	-2.1601e-002
24057	5.525	1.3636	0.1	-1.1639e-002
24058	5.6171	1.2727	0.1	-1.4223e-002
24059	5.525	1.5455	0.1	-6.1348e-003
24060	5.6171	1.4545	0.1	-8.4623e-003
24061	5.525	1.7273	0.1	-1.5381e-003
24062	5.6171	1.6364	0.1	-3.6387e-003
24063	5.525	1.9091	0.1	2.2782e-003
24064	5.6171	1.8182	0.1	3.6371e-004
24065	5.525	2.0909	0.1	5.4181e-003
24066	5.6171	2.	0.1	3.6828e-003
24067	5.525	2.2727	0.1	7.9371e-003
24068	5.6171	2.1818	0.1	6.3854e-003
24069	5.525	2.4545	0.1	9.8696e-003
24070	5.6171	2.3636	0.1	8.5129e-003
24071	5.525	2.6364	0.1	1.1238e-002
24072	5.6171	2.5455	0.1	1.009e-002
24073	5.525	2.8182	0.1	1.2055e-002
24074	5.6171	2.7273	0.1	1.1136e-002
24075	5.525	3.	0.1	1.2326e-002
24076	5.6171	2.9091	0.1	1.1657e-002
24077	5.525	3.1818	0.1	1.2055e-002
24078	5.6171	3.0909	0.1	1.1657e-002
24079	5.525	3.3636	0.1	1.1238e-002
24080	5.6171	3.2727	0.1	1.1136e-002
24081	5.525	3.5455	0.1	9.8698e-003
24082	5.6171	3.4545	0.1	1.0091e-002
24083	5.525	3.7273	0.1	7.9375e-003
24084	5.6171	3.6364	0.1	8.5133e-003
24085	5.525	3.9091	0.1	5.4186e-003
24086	5.6171	3.8182	0.1	6.3857e-003
24087	5.525	4.0909	0.1	2.2786e-003
24088	5.6171	4.	0.1	3.6833e-003
24089	5.525	4.2727	0.1	-1.5375e-003
24090	5.6171	4.1818	0.1	3.6412e-004
24091	5.525	4.4545	0.1	-6.1341e-003
24092	5.6171	4.3636	0.1	-3.638e-003
24093	5.525	4.6364	0.1	-1.1639e-002
24094	5.6171	4.5455	0.1	-8.4615e-003
24095	5.525	4.8182	0.1	-1.8454e-002
24096	5.6171	4.7273	0.1	-1.4222e-002
24097	5.525	5.	0.1	-2.6592e-002
24098	5.6171	4.9091	0.1	-2.1601e-002
24099	5.525	5.1818	0.1	-3.919e-002
24100	5.6171	5.0909	0.1	-2.9988e-002
24101	5.525	5.3636	0.1	-4.9908e-002
24102	5.6171	5.2727	0.1	-4.6169e-002
24103	5.525	5.5455	0.1	-0.11252
24104	5.6171	5.4545	0.1	-5.1715e-002
24105	5.525	5.7273	0.1	-0.1559
24106	5.6171	5.6364	0.1	-0.17069
24107	5.6171	5.8182	0.1	-0.176
24108	5.525	5.9091	0.1	-0.16749
24109	5.7092	0.27273	0.1	-0.14142
24110	5.8012	0.18182	0.1	-0.16032
24111	5.7092	9.0909e-002	0.1	-0.15789
24112	5.7092	0.45455	0.1	-0.10259
24113	5.8012	0.36364	0.1	-0.15585
24114	5.7092	0.63636	0.1	-4.5382e-002
24115	5.8012	0.54545	0.1	-4.6903e-002
24116	5.7092	0.81818	0.1	-3.5752e-002
24117	5.8012	0.72727	0.1	-4.2089e-002
24118	5.7092	1.	0.1	-2.4312e-002
24119	5.8012	0.90909	0.1	-2.738e-002
24120	5.7092	1.1818	0.1	-1.6934e-002
24121	5.8012	1.0909	0.1	-1.9789e-002
24122	5.7092	1.3636	0.1	-1.0745e-002
24123	5.8012	1.2727	0.1	-1.3093e-002
24124	5.7092	1.5455	0.1	-5.7429e-003
24125	5.8012	1.4545	0.1	-7.8635e-003
24126	5.7092	1.7273	0.1	-1.562e-003
24127	5.8012	1.6364	0.1	-3.4805e-003
24128	5.7092	1.9091	0.1	1.9118e-003
24129	5.8012	1.8182	0.1	1.5904e-004
24130	5.7092	2.0909	0.1	4.7725e-003
24131	5.8012	2.	0.1	3.1798e-003
24132	5.7092	2.2727	0.1	7.0692e-003
24133	5.8012	2.1818	0.1	5.6412e-003
24134	5.7092	2.4545	0.1	8.8323e-003
24135	5.8012	2.3636	0.1	7.5805e-003
24136	5.7092	2.6364	0.1	1.0081e-002
24137	5.8012	2.5455	0.1	9.0189e-003
24138	5.7092	2.8182	0.1	1.0827e-002
24139	5.8012	2.7273	0.1	9.9727e-003
24140	5.7092	3.	0.1	1.1076e-002
24141	5.8012	2.9091	0.1	1.0448e-002
24142	5.7092	3.1818	0.1	1.0827e-002
24143	5.8012	3.0909	0.1	1.0448e-002
24144	5.7092	3.3636	0.1	1.0081e-002
24145	5.8012	3.2727	0.1	9.9729e-003
24146	5.7092	3.5455	0.1	8.8325e-003
24147	5.8012	3.4545	0.1	9.019e-003
24148	5.7092	3.7273	0.1	7.0696e-003
24149	5.8012	3.6364	0.1	7.5807e-003
24150	5.7092	3.9091	0.1	4.7728e-003
24151	5.8012	3.8182	0.1	5.6416e-003
24152	5.7092	4.0909	0.1	1.9123e-003
24153	5.8012	4.	0.1	3.1802e-003
24154	5.7092	4.2727	0.1	-1.5615e-003
24155	5.8012	4.1818	0.1	1.5948e-004
24156	5.7092	4.4545	0.1	-5.7423e-003
24157	5.8012	4.3636	0.1	-3.4799e-003
24158	5.7092	4.6364	0.1	-1.0744e-002
24159	5.8012	4.5455	0.1	-7.8628e-003
24160	5.7092	4.8182	0.1	-1.6934e-002
24161	5.8012	4.7273	0.1	-1.3092e-002
24162	5.7092	5.	0.1	-2.4312e-002
24163	5.8012	4.9091	0.1	-1.9788e-002
24164	5.7092	5.1818	0.1	-3.5751e-002
24165	5.8012	5.0909	0.1	-2.7379e-002
24166	5.7092	5.3636	0.1	-4.5381e-002
24167	5.8012	5.2727	0.1	-4.2088e-002
24168	5.7092	5.5455	0.1	-0.10259
24169	5.8012	5.4545	0.1	-4.6903e-002
24170	5.7092	5.7273	0.1	-0.14142
24171	5.8012	5.6364	0.1	-0.15585
24172	5.8012	5.8182	0.1	-0.16032
24173	5.7092	5.9091	0.1	-0.15788
24174	5.8933	0.27273	0.1	-0.12851
24175	5.9854	0.18182	0.1	-0.14714
24176	5.8933	9.0909e-002	0.1	-0.14942
24177	5.8933	0.45455	0.1	-9.3517e-002
24178	5.9854	0.36364	0.1	-0.14228
24179	5.8933	0.63636	0.1	-4.1259e-002
24180	5.9854	0.54545	0.1	-4.253e-002
24181	5.8933	0.81818	0.1	-3.2617e-002
24182	5.9854	0.72727	0.1	-3.8361e-002
24183	5.8933	1.	0.1	-2.2238e-002
24184	5.9854	0.90909	0.1	-2.5003e-002
24185	5.8933	1.1818	0.1	-1.5555e-002
24186	5.9854	1.0909	0.1	-1.814e-002
24187	5.8933	1.3636	0.1	-9.9401e-003
24188	5.9854	1.2727	0.1	-1.207e-002
24189	5.8933	1.5455	0.1	-5.4e-003
24190	5.9854	1.4545	0.1	-7.3287e-003
24191	5.8933	1.7273	0.1	-1.6019e-003
24192	5.9854	1.6364	0.1	-3.3507e-003
24193	5.8933	1.9091	0.1	1.5562e-003
24194	5.9854	1.8182	0.1	-4.5334e-005
24195	5.8933	2.0909	0.1	4.1587e-003
24196	5.9854	2.	0.1	2.7001e-003
24197	5.8933	2.2727	0.1	6.2497e-003
24198	5.9854	2.1818	0.1	4.9387e-003
24199	5.8933	2.4545	0.1	7.8556e-003
24200	5.9854	2.3636	0.1	6.7034e-003
24201	5.8933	2.6364	0.1	8.9935e-003
24202	5.9854	2.5455	0.1	8.0129e-003
24203	5.8933	2.8182	0.1	9.6738e-003
24204	5.9854	2.7273	0.1	8.8817e-003
24205	5.8933	3.	0.1	9.9002e-003
24206	5.9854	2.9091	0.1	9.315e-003
24207	5.8933	3.1818	0.1	9.6738e-003
24208	5.9854	3.0909	0.1	9.315e-003
24209	5.8933	3.3636	0.1	8.9937e-003
24210	5.9854	3.2727	0.1	8.8817e-003
24211	5.8933	3.5455	0.1	7.8558e-003
24212	5.9854	3.4545	0.1	8.0131e-003
24213	5.8933	3.7273	0.1	6.25e-003
24214	5.9854	3.6364	0.1	6.7037e-003
24215	5.8933	3.9091	0.1	4.1592e-003
24216	5.9854	3.8182	0.1	4.9392e-003
24217	5.8933	4.0909	0.1	1.5566e-003
24218	5.9854	4.	0.1	2.7005e-003
24219	5.8933	4.2727	0.1	-1.6013e-003
24220	5.9854	4.1818	0.1	-4.4801e-005
24221	5.8933	4.4545	0.1	-5.3993e-003
24222	5.9854	4.3636	0.1	-3.3502e-003
24223	5.8933	4.6364	0.1	-9.9394e-003
24224	5.9854	4.5455	0.1	-7.328e-003
24225	5.8933	4.8182	0.1	-1.5554e-002
24226	5.9854	4.7273	0.1	-1.2069e-002
24227	5.8933	5.	0.1	-2.2236e-002
24228	5.9854	4.9091	0.1	-1.8139e-002
24229	5.8933	5.1818	0.1	-3.2616e-002
24230	5.9854	5.0909	0.1	-2.5001e-002
24231	5.8933	5.3636	0.1	-4.1259e-002
24232	5.9854	5.2727	0.1	-3.8361e-002
24233	5.8933	5.5455	0.1	-9.3516e-002
24234	5.9854	5.4545	0.1	-4.253e-002
24235	5.8933	5.7273	0.1	-0.1285
24236	5.9854	5.6364	0.1	-0.14228
24237	5.9854	5.8182	0.1	-0.14714
24238	5.8933	5.9091	0.1	-0.14942
24239	6.0775	0.27273	0.1	-0.11697
24240	6.1696	0.18182	0.1	-0.13617
24241	6.0775	9.0909e-002	0.1	-0.14207
24242	6.0775	0.45455	0.1	-8.5219e-002
24243	6.1696	0.36364	0.1	-0.12987
24244	6.0775	0.63636	0.1	-3.75e-002
24245	6.1696	0.54545	0.1	-3.8561e-002
24246	6.0775	0.81818	0.1	-2.9753e-002
24247	6.1696	0.72727	0.1	-3.4966e-002
24248	6.0775	1.	0.1	-2.0346e-002
24249	6.1696	0.90909	0.1	-2.2845e-002
24250	6.0775	1.1818	0.1	-1.4301e-002
24251	6.1696	1.0909	0.1	-1.6649e-002
24252	6.0775	1.3636	0.1	-9.2142e-003
24253	6.1696	1.2727	0.1	-1.1154e-002
24254	6.0775	1.5455	0.1	-5.0984e-003
24255	6.1696	1.4545	0.1	-6.8608e-003
24256	6.0775	1.7273	0.1	-1.6524e-003
24257	6.1696	1.6364	0.1	-3.2552e-003
24258	6.0775	1.9091	0.1	1.2148e-003
24259	6.1696	1.8182	0.1	-2.5714e-004
24260	6.0775	2.0909	0.1	3.5792e-003
24261	6.1696	2.	0.1	2.2346e-003
24262	6.0775	2.2727	0.1	5.4799e-003
24263	6.1696	2.1818	0.1	4.2677e-003
24264	6.0775	2.4545	0.1	6.9404e-003
24265	6.1696	2.3636	0.1	5.8711e-003
24266	6.0775	2.6364	0.1	7.9756e-003
24267	6.1696	2.5455	0.1	7.0614e-003
24268	6.0775	2.8182	0.1	8.5947e-003
24269	6.1696	2.7273	0.1	7.8513e-003
24270	6.0775	3.	0.1	8.8008e-003
24271	6.1696	2.9091	0.1	8.2455e-003
24272	6.0775	3.1818	0.1	8.5948e-003
24273	6.1696	3.0909	0.1	8.2455e-003
24274	6.0775	3.3636	0.1	7.9758e-003
24275	6.1696	3.2727	0.1	7.8514e-003
24276	6.0775	3.5455	0.1	6.9407e-003
24277	6.1696	3.4545	0.1	7.0615e-003
24278	6.0775	3.7273	0.1	5.4803e-003
24279	6.1696	3.6364	0.1	5.8714e-003
24280	6.0775	3.9091	0.1	3.5796e-003
24281	6.1696	3.8182	0.1	4.2681e-003
24282	6.0775	4.0909	0.1	1.2153e-003
24283	6.1696	4.	0.1	2.235e-003
24284	6.0775	4.2727	0.1	-1.6518e-003
24285	6.1696	4.1818	0.1	-2.5658e-004
24286	6.0775	4.4545	0.1	-5.0977e-003
24287	6.1696	4.3636	0.1	-3.2546e-003
24288	6.0775	4.6364	0.1	-9.2135e-003
24289	6.1696	4.5455	0.1	-6.8601e-003
24290	6.0775	4.8182	0.1	-1.4301e-002
24291	6.1696	4.7273	0.1	-1.1154e-002
24292	6.0775	5.	0.1	-2.0345e-002
24293	6.1696	4.9091	0.1	-1.6648e-002
24294	6.0775	5.1818	0.1	-2.9752e-002
24295	6.1696	5.0909	0.1	-2.2844e-002
24296	6.0775	5.3636	0.1	-3.75e-002
24297	6.1696	5.2727	0.1	-3.4965e-002
24298	6.0775	5.5455	0.1	-8.5218e-002
24299	6.1696	5.4545	0.1	-3.8561e-002
24300	6.0775	5.7273	0.1	-0.11697
24301	6.1696	5.6364	0.1	-0.12986
24302	6.1696	5.8182	0.1	-0.13616
24303	6.0775	5.9091	0.1	-0.14207
24304	6.2617	0.27273	0.1	-0.10668
24305	6.3538	0.18182	0.1	-0.12719
24306	6.2617	9.0909e-002	0.1	-0.13588
24307	6.2617	0.45455	0.1	-7.7644e-002
24308	6.3538	0.36364	0.1	-0.11851
24309	6.2617	0.63636	0.1	-3.4092e-002
24310	6.3538	0.54545	0.1	-3.4956e-002
24311	6.2617	0.81818	0.1	-2.7159e-002
24312	6.3538	0.72727	0.1	-3.1871e-002
24313	6.2617	1.	0.1	-1.8644e-002
24314	6.3538	0.90909	0.1	-2.0886e-002
24315	6.2617	1.1818	0.1	-1.3184e-002
24316	6.3538	1.0909	0.1	-1.5302e-002
24317	6.2617	1.3636	0.1	-8.5807e-003
24318	6.3538	1.2727	0.1	-1.0334e-002
24319	6.2617	1.5455	0.1	-4.8547e-003
24320	6.3538	1.4545	0.1	-6.4522e-003
24321	6.2617	1.7273	0.1	-1.7325e-003
24322	6.3538	1.6364	0.1	-3.1889e-003
24323	6.2617	1.9091	0.1	8.671e-004
24324	6.3538	1.8182	0.1	-4.735e-004
24325	6.2617	2.0909	0.1	3.0121e-003
24326	6.3538	2.	0.1	1.7847e-003
24327	6.2617	2.2727	0.1	4.7375e-003
24328	6.3538	2.1818	0.1	3.6285e-003
24329	6.2617	2.4545	0.1	6.0637e-003
24330	6.3538	2.3636	0.1	5.0833e-003
24331	6.2617	2.6364	0.1	7.0041e-003
24332	6.3538	2.5455	0.1	6.1634e-003
24333	6.2617	2.8182	0.1	7.5666e-003
24334	6.3538	2.7273	0.1	6.8807e-003
24335	6.2617	3.	0.1	7.7539e-003
24336	6.3538	2.9091	0.1	7.2385e-003
24337	6.2617	3.1818	0.1	7.5667e-003
24338	6.3538	3.0909	0.1	7.2386e-003
24339	6.2617	3.3636	0.1	7.0042e-003
24340	6.3538	3.2727	0.1	6.8807e-003
24341	6.2617	3.5455	0.1	6.0639e-003
24342	6.3538	3.4545	0.1	6.1636e-003
24343	6.2617	3.7273	0.1	4.7378e-003
24344	6.3538	3.6364	0.1	5.0836e-003
24345	6.2617	3.9091	0.1	3.0125e-003
24346	6.3538	3.8182	0.1	3.6289e-003
24347	6.2617	4.0909	0.1	8.6761e-004
24348	6.3538	4.	0.1	1.7853e-003
24349	6.2617	4.2727	0.1	-1.7319e-003
24350	6.3538	4.1818	0.1	-4.7301e-004
24351	6.2617	4.4545	0.1	-4.8541e-003
24352	6.3538	4.3636	0.1	-3.1881e-003
24353	6.2617	4.6364	0.1	-8.5801e-003
24354	6.3538	4.5455	0.1	-6.4516e-003
24355	6.2617	4.8182	0.1	-1.3183e-002
24356	6.3538	4.7273	0.1	-1.0333e-002
24357	6.2617	5.	0.1	-1.8643e-002
24358	6.3538	4.9091	0.1	-1.5301e-002
24359	6.2617	5.1818	0.1	-2.7158e-002
24360	6.3538	5.0909	0.1	-2.0885e-002
24361	6.2617	5.3636	0.1	-3.4092e-002
24362	6.3538	5.2727	0.1	-3.187e-002
24363	6.2617	5.5455	0.1	-7.7643e-002
24364	6.3538	5.4545	0.1	-3.4956e-002
24365	6.2617	5.7273	0.1	-0.10667
24366	6.3538	5.6364	0.1	-0.11851
24367	6.3538	5.8182	0.1	-0.12719
24368	6.2617	5.9091	0.1	-0.13588
24369	6.4458	0.27273	0.1	-9.7478e-002
24370	6.5379	0.18182	0.1	-0.12006
24371	6.4458	9.0909e-002	0.1	-0.1309
24372	6.4458	0.45455	0.1	-7.0705e-002
24373	6.5379	0.36364	0.1	-0.1081
24374	6.4458	0.63636	0.1	-3.0979e-002
24375	6.5379	0.54545	0.1	-3.1668e-002
24376	6.4458	0.81818	0.1	-2.4787e-002
24377	6.5379	0.72727	0.1	-2.9038e-002
24378	6.4458	1.	0.1	-1.709e-002
24379	6.5379	0.90909	0.1	-1.9096e-002
24380	6.4458	1.1818	0.1	-1.2166e-002
24381	6.5379	1.0909	0.1	-1.4072e-002
24382	6.4458	1.3636	0.1	-8.0081e-003
24383	6.5379	1.2727	0.1	-9.5889e-003
24384	6.4458	1.5455	0.1	-4.6401e-003
24385	6.5379	1.4545	0.1	-6.085e-003
24386	6.4458	1.7273	0.1	-1.8155e-003
24387	6.5379	1.6364	0.1	-3.1359e-003
24388	6.4458	1.9091	0.1	5.3787e-004
24389	6.5379	1.8182	0.1	-6.8052e-004
24390	6.4458	2.0909	0.1	2.481e-003
24391	6.5379	2.	0.1	1.3628e-003
24392	6.4458	2.2727	0.1	4.0448e-003
24393	6.5379	2.1818	0.1	3.0323e-003
24394	6.4458	2.4545	0.1	5.2472e-003
24395	6.5379	2.3636	0.1	4.3501e-003
24396	6.4458	2.6364	0.1	6.1002e-003
24397	6.5379	2.5455	0.1	5.3288e-003
24398	6.4458	2.8182	0.1	6.6105e-003
24399	6.5379	2.7273	0.1	5.979e-003
24400	6.4458	3.	0.1	6.7805e-003
24401	6.5379	2.9091	0.1	6.3036e-003
24402	6.4458	3.1818	0.1	6.6106e-003
24403	6.5379	3.0909	0.1	6.3037e-003
24404	6.4458	3.3636	0.1	6.1002e-003
24405	6.5379	3.2727	0.1	5.979e-003
24406	6.4458	3.5455	0.1	5.2475e-003
24407	6.5379	3.4545	0.1	5.329e-003
24408	6.4458	3.7273	0.1	4.0452e-003
24409	6.5379	3.6364	0.1	4.3505e-003
24410	6.4458	3.9091	0.1	2.4815e-003
24411	6.5379	3.8182	0.1	3.0327e-003
24412	6.4458	4.0909	0.1	5.3838e-004
24413	6.5379	4.	0.1	1.3633e-003
24414	6.4458	4.2727	0.1	-1.8149e-003
24415	6.5379	4.1818	0.1	-6.8017e-004
24416	6.4458	4.4545	0.1	-4.6393e-003
24417	6.5379	4.3636	0.1	-3.1353e-003
24418	6.4458	4.6364	0.1	-8.0072e-003
24419	6.5379	4.5455	0.1	-6.0843e-003
24420	6.4458	4.8182	0.1	-1.2165e-002
24421	6.5379	4.7273	0.1	-9.5883e-003
24422	6.4458	5.	0.1	-1.7089e-002
24423	6.5379	4.9091	0.1	-1.4071e-002
24424	6.4458	5.1818	0.1	-2.4785e-002
24425	6.5379	5.0909	0.1	-1.9095e-002
24426	6.4458	5.3636	0.1	-3.0978e-002
24427	6.5379	5.2727	0.1	-2.9037e-002
24428	6.4458	5.5455	0.1	-7.0704e-002
24429	6.5379	5.4545	0.1	-3.1668e-002
24430	6.4458	5.7273	0.1	-9.7476e-002
24431	6.5379	5.6364	0.1	-0.10809
24432	6.5379	5.8182	0.1	-0.12006
24433	6.4458	5.9091	0.1	-0.13089
24434	6.63	0.27273	0.1	-8.9262e-002
24435	6.7221	0.18182	0.1	-0.11472
24436	6.63	9.0909e-002	0.1	-0.12725
24437	6.63	0.45455	0.1	-6.4343e-002
24438	6.7221	0.36364	0.1	-9.856e-002
24439	6.63	0.63636	0.1	-2.8132e-002
24440	6.7221	0.54545	0.1	-2.8675e-002
24441	6.63	0.81818	0.1	-2.2615e-002
24442	6.7221	0.72727	0.1	-2.6453e-002
24443	6.63	1.	0.1	-1.567e-002
24444	6.7221	0.90909	0.1	-1.7469e-002
24445	6.63	1.1818	0.1	-1.1238e-002
24446	6.7221	1.0909	0.1	-1.2959e-002
24447	6.63	1.3636	0.1	-7.4886e-003
24448	6.7221	1.2727	0.1	-8.9214e-003
24449	6.63	1.5455	0.1	-4.4497e-003
24450	6.7221	1.4545	0.1	-5.7647e-003
24451	6.63	1.7273	0.1	-1.8984e-003
24452	6.7221	1.6364	0.1	-3.1044e-003
24453	6.63	1.9091	0.1	2.2837e-004
24454	6.7221	1.8182	0.1	-8.8803e-004
24455	6.63	2.0909	0.1	1.9856e-003
24456	6.7221	2.	0.1	9.5788e-004
24457	6.63	2.2727	0.1	3.4008e-003
24458	6.7221	2.1818	0.1	2.467e-003
24459	6.63	2.4545	0.1	4.4893e-003
24460	6.7221	2.3636	0.1	3.6589e-003
24461	6.63	2.6364	0.1	5.2616e-003
24462	6.7221	2.5455	0.1	4.5443e-003
24463	6.63	2.8182	0.1	5.724e-003
24464	6.7221	2.7273	0.1	5.1327e-003
24465	6.63	3.	0.1	5.878e-003
24466	6.7221	2.9091	0.1	5.4266e-003
24467	6.63	3.1818	0.1	5.7239e-003
24468	6.7221	3.0909	0.1	5.4266e-003
24469	6.63	3.3636	0.1	5.2617e-003
24470	6.7221	3.2727	0.1	5.1328e-003
24471	6.63	3.5455	0.1	4.4895e-003
24472	6.7221	3.4545	0.1	4.5445e-003
24473	6.63	3.7273	0.1	3.4011e-003
24474	6.7221	3.6364	0.1	3.6591e-003
24475	6.63	3.9091	0.1	1.9861e-003
24476	6.7221	3.8182	0.1	2.4675e-003
24477	6.63	4.0909	0.1	2.2875e-004
24478	6.7221	4.	0.1	9.5832e-004
24479	6.63	4.2727	0.1	-1.8981e-003
24480	6.7221	4.1818	0.1	-8.8759e-004
24481	6.63	4.4545	0.1	-4.4491e-003
24482	6.7221	4.3636	0.1	-3.104e-003
24483	6.63	4.6364	0.1	-7.488e-003
24484	6.7221	4.5455	0.1	-5.7639e-003
24485	6.63	4.8182	0.1	-1.1237e-002
24486	6.7221	4.7273	0.1	-8.9207e-003
24487	6.63	5.	0.1	-1.5669e-002
24488	6.7221	4.9091	0.1	-1.2958e-002
24489	6.63	5.1818	0.1	-2.2614e-002
24490	6.7221	5.0909	0.1	-1.7468e-002
24491	6.63	5.3636	0.1	-2.8131e-002
24492	6.7221	5.2727	0.1	-2.6452e-002
24493	6.63	5.5455	0.1	-6.4342e-002
24494	6.7221	5.4545	0.1	-2.8675e-002
24495	6.63	5.7273	0.1	-8.9261e-002
24496	6.7221	5.6364	0.1	-9.8559e-002
24497	6.7221	5.8182	0.1	-0.11472
24498	6.63	5.9091	0.1	-0.12725
24499	6.8142	0.27273	0.1	-8.1959e-002
24500	6.9063	0.18182	0.1	-0.11123
24501	6.8142	9.0909e-002	0.1	-0.1252
24502	6.8142	0.45455	0.1	-5.8529e-002
24503	6.9063	0.36364	0.1	-8.9822e-002
24504	6.8142	0.63636	0.1	-2.5547e-002
24505	6.9063	0.54545	0.1	-2.5951e-002
24506	6.8142	0.81818	0.1	-2.0646e-002
24507	6.9063	0.72727	0.1	-2.4093e-002
24508	6.8142	1.	0.1	-1.4392e-002
24509	6.9063	0.90909	0.1	-1.5991e-002
24510	6.8142	1.1818	0.1	-1.0412e-002
24511	6.9063	1.0909	0.1	-1.1953e-002
24512	6.8142	1.3636	0.1	-7.0388e-003
24513	6.9063	1.2727	0.1	-8.324e-003
24514	6.8142	1.5455	0.1	-4.3022e-003
24515	6.9063	1.4545	0.1	-5.4863e-003
24516	6.8142	1.7273	0.1	-2.0023e-003
24517	6.9063	1.6364	0.1	-3.0916e-003
24518	6.8142	1.9091	0.1	-8.3505e-005
24519	6.9063	1.8182	0.1	-1.0949e-003
24520	6.8142	2.0909	0.1	1.5032e-003
24521	6.9063	2.	0.1	5.6964e-004
24522	6.8142	2.2727	0.1	2.7816e-003
24523	6.9063	2.1818	0.1	1.9314e-003
24524	6.8142	2.4545	0.1	3.7654e-003
24525	6.9063	2.3636	0.1	3.0076e-003
24526	6.8142	2.6364	0.1	4.4636e-003
24527	6.9063	2.5455	0.1	3.8071e-003
24528	6.8142	2.8182	0.1	4.8817e-003
24529	6.9063	2.7273	0.1	4.3387e-003
24530	6.8142	3.	0.1	5.021e-003
24531	6.9063	2.9091	0.1	4.6044e-003
24532	6.8142	3.1818	0.1	4.8818e-003
24533	6.9063	3.0909	0.1	4.6044e-003
24534	6.8142	3.3636	0.1	4.4638e-003
24535	6.9063	3.2727	0.1	4.3389e-003
24536	6.8142	3.5455	0.1	3.7655e-003
24537	6.9063	3.4545	0.1	3.8073e-003
24538	6.8142	3.7273	0.1	2.7819e-003
24539	6.9063	3.6364	0.1	3.0078e-003
24540	6.8142	3.9091	0.1	1.5037e-003
24541	6.9063	3.8182	0.1	1.9319e-003
24542	6.8142	4.0909	0.1	-8.3002e-005
24543	6.9063	4.	0.1	5.7017e-004
24544	6.8142	4.2727	0.1	-2.0019e-003
24545	6.9063	4.1818	0.1	-1.0944e-003
24546	6.8142	4.4545	0.1	-4.3016e-003
24547	6.9063	4.3636	0.1	-3.0912e-003
24548	6.8142	4.6364	0.1	-7.0379e-003
24549	6.9063	4.5455	0.1	-5.4855e-003
24550	6.8142	4.8182	0.1	-1.0411e-002
24551	6.9063	4.7273	0.1	-8.3231e-003
24552	6.8142	5.	0.1	-1.4391e-002
24553	6.9063	4.9091	0.1	-1.1952e-002
24554	6.8142	5.1818	0.1	-2.0645e-002
24555	6.9063	5.0909	0.1	-1.5989e-002
24556	6.8142	5.3636	0.1	-2.5547e-002
24557	6.9063	5.2727	0.1	-2.4092e-002
24558	6.8142	5.5455	0.1	-5.8528e-002
24559	6.9063	5.4545	0.1	-2.595e-002
24560	6.8142	5.7273	0.1	-8.1958e-002
24561	6.9063	5.6364	0.1	-8.982e-002
24562	6.9063	5.8182	0.1	-0.11122
24563	6.8142	5.9091	0.1	-0.1252
24564	6.9983	0.27273	0.1	-7.5471e-002
24565	7.0904	0.18182	0.1	-0.10974
24566	6.9983	9.0909e-002	0.1	-0.12516
24567	6.9983	0.45455	0.1	-5.3191e-002
24568	7.0904	0.36364	0.1	-8.1801e-002
24569	6.9983	0.63636	0.1	-2.318e-002
24570	7.0904	0.54545	0.1	-2.3457e-002
24571	6.9983	0.81818	0.1	-1.8842e-002
24572	7.0904	0.72727	0.1	-2.1928e-002
24573	6.9983	1.	0.1	-1.3223e-002
24574	7.0904	0.90909	0.1	-1.4636e-002
24575	6.9983	1.1818	0.1	-9.6583e-003
24576	7.0904	1.0909	0.1	-1.1032e-002
24577	6.9983	1.3636	0.1	-6.6299e-003
24578	7.0904	1.2727	0.1	-7.779e-003
24579	6.9983	1.5455	0.1	-4.1713e-003
24580	7.0904	1.4545	0.1	-5.2345e-003
24581	6.9983	1.7273	0.1	-2.1025e-003
24582	7.0904	1.6364	0.1	-3.084e-003
24583	6.9983	1.9091	0.1	-3.7491e-004
24584	7.0904	1.8182	0.1	-1.289e-003
24585	6.9983	2.0909	0.1	1.0548e-003
24586	7.0904	2.	0.1	2.088e-004
24587	6.9983	2.2727	0.1	2.2077e-003
24588	7.0904	2.1818	0.1	1.4351e-003
24589	6.9983	2.4545	0.1	3.0952e-003
24590	7.0904	2.3636	0.1	2.405e-003
24591	6.9983	2.6364	0.1	3.7252e-003
24592	7.0904	2.5455	0.1	3.1255e-003
24593	6.9983	2.8182	0.1	4.1028e-003
24594	7.0904	2.7273	0.1	3.605e-003
24595	6.9983	3.	0.1	4.2286e-003
24596	7.0904	2.9091	0.1	3.8447e-003
24597	6.9983	3.1818	0.1	4.1028e-003
24598	7.0904	3.0909	0.1	3.8448e-003
24599	6.9983	3.3636	0.1	3.7253e-003
24600	7.0904	3.2727	0.1	3.6051e-003
24601	6.9983	3.5455	0.1	3.0953e-003
24602	7.0904	3.4545	0.1	3.1257e-003
24603	6.9983	3.7273	0.1	2.2081e-003
24604	7.0904	3.6364	0.1	2.4052e-003
24605	6.9983	3.9091	0.1	1.0554e-003
24606	7.0904	3.8182	0.1	1.4356e-003
24607	6.9983	4.0909	0.1	-3.7435e-004
24608	7.0904	4.	0.1	2.0927e-004
24609	6.9983	4.2727	0.1	-2.102e-003
24610	7.0904	4.1818	0.1	-1.2884e-003
24611	6.9983	4.4545	0.1	-4.1706e-003
24612	7.0904	4.3636	0.1	-3.0834e-003
24613	6.9983	4.6364	0.1	-6.6291e-003
24614	7.0904	4.5455	0.1	-5.2338e-003
24615	6.9983	4.8182	0.1	-9.6575e-003
24616	7.0904	4.7273	0.1	-7.7783e-003
24617	6.9983	5.	0.1	-1.3222e-002
24618	7.0904	4.9091	0.1	-1.1031e-002
24619	6.9983	5.1818	0.1	-1.8841e-002
24620	7.0904	5.0909	0.1	-1.4635e-002
24621	6.9983	5.3636	0.1	-2.318e-002
24622	7.0904	5.2727	0.1	-2.1927e-002
24623	6.9983	5.5455	0.1	-5.319e-002
24624	7.0904	5.4545	0.1	-2.3457e-002
24625	6.9983	5.7273	0.1	-7.5469e-002
24626	7.0904	5.6364	0.1	-8.1799e-002
24627	7.0904	5.8182	0.1	-0.10974
24628	6.9983	5.9091	0.1	-0.12516
24629	7.1825	0.27273	0.1	-6.974e-002
24630	7.2746	0.18182	0.1	-0.11067
24631	7.1825	9.0909e-002	0.1	-0.12791
24632	7.1825	0.45455	0.1	-4.8288e-002
24633	7.2746	0.36364	0.1	-7.4447e-002
24634	7.1825	0.63636	0.1	-2.101e-002
24635	7.2746	0.54545	0.1	-2.1183e-002
24636	7.1825	0.81818	0.1	-1.7188e-002
24637	7.2746	0.72727	0.1	-1.9951e-002
24638	7.1825	1.	0.1	-1.2151e-002
24639	7.2746	0.90909	0.1	-1.3405e-002
24640	7.1825	1.1818	0.1	-8.9687e-003
24641	7.2746	1.0909	0.1	-1.0199e-002
24642	7.1825	1.3636	0.1	-6.2576e-003
24643	7.2746	1.2727	0.1	-7.2918e-003
24644	7.1825	1.5455	0.1	-4.0544e-003
24645	7.2746	1.4545	0.1	-5.0167e-003
24646	7.1825	1.7273	0.1	-2.1979e-003
24647	7.2746	1.6364	0.1	-3.0905e-003
24648	7.1825	1.9091	0.1	-6.4589e-004
24649	7.2746	1.8182	0.1	-1.4807e-003
24650	7.1825	2.0909	0.1	6.3975e-004
24651	7.2746	2.	0.1	-1.3619e-004
24652	7.1825	2.2727	0.1	1.6771e-003
24653	7.2746	2.1818	0.1	9.658e-004
24654	7.1825	2.4545	0.1	2.4759e-003
24655	7.2746	2.3636	0.1	1.8378e-003
24656	7.1825	2.6364	0.1	3.0434e-003
24657	7.2746	2.5455	0.1	2.486e-003
24658	7.1825	2.8182	0.1	3.3837e-003
24659	7.2746	2.7273	0.1	2.9176e-003
24660	7.1825	3.	0.1	3.4971e-003
24661	7.2746	2.9091	0.1	3.1332e-003
24662	7.1825	3.1818	0.1	3.3838e-003
24663	7.2746	3.0909	0.1	3.1333e-003
24664	7.1825	3.3636	0.1	3.0437e-003
24665	7.2746	3.2727	0.1	2.9177e-003
24666	7.1825	3.5455	0.1	2.4763e-003
24667	7.2746	3.4545	0.1	2.4863e-003
24668	7.1825	3.7273	0.1	1.6774e-003
24669	7.2746	3.6364	0.1	1.838e-003
24670	7.1825	3.9091	0.1	6.4014e-004
24671	7.2746	3.8182	0.1	9.663e-004
24672	7.1825	4.0909	0.1	-6.4545e-004
24673	7.2746	4.	0.1	-1.3581e-004
24674	7.1825	4.2727	0.1	-2.1973e-003
24675	7.2746	4.1818	0.1	-1.4801e-003
24676	7.1825	4.4545	0.1	-4.0537e-003
24677	7.2746	4.3636	0.1	-3.0899e-003
24678	7.1825	4.6364	0.1	-6.257e-003
24679	7.2746	4.5455	0.1	-5.016e-003
24680	7.1825	4.8182	0.1	-8.9683e-003
24681	7.2746	4.7273	0.1	-7.2912e-003
24682	7.1825	5.	0.1	-1.215e-002
24683	7.2746	4.9091	0.1	-1.0198e-002
24684	7.1825	5.1818	0.1	-1.7186e-002
24685	7.2746	5.0909	0.1	-1.3404e-002
24686	7.1825	5.3636	0.1	-2.1009e-002
24687	7.2746	5.2727	0.1	-1.995e-002
24688	7.1825	5.5455	0.1	-4.8287e-002
24689	7.2746	5.4545	0.1	-2.1183e-002
24690	7.1825	5.7273	0.1	-6.9738e-002
24691	7.2746	5.6364	0.1	-7.4445e-002
24692	7.2746	5.8182	0.1	-0.11067
24693	7.1825	5.9091	0.1	-0.12791
24694	7.3667	0.27273	0.1	-6.4749e-002
24695	7.4587	0.18182	0.1	-0.11485
24696	7.3667	9.0909e-002	0.1	-0.13496
24697	7.3667	0.45455	0.1	-4.3802e-002
24698	7.4587	0.36364	0.1	-6.7702e-002
24699	7.3667	0.63636	0.1	-1.904e-002
24700	7.4587	0.54545	0.1	-1.911e-002
24701	7.3667	0.81818	0.1	-1.569e-002
24702	7.4587	0.72727	0.1	-1.8146e-002
24703	7.3667	1.	0.1	-1.1191e-002
24704	7.4587	0.90909	0.1	-1.2287e-002
24705	7.3667	1.1818	0.1	-8.3586e-003
24706	7.4587	1.0909	0.1	-9.4463e-003
24707	7.3667	1.3636	0.1	-5.9392e-003
24708	7.4587	1.2727	0.1	-6.8574e-003
24709	7.3667	1.5455	0.1	-3.9706e-003
24710	7.4587	1.4545	0.1	-4.8298e-003
24711	7.3667	1.7273	0.1	-2.3091e-003
24712	7.4587	1.6364	0.1	-3.1097e-003
24713	7.3667	1.9091	0.1	-9.1845e-004
24714	7.4587	1.8182	0.1	-1.6701e-003
24715	7.3667	2.0909	0.1	2.3463e-004
24716	7.4587	2.	0.1	-4.6634e-004
24717	7.3667	2.2727	0.1	1.1661e-003
24718	7.4587	2.1818	0.1	5.2149e-004
24719	7.3667	2.4545	0.1	1.8839e-003
24720	7.4587	2.3636	0.1	1.3039e-003
24721	7.3667	2.6364	0.1	2.3939e-003
24722	7.4587	2.5455	0.1	1.8856e-003
24723	7.3667	2.8182	0.1	2.6997e-003
24724	7.4587	2.7273	0.1	2.273e-003
24725	7.3667	3.	0.1	2.8016e-003
24726	7.4587	2.9091	0.1	2.4668e-003
24727	7.3667	3.1818	0.1	2.6997e-003
24728	7.4587	3.0909	0.1	2.4668e-003
24729	7.3667	3.3636	0.1	2.394e-003
24730	7.4587	3.2727	0.1	2.2732e-003
24731	7.3667	3.5455	0.1	1.8841e-003
24732	7.4587	3.4545	0.1	1.8857e-003
24733	7.3667	3.7273	0.1	1.1665e-003
24734	7.4587	3.6364	0.1	1.304e-003
24735	7.3667	3.9091	0.1	2.3513e-004
24736	7.4587	3.8182	0.1	5.22e-004
24737	7.3667	4.0909	0.1	-9.1795e-004
24738	7.4587	4.	0.1	-4.6589e-004
24739	7.3667	4.2727	0.1	-2.3086e-003
24740	7.4587	4.1818	0.1	-1.6695e-003
24741	7.3667	4.4545	0.1	-3.9701e-003
24742	7.4587	4.3636	0.1	-3.1092e-003
24743	7.3667	4.6364	0.1	-5.9386e-003
24744	7.4587	4.5455	0.1	-4.8292e-003
24745	7.3667	4.8182	0.1	-8.358e-003
24746	7.4587	4.7273	0.1	-6.8566e-003
24747	7.3667	5.	0.1	-1.119e-002
24748	7.4587	4.9091	0.1	-9.4457e-003
24749	7.3667	5.1818	0.1	-1.5688e-002
24750	7.4587	5.0909	0.1	-1.2285e-002
24751	7.3667	5.3636	0.1	-1.9039e-002
24752	7.4587	5.2727	0.1	-1.8146e-002
24753	7.3667	5.5455	0.1	-4.3801e-002
24754	7.4587	5.4545	0.1	-1.9109e-002
24755	7.3667	5.7273	0.1	-6.4748e-002
24756	7.4587	5.6364	0.1	-6.7701e-002
24757	7.4587	5.8182	0.1	-0.11485
24758	7.3667	5.9091	0.1	-0.13496
24759	7.5508	0.27273	0.1	-6.0461e-002
24760	7.6429	0.18182	0.1	-0.12391
24761	7.5508	9.0909e-002	0.1	-0.14953
24762	7.5508	0.45455	0.1	-3.9677e-002
24763	7.6429	0.36364	0.1	-6.1507e-002
24764	7.5508	0.63636	0.1	-1.7232e-002
24765	7.6429	0.54545	0.1	-1.7207e-002
24766	7.5508	0.81818	0.1	-1.4315e-002
24767	7.6429	0.72727	0.1	-1.6488e-002
24768	7.5508	1.	0.1	-1.031e-002
24769	7.6429	0.90909	0.1	-1.1261e-002
24770	7.5508	1.1818	0.1	-7.801e-003
24771	7.6429	1.0909	0.1	-8.7573e-003
24772	7.5508	1.3636	0.1	-5.6496e-003
24773	7.6429	1.2727	0.1	-6.4606e-003
24774	7.5508	1.5455	0.1	-3.8964e-003
24775	7.6429	1.4545	0.1	-4.6605e-003
24776	7.5508	1.7273	0.1	-2.4142e-003
24777	7.6429	1.6364	0.1	-3.1296e-003
24778	7.5508	1.9091	0.1	-1.1718e-003
24779	7.6429	1.8182	0.1	-1.8466e-003
24780	7.5508	2.0909	0.1	-1.4004e-004
24781	7.6429	2.	0.1	-7.7186e-004
24782	7.5508	2.2727	0.1	6.9409e-004
24783	7.6429	2.1818	0.1	1.1113e-004
24784	7.5508	2.4545	0.1	1.3373e-003
24785	7.6429	2.3636	0.1	8.11e-004
24786	7.5508	2.6364	0.1	1.7945e-003
24787	7.6429	2.5455	0.1	1.3317e-003
24788	7.5508	2.8182	0.1	2.0688e-003
24789	7.6429	2.7273	0.1	1.6788e-003
24790	7.5508	3.	0.1	2.1603e-003
24791	7.6429	2.9091	0.1	1.8525e-003
24792	7.5508	3.1818	0.1	2.0689e-003
24793	7.6429	3.0909	0.1	1.8526e-003
24794	7.5508	3.3636	0.1	1.7947e-003
24795	7.6429	3.2727	0.1	1.6791e-003
24796	7.5508	3.5455	0.1	1.3374e-003
24797	7.6429	3.4545	0.1	1.3319e-003
24798	7.5508	3.7273	0.1	6.9438e-004
24799	7.6429	3.6364	0.1	8.1129e-004
24800	7.5508	3.9091	0.1	-1.396e-004
24801	7.6429	3.8182	0.1	1.1149e-004
24802	7.5508	4.0909	0.1	-1.1712e-003
24803	7.6429	4.	0.1	-7.7141e-004
24804	7.5508	4.2727	0.1	-2.4137e-003
24805	7.6429	4.1818	0.1	-1.846e-003
24806	7.5508	4.4545	0.1	-3.896e-003
24807	7.6429	4.3636	0.1	-3.129e-003
24808	7.5508	4.6364	0.1	-5.6489e-003
24809	7.6429	4.5455	0.1	-4.66e-003
24810	7.5508	4.8182	0.1	-7.8003e-003
24811	7.6429	4.7273	0.1	-6.4599e-003
24812	7.5508	5.	0.1	-1.0309e-002
24813	7.6429	4.9091	0.1	-8.7566e-003
24814	7.5508	5.1818	0.1	-1.4314e-002
24815	7.6429	5.0909	0.1	-1.126e-002
24816	7.5508	5.3636	0.1	-1.7231e-002
24817	7.6429	5.2727	0.1	-1.6488e-002
24818	7.5508	5.5455	0.1	-3.9676e-002
24819	7.6429	5.4545	0.1	-1.7207e-002
24820	7.5508	5.7273	0.1	-6.046e-002
24821	7.6429	5.6364	0.1	-6.1505e-002
24822	7.6429	5.8182	0.1	-0.12391
24823	7.5508	5.9091	0.1	-0.14953
24824	7.735	0.27273	0.1	-5.6894e-002
24825	7.8271	0.18182	0.1	-0.14154
24826	7.735	9.0909e-002	0.1	-0.1795
24827	7.735	0.45455	0.1	-3.5881e-002
24828	7.8271	0.36364	0.1	-5.5825e-002
24829	7.735	0.63636	0.1	-1.5572e-002
24830	7.8271	0.54545	0.1	-1.547e-002
24831	7.735	0.81818	0.1	-1.3053e-002
24832	7.8271	0.72727	0.1	-1.4975e-002
24833	7.735	1.	0.1	-9.5032e-003
24834	7.8271	0.90909	0.1	-1.0331e-002
24835	7.735	1.1818	0.1	-7.2903e-003
24836	7.8271	1.0909	0.1	-8.1362e-003
24837	7.735	1.3636	0.1	-5.3853e-003
24838	7.8271	1.2727	0.1	-6.1081e-003
24839	7.735	1.5455	0.1	-3.8303e-003
24840	7.8271	1.4545	0.1	-4.5172e-003
24841	7.735	1.7273	0.1	-2.5125e-003
24842	7.8271	1.6364	0.1	-3.1601e-003
24843	7.735	1.9091	0.1	-1.4062e-003
24844	7.8271	1.8182	0.1	-2.0203e-003
24845	7.735	2.0909	0.1	-4.8615e-004
24846	7.8271	2.	0.1	-1.0644e-003
24847	7.735	2.2727	0.1	2.5858e-004
24848	7.8271	2.1818	0.1	-2.7758e-004
24849	7.735	2.4545	0.1	8.3327e-004
24850	7.8271	2.3636	0.1	3.4672e-004
24851	7.735	2.6364	0.1	1.2422e-003
24852	7.8271	2.5455	0.1	8.1143e-004
24853	7.735	2.8182	0.1	1.4877e-003
24854	7.8271	2.7273	0.1	1.1216e-003
24855	7.735	3.	0.1	1.5696e-003
24856	7.8271	2.9091	0.1	1.2767e-003
24857	7.735	3.1818	0.1	1.4879e-003
24858	7.8271	3.0909	0.1	1.2769e-003
24859	7.735	3.3636	0.1	1.2424e-003
24860	7.8271	3.2727	0.1	1.1216e-003
24861	7.735	3.5455	0.1	8.3365e-004
24862	7.8271	3.4545	0.1	8.1169e-004
24863	7.735	3.7273	0.1	2.5893e-004
24864	7.8271	3.6364	0.1	3.4705e-004
24865	7.735	3.9091	0.1	-4.858e-004
24866	7.8271	3.8182	0.1	-2.7717e-004
24867	7.735	4.0909	0.1	-1.4057e-003
24868	7.8271	4.	0.1	-1.064e-003
24869	7.735	4.2727	0.1	-2.512e-003
24870	7.8271	4.1818	0.1	-2.02e-003
24871	7.735	4.4545	0.1	-3.8297e-003
24872	7.8271	4.3636	0.1	-3.1593e-003
24873	7.735	4.6364	0.1	-5.3847e-003
24874	7.8271	4.5455	0.1	-4.5165e-003
24875	7.735	4.8182	0.1	-7.2896e-003
24876	7.8271	4.7273	0.1	-6.1074e-003
24877	7.735	5.	0.1	-9.502e-003
24878	7.8271	4.9091	0.1	-8.1354e-003
24879	7.735	5.1818	0.1	-1.3052e-002
24880	7.8271	5.0909	0.1	-1.0329e-002
24881	7.735	5.3636	0.1	-1.5571e-002
24882	7.8271	5.2727	0.1	-1.4974e-002
24883	7.735	5.5455	0.1	-3.588e-002
24884	7.8271	5.4545	0.1	-1.547e-002
24885	7.735	5.7273	0.1	-5.6892e-002
24886	7.8271	5.6364	0.1	-5.5824e-002
24887	7.8271	5.8182	0.1	-0.14154
24888	7.735	5.9091	0.1	-0.1795
24889	7.9192	0.27273	0.1	-5.4134e-002
24890	8.0112	0.18182	0.1	-0.17717
24891	7.9192	9.0909e-002	0.1	-0.24829
24892	7.9192	0.45455	0.1	-3.2405e-002
24893	8.0112	0.36364	0.1	-5.0617e-002
24894	7.9192	0.63636	0.1	-1.4066e-002
24895	8.0112	0.54545	0.1	-1.3884e-002
24896	7.9192	0.81818	0.1	-1.1914e-002
24897	8.0112	0.72727	0.1	-1.3595e-002
24898	7.9192	1.	0.1	-8.7839e-003
24899	8.0112	0.90909	0.1	-9.4886e-003
24900	7.9192	1.1818	0.1	-6.8435e-003
24901	8.0112	1.0909	0.1	-7.5781e-003
24902	7.9192	1.3636	0.1	-5.165e-003
24903	8.0112	1.2727	0.1	-5.797e-003
24904	7.9192	1.5455	0.1	-3.7919e-003
24905	8.0112	1.4545	0.1	-4.3979e-003
24906	7.9192	1.7273	0.1	-2.625e-003
24907	8.0112	1.6364	0.1	-3.2003e-003
24908	7.9192	1.9091	0.1	-1.6434e-003
24909	8.0112	1.8182	0.1	-2.1921e-003
24910	7.9192	2.0909	0.1	-8.2575e-004
24911	8.0112	2.	0.1	-1.3449e-003
24912	7.9192	2.2727	0.1	-1.6285e-004
24913	8.0112	2.1818	0.1	-6.4646e-004
24914	7.9192	2.4545	0.1	3.4915e-004
24915	8.0112	2.3636	0.1	-9.1391e-005
24916	7.9192	2.6364	0.1	7.1365e-004
24917	8.0112	2.5455	0.1	3.2205e-004
24918	7.9192	2.8182	0.1	9.3263e-004
24919	8.0112	2.7273	0.1	5.9819e-004
24920	7.9192	3.	0.1	1.0058e-003
24921	8.0112	2.9091	0.1	7.3654e-004
24922	7.9192	3.1818	0.1	9.3263e-004
24923	8.0112	3.0909	0.1	7.3663e-004
24924	7.9192	3.3636	0.1	7.1368e-004
24925	8.0112	3.2727	0.1	5.9834e-004
24926	7.9192	3.5455	0.1	3.4936e-004
24927	8.0112	3.4545	0.1	3.2223e-004
24928	7.9192	3.7273	0.1	-1.6247e-004
24929	8.0112	3.6364	0.1	-9.1094e-005
24930	7.9192	3.9091	0.1	-8.253e-004
24931	8.0112	3.8182	0.1	-6.4578e-004
24932	7.9192	4.0909	0.1	-1.6431e-003
24933	8.0112	4.	0.1	-1.3446e-003
24934	7.9192	4.2727	0.1	-2.6244e-003
24935	8.0112	4.1818	0.1	-2.1918e-003
24936	7.9192	4.4545	0.1	-3.791e-003
24937	8.0112	4.3636	0.1	-3.1995e-003
24938	7.9192	4.6364	0.1	-5.1641e-003
24939	8.0112	4.5455	0.1	-4.3971e-003
24940	7.9192	4.8182	0.1	-6.8428e-003
24941	8.0112	4.7273	0.1	-5.7963e-003
24942	7.9192	5.	0.1	-8.7828e-003
24943	8.0112	4.9091	0.1	-7.5774e-003
24944	7.9192	5.1818	0.1	-1.1913e-002
24945	8.0112	5.0909	0.1	-9.487e-003
24946	7.9192	5.3636	0.1	-1.4066e-002
24947	8.0112	5.2727	0.1	-1.3594e-002
24948	7.9192	5.5455	0.1	-3.2405e-002
24949	8.0112	5.4545	0.1	-1.3884e-002
24950	7.9192	5.7273	0.1	-5.4132e-002
24951	8.0112	5.6364	0.1	-5.0616e-002
24952	8.0112	5.8182	0.1	-0.17717
24953	7.9192	5.9091	0.1	-0.24828
24954	8.1033	0.27273	0.1	-5.2317e-002
24955	8.1954	0.18182	0.1	-0.26149
24956	8.1033	9.0909e-002	0.1	-0.42894
24957	8.1033	0.45455	0.1	-2.9204e-002
24958	8.1954	0.36364	0.1	-4.5837e-002
24959	8.1033	0.63636	0.1	-1.2684e-002
24960	8.1954	0.54545	0.1	-1.2427e-002
24961	8.1033	0.81818	0.1	-1.087e-002
24962	8.1954	0.72727	0.1	-1.2328e-002
24963	8.1033	1.	0.1	-8.126e-003
24964	8.1954	0.90909	0.1	-8.7172e-003
24965	8.1033	1.1818	0.1	-6.436e-003
24966	8.1954	1.0909	0.1	-7.0685e-003
24967	8.1033	1.3636	0.1	-4.9652e-003
24968	8.1954	1.2727	0.1	-5.514e-003
24969	8.1033	1.5455	0.1	-3.7589e-003
24970	8.1954	1.4545	0.1	-4.2909e-003
24971	8.1033	1.7273	0.1	-2.7304e-003
24972	8.1954	1.6364	0.1	-3.2394e-003
24973	8.1033	1.9091	0.1	-1.8634e-003
24974	8.1954	1.8182	0.1	-2.3521e-003
24975	8.1033	2.0909	0.1	-1.1398e-003
24976	8.1954	2.	0.1	-1.6045e-003
24977	8.1033	2.2727	0.1	-5.5204e-004
24978	8.1954	2.1818	0.1	-9.8687e-004
24979	8.1033	2.4545	0.1	-9.7498e-005
24980	8.1954	2.3636	0.1	-4.9533e-004
24981	8.1033	2.6364	0.1	2.2633e-004
24982	8.1954	2.5455	0.1	-1.2896e-004
24983	8.1033	2.8182	0.1	4.2114e-004
24984	8.1954	2.7273	0.1	1.1608e-004
24985	8.1033	3.	0.1	4.8622e-004
24986	8.1954	2.9091	0.1	2.3896e-004
24987	8.1033	3.1818	0.1	4.2137e-004
24988	8.1954	3.0909	0.1	2.3896e-004
24989	8.1033	3.3636	0.1	2.2663e-004
24990	8.1954	3.2727	0.1	1.1632e-004
24991	8.1033	3.5455	0.1	-9.7231e-005
24992	8.1954	3.4545	0.1	-1.2884e-004
24993	8.1033	3.7273	0.1	-5.5144e-004
24994	8.1954	3.6364	0.1	-4.9501e-004
24995	8.1033	3.9091	0.1	-1.1391e-003
24996	8.1954	3.8182	0.1	-9.863e-004
24997	8.1033	4.0909	0.1	-1.863e-003
24998	8.1954	4.	0.1	-1.6041e-003
24999	8.1033	4.2727	0.1	-2.73e-003
25000	8.1954	4.1818	0.1	-2.3518e-003
25001	8.1033	4.4545	0.1	-3.7583e-003
25002	8.1954	4.3636	0.1	-3.2388e-003
25003	8.1033	4.6364	0.1	-4.9646e-003
25004	8.1954	4.5455	0.1	-4.2903e-003
25005	8.1033	4.8182	0.1	-6.4354e-003
25006	8.1954	4.7273	0.1	-5.5134e-003
25007	8.1033	5.	0.1	-8.1248e-003
25008	8.1954	4.9091	0.1	-7.0679e-003
25009	8.1033	5.1818	0.1	-1.0869e-002
25010	8.1954	5.0909	0.1	-8.7158e-003
25011	8.1033	5.3636	0.1	-1.2684e-002
25012	8.1954	5.2727	0.1	-1.2327e-002
25013	8.1033	5.5455	0.1	-2.9203e-002
25014	8.1954	5.4545	0.1	-1.2426e-002
25015	8.1033	5.7273	0.1	-5.2315e-002
25016	8.1954	5.6364	0.1	-4.5836e-002
25017	8.1954	5.8182	0.1	-0.26149
25018	8.1033	5.9091	0.1	-0.42894
25019	8.2875	0.27273	0.1	-5.1779e-002
25020	8.3796	0.18182	0.1	-0.51449
25021	8.2875	9.0909e-002	0.1	-0.81668
25022	8.2875	0.45455	0.1	-2.6253e-002
25023	8.3796	0.36364	0.1	-4.1465e-002
25024	8.2875	0.63636	0.1	-1.1415e-002
25025	8.3796	0.54545	0.1	-1.1096e-002
25026	8.2875	0.81818	0.1	-9.9135e-003
25027	8.3796	0.72727	0.1	-1.1175e-002
25028	8.2875	1.	0.1	-7.5245e-003
25029	8.3796	0.90909	0.1	-8.0223e-003
25030	8.2875	1.1818	0.1	-6.0647e-003
25031	8.3796	1.0909	0.1	-6.6135e-003
25032	8.2875	1.3636	0.1	-4.7846e-003
25033	8.3796	1.2727	0.1	-5.2672e-003
25034	8.2875	1.5455	0.1	-3.7311e-003
25035	8.3796	1.4545	0.1	-4.2053e-003
25036	8.2875	1.7273	0.1	-2.8296e-003
25037	8.3796	1.6364	0.1	-3.2877e-003
25038	8.2875	1.9091	0.1	-2.0673e-003
25039	8.3796	1.8182	0.1	-2.5109e-003
25040	8.2875	2.0909	0.1	-1.4295e-003
25041	8.3796	2.	0.1	-1.8545e-003
25042	8.2875	2.2727	0.1	-9.1052e-004
25043	8.3796	2.1818	0.1	-1.3107e-003
25044	8.2875	2.4545	0.1	-5.088e-004
25045	8.3796	2.3636	0.1	-8.7731e-004
25046	8.2875	2.6364	0.1	-2.2226e-004
25047	8.3796	2.5455	0.1	-5.5393e-004
25048	8.2875	2.8182	0.1	-4.9736e-005
25049	8.3796	2.7273	0.1	-3.3744e-004
25050	8.2875	3.	0.1	7.8662e-006
25051	8.3796	2.9091	0.1	-2.2889e-004
25052	8.2875	3.1818	0.1	-4.9736e-005
25053	8.3796	3.0909	0.1	-2.2877e-004
25054	8.2875	3.3636	0.1	-2.222e-004
25055	8.3796	3.2727	0.1	-3.3741e-004
25056	8.2875	3.5455	0.1	-5.0862e-004
25057	8.3796	3.4545	0.1	-5.5387e-004
25058	8.2875	3.7273	0.1	-9.1023e-004
25059	8.3796	3.6364	0.1	-8.7701e-004
25060	8.2875	3.9091	0.1	-1.4292e-003
25061	8.3796	3.8182	0.1	-1.3103e-003
25062	8.2875	4.0909	0.1	-2.0671e-003
25063	8.3796	4.	0.1	-1.854e-003
25064	8.2875	4.2727	0.1	-2.8292e-003
25065	8.3796	4.1818	0.1	-2.5107e-003
25066	8.2875	4.4545	0.1	-3.7305e-003
25067	8.3796	4.3636	0.1	-3.2871e-003
25068	8.2875	4.6364	0.1	-4.7839e-003
25069	8.3796	4.5455	0.1	-4.2046e-003
25070	8.2875	4.8182	0.1	-6.0642e-003
25071	8.3796	4.7273	0.1	-5.2664e-003
25072	8.2875	5.	0.1	-7.5237e-003
25073	8.3796	4.9091	0.1	-6.6131e-003
25074	8.2875	5.1818	0.1	-9.9125e-003
25075	8.3796	5.0909	0.1	-8.021e-003
25076	8.2875	5.3636	0.1	-1.1415e-002
25077	8.3796	5.2727	0.1	-1.1174e-002
25078	8.2875	5.5455	0.1	-2.6252e-002
25079	8.3796	5.4545	0.1	-1.1096e-002
25080	8.2875	5.7273	0.1	-5.1778e-002
25081	8.3796	5.6364	0.1	-4.1464e-002
25082	8.3796	5.8182	0.1	-0.51448
25083	8.2875	5.9091	0.1	-0.81667
25084	8.4717	0.27273	0.1	-5.3308e-002
25085	8.5638	0.18182	0.1	-1.1398
25086	8.4717	9.0909e-002	0.1	-1.3304
25087	8.4717	0.45455	0.1	-2.355e-002
25088	8.5638	0.36364	0.1	-3.7478e-002
25089	8.4717	0.63636	0.1	-1.027e-002
25090	8.5638	0.54545	0.1	-9.8833e-003
25091	8.4717	0.81818	0.1	-9.0581e-003
25092	8.5638	0.72727	0.1	-1.013e-002
25093	8.4717	1.	0.1	-6.9963e-003
25094	8.5638	0.90909	0.1	-7.3993e-003
25095	8.4717	1.1818	0.1	-5.7471e-003
25096	8.5638	1.0909	0.1	-6.2106e-003
25097	8.4717	1.3636	0.1	-4.6417e-003
25098	8.5638	1.2727	0.1	-5.0546e-003
25099	8.4717	1.5455	0.1	-3.7281e-003
25100	8.5638	1.4545	0.1	-4.1403e-003
25101	8.4717	1.7273	0.1	-2.9426e-003
25102	8.5638	1.6364	0.1	-3.3449e-003
25103	8.4717	1.9091	0.1	-2.2763e-003
25104	8.5638	1.8182	0.1	-2.6692e-003
25105	8.4717	2.0909	0.1	-1.717e-003
25106	8.5638	2.	0.1	-2.0959e-003
25107	8.4717	2.2727	0.1	-1.2609e-003
25108	8.5638	2.1818	0.1	-1.6198e-003
25109	8.4717	2.4545	0.1	-9.0719e-004
25110	8.5638	2.3636	0.1	-1.2395e-003
25111	8.4717	2.6364	0.1	-6.5472e-004
25112	8.5638	2.5455	0.1	-9.5556e-004
25113	8.4717	2.8182	0.1	-5.0269e-004
25114	8.5638	2.7273	0.1	-7.6494e-004
25115	8.4717	3.	0.1	-4.5178e-004
25116	8.5638	2.9091	0.1	-6.6945e-004
25117	8.4717	3.1818	0.1	-5.0254e-004
25118	8.5638	3.0909	0.1	-6.6919e-004
25119	8.4717	3.3636	0.1	-6.5469e-004
25120	8.5638	3.2727	0.1	-7.6492e-004
25121	8.4717	3.5455	0.1	-9.0701e-004
25122	8.5638	3.4545	0.1	-9.5544e-004
25123	8.4717	3.7273	0.1	-1.2605e-003
25124	8.5638	3.6364	0.1	-1.2393e-003
25125	8.4717	3.9091	0.1	-1.7165e-003
25126	8.5638	3.8182	0.1	-1.6194e-003
25127	8.4717	4.0909	0.1	-2.2759e-003
25128	8.5638	4.	0.1	-2.0955e-003
25129	8.4717	4.2727	0.1	-2.9422e-003
25130	8.5638	4.1818	0.1	-2.6687e-003
25131	8.4717	4.4545	0.1	-3.7275e-003
25132	8.5638	4.3636	0.1	-3.3443e-003
25133	8.4717	4.6364	0.1	-4.6409e-003
25134	8.5638	4.5455	0.1	-4.1394e-003
25135	8.4717	4.8182	0.1	-5.7464e-003
25136	8.5638	4.7273	0.1	-5.0539e-003
25137	8.4717	5.	0.1	-6.9953e-003
25138	8.5638	4.9091	0.1	-6.21e-003
25139	8.4717	5.1818	0.1	-9.0569e-003
25140	8.5638	5.0909	0.1	-7.398e-003
25141	8.4717	5.3636	0.1	-1.0269e-002
25142	8.5638	5.2727	0.1	-1.0129e-002
25143	8.4717	5.5455	0.1	-2.3549e-002
25144	8.5638	5.4545	0.1	-9.8828e-003
25145	8.4717	5.7273	0.1	-5.3306e-002
25146	8.5638	5.6364	0.1	-3.7477e-002
25147	8.5638	5.8182	0.1	-1.1398
25148	8.4717	5.9091	0.1	-1.3304
25149	8.6558	0.27273	0.1	-5.891e-002
25150	8.7479	0.18182	0.1	-1.9733
25151	8.6558	9.0909e-002	0.1	-1.8668
25152	8.6558	0.45455	0.1	-2.1056e-002
25153	8.7479	0.36364	0.1	-3.3854e-002
25154	8.6558	0.63636	0.1	-9.2217e-003
25155	8.7479	0.54545	0.1	-8.7691e-003
25156	8.6558	0.81818	0.1	-8.2783e-003
25157	8.7479	0.72727	0.1	-9.1752e-003
25158	8.6558	1.	0.1	-6.5175e-003
25159	8.7479	0.90909	0.1	-6.8344e-003
25160	8.6558	1.1818	0.1	-5.4611e-003
25161	8.7479	1.0909	0.1	-5.8474e-003
25162	8.6558	1.3636	0.1	-4.5152e-003
25163	8.7479	1.2727	0.1	-4.8651e-003
25164	8.6558	1.5455	0.1	-3.7293e-003
25165	8.7479	1.4545	0.1	-4.0851e-003
25166	8.6558	1.7273	0.1	-3.0498e-003
25167	8.7479	1.6364	0.1	-3.4013e-003
25168	8.6558	1.9091	0.1	-2.4709e-003
25169	8.7479	1.8182	0.1	-2.8177e-003
25170	8.6558	2.0909	0.1	-1.9833e-003
25171	8.7479	2.	0.1	-2.3204e-003
25172	8.6558	2.2727	0.1	-1.5846e-003
25173	8.7479	2.1818	0.1	-1.9059e-003
25174	8.6558	2.4545	0.1	-1.2751e-003
25175	8.7479	2.3636	0.1	-1.574e-003
25176	8.6558	2.6364	0.1	-1.0537e-003
25177	8.7479	2.5455	0.1	-1.326e-003
25178	8.6558	2.8182	0.1	-9.2004e-004
25179	8.7479	2.7273	0.1	-1.159e-003
25180	8.6558	3.	0.1	-8.7531e-004
25181	8.7479	2.9091	0.1	-1.0753e-003
25182	8.6558	3.1818	0.1	-9.1989e-004
25183	8.7479	3.0909	0.1	-1.0751e-003
25184	8.6558	3.3636	0.1	-1.0536e-003
25185	8.7479	3.2727	0.1	-1.1592e-003
25186	8.6558	3.5455	0.1	-1.2749e-003
25187	8.7479	3.4545	0.1	-1.3258e-003
25188	8.6558	3.7273	0.1	-1.5843e-003
25189	8.7479	3.6364	0.1	-1.5738e-003
25190	8.6558	3.9091	0.1	-1.9829e-003
25191	8.7479	3.8182	0.1	-1.9055e-003
25192	8.6558	4.0909	0.1	-2.4704e-003
25193	8.7479	4.	0.1	-2.32e-003
25194	8.6558	4.2727	0.1	-3.0491e-003
25195	8.7479	4.1818	0.1	-2.8172e-003
25196	8.6558	4.4545	0.1	-3.7285e-003
25197	8.7479	4.3636	0.1	-3.4008e-003
25198	8.6558	4.6364	0.1	-4.5144e-003
25199	8.7479	4.5455	0.1	-4.0843e-003
25200	8.6558	4.8182	0.1	-5.4605e-003
25201	8.7479	4.7273	0.1	-4.8645e-003
25202	8.6558	5.	0.1	-6.5165e-003
25203	8.7479	4.9091	0.1	-5.8467e-003
25204	8.6558	5.1818	0.1	-8.2771e-003
25205	8.7479	5.0909	0.1	-6.8332e-003
25206	8.6558	5.3636	0.1	-9.221e-003
25207	8.7479	5.2727	0.1	-9.1741e-003
25208	8.6558	5.5455	0.1	-2.1055e-002
25209	8.7479	5.4545	0.1	-8.7688e-003
25210	8.6558	5.7273	0.1	-5.8909e-002
25211	8.7479	5.6364	0.1	-3.3852e-002
25212	8.7479	5.8182	0.1	-1.9733
25213	8.6558	5.9091	0.1	-1.8668
25214	8.84	0.27273	0.1	-7.5814e-002
25215	8.9321	0.18182	0.1	-2.8278
25216	8.84	9.0909e-002	0.1	-2.3918
25217	8.84	0.45455	0.1	-1.8752e-002
25218	8.9321	0.36364	0.1	-3.0608e-002
25219	8.84	0.63636	0.1	-8.2643e-003
25220	8.9321	0.54545	0.1	-7.7569e-003
25221	8.84	0.81818	0.1	-7.5704e-003
25222	8.9321	0.72727	0.1	-8.3168e-003
25223	8.84	1.	0.1	-6.086e-003
25224	8.9321	0.90909	0.1	-6.3352e-003
25225	8.84	1.1818	0.1	-5.2056e-003
25226	8.9321	1.0909	0.1	-5.532e-003
25227	8.84	1.3636	0.1	-4.4047e-003
25228	8.9321	1.2727	0.1	-4.708e-003
25229	8.84	1.5455	0.1	-3.7349e-003
25230	8.9321	1.4545	0.1	-4.0494e-003
25231	8.84	1.7273	0.1	-3.1519e-003
25232	8.9321	1.6364	0.1	-3.4672e-003
25233	8.84	1.9091	0.1	-2.6528e-003
25234	8.9321	1.8182	0.1	-2.9669e-003
25235	8.84	2.0909	0.1	-2.2305e-003
25236	8.9321	2.	0.1	-2.5388e-003
25237	8.84	2.2727	0.1	-1.884e-003
25238	8.9321	2.1818	0.1	-2.1802e-003
25239	8.84	2.4545	0.1	-1.6144e-003
25240	8.9321	2.3636	0.1	-1.8924e-003
25241	8.84	2.6364	0.1	-1.4213e-003
25242	8.9321	2.5455	0.1	-1.6767e-003
25243	8.84	2.8182	0.1	-1.3046e-003
25244	8.9321	2.7273	0.1	-1.5317e-003
25245	8.84	3.	0.1	-1.2656e-003
25246	8.9321	2.9091	0.1	-1.4586e-003
25247	8.84	3.1818	0.1	-1.3047e-003
25248	8.9321	3.0909	0.1	-1.4585e-003
25249	8.84	3.3636	0.1	-1.4214e-003
25250	8.9321	3.2727	0.1	-1.5318e-003
25251	8.84	3.5455	0.1	-1.6142e-003
25252	8.9321	3.4545	0.1	-1.6767e-003
25253	8.84	3.7273	0.1	-1.8838e-003
25254	8.9321	3.6364	0.1	-1.8922e-003
25255	8.84	3.9091	0.1	-2.2301e-003
25256	8.9321	3.8182	0.1	-2.1799e-003
25257	8.84	4.0909	0.1	-2.6523e-003
25258	8.9321	4.	0.1	-2.5384e-003
25259	8.84	4.2727	0.1	-3.1515e-003
25260	8.9321	4.1818	0.1	-2.9664e-003
25261	8.84	4.4545	0.1	-3.7344e-003
25262	8.9321	4.3636	0.1	-3.4668e-003
25263	8.84	4.6364	0.1	-4.404e-003
25264	8.9321	4.5455	0.1	-4.0489e-003
25265	8.84	4.8182	0.1	-5.205e-003
25266	8.9321	4.7273	0.1	-4.7072e-003
25267	8.84	5.	0.1	-6.0852e-003
25268	8.9321	4.9091	0.1	-5.5314e-003
25269	8.84	5.1818	0.1	-7.5693e-003
25270	8.9321	5.0909	0.1	-6.3341e-003
25271	8.84	5.3636	0.1	-8.2637e-003
25272	8.9321	5.2727	0.1	-8.3156e-003
25273	8.84	5.5455	0.1	-1.8751e-002
25274	8.9321	5.4545	0.1	-7.7567e-003
25275	8.84	5.7273	0.1	-7.5812e-002
25276	8.9321	5.6364	0.1	-3.0607e-002
25277	8.9321	5.8182	0.1	-2.8278
25278	8.84	5.9091	0.1	-2.3918
25279	9.0242	0.27273	0.1	-0.1527
25280	9.1163	0.18182	0.1	-3.6553
25281	9.0242	9.0909e-002	0.1	-2.8957
25282	9.0242	0.45455	0.1	-1.6641e-002
25283	9.1163	0.36364	0.1	-2.7799e-002
25284	9.0242	0.63636	0.1	-7.4131e-003
25285	9.1163	0.54545	0.1	-6.842e-003
25286	9.0242	0.81818	0.1	-6.9513e-003
25287	9.1163	0.72727	0.1	-7.5524e-003
25288	9.0242	1.	0.1	-5.7199e-003
25289	9.1163	0.90909	0.1	-5.9012e-003
25290	9.0242	1.1818	0.1	-4.9991e-003
25291	9.1163	1.0909	0.1	-5.2639e-003
25292	9.0242	1.3636	0.1	-4.3295e-003
25293	9.1163	1.2727	0.1	-4.5826e-003
25294	9.0242	1.5455	0.1	-3.7647e-003
25295	9.1163	1.4545	0.1	-4.0341e-003
25296	9.0242	1.7273	0.1	-3.2688e-003
25297	9.1163	1.6364	0.1	-3.543e-003
25298	9.0242	1.9091	0.1	-2.8417e-003
25299	9.1163	1.8182	0.1	-3.1182e-003
25300	9.0242	2.0909	0.1	-2.4787e-003
25301	9.1163	2.	0.1	-2.7523e-003
25302	9.0242	2.2727	0.1	-2.1797e-003
25303	9.1163	2.1818	0.1	-2.4445e-003
25304	9.0242	2.4545	0.1	-1.9464e-003
25305	9.1163	2.3636	0.1	-2.1967e-003
25306	9.0242	2.6364	0.1	-1.7791e-003
25307	9.1163	2.5455	0.1	-2.0106e-003
25308	9.0242	2.8182	0.1	-1.6779e-003
25309	9.1163	2.7273	0.1	-1.8851e-003
25310	9.0242	3.	0.1	-1.6439e-003
25311	9.1163	2.9091	0.1	-1.8217e-003
25312	9.0242	3.1818	0.1	-1.6778e-003
25313	9.1163	3.0909	0.1	-1.8216e-003
25314	9.0242	3.3636	0.1	-1.7791e-003
25315	9.1163	3.2727	0.1	-1.885e-003
25316	9.0242	3.5455	0.1	-1.9463e-003
25317	9.1163	3.4545	0.1	-2.0104e-003
25318	9.0242	3.7273	0.1	-2.1794e-003
25319	9.1163	3.6364	0.1	-2.1965e-003
25320	9.0242	3.9091	0.1	-2.4784e-003
25321	9.1163	3.8182	0.1	-2.4443e-003
25322	9.0242	4.0909	0.1	-2.8413e-003
25323	9.1163	4.	0.1	-2.7522e-003
25324	9.0242	4.2727	0.1	-3.2683e-003
25325	9.1163	4.1818	0.1	-3.1176e-003
25326	9.0242	4.4545	0.1	-3.7643e-003
25327	9.1163	4.3636	0.1	-3.5426e-003
25328	9.0242	4.6364	0.1	-4.3289e-003
25329	9.1163	4.5455	0.1	-4.0336e-003
25330	9.0242	4.8182	0.1	-4.9984e-003
25331	9.1163	4.7273	0.1	-4.5819e-003
25332	9.0242	5.	0.1	-5.7189e-003
25333	9.1163	4.9091	0.1	-5.2633e-003
25334	9.0242	5.1818	0.1	-6.9501e-003
25335	9.1163	5.0909	0.1	-5.8996e-003
25336	9.0242	5.3636	0.1	-7.4123e-003
25337	9.1163	5.2727	0.1	-7.5512e-003
25338	9.0242	5.5455	0.1	-1.6641e-002
25339	9.1163	5.4545	0.1	-6.8418e-003
25340	9.0242	5.7273	0.1	-0.15269
25341	9.1163	5.6364	0.1	-2.7798e-002
25342	9.1163	5.8182	0.1	-3.6553
25343	9.0242	5.9091	0.1	-2.8957
25344	9.2083	0.27273	0.1	-0.70009
25345	9.3004	0.18182	0.1	-4.4447
25346	9.2083	9.0909e-002	0.1	-3.3759
25347	9.2083	0.45455	0.1	-1.469e-002
25348	9.3004	0.36364	0.1	-2.5642e-002
25349	9.2083	0.63636	0.1	-6.6479e-003
25350	9.3004	0.54545	0.1	-6.0126e-003
25351	9.2083	0.81818	0.1	-6.4019e-003
25352	9.3004	0.72727	0.1	-6.8719e-003
25353	9.2083	1.	0.1	-5.4001e-003
25354	9.3004	0.90909	0.1	-5.5225e-003
25355	9.2083	1.1818	0.1	-4.8221e-003
25356	9.3004	1.0909	0.1	-5.0334e-003
25357	9.2083	1.3636	0.1	-4.2707e-003
25358	9.3004	1.2727	0.1	-4.4797e-003
25359	9.2083	1.5455	0.1	-3.8003e-003
25360	9.3004	1.4545	0.1	-4.0294e-003
25361	9.2083	1.7273	0.1	-3.3827e-003
25362	9.3004	1.6364	0.1	-3.62e-003
25363	9.2083	1.9091	0.1	-3.0205e-003
25364	9.3004	1.8182	0.1	-3.2626e-003
25365	9.2083	2.0909	0.1	-2.7107e-003
25366	9.3004	2.	0.1	-2.9526e-003
25367	9.2083	2.2727	0.1	-2.4546e-003
25368	9.3004	2.1818	0.1	-2.6905e-003
25369	9.2083	2.4545	0.1	-2.2544e-003
25370	9.3004	2.3636	0.1	-2.4784e-003
25371	9.2083	2.6364	0.1	-2.1104e-003
25372	9.3004	2.5455	0.1	-2.3192e-003
25373	9.2083	2.8182	0.1	-2.0228e-003
25374	9.3004	2.7273	0.1	-2.2112e-003
25375	9.2083	3.	0.1	-1.9934e-003
25376	9.3004	2.9091	0.1	-2.1566e-003
25377	9.2083	3.1818	0.1	-2.0227e-003
25378	9.3004	3.0909	0.1	-2.1566e-003
25379	9.2083	3.3636	0.1	-2.11e-003
25380	9.3004	3.2727	0.1	-2.2111e-003
25381	9.2083	3.5455	0.1	-2.2541e-003
25382	9.3004	3.4545	0.1	-2.3188e-003
25383	9.2083	3.7273	0.1	-2.4545e-003
25384	9.3004	3.6364	0.1	-2.4781e-003
25385	9.2083	3.9091	0.1	-2.7107e-003
25386	9.3004	3.8182	0.1	-2.6901e-003
25387	9.2083	4.0909	0.1	-3.0202e-003
25388	9.3004	4.	0.1	-2.9525e-003
25389	9.2083	4.2727	0.1	-3.3822e-003
25390	9.3004	4.1818	0.1	-3.262e-003
25391	9.2083	4.4545	0.1	-3.7998e-003
25392	9.3004	4.3636	0.1	-3.6194e-003
25393	9.2083	4.6364	0.1	-4.27e-003
25394	9.3004	4.5455	0.1	-4.0288e-003
25395	9.2083	4.8182	0.1	-4.8216e-003
25396	9.3004	4.7273	0.1	-4.4791e-003
25397	9.2083	5.	0.1	-5.3989e-003
25398	9.3004	4.9091	0.1	-5.0329e-003
25399	9.2083	5.1818	0.1	-6.4004e-003
25400	9.3004	5.0909	0.1	-5.5206e-003
25401	9.2083	5.3636	0.1	-6.6473e-003
25402	9.3004	5.2727	0.1	-6.8707e-003
25403	9.2083	5.5455	0.1	-1.469e-002
25404	9.3004	5.4545	0.1	-6.0124e-003
25405	9.2083	5.7273	0.1	-0.70007
25406	9.3004	5.6364	0.1	-2.5641e-002
25407	9.3004	5.8182	0.1	-4.4447
25408	9.2083	5.9091	0.1	-3.3759
25409	9.3925	0.27273	0.1	-1.6236
25410	9.4846	0.18182	0.1	-5.1941
25411	9.3925	9.0909e-002	0.1	-3.8322
25412	9.3925	0.45455	0.1	-1.2883e-002
25413	9.4846	0.36364	0.1	-2.5443e-002
25414	9.3925	0.63636	0.1	-5.97e-003
25415	9.4846	0.54545	0.1	-5.2837e-003
25416	9.3925	0.81818	0.1	-5.9219e-003
25417	9.4846	0.72727	0.1	-6.2907e-003
25418	9.3925	1.	0.1	-5.1263e-003
25419	9.4846	0.90909	0.1	-5.2126e-003
25420	9.3925	1.1818	0.1	-4.6751e-003
25421	9.4846	1.0909	0.1	-4.8536e-003
25422	9.3925	1.3636	0.1	-4.2282e-003
25423	9.4846	1.2727	0.1	-4.4119e-003
25424	9.3925	1.5455	0.1	-3.8415e-003
25425	9.4846	1.4545	0.1	-4.0476e-003
25426	9.3925	1.7273	0.1	-3.4935e-003
25427	9.4846	1.6364	0.1	-3.7103e-003
25428	9.3925	1.9091	0.1	-3.1891e-003
25429	9.4846	1.8182	0.1	-3.4126e-003
25430	9.3925	2.0909	0.1	-2.9273e-003
25431	9.4846	2.	0.1	-3.1523e-003
25432	9.3925	2.2727	0.1	-2.7094e-003
25433	9.4846	2.1818	0.1	-2.9306e-003
25434	9.3925	2.4545	0.1	-2.5384e-003
25435	9.4846	2.3636	0.1	-2.7504e-003
25436	9.3925	2.6364	0.1	-2.4153e-003
25437	9.4846	2.5455	0.1	-2.6149e-003
25438	9.3925	2.8182	0.1	-2.3404e-003
25439	9.4846	2.7273	0.1	-2.523e-003
25440	9.3925	3.	0.1	-2.3152e-003
25441	9.4846	2.9091	0.1	-2.4761e-003
25442	9.3925	3.1818	0.1	-2.3404e-003
25443	9.4846	3.0909	0.1	-2.4762e-003
25444	9.3925	3.3636	0.1	-2.4152e-003
25445	9.4846	3.2727	0.1	-2.5228e-003
25446	9.3925	3.5455	0.1	-2.538e-003
25447	9.4846	3.4545	0.1	-2.6146e-003
25448	9.3925	3.7273	0.1	-2.7088e-003
25449	9.4846	3.6364	0.1	-2.7502e-003
25450	9.3925	3.9091	0.1	-2.9268e-003
25451	9.4846	3.8182	0.1	-2.9301e-003
25452	9.3925	4.0909	0.1	-3.1888e-003
25453	9.4846	4.	0.1	-3.1518e-003
25454	9.3925	4.2727	0.1	-3.493e-003
25455	9.4846	4.1818	0.1	-3.4121e-003
25456	9.3925	4.4545	0.1	-3.8408e-003
25457	9.4846	4.3636	0.1	-3.7095e-003
25458	9.3925	4.6364	0.1	-4.2275e-003
25459	9.4846	4.5455	0.1	-4.0471e-003
25460	9.3925	4.8182	0.1	-4.6745e-003
25461	9.4846	4.7273	0.1	-4.4112e-003
25462	9.3925	5.	0.1	-5.1251e-003
25463	9.4846	4.9091	0.1	-4.853e-003
25464	9.3925	5.1818	0.1	-5.9204e-003
25465	9.4846	5.0909	0.1	-5.2113e-003
25466	9.3925	5.3636	0.1	-5.9691e-003
25467	9.4846	5.2727	0.1	-6.2894e-003
25468	9.3925	5.5455	0.1	-1.2882e-002
25469	9.4846	5.4545	0.1	-5.2832e-003
25470	9.3925	5.7273	0.1	-1.6235
25471	9.4846	5.6364	0.1	-2.5442e-002
25472	9.4846	5.8182	0.1	-5.194
25473	9.3925	5.9091	0.1	-3.8322
25474	9.5767	0.27273	0.1	-2.5359
25475	9.6687	0.18182	0.1	-5.9039
25476	9.5767	9.0909e-002	0.1	-4.2652
25477	9.5767	0.45455	0.1	-1.123e-002
25478	9.6687	0.36364	0.1	-0.13695
25479	9.5767	0.63636	0.1	-5.4126e-003
25480	9.6687	0.54545	0.1	-4.6644e-003
25481	9.5767	0.81818	0.1	-5.541e-003
25482	9.6687	0.72727	0.1	-5.8131e-003
25483	9.5767	1.	0.1	-4.9256e-003
25484	9.6687	0.90909	0.1	-4.9721e-003
25485	9.5767	1.1818	0.1	-4.5834e-003
25486	9.6687	1.0909	0.1	-4.7217e-003
25487	9.5767	1.3636	0.1	-4.2269e-003
25488	9.6687	1.2727	0.1	-4.3749e-003
25489	9.5767	1.5455	0.1	-3.9129e-003
25490	9.6687	1.4545	0.1	-4.084e-003
25491	9.5767	1.7273	0.1	-3.6261e-003
25492	9.6687	1.6364	0.1	-3.8087e-003
25493	9.5767	1.9091	0.1	-3.3726e-003
25494	9.6687	1.8182	0.1	-3.5631e-003
25495	9.5767	2.0909	0.1	-3.1524e-003
25496	9.6687	2.	0.1	-3.3458e-003
25497	9.5767	2.2727	0.1	-2.9684e-003
25498	9.6687	2.1818	0.1	-3.1598e-003
25499	9.5767	2.4545	0.1	-2.8236e-003
25500	9.6687	2.3636	0.1	-3.0079e-003
25501	9.5767	2.6364	0.1	-2.7192e-003
25502	9.6687	2.5455	0.1	-2.8932e-003
25503	9.5767	2.8182	0.1	-2.6554e-003
25504	9.6687	2.7273	0.1	-2.8153e-003
25505	9.5767	3.	0.1	-2.6338e-003
25506	9.6687	2.9091	0.1	-2.7755e-003
25507	9.5767	3.1818	0.1	-2.6553e-003
25508	9.6687	3.0909	0.1	-2.7754e-003
25509	9.5767	3.3636	0.1	-2.719e-003
25510	9.6687	3.2727	0.1	-2.8152e-003
25511	9.5767	3.5455	0.1	-2.8235e-003
25512	9.6687	3.4545	0.1	-2.8931e-003
25513	9.5767	3.7273	0.1	-2.9683e-003
25514	9.6687	3.6364	0.1	-3.0077e-003
25515	9.5767	3.9091	0.1	-3.152e-003
25516	9.6687	3.8182	0.1	-3.1593e-003
25517	9.5767	4.0909	0.1	-3.372e-003
25518	9.6687	4.	0.1	-3.3453e-003
25519	9.5767	4.2727	0.1	-3.6254e-003
25520	9.6687	4.1818	0.1	-3.5623e-003
25521	9.5767	4.4545	0.1	-3.9123e-003
25522	9.6687	4.3636	0.1	-3.8081e-003
25523	9.5767	4.6364	0.1	-4.2264e-003
25524	9.6687	4.5455	0.1	-4.0836e-003
25525	9.5767	4.8182	0.1	-4.5828e-003
25526	9.6687	4.7273	0.1	-4.3744e-003
25527	9.5767	5.	0.1	-4.9248e-003
25528	9.6687	4.9091	0.1	-4.721e-003
25529	9.5767	5.1818	0.1	-5.5398e-003
25530	9.6687	5.0909	0.1	-4.9709e-003
25531	9.5767	5.3636	0.1	-5.4117e-003
25532	9.6687	5.2727	0.1	-5.8119e-003
25533	9.5767	5.5455	0.1	-1.123e-002
25534	9.6687	5.4545	0.1	-4.664e-003
25535	9.5767	5.7273	0.1	-2.5359
25536	9.6687	5.6364	0.1	-0.13694
25537	9.6687	5.8182	0.1	-5.9039
25538	9.5767	5.9091	0.1	-4.2652
25539	9.7608	0.27273	0.1	-3.4016
25540	9.8529	0.18182	0.1	-6.5759
25541	9.7608	9.0909e-002	0.1	-4.676
25542	9.7608	0.45455	0.1	-9.6838e-003
25543	9.8529	0.36364	0.1	-1.1199
25544	9.7608	0.63636	0.1	-4.9627e-003
25545	9.8529	0.54545	0.1	-4.1964e-003
25546	9.7608	0.81818	0.1	-5.2346e-003
25547	9.8529	0.72727	0.1	-5.4541e-003
25548	9.7608	1.	0.1	-4.7686e-003
25549	9.8529	0.90909	0.1	-4.8039e-003
25550	9.7608	1.1818	0.1	-4.5148e-003
25551	9.8529	1.0909	0.1	-4.6349e-003
25552	9.7608	1.3636	0.1	-4.2332e-003
25553	9.8529	1.2727	0.1	-4.3639e-003
25554	9.7608	1.5455	0.1	-3.9802e-003
25555	9.8529	1.4545	0.1	-4.1325e-003
25556	9.7608	1.7273	0.1	-3.7453e-003
25557	9.8529	1.6364	0.1	-3.9082e-003
25558	9.7608	1.9091	0.1	-3.5354e-003
25559	9.8529	1.8182	0.1	-3.7061e-003
25560	9.7608	2.0909	0.1	-3.3518e-003
25561	9.8529	2.	0.1	-3.5259e-003
25562	9.7608	2.2727	0.1	-3.1976e-003
25563	9.8529	2.1818	0.1	-3.3703e-003
25564	9.7608	2.4545	0.1	-3.0756e-003
25565	9.8529	2.3636	0.1	-3.2428e-003
25566	9.7608	2.6364	0.1	-2.9872e-003
25567	9.8529	2.5455	0.1	-3.1462e-003
25568	9.7608	2.8182	0.1	-2.9332e-003
25569	9.8529	2.7273	0.1	-3.0804e-003
25570	9.7608	3.	0.1	-2.9149e-003
25571	9.8529	2.9091	0.1	-3.0471e-003
25572	9.7608	3.1818	0.1	-2.9331e-003
25573	9.8529	3.0909	0.1	-3.0468e-003
25574	9.7608	3.3636	0.1	-2.9872e-003
25575	9.8529	3.2727	0.1	-3.0804e-003
25576	9.7608	3.5455	0.1	-3.0753e-003
25577	9.8529	3.4545	0.1	-3.1463e-003
25578	9.7608	3.7273	0.1	-3.1971e-003
25579	9.8529	3.6364	0.1	-3.2426e-003
25580	9.7608	3.9091	0.1	-3.3513e-003
25581	9.8529	3.8182	0.1	-3.3699e-003
25582	9.7608	4.0909	0.1	-3.5348e-003
25583	9.8529	4.	0.1	-3.5256e-003
25584	9.7608	4.2727	0.1	-3.7447e-003
25585	9.8529	4.1818	0.1	-3.7055e-003
25586	9.7608	4.4545	0.1	-3.9797e-003
25587	9.8529	4.3636	0.1	-3.9077e-003
25588	9.7608	4.6364	0.1	-4.2327e-003
25589	9.8529	4.5455	0.1	-4.132e-003
25590	9.7608	4.8182	0.1	-4.5141e-003
25591	9.8529	4.7273	0.1	-4.3634e-003
25592	9.7608	5.	0.1	-4.7675e-003
25593	9.8529	4.9091	0.1	-4.6343e-003
25594	9.7608	5.1818	0.1	-5.2335e-003
25595	9.8529	5.0909	0.1	-4.8026e-003
25596	9.7608	5.3636	0.1	-4.9621e-003
25597	9.8529	5.2727	0.1	-5.453e-003
25598	9.7608	5.5455	0.1	-9.6832e-003
25599	9.8529	5.4545	0.1	-4.196e-003
25600	9.7608	5.7273	0.1	-3.4015
25601	9.8529	5.6364	0.1	-1.1199
25602	9.8529	5.8182	0.1	-6.5759
25603	9.7608	5.9091	0.1	-4.6759
25604	9.945	0.27273	0.1	-4.218
25605	10.037	0.18182	0.1	-7.2121
25606	9.945	9.0909e-002	0.1	-5.0655
25607	9.945	0.45455	0.1	-8.2516e-003
25608	10.037	0.36364	0.1	-2.0727
25609	9.945	0.63636	0.1	-4.6975e-003
25610	10.037	0.54545	0.1	-4.1187e-003
25611	9.945	0.81818	0.1	-5.0448e-003
25612	10.037	0.72727	0.1	-5.3097e-003
25613	9.945	1.	0.1	-4.6848e-003
25614	10.037	0.90909	0.1	-4.7732e-003
25615	9.945	1.1818	0.1	-4.4937e-003
25616	10.037	1.0909	0.1	-4.648e-003
25617	9.945	1.3636	0.1	-4.2696e-003
25618	10.037	1.2727	0.1	-4.4285e-003
25619	9.945	1.5455	0.1	-4.0646e-003
25620	10.037	1.4545	0.1	-4.2401e-003
25621	9.945	1.7273	0.1	-3.8714e-003
25622	10.037	1.6364	0.1	-4.0549e-003
25623	9.945	1.9091	0.1	-3.6978e-003
25624	10.037	1.8182	0.1	-3.887e-003
25625	9.945	2.0909	0.1	-3.5447e-003
25626	10.037	2.	0.1	-3.7369e-003
25627	9.945	2.2727	0.1	-3.4152e-003
25628	10.037	2.1818	0.1	-3.6066e-003
25629	9.945	2.4545	0.1	-3.3126e-003
25630	10.037	2.3636	0.1	-3.4992e-003
25631	9.945	2.6364	0.1	-3.2383e-003
25632	10.037	2.5455	0.1	-3.4181e-003
25633	9.945	2.8182	0.1	-3.193e-003
25634	10.037	2.7273	0.1	-3.3623e-003
25635	9.945	3.	0.1	-3.1777e-003
25636	10.037	2.9091	0.1	-3.3341e-003
25637	9.945	3.1818	0.1	-3.1929e-003
25638	10.037	3.0909	0.1	-3.3341e-003
25639	9.945	3.3636	0.1	-3.2385e-003
25640	10.037	3.2727	0.1	-3.3624e-003
25641	9.945	3.5455	0.1	-3.3129e-003
25642	10.037	3.4545	0.1	-3.418e-003
25643	9.945	3.7273	0.1	-3.4152e-003
25644	10.037	3.6364	0.1	-3.499e-003
25645	9.945	3.9091	0.1	-3.5446e-003
25646	10.037	3.8182	0.1	-3.6059e-003
25647	9.945	4.0909	0.1	-3.6975e-003
25648	10.037	4.	0.1	-3.7366e-003
25649	9.945	4.2727	0.1	-3.871e-003
25650	10.037	4.1818	0.1	-3.8866e-003
25651	9.945	4.4545	0.1	-4.0641e-003
25652	10.037	4.3636	0.1	-4.0544e-003
25653	9.945	4.6364	0.1	-4.2691e-003
25654	10.037	4.5455	0.1	-4.2393e-003
25655	9.945	4.8182	0.1	-4.4932e-003
25656	10.037	4.7273	0.1	-4.4276e-003
25657	9.945	5.	0.1	-4.6839e-003
25658	10.037	4.9091	0.1	-4.6473e-003
25659	9.945	5.1818	0.1	-5.0436e-003
25660	10.037	5.0909	0.1	-4.7717e-003
25661	9.945	5.3636	0.1	-4.6966e-003
25662	10.037	5.2727	0.1	-5.3085e-003
25663	9.945	5.5455	0.1	-8.2509e-003
25664	10.037	5.4545	0.1	-4.1182e-003
25665	9.945	5.7273	0.1	-4.218
25666	10.037	5.6364	0.1	-2.0727
25667	10.037	5.8182	0.1	-7.2121
25668	9.945	5.9091	0.1	-5.0655
25669	10.129	0.27273	0.1	-4.9873
25670	10.221	0.18182	0.1	-7.8148
25671	10.129	9.0909e-002	0.1	-5.4354
25672	10.129	0.45455	0.1	-0.64518
25673	10.221	0.36364	0.1	-2.967
25674	10.129	0.63636	0.1	-4.849e-003
25675	10.221	0.54545	0.1	-6.0231e-003
25676	10.129	0.81818	0.1	-5.0875e-003
25677	10.221	0.72727	0.1	-5.4796e-003
25678	10.129	1.	0.1	-4.764e-003
25679	10.221	0.90909	0.1	-4.8946e-003
25680	10.129	1.1818	0.1	-4.6e-003
25681	10.221	1.0909	0.1	-4.7524e-003
25682	10.129	1.3636	0.1	-4.4103e-003
25683	10.221	1.2727	0.1	-4.5508e-003
25684	10.129	1.5455	0.1	-4.2379e-003
25685	10.221	1.4545	0.1	-4.3845e-003
25686	10.129	1.7273	0.1	-4.0753e-003
25687	10.221	1.6364	0.1	-4.2243e-003
25688	10.129	1.9091	0.1	-3.9293e-003
25689	10.221	1.8182	0.1	-4.0804e-003
25690	10.129	2.0909	0.1	-3.8007e-003
25691	10.221	2.	0.1	-3.9525e-003
25692	10.129	2.2727	0.1	-3.6915e-003
25693	10.221	2.1818	0.1	-3.8414e-003
25694	10.129	2.4545	0.1	-3.6049e-003
25695	10.221	2.3636	0.1	-3.7501e-003
25696	10.129	2.6364	0.1	-3.542e-003
25697	10.221	2.5455	0.1	-3.6814e-003
25698	10.129	2.8182	0.1	-3.5029e-003
25699	10.221	2.7273	0.1	-3.6337e-003
25700	10.129	3.	0.1	-3.4899e-003
25701	10.221	2.9091	0.1	-3.6095e-003
25702	10.129	3.1818	0.1	-3.5032e-003
25703	10.221	3.0909	0.1	-3.6096e-003
25704	10.129	3.3636	0.1	-3.5417e-003
25705	10.221	3.2727	0.1	-3.6337e-003
25706	10.129	3.5455	0.1	-3.6043e-003
25707	10.221	3.4545	0.1	-3.6811e-003
25708	10.129	3.7273	0.1	-3.6906e-003
25709	10.221	3.6364	0.1	-3.7497e-003
25710	10.129	3.9091	0.1	-3.7998e-003
25711	10.221	3.8182	0.1	-3.8407e-003
25712	10.129	4.0909	0.1	-3.9288e-003
25713	10.221	4.	0.1	-3.952e-003
25714	10.129	4.2727	0.1	-4.0749e-003
25715	10.221	4.1818	0.1	-4.08e-003
25716	10.129	4.4545	0.1	-4.2371e-003
25717	10.221	4.3636	0.1	-4.2239e-003
25718	10.129	4.6364	0.1	-4.4091e-003
25719	10.221	4.5455	0.1	-4.3837e-003
25720	10.129	4.8182	0.1	-4.5989e-003
25721	10.221	4.7273	0.1	-4.5499e-003
25722	10.129	5.	0.1	-4.7627e-003
25723	10.221	4.9091	0.1	-4.7518e-003
25724	10.129	5.1818	0.1	-5.086e-003
25725	10.221	5.0909	0.1	-4.893e-003
25726	10.129	5.3636	0.1	-4.8481e-003
25727	10.221	5.2727	0.1	-5.4784e-003
25728	10.129	5.5455	0.1	-0.64517
25729	10.221	5.4545	0.1	-6.0227e-003
25730	10.129	5.7273	0.1	-4.9873
25731	10.221	5.6364	0.1	-2.967
25732	10.221	5.8182	0.1	-7.8147
25733	10.129	5.9091	0.1	-5.4354
25734	10.313	0.27273	0.1	-5.7122
25735	10.405	0.18182	0.1	-8.3859
25736	10.313	9.0909e-002	0.1	-5.7866
25737	10.313	0.45455	0.1	-1.6608
25738	10.405	0.36364	0.1	-3.8064
25739	10.313	0.63636	0.1	-5.9376e-003
25740	10.405	0.54545	0.1	-0.49437
25741	10.313	0.81818	0.1	-5.3448e-003
25742	10.405	0.72727	0.1	-6.2932e-003
25743	10.313	1.	0.1	-4.9206e-003
25744	10.405	0.90909	0.1	-5.205e-003
25745	10.313	1.1818	0.1	-4.7272e-003
25746	10.405	1.0909	0.1	-4.9321e-003
25747	10.313	1.3636	0.1	-4.5409e-003
25748	10.405	1.2727	0.1	-4.697e-003
25749	10.313	1.5455	0.1	-4.3817e-003
25750	10.405	1.4545	0.1	-4.5239e-003
25751	10.313	1.7273	0.1	-4.2366e-003
25752	10.405	1.6364	0.1	-4.3703e-003
25753	10.313	1.9091	0.1	-4.1085e-003
25754	10.405	1.8182	0.1	-4.2375e-003
25755	10.313	2.0909	0.1	-3.9964e-003
25756	10.405	2.	0.1	-4.1224e-003
25757	10.313	2.2727	0.1	-3.9019e-003
25758	10.405	2.1818	0.1	-4.0239e-003
25759	10.313	2.4545	0.1	-3.8276e-003
25760	10.405	2.3636	0.1	-3.9438e-003
25761	10.313	2.6364	0.1	-3.7736e-003
25762	10.405	2.5455	0.1	-3.8839e-003
25763	10.313	2.8182	0.1	-3.7404e-003
25764	10.405	2.7273	0.1	-3.8426e-003
25765	10.313	3.	0.1	-3.7292e-003
25766	10.405	2.9091	0.1	-3.8216e-003
25767	10.313	3.1818	0.1	-3.7402e-003
25768	10.405	3.0909	0.1	-3.8215e-003
25769	10.313	3.3636	0.1	-3.7735e-003
25770	10.405	3.2727	0.1	-3.8424e-003
25771	10.313	3.5455	0.1	-3.8275e-003
25772	10.405	3.4545	0.1	-3.8838e-003
25773	10.313	3.7273	0.1	-3.9016e-003
25774	10.405	3.6364	0.1	-3.9436e-003
25775	10.313	3.9091	0.1	-3.996e-003
25776	10.405	3.8182	0.1	-4.0235e-003
25777	10.313	4.0909	0.1	-4.108e-003
25778	10.405	4.	0.1	-4.1221e-003
25779	10.313	4.2727	0.1	-4.2361e-003
25780	10.405	4.1818	0.1	-4.2371e-003
25781	10.313	4.4545	0.1	-4.3812e-003
25782	10.405	4.3636	0.1	-4.3695e-003
25783	10.313	4.6364	0.1	-4.5404e-003
25784	10.405	4.5455	0.1	-4.5233e-003
25785	10.313	4.8182	0.1	-4.7269e-003
25786	10.405	4.7273	0.1	-4.6963e-003
25787	10.313	5.	0.1	-4.9198e-003
25788	10.405	4.9091	0.1	-4.9317e-003
25789	10.313	5.1818	0.1	-5.3435e-003
25790	10.405	5.0909	0.1	-5.2037e-003
25791	10.313	5.3636	0.1	-5.9369e-003
25792	10.405	5.2727	0.1	-6.292e-003
25793	10.313	5.5455	0.1	-1.6608
25794	10.405	5.4545	0.1	-0.49437
25795	10.313	5.7273	0.1	-5.7121
25796	10.405	5.6364	0.1	-3.8064
25797	10.405	5.8182	0.1	-8.3858
25798	10.313	5.9091	0.1	-5.7866
25799	10.498	0.27273	0.1	-6.3955
25800	10.59	0.18182	0.1	-8.9278
25801	10.498	9.0909e-002	0.1	-6.1203
25802	10.498	0.45455	0.1	-2.6121
25803	10.59	0.36364	0.1	-4.5951
25804	10.498	0.63636	0.1	-1.4776e-002
25805	10.59	0.54545	0.1	-1.5463
25806	10.498	0.81818	0.1	-6.1132e-003
25807	10.59	0.72727	0.1	-9.6328e-003
25808	10.498	1.	0.1	-5.2546e-003
25809	10.59	0.90909	0.1	-6.0053e-003
25810	10.498	1.1818	0.1	-4.9309e-003
25811	10.59	1.0909	0.1	-5.3449e-003
25812	10.498	1.3636	0.1	-4.7e-003
25813	10.59	1.2727	0.1	-4.9859e-003
25814	10.498	1.5455	0.1	-4.5263e-003
25815	10.59	1.4545	0.1	-4.7618e-003
25816	10.498	1.7273	0.1	-4.3806e-003
25817	10.59	1.6364	0.1	-4.5883e-003
25818	10.498	1.9091	0.1	-4.2578e-003
25819	10.59	1.8182	0.1	-4.4499e-003
25820	10.498	2.0909	0.1	-4.1542e-003
25821	10.59	2.	0.1	-4.3363e-003
25822	10.498	2.2727	0.1	-4.0685e-003
25823	10.59	2.1818	0.1	-4.2421e-003
25824	10.498	2.4545	0.1	-4.0017e-003
25825	10.59	2.3636	0.1	-4.1675e-003
25826	10.498	2.6364	0.1	-3.9537e-003
25827	10.59	2.5455	0.1	-4.1125e-003
25828	10.498	2.8182	0.1	-3.9242e-003
25829	10.59	2.7273	0.1	-4.075e-003
25830	10.498	3.	0.1	-3.9142e-003
25831	10.59	2.9091	0.1	-4.0556e-003
25832	10.498	3.1818	0.1	-3.9242e-003
25833	10.59	3.0909	0.1	-4.0557e-003
25834	10.498	3.3636	0.1	-3.9536e-003
25835	10.59	3.2727	0.1	-4.0747e-003
25836	10.498	3.5455	0.1	-4.0015e-003
25837	10.59	3.4545	0.1	-4.1124e-003
25838	10.498	3.7273	0.1	-4.0682e-003
25839	10.59	3.6364	0.1	-4.1673e-003
25840	10.498	3.9091	0.1	-4.1538e-003
25841	10.59	3.8182	0.1	-4.2419e-003
25842	10.498	4.0909	0.1	-4.2575e-003
25843	10.59	4.	0.1	-4.3361e-003
25844	10.498	4.2727	0.1	-4.3799e-003
25845	10.59	4.1818	0.1	-4.4494e-003
25846	10.498	4.4545	0.1	-4.5254e-003
25847	10.59	4.3636	0.1	-4.5875e-003
25848	10.498	4.6364	0.1	-4.6992e-003
25849	10.59	4.5455	0.1	-4.7612e-003
25850	10.498	4.8182	0.1	-4.9301e-003
25851	10.59	4.7273	0.1	-4.9853e-003
25852	10.498	5.	0.1	-5.2537e-003
25853	10.59	4.9091	0.1	-5.3441e-003
25854	10.498	5.1818	0.1	-6.112e-003
25855	10.59	5.0909	0.1	-6.0038e-003
25856	10.498	5.3636	0.1	-1.4774e-002
25857	10.59	5.2727	0.1	-9.6317e-003
25858	10.498	5.5455	0.1	-2.6121
25859	10.59	5.4545	0.1	-1.5463
25860	10.498	5.7273	0.1	-6.3955
25861	10.59	5.6364	0.1	-4.5951
25862	10.59	5.8182	0.1	-8.9278
25863	10.498	5.9091	0.1	-6.1203
25864	10.682	0.27273	0.1	-7.0408
25865	10.774	0.18182	0.1	-9.4426
25866	10.682	9.0909e-002	0.1	-6.4381
25867	10.682	0.45455	0.1	-3.5045
25868	10.774	0.36364	0.1	-5.337
25869	10.682	0.63636	0.1	-0.68434
25870	10.774	0.54545	0.1	-2.5345
25871	10.682	0.81818	0.1	-8.5336e-003
25872	10.774	0.72727	0.1	-6.6129e-002
25873	10.682	1.	0.1	-6.1006e-003
25874	10.774	0.90909	0.1	-7.947e-003
25875	10.682	1.1818	0.1	-5.4296e-003
25876	10.774	1.0909	0.1	-6.1436e-003
25877	10.682	1.3636	0.1	-5.0713e-003
25878	10.774	1.2727	0.1	-5.4759e-003
25879	10.682	1.5455	0.1	-4.8405e-003
25880	10.774	1.4545	0.1	-5.1243e-003
25881	10.682	1.7273	0.1	-4.6691e-003
25882	10.774	1.6364	0.1	-4.8906e-003
25883	10.682	1.9091	0.1	-4.5363e-003
25884	10.774	1.8182	0.1	-4.7231e-003
25885	10.682	2.0909	0.1	-4.4294e-003
25886	10.774	2.	0.1	-4.5952e-003
25887	10.682	2.2727	0.1	-4.3444e-003
25888	10.774	2.1818	0.1	-4.4948e-003
25889	10.682	2.4545	0.1	-4.2803e-003
25890	10.774	2.3636	0.1	-4.4183e-003
25891	10.682	2.6364	0.1	-4.2349e-003
25892	10.774	2.5455	0.1	-4.3631e-003
25893	10.682	2.8182	0.1	-4.207e-003
25894	10.774	2.7273	0.1	-4.3265e-003
25895	10.682	3.	0.1	-4.1975e-003
25896	10.774	2.9091	0.1	-4.3076e-003
25897	10.682	3.1818	0.1	-4.2069e-003
25898	10.774	3.0909	0.1	-4.3075e-003
25899	10.682	3.3636	0.1	-4.2347e-003
25900	10.774	3.2727	0.1	-4.3264e-003
25901	10.682	3.5455	0.1	-4.2802e-003
25902	10.774	3.4545	0.1	-4.3632e-003
25903	10.682	3.7273	0.1	-4.3444e-003
25904	10.774	3.6364	0.1	-4.4182e-003
25905	10.682	3.9091	0.1	-4.4294e-003
25906	10.774	3.8182	0.1	-4.4947e-003
25907	10.682	4.0909	0.1	-4.5359e-003
25908	10.774	4.	0.1	-4.595e-003
25909	10.682	4.2727	0.1	-4.6686e-003
25910	10.774	4.1818	0.1	-4.7225e-003
25911	10.682	4.4545	0.1	-4.84e-003
25912	10.774	4.3636	0.1	-4.8901e-003
25913	10.682	4.6364	0.1	-5.0707e-003
25914	10.774	4.5455	0.1	-5.1235e-003
25915	10.682	4.8182	0.1	-5.429e-003
25916	10.774	4.7273	0.1	-5.4753e-003
25917	10.682	5.	0.1	-6.0991e-003
25918	10.774	4.9091	0.1	-6.1428e-003
25919	10.682	5.1818	0.1	-8.5322e-003
25920	10.774	5.0909	0.1	-7.9454e-003
25921	10.682	5.3636	0.1	-0.68434
25922	10.774	5.2727	0.1	-6.6128e-002
25923	10.682	5.5455	0.1	-3.5045
25924	10.774	5.4545	0.1	-2.5345
25925	10.682	5.7273	0.1	-7.0408
25926	10.774	5.6364	0.1	-5.337
25927	10.774	5.8182	0.1	-9.4425
25928	10.682	5.9091	0.1	-6.4381
25929	10.866	0.27273	0.1	-7.6505
25930	10.958	0.18182	0.1	-9.932
25931	10.866	9.0909e-002	0.1	-6.7409
25932	10.866	0.45455	0.1	-4.3424
25933	10.958	0.36364	0.1	-6.0356
25934	10.866	0.63636	0.1	-1.7505
25935	10.958	0.54545	0.1	-3.4617
25936	10.866	0.81818	0.1	-2.0052e-002
25937	10.958	0.72727	0.1	-1.0678
25938	10.866	1.	0.1	-7.8098e-003
25939	10.958	0.90909	0.1	-1.4283e-002
25940	10.866	1.1818	0.1	-6.208e-003
25941	10.958	1.0909	0.1	-7.6698e-003
25942	10.866	1.3636	0.1	-5.5547e-003
25943	10.958	1.2727	0.1	-6.222e-003
25944	10.866	1.5455	0.1	-5.1942e-003
25945	10.958	1.4545	0.1	-5.5908e-003
25946	10.866	1.7273	0.1	-4.9584e-003
25947	10.958	1.6364	0.1	-5.2282e-003
25948	10.866	1.9091	0.1	-4.7914e-003
25949	10.958	1.8182	0.1	-4.9931e-003
25950	10.866	2.0909	0.1	-4.6667e-003
25951	10.958	2.	0.1	-4.8281e-003
25952	10.866	2.2727	0.1	-4.5725e-003
25953	10.958	2.1818	0.1	-4.707e-003
25954	10.866	2.4545	0.1	-4.5033e-003
25955	10.958	2.3636	0.1	-4.6186e-003
25956	10.866	2.6364	0.1	-4.4558e-003
25957	10.958	2.5455	0.1	-4.5571e-003
25958	10.866	2.8182	0.1	-4.4275e-003
25959	10.958	2.7273	0.1	-4.517e-003
25960	10.866	3.	0.1	-4.4178e-003
25961	10.958	2.9091	0.1	-4.4969e-003
25962	10.866	3.1818	0.1	-4.4274e-003
25963	10.958	3.0909	0.1	-4.4968e-003
25964	10.866	3.3636	0.1	-4.456e-003
25965	10.958	3.2727	0.1	-4.517e-003
25966	10.866	3.5455	0.1	-4.5033e-003
25967	10.958	3.4545	0.1	-4.557e-003
25968	10.866	3.7273	0.1	-4.5723e-003
25969	10.958	3.6364	0.1	-4.6186e-003
25970	10.866	3.9091	0.1	-4.6664e-003
25971	10.958	3.8182	0.1	-4.7067e-003
25972	10.866	4.0909	0.1	-4.791e-003
25973	10.958	4.	0.1	-4.8277e-003
25974	10.866	4.2727	0.1	-4.9579e-003
25975	10.958	4.1818	0.1	-4.9926e-003
25976	10.866	4.4545	0.1	-5.1935e-003
25977	10.958	4.3636	0.1	-5.2277e-003
25978	10.866	4.6364	0.1	-5.5538e-003
25979	10.958	4.5455	0.1	-5.5902e-003
25980	10.866	4.8182	0.1	-6.2072e-003
25981	10.958	4.7273	0.1	-6.2212e-003
25982	10.866	5.	0.1	-7.8088e-003
25983	10.958	4.9091	0.1	-7.6691e-003
25984	10.866	5.1818	0.1	-2.0051e-002
25985	10.958	5.0909	0.1	-1.4282e-002
25986	10.866	5.3636	0.1	-1.7505
25987	10.958	5.2727	0.1	-1.0678
25988	10.866	5.5455	0.1	-4.3424
25989	10.958	5.4545	0.1	-3.4617
25990	10.866	5.7273	0.1	-7.6504
25991	10.958	5.6364	0.1	-6.0356
25992	10.958	5.8182	0.1	-9.932
25993	10.866	5.9091	0.1	-6.7408
25994	11.05	0.27273	0.1	-8.2273
25995	11.142	0.18182	0.1	-10.398
25996	11.05	9.0909e-002	0.1	-7.0296
25997	11.05	0.45455	0.1	-5.1302
25998	11.142	0.36364	0.1	-6.6947
25999	11.05	0.63636	0.1	-2.754
26000	11.142	0.54545	0.1	-4.333
26001	11.05	0.81818	0.1	-0.53797
26002	11.142	0.72727	0.1	-2.1407
26003	11.05	1.	0.1	-1.2556e-002
26004	11.142	0.90909	0.1	-0.15292
26005	11.05	1.1818	0.1	-7.6463e-003
26006	11.142	1.0909	0.1	-1.1607e-002
26007	11.05	1.3636	0.1	-6.2835e-003
26008	11.142	1.2727	0.1	-7.6546e-003
26009	11.05	1.5455	0.1	-5.6487e-003
26010	11.142	1.4545	0.1	-6.3734e-003
26011	11.05	1.7273	0.1	-5.28e-003
26012	11.142	1.6364	0.1	-5.7433e-003
26013	11.05	1.9091	0.1	-5.0412e-003
26014	11.142	1.8182	0.1	-5.3733e-003
26015	11.05	2.0909	0.1	-4.8756e-003
26016	11.142	2.	0.1	-5.1342e-003
26017	11.05	2.2727	0.1	-4.7572e-003
26018	11.142	2.1818	0.1	-4.9694e-003
26019	11.05	2.4545	0.1	-4.6744e-003
26020	11.142	2.3636	0.1	-4.8549e-003
26021	11.05	2.6364	0.1	-4.6188e-003
26022	11.142	2.5455	0.1	-4.7779e-003
26023	11.05	2.8182	0.1	-4.5862e-003
26024	11.142	2.7273	0.1	-4.7289e-003
26025	11.05	3.	0.1	-4.5755e-003
26026	11.142	2.9091	0.1	-4.7052e-003
26027	11.05	3.1818	0.1	-4.5862e-003
26028	11.142	3.0909	0.1	-4.705e-003
26029	11.05	3.3636	0.1	-4.6186e-003
26030	11.142	3.2727	0.1	-4.729e-003
26031	11.05	3.5455	0.1	-4.6742e-003
26032	11.142	3.4545	0.1	-4.7778e-003
26033	11.05	3.7273	0.1	-4.7571e-003
26034	11.142	3.6364	0.1	-4.8548e-003
26035	11.05	3.9091	0.1	-4.8751e-003
26036	11.142	3.8182	0.1	-4.9691e-003
26037	11.05	4.0909	0.1	-5.0407e-003
26038	11.142	4.	0.1	-5.1336e-003
26039	11.05	4.2727	0.1	-5.2795e-003
26040	11.142	4.1818	0.1	-5.3731e-003
26041	11.05	4.4545	0.1	-5.6482e-003
26042	11.142	4.3636	0.1	-5.7425e-003
26043	11.05	4.6364	0.1	-6.2828e-003
26044	11.142	4.5455	0.1	-6.373e-003
26045	11.05	4.8182	0.1	-7.6455e-003
26046	11.142	4.7273	0.1	-7.6539e-003
26047	11.05	5.	0.1	-1.2554e-002
26048	11.142	4.9091	0.1	-1.1606e-002
26049	11.05	5.1818	0.1	-0.53797
26050	11.142	5.0909	0.1	-0.15292
26051	11.05	5.3636	0.1	-2.754
26052	11.142	5.2727	0.1	-2.1407
26053	11.05	5.5455	0.1	-5.1302
26054	11.142	5.4545	0.1	-4.333
26055	11.05	5.7273	0.1	-8.2273
26056	11.142	5.6364	0.1	-6.6947
26057	11.142	5.8182	0.1	-10.398
26058	11.05	5.9091	0.1	-7.0296
26059	11.234	0.27273	0.1	-8.7743
26060	11.326	0.18182	0.1	-10.843
26061	11.234	9.0909e-002	0.1	-7.3057
26062	11.234	0.45455	0.1	-5.8726
26063	11.326	0.36364	0.1	-7.3176
26064	11.234	0.63636	0.1	-3.6973
26065	11.326	0.54545	0.1	-5.1531
26066	11.234	0.81818	0.1	-1.6597
26067	11.326	0.72727	0.1	-3.1513
26068	11.234	1.	0.1	-5.3396e-002
26069	11.326	0.90909	0.1	-1.2579
26070	11.234	1.1818	0.1	-1.1283e-002
26071	11.326	1.0909	0.1	-3.3492e-002
26072	11.234	1.3636	0.1	-7.7638e-003
26073	11.326	1.2727	0.1	-1.1009e-002
26074	11.234	1.5455	0.1	-6.4999e-003
26075	11.326	1.4545	0.1	-7.8151e-003
26076	11.234	1.7273	0.1	-5.86e-003
26077	11.326	1.6364	0.1	-6.5751e-003
26078	11.234	1.9091	0.1	-5.4814e-003
26079	11.326	1.8182	0.1	-5.9322e-003
26080	11.234	2.0909	0.1	-5.2369e-003
26081	11.326	2.	0.1	-5.5496e-003
26082	11.234	2.2727	0.1	-5.0716e-003
26083	11.326	2.1818	0.1	-5.3023e-003
26084	11.234	2.4545	0.1	-4.9601e-003
26085	11.326	2.3636	0.1	-5.1387e-003
26086	11.234	2.6364	0.1	-4.8878e-003
26087	11.326	2.5455	0.1	-5.0317e-003
26088	11.234	2.8182	0.1	-4.8465e-003
26089	11.326	2.7273	0.1	-4.9662e-003
26090	11.234	3.	0.1	-4.833e-003
26091	11.326	2.9091	0.1	-4.9345e-003
26092	11.234	3.1818	0.1	-4.8465e-003
26093	11.326	3.0909	0.1	-4.9344e-003
26094	11.234	3.3636	0.1	-4.8878e-003
26095	11.326	3.2727	0.1	-4.9662e-003
26096	11.234	3.5455	0.1	-4.96e-003
26097	11.326	3.4545	0.1	-5.0318e-003
26098	11.234	3.7273	0.1	-5.0715e-003
26099	11.326	3.6364	0.1	-5.1386e-003
26100	11.234	3.9091	0.1	-5.2366e-003
26101	11.326	3.8182	0.1	-5.3022e-003
26102	11.234	4.0909	0.1	-5.4812e-003
26103	11.326	4.	0.1	-5.549e-003
26104	11.234	4.2727	0.1	-5.8595e-003
26105	11.326	4.1818	0.1	-5.9321e-003
26106	11.234	4.4545	0.1	-6.4992e-003
26107	11.326	4.3636	0.1	-6.5745e-003
26108	11.234	4.6364	0.1	-7.7632e-003
26109	11.326	4.5455	0.1	-7.8143e-003
26110	11.234	4.8182	0.1	-1.1283e-002
26111	11.326	4.7273	0.1	-1.1009e-002
26112	11.234	5.	0.1	-5.3396e-002
26113	11.326	4.9091	0.1	-3.3491e-002
26114	11.234	5.1818	0.1	-1.6597
26115	11.326	5.0909	0.1	-1.2579
26116	11.234	5.3636	0.1	-3.6973
26117	11.326	5.2727	0.1	-3.1513
26118	11.234	5.5455	0.1	-5.8726
26119	11.326	5.4545	0.1	-5.1531
26120	11.234	5.7273	0.1	-8.7743
26121	11.326	5.6364	0.1	-7.3175
26122	11.326	5.8182	0.1	-10.843
26123	11.234	5.9091	0.1	-7.3057
26124	11.418	0.27273	0.1	-9.2935
26125	11.51	0.18182	0.1	-11.268
26126	11.418	9.0909e-002	0.1	-7.57
26127	11.418	0.45455	0.1	-6.5729
26128	11.51	0.36364	0.1	-7.9071
26129	11.418	0.63636	0.1	-4.5849
26130	11.51	0.54545	0.1	-5.9263
26131	11.418	0.81818	0.1	-2.7256
26132	11.51	0.72727	0.1	-4.1025
26133	11.418	1.	0.1	-0.97776
26134	11.51	0.90909	0.1	-2.3754
26135	11.418	1.1818	0.1	-2.8313e-002
26136	11.51	1.0909	0.1	-0.76343
26137	11.418	1.3636	0.1	-1.1064e-002
26138	11.51	1.2727	0.1	-2.564e-002
26139	11.418	1.5455	0.1	-7.9505e-003
26140	11.51	1.4545	0.1	-1.1088e-002
26141	11.418	1.7273	0.1	-6.6882e-003
26142	11.51	1.6364	0.1	-8.0308e-003
26143	11.418	1.9091	0.1	-6.0247e-003
26144	11.51	1.8182	0.1	-6.751e-003
26145	11.418	2.0909	0.1	-5.6282e-003
26146	11.51	2.	0.1	-6.0717e-003
26147	11.418	2.2727	0.1	-5.3754e-003
26148	11.51	2.1818	0.1	-5.6653e-003
26149	11.418	2.4545	0.1	-5.2116e-003
26150	11.51	2.3636	0.1	-5.4098e-003
26151	11.418	2.6364	0.1	-5.1084e-003
26152	11.51	2.5455	0.1	-5.2488e-003
26153	11.418	2.8182	0.1	-5.0508e-003
26154	11.51	2.7273	0.1	-5.1527e-003
26155	11.418	3.	0.1	-5.032e-003
26156	11.51	2.9091	0.1	-5.1067e-003
26157	11.418	3.1818	0.1	-5.0508e-003
26158	11.51	3.0909	0.1	-5.1071e-003
26159	11.418	3.3636	0.1	-5.1085e-003
26160	11.51	3.2727	0.1	-5.1526e-003
26161	11.418	3.5455	0.1	-5.2116e-003
26162	11.51	3.4545	0.1	-5.2489e-003
26163	11.418	3.7273	0.1	-5.3752e-003
26164	11.51	3.6364	0.1	-5.4098e-003
26165	11.418	3.9091	0.1	-5.6279e-003
26166	11.51	3.8182	0.1	-5.6651e-003
26167	11.418	4.0909	0.1	-6.0243e-003
26168	11.51	4.	0.1	-6.0713e-003
26169	11.418	4.2727	0.1	-6.6878e-003
26170	11.51	4.1818	0.1	-6.7507e-003
26171	11.418	4.4545	0.1	-7.9497e-003
26172	11.51	4.3636	0.1	-8.0303e-003
26173	11.418	4.6364	0.1	-1.1063e-002
26174	11.51	4.5455	0.1	-1.1087e-002
26175	11.418	4.8182	0.1	-2.8313e-002
26176	11.51	4.7273	0.1	-2.564e-002
26177	11.418	5.	0.1	-0.97777
26178	11.51	4.9091	0.1	-0.76344
26179	11.418	5.1818	0.1	-2.7256
26180	11.51	5.0909	0.1	-2.3754
26181	11.418	5.3636	0.1	-4.5849
26182	11.51	5.2727	0.1	-4.1025
26183	11.418	5.5455	0.1	-6.5729
26184	11.51	5.4545	0.1	-5.9263
26185	11.418	5.7273	0.1	-9.2935
26186	11.51	5.6364	0.1	-7.907
26187	11.51	5.8182	0.1	-11.268
26188	11.418	5.9091	0.1	-7.57
26189	11.602	0.27273	0.1	-9.7873
26190	11.695	0.18182	0.1	-11.675
26191	11.602	9.0909e-002	0.1	-7.8232
26192	11.602	0.45455	0.1	-7.2349
26193	11.695	0.36364	0.1	-8.4663
26194	11.602	0.63636	0.1	-5.4216
26195	11.695	0.54545	0.1	-6.657
26196	11.602	0.81818	0.1	-3.7301
26197	11.695	0.72727	0.1	-4.9996
26198	11.602	1.	0.1	-2.1352
26199	11.695	0.90909	0.1	-3.431
26200	11.602	1.1818	0.1	-0.65832
26201	11.695	1.0909	0.1	-1.9582
26202	11.602	1.3636	0.1	-2.5942e-002
26203	11.695	1.2727	0.1	-0.60475
26204	11.602	1.5455	0.1	-1.1409e-002
26205	11.695	1.4545	0.1	-2.7167e-002
26206	11.602	1.7273	0.1	-8.2061e-003
26207	11.695	1.6364	0.1	-1.182e-002
26208	11.602	1.9091	0.1	-6.8541e-003
26209	11.695	1.8182	0.1	-8.4197e-003
26210	11.602	2.0909	0.1	-6.1362e-003
26211	11.695	2.	0.1	-6.9879e-003
26212	11.602	2.2727	0.1	-5.7111e-003
26213	11.695	2.1818	0.1	-6.232e-003
26214	11.602	2.4545	0.1	-5.4489e-003
26215	11.695	2.3636	0.1	-5.7905e-003
26216	11.602	2.6364	0.1	-5.2894e-003
26217	11.695	2.5455	0.1	-5.5259e-003
26218	11.602	2.8182	0.1	-5.202e-003
26219	11.695	2.7273	0.1	-5.3722e-003
26220	11.602	3.	0.1	-5.1743e-003
26221	11.695	2.9091	0.1	-5.3011e-003
26222	11.602	3.1818	0.1	-5.2023e-003
26223	11.695	3.0909	0.1	-5.3013e-003
26224	11.602	3.3636	0.1	-5.2894e-003
26225	11.695	3.2727	0.1	-5.3722e-003
26226	11.602	3.5455	0.1	-5.449e-003
26227	11.695	3.4545	0.1	-5.5257e-003
26228	11.602	3.7273	0.1	-5.7111e-003
26229	11.695	3.6364	0.1	-5.7906e-003
26230	11.602	3.9091	0.1	-6.136e-003
26231	11.695	3.8182	0.1	-6.2316e-003
26232	11.602	4.0909	0.1	-6.8538e-003
26233	11.695	4.	0.1	-6.9876e-003
26234	11.602	4.2727	0.1	-8.2056e-003
26235	11.695	4.1818	0.1	-8.4193e-003
26236	11.602	4.4545	0.1	-1.1408e-002
26237	11.695	4.3636	0.1	-1.1819e-002
26238	11.602	4.6364	0.1	-2.5942e-002
26239	11.695	4.5455	0.1	-2.7167e-002
26240	11.602	4.8182	0.1	-0.65833
26241	11.695	4.7273	0.1	-0.60476
26242	11.602	5.	0.1	-2.1352
26243	11.695	4.9091	0.1	-1.9582
26244	11.602	5.1818	0.1	-3.7301
26245	11.695	5.0909	0.1	-3.431
26246	11.602	5.3636	0.1	-5.4216
26247	11.695	5.2727	0.1	-4.9996
26248	11.602	5.5455	0.1	-7.2349
26249	11.695	5.4545	0.1	-6.657
26250	11.602	5.7273	0.1	-9.7872
26251	11.695	5.6364	0.1	-8.4663
26252	11.695	5.8182	0.1	-11.675
26253	11.602	5.9091	0.1	-7.8232
26254	11.787	0.27273	0.1	-10.258
26255	11.879	0.18182	0.1	-12.065
26256	11.787	9.0909e-002	0.1	-8.0667
26257	11.787	0.45455	0.1	-7.8624
26258	11.879	0.36364	0.1	-8.998
26259	11.787	0.63636	0.1	-6.2123
26260	11.879	0.54545	0.1	-7.349
26261	11.787	0.81818	0.1	-4.6783
26262	11.879	0.72727	0.1	-5.8475
26263	11.787	1.	0.1	-3.232
26264	11.879	0.90909	0.1	-4.428
26265	11.787	1.1818	0.1	-1.8816
26266	11.879	1.0909	0.1	-3.095
26267	11.787	1.3636	0.1	-0.64677
26268	11.879	1.2727	0.1	-1.8576
26269	11.787	1.5455	0.1	-3.2486e-002
26270	11.879	1.4545	0.1	-0.73102
26271	11.787	1.7273	0.1	-1.2703e-002
26272	11.879	1.6364	0.1	-4.4124e-002
26273	11.787	1.9091	0.1	-8.7736e-003
26274	11.879	1.8182	0.1	-1.3924e-002
26275	11.787	2.0909	0.1	-7.1729e-003
26276	11.879	2.	0.1	-9.159e-003
26277	11.787	2.2727	0.1	-6.3465e-003
26278	11.879	2.1818	0.1	-7.3304e-003
26279	11.787	2.4545	0.1	-5.8762e-003
26280	11.879	2.3636	0.1	-6.4193e-003
26281	11.787	2.6364	0.1	-5.6037e-003
26282	11.879	2.5455	0.1	-5.9185e-003
26283	11.787	2.8182	0.1	-5.4595e-003
26284	11.879	2.7273	0.1	-5.6437e-003
26285	11.787	3.	0.1	-5.4143e-003
26286	11.879	2.9091	0.1	-5.5211e-003
26287	11.787	3.1818	0.1	-5.4594e-003
26288	11.879	3.0909	0.1	-5.5206e-003
26289	11.787	3.3636	0.1	-5.6035e-003
26290	11.879	3.2727	0.1	-5.6437e-003
26291	11.787	3.5455	0.1	-5.876e-003
26292	11.879	3.4545	0.1	-5.9183e-003
26293	11.787	3.7273	0.1	-6.3463e-003
26294	11.879	3.6364	0.1	-6.4189e-003
26295	11.787	3.9091	0.1	-7.1725e-003
26296	11.879	3.8182	0.1	-7.3304e-003
26297	11.787	4.0909	0.1	-8.7732e-003
26298	11.879	4.	0.1	-9.1585e-003
26299	11.787	4.2727	0.1	-1.2702e-002
26300	11.879	4.1818	0.1	-1.3924e-002
26301	11.787	4.4545	0.1	-3.2486e-002
26302	11.879	4.3636	0.1	-4.4124e-002
26303	11.787	4.6364	0.1	-0.64678
26304	11.879	4.5455	0.1	-0.73103
26305	11.787	4.8182	0.1	-1.8816
26306	11.879	4.7273	0.1	-1.8576
26307	11.787	5.	0.1	-3.232
26308	11.879	4.9091	0.1	-3.0951
26309	11.787	5.1818	0.1	-4.6783
26310	11.879	5.0909	0.1	-4.428
26311	11.787	5.3636	0.1	-6.2123
26312	11.879	5.2727	0.1	-5.8475
26313	11.787	5.5455	0.1	-7.8624
26314	11.879	5.4545	0.1	-7.349
26315	11.787	5.7273	0.1	-10.258
26316	11.879	5.6364	0.1	-8.998
26317	11.879	5.8182	0.1	-12.065
26318	11.787	5.9091	0.1	-8.0667
26319	11.971	0.27273	0.1	-10.708
26320	12.063	0.18182	0.1	-12.44
26321	11.971	9.0909e-002	0.1	-8.3009
26322	11.971	0.45455	0.1	-8.4583
26323	12.063	0.36364	0.1	-9.5045
26324	11.971	0.63636	0.1	-6.9612
26325	12.063	0.54545	0.1	-8.0059
26326	11.971	0.81818	0.1	-5.5748
26327	12.063	0.72727	0.1	-6.6508
26328	11.971	1.	0.1	-4.269
26329	12.063	0.90909	0.1	-5.3716
26330	11.971	1.1818	0.1	-3.0494
26331	12.063	1.0909	0.1	-4.1713
26332	11.971	1.3636	0.1	-1.9241
26333	12.063	1.2727	0.1	-3.0567
26334	11.971	1.5455	0.1	-0.90378
26335	12.063	1.4545	0.1	-2.0349
26336	11.971	1.7273	0.1	-0.10153
26337	12.063	1.6364	0.1	-1.1135
26338	11.971	1.9091	0.1	-1.6833e-002
26339	12.063	1.8182	0.1	-0.31602
26340	11.971	2.0909	0.1	-9.8987e-003
26341	12.063	2.	0.1	-2.4604e-002
26342	11.971	2.2727	0.1	-7.5927e-003
26343	12.063	2.1818	0.1	-1.1188e-002
26344	11.971	2.4545	0.1	-6.5197e-003
26345	12.063	2.3636	0.1	-7.9366e-003
26346	11.971	2.6364	0.1	-5.9622e-003
26347	12.063	2.5455	0.1	-6.5968e-003
26348	11.971	2.8182	0.1	-5.6855e-003
26349	12.063	2.7273	0.1	-5.9622e-003
26350	11.971	3.	0.1	-5.6011e-003
26351	12.063	2.9091	0.1	-5.6982e-003
26352	11.971	3.1818	0.1	-5.6852e-003
26353	12.063	3.0909	0.1	-5.6976e-003
26354	11.971	3.3636	0.1	-5.9622e-003
26355	12.063	3.2727	0.1	-5.9625e-003
26356	11.971	3.5455	0.1	-6.5192e-003
26357	12.063	3.4545	0.1	-6.5966e-003
26358	11.971	3.7273	0.1	-7.5925e-003
26359	12.063	3.6364	0.1	-7.936e-003
26360	11.971	3.9091	0.1	-9.8987e-003
26361	12.063	3.8182	0.1	-1.1188e-002
26362	11.971	4.0909	0.1	-1.6833e-002
26363	12.063	4.	0.1	-2.4604e-002
26364	11.971	4.2727	0.1	-0.10154
26365	12.063	4.1818	0.1	-0.31603
26366	11.971	4.4545	0.1	-0.90379
26367	12.063	4.3636	0.1	-1.1136
26368	11.971	4.6364	0.1	-1.9241
26369	12.063	4.5455	0.1	-2.0349
26370	11.971	4.8182	0.1	-3.0494
26371	12.063	4.7273	0.1	-3.0567
26372	11.971	5.	0.1	-4.269
26373	12.063	4.9091	0.1	-4.1713
26374	11.971	5.1818	0.1	-5.5748
26375	12.063	5.0909	0.1	-5.3716
26376	11.971	5.3636	0.1	-6.9612
26377	12.063	5.2727	0.1	-6.6508
26378	11.971	5.5455	0.1	-8.4582
26379	12.063	5.4545	0.1	-8.0059
26380	11.971	5.7273	0.1	-10.708
26381	12.063	5.6364	0.1	-9.5045
26382	12.063	5.8182	0.1	-12.44
26383	11.971	5.9091	0.1	-8.3009
26384	12.155	0.27273	0.1	-11.138
26385	12.247	0.18182	0.1	-12.801
26386	12.155	9.0909e-002	0.1	-8.5267
26387	12.155	0.45455	0.1	-9.0255
26388	12.247	0.36364	0.1	-9.9885
26389	12.155	0.63636	0.1	-7.6722
26390	12.247	0.54545	0.1	-8.6313
26391	12.155	0.81818	0.1	-6.4248
26392	12.247	0.72727	0.1	-7.4141
26393	12.155	1.	0.1	-5.2515
26394	12.247	0.90909	0.1	-6.2673
26395	12.155	1.1818	0.1	-4.1565
26396	12.247	1.0909	0.1	-5.1924
26397	12.155	1.3636	0.1	-3.1461
26398	12.247	1.2727	0.1	-4.1951
26399	12.155	1.5455	0.1	-2.2262
26400	12.247	1.4545	0.1	-3.281
26401	12.155	1.7273	0.1	-1.4027
26402	12.247	1.6364	0.1	-2.4552
26403	12.155	1.9091	0.1	-0.68296
26404	12.247	1.8182	0.1	-1.7224
26405	12.155	2.0909	0.1	-0.11589
26406	12.247	2.	0.1	-1.087
26407	12.155	2.2727	0.1	-1.5932e-002
26408	12.247	2.1818	0.1	-0.55398
26409	12.155	2.4545	0.1	-8.8695e-003
26410	12.247	2.3636	0.1	-0.13947
26411	12.155	2.6364	0.1	-6.7807e-003
26412	12.247	2.5455	0.1	-1.4675e-002
26413	12.155	2.8182	0.1	-5.9626e-003
26414	12.247	2.7273	0.1	-7.5042e-003
26415	12.155	3.	0.1	-5.7357e-003
26416	12.247	2.9091	0.1	-5.9969e-003
26417	12.155	3.1818	0.1	-5.9626e-003
26418	12.247	3.0909	0.1	-5.9966e-003
26419	12.155	3.3636	0.1	-6.7807e-003
26420	12.247	3.2727	0.1	-7.5041e-003
26421	12.155	3.5455	0.1	-8.869e-003
26422	12.247	3.4545	0.1	-1.4674e-002
26423	12.155	3.7273	0.1	-1.5932e-002
26424	12.247	3.6364	0.1	-0.13948
26425	12.155	3.9091	0.1	-0.11589
26426	12.247	3.8182	0.1	-0.55399
26427	12.155	4.0909	0.1	-0.68297
26428	12.247	4.	0.1	-1.087
26429	12.155	4.2727	0.1	-1.4027
26430	12.247	4.1818	0.1	-1.7224
26431	12.155	4.4545	0.1	-2.2262
26432	12.247	4.3636	0.1	-2.4552
26433	12.155	4.6364	0.1	-3.1461
26434	12.247	4.5455	0.1	-3.281
26435	12.155	4.8182	0.1	-4.1565
26436	12.247	4.7273	0.1	-4.1951
26437	12.155	5.	0.1	-5.2515
26438	12.247	4.9091	0.1	-5.1924
26439	12.155	5.1818	0.1	-6.4248
26440	12.247	5.0909	0.1	-6.2673
26441	12.155	5.3636	0.1	-7.6722
26442	12.247	5.2727	0.1	-7.4141
26443	12.155	5.5455	0.1	-9.0255
26444	12.247	5.4545	0.1	-8.6313
26445	12.155	5.7273	0.1	-11.138
26446	12.247	5.6364	0.1	-9.9885
26447	12.247	5.8182	0.1	-12.801
26448	12.155	5.9091	0.1	-8.5267
26449	12.339	0.27273	0.1	-11.552
26450	12.431	0.18182	0.1	-13.149
26451	12.339	9.0909e-002	0.1	-8.745
26452	12.339	0.45455	0.1	-9.5673
26453	12.431	0.36364	0.1	-10.452
26454	12.339	0.63636	0.1	-8.3496
26455	12.431	0.54545	0.1	-9.2286
26456	12.339	0.81818	0.1	-7.2334
26457	12.431	0.72727	0.1	-8.1418
26458	12.339	1.	0.1	-6.1853
26459	12.431	0.90909	0.1	-7.1201
26460	12.339	1.1818	0.1	-5.2085
26461	12.431	1.0909	0.1	-6.164
26462	12.339	1.3636	0.1	-4.3079
26463	12.431	1.2727	0.1	-5.2782
26464	12.339	1.5455	0.1	-3.4884
26465	12.431	1.4545	0.1	-4.4671
26466	12.339	1.7273	0.1	-2.7544
26467	12.431	1.6364	0.1	-3.7349
26468	12.339	1.9091	0.1	-2.1099
26469	12.431	1.8182	0.1	-3.0854
26470	12.339	2.0909	0.1	-1.5583
26471	12.431	2.	0.1	-2.522
26472	12.339	2.2727	0.1	-1.1026
26473	12.431	2.1818	0.1	-2.0477
26474	12.339	2.4545	0.1	-0.74503
26475	12.431	2.3636	0.1	-1.6648
26476	12.339	2.6364	0.1	-0.48749
26477	12.431	2.5455	0.1	-1.3755
26478	12.339	2.8182	0.1	-0.33138
26479	12.431	2.7273	0.1	-1.1815
26480	12.339	3.	0.1	-0.27879
26481	12.431	2.9091	0.1	-1.0841
26482	12.339	3.1818	0.1	-0.33139
26483	12.431	3.0909	0.1	-1.0841
26484	12.339	3.3636	0.1	-0.48749
26485	12.431	3.2727	0.1	-1.1815
26486	12.339	3.5455	0.1	-0.74504
26487	12.431	3.4545	0.1	-1.3755
26488	12.339	3.7273	0.1	-1.1026
26489	12.431	3.6364	0.1	-1.6648
26490	12.339	3.9091	0.1	-1.5583
26491	12.431	3.8182	0.1	-2.0477
26492	12.339	4.0909	0.1	-2.1099
26493	12.431	4.	0.1	-2.5221
26494	12.339	4.2727	0.1	-2.7544
26495	12.431	4.1818	0.1	-3.0855
26496	12.339	4.4545	0.1	-3.4884
26497	12.431	4.3636	0.1	-3.7349
26498	12.339	4.6364	0.1	-4.3079
26499	12.431	4.5455	0.1	-4.4671
26500	12.339	4.8182	0.1	-5.2085
26501	12.431	4.7273	0.1	-5.2782
26502	12.339	5.	0.1	-6.1853
26503	12.431	4.9091	0.1	-6.164
26504	12.339	5.1818	0.1	-7.2334
26505	12.431	5.0909	0.1	-7.1201
26506	12.339	5.3636	0.1	-8.3496
26507	12.431	5.2727	0.1	-8.1418
26508	12.339	5.5455	0.1	-9.5673
26509	12.431	5.4545	0.1	-9.2286
26510	12.339	5.7273	0.1	-11.552
26511	12.431	5.6364	0.1	-10.452
26512	12.431	5.8182	0.1	-13.149
26513	12.339	5.9091	0.1	-8.745
26514	12.523	0.27273	0.1	-11.949
26515	12.615	0.18182	0.1	-13.486
26516	12.523	9.0909e-002	0.1	-8.9564
26517	12.523	0.45455	0.1	-10.086
26518	12.615	0.36364	0.1	-10.898
26519	12.523	0.63636	0.1	-8.9968
26520	12.615	0.54545	0.1	-9.8007
26521	12.523	0.81818	0.1	-8.0049
26522	12.615	0.72727	0.1	-8.8376
26523	12.523	1.	0.1	-7.0756
26524	12.615	0.90909	0.1	-7.9349
26525	12.523	1.1818	0.1	-6.2109
26526	12.615	1.0909	0.1	-7.0918
26527	12.523	1.3636	0.1	-5.4148
26528	12.615	1.2727	0.1	-6.312
26529	12.523	1.5455	0.1	-4.6913
26530	12.615	1.4545	0.1	-5.5991
26531	12.523	1.7273	0.1	-4.0439
26532	12.615	1.6364	0.1	-4.9565
26533	12.523	1.9091	0.1	-3.476
26534	12.615	1.8182	0.1	-4.387
26535	12.523	2.0909	0.1	-2.9902
26536	12.615	2.	0.1	-3.8936
26537	12.523	2.2727	0.1	-2.5891
26538	12.615	2.1818	0.1	-3.4786
26539	12.523	2.4545	0.1	-2.2748
26540	12.615	2.3636	0.1	-3.1439
26541	12.523	2.6364	0.1	-2.049
26542	12.615	2.5455	0.1	-2.8914
26543	12.523	2.8182	0.1	-1.913
26544	12.615	2.7273	0.1	-2.7223
26545	12.523	3.	0.1	-1.8675
26546	12.615	2.9091	0.1	-2.6375
26547	12.523	3.1818	0.1	-1.913
26548	12.615	3.0909	0.1	-2.6375
26549	12.523	3.3636	0.1	-2.049
26550	12.615	3.2727	0.1	-2.7223
26551	12.523	3.5455	0.1	-2.2748
26552	12.615	3.4545	0.1	-2.8914
26553	12.523	3.7273	0.1	-2.5891
26554	12.615	3.6364	0.1	-3.1439
26555	12.523	3.9091	0.1	-2.9902
26556	12.615	3.8182	0.1	-3.4786
26557	12.523	4.0909	0.1	-3.476
26558	12.615	4.	0.1	-3.8936
26559	12.523	4.2727	0.1	-4.044
26560	12.615	4.1818	0.1	-4.3871
26561	12.523	4.4545	0.1	-4.6913
26562	12.615	4.3636	0.1	-4.9565
26563	12.523	4.6364	0.1	-5.4148
26564	12.615	4.5455	0.1	-5.5991
26565	12.523	4.8182	0.1	-6.2109
26566	12.615	4.7273	0.1	-6.312
26567	12.523	5.	0.1	-7.0756
26568	12.615	4.9091	0.1	-7.0918
26569	12.523	5.1818	0.1	-8.0049
26570	12.615	5.0909	0.1	-7.9349
26571	12.523	5.3636	0.1	-8.9968
26572	12.615	5.2727	0.1	-8.8376
26573	12.523	5.5455	0.1	-10.086
26574	12.615	5.4545	0.1	-9.8007
26575	12.523	5.7273	0.1	-11.949
26576	12.615	5.6364	0.1	-10.898
26577	12.615	5.8182	0.1	-13.486
26578	12.523	5.9091	0.1	-8.9564
26579	12.708	0.27273	0.1	-12.333
26580	12.8	0.18182	0.1	-13.813
26581	12.708	9.0909e-002	0.1	-9.1614
26582	12.708	0.45455	0.1	-10.585
26583	12.8	0.36364	0.1	-11.327
26584	12.708	0.63636	0.1	-9.6172
26585	12.8	0.54545	0.1	-10.351
26586	12.708	0.81818	0.1	-8.7437
26587	12.8	0.72727	0.1	-9.5056
26588	12.708	1.	0.1	-7.9275
26589	12.8	0.90909	0.1	-8.7164
26590	12.708	1.1818	0.1	-7.1696
26591	12.8	1.0909	0.1	-7.9813
26592	12.708	1.3636	0.1	-6.4733
26593	12.8	1.2727	0.1	-7.3029
26594	12.708	1.5455	0.1	-5.8415
26595	12.8	1.4545	0.1	-6.6839
26596	12.708	1.7273	0.1	-5.277
26597	12.8	1.6364	0.1	-6.1269
26598	12.708	1.9091	0.1	-4.7823
26599	12.8	1.8182	0.1	-5.6342
26600	12.708	2.0909	0.1	-4.3597
26601	12.8	2.	0.1	-5.2078
26602	12.708	2.2727	0.1	-4.0112
26603	12.8	2.1818	0.1	-4.8495
26604	12.708	2.4545	0.1	-3.7384
26605	12.8	2.3636	0.1	-4.561
26606	12.708	2.6364	0.1	-3.5425
26607	12.8	2.5455	0.1	-4.3434
26608	12.708	2.8182	0.1	-3.4246
26609	12.8	2.7273	0.1	-4.1978
26610	12.708	3.	0.1	-3.3852
26611	12.8	2.9091	0.1	-4.1249
26612	12.708	3.1818	0.1	-3.4246
26613	12.8	3.0909	0.1	-4.1249
26614	12.708	3.3636	0.1	-3.5425
26615	12.8	3.2727	0.1	-4.1978
26616	12.708	3.5455	0.1	-3.7384
26617	12.8	3.4545	0.1	-4.3434
26618	12.708	3.7273	0.1	-4.0112
26619	12.8	3.6364	0.1	-4.561
26620	12.708	3.9091	0.1	-4.3597
26621	12.8	3.8182	0.1	-4.8495
26622	12.708	4.0909	0.1	-4.7823
26623	12.8	4.	0.1	-5.2078
26624	12.708	4.2727	0.1	-5.277
26625	12.8	4.1818	0.1	-5.6342
26626	12.708	4.4545	0.1	-5.8415
26627	12.8	4.3636	0.1	-6.1269
26628	12.708	4.6364	0.1	-6.4733
26629	12.8	4.5455	0.1	-6.6839
26630	12.708	4.8182	0.1	-7.1697
26631	12.8	4.7273	0.1	-7.3029
26632	12.708	5.	0.1	-7.9275
26633	12.8	4.9091	0.1	-7.9813
26634	12.708	5.1818	0.1	-8.7437
26635	12.8	5.0909	0.1	-8.7164
26636	12.708	5.3636	0.1	-9.6172
26637	12.8	5.2727	0.1	-9.5056
26638	12.708	5.5455	0.1	-10.585
26639	12.8	5.4545	0.1	-10.351
26640	12.708	5.7273	0.1	-12.333
26641	12.8	5.6364	0.1	-11.327
26642	12.8	5.8182	0.1	-13.813
26643	12.708	5.9091	0.1	-9.1614
26644	12.892	0.27273	0.1	-12.704
26645	12.984	0.18182	0.1	-14.13
26646	12.892	9.0909e-002	0.1	-9.3609
26647	12.892	0.45455	0.1	-11.065
26648	12.984	0.36364	0.1	-11.742
26649	12.892	0.63636	0.1	-10.214
26650	12.984	0.54545	0.1	-10.882
26651	12.892	0.81818	0.1	-9.4541
26652	12.984	0.72727	0.1	-10.15
26653	12.892	1.	0.1	-8.7463
26654	12.984	0.90909	0.1	-9.4693
26655	12.892	1.1818	0.1	-8.0908
26656	12.984	1.0909	0.1	-8.8378
26657	12.892	1.3636	0.1	-7.49
26658	12.984	1.2727	0.1	-8.2567
26659	12.892	1.5455	0.1	-6.9461
26660	12.984	1.4545	0.1	-7.728
26661	12.892	1.7273	0.1	-6.4611
26662	12.984	1.6364	0.1	-7.2534
26663	12.892	1.9091	0.1	-6.0367
26664	12.984	1.8182	0.1	-6.8343
26665	12.892	2.0909	0.1	-5.6748
26666	12.984	2.	0.1	-6.4724
26667	12.892	2.2727	0.1	-5.3766
26668	12.984	2.1818	0.1	-6.1687
26669	12.892	2.4545	0.1	-5.1434
26670	12.984	2.3636	0.1	-5.9245
26671	12.892	2.6364	0.1	-4.9762
26672	12.984	2.5455	0.1	-5.7405
26673	12.892	2.8182	0.1	-4.8756
26674	12.984	2.7273	0.1	-5.6174
26675	12.892	3.	0.1	-4.842
26676	12.984	2.9091	0.1	-5.5558
26677	12.892	3.1818	0.1	-4.8756
26678	12.984	3.0909	0.1	-5.5558
26679	12.892	3.3636	0.1	-4.9762
26680	12.984	3.2727	0.1	-5.6175
26681	12.892	3.5455	0.1	-5.1435
26682	12.984	3.4545	0.1	-5.7405
26683	12.892	3.7273	0.1	-5.3766
26684	12.984	3.6364	0.1	-5.9245
26685	12.892	3.9091	0.1	-5.6748
26686	12.984	3.8182	0.1	-6.1687
26687	12.892	4.0909	0.1	-6.0368
26688	12.984	4.	0.1	-6.4724
26689	12.892	4.2727	0.1	-6.4611
26690	12.984	4.1818	0.1	-6.8344
26691	12.892	4.4545	0.1	-6.9461
26692	12.984	4.3636	0.1	-7.2534
26693	12.892	4.6364	0.1	-7.49
26694	12.984	4.5455	0.1	-7.728
26695	12.892	4.8182	0.1	-8.0908
26696	12.984	4.7273	0.1	-8.2567
26697	12.892	5.	0.1	-8.7463
26698	12.984	4.9091	0.1	-8.8378
26699	12.892	5.1818	0.1	-9.4542
26700	12.984	5.0909	0.1	-9.4693
26701	12.892	5.3636	0.1	-10.214
26702	12.984	5.2727	0.1	-10.15
26703	12.892	5.5455	0.1	-11.065
26704	12.984	5.4545	0.1	-10.882
26705	12.892	5.7273	0.1	-12.704
26706	12.984	5.6364	0.1	-11.742
26707	12.984	5.8182	0.1	-14.13
26708	12.892	5.9091	0.1	-9.3608
26709	13.076	0.27273	0.1	-13.064
26710	13.168	0.18182	0.1	-14.439
26711	13.076	9.0909e-002	0.1	-9.5551
26712	13.076	0.45455	0.1	-11.53
26713	13.168	0.36364	0.1	-12.145
26714	13.076	0.63636	0.1	-10.792
26715	13.168	0.54545	0.1	-11.396
26716	13.076	0.81818	0.1	-10.14
26717	13.168	0.72727	0.1	-10.773
26718	13.076	1.	0.1	-9.5364
26719	13.168	0.90909	0.1	-10.198
26720	13.076	1.1818	0.1	-8.9796
26721	13.168	1.0909	0.1	-9.6661
26722	13.076	1.3636	0.1	-8.4709
26723	13.168	1.2727	0.1	-9.1792
26724	13.076	1.5455	0.1	-8.0116
26725	13.168	1.4545	0.1	-8.7377
26726	13.076	1.7273	0.1	-7.6032
26727	13.168	1.6364	0.1	-8.3426
26728	13.076	1.9091	0.1	-7.2467
26729	13.168	1.8182	0.1	-7.9949
26730	13.076	2.0909	0.1	-6.9432
26731	13.168	2.	0.1	-7.6952
26732	13.076	2.2727	0.1	-6.6935
26733	13.168	2.1818	0.1	-7.4443
26734	13.076	2.4545	0.1	-6.4985
26735	13.168	2.3636	0.1	-7.2428
26736	13.076	2.6364	0.1	-6.3588
26737	13.168	2.5455	0.1	-7.0913
26738	13.076	2.8182	0.1	-6.2748
26739	13.168	2.7273	0.1	-6.99
26740	13.076	3.	0.1	-6.2468
26741	13.168	2.9091	0.1	-6.9393
26742	13.076	3.1818	0.1	-6.2748
26743	13.168	3.0909	0.1	-6.9393
26744	13.076	3.3636	0.1	-6.3588
26745	13.168	3.2727	0.1	-6.99
26746	13.076	3.5455	0.1	-6.4985
26747	13.168	3.4545	0.1	-7.0913
26748	13.076	3.7273	0.1	-6.6935
26749	13.168	3.6364	0.1	-7.2429
26750	13.076	3.9091	0.1	-6.9432
26751	13.168	3.8182	0.1	-7.4443
26752	13.076	4.0909	0.1	-7.2467
26753	13.168	4.	0.1	-7.6952
26754	13.076	4.2727	0.1	-7.6032
26755	13.168	4.1818	0.1	-7.9949
26756	13.076	4.4545	0.1	-8.0117
26757	13.168	4.3636	0.1	-8.3427
26758	13.076	4.6364	0.1	-8.4709
26759	13.168	4.5455	0.1	-8.7377
26760	13.076	4.8182	0.1	-8.9796
26761	13.168	4.7273	0.1	-9.1792
26762	13.076	5.	0.1	-9.5364
26763	13.168	4.9091	0.1	-9.6661
26764	13.076	5.1818	0.1	-10.14
26765	13.168	5.0909	0.1	-10.198
26766	13.076	5.3636	0.1	-10.792
26767	13.168	5.2727	0.1	-10.773
26768	13.076	5.5455	0.1	-11.53
26769	13.168	5.4545	0.1	-11.396
26770	13.076	5.7273	0.1	-13.064
26771	13.168	5.6364	0.1	-12.145
26772	13.168	5.8182	0.1	-14.439
26773	13.076	5.9091	0.1	-9.5551
26774	13.26	0.27273	0.1	-13.414
26775	13.352	0.18182	0.1	-14.741
26776	13.26	9.0909e-002	0.1	-9.7447
26777	13.26	0.45455	0.1	-11.982
26778	13.352	0.36364	0.1	-12.537
26779	13.26	0.63636	0.1	-11.351
26780	13.352	0.54545	0.1	-11.896
26781	13.26	0.81818	0.1	-10.805
26782	13.352	0.72727	0.1	-11.379
26783	13.26	1.	0.1	-10.303
26784	13.352	0.90909	0.1	-10.906
26785	13.26	1.1818	0.1	-9.8412
26786	13.352	1.0909	0.1	-10.471
26787	13.26	1.3636	0.1	-9.4217
26788	13.352	1.2727	0.1	-10.076
26789	13.26	1.5455	0.1	-9.0447
26790	13.352	1.4545	0.1	-9.7193
26791	13.26	1.7273	0.1	-8.7105
26792	13.352	1.6364	0.1	-9.4016
26793	13.26	1.9091	0.1	-8.4197
26794	13.352	1.8182	0.1	-9.1232
26795	13.26	2.0909	0.1	-8.1728
26796	13.352	2.	0.1	-8.8841
26797	13.26	2.2727	0.1	-7.9702
26798	13.352	2.1818	0.1	-8.6845
26799	13.26	2.4545	0.1	-7.8122
26800	13.352	2.3636	0.1	-8.5246
26801	13.26	2.6364	0.1	-7.6992
26802	13.352	2.5455	0.1	-8.4046
26803	13.26	2.8182	0.1	-7.6313
26804	13.352	2.7273	0.1	-8.3245
26805	13.26	3.	0.1	-7.6086
26806	13.352	2.9091	0.1	-8.2844
26807	13.26	3.1818	0.1	-7.6313
26808	13.352	3.0909	0.1	-8.2844
26809	13.26	3.3636	0.1	-7.6992
26810	13.352	3.2727	0.1	-8.3245
26811	13.26	3.5455	0.1	-7.8123
26812	13.352	3.4545	0.1	-8.4046
26813	13.26	3.7273	0.1	-7.9702
26814	13.352	3.6364	0.1	-8.5246
26815	13.26	3.9091	0.1	-8.1728
26816	13.352	3.8182	0.1	-8.6845
26817	13.26	4.0909	0.1	-8.4197
26818	13.352	4.	0.1	-8.8841
26819	13.26	4.2727	0.1	-8.7105
26820	13.352	4.1818	0.1	-9.1232
26821	13.26	4.4545	0.1	-9.0447
26822	13.352	4.3636	0.1	-9.4016
26823	13.26	4.6364	0.1	-9.4218
26824	13.352	4.5455	0.1	-9.7193
26825	13.26	4.8182	0.1	-9.8413
26826	13.352	4.7273	0.1	-10.076
26827	13.26	5.	0.1	-10.303
26828	13.352	4.9091	0.1	-10.471
26829	13.26	5.1818	0.1	-10.805
26830	13.352	5.0909	0.1	-10.906
26831	13.26	5.3636	0.1	-11.351
26832	13.352	5.2727	0.1	-11.379
26833	13.26	5.5455	0.1	-11.982
26834	13.352	5.4545	0.1	-11.896
26835	13.26	5.7273	0.1	-13.414
26836	13.352	5.6364	0.1	-12.537
26837	13.352	5.8182	0.1	-14.741
26838	13.26	5.9091	0.1	-9.7447
26839	13.444	0.27273	0.1	-13.756
26840	13.536	0.18182	0.1	-15.035
26841	13.444	9.0909e-002	0.1	-9.9303
26842	13.444	0.45455	0.1	-12.422
26843	13.536	0.36364	0.1	-12.92
26844	13.444	0.63636	0.1	-11.897
26845	13.536	0.54545	0.1	-12.384
26846	13.444	0.81818	0.1	-11.454
26847	13.536	0.72727	0.1	-11.971
26848	13.444	1.	0.1	-11.049
26849	13.536	0.90909	0.1	-11.598
26850	13.444	1.1818	0.1	-10.681
26851	13.536	1.0909	0.1	-11.258
26852	13.444	1.3636	0.1	-10.349
26853	13.536	1.2727	0.1	-10.952
26854	13.444	1.5455	0.1	-10.052
26855	13.536	1.4545	0.1	-10.679
26856	13.444	1.7273	0.1	-9.7901
26857	13.536	1.6364	0.1	-10.437
26858	13.444	1.9091	0.1	-9.5635
26859	13.536	1.8182	0.1	-10.226
26860	13.444	2.0909	0.1	-9.3718
26861	13.536	2.	0.1	-10.046
26862	13.444	2.2727	0.1	-9.2151
26863	13.536	2.1818	0.1	-9.8971
26864	13.444	2.4545	0.1	-9.0933
26865	13.536	2.3636	0.1	-9.778
26866	13.444	2.6364	0.1	-9.0062
26867	13.536	2.5455	0.1	-9.6888
26868	13.444	2.8182	0.1	-8.954
26869	13.536	2.7273	0.1	-9.6294
26870	13.444	3.	0.1	-8.9366
26871	13.536	2.9091	0.1	-9.5997
26872	13.444	3.1818	0.1	-8.954
26873	13.536	3.0909	0.1	-9.5997
26874	13.444	3.3636	0.1	-9.0062
26875	13.536	3.2727	0.1	-9.6294
26876	13.444	3.5455	0.1	-9.0933
26877	13.536	3.4545	0.1	-9.6888
26878	13.444	3.7273	0.1	-9.2151
26879	13.536	3.6364	0.1	-9.778
26880	13.444	3.9091	0.1	-9.3719
26881	13.536	3.8182	0.1	-9.8972
26882	13.444	4.0909	0.1	-9.5635
26883	13.536	4.	0.1	-10.047
26884	13.444	4.2727	0.1	-9.7901
26885	13.536	4.1818	0.1	-10.226
26886	13.444	4.4545	0.1	-10.052
26887	13.536	4.3636	0.1	-10.437
26888	13.444	4.6364	0.1	-10.349
26889	13.536	4.5455	0.1	-10.679
26890	13.444	4.8182	0.1	-10.681
26891	13.536	4.7273	0.1	-10.952
26892	13.444	5.	0.1	-11.049
26893	13.536	4.9091	0.1	-11.258
26894	13.444	5.1818	0.1	-11.454
26895	13.536	5.0909	0.1	-11.598
26896	13.444	5.3636	0.1	-11.897
26897	13.536	5.2727	0.1	-11.971
26898	13.444	5.5455	0.1	-12.422
26899	13.536	5.4545	0.1	-12.384
26900	13.444	5.7273	0.1	-13.756
26901	13.536	5.6364	0.1	-12.92
26902	13.536	5.8182	0.1	-15.035
26903	13.444	5.9091	0.1	-9.9303
26904	13.628	0.27273	0.1	-14.091
26905	13.72	0.18182	0.1	-15.324
26906	13.628	9.0909e-002	0.1	-10.112
26907	13.628	0.45455	0.1	-12.853
26908	13.72	0.36364	0.1	-13.296
26909	13.628	0.63636	0.1	-12.432
26910	13.72	0.54545	0.1	-12.864
26911	13.628	0.81818	0.1	-12.089
26912	13.72	0.72727	0.1	-12.552
26913	13.628	1.	0.1	-11.781
26914	13.72	0.90909	0.1	-12.277
26915	13.628	1.1818	0.1	-11.504
26916	13.72	1.0909	0.1	-12.032
26917	13.628	1.3636	0.1	-11.257
26918	13.72	1.2727	0.1	-11.814
26919	13.628	1.5455	0.1	-11.039
26920	13.72	1.4545	0.1	-11.622
26921	13.628	1.7273	0.1	-10.849
26922	13.72	1.6364	0.1	-11.455
26923	13.628	1.9091	0.1	-10.685
26924	13.72	1.8182	0.1	-11.311
26925	13.628	2.0909	0.1	-10.548
26926	13.72	2.	0.1	-11.19
26927	13.628	2.2727	0.1	-10.436
26928	13.72	2.1818	0.1	-11.09
26929	13.628	2.4545	0.1	-10.349
26930	13.72	2.3636	0.1	-11.011
26931	13.628	2.6364	0.1	-10.288
26932	13.72	2.5455	0.1	-10.952
26933	13.628	2.8182	0.1	-10.251
26934	13.72	2.7273	0.1	-10.913
26935	13.628	3.	0.1	-10.239
26936	13.72	2.9091	0.1	-10.893
26937	13.628	3.1818	0.1	-10.251
26938	13.72	3.0909	0.1	-10.893
26939	13.628	3.3636	0.1	-10.288
26940	13.72	3.2727	0.1	-10.913
26941	13.628	3.5455	0.1	-10.349
26942	13.72	3.4545	0.1	-10.952
26943	13.628	3.7273	0.1	-10.436
26944	13.72	3.6364	0.1	-11.011
26945	13.628	3.9091	0.1	-10.548
26946	13.72	3.8182	0.1	-11.09
26947	13.628	4.0909	0.1	-10.685
26948	13.72	4.	0.1	-11.19
26949	13.628	4.2727	0.1	-10.849
26950	13.72	4.1818	0.1	-11.311
26951	13.628	4.4545	0.1	-11.039
26952	13.72	4.3636	0.1	-11.455
26953	13.628	4.6364	0.1	-11.257
26954	13.72	4.5455	0.1	-11.622
26955	13.628	4.8182	0.1	-11.504
26956	13.72	4.7273	0.1	-11.814
26957	13.628	5.	0.1	-11.781
26958	13.72	4.9091	0.1	-12.032
26959	13.628	5.1818	0.1	-12.089
26960	13.72	5.0909	0.1	-12.277
26961	13.628	5.3636	0.1	-12.432
26962	13.72	5.2727	0.1	-12.552
26963	13.628	5.5455	0.1	-12.853
26964	13.72	5.4545	0.1	-12.864
26965	13.628	5.7273	0.1	-14.091
26966	13.72	5.6364	0.1	-13.296
26967	13.72	5.8182	0.1	-15.324
26968	13.628	5.9091	0.1	-10.112
26969	13.813	0.27273	0.1	-14.419
26970	13.905	0.18182	0.1	-15.608
26971	13.813	9.0909e-002	0.1	-10.291
26972	13.813	0.45455	0.1	-13.276
26973	13.905	0.36364	0.1	-13.666
26974	13.813	0.63636	0.1	-12.957
26975	13.905	0.54545	0.1	-13.336
26976	13.813	0.81818	0.1	-12.714
26977	13.905	0.72727	0.1	-13.125
26978	13.813	1.	0.1	-12.502
26979	13.905	0.90909	0.1	-12.948
26980	13.813	1.1818	0.1	-12.315
26981	13.905	1.0909	0.1	-12.796
26982	13.813	1.3636	0.1	-12.153
26983	13.905	1.2727	0.1	-12.665
26984	13.813	1.5455	0.1	-12.013
26985	13.905	1.4545	0.1	-12.555
26986	13.813	1.7273	0.1	-11.892
26987	13.905	1.6364	0.1	-12.462
26988	13.813	1.9091	0.1	-11.791
26989	13.905	1.8182	0.1	-12.384
26990	13.813	2.0909	0.1	-11.707
26991	13.905	2.	0.1	-12.321
26992	13.813	2.2727	0.1	-11.64
26993	13.905	2.1818	0.1	-12.27
26994	13.813	2.4545	0.1	-11.589
26995	13.905	2.3636	0.1	-12.231
26996	13.813	2.6364	0.1	-11.552
26997	13.905	2.5455	0.1	-12.202
26998	13.813	2.8182	0.1	-11.531
26999	13.905	2.7273	0.1	-12.183
27000	13.813	3.	0.1	-11.524
27001	13.905	2.9091	0.1	-12.174
27002	13.813	3.1818	0.1	-11.531
27003	13.905	3.0909	0.1	-12.174
27004	13.813	3.3636	0.1	-11.552
27005	13.905	3.2727	0.1	-12.183
27006	13.813	3.5455	0.1	-11.589
27007	13.905	3.4545	0.1	-12.202
27008	13.813	3.7273	0.1	-11.64
27009	13.905	3.6364	0.1	-12.231
27010	13.813	3.9091	0.1	-11.707
27011	13.905	3.8182	0.1	-12.27
27012	13.813	4.0909	0.1	-11.791
27013	13.905	4.	0.1	-12.321
27014	13.813	4.2727	0.1	-11.892
27015	13.905	4.1818	0.1	-12.384
27016	13.813	4.4545	0.1	-12.013
27017	13.905	4.3636	0.1	-12.462
27018	13.813	4.6364	0.1	-12.153
27019	13.905	4.5455	0.1	-12.555
27020	13.813	4.8182	0.1	-12.316
27021	13.905	4.7273	0.1	-12.665
27022	13.813	5.	0.1	-12.502
27023	13.905	4.9091	0.1	-12.796
27024	13.813	5.1818	0.1	-12.714
27025	13.905	5.0909	0.1	-12.948
27026	13.813	5.3636	0.1	-12.957
27027	13.905	5.2727	0.1	-13.126
27028	13.813	5.5455	0.1	-13.276
27029	13.905	5.4545	0.1	-13.336
27030	13.813	5.7273	0.1	-14.419
27031	13.905	5.6364	0.1	-13.666
27032	13.905	5.8182	0.1	-15.608
27033	13.813	5.9091	0.1	-10.291
27034	13.997	0.27273	0.1	-14.743
27035	14.089	0.18182	0.1	-15.886
27036	13.997	9.0909e-002	0.1	-10.466
27037	13.997	0.45455	0.1	-13.695
27038	14.089	0.36364	0.1	-14.031
27039	13.997	0.63636	0.1	-13.477
27040	14.089	0.54545	0.1	-13.804
27041	13.997	0.81818	0.1	-13.333
27042	14.089	0.72727	0.1	-13.695
27043	13.997	1.	0.1	-13.216
27044	14.089	0.90909	0.1	-13.615
27045	13.997	1.1818	0.1	-13.12
27046	14.089	1.0909	0.1	-13.555
27047	13.997	1.3636	0.1	-13.042
27048	14.089	1.2727	0.1	-13.513
27049	13.997	1.5455	0.1	-12.979
27050	14.089	1.4545	0.1	-13.483
27051	13.997	1.7273	0.1	-12.928
27052	14.089	1.6364	0.1	-13.464
27053	13.997	1.9091	0.1	-12.889
27054	14.089	1.8182	0.1	-13.453
27055	13.997	2.0909	0.1	-12.859
27056	14.089	2.	0.1	-13.447
27057	13.997	2.2727	0.1	-12.836
27058	14.089	2.1818	0.1	-13.446
27059	13.997	2.4545	0.1	-12.819
27060	14.089	2.3636	0.1	-13.446
27061	13.997	2.6364	0.1	-12.808
27062	14.089	2.5455	0.1	-13.447
27063	13.997	2.8182	0.1	-12.802
27064	14.089	2.7273	0.1	-13.449
27065	13.997	3.	0.1	-12.8
27066	14.089	2.9091	0.1	-13.449
27067	13.997	3.1818	0.1	-12.802
27068	14.089	3.0909	0.1	-13.449
27069	13.997	3.3636	0.1	-12.808
27070	14.089	3.2727	0.1	-13.449
27071	13.997	3.5455	0.1	-12.819
27072	14.089	3.4545	0.1	-13.447
27073	13.997	3.7273	0.1	-12.836
27074	14.089	3.6364	0.1	-13.446
27075	13.997	3.9091	0.1	-12.859
27076	14.089	3.8182	0.1	-13.446
27077	13.997	4.0909	0.1	-12.889
27078	14.089	4.	0.1	-13.447
27079	13.997	4.2727	0.1	-12.929
27080	14.089	4.1818	0.1	-13.453
27081	13.997	4.4545	0.1	-12.979
27082	14.089	4.3636	0.1	-13.464
27083	13.997	4.6364	0.1	-13.042
27084	14.089	4.5455	0.1	-13.483
27085	13.997	4.8182	0.1	-13.12
27086	14.089	4.7273	0.1	-13.513
27087	13.997	5.	0.1	-13.216
27088	14.089	4.9091	0.1	-13.555
27089	13.997	5.1818	0.1	-13.333
27090	14.089	5.0909	0.1	-13.615
27091	13.997	5.3636	0.1	-13.477
27092	14.089	5.2727	0.1	-13.695
27093	13.997	5.5455	0.1	-13.695
27094	14.089	5.4545	0.1	-13.804
27095	13.997	5.7273	0.1	-14.743
27096	14.089	5.6364	0.1	-14.031
27097	14.089	5.8182	0.1	-15.886
27098	13.997	5.9091	0.1	-10.466
27099	14.181	0.27273	0.1	-15.062
27100	14.273	0.18182	0.1	-16.161
27101	14.181	9.0909e-002	0.1	-10.639
27102	14.181	0.45455	0.1	-14.11
27103	14.273	0.36364	0.1	-14.394
27104	14.181	0.63636	0.1	-13.994
27105	14.273	0.54545	0.1	-14.27
27106	14.181	0.81818	0.1	-13.949
27107	14.273	0.72727	0.1	-14.262
27108	14.181	1.	0.1	-13.928
27109	14.273	0.90909	0.1	-14.281
27110	14.181	1.1818	0.1	-13.922
27111	14.273	1.0909	0.1	-14.315
27112	14.181	1.3636	0.1	-13.928
27113	14.273	1.2727	0.1	-14.36
27114	14.181	1.5455	0.1	-13.943
27115	14.273	1.4545	0.1	-14.412
27116	14.181	1.7273	0.1	-13.963
27117	14.273	1.6364	0.1	-14.468
27118	14.181	1.9091	0.1	-13.986
27119	14.273	1.8182	0.1	-14.523
27120	14.181	2.0909	0.1	-14.009
27121	14.273	2.	0.1	-14.576
27122	14.181	2.2727	0.1	-14.03
27123	14.273	2.1818	0.1	-14.624
27124	14.181	2.4545	0.1	-14.049
27125	14.273	2.3636	0.1	-14.664
27126	14.181	2.6364	0.1	-14.063
27127	14.273	2.5455	0.1	-14.695
27128	14.181	2.8182	0.1	-14.071
27129	14.273	2.7273	0.1	-14.717
27130	14.181	3.	0.1	-14.074
27131	14.273	2.9091	0.1	-14.728
27132	14.181	3.1818	0.1	-14.071
27133	14.273	3.0909	0.1	-14.728
27134	14.181	3.3636	0.1	-14.063
27135	14.273	3.2727	0.1	-14.717
27136	14.181	3.5455	0.1	-14.049
27137	14.273	3.4545	0.1	-14.695
27138	14.181	3.7273	0.1	-14.031
27139	14.273	3.6364	0.1	-14.664
27140	14.181	3.9091	0.1	-14.009
27141	14.273	3.8182	0.1	-14.624
27142	14.181	4.0909	0.1	-13.986
27143	14.273	4.	0.1	-14.576
27144	14.181	4.2727	0.1	-13.963
27145	14.273	4.1818	0.1	-14.524
27146	14.181	4.4545	0.1	-13.943
27147	14.273	4.3636	0.1	-14.468
27148	14.181	4.6364	0.1	-13.928
27149	14.273	4.5455	0.1	-14.413
27150	14.181	4.8182	0.1	-13.922
27151	14.273	4.7273	0.1	-14.36
27152	14.181	5.	0.1	-13.928
27153	14.273	4.9091	0.1	-14.315
27154	14.181	5.1818	0.1	-13.949
27155	14.273	5.0909	0.1	-14.281
27156	14.181	5.3636	0.1	-13.994
27157	14.273	5.2727	0.1	-14.262
27158	14.181	5.5455	0.1	-14.11
27159	14.273	5.4545	0.1	-14.27
27160	14.181	5.7273	0.1	-15.062
27161	14.273	5.6364	0.1	-14.394
27162	14.273	5.8182	0.1	-16.161
27163	14.181	5.9091	0.1	-10.639
27164	14.365	0.27273	0.1	-15.379
27165	14.457	0.18182	0.1	-16.432
27166	14.365	9.0909e-002	0.1	-10.809
27167	14.365	0.45455	0.1	-14.523
27168	14.457	0.36364	0.1	-14.755
27169	14.365	0.63636	0.1	-14.51
27170	14.457	0.54545	0.1	-14.736
27171	14.365	0.81818	0.1	-14.566
27172	14.457	0.72727	0.1	-14.831
27173	14.365	1.	0.1	-14.641
27174	14.457	0.90909	0.1	-14.949
27175	14.365	1.1818	0.1	-14.727
27176	14.457	1.0909	0.1	-15.079
27177	14.365	1.3636	0.1	-14.818
27178	14.457	1.2727	0.1	-15.214
27179	14.365	1.5455	0.1	-14.912
27180	14.457	1.4545	0.1	-15.349
27181	14.365	1.7273	0.1	-15.003
27182	14.457	1.6364	0.1	-15.48
27183	14.365	1.9091	0.1	-15.088
27184	14.457	1.8182	0.1	-15.603
27185	14.365	2.0909	0.1	-15.165
27186	14.457	2.	0.1	-15.714
27187	14.365	2.2727	0.1	-15.231
27188	14.457	2.1818	0.1	-15.811
27189	14.365	2.4545	0.1	-15.285
27190	14.457	2.3636	0.1	-15.892
27191	14.365	2.6364	0.1	-15.324
27192	14.457	2.5455	0.1	-15.954
27193	14.365	2.8182	0.1	-15.348
27194	14.457	2.7273	0.1	-15.996
27195	14.365	3.	0.1	-15.356
27196	14.457	2.9091	0.1	-16.017
27197	14.365	3.1818	0.1	-15.348
27198	14.457	3.0909	0.1	-16.017
27199	14.365	3.3636	0.1	-15.324
27200	14.457	3.2727	0.1	-15.996
27201	14.365	3.5455	0.1	-15.285
27202	14.457	3.4545	0.1	-15.954
27203	14.365	3.7273	0.1	-15.231
27204	14.457	3.6364	0.1	-15.892
27205	14.365	3.9091	0.1	-15.165
27206	14.457	3.8182	0.1	-15.812
27207	14.365	4.0909	0.1	-15.088
27208	14.457	4.	0.1	-15.714
27209	14.365	4.2727	0.1	-15.003
27210	14.457	4.1818	0.1	-15.603
27211	14.365	4.4545	0.1	-14.912
27212	14.457	4.3636	0.1	-15.48
27213	14.365	4.6364	0.1	-14.818
27214	14.457	4.5455	0.1	-15.349
27215	14.365	4.8182	0.1	-14.727
27216	14.457	4.7273	0.1	-15.214
27217	14.365	5.	0.1	-14.641
27218	14.457	4.9091	0.1	-15.079
27219	14.365	5.1818	0.1	-14.566
27220	14.457	5.0909	0.1	-14.949
27221	14.365	5.3636	0.1	-14.51
27222	14.457	5.2727	0.1	-14.831
27223	14.365	5.5455	0.1	-14.523
27224	14.457	5.4545	0.1	-14.736
27225	14.365	5.7273	0.1	-15.379
27226	14.457	5.6364	0.1	-14.755
27227	14.457	5.8182	0.1	-16.432
27228	14.365	5.9091	0.1	-10.809
27229	14.549	0.27273	0.1	-15.693
27230	14.641	0.18182	0.1	-16.7
27231	14.549	9.0909e-002	0.1	-10.978
27232	14.549	0.45455	0.1	-14.936
27233	14.641	0.36364	0.1	-15.116
27234	14.549	0.63636	0.1	-15.029
27235	14.641	0.54545	0.1	-15.205
27236	14.549	0.81818	0.1	-15.187
27237	14.641	0.72727	0.1	-15.405
27238	14.549	1.	0.1	-15.36
27239	14.641	0.90909	0.1	-15.625
27240	14.549	1.1818	0.1	-15.539
27241	14.641	1.0909	0.1	-15.852
27242	14.549	1.3636	0.1	-15.718
27243	14.641	1.2727	0.1	-16.078
27244	14.549	1.5455	0.1	-15.891
27245	14.641	1.4545	0.1	-16.298
27246	14.549	1.7273	0.1	-16.054
27247	14.641	1.6364	0.1	-16.506
27248	14.549	1.9091	0.1	-16.203
27249	14.641	1.8182	0.1	-16.698
27250	14.549	2.0909	0.1	-16.335
27251	14.641	2.	0.1	-16.869
27252	14.549	2.2727	0.1	-16.446
27253	14.641	2.1818	0.1	-17.017
27254	14.549	2.4545	0.1	-16.536
27255	14.641	2.3636	0.1	-17.138
27256	14.549	2.6364	0.1	-16.6
27257	14.641	2.5455	0.1	-17.231
27258	14.549	2.8182	0.1	-16.64
27259	14.641	2.7273	0.1	-17.294
27260	14.549	3.	0.1	-16.653
27261	14.641	2.9091	0.1	-17.326
27262	14.549	3.1818	0.1	-16.64
27263	14.641	3.0909	0.1	-17.326
27264	14.549	3.3636	0.1	-16.6
27265	14.641	3.2727	0.1	-17.294
27266	14.549	3.5455	0.1	-16.536
27267	14.641	3.4545	0.1	-17.231
27268	14.549	3.7273	0.1	-16.446
27269	14.641	3.6364	0.1	-17.138
27270	14.549	3.9091	0.1	-16.335
27271	14.641	3.8182	0.1	-17.017
27272	14.549	4.0909	0.1	-16.203
27273	14.641	4.	0.1	-16.869
27274	14.549	4.2727	0.1	-16.054
27275	14.641	4.1818	0.1	-16.698
27276	14.549	4.4545	0.1	-15.891
27277	14.641	4.3636	0.1	-16.506
27278	14.549	4.6364	0.1	-15.718
27279	14.641	4.5455	0.1	-16.298
27280	14.549	4.8182	0.1	-15.539
27281	14.641	4.7273	0.1	-16.078
27282	14.549	5.	0.1	-15.36
27283	14.641	4.9091	0.1	-15.852
27284	14.549	5.1818	0.1	-15.187
27285	14.641	5.0909	0.1	-15.625
27286	14.549	5.3636	0.1	-15.029
27287	14.641	5.2727	0.1	-15.405
27288	14.549	5.5455	0.1	-14.936
27289	14.641	5.4545	0.1	-15.205
27290	14.549	5.7273	0.1	-15.693
27291	14.641	5.6364	0.1	-15.116
27292	14.641	5.8182	0.1	-16.7
27293	14.549	5.9091	0.1	-10.978
27294	14.733	0.27273	0.1	-16.006
27295	14.825	0.18182	0.1	-16.965
27296	14.733	9.0909e-002	0.1	-11.144
27297	14.733	0.45455	0.1	-15.352
27298	14.825	0.36364	0.1	-15.478
27299	14.733	0.63636	0.1	-15.552
27300	14.825	0.54545	0.1	-15.677
27301	14.733	0.81818	0.1	-15.816
27302	14.825	0.72727	0.1	-15.987
27303	14.733	1.	0.1	-16.09
27304	14.825	0.90909	0.1	-16.312
27305	14.733	1.1818	0.1	-16.364
27306	14.825	1.0909	0.1	-16.639
27307	14.733	1.3636	0.1	-16.632
27308	14.825	1.2727	0.1	-16.959
27309	14.733	1.5455	0.1	-16.887
27310	14.825	1.4545	0.1	-17.266
27311	14.733	1.7273	0.1	-17.123
27312	14.825	1.6364	0.1	-17.553
27313	14.733	1.9091	0.1	-17.338
27314	14.825	1.8182	0.1	-17.815
27315	14.733	2.0909	0.1	-17.525
27316	14.825	2.	0.1	-18.048
27317	14.733	2.2727	0.1	-17.683
27318	14.825	2.1818	0.1	-18.247
27319	14.733	2.4545	0.1	-17.808
27320	14.825	2.3636	0.1	-18.411
27321	14.733	2.6364	0.1	-17.899
27322	14.825	2.5455	0.1	-18.535
27323	14.733	2.8182	0.1	-17.954
27324	14.825	2.7273	0.1	-18.619
27325	14.733	3.	0.1	-17.973
27326	14.825	2.9091	0.1	-18.661
27327	14.733	3.1818	0.1	-17.954
27328	14.825	3.0909	0.1	-18.661
27329	14.733	3.3636	0.1	-17.899
27330	14.825	3.2727	0.1	-18.619
27331	14.733	3.5455	0.1	-17.808
27332	14.825	3.4545	0.1	-18.535
27333	14.733	3.7273	0.1	-17.683
27334	14.825	3.6364	0.1	-18.411
27335	14.733	3.9091	0.1	-17.525
27336	14.825	3.8182	0.1	-18.248
27337	14.733	4.0909	0.1	-17.338
27338	14.825	4.	0.1	-18.048
27339	14.733	4.2727	0.1	-17.123
27340	14.825	4.1818	0.1	-17.815
27341	14.733	4.4545	0.1	-16.887
27342	14.825	4.3636	0.1	-17.553
27343	14.733	4.6364	0.1	-16.632
27344	14.825	4.5455	0.1	-17.266
27345	14.733	4.8182	0.1	-16.364
27346	14.825	4.7273	0.1	-16.959
27347	14.733	5.	0.1	-16.09
27348	14.825	4.9091	0.1	-16.639
27349	14.733	5.1818	0.1	-15.816
27350	14.825	5.0909	0.1	-16.312
27351	14.733	5.3636	0.1	-15.552
27352	14.825	5.2727	0.1	-15.987
27353	14.733	5.5455	0.1	-15.352
27354	14.825	5.4545	0.1	-15.677
27355	14.733	5.7273	0.1	-16.006
27356	14.825	5.6364	0.1	-15.478
27357	14.825	5.8182	0.1	-16.965
27358	14.733	5.9091	0.1	-11.144
27359	14.917	0.27273	0.1	-16.319
27360	15.01	0.18182	0.1	-17.228
27361	14.917	9.0909e-002	0.1	-11.308
27362	14.917	0.45455	0.1	-15.771
27363	15.01	0.36364	0.1	-15.843
27364	14.917	0.63636	0.1	-16.083
27365	15.01	0.54545	0.1	-16.157
27366	14.917	0.81818	0.1	-16.455
27367	15.01	0.72727	0.1	-16.58
27368	14.917	1.	0.1	-16.834
27369	15.01	0.90909	0.1	-17.014
27370	14.917	1.1818	0.1	-17.206
27371	15.01	1.0909	0.1	-17.445
27372	14.917	1.3636	0.1	-17.566
27373	15.01	1.2727	0.1	-17.862
27374	14.917	1.5455	0.1	-17.905
27375	15.01	1.4545	0.1	-18.259
27376	14.917	1.7273	0.1	-18.218
27377	15.01	1.6364	0.1	-18.627
27378	14.917	1.9091	0.1	-18.499
27379	15.01	1.8182	0.1	-18.962
27380	14.917	2.0909	0.1	-18.744
27381	15.01	2.	0.1	-19.258
27382	14.917	2.2727	0.1	-18.949
27383	15.01	2.1818	0.1	-19.511
27384	14.917	2.4545	0.1	-19.112
27385	15.01	2.3636	0.1	-19.717
27386	14.917	2.6364	0.1	-19.229
27387	15.01	2.5455	0.1	-19.874
27388	14.917	2.8182	0.1	-19.3
27389	15.01	2.7273	0.1	-19.979
27390	14.917	3.	0.1	-19.324
27391	15.01	2.9091	0.1	-20.033
27392	14.917	3.1818	0.1	-19.3
27393	15.01	3.0909	0.1	-20.033
27394	14.917	3.3636	0.1	-19.229
27395	15.01	3.2727	0.1	-19.979
27396	14.917	3.5455	0.1	-19.112
27397	15.01	3.4545	0.1	-19.874
27398	14.917	3.7273	0.1	-18.949
27399	15.01	3.6364	0.1	-19.717
27400	14.917	3.9091	0.1	-18.744
27401	15.01	3.8182	0.1	-19.511
27402	14.917	4.0909	0.1	-18.499
27403	15.01	4.	0.1	-19.258
27404	14.917	4.2727	0.1	-18.218
27405	15.01	4.1818	0.1	-18.962
27406	14.917	4.4545	0.1	-17.905
27407	15.01	4.3636	0.1	-18.627
27408	14.917	4.6364	0.1	-17.566
27409	15.01	4.5455	0.1	-18.259
27410	14.917	4.8182	0.1	-17.206
27411	15.01	4.7273	0.1	-17.862
27412	14.917	5.	0.1	-16.834
27413	15.01	4.9091	0.1	-17.445
27414	14.917	5.1818	0.1	-16.455
27415	15.01	5.0909	0.1	-17.014
27416	14.917	5.3636	0.1	-16.083
27417	15.01	5.2727	0.1	-16.58
27418	14.917	5.5455	0.1	-15.771
27419	15.01	5.4545	0.1	-16.157
27420	14.917	5.7273	0.1	-16.319
27421	15.01	5.6364	0.1	-15.843
27422	15.01	5.8182	0.1	-17.228
27423	14.917	5.9091	0.1	-11.308
27424	15.102	0.27273	0.1	-16.632
27425	15.194	0.18182	0.1	-17.489
27426	15.102	9.0909e-002	0.1	-11.471
27427	15.102	0.45455	0.1	-16.196
27428	15.194	0.36364	0.1	-16.212
27429	15.102	0.63636	0.1	-16.625
27430	15.194	0.54545	0.1	-16.647
27431	15.102	0.81818	0.1	-17.11
27432	15.194	0.72727	0.1	-17.187
27433	15.102	1.	0.1	-17.597
27434	15.194	0.90909	0.1	-17.736
27435	15.102	1.1818	0.1	-18.072
27436	15.194	1.0909	0.1	-18.274
27437	15.102	1.3636	0.1	-18.527
27438	15.194	1.2727	0.1	-18.793
27439	15.102	1.5455	0.1	-18.953
27440	15.194	1.4545	0.1	-19.283
27441	15.102	1.7273	0.1	-19.345
27442	15.194	1.6364	0.1	-19.736
27443	15.102	1.9091	0.1	-19.695
27444	15.194	1.8182	0.1	-20.146
27445	15.102	2.0909	0.1	-19.999
27446	15.194	2.	0.1	-20.507
27447	15.102	2.2727	0.1	-20.253
27448	15.194	2.1818	0.1	-20.815
27449	15.102	2.4545	0.1	-20.453
27450	15.194	2.3636	0.1	-21.065
27451	15.102	2.6364	0.1	-20.598
27452	15.194	2.5455	0.1	-21.255
27453	15.102	2.8182	0.1	-20.686
27454	15.194	2.7273	0.1	-21.383
27455	15.102	3.	0.1	-20.715
27456	15.194	2.9091	0.1	-21.448
27457	15.102	3.1818	0.1	-20.686
27458	15.194	3.0909	0.1	-21.448
27459	15.102	3.3636	0.1	-20.598
27460	15.194	3.2727	0.1	-21.383
27461	15.102	3.5455	0.1	-20.453
27462	15.194	3.4545	0.1	-21.255
27463	15.102	3.7273	0.1	-20.253
27464	15.194	3.6364	0.1	-21.065
27465	15.102	3.9091	0.1	-19.999
27466	15.194	3.8182	0.1	-20.815
27467	15.102	4.0909	0.1	-19.695
27468	15.194	4.	0.1	-20.507
27469	15.102	4.2727	0.1	-19.345
27470	15.194	4.1818	0.1	-20.146
27471	15.102	4.4545	0.1	-18.953
27472	15.194	4.3636	0.1	-19.736
27473	15.102	4.6364	0.1	-18.527
27474	15.194	4.5455	0.1	-19.283
27475	15.102	4.8182	0.1	-18.072
27476	15.194	4.7273	0.1	-18.793
27477	15.102	5.	0.1	-17.597
27478	15.194	4.9091	0.1	-18.274
27479	15.102	5.1818	0.1	-17.11
27480	15.194	5.0909	0.1	-17.736
27481	15.102	5.3636	0.1	-16.625
27482	15.194	5.2727	0.1	-17.188
27483	15.102	5.5455	0.1	-16.196
27484	15.194	5.4545	0.1	-16.647
27485	15.102	5.7273	0.1	-16.632
27486	15.194	5.6364	0.1	-16.212
27487	15.194	5.8182	0.1	-17.489
27488	15.102	5.9091	0.1	-11.471
27489	15.286	0.27273	0.1	-16.947
27490	15.378	0.18182	0.1	-17.747
27491	15.286	9.0909e-002	0.1	-11.632
27492	15.286	0.45455	0.1	-16.629
27493	15.378	0.36364	0.1	-16.586
27494	15.286	0.63636	0.1	-17.18
27495	15.378	0.54545	0.1	-17.148
27496	15.286	0.81818	0.1	-17.784
27497	15.378	0.72727	0.1	-17.813
27498	15.286	1.	0.1	-18.384
27499	15.378	0.90909	0.1	-18.481
27500	15.286	1.1818	0.1	-18.966
27501	15.378	1.0909	0.1	-19.133
27502	15.286	1.3636	0.1	-19.521
27503	15.378	1.2727	0.1	-19.757
27504	15.286	1.5455	0.1	-20.038
27505	15.378	1.4545	0.1	-20.345
27506	15.286	1.7273	0.1	-20.51
27507	15.378	1.6364	0.1	-20.886
27508	15.286	1.9091	0.1	-20.932
27509	15.378	1.8182	0.1	-21.375
27510	15.286	2.0909	0.1	-21.297
27511	15.378	2.	0.1	-21.803
27512	15.286	2.2727	0.1	-21.601
27513	15.378	2.1818	0.1	-22.168
27514	15.286	2.4545	0.1	-21.841
27515	15.378	2.3636	0.1	-22.464
27516	15.286	2.6364	0.1	-22.015
27517	15.378	2.5455	0.1	-22.689
27518	15.286	2.8182	0.1	-22.119
27519	15.378	2.7273	0.1	-22.839
27520	15.286	3.	0.1	-22.154
27521	15.378	2.9091	0.1	-22.915
27522	15.286	3.1818	0.1	-22.119
27523	15.378	3.0909	0.1	-22.915
27524	15.286	3.3636	0.1	-22.015
27525	15.378	3.2727	0.1	-22.839
27526	15.286	3.5455	0.1	-21.841
27527	15.378	3.4545	0.1	-22.689
27528	15.286	3.7273	0.1	-21.601
27529	15.378	3.6364	0.1	-22.464
27530	15.286	3.9091	0.1	-21.297
27531	15.378	3.8182	0.1	-22.168
27532	15.286	4.0909	0.1	-20.932
27533	15.378	4.	0.1	-21.804
27534	15.286	4.2727	0.1	-20.511
27535	15.378	4.1818	0.1	-21.375
27536	15.286	4.4545	0.1	-20.038
27537	15.378	4.3636	0.1	-20.886
27538	15.286	4.6364	0.1	-19.521
27539	15.378	4.5455	0.1	-20.345
27540	15.286	4.8182	0.1	-18.966
27541	15.378	4.7273	0.1	-19.757
27542	15.286	5.	0.1	-18.384
27543	15.378	4.9091	0.1	-19.133
27544	15.286	5.1818	0.1	-17.784
27545	15.378	5.0909	0.1	-18.481
27546	15.286	5.3636	0.1	-17.18
27547	15.378	5.2727	0.1	-17.813
27548	15.286	5.5455	0.1	-16.629
27549	15.378	5.4545	0.1	-17.148
27550	15.286	5.7273	0.1	-16.947
27551	15.378	5.6364	0.1	-16.586
27552	15.378	5.8182	0.1	-17.747
27553	15.286	5.9091	0.1	-11.632
27554	15.47	0.27273	0.1	-17.264
27555	15.562	0.18182	0.1	-18.003
27556	15.47	9.0909e-002	0.1	-11.79
27557	15.47	0.45455	0.1	-17.071
27558	15.562	0.36364	0.1	-16.967
27559	15.47	0.63636	0.1	-17.751
27560	15.562	0.54545	0.1	-17.664
27561	15.47	0.81818	0.1	-18.48
27562	15.562	0.72727	0.1	-18.461
27563	15.47	1.	0.1	-19.2
27564	15.562	0.90909	0.1	-19.255
27565	15.47	1.1818	0.1	-19.895
27566	15.562	1.0909	0.1	-20.026
27567	15.47	1.3636	0.1	-20.553
27568	15.562	1.2727	0.1	-20.762
27569	15.47	1.5455	0.1	-21.166
27570	15.562	1.4545	0.1	-21.452
27571	15.47	1.7273	0.1	-21.723
27572	15.562	1.6364	0.1	-22.086
27573	15.47	1.9091	0.1	-22.219
27574	15.562	1.8182	0.1	-22.656
27575	15.47	2.0909	0.1	-22.648
27576	15.562	2.	0.1	-23.155
27577	15.47	2.2727	0.1	-23.004
27578	15.562	2.1818	0.1	-23.578
27579	15.47	2.4545	0.1	-23.285
27580	15.562	2.3636	0.1	-23.922
27581	15.47	2.6364	0.1	-23.487
27582	15.562	2.5455	0.1	-24.182
27583	15.47	2.8182	0.1	-23.609
27584	15.562	2.7273	0.1	-24.356
27585	15.47	3.	0.1	-23.65
27586	15.562	2.9091	0.1	-24.444
27587	15.47	3.1818	0.1	-23.609
27588	15.562	3.0909	0.1	-24.444
27589	15.47	3.3636	0.1	-23.487
27590	15.562	3.2727	0.1	-24.356
27591	15.47	3.5455	0.1	-23.285
27592	15.562	3.4545	0.1	-24.182
27593	15.47	3.7273	0.1	-23.004
27594	15.562	3.6364	0.1	-23.922
27595	15.47	3.9091	0.1	-22.648
27596	15.562	3.8182	0.1	-23.578
27597	15.47	4.0909	0.1	-22.219
27598	15.562	4.	0.1	-23.155
27599	15.47	4.2727	0.1	-21.723
27600	15.562	4.1818	0.1	-22.656
27601	15.47	4.4545	0.1	-21.166
27602	15.562	4.3636	0.1	-22.086
27603	15.47	4.6364	0.1	-20.553
27604	15.562	4.5455	0.1	-21.452
27605	15.47	4.8182	0.1	-19.895
27606	15.562	4.7273	0.1	-20.762
27607	15.47	5.	0.1	-19.2
27608	15.562	4.9091	0.1	-20.026
27609	15.47	5.1818	0.1	-18.481
27610	15.562	5.0909	0.1	-19.255
27611	15.47	5.3636	0.1	-17.751
27612	15.562	5.2727	0.1	-18.461
27613	15.47	5.5455	0.1	-17.071
27614	15.562	5.4545	0.1	-17.664
27615	15.47	5.7273	0.1	-17.263
27616	15.562	5.6364	0.1	-16.967
27617	15.562	5.8182	0.1	-18.003
27618	15.47	5.9091	0.1	-11.79
27619	15.654	0.27273	0.1	-17.583
27620	15.746	0.18182	0.1	-18.257
27621	15.654	9.0909e-002	0.1	-11.948
27622	15.654	0.45455	0.1	-17.525
27623	15.746	0.36364	0.1	-17.357
27624	15.654	0.63636	0.1	-18.343
27625	15.746	0.54545	0.1	-18.197
27626	15.654	0.81818	0.1	-19.205
27627	15.746	0.72727	0.1	-19.134
27628	15.654	1.	0.1	-20.051
27629	15.746	0.90909	0.1	-20.062
27630	15.654	1.1818	0.1	-20.864
27631	15.746	1.0909	0.1	-20.96
27632	15.654	1.3636	0.1	-21.632
27633	15.746	1.2727	0.1	-21.814
27634	15.654	1.5455	0.1	-22.344
27635	15.746	1.4545	0.1	-22.612
27636	15.654	1.7273	0.1	-22.991
27637	15.746	1.6364	0.1	-23.342
27638	15.654	1.9091	0.1	-23.564
27639	15.746	1.8182	0.1	-23.997
27640	15.654	2.0909	0.1	-24.059
27641	15.746	2.	0.1	-24.57
27642	15.654	2.2727	0.1	-24.469
27643	15.746	2.1818	0.1	-25.055
27644	15.654	2.4545	0.1	-24.792
27645	15.746	2.3636	0.1	-25.447
27646	15.654	2.6364	0.1	-25.025
27647	15.746	2.5455	0.1	-25.744
27648	15.654	2.8182	0.1	-25.165
27649	15.746	2.7273	0.1	-25.944
27650	15.654	3.	0.1	-25.212
27651	15.746	2.9091	0.1	-26.043
27652	15.654	3.1818	0.1	-25.165
27653	15.746	3.0909	0.1	-26.043
27654	15.654	3.3636	0.1	-25.025
27655	15.746	3.2727	0.1	-25.944
27656	15.654	3.5455	0.1	-24.792
27657	15.746	3.4545	0.1	-25.744
27658	15.654	3.7273	0.1	-24.469
27659	15.746	3.6364	0.1	-25.448
27660	15.654	3.9091	0.1	-24.059
27661	15.746	3.8182	0.1	-25.055
27662	15.654	4.0909	0.1	-23.564
27663	15.746	4.	0.1	-24.57
27664	15.654	4.2727	0.1	-22.991
27665	15.746	4.1818	0.1	-23.997
27666	15.654	4.4545	0.1	-22.344
27667	15.746	4.3636	0.1	-23.342
27668	15.654	4.6364	0.1	-21.632
27669	15.746	4.5455	0.1	-22.612
27670	15.654	4.8182	0.1	-20.864
27671	15.746	4.7273	0.1	-21.814
27672	15.654	5.	0.1	-20.051
27673	15.746	4.9091	0.1	-20.96
27674	15.654	5.1818	0.1	-19.205
27675	15.746	5.0909	0.1	-20.062
27676	15.654	5.3636	0.1	-18.343
27677	15.746	5.2727	0.1	-19.134
27678	15.654	5.5455	0.1	-17.525
27679	15.746	5.4545	0.1	-18.197
27680	15.654	5.7273	0.1	-17.583
27681	15.746	5.6364	0.1	-17.357
27682	15.746	5.8182	0.1	-18.257
27683	15.654	5.9091	0.1	-11.947
27684	15.838	0.27273	0.1	-17.906
27685	15.93	0.18182	0.1	-18.51
27686	15.838	9.0909e-002	0.1	-12.103
27687	15.838	0.45455	0.1	-17.993
27688	15.93	0.36364	0.1	-17.756
27689	15.838	0.63636	0.1	-18.958
27690	15.93	0.54545	0.1	-18.751
27691	15.838	0.81818	0.1	-19.961
27692	15.93	0.72727	0.1	-19.838
27693	15.838	1.	0.1	-20.942
27694	15.93	0.90909	0.1	-20.909
27695	15.838	1.1818	0.1	-21.881
27696	15.93	1.0909	0.1	-21.942
27697	15.838	1.3636	0.1	-22.765
27698	15.93	1.2727	0.1	-22.92
27699	15.838	1.5455	0.1	-23.581
27700	15.93	1.4545	0.1	-23.832
27701	15.838	1.7273	0.1	-24.321
27702	15.93	1.6364	0.1	-24.664
27703	15.838	1.9091	0.1	-24.976
27704	15.93	1.8182	0.1	-25.409
27705	15.838	2.0909	0.1	-25.539
27706	15.93	2.	0.1	-26.058
27707	15.838	2.2727	0.1	-26.006
27708	15.93	2.1818	0.1	-26.607
27709	15.838	2.4545	0.1	-26.373
27710	15.93	2.3636	0.1	-27.05
27711	15.838	2.6364	0.1	-26.637
27712	15.93	2.5455	0.1	-27.385
27713	15.838	2.8182	0.1	-26.796
27714	15.93	2.7273	0.1	-27.61
27715	15.838	3.	0.1	-26.849
27716	15.93	2.9091	0.1	-27.723
27717	15.838	3.1818	0.1	-26.796
27718	15.93	3.0909	0.1	-27.723
27719	15.838	3.3636	0.1	-26.637
27720	15.93	3.2727	0.1	-27.61
27721	15.838	3.5455	0.1	-26.373
27722	15.93	3.4545	0.1	-27.385
27723	15.838	3.7273	0.1	-26.006
27724	15.93	3.6364	0.1	-27.05
27725	15.838	3.9091	0.1	-25.539
27726	15.93	3.8182	0.1	-26.607
27727	15.838	4.0909	0.1	-24.976
27728	15.93	4.	0.1	-26.058
27729	15.838	4.2727	0.1	-24.321
27730	15.93	4.1818	0.1	-25.409
27731	15.838	4.4545	0.1	-23.581
27732	15.93	4.3636	0.1	-24.664
27733	15.838	4.6364	0.1	-22.765
27734	15.93	4.5455	0.1	-23.832
27735	15.838	4.8182	0.1	-21.881
27736	15.93	4.7273	0.1	-22.92
27737	15.838	5.	0.1	-20.942
27738	15.93	4.9091	0.1	-21.942
27739	15.838	5.1818	0.1	-19.961
27740	15.93	5.0909	0.1	-20.909
27741	15.838	5.3636	0.1	-18.958
27742	15.93	5.2727	0.1	-19.838
27743	15.838	5.5455	0.1	-17.993
27744	15.93	5.4545	0.1	-18.751
27745	15.838	5.7273	0.1	-17.906
27746	15.93	5.6364	0.1	-17.756
27747	15.93	5.8182	0.1	-18.51
27748	15.838	5.9091	0.1	-12.103
27749	16.022	0.27273	0.1	-18.233
27750	16.115	0.18182	0.1	-18.76
27751	16.022	9.0909e-002	0.1	-12.255
27752	16.022	0.45455	0.1	-18.478
27753	16.115	0.36364	0.1	-18.168
27754	16.022	0.63636	0.1	-19.6
27755	16.115	0.54545	0.1	-19.329
27756	16.022	0.81818	0.1	-20.755
27757	16.115	0.72727	0.1	-20.576
27758	16.022	1.	0.1	-21.879
27759	16.115	0.90909	0.1	-21.801
27760	16.022	1.1818	0.1	-22.952
27761	16.115	1.0909	0.1	-22.978
27762	16.022	1.3636	0.1	-23.958
27763	16.115	1.2727	0.1	-24.089
27764	16.022	1.5455	0.1	-24.886
27765	16.115	1.4545	0.1	-25.12
27766	16.022	1.7273	0.1	-25.724
27767	16.115	1.6364	0.1	-26.06
27768	16.022	1.9091	0.1	-26.464
27769	16.115	1.8182	0.1	-26.899
27770	16.022	2.0909	0.1	-27.099
27771	16.115	2.	0.1	-27.629
27772	16.022	2.2727	0.1	-27.624
27773	16.115	2.1818	0.1	-28.244
27774	16.022	2.4545	0.1	-28.036
27775	16.115	2.3636	0.1	-28.74
27776	16.022	2.6364	0.1	-28.332
27777	16.115	2.5455	0.1	-29.115
27778	16.022	2.8182	0.1	-28.511
27779	16.115	2.7273	0.1	-29.365
27780	16.022	3.	0.1	-28.57
27781	16.115	2.9091	0.1	-29.491
27782	16.022	3.1818	0.1	-28.511
27783	16.115	3.0909	0.1	-29.491
27784	16.022	3.3636	0.1	-28.332
27785	16.115	3.2727	0.1	-29.365
27786	16.022	3.5455	0.1	-28.036
27787	16.115	3.4545	0.1	-29.115
27788	16.022	3.7273	0.1	-27.624
27789	16.115	3.6364	0.1	-28.74
27790	16.022	3.9091	0.1	-27.099
27791	16.115	3.8182	0.1	-28.244
27792	16.022	4.0909	0.1	-26.464
27793	16.115	4.	0.1	-27.629
27794	16.022	4.2727	0.1	-25.724
27795	16.115	4.1818	0.1	-26.899
27796	16.022	4.4545	0.1	-24.886
27797	16.115	4.3636	0.1	-26.06
27798	16.022	4.6364	0.1	-23.958
27799	16.115	4.5455	0.1	-25.121
27800	16.022	4.8182	0.1	-22.952
27801	16.115	4.7273	0.1	-24.089
27802	16.022	5.	0.1	-21.879
27803	16.115	4.9091	0.1	-22.978
27804	16.022	5.1818	0.1	-20.755
27805	16.115	5.0909	0.1	-21.801
27806	16.022	5.3636	0.1	-19.6
27807	16.115	5.2727	0.1	-20.576
27808	16.022	5.5455	0.1	-18.478
27809	16.115	5.4545	0.1	-19.329
27810	16.022	5.7273	0.1	-18.233
27811	16.115	5.6364	0.1	-18.168
27812	16.115	5.8182	0.1	-18.76
27813	16.022	5.9091	0.1	-12.255
27814	16.207	0.27273	0.1	-18.566
27815	16.299	0.18182	0.1	-19.007
27816	16.207	9.0909e-002	0.1	-12.406
27817	16.207	0.45455	0.1	-18.982
27818	16.299	0.36364	0.1	-18.593
27819	16.207	0.63636	0.1	-20.274
27820	16.299	0.54545	0.1	-19.935
27821	16.207	0.81818	0.1	-21.592
27822	16.299	0.72727	0.1	-21.356
27823	16.207	1.	0.1	-22.869
27824	16.299	0.90909	0.1	-22.745
27825	16.207	1.1818	0.1	-24.085
27826	16.299	1.0909	0.1	-24.076
27827	16.207	1.3636	0.1	-25.222
27828	16.299	1.2727	0.1	-25.328
27829	16.207	1.5455	0.1	-26.267
27830	16.299	1.4545	0.1	-26.488
27831	16.207	1.7273	0.1	-27.208
27832	16.299	1.6364	0.1	-27.541
27833	16.207	1.9091	0.1	-28.037
27834	16.299	1.8182	0.1	-28.478
27835	16.207	2.0909	0.1	-28.747
27836	16.299	2.	0.1	-29.292
27837	16.207	2.2727	0.1	-29.333
27838	16.299	2.1818	0.1	-29.976
27839	16.207	2.4545	0.1	-29.792
27840	16.299	2.3636	0.1	-30.528
27841	16.207	2.6364	0.1	-30.122
27842	16.299	2.5455	0.1	-30.943
27843	16.207	2.8182	0.1	-30.32
27844	16.299	2.7273	0.1	-31.22
27845	16.207	3.	0.1	-30.386
27846	16.299	2.9091	0.1	-31.359
27847	16.207	3.1818	0.1	-30.32
27848	16.299	3.0909	0.1	-31.359
27849	16.207	3.3636	0.1	-30.122
27850	16.299	3.2727	0.1	-31.22
27851	16.207	3.5455	0.1	-29.792
27852	16.299	3.4545	0.1	-30.943
27853	16.207	3.7273	0.1	-29.333
27854	16.299	3.6364	0.1	-30.528
27855	16.207	3.9091	0.1	-28.747
27856	16.299	3.8182	0.1	-29.976
27857	16.207	4.0909	0.1	-28.037
27858	16.299	4.	0.1	-29.292
27859	16.207	4.2727	0.1	-27.208
27860	16.299	4.1818	0.1	-28.479
27861	16.207	4.4545	0.1	-26.267
27862	16.299	4.3636	0.1	-27.541
27863	16.207	4.6364	0.1	-25.222
27864	16.299	4.5455	0.1	-26.488
27865	16.207	4.8182	0.1	-24.085
27866	16.299	4.7273	0.1	-25.328
27867	16.207	5.	0.1	-22.869
27868	16.299	4.9091	0.1	-24.076
27869	16.207	5.1818	0.1	-21.592
27870	16.299	5.0909	0.1	-22.745
27871	16.207	5.3636	0.1	-20.274
27872	16.299	5.2727	0.1	-21.356
27873	16.207	5.5455	0.1	-18.982
27874	16.299	5.4545	0.1	-19.935
27875	16.207	5.7273	0.1	-18.566
27876	16.299	5.6364	0.1	-18.593
27877	16.299	5.8182	0.1	-19.007
27878	16.207	5.9091	0.1	-12.406
27879	16.391	0.27273	0.1	-18.905
27880	16.483	0.18182	0.1	-19.252
27881	16.391	9.0909e-002	0.1	-12.553
27882	16.391	0.45455	0.1	-19.508
27883	16.483	0.36364	0.1	-19.034
27884	16.391	0.63636	0.1	-20.984
27885	16.483	0.54545	0.1	-20.572
27886	16.391	0.81818	0.1	-22.477
27887	16.483	0.72727	0.1	-22.181
27888	16.391	1.	0.1	-23.921
27889	16.483	0.90909	0.1	-23.748
27890	16.391	1.1818	0.1	-25.289
27891	16.483	1.0909	0.1	-25.244
27892	16.391	1.3636	0.1	-26.565
27893	16.483	1.2727	0.1	-26.648
27894	16.391	1.5455	0.1	-27.734
27895	16.483	1.4545	0.1	-27.943
27896	16.391	1.7273	0.1	-28.784
27897	16.483	1.6364	0.1	-29.116
27898	16.391	1.9091	0.1	-29.706
27899	16.483	1.8182	0.1	-30.158
27900	16.391	2.0909	0.1	-30.495
27901	16.483	2.	0.1	-31.059
27902	16.391	2.2727	0.1	-31.144
27903	16.483	2.1818	0.1	-31.815
27904	16.391	2.4545	0.1	-31.651
27905	16.483	2.3636	0.1	-32.422
27906	16.391	2.6364	0.1	-32.015
27907	16.483	2.5455	0.1	-32.879
27908	16.391	2.8182	0.1	-32.233
27909	16.483	2.7273	0.1	-33.184
27910	16.391	3.	0.1	-32.306
27911	16.483	2.9091	0.1	-33.337
27912	16.391	3.1818	0.1	-32.233
27913	16.483	3.0909	0.1	-33.337
27914	16.391	3.3636	0.1	-32.015
27915	16.483	3.2727	0.1	-33.184
27916	16.391	3.5455	0.1	-31.651
27917	16.483	3.4545	0.1	-32.879
27918	16.391	3.7273	0.1	-31.144
27919	16.483	3.6364	0.1	-32.422
27920	16.391	3.9091	0.1	-30.495
27921	16.483	3.8182	0.1	-31.815
27922	16.391	4.0909	0.1	-29.706
27923	16.483	4.	0.1	-31.059
27924	16.391	4.2727	0.1	-28.784
27925	16.483	4.1818	0.1	-30.158
27926	16.391	4.4545	0.1	-27.734
27927	16.483	4.3636	0.1	-29.117
27928	16.391	4.6364	0.1	-26.565
27929	16.483	4.5455	0.1	-27.943
27930	16.391	4.8182	0.1	-25.289
27931	16.483	4.7273	0.1	-26.648
27932	16.391	5.	0.1	-23.921
27933	16.483	4.9091	0.1	-25.244
27934	16.391	5.1818	0.1	-22.477
27935	16.483	5.0909	0.1	-23.748
27936	16.391	5.3636	0.1	-20.984
27937	16.483	5.2727	0.1	-22.181
27938	16.391	5.5455	0.1	-19.508
27939	16.483	5.4545	0.1	-20.572
27940	16.391	5.7273	0.1	-18.905
27941	16.483	5.6364	0.1	-19.034
27942	16.483	5.8182	0.1	-19.252
27943	16.391	5.9091	0.1	-12.553
27944	16.575	0.27273	0.1	-19.251
27945	16.667	0.18182	0.1	-19.494
27946	16.575	9.0909e-002	0.1	-12.697
27947	16.575	0.45455	0.1	-20.059
27948	16.667	0.36364	0.1	-19.493
27949	16.575	0.63636	0.1	-21.735
27950	16.667	0.54545	0.1	-21.245
27951	16.575	0.81818	0.1	-23.419
27952	16.667	0.72727	0.1	-23.058
27953	16.575	1.	0.1	-25.04
27954	16.667	0.90909	0.1	-24.818
27955	16.575	1.1818	0.1	-26.573
27956	16.667	1.0909	0.1	-26.492
27957	16.575	1.3636	0.1	-27.997
27958	16.667	1.2727	0.1	-28.058
27959	16.575	1.5455	0.1	-29.297
27960	16.667	1.4545	0.1	-29.498
27961	16.575	1.7273	0.1	-30.462
27962	16.667	1.6364	0.1	-30.798
27963	16.575	1.9091	0.1	-31.483
27964	16.667	1.8182	0.1	-31.948
27965	16.575	2.0909	0.1	-32.352
27966	16.667	2.	0.1	-32.94
27967	16.575	2.2727	0.1	-33.067
27968	16.667	2.1818	0.1	-33.771
27969	16.575	2.4545	0.1	-33.624
27970	16.667	2.3636	0.1	-34.436
27971	16.575	2.6364	0.1	-34.023
27972	16.667	2.5455	0.1	-34.936
27973	16.575	2.8182	0.1	-34.262
27974	16.667	2.7273	0.1	-35.269
27975	16.575	3.	0.1	-34.342
27976	16.667	2.9091	0.1	-35.436
27977	16.575	3.1818	0.1	-34.262
27978	16.667	3.0909	0.1	-35.436
27979	16.575	3.3636	0.1	-34.023
27980	16.667	3.2727	0.1	-35.269
27981	16.575	3.5455	0.1	-33.624
27982	16.667	3.4545	0.1	-34.936
27983	16.575	3.7273	0.1	-33.067
27984	16.667	3.6364	0.1	-34.436
27985	16.575	3.9091	0.1	-32.352
27986	16.667	3.8182	0.1	-33.771
27987	16.575	4.0909	0.1	-31.483
27988	16.667	4.	0.1	-32.94
27989	16.575	4.2727	0.1	-30.462
27990	16.667	4.1818	0.1	-31.948
27991	16.575	4.4545	0.1	-29.298
27992	16.667	4.3636	0.1	-30.798
27993	16.575	4.6364	0.1	-27.997
27994	16.667	4.5455	0.1	-29.498
27995	16.575	4.8182	0.1	-26.573
27996	16.667	4.7273	0.1	-28.058
27997	16.575	5.	0.1	-25.04
27998	16.667	4.9091	0.1	-26.492
27999	16.575	5.1818	0.1	-23.419
28000	16.667	5.0909	0.1	-24.818
28001	16.575	5.3636	0.1	-21.735
28002	16.667	5.2727	0.1	-23.058
28003	16.575	5.5455	0.1	-20.059
28004	16.667	5.4545	0.1	-21.245
28005	16.575	5.7273	0.1	-19.251
28006	16.667	5.6364	0.1	-19.493
28007	16.667	5.8182	0.1	-19.494
28008	16.575	5.9091	0.1	-12.697
28009	16.759	0.27273	0.1	-19.604
28010	16.851	0.18182	0.1	-19.732
28011	16.759	9.0909e-002	0.1	-12.837
28012	16.759	0.45455	0.1	-20.64
28013	16.851	0.36364	0.1	-19.973
28014	16.759	0.63636	0.1	-22.534
28015	16.851	0.54545	0.1	-21.959
28016	16.759	0.81818	0.1	-24.425
28017	16.851	0.72727	0.1	-23.995
28018	16.759	1.	0.1	-26.239
28019	16.851	0.90909	0.1	-25.965
28020	16.759	1.1818	0.1	-27.947
28021	16.851	1.0909	0.1	-27.831
28022	16.759	1.3636	0.1	-29.53
28023	16.851	1.2727	0.1	-29.571
28024	16.759	1.5455	0.1	-30.97
28025	16.851	1.4545	0.1	-31.164
28026	16.759	1.7273	0.1	-32.256
28027	16.851	1.6364	0.1	-32.598
28028	16.759	1.9091	0.1	-33.378
28029	16.851	1.8182	0.1	-33.862
28030	16.759	2.0909	0.1	-34.332
28031	16.851	2.	0.1	-34.949
28032	16.759	2.2727	0.1	-35.114
28033	16.851	2.1818	0.1	-35.856
28034	16.759	2.4545	0.1	-35.722
28035	16.851	2.3636	0.1	-36.581
28036	16.759	2.6364	0.1	-36.157
28037	16.851	2.5455	0.1	-37.125
28038	16.759	2.8182	0.1	-36.417
28039	16.851	2.7273	0.1	-37.486
28040	16.759	3.	0.1	-36.504
28041	16.851	2.9091	0.1	-37.666
28042	16.759	3.1818	0.1	-36.417
28043	16.851	3.0909	0.1	-37.666
28044	16.759	3.3636	0.1	-36.157
28045	16.851	3.2727	0.1	-37.486
28046	16.759	3.5455	0.1	-35.722
28047	16.851	3.4545	0.1	-37.125
28048	16.759	3.7273	0.1	-35.114
28049	16.851	3.6364	0.1	-36.582
28050	16.759	3.9091	0.1	-34.332
28051	16.851	3.8182	0.1	-35.856
28052	16.759	4.0909	0.1	-33.378
28053	16.851	4.	0.1	-34.949
28054	16.759	4.2727	0.1	-32.256
28055	16.851	4.1818	0.1	-33.862
28056	16.759	4.4545	0.1	-30.97
28057	16.851	4.3636	0.1	-32.598
28058	16.759	4.6364	0.1	-29.53
28059	16.851	4.5455	0.1	-31.164
28060	16.759	4.8182	0.1	-27.947
28061	16.851	4.7273	0.1	-29.571
28062	16.759	5.	0.1	-26.239
28063	16.851	4.9091	0.1	-27.831
28064	16.759	5.1818	0.1	-24.425
28065	16.851	5.0909	0.1	-25.965
28066	16.759	5.3636	0.1	-22.534
28067	16.851	5.2727	0.1	-23.996
28068	16.759	5.5455	0.1	-20.64
28069	16.851	5.4545	0.1	-21.959
28070	16.759	5.7273	0.1	-19.604
28071	16.851	5.6364	0.1	-19.973
28072	16.851	5.8182	0.1	-19.732
28073	16.759	5.9091	0.1	-12.837
28074	16.943	0.27273	0.1	-19.967
28075	17.035	0.18182	0.1	-19.965
28076	16.943	9.0909e-002	0.1	-12.972
28077	16.943	0.45455	0.1	-21.253
28078	17.035	0.36364	0.1	-20.477
28079	16.943	0.63636	0.1	-23.386
28080	17.035	0.54545	0.1	-22.72
28081	16.943	0.81818	0.1	-25.502
28082	17.035	0.72727	0.1	-25.001
28083	16.943	1.	0.1	-27.525
28084	17.035	0.90909	0.1	-27.197
28085	16.943	1.1818	0.1	-29.424
28086	17.035	1.0909	0.1	-29.272
28087	16.943	1.3636	0.1	-31.176
28088	17.035	1.2727	0.1	-31.198
28089	16.943	1.5455	0.1	-32.764
28090	17.035	1.4545	0.1	-32.956
28091	16.943	1.7273	0.1	-34.177
28092	17.035	1.6364	0.1	-34.531
28093	16.943	1.9091	0.1	-35.406
28094	17.035	1.8182	0.1	-35.914
28095	16.943	2.0909	0.1	-36.447
28096	17.035	2.	0.1	-37.099
28097	16.943	2.2727	0.1	-37.298
28098	17.035	2.1818	0.1	-38.085
28099	16.943	2.4545	0.1	-37.958
28100	17.035	2.3636	0.1	-38.87
28101	16.943	2.6364	0.1	-38.428
28102	17.035	2.5455	0.1	-39.457
28103	16.943	2.8182	0.1	-38.71
28104	17.035	2.7273	0.1	-39.846
28105	16.943	3.	0.1	-38.804
28106	17.035	2.9091	0.1	-40.041
28107	16.943	3.1818	0.1	-38.71
28108	17.035	3.0909	0.1	-40.041
28109	16.943	3.3636	0.1	-38.428
28110	17.035	3.2727	0.1	-39.846
28111	16.943	3.5455	0.1	-37.958
28112	17.035	3.4545	0.1	-39.457
28113	16.943	3.7273	0.1	-37.298
28114	17.035	3.6364	0.1	-38.87
28115	16.943	3.9091	0.1	-36.447
28116	17.035	3.8182	0.1	-38.085
28117	16.943	4.0909	0.1	-35.406
28118	17.035	4.	0.1	-37.099
28119	16.943	4.2727	0.1	-34.177
28120	17.035	4.1818	0.1	-35.914
28121	16.943	4.4545	0.1	-32.764
28122	17.035	4.3636	0.1	-34.531
28123	16.943	4.6364	0.1	-31.176
28124	17.035	4.5455	0.1	-32.956
28125	16.943	4.8182	0.1	-29.424
28126	17.035	4.7273	0.1	-31.198
28127	16.943	5.	0.1	-27.525
28128	17.035	4.9091	0.1	-29.272
28129	16.943	5.1818	0.1	-25.502
28130	17.035	5.0909	0.1	-27.197
28131	16.943	5.3636	0.1	-23.386
28132	17.035	5.2727	0.1	-25.001
28133	16.943	5.5455	0.1	-21.253
28134	17.035	5.4545	0.1	-22.72
28135	16.943	5.7273	0.1	-19.967
28136	17.035	5.6364	0.1	-20.477
28137	17.035	5.8182	0.1	-19.965
28138	16.943	5.9091	0.1	-12.972
28139	17.128	0.27273	0.1	-20.34
28140	17.22	0.18182	0.1	-20.194
28141	17.128	9.0909e-002	0.1	-13.102
28142	17.128	0.45455	0.1	-21.903
28143	17.22	0.36364	0.1	-21.007
28144	17.128	0.63636	0.1	-24.299
28145	17.22	0.54545	0.1	-23.535
28146	17.128	0.81818	0.1	-26.662
28147	17.22	0.72727	0.1	-26.083
28148	17.128	1.	0.1	-28.912
28149	17.22	0.90909	0.1	-28.528
28150	17.128	1.1818	0.1	-31.015
28151	17.22	1.0909	0.1	-30.828
28152	17.128	1.3636	0.1	-32.948
28153	17.22	1.2727	0.1	-32.954
28154	17.128	1.5455	0.1	-34.694
28155	17.22	1.4545	0.1	-34.887
28156	17.128	1.7273	0.1	-36.24
28157	17.22	1.6364	0.1	-36.611
28158	17.128	1.9091	0.1	-37.58
28159	17.22	1.8182	0.1	-38.119
28160	17.128	2.0909	0.1	-38.711
28161	17.22	2.	0.1	-39.405
28162	17.128	2.2727	0.1	-39.631
28163	17.22	2.1818	0.1	-40.47
28164	17.128	2.4545	0.1	-40.343
28165	17.22	2.3636	0.1	-41.316
28166	17.128	2.6364	0.1	-40.849
28167	17.22	2.5455	0.1	-41.945
28168	17.128	2.8182	0.1	-41.152
28169	17.22	2.7273	0.1	-42.363
28170	17.128	3.	0.1	-41.253
28171	17.22	2.9091	0.1	-42.571
28172	17.128	3.1818	0.1	-41.152
28173	17.22	3.0909	0.1	-42.571
28174	17.128	3.3636	0.1	-40.849
28175	17.22	3.2727	0.1	-42.363
28176	17.128	3.5455	0.1	-40.343
28177	17.22	3.4545	0.1	-41.945
28178	17.128	3.7273	0.1	-39.631
28179	17.22	3.6364	0.1	-41.316
28180	17.128	3.9091	0.1	-38.711
28181	17.22	3.8182	0.1	-40.47
28182	17.128	4.0909	0.1	-37.58
28183	17.22	4.	0.1	-39.405
28184	17.128	4.2727	0.1	-36.24
28185	17.22	4.1818	0.1	-38.119
28186	17.128	4.4545	0.1	-34.694
28187	17.22	4.3636	0.1	-36.611
28188	17.128	4.6364	0.1	-32.948
28189	17.22	4.5455	0.1	-34.887
28190	17.128	4.8182	0.1	-31.015
28191	17.22	4.7273	0.1	-32.954
28192	17.128	5.	0.1	-28.912
28193	17.22	4.9091	0.1	-30.828
28194	17.128	5.1818	0.1	-26.662
28195	17.22	5.0909	0.1	-28.528
28196	17.128	5.3636	0.1	-24.299
28197	17.22	5.2727	0.1	-26.083
28198	17.128	5.5455	0.1	-21.903
28199	17.22	5.4545	0.1	-23.535
28200	17.128	5.7273	0.1	-20.34
28201	17.22	5.6364	0.1	-21.007
28202	17.22	5.8182	0.1	-20.194
28203	17.128	5.9091	0.1	-13.102
28204	17.312	0.27273	0.1	-20.724
28205	17.404	0.18182	0.1	-20.417
28206	17.312	9.0909e-002	0.1	-13.226
28207	17.312	0.45455	0.1	-22.597
28208	17.404	0.36364	0.1	-21.568
28209	17.312	0.63636	0.1	-25.282
28210	17.404	0.54545	0.1	-24.41
28211	17.312	0.81818	0.1	-27.915
28212	17.404	0.72727	0.1	-27.253
28213	17.312	1.	0.1	-30.412
28214	17.404	0.90909	0.1	-29.969
28215	17.312	1.1818	0.1	-32.736
28216	17.404	1.0909	0.1	-32.514
28217	17.312	1.3636	0.1	-34.863
28218	17.404	1.2727	0.1	-34.856
28219	17.312	1.5455	0.1	-36.776
28220	17.404	1.4545	0.1	-36.975
28221	17.312	1.7273	0.1	-38.462
28222	17.404	1.6364	0.1	-38.856
28223	17.312	1.9091	0.1	-39.916
28224	17.404	1.8182	0.1	-40.492
28225	17.312	2.0909	0.1	-41.138
28226	17.404	2.	0.1	-41.882
28227	17.312	2.2727	0.1	-42.129
28228	17.404	2.1818	0.1	-43.027
28229	17.312	2.4545	0.1	-42.892
28230	17.404	2.3636	0.1	-43.932
28231	17.312	2.6364	0.1	-43.434
28232	17.404	2.5455	0.1	-44.604
28233	17.312	2.8182	0.1	-43.756
28234	17.404	2.7273	0.1	-45.048
28235	17.312	3.	0.1	-43.864
28236	17.404	2.9091	0.1	-45.269
28237	17.312	3.1818	0.1	-43.756
28238	17.404	3.0909	0.1	-45.269
28239	17.312	3.3636	0.1	-43.434
28240	17.404	3.2727	0.1	-45.048
28241	17.312	3.5455	0.1	-42.892
28242	17.404	3.4545	0.1	-44.604
28243	17.312	3.7273	0.1	-42.129
28244	17.404	3.6364	0.1	-43.932
28245	17.312	3.9091	0.1	-41.138
28246	17.404	3.8182	0.1	-43.027
28247	17.312	4.0909	0.1	-39.916
28248	17.404	4.	0.1	-41.882
28249	17.312	4.2727	0.1	-38.462
28250	17.404	4.1818	0.1	-40.492
28251	17.312	4.4545	0.1	-36.776
28252	17.404	4.3636	0.1	-38.856
28253	17.312	4.6364	0.1	-34.863
28254	17.404	4.5455	0.1	-36.975
28255	17.312	4.8182	0.1	-32.736
28256	17.404	4.7273	0.1	-34.856
28257	17.312	5.	0.1	-30.412
28258	17.404	4.9091	0.1	-32.514
28259	17.312	5.1818	0.1	-27.915
28260	17.404	5.0909	0.1	-29.969
28261	17.312	5.3636	0.1	-25.282
28262	17.404	5.2727	0.1	-27.253
28263	17.312	5.5455	0.1	-22.597
28264	17.404	5.4545	0.1	-24.41
28265	17.312	5.7273	0.1	-20.724
28266	17.404	5.6364	0.1	-21.568
28267	17.404	5.8182	0.1	-20.417
28268	17.312	5.9091	0.1	-13.226
28269	17.496	0.27273	0.1	-21.122
28270	17.588	0.18182	0.1	-20.632
28271	17.496	9.0909e-002	0.1	-13.342
28272	17.496	0.45455	0.1	-23.338
28273	17.588	0.36364	0.1	-22.163
28274	17.496	0.63636	0.1	-26.344
28275	17.588	0.54545	0.1	-25.355
28276	17.496	0.81818	0.1	-29.273
28277	17.588	0.72727	0.1	-28.523
28278	17.496	1.	0.1	-32.039
28279	17.588	0.90909	0.1	-31.537
28280	17.496	1.1818	0.1	-34.603
28281	17.588	1.0909	0.1	-34.347
28282	17.496	1.3636	0.1	-36.938
28283	17.588	1.2727	0.1	-36.921
28284	17.496	1.5455	0.1	-39.027
28285	17.588	1.4545	0.1	-39.238
28286	17.496	1.7273	0.1	-40.859
28287	17.588	1.6364	0.1	-41.284
28288	17.496	1.9091	0.1	-42.431
28289	17.588	1.8182	0.1	-43.054
28290	17.496	2.0909	0.1	-43.745
28291	17.588	2.	0.1	-44.548
28292	17.496	2.2727	0.1	-44.805
28293	17.588	2.1818	0.1	-45.772
28294	17.496	2.4545	0.1	-45.619
28295	17.588	2.3636	0.1	-46.735
28296	17.496	2.6364	0.1	-46.194
28297	17.588	2.5455	0.1	-47.447
28298	17.496	2.8182	0.1	-46.536
28299	17.588	2.7273	0.1	-47.915
28300	17.496	3.	0.1	-46.649
28301	17.588	2.9091	0.1	-48.148
28302	17.496	3.1818	0.1	-46.536
28303	17.588	3.0909	0.1	-48.148
28304	17.496	3.3636	0.1	-46.194
28305	17.588	3.2727	0.1	-47.915
28306	17.496	3.5455	0.1	-45.619
28307	17.588	3.4545	0.1	-47.447
28308	17.496	3.7273	0.1	-44.805
28309	17.588	3.6364	0.1	-46.735
28310	17.496	3.9091	0.1	-43.745
28311	17.588	3.8182	0.1	-45.772
28312	17.496	4.0909	0.1	-42.431
28313	17.588	4.	0.1	-44.548
28314	17.496	4.2727	0.1	-40.859
28315	17.588	4.1818	0.1	-43.054
28316	17.496	4.4545	0.1	-39.027
28317	17.588	4.3636	0.1	-41.284
28318	17.496	4.6364	0.1	-36.938
28319	17.588	4.5455	0.1	-39.238
28320	17.496	4.8182	0.1	-34.603
28321	17.588	4.7273	0.1	-36.921
28322	17.496	5.	0.1	-32.039
28323	17.588	4.9091	0.1	-34.347
28324	17.496	5.1818	0.1	-29.273
28325	17.588	5.0909	0.1	-31.537
28326	17.496	5.3636	0.1	-26.344
28327	17.588	5.2727	0.1	-28.523
28328	17.496	5.5455	0.1	-23.338
28329	17.588	5.4545	0.1	-25.355
28330	17.496	5.7273	0.1	-21.121
28331	17.588	5.6364	0.1	-22.163
28332	17.588	5.8182	0.1	-20.632
28333	17.496	5.9091	0.1	-13.342
28334	17.68	0.27273	0.1	-21.534
28335	17.772	0.18182	0.1	-20.839
28336	17.68	9.0909e-002	0.1	-13.45
28337	17.68	0.45455	0.1	-24.136
28338	17.772	0.36364	0.1	-22.799
28339	17.68	0.63636	0.1	-27.496
28340	17.772	0.54545	0.1	-26.379
28341	17.68	0.81818	0.1	-30.751
28342	17.772	0.72727	0.1	-29.906
28343	17.68	1.	0.1	-33.812
28344	17.772	0.90909	0.1	-33.246
28345	17.68	1.1818	0.1	-36.635
28346	17.772	1.0909	0.1	-36.346
28347	17.68	1.3636	0.1	-39.192
28348	17.772	1.2727	0.1	-39.171
28349	17.68	1.5455	0.1	-41.468
28350	17.772	1.4545	0.1	-41.699
28351	17.68	1.7273	0.1	-43.452
28352	17.772	1.6364	0.1	-43.917
28353	17.68	1.9091	0.1	-45.144
28354	17.772	1.8182	0.1	-45.823
28355	17.68	2.0909	0.1	-46.55
28356	17.772	2.	0.1	-47.422
28357	17.68	2.2727	0.1	-47.677
28358	17.772	2.1818	0.1	-48.723
28359	17.68	2.4545	0.1	-48.539
28360	17.772	2.3636	0.1	-49.741
28361	17.68	2.6364	0.1	-49.144
28362	17.772	2.5455	0.1	-50.488
28363	17.68	2.8182	0.1	-49.503
28364	17.772	2.7273	0.1	-50.979
28365	17.68	3.	0.1	-49.622
28366	17.772	2.9091	0.1	-51.221
28367	17.68	3.1818	0.1	-49.503
28368	17.772	3.0909	0.1	-51.221
28369	17.68	3.3636	0.1	-49.144
28370	17.772	3.2727	0.1	-50.979
28371	17.68	3.5455	0.1	-48.539
28372	17.772	3.4545	0.1	-50.488
28373	17.68	3.7273	0.1	-47.677
28374	17.772	3.6364	0.1	-49.741
28375	17.68	3.9091	0.1	-46.55
28376	17.772	3.8182	0.1	-48.723
28377	17.68	4.0909	0.1	-45.144
28378	17.772	4.	0.1	-47.422
28379	17.68	4.2727	0.1	-43.452
28380	17.772	4.1818	0.1	-45.823
28381	17.68	4.4545	0.1	-41.468
28382	17.772	4.3636	0.1	-43.917
28383	17.68	4.6364	0.1	-39.193
28384	17.772	4.5455	0.1	-41.699
28385	17.68	4.8182	0.1	-36.635
28386	17.772	4.7273	0.1	-39.171
28387	17.68	5.	0.1	-33.812
28388	17.772	4.9091	0.1	-36.346
28389	17.68	5.1818	0.1	-30.751
28390	17.772	5.0909	0.1	-33.246
28391	17.68	5.3636	0.1	-27.496
28392	17.772	5.2727	0.1	-29.906
28393	17.68	5.5455	0.1	-24.136
28394	17.772	5.4545	0.1	-26.379
28395	17.68	5.7273	0.1	-21.533
28396	17.772	5.6364	0.1	-22.799
28397	17.772	5.8182	0.1	-20.839
28398	17.68	5.9091	0.1	-13.45
28399	17.864	0.27273	0.1	-21.962
28400	17.956	0.18182	0.1	-21.037
28401	17.864	9.0909e-002	0.1	-13.547
28402	17.864	0.45455	0.1	-24.996
28403	17.956	0.36364	0.1	-23.479
28404	17.864	0.63636	0.1	-28.75
28405	17.956	0.54545	0.1	-27.492
28406	17.864	0.81818	0.1	-32.366
28407	17.956	0.72727	0.1	-31.418
28408	17.864	1.	0.1	-35.748
28409	17.956	0.90909	0.1	-35.117
28410	17.864	1.1818	0.1	-38.852
28411	17.956	1.0909	0.1	-38.533
28412	17.864	1.3636	0.1	-41.649
28413	17.956	1.2727	0.1	-41.629
28414	17.864	1.5455	0.1	-44.121
28415	17.956	1.4545	0.1	-44.381
28416	17.864	1.7273	0.1	-46.262
28417	17.956	1.6364	0.1	-46.779
28418	17.864	1.9091	0.1	-48.076
28419	17.956	1.8182	0.1	-48.824
28420	17.864	2.0909	0.1	-49.571
28421	17.956	2.	0.1	-50.526
28422	17.864	2.2727	0.1	-50.763
28423	17.956	2.1818	0.1	-51.9
28424	17.864	2.4545	0.1	-51.667
28425	17.956	2.3636	0.1	-52.967
28426	17.864	2.6364	0.1	-52.3
28427	17.956	2.5455	0.1	-53.745
28428	17.864	2.8182	0.1	-52.673
28429	17.956	2.7273	0.1	-54.253
28430	17.864	3.	0.1	-52.797
28431	17.956	2.9091	0.1	-54.503
28432	17.864	3.1818	0.1	-52.673
28433	17.956	3.0909	0.1	-54.503
28434	17.864	3.3636	0.1	-52.3
28435	17.956	3.2727	0.1	-54.253
28436	17.864	3.5455	0.1	-51.667
28437	17.956	3.4545	0.1	-53.745
28438	17.864	3.7273	0.1	-50.763
28439	17.956	3.6364	0.1	-52.967
28440	17.864	3.9091	0.1	-49.571
28441	17.956	3.8182	0.1	-51.9
28442	17.864	4.0909	0.1	-48.076
28443	17.956	4.	0.1	-50.526
28444	17.864	4.2727	0.1	-46.262
28445	17.956	4.1818	0.1	-48.824
28446	17.864	4.4545	0.1	-44.121
28447	17.956	4.3636	0.1	-46.779
28448	17.864	4.6364	0.1	-41.649
28449	17.956	4.5455	0.1	-44.381
28450	17.864	4.8182	0.1	-38.852
28451	17.956	4.7273	0.1	-41.629
28452	17.864	5.	0.1	-35.748
28453	17.956	4.9091	0.1	-38.533
28454	17.864	5.1818	0.1	-32.366
28455	17.956	5.0909	0.1	-35.118
28456	17.864	5.3636	0.1	-28.75
28457	17.956	5.2727	0.1	-31.418
28458	17.864	5.5455	0.1	-24.996
28459	17.956	5.4545	0.1	-27.492
28460	17.864	5.7273	0.1	-21.962
28461	17.956	5.6364	0.1	-23.479
28462	17.956	5.8182	0.1	-21.037
28463	17.864	5.9091	0.1	-13.547
28464	18.048	0.27273	0.1	-22.41
28465	18.14	0.18182	0.1	-21.223
28466	18.048	9.0909e-002	0.1	-13.633
28467	18.048	0.45455	0.1	-25.929
28468	18.14	0.36364	0.1	-24.211
28469	18.048	0.63636	0.1	-30.121
28470	18.14	0.54545	0.1	-28.708
28471	18.048	0.81818	0.1	-34.134
28472	18.14	0.72727	0.1	-33.076
28473	18.048	1.	0.1	-37.87
28474	18.14	0.90909	0.1	-37.172
28475	18.048	1.1818	0.1	-41.28
28476	18.14	1.0909	0.1	-40.934
28477	18.048	1.3636	0.1	-44.332
28478	18.14	1.2727	0.1	-44.321
28479	18.048	1.5455	0.1	-47.012
28480	18.14	1.4545	0.1	-47.311
28481	18.048	1.7273	0.1	-49.315
28482	18.14	1.6364	0.1	-49.897
28483	18.048	1.9091	0.1	-51.25
28484	18.14	1.8182	0.1	-52.082
28485	18.048	2.0909	0.1	-52.832
28486	18.14	2.	0.1	-53.884
28487	18.048	2.2727	0.1	-54.081
28488	18.14	2.1818	0.1	-55.325
28489	18.048	2.4545	0.1	-55.022
28490	18.14	2.3636	0.1	-56.432
28491	18.048	2.6364	0.1	-55.675
28492	18.14	2.5455	0.1	-57.233
28493	18.048	2.8182	0.1	-56.06
28494	18.14	2.7273	0.1	-57.752
28495	18.048	3.	0.1	-56.186
28496	18.14	2.9091	0.1	-58.007
28497	18.048	3.1818	0.1	-56.06
28498	18.14	3.0909	0.1	-58.007
28499	18.048	3.3636	0.1	-55.675
28500	18.14	3.2727	0.1	-57.752
28501	18.048	3.5455	0.1	-55.022
28502	18.14	3.4545	0.1	-57.233
28503	18.048	3.7273	0.1	-54.081
28504	18.14	3.6364	0.1	-56.432
28505	18.048	3.9091	0.1	-52.832
28506	18.14	3.8182	0.1	-55.325
28507	18.048	4.0909	0.1	-51.25
28508	18.14	4.	0.1	-53.884
28509	18.048	4.2727	0.1	-49.315
28510	18.14	4.1818	0.1	-52.082
28511	18.048	4.4545	0.1	-47.012
28512	18.14	4.3636	0.1	-49.897
28513	18.048	4.6364	0.1	-44.332
28514	18.14	4.5455	0.1	-47.311
28515	18.048	4.8182	0.1	-41.28
28516	18.14	4.7273	0.1	-44.321
28517	18.048	5.	0.1	-37.87
28518	18.14	4.9091	0.1	-40.934
28519	18.048	5.1818	0.1	-34.134
28520	18.14	5.0909	0.1	-37.172
28521	18.048	5.3636	0.1	-30.121
28522	18.14	5.2727	0.1	-33.076
28523	18.048	5.5455	0.1	-25.929
28524	18.14	5.4545	0.1	-28.708
28525	18.048	5.7273	0.1	-22.41
28526	18.14	5.6364	0.1	-24.211
28527	18.14	5.8182	0.1	-21.223
28528	18.048	5.9091	0.1	-13.633
28529	18.233	0.27273	0.1	-22.879
28530	18.325	0.18182	0.1	-21.397
28531	18.233	9.0909e-002	0.1	-13.705
28532	18.233	0.45455	0.1	-26.943
28533	18.325	0.36364	0.1	-25.002
28534	18.233	0.63636	0.1	-31.624
28535	18.325	0.54545	0.1	-30.04
28536	18.233	0.81818	0.1	-36.079
28537	18.325	0.72727	0.1	-34.901
28538	18.233	1.	0.1	-40.203
28539	18.325	0.90909	0.1	-39.435
28540	18.233	1.1818	0.1	-43.945
28541	18.325	1.0909	0.1	-43.575
28542	18.233	1.3636	0.1	-47.272
28543	18.325	1.2727	0.1	-47.279
28544	18.233	1.5455	0.1	-50.17
28545	18.325	1.4545	0.1	-50.523
28546	18.233	1.7273	0.1	-52.639
28547	18.325	1.6364	0.1	-53.303
28548	18.233	1.9091	0.1	-54.693
28549	18.325	1.8182	0.1	-55.628
28550	18.233	2.0909	0.1	-56.355
28551	18.325	2.	0.1	-57.524
28552	18.233	2.2727	0.1	-57.654
28553	18.325	2.1818	0.1	-59.021
28554	18.233	2.4545	0.1	-58.622
28555	18.325	2.3636	0.1	-60.158
28556	18.233	2.6364	0.1	-59.288
28557	18.325	2.5455	0.1	-60.971
28558	18.233	2.8182	0.1	-59.677
28559	18.325	2.7273	0.1	-61.493
28560	18.233	3.	0.1	-59.805
28561	18.325	2.9091	0.1	-61.747
28562	18.233	3.1818	0.1	-59.677
28563	18.325	3.0909	0.1	-61.747
28564	18.233	3.3636	0.1	-59.288
28565	18.325	3.2727	0.1	-61.493
28566	18.233	3.5455	0.1	-58.622
28567	18.325	3.4545	0.1	-60.971
28568	18.233	3.7273	0.1	-57.654
28569	18.325	3.6364	0.1	-60.158
28570	18.233	3.9091	0.1	-56.355
28571	18.325	3.8182	0.1	-59.021
28572	18.233	4.0909	0.1	-54.693
28573	18.325	4.	0.1	-57.524
28574	18.233	4.2727	0.1	-52.64
28575	18.325	4.1818	0.1	-55.628
28576	18.233	4.4545	0.1	-50.17
28577	18.325	4.3636	0.1	-53.303
28578	18.233	4.6364	0.1	-47.273
28579	18.325	4.5455	0.1	-50.523
28580	18.233	4.8182	0.1	-43.945
28581	18.325	4.7273	0.1	-47.279
28582	18.233	5.	0.1	-40.203
28583	18.325	4.9091	0.1	-43.575
28584	18.233	5.1818	0.1	-36.079
28585	18.325	5.0909	0.1	-39.435
28586	18.233	5.3636	0.1	-31.624
28587	18.325	5.2727	0.1	-34.901
28588	18.233	5.5455	0.1	-26.943
28589	18.325	5.4545	0.1	-30.04
28590	18.233	5.7273	0.1	-22.879
28591	18.325	5.6364	0.1	-25.002
28592	18.325	5.8182	0.1	-21.397
28593	18.233	5.9091	0.1	-13.705
28594	18.417	0.27273	0.1	-23.372
28595	18.509	0.18182	0.1	-21.555
28596	18.417	9.0909e-002	0.1	-13.762
28597	18.417	0.45455	0.1	-28.05
28598	18.509	0.36364	0.1	-25.859
28599	18.417	0.63636	0.1	-33.277
28600	18.509	0.54545	0.1	-31.504
28601	18.417	0.81818	0.1	-38.222
28602	18.509	0.72727	0.1	-36.914
28603	18.417	1.	0.1	-42.775
28604	18.509	0.90909	0.1	-41.934
28605	18.417	1.1818	0.1	-46.88
28606	18.509	1.0909	0.1	-46.491
28607	18.417	1.3636	0.1	-50.503
28608	18.509	1.2727	0.1	-50.538
28609	18.417	1.5455	0.1	-53.631
28610	18.509	1.4545	0.1	-54.053
28611	18.417	1.7273	0.1	-56.268
28612	18.509	1.6364	0.1	-57.033
28613	18.417	1.9091	0.1	-58.437
28614	18.509	1.8182	0.1	-59.497
28615	18.417	2.0909	0.1	-60.169
28616	18.509	2.	0.1	-61.477
28617	18.417	2.2727	0.1	-61.505
28618	18.509	2.1818	0.1	-63.017
28619	18.417	2.4545	0.1	-62.487
28620	18.509	2.3636	0.1	-64.168
28621	18.417	2.6364	0.1	-63.155
28622	18.509	2.5455	0.1	-64.978
28623	18.417	2.8182	0.1	-63.542
28624	18.509	2.7273	0.1	-65.491
28625	18.417	3.	0.1	-63.668
28626	18.509	2.9091	0.1	-65.739
28627	18.417	3.1818	0.1	-63.542
28628	18.509	3.0909	0.1	-65.739
28629	18.417	3.3636	0.1	-63.155
28630	18.509	3.2727	0.1	-65.491
28631	18.417	3.5455	0.1	-62.487
28632	18.509	3.4545	0.1	-64.978
28633	18.417	3.7273	0.1	-61.505
28634	18.509	3.6364	0.1	-64.168
28635	18.417	3.9091	0.1	-60.169
28636	18.509	3.8182	0.1	-63.017
28637	18.417	4.0909	0.1	-58.437
28638	18.509	4.	0.1	-61.477
28639	18.417	4.2727	0.1	-56.268
28640	18.509	4.1818	0.1	-59.497
28641	18.417	4.4545	0.1	-53.631
28642	18.509	4.3636	0.1	-57.033
28643	18.417	4.6364	0.1	-50.503
28644	18.509	4.5455	0.1	-54.053
28645	18.417	4.8182	0.1	-46.88
28646	18.509	4.7273	0.1	-50.538
28647	18.417	5.	0.1	-42.775
28648	18.509	4.9091	0.1	-46.491
28649	18.417	5.1818	0.1	-38.222
28650	18.509	5.0909	0.1	-41.935
28651	18.417	5.3636	0.1	-33.277
28652	18.509	5.2727	0.1	-36.914
28653	18.417	5.5455	0.1	-28.05
28654	18.509	5.4545	0.1	-31.504
28655	18.417	5.7273	0.1	-23.372
28656	18.509	5.6364	0.1	-25.859
28657	18.509	5.8182	0.1	-21.555
28658	18.417	5.9091	0.1	-13.762
28659	18.601	0.27273	0.1	-23.892
28660	18.693	0.18182	0.1	-21.697
28661	18.601	9.0909e-002	0.1	-13.8
28662	18.601	0.45455	0.1	-29.262
28663	18.693	0.36364	0.1	-26.79
28664	18.601	0.63636	0.1	-35.101
28665	18.693	0.54545	0.1	-33.117
28666	18.601	0.81818	0.1	-40.591
28667	18.693	0.72727	0.1	-39.14
28668	18.601	1.	0.1	-45.619
28669	18.693	0.90909	0.1	-44.701
28670	18.601	1.1818	0.1	-50.121
28671	18.693	1.0909	0.1	-49.718
28672	18.601	1.3636	0.1	-54.063
28673	18.693	1.2727	0.1	-54.14
28674	18.601	1.5455	0.1	-57.432
28675	18.693	1.4545	0.1	-57.944
28676	18.601	1.7273	0.1	-60.24
28677	18.693	1.6364	0.1	-61.132
28678	18.601	1.9091	0.1	-62.516
28679	18.693	1.8182	0.1	-63.729
28680	18.601	2.0909	0.1	-64.305
28681	18.693	2.	0.1	-65.78
28682	18.601	2.2727	0.1	-65.66
28683	18.693	2.1818	0.1	-67.344
28684	18.601	2.4545	0.1	-66.639
28685	18.693	2.3636	0.1	-68.487
28686	18.601	2.6364	0.1	-67.294
28687	18.693	2.5455	0.1	-69.274
28688	18.601	2.8182	0.1	-67.668
28689	18.693	2.7273	0.1	-69.763
28690	18.601	3.	0.1	-67.79
28691	18.693	2.9091	0.1	-69.996
28692	18.601	3.1818	0.1	-67.668
28693	18.693	3.0909	0.1	-69.996
28694	18.601	3.3636	0.1	-67.294
28695	18.693	3.2727	0.1	-69.763
28696	18.601	3.5455	0.1	-66.639
28697	18.693	3.4545	0.1	-69.274
28698	18.601	3.7273	0.1	-65.66
28699	18.693	3.6364	0.1	-68.487
28700	18.601	3.9091	0.1	-64.305
28701	18.693	3.8182	0.1	-67.344
28702	18.601	4.0909	0.1	-62.516
28703	18.693	4.	0.1	-65.78
28704	18.601	4.2727	0.1	-60.24
28705	18.693	4.1818	0.1	-63.729
28706	18.601	4.4545	0.1	-57.432
28707	18.693	4.3636	0.1	-61.132
28708	18.601	4.6364	0.1	-54.063
28709	18.693	4.5455	0.1	-57.944
28710	18.601	4.8182	0.1	-50.121
28711	18.693	4.7273	0.1	-54.14
28712	18.601	5.	0.1	-45.619
28713	18.693	4.9091	0.1	-49.718
28714	18.601	5.1818	0.1	-40.591
28715	18.693	5.0909	0.1	-44.701
28716	18.601	5.3636	0.1	-35.101
28717	18.693	5.2727	0.1	-39.14
28718	18.601	5.5455	0.1	-29.262
28719	18.693	5.4545	0.1	-33.117
28720	18.601	5.7273	0.1	-23.892
28721	18.693	5.6364	0.1	-26.79
28722	18.693	5.8182	0.1	-21.697
28723	18.601	5.9091	0.1	-13.8
28724	18.785	0.27273	0.1	-24.442
28725	18.877	0.18182	0.1	-21.819
28726	18.785	9.0909e-002	0.1	-13.817
28727	18.785	0.45455	0.1	-30.592
28728	18.877	0.36364	0.1	-27.805
28729	18.785	0.63636	0.1	-37.116
28730	18.877	0.54545	0.1	-34.897
28731	18.785	0.81818	0.1	-43.216
28732	18.877	0.72727	0.1	-41.607
28733	18.785	1.	0.1	-48.77
28734	18.877	0.90909	0.1	-47.771
28735	18.785	1.1818	0.1	-53.71
28736	18.877	1.0909	0.1	-53.298
28737	18.785	1.3636	0.1	-57.997
28738	18.877	1.2727	0.1	-58.132
28739	18.785	1.5455	0.1	-61.622
28740	18.877	1.4545	0.1	-62.247
28741	18.785	1.7273	0.1	-64.6
28742	18.877	1.6364	0.1	-65.649
28743	18.785	1.9091	0.1	-66.974
28744	18.877	1.8182	0.1	-68.373
28745	18.785	2.0909	0.1	-68.801
28746	18.877	2.	0.1	-70.477
28747	18.785	2.2727	0.1	-70.152
28748	18.877	2.1818	0.1	-72.039
28749	18.785	2.4545	0.1	-71.104
28750	18.877	2.3636	0.1	-73.145
28751	18.785	2.6364	0.1	-71.725
28752	18.877	2.5455	0.1	-73.883
28753	18.785	2.8182	0.1	-72.073
28754	18.877	2.7273	0.1	-74.327
28755	18.785	3.	0.1	-72.184
28756	18.877	2.9091	0.1	-74.534
28757	18.785	3.1818	0.1	-72.073
28758	18.877	3.0909	0.1	-74.534
28759	18.785	3.3636	0.1	-71.725
28760	18.877	3.2727	0.1	-74.327
28761	18.785	3.5455	0.1	-71.104
28762	18.877	3.4545	0.1	-73.883
28763	18.785	3.7273	0.1	-70.152
28764	18.877	3.6364	0.1	-73.145
28765	18.785	3.9091	0.1	-68.801
28766	18.877	3.8182	0.1	-72.039
28767	18.785	4.0909	0.1	-66.974
28768	18.877	4.	0.1	-70.477
28769	18.785	4.2727	0.1	-64.6
28770	18.877	4.1818	0.1	-68.373
28771	18.785	4.4545	0.1	-61.622
28772	18.877	4.3636	0.1	-65.649
28773	18.785	4.6364	0.1	-57.997
28774	18.877	4.5455	0.1	-62.247
28775	18.785	4.8182	0.1	-53.71
28776	18.877	4.7273	0.1	-58.132
28777	18.785	5.	0.1	-48.77
28778	18.877	4.9091	0.1	-53.298
28779	18.785	5.1818	0.1	-43.216
28780	18.877	5.0909	0.1	-47.772
28781	18.785	5.3636	0.1	-37.116
28782	18.877	5.2727	0.1	-41.607
28783	18.785	5.5455	0.1	-30.592
28784	18.877	5.4545	0.1	-34.897
28785	18.785	5.7273	0.1	-24.442
28786	18.877	5.6364	0.1	-27.805
28787	18.877	5.8182	0.1	-21.819
28788	18.785	5.9091	0.1	-13.817
28789	18.969	0.27273	0.1	-25.026
28790	19.061	0.18182	0.1	-21.919
28791	18.969	9.0909e-002	0.1	-13.811
28792	18.969	0.45455	0.1	-32.055
28793	19.061	0.36364	0.1	-28.911
28794	18.969	0.63636	0.1	-39.347
28795	19.061	0.54545	0.1	-36.862
28796	18.969	0.81818	0.1	-46.129
28797	19.061	0.72727	0.1	-44.343
28798	18.969	1.	0.1	-52.271
28799	19.061	0.90909	0.1	-51.184
28800	18.969	1.1818	0.1	-57.696
28801	19.061	1.0909	0.1	-57.281
28802	18.969	1.3636	0.1	-62.36
28803	19.061	1.2727	0.1	-62.57
28804	18.969	1.5455	0.1	-66.255
28805	19.061	1.4545	0.1	-67.024
28806	18.969	1.7273	0.1	-69.404
28807	19.061	1.6364	0.1	-70.648
28808	18.969	1.9091	0.1	-71.86
28809	19.061	1.8182	0.1	-73.489
28810	18.969	2.0909	0.1	-73.7
28811	19.061	2.	0.1	-75.622
28812	18.969	2.2727	0.1	-75.016
28813	19.061	2.1818	0.1	-77.147
28814	18.969	2.4545	0.1	-75.908
28815	19.061	2.3636	0.1	-78.178
28816	18.969	2.6364	0.1	-76.468
28817	19.061	2.5455	0.1	-78.829
28818	18.969	2.8182	0.1	-76.771
28819	19.061	2.7273	0.1	-79.2
28820	18.969	3.	0.1	-76.867
28821	19.061	2.9091	0.1	-79.366
28822	18.969	3.1818	0.1	-76.771
28823	19.061	3.0909	0.1	-79.366
28824	18.969	3.3636	0.1	-76.468
28825	19.061	3.2727	0.1	-79.2
28826	18.969	3.5455	0.1	-75.908
28827	19.061	3.4545	0.1	-78.829
28828	18.969	3.7273	0.1	-75.016
28829	19.061	3.6364	0.1	-78.178
28830	18.969	3.9091	0.1	-73.7
28831	19.061	3.8182	0.1	-77.147
28832	18.969	4.0909	0.1	-71.86
28833	19.061	4.	0.1	-75.622
28834	18.969	4.2727	0.1	-69.404
28835	19.061	4.1818	0.1	-73.489
28836	18.969	4.4545	0.1	-66.255
28837	19.061	4.3636	0.1	-70.648
28838	18.969	4.6364	0.1	-62.36
28839	19.061	4.5455	0.1	-67.024
28840	18.969	4.8182	0.1	-57.696
28841	19.061	4.7273	0.1	-62.57
28842	18.969	5.	0.1	-52.271
28843	19.061	4.9091	0.1	-57.281
28844	18.969	5.1818	0.1	-46.129
28845	19.061	5.0909	0.1	-51.184
28846	18.969	5.3636	0.1	-39.347
28847	19.061	5.2727	0.1	-44.343
28848	18.969	5.5455	0.1	-32.055
28849	19.061	5.4545	0.1	-36.862
28850	18.969	5.7273	0.1	-25.026
28851	19.061	5.6364	0.1	-28.911
28852	19.061	5.8182	0.1	-21.919
28853	18.969	5.9091	0.1	-13.811
28854	19.153	0.27273	0.1	-25.645
28855	19.245	0.18182	0.1	-21.993
28856	19.153	9.0909e-002	0.1	-13.777
28857	19.153	0.45455	0.1	-33.662
28858	19.245	0.36364	0.1	-30.117
28859	19.153	0.63636	0.1	-41.817
28860	19.245	0.54545	0.1	-39.031
28861	19.153	0.81818	0.1	-49.365
28862	19.245	0.72727	0.1	-47.378
28863	19.153	1.	0.1	-56.167
28864	19.245	0.90909	0.1	-54.981
28865	19.153	1.1818	0.1	-62.134
28866	19.245	1.0909	0.1	-61.721
28867	19.153	1.3636	0.1	-67.216
28868	19.245	1.2727	0.1	-67.522
28869	19.153	1.5455	0.1	-71.401
28870	19.245	1.4545	0.1	-72.347
28871	19.153	1.7273	0.1	-74.719
28872	19.245	1.6364	0.1	-76.206
28873	19.153	1.9091	0.1	-77.237
28874	19.245	1.8182	0.1	-79.15
28875	19.153	2.0909	0.1	-79.055
28876	19.245	2.	0.1	-81.279
28877	19.153	2.2727	0.1	-80.294
28878	19.245	2.1818	0.1	-82.72
28879	19.153	2.4545	0.1	-81.084
28880	19.245	2.3636	0.1	-83.624
28881	19.153	2.6364	0.1	-81.546
28882	19.245	2.5455	0.1	-84.14
28883	19.153	2.8182	0.1	-81.78
28884	19.245	2.7273	0.1	-84.401
28885	19.153	3.	0.1	-81.85
28886	19.245	2.9091	0.1	-84.505
28887	19.153	3.1818	0.1	-81.78
28888	19.245	3.0909	0.1	-84.505
28889	19.153	3.3636	0.1	-81.546
28890	19.245	3.2727	0.1	-84.401
28891	19.153	3.5455	0.1	-81.084
28892	19.245	3.4545	0.1	-84.14
28893	19.153	3.7273	0.1	-80.294
28894	19.245	3.6364	0.1	-83.624
28895	19.153	3.9091	0.1	-79.055
28896	19.245	3.8182	0.1	-82.72
28897	19.153	4.0909	0.1	-77.237
28898	19.245	4.	0.1	-81.279
28899	19.153	4.2727	0.1	-74.719
28900	19.245	4.1818	0.1	-79.15
28901	19.153	4.4545	0.1	-71.401
28902	19.245	4.3636	0.1	-76.206
28903	19.153	4.6364	0.1	-67.216
28904	19.245	4.5455	0.1	-72.348
28905	19.153	4.8182	0.1	-62.134
28906	19.245	4.7273	0.1	-67.522
28907	19.153	5.	0.1	-56.168
28908	19.245	4.9091	0.1	-61.721
28909	19.153	5.1818	0.1	-49.366
28910	19.245	5.0909	0.1	-54.981
28911	19.153	5.3636	0.1	-41.817
28912	19.245	5.2727	0.1	-47.378
28913	19.153	5.5455	0.1	-33.662
28914	19.245	5.4545	0.1	-39.031
28915	19.153	5.7273	0.1	-25.645
28916	19.245	5.6364	0.1	-30.117
28917	19.245	5.8182	0.1	-21.993
28918	19.153	5.9091	0.1	-13.777
28919	19.337	0.27273	0.1	-26.302
28920	19.43	0.18182	0.1	-22.038
28921	19.337	9.0909e-002	0.1	-13.713
28922	19.337	0.45455	0.1	-35.428
28923	19.43	0.36364	0.1	-31.427
28924	19.337	0.63636	0.1	-44.551
28925	19.43	0.54545	0.1	-41.419
28926	19.337	0.81818	0.1	-52.963
28927	19.43	0.72727	0.1	-50.741
28928	19.337	1.	0.1	-60.512
28929	19.43	0.90909	0.1	-59.209
28930	19.337	1.1818	0.1	-67.092
28931	19.43	1.0909	0.1	-66.683
28932	19.337	1.3636	0.1	-72.64
28933	19.43	1.2727	0.1	-73.067
28934	19.337	1.5455	0.1	-77.141
28935	19.43	1.4545	0.1	-78.31
28936	19.337	1.7273	0.1	-80.627
28937	19.43	1.6364	0.1	-82.417
28938	19.337	1.9091	0.1	-83.182
28939	19.43	1.8182	0.1	-85.45
28940	19.337	2.0909	0.1	-84.933
28941	19.43	2.	0.1	-87.53
28942	19.337	2.2727	0.1	-86.039
28943	19.43	2.1818	0.1	-88.827
28944	19.337	2.4545	0.1	-86.668
28945	19.43	2.3636	0.1	-89.533
28946	19.337	2.6364	0.1	-86.983
28947	19.43	2.5455	0.1	-89.848
28948	19.337	2.8182	0.1	-87.113
28949	19.43	2.7273	0.1	-89.948
28950	19.337	3.	0.1	-87.147
28951	19.43	2.9091	0.1	-89.962
28952	19.337	3.1818	0.1	-87.113
28953	19.43	3.0909	0.1	-89.962
28954	19.337	3.3636	0.1	-86.983
28955	19.43	3.2727	0.1	-89.948
28956	19.337	3.5455	0.1	-86.668
28957	19.43	3.4545	0.1	-89.848
28958	19.337	3.7273	0.1	-86.039
28959	19.43	3.6364	0.1	-89.533
28960	19.337	3.9091	0.1	-84.933
28961	19.43	3.8182	0.1	-88.827
28962	19.337	4.0909	0.1	-83.182
28963	19.43	4.	0.1	-87.53
28964	19.337	4.2727	0.1	-80.627
28965	19.43	4.1818	0.1	-85.45
28966	19.337	4.4545	0.1	-77.141
28967	19.43	4.3636	0.1	-82.417
28968	19.337	4.6364	0.1	-72.64
28969	19.43	4.5455	0.1	-78.31
28970	19.337	4.8182	0.1	-67.092
28971	19.43	4.7273	0.1	-73.067
28972	19.337	5.	0.1	-60.512
28973	19.43	4.9091	0.1	-66.683
28974	19.337	5.1818	0.1	-52.963
28975	19.43	5.0909	0.1	-59.209
28976	19.337	5.3636	0.1	-44.551
28977	19.43	5.2727	0.1	-50.741
28978	19.337	5.5455	0.1	-35.428
28979	19.43	5.4545	0.1	-41.419
28980	19.337	5.7273	0.1	-26.302
28981	19.43	5.6364	0.1	-31.426
28982	19.43	5.8182	0.1	-22.038
28983	19.337	5.9091	0.1	-13.713
28984	19.522	0.27273	0.1	-26.996
28985	19.614	0.18182	0.1	-22.049
28986	19.522	9.0909e-002	0.1	-13.614
28987	19.522	0.45455	0.1	-37.36
28988	19.614	0.36364	0.1	-32.842
28989	19.522	0.63636	0.1	-47.571
28990	19.614	0.54545	0.1	-44.036
28991	19.522	0.81818	0.1	-56.961
28992	19.614	0.72727	0.1	-54.46
28993	19.522	1.	0.1	-65.363
28994	19.614	0.90909	0.1	-63.917
28995	19.522	1.1818	0.1	-72.647
28996	19.614	1.0909	0.1	-72.24
28997	19.522	1.3636	0.1	-78.729
28998	19.614	1.2727	0.1	-79.302
28999	19.522	1.5455	0.1	-83.58
29000	19.614	1.4545	0.1	-85.027
29001	19.522	1.7273	0.1	-87.234
29002	19.614	1.6364	0.1	-89.405
29003	19.522	1.9091	0.1	-89.792
29004	19.614	1.8182	0.1	-92.507
29005	19.522	2.0909	0.1	-91.417
29006	19.614	2.	0.1	-94.483
29007	19.522	2.2727	0.1	-92.313
29008	19.614	2.1818	0.1	-95.55
29009	19.522	2.4545	0.1	-92.704
29010	19.614	2.3636	0.1	-95.964
29011	19.522	2.6364	0.1	-92.803
29012	19.614	2.5455	0.1	-95.989
29013	19.522	2.8182	0.1	-92.786
29014	19.614	2.7273	0.1	-95.858
29015	19.522	3.	0.1	-92.767
29016	19.614	2.9091	0.1	-95.746
29017	19.522	3.1818	0.1	-92.786
29018	19.614	3.0909	0.1	-95.746
29019	19.522	3.3636	0.1	-92.803
29020	19.614	3.2727	0.1	-95.858
29021	19.522	3.5455	0.1	-92.704
29022	19.614	3.4545	0.1	-95.989
29023	19.522	3.7273	0.1	-92.313
29024	19.614	3.6364	0.1	-95.964
29025	19.522	3.9091	0.1	-91.417
29026	19.614	3.8182	0.1	-95.55
29027	19.522	4.0909	0.1	-89.792
29028	19.614	4.	0.1	-94.483
29029	19.522	4.2727	0.1	-87.234
29030	19.614	4.1818	0.1	-92.507
29031	19.522	4.4545	0.1	-83.58
29032	19.614	4.3636	0.1	-89.405
29033	19.522	4.6364	0.1	-78.729
29034	19.614	4.5455	0.1	-85.027
29035	19.522	4.8182	0.1	-72.647
29036	19.614	4.7273	0.1	-79.302
29037	19.522	5.	0.1	-65.363
29038	19.614	4.9091	0.1	-72.24
29039	19.522	5.1818	0.1	-56.961
29040	19.614	5.0909	0.1	-63.917
29041	19.522	5.3636	0.1	-47.571
29042	19.614	5.2727	0.1	-54.46
29043	19.522	5.5455	0.1	-37.36
29044	19.614	5.4545	0.1	-44.036
29045	19.522	5.7273	0.1	-26.996
29046	19.614	5.6364	0.1	-32.842
29047	19.614	5.8182	0.1	-22.049
29048	19.522	5.9091	0.1	-13.614
29049	19.706	0.27273	0.1	-27.724
29050	19.798	0.18182	0.1	-22.021
29051	19.706	9.0909e-002	0.1	-13.475
29052	19.706	0.45455	0.1	-39.461
29053	19.798	0.36364	0.1	-34.355
29054	19.706	0.63636	0.1	-50.892
29055	19.798	0.54545	0.1	-46.886
29056	19.706	0.81818	0.1	-61.398
29057	19.798	0.72727	0.1	-58.556
29058	19.706	1.	0.1	-70.786
29059	19.798	0.90909	0.1	-69.157
29060	19.706	1.1818	0.1	-78.894
29061	19.798	1.0909	0.1	-78.48
29062	19.706	1.3636	0.1	-85.601
29063	19.798	1.2727	0.1	-86.35
29064	19.706	1.5455	0.1	-90.854
29065	19.798	1.4545	0.1	-92.646
29066	19.706	1.7273	0.1	-94.679
29067	19.798	1.6364	0.1	-97.332
29068	19.706	1.9091	0.1	-97.197
29069	19.798	1.8182	0.1	-100.48
29070	19.706	2.0909	0.1	-98.614
29071	19.798	2.	0.1	-102.28
29072	19.706	2.2727	0.1	-99.197
29073	19.798	2.1818	0.1	-103.
29074	19.706	2.4545	0.1	-99.243
29075	19.798	2.3636	0.1	-102.99
29076	19.706	2.6364	0.1	-99.036
29077	19.798	2.5455	0.1	-102.6
29078	19.706	2.8182	0.1	-98.81
29079	19.798	2.7273	0.1	-102.15
29080	19.706	3.	0.1	-98.717
29081	19.798	2.9091	0.1	-101.86
29082	19.706	3.1818	0.1	-98.81
29083	19.798	3.0909	0.1	-101.86
29084	19.706	3.3636	0.1	-99.036
29085	19.798	3.2727	0.1	-102.15
29086	19.706	3.5455	0.1	-99.243
29087	19.798	3.4545	0.1	-102.6
29088	19.706	3.7273	0.1	-99.197
29089	19.798	3.6364	0.1	-102.99
29090	19.706	3.9091	0.1	-98.614
29091	19.798	3.8182	0.1	-103.
29092	19.706	4.0909	0.1	-97.197
29093	19.798	4.	0.1	-102.28
29094	19.706	4.2727	0.1	-94.679
29095	19.798	4.1818	0.1	-100.48
29096	19.706	4.4545	0.1	-90.854
29097	19.798	4.3636	0.1	-97.332
29098	19.706	4.6364	0.1	-85.601
29099	19.798	4.5455	0.1	-92.646
29100	19.706	4.8182	0.1	-78.894
29101	19.798	4.7273	0.1	-86.35
29102	19.706	5.	0.1	-70.786
29103	19.798	4.9091	0.1	-78.48
29104	19.706	5.1818	0.1	-61.398
29105	19.798	5.0909	0.1	-69.157
29106	19.706	5.3636	0.1	-50.892
29107	19.798	5.2727	0.1	-58.556
29108	19.706	5.5455	0.1	-39.461
29109	19.798	5.4545	0.1	-46.886
29110	19.706	5.7273	0.1	-27.724
29111	19.798	5.6364	0.1	-34.355
29112	19.798	5.8182	0.1	-22.021
29113	19.706	5.9091	0.1	-13.475
29114	19.89	0.27273	0.1	-28.476
29115	19.982	0.18182	0.1	-21.945
29116	19.89	9.0909e-002	0.1	-13.293
29117	19.89	0.45455	0.1	-41.724
29118	19.982	0.36364	0.1	-35.948
29119	19.89	0.63636	0.1	-54.523
29120	19.982	0.54545	0.1	-49.953
29121	19.89	0.81818	0.1	-66.308
29122	19.982	0.72727	0.1	-63.04
29123	19.89	1.	0.1	-76.855
29124	19.982	0.90909	0.1	-74.979
29125	19.89	1.1818	0.1	-85.948
29126	19.982	1.0909	0.1	-85.504
29127	19.89	1.3636	0.1	-93.409
29128	19.982	1.2727	0.1	-94.364
29129	19.89	1.5455	0.1	-99.138
29130	19.982	1.4545	0.1	-101.36
29131	19.89	1.7273	0.1	-103.14
29132	19.982	1.6364	0.1	-106.42
29133	19.89	1.9091	0.1	-105.57
29134	19.982	1.8182	0.1	-109.59
29135	19.89	2.0909	0.1	-106.66
29136	19.982	2.	0.1	-111.1
29137	19.89	2.2727	0.1	-106.79
29138	19.982	2.1818	0.1	-111.32
29139	19.89	2.4545	0.1	-106.35
29140	19.982	2.3636	0.1	-110.71
29141	19.89	2.6364	0.1	-105.71
29142	19.982	2.5455	0.1	-109.74
29143	19.89	2.8182	0.1	-105.19
29144	19.982	2.7273	0.1	-108.83
29145	19.89	3.	0.1	-105.
29146	19.982	2.9091	0.1	-108.3
29147	19.89	3.1818	0.1	-105.19
29148	19.982	3.0909	0.1	-108.3
29149	19.89	3.3636	0.1	-105.71
29150	19.982	3.2727	0.1	-108.83
29151	19.89	3.5455	0.1	-106.35
29152	19.982	3.4545	0.1	-109.74
29153	19.89	3.7273	0.1	-106.79
29154	19.982	3.6364	0.1	-110.71
29155	19.89	3.9091	0.1	-106.66
29156	19.982	3.8182	0.1	-111.32
29157	19.89	4.0909	0.1	-105.57
29158	19.982	4.	0.1	-111.1
29159	19.89	4.2727	0.1	-103.14
29160	19.982	4.1818	0.1	-109.59
29161	19.89	4.4545	0.1	-99.138
29162	19.982	4.3636	0.1	-106.42
29163	19.89	4.6364	0.1	-93.409
29164	19.982	4.5455	0.1	-101.36
29165	19.89	4.8182	0.1	-85.948
29166	19.982	4.7273	0.1	-94.364
29167	19.89	5.	0.1	-76.855
29168	19.982	4.9091	0.1	-85.504
29169	19.89	5.1818	0.1	-66.308
29170	19.982	5.0909	0.1	-74.979
29171	19.89	5.3636	0.1	-54.523
29172	19.982	5.2727	0.1	-63.04
29173	19.89	5.5455	0.1	-41.724
29174	19.982	5.4545	0.1	-49.953
29175	19.89	5.7273	0.1	-28.476
29176	19.982	5.6364	0.1	-35.948
29177	19.982	5.8182	0.1	-21.945
29178	19.89	5.9091	0.1	-13.293
29179	20.074	0.27273	0.1	-29.236
29180	20.166	0.18182	0.1	-21.813
29181	20.074	9.0909e-002	0.1	-13.062
29182	20.074	0.45455	0.1	-44.126
29183	20.166	0.36364	0.1	-37.584
29184	20.074	0.63636	0.1	-58.455
29185	20.166	0.54545	0.1	-53.205
29186	20.074	0.81818	0.1	-71.721
29187	20.166	0.72727	0.1	-67.906
29188	20.074	1.	0.1	-83.653
29189	20.166	0.90909	0.1	-81.435
29190	20.074	1.1818	0.1	-93.954
29191	20.166	1.0909	0.1	-93.438
29192	20.074	1.3636	0.1	-102.35
29193	20.166	1.2727	0.1	-103.55
29194	20.074	1.5455	0.1	-108.67
29195	20.166	1.4545	0.1	-111.45
29196	20.074	1.7273	0.1	-112.88
29197	20.166	1.6364	0.1	-116.96
29198	20.074	1.9091	0.1	-115.13
29199	20.166	1.8182	0.1	-120.12
29200	20.074	2.0909	0.1	-115.76
29201	20.166	2.	0.1	-121.2
29202	20.074	2.2727	0.1	-115.23
29203	20.166	2.1818	0.1	-120.69
29204	20.074	2.4545	0.1	-114.1
29205	20.166	2.3636	0.1	-119.23
29206	20.074	2.6364	0.1	-112.86
29207	20.166	2.5455	0.1	-117.45
29208	20.074	2.8182	0.1	-111.94
29209	20.166	2.7273	0.1	-115.92
29210	20.074	3.	0.1	-111.6
29211	20.166	2.9091	0.1	-115.05
29212	20.074	3.1818	0.1	-111.94
29213	20.166	3.0909	0.1	-115.05
29214	20.074	3.3636	0.1	-112.86
29215	20.166	3.2727	0.1	-115.92
29216	20.074	3.5455	0.1	-114.1
29217	20.166	3.4545	0.1	-117.45
29218	20.074	3.7273	0.1	-115.23
29219	20.166	3.6364	0.1	-119.23
29220	20.074	3.9091	0.1	-115.76
29221	20.166	3.8182	0.1	-120.69
29222	20.074	4.0909	0.1	-115.13
29223	20.166	4.	0.1	-121.2
29224	20.074	4.2727	0.1	-112.88
29225	20.166	4.1818	0.1	-120.12
29226	20.074	4.4545	0.1	-108.67
29227	20.166	4.3636	0.1	-116.96
29228	20.074	4.6364	0.1	-102.35
29229	20.166	4.5455	0.1	-111.45
29230	20.074	4.8182	0.1	-93.954
29231	20.166	4.7273	0.1	-103.55
29232	20.074	5.	0.1	-83.653
29233	20.166	4.9091	0.1	-93.438
29234	20.074	5.1818	0.1	-71.721
29235	20.166	5.0909	0.1	-81.435
29236	20.074	5.3636	0.1	-58.455
29237	20.166	5.2727	0.1	-67.906
29238	20.074	5.5455	0.1	-44.126
29239	20.166	5.4545	0.1	-53.205
29240	20.074	5.7273	0.1	-29.236
29241	20.166	5.6364	0.1	-37.584
29242	20.166	5.8182	0.1	-21.813
29243	20.074	5.9091	0.1	-13.062
29244	20.258	0.27273	0.1	-29.975
29245	20.35	0.18182	0.1	-21.609
29246	20.258	9.0909e-002	0.1	-12.776
29247	20.258	0.45455	0.1	-46.62
29248	20.35	0.36364	0.1	-39.203
29249	20.258	0.63636	0.1	-62.659
29250	20.35	0.54545	0.1	-56.573
29251	20.258	0.81818	0.1	-77.657
29252	20.35	0.72727	0.1	-73.127
29253	20.258	1.	0.1	-91.277
29254	20.35	0.90909	0.1	-88.573
29255	20.258	1.1818	0.1	-103.1
29256	20.35	1.0909	0.1	-102.44
29257	20.258	1.3636	0.1	-112.71
29258	20.35	1.2727	0.1	-114.18
29259	20.258	1.5455	0.1	-119.8
29260	20.35	1.4545	0.1	-123.28
29261	20.258	1.7273	0.1	-124.25
29262	20.35	1.6364	0.1	-129.41
29263	20.258	1.9091	0.1	-126.22
29264	20.35	1.8182	0.1	-132.52
29265	20.258	2.0909	0.1	-126.16
29266	20.35	2.	0.1	-132.96
29267	20.258	2.2727	0.1	-124.7
29268	20.35	2.1818	0.1	-131.39
29269	20.258	2.4545	0.1	-122.58
29270	20.35	2.3636	0.1	-128.7
29271	20.258	2.6364	0.1	-120.51
29272	20.35	2.5455	0.1	-125.79
29273	20.258	2.8182	0.1	-119.03
29274	20.35	2.7273	0.1	-123.41
29275	20.258	3.	0.1	-118.5
29276	20.35	2.9091	0.1	-122.08
29277	20.258	3.1818	0.1	-119.03
29278	20.35	3.0909	0.1	-122.08
29279	20.258	3.3636	0.1	-120.51
29280	20.35	3.2727	0.1	-123.41
29281	20.258	3.5455	0.1	-122.58
29282	20.35	3.4545	0.1	-125.79
29283	20.258	3.7273	0.1	-124.7
29284	20.35	3.6364	0.1	-128.7
29285	20.258	3.9091	0.1	-126.16
29286	20.35	3.8182	0.1	-131.39
29287	20.258	4.0909	0.1	-126.22
29288	20.35	4.	0.1	-132.96
29289	20.258	4.2727	0.1	-124.25
29290	20.35	4.1818	0.1	-132.52
29291	20.258	4.4545	0.1	-119.8
29292	20.35	4.3636	0.1	-129.41
29293	20.258	4.6364	0.1	-112.71
29294	20.35	4.5455	0.1	-123.28
29295	20.258	4.8182	0.1	-103.1
29296	20.35	4.7273	0.1	-114.18
29297	20.258	5.	0.1	-91.277
29298	20.35	4.9091	0.1	-102.44
29299	20.258	5.1818	0.1	-77.657
29300	20.35	5.0909	0.1	-88.573
29301	20.258	5.3636	0.1	-62.659
29302	20.35	5.2727	0.1	-73.127
29303	20.258	5.5455	0.1	-46.62
29304	20.35	5.4545	0.1	-56.573
29305	20.258	5.7273	0.1	-29.975
29306	20.35	5.6364	0.1	-39.203
29307	20.35	5.8182	0.1	-21.609
29308	20.258	5.9091	0.1	-12.776
29309	20.442	0.27273	0.1	-30.648
29310	20.535	0.18182	0.1	-21.314
29311	20.442	9.0909e-002	0.1	-12.427
29312	20.442	0.45455	0.1	-49.128
29313	20.535	0.36364	0.1	-40.712
29314	20.442	0.63636	0.1	-67.075
29315	20.535	0.54545	0.1	-59.953
29316	20.442	0.81818	0.1	-84.124
29317	20.535	0.72727	0.1	-78.642
29318	20.442	1.	0.1	-99.844
29319	20.535	0.90909	0.1	-96.442
29320	20.442	1.1818	0.1	-113.64
29321	20.535	1.0909	0.1	-112.71
29322	20.442	1.3636	0.1	-124.86
29323	20.535	1.2727	0.1	-126.63
29324	20.442	1.5455	0.1	-132.98
29325	20.535	1.4545	0.1	-137.4
29326	20.442	1.7273	0.1	-137.75
29327	20.535	1.6364	0.1	-144.38
29328	20.442	1.9091	0.1	-139.3
29329	20.535	1.8182	0.1	-147.4
29330	20.442	2.0909	0.1	-138.22
29331	20.535	2.	0.1	-146.88
29332	20.442	2.2727	0.1	-135.41
29333	20.535	2.1818	0.1	-143.76
29334	20.442	2.4545	0.1	-131.92
29335	20.535	2.3636	0.1	-139.32
29336	20.442	2.6364	0.1	-128.69
29337	20.535	2.5455	0.1	-134.82
29338	20.442	2.8182	0.1	-126.46
29339	20.535	2.7273	0.1	-131.28
29340	20.442	3.	0.1	-125.67
29341	20.535	2.9091	0.1	-129.35
29342	20.442	3.1818	0.1	-126.46
29343	20.535	3.0909	0.1	-129.35
29344	20.442	3.3636	0.1	-128.69
29345	20.535	3.2727	0.1	-131.28
29346	20.442	3.5455	0.1	-131.92
29347	20.535	3.4545	0.1	-134.82
29348	20.442	3.7273	0.1	-135.41
29349	20.535	3.6364	0.1	-139.32
29350	20.442	3.9091	0.1	-138.22
29351	20.535	3.8182	0.1	-143.76
29352	20.442	4.0909	0.1	-139.3
29353	20.535	4.	0.1	-146.88
29354	20.442	4.2727	0.1	-137.75
29355	20.535	4.1818	0.1	-147.4
29356	20.442	4.4545	0.1	-132.98
29357	20.535	4.3636	0.1	-144.38
29358	20.442	4.6364	0.1	-124.86
29359	20.535	4.5455	0.1	-137.4
29360	20.442	4.8182	0.1	-113.64
29361	20.535	4.7273	0.1	-126.63
29362	20.442	5.	0.1	-99.844
29363	20.535	4.9091	0.1	-112.71
29364	20.442	5.1818	0.1	-84.124
29365	20.535	5.0909	0.1	-96.442
29366	20.442	5.3636	0.1	-67.075
29367	20.535	5.2727	0.1	-78.642
29368	20.442	5.5455	0.1	-49.128
29369	20.535	5.4545	0.1	-59.953
29370	20.442	5.7273	0.1	-30.648
29371	20.535	5.6364	0.1	-40.712
29372	20.535	5.8182	0.1	-21.314
29373	20.442	5.9091	0.1	-12.426
29374	20.627	0.27273	0.1	-31.191
29375	20.719	0.18182	0.1	-20.903
29376	20.627	9.0909e-002	0.1	-12.006
29377	20.627	0.45455	0.1	-51.533
29378	20.719	0.36364	0.1	-41.98
29379	20.627	0.63636	0.1	-71.605
29380	20.719	0.54545	0.1	-63.193
29381	20.627	0.81818	0.1	-91.113
29382	20.719	0.72727	0.1	-84.362
29383	20.627	1.	0.1	-109.5
29384	20.719	0.90909	0.1	-105.09
29385	20.627	1.1818	0.1	-125.91
29386	20.719	1.0909	0.1	-124.52
29387	20.627	1.3636	0.1	-139.36
29388	20.719	1.2727	0.1	-141.45
29389	20.627	1.5455	0.1	-148.94
29390	20.719	1.4545	0.1	-154.59
29391	20.627	1.7273	0.1	-154.14
29392	20.719	1.6364	0.1	-162.84
29393	20.627	1.9091	0.1	-155.05
29394	20.719	1.8182	0.1	-165.73
29395	20.627	2.0909	0.1	-152.46
29396	20.719	2.	0.1	-163.75
29397	20.627	2.2727	0.1	-147.69
29398	20.719	2.1818	0.1	-158.3
29399	20.627	2.4545	0.1	-142.23
29400	20.719	2.3636	0.1	-151.3
29401	20.627	2.6364	0.1	-137.41
29402	20.719	2.5455	0.1	-144.59
29403	20.627	2.8182	0.1	-134.17
29404	20.719	2.7273	0.1	-139.49
29405	20.627	3.	0.1	-133.04
29406	20.719	2.9091	0.1	-136.78
29407	20.627	3.1818	0.1	-134.17
29408	20.719	3.0909	0.1	-136.78
29409	20.627	3.3636	0.1	-137.41
29410	20.719	3.2727	0.1	-139.49
29411	20.627	3.5455	0.1	-142.23
29412	20.719	3.4545	0.1	-144.59
29413	20.627	3.7273	0.1	-147.69
29414	20.719	3.6364	0.1	-151.3
29415	20.627	3.9091	0.1	-152.46
29416	20.719	3.8182	0.1	-158.3
29417	20.627	4.0909	0.1	-155.05
29418	20.719	4.	0.1	-163.75
29419	20.627	4.2727	0.1	-154.14
29420	20.719	4.1818	0.1	-165.73
29421	20.627	4.4545	0.1	-148.94
29422	20.719	4.3636	0.1	-162.84
29423	20.627	4.6364	0.1	-139.36
29424	20.719	4.5455	0.1	-154.59
29425	20.627	4.8182	0.1	-125.91
29426	20.719	4.7273	0.1	-141.45
29427	20.627	5.	0.1	-109.5
29428	20.719	4.9091	0.1	-124.52
29429	20.627	5.1818	0.1	-91.113
29430	20.719	5.0909	0.1	-105.09
29431	20.627	5.3636	0.1	-71.605
29432	20.719	5.2727	0.1	-84.363
29433	20.627	5.5455	0.1	-51.533
29434	20.719	5.4545	0.1	-63.193
29435	20.627	5.7273	0.1	-31.191
29436	20.719	5.6364	0.1	-41.98
29437	20.719	5.8182	0.1	-20.902
29438	20.627	5.9091	0.1	-12.006
29439	20.811	0.27273	0.1	-31.514
29440	20.903	0.18182	0.1	-20.339
29441	20.811	9.0909e-002	0.1	-11.502
29442	20.811	0.45455	0.1	-53.676
29443	20.903	0.36364	0.1	-42.839
29444	20.811	0.63636	0.1	-76.114
29445	20.903	0.54545	0.1	-66.103
29446	20.811	0.81818	0.1	-98.611
29447	20.903	0.72727	0.1	-90.175
29448	20.811	1.	0.1	-120.44
29449	20.903	0.90909	0.1	-114.59
29450	20.811	1.1818	0.1	-140.41
29451	20.903	1.0909	0.1	-138.22
29452	20.811	1.3636	0.1	-157.01
29453	20.903	1.2727	0.1	-159.39
29454	20.811	1.5455	0.1	-168.73
29455	20.903	1.4545	0.1	-176.06
29456	20.811	1.7273	0.1	-174.59
29457	20.903	1.6364	0.1	-186.3
29458	20.811	1.9091	0.1	-174.51
29459	20.903	1.8182	0.1	-189.02
29460	20.811	2.0909	0.1	-169.63
29461	20.903	2.	0.1	-184.76
29462	20.811	2.2727	0.1	-161.93
29463	20.903	2.1818	0.1	-175.71
29464	20.811	2.4545	0.1	-153.67
29465	20.903	2.3636	0.1	-164.91
29466	20.811	2.6364	0.1	-146.67
29467	20.903	2.5455	0.1	-155.09
29468	20.811	2.8182	0.1	-142.1
29469	20.903	2.7273	0.1	-147.96
29470	20.811	3.	0.1	-140.53
29471	20.903	2.9091	0.1	-144.28
29472	20.811	3.1818	0.1	-142.1
29473	20.903	3.0909	0.1	-144.28
29474	20.811	3.3636	0.1	-146.67
29475	20.903	3.2727	0.1	-147.96
29476	20.811	3.5455	0.1	-153.67
29477	20.903	3.4545	0.1	-155.09
29478	20.811	3.7273	0.1	-161.93
29479	20.903	3.6364	0.1	-164.91
29480	20.811	3.9091	0.1	-169.63
29481	20.903	3.8182	0.1	-175.71
29482	20.811	4.0909	0.1	-174.51
29483	20.903	4.	0.1	-184.76
29484	20.811	4.2727	0.1	-174.59
29485	20.903	4.1818	0.1	-189.02
29486	20.811	4.4545	0.1	-168.73
29487	20.903	4.3636	0.1	-186.3
29488	20.811	4.6364	0.1	-157.01
29489	20.903	4.5455	0.1	-176.06
29490	20.811	4.8182	0.1	-140.41
29491	20.903	4.7273	0.1	-159.39
29492	20.811	5.	0.1	-120.44
29493	20.903	4.9091	0.1	-138.22
29494	20.811	5.1818	0.1	-98.611
29495	20.903	5.0909	0.1	-114.59
29496	20.811	5.3636	0.1	-76.114
29497	20.903	5.2727	0.1	-90.175
29498	20.811	5.5455	0.1	-53.676
29499	20.903	5.4545	0.1	-66.103
29500	20.811	5.7273	0.1	-31.514
29501	20.903	5.6364	0.1	-42.839
29502	20.903	5.8182	0.1	-20.339
29503	20.811	5.9091	0.1	-11.502
29504	20.995	0.27273	0.1	-31.512
29505	21.087	0.18182	0.1	-19.584
29506	20.995	9.0909e-002	0.1	-10.902
29507	20.995	0.45455	0.1	-55.368
29508	21.087	0.36364	0.1	-43.1
29509	20.995	0.63636	0.1	-80.457
29510	21.087	0.54545	0.1	-68.49
29511	20.995	0.81818	0.1	-106.62
29512	21.087	0.72727	0.1	-95.999
29513	20.995	1.	0.1	-132.95
29514	21.087	0.90909	0.1	-125.08
29515	20.995	1.1818	0.1	-157.81
29516	21.087	1.0909	0.1	-154.33
29517	20.995	1.3636	0.1	-178.99
29518	21.087	1.2727	0.1	-181.51
29519	20.995	1.5455	0.1	-194.02
29520	21.087	1.4545	0.1	-203.6
29521	20.995	1.7273	0.1	-200.95
29522	21.087	1.6364	0.1	-217.14
29523	20.995	1.9091	0.1	-199.36
29524	21.087	1.8182	0.1	-219.78
29525	20.995	2.0909	0.1	-190.86
29526	21.087	2.	0.1	-211.83
29527	20.995	2.2727	0.1	-178.69
29528	21.087	2.1818	0.1	-196.95
29529	20.995	2.4545	0.1	-166.33
29530	21.087	2.3636	0.1	-180.36
29531	20.995	2.6364	0.1	-156.38
29532	21.087	2.5455	0.1	-166.21
29533	20.995	2.8182	0.1	-150.14
29534	21.087	2.7273	0.1	-156.52
29535	20.995	3.	0.1	-148.03
29536	21.087	2.9091	0.1	-151.71
29537	20.995	3.1818	0.1	-150.14
29538	21.087	3.0909	0.1	-151.71
29539	20.995	3.3636	0.1	-156.38
29540	21.087	3.2727	0.1	-156.52
29541	20.995	3.5455	0.1	-166.33
29542	21.087	3.4545	0.1	-166.21
29543	20.995	3.7273	0.1	-178.69
29544	21.087	3.6364	0.1	-180.36
29545	20.995	3.9091	0.1	-190.86
29546	21.087	3.8182	0.1	-196.95
29547	20.995	4.0909	0.1	-199.36
29548	21.087	4.	0.1	-211.83
29549	20.995	4.2727	0.1	-200.95
29550	21.087	4.1818	0.1	-219.78
29551	20.995	4.4545	0.1	-194.02
29552	21.087	4.3636	0.1	-217.14
29553	20.995	4.6364	0.1	-178.99
29554	21.087	4.5455	0.1	-203.6
29555	20.995	4.8182	0.1	-157.81
29556	21.087	4.7273	0.1	-181.51
29557	20.995	5.	0.1	-132.95
29558	21.087	4.9091	0.1	-154.33
29559	20.995	5.1818	0.1	-106.62
29560	21.087	5.0909	0.1	-125.08
29561	20.995	5.3636	0.1	-80.457
29562	21.087	5.2727	0.1	-95.999
29563	20.995	5.5455	0.1	-55.368
29564	21.087	5.4545	0.1	-68.49
29565	20.995	5.7273	0.1	-31.512
29566	21.087	5.6364	0.1	-43.1
29567	21.087	5.8182	0.1	-19.584
29568	20.995	5.9091	0.1	-10.902
29569	21.179	0.27273	0.1	-31.074
29570	21.271	0.18182	0.1	-18.594
29571	21.179	9.0909e-002	0.1	-10.184
29572	21.179	0.45455	0.1	-56.44
29573	21.271	0.36364	0.1	-42.609
29574	21.179	0.63636	0.1	-84.546
29575	21.271	0.54545	0.1	-70.284
29576	21.179	0.81818	0.1	-115.24
29577	21.271	0.72727	0.1	-101.92
29578	21.179	1.	0.1	-147.42
29579	21.271	0.90909	0.1	-136.84
29580	21.179	1.1818	0.1	-179.05
29581	21.271	1.0909	0.1	-173.47
29582	21.179	1.3636	0.1	-207.02
29583	21.271	1.2727	0.1	-209.16
29584	21.179	1.5455	0.1	-227.35
29585	21.271	1.4545	0.1	-239.78
29586	21.179	1.7273	0.1	-236.28
29587	21.271	1.6364	0.1	-259.46
29588	21.179	1.9091	0.1	-232.33
29589	21.271	1.8182	0.1	-262.48
29590	21.179	2.0909	0.1	-217.9
29591	21.271	2.	0.1	-248.35
29592	21.179	2.2727	0.1	-198.6
29593	21.271	2.1818	0.1	-223.56
29594	21.179	2.4545	0.1	-180.23
29595	21.271	2.3636	0.1	-197.75
29596	21.179	2.6364	0.1	-166.34
29597	21.271	2.5455	0.1	-177.61
29598	21.179	2.8182	0.1	-158.08
29599	21.271	2.7273	0.1	-164.85
29600	21.179	3.	0.1	-155.37
29601	21.271	2.9091	0.1	-158.82
29602	21.179	3.1818	0.1	-158.08
29603	21.271	3.0909	0.1	-158.82
29604	21.179	3.3636	0.1	-166.34
29605	21.271	3.2727	0.1	-164.85
29606	21.179	3.5455	0.1	-180.23
29607	21.271	3.4545	0.1	-177.61
29608	21.179	3.7273	0.1	-198.6
29609	21.271	3.6364	0.1	-197.75
29610	21.179	3.9091	0.1	-217.9
29611	21.271	3.8182	0.1	-223.56
29612	21.179	4.0909	0.1	-232.33
29613	21.271	4.	0.1	-248.35
29614	21.179	4.2727	0.1	-236.28
29615	21.271	4.1818	0.1	-262.48
29616	21.179	4.4545	0.1	-227.35
29617	21.271	4.3636	0.1	-259.46
29618	21.179	4.6364	0.1	-207.02
29619	21.271	4.5455	0.1	-239.78
29620	21.179	4.8182	0.1	-179.05
29621	21.271	4.7273	0.1	-209.16
29622	21.179	5.	0.1	-147.42
29623	21.271	4.9091	0.1	-173.47
29624	21.179	5.1818	0.1	-115.24
29625	21.271	5.0909	0.1	-136.84
29626	21.179	5.3636	0.1	-84.546
29627	21.271	5.2727	0.1	-101.92
29628	21.179	5.5455	0.1	-56.44
29629	21.271	5.4545	0.1	-70.284
29630	21.179	5.7273	0.1	-31.074
29631	21.271	5.6364	0.1	-42.609
29632	21.271	5.8182	0.1	-18.594
29633	21.179	5.9091	0.1	-10.184
29634	21.363	0.27273	0.1	-30.142
29635	21.455	0.18182	0.1	-17.32
29636	21.363	9.0909e-002	0.1	-9.3299
29637	21.363	0.45455	0.1	-56.888
29638	21.455	0.36364	0.1	-41.38
29639	21.363	0.63636	0.1	-88.563
29640	21.455	0.54545	0.1	-71.814
29641	21.363	0.81818	0.1	-124.85
29642	21.455	0.72727	0.1	-108.52
29643	21.363	1.	0.1	-164.5
29644	21.455	0.90909	0.1	-150.55
29645	21.363	1.1818	0.1	-205.29
29646	21.455	1.0909	0.1	-196.45
29647	21.363	1.3636	0.1	-243.45
29648	21.455	1.2727	0.1	-243.75
29649	21.363	1.5455	0.1	-272.94
29650	21.455	1.4545	0.1	-287.98
29651	21.363	1.7273	0.1	-286.08
29652	21.455	1.6364	0.1	-319.7
29653	21.363	1.9091	0.1	-278.46
29654	21.455	1.8182	0.1	-325.8
29655	21.363	2.0909	0.1	-253.84
29656	21.455	2.	0.1	-300.77
29657	21.363	2.2727	0.1	-222.6
29658	21.455	2.1818	0.1	-257.28
29659	21.363	2.4545	0.1	-195.07
29660	21.455	2.3636	0.1	-216.55
29661	21.363	2.6364	0.1	-176.08
29662	21.455	2.5455	0.1	-188.51
29663	21.363	2.8182	0.1	-165.56
29664	21.455	2.7273	0.1	-172.29
29665	21.363	3.	0.1	-162.24
29666	21.455	2.9091	0.1	-165.06
29667	21.363	3.1818	0.1	-165.56
29668	21.455	3.0909	0.1	-165.06
29669	21.363	3.3636	0.1	-176.08
29670	21.455	3.2727	0.1	-172.29
29671	21.363	3.5455	0.1	-195.07
29672	21.455	3.4545	0.1	-188.51
29673	21.363	3.7273	0.1	-222.6
29674	21.455	3.6364	0.1	-216.55
29675	21.363	3.9091	0.1	-253.84
29676	21.455	3.8182	0.1	-257.28
29677	21.363	4.0909	0.1	-278.46
29678	21.455	4.	0.1	-300.77
29679	21.363	4.2727	0.1	-286.08
29680	21.455	4.1818	0.1	-325.8
29681	21.363	4.4545	0.1	-272.94
29682	21.455	4.3636	0.1	-319.7
29683	21.363	4.6364	0.1	-243.45
29684	21.455	4.5455	0.1	-287.98
29685	21.363	4.8182	0.1	-205.29
29686	21.455	4.7273	0.1	-243.75
29687	21.363	5.	0.1	-164.5
29688	21.455	4.9091	0.1	-196.45
29689	21.363	5.1818	0.1	-124.85
29690	21.455	5.0909	0.1	-150.55
29691	21.363	5.3636	0.1	-88.563
29692	21.455	5.2727	0.1	-108.52
29693	21.363	5.5455	0.1	-56.888
29694	21.455	5.4545	0.1	-71.814
29695	21.363	5.7273	0.1	-30.142
29696	21.455	5.6364	0.1	-41.38
29697	21.455	5.8182	0.1	-17.32
29698	21.363	5.9091	0.1	-9.3299
29699	21.548	0.27273	0.1	-28.812
29700	21.64	0.18182	0.1	-15.9
29701	21.548	9.0909e-002	0.1	-8.2796
29702	21.548	0.45455	0.1	-57.215
29703	21.64	0.36364	0.1	-40.236
29704	21.548	0.63636	0.1	-93.395
29705	21.64	0.54545	0.1	-74.753
29706	21.548	0.81818	0.1	-136.42
29707	21.64	0.72727	0.1	-117.73
29708	21.548	1.	0.1	-185.1
29709	21.64	0.90909	0.1	-167.91
29710	21.548	1.1818	0.1	-237.7
29711	21.64	1.0909	0.1	-224.5
29712	21.548	1.3636	0.1	-290.92
29713	21.64	1.2727	0.1	-286.69
29714	21.548	1.5455	0.1	-336.62
29715	21.64	1.4545	0.1	-351.03
29716	21.548	1.7273	0.1	-359.92
29717	21.64	1.6364	0.1	-409.56
29718	21.548	1.9091	0.1	-347.65
29719	21.64	1.8182	0.1	-431.94
29720	21.548	2.0909	0.1	-303.65
29721	21.64	2.	0.1	-385.
29722	21.548	2.2727	0.1	-250.96
29723	21.64	2.1818	0.1	-301.77
29724	21.548	2.4545	0.1	-209.86
29725	21.64	2.3636	0.1	-235.16
29726	21.548	2.6364	0.1	-184.65
29727	21.64	2.5455	0.1	-197.12
29728	21.548	2.8182	0.1	-171.74
29729	21.64	2.7273	0.1	-177.37
29730	21.548	3.	0.1	-167.83
29731	21.64	2.9091	0.1	-169.
29732	21.548	3.1818	0.1	-171.74
29733	21.64	3.0909	0.1	-169.
29734	21.548	3.3636	0.1	-184.65
29735	21.64	3.2727	0.1	-177.37
29736	21.548	3.5455	0.1	-209.86
29737	21.64	3.4545	0.1	-197.12
29738	21.548	3.7273	0.1	-250.96
29739	21.64	3.6364	0.1	-235.16
29740	21.548	3.9091	0.1	-303.65
29741	21.64	3.8182	0.1	-301.77
29742	21.548	4.0909	0.1	-347.65
29743	21.64	4.	0.1	-385.
29744	21.548	4.2727	0.1	-359.92
29745	21.64	4.1818	0.1	-431.94
29746	21.548	4.4545	0.1	-336.62
29747	21.64	4.3636	0.1	-409.56
29748	21.548	4.6364	0.1	-290.92
29749	21.64	4.5455	0.1	-351.03
29750	21.548	4.8182	0.1	-237.7
29751	21.64	4.7273	0.1	-286.69
29752	21.548	5.	0.1	-185.1
29753	21.64	4.9091	0.1	-224.5
29754	21.548	5.1818	0.1	-136.42
29755	21.64	5.0909	0.1	-167.91
29756	21.548	5.3636	0.1	-93.395
29757	21.64	5.2727	0.1	-117.73
29758	21.548	5.5455	0.1	-57.215
29759	21.64	5.4545	0.1	-74.753
29760	21.548	5.7273	0.1	-28.812
29761	21.64	5.6364	0.1	-40.236
29762	21.64	5.8182	0.1	-15.9
29763	21.548	5.9091	0.1	-8.2796
29764	21.732	0.27273	0.1	-28.267
29765	21.824	0.18182	0.1	-15.717
29766	21.732	9.0909e-002	0.1	-7.1978
29767	21.732	0.45455	0.1	-59.911
29768	21.824	0.36364	0.1	-44.167
29769	21.732	0.63636	0.1	-102.14
29770	21.824	0.54545	0.1	-86.12
29771	21.732	0.81818	0.1	-152.81
29772	21.824	0.72727	0.1	-137.14
29773	21.732	1.	0.1	-211.32
29774	21.824	0.90909	0.1	-196.45
29775	21.732	1.1818	0.1	-277.88
29776	21.824	1.0909	0.1	-264.81
29777	21.732	1.3636	0.1	-351.44
29778	21.824	1.2727	0.1	-344.3
29779	21.732	1.5455	0.1	-427.79
29780	21.824	1.4545	0.1	-436.39
29781	21.732	1.7273	0.1	-483.06
29782	21.824	1.6364	0.1	-545.37
29783	21.732	1.9091	0.1	-466.9
29784	21.824	1.8182	0.1	-643.46
29785	21.732	2.0909	0.1	-381.31
29786	21.824	2.	0.1	-554.15
29787	21.732	2.2727	0.1	-285.31
29788	21.824	2.1818	0.1	-358.83
29789	21.732	2.4545	0.1	-222.22
29790	21.824	2.3636	0.1	-247.9
29791	21.732	2.6364	0.1	-189.78
29792	21.824	2.5455	0.1	-199.
29793	21.732	2.8182	0.1	-174.6
29794	21.824	2.7273	0.1	-176.83
29795	21.732	3.	0.1	-170.13
29796	21.824	2.9091	0.1	-167.51
29797	21.732	3.1818	0.1	-174.6
29798	21.824	3.0909	0.1	-167.51
29799	21.732	3.3636	0.1	-189.78
29800	21.824	3.2727	0.1	-176.83
29801	21.732	3.5455	0.1	-222.22
29802	21.824	3.4545	0.1	-199.
29803	21.732	3.7273	0.1	-285.31
29804	21.824	3.6364	0.1	-247.9
29805	21.732	3.9091	0.1	-381.31
29806	21.824	3.8182	0.1	-358.83
29807	21.732	4.0909	0.1	-466.9
29808	21.824	4.	0.1	-554.14
29809	21.732	4.2727	0.1	-483.06
29810	21.824	4.1818	0.1	-643.46
29811	21.732	4.4545	0.1	-427.79
29812	21.824	4.3636	0.1	-545.37
29813	21.732	4.6364	0.1	-351.44
29814	21.824	4.5455	0.1	-436.39
29815	21.732	4.8182	0.1	-277.88
29816	21.824	4.7273	0.1	-344.3
29817	21.732	5.	0.1	-211.32
29818	21.824	4.9091	0.1	-264.81
29819	21.732	5.1818	0.1	-152.82
29820	21.824	5.0909	0.1	-196.45
29821	21.732	5.3636	0.1	-102.14
29822	21.824	5.2727	0.1	-137.14
29823	21.732	5.5455	0.1	-59.91
29824	21.824	5.4545	0.1	-86.12
29825	21.732	5.7273	0.1	-28.267
29826	21.824	5.6364	0.1	-44.167
29827	21.824	5.8182	0.1	-15.717
29828	21.732	5.9091	0.1	-7.1978
29829	21.916	0.27273	0.1	-35.765
29830	22.008	0.18182	0.1	-12.779
29831	21.916	9.0909e-002	0.1	-7.8412
29832	21.916	0.45455	0.1	-76.105
29833	22.008	0.36364	0.1	-43.594
29834	21.916	0.63636	0.1	-127.07
29835	22.008	0.54545	0.1	-83.915
29836	21.916	0.81818	0.1	-186.8
29837	22.008	0.72727	0.1	-131.93
29838	21.916	1.	0.1	-256.31
29839	22.008	0.90909	0.1	-188.34
29840	21.916	1.1818	0.1	-338.43
29841	22.008	1.0909	0.1	-255.25
29842	21.916	1.3636	0.1	-437.97
29843	22.008	1.2727	0.1	-336.88
29844	21.916	1.5455	0.1	-566.3
29845	22.008	1.4545	0.1	-442.14
29846	21.916	1.7273	0.1	-715.01
29847	22.008	1.6364	0.1	-578.39
29848	21.916	1.9091	0.1	-724.3
29849	22.008	1.8182	0.1	-852.46
29850	21.916	2.0909	0.1	-520.12
29851	22.008	2.	0.1	-854.45
29852	21.916	2.2727	0.1	-320.91
29853	22.008	2.1818	0.1	-376.58
29854	21.916	2.4545	0.1	-224.93
29855	22.008	2.3636	0.1	-233.65
29856	21.916	2.6364	0.1	-186.24
29857	22.008	2.5455	0.1	-185.99
29858	21.916	2.8182	0.1	-169.8
29859	22.008	2.7273	0.1	-164.6
29860	21.916	3.	0.1	-164.89
29861	22.008	2.9091	0.1	-155.57
29862	21.916	3.1818	0.1	-169.8
29863	22.008	3.0909	0.1	-155.57
29864	21.916	3.3636	0.1	-186.24
29865	22.008	3.2727	0.1	-164.6
29866	21.916	3.5455	0.1	-224.93
29867	22.008	3.4545	0.1	-185.99
29868	21.916	3.7273	0.1	-320.91
29869	22.008	3.6364	0.1	-233.65
29870	21.916	3.9091	0.1	-520.12
29871	22.008	3.8182	0.1	-376.58
29872	21.916	4.0909	0.1	-724.3
29873	22.008	4.	0.1	-854.45
29874	21.916	4.2727	0.1	-715.01
29875	22.008	4.1818	0.1	-852.46
29876	21.916	4.4545	0.1	-566.3
29877	22.008	4.3636	0.1	-578.39
29878	21.916	4.6364	0.1	-437.97
29879	22.008	4.5455	0.1	-442.14
29880	21.916	4.8182	0.1	-338.43
29881	22.008	4.7273	0.1	-336.88
29882	21.916	5.	0.1	-256.31
29883	22.008	4.9091	0.1	-255.25
29884	21.916	5.1818	0.1	-186.8
29885	22.008	5.0909	0.1	-188.34
29886	21.916	5.3636	0.1	-127.07
29887	22.008	5.2727	0.1	-131.93
29888	21.916	5.5455	0.1	-76.105
29889	22.008	5.4545	0.1	-83.915
29890	21.916	5.7273	0.1	-35.765
29891	22.008	5.6364	0.1	-43.594
29892	22.008	5.8182	0.1	-12.779
29893	21.916	5.9091	0.1	-7.8412
29894	22.527	4.	0.1	17.996
29895	22.353	4.	0.1	-54.278
29896	22.7	4.	0.1	-3.9843
29897	22.873	4.	0.1	0.32506
29898	23.047	4.	0.1	-0.35283
29899	23.22	4.	0.1	-0.17696
29900	23.393	4.	0.1	-0.23857
29901	23.567	4.	0.1	-0.37805
29902	23.74	4.	0.1	-1.2287
29903	23.913	4.	0.1	-7.2604
29904	23.74	2.	0.1	-1.2287
29905	23.913	2.	0.1	-7.2604
29906	23.567	2.	0.1	-0.37805
29907	23.393	2.	0.1	-0.23857
29908	23.22	2.	0.1	-0.17696
29909	23.047	2.	0.1	-0.35283
29910	22.873	2.	0.1	0.32506
29911	22.7	2.	0.1	-3.9843
29912	22.527	2.	0.1	17.996
29913	22.353	2.	0.1	-54.278
29914	22.1	3.7273	0.1	-304.33
29915	22.1	3.9091	0.1	-716.99
29916	22.1	3.5455	0.1	-197.95
29917	22.1	3.3636	0.1	-165.25
29918	22.1	3.1818	0.1	-150.49
29919	22.1	3.	0.1	-146.16
29920	22.1	2.8182	0.1	-150.49
29921	22.1	2.6364	0.1	-165.25
29922	22.1	2.4545	0.1	-197.96
29923	22.1	2.2727	0.1	-304.33
29924	22.1	2.0909	0.1	-716.99
29925	22.267	5.7273	0.1	-2.9249
29926	22.267	5.9091	0.1	-0.71108
29927	22.267	5.8182	5.e-002	-3.0851
29928	22.267	5.5455	0.1	-4.9911
29929	22.267	5.6364	5.e-002	-7.0228
29930	22.267	5.3636	0.1	-7.2706
29931	22.267	5.4545	5.e-002	-10.874
29932	22.267	5.1818	0.1	-9.9562
29933	22.267	5.2727	5.e-002	-15.304
29934	22.267	5.	0.1	-13.394
29935	22.267	5.0909	5.e-002	-20.739
29936	22.267	4.8182	0.1	-17.935
29937	22.267	4.9091	5.e-002	-27.809
29938	22.267	4.6364	0.1	-25.971
29939	22.267	4.7273	5.e-002	-37.497
29940	22.267	4.4545	0.1	-29.024
29941	22.267	4.5455	5.e-002	-51.924
29942	22.267	4.2727	0.1	-92.359
29943	22.267	4.3636	5.e-002	-74.254
29944	22.267	4.0909	0.1	-99.979
29945	22.267	4.1818	5.e-002	-146.52
29946	22.183	4.	0.1	-323.95
29947	22.267	4.	5.e-002	-210.61
29948	22.1	4.0909	0.1	-942.53
29949	22.1	4.	5.e-002	-370.66
29950	22.1	4.2727	0.1	-756.97
29951	22.1	4.1818	5.e-002	-327.86
29952	22.1	4.4545	0.1	-484.84
29953	22.1	4.3636	5.e-002	-214.68
29954	22.1	4.6364	0.1	-364.69
29955	22.1	4.5455	5.e-002	-162.87
29956	22.1	4.8182	0.1	-273.79
29957	22.1	4.7273	5.e-002	-130.22
29958	22.1	5.	0.1	-204.01
29959	22.1	4.9091	5.e-002	-104.44
29960	22.1	5.1818	0.1	-147.47
29961	22.1	5.0909	5.e-002	-82.927
29962	22.1	5.3636	0.1	-100.56
29963	22.1	5.2727	5.e-002	-64.014
29964	22.1	5.5455	0.1	-61.6
29965	22.1	5.4545	5.e-002	-46.801
29966	22.1	5.7273	0.1	-30.055
29967	22.1	5.6364	5.e-002	-30.696
29968	22.1	5.9091	0.1	-5.579
29969	22.1	5.8182	5.e-002	-14.796
29970	22.267	0.27273	0.1	-2.9249
29971	22.267	9.0909e-002	0.1	-0.71109
29972	22.267	0.18182	5.e-002	-3.0851
29973	22.267	0.45455	0.1	-4.9911
29974	22.267	0.36364	5.e-002	-7.0228
29975	22.267	0.63636	0.1	-7.2705
29976	22.267	0.54545	5.e-002	-10.874
29977	22.267	0.81818	0.1	-9.9561
29978	22.267	0.72727	5.e-002	-15.304
29979	22.267	1.	0.1	-13.394
29980	22.267	0.90909	5.e-002	-20.739
29981	22.267	1.1818	0.1	-17.935
29982	22.267	1.0909	5.e-002	-27.809
29983	22.267	1.3636	0.1	-25.971
29984	22.267	1.2727	5.e-002	-37.497
29985	22.267	1.5455	0.1	-29.024
29986	22.267	1.4545	5.e-002	-51.924
29987	22.267	1.7273	0.1	-92.359
29988	22.267	1.6364	5.e-002	-74.254
29989	22.267	1.9091	0.1	-99.979
29990	22.267	1.8182	5.e-002	-146.52
29991	22.183	2.	0.1	-323.95
29992	22.267	2.	5.e-002	-210.61
29993	22.1	1.9091	0.1	-942.53
29994	22.1	2.	5.e-002	-370.66
29995	22.1	1.7273	0.1	-756.97
29996	22.1	1.8182	5.e-002	-327.86
29997	22.1	1.5455	0.1	-484.84
29998	22.1	1.6364	5.e-002	-214.68
29999	22.1	1.3636	0.1	-364.69
30000	22.1	1.4545	5.e-002	-162.87
30001	22.1	1.1818	0.1	-273.79
30002	22.1	1.2727	5.e-002	-130.22
30003	22.1	1.	0.1	-204.01
30004	22.1	1.0909	5.e-002	-104.44
30005	22.1	0.81818	0.1	-147.47
30006	22.1	0.90909	5.e-002	-82.927
30007	22.1	0.63636	0.1	-100.56
30008	22.1	0.72727	5.e-002	-64.014
30009	22.1	0.45455	0.1	-61.6
30010	22.1	0.54545	5.e-002	-46.801
30011	22.1	0.27273	0.1	-30.055
30012	22.1	0.36364	5.e-002	-30.696
30013	22.1	9.0909e-002	0.1	-5.579
30014	22.1	0.18182	5.e-002	-14.796
30015	22.353	6.	0.1	-0.64831
30016	22.267	6.	5.e-002	-1.3785
30017	22.527	6.	0.1	-2.5231
30018	22.44	6.	5.e-002	-2.6911
30019	22.7	6.	0.1	-4.1219
30020	22.613	6.	5.e-002	-5.8674
30021	22.873	6.	0.1	-5.5263
30022	22.787	6.	5.e-002	-8.166
30023	23.047	6.	0.1	-6.7841
30024	22.96	6.	5.e-002	-9.8889
30025	23.22	6.	0.1	-7.942
30026	23.133	6.	5.e-002	-11.047
30027	23.393	6.	0.1	-9.0027
30028	23.307	6.	5.e-002	-11.629
30029	23.567	6.	0.1	-9.9029
30030	23.48	6.	5.e-002	-11.547
30031	23.74	6.	0.1	-9.8357
30032	23.653	6.	5.e-002	-10.604
30033	23.913	6.	0.1	-7.1883
30034	23.827	6.	5.e-002	-8.068
30035	24.	5.9091	0.1	-15.685
30036	24.	6.	5.e-002	-3.8686
30037	24.	5.7273	0.1	-34.144
30038	24.	5.8182	5.e-002	-4.9514
30039	24.	5.5455	0.1	-42.505
30040	24.	5.6364	5.e-002	-9.3845
30041	24.	5.3636	0.1	-44.139
30042	24.	5.4545	5.e-002	-13.371
30043	24.	5.1818	0.1	-42.111
30044	24.	5.2727	5.e-002	-17.033
30045	24.	5.	0.1	-38.207
30046	24.	5.0909	5.e-002	-20.316
30047	24.	4.8182	0.1	-33.646
30048	24.	4.9091	5.e-002	-23.134
30049	24.	4.6364	0.1	-29.098
30050	24.	4.7273	5.e-002	-25.38
30051	24.	4.4545	0.1	-24.782
30052	24.	4.5455	5.e-002	-26.934
30053	24.	4.2727	0.1	-20.623
30054	24.	4.3636	5.e-002	-27.667
30055	24.	4.0909	0.1	-16.408
30056	24.	4.1818	5.e-002	-27.451
30057	24.	3.9091	0.1	-11.918
30058	24.	4.	5.e-002	-26.176
30059	24.	3.7273	0.1	-7.0587
30060	24.	3.8182	5.e-002	-23.779
30061	24.	3.5455	0.1	-3.5645
30062	24.	3.6364	5.e-002	-20.286
30063	24.	3.3636	0.1	-3.5949
30064	24.	3.4545	5.e-002	-15.86
30065	24.	3.1818	0.1	-3.6796
30066	24.	3.2727	5.e-002	-10.909
30067	24.	3.	0.1	-3.7111
30068	24.	3.0909	5.e-002	-6.6248
30069	24.	2.8182	0.1	-3.6796
30070	24.	2.9091	5.e-002	-6.6248
30071	24.	2.6364	0.1	-3.5949
30072	24.	2.7273	5.e-002	-10.909
30073	24.	2.4545	0.1	-3.5645
30074	24.	2.5455	5.e-002	-15.86
30075	24.	2.2727	0.1	-7.0587
30076	24.	2.3636	5.e-002	-20.286
30077	24.	2.0909	0.1	-11.918
30078	24.	2.1818	5.e-002	-23.779
30079	24.	1.9091	0.1	-16.408
30080	24.	2.	5.e-002	-26.176
30081	24.	1.7273	0.1	-20.623
30082	24.	1.8182	5.e-002	-27.451
30083	24.	1.5455	0.1	-24.782
30084	24.	1.6364	5.e-002	-27.667
30085	24.	1.3636	0.1	-29.098
30086	24.	1.4545	5.e-002	-26.934
30087	24.	1.1818	0.1	-33.646
30088	24.	1.2727	5.e-002	-25.381
30089	24.	1.	0.1	-38.207
30090	24.	1.0909	5.e-002	-23.134
30091	24.	0.81818	0.1	-42.11
30092	24.	0.90909	5.e-002	-20.316
30093	24.	0.63636	0.1	-44.138
30094	24.	0.72727	5.e-002	-17.033
30095	24.	0.45455	0.1	-42.505
30096	24.	0.54545	5.e-002	-13.371
30097	24.	0.27273	0.1	-34.144
30098	24.	0.36364	5.e-002	-9.3845
30099	24.	9.0909e-002	0.1	-15.685
30100	24.	0.18182	5.e-002	-4.9514
30101	2.3842e-015	0.27273	0.1	1664.
30102	7.9472e-016	9.0909e-002	0.1	-143.32
30103	1.6109e-015	0.18182	5.e-002	-95.626
30104	3.9736e-015	0.45455	0.1	2513.3
30105	3.2219e-015	0.36364	5.e-002	-49.622
30106	5.563e-015	0.63636	0.1	2946.4
30107	4.8328e-015	0.54545	5.e-002	-44.826
30108	7.1525e-015	0.81818	0.1	3216.
30109	6.4438e-015	0.72727	5.e-002	-39.399
30110	8.7419e-015	1.	0.1	3400.1
30111	8.0547e-015	0.90909	5.e-002	-33.503
30112	1.0331e-014	1.1818	0.1	3533.2
30113	9.6657e-015	1.0909	5.e-002	-28.426
30114	1.1921e-014	1.3636	0.1	3632.7
30115	1.1277e-014	1.2727	5.e-002	-24.309
30116	1.351e-014	1.5455	0.1	3708.6
30117	1.2888e-014	1.4545	5.e-002	-20.965
30118	1.51e-014	1.7273	0.1	3767.2
30119	1.4498e-014	1.6364	5.e-002	-18.256
30120	1.6689e-014	1.9091	0.1	3812.7
30121	1.6109e-014	1.8182	5.e-002	-16.072
30122	1.8279e-014	2.0909	0.1	3847.8
30123	1.772e-014	2.	5.e-002	-14.326
30124	1.9868e-014	2.2727	0.1	3874.4
30125	1.9331e-014	2.1818	5.e-002	-12.952
30126	2.1457e-014	2.4545	0.1	3894.
30127	2.0942e-014	2.3636	5.e-002	-11.903
30128	2.3047e-014	2.6364	0.1	3907.4
30129	2.2553e-014	2.5455	5.e-002	-11.144
30130	2.4636e-014	2.8182	0.1	3915.3
30131	2.4164e-014	2.7273	5.e-002	-10.65
30132	2.6226e-014	3.	0.1	3918.
30133	2.5775e-014	2.9091	5.e-002	-10.407
30134	2.7815e-014	3.1818	0.1	3915.3
30135	2.7386e-014	3.0909	5.e-002	-10.407
30136	2.9405e-014	3.3636	0.1	3907.4
30137	2.8997e-014	3.2727	5.e-002	-10.65
30138	3.0994e-014	3.5455	0.1	3894.
30139	3.0608e-014	3.4545	5.e-002	-11.144
30140	3.2583e-014	3.7273	0.1	3874.4
30141	3.2219e-014	3.6364	5.e-002	-11.903
30142	3.4173e-014	3.9091	0.1	3847.8
30143	3.383e-014	3.8182	5.e-002	-12.952
30144	3.5762e-014	4.0909	0.1	3812.7
30145	3.5441e-014	4.	5.e-002	-14.325
30146	3.7352e-014	4.2727	0.1	3767.2
30147	3.7052e-014	4.1818	5.e-002	-16.072
30148	3.8941e-014	4.4545	0.1	3708.6
30149	3.8663e-014	4.3636	5.e-002	-18.256
30150	4.0531e-014	4.6364	0.1	3632.7
30151	4.0274e-014	4.5455	5.e-002	-20.965
30152	4.212e-014	4.8182	0.1	3533.2
30153	4.1885e-014	4.7273	5.e-002	-24.309
30154	4.371e-014	5.	0.1	3400.1
30155	4.3495e-014	4.9091	5.e-002	-28.426
30156	4.5299e-014	5.1818	0.1	3216.
30157	4.5106e-014	5.0909	5.e-002	-33.502
30158	4.6888e-014	5.3636	0.1	2946.4
30159	4.6717e-014	5.2727	5.e-002	-39.398
30160	4.8478e-014	5.5455	0.1	2513.3
30161	4.8328e-014	5.4545	5.e-002	-44.826
30162	5.0067e-014	5.7273	0.1	1664.
30163	4.9939e-014	5.6364	5.e-002	-49.622
30164	5.1657e-014	5.9091	0.1	-143.32
30165	5.155e-014	5.8182	5.e-002	-95.626
30166	23.913	0.	0.1	-7.1883
30167	24.	0.	5.e-002	-3.8686
30168	23.74	0.	0.1	-9.8357
30169	23.827	0.	5.e-002	-8.068
30170	23.567	0.	0.1	-9.9029
30171	23.653	0.	5.e-002	-10.604
30172	23.393	0.	0.1	-9.0027
30173	23.48	0.	5.e-002	-11.547
30174	23.22	0.	0.1	-7.942
30175	23.307	0.	5.e-002	-11.629
30176	23.047	0.	0.1	-6.7841
30177	23.133	0.	5.e-002	-11.047
30178	22.873	0.	0.1	-5.5263
30179	22.96	0.	5.e-002	-9.8889
30180	22.7	0.	0.1	-4.1218
30181	22.787	0.	5.e-002	-8.166
30182	22.527	0.	0.1	-2.5231
30183	22.613	0.	5.e-002	-5.8674
30184	22.353	0.	0.1	-0.64831
30185	22.44	0.	5.e-002	-2.6911
30186	22.267	0.	5.e-002	-1.3785
30187	22.008	-1.4498e-030	0.1	-0.22148
30188	22.1	-1.4558e-030	5.e-002	-3.6834
30189	21.824	-1.4376e-030	0.1	-0.7843
30190	21.916	0.	5.e-002	-1.6073
30191	21.64	-1.4255e-030	0.1	-1.0172
30192	21.732	0.	5.e-002	-1.0302
30193	21.455	-1.4134e-030	0.1	-1.4029
30194	21.548	0.	5.e-002	-3.0154
30195	21.271	-1.4012e-030	0.1	-1.8526
30196	21.363	0.	5.e-002	-6.0433
30197	21.087	-1.3891e-030	0.1	-2.3769
30198	21.179	0.	5.e-002	-9.7782
30199	20.903	-1.377e-030	0.1	-2.9715
30200	20.995	0.	5.e-002	-13.877
30201	20.719	-1.3648e-030	0.1	-3.6063
30202	20.811	0.	5.e-002	-18.102
30203	20.535	-1.3527e-030	0.1	-4.2523
30204	20.627	0.	5.e-002	-22.283
30205	20.35	-1.3406e-030	0.1	-4.8838
30206	20.442	0.	5.e-002	-26.307
30207	20.166	-1.3284e-030	0.1	-5.4811
30208	20.258	0.	5.e-002	-30.104
30209	19.982	-1.3163e-030	0.1	-6.0311
30210	20.074	0.	5.e-002	-33.639
30211	19.798	-1.3042e-030	0.1	-6.5264
30212	19.89	0.	5.e-002	-36.901
30213	19.614	-1.292e-030	0.1	-6.9641
30214	19.706	0.	5.e-002	-39.893
30215	19.43	-1.2799e-030	0.1	-7.3442
30216	19.522	0.	5.e-002	-42.627
30217	19.245	-1.2678e-030	0.1	-7.6695
30218	19.337	0.	5.e-002	-45.122
30219	19.061	-1.2556e-030	0.1	-7.9435
30220	19.153	0.	5.e-002	-47.397
30221	18.877	-1.2435e-030	0.1	-8.1706
30222	18.969	0.	5.e-002	-49.474
30223	18.693	-1.2314e-030	0.1	-8.3557
30224	18.785	0.	5.e-002	-51.373
30225	18.509	-1.2193e-030	0.1	-8.5034
30226	18.601	0.	5.e-002	-53.111
30227	18.325	-1.2071e-030	0.1	-8.6179
30228	18.417	0.	5.e-002	-54.707
30229	18.14	-1.195e-030	0.1	-8.7034
30230	18.233	0.	5.e-002	-56.176
30231	17.956	-1.1829e-030	0.1	-8.7636
30232	18.048	0.	5.e-002	-57.53
30233	17.772	-1.1707e-030	0.1	-8.8017
30234	17.864	0.	5.e-002	-58.783
30235	17.588	-1.1586e-030	0.1	-8.8207
30236	17.68	0.	5.e-002	-59.945
30237	17.404	-1.1465e-030	0.1	-8.8232
30238	17.496	0.	5.e-002	-61.024
30239	17.22	-1.1343e-030	0.1	-8.8114
30240	17.312	0.	5.e-002	-62.03
30241	17.035	-1.1222e-030	0.1	-8.7872
30242	17.128	0.	5.e-002	-62.97
30243	16.851	-1.1101e-030	0.1	-8.7523
30244	16.943	0.	5.e-002	-63.849
30245	16.667	-1.0979e-030	0.1	-8.7082
30246	16.759	0.	5.e-002	-64.672
30247	16.483	-1.0858e-030	0.1	-8.6562
30248	16.575	0.	5.e-002	-65.446
30249	16.299	-1.0737e-030	0.1	-8.5974
30250	16.391	0.	5.e-002	-66.174
30251	16.115	-1.0615e-030	0.1	-8.5326
30252	16.207	0.	5.e-002	-66.859
30253	15.93	-1.0494e-030	0.1	-8.4627
30254	16.022	0.	5.e-002	-67.504
30255	15.746	-1.0373e-030	0.1	-8.3884
30256	15.838	0.	5.e-002	-68.113
30257	15.562	-1.0251e-030	0.1	-8.3102
30258	15.654	0.	5.e-002	-68.688
30259	15.378	-1.013e-030	0.1	-8.2286
30260	15.47	0.	5.e-002	-69.231
30261	15.194	-1.0009e-030	0.1	-8.1441
30262	15.286	0.	5.e-002	-69.744
30263	15.01	-9.8875e-031	0.1	-8.0568
30264	15.102	0.	5.e-002	-70.228
30265	14.825	-9.7661e-031	0.1	-7.9672
30266	14.917	0.	5.e-002	-70.684
30267	14.641	-9.6448e-031	0.1	-7.8755
30268	14.733	0.	5.e-002	-71.114
30269	14.457	-9.5235e-031	0.1	-7.7816
30270	14.549	0.	5.e-002	-71.519
30271	14.273	-9.4022e-031	0.1	-7.6859
30272	14.365	0.	5.e-002	-71.898
30273	14.089	-9.2809e-031	0.1	-7.5884
30274	14.181	0.	5.e-002	-72.254
30275	13.905	-9.1595e-031	0.1	-7.4891
30276	13.997	0.	5.e-002	-72.585
30277	13.72	-9.0382e-031	0.1	-7.3879
30278	13.813	0.	5.e-002	-72.892
30279	13.536	-8.9169e-031	0.1	-7.285
30280	13.628	0.	5.e-002	-73.175
30281	13.352	-8.7956e-031	0.1	-7.1802
30282	13.444	0.	5.e-002	-73.434
30283	13.168	-8.6743e-031	0.1	-7.0733
30284	13.26	0.	5.e-002	-73.669
30285	12.984	-8.5529e-031	0.1	-6.9645
30286	13.076	0.	5.e-002	-73.878
30287	12.8	-8.4316e-031	0.1	-6.8533
30288	12.892	0.	5.e-002	-74.062
30289	12.615	-8.3103e-031	0.1	-6.7397
30290	12.708	0.	5.e-002	-74.219
30291	12.431	-8.189e-031	0.1	-6.6236
30292	12.523	0.	5.e-002	-74.349
30293	12.247	-8.0677e-031	0.1	-6.5046
30294	12.339	0.	5.e-002	-74.45
30295	12.063	-7.9464e-031	0.1	-6.3825
30296	12.155	0.	5.e-002	-74.52
30297	11.879	-7.825e-031	0.1	-6.2572
30298	11.971	0.	5.e-002	-74.559
30299	11.695	-7.7037e-031	0.1	-6.1283
30300	11.787	0.	5.e-002	-74.564
30301	11.51	-7.5824e-031	0.1	-5.9955
30302	11.602	0.	5.e-002	-74.534
30303	11.326	-7.4611e-031	0.1	-5.8585
30304	11.418	0.	5.e-002	-74.465
30305	11.142	-7.3398e-031	0.1	-5.7169
30306	11.234	0.	5.e-002	-74.357
30307	10.958	-7.2184e-031	0.1	-5.5704
30308	11.05	0.	5.e-002	-74.205
30309	10.774	-7.0971e-031	0.1	-5.4186
30310	10.866	0.	5.e-002	-74.007
30311	10.59	-6.9758e-031	0.1	-5.2611
30312	10.682	0.	5.e-002	-73.759
30313	10.405	-6.8545e-031	0.1	-5.0975
30314	10.498	0.	5.e-002	-73.459
30315	10.221	-6.7332e-031	0.1	-4.9274
30316	10.313	0.	5.e-002	-73.101
30317	10.037	-6.6119e-031	0.1	-4.7502
30318	10.129	0.	5.e-002	-72.682
30319	9.8529	-6.4905e-031	0.1	-4.5657
30320	9.945	0.	5.e-002	-72.197
30321	9.6687	-6.3692e-031	0.1	-4.3733
30322	9.7608	0.	5.e-002	-71.641
30323	9.4846	-6.2479e-031	0.1	-4.1725
30324	9.5767	0.	5.e-002	-71.007
30325	9.3004	-6.1266e-031	0.1	-3.9629
30326	9.3925	0.	5.e-002	-70.291
30327	9.1163	-6.0053e-031	0.1	-3.744
30328	9.2083	0.	5.e-002	-69.485
30329	8.9321	-5.8839e-031	0.1	-3.5155
30330	9.0242	0.	5.e-002	-68.582
30331	8.7479	-5.7626e-031	0.1	-3.2768
30332	8.84	0.	5.e-002	-67.574
30333	8.5638	-5.6413e-031	0.1	-3.0277
30334	8.6558	0.	5.e-002	-66.453
30335	8.3796	-5.52e-031	0.1	-2.7679
30336	8.4717	0.	5.e-002	-65.21
30337	8.1954	-5.3987e-031	0.1	-2.497
30338	8.2875	0.	5.e-002	-63.835
30339	8.0112	-5.2774e-031	0.1	-2.215
30340	8.1033	0.	5.e-002	-62.316
30341	7.8271	-5.156e-031	0.1	-1.9217
30342	7.9192	0.	5.e-002	-60.643
30343	7.6429	-5.0347e-031	0.1	-1.6174
30344	7.735	0.	5.e-002	-58.802
30345	7.4587	-4.9134e-031	0.1	-1.3023
30346	7.5508	0.	5.e-002	-56.78
30347	7.2746	-4.7921e-031	0.1	-0.97681
30348	7.3667	0.	5.e-002	-54.563
30349	7.0904	-4.6708e-031	0.1	-0.64199
30350	7.1825	0.	5.e-002	-52.133
30351	6.9063	-4.5494e-031	0.1	-0.46634
30352	6.9983	0.	5.e-002	-49.475
30353	6.7221	-4.4281e-031	0.1	-0.50863
30354	6.8142	0.	5.e-002	-46.57
30355	6.5379	-4.3068e-031	0.1	-0.55477
30356	6.63	0.	5.e-002	-43.396
30357	6.3538	-4.1855e-031	0.1	-0.60473
30358	6.4458	0.	5.e-002	-39.934
30359	6.1696	-4.0642e-031	0.1	-0.65879
30360	6.2617	0.	5.e-002	-36.16
30361	5.9854	-3.9428e-031	0.1	-0.71727
30362	6.0775	0.	5.e-002	-32.049
30363	5.8012	-3.8215e-031	0.1	-0.78055
30364	5.8933	0.	5.e-002	-27.575
30365	5.6171	-3.7002e-031	0.1	-0.84898
30366	5.7092	0.	5.e-002	-22.712
30367	5.4329	-3.5789e-031	0.1	-0.92303
30368	5.525	0.	5.e-002	-17.432
30369	5.2488	-3.4576e-031	0.1	-1.0032
30370	5.3408	0.	5.e-002	-11.721
30371	5.0646	-3.3363e-031	0.1	-1.0899
30372	5.1567	0.	5.e-002	-5.6464
30373	4.8804	-3.2149e-031	0.1	-1.1838
30374	4.9725	0.	5.e-002	-2.4889
30375	4.6962	-3.0936e-031	0.1	-1.2857
30376	4.7883	0.	5.e-002	-9.1099
30377	4.5121	-2.9723e-031	0.1	-1.3963
30378	4.6042	0.	5.e-002	-17.014
30379	4.3279	-2.851e-031	0.1	-1.5168
30380	4.42	0.	5.e-002	-25.656
30381	4.1438	-2.7297e-031	0.1	-1.6487
30382	4.2358	0.	5.e-002	-35.044
30383	3.9596	-2.6083e-031	0.1	-1.7939
30384	4.0517	0.	5.e-002	-45.226
30385	3.7754	-2.487e-031	0.1	-1.9563
30386	3.8675	0.	5.e-002	-56.261
30387	3.5912	-2.3657e-031	0.1	-2.1429
30388	3.6833	0.	5.e-002	-68.214
30389	3.4071	-2.2444e-031	0.1	-2.3714
30390	3.4992	0.	5.e-002	-81.161
30391	3.2229	-2.1231e-031	0.1	-2.7025
30392	3.315	0.	5.e-002	-95.183
30393	3.0387	-2.0018e-031	0.1	-3.409
30394	3.1308	0.	5.e-002	-110.37
30395	2.8546	-1.8804e-031	0.1	-5.0503
30396	2.9467	0.	5.e-002	-126.83
30397	2.6704	-1.7591e-031	0.1	-7.5515
30398	2.7625	0.	5.e-002	-144.66
30399	2.4862	-1.6378e-031	0.1	-10.777
30400	2.5783	0.	5.e-002	-164.02
30401	2.3021	-1.5165e-031	0.1	-14.793
30402	2.3942	0.	5.e-002	-185.04
30403	2.1179	-1.3952e-031	0.1	-19.743
30404	2.21	0.	5.e-002	-207.92
30405	1.9338	-1.2738e-031	0.1	-25.827
30406	2.0258	0.	5.e-002	-232.87
30407	1.7496	-1.1525e-031	0.1	-33.315
30408	1.8417	0.	5.e-002	-260.17
30409	1.5654	-1.0312e-031	0.1	-42.578
30410	1.6575	0.	5.e-002	-290.15
30411	1.3813	-9.0989e-032	0.1	-54.163
30412	1.4733	0.	5.e-002	-323.28
30413	1.1971	-7.8857e-032	0.1	-68.847
30414	1.2892	0.	5.e-002	-360.15
30415	1.0129	-6.6725e-032	0.1	-88.057
30416	1.105	0.	5.e-002	-401.66
30417	0.82875	-5.4593e-032	0.1	-113.86
30418	0.92083	0.	5.e-002	-449.05
30419	0.64458	-4.2461e-032	0.1	-151.61
30420	0.73667	0.	5.e-002	-504.79
30421	0.46042	-3.033e-032	0.1	-213.15
30422	0.5525	0.	5.e-002	-572.31
30423	0.27625	-1.8198e-032	0.1	-334.94
30424	0.36833	0.	5.e-002	-663.43
30425	9.2083e-002	-6.0659e-033	0.1	-898.01
30426	0.18417	0.	5.e-002	-844.41
30427	0.	0.	5.e-002	-1118.7
30428	9.2083e-002	6.	0.1	-898.01
30429	5.2451e-014	6.	5.e-002	-1118.7
30430	0.27625	6.	0.1	-334.94
30431	0.18417	6.	5.e-002	-844.41
30432	0.46042	6.	0.1	-213.15
30433	0.36833	6.	5.e-002	-663.43
30434	0.64458	6.	0.1	-151.61
30435	0.5525	6.	5.e-002	-572.31
30436	0.82875	6.	0.1	-113.86
30437	0.73667	6.	5.e-002	-504.79
30438	1.0129	6.	0.1	-88.057
30439	0.92083	6.	5.e-002	-449.05
30440	1.1971	6.	0.1	-68.847
30441	1.105	6.	5.e-002	-401.66
30442	1.3813	6.	0.1	-54.163
30443	1.2892	6.	5.e-002	-360.15
30444	1.5654	6.	0.1	-42.578
30445	1.4733	6.	5.e-002	-323.28
30446	1.7496	6.	0.1	-33.315
30447	1.6575	6.	5.e-002	-290.15
30448	1.9338	6.	0.1	-25.827
30449	1.8417	6.	5.e-002	-260.17
30450	2.1179	6.	0.1	-19.743
30451	2.0258	6.	5.e-002	-232.87
30452	2.3021	6.	0.1	-14.793
30453	2.21	6.	5.e-002	-207.92
30454	2.4862	6.	0.1	-10.777
30455	2.3942	6.	5.e-002	-185.04
30456	2.6704	6.	0.1	-7.5515
30457	2.5783	6.	5.e-002	-164.02
30458	2.8546	6.	0.1	-5.0503
30459	2.7625	6.	5.e-002	-144.66
30460	3.0387	6.	0.1	-3.409
30461	2.9467	6.	5.e-002	-126.83
30462	3.2229	6.	0.1	-2.7025
30463	3.1308	6.	5.e-002	-110.37
30464	3.4071	6.	0.1	-2.3714
30465	3.315	6.	5.e-002	-95.183
30466	3.5912	6.	0.1	-2.1429
30467	3.4992	6.	5.e-002	-81.161
30468	3.7754	6.	0.1	-1.9563
30469	3.6833	6.	5.e-002	-68.214
30470	3.9596	6.	0.1	-1.7939
30471	3.8675	6.	5.e-002	-56.26
30472	4.1438	6.	0.1	-1.6487
30473	4.0517	6.	5.e-002	-45.226
30474	4.3279	6.	0.1	-1.5168
30475	4.2358	6.	5.e-002	-35.044
30476	4.5121	6.	0.1	-1.3963
30477	4.42	6.	5.e-002	-25.656
30478	4.6962	6.	0.1	-1.2857
30479	4.6042	6.	5.e-002	-17.014
30480	4.8804	6.	0.1	-1.1838
30481	4.7883	6.	5.e-002	-9.1098
30482	5.0646	6.	0.1	-1.0899
30483	4.9725	6.	5.e-002	-2.4888
30484	5.2488	6.	0.1	-1.0032
30485	5.1567	6.	5.e-002	-5.6461
30486	5.4329	6.	0.1	-0.92303
30487	5.3408	6.	5.e-002	-11.721
30488	5.6171	6.	0.1	-0.84898
30489	5.525	6.	5.e-002	-17.432
30490	5.8012	6.	0.1	-0.78055
30491	5.7092	6.	5.e-002	-22.711
30492	5.9854	6.	0.1	-0.71727
30493	5.8933	6.	5.e-002	-27.575
30494	6.1696	6.	0.1	-0.65879
30495	6.0775	6.	5.e-002	-32.049
30496	6.3538	6.	0.1	-0.60473
30497	6.2617	6.	5.e-002	-36.16
30498	6.5379	6.	0.1	-0.55477
30499	6.4458	6.	5.e-002	-39.934
30500	6.7221	6.	0.1	-0.50863
30501	6.63	6.	5.e-002	-43.396
30502	6.9063	6.	0.1	-0.46634
30503	6.8142	6.	5.e-002	-46.569
30504	7.0904	6.	0.1	-0.64199
30505	6.9983	6.	5.e-002	-49.475
30506	7.2746	6.	0.1	-0.97681
30507	7.1825	6.	5.e-002	-52.133
30508	7.4587	6.	0.1	-1.3023
30509	7.3667	6.	5.e-002	-54.562
30510	7.6429	6.	0.1	-1.6174
30511	7.5508	6.	5.e-002	-56.78
30512	7.8271	6.	0.1	-1.9217
30513	7.735	6.	5.e-002	-58.802
30514	8.0112	6.	0.1	-2.215
30515	7.9192	6.	5.e-002	-60.642
30516	8.1954	6.	0.1	-2.497
30517	8.1033	6.	5.e-002	-62.316
30518	8.3796	6.	0.1	-2.7679
30519	8.2875	6.	5.e-002	-63.834
30520	8.5638	6.	0.1	-3.0277
30521	8.4717	6.	5.e-002	-65.21
30522	8.7479	6.	0.1	-3.2768
30523	8.6558	6.	5.e-002	-66.453
30524	8.9321	6.	0.1	-3.5155
30525	8.84	6.	5.e-002	-67.574
30526	9.1163	6.	0.1	-3.744
30527	9.0242	6.	5.e-002	-68.582
30528	9.3004	6.	0.1	-3.9629
30529	9.2083	6.	5.e-002	-69.485
30530	9.4846	6.	0.1	-4.1725
30531	9.3925	6.	5.e-002	-70.291
30532	9.6687	6.	0.1	-4.3732
30533	9.5767	6.	5.e-002	-71.007
30534	9.8529	6.	0.1	-4.5657
30535	9.7608	6.	5.e-002	-71.641
30536	10.037	6.	0.1	-4.7502
30537	9.945	6.	5.e-002	-72.197
30538	10.221	6.	0.1	-4.9274
30539	10.129	6.	5.e-002	-72.682
30540	10.405	6.	0.1	-5.0975
30541	10.313	6.	5.e-002	-73.101
30542	10.59	6.	0.1	-5.2611
30543	10.498	6.	5.e-002	-73.459
30544	10.774	6.	0.1	-5.4186
30545	10.682	6.	5.e-002	-73.759
30546	10.958	6.	0.1	-5.5703
30547	10.866	6.	5.e-002	-74.007
30548	11.142	6.	0.1	-5.7168
30549	11.05	6.	5.e-002	-74.205
30550	11.326	6.	0.1	-5.8585
30551	11.234	6.	5.e-002	-74.356
30552	11.51	6.	0.1	-5.9955
30553	11.418	6.	5.e-002	-74.465
30554	11.695	6.	0.1	-6.1283
30555	11.602	6.	5.e-002	-74.533
30556	11.879	6.	0.1	-6.2572
30557	11.787	6.	5.e-002	-74.564
30558	12.063	6.	0.1	-6.3825
30559	11.971	6.	5.e-002	-74.559
30560	12.247	6.	0.1	-6.5046
30561	12.155	6.	5.e-002	-74.52
30562	12.431	6.	0.1	-6.6236
30563	12.339	6.	5.e-002	-74.449
30564	12.615	6.	0.1	-6.7397
30565	12.523	6.	5.e-002	-74.349
30566	12.8	6.	0.1	-6.8533
30567	12.708	6.	5.e-002	-74.219
30568	12.984	6.	0.1	-6.9644
30569	12.892	6.	5.e-002	-74.062
30570	13.168	6.	0.1	-7.0733
30571	13.076	6.	5.e-002	-73.878
30572	13.352	6.	0.1	-7.1801
30573	13.26	6.	5.e-002	-73.669
30574	13.536	6.	0.1	-7.285
30575	13.444	6.	5.e-002	-73.434
30576	13.72	6.	0.1	-7.3879
30577	13.628	6.	5.e-002	-73.175
30578	13.905	6.	0.1	-7.4891
30579	13.813	6.	5.e-002	-72.892
30580	14.089	6.	0.1	-7.5884
30581	13.997	6.	5.e-002	-72.585
30582	14.273	6.	0.1	-7.6859
30583	14.181	6.	5.e-002	-72.254
30584	14.457	6.	0.1	-7.7816
30585	14.365	6.	5.e-002	-71.898
30586	14.641	6.	0.1	-7.8754
30587	14.549	6.	5.e-002	-71.519
30588	14.825	6.	0.1	-7.9672
30589	14.733	6.	5.e-002	-71.114
30590	15.01	6.	0.1	-8.0568
30591	14.917	6.	5.e-002	-70.684
30592	15.194	6.	0.1	-8.1441
30593	15.102	6.	5.e-002	-70.228
30594	15.378	6.	0.1	-8.2286
30595	15.286	6.	5.e-002	-69.744
30596	15.562	6.	0.1	-8.3102
30597	15.47	6.	5.e-002	-69.231
30598	15.746	6.	0.1	-8.3884
30599	15.654	6.	5.e-002	-68.688
30600	15.93	6.	0.1	-8.4627
30601	15.838	6.	5.e-002	-68.113
30602	16.115	6.	0.1	-8.5326
30603	16.022	6.	5.e-002	-67.504
30604	16.299	6.	0.1	-8.5974
30605	16.207	6.	5.e-002	-66.858
30606	16.483	6.	0.1	-8.6562
30607	16.391	6.	5.e-002	-66.173
30608	16.667	6.	0.1	-8.7082
30609	16.575	6.	5.e-002	-65.446
30610	16.851	6.	0.1	-8.7523
30611	16.759	6.	5.e-002	-64.672
30612	17.035	6.	0.1	-8.7871
30613	16.943	6.	5.e-002	-63.848
30614	17.22	6.	0.1	-8.8113
30615	17.128	6.	5.e-002	-62.97
30616	17.404	6.	0.1	-8.8232
30617	17.312	6.	5.e-002	-62.03
30618	17.588	6.	0.1	-8.8207
30619	17.496	6.	5.e-002	-61.024
30620	17.772	6.	0.1	-8.8017
30621	17.68	6.	5.e-002	-59.945
30622	17.956	6.	0.1	-8.7636
30623	17.864	6.	5.e-002	-58.783
30624	18.14	6.	0.1	-8.7034
30625	18.048	6.	5.e-002	-57.53
30626	18.325	6.	0.1	-8.6179
30627	18.233	6.	5.e-002	-56.176
30628	18.509	6.	0.1	-8.5034
30629	18.417	6.	5.e-002	-54.707
30630	18.693	6.	0.1	-8.3557
30631	18.601	6.	5.e-002	-53.111
30632	18.877	6.	0.1	-8.1706
30633	18.785	6.	5.e-002	-51.373
30634	19.061	6.	0.1	-7.9434
30635	18.969	6.	5.e-002	-49.474
30636	19.245	6.	0.1	-7.6694
30637	19.153	6.	5.e-002	-47.397
30638	19.43	6.	0.1	-7.3442
30639	19.337	6.	5.e-002	-45.122
30640	19.614	6.	0.1	-6.9641
30641	19.522	6.	5.e-002	-42.627
30642	19.798	6.	0.1	-6.5264
30643	19.706	6.	5.e-002	-39.893
30644	19.982	6.	0.1	-6.0311
30645	19.89	6.	5.e-002	-36.901
30646	20.166	6.	0.1	-5.4811
30647	20.074	6.	5.e-002	-33.639
30648	20.35	6.	0.1	-4.8838
30649	20.258	6.	5.e-002	-30.104
30650	20.535	6.	0.1	-4.2523
30651	20.442	6.	5.e-002	-26.307
30652	20.719	6.	0.1	-3.6063
30653	20.627	6.	5.e-002	-22.283
30654	20.903	6.	0.1	-2.9715
30655	20.811	6.	5.e-002	-18.102
30656	21.087	6.	0.1	-2.3769
30657	20.995	6.	5.e-002	-13.877
30658	21.271	6.	0.1	-1.8526
30659	21.179	6.	5.e-002	-9.7782
30660	21.455	6.	0.1	-1.4029
30661	21.363	6.	5.e-002	-6.0433
30662	21.64	6.	0.1	-1.0172
30663	21.548	6.	5.e-002	-3.0154
30664	21.824	6.	0.1	-0.7843
30665	21.732	6.	5.e-002	-1.0302
30666	22.008	6.	0.1	-0.22148
30667	21.916	6.	5.e-002	-1.6073
30668	22.1	6.	5.e-002	-3.6834
30669	21.824	6.	0.	-111.98
30670	22.008	6.	0.	-38.405
30671	21.64	6.	0.	-191.01
30672	21.455	6.	0.	-268.66
30673	21.271	6.	0.	-344.31
30674	21.087	6.	0.	-417.14
30675	20.903	6.	0.	-486.64
30676	20.719	6.	0.	-552.63
30677	20.535	6.	0.	-615.2
30678	20.35	6.	0.	-674.61
30679	20.166	6.	0.	-731.22
30680	19.982	6.	0.	-785.41
30681	19.798	6.	0.	-837.57
30682	19.614	6.	0.	-888.05
30683	19.43	6.	0.	-937.16
30684	19.245	6.	0.	-985.17
30685	19.061	6.	0.	-1032.3
30686	18.877	6.	0.	-1078.8
30687	18.693	6.	0.	-1124.7
30688	18.509	6.	0.	-1170.2
30689	18.325	6.	0.	-1215.5
30690	18.14	6.	0.	-1260.6
30691	17.956	6.	0.	-1305.5
30692	17.772	6.	0.	-1350.4
30693	17.588	6.	0.	-1395.2
30694	17.404	6.	0.	-1440.1
30695	17.22	6.	0.	-1485.
30696	17.035	6.	0.	-1529.9
30697	16.851	6.	0.	-1575.
30698	16.667	6.	0.	-1620.2
30699	16.483	6.	0.	-1665.5
30700	16.299	6.	0.	-1710.9
30701	16.115	6.	0.	-1756.5
30702	15.93	6.	0.	-1802.2
30703	15.746	6.	0.	-1848.1
30704	15.562	6.	0.	-1894.1
30705	15.378	6.	0.	-1940.4
30706	15.194	6.	0.	-1986.8
30707	15.01	6.	0.	-2033.3
30708	14.825	6.	0.	-2080.1
30709	14.641	6.	0.	-2127.
30710	14.457	6.	0.	-2174.1
30711	14.273	6.	0.	-2221.5
30712	14.089	6.	0.	-2269.
30713	13.905	6.	0.	-2316.7
30714	13.72	6.	0.	-2364.6
30715	13.536	6.	0.	-2412.7
30716	13.352	6.	0.	-2461.
30717	13.168	6.	0.	-2509.5
30718	12.984	6.	0.	-2558.2
30719	12.8	6.	0.	-2607.1
30720	12.615	6.	0.	-2656.2
30721	12.431	6.	0.	-2705.6
30722	12.247	6.	0.	-2755.1
30723	12.063	6.	0.	-2804.9
30724	11.879	6.	0.	-2854.9
30725	11.695	6.	0.	-2905.1
30726	11.51	6.	0.	-2955.5
30727	11.326	6.	0.	-3006.2
30728	11.142	6.	0.	-3057.
30729	10.958	6.	0.	-3108.2
30730	10.774	6.	0.	-3159.5
30731	10.59	6.	0.	-3211.1
30732	10.405	6.	0.	-3262.9
30733	10.221	6.	0.	-3315.
30734	10.037	6.	0.	-3367.4
30735	9.8529	6.	0.	-3420.
30736	9.6687	6.	0.	-3472.8
30737	9.4846	6.	0.	-3525.9
30738	9.3004	6.	0.	-3579.3
30739	9.1163	6.	0.	-3633.
30740	8.9321	6.	0.	-3687.
30741	8.7479	6.	0.	-3741.3
30742	8.5638	6.	0.	-3795.8
30743	8.3796	6.	0.	-3850.7
30744	8.1954	6.	0.	-3905.9
30745	8.0112	6.	0.	-3961.5
30746	7.8271	6.	0.	-4017.4
30747	7.6429	6.	0.	-4073.6
30748	7.4587	6.	0.	-4130.2
30749	7.2746	6.	0.	-4187.3
30750	7.0904	6.	0.	-4244.7
30751	6.9063	6.	0.	-4302.5
30752	6.7221	6.	0.	-4360.8
30753	6.5379	6.	0.	-4419.5
30754	6.3538	6.	0.	-4478.7
30755	6.1696	6.	0.	-4538.4
30756	5.9854	6.	0.	-4598.5
30757	5.8012	6.	0.	-4659.3
30758	5.6171	6.	0.	-4720.5
30759	5.4329	6.	0.	-4782.4
30760	5.2488	6.	0.	-4844.8
30761	5.0646	6.	0.	-4907.7
30762	4.8804	6.	0.	-4971.3
30763	4.6962	6.	0.	-5035.5
30764	4.5121	6.	0.	-5100.2
30765	4.3279	6.	0.	-5165.5
30766	4.1438	6.	0.	-5231.3
30767	3.9596	6.	0.	-5297.5
30768	3.7754	6.	0.	-5364.1
30769	3.5912	6.	0.	-5430.8
30770	3.4071	6.	0.	-5497.5
30771	3.2229	6.	0.	-5564.
30772	3.0387	6.	0.	-5629.8
30773	2.8546	6.	0.	-5694.4
30774	2.6704	6.	0.	-5757.3
30775	2.4862	6.	0.	-5817.6
30776	2.3021	6.	0.	-5874.1
30777	2.1179	6.	0.	-5925.2
30778	1.9338	6.	0.	-5968.9
30779	1.7496	6.	0.	-6002.2
30780	1.5654	6.	0.	-6021.
30781	1.3813	6.	0.	-6019.4
30782	1.1971	6.	0.	-5988.5
30783	1.0129	6.	0.	-5914.1
30784	0.82875	6.	0.	-5772.9
30785	0.64458	6.	0.	-5519.6
30786	0.46042	6.	0.	-5068.
30787	0.27625	6.	0.	-4161.5
30788	9.2083e-002	6.	0.	-1948.9
30789	22.1	5.9091	0.	-23.597
30790	5.1657e-014	5.9091	0.	-1437.2
30791	0.27625	-1.8198e-032	0.	-4161.5
30792	9.2083e-002	-6.0659e-033	0.	-1948.9
30793	0.46042	-3.033e-032	0.	-5068.
30794	0.64458	-4.2461e-032	0.	-5519.6
30795	0.82875	-5.4593e-032	0.	-5772.9
30796	1.0129	-6.6725e-032	0.	-5914.1
30797	1.1971	-7.8857e-032	0.	-5988.5
30798	1.3813	-9.0989e-032	0.	-6019.4
30799	1.5654	-1.0312e-031	0.	-6021.
30800	1.7496	-1.1525e-031	0.	-6002.2
30801	1.9338	-1.2738e-031	0.	-5968.9
30802	2.1179	-1.3952e-031	0.	-5925.2
30803	2.3021	-1.5165e-031	0.	-5874.1
30804	2.4862	-1.6378e-031	0.	-5817.6
30805	2.6704	-1.7591e-031	0.	-5757.3
30806	2.8546	-1.8804e-031	0.	-5694.4
30807	3.0387	-2.0018e-031	0.	-5629.8
30808	3.2229	-2.1231e-031	0.	-5564.
30809	3.4071	-2.2444e-031	0.	-5497.5
30810	3.5912	-2.3657e-031	0.	-5430.8
30811	3.7754	-2.487e-031	0.	-5364.1
30812	3.9596	-2.6083e-031	0.	-5297.5
30813	4.1438	-2.7297e-031	0.	-5231.3
30814	4.3279	-2.851e-031	0.	-5165.5
30815	4.5121	-2.9723e-031	0.	-5100.2
30816	4.6962	-3.0936e-031	0.	-5035.5
30817	4.8804	-3.2149e-031	0.	-4971.3
30818	5.0646	-3.3363e-031	0.	-4907.7
30819	5.2488	-3.4576e-031	0.	-4844.8
30820	5.4329	-3.5789e-031	0.	-4782.4
30821	5.6171	-3.7002e-031	0.	-4720.5
30822	5.8012	-3.8215e-031	0.	-4659.3
30823	5.9854	-3.9428e-031	0.	-4598.5
30824	6.1696	-4.0642e-031	0.	-4538.4
30825	6.3538	-4.1855e-031	0.	-4478.7
30826	6.5379	-4.3068e-031	0.	-4419.5
30827	6.7221	-4.4281e-031	0.	-4360.8
30828	6.9063	-4.5494e-031	0.	-4302.5
30829	7.0904	-4.6708e-031	0.	-4244.7
30830	7.2746	-4.7921e-031	0.	-4187.3
30831	7.4587	-4.9134e-031	0.	-4130.2
30832	7.6429	-5.0347e-031	0.	-4073.6
30833	7.8271	-5.156e-031	0.	-4017.4
30834	8.0112	-5.2774e-031	0.	-3961.5
30835	8.1954	-5.3987e-031	0.	-3905.9
30836	8.3796	-5.52e-031	0.	-3850.7
30837	8.5638	-5.6413e-031	0.	-3795.8
30838	8.7479	-5.7626e-031	0.	-3741.3
30839	8.9321	-5.8839e-031	0.	-3687.
30840	9.1163	-6.0053e-031	0.	-3633.
30841	9.3004	-6.1266e-031	0.	-3579.3
30842	9.4846	-6.2479e-031	0.	-3525.9
30843	9.6687	-6.3692e-031	0.	-3472.8
30844	9.8529	-6.4905e-031	0.	-3420.
30845	10.037	-6.6119e-031	0.	-3367.4
30846	10.221	-6.7332e-031	0.	-3315.
30847	10.405	-6.8545e-031	0.	-3262.9
30848	10.59	-6.9758e-031	0.	-3211.1
30849	10.774	-7.0971e-031	0.	-3159.5
30850	10.958	-7.2184e-031	0.	-3108.2
30851	11.142	-7.3398e-031	0.	-3057.
30852	11.326	-7.4611e-031	0.	-3006.2
30853	11.51	-7.5824e-031	0.	-2955.5
30854	11.695	-7.7037e-031	0.	-2905.1
30855	11.879	-7.825e-031	0.	-2854.9
30856	12.063	-7.9464e-031	0.	-2804.9
30857	12.247	-8.0677e-031	0.	-2755.1
30858	12.431	-8.189e-031	0.	-2705.6
30859	12.615	-8.3103e-031	0.	-2656.2
30860	12.8	-8.4316e-031	0.	-2607.1
30861	12.984	-8.5529e-031	0.	-2558.2
30862	13.168	-8.6743e-031	0.	-2509.5
30863	13.352	-8.7956e-031	0.	-2461.
30864	13.536	-8.9169e-031	0.	-2412.7
30865	13.72	-9.0382e-031	0.	-2364.6
30866	13.905	-9.1595e-031	0.	-2316.7
30867	14.089	-9.2809e-031	0.	-2269.
30868	14.273	-9.4022e-031	0.	-2221.5
30869	14.457	-9.5235e-031	0.	-2174.1
30870	14.641	-9.6448e-031	0.	-2127.
30871	14.825	-9.7661e-031	0.	-2080.1
30872	15.01	-9.8875e-031	0.	-2033.3
30873	15.194	-1.0009e-030	0.	-1986.8
30874	15.378	-1.013e-030	0.	-1940.4
30875	15.562	-1.0251e-030	0.	-1894.1
30876	15.746	-1.0373e-030	0.	-1848.1
30877	15.93	-1.0494e-030	0.	-1802.2
30878	16.115	-1.0615e-030	0.	-1756.5
30879	16.299	-1.0737e-030	0.	-1710.9
30880	16.483	-1.0858e-030	0.	-1665.5
30881	16.667	-1.0979e-030	0.	-1620.2
30882	16.851	-1.1101e-030	0.	-1575.
30883	17.035	-1.1222e-030	0.	-1529.9
30884	17.22	-1.1343e-030	0.	-1485.
30885	17.404	-1.1465e-030	0.	-1440.1
30886	17.588	-1.1586e-030	0.	-1395.2
30887	17.772	-1.1707e-030	0.	-1350.4
30888	17.956	-1.1829e-030	0.	-1305.5
30889	18.14	-1.195e-030	0.	-1260.6
30890	18.325	-1.2071e-030	0.	-1215.5
30891	18.509	-1.2193e-030	0.	-1170.2
30892	18.693	-1.2314e-030	0.	-1124.7
30893	18.877	-1.2435e-030	0.	-1078.8
30894	19.061	-1.2556e-030	0.	-1032.3
30895	19.245	-1.2678e-030	0.	-985.17
30896	19.43	-1.2799e-030	0.	-937.16
30897	19.614	-1.292e-030	0.	-888.05
30898	19.798	-1.3042e-030	0.	-837.57
30899	19.982	-1.3163e-030	0.	-785.41
30900	20.166	-1.3284e-030	0.	-731.22
30901	20.35	-1.3406e-030	0.	-674.61
30902	20.535	-1.3527e-030	0.	-615.2
30903	20.719	-1.3648e-030	0.	-552.63
30904	20.903	-1.377e-030	0.	-486.64
30905	21.087	-1.3891e-030	0.	-417.14
30906	21.271	-1.4012e-030	0.	-344.31
30907	21.455	-1.4134e-030	0.	-268.66
30908	21.64	-1.4255e-030	0.	-191.01
30909	21.824	-1.4376e-030	0.	-111.98
30910	22.008	-1.4498e-030	0.	-38.405
30911	22.1	9.0909e-002	0.	-23.597
30912	7.9472e-016	9.0909e-002	0.	-1437.2
30913	22.527	0.	0.	-29.633
30914	22.353	0.	0.	-11.32
30915	22.7	0.	0.	-43.306
30916	22.873	0.	0.	-51.612
30917	23.047	0.	0.	-54.986
30918	23.22	0.	0.	-53.752
30919	23.393	0.	0.	-48.358
30920	23.567	0.	0.	-39.356
30921	23.74	0.	0.	-27.37
30922	23.913	0.	0.	-12.051
30923	22.267	9.0909e-002	0.	-11.947
30924	24.	9.0909e-002	0.	-5.7926
30925	5.0067e-014	5.7273	0.	-3541.4
30926	4.8478e-014	5.5455	0.	-5159.6
30927	4.6888e-014	5.3636	0.	-6007.2
30928	4.5299e-014	5.1818	0.	-6545.
30929	4.371e-014	5.	0.	-6913.9
30930	4.212e-014	4.8182	0.	-7181.3
30931	4.0531e-014	4.6364	0.	-7381.4
30932	3.8941e-014	4.4545	0.	-7534.1
30933	3.7352e-014	4.2727	0.	-7652.1
30934	3.5762e-014	4.0909	0.	-7743.5
30935	3.4173e-014	3.9091	0.	-7814.1
30936	3.2583e-014	3.7273	0.	-7867.6
30937	3.0994e-014	3.5455	0.	-7906.9
30938	2.9405e-014	3.3636	0.	-7933.7
30939	2.7815e-014	3.1818	0.	-7949.4
30940	2.6226e-014	3.	0.	-7954.5
30941	2.4636e-014	2.8182	0.	-7949.4
30942	2.3047e-014	2.6364	0.	-7933.7
30943	2.1457e-014	2.4545	0.	-7906.9
30944	1.9868e-014	2.2727	0.	-7867.6
30945	1.8279e-014	2.0909	0.	-7814.1
30946	1.6689e-014	1.9091	0.	-7743.5
30947	1.51e-014	1.7273	0.	-7652.1
30948	1.351e-014	1.5455	0.	-7534.1
30949	1.1921e-014	1.3636	0.	-7381.4
30950	1.0331e-014	1.1818	0.	-7181.3
30951	8.7419e-015	1.	0.	-6913.9
30952	7.1525e-015	0.81818	0.	-6545.
30953	5.563e-015	0.63636	0.	-6007.2
30954	3.9736e-015	0.45455	0.	-5159.6
30955	2.3842e-015	0.27273	0.	-3541.4
30956	24.	0.27273	0.	-9.0579
30957	24.	0.45455	0.	-13.048
30958	24.	0.63636	0.	-18.639
30959	24.	0.81818	0.	-26.306
30960	24.	1.	0.	-36.325
30961	24.	1.1818	0.	-48.589
30962	24.	1.3636	0.	-62.396
30963	24.	1.5455	0.	-76.5
30964	24.	1.7273	0.	-89.362
30965	24.	1.9091	0.	-99.512
30966	24.	2.0909	0.	-105.92
30967	24.	2.2727	0.	-108.28
30968	24.	2.4545	0.	-107.17
30969	24.	2.6364	0.	-104.02
30970	24.	2.8182	0.	-100.82
30971	24.	3.	0.	-99.466
30972	24.	3.1818	0.	-100.82
30973	24.	3.3636	0.	-104.02
30974	24.	3.5455	0.	-107.17
30975	24.	3.7273	0.	-108.28
30976	24.	3.9091	0.	-105.92
30977	24.	4.0909	0.	-99.512
30978	24.	4.2727	0.	-89.362
30979	24.	4.4545	0.	-76.5
30980	24.	4.6364	0.	-62.396
30981	24.	4.8182	0.	-48.589
30982	24.	5.	0.	-36.325
30983	24.	5.1818	0.	-26.306
30984	24.	5.3636	0.	-18.639
30985	24.	5.5455	0.	-13.048
30986	24.	5.7273	0.	-9.0579
30987	24.	5.9091	0.	-5.7925
30988	23.913	6.	0.	-12.051
30989	23.74	6.	0.	-27.37
30990	23.567	6.	0.	-39.356
30991	23.393	6.	0.	-48.358
30992	23.22	6.	0.	-53.752
30993	23.047	6.	0.	-54.986
30994	22.873	6.	0.	-51.612
30995	22.7	6.	0.	-43.306
30996	22.527	6.	0.	-29.633
30997	22.353	6.	0.	-11.32
30998	22.267	5.9091	0.	-11.947
30999	22.1	1.7273	0.	-339.04
31000	22.1	1.9091	0.	-1019.3
31001	22.1	1.5455	0.	-250.79
31002	22.1	1.3636	0.	-208.27
31003	22.1	1.1818	0.	-176.08
31004	22.1	1.	0.	-150.14
31005	22.1	0.81818	0.	-126.86
31006	22.1	0.63636	0.	-104.71
31007	22.1	0.45455	0.	-82.16
31008	22.1	0.27273	0.	-56.643
31009	22.183	2.	0.	-1779.5
31010	22.267	0.27273	0.	-33.429
31011	22.267	0.45455	0.	-55.745
31012	22.267	0.63636	0.	-80.646
31013	22.267	0.81818	0.	-110.48
31014	22.267	1.	0.	-147.63
31015	22.267	1.1818	0.	-195.46
31016	22.267	1.3636	0.	-260.47
31017	22.267	1.5455	0.	-351.9
31018	22.267	1.7273	0.	-516.96
31019	22.267	1.9091	0.	-1310.1
31020	22.1	4.2727	0.	-339.04
31021	22.1	4.0909	0.	-1019.3
31022	22.1	4.4545	0.	-250.79
31023	22.1	4.6364	0.	-208.27
31024	22.1	4.8182	0.	-176.08
31025	22.1	5.	0.	-150.14
31026	22.1	5.1818	0.	-126.86
31027	22.1	5.3636	0.	-104.71
31028	22.1	5.5455	0.	-82.16
31029	22.1	5.7273	0.	-56.644
31030	22.183	4.	0.	-1779.5
31031	22.267	5.7273	0.	-33.429
31032	22.267	5.5455	0.	-55.745
31033	22.267	5.3636	0.	-80.646
31034	22.267	5.1818	0.	-110.48
31035	22.267	5.	0.	-147.63
31036	22.267	4.8182	0.	-195.46
31037	22.267	4.6364	0.	-260.47
31038	22.267	4.4545	0.	-351.9
31039	22.267	4.2727	0.	-516.96
31040	22.267	4.0909	0.	-1310.1
