Node Number	X Location (in)	Y Location (in)	Z Location (in)	Maximum Principal Stress (psi)
1	23.7	2.1818	0.	401.35
2	23.7	2.3636	0.	79.393
3	23.7	2.5455	0.	33.507
4	23.7	2.7273	0.	37.11
5	23.7	2.9091	0.	43.481
6	23.7	3.0909	0.	43.481
7	23.7	3.2727	0.	37.11
8	23.7	3.4545	0.	33.507
9	23.7	3.6364	0.	79.393
10	23.7	3.8182	0.	401.35
11	23.516	5.8182	0.	11.78
12	23.516	5.6364	0.	35.078
13	23.516	5.4545	0.	65.286
14	23.516	5.2727	0.	101.17
15	23.516	5.0909	0.	143.09
16	23.516	4.9091	0.	192.39
17	23.516	4.7273	0.	251.84
18	23.516	4.5455	0.	326.88
19	23.516	4.3636	0.	427.89
20	23.516	4.1818	0.	584.65
21	23.516	4.	0.	556.29
22	23.516	3.8182	0.	363.35
23	23.516	3.6364	0.	144.3
24	23.516	3.4545	0.	77.389
25	23.516	3.2727	0.	62.371
26	23.516	3.0909	0.	61.186
27	23.516	2.9091	0.	61.186
28	23.516	2.7273	0.	62.371
29	23.516	2.5455	0.	77.389
30	23.516	2.3636	0.	144.3
31	23.516	2.1818	0.	363.35
32	23.516	2.	0.	556.29
33	23.516	1.8182	0.	584.65
34	23.516	1.6364	0.	427.89
35	23.516	1.4545	0.	326.88
36	23.516	1.2727	0.	251.84
37	23.516	1.0909	0.	192.39
38	23.516	0.90909	0.	143.09
39	23.516	0.72727	0.	101.17
40	23.516	0.54545	0.	65.286
41	23.516	0.36364	0.	35.078
42	23.516	0.18182	0.	11.78
43	23.333	5.8182	0.	12.71
44	23.333	5.6364	0.	33.479
45	23.333	5.4545	0.	60.535
46	23.333	5.2727	0.	93.214
47	23.333	5.0909	0.	131.44
48	23.333	4.9091	0.	175.76
49	23.333	4.7273	0.	227.38
50	23.333	4.5455	0.	286.74
51	23.333	4.3636	0.	354.73
52	23.333	4.1818	0.	402.64
53	23.333	4.	0.	382.22
54	23.333	3.8182	0.	284.07
55	23.333	3.6364	0.	177.7
56	23.333	3.4545	0.	113.34
57	23.333	3.2727	0.	88.014
58	23.333	3.0909	0.	80.325
59	23.333	2.9091	0.	80.325
60	23.333	2.7273	0.	88.014
61	23.333	2.5455	0.	113.34
62	23.333	2.3636	0.	177.7
63	23.333	2.1818	0.	284.07
64	23.333	2.	0.	382.22
65	23.333	1.8182	0.	402.64
66	23.333	1.6364	0.	354.73
67	23.333	1.4545	0.	286.74
68	23.333	1.2727	0.	227.38
69	23.333	1.0909	0.	175.76
70	23.333	0.90909	0.	131.44
71	23.333	0.72727	0.	93.214
72	23.333	0.54545	0.	60.535
73	23.333	0.36364	0.	33.479
74	23.333	0.18182	0.	12.711
75	23.149	5.8182	0.	14.716
76	23.149	5.6364	0.	34.8
77	23.149	5.4545	0.	59.767
78	23.149	5.2727	0.	89.487
79	23.149	5.0909	0.	123.76
80	23.149	4.9091	0.	162.39
81	23.149	4.7273	0.	204.81
82	23.149	4.5455	0.	249.23
83	23.149	4.3636	0.	288.91
84	23.149	4.1818	0.	308.85
85	23.149	4.	0.	291.8
86	23.149	3.8182	0.	240.91
87	23.149	3.6364	0.	179.92
88	23.149	3.4545	0.	133.47
89	23.149	3.2727	0.	107.91
90	23.149	3.0909	0.	97.708
91	23.149	2.9091	0.	97.708
92	23.149	2.7273	0.	107.91
93	23.149	2.5455	0.	133.47
94	23.149	2.3636	0.	179.92
95	23.149	2.1818	0.	240.91
96	23.149	2.	0.	291.8
97	23.149	1.8182	0.	308.85
98	23.149	1.6364	0.	288.91
99	23.149	1.4545	0.	249.23
100	23.149	1.2727	0.	204.81
101	23.149	1.0909	0.	162.39
102	23.149	0.90909	0.	123.76
103	23.149	0.72727	0.	89.487
104	23.149	0.54545	0.	59.767
105	23.149	0.36364	0.	34.8
106	23.149	0.18182	0.	14.716
107	22.965	5.8182	0.	16.807
108	22.965	5.6364	0.	36.21
109	22.965	5.4545	0.	59.369
110	22.965	5.2727	0.	86.146
111	22.965	5.0909	0.	116.24
112	22.965	4.9091	0.	148.95
113	22.965	4.7273	0.	182.89
114	22.965	4.5455	0.	215.21
115	22.965	4.3636	0.	240.34
116	22.965	4.1818	0.	250.12
117	22.965	4.	0.	239.21
118	22.965	3.8182	0.	210.06
119	22.965	3.6364	0.	173.46
120	22.965	3.4545	0.	141.6
121	22.965	3.2727	0.	120.78
122	22.965	3.0909	0.	111.1
123	22.965	2.9091	0.	111.1
124	22.965	2.7273	0.	120.78
125	22.965	2.5455	0.	141.6
126	22.965	2.3636	0.	173.46
127	22.965	2.1818	0.	210.06
128	22.965	2.	0.	239.21
129	22.965	1.8182	0.	250.12
130	22.965	1.6364	0.	240.34
131	22.965	1.4545	0.	215.21
132	22.965	1.2727	0.	182.89
133	22.965	1.0909	0.	148.95
134	22.965	0.90909	0.	116.24
135	22.965	0.72727	0.	86.146
136	22.965	0.54545	0.	59.369
137	22.965	0.36364	0.	36.21
138	22.965	0.18182	0.	16.807
139	22.781	5.8182	0.	18.747
140	22.781	5.6364	0.	37.191
141	22.781	5.4545	0.	58.571
142	22.781	5.2727	0.	82.519
143	22.781	5.0909	0.	108.62
144	22.781	4.9091	0.	135.96
145	22.781	4.7273	0.	162.96
146	22.781	4.5455	0.	186.98
147	22.781	4.3636	0.	204.24
148	22.781	4.1818	0.	210.74
149	22.781	4.	0.	204.33
150	22.781	3.8182	0.	186.95
151	22.781	3.6364	0.	164.29
152	22.781	3.4545	0.	142.99
153	22.781	3.2727	0.	127.58
154	22.781	3.0909	0.	119.8
155	22.781	2.9091	0.	119.8
156	22.781	2.7273	0.	127.58
157	22.781	2.5455	0.	142.99
158	22.781	2.3636	0.	164.29
159	22.781	2.1818	0.	186.95
160	22.781	2.	0.	204.33
161	22.781	1.8182	0.	210.74
162	22.781	1.6364	0.	204.24
163	22.781	1.4545	0.	186.98
164	22.781	1.2727	0.	162.96
165	22.781	1.0909	0.	135.96
166	22.781	0.90909	0.	108.62
167	22.781	0.72727	0.	82.519
168	22.781	0.54545	0.	58.571
169	22.781	0.36364	0.	37.191
170	22.781	0.18182	0.	18.747
171	22.598	5.8182	0.	20.475
172	22.598	5.6364	0.	37.688
173	22.598	5.4545	0.	57.268
174	22.598	5.2727	0.	78.563
175	22.598	5.0909	0.	101.09
176	22.598	4.9091	0.	123.91
177	22.598	4.7273	0.	145.59
178	22.598	4.5455	0.	164.1
179	22.598	4.3636	0.	177.04
180	22.598	4.1818	0.	182.28
181	22.598	4.	0.	179.07
182	22.598	3.8182	0.	168.78
183	22.598	3.6364	0.	154.66
184	22.598	3.4545	0.	140.64
185	22.598	3.2727	0.	129.88
186	22.598	3.0909	0.	124.17
187	22.598	2.9091	0.	124.17
188	22.598	2.7273	0.	129.88
189	22.598	2.5455	0.	140.64
190	22.598	2.3636	0.	154.66
191	22.598	2.1818	0.	168.78
192	22.598	2.	0.	179.07
193	22.598	1.8182	0.	182.28
194	22.598	1.6364	0.	177.04
195	22.598	1.4545	0.	164.1
196	22.598	1.2727	0.	145.59
197	22.598	1.0909	0.	123.91
198	22.598	0.90909	0.	101.09
199	22.598	0.72727	0.	78.563
200	22.598	0.54545	0.	57.268
201	22.598	0.36364	0.	37.688
202	22.598	0.18182	0.	20.475
203	22.414	5.8182	0.	21.953
204	22.414	5.6364	0.	37.744
205	22.414	5.4545	0.	55.533
206	22.414	5.2727	0.	74.399
207	22.414	5.0909	0.	93.836
208	22.414	4.9091	0.	113.
209	22.414	4.7273	0.	130.71
210	22.414	4.5455	0.	145.52
211	22.414	4.3636	0.	155.9
212	22.414	4.1818	0.	160.72
213	22.414	4.	0.	159.73
214	22.414	3.8182	0.	153.9
215	22.414	3.6364	0.	145.25
216	22.414	3.4545	0.	136.24
217	22.414	3.2727	0.	129.03
218	22.414	3.0909	0.	125.08
219	22.414	2.9091	0.	125.08
220	22.414	2.7273	0.	129.03
221	22.414	2.5455	0.	136.24
222	22.414	2.3636	0.	145.25
223	22.414	2.1818	0.	153.9
224	22.414	2.	0.	159.73
225	22.414	1.8182	0.	160.72
226	22.414	1.6364	0.	155.9
227	22.414	1.4545	0.	145.52
228	22.414	1.2727	0.	130.71
229	22.414	1.0909	0.	113.
230	22.414	0.90909	0.	93.836
231	22.414	0.72727	0.	74.399
232	22.414	0.54545	0.	55.533
233	22.414	0.36364	0.	37.744
234	22.414	0.18182	0.	21.953
235	22.23	5.8182	0.	23.177
236	22.23	5.6364	0.	37.448
237	22.23	5.4545	0.	53.502
238	22.23	5.2727	0.	70.188
239	22.23	5.0909	0.	87.013
240	22.23	4.9091	0.	103.26
241	22.23	4.7273	0.	118.02
242	22.23	4.5455	0.	130.27
243	22.23	4.3636	0.	139.04
244	22.23	4.1818	0.	143.71
245	22.23	4.	0.	144.24
246	22.23	3.8182	0.	141.33
247	22.23	3.6364	0.	136.28
248	22.23	3.4545	0.	130.7
249	22.23	3.2727	0.	126.06
250	22.23	3.0909	0.	123.47
251	22.23	2.9091	0.	123.47
252	22.23	2.7273	0.	126.06
253	22.23	2.5455	0.	130.7
254	22.23	2.3636	0.	136.28
255	22.23	2.1818	0.	141.33
256	22.23	2.	0.	144.24
257	22.23	1.8182	0.	143.71
258	22.23	1.6364	0.	139.04
259	22.23	1.4545	0.	130.27
260	22.23	1.2727	0.	118.02
261	22.23	1.0909	0.	103.26
262	22.23	0.90909	0.	87.013
263	22.23	0.72727	0.	70.188
264	22.23	0.54545	0.	53.502
265	22.23	0.36364	0.	37.448
266	22.23	0.18182	0.	23.177
267	22.047	5.8182	0.	24.159
268	22.047	5.6364	0.	36.893
269	22.047	5.4545	0.	51.31
270	22.047	5.2727	0.	66.064
271	22.047	5.0909	0.	80.7
272	22.047	4.9091	0.	94.628
273	22.047	4.7273	0.	107.16
274	22.047	4.5455	0.	117.58
275	22.047	4.3636	0.	125.26
276	22.047	4.1818	0.	129.87
277	22.047	4.	0.	131.43
278	22.047	3.8182	0.	130.44
279	22.047	3.6364	0.	127.8
280	22.047	3.4545	0.	124.56
281	22.047	3.2727	0.	121.74
282	22.047	3.0909	0.	120.13
283	22.047	2.9091	0.	120.13
284	22.047	2.7273	0.	121.74
285	22.047	2.5455	0.	124.56
286	22.047	2.3636	0.	127.8
287	22.047	2.1818	0.	130.44
288	22.047	2.	0.	131.43
289	22.047	1.8182	0.	129.87
290	22.047	1.6364	0.	125.26
291	22.047	1.4545	0.	117.58
292	22.047	1.2727	0.	107.16
293	22.047	1.0909	0.	94.628
294	22.047	0.90909	0.	80.7
295	22.047	0.72727	0.	66.064
296	22.047	0.54545	0.	51.31
297	22.047	0.36364	0.	36.893
298	22.047	0.18182	0.	24.159
299	21.863	5.8182	0.	24.922
300	21.863	5.6364	0.	36.163
301	21.863	5.4545	0.	49.065
302	21.863	5.2727	0.	62.125
303	21.863	5.0909	0.	74.928
304	21.863	4.9091	0.	86.996
305	21.863	4.7273	0.	97.813
306	21.863	4.5455	0.	106.87
307	21.863	4.3636	0.	113.77
308	21.863	4.1818	0.	118.31
309	21.863	4.	0.	120.55
310	21.863	3.8182	0.	120.85
311	21.863	3.6364	0.	119.81
312	21.863	3.4545	0.	118.16
313	21.863	3.2727	0.	116.6
314	21.863	3.0909	0.	115.67
315	21.863	2.9091	0.	115.67
316	21.863	2.7273	0.	116.6
317	21.863	2.5455	0.	118.16
318	21.863	2.3636	0.	119.81
319	21.863	2.1818	0.	120.85
320	21.863	2.	0.	120.55
321	21.863	1.8182	0.	118.31
322	21.863	1.6364	0.	113.77
323	21.863	1.4545	0.	106.87
324	21.863	1.2727	0.	97.813
325	21.863	1.0909	0.	86.996
326	21.863	0.90909	0.	74.928
327	21.863	0.72727	0.	62.125
328	21.863	0.54545	0.	49.065
329	21.863	0.36364	0.	36.163
330	21.863	0.18182	0.	24.922
331	21.679	5.8182	0.	25.493
332	21.679	5.6364	0.	35.325
333	21.679	5.4545	0.	46.848
334	21.679	5.2727	0.	58.427
335	21.679	5.0909	0.	69.688
336	21.679	4.9091	0.	80.248
337	21.679	4.7273	0.	89.715
338	21.679	4.5455	0.	97.728
339	21.679	4.3636	0.	104.02
340	21.679	4.1818	0.	108.46
341	21.679	4.	0.	111.12
342	21.679	3.8182	0.	112.26
343	21.679	3.6364	0.	112.29
344	21.679	3.4545	0.	111.71
345	21.679	3.2727	0.	111.01
346	21.679	3.0909	0.	110.55
347	21.679	2.9091	0.	110.55
348	21.679	2.7273	0.	111.01
349	21.679	2.5455	0.	111.71
350	21.679	2.3636	0.	112.29
351	21.679	2.1818	0.	112.26
352	21.679	2.	0.	111.12
353	21.679	1.8182	0.	108.46
354	21.679	1.6364	0.	104.02
355	21.679	1.4545	0.	97.728
356	21.679	1.2727	0.	89.715
357	21.679	1.0909	0.	80.248
358	21.679	0.90909	0.	69.688
359	21.679	0.72727	0.	58.427
360	21.679	0.54545	0.	46.848
361	21.679	0.36364	0.	35.325
362	21.679	0.18182	0.	25.493
363	21.495	5.8182	0.	25.901
364	21.495	5.6364	0.	34.431
365	21.495	5.4545	0.	44.71
366	21.495	5.2727	0.	54.996
367	21.495	5.0909	0.	64.954
368	21.495	4.9091	0.	74.271
369	21.495	4.7273	0.	82.647
370	21.495	4.5455	0.	89.821
371	21.495	4.3636	0.	95.605
372	21.495	4.1818	0.	99.92
373	21.495	4.	0.	102.82
374	21.495	3.8182	0.	104.49
375	21.495	3.6364	0.	105.23
376	21.495	3.4545	0.	105.36
377	21.495	3.2727	0.	105.23
378	21.495	3.0909	0.	105.09
379	21.495	2.9091	0.	105.09
380	21.495	2.7273	0.	105.23
381	21.495	2.5455	0.	105.36
382	21.495	2.3636	0.	105.23
383	21.495	2.1818	0.	104.49
384	21.495	2.	0.	102.82
385	21.495	1.8182	0.	99.92
386	21.495	1.6364	0.	95.605
387	21.495	1.4545	0.	89.821
388	21.495	1.2727	0.	82.647
389	21.495	1.0909	0.	74.271
390	21.495	0.90909	0.	64.954
391	21.495	0.72727	0.	54.996
392	21.495	0.54545	0.	44.71
393	21.495	0.36364	0.	34.431
394	21.495	0.18182	0.	25.901
395	21.312	5.8182	0.	26.172
396	21.312	5.6364	0.	33.517
397	21.312	5.4545	0.	42.683
398	21.312	5.2727	0.	51.84
399	21.312	5.0909	0.	60.684
400	21.312	4.9091	0.	68.961
401	21.312	4.7273	0.	76.436
402	21.312	4.5455	0.	82.913
403	21.312	4.3636	0.	88.257
404	21.312	4.1818	0.	92.414
405	21.312	4.	0.	95.425
406	21.312	3.8182	0.	97.419
407	21.312	3.6364	0.	98.598
408	21.312	3.4545	0.	99.197
409	21.312	3.2727	0.	99.443
410	21.312	3.0909	0.	99.517
411	21.312	2.9091	0.	99.517
412	21.312	2.7273	0.	99.443
413	21.312	2.5455	0.	99.197
414	21.312	2.3636	0.	98.598
415	21.312	2.1818	0.	97.419
416	21.312	2.	0.	95.425
417	21.312	1.8182	0.	92.414
418	21.312	1.6364	0.	88.257
419	21.312	1.4545	0.	82.913
420	21.312	1.2727	0.	76.436
421	21.312	1.0909	0.	68.961
422	21.312	0.90909	0.	60.684
423	21.312	0.72727	0.	51.84
424	21.312	0.54545	0.	42.683
425	21.312	0.36364	0.	33.517
426	21.312	0.18182	0.	26.172
427	21.128	5.8182	0.	26.327
428	21.128	5.6364	0.	32.606
429	21.128	5.4545	0.	40.781
430	21.128	5.2727	0.	48.949
431	21.128	5.0909	0.	56.835
432	21.128	4.9091	0.	64.227
433	21.128	4.7273	0.	70.94
434	21.128	4.5455	0.	76.822
435	21.128	4.3636	0.	81.77
436	21.128	4.1818	0.	85.744
437	21.128	4.	0.	88.77
438	21.128	3.8182	0.	90.939
439	21.128	3.6364	0.	92.387
440	21.128	3.4545	0.	93.278
441	21.128	3.2727	0.	93.767
442	21.128	3.0909	0.	93.977
443	21.128	2.9091	0.	93.977
444	21.128	2.7273	0.	93.767
445	21.128	2.5455	0.	93.278
446	21.128	2.3636	0.	92.387
447	21.128	2.1818	0.	90.939
448	21.128	2.	0.	88.77
449	21.128	1.8182	0.	85.744
450	21.128	1.6364	0.	81.77
451	21.128	1.4545	0.	76.822
452	21.128	1.2727	0.	70.94
453	21.128	1.0909	0.	64.227
454	21.128	0.90909	0.	56.835
455	21.128	0.72727	0.	48.949
456	21.128	0.54545	0.	40.781
457	21.128	0.36364	0.	32.606
458	21.128	0.18182	0.	26.327
459	20.944	5.8182	0.	26.388
460	20.944	5.6364	0.	31.715
461	20.944	5.4545	0.	39.007
462	20.944	5.2727	0.	46.307
463	20.944	5.0909	0.	53.362
464	20.944	4.9091	0.	59.992
465	20.944	4.7273	0.	66.048
466	20.944	4.5455	0.	71.408
467	20.944	4.3636	0.	75.992
468	20.944	4.1818	0.	79.764
469	20.944	4.	0.	82.74
470	20.944	3.8182	0.	84.979
471	20.944	3.6364	0.	86.575
472	20.944	3.4545	0.	87.639
473	20.944	3.2727	0.	88.276
474	20.944	3.0909	0.	88.572
475	20.944	2.9091	0.	88.572
476	20.944	2.7273	0.	88.276
477	20.944	2.5455	0.	87.639
478	20.944	2.3636	0.	86.575
479	20.944	2.1818	0.	84.979
480	20.944	2.	0.	82.74
481	20.944	1.8182	0.	79.764
482	20.944	1.6364	0.	75.992
483	20.944	1.4545	0.	71.408
484	20.944	1.2727	0.	66.048
485	20.944	1.0909	0.	59.992
486	20.944	0.90909	0.	53.362
487	20.944	0.72727	0.	46.307
488	20.944	0.54545	0.	39.007
489	20.944	0.36364	0.	31.715
490	20.944	0.18182	0.	26.388
491	20.76	5.8182	0.	26.37
492	20.76	5.6364	0.	30.851
493	20.76	5.4545	0.	37.36
494	20.76	5.2727	0.	43.895
495	20.76	5.0909	0.	50.222
496	20.76	4.9091	0.	56.187
497	20.76	4.7273	0.	61.668
498	20.76	4.5455	0.	66.563
499	20.76	4.3636	0.	70.806
500	20.76	4.1818	0.	74.365
501	20.76	4.	0.	77.245
502	20.76	3.8182	0.	79.484
503	20.76	3.6364	0.	81.144
504	20.76	3.4545	0.	82.298
505	20.76	3.2727	0.	83.018
506	20.76	3.0909	0.	83.363
507	20.76	2.9091	0.	83.363
508	20.76	2.7273	0.	83.018
509	20.76	2.5455	0.	82.298
510	20.76	2.3636	0.	81.144
511	20.76	2.1818	0.	79.484
512	20.76	2.	0.	77.245
513	20.76	1.8182	0.	74.365
514	20.76	1.6364	0.	70.806
515	20.76	1.4545	0.	66.563
516	20.76	1.2727	0.	61.668
517	20.76	1.0909	0.	56.187
518	20.76	0.90909	0.	50.222
519	20.76	0.72727	0.	43.895
520	20.76	0.54545	0.	37.36
521	20.76	0.36364	0.	30.851
522	20.76	0.18182	0.	26.37
523	20.577	5.8182	0.	26.288
524	20.577	5.6364	0.	30.019
525	20.577	5.4545	0.	35.832
526	20.577	5.2727	0.	41.691
527	20.577	5.0909	0.	47.376
528	20.577	4.9091	0.	52.756
529	20.577	4.7273	0.	57.726
530	20.577	4.5455	0.	62.201
531	20.577	4.3636	0.	66.124
532	20.577	4.1818	0.	69.464
533	20.577	4.	0.	72.219
534	20.577	3.8182	0.	74.408
535	20.577	3.6364	0.	76.073
536	20.577	3.4545	0.	77.261
537	20.577	3.2727	0.	78.021
538	20.577	3.0909	0.	78.39
539	20.577	2.9091	0.	78.39
540	20.577	2.7273	0.	78.021
541	20.577	2.5455	0.	77.261
542	20.577	2.3636	0.	76.073
543	20.577	2.1818	0.	74.408
544	20.577	2.	0.	72.219
545	20.577	1.8182	0.	69.464
546	20.577	1.6364	0.	66.124
547	20.577	1.4545	0.	62.201
548	20.577	1.2727	0.	57.726
549	20.577	1.0909	0.	52.756
550	20.577	0.90909	0.	47.376
551	20.577	0.72727	0.	41.691
552	20.577	0.54545	0.	35.833
553	20.577	0.36364	0.	30.019
554	20.577	0.18182	0.	26.288
555	20.393	5.8182	0.	26.153
556	20.393	5.6364	0.	29.22
557	20.393	5.4545	0.	34.415
558	20.393	5.2727	0.	39.674
559	20.393	5.0909	0.	44.79
560	20.393	4.9091	0.	49.65
561	20.393	4.7273	0.	54.162
562	20.393	4.5455	0.	58.255
563	20.393	4.3636	0.	61.876
564	20.393	4.1818	0.	64.996
565	20.393	4.	0.	67.605
566	20.393	3.8182	0.	69.714
567	20.393	3.6364	0.	71.345
568	20.393	3.4545	0.	72.529
569	20.393	3.2727	0.	73.297
570	20.393	3.0909	0.	73.674
571	20.393	2.9091	0.	73.674
572	20.393	2.7273	0.	73.297
573	20.393	2.5455	0.	72.529
574	20.393	2.3636	0.	71.345
575	20.393	2.1818	0.	69.714
576	20.393	2.	0.	67.605
577	20.393	1.8182	0.	64.996
578	20.393	1.6364	0.	61.876
579	20.393	1.4545	0.	58.255
580	20.393	1.2727	0.	54.162
581	20.393	1.0909	0.	49.65
582	20.393	0.90909	0.	44.79
583	20.393	0.72727	0.	39.674
584	20.393	0.54545	0.	34.416
585	20.393	0.36364	0.	29.22
586	20.393	0.18182	0.	26.153
587	20.209	5.8182	0.	25.975
588	20.209	5.6364	0.	28.455
589	20.209	5.4545	0.	33.1
590	20.209	5.2727	0.	37.824
591	20.209	5.0909	0.	42.433
592	20.209	4.9091	0.	46.828
593	20.209	4.7273	0.	50.927
594	20.209	4.5455	0.	54.669
595	20.209	4.3636	0.	58.006
596	20.209	4.1818	0.	60.908
597	20.209	4.	0.	63.362
598	20.209	3.8182	0.	65.368
599	20.209	3.6364	0.	66.94
600	20.209	3.4545	0.	68.094
601	20.209	3.2727	0.	68.85
602	20.209	3.0909	0.	69.224
603	20.209	2.9091	0.	69.224
604	20.209	2.7273	0.	68.85
605	20.209	2.5455	0.	68.094
606	20.209	2.3636	0.	66.94
607	20.209	2.1818	0.	65.368
608	20.209	2.	0.	63.362
609	20.209	1.8182	0.	60.908
610	20.209	1.6364	0.	58.006
611	20.209	1.4545	0.	54.669
612	20.209	1.2727	0.	50.927
613	20.209	1.0909	0.	46.828
614	20.209	0.90909	0.	42.434
615	20.209	0.72727	0.	37.824
616	20.209	0.54545	0.	33.1
617	20.209	0.36364	0.	28.455
618	20.209	0.18182	0.	25.975
619	20.026	5.8182	0.	25.762
620	20.026	5.6364	0.	27.723
621	20.026	5.4545	0.	31.876
622	20.026	5.2727	0.	36.123
623	20.026	5.0909	0.	40.279
624	20.026	4.9091	0.	44.254
625	20.026	4.7273	0.	47.98
626	20.026	4.5455	0.	51.399
627	20.026	4.3636	0.	54.467
628	20.026	4.1818	0.	57.157
629	20.026	4.	0.	59.45
630	20.026	3.8182	0.	61.343
631	20.026	3.6364	0.	62.839
632	20.026	3.4545	0.	63.947
633	20.026	3.2727	0.	64.677
634	20.026	3.0909	0.	65.04
635	20.026	2.9091	0.	65.04
636	20.026	2.7273	0.	64.677
637	20.026	2.5455	0.	63.947
638	20.026	2.3636	0.	62.839
639	20.026	2.1818	0.	61.343
640	20.026	2.	0.	59.45
641	20.026	1.8182	0.	57.157
642	20.026	1.6364	0.	54.467
643	20.026	1.4545	0.	51.399
644	20.026	1.2727	0.	47.98
645	20.026	1.0909	0.	44.254
646	20.026	0.90909	0.	40.279
647	20.026	0.72727	0.	36.123
648	20.026	0.54545	0.	31.876
649	20.026	0.36364	0.	27.723
650	20.026	0.18182	0.	25.762
651	19.842	5.8182	0.	25.52
652	19.842	5.6364	0.	27.022
653	19.842	5.4545	0.	30.736
654	19.842	5.2727	0.	34.555
655	19.842	5.0909	0.	38.303
656	19.842	4.9091	0.	41.9
657	19.842	4.7273	0.	45.285
658	19.842	4.5455	0.	48.406
659	19.842	4.3636	0.	51.223
660	19.842	4.1818	0.	53.707
661	19.842	4.	0.	55.84
662	19.842	3.8182	0.	57.613
663	19.842	3.6364	0.	59.023
664	19.842	3.4545	0.	60.074
665	19.842	3.2727	0.	60.771
666	19.842	3.0909	0.	61.118
667	19.842	2.9091	0.	61.118
668	19.842	2.7273	0.	60.771
669	19.842	2.5455	0.	60.074
670	19.842	2.3636	0.	59.023
671	19.842	2.1818	0.	57.613
672	19.842	2.	0.	55.84
673	19.842	1.8182	0.	53.707
674	19.842	1.6364	0.	51.223
675	19.842	1.4545	0.	48.406
676	19.842	1.2727	0.	45.285
677	19.842	1.0909	0.	41.9
678	19.842	0.90909	0.	38.303
679	19.842	0.72727	0.	34.555
680	19.842	0.54545	0.	30.736
681	19.842	0.36364	0.	27.022
682	19.842	0.18182	0.	25.52
683	19.658	5.8182	0.	25.256
684	19.658	5.6364	0.	26.351
685	19.658	5.4545	0.	29.67
686	19.658	5.2727	0.	33.105
687	19.658	5.0909	0.	36.486
688	19.658	4.9091	0.	39.741
689	19.658	4.7273	0.	42.815
690	19.658	4.5455	0.	45.66
691	19.658	4.3636	0.	48.241
692	19.658	4.1818	0.	50.529
693	19.658	4.	0.	52.504
694	19.658	3.8182	0.	54.155
695	19.658	3.6364	0.	55.475
696	19.658	3.4545	0.	56.463
697	19.658	3.2727	0.	57.121
698	19.658	3.0909	0.	57.449
699	19.658	2.9091	0.	57.449
700	19.658	2.7273	0.	57.121
701	19.658	2.5455	0.	56.463
702	19.658	2.3636	0.	55.475
703	19.658	2.1818	0.	54.155
704	19.658	2.	0.	52.504
705	19.658	1.8182	0.	50.529
706	19.658	1.6364	0.	48.241
707	19.658	1.4545	0.	45.66
708	19.658	1.2727	0.	42.815
709	19.658	1.0909	0.	39.741
710	19.658	0.90909	0.	36.486
711	19.658	0.72727	0.	33.105
712	19.658	0.54545	0.	29.67
713	19.658	0.36364	0.	26.351
714	19.658	0.18182	0.	25.256
715	19.474	5.8182	0.	24.973
716	19.474	5.6364	0.	25.707
717	19.474	5.4545	0.	28.673
718	19.474	5.2727	0.	31.762
719	19.474	5.0909	0.	34.81
720	19.474	4.9091	0.	37.754
721	19.474	4.7273	0.	40.543
722	19.474	4.5455	0.	43.135
723	19.474	4.3636	0.	45.495
724	19.474	4.1818	0.	47.596
725	19.474	4.	0.	49.418
726	19.474	3.8182	0.	50.947
727	19.474	3.6364	0.	52.176
728	19.474	3.4545	0.	53.099
729	19.474	3.2727	0.	53.714
730	19.474	3.0909	0.	54.022
731	19.474	2.9091	0.	54.022
732	19.474	2.7273	0.	53.714
733	19.474	2.5455	0.	53.099
734	19.474	2.3636	0.	52.176
735	19.474	2.1818	0.	50.947
736	19.474	2.	0.	49.418
737	19.474	1.8182	0.	47.596
738	19.474	1.6364	0.	45.495
739	19.474	1.4545	0.	43.135
740	19.474	1.2727	0.	40.543
741	19.474	1.0909	0.	37.754
742	19.474	0.90909	0.	34.81
743	19.474	0.72727	0.	31.762
744	19.474	0.54545	0.	28.673
745	19.474	0.36364	0.	25.707
746	19.474	0.18182	0.	24.973
747	19.291	5.8182	0.	24.676
748	19.291	5.6364	0.	25.09
749	19.291	5.4545	0.	27.736
750	19.291	5.2727	0.	30.513
751	19.291	5.0909	0.	33.261
752	19.291	4.9091	0.	35.921
753	19.291	4.7273	0.	38.45
754	19.291	4.5455	0.	40.807
755	19.291	4.3636	0.	42.961
756	19.291	4.1818	0.	44.885
757	19.291	4.	0.	46.561
758	19.291	3.8182	0.	47.972
759	19.291	3.6364	0.	49.109
760	19.291	3.4545	0.	49.966
761	19.291	3.2727	0.	50.539
762	19.291	3.0909	0.	50.825
763	19.291	2.9091	0.	50.825
764	19.291	2.7273	0.	50.539
765	19.291	2.5455	0.	49.966
766	19.291	2.3636	0.	49.109
767	19.291	2.1818	0.	47.972
768	19.291	2.	0.	46.561
769	19.291	1.8182	0.	44.885
770	19.291	1.6364	0.	42.961
771	19.291	1.4545	0.	40.807
772	19.291	1.2727	0.	38.45
773	19.291	1.0909	0.	35.921
774	19.291	0.90909	0.	33.261
775	19.291	0.72727	0.	30.513
776	19.291	0.54545	0.	27.737
777	19.291	0.36364	0.	25.09
778	19.291	0.18182	0.	24.676
779	19.107	5.8182	0.	24.368
780	19.107	5.6364	0.	24.497
781	19.107	5.4545	0.	26.856
782	19.107	5.2727	0.	29.35
783	19.107	5.0909	0.	31.824
784	19.107	4.9091	0.	34.227
785	19.107	4.7273	0.	36.516
786	19.107	4.5455	0.	38.657
787	19.107	4.3636	0.	40.619
788	19.107	4.1818	0.	42.377
789	19.107	4.	0.	43.913
790	19.107	3.8182	0.	45.21
791	19.107	3.6364	0.	46.258
792	19.107	3.4545	0.	47.05
793	19.107	3.2727	0.	47.58
794	19.107	3.0909	0.	47.846
795	19.107	2.9091	0.	47.846
796	19.107	2.7273	0.	47.58
797	19.107	2.5455	0.	47.05
798	19.107	2.3636	0.	46.258
799	19.107	2.1818	0.	45.21
800	19.107	2.	0.	43.913
801	19.107	1.8182	0.	42.377
802	19.107	1.6364	0.	40.619
803	19.107	1.4545	0.	38.657
804	19.107	1.2727	0.	36.516
805	19.107	1.0909	0.	34.227
806	19.107	0.90909	0.	31.825
807	19.107	0.72727	0.	29.35
808	19.107	0.54545	0.	26.856
809	19.107	0.36364	0.	24.497
810	19.107	0.18182	0.	24.368
811	18.923	5.8182	0.	24.051
812	18.923	5.6364	0.	23.927
813	18.923	5.4545	0.	26.026
814	18.923	5.2727	0.	28.264
815	18.923	5.0909	0.	30.49
816	18.923	4.9091	0.	32.657
817	18.923	4.7273	0.	34.727
818	18.923	4.5455	0.	36.667
819	18.923	4.3636	0.	38.451
820	18.923	4.1818	0.	40.054
821	18.923	4.	0.	41.457
822	18.923	3.8182	0.	42.646
823	18.923	3.6364	0.	43.608
824	18.923	3.4545	0.	44.337
825	18.923	3.2727	0.	44.825
826	18.923	3.0909	0.	45.07
827	18.923	2.9091	0.	45.07
828	18.923	2.7273	0.	44.825
829	18.923	2.5455	0.	44.337
830	18.923	2.3636	0.	43.608
831	18.923	2.1818	0.	42.646
832	18.923	2.	0.	41.457
833	18.923	1.8182	0.	40.054
834	18.923	1.6364	0.	38.451
835	18.923	1.4545	0.	36.667
836	18.923	1.2727	0.	34.727
837	18.923	1.0909	0.	32.657
838	18.923	0.90909	0.	30.49
839	18.923	0.72727	0.	28.264
840	18.923	0.54545	0.	26.026
841	18.923	0.36364	0.	23.927
842	18.923	0.18182	0.	24.052
843	18.74	5.8182	0.	23.729
844	18.74	5.6364	0.	23.379
845	18.74	5.4545	0.	25.242
846	18.74	5.2727	0.	27.247
847	18.74	5.0909	0.	29.247
848	18.74	4.9091	0.	31.198
849	18.74	4.7273	0.	33.067
850	18.74	4.5455	0.	34.823
851	18.74	4.3636	0.	36.441
852	18.74	4.1818	0.	37.899
853	18.74	4.	0.	39.178
854	18.74	3.8182	0.	40.263
855	18.74	3.6364	0.	41.144
856	18.74	3.4545	0.	41.812
857	18.74	3.2727	0.	42.26
858	18.74	3.0909	0.	42.485
859	18.74	2.9091	0.	42.485
860	18.74	2.7273	0.	42.26
861	18.74	2.5455	0.	41.812
862	18.74	2.3636	0.	41.144
863	18.74	2.1818	0.	40.263
864	18.74	2.	0.	39.178
865	18.74	1.8182	0.	37.899
866	18.74	1.6364	0.	36.441
867	18.74	1.4545	0.	34.823
868	18.74	1.2727	0.	33.067
869	18.74	1.0909	0.	31.198
870	18.74	0.90909	0.	29.247
871	18.74	0.72727	0.	27.247
872	18.74	0.54545	0.	25.243
873	18.74	0.36364	0.	23.379
874	18.74	0.18182	0.	23.729
875	18.556	5.8182	0.	23.403
876	18.556	5.6364	0.	22.851
877	18.556	5.4545	0.	24.501
878	18.556	5.2727	0.	26.294
879	18.556	5.0909	0.	28.087
880	18.556	4.9091	0.	29.841
881	18.556	4.7273	0.	31.525
882	18.556	4.5455	0.	33.111
883	18.556	4.3636	0.	34.576
884	18.556	4.1818	0.	35.898
885	18.556	4.	0.	37.06
886	18.556	3.8182	0.	38.049
887	18.556	3.6364	0.	38.852
888	18.556	3.4545	0.	39.462
889	18.556	3.2727	0.	39.871
890	18.556	3.0909	0.	40.077
891	18.556	2.9091	0.	40.077
892	18.556	2.7273	0.	39.871
893	18.556	2.5455	0.	39.462
894	18.556	2.3636	0.	38.852
895	18.556	2.1818	0.	38.049
896	18.556	2.	0.	37.06
897	18.556	1.8182	0.	35.898
898	18.556	1.6364	0.	34.576
899	18.556	1.4545	0.	33.111
900	18.556	1.2727	0.	31.525
901	18.556	1.0909	0.	29.842
902	18.556	0.90909	0.	28.087
903	18.556	0.72727	0.	26.294
904	18.556	0.54545	0.	24.501
905	18.556	0.36364	0.	22.851
906	18.556	0.18182	0.	23.403
907	18.372	5.8182	0.	23.075
908	18.372	5.6364	0.	22.342
909	18.372	5.4545	0.	23.798
910	18.372	5.2727	0.	25.398
911	18.372	5.0909	0.	27.003
912	18.372	4.9091	0.	28.576
913	18.372	4.7273	0.	30.09
914	18.372	4.5455	0.	31.519
915	18.372	4.3636	0.	32.841
916	18.372	4.1818	0.	34.037
917	18.372	4.	0.	35.091
918	18.372	3.8182	0.	35.988
919	18.372	3.6364	0.	36.718
920	18.372	3.4545	0.	37.273
921	18.372	3.2727	0.	37.646
922	18.372	3.0909	0.	37.834
923	18.372	2.9091	0.	37.834
924	18.372	2.7273	0.	37.646
925	18.372	2.5455	0.	37.273
926	18.372	2.3636	0.	36.718
927	18.372	2.1818	0.	35.988
928	18.372	2.	0.	35.091
929	18.372	1.8182	0.	34.037
930	18.372	1.6364	0.	32.841
931	18.372	1.4545	0.	31.519
932	18.372	1.2727	0.	30.09
933	18.372	1.0909	0.	28.576
934	18.372	0.90909	0.	27.003
935	18.372	0.72727	0.	25.398
936	18.372	0.54545	0.	23.798
937	18.372	0.36364	0.	22.343
938	18.372	0.18182	0.	23.075
939	18.188	5.8182	0.	22.745
940	18.188	5.6364	0.	21.852
941	18.188	5.4545	0.	23.131
942	18.188	5.2727	0.	24.554
943	18.188	5.0909	0.	25.987
944	18.188	4.9091	0.	27.394
945	18.188	4.7273	0.	28.752
946	18.188	4.5455	0.	30.036
947	18.188	4.3636	0.	31.226
948	18.188	4.1818	0.	32.305
949	18.188	4.	0.	33.257
950	18.188	3.8182	0.	34.069
951	18.188	3.6364	0.	34.731
952	18.188	3.4545	0.	35.234
953	18.188	3.2727	0.	35.573
954	18.188	3.0909	0.	35.743
955	18.188	2.9091	0.	35.743
956	18.188	2.7273	0.	35.573
957	18.188	2.5455	0.	35.234
958	18.188	2.3636	0.	34.731
959	18.188	2.1818	0.	34.069
960	18.188	2.	0.	33.257
961	18.188	1.8182	0.	32.305
962	18.188	1.6364	0.	31.226
963	18.188	1.4545	0.	30.036
964	18.188	1.2727	0.	28.752
965	18.188	1.0909	0.	27.394
966	18.188	0.90909	0.	25.987
967	18.188	0.72727	0.	24.554
968	18.188	0.54545	0.	23.131
969	18.188	0.36364	0.	21.852
970	18.188	0.18182	0.	22.746
971	18.005	5.8182	0.	22.416
972	18.005	5.6364	0.	21.379
973	18.005	5.4545	0.	22.496
974	18.005	5.2727	0.	23.758
975	18.005	5.0909	0.	25.032
976	18.005	4.9091	0.	26.288
977	18.005	4.7273	0.	27.502
978	18.005	4.5455	0.	28.652
979	18.005	4.3636	0.	29.721
980	18.005	4.1818	0.	30.691
981	18.005	4.	0.	31.548
982	18.005	3.8182	0.	32.28
983	18.005	3.6364	0.	32.878
984	18.005	3.4545	0.	33.332
985	18.005	3.2727	0.	33.639
986	18.005	3.0909	0.	33.793
987	18.005	2.9091	0.	33.793
988	18.005	2.7273	0.	33.639
989	18.005	2.5455	0.	33.332
990	18.005	2.3636	0.	32.878
991	18.005	2.1818	0.	32.28
992	18.005	2.	0.	31.548
993	18.005	1.8182	0.	30.691
994	18.005	1.6364	0.	29.721
995	18.005	1.4545	0.	28.652
996	18.005	1.2727	0.	27.502
997	18.005	1.0909	0.	26.288
998	18.005	0.90909	0.	25.032
999	18.005	0.72727	0.	23.758
1000	18.005	0.54545	0.	22.496
1001	18.005	0.36364	0.	21.379
1002	18.005	0.18182	0.	22.416
1003	17.821	5.8182	0.	22.088
1004	17.821	5.6364	0.	20.922
1005	17.821	5.4545	0.	21.891
1006	17.821	5.2727	0.	23.005
1007	17.821	5.0909	0.	24.135
1008	17.821	4.9091	0.	25.25
1009	17.821	4.7273	0.	26.331
1010	17.821	4.5455	0.	27.358
1011	17.821	4.3636	0.	28.314
1012	17.821	4.1818	0.	29.183
1013	17.821	4.	0.	29.952
1014	17.821	3.8182	0.	30.61
1015	17.821	3.6364	0.	31.148
1016	17.821	3.4545	0.	31.557
1017	17.821	3.2727	0.	31.833
1018	17.821	3.0909	0.	31.972
1019	17.821	2.9091	0.	31.972
1020	17.821	2.7273	0.	31.833
1021	17.821	2.5455	0.	31.557
1022	17.821	2.3636	0.	31.148
1023	17.821	2.1818	0.	30.61
1024	17.821	2.	0.	29.953
1025	17.821	1.8182	0.	29.183
1026	17.821	1.6364	0.	28.314
1027	17.821	1.4545	0.	27.358
1028	17.821	1.2727	0.	26.332
1029	17.821	1.0909	0.	25.251
1030	17.821	0.90909	0.	24.135
1031	17.821	0.72727	0.	23.005
1032	17.821	0.54545	0.	21.891
1033	17.821	0.36364	0.	20.922
1034	17.821	0.18182	0.	22.088
1035	17.637	5.8182	0.	21.762
1036	17.637	5.6364	0.	20.48
1037	17.637	5.4545	0.	21.314
1038	17.637	5.2727	0.	22.292
1039	17.637	5.0909	0.	23.288
1040	17.637	4.9091	0.	24.275
1041	17.637	4.7273	0.	25.234
1042	17.637	4.5455	0.	26.147
1043	17.637	4.3636	0.	26.998
1044	17.637	4.1818	0.	27.774
1045	17.637	4.	0.	28.461
1046	17.637	3.8182	0.	29.05
1047	17.637	3.6364	0.	29.531
1048	17.637	3.4545	0.	29.898
1049	17.637	3.2727	0.	30.145
1050	17.637	3.0909	0.	30.27
1051	17.637	2.9091	0.	30.27
1052	17.637	2.7273	0.	30.146
1053	17.637	2.5455	0.	29.898
1054	17.637	2.3636	0.	29.531
1055	17.637	2.1818	0.	29.05
1056	17.637	2.	0.	28.461
1057	17.637	1.8182	0.	27.774
1058	17.637	1.6364	0.	26.998
1059	17.637	1.4545	0.	26.147
1060	17.637	1.2727	0.	25.234
1061	17.637	1.0909	0.	24.275
1062	17.637	0.90909	0.	23.288
1063	17.637	0.72727	0.	22.292
1064	17.637	0.54545	0.	21.314
1065	17.637	0.36364	0.	20.48
1066	17.637	0.18182	0.	21.762
1067	17.453	5.8182	0.	21.438
1068	17.453	5.6364	0.	20.052
1069	17.453	5.4545	0.	20.762
1070	17.453	5.2727	0.	21.615
1071	17.453	5.0909	0.	22.488
1072	17.453	4.9091	0.	23.356
1073	17.453	4.7273	0.	24.202
1074	17.453	4.5455	0.	25.01
1075	17.453	4.3636	0.	25.764
1076	17.453	4.1818	0.	26.453
1077	17.453	4.	0.	27.064
1078	17.453	3.8182	0.	27.588
1079	17.453	3.6364	0.	28.017
1080	17.453	3.4545	0.	28.345
1081	17.453	3.2727	0.	28.566
1082	17.453	3.0909	0.	28.677
1083	17.453	2.9091	0.	28.677
1084	17.453	2.7273	0.	28.566
1085	17.453	2.5455	0.	28.345
1086	17.453	2.3636	0.	28.017
1087	17.453	2.1818	0.	27.588
1088	17.453	2.	0.	27.064
1089	17.453	1.8182	0.	26.453
1090	17.453	1.6364	0.	25.764
1091	17.453	1.4545	0.	25.01
1092	17.453	1.2727	0.	24.202
1093	17.453	1.0909	0.	23.357
1094	17.453	0.90909	0.	22.488
1095	17.453	0.72727	0.	21.615
1096	17.453	0.54545	0.	20.762
1097	17.453	0.36364	0.	20.052
1098	17.453	0.18182	0.	21.438
1099	17.27	5.8182	0.	21.117
1100	17.27	5.6364	0.	19.638
1101	17.27	5.4545	0.	20.233
1102	17.27	5.2727	0.	20.97
1103	17.27	5.0909	0.	21.73
1104	17.27	4.9091	0.	22.489
1105	17.27	4.7273	0.	23.23
1106	17.27	4.5455	0.	23.94
1107	17.27	4.3636	0.	24.605
1108	17.27	4.1818	0.	25.212
1109	17.27	4.	0.	25.753
1110	17.27	3.8182	0.	26.217
1111	17.27	3.6364	0.	26.597
1112	17.27	3.4545	0.	26.888
1113	17.27	3.2727	0.	27.084
1114	17.27	3.0909	0.	27.183
1115	17.27	2.9091	0.	27.183
1116	17.27	2.7273	0.	27.084
1117	17.27	2.5455	0.	26.888
1118	17.27	2.3636	0.	26.597
1119	17.27	2.1818	0.	26.217
1120	17.27	2.	0.	25.753
1121	17.27	1.8182	0.	25.212
1122	17.27	1.6364	0.	24.605
1123	17.27	1.4545	0.	23.94
1124	17.27	1.2727	0.	23.23
1125	17.27	1.0909	0.	22.489
1126	17.27	0.90909	0.	21.731
1127	17.27	0.72727	0.	20.97
1128	17.27	0.54545	0.	20.233
1129	17.27	0.36364	0.	19.638
1130	17.27	0.18182	0.	21.117
1131	17.086	5.8182	0.	20.799
1132	17.086	5.6364	0.	19.236
1133	17.086	5.4545	0.	19.725
1134	17.086	5.2727	0.	20.356
1135	17.086	5.0909	0.	21.011
1136	17.086	4.9091	0.	21.668
1137	17.086	4.7273	0.	22.312
1138	17.086	4.5455	0.	22.931
1139	17.086	4.3636	0.	23.512
1140	17.086	4.1818	0.	24.045
1141	17.086	4.	0.	24.52
1142	17.086	3.8182	0.	24.928
1143	17.086	3.6364	0.	25.263
1144	17.086	3.4545	0.	25.519
1145	17.086	3.2727	0.	25.692
1146	17.086	3.0909	0.	25.779
1147	17.086	2.9091	0.	25.779
1148	17.086	2.7273	0.	25.692
1149	17.086	2.5455	0.	25.519
1150	17.086	2.3636	0.	25.263
1151	17.086	2.1818	0.	24.928
1152	17.086	2.	0.	24.52
1153	17.086	1.8182	0.	24.045
1154	17.086	1.6364	0.	23.513
1155	17.086	1.4545	0.	22.931
1156	17.086	1.2727	0.	22.313
1157	17.086	1.0909	0.	21.668
1158	17.086	0.90909	0.	21.011
1159	17.086	0.72727	0.	20.356
1160	17.086	0.54545	0.	19.725
1161	17.086	0.36364	0.	19.236
1162	17.086	0.18182	0.	20.799
1163	16.902	5.8182	0.	20.485
1164	16.902	5.6364	0.	18.845
1165	16.902	5.4545	0.	19.236
1166	16.902	5.2727	0.	19.768
1167	16.902	5.0909	0.	20.326
1168	16.902	4.9091	0.	20.889
1169	16.902	4.7273	0.	21.443
1170	16.902	4.5455	0.	21.978
1171	16.902	4.3636	0.	22.481
1172	16.902	4.1818	0.	22.944
1173	16.902	4.	0.	23.357
1174	16.902	3.8182	0.	23.712
1175	16.902	3.6364	0.	24.005
1176	16.902	3.4545	0.	24.228
1177	16.902	3.2727	0.	24.38
1178	16.902	3.0909	0.	24.456
1179	16.902	2.9091	0.	24.456
1180	16.902	2.7273	0.	24.38
1181	16.902	2.5455	0.	24.229
1182	16.902	2.3636	0.	24.005
1183	16.902	2.1818	0.	23.712
1184	16.902	2.	0.	23.357
1185	16.902	1.8182	0.	22.944
1186	16.902	1.6364	0.	22.481
1187	16.902	1.4545	0.	21.978
1188	16.902	1.2727	0.	21.443
1189	16.902	1.0909	0.	20.889
1190	16.902	0.90909	0.	20.326
1191	16.902	0.72727	0.	19.768
1192	16.902	0.54545	0.	19.236
1193	16.902	0.36364	0.	18.845
1194	16.902	0.18182	0.	20.485
1195	16.719	5.8182	0.	20.174
1196	16.719	5.6364	0.	18.465
1197	16.719	5.4545	0.	18.765
1198	16.719	5.2727	0.	19.205
1199	16.719	5.0909	0.	19.672
1200	16.719	4.9091	0.	20.147
1201	16.719	4.7273	0.	20.617
1202	16.719	4.5455	0.	21.073
1203	16.719	4.3636	0.	21.504
1204	16.719	4.1818	0.	21.901
1205	16.719	4.	0.	22.257
1206	16.719	3.8182	0.	22.564
1207	16.719	3.6364	0.	22.816
1208	16.719	3.4545	0.	23.01
1209	16.719	3.2727	0.	23.141
1210	16.719	3.0909	0.	23.207
1211	16.719	2.9091	0.	23.207
1212	16.719	2.7273	0.	23.141
1213	16.719	2.5455	0.	23.01
1214	16.719	2.3636	0.	22.816
1215	16.719	2.1818	0.	22.564
1216	16.719	2.	0.	22.257
1217	16.719	1.8182	0.	21.901
1218	16.719	1.6364	0.	21.504
1219	16.719	1.4545	0.	21.073
1220	16.719	1.2727	0.	20.617
1221	16.719	1.0909	0.	20.147
1222	16.719	0.90909	0.	19.672
1223	16.719	0.72727	0.	19.205
1224	16.719	0.54545	0.	18.765
1225	16.719	0.36364	0.	18.466
1226	16.719	0.18182	0.	20.174
1227	16.535	5.8182	0.	19.866
1228	16.535	5.6364	0.	18.095
1229	16.535	5.4545	0.	18.309
1230	16.535	5.2727	0.	18.664
1231	16.535	5.0909	0.	19.046
1232	16.535	4.9091	0.	19.438
1233	16.535	4.7273	0.	19.83
1234	16.535	4.5455	0.	20.212
1235	16.535	4.3636	0.	20.575
1236	16.535	4.1818	0.	20.911
1237	16.535	4.	0.	21.213
1238	16.535	3.8182	0.	21.474
1239	16.535	3.6364	0.	21.689
1240	16.535	3.4545	0.	21.854
1241	16.535	3.2727	0.	21.966
1242	16.535	3.0909	0.	22.023
1243	16.535	2.9091	0.	22.023
1244	16.535	2.7273	0.	21.966
1245	16.535	2.5455	0.	21.854
1246	16.535	2.3636	0.	21.689
1247	16.535	2.1818	0.	21.474
1248	16.535	2.	0.	21.213
1249	16.535	1.8182	0.	20.911
1250	16.535	1.6364	0.	20.575
1251	16.535	1.4545	0.	20.212
1252	16.535	1.2727	0.	19.83
1253	16.535	1.0909	0.	19.438
1254	16.535	0.90909	0.	19.046
1255	16.535	0.72727	0.	18.664
1256	16.535	0.54545	0.	18.31
1257	16.535	0.36364	0.	18.095
1258	16.535	0.18182	0.	19.866
1259	16.351	5.8182	0.	19.562
1260	16.351	5.6364	0.	17.734
1261	16.351	5.4545	0.	17.868
1262	16.351	5.2727	0.	18.141
1263	16.351	5.0909	0.	18.444
1264	16.351	4.9091	0.	18.759
1265	16.351	4.7273	0.	19.078
1266	16.351	4.5455	0.	19.39
1267	16.351	4.3636	0.	19.69
1268	16.351	4.1818	0.	19.968
1269	16.351	4.	0.	20.219
1270	16.351	3.8182	0.	20.437
1271	16.351	3.6364	0.	20.617
1272	16.351	3.4545	0.	20.755
1273	16.351	3.2727	0.	20.849
1274	16.351	3.0909	0.	20.897
1275	16.351	2.9091	0.	20.897
1276	16.351	2.7273	0.	20.849
1277	16.351	2.5455	0.	20.755
1278	16.351	2.3636	0.	20.617
1279	16.351	2.1818	0.	20.437
1280	16.351	2.	0.	20.219
1281	16.351	1.8182	0.	19.968
1282	16.351	1.6364	0.	19.69
1283	16.351	1.4545	0.	19.39
1284	16.351	1.2727	0.	19.078
1285	16.351	1.0909	0.	18.759
1286	16.351	0.90909	0.	18.444
1287	16.351	0.72727	0.	18.141
1288	16.351	0.54545	0.	17.868
1289	16.351	0.36364	0.	17.734
1290	16.351	0.18182	0.	19.562
1291	16.167	5.8182	0.	19.26
1292	16.167	5.6364	0.	17.38
1293	16.167	5.4545	0.	17.439
1294	16.167	5.2727	0.	17.636
1295	16.167	5.0909	0.	17.864
1296	16.167	4.9091	0.	18.106
1297	16.167	4.7273	0.	18.355
1298	16.167	4.5455	0.	18.602
1299	16.167	4.3636	0.	18.841
1300	16.167	4.1818	0.	19.065
1301	16.167	4.	0.	19.269
1302	16.167	3.8182	0.	19.446
1303	16.167	3.6364	0.	19.593
1304	16.167	3.4545	0.	19.706
1305	16.167	3.2727	0.	19.783
1306	16.167	3.0909	0.	19.822
1307	16.167	2.9091	0.	19.822
1308	16.167	2.7273	0.	19.783
1309	16.167	2.5455	0.	19.706
1310	16.167	2.3636	0.	19.593
1311	16.167	2.1818	0.	19.446
1312	16.167	2.	0.	19.269
1313	16.167	1.8182	0.	19.065
1314	16.167	1.6364	0.	18.842
1315	16.167	1.4545	0.	18.602
1316	16.167	1.2727	0.	18.355
1317	16.167	1.0909	0.	18.106
1318	16.167	0.90909	0.	17.864
1319	16.167	0.72727	0.	17.636
1320	16.167	0.54545	0.	17.439
1321	16.167	0.36364	0.	17.38
1322	16.167	0.18182	0.	19.261
1323	15.984	5.8182	0.	18.962
1324	15.984	5.6364	0.	17.033
1325	15.984	5.4545	0.	17.021
1326	15.984	5.2727	0.	17.146
1327	15.984	5.0909	0.	17.302
1328	15.984	4.9091	0.	17.475
1329	15.984	4.7273	0.	17.658
1330	15.984	4.5455	0.	17.844
1331	15.984	4.3636	0.	18.026
1332	15.984	4.1818	0.	18.198
1333	15.984	4.	0.	18.356
1334	15.984	3.8182	0.	18.495
1335	15.984	3.6364	0.	18.61
1336	15.984	3.4545	0.	18.699
1337	15.984	3.2727	0.	18.76
1338	15.984	3.0909	0.	18.791
1339	15.984	2.9091	0.	18.791
1340	15.984	2.7273	0.	18.76
1341	15.984	2.5455	0.	18.699
1342	15.984	2.3636	0.	18.61
1343	15.984	2.1818	0.	18.495
1344	15.984	2.	0.	18.356
1345	15.984	1.8182	0.	18.198
1346	15.984	1.6364	0.	18.026
1347	15.984	1.4545	0.	17.844
1348	15.984	1.2727	0.	17.658
1349	15.984	1.0909	0.	17.475
1350	15.984	0.90909	0.	17.302
1351	15.984	0.72727	0.	17.146
1352	15.984	0.54545	0.	17.021
1353	15.984	0.36364	0.	17.033
1354	15.984	0.18182	0.	18.963
1355	15.8	5.8182	0.	18.667
1356	15.8	5.6364	0.	16.693
1357	15.8	5.4545	0.	16.612
1358	15.8	5.2727	0.	16.668
1359	15.8	5.0909	0.	16.756
1360	15.8	4.9091	0.	16.863
1361	15.8	4.7273	0.	16.984
1362	15.8	4.5455	0.	17.11
1363	15.8	4.3636	0.	17.238
1364	15.8	4.1818	0.	17.361
1365	15.8	4.	0.	17.476
1366	15.8	3.8182	0.	17.577
1367	15.8	3.6364	0.	17.663
1368	15.8	3.4545	0.	17.729
1369	15.8	3.2727	0.	17.775
1370	15.8	3.0909	0.	17.798
1371	15.8	2.9091	0.	17.798
1372	15.8	2.7273	0.	17.775
1373	15.8	2.5455	0.	17.729
1374	15.8	2.3636	0.	17.663
1375	15.8	2.1818	0.	17.577
1376	15.8	2.	0.	17.476
1377	15.8	1.8182	0.	17.361
1378	15.8	1.6364	0.	17.238
1379	15.8	1.4545	0.	17.11
1380	15.8	1.2727	0.	16.984
1381	15.8	1.0909	0.	16.863
1382	15.8	0.90909	0.	16.756
1383	15.8	0.72727	0.	16.668
1384	15.8	0.54545	0.	16.612
1385	15.8	0.36364	0.	16.693
1386	15.8	0.18182	0.	18.668
1387	15.616	5.8182	0.	18.375
1388	15.616	5.6364	0.	16.357
1389	15.616	5.4545	0.	16.211
1390	15.616	5.2727	0.	16.2
1391	15.616	5.0909	0.	16.223
1392	15.616	4.9091	0.	16.267
1393	15.616	4.7273	0.	16.327
1394	15.616	4.5455	0.	16.397
1395	15.616	4.3636	0.	16.473
1396	15.616	4.1818	0.	16.549
1397	15.616	4.	0.	16.622
1398	15.616	3.8182	0.	16.688
1399	15.616	3.6364	0.	16.745
1400	15.616	3.4545	0.	16.79
1401	15.616	3.2727	0.	16.821
1402	15.616	3.0909	0.	16.836
1403	15.616	2.9091	0.	16.836
1404	15.616	2.7273	0.	16.821
1405	15.616	2.5455	0.	16.79
1406	15.616	2.3636	0.	16.745
1407	15.616	2.1818	0.	16.688
1408	15.616	2.	0.	16.622
1409	15.616	1.8182	0.	16.549
1410	15.616	1.6364	0.	16.473
1411	15.616	1.4545	0.	16.397
1412	15.616	1.2727	0.	16.327
1413	15.616	1.0909	0.	16.267
1414	15.616	0.90909	0.	16.223
1415	15.616	0.72727	0.	16.2
1416	15.616	0.54545	0.	16.211
1417	15.616	0.36364	0.	16.357
1418	15.616	0.18182	0.	18.375
1419	15.433	5.8182	0.	18.084
1420	15.433	5.6364	0.	16.025
1421	15.433	5.4545	0.	15.815
1422	15.433	5.2727	0.	15.74
1423	15.433	5.0909	0.	15.7
1424	15.433	4.9091	0.	15.683
1425	15.433	4.7273	0.	15.685
1426	15.433	4.5455	0.	15.701
1427	15.433	4.3636	0.	15.726
1428	15.433	4.1818	0.	15.757
1429	15.433	4.	0.	15.79
1430	15.433	3.8182	0.	15.822
1431	15.433	3.6364	0.	15.851
1432	15.433	3.4545	0.	15.875
1433	15.433	3.2727	0.	15.891
1434	15.433	3.0909	0.	15.9
1435	15.433	2.9091	0.	15.9
1436	15.433	2.7273	0.	15.891
1437	15.433	2.5455	0.	15.875
1438	15.433	2.3636	0.	15.851
1439	15.433	2.1818	0.	15.822
1440	15.433	2.	0.	15.79
1441	15.433	1.8182	0.	15.757
1442	15.433	1.6364	0.	15.726
1443	15.433	1.4545	0.	15.701
1444	15.433	1.2727	0.	15.685
1445	15.433	1.0909	0.	15.684
1446	15.433	0.90909	0.	15.7
1447	15.433	0.72727	0.	15.74
1448	15.433	0.54545	0.	15.816
1449	15.433	0.36364	0.	16.026
1450	15.433	0.18182	0.	18.084
1451	15.249	5.8182	0.	17.796
1452	15.249	5.6364	0.	15.697
1453	15.249	5.4545	0.	15.425
1454	15.249	5.2727	0.	15.287
1455	15.249	5.0909	0.	15.185
1456	15.249	4.9091	0.	15.109
1457	15.249	4.7273	0.	15.054
1458	15.249	4.5455	0.	15.017
1459	15.249	4.3636	0.	14.993
1460	15.249	4.1818	0.	14.98
1461	15.249	4.	0.	14.974
1462	15.249	3.8182	0.	14.973
1463	15.249	3.6364	0.	14.975
1464	15.249	3.4545	0.	14.978
1465	15.249	3.2727	0.	14.981
1466	15.249	3.0909	0.	14.983
1467	15.249	2.9091	0.	14.983
1468	15.249	2.7273	0.	14.981
1469	15.249	2.5455	0.	14.978
1470	15.249	2.3636	0.	14.975
1471	15.249	2.1818	0.	14.973
1472	15.249	2.	0.	14.974
1473	15.249	1.8182	0.	14.98
1474	15.249	1.6364	0.	14.993
1475	15.249	1.4545	0.	15.017
1476	15.249	1.2727	0.	15.054
1477	15.249	1.0909	0.	15.109
1478	15.249	0.90909	0.	15.185
1479	15.249	0.72727	0.	15.287
1480	15.249	0.54545	0.	15.425
1481	15.249	0.36364	0.	15.697
1482	15.249	0.18182	0.	17.796
1483	15.065	5.8182	0.	17.508
1484	15.065	5.6364	0.	15.371
1485	15.065	5.4545	0.	15.038
1486	15.065	5.2727	0.	14.838
1487	15.065	5.0909	0.	14.676
1488	15.065	4.9091	0.	14.541
1489	15.065	4.7273	0.	14.431
1490	15.065	4.5455	0.	14.341
1491	15.065	4.3636	0.	14.269
1492	15.065	4.1818	0.	14.213
1493	15.065	4.	0.	14.169
1494	15.065	3.8182	0.	14.136
1495	15.065	3.6364	0.	14.112
1496	15.065	3.4545	0.	14.095
1497	15.065	3.2727	0.	14.084
1498	15.065	3.0909	0.	14.079
1499	15.065	2.9091	0.	14.079
1500	15.065	2.7273	0.	14.084
1501	15.065	2.5455	0.	14.095
1502	15.065	2.3636	0.	14.112
1503	15.065	2.1818	0.	14.136
1504	15.065	2.	0.	14.169
1505	15.065	1.8182	0.	14.213
1506	15.065	1.6364	0.	14.269
1507	15.065	1.4545	0.	14.341
1508	15.065	1.2727	0.	14.431
1509	15.065	1.0909	0.	14.541
1510	15.065	0.90909	0.	14.676
1511	15.065	0.72727	0.	14.838
1512	15.065	0.54545	0.	15.038
1513	15.065	0.36364	0.	15.371
1514	15.065	0.18182	0.	17.508
1515	14.881	5.8182	0.	17.222
1516	14.881	5.6364	0.	15.046
1517	14.881	5.4545	0.	14.652
1518	14.881	5.2727	0.	14.391
1519	14.881	5.0909	0.	14.169
1520	14.881	4.9091	0.	13.976
1521	14.881	4.7273	0.	13.811
1522	14.881	4.5455	0.	13.67
1523	14.881	4.3636	0.	13.551
1524	14.881	4.1818	0.	13.452
1525	14.881	4.	0.	13.371
1526	14.881	3.8182	0.	13.306
1527	14.881	3.6364	0.	13.256
1528	14.881	3.4545	0.	13.219
1529	14.881	3.2727	0.	13.195
1530	14.881	3.0909	0.	13.183
1531	14.881	2.9091	0.	13.183
1532	14.881	2.7273	0.	13.195
1533	14.881	2.5455	0.	13.219
1534	14.881	2.3636	0.	13.256
1535	14.881	2.1818	0.	13.306
1536	14.881	2.	0.	13.371
1537	14.881	1.8182	0.	13.452
1538	14.881	1.6364	0.	13.551
1539	14.881	1.4545	0.	13.67
1540	14.881	1.2727	0.	13.811
1541	14.881	1.0909	0.	13.976
1542	14.881	0.90909	0.	14.169
1543	14.881	0.72727	0.	14.391
1544	14.881	0.54545	0.	14.652
1545	14.881	0.36364	0.	15.046
1546	14.881	0.18182	0.	17.222
1547	14.698	5.8182	0.	16.936
1548	14.698	5.6364	0.	14.721
1549	14.698	5.4545	0.	14.266
1550	14.698	5.2727	0.	13.944
1551	14.698	5.0909	0.	13.662
1552	14.698	4.9091	0.	13.412
1553	14.698	4.7273	0.	13.192
1554	14.698	4.5455	0.	12.999
1555	14.698	4.3636	0.	12.833
1556	14.698	4.1818	0.	12.692
1557	14.698	4.	0.	12.574
1558	14.698	3.8182	0.	12.477
1559	14.698	3.6364	0.	12.401
1560	14.698	3.4545	0.	12.345
1561	14.698	3.2727	0.	12.308
1562	14.698	3.0909	0.	12.289
1563	14.698	2.9091	0.	12.289
1564	14.698	2.7273	0.	12.308
1565	14.698	2.5455	0.	12.345
1566	14.698	2.3636	0.	12.401
1567	14.698	2.1818	0.	12.477
1568	14.698	2.	0.	12.574
1569	14.698	1.8182	0.	12.692
1570	14.698	1.6364	0.	12.834
1571	14.698	1.4545	0.	13.
1572	14.698	1.2727	0.	13.192
1573	14.698	1.0909	0.	13.412
1574	14.698	0.90909	0.	13.662
1575	14.698	0.72727	0.	13.944
1576	14.698	0.54545	0.	14.266
1577	14.698	0.36364	0.	14.721
1578	14.698	0.18182	0.	16.936
1579	14.514	5.8182	0.	16.65
1580	14.514	5.6364	0.	14.395
1581	14.514	5.4545	0.	13.878
1582	14.514	5.2727	0.	13.494
1583	14.514	5.0909	0.	13.152
1584	14.514	4.9091	0.	12.844
1585	14.514	4.7273	0.	12.569
1586	14.514	4.5455	0.	12.326
1587	14.514	4.3636	0.	12.112
1588	14.514	4.1818	0.	11.929
1589	14.514	4.	0.	11.773
1590	14.514	3.8182	0.	11.645
1591	14.514	3.6364	0.	11.543
1592	14.514	3.4545	0.	11.467
1593	14.514	3.2727	0.	11.417
1594	14.514	3.0909	0.	11.392
1595	14.514	2.9091	0.	11.392
1596	14.514	2.7273	0.	11.417
1597	14.514	2.5455	0.	11.467
1598	14.514	2.3636	0.	11.543
1599	14.514	2.1818	0.	11.645
1600	14.514	2.	0.	11.773
1601	14.514	1.8182	0.	11.929
1602	14.514	1.6364	0.	12.112
1603	14.514	1.4545	0.	12.326
1604	14.514	1.2727	0.	12.569
1605	14.514	1.0909	0.	12.844
1606	14.514	0.90909	0.	13.152
1607	14.514	0.72727	0.	13.494
1608	14.514	0.54545	0.	13.878
1609	14.514	0.36364	0.	14.395
1610	14.514	0.18182	0.	16.65
1611	14.33	5.8182	0.	16.363
1612	14.33	5.6364	0.	14.067
1613	14.33	5.4545	0.	13.487
1614	14.33	5.2727	0.	13.04
1615	14.33	5.0909	0.	12.637
1616	14.33	4.9091	0.	12.27
1617	14.33	4.7273	0.	11.94
1618	14.33	4.5455	0.	11.644
1619	14.33	4.3636	0.	11.384
1620	14.33	4.1818	0.	11.157
1621	14.33	4.	0.	10.963
1622	14.33	3.8182	0.	10.803
1623	14.33	3.6364	0.	10.675
1624	14.33	3.4545	0.	10.58
1625	14.33	3.2727	0.	10.516
1626	14.33	3.0909	0.	10.485
1627	14.33	2.9091	0.	10.485
1628	14.33	2.7273	0.	10.516
1629	14.33	2.5455	0.	10.58
1630	14.33	2.3636	0.	10.675
1631	14.33	2.1818	0.	10.803
1632	14.33	2.	0.	10.963
1633	14.33	1.8182	0.	11.157
1634	14.33	1.6364	0.	11.384
1635	14.33	1.4545	0.	11.644
1636	14.33	1.2727	0.	11.94
1637	14.33	1.0909	0.	12.27
1638	14.33	0.90909	0.	12.637
1639	14.33	0.72727	0.	13.04
1640	14.33	0.54545	0.	13.487
1641	14.33	0.36364	0.	14.067
1642	14.33	0.18182	0.	16.363
1643	14.147	5.8182	0.	16.074
1644	14.147	5.6364	0.	13.735
1645	14.147	5.4545	0.	13.091
1646	14.147	5.2727	0.	12.58
1647	14.147	5.0909	0.	12.114
1648	14.147	4.9091	0.	11.688
1649	14.147	4.7273	0.	11.3
1650	14.147	4.5455	0.	10.952
1651	14.147	4.3636	0.	10.642
1652	14.147	4.1818	0.	10.372
1653	14.147	4.	0.	10.14
1654	14.147	3.8182	0.	9.9474
1655	14.147	3.6364	0.	9.7932
1656	14.147	3.4545	0.	9.6776
1657	14.147	3.2727	0.	9.6006
1658	14.147	3.0909	0.	9.5621
1659	14.147	2.9091	0.	9.5621
1660	14.147	2.7273	0.	9.6006
1661	14.147	2.5455	0.	9.6777
1662	14.147	2.3636	0.	9.7932
1663	14.147	2.1818	0.	9.9475
1664	14.147	2.	0.	10.14
1665	14.147	1.8182	0.	10.372
1666	14.147	1.6364	0.	10.642
1667	14.147	1.4545	0.	10.952
1668	14.147	1.2727	0.	11.3
1669	14.147	1.0909	0.	11.688
1670	14.147	0.90909	0.	12.114
1671	14.147	0.72727	0.	12.58
1672	14.147	0.54545	0.	13.091
1673	14.147	0.36364	0.	13.735
1674	14.147	0.18182	0.	16.074
1675	13.963	5.8182	0.	15.783
1676	13.963	5.6364	0.	13.399
1677	13.963	5.4545	0.	12.689
1678	13.963	5.2727	0.	12.111
1679	13.963	5.0909	0.	11.581
1680	13.963	4.9091	0.	11.092
1681	13.963	4.7273	0.	10.646
1682	13.963	4.5455	0.	10.244
1683	13.963	4.3636	0.	9.8845
1684	13.963	4.1818	0.	9.5693
1685	13.963	4.	0.	9.2984
1686	13.963	3.8182	0.	9.0722
1687	13.963	3.6364	0.	8.8909
1688	13.963	3.4545	0.	8.7547
1689	13.963	3.2727	0.	8.6638
1690	13.963	3.0909	0.	8.6184
1691	13.963	2.9091	0.	8.6184
1692	13.963	2.7273	0.	8.6639
1693	13.963	2.5455	0.	8.7547
1694	13.963	2.3636	0.	8.8909
1695	13.963	2.1818	0.	9.0722
1696	13.963	2.	0.	9.2984
1697	13.963	1.8182	0.	9.5693
1698	13.963	1.6364	0.	9.8846
1699	13.963	1.4545	0.	10.244
1700	13.963	1.2727	0.	10.647
1701	13.963	1.0909	0.	11.092
1702	13.963	0.90909	0.	11.581
1703	13.963	0.72727	0.	12.111
1704	13.963	0.54545	0.	12.689
1705	13.963	0.36364	0.	13.399
1706	13.963	0.18182	0.	15.784
1707	13.779	5.8182	0.	15.49
1708	13.779	5.6364	0.	13.058
1709	13.779	5.4545	0.	12.277
1710	13.779	5.2727	0.	11.631
1711	13.779	5.0909	0.	11.033
1712	13.779	4.9091	0.	10.481
1713	13.779	4.7273	0.	9.975
1714	13.779	4.5455	0.	9.516
1715	13.779	4.3636	0.	9.1053
1716	13.779	4.1818	0.	8.7438
1717	13.779	4.	0.	8.4324
1718	13.779	3.8182	0.	8.1718
1719	13.779	3.6364	0.	7.9625
1720	13.779	3.4545	0.	7.8052
1721	13.779	3.2727	0.	7.7001
1722	13.779	3.0909	0.	7.6474
1723	13.779	2.9091	0.	7.6474
1724	13.779	2.7273	0.	7.7001
1725	13.779	2.5455	0.	7.8052
1726	13.779	2.3636	0.	7.9625
1727	13.779	2.1818	0.	8.1718
1728	13.779	2.	0.	8.4324
1729	13.779	1.8182	0.	8.7438
1730	13.779	1.6364	0.	9.1053
1731	13.779	1.4545	0.	9.516
1732	13.779	1.2727	0.	9.975
1733	13.779	1.0909	0.	10.481
1734	13.779	0.90909	0.	11.034
1735	13.779	0.72727	0.	11.631
1736	13.779	0.54545	0.	12.277
1737	13.779	0.36364	0.	13.058
1738	13.779	0.18182	0.	15.49
1739	13.595	5.8182	0.	15.193
1740	13.595	5.6364	0.	12.709
1741	13.595	5.4545	0.	11.856
1742	13.595	5.2727	0.	11.137
1743	13.595	5.0909	0.	10.47
1744	13.595	4.9091	0.	9.8509
1745	13.595	4.7273	0.	9.2817
1746	13.595	4.5455	0.	8.7642
1747	13.595	4.3636	0.	8.3
1748	13.595	4.1818	0.	7.8904
1749	13.595	4.	0.	7.5369
1750	13.595	3.8182	0.	7.2406
1751	13.595	3.6364	0.	7.0023
1752	13.595	3.4545	0.	6.823
1753	13.595	3.2727	0.	6.703
1754	13.595	3.0909	0.	6.643
1755	13.595	2.9091	0.	6.643
1756	13.595	2.7273	0.	6.7031
1757	13.595	2.5455	0.	6.823
1758	13.595	2.3636	0.	7.0023
1759	13.595	2.1818	0.	7.2406
1760	13.595	2.	0.	7.537
1761	13.595	1.8182	0.	7.8905
1762	13.595	1.6364	0.	8.3
1763	13.595	1.4545	0.	8.7643
1764	13.595	1.2727	0.	9.2818
1765	13.595	1.0909	0.	9.8509
1766	13.595	0.90909	0.	10.47
1767	13.595	0.72727	0.	11.137
1768	13.595	0.54545	0.	11.856
1769	13.595	0.36364	0.	12.709
1770	13.595	0.18182	0.	15.193
1771	13.412	5.8182	0.	14.892
1772	13.412	5.6364	0.	12.352
1773	13.412	5.4545	0.	11.422
1774	13.412	5.2727	0.	10.627
1775	13.412	5.0909	0.	9.8868
1776	13.412	4.9091	0.	9.1978
1777	13.412	4.7273	0.	8.5627
1778	13.412	4.5455	0.	7.984
1779	13.412	4.3636	0.	7.4637
1780	13.412	4.1818	0.	7.0039
1781	13.412	4.	0.	6.6064
1782	13.412	3.8182	0.	6.2727
1783	13.412	3.6364	0.	6.0042
1784	13.412	3.4545	0.	5.8018
1785	13.412	3.2727	0.	5.6664
1786	13.412	3.0909	0.	5.5986
1787	13.412	2.9091	0.	5.5986
1788	13.412	2.7273	0.	5.6665
1789	13.412	2.5455	0.	5.8018
1790	13.412	2.3636	0.	6.0042
1791	13.412	2.1818	0.	6.2727
1792	13.412	2.	0.	6.6064
1793	13.412	1.8182	0.	7.004
1794	13.412	1.6364	0.	7.4637
1795	13.412	1.4545	0.	7.984
1796	13.412	1.2727	0.	8.5628
1797	13.412	1.0909	0.	9.1979
1798	13.412	0.90909	0.	9.8868
1799	13.412	0.72727	0.	10.627
1800	13.412	0.54545	0.	11.422
1801	13.412	0.36364	0.	12.352
1802	13.412	0.18182	0.	14.892
1803	13.228	5.8182	0.	14.585
1804	13.228	5.6364	0.	11.985
1805	13.228	5.4545	0.	10.974
1806	13.228	5.2727	0.	10.099
1807	13.228	5.0909	0.	9.2809
1808	13.228	4.9091	0.	8.5182
1809	13.228	4.7273	0.	7.8137
1810	13.228	4.5455	0.	7.1705
1811	13.228	4.3636	0.	6.5913
1812	13.228	4.1818	0.	6.0787
1813	13.228	4.	0.	5.635
1814	13.228	3.8182	0.	5.2621
1815	13.228	3.6364	0.	4.9617
1816	13.228	3.4545	0.	4.7352
1817	13.228	3.2727	0.	4.5836
1818	13.228	3.0909	0.	4.5076
1819	13.228	2.9091	0.	4.5076
1820	13.228	2.7273	0.	4.5836
1821	13.228	2.5455	0.	4.7352
1822	13.228	2.3636	0.	4.9617
1823	13.228	2.1818	0.	5.2621
1824	13.228	2.	0.	5.635
1825	13.228	1.8182	0.	6.0788
1826	13.228	1.6364	0.	6.5914
1827	13.228	1.4545	0.	7.1706
1828	13.228	1.2727	0.	7.8138
1829	13.228	1.0909	0.	8.5183
1830	13.228	0.90909	0.	9.281
1831	13.228	0.72727	0.	10.099
1832	13.228	0.54545	0.	10.974
1833	13.228	0.36364	0.	11.985
1834	13.228	0.18182	0.	14.585
1835	13.044	5.8182	0.	14.272
1836	13.044	5.6364	0.	11.606
1837	13.044	5.4545	0.	10.509
1838	13.044	5.2727	0.	9.5489
1839	13.044	5.0909	0.	8.649
1840	13.044	4.9091	0.	7.8083
1841	13.044	4.7273	0.	7.0303
1842	13.044	4.5455	0.	6.319
1843	13.044	4.3636	0.	5.6775
1844	13.044	4.1818	0.	5.1092
1845	13.044	4.	0.	4.6167
1846	13.044	3.8182	0.	4.2024
1847	13.044	3.6364	0.	3.8684
1848	13.044	3.4545	0.	3.6164
1849	13.044	3.2727	0.	3.4476
1850	13.044	3.0909	0.	3.363
1851	13.044	2.9091	0.	3.363
1852	13.044	2.7273	0.	3.4476
1853	13.044	2.5455	0.	3.6164
1854	13.044	2.3636	0.	3.8684
1855	13.044	2.1818	0.	4.2024
1856	13.044	2.	0.	4.6167
1857	13.044	1.8182	0.	5.1092
1858	13.044	1.6364	0.	5.6776
1859	13.044	1.4545	0.	6.319
1860	13.044	1.2727	0.	7.0304
1861	13.044	1.0909	0.	7.8083
1862	13.044	0.90909	0.	8.6491
1863	13.044	0.72727	0.	9.549
1864	13.044	0.54545	0.	10.509
1865	13.044	0.36364	0.	11.606
1866	13.044	0.18182	0.	14.272
1867	12.86	5.8182	0.	13.952
1868	12.86	5.6364	0.	11.215
1869	12.86	5.4545	0.	10.025
1870	12.86	5.2727	0.	8.9747
1871	12.86	5.0909	0.	7.9876
1872	12.86	4.9091	0.	7.0638
1873	12.86	4.7273	0.	6.2079
1874	12.86	4.5455	0.	5.4242
1875	12.86	4.3636	0.	4.7168
1876	12.86	4.1818	0.	4.0894
1877	12.86	4.	0.	3.5451
1878	12.86	3.8182	0.	3.087
1879	12.86	3.6364	0.	2.7174
1880	12.86	3.4545	0.	2.4383
1881	12.86	3.2727	0.	2.2513
1882	12.86	3.0909	0.	2.1575
1883	12.86	2.9091	0.	2.1575
1884	12.86	2.7273	0.	2.2513
1885	12.86	2.5455	0.	2.4383
1886	12.86	2.3636	0.	2.7174
1887	12.86	2.1818	0.	3.087
1888	12.86	2.	0.	3.5452
1889	12.86	1.8182	0.	4.0894
1890	12.86	1.6364	0.	4.7169
1891	12.86	1.4545	0.	5.4243
1892	12.86	1.2727	0.	6.208
1893	12.86	1.0909	0.	7.0639
1894	12.86	0.90909	0.	7.9877
1895	12.86	0.72727	0.	8.9748
1896	12.86	0.54545	0.	10.025
1897	12.86	0.36364	0.	11.215
1898	12.86	0.18182	0.	13.952
1899	12.677	5.8182	0.	13.624
1900	12.677	5.6364	0.	10.809
1901	12.677	5.4545	0.	9.5203
1902	12.677	5.2727	0.	8.3731
1903	12.677	5.0909	0.	7.2928
1904	12.677	4.9091	0.	6.2806
1905	12.677	4.7273	0.	5.3416
1906	12.677	4.5455	0.	4.4809
1907	12.677	4.3636	0.	3.7034
1908	12.677	4.1818	0.	3.0131
1909	12.677	4.	0.	2.4141
1910	12.677	3.8182	0.	1.9094
1911	12.677	3.6364	0.	1.5019
1912	12.677	3.4545	0.	1.1938
1913	12.677	3.2727	0.	0.98711
1914	12.677	3.0909	0.	0.88326
1915	12.677	2.9091	0.	0.88327
1916	12.677	2.7273	0.	0.98712
1917	12.677	2.5455	0.	1.1938
1918	12.677	2.3636	0.	1.5019
1919	12.677	2.1818	0.	1.9094
1920	12.677	2.	0.	2.4141
1921	12.677	1.8182	0.	3.0132
1922	12.677	1.6364	0.	3.7034
1923	12.677	1.4545	0.	4.481
1924	12.677	1.2727	0.	5.3416
1925	12.677	1.0909	0.	6.2807
1926	12.677	0.90909	0.	7.2929
1927	12.677	0.72727	0.	8.3731
1928	12.677	0.54545	0.	9.5204
1929	12.677	0.36364	0.	10.809
1930	12.677	0.18182	0.	13.624
1931	12.493	5.8182	0.	13.287
1932	12.493	5.6364	0.	10.386
1933	12.493	5.4545	0.	8.9918
1934	12.493	5.2727	0.	7.7408
1935	12.493	5.0909	0.	6.5609
1936	12.493	4.9091	0.	5.454
1937	12.493	4.7273	0.	4.4263
1938	12.493	4.5455	0.	3.4836
1939	12.493	4.3636	0.	2.6314
1940	12.493	4.1818	0.	1.8748
1941	12.493	4.	0.	1.2183
1942	12.493	3.8182	0.	0.6666
1943	12.493	3.6364	0.	0.2283
1944	12.493	3.4545	0.	2.0651e-002
1945	12.493	3.2727	0.	8.1221e-003
1946	12.493	3.0909	0.	6.1377e-003
1947	12.493	2.9091	0.	6.1377e-003
1948	12.493	2.7273	0.	8.122e-003
1949	12.493	2.5455	0.	2.0654e-002
1950	12.493	2.3636	0.	0.22833
1951	12.493	2.1818	0.	0.66663
1952	12.493	2.	0.	1.2183
1953	12.493	1.8182	0.	1.8748
1954	12.493	1.6364	0.	2.6314
1955	12.493	1.4545	0.	3.4836
1956	12.493	1.2727	0.	4.4263
1957	12.493	1.0909	0.	5.4541
1958	12.493	0.90909	0.	6.561
1959	12.493	0.72727	0.	7.7409
1960	12.493	0.54545	0.	8.9919
1961	12.493	0.36364	0.	10.386
1962	12.493	0.18182	0.	13.287
1963	12.309	5.8182	0.	12.939
1964	12.309	5.6364	0.	9.9448
1965	12.309	5.4545	0.	8.4368
1966	12.309	5.2727	0.	7.0744
1967	12.309	5.0909	0.	5.7876
1968	12.309	4.9091	0.	4.5794
1969	12.309	4.7273	0.	3.4567
1970	12.309	4.5455	0.	2.4267
1971	12.309	4.3636	0.	1.4962
1972	12.309	4.1818	0.	0.67513
1973	12.309	4.	0.	7.4332e-002
1974	12.309	3.8182	0.	1.5014e-002
1975	12.309	3.6364	0.	9.0357e-003
1976	12.309	3.4545	0.	7.041e-003
1977	12.309	3.2727	0.	6.1756e-003
1978	12.309	3.0909	0.	5.8271e-003
1979	12.309	2.9091	0.	5.8268e-003
1980	12.309	2.7273	0.	6.1753e-003
1981	12.309	2.5455	0.	7.0413e-003
1982	12.309	2.3636	0.	9.0367e-003
1983	12.309	2.1818	0.	1.5014e-002
1984	12.309	2.	0.	7.4346e-002
1985	12.309	1.8182	0.	0.67518
1986	12.309	1.6364	0.	1.4962
1987	12.309	1.4545	0.	2.4267
1988	12.309	1.2727	0.	3.4568
1989	12.309	1.0909	0.	4.5795
1990	12.309	0.90909	0.	5.7877
1991	12.309	0.72727	0.	7.0745
1992	12.309	0.54545	0.	8.4369
1993	12.309	0.36364	0.	9.9449
1994	12.309	0.18182	0.	12.939
1995	12.126	5.8182	0.	12.58
1996	12.126	5.6364	0.	9.4833
1997	12.126	5.4545	0.	7.8525
1998	12.126	5.2727	0.	6.3703
1999	12.126	5.0909	0.	4.9687
2000	12.126	4.9091	0.	3.6517
2001	12.126	4.7273	0.	2.4278
2002	12.126	4.5455	0.	1.3067
2003	12.126	4.3636	0.	0.3217
2004	12.126	4.1818	0.	2.3513e-002
2005	12.126	4.	0.	1.1428e-002
2006	12.126	3.8182	0.	8.2504e-003
2007	12.126	3.6364	0.	6.8725e-003
2008	12.126	3.4545	0.	6.1654e-003
2009	12.126	3.2727	0.	5.7923e-003
2010	12.126	3.0909	0.	5.6287e-003
2011	12.126	2.9091	0.	5.6289e-003
2012	12.126	2.7273	0.	5.7929e-003
2013	12.126	2.5455	0.	6.1654e-003
2014	12.126	2.3636	0.	6.8725e-003
2015	12.126	2.1818	0.	8.2507e-003
2016	12.126	2.	0.	1.1429e-002
2017	12.126	1.8182	0.	2.3514e-002
2018	12.126	1.6364	0.	0.32175
2019	12.126	1.4545	0.	1.3068
2020	12.126	1.2727	0.	2.4278
2021	12.126	1.0909	0.	3.6517
2022	12.126	0.90909	0.	4.9687
2023	12.126	0.72727	0.	6.3704
2024	12.126	0.54545	0.	7.8526
2025	12.126	0.36364	0.	9.4834
2026	12.126	0.18182	0.	12.58
2027	11.942	5.8182	0.	12.208
2028	11.942	5.6364	0.	8.9991
2029	11.942	5.4545	0.	7.2359
2030	11.942	5.2727	0.	5.6246
2031	11.942	5.0909	0.	4.0993
2032	11.942	4.9091	0.	2.6658
2033	11.942	4.7273	0.	1.336
2034	11.942	4.5455	0.	0.18845
2035	11.942	4.3636	0.	1.861e-002
2036	11.942	4.1818	0.	1.045e-002
2037	11.942	4.	0.	7.9198e-003
2038	11.942	3.8182	0.	6.7429e-003
2039	11.942	3.6364	0.	6.1008e-003
2040	11.942	3.4545	0.	5.7297e-003
2041	11.942	3.2727	0.	5.5201e-003
2042	11.942	3.0909	0.	5.4252e-003
2043	11.942	2.9091	0.	5.4247e-003
2044	11.942	2.7273	0.	5.5207e-003
2045	11.942	2.5455	0.	5.7298e-003
2046	11.942	2.3636	0.	6.101e-003
2047	11.942	2.1818	0.	6.7434e-003
2048	11.942	2.	0.	7.92e-003
2049	11.942	1.8182	0.	1.0451e-002
2050	11.942	1.6364	0.	1.8611e-002
2051	11.942	1.4545	0.	0.18849
2052	11.942	1.2727	0.	1.3361
2053	11.942	1.0909	0.	2.6658
2054	11.942	0.90909	0.	4.0994
2055	11.942	0.72727	0.	5.6247
2056	11.942	0.54545	0.	7.236
2057	11.942	0.36364	0.	8.9992
2058	11.942	0.18182	0.	12.208
2059	11.758	5.8182	0.	11.821
2060	11.758	5.6364	0.	8.4901
2061	11.758	5.4545	0.	6.5838
2062	11.758	5.2727	0.	4.8332
2063	11.758	5.0909	0.	3.1749
2064	11.758	4.9091	0.	1.6177
2065	11.758	4.7273	0.	0.23259
2066	11.758	4.5455	0.	1.7854e-002
2067	11.758	4.3636	0.	1.0096e-002
2068	11.758	4.1818	0.	7.7366e-003
2069	11.758	4.	0.	6.6383e-003
2070	11.758	3.8182	0.	6.0284e-003
2071	11.758	3.6364	0.	5.6609e-003
2072	11.758	3.4545	0.	5.4369e-003
2073	11.758	3.2727	0.	5.3056e-003
2074	11.758	3.0909	0.	5.2435e-003
2075	11.758	2.9091	0.	5.2438e-003
2076	11.758	2.7273	0.	5.3053e-003
2077	11.758	2.5455	0.	5.4368e-003
2078	11.758	2.3636	0.	5.662e-003
2079	11.758	2.1818	0.	6.0285e-003
2080	11.758	2.	0.	6.6389e-003
2081	11.758	1.8182	0.	7.7377e-003
2082	11.758	1.6364	0.	1.0096e-002
2083	11.758	1.4545	0.	1.7855e-002
2084	11.758	1.2727	0.	0.23263
2085	11.758	1.0909	0.	1.6178
2086	11.758	0.90909	0.	3.1749
2087	11.758	0.72727	0.	4.8333
2088	11.758	0.54545	0.	6.5838
2089	11.758	0.36364	0.	8.4902
2090	11.758	0.18182	0.	11.821
2091	11.574	5.8182	0.	11.419
2092	11.574	5.6364	0.	7.9538
2093	11.574	5.4545	0.	5.8927
2094	11.574	5.2727	0.	3.9917
2095	11.574	5.0909	0.	2.1906
2096	11.574	4.9091	0.	0.51855
2097	11.574	4.7273	0.	1.9501e-002
2098	11.574	4.5455	0.	1.0082e-002
2099	11.574	4.3636	0.	7.639e-003
2100	11.574	4.1818	0.	6.5523e-003
2101	11.574	4.	0.	5.9565e-003
2102	11.574	3.8182	0.	5.594e-003
2103	11.574	3.6364	0.	5.3623e-003
2104	11.574	3.4545	0.	5.2149e-003
2105	11.574	3.2727	0.	5.126e-003
2106	11.574	3.0909	0.	5.0838e-003
2107	11.574	2.9091	0.	5.0841e-003
2108	11.574	2.7273	0.	5.1261e-003
2109	11.574	2.5455	0.	5.2153e-003
2110	11.574	2.3636	0.	5.3616e-003
2111	11.574	2.1818	0.	5.5937e-003
2112	11.574	2.	0.	5.957e-003
2113	11.574	1.8182	0.	6.5525e-003
2114	11.574	1.6364	0.	7.6396e-003
2115	11.574	1.4545	0.	1.0082e-002
2116	11.574	1.2727	0.	1.9503e-002
2117	11.574	1.0909	0.	0.5186
2118	11.574	0.90909	0.	2.1907
2119	11.574	0.72727	0.	3.9918
2120	11.574	0.54545	0.	5.8928
2121	11.574	0.36364	0.	7.9539
2122	11.574	0.18182	0.	11.419
2123	11.391	5.8182	0.	11.
2124	11.391	5.6364	0.	7.3875
2125	11.391	5.4545	0.	5.1589
2126	11.391	5.2727	0.	3.0955
2127	11.391	5.0909	0.	1.1439
2128	11.391	4.9091	0.	2.6884e-002
2129	11.391	4.7273	0.	1.0381e-002
2130	11.391	4.5455	0.	7.5785e-003
2131	11.391	4.3636	0.	6.449e-003
2132	11.391	4.1818	0.	5.8521e-003
2133	11.391	4.	0.	5.4913e-003
2134	11.391	3.8182	0.	5.2568e-003
2135	11.391	3.6364	0.	5.1004e-003
2136	11.391	3.4545	0.	4.9977e-003
2137	11.391	3.2727	0.	4.9348e-003
2138	11.391	3.0909	0.	4.9037e-003
2139	11.391	2.9091	0.	4.9042e-003
2140	11.391	2.7273	0.	4.9346e-003
2141	11.391	2.5455	0.	4.9985e-003
2142	11.391	2.3636	0.	5.1012e-003
2143	11.391	2.1818	0.	5.2572e-003
2144	11.391	2.	0.	5.4918e-003
2145	11.391	1.8182	0.	5.8524e-003
2146	11.391	1.6364	0.	6.4497e-003
2147	11.391	1.4545	0.	7.5799e-003
2148	11.391	1.2727	0.	1.0382e-002
2149	11.391	1.0909	0.	2.6887e-002
2150	11.391	0.90909	0.	1.144
2151	11.391	0.72727	0.	3.0956
2152	11.391	0.54545	0.	5.159
2153	11.391	0.36364	0.	7.3876
2154	11.391	0.18182	0.	11.
2155	11.207	5.8182	0.	10.562
2156	11.207	5.6364	0.	6.7885
2157	11.207	5.4545	0.	4.3785
2158	11.207	5.2727	0.	2.14
2159	11.207	5.0909	0.	0.1283
2160	11.207	4.9091	0.	1.1327e-002
2161	11.207	4.7273	0.	7.5799e-003
2162	11.207	4.5455	0.	6.3455e-003
2163	11.207	4.3636	0.	5.732e-003
2164	11.207	4.1818	0.	5.3705e-003
2165	11.207	4.	0.	5.1355e-003
2166	11.207	3.8182	0.	4.973e-003
2167	11.207	3.6364	0.	4.8591e-003
2168	11.207	3.4545	0.	4.7827e-003
2169	11.207	3.2727	0.	4.734e-003
2170	11.207	3.0909	0.	4.7101e-003
2171	11.207	2.9091	0.	4.71e-003
2172	11.207	2.7273	0.	4.7345e-003
2173	11.207	2.5455	0.	4.7831e-003
2174	11.207	2.3636	0.	4.8591e-003
2175	11.207	2.1818	0.	4.9729e-003
2176	11.207	2.	0.	5.1353e-003
2177	11.207	1.8182	0.	5.371e-003
2178	11.207	1.6364	0.	5.7326e-003
2179	11.207	1.4545	0.	6.3452e-003
2180	11.207	1.2727	0.	7.5806e-003
2181	11.207	1.0909	0.	1.1329e-002
2182	11.207	0.90909	0.	0.12834
2183	11.207	0.72727	0.	2.1401
2184	11.207	0.54545	0.	4.3785
2185	11.207	0.36364	0.	6.7886
2186	11.207	0.18182	0.	10.562
2187	11.023	5.8182	0.	10.103
2188	11.023	5.6364	0.	6.1539
2189	11.023	5.4545	0.	3.5472
2190	11.023	5.2727	0.	1.1217
2191	11.023	5.0909	0.	1.4615e-002
2192	11.023	4.9091	0.	7.7276e-003
2193	11.023	4.7273	0.	6.2559e-003
2194	11.023	4.5455	0.	5.6168e-003
2195	11.023	4.3636	0.	5.2508e-003
2196	11.023	4.1818	0.	5.013e-003
2197	11.023	4.	0.	4.8462e-003
2198	11.023	3.8182	0.	4.7246e-003
2199	11.023	3.6364	0.	4.6349e-003
2200	11.023	3.4545	0.	4.5735e-003
2201	11.023	3.2727	0.	4.5325e-003
2202	11.023	3.0909	0.	4.5122e-003
2203	11.023	2.9091	0.	4.5121e-003
2204	11.023	2.7273	0.	4.5324e-003
2205	11.023	2.5455	0.	4.5734e-003
2206	11.023	2.3636	0.	4.6354e-003
2207	11.023	2.1818	0.	4.7247e-003
2208	11.023	2.	0.	4.8474e-003
2209	11.023	1.8182	0.	5.0139e-003
2210	11.023	1.6364	0.	5.251e-003
2211	11.023	1.4545	0.	5.617e-003
2212	11.023	1.2727	0.	6.2569e-003
2213	11.023	1.0909	0.	7.7283e-003
2214	11.023	0.90909	0.	1.4616e-002
2215	11.023	0.72727	0.	1.1218
2216	11.023	0.54545	0.	3.5473
2217	11.023	0.36364	0.	6.154
2218	11.023	0.18182	0.	10.103
2219	10.84	5.8182	0.	9.6225
2220	10.84	5.6364	0.	5.4804
2221	10.84	5.4545	0.	2.6607
2222	10.84	5.2727	0.	0.11109
2223	10.84	5.0909	0.	8.1709e-003
2224	10.84	4.9091	0.	6.2095e-003
2225	10.84	4.7273	0.	5.5062e-003
2226	10.84	4.5455	0.	5.1406e-003
2227	10.84	4.3636	0.	4.8996e-003
2228	10.84	4.1818	0.	4.7277e-003
2229	10.84	4.	0.	4.598e-003
2230	10.84	3.8182	0.	4.4958e-003
2231	10.84	3.6364	0.	4.4182e-003
2232	10.84	3.4545	0.	4.3625e-003
2233	10.84	3.2727	0.	4.3253e-003
2234	10.84	3.0909	0.	4.3067e-003
2235	10.84	2.9091	0.	4.3063e-003
2236	10.84	2.7273	0.	4.3258e-003
2237	10.84	2.5455	0.	4.3624e-003
2238	10.84	2.3636	0.	4.4182e-003
2239	10.84	2.1818	0.	4.4961e-003
2240	10.84	2.	0.	4.5979e-003
2241	10.84	1.8182	0.	4.7282e-003
2242	10.84	1.6364	0.	4.9004e-003
2243	10.84	1.4545	0.	5.1413e-003
2244	10.84	1.2727	0.	5.5068e-003
2245	10.84	1.0909	0.	6.2105e-003
2246	10.84	0.90909	0.	8.1727e-003
2247	10.84	0.72727	0.	0.11113
2248	10.84	0.54545	0.	2.6607
2249	10.84	0.36364	0.	5.4805
2250	10.84	0.18182	0.	9.6226
2251	10.656	5.8182	0.	9.1175
2252	10.656	5.6364	0.	4.7648
2253	10.656	5.4545	0.	1.7142
2254	10.656	5.2727	0.	1.0649e-002
2255	10.656	5.0909	0.	6.1678e-003
2256	10.656	4.9091	0.	5.4279e-003
2257	10.656	4.7273	0.	5.0443e-003
2258	10.656	4.5455	0.	4.8092e-003
2259	10.656	4.3636	0.	4.6303e-003
2260	10.656	4.1818	0.	4.4887e-003
2261	10.656	4.	0.	4.3737e-003
2262	10.656	3.8182	0.	4.2791e-003
2263	10.656	3.6364	0.	4.2047e-003
2264	10.656	3.4545	0.	4.1486e-003
2265	10.656	3.2727	0.	4.1118e-003
2266	10.656	3.0909	0.	4.0921e-003
2267	10.656	2.9091	0.	4.0927e-003
2268	10.656	2.7273	0.	4.1117e-003
2269	10.656	2.5455	0.	4.1499e-003
2270	10.656	2.3636	0.	4.2042e-003
2271	10.656	2.1818	0.	4.2798e-003
2272	10.656	2.	0.	4.3747e-003
2273	10.656	1.8182	0.	4.4904e-003
2274	10.656	1.6364	0.	4.6304e-003
2275	10.656	1.4545	0.	4.8102e-003
2276	10.656	1.2727	0.	5.0449e-003
2277	10.656	1.0909	0.	5.429e-003
2278	10.656	0.90909	0.	6.1684e-003
2279	10.656	0.72727	0.	1.0649e-002
2280	10.656	0.54545	0.	1.7142
2281	10.656	0.36364	0.	4.7649
2282	10.656	0.18182	0.	9.1176
2283	10.472	5.8182	0.	8.5864
2284	10.472	5.6364	0.	4.0034
2285	10.472	5.4545	0.	0.70373
2286	10.472	5.2727	0.	6.5807e-003
2287	10.472	5.0909	0.	5.3069e-003
2288	10.472	4.9091	0.	4.9969e-003
2289	10.472	4.7273	0.	4.7488e-003
2290	10.472	4.5455	0.	4.5701e-003
2291	10.472	4.3636	0.	4.4138e-003
2292	10.472	4.1818	0.	4.2814e-003
2293	10.472	4.	0.	4.1669e-003
2294	10.472	3.8182	0.	4.0689e-003
2295	10.472	3.6364	0.	3.9896e-003
2296	10.472	3.4545	0.	3.9306e-003
2297	10.472	3.2727	0.	3.8896e-003
2298	10.472	3.0909	0.	3.8692e-003
2299	10.472	2.9091	0.	3.8689e-003
2300	10.472	2.7273	0.	3.8896e-003
2301	10.472	2.5455	0.	3.9302e-003
2302	10.472	2.3636	0.	3.9896e-003
2303	10.472	2.1818	0.	4.0688e-003
2304	10.472	2.	0.	4.1669e-003
2305	10.472	1.8182	0.	4.2815e-003
2306	10.472	1.6364	0.	4.4149e-003
2307	10.472	1.4545	0.	4.5703e-003
2308	10.472	1.2727	0.	4.7496e-003
2309	10.472	1.0909	0.	4.9977e-003
2310	10.472	0.90909	0.	5.3085e-003
2311	10.472	0.72727	0.	6.5823e-003
2312	10.472	0.54545	0.	0.7038
2313	10.472	0.36364	0.	4.0035
2314	10.472	0.18182	0.	8.5865
2315	10.288	5.8182	0.	8.0271
2316	10.288	5.6364	0.	3.1925
2317	10.288	5.4545	0.	8.133e-003
2318	10.288	5.2727	0.	5.5538e-003
2319	10.288	5.0909	0.	4.9207e-003
2320	10.288	4.9091	0.	4.7659e-003
2321	10.288	4.7273	0.	4.5613e-003
2322	10.288	4.5455	0.	4.3959e-003
2323	10.288	4.3636	0.	4.2375e-003
2324	10.288	4.1818	0.	4.0959e-003
2325	10.288	4.	0.	3.9704e-003
2326	10.288	3.8182	0.	3.8621e-003
2327	10.288	3.6364	0.	3.773e-003
2328	10.288	3.4545	0.	3.7057e-003
2329	10.288	3.2727	0.	3.6599e-003
2330	10.288	3.0909	0.	3.6365e-003
2331	10.288	2.9091	0.	3.636e-003
2332	10.288	2.7273	0.	3.6599e-003
2333	10.288	2.5455	0.	3.7059e-003
2334	10.288	2.3636	0.	3.7733e-003
2335	10.288	2.1818	0.	3.8624e-003
2336	10.288	2.	0.	3.9711e-003
2337	10.288	1.8182	0.	4.0963e-003
2338	10.288	1.6364	0.	4.2382e-003
2339	10.288	1.4545	0.	4.3958e-003
2340	10.288	1.2727	0.	4.5623e-003
2341	10.288	1.0909	0.	4.7661e-003
2342	10.288	0.90909	0.	4.9225e-003
2343	10.288	0.72727	0.	5.5547e-003
2344	10.288	0.54545	0.	8.1345e-003
2345	10.288	0.36364	0.	3.1926
2346	10.288	0.18182	0.	8.0272
2347	10.105	5.8182	0.	7.4376
2348	10.105	5.6364	0.	2.3281
2349	10.105	5.4545	0.	4.2271e-003
2350	10.105	5.2727	0.	5.3302e-003
2351	10.105	5.0909	0.	4.7982e-003
2352	10.105	4.9091	0.	4.6758e-003
2353	10.105	4.7273	0.	4.4624e-003
2354	10.105	4.5455	0.	4.2795e-003
2355	10.105	4.3636	0.	4.1009e-003
2356	10.105	4.1818	0.	3.9389e-003
2357	10.105	4.	0.	3.7937e-003
2358	10.105	3.8182	0.	3.6671e-003
2359	10.105	3.6364	0.	3.5641e-003
2360	10.105	3.4545	0.	3.4854e-003
2361	10.105	3.2727	0.	3.4317e-003
2362	10.105	3.0909	0.	3.4046e-003
2363	10.105	2.9091	0.	3.4044e-003
2364	10.105	2.7273	0.	3.432e-003
2365	10.105	2.5455	0.	3.4861e-003
2366	10.105	2.3636	0.	3.5642e-003
2367	10.105	2.1818	0.	3.6672e-003
2368	10.105	2.	0.	3.7946e-003
2369	10.105	1.8182	0.	3.9387e-003
2370	10.105	1.6364	0.	4.1013e-003
2371	10.105	1.4545	0.	4.281e-003
2372	10.105	1.2727	0.	4.4629e-003
2373	10.105	1.0909	0.	4.6764e-003
2374	10.105	0.90909	0.	4.8e-003
2375	10.105	0.72727	0.	5.3314e-003
2376	10.105	0.54545	0.	4.2272e-003
2377	10.105	0.36364	0.	2.3282
2378	10.105	0.18182	0.	7.4377
2379	9.9209	5.8182	0.	6.8155
2380	9.9209	5.6364	0.	1.4064
2381	9.9209	5.4545	0.	4.1704e-003
2382	9.9209	5.2727	0.	5.4418e-003
2383	9.9209	5.0909	0.	4.8243e-003
2384	9.9209	4.9091	0.	4.671e-003
2385	9.9209	4.7273	0.	4.4126e-003
2386	9.9209	4.5455	0.	4.1929e-003
2387	9.9209	4.3636	0.	3.9783e-003
2388	9.9209	4.1818	0.	3.7858e-003
2389	9.9209	4.	0.	3.6123e-003
2390	9.9209	3.8182	0.	3.4644e-003
2391	9.9209	3.6364	0.	3.341e-003
2392	9.9209	3.4545	0.	3.2488e-003
2393	9.9209	3.2727	0.	3.1853e-003
2394	9.9209	3.0909	0.	3.1529e-003
2395	9.9209	2.9091	0.	3.1532e-003
2396	9.9209	2.7273	0.	3.1851e-003
2397	9.9209	2.5455	0.	3.2489e-003
2398	9.9209	2.3636	0.	3.3414e-003
2399	9.9209	2.1818	0.	3.4634e-003
2400	9.9209	2.	0.	3.6131e-003
2401	9.9209	1.8182	0.	3.7852e-003
2402	9.9209	1.6364	0.	3.9793e-003
2403	9.9209	1.4545	0.	4.1935e-003
2404	9.9209	1.2727	0.	4.4136e-003
2405	9.9209	1.0909	0.	4.6706e-003
2406	9.9209	0.90909	0.	4.8266e-003
2407	9.9209	0.72727	0.	5.4429e-003
2408	9.9209	0.54545	0.	4.1703e-003
2409	9.9209	0.36364	0.	1.4065
2410	9.9209	0.18182	0.	6.8156
2411	9.7372	5.8182	0.	6.1587
2412	9.7372	5.6364	0.	0.42914
2413	9.7372	5.4545	0.	4.5443e-003
2414	9.7372	5.2727	0.	5.7248e-003
2415	9.7372	5.0909	0.	4.9356e-003
2416	9.7372	4.9091	0.	4.7092e-003
2417	9.7372	4.7273	0.	4.3836e-003
2418	9.7372	4.5455	0.	4.109e-003
2419	9.7372	4.3636	0.	3.8477e-003
2420	9.7372	4.1818	0.	3.6142e-003
2421	9.7372	4.	0.	3.4075e-003
2422	9.7372	3.8182	0.	3.2293e-003
2423	9.7372	3.6364	0.	3.0843e-003
2424	9.7372	3.4545	0.	2.9749e-003
2425	9.7372	3.2727	0.	2.9004e-003
2426	9.7372	3.0909	0.	2.8624e-003
2427	9.7372	2.9091	0.	2.8621e-003
2428	9.7372	2.7273	0.	2.9003e-003
2429	9.7372	2.5455	0.	2.9747e-003
2430	9.7372	2.3636	0.	3.0849e-003
2431	9.7372	2.1818	0.	3.23e-003
2432	9.7372	2.	0.	3.4077e-003
2433	9.7372	1.8182	0.	3.6147e-003
2434	9.7372	1.6364	0.	3.8484e-003
2435	9.7372	1.4545	0.	4.1098e-003
2436	9.7372	1.2727	0.	4.3841e-003
2437	9.7372	1.0909	0.	4.7102e-003
2438	9.7372	0.90909	0.	4.9365e-003
2439	9.7372	0.72727	0.	5.726e-003
2440	9.7372	0.54545	0.	4.5445e-003
2441	9.7372	0.36364	0.	0.42922
2442	9.7372	0.18182	0.	6.1588
2443	9.5535	5.8182	0.	5.4651
2444	9.5535	5.6364	0.	2.7694e-002
2445	9.5535	5.4545	0.	5.1117e-003
2446	9.5535	5.2727	0.	6.1552e-003
2447	9.5535	5.0909	0.	5.144e-003
2448	9.5535	4.9091	0.	4.8174e-003
2449	9.5535	4.7273	0.	4.4035e-003
2450	9.5535	4.5455	0.	4.0612e-003
2451	9.5535	4.3636	0.	3.7415e-003
2452	9.5535	4.1818	0.	3.4593e-003
2453	9.5535	4.	0.	3.212e-003
2454	9.5535	3.8182	0.	3.001e-003
2455	9.5535	3.6364	0.	2.829e-003
2456	9.5535	3.4545	0.	2.7e-003
2457	9.5535	3.2727	0.	2.6113e-003
2458	9.5535	3.0909	0.	2.5673e-003
2459	9.5535	2.9091	0.	2.5673e-003
2460	9.5535	2.7273	0.	2.6116e-003
2461	9.5535	2.5455	0.	2.7001e-003
2462	9.5535	2.3636	0.	2.8289e-003
2463	9.5535	2.1818	0.	3.0011e-003
2464	9.5535	2.	0.	3.2121e-003
2465	9.5535	1.8182	0.	3.4597e-003
2466	9.5535	1.6364	0.	3.7423e-003
2467	9.5535	1.4545	0.	4.0616e-003
2468	9.5535	1.2727	0.	4.4043e-003
2469	9.5535	1.0909	0.	4.8183e-003
2470	9.5535	0.90909	0.	5.1454e-003
2471	9.5535	0.72727	0.	6.1562e-003
2472	9.5535	0.54545	0.	5.1122e-003
2473	9.5535	0.36364	0.	2.7696e-002
2474	9.5535	0.18182	0.	5.4652
2475	9.3698	5.8182	0.	4.7329
2476	9.3698	5.6364	0.	2.5502e-002
2477	9.3698	5.4545	0.	5.8038e-003
2478	9.3698	5.2727	0.	6.702e-003
2479	9.3698	5.0909	0.	5.4323e-003
2480	9.3698	4.9091	0.	4.9844e-003
2481	9.3698	4.7273	0.	4.4651e-003
2482	9.3698	4.5455	0.	4.0412e-003
2483	9.3698	4.3636	0.	3.6542e-003
2484	9.3698	4.1818	0.	3.3153e-003
2485	9.3698	4.	0.	3.0214e-003
2486	9.3698	3.8182	0.	2.7713e-003
2487	9.3698	3.6364	0.	2.5698e-003
2488	9.3698	3.4545	0.	2.4179e-003
2489	9.3698	3.2727	0.	2.3152e-003
2490	9.3698	3.0909	0.	2.2625e-003
2491	9.3698	2.9091	0.	2.2629e-003
2492	9.3698	2.7273	0.	2.3151e-003
2493	9.3698	2.5455	0.	2.4178e-003
2494	9.3698	2.3636	0.	2.5701e-003
2495	9.3698	2.1818	0.	2.772e-003
2496	9.3698	2.	0.	3.0217e-003
2497	9.3698	1.8182	0.	3.3162e-003
2498	9.3698	1.6364	0.	3.6546e-003
2499	9.3698	1.4545	0.	4.0417e-003
2500	9.3698	1.2727	0.	4.4657e-003
2501	9.3698	1.0909	0.	4.9848e-003
2502	9.3698	0.90909	0.	5.4344e-003
2503	9.3698	0.72727	0.	6.7027e-003
2504	9.3698	0.54545	0.	5.8039e-003
2505	9.3698	0.36364	0.	2.5504e-002
2506	9.3698	0.18182	0.	4.733
2507	9.186	5.8182	0.	3.9609
2508	9.186	5.6364	0.	2.7192e-002
2509	9.186	5.4545	0.	6.5895e-003
2510	9.186	5.2727	0.	7.3408e-003
2511	9.186	5.0909	0.	5.7831e-003
2512	9.186	4.9091	0.	5.1943e-003
2513	9.186	4.7273	0.	4.5536e-003
2514	9.186	4.5455	0.	4.0372e-003
2515	9.186	4.3636	0.	3.5728e-003
2516	9.186	4.1818	0.	3.1699e-003
2517	9.186	4.	0.	2.8226e-003
2518	9.186	3.8182	0.	2.5296e-003
2519	9.186	3.6364	0.	2.2937e-003
2520	9.186	3.4545	0.	2.1165e-003
2521	9.186	3.2727	0.	1.9968e-003
2522	9.186	3.0909	0.	1.9364e-003
2523	9.186	2.9091	0.	1.9364e-003
2524	9.186	2.7273	0.	1.9969e-003
2525	9.186	2.5455	0.	2.1167e-003
2526	9.186	2.3636	0.	2.2938e-003
2527	9.186	2.1818	0.	2.53e-003
2528	9.186	2.	0.	2.8228e-003
2529	9.186	1.8182	0.	3.1704e-003
2530	9.186	1.6364	0.	3.5735e-003
2531	9.186	1.4545	0.	4.0379e-003
2532	9.186	1.2727	0.	4.5546e-003
2533	9.186	1.0909	0.	5.1949e-003
2534	9.186	0.90909	0.	5.7847e-003
2535	9.186	0.72727	0.	7.342e-003
2536	9.186	0.54545	0.	6.5897e-003
2537	9.186	0.36364	0.	2.7193e-002
2538	9.186	0.18182	0.	3.961
2539	9.0023	5.8182	0.	3.1499
2540	9.0023	5.6364	0.	2.9762e-002
2541	9.0023	5.4545	0.	7.4719e-003
2542	9.0023	5.2727	0.	8.0748e-003
2543	9.0023	5.0909	0.	6.2e-003
2544	9.0023	4.9091	0.	5.4531e-003
2545	9.0023	4.7273	0.	4.6762e-003
2546	9.0023	4.5455	0.	4.0558e-003
2547	9.0023	4.3636	0.	3.5041e-003
2548	9.0023	4.1818	0.	3.0293e-003
2549	9.0023	4.	0.	2.6224e-003
2550	9.0023	3.8182	0.	2.2814e-003
2551	9.0023	3.6364	0.	2.0075e-003
2552	9.0023	3.4545	0.	1.8017e-003
2553	9.0023	3.2727	0.	1.6638e-003
2554	9.0023	3.0909	0.	1.5937e-003
2555	9.0023	2.9091	0.	1.5937e-003
2556	9.0023	2.7273	0.	1.6636e-003
2557	9.0023	2.5455	0.	1.8022e-003
2558	9.0023	2.3636	0.	2.0077e-003
2559	9.0023	2.1818	0.	2.2817e-003
2560	9.0023	2.	0.	2.6229e-003
2561	9.0023	1.8182	0.	3.0301e-003
2562	9.0023	1.6364	0.	3.5045e-003
2563	9.0023	1.4545	0.	4.0562e-003
2564	9.0023	1.2727	0.	4.6772e-003
2565	9.0023	1.0909	0.	5.4535e-003
2566	9.0023	0.90909	0.	6.2015e-003
2567	9.0023	0.72727	0.	8.0758e-003
2568	9.0023	0.54545	0.	7.4719e-003
2569	9.0023	0.36364	0.	2.9763e-002
2570	9.0023	0.18182	0.	3.15
2571	8.8186	5.8182	0.	2.3062
2572	8.8186	5.6364	0.	3.2813e-002
2573	8.8186	5.4545	0.	8.4412e-003
2574	8.8186	5.2727	0.	8.8938e-003
2575	8.8186	5.0909	0.	6.6742e-003
2576	8.8186	4.9091	0.	5.7513e-003
2577	8.8186	4.7273	0.	4.8242e-003
2578	8.8186	4.5455	0.	4.0864e-003
2579	8.8186	4.3636	0.	3.4383e-003
2580	8.8186	4.1818	0.	2.8843e-003
2581	8.8186	4.	0.	2.411e-003
2582	8.8186	3.8182	0.	2.0169e-003
2583	8.8186	3.6364	0.	1.7004e-003
2584	8.8186	3.4545	0.	1.4641e-003
2585	8.8186	3.2727	0.	1.3049e-003
2586	8.8186	3.0909	0.	1.225e-003
2587	8.8186	2.9091	0.	1.225e-003
2588	8.8186	2.7273	0.	1.305e-003
2589	8.8186	2.5455	0.	1.4643e-003
2590	8.8186	2.3636	0.	1.7007e-003
2591	8.8186	2.1818	0.	2.0171e-003
2592	8.8186	2.	0.	2.4117e-003
2593	8.8186	1.8182	0.	2.8845e-003
2594	8.8186	1.6364	0.	3.4389e-003
2595	8.8186	1.4545	0.	4.0872e-003
2596	8.8186	1.2727	0.	4.8246e-003
2597	8.8186	1.0909	0.	5.7522e-003
2598	8.8186	0.90909	0.	6.6757e-003
2599	8.8186	0.72727	0.	8.8948e-003
2600	8.8186	0.54545	0.	8.4418e-003
2601	8.8186	0.36364	0.	3.2814e-002
2602	8.8186	0.18182	0.	2.3063
2603	8.6349	5.8182	0.	1.4565
2604	8.6349	5.6364	0.	3.6251e-002
2605	8.6349	5.4545	0.	9.5044e-003
2606	8.6349	5.2727	0.	9.8011e-003
2607	8.6349	5.0909	0.	7.2069e-003
2608	8.6349	4.9091	0.	6.091e-003
2609	8.6349	4.7273	0.	4.9966e-003
2610	8.6349	4.5455	0.	4.131e-003
2611	8.6349	4.3636	0.	3.376e-003
2612	8.6349	4.1818	0.	2.7339e-003
2613	8.6349	4.	0.	2.1879e-003
2614	8.6349	3.8182	0.	1.7345e-003
2615	8.6349	3.6364	0.	1.3722e-003
2616	8.6349	3.4545	0.	1.1012e-003
2617	8.6349	3.2727	0.	9.195e-004
2618	8.6349	3.0909	0.	8.2825e-004
2619	8.6349	2.9091	0.	8.2813e-004
2620	8.6349	2.7273	0.	9.1986e-004
2621	8.6349	2.5455	0.	1.1015e-003
2622	8.6349	2.3636	0.	1.3729e-003
2623	8.6349	2.1818	0.	1.7345e-003
2624	8.6349	2.	0.	2.1885e-003
2625	8.6349	1.8182	0.	2.7343e-003
2626	8.6349	1.6364	0.	3.3766e-003
2627	8.6349	1.4545	0.	4.1316e-003
2628	8.6349	1.2727	0.	4.9976e-003
2629	8.6349	1.0909	0.	6.0915e-003
2630	8.6349	0.90909	0.	7.2084e-003
2631	8.6349	0.72727	0.	9.8026e-003
2632	8.6349	0.54545	0.	9.5045e-003
2633	8.6349	0.36364	0.	3.6253e-002
2634	8.6349	0.18182	0.	1.4566
2635	8.4512	5.8182	0.	0.7174
2636	8.4512	5.6364	0.	4.0062e-002
2637	8.4512	5.4545	0.	1.0672e-002
2638	8.4512	5.2727	0.	1.0807e-002
2639	8.4512	5.0909	0.	7.8057e-003
2640	8.4512	4.9091	0.	6.4782e-003
2641	8.4512	4.7273	0.	5.2019e-003
2642	8.4512	4.5455	0.	4.1944e-003
2643	8.4512	4.3636	0.	3.3226e-003
2644	8.4512	4.1818	0.	2.5832e-003
2645	8.4512	4.	0.	1.9582e-003
2646	8.4512	3.8182	0.	1.4397e-003
2647	8.4512	3.6364	0.	1.0259e-003
2648	8.4512	3.4545	0.	7.1762e-004
2649	8.4512	3.2727	0.	5.1108e-004
2650	8.4512	3.0909	0.	4.0711e-004
2651	8.4512	2.9091	0.	4.0735e-004
2652	8.4512	2.7273	0.	5.112e-004
2653	8.4512	2.5455	0.	7.1786e-004
2654	8.4512	2.3636	0.	1.0263e-003
2655	8.4512	2.1818	0.	1.4402e-003
2656	8.4512	2.	0.	1.9583e-003
2657	8.4512	1.8182	0.	2.584e-003
2658	8.4512	1.6364	0.	3.3231e-003
2659	8.4512	1.4545	0.	4.195e-003
2660	8.4512	1.2727	0.	5.2025e-003
2661	8.4512	1.0909	0.	6.4792e-003
2662	8.4512	0.90909	0.	7.8068e-003
2663	8.4512	0.72727	0.	1.0808e-002
2664	8.4512	0.54545	0.	1.0673e-002
2665	8.4512	0.36364	0.	4.0063e-002
2666	8.4512	0.18182	0.	0.71745
2667	8.2674	5.8182	0.	0.33064
2668	8.2674	5.6364	0.	4.4252e-002
2669	8.2674	5.4545	0.	1.1954e-002
2670	8.2674	5.2727	0.	1.1916e-002
2671	8.2674	5.0909	0.	8.4749e-003
2672	8.2674	4.9091	0.	6.9168e-003
2673	8.2674	4.7273	0.	5.4409e-003
2674	8.2674	4.5455	0.	4.2786e-003
2675	8.2674	4.3636	0.	3.278e-003
2676	8.2674	4.1818	0.	2.4333e-003
2677	8.2674	4.	0.	1.7203e-003
2678	8.2674	3.8182	0.	1.1308e-003
2679	8.2674	3.6364	0.	6.6192e-004
2680	8.2674	3.4545	0.	3.1215e-004
2681	8.2674	3.2727	0.	7.8025e-005
2682	8.2674	3.0909	0.	-3.9294e-005
2683	8.2674	2.9091	0.	-3.9057e-005
2684	8.2674	2.7273	0.	7.8202e-005
2685	8.2674	2.5455	0.	3.1215e-004
2686	8.2674	2.3636	0.	6.6233e-004
2687	8.2674	2.1818	0.	1.1313e-003
2688	8.2674	2.	0.	1.7209e-003
2689	8.2674	1.8182	0.	2.4334e-003
2690	8.2674	1.6364	0.	3.2786e-003
2691	8.2674	1.4545	0.	4.2793e-003
2692	8.2674	1.2727	0.	5.4414e-003
2693	8.2674	1.0909	0.	6.9175e-003
2694	8.2674	0.90909	0.	8.4762e-003
2695	8.2674	0.72727	0.	1.1918e-002
2696	8.2674	0.54545	0.	1.1954e-002
2697	8.2674	0.36364	0.	4.4253e-002
2698	8.2674	0.18182	0.	0.33066
2699	8.0837	5.8182	0.	0.20297
2700	8.0837	5.6364	0.	4.8833e-002
2701	8.0837	5.4545	0.	1.3351e-002
2702	8.0837	5.2727	0.	1.313e-002
2703	8.0837	5.0909	0.	9.2107e-003
2704	8.0837	4.9091	0.	7.4016e-003
2705	8.0837	4.7273	0.	5.7074e-003
2706	8.0837	4.5455	0.	4.3766e-003
2707	8.0837	4.3636	0.	3.2359e-003
2708	8.0837	4.1818	0.	2.2744e-003
2709	8.0837	4.	0.	1.4663e-003
2710	8.0837	3.8182	0.	7.9914e-004
2711	8.0837	3.6364	0.	2.6951e-004
2712	8.0837	3.4545	0.	-1.2589e-004
2713	8.0837	3.2727	0.	-3.8959e-004
2714	8.0837	3.0909	0.	-5.2166e-004
2715	8.0837	2.9091	0.	-5.2148e-004
2716	8.0837	2.7273	0.	-3.8935e-004
2717	8.0837	2.5455	0.	-1.2536e-004
2718	8.0837	2.3636	0.	2.6944e-004
2719	8.0837	2.1818	0.	7.9925e-004
2720	8.0837	2.	0.	1.4666e-003
2721	8.0837	1.8182	0.	2.2754e-003
2722	8.0837	1.6364	0.	3.2361e-003
2723	8.0837	1.4545	0.	4.3773e-003
2724	8.0837	1.2727	0.	5.7082e-003
2725	8.0837	1.0909	0.	7.4021e-003
2726	8.0837	0.90909	0.	9.2118e-003
2727	8.0837	0.72727	0.	1.3131e-002
2728	8.0837	0.54545	0.	1.3351e-002
2729	8.0837	0.36364	0.	4.8834e-002
2730	8.0837	0.18182	0.	0.20298
2731	7.9	5.8182	0.	0.1537
2732	7.9	5.6364	0.	5.3832e-002
2733	7.9	5.4545	0.	1.4876e-002
2734	7.9	5.2727	0.	1.4457e-002
2735	7.9	5.0909	0.	1.0021e-002
2736	7.9	4.9091	0.	7.9378e-003
2737	7.9	4.7273	0.	6.0067e-003
2738	7.9	4.5455	0.	4.4919e-003
2739	7.9	4.3636	0.	3.197e-003
2740	7.9	4.1818	0.	2.11e-003
2741	7.9	4.	0.	1.1967e-003
2742	7.9	3.8182	0.	4.4529e-004
2743	7.9	3.6364	0.	-1.5129e-004
2744	7.9	3.4545	0.	-5.9537e-004
2745	7.9	3.2727	0.	-8.9177e-004
2746	7.9	3.0909	0.	-1.0403e-003
2747	7.9	2.9091	0.	-1.0403e-003
2748	7.9	2.7273	0.	-8.9183e-004
2749	7.9	2.5455	0.	-5.9543e-004
2750	7.9	2.3636	0.	-1.5088e-004
2751	7.9	2.1818	0.	4.457e-004
2752	7.9	2.	0.	1.1975e-003
2753	7.9	1.8182	0.	2.1104e-003
2754	7.9	1.6364	0.	3.1977e-003
2755	7.9	1.4545	0.	4.492e-003
2756	7.9	1.2727	0.	6.0075e-003
2757	7.9	1.0909	0.	7.9385e-003
2758	7.9	0.90909	0.	1.0022e-002
2759	7.9	0.72727	0.	1.4458e-002
2760	7.9	0.54545	0.	1.4877e-002
2761	7.9	0.36364	0.	5.3833e-002
2762	7.9	0.18182	0.	0.15371
2763	7.7163	5.8182	0.	0.13039
2764	7.7163	5.6364	0.	5.929e-002
2765	7.7163	5.4545	0.	1.6547e-002
2766	7.7163	5.2727	0.	1.5914e-002
2767	7.7163	5.0909	0.	1.0916e-002
2768	7.7163	4.9091	0.	8.536e-003
2769	7.7163	4.7273	0.	6.3463e-003
2770	7.7163	4.5455	0.	4.6298e-003
2771	7.7163	4.3636	0.	3.1693e-003
2772	7.7163	4.1818	0.	1.9436e-003
2773	7.7163	4.	0.	9.1675e-004
2774	7.7163	3.8182	0.	7.3243e-005
2775	7.7163	3.6364	0.	-5.9619e-004
2776	7.7163	3.4545	0.	-1.0941e-003
2777	7.7163	3.2727	0.	-1.4263e-003
2778	7.7163	3.0909	0.	-1.5925e-003
2779	7.7163	2.9091	0.	-1.5923e-003
2780	7.7163	2.7273	0.	-1.4261e-003
2781	7.7163	2.5455	0.	-1.0941e-003
2782	7.7163	2.3636	0.	-5.9589e-004
2783	7.7163	2.1818	0.	7.2938e-005
2784	7.7163	2.	0.	9.1733e-004
2785	7.7163	1.8182	0.	1.9444e-003
2786	7.7163	1.6364	0.	3.1695e-003
2787	7.7163	1.4545	0.	4.6308e-003
2788	7.7163	1.2727	0.	6.3469e-003
2789	7.7163	1.0909	0.	8.5367e-003
2790	7.7163	0.90909	0.	1.0917e-002
2791	7.7163	0.72727	0.	1.5915e-002
2792	7.7163	0.54545	0.	1.6548e-002
2793	7.7163	0.36364	0.	5.9292e-002
2794	7.7163	0.18182	0.	0.13039
2795	7.5326	5.8182	0.	0.11836
2796	7.5326	5.6364	0.	6.5239e-002
2797	7.5326	5.4545	0.	1.8373e-002
2798	7.5326	5.2727	0.	1.7505e-002
2799	7.5326	5.0909	0.	1.1898e-002
2800	7.5326	4.9091	0.	9.1944e-003
2801	7.5326	4.7273	0.	6.7238e-003
2802	7.5326	4.5455	0.	4.7892e-003
2803	7.5326	4.3636	0.	3.146e-003
2804	7.5326	4.1818	0.	1.7707e-003
2805	7.5326	4.	0.	6.1982e-004
2806	7.5326	3.8182	0.	-3.2511e-004
2807	7.5326	3.6364	0.	-1.0735e-003
2808	7.5326	3.4545	0.	-1.63e-003
2809	7.5326	3.2727	0.	-2.0011e-003
2810	7.5326	3.0909	0.	-2.1862e-003
2811	7.5326	2.9091	0.	-2.1862e-003
2812	7.5326	2.7273	0.	-2.0007e-003
2813	7.5326	2.5455	0.	-1.6298e-003
2814	7.5326	2.3636	0.	-1.0729e-003
2815	7.5326	2.1818	0.	-3.2482e-004
2816	7.5326	2.	0.	6.2022e-004
2817	7.5326	1.8182	0.	1.7711e-003
2818	7.5326	1.6364	0.	3.1467e-003
2819	7.5326	1.4545	0.	4.7898e-003
2820	7.5326	1.2727	0.	6.7246e-003
2821	7.5326	1.0909	0.	9.1953e-003
2822	7.5326	0.90909	0.	1.19e-002
2823	7.5326	0.72727	0.	1.7506e-002
2824	7.5326	0.54545	0.	1.8373e-002
2825	7.5326	0.36364	0.	6.524e-002
2826	7.5326	0.18182	0.	0.11836
2827	7.3488	5.8182	0.	0.11238
2828	7.3488	5.6364	0.	7.1719e-002
2829	7.3488	5.4545	0.	2.0365e-002
2830	7.3488	5.2727	0.	1.924e-002
2831	7.3488	5.0909	0.	1.2972e-002
2832	7.3488	4.9091	0.	9.9167e-003
2833	7.3488	4.7273	0.	7.1403e-003
2834	7.3488	4.5455	0.	4.9674e-003
2835	7.3488	4.3636	0.	3.1265e-003
2836	7.3488	4.1818	0.	1.5872e-003
2837	7.3488	4.	0.	3.0123e-004
2838	7.3488	3.8182	0.	-7.5327e-004
2839	7.3488	3.6364	0.	-1.5877e-003
2840	7.3488	3.4545	0.	-2.208e-003
2841	7.3488	3.2727	0.	-2.6212e-003
2842	7.3488	3.0909	0.	-2.8279e-003
2843	7.3488	2.9091	0.	-2.8277e-003
2844	7.3488	2.7273	0.	-2.621e-003
2845	7.3488	2.5455	0.	-2.2082e-003
2846	7.3488	2.3636	0.	-1.5875e-003
2847	7.3488	2.1818	0.	-7.5263e-004
2848	7.3488	2.	0.	3.0176e-004
2849	7.3488	1.8182	0.	1.5877e-003
2850	7.3488	1.6364	0.	3.1268e-003
2851	7.3488	1.4545	0.	4.968e-003
2852	7.3488	1.2727	0.	7.1411e-003
2853	7.3488	1.0909	0.	9.9174e-003
2854	7.3488	0.90909	0.	1.2973e-002
2855	7.3488	0.72727	0.	1.9241e-002
2856	7.3488	0.54545	0.	2.0365e-002
2857	7.3488	0.36364	0.	7.172e-002
2858	7.3488	0.18182	0.	0.11238
2859	7.1651	5.8182	0.	0.11017
2860	7.1651	5.6364	0.	7.8785e-002
2861	7.1651	5.4545	0.	2.2548e-002
2862	7.1651	5.2727	0.	2.114e-002
2863	7.1651	5.0909	0.	1.4155e-002
2864	7.1651	4.9091	0.	1.0717e-002
2865	7.1651	4.7273	0.	7.6076e-003
2866	7.1651	4.5455	0.	5.1758e-003
2867	7.1651	4.3636	0.	3.1194e-003
2868	7.1651	4.1818	0.	1.4022e-003
2869	7.1651	4.	0.	-3.1013e-005
2870	7.1651	3.8182	0.	-1.2053e-003
2871	7.1651	3.6364	0.	-2.1335e-003
2872	7.1651	3.4545	0.	-2.8238e-003
2873	7.1651	3.2727	0.	-3.2831e-003
2874	7.1651	3.0909	0.	-3.5122e-003
2875	7.1651	2.9091	0.	-3.5122e-003
2876	7.1651	2.7273	0.	-3.2827e-003
2877	7.1651	2.5455	0.	-2.8231e-003
2878	7.1651	2.3636	0.	-2.1333e-003
2879	7.1651	2.1818	0.	-1.205e-003
2880	7.1651	2.	0.	-3.0546e-005
2881	7.1651	1.8182	0.	1.4026e-003
2882	7.1651	1.6364	0.	3.1201e-003
2883	7.1651	1.4545	0.	5.1764e-003
2884	7.1651	1.2727	0.	7.6086e-003
2885	7.1651	1.0909	0.	1.0717e-002
2886	7.1651	0.90909	0.	1.4157e-002
2887	7.1651	0.72727	0.	2.1141e-002
2888	7.1651	0.54545	0.	2.2548e-002
2889	7.1651	0.36364	0.	7.8786e-002
2890	7.1651	0.18182	0.	0.11018
2891	6.9814	5.8182	0.	0.11067
2892	6.9814	5.6364	0.	8.649e-002
2893	6.9814	5.4545	0.	2.4942e-002
2894	6.9814	5.2727	0.	2.322e-002
2895	6.9814	5.0909	0.	1.5456e-002
2896	6.9814	4.9091	0.	1.1601e-002
2897	6.9814	4.7273	0.	8.1306e-003
2898	6.9814	4.5455	0.	5.4169e-003
2899	6.9814	4.3636	0.	3.1256e-003
2900	6.9814	4.1818	0.	1.2145e-003
2901	6.9814	4.	0.	-3.7899e-004
2902	6.9814	3.8182	0.	-1.6832e-003
2903	6.9814	3.6364	0.	-2.7137e-003
2904	6.9814	3.4545	0.	-3.4796e-003
2905	6.9814	3.2727	0.	-3.9888e-003
2906	6.9814	3.0909	0.	-4.2432e-003
2907	6.9814	2.9091	0.	-4.2434e-003
2908	6.9814	2.7273	0.	-3.9887e-003
2909	6.9814	2.5455	0.	-3.4796e-003
2910	6.9814	2.3636	0.	-2.7137e-003
2911	6.9814	2.1818	0.	-1.6828e-003
2912	6.9814	2.	0.	-3.7882e-004
2913	6.9814	1.8182	0.	1.215e-003
2914	6.9814	1.6364	0.	3.1262e-003
2915	6.9814	1.4545	0.	5.4175e-003
2916	6.9814	1.2727	0.	8.1311e-003
2917	6.9814	1.0909	0.	1.1601e-002
2918	6.9814	0.90909	0.	1.5457e-002
2919	6.9814	0.72727	0.	2.3221e-002
2920	6.9814	0.54545	0.	2.4942e-002
2921	6.9814	0.36364	0.	8.6492e-002
2922	6.9814	0.18182	0.	0.11067
2923	6.7977	5.8182	0.	0.11331
2924	6.7977	5.6364	0.	9.4888e-002
2925	6.7977	5.4545	0.	2.756e-002
2926	6.7977	5.2727	0.	2.5491e-002
2927	6.7977	5.0909	0.	1.6879e-002
2928	6.7977	4.9091	0.	1.257e-002
2929	6.7977	4.7273	0.	8.7069e-003
2930	6.7977	4.5455	0.	5.6865e-003
2931	6.7977	4.3636	0.	3.1401e-003
2932	6.7977	4.1818	0.	1.0183e-003
2933	6.7977	4.	0.	-7.498e-004
2934	6.7977	3.8182	0.	-2.1954e-003
2935	6.7977	3.6364	0.	-3.3374e-003
2936	6.7977	3.4545	0.	-4.1856e-003
2937	6.7977	3.2727	0.	-4.7494e-003
2938	6.7977	3.0909	0.	-5.0311e-003
2939	6.7977	2.9091	0.	-5.0311e-003
2940	6.7977	2.7273	0.	-4.7493e-003
2941	6.7977	2.5455	0.	-4.1856e-003
2942	6.7977	2.3636	0.	-3.3368e-003
2943	6.7977	2.1818	0.	-2.1951e-003
2944	6.7977	2.	0.	-7.4939e-004
2945	6.7977	1.8182	0.	1.0189e-003
2946	6.7977	1.6364	0.	3.1409e-003
2947	6.7977	1.4545	0.	5.6875e-003
2948	6.7977	1.2727	0.	8.7075e-003
2949	6.7977	1.0909	0.	1.2571e-002
2950	6.7977	0.90909	0.	1.688e-002
2951	6.7977	0.72727	0.	2.5492e-002
2952	6.7977	0.54545	0.	2.756e-002
2953	6.7977	0.36364	0.	9.489e-002
2954	6.7977	0.18182	0.	0.11332
2955	6.614	5.8182	0.	0.11784
2956	6.614	5.6364	0.	0.10404
2957	6.614	5.4545	0.	3.0426e-002
2958	6.614	5.2727	0.	2.797e-002
2959	6.614	5.0909	0.	1.8436e-002
2960	6.614	4.9091	0.	1.3634e-002
2961	6.614	4.7273	0.	9.3426e-003
2962	6.614	4.5455	0.	5.9889e-003
2963	6.614	4.3636	0.	3.1647e-003
2964	6.614	4.1818	0.	8.131e-004
2965	6.614	4.	0.	-1.1444e-003
2966	6.614	3.8182	0.	-2.7442e-003
2967	6.614	3.6364	0.	-4.0072e-003
2968	6.614	3.4545	0.	-4.9451e-003
2969	6.614	3.2727	0.	-5.5681e-003
2970	6.614	3.0909	0.	-5.8794e-003
2971	6.614	2.9091	0.	-5.8794e-003
2972	6.614	2.7273	0.	-5.5678e-003
2973	6.614	2.5455	0.	-4.9451e-003
2974	6.614	2.3636	0.	-4.0067e-003
2975	6.614	2.1818	0.	-2.7438e-003
2976	6.614	2.	0.	-1.1441e-003
2977	6.614	1.8182	0.	8.1374e-004
2978	6.614	1.6364	0.	3.1651e-003
2979	6.614	1.4545	0.	5.9895e-003
2980	6.614	1.2727	0.	9.3433e-003
2981	6.614	1.0909	0.	1.3635e-002
2982	6.614	0.90909	0.	1.8438e-002
2983	6.614	0.72727	0.	2.7971e-002
2984	6.614	0.54545	0.	3.0426e-002
2985	6.614	0.36364	0.	0.10404
2986	6.614	0.18182	0.	0.11784
2987	6.4302	5.8182	0.	0.12416
2988	6.4302	5.6364	0.	0.11404
2989	6.4302	5.4545	0.	3.3575e-002
2990	6.4302	5.2727	0.	3.0688e-002
2991	6.4302	5.0909	0.	2.0151e-002
2992	6.4302	4.9091	0.	1.4811e-002
2993	6.4302	4.7273	0.	1.0054e-002
2994	6.4302	4.5455	0.	6.337e-003
2995	6.4302	4.3636	0.	3.2108e-003
2996	6.4302	4.1818	0.	6.0962e-004
2997	6.4302	4.	0.	-1.5545e-003
2998	6.4302	3.8182	0.	-3.3216e-003
2999	6.4302	3.6364	0.	-4.7161e-003
3000	6.4302	3.4545	0.	-5.7516e-003
3001	6.4302	3.2727	0.	-6.4393e-003
3002	6.4302	3.0909	0.	-6.7824e-003
3003	6.4302	2.9091	0.	-6.7823e-003
3004	6.4302	2.7273	0.	-6.4391e-003
3005	6.4302	2.5455	0.	-5.7512e-003
3006	6.4302	2.3636	0.	-4.7158e-003
3007	6.4302	2.1818	0.	-3.3213e-003
3008	6.4302	2.	0.	-1.5542e-003
3009	6.4302	1.8182	0.	6.0993e-004
3010	6.4302	1.6364	0.	3.2115e-003
3011	6.4302	1.4545	0.	6.3376e-003
3012	6.4302	1.2727	0.	1.0055e-002
3013	6.4302	1.0909	0.	1.4812e-002
3014	6.4302	0.90909	0.	2.0153e-002
3015	6.4302	0.72727	0.	3.0688e-002
3016	6.4302	0.54545	0.	3.3576e-002
3017	6.4302	0.36364	0.	0.11404
3018	6.4302	0.18182	0.	0.12417
3019	6.2465	5.8182	0.	0.1323
3020	6.2465	5.6364	0.	0.12494
3021	6.2465	5.4545	0.	3.7032e-002
3022	6.2465	5.2727	0.	3.3661e-002
3023	6.2465	5.0909	0.	2.2033e-002
3024	6.2465	4.9091	0.	1.6106e-002
3025	6.2465	4.7273	0.	1.0843e-002
3026	6.2465	4.5455	0.	6.7302e-003
3027	6.2465	4.3636	0.	3.2754e-003
3028	6.2465	4.1818	0.	4.026e-004
3029	6.2465	4.	0.	-1.9856e-003
3030	6.2465	3.8182	0.	-3.9348e-003
3031	6.2465	3.6364	0.	-5.4723e-003
3032	6.2465	3.4545	0.	-6.6134e-003
3033	6.2465	3.2727	0.	-7.3709e-003
3034	6.2465	3.0909	0.	-7.7491e-003
3035	6.2465	2.9091	0.	-7.7491e-003
3036	6.2465	2.7273	0.	-7.3708e-003
3037	6.2465	2.5455	0.	-6.6135e-003
3038	6.2465	2.3636	0.	-5.4719e-003
3039	6.2465	2.1818	0.	-3.9345e-003
3040	6.2465	2.	0.	-1.9852e-003
3041	6.2465	1.8182	0.	4.0312e-004
3042	6.2465	1.6364	0.	3.2763e-003
3043	6.2465	1.4545	0.	6.7309e-003
3044	6.2465	1.2727	0.	1.0843e-002
3045	6.2465	1.0909	0.	1.6107e-002
3046	6.2465	0.90909	0.	2.2035e-002
3047	6.2465	0.72727	0.	3.3662e-002
3048	6.2465	0.54545	0.	3.7032e-002
3049	6.2465	0.36364	0.	0.12494
3050	6.2465	0.18182	0.	0.1323
3051	6.0628	5.8182	0.	0.14235
3052	6.0628	5.6364	0.	0.13685
3053	6.0628	5.4545	0.	4.0831e-002
3054	6.0628	5.2727	0.	3.6916e-002
3055	6.0628	5.0909	0.	2.41e-002
3056	6.0628	4.9091	0.	1.7533e-002
3057	6.0628	4.7273	0.	1.1717e-002
3058	6.0628	4.5455	0.	7.1752e-003
3059	6.0628	4.3636	0.	3.3629e-003
3060	6.0628	4.1818	0.	1.9467e-004
3061	6.0628	4.	0.	-2.4374e-003
3062	6.0628	3.8182	0.	-4.5839e-003
3063	6.0628	3.6364	0.	-6.2763e-003
3064	6.0628	3.4545	0.	-7.5324e-003
3065	6.0628	3.2727	0.	-8.3657e-003
3066	6.0628	3.0909	0.	-8.7813e-003
3067	6.0628	2.9091	0.	-8.7813e-003
3068	6.0628	2.7273	0.	-8.3656e-003
3069	6.0628	2.5455	0.	-7.5322e-003
3070	6.0628	2.3636	0.	-6.2761e-003
3071	6.0628	2.1818	0.	-4.5836e-003
3072	6.0628	2.	0.	-2.4369e-003
3073	6.0628	1.8182	0.	1.9525e-004
3074	6.0628	1.6364	0.	3.3635e-003
3075	6.0628	1.4545	0.	7.1759e-003
3076	6.0628	1.2727	0.	1.1718e-002
3077	6.0628	1.0909	0.	1.7534e-002
3078	6.0628	0.90909	0.	2.4101e-002
3079	6.0628	0.72727	0.	3.6917e-002
3080	6.0628	0.54545	0.	4.0831e-002
3081	6.0628	0.36364	0.	0.13685
3082	6.0628	0.18182	0.	0.14235
3083	5.8791	5.8182	0.	0.1545
3084	5.8791	5.6364	0.	0.14987
3085	5.8791	5.4545	0.	4.5015e-002
3086	5.8791	5.2727	0.	4.049e-002
3087	5.8791	5.0909	0.	2.6378e-002
3088	5.8791	4.9091	0.	1.9112e-002
3089	5.8791	4.7273	0.	1.2696e-002
3090	5.8791	4.5455	0.	7.6852e-003
3091	5.8791	4.3636	0.	3.484e-003
3092	5.8791	4.1818	0.	-5.2678e-006
3093	5.8791	4.	0.	-2.9016e-003
3094	5.8791	3.8182	0.	-5.2626e-003
3095	5.8791	3.6364	0.	-7.1228e-003
3096	5.8791	3.4545	0.	-8.503e-003
3097	5.8791	3.2727	0.	-9.4182e-003
3098	5.8791	3.0909	0.	-9.8747e-003
3099	5.8791	2.9091	0.	-9.8746e-003
3100	5.8791	2.7273	0.	-9.4182e-003
3101	5.8791	2.5455	0.	-8.5027e-003
3102	5.8791	2.3636	0.	-7.1226e-003
3103	5.8791	2.1818	0.	-5.2623e-003
3104	5.8791	2.	0.	-2.9012e-003
3105	5.8791	1.8182	0.	-4.6288e-006
3106	5.8791	1.6364	0.	3.4846e-003
3107	5.8791	1.4545	0.	7.6861e-003
3108	5.8791	1.2727	0.	1.2696e-002
3109	5.8791	1.0909	0.	1.9113e-002
3110	5.8791	0.90909	0.	2.6379e-002
3111	5.8791	0.72727	0.	4.049e-002
3112	5.8791	0.54545	0.	4.5015e-002
3113	5.8791	0.36364	0.	0.14987
3114	5.8791	0.18182	0.	0.1545
3115	5.6953	5.8182	0.	0.169
3116	5.6953	5.6364	0.	0.16409
3117	5.6953	5.4545	0.	4.9617e-002
3118	5.6953	5.2727	0.	4.4403e-002
3119	5.6953	5.0909	0.	2.8878e-002
3120	5.6953	4.9091	0.	2.085e-002
3121	5.6953	4.7273	0.	1.3778e-002
3122	5.6953	4.5455	0.	8.2581e-003
3123	5.6953	4.3636	0.	3.634e-003
3124	5.6953	4.1818	0.	-2.0367e-004
3125	5.6953	4.	0.	-3.3872e-003
3126	5.6953	3.8182	0.	-5.9799e-003
3127	5.6953	3.6364	0.	-8.0216e-003
3128	5.6953	3.4545	0.	-9.5357e-003
3129	5.6953	3.2727	0.	-1.0539e-002
3130	5.6953	3.0909	0.	-1.104e-002
3131	5.6953	2.9091	0.	-1.1039e-002
3132	5.6953	2.7273	0.	-1.0539e-002
3133	5.6953	2.5455	0.	-9.5355e-003
3134	5.6953	2.3636	0.	-8.0213e-003
3135	5.6953	2.1818	0.	-5.9793e-003
3136	5.6953	2.	0.	-3.3868e-003
3137	5.6953	1.8182	0.	-2.0315e-004
3138	5.6953	1.6364	0.	3.6344e-003
3139	5.6953	1.4545	0.	8.2584e-003
3140	5.6953	1.2727	0.	1.3779e-002
3141	5.6953	1.0909	0.	2.085e-002
3142	5.6953	0.90909	0.	2.8879e-002
3143	5.6953	0.72727	0.	4.4404e-002
3144	5.6953	0.54545	0.	4.9618e-002
3145	5.6953	0.36364	0.	0.16409
3146	5.6953	0.18182	0.	0.16901
3147	5.5116	5.8182	0.	0.18619
3148	5.5116	5.6364	0.	0.17966
3149	5.5116	5.4545	0.	5.469e-002
3150	5.5116	5.2727	0.	4.8697e-002
3151	5.5116	5.0909	0.	3.1629e-002
3152	5.5116	4.9091	0.	2.2767e-002
3153	5.5116	4.7273	0.	1.4982e-002
3154	5.5116	4.5455	0.	8.9058e-003
3155	5.5116	4.3636	0.	3.8223e-003
3156	5.5116	4.1818	0.	-3.9342e-004
3157	5.5116	4.	0.	-3.8874e-003
3158	5.5116	3.8182	0.	-6.7307e-003
3159	5.5116	3.6364	0.	-8.9678e-003
3160	5.5116	3.4545	0.	-1.0626e-002
3161	5.5116	3.2727	0.	-1.1725e-002
3162	5.5116	3.0909	0.	-1.2272e-002
3163	5.5116	2.9091	0.	-1.2272e-002
3164	5.5116	2.7273	0.	-1.1724e-002
3165	5.5116	2.5455	0.	-1.0626e-002
3166	5.5116	2.3636	0.	-8.9677e-003
3167	5.5116	2.1818	0.	-6.7302e-003
3168	5.5116	2.	0.	-3.8868e-003
3169	5.5116	1.8182	0.	-3.9272e-004
3170	5.5116	1.6364	0.	3.8229e-003
3171	5.5116	1.4545	0.	8.9065e-003
3172	5.5116	1.2727	0.	1.4983e-002
3173	5.5116	1.0909	0.	2.2767e-002
3174	5.5116	0.90909	0.	3.1631e-002
3175	5.5116	0.72727	0.	4.8697e-002
3176	5.5116	0.54545	0.	5.469e-002
3177	5.5116	0.36364	0.	0.17966
3178	5.5116	0.18182	0.	0.1862
3179	5.3279	5.8182	0.	0.20651
3180	5.3279	5.6364	0.	0.1967
3181	5.3279	5.4545	0.	6.0294e-002
3182	5.3279	5.2727	0.	5.3418e-002
3183	5.3279	5.0909	0.	3.4666e-002
3184	5.3279	4.9091	0.	2.489e-002
3185	5.3279	4.7273	0.	1.6327e-002
3186	5.3279	4.5455	0.	9.6466e-003
3187	5.3279	4.3636	0.	4.0633e-003
3188	5.3279	4.1818	0.	-5.6182e-004
3189	5.3279	4.	0.	-4.3916e-003
3190	5.3279	3.8182	0.	-7.5045e-003
3191	5.3279	3.6364	0.	-9.9518e-003
3192	5.3279	3.4545	0.	-1.1764e-002
3193	5.3279	3.2727	0.	-1.2964e-002
3194	5.3279	3.0909	0.	-1.3562e-002
3195	5.3279	2.9091	0.	-1.3562e-002
3196	5.3279	2.7273	0.	-1.2964e-002
3197	5.3279	2.5455	0.	-1.1764e-002
3198	5.3279	2.3636	0.	-9.9516e-003
3199	5.3279	2.1818	0.	-7.504e-003
3200	5.3279	2.	0.	-4.3912e-003
3201	5.3279	1.8182	0.	-5.6145e-004
3202	5.3279	1.6364	0.	4.064e-003
3203	5.3279	1.4545	0.	9.6471e-003
3204	5.3279	1.2727	0.	1.6327e-002
3205	5.3279	1.0909	0.	2.4891e-002
3206	5.3279	0.90909	0.	3.4667e-002
3207	5.3279	0.72727	0.	5.3419e-002
3208	5.3279	0.54545	0.	6.0294e-002
3209	5.3279	0.36364	0.	0.19671
3210	5.3279	0.18182	0.	0.20651
3211	5.1442	5.8182	0.	0.23047
3212	5.1442	5.6364	0.	0.21539
3213	5.1442	5.4545	0.	6.6486e-002
3214	5.1442	5.2727	0.	5.8606e-002
3215	5.1442	5.0909	0.	3.8012e-002
3216	5.1442	4.9091	0.	2.7237e-002
3217	5.1442	4.7273	0.	1.7823e-002
3218	5.1442	4.5455	0.	1.0484e-002
3219	5.1442	4.3636	0.	4.3592e-003
3220	5.1442	4.1818	0.	-7.0916e-004
3221	5.1442	4.	0.	-4.9002e-003
3222	5.1442	3.8182	0.	-8.3025e-003
3223	5.1442	3.6364	0.	-1.0974e-002
3224	5.1442	3.4545	0.	-1.2951e-002
3225	5.1442	3.2727	0.	-1.4259e-002
3226	5.1442	3.0909	0.	-1.491e-002
3227	5.1442	2.9091	0.	-1.491e-002
3228	5.1442	2.7273	0.	-1.4259e-002
3229	5.1442	2.5455	0.	-1.2951e-002
3230	5.1442	2.3636	0.	-1.0974e-002
3231	5.1442	2.1818	0.	-8.3022e-003
3232	5.1442	2.	0.	-4.8998e-003
3233	5.1442	1.8182	0.	-7.0864e-004
3234	5.1442	1.6364	0.	4.3599e-003
3235	5.1442	1.4545	0.	1.0485e-002
3236	5.1442	1.2727	0.	1.7824e-002
3237	5.1442	1.0909	0.	2.7237e-002
3238	5.1442	0.90909	0.	3.8013e-002
3239	5.1442	0.72727	0.	5.8606e-002
3240	5.1442	0.54545	0.	6.6486e-002
3241	5.1442	0.36364	0.	0.21539
3242	5.1442	0.18182	0.	0.23047
3243	4.9605	5.8182	0.	0.25875
3244	4.9605	5.6364	0.	0.23588
3245	4.9605	5.4545	0.	7.3332e-002
3246	4.9605	5.2727	0.	6.4308e-002
3247	4.9605	5.0909	0.	4.1698e-002
3248	4.9605	4.9091	0.	2.9827e-002
3249	4.9605	4.7273	0.	1.9486e-002
3250	4.9605	4.5455	0.	1.143e-002
3251	4.9605	4.3636	0.	4.7174e-003
3252	4.9605	4.1818	0.	-8.2919e-004
3253	4.9605	4.	0.	-5.4082e-003
3254	4.9605	3.8182	0.	-9.1198e-003
3255	4.9605	3.6364	0.	-1.203e-002
3256	4.9605	3.4545	0.	-1.418e-002
3257	4.9605	3.2727	0.	-1.5601e-002
3258	4.9605	3.0909	0.	-1.6308e-002
3259	4.9605	2.9091	0.	-1.6308e-002
3260	4.9605	2.7273	0.	-1.5601e-002
3261	4.9605	2.5455	0.	-1.418e-002
3262	4.9605	2.3636	0.	-1.2029e-002
3263	4.9605	2.1818	0.	-9.1194e-003
3264	4.9605	2.	0.	-5.4079e-003
3265	4.9605	1.8182	0.	-8.288e-004
3266	4.9605	1.6364	0.	4.7179e-003
3267	4.9605	1.4545	0.	1.1431e-002
3268	4.9605	1.2727	0.	1.9487e-002
3269	4.9605	1.0909	0.	2.9828e-002
3270	4.9605	0.90909	0.	4.1699e-002
3271	4.9605	0.72727	0.	6.4309e-002
3272	4.9605	0.54545	0.	7.3332e-002
3273	4.9605	0.36364	0.	0.23588
3274	4.9605	0.18182	0.	0.25876
3275	4.7767	5.8182	0.	0.29221
3276	4.7767	5.6364	0.	0.25839
3277	4.7767	5.4545	0.	8.0924e-002
3278	4.7767	5.2727	0.	7.0593e-002
3279	4.7767	5.0909	0.	4.5774e-002
3280	4.7767	4.9091	0.	3.2699e-002
3281	4.7767	4.7273	0.	2.1344e-002
3282	4.7767	4.5455	0.	1.2509e-002
3283	4.7767	4.3636	0.	5.1592e-003
3284	4.7767	4.1818	0.	-9.0211e-004
3285	4.7767	4.	0.	-5.896e-003
3286	4.7767	3.8182	0.	-9.9351e-003
3287	4.7767	3.6364	0.	-1.3096e-002
3288	4.7767	3.4545	0.	-1.5428e-002
3289	4.7767	3.2727	0.	-1.6967e-002
3290	4.7767	3.0909	0.	-1.7733e-002
3291	4.7767	2.9091	0.	-1.7732e-002
3292	4.7767	2.7273	0.	-1.6967e-002
3293	4.7767	2.5455	0.	-1.5428e-002
3294	4.7767	2.3636	0.	-1.3096e-002
3295	4.7767	2.1818	0.	-9.9347e-003
3296	4.7767	2.	0.	-5.8956e-003
3297	4.7767	1.8182	0.	-9.016e-004
3298	4.7767	1.6364	0.	5.1598e-003
3299	4.7767	1.4545	0.	1.2509e-002
3300	4.7767	1.2727	0.	2.1345e-002
3301	4.7767	1.0909	0.	3.27e-002
3302	4.7767	0.90909	0.	4.5775e-002
3303	4.7767	0.72727	0.	7.0594e-002
3304	4.7767	0.54545	0.	8.0924e-002
3305	4.7767	0.36364	0.	0.25839
3306	4.7767	0.18182	0.	0.29221
3307	4.593	5.8182	0.	0.33189
3308	4.593	5.6364	0.	0.28315
3309	4.593	5.4545	0.	8.9352e-002
3310	4.593	5.2727	0.	7.7524e-002
3311	4.593	5.0909	0.	5.028e-002
3312	4.593	4.9091	0.	3.5882e-002
3313	4.593	4.7273	0.	2.3419e-002
3314	4.593	4.5455	0.	1.3735e-002
3315	4.593	4.3636	0.	5.6971e-003
3316	4.593	4.1818	0.	-9.1587e-004
3317	4.593	4.	0.	-6.3502e-003
3318	4.593	3.8182	0.	-1.0734e-002
3319	4.593	3.6364	0.	-1.4157e-002
3320	4.593	3.4545	0.	-1.6676e-002
3321	4.593	3.2727	0.	-1.8337e-002
3322	4.593	3.0909	0.	-1.9161e-002
3323	4.593	2.9091	0.	-1.9161e-002
3324	4.593	2.7273	0.	-1.8337e-002
3325	4.593	2.5455	0.	-1.6676e-002
3326	4.593	2.3636	0.	-1.4156e-002
3327	4.593	2.1818	0.	-1.0734e-002
3328	4.593	2.	0.	-6.3498e-003
3329	4.593	1.8182	0.	-9.154e-004
3330	4.593	1.6364	0.	5.6976e-003
3331	4.593	1.4545	0.	1.3735e-002
3332	4.593	1.2727	0.	2.342e-002
3333	4.593	1.0909	0.	3.5883e-002
3334	4.593	0.90909	0.	5.0281e-002
3335	4.593	0.72727	0.	7.7525e-002
3336	4.593	0.54545	0.	8.9352e-002
3337	4.593	0.36364	0.	0.28316
3338	4.593	0.18182	0.	0.33189
3339	4.4093	5.8182	0.	0.37912
3340	4.4093	5.6364	0.	0.31042
3341	4.4093	5.4545	0.	9.8714e-002
3342	4.4093	5.2727	0.	8.5166e-002
3343	4.4093	5.0909	0.	5.5256e-002
3344	4.4093	4.9091	0.	3.9401e-002
3345	4.4093	4.7273	0.	2.5726e-002
3346	4.4093	4.5455	0.	1.5118e-002
3347	4.4093	4.3636	0.	6.3391e-003
3348	4.4093	4.1818	0.	-8.6231e-004
3349	4.4093	4.	0.	-6.7607e-003
3350	4.4093	3.8182	0.	-1.1503e-002
3351	4.4093	3.6364	0.	-1.5194e-002
3352	4.4093	3.4545	0.	-1.7904e-002
3353	4.4093	3.2727	0.	-1.9686e-002
3354	4.4093	3.0909	0.	-2.0569e-002
3355	4.4093	2.9091	0.	-2.0569e-002
3356	4.4093	2.7273	0.	-1.9686e-002
3357	4.4093	2.5455	0.	-1.7904e-002
3358	4.4093	2.3636	0.	-1.5194e-002
3359	4.4093	2.1818	0.	-1.1503e-002
3360	4.4093	2.	0.	-6.7603e-003
3361	4.4093	1.8182	0.	-8.6184e-004
3362	4.4093	1.6364	0.	6.3397e-003
3363	4.4093	1.4545	0.	1.5119e-002
3364	4.4093	1.2727	0.	2.5727e-002
3365	4.4093	1.0909	0.	3.9402e-002
3366	4.4093	0.90909	0.	5.5257e-002
3367	4.4093	0.72727	0.	8.5166e-002
3368	4.4093	0.54545	0.	9.8714e-002
3369	4.4093	0.36364	0.	0.31043
3370	4.4093	0.18182	0.	0.37912
3371	4.2256	5.8182	0.	0.43561
3372	4.2256	5.6364	0.	0.34051
3373	4.2256	5.4545	0.	0.10913
3374	4.2256	5.2727	0.	9.3597e-002
3375	4.2256	5.0909	0.	6.0752e-002
3376	4.2256	4.9091	0.	4.3289e-002
3377	4.2256	4.7273	0.	2.8288e-002
3378	4.2256	4.5455	0.	1.6677e-002
3379	4.2256	4.3636	0.	7.1012e-003
3380	4.2256	4.1818	0.	-7.2362e-004
3381	4.2256	4.	0.	-7.106e-003
3382	4.2256	3.8182	0.	-1.2216e-002
3383	4.2256	3.6364	0.	-1.6176e-002
3384	4.2256	3.4545	0.	-1.9075e-002
3385	4.2256	3.2727	0.	-2.0975e-002
3386	4.2256	3.0909	0.	-2.1916e-002
3387	4.2256	2.9091	0.	-2.1916e-002
3388	4.2256	2.7273	0.	-2.0975e-002
3389	4.2256	2.5455	0.	-1.9075e-002
3390	4.2256	2.3636	0.	-1.6176e-002
3391	4.2256	2.1818	0.	-1.2215e-002
3392	4.2256	2.	0.	-7.1056e-003
3393	4.2256	1.8182	0.	-7.23e-004
3394	4.2256	1.6364	0.	7.1018e-003
3395	4.2256	1.4545	0.	1.6677e-002
3396	4.2256	1.2727	0.	2.8288e-002
3397	4.2256	1.0909	0.	4.329e-002
3398	4.2256	0.90909	0.	6.0754e-002
3399	4.2256	0.72727	0.	9.3598e-002
3400	4.2256	0.54545	0.	0.10913
3401	4.2256	0.36364	0.	0.34051
3402	4.2256	0.18182	0.	0.43561
3403	4.0419	5.8182	0.	0.50356
3404	4.0419	5.6364	0.	0.37377
3405	4.0419	5.4545	0.	0.12075
3406	4.0419	5.2727	0.	0.10292
3407	4.0419	5.0909	0.	6.6836e-002
3408	4.0419	4.9091	0.	4.7595e-002
3409	4.0419	4.7273	0.	3.1139e-002
3410	4.0419	4.5455	0.	1.8441e-002
3411	4.0419	4.3636	0.	8.0135e-003
3412	4.0419	4.1818	0.	-4.662e-004
3413	4.0419	4.	0.	-7.3462e-003
3414	4.0419	3.8182	0.	-1.2825e-002
3415	4.0419	3.6364	0.	-1.7049e-002
3416	4.0419	3.4545	0.	-2.0128e-002
3417	4.0419	3.2727	0.	-2.2138e-002
3418	4.0419	3.0909	0.	-2.3132e-002
3419	4.0419	2.9091	0.	-2.3132e-002
3420	4.0419	2.7273	0.	-2.2138e-002
3421	4.0419	2.5455	0.	-2.0127e-002
3422	4.0419	2.3636	0.	-1.7049e-002
3423	4.0419	2.1818	0.	-1.2824e-002
3424	4.0419	2.	0.	-7.3459e-003
3425	4.0419	1.8182	0.	-4.6581e-004
3426	4.0419	1.6364	0.	8.014e-003
3427	4.0419	1.4545	0.	1.8442e-002
3428	4.0419	1.2727	0.	3.114e-002
3429	4.0419	1.0909	0.	4.7596e-002
3430	4.0419	0.90909	0.	6.6837e-002
3431	4.0419	0.72727	0.	0.10292
3432	4.0419	0.54545	0.	0.12075
3433	4.0419	0.36364	0.	0.37377
3434	4.0419	0.18182	0.	0.50356
3435	3.8581	5.8182	0.	0.58584
3436	3.8581	5.6364	0.	0.41061
3437	3.8581	5.4545	0.	0.13372
3438	3.8581	5.2727	0.	0.11323
3439	3.8581	5.0909	0.	7.3561e-002
3440	3.8581	4.9091	0.	5.2349e-002
3441	3.8581	4.7273	0.	3.43e-002
3442	3.8581	4.5455	0.	2.0424e-002
3443	3.8581	4.3636	0.	9.0904e-003
3444	3.8581	4.1818	0.	-6.9746e-005
3445	3.8581	4.	0.	-7.4516e-003
3446	3.8581	3.8182	0.	-1.3289e-002
3447	3.8581	3.6364	0.	-1.7762e-002
3448	3.8581	3.4545	0.	-2.1002e-002
3449	3.8581	3.2727	0.	-2.311e-002
3450	3.8581	3.0909	0.	-2.4148e-002
3451	3.8581	2.9091	0.	-2.4148e-002
3452	3.8581	2.7273	0.	-2.3109e-002
3453	3.8581	2.5455	0.	-2.1002e-002
3454	3.8581	2.3636	0.	-1.7762e-002
3455	3.8581	2.1818	0.	-1.3289e-002
3456	3.8581	2.	0.	-7.4513e-003
3457	3.8581	1.8182	0.	-6.9007e-005
3458	3.8581	1.6364	0.	9.0909e-003
3459	3.8581	1.4545	0.	2.0424e-002
3460	3.8581	1.2727	0.	3.4301e-002
3461	3.8581	1.0909	0.	5.2349e-002
3462	3.8581	0.90909	0.	7.3562e-002
3463	3.8581	0.72727	0.	0.11323
3464	3.8581	0.54545	0.	0.13372
3465	3.8581	0.36364	0.	0.41061
3466	3.8581	0.18182	0.	0.58584
3467	3.6744	5.8182	0.	0.68625
3468	3.6744	5.6364	0.	0.45152
3469	3.6744	5.4545	0.	0.14824
3470	3.6744	5.2727	0.	0.12464
3471	3.6744	5.0909	0.	8.0992e-002
3472	3.6744	4.9091	0.	5.759e-002
3473	3.6744	4.7273	0.	3.7793e-002
3474	3.6744	4.5455	0.	2.2645e-002
3475	3.6744	4.3636	0.	1.0356e-002
3476	3.6744	4.1818	0.	5.0049e-004
3477	3.6744	4.	0.	-7.3748e-003
3478	3.6744	3.8182	0.	-1.3548e-002
3479	3.6744	3.6364	0.	-1.8239e-002
3480	3.6744	3.4545	0.	-2.1612e-002
3481	3.6744	3.2727	0.	-2.3793e-002
3482	3.6744	3.0909	0.	-2.4863e-002
3483	3.6744	2.9091	0.	-2.4863e-002
3484	3.6744	2.7273	0.	-2.3793e-002
3485	3.6744	2.5455	0.	-2.1612e-002
3486	3.6744	2.3636	0.	-1.8238e-002
3487	3.6744	2.1818	0.	-1.3548e-002
3488	3.6744	2.	0.	-7.3745e-003
3489	3.6744	1.8182	0.	5.0092e-004
3490	3.6744	1.6364	0.	1.0357e-002
3491	3.6744	1.4545	0.	2.2646e-002
3492	3.6744	1.2727	0.	3.7794e-002
3493	3.6744	1.0909	0.	5.7591e-002
3494	3.6744	0.90909	0.	8.0993e-002
3495	3.6744	0.72727	0.	0.12464
3496	3.6744	0.54545	0.	0.14824
3497	3.6744	0.36364	0.	0.45153
3498	3.6744	0.18182	0.	0.68625
3499	3.4907	5.8182	0.	0.80991
3500	3.4907	5.6364	0.	0.4971
3501	3.4907	5.4545	0.	0.16451
3502	3.4907	5.2727	0.	0.13729
3503	3.4907	5.0909	0.	8.9205e-002
3504	3.4907	4.9091	0.	6.3363e-002
3505	3.4907	4.7273	0.	4.1648e-002
3506	3.4907	4.5455	0.	2.5133e-002
3507	3.4907	4.3636	0.	1.1846e-002
3508	3.4907	4.1818	0.	1.2939e-003
3509	3.4907	4.	0.	-7.0474e-003
3510	3.4907	3.8182	0.	-1.3513e-002
3511	3.4907	3.6364	0.	-1.8374e-002
3512	3.4907	3.4545	0.	-2.1837e-002
3513	3.4907	3.2727	0.	-2.4059e-002
3514	3.4907	3.0909	0.	-2.5144e-002
3515	3.4907	2.9091	0.	-2.5144e-002
3516	3.4907	2.7273	0.	-2.4059e-002
3517	3.4907	2.5455	0.	-2.1837e-002
3518	3.4907	2.3636	0.	-1.8374e-002
3519	3.4907	2.1818	0.	-1.3513e-002
3520	3.4907	2.	0.	-7.0471e-003
3521	3.4907	1.8182	0.	1.2944e-003
3522	3.4907	1.6364	0.	1.1846e-002
3523	3.4907	1.4545	0.	2.5133e-002
3524	3.4907	1.2727	0.	4.1649e-002
3525	3.4907	1.0909	0.	6.3364e-002
3526	3.4907	0.90909	0.	8.9206e-002
3527	3.4907	0.72727	0.	0.13729
3528	3.4907	0.54545	0.	0.16451
3529	3.4907	0.36364	0.	0.4971
3530	3.4907	0.18182	0.	0.80991
3531	3.307	5.8182	0.	0.96387
3532	3.307	5.6364	0.	0.54801
3533	3.307	5.4545	0.	0.18279
3534	3.307	5.2727	0.	0.1513
3535	3.307	5.0909	0.	9.826e-002
3536	3.307	4.9091	0.	6.9693e-002
3537	3.307	4.7273	0.	4.5873e-002
3538	3.307	4.5455	0.	2.7895e-002
3539	3.307	4.3636	0.	1.3581e-002
3540	3.307	4.1818	0.	2.3535e-003
3541	3.307	4.	0.	-6.4017e-003
3542	3.307	3.8182	0.	-1.3093e-002
3543	3.307	3.6364	0.	-1.8054e-002
3544	3.307	3.4545	0.	-2.1544e-002
3545	3.307	3.2727	0.	-2.3763e-002
3546	3.307	3.0909	0.	-2.484e-002
3547	3.307	2.9091	0.	-2.4839e-002
3548	3.307	2.7273	0.	-2.3763e-002
3549	3.307	2.5455	0.	-2.1544e-002
3550	3.307	2.3636	0.	-1.8054e-002
3551	3.307	2.1818	0.	-1.3092e-002
3552	3.307	2.	0.	-6.4014e-003
3553	3.307	1.8182	0.	2.3538e-003
3554	3.307	1.6364	0.	1.3581e-002
3555	3.307	1.4545	0.	2.7895e-002
3556	3.307	1.2727	0.	4.5873e-002
3557	3.307	1.0909	0.	6.9693e-002
3558	3.307	0.90909	0.	9.8262e-002
3559	3.307	0.72727	0.	0.1513
3560	3.307	0.54545	0.	0.18278
3561	3.307	0.36364	0.	0.54801
3562	3.307	0.18182	0.	0.96387
3563	3.1233	5.8182	0.	1.158
3564	3.1233	5.6364	0.	0.60509
3565	3.1233	5.4545	0.	0.20335
3566	3.1233	5.2727	0.	0.16684
3567	3.1233	5.0909	0.	0.10823
3568	3.1233	4.9091	0.	7.661e-002
3569	3.1233	4.7273	0.	5.0483e-002
3570	3.1233	4.5455	0.	3.0953e-002
3571	3.1233	4.3636	0.	1.5605e-002
3572	3.1233	4.1818	0.	3.7519e-003
3573	3.1233	4.	0.	-5.3325e-003
3574	3.1233	3.8182	0.	-1.215e-002
3575	3.1233	3.6364	0.	-1.7115e-002
3576	3.1233	3.4545	0.	-2.0553e-002
3577	3.1233	3.2727	0.	-2.2709e-002
3578	3.1233	3.0909	0.	-2.3747e-002
3579	3.1233	2.9091	0.	-2.3747e-002
3580	3.1233	2.7273	0.	-2.2709e-002
3581	3.1233	2.5455	0.	-2.0553e-002
3582	3.1233	2.3636	0.	-1.7115e-002
3583	3.1233	2.1818	0.	-1.215e-002
3584	3.1233	2.	0.	-5.3322e-003
3585	3.1233	1.8182	0.	3.7523e-003
3586	3.1233	1.6364	0.	1.5605e-002
3587	3.1233	1.4545	0.	3.0953e-002
3588	3.1233	1.2727	0.	5.0484e-002
3589	3.1233	1.0909	0.	7.6611e-002
3590	3.1233	0.90909	0.	0.10824
3591	3.1233	0.72727	0.	0.16684
3592	3.1233	0.54545	0.	0.20335
3593	3.1233	0.36364	0.	0.60509
3594	3.1233	0.18182	0.	1.158
3595	2.9395	5.8182	0.	1.4065
3596	2.9395	5.6364	0.	0.66937
3597	2.9395	5.4545	0.	0.22656
3598	2.9395	5.2727	0.	0.1841
3599	2.9395	5.0909	0.	0.11921
3600	2.9395	4.9091	0.	8.4147e-002
3601	2.9395	4.7273	0.	5.5496e-002
3602	2.9395	4.5455	0.	3.4338e-002
3603	2.9395	4.3636	0.	1.798e-002
3604	2.9395	4.1818	0.	5.5916e-003
3605	2.9395	4.	0.	-3.6973e-003
3606	2.9395	3.8182	0.	-1.0507e-002
3607	2.9395	3.6364	0.	-1.5351e-002
3608	2.9395	3.4545	0.	-1.8633e-002
3609	2.9395	3.2727	0.	-2.0655e-002
3610	2.9395	3.0909	0.	-2.1616e-002
3611	2.9395	2.9091	0.	-2.1616e-002
3612	2.9395	2.7273	0.	-2.0655e-002
3613	2.9395	2.5455	0.	-1.8633e-002
3614	2.9395	2.3636	0.	-1.5351e-002
3615	2.9395	2.1818	0.	-1.0506e-002
3616	2.9395	2.	0.	-3.697e-003
3617	2.9395	1.8182	0.	5.592e-003
3618	2.9395	1.6364	0.	1.798e-002
3619	2.9395	1.4545	0.	3.4339e-002
3620	2.9395	1.2727	0.	5.5496e-002
3621	2.9395	1.0909	0.	8.4147e-002
3622	2.9395	0.90909	0.	0.11921
3623	2.9395	0.72727	0.	0.1841
3624	2.9395	0.54545	0.	0.22656
3625	2.9395	0.36364	0.	0.66938
3626	2.9395	0.18182	0.	1.4065
3627	2.7558	5.8182	0.	1.7306
3628	2.7558	5.6364	0.	0.74211
3629	2.7558	5.4545	0.	0.25283
3630	2.7558	5.2727	0.	0.20328
3631	2.7558	5.0909	0.	0.13126
3632	2.7558	4.9091	0.	9.2329e-002
3633	2.7558	4.7273	0.	6.0929e-002
3634	2.7558	4.5455	0.	3.8096e-002
3635	2.7558	4.3636	0.	2.0798e-002
3636	2.7558	4.1818	0.	8.0163e-003
3637	2.7558	4.	0.	-1.3029e-003
3638	2.7558	3.8182	0.	-7.9292e-003
3639	2.7558	3.6364	0.	-1.2498e-002
3640	2.7558	3.4545	0.	-1.5501e-002
3641	2.7558	3.2727	0.	-1.7305e-002
3642	2.7558	3.0909	0.	-1.8148e-002
3643	2.7558	2.9091	0.	-1.8148e-002
3644	2.7558	2.7273	0.	-1.7305e-002
3645	2.7558	2.5455	0.	-1.5501e-002
3646	2.7558	2.3636	0.	-1.2498e-002
3647	2.7558	2.1818	0.	-7.9292e-003
3648	2.7558	2.	0.	-1.3027e-003
3649	2.7558	1.8182	0.	8.0166e-003
3650	2.7558	1.6364	0.	2.0798e-002
3651	2.7558	1.4545	0.	3.8096e-002
3652	2.7558	1.2727	0.	6.093e-002
3653	2.7558	1.0909	0.	9.2329e-002
3654	2.7558	0.90909	0.	0.13126
3655	2.7558	0.72727	0.	0.20328
3656	2.7558	0.54545	0.	0.25283
3657	2.7558	0.36364	0.	0.74211
3658	2.7558	0.18182	0.	1.7306
3659	2.5721	5.8182	0.	2.1626
3660	2.5721	5.6364	0.	0.82482
3661	2.5721	5.4545	0.	0.28261
3662	2.5721	5.2727	0.	0.22457
3663	2.5721	5.0909	0.	0.14442
3664	2.5721	4.9091	0.	0.10113
3665	2.5721	4.7273	0.	6.6758e-002
3666	2.5721	4.5455	0.	4.2246e-002
3667	2.5721	4.3636	0.	2.4142e-002
3668	2.5721	4.1818	0.	1.1175e-002
3669	2.5721	4.	0.	2.053e-003
3670	2.5721	3.8182	0.	-4.1766e-003
3671	2.5721	3.6364	0.	-8.2903e-003
3672	2.5721	3.4545	0.	-1.088e-002
3673	2.5721	3.2727	0.	-1.2376e-002
3674	2.5721	3.0909	0.	-1.3056e-002
3675	2.5721	2.9091	0.	-1.3056e-002
3676	2.5721	2.7273	0.	-1.2376e-002
3677	2.5721	2.5455	0.	-1.088e-002
3678	2.5721	2.3636	0.	-8.2901e-003
3679	2.5721	2.1818	0.	-4.1764e-003
3680	2.5721	2.	0.	2.0533e-003
3681	2.5721	1.8182	0.	1.1175e-002
3682	2.5721	1.6364	0.	2.4142e-002
3683	2.5721	1.4545	0.	4.2246e-002
3684	2.5721	1.2727	0.	6.6758e-002
3685	2.5721	1.0909	0.	0.10113
3686	2.5721	0.90909	0.	0.14442
3687	2.5721	0.72727	0.	0.22457
3688	2.5721	0.54545	0.	0.28261
3689	2.5721	0.36364	0.	0.82482
3690	2.5721	0.18182	0.	2.1626
3691	2.3884	5.8182	0.	2.754
3692	2.3884	5.6364	0.	0.91952
3693	2.3884	5.4545	0.	0.3166
3694	2.3884	5.2727	0.	0.24834
3695	2.3884	5.0909	0.	0.15888
3696	2.3884	4.9091	0.	0.11069
3697	2.3884	4.7273	0.	7.3155e-002
3698	2.3884	4.5455	0.	4.7039e-002
3699	2.3884	4.3636	0.	2.8353e-002
3700	2.3884	4.1818	0.	1.5486e-002
3701	2.3884	4.	0.	6.8448e-003
3702	2.3884	3.8182	0.	1.2566e-003
3703	2.3884	3.6364	0.	-2.2112e-003
3704	2.3884	3.4545	0.	-4.2511e-003
3705	2.3884	3.2727	0.	-5.3548e-003
3706	2.3884	3.0909	0.	-5.8318e-003
3707	2.3884	2.9091	0.	-5.8317e-003
3708	2.3884	2.7273	0.	-5.3547e-003
3709	2.3884	2.5455	0.	-4.2511e-003
3710	2.3884	2.3636	0.	-2.2111e-003
3711	2.3884	2.1818	0.	1.2568e-003
3712	2.3884	2.	0.	6.8449e-003
3713	2.3884	1.8182	0.	1.5486e-002
3714	2.3884	1.6364	0.	2.8353e-002
3715	2.3884	1.4545	0.	4.704e-002
3716	2.3884	1.2727	0.	7.3155e-002
3717	2.3884	1.0909	0.	0.11069
3718	2.3884	0.90909	0.	0.15888
3719	2.3884	0.72727	0.	0.24834
3720	2.3884	0.54545	0.	0.3166
3721	2.3884	0.36364	0.	0.91952
3722	2.3884	0.18182	0.	2.754
3723	2.2047	5.8182	0.	3.5905
3724	2.2047	5.6364	0.	1.0284
3725	2.2047	5.4545	0.	0.35518
3726	2.2047	5.2727	0.	0.27451
3727	2.2047	5.0909	0.	0.17428
3728	2.2047	4.9091	0.	0.12057
3729	2.2047	4.7273	0.	7.9737e-002
3730	2.2047	4.5455	0.	5.2193e-002
3731	2.2047	4.3636	0.	3.3248e-002
3732	2.2047	4.1818	0.	2.0836e-002
3733	2.2047	4.	0.	1.2992e-002
3734	2.2047	3.8182	0.	8.2906e-003
3735	2.2047	3.6364	0.	5.6399e-003
3736	2.2047	3.4545	0.	4.2573e-003
3737	2.2047	3.2727	0.	3.6069e-003
3738	2.2047	3.0909	0.	3.3598e-003
3739	2.2047	2.9091	0.	3.3598e-003
3740	2.2047	2.7273	0.	3.607e-003
3741	2.2047	2.5455	0.	4.2575e-003
3742	2.2047	2.3636	0.	5.64e-003
3743	2.2047	2.1818	0.	8.2908e-003
3744	2.2047	2.	0.	1.2992e-002
3745	2.2047	1.8182	0.	2.0836e-002
3746	2.2047	1.6364	0.	3.3248e-002
3747	2.2047	1.4545	0.	5.2193e-002
3748	2.2047	1.2727	0.	7.9738e-002
3749	2.2047	1.0909	0.	0.12057
3750	2.2047	0.90909	0.	0.17428
3751	2.2047	0.72727	0.	0.27451
3752	2.2047	0.54545	0.	0.35518
3753	2.2047	0.36364	0.	1.0284
3754	2.2047	0.18182	0.	3.5904
3755	2.0209	5.8182	0.	4.8215
3756	2.0209	5.6364	0.	1.1557
3757	2.0209	5.4545	0.	0.40077
3758	2.0209	5.2727	0.	0.30515
3759	2.0209	5.0909	0.	0.1926
3760	2.0209	4.9091	0.	0.13285
3761	2.0209	4.7273	0.	8.8757e-002
3762	2.0209	4.5455	0.	6.0165e-002
3763	2.0209	4.3636	0.	4.1444e-002
3764	2.0209	4.1818	0.	2.9931e-002
3765	2.0209	4.	0.	2.322e-002
3766	2.0209	3.8182	0.	1.9623e-002
3767	2.0209	3.6364	0.	1.791e-002
3768	2.0209	3.4545	0.	1.7239e-002
3769	2.0209	3.2727	0.	1.7059e-002
3770	2.0209	3.0909	0.	1.7044e-002
3771	2.0209	2.9091	0.	1.7044e-002
3772	2.0209	2.7273	0.	1.7059e-002
3773	2.0209	2.5455	0.	1.7239e-002
3774	2.0209	2.3636	0.	1.791e-002
3775	2.0209	2.1818	0.	1.9623e-002
3776	2.0209	2.	0.	2.322e-002
3777	2.0209	1.8182	0.	2.9931e-002
3778	2.0209	1.6364	0.	4.1444e-002
3779	2.0209	1.4545	0.	6.0165e-002
3780	2.0209	1.2727	0.	8.8757e-002
3781	2.0209	1.0909	0.	0.13285
3782	2.0209	0.90909	0.	0.1926
3783	2.0209	0.72727	0.	0.30515
3784	2.0209	0.54545	0.	0.40077
3785	2.0209	0.36364	0.	1.1557
3786	2.0209	0.18182	0.	4.8215
3787	1.8372	5.8182	0.	6.7143
3788	1.8372	5.6364	0.	1.3011
3789	1.8372	5.4545	0.	0.44872
3790	1.8372	5.2727	0.	0.33407
3791	1.8372	5.0909	0.	0.20683
3792	1.8372	4.9091	0.	0.14024
3793	1.8372	4.7273	0.	9.2891e-002
3794	1.8372	4.5455	0.	6.3634e-002
3795	1.8372	4.3636	0.	4.5571e-002
3796	1.8372	4.1818	0.	3.5279e-002
3797	1.8372	4.	0.	2.9864e-002
3798	1.8372	3.8182	0.	2.7398e-002
3799	1.8372	3.6364	0.	2.6561e-002
3800	1.8372	3.4545	0.	2.6505e-002
3801	1.8372	3.2727	0.	2.6707e-002
3802	1.8372	3.0909	0.	2.6874e-002
3803	1.8372	2.9091	0.	2.6874e-002
3804	1.8372	2.7273	0.	2.6707e-002
3805	1.8372	2.5455	0.	2.6505e-002
3806	1.8372	2.3636	0.	2.6561e-002
3807	1.8372	2.1818	0.	2.7398e-002
3808	1.8372	2.	0.	2.9864e-002
3809	1.8372	1.8182	0.	3.5279e-002
3810	1.8372	1.6364	0.	4.5571e-002
3811	1.8372	1.4545	0.	6.3634e-002
3812	1.8372	1.2727	0.	9.2891e-002
3813	1.8372	1.0909	0.	0.14024
3814	1.8372	0.90909	0.	0.20683
3815	1.8372	0.72727	0.	0.33407
3816	1.8372	0.54545	0.	0.44872
3817	1.8372	0.36364	0.	1.3011
3818	1.8372	0.18182	0.	6.7143
3819	1.6535	5.8182	0.	9.7676
3820	1.6535	5.6364	0.	1.4874
3821	1.6535	5.4545	0.	0.52443
3822	1.6535	5.2727	0.	0.38903
3823	1.6535	5.0909	0.	0.24648
3824	1.6535	4.9091	0.	0.17385
3825	1.6535	4.7273	0.	0.12453
3826	1.6535	4.5455	0.	9.5916e-002
3827	1.6535	4.3636	0.	7.9517e-002
3828	1.6535	4.1818	0.	7.1061e-002
3829	1.6535	4.	0.	6.7218e-002
3830	1.6535	3.8182	0.	6.5924e-002
3831	1.6535	3.6364	0.	6.5876e-002
3832	1.6535	3.4545	0.	6.6304e-002
3833	1.6535	3.2727	0.	6.6773e-002
3834	1.6535	3.0909	0.	6.7055e-002
3835	1.6535	2.9091	0.	6.7055e-002
3836	1.6535	2.7273	0.	6.6773e-002
3837	1.6535	2.5455	0.	6.6304e-002
3838	1.6535	2.3636	0.	6.5876e-002
3839	1.6535	2.1818	0.	6.5924e-002
3840	1.6535	2.	0.	6.7218e-002
3841	1.6535	1.8182	0.	7.1061e-002
3842	1.6535	1.6364	0.	7.9517e-002
3843	1.6535	1.4545	0.	9.5916e-002
3844	1.6535	1.2727	0.	0.12453
3845	1.6535	1.0909	0.	0.17385
3846	1.6535	0.90909	0.	0.24648
3847	1.6535	0.72727	0.	0.38903
3848	1.6535	0.54545	0.	0.52443
3849	1.6535	0.36364	0.	1.4874
3850	1.6535	0.18182	0.	9.7676
3851	1.4698	5.8182	0.	14.794
3852	1.4698	5.6364	0.	1.6525
3853	1.4698	5.4545	0.	0.53718
3854	1.4698	5.2727	0.	0.36558
3855	1.4698	5.0909	0.	0.19908
3856	1.4698	4.9091	0.	0.11605
3857	1.4698	4.7273	0.	6.2372e-002
3858	1.4698	4.5455	0.	3.2734e-002
3859	1.4698	4.3636	0.	1.6452e-002
3860	1.4698	4.1818	0.	8.268e-003
3861	1.4698	4.	0.	4.4636e-003
3862	1.4698	3.8182	0.	2.9417e-003
3863	1.4698	3.6364	0.	2.4984e-003
3864	1.4698	3.4545	0.	2.4977e-003
3865	1.4698	3.2727	0.	2.6161e-003
3866	1.4698	3.0909	0.	2.7041e-003
3867	1.4698	2.9091	0.	2.7041e-003
3868	1.4698	2.7273	0.	2.6161e-003
3869	1.4698	2.5455	0.	2.4978e-003
3870	1.4698	2.3636	0.	2.4985e-003
3871	1.4698	2.1818	0.	2.9417e-003
3872	1.4698	2.	0.	4.4637e-003
3873	1.4698	1.8182	0.	8.2681e-003
3874	1.4698	1.6364	0.	1.6452e-002
3875	1.4698	1.4545	0.	3.2734e-002
3876	1.4698	1.2727	0.	6.2372e-002
3877	1.4698	1.0909	0.	0.11605
3878	1.4698	0.90909	0.	0.19908
3879	1.4698	0.72727	0.	0.36558
3880	1.4698	0.54545	0.	0.53717
3881	1.4698	0.36364	0.	1.6525
3882	1.4698	0.18182	0.	14.794
3883	1.286	5.8182	0.	23.036
3884	1.286	5.6364	0.	2.0842
3885	1.286	5.4545	0.	0.86413
3886	1.286	5.2727	0.	0.68813
3887	1.286	5.0909	0.	0.51969
3888	1.286	4.9091	0.	0.44364
3889	1.286	4.7273	0.	0.39867
3890	1.286	4.5455	0.	0.37753
3891	1.286	4.3636	0.	0.36798
3892	1.286	4.1818	0.	0.3646
3893	1.286	4.	0.	0.36392
3894	1.286	3.8182	0.	0.36431
3895	1.286	3.6364	0.	0.36496
3896	1.286	3.4545	0.	0.36554
3897	1.286	3.2727	0.	0.36594
3898	1.286	3.0909	0.	0.36614
3899	1.286	2.9091	0.	0.36614
3900	1.286	2.7273	0.	0.36594
3901	1.286	2.5455	0.	0.36554
3902	1.286	2.3636	0.	0.36496
3903	1.286	2.1818	0.	0.36431
3904	1.286	2.	0.	0.36392
3905	1.286	1.8182	0.	0.3646
3906	1.286	1.6364	0.	0.36798
3907	1.286	1.4545	0.	0.37753
3908	1.286	1.2727	0.	0.39867
3909	1.286	1.0909	0.	0.44364
3910	1.286	0.90909	0.	0.51969
3911	1.286	0.72727	0.	0.68813
3912	1.286	0.54545	0.	0.86413
3913	1.286	0.36364	0.	2.0842
3914	1.286	0.18182	0.	23.036
3915	1.1023	5.8182	0.	35.2
3916	1.1023	5.6364	0.	1.6943
3917	1.1023	5.4545	0.	3.9902e-002
3918	1.1023	5.2727	0.	-0.30038
3919	1.1023	5.0909	0.	-0.56977
3920	1.1023	4.9091	0.	-0.70644
3921	1.1023	4.7273	0.	-0.79214
3922	1.1023	4.5455	0.	-0.8432
3923	1.1023	4.3636	0.	-0.87643
3924	1.1023	4.1818	0.	-0.89918
3925	1.1023	4.	0.	-0.91571
3926	1.1023	3.8182	0.	-0.92807
3927	1.1023	3.6364	0.	-0.9373
3928	1.1023	3.4545	0.	-0.94395
3929	1.1023	3.2727	0.	-0.94827
3930	1.1023	3.0909	0.	-0.9504
3931	1.1023	2.9091	0.	-0.9504
3932	1.1023	2.7273	0.	-0.94827
3933	1.1023	2.5455	0.	-0.94395
3934	1.1023	2.3636	0.	-0.9373
3935	1.1023	2.1818	0.	-0.92807
3936	1.1023	2.	0.	-0.91571
3937	1.1023	1.8182	0.	-0.89918
3938	1.1023	1.6364	0.	-0.87643
3939	1.1023	1.4545	0.	-0.8432
3940	1.1023	1.2727	0.	-0.79214
3941	1.1023	1.0909	0.	-0.70645
3942	1.1023	0.90909	0.	-0.56977
3943	1.1023	0.72727	0.	-0.30039
3944	1.1023	0.54545	0.	3.9901e-002
3945	1.1023	0.36364	0.	1.6943
3946	1.1023	0.18182	0.	35.2
3947	0.9186	5.8182	0.	52.78
3948	0.9186	5.6364	0.	4.9285
3949	0.9186	5.4545	0.	3.9595
3950	0.9186	5.2727	0.	4.0196
3951	0.9186	5.0909	0.	4.0162
3952	0.9186	4.9091	0.	4.0774
3953	0.9186	4.7273	0.	4.1389
3954	0.9186	4.5455	0.	4.198
3955	0.9186	4.3636	0.	4.2474
3956	0.9186	4.1818	0.	4.2872
3957	0.9186	4.	0.	4.3181
3958	0.9186	3.8182	0.	4.3416
3959	0.9186	3.6364	0.	4.359
3960	0.9186	3.4545	0.	4.3712
3961	0.9186	3.2727	0.	4.3789
3962	0.9186	3.0909	0.	4.3827
3963	0.9186	2.9091	0.	4.3827
3964	0.9186	2.7273	0.	4.3789
3965	0.9186	2.5455	0.	4.3712
3966	0.9186	2.3636	0.	4.359
3967	0.9186	2.1818	0.	4.3416
3968	0.9186	2.	0.	4.3181
3969	0.9186	1.8182	0.	4.2872
3970	0.9186	1.6364	0.	4.2474
3971	0.9186	1.4545	0.	4.198
3972	0.9186	1.2727	0.	4.1389
3973	0.9186	1.0909	0.	4.0774
3974	0.9186	0.90909	0.	4.0162
3975	0.9186	0.72727	0.	4.0196
3976	0.9186	0.54545	0.	3.9595
3977	0.9186	0.36364	0.	4.9286
3978	0.9186	0.18182	0.	52.78
3979	0.73488	5.8182	0.	71.925
3980	0.73488	5.6364	0.	-5.7388
3981	0.73488	5.4545	0.	-10.622
3982	0.73488	5.2727	0.	-12.426
3983	0.73488	5.0909	0.	-13.669
3984	0.73488	4.9091	0.	-14.459
3985	0.73488	4.7273	0.	-15.023
3986	0.73488	4.5455	0.	-15.435
3987	0.73488	4.3636	0.	-15.749
3988	0.73488	4.1818	0.	-15.991
3989	0.73488	4.	0.	-16.178
3990	0.73488	3.8182	0.	-16.322
3991	0.73488	3.6364	0.	-16.429
3992	0.73488	3.4545	0.	-16.506
3993	0.73488	3.2727	0.	-16.555
3994	0.73488	3.0909	0.	-16.58
3995	0.73488	2.9091	0.	-16.58
3996	0.73488	2.7273	0.	-16.555
3997	0.73488	2.5455	0.	-16.506
3998	0.73488	2.3636	0.	-16.429
3999	0.73488	2.1818	0.	-16.322
4000	0.73488	2.	0.	-16.178
4001	0.73488	1.8182	0.	-15.991
4002	0.73488	1.6364	0.	-15.749
4003	0.73488	1.4545	0.	-15.435
4004	0.73488	1.2727	0.	-15.023
4005	0.73488	1.0909	0.	-14.459
4006	0.73488	0.90909	0.	-13.669
4007	0.73488	0.72727	0.	-12.426
4008	0.73488	0.54545	0.	-10.622
4009	0.73488	0.36364	0.	-5.7388
4010	0.73488	0.18182	0.	71.925
4011	0.55116	5.8182	0.	103.66
4012	0.55116	5.6364	0.	40.51
4013	0.55116	5.4545	0.	49.22
4014	0.55116	5.2727	0.	53.867
4015	0.55116	5.0909	0.	57.102
4016	0.55116	4.9091	0.	59.488
4017	0.55116	4.7273	0.	61.264
4018	0.55116	4.5455	0.	62.615
4019	0.55116	4.3636	0.	63.656
4020	0.55116	4.1818	0.	64.463
4021	0.55116	4.	0.	65.088
4022	0.55116	3.8182	0.	65.567
4023	0.55116	3.6364	0.	65.926
4024	0.55116	3.4545	0.	66.182
4025	0.55116	3.2727	0.	66.346
4026	0.55116	3.0909	0.	66.427
4027	0.55116	2.9091	0.	66.427
4028	0.55116	2.7273	0.	66.346
4029	0.55116	2.5455	0.	66.182
4030	0.55116	2.3636	0.	65.926
4031	0.55116	2.1818	0.	65.567
4032	0.55116	2.	0.	65.088
4033	0.55116	1.8182	0.	64.463
4034	0.55116	1.6364	0.	63.656
4035	0.55116	1.4545	0.	62.615
4036	0.55116	1.2727	0.	61.264
4037	0.55116	1.0909	0.	59.488
4038	0.55116	0.90909	0.	57.102
4039	0.55116	0.72727	0.	53.867
4040	0.55116	0.54545	0.	49.22
4041	0.55116	0.36364	0.	40.51
4042	0.55116	0.18182	0.	103.66
4043	0.36744	5.8182	0.	92.118
4044	0.36744	5.6364	0.	-137.92
4045	0.36744	5.4545	0.	-183.73
4046	0.36744	5.2727	0.	-206.87
4047	0.36744	5.0909	0.	-221.77
4048	0.36744	4.9091	0.	-232.23
4049	0.36744	4.7273	0.	-239.86
4050	0.36744	4.5455	0.	-245.62
4051	0.36744	4.3636	0.	-250.03
4052	0.36744	4.1818	0.	-253.44
4053	0.36744	4.	0.	-256.08
4054	0.36744	3.8182	0.	-258.1
4055	0.36744	3.6364	0.	-259.61
4056	0.36744	3.4545	0.	-260.68
4057	0.36744	3.2727	0.	-261.37
4058	0.36744	3.0909	0.	-261.71
4059	0.36744	2.9091	0.	-261.71
4060	0.36744	2.7273	0.	-261.37
4061	0.36744	2.5455	0.	-260.68
4062	0.36744	2.3636	0.	-259.61
4063	0.36744	2.1818	0.	-258.1
4064	0.36744	2.	0.	-256.08
4065	0.36744	1.8182	0.	-253.44
4066	0.36744	1.6364	0.	-250.03
4067	0.36744	1.4545	0.	-245.62
4068	0.36744	1.2727	0.	-239.86
4069	0.36744	1.0909	0.	-232.23
4070	0.36744	0.90909	0.	-221.77
4071	0.36744	0.72727	0.	-206.87
4072	0.36744	0.54545	0.	-183.73
4073	0.36744	0.36364	0.	-137.92
4074	0.36744	0.18182	0.	92.118
4075	0.18372	5.8182	0.	314.27
4076	0.18372	5.6364	0.	610.35
4077	0.18372	5.4545	0.	743.01
4078	0.18372	5.2727	0.	828.43
4079	0.18372	5.0909	0.	883.2
4080	0.18372	4.9091	0.	922.76
4081	0.18372	4.7273	0.	951.81
4082	0.18372	4.5455	0.	973.86
4083	0.18372	4.3636	0.	990.81
4084	0.18372	4.1818	0.	1003.9
4085	0.18372	4.	0.	1014.1
4086	0.18372	3.8182	0.	1021.9
4087	0.18372	3.6364	0.	1027.8
4088	0.18372	3.4545	0.	1031.9
4089	0.18372	3.2727	0.	1034.6
4090	0.18372	3.0909	0.	1035.9
4091	0.18372	2.9091	0.	1035.9
4092	0.18372	2.7273	0.	1034.6
4093	0.18372	2.5455	0.	1031.9
4094	0.18372	2.3636	0.	1027.8
4095	0.18372	2.1818	0.	1021.9
4096	0.18372	2.	0.	1014.1
4097	0.18372	1.8182	0.	1003.9
4098	0.18372	1.6364	0.	990.81
4099	0.18372	1.4545	0.	973.86
4100	0.18372	1.2727	0.	951.81
4101	0.18372	1.0909	0.	922.76
4102	0.18372	0.90909	0.	883.21
4103	0.18372	0.72727	0.	828.43
4104	0.18372	0.54545	0.	743.01
4105	0.18372	0.36364	0.	610.35
4106	0.18372	0.18182	0.	314.27
4107	23.867	2.1818	0.	163.11
4108	23.867	2.3636	0.	36.358
4109	23.867	2.5455	0.	23.943
4110	23.867	2.7273	0.	26.027
4111	23.867	2.9091	0.	32.185
4112	23.867	3.0909	0.	32.185
4113	23.867	3.2727	0.	26.027
4114	23.867	3.4545	0.	23.943
4115	23.867	3.6364	0.	36.358
4116	23.867	3.8182	0.	163.11
4117	23.867	3.8182	0.1	999.81
4118	23.867	3.6364	0.1	331.29
4119	23.867	3.4545	0.1	142.01
4120	23.867	3.2727	0.1	69.583
4121	23.867	3.0909	0.1	47.598
4122	23.867	2.9091	0.1	47.598
4123	23.867	2.7273	0.1	69.583
4124	23.867	2.5455	0.1	142.01
4125	23.867	2.3636	0.1	331.29
4126	23.867	2.1818	0.1	999.81
4127	0.18372	0.18182	0.1	3885.3
4128	0.18372	0.36364	0.1	4485.5
4129	0.18372	0.54545	0.1	5179.1
4130	0.18372	0.72727	0.1	5709.4
4131	0.18372	0.90909	0.1	6107.8
4132	0.18372	1.0909	0.1	6407.8
4133	0.18372	1.2727	0.1	6637.5
4134	0.18372	1.4545	0.1	6815.5
4135	0.18372	1.6364	0.1	6954.7
4136	0.18372	1.8182	0.1	7063.9
4137	0.18372	2.	0.1	7149.3
4138	0.18372	2.1818	0.1	7215.2
4139	0.18372	2.3636	0.1	7264.8
4140	0.18372	2.5455	0.1	7300.3
4141	0.18372	2.7273	0.1	7323.1
4142	0.18372	2.9091	0.1	7334.4
4143	0.18372	3.0909	0.1	7334.4
4144	0.18372	3.2727	0.1	7323.1
4145	0.18372	3.4545	0.1	7300.3
4146	0.18372	3.6364	0.1	7264.8
4147	0.18372	3.8182	0.1	7215.2
4148	0.18372	4.	0.1	7149.3
4149	0.18372	4.1818	0.1	7063.9
4150	0.18372	4.3636	0.1	6954.7
4151	0.18372	4.5455	0.1	6815.5
4152	0.18372	4.7273	0.1	6637.5
4153	0.18372	4.9091	0.1	6407.8
4154	0.18372	5.0909	0.1	6107.8
4155	0.18372	5.2727	0.1	5709.4
4156	0.18372	5.4545	0.1	5179.1
4157	0.18372	5.6364	0.1	4485.5
4158	0.18372	5.8182	0.1	3885.3
4159	0.36744	0.18182	0.1	5024.4
4160	0.36744	0.36364	0.1	5155.6
4161	0.36744	0.54545	0.1	5450.3
4162	0.36744	0.72727	0.1	5777.3
4163	0.36744	0.90909	0.1	6077.2
4164	0.36744	1.0909	0.1	6332.8
4165	0.36744	1.2727	0.1	6544.1
4166	0.36744	1.4545	0.1	6716.4
4167	0.36744	1.6364	0.1	6856.
4168	0.36744	1.8182	0.1	6968.3
4169	0.36744	2.	0.1	7057.7
4170	0.36744	2.1818	0.1	7127.7
4171	0.36744	2.3636	0.1	7181.
4172	0.36744	2.5455	0.1	7219.3
4173	0.36744	2.7273	0.1	7244.2
4174	0.36744	2.9091	0.1	7256.4
4175	0.36744	3.0909	0.1	7256.4
4176	0.36744	3.2727	0.1	7244.2
4177	0.36744	3.4545	0.1	7219.3
4178	0.36744	3.6364	0.1	7181.
4179	0.36744	3.8182	0.1	7127.7
4180	0.36744	4.	0.1	7057.7
4181	0.36744	4.1818	0.1	6968.3
4182	0.36744	4.3636	0.1	6856.
4183	0.36744	4.5455	0.1	6716.4
4184	0.36744	4.7273	0.1	6544.1
4185	0.36744	4.9091	0.1	6332.8
4186	0.36744	5.0909	0.1	6077.2
4187	0.36744	5.2727	0.1	5777.3
4188	0.36744	5.4545	0.1	5450.3
4189	0.36744	5.6364	0.1	5155.6
4190	0.36744	5.8182	0.1	5024.4
4191	0.55116	0.18182	0.1	5520.4
4192	0.55116	0.36364	0.1	5516.
4193	0.55116	0.54545	0.1	5628.7
4194	0.55116	0.72727	0.1	5794.9
4195	0.55116	0.90909	0.1	5980.9
4196	0.55116	1.0909	0.1	6163.
4197	0.55116	1.2727	0.1	6328.7
4198	0.55116	1.4545	0.1	6473.4
4199	0.55116	1.6364	0.1	6596.5
4200	0.55116	1.8182	0.1	6699.1
4201	0.55116	2.	0.1	6783.1
4202	0.55116	2.1818	0.1	6850.1
4203	0.55116	2.3636	0.1	6901.8
4204	0.55116	2.5455	0.1	6939.5
4205	0.55116	2.7273	0.1	6964.1
4206	0.55116	2.9091	0.1	6976.2
4207	0.55116	3.0909	0.1	6976.2
4208	0.55116	3.2727	0.1	6964.1
4209	0.55116	3.4545	0.1	6939.5
4210	0.55116	3.6364	0.1	6901.8
4211	0.55116	3.8182	0.1	6850.1
4212	0.55116	4.	0.1	6783.1
4213	0.55116	4.1818	0.1	6699.1
4214	0.55116	4.3636	0.1	6596.5
4215	0.55116	4.5455	0.1	6473.4
4216	0.55116	4.7273	0.1	6328.7
4217	0.55116	4.9091	0.1	6163.
4218	0.55116	5.0909	0.1	5980.9
4219	0.55116	5.2727	0.1	5794.9
4220	0.55116	5.4545	0.1	5628.7
4221	0.55116	5.6364	0.1	5516.
4222	0.55116	5.8182	0.1	5520.4
4223	0.73488	0.18182	0.1	5804.5
4224	0.73488	0.36364	0.1	5762.2
4225	0.73488	0.54545	0.1	5800.4
4226	0.73488	0.72727	0.1	5880.1
4227	0.73488	0.90909	0.1	5986.6
4228	0.73488	1.0909	0.1	6105.2
4229	0.73488	1.2727	0.1	6224.2
4230	0.73488	1.4545	0.1	6336.
4231	0.73488	1.6364	0.1	6436.5
4232	0.73488	1.8182	0.1	6523.8
4233	0.73488	2.	0.1	6597.6
4234	0.73488	2.1818	0.1	6657.9
4235	0.73488	2.3636	0.1	6705.2
4236	0.73488	2.5455	0.1	6740.2
4237	0.73488	2.7273	0.1	6763.2
4238	0.73488	2.9091	0.1	6774.6
4239	0.73488	3.0909	0.1	6774.6
4240	0.73488	3.2727	0.1	6763.2
4241	0.73488	3.4545	0.1	6740.2
4242	0.73488	3.6364	0.1	6705.2
4243	0.73488	3.8182	0.1	6657.9
4244	0.73488	4.	0.1	6597.6
4245	0.73488	4.1818	0.1	6523.8
4246	0.73488	4.3636	0.1	6436.5
4247	0.73488	4.5455	0.1	6336.
4248	0.73488	4.7273	0.1	6224.2
4249	0.73488	4.9091	0.1	6105.2
4250	0.73488	5.0909	0.1	5986.6
4251	0.73488	5.2727	0.1	5880.1
4252	0.73488	5.4545	0.1	5800.4
4253	0.73488	5.6364	0.1	5762.2
4254	0.73488	5.8182	0.1	5804.5
4255	0.9186	0.18182	0.1	5957.1
4256	0.9186	0.36364	0.1	5900.9
4257	0.9186	0.54545	0.1	5903.
4258	0.9186	0.72727	0.1	5935.
4259	0.9186	0.90909	0.1	5990.6
4260	0.9186	1.0909	0.1	6061.9
4261	0.9186	1.2727	0.1	6141.
4262	0.9186	1.4545	0.1	6221.2
4263	0.9186	1.6364	0.1	6297.5
4264	0.9186	1.8182	0.1	6366.9
4265	0.9186	2.	0.1	6427.6
4266	0.9186	2.1818	0.1	6478.5
4267	0.9186	2.3636	0.1	6519.3
4268	0.9186	2.5455	0.1	6549.9
4269	0.9186	2.7273	0.1	6570.2
4270	0.9186	2.9091	0.1	6580.4
4271	0.9186	3.0909	0.1	6580.4
4272	0.9186	3.2727	0.1	6570.2
4273	0.9186	3.4545	0.1	6549.9
4274	0.9186	3.6364	0.1	6519.3
4275	0.9186	3.8182	0.1	6478.5
4276	0.9186	4.	0.1	6427.6
4277	0.9186	4.1818	0.1	6366.9
4278	0.9186	4.3636	0.1	6297.5
4279	0.9186	4.5455	0.1	6221.2
4280	0.9186	4.7273	0.1	6141.
4281	0.9186	4.9091	0.1	6061.9
4282	0.9186	5.0909	0.1	5990.6
4283	0.9186	5.2727	0.1	5935.
4284	0.9186	5.4545	0.1	5903.
4285	0.9186	5.6364	0.1	5900.9
4286	0.9186	5.8182	0.1	5957.1
4287	1.1023	0.18182	0.1	6036.4
4288	1.1023	0.36364	0.1	5977.2
4289	1.1023	0.54545	0.1	5961.7
4290	1.1023	0.72727	0.1	5967.4
4291	1.1023	0.90909	0.1	5991.6
4292	1.1023	1.0909	0.1	6030.4
4293	1.1023	1.2727	0.1	6079.
4294	1.1023	1.4545	0.1	6132.6
4295	1.1023	1.6364	0.1	6186.8
4296	1.1023	1.8182	0.1	6238.6
4297	1.1023	2.	0.1	6285.6
4298	1.1023	2.1818	0.1	6326.2
4299	1.1023	2.3636	0.1	6359.5
4300	1.1023	2.5455	0.1	6384.8
4301	1.1023	2.7273	0.1	6401.9
4302	1.1023	2.9091	0.1	6410.4
4303	1.1023	3.0909	0.1	6410.4
4304	1.1023	3.2727	0.1	6401.9
4305	1.1023	3.4545	0.1	6384.8
4306	1.1023	3.6364	0.1	6359.5
4307	1.1023	3.8182	0.1	6326.2
4308	1.1023	4.	0.1	6285.6
4309	1.1023	4.1818	0.1	6238.6
4310	1.1023	4.3636	0.1	6186.8
4311	1.1023	4.5455	0.1	6132.6
4312	1.1023	4.7273	0.1	6079.
4313	1.1023	4.9091	0.1	6030.4
4314	1.1023	5.0909	0.1	5991.6
4315	1.1023	5.2727	0.1	5967.4
4316	1.1023	5.4545	0.1	5961.7
4317	1.1023	5.6364	0.1	5977.2
4318	1.1023	5.8182	0.1	6036.4
4319	1.286	0.18182	0.1	6068.
4320	1.286	0.36364	0.1	6009.9
4321	1.286	0.54545	0.1	5985.2
4322	1.286	0.72727	0.1	5975.8
4323	1.286	0.90909	0.1	5980.5
4324	1.286	1.0909	0.1	5997.4
4325	1.286	1.2727	0.1	6023.8
4326	1.286	1.4545	0.1	6056.5
4327	1.286	1.6364	0.1	6092.2
4328	1.286	1.8182	0.1	6128.3
4329	1.286	2.	0.1	6162.4
4330	1.286	2.1818	0.1	6192.9
4331	1.286	2.3636	0.1	6218.4
4332	1.286	2.5455	0.1	6238.2
4333	1.286	2.7273	0.1	6251.7
4334	1.286	2.9091	0.1	6258.5
4335	1.286	3.0909	0.1	6258.5
4336	1.286	3.2727	0.1	6251.7
4337	1.286	3.4545	0.1	6238.2
4338	1.286	3.6364	0.1	6218.4
4339	1.286	3.8182	0.1	6192.9
4340	1.286	4.	0.1	6162.4
4341	1.286	4.1818	0.1	6128.3
4342	1.286	4.3636	0.1	6092.2
4343	1.286	4.5455	0.1	6056.5
4344	1.286	4.7273	0.1	6023.8
4345	1.286	4.9091	0.1	5997.4
4346	1.286	5.0909	0.1	5980.5
4347	1.286	5.2727	0.1	5975.8
4348	1.286	5.4545	0.1	5985.1
4349	1.286	5.6364	0.1	6009.9
4350	1.286	5.8182	0.1	6068.
4351	1.4698	0.18182	0.1	6068.3
4352	1.4698	0.36364	0.1	6012.9
4353	1.4698	0.54545	0.1	5983.7
4354	1.4698	0.72727	0.1	5965.6
4355	1.4698	0.90909	0.1	5958.1
4356	1.4698	1.0909	0.1	5960.4
4357	1.4698	1.2727	0.1	5971.1
4358	1.4698	1.4545	0.1	5988.
4359	1.4698	1.6364	0.1	6009.
4360	1.4698	1.8182	0.1	6031.9
4361	1.4698	2.	0.1	6054.8
4362	1.4698	2.1818	0.1	6076.
4363	1.4698	2.3636	0.1	6094.3
4364	1.4698	2.5455	0.1	6108.8
4365	1.4698	2.7273	0.1	6118.8
4366	1.4698	2.9091	0.1	6123.9
4367	1.4698	3.0909	0.1	6123.9
4368	1.4698	3.2727	0.1	6118.8
4369	1.4698	3.4545	0.1	6108.8
4370	1.4698	3.6364	0.1	6094.3
4371	1.4698	3.8182	0.1	6076.
4372	1.4698	4.	0.1	6054.8
4373	1.4698	4.1818	0.1	6031.9
4374	1.4698	4.3636	0.1	6009.
4375	1.4698	4.5455	0.1	5988.
4376	1.4698	4.7273	0.1	5971.1
4377	1.4698	4.9091	0.1	5960.4
4378	1.4698	5.0909	0.1	5958.1
4379	1.4698	5.2727	0.1	5965.6
4380	1.4698	5.4545	0.1	5983.7
4381	1.4698	5.6364	0.1	6012.9
4382	1.4698	5.8182	0.1	6068.3
4383	1.6535	0.18182	0.1	6047.2
4384	1.6535	0.36364	0.1	5995.2
4385	1.6535	0.54545	0.1	5963.8
4386	1.6535	0.72727	0.1	5940.7
4387	1.6535	0.90909	0.1	5925.7
4388	1.6535	1.0909	0.1	5918.3
4389	1.6535	1.2727	0.1	5918.
4390	1.6535	1.4545	0.1	5923.4
4391	1.6535	1.6364	0.1	5933.
4392	1.6535	1.8182	0.1	5945.4
4393	1.6535	2.	0.1	5958.9
4394	1.6535	2.1818	0.1	5972.1
4395	1.6535	2.3636	0.1	5984.1
4396	1.6535	2.5455	0.1	5993.8
4397	1.6535	2.7273	0.1	6000.6
4398	1.6535	2.9091	0.1	6004.2
4399	1.6535	3.0909	0.1	6004.2
4400	1.6535	3.2727	0.1	6000.6
4401	1.6535	3.4545	0.1	5993.8
4402	1.6535	3.6364	0.1	5984.1
4403	1.6535	3.8182	0.1	5972.1
4404	1.6535	4.	0.1	5958.9
4405	1.6535	4.1818	0.1	5945.4
4406	1.6535	4.3636	0.1	5933.
4407	1.6535	4.5455	0.1	5923.4
4408	1.6535	4.7273	0.1	5918.
4409	1.6535	4.9091	0.1	5918.3
4410	1.6535	5.0909	0.1	5925.7
4411	1.6535	5.2727	0.1	5940.7
4412	1.6535	5.4545	0.1	5963.8
4413	1.6535	5.6364	0.1	5995.2
4414	1.6535	5.8182	0.1	6047.2
4415	1.8372	0.18182	0.1	6011.3
4416	1.8372	0.36364	0.1	5962.8
4417	1.8372	0.54545	0.1	5930.7
4418	1.8372	0.72727	0.1	5904.9
4419	1.8372	0.90909	0.1	5885.2
4420	1.8372	1.0909	0.1	5871.5
4421	1.8372	1.2727	0.1	5863.6
4422	1.8372	1.4545	0.1	5860.7
4423	1.8372	1.6364	0.1	5861.9
4424	1.8372	1.8182	0.1	5866.
4425	1.8372	2.	0.1	5872.
4426	1.8372	2.1818	0.1	5878.8
4427	1.8372	2.3636	0.1	5885.4
4428	1.8372	2.5455	0.1	5891.
4429	1.8372	2.7273	0.1	5895.1
4430	1.8372	2.9091	0.1	5897.2
4431	1.8372	3.0909	0.1	5897.2
4432	1.8372	3.2727	0.1	5895.1
4433	1.8372	3.4545	0.1	5891.
4434	1.8372	3.6364	0.1	5885.4
4435	1.8372	3.8182	0.1	5878.8
4436	1.8372	4.	0.1	5872.
4437	1.8372	4.1818	0.1	5866.
4438	1.8372	4.3636	0.1	5861.9
4439	1.8372	4.5455	0.1	5860.7
4440	1.8372	4.7273	0.1	5863.6
4441	1.8372	4.9091	0.1	5871.5
4442	1.8372	5.0909	0.1	5885.2
4443	1.8372	5.2727	0.1	5904.9
4444	1.8372	5.4545	0.1	5930.7
4445	1.8372	5.6364	0.1	5962.8
4446	1.8372	5.8182	0.1	6011.3
4447	2.0209	0.18182	0.1	5964.8
4448	2.0209	0.36364	0.1	5919.8
4449	2.0209	0.54545	0.1	5888.
4450	2.0209	0.72727	0.1	5860.8
4451	2.0209	0.90909	0.1	5838.3
4452	2.0209	1.0909	0.1	5820.6
4453	2.0209	1.2727	0.1	5807.6
4454	2.0209	1.4545	0.1	5798.9
4455	2.0209	1.6364	0.1	5793.9
4456	2.0209	1.8182	0.1	5791.9
4457	2.0209	2.	0.1	5792.1
4458	2.0209	2.1818	0.1	5793.7
4459	2.0209	2.3636	0.1	5796.
4460	2.0209	2.5455	0.1	5798.2
4461	2.0209	2.7273	0.1	5800.
4462	2.0209	2.9091	0.1	5801.
4463	2.0209	3.0909	0.1	5801.
4464	2.0209	3.2727	0.1	5800.
4465	2.0209	3.4545	0.1	5798.2
4466	2.0209	3.6364	0.1	5796.
4467	2.0209	3.8182	0.1	5793.7
4468	2.0209	4.	0.1	5792.1
4469	2.0209	4.1818	0.1	5791.9
4470	2.0209	4.3636	0.1	5793.9
4471	2.0209	4.5455	0.1	5798.9
4472	2.0209	4.7273	0.1	5807.6
4473	2.0209	4.9091	0.1	5820.6
4474	2.0209	5.0909	0.1	5838.3
4475	2.0209	5.2727	0.1	5860.8
4476	2.0209	5.4545	0.1	5888.
4477	2.0209	5.6364	0.1	5919.8
4478	2.0209	5.8182	0.1	5964.8
4479	2.2047	0.18182	0.1	5911.1
4480	2.2047	0.36364	0.1	5869.4
4481	2.2047	0.54545	0.1	5838.3
4482	2.2047	0.72727	0.1	5810.7
4483	2.2047	0.90909	0.1	5786.8
4484	2.2047	1.0909	0.1	5766.6
4485	2.2047	1.2727	0.1	5750.2
4486	2.2047	1.4545	0.1	5737.5
4487	2.2047	1.6364	0.1	5728.2
4488	2.2047	1.8182	0.1	5721.7
4489	2.2047	2.	0.1	5717.6
4490	2.2047	2.1818	0.1	5715.3
4491	2.2047	2.3636	0.1	5714.1
4492	2.2047	2.5455	0.1	5713.8
4493	2.2047	2.7273	0.1	5713.7
4494	2.2047	2.9091	0.1	5713.8
4495	2.2047	3.0909	0.1	5713.8
4496	2.2047	3.2727	0.1	5713.7
4497	2.2047	3.4545	0.1	5713.8
4498	2.2047	3.6364	0.1	5714.1
4499	2.2047	3.8182	0.1	5715.3
4500	2.2047	4.	0.1	5717.6
4501	2.2047	4.1818	0.1	5721.7
4502	2.2047	4.3636	0.1	5728.2
4503	2.2047	4.5455	0.1	5737.5
4504	2.2047	4.7273	0.1	5750.2
4505	2.2047	4.9091	0.1	5766.6
4506	2.2047	5.0909	0.1	5786.8
4507	2.2047	5.2727	0.1	5810.7
4508	2.2047	5.4545	0.1	5838.3
4509	2.2047	5.6364	0.1	5869.4
4510	2.2047	5.8182	0.1	5911.1
4511	2.3884	0.18182	0.1	5852.2
4512	2.3884	0.36364	0.1	5813.6
4513	2.3884	0.54545	0.1	5783.6
4514	2.3884	0.72727	0.1	5756.2
4515	2.3884	0.90909	0.1	5731.7
4516	2.3884	1.0909	0.1	5710.1
4517	2.3884	1.2727	0.1	5691.7
4518	2.3884	1.4545	0.1	5676.4
4519	2.3884	1.6364	0.1	5664.1
4520	2.3884	1.8182	0.1	5654.5
4521	2.3884	2.	0.1	5647.3
4522	2.3884	2.1818	0.1	5642.
4523	2.3884	2.3636	0.1	5638.4
4524	2.3884	2.5455	0.1	5636.
4525	2.3884	2.7273	0.1	5634.5
4526	2.3884	2.9091	0.1	5633.9
4527	2.3884	3.0909	0.1	5633.9
4528	2.3884	3.2727	0.1	5634.5
4529	2.3884	3.4545	0.1	5636.
4530	2.3884	3.6364	0.1	5638.4
4531	2.3884	3.8182	0.1	5642.
4532	2.3884	4.	0.1	5647.3
4533	2.3884	4.1818	0.1	5654.5
4534	2.3884	4.3636	0.1	5664.1
4535	2.3884	4.5455	0.1	5676.4
4536	2.3884	4.7273	0.1	5691.7
4537	2.3884	4.9091	0.1	5710.1
4538	2.3884	5.0909	0.1	5731.7
4539	2.3884	5.2727	0.1	5756.2
4540	2.3884	5.4545	0.1	5783.6
4541	2.3884	5.6364	0.1	5813.6
4542	2.3884	5.8182	0.1	5852.2
4543	2.5721	0.18182	0.1	5789.8
4544	2.5721	0.36364	0.1	5754.1
4545	2.5721	0.54545	0.1	5725.3
4546	2.5721	0.72727	0.1	5698.6
4547	2.5721	0.90909	0.1	5674.1
4548	2.5721	1.0909	0.1	5651.9
4549	2.5721	1.2727	0.1	5632.4
4550	2.5721	1.4545	0.1	5615.5
4551	2.5721	1.6364	0.1	5601.3
4552	2.5721	1.8182	0.1	5589.6
4553	2.5721	2.	0.1	5580.2
4554	2.5721	2.1818	0.1	5572.9
4555	2.5721	2.3636	0.1	5567.4
4556	2.5721	2.5455	0.1	5563.5
4557	2.5721	2.7273	0.1	5561.1
4558	2.5721	2.9091	0.1	5559.9
4559	2.5721	3.0909	0.1	5559.9
4560	2.5721	3.2727	0.1	5561.1
4561	2.5721	3.4545	0.1	5563.5
4562	2.5721	3.6364	0.1	5567.4
4563	2.5721	3.8182	0.1	5572.9
4564	2.5721	4.	0.1	5580.2
4565	2.5721	4.1818	0.1	5589.6
4566	2.5721	4.3636	0.1	5601.3
4567	2.5721	4.5455	0.1	5615.5
4568	2.5721	4.7273	0.1	5632.4
4569	2.5721	4.9091	0.1	5651.9
4570	2.5721	5.0909	0.1	5674.1
4571	2.5721	5.2727	0.1	5698.6
4572	2.5721	5.4545	0.1	5725.3
4573	2.5721	5.6364	0.1	5754.1
4574	2.5721	5.8182	0.1	5789.8
4575	2.7558	0.18182	0.1	5725.
4576	2.7558	0.36364	0.1	5692.
4577	2.7558	0.54545	0.1	5664.6
4578	2.7558	0.72727	0.1	5638.8
4579	2.7558	0.90909	0.1	5614.7
4580	2.7558	1.0909	0.1	5592.5
4581	2.7558	1.2727	0.1	5572.6
4582	2.7558	1.4545	0.1	5554.9
4583	2.7558	1.6364	0.1	5539.5
4584	2.7558	1.8182	0.1	5526.5
4585	2.7558	2.	0.1	5515.7
4586	2.7558	2.1818	0.1	5507.
4587	2.7558	2.3636	0.1	5500.3
4588	2.7558	2.5455	0.1	5495.4
4589	2.7558	2.7273	0.1	5492.2
4590	2.7558	2.9091	0.1	5490.6
4591	2.7558	3.0909	0.1	5490.6
4592	2.7558	3.2727	0.1	5492.2
4593	2.7558	3.4545	0.1	5495.4
4594	2.7558	3.6364	0.1	5500.3
4595	2.7558	3.8182	0.1	5507.
4596	2.7558	4.	0.1	5515.7
4597	2.7558	4.1818	0.1	5526.5
4598	2.7558	4.3636	0.1	5539.5
4599	2.7558	4.5455	0.1	5554.9
4600	2.7558	4.7273	0.1	5572.6
4601	2.7558	4.9091	0.1	5592.5
4602	2.7558	5.0909	0.1	5614.7
4603	2.7558	5.2727	0.1	5638.8
4604	2.7558	5.4545	0.1	5664.6
4605	2.7558	5.6364	0.1	5692.
4606	2.7558	5.8182	0.1	5725.
4607	2.9395	0.18182	0.1	5658.7
4608	2.9395	0.36364	0.1	5628.3
4609	2.9395	0.54545	0.1	5602.3
4610	2.9395	0.72727	0.1	5577.5
4611	2.9395	0.90909	0.1	5554.1
4612	2.9395	1.0909	0.1	5532.3
4613	2.9395	1.2727	0.1	5512.4
4614	2.9395	1.4545	0.1	5494.4
4615	2.9395	1.6364	0.1	5478.5
4616	2.9395	1.8182	0.1	5464.8
4617	2.9395	2.	0.1	5453.2
4618	2.9395	2.1818	0.1	5443.7
4619	2.9395	2.3636	0.1	5436.2
4620	2.9395	2.5455	0.1	5430.6
4621	2.9395	2.7273	0.1	5427.
4622	2.9395	2.9091	0.1	5425.2
4623	2.9395	3.0909	0.1	5425.2
4624	2.9395	3.2727	0.1	5427.
4625	2.9395	3.4545	0.1	5430.6
4626	2.9395	3.6364	0.1	5436.2
4627	2.9395	3.8182	0.1	5443.7
4628	2.9395	4.	0.1	5453.2
4629	2.9395	4.1818	0.1	5464.8
4630	2.9395	4.3636	0.1	5478.5
4631	2.9395	4.5455	0.1	5494.4
4632	2.9395	4.7273	0.1	5512.4
4633	2.9395	4.9091	0.1	5532.3
4634	2.9395	5.0909	0.1	5554.1
4635	2.9395	5.2727	0.1	5577.5
4636	2.9395	5.4545	0.1	5602.3
4637	2.9395	5.6364	0.1	5628.3
4638	2.9395	5.8182	0.1	5658.7
4639	3.1233	0.18182	0.1	5591.6
4640	3.1233	0.36364	0.1	5563.5
4641	3.1233	0.54545	0.1	5539.
4642	3.1233	0.72727	0.1	5515.3
4643	3.1233	0.90909	0.1	5492.8
4644	3.1233	1.0909	0.1	5471.7
4645	3.1233	1.2727	0.1	5452.1
4646	3.1233	1.4545	0.1	5434.3
4647	3.1233	1.6364	0.1	5418.3
4648	3.1233	1.8182	0.1	5404.3
4649	3.1233	2.	0.1	5392.3
4650	3.1233	2.1818	0.1	5382.3
4651	3.1233	2.3636	0.1	5374.4
4652	3.1233	2.5455	0.1	5368.5
4653	3.1233	2.7273	0.1	5364.6
4654	3.1233	2.9091	0.1	5362.6
4655	3.1233	3.0909	0.1	5362.6
4656	3.1233	3.2727	0.1	5364.6
4657	3.1233	3.4545	0.1	5368.5
4658	3.1233	3.6364	0.1	5374.4
4659	3.1233	3.8182	0.1	5382.3
4660	3.1233	4.	0.1	5392.3
4661	3.1233	4.1818	0.1	5404.3
4662	3.1233	4.3636	0.1	5418.3
4663	3.1233	4.5455	0.1	5434.3
4664	3.1233	4.7273	0.1	5452.1
4665	3.1233	4.9091	0.1	5471.7
4666	3.1233	5.0909	0.1	5492.8
4667	3.1233	5.2727	0.1	5515.3
4668	3.1233	5.4545	0.1	5539.
4669	3.1233	5.6364	0.1	5563.5
4670	3.1233	5.8182	0.1	5591.6
4671	3.307	0.18182	0.1	5524.2
4672	3.307	0.36364	0.1	5498.2
4673	3.307	0.54545	0.1	5475.
4674	3.307	0.72727	0.1	5452.6
4675	3.307	0.90909	0.1	5431.1
4676	3.307	1.0909	0.1	5410.8
4677	3.307	1.2727	0.1	5391.9
4678	3.307	1.4545	0.1	5374.4
4679	3.307	1.6364	0.1	5358.7
4680	3.307	1.8182	0.1	5344.7
4681	3.307	2.	0.1	5332.7
4682	3.307	2.1818	0.1	5322.6
4683	3.307	2.3636	0.1	5314.5
4684	3.307	2.5455	0.1	5308.5
4685	3.307	2.7273	0.1	5304.4
4686	3.307	2.9091	0.1	5302.4
4687	3.307	3.0909	0.1	5302.4
4688	3.307	3.2727	0.1	5304.4
4689	3.307	3.4545	0.1	5308.5
4690	3.307	3.6364	0.1	5314.5
4691	3.307	3.8182	0.1	5322.6
4692	3.307	4.	0.1	5332.7
4693	3.307	4.1818	0.1	5344.7
4694	3.307	4.3636	0.1	5358.7
4695	3.307	4.5455	0.1	5374.4
4696	3.307	4.7273	0.1	5391.9
4697	3.307	4.9091	0.1	5410.8
4698	3.307	5.0909	0.1	5431.1
4699	3.307	5.2727	0.1	5452.6
4700	3.307	5.4545	0.1	5475.
4701	3.307	5.6364	0.1	5498.2
4702	3.307	5.8182	0.1	5524.2
4703	3.4907	0.18182	0.1	5456.6
4704	3.4907	0.36364	0.1	5432.6
4705	3.4907	0.54545	0.1	5410.9
4706	3.4907	0.72727	0.1	5389.7
4707	3.4907	0.90909	0.1	5369.3
4708	3.4907	1.0909	0.1	5349.9
4709	3.4907	1.2727	0.1	5331.7
4710	3.4907	1.4545	0.1	5314.9
4711	3.4907	1.6364	0.1	5299.6
4712	3.4907	1.8182	0.1	5286.
4713	3.4907	2.	0.1	5274.1
4714	3.4907	2.1818	0.1	5264.1
4715	3.4907	2.3636	0.1	5256.1
4716	3.4907	2.5455	0.1	5250.
4717	3.4907	2.7273	0.1	5246.
4718	3.4907	2.9091	0.1	5244.
4719	3.4907	3.0909	0.1	5244.
4720	3.4907	3.2727	0.1	5246.
4721	3.4907	3.4545	0.1	5250.
4722	3.4907	3.6364	0.1	5256.1
4723	3.4907	3.8182	0.1	5264.1
4724	3.4907	4.	0.1	5274.1
4725	3.4907	4.1818	0.1	5286.
4726	3.4907	4.3636	0.1	5299.6
4727	3.4907	4.5455	0.1	5314.9
4728	3.4907	4.7273	0.1	5331.7
4729	3.4907	4.9091	0.1	5349.9
4730	3.4907	5.0909	0.1	5369.3
4731	3.4907	5.2727	0.1	5389.7
4732	3.4907	5.4545	0.1	5410.9
4733	3.4907	5.6364	0.1	5432.6
4734	3.4907	5.8182	0.1	5456.6
4735	3.6744	0.18182	0.1	5389.3
4736	3.6744	0.36364	0.1	5367.1
4737	3.6744	0.54545	0.1	5346.8
4738	3.6744	0.72727	0.1	5326.8
4739	3.6744	0.90909	0.1	5307.6
4740	3.6744	1.0909	0.1	5289.2
4741	3.6744	1.2727	0.1	5271.8
4742	3.6744	1.4545	0.1	5255.7
4743	3.6744	1.6364	0.1	5241.
4744	3.6744	1.8182	0.1	5227.8
4745	3.6744	2.	0.1	5216.4
4746	3.6744	2.1818	0.1	5206.6
4747	3.6744	2.3636	0.1	5198.8
4748	3.6744	2.5455	0.1	5192.8
4749	3.6744	2.7273	0.1	5188.9
4750	3.6744	2.9091	0.1	5186.9
4751	3.6744	3.0909	0.1	5186.9
4752	3.6744	3.2727	0.1	5188.9
4753	3.6744	3.4545	0.1	5192.8
4754	3.6744	3.6364	0.1	5198.8
4755	3.6744	3.8182	0.1	5206.6
4756	3.6744	4.	0.1	5216.4
4757	3.6744	4.1818	0.1	5227.8
4758	3.6744	4.3636	0.1	5241.
4759	3.6744	4.5455	0.1	5255.7
4760	3.6744	4.7273	0.1	5271.8
4761	3.6744	4.9091	0.1	5289.2
4762	3.6744	5.0909	0.1	5307.6
4763	3.6744	5.2727	0.1	5326.8
4764	3.6744	5.4545	0.1	5346.8
4765	3.6744	5.6364	0.1	5367.1
4766	3.6744	5.8182	0.1	5389.3
4767	3.8581	0.18182	0.1	5322.4
4768	3.8581	0.36364	0.1	5301.9
4769	3.8581	0.54545	0.1	5282.8
4770	3.8581	0.72727	0.1	5264.1
4771	3.8581	0.90909	0.1	5245.9
4772	3.8581	1.0909	0.1	5228.6
4773	3.8581	1.2727	0.1	5212.2
4774	3.8581	1.4545	0.1	5196.9
4775	3.8581	1.6364	0.1	5182.9
4776	3.8581	1.8182	0.1	5170.3
4777	3.8581	2.	0.1	5159.3
4778	3.8581	2.1818	0.1	5149.9
4779	3.8581	2.3636	0.1	5142.3
4780	3.8581	2.5455	0.1	5136.6
4781	3.8581	2.7273	0.1	5132.7
4782	3.8581	2.9091	0.1	5130.8
4783	3.8581	3.0909	0.1	5130.8
4784	3.8581	3.2727	0.1	5132.7
4785	3.8581	3.4545	0.1	5136.6
4786	3.8581	3.6364	0.1	5142.3
4787	3.8581	3.8182	0.1	5149.9
4788	3.8581	4.	0.1	5159.3
4789	3.8581	4.1818	0.1	5170.3
4790	3.8581	4.3636	0.1	5182.9
4791	3.8581	4.5455	0.1	5196.9
4792	3.8581	4.7273	0.1	5212.2
4793	3.8581	4.9091	0.1	5228.6
4794	3.8581	5.0909	0.1	5245.9
4795	3.8581	5.2727	0.1	5264.1
4796	3.8581	5.4545	0.1	5282.8
4797	3.8581	5.6364	0.1	5301.9
4798	3.8581	5.8182	0.1	5322.4
4799	4.0419	0.18182	0.1	5255.9
4800	4.0419	0.36364	0.1	5237.
4801	4.0419	0.54545	0.1	5219.1
4802	4.0419	0.72727	0.1	5201.6
4803	4.0419	0.90909	0.1	5184.6
4804	4.0419	1.0909	0.1	5168.3
4805	4.0419	1.2727	0.1	5152.8
4806	4.0419	1.4545	0.1	5138.3
4807	4.0419	1.6364	0.1	5125.1
4808	4.0419	1.8182	0.1	5113.1
4809	4.0419	2.	0.1	5102.7
4810	4.0419	2.1818	0.1	5093.8
4811	4.0419	2.3636	0.1	5086.5
4812	4.0419	2.5455	0.1	5081.
4813	4.0419	2.7273	0.1	5077.3
4814	4.0419	2.9091	0.1	5075.5
4815	4.0419	3.0909	0.1	5075.5
4816	4.0419	3.2727	0.1	5077.3
4817	4.0419	3.4545	0.1	5081.
4818	4.0419	3.6364	0.1	5086.5
4819	4.0419	3.8182	0.1	5093.8
4820	4.0419	4.	0.1	5102.7
4821	4.0419	4.1818	0.1	5113.1
4822	4.0419	4.3636	0.1	5125.1
4823	4.0419	4.5455	0.1	5138.3
4824	4.0419	4.7273	0.1	5152.8
4825	4.0419	4.9091	0.1	5168.3
4826	4.0419	5.0909	0.1	5184.6
4827	4.0419	5.2727	0.1	5201.6
4828	4.0419	5.4545	0.1	5219.1
4829	4.0419	5.6364	0.1	5237.
4830	4.0419	5.8182	0.1	5255.9
4831	4.2256	0.18182	0.1	5190.1
4832	4.2256	0.36364	0.1	5172.5
4833	4.2256	0.54545	0.1	5155.9
4834	4.2256	0.72727	0.1	5139.5
4835	4.2256	0.90909	0.1	5123.6
4836	4.2256	1.0909	0.1	5108.3
4837	4.2256	1.2727	0.1	5093.7
4838	4.2256	1.4545	0.1	5080.1
4839	4.2256	1.6364	0.1	5067.7
4840	4.2256	1.8182	0.1	5056.4
4841	4.2256	2.	0.1	5046.5
4842	4.2256	2.1818	0.1	5038.1
4843	4.2256	2.3636	0.1	5031.2
4844	4.2256	2.5455	0.1	5026.
4845	4.2256	2.7273	0.1	5022.5
4846	4.2256	2.9091	0.1	5020.7
4847	4.2256	3.0909	0.1	5020.7
4848	4.2256	3.2727	0.1	5022.5
4849	4.2256	3.4545	0.1	5026.
4850	4.2256	3.6364	0.1	5031.2
4851	4.2256	3.8182	0.1	5038.1
4852	4.2256	4.	0.1	5046.5
4853	4.2256	4.1818	0.1	5056.4
4854	4.2256	4.3636	0.1	5067.7
4855	4.2256	4.5455	0.1	5080.1
4856	4.2256	4.7273	0.1	5093.7
4857	4.2256	4.9091	0.1	5108.3
4858	4.2256	5.0909	0.1	5123.6
4859	4.2256	5.2727	0.1	5139.5
4860	4.2256	5.4545	0.1	5155.9
4861	4.2256	5.6364	0.1	5172.5
4862	4.2256	5.8182	0.1	5190.1
4863	4.4093	0.18182	0.1	5124.8
4864	4.4093	0.36364	0.1	5108.6
4865	4.4093	0.54545	0.1	5093.1
4866	4.4093	0.72727	0.1	5077.8
4867	4.4093	0.90909	0.1	5062.9
4868	4.4093	1.0909	0.1	5048.6
4869	4.4093	1.2727	0.1	5035.
4870	4.4093	1.4545	0.1	5022.3
4871	4.4093	1.6364	0.1	5010.5
4872	4.4093	1.8182	0.1	5000.
4873	4.4093	2.	0.1	4990.7
4874	4.4093	2.1818	0.1	4982.7
4875	4.4093	2.3636	0.1	4976.3
4876	4.4093	2.5455	0.1	4971.4
4877	4.4093	2.7273	0.1	4968.1
4878	4.4093	2.9091	0.1	4966.4
4879	4.4093	3.0909	0.1	4966.4
4880	4.4093	3.2727	0.1	4968.1
4881	4.4093	3.4545	0.1	4971.4
4882	4.4093	3.6364	0.1	4976.3
4883	4.4093	3.8182	0.1	4982.7
4884	4.4093	4.	0.1	4990.7
4885	4.4093	4.1818	0.1	5000.
4886	4.4093	4.3636	0.1	5010.5
4887	4.4093	4.5455	0.1	5022.3
4888	4.4093	4.7273	0.1	5035.
4889	4.4093	4.9091	0.1	5048.6
4890	4.4093	5.0909	0.1	5062.9
4891	4.4093	5.2727	0.1	5077.8
4892	4.4093	5.4545	0.1	5093.1
4893	4.4093	5.6364	0.1	5108.6
4894	4.4093	5.8182	0.1	5124.8
4895	4.593	0.18182	0.1	5060.2
4896	4.593	0.36364	0.1	5045.2
4897	4.593	0.54545	0.1	5030.8
4898	4.593	0.72727	0.1	5016.5
4899	4.593	0.90909	0.1	5002.6
4900	4.593	1.0909	0.1	4989.3
4901	4.593	1.2727	0.1	4976.6
4902	4.593	1.4545	0.1	4964.7
4903	4.593	1.6364	0.1	4953.7
4904	4.593	1.8182	0.1	4943.8
4905	4.593	2.	0.1	4935.1
4906	4.593	2.1818	0.1	4927.7
4907	4.593	2.3636	0.1	4921.7
4908	4.593	2.5455	0.1	4917.
4909	4.593	2.7273	0.1	4913.9
4910	4.593	2.9091	0.1	4912.4
4911	4.593	3.0909	0.1	4912.4
4912	4.593	3.2727	0.1	4913.9
4913	4.593	3.4545	0.1	4917.
4914	4.593	3.6364	0.1	4921.7
4915	4.593	3.8182	0.1	4927.7
4916	4.593	4.	0.1	4935.1
4917	4.593	4.1818	0.1	4943.8
4918	4.593	4.3636	0.1	4953.7
4919	4.593	4.5455	0.1	4964.7
4920	4.593	4.7273	0.1	4976.6
4921	4.593	4.9091	0.1	4989.3
4922	4.593	5.0909	0.1	5002.6
4923	4.593	5.2727	0.1	5016.5
4924	4.593	5.4545	0.1	5030.8
4925	4.593	5.6364	0.1	5045.2
4926	4.593	5.8182	0.1	5060.2
4927	4.7767	0.18182	0.1	4996.3
4928	4.7767	0.36364	0.1	4982.4
4929	4.7767	0.54545	0.1	4968.9
4930	4.7767	0.72727	0.1	4955.6
4931	4.7767	0.90909	0.1	4942.7
4932	4.7767	1.0909	0.1	4930.3
4933	4.7767	1.2727	0.1	4918.4
4934	4.7767	1.4545	0.1	4907.4
4935	4.7767	1.6364	0.1	4897.1
4936	4.7767	1.8182	0.1	4887.9
4937	4.7767	2.	0.1	4879.8
4938	4.7767	2.1818	0.1	4872.9
4939	4.7767	2.3636	0.1	4867.2
4940	4.7767	2.5455	0.1	4862.9
4941	4.7767	2.7273	0.1	4860.
4942	4.7767	2.9091	0.1	4858.6
4943	4.7767	3.0909	0.1	4858.6
4944	4.7767	3.2727	0.1	4860.
4945	4.7767	3.4545	0.1	4862.9
4946	4.7767	3.6364	0.1	4867.2
4947	4.7767	3.8182	0.1	4872.9
4948	4.7767	4.	0.1	4879.8
4949	4.7767	4.1818	0.1	4887.9
4950	4.7767	4.3636	0.1	4897.2
4951	4.7767	4.5455	0.1	4907.4
4952	4.7767	4.7273	0.1	4918.4
4953	4.7767	4.9091	0.1	4930.3
4954	4.7767	5.0909	0.1	4942.7
4955	4.7767	5.2727	0.1	4955.6
4956	4.7767	5.4545	0.1	4968.9
4957	4.7767	5.6364	0.1	4982.4
4958	4.7767	5.8182	0.1	4996.3
4959	4.9605	0.18182	0.1	4933.1
4960	4.9605	0.36364	0.1	4920.1
4961	4.9605	0.54545	0.1	4907.6
4962	4.9605	0.72727	0.1	4895.2
4963	4.9605	0.90909	0.1	4883.2
4964	4.9605	1.0909	0.1	4871.6
4965	4.9605	1.2727	0.1	4860.6
4966	4.9605	1.4545	0.1	4850.3
4967	4.9605	1.6364	0.1	4840.8
4968	4.9605	1.8182	0.1	4832.2
4969	4.9605	2.	0.1	4824.7
4970	4.9605	2.1818	0.1	4818.2
4971	4.9605	2.3636	0.1	4813.
4972	4.9605	2.5455	0.1	4809.
4973	4.9605	2.7273	0.1	4806.3
4974	4.9605	2.9091	0.1	4804.9
4975	4.9605	3.0909	0.1	4804.9
4976	4.9605	3.2727	0.1	4806.3
4977	4.9605	3.4545	0.1	4809.
4978	4.9605	3.6364	0.1	4813.
4979	4.9605	3.8182	0.1	4818.2
4980	4.9605	4.	0.1	4824.7
4981	4.9605	4.1818	0.1	4832.2
4982	4.9605	4.3636	0.1	4840.8
4983	4.9605	4.5455	0.1	4850.3
4984	4.9605	4.7273	0.1	4860.6
4985	4.9605	4.9091	0.1	4871.6
4986	4.9605	5.0909	0.1	4883.2
4987	4.9605	5.2727	0.1	4895.2
4988	4.9605	5.4545	0.1	4907.6
4989	4.9605	5.6364	0.1	4920.1
4990	4.9605	5.8182	0.1	4933.1
4991	5.1442	0.18182	0.1	4870.4
4992	5.1442	0.36364	0.1	4858.4
4993	5.1442	0.54545	0.1	4846.8
4994	5.1442	0.72727	0.1	4835.3
4995	5.1442	0.90909	0.1	4824.1
4996	5.1442	1.0909	0.1	4813.3
4997	5.1442	1.2727	0.1	4803.1
4998	5.1442	1.4545	0.1	4793.5
4999	5.1442	1.6364	0.1	4784.7
5000	5.1442	1.8182	0.1	4776.7
5001	5.1442	2.	0.1	4769.7
5002	5.1442	2.1818	0.1	4763.7
5003	5.1442	2.3636	0.1	4758.8
5004	5.1442	2.5455	0.1	4755.1
5005	5.1442	2.7273	0.1	4752.6
5006	5.1442	2.9091	0.1	4751.4
5007	5.1442	3.0909	0.1	4751.4
5008	5.1442	3.2727	0.1	4752.6
5009	5.1442	3.4545	0.1	4755.1
5010	5.1442	3.6364	0.1	4758.8
5011	5.1442	3.8182	0.1	4763.7
5012	5.1442	4.	0.1	4769.7
5013	5.1442	4.1818	0.1	4776.7
5014	5.1442	4.3636	0.1	4784.7
5015	5.1442	4.5455	0.1	4793.5
5016	5.1442	4.7273	0.1	4803.1
5017	5.1442	4.9091	0.1	4813.3
5018	5.1442	5.0909	0.1	4824.1
5019	5.1442	5.2727	0.1	4835.3
5020	5.1442	5.4545	0.1	4846.8
5021	5.1442	5.6364	0.1	4858.4
5022	5.1442	5.8182	0.1	4870.4
5023	5.3279	0.18182	0.1	4808.4
5024	5.3279	0.36364	0.1	4797.3
5025	5.3279	0.54545	0.1	4786.4
5026	5.3279	0.72727	0.1	4775.8
5027	5.3279	0.90909	0.1	4765.4
5028	5.3279	1.0909	0.1	4755.4
5029	5.3279	1.2727	0.1	4745.9
5030	5.3279	1.4545	0.1	4737.
5031	5.3279	1.6364	0.1	4728.8
5032	5.3279	1.8182	0.1	4721.4
5033	5.3279	2.	0.1	4714.9
5034	5.3279	2.1818	0.1	4709.3
5035	5.3279	2.3636	0.1	4704.8
5036	5.3279	2.5455	0.1	4701.4
5037	5.3279	2.7273	0.1	4699.
5038	5.3279	2.9091	0.1	4697.9
5039	5.3279	3.0909	0.1	4697.9
5040	5.3279	3.2727	0.1	4699.
5041	5.3279	3.4545	0.1	4701.4
5042	5.3279	3.6364	0.1	4704.8
5043	5.3279	3.8182	0.1	4709.3
5044	5.3279	4.	0.1	4714.9
5045	5.3279	4.1818	0.1	4721.4
5046	5.3279	4.3636	0.1	4728.8
5047	5.3279	4.5455	0.1	4737.
5048	5.3279	4.7273	0.1	4745.9
5049	5.3279	4.9091	0.1	4755.4
5050	5.3279	5.0909	0.1	4765.4
5051	5.3279	5.2727	0.1	4775.8
5052	5.3279	5.4545	0.1	4786.4
5053	5.3279	5.6364	0.1	4797.3
5054	5.3279	5.8182	0.1	4808.4
5055	5.5116	0.18182	0.1	4747.1
5056	5.5116	0.36364	0.1	4736.7
5057	5.5116	0.54545	0.1	4726.6
5058	5.5116	0.72727	0.1	4716.7
5059	5.5116	0.90909	0.1	4707.
5060	5.5116	1.0909	0.1	4697.7
5061	5.5116	1.2727	0.1	4688.9
5062	5.5116	1.4545	0.1	4680.7
5063	5.5116	1.6364	0.1	4673.1
5064	5.5116	1.8182	0.1	4666.2
5065	5.5116	2.	0.1	4660.2
5066	5.5116	2.1818	0.1	4655.1
5067	5.5116	2.3636	0.1	4650.9
5068	5.5116	2.5455	0.1	4647.7
5069	5.5116	2.7273	0.1	4645.5
5070	5.5116	2.9091	0.1	4644.5
5071	5.5116	3.0909	0.1	4644.5
5072	5.5116	3.2727	0.1	4645.5
5073	5.5116	3.4545	0.1	4647.7
5074	5.5116	3.6364	0.1	4650.9
5075	5.5116	3.8182	0.1	4655.1
5076	5.5116	4.	0.1	4660.2
5077	5.5116	4.1818	0.1	4666.2
5078	5.5116	4.3636	0.1	4673.1
5079	5.5116	4.5455	0.1	4680.7
5080	5.5116	4.7273	0.1	4688.9
5081	5.5116	4.9091	0.1	4697.7
5082	5.5116	5.0909	0.1	4707.
5083	5.5116	5.2727	0.1	4716.7
5084	5.5116	5.4545	0.1	4726.6
5085	5.5116	5.6364	0.1	4736.7
5086	5.5116	5.8182	0.1	4747.1
5087	5.6953	0.18182	0.1	4686.3
5088	5.6953	0.36364	0.1	4676.6
5089	5.6953	0.54545	0.1	4667.2
5090	5.6953	0.72727	0.1	4658.
5091	5.6953	0.90909	0.1	4649.
5092	5.6953	1.0909	0.1	4640.4
5093	5.6953	1.2727	0.1	4632.2
5094	5.6953	1.4545	0.1	4624.6
5095	5.6953	1.6364	0.1	4617.6
5096	5.6953	1.8182	0.1	4611.2
5097	5.6953	2.	0.1	4605.6
5098	5.6953	2.1818	0.1	4600.9
5099	5.6953	2.3636	0.1	4597.
5100	5.6953	2.5455	0.1	4594.
5101	5.6953	2.7273	0.1	4592.1
5102	5.6953	2.9091	0.1	4591.1
5103	5.6953	3.0909	0.1	4591.1
5104	5.6953	3.2727	0.1	4592.1
5105	5.6953	3.4545	0.1	4594.
5106	5.6953	3.6364	0.1	4597.
5107	5.6953	3.8182	0.1	4600.9
5108	5.6953	4.	0.1	4605.6
5109	5.6953	4.1818	0.1	4611.2
5110	5.6953	4.3636	0.1	4617.6
5111	5.6953	4.5455	0.1	4624.6
5112	5.6953	4.7273	0.1	4632.2
5113	5.6953	4.9091	0.1	4640.4
5114	5.6953	5.0909	0.1	4649.
5115	5.6953	5.2727	0.1	4658.
5116	5.6953	5.4545	0.1	4667.2
5117	5.6953	5.6364	0.1	4676.6
5118	5.6953	5.8182	0.1	4686.3
5119	5.8791	0.18182	0.1	4626.
5120	5.8791	0.36364	0.1	4617.
5121	5.8791	0.54545	0.1	4608.3
5122	5.8791	0.72727	0.1	4599.7
5123	5.8791	0.90909	0.1	4591.4
5124	5.8791	1.0909	0.1	4583.4
5125	5.8791	1.2727	0.1	4575.8
5126	5.8791	1.4545	0.1	4568.7
5127	5.8791	1.6364	0.1	4562.2
5128	5.8791	1.8182	0.1	4556.4
5129	5.8791	2.	0.1	4551.2
5130	5.8791	2.1818	0.1	4546.8
5131	5.8791	2.3636	0.1	4543.2
5132	5.8791	2.5455	0.1	4540.5
5133	5.8791	2.7273	0.1	4538.6
5134	5.8791	2.9091	0.1	4537.7
5135	5.8791	3.0909	0.1	4537.7
5136	5.8791	3.2727	0.1	4538.6
5137	5.8791	3.4545	0.1	4540.5
5138	5.8791	3.6364	0.1	4543.2
5139	5.8791	3.8182	0.1	4546.8
5140	5.8791	4.	0.1	4551.2
5141	5.8791	4.1818	0.1	4556.4
5142	5.8791	4.3636	0.1	4562.2
5143	5.8791	4.5455	0.1	4568.7
5144	5.8791	4.7273	0.1	4575.8
5145	5.8791	4.9091	0.1	4583.4
5146	5.8791	5.0909	0.1	4591.4
5147	5.8791	5.2727	0.1	4599.7
5148	5.8791	5.4545	0.1	4608.3
5149	5.8791	5.6364	0.1	4617.
5150	5.8791	5.8182	0.1	4626.
5151	6.0628	0.18182	0.1	4566.3
5152	6.0628	0.36364	0.1	4557.9
5153	6.0628	0.54545	0.1	4549.8
5154	6.0628	0.72727	0.1	4541.8
5155	6.0628	0.90909	0.1	4534.1
5156	6.0628	1.0909	0.1	4526.7
5157	6.0628	1.2727	0.1	4519.6
5158	6.0628	1.4545	0.1	4513.1
5159	6.0628	1.6364	0.1	4507.1
5160	6.0628	1.8182	0.1	4501.6
5161	6.0628	2.	0.1	4496.8
5162	6.0628	2.1818	0.1	4492.8
5163	6.0628	2.3636	0.1	4489.5
5164	6.0628	2.5455	0.1	4486.9
5165	6.0628	2.7273	0.1	4485.2
5166	6.0628	2.9091	0.1	4484.4
5167	6.0628	3.0909	0.1	4484.4
5168	6.0628	3.2727	0.1	4485.2
5169	6.0628	3.4545	0.1	4486.9
5170	6.0628	3.6364	0.1	4489.5
5171	6.0628	3.8182	0.1	4492.8
5172	6.0628	4.	0.1	4496.8
5173	6.0628	4.1818	0.1	4501.6
5174	6.0628	4.3636	0.1	4507.1
5175	6.0628	4.5455	0.1	4513.1
5176	6.0628	4.7273	0.1	4519.6
5177	6.0628	4.9091	0.1	4526.7
5178	6.0628	5.0909	0.1	4534.1
5179	6.0628	5.2727	0.1	4541.8
5180	6.0628	5.4545	0.1	4549.8
5181	6.0628	5.6364	0.1	4557.9
5182	6.0628	5.8182	0.1	4566.3
5183	6.2465	0.18182	0.1	4507.1
5184	6.2465	0.36364	0.1	4499.2
5185	6.2465	0.54545	0.1	4491.7
5186	6.2465	0.72727	0.1	4484.3
5187	6.2465	0.90909	0.1	4477.1
5188	6.2465	1.0909	0.1	4470.2
5189	6.2465	1.2727	0.1	4463.7
5190	6.2465	1.4545	0.1	4457.6
5191	6.2465	1.6364	0.1	4452.1
5192	6.2465	1.8182	0.1	4447.
5193	6.2465	2.	0.1	4442.6
5194	6.2465	2.1818	0.1	4438.8
5195	6.2465	2.3636	0.1	4435.8
5196	6.2465	2.5455	0.1	4433.4
5197	6.2465	2.7273	0.1	4431.9
5198	6.2465	2.9091	0.1	4431.1
5199	6.2465	3.0909	0.1	4431.1
5200	6.2465	3.2727	0.1	4431.9
5201	6.2465	3.4545	0.1	4433.4
5202	6.2465	3.6364	0.1	4435.8
5203	6.2465	3.8182	0.1	4438.8
5204	6.2465	4.	0.1	4442.6
5205	6.2465	4.1818	0.1	4447.
5206	6.2465	4.3636	0.1	4452.1
5207	6.2465	4.5455	0.1	4457.6
5208	6.2465	4.7273	0.1	4463.7
5209	6.2465	4.9091	0.1	4470.2
5210	6.2465	5.0909	0.1	4477.1
5211	6.2465	5.2727	0.1	4484.3
5212	6.2465	5.4545	0.1	4491.7
5213	6.2465	5.6364	0.1	4499.2
5214	6.2465	5.8182	0.1	4507.1
5215	6.4302	0.18182	0.1	4448.5
5216	6.4302	0.36364	0.1	4441.
5217	6.4302	0.54545	0.1	4434.
5218	6.4302	0.72727	0.1	4427.1
5219	6.4302	0.90909	0.1	4420.4
5220	6.4302	1.0909	0.1	4414.1
5221	6.4302	1.2727	0.1	4408.
5222	6.4302	1.4545	0.1	4402.4
5223	6.4302	1.6364	0.1	4397.2
5224	6.4302	1.8182	0.1	4392.6
5225	6.4302	2.	0.1	4388.5
5226	6.4302	2.1818	0.1	4385.
5227	6.4302	2.3636	0.1	4382.2
5228	6.4302	2.5455	0.1	4380.
5229	6.4302	2.7273	0.1	4378.6
5230	6.4302	2.9091	0.1	4377.8
5231	6.4302	3.0909	0.1	4377.8
5232	6.4302	3.2727	0.1	4378.6
5233	6.4302	3.4545	0.1	4380.
5234	6.4302	3.6364	0.1	4382.2
5235	6.4302	3.8182	0.1	4385.
5236	6.4302	4.	0.1	4388.5
5237	6.4302	4.1818	0.1	4392.6
5238	6.4302	4.3636	0.1	4397.2
5239	6.4302	4.5455	0.1	4402.4
5240	6.4302	4.7273	0.1	4408.
5241	6.4302	4.9091	0.1	4414.1
5242	6.4302	5.0909	0.1	4420.4
5243	6.4302	5.2727	0.1	4427.1
5244	6.4302	5.4545	0.1	4434.
5245	6.4302	5.6364	0.1	4441.
5246	6.4302	5.8182	0.1	4448.5
5247	6.614	0.18182	0.1	4390.2
5248	6.614	0.36364	0.1	4383.2
5249	6.614	0.54545	0.1	4376.7
5250	6.614	0.72727	0.1	4370.3
5251	6.614	0.90909	0.1	4364.1
5252	6.614	1.0909	0.1	4358.2
5253	6.614	1.2727	0.1	4352.6
5254	6.614	1.4545	0.1	4347.3
5255	6.614	1.6364	0.1	4342.5
5256	6.614	1.8182	0.1	4338.2
5257	6.614	2.	0.1	4334.5
5258	6.614	2.1818	0.1	4331.2
5259	6.614	2.3636	0.1	4328.6
5260	6.614	2.5455	0.1	4326.6
5261	6.614	2.7273	0.1	4325.3
5262	6.614	2.9091	0.1	4324.6
5263	6.614	3.0909	0.1	4324.6
5264	6.614	3.2727	0.1	4325.3
5265	6.614	3.4545	0.1	4326.6
5266	6.614	3.6364	0.1	4328.6
5267	6.614	3.8182	0.1	4331.2
5268	6.614	4.	0.1	4334.5
5269	6.614	4.1818	0.1	4338.2
5270	6.614	4.3636	0.1	4342.5
5271	6.614	4.5455	0.1	4347.3
5272	6.614	4.7273	0.1	4352.6
5273	6.614	4.9091	0.1	4358.2
5274	6.614	5.0909	0.1	4364.1
5275	6.614	5.2727	0.1	4370.3
5276	6.614	5.4545	0.1	4376.7
5277	6.614	5.6364	0.1	4383.2
5278	6.614	5.8182	0.1	4390.2
5279	6.7977	0.18182	0.1	4332.4
5280	6.7977	0.36364	0.1	4325.8
5281	6.7977	0.54545	0.1	4319.7
5282	6.7977	0.72727	0.1	4313.8
5283	6.7977	0.90909	0.1	4308.
5284	6.7977	1.0909	0.1	4302.5
5285	6.7977	1.2727	0.1	4297.3
5286	6.7977	1.4545	0.1	4292.5
5287	6.7977	1.6364	0.1	4288.
5288	6.7977	1.8182	0.1	4284.
5289	6.7977	2.	0.1	4280.5
5290	6.7977	2.1818	0.1	4277.6
5291	6.7977	2.3636	0.1	4275.1
5292	6.7977	2.5455	0.1	4273.3
5293	6.7977	2.7273	0.1	4272.1
5294	6.7977	2.9091	0.1	4271.4
5295	6.7977	3.0909	0.1	4271.4
5296	6.7977	3.2727	0.1	4272.1
5297	6.7977	3.4545	0.1	4273.3
5298	6.7977	3.6364	0.1	4275.1
5299	6.7977	3.8182	0.1	4277.6
5300	6.7977	4.	0.1	4280.5
5301	6.7977	4.1818	0.1	4284.
5302	6.7977	4.3636	0.1	4288.
5303	6.7977	4.5455	0.1	4292.5
5304	6.7977	4.7273	0.1	4297.3
5305	6.7977	4.9091	0.1	4302.5
5306	6.7977	5.0909	0.1	4308.
5307	6.7977	5.2727	0.1	4313.8
5308	6.7977	5.4545	0.1	4319.7
5309	6.7977	5.6364	0.1	4325.8
5310	6.7977	5.8182	0.1	4332.4
5311	6.9814	0.18182	0.1	4275.1
5312	6.9814	0.36364	0.1	4268.8
5313	6.9814	0.54545	0.1	4263.1
5314	6.9814	0.72727	0.1	4257.6
5315	6.9814	0.90909	0.1	4252.2
5316	6.9814	1.0909	0.1	4247.1
5317	6.9814	1.2727	0.1	4242.3
5318	6.9814	1.4545	0.1	4237.8
5319	6.9814	1.6364	0.1	4233.7
5320	6.9814	1.8182	0.1	4230.
5321	6.9814	2.	0.1	4226.7
5322	6.9814	2.1818	0.1	4224.
5323	6.9814	2.3636	0.1	4221.7
5324	6.9814	2.5455	0.1	4220.
5325	6.9814	2.7273	0.1	4218.9
5326	6.9814	2.9091	0.1	4218.3
5327	6.9814	3.0909	0.1	4218.3
5328	6.9814	3.2727	0.1	4218.9
5329	6.9814	3.4545	0.1	4220.
5330	6.9814	3.6364	0.1	4221.7
5331	6.9814	3.8182	0.1	4224.
5332	6.9814	4.	0.1	4226.7
5333	6.9814	4.1818	0.1	4230.
5334	6.9814	4.3636	0.1	4233.7
5335	6.9814	4.5455	0.1	4237.8
5336	6.9814	4.7273	0.1	4242.3
5337	6.9814	4.9091	0.1	4247.1
5338	6.9814	5.0909	0.1	4252.2
5339	6.9814	5.2727	0.1	4257.6
5340	6.9814	5.4545	0.1	4263.1
5341	6.9814	5.6364	0.1	4268.8
5342	6.9814	5.8182	0.1	4275.1
5343	7.1651	0.18182	0.1	4218.1
5344	7.1651	0.36364	0.1	4212.2
5345	7.1651	0.54545	0.1	4206.9
5346	7.1651	0.72727	0.1	4201.7
5347	7.1651	0.90909	0.1	4196.8
5348	7.1651	1.0909	0.1	4192.
5349	7.1651	1.2727	0.1	4187.5
5350	7.1651	1.4545	0.1	4183.3
5351	7.1651	1.6364	0.1	4179.5
5352	7.1651	1.8182	0.1	4176.1
5353	7.1651	2.	0.1	4173.1
5354	7.1651	2.1818	0.1	4170.5
5355	7.1651	2.3636	0.1	4168.4
5356	7.1651	2.5455	0.1	4166.9
5357	7.1651	2.7273	0.1	4165.8
5358	7.1651	2.9091	0.1	4165.3
5359	7.1651	3.0909	0.1	4165.3
5360	7.1651	3.2727	0.1	4165.8
5361	7.1651	3.4545	0.1	4166.9
5362	7.1651	3.6364	0.1	4168.4
5363	7.1651	3.8182	0.1	4170.5
5364	7.1651	4.	0.1	4173.1
5365	7.1651	4.1818	0.1	4176.1
5366	7.1651	4.3636	0.1	4179.5
5367	7.1651	4.5455	0.1	4183.3
5368	7.1651	4.7273	0.1	4187.5
5369	7.1651	4.9091	0.1	4192.
5370	7.1651	5.0909	0.1	4196.8
5371	7.1651	5.2727	0.1	4201.7
5372	7.1651	5.4545	0.1	4206.9
5373	7.1651	5.6364	0.1	4212.2
5374	7.1651	5.8182	0.1	4218.1
5375	7.3488	0.18182	0.1	4161.5
5376	7.3488	0.36364	0.1	4155.9
5377	7.3488	0.54545	0.1	4151.
5378	7.3488	0.72727	0.1	4146.2
5379	7.3488	0.90909	0.1	4141.5
5380	7.3488	1.0909	0.1	4137.1
5381	7.3488	1.2727	0.1	4132.9
5382	7.3488	1.4545	0.1	4129.
5383	7.3488	1.6364	0.1	4125.5
5384	7.3488	1.8182	0.1	4122.3
5385	7.3488	2.	0.1	4119.5
5386	7.3488	2.1818	0.1	4117.2
5387	7.3488	2.3636	0.1	4115.2
5388	7.3488	2.5455	0.1	4113.8
5389	7.3488	2.7273	0.1	4112.8
5390	7.3488	2.9091	0.1	4112.3
5391	7.3488	3.0909	0.1	4112.3
5392	7.3488	3.2727	0.1	4112.8
5393	7.3488	3.4545	0.1	4113.8
5394	7.3488	3.6364	0.1	4115.2
5395	7.3488	3.8182	0.1	4117.2
5396	7.3488	4.	0.1	4119.5
5397	7.3488	4.1818	0.1	4122.3
5398	7.3488	4.3636	0.1	4125.5
5399	7.3488	4.5455	0.1	4129.
5400	7.3488	4.7273	0.1	4132.9
5401	7.3488	4.9091	0.1	4137.1
5402	7.3488	5.0909	0.1	4141.5
5403	7.3488	5.2727	0.1	4146.2
5404	7.3488	5.4545	0.1	4151.
5405	7.3488	5.6364	0.1	4155.9
5406	7.3488	5.8182	0.1	4161.5
5407	7.5326	0.18182	0.1	4105.4
5408	7.5326	0.36364	0.1	4100.
5409	7.5326	0.54545	0.1	4095.4
5410	7.5326	0.72727	0.1	4090.9
5411	7.5326	0.90909	0.1	4086.6
5412	7.5326	1.0909	0.1	4082.4
5413	7.5326	1.2727	0.1	4078.5
5414	7.5326	1.4545	0.1	4074.9
5415	7.5326	1.6364	0.1	4071.6
5416	7.5326	1.8182	0.1	4068.7
5417	7.5326	2.	0.1	4066.1
5418	7.5326	2.1818	0.1	4063.9
5419	7.5326	2.3636	0.1	4062.1
5420	7.5326	2.5455	0.1	4060.8
5421	7.5326	2.7273	0.1	4059.8
5422	7.5326	2.9091	0.1	4059.4
5423	7.5326	3.0909	0.1	4059.4
5424	7.5326	3.2727	0.1	4059.8
5425	7.5326	3.4545	0.1	4060.8
5426	7.5326	3.6364	0.1	4062.1
5427	7.5326	3.8182	0.1	4063.9
5428	7.5326	4.	0.1	4066.1
5429	7.5326	4.1818	0.1	4068.7
5430	7.5326	4.3636	0.1	4071.6
5431	7.5326	4.5455	0.1	4074.9
5432	7.5326	4.7273	0.1	4078.5
5433	7.5326	4.9091	0.1	4082.4
5434	7.5326	5.0909	0.1	4086.6
5435	7.5326	5.2727	0.1	4090.9
5436	7.5326	5.4545	0.1	4095.4
5437	7.5326	5.6364	0.1	4100.
5438	7.5326	5.8182	0.1	4105.4
5439	7.7163	0.18182	0.1	4049.5
5440	7.7163	0.36364	0.1	4044.4
5441	7.7163	0.54545	0.1	4040.1
5442	7.7163	0.72727	0.1	4035.9
5443	7.7163	0.90909	0.1	4031.8
5444	7.7163	1.0909	0.1	4028.
5445	7.7163	1.2727	0.1	4024.4
5446	7.7163	1.4545	0.1	4021.
5447	7.7163	1.6364	0.1	4018.
5448	7.7163	1.8182	0.1	4015.2
5449	7.7163	2.	0.1	4012.8
5450	7.7163	2.1818	0.1	4010.8
5451	7.7163	2.3636	0.1	4009.1
5452	7.7163	2.5455	0.1	4007.8
5453	7.7163	2.7273	0.1	4007.
5454	7.7163	2.9091	0.1	4006.6
5455	7.7163	3.0909	0.1	4006.6
5456	7.7163	3.2727	0.1	4007.
5457	7.7163	3.4545	0.1	4007.8
5458	7.7163	3.6364	0.1	4009.1
5459	7.7163	3.8182	0.1	4010.8
5460	7.7163	4.	0.1	4012.8
5461	7.7163	4.1818	0.1	4015.2
5462	7.7163	4.3636	0.1	4018.
5463	7.7163	4.5455	0.1	4021.
5464	7.7163	4.7273	0.1	4024.4
5465	7.7163	4.9091	0.1	4028.
5466	7.7163	5.0909	0.1	4031.8
5467	7.7163	5.2727	0.1	4035.9
5468	7.7163	5.4545	0.1	4040.1
5469	7.7163	5.6364	0.1	4044.4
5470	7.7163	5.8182	0.1	4049.5
5471	7.9	0.18182	0.1	3994.
5472	7.9	0.36364	0.1	3989.2
5473	7.9	0.54545	0.1	3985.1
5474	7.9	0.72727	0.1	3981.2
5475	7.9	0.90909	0.1	3977.4
5476	7.9	1.0909	0.1	3973.8
5477	7.9	1.2727	0.1	3970.4
5478	7.9	1.4545	0.1	3967.3
5479	7.9	1.6364	0.1	3964.4
5480	7.9	1.8182	0.1	3961.9
5481	7.9	2.	0.1	3959.6
5482	7.9	2.1818	0.1	3957.7
5483	7.9	2.3636	0.1	3956.2
5484	7.9	2.5455	0.1	3955.
5485	7.9	2.7273	0.1	3954.2
5486	7.9	2.9091	0.1	3953.8
5487	7.9	3.0909	0.1	3953.8
5488	7.9	3.2727	0.1	3954.2
5489	7.9	3.4545	0.1	3955.
5490	7.9	3.6364	0.1	3956.2
5491	7.9	3.8182	0.1	3957.7
5492	7.9	4.	0.1	3959.6
5493	7.9	4.1818	0.1	3961.9
5494	7.9	4.3636	0.1	3964.4
5495	7.9	4.5455	0.1	3967.3
5496	7.9	4.7273	0.1	3970.4
5497	7.9	4.9091	0.1	3973.8
5498	7.9	5.0909	0.1	3977.4
5499	7.9	5.2727	0.1	3981.2
5500	7.9	5.4545	0.1	3985.1
5501	7.9	5.6364	0.1	3989.2
5502	7.9	5.8182	0.1	3994.
5503	8.0837	0.18182	0.1	3938.9
5504	8.0837	0.36364	0.1	3934.2
5505	8.0837	0.54545	0.1	3930.4
5506	8.0837	0.72727	0.1	3926.7
5507	8.0837	0.90909	0.1	3923.2
5508	8.0837	1.0909	0.1	3919.8
5509	8.0837	1.2727	0.1	3916.7
5510	8.0837	1.4545	0.1	3913.7
5511	8.0837	1.6364	0.1	3911.1
5512	8.0837	1.8182	0.1	3908.7
5513	8.0837	2.	0.1	3906.6
5514	8.0837	2.1818	0.1	3904.8
5515	8.0837	2.3636	0.1	3903.4
5516	8.0837	2.5455	0.1	3902.3
5517	8.0837	2.7273	0.1	3901.6
5518	8.0837	2.9091	0.1	3901.2
5519	8.0837	3.0909	0.1	3901.2
5520	8.0837	3.2727	0.1	3901.6
5521	8.0837	3.4545	0.1	3902.3
5522	8.0837	3.6364	0.1	3903.4
5523	8.0837	3.8182	0.1	3904.8
5524	8.0837	4.	0.1	3906.6
5525	8.0837	4.1818	0.1	3908.7
5526	8.0837	4.3636	0.1	3911.1
5527	8.0837	4.5455	0.1	3913.7
5528	8.0837	4.7273	0.1	3916.7
5529	8.0837	4.9091	0.1	3919.8
5530	8.0837	5.0909	0.1	3923.2
5531	8.0837	5.2727	0.1	3926.7
5532	8.0837	5.4545	0.1	3930.4
5533	8.0837	5.6364	0.1	3934.2
5534	8.0837	5.8182	0.1	3938.9
5535	8.2674	0.18182	0.1	3884.
5536	8.2674	0.36364	0.1	3879.6
5537	8.2674	0.54545	0.1	3876.
5538	8.2674	0.72727	0.1	3872.5
5539	8.2674	0.90909	0.1	3869.2
5540	8.2674	1.0909	0.1	3866.1
5541	8.2674	1.2727	0.1	3863.1
5542	8.2674	1.4545	0.1	3860.4
5543	8.2674	1.6364	0.1	3857.9
5544	8.2674	1.8182	0.1	3855.7
5545	8.2674	2.	0.1	3853.7
5546	8.2674	2.1818	0.1	3852.1
5547	8.2674	2.3636	0.1	3850.7
5548	8.2674	2.5455	0.1	3849.7
5549	8.2674	2.7273	0.1	3849.
5550	8.2674	2.9091	0.1	3848.7
5551	8.2674	3.0909	0.1	3848.7
5552	8.2674	3.2727	0.1	3849.
5553	8.2674	3.4545	0.1	3849.7
5554	8.2674	3.6364	0.1	3850.7
5555	8.2674	3.8182	0.1	3852.1
5556	8.2674	4.	0.1	3853.7
5557	8.2674	4.1818	0.1	3855.7
5558	8.2674	4.3636	0.1	3857.9
5559	8.2674	4.5455	0.1	3860.4
5560	8.2674	4.7273	0.1	3863.1
5561	8.2674	4.9091	0.1	3866.1
5562	8.2674	5.0909	0.1	3869.2
5563	8.2674	5.2727	0.1	3872.5
5564	8.2674	5.4545	0.1	3876.
5565	8.2674	5.6364	0.1	3879.6
5566	8.2674	5.8182	0.1	3884.
5567	8.4512	0.18182	0.1	3829.5
5568	8.4512	0.36364	0.1	3825.2
5569	8.4512	0.54545	0.1	3821.8
5570	8.4512	0.72727	0.1	3818.6
5571	8.4512	0.90909	0.1	3815.5
5572	8.4512	1.0909	0.1	3812.5
5573	8.4512	1.2727	0.1	3809.7
5574	8.4512	1.4545	0.1	3807.2
5575	8.4512	1.6364	0.1	3804.9
5576	8.4512	1.8182	0.1	3802.8
5577	8.4512	2.	0.1	3801.
5578	8.4512	2.1818	0.1	3799.4
5579	8.4512	2.3636	0.1	3798.2
5580	8.4512	2.5455	0.1	3797.3
5581	8.4512	2.7273	0.1	3796.6
5582	8.4512	2.9091	0.1	3796.3
5583	8.4512	3.0909	0.1	3796.3
5584	8.4512	3.2727	0.1	3796.6
5585	8.4512	3.4545	0.1	3797.3
5586	8.4512	3.6364	0.1	3798.2
5587	8.4512	3.8182	0.1	3799.4
5588	8.4512	4.	0.1	3801.
5589	8.4512	4.1818	0.1	3802.8
5590	8.4512	4.3636	0.1	3804.9
5591	8.4512	4.5455	0.1	3807.2
5592	8.4512	4.7273	0.1	3809.7
5593	8.4512	4.9091	0.1	3812.5
5594	8.4512	5.0909	0.1	3815.5
5595	8.4512	5.2727	0.1	3818.6
5596	8.4512	5.4545	0.1	3821.8
5597	8.4512	5.6364	0.1	3825.2
5598	8.4512	5.8182	0.1	3829.5
5599	8.6349	0.18182	0.1	3775.2
5600	8.6349	0.36364	0.1	3771.1
5601	8.6349	0.54545	0.1	3767.9
5602	8.6349	0.72727	0.1	3764.9
5603	8.6349	0.90909	0.1	3761.9
5604	8.6349	1.0909	0.1	3759.2
5605	8.6349	1.2727	0.1	3756.6
5606	8.6349	1.4545	0.1	3754.2
5607	8.6349	1.6364	0.1	3752.
5608	8.6349	1.8182	0.1	3750.1
5609	8.6349	2.	0.1	3748.4
5610	8.6349	2.1818	0.1	3746.9
5611	8.6349	2.3636	0.1	3745.8
5612	8.6349	2.5455	0.1	3744.9
5613	8.6349	2.7273	0.1	3744.3
5614	8.6349	2.9091	0.1	3744.
5615	8.6349	3.0909	0.1	3744.
5616	8.6349	3.2727	0.1	3744.3
5617	8.6349	3.4545	0.1	3744.9
5618	8.6349	3.6364	0.1	3745.8
5619	8.6349	3.8182	0.1	3746.9
5620	8.6349	4.	0.1	3748.4
5621	8.6349	4.1818	0.1	3750.1
5622	8.6349	4.3636	0.1	3752.
5623	8.6349	4.5455	0.1	3754.2
5624	8.6349	4.7273	0.1	3756.6
5625	8.6349	4.9091	0.1	3759.2
5626	8.6349	5.0909	0.1	3761.9
5627	8.6349	5.2727	0.1	3764.9
5628	8.6349	5.4545	0.1	3767.9
5629	8.6349	5.6364	0.1	3771.1
5630	8.6349	5.8182	0.1	3775.2
5631	8.8186	0.18182	0.1	3721.3
5632	8.8186	0.36364	0.1	3717.3
5633	8.8186	0.54545	0.1	3714.3
5634	8.8186	0.72727	0.1	3711.4
5635	8.8186	0.90909	0.1	3708.7
5636	8.8186	1.0909	0.1	3706.1
5637	8.8186	1.2727	0.1	3703.6
5638	8.8186	1.4545	0.1	3701.4
5639	8.8186	1.6364	0.1	3699.4
5640	8.8186	1.8182	0.1	3697.5
5641	8.8186	2.	0.1	3695.9
5642	8.8186	2.1818	0.1	3694.6
5643	8.8186	2.3636	0.1	3693.5
5644	8.8186	2.5455	0.1	3692.7
5645	8.8186	2.7273	0.1	3692.1
5646	8.8186	2.9091	0.1	3691.9
5647	8.8186	3.0909	0.1	3691.9
5648	8.8186	3.2727	0.1	3692.1
5649	8.8186	3.4545	0.1	3692.7
5650	8.8186	3.6364	0.1	3693.5
5651	8.8186	3.8182	0.1	3694.6
5652	8.8186	4.	0.1	3695.9
5653	8.8186	4.1818	0.1	3697.5
5654	8.8186	4.3636	0.1	3699.4
5655	8.8186	4.5455	0.1	3701.4
5656	8.8186	4.7273	0.1	3703.6
5657	8.8186	4.9091	0.1	3706.1
5658	8.8186	5.0909	0.1	3708.7
5659	8.8186	5.2727	0.1	3711.4
5660	8.8186	5.4545	0.1	3714.3
5661	8.8186	5.6364	0.1	3717.3
5662	8.8186	5.8182	0.1	3721.3
5663	9.0023	0.18182	0.1	3667.6
5664	9.0023	0.36364	0.1	3663.8
5665	9.0023	0.54545	0.1	3660.9
5666	9.0023	0.72727	0.1	3658.2
5667	9.0023	0.90909	0.1	3655.6
5668	9.0023	1.0909	0.1	3653.2
5669	9.0023	1.2727	0.1	3650.9
5670	9.0023	1.4545	0.1	3648.8
5671	9.0023	1.6364	0.1	3646.9
5672	9.0023	1.8182	0.1	3645.1
5673	9.0023	2.	0.1	3643.7
5674	9.0023	2.1818	0.1	3642.4
5675	9.0023	2.3636	0.1	3641.4
5676	9.0023	2.5455	0.1	3640.6
5677	9.0023	2.7273	0.1	3640.1
5678	9.0023	2.9091	0.1	3639.8
5679	9.0023	3.0909	0.1	3639.8
5680	9.0023	3.2727	0.1	3640.1
5681	9.0023	3.4545	0.1	3640.6
5682	9.0023	3.6364	0.1	3641.4
5683	9.0023	3.8182	0.1	3642.4
5684	9.0023	4.	0.1	3643.7
5685	9.0023	4.1818	0.1	3645.1
5686	9.0023	4.3636	0.1	3646.9
5687	9.0023	4.5455	0.1	3648.8
5688	9.0023	4.7273	0.1	3650.9
5689	9.0023	4.9091	0.1	3653.2
5690	9.0023	5.0909	0.1	3655.6
5691	9.0023	5.2727	0.1	3658.2
5692	9.0023	5.4545	0.1	3660.9
5693	9.0023	5.6364	0.1	3663.8
5694	9.0023	5.8182	0.1	3667.6
5695	9.186	0.18182	0.1	3614.2
5696	9.186	0.36364	0.1	3610.5
5697	9.186	0.54545	0.1	3607.8
5698	9.186	0.72727	0.1	3605.2
5699	9.186	0.90909	0.1	3602.8
5700	9.186	1.0909	0.1	3600.5
5701	9.186	1.2727	0.1	3598.3
5702	9.186	1.4545	0.1	3596.3
5703	9.186	1.6364	0.1	3594.5
5704	9.186	1.8182	0.1	3592.9
5705	9.186	2.	0.1	3591.5
5706	9.186	2.1818	0.1	3590.3
5707	9.186	2.3636	0.1	3589.4
5708	9.186	2.5455	0.1	3588.7
5709	9.186	2.7273	0.1	3588.2
5710	9.186	2.9091	0.1	3587.9
5711	9.186	3.0909	0.1	3587.9
5712	9.186	3.2727	0.1	3588.2
5713	9.186	3.4545	0.1	3588.7
5714	9.186	3.6364	0.1	3589.4
5715	9.186	3.8182	0.1	3590.3
5716	9.186	4.	0.1	3591.5
5717	9.186	4.1818	0.1	3592.9
5718	9.186	4.3636	0.1	3594.5
5719	9.186	4.5455	0.1	3596.3
5720	9.186	4.7273	0.1	3598.3
5721	9.186	4.9091	0.1	3600.5
5722	9.186	5.0909	0.1	3602.8
5723	9.186	5.2727	0.1	3605.2
5724	9.186	5.4545	0.1	3607.8
5725	9.186	5.6364	0.1	3610.5
5726	9.186	5.8182	0.1	3614.2
5727	9.3698	0.18182	0.1	3561.1
5728	9.3698	0.36364	0.1	3557.5
5729	9.3698	0.54545	0.1	3554.9
5730	9.3698	0.72727	0.1	3552.5
5731	9.3698	0.90909	0.1	3550.2
5732	9.3698	1.0909	0.1	3548.
5733	9.3698	1.2727	0.1	3546.
5734	9.3698	1.4545	0.1	3544.1
5735	9.3698	1.6364	0.1	3542.4
5736	9.3698	1.8182	0.1	3540.9
5737	9.3698	2.	0.1	3539.6
5738	9.3698	2.1818	0.1	3538.4
5739	9.3698	2.3636	0.1	3537.5
5740	9.3698	2.5455	0.1	3536.9
5741	9.3698	2.7273	0.1	3536.4
5742	9.3698	2.9091	0.1	3536.2
5743	9.3698	3.0909	0.1	3536.2
5744	9.3698	3.2727	0.1	3536.4
5745	9.3698	3.4545	0.1	3536.9
5746	9.3698	3.6364	0.1	3537.5
5747	9.3698	3.8182	0.1	3538.4
5748	9.3698	4.	0.1	3539.6
5749	9.3698	4.1818	0.1	3540.9
5750	9.3698	4.3636	0.1	3542.4
5751	9.3698	4.5455	0.1	3544.1
5752	9.3698	4.7273	0.1	3546.
5753	9.3698	4.9091	0.1	3548.
5754	9.3698	5.0909	0.1	3550.2
5755	9.3698	5.2727	0.1	3552.5
5756	9.3698	5.4545	0.1	3554.9
5757	9.3698	5.6364	0.1	3557.5
5758	9.3698	5.8182	0.1	3561.1
5759	9.5535	0.18182	0.1	3508.3
5760	9.5535	0.36364	0.1	3504.7
5761	9.5535	0.54545	0.1	3502.3
5762	9.5535	0.72727	0.1	3500.
5763	9.5535	0.90909	0.1	3497.8
5764	9.5535	1.0909	0.1	3495.7
5765	9.5535	1.2727	0.1	3493.8
5766	9.5535	1.4545	0.1	3492.
5767	9.5535	1.6364	0.1	3490.4
5768	9.5535	1.8182	0.1	3489.
5769	9.5535	2.	0.1	3487.8
5770	9.5535	2.1818	0.1	3486.7
5771	9.5535	2.3636	0.1	3485.9
5772	9.5535	2.5455	0.1	3485.2
5773	9.5535	2.7273	0.1	3484.8
5774	9.5535	2.9091	0.1	3484.6
5775	9.5535	3.0909	0.1	3484.6
5776	9.5535	3.2727	0.1	3484.8
5777	9.5535	3.4545	0.1	3485.2
5778	9.5535	3.6364	0.1	3485.9
5779	9.5535	3.8182	0.1	3486.7
5780	9.5535	4.	0.1	3487.8
5781	9.5535	4.1818	0.1	3489.
5782	9.5535	4.3636	0.1	3490.4
5783	9.5535	4.5455	0.1	3492.
5784	9.5535	4.7273	0.1	3493.8
5785	9.5535	4.9091	0.1	3495.7
5786	9.5535	5.0909	0.1	3497.8
5787	9.5535	5.2727	0.1	3500.
5788	9.5535	5.4545	0.1	3502.3
5789	9.5535	5.6364	0.1	3504.7
5790	9.5535	5.8182	0.1	3508.3
5791	9.7372	0.18182	0.1	3455.7
5792	9.7372	0.36364	0.1	3452.2
5793	9.7372	0.54545	0.1	3449.8
5794	9.7372	0.72727	0.1	3447.7
5795	9.7372	0.90909	0.1	3445.6
5796	9.7372	1.0909	0.1	3443.6
5797	9.7372	1.2727	0.1	3441.8
5798	9.7372	1.4545	0.1	3440.1
5799	9.7372	1.6364	0.1	3438.6
5800	9.7372	1.8182	0.1	3437.3
5801	9.7372	2.	0.1	3436.1
5802	9.7372	2.1818	0.1	3435.1
5803	9.7372	2.3636	0.1	3434.3
5804	9.7372	2.5455	0.1	3433.7
5805	9.7372	2.7273	0.1	3433.3
5806	9.7372	2.9091	0.1	3433.1
5807	9.7372	3.0909	0.1	3433.1
5808	9.7372	3.2727	0.1	3433.3
5809	9.7372	3.4545	0.1	3433.7
5810	9.7372	3.6364	0.1	3434.3
5811	9.7372	3.8182	0.1	3435.1
5812	9.7372	4.	0.1	3436.1
5813	9.7372	4.1818	0.1	3437.3
5814	9.7372	4.3636	0.1	3438.6
5815	9.7372	4.5455	0.1	3440.1
5816	9.7372	4.7273	0.1	3441.8
5817	9.7372	4.9091	0.1	3443.6
5818	9.7372	5.0909	0.1	3445.6
5819	9.7372	5.2727	0.1	3447.7
5820	9.7372	5.4545	0.1	3449.8
5821	9.7372	5.6364	0.1	3452.2
5822	9.7372	5.8182	0.1	3455.7
5823	9.9209	0.18182	0.1	3403.3
5824	9.9209	0.36364	0.1	3399.9
5825	9.9209	0.54545	0.1	3397.7
5826	9.9209	0.72727	0.1	3395.6
5827	9.9209	0.90909	0.1	3393.6
5828	9.9209	1.0909	0.1	3391.8
5829	9.9209	1.2727	0.1	3390.
5830	9.9209	1.4545	0.1	3388.5
5831	9.9209	1.6364	0.1	3387.
5832	9.9209	1.8182	0.1	3385.8
5833	9.9209	2.	0.1	3384.6
5834	9.9209	2.1818	0.1	3383.7
5835	9.9209	2.3636	0.1	3383.
5836	9.9209	2.5455	0.1	3382.4
5837	9.9209	2.7273	0.1	3382.
5838	9.9209	2.9091	0.1	3381.8
5839	9.9209	3.0909	0.1	3381.8
5840	9.9209	3.2727	0.1	3382.
5841	9.9209	3.4545	0.1	3382.4
5842	9.9209	3.6364	0.1	3383.
5843	9.9209	3.8182	0.1	3383.7
5844	9.9209	4.	0.1	3384.6
5845	9.9209	4.1818	0.1	3385.8
5846	9.9209	4.3636	0.1	3387.
5847	9.9209	4.5455	0.1	3388.5
5848	9.9209	4.7273	0.1	3390.
5849	9.9209	4.9091	0.1	3391.8
5850	9.9209	5.0909	0.1	3393.6
5851	9.9209	5.2727	0.1	3395.6
5852	9.9209	5.4545	0.1	3397.7
5853	9.9209	5.6364	0.1	3399.9
5854	9.9209	5.8182	0.1	3403.3
5855	10.105	0.18182	0.1	3351.2
5856	10.105	0.36364	0.1	3347.9
5857	10.105	0.54545	0.1	3345.7
5858	10.105	0.72727	0.1	3343.7
5859	10.105	0.90909	0.1	3341.9
5860	10.105	1.0909	0.1	3340.1
5861	10.105	1.2727	0.1	3338.5
5862	10.105	1.4545	0.1	3337.
5863	10.105	1.6364	0.1	3335.6
5864	10.105	1.8182	0.1	3334.4
5865	10.105	2.	0.1	3333.3
5866	10.105	2.1818	0.1	3332.5
5867	10.105	2.3636	0.1	3331.7
5868	10.105	2.5455	0.1	3331.2
5869	10.105	2.7273	0.1	3330.8
5870	10.105	2.9091	0.1	3330.7
5871	10.105	3.0909	0.1	3330.7
5872	10.105	3.2727	0.1	3330.8
5873	10.105	3.4545	0.1	3331.2
5874	10.105	3.6364	0.1	3331.7
5875	10.105	3.8182	0.1	3332.5
5876	10.105	4.	0.1	3333.3
5877	10.105	4.1818	0.1	3334.4
5878	10.105	4.3636	0.1	3335.6
5879	10.105	4.5455	0.1	3337.
5880	10.105	4.7273	0.1	3338.5
5881	10.105	4.9091	0.1	3340.1
5882	10.105	5.0909	0.1	3341.9
5883	10.105	5.2727	0.1	3343.7
5884	10.105	5.4545	0.1	3345.7
5885	10.105	5.6364	0.1	3347.9
5886	10.105	5.8182	0.1	3351.2
5887	10.288	0.18182	0.1	3299.4
5888	10.288	0.36364	0.1	3296.1
5889	10.288	0.54545	0.1	3294.
5890	10.288	0.72727	0.1	3292.1
5891	10.288	0.90909	0.1	3290.3
5892	10.288	1.0909	0.1	3288.6
5893	10.288	1.2727	0.1	3287.1
5894	10.288	1.4545	0.1	3285.7
5895	10.288	1.6364	0.1	3284.4
5896	10.288	1.8182	0.1	3283.2
5897	10.288	2.	0.1	3282.2
5898	10.288	2.1818	0.1	3281.4
5899	10.288	2.3636	0.1	3280.7
5900	10.288	2.5455	0.1	3280.2
5901	10.288	2.7273	0.1	3279.8
5902	10.288	2.9091	0.1	3279.7
5903	10.288	3.0909	0.1	3279.7
5904	10.288	3.2727	0.1	3279.8
5905	10.288	3.4545	0.1	3280.2
5906	10.288	3.6364	0.1	3280.7
5907	10.288	3.8182	0.1	3281.4
5908	10.288	4.	0.1	3282.2
5909	10.288	4.1818	0.1	3283.2
5910	10.288	4.3636	0.1	3284.4
5911	10.288	4.5455	0.1	3285.7
5912	10.288	4.7273	0.1	3287.1
5913	10.288	4.9091	0.1	3288.6
5914	10.288	5.0909	0.1	3290.3
5915	10.288	5.2727	0.1	3292.1
5916	10.288	5.4545	0.1	3294.
5917	10.288	5.6364	0.1	3296.1
5918	10.288	5.8182	0.1	3299.4
5919	10.472	0.18182	0.1	3247.7
5920	10.472	0.36364	0.1	3244.5
5921	10.472	0.54545	0.1	3242.5
5922	10.472	0.72727	0.1	3240.7
5923	10.472	0.90909	0.1	3239.
5924	10.472	1.0909	0.1	3237.4
5925	10.472	1.2727	0.1	3235.9
5926	10.472	1.4545	0.1	3234.5
5927	10.472	1.6364	0.1	3233.3
5928	10.472	1.8182	0.1	3232.2
5929	10.472	2.	0.1	3231.3
5930	10.472	2.1818	0.1	3230.5
5931	10.472	2.3636	0.1	3229.8
5932	10.472	2.5455	0.1	3229.3
5933	10.472	2.7273	0.1	3229.
5934	10.472	2.9091	0.1	3228.8
5935	10.472	3.0909	0.1	3228.8
5936	10.472	3.2727	0.1	3229.
5937	10.472	3.4545	0.1	3229.3
5938	10.472	3.6364	0.1	3229.8
5939	10.472	3.8182	0.1	3230.5
5940	10.472	4.	0.1	3231.3
5941	10.472	4.1818	0.1	3232.2
5942	10.472	4.3636	0.1	3233.3
5943	10.472	4.5455	0.1	3234.5
5944	10.472	4.7273	0.1	3235.9
5945	10.472	4.9091	0.1	3237.4
5946	10.472	5.0909	0.1	3239.
5947	10.472	5.2727	0.1	3240.7
5948	10.472	5.4545	0.1	3242.5
5949	10.472	5.6364	0.1	3244.5
5950	10.472	5.8182	0.1	3247.7
5951	10.656	0.18182	0.1	3196.4
5952	10.656	0.36364	0.1	3193.2
5953	10.656	0.54545	0.1	3191.3
5954	10.656	0.72727	0.1	3189.5
5955	10.656	0.90909	0.1	3187.9
5956	10.656	1.0909	0.1	3186.3
5957	10.656	1.2727	0.1	3184.9
5958	10.656	1.4545	0.1	3183.6
5959	10.656	1.6364	0.1	3182.4
5960	10.656	1.8182	0.1	3181.4
5961	10.656	2.	0.1	3180.5
5962	10.656	2.1818	0.1	3179.7
5963	10.656	2.3636	0.1	3179.1
5964	10.656	2.5455	0.1	3178.6
5965	10.656	2.7273	0.1	3178.3
5966	10.656	2.9091	0.1	3178.2
5967	10.656	3.0909	0.1	3178.2
5968	10.656	3.2727	0.1	3178.3
5969	10.656	3.4545	0.1	3178.6
5970	10.656	3.6364	0.1	3179.1
5971	10.656	3.8182	0.1	3179.7
5972	10.656	4.	0.1	3180.5
5973	10.656	4.1818	0.1	3181.4
5974	10.656	4.3636	0.1	3182.4
5975	10.656	4.5455	0.1	3183.6
5976	10.656	4.7273	0.1	3184.9
5977	10.656	4.9091	0.1	3186.3
5978	10.656	5.0909	0.1	3187.9
5979	10.656	5.2727	0.1	3189.5
5980	10.656	5.4545	0.1	3191.3
5981	10.656	5.6364	0.1	3193.2
5982	10.656	5.8182	0.1	3196.4
5983	10.84	0.18182	0.1	3145.2
5984	10.84	0.36364	0.1	3142.1
5985	10.84	0.54545	0.1	3140.2
5986	10.84	0.72727	0.1	3138.5
5987	10.84	0.90909	0.1	3137.
5988	10.84	1.0909	0.1	3135.5
5989	10.84	1.2727	0.1	3134.1
5990	10.84	1.4545	0.1	3132.9
5991	10.84	1.6364	0.1	3131.7
5992	10.84	1.8182	0.1	3130.7
5993	10.84	2.	0.1	3129.9
5994	10.84	2.1818	0.1	3129.2
5995	10.84	2.3636	0.1	3128.6
5996	10.84	2.5455	0.1	3128.1
5997	10.84	2.7273	0.1	3127.8
5998	10.84	2.9091	0.1	3127.7
5999	10.84	3.0909	0.1	3127.7
6000	10.84	3.2727	0.1	3127.8
6001	10.84	3.4545	0.1	3128.1
6002	10.84	3.6364	0.1	3128.6
6003	10.84	3.8182	0.1	3129.2
6004	10.84	4.	0.1	3129.9
6005	10.84	4.1818	0.1	3130.7
6006	10.84	4.3636	0.1	3131.7
6007	10.84	4.5455	0.1	3132.9
6008	10.84	4.7273	0.1	3134.1
6009	10.84	4.9091	0.1	3135.5
6010	10.84	5.0909	0.1	3137.
6011	10.84	5.2727	0.1	3138.5
6012	10.84	5.4545	0.1	3140.2
6013	10.84	5.6364	0.1	3142.1
6014	10.84	5.8182	0.1	3145.2
6015	11.023	0.18182	0.1	3094.3
6016	11.023	0.36364	0.1	3091.2
6017	11.023	0.54545	0.1	3089.4
6018	11.023	0.72727	0.1	3087.8
6019	11.023	0.90909	0.1	3086.2
6020	11.023	1.0909	0.1	3084.8
6021	11.023	1.2727	0.1	3083.5
6022	11.023	1.4545	0.1	3082.3
6023	11.023	1.6364	0.1	3081.2
6024	11.023	1.8182	0.1	3080.3
6025	11.023	2.	0.1	3079.5
6026	11.023	2.1818	0.1	3078.8
6027	11.023	2.3636	0.1	3078.2
6028	11.023	2.5455	0.1	3077.8
6029	11.023	2.7273	0.1	3077.5
6030	11.023	2.9091	0.1	3077.4
6031	11.023	3.0909	0.1	3077.4
6032	11.023	3.2727	0.1	3077.5
6033	11.023	3.4545	0.1	3077.8
6034	11.023	3.6364	0.1	3078.2
6035	11.023	3.8182	0.1	3078.8
6036	11.023	4.	0.1	3079.5
6037	11.023	4.1818	0.1	3080.3
6038	11.023	4.3636	0.1	3081.2
6039	11.023	4.5455	0.1	3082.3
6040	11.023	4.7273	0.1	3083.5
6041	11.023	4.9091	0.1	3084.8
6042	11.023	5.0909	0.1	3086.2
6043	11.023	5.2727	0.1	3087.8
6044	11.023	5.4545	0.1	3089.4
6045	11.023	5.6364	0.1	3091.2
6046	11.023	5.8182	0.1	3094.3
6047	11.207	0.18182	0.1	3043.6
6048	11.207	0.36364	0.1	3040.5
6049	11.207	0.54545	0.1	3038.8
6050	11.207	0.72727	0.1	3037.2
6051	11.207	0.90909	0.1	3035.7
6052	11.207	1.0909	0.1	3034.4
6053	11.207	1.2727	0.1	3033.1
6054	11.207	1.4545	0.1	3032.
6055	11.207	1.6364	0.1	3030.9
6056	11.207	1.8182	0.1	3030.
6057	11.207	2.	0.1	3029.2
6058	11.207	2.1818	0.1	3028.6
6059	11.207	2.3636	0.1	3028.
6060	11.207	2.5455	0.1	3027.6
6061	11.207	2.7273	0.1	3027.3
6062	11.207	2.9091	0.1	3027.2
6063	11.207	3.0909	0.1	3027.2
6064	11.207	3.2727	0.1	3027.3
6065	11.207	3.4545	0.1	3027.6
6066	11.207	3.6364	0.1	3028.
6067	11.207	3.8182	0.1	3028.6
6068	11.207	4.	0.1	3029.2
6069	11.207	4.1818	0.1	3030.
6070	11.207	4.3636	0.1	3030.9
6071	11.207	4.5455	0.1	3032.
6072	11.207	4.7273	0.1	3033.1
6073	11.207	4.9091	0.1	3034.4
6074	11.207	5.0909	0.1	3035.7
6075	11.207	5.2727	0.1	3037.2
6076	11.207	5.4545	0.1	3038.8
6077	11.207	5.6364	0.1	3040.5
6078	11.207	5.8182	0.1	3043.6
6079	11.391	0.18182	0.1	2993.1
6080	11.391	0.36364	0.1	2990.1
6081	11.391	0.54545	0.1	2988.4
6082	11.391	0.72727	0.1	2986.9
6083	11.391	0.90909	0.1	2985.4
6084	11.391	1.0909	0.1	2984.1
6085	11.391	1.2727	0.1	2982.9
6086	11.391	1.4545	0.1	2981.8
6087	11.391	1.6364	0.1	2980.8
6088	11.391	1.8182	0.1	2979.9
6089	11.391	2.	0.1	2979.2
6090	11.391	2.1818	0.1	2978.5
6091	11.391	2.3636	0.1	2978.
6092	11.391	2.5455	0.1	2977.6
6093	11.391	2.7273	0.1	2977.4
6094	11.391	2.9091	0.1	2977.2
6095	11.391	3.0909	0.1	2977.2
6096	11.391	3.2727	0.1	2977.4
6097	11.391	3.4545	0.1	2977.6
6098	11.391	3.6364	0.1	2978.
6099	11.391	3.8182	0.1	2978.5
6100	11.391	4.	0.1	2979.2
6101	11.391	4.1818	0.1	2979.9
6102	11.391	4.3636	0.1	2980.8
6103	11.391	4.5455	0.1	2981.8
6104	11.391	4.7273	0.1	2982.9
6105	11.391	4.9091	0.1	2984.1
6106	11.391	5.0909	0.1	2985.4
6107	11.391	5.2727	0.1	2986.9
6108	11.391	5.4545	0.1	2988.4
6109	11.391	5.6364	0.1	2990.1
6110	11.391	5.8182	0.1	2993.1
6111	11.574	0.18182	0.1	2942.9
6112	11.574	0.36364	0.1	2939.8
6113	11.574	0.54545	0.1	2938.2
6114	11.574	0.72727	0.1	2936.7
6115	11.574	0.90909	0.1	2935.4
6116	11.574	1.0909	0.1	2934.1
6117	11.574	1.2727	0.1	2932.9
6118	11.574	1.4545	0.1	2931.8
6119	11.574	1.6364	0.1	2930.9
6120	11.574	1.8182	0.1	2930.
6121	11.574	2.	0.1	2929.3
6122	11.574	2.1818	0.1	2928.7
6123	11.574	2.3636	0.1	2928.2
6124	11.574	2.5455	0.1	2927.8
6125	11.574	2.7273	0.1	2927.6
6126	11.574	2.9091	0.1	2927.4
6127	11.574	3.0909	0.1	2927.4
6128	11.574	3.2727	0.1	2927.6
6129	11.574	3.4545	0.1	2927.8
6130	11.574	3.6364	0.1	2928.2
6131	11.574	3.8182	0.1	2928.7
6132	11.574	4.	0.1	2929.3
6133	11.574	4.1818	0.1	2930.
6134	11.574	4.3636	0.1	2930.9
6135	11.574	4.5455	0.1	2931.8
6136	11.574	4.7273	0.1	2932.9
6137	11.574	4.9091	0.1	2934.1
6138	11.574	5.0909	0.1	2935.4
6139	11.574	5.2727	0.1	2936.7
6140	11.574	5.4545	0.1	2938.2
6141	11.574	5.6364	0.1	2939.8
6142	11.574	5.8182	0.1	2942.9
6143	11.758	0.18182	0.1	2892.9
6144	11.758	0.36364	0.1	2889.8
6145	11.758	0.54545	0.1	2888.2
6146	11.758	0.72727	0.1	2886.8
6147	11.758	0.90909	0.1	2885.5
6148	11.758	1.0909	0.1	2884.2
6149	11.758	1.2727	0.1	2883.1
6150	11.758	1.4545	0.1	2882.1
6151	11.758	1.6364	0.1	2881.1
6152	11.758	1.8182	0.1	2880.3
6153	11.758	2.	0.1	2879.6
6154	11.758	2.1818	0.1	2879.
6155	11.758	2.3636	0.1	2878.5
6156	11.758	2.5455	0.1	2878.2
6157	11.758	2.7273	0.1	2877.9
6158	11.758	2.9091	0.1	2877.8
6159	11.758	3.0909	0.1	2877.8
6160	11.758	3.2727	0.1	2877.9
6161	11.758	3.4545	0.1	2878.2
6162	11.758	3.6364	0.1	2878.5
6163	11.758	3.8182	0.1	2879.
6164	11.758	4.	0.1	2879.6
6165	11.758	4.1818	0.1	2880.3
6166	11.758	4.3636	0.1	2881.1
6167	11.758	4.5455	0.1	2882.1
6168	11.758	4.7273	0.1	2883.1
6169	11.758	4.9091	0.1	2884.2
6170	11.758	5.0909	0.1	2885.5
6171	11.758	5.2727	0.1	2886.8
6172	11.758	5.4545	0.1	2888.2
6173	11.758	5.6364	0.1	2889.8
6174	11.758	5.8182	0.1	2892.9
6175	11.942	0.18182	0.1	2843.1
6176	11.942	0.36364	0.1	2840.
6177	11.942	0.54545	0.1	2838.5
6178	11.942	0.72727	0.1	2837.1
6179	11.942	0.90909	0.1	2835.8
6180	11.942	1.0909	0.1	2834.6
6181	11.942	1.2727	0.1	2833.5
6182	11.942	1.4545	0.1	2832.5
6183	11.942	1.6364	0.1	2831.6
6184	11.942	1.8182	0.1	2830.8
6185	11.942	2.	0.1	2830.1
6186	11.942	2.1818	0.1	2829.5
6187	11.942	2.3636	0.1	2829.1
6188	11.942	2.5455	0.1	2828.7
6189	11.942	2.7273	0.1	2828.5
6190	11.942	2.9091	0.1	2828.4
6191	11.942	3.0909	0.1	2828.4
6192	11.942	3.2727	0.1	2828.5
6193	11.942	3.4545	0.1	2828.7
6194	11.942	3.6364	0.1	2829.1
6195	11.942	3.8182	0.1	2829.5
6196	11.942	4.	0.1	2830.1
6197	11.942	4.1818	0.1	2830.8
6198	11.942	4.3636	0.1	2831.6
6199	11.942	4.5455	0.1	2832.5
6200	11.942	4.7273	0.1	2833.5
6201	11.942	4.9091	0.1	2834.6
6202	11.942	5.0909	0.1	2835.8
6203	11.942	5.2727	0.1	2837.1
6204	11.942	5.4545	0.1	2838.5
6205	11.942	5.6364	0.1	2840.
6206	11.942	5.8182	0.1	2843.1
6207	12.126	0.18182	0.1	2793.5
6208	12.126	0.36364	0.1	2790.4
6209	12.126	0.54545	0.1	2788.9
6210	12.126	0.72727	0.1	2787.6
6211	12.126	0.90909	0.1	2786.3
6212	12.126	1.0909	0.1	2785.1
6213	12.126	1.2727	0.1	2784.
6214	12.126	1.4545	0.1	2783.1
6215	12.126	1.6364	0.1	2782.2
6216	12.126	1.8182	0.1	2781.4
6217	12.126	2.	0.1	2780.8
6218	12.126	2.1818	0.1	2780.2
6219	12.126	2.3636	0.1	2779.8
6220	12.126	2.5455	0.1	2779.4
6221	12.126	2.7273	0.1	2779.2
6222	12.126	2.9091	0.1	2779.1
6223	12.126	3.0909	0.1	2779.1
6224	12.126	3.2727	0.1	2779.2
6225	12.126	3.4545	0.1	2779.4
6226	12.126	3.6364	0.1	2779.8
6227	12.126	3.8182	0.1	2780.2
6228	12.126	4.	0.1	2780.8
6229	12.126	4.1818	0.1	2781.4
6230	12.126	4.3636	0.1	2782.2
6231	12.126	4.5455	0.1	2783.1
6232	12.126	4.7273	0.1	2784.
6233	12.126	4.9091	0.1	2785.1
6234	12.126	5.0909	0.1	2786.3
6235	12.126	5.2727	0.1	2787.6
6236	12.126	5.4545	0.1	2788.9
6237	12.126	5.6364	0.1	2790.4
6238	12.126	5.8182	0.1	2793.5
6239	12.309	0.18182	0.1	2744.1
6240	12.309	0.36364	0.1	2741.1
6241	12.309	0.54545	0.1	2739.6
6242	12.309	0.72727	0.1	2738.2
6243	12.309	0.90909	0.1	2737.
6244	12.309	1.0909	0.1	2735.9
6245	12.309	1.2727	0.1	2734.8
6246	12.309	1.4545	0.1	2733.9
6247	12.309	1.6364	0.1	2733.
6248	12.309	1.8182	0.1	2732.3
6249	12.309	2.	0.1	2731.6
6250	12.309	2.1818	0.1	2731.1
6251	12.309	2.3636	0.1	2730.7
6252	12.309	2.5455	0.1	2730.3
6253	12.309	2.7273	0.1	2730.1
6254	12.309	2.9091	0.1	2730.
6255	12.309	3.0909	0.1	2730.
6256	12.309	3.2727	0.1	2730.1
6257	12.309	3.4545	0.1	2730.3
6258	12.309	3.6364	0.1	2730.7
6259	12.309	3.8182	0.1	2731.1
6260	12.309	4.	0.1	2731.6
6261	12.309	4.1818	0.1	2732.3
6262	12.309	4.3636	0.1	2733.
6263	12.309	4.5455	0.1	2733.9
6264	12.309	4.7273	0.1	2734.8
6265	12.309	4.9091	0.1	2735.9
6266	12.309	5.0909	0.1	2737.
6267	12.309	5.2727	0.1	2738.2
6268	12.309	5.4545	0.1	2739.6
6269	12.309	5.6364	0.1	2741.1
6270	12.309	5.8182	0.1	2744.1
6271	12.493	0.18182	0.1	2694.9
6272	12.493	0.36364	0.1	2691.9
6273	12.493	0.54545	0.1	2690.4
6274	12.493	0.72727	0.1	2689.1
6275	12.493	0.90909	0.1	2687.9
6276	12.493	1.0909	0.1	2686.8
6277	12.493	1.2727	0.1	2685.8
6278	12.493	1.4545	0.1	2684.9
6279	12.493	1.6364	0.1	2684.
6280	12.493	1.8182	0.1	2683.3
6281	12.493	2.	0.1	2682.7
6282	12.493	2.1818	0.1	2682.2
6283	12.493	2.3636	0.1	2681.8
6284	12.493	2.5455	0.1	2681.4
6285	12.493	2.7273	0.1	2681.2
6286	12.493	2.9091	0.1	2681.1
6287	12.493	3.0909	0.1	2681.1
6288	12.493	3.2727	0.1	2681.2
6289	12.493	3.4545	0.1	2681.4
6290	12.493	3.6364	0.1	2681.8
6291	12.493	3.8182	0.1	2682.2
6292	12.493	4.	0.1	2682.7
6293	12.493	4.1818	0.1	2683.3
6294	12.493	4.3636	0.1	2684.
6295	12.493	4.5455	0.1	2684.9
6296	12.493	4.7273	0.1	2685.8
6297	12.493	4.9091	0.1	2686.8
6298	12.493	5.0909	0.1	2687.9
6299	12.493	5.2727	0.1	2689.1
6300	12.493	5.4545	0.1	2690.4
6301	12.493	5.6364	0.1	2691.9
6302	12.493	5.8182	0.1	2694.9
6303	12.677	0.18182	0.1	2646.
6304	12.677	0.36364	0.1	2643.
6305	12.677	0.54545	0.1	2641.5
6306	12.677	0.72727	0.1	2640.2
6307	12.677	0.90909	0.1	2639.
6308	12.677	1.0909	0.1	2638.
6309	12.677	1.2727	0.1	2637.
6310	12.677	1.4545	0.1	2636.1
6311	12.677	1.6364	0.1	2635.3
6312	12.677	1.8182	0.1	2634.6
6313	12.677	2.	0.1	2633.9
6314	12.677	2.1818	0.1	2633.4
6315	12.677	2.3636	0.1	2633.
6316	12.677	2.5455	0.1	2632.7
6317	12.677	2.7273	0.1	2632.5
6318	12.677	2.9091	0.1	2632.4
6319	12.677	3.0909	0.1	2632.4
6320	12.677	3.2727	0.1	2632.5
6321	12.677	3.4545	0.1	2632.7
6322	12.677	3.6364	0.1	2633.
6323	12.677	3.8182	0.1	2633.4
6324	12.677	4.	0.1	2633.9
6325	12.677	4.1818	0.1	2634.6
6326	12.677	4.3636	0.1	2635.3
6327	12.677	4.5455	0.1	2636.1
6328	12.677	4.7273	0.1	2637.
6329	12.677	4.9091	0.1	2638.
6330	12.677	5.0909	0.1	2639.
6331	12.677	5.2727	0.1	2640.2
6332	12.677	5.4545	0.1	2641.5
6333	12.677	5.6364	0.1	2643.
6334	12.677	5.8182	0.1	2646.
6335	12.86	0.18182	0.1	2597.2
6336	12.86	0.36364	0.1	2594.2
6337	12.86	0.54545	0.1	2592.8
6338	12.86	0.72727	0.1	2591.5
6339	12.86	0.90909	0.1	2590.4
6340	12.86	1.0909	0.1	2589.3
6341	12.86	1.2727	0.1	2588.3
6342	12.86	1.4545	0.1	2587.4
6343	12.86	1.6364	0.1	2586.7
6344	12.86	1.8182	0.1	2586.
6345	12.86	2.	0.1	2585.4
6346	12.86	2.1818	0.1	2584.9
6347	12.86	2.3636	0.1	2584.5
6348	12.86	2.5455	0.1	2584.2
6349	12.86	2.7273	0.1	2584.
6350	12.86	2.9091	0.1	2583.9
6351	12.86	3.0909	0.1	2583.9
6352	12.86	3.2727	0.1	2584.
6353	12.86	3.4545	0.1	2584.2
6354	12.86	3.6364	0.1	2584.5
6355	12.86	3.8182	0.1	2584.9
6356	12.86	4.	0.1	2585.4
6357	12.86	4.1818	0.1	2586.
6358	12.86	4.3636	0.1	2586.7
6359	12.86	4.5455	0.1	2587.4
6360	12.86	4.7273	0.1	2588.3
6361	12.86	4.9091	0.1	2589.3
6362	12.86	5.0909	0.1	2590.4
6363	12.86	5.2727	0.1	2591.5
6364	12.86	5.4545	0.1	2592.8
6365	12.86	5.6364	0.1	2594.2
6366	12.86	5.8182	0.1	2597.2
6367	13.044	0.18182	0.1	2548.7
6368	13.044	0.36364	0.1	2545.7
6369	13.044	0.54545	0.1	2544.3
6370	13.044	0.72727	0.1	2543.
6371	13.044	0.90909	0.1	2541.9
6372	13.044	1.0909	0.1	2540.8
6373	13.044	1.2727	0.1	2539.9
6374	13.044	1.4545	0.1	2539.
6375	13.044	1.6364	0.1	2538.3
6376	13.044	1.8182	0.1	2537.6
6377	13.044	2.	0.1	2537.
6378	13.044	2.1818	0.1	2536.5
6379	13.044	2.3636	0.1	2536.1
6380	13.044	2.5455	0.1	2535.9
6381	13.044	2.7273	0.1	2535.7
6382	13.044	2.9091	0.1	2535.6
6383	13.044	3.0909	0.1	2535.6
6384	13.044	3.2727	0.1	2535.7
6385	13.044	3.4545	0.1	2535.9
6386	13.044	3.6364	0.1	2536.1
6387	13.044	3.8182	0.1	2536.5
6388	13.044	4.	0.1	2537.
6389	13.044	4.1818	0.1	2537.6
6390	13.044	4.3636	0.1	2538.3
6391	13.044	4.5455	0.1	2539.
6392	13.044	4.7273	0.1	2539.9
6393	13.044	4.9091	0.1	2540.8
6394	13.044	5.0909	0.1	2541.9
6395	13.044	5.2727	0.1	2543.
6396	13.044	5.4545	0.1	2544.3
6397	13.044	5.6364	0.1	2545.7
6398	13.044	5.8182	0.1	2548.7
6399	13.228	0.18182	0.1	2500.4
6400	13.228	0.36364	0.1	2497.3
6401	13.228	0.54545	0.1	2495.9
6402	13.228	0.72727	0.1	2494.7
6403	13.228	0.90909	0.1	2493.6
6404	13.228	1.0909	0.1	2492.6
6405	13.228	1.2727	0.1	2491.6
6406	13.228	1.4545	0.1	2490.8
6407	13.228	1.6364	0.1	2490.1
6408	13.228	1.8182	0.1	2489.4
6409	13.228	2.	0.1	2488.8
6410	13.228	2.1818	0.1	2488.4
6411	13.228	2.3636	0.1	2488.
6412	13.228	2.5455	0.1	2487.7
6413	13.228	2.7273	0.1	2487.5
6414	13.228	2.9091	0.1	2487.4
6415	13.228	3.0909	0.1	2487.4
6416	13.228	3.2727	0.1	2487.5
6417	13.228	3.4545	0.1	2487.7
6418	13.228	3.6364	0.1	2488.
6419	13.228	3.8182	0.1	2488.4
6420	13.228	4.	0.1	2488.8
6421	13.228	4.1818	0.1	2489.4
6422	13.228	4.3636	0.1	2490.1
6423	13.228	4.5455	0.1	2490.8
6424	13.228	4.7273	0.1	2491.6
6425	13.228	4.9091	0.1	2492.6
6426	13.228	5.0909	0.1	2493.6
6427	13.228	5.2727	0.1	2494.7
6428	13.228	5.4545	0.1	2495.9
6429	13.228	5.6364	0.1	2497.3
6430	13.228	5.8182	0.1	2500.4
6431	13.412	0.18182	0.1	2452.3
6432	13.412	0.36364	0.1	2449.2
6433	13.412	0.54545	0.1	2447.8
6434	13.412	0.72727	0.1	2446.6
6435	13.412	0.90909	0.1	2445.5
6436	13.412	1.0909	0.1	2444.5
6437	13.412	1.2727	0.1	2443.6
6438	13.412	1.4545	0.1	2442.8
6439	13.412	1.6364	0.1	2442.
6440	13.412	1.8182	0.1	2441.4
6441	13.412	2.	0.1	2440.8
6442	13.412	2.1818	0.1	2440.4
6443	13.412	2.3636	0.1	2440.
6444	13.412	2.5455	0.1	2439.7
6445	13.412	2.7273	0.1	2439.6
6446	13.412	2.9091	0.1	2439.5
6447	13.412	3.0909	0.1	2439.5
6448	13.412	3.2727	0.1	2439.6
6449	13.412	3.4545	0.1	2439.7
6450	13.412	3.6364	0.1	2440.
6451	13.412	3.8182	0.1	2440.4
6452	13.412	4.	0.1	2440.8
6453	13.412	4.1818	0.1	2441.4
6454	13.412	4.3636	0.1	2442.
6455	13.412	4.5455	0.1	2442.8
6456	13.412	4.7273	0.1	2443.6
6457	13.412	4.9091	0.1	2444.5
6458	13.412	5.0909	0.1	2445.5
6459	13.412	5.2727	0.1	2446.6
6460	13.412	5.4545	0.1	2447.8
6461	13.412	5.6364	0.1	2449.2
6462	13.412	5.8182	0.1	2452.3
6463	13.595	0.18182	0.1	2404.4
6464	13.595	0.36364	0.1	2401.3
6465	13.595	0.54545	0.1	2399.9
6466	13.595	0.72727	0.1	2398.7
6467	13.595	0.90909	0.1	2397.7
6468	13.595	1.0909	0.1	2396.7
6469	13.595	1.2727	0.1	2395.8
6470	13.595	1.4545	0.1	2394.9
6471	13.595	1.6364	0.1	2394.2
6472	13.595	1.8182	0.1	2393.6
6473	13.595	2.	0.1	2393.
6474	13.595	2.1818	0.1	2392.6
6475	13.595	2.3636	0.1	2392.2
6476	13.595	2.5455	0.1	2392.
6477	13.595	2.7273	0.1	2391.8
6478	13.595	2.9091	0.1	2391.7
6479	13.595	3.0909	0.1	2391.7
6480	13.595	3.2727	0.1	2391.8
6481	13.595	3.4545	0.1	2392.
6482	13.595	3.6364	0.1	2392.2
6483	13.595	3.8182	0.1	2392.6
6484	13.595	4.	0.1	2393.
6485	13.595	4.1818	0.1	2393.6
6486	13.595	4.3636	0.1	2394.2
6487	13.595	4.5455	0.1	2394.9
6488	13.595	4.7273	0.1	2395.8
6489	13.595	4.9091	0.1	2396.7
6490	13.595	5.0909	0.1	2397.7
6491	13.595	5.2727	0.1	2398.7
6492	13.595	5.4545	0.1	2399.9
6493	13.595	5.6364	0.1	2401.3
6494	13.595	5.8182	0.1	2404.4
6495	13.779	0.18182	0.1	2356.6
6496	13.779	0.36364	0.1	2353.6
6497	13.779	0.54545	0.1	2352.2
6498	13.779	0.72727	0.1	2351.1
6499	13.779	0.90909	0.1	2350.
6500	13.779	1.0909	0.1	2349.
6501	13.779	1.2727	0.1	2348.1
6502	13.779	1.4545	0.1	2347.3
6503	13.779	1.6364	0.1	2346.6
6504	13.779	1.8182	0.1	2346.
6505	13.779	2.	0.1	2345.4
6506	13.779	2.1818	0.1	2345.
6507	13.779	2.3636	0.1	2344.7
6508	13.779	2.5455	0.1	2344.4
6509	13.779	2.7273	0.1	2344.2
6510	13.779	2.9091	0.1	2344.1
6511	13.779	3.0909	0.1	2344.1
6512	13.779	3.2727	0.1	2344.2
6513	13.779	3.4545	0.1	2344.4
6514	13.779	3.6364	0.1	2344.7
6515	13.779	3.8182	0.1	2345.
6516	13.779	4.	0.1	2345.4
6517	13.779	4.1818	0.1	2346.
6518	13.779	4.3636	0.1	2346.6
6519	13.779	4.5455	0.1	2347.3
6520	13.779	4.7273	0.1	2348.1
6521	13.779	4.9091	0.1	2349.
6522	13.779	5.0909	0.1	2350.
6523	13.779	5.2727	0.1	2351.1
6524	13.779	5.4545	0.1	2352.2
6525	13.779	5.6364	0.1	2353.6
6526	13.779	5.8182	0.1	2356.6
6527	13.963	0.18182	0.1	2309.1
6528	13.963	0.36364	0.1	2306.1
6529	13.963	0.54545	0.1	2304.7
6530	13.963	0.72727	0.1	2303.6
6531	13.963	0.90909	0.1	2302.5
6532	13.963	1.0909	0.1	2301.5
6533	13.963	1.2727	0.1	2300.7
6534	13.963	1.4545	0.1	2299.9
6535	13.963	1.6364	0.1	2299.2
6536	13.963	1.8182	0.1	2298.6
6537	13.963	2.	0.1	2298.
6538	13.963	2.1818	0.1	2297.6
6539	13.963	2.3636	0.1	2297.3
6540	13.963	2.5455	0.1	2297.
6541	13.963	2.7273	0.1	2296.8
6542	13.963	2.9091	0.1	2296.7
6543	13.963	3.0909	0.1	2296.7
6544	13.963	3.2727	0.1	2296.8
6545	13.963	3.4545	0.1	2297.
6546	13.963	3.6364	0.1	2297.3
6547	13.963	3.8182	0.1	2297.6
6548	13.963	4.	0.1	2298.
6549	13.963	4.1818	0.1	2298.6
6550	13.963	4.3636	0.1	2299.2
6551	13.963	4.5455	0.1	2299.9
6552	13.963	4.7273	0.1	2300.7
6553	13.963	4.9091	0.1	2301.5
6554	13.963	5.0909	0.1	2302.5
6555	13.963	5.2727	0.1	2303.6
6556	13.963	5.4545	0.1	2304.7
6557	13.963	5.6364	0.1	2306.1
6558	13.963	5.8182	0.1	2309.1
6559	14.147	0.18182	0.1	2261.8
6560	14.147	0.36364	0.1	2258.7
6561	14.147	0.54545	0.1	2257.4
6562	14.147	0.72727	0.1	2256.3
6563	14.147	0.90909	0.1	2255.2
6564	14.147	1.0909	0.1	2254.3
6565	14.147	1.2727	0.1	2253.4
6566	14.147	1.4545	0.1	2252.6
6567	14.147	1.6364	0.1	2251.9
6568	14.147	1.8182	0.1	2251.3
6569	14.147	2.	0.1	2250.8
6570	14.147	2.1818	0.1	2250.4
6571	14.147	2.3636	0.1	2250.1
6572	14.147	2.5455	0.1	2249.8
6573	14.147	2.7273	0.1	2249.6
6574	14.147	2.9091	0.1	2249.6
6575	14.147	3.0909	0.1	2249.6
6576	14.147	3.2727	0.1	2249.6
6577	14.147	3.4545	0.1	2249.8
6578	14.147	3.6364	0.1	2250.1
6579	14.147	3.8182	0.1	2250.4
6580	14.147	4.	0.1	2250.8
6581	14.147	4.1818	0.1	2251.3
6582	14.147	4.3636	0.1	2251.9
6583	14.147	4.5455	0.1	2252.6
6584	14.147	4.7273	0.1	2253.4
6585	14.147	4.9091	0.1	2254.3
6586	14.147	5.0909	0.1	2255.2
6587	14.147	5.2727	0.1	2256.3
6588	14.147	5.4545	0.1	2257.4
6589	14.147	5.6364	0.1	2258.7
6590	14.147	5.8182	0.1	2261.8
6591	14.33	0.18182	0.1	2214.7
6592	14.33	0.36364	0.1	2211.6
6593	14.33	0.54545	0.1	2210.3
6594	14.33	0.72727	0.1	2209.2
6595	14.33	0.90909	0.1	2208.1
6596	14.33	1.0909	0.1	2207.2
6597	14.33	1.2727	0.1	2206.3
6598	14.33	1.4545	0.1	2205.6
6599	14.33	1.6364	0.1	2204.9
6600	14.33	1.8182	0.1	2204.3
6601	14.33	2.	0.1	2203.8
6602	14.33	2.1818	0.1	2203.4
6603	14.33	2.3636	0.1	2203.1
6604	14.33	2.5455	0.1	2202.8
6605	14.33	2.7273	0.1	2202.6
6606	14.33	2.9091	0.1	2202.6
6607	14.33	3.0909	0.1	2202.6
6608	14.33	3.2727	0.1	2202.6
6609	14.33	3.4545	0.1	2202.8
6610	14.33	3.6364	0.1	2203.1
6611	14.33	3.8182	0.1	2203.4
6612	14.33	4.	0.1	2203.8
6613	14.33	4.1818	0.1	2204.3
6614	14.33	4.3636	0.1	2204.9
6615	14.33	4.5455	0.1	2205.6
6616	14.33	4.7273	0.1	2206.3
6617	14.33	4.9091	0.1	2207.2
6618	14.33	5.0909	0.1	2208.1
6619	14.33	5.2727	0.1	2209.2
6620	14.33	5.4545	0.1	2210.3
6621	14.33	5.6364	0.1	2211.6
6622	14.33	5.8182	0.1	2214.7
6623	14.514	0.18182	0.1	2167.8
6624	14.514	0.36364	0.1	2164.7
6625	14.514	0.54545	0.1	2163.4
6626	14.514	0.72727	0.1	2162.3
6627	14.514	0.90909	0.1	2161.2
6628	14.514	1.0909	0.1	2160.3
6629	14.514	1.2727	0.1	2159.5
6630	14.514	1.4545	0.1	2158.7
6631	14.514	1.6364	0.1	2158.1
6632	14.514	1.8182	0.1	2157.5
6633	14.514	2.	0.1	2157.
6634	14.514	2.1818	0.1	2156.6
6635	14.514	2.3636	0.1	2156.3
6636	14.514	2.5455	0.1	2156.
6637	14.514	2.7273	0.1	2155.8
6638	14.514	2.9091	0.1	2155.8
6639	14.514	3.0909	0.1	2155.8
6640	14.514	3.2727	0.1	2155.8
6641	14.514	3.4545	0.1	2156.
6642	14.514	3.6364	0.1	2156.3
6643	14.514	3.8182	0.1	2156.6
6644	14.514	4.	0.1	2157.
6645	14.514	4.1818	0.1	2157.5
6646	14.514	4.3636	0.1	2158.1
6647	14.514	4.5455	0.1	2158.7
6648	14.514	4.7273	0.1	2159.5
6649	14.514	4.9091	0.1	2160.3
6650	14.514	5.0909	0.1	2161.2
6651	14.514	5.2727	0.1	2162.3
6652	14.514	5.4545	0.1	2163.4
6653	14.514	5.6364	0.1	2164.7
6654	14.514	5.8182	0.1	2167.8
6655	14.698	0.18182	0.1	2121.2
6656	14.698	0.36364	0.1	2118.
6657	14.698	0.54545	0.1	2116.7
6658	14.698	0.72727	0.1	2115.6
6659	14.698	0.90909	0.1	2114.6
6660	14.698	1.0909	0.1	2113.6
6661	14.698	1.2727	0.1	2112.8
6662	14.698	1.4545	0.1	2112.1
6663	14.698	1.6364	0.1	2111.4
6664	14.698	1.8182	0.1	2110.8
6665	14.698	2.	0.1	2110.4
6666	14.698	2.1818	0.1	2110.
6667	14.698	2.3636	0.1	2109.6
6668	14.698	2.5455	0.1	2109.4
6669	14.698	2.7273	0.1	2109.2
6670	14.698	2.9091	0.1	2109.2
6671	14.698	3.0909	0.1	2109.2
6672	14.698	3.2727	0.1	2109.2
6673	14.698	3.4545	0.1	2109.4
6674	14.698	3.6364	0.1	2109.6
6675	14.698	3.8182	0.1	2110.
6676	14.698	4.	0.1	2110.4
6677	14.698	4.1818	0.1	2110.8
6678	14.698	4.3636	0.1	2111.4
6679	14.698	4.5455	0.1	2112.1
6680	14.698	4.7273	0.1	2112.8
6681	14.698	4.9091	0.1	2113.6
6682	14.698	5.0909	0.1	2114.6
6683	14.698	5.2727	0.1	2115.6
6684	14.698	5.4545	0.1	2116.7
6685	14.698	5.6364	0.1	2118.
6686	14.698	5.8182	0.1	2121.2
6687	14.881	0.18182	0.1	2074.7
6688	14.881	0.36364	0.1	2071.5
6689	14.881	0.54545	0.1	2070.2
6690	14.881	0.72727	0.1	2069.1
6691	14.881	0.90909	0.1	2068.1
6692	14.881	1.0909	0.1	2067.2
6693	14.881	1.2727	0.1	2066.3
6694	14.881	1.4545	0.1	2065.6
6695	14.881	1.6364	0.1	2065.
6696	14.881	1.8182	0.1	2064.4
6697	14.881	2.	0.1	2063.9
6698	14.881	2.1818	0.1	2063.5
6699	14.881	2.3636	0.1	2063.2
6700	14.881	2.5455	0.1	2063.
6701	14.881	2.7273	0.1	2062.8
6702	14.881	2.9091	0.1	2062.8
6703	14.881	3.0909	0.1	2062.8
6704	14.881	3.2727	0.1	2062.8
6705	14.881	3.4545	0.1	2063.
6706	14.881	3.6364	0.1	2063.2
6707	14.881	3.8182	0.1	2063.5
6708	14.881	4.	0.1	2063.9
6709	14.881	4.1818	0.1	2064.4
6710	14.881	4.3636	0.1	2065.
6711	14.881	4.5455	0.1	2065.6
6712	14.881	4.7273	0.1	2066.3
6713	14.881	4.9091	0.1	2067.2
6714	14.881	5.0909	0.1	2068.1
6715	14.881	5.2727	0.1	2069.1
6716	14.881	5.4545	0.1	2070.2
6717	14.881	5.6364	0.1	2071.5
6718	14.881	5.8182	0.1	2074.7
6719	15.065	0.18182	0.1	2028.3
6720	15.065	0.36364	0.1	2025.2
6721	15.065	0.54545	0.1	2023.9
6722	15.065	0.72727	0.1	2022.8
6723	15.065	0.90909	0.1	2021.8
6724	15.065	1.0909	0.1	2020.9
6725	15.065	1.2727	0.1	2020.1
6726	15.065	1.4545	0.1	2019.3
6727	15.065	1.6364	0.1	2018.7
6728	15.065	1.8182	0.1	2018.2
6729	15.065	2.	0.1	2017.7
6730	15.065	2.1818	0.1	2017.3
6731	15.065	2.3636	0.1	2017.
6732	15.065	2.5455	0.1	2016.8
6733	15.065	2.7273	0.1	2016.6
6734	15.065	2.9091	0.1	2016.6
6735	15.065	3.0909	0.1	2016.6
6736	15.065	3.2727	0.1	2016.6
6737	15.065	3.4545	0.1	2016.8
6738	15.065	3.6364	0.1	2017.
6739	15.065	3.8182	0.1	2017.3
6740	15.065	4.	0.1	2017.7
6741	15.065	4.1818	0.1	2018.2
6742	15.065	4.3636	0.1	2018.7
6743	15.065	4.5455	0.1	2019.3
6744	15.065	4.7273	0.1	2020.1
6745	15.065	4.9091	0.1	2020.9
6746	15.065	5.0909	0.1	2021.8
6747	15.065	5.2727	0.1	2022.8
6748	15.065	5.4545	0.1	2023.9
6749	15.065	5.6364	0.1	2025.2
6750	15.065	5.8182	0.1	2028.3
6751	15.249	0.18182	0.1	1982.2
6752	15.249	0.36364	0.1	1979.
6753	15.249	0.54545	0.1	1977.7
6754	15.249	0.72727	0.1	1976.6
6755	15.249	0.90909	0.1	1975.7
6756	15.249	1.0909	0.1	1974.8
6757	15.249	1.2727	0.1	1974.
6758	15.249	1.4545	0.1	1973.3
6759	15.249	1.6364	0.1	1972.7
6760	15.249	1.8182	0.1	1972.1
6761	15.249	2.	0.1	1971.7
6762	15.249	2.1818	0.1	1971.3
6763	15.249	2.3636	0.1	1971.
6764	15.249	2.5455	0.1	1970.8
6765	15.249	2.7273	0.1	1970.6
6766	15.249	2.9091	0.1	1970.6
6767	15.249	3.0909	0.1	1970.6
6768	15.249	3.2727	0.1	1970.6
6769	15.249	3.4545	0.1	1970.8
6770	15.249	3.6364	0.1	1971.
6771	15.249	3.8182	0.1	1971.3
6772	15.249	4.	0.1	1971.7
6773	15.249	4.1818	0.1	1972.1
6774	15.249	4.3636	0.1	1972.7
6775	15.249	4.5455	0.1	1973.3
6776	15.249	4.7273	0.1	1974.
6777	15.249	4.9091	0.1	1974.8
6778	15.249	5.0909	0.1	1975.7
6779	15.249	5.2727	0.1	1976.6
6780	15.249	5.4545	0.1	1977.7
6781	15.249	5.6364	0.1	1979.
6782	15.249	5.8182	0.1	1982.2
6783	15.433	0.18182	0.1	1936.3
6784	15.433	0.36364	0.1	1933.1
6785	15.433	0.54545	0.1	1931.8
6786	15.433	0.72727	0.1	1930.7
6787	15.433	0.90909	0.1	1929.8
6788	15.433	1.0909	0.1	1928.9
6789	15.433	1.2727	0.1	1928.1
6790	15.433	1.4545	0.1	1927.4
6791	15.433	1.6364	0.1	1926.8
6792	15.433	1.8182	0.1	1926.3
6793	15.433	2.	0.1	1925.8
6794	15.433	2.1818	0.1	1925.5
6795	15.433	2.3636	0.1	1925.2
6796	15.433	2.5455	0.1	1925.
6797	15.433	2.7273	0.1	1924.8
6798	15.433	2.9091	0.1	1924.7
6799	15.433	3.0909	0.1	1924.7
6800	15.433	3.2727	0.1	1924.8
6801	15.433	3.4545	0.1	1925.
6802	15.433	3.6364	0.1	1925.2
6803	15.433	3.8182	0.1	1925.5
6804	15.433	4.	0.1	1925.8
6805	15.433	4.1818	0.1	1926.3
6806	15.433	4.3636	0.1	1926.8
6807	15.433	4.5455	0.1	1927.4
6808	15.433	4.7273	0.1	1928.1
6809	15.433	4.9091	0.1	1928.9
6810	15.433	5.0909	0.1	1929.8
6811	15.433	5.2727	0.1	1930.7
6812	15.433	5.4545	0.1	1931.8
6813	15.433	5.6364	0.1	1933.1
6814	15.433	5.8182	0.1	1936.3
6815	15.616	0.18182	0.1	1890.6
6816	15.616	0.36364	0.1	1887.4
6817	15.616	0.54545	0.1	1886.1
6818	15.616	0.72727	0.1	1885.
6819	15.616	0.90909	0.1	1884.1
6820	15.616	1.0909	0.1	1883.2
6821	15.616	1.2727	0.1	1882.4
6822	15.616	1.4545	0.1	1881.7
6823	15.616	1.6364	0.1	1881.1
6824	15.616	1.8182	0.1	1880.6
6825	15.616	2.	0.1	1880.2
6826	15.616	2.1818	0.1	1879.8
6827	15.616	2.3636	0.1	1879.6
6828	15.616	2.5455	0.1	1879.3
6829	15.616	2.7273	0.1	1879.2
6830	15.616	2.9091	0.1	1879.1
6831	15.616	3.0909	0.1	1879.1
6832	15.616	3.2727	0.1	1879.2
6833	15.616	3.4545	0.1	1879.3
6834	15.616	3.6364	0.1	1879.6
6835	15.616	3.8182	0.1	1879.8
6836	15.616	4.	0.1	1880.2
6837	15.616	4.1818	0.1	1880.6
6838	15.616	4.3636	0.1	1881.1
6839	15.616	4.5455	0.1	1881.7
6840	15.616	4.7273	0.1	1882.4
6841	15.616	4.9091	0.1	1883.2
6842	15.616	5.0909	0.1	1884.1
6843	15.616	5.2727	0.1	1885.
6844	15.616	5.4545	0.1	1886.1
6845	15.616	5.6364	0.1	1887.4
6846	15.616	5.8182	0.1	1890.6
6847	15.8	0.18182	0.1	1845.1
6848	15.8	0.36364	0.1	1841.8
6849	15.8	0.54545	0.1	1840.5
6850	15.8	0.72727	0.1	1839.5
6851	15.8	0.90909	0.1	1838.5
6852	15.8	1.0909	0.1	1837.7
6853	15.8	1.2727	0.1	1836.9
6854	15.8	1.4545	0.1	1836.3
6855	15.8	1.6364	0.1	1835.7
6856	15.8	1.8182	0.1	1835.2
6857	15.8	2.	0.1	1834.8
6858	15.8	2.1818	0.1	1834.4
6859	15.8	2.3636	0.1	1834.1
6860	15.8	2.5455	0.1	1833.9
6861	15.8	2.7273	0.1	1833.8
6862	15.8	2.9091	0.1	1833.7
6863	15.8	3.0909	0.1	1833.7
6864	15.8	3.2727	0.1	1833.8
6865	15.8	3.4545	0.1	1833.9
6866	15.8	3.6364	0.1	1834.1
6867	15.8	3.8182	0.1	1834.4
6868	15.8	4.	0.1	1834.8
6869	15.8	4.1818	0.1	1835.2
6870	15.8	4.3636	0.1	1835.7
6871	15.8	4.5455	0.1	1836.3
6872	15.8	4.7273	0.1	1836.9
6873	15.8	4.9091	0.1	1837.7
6874	15.8	5.0909	0.1	1838.5
6875	15.8	5.2727	0.1	1839.5
6876	15.8	5.4545	0.1	1840.5
6877	15.8	5.6364	0.1	1841.8
6878	15.8	5.8182	0.1	1845.1
6879	15.984	0.18182	0.1	1799.8
6880	15.984	0.36364	0.1	1796.5
6881	15.984	0.54545	0.1	1795.2
6882	15.984	0.72727	0.1	1794.2
6883	15.984	0.90909	0.1	1793.2
6884	15.984	1.0909	0.1	1792.4
6885	15.984	1.2727	0.1	1791.6
6886	15.984	1.4545	0.1	1791.
6887	15.984	1.6364	0.1	1790.4
6888	15.984	1.8182	0.1	1789.9
6889	15.984	2.	0.1	1789.5
6890	15.984	2.1818	0.1	1789.2
6891	15.984	2.3636	0.1	1788.9
6892	15.984	2.5455	0.1	1788.7
6893	15.984	2.7273	0.1	1788.6
6894	15.984	2.9091	0.1	1788.5
6895	15.984	3.0909	0.1	1788.5
6896	15.984	3.2727	0.1	1788.6
6897	15.984	3.4545	0.1	1788.7
6898	15.984	3.6364	0.1	1788.9
6899	15.984	3.8182	0.1	1789.2
6900	15.984	4.	0.1	1789.5
6901	15.984	4.1818	0.1	1789.9
6902	15.984	4.3636	0.1	1790.4
6903	15.984	4.5455	0.1	1791.
6904	15.984	4.7273	0.1	1791.6
6905	15.984	4.9091	0.1	1792.4
6906	15.984	5.0909	0.1	1793.2
6907	15.984	5.2727	0.1	1794.2
6908	15.984	5.4545	0.1	1795.2
6909	15.984	5.6364	0.1	1796.5
6910	15.984	5.8182	0.1	1799.8
6911	16.167	0.18182	0.1	1754.6
6912	16.167	0.36364	0.1	1751.3
6913	16.167	0.54545	0.1	1750.
6914	16.167	0.72727	0.1	1749.
6915	16.167	0.90909	0.1	1748.1
6916	16.167	1.0909	0.1	1747.3
6917	16.167	1.2727	0.1	1746.5
6918	16.167	1.4545	0.1	1745.9
6919	16.167	1.6364	0.1	1745.3
6920	16.167	1.8182	0.1	1744.9
6921	16.167	2.	0.1	1744.5
6922	16.167	2.1818	0.1	1744.2
6923	16.167	2.3636	0.1	1743.9
6924	16.167	2.5455	0.1	1743.7
6925	16.167	2.7273	0.1	1743.6
6926	16.167	2.9091	0.1	1743.5
6927	16.167	3.0909	0.1	1743.5
6928	16.167	3.2727	0.1	1743.6
6929	16.167	3.4545	0.1	1743.7
6930	16.167	3.6364	0.1	1743.9
6931	16.167	3.8182	0.1	1744.2
6932	16.167	4.	0.1	1744.5
6933	16.167	4.1818	0.1	1744.9
6934	16.167	4.3636	0.1	1745.3
6935	16.167	4.5455	0.1	1745.9
6936	16.167	4.7273	0.1	1746.5
6937	16.167	4.9091	0.1	1747.3
6938	16.167	5.0909	0.1	1748.1
6939	16.167	5.2727	0.1	1749.
6940	16.167	5.4545	0.1	1750.
6941	16.167	5.6364	0.1	1751.3
6942	16.167	5.8182	0.1	1754.6
6943	16.351	0.18182	0.1	1709.7
6944	16.351	0.36364	0.1	1706.3
6945	16.351	0.54545	0.1	1705.1
6946	16.351	0.72727	0.1	1704.1
6947	16.351	0.90909	0.1	1703.1
6948	16.351	1.0909	0.1	1702.3
6949	16.351	1.2727	0.1	1701.6
6950	16.351	1.4545	0.1	1701.
6951	16.351	1.6364	0.1	1700.5
6952	16.351	1.8182	0.1	1700.
6953	16.351	2.	0.1	1699.6
6954	16.351	2.1818	0.1	1699.3
6955	16.351	2.3636	0.1	1699.1
6956	16.351	2.5455	0.1	1698.9
6957	16.351	2.7273	0.1	1698.8
6958	16.351	2.9091	0.1	1698.7
6959	16.351	3.0909	0.1	1698.7
6960	16.351	3.2727	0.1	1698.8
6961	16.351	3.4545	0.1	1698.9
6962	16.351	3.6364	0.1	1699.1
6963	16.351	3.8182	0.1	1699.3
6964	16.351	4.	0.1	1699.6
6965	16.351	4.1818	0.1	1700.
6966	16.351	4.3636	0.1	1700.5
6967	16.351	4.5455	0.1	1701.
6968	16.351	4.7273	0.1	1701.6
6969	16.351	4.9091	0.1	1702.3
6970	16.351	5.0909	0.1	1703.1
6971	16.351	5.2727	0.1	1704.1
6972	16.351	5.4545	0.1	1705.1
6973	16.351	5.6364	0.1	1706.3
6974	16.351	5.8182	0.1	1709.7
6975	16.535	0.18182	0.1	1664.9
6976	16.535	0.36364	0.1	1661.6
6977	16.535	0.54545	0.1	1660.3
6978	16.535	0.72727	0.1	1659.3
6979	16.535	0.90909	0.1	1658.4
6980	16.535	1.0909	0.1	1657.6
6981	16.535	1.2727	0.1	1656.9
6982	16.535	1.4545	0.1	1656.3
6983	16.535	1.6364	0.1	1655.8
6984	16.535	1.8182	0.1	1655.4
6985	16.535	2.	0.1	1655.
6986	16.535	2.1818	0.1	1654.7
6987	16.535	2.3636	0.1	1654.5
6988	16.535	2.5455	0.1	1654.3
6989	16.535	2.7273	0.1	1654.2
6990	16.535	2.9091	0.1	1654.1
6991	16.535	3.0909	0.1	1654.1
6992	16.535	3.2727	0.1	1654.2
6993	16.535	3.4545	0.1	1654.3
6994	16.535	3.6364	0.1	1654.5
6995	16.535	3.8182	0.1	1654.7
6996	16.535	4.	0.1	1655.
6997	16.535	4.1818	0.1	1655.4
6998	16.535	4.3636	0.1	1655.8
6999	16.535	4.5455	0.1	1656.3
7000	16.535	4.7273	0.1	1656.9
7001	16.535	4.9091	0.1	1657.6
7002	16.535	5.0909	0.1	1658.4
7003	16.535	5.2727	0.1	1659.3
7004	16.535	5.4545	0.1	1660.3
7005	16.535	5.6364	0.1	1661.6
7006	16.535	5.8182	0.1	1664.9
7007	16.719	0.18182	0.1	1620.3
7008	16.719	0.36364	0.1	1617.
7009	16.719	0.54545	0.1	1615.7
7010	16.719	0.72727	0.1	1614.7
7011	16.719	0.90909	0.1	1613.9
7012	16.719	1.0909	0.1	1613.1
7013	16.719	1.2727	0.1	1612.4
7014	16.719	1.4545	0.1	1611.8
7015	16.719	1.6364	0.1	1611.3
7016	16.719	1.8182	0.1	1610.9
7017	16.719	2.	0.1	1610.6
7018	16.719	2.1818	0.1	1610.3
7019	16.719	2.3636	0.1	1610.1
7020	16.719	2.5455	0.1	1609.9
7021	16.719	2.7273	0.1	1609.8
7022	16.719	2.9091	0.1	1609.7
7023	16.719	3.0909	0.1	1609.7
7024	16.719	3.2727	0.1	1609.8
7025	16.719	3.4545	0.1	1609.9
7026	16.719	3.6364	0.1	1610.1
7027	16.719	3.8182	0.1	1610.3
7028	16.719	4.	0.1	1610.6
7029	16.719	4.1818	0.1	1610.9
7030	16.719	4.3636	0.1	1611.3
7031	16.719	4.5455	0.1	1611.8
7032	16.719	4.7273	0.1	1612.4
7033	16.719	4.9091	0.1	1613.1
7034	16.719	5.0909	0.1	1613.9
7035	16.719	5.2727	0.1	1614.7
7036	16.719	5.4545	0.1	1615.7
7037	16.719	5.6364	0.1	1617.
7038	16.719	5.8182	0.1	1620.3
7039	16.902	0.18182	0.1	1575.9
7040	16.902	0.36364	0.1	1572.5
7041	16.902	0.54545	0.1	1571.3
7042	16.902	0.72727	0.1	1570.3
7043	16.902	0.90909	0.1	1569.5
7044	16.902	1.0909	0.1	1568.7
7045	16.902	1.2727	0.1	1568.1
7046	16.902	1.4545	0.1	1567.5
7047	16.902	1.6364	0.1	1567.1
7048	16.902	1.8182	0.1	1566.7
7049	16.902	2.	0.1	1566.3
7050	16.902	2.1818	0.1	1566.1
7051	16.902	2.3636	0.1	1565.9
7052	16.902	2.5455	0.1	1565.7
7053	16.902	2.7273	0.1	1565.6
7054	16.902	2.9091	0.1	1565.6
7055	16.902	3.0909	0.1	1565.6
7056	16.902	3.2727	0.1	1565.6
7057	16.902	3.4545	0.1	1565.7
7058	16.902	3.6364	0.1	1565.9
7059	16.902	3.8182	0.1	1566.1
7060	16.902	4.	0.1	1566.3
7061	16.902	4.1818	0.1	1566.7
7062	16.902	4.3636	0.1	1567.1
7063	16.902	4.5455	0.1	1567.5
7064	16.902	4.7273	0.1	1568.1
7065	16.902	4.9091	0.1	1568.7
7066	16.902	5.0909	0.1	1569.5
7067	16.902	5.2727	0.1	1570.3
7068	16.902	5.4545	0.1	1571.3
7069	16.902	5.6364	0.1	1572.5
7070	16.902	5.8182	0.1	1575.9
7071	17.086	0.18182	0.1	1531.7
7072	17.086	0.36364	0.1	1528.3
7073	17.086	0.54545	0.1	1527.1
7074	17.086	0.72727	0.1	1526.1
7075	17.086	0.90909	0.1	1525.3
7076	17.086	1.0909	0.1	1524.6
7077	17.086	1.2727	0.1	1524.
7078	17.086	1.4545	0.1	1523.4
7079	17.086	1.6364	0.1	1523.
7080	17.086	1.8182	0.1	1522.6
7081	17.086	2.	0.1	1522.3
7082	17.086	2.1818	0.1	1522.1
7083	17.086	2.3636	0.1	1521.9
7084	17.086	2.5455	0.1	1521.7
7085	17.086	2.7273	0.1	1521.6
7086	17.086	2.9091	0.1	1521.6
7087	17.086	3.0909	0.1	1521.6
7088	17.086	3.2727	0.1	1521.6
7089	17.086	3.4545	0.1	1521.7
7090	17.086	3.6364	0.1	1521.9
7091	17.086	3.8182	0.1	1522.1
7092	17.086	4.	0.1	1522.3
7093	17.086	4.1818	0.1	1522.6
7094	17.086	4.3636	0.1	1523.
7095	17.086	4.5455	0.1	1523.4
7096	17.086	4.7273	0.1	1524.
7097	17.086	4.9091	0.1	1524.6
7098	17.086	5.0909	0.1	1525.3
7099	17.086	5.2727	0.1	1526.1
7100	17.086	5.4545	0.1	1527.1
7101	17.086	5.6364	0.1	1528.3
7102	17.086	5.8182	0.1	1531.7
7103	17.27	0.18182	0.1	1487.6
7104	17.27	0.36364	0.1	1484.2
7105	17.27	0.54545	0.1	1483.1
7106	17.27	0.72727	0.1	1482.1
7107	17.27	0.90909	0.1	1481.3
7108	17.27	1.0909	0.1	1480.6
7109	17.27	1.2727	0.1	1480.
7110	17.27	1.4545	0.1	1479.5
7111	17.27	1.6364	0.1	1479.1
7112	17.27	1.8182	0.1	1478.8
7113	17.27	2.	0.1	1478.5
7114	17.27	2.1818	0.1	1478.2
7115	17.27	2.3636	0.1	1478.1
7116	17.27	2.5455	0.1	1477.9
7117	17.27	2.7273	0.1	1477.9
7118	17.27	2.9091	0.1	1477.8
7119	17.27	3.0909	0.1	1477.8
7120	17.27	3.2727	0.1	1477.9
7121	17.27	3.4545	0.1	1477.9
7122	17.27	3.6364	0.1	1478.1
7123	17.27	3.8182	0.1	1478.2
7124	17.27	4.	0.1	1478.5
7125	17.27	4.1818	0.1	1478.8
7126	17.27	4.3636	0.1	1479.1
7127	17.27	4.5455	0.1	1479.5
7128	17.27	4.7273	0.1	1480.
7129	17.27	4.9091	0.1	1480.6
7130	17.27	5.0909	0.1	1481.3
7131	17.27	5.2727	0.1	1482.1
7132	17.27	5.4545	0.1	1483.1
7133	17.27	5.6364	0.1	1484.2
7134	17.27	5.8182	0.1	1487.6
7135	17.453	0.18182	0.1	1443.7
7136	17.453	0.36364	0.1	1440.4
7137	17.453	0.54545	0.1	1439.2
7138	17.453	0.72727	0.1	1438.3
7139	17.453	0.90909	0.1	1437.5
7140	17.453	1.0909	0.1	1436.9
7141	17.453	1.2727	0.1	1436.3
7142	17.453	1.4545	0.1	1435.8
7143	17.453	1.6364	0.1	1435.4
7144	17.453	1.8182	0.1	1435.1
7145	17.453	2.	0.1	1434.9
7146	17.453	2.1818	0.1	1434.6
7147	17.453	2.3636	0.1	1434.5
7148	17.453	2.5455	0.1	1434.4
7149	17.453	2.7273	0.1	1434.3
7150	17.453	2.9091	0.1	1434.3
7151	17.453	3.0909	0.1	1434.3
7152	17.453	3.2727	0.1	1434.3
7153	17.453	3.4545	0.1	1434.4
7154	17.453	3.6364	0.1	1434.5
7155	17.453	3.8182	0.1	1434.6
7156	17.453	4.	0.1	1434.9
7157	17.453	4.1818	0.1	1435.1
7158	17.453	4.3636	0.1	1435.4
7159	17.453	4.5455	0.1	1435.8
7160	17.453	4.7273	0.1	1436.3
7161	17.453	4.9091	0.1	1436.9
7162	17.453	5.0909	0.1	1437.5
7163	17.453	5.2727	0.1	1438.3
7164	17.453	5.4545	0.1	1439.2
7165	17.453	5.6364	0.1	1440.4
7166	17.453	5.8182	0.1	1443.7
7167	17.637	0.18182	0.1	1400.
7168	17.637	0.36364	0.1	1396.7
7169	17.637	0.54545	0.1	1395.5
7170	17.637	0.72727	0.1	1394.6
7171	17.637	0.90909	0.1	1393.9
7172	17.637	1.0909	0.1	1393.3
7173	17.637	1.2727	0.1	1392.8
7174	17.637	1.4545	0.1	1392.3
7175	17.637	1.6364	0.1	1392.
7176	17.637	1.8182	0.1	1391.7
7177	17.637	2.	0.1	1391.4
7178	17.637	2.1818	0.1	1391.2
7179	17.637	2.3636	0.1	1391.1
7180	17.637	2.5455	0.1	1391.
7181	17.637	2.7273	0.1	1390.9
7182	17.637	2.9091	0.1	1390.9
7183	17.637	3.0909	0.1	1390.9
7184	17.637	3.2727	0.1	1390.9
7185	17.637	3.4545	0.1	1391.
7186	17.637	3.6364	0.1	1391.1
7187	17.637	3.8182	0.1	1391.2
7188	17.637	4.	0.1	1391.4
7189	17.637	4.1818	0.1	1391.7
7190	17.637	4.3636	0.1	1392.
7191	17.637	4.5455	0.1	1392.3
7192	17.637	4.7273	0.1	1392.8
7193	17.637	4.9091	0.1	1393.3
7194	17.637	5.0909	0.1	1393.9
7195	17.637	5.2727	0.1	1394.6
7196	17.637	5.4545	0.1	1395.5
7197	17.637	5.6364	0.1	1396.7
7198	17.637	5.8182	0.1	1400.
7199	17.821	0.18182	0.1	1356.5
7200	17.821	0.36364	0.1	1353.1
7201	17.821	0.54545	0.1	1352.
7202	17.821	0.72727	0.1	1351.2
7203	17.821	0.90909	0.1	1350.5
7204	17.821	1.0909	0.1	1349.9
7205	17.821	1.2727	0.1	1349.4
7206	17.821	1.4545	0.1	1349.
7207	17.821	1.6364	0.1	1348.7
7208	17.821	1.8182	0.1	1348.4
7209	17.821	2.	0.1	1348.2
7210	17.821	2.1818	0.1	1348.1
7211	17.821	2.3636	0.1	1347.9
7212	17.821	2.5455	0.1	1347.9
7213	17.821	2.7273	0.1	1347.8
7214	17.821	2.9091	0.1	1347.8
7215	17.821	3.0909	0.1	1347.8
7216	17.821	3.2727	0.1	1347.8
7217	17.821	3.4545	0.1	1347.9
7218	17.821	3.6364	0.1	1347.9
7219	17.821	3.8182	0.1	1348.1
7220	17.821	4.	0.1	1348.2
7221	17.821	4.1818	0.1	1348.4
7222	17.821	4.3636	0.1	1348.7
7223	17.821	4.5455	0.1	1349.
7224	17.821	4.7273	0.1	1349.4
7225	17.821	4.9091	0.1	1349.9
7226	17.821	5.0909	0.1	1350.5
7227	17.821	5.2727	0.1	1351.2
7228	17.821	5.4545	0.1	1352.
7229	17.821	5.6364	0.1	1353.1
7230	17.821	5.8182	0.1	1356.5
7231	18.005	0.18182	0.1	1313.1
7232	18.005	0.36364	0.1	1309.8
7233	18.005	0.54545	0.1	1308.7
7234	18.005	0.72727	0.1	1307.9
7235	18.005	0.90909	0.1	1307.2
7236	18.005	1.0909	0.1	1306.7
7237	18.005	1.2727	0.1	1306.2
7238	18.005	1.4545	0.1	1305.9
7239	18.005	1.6364	0.1	1305.6
7240	18.005	1.8182	0.1	1305.4
7241	18.005	2.	0.1	1305.2
7242	18.005	2.1818	0.1	1305.1
7243	18.005	2.3636	0.1	1305.
7244	18.005	2.5455	0.1	1304.9
7245	18.005	2.7273	0.1	1304.9
7246	18.005	2.9091	0.1	1304.9
7247	18.005	3.0909	0.1	1304.9
7248	18.005	3.2727	0.1	1304.9
7249	18.005	3.4545	0.1	1304.9
7250	18.005	3.6364	0.1	1305.
7251	18.005	3.8182	0.1	1305.1
7252	18.005	4.	0.1	1305.2
7253	18.005	4.1818	0.1	1305.4
7254	18.005	4.3636	0.1	1305.6
7255	18.005	4.5455	0.1	1305.9
7256	18.005	4.7273	0.1	1306.2
7257	18.005	4.9091	0.1	1306.7
7258	18.005	5.0909	0.1	1307.2
7259	18.005	5.2727	0.1	1307.9
7260	18.005	5.4545	0.1	1308.7
7261	18.005	5.6364	0.1	1309.8
7262	18.005	5.8182	0.1	1313.1
7263	18.188	0.18182	0.1	1269.9
7264	18.188	0.36364	0.1	1266.6
7265	18.188	0.54545	0.1	1265.5
7266	18.188	0.72727	0.1	1264.8
7267	18.188	0.90909	0.1	1264.1
7268	18.188	1.0909	0.1	1263.6
7269	18.188	1.2727	0.1	1263.3
7270	18.188	1.4545	0.1	1262.9
7271	18.188	1.6364	0.1	1262.7
7272	18.188	1.8182	0.1	1262.5
7273	18.188	2.	0.1	1262.4
7274	18.188	2.1818	0.1	1262.3
7275	18.188	2.3636	0.1	1262.2
7276	18.188	2.5455	0.1	1262.2
7277	18.188	2.7273	0.1	1262.2
7278	18.188	2.9091	0.1	1262.1
7279	18.188	3.0909	0.1	1262.1
7280	18.188	3.2727	0.1	1262.2
7281	18.188	3.4545	0.1	1262.2
7282	18.188	3.6364	0.1	1262.2
7283	18.188	3.8182	0.1	1262.3
7284	18.188	4.	0.1	1262.4
7285	18.188	4.1818	0.1	1262.5
7286	18.188	4.3636	0.1	1262.7
7287	18.188	4.5455	0.1	1262.9
7288	18.188	4.7273	0.1	1263.3
7289	18.188	4.9091	0.1	1263.6
7290	18.188	5.0909	0.1	1264.1
7291	18.188	5.2727	0.1	1264.8
7292	18.188	5.4545	0.1	1265.5
7293	18.188	5.6364	0.1	1266.6
7294	18.188	5.8182	0.1	1269.9
7295	18.372	0.18182	0.1	1226.8
7296	18.372	0.36364	0.1	1223.5
7297	18.372	0.54545	0.1	1222.5
7298	18.372	0.72727	0.1	1221.8
7299	18.372	0.90909	0.1	1221.2
7300	18.372	1.0909	0.1	1220.8
7301	18.372	1.2727	0.1	1220.5
7302	18.372	1.4545	0.1	1220.2
7303	18.372	1.6364	0.1	1220.
7304	18.372	1.8182	0.1	1219.9
7305	18.372	2.	0.1	1219.8
7306	18.372	2.1818	0.1	1219.7
7307	18.372	2.3636	0.1	1219.7
7308	18.372	2.5455	0.1	1219.7
7309	18.372	2.7273	0.1	1219.7
7310	18.372	2.9091	0.1	1219.6
7311	18.372	3.0909	0.1	1219.6
7312	18.372	3.2727	0.1	1219.7
7313	18.372	3.4545	0.1	1219.7
7314	18.372	3.6364	0.1	1219.7
7315	18.372	3.8182	0.1	1219.7
7316	18.372	4.	0.1	1219.8
7317	18.372	4.1818	0.1	1219.9
7318	18.372	4.3636	0.1	1220.
7319	18.372	4.5455	0.1	1220.2
7320	18.372	4.7273	0.1	1220.5
7321	18.372	4.9091	0.1	1220.8
7322	18.372	5.0909	0.1	1221.2
7323	18.372	5.2727	0.1	1221.8
7324	18.372	5.4545	0.1	1222.5
7325	18.372	5.6364	0.1	1223.5
7326	18.372	5.8182	0.1	1226.8
7327	18.556	0.18182	0.1	1183.9
7328	18.556	0.36364	0.1	1180.6
7329	18.556	0.54545	0.1	1179.7
7330	18.556	0.72727	0.1	1179.
7331	18.556	0.90909	0.1	1178.5
7332	18.556	1.0909	0.1	1178.1
7333	18.556	1.2727	0.1	1177.9
7334	18.556	1.4545	0.1	1177.7
7335	18.556	1.6364	0.1	1177.5
7336	18.556	1.8182	0.1	1177.5
7337	18.556	2.	0.1	1177.4
7338	18.556	2.1818	0.1	1177.4
7339	18.556	2.3636	0.1	1177.4
7340	18.556	2.5455	0.1	1177.4
7341	18.556	2.7273	0.1	1177.4
7342	18.556	2.9091	0.1	1177.4
7343	18.556	3.0909	0.1	1177.4
7344	18.556	3.2727	0.1	1177.4
7345	18.556	3.4545	0.1	1177.4
7346	18.556	3.6364	0.1	1177.4
7347	18.556	3.8182	0.1	1177.4
7348	18.556	4.	0.1	1177.4
7349	18.556	4.1818	0.1	1177.5
7350	18.556	4.3636	0.1	1177.5
7351	18.556	4.5455	0.1	1177.7
7352	18.556	4.7273	0.1	1177.9
7353	18.556	4.9091	0.1	1178.1
7354	18.556	5.0909	0.1	1178.5
7355	18.556	5.2727	0.1	1179.
7356	18.556	5.4545	0.1	1179.7
7357	18.556	5.6364	0.1	1180.6
7358	18.556	5.8182	0.1	1183.9
7359	18.74	0.18182	0.1	1141.1
7360	18.74	0.36364	0.1	1137.9
7361	18.74	0.54545	0.1	1137.
7362	18.74	0.72727	0.1	1136.4
7363	18.74	0.90909	0.1	1136.
7364	18.74	1.0909	0.1	1135.7
7365	18.74	1.2727	0.1	1135.5
7366	18.74	1.4545	0.1	1135.3
7367	18.74	1.6364	0.1	1135.3
7368	18.74	1.8182	0.1	1135.2
7369	18.74	2.	0.1	1135.2
7370	18.74	2.1818	0.1	1135.2
7371	18.74	2.3636	0.1	1135.3
7372	18.74	2.5455	0.1	1135.3
7373	18.74	2.7273	0.1	1135.3
7374	18.74	2.9091	0.1	1135.3
7375	18.74	3.0909	0.1	1135.3
7376	18.74	3.2727	0.1	1135.3
7377	18.74	3.4545	0.1	1135.3
7378	18.74	3.6364	0.1	1135.3
7379	18.74	3.8182	0.1	1135.2
7380	18.74	4.	0.1	1135.2
7381	18.74	4.1818	0.1	1135.2
7382	18.74	4.3636	0.1	1135.3
7383	18.74	4.5455	0.1	1135.3
7384	18.74	4.7273	0.1	1135.5
7385	18.74	4.9091	0.1	1135.7
7386	18.74	5.0909	0.1	1136.
7387	18.74	5.2727	0.1	1136.4
7388	18.74	5.4545	0.1	1137.
7389	18.74	5.6364	0.1	1137.9
7390	18.74	5.8182	0.1	1141.1
7391	18.923	0.18182	0.1	1098.5
7392	18.923	0.36364	0.1	1095.3
7393	18.923	0.54545	0.1	1094.5
7394	18.923	0.72727	0.1	1093.9
7395	18.923	0.90909	0.1	1093.6
7396	18.923	1.0909	0.1	1093.4
7397	18.923	1.2727	0.1	1093.2
7398	18.923	1.4545	0.1	1093.2
7399	18.923	1.6364	0.1	1093.2
7400	18.923	1.8182	0.1	1093.2
7401	18.923	2.	0.1	1093.3
7402	18.923	2.1818	0.1	1093.3
7403	18.923	2.3636	0.1	1093.4
7404	18.923	2.5455	0.1	1093.4
7405	18.923	2.7273	0.1	1093.4
7406	18.923	2.9091	0.1	1093.5
7407	18.923	3.0909	0.1	1093.5
7408	18.923	3.2727	0.1	1093.4
7409	18.923	3.4545	0.1	1093.4
7410	18.923	3.6364	0.1	1093.4
7411	18.923	3.8182	0.1	1093.3
7412	18.923	4.	0.1	1093.3
7413	18.923	4.1818	0.1	1093.2
7414	18.923	4.3636	0.1	1093.2
7415	18.923	4.5455	0.1	1093.2
7416	18.923	4.7273	0.1	1093.2
7417	18.923	4.9091	0.1	1093.4
7418	18.923	5.0909	0.1	1093.6
7419	18.923	5.2727	0.1	1093.9
7420	18.923	5.4545	0.1	1094.5
7421	18.923	5.6364	0.1	1095.3
7422	18.923	5.8182	0.1	1098.5
7423	19.107	0.18182	0.1	1056.
7424	19.107	0.36364	0.1	1052.8
7425	19.107	0.54545	0.1	1052.1
7426	19.107	0.72727	0.1	1051.6
7427	19.107	0.90909	0.1	1051.4
7428	19.107	1.0909	0.1	1051.2
7429	19.107	1.2727	0.1	1051.2
7430	19.107	1.4545	0.1	1051.2
7431	19.107	1.6364	0.1	1051.3
7432	19.107	1.8182	0.1	1051.4
7433	19.107	2.	0.1	1051.5
7434	19.107	2.1818	0.1	1051.6
7435	19.107	2.3636	0.1	1051.7
7436	19.107	2.5455	0.1	1051.8
7437	19.107	2.7273	0.1	1051.8
7438	19.107	2.9091	0.1	1051.8
7439	19.107	3.0909	0.1	1051.8
7440	19.107	3.2727	0.1	1051.8
7441	19.107	3.4545	0.1	1051.8
7442	19.107	3.6364	0.1	1051.7
7443	19.107	3.8182	0.1	1051.6
7444	19.107	4.	0.1	1051.5
7445	19.107	4.1818	0.1	1051.4
7446	19.107	4.3636	0.1	1051.3
7447	19.107	4.5455	0.1	1051.2
7448	19.107	4.7273	0.1	1051.2
7449	19.107	4.9091	0.1	1051.2
7450	19.107	5.0909	0.1	1051.4
7451	19.107	5.2727	0.1	1051.6
7452	19.107	5.4545	0.1	1052.1
7453	19.107	5.6364	0.1	1052.8
7454	19.107	5.8182	0.1	1056.
7455	19.291	0.18182	0.1	1013.6
7456	19.291	0.36364	0.1	1010.5
7457	19.291	0.54545	0.1	1009.8
7458	19.291	0.72727	0.1	1009.5
7459	19.291	0.90909	0.1	1009.3
7460	19.291	1.0909	0.1	1009.3
7461	19.291	1.2727	0.1	1009.3
7462	19.291	1.4545	0.1	1009.5
7463	19.291	1.6364	0.1	1009.6
7464	19.291	1.8182	0.1	1009.8
7465	19.291	2.	0.1	1010.
7466	19.291	2.1818	0.1	1010.1
7467	19.291	2.3636	0.1	1010.2
7468	19.291	2.5455	0.1	1010.3
7469	19.291	2.7273	0.1	1010.4
7470	19.291	2.9091	0.1	1010.4
7471	19.291	3.0909	0.1	1010.4
7472	19.291	3.2727	0.1	1010.4
7473	19.291	3.4545	0.1	1010.3
7474	19.291	3.6364	0.1	1010.2
7475	19.291	3.8182	0.1	1010.1
7476	19.291	4.	0.1	1010.
7477	19.291	4.1818	0.1	1009.8
7478	19.291	4.3636	0.1	1009.6
7479	19.291	4.5455	0.1	1009.5
7480	19.291	4.7273	0.1	1009.3
7481	19.291	4.9091	0.1	1009.3
7482	19.291	5.0909	0.1	1009.3
7483	19.291	5.2727	0.1	1009.5
7484	19.291	5.4545	0.1	1009.8
7485	19.291	5.6364	0.1	1010.5
7486	19.291	5.8182	0.1	1013.6
7487	19.474	0.18182	0.1	971.25
7488	19.474	0.36364	0.1	968.26
7489	19.474	0.54545	0.1	967.69
7490	19.474	0.72727	0.1	967.47
7491	19.474	0.90909	0.1	967.43
7492	19.474	1.0909	0.1	967.51
7493	19.474	1.2727	0.1	967.67
7494	19.474	1.4545	0.1	967.89
7495	19.474	1.6364	0.1	968.14
7496	19.474	1.8182	0.1	968.39
7497	19.474	2.	0.1	968.62
7498	19.474	2.1818	0.1	968.83
7499	19.474	2.3636	0.1	969.01
7500	19.474	2.5455	0.1	969.14
7501	19.474	2.7273	0.1	969.23
7502	19.474	2.9091	0.1	969.28
7503	19.474	3.0909	0.1	969.28
7504	19.474	3.2727	0.1	969.23
7505	19.474	3.4545	0.1	969.14
7506	19.474	3.6364	0.1	969.01
7507	19.474	3.8182	0.1	968.83
7508	19.474	4.	0.1	968.62
7509	19.474	4.1818	0.1	968.39
7510	19.474	4.3636	0.1	968.14
7511	19.474	4.5455	0.1	967.89
7512	19.474	4.7273	0.1	967.67
7513	19.474	4.9091	0.1	967.51
7514	19.474	5.0909	0.1	967.43
7515	19.474	5.2727	0.1	967.47
7516	19.474	5.4545	0.1	967.69
7517	19.474	5.6364	0.1	968.26
7518	19.474	5.8182	0.1	971.25
7519	19.658	0.18182	0.1	929.02
7520	19.658	0.36364	0.1	926.14
7521	19.658	0.54545	0.1	925.69
7522	19.658	0.72727	0.1	925.6
7523	19.658	0.90909	0.1	925.68
7524	19.658	1.0909	0.1	925.89
7525	19.658	1.2727	0.1	926.18
7526	19.658	1.4545	0.1	926.52
7527	19.658	1.6364	0.1	926.87
7528	19.658	1.8182	0.1	927.2
7529	19.658	2.	0.1	927.51
7530	19.658	2.1818	0.1	927.78
7531	19.658	2.3636	0.1	928.
7532	19.658	2.5455	0.1	928.16
7533	19.658	2.7273	0.1	928.27
7534	19.658	2.9091	0.1	928.33
7535	19.658	3.0909	0.1	928.33
7536	19.658	3.2727	0.1	928.27
7537	19.658	3.4545	0.1	928.16
7538	19.658	3.6364	0.1	928.
7539	19.658	3.8182	0.1	927.78
7540	19.658	4.	0.1	927.51
7541	19.658	4.1818	0.1	927.2
7542	19.658	4.3636	0.1	926.87
7543	19.658	4.5455	0.1	926.52
7544	19.658	4.7273	0.1	926.18
7545	19.658	4.9091	0.1	925.89
7546	19.658	5.0909	0.1	925.68
7547	19.658	5.2727	0.1	925.6
7548	19.658	5.4545	0.1	925.69
7549	19.658	5.6364	0.1	926.14
7550	19.658	5.8182	0.1	929.02
7551	19.842	0.18182	0.1	886.87
7552	19.842	0.36364	0.1	884.11
7553	19.842	0.54545	0.1	883.8
7554	19.842	0.72727	0.1	883.85
7555	19.842	0.90909	0.1	884.09
7556	19.842	1.0909	0.1	884.45
7557	19.842	1.2727	0.1	884.88
7558	19.842	1.4545	0.1	885.34
7559	19.842	1.6364	0.1	885.81
7560	19.842	1.8182	0.1	886.24
7561	19.842	2.	0.1	886.63
7562	19.842	2.1818	0.1	886.95
7563	19.842	2.3636	0.1	887.22
7564	19.842	2.5455	0.1	887.41
7565	19.842	2.7273	0.1	887.54
7566	19.842	2.9091	0.1	887.6
7567	19.842	3.0909	0.1	887.6
7568	19.842	3.2727	0.1	887.54
7569	19.842	3.4545	0.1	887.41
7570	19.842	3.6364	0.1	887.22
7571	19.842	3.8182	0.1	886.95
7572	19.842	4.	0.1	886.63
7573	19.842	4.1818	0.1	886.24
7574	19.842	4.3636	0.1	885.81
7575	19.842	4.5455	0.1	885.34
7576	19.842	4.7273	0.1	884.88
7577	19.842	4.9091	0.1	884.45
7578	19.842	5.0909	0.1	884.09
7579	19.842	5.2727	0.1	883.85
7580	19.842	5.4545	0.1	883.8
7581	19.842	5.6364	0.1	884.11
7582	19.842	5.8182	0.1	886.87
7583	20.026	0.18182	0.1	844.76
7584	20.026	0.36364	0.1	842.16
7585	20.026	0.54545	0.1	842.
7586	20.026	0.72727	0.1	842.22
7587	20.026	0.90909	0.1	842.63
7588	20.026	1.0909	0.1	843.16
7589	20.026	1.2727	0.1	843.76
7590	20.026	1.4545	0.1	844.37
7591	20.026	1.6364	0.1	844.96
7592	20.026	1.8182	0.1	845.5
7593	20.026	2.	0.1	845.97
7594	20.026	2.1818	0.1	846.36
7595	20.026	2.3636	0.1	846.66
7596	20.026	2.5455	0.1	846.89
7597	20.026	2.7273	0.1	847.04
7598	20.026	2.9091	0.1	847.11
7599	20.026	3.0909	0.1	847.11
7600	20.026	3.2727	0.1	847.04
7601	20.026	3.4545	0.1	846.89
7602	20.026	3.6364	0.1	846.66
7603	20.026	3.8182	0.1	846.36
7604	20.026	4.	0.1	845.97
7605	20.026	4.1818	0.1	845.5
7606	20.026	4.3636	0.1	844.96
7607	20.026	4.5455	0.1	844.37
7608	20.026	4.7273	0.1	843.76
7609	20.026	4.9091	0.1	843.16
7610	20.026	5.0909	0.1	842.63
7611	20.026	5.2727	0.1	842.22
7612	20.026	5.4545	0.1	842.
7613	20.026	5.6364	0.1	842.16
7614	20.026	5.8182	0.1	844.76
7615	20.209	0.18182	0.1	802.68
7616	20.209	0.36364	0.1	800.26
7617	20.209	0.54545	0.1	800.28
7618	20.209	0.72727	0.1	800.7
7619	20.209	0.90909	0.1	801.31
7620	20.209	1.0909	0.1	802.04
7621	20.209	1.2727	0.1	802.82
7622	20.209	1.4545	0.1	803.6
7623	20.209	1.6364	0.1	804.33
7624	20.209	1.8182	0.1	804.99
7625	20.209	2.	0.1	805.54
7626	20.209	2.1818	0.1	806.
7627	20.209	2.3636	0.1	806.35
7628	20.209	2.5455	0.1	806.6
7629	20.209	2.7273	0.1	806.76
7630	20.209	2.9091	0.1	806.84
7631	20.209	3.0909	0.1	806.84
7632	20.209	3.2727	0.1	806.76
7633	20.209	3.4545	0.1	806.6
7634	20.209	3.6364	0.1	806.35
7635	20.209	3.8182	0.1	806.
7636	20.209	4.	0.1	805.54
7637	20.209	4.1818	0.1	804.99
7638	20.209	4.3636	0.1	804.33
7639	20.209	4.5455	0.1	803.6
7640	20.209	4.7273	0.1	802.82
7641	20.209	4.9091	0.1	802.04
7642	20.209	5.0909	0.1	801.31
7643	20.209	5.2727	0.1	800.7
7644	20.209	5.4545	0.1	800.28
7645	20.209	5.6364	0.1	800.26
7646	20.209	5.8182	0.1	802.68
7647	20.393	0.18182	0.1	760.59
7648	20.393	0.36364	0.1	758.39
7649	20.393	0.54545	0.1	758.62
7650	20.393	0.72727	0.1	759.27
7651	20.393	0.90909	0.1	760.12
7652	20.393	1.0909	0.1	761.08
7653	20.393	1.2727	0.1	762.07
7654	20.393	1.4545	0.1	763.04
7655	20.393	1.6364	0.1	763.93
7656	20.393	1.8182	0.1	764.71
7657	20.393	2.	0.1	765.37
7658	20.393	2.1818	0.1	765.89
7659	20.393	2.3636	0.1	766.28
7660	20.393	2.5455	0.1	766.55
7661	20.393	2.7273	0.1	766.72
7662	20.393	2.9091	0.1	766.8
7663	20.393	3.0909	0.1	766.8
7664	20.393	3.2727	0.1	766.72
7665	20.393	3.4545	0.1	766.55
7666	20.393	3.6364	0.1	766.28
7667	20.393	3.8182	0.1	765.89
7668	20.393	4.	0.1	765.37
7669	20.393	4.1818	0.1	764.71
7670	20.393	4.3636	0.1	763.93
7671	20.393	4.5455	0.1	763.04
7672	20.393	4.7273	0.1	762.07
7673	20.393	4.9091	0.1	761.08
7674	20.393	5.0909	0.1	760.12
7675	20.393	5.2727	0.1	759.27
7676	20.393	5.4545	0.1	758.62
7677	20.393	5.6364	0.1	758.39
7678	20.393	5.8182	0.1	760.59
7679	20.577	0.18182	0.1	718.47
7680	20.577	0.36364	0.1	716.53
7681	20.577	0.54545	0.1	717.
7682	20.577	0.72727	0.1	717.92
7683	20.577	0.90909	0.1	719.03
7684	20.577	1.0909	0.1	720.26
7685	20.577	1.2727	0.1	721.5
7686	20.577	1.4545	0.1	722.69
7687	20.577	1.6364	0.1	723.77
7688	20.577	1.8182	0.1	724.69
7689	20.577	2.	0.1	725.45
7690	20.577	2.1818	0.1	726.03
7691	20.577	2.3636	0.1	726.45
7692	20.577	2.5455	0.1	726.74
7693	20.577	2.7273	0.1	726.91
7694	20.577	2.9091	0.1	726.99
7695	20.577	3.0909	0.1	726.99
7696	20.577	3.2727	0.1	726.91
7697	20.577	3.4545	0.1	726.74
7698	20.577	3.6364	0.1	726.45
7699	20.577	3.8182	0.1	726.03
7700	20.577	4.	0.1	725.45
7701	20.577	4.1818	0.1	724.69
7702	20.577	4.3636	0.1	723.77
7703	20.577	4.5455	0.1	722.69
7704	20.577	4.7273	0.1	721.5
7705	20.577	4.9091	0.1	720.26
7706	20.577	5.0909	0.1	719.03
7707	20.577	5.2727	0.1	717.92
7708	20.577	5.4545	0.1	717.
7709	20.577	5.6364	0.1	716.53
7710	20.577	5.8182	0.1	718.47
7711	20.76	0.18182	0.1	676.26
7712	20.76	0.36364	0.1	674.63
7713	20.76	0.54545	0.1	675.39
7714	20.76	0.72727	0.1	676.61
7715	20.76	0.90909	0.1	678.05
7716	20.76	1.0909	0.1	679.59
7717	20.76	1.2727	0.1	681.13
7718	20.76	1.4545	0.1	682.57
7719	20.76	1.6364	0.1	683.86
7720	20.76	1.8182	0.1	684.94
7721	20.76	2.	0.1	685.8
7722	20.76	2.1818	0.1	686.44
7723	20.76	2.3636	0.1	686.89
7724	20.76	2.5455	0.1	687.17
7725	20.76	2.7273	0.1	687.34
7726	20.76	2.9091	0.1	687.41
7727	20.76	3.0909	0.1	687.41
7728	20.76	3.2727	0.1	687.34
7729	20.76	3.4545	0.1	687.17
7730	20.76	3.6364	0.1	686.89
7731	20.76	3.8182	0.1	686.44
7732	20.76	4.	0.1	685.8
7733	20.76	4.1818	0.1	684.94
7734	20.76	4.3636	0.1	683.86
7735	20.76	4.5455	0.1	682.58
7736	20.76	4.7273	0.1	681.13
7737	20.76	4.9091	0.1	679.59
7738	20.76	5.0909	0.1	678.05
7739	20.76	5.2727	0.1	676.61
7740	20.76	5.4545	0.1	675.39
7741	20.76	5.6364	0.1	674.63
7742	20.76	5.8182	0.1	676.26
7743	20.944	0.18182	0.1	633.94
7744	20.944	0.36364	0.1	632.66
7745	20.944	0.54545	0.1	633.75
7746	20.944	0.72727	0.1	635.34
7747	20.944	0.90909	0.1	637.15
7748	20.944	1.0909	0.1	639.07
7749	20.944	1.2727	0.1	640.95
7750	20.944	1.4545	0.1	642.7
7751	20.944	1.6364	0.1	644.23
7752	20.944	1.8182	0.1	645.48
7753	20.944	2.	0.1	646.45
7754	20.944	2.1818	0.1	647.14
7755	20.944	2.3636	0.1	647.59
7756	20.944	2.5455	0.1	647.86
7757	20.944	2.7273	0.1	648.
7758	20.944	2.9091	0.1	648.05
7759	20.944	3.0909	0.1	648.05
7760	20.944	3.2727	0.1	648.
7761	20.944	3.4545	0.1	647.86
7762	20.944	3.6364	0.1	647.59
7763	20.944	3.8182	0.1	647.14
7764	20.944	4.	0.1	646.45
7765	20.944	4.1818	0.1	645.48
7766	20.944	4.3636	0.1	644.23
7767	20.944	4.5455	0.1	642.7
7768	20.944	4.7273	0.1	640.95
7769	20.944	4.9091	0.1	639.07
7770	20.944	5.0909	0.1	637.15
7771	20.944	5.2727	0.1	635.34
7772	20.944	5.4545	0.1	633.75
7773	20.944	5.6364	0.1	632.66
7774	20.944	5.8182	0.1	633.94
7775	21.128	0.18182	0.1	591.44
7776	21.128	0.36364	0.1	590.57
7777	21.128	0.54545	0.1	592.05
7778	21.128	0.72727	0.1	594.06
7779	21.128	0.90909	0.1	596.32
7780	21.128	1.0909	0.1	598.67
7781	21.128	1.2727	0.1	600.97
7782	21.128	1.4545	0.1	603.08
7783	21.128	1.6364	0.1	604.89
7784	21.128	1.8182	0.1	606.35
7785	21.128	2.	0.1	607.43
7786	21.128	2.1818	0.1	608.15
7787	21.128	2.3636	0.1	608.59
7788	21.128	2.5455	0.1	608.8
7789	21.128	2.7273	0.1	608.89
7790	21.128	2.9091	0.1	608.92
7791	21.128	3.0909	0.1	608.92
7792	21.128	3.2727	0.1	608.89
7793	21.128	3.4545	0.1	608.8
7794	21.128	3.6364	0.1	608.59
7795	21.128	3.8182	0.1	608.15
7796	21.128	4.	0.1	607.43
7797	21.128	4.1818	0.1	606.35
7798	21.128	4.3636	0.1	604.89
7799	21.128	4.5455	0.1	603.08
7800	21.128	4.7273	0.1	600.97
7801	21.128	4.9091	0.1	598.67
7802	21.128	5.0909	0.1	596.32
7803	21.128	5.2727	0.1	594.06
7804	21.128	5.4545	0.1	592.05
7805	21.128	5.6364	0.1	590.57
7806	21.128	5.8182	0.1	591.44
7807	21.312	0.18182	0.1	548.7
7808	21.312	0.36364	0.1	548.31
7809	21.312	0.54545	0.1	550.23
7810	21.312	0.72727	0.1	552.73
7811	21.312	0.90909	0.1	555.52
7812	21.312	1.0909	0.1	558.4
7813	21.312	1.2727	0.1	561.2
7814	21.312	1.4545	0.1	563.74
7815	21.312	1.6364	0.1	565.89
7816	21.312	1.8182	0.1	567.58
7817	21.312	2.	0.1	568.77
7818	21.312	2.1818	0.1	569.52
7819	21.312	2.3636	0.1	569.89
7820	21.312	2.5455	0.1	570.02
7821	21.312	2.7273	0.1	570.02
7822	21.312	2.9091	0.1	569.99
7823	21.312	3.0909	0.1	569.99
7824	21.312	3.2727	0.1	570.02
7825	21.312	3.4545	0.1	570.02
7826	21.312	3.6364	0.1	569.89
7827	21.312	3.8182	0.1	569.52
7828	21.312	4.	0.1	568.77
7829	21.312	4.1818	0.1	567.58
7830	21.312	4.3636	0.1	565.89
7831	21.312	4.5455	0.1	563.74
7832	21.312	4.7273	0.1	561.2
7833	21.312	4.9091	0.1	558.4
7834	21.312	5.0909	0.1	555.52
7835	21.312	5.2727	0.1	552.73
7836	21.312	5.4545	0.1	550.23
7837	21.312	5.6364	0.1	548.31
7838	21.312	5.8182	0.1	548.7
7839	21.495	0.18182	0.1	505.66
7840	21.495	0.36364	0.1	505.81
7841	21.495	0.54545	0.1	508.24
7842	21.495	0.72727	0.1	511.32
7843	21.495	0.90909	0.1	514.72
7844	21.495	1.0909	0.1	518.24
7845	21.495	1.2727	0.1	521.64
7846	21.495	1.4545	0.1	524.71
7847	21.495	1.6364	0.1	527.28
7848	21.495	1.8182	0.1	529.23
7849	21.495	2.	0.1	530.55
7850	21.495	2.1818	0.1	531.27
7851	21.495	2.3636	0.1	531.54
7852	21.495	2.5455	0.1	531.52
7853	21.495	2.7273	0.1	531.38
7854	21.495	2.9091	0.1	531.27
7855	21.495	3.0909	0.1	531.27
7856	21.495	3.2727	0.1	531.38
7857	21.495	3.4545	0.1	531.52
7858	21.495	3.6364	0.1	531.54
7859	21.495	3.8182	0.1	531.27
7860	21.495	4.	0.1	530.55
7861	21.495	4.1818	0.1	529.23
7862	21.495	4.3636	0.1	527.28
7863	21.495	4.5455	0.1	524.71
7864	21.495	4.7273	0.1	521.64
7865	21.495	4.9091	0.1	518.24
7866	21.495	5.0909	0.1	514.72
7867	21.495	5.2727	0.1	511.32
7868	21.495	5.4545	0.1	508.24
7869	21.495	5.6364	0.1	505.81
7870	21.495	5.8182	0.1	505.66
7871	21.679	0.18182	0.1	462.26
7872	21.679	0.36364	0.1	463.02
7873	21.679	0.54545	0.1	466.02
7874	21.679	0.72727	0.1	469.75
7875	21.679	0.90909	0.1	473.89
7876	21.679	1.0909	0.1	478.16
7877	21.679	1.2727	0.1	482.3
7878	21.679	1.4545	0.1	486.02
7879	21.679	1.6364	0.1	489.1
7880	21.679	1.8182	0.1	491.38
7881	21.679	2.	0.1	492.82
7882	21.679	2.1818	0.1	493.49
7883	21.679	2.3636	0.1	493.58
7884	21.679	2.5455	0.1	493.32
7885	21.679	2.7273	0.1	492.97
7886	21.679	2.9091	0.1	492.74
7887	21.679	3.0909	0.1	492.74
7888	21.679	3.2727	0.1	492.97
7889	21.679	3.4545	0.1	493.32
7890	21.679	3.6364	0.1	493.58
7891	21.679	3.8182	0.1	493.49
7892	21.679	4.	0.1	492.82
7893	21.679	4.1818	0.1	491.38
7894	21.679	4.3636	0.1	489.1
7895	21.679	4.5455	0.1	486.02
7896	21.679	4.7273	0.1	482.3
7897	21.679	4.9091	0.1	478.16
7898	21.679	5.0909	0.1	473.89
7899	21.679	5.2727	0.1	469.75
7900	21.679	5.4545	0.1	466.02
7901	21.679	5.6364	0.1	463.02
7902	21.679	5.8182	0.1	462.26
7903	21.863	0.18182	0.1	418.44
7904	21.863	0.36364	0.1	419.88
7905	21.863	0.54545	0.1	423.5
7906	21.863	0.72727	0.1	427.98
7907	21.863	0.90909	0.1	432.96
7908	21.863	1.0909	0.1	438.14
7909	21.863	1.2727	0.1	443.18
7910	21.863	1.4545	0.1	447.72
7911	21.863	1.6364	0.1	451.44
7912	21.863	1.8182	0.1	454.13
7913	21.863	2.	0.1	455.71
7914	21.863	2.1818	0.1	456.26
7915	21.863	2.3636	0.1	456.06
7916	21.863	2.5455	0.1	455.45
7917	21.863	2.7273	0.1	454.79
7918	21.863	2.9091	0.1	454.38
7919	21.863	3.0909	0.1	454.38
7920	21.863	3.2727	0.1	454.79
7921	21.863	3.4545	0.1	455.45
7922	21.863	3.6364	0.1	456.06
7923	21.863	3.8182	0.1	456.26
7924	21.863	4.	0.1	455.71
7925	21.863	4.1818	0.1	454.13
7926	21.863	4.3636	0.1	451.44
7927	21.863	4.5455	0.1	447.72
7928	21.863	4.7273	0.1	443.18
7929	21.863	4.9091	0.1	438.14
7930	21.863	5.0909	0.1	432.96
7931	21.863	5.2727	0.1	427.98
7932	21.863	5.4545	0.1	423.5
7933	21.863	5.6364	0.1	419.88
7934	21.863	5.8182	0.1	418.44
7935	22.047	0.18182	0.1	374.18
7936	22.047	0.36364	0.1	376.33
7937	22.047	0.54545	0.1	380.64
7938	22.047	0.72727	0.1	385.93
7939	22.047	0.90909	0.1	391.87
7940	22.047	1.0909	0.1	398.12
7941	22.047	1.2727	0.1	404.26
7942	22.047	1.4545	0.1	409.84
7943	22.047	1.6364	0.1	414.4
7944	22.047	1.8182	0.1	417.62
7945	22.047	2.	0.1	419.35
7946	22.047	2.1818	0.1	419.72
7947	22.047	2.3636	0.1	419.08
7948	22.047	2.5455	0.1	417.95
7949	22.047	2.7273	0.1	416.85
7950	22.047	2.9091	0.1	416.19
7951	22.047	3.0909	0.1	416.19
7952	22.047	3.2727	0.1	416.85
7953	22.047	3.4545	0.1	417.95
7954	22.047	3.6364	0.1	419.08
7955	22.047	3.8182	0.1	419.72
7956	22.047	4.	0.1	419.35
7957	22.047	4.1818	0.1	417.62
7958	22.047	4.3636	0.1	414.4
7959	22.047	4.5455	0.1	409.84
7960	22.047	4.7273	0.1	404.26
7961	22.047	4.9091	0.1	398.12
7962	22.047	5.0909	0.1	391.87
7963	22.047	5.2727	0.1	385.93
7964	22.047	5.4545	0.1	380.64
7965	22.047	5.6364	0.1	376.34
7966	22.047	5.8182	0.1	374.18
7967	22.23	0.18182	0.1	329.49
7968	22.23	0.36364	0.1	332.39
7969	22.23	0.54545	0.1	337.38
7970	22.23	0.72727	0.1	343.55
7971	22.23	0.90909	0.1	350.56
7972	22.23	1.0909	0.1	358.05
7973	22.23	1.2727	0.1	365.53
7974	22.23	1.4545	0.1	372.42
7975	22.23	1.6364	0.1	378.09
7976	22.23	1.8182	0.1	382.02
7977	22.23	2.	0.1	383.95
7978	22.23	2.1818	0.1	384.03
7979	22.23	2.3636	0.1	382.76
7980	22.23	2.5455	0.1	380.89
7981	22.23	2.7273	0.1	379.16
7982	22.23	2.9091	0.1	378.16
7983	22.23	3.0909	0.1	378.16
7984	22.23	3.2727	0.1	379.16
7985	22.23	3.4545	0.1	380.89
7986	22.23	3.6364	0.1	382.76
7987	22.23	3.8182	0.1	384.03
7988	22.23	4.	0.1	383.95
7989	22.23	4.1818	0.1	382.02
7990	22.23	4.3636	0.1	378.09
7991	22.23	4.5455	0.1	372.42
7992	22.23	4.7273	0.1	365.53
7993	22.23	4.9091	0.1	358.05
7994	22.23	5.0909	0.1	350.56
7995	22.23	5.2727	0.1	343.55
7996	22.23	5.4545	0.1	337.38
7997	22.23	5.6364	0.1	332.39
7998	22.23	5.8182	0.1	329.49
7999	22.414	0.18182	0.1	284.46
8000	22.414	0.36364	0.1	288.09
8001	22.414	0.54545	0.1	293.76
8002	22.414	0.72727	0.1	300.82
8003	22.414	0.90909	0.1	308.96
8004	22.414	1.0909	0.1	317.84
8005	22.414	1.2727	0.1	326.92
8006	22.414	1.4545	0.1	335.48
8007	22.414	1.6364	0.1	342.64
8008	22.414	1.8182	0.1	347.58
8009	22.414	2.	0.1	349.82
8010	22.414	2.1818	0.1	349.48
8011	22.414	2.3636	0.1	347.28
8012	22.414	2.5455	0.1	344.36
8013	22.414	2.7273	0.1	341.79
8014	22.414	2.9091	0.1	340.32
8015	22.414	3.0909	0.1	340.32
8016	22.414	3.2727	0.1	341.79
8017	22.414	3.4545	0.1	344.36
8018	22.414	3.6364	0.1	347.28
8019	22.414	3.8182	0.1	349.48
8020	22.414	4.	0.1	349.82
8021	22.414	4.1818	0.1	347.58
8022	22.414	4.3636	0.1	342.64
8023	22.414	4.5455	0.1	335.48
8024	22.414	4.7273	0.1	326.92
8025	22.414	4.9091	0.1	317.84
8026	22.414	5.0909	0.1	308.96
8027	22.414	5.2727	0.1	300.82
8028	22.414	5.4545	0.1	293.76
8029	22.414	5.6364	0.1	288.09
8030	22.414	5.8182	0.1	284.46
8031	22.598	0.18182	0.1	239.3
8032	22.598	0.36364	0.1	243.6
8033	22.598	0.54545	0.1	249.9
8034	22.598	0.72727	0.1	257.79
8035	22.598	0.90909	0.1	267.06
8036	22.598	1.0909	0.1	277.41
8037	22.598	1.2727	0.1	288.32
8038	22.598	1.4545	0.1	298.96
8039	22.598	1.6364	0.1	308.19
8040	22.598	1.8182	0.1	314.66
8041	22.598	2.	0.1	317.43
8042	22.598	2.1818	0.1	316.49
8043	22.598	2.3636	0.1	312.94
8044	22.598	2.5455	0.1	308.53
8045	22.598	2.7273	0.1	304.84
8046	22.598	2.9091	0.1	302.81
8047	22.598	3.0909	0.1	302.81
8048	22.598	3.2727	0.1	304.84
8049	22.598	3.4545	0.1	308.53
8050	22.598	3.6364	0.1	312.94
8051	22.598	3.8182	0.1	316.49
8052	22.598	4.	0.1	317.43
8053	22.598	4.1818	0.1	314.66
8054	22.598	4.3636	0.1	308.19
8055	22.598	4.5455	0.1	298.96
8056	22.598	4.7273	0.1	288.32
8057	22.598	4.9091	0.1	277.41
8058	22.598	5.0909	0.1	267.06
8059	22.598	5.2727	0.1	257.79
8060	22.598	5.4545	0.1	249.9
8061	22.598	5.6364	0.1	243.6
8062	22.598	5.8182	0.1	239.3
8063	22.781	0.18182	0.1	194.38
8064	22.781	0.36364	0.1	199.27
8065	22.781	0.54545	0.1	206.1
8066	22.781	0.72727	0.1	214.72
8067	22.781	0.90909	0.1	224.98
8068	22.781	1.0909	0.1	236.7
8069	22.781	1.2727	0.1	249.53
8070	22.781	1.4545	0.1	262.72
8071	22.781	1.6364	0.1	274.82
8072	22.781	1.8182	0.1	283.74
8073	22.781	2.	0.1	287.54
8074	22.781	2.1818	0.1	285.81
8075	22.781	2.3636	0.1	280.23
8076	22.781	2.5455	0.1	273.69
8077	22.781	2.7273	0.1	268.56
8078	22.781	2.9091	0.1	265.91
8079	22.781	3.0909	0.1	265.91
8080	22.781	3.2727	0.1	268.56
8081	22.781	3.4545	0.1	273.69
8082	22.781	3.6364	0.1	280.23
8083	22.781	3.8182	0.1	285.81
8084	22.781	4.	0.1	287.54
8085	22.781	4.1818	0.1	283.74
8086	22.781	4.3636	0.1	274.82
8087	22.781	4.5455	0.1	262.72
8088	22.781	4.7273	0.1	249.53
8089	22.781	4.9091	0.1	236.7
8090	22.781	5.0909	0.1	224.98
8091	22.781	5.2727	0.1	214.72
8092	22.781	5.4545	0.1	206.1
8093	22.781	5.6364	0.1	199.27
8094	22.781	5.8182	0.1	194.38
8095	22.965	0.18182	0.1	150.28
8096	22.965	0.36364	0.1	155.68
8097	22.965	0.54545	0.1	162.98
8098	22.965	0.72727	0.1	172.17
8099	22.965	0.90909	0.1	183.13
8100	22.965	1.0909	0.1	195.84
8101	22.965	1.2727	0.1	210.32
8102	22.965	1.4545	0.1	226.26
8103	22.965	1.6364	0.1	242.44
8104	22.965	1.8182	0.1	255.57
8105	22.965	2.	0.1	261.69
8106	22.965	2.1818	0.1	258.96
8107	22.965	2.3636	0.1	250.07
8108	22.965	2.5455	0.1	240.31
8109	22.965	2.7273	0.1	233.41
8110	22.965	2.9091	0.1	230.13
8111	22.965	3.0909	0.1	230.13
8112	22.965	3.2727	0.1	233.41
8113	22.965	3.4545	0.1	240.31
8114	22.965	3.6364	0.1	250.07
8115	22.965	3.8182	0.1	258.96
8116	22.965	4.	0.1	261.69
8117	22.965	4.1818	0.1	255.57
8118	22.965	4.3636	0.1	242.44
8119	22.965	4.5455	0.1	226.26
8120	22.965	4.7273	0.1	210.32
8121	22.965	4.9091	0.1	195.84
8122	22.965	5.0909	0.1	183.13
8123	22.965	5.2727	0.1	172.17
8124	22.965	5.4545	0.1	162.98
8125	22.965	5.6364	0.1	155.68
8126	22.965	5.8182	0.1	150.28
8127	23.149	0.18182	0.1	107.85
8128	23.149	0.36364	0.1	113.78
8129	23.149	0.54545	0.1	121.64
8130	23.149	0.72727	0.1	131.28
8131	23.149	0.90909	0.1	142.49
8132	23.149	1.0909	0.1	155.41
8133	23.149	1.2727	0.1	170.54
8134	23.149	1.4545	0.1	188.78
8135	23.149	1.6364	0.1	209.93
8136	23.149	1.8182	0.1	230.96
8137	23.149	2.	0.1	242.84
8138	23.149	2.1818	0.1	239.12
8139	23.149	2.3636	0.1	224.52
8140	23.149	2.5455	0.1	209.47
8141	23.149	2.7273	0.1	200.07
8142	23.149	2.9091	0.1	196.18
8143	23.149	3.0909	0.1	196.18
8144	23.149	3.2727	0.1	200.07
8145	23.149	3.4545	0.1	209.47
8146	23.149	3.6364	0.1	224.52
8147	23.149	3.8182	0.1	239.12
8148	23.149	4.	0.1	242.84
8149	23.149	4.1818	0.1	230.96
8150	23.149	4.3636	0.1	209.93
8151	23.149	4.5455	0.1	188.78
8152	23.149	4.7273	0.1	170.54
8153	23.149	4.9091	0.1	155.41
8154	23.149	5.0909	0.1	142.49
8155	23.149	5.2727	0.1	131.28
8156	23.149	5.4545	0.1	121.64
8157	23.149	5.6364	0.1	113.78
8158	23.149	5.8182	0.1	107.85
8159	23.333	0.18182	0.1	68.207
8160	23.333	0.36364	0.1	75.09
8161	23.333	0.54545	0.1	83.928
8162	23.333	0.72727	0.1	93.996
8163	23.333	0.90909	0.1	104.95
8164	23.333	1.0909	0.1	116.96
8165	23.333	1.2727	0.1	130.93
8166	23.333	1.4545	0.1	148.32
8167	23.333	1.6364	0.1	175.56
8168	23.333	1.8182	0.1	208.35
8169	23.333	2.	0.1	239.71
8170	23.333	2.1818	0.1	237.86
8171	23.333	2.3636	0.1	209.76
8172	23.333	2.5455	0.1	182.78
8173	23.333	2.7273	0.1	169.36
8174	23.333	2.9091	0.1	164.25
8175	23.333	3.0909	0.1	164.25
8176	23.333	3.2727	0.1	169.36
8177	23.333	3.4545	0.1	182.78
8178	23.333	3.6364	0.1	209.76
8179	23.333	3.8182	0.1	237.86
8180	23.333	4.	0.1	239.71
8181	23.333	4.1818	0.1	208.35
8182	23.333	4.3636	0.1	175.56
8183	23.333	4.5455	0.1	148.32
8184	23.333	4.7273	0.1	130.93
8185	23.333	4.9091	0.1	116.96
8186	23.333	5.0909	0.1	104.95
8187	23.333	5.2727	0.1	93.997
8188	23.333	5.4545	0.1	83.928
8189	23.333	5.6364	0.1	75.09
8190	23.333	5.8182	0.1	68.207
8191	23.516	0.18182	0.1	33.977
8192	23.516	0.36364	0.1	43.982
8193	23.516	0.54545	0.1	54.915
8194	23.516	0.72727	0.1	65.865
8195	23.516	0.90909	0.1	76.686
8196	23.516	1.0909	0.1	87.532
8197	23.516	1.2727	0.1	98.678
8198	23.516	1.4545	0.1	112.12
8199	23.516	1.6364	0.1	129.52
8200	23.516	1.8182	0.1	181.55
8201	23.516	2.	0.1	288.42
8202	23.516	2.1818	0.1	291.64
8203	23.516	2.3636	0.1	214.76
8204	23.516	2.5455	0.1	164.49
8205	23.516	2.7273	0.1	140.71
8206	23.516	2.9091	0.1	132.32
8207	23.516	3.0909	0.1	132.32
8208	23.516	3.2727	0.1	140.71
8209	23.516	3.4545	0.1	164.49
8210	23.516	3.6364	0.1	214.76
8211	23.516	3.8182	0.1	291.64
8212	23.516	4.	0.1	288.42
8213	23.516	4.1818	0.1	181.55
8214	23.516	4.3636	0.1	129.52
8215	23.516	4.5455	0.1	112.12
8216	23.516	4.7273	0.1	98.678
8217	23.516	4.9091	0.1	87.533
8218	23.516	5.0909	0.1	76.686
8219	23.516	5.2727	0.1	65.865
8220	23.516	5.4545	0.1	54.915
8221	23.516	5.6364	0.1	43.982
8222	23.516	5.8182	0.1	33.977
8223	23.7	3.8182	0.1	585.8
8224	23.7	3.6364	0.1	270.07
8225	23.7	3.4545	0.1	153.6
8226	23.7	3.2727	0.1	109.07
8227	23.7	3.0909	0.1	94.521
8228	23.7	2.9091	0.1	94.521
8229	23.7	2.7273	0.1	109.07
8230	23.7	2.5455	0.1	153.6
8231	23.7	2.3636	0.1	270.07
8232	23.7	2.1818	0.1	585.8
8233	23.867	5.8182	0.1	27.782
8234	23.867	5.6364	0.1	102.4
8235	23.867	5.4545	0.1	226.88
8236	23.867	5.2727	0.1	401.11
8237	23.867	5.0909	0.1	625.13
8238	23.867	4.9091	0.1	898.89
8239	23.867	4.7273	0.1	1222.5
8240	23.867	4.5455	0.1	1595.9
8241	23.867	4.3636	0.1	2018.5
8242	23.867	4.1818	0.1	2451.
8243	23.867	4.	0.1	2922.9
8244	23.7	4.	0.1	660.35
8245	23.7	4.1818	0.1	78.585
8246	23.7	4.3636	0.1	54.17
8247	23.7	4.5455	0.1	49.755
8248	23.7	4.7273	0.1	44.127
8249	23.7	4.9091	0.1	39.771
8250	23.7	5.0909	0.1	35.
8251	23.7	5.2727	0.1	30.015
8252	23.7	5.4545	0.1	24.646
8253	23.7	5.6364	0.1	18.787
8254	23.7	5.8182	0.1	11.805
8255	23.867	0.18182	0.1	27.782
8256	23.867	0.36364	0.1	102.4
8257	23.867	0.54545	0.1	226.87
8258	23.867	0.72727	0.1	401.11
8259	23.867	0.90909	0.1	625.13
8260	23.867	1.0909	0.1	898.89
8261	23.867	1.2727	0.1	1222.5
8262	23.867	1.4545	0.1	1595.9
8263	23.867	1.6364	0.1	2018.5
8264	23.867	1.8182	0.1	2451.
8265	23.867	2.	0.1	2922.9
8266	23.7	2.	0.1	660.35
8267	23.7	1.8182	0.1	78.585
8268	23.7	1.6364	0.1	54.169
8269	23.7	1.4545	0.1	49.755
8270	23.7	1.2727	0.1	44.127
8271	23.7	1.0909	0.1	39.771
8272	23.7	0.90909	0.1	35.
8273	23.7	0.72727	0.1	30.015
8274	23.7	0.54545	0.1	24.646
8275	23.7	0.36364	0.1	18.787
8276	23.7	0.18182	0.1	11.805
8277	23.867	6.	0.1	2.7268
8278	24.	6.	0.1	4.3471
8279	24.	5.8182	0.1	31.553
8280	24.	5.6364	0.1	107.09
8281	24.	5.4545	0.1	231.76
8282	24.	5.2727	0.1	406.08
8283	24.	5.0909	0.1	630.14
8284	24.	4.9091	0.1	903.92
8285	24.	4.7273	0.1	1227.6
8286	24.	4.5455	0.1	1601.
8287	24.	4.3636	0.1	2022.1
8288	24.	4.1818	0.1	2585.7
8289	24.	4.	0.1	2315.4
8290	24.	3.8182	0.1	906.1
8291	24.	3.6364	0.1	265.58
8292	24.	3.4545	0.1	85.27
8293	24.	3.2727	0.1	17.82
8294	24.	3.0909	0.1	6.7228
8295	24.	2.9091	0.1	6.7229
8296	24.	2.7273	0.1	17.82
8297	24.	2.5455	0.1	85.27
8298	24.	2.3636	0.1	265.58
8299	24.	2.1818	0.1	906.1
8300	24.	2.	0.1	2315.4
8301	24.	1.8182	0.1	2585.7
8302	24.	1.6364	0.1	2022.1
8303	24.	1.4545	0.1	1601.
8304	24.	1.2727	0.1	1227.6
8305	24.	1.0909	0.1	903.92
8306	24.	0.90909	0.1	630.14
8307	24.	0.72727	0.1	406.08
8308	24.	0.54545	0.1	231.76
8309	24.	0.36364	0.1	107.09
8310	24.	0.18182	0.1	31.553
8311	1.5894e-015	0.18182	0.1	2496.7
8312	3.1789e-015	0.36364	0.1	4634.5
8313	4.7683e-015	0.54545	0.1	5683.4
8314	6.3578e-015	0.72727	0.1	6328.3
8315	7.9472e-015	0.90909	0.1	6758.6
8316	9.5366e-015	1.0909	0.1	7065.8
8317	1.1126e-014	1.2727	0.1	7293.2
8318	1.2716e-014	1.4545	0.1	7465.7
8319	1.4305e-014	1.6364	0.1	7598.6
8320	1.5894e-014	1.8182	0.1	7701.6
8321	1.7484e-014	2.	0.1	7781.4
8322	1.9073e-014	2.1818	0.1	7842.6
8323	2.0663e-014	2.3636	0.1	7888.4
8324	2.2252e-014	2.5455	0.1	7921.1
8325	2.3842e-014	2.7273	0.1	7942.1
8326	2.5431e-014	2.9091	0.1	7952.4
8327	2.702e-014	3.0909	0.1	7952.4
8328	2.861e-014	3.2727	0.1	7942.1
8329	3.0199e-014	3.4545	0.1	7921.1
8330	3.1789e-014	3.6364	0.1	7888.4
8331	3.3378e-014	3.8182	0.1	7842.6
8332	3.4968e-014	4.	0.1	7781.4
8333	3.6557e-014	4.1818	0.1	7701.6
8334	3.8147e-014	4.3636	0.1	7598.6
8335	3.9736e-014	4.5455	0.1	7465.7
8336	4.1325e-014	4.7273	0.1	7293.2
8337	4.2915e-014	4.9091	0.1	7065.8
8338	4.4504e-014	5.0909	0.1	6758.6
8339	4.6094e-014	5.2727	0.1	6328.3
8340	4.7683e-014	5.4545	0.1	5683.4
8341	4.9273e-014	5.6364	0.1	4634.5
8342	5.0862e-014	5.8182	0.1	2496.7
8343	24.	0.	0.1	4.3471
8344	23.867	0.	0.1	2.7269
8345	23.7	0.	0.1	2.1498
8346	23.516	7.2227e-030	0.1	28.454
8347	23.333	7.1663e-030	0.1	65.168
8348	23.149	7.1098e-030	0.1	104.97
8349	22.965	7.0534e-030	0.1	146.95
8350	22.781	6.997e-030	0.1	190.31
8351	22.598	6.9405e-030	0.1	234.37
8352	22.414	6.8841e-030	0.1	278.65
8353	22.23	6.8277e-030	0.1	322.83
8354	22.047	6.7713e-030	0.1	366.75
8355	21.863	6.7148e-030	0.1	410.33
8356	21.679	6.6584e-030	0.1	453.55
8357	21.495	6.602e-030	0.1	496.45
8358	21.312	6.5456e-030	0.1	539.07
8359	21.128	6.4891e-030	0.1	581.47
8360	20.944	6.4327e-030	0.1	623.7
8361	20.76	6.3763e-030	0.1	665.81
8362	20.577	6.3198e-030	0.1	707.85
8363	20.393	6.2634e-030	0.1	749.86
8364	20.209	6.207e-030	0.1	791.86
8365	20.026	6.1506e-030	0.1	833.9
8366	19.842	6.0941e-030	0.1	875.99
8367	19.658	6.0377e-030	0.1	918.15
8368	19.474	5.9813e-030	0.1	960.4
8369	19.291	5.9249e-030	0.1	1002.8
8370	19.107	5.8684e-030	0.1	1045.2
8371	18.923	5.812e-030	0.1	1087.8
8372	18.74	5.7556e-030	0.1	1130.5
8373	18.556	5.6991e-030	0.1	1173.4
8374	18.372	5.6427e-030	0.1	1216.4
8375	18.188	5.5863e-030	0.1	1259.6
8376	18.005	5.5299e-030	0.1	1302.9
8377	17.821	5.4734e-030	0.1	1346.4
8378	17.637	5.417e-030	0.1	1390.1
8379	17.453	5.3606e-030	0.1	1433.9
8380	17.27	5.3042e-030	0.1	1477.9
8381	17.086	5.2477e-030	0.1	1522.
8382	16.902	5.1913e-030	0.1	1566.4
8383	16.719	5.1349e-030	0.1	1610.9
8384	16.535	5.0784e-030	0.1	1655.6
8385	16.351	5.022e-030	0.1	1700.5
8386	16.167	4.9656e-030	0.1	1745.6
8387	15.984	4.9092e-030	0.1	1790.9
8388	15.8	4.8527e-030	0.1	1836.3
8389	15.616	4.7963e-030	0.1	1882.
8390	15.433	4.7399e-030	0.1	1927.8
8391	15.249	4.6835e-030	0.1	1973.9
8392	15.065	4.627e-030	0.1	2020.1
8393	14.881	4.5706e-030	0.1	2066.5
8394	14.698	4.5142e-030	0.1	2113.1
8395	14.514	4.4577e-030	0.1	2160.
8396	14.33	4.4013e-030	0.1	2207.
8397	14.147	4.3449e-030	0.1	2254.2
8398	13.963	4.2885e-030	0.1	2301.6
8399	13.779	4.232e-030	0.1	2349.3
8400	13.595	4.1756e-030	0.1	2397.1
8401	13.412	4.1192e-030	0.1	2445.1
8402	13.228	4.0628e-030	0.1	2493.4
8403	13.044	4.0063e-030	0.1	2541.8
8404	12.86	3.9499e-030	0.1	2590.5
8405	12.677	3.8935e-030	0.1	2639.4
8406	12.493	3.837e-030	0.1	2688.5
8407	12.309	3.7806e-030	0.1	2737.8
8408	12.126	3.7242e-030	0.1	2787.3
8409	11.942	3.6678e-030	0.1	2837.1
8410	11.758	3.6113e-030	0.1	2887.1
8411	11.574	3.5549e-030	0.1	2937.3
8412	11.391	3.4985e-030	0.1	2987.7
8413	11.207	3.4421e-030	0.1	3038.3
8414	11.023	3.3856e-030	0.1	3089.2
8415	10.84	3.3292e-030	0.1	3140.3
8416	10.656	3.2728e-030	0.1	3191.7
8417	10.472	3.2163e-030	0.1	3243.3
8418	10.288	3.1599e-030	0.1	3295.2
8419	10.105	3.1035e-030	0.1	3347.3
8420	9.9209	3.0471e-030	0.1	3399.6
8421	9.7372	2.9906e-030	0.1	3452.2
8422	9.5535	2.9342e-030	0.1	3505.1
8423	9.3698	2.8778e-030	0.1	3558.3
8424	9.186	2.8214e-030	0.1	3611.7
8425	9.0023	2.7649e-030	0.1	3665.4
8426	8.8186	2.7085e-030	0.1	3719.4
8427	8.6349	2.6521e-030	0.1	3773.7
8428	8.4512	2.5956e-030	0.1	3828.4
8429	8.2674	2.5392e-030	0.1	3883.3
8430	8.0837	2.4828e-030	0.1	3938.6
8431	7.9	2.4264e-030	0.1	3994.2
8432	7.7163	2.3699e-030	0.1	4050.1
8433	7.5326	2.3135e-030	0.1	4106.5
8434	7.3488	2.2571e-030	0.1	4163.2
8435	7.1651	2.2007e-030	0.1	4220.3
8436	6.9814	2.1442e-030	0.1	4277.8
8437	6.7977	2.0878e-030	0.1	4335.7
8438	6.614	2.0314e-030	0.1	4394.1
8439	6.4302	1.975e-030	0.1	4453.
8440	6.2465	1.9185e-030	0.1	4512.3
8441	6.0628	1.8621e-030	0.1	4572.1
8442	5.8791	1.8057e-030	0.1	4632.5
8443	5.6953	1.7492e-030	0.1	4693.3
8444	5.5116	1.6928e-030	0.1	4754.8
8445	5.3279	1.6364e-030	0.1	4816.8
8446	5.1442	1.58e-030	0.1	4879.3
8447	4.9605	1.5235e-030	0.1	4942.5
8448	4.7767	1.4671e-030	0.1	5006.3
8449	4.593	1.4107e-030	0.1	5070.6
8450	4.4093	1.3543e-030	0.1	5135.5
8451	4.2256	1.2978e-030	0.1	5200.9
8452	4.0419	1.2414e-030	0.1	5266.8
8453	3.8581	1.185e-030	0.1	5333.1
8454	3.6744	1.1285e-030	0.1	5399.6
8455	3.4907	1.0721e-030	0.1	5466.2
8456	3.307	1.0157e-030	0.1	5532.7
8457	3.1233	9.5926e-031	0.1	5598.8
8458	2.9395	9.0283e-031	0.1	5663.9
8459	2.7558	8.4641e-031	0.1	5727.7
8460	2.5721	7.8998e-031	0.1	5789.3
8461	2.3884	7.3355e-031	0.1	5847.7
8462	2.2047	6.7713e-031	0.1	5901.7
8463	2.0209	6.207e-031	0.1	5949.4
8464	1.8372	5.6427e-031	0.1	5988.4
8465	1.6535	5.0784e-031	0.1	6015.3
8466	1.4698	4.5142e-031	0.1	6025.3
8467	1.286	3.9499e-031	0.1	6011.4
8468	1.1023	3.3856e-031	0.1	5962.7
8469	0.9186	2.8214e-031	0.1	5861.7
8470	0.73488	2.2571e-031	0.1	5679.5
8471	0.55116	1.6928e-031	0.1	5354.7
8472	0.36744	1.1285e-031	0.1	4778.6
8473	0.18372	5.6427e-032	0.1	3566.
8474	0.	0.	0.1	760.82
8475	3.937e-014	6.	0.1	760.82
8476	0.18372	6.	0.1	3566.
8477	0.36744	6.	0.1	4778.6
8478	0.55116	6.	0.1	5354.7
8479	0.73488	6.	0.1	5679.5
8480	0.9186	6.	0.1	5861.7
8481	1.1023	6.	0.1	5962.7
8482	1.286	6.	0.1	6011.4
8483	1.4698	6.	0.1	6025.3
8484	1.6535	6.	0.1	6015.3
8485	1.8372	6.	0.1	5988.4
8486	2.0209	6.	0.1	5949.4
8487	2.2047	6.	0.1	5901.7
8488	2.3884	6.	0.1	5847.7
8489	2.5721	6.	0.1	5789.3
8490	2.7558	6.	0.1	5727.7
8491	2.9395	6.	0.1	5663.9
8492	3.1233	6.	0.1	5598.8
8493	3.307	6.	0.1	5532.7
8494	3.4907	6.	0.1	5466.2
8495	3.6744	6.	0.1	5399.6
8496	3.8581	6.	0.1	5333.1
8497	4.0419	6.	0.1	5266.8
8498	4.2256	6.	0.1	5200.9
8499	4.4093	6.	0.1	5135.5
8500	4.593	6.	0.1	5070.6
8501	4.7767	6.	0.1	5006.3
8502	4.9605	6.	0.1	4942.5
8503	5.1442	6.	0.1	4879.3
8504	5.3279	6.	0.1	4816.8
8505	5.5116	6.	0.1	4754.8
8506	5.6953	6.	0.1	4693.3
8507	5.8791	6.	0.1	4632.5
8508	6.0628	6.	0.1	4572.1
8509	6.2465	6.	0.1	4512.3
8510	6.4302	6.	0.1	4453.
8511	6.614	6.	0.1	4394.1
8512	6.7977	6.	0.1	4335.7
8513	6.9814	6.	0.1	4277.8
8514	7.1651	6.	0.1	4220.3
8515	7.3488	6.	0.1	4163.2
8516	7.5326	6.	0.1	4106.5
8517	7.7163	6.	0.1	4050.1
8518	7.9	6.	0.1	3994.2
8519	8.0837	6.	0.1	3938.6
8520	8.2674	6.	0.1	3883.3
8521	8.4512	6.	0.1	3828.4
8522	8.6349	6.	0.1	3773.7
8523	8.8186	6.	0.1	3719.4
8524	9.0023	6.	0.1	3665.4
8525	9.186	6.	0.1	3611.7
8526	9.3698	6.	0.1	3558.3
8527	9.5535	6.	0.1	3505.1
8528	9.7372	6.	0.1	3452.2
8529	9.9209	6.	0.1	3399.6
8530	10.105	6.	0.1	3347.3
8531	10.288	6.	0.1	3295.2
8532	10.472	6.	0.1	3243.3
8533	10.656	6.	0.1	3191.7
8534	10.84	6.	0.1	3140.3
8535	11.023	6.	0.1	3089.2
8536	11.207	6.	0.1	3038.3
8537	11.391	6.	0.1	2987.7
8538	11.574	6.	0.1	2937.3
8539	11.758	6.	0.1	2887.1
8540	11.942	6.	0.1	2837.1
8541	12.126	6.	0.1	2787.3
8542	12.309	6.	0.1	2737.8
8543	12.493	6.	0.1	2688.5
8544	12.677	6.	0.1	2639.4
8545	12.86	6.	0.1	2590.5
8546	13.044	6.	0.1	2541.8
8547	13.228	6.	0.1	2493.4
8548	13.412	6.	0.1	2445.1
8549	13.595	6.	0.1	2397.1
8550	13.779	6.	0.1	2349.3
8551	13.963	6.	0.1	2301.6
8552	14.147	6.	0.1	2254.2
8553	14.33	6.	0.1	2207.
8554	14.514	6.	0.1	2160.
8555	14.698	6.	0.1	2113.1
8556	14.881	6.	0.1	2066.5
8557	15.065	6.	0.1	2020.1
8558	15.249	6.	0.1	1973.9
8559	15.433	6.	0.1	1927.8
8560	15.616	6.	0.1	1882.
8561	15.8	6.	0.1	1836.3
8562	15.984	6.	0.1	1790.9
8563	16.167	6.	0.1	1745.6
8564	16.351	6.	0.1	1700.5
8565	16.535	6.	0.1	1655.6
8566	16.719	6.	0.1	1610.9
8567	16.902	6.	0.1	1566.4
8568	17.086	6.	0.1	1522.
8569	17.27	6.	0.1	1477.9
8570	17.453	6.	0.1	1433.9
8571	17.637	6.	0.1	1390.1
8572	17.821	6.	0.1	1346.4
8573	18.005	6.	0.1	1302.9
8574	18.188	6.	0.1	1259.6
8575	18.372	6.	0.1	1216.4
8576	18.556	6.	0.1	1173.4
8577	18.74	6.	0.1	1130.5
8578	18.923	6.	0.1	1087.8
8579	19.107	6.	0.1	1045.2
8580	19.291	6.	0.1	1002.8
8581	19.474	6.	0.1	960.4
8582	19.658	6.	0.1	918.15
8583	19.842	6.	0.1	875.99
8584	20.026	6.	0.1	833.9
8585	20.209	6.	0.1	791.86
8586	20.393	6.	0.1	749.86
8587	20.577	6.	0.1	707.85
8588	20.76	6.	0.1	665.81
8589	20.944	6.	0.1	623.7
8590	21.128	6.	0.1	581.47
8591	21.312	6.	0.1	539.07
8592	21.495	6.	0.1	496.45
8593	21.679	6.	0.1	453.55
8594	21.863	6.	0.1	410.33
8595	22.047	6.	0.1	366.75
8596	22.23	6.	0.1	322.83
8597	22.414	6.	0.1	278.65
8598	22.598	6.	0.1	234.37
8599	22.781	6.	0.1	190.31
8600	22.965	6.	0.1	146.95
8601	23.149	6.	0.1	104.97
8602	23.333	6.	0.1	65.168
8603	23.516	6.	0.1	28.454
8604	23.7	6.	0.1	2.1498
8605	23.516	6.	0.	0.60134
8606	23.333	6.	0.	1.4121
8607	23.149	6.	0.	2.3145
8608	22.965	6.	0.	3.3251
8609	22.781	6.	0.	4.3649
8610	22.598	6.	0.	5.3917
8611	22.414	6.	0.	6.3625
8612	22.23	6.	0.	7.2501
8613	22.047	6.	0.	8.0388
8614	21.863	6.	0.	8.7228
8615	21.679	6.	0.	9.3034
8616	21.495	6.	0.	9.7863
8617	21.312	6.	0.	10.18
8618	21.128	6.	0.	10.494
8619	20.944	6.	0.	10.738
8620	20.76	6.	0.	10.921
8621	20.577	6.	0.	11.053
8622	20.393	6.	0.	11.14
8623	20.209	6.	0.	11.19
8624	20.026	6.	0.	11.207
8625	19.842	6.	0.	11.199
8626	19.658	6.	0.	11.168
8627	19.474	6.	0.	11.118
8628	19.291	6.	0.	11.053
8629	19.107	6.	0.	10.975
8630	18.923	6.	0.	10.886
8631	18.74	6.	0.	10.789
8632	18.556	6.	0.	10.685
8633	18.372	6.	0.	10.575
8634	18.188	6.	0.	10.461
8635	18.005	6.	0.	10.343
8636	17.821	6.	0.	10.223
8637	17.637	6.	0.	10.1
8638	17.453	6.	0.	9.9768
8639	17.27	6.	0.	9.8524
8640	17.086	6.	0.	9.7277
8641	16.902	6.	0.	9.6028
8642	16.719	6.	0.	9.4781
8643	16.535	6.	0.	9.3539
8644	16.351	6.	0.	9.2302
8645	16.167	6.	0.	9.1072
8646	15.984	6.	0.	8.9849
8647	15.8	6.	0.	8.8635
8648	15.616	6.	0.	8.743
8649	15.433	6.	0.	8.6232
8650	15.249	6.	0.	8.5043
8651	15.065	6.	0.	8.3861
8652	14.881	6.	0.	8.2686
8653	14.698	6.	0.	8.1517
8654	14.514	6.	0.	8.0353
8655	14.33	6.	0.	7.9191
8656	14.147	6.	0.	7.8033
8657	13.963	6.	0.	7.6874
8658	13.779	6.	0.	7.5714
8659	13.595	6.	0.	7.4551
8660	13.412	6.	0.	7.3383
8661	13.228	6.	0.	7.2208
8662	13.044	6.	0.	7.1024
8663	12.86	6.	0.	6.9827
8664	12.677	6.	0.	6.8616
8665	12.493	6.	0.	6.7389
8666	12.309	6.	0.	6.6141
8667	12.126	6.	0.	6.487
8668	11.942	6.	0.	6.3573
8669	11.758	6.	0.	6.2247
8670	11.574	6.	0.	6.0889
8671	11.391	6.	0.	5.9494
8672	11.207	6.	0.	5.8059
8673	11.023	6.	0.	5.658
8674	10.84	6.	0.	5.5053
8675	10.656	6.	0.	5.3474
8676	10.472	6.	0.	5.1839
8677	10.288	6.	0.	5.0142
8678	10.105	6.	0.	4.838
8679	9.9209	6.	0.	4.6548
8680	9.7372	6.	0.	4.464
8681	9.5535	6.	0.	4.2653
8682	9.3698	6.	0.	4.0582
8683	9.186	6.	0.	3.8422
8684	9.0023	6.	0.	3.6168
8685	8.8186	6.	0.	3.3816
8686	8.6349	6.	0.	3.1363
8687	8.4512	6.	0.	2.8805
8688	8.2674	6.	0.	2.6138
8689	8.0837	6.	0.	2.3362
8690	7.9	6.	0.	2.0475
8691	7.7163	6.	0.	1.7478
8692	7.5326	6.	0.	1.4373
8693	7.3488	6.	0.	1.1162
8694	7.1651	6.	0.	0.78548
8695	6.9814	6.	0.	0.45815
8696	6.7977	6.	0.	0.49128
8697	6.614	6.	0.	0.53572
8698	6.4302	6.	0.	0.58392
8699	6.2465	6.	0.	0.63607
8700	6.0628	6.	0.	0.69249
8701	5.8791	6.	0.	0.75353
8702	5.6953	6.	0.	0.81954
8703	5.5116	6.	0.	0.89094
8704	5.3279	6.	0.	0.96819
8705	5.1442	6.	0.	1.0518
8706	4.9605	6.	0.	1.1423
8707	4.7767	6.	0.	1.2403
8708	4.593	6.	0.	1.3467
8709	4.4093	6.	0.	1.4624
8710	4.2256	6.	0.	1.5887
8711	4.0419	6.	0.	1.7272
8712	3.8581	6.	0.	1.8808
8713	3.6744	6.	0.	2.0546
8714	3.4907	6.	0.	2.2597
8715	3.307	6.	0.	2.5285
8716	3.1233	6.	0.	2.9941
8717	2.9395	6.	0.	4.1465
8718	2.7558	6.	0.	6.2698
8719	2.5721	6.	0.	9.1413
8720	2.3884	6.	0.	12.754
8721	2.2047	6.	0.	17.22
8722	2.0209	6.	0.	22.708
8723	1.8372	6.	0.	29.45
8724	1.6535	6.	0.	37.76
8725	1.4698	6.	0.	48.069
8726	1.286	6.	0.	61.053
8727	1.1023	6.	0.	77.61
8728	0.9186	6.	0.	99.742
8729	0.73488	6.	0.	129.73
8730	0.55116	6.	0.	176.25
8731	0.36744	6.	0.	256.49
8732	0.18372	6.	0.	442.47
8733	23.7	6.	0.	0.69276
8734	3.937e-014	6.	0.	1821.6
8735	0.18372	5.6427e-032	0.	442.47
8736	0.36744	1.1285e-031	0.	256.49
8737	0.55116	1.6928e-031	0.	176.25
8738	0.73488	2.2571e-031	0.	129.73
8739	0.9186	2.8214e-031	0.	99.741
8740	1.1023	3.3856e-031	0.	77.61
8741	1.286	3.9499e-031	0.	61.052
8742	1.4698	4.5142e-031	0.	48.069
8743	1.6535	5.0784e-031	0.	37.76
8744	1.8372	5.6427e-031	0.	29.45
8745	2.0209	6.207e-031	0.	22.708
8746	2.2047	6.7713e-031	0.	17.22
8747	2.3884	7.3355e-031	0.	12.754
8748	2.5721	7.8998e-031	0.	9.1412
8749	2.7558	8.4641e-031	0.	6.2697
8750	2.9395	9.0283e-031	0.	4.1465
8751	3.1233	9.5926e-031	0.	2.9941
8752	3.307	1.0157e-030	0.	2.5285
8753	3.4907	1.0721e-030	0.	2.2597
8754	3.6744	1.1285e-030	0.	2.0546
8755	3.8581	1.185e-030	0.	1.8808
8756	4.0419	1.2414e-030	0.	1.7272
8757	4.2256	1.2978e-030	0.	1.5887
8758	4.4093	1.3543e-030	0.	1.4624
8759	4.593	1.4107e-030	0.	1.3467
8760	4.7767	1.4671e-030	0.	1.2403
8761	4.9605	1.5235e-030	0.	1.1423
8762	5.1442	1.58e-030	0.	1.0518
8763	5.3279	1.6364e-030	0.	0.96819
8764	5.5116	1.6928e-030	0.	0.89094
8765	5.6953	1.7492e-030	0.	0.81954
8766	5.8791	1.8057e-030	0.	0.75353
8767	6.0628	1.8621e-030	0.	0.69249
8768	6.2465	1.9185e-030	0.	0.63607
8769	6.4302	1.975e-030	0.	0.58392
8770	6.614	2.0314e-030	0.	0.53572
8771	6.7977	2.0878e-030	0.	0.49128
8772	6.9814	2.1442e-030	0.	0.45816
8773	7.1651	2.2007e-030	0.	0.78551
8774	7.3488	2.2571e-030	0.	1.1163
8775	7.5326	2.3135e-030	0.	1.4373
8776	7.7163	2.3699e-030	0.	1.7479
8777	7.9	2.4264e-030	0.	2.0476
8778	8.0837	2.4828e-030	0.	2.3363
8779	8.2674	2.5392e-030	0.	2.6139
8780	8.4512	2.5956e-030	0.	2.8805
8781	8.6349	2.6521e-030	0.	3.1363
8782	8.8186	2.7085e-030	0.	3.3817
8783	9.0023	2.7649e-030	0.	3.6168
8784	9.186	2.8214e-030	0.	3.8422
8785	9.3698	2.8778e-030	0.	4.0582
8786	9.5535	2.9342e-030	0.	4.2654
8787	9.7372	2.9906e-030	0.	4.4641
8788	9.9209	3.0471e-030	0.	4.6548
8789	10.105	3.1035e-030	0.	4.8381
8790	10.288	3.1599e-030	0.	5.0143
8791	10.472	3.2163e-030	0.	5.1839
8792	10.656	3.2728e-030	0.	5.3475
8793	10.84	3.3292e-030	0.	5.5054
8794	11.023	3.3856e-030	0.	5.6581
8795	11.207	3.4421e-030	0.	5.806
8796	11.391	3.4985e-030	0.	5.9495
8797	11.574	3.5549e-030	0.	6.0889
8798	11.758	3.6113e-030	0.	6.2248
8799	11.942	3.6678e-030	0.	6.3574
8800	12.126	3.7242e-030	0.	6.4871
8801	12.309	3.7806e-030	0.	6.6141
8802	12.493	3.837e-030	0.	6.7389
8803	12.677	3.8935e-030	0.	6.8617
8804	12.86	3.9499e-030	0.	6.9828
8805	13.044	4.0063e-030	0.	7.1024
8806	13.228	4.0628e-030	0.	7.2209
8807	13.412	4.1192e-030	0.	7.3384
8808	13.595	4.1756e-030	0.	7.4552
8809	13.779	4.232e-030	0.	7.5715
8810	13.963	4.2885e-030	0.	7.6875
8811	14.147	4.3449e-030	0.	7.8033
8812	14.33	4.4013e-030	0.	7.9192
8813	14.514	4.4577e-030	0.	8.0353
8814	14.698	4.5142e-030	0.	8.1518
8815	14.881	4.5706e-030	0.	8.2687
8816	15.065	4.627e-030	0.	8.3862
8817	15.249	4.6835e-030	0.	8.5044
8818	15.433	4.7399e-030	0.	8.6233
8819	15.616	4.7963e-030	0.	8.743
8820	15.8	4.8527e-030	0.	8.8636
8821	15.984	4.9092e-030	0.	8.985
8822	16.167	4.9656e-030	0.	9.1072
8823	16.351	5.022e-030	0.	9.2302
8824	16.535	5.0784e-030	0.	9.3539
8825	16.719	5.1349e-030	0.	9.4782
8826	16.902	5.1913e-030	0.	9.6029
8827	17.086	5.2477e-030	0.	9.7277
8828	17.27	5.3042e-030	0.	9.8525
8829	17.453	5.3606e-030	0.	9.9769
8830	17.637	5.417e-030	0.	10.1
8831	17.821	5.4734e-030	0.	10.223
8832	18.005	5.5299e-030	0.	10.343
8833	18.188	5.5863e-030	0.	10.461
8834	18.372	5.6427e-030	0.	10.575
8835	18.556	5.6991e-030	0.	10.685
8836	18.74	5.7556e-030	0.	10.789
8837	18.923	5.812e-030	0.	10.886
8838	19.107	5.8684e-030	0.	10.975
8839	19.291	5.9249e-030	0.	11.053
8840	19.474	5.9813e-030	0.	11.118
8841	19.658	6.0377e-030	0.	11.168
8842	19.842	6.0941e-030	0.	11.199
8843	20.026	6.1506e-030	0.	11.207
8844	20.209	6.207e-030	0.	11.19
8845	20.393	6.2634e-030	0.	11.14
8846	20.577	6.3198e-030	0.	11.053
8847	20.76	6.3763e-030	0.	10.921
8848	20.944	6.4327e-030	0.	10.738
8849	21.128	6.4891e-030	0.	10.494
8850	21.312	6.5456e-030	0.	10.18
8851	21.495	6.602e-030	0.	9.7863
8852	21.679	6.6584e-030	0.	9.3034
8853	21.863	6.7148e-030	0.	8.7229
8854	22.047	6.7713e-030	0.	8.0388
8855	22.23	6.8277e-030	0.	7.2501
8856	22.414	6.8841e-030	0.	6.3625
8857	22.598	6.9405e-030	0.	5.3918
8858	22.781	6.997e-030	0.	4.3649
8859	22.965	7.0534e-030	0.	3.3252
8860	23.149	7.1098e-030	0.	2.3146
8861	23.333	7.1663e-030	0.	1.4121
8862	23.516	7.2227e-030	0.	0.60134
8863	23.7	0.	0.	0.69276
8864	0.	0.	0.	1821.6
8865	23.867	0.	0.	1.3551
8866	24.	0.	0.	2.721
8867	5.0862e-014	5.8182	0.	-1060.7
8868	4.9273e-014	5.6364	0.	-2240.8
8869	4.7683e-014	5.4545	0.	-2783.7
8870	4.6094e-014	5.2727	0.	-3107.7
8871	4.4504e-014	5.0909	0.	-3322.7
8872	4.2915e-014	4.9091	0.	-3475.7
8873	4.1325e-014	4.7273	0.	-3588.9
8874	3.9736e-014	4.5455	0.	-3674.6
8875	3.8147e-014	4.3636	0.	-3740.6
8876	3.6557e-014	4.1818	0.	-3791.8
8877	3.4968e-014	4.	0.	-3831.5
8878	3.3378e-014	3.8182	0.	-3861.9
8879	3.1789e-014	3.6364	0.	-3884.8
8880	3.0199e-014	3.4545	0.	-3901.1
8881	2.861e-014	3.2727	0.	-3911.6
8882	2.702e-014	3.0909	0.	-3916.9
8883	2.5431e-014	2.9091	0.	-3916.9
8884	2.3842e-014	2.7273	0.	-3911.6
8885	2.2252e-014	2.5455	0.	-3901.1
8886	2.0663e-014	2.3636	0.	-3884.8
8887	1.9073e-014	2.1818	0.	-3861.9
8888	1.7484e-014	2.	0.	-3831.5
8889	1.5894e-014	1.8182	0.	-3791.8
8890	1.4305e-014	1.6364	0.	-3740.6
8891	1.2716e-014	1.4545	0.	-3674.6
8892	1.1126e-014	1.2727	0.	-3588.9
8893	9.5366e-015	1.0909	0.	-3475.7
8894	7.9472e-015	0.90909	0.	-3322.7
8895	6.3578e-015	0.72727	0.	-3107.7
8896	4.7683e-015	0.54545	0.	-2783.7
8897	3.1789e-015	0.36364	0.	-2240.8
8898	1.5894e-015	0.18182	0.	-1060.7
8899	24.	0.18182	0.	6.9097
8900	24.	0.36364	0.	7.7505
8901	24.	0.54545	0.	7.9751
8902	24.	0.72727	0.	8.0829
8903	24.	0.90909	0.	8.058
8904	24.	1.0909	0.	8.3439
8905	24.	1.2727	0.	7.3941
8906	24.	1.4545	0.	11.02
8907	24.	1.6364	0.	4.2082
8908	24.	1.8182	0.	15.284
8909	24.	2.	0.	28.465
8910	24.	2.1818	0.	11.427
8911	24.	2.3636	0.	11.539
8912	24.	2.5455	0.	6.2627
8913	24.	2.7273	0.	14.29
8914	24.	2.9091	0.	31.668
8915	24.	3.0909	0.	31.668
8916	24.	3.2727	0.	14.29
8917	24.	3.4545	0.	6.2627
8918	24.	3.6364	0.	11.539
8919	24.	3.8182	0.	11.427
8920	24.	4.	0.	28.465
8921	24.	4.1818	0.	15.284
8922	24.	4.3636	0.	4.2083
8923	24.	4.5455	0.	11.02
8924	24.	4.7273	0.	7.3942
8925	24.	4.9091	0.	8.3439
8926	24.	5.0909	0.	8.058
8927	24.	5.2727	0.	8.0829
8928	24.	5.4545	0.	7.9751
8929	24.	5.6364	0.	7.7505
8930	24.	5.8182	0.	6.9097
8931	24.	6.	0.	2.721
8932	23.867	6.	0.	1.3551
8933	23.7	1.8182	0.	691.95
8934	23.7	1.6364	0.	423.43
8935	23.7	1.4545	0.	311.38
8936	23.7	1.2727	0.	232.72
8937	23.7	1.0909	0.	174.04
8938	23.7	0.90909	0.	127.48
8939	23.7	0.72727	0.	89.216
8940	23.7	0.54545	0.	57.435
8941	23.7	0.36364	0.	31.357
8942	23.7	0.18182	0.	11.151
8943	23.7	2.	0.	1330.8
8944	23.867	0.18182	0.	0.71398
8945	23.867	0.36364	0.	0.75962
8946	23.867	0.54545	0.	0.77113
8947	23.867	0.72727	0.	0.7809
8948	23.867	0.90909	0.	0.75204
8949	23.867	1.0909	0.	0.88268
8950	23.867	1.2727	0.	0.43433
8951	23.867	1.4545	0.	3.6383
8952	23.867	1.6364	0.	-2.1632
8953	23.867	1.8182	0.	86.346
8954	23.867	2.	0.	408.71
8955	23.7	4.1818	0.	691.95
8956	23.7	4.3636	0.	423.43
8957	23.7	4.5455	0.	311.38
8958	23.7	4.7273	0.	232.72
8959	23.7	4.9091	0.	174.04
8960	23.7	5.0909	0.	127.48
8961	23.7	5.2727	0.	89.216
8962	23.7	5.4545	0.	57.435
8963	23.7	5.6364	0.	31.357
8964	23.7	5.8182	0.	11.151
8965	23.7	4.	0.	1330.8
8966	23.867	5.8182	0.	0.71399
8967	23.867	5.6364	0.	0.75962
8968	23.867	5.4545	0.	0.77114
8969	23.867	5.2727	0.	0.78091
8970	23.867	5.0909	0.	0.75205
8971	23.867	4.9091	0.	0.88269
8972	23.867	4.7273	0.	0.43434
8973	23.867	4.5455	0.	3.6383
8974	23.867	4.3636	0.	-2.1632
8975	23.867	4.1818	0.	86.346
8976	23.867	4.	0.	408.71
8977	23.7	2.2727	0.	239.72
8978	23.608	2.1818	0.	362.18
8979	23.783	2.1818	0.	248.46
8980	23.7	2.1818	5.e-002	73.695
8981	23.7	2.0909	0.	797.78
8982	23.7	2.4545	0.	53.935
8983	23.608	2.3636	0.	106.49
8984	23.783	2.3636	0.	47.457
8985	23.7	2.3636	5.e-002	13.041
8986	23.7	2.6364	0.	33.353
8987	23.608	2.5455	0.	53.828
8988	23.783	2.5455	0.	24.874
8989	23.7	2.5455	5.e-002	5.2571
8990	23.7	2.8182	0.	39.037
8991	23.608	2.7273	0.	49.361
8992	23.783	2.7273	0.	30.181
8993	23.7	2.7273	5.e-002	3.9967
8994	23.7	3.	0.	42.538
8995	23.608	2.9091	0.	52.304
8996	23.783	2.9091	0.	37.708
8997	23.7	2.9091	5.e-002	3.6014
8998	23.7	3.1818	0.	39.037
8999	23.608	3.0909	0.	52.304
9000	23.783	3.0909	0.	37.708
9001	23.7	3.0909	5.e-002	3.6014
9002	23.7	3.3636	0.	33.353
9003	23.608	3.2727	0.	49.36
9004	23.783	3.2727	0.	30.181
9005	23.7	3.2727	5.e-002	3.9967
9006	23.7	3.5455	0.	53.935
9007	23.608	3.4545	0.	53.828
9008	23.783	3.4545	0.	24.874
9009	23.7	3.4545	5.e-002	5.2571
9010	23.7	3.7273	0.	239.72
9011	23.608	3.6364	0.	106.49
9012	23.783	3.6364	0.	47.457
9013	23.7	3.6364	5.e-002	13.041
9014	23.608	3.8182	0.	362.18
9015	23.783	3.8182	0.	248.46
9016	23.7	3.8182	5.e-002	73.695
9017	23.7	3.9091	0.	797.78
9018	23.516	5.7273	0.	23.29
9019	23.424	5.8182	0.	11.446
9020	23.516	5.8182	5.e-002	3.5234
9021	23.516	5.9091	0.	5.2852
9022	23.608	5.8182	0.	10.221
9023	23.516	5.5455	0.	50.162
9024	23.424	5.6364	0.	33.157
9025	23.516	5.6364	5.e-002	3.5524
9026	23.608	5.6364	0.	31.929
9027	23.516	5.3636	0.	83.229
9028	23.424	5.4545	0.	61.754
9029	23.516	5.4545	5.e-002	3.7372
9030	23.608	5.4545	0.	59.84
9031	23.516	5.1818	0.	122.13
9032	23.424	5.2727	0.	96.065
9033	23.516	5.2727	5.e-002	3.9851
9034	23.608	5.2727	0.	93.316
9035	23.516	5.	0.	167.72
9036	23.424	5.0909	0.	136.14
9037	23.516	5.0909	5.e-002	4.3476
9038	23.608	5.0909	0.	132.98
9039	23.516	4.8182	0.	222.07
9040	23.424	4.9091	0.	182.9
9041	23.516	4.9091	5.e-002	4.9183
9042	23.608	4.9091	0.	180.47
9043	23.516	4.6364	0.	289.24
9044	23.424	4.7273	0.	238.29
9045	23.516	4.7273	5.e-002	5.9733
9046	23.608	4.7273	0.	239.09
9047	23.516	4.4545	0.	377.12
9048	23.424	4.5455	0.	305.17
9049	23.516	4.5455	5.e-002	7.7798
9050	23.608	4.5455	0.	315.73
9051	23.516	4.2727	0.	503.45
9052	23.424	4.3636	0.	388.65
9053	23.516	4.3636	5.e-002	12.735
9054	23.608	4.3636	0.	421.29
9055	23.516	4.0909	0.	558.45
9056	23.424	4.1818	0.	491.38
9057	23.516	4.1818	5.e-002	27.516
9058	23.608	4.1818	0.	631.63
9059	23.516	3.9091	0.	442.22
9060	23.424	4.	0.	468.49
9061	23.516	4.	5.e-002	46.056
9062	23.608	4.	0.	923.17
9063	23.516	3.7273	0.	253.25
9064	23.424	3.8182	0.	320.97
9065	23.516	3.8182	5.e-002	21.487
9066	23.516	3.5455	0.	110.01
9067	23.424	3.6364	0.	158.61
9068	23.516	3.6364	5.e-002	7.3339
9069	23.516	3.3636	0.	68.705
9070	23.424	3.4545	0.	94.67
9071	23.516	3.4545	5.e-002	0.71999
9072	23.516	3.1818	0.	60.995
9073	23.424	3.2727	0.	75.054
9074	23.516	3.2727	5.e-002	1.7182
9075	23.516	3.	0.	60.556
9076	23.424	3.0909	0.	70.745
9077	23.516	3.0909	5.e-002	2.4164
9078	23.516	2.8182	0.	60.995
9079	23.424	2.9091	0.	70.745
9080	23.516	2.9091	5.e-002	2.4164
9081	23.516	2.6364	0.	68.705
9082	23.424	2.7273	0.	75.054
9083	23.516	2.7273	5.e-002	1.7182
9084	23.516	2.4545	0.	110.01
9085	23.424	2.5455	0.	94.67
9086	23.516	2.5455	5.e-002	0.72001
9087	23.516	2.2727	0.	253.25
9088	23.424	2.3636	0.	158.61
9089	23.516	2.3636	5.e-002	7.334
9090	23.516	2.0909	0.	442.22
9091	23.424	2.1818	0.	320.97
9092	23.516	2.1818	5.e-002	21.487
9093	23.516	1.9091	0.	558.45
9094	23.424	2.	0.	468.49
9095	23.516	2.	5.e-002	46.056
9096	23.608	2.	0.	923.17
9097	23.516	1.7273	0.	503.45
9098	23.424	1.8182	0.	491.38
9099	23.516	1.8182	5.e-002	27.516
9100	23.608	1.8182	0.	631.63
9101	23.516	1.5455	0.	377.12
9102	23.424	1.6364	0.	388.65
9103	23.516	1.6364	5.e-002	12.735
9104	23.608	1.6364	0.	421.29
9105	23.516	1.3636	0.	289.24
9106	23.424	1.4545	0.	305.17
9107	23.516	1.4545	5.e-002	7.7798
9108	23.608	1.4545	0.	315.73
9109	23.516	1.1818	0.	222.07
9110	23.424	1.2727	0.	238.29
9111	23.516	1.2727	5.e-002	5.9733
9112	23.608	1.2727	0.	239.09
9113	23.516	1.	0.	167.72
9114	23.424	1.0909	0.	182.9
9115	23.516	1.0909	5.e-002	4.9183
9116	23.608	1.0909	0.	180.47
9117	23.516	0.81818	0.	122.13
9118	23.424	0.90909	0.	136.14
9119	23.516	0.90909	5.e-002	4.3476
9120	23.608	0.90909	0.	132.98
9121	23.516	0.63636	0.	83.229
9122	23.424	0.72727	0.	96.065
9123	23.516	0.72727	5.e-002	3.9851
9124	23.608	0.72727	0.	93.316
9125	23.516	0.45455	0.	50.162
9126	23.424	0.54545	0.	61.754
9127	23.516	0.54545	5.e-002	3.7372
9128	23.608	0.54545	0.	59.84
9129	23.516	0.27273	0.	23.29
9130	23.424	0.36364	0.	33.157
9131	23.516	0.36364	5.e-002	3.5524
9132	23.608	0.36364	0.	31.929
9133	23.424	0.18182	0.	11.446
9134	23.516	0.18182	5.e-002	3.5234
9135	23.516	9.0909e-002	0.	5.2852
9136	23.608	0.18182	0.	10.221
9137	23.333	5.7273	0.	22.81
9138	23.241	5.8182	0.	13.511
9139	23.333	5.8182	5.e-002	3.8975
9140	23.333	5.9091	0.	6.4658
9141	23.333	5.5455	0.	46.887
9142	23.241	5.6364	0.	33.752
9143	23.333	5.6364	5.e-002	4.1411
9144	23.333	5.3636	0.	76.834
9145	23.241	5.4545	0.	59.636
9146	23.333	5.4545	5.e-002	4.461
9147	23.333	5.1818	0.	112.32
9148	23.241	5.2727	0.	90.767
9149	23.333	5.2727	5.e-002	4.8968
9150	23.333	5.	0.	153.6
9151	23.241	5.0909	0.	126.98
9152	23.333	5.0909	5.e-002	5.4873
9153	23.333	4.8182	0.	201.55
9154	23.241	4.9091	0.	168.4
9155	23.333	4.9091	5.e-002	6.2861
9156	23.333	4.6364	0.	256.94
9157	23.241	4.7273	0.	215.36
9158	23.333	4.7273	5.e-002	7.4256
9159	23.333	4.4545	0.	320.24
9160	23.241	4.5455	0.	267.17
9161	23.333	4.5455	5.e-002	9.0102
9162	23.333	4.2727	0.	377.03
9163	23.241	4.3636	0.	321.06
9164	23.333	4.3636	5.e-002	9.6782
9165	23.333	4.0909	0.	388.54
9166	23.241	4.1818	0.	355.38
9167	23.333	4.1818	5.e-002	10.136
9168	23.333	3.9091	0.	330.62
9169	23.241	4.	0.	336.96
9170	23.333	4.	5.e-002	8.2153
9171	23.333	3.7273	0.	230.65
9172	23.241	3.8182	0.	261.76
9173	23.333	3.8182	5.e-002	10.208
9174	23.333	3.5455	0.	145.33
9175	23.241	3.6364	0.	177.94
9176	23.333	3.6364	5.e-002	7.4066
9177	23.333	3.3636	0.	100.1
9178	23.241	3.4545	0.	123.
9179	23.333	3.4545	5.e-002	2.7631
9180	23.333	3.1818	0.	83.646
9181	23.241	3.2727	0.	97.871
9182	23.333	3.2727	5.e-002	1.9231
9183	23.333	3.	0.	79.857
9184	23.241	3.0909	0.	89.01
9185	23.333	3.0909	5.e-002	2.1384
9186	23.333	2.8182	0.	83.646
9187	23.241	2.9091	0.	89.01
9188	23.333	2.9091	5.e-002	2.1384
9189	23.333	2.6364	0.	100.1
9190	23.241	2.7273	0.	97.872
9191	23.333	2.7273	5.e-002	1.9231
9192	23.333	2.4545	0.	145.33
9193	23.241	2.5455	0.	123.
9194	23.333	2.5455	5.e-002	2.7631
9195	23.333	2.2727	0.	230.65
9196	23.241	2.3636	0.	177.94
9197	23.333	2.3636	5.e-002	7.4066
9198	23.333	2.0909	0.	330.62
9199	23.241	2.1818	0.	261.76
9200	23.333	2.1818	5.e-002	10.208
9201	23.333	1.9091	0.	388.54
9202	23.241	2.	0.	336.96
9203	23.333	2.	5.e-002	8.2153
9204	23.333	1.7273	0.	377.03
9205	23.241	1.8182	0.	355.38
9206	23.333	1.8182	5.e-002	10.136
9207	23.333	1.5455	0.	320.24
9208	23.241	1.6364	0.	321.06
9209	23.333	1.6364	5.e-002	9.6782
9210	23.333	1.3636	0.	256.94
9211	23.241	1.4545	0.	267.17
9212	23.333	1.4545	5.e-002	9.0102
9213	23.333	1.1818	0.	201.55
9214	23.241	1.2727	0.	215.36
9215	23.333	1.2727	5.e-002	7.4256
9216	23.333	1.	0.	153.6
9217	23.241	1.0909	0.	168.4
9218	23.333	1.0909	5.e-002	6.2861
9219	23.333	0.81818	0.	112.32
9220	23.241	0.90909	0.	126.98
9221	23.333	0.90909	5.e-002	5.4873
9222	23.333	0.63636	0.	76.834
9223	23.241	0.72727	0.	90.767
9224	23.333	0.72727	5.e-002	4.8968
9225	23.333	0.45455	0.	46.887
9226	23.241	0.54545	0.	59.636
9227	23.333	0.54545	5.e-002	4.461
9228	23.333	0.27273	0.	22.81
9229	23.241	0.36364	0.	33.753
9230	23.333	0.36364	5.e-002	4.1411
9231	23.241	0.18182	0.	13.511
9232	23.333	0.18182	5.e-002	3.8974
9233	23.333	9.0909e-002	0.	6.4658
9234	23.149	5.7273	0.	24.467
9235	23.057	5.8182	0.	15.667
9236	23.149	5.8182	5.e-002	4.0369
9237	23.149	5.9091	0.	7.9969
9238	23.149	5.5455	0.	47.134
9239	23.057	5.6364	0.	35.315
9240	23.149	5.6364	5.e-002	4.4289
9241	23.149	5.3636	0.	74.557
9242	23.057	5.4545	0.	59.282
9243	23.149	5.4545	5.e-002	4.7031
9244	23.149	5.1818	0.	106.6
9245	23.057	5.2727	0.	87.457
9246	23.149	5.2727	5.e-002	5.0626
9247	23.149	5.	0.	143.08
9248	23.057	5.0909	0.	119.59
9249	23.149	5.0909	5.e-002	5.5262
9250	23.149	4.8182	0.	183.59
9251	23.057	4.9091	0.	155.23
9252	23.149	4.9091	5.e-002	6.1012
9253	23.149	4.6364	0.	226.92
9254	23.057	4.7273	0.	193.39
9255	23.149	4.7273	5.e-002	6.7091
9256	23.149	4.4545	0.	268.72
9257	23.057	4.5455	0.	231.79
9258	23.149	4.5455	5.e-002	7.1577
9259	23.149	4.2727	0.	298.03
9260	23.057	4.3636	0.	264.34
9261	23.149	4.3636	5.e-002	7.3178
9262	23.149	4.0909	0.	299.21
9263	23.057	4.1818	0.	279.43
9264	23.149	4.1818	5.e-002	5.7168
9265	23.149	3.9091	0.	265.64
9266	23.057	4.	0.	265.48
9267	23.149	4.	5.e-002	6.0481
9268	23.149	3.7273	0.	210.33
9269	23.057	3.8182	0.	225.23
9270	23.149	3.8182	5.e-002	6.9392
9271	23.149	3.5455	0.	156.64
9272	23.057	3.6364	0.	176.33
9273	23.149	3.6364	5.e-002	5.4342
9274	23.149	3.3636	0.	120.43
9275	23.057	3.4545	0.	137.33
9276	23.149	3.4545	5.e-002	3.6436
9277	23.149	3.1818	0.	102.48
9278	23.057	3.2727	0.	114.28
9279	23.149	3.2727	5.e-002	2.71
9280	23.149	3.	0.	97.378
9281	23.057	3.0909	0.	104.4
9282	23.149	3.0909	5.e-002	2.4769
9283	23.149	2.8182	0.	102.48
9284	23.057	2.9091	0.	104.4
9285	23.149	2.9091	5.e-002	2.4769
9286	23.149	2.6364	0.	120.43
9287	23.057	2.7273	0.	114.28
9288	23.149	2.7273	5.e-002	2.71
9289	23.149	2.4545	0.	156.64
9290	23.057	2.5455	0.	137.33
9291	23.149	2.5455	5.e-002	3.6436
9292	23.149	2.2727	0.	210.33
9293	23.057	2.3636	0.	176.33
9294	23.149	2.3636	5.e-002	5.4342
9295	23.149	2.0909	0.	265.64
9296	23.057	2.1818	0.	225.23
9297	23.149	2.1818	5.e-002	6.9392
9298	23.149	1.9091	0.	299.21
9299	23.057	2.	0.	265.48
9300	23.149	2.	5.e-002	6.0481
9301	23.149	1.7273	0.	298.03
9302	23.057	1.8182	0.	279.43
9303	23.149	1.8182	5.e-002	5.7168
9304	23.149	1.5455	0.	268.72
9305	23.057	1.6364	0.	264.34
9306	23.149	1.6364	5.e-002	7.3178
9307	23.149	1.3636	0.	226.92
9308	23.057	1.4545	0.	231.79
9309	23.149	1.4545	5.e-002	7.1577
9310	23.149	1.1818	0.	183.59
9311	23.057	1.2727	0.	193.39
9312	23.149	1.2727	5.e-002	6.7091
9313	23.149	1.	0.	143.08
9314	23.057	1.0909	0.	155.23
9315	23.149	1.0909	5.e-002	6.1012
9316	23.149	0.81818	0.	106.6
9317	23.057	0.90909	0.	119.59
9318	23.149	0.90909	5.e-002	5.5262
9319	23.149	0.63636	0.	74.557
9320	23.057	0.72727	0.	87.457
9321	23.149	0.72727	5.e-002	5.0626
9322	23.149	0.45455	0.	47.134
9323	23.057	0.54545	0.	59.283
9324	23.149	0.54545	5.e-002	4.7031
9325	23.149	0.27273	0.	24.467
9326	23.057	0.36364	0.	35.315
9327	23.149	0.36364	5.e-002	4.4289
9328	23.057	0.18182	0.	15.668
9329	23.149	0.18182	5.e-002	4.0369
9330	23.149	9.0909e-002	0.	7.9969
9331	22.965	5.7273	0.	26.237
9332	22.873	5.8182	0.	17.725
9333	22.965	5.8182	5.e-002	4.0161
9334	22.965	5.9091	0.	9.5306
9335	22.965	5.5455	0.	47.648
9336	22.873	5.6364	0.	36.594
9337	22.965	5.6364	5.e-002	4.5701
9338	22.965	5.3636	0.	72.682
9339	22.873	5.4545	0.	58.801
9340	22.965	5.4545	5.e-002	4.7917
9341	22.965	5.1818	0.	101.17
9342	22.873	5.2727	0.	84.109
9343	22.965	5.2727	5.e-002	5.0495
9344	22.965	5.	0.	132.6
9345	22.873	5.0909	0.	112.17
9346	22.965	5.0909	5.e-002	5.3563
9347	22.965	4.8182	0.	165.91
9348	22.873	4.9091	0.	142.17
9349	22.965	4.9091	5.e-002	5.6764
9350	22.965	4.6364	0.	198.99
9351	22.873	4.7273	0.	172.65
9352	22.965	4.7273	5.e-002	5.9286
9353	22.965	4.4545	0.	227.58
9354	22.873	4.5455	0.	200.88
9355	22.965	4.5455	5.e-002	5.9709
9356	22.965	4.2727	0.	244.88
9357	22.873	4.3636	0.	222.17
9358	22.965	4.3636	5.e-002	5.5507
9359	22.965	4.0909	0.	244.27
9360	22.873	4.1818	0.	230.41
9361	22.965	4.1818	5.e-002	5.0623
9362	22.965	3.9091	0.	224.41
9363	22.873	4.	0.	221.76
9364	22.965	4.	5.e-002	4.9659
9365	22.965	3.7273	0.	191.73
9366	22.873	3.8182	0.	198.41
9367	22.965	3.8182	5.e-002	5.0144
9368	22.965	3.5455	0.	157.51
9369	22.873	3.6364	0.	168.73
9370	22.965	3.6364	5.e-002	4.6208
9371	22.965	3.3636	0.	131.07
9372	22.873	3.4545	0.	142.19
9373	22.965	3.4545	5.e-002	3.8387
9374	22.965	3.1818	0.	115.75
9375	22.873	3.2727	0.	124.14
9376	22.965	3.2727	5.e-002	3.1967
9377	22.965	3.	0.	110.89
9378	22.873	3.0909	0.	115.45
9379	22.965	3.0909	5.e-002	2.9359
9380	22.965	2.8182	0.	115.75
9381	22.873	2.9091	0.	115.45
9382	22.965	2.9091	5.e-002	2.9359
9383	22.965	2.6364	0.	131.07
9384	22.873	2.7273	0.	124.14
9385	22.965	2.7273	5.e-002	3.1967
9386	22.965	2.4545	0.	157.51
9387	22.873	2.5455	0.	142.19
9388	22.965	2.5455	5.e-002	3.8387
9389	22.965	2.2727	0.	191.73
9390	22.873	2.3636	0.	168.73
9391	22.965	2.3636	5.e-002	4.6209
9392	22.965	2.0909	0.	224.41
9393	22.873	2.1818	0.	198.41
9394	22.965	2.1818	5.e-002	5.0144
9395	22.965	1.9091	0.	244.27
9396	22.873	2.	0.	221.76
9397	22.965	2.	5.e-002	4.966
9398	22.965	1.7273	0.	244.88
9399	22.873	1.8182	0.	230.41
9400	22.965	1.8182	5.e-002	5.0623
9401	22.965	1.5455	0.	227.58
9402	22.873	1.6364	0.	222.17
9403	22.965	1.6364	5.e-002	5.5507
9404	22.965	1.3636	0.	198.99
9405	22.873	1.4545	0.	200.88
9406	22.965	1.4545	5.e-002	5.9709
9407	22.965	1.1818	0.	165.91
9408	22.873	1.2727	0.	172.65
9409	22.965	1.2727	5.e-002	5.9286
9410	22.965	1.	0.	132.6
9411	22.873	1.0909	0.	142.17
9412	22.965	1.0909	5.e-002	5.6764
9413	22.965	0.81818	0.	101.17
9414	22.873	0.90909	0.	112.17
9415	22.965	0.90909	5.e-002	5.3563
9416	22.965	0.63636	0.	72.682
9417	22.873	0.72727	0.	84.109
9418	22.965	0.72727	5.e-002	5.0495
9419	22.965	0.45455	0.	47.648
9420	22.873	0.54545	0.	58.802
9421	22.965	0.54545	5.e-002	4.7917
9422	22.965	0.27273	0.	26.238
9423	22.873	0.36364	0.	36.594
9424	22.965	0.36364	5.e-002	4.5701
9425	22.873	0.18182	0.	17.725
9426	22.965	0.18182	5.e-002	4.0161
9427	22.965	9.0909e-002	0.	9.5306
9428	22.781	5.7273	0.	27.724
9429	22.69	5.8182	0.	19.58
9430	22.781	5.8182	5.e-002	3.8873
9431	22.781	5.9091	0.	10.959
9432	22.781	5.5455	0.	47.757
9433	22.69	5.6364	0.	37.376
9434	22.781	5.6364	5.e-002	4.6215
9435	22.781	5.3636	0.	70.476
9436	22.69	5.4545	0.	57.817
9437	22.781	5.4545	5.e-002	4.7981
9438	22.781	5.1818	0.	95.541
9439	22.69	5.2727	0.	80.403
9440	22.781	5.2727	5.e-002	4.9655
9441	22.781	5.	0.	122.29
9442	22.69	5.0909	0.	104.69
9443	22.781	5.0909	5.e-002	5.1422
9444	22.781	4.8182	0.	149.46
9445	22.69	4.9091	0.	129.77
9446	22.781	4.9091	5.e-002	5.2897
9447	22.781	4.6364	0.	174.94
9448	22.69	4.7273	0.	154.12
9449	22.781	4.7273	5.e-002	5.3469
9450	22.781	4.4545	0.	195.52
9451	22.69	4.5455	0.	175.43
9452	22.781	4.5455	5.e-002	5.2375
9453	22.781	4.2727	0.	207.35
9454	22.69	4.3636	0.	190.59
9455	22.781	4.3636	5.e-002	4.9529
9456	22.781	4.0909	0.	207.39
9457	22.69	4.1818	0.	196.5
9458	22.781	4.1818	5.e-002	4.634
9459	22.781	3.9091	0.	195.56
9460	22.69	4.	0.	191.7
9461	22.781	4.	5.e-002	4.5038
9462	22.781	3.7273	0.	175.61
9463	22.69	3.8182	0.	177.83
9464	22.781	3.8182	5.e-002	4.4553
9465	22.781	3.5455	0.	153.63
9466	22.69	3.6364	0.	159.42
9467	22.781	3.6364	5.e-002	4.2367
9468	22.781	3.3636	0.	135.22
9469	22.69	3.4545	0.	141.77
9470	22.781	3.4545	5.e-002	3.8563
9471	22.781	3.1818	0.	123.58
9472	22.69	3.2727	0.	128.71
9473	22.781	3.2727	5.e-002	3.5125
9474	22.781	3.	0.	119.67
9475	22.69	3.0909	0.	121.98
9476	22.781	3.0909	5.e-002	3.3243
9477	22.781	2.8182	0.	123.58
9478	22.69	2.9091	0.	121.98
9479	22.781	2.9091	5.e-002	3.3243
9480	22.781	2.6364	0.	135.22
9481	22.69	2.7273	0.	128.71
9482	22.781	2.7273	5.e-002	3.5125
9483	22.781	2.4545	0.	153.63
9484	22.69	2.5455	0.	141.77
9485	22.781	2.5455	5.e-002	3.8564
9486	22.781	2.2727	0.	175.61
9487	22.69	2.3636	0.	159.42
9488	22.781	2.3636	5.e-002	4.2367
9489	22.781	2.0909	0.	195.56
9490	22.69	2.1818	0.	177.83
9491	22.781	2.1818	5.e-002	4.4554
9492	22.781	1.9091	0.	207.39
9493	22.69	2.	0.	191.7
9494	22.781	2.	5.e-002	4.5038
9495	22.781	1.7273	0.	207.35
9496	22.69	1.8182	0.	196.5
9497	22.781	1.8182	5.e-002	4.634
9498	22.781	1.5455	0.	195.52
9499	22.69	1.6364	0.	190.59
9500	22.781	1.6364	5.e-002	4.9529
9501	22.781	1.3636	0.	174.94
9502	22.69	1.4545	0.	175.43
9503	22.781	1.4545	5.e-002	5.2375
9504	22.781	1.1818	0.	149.46
9505	22.69	1.2727	0.	154.12
9506	22.781	1.2727	5.e-002	5.3469
9507	22.781	1.	0.	122.29
9508	22.69	1.0909	0.	129.77
9509	22.781	1.0909	5.e-002	5.2897
9510	22.781	0.81818	0.	95.541
9511	22.69	0.90909	0.	104.69
9512	22.781	0.90909	5.e-002	5.1422
9513	22.781	0.63636	0.	70.476
9514	22.69	0.72727	0.	80.403
9515	22.781	0.72727	5.e-002	4.9655
9516	22.781	0.45455	0.	47.757
9517	22.69	0.54545	0.	57.818
9518	22.781	0.54545	5.e-002	4.7981
9519	22.781	0.27273	0.	27.725
9520	22.69	0.36364	0.	37.376
9521	22.781	0.36364	5.e-002	4.6215
9522	22.69	0.18182	0.	19.58
9523	22.781	0.18182	5.e-002	3.8872
9524	22.781	9.0909e-002	0.	10.959
9525	22.598	5.7273	0.	28.863
9526	22.506	5.8182	0.	21.196
9527	22.598	5.8182	5.e-002	3.6845
9528	22.598	5.9091	0.	12.246
9529	22.598	5.5455	0.	47.371
9530	22.506	5.6364	0.	37.678
9531	22.598	5.6364	5.e-002	4.6109
9532	22.598	5.3636	0.	67.854
9533	22.506	5.4545	0.	56.338
9534	22.598	5.4545	5.e-002	4.7541
9535	22.598	5.1818	0.	89.797
9536	22.506	5.2727	0.	76.397
9537	22.598	5.2727	5.e-002	4.8529
9538	22.598	5.	0.	112.49
9539	22.506	5.0909	0.	97.363
9540	22.598	5.0909	5.e-002	4.9399
9541	22.598	4.8182	0.	134.75
9542	22.506	4.9091	0.	118.35
9543	22.598	4.9091	5.e-002	4.988
9544	22.598	4.6364	0.	154.83
9545	22.506	4.7273	0.	138.06
9546	22.598	4.7273	5.e-002	4.9617
9547	22.598	4.4545	0.	170.53
9548	22.506	4.5455	0.	154.75
9549	22.598	4.5455	5.e-002	4.8373
9550	22.598	4.2727	0.	179.61
9551	22.506	4.3636	0.	166.44
9552	22.598	4.3636	5.e-002	4.6361
9553	22.598	4.0909	0.	180.63
9554	22.506	4.1818	0.	171.5
9555	22.598	4.1818	5.e-002	4.4413
9556	22.598	3.9091	0.	173.9
9557	22.506	4.	0.	169.4
9558	22.598	4.	5.e-002	4.3172
9559	22.598	3.7273	0.	161.72
9560	22.506	3.8182	0.	161.33
9561	22.598	3.8182	5.e-002	4.2297
9562	22.598	3.5455	0.	147.64
9563	22.506	3.6364	0.	149.93
9564	22.598	3.6364	5.e-002	4.0965
9565	22.598	3.3636	0.	135.23
9566	22.506	3.4545	0.	138.42
9567	22.598	3.4545	5.e-002	3.9056
9568	22.598	3.1818	0.	126.96
9569	22.506	3.2727	0.	129.44
9570	22.598	3.2727	5.e-002	3.7189
9571	22.598	3.	0.	124.09
9572	22.506	3.0909	0.	124.62
9573	22.598	3.0909	5.e-002	3.6084
9574	22.598	2.8182	0.	126.96
9575	22.506	2.9091	0.	124.62
9576	22.598	2.9091	5.e-002	3.6084
9577	22.598	2.6364	0.	135.23
9578	22.506	2.7273	0.	129.44
9579	22.598	2.7273	5.e-002	3.7189
9580	22.598	2.4545	0.	147.64
9581	22.506	2.5455	0.	138.42
9582	22.598	2.5455	5.e-002	3.9057
9583	22.598	2.2727	0.	161.72
9584	22.506	2.3636	0.	149.93
9585	22.598	2.3636	5.e-002	4.0965
9586	22.598	2.0909	0.	173.9
9587	22.506	2.1818	0.	161.33
9588	22.598	2.1818	5.e-002	4.2297
9589	22.598	1.9091	0.	180.63
9590	22.506	2.	0.	169.4
9591	22.598	2.	5.e-002	4.3172
9592	22.598	1.7273	0.	179.61
9593	22.506	1.8182	0.	171.5
9594	22.598	1.8182	5.e-002	4.4414
9595	22.598	1.5455	0.	170.53
9596	22.506	1.6364	0.	166.44
9597	22.598	1.6364	5.e-002	4.6361
9598	22.598	1.3636	0.	154.83
9599	22.506	1.4545	0.	154.75
9600	22.598	1.4545	5.e-002	4.8373
9601	22.598	1.1818	0.	134.75
9602	22.506	1.2727	0.	138.06
9603	22.598	1.2727	5.e-002	4.9617
9604	22.598	1.	0.	112.49
9605	22.506	1.0909	0.	118.35
9606	22.598	1.0909	5.e-002	4.988
9607	22.598	0.81818	0.	89.797
9608	22.506	0.90909	0.	97.363
9609	22.598	0.90909	5.e-002	4.9399
9610	22.598	0.63636	0.	67.854
9611	22.506	0.72727	0.	76.397
9612	22.598	0.72727	5.e-002	4.8529
9613	22.598	0.45455	0.	47.371
9614	22.506	0.54545	0.	56.338
9615	22.598	0.54545	5.e-002	4.7541
9616	22.598	0.27273	0.	28.863
9617	22.506	0.36364	0.	37.678
9618	22.598	0.36364	5.e-002	4.6109
9619	22.506	0.18182	0.	21.196
9620	22.598	0.18182	5.e-002	3.6845
9621	22.598	9.0909e-002	0.	12.246
9622	22.414	5.7273	0.	29.653
9623	22.322	5.8182	0.	22.555
9624	22.414	5.8182	5.e-002	3.4376
9625	22.414	5.9091	0.	13.366
9626	22.414	5.5455	0.	46.547
9627	22.322	5.6364	0.	37.574
9628	22.414	5.6364	5.e-002	4.5626
9629	22.414	5.3636	0.	64.912
9630	22.322	5.4545	0.	54.48
9631	22.414	5.4545	5.e-002	4.6855
9632	22.414	5.1818	0.	84.09
9633	22.322	5.2727	0.	72.243
9634	22.414	5.2727	5.e-002	4.738
9635	22.414	5.	0.	103.41
9636	22.322	5.0909	0.	90.366
9637	22.414	5.0909	5.e-002	4.7708
9638	22.414	4.8182	0.	121.85
9639	22.322	4.9091	0.	108.07
9640	22.414	4.9091	5.e-002	4.7689
9641	22.414	4.6364	0.	138.11
9642	22.322	4.7273	0.	124.32
9643	22.414	4.7273	5.e-002	4.7162
9644	22.414	4.4545	0.	150.7
9645	22.322	4.5455	0.	137.86
9646	22.414	4.5455	5.e-002	4.6092
9647	22.414	4.2727	0.	158.29
9648	22.322	4.3636	0.	147.46
9649	22.414	4.3636	5.e-002	4.4693
9650	22.414	4.0909	0.	160.21
9651	22.322	4.1818	0.	152.21
9652	22.414	4.1818	5.e-002	4.3358
9653	22.414	3.9091	0.	156.81
9654	22.322	4.	0.	151.98
9655	22.414	4.	5.e-002	4.2359
9656	22.414	3.7273	0.	149.57
9657	22.322	3.8182	0.	147.61
9658	22.414	3.8182	5.e-002	4.1573
9659	22.414	3.5455	0.	140.74
9660	22.322	3.6364	0.	140.75
9661	22.414	3.6364	5.e-002	4.0695
9662	22.414	3.3636	0.	132.61
9663	22.322	3.4545	0.	133.46
9664	22.414	3.4545	5.e-002	3.9638
9665	22.414	3.1818	0.	127.02
9666	22.322	3.2727	0.	127.54
9667	22.414	3.2727	5.e-002	3.8639
9668	22.414	3.	0.	125.04
9669	22.322	3.0909	0.	124.28
9670	22.414	3.0909	5.e-002	3.8033
9671	22.414	2.8182	0.	127.02
9672	22.322	2.9091	0.	124.28
9673	22.414	2.9091	5.e-002	3.8033
9674	22.414	2.6364	0.	132.61
9675	22.322	2.7273	0.	127.54
9676	22.414	2.7273	5.e-002	3.8639
9677	22.414	2.4545	0.	140.74
9678	22.322	2.5455	0.	133.46
9679	22.414	2.5455	5.e-002	3.9638
9680	22.414	2.2727	0.	149.57
9681	22.322	2.3636	0.	140.75
9682	22.414	2.3636	5.e-002	4.0695
9683	22.414	2.0909	0.	156.81
9684	22.322	2.1818	0.	147.61
9685	22.414	2.1818	5.e-002	4.1573
9686	22.414	1.9091	0.	160.21
9687	22.322	2.	0.	151.98
9688	22.414	2.	5.e-002	4.2359
9689	22.414	1.7273	0.	158.29
9690	22.322	1.8182	0.	152.21
9691	22.414	1.8182	5.e-002	4.3358
9692	22.414	1.5455	0.	150.7
9693	22.322	1.6364	0.	147.46
9694	22.414	1.6364	5.e-002	4.4693
9695	22.414	1.3636	0.	138.11
9696	22.322	1.4545	0.	137.86
9697	22.414	1.4545	5.e-002	4.6092
9698	22.414	1.1818	0.	121.85
9699	22.322	1.2727	0.	124.32
9700	22.414	1.2727	5.e-002	4.7162
9701	22.414	1.	0.	103.41
9702	22.322	1.0909	0.	108.07
9703	22.414	1.0909	5.e-002	4.7689
9704	22.414	0.81818	0.	84.09
9705	22.322	0.90909	0.	90.366
9706	22.414	0.90909	5.e-002	4.7708
9707	22.414	0.63636	0.	64.912
9708	22.322	0.72727	0.	72.243
9709	22.414	0.72727	5.e-002	4.738
9710	22.414	0.45455	0.	46.547
9711	22.322	0.54545	0.	54.48
9712	22.414	0.54545	5.e-002	4.6855
9713	22.414	0.27273	0.	29.654
9714	22.322	0.36364	0.	37.574
9715	22.414	0.36364	5.e-002	4.5626
9716	22.322	0.18182	0.	22.555
9717	22.414	0.18182	5.e-002	3.4375
9718	22.414	9.0909e-002	0.	13.366
9719	22.23	5.7273	0.	30.137
9720	22.138	5.8182	0.	23.663
9721	22.23	5.8182	5.e-002	3.17
9722	22.23	5.9091	0.	14.311
9723	22.23	5.5455	0.	45.396
9724	22.138	5.6364	0.	37.158
9725	22.23	5.6364	5.e-002	4.4952
9726	22.23	5.3636	0.	61.796
9727	22.138	5.4545	0.	52.384
9728	22.23	5.4545	5.e-002	4.6094
9729	22.23	5.1818	0.	78.574
9730	22.138	5.2727	0.	68.096
9731	22.23	5.2727	5.e-002	4.6339
9732	22.23	5.	0.	95.125
9733	22.138	5.0909	0.	83.822
9734	22.23	5.0909	5.e-002	4.6373
9735	22.23	4.8182	0.	110.64
9736	22.138	4.9091	0.	98.91
9737	22.23	4.9091	5.e-002	4.6142
9738	22.23	4.6364	0.	124.14
9739	22.138	4.7273	0.	112.56
9740	22.23	4.7273	5.e-002	4.5586
9741	22.23	4.4545	0.	134.65
9742	22.138	4.5455	0.	123.9
9743	22.23	4.5455	5.e-002	4.4737
9744	22.23	4.2727	0.	141.37
9745	22.138	4.3636	0.	132.14
9746	22.23	4.3636	5.e-002	4.374
9747	22.23	4.0909	0.	143.97
9748	22.138	4.1818	0.	136.79
9749	22.23	4.1818	5.e-002	4.2799
9750	22.23	3.9091	0.	142.78
9751	22.138	4.	0.	137.83
9752	22.23	4.	5.e-002	4.2037
9753	22.23	3.7273	0.	138.8
9754	22.138	3.8182	0.	135.88
9755	22.23	3.8182	5.e-002	4.1417
9756	22.23	3.5455	0.	133.48
9757	22.138	3.6364	0.	132.04
9758	22.23	3.6364	5.e-002	4.0822
9759	22.23	3.3636	0.	128.36
9760	22.138	3.4545	0.	127.62
9761	22.23	3.4545	5.e-002	4.0209
9762	22.23	3.1818	0.	124.74
9763	22.138	3.2727	0.	123.9
9764	22.23	3.2727	5.e-002	3.9665
9765	22.23	3.	0.	123.44
9766	22.138	3.0909	0.	121.8
9767	22.23	3.0909	5.e-002	3.934
9768	22.23	2.8182	0.	124.74
9769	22.138	2.9091	0.	121.8
9770	22.23	2.9091	5.e-002	3.934
9771	22.23	2.6364	0.	128.36
9772	22.138	2.7273	0.	123.9
9773	22.23	2.7273	5.e-002	3.9666
9774	22.23	2.4545	0.	133.48
9775	22.138	2.5455	0.	127.62
9776	22.23	2.5455	5.e-002	4.0209
9777	22.23	2.2727	0.	138.8
9778	22.138	2.3636	0.	132.04
9779	22.23	2.3636	5.e-002	4.0822
9780	22.23	2.0909	0.	142.78
9781	22.138	2.1818	0.	135.88
9782	22.23	2.1818	5.e-002	4.1417
9783	22.23	1.9091	0.	143.97
9784	22.138	2.	0.	137.83
9785	22.23	2.	5.e-002	4.2037
9786	22.23	1.7273	0.	141.37
9787	22.138	1.8182	0.	136.79
9788	22.23	1.8182	5.e-002	4.2799
9789	22.23	1.5455	0.	134.65
9790	22.138	1.6364	0.	132.14
9791	22.23	1.6364	5.e-002	4.374
9792	22.23	1.3636	0.	124.14
9793	22.138	1.4545	0.	123.9
9794	22.23	1.4545	5.e-002	4.4737
9795	22.23	1.1818	0.	110.64
9796	22.138	1.2727	0.	112.56
9797	22.23	1.2727	5.e-002	4.5586
9798	22.23	1.	0.	95.125
9799	22.138	1.0909	0.	98.91
9800	22.23	1.0909	5.e-002	4.6142
9801	22.23	0.81818	0.	78.574
9802	22.138	0.90909	0.	83.822
9803	22.23	0.90909	5.e-002	4.6373
9804	22.23	0.63636	0.	61.797
9805	22.138	0.72727	0.	68.097
9806	22.23	0.72727	5.e-002	4.6339
9807	22.23	0.45455	0.	45.396
9808	22.138	0.54545	0.	52.384
9809	22.23	0.54545	5.e-002	4.6094
9810	22.23	0.27273	0.	30.137
9811	22.138	0.36364	0.	37.158
9812	22.23	0.36364	5.e-002	4.4952
9813	22.138	0.18182	0.	23.663
9814	22.23	0.18182	5.e-002	3.17
9815	22.23	9.0909e-002	0.	14.311
9816	22.047	5.7273	0.	30.366
9817	21.955	5.8182	0.	24.538
9818	22.047	5.8182	5.e-002	2.8991
9819	22.047	5.9091	0.	15.087
9820	22.047	5.5455	0.	44.032
9821	21.955	5.6364	0.	36.521
9822	22.047	5.6364	5.e-002	4.4214
9823	22.047	5.3636	0.	58.643
9824	21.955	5.4545	0.	50.175
9825	22.047	5.4545	5.e-002	4.5357
9826	22.047	5.1818	0.	73.356
9827	21.955	5.2727	0.	64.078
9828	22.047	5.2727	5.e-002	4.5451
9829	22.047	5.	0.	87.651
9830	21.955	5.0909	0.	77.794
9831	22.047	5.0909	5.e-002	4.5347
9832	22.047	4.8182	0.	100.89
9833	21.955	4.9091	0.	90.793
9834	22.047	4.9091	5.e-002	4.5052
9835	22.047	4.6364	0.	112.37
9836	21.955	4.7273	0.	102.47
9837	22.047	4.7273	5.e-002	4.4556
9838	22.047	4.4545	0.	121.42
9839	21.955	4.5455	0.	112.22
9840	22.047	4.5455	5.e-002	4.3899
9841	22.047	4.2727	0.	127.57
9842	21.955	4.3636	0.	119.52
9843	22.047	4.3636	5.e-002	4.3178
9844	22.047	4.0909	0.	130.65
9845	21.955	4.1818	0.	124.09
9846	22.047	4.1818	5.e-002	4.25
9847	22.047	3.9091	0.	130.94
9848	21.955	4.	0.	125.99
9849	22.047	4.	5.e-002	4.1934
9850	22.047	3.7273	0.	129.12
9851	21.955	3.8182	0.	125.64
9852	22.047	3.8182	5.e-002	4.147
9853	22.047	3.5455	0.	126.17
9854	21.955	3.6364	0.	123.8
9855	22.047	3.6364	5.e-002	4.1065
9856	22.047	3.3636	0.	123.14
9857	21.955	3.4545	0.	121.36
9858	22.047	3.4545	5.e-002	4.0694
9859	22.047	3.1818	0.	120.92
9860	21.955	3.2727	0.	119.17
9861	22.047	3.2727	5.e-002	4.039
9862	22.047	3.	0.	120.11
9863	21.955	3.0909	0.	117.9
9864	22.047	3.0909	5.e-002	4.0214
9865	22.047	2.8182	0.	120.92
9866	21.955	2.9091	0.	117.9
9867	22.047	2.9091	5.e-002	4.0214
9868	22.047	2.6364	0.	123.14
9869	21.955	2.7273	0.	119.17
9870	22.047	2.7273	5.e-002	4.039
9871	22.047	2.4545	0.	126.17
9872	21.955	2.5455	0.	121.36
9873	22.047	2.5455	5.e-002	4.0694
9874	22.047	2.2727	0.	129.12
9875	21.955	2.3636	0.	123.8
9876	22.047	2.3636	5.e-002	4.1065
9877	22.047	2.0909	0.	130.94
9878	21.955	2.1818	0.	125.64
9879	22.047	2.1818	5.e-002	4.147
9880	22.047	1.9091	0.	130.65
9881	21.955	2.	0.	125.99
9882	22.047	2.	5.e-002	4.1934
9883	22.047	1.7273	0.	127.57
9884	21.955	1.8182	0.	124.09
9885	22.047	1.8182	5.e-002	4.25
9886	22.047	1.5455	0.	121.42
9887	21.955	1.6364	0.	119.52
9888	22.047	1.6364	5.e-002	4.3178
9889	22.047	1.3636	0.	112.37
9890	21.955	1.4545	0.	112.22
9891	22.047	1.4545	5.e-002	4.3899
9892	22.047	1.1818	0.	100.89
9893	21.955	1.2727	0.	102.47
9894	22.047	1.2727	5.e-002	4.4556
9895	22.047	1.	0.	87.651
9896	21.955	1.0909	0.	90.793
9897	22.047	1.0909	5.e-002	4.5052
9898	22.047	0.81818	0.	73.356
9899	21.955	0.90909	0.	77.794
9900	22.047	0.90909	5.e-002	4.5347
9901	22.047	0.63636	0.	58.643
9902	21.955	0.72727	0.	64.078
9903	22.047	0.72727	5.e-002	4.5451
9904	22.047	0.45455	0.	44.032
9905	21.955	0.54545	0.	50.175
9906	22.047	0.54545	5.e-002	4.5357
9907	22.047	0.27273	0.	30.366
9908	21.955	0.36364	0.	36.521
9909	22.047	0.36364	5.e-002	4.4214
9910	21.955	0.18182	0.	24.538
9911	22.047	0.18182	5.e-002	2.8991
9912	22.047	9.0909e-002	0.	15.087
9913	21.863	5.7273	0.	30.395
9914	21.771	5.8182	0.	25.207
9915	21.863	5.8182	5.e-002	2.6363
9916	21.863	5.9091	0.	15.707
9917	21.863	5.5455	0.	42.552
9918	21.771	5.6364	0.	35.74
9919	21.863	5.6364	5.e-002	4.3492
9920	21.863	5.3636	0.	55.554
9921	21.771	5.4545	0.	47.95
9922	21.863	5.4545	5.e-002	4.4694
9923	21.863	5.1818	0.	68.5
9924	21.771	5.2727	0.	60.266
9925	21.863	5.2727	5.e-002	4.472
9926	21.863	5.	0.	80.946
9927	21.771	5.0909	0.	72.297
9928	21.863	5.0909	5.e-002	4.4567
9929	21.863	4.8182	0.	92.397
9930	21.771	4.9091	0.	83.611
9931	21.863	4.9091	5.e-002	4.4279
9932	21.863	4.6364	0.	102.34
9933	21.771	4.7273	0.	93.755
9934	21.863	4.7273	5.e-002	4.3866
9935	21.863	4.4545	0.	110.32
9936	21.771	4.5455	0.	102.3
9937	21.863	4.5455	5.e-002	4.3364
9938	21.863	4.2727	0.	116.04
9939	21.771	4.3636	0.	108.89
9940	21.863	4.3636	5.e-002	4.2836
9941	21.863	4.0909	0.	119.43
9942	21.771	4.1818	0.	113.38
9943	21.863	4.1818	5.e-002	4.2344
9944	21.863	3.9091	0.	120.7
9945	21.771	4.	0.	115.83
9946	21.863	4.	5.e-002	4.1927
9947	21.863	3.7273	0.	120.32
9948	21.771	3.8182	0.	116.55
9949	21.863	3.8182	5.e-002	4.1589
9950	21.863	3.5455	0.	118.98
9951	21.771	3.6364	0.	116.05
9952	21.863	3.6364	5.e-002	4.131
9953	21.863	3.3636	0.	117.37
9954	21.771	3.4545	0.	114.93
9955	21.863	3.4545	5.e-002	4.1078
9956	21.863	3.1818	0.	116.12
9957	21.771	3.2727	0.	113.8
9958	21.863	3.2727	5.e-002	4.0901
9959	21.863	3.	0.	115.65
9960	21.771	3.0909	0.	113.11
9961	21.863	3.0909	5.e-002	4.0803
9962	21.863	2.8182	0.	116.12
9963	21.771	2.9091	0.	113.11
9964	21.863	2.9091	5.e-002	4.0803
9965	21.863	2.6364	0.	117.37
9966	21.771	2.7273	0.	113.8
9967	21.863	2.7273	5.e-002	4.0901
9968	21.863	2.4545	0.	118.98
9969	21.771	2.5455	0.	114.93
9970	21.863	2.5455	5.e-002	4.1078
9971	21.863	2.2727	0.	120.32
9972	21.771	2.3636	0.	116.05
9973	21.863	2.3636	5.e-002	4.131
9974	21.863	2.0909	0.	120.7
9975	21.771	2.1818	0.	116.55
9976	21.863	2.1818	5.e-002	4.1589
9977	21.863	1.9091	0.	119.43
9978	21.771	2.	0.	115.83
9979	21.863	2.	5.e-002	4.1927
9980	21.863	1.7273	0.	116.04
9981	21.771	1.8182	0.	113.38
9982	21.863	1.8182	5.e-002	4.2344
9983	21.863	1.5455	0.	110.32
9984	21.771	1.6364	0.	108.89
9985	21.863	1.6364	5.e-002	4.2836
9986	21.863	1.3636	0.	102.34
9987	21.771	1.4545	0.	102.3
9988	21.863	1.4545	5.e-002	4.3364
9989	21.863	1.1818	0.	92.397
9990	21.771	1.2727	0.	93.755
9991	21.863	1.2727	5.e-002	4.3866
9992	21.863	1.	0.	80.947
9993	21.771	1.0909	0.	83.611
9994	21.863	1.0909	5.e-002	4.4279
9995	21.863	0.81818	0.	68.5
9996	21.771	0.90909	0.	72.297
9997	21.863	0.90909	5.e-002	4.4567
9998	21.863	0.63636	0.	55.554
9999	21.771	0.72727	0.	60.266
10000	21.863	0.72727	5.e-002	4.472
10001	21.863	0.45455	0.	42.552
10002	21.771	0.54545	0.	47.95
10003	21.863	0.54545	5.e-002	4.4694
10004	21.863	0.27273	0.	30.395
10005	21.771	0.36364	0.	35.74
10006	21.863	0.36364	5.e-002	4.3492
10007	21.771	0.18182	0.	25.207
10008	21.863	0.18182	5.e-002	2.6363
10009	21.863	9.0909e-002	0.	15.707
10010	21.679	5.7273	0.	30.272
10011	21.587	5.8182	0.	25.697
10012	21.679	5.8182	5.e-002	2.3885
10013	21.679	5.9091	0.	16.189
10014	21.679	5.5455	0.	41.03
10015	21.587	5.6364	0.	34.876
10016	21.679	5.6364	5.e-002	4.2831
10017	21.679	5.3636	0.	52.599
10018	21.587	5.4545	0.	45.776
10019	21.679	5.4545	5.e-002	4.4125
10020	21.679	5.1818	0.	64.031
10021	21.587	5.2727	0.	56.706
10022	21.679	5.2727	5.e-002	4.4133
10023	21.679	5.	0.	74.951
10024	21.587	5.0909	0.	67.315
10025	21.679	5.0909	5.e-002	4.3976
10026	21.679	4.8182	0.	84.971
10027	21.587	4.9091	0.	77.253
10028	21.679	4.9091	5.e-002	4.3725
10029	21.679	4.6364	0.	93.715
10030	21.587	4.7273	0.	86.176
10031	21.679	4.7273	5.e-002	4.3394
10032	21.679	4.4545	0.	100.87
10033	21.587	4.5455	0.	93.772
10034	21.679	4.5455	5.e-002	4.3014
10035	21.679	4.2727	0.	106.24
10036	21.587	4.3636	0.	99.81
10037	21.679	4.3636	5.e-002	4.2625
10038	21.679	4.0909	0.	109.79
10039	21.587	4.1818	0.	104.19
10040	21.679	4.1818	5.e-002	4.2266
10041	21.679	3.9091	0.	111.69
10042	21.587	4.	0.	106.97
10043	21.679	4.	5.e-002	4.1961
10044	21.679	3.7273	0.	112.27
10045	21.587	3.8182	0.	108.38
10046	21.679	3.8182	5.e-002	4.1715
10047	21.679	3.5455	0.	111.99
10048	21.587	3.6364	0.	108.76
10049	21.679	3.6364	5.e-002	4.1521
10050	21.679	3.3636	0.	111.35
10051	21.587	3.4545	0.	108.54
10052	21.679	3.4545	5.e-002	4.1371
10053	21.679	3.1818	0.	110.76
10054	21.587	3.2727	0.	108.12
10055	21.679	3.2727	5.e-002	4.1264
10056	21.679	3.	0.	110.54
10057	21.587	3.0909	0.	107.82
10058	21.679	3.0909	5.e-002	4.1207
10059	21.679	2.8182	0.	110.77
10060	21.587	2.9091	0.	107.82
10061	21.679	2.9091	5.e-002	4.1207
10062	21.679	2.6364	0.	111.35
10063	21.587	2.7273	0.	108.12
10064	21.679	2.7273	5.e-002	4.1264
10065	21.679	2.4545	0.	111.99
10066	21.587	2.5455	0.	108.54
10067	21.679	2.5455	5.e-002	4.1371
10068	21.679	2.2727	0.	112.27
10069	21.587	2.3636	0.	108.76
10070	21.679	2.3636	5.e-002	4.1521
10071	21.679	2.0909	0.	111.69
10072	21.587	2.1818	0.	108.38
10073	21.679	2.1818	5.e-002	4.1715
10074	21.679	1.9091	0.	109.79
10075	21.587	2.	0.	106.97
10076	21.679	2.	5.e-002	4.1961
10077	21.679	1.7273	0.	106.24
10078	21.587	1.8182	0.	104.19
10079	21.679	1.8182	5.e-002	4.2266
10080	21.679	1.5455	0.	100.87
10081	21.587	1.6364	0.	99.81
10082	21.679	1.6364	5.e-002	4.2625
10083	21.679	1.3636	0.	93.715
10084	21.587	1.4545	0.	93.772
10085	21.679	1.4545	5.e-002	4.3014
10086	21.679	1.1818	0.	84.971
10087	21.587	1.2727	0.	86.176
10088	21.679	1.2727	5.e-002	4.3394
10089	21.679	1.	0.	74.951
10090	21.587	1.0909	0.	77.253
10091	21.679	1.0909	5.e-002	4.3725
10092	21.679	0.81818	0.	64.031
10093	21.587	0.90909	0.	67.315
10094	21.679	0.90909	5.e-002	4.3976
10095	21.679	0.63636	0.	52.599
10096	21.587	0.72727	0.	56.706
10097	21.679	0.72727	5.e-002	4.4133
10098	21.679	0.45455	0.	41.03
10099	21.587	0.54545	0.	45.776
10100	21.679	0.54545	5.e-002	4.4125
10101	21.679	0.27273	0.	30.273
10102	21.587	0.36364	0.	34.876
10103	21.679	0.36364	5.e-002	4.2831
10104	21.587	0.18182	0.	25.697
10105	21.679	0.18182	5.e-002	2.3885
10106	21.679	9.0909e-002	0.	16.189
10107	21.495	5.7273	0.	30.038
10108	21.403	5.8182	0.	26.036
10109	21.495	5.8182	5.e-002	2.1592
10110	21.495	5.9091	0.	16.55
10111	21.495	5.5455	0.	39.519
10112	21.403	5.6364	0.	33.973
10113	21.495	5.6364	5.e-002	4.2252
10114	21.495	5.3636	0.	49.817
10115	21.403	5.4545	0.	43.695
10116	21.495	5.4545	5.e-002	4.3653
10117	21.495	5.1818	0.	59.949
10118	21.403	5.2727	0.	53.415
10119	21.495	5.2727	5.e-002	4.3669
10120	21.495	5.	0.	69.594
10121	21.403	5.0909	0.	62.816
10122	21.495	5.0909	5.e-002	4.3531
10123	21.495	4.8182	0.	78.446
10124	21.403	4.9091	0.	71.612
10125	21.495	4.9091	5.e-002	4.3325
10126	21.495	4.6364	0.	86.226
10127	21.403	4.7273	0.	79.539
10128	21.495	4.7273	5.e-002	4.3067
10129	21.495	4.4545	0.	92.707
10130	21.403	4.5455	0.	86.365
10131	21.495	4.5455	5.e-002	4.2781
10132	21.495	4.2727	0.	97.757
10133	21.403	4.3636	0.	91.93
10134	21.495	4.3636	5.e-002	4.2494
10135	21.495	4.0909	0.	101.37
10136	21.403	4.1818	0.	96.167
10137	21.495	4.1818	5.e-002	4.2231
10138	21.495	3.9091	0.	103.65
10139	21.403	4.	0.	99.123
10140	21.495	4.	5.e-002	4.2008
10141	21.495	3.7273	0.	104.85
10142	21.403	3.8182	0.	100.96
10143	21.495	3.8182	5.e-002	4.183
10144	21.495	3.5455	0.	105.29
10145	21.403	3.6364	0.	101.91
10146	21.495	3.6364	5.e-002	4.1693
10147	21.495	3.3636	0.	105.29
10148	21.403	3.4545	0.	102.28
10149	21.495	3.4545	5.e-002	4.1593
10150	21.495	3.1818	0.	105.15
10151	21.403	3.2727	0.	102.34
10152	21.495	3.2727	5.e-002	4.1526
10153	21.495	3.	0.	105.08
10154	21.403	3.0909	0.	102.3
10155	21.495	3.0909	5.e-002	4.1491
10156	21.495	2.8182	0.	105.15
10157	21.403	2.9091	0.	102.3
10158	21.495	2.9091	5.e-002	4.1491
10159	21.495	2.6364	0.	105.29
10160	21.403	2.7273	0.	102.34
10161	21.495	2.7273	5.e-002	4.1525
10162	21.495	2.4545	0.	105.29
10163	21.403	2.5455	0.	102.28
10164	21.495	2.5455	5.e-002	4.1593
10165	21.495	2.2727	0.	104.85
10166	21.403	2.3636	0.	101.91
10167	21.495	2.3636	5.e-002	4.1693
10168	21.495	2.0909	0.	103.65
10169	21.403	2.1818	0.	100.96
10170	21.495	2.1818	5.e-002	4.183
10171	21.495	1.9091	0.	101.37
10172	21.403	2.	0.	99.123
10173	21.495	2.	5.e-002	4.2008
10174	21.495	1.7273	0.	97.757
10175	21.403	1.8182	0.	96.167
10176	21.495	1.8182	5.e-002	4.2231
10177	21.495	1.5455	0.	92.707
10178	21.403	1.6364	0.	91.93
10179	21.495	1.6364	5.e-002	4.2494
10180	21.495	1.3636	0.	86.226
10181	21.403	1.4545	0.	86.366
10182	21.495	1.4545	5.e-002	4.2781
10183	21.495	1.1818	0.	78.446
10184	21.403	1.2727	0.	79.539
10185	21.495	1.2727	5.e-002	4.3067
10186	21.495	1.	0.	69.594
10187	21.403	1.0909	0.	71.612
10188	21.495	1.0909	5.e-002	4.3325
10189	21.495	0.81818	0.	59.949
10190	21.403	0.90909	0.	62.816
10191	21.495	0.90909	5.e-002	4.3531
10192	21.495	0.63636	0.	49.817
10193	21.403	0.72727	0.	53.415
10194	21.495	0.72727	5.e-002	4.3669
10195	21.495	0.45455	0.	39.519
10196	21.403	0.54545	0.	43.695
10197	21.495	0.54545	5.e-002	4.3653
10198	21.495	0.27273	0.	30.038
10199	21.403	0.36364	0.	33.973
10200	21.495	0.36364	5.e-002	4.2252
10201	21.403	0.18182	0.	26.036
10202	21.495	0.18182	5.e-002	2.1592
10203	21.495	9.0909e-002	0.	16.55
10204	21.312	5.7273	0.	29.722
10205	21.22	5.8182	0.	26.249
10206	21.312	5.8182	5.e-002	1.9495
10207	21.312	5.9091	0.	16.809
10208	21.312	5.5455	0.	38.052
10209	21.22	5.6364	0.	33.061
10210	21.312	5.6364	5.e-002	4.1761
10211	21.312	5.3636	0.	47.226
10212	21.22	5.4545	0.	41.731
10213	21.312	5.4545	5.e-002	4.3274
10214	21.312	5.1818	0.	56.236
10215	21.22	5.2727	0.	50.393
10216	21.312	5.2727	5.e-002	4.3308
10217	21.312	5.	0.	64.803
10218	21.22	5.0909	0.	58.758
10219	21.312	5.0909	5.e-002	4.3198
10220	21.312	4.8182	0.	72.684
10221	21.22	4.9091	0.	66.592
10222	21.312	4.9091	5.e-002	4.3036
10223	21.312	4.6364	0.	79.663
10224	21.22	4.7273	0.	73.687
10225	21.312	4.7273	5.e-002	4.2839
10226	21.312	4.4545	0.	85.576
10227	21.22	4.5455	0.	79.867
10228	21.312	4.5455	5.e-002	4.2626
10229	21.312	4.2727	0.	90.328
10230	21.22	4.3636	0.	85.013
10231	21.312	4.3636	5.e-002	4.2415
10232	21.312	4.0909	0.	93.912
10233	21.22	4.1818	0.	89.079
10234	21.312	4.1818	5.e-002	4.2222
10235	21.312	3.9091	0.	96.415
10236	21.22	4.	0.	92.097
10237	21.312	4.	5.e-002	4.2059
10238	21.312	3.7273	0.	98.001
10239	21.22	3.8182	0.	94.179
10240	21.312	3.8182	5.e-002	4.193
10241	21.312	3.5455	0.	98.889
10242	21.22	3.6364	0.	95.493
10243	21.312	3.6364	5.e-002	4.1833
10244	21.312	3.3636	0.	99.31
10245	21.22	3.4545	0.	96.237
10246	21.312	3.4545	5.e-002	4.1763
10247	21.312	3.1818	0.	99.47
10248	21.22	3.2727	0.	96.605
10249	21.312	3.2727	5.e-002	4.1719
10250	21.312	3.	0.	99.506
10251	21.22	3.0909	0.	96.747
10252	21.312	3.0909	5.e-002	4.1697
10253	21.312	2.8182	0.	99.47
10254	21.22	2.9091	0.	96.747
10255	21.312	2.9091	5.e-002	4.1697
10256	21.312	2.6364	0.	99.31
10257	21.22	2.7273	0.	96.605
10258	21.312	2.7273	5.e-002	4.1719
10259	21.312	2.4545	0.	98.889
10260	21.22	2.5455	0.	96.237
10261	21.312	2.5455	5.e-002	4.1763
10262	21.312	2.2727	0.	98.001
10263	21.22	2.3636	0.	95.493
10264	21.312	2.3636	5.e-002	4.1833
10265	21.312	2.0909	0.	96.415
10266	21.22	2.1818	0.	94.179
10267	21.312	2.1818	5.e-002	4.193
10268	21.312	1.9091	0.	93.912
10269	21.22	2.	0.	92.097
10270	21.312	2.	5.e-002	4.2059
10271	21.312	1.7273	0.	90.328
10272	21.22	1.8182	0.	89.079
10273	21.312	1.8182	5.e-002	4.2222
10274	21.312	1.5455	0.	85.576
10275	21.22	1.6364	0.	85.013
10276	21.312	1.6364	5.e-002	4.2415
10277	21.312	1.3636	0.	79.663
10278	21.22	1.4545	0.	79.867
10279	21.312	1.4545	5.e-002	4.2626
10280	21.312	1.1818	0.	72.684
10281	21.22	1.2727	0.	73.687
10282	21.312	1.2727	5.e-002	4.2839
10283	21.312	1.	0.	64.803
10284	21.22	1.0909	0.	66.592
10285	21.312	1.0909	5.e-002	4.3036
10286	21.312	0.81818	0.	56.236
10287	21.22	0.90909	0.	58.758
10288	21.312	0.90909	5.e-002	4.3198
10289	21.312	0.63636	0.	47.227
10290	21.22	0.72727	0.	50.393
10291	21.312	0.72727	5.e-002	4.3308
10292	21.312	0.45455	0.	38.052
10293	21.22	0.54545	0.	41.731
10294	21.312	0.54545	5.e-002	4.3274
10295	21.312	0.27273	0.	29.722
10296	21.22	0.36364	0.	33.062
10297	21.312	0.36364	5.e-002	4.1761
10298	21.22	0.18182	0.	26.249
10299	21.312	0.18182	5.e-002	1.9495
10300	21.312	9.0909e-002	0.	16.809
10301	21.128	5.7273	0.	29.35
10302	21.036	5.8182	0.	26.357
10303	21.128	5.8182	5.e-002	1.7593
10304	21.128	5.9091	0.	16.981
10305	21.128	5.5455	0.	36.649
10306	21.036	5.6364	0.	32.161
10307	21.128	5.6364	5.e-002	4.1355
10308	21.128	5.3636	0.	44.831
10309	21.036	5.4545	0.	39.894
10310	21.128	5.4545	5.e-002	4.2977
10311	21.128	5.1818	0.	52.866
10312	21.036	5.2727	0.	47.628
10313	21.128	5.2727	5.e-002	4.3034
10314	21.128	5.	0.	60.51
10315	21.036	5.0909	0.	55.098
10316	21.128	5.0909	5.e-002	4.2952
10317	21.128	4.8182	0.	67.567
10318	21.036	4.9091	0.	62.109
10319	21.128	4.9091	5.e-002	4.2829
10320	21.128	4.6364	0.	73.868
10321	21.036	4.7273	0.	68.493
10322	21.128	4.7273	5.e-002	4.2682
10323	21.128	4.4545	0.	79.285
10324	21.036	4.5455	0.	74.114
10325	21.128	4.5455	5.e-002	4.2525
10326	21.128	4.2727	0.	83.747
10327	21.036	4.3636	0.	78.88
10328	21.128	4.3636	5.e-002	4.237
10329	21.128	4.0909	0.	87.248
10330	21.036	4.1818	0.	82.754
10331	21.128	4.1818	5.e-002	4.2229
10332	21.128	3.9091	0.	89.846
10333	21.036	4.	0.	85.755
10334	21.128	4.	5.e-002	4.211
10335	21.128	3.7273	0.	91.654
10336	21.036	3.8182	0.	87.959
10337	21.128	3.8182	5.e-002	4.2016
10338	21.128	3.5455	0.	92.823
10339	21.036	3.6364	0.	89.481
10340	21.128	3.6364	5.e-002	4.1947
10341	21.128	3.3636	0.	93.512
10342	21.036	3.4545	0.	90.458
10343	21.128	3.4545	5.e-002	4.1898
10344	21.128	3.1818	0.	93.862
10345	21.036	3.2727	0.	91.022
10346	21.128	3.2727	5.e-002	4.1868
10347	21.128	3.	0.	93.967
10348	21.036	3.0909	0.	91.275
10349	21.128	3.0909	5.e-002	4.1853
10350	21.128	2.8182	0.	93.862
10351	21.036	2.9091	0.	91.275
10352	21.128	2.9091	5.e-002	4.1853
10353	21.128	2.6364	0.	93.512
10354	21.036	2.7273	0.	91.022
10355	21.128	2.7273	5.e-002	4.1868
10356	21.128	2.4545	0.	92.823
10357	21.036	2.5455	0.	90.458
10358	21.128	2.5455	5.e-002	4.1898
10359	21.128	2.2727	0.	91.654
10360	21.036	2.3636	0.	89.481
10361	21.128	2.3636	5.e-002	4.1947
10362	21.128	2.0909	0.	89.846
10363	21.036	2.1818	0.	87.959
10364	21.128	2.1818	5.e-002	4.2016
10365	21.128	1.9091	0.	87.248
10366	21.036	2.	0.	85.755
10367	21.128	2.	5.e-002	4.211
10368	21.128	1.7273	0.	83.748
10369	21.036	1.8182	0.	82.754
10370	21.128	1.8182	5.e-002	4.2229
10371	21.128	1.5455	0.	79.285
10372	21.036	1.6364	0.	78.88
10373	21.128	1.6364	5.e-002	4.237
10374	21.128	1.3636	0.	73.868
10375	21.036	1.4545	0.	74.115
10376	21.128	1.4545	5.e-002	4.2525
10377	21.128	1.1818	0.	67.568
10378	21.036	1.2727	0.	68.493
10379	21.128	1.2727	5.e-002	4.2682
10380	21.128	1.	0.	60.511
10381	21.036	1.0909	0.	62.109
10382	21.128	1.0909	5.e-002	4.2829
10383	21.128	0.81818	0.	52.866
10384	21.036	0.90909	0.	55.098
10385	21.128	0.90909	5.e-002	4.2952
10386	21.128	0.63636	0.	44.831
10387	21.036	0.72727	0.	47.628
10388	21.128	0.72727	5.e-002	4.3034
10389	21.128	0.45455	0.	36.649
10390	21.036	0.54545	0.	39.894
10391	21.128	0.54545	5.e-002	4.2976
10392	21.128	0.27273	0.	29.35
10393	21.036	0.36364	0.	32.161
10394	21.128	0.36364	5.e-002	4.1355
10395	21.036	0.18182	0.	26.357
10396	21.128	0.18182	5.e-002	1.7593
10397	21.128	9.0909e-002	0.	16.981
10398	20.944	5.7273	0.	28.939
10399	20.852	5.8182	0.	26.378
10400	20.944	5.8182	5.e-002	1.5876
10401	20.944	5.9091	0.	17.081
10402	20.944	5.5455	0.	35.319
10403	20.852	5.6364	0.	31.283
10404	20.944	5.6364	5.e-002	4.1028
10405	20.944	5.3636	0.	42.625
10406	20.852	5.4545	0.	38.184
10407	20.944	5.4545	5.e-002	4.2751
10408	20.944	5.1818	0.	49.808
10409	20.852	5.2727	0.	45.101
10410	20.944	5.2727	5.e-002	4.2831
10411	20.944	5.	0.	56.655
10412	20.852	5.0909	0.	51.791
10413	20.944	5.0909	5.e-002	4.2775
10414	20.944	4.8182	0.	63.002
10415	20.852	4.9091	0.	58.089
10416	20.944	4.9091	5.e-002	4.2685
10417	20.944	4.6364	0.	68.713
10418	20.852	4.7273	0.	63.857
10419	20.944	4.7273	5.e-002	4.2578
10420	20.944	4.4545	0.	73.687
10421	20.852	4.5455	0.	68.985
10422	20.944	4.5455	5.e-002	4.2463
10423	20.944	4.2727	0.	77.867
10424	20.852	4.3636	0.	73.399
10425	20.944	4.3636	5.e-002	4.2351
10426	20.944	4.0909	0.	81.241
10427	20.852	4.1818	0.	77.064
10428	20.944	4.1818	5.e-002	4.2248
10429	20.944	3.9091	0.	83.849
10430	20.852	4.	0.	79.992
10431	20.944	4.	5.e-002	4.2162
10432	20.944	3.7273	0.	85.767
10433	20.852	3.8182	0.	82.232
10434	20.944	3.8182	5.e-002	4.2094
10435	20.944	3.5455	0.	87.097
10436	20.852	3.6364	0.	83.859
10437	20.944	3.6364	5.e-002	4.2043
10438	20.944	3.3636	0.	87.947
10439	20.852	3.4545	0.	84.968
10440	20.944	3.4545	5.e-002	4.2009
10441	20.944	3.1818	0.	88.413
10442	20.852	3.2727	0.	85.647
10443	20.944	3.2727	5.e-002	4.1987
10444	20.944	3.	0.	88.561
10445	20.852	3.0909	0.	85.967
10446	20.944	3.0909	5.e-002	4.1977
10447	20.944	2.8182	0.	88.413
10448	20.852	2.9091	0.	85.967
10449	20.944	2.9091	5.e-002	4.1977
10450	20.944	2.6364	0.	87.947
10451	20.852	2.7273	0.	85.647
10452	20.944	2.7273	5.e-002	4.1987
10453	20.944	2.4545	0.	87.097
10454	20.852	2.5455	0.	84.968
10455	20.944	2.5455	5.e-002	4.2009
10456	20.944	2.2727	0.	85.767
10457	20.852	2.3636	0.	83.859
10458	20.944	2.3636	5.e-002	4.2043
10459	20.944	2.0909	0.	83.849
10460	20.852	2.1818	0.	82.232
10461	20.944	2.1818	5.e-002	4.2094
10462	20.944	1.9091	0.	81.241
10463	20.852	2.	0.	79.992
10464	20.944	2.	5.e-002	4.2162
10465	20.944	1.7273	0.	77.867
10466	20.852	1.8182	0.	77.064
10467	20.944	1.8182	5.e-002	4.2248
10468	20.944	1.5455	0.	73.687
10469	20.852	1.6364	0.	73.399
10470	20.944	1.6364	5.e-002	4.2351
10471	20.944	1.3636	0.	68.713
10472	20.852	1.4545	0.	68.985
10473	20.944	1.4545	5.e-002	4.2463
10474	20.944	1.1818	0.	63.002
10475	20.852	1.2727	0.	63.857
10476	20.944	1.2727	5.e-002	4.2578
10477	20.944	1.	0.	56.656
10478	20.852	1.0909	0.	58.089
10479	20.944	1.0909	5.e-002	4.2685
10480	20.944	0.81818	0.	49.808
10481	20.852	0.90909	0.	51.791
10482	20.944	0.90909	5.e-002	4.2775
10483	20.944	0.63636	0.	42.625
10484	20.852	0.72727	0.	45.101
10485	20.944	0.72727	5.e-002	4.2831
10486	20.944	0.45455	0.	35.319
10487	20.852	0.54545	0.	38.184
10488	20.944	0.54545	5.e-002	4.2751
10489	20.944	0.27273	0.	28.939
10490	20.852	0.36364	0.	31.283
10491	20.944	0.36364	5.e-002	4.1028
10492	20.852	0.18182	0.	26.378
10493	20.944	0.18182	5.e-002	1.5876
10494	20.944	9.0909e-002	0.	17.081
10495	20.76	5.7273	0.	28.502
10496	20.669	5.8182	0.	26.328
10497	20.76	5.8182	5.e-002	1.4329
10498	20.76	5.9091	0.	17.121
10499	20.76	5.5455	0.	34.066
10500	20.669	5.6364	0.	30.434
10501	20.76	5.6364	5.e-002	4.0769
10502	20.76	5.3636	0.	40.597
10503	20.669	5.4545	0.	36.596
10504	20.76	5.4545	5.e-002	4.2587
10505	20.76	5.1818	0.	47.033
10506	20.669	5.2727	0.	42.793
10507	20.76	5.2727	5.e-002	4.2688
10508	20.76	5.	0.	53.183
10509	20.669	5.0909	0.	48.799
10510	20.76	5.0909	5.e-002	4.2653
10511	20.76	4.8182	0.	58.909
10512	20.669	4.9091	0.	54.472
10513	20.76	4.9091	5.e-002	4.259
10514	20.76	4.6364	0.	64.1
10515	20.669	4.7273	0.	59.697
10516	20.76	4.7273	5.e-002	4.2514
10517	20.76	4.4545	0.	68.671
10518	20.669	4.5455	0.	64.382
10519	20.76	4.5455	5.e-002	4.2432
10520	20.76	4.2727	0.	72.573
10521	20.669	4.3636	0.	68.465
10522	20.76	4.3636	5.e-002	4.2351
10523	20.76	4.0909	0.	75.794
10524	20.669	4.1818	0.	71.915
10525	20.76	4.1818	5.e-002	4.2278
10526	20.76	3.9091	0.	78.354
10527	20.669	4.	0.	74.732
10528	20.76	4.	5.e-002	4.2215
10529	20.76	3.7273	0.	80.303
10530	20.669	3.8182	0.	76.946
10531	20.76	3.8182	5.e-002	4.2166
10532	20.76	3.5455	0.	81.71
10533	20.669	3.6364	0.	78.608
10534	20.76	3.6364	5.e-002	4.213
10535	20.76	3.3636	0.	82.647
10536	20.669	3.4545	0.	79.78
10537	20.76	3.4545	5.e-002	4.2105
10538	20.76	3.1818	0.	83.18
10539	20.669	3.2727	0.	80.52
10540	20.76	3.2727	5.e-002	4.2089
10541	20.76	3.	0.	83.352
10542	20.669	3.0909	0.	80.877
10543	20.76	3.0909	5.e-002	4.2082
10544	20.76	2.8182	0.	83.18
10545	20.669	2.9091	0.	80.877
10546	20.76	2.9091	5.e-002	4.2082
10547	20.76	2.6364	0.	82.647
10548	20.669	2.7273	0.	80.52
10549	20.76	2.7273	5.e-002	4.209
10550	20.76	2.4545	0.	81.71
10551	20.669	2.5455	0.	79.78
10552	20.76	2.5455	5.e-002	4.2105
10553	20.76	2.2727	0.	80.303
10554	20.669	2.3636	0.	78.608
10555	20.76	2.3636	5.e-002	4.213
10556	20.76	2.0909	0.	78.354
10557	20.669	2.1818	0.	76.946
10558	20.76	2.1818	5.e-002	4.2166
10559	20.76	1.9091	0.	75.794
10560	20.669	2.	0.	74.732
10561	20.76	2.	5.e-002	4.2215
10562	20.76	1.7273	0.	72.573
10563	20.669	1.8182	0.	71.915
10564	20.76	1.8182	5.e-002	4.2278
10565	20.76	1.5455	0.	68.671
10566	20.669	1.6364	0.	68.465
10567	20.76	1.6364	5.e-002	4.2351
10568	20.76	1.3636	0.	64.1
10569	20.669	1.4545	0.	64.382
10570	20.76	1.4545	5.e-002	4.2432
10571	20.76	1.1818	0.	58.909
10572	20.669	1.2727	0.	59.697
10573	20.76	1.2727	5.e-002	4.2514
10574	20.76	1.	0.	53.183
10575	20.669	1.0909	0.	54.472
10576	20.76	1.0909	5.e-002	4.259
10577	20.76	0.81818	0.	47.033
10578	20.669	0.90909	0.	48.799
10579	20.76	0.90909	5.e-002	4.2653
10580	20.76	0.63636	0.	40.597
10581	20.669	0.72727	0.	42.793
10582	20.76	0.72727	5.e-002	4.2688
10583	20.76	0.45455	0.	34.066
10584	20.669	0.54545	0.	36.596
10585	20.76	0.54545	5.e-002	4.2587
10586	20.76	0.27273	0.	28.502
10587	20.669	0.36364	0.	30.434
10588	20.76	0.36364	5.e-002	4.0769
10589	20.669	0.18182	0.	26.328
10590	20.76	0.18182	5.e-002	1.4329
10591	20.76	9.0909e-002	0.	17.121
10592	20.577	5.7273	0.	28.049
10593	20.485	5.8182	0.	26.219
10594	20.577	5.8182	5.e-002	1.2937
10595	20.577	5.9091	0.	17.111
10596	20.577	5.5455	0.	32.888
10597	20.485	5.6364	0.	29.619
10598	20.577	5.6364	5.e-002	4.0571
10599	20.577	5.3636	0.	38.732
10600	20.485	5.4545	0.	35.124
10601	20.577	5.4545	5.e-002	4.2476
10602	20.577	5.1818	0.	44.508
10603	20.485	5.2727	0.	40.683
10604	20.577	5.2727	5.e-002	4.2594
10605	20.577	5.	0.	50.044
10606	20.485	5.0909	0.	46.083
10607	20.577	5.0909	5.e-002	4.2576
10608	20.577	4.8182	0.	55.222
10609	20.485	4.9091	0.	51.203
10610	20.577	4.9091	5.e-002	4.2535
10611	20.577	4.6364	0.	59.947
10612	20.485	4.7273	0.	55.944
10613	20.577	4.7273	5.e-002	4.2482
10614	20.577	4.4545	0.	64.148
10615	20.485	4.5455	0.	60.228
10616	20.577	4.5455	5.e-002	4.2425
10617	20.577	4.2727	0.	67.781
10618	20.485	4.3636	0.	64.
10619	20.577	4.3636	5.e-002	4.2368
10620	20.577	4.0909	0.	70.829
10621	20.485	4.1818	0.	67.23
10622	20.577	4.1818	5.e-002	4.2316
10623	20.577	3.9091	0.	73.301
10624	20.485	4.	0.	69.912
10625	20.577	4.	5.e-002	4.2272
10626	20.577	3.7273	0.	75.229
10627	20.485	3.8182	0.	72.061
10628	20.577	3.8182	5.e-002	4.2236
10629	20.577	3.5455	0.	76.656
10630	20.485	3.6364	0.	73.709
10631	20.577	3.6364	5.e-002	4.221
10632	20.577	3.3636	0.	77.63
10633	20.485	3.4545	0.	74.895
10634	20.577	3.4545	5.e-002	4.2193
10635	20.577	3.1818	0.	78.194
10636	20.485	3.2727	0.	75.659
10637	20.577	3.2727	5.e-002	4.2182
10638	20.577	3.	0.	78.379
10639	20.485	3.0909	0.	76.032
10640	20.577	3.0909	5.e-002	4.2177
10641	20.577	2.8182	0.	78.194
10642	20.485	2.9091	0.	76.032
10643	20.577	2.9091	5.e-002	4.2177
10644	20.577	2.6364	0.	77.63
10645	20.485	2.7273	0.	75.659
10646	20.577	2.7273	5.e-002	4.2182
10647	20.577	2.4545	0.	76.656
10648	20.485	2.5455	0.	74.895
10649	20.577	2.5455	5.e-002	4.2193
10650	20.577	2.2727	0.	75.229
10651	20.485	2.3636	0.	73.709
10652	20.577	2.3636	5.e-002	4.221
10653	20.577	2.0909	0.	73.301
10654	20.485	2.1818	0.	72.061
10655	20.577	2.1818	5.e-002	4.2236
10656	20.577	1.9091	0.	70.829
10657	20.485	2.	0.	69.912
10658	20.577	2.	5.e-002	4.2272
10659	20.577	1.7273	0.	67.781
10660	20.485	1.8182	0.	67.23
10661	20.577	1.8182	5.e-002	4.2316
10662	20.577	1.5455	0.	64.148
10663	20.485	1.6364	0.	64.
10664	20.577	1.6364	5.e-002	4.2368
10665	20.577	1.3636	0.	59.947
10666	20.485	1.4545	0.	60.228
10667	20.577	1.4545	5.e-002	4.2425
10668	20.577	1.1818	0.	55.222
10669	20.485	1.2727	0.	55.944
10670	20.577	1.2727	5.e-002	4.2482
10671	20.577	1.	0.	50.044
10672	20.485	1.0909	0.	51.203
10673	20.577	1.0909	5.e-002	4.2535
10674	20.577	0.81818	0.	44.508
10675	20.485	0.90909	0.	46.083
10676	20.577	0.90909	5.e-002	4.2576
10677	20.577	0.63636	0.	38.732
10678	20.485	0.72727	0.	40.683
10679	20.577	0.72727	5.e-002	4.2594
10680	20.577	0.45455	0.	32.888
10681	20.485	0.54545	0.	35.124
10682	20.577	0.54545	5.e-002	4.2475
10683	20.577	0.27273	0.	28.049
10684	20.485	0.36364	0.	29.619
10685	20.577	0.36364	5.e-002	4.0571
10686	20.485	0.18182	0.	26.22
10687	20.577	0.18182	5.e-002	1.2937
10688	20.577	9.0909e-002	0.	17.111
10689	20.393	5.7273	0.	27.585
10690	20.301	5.8182	0.	26.063
10691	20.393	5.8182	5.e-002	1.1684
10692	20.393	5.9091	0.	17.06
10693	20.393	5.5455	0.	31.782
10694	20.301	5.6364	0.	28.837
10695	20.393	5.6364	5.e-002	4.0425
10696	20.393	5.3636	0.	37.016
10697	20.301	5.4545	0.	33.757
10698	20.393	5.4545	5.e-002	4.2408
10699	20.393	5.1818	0.	42.207
10700	20.301	5.2727	0.	38.749
10701	20.393	5.2727	5.e-002	4.254
10702	20.393	5.	0.	47.198
10703	20.301	5.0909	0.	43.612
10704	20.393	5.0909	5.e-002	4.2536
10705	20.393	4.8182	0.	51.887
10706	20.301	4.9091	0.	48.239
10707	20.393	4.9091	5.e-002	4.2511
10708	20.393	4.6364	0.	56.191
10709	20.301	4.7273	0.	52.545
10710	20.393	4.7273	5.e-002	4.2477
10711	20.393	4.4545	0.	60.05
10712	20.301	4.5455	0.	56.462
10713	20.393	4.5455	5.e-002	4.2439
10714	20.393	4.2727	0.	63.422
10715	20.301	4.3636	0.	59.941
10716	20.393	4.3636	5.e-002	4.24
10717	20.393	4.0909	0.	66.287
10718	20.301	4.1818	0.	62.952
10719	20.393	4.1818	5.e-002	4.2364
10720	20.393	3.9091	0.	68.647
10721	20.301	4.	0.	65.483
10722	20.393	4.	5.e-002	4.2333
10723	20.393	3.7273	0.	70.517
10724	20.301	3.8182	0.	67.541
10725	20.393	3.8182	5.e-002	4.2308
10726	20.393	3.5455	0.	71.925
10727	20.301	3.6364	0.	69.142
10728	20.393	3.6364	5.e-002	4.229
10729	20.393	3.3636	0.	72.901
10730	20.301	3.4545	0.	70.312
10731	20.393	3.4545	5.e-002	4.2277
10732	20.393	3.1818	0.	73.474
10733	20.301	3.2727	0.	71.074
10734	20.393	3.2727	5.e-002	4.2269
10735	20.393	3.	0.	73.662
10736	20.301	3.0909	0.	71.449
10737	20.393	3.0909	5.e-002	4.2266
10738	20.393	2.8182	0.	73.474
10739	20.301	2.9091	0.	71.449
10740	20.393	2.9091	5.e-002	4.2266
10741	20.393	2.6364	0.	72.901
10742	20.301	2.7273	0.	71.074
10743	20.393	2.7273	5.e-002	4.2269
10744	20.393	2.4545	0.	71.925
10745	20.301	2.5455	0.	70.312
10746	20.393	2.5455	5.e-002	4.2277
10747	20.393	2.2727	0.	70.517
10748	20.301	2.3636	0.	69.143
10749	20.393	2.3636	5.e-002	4.229
10750	20.393	2.0909	0.	68.647
10751	20.301	2.1818	0.	67.541
10752	20.393	2.1818	5.e-002	4.2308
10753	20.393	1.9091	0.	66.287
10754	20.301	2.	0.	65.483
10755	20.393	2.	5.e-002	4.2333
10756	20.393	1.7273	0.	63.422
10757	20.301	1.8182	0.	62.952
10758	20.393	1.8182	5.e-002	4.2364
10759	20.393	1.5455	0.	60.05
10760	20.301	1.6364	0.	59.941
10761	20.393	1.6364	5.e-002	4.24
10762	20.393	1.3636	0.	56.191
10763	20.301	1.4545	0.	56.462
10764	20.393	1.4545	5.e-002	4.2439
10765	20.393	1.1818	0.	51.887
10766	20.301	1.2727	0.	52.545
10767	20.393	1.2727	5.e-002	4.2477
10768	20.393	1.	0.	47.198
10769	20.301	1.0909	0.	48.239
10770	20.393	1.0909	5.e-002	4.2511
10771	20.393	0.81818	0.	42.207
10772	20.301	0.90909	0.	43.612
10773	20.393	0.90909	5.e-002	4.2536
10774	20.393	0.63636	0.	37.016
10775	20.301	0.72727	0.	38.749
10776	20.393	0.72727	5.e-002	4.254
10777	20.393	0.45455	0.	31.782
10778	20.301	0.54545	0.	33.757
10779	20.393	0.54545	5.e-002	4.2408
10780	20.393	0.27273	0.	27.585
10781	20.301	0.36364	0.	28.837
10782	20.393	0.36364	5.e-002	4.0424
10783	20.301	0.18182	0.	26.063
10784	20.393	0.18182	5.e-002	1.1684
10785	20.393	9.0909e-002	0.	17.06
10786	20.209	5.7273	0.	27.116
10787	20.117	5.8182	0.	25.867
10788	20.209	5.8182	5.e-002	1.0556
10789	20.209	5.9091	0.	16.974
10790	20.209	5.5455	0.	30.743
10791	20.117	5.6364	0.	28.088
10792	20.209	5.6364	5.e-002	4.0322
10793	20.209	5.3636	0.	35.434
10794	20.117	5.4545	0.	32.488
10795	20.209	5.4545	5.e-002	4.2376
10796	20.209	5.1818	0.	40.104
10797	20.117	5.2727	0.	36.973
10798	20.209	5.2727	5.e-002	4.2521
10799	20.209	5.	0.	44.608
10800	20.117	5.0909	0.	41.356
10801	20.209	5.0909	5.e-002	4.2527
10802	20.209	4.8182	0.	48.858
10803	20.117	4.9091	0.	45.541
10804	20.209	4.9091	5.e-002	4.2515
10805	20.209	4.6364	0.	52.78
10806	20.117	4.7273	0.	49.454
10807	20.209	4.7273	5.e-002	4.2494
10808	20.209	4.4545	0.	56.321
10809	20.117	4.5455	0.	53.034
10810	20.209	4.5455	5.e-002	4.247
10811	20.209	4.2727	0.	59.442
10812	20.117	4.3636	0.	56.237
10813	20.209	4.3636	5.e-002	4.2444
10814	20.209	4.0909	0.	62.12
10815	20.117	4.1818	0.	59.032
10816	20.209	4.1818	5.e-002	4.242
10817	20.209	3.9091	0.	64.351
10818	20.117	4.	0.	61.406
10819	20.209	4.	5.e-002	4.2399
10820	20.209	3.7273	0.	66.141
10821	20.117	3.8182	0.	63.356
10822	20.209	3.8182	5.e-002	4.2382
10823	20.209	3.5455	0.	67.504
10824	20.117	3.6364	0.	64.889
10825	20.209	3.6364	5.e-002	4.237
10826	20.209	3.3636	0.	68.46
10827	20.117	3.4545	0.	66.021
10828	20.209	3.4545	5.e-002	4.2361
10829	20.209	3.1818	0.	69.024
10830	20.117	3.2727	0.	66.764
10831	20.209	3.2727	5.e-002	4.2356
10832	20.209	3.	0.	69.211
10833	20.117	3.0909	0.	67.132
10834	20.209	3.0909	5.e-002	4.2353
10835	20.209	2.8182	0.	69.025
10836	20.117	2.9091	0.	67.132
10837	20.209	2.9091	5.e-002	4.2353
10838	20.209	2.6364	0.	68.46
10839	20.117	2.7273	0.	66.764
10840	20.209	2.7273	5.e-002	4.2356
10841	20.209	2.4545	0.	67.504
10842	20.117	2.5455	0.	66.021
10843	20.209	2.5455	5.e-002	4.2361
10844	20.209	2.2727	0.	66.141
10845	20.117	2.3636	0.	64.889
10846	20.209	2.3636	5.e-002	4.237
10847	20.209	2.0909	0.	64.351
10848	20.117	2.1818	0.	63.356
10849	20.209	2.1818	5.e-002	4.2382
10850	20.209	1.9091	0.	62.12
10851	20.117	2.	0.	61.406
10852	20.209	2.	5.e-002	4.2399
10853	20.209	1.7273	0.	59.442
10854	20.117	1.8182	0.	59.032
10855	20.209	1.8182	5.e-002	4.242
10856	20.209	1.5455	0.	56.321
10857	20.117	1.6364	0.	56.237
10858	20.209	1.6364	5.e-002	4.2444
10859	20.209	1.3636	0.	52.781
10860	20.117	1.4545	0.	53.034
10861	20.209	1.4545	5.e-002	4.247
10862	20.209	1.1818	0.	48.858
10863	20.117	1.2727	0.	49.454
10864	20.209	1.2727	5.e-002	4.2494
10865	20.209	1.	0.	44.609
10866	20.117	1.0909	0.	45.541
10867	20.209	1.0909	5.e-002	4.2515
10868	20.209	0.81818	0.	40.104
10869	20.117	0.90909	0.	41.356
10870	20.209	0.90909	5.e-002	4.2527
10871	20.209	0.63636	0.	35.434
10872	20.117	0.72727	0.	36.974
10873	20.209	0.72727	5.e-002	4.2521
10874	20.209	0.45455	0.	30.743
10875	20.117	0.54545	0.	32.488
10876	20.209	0.54545	5.e-002	4.2376
10877	20.209	0.27273	0.	27.116
10878	20.117	0.36364	0.	28.089
10879	20.209	0.36364	5.e-002	4.0321
10880	20.117	0.18182	0.	25.867
10881	20.209	0.18182	5.e-002	1.0556
10882	20.209	9.0909e-002	0.	16.974
10883	20.026	5.7273	0.	26.646
10884	19.934	5.8182	0.	25.639
10885	20.026	5.8182	5.e-002	0.95393
10886	20.026	5.9091	0.	16.862
10887	20.026	5.5455	0.	29.767
10888	19.934	5.6364	0.	27.372
10889	20.026	5.6364	5.e-002	4.0256
10890	20.026	5.3636	0.	33.972
10891	19.934	5.4545	0.	31.305
10892	20.026	5.4545	5.e-002	4.2376
10893	20.026	5.1818	0.	38.177
10894	19.934	5.2727	0.	35.339
10895	20.026	5.2727	5.e-002	4.253
10896	20.026	5.	0.	42.245
10897	19.934	5.0909	0.	39.291
10898	20.026	5.0909	5.e-002	4.2544
10899	20.026	4.8182	0.	46.097
10900	19.934	4.9091	0.	43.077
10901	20.026	4.9091	5.e-002	4.2541
10902	20.026	4.6364	0.	49.671
10903	19.934	4.7273	0.	46.633
10904	20.026	4.7273	5.e-002	4.2531
10905	20.026	4.4545	0.	52.916
10906	19.934	4.5455	0.	49.902
10907	20.026	4.5455	5.e-002	4.2516
10908	20.026	4.2727	0.	55.796
10909	19.934	4.3636	0.	52.845
10910	20.026	4.3636	5.e-002	4.2501
10911	20.026	4.0909	0.	58.289
10912	19.934	4.1818	0.	55.432
10913	20.026	4.1818	5.e-002	4.2486
10914	20.026	3.9091	0.	60.382
10915	19.934	4.	0.	57.645
10916	20.026	4.	5.e-002	4.2472
10917	20.026	3.7273	0.	62.077
10918	19.934	3.8182	0.	59.478
10919	20.026	3.8182	5.e-002	4.2461
10920	20.026	3.5455	0.	63.379
10921	19.934	3.6364	0.	60.931
10922	20.026	3.6364	5.e-002	4.2453
10923	20.026	3.3636	0.	64.299
10924	19.934	3.4545	0.	62.011
10925	20.026	3.4545	5.e-002	4.2448
10926	20.026	3.1818	0.	64.846
10927	19.934	3.2727	0.	62.724
10928	20.026	3.2727	5.e-002	4.2444
10929	20.026	3.	0.	65.027
10930	19.934	3.0909	0.	63.079
10931	20.026	3.0909	5.e-002	4.2443
10932	20.026	2.8182	0.	64.846
10933	19.934	2.9091	0.	63.079
10934	20.026	2.9091	5.e-002	4.2443
10935	20.026	2.6364	0.	64.299
10936	19.934	2.7273	0.	62.724
10937	20.026	2.7273	5.e-002	4.2444
10938	20.026	2.4545	0.	63.379
10939	19.934	2.5455	0.	62.011
10940	20.026	2.5455	5.e-002	4.2448
10941	20.026	2.2727	0.	62.077
10942	19.934	2.3636	0.	60.931
10943	20.026	2.3636	5.e-002	4.2453
10944	20.026	2.0909	0.	60.382
10945	19.934	2.1818	0.	59.478
10946	20.026	2.1818	5.e-002	4.2461
10947	20.026	1.9091	0.	58.289
10948	19.934	2.	0.	57.645
10949	20.026	2.	5.e-002	4.2472
10950	20.026	1.7273	0.	55.796
10951	19.934	1.8182	0.	55.432
10952	20.026	1.8182	5.e-002	4.2486
10953	20.026	1.5455	0.	52.916
10954	19.934	1.6364	0.	52.845
10955	20.026	1.6364	5.e-002	4.2501
10956	20.026	1.3636	0.	49.671
10957	19.934	1.4545	0.	49.902
10958	20.026	1.4545	5.e-002	4.2516
10959	20.026	1.1818	0.	46.097
10960	19.934	1.2727	0.	46.633
10961	20.026	1.2727	5.e-002	4.253
10962	20.026	1.	0.	42.245
10963	19.934	1.0909	0.	43.077
10964	20.026	1.0909	5.e-002	4.2541
10965	20.026	0.81818	0.	38.177
10966	19.934	0.90909	0.	39.291
10967	20.026	0.90909	5.e-002	4.2544
10968	20.026	0.63636	0.	33.973
10969	19.934	0.72727	0.	35.339
10970	20.026	0.72727	5.e-002	4.2529
10971	20.026	0.45455	0.	29.767
10972	19.934	0.54545	0.	31.305
10973	20.026	0.54545	5.e-002	4.2376
10974	20.026	0.27273	0.	26.646
10975	19.934	0.36364	0.	27.372
10976	20.026	0.36364	5.e-002	4.0256
10977	19.934	0.18182	0.	25.639
10978	20.026	0.18182	5.e-002	0.95392
10979	20.026	9.0909e-002	0.	16.862
10980	19.842	5.7273	0.	26.177
10981	19.75	5.8182	0.	25.386
10982	19.842	5.8182	5.e-002	0.86225
10983	19.842	5.9091	0.	16.726
10984	19.842	5.5455	0.	28.847
10985	19.75	5.6364	0.	26.686
10986	19.842	5.6364	5.e-002	4.0221
10987	19.842	5.3636	0.	32.619
10988	19.75	5.4545	0.	30.202
10989	19.842	5.4545	5.e-002	4.2402
10990	19.842	5.1818	0.	36.405
10991	19.75	5.2727	0.	33.83
10992	19.842	5.2727	5.e-002	4.2562
10993	19.842	5.	0.	40.08
10994	19.75	5.0909	0.	37.394
10995	19.842	5.0909	5.e-002	4.2582
10996	19.842	4.8182	0.	43.573
10997	19.75	4.9091	0.	40.82
10998	19.842	4.9091	5.e-002	4.2586
10999	19.842	4.6364	0.	46.827
11000	19.75	4.7273	0.	44.05
11001	19.842	4.7273	5.e-002	4.2583
11002	19.842	4.4545	0.	49.797
11003	19.75	4.5455	0.	47.033
11004	19.842	4.5455	5.e-002	4.2577
11005	19.842	4.2727	0.	52.449
11006	19.75	4.3636	0.	49.732
11007	19.842	4.3636	5.e-002	4.2569
11008	19.842	4.0909	0.	54.758
11009	19.75	4.1818	0.	52.118
11010	19.842	4.1818	5.e-002	4.256
11011	19.842	3.9091	0.	56.712
11012	19.75	4.	0.	54.172
11013	19.842	4.	5.e-002	4.2553
11014	19.842	3.7273	0.	58.304
11015	19.75	3.8182	0.	55.884
11016	19.842	3.8182	5.e-002	4.2546
11017	19.842	3.5455	0.	59.535
11018	19.75	3.6364	0.	57.249
11019	19.842	3.6364	5.e-002	4.2541
11020	19.842	3.3636	0.	60.409
11021	19.75	3.4545	0.	58.269
11022	19.842	3.4545	5.e-002	4.2538
11023	19.842	3.1818	0.	60.931
11024	19.75	3.2727	0.	58.946
11025	19.842	3.2727	5.e-002	4.2536
11026	19.842	3.	0.	61.104
11027	19.75	3.0909	0.	59.283
11028	19.842	3.0909	5.e-002	4.2535
11029	19.842	2.8182	0.	60.931
11030	19.75	2.9091	0.	59.283
11031	19.842	2.9091	5.e-002	4.2535
11032	19.842	2.6364	0.	60.409
11033	19.75	2.7273	0.	58.946
11034	19.842	2.7273	5.e-002	4.2536
11035	19.842	2.4545	0.	59.535
11036	19.75	2.5455	0.	58.269
11037	19.842	2.5455	5.e-002	4.2538
11038	19.842	2.2727	0.	58.304
11039	19.75	2.3636	0.	57.249
11040	19.842	2.3636	5.e-002	4.2541
11041	19.842	2.0909	0.	56.712
11042	19.75	2.1818	0.	55.884
11043	19.842	2.1818	5.e-002	4.2546
11044	19.842	1.9091	0.	54.758
11045	19.75	2.	0.	54.172
11046	19.842	2.	5.e-002	4.2553
11047	19.842	1.7273	0.	52.449
11048	19.75	1.8182	0.	52.118
11049	19.842	1.8182	5.e-002	4.256
11050	19.842	1.5455	0.	49.797
11051	19.75	1.6364	0.	49.732
11052	19.842	1.6364	5.e-002	4.2569
11053	19.842	1.3636	0.	46.827
11054	19.75	1.4545	0.	47.033
11055	19.842	1.4545	5.e-002	4.2577
11056	19.842	1.1818	0.	43.573
11057	19.75	1.2727	0.	44.05
11058	19.842	1.2727	5.e-002	4.2583
11059	19.842	1.	0.	40.08
11060	19.75	1.0909	0.	40.821
11061	19.842	1.0909	5.e-002	4.2586
11062	19.842	0.81818	0.	36.405
11063	19.75	0.90909	0.	37.394
11064	19.842	0.90909	5.e-002	4.2582
11065	19.842	0.63636	0.	32.619
11066	19.75	0.72727	0.	33.83
11067	19.842	0.72727	5.e-002	4.2562
11068	19.842	0.45455	0.	28.848
11069	19.75	0.54545	0.	30.202
11070	19.842	0.54545	5.e-002	4.2402
11071	19.842	0.27273	0.	26.177
11072	19.75	0.36364	0.	26.686
11073	19.842	0.36364	5.e-002	4.0221
11074	19.75	0.18182	0.	25.386
11075	19.842	0.18182	5.e-002	0.86224
11076	19.842	9.0909e-002	0.	16.726
11077	19.658	5.7273	0.	25.711
11078	19.566	5.8182	0.	25.112
11079	19.658	5.8182	5.e-002	0.77955
11080	19.658	5.9091	0.	16.572
11081	19.658	5.5455	0.	27.98
11082	19.566	5.6364	0.	26.028
11083	19.658	5.6364	5.e-002	4.0213
11084	19.658	5.3636	0.	31.362
11085	19.566	5.4545	0.	29.171
11086	19.658	5.4545	5.e-002	4.2449
11087	19.658	5.1818	0.	34.772
11088	19.566	5.2727	0.	32.433
11089	19.658	5.2727	5.e-002	4.2615
11090	19.658	5.	0.	38.092
11091	19.566	5.0909	0.	35.648
11092	19.658	5.0909	5.e-002	4.2639
11093	19.658	4.8182	0.	41.258
11094	19.566	4.9091	0.	38.747
11095	19.658	4.9091	5.e-002	4.2648
11096	19.658	4.6364	0.	44.219
11097	19.566	4.7273	0.	41.679
11098	19.658	4.7273	5.e-002	4.265
11099	19.658	4.4545	0.	46.933
11100	19.566	4.5455	0.	44.398
11101	19.658	4.5455	5.e-002	4.265
11102	19.658	4.2727	0.	49.369
11103	19.566	4.3636	0.	46.868
11104	19.658	4.3636	5.e-002	4.2647
11105	19.658	4.0909	0.	51.501
11106	19.566	4.1818	0.	49.062
11107	19.658	4.1818	5.e-002	4.2644
11108	19.658	3.9091	0.	53.314
11109	19.566	4.	0.	50.961
11110	19.658	4.	5.e-002	4.264
11111	19.658	3.7273	0.	54.8
11112	19.566	3.8182	0.	52.551
11113	19.658	3.8182	5.e-002	4.2637
11114	19.658	3.5455	0.	55.955
11115	19.566	3.6364	0.	53.825
11116	19.658	3.6364	5.e-002	4.2635
11117	19.658	3.3636	0.	56.778
11118	19.566	3.4545	0.	54.781
11119	19.658	3.4545	5.e-002	4.2633
11120	19.658	3.1818	0.	57.271
11121	19.566	3.2727	0.	55.417
11122	19.658	3.2727	5.e-002	4.2632
11123	19.658	3.	0.	57.435
11124	19.566	3.0909	0.	55.735
11125	19.658	3.0909	5.e-002	4.2632
11126	19.658	2.8182	0.	57.271
11127	19.566	2.9091	0.	55.735
11128	19.658	2.9091	5.e-002	4.2632
11129	19.658	2.6364	0.	56.778
11130	19.566	2.7273	0.	55.417
11131	19.658	2.7273	5.e-002	4.2632
11132	19.658	2.4545	0.	55.955
11133	19.566	2.5455	0.	54.781
11134	19.658	2.5455	5.e-002	4.2633
11135	19.658	2.2727	0.	54.8
11136	19.566	2.3636	0.	53.825
11137	19.658	2.3636	5.e-002	4.2635
11138	19.658	2.0909	0.	53.314
11139	19.566	2.1818	0.	52.551
11140	19.658	2.1818	5.e-002	4.2637
11141	19.658	1.9091	0.	51.501
11142	19.566	2.	0.	50.961
11143	19.658	2.	5.e-002	4.264
11144	19.658	1.7273	0.	49.369
11145	19.566	1.8182	0.	49.062
11146	19.658	1.8182	5.e-002	4.2644
11147	19.658	1.5455	0.	46.933
11148	19.566	1.6364	0.	46.868
11149	19.658	1.6364	5.e-002	4.2647
11150	19.658	1.3636	0.	44.219
11151	19.566	1.4545	0.	44.398
11152	19.658	1.4545	5.e-002	4.265
11153	19.658	1.1818	0.	41.258
11154	19.566	1.2727	0.	41.679
11155	19.658	1.2727	5.e-002	4.265
11156	19.658	1.	0.	38.092
11157	19.566	1.0909	0.	38.747
11158	19.658	1.0909	5.e-002	4.2648
11159	19.658	0.81818	0.	34.772
11160	19.566	0.90909	0.	35.648
11161	19.658	0.90909	5.e-002	4.2639
11162	19.658	0.63636	0.	31.362
11163	19.566	0.72727	0.	32.433
11164	19.658	0.72727	5.e-002	4.2615
11165	19.658	0.45455	0.	27.98
11166	19.566	0.54545	0.	29.171
11167	19.658	0.54545	5.e-002	4.2449
11168	19.658	0.27273	0.	25.711
11169	19.566	0.36364	0.	26.028
11170	19.658	0.36364	5.e-002	4.0213
11171	19.566	0.18182	0.	25.112
11172	19.658	0.18182	5.e-002	0.77954
11173	19.658	9.0909e-002	0.	16.572
11174	19.474	5.7273	0.	25.25
11175	19.383	5.8182	0.	24.822
11176	19.474	5.8182	5.e-002	0.70493
11177	19.474	5.9091	0.	16.404
11178	19.474	5.5455	0.	27.161
11179	19.383	5.6364	0.	25.397
11180	19.474	5.6364	5.e-002	4.0228
11181	19.474	5.3636	0.	30.192
11182	19.383	5.4545	0.	28.204
11183	19.474	5.4545	5.e-002	4.2515
11184	19.474	5.1818	0.	33.263
11185	19.383	5.2727	0.	31.137
11186	19.474	5.2727	5.e-002	4.2686
11187	19.474	5.	0.	36.261
11188	19.383	5.0909	0.	34.035
11189	19.474	5.0909	5.e-002	4.2712
11190	19.474	4.8182	0.	39.129
11191	19.383	4.9091	0.	36.837
11192	19.474	4.9091	5.e-002	4.2724
11193	19.474	4.6364	0.	41.82
11194	19.383	4.7273	0.	39.496
11195	19.474	4.7273	5.e-002	4.273
11196	19.474	4.4545	0.	44.297
11197	19.383	4.5455	0.	41.971
11198	19.474	4.5455	5.e-002	4.2734
11199	19.474	4.2727	0.	46.529
11200	19.383	4.3636	0.	44.228
11201	19.474	4.3636	5.e-002	4.2735
11202	19.474	4.0909	0.	48.491
11203	19.383	4.1818	0.	46.241
11204	19.474	4.1818	5.e-002	4.2735
11205	19.474	3.9091	0.	50.167
11206	19.383	4.	0.	47.989
11207	19.474	4.	5.e-002	4.2735
11208	19.474	3.7273	0.	51.547
11209	19.383	3.8182	0.	49.46
11210	19.474	3.8182	5.e-002	4.2734
11211	19.474	3.5455	0.	52.623
11212	19.383	3.6364	0.	50.642
11213	19.474	3.6364	5.e-002	4.2734
11214	19.474	3.3636	0.	53.392
11215	19.383	3.4545	0.	51.532
11216	19.474	3.4545	5.e-002	4.2733
11217	19.474	3.1818	0.	53.854
11218	19.383	3.2727	0.	52.126
11219	19.474	3.2727	5.e-002	4.2733
11220	19.474	3.	0.	54.008
11221	19.383	3.0909	0.	52.424
11222	19.474	3.0909	5.e-002	4.2733
11223	19.474	2.8182	0.	53.854
11224	19.383	2.9091	0.	52.424
11225	19.474	2.9091	5.e-002	4.2733
11226	19.474	2.6364	0.	53.392
11227	19.383	2.7273	0.	52.126
11228	19.474	2.7273	5.e-002	4.2733
11229	19.474	2.4545	0.	52.623
11230	19.383	2.5455	0.	51.532
11231	19.474	2.5455	5.e-002	4.2733
11232	19.474	2.2727	0.	51.547
11233	19.383	2.3636	0.	50.642
11234	19.474	2.3636	5.e-002	4.2734
11235	19.474	2.0909	0.	50.167
11236	19.383	2.1818	0.	49.46
11237	19.474	2.1818	5.e-002	4.2734
11238	19.474	1.9091	0.	48.491
11239	19.383	2.	0.	47.989
11240	19.474	2.	5.e-002	4.2735
11241	19.474	1.7273	0.	46.529
11242	19.383	1.8182	0.	46.241
11243	19.474	1.8182	5.e-002	4.2735
11244	19.474	1.5455	0.	44.297
11245	19.383	1.6364	0.	44.228
11246	19.474	1.6364	5.e-002	4.2735
11247	19.474	1.3636	0.	41.82
11248	19.383	1.4545	0.	41.971
11249	19.474	1.4545	5.e-002	4.2734
11250	19.474	1.1818	0.	39.129
11251	19.383	1.2727	0.	39.496
11252	19.474	1.2727	5.e-002	4.273
11253	19.474	1.	0.	36.261
11254	19.383	1.0909	0.	36.837
11255	19.474	1.0909	5.e-002	4.2724
11256	19.474	0.81818	0.	33.263
11257	19.383	0.90909	0.	34.035
11258	19.474	0.90909	5.e-002	4.2712
11259	19.474	0.63636	0.	30.192
11260	19.383	0.72727	0.	31.137
11261	19.474	0.72727	5.e-002	4.2685
11262	19.474	0.45455	0.	27.161
11263	19.383	0.54545	0.	28.204
11264	19.474	0.54545	5.e-002	4.2514
11265	19.474	0.27273	0.	25.25
11266	19.383	0.36364	0.	25.397
11267	19.474	0.36364	5.e-002	4.0228
11268	19.383	0.18182	0.	24.822
11269	19.474	0.18182	5.e-002	0.70491
11270	19.474	9.0909e-002	0.	16.404
11271	19.291	5.7273	0.	24.794
11272	19.199	5.8182	0.	24.52
11273	19.291	5.8182	5.e-002	0.63762
11274	19.291	5.9091	0.	16.223
11275	19.291	5.5455	0.	26.385
11276	19.199	5.6364	0.	24.792
11277	19.291	5.6364	5.e-002	4.0262
11278	19.291	5.3636	0.	29.101
11279	19.199	5.4545	0.	27.295
11280	19.291	5.4545	5.e-002	4.2596
11281	19.291	5.1818	0.	31.864
11282	19.199	5.2727	0.	29.931
11283	19.291	5.2727	5.e-002	4.277
11284	19.291	5.	0.	34.57
11285	19.199	5.0909	0.	32.542
11286	19.291	5.0909	5.e-002	4.2798
11287	19.291	4.8182	0.	37.166
11288	19.199	4.9091	0.	35.074
11289	19.291	4.9091	5.e-002	4.2812
11290	19.291	4.6364	0.	39.61
11291	19.199	4.7273	0.	37.483
11292	19.291	4.7273	5.e-002	4.2822
11293	19.291	4.4545	0.	41.866
11294	19.199	4.5455	0.	39.732
11295	19.291	4.5455	5.e-002	4.2828
11296	19.291	4.2727	0.	43.906
11297	19.199	4.3636	0.	41.79
11298	19.291	4.3636	5.e-002	4.2832
11299	19.291	4.0909	0.	45.707
11300	19.199	4.1818	0.	43.631
11301	19.291	4.1818	5.e-002	4.2835
11302	19.291	3.9091	0.	47.251
11303	19.199	4.	0.	45.237
11304	19.291	4.	5.e-002	4.2836
11305	19.291	3.7273	0.	48.525
11306	19.199	3.8182	0.	46.591
11307	19.291	3.8182	5.e-002	4.2838
11308	19.291	3.5455	0.	49.523
11309	19.199	3.6364	0.	47.684
11310	19.291	3.6364	5.e-002	4.2839
11311	19.291	3.3636	0.	50.238
11312	19.199	3.4545	0.	48.508
11313	19.291	3.4545	5.e-002	4.2839
11314	19.291	3.1818	0.	50.667
11315	19.199	3.2727	0.	49.059
11316	19.291	3.2727	5.e-002	4.284
11317	19.291	3.	0.	50.811
11318	19.199	3.0909	0.	49.336
11319	19.291	3.0909	5.e-002	4.284
11320	19.291	2.8182	0.	50.668
11321	19.199	2.9091	0.	49.336
11322	19.291	2.9091	5.e-002	4.284
11323	19.291	2.6364	0.	50.238
11324	19.199	2.7273	0.	49.059
11325	19.291	2.7273	5.e-002	4.284
11326	19.291	2.4545	0.	49.523
11327	19.199	2.5455	0.	48.508
11328	19.291	2.5455	5.e-002	4.2839
11329	19.291	2.2727	0.	48.525
11330	19.199	2.3636	0.	47.684
11331	19.291	2.3636	5.e-002	4.2839
11332	19.291	2.0909	0.	47.251
11333	19.199	2.1818	0.	46.591
11334	19.291	2.1818	5.e-002	4.2838
11335	19.291	1.9091	0.	45.707
11336	19.199	2.	0.	45.237
11337	19.291	2.	5.e-002	4.2836
11338	19.291	1.7273	0.	43.906
11339	19.199	1.8182	0.	43.631
11340	19.291	1.8182	5.e-002	4.2835
11341	19.291	1.5455	0.	41.866
11342	19.199	1.6364	0.	41.79
11343	19.291	1.6364	5.e-002	4.2832
11344	19.291	1.3636	0.	39.61
11345	19.199	1.4545	0.	39.732
11346	19.291	1.4545	5.e-002	4.2828
11347	19.291	1.1818	0.	37.166
11348	19.199	1.2727	0.	37.483
11349	19.291	1.2727	5.e-002	4.2821
11350	19.291	1.	0.	34.57
11351	19.199	1.0909	0.	35.074
11352	19.291	1.0909	5.e-002	4.2812
11353	19.291	0.81818	0.	31.864
11354	19.199	0.90909	0.	32.542
11355	19.291	0.90909	5.e-002	4.2798
11356	19.291	0.63636	0.	29.101
11357	19.199	0.72727	0.	29.931
11358	19.291	0.72727	5.e-002	4.277
11359	19.291	0.45455	0.	26.385
11360	19.199	0.54545	0.	27.295
11361	19.291	0.54545	5.e-002	4.2595
11362	19.291	0.27273	0.	24.794
11363	19.199	0.36364	0.	24.792
11364	19.291	0.36364	5.e-002	4.0262
11365	19.199	0.18182	0.	24.52
11366	19.291	0.18182	5.e-002	0.63761
11367	19.291	9.0909e-002	0.	16.224
11368	19.107	5.7273	0.	24.345
11369	19.015	5.8182	0.	24.207
11370	19.107	5.8182	5.e-002	0.577
11371	19.107	5.9091	0.	16.034
11372	19.107	5.5455	0.	25.649
11373	19.015	5.6364	0.	24.21
11374	19.107	5.6364	5.e-002	4.0313
11375	19.107	5.3636	0.	28.079
11376	19.015	5.4545	0.	26.44
11377	19.107	5.4545	5.e-002	4.269
11378	19.107	5.1818	0.	30.565
11379	19.015	5.2727	0.	28.806
11380	19.107	5.2727	5.e-002	4.2867
11381	19.107	5.	0.	33.005
11382	19.015	5.0909	0.	31.157
11383	19.107	5.0909	5.e-002	4.2896
11384	19.107	4.8182	0.	35.352
11385	19.015	4.9091	0.	33.441
11386	19.107	4.9091	5.e-002	4.2912
11387	19.107	4.6364	0.	37.568
11388	19.015	4.7273	0.	35.621
11389	19.107	4.7273	5.e-002	4.2923
11390	19.107	4.4545	0.	39.62
11391	19.015	4.5455	0.	37.662
11392	19.107	4.5455	5.e-002	4.2931
11393	19.107	4.2727	0.	41.481
11394	19.015	4.3636	0.	39.535
11395	19.107	4.3636	5.e-002	4.2937
11396	19.107	4.0909	0.	43.129
11397	19.015	4.1818	0.	41.216
11398	19.107	4.1818	5.e-002	4.2942
11399	19.107	3.9091	0.	44.546
11400	19.015	4.	0.	42.685
11401	19.107	4.	5.e-002	4.2945
11402	19.107	3.7273	0.	45.719
11403	19.015	3.8182	0.	43.928
11404	19.107	3.8182	5.e-002	4.2948
11405	19.107	3.5455	0.	46.639
11406	19.015	3.6364	0.	44.933
11407	19.107	3.6364	5.e-002	4.295
11408	19.107	3.3636	0.	47.3
11409	19.015	3.4545	0.	45.693
11410	19.107	3.4545	5.e-002	4.2951
11411	19.107	3.1818	0.	47.698
11412	19.015	3.2727	0.	46.203
11413	19.107	3.2727	5.e-002	4.2952
11414	19.107	3.	0.	47.831
11415	19.015	3.0909	0.	46.458
11416	19.107	3.0909	5.e-002	4.2952
11417	19.107	2.8182	0.	47.698
11418	19.015	2.9091	0.	46.458
11419	19.107	2.9091	5.e-002	4.2952
11420	19.107	2.6364	0.	47.3
11421	19.015	2.7273	0.	46.203
11422	19.107	2.7273	5.e-002	4.2952
11423	19.107	2.4545	0.	46.639
11424	19.015	2.5455	0.	45.693
11425	19.107	2.5455	5.e-002	4.2951
11426	19.107	2.2727	0.	45.719
11427	19.015	2.3636	0.	44.933
11428	19.107	2.3636	5.e-002	4.2949
11429	19.107	2.0909	0.	44.546
11430	19.015	2.1818	0.	43.928
11431	19.107	2.1818	5.e-002	4.2948
11432	19.107	1.9091	0.	43.129
11433	19.015	2.	0.	42.685
11434	19.107	2.	5.e-002	4.2945
11435	19.107	1.7273	0.	41.481
11436	19.015	1.8182	0.	41.216
11437	19.107	1.8182	5.e-002	4.2942
11438	19.107	1.5455	0.	39.62
11439	19.015	1.6364	0.	39.535
11440	19.107	1.6364	5.e-002	4.2937
11441	19.107	1.3636	0.	37.568
11442	19.015	1.4545	0.	37.662
11443	19.107	1.4545	5.e-002	4.2931
11444	19.107	1.1818	0.	35.352
11445	19.015	1.2727	0.	35.621
11446	19.107	1.2727	5.e-002	4.2922
11447	19.107	1.	0.	33.005
11448	19.015	1.0909	0.	33.441
11449	19.107	1.0909	5.e-002	4.2912
11450	19.107	0.81818	0.	30.565
11451	19.015	0.90909	0.	31.157
11452	19.107	0.90909	5.e-002	4.2896
11453	19.107	0.63636	0.	28.079
11454	19.015	0.72727	0.	28.806
11455	19.107	0.72727	5.e-002	4.2867
11456	19.107	0.45455	0.	25.649
11457	19.015	0.54545	0.	26.44
11458	19.107	0.54545	5.e-002	4.269
11459	19.107	0.27273	0.	24.345
11460	19.015	0.36364	0.	24.211
11461	19.107	0.36364	5.e-002	4.0313
11462	19.015	0.18182	0.	24.208
11463	19.107	0.18182	5.e-002	0.57699
11464	19.107	9.0909e-002	0.	16.034
11465	18.923	5.7273	0.	23.904
11466	18.831	5.8182	0.	23.888
11467	18.923	5.8182	5.e-002	0.5225
11468	18.923	5.9091	0.	15.838
11469	18.923	5.5455	0.	24.95
11470	18.831	5.6364	0.	23.651
11471	18.923	5.6364	5.e-002	4.0378
11472	18.923	5.3636	0.	27.122
11473	18.831	5.4545	0.	25.633
11474	18.923	5.4545	5.e-002	4.2796
11475	18.923	5.1818	0.	29.355
11476	18.831	5.2727	0.	27.754
11477	18.923	5.2727	5.e-002	4.2975
11478	18.923	5.	0.	31.553
11479	18.831	5.0909	0.	29.868
11480	18.923	5.0909	5.e-002	4.3005
11481	18.923	4.8182	0.	33.672
11482	18.831	4.9091	0.	31.927
11483	18.923	4.9091	5.e-002	4.3021
11484	18.923	4.6364	0.	35.678
11485	18.831	4.7273	0.	33.896
11486	18.923	4.7273	5.e-002	4.3033
11487	18.923	4.4545	0.	37.541
11488	18.831	4.5455	0.	35.745
11489	18.923	4.5455	5.e-002	4.3042
11490	18.923	4.2727	0.	39.235
11491	18.831	4.3636	0.	37.446
11492	18.923	4.3636	5.e-002	4.305
11493	18.923	4.0909	0.	40.739
11494	18.831	4.1818	0.	38.976
11495	18.923	4.1818	5.e-002	4.3056
11496	18.923	3.9091	0.	42.035
11497	18.831	4.	0.	40.317
11498	18.923	4.	5.e-002	4.306
11499	18.923	3.7273	0.	43.111
11500	18.831	3.8182	0.	41.455
11501	18.923	3.8182	5.e-002	4.3064
11502	18.923	3.5455	0.	43.957
11503	18.831	3.6364	0.	42.376
11504	18.923	3.6364	5.e-002	4.3066
11505	18.923	3.3636	0.	44.566
11506	18.831	3.4545	0.	43.074
11507	18.923	3.4545	5.e-002	4.3069
11508	18.923	3.1818	0.	44.933
11509	18.831	3.2727	0.	43.543
11510	18.923	3.2727	5.e-002	4.307
11511	18.923	3.	0.	45.055
11512	18.831	3.0909	0.	43.778
11513	18.923	3.0909	5.e-002	4.307
11514	18.923	2.8182	0.	44.933
11515	18.831	2.9091	0.	43.778
11516	18.923	2.9091	5.e-002	4.307
11517	18.923	2.6364	0.	44.566
11518	18.831	2.7273	0.	43.543
11519	18.923	2.7273	5.e-002	4.307
11520	18.923	2.4545	0.	43.957
11521	18.831	2.5455	0.	43.074
11522	18.923	2.5455	5.e-002	4.3068
11523	18.923	2.2727	0.	43.112
11524	18.831	2.3636	0.	42.376
11525	18.923	2.3636	5.e-002	4.3066
11526	18.923	2.0909	0.	42.036
11527	18.831	2.1818	0.	41.455
11528	18.923	2.1818	5.e-002	4.3064
11529	18.923	1.9091	0.	40.739
11530	18.831	2.	0.	40.317
11531	18.923	2.	5.e-002	4.306
11532	18.923	1.7273	0.	39.235
11533	18.831	1.8182	0.	38.976
11534	18.923	1.8182	5.e-002	4.3055
11535	18.923	1.5455	0.	37.541
11536	18.831	1.6364	0.	37.446
11537	18.923	1.6364	5.e-002	4.305
11538	18.923	1.3636	0.	35.678
11539	18.831	1.4545	0.	35.745
11540	18.923	1.4545	5.e-002	4.3042
11541	18.923	1.1818	0.	33.672
11542	18.831	1.2727	0.	33.897
11543	18.923	1.2727	5.e-002	4.3033
11544	18.923	1.	0.	31.553
11545	18.831	1.0909	0.	31.927
11546	18.923	1.0909	5.e-002	4.3021
11547	18.923	0.81818	0.	29.355
11548	18.831	0.90909	0.	29.868
11549	18.923	0.90909	5.e-002	4.3005
11550	18.923	0.63636	0.	27.122
11551	18.831	0.72727	0.	27.755
11552	18.923	0.72727	5.e-002	4.2975
11553	18.923	0.45455	0.	24.95
11554	18.831	0.54545	0.	25.633
11555	18.923	0.54545	5.e-002	4.2795
11556	18.923	0.27273	0.	23.904
11557	18.831	0.36364	0.	23.651
11558	18.923	0.36364	5.e-002	4.0377
11559	18.831	0.18182	0.	23.888
11560	18.923	0.18182	5.e-002	0.52248
11561	18.923	9.0909e-002	0.	15.838
11562	18.74	5.7273	0.	23.47
11563	18.648	5.8182	0.	23.564
11564	18.74	5.8182	5.e-002	0.47364
11565	18.74	5.9091	0.	15.636
11566	18.74	5.5455	0.	24.285
11567	18.648	5.6364	0.	23.113
11568	18.74	5.6364	5.e-002	4.0455
11569	18.74	5.3636	0.	26.222
11570	18.648	5.4545	0.	24.871
11571	18.74	5.4545	5.e-002	4.2911
11572	18.74	5.1818	0.	28.226
11573	18.648	5.2727	0.	26.769
11574	18.74	5.2727	5.e-002	4.3093
11575	18.74	5.	0.	30.203
11576	18.648	5.0909	0.	28.667
11577	18.74	5.0909	5.e-002	4.3122
11578	18.74	4.8182	0.	32.113
11579	18.648	4.9091	0.	30.519
11580	18.74	4.9091	5.e-002	4.3138
11581	18.74	4.6364	0.	33.927
11582	18.648	4.7273	0.	32.296
11583	18.74	4.7273	5.e-002	4.3151
11584	18.74	4.4545	0.	35.615
11585	18.648	4.5455	0.	33.967
11586	18.74	4.5455	5.e-002	4.3162
11587	18.74	4.2727	0.	37.153
11588	18.648	4.3636	0.	35.508
11589	18.74	4.3636	5.e-002	4.317
11590	18.74	4.0909	0.	38.522
11591	18.648	4.1818	0.	36.898
11592	18.74	4.1818	5.e-002	4.3176
11593	18.74	3.9091	0.	39.704
11594	18.648	4.	0.	38.119
11595	18.74	4.	5.e-002	4.3182
11596	18.74	3.7273	0.	40.688
11597	18.648	3.8182	0.	39.156
11598	18.74	3.8182	5.e-002	4.3186
11599	18.74	3.5455	0.	41.463
11600	18.648	3.6364	0.	39.998
11601	18.74	3.6364	5.e-002	4.3189
11602	18.74	3.3636	0.	42.021
11603	18.648	3.4545	0.	40.637
11604	18.74	3.4545	5.e-002	4.3191
11605	18.74	3.1818	0.	42.357
11606	18.648	3.2727	0.	41.066
11607	18.74	3.2727	5.e-002	4.3193
11608	18.74	3.	0.	42.47
11609	18.648	3.0909	0.	41.281
11610	18.74	3.0909	5.e-002	4.3194
11611	18.74	2.8182	0.	42.357
11612	18.648	2.9091	0.	41.281
11613	18.74	2.9091	5.e-002	4.3194
11614	18.74	2.6364	0.	42.021
11615	18.648	2.7273	0.	41.066
11616	18.74	2.7273	5.e-002	4.3193
11617	18.74	2.4545	0.	41.463
11618	18.648	2.5455	0.	40.637
11619	18.74	2.5455	5.e-002	4.3191
11620	18.74	2.2727	0.	40.688
11621	18.648	2.3636	0.	39.998
11622	18.74	2.3636	5.e-002	4.3189
11623	18.74	2.0909	0.	39.705
11624	18.648	2.1818	0.	39.156
11625	18.74	2.1818	5.e-002	4.3186
11626	18.74	1.9091	0.	38.522
11627	18.648	2.	0.	38.119
11628	18.74	2.	5.e-002	4.3182
11629	18.74	1.7273	0.	37.153
11630	18.648	1.8182	0.	36.898
11631	18.74	1.8182	5.e-002	4.3176
11632	18.74	1.5455	0.	35.615
11633	18.648	1.6364	0.	35.508
11634	18.74	1.6364	5.e-002	4.317
11635	18.74	1.3636	0.	33.927
11636	18.648	1.4545	0.	33.967
11637	18.74	1.4545	5.e-002	4.3161
11638	18.74	1.1818	0.	32.113
11639	18.648	1.2727	0.	32.296
11640	18.74	1.2727	5.e-002	4.3151
11641	18.74	1.	0.	30.203
11642	18.648	1.0909	0.	30.52
11643	18.74	1.0909	5.e-002	4.3138
11644	18.74	0.81818	0.	28.226
11645	18.648	0.90909	0.	28.667
11646	18.74	0.90909	5.e-002	4.3122
11647	18.74	0.63636	0.	26.222
11648	18.648	0.72727	0.	26.77
11649	18.74	0.72727	5.e-002	4.3092
11650	18.74	0.45455	0.	24.285
11651	18.648	0.54545	0.	24.871
11652	18.74	0.54545	5.e-002	4.2911
11653	18.74	0.27273	0.	23.47
11654	18.648	0.36364	0.	23.113
11655	18.74	0.36364	5.e-002	4.0455
11656	18.648	0.18182	0.	23.564
11657	18.74	0.18182	5.e-002	0.47363
11658	18.74	9.0909e-002	0.	15.636
11659	18.556	5.7273	0.	23.045
11660	18.464	5.8182	0.	23.237
11661	18.556	5.8182	5.e-002	0.43004
11662	18.556	5.9091	0.	15.43
11663	18.556	5.5455	0.	23.651
11664	18.464	5.6364	0.	22.595
11665	18.556	5.6364	5.e-002	4.0543
11666	18.556	5.3636	0.	25.375
11667	18.464	5.4545	0.	24.148
11668	18.556	5.4545	5.e-002	4.3035
11669	18.556	5.1818	0.	27.17
11670	18.464	5.2727	0.	25.845
11671	18.556	5.2727	5.e-002	4.3218
11672	18.556	5.	0.	28.945
11673	18.464	5.0909	0.	27.544
11674	18.556	5.0909	5.e-002	4.3247
11675	18.556	4.8182	0.	30.664
11676	18.464	4.9091	0.	29.208
11677	18.556	4.9091	5.e-002	4.3264
11678	18.556	4.6364	0.	32.3
11679	18.464	4.7273	0.	30.807
11680	18.556	4.7273	5.e-002	4.3277
11681	18.556	4.4545	0.	33.826
11682	18.464	4.5455	0.	32.315
11683	18.556	4.5455	5.e-002	4.3288
11684	18.556	4.2727	0.	35.22
11685	18.464	4.3636	0.	33.708
11686	18.556	4.3636	5.e-002	4.3296
11687	18.556	4.0909	0.	36.462
11688	18.464	4.1818	0.	34.967
11689	18.556	4.1818	5.e-002	4.3304
11690	18.556	3.9091	0.	37.538
11691	18.464	4.	0.	36.075
11692	18.556	4.	5.e-002	4.3309
11693	18.556	3.7273	0.	38.434
11694	18.464	3.8182	0.	37.018
11695	18.556	3.8182	5.e-002	4.3314
11696	18.556	3.5455	0.	39.141
11697	18.464	3.6364	0.	37.785
11698	18.556	3.6364	5.e-002	4.3317
11699	18.556	3.3636	0.	39.651
11700	18.464	3.4545	0.	38.367
11701	18.556	3.4545	5.e-002	4.332
11702	18.556	3.1818	0.	39.959
11703	18.464	3.2727	0.	38.759
11704	18.556	3.2727	5.e-002	4.3322
11705	18.556	3.	0.	40.062
11706	18.464	3.0909	0.	38.955
11707	18.556	3.0909	5.e-002	4.3323
11708	18.556	2.8182	0.	39.959
11709	18.464	2.9091	0.	38.955
11710	18.556	2.9091	5.e-002	4.3323
11711	18.556	2.6364	0.	39.651
11712	18.464	2.7273	0.	38.759
11713	18.556	2.7273	5.e-002	4.3322
11714	18.556	2.4545	0.	39.141
11715	18.464	2.5455	0.	38.367
11716	18.556	2.5455	5.e-002	4.332
11717	18.556	2.2727	0.	38.434
11718	18.464	2.3636	0.	37.785
11719	18.556	2.3636	5.e-002	4.3318
11720	18.556	2.0909	0.	37.538
11721	18.464	2.1818	0.	37.018
11722	18.556	2.1818	5.e-002	4.3314
11723	18.556	1.9091	0.	36.462
11724	18.464	2.	0.	36.075
11725	18.556	2.	5.e-002	4.3309
11726	18.556	1.7273	0.	35.22
11727	18.464	1.8182	0.	34.967
11728	18.556	1.8182	5.e-002	4.3303
11729	18.556	1.5455	0.	33.826
11730	18.464	1.6364	0.	33.708
11731	18.556	1.6364	5.e-002	4.3296
11732	18.556	1.3636	0.	32.3
11733	18.464	1.4545	0.	32.315
11734	18.556	1.4545	5.e-002	4.3287
11735	18.556	1.1818	0.	30.664
11736	18.464	1.2727	0.	30.807
11737	18.556	1.2727	5.e-002	4.3277
11738	18.556	1.	0.	28.945
11739	18.464	1.0909	0.	29.208
11740	18.556	1.0909	5.e-002	4.3264
11741	18.556	0.81818	0.	27.17
11742	18.464	0.90909	0.	27.545
11743	18.556	0.90909	5.e-002	4.3247
11744	18.556	0.63636	0.	25.375
11745	18.464	0.72727	0.	25.845
11746	18.556	0.72727	5.e-002	4.3218
11747	18.556	0.45455	0.	23.651
11748	18.464	0.54545	0.	24.149
11749	18.556	0.54545	5.e-002	4.3035
11750	18.556	0.27273	0.	23.045
11751	18.464	0.36364	0.	22.595
11752	18.556	0.36364	5.e-002	4.0543
11753	18.464	0.18182	0.	23.237
11754	18.556	0.18182	5.e-002	0.43003
11755	18.556	9.0909e-002	0.	15.43
11756	18.372	5.7273	0.	22.628
11757	18.28	5.8182	0.	22.908
11758	18.372	5.8182	5.e-002	0.39134
11759	18.372	5.9091	0.	15.222
11760	18.372	5.5455	0.	23.046
11761	18.28	5.6364	0.	22.096
11762	18.372	5.6364	5.e-002	4.0641
11763	18.372	5.3636	0.	24.576
11764	18.28	5.4545	0.	23.463
11765	18.372	5.4545	5.e-002	4.3167
11766	18.372	5.1818	0.	26.18
11767	18.28	5.2727	0.	24.975
11768	18.372	5.2727	5.e-002	4.3351
11769	18.372	5.	0.	27.77
11770	18.28	5.0909	0.	26.494
11771	18.372	5.0909	5.e-002	4.338
11772	18.372	4.8182	0.	29.314
11773	18.28	4.9091	0.	27.985
11774	18.372	4.9091	5.e-002	4.3396
11775	18.372	4.6364	0.	30.786
11776	18.28	4.7273	0.	29.421
11777	18.372	4.7273	5.e-002	4.3409
11778	18.372	4.4545	0.	32.163
11779	18.28	4.5455	0.	30.777
11780	18.372	4.5455	5.e-002	4.342
11781	18.372	4.2727	0.	33.422
11782	18.28	4.3636	0.	32.034
11783	18.372	4.3636	5.e-002	4.3429
11784	18.372	4.0909	0.	34.547
11785	18.28	4.1818	0.	33.171
11786	18.372	4.1818	5.e-002	4.3437
11787	18.372	3.9091	0.	35.523
11788	18.28	4.	0.	34.174
11789	18.372	4.	5.e-002	4.3443
11790	18.372	3.7273	0.	36.337
11791	18.28	3.8182	0.	35.028
11792	18.372	3.8182	5.e-002	4.3448
11793	18.372	3.5455	0.	36.98
11794	18.28	3.6364	0.	35.724
11795	18.372	3.6364	5.e-002	4.3451
11796	18.372	3.3636	0.	37.444
11797	18.28	3.4545	0.	36.253
11798	18.372	3.4545	5.e-002	4.3454
11799	18.372	3.1818	0.	37.725
11800	18.28	3.2727	0.	36.609
11801	18.372	3.2727	5.e-002	4.3456
11802	18.372	3.	0.	37.818
11803	18.28	3.0909	0.	36.788
11804	18.372	3.0909	5.e-002	4.3457
11805	18.372	2.8182	0.	37.725
11806	18.28	2.9091	0.	36.788
11807	18.372	2.9091	5.e-002	4.3457
11808	18.372	2.6364	0.	37.444
11809	18.28	2.7273	0.	36.609
11810	18.372	2.7273	5.e-002	4.3456
11811	18.372	2.4545	0.	36.98
11812	18.28	2.5455	0.	36.253
11813	18.372	2.5455	5.e-002	4.3454
11814	18.372	2.2727	0.	36.337
11815	18.28	2.3636	0.	35.724
11816	18.372	2.3636	5.e-002	4.3451
11817	18.372	2.0909	0.	35.523
11818	18.28	2.1818	0.	35.028
11819	18.372	2.1818	5.e-002	4.3447
11820	18.372	1.9091	0.	34.547
11821	18.28	2.	0.	34.174
11822	18.372	2.	5.e-002	4.3443
11823	18.372	1.7273	0.	33.422
11824	18.28	1.8182	0.	33.171
11825	18.372	1.8182	5.e-002	4.3436
11826	18.372	1.5455	0.	32.163
11827	18.28	1.6364	0.	32.034
11828	18.372	1.6364	5.e-002	4.3429
11829	18.372	1.3636	0.	30.786
11830	18.28	1.4545	0.	30.777
11831	18.372	1.4545	5.e-002	4.342
11832	18.372	1.1818	0.	29.314
11833	18.28	1.2727	0.	29.421
11834	18.372	1.2727	5.e-002	4.3409
11835	18.372	1.	0.	27.77
11836	18.28	1.0909	0.	27.985
11837	18.372	1.0909	5.e-002	4.3396
11838	18.372	0.81818	0.	26.18
11839	18.28	0.90909	0.	26.494
11840	18.372	0.90909	5.e-002	4.338
11841	18.372	0.63636	0.	24.577
11842	18.28	0.72727	0.	24.975
11843	18.372	0.72727	5.e-002	4.3351
11844	18.372	0.45455	0.	23.046
11845	18.28	0.54545	0.	23.463
11846	18.372	0.54545	5.e-002	4.3167
11847	18.372	0.27273	0.	22.628
11848	18.28	0.36364	0.	22.096
11849	18.372	0.36364	5.e-002	4.0641
11850	18.28	0.18182	0.	22.908
11851	18.372	0.18182	5.e-002	0.39133
11852	18.372	9.0909e-002	0.	15.222
11853	18.188	5.7273	0.	22.219
11854	18.097	5.8182	0.	22.579
11855	18.188	5.8182	5.e-002	0.35724
11856	18.188	5.9091	0.	15.013
11857	18.188	5.5455	0.	22.467
11858	18.097	5.6364	0.	21.614
11859	18.188	5.6364	5.e-002	4.0747
11860	18.188	5.3636	0.	23.821
11861	18.097	5.4545	0.	22.812
11862	18.188	5.4545	5.e-002	4.3305
11863	18.188	5.1818	0.	25.25
11864	18.097	5.2727	0.	24.155
11865	18.188	5.2727	5.e-002	4.349
11866	18.188	5.	0.	26.671
11867	18.097	5.0909	0.	25.509
11868	18.188	5.0909	5.e-002	4.3519
11869	18.188	4.8182	0.	28.054
11870	18.097	4.9091	0.	26.841
11871	18.188	4.9091	5.e-002	4.3534
11872	18.188	4.6364	0.	29.376
11873	18.097	4.7273	0.	28.126
11874	18.188	4.7273	5.e-002	4.3547
11875	18.188	4.4545	0.	30.614
11876	18.097	4.5455	0.	29.344
11877	18.188	4.5455	5.e-002	4.3558
11878	18.188	4.2727	0.	31.749
11879	18.097	4.3636	0.	30.473
11880	18.188	4.3636	5.e-002	4.3567
11881	18.188	4.0909	0.	32.765
11882	18.097	4.1818	0.	31.498
11883	18.188	4.1818	5.e-002	4.3575
11884	18.188	3.9091	0.	33.647
11885	18.097	4.	0.	32.402
11886	18.188	4.	5.e-002	4.3581
11887	18.188	3.7273	0.	34.384
11888	18.097	3.8182	0.	33.175
11889	18.188	3.8182	5.e-002	4.3586
11890	18.188	3.5455	0.	34.967
11891	18.097	3.6364	0.	33.804
11892	18.188	3.6364	5.e-002	4.359
11893	18.188	3.3636	0.	35.388
11894	18.097	3.4545	0.	34.283
11895	18.188	3.4545	5.e-002	4.3593
11896	18.188	3.1818	0.	35.642
11897	18.097	3.2727	0.	34.606
11898	18.188	3.2727	5.e-002	4.3595
11899	18.188	3.	0.	35.727
11900	18.097	3.0909	0.	34.768
11901	18.188	3.0909	5.e-002	4.3596
11902	18.188	2.8182	0.	35.642
11903	18.097	2.9091	0.	34.768
11904	18.188	2.9091	5.e-002	4.3596
11905	18.188	2.6364	0.	35.388
11906	18.097	2.7273	0.	34.606
11907	18.188	2.7273	5.e-002	4.3595
11908	18.188	2.4545	0.	34.967
11909	18.097	2.5455	0.	34.283
11910	18.188	2.5455	5.e-002	4.3593
11911	18.188	2.2727	0.	34.384
11912	18.097	2.3636	0.	33.804
11913	18.188	2.3636	5.e-002	4.359
11914	18.188	2.0909	0.	33.647
11915	18.097	2.1818	0.	33.175
11916	18.188	2.1818	5.e-002	4.3586
11917	18.188	1.9091	0.	32.765
11918	18.097	2.	0.	32.402
11919	18.188	2.	5.e-002	4.3581
11920	18.188	1.7273	0.	31.749
11921	18.097	1.8182	0.	31.498
11922	18.188	1.8182	5.e-002	4.3575
11923	18.188	1.5455	0.	30.614
11924	18.097	1.6364	0.	30.473
11925	18.188	1.6364	5.e-002	4.3567
11926	18.188	1.3636	0.	29.376
11927	18.097	1.4545	0.	29.344
11928	18.188	1.4545	5.e-002	4.3558
11929	18.188	1.1818	0.	28.055
11930	18.097	1.2727	0.	28.126
11931	18.188	1.2727	5.e-002	4.3547
11932	18.188	1.	0.	26.671
11933	18.097	1.0909	0.	26.841
11934	18.188	1.0909	5.e-002	4.3534
11935	18.188	0.81818	0.	25.25
11936	18.097	0.90909	0.	25.509
11937	18.188	0.90909	5.e-002	4.3519
11938	18.188	0.63636	0.	23.821
11939	18.097	0.72727	0.	24.155
11940	18.188	0.72727	5.e-002	4.349
11941	18.188	0.45455	0.	22.468
11942	18.097	0.54545	0.	22.812
11943	18.188	0.54545	5.e-002	4.3305
11944	18.188	0.27273	0.	22.219
11945	18.097	0.36364	0.	21.614
11946	18.188	0.36364	5.e-002	4.0747
11947	18.097	0.18182	0.	22.579
11948	18.188	0.18182	5.e-002	0.35722
11949	18.188	9.0909e-002	0.	15.013
11950	18.005	5.7273	0.	21.819
11951	17.913	5.8182	0.	22.25
11952	18.005	5.8182	5.e-002	0.32746
11953	18.005	5.9091	0.	14.803
11954	18.005	5.5455	0.	21.914
11955	17.913	5.6364	0.	21.149
11956	18.005	5.6364	5.e-002	4.0861
11957	18.005	5.3636	0.	23.106
11958	17.913	5.4545	0.	22.192
11959	18.005	5.4545	5.e-002	4.3449
11960	18.005	5.1818	0.	24.375
11961	17.913	5.2727	0.	23.38
11962	18.005	5.2727	5.e-002	4.3636
11963	18.005	5.	0.	25.641
11964	17.913	5.0909	0.	24.583
11965	18.005	5.0909	5.e-002	4.3663
11966	18.005	4.8182	0.	26.876
11967	17.913	4.9091	0.	25.769
11968	18.005	4.9091	5.e-002	4.3679
11969	18.005	4.6364	0.	28.059
11970	17.913	4.7273	0.	26.916
11971	18.005	4.7273	5.e-002	4.3691
11972	18.005	4.4545	0.	29.169
11973	17.913	4.5455	0.	28.005
11974	18.005	4.5455	5.e-002	4.3702
11975	18.005	4.2727	0.	30.189
11976	17.913	4.3636	0.	29.017
11977	18.005	4.3636	5.e-002	4.3711
11978	18.005	4.0909	0.	31.103
11979	17.913	4.1818	0.	29.937
11980	18.005	4.1818	5.e-002	4.3718
11981	18.005	3.9091	0.	31.898
11982	17.913	4.	0.	30.75
11983	18.005	4.	5.e-002	4.3725
11984	18.005	3.7273	0.	32.563
11985	17.913	3.8182	0.	31.445
11986	18.005	3.8182	5.e-002	4.373
11987	18.005	3.5455	0.	33.089
11988	17.913	3.6364	0.	32.013
11989	18.005	3.6364	5.e-002	4.3734
11990	18.005	3.3636	0.	33.47
11991	17.913	3.4545	0.	32.445
11992	18.005	3.4545	5.e-002	4.3737
11993	18.005	3.1818	0.	33.7
11994	17.913	3.2727	0.	32.736
11995	18.005	3.2727	5.e-002	4.3739
11996	18.005	3.	0.	33.777
11997	17.913	3.0909	0.	32.882
11998	18.005	3.0909	5.e-002	4.3739
11999	18.005	2.8182	0.	33.7
12000	17.913	2.9091	0.	32.882
12001	18.005	2.9091	5.e-002	4.3739
12002	18.005	2.6364	0.	33.47
12003	17.913	2.7273	0.	32.736
12004	18.005	2.7273	5.e-002	4.3738
12005	18.005	2.4545	0.	33.089
12006	17.913	2.5455	0.	32.445
12007	18.005	2.5455	5.e-002	4.3737
12008	18.005	2.2727	0.	32.563
12009	17.913	2.3636	0.	32.013
12010	18.005	2.3636	5.e-002	4.3734
12011	18.005	2.0909	0.	31.898
12012	17.913	2.1818	0.	31.445
12013	18.005	2.1818	5.e-002	4.373
12014	18.005	1.9091	0.	31.103
12015	17.913	2.	0.	30.75
12016	18.005	2.	5.e-002	4.3725
12017	18.005	1.7273	0.	30.189
12018	17.913	1.8182	0.	29.937
12019	18.005	1.8182	5.e-002	4.3718
12020	18.005	1.5455	0.	29.169
12021	17.913	1.6364	0.	29.017
12022	18.005	1.6364	5.e-002	4.3711
12023	18.005	1.3636	0.	28.059
12024	17.913	1.4545	0.	28.005
12025	18.005	1.4545	5.e-002	4.3701
12026	18.005	1.1818	0.	26.876
12027	17.913	1.2727	0.	26.916
12028	18.005	1.2727	5.e-002	4.3691
12029	18.005	1.	0.	25.641
12030	17.913	1.0909	0.	25.769
12031	18.005	1.0909	5.e-002	4.3678
12032	18.005	0.81818	0.	24.375
12033	17.913	0.90909	0.	24.583
12034	18.005	0.90909	5.e-002	4.3663
12035	18.005	0.63636	0.	23.106
12036	17.913	0.72727	0.	23.38
12037	18.005	0.72727	5.e-002	4.3635
12038	18.005	0.45455	0.	21.914
12039	17.913	0.54545	0.	22.193
12040	18.005	0.54545	5.e-002	4.3449
12041	18.005	0.27273	0.	21.819
12042	17.913	0.36364	0.	21.149
12043	18.005	0.36364	5.e-002	4.0861
12044	17.913	0.18182	0.	22.25
12045	18.005	0.18182	5.e-002	0.32745
12046	18.005	9.0909e-002	0.	14.803
12047	17.821	5.7273	0.	21.428
12048	17.729	5.8182	0.	21.923
12049	17.821	5.8182	5.e-002	0.30174
12050	17.821	5.9091	0.	14.593
12051	17.821	5.5455	0.	21.384
12052	17.729	5.6364	0.	20.699
12053	17.821	5.6364	5.e-002	4.0982
12054	17.821	5.3636	0.	22.428
12055	17.729	5.4545	0.	21.601
12056	17.821	5.4545	5.e-002	4.3598
12057	17.821	5.1818	0.	23.55
12058	17.729	5.2727	0.	22.647
12059	17.821	5.2727	5.e-002	4.3786
12060	17.821	5.	0.	24.674
12061	17.729	5.0909	0.	23.711
12062	17.821	5.0909	5.e-002	4.3813
12063	17.821	4.8182	0.	25.773
12064	17.729	4.9091	0.	24.762
12065	17.821	4.9091	5.e-002	4.3828
12066	17.821	4.6364	0.	26.827
12067	17.729	4.7273	0.	25.782
12068	17.821	4.7273	5.e-002	4.384
12069	17.821	4.4545	0.	27.819
12070	17.729	4.5455	0.	26.752
12071	17.821	4.5455	5.e-002	4.385
12072	17.821	4.2727	0.	28.732
12073	17.729	4.3636	0.	27.656
12074	17.821	4.3636	5.e-002	4.3859
12075	17.821	4.0909	0.	29.551
12076	17.729	4.1818	0.	28.478
12077	17.821	4.1818	5.e-002	4.3867
12078	17.821	3.9091	0.	30.265
12079	17.729	4.	0.	29.207
12080	17.821	4.	5.e-002	4.3873
12081	17.821	3.7273	0.	30.863
12082	17.729	3.8182	0.	29.83
12083	17.821	3.8182	5.e-002	4.3878
12084	17.821	3.5455	0.	31.337
12085	17.729	3.6364	0.	30.339
12086	17.821	3.6364	5.e-002	4.3882
12087	17.821	3.3636	0.	31.68
12088	17.729	3.4545	0.	30.728
12089	17.821	3.4545	5.e-002	4.3885
12090	17.821	3.1818	0.	31.887
12091	17.729	3.2727	0.	30.989
12092	17.821	3.2727	5.e-002	4.3887
12093	17.821	3.	0.	31.956
12094	17.729	3.0909	0.	31.121
12095	17.821	3.0909	5.e-002	4.3888
12096	17.821	2.8182	0.	31.887
12097	17.729	2.9091	0.	31.121
12098	17.821	2.9091	5.e-002	4.3888
12099	17.821	2.6364	0.	31.68
12100	17.729	2.7273	0.	30.989
12101	17.821	2.7273	5.e-002	4.3887
12102	17.821	2.4545	0.	31.337
12103	17.729	2.5455	0.	30.728
12104	17.821	2.5455	5.e-002	4.3885
12105	17.821	2.2727	0.	30.863
12106	17.729	2.3636	0.	30.339
12107	17.821	2.3636	5.e-002	4.3882
12108	17.821	2.0909	0.	30.265
12109	17.729	2.1818	0.	29.83
12110	17.821	2.1818	5.e-002	4.3878
12111	17.821	1.9091	0.	29.551
12112	17.729	2.	0.	29.207
12113	17.821	2.	5.e-002	4.3873
12114	17.821	1.7273	0.	28.732
12115	17.729	1.8182	0.	28.478
12116	17.821	1.8182	5.e-002	4.3867
12117	17.821	1.5455	0.	27.819
12118	17.729	1.6364	0.	27.656
12119	17.821	1.6364	5.e-002	4.3859
12120	17.821	1.3636	0.	26.827
12121	17.729	1.4545	0.	26.752
12122	17.821	1.4545	5.e-002	4.385
12123	17.821	1.1818	0.	25.773
12124	17.729	1.2727	0.	25.782
12125	17.821	1.2727	5.e-002	4.384
12126	17.821	1.	0.	24.674
12127	17.729	1.0909	0.	24.762
12128	17.821	1.0909	5.e-002	4.3827
12129	17.821	0.81818	0.	23.551
12130	17.729	0.90909	0.	23.711
12131	17.821	0.90909	5.e-002	4.3813
12132	17.821	0.63636	0.	22.428
12133	17.729	0.72727	0.	22.647
12134	17.821	0.72727	5.e-002	4.3786
12135	17.821	0.45455	0.	21.384
12136	17.729	0.54545	0.	21.601
12137	17.821	0.54545	5.e-002	4.3598
12138	17.821	0.27273	0.	21.428
12139	17.729	0.36364	0.	20.7
12140	17.821	0.36364	5.e-002	4.0982
12141	17.729	0.18182	0.	21.923
12142	17.821	0.18182	5.e-002	0.30173
12143	17.821	9.0909e-002	0.	14.593
12144	17.637	5.7273	0.	21.045
12145	17.545	5.8182	0.	21.598
12146	17.637	5.8182	5.e-002	0.27982
12147	17.637	5.9091	0.	14.383
12148	17.637	5.5455	0.	20.874
12149	17.545	5.6364	0.	20.265
12150	17.637	5.6364	5.e-002	4.1109
12151	17.637	5.3636	0.	21.783
12152	17.545	5.4545	0.	21.037
12153	17.637	5.4545	5.e-002	4.3752
12154	17.637	5.1818	0.	22.771
12155	17.545	5.2727	0.	21.952
12156	17.637	5.2727	5.e-002	4.3941
12157	17.637	5.	0.	23.763
12158	17.545	5.0909	0.	22.887
12159	17.637	5.0909	5.e-002	4.3967
12160	17.637	4.8182	0.	24.737
12161	17.545	4.9091	0.	23.815
12162	17.637	4.9091	5.e-002	4.3981
12163	17.637	4.6364	0.	25.673
12164	17.545	4.7273	0.	24.718
12165	17.637	4.7273	5.e-002	4.3993
12166	17.637	4.4545	0.	26.555
12167	17.545	4.5455	0.	25.578
12168	17.637	4.5455	5.e-002	4.4003
12169	17.637	4.2727	0.	27.369
12170	17.545	4.3636	0.	26.381
12171	17.637	4.3636	5.e-002	4.4012
12172	17.637	4.0909	0.	28.101
12173	17.545	4.1818	0.	27.113
12174	17.637	4.1818	5.e-002	4.4019
12175	17.637	3.9091	0.	28.739
12176	17.545	4.	0.	27.762
12177	17.637	4.	5.e-002	4.4025
12178	17.637	3.7273	0.	29.274
12179	17.545	3.8182	0.	28.319
12180	17.637	3.8182	5.e-002	4.403
12181	17.637	3.5455	0.	29.699
12182	17.545	3.6364	0.	28.774
12183	17.637	3.6364	5.e-002	4.4034
12184	17.637	3.3636	0.	30.006
12185	17.545	3.4545	0.	29.121
12186	17.637	3.4545	5.e-002	4.4037
12187	17.637	3.1818	0.	30.192
12188	17.545	3.2727	0.	29.356
12189	17.637	3.2727	5.e-002	4.4039
12190	17.637	3.	0.	30.255
12191	17.545	3.0909	0.	29.474
12192	17.637	3.0909	5.e-002	4.404
12193	17.637	2.8182	0.	30.192
12194	17.545	2.9091	0.	29.474
12195	17.637	2.9091	5.e-002	4.404
12196	17.637	2.6364	0.	30.006
12197	17.545	2.7273	0.	29.356
12198	17.637	2.7273	5.e-002	4.4039
12199	17.637	2.4545	0.	29.699
12200	17.545	2.5455	0.	29.121
12201	17.637	2.5455	5.e-002	4.4037
12202	17.637	2.2727	0.	29.274
12203	17.545	2.3636	0.	28.774
12204	17.637	2.3636	5.e-002	4.4034
12205	17.637	2.0909	0.	28.739
12206	17.545	2.1818	0.	28.319
12207	17.637	2.1818	5.e-002	4.403
12208	17.637	1.9091	0.	28.101
12209	17.545	2.	0.	27.762
12210	17.637	2.	5.e-002	4.4025
12211	17.637	1.7273	0.	27.369
12212	17.545	1.8182	0.	27.113
12213	17.637	1.8182	5.e-002	4.4019
12214	17.637	1.5455	0.	26.555
12215	17.545	1.6364	0.	26.381
12216	17.637	1.6364	5.e-002	4.4012
12217	17.637	1.3636	0.	25.673
12218	17.545	1.4545	0.	25.578
12219	17.637	1.4545	5.e-002	4.4003
12220	17.637	1.1818	0.	24.737
12221	17.545	1.2727	0.	24.718
12222	17.637	1.2727	5.e-002	4.3993
12223	17.637	1.	0.	23.763
12224	17.545	1.0909	0.	23.815
12225	17.637	1.0909	5.e-002	4.3981
12226	17.637	0.81818	0.	22.771
12227	17.545	0.90909	0.	22.887
12228	17.637	0.90909	5.e-002	4.3967
12229	17.637	0.63636	0.	21.783
12230	17.545	0.72727	0.	21.952
12231	17.637	0.72727	5.e-002	4.394
12232	17.637	0.45455	0.	20.875
12233	17.545	0.54545	0.	21.037
12234	17.637	0.54545	5.e-002	4.3752
12235	17.637	0.27273	0.	21.045
12236	17.545	0.36364	0.	20.265
12237	17.637	0.36364	5.e-002	4.1109
12238	17.545	0.18182	0.	21.598
12239	17.637	0.18182	5.e-002	0.27982
12240	17.637	9.0909e-002	0.	14.383
12241	17.453	5.7273	0.	20.67
12242	17.362	5.8182	0.	21.276
12243	17.453	5.8182	5.e-002	0.26144
12244	17.453	5.9091	0.	14.175
12245	17.453	5.5455	0.	20.385
12246	17.362	5.6364	0.	19.844
12247	17.453	5.6364	5.e-002	4.1242
12248	17.453	5.3636	0.	21.169
12249	17.362	5.4545	0.	20.496
12250	17.453	5.4545	5.e-002	4.3911
12251	17.453	5.1818	0.	22.033
12252	17.362	5.2727	0.	21.292
12253	17.453	5.2727	5.e-002	4.41
12254	17.453	5.	0.	22.904
12255	17.362	5.0909	0.	22.109
12256	17.453	5.0909	5.e-002	4.4126
12257	17.453	4.8182	0.	23.762
12258	17.362	4.9091	0.	22.922
12259	17.453	4.9091	5.e-002	4.4139
12260	17.453	4.6364	0.	24.589
12261	17.362	4.7273	0.	23.716
12262	17.453	4.7273	5.e-002	4.415
12263	17.453	4.4545	0.	25.37
12264	17.362	4.5455	0.	24.475
12265	17.453	4.5455	5.e-002	4.416
12266	17.453	4.2727	0.	26.092
12267	17.362	4.3636	0.	25.184
12268	17.453	4.3636	5.e-002	4.4169
12269	17.453	4.0909	0.	26.742
12270	17.362	4.1818	0.	25.832
12271	17.453	4.1818	5.e-002	4.4176
12272	17.453	3.9091	0.	27.31
12273	17.362	4.	0.	26.408
12274	17.453	4.	5.e-002	4.4182
12275	17.453	3.7273	0.	27.787
12276	17.362	3.8182	0.	26.902
12277	17.453	3.8182	5.e-002	4.4187
12278	17.453	3.5455	0.	28.165
12279	17.362	3.6364	0.	27.307
12280	17.453	3.6364	5.e-002	4.4191
12281	17.453	3.3636	0.	28.44
12282	17.362	3.4545	0.	27.616
12283	17.453	3.4545	5.e-002	4.4194
12284	17.453	3.1818	0.	28.606
12285	17.362	3.2727	0.	27.825
12286	17.453	3.2727	5.e-002	4.4195
12287	17.453	3.	0.	28.661
12288	17.362	3.0909	0.	27.93
12289	17.453	3.0909	5.e-002	4.4196
12290	17.453	2.8182	0.	28.606
12291	17.362	2.9091	0.	27.93
12292	17.453	2.9091	5.e-002	4.4196
12293	17.453	2.6364	0.	28.44
12294	17.362	2.7273	0.	27.825
12295	17.453	2.7273	5.e-002	4.4195
12296	17.453	2.4545	0.	28.165
12297	17.362	2.5455	0.	27.616
12298	17.453	2.5455	5.e-002	4.4194
12299	17.453	2.2727	0.	27.787
12300	17.362	2.3636	0.	27.307
12301	17.453	2.3636	5.e-002	4.4191
12302	17.453	2.0909	0.	27.31
12303	17.362	2.1818	0.	26.903
12304	17.453	2.1818	5.e-002	4.4187
12305	17.453	1.9091	0.	26.742
12306	17.362	2.	0.	26.408
12307	17.453	2.	5.e-002	4.4182
12308	17.453	1.7273	0.	26.092
12309	17.362	1.8182	0.	25.832
12310	17.453	1.8182	5.e-002	4.4176
12311	17.453	1.5455	0.	25.37
12312	17.362	1.6364	0.	25.184
12313	17.453	1.6364	5.e-002	4.4169
12314	17.453	1.3636	0.	24.589
12315	17.362	1.4545	0.	24.475
12316	17.453	1.4545	5.e-002	4.416
12317	17.453	1.1818	0.	23.762
12318	17.362	1.2727	0.	23.716
12319	17.453	1.2727	5.e-002	4.415
12320	17.453	1.	0.	22.904
12321	17.362	1.0909	0.	22.922
12322	17.453	1.0909	5.e-002	4.4139
12323	17.453	0.81818	0.	22.033
12324	17.362	0.90909	0.	22.109
12325	17.453	0.90909	5.e-002	4.4125
12326	17.453	0.63636	0.	21.169
12327	17.362	0.72727	0.	21.292
12328	17.453	0.72727	5.e-002	4.41
12329	17.453	0.45455	0.	20.385
12330	17.362	0.54545	0.	20.496
12331	17.453	0.54545	5.e-002	4.391
12332	17.453	0.27273	0.	20.671
12333	17.362	0.36364	0.	19.844
12334	17.453	0.36364	5.e-002	4.1241
12335	17.362	0.18182	0.	21.276
12336	17.453	0.18182	5.e-002	0.26144
12337	17.453	9.0909e-002	0.	14.175
12338	17.27	5.7273	0.	20.304
12339	17.178	5.8182	0.	20.956
12340	17.27	5.8182	5.e-002	0.2463
12341	17.27	5.9091	0.	13.968
12342	17.27	5.5455	0.	19.914
12343	17.178	5.6364	0.	19.436
12344	17.27	5.6364	5.e-002	4.1379
12345	17.27	5.3636	0.	20.583
12346	17.178	5.4545	0.	19.978
12347	17.27	5.4545	5.e-002	4.4073
12348	17.27	5.1818	0.	21.332
12349	17.178	5.2727	0.	20.662
12350	17.27	5.2727	5.e-002	4.4263
12351	17.27	5.	0.	22.092
12352	17.178	5.0909	0.	21.37
12353	17.27	5.0909	5.e-002	4.4288
12354	17.27	4.8182	0.	22.842
12355	17.178	4.9091	0.	22.078
12356	17.27	4.9091	5.e-002	4.4301
12357	17.27	4.6364	0.	23.568
12358	17.178	4.7273	0.	22.771
12359	17.27	4.7273	5.e-002	4.4312
12360	17.27	4.4545	0.	24.256
12361	17.178	4.5455	0.	23.435
12362	17.27	4.5455	5.e-002	4.4321
12363	17.27	4.2727	0.	24.892
12364	17.178	4.3636	0.	24.058
12365	17.27	4.3636	5.e-002	4.433
12366	17.27	4.0909	0.	25.466
12367	17.178	4.1818	0.	24.629
12368	17.27	4.1818	5.e-002	4.4337
12369	17.27	3.9091	0.	25.969
12370	17.178	4.	0.	25.136
12371	17.27	4.	5.e-002	4.4342
12372	17.27	3.7273	0.	26.391
12373	17.178	3.8182	0.	25.572
12374	17.27	3.8182	5.e-002	4.4347
12375	17.27	3.5455	0.	26.727
12376	17.178	3.6364	0.	25.93
12377	17.27	3.6364	5.e-002	4.4351
12378	17.27	3.3636	0.	26.97
12379	17.178	3.4545	0.	26.203
12380	17.27	3.4545	5.e-002	4.4354
12381	17.27	3.1818	0.	27.118
12382	17.178	3.2727	0.	26.388
12383	17.27	3.2727	5.e-002	4.4356
12384	17.27	3.	0.	27.167
12385	17.178	3.0909	0.	26.481
12386	17.27	3.0909	5.e-002	4.4356
12387	17.27	2.8182	0.	27.118
12388	17.178	2.9091	0.	26.481
12389	17.27	2.9091	5.e-002	4.4356
12390	17.27	2.6364	0.	26.97
12391	17.178	2.7273	0.	26.388
12392	17.27	2.7273	5.e-002	4.4356
12393	17.27	2.4545	0.	26.727
12394	17.178	2.5455	0.	26.203
12395	17.27	2.5455	5.e-002	4.4354
12396	17.27	2.2727	0.	26.391
12397	17.178	2.3636	0.	25.93
12398	17.27	2.3636	5.e-002	4.4351
12399	17.27	2.0909	0.	25.969
12400	17.178	2.1818	0.	25.572
12401	17.27	2.1818	5.e-002	4.4347
12402	17.27	1.9091	0.	25.466
12403	17.178	2.	0.	25.136
12404	17.27	2.	5.e-002	4.4342
12405	17.27	1.7273	0.	24.892
12406	17.178	1.8182	0.	24.629
12407	17.27	1.8182	5.e-002	4.4336
12408	17.27	1.5455	0.	24.256
12409	17.178	1.6364	0.	24.058
12410	17.27	1.6364	5.e-002	4.4329
12411	17.27	1.3636	0.	23.568
12412	17.178	1.4545	0.	23.435
12413	17.27	1.4545	5.e-002	4.4321
12414	17.27	1.1818	0.	22.842
12415	17.178	1.2727	0.	22.771
12416	17.27	1.2727	5.e-002	4.4311
12417	17.27	1.	0.	22.092
12418	17.178	1.0909	0.	22.078
12419	17.27	1.0909	5.e-002	4.4301
12420	17.27	0.81818	0.	21.332
12421	17.178	0.90909	0.	21.37
12422	17.27	0.90909	5.e-002	4.4288
12423	17.27	0.63636	0.	20.583
12424	17.178	0.72727	0.	20.662
12425	17.27	0.72727	5.e-002	4.4262
12426	17.27	0.45455	0.	19.914
12427	17.178	0.54545	0.	19.978
12428	17.27	0.54545	5.e-002	4.4072
12429	17.27	0.27273	0.	20.304
12430	17.178	0.36364	0.	19.436
12431	17.27	0.36364	5.e-002	4.1379
12432	17.178	0.18182	0.	20.956
12433	17.27	0.18182	5.e-002	0.2463
12434	17.27	9.0909e-002	0.	13.968
12435	17.086	5.7273	0.	19.945
12436	16.994	5.8182	0.	20.64
12437	17.086	5.8182	5.e-002	0.23406
12438	17.086	5.9091	0.	13.763
12439	17.086	5.5455	0.	19.459
12440	16.994	5.6364	0.	19.039
12441	17.086	5.6364	5.e-002	4.1521
12442	17.086	5.3636	0.	20.022
12443	16.994	5.4545	0.	19.479
12444	17.086	5.4545	5.e-002	4.4238
12445	17.086	5.1818	0.	20.665
12446	16.994	5.2727	0.	20.061
12447	17.086	5.2727	5.e-002	4.4429
12448	17.086	5.	0.	21.322
12449	16.994	5.0909	0.	20.668
12450	17.086	5.0909	5.e-002	4.4454
12451	17.086	4.8182	0.	21.973
12452	16.994	4.9091	0.	21.278
12453	17.086	4.9091	5.e-002	4.4466
12454	17.086	4.6364	0.	22.605
12455	16.994	4.7273	0.	21.877
12456	17.086	4.7273	5.e-002	4.4477
12457	17.086	4.4545	0.	23.205
12458	16.994	4.5455	0.	22.454
12459	17.086	4.5455	5.e-002	4.4486
12460	17.086	4.2727	0.	23.762
12461	16.994	4.3636	0.	22.996
12462	17.086	4.3636	5.e-002	4.4494
12463	17.086	4.0909	0.	24.266
12464	16.994	4.1818	0.	23.494
12465	17.086	4.1818	5.e-002	4.4501
12466	17.086	3.9091	0.	24.708
12467	16.994	4.	0.	23.938
12468	17.086	4.	5.e-002	4.4506
12469	17.086	3.7273	0.	25.079
12470	16.994	3.8182	0.	24.32
12471	17.086	3.8182	5.e-002	4.4511
12472	17.086	3.5455	0.	25.375
12473	16.994	3.6364	0.	24.634
12474	17.086	3.6364	5.e-002	4.4515
12475	17.086	3.3636	0.	25.59
12476	16.994	3.4545	0.	24.874
12477	17.086	3.4545	5.e-002	4.4517
12478	17.086	3.1818	0.	25.72
12479	16.994	3.2727	0.	25.036
12480	17.086	3.2727	5.e-002	4.4519
12481	17.086	3.	0.	25.763
12482	16.994	3.0909	0.	25.117
12483	17.086	3.0909	5.e-002	4.452
12484	17.086	2.8182	0.	25.72
12485	16.994	2.9091	0.	25.117
12486	17.086	2.9091	5.e-002	4.452
12487	17.086	2.6364	0.	25.59
12488	16.994	2.7273	0.	25.036
12489	17.086	2.7273	5.e-002	4.4519
12490	17.086	2.4545	0.	25.375
12491	16.994	2.5455	0.	24.874
12492	17.086	2.5455	5.e-002	4.4517
12493	17.086	2.2727	0.	25.079
12494	16.994	2.3636	0.	24.634
12495	17.086	2.3636	5.e-002	4.4515
12496	17.086	2.0909	0.	24.708
12497	16.994	2.1818	0.	24.32
12498	17.086	2.1818	5.e-002	4.4511
12499	17.086	1.9091	0.	24.266
12500	16.994	2.	0.	23.938
12501	17.086	2.	5.e-002	4.4506
12502	17.086	1.7273	0.	23.763
12503	16.994	1.8182	0.	23.494
12504	17.086	1.8182	5.e-002	4.45
12505	17.086	1.5455	0.	23.205
12506	16.994	1.6364	0.	22.997
12507	17.086	1.6364	5.e-002	4.4494
12508	17.086	1.3636	0.	22.605
12509	16.994	1.4545	0.	22.454
12510	17.086	1.4545	5.e-002	4.4486
12511	17.086	1.1818	0.	21.973
12512	16.994	1.2727	0.	21.877
12513	17.086	1.2727	5.e-002	4.4476
12514	17.086	1.	0.	21.322
12515	16.994	1.0909	0.	21.278
12516	17.086	1.0909	5.e-002	4.4466
12517	17.086	0.81818	0.	20.666
12518	16.994	0.90909	0.	20.668
12519	17.086	0.90909	5.e-002	4.4453
12520	17.086	0.63636	0.	20.022
12521	16.994	0.72727	0.	20.061
12522	17.086	0.72727	5.e-002	4.4429
12523	17.086	0.45455	0.	19.459
12524	16.994	0.54545	0.	19.479
12525	17.086	0.54545	5.e-002	4.4238
12526	17.086	0.27273	0.	19.945
12527	16.994	0.36364	0.	19.039
12528	17.086	0.36364	5.e-002	4.1521
12529	16.994	0.18182	0.	20.64
12530	17.086	0.18182	5.e-002	0.23406
12531	17.086	9.0909e-002	0.	13.763
12532	16.902	5.7273	0.	19.594
12533	16.81	5.8182	0.	20.327
12534	16.902	5.8182	5.e-002	0.22437
12535	16.902	5.9091	0.	13.56
12536	16.902	5.5455	0.	19.02
12537	16.81	5.6364	0.	18.654
12538	16.902	5.6364	5.e-002	4.1668
12539	16.902	5.3636	0.	19.484
12540	16.81	5.4545	0.	18.999
12541	16.902	5.4545	5.e-002	4.4407
12542	16.902	5.1818	0.	20.03
12543	16.81	5.2727	0.	19.486
12544	16.902	5.2727	5.e-002	4.4599
12545	16.902	5.	0.	20.59
12546	16.81	5.0909	0.	19.998
12547	16.902	5.0909	5.e-002	4.4623
12548	16.902	4.8182	0.	21.149
12549	16.81	4.9091	0.	20.517
12550	16.902	4.9091	5.e-002	4.4635
12551	16.902	4.6364	0.	21.694
12552	16.81	4.7273	0.	21.03
12553	16.902	4.7273	5.e-002	4.4645
12554	16.902	4.4545	0.	22.213
12555	16.81	4.5455	0.	21.525
12556	16.902	4.5455	5.e-002	4.4654
12557	16.902	4.2727	0.	22.696
12558	16.81	4.3636	0.	21.992
12559	16.902	4.3636	5.e-002	4.4661
12560	16.902	4.0909	0.	23.134
12561	16.81	4.1818	0.	22.422
12562	16.902	4.1818	5.e-002	4.4668
12563	16.902	3.9091	0.	23.519
12564	16.81	4.	0.	22.806
12565	16.902	4.	5.e-002	4.4674
12566	16.902	3.7273	0.	23.843
12567	16.81	3.8182	0.	23.138
12568	16.902	3.8182	5.e-002	4.4678
12569	16.902	3.5455	0.	24.101
12570	16.81	3.6364	0.	23.41
12571	16.902	3.6364	5.e-002	4.4682
12572	16.902	3.3636	0.	24.289
12573	16.81	3.4545	0.	23.619
12574	16.902	3.4545	5.e-002	4.4685
12575	16.902	3.1818	0.	24.403
12576	16.81	3.2727	0.	23.76
12577	16.902	3.2727	5.e-002	4.4686
12578	16.902	3.	0.	24.441
12579	16.81	3.0909	0.	23.831
12580	16.902	3.0909	5.e-002	4.4687
12581	16.902	2.8182	0.	24.403
12582	16.81	2.9091	0.	23.831
12583	16.902	2.9091	5.e-002	4.4687
12584	16.902	2.6364	0.	24.289
12585	16.81	2.7273	0.	23.76
12586	16.902	2.7273	5.e-002	4.4686
12587	16.902	2.4545	0.	24.101
12588	16.81	2.5455	0.	23.619
12589	16.902	2.5455	5.e-002	4.4684
12590	16.902	2.2727	0.	23.843
12591	16.81	2.3636	0.	23.41
12592	16.902	2.3636	5.e-002	4.4682
12593	16.902	2.0909	0.	23.519
12594	16.81	2.1818	0.	23.138
12595	16.902	2.1818	5.e-002	4.4678
12596	16.902	1.9091	0.	23.134
12597	16.81	2.	0.	22.806
12598	16.902	2.	5.e-002	4.4673
12599	16.902	1.7273	0.	22.696
12600	16.81	1.8182	0.	22.422
12601	16.902	1.8182	5.e-002	4.4668
12602	16.902	1.5455	0.	22.213
12603	16.81	1.6364	0.	21.992
12604	16.902	1.6364	5.e-002	4.4661
12605	16.902	1.3636	0.	21.694
12606	16.81	1.4545	0.	21.525
12607	16.902	1.4545	5.e-002	4.4654
12608	16.902	1.1818	0.	21.149
12609	16.81	1.2727	0.	21.03
12610	16.902	1.2727	5.e-002	4.4645
12611	16.902	1.	0.	20.59
12612	16.81	1.0909	0.	20.517
12613	16.902	1.0909	5.e-002	4.4635
12614	16.902	0.81818	0.	20.03
12615	16.81	0.90909	0.	19.998
12616	16.902	0.90909	5.e-002	4.4622
12617	16.902	0.63636	0.	19.484
12618	16.81	0.72727	0.	19.486
12619	16.902	0.72727	5.e-002	4.4598
12620	16.902	0.45455	0.	19.02
12621	16.81	0.54545	0.	19.
12622	16.902	0.54545	5.e-002	4.4407
12623	16.902	0.27273	0.	19.594
12624	16.81	0.36364	0.	18.654
12625	16.902	0.36364	5.e-002	4.1667
12626	16.81	0.18182	0.	20.328
12627	16.902	0.18182	5.e-002	0.22438
12628	16.902	9.0909e-002	0.	13.56
12629	16.719	5.7273	0.	19.249
12630	16.627	5.8182	0.	20.018
12631	16.719	5.8182	5.e-002	0.21685
12632	16.719	5.9091	0.	13.359
12633	16.719	5.5455	0.	18.595
12634	16.627	5.6364	0.	18.279
12635	16.719	5.6364	5.e-002	4.1818
12636	16.719	5.3636	0.	18.967
12637	16.627	5.4545	0.	18.536
12638	16.719	5.4545	5.e-002	4.4578
12639	16.719	5.1818	0.	19.421
12640	16.627	5.2727	0.	18.934
12641	16.719	5.2727	5.e-002	4.4771
12642	16.719	5.	0.	19.892
12643	16.627	5.0909	0.	19.358
12644	16.719	5.0909	5.e-002	4.4795
12645	16.719	4.8182	0.	20.365
12646	16.627	4.9091	0.	19.792
12647	16.719	4.9091	5.e-002	4.4806
12648	16.719	4.6364	0.	20.829
12649	16.627	4.7273	0.	20.223
12650	16.719	4.7273	5.e-002	4.4816
12651	16.719	4.4545	0.	21.272
12652	16.627	4.5455	0.	20.642
12653	16.719	4.5455	5.e-002	4.4825
12654	16.719	4.2727	0.	21.686
12655	16.627	4.3636	0.	21.039
12656	16.719	4.3636	5.e-002	4.4832
12657	16.719	4.0909	0.	22.063
12658	16.627	4.1818	0.	21.406
12659	16.719	4.1818	5.e-002	4.4839
12660	16.719	3.9091	0.	22.394
12661	16.627	4.	0.	21.735
12662	16.719	4.	5.e-002	4.4844
12663	16.719	3.7273	0.	22.674
12664	16.627	3.8182	0.	22.019
12665	16.719	3.8182	5.e-002	4.4849
12666	16.719	3.5455	0.	22.897
12667	16.627	3.6364	0.	22.253
12668	16.719	3.6364	5.e-002	4.4852
12669	16.719	3.3636	0.	23.06
12670	16.627	3.4545	0.	22.432
12671	16.719	3.4545	5.e-002	4.4855
12672	16.719	3.1818	0.	23.158
12673	16.627	3.2727	0.	22.553
12674	16.719	3.2727	5.e-002	4.4856
12675	16.719	3.	0.	23.191
12676	16.627	3.0909	0.	22.615
12677	16.719	3.0909	5.e-002	4.4857
12678	16.719	2.8182	0.	23.158
12679	16.627	2.9091	0.	22.615
12680	16.719	2.9091	5.e-002	4.4857
12681	16.719	2.6364	0.	23.06
12682	16.627	2.7273	0.	22.553
12683	16.719	2.7273	5.e-002	4.4856
12684	16.719	2.4545	0.	22.897
12685	16.627	2.5455	0.	22.432
12686	16.719	2.5455	5.e-002	4.4855
12687	16.719	2.2727	0.	22.674
12688	16.627	2.3636	0.	22.253
12689	16.719	2.3636	5.e-002	4.4852
12690	16.719	2.0909	0.	22.394
12691	16.627	2.1818	0.	22.019
12692	16.719	2.1818	5.e-002	4.4848
12693	16.719	1.9091	0.	22.063
12694	16.627	2.	0.	21.735
12695	16.719	2.	5.e-002	4.4844
12696	16.719	1.7273	0.	21.687
12697	16.627	1.8182	0.	21.406
12698	16.719	1.8182	5.e-002	4.4839
12699	16.719	1.5455	0.	21.272
12700	16.627	1.6364	0.	21.039
12701	16.719	1.6364	5.e-002	4.4832
12702	16.719	1.3636	0.	20.829
12703	16.627	1.4545	0.	20.642
12704	16.719	1.4545	5.e-002	4.4825
12705	16.719	1.1818	0.	20.365
12706	16.627	1.2727	0.	20.223
12707	16.719	1.2727	5.e-002	4.4816
12708	16.719	1.	0.	19.892
12709	16.627	1.0909	0.	19.792
12710	16.719	1.0909	5.e-002	4.4806
12711	16.719	0.81818	0.	19.421
12712	16.627	0.90909	0.	19.358
12713	16.719	0.90909	5.e-002	4.4795
12714	16.719	0.63636	0.	18.967
12715	16.627	0.72727	0.	18.934
12716	16.719	0.72727	5.e-002	4.4771
12717	16.719	0.45455	0.	18.595
12718	16.627	0.54545	0.	18.536
12719	16.719	0.54545	5.e-002	4.4578
12720	16.719	0.27273	0.	19.249
12721	16.627	0.36364	0.	18.279
12722	16.719	0.36364	5.e-002	4.1818
12723	16.627	0.18182	0.	20.018
12724	16.719	0.18182	5.e-002	0.21685
12725	16.719	9.0909e-002	0.	13.359
12726	16.535	5.7273	0.	18.911
12727	16.443	5.8182	0.	19.712
12728	16.535	5.8182	5.e-002	0.2111
12729	16.535	5.9091	0.	13.16
12730	16.535	5.5455	0.	18.182
12731	16.443	5.6364	0.	17.913
12732	16.535	5.6364	5.e-002	4.1972
12733	16.535	5.3636	0.	18.469
12734	16.443	5.4545	0.	18.088
12735	16.535	5.4545	5.e-002	4.4753
12736	16.535	5.1818	0.	18.838
12737	16.443	5.2727	0.	18.402
12738	16.535	5.2727	5.e-002	4.4946
12739	16.535	5.	0.	19.225
12740	16.443	5.0909	0.	18.744
12741	16.535	5.0909	5.e-002	4.497
12742	16.535	4.8182	0.	19.618
12743	16.443	4.9091	0.	19.098
12744	16.535	4.9091	5.e-002	4.4981
12745	16.535	4.6364	0.	20.005
12746	16.443	4.7273	0.	19.453
12747	16.535	4.7273	5.e-002	4.499
12748	16.535	4.4545	0.	20.378
12749	16.443	4.5455	0.	19.801
12750	16.535	4.5455	5.e-002	4.4999
12751	16.535	4.2727	0.	20.727
12752	16.443	4.3636	0.	20.132
12753	16.535	4.3636	5.e-002	4.5006
12754	16.535	4.0909	0.	21.046
12755	16.443	4.1818	0.	20.439
12756	16.535	4.1818	5.e-002	4.5012
12757	16.535	3.9091	0.	21.328
12758	16.443	4.	0.	20.716
12759	16.535	4.	5.e-002	4.5018
12760	16.535	3.7273	0.	21.566
12761	16.443	3.8182	0.	20.955
12762	16.535	3.8182	5.e-002	4.5022
12763	16.535	3.5455	0.	21.756
12764	16.443	3.6364	0.	21.153
12765	16.535	3.6364	5.e-002	4.5025
12766	16.535	3.3636	0.	21.895
12767	16.443	3.4545	0.	21.305
12768	16.535	3.4545	5.e-002	4.5028
12769	16.535	3.1818	0.	21.979
12770	16.443	3.2727	0.	21.408
12771	16.535	3.2727	5.e-002	4.503
12772	16.535	3.	0.	22.008
12773	16.443	3.0909	0.	21.46
12774	16.535	3.0909	5.e-002	4.5031
12775	16.535	2.8182	0.	21.979
12776	16.443	2.9091	0.	21.46
12777	16.535	2.9091	5.e-002	4.503
12778	16.535	2.6364	0.	21.895
12779	16.443	2.7273	0.	21.408
12780	16.535	2.7273	5.e-002	4.503
12781	16.535	2.4545	0.	21.756
12782	16.443	2.5455	0.	21.305
12783	16.535	2.5455	5.e-002	4.5028
12784	16.535	2.2727	0.	21.566
12785	16.443	2.3636	0.	21.153
12786	16.535	2.3636	5.e-002	4.5025
12787	16.535	2.0909	0.	21.328
12788	16.443	2.1818	0.	20.955
12789	16.535	2.1818	5.e-002	4.5022
12790	16.535	1.9091	0.	21.046
12791	16.443	2.	0.	20.716
12792	16.535	2.	5.e-002	4.5017
12793	16.535	1.7273	0.	20.727
12794	16.443	1.8182	0.	20.439
12795	16.535	1.8182	5.e-002	4.5012
12796	16.535	1.5455	0.	20.378
12797	16.443	1.6364	0.	20.132
12798	16.535	1.6364	5.e-002	4.5006
12799	16.535	1.3636	0.	20.005
12800	16.443	1.4545	0.	19.801
12801	16.535	1.4545	5.e-002	4.4998
12802	16.535	1.1818	0.	19.618
12803	16.443	1.2727	0.	19.454
12804	16.535	1.2727	5.e-002	4.499
12805	16.535	1.	0.	19.225
12806	16.443	1.0909	0.	19.098
12807	16.535	1.0909	5.e-002	4.4981
12808	16.535	0.81818	0.	18.838
12809	16.443	0.90909	0.	18.744
12810	16.535	0.90909	5.e-002	4.4969
12811	16.535	0.63636	0.	18.469
12812	16.443	0.72727	0.	18.402
12813	16.535	0.72727	5.e-002	4.4946
12814	16.535	0.45455	0.	18.182
12815	16.443	0.54545	0.	18.088
12816	16.535	0.54545	5.e-002	4.4753
12817	16.535	0.27273	0.	18.911
12818	16.443	0.36364	0.	17.913
12819	16.535	0.36364	5.e-002	4.1972
12820	16.443	0.18182	0.	19.712
12821	16.535	0.18182	5.e-002	0.21111
12822	16.535	9.0909e-002	0.	13.16
12823	16.351	5.7273	0.	18.579
12824	16.259	5.8182	0.	19.409
12825	16.351	5.8182	5.e-002	0.20675
12826	16.351	5.9091	0.	12.963
12827	16.351	5.5455	0.	17.781
12828	16.259	5.6364	0.	17.556
12829	16.351	5.6364	5.e-002	4.213
12830	16.351	5.3636	0.	17.987
12831	16.259	5.4545	0.	17.653
12832	16.351	5.4545	5.e-002	4.493
12833	16.351	5.1818	0.	18.276
12834	16.259	5.2727	0.	17.888
12835	16.351	5.2727	5.e-002	4.5124
12836	16.351	5.	0.	18.585
12837	16.259	5.0909	0.	18.153
12838	16.351	5.0909	5.e-002	4.5147
12839	16.351	4.8182	0.	18.902
12840	16.259	4.9091	0.	18.432
12841	16.351	4.9091	5.e-002	4.5158
12842	16.351	4.6364	0.	19.218
12843	16.259	4.7273	0.	18.716
12844	16.351	4.7273	5.e-002	4.5167
12845	16.351	4.4545	0.	19.524
12846	16.259	4.5455	0.	18.996
12847	16.351	4.5455	5.e-002	4.5175
12848	16.351	4.2727	0.	19.813
12849	16.259	4.3636	0.	19.265
12850	16.351	4.3636	5.e-002	4.5183
12851	16.351	4.0909	0.	20.078
12852	16.259	4.1818	0.	19.516
12853	16.351	4.1818	5.e-002	4.5189
12854	16.351	3.9091	0.	20.312
12855	16.259	4.	0.	19.744
12856	16.351	4.	5.e-002	4.5194
12857	16.351	3.7273	0.	20.512
12858	16.259	3.8182	0.	19.941
12859	16.351	3.8182	5.e-002	4.5198
12860	16.351	3.5455	0.	20.671
12861	16.259	3.6364	0.	20.105
12862	16.351	3.6364	5.e-002	4.5201
12863	16.351	3.3636	0.	20.787
12864	16.259	3.4545	0.	20.231
12865	16.351	3.4545	5.e-002	4.5204
12866	16.351	3.1818	0.	20.858
12867	16.259	3.2727	0.	20.316
12868	16.351	3.2727	5.e-002	4.5206
12869	16.351	3.	0.	20.882
12870	16.259	3.0909	0.	20.359
12871	16.351	3.0909	5.e-002	4.5207
12872	16.351	2.8182	0.	20.858
12873	16.259	2.9091	0.	20.359
12874	16.351	2.9091	5.e-002	4.5206
12875	16.351	2.6364	0.	20.787
12876	16.259	2.7273	0.	20.316
12877	16.351	2.7273	5.e-002	4.5206
12878	16.351	2.4545	0.	20.671
12879	16.259	2.5455	0.	20.231
12880	16.351	2.5455	5.e-002	4.5204
12881	16.351	2.2727	0.	20.512
12882	16.259	2.3636	0.	20.105
12883	16.351	2.3636	5.e-002	4.5201
12884	16.351	2.0909	0.	20.312
12885	16.259	2.1818	0.	19.941
12886	16.351	2.1818	5.e-002	4.5198
12887	16.351	1.9091	0.	20.078
12888	16.259	2.	0.	19.744
12889	16.351	2.	5.e-002	4.5194
12890	16.351	1.7273	0.	19.813
12891	16.259	1.8182	0.	19.517
12892	16.351	1.8182	5.e-002	4.5188
12893	16.351	1.5455	0.	19.524
12894	16.259	1.6364	0.	19.265
12895	16.351	1.6364	5.e-002	4.5182
12896	16.351	1.3636	0.	19.218
12897	16.259	1.4545	0.	18.996
12898	16.351	1.4545	5.e-002	4.5175
12899	16.351	1.1818	0.	18.902
12900	16.259	1.2727	0.	18.716
12901	16.351	1.2727	5.e-002	4.5167
12902	16.351	1.	0.	18.585
12903	16.259	1.0909	0.	18.432
12904	16.351	1.0909	5.e-002	4.5158
12905	16.351	0.81818	0.	18.276
12906	16.259	0.90909	0.	18.153
12907	16.351	0.90909	5.e-002	4.5147
12908	16.351	0.63636	0.	17.988
12909	16.259	0.72727	0.	17.888
12910	16.351	0.72727	5.e-002	4.5124
12911	16.351	0.45455	0.	17.781
12912	16.259	0.54545	0.	17.653
12913	16.351	0.54545	5.e-002	4.493
12914	16.351	0.27273	0.	18.579
12915	16.259	0.36364	0.	17.556
12916	16.351	0.36364	5.e-002	4.2129
12917	16.259	0.18182	0.	19.41
12918	16.351	0.18182	5.e-002	0.20675
12919	16.351	9.0909e-002	0.	12.963
12920	16.167	5.7273	0.	18.253
12921	16.076	5.8182	0.	19.11
12922	16.167	5.8182	5.e-002	0.20343
12923	16.167	5.9091	0.	12.769
12924	16.167	5.5455	0.	17.39
12925	16.076	5.6364	0.	17.205
12926	16.167	5.6364	5.e-002	4.229
12927	16.167	5.3636	0.	17.521
12928	16.076	5.4545	0.	17.229
12929	16.167	5.4545	5.e-002	4.5109
12930	16.167	5.1818	0.	17.733
12931	16.076	5.2727	0.	17.39
12932	16.167	5.2727	5.e-002	4.5304
12933	16.167	5.	0.	17.968
12934	16.076	5.0909	0.	17.582
12935	16.167	5.0909	5.e-002	4.5327
12936	16.167	4.8182	0.	18.214
12937	16.076	4.9091	0.	17.79
12938	16.167	4.9091	5.e-002	4.5338
12939	16.167	4.6364	0.	18.463
12940	16.076	4.7273	0.	18.006
12941	16.167	4.7273	5.e-002	4.5347
12942	16.167	4.4545	0.	18.706
12943	16.076	4.5455	0.	18.223
12944	16.167	4.5455	5.e-002	4.5355
12945	16.167	4.2727	0.	18.938
12946	16.076	4.3636	0.	18.433
12947	16.167	4.3636	5.e-002	4.5362
12948	16.167	4.0909	0.	19.152
12949	16.076	4.1818	0.	18.632
12950	16.167	4.1818	5.e-002	4.5368
12951	16.167	3.9091	0.	19.342
12952	16.076	4.	0.	18.812
12953	16.167	4.	5.e-002	4.5373
12954	16.167	3.7273	0.	19.504
12955	16.076	3.8182	0.	18.97
12956	16.167	3.8182	5.e-002	4.5377
12957	16.167	3.5455	0.	19.634
12958	16.076	3.6364	0.	19.101
12959	16.167	3.6364	5.e-002	4.538
12960	16.167	3.3636	0.	19.729
12961	16.076	3.4545	0.	19.203
12962	16.167	3.4545	5.e-002	4.5383
12963	16.167	3.1818	0.	19.787
12964	16.076	3.2727	0.	19.272
12965	16.167	3.2727	5.e-002	4.5384
12966	16.167	3.	0.	19.807
12967	16.076	3.0909	0.	19.306
12968	16.167	3.0909	5.e-002	4.5385
12969	16.167	2.8182	0.	19.787
12970	16.076	2.9091	0.	19.306
12971	16.167	2.9091	5.e-002	4.5385
12972	16.167	2.6364	0.	19.729
12973	16.076	2.7273	0.	19.272
12974	16.167	2.7273	5.e-002	4.5384
12975	16.167	2.4545	0.	19.634
12976	16.076	2.5455	0.	19.203
12977	16.167	2.5455	5.e-002	4.5383
12978	16.167	2.2727	0.	19.504
12979	16.076	2.3636	0.	19.101
12980	16.167	2.3636	5.e-002	4.538
12981	16.167	2.0909	0.	19.342
12982	16.076	2.1818	0.	18.97
12983	16.167	2.1818	5.e-002	4.5377
12984	16.167	1.9091	0.	19.152
12985	16.076	2.	0.	18.812
12986	16.167	2.	5.e-002	4.5373
12987	16.167	1.7273	0.	18.938
12988	16.076	1.8182	0.	18.632
12989	16.167	1.8182	5.e-002	4.5367
12990	16.167	1.5455	0.	18.706
12991	16.076	1.6364	0.	18.433
12992	16.167	1.6364	5.e-002	4.5361
12993	16.167	1.3636	0.	18.463
12994	16.076	1.4545	0.	18.223
12995	16.167	1.4545	5.e-002	4.5354
12996	16.167	1.1818	0.	18.214
12997	16.076	1.2727	0.	18.006
12998	16.167	1.2727	5.e-002	4.5347
12999	16.167	1.	0.	17.968
13000	16.076	1.0909	0.	17.79
13001	16.167	1.0909	5.e-002	4.5338
13002	16.167	0.81818	0.	17.733
13003	16.076	0.90909	0.	17.582
13004	16.167	0.90909	5.e-002	4.5327
13005	16.167	0.63636	0.	17.521
13006	16.076	0.72727	0.	17.39
13007	16.167	0.72727	5.e-002	4.5304
13008	16.167	0.45455	0.	17.39
13009	16.076	0.54545	0.	17.229
13010	16.167	0.54545	5.e-002	4.5109
13011	16.167	0.27273	0.	18.253
13012	16.076	0.36364	0.	17.206
13013	16.167	0.36364	5.e-002	4.229
13014	16.076	0.18182	0.	19.11
13015	16.167	0.18182	5.e-002	0.20343
13016	16.167	9.0909e-002	0.	12.769
13017	15.984	5.7273	0.	17.931
13018	15.892	5.8182	0.	18.813
13019	15.984	5.8182	5.e-002	0.20081
13020	15.984	5.9091	0.	12.576
13021	15.984	5.5455	0.	17.008
13022	15.892	5.6364	0.	16.862
13023	15.984	5.6364	5.e-002	4.2454
13024	15.984	5.3636	0.	17.067
13025	15.892	5.4545	0.	16.815
13026	15.984	5.4545	5.e-002	4.5291
13027	15.984	5.1818	0.	17.207
13028	15.892	5.2727	0.	16.906
13029	15.984	5.2727	5.e-002	4.5487
13030	15.984	5.	0.	17.372
13031	15.892	5.0909	0.	17.028
13032	15.984	5.0909	5.e-002	4.5509
13033	15.984	4.8182	0.	17.551
13034	15.892	4.9091	0.	17.169
13035	15.984	4.9091	5.e-002	4.552
13036	15.984	4.6364	0.	17.735
13037	15.892	4.7273	0.	17.32
13038	15.984	4.7273	5.e-002	4.5529
13039	15.984	4.4545	0.	17.919
13040	15.892	4.5455	0.	17.477
13041	15.984	4.5455	5.e-002	4.5536
13042	15.984	4.2727	0.	18.097
13043	15.892	4.3636	0.	17.632
13044	15.984	4.3636	5.e-002	4.5543
13045	15.984	4.0909	0.	18.262
13046	15.892	4.1818	0.	17.78
13047	15.984	4.1818	5.e-002	4.5549
13048	15.984	3.9091	0.	18.41
13049	15.892	4.	0.	17.916
13050	15.984	4.	5.e-002	4.5554
13051	15.984	3.7273	0.	18.537
13052	15.892	3.8182	0.	18.036
13053	15.984	3.8182	5.e-002	4.5558
13054	15.984	3.5455	0.	18.64
13055	15.892	3.6364	0.	18.136
13056	15.984	3.6364	5.e-002	4.5562
13057	15.984	3.3636	0.	18.715
13058	15.892	3.4545	0.	18.214
13059	15.984	3.4545	5.e-002	4.5564
13060	15.984	3.1818	0.	18.761
13061	15.892	3.2727	0.	18.268
13062	15.984	3.2727	5.e-002	4.5566
13063	15.984	3.	0.	18.776
13064	15.892	3.0909	0.	18.295
13065	15.984	3.0909	5.e-002	4.5567
13066	15.984	2.8182	0.	18.761
13067	15.892	2.9091	0.	18.295
13068	15.984	2.9091	5.e-002	4.5567
13069	15.984	2.6364	0.	18.715
13070	15.892	2.7273	0.	18.268
13071	15.984	2.7273	5.e-002	4.5566
13072	15.984	2.4545	0.	18.64
13073	15.892	2.5455	0.	18.214
13074	15.984	2.5455	5.e-002	4.5564
13075	15.984	2.2727	0.	18.537
13076	15.892	2.3636	0.	18.136
13077	15.984	2.3636	5.e-002	4.5562
13078	15.984	2.0909	0.	18.41
13079	15.892	2.1818	0.	18.036
13080	15.984	2.1818	5.e-002	4.5558
13081	15.984	1.9091	0.	18.262
13082	15.892	2.	0.	17.916
13083	15.984	2.	5.e-002	4.5554
13084	15.984	1.7273	0.	18.097
13085	15.892	1.8182	0.	17.78
13086	15.984	1.8182	5.e-002	4.5549
13087	15.984	1.5455	0.	17.919
13088	15.892	1.6364	0.	17.632
13089	15.984	1.6364	5.e-002	4.5543
13090	15.984	1.3636	0.	17.735
13091	15.892	1.4545	0.	17.477
13092	15.984	1.4545	5.e-002	4.5536
13093	15.984	1.1818	0.	17.551
13094	15.892	1.2727	0.	17.32
13095	15.984	1.2727	5.e-002	4.5528
13096	15.984	1.	0.	17.372
13097	15.892	1.0909	0.	17.169
13098	15.984	1.0909	5.e-002	4.552
13099	15.984	0.81818	0.	17.207
13100	15.892	0.90909	0.	17.028
13101	15.984	0.90909	5.e-002	4.5509
13102	15.984	0.63636	0.	17.067
13103	15.892	0.72727	0.	16.906
13104	15.984	0.72727	5.e-002	4.5487
13105	15.984	0.45455	0.	17.008
13106	15.892	0.54545	0.	16.816
13107	15.984	0.54545	5.e-002	4.5291
13108	15.984	0.27273	0.	17.932
13109	15.892	0.36364	0.	16.862
13110	15.984	0.36364	5.e-002	4.2454
13111	15.892	0.18182	0.	18.814
13112	15.984	0.18182	5.e-002	0.2008
13113	15.984	9.0909e-002	0.	12.576
13114	15.8	5.7273	0.	17.614
13115	15.708	5.8182	0.	18.52
13116	15.8	5.8182	5.e-002	0.19861
13117	15.8	5.9091	0.	12.385
13118	15.8	5.5455	0.	16.634
13119	15.708	5.6364	0.	16.524
13120	15.8	5.6364	5.e-002	4.262
13121	15.8	5.3636	0.	16.623
13122	15.708	5.4545	0.	16.41
13123	15.8	5.4545	5.e-002	4.5474
13124	15.8	5.1818	0.	16.696
13125	15.708	5.2727	0.	16.433
13126	15.8	5.2727	5.e-002	4.5671
13127	15.8	5.	0.	16.794
13128	15.708	5.0909	0.	16.489
13129	15.8	5.0909	5.e-002	4.5694
13130	15.8	4.8182	0.	16.908
13131	15.708	4.9091	0.	16.565
13132	15.8	4.9091	5.e-002	4.5704
13133	15.8	4.6364	0.	17.031
13134	15.708	4.7273	0.	16.655
13135	15.8	4.7273	5.e-002	4.5713
13136	15.8	4.4545	0.	17.159
13137	15.708	4.5455	0.	16.753
13138	15.8	4.5455	5.e-002	4.572
13139	15.8	4.2727	0.	17.284
13140	15.708	4.3636	0.	16.855
13141	15.8	4.3636	5.e-002	4.5727
13142	15.8	4.0909	0.	17.403
13143	15.708	4.1818	0.	16.955
13144	15.8	4.1818	5.e-002	4.5733
13145	15.8	3.9091	0.	17.512
13146	15.708	4.	0.	17.049
13147	15.8	4.	5.e-002	4.5738
13148	15.8	3.7273	0.	17.605
13149	15.708	3.8182	0.	17.133
13150	15.8	3.8182	5.e-002	4.5742
13151	15.8	3.5455	0.	17.681
13152	15.708	3.6364	0.	17.204
13153	15.8	3.6364	5.e-002	4.5745
13154	15.8	3.3636	0.	17.738
13155	15.708	3.4545	0.	17.26
13156	15.8	3.4545	5.e-002	4.5747
13157	15.8	3.1818	0.	17.772
13158	15.708	3.2727	0.	17.298
13159	15.8	3.2727	5.e-002	4.5749
13160	15.8	3.	0.	17.783
13161	15.708	3.0909	0.	17.317
13162	15.8	3.0909	5.e-002	4.575
13163	15.8	2.8182	0.	17.772
13164	15.708	2.9091	0.	17.317
13165	15.8	2.9091	5.e-002	4.575
13166	15.8	2.6364	0.	17.738
13167	15.708	2.7273	0.	17.298
13168	15.8	2.7273	5.e-002	4.5749
13169	15.8	2.4545	0.	17.681
13170	15.708	2.5455	0.	17.26
13171	15.8	2.5455	5.e-002	4.5747
13172	15.8	2.2727	0.	17.605
13173	15.708	2.3636	0.	17.204
13174	15.8	2.3636	5.e-002	4.5745
13175	15.8	2.0909	0.	17.512
13176	15.708	2.1818	0.	17.133
13177	15.8	2.1818	5.e-002	4.5742
13178	15.8	1.9091	0.	17.403
13179	15.708	2.	0.	17.049
13180	15.8	2.	5.e-002	4.5738
13181	15.8	1.7273	0.	17.284
13182	15.708	1.8182	0.	16.955
13183	15.8	1.8182	5.e-002	4.5733
13184	15.8	1.5455	0.	17.159
13185	15.708	1.6364	0.	16.855
13186	15.8	1.6364	5.e-002	4.5727
13187	15.8	1.3636	0.	17.031
13188	15.708	1.4545	0.	16.753
13189	15.8	1.4545	5.e-002	4.572
13190	15.8	1.1818	0.	16.908
13191	15.708	1.2727	0.	16.655
13192	15.8	1.2727	5.e-002	4.5712
13193	15.8	1.	0.	16.794
13194	15.708	1.0909	0.	16.565
13195	15.8	1.0909	5.e-002	4.5704
13196	15.8	0.81818	0.	16.696
13197	15.708	0.90909	0.	16.489
13198	15.8	0.90909	5.e-002	4.5693
13199	15.8	0.63636	0.	16.623
13200	15.708	0.72727	0.	16.433
13201	15.8	0.72727	5.e-002	4.5671
13202	15.8	0.45455	0.	16.634
13203	15.708	0.54545	0.	16.41
13204	15.8	0.54545	5.e-002	4.5474
13205	15.8	0.27273	0.	17.615
13206	15.708	0.36364	0.	16.524
13207	15.8	0.36364	5.e-002	4.262
13208	15.708	0.18182	0.	18.52
13209	15.8	0.18182	5.e-002	0.1986
13210	15.8	9.0909e-002	0.	12.385
13211	15.616	5.7273	0.	17.301
13212	15.524	5.8182	0.	18.228
13213	15.616	5.8182	5.e-002	0.19655
13214	15.616	5.9091	0.	12.196
13215	15.616	5.5455	0.	16.265
13216	15.524	5.6364	0.	16.19
13217	15.616	5.6364	5.e-002	4.2789
13218	15.616	5.3636	0.	16.189
13219	15.524	5.4545	0.	16.012
13220	15.616	5.4545	5.e-002	4.566
13221	15.616	5.1818	0.	16.195
13222	15.524	5.2727	0.	15.969
13223	15.616	5.2727	5.e-002	4.5857
13224	15.616	5.	0.	16.229
13225	15.524	5.0909	0.	15.961
13226	15.616	5.0909	5.e-002	4.588
13227	15.616	4.8182	0.	16.282
13228	15.524	4.9091	0.	15.975
13229	15.616	4.9091	5.e-002	4.589
13230	15.616	4.6364	0.	16.347
13231	15.524	4.7273	0.	16.006
13232	15.616	4.7273	5.e-002	4.5898
13233	15.616	4.4545	0.	16.42
13234	15.524	4.5455	0.	16.049
13235	15.616	4.5455	5.e-002	4.5906
13236	15.616	4.2727	0.	16.496
13237	15.524	4.3636	0.	16.099
13238	15.616	4.3636	5.e-002	4.5913
13239	15.616	4.0909	0.	16.571
13240	15.524	4.1818	0.	16.153
13241	15.616	4.1818	5.e-002	4.5919
13242	15.616	3.9091	0.	16.641
13243	15.524	4.	0.	16.206
13244	15.616	4.	5.e-002	4.5924
13245	15.616	3.7273	0.	16.702
13246	15.524	3.8182	0.	16.255
13247	15.616	3.8182	5.e-002	4.5928
13248	15.616	3.5455	0.	16.753
13249	15.524	3.6364	0.	16.298
13250	15.616	3.6364	5.e-002	4.5931
13251	15.616	3.3636	0.	16.791
13252	15.524	3.4545	0.	16.332
13253	15.616	3.4545	5.e-002	4.5933
13254	15.616	3.1818	0.	16.814
13255	15.524	3.2727	0.	16.356
13256	15.616	3.2727	5.e-002	4.5935
13257	15.616	3.	0.	16.822
13258	15.524	3.0909	0.	16.368
13259	15.616	3.0909	5.e-002	4.5936
13260	15.616	2.8182	0.	16.814
13261	15.524	2.9091	0.	16.368
13262	15.616	2.9091	5.e-002	4.5936
13263	15.616	2.6364	0.	16.791
13264	15.524	2.7273	0.	16.356
13265	15.616	2.7273	5.e-002	4.5935
13266	15.616	2.4545	0.	16.753
13267	15.524	2.5455	0.	16.332
13268	15.616	2.5455	5.e-002	4.5933
13269	15.616	2.2727	0.	16.702
13270	15.524	2.3636	0.	16.298
13271	15.616	2.3636	5.e-002	4.5931
13272	15.616	2.0909	0.	16.641
13273	15.524	2.1818	0.	16.255
13274	15.616	2.1818	5.e-002	4.5928
13275	15.616	1.9091	0.	16.571
13276	15.524	2.	0.	16.206
13277	15.616	2.	5.e-002	4.5923
13278	15.616	1.7273	0.	16.496
13279	15.524	1.8182	0.	16.153
13280	15.616	1.8182	5.e-002	4.5918
13281	15.616	1.5455	0.	16.42
13282	15.524	1.6364	0.	16.099
13283	15.616	1.6364	5.e-002	4.5912
13284	15.616	1.3636	0.	16.347
13285	15.524	1.4545	0.	16.049
13286	15.616	1.4545	5.e-002	4.5906
13287	15.616	1.1818	0.	16.282
13288	15.524	1.2727	0.	16.006
13289	15.616	1.2727	5.e-002	4.5898
13290	15.616	1.	0.	16.229
13291	15.524	1.0909	0.	15.975
13292	15.616	1.0909	5.e-002	4.589
13293	15.616	0.81818	0.	16.196
13294	15.524	0.90909	0.	15.961
13295	15.616	0.90909	5.e-002	4.5879
13296	15.616	0.63636	0.	16.189
13297	15.524	0.72727	0.	15.969
13298	15.616	0.72727	5.e-002	4.5857
13299	15.616	0.45455	0.	16.266
13300	15.524	0.54545	0.	16.012
13301	15.616	0.54545	5.e-002	4.5659
13302	15.616	0.27273	0.	17.301
13303	15.524	0.36364	0.	16.19
13304	15.616	0.36364	5.e-002	4.2789
13305	15.524	0.18182	0.	18.228
13306	15.616	0.18182	5.e-002	0.19654
13307	15.616	9.0909e-002	0.	12.196
13308	15.433	5.7273	0.	16.991
13309	15.341	5.8182	0.	17.939
13310	15.433	5.8182	5.e-002	0.19439
13311	15.433	5.9091	0.	12.008
13312	15.433	5.5455	0.	15.902
13313	15.341	5.6364	0.	15.86
13314	15.433	5.6364	5.e-002	4.2961
13315	15.433	5.3636	0.	15.762
13316	15.341	5.4545	0.	15.619
13317	15.433	5.4545	5.e-002	4.5847
13318	15.433	5.1818	0.	15.705
13319	15.341	5.2727	0.	15.513
13320	15.433	5.2727	5.e-002	4.6046
13321	15.433	5.	0.	15.676
13322	15.341	5.0909	0.	15.442
13323	15.433	5.0909	5.e-002	4.6068
13324	15.433	4.8182	0.	15.669
13325	15.341	4.9091	0.	15.396
13326	15.433	4.9091	5.e-002	4.6079
13327	15.433	4.6364	0.	15.678
13328	15.341	4.7273	0.	15.369
13329	15.433	4.7273	5.e-002	4.6087
13330	15.433	4.4545	0.	15.698
13331	15.341	4.5455	0.	15.358
13332	15.433	4.5455	5.e-002	4.6095
13333	15.433	4.2727	0.	15.726
13334	15.341	4.3636	0.	15.359
13335	15.433	4.3636	5.e-002	4.6101
13336	15.433	4.0909	0.	15.759
13337	15.341	4.1818	0.	15.368
13338	15.433	4.1818	5.e-002	4.6107
13339	15.433	3.9091	0.	15.791
13340	15.341	4.	0.	15.382
13341	15.433	4.	5.e-002	4.6112
13342	15.433	3.7273	0.	15.822
13343	15.341	3.8182	0.	15.398
13344	15.433	3.8182	5.e-002	4.6116
13345	15.433	3.5455	0.	15.849
13346	15.341	3.6364	0.	15.413
13347	15.433	3.6364	5.e-002	4.6119
13348	15.433	3.3636	0.	15.869
13349	15.341	3.4545	0.	15.427
13350	15.433	3.4545	5.e-002	4.6122
13351	15.433	3.1818	0.	15.881
13352	15.341	3.2727	0.	15.436
13353	15.433	3.2727	5.e-002	4.6124
13354	15.433	3.	0.	15.886
13355	15.341	3.0909	0.	15.441
13356	15.433	3.0909	5.e-002	4.6124
13357	15.433	2.8182	0.	15.881
13358	15.341	2.9091	0.	15.441
13359	15.433	2.9091	5.e-002	4.6124
13360	15.433	2.6364	0.	15.869
13361	15.341	2.7273	0.	15.436
13362	15.433	2.7273	5.e-002	4.6123
13363	15.433	2.4545	0.	15.849
13364	15.341	2.5455	0.	15.427
13365	15.433	2.5455	5.e-002	4.6122
13366	15.433	2.2727	0.	15.822
13367	15.341	2.3636	0.	15.413
13368	15.433	2.3636	5.e-002	4.6119
13369	15.433	2.0909	0.	15.791
13370	15.341	2.1818	0.	15.398
13371	15.433	2.1818	5.e-002	4.6116
13372	15.433	1.9091	0.	15.759
13373	15.341	2.	0.	15.382
13374	15.433	2.	5.e-002	4.6112
13375	15.433	1.7273	0.	15.727
13376	15.341	1.8182	0.	15.368
13377	15.433	1.8182	5.e-002	4.6107
13378	15.433	1.5455	0.	15.698
13379	15.341	1.6364	0.	15.359
13380	15.433	1.6364	5.e-002	4.6101
13381	15.433	1.3636	0.	15.678
13382	15.341	1.4545	0.	15.358
13383	15.433	1.4545	5.e-002	4.6094
13384	15.433	1.1818	0.	15.669
13385	15.341	1.2727	0.	15.369
13386	15.433	1.2727	5.e-002	4.6087
13387	15.433	1.	0.	15.676
13388	15.341	1.0909	0.	15.396
13389	15.433	1.0909	5.e-002	4.6078
13390	15.433	0.81818	0.	15.705
13391	15.341	0.90909	0.	15.442
13392	15.433	0.90909	5.e-002	4.6068
13393	15.433	0.63636	0.	15.762
13394	15.341	0.72727	0.	15.513
13395	15.433	0.72727	5.e-002	4.6045
13396	15.433	0.45455	0.	15.903
13397	15.341	0.54545	0.	15.619
13398	15.433	0.54545	5.e-002	4.5847
13399	15.433	0.27273	0.	16.991
13400	15.341	0.36364	0.	15.86
13401	15.433	0.36364	5.e-002	4.2961
13402	15.341	0.18182	0.	17.939
13403	15.433	0.18182	5.e-002	0.19438
13404	15.433	9.0909e-002	0.	12.008
13405	15.249	5.7273	0.	16.683
13406	15.157	5.8182	0.	17.651
13407	15.249	5.8182	5.e-002	0.19197
13408	15.249	5.9091	0.	11.822
13409	15.249	5.5455	0.	15.543
13410	15.157	5.6364	0.	15.533
13411	15.249	5.6364	5.e-002	4.3136
13412	15.249	5.3636	0.	15.34
13413	15.157	5.4545	0.	15.23
13414	15.249	5.4545	5.e-002	4.6037
13415	15.249	5.1818	0.	15.221
13416	15.157	5.2727	0.	15.062
13417	15.249	5.2727	5.e-002	4.6236
13418	15.249	5.	0.	15.132
13419	15.157	5.0909	0.	14.93
13420	15.249	5.0909	5.e-002	4.6259
13421	15.249	4.8182	0.	15.067
13422	15.157	4.9091	0.	14.825
13423	15.249	4.9091	5.e-002	4.6269
13424	15.249	4.6364	0.	15.021
13425	15.157	4.7273	0.	14.742
13426	15.249	4.7273	5.e-002	4.6278
13427	15.249	4.4545	0.	14.99
13428	15.157	4.5455	0.	14.679
13429	15.249	4.5455	5.e-002	4.6285
13430	15.249	4.2727	0.	14.972
13431	15.157	4.3636	0.	14.631
13432	15.249	4.3636	5.e-002	4.6292
13433	15.249	4.0909	0.	14.962
13434	15.157	4.1818	0.	14.596
13435	15.249	4.1818	5.e-002	4.6298
13436	15.249	3.9091	0.	14.959
13437	15.157	4.	0.	14.571
13438	15.249	4.	5.e-002	4.6303
13439	15.249	3.7273	0.	14.96
13440	15.157	3.8182	0.	14.555
13441	15.249	3.8182	5.e-002	4.6307
13442	15.249	3.5455	0.	14.963
13443	15.157	3.6364	0.	14.544
13444	15.249	3.6364	5.e-002	4.631
13445	15.249	3.3636	0.	14.966
13446	15.157	3.4545	0.	14.537
13447	15.249	3.4545	5.e-002	4.6313
13448	15.249	3.1818	0.	14.968
13449	15.157	3.2727	0.	14.533
13450	15.249	3.2727	5.e-002	4.6314
13451	15.249	3.	0.	14.969
13452	15.157	3.0909	0.	14.531
13453	15.249	3.0909	5.e-002	4.6315
13454	15.249	2.8182	0.	14.968
13455	15.157	2.9091	0.	14.531
13456	15.249	2.9091	5.e-002	4.6315
13457	15.249	2.6364	0.	14.966
13458	15.157	2.7273	0.	14.533
13459	15.249	2.7273	5.e-002	4.6314
13460	15.249	2.4545	0.	14.963
13461	15.157	2.5455	0.	14.537
13462	15.249	2.5455	5.e-002	4.6313
13463	15.249	2.2727	0.	14.96
13464	15.157	2.3636	0.	14.544
13465	15.249	2.3636	5.e-002	4.631
13466	15.249	2.0909	0.	14.959
13467	15.157	2.1818	0.	14.555
13468	15.249	2.1818	5.e-002	4.6307
13469	15.249	1.9091	0.	14.962
13470	15.157	2.	0.	14.571
13471	15.249	2.	5.e-002	4.6303
13472	15.249	1.7273	0.	14.972
13473	15.157	1.8182	0.	14.596
13474	15.249	1.8182	5.e-002	4.6298
13475	15.249	1.5455	0.	14.99
13476	15.157	1.6364	0.	14.631
13477	15.249	1.6364	5.e-002	4.6292
13478	15.249	1.3636	0.	15.021
13479	15.157	1.4545	0.	14.679
13480	15.249	1.4545	5.e-002	4.6285
13481	15.249	1.1818	0.	15.067
13482	15.157	1.2727	0.	14.742
13483	15.249	1.2727	5.e-002	4.6277
13484	15.249	1.	0.	15.132
13485	15.157	1.0909	0.	14.825
13486	15.249	1.0909	5.e-002	4.6269
13487	15.249	0.81818	0.	15.221
13488	15.157	0.90909	0.	14.93
13489	15.249	0.90909	5.e-002	4.6259
13490	15.249	0.63636	0.	15.34
13491	15.157	0.72727	0.	15.062
13492	15.249	0.72727	5.e-002	4.6236
13493	15.249	0.45455	0.	15.543
13494	15.157	0.54545	0.	15.23
13495	15.249	0.54545	5.e-002	4.6037
13496	15.249	0.27273	0.	16.683
13497	15.157	0.36364	0.	15.533
13498	15.249	0.36364	5.e-002	4.3135
13499	15.157	0.18182	0.	17.651
13500	15.249	0.18182	5.e-002	0.19195
13501	15.249	9.0909e-002	0.	11.822
13502	15.065	5.7273	0.	16.377
13503	14.973	5.8182	0.	17.364
13504	15.065	5.8182	5.e-002	0.1891
13505	15.065	5.9091	0.	11.637
13506	15.065	5.5455	0.	15.187
13507	14.973	5.6364	0.	15.207
13508	15.065	5.6364	5.e-002	4.3313
13509	15.065	5.3636	0.	14.922
13510	14.973	5.4545	0.	14.844
13511	15.065	5.4545	5.e-002	4.6229
13512	15.065	5.1818	0.	14.742
13513	14.973	5.2727	0.	14.614
13514	15.065	5.2727	5.e-002	4.6429
13515	15.065	5.	0.	14.593
13516	14.973	5.0909	0.	14.422
13517	15.065	5.0909	5.e-002	4.6452
13518	15.065	4.8182	0.	14.471
13519	14.973	4.9091	0.	14.258
13520	15.065	4.9091	5.e-002	4.6462
13521	15.065	4.6364	0.	14.371
13522	14.973	4.7273	0.	14.12
13523	15.065	4.7273	5.e-002	4.647
13524	15.065	4.4545	0.	14.291
13525	14.973	4.5455	0.	14.005
13526	15.065	4.5455	5.e-002	4.6478
13527	15.065	4.2727	0.	14.227
13528	14.973	4.3636	0.	13.91
13529	15.065	4.3636	5.e-002	4.6485
13530	15.065	4.0909	0.	14.177
13531	14.973	4.1818	0.	13.832
13532	15.065	4.1818	5.e-002	4.6491
13533	15.065	3.9091	0.	14.138
13534	14.973	4.	0.	13.77
13535	15.065	4.	5.e-002	4.6496
13536	15.065	3.7273	0.	14.11
13537	14.973	3.8182	0.	13.721
13538	15.065	3.8182	5.e-002	4.65
13539	15.065	3.5455	0.	14.089
13540	14.973	3.6364	0.	13.684
13541	15.065	3.6364	5.e-002	4.6503
13542	15.065	3.3636	0.	14.076
13543	14.973	3.4545	0.	13.657
13544	15.065	3.4545	5.e-002	4.6506
13545	15.065	3.1818	0.	14.068
13546	14.973	3.2727	0.	13.64
13547	15.065	3.2727	5.e-002	4.6507
13548	15.065	3.	0.	14.065
13549	14.973	3.0909	0.	13.631
13550	15.065	3.0909	5.e-002	4.6508
13551	15.065	2.8182	0.	14.068
13552	14.973	2.9091	0.	13.631
13553	15.065	2.9091	5.e-002	4.6508
13554	15.065	2.6364	0.	14.076
13555	14.973	2.7273	0.	13.64
13556	15.065	2.7273	5.e-002	4.6507
13557	15.065	2.4545	0.	14.089
13558	14.973	2.5455	0.	13.657
13559	15.065	2.5455	5.e-002	4.6506
13560	15.065	2.2727	0.	14.11
13561	14.973	2.3636	0.	13.684
13562	15.065	2.3636	5.e-002	4.6503
13563	15.065	2.0909	0.	14.139
13564	14.973	2.1818	0.	13.721
13565	15.065	2.1818	5.e-002	4.65
13566	15.065	1.9091	0.	14.177
13567	14.973	2.	0.	13.77
13568	15.065	2.	5.e-002	4.6495
13569	15.065	1.7273	0.	14.227
13570	14.973	1.8182	0.	13.832
13571	15.065	1.8182	5.e-002	4.649
13572	15.065	1.5455	0.	14.291
13573	14.973	1.6364	0.	13.91
13574	15.065	1.6364	5.e-002	4.6484
13575	15.065	1.3636	0.	14.371
13576	14.973	1.4545	0.	14.005
13577	15.065	1.4545	5.e-002	4.6478
13578	15.065	1.1818	0.	14.471
13579	14.973	1.2727	0.	14.12
13580	15.065	1.2727	5.e-002	4.647
13581	15.065	1.	0.	14.593
13582	14.973	1.0909	0.	14.258
13583	15.065	1.0909	5.e-002	4.6461
13584	15.065	0.81818	0.	14.742
13585	14.973	0.90909	0.	14.422
13586	15.065	0.90909	5.e-002	4.6451
13587	15.065	0.63636	0.	14.922
13588	14.973	0.72727	0.	14.614
13589	15.065	0.72727	5.e-002	4.6428
13590	15.065	0.45455	0.	15.187
13591	14.973	0.54545	0.	14.844
13592	15.065	0.54545	5.e-002	4.6228
13593	15.065	0.27273	0.	16.378
13594	14.973	0.36364	0.	15.207
13595	15.065	0.36364	5.e-002	4.3312
13596	14.973	0.18182	0.	17.364
13597	15.065	0.18182	5.e-002	0.18909
13598	15.065	9.0909e-002	0.	11.637
13599	14.881	5.7273	0.	16.072
13600	14.79	5.8182	0.	17.078
13601	14.881	5.8182	5.e-002	0.18567
13602	14.881	5.9091	0.	11.452
13603	14.881	5.5455	0.	14.831
13604	14.79	5.6364	0.	14.882
13605	14.881	5.6364	5.e-002	4.3492
13606	14.881	5.3636	0.	14.506
13607	14.79	5.4545	0.	14.458
13608	14.881	5.4545	5.e-002	4.6422
13609	14.881	5.1818	0.	14.265
13610	14.79	5.2727	0.	14.166
13611	14.881	5.2727	5.e-002	4.6623
13612	14.881	5.	0.	14.058
13613	14.79	5.0909	0.	13.915
13614	14.881	5.0909	5.e-002	4.6646
13615	14.881	4.8182	0.	13.879
13616	14.79	4.9091	0.	13.694
13617	14.881	4.9091	5.e-002	4.6656
13618	14.881	4.6364	0.	13.726
13619	14.79	4.7273	0.	13.501
13620	14.881	4.7273	5.e-002	4.6665
13621	14.881	4.4545	0.	13.596
13622	14.79	4.5455	0.	13.334
13623	14.881	4.5455	5.e-002	4.6673
13624	14.881	4.2727	0.	13.487
13625	14.79	4.3636	0.	13.192
13626	14.881	4.3636	5.e-002	4.668
13627	14.881	4.0909	0.	13.397
13628	14.79	4.1818	0.	13.072
13629	14.881	4.1818	5.e-002	4.6686
13630	14.881	3.9091	0.	13.324
13631	14.79	4.	0.	12.972
13632	14.881	4.	5.e-002	4.6691
13633	14.881	3.7273	0.	13.267
13634	14.79	3.8182	0.	12.891
13635	14.881	3.8182	5.e-002	4.6695
13636	14.881	3.5455	0.	13.223
13637	14.79	3.6364	0.	12.828
13638	14.881	3.6364	5.e-002	4.6698
13639	14.881	3.3636	0.	13.193
13640	14.79	3.4545	0.	12.782
13641	14.881	3.4545	5.e-002	4.6701
13642	14.881	3.1818	0.	13.175
13643	14.79	3.2727	0.	12.752
13644	14.881	3.2727	5.e-002	4.6703
13645	14.881	3.	0.	13.17
13646	14.79	3.0909	0.	12.736
13647	14.881	3.0909	5.e-002	4.6703
13648	14.881	2.8182	0.	13.175
13649	14.79	2.9091	0.	12.736
13650	14.881	2.9091	5.e-002	4.6703
13651	14.881	2.6364	0.	13.193
13652	14.79	2.7273	0.	12.752
13653	14.881	2.7273	5.e-002	4.6703
13654	14.881	2.4545	0.	13.224
13655	14.79	2.5455	0.	12.782
13656	14.881	2.5455	5.e-002	4.6701
13657	14.881	2.2727	0.	13.267
13658	14.79	2.3636	0.	12.828
13659	14.881	2.3636	5.e-002	4.6698
13660	14.881	2.0909	0.	13.324
13661	14.79	2.1818	0.	12.891
13662	14.881	2.1818	5.e-002	4.6695
13663	14.881	1.9091	0.	13.397
13664	14.79	2.	0.	12.972
13665	14.881	2.	5.e-002	4.6691
13666	14.881	1.7273	0.	13.487
13667	14.79	1.8182	0.	13.072
13668	14.881	1.8182	5.e-002	4.6685
13669	14.881	1.5455	0.	13.596
13670	14.79	1.6364	0.	13.192
13671	14.881	1.6364	5.e-002	4.6679
13672	14.881	1.3636	0.	13.726
13673	14.79	1.4545	0.	13.334
13674	14.881	1.4545	5.e-002	4.6672
13675	14.881	1.1818	0.	13.879
13676	14.79	1.2727	0.	13.501
13677	14.881	1.2727	5.e-002	4.6665
13678	14.881	1.	0.	14.058
13679	14.79	1.0909	0.	13.694
13680	14.881	1.0909	5.e-002	4.6656
13681	14.881	0.81818	0.	14.265
13682	14.79	0.90909	0.	13.915
13683	14.881	0.90909	5.e-002	4.6645
13684	14.881	0.63636	0.	14.506
13685	14.79	0.72727	0.	14.167
13686	14.881	0.72727	5.e-002	4.6623
13687	14.881	0.45455	0.	14.832
13688	14.79	0.54545	0.	14.458
13689	14.881	0.54545	5.e-002	4.6421
13690	14.881	0.27273	0.	16.073
13691	14.79	0.36364	0.	14.882
13692	14.881	0.36364	5.e-002	4.3492
13693	14.79	0.18182	0.	17.078
13694	14.881	0.18182	5.e-002	0.18566
13695	14.881	9.0909e-002	0.	11.452
13696	14.698	5.7273	0.	15.768
13697	14.606	5.8182	0.	16.792
13698	14.698	5.8182	5.e-002	0.18153
13699	14.698	5.9091	0.	11.268
13700	14.698	5.5455	0.	14.476
13701	14.606	5.6364	0.	14.557
13702	14.698	5.6364	5.e-002	4.3674
13703	14.698	5.3636	0.	14.09
13704	14.606	5.4545	0.	14.071
13705	14.698	5.4545	5.e-002	4.6617
13706	14.698	5.1818	0.	13.788
13707	14.606	5.2727	0.	13.718
13708	14.698	5.2727	5.e-002	4.6819
13709	14.698	5.	0.	13.522
13710	14.606	5.0909	0.	13.406
13711	14.698	5.0909	5.e-002	4.6842
13712	14.698	4.8182	0.	13.287
13713	14.606	4.9091	0.	13.127
13714	14.698	4.9091	5.e-002	4.6853
13715	14.698	4.6364	0.	13.081
13716	14.606	4.7273	0.	12.88
13717	14.698	4.7273	5.e-002	4.6862
13718	14.698	4.4545	0.	12.902
13719	14.606	4.5455	0.	12.662
13720	14.698	4.5455	5.e-002	4.6869
13721	14.698	4.2727	0.	12.749
13722	14.606	4.3636	0.	12.473
13723	14.698	4.3636	5.e-002	4.6877
13724	14.698	4.0909	0.	12.619
13725	14.606	4.1818	0.	12.31
13726	14.698	4.1818	5.e-002	4.6883
13727	14.698	3.9091	0.	12.511
13728	14.606	4.	0.	12.173
13729	14.698	4.	5.e-002	4.6888
13730	14.698	3.7273	0.	12.425
13731	14.606	3.8182	0.	12.061
13732	14.698	3.8182	5.e-002	4.6892
13733	14.698	3.5455	0.	12.359
13734	14.606	3.6364	0.	11.972
13735	14.698	3.6364	5.e-002	4.6896
13736	14.698	3.3636	0.	12.313
13737	14.606	3.4545	0.	11.906
13738	14.698	3.4545	5.e-002	4.6899
13739	14.698	3.1818	0.	12.285
13740	14.606	3.2727	0.	11.862
13741	14.698	3.2727	5.e-002	4.69
13742	14.698	3.	0.	12.276
13743	14.606	3.0909	0.	11.841
13744	14.698	3.0909	5.e-002	4.6901
13745	14.698	2.8182	0.	12.285
13746	14.606	2.9091	0.	11.841
13747	14.698	2.9091	5.e-002	4.6901
13748	14.698	2.6364	0.	12.313
13749	14.606	2.7273	0.	11.862
13750	14.698	2.7273	5.e-002	4.69
13751	14.698	2.4545	0.	12.359
13752	14.606	2.5455	0.	11.906
13753	14.698	2.5455	5.e-002	4.6898
13754	14.698	2.2727	0.	12.425
13755	14.606	2.3636	0.	11.972
13756	14.698	2.3636	5.e-002	4.6896
13757	14.698	2.0909	0.	12.512
13758	14.606	2.1818	0.	12.061
13759	14.698	2.1818	5.e-002	4.6892
13760	14.698	1.9091	0.	12.619
13761	14.606	2.	0.	12.173
13762	14.698	2.	5.e-002	4.6888
13763	14.698	1.7273	0.	12.749
13764	14.606	1.8182	0.	12.31
13765	14.698	1.8182	5.e-002	4.6882
13766	14.698	1.5455	0.	12.902
13767	14.606	1.6364	0.	12.473
13768	14.698	1.6364	5.e-002	4.6877
13769	14.698	1.3636	0.	13.081
13770	14.606	1.4545	0.	12.662
13771	14.698	1.4545	5.e-002	4.6869
13772	14.698	1.1818	0.	13.287
13773	14.606	1.2727	0.	12.88
13774	14.698	1.2727	5.e-002	4.6862
13775	14.698	1.	0.	13.522
13776	14.606	1.0909	0.	13.127
13777	14.698	1.0909	5.e-002	4.6852
13778	14.698	0.81818	0.	13.788
13779	14.606	0.90909	0.	13.406
13780	14.698	0.90909	5.e-002	4.6842
13781	14.698	0.63636	0.	14.09
13782	14.606	0.72727	0.	13.718
13783	14.698	0.72727	5.e-002	4.6819
13784	14.698	0.45455	0.	14.476
13785	14.606	0.54545	0.	14.071
13786	14.698	0.54545	5.e-002	4.6616
13787	14.698	0.27273	0.	15.768
13788	14.606	0.36364	0.	14.557
13789	14.698	0.36364	5.e-002	4.3674
13790	14.606	0.18182	0.	16.792
13791	14.698	0.18182	5.e-002	0.18151
13792	14.698	9.0909e-002	0.	11.268
13793	14.514	5.7273	0.	15.462
13794	14.422	5.8182	0.	16.505
13795	14.514	5.8182	5.e-002	0.17659
13796	14.514	5.9091	0.	11.084
13797	14.514	5.5455	0.	14.12
13798	14.422	5.6364	0.	14.23
13799	14.514	5.6364	5.e-002	4.3859
13800	14.514	5.3636	0.	13.671
13801	14.422	5.4545	0.	13.682
13802	14.514	5.4545	5.e-002	4.6813
13803	14.514	5.1818	0.	13.308
13804	14.422	5.2727	0.	13.267
13805	14.514	5.2727	5.e-002	4.7017
13806	14.514	5.	0.	12.984
13807	14.422	5.0909	0.	12.894
13808	14.514	5.0909	5.e-002	4.704
13809	14.514	4.8182	0.	12.692
13810	14.422	4.9091	0.	12.557
13811	14.514	4.9091	5.e-002	4.7051
13812	14.514	4.6364	0.	12.433
13813	14.422	4.7273	0.	12.254
13814	14.514	4.7273	5.e-002	4.706
13815	14.514	4.4545	0.	12.205
13816	14.422	4.5455	0.	11.985
13817	14.514	4.5455	5.e-002	4.7068
13818	14.514	4.2727	0.	12.007
13819	14.422	4.3636	0.	11.748
13820	14.514	4.3636	5.e-002	4.7076
13821	14.514	4.0909	0.	11.837
13822	14.422	4.1818	0.	11.542
13823	14.514	4.1818	5.e-002	4.7082
13824	14.514	3.9091	0.	11.695
13825	14.422	4.	0.	11.368
13826	14.514	4.	5.e-002	4.7087
13827	14.514	3.7273	0.	11.58
13828	14.422	3.8182	0.	11.224
13829	14.514	3.8182	5.e-002	4.7092
13830	14.514	3.5455	0.	11.491
13831	14.422	3.6364	0.	11.109
13832	14.514	3.6364	5.e-002	4.7095
13833	14.514	3.3636	0.	11.428
13834	14.422	3.4545	0.	11.023
13835	14.514	3.4545	5.e-002	4.7098
13836	14.514	3.1818	0.	11.391
13837	14.422	3.2727	0.	10.967
13838	14.514	3.2727	5.e-002	4.71
13839	14.514	3.	0.	11.378
13840	14.422	3.0909	0.	10.938
13841	14.514	3.0909	5.e-002	4.7101
13842	14.514	2.8182	0.	11.391
13843	14.422	2.9091	0.	10.938
13844	14.514	2.9091	5.e-002	4.7101
13845	14.514	2.6364	0.	11.428
13846	14.422	2.7273	0.	10.967
13847	14.514	2.7273	5.e-002	4.71
13848	14.514	2.4545	0.	11.491
13849	14.422	2.5455	0.	11.023
13850	14.514	2.5455	5.e-002	4.7098
13851	14.514	2.2727	0.	11.58
13852	14.422	2.3636	0.	11.109
13853	14.514	2.3636	5.e-002	4.7095
13854	14.514	2.0909	0.	11.695
13855	14.422	2.1818	0.	11.224
13856	14.514	2.1818	5.e-002	4.7092
13857	14.514	1.9091	0.	11.837
13858	14.422	2.	0.	11.368
13859	14.514	2.	5.e-002	4.7087
13860	14.514	1.7273	0.	12.007
13861	14.422	1.8182	0.	11.543
13862	14.514	1.8182	5.e-002	4.7082
13863	14.514	1.5455	0.	12.205
13864	14.422	1.6364	0.	11.748
13865	14.514	1.6364	5.e-002	4.7075
13866	14.514	1.3636	0.	12.433
13867	14.422	1.4545	0.	11.985
13868	14.514	1.4545	5.e-002	4.7068
13869	14.514	1.1818	0.	12.692
13870	14.422	1.2727	0.	12.254
13871	14.514	1.2727	5.e-002	4.706
13872	14.514	1.	0.	12.984
13873	14.422	1.0909	0.	12.557
13874	14.514	1.0909	5.e-002	4.7051
13875	14.514	0.81818	0.	13.309
13876	14.422	0.90909	0.	12.894
13877	14.514	0.90909	5.e-002	4.704
13878	14.514	0.63636	0.	13.671
13879	14.422	0.72727	0.	13.267
13880	14.514	0.72727	5.e-002	4.7016
13881	14.514	0.45455	0.	14.12
13882	14.422	0.54545	0.	13.682
13883	14.514	0.54545	5.e-002	4.6813
13884	14.514	0.27273	0.	15.462
13885	14.422	0.36364	0.	14.23
13886	14.514	0.36364	5.e-002	4.3858
13887	14.422	0.18182	0.	16.505
13888	14.514	0.18182	5.e-002	0.17655
13889	14.514	9.0909e-002	0.	11.085
13890	14.33	5.7273	0.	15.156
13891	14.238	5.8182	0.	16.217
13892	14.33	5.8182	5.e-002	0.17072
13893	14.33	5.9091	0.	10.901
13894	14.33	5.5455	0.	13.76
13895	14.238	5.6364	0.	13.9
13896	14.33	5.6364	5.e-002	4.4045
13897	14.33	5.3636	0.	13.249
13898	14.238	5.4545	0.	13.288
13899	14.33	5.4545	5.e-002	4.7012
13900	14.33	5.1818	0.	12.824
13901	14.238	5.2727	0.	12.81
13902	14.33	5.2727	5.e-002	4.7217
13903	14.33	5.	0.	12.44
13904	14.238	5.0909	0.	12.375
13905	14.33	5.0909	5.e-002	4.724
13906	14.33	4.8182	0.	12.091
13907	14.238	4.9091	0.	11.979
13908	14.33	4.9091	5.e-002	4.7251
13909	14.33	4.6364	0.	11.778
13910	14.238	4.7273	0.	11.62
13911	14.33	4.7273	5.e-002	4.7261
13912	14.33	4.4545	0.	11.5
13913	14.238	4.5455	0.	11.298
13914	14.33	4.5455	5.e-002	4.7269
13915	14.33	4.2727	0.	11.256
13916	14.238	4.3636	0.	11.013
13917	14.33	4.3636	5.e-002	4.7277
13918	14.33	4.0909	0.	11.047
13919	14.238	4.1818	0.	10.764
13920	14.33	4.1818	5.e-002	4.7283
13921	14.33	3.9091	0.	10.87
13922	14.238	4.	0.	10.552
13923	14.33	4.	5.e-002	4.7289
13924	14.33	3.7273	0.	10.726
13925	14.238	3.8182	0.	10.375
13926	14.33	3.8182	5.e-002	4.7293
13927	14.33	3.5455	0.	10.614
13928	14.238	3.6364	0.	10.234
13929	14.33	3.6364	5.e-002	4.7297
13930	14.33	3.3636	0.	10.535
13931	14.238	3.4545	0.	10.129
13932	14.33	3.4545	5.e-002	4.73
13933	14.33	3.1818	0.	10.487
13934	14.238	3.2727	0.	10.058
13935	14.33	3.2727	5.e-002	4.7302
13936	14.33	3.	0.	10.471
13937	14.238	3.0909	0.	10.023
13938	14.33	3.0909	5.e-002	4.7303
13939	14.33	2.8182	0.	10.487
13940	14.238	2.9091	0.	10.023
13941	14.33	2.9091	5.e-002	4.7303
13942	14.33	2.6364	0.	10.535
13943	14.238	2.7273	0.	10.058
13944	14.33	2.7273	5.e-002	4.7302
13945	14.33	2.4545	0.	10.614
13946	14.238	2.5455	0.	10.129
13947	14.33	2.5455	5.e-002	4.73
13948	14.33	2.2727	0.	10.726
13949	14.238	2.3636	0.	10.234
13950	14.33	2.3636	5.e-002	4.7297
13951	14.33	2.0909	0.	10.87
13952	14.238	2.1818	0.	10.375
13953	14.33	2.1818	5.e-002	4.7293
13954	14.33	1.9091	0.	11.047
13955	14.238	2.	0.	10.552
13956	14.33	2.	5.e-002	4.7289
13957	14.33	1.7273	0.	11.257
13958	14.238	1.8182	0.	10.764
13959	14.33	1.8182	5.e-002	4.7283
13960	14.33	1.5455	0.	11.5
13961	14.238	1.6364	0.	11.013
13962	14.33	1.6364	5.e-002	4.7276
13963	14.33	1.3636	0.	11.778
13964	14.238	1.4545	0.	11.298
13965	14.33	1.4545	5.e-002	4.7269
13966	14.33	1.1818	0.	12.091
13967	14.238	1.2727	0.	11.62
13968	14.33	1.2727	5.e-002	4.7261
13969	14.33	1.	0.	12.44
13970	14.238	1.0909	0.	11.979
13971	14.33	1.0909	5.e-002	4.7251
13972	14.33	0.81818	0.	12.824
13973	14.238	0.90909	0.	12.375
13974	14.33	0.90909	5.e-002	4.724
13975	14.33	0.63636	0.	13.249
13976	14.238	0.72727	0.	12.81
13977	14.33	0.72727	5.e-002	4.7216
13978	14.33	0.45455	0.	13.76
13979	14.238	0.54545	0.	13.288
13980	14.33	0.54545	5.e-002	4.7012
13981	14.33	0.27273	0.	15.156
13982	14.238	0.36364	0.	13.9
13983	14.33	0.36364	5.e-002	4.4045
13984	14.238	0.18182	0.	16.217
13985	14.33	0.18182	5.e-002	0.17072
13986	14.33	9.0909e-002	0.	10.901
13987	14.147	5.7273	0.	14.846
13988	14.055	5.8182	0.	15.928
13989	14.147	5.8182	5.e-002	0.16385
13990	14.147	5.9091	0.	10.716
13991	14.147	5.5455	0.	13.397
13992	14.055	5.6364	0.	13.566
13993	14.147	5.6364	5.e-002	4.4234
13994	14.147	5.3636	0.	12.821
13995	14.055	5.4545	0.	12.889
13996	14.147	5.4545	5.e-002	4.7213
13997	14.147	5.1818	0.	12.333
13998	14.055	5.2727	0.	12.345
13999	14.147	5.2727	5.e-002	4.7418
14000	14.147	5.	0.	11.887
14001	14.055	5.0909	0.	11.847
14002	14.147	5.0909	5.e-002	4.7442
14003	14.147	4.8182	0.	11.48
14004	14.055	4.9091	0.	11.389
14005	14.147	4.9091	5.e-002	4.7454
14006	14.147	4.6364	0.	11.112
14007	14.055	4.7273	0.	10.973
14008	14.147	4.7273	5.e-002	4.7463
14009	14.147	4.4545	0.	10.784
14010	14.055	4.5455	0.	10.597
14011	14.147	4.5455	5.e-002	4.7472
14012	14.147	4.2727	0.	10.494
14013	14.055	4.3636	0.	10.263
14014	14.147	4.3636	5.e-002	4.748
14015	14.147	4.0909	0.	10.243
14016	14.055	4.1818	0.	9.9704
14017	14.147	4.1818	5.e-002	4.7487
14018	14.147	3.9091	0.	10.031
14019	14.055	4.	0.	9.7192
14020	14.147	4.	5.e-002	4.7492
14021	14.147	3.7273	0.	9.8571
14022	14.055	3.8182	0.	9.5097
14023	14.147	3.8182	5.e-002	4.7497
14024	14.147	3.5455	0.	9.7223
14025	14.055	3.6364	0.	9.342
14026	14.147	3.6364	5.e-002	4.7501
14027	14.147	3.3636	0.	9.626
14028	14.055	3.4545	0.	9.2161
14029	14.147	3.4545	5.e-002	4.7504
14030	14.147	3.1818	0.	9.5682
14031	14.055	3.2727	0.	9.1322
14032	14.147	3.2727	5.e-002	4.7506
14033	14.147	3.	0.	9.549
14034	14.055	3.0909	0.	9.0902
14035	14.147	3.0909	5.e-002	4.7507
14036	14.147	2.8182	0.	9.5683
14037	14.055	2.9091	0.	9.0903
14038	14.147	2.9091	5.e-002	4.7507
14039	14.147	2.6364	0.	9.626
14040	14.055	2.7273	0.	9.1322
14041	14.147	2.7273	5.e-002	4.7506
14042	14.147	2.4545	0.	9.7223
14043	14.055	2.5455	0.	9.2162
14044	14.147	2.5455	5.e-002	4.7504
14045	14.147	2.2727	0.	9.8571
14046	14.055	2.3636	0.	9.342
14047	14.147	2.3636	5.e-002	4.7501
14048	14.147	2.0909	0.	10.031
14049	14.055	2.1818	0.	9.5097
14050	14.147	2.1818	5.e-002	4.7497
14051	14.147	1.9091	0.	10.243
14052	14.055	2.	0.	9.7193
14053	14.147	2.	5.e-002	4.7492
14054	14.147	1.7273	0.	10.494
14055	14.055	1.8182	0.	9.9705
14056	14.147	1.8182	5.e-002	4.7486
14057	14.147	1.5455	0.	10.784
14058	14.055	1.6364	0.	10.263
14059	14.147	1.6364	5.e-002	4.748
14060	14.147	1.3636	0.	11.112
14061	14.055	1.4545	0.	10.598
14062	14.147	1.4545	5.e-002	4.7472
14063	14.147	1.1818	0.	11.48
14064	14.055	1.2727	0.	10.973
14065	14.147	1.2727	5.e-002	4.7463
14066	14.147	1.	0.	11.887
14067	14.055	1.0909	0.	11.39
14068	14.147	1.0909	5.e-002	4.7453
14069	14.147	0.81818	0.	12.333
14070	14.055	0.90909	0.	11.847
14071	14.147	0.90909	5.e-002	4.7442
14072	14.147	0.63636	0.	12.821
14073	14.055	0.72727	0.	12.345
14074	14.147	0.72727	5.e-002	4.7418
14075	14.147	0.45455	0.	13.397
14076	14.055	0.54545	0.	12.889
14077	14.147	0.54545	5.e-002	4.7212
14078	14.147	0.27273	0.	14.846
14079	14.055	0.36364	0.	13.566
14080	14.147	0.36364	5.e-002	4.4234
14081	14.055	0.18182	0.	15.928
14082	14.147	0.18182	5.e-002	0.16382
14083	14.147	9.0909e-002	0.	10.716
14084	13.963	5.7273	0.	14.534
14085	13.871	5.8182	0.	15.636
14086	13.963	5.8182	5.e-002	0.15588
14087	13.963	5.9091	0.	10.531
14088	13.963	5.5455	0.	13.028
14089	13.871	5.6364	0.	13.228
14090	13.963	5.6364	5.e-002	4.4427
14091	13.963	5.3636	0.	12.386
14092	13.871	5.4545	0.	12.482
14093	13.963	5.4545	5.e-002	4.7415
14094	13.963	5.1818	0.	11.832
14095	13.871	5.2727	0.	11.87
14096	13.963	5.2727	5.e-002	4.7622
14097	13.963	5.	0.	11.323
14098	13.871	5.0909	0.	11.306
14099	13.963	5.0909	5.e-002	4.7646
14100	13.963	4.8182	0.	10.856
14101	13.871	4.9091	0.	10.786
14102	13.963	4.9091	5.e-002	4.7658
14103	13.963	4.6364	0.	10.432
14104	13.871	4.7273	0.	10.31
14105	13.963	4.7273	5.e-002	4.7668
14106	13.963	4.4545	0.	10.051
14107	13.871	4.5455	0.	9.8796
14108	13.963	4.5455	5.e-002	4.7677
14109	13.963	4.2727	0.	9.7136
14110	13.871	4.3636	0.	9.4947
14111	13.963	4.3636	5.e-002	4.7685
14112	13.963	4.0909	0.	9.4207
14113	13.871	4.1818	0.	9.1564
14114	13.963	4.1818	5.e-002	4.7692
14115	13.963	3.9091	0.	9.1722
14116	13.871	4.	0.	8.8653
14117	13.963	4.	5.e-002	4.7698
14118	13.963	3.7273	0.	8.9685
14119	13.871	3.8182	0.	8.6219
14120	13.963	3.8182	5.e-002	4.7704
14121	13.963	3.5455	0.	8.8098
14122	13.871	3.6364	0.	8.4266
14123	13.963	3.6364	5.e-002	4.7707
14124	13.963	3.3636	0.	8.6963
14125	13.871	3.4545	0.	8.2799
14126	13.963	3.4545	5.e-002	4.771
14127	13.963	3.1818	0.	8.6282
14128	13.871	3.2727	0.	8.1819
14129	13.963	3.2727	5.e-002	4.7712
14130	13.963	3.	0.	8.6055
14131	13.871	3.0909	0.	8.1329
14132	13.963	3.0909	5.e-002	4.7713
14133	13.963	2.8182	0.	8.6282
14134	13.871	2.9091	0.	8.1329
14135	13.963	2.9091	5.e-002	4.7713
14136	13.963	2.6364	0.	8.6964
14137	13.871	2.7273	0.	8.182
14138	13.963	2.7273	5.e-002	4.7712
14139	13.963	2.4545	0.	8.8098
14140	13.871	2.5455	0.	8.2799
14141	13.963	2.5455	5.e-002	4.771
14142	13.963	2.2727	0.	8.9685
14143	13.871	2.3636	0.	8.4267
14144	13.963	2.3636	5.e-002	4.7707
14145	13.963	2.0909	0.	9.1722
14146	13.871	2.1818	0.	8.6219
14147	13.963	2.1818	5.e-002	4.7703
14148	13.963	1.9091	0.	9.4207
14149	13.871	2.	0.	8.8653
14150	13.963	2.	5.e-002	4.7698
14151	13.963	1.7273	0.	9.7137
14152	13.871	1.8182	0.	9.1564
14153	13.963	1.8182	5.e-002	4.7692
14154	13.963	1.5455	0.	10.051
14155	13.871	1.6364	0.	9.4947
14156	13.963	1.6364	5.e-002	4.7685
14157	13.963	1.3636	0.	10.432
14158	13.871	1.4545	0.	9.8796
14159	13.963	1.4545	5.e-002	4.7677
14160	13.963	1.1818	0.	10.856
14161	13.871	1.2727	0.	10.31
14162	13.963	1.2727	5.e-002	4.7668
14163	13.963	1.	0.	11.323
14164	13.871	1.0909	0.	10.786
14165	13.963	1.0909	5.e-002	4.7658
14166	13.963	0.81818	0.	11.832
14167	13.871	0.90909	0.	11.307
14168	13.963	0.90909	5.e-002	4.7646
14169	13.963	0.63636	0.	12.386
14170	13.871	0.72727	0.	11.87
14171	13.963	0.72727	5.e-002	4.7621
14172	13.963	0.45455	0.	13.028
14173	13.871	0.54545	0.	12.482
14174	13.963	0.54545	5.e-002	4.7414
14175	13.963	0.27273	0.	14.534
14176	13.871	0.36364	0.	13.228
14177	13.963	0.36364	5.e-002	4.4426
14178	13.871	0.18182	0.	15.636
14179	13.963	0.18182	5.e-002	0.15585
14180	13.963	9.0909e-002	0.	10.531
14181	13.779	5.7273	0.	14.217
14182	13.687	5.8182	0.	15.341
14183	13.779	5.8182	5.e-002	0.14672
14184	13.779	5.9091	0.	10.344
14185	13.779	5.5455	0.	12.652
14186	13.687	5.6364	0.	12.882
14187	13.779	5.6364	5.e-002	4.4621
14188	13.779	5.3636	0.	11.94
14189	13.687	5.4545	0.	12.066
14190	13.779	5.4545	5.e-002	4.7619
14191	13.779	5.1818	0.	11.318
14192	13.687	5.2727	0.	11.383
14193	13.779	5.2727	5.e-002	4.7827
14194	13.779	5.	0.	10.744
14195	13.687	5.0909	0.	10.751
14196	13.779	5.0909	5.e-002	4.7852
14197	13.779	4.8182	0.	10.215
14198	13.687	4.9091	0.	10.166
14199	13.779	4.9091	5.e-002	4.7864
14200	13.779	4.6364	0.	9.7322
14201	13.687	4.7273	0.	9.628
14202	13.779	4.7273	5.e-002	4.7875
14203	13.779	4.4545	0.	9.2975
14204	13.687	4.5455	0.	9.1398
14205	13.779	4.5455	5.e-002	4.7884
14206	13.779	4.2727	0.	8.9115
14207	13.687	4.3636	0.	8.7024
14208	13.779	4.3636	5.e-002	4.7893
14209	13.779	4.0909	0.	8.5751
14210	13.687	4.1818	0.	8.317
14211	13.779	4.1818	5.e-002	4.79
14212	13.779	3.9091	0.	8.2892
14213	13.687	4.	0.	7.9845
14214	13.779	4.	5.e-002	4.7906
14215	13.779	3.7273	0.	8.0543
14216	13.687	3.8182	0.	7.7061
14217	13.779	3.8182	5.e-002	4.7912
14218	13.779	3.5455	0.	7.8711
14219	13.687	3.6364	0.	7.4824
14220	13.779	3.6364	5.e-002	4.7916
14221	13.779	3.3636	0.	7.7399
14222	13.687	3.4545	0.	7.314
14223	13.779	3.4545	5.e-002	4.7919
14224	13.779	3.1818	0.	7.661
14225	13.687	3.2727	0.	7.2015
14226	13.779	3.2727	5.e-002	4.7921
14227	13.779	3.	0.	7.6347
14228	13.687	3.0909	0.	7.1452
14229	13.779	3.0909	5.e-002	4.7922
14230	13.779	2.8182	0.	7.661
14231	13.687	2.9091	0.	7.1452
14232	13.779	2.9091	5.e-002	4.7922
14233	13.779	2.6364	0.	7.7399
14234	13.687	2.7273	0.	7.2016
14235	13.779	2.7273	5.e-002	4.7921
14236	13.779	2.4545	0.	7.8711
14237	13.687	2.5455	0.	7.3141
14238	13.779	2.5455	5.e-002	4.7919
14239	13.779	2.2727	0.	8.0543
14240	13.687	2.3636	0.	7.4824
14241	13.779	2.3636	5.e-002	4.7916
14242	13.779	2.0909	0.	8.2892
14243	13.687	2.1818	0.	7.7061
14244	13.779	2.1818	5.e-002	4.7911
14245	13.779	1.9091	0.	8.5752
14246	13.687	2.	0.	7.9846
14247	13.779	2.	5.e-002	4.7906
14248	13.779	1.7273	0.	8.9115
14249	13.687	1.8182	0.	8.317
14250	13.779	1.8182	5.e-002	4.79
14251	13.779	1.5455	0.	9.2975
14252	13.687	1.6364	0.	8.7024
14253	13.779	1.6364	5.e-002	4.7892
14254	13.779	1.3636	0.	9.7322
14255	13.687	1.4545	0.	9.1399
14256	13.779	1.4545	5.e-002	4.7884
14257	13.779	1.1818	0.	10.215
14258	13.687	1.2727	0.	9.6281
14259	13.779	1.2727	5.e-002	4.7874
14260	13.779	1.	0.	10.744
14261	13.687	1.0909	0.	10.166
14262	13.779	1.0909	5.e-002	4.7864
14263	13.779	0.81818	0.	11.318
14264	13.687	0.90909	0.	10.751
14265	13.779	0.90909	5.e-002	4.7851
14266	13.779	0.63636	0.	11.94
14267	13.687	0.72727	0.	11.383
14268	13.779	0.72727	5.e-002	4.7826
14269	13.779	0.45455	0.	12.652
14270	13.687	0.54545	0.	12.066
14271	13.779	0.54545	5.e-002	4.7618
14272	13.779	0.27273	0.	14.217
14273	13.687	0.36364	0.	12.882
14274	13.779	0.36364	5.e-002	4.462
14275	13.687	0.18182	0.	15.341
14276	13.779	0.18182	5.e-002	0.1467
14277	13.779	9.0909e-002	0.	10.344
14278	13.595	5.7273	0.	13.895
14279	13.503	5.8182	0.	15.041
14280	13.595	5.8182	5.e-002	0.13625
14281	13.595	5.9091	0.	10.155
14282	13.595	5.5455	0.	12.267
14283	13.503	5.6364	0.	12.529
14284	13.595	5.6364	5.e-002	4.4817
14285	13.595	5.3636	0.	11.483
14286	13.503	5.4545	0.	11.638
14287	13.595	5.4545	5.e-002	4.7825
14288	13.595	5.1818	0.	10.79
14289	13.503	5.2727	0.	10.882
14290	13.595	5.2727	5.e-002	4.8034
14291	13.595	5.	0.	10.147
14292	13.503	5.0909	0.	10.178
14293	13.595	5.0909	5.e-002	4.806
14294	13.595	4.8182	0.	9.5531
14295	13.503	4.9091	0.	9.5239
14296	13.595	4.9091	5.e-002	4.8073
14297	13.595	4.6364	0.	9.0099
14298	13.503	4.7273	0.	8.9219
14299	13.595	4.7273	5.e-002	4.8084
14300	13.595	4.4545	0.	8.5191
14301	13.503	4.5455	0.	8.3738
14302	13.595	4.5455	5.e-002	4.8094
14303	13.595	4.2727	0.	8.0823
14304	13.503	4.3636	0.	7.8816
14305	13.595	4.3636	5.e-002	4.8102
14306	13.595	4.0909	0.	7.7009
14307	13.503	4.1818	0.	7.447
14308	13.595	4.1818	5.e-002	4.811
14309	13.595	3.9091	0.	7.3761
14310	13.503	4.	0.	7.0715
14311	13.595	4.	5.e-002	4.8117
14312	13.595	3.7273	0.	7.1088
14313	13.503	3.8182	0.	6.7566
14314	13.595	3.8182	5.e-002	4.8123
14315	13.595	3.5455	0.	6.9001
14316	13.503	3.6364	0.	6.5032
14317	13.595	3.6364	5.e-002	4.8127
14318	13.595	3.3636	0.	6.7505
14319	13.503	3.4545	0.	6.3124
14320	13.595	3.4545	5.e-002	4.813
14321	13.595	3.1818	0.	6.6605
14322	13.503	3.2727	0.	6.1847
14323	13.595	3.2727	5.e-002	4.8132
14324	13.595	3.	0.	6.6305
14325	13.503	3.0909	0.	6.1208
14326	13.595	3.0909	5.e-002	4.8133
14327	13.595	2.8182	0.	6.6605
14328	13.503	2.9091	0.	6.1208
14329	13.595	2.9091	5.e-002	4.8133
14330	13.595	2.6364	0.	6.7505
14331	13.503	2.7273	0.	6.1847
14332	13.595	2.7273	5.e-002	4.8132
14333	13.595	2.4545	0.	6.9001
14334	13.503	2.5455	0.	6.3124
14335	13.595	2.5455	5.e-002	4.813
14336	13.595	2.2727	0.	7.1089
14337	13.503	2.3636	0.	6.5032
14338	13.595	2.3636	5.e-002	4.8127
14339	13.595	2.0909	0.	7.3761
14340	13.503	2.1818	0.	6.7566
14341	13.595	2.1818	5.e-002	4.8122
14342	13.595	1.9091	0.	7.701
14343	13.503	2.	0.	7.0716
14344	13.595	2.	5.e-002	4.8117
14345	13.595	1.7273	0.	8.0824
14346	13.503	1.8182	0.	7.447
14347	13.595	1.8182	5.e-002	4.811
14348	13.595	1.5455	0.	8.5192
14349	13.503	1.6364	0.	7.8817
14350	13.595	1.6364	5.e-002	4.8102
14351	13.595	1.3636	0.	9.01
14352	13.503	1.4545	0.	8.3739
14353	13.595	1.4545	5.e-002	4.8094
14354	13.595	1.1818	0.	9.5531
14355	13.503	1.2727	0.	8.9219
14356	13.595	1.2727	5.e-002	4.8083
14357	13.595	1.	0.	10.147
14358	13.503	1.0909	0.	9.524
14359	13.595	1.0909	5.e-002	4.8072
14360	13.595	0.81818	0.	10.79
14361	13.503	0.90909	0.	10.178
14362	13.595	0.90909	5.e-002	4.8059
14363	13.595	0.63636	0.	11.483
14364	13.503	0.72727	0.	10.882
14365	13.595	0.72727	5.e-002	4.8033
14366	13.595	0.45455	0.	12.267
14367	13.503	0.54545	0.	11.638
14368	13.595	0.54545	5.e-002	4.7824
14369	13.595	0.27273	0.	13.895
14370	13.503	0.36364	0.	12.53
14371	13.595	0.36364	5.e-002	4.4817
14372	13.503	0.18182	0.	15.041
14373	13.595	0.18182	5.e-002	0.13621
14374	13.595	9.0909e-002	0.	10.155
14375	13.412	5.7273	0.	13.566
14376	13.32	5.8182	0.	14.737
14377	13.412	5.8182	5.e-002	0.12438
14378	13.412	5.9091	0.	9.9642
14379	13.412	5.5455	0.	11.871
14380	13.32	5.6364	0.	12.167
14381	13.412	5.6364	5.e-002	4.5017
14382	13.412	5.3636	0.	11.011
14383	13.32	5.4545	0.	11.197
14384	13.412	5.4545	5.e-002	4.8032
14385	13.412	5.1818	0.	10.244
14386	13.32	5.2727	0.	10.362
14387	13.412	5.2727	5.e-002	4.8243
14388	13.412	5.	0.	9.5291
14389	13.32	5.0909	0.	9.5833
14390	13.412	5.0909	5.e-002	4.827
14391	13.412	4.8182	0.	8.8672
14392	13.32	4.9091	0.	8.8576
14393	13.412	4.9091	5.e-002	4.8283
14394	13.412	4.6364	0.	8.2605
14395	13.32	4.7273	0.	8.1879
14396	13.412	4.7273	5.e-002	4.8295
14397	13.412	4.4545	0.	7.7111
14398	13.32	4.5455	0.	7.577
14399	13.412	4.5455	5.e-002	4.8305
14400	13.412	4.2727	0.	7.2211
14401	13.32	4.3636	0.	7.0273
14402	13.412	4.3636	5.e-002	4.8315
14403	13.412	4.0909	0.	6.7926
14404	13.32	4.1818	0.	6.5411
14405	13.412	4.1818	5.e-002	4.8323
14406	13.412	3.9091	0.	6.4271
14407	13.32	4.	0.	6.1206
14408	13.412	4.	5.e-002	4.833
14409	13.412	3.7273	0.	6.126
14410	13.32	3.8182	0.	5.7673
14411	13.412	3.8182	5.e-002	4.8336
14412	13.412	3.5455	0.	5.8906
14413	13.32	3.6364	0.	5.4829
14414	13.412	3.6364	5.e-002	4.834
14415	13.412	3.3636	0.	5.7218
14416	13.32	3.4545	0.	5.2685
14417	13.412	3.4545	5.e-002	4.8344
14418	13.412	3.1818	0.	5.6202
14419	13.32	3.2727	0.	5.125
14420	13.412	3.2727	5.e-002	4.8346
14421	13.412	3.	0.	5.5863
14422	13.32	3.0909	0.	5.0531
14423	13.412	3.0909	5.e-002	4.8347
14424	13.412	2.8182	0.	5.6202
14425	13.32	2.9091	0.	5.0531
14426	13.412	2.9091	5.e-002	4.8347
14427	13.412	2.6364	0.	5.7218
14428	13.32	2.7273	0.	5.125
14429	13.412	2.7273	5.e-002	4.8346
14430	13.412	2.4545	0.	5.8906
14431	13.32	2.5455	0.	5.2685
14432	13.412	2.5455	5.e-002	4.8344
14433	13.412	2.2727	0.	6.126
14434	13.32	2.3636	0.	5.4829
14435	13.412	2.3636	5.e-002	4.834
14436	13.412	2.0909	0.	6.4271
14437	13.32	2.1818	0.	5.7674
14438	13.412	2.1818	5.e-002	4.8336
14439	13.412	1.9091	0.	6.7926
14440	13.32	2.	0.	6.1206
14441	13.412	2.	5.e-002	4.833
14442	13.412	1.7273	0.	7.2212
14443	13.32	1.8182	0.	6.5412
14444	13.412	1.8182	5.e-002	4.8323
14445	13.412	1.5455	0.	7.7111
14446	13.32	1.6364	0.	7.0273
14447	13.412	1.6364	5.e-002	4.8315
14448	13.412	1.3636	0.	8.2605
14449	13.32	1.4545	0.	7.577
14450	13.412	1.4545	5.e-002	4.8305
14451	13.412	1.1818	0.	8.8673
14452	13.32	1.2727	0.	8.1879
14453	13.412	1.2727	5.e-002	4.8294
14454	13.412	1.	0.	9.5292
14455	13.32	1.0909	0.	8.8577
14456	13.412	1.0909	5.e-002	4.8283
14457	13.412	0.81818	0.	10.244
14458	13.32	0.90909	0.	9.5834
14459	13.412	0.90909	5.e-002	4.8269
14460	13.412	0.63636	0.	11.011
14461	13.32	0.72727	0.	10.363
14462	13.412	0.72727	5.e-002	4.8242
14463	13.412	0.45455	0.	11.871
14464	13.32	0.54545	0.	11.197
14465	13.412	0.54545	5.e-002	4.8032
14466	13.412	0.27273	0.	13.566
14467	13.32	0.36364	0.	12.167
14468	13.412	0.36364	5.e-002	4.5016
14469	13.32	0.18182	0.	14.737
14470	13.412	0.18182	5.e-002	0.12435
14471	13.412	9.0909e-002	0.	9.9643
14472	13.228	5.7273	0.	13.23
14473	13.136	5.8182	0.	14.428
14474	13.228	5.8182	5.e-002	0.11106
14475	13.228	5.9091	0.	9.7705
14476	13.228	5.5455	0.	11.464
14477	13.136	5.6364	0.	11.795
14478	13.228	5.6364	5.e-002	4.5219
14479	13.228	5.3636	0.	10.523
14480	13.136	5.4545	0.	10.741
14481	13.228	5.4545	5.e-002	4.8242
14482	13.228	5.1818	0.	9.6767
14483	13.136	5.2727	0.	9.8233
14484	13.228	5.2727	5.e-002	4.8454
14485	13.228	5.	0.	8.8866
14486	13.136	5.0909	0.	8.9645
14487	13.228	5.0909	5.e-002	4.8482
14488	13.228	4.8182	0.	8.1532
14489	13.136	4.9091	0.	8.1628
14490	13.228	4.9091	5.e-002	4.8496
14491	13.228	4.6364	0.	7.4794
14492	13.136	4.7273	0.	7.4217
14493	13.228	4.7273	5.e-002	4.8508
14494	13.228	4.4545	0.	6.8683
14495	13.136	4.5455	0.	6.7444
14496	13.228	4.5455	5.e-002	4.8519
14497	13.228	4.2727	0.	6.3226
14498	13.136	4.3636	0.	6.1342
14499	13.228	4.3636	5.e-002	4.8529
14500	13.228	4.0909	0.	5.8445
14501	13.136	4.1818	0.	5.5938
14502	13.228	4.1818	5.e-002	4.8538
14503	13.228	3.9091	0.	5.4363
14504	13.136	4.	0.	5.1257
14505	13.228	4.	5.e-002	4.8545
14506	13.228	3.7273	0.	5.0997
14507	13.136	3.8182	0.	4.7321
14508	13.228	3.8182	5.e-002	4.8551
14509	13.228	3.5455	0.	4.8363
14510	13.136	3.6364	0.	4.415
14511	13.228	3.6364	5.e-002	4.8556
14512	13.228	3.3636	0.	4.6473
14513	13.136	3.4545	0.	4.1758
14514	13.228	3.4545	5.e-002	4.856
14515	13.228	3.1818	0.	4.5335
14516	13.136	3.2727	0.	4.0156
14517	13.228	3.2727	5.e-002	4.8563
14518	13.228	3.	0.	4.4955
14519	13.136	3.0909	0.	3.9353
14520	13.228	3.0909	5.e-002	4.8564
14521	13.228	2.8182	0.	4.5335
14522	13.136	2.9091	0.	3.9353
14523	13.228	2.9091	5.e-002	4.8564
14524	13.228	2.6364	0.	4.6473
14525	13.136	2.7273	0.	4.0156
14526	13.228	2.7273	5.e-002	4.8563
14527	13.228	2.4545	0.	4.8363
14528	13.136	2.5455	0.	4.1758
14529	13.228	2.5455	5.e-002	4.856
14530	13.228	2.2727	0.	5.0997
14531	13.136	2.3636	0.	4.415
14532	13.228	2.3636	5.e-002	4.8556
14533	13.228	2.0909	0.	5.4363
14534	13.136	2.1818	0.	4.7322
14535	13.228	2.1818	5.e-002	4.8551
14536	13.228	1.9091	0.	5.8445
14537	13.136	2.	0.	5.1257
14538	13.228	2.	5.e-002	4.8545
14539	13.228	1.7273	0.	6.3226
14540	13.136	1.8182	0.	5.5938
14541	13.228	1.8182	5.e-002	4.8537
14542	13.228	1.5455	0.	6.8684
14543	13.136	1.6364	0.	6.1342
14544	13.228	1.6364	5.e-002	4.8529
14545	13.228	1.3636	0.	7.4795
14546	13.136	1.4545	0.	6.7445
14547	13.228	1.4545	5.e-002	4.8519
14548	13.228	1.1818	0.	8.1532
14549	13.136	1.2727	0.	7.4217
14550	13.228	1.2727	5.e-002	4.8508
14551	13.228	1.	0.	8.8867
14552	13.136	1.0909	0.	8.1629
14553	13.228	1.0909	5.e-002	4.8496
14554	13.228	0.81818	0.	9.6768
14555	13.136	0.90909	0.	8.9645
14556	13.228	0.90909	5.e-002	4.8481
14557	13.228	0.63636	0.	10.523
14558	13.136	0.72727	0.	9.8234
14559	13.228	0.72727	5.e-002	4.8454
14560	13.228	0.45455	0.	11.464
14561	13.136	0.54545	0.	10.741
14562	13.228	0.54545	5.e-002	4.8242
14563	13.228	0.27273	0.	13.23
14564	13.136	0.36364	0.	11.795
14565	13.228	0.36364	5.e-002	4.5219
14566	13.136	0.18182	0.	14.428
14567	13.228	0.18182	5.e-002	0.11099
14568	13.228	9.0909e-002	0.	9.7706
14569	13.044	5.7273	0.	12.885
14570	12.952	5.8182	0.	14.111
14571	13.044	5.8182	5.e-002	9.6099e-002
14572	13.044	5.9091	0.	9.5735
14573	13.044	5.5455	0.	11.042
14574	12.952	5.6364	0.	11.41
14575	13.044	5.6364	5.e-002	4.5425
14576	13.044	5.3636	0.	10.016
14577	12.952	5.4545	0.	10.266
14578	13.044	5.4545	5.e-002	4.8455
14579	13.044	5.1818	0.	9.086
14580	12.952	5.2727	0.	9.2612
14581	13.044	5.2727	5.e-002	4.8668
14582	13.044	5.	0.	8.2159
14583	12.952	5.0909	0.	8.3178
14584	13.044	5.0909	5.e-002	4.8696
14585	13.044	4.8182	0.	7.4067
14586	12.952	4.9091	0.	7.4356
14587	13.044	4.9091	5.e-002	4.8712
14588	13.044	4.6364	0.	6.6622
14589	12.952	4.7273	0.	6.6188
14590	13.044	4.7273	5.e-002	4.8724
14591	13.044	4.4545	0.	5.9859
14592	12.952	4.5455	0.	5.8713
14593	13.044	4.5455	5.e-002	4.8736
14594	13.044	4.2727	0.	5.3811
14595	12.952	4.3636	0.	5.1969
14596	13.044	4.3636	5.e-002	4.8746
14597	13.044	4.0909	0.	4.8508
14598	12.952	4.1818	0.	4.5991
14599	13.044	4.1818	5.e-002	4.8756
14600	13.044	3.9091	0.	4.3975
14601	12.952	4.	0.	4.0807
14602	13.044	4.	5.e-002	4.8763
14603	13.044	3.7273	0.	4.0234
14604	12.952	3.8182	0.	3.6446
14605	13.044	3.8182	5.e-002	4.877
14606	13.044	3.5455	0.	3.7304
14607	12.952	3.6364	0.	3.2928
14608	13.044	3.6364	5.e-002	4.8775
14609	13.044	3.3636	0.	3.5201
14610	12.952	3.4545	0.	3.0273
14611	13.044	3.4545	5.e-002	4.8779
14612	13.044	3.1818	0.	3.3934
14613	12.952	3.2727	0.	2.8494
14614	13.044	3.2727	5.e-002	4.8782
14615	13.044	3.	0.	3.3511
14616	12.952	3.0909	0.	2.7602
14617	13.044	3.0909	5.e-002	4.8783
14618	13.044	2.8182	0.	3.3934
14619	12.952	2.9091	0.	2.7603
14620	13.044	2.9091	5.e-002	4.8783
14621	13.044	2.6364	0.	3.5201
14622	12.952	2.7273	0.	2.8494
14623	13.044	2.7273	5.e-002	4.8782
14624	13.044	2.4545	0.	3.7305
14625	12.952	2.5455	0.	3.0273
14626	13.044	2.5455	5.e-002	4.8779
14627	13.044	2.2727	0.	4.0234
14628	12.952	2.3636	0.	3.2928
14629	13.044	2.3636	5.e-002	4.8775
14630	13.044	2.0909	0.	4.3975
14631	12.952	2.1818	0.	3.6446
14632	13.044	2.1818	5.e-002	4.877
14633	13.044	1.9091	0.	4.8508
14634	12.952	2.	0.	4.0808
14635	13.044	2.	5.e-002	4.8763
14636	13.044	1.7273	0.	5.3812
14637	12.952	1.8182	0.	4.5991
14638	13.044	1.8182	5.e-002	4.8755
14639	13.044	1.5455	0.	5.9859
14640	12.952	1.6364	0.	5.197
14641	13.044	1.6364	5.e-002	4.8746
14642	13.044	1.3636	0.	6.6622
14643	12.952	1.4545	0.	5.8713
14644	13.044	1.4545	5.e-002	4.8736
14645	13.044	1.1818	0.	7.4067
14646	12.952	1.2727	0.	6.6188
14647	13.044	1.2727	5.e-002	4.8724
14648	13.044	1.	0.	8.2159
14649	12.952	1.0909	0.	7.4357
14650	13.044	1.0909	5.e-002	4.8711
14651	13.044	0.81818	0.	9.0861
14652	12.952	0.90909	0.	8.3179
14653	13.044	0.90909	5.e-002	4.8696
14654	13.044	0.63636	0.	10.016
14655	12.952	0.72727	0.	9.2613
14656	13.044	0.72727	5.e-002	4.8667
14657	13.044	0.45455	0.	11.043
14658	12.952	0.54545	0.	10.266
14659	13.044	0.54545	5.e-002	4.8454
14660	13.044	0.27273	0.	12.885
14661	12.952	0.36364	0.	11.41
14662	13.044	0.36364	5.e-002	4.5424
14663	12.952	0.18182	0.	14.111
14664	13.044	0.18182	5.e-002	9.6049e-002
14665	13.044	9.0909e-002	0.	9.5736
14666	12.86	5.7273	0.	12.53
14667	12.769	5.8182	0.	13.787
14668	12.86	5.8182	5.e-002	7.9427e-002
14669	12.86	5.9091	0.	9.3726
14670	12.86	5.5455	0.	10.605
14671	12.769	5.6364	0.	11.011
14672	12.86	5.6364	5.e-002	4.5634
14673	12.86	5.3636	0.	9.4869
14674	12.769	5.4545	0.	9.7721
14675	12.86	5.4545	5.e-002	4.8669
14676	12.86	5.1818	0.	8.4684
14677	12.769	5.2727	0.	8.6733
14678	12.86	5.2727	5.e-002	4.8884
14679	12.86	5.	0.	7.5131
14680	12.769	5.0909	0.	7.6397
14681	12.86	5.0909	5.e-002	4.8913
14682	12.86	4.8182	0.	6.6234
14683	12.769	4.9091	0.	6.6718
14684	12.86	4.9091	5.e-002	4.8929
14685	12.86	4.6364	0.	5.8038
14686	12.769	4.7273	0.	5.7744
14687	12.86	4.7273	5.e-002	4.8943
14688	12.86	4.4545	0.	5.0584
14689	12.769	4.5455	0.	4.9523
14690	12.86	4.5455	5.e-002	4.8955
14691	12.86	4.2727	0.	4.3911
14692	12.769	4.3636	0.	4.2098
14693	12.86	4.3636	5.e-002	4.8966
14694	12.86	4.0909	0.	3.8053
14695	12.769	4.1818	0.	3.551
14696	12.86	4.1818	5.e-002	4.8976
14697	12.86	3.9091	0.	3.3042
14698	12.769	4.	0.	2.9794
14699	12.86	4.	5.e-002	4.8984
14700	12.86	3.7273	0.	2.8904
14701	12.769	3.8182	0.	2.4979
14702	12.86	3.8182	5.e-002	4.8991
14703	12.86	3.5455	0.	2.5661
14704	12.769	3.6364	0.	2.1094
14705	12.86	3.6364	5.e-002	4.8997
14706	12.86	3.3636	0.	2.3331
14707	12.769	3.4545	0.	1.8159
14708	12.86	3.4545	5.e-002	4.9001
14709	12.86	3.1818	0.	2.1927
14710	12.769	3.2727	0.	1.6191
14711	12.86	3.2727	5.e-002	4.9004
14712	12.86	3.	0.	2.1458
14713	12.769	3.0909	0.	1.5204
14714	12.86	3.0909	5.e-002	4.9005
14715	12.86	2.8182	0.	2.1927
14716	12.769	2.9091	0.	1.5204
14717	12.86	2.9091	5.e-002	4.9005
14718	12.86	2.6364	0.	2.3331
14719	12.769	2.7273	0.	1.6191
14720	12.86	2.7273	5.e-002	4.9003
14721	12.86	2.4545	0.	2.5661
14722	12.769	2.5455	0.	1.8159
14723	12.86	2.5455	5.e-002	4.9001
14724	12.86	2.2727	0.	2.8904
14725	12.769	2.3636	0.	2.1094
14726	12.86	2.3636	5.e-002	4.8996
14727	12.86	2.0909	0.	3.3043
14728	12.769	2.1818	0.	2.498
14729	12.86	2.1818	5.e-002	4.8991
14730	12.86	1.9091	0.	3.8054
14731	12.769	2.	0.	2.9794
14732	12.86	2.	5.e-002	4.8984
14733	12.86	1.7273	0.	4.3911
14734	12.769	1.8182	0.	3.551
14735	12.86	1.8182	5.e-002	4.8976
14736	12.86	1.5455	0.	5.0584
14737	12.769	1.6364	0.	4.2099
14738	12.86	1.6364	5.e-002	4.8966
14739	12.86	1.3636	0.	5.8038
14740	12.769	1.4545	0.	4.9523
14741	12.86	1.4545	5.e-002	4.8955
14742	12.86	1.1818	0.	6.6235
14743	12.769	1.2727	0.	5.7744
14744	12.86	1.2727	5.e-002	4.8942
14745	12.86	1.	0.	7.5132
14746	12.769	1.0909	0.	6.6718
14747	12.86	1.0909	5.e-002	4.8929
14748	12.86	0.81818	0.	8.4684
14749	12.769	0.90909	0.	7.6398
14750	12.86	0.90909	5.e-002	4.8912
14751	12.86	0.63636	0.	9.487
14752	12.769	0.72727	0.	8.6734
14753	12.86	0.72727	5.e-002	4.8883
14754	12.86	0.45455	0.	10.605
14755	12.769	0.54545	0.	9.7721
14756	12.86	0.54545	5.e-002	4.8668
14757	12.86	0.27273	0.	12.53
14758	12.769	0.36364	0.	11.011
14759	12.86	0.36364	5.e-002	4.5633
14760	12.769	0.18182	0.	13.787
14761	12.86	0.18182	5.e-002	7.9388e-002
14762	12.86	9.0909e-002	0.	9.3726
14763	12.677	5.7273	0.	12.164
14764	12.585	5.8182	0.	13.454
14765	12.677	5.8182	5.e-002	6.0952e-002
14766	12.677	5.9091	0.	9.1671
14767	12.677	5.5455	0.	10.15
14768	12.585	5.6364	0.	10.596
14769	12.677	5.6364	5.e-002	4.5846
14770	12.677	5.3636	0.	8.9338
14771	12.585	5.4545	0.	9.2554
14772	12.677	5.4545	5.e-002	4.8886
14773	12.677	5.1818	0.	7.8204
14774	12.585	5.2727	0.	8.0563
14775	12.677	5.2727	5.e-002	4.9102
14776	12.677	5.	0.	6.7743
14777	12.585	5.0909	0.	6.9263
14778	12.677	5.0909	5.e-002	4.9133
14779	12.677	4.8182	0.	5.7988
14780	12.585	4.9091	0.	5.8669
14781	12.677	4.9091	5.e-002	4.915
14782	12.677	4.6364	0.	4.8992
14783	12.585	4.7273	0.	4.8835
14784	12.677	4.7273	5.e-002	4.9164
14785	12.677	4.4545	0.	4.0802
14786	12.585	4.5455	0.	3.9819
14787	12.677	4.5455	5.e-002	4.9178
14788	12.677	4.2727	0.	3.3464
14789	12.585	4.3636	0.	3.167
14790	12.677	4.3636	5.e-002	4.9189
14791	12.677	4.0909	0.	2.7019
14792	12.585	4.1818	0.	2.4435
14793	12.677	4.1818	5.e-002	4.92
14794	12.677	3.9091	0.	2.1501
14795	12.585	4.	0.	1.8154
14796	12.677	4.	5.e-002	4.9208
14797	12.677	3.7273	0.	1.6941
14798	12.585	3.8182	0.	1.2863
14799	12.677	3.8182	5.e-002	4.9215
14800	12.677	3.5455	0.	1.3364
14801	12.585	3.6364	0.	0.85906
14802	12.677	3.6364	5.e-002	4.9221
14803	12.677	3.3636	0.	1.079
14804	12.585	3.4545	0.	0.53595
14805	12.677	3.4545	5.e-002	4.9226
14806	12.677	3.1818	0.	0.92369
14807	12.585	3.2727	0.	0.31845
14808	12.677	3.2727	5.e-002	4.9229
14809	12.677	3.	0.	0.87175
14810	12.585	3.0909	0.	0.20804
14811	12.677	3.0909	5.e-002	4.923
14812	12.677	2.8182	0.	0.9237
14813	12.585	2.9091	0.	0.20804
14814	12.677	2.9091	5.e-002	4.923
14815	12.677	2.6364	0.	1.079
14816	12.585	2.7273	0.	0.31846
14817	12.677	2.7273	5.e-002	4.9229
14818	12.677	2.4545	0.	1.3364
14819	12.585	2.5455	0.	0.53598
14820	12.677	2.5455	5.e-002	4.9225
14821	12.677	2.2727	0.	1.6941
14822	12.585	2.3636	0.	0.85909
14823	12.677	2.3636	5.e-002	4.9221
14824	12.677	2.0909	0.	2.1502
14825	12.585	2.1818	0.	1.2863
14826	12.677	2.1818	5.e-002	4.9215
14827	12.677	1.9091	0.	2.7019
14828	12.585	2.	0.	1.8154
14829	12.677	2.	5.e-002	4.9208
14830	12.677	1.7273	0.	3.3465
14831	12.585	1.8182	0.	2.4435
14832	12.677	1.8182	5.e-002	4.9199
14833	12.677	1.5455	0.	4.0803
14834	12.585	1.6364	0.	3.1671
14835	12.677	1.6364	5.e-002	4.9189
14836	12.677	1.3636	0.	4.8992
14837	12.585	1.4545	0.	3.982
14838	12.677	1.4545	5.e-002	4.9177
14839	12.677	1.1818	0.	5.7989
14840	12.585	1.2727	0.	4.8836
14841	12.677	1.2727	5.e-002	4.9164
14842	12.677	1.	0.	6.7744
14843	12.585	1.0909	0.	5.8669
14844	12.677	1.0909	5.e-002	4.9149
14845	12.677	0.81818	0.	7.8204
14846	12.585	0.90909	0.	6.9264
14847	12.677	0.90909	5.e-002	4.9132
14848	12.677	0.63636	0.	8.9339
14849	12.585	0.72727	0.	8.0564
14850	12.677	0.72727	5.e-002	4.9101
14851	12.677	0.45455	0.	10.15
14852	12.585	0.54545	0.	9.2554
14853	12.677	0.54545	5.e-002	4.8885
14854	12.677	0.27273	0.	12.164
14855	12.585	0.36364	0.	10.597
14856	12.677	0.36364	5.e-002	4.5845
14857	12.585	0.18182	0.	13.455
14858	12.677	0.18182	5.e-002	6.0913e-002
14859	12.677	9.0909e-002	0.	9.1672
14860	12.493	5.7273	0.	11.784
14861	12.401	5.8182	0.	13.112
14862	12.493	5.8182	5.e-002	4.0518e-002
14863	12.493	5.9091	0.	8.9566
14864	12.493	5.5455	0.	9.6743
14865	12.401	5.6364	0.	10.165
14866	12.493	5.6364	5.e-002	4.6061
14867	12.493	5.3636	0.	8.3536
14868	12.401	5.4545	0.	8.7136
14869	12.493	5.4545	5.e-002	4.9106
14870	12.493	5.1818	0.	7.1384
14871	12.401	5.2727	0.	7.407
14872	12.493	5.2727	5.e-002	4.9323
14873	12.493	5.	0.	5.9952
14874	12.401	5.0909	0.	6.1737
14875	12.493	5.0909	5.e-002	4.9355
14876	12.493	4.8182	0.	4.9281
14877	12.401	4.9091	0.	5.0162
14878	12.493	4.9091	5.e-002	4.9373
14879	12.493	4.6364	0.	3.943
14880	12.401	4.7273	0.	3.9411
14881	12.493	4.7273	5.e-002	4.9389
14882	12.493	4.4545	0.	3.0457
14883	12.401	4.5455	0.	2.9546
14884	12.493	4.5455	5.e-002	4.9403
14885	12.493	4.2727	0.	2.2414
14886	12.401	4.3636	0.	2.0629
14887	12.493	4.3636	5.e-002	4.9415
14888	12.493	4.0909	0.	1.5349
14889	12.401	4.1818	0.	1.2719
14890	12.493	4.1818	5.e-002	4.9426
14891	12.493	3.9091	0.	0.93078
14892	12.401	4.	0.	0.58941
14893	12.493	4.	5.e-002	4.9435
14894	12.493	3.7273	0.	0.4342
14895	12.401	3.8182	0.	8.1302e-002
14896	12.493	3.8182	5.e-002	4.9443
14897	12.493	3.5455	0.	7.4877e-002
14898	12.401	3.6364	0.	1.4135e-002
14899	12.493	3.6364	5.e-002	4.9449
14900	12.493	3.3636	0.	1.1265e-002
14901	12.401	3.4545	0.	8.3235e-003
14902	12.493	3.4545	5.e-002	4.9454
14903	12.493	3.1818	0.	6.769e-003
14904	12.401	3.2727	0.	6.5577e-003
14905	12.493	3.2727	5.e-002	4.9457
14906	12.493	3.	0.	5.9546e-003
14907	12.401	3.0909	0.	5.9386e-003
14908	12.493	3.0909	5.e-002	4.9458
14909	12.493	2.8182	0.	6.7689e-003
14910	12.401	2.9091	0.	5.9384e-003
14911	12.493	2.9091	5.e-002	4.9458
14912	12.493	2.6364	0.	1.1265e-002
14913	12.401	2.7273	0.	6.5574e-003
14914	12.493	2.7273	5.e-002	4.9457
14915	12.493	2.4545	0.	7.4895e-002
14916	12.401	2.5455	0.	8.3241e-003
14917	12.493	2.5455	5.e-002	4.9454
14918	12.493	2.2727	0.	0.43423
14919	12.401	2.3636	0.	1.4136e-002
14920	12.493	2.3636	5.e-002	4.9449
14921	12.493	2.0909	0.	0.93082
14922	12.401	2.1818	0.	8.132e-002
14923	12.493	2.1818	5.e-002	4.9443
14924	12.493	1.9091	0.	1.535
14925	12.401	2.	0.	0.58945
14926	12.493	2.	5.e-002	4.9435
14927	12.493	1.7273	0.	2.2415
14928	12.401	1.8182	0.	1.272
14929	12.493	1.8182	5.e-002	4.9425
14930	12.493	1.5455	0.	3.0458
14931	12.401	1.6364	0.	2.063
14932	12.493	1.6364	5.e-002	4.9415
14933	12.493	1.3636	0.	3.9431
14934	12.401	1.4545	0.	2.9547
14935	12.493	1.4545	5.e-002	4.9402
14936	12.493	1.1818	0.	4.9282
14937	12.401	1.2727	0.	3.9411
14938	12.493	1.2727	5.e-002	4.9388
14939	12.493	1.	0.	5.9953
14940	12.401	1.0909	0.	5.0163
14941	12.493	1.0909	5.e-002	4.9372
14942	12.493	0.81818	0.	7.1385
14943	12.401	0.90909	0.	6.1738
14944	12.493	0.90909	5.e-002	4.9354
14945	12.493	0.63636	0.	8.3536
14946	12.401	0.72727	0.	7.4071
14947	12.493	0.72727	5.e-002	4.9322
14948	12.493	0.45455	0.	9.6744
14949	12.401	0.54545	0.	8.7137
14950	12.493	0.54545	5.e-002	4.9105
14951	12.493	0.27273	0.	11.785
14952	12.401	0.36364	0.	10.165
14953	12.493	0.36364	5.e-002	4.606
14954	12.401	0.18182	0.	13.112
14955	12.493	0.18182	5.e-002	4.0473e-002
14956	12.493	9.0909e-002	0.	8.9567
14957	12.309	5.7273	0.	11.391
14958	12.217	5.8182	0.	12.758
14959	12.309	5.8182	5.e-002	1.8326e-002
14960	12.309	5.9091	0.	8.7403
14961	12.309	5.5455	0.	9.1765
14962	12.217	5.6364	0.	9.7132
14963	12.309	5.6364	5.e-002	4.628
14964	12.309	5.3636	0.	7.7431
14965	12.217	5.4545	0.	8.1439
14966	12.309	5.4545	5.e-002	4.9329
14967	12.309	5.1818	0.	6.4188
14968	12.217	5.2727	0.	6.7218
14969	12.309	5.2727	5.e-002	4.9547
14970	12.309	5.	0.	5.1715
14971	12.217	5.0909	0.	5.3776
14972	12.309	5.0909	5.e-002	4.958
14973	12.309	4.8182	0.	4.0062
14974	12.217	4.9091	0.	4.115
14975	12.309	4.9091	5.e-002	4.9599
14976	12.309	4.6364	0.	2.9299
14977	12.217	4.7273	0.	2.9417
14978	12.309	4.7273	5.e-002	4.9616
14979	12.309	4.4545	0.	1.9496
14980	12.217	4.5455	0.	1.8655
14981	12.309	4.5455	5.e-002	4.9631
14982	12.309	4.2727	0.	1.0729
14983	12.217	4.3636	0.	0.89655
14984	12.309	4.3636	5.e-002	4.9644
14985	12.309	4.0909	0.	0.32006
14986	12.217	4.1818	0.	0.12013
14987	12.309	4.1818	5.e-002	4.9656
14988	12.309	3.9091	0.	2.5227e-002
14989	12.217	4.	0.	1.7431e-002
14990	12.309	4.	5.e-002	4.9666
14991	12.309	3.7273	0.	1.1106e-002
14992	12.217	3.8182	0.	9.9607e-003
14993	12.309	3.8182	5.e-002	4.9674
14994	12.309	3.5455	0.	7.8306e-003
14995	12.217	3.6364	0.	7.5685e-003
14996	12.309	3.6364	5.e-002	4.968
14997	12.309	3.3636	0.	6.526e-003
14998	12.217	3.4545	0.	6.4868e-003
14999	12.309	3.4545	5.e-002	4.9685
15000	12.309	3.1818	0.	5.954e-003
15001	12.217	3.2727	0.	5.9524e-003
15002	12.309	3.2727	5.e-002	4.9688
15003	12.309	3.	0.	5.7878e-003
15004	12.217	3.0909	0.	5.7245e-003
15005	12.309	3.0909	5.e-002	4.969
15006	12.309	2.8182	0.	5.9537e-003
15007	12.217	2.9091	0.	5.7244e-003
15008	12.309	2.9091	5.e-002	4.969
15009	12.309	2.6364	0.	6.526e-003
15010	12.217	2.7273	0.	5.9526e-003
15011	12.309	2.7273	5.e-002	4.9688
15012	12.309	2.4545	0.	7.8312e-003
15013	12.217	2.5455	0.	6.4869e-003
15014	12.309	2.5455	5.e-002	4.9685
15015	12.309	2.2727	0.	1.1106e-002
15016	12.217	2.3636	0.	7.569e-003
15017	12.309	2.3636	5.e-002	4.968
15018	12.309	2.0909	0.	2.5229e-002
15019	12.217	2.1818	0.	9.9608e-003
15020	12.309	2.1818	5.e-002	4.9673
15021	12.309	1.9091	0.	0.3201
15022	12.217	2.	0.	1.7432e-002
15023	12.309	2.	5.e-002	4.9665
15024	12.309	1.7273	0.	1.0729
15025	12.217	1.8182	0.	0.12016
15026	12.309	1.8182	5.e-002	4.9655
15027	12.309	1.5455	0.	1.9497
15028	12.217	1.6364	0.	0.8966
15029	12.309	1.6364	5.e-002	4.9644
15030	12.309	1.3636	0.	2.93
15031	12.217	1.4545	0.	1.8655
15032	12.309	1.4545	5.e-002	4.963
15033	12.309	1.1818	0.	4.0062
15034	12.217	1.2727	0.	2.9417
15035	12.309	1.2727	5.e-002	4.9615
15036	12.309	1.	0.	5.1715
15037	12.217	1.0909	0.	4.1151
15038	12.309	1.0909	5.e-002	4.9599
15039	12.309	0.81818	0.	6.4189
15040	12.217	0.90909	0.	5.3777
15041	12.309	0.90909	5.e-002	4.9579
15042	12.309	0.63636	0.	7.7431
15043	12.217	0.72727	0.	6.7218
15044	12.309	0.72727	5.e-002	4.9546
15045	12.309	0.45455	0.	9.1766
15046	12.217	0.54545	0.	8.144
15047	12.309	0.54545	5.e-002	4.9327
15048	12.309	0.27273	0.	11.391
15049	12.217	0.36364	0.	9.7133
15050	12.309	0.36364	5.e-002	4.6279
15051	12.217	0.18182	0.	12.759
15052	12.309	0.18182	5.e-002	1.8234e-002
15053	12.309	9.0909e-002	0.	8.7403
15054	12.126	5.7273	0.	10.981
15055	12.034	5.8182	0.	12.393
15056	12.126	5.8182	5.e-002	9.0667e-003
15057	12.126	5.9091	0.	8.5174
15058	12.126	5.5455	0.	8.6538
15059	12.034	5.6364	0.	9.2404
15060	12.126	5.6364	5.e-002	4.6504
15061	12.126	5.3636	0.	7.099
15062	12.034	5.4545	0.	7.5435
15063	12.126	5.4545	5.e-002	4.9554
15064	12.126	5.1818	0.	5.6574
15065	12.034	5.2727	0.	5.9969
15066	12.126	5.2727	5.e-002	4.9774
15067	12.126	5.	0.	4.2983
15068	12.034	5.0909	0.	4.5334
15069	12.126	5.0909	5.e-002	4.9808
15070	12.126	4.8182	0.	3.0279
15071	12.034	4.9091	0.	3.1581
15072	12.126	4.9091	5.e-002	4.9829
15073	12.126	4.6364	0.	1.855
15074	12.034	4.7273	0.	1.8806
15075	12.126	4.7273	5.e-002	4.9847
15076	12.126	4.4545	0.	0.79295
15077	12.034	4.5455	0.	0.71748
15078	12.126	4.5455	5.e-002	4.9862
15079	12.126	4.2727	0.	6.0078e-002
15080	12.034	4.3636	0.	4.1012e-002
15081	12.126	4.3636	5.e-002	4.9877
15082	12.126	4.0909	0.	1.5089e-002
15083	12.034	4.1818	0.	1.3706e-002
15084	12.126	4.1818	5.e-002	4.9889
15085	12.126	3.9091	0.	9.4815e-003
15086	12.034	4.	0.	9.1092e-003
15087	12.126	4.	5.e-002	4.9899
15088	12.126	3.7273	0.	7.4479e-003
15089	12.034	3.8182	0.	7.3175e-003
15090	12.126	3.8182	5.e-002	4.9908
15091	12.126	3.5455	0.	6.4679e-003
15092	12.034	3.6364	0.	6.4178e-003
15093	12.126	3.6364	5.e-002	4.9915
15094	12.126	3.3636	0.	5.9497e-003
15095	12.034	3.4545	0.	5.921e-003
15096	12.126	3.4545	5.e-002	4.992
15097	12.126	3.1818	0.	5.6898e-003
15098	12.034	3.2727	0.	5.6479e-003
15099	12.126	3.2727	5.e-002	4.9924
15100	12.126	3.	0.	5.6104e-003
15101	12.034	3.0909	0.	5.5257e-003
15102	12.126	3.0909	5.e-002	4.9925
15103	12.126	2.8182	0.	5.6902e-003
15104	12.034	2.9091	0.	5.5256e-003
15105	12.126	2.9091	5.e-002	4.9925
15106	12.126	2.6364	0.	5.95e-003
15107	12.034	2.7273	0.	5.6485e-003
15108	12.126	2.7273	5.e-002	4.9923
15109	12.126	2.4545	0.	6.4679e-003
15110	12.034	2.5455	0.	5.9211e-003
15111	12.126	2.5455	5.e-002	4.992
15112	12.126	2.2727	0.	7.448e-003
15113	12.034	2.3636	0.	6.4179e-003
15114	12.126	2.3636	5.e-002	4.9915
15115	12.126	2.0909	0.	9.482e-003
15116	12.034	2.1818	0.	7.3179e-003
15117	12.126	2.1818	5.e-002	4.9908
15118	12.126	1.9091	0.	1.509e-002
15119	12.034	2.	0.	9.1098e-003
15120	12.126	2.	5.e-002	4.9899
15121	12.126	1.7273	0.	6.0087e-002
15122	12.034	1.8182	0.	1.3707e-002
15123	12.126	1.8182	5.e-002	4.9889
15124	12.126	1.5455	0.	0.793
15125	12.034	1.6364	0.	4.1017e-002
15126	12.126	1.6364	5.e-002	4.9876
15127	12.126	1.3636	0.	1.8551
15128	12.034	1.4545	0.	0.71754
15129	12.126	1.4545	5.e-002	4.9862
15130	12.126	1.1818	0.	3.0279
15131	12.034	1.2727	0.	1.8806
15132	12.126	1.2727	5.e-002	4.9846
15133	12.126	1.	0.	4.2983
15134	12.034	1.0909	0.	3.1582
15135	12.126	1.0909	5.e-002	4.9828
15136	12.126	0.81818	0.	5.6575
15137	12.034	0.90909	0.	4.5335
15138	12.126	0.90909	5.e-002	4.9808
15139	12.126	0.63636	0.	7.0991
15140	12.034	0.72727	0.	5.9969
15141	12.126	0.72727	5.e-002	4.9774
15142	12.126	0.45455	0.	8.6539
15143	12.034	0.54545	0.	7.5436
15144	12.126	0.54545	5.e-002	4.9553
15145	12.126	0.27273	0.	10.981
15146	12.034	0.36364	0.	9.2405
15147	12.126	0.36364	5.e-002	4.6503
15148	12.034	0.18182	0.	12.393
15149	12.126	0.18182	5.e-002	9.0475e-003
15150	12.126	9.0909e-002	0.	8.5175
15151	11.942	5.7273	0.	10.553
15152	11.85	5.8182	0.	12.013
15153	11.942	5.8182	5.e-002	3.5271e-002
15154	11.942	5.9091	0.	8.2873
15155	11.942	5.5455	0.	8.1035
15156	11.85	5.6364	0.	8.7438
15157	11.942	5.6364	5.e-002	4.6732
15158	11.942	5.3636	0.	6.418
15159	11.85	5.4545	0.	6.9091
15160	11.942	5.4545	5.e-002	4.9783
15161	11.942	5.1818	0.	4.85
15162	11.85	5.2727	0.	5.2283
15163	11.942	5.2727	5.e-002	5.0005
15164	11.942	5.	0.	3.3707
15165	11.85	5.0909	0.	3.6365
15166	11.942	5.0909	5.e-002	5.004
15167	11.942	4.8182	0.	1.9884
15168	11.85	4.9091	0.	2.1408
15169	11.942	4.9091	5.e-002	5.0062
15170	11.942	4.6364	0.	0.72179
15171	11.85	4.7273	0.	0.76061
15172	11.942	4.7273	5.e-002	5.0081
15173	11.942	4.4545	0.	3.6147e-002
15174	11.85	4.5455	0.	3.3622e-002
15175	11.942	4.5455	5.e-002	5.0098
15176	11.942	4.2727	0.	1.3138e-002
15177	11.85	4.3636	0.	1.2677e-002
15178	11.942	4.3636	5.e-002	5.0113
15179	11.942	4.0909	0.	8.9266e-003
15180	11.85	4.1818	0.	8.7435e-003
15181	11.942	4.1818	5.e-002	5.0126
15182	11.942	3.9091	0.	7.2435e-003
15183	11.85	4.	0.	7.1551e-003
15184	11.942	4.	5.e-002	5.0137
15185	11.942	3.7273	0.	6.3818e-003
15186	11.85	3.8182	0.	6.3324e-003
15187	11.942	3.8182	5.e-002	5.0147
15188	11.942	3.5455	0.	5.893e-003
15189	11.85	3.6364	0.	5.8567e-003
15190	11.942	3.6364	5.e-002	5.0154
15191	11.942	3.3636	0.	5.6103e-003
15192	11.85	3.4545	0.	5.573e-003
15193	11.942	3.4545	5.e-002	5.0159
15194	11.942	3.1818	0.	5.4614e-003
15195	11.85	3.2727	0.	5.4093e-003
15196	11.942	3.2727	5.e-002	5.0163
15197	11.942	3.	0.	5.4147e-003
15198	11.85	3.0909	0.	5.3336e-003
15199	11.942	3.0909	5.e-002	5.0165
15200	11.942	2.8182	0.	5.4615e-003
15201	11.85	2.9091	0.	5.3336e-003
15202	11.942	2.9091	5.e-002	5.0165
15203	11.942	2.6364	0.	5.6107e-003
15204	11.85	2.7273	0.	5.4095e-003
15205	11.942	2.7273	5.e-002	5.0163
15206	11.942	2.4545	0.	5.8932e-003
15207	11.85	2.5455	0.	5.573e-003
15208	11.942	2.5455	5.e-002	5.0159
15209	11.942	2.2727	0.	6.3821e-003
15210	11.85	2.3636	0.	5.8573e-003
15211	11.942	2.3636	5.e-002	5.0154
15212	11.942	2.0909	0.	7.2438e-003
15213	11.85	2.1818	0.	6.3326e-003
15214	11.942	2.1818	5.e-002	5.0146
15215	11.942	1.9091	0.	8.9272e-003
15216	11.85	2.	0.	7.1555e-003
15217	11.942	2.	5.e-002	5.0137
15218	11.942	1.7273	0.	1.314e-002
15219	11.85	1.8182	0.	8.7445e-003
15220	11.942	1.8182	5.e-002	5.0126
15221	11.942	1.5455	0.	3.6152e-002
15222	11.85	1.6364	0.	1.2678e-002
15223	11.942	1.6364	5.e-002	5.0113
15224	11.942	1.3636	0.	0.72185
15225	11.85	1.4545	0.	3.3626e-002
15226	11.942	1.4545	5.e-002	5.0098
15227	11.942	1.1818	0.	1.9885
15228	11.85	1.2727	0.	0.76067
15229	11.942	1.2727	5.e-002	5.0081
15230	11.942	1.	0.	3.3708
15231	11.85	1.0909	0.	2.1408
15232	11.942	1.0909	5.e-002	5.0062
15233	11.942	0.81818	0.	4.8501
15234	11.85	0.90909	0.	3.6365
15235	11.942	0.90909	5.e-002	5.004
15236	11.942	0.63636	0.	6.4181
15237	11.85	0.72727	0.	5.2284
15238	11.942	0.72727	5.e-002	5.0004
15239	11.942	0.45455	0.	8.1036
15240	11.85	0.54545	0.	6.9092
15241	11.942	0.54545	5.e-002	4.9782
15242	11.942	0.27273	0.	10.554
15243	11.85	0.36364	0.	8.7439
15244	11.942	0.36364	5.e-002	4.6731
15245	11.85	0.18182	0.	12.013
15246	11.942	0.18182	5.e-002	3.5201e-002
15247	11.942	9.0909e-002	0.	8.2874
15248	11.758	5.7273	0.	10.106
15249	11.666	5.8182	0.	11.619
15250	11.758	5.8182	5.e-002	6.5231e-002
15251	11.758	5.9091	0.	8.0492
15252	11.758	5.5455	0.	7.5231
15253	11.666	5.6364	0.	8.2211
15254	11.758	5.6364	5.e-002	4.6965
15255	11.758	5.3636	0.	5.6964
15256	11.666	5.4545	0.	6.2375
15257	11.758	5.4545	5.e-002	5.0015
15258	11.758	5.1818	0.	3.9922
15259	11.666	5.2727	0.	4.4118
15260	11.758	5.2727	5.e-002	5.0239
15261	11.758	5.	0.	2.384
15262	11.666	5.0909	0.	2.682
15263	11.758	5.0909	5.e-002	5.0277
15264	11.758	4.8182	0.	0.88845
15265	11.666	4.9091	0.	1.0615
15266	11.758	4.9091	5.e-002	5.03
15267	11.758	4.6364	0.	3.5594e-002
15268	11.666	4.7273	0.	3.9334e-002
15269	11.758	4.7273	5.e-002	5.032
15270	11.758	4.4545	0.	1.2623e-002
15271	11.666	4.5455	0.	1.2569e-002
15272	11.758	4.5455	5.e-002	5.0338
15273	11.758	4.2727	0.	8.6752e-003
15274	11.666	4.3636	0.	8.5831e-003
15275	11.758	4.3636	5.e-002	5.0354
15276	11.758	4.0909	0.	7.1074e-003
15277	11.666	4.1818	0.	7.041e-003
15278	11.758	4.1818	5.e-002	5.0368
15279	11.758	3.9091	0.	6.2978e-003
15280	11.666	4.	0.	6.2506e-003
15281	11.758	4.	5.e-002	5.038
15282	11.758	3.7273	0.	5.8257e-003
15283	11.666	3.8182	0.	5.7881e-003
15284	11.758	3.8182	5.e-002	5.039
15285	11.758	3.5455	0.	5.5373e-003
15286	11.666	3.6364	0.	5.5002e-003
15287	11.758	3.6364	5.e-002	5.0398
15288	11.758	3.3636	0.	5.3631e-003
15289	11.666	3.4545	0.	5.3207e-003
15290	11.758	3.4545	5.e-002	5.0403
15291	11.758	3.1818	0.	5.268e-003
15292	11.666	3.2727	0.	5.2138e-003
15293	11.758	3.2727	5.e-002	5.0407
15294	11.758	3.	0.	5.2376e-003
15295	11.666	3.0909	0.	5.1631e-003
15296	11.758	3.0909	5.e-002	5.0409
15297	11.758	2.8182	0.	5.268e-003
15298	11.666	2.9091	0.	5.1635e-003
15299	11.758	2.9091	5.e-002	5.0409
15300	11.758	2.6364	0.	5.3629e-003
15301	11.666	2.7273	0.	5.2138e-003
15302	11.758	2.7273	5.e-002	5.0407
15303	11.758	2.4545	0.	5.5378e-003
15304	11.666	2.5455	0.	5.3208e-003
15305	11.758	2.5455	5.e-002	5.0403
15306	11.758	2.2727	0.	5.8263e-003
15307	11.666	2.3636	0.	5.5004e-003
15308	11.758	2.3636	5.e-002	5.0397
15309	11.758	2.0909	0.	6.2982e-003
15310	11.666	2.1818	0.	5.788e-003
15311	11.758	2.1818	5.e-002	5.039
15312	11.758	1.9091	0.	7.1083e-003
15313	11.666	2.	0.	6.2511e-003
15314	11.758	2.	5.e-002	5.0379
15315	11.758	1.7273	0.	8.676e-003
15316	11.666	1.8182	0.	7.0417e-003
15317	11.758	1.8182	5.e-002	5.0368
15318	11.758	1.5455	0.	1.2623e-002
15319	11.666	1.6364	0.	8.5835e-003
15320	11.758	1.6364	5.e-002	5.0353
15321	11.758	1.3636	0.	3.5598e-002
15322	11.666	1.4545	0.	1.2569e-002
15323	11.758	1.4545	5.e-002	5.0337
15324	11.758	1.1818	0.	0.88851
15325	11.666	1.2727	0.	3.9339e-002
15326	11.758	1.2727	5.e-002	5.032
15327	11.758	1.	0.	2.384
15328	11.666	1.0909	0.	1.0616
15329	11.758	1.0909	5.e-002	5.0299
15330	11.758	0.81818	0.	3.9922
15331	11.666	0.90909	0.	2.682
15332	11.758	0.90909	5.e-002	5.0276
15333	11.758	0.63636	0.	5.6965
15334	11.666	0.72727	0.	4.4119
15335	11.758	0.72727	5.e-002	5.0238
15336	11.758	0.45455	0.	7.5232
15337	11.666	0.54545	0.	6.2376
15338	11.758	0.54545	5.e-002	5.0015
15339	11.758	0.27273	0.	10.106
15340	11.666	0.36364	0.	8.2212
15341	11.758	0.36364	5.e-002	4.6964
15342	11.666	0.18182	0.	11.619
15343	11.758	0.18182	5.e-002	6.5143e-002
15344	11.758	9.0909e-002	0.	8.0493
15345	11.574	5.7273	0.	9.6379
15346	11.483	5.8182	0.	11.208
15347	11.574	5.8182	5.e-002	9.812e-002
15348	11.574	5.9091	0.	7.8022
15349	11.574	5.5455	0.	6.9096
15350	11.483	5.6364	0.	7.6698
15351	11.574	5.6364	5.e-002	4.7203
15352	11.574	5.3636	0.	4.9303
15353	11.483	5.4545	0.	5.525
15354	11.574	5.4545	5.e-002	5.0252
15355	11.574	5.1818	0.	3.0791
15356	11.483	5.2727	0.	3.5429
15357	11.574	5.2727	5.e-002	5.0477
15358	11.574	5.	0.	1.3349
15359	11.483	5.0909	0.	1.6657
15360	11.574	5.0909	5.e-002	5.0516
15361	11.574	4.8182	0.	5.3157e-002
15362	11.483	4.9091	0.	9.062e-002
15363	11.574	4.9091	5.e-002	5.0541
15364	11.574	4.6364	0.	1.2893e-002
15365	11.483	4.7273	0.	1.3242e-002
15366	11.574	4.7273	5.e-002	5.0563
15367	11.574	4.4545	0.	8.5919e-003
15368	11.483	4.5455	0.	8.5527e-003
15369	11.574	4.5455	5.e-002	5.0582
15370	11.574	4.2727	0.	7.0141e-003
15371	11.483	4.3636	0.	6.9469e-003
15372	11.574	4.3636	5.e-002	5.0599
15373	11.574	4.0909	0.	6.2202e-003
15374	11.483	4.1818	0.	6.1577e-003
15375	11.574	4.1818	5.e-002	5.0614
15376	11.574	3.9091	0.	5.758e-003
15377	11.483	4.	0.	5.701e-003
15378	11.574	4.	5.e-002	5.0626
15379	11.574	3.7273	0.	5.4682e-003
15380	11.483	3.8182	0.	5.4131e-003
15381	11.574	3.8182	5.e-002	5.0637
15382	11.574	3.5455	0.	5.2821e-003
15383	11.483	3.6364	0.	5.2249e-003
15384	11.574	3.6364	5.e-002	5.0645
15385	11.574	3.3636	0.	5.1658e-003
15386	11.483	3.4545	0.	5.1032e-003
15387	11.574	3.4545	5.e-002	5.0651
15388	11.574	3.1818	0.	5.101e-003
15389	11.483	3.2727	0.	5.0292e-003
15390	11.574	3.2727	5.e-002	5.0655
15391	11.574	3.	0.	5.0803e-003
15392	11.483	3.0909	0.	4.9933e-003
15393	11.574	3.0909	5.e-002	5.0657
15394	11.574	2.8182	0.	5.1012e-003
15395	11.483	2.9091	0.	4.9938e-003
15396	11.574	2.9091	5.e-002	5.0657
15397	11.574	2.6364	0.	5.166e-003
15398	11.483	2.7273	0.	5.0291e-003
15399	11.574	2.7273	5.e-002	5.0655
15400	11.574	2.4545	0.	5.282e-003
15401	11.483	2.5455	0.	5.1038e-003
15402	11.574	2.5455	5.e-002	5.0651
15403	11.574	2.2727	0.	5.4677e-003
15404	11.483	2.3636	0.	5.225e-003
15405	11.574	2.3636	5.e-002	5.0645
15406	11.574	2.0909	0.	5.7581e-003
15407	11.483	2.1818	0.	5.4132e-003
15408	11.574	2.1818	5.e-002	5.0636
15409	11.574	1.9091	0.	6.2206e-003
15410	11.483	2.	0.	5.7015e-003
15411	11.574	2.	5.e-002	5.0626
15412	11.574	1.7273	0.	7.0145e-003
15413	11.483	1.8182	0.	6.1579e-003
15414	11.574	1.8182	5.e-002	5.0613
15415	11.574	1.5455	0.	8.5923e-003
15416	11.483	1.6364	0.	6.9475e-003
15417	11.574	1.6364	5.e-002	5.0599
15418	11.574	1.3636	0.	1.2894e-002
15419	11.483	1.4545	0.	8.5534e-003
15420	11.574	1.4545	5.e-002	5.0581
15421	11.574	1.1818	0.	5.3165e-002
15422	11.483	1.2727	0.	1.3243e-002
15423	11.574	1.2727	5.e-002	5.0562
15424	11.574	1.	0.	1.335
15425	11.483	1.0909	0.	9.0639e-002
15426	11.574	1.0909	5.e-002	5.0541
15427	11.574	0.81818	0.	3.0792
15428	11.483	0.90909	0.	1.6657
15429	11.574	0.90909	5.e-002	5.0516
15430	11.574	0.63636	0.	4.9303
15431	11.483	0.72727	0.	3.543
15432	11.574	0.72727	5.e-002	5.0476
15433	11.574	0.45455	0.	6.9097
15434	11.483	0.54545	0.	5.5251
15435	11.574	0.54545	5.e-002	5.0251
15436	11.574	0.27273	0.	9.638
15437	11.483	0.36364	0.	7.6699
15438	11.574	0.36364	5.e-002	4.7202
15439	11.483	0.18182	0.	11.209
15440	11.574	0.18182	5.e-002	9.8028e-002
15441	11.574	9.0909e-002	0.	7.8023
15442	11.391	5.7273	0.	9.1458
15443	11.299	5.8182	0.	10.78
15444	11.391	5.8182	5.e-002	0.1341
15445	11.391	5.9091	0.	7.5455
15446	11.391	5.5455	0.	6.2597
15447	11.299	5.6364	0.	7.0872
15448	11.391	5.6364	5.e-002	4.7446
15449	11.391	5.3636	0.	4.1153
15450	11.299	5.4545	0.	4.7679
15451	11.391	5.4545	5.e-002	5.0492
15452	11.391	5.1818	0.	2.1062
15453	11.299	5.2727	0.	2.617
15454	11.391	5.2727	5.e-002	5.0719
15455	11.391	5.	0.	0.26194
15456	11.299	5.0909	0.	0.59309
15457	11.391	5.0909	5.e-002	5.076
15458	11.391	4.8182	0.	1.4195e-002
15459	11.299	4.9091	0.	1.5532e-002
15460	11.391	4.9091	5.e-002	5.0787
15461	11.391	4.6364	0.	8.6233e-003
15462	11.299	4.7273	0.	8.6587e-003
15463	11.391	4.7273	5.e-002	5.0809
15464	11.391	4.4545	0.	6.922e-003
15465	11.299	4.5455	0.	6.8617e-003
15466	11.391	4.5455	5.e-002	5.083
15467	11.391	4.2727	0.	6.1155e-003
15468	11.299	4.3636	0.	6.0457e-003
15469	11.391	4.3636	5.e-002	5.0848
15470	11.391	4.0909	0.	5.6551e-003
15471	11.299	4.1818	0.	5.5879e-003
15472	11.391	4.1818	5.e-002	5.0864
15473	11.391	3.9091	0.	5.365e-003
15474	11.299	4.	0.	5.3003e-003
15475	11.391	4.	5.e-002	5.0877
15476	11.391	3.7273	0.	5.1732e-003
15477	11.299	3.8182	0.	5.1075e-003
15478	11.391	3.8182	5.e-002	5.0888
15479	11.391	3.5455	0.	5.0455e-003
15480	11.299	3.6364	0.	4.9757e-003
15481	11.391	3.6364	5.e-002	5.0897
15482	11.391	3.3636	0.	4.9636e-003
15483	11.299	3.4545	0.	4.8882e-003
15484	11.391	3.4545	5.e-002	5.0903
15485	11.391	3.1818	0.	4.917e-003
15486	11.299	3.2727	0.	4.8335e-003
15487	11.391	3.2727	5.e-002	5.0908
15488	11.391	3.	0.	4.9019e-003
15489	11.299	3.0909	0.	4.8066e-003
15490	11.391	3.0909	5.e-002	5.091
15491	11.391	2.8182	0.	4.9172e-003
15492	11.299	2.9091	0.	4.8068e-003
15493	11.391	2.9091	5.e-002	5.091
15494	11.391	2.6364	0.	4.9639e-003
15495	11.299	2.7273	0.	4.8337e-003
15496	11.391	2.7273	5.e-002	5.0908
15497	11.391	2.4545	0.	5.0462e-003
15498	11.299	2.5455	0.	4.8888e-003
15499	11.391	2.5455	5.e-002	5.0903
15500	11.391	2.2727	0.	5.1738e-003
15501	11.299	2.3636	0.	4.9761e-003
15502	11.391	2.3636	5.e-002	5.0897
15503	11.391	2.0909	0.	5.3655e-003
15504	11.299	2.1818	0.	5.1077e-003
15505	11.391	2.1818	5.e-002	5.0888
15506	11.391	1.9091	0.	5.6555e-003
15507	11.299	2.	0.	5.3005e-003
15508	11.391	2.	5.e-002	5.0877
15509	11.391	1.7273	0.	6.1159e-003
15510	11.299	1.8182	0.	5.5883e-003
15511	11.391	1.8182	5.e-002	5.0863
15512	11.391	1.5455	0.	6.923e-003
15513	11.299	1.6364	0.	6.0463e-003
15514	11.391	1.6364	5.e-002	5.0847
15515	11.391	1.3636	0.	8.6243e-003
15516	11.299	1.4545	0.	6.8623e-003
15517	11.391	1.4545	5.e-002	5.083
15518	11.391	1.1818	0.	1.4196e-002
15519	11.299	1.2727	0.	8.6593e-003
15520	11.391	1.2727	5.e-002	5.0809
15521	11.391	1.	0.	0.26199
15522	11.299	1.0909	0.	1.5534e-002
15523	11.391	1.0909	5.e-002	5.0786
15524	11.391	0.81818	0.	2.1063
15525	11.299	0.90909	0.	0.59315
15526	11.391	0.90909	5.e-002	5.0759
15527	11.391	0.63636	0.	4.1154
15528	11.299	0.72727	0.	2.617
15529	11.391	0.72727	5.e-002	5.0718
15530	11.391	0.45455	0.	6.2598
15531	11.299	0.54545	0.	4.768
15532	11.391	0.54545	5.e-002	5.0491
15533	11.391	0.27273	0.	9.146
15534	11.299	0.36364	0.	7.0873
15535	11.391	0.36364	5.e-002	4.7445
15536	11.299	0.18182	0.	10.78
15537	11.391	0.18182	5.e-002	0.134
15538	11.391	9.0909e-002	0.	7.5456
15539	11.207	5.7273	0.	8.628
15540	11.115	5.8182	0.	10.331
15541	11.207	5.8182	5.e-002	0.1734
15542	11.207	5.9091	0.	7.2781
15543	11.207	5.5455	0.	5.5701
15544	11.115	5.6364	0.	6.4703
15545	11.207	5.6364	5.e-002	4.7696
15546	11.207	5.3636	0.	3.2471
15547	11.115	5.4545	0.	3.962
15548	11.207	5.4545	5.e-002	5.0736
15549	11.207	5.1818	0.	1.071
15550	11.115	5.2727	0.	1.6295
15551	11.207	5.2727	5.e-002	5.0966
15552	11.207	5.	0.	1.8804e-002
15553	11.115	5.0909	0.	2.6741e-002
15554	11.207	5.0909	5.e-002	5.1008
15555	11.207	4.8182	0.	8.8506e-003
15556	11.115	4.9091	0.	9.054e-003
15557	11.207	4.9091	5.e-002	5.1036
15558	11.207	4.6364	0.	6.8476e-003
15559	11.115	4.7273	0.	6.8037e-003
15560	11.207	4.7273	5.e-002	5.1061
15561	11.207	4.4545	0.	6.0003e-003
15562	11.115	4.5455	0.	5.9335e-003
15563	11.207	4.5455	5.e-002	5.1083
15564	11.207	4.2727	0.	5.5347e-003
15565	11.115	4.3636	0.	5.4668e-003
15566	11.207	4.3636	5.e-002	5.1102
15567	11.207	4.0909	0.	5.2447e-003
15568	11.115	4.1818	0.	5.1778e-003
15569	11.207	4.1818	5.e-002	5.1119
15570	11.207	3.9091	0.	5.0496e-003
15571	11.115	4.	0.	4.9826e-003
15572	11.207	4.	5.e-002	5.1133
15573	11.207	3.7273	0.	4.9132e-003
15574	11.115	3.8182	0.	4.8439e-003
15575	11.207	3.8182	5.e-002	5.1145
15576	11.207	3.5455	0.	4.819e-003
15577	11.115	3.6364	0.	4.7443e-003
15578	11.207	3.6364	5.e-002	5.1154
15579	11.207	3.3636	0.	4.7569e-003
15580	11.115	3.4545	0.	4.6767e-003
15581	11.207	3.4545	5.e-002	5.1161
15582	11.207	3.1818	0.	4.7209e-003
15583	11.115	3.2727	0.	4.6326e-003
15584	11.207	3.2727	5.e-002	5.1165
15585	11.207	3.	0.	4.709e-003
15586	11.115	3.0909	0.	4.6109e-003
15587	11.207	3.0909	5.e-002	5.1168
15588	11.207	2.8182	0.	4.7211e-003
15589	11.115	2.9091	0.	4.6108e-003
15590	11.207	2.9091	5.e-002	5.1168
15591	11.207	2.6364	0.	4.7574e-003
15592	11.115	2.7273	0.	4.6328e-003
15593	11.207	2.7273	5.e-002	5.1165
15594	11.207	2.4545	0.	4.8192e-003
15595	11.115	2.5455	0.	4.6768e-003
15596	11.207	2.5455	5.e-002	5.1161
15597	11.207	2.2727	0.	4.9132e-003
15598	11.115	2.3636	0.	4.7445e-003
15599	11.207	2.3636	5.e-002	5.1154
15600	11.207	2.0909	0.	5.0495e-003
15601	11.115	2.1818	0.	4.844e-003
15602	11.207	2.1818	5.e-002	5.1144
15603	11.207	1.9091	0.	5.2448e-003
15604	11.115	2.	0.	4.9831e-003
15605	11.207	2.	5.e-002	5.1133
15606	11.207	1.7273	0.	5.5352e-003
15607	11.115	1.8182	0.	5.1785e-003
15608	11.207	1.8182	5.e-002	5.1118
15609	11.207	1.5455	0.	6.0005e-003
15610	11.115	1.6364	0.	5.4672e-003
15611	11.207	1.6364	5.e-002	5.1102
15612	11.207	1.3636	0.	6.8478e-003
15613	11.115	1.4545	0.	5.9334e-003
15614	11.207	1.4545	5.e-002	5.1082
15615	11.207	1.1818	0.	8.8517e-003
15616	11.115	1.2727	0.	6.8045e-003
15617	11.207	1.2727	5.e-002	5.106
15618	11.207	1.	0.	1.8807e-002
15619	11.115	1.0909	0.	9.0551e-003
15620	11.207	1.0909	5.e-002	5.1036
15621	11.207	0.81818	0.	1.071
15622	11.115	0.90909	0.	2.6745e-002
15623	11.207	0.90909	5.e-002	5.1007
15624	11.207	0.63636	0.	3.2472
15625	11.115	0.72727	0.	1.6296
15626	11.207	0.72727	5.e-002	5.0965
15627	11.207	0.45455	0.	5.5702
15628	11.115	0.54545	0.	3.9621
15629	11.207	0.54545	5.e-002	5.0736
15630	11.207	0.27273	0.	8.6282
15631	11.115	0.36364	0.	6.4704
15632	11.207	0.36364	5.e-002	4.7695
15633	11.115	0.18182	0.	10.332
15634	11.207	0.18182	5.e-002	0.1733
15635	11.207	9.0909e-002	0.	7.2782
15636	11.023	5.7273	0.	8.0822
15637	10.931	5.8182	0.	9.8617
15638	11.023	5.8182	5.e-002	0.21631
15639	11.023	5.9091	0.	6.9991
15640	11.023	5.5455	0.	4.8373
15641	10.931	5.6364	0.	5.8162
15642	11.023	5.6364	5.e-002	4.7951
15643	11.023	5.3636	0.	2.3211
15644	10.931	5.4545	0.	3.1031
15645	11.023	5.4545	5.e-002	5.0986
15646	11.023	5.1818	0.	9.1959e-002
15647	10.931	5.2727	0.	0.58245
15648	11.023	5.2727	5.e-002	5.1217
15649	11.023	5.	0.	9.5324e-003
15650	10.931	5.0909	0.	1.0244e-002
15651	11.023	5.0909	5.e-002	5.1262
15652	11.023	4.8182	0.	6.8242e-003
15653	10.931	4.9091	0.	6.8203e-003
15654	11.023	4.9091	5.e-002	5.1292
15655	11.023	4.6364	0.	5.8912e-003
15656	10.931	4.7273	0.	5.8273e-003
15657	11.023	4.7273	5.e-002	5.1318
15658	11.023	4.4545	0.	5.4166e-003
15659	10.931	4.5455	0.	5.3521e-003
15660	11.023	4.5455	5.e-002	5.1341
15661	11.023	4.2727	0.	5.124e-003
15662	10.931	4.3636	0.	5.0602e-003
15663	11.023	4.3636	5.e-002	5.1362
15664	11.023	4.0909	0.	4.9255e-003
15665	10.931	4.1818	0.	4.8613e-003
15666	11.023	4.1818	5.e-002	5.138
15667	11.023	3.9091	0.	4.7831e-003
15668	10.931	4.	0.	4.7165e-003
15669	11.023	4.	5.e-002	5.1395
15670	11.023	3.7273	0.	4.6784e-003
15671	10.931	3.8182	0.	4.6068e-003
15672	11.023	3.8182	5.e-002	5.1407
15673	11.023	3.5455	0.	4.6033e-003
15674	10.931	3.6364	0.	4.5246e-003
15675	11.023	3.6364	5.e-002	5.1417
15676	11.023	3.3636	0.	4.5524e-003
15677	10.931	3.4545	0.	4.467e-003
15678	11.023	3.4545	5.e-002	5.1424
15679	11.023	3.1818	0.	4.5218e-003
15680	10.931	3.2727	0.	4.4284e-003
15681	11.023	3.2727	5.e-002	5.1429
15682	11.023	3.	0.	4.5117e-003
15683	10.931	3.0909	0.	4.4091e-003
15684	11.023	3.0909	5.e-002	5.1431
15685	11.023	2.8182	0.	4.5217e-003
15686	10.931	2.9091	0.	4.4089e-003
15687	11.023	2.9091	5.e-002	5.1431
15688	11.023	2.6364	0.	4.5522e-003
15689	10.931	2.7273	0.	4.4286e-003
15690	11.023	2.7273	5.e-002	5.1428
15691	11.023	2.4545	0.	4.6035e-003
15692	10.931	2.5455	0.	4.4668e-003
15693	11.023	2.5455	5.e-002	5.1424
15694	11.023	2.2727	0.	4.6787e-003
15695	10.931	2.3636	0.	4.5249e-003
15696	11.023	2.3636	5.e-002	5.1416
15697	11.023	2.0909	0.	4.7837e-003
15698	10.931	2.1818	0.	4.607e-003
15699	11.023	2.1818	5.e-002	5.1406
15700	11.023	1.9091	0.	4.9266e-003
15701	10.931	2.	0.	4.7171e-003
15702	11.023	2.	5.e-002	5.1394
15703	11.023	1.7273	0.	5.1246e-003
15704	10.931	1.8182	0.	4.862e-003
15705	11.023	1.8182	5.e-002	5.1379
15706	11.023	1.5455	0.	5.4168e-003
15707	10.931	1.6364	0.	5.0606e-003
15708	11.023	1.6364	5.e-002	5.1361
15709	11.023	1.3636	0.	5.8918e-003
15710	10.931	1.4545	0.	5.3526e-003
15711	11.023	1.4545	5.e-002	5.1341
15712	11.023	1.1818	0.	6.825e-003
15713	10.931	1.2727	0.	5.828e-003
15714	11.023	1.2727	5.e-002	5.1318
15715	11.023	1.	0.	9.5331e-003
15716	10.931	1.0909	0.	6.8211e-003
15717	11.023	1.0909	5.e-002	5.1291
15718	11.023	0.81818	0.	9.1985e-002
15719	10.931	0.90909	0.	1.0245e-002
15720	11.023	0.90909	5.e-002	5.1261
15721	11.023	0.63636	0.	2.3212
15722	10.931	0.72727	0.	0.58252
15723	11.023	0.72727	5.e-002	5.1216
15724	11.023	0.45455	0.	4.8374
15725	10.931	0.54545	0.	3.1032
15726	11.023	0.54545	5.e-002	5.0985
15727	11.023	0.27273	0.	8.0823
15728	10.931	0.36364	0.	5.8163
15729	11.023	0.36364	5.e-002	4.7951
15730	10.931	0.18182	0.	9.8619
15731	11.023	0.18182	5.e-002	0.2162
15732	11.023	9.0909e-002	0.	6.9991
15733	10.84	5.7273	0.	7.5058
15734	10.748	5.8182	0.	9.3688
15735	10.84	5.8182	5.e-002	0.26308
15736	10.84	5.9091	0.	6.7073
15737	10.84	5.5455	0.	4.0573
15738	10.748	5.6364	0.	5.1217
15739	10.84	5.6364	5.e-002	4.8215
15740	10.84	5.3636	0.	1.333
15741	10.748	5.4545	0.	2.1865
15742	10.84	5.4545	5.e-002	5.1241
15743	10.84	5.1818	0.	1.2282e-002
15744	10.748	5.2727	0.	1.8989e-002
15745	10.84	5.2727	5.e-002	5.1474
15746	10.84	5.	0.	6.8759e-003
15747	10.748	5.0909	0.	6.9261e-003
15748	10.84	5.0909	5.e-002	5.1521
15749	10.84	4.8182	0.	5.7998e-003
15750	10.748	4.9091	0.	5.7532e-003
15751	10.84	4.9091	5.e-002	5.1553
15752	10.84	4.6364	0.	5.3048e-003
15753	10.748	4.7273	0.	5.2455e-003
15754	10.84	4.7273	5.e-002	5.1581
15755	10.84	4.4545	0.	5.0125e-003
15756	10.748	4.5455	0.	4.9584e-003
15757	10.84	4.5455	5.e-002	5.1605
15758	10.84	4.2727	0.	4.8101e-003
15759	10.748	4.3636	0.	4.755e-003
15760	10.84	4.3636	5.e-002	5.1627
15761	10.84	4.0909	0.	4.661e-003
15762	10.748	4.1818	0.	4.602e-003
15763	10.84	4.1818	5.e-002	5.1646
15764	10.84	3.9091	0.	4.5459e-003
15765	10.748	4.	0.	4.4819e-003
15766	10.84	4.	5.e-002	5.1662
15767	10.84	3.7273	0.	4.4564e-003
15768	10.748	3.8182	0.	4.385e-003
15769	10.84	3.8182	5.e-002	5.1675
15770	10.84	3.5455	0.	4.39e-003
15771	10.748	3.6364	0.	4.31e-003
15772	10.84	3.6364	5.e-002	5.1685
15773	10.84	3.3636	0.	4.3437e-003
15774	10.748	3.4545	0.	4.2547e-003
15775	10.84	3.4545	5.e-002	5.1693
15776	10.84	3.1818	0.	4.3158e-003
15777	10.748	3.2727	0.	4.2181e-003
15778	10.84	3.2727	5.e-002	5.1698
15779	10.84	3.	0.	4.3063e-003
15780	10.748	3.0909	0.	4.1991e-003
15781	10.84	3.0909	5.e-002	5.17
15782	10.84	2.8182	0.	4.3158e-003
15783	10.748	2.9091	0.	4.1992e-003
15784	10.84	2.9091	5.e-002	5.17
15785	10.84	2.6364	0.	4.3439e-003
15786	10.748	2.7273	0.	4.2183e-003
15787	10.84	2.7273	5.e-002	5.1698
15788	10.84	2.4545	0.	4.39e-003
15789	10.748	2.5455	0.	4.2553e-003
15790	10.84	2.5455	5.e-002	5.1693
15791	10.84	2.2727	0.	4.4566e-003
15792	10.748	2.3636	0.	4.3097e-003
15793	10.84	2.3636	5.e-002	5.1685
15794	10.84	2.0909	0.	4.546e-003
15795	10.748	2.1818	0.	4.3855e-003
15796	10.84	2.1818	5.e-002	5.1675
15797	10.84	1.9091	0.	4.6613e-003
15798	10.748	2.	0.	4.4823e-003
15799	10.84	2.	5.e-002	5.1662
15800	10.84	1.7273	0.	4.8108e-003
15801	10.748	1.8182	0.	4.6031e-003
15802	10.84	1.8182	5.e-002	5.1645
15803	10.84	1.5455	0.	5.0133e-003
15804	10.748	1.6364	0.	4.7555e-003
15805	10.84	1.6364	5.e-002	5.1627
15806	10.84	1.3636	0.	5.3055e-003
15807	10.748	1.4545	0.	4.9593e-003
15808	10.84	1.4545	5.e-002	5.1605
15809	10.84	1.1818	0.	5.8006e-003
15810	10.748	1.2727	0.	5.2461e-003
15811	10.84	1.2727	5.e-002	5.158
15812	10.84	1.	0.	6.8773e-003
15813	10.748	1.0909	0.	5.7543e-003
15814	10.84	1.0909	5.e-002	5.1552
15815	10.84	0.81818	0.	1.2284e-002
15816	10.748	0.90909	0.	6.9272e-003
15817	10.84	0.90909	5.e-002	5.152
15818	10.84	0.63636	0.	1.3331
15819	10.748	0.72727	0.	1.8991e-002
15820	10.84	0.72727	5.e-002	5.1473
15821	10.84	0.45455	0.	4.0574
15822	10.748	0.54545	0.	2.1866
15823	10.84	0.54545	5.e-002	5.124
15824	10.84	0.27273	0.	7.5059
15825	10.748	0.36364	0.	5.1218
15826	10.84	0.36364	5.e-002	4.8214
15827	10.748	0.18182	0.	9.3689
15828	10.84	0.18182	5.e-002	0.26297
15829	10.84	9.0909e-002	0.	6.7074
15830	10.656	5.7273	0.	6.8964
15831	10.564	5.8182	0.	8.8507
15832	10.656	5.8182	5.e-002	0.31402
15833	10.656	5.9091	0.	6.4018
15834	10.656	5.5455	0.	3.2262
15835	10.564	5.6364	0.	4.3831
15836	10.656	5.6364	5.e-002	4.8486
15837	10.656	5.3636	0.	0.29084
15838	10.564	5.4545	0.	1.2077
15839	10.656	5.4545	5.e-002	5.1502
15840	10.656	5.1818	0.	7.2779e-003
15841	10.564	5.2727	0.	7.8285e-003
15842	10.656	5.2727	5.e-002	5.1736
15843	10.656	5.	0.	5.7119e-003
15844	10.564	5.0909	0.	5.6472e-003
15845	10.656	5.0909	5.e-002	5.1786
15846	10.656	4.8182	0.	5.2154e-003
15847	10.564	4.9091	0.	5.1775e-003
15848	10.656	4.9091	5.e-002	5.182
15849	10.656	4.6364	0.	4.9196e-003
15850	10.564	4.7273	0.	4.8782e-003
15851	10.656	4.7273	5.e-002	5.185
15852	10.656	4.4545	0.	4.7168e-003
15853	10.564	4.5455	0.	4.6787e-003
15854	10.656	4.5455	5.e-002	5.1876
15855	10.656	4.2727	0.	4.5582e-003
15856	10.564	4.3636	0.	4.5151e-003
15857	10.656	4.3636	5.e-002	5.1899
15858	10.656	4.0909	0.	4.4306e-003
15859	10.564	4.1818	0.	4.3805e-003
15860	10.656	4.1818	5.e-002	5.1919
15861	10.656	3.9091	0.	4.3261e-003
15862	10.564	4.	0.	4.2674e-003
15863	10.656	4.	5.e-002	5.1935
15864	10.656	3.7273	0.	4.2418e-003
15865	10.564	3.8182	0.	4.1721e-003
15866	10.656	3.8182	5.e-002	5.1949
15867	10.656	3.5455	0.	4.1766e-003
15868	10.564	3.6364	0.	4.096e-003
15869	10.656	3.6364	5.e-002	5.196
15870	10.656	3.3636	0.	4.1302e-003
15871	10.564	3.4545	0.	4.039e-003
15872	10.656	3.4545	5.e-002	5.1968
15873	10.656	3.1818	0.	4.1019e-003
15874	10.564	3.2727	0.	4.0003e-003
15875	10.656	3.2727	5.e-002	5.1974
15876	10.656	3.	0.	4.0924e-003
15877	10.564	3.0909	0.	3.9804e-003
15878	10.656	3.0909	5.e-002	5.1976
15879	10.656	2.8182	0.	4.1022e-003
15880	10.564	2.9091	0.	3.9805e-003
15881	10.656	2.9091	5.e-002	5.1976
15882	10.656	2.6364	0.	4.1307e-003
15883	10.564	2.7273	0.	4.0003e-003
15884	10.656	2.7273	5.e-002	5.1973
15885	10.656	2.4545	0.	4.177e-003
15886	10.564	2.5455	0.	4.0393e-003
15887	10.656	2.5455	5.e-002	5.1968
15888	10.656	2.2727	0.	4.2419e-003
15889	10.564	2.3636	0.	4.0958e-003
15890	10.656	2.3636	5.e-002	5.196
15891	10.656	2.0909	0.	4.3269e-003
15892	10.564	2.1818	0.	4.1724e-003
15893	10.656	2.1818	5.e-002	5.1949
15894	10.656	1.9091	0.	4.4319e-003
15895	10.564	2.	0.	4.2679e-003
15896	10.656	2.	5.e-002	5.1935
15897	10.656	1.7273	0.	4.5591e-003
15898	10.564	1.8182	0.	4.3814e-003
15899	10.656	1.8182	5.e-002	5.1919
15900	10.656	1.5455	0.	4.7174e-003
15901	10.564	1.6364	0.	4.5157e-003
15902	10.656	1.6364	5.e-002	5.1899
15903	10.656	1.3636	0.	4.9204e-003
15904	10.564	1.4545	0.	4.6793e-003
15905	10.656	1.4545	5.e-002	5.1875
15906	10.656	1.1818	0.	5.2162e-003
15907	10.564	1.2727	0.	4.8789e-003
15908	10.656	1.2727	5.e-002	5.1849
15909	10.656	1.	0.	5.7128e-003
15910	10.564	1.0909	0.	5.1785e-003
15911	10.656	1.0909	5.e-002	5.1819
15912	10.656	0.81818	0.	7.2783e-003
15913	10.564	0.90909	0.	5.6483e-003
15914	10.656	0.90909	5.e-002	5.1785
15915	10.656	0.63636	0.	0.29091
15916	10.564	0.72727	0.	7.8294e-003
15917	10.656	0.72727	5.e-002	5.1736
15918	10.656	0.45455	0.	3.2263
15919	10.564	0.54545	0.	1.2077
15920	10.656	0.54545	5.e-002	5.1501
15921	10.656	0.27273	0.	6.8965
15922	10.564	0.36364	0.	4.3832
15923	10.656	0.36364	5.e-002	4.8485
15924	10.564	0.18182	0.	8.8508
15925	10.656	0.18182	5.e-002	0.31392
15926	10.656	9.0909e-002	0.	6.4019
15927	10.472	5.7273	0.	6.251
15928	10.38	5.8182	0.	8.3055
15929	10.472	5.8182	5.e-002	0.3695
15930	10.472	5.9091	0.	6.0814
15931	10.472	5.5455	0.	2.3394
15932	10.38	5.6364	0.	3.5969
15933	10.472	5.6364	5.e-002	4.8765
15934	10.472	5.3636	0.	9.0433e-003
15935	10.38	5.4545	0.	0.17163
15936	10.472	5.4545	5.e-002	5.1769
15937	10.472	5.1818	0.	5.7725e-003
15938	10.38	5.2727	0.	5.904e-003
15939	10.472	5.2727	5.e-002	5.2006
15940	10.472	5.	0.	5.128e-003
15941	10.38	5.0909	0.	5.0703e-003
15942	10.472	5.0909	5.e-002	5.2058
15943	10.472	4.8182	0.	4.8664e-003
15944	10.38	4.9091	0.	4.8605e-003
15945	10.472	4.9091	5.e-002	5.2094
15946	10.472	4.6364	0.	4.6572e-003
15947	10.38	4.7273	0.	4.6429e-003
15948	10.472	4.7273	5.e-002	5.2125
15949	10.472	4.4545	0.	4.4911e-003
15950	10.38	4.5455	0.	4.4753e-003
15951	10.472	4.5455	5.e-002	5.2153
15952	10.472	4.2727	0.	4.3473e-003
15953	10.38	4.3636	0.	4.3206e-003
15954	10.472	4.3636	5.e-002	5.2178
15955	10.472	4.0909	0.	4.2241e-003
15956	10.38	4.1818	0.	4.1853e-003
15957	10.472	4.1818	5.e-002	5.2199
15958	10.472	3.9091	0.	4.1179e-003
15959	10.38	4.	0.	4.0664e-003
15960	10.472	4.	5.e-002	5.2216
15961	10.472	3.7273	0.	4.0293e-003
15962	10.38	3.8182	0.	3.9641e-003
15963	10.472	3.8182	5.e-002	5.2231
15964	10.472	3.5455	0.	3.9601e-003
15965	10.38	3.6364	0.	3.8804e-003
15966	10.472	3.6364	5.e-002	5.2242
15967	10.472	3.3636	0.	3.9101e-003
15968	10.38	3.4545	0.	3.8176e-003
15969	10.472	3.4545	5.e-002	5.2251
15970	10.472	3.1818	0.	3.8794e-003
15971	10.38	3.2727	0.	3.7744e-003
15972	10.472	3.2727	5.e-002	5.2256
15973	10.472	3.	0.	3.869e-003
15974	10.38	3.0909	0.	3.7526e-003
15975	10.472	3.0909	5.e-002	5.2259
15976	10.472	2.8182	0.	3.8792e-003
15977	10.38	2.9091	0.	3.7522e-003
15978	10.472	2.9091	5.e-002	5.2259
15979	10.472	2.6364	0.	3.9099e-003
15980	10.38	2.7273	0.	3.7744e-003
15981	10.472	2.7273	5.e-002	5.2256
15982	10.472	2.4545	0.	3.9599e-003
15983	10.38	2.5455	0.	3.8175e-003
15984	10.472	2.5455	5.e-002	5.225
15985	10.472	2.2727	0.	4.0292e-003
15986	10.38	2.3636	0.	3.8805e-003
15987	10.472	2.3636	5.e-002	5.2242
15988	10.472	2.0909	0.	4.1178e-003
15989	10.38	2.1818	0.	3.9641e-003
15990	10.472	2.1818	5.e-002	5.223
15991	10.472	1.9091	0.	4.2241e-003
15992	10.38	2.	0.	4.0668e-003
15993	10.472	2.	5.e-002	5.2216
15994	10.472	1.7273	0.	4.3479e-003
15995	10.38	1.8182	0.	4.1855e-003
15996	10.472	1.8182	5.e-002	5.2198
15997	10.472	1.5455	0.	4.4918e-003
15998	10.38	1.6364	0.	4.3215e-003
15999	10.472	1.6364	5.e-002	5.2177
16000	10.472	1.3636	0.	4.6578e-003
16001	10.38	1.4545	0.	4.4754e-003
16002	10.472	1.4545	5.e-002	5.2153
16003	10.472	1.1818	0.	4.8672e-003
16004	10.38	1.2727	0.	4.6438e-003
16005	10.472	1.2727	5.e-002	5.2125
16006	10.472	1.	0.	5.1293e-003
16007	10.38	1.0909	0.	4.8611e-003
16008	10.472	1.0909	5.e-002	5.2093
16009	10.472	0.81818	0.	5.7741e-003
16010	10.38	0.90909	0.	5.0721e-003
16011	10.472	0.90909	5.e-002	5.2056
16012	10.472	0.63636	0.	9.0447e-003
16013	10.38	0.72727	0.	5.9052e-003
16014	10.472	0.72727	5.e-002	5.2005
16015	10.472	0.45455	0.	2.3395
16016	10.38	0.54545	0.	0.17169
16017	10.472	0.54545	5.e-002	5.1768
16018	10.472	0.27273	0.	6.2511
16019	10.38	0.36364	0.	3.597
16020	10.472	0.36364	5.e-002	4.8764
16021	10.38	0.18182	0.	8.3056
16022	10.472	0.18182	5.e-002	0.36939
16023	10.472	9.0909e-002	0.	6.0815
16024	10.288	5.7273	0.	5.567
16025	10.197	5.8182	0.	7.731
16026	10.288	5.8182	5.e-002	0.42984
16027	10.288	5.9091	0.	5.745
16028	10.288	5.5455	0.	1.3923
16029	10.197	5.6364	0.	2.7592
16030	10.288	5.6364	5.e-002	4.9054
16031	10.288	5.3636	0.	5.3712e-003
16032	10.197	5.4545	0.	4.8439e-003
16033	10.288	5.4545	5.e-002	5.2044
16034	10.288	5.1818	0.	5.2097e-003
16035	10.197	5.2727	0.	5.3819e-003
16036	10.288	5.2727	5.e-002	5.2282
16037	10.288	5.	0.	4.8386e-003
16038	10.197	5.0909	0.	4.835e-003
16039	10.288	5.0909	5.e-002	5.2336
16040	10.288	4.8182	0.	4.6624e-003
16041	10.197	4.9091	0.	4.7073e-003
16042	10.288	4.9091	5.e-002	5.2375
16043	10.288	4.6364	0.	4.4783e-003
16044	10.197	4.7273	0.	4.5033e-003
16045	10.288	4.7273	5.e-002	5.2409
16046	10.288	4.4545	0.	4.3166e-003
16047	10.197	4.5455	0.	4.3321e-003
16048	10.288	4.5455	5.e-002	5.2438
16049	10.288	4.2727	0.	4.1667e-003
16050	10.197	4.3636	0.	4.1654e-003
16051	10.288	4.3636	5.e-002	5.2464
16052	10.288	4.0909	0.	4.0331e-003
16053	10.197	4.1818	0.	4.0148e-003
16054	10.288	4.1818	5.e-002	5.2486
16055	10.288	3.9091	0.	3.9162e-003
16056	10.197	4.	0.	3.8802e-003
16057	10.288	4.	5.e-002	5.2505
16058	10.288	3.7273	0.	3.8175e-003
16059	10.197	3.8182	0.	3.7634e-003
16060	10.288	3.8182	5.e-002	5.252
16061	10.288	3.5455	0.	3.7392e-003
16062	10.197	3.6364	0.	3.6678e-003
16063	10.288	3.6364	5.e-002	5.2532
16064	10.288	3.3636	0.	3.6827e-003
16065	10.197	3.4545	0.	3.5951e-003
16066	10.288	3.4545	5.e-002	5.254
16067	10.288	3.1818	0.	3.648e-003
16068	10.197	3.2727	0.	3.5455e-003
16069	10.288	3.2727	5.e-002	5.2546
16070	10.288	3.	0.	3.6361e-003
16071	10.197	3.0909	0.	3.5203e-003
16072	10.288	3.0909	5.e-002	5.2549
16073	10.288	2.8182	0.	3.6478e-003
16074	10.197	2.9091	0.	3.52e-003
16075	10.288	2.9091	5.e-002	5.2549
16076	10.288	2.6364	0.	3.6828e-003
16077	10.197	2.7273	0.	3.5457e-003
16078	10.288	2.7273	5.e-002	5.2546
16079	10.288	2.4545	0.	3.7395e-003
16080	10.197	2.5455	0.	3.5956e-003
16081	10.288	2.5455	5.e-002	5.254
16082	10.288	2.2727	0.	3.8178e-003
16083	10.197	2.3636	0.	3.668e-003
16084	10.288	2.3636	5.e-002	5.2531
16085	10.288	2.0909	0.	3.9167e-003
16086	10.197	2.1818	0.	3.7636e-003
16087	10.288	2.1818	5.e-002	5.2519
16088	10.288	1.9091	0.	4.0337e-003
16089	10.197	2.	0.	3.8811e-003
16090	10.288	2.	5.e-002	5.2504
16091	10.288	1.7273	0.	4.1672e-003
16092	10.197	1.8182	0.	4.0149e-003
16093	10.288	1.8182	5.e-002	5.2485
16094	10.288	1.5455	0.	4.317e-003
16095	10.197	1.6364	0.	4.1659e-003
16096	10.288	1.6364	5.e-002	5.2463
16097	10.288	1.3636	0.	4.4787e-003
16098	10.197	1.4545	0.	4.3328e-003
16099	10.288	1.4545	5.e-002	5.2438
16100	10.288	1.1818	0.	4.663e-003
16101	10.197	1.2727	0.	4.5041e-003
16102	10.288	1.2727	5.e-002	5.2408
16103	10.288	1.	0.	4.8396e-003
16104	10.197	1.0909	0.	4.7077e-003
16105	10.288	1.0909	5.e-002	5.2374
16106	10.288	0.81818	0.	5.211e-003
16107	10.197	0.90909	0.	4.8369e-003
16108	10.288	0.90909	5.e-002	5.2335
16109	10.288	0.63636	0.	5.372e-003
16110	10.197	0.72727	0.	5.3829e-003
16111	10.288	0.72727	5.e-002	5.2281
16112	10.288	0.45455	0.	1.3924
16113	10.197	0.54545	0.	4.8444e-003
16114	10.288	0.54545	5.e-002	5.2043
16115	10.288	0.27273	0.	5.567
16116	10.197	0.36364	0.	2.7593
16117	10.288	0.36364	5.e-002	4.9053
16118	10.197	0.18182	0.	7.7311
16119	10.288	0.18182	5.e-002	0.42972
16120	10.288	9.0909e-002	0.	5.745
16121	10.105	5.7273	0.	4.8412
16122	10.013	5.8182	0.	7.1251
16123	10.105	5.8182	5.e-002	0.49546
16124	10.105	5.9091	0.	5.3912
16125	10.105	5.5455	0.	0.37993
16126	10.013	5.6364	0.	1.866
16127	10.105	5.6364	5.e-002	4.9353
16128	10.105	5.3636	0.	4.7571e-003
16129	10.013	5.4545	0.	4.1016e-003
16130	10.105	5.4545	5.e-002	5.2326
16131	10.105	5.1818	0.	5.0629e-003
16132	10.013	5.2727	0.	5.3571e-003
16133	10.105	5.2727	5.e-002	5.2566
16134	10.105	5.	0.	4.7368e-003
16135	10.013	5.0909	0.	4.7961e-003
16136	10.105	5.0909	5.e-002	5.2623
16137	10.105	4.8182	0.	4.569e-003
16138	10.013	4.9091	0.	4.664e-003
16139	10.105	4.9091	5.e-002	5.2664
16140	10.105	4.6364	0.	4.3708e-003
16141	10.013	4.7273	0.	4.4313e-003
16142	10.105	4.7273	5.e-002	5.27
16143	10.105	4.4545	0.	4.19e-003
16144	10.013	4.5455	0.	4.2319e-003
16145	10.105	4.5455	5.e-002	5.2731
16146	10.105	4.2727	0.	4.0197e-003
16147	10.013	4.3636	0.	4.0366e-003
16148	10.105	4.3636	5.e-002	5.2758
16149	10.105	4.0909	0.	3.866e-003
16150	10.013	4.1818	0.	3.8603e-003
16151	10.105	4.1818	5.e-002	5.2781
16152	10.105	3.9091	0.	3.7301e-003
16153	10.013	4.	0.	3.7015e-003
16154	10.105	4.	5.e-002	5.2801
16155	10.105	3.7273	0.	3.6153e-003
16156	10.013	3.8182	0.	3.5648e-003
16157	10.105	3.8182	5.e-002	5.2817
16158	10.105	3.5455	0.	3.5244e-003
16159	10.013	3.6364	0.	3.4519e-003
16160	10.105	3.6364	5.e-002	5.2829
16161	10.105	3.3636	0.	3.4582e-003
16162	10.013	3.4545	0.	3.3667e-003
16163	10.105	3.4545	5.e-002	5.2838
16164	10.105	3.1818	0.	3.4178e-003
16165	10.013	3.2727	0.	3.3083e-003
16166	10.105	3.2727	5.e-002	5.2844
16167	10.105	3.	0.	3.4041e-003
16168	10.013	3.0909	0.	3.2786e-003
16169	10.105	3.0909	5.e-002	5.2847
16170	10.105	2.8182	0.	3.4178e-003
16171	10.013	2.9091	0.	3.2786e-003
16172	10.105	2.9091	5.e-002	5.2847
16173	10.105	2.6364	0.	3.4587e-003
16174	10.013	2.7273	0.	3.3083e-003
16175	10.105	2.7273	5.e-002	5.2844
16176	10.105	2.4545	0.	3.5248e-003
16177	10.013	2.5455	0.	3.3671e-003
16178	10.105	2.5455	5.e-002	5.2838
16179	10.105	2.2727	0.	3.6154e-003
16180	10.013	2.3636	0.	3.4522e-003
16181	10.105	2.3636	5.e-002	5.2829
16182	10.105	2.0909	0.	3.7306e-003
16183	10.013	2.1818	0.	3.5644e-003
16184	10.105	2.1818	5.e-002	5.2816
16185	10.105	1.9091	0.	3.8664e-003
16186	10.013	2.	0.	3.7024e-003
16187	10.105	2.	5.e-002	5.2801
16188	10.105	1.7273	0.	4.0198e-003
16189	10.013	1.8182	0.	3.8599e-003
16190	10.105	1.8182	5.e-002	5.2781
16191	10.105	1.5455	0.	4.191e-003
16192	10.013	1.6364	0.	4.0374e-003
16193	10.105	1.6364	5.e-002	5.2758
16194	10.105	1.3636	0.	4.3719e-003
16195	10.013	1.4545	0.	4.233e-003
16196	10.105	1.4545	5.e-002	5.2731
16197	10.105	1.1818	0.	4.5696e-003
16198	10.013	1.2727	0.	4.432e-003
16199	10.105	1.2727	5.e-002	5.2699
16200	10.105	1.	0.	4.7381e-003
16201	10.013	1.0909	0.	4.6642e-003
16202	10.105	1.0909	5.e-002	5.2663
16203	10.105	0.81818	0.	5.0644e-003
16204	10.013	0.90909	0.	4.7982e-003
16205	10.105	0.90909	5.e-002	5.2622
16206	10.105	0.63636	0.	4.7577e-003
16207	10.013	0.72727	0.	5.3583e-003
16208	10.105	0.72727	5.e-002	5.2565
16209	10.105	0.45455	0.	0.38001
16210	10.013	0.54545	0.	4.1016e-003
16211	10.105	0.54545	5.e-002	5.2325
16212	10.105	0.27273	0.	4.8413
16213	10.013	0.36364	0.	1.866
16214	10.105	0.36364	5.e-002	4.9352
16215	10.013	0.18182	0.	7.1251
16216	10.105	0.18182	5.e-002	0.49533
16217	10.105	9.0909e-002	0.	5.3913
16218	9.9209	5.7273	0.	4.0707
16219	9.8291	5.8182	0.	6.4855
16220	9.9209	5.8182	5.e-002	0.56672
16221	9.9209	5.9091	0.	5.019
16222	9.9209	5.5455	0.	8.7321e-003
16223	9.8291	5.6364	0.	0.91425
16224	9.9209	5.6364	5.e-002	4.9663
16225	9.9209	5.3636	0.	4.7931e-003
16226	9.8291	5.4545	0.	4.3309e-003
16227	9.9209	5.4545	5.e-002	5.2616
16228	9.9209	5.1818	0.	5.1306e-003
16229	9.8291	5.2727	0.	5.5671e-003
16230	9.9209	5.2727	5.e-002	5.2858
16231	9.9209	5.	0.	4.7463e-003
16232	9.8291	5.0909	0.	4.8699e-003
16233	9.9209	5.0909	5.e-002	5.2918
16234	9.9209	4.8182	0.	4.5408e-003
16235	9.8291	4.9091	0.	4.6834e-003
16236	9.9209	4.9091	5.e-002	5.2962
16237	9.9209	4.6364	0.	4.3019e-003
16238	9.8291	4.7273	0.	4.3934e-003
16239	9.9209	4.7273	5.e-002	5.3
16240	9.9209	4.4545	0.	4.0848e-003
16241	9.8291	4.5455	0.	4.1476e-003
16242	9.9209	4.5455	5.e-002	5.3033
16243	9.9209	4.2727	0.	3.8813e-003
16244	9.8291	4.3636	0.	3.9107e-003
16245	9.9209	4.3636	5.e-002	5.3061
16246	9.9209	4.0909	0.	3.6983e-003
16247	9.8291	4.1818	0.	3.6983e-003
16248	9.9209	4.1818	5.e-002	5.3085
16249	9.9209	3.9091	0.	3.5376e-003
16250	9.8291	4.	0.	3.5087e-003
16251	9.9209	4.	5.e-002	5.3106
16252	9.9209	3.7273	0.	3.402e-003
16253	9.8291	3.8182	0.	3.346e-003
16254	9.9209	3.8182	5.e-002	5.3122
16255	9.9209	3.5455	0.	3.2941e-003
16256	9.8291	3.6364	0.	3.2121e-003
16257	9.9209	3.6364	5.e-002	5.3135
16258	9.9209	3.3636	0.	3.2163e-003
16259	9.8291	3.4545	0.	3.1115e-003
16260	9.9209	3.4545	5.e-002	5.3145
16261	9.9209	3.1818	0.	3.1684e-003
16262	9.8291	3.2727	0.	3.0426e-003
16263	9.9209	3.2727	5.e-002	5.3151
16264	9.9209	3.	0.	3.1523e-003
16265	9.8291	3.0909	0.	3.0075e-003
16266	9.9209	3.0909	5.e-002	5.3154
16267	9.9209	2.8182	0.	3.1684e-003
16268	9.8291	2.9091	0.	3.0074e-003
16269	9.9209	2.9091	5.e-002	5.3154
16270	9.9209	2.6364	0.	3.2163e-003
16271	9.8291	2.7273	0.	3.0425e-003
16272	9.9209	2.7273	5.e-002	5.3151
16273	9.9209	2.4545	0.	3.2944e-003
16274	9.8291	2.5455	0.	3.1115e-003
16275	9.9209	2.5455	5.e-002	5.3145
16276	9.9209	2.2727	0.	3.4017e-003
16277	9.8291	2.3636	0.	3.2126e-003
16278	9.9209	2.3636	5.e-002	5.3135
16279	9.9209	2.0909	0.	3.5375e-003
16280	9.8291	2.1818	0.	3.3459e-003
16281	9.9209	2.1818	5.e-002	5.3122
16282	9.9209	1.9091	0.	3.6984e-003
16283	9.8291	2.	0.	3.5092e-003
16284	9.9209	2.	5.e-002	5.3105
16285	9.9209	1.7273	0.	3.8815e-003
16286	9.8291	1.8182	0.	3.6983e-003
16287	9.9209	1.8182	5.e-002	5.3085
16288	9.9209	1.5455	0.	4.0856e-003
16289	9.8291	1.6364	0.	3.9115e-003
16290	9.9209	1.6364	5.e-002	5.306
16291	9.9209	1.3636	0.	4.3026e-003
16292	9.8291	1.4545	0.	4.1483e-003
16293	9.9209	1.4545	5.e-002	5.3032
16294	9.9209	1.1818	0.	4.541e-003
16295	9.8291	1.2727	0.	4.3942e-003
16296	9.9209	1.2727	5.e-002	5.2999
16297	9.9209	1.	0.	4.7472e-003
16298	9.8291	1.0909	0.	4.6837e-003
16299	9.9209	1.0909	5.e-002	5.2961
16300	9.9209	0.81818	0.	5.1323e-003
16301	9.8291	0.90909	0.	4.8714e-003
16302	9.9209	0.90909	5.e-002	5.2917
16303	9.9209	0.63636	0.	4.7936e-003
16304	9.8291	0.72727	0.	5.5682e-003
16305	9.9209	0.72727	5.e-002	5.2857
16306	9.9209	0.45455	0.	8.7325e-003
16307	9.8291	0.54545	0.	4.3309e-003
16308	9.9209	0.54545	5.e-002	5.2615
16309	9.9209	0.27273	0.	4.0708
16310	9.8291	0.36364	0.	0.91433
16311	9.9209	0.36364	5.e-002	4.9662
16312	9.8291	0.18182	0.	6.4856
16313	9.9209	0.18182	5.e-002	0.56661
16314	9.9209	9.0909e-002	0.	5.019
16315	9.7372	5.7273	0.	3.2528
16316	9.6453	5.8182	0.	5.8101
16317	9.7372	5.8182	5.e-002	0.64417
16318	9.7372	5.9091	0.	4.6269
16319	9.7372	5.5455	0.	1.0124e-002
16320	9.6453	5.6364	0.	5.0296e-002
16321	9.7372	5.6364	5.e-002	4.9986
16322	9.7372	5.3636	0.	5.0793e-003
16323	9.6453	5.4545	0.	4.817e-003
16324	9.7372	5.4545	5.e-002	5.2916
16325	9.7372	5.1818	0.	5.3185e-003
16326	9.6453	5.2727	0.	5.9299e-003
16327	9.7372	5.2727	5.e-002	5.316
16328	9.7372	5.	0.	4.8172e-003
16329	9.6453	5.0909	0.	5.0327e-003
16330	9.7372	5.0909	5.e-002	5.3223
16331	9.7372	4.8182	0.	4.5432e-003
16332	9.6453	4.9091	0.	4.7583e-003
16333	9.7372	4.9091	5.e-002	5.3269
16334	9.7372	4.6364	0.	4.244e-003
16335	9.6453	4.7273	0.	4.3899e-003
16336	9.7372	4.7273	5.e-002	5.3309
16337	9.7372	4.4545	0.	3.9765e-003
16338	9.6453	4.5455	0.	4.0825e-003
16339	9.7372	4.5455	5.e-002	5.3344
16340	9.7372	4.2727	0.	3.7294e-003
16341	9.6453	4.3636	0.	3.7928e-003
16342	9.7372	4.3636	5.e-002	5.3374
16343	9.7372	4.0909	0.	3.5094e-003
16344	9.6453	4.1818	0.	3.5354e-003
16345	9.7372	4.1818	5.e-002	5.3399
16346	9.7372	3.9091	0.	3.317e-003
16347	9.6453	4.	0.	3.3088e-003
16348	9.7372	4.	5.e-002	5.342
16349	9.7372	3.7273	0.	3.1555e-003
16350	9.6453	3.8182	0.	3.1144e-003
16351	9.7372	3.8182	5.e-002	5.3437
16352	9.7372	3.5455	0.	3.0284e-003
16353	9.6453	3.6364	0.	2.9562e-003
16354	9.7372	3.6364	5.e-002	5.3451
16355	9.7372	3.3636	0.	2.9364e-003
16356	9.6453	3.4545	0.	2.8371e-003
16357	9.7372	3.4545	5.e-002	5.3461
16358	9.7372	3.1818	0.	2.8802e-003
16359	9.6453	3.2727	0.	2.7556e-003
16360	9.7372	3.2727	5.e-002	5.3467
16361	9.7372	3.	0.	2.8611e-003
16362	9.6453	3.0909	0.	2.7147e-003
16363	9.7372	3.0909	5.e-002	5.347
16364	9.7372	2.8182	0.	2.88e-003
16365	9.6453	2.9091	0.	2.7145e-003
16366	9.7372	2.9091	5.e-002	5.347
16367	9.7372	2.6364	0.	2.9363e-003
16368	9.6453	2.7273	0.	2.7557e-003
16369	9.7372	2.7273	5.e-002	5.3467
16370	9.7372	2.4545	0.	3.0286e-003
16371	9.6453	2.5455	0.	2.8371e-003
16372	9.7372	2.5455	5.e-002	5.3461
16373	9.7372	2.2727	0.	3.1562e-003
16374	9.6453	2.3636	0.	2.9565e-003
16375	9.7372	2.3636	5.e-002	5.3451
16376	9.7372	2.0909	0.	3.3175e-003
16377	9.6453	2.1818	0.	3.1149e-003
16378	9.7372	2.1818	5.e-002	5.3437
16379	9.7372	1.9091	0.	3.5098e-003
16380	9.6453	2.	0.	3.3089e-003
16381	9.7372	2.	5.e-002	5.342
16382	9.7372	1.7273	0.	3.7299e-003
16383	9.6453	1.8182	0.	3.5358e-003
16384	9.7372	1.8182	5.e-002	5.3399
16385	9.7372	1.5455	0.	3.9772e-003
16386	9.6453	1.6364	0.	3.7935e-003
16387	9.7372	1.6364	5.e-002	5.3373
16388	9.7372	1.3636	0.	4.2446e-003
16389	9.6453	1.4545	0.	4.0831e-003
16390	9.7372	1.4545	5.e-002	5.3343
16391	9.7372	1.1818	0.	4.5439e-003
16392	9.6453	1.2727	0.	4.3906e-003
16393	9.7372	1.2727	5.e-002	5.3309
16394	9.7372	1.	0.	4.8181e-003
16395	9.6453	1.0909	0.	4.7592e-003
16396	9.7372	1.0909	5.e-002	5.3268
16397	9.7372	0.81818	0.	5.3196e-003
16398	9.6453	0.90909	0.	5.0338e-003
16399	9.7372	0.90909	5.e-002	5.3222
16400	9.7372	0.63636	0.	5.08e-003
16401	9.6453	0.72727	0.	5.931e-003
16402	9.7372	0.72727	5.e-002	5.3159
16403	9.7372	0.45455	0.	1.0125e-002
16404	9.6453	0.54545	0.	4.8173e-003
16405	9.7372	0.54545	5.e-002	5.2915
16406	9.7372	0.27273	0.	3.2529
16407	9.6453	0.36364	0.	5.031e-002
16408	9.7372	0.36364	5.e-002	4.9985
16409	9.6453	0.18182	0.	5.8102
16410	9.7372	0.18182	5.e-002	0.64403
16411	9.7372	9.0909e-002	0.	4.6269
16412	9.5535	5.7273	0.	2.386
16413	9.4616	5.8182	0.	5.097
16414	9.5535	5.8182	5.e-002	0.72832
16415	9.5535	5.9091	0.	4.2138
16416	9.5535	5.5455	0.	1.1647e-002
16417	9.4616	5.6364	0.	2.5494e-002
16418	9.5535	5.6364	5.e-002	5.0323
16419	9.5535	5.3636	0.	5.5382e-003
16420	9.4616	5.4545	0.	5.452e-003
16421	9.5535	5.4545	5.e-002	5.3227
16422	9.5535	5.1818	0.	5.626e-003
16423	9.4616	5.2727	0.	6.4219e-003
16424	9.5535	5.2727	5.e-002	5.3473
16425	9.5535	5.	0.	4.9702e-003
16426	9.4616	5.0909	0.	5.2829e-003
16427	9.5535	5.0909	5.e-002	5.3539
16428	9.5535	4.8182	0.	4.6043e-003
16429	9.4616	4.9091	0.	4.8971e-003
16430	9.5535	4.9091	5.e-002	5.3588
16431	9.5535	4.6364	0.	4.2281e-003
16432	9.4616	4.7273	0.	4.4314e-003
16433	9.5535	4.7273	5.e-002	5.363
16434	9.5535	4.4545	0.	3.8982e-003
16435	9.4616	4.5455	0.	4.0492e-003
16436	9.5535	4.5455	5.e-002	5.3666
16437	9.5535	4.2727	0.	3.5978e-003
16438	9.4616	4.3636	0.	3.6963e-003
16439	9.5535	4.3636	5.e-002	5.3698
16440	9.5535	4.0909	0.	3.3334e-003
16441	9.4616	4.1818	0.	3.3862e-003
16442	9.5535	4.1818	5.e-002	5.3724
16443	9.5535	3.9091	0.	3.1044e-003
16444	9.4616	4.	0.	3.1159e-003
16445	9.5535	4.	5.e-002	5.3746
16446	9.5535	3.7273	0.	2.9131e-003
16447	9.4616	3.8182	0.	2.8856e-003
16448	9.5535	3.8182	5.e-002	5.3763
16449	9.5535	3.5455	0.	2.7627e-003
16450	9.4616	3.6364	0.	2.699e-003
16451	9.5535	3.6364	5.e-002	5.3777
16452	9.5535	3.3636	0.	2.6539e-003
16453	9.4616	3.4545	0.	2.5587e-003
16454	9.5535	3.4545	5.e-002	5.3787
16455	9.5535	3.1818	0.	2.5876e-003
16456	9.4616	3.2727	0.	2.4631e-003
16457	9.5535	3.2727	5.e-002	5.3794
16458	9.5535	3.	0.	2.5656e-003
16459	9.4616	3.0909	0.	2.4148e-003
16460	9.5535	3.0909	5.e-002	5.3797
16461	9.5535	2.8182	0.	2.5878e-003
16462	9.4616	2.9091	0.	2.4149e-003
16463	9.5535	2.9091	5.e-002	5.3797
16464	9.5535	2.6364	0.	2.6541e-003
16465	9.4616	2.7273	0.	2.4631e-003
16466	9.5535	2.7273	5.e-002	5.3794
16467	9.5535	2.4545	0.	2.7627e-003
16468	9.4616	2.5455	0.	2.5587e-003
16469	9.5535	2.5455	5.e-002	5.3787
16470	9.5535	2.2727	0.	2.9132e-003
16471	9.4616	2.3636	0.	2.6991e-003
16472	9.5535	2.3636	5.e-002	5.3777
16473	9.5535	2.0909	0.	3.1046e-003
16474	9.4616	2.1818	0.	2.886e-003
16475	9.5535	2.1818	5.e-002	5.3763
16476	9.5535	1.9091	0.	3.3336e-003
16477	9.4616	2.	0.	3.1161e-003
16478	9.5535	2.	5.e-002	5.3745
16479	9.5535	1.7273	0.	3.5983e-003
16480	9.4616	1.8182	0.	3.3868e-003
16481	9.5535	1.8182	5.e-002	5.3724
16482	9.5535	1.5455	0.	3.8988e-003
16483	9.4616	1.6364	0.	3.6969e-003
16484	9.5535	1.6364	5.e-002	5.3697
16485	9.5535	1.3636	0.	4.2288e-003
16486	9.4616	1.4545	0.	4.0496e-003
16487	9.5535	1.4545	5.e-002	5.3666
16488	9.5535	1.1818	0.	4.6051e-003
16489	9.4616	1.2727	0.	4.4322e-003
16490	9.5535	1.2727	5.e-002	5.3629
16491	9.5535	1.	0.	4.9713e-003
16492	9.4616	1.0909	0.	4.8977e-003
16493	9.5535	1.0909	5.e-002	5.3587
16494	9.5535	0.81818	0.	5.6273e-003
16495	9.4616	0.90909	0.	5.2847e-003
16496	9.5535	0.90909	5.e-002	5.3538
16497	9.5535	0.63636	0.	5.5389e-003
16498	9.4616	0.72727	0.	6.4227e-003
16499	9.5535	0.72727	5.e-002	5.3472
16500	9.5535	0.45455	0.	1.1648e-002
16501	9.4616	0.54545	0.	5.4523e-003
16502	9.5535	0.54545	5.e-002	5.3226
16503	9.5535	0.27273	0.	2.3861
16504	9.4616	0.36364	0.	2.5496e-002
16505	9.5535	0.36364	5.e-002	5.0322
16506	9.4616	0.18182	0.	5.0971
16507	9.5535	0.18182	5.e-002	0.72817
16508	9.5535	9.0909e-002	0.	4.2138
16509	9.3698	5.7273	0.	1.4745
16510	9.2779	5.8182	0.	4.3446
16511	9.3698	5.8182	5.e-002	0.81965
16512	9.3698	5.9091	0.	3.7784
16513	9.3698	5.5455	0.	1.3307e-002
16514	9.2779	5.6364	0.	2.62e-002
16515	9.3698	5.6364	5.e-002	5.0675
16516	9.3698	5.3636	0.	6.1225e-003
16517	9.2779	5.4545	0.	6.1931e-003
16518	9.3698	5.4545	5.e-002	5.3549
16519	9.3698	5.1818	0.	6.0308e-003
16520	9.2779	5.2727	0.	7.0166e-003
16521	9.3698	5.2727	5.e-002	5.3797
16522	9.3698	5.	0.	5.1917e-003
16523	9.2779	5.0909	0.	5.6037e-003
16524	9.3698	5.0909	5.e-002	5.3866
16525	9.3698	4.8182	0.	4.7151e-003
16526	9.2779	4.9091	0.	5.0864e-003
16527	9.3698	4.9091	5.e-002	5.3918
16528	9.3698	4.6364	0.	4.2467e-003
16529	9.2779	4.7273	0.	4.5071e-003
16530	9.3698	4.7273	5.e-002	5.3962
16531	9.3698	4.4545	0.	3.8429e-003
16532	9.2779	4.5455	0.	4.0375e-003
16533	9.3698	4.5455	5.e-002	5.4001
16534	9.3698	4.2727	0.	3.4808e-003
16535	9.2779	4.3636	0.	3.6122e-003
16536	9.3698	4.3636	5.e-002	5.4033
16537	9.3698	4.0909	0.	3.165e-003
16538	9.2779	4.1818	0.	3.2417e-003
16539	9.3698	4.1818	5.e-002	5.406
16540	9.3698	3.9091	0.	2.8935e-003
16541	9.2779	4.	0.	2.9213e-003
16542	9.3698	4.	5.e-002	5.4083
16543	9.3698	3.7273	0.	2.6679e-003
16544	9.2779	3.8182	0.	2.6499e-003
16545	9.3698	3.8182	5.e-002	5.4101
16546	9.3698	3.5455	0.	2.4914e-003
16547	9.2779	3.6364	0.	2.4314e-003
16548	9.3698	3.6364	5.e-002	5.4115
16549	9.3698	3.3636	0.	2.3642e-003
16550	9.2779	3.4545	0.	2.2669e-003
16551	9.3698	3.4545	5.e-002	5.4125
16552	9.3698	3.1818	0.	2.2866e-003
16553	9.2779	3.2727	0.	2.1558e-003
16554	9.3698	3.2727	5.e-002	5.4132
16555	9.3698	3.	0.	2.2605e-003
16556	9.2779	3.0909	0.	2.0993e-003
16557	9.3698	3.0909	5.e-002	5.4135
16558	9.3698	2.8182	0.	2.2867e-003
16559	9.2779	2.9091	0.	2.0995e-003
16560	9.3698	2.9091	5.e-002	5.4135
16561	9.3698	2.6364	0.	2.3641e-003
16562	9.2779	2.7273	0.	2.1558e-003
16563	9.3698	2.7273	5.e-002	5.4132
16564	9.3698	2.4545	0.	2.4915e-003
16565	9.2779	2.5455	0.	2.267e-003
16566	9.3698	2.5455	5.e-002	5.4125
16567	9.3698	2.2727	0.	2.6684e-003
16568	9.2779	2.3636	0.	2.4316e-003
16569	9.3698	2.3636	5.e-002	5.4115
16570	9.3698	2.0909	0.	2.8939e-003
16571	9.2779	2.1818	0.	2.6505e-003
16572	9.3698	2.1818	5.e-002	5.4101
16573	9.3698	1.9091	0.	3.1656e-003
16574	9.2779	2.	0.	2.9216e-003
16575	9.3698	2.	5.e-002	5.4082
16576	9.3698	1.7273	0.	3.4815e-003
16577	9.2779	1.8182	0.	3.2424e-003
16578	9.3698	1.8182	5.e-002	5.406
16579	9.3698	1.5455	0.	3.8433e-003
16580	9.2779	1.6364	0.	3.6128e-003
16581	9.3698	1.6364	5.e-002	5.4032
16582	9.3698	1.3636	0.	4.2472e-003
16583	9.2779	1.4545	0.	4.0381e-003
16584	9.3698	1.4545	5.e-002	5.3999
16585	9.3698	1.1818	0.	4.7156e-003
16586	9.2779	1.2727	0.	4.5079e-003
16587	9.3698	1.2727	5.e-002	5.3961
16588	9.3698	1.	0.	5.193e-003
16589	9.2779	1.0909	0.	5.0868e-003
16590	9.3698	1.0909	5.e-002	5.3917
16591	9.3698	0.81818	0.	6.0321e-003
16592	9.2779	0.90909	0.	5.6056e-003
16593	9.3698	0.90909	5.e-002	5.3865
16594	9.3698	0.63636	0.	6.1228e-003
16595	9.2779	0.72727	0.	7.0175e-003
16596	9.3698	0.72727	5.e-002	5.3796
16597	9.3698	0.45455	0.	1.3308e-002
16598	9.2779	0.54545	0.	6.1933e-003
16599	9.3698	0.54545	5.e-002	5.3548
16600	9.3698	0.27273	0.	1.4746
16601	9.2779	0.36364	0.	2.6202e-002
16602	9.3698	0.36364	5.e-002	5.0673
16603	9.2779	0.18182	0.	4.3447
16604	9.3698	0.18182	5.e-002	0.81951
16605	9.3698	9.0909e-002	0.	3.7785
16606	9.186	5.7273	0.	0.57208
16607	9.0942	5.8182	0.	3.5524
16608	9.186	5.8182	5.e-002	0.91878
16609	9.186	5.9091	0.	3.3199
16610	9.186	5.5455	0.	1.5105e-002
16611	9.0942	5.6364	0.	2.843e-002
16612	9.186	5.6364	5.e-002	5.1043
16613	9.186	5.3636	0.	6.8028e-003
16614	9.0942	5.4545	0.	7.0282e-003
16615	9.186	5.4545	5.e-002	5.3885
16616	9.186	5.1818	0.	6.5122e-003
16617	9.0942	5.2727	0.	7.7043e-003
16618	9.186	5.2727	5.e-002	5.4134
16619	9.186	5.	0.	5.4653e-003
16620	9.0942	5.0909	0.	5.9885e-003
16621	9.186	5.0909	5.e-002	5.4207
16622	9.186	4.8182	0.	4.8603e-003
16623	9.0942	4.9091	0.	5.3213e-003
16624	9.186	4.9091	5.e-002	5.4261
16625	9.186	4.6364	0.	4.2863e-003
16626	9.0942	4.7273	0.	4.613e-003
16627	9.186	4.7273	5.e-002	5.4307
16628	9.186	4.4545	0.	3.7983e-003
16629	9.0942	4.5455	0.	4.0451e-003
16630	9.186	4.5455	5.e-002	5.4347
16631	9.186	4.2727	0.	3.366e-003
16632	9.0942	4.3636	0.	3.5374e-003
16633	9.186	4.3636	5.e-002	5.4381
16634	9.186	4.0909	0.	2.9918e-003
16635	9.0942	4.1818	0.	3.0988e-003
16636	9.186	4.1818	5.e-002	5.4409
16637	9.186	3.9091	0.	2.6722e-003
16638	9.0942	4.	0.	2.7219e-003
16639	9.186	4.	5.e-002	5.4433
16640	9.186	3.7273	0.	2.4081e-003
16641	9.0942	3.8182	0.	2.4051e-003
16642	9.186	3.8182	5.e-002	5.445
16643	9.186	3.5455	0.	2.2019e-003
16644	9.0942	3.6364	0.	2.1503e-003
16645	9.186	3.6364	5.e-002	5.4465
16646	9.186	3.3636	0.	2.0536e-003
16647	9.0942	3.4545	0.	1.9589e-003
16648	9.186	3.4545	5.e-002	5.4475
16649	9.186	3.1818	0.	1.9636e-003
16650	9.0942	3.2727	0.	1.8301e-003
16651	9.186	3.2727	5.e-002	5.4482
16652	9.186	3.	0.	1.9334e-003
16653	9.0942	3.0909	0.	1.7649e-003
16654	9.186	3.0909	5.e-002	5.4485
16655	9.186	2.8182	0.	1.9637e-003
16656	9.0942	2.9091	0.	1.7649e-003
16657	9.186	2.9091	5.e-002	5.4485
16658	9.186	2.6364	0.	2.0537e-003
16659	9.0942	2.7273	0.	1.8301e-003
16660	9.186	2.7273	5.e-002	5.4482
16661	9.186	2.4545	0.	2.202e-003
16662	9.0942	2.5455	0.	1.9592e-003
16663	9.186	2.5455	5.e-002	5.4475
16664	9.186	2.2727	0.	2.4084e-003
16665	9.0942	2.3636	0.	2.1504e-003
16666	9.186	2.3636	5.e-002	5.4465
16667	9.186	2.0909	0.	2.6725e-003
16668	9.0942	2.1818	0.	2.4054e-003
16669	9.186	2.1818	5.e-002	5.445
16670	9.186	1.9091	0.	2.9922e-003
16671	9.0942	2.	0.	2.7223e-003
16672	9.186	2.	5.e-002	5.4431
16673	9.186	1.7273	0.	3.3666e-003
16674	9.0942	1.8182	0.	3.0995e-003
16675	9.186	1.8182	5.e-002	5.4408
16676	9.186	1.5455	0.	3.7989e-003
16677	9.0942	1.6364	0.	3.5379e-003
16678	9.186	1.6364	5.e-002	5.438
16679	9.186	1.3636	0.	4.2871e-003
16680	9.0942	1.4545	0.	4.0456e-003
16681	9.186	1.4545	5.e-002	5.4347
16682	9.186	1.1818	0.	4.8611e-003
16683	9.0942	1.2727	0.	4.614e-003
16684	9.186	1.2727	5.e-002	5.4306
16685	9.186	1.	0.	5.4665e-003
16686	9.0942	1.0909	0.	5.3218e-003
16687	9.186	1.0909	5.e-002	5.426
16688	9.186	0.81818	0.	6.5136e-003
16689	9.0942	0.90909	0.	5.99e-003
16690	9.186	0.90909	5.e-002	5.4206
16691	9.186	0.63636	0.	6.8035e-003
16692	9.0942	0.72727	0.	7.7053e-003
16693	9.186	0.72727	5.e-002	5.4133
16694	9.186	0.45455	0.	1.5105e-002
16695	9.0942	0.54545	0.	7.0284e-003
16696	9.186	0.54545	5.e-002	5.3883
16697	9.186	0.27273	0.	0.57215
16698	9.0942	0.36364	0.	2.8431e-002
16699	9.186	0.36364	5.e-002	5.1042
16700	9.0942	0.18182	0.	3.5525
16701	9.186	0.18182	5.e-002	0.91863
16702	9.186	9.0909e-002	0.	3.3199
16703	9.0023	5.7273	0.	0.13184
16704	8.9105	5.8182	0.	2.7232
16705	9.0023	5.8182	5.e-002	1.0263
16706	9.0023	5.9091	0.	2.8376
16707	9.0023	5.5455	0.	1.7061e-002
16708	8.9105	5.6364	0.	3.1265e-002
16709	9.0023	5.6364	5.e-002	5.143
16710	9.0023	5.3636	0.	7.5807e-003
16711	8.9105	5.4545	0.	7.9547e-003
16712	9.0023	5.4545	5.e-002	5.4234
16713	9.0023	5.1818	0.	7.0738e-003
16714	8.9105	5.2727	0.	8.4816e-003
16715	9.0023	5.2727	5.e-002	5.4485
16716	9.0023	5.	0.	5.796e-003
16717	8.9105	5.0909	0.	6.4346e-003
16718	9.0023	5.0909	5.e-002	5.4561
16719	9.0023	4.8182	0.	5.0467e-003
16720	8.9105	4.9091	0.	5.6003e-003
16721	9.0023	4.9091	5.e-002	5.4618
16722	9.0023	4.6364	0.	4.354e-003
16723	8.9105	4.7273	0.	4.7487e-003
16724	9.0023	4.7273	5.e-002	5.4666
16725	9.0023	4.4545	0.	3.7711e-003
16726	8.9105	4.5455	0.	4.0699e-003
16727	9.0023	4.5455	5.e-002	5.4708
16728	9.0023	4.2727	0.	3.2598e-003
16729	8.9105	4.3636	0.	3.4703e-003
16730	9.0023	4.3636	5.e-002	5.4743
16731	9.0023	4.0909	0.	2.8201e-003
16732	8.9105	4.1818	0.	2.9561e-003
16733	9.0023	4.1818	5.e-002	5.4772
16734	9.0023	3.9091	0.	2.447e-003
16735	8.9105	4.	0.	2.5162e-003
16736	9.0023	4.	5.e-002	5.4795
16737	9.0023	3.7273	0.	2.14e-003
16738	8.9105	3.8182	0.	2.1488e-003
16739	9.0023	3.8182	5.e-002	5.4814
16740	9.0023	3.5455	0.	1.9005e-003
16741	8.9105	3.6364	0.	1.8537e-003
16742	9.0023	3.6364	5.e-002	5.4828
16743	9.0023	3.3636	0.	1.7289e-003
16744	8.9105	3.4545	0.	1.6327e-003
16745	9.0023	3.4545	5.e-002	5.4838
16746	9.0023	3.1818	0.	1.625e-003
16747	8.9105	3.2727	0.	1.4842e-003
16748	9.0023	3.2727	5.e-002	5.4845
16749	9.0023	3.	0.	1.59e-003
16750	8.9105	3.0909	0.	1.4092e-003
16751	9.0023	3.0909	5.e-002	5.4849
16752	9.0023	2.8182	0.	1.6249e-003
16753	8.9105	2.9091	0.	1.4092e-003
16754	9.0023	2.9091	5.e-002	5.4849
16755	9.0023	2.6364	0.	1.7291e-003
16756	8.9105	2.7273	0.	1.4842e-003
16757	9.0023	2.7273	5.e-002	5.4845
16758	9.0023	2.4545	0.	1.9008e-003
16759	8.9105	2.5455	0.	1.6331e-003
16760	9.0023	2.5455	5.e-002	5.4838
16761	9.0023	2.2727	0.	2.1402e-003
16762	8.9105	2.3636	0.	1.8539e-003
16763	9.0023	2.3636	5.e-002	5.4828
16764	9.0023	2.0909	0.	2.4473e-003
16765	8.9105	2.1818	0.	2.149e-003
16766	9.0023	2.1818	5.e-002	5.4813
16767	9.0023	1.9091	0.	2.8208e-003
16768	8.9105	2.	0.	2.5168e-003
16769	9.0023	2.	5.e-002	5.4795
16770	9.0023	1.7273	0.	3.2604e-003
16771	8.9105	1.8182	0.	2.9567e-003
16772	9.0023	1.8182	5.e-002	5.4771
16773	9.0023	1.5455	0.	3.7715e-003
16774	8.9105	1.6364	0.	3.4708e-003
16775	9.0023	1.6364	5.e-002	5.4742
16776	9.0023	1.3636	0.	4.3547e-003
16777	8.9105	1.4545	0.	4.0705e-003
16778	9.0023	1.4545	5.e-002	5.4707
16779	9.0023	1.1818	0.	5.0473e-003
16780	8.9105	1.2727	0.	4.7494e-003
16781	9.0023	1.2727	5.e-002	5.4665
16782	9.0023	1.	0.	5.7969e-003
16783	8.9105	1.0909	0.	5.6008e-003
16784	9.0023	1.0909	5.e-002	5.4617
16785	9.0023	0.81818	0.	7.075e-003
16786	8.9105	0.90909	0.	6.4361e-003
16787	9.0023	0.90909	5.e-002	5.456
16788	9.0023	0.63636	0.	7.5813e-003
16789	8.9105	0.72727	0.	8.4826e-003
16790	9.0023	0.72727	5.e-002	5.4483
16791	9.0023	0.45455	0.	1.7062e-002
16792	8.9105	0.54545	0.	7.955e-003
16793	9.0023	0.54545	5.e-002	5.4233
16794	9.0023	0.27273	0.	0.13185
16795	8.9105	0.36364	0.	3.1267e-002
16796	9.0023	0.36364	5.e-002	5.1429
16797	8.9105	0.18182	0.	2.7233
16798	9.0023	0.18182	5.e-002	1.0262
16799	9.0023	9.0909e-002	0.	2.8376
16800	8.8186	5.7273	0.	7.2902e-002
16801	8.7267	5.8182	0.	1.8703
16802	8.8186	5.8182	5.e-002	1.143
16803	8.8186	5.9091	0.	2.3319
16804	8.8186	5.5455	0.	1.918e-002
16805	8.7267	5.6364	0.	3.452e-002
16806	8.8186	5.6364	5.e-002	5.1837
16807	8.8186	5.3636	0.	8.4451e-003
16808	8.7267	5.4545	0.	8.9713e-003
16809	8.8186	5.4545	5.e-002	5.4599
16810	8.8186	5.1818	0.	7.706e-003
16811	8.7267	5.2727	0.	9.3453e-003
16812	8.8186	5.2727	5.e-002	5.4851
16813	8.8186	5.	0.	6.1744e-003
16814	8.7267	5.0909	0.	6.9385e-003
16815	8.8186	5.0909	5.e-002	5.4931
16816	8.8186	4.8182	0.	5.265e-003
16817	8.7267	4.9091	0.	5.9195e-003
16818	8.8186	4.9091	5.e-002	5.499
16819	8.8186	4.6364	0.	4.4401e-003
16820	8.7267	4.7273	0.	4.9091e-003
16821	8.8186	4.7273	5.e-002	5.5041
16822	8.8186	4.4545	0.	3.7512e-003
16823	8.7267	4.5455	0.	4.1077e-003
16824	8.8186	4.5455	5.e-002	5.5084
16825	8.8186	4.2727	0.	3.1526e-003
16826	8.7267	4.3636	0.	3.4064e-003
16827	8.8186	4.3636	5.e-002	5.512
16828	8.8186	4.0909	0.	2.6405e-003
16829	8.7267	4.1818	0.	2.8085e-003
16830	8.8186	4.1818	5.e-002	5.5149
16831	8.8186	3.9091	0.	2.2078e-003
16832	8.7267	4.	0.	2.299e-003
16833	8.8186	4.	5.e-002	5.5173
16834	8.8186	3.7273	0.	1.8532e-003
16835	8.7267	3.8182	0.	1.8754e-003
16836	8.8186	3.8182	5.e-002	5.5192
16837	8.8186	3.5455	0.	1.5772e-003
16838	8.7267	3.6364	0.	1.5361e-003
16839	8.8186	3.6364	5.e-002	5.5206
16840	8.8186	3.3636	0.	1.3798e-003
16841	8.7267	3.4545	0.	1.2825e-003
16842	8.8186	3.4545	5.e-002	5.5216
16843	8.8186	3.1818	0.	1.2604e-003
16844	8.7267	3.2727	0.	1.1121e-003
16845	8.8186	3.2727	5.e-002	5.5223
16846	8.8186	3.	0.	1.2204e-003
16847	8.7267	3.0909	0.	1.0265e-003
16848	8.8186	3.0909	5.e-002	5.5226
16849	8.8186	2.8182	0.	1.2604e-003
16850	8.7267	2.9091	0.	1.0265e-003
16851	8.8186	2.9091	5.e-002	5.5226
16852	8.8186	2.6364	0.	1.3799e-003
16853	8.7267	2.7273	0.	1.1123e-003
16854	8.8186	2.7273	5.e-002	5.5223
16855	8.8186	2.4545	0.	1.5775e-003
16856	8.7267	2.5455	0.	1.2827e-003
16857	8.8186	2.5455	5.e-002	5.5216
16858	8.8186	2.2727	0.	1.8534e-003
16859	8.7267	2.3636	0.	1.5366e-003
16860	8.8186	2.3636	5.e-002	5.5206
16861	8.8186	2.0909	0.	2.2082e-003
16862	8.7267	2.1818	0.	1.8755e-003
16863	8.8186	2.1818	5.e-002	5.5191
16864	8.8186	1.9091	0.	2.6409e-003
16865	8.7267	2.	0.	2.2997e-003
16866	8.8186	2.	5.e-002	5.5173
16867	8.8186	1.7273	0.	3.153e-003
16868	8.7267	1.8182	0.	2.8089e-003
16869	8.8186	1.8182	5.e-002	5.5148
16870	8.8186	1.5455	0.	3.7519e-003
16871	8.7267	1.6364	0.	3.407e-003
16872	8.8186	1.6364	5.e-002	5.5119
16873	8.8186	1.3636	0.	4.4407e-003
16874	8.7267	1.4545	0.	4.1084e-003
16875	8.8186	1.4545	5.e-002	5.5083
16876	8.8186	1.1818	0.	5.2657e-003
16877	8.7267	1.2727	0.	4.9098e-003
16878	8.8186	1.2727	5.e-002	5.504
16879	8.8186	1.	0.	6.1755e-003
16880	8.7267	1.0909	0.	5.9202e-003
16881	8.8186	1.0909	5.e-002	5.499
16882	8.8186	0.81818	0.	7.7073e-003
16883	8.7267	0.90909	0.	6.94e-003
16884	8.8186	0.90909	5.e-002	5.493
16885	8.8186	0.63636	0.	8.4459e-003
16886	8.7267	0.72727	0.	9.3465e-003
16887	8.8186	0.72727	5.e-002	5.485
16888	8.8186	0.45455	0.	1.9181e-002
16889	8.7267	0.54545	0.	8.9716e-003
16890	8.8186	0.54545	5.e-002	5.4598
16891	8.8186	0.27273	0.	7.2906e-002
16892	8.7267	0.36364	0.	3.4521e-002
16893	8.8186	0.36364	5.e-002	5.1836
16894	8.7267	0.18182	0.	1.8703
16895	8.8186	0.18182	5.e-002	1.1428
16896	8.8186	9.0909e-002	0.	2.332
16897	8.6349	5.7273	0.	5.8321e-002
16898	8.543	5.8182	0.	1.0508
16899	8.6349	5.8182	5.e-002	1.2695
16900	8.6349	5.9091	0.	1.806
16901	8.6349	5.5455	0.	2.1479e-002
16902	8.543	5.6364	0.	3.8148e-002
16903	8.6349	5.6364	5.e-002	5.2267
16904	8.6349	5.3636	0.	9.4001e-003
16905	8.543	5.4545	0.	1.0087e-002
16906	8.6349	5.4545	5.e-002	5.4982
16907	8.6349	5.1818	0.	8.411e-003
16908	8.543	5.2727	0.	1.0302e-002
16909	8.6349	5.2727	5.e-002	5.5235
16910	8.6349	5.	0.	6.6022e-003
16911	8.543	5.0909	0.	7.5046e-003
16912	8.6349	5.0909	5.e-002	5.5318
16913	8.6349	4.8182	0.	5.5159e-003
16914	8.543	4.9091	0.	6.2832e-003
16915	8.6349	4.9091	5.e-002	5.538
16916	8.6349	4.6364	0.	4.545e-003
16917	8.543	4.7273	0.	5.0981e-003
16918	8.6349	4.7273	5.e-002	5.5433
16919	8.6349	4.4545	0.	3.7398e-003
16920	8.543	4.5455	0.	4.1618e-003
16921	8.6349	4.5455	5.e-002	5.5477
16922	8.6349	4.2727	0.	3.0442e-003
16923	8.543	4.3636	0.	3.3486e-003
16924	8.6349	4.3636	5.e-002	5.5513
16925	8.6349	4.0909	0.	2.4521e-003
16926	8.543	4.1818	0.	2.658e-003
16927	8.6349	4.1818	5.e-002	5.5543
16928	8.6349	3.9091	0.	1.9536e-003
16929	8.543	4.	0.	2.0727e-003
16930	8.6349	4.	5.e-002	5.5567
16931	8.6349	3.7273	0.	1.5467e-003
16932	8.543	3.8182	0.	1.5869e-003
16933	8.6349	3.8182	5.e-002	5.5586
16934	8.6349	3.5455	0.	1.2306e-003
16935	8.543	3.6364	0.	1.1988e-003
16936	8.6349	3.6364	5.e-002	5.56
16937	8.6349	3.3636	0.	1.0046e-003
16938	8.543	3.4545	0.	9.0929e-004
16939	8.6349	3.4545	5.e-002	5.5609
16940	8.6349	3.1818	0.	8.6831e-004
16941	8.543	3.2727	0.	7.1518e-004
16942	8.6349	3.2727	5.e-002	5.5616
16943	8.6349	3.	0.	8.2269e-004
16944	8.543	3.0909	0.	6.1759e-004
16945	8.6349	3.0909	5.e-002	5.5619
16946	8.6349	2.8182	0.	8.6843e-004
16947	8.543	2.9091	0.	6.1765e-004
16948	8.6349	2.9091	5.e-002	5.5619
16949	8.6349	2.6364	0.	1.0049e-003
16950	8.543	2.7273	0.	7.1542e-004
16951	8.6349	2.7273	5.e-002	5.5616
16952	8.6349	2.4545	0.	1.231e-003
16953	8.543	2.5455	0.	9.0952e-004
16954	8.6349	2.5455	5.e-002	5.5609
16955	8.6349	2.2727	0.	1.547e-003
16956	8.543	2.3636	0.	1.1994e-003
16957	8.6349	2.3636	5.e-002	5.5599
16958	8.6349	2.0909	0.	1.954e-003
16959	8.543	2.1818	0.	1.5871e-003
16960	8.6349	2.1818	5.e-002	5.5585
16961	8.6349	1.9091	0.	2.4527e-003
16962	8.543	2.	0.	2.0731e-003
16963	8.6349	2.	5.e-002	5.5567
16964	8.6349	1.7273	0.	3.0448e-003
16965	8.543	1.8182	0.	2.6587e-003
16966	8.6349	1.8182	5.e-002	5.5543
16967	8.6349	1.5455	0.	3.7404e-003
16968	8.543	1.6364	0.	3.3492e-003
16969	8.6349	1.6364	5.e-002	5.5513
16970	8.6349	1.3636	0.	4.5459e-003
16971	8.543	1.4545	0.	4.1625e-003
16972	8.6349	1.4545	5.e-002	5.5476
16973	8.6349	1.1818	0.	5.5167e-003
16974	8.543	1.2727	0.	5.099e-003
16975	8.6349	1.2727	5.e-002	5.5432
16976	8.6349	1.	0.	6.6033e-003
16977	8.543	1.0909	0.	6.284e-003
16978	8.6349	1.0909	5.e-002	5.5379
16979	8.6349	0.81818	0.	8.4124e-003
16980	8.543	0.90909	0.	7.5059e-003
16981	8.6349	0.90909	5.e-002	5.5317
16982	8.6349	0.63636	0.	9.4009e-003
16983	8.543	0.72727	0.	1.0303e-002
16984	8.6349	0.72727	5.e-002	5.5234
16985	8.6349	0.45455	0.	2.148e-002
16986	8.543	0.54545	0.	1.0087e-002
16987	8.6349	0.54545	5.e-002	5.4981
16988	8.6349	0.27273	0.	5.8323e-002
16989	8.543	0.36364	0.	3.815e-002
16990	8.6349	0.36364	5.e-002	5.2265
16991	8.543	0.18182	0.	1.0508
16992	8.6349	0.18182	5.e-002	1.2693
16993	8.6349	9.0909e-002	0.	1.8061
16994	8.4512	5.7273	0.	5.3359e-002
16995	8.3593	5.8182	0.	0.47088
16996	8.4512	5.8182	5.e-002	1.4067
16997	8.4512	5.9091	0.	1.2709
16998	8.4512	5.5455	0.	2.398e-002
16999	8.3593	5.6364	0.	4.2151e-002
17000	8.4512	5.6364	5.e-002	5.2721
17001	8.4512	5.3636	0.	1.0455e-002
17002	8.3593	5.4545	0.	1.1312e-002
17003	8.4512	5.4545	5.e-002	5.5384
17004	8.4512	5.1818	0.	9.1973e-003
17005	8.3593	5.2727	0.	1.136e-002
17006	8.4512	5.2727	5.e-002	5.5639
17007	8.4512	5.	0.	7.0864e-003
17008	8.3593	5.0909	0.	8.1389e-003
17009	8.4512	5.0909	5.e-002	5.5724
17010	8.4512	4.8182	0.	5.8066e-003
17011	8.3593	4.9091	0.	6.6963e-003
17012	8.4512	4.9091	5.e-002	5.5789
17013	8.4512	4.6364	0.	4.6756e-003
17014	8.3593	4.7273	0.	5.3204e-003
17015	8.4512	4.7273	5.e-002	5.5844
17016	8.4512	4.4545	0.	3.742e-003
17017	8.3593	4.5455	0.	4.2358e-003
17018	8.4512	4.5455	5.e-002	5.5889
17019	8.4512	4.2727	0.	2.94e-003
17020	8.3593	4.3636	0.	3.2997e-003
17021	8.4512	4.3636	5.e-002	5.5926
17022	8.4512	4.0909	0.	2.2601e-003
17023	8.3593	4.1818	0.	2.5078e-003
17024	8.4512	4.1818	5.e-002	5.5955
17025	8.4512	3.9091	0.	1.6899e-003
17026	8.3593	4.	0.	1.8389e-003
17027	8.4512	4.	5.e-002	5.5979
17028	8.4512	3.7273	0.	1.2248e-003
17029	8.3593	3.8182	0.	1.285e-003
17030	8.4512	3.8182	5.e-002	5.5997
17031	8.4512	3.5455	0.	8.6443e-004
17032	8.3593	3.6364	0.	8.4372e-004
17033	8.4512	3.6364	5.e-002	5.6011
17034	8.4512	3.3636	0.	6.0748e-004
17035	8.3593	3.4545	0.	5.1477e-004
17036	8.4512	3.4545	5.e-002	5.602
17037	8.4512	3.1818	0.	4.5247e-004
17038	8.3593	3.2727	0.	2.9446e-004
17039	8.4512	3.2727	5.e-002	5.6026
17040	8.4512	3.	0.	4.0068e-004
17041	8.3593	3.0909	0.	1.8383e-004
17042	8.4512	3.0909	5.e-002	5.6029
17043	8.4512	2.8182	0.	4.5265e-004
17044	8.3593	2.9091	0.	1.8407e-004
17045	8.4512	2.9091	5.e-002	5.6029
17046	8.4512	2.6364	0.	6.0766e-004
17047	8.3593	2.7273	0.	2.9461e-004
17048	8.4512	2.7273	5.e-002	5.6026
17049	8.4512	2.4545	0.	8.6479e-004
17050	8.3593	2.5455	0.	5.1488e-004
17051	8.4512	2.5455	5.e-002	5.602
17052	8.4512	2.2727	0.	1.2253e-003
17053	8.3593	2.3636	0.	8.4417e-004
17054	8.4512	2.3636	5.e-002	5.601
17055	8.4512	2.0909	0.	1.6902e-003
17056	8.3593	2.1818	0.	1.2855e-003
17057	8.4512	2.1818	5.e-002	5.5996
17058	8.4512	1.9091	0.	2.2606e-003
17059	8.3593	2.	0.	1.8393e-003
17060	8.4512	2.	5.e-002	5.5979
17061	8.4512	1.7273	0.	2.9407e-003
17062	8.3593	1.8182	0.	2.5083e-003
17063	8.4512	1.8182	5.e-002	5.5955
17064	8.4512	1.5455	0.	3.7426e-003
17065	8.3593	1.6364	0.	3.3003e-003
17066	8.4512	1.6364	5.e-002	5.5925
17067	8.4512	1.3636	0.	4.6762e-003
17068	8.3593	1.4545	0.	4.2365e-003
17069	8.4512	1.4545	5.e-002	5.5888
17070	8.4512	1.1818	0.	5.8074e-003
17071	8.3593	1.2727	0.	5.321e-003
17072	8.4512	1.2727	5.e-002	5.5843
17073	8.4512	1.	0.	7.0874e-003
17074	8.3593	1.0909	0.	6.6972e-003
17075	8.4512	1.0909	5.e-002	5.5788
17076	8.4512	0.81818	0.	9.1983e-003
17077	8.3593	0.90909	0.	8.1401e-003
17078	8.4512	0.90909	5.e-002	5.5723
17079	8.4512	0.63636	0.	1.0456e-002
17080	8.3593	0.72727	0.	1.1361e-002
17081	8.4512	0.72727	5.e-002	5.5637
17082	8.4512	0.45455	0.	2.398e-002
17083	8.3593	0.54545	0.	1.1312e-002
17084	8.4512	0.54545	5.e-002	5.5383
17085	8.4512	0.27273	0.	5.3361e-002
17086	8.3593	0.36364	0.	4.2152e-002
17087	8.4512	0.36364	5.e-002	5.272
17088	8.3593	0.18182	0.	0.47091
17089	8.4512	0.18182	5.e-002	1.4065
17090	8.4512	9.0909e-002	0.	1.2709
17091	8.2674	5.7273	0.	5.2094e-002
17092	8.1756	5.8182	0.	0.24897
17093	8.2674	5.8182	5.e-002	1.5553
17094	8.2674	5.9091	0.	0.7657
17095	8.2674	5.5455	0.	2.6701e-002
17096	8.1756	5.6364	0.	4.6537e-002
17097	8.2674	5.6364	5.e-002	5.3203
17098	8.2674	5.3636	0.	1.1618e-002
17099	8.1756	5.4545	0.	1.2651e-002
17100	8.2674	5.4545	5.e-002	5.5808
17101	8.2674	5.1818	0.	1.007e-002
17102	8.1756	5.2727	0.	1.2522e-002
17103	8.2674	5.2727	5.e-002	5.6063
17104	8.2674	5.	0.	7.6307e-003
17105	8.1756	5.0909	0.	8.8416e-003
17106	8.2674	5.0909	5.e-002	5.6152
17107	8.2674	4.8182	0.	6.1394e-003
17108	8.1756	4.9091	0.	7.1582e-003
17109	8.2674	4.9091	5.e-002	5.6219
17110	8.2674	4.6364	0.	4.8331e-003
17111	8.1756	4.7273	0.	5.5734e-003
17112	8.2674	4.7273	5.e-002	5.6275
17113	8.2674	4.4545	0.	3.7588e-003
17114	8.1756	4.5455	0.	4.327e-003
17115	8.2674	4.5455	5.e-002	5.6321
17116	8.2674	4.2727	0.	2.8404e-003
17117	8.1756	4.3636	0.	3.2565e-003
17118	8.2674	4.3636	5.e-002	5.6358
17119	8.2674	4.0909	0.	2.0643e-003
17120	8.1756	4.1818	0.	2.3535e-003
17121	8.2674	4.1818	5.e-002	5.6387
17122	8.2674	3.9091	0.	1.4149e-003
17123	8.1756	4.	0.	1.593e-003
17124	8.2674	4.	5.e-002	5.641
17125	8.2674	3.7273	0.	8.8693e-004
17126	8.1756	3.8182	0.	9.6476e-004
17127	8.2674	3.8182	5.e-002	5.6427
17128	8.2674	3.5455	0.	4.7843e-004
17129	8.1756	3.6364	0.	4.6557e-004
17130	8.2674	3.6364	5.e-002	5.644
17131	8.2674	3.3636	0.	1.8701e-004
17132	8.1756	3.4545	0.	9.3027e-005
17133	8.2674	3.4545	5.e-002	5.6449
17134	8.2674	3.1818	0.	1.1579e-005
17135	8.1756	3.2727	0.	-1.5586e-004
17136	8.2674	3.2727	5.e-002	5.6455
17137	8.2674	3.	0.	-4.6867e-005
17138	8.1756	3.0909	0.	-2.8055e-004
17139	8.2674	3.0909	5.e-002	5.6457
17140	8.2674	2.8182	0.	1.1787e-005
17141	8.1756	2.9091	0.	-2.8034e-004
17142	8.2674	2.9091	5.e-002	5.6457
17143	8.2674	2.6364	0.	1.871e-004
17144	8.1756	2.7273	0.	-1.5566e-004
17145	8.2674	2.7273	5.e-002	5.6454
17146	8.2674	2.4545	0.	4.7864e-004
17147	8.1756	2.5455	0.	9.3293e-005
17148	8.2674	2.5455	5.e-002	5.6449
17149	8.2674	2.2727	0.	8.8737e-004
17150	8.1756	2.3636	0.	4.6574e-004
17151	8.2674	2.3636	5.e-002	5.644
17152	8.2674	2.0909	0.	1.4154e-003
17153	8.1756	2.1818	0.	9.6506e-004
17154	8.2674	2.1818	5.e-002	5.6427
17155	8.2674	1.9091	0.	2.0647e-003
17156	8.1756	2.	0.	1.5934e-003
17157	8.2674	2.	5.e-002	5.641
17158	8.2674	1.7273	0.	2.8408e-003
17159	8.1756	1.8182	0.	2.3541e-003
17160	8.2674	1.8182	5.e-002	5.6387
17161	8.2674	1.5455	0.	3.7594e-003
17162	8.1756	1.6364	0.	3.2569e-003
17163	8.2674	1.6364	5.e-002	5.6357
17164	8.2674	1.3636	0.	4.8337e-003
17165	8.1756	1.4545	0.	4.3277e-003
17166	8.2674	1.4545	5.e-002	5.632
17167	8.2674	1.1818	0.	6.14e-003
17168	8.1756	1.2727	0.	5.574e-003
17169	8.2674	1.2727	5.e-002	5.6274
17170	8.2674	1.	0.	7.6317e-003
17171	8.1756	1.0909	0.	7.1588e-003
17172	8.2674	1.0909	5.e-002	5.6218
17173	8.2674	0.81818	0.	1.0071e-002
17174	8.1756	0.90909	0.	8.8428e-003
17175	8.2674	0.90909	5.e-002	5.6151
17176	8.2674	0.63636	0.	1.1619e-002
17177	8.1756	0.72727	0.	1.2523e-002
17178	8.2674	0.72727	5.e-002	5.6061
17179	8.2674	0.45455	0.	2.6702e-002
17180	8.1756	0.54545	0.	1.2651e-002
17181	8.2674	0.54545	5.e-002	5.5807
17182	8.2674	0.27273	0.	5.2096e-002
17183	8.1756	0.36364	0.	4.6538e-002
17184	8.2674	0.36364	5.e-002	5.3201
17185	8.1756	0.18182	0.	0.24898
17186	8.2674	0.18182	5.e-002	1.5552
17187	8.2674	9.0909e-002	0.	0.76573
17188	8.0837	5.7273	0.	5.2751e-002
17189	7.9919	5.8182	0.	0.17291
17190	8.0837	5.8182	5.e-002	1.7165
17191	8.0837	5.9091	0.	0.40096
17192	8.0837	5.5455	0.	2.9655e-002
17193	7.9919	5.6364	0.	5.1327e-002
17194	8.0837	5.6364	5.e-002	5.3715
17195	8.0837	5.3636	0.	1.2888e-002
17196	7.9919	5.4545	0.	1.4112e-002
17197	8.0837	5.4545	5.e-002	5.6256
17198	8.0837	5.1818	0.	1.1027e-002
17199	7.9919	5.2727	0.	1.3792e-002
17200	8.0837	5.2727	5.e-002	5.6511
17201	8.0837	5.	0.	8.2307e-003
17202	7.9919	5.0909	0.	9.6145e-003
17203	8.0837	5.0909	5.e-002	5.6603
17204	8.0837	4.8182	0.	6.5085e-003
17205	7.9919	4.9091	0.	7.6688e-003
17206	8.0837	4.9091	5.e-002	5.6672
17207	8.0837	4.6364	0.	5.0108e-003
17208	7.9919	4.7273	0.	5.8564e-003
17209	8.0837	4.7273	5.e-002	5.6729
17210	8.0837	4.4545	0.	3.7834e-003
17211	7.9919	4.5455	0.	4.4337e-003
17212	8.0837	4.5455	5.e-002	5.6776
17213	8.0837	4.2727	0.	2.7374e-003
17214	7.9919	4.3636	0.	3.216e-003
17215	8.0837	4.3636	5.e-002	5.6812
17216	8.0837	4.0909	0.	1.8558e-003
17217	7.9919	4.1818	0.	2.1919e-003
17218	8.0837	4.1818	5.e-002	5.6841
17219	8.0837	3.9091	0.	1.1203e-003
17220	7.9919	4.	0.	1.3313e-003
17221	8.0837	4.	5.e-002	5.6863
17222	8.0837	3.7273	0.	5.2333e-004
17223	7.9919	3.8182	0.	6.2204e-004
17224	8.0837	3.8182	5.e-002	5.6879
17225	8.0837	3.5455	0.	6.1783e-005
17226	7.9919	3.6364	0.	5.8985e-005
17227	8.0837	3.6364	5.e-002	5.6891
17228	8.0837	3.3636	0.	-2.6715e-004
17229	7.9919	3.4545	0.	-3.6072e-004
17230	8.0837	3.4545	5.e-002	5.6898
17231	8.0837	3.1818	0.	-4.6469e-004
17232	7.9919	3.2727	0.	-6.4075e-004
17233	8.0837	3.2727	5.e-002	5.6903
17234	8.0837	3.	0.	-5.3052e-004
17235	7.9919	3.0909	0.	-7.8104e-004
17236	8.0837	3.0909	5.e-002	5.6905
17237	8.0837	2.8182	0.	-4.6448e-004
17238	7.9919	2.9091	0.	-7.8095e-004
17239	8.0837	2.9091	5.e-002	5.6905
17240	8.0837	2.6364	0.	-2.6676e-004
17241	7.9919	2.7273	0.	-6.4066e-004
17242	8.0837	2.7273	5.e-002	5.6903
17243	8.0837	2.4545	0.	6.2017e-005
17244	7.9919	2.5455	0.	-3.6048e-004
17245	8.0837	2.5455	5.e-002	5.6898
17246	8.0837	2.2727	0.	5.2335e-004
17247	7.9919	2.3636	0.	5.9158e-005
17248	8.0837	2.3636	5.e-002	5.689
17249	8.0837	2.0909	0.	1.1205e-003
17250	7.9919	2.1818	0.	6.223e-004
17251	8.0837	2.1818	5.e-002	5.6879
17252	8.0837	1.9091	0.	1.8564e-003
17253	7.9919	2.	0.	1.3318e-003
17254	8.0837	2.	5.e-002	5.6862
17255	8.0837	1.7273	0.	2.738e-003
17256	7.9919	1.8182	0.	2.1926e-003
17257	8.0837	1.8182	5.e-002	5.684
17258	8.0837	1.5455	0.	3.7838e-003
17259	7.9919	1.6364	0.	3.2165e-003
17260	8.0837	1.6364	5.e-002	5.6812
17261	8.0837	1.3636	0.	5.0115e-003
17262	7.9919	1.4545	0.	4.434e-003
17263	8.0837	1.4545	5.e-002	5.6775
17264	8.0837	1.1818	0.	6.5091e-003
17265	7.9919	1.2727	0.	5.8571e-003
17266	8.0837	1.2727	5.e-002	5.6728
17267	8.0837	1.	0.	8.2314e-003
17268	7.9919	1.0909	0.	7.6693e-003
17269	8.0837	1.0909	5.e-002	5.6671
17270	8.0837	0.81818	0.	1.1028e-002
17271	7.9919	0.90909	0.	9.6157e-003
17272	8.0837	0.90909	5.e-002	5.6602
17273	8.0837	0.63636	0.	1.2889e-002
17274	7.9919	0.72727	0.	1.3793e-002
17275	8.0837	0.72727	5.e-002	5.6509
17276	8.0837	0.45455	0.	2.9656e-002
17277	7.9919	0.54545	0.	1.4112e-002
17278	8.0837	0.54545	5.e-002	5.6254
17279	8.0837	0.27273	0.	5.2752e-002
17280	7.9919	0.36364	0.	5.1329e-002
17281	8.0837	0.36364	5.e-002	5.3713
17282	7.9919	0.18182	0.	0.17291
17283	8.0837	0.18182	5.e-002	1.7163
17284	8.0837	9.0909e-002	0.	0.40098
17285	7.9	5.7273	0.	5.4641e-002
17286	7.8081	5.8182	0.	0.13985
17287	7.9	5.8182	5.e-002	1.891
17288	7.9	5.9091	0.	0.23829
17289	7.9	5.5455	0.	3.2866e-002
17290	7.8081	5.6364	0.	5.6556e-002
17291	7.9	5.6364	5.e-002	5.426
17292	7.9	5.3636	0.	1.4276e-002
17293	7.8081	5.4545	0.	1.571e-002
17294	7.9	5.4545	5.e-002	5.673
17295	7.9	5.1818	0.	1.2076e-002
17296	7.8081	5.2727	0.	1.5184e-002
17297	7.9	5.2727	5.e-002	5.6985
17298	7.9	5.	0.	8.8925e-003
17299	7.8081	5.0909	0.	1.0467e-002
17300	7.9	5.0909	5.e-002	5.708
17301	7.9	4.8182	0.	6.9191e-003
17302	7.8081	4.9091	0.	8.236e-003
17303	7.9	4.9091	5.e-002	5.7151
17304	7.9	4.6364	0.	5.2132e-003
17305	7.8081	4.7273	0.	6.1758e-003
17306	7.9	4.7273	5.e-002	5.7209
17307	7.9	4.4545	0.	3.8179e-003
17308	7.8081	4.5455	0.	4.5603e-003
17309	7.9	4.5455	5.e-002	5.7255
17310	7.9	4.2727	0.	2.6328e-003
17311	7.8081	4.3636	0.	3.1827e-003
17312	7.9	4.3636	5.e-002	5.7291
17313	7.9	4.0909	0.	1.6365e-003
17314	7.8081	4.1818	0.	2.0265e-003
17315	7.9	4.1818	5.e-002	5.7319
17316	7.9	3.9091	0.	8.0663e-004
17317	7.8081	4.	0.	1.0565e-003
17318	7.9	4.	5.e-002	5.7339
17319	7.9	3.7273	0.	1.3429e-004
17320	7.8081	3.8182	0.	2.5912e-004
17321	7.9	3.8182	5.e-002	5.7354
17322	7.9	3.5455	0.	-3.8491e-004
17323	7.8081	3.6364	0.	-3.7384e-004
17324	7.9	3.6364	5.e-002	5.7363
17325	7.9	3.3636	0.	-7.5443e-004
17326	7.8081	3.4545	0.	-8.4479e-004
17327	7.9	3.4545	5.e-002	5.737
17328	7.9	3.1818	0.	-9.7649e-004
17329	7.8081	3.2727	0.	-1.1591e-003
17330	7.9	3.2727	5.e-002	5.7374
17331	7.9	3.	0.	-1.0506e-003
17332	7.8081	3.0909	0.	-1.3165e-003
17333	7.9	3.0909	5.e-002	5.7376
17334	7.9	2.8182	0.	-9.7653e-004
17335	7.8081	2.9091	0.	-1.3164e-003
17336	7.9	2.9091	5.e-002	5.7376
17337	7.9	2.6364	0.	-7.5449e-004
17338	7.8081	2.7273	0.	-1.159e-003
17339	7.9	2.7273	5.e-002	5.7373
17340	7.9	2.4545	0.	-3.8474e-004
17341	7.8081	2.5455	0.	-8.4485e-004
17342	7.9	2.5455	5.e-002	5.737
17343	7.9	2.2727	0.	1.347e-004
17344	7.8081	2.3636	0.	-3.7349e-004
17345	7.9	2.3636	5.e-002	5.7363
17346	7.9	2.0909	0.	8.0722e-004
17347	7.8081	2.1818	0.	2.5917e-004
17348	7.9	2.1818	5.e-002	5.7353
17349	7.9	1.9091	0.	1.6371e-003
17350	7.8081	2.	0.	1.0572e-003
17351	7.9	2.	5.e-002	5.7339
17352	7.9	1.7273	0.	2.6334e-003
17353	7.8081	1.8182	0.	2.0271e-003
17354	7.9	1.8182	5.e-002	5.7318
17355	7.9	1.5455	0.	3.8183e-003
17356	7.8081	1.6364	0.	3.1832e-003
17357	7.9	1.6364	5.e-002	5.729
17358	7.9	1.3636	0.	5.2136e-003
17359	7.8081	1.4545	0.	4.5609e-003
17360	7.9	1.4545	5.e-002	5.7254
17361	7.9	1.1818	0.	6.9198e-003
17362	7.8081	1.2727	0.	6.1765e-003
17363	7.9	1.2727	5.e-002	5.7208
17364	7.9	1.	0.	8.8936e-003
17365	7.8081	1.0909	0.	8.2367e-003
17366	7.9	1.0909	5.e-002	5.715
17367	7.9	0.81818	0.	1.2077e-002
17368	7.8081	0.90909	0.	1.0469e-002
17369	7.9	0.90909	5.e-002	5.7079
17370	7.9	0.63636	0.	1.4277e-002
17371	7.8081	0.72727	0.	1.5185e-002
17372	7.9	0.72727	5.e-002	5.6984
17373	7.9	0.45455	0.	3.2867e-002
17374	7.8081	0.54545	0.	1.5711e-002
17375	7.9	0.54545	5.e-002	5.6729
17376	7.9	0.27273	0.	5.4643e-002
17377	7.8081	0.36364	0.	5.6558e-002
17378	7.9	0.36364	5.e-002	5.4259
17379	7.8081	0.18182	0.	0.13986
17380	7.9	0.18182	5.e-002	1.8909
17381	7.9	9.0909e-002	0.	0.2383
17382	7.7163	5.7273	0.	5.7464e-002
17383	7.6244	5.8182	0.	0.12328
17384	7.7163	5.8182	5.e-002	2.0801
17385	7.7163	5.9091	0.	0.17571
17386	7.7163	5.5455	0.	3.6364e-002
17387	7.6244	5.6364	0.	6.226e-002
17388	7.7163	5.6364	5.e-002	5.4843
17389	7.7163	5.3636	0.	1.58e-002
17390	7.6244	5.4545	0.	1.7458e-002
17391	7.7163	5.4545	5.e-002	5.7234
17392	7.7163	5.1818	0.	1.3231e-002
17393	7.6244	5.2727	0.	1.6708e-002
17394	7.7163	5.2727	5.e-002	5.7488
17395	7.7163	5.	0.	9.6272e-003
17396	7.6244	5.0909	0.	1.1406e-002
17397	7.7163	5.0909	5.e-002	5.7586
17398	7.7163	4.8182	0.	7.3803e-003
17399	7.6244	4.9091	0.	8.8644e-003
17400	7.7163	4.9091	5.e-002	5.7659
17401	7.7163	4.6364	0.	5.4466e-003
17402	7.6244	4.7273	0.	6.5344e-003
17403	7.7163	4.7273	5.e-002	5.7717
17404	7.7163	4.4545	0.	3.8691e-003
17405	7.6244	4.5455	0.	4.7091e-003
17406	7.7163	4.5455	5.e-002	5.7762
17407	7.7163	4.2727	0.	2.5327e-003
17408	7.6244	4.3636	0.	3.1573e-003
17409	7.7163	4.3636	5.e-002	5.7797
17410	7.7163	4.0909	0.	1.4108e-003
17411	7.6244	4.1818	0.	1.8569e-003
17412	7.7163	4.1818	5.e-002	5.7823
17413	7.7163	3.9091	0.	4.7846e-004
17414	7.6244	4.	0.	7.681e-004
17415	7.7163	4.	5.e-002	5.7841
17416	7.7163	3.7273	0.	-2.7606e-004
17417	7.6244	3.8182	0.	-1.2606e-004
17418	7.7163	3.8182	5.e-002	5.7853
17419	7.7163	3.5455	0.	-8.5841e-004
17420	7.6244	3.6364	0.	-8.3491e-004
17421	7.7163	3.6364	5.e-002	5.7861
17422	7.7163	3.3636	0.	-1.2726e-003
17423	7.6244	3.4545	0.	-1.3621e-003
17424	7.7163	3.4545	5.e-002	5.7866
17425	7.7163	3.1818	0.	-1.5214e-003
17426	7.6244	3.2727	0.	-1.7137e-003
17427	7.7163	3.2727	5.e-002	5.7869
17428	7.7163	3.	0.	-1.6043e-003
17429	7.6244	3.0909	0.	-1.8894e-003
17430	7.7163	3.0909	5.e-002	5.787
17431	7.7163	2.8182	0.	-1.5212e-003
17432	7.6244	2.9091	0.	-1.8893e-003
17433	7.7163	2.9091	5.e-002	5.7869
17434	7.7163	2.6364	0.	-1.2726e-003
17435	7.6244	2.7273	0.	-1.7135e-003
17436	7.7163	2.7273	5.e-002	5.7868
17437	7.7163	2.4545	0.	-8.583e-004
17438	7.6244	2.5455	0.	-1.362e-003
17439	7.7163	2.5455	5.e-002	5.7866
17440	7.7163	2.2727	0.	-2.7607e-004
17441	7.6244	2.3636	0.	-8.345e-004
17442	7.7163	2.3636	5.e-002	5.7861
17443	7.7163	2.0909	0.	4.7861e-004
17444	7.6244	2.1818	0.	-1.2607e-004
17445	7.7163	2.1818	5.e-002	5.7853
17446	7.7163	1.9091	0.	1.4115e-003
17447	7.6244	2.	0.	7.6859e-004
17448	7.7163	2.	5.e-002	5.784
17449	7.7163	1.7273	0.	2.5332e-003
17450	7.6244	1.8182	0.	1.8575e-003
17451	7.7163	1.8182	5.e-002	5.7822
17452	7.7163	1.5455	0.	3.8697e-003
17453	7.6244	1.6364	0.	3.1577e-003
17454	7.7163	1.6364	5.e-002	5.7796
17455	7.7163	1.3636	0.	5.4474e-003
17456	7.6244	1.4545	0.	4.7098e-003
17457	7.7163	1.4545	5.e-002	5.7762
17458	7.7163	1.1818	0.	7.3809e-003
17459	7.6244	1.2727	0.	6.5352e-003
17460	7.7163	1.2727	5.e-002	5.7716
17461	7.7163	1.	0.	9.6284e-003
17462	7.6244	1.0909	0.	8.8652e-003
17463	7.7163	1.0909	5.e-002	5.7658
17464	7.7163	0.81818	0.	1.3232e-002
17465	7.6244	0.90909	0.	1.1407e-002
17466	7.7163	0.90909	5.e-002	5.7585
17467	7.7163	0.63636	0.	1.58e-002
17468	7.6244	0.72727	0.	1.6709e-002
17469	7.7163	0.72727	5.e-002	5.7487
17470	7.7163	0.45455	0.	3.6365e-002
17471	7.6244	0.54545	0.	1.7459e-002
17472	7.7163	0.54545	5.e-002	5.7233
17473	7.7163	0.27273	0.	5.7465e-002
17474	7.6244	0.36364	0.	6.2261e-002
17475	7.7163	0.36364	5.e-002	5.4841
17476	7.6244	0.18182	0.	0.12328
17477	7.7163	0.18182	5.e-002	2.08
17478	7.7163	9.0909e-002	0.	0.17572
17479	7.5326	5.7273	0.	6.1068e-002
17480	7.4407	5.8182	0.	0.11474
17481	7.5326	5.8182	5.e-002	2.2849
17482	7.5326	5.9091	0.	0.14794
17483	7.5326	5.5455	0.	4.017e-002
17484	7.4407	5.6364	0.	6.8473e-002
17485	7.5326	5.6364	5.e-002	5.5465
17486	7.5326	5.3636	0.	1.7463e-002
17487	7.4407	5.4545	0.	1.9367e-002
17488	7.5326	5.4545	5.e-002	5.7771
17489	7.5326	5.1818	0.	1.4495e-002
17490	7.4407	5.2727	0.	1.8371e-002
17491	7.5326	5.2727	5.e-002	5.8023
17492	7.5326	5.	0.	1.0435e-002
17493	7.4407	5.0909	0.	1.2434e-002
17494	7.5326	5.0909	5.e-002	5.8123
17495	7.5326	4.8182	0.	7.8899e-003
17496	7.4407	4.9091	0.	9.5548e-003
17497	7.5326	4.9091	5.e-002	5.8198
17498	7.5326	4.6364	0.	5.7092e-003
17499	7.4407	4.7273	0.	6.9315e-003
17500	7.5326	4.7273	5.e-002	5.8256
17501	7.5326	4.4545	0.	3.9329e-003
17502	7.4407	4.5455	0.	4.8779e-003
17503	7.5326	4.5455	5.e-002	5.83
17504	7.5326	4.2727	0.	2.4313e-003
17505	7.4407	4.3636	0.	3.136e-003
17506	7.5326	4.3636	5.e-002	5.8333
17507	7.5326	4.0909	0.	1.1731e-003
17508	7.4407	4.1818	0.	1.6787e-003
17509	7.5326	4.1818	5.e-002	5.8355
17510	7.5326	3.9091	0.	1.2849e-004
17511	7.4407	4.	0.	4.6036e-004
17512	7.5326	4.	5.e-002	5.8371
17513	7.5326	3.7273	0.	-7.1593e-004
17514	7.4407	3.8182	0.	-5.393e-004
17515	7.5326	3.8182	5.e-002	5.838
17516	7.5326	3.5455	0.	-1.3669e-003
17517	7.4407	3.6364	0.	-1.3306e-003
17518	7.5326	3.6364	5.e-002	5.8386
17519	7.5326	3.3636	0.	-1.8298e-003
17520	7.4407	3.4545	0.	-1.919e-003
17521	7.5326	3.4545	5.e-002	5.8388
17522	7.5326	3.1818	0.	-2.1073e-003
17523	7.4407	3.2727	0.	-2.3112e-003
17524	7.5326	3.2727	5.e-002	5.839
17525	7.5326	3.	0.	-2.1997e-003
17526	7.4407	3.0909	0.	-2.5071e-003
17527	7.5326	3.0909	5.e-002	5.839
17528	7.5326	2.8182	0.	-2.1071e-003
17529	7.4407	2.9091	0.	-2.507e-003
17530	7.5326	2.9091	5.e-002	5.839
17531	7.5326	2.6364	0.	-1.8294e-003
17532	7.4407	2.7273	0.	-2.3109e-003
17533	7.5326	2.7273	5.e-002	5.8389
17534	7.5326	2.4545	0.	-1.3665e-003
17535	7.4407	2.5455	0.	-1.919e-003
17536	7.5326	2.5455	5.e-002	5.8388
17537	7.5326	2.2727	0.	-7.1552e-004
17538	7.4407	2.3636	0.	-1.3303e-003
17539	7.5326	2.3636	5.e-002	5.8385
17540	7.5326	2.0909	0.	1.2884e-004
17541	7.4407	2.1818	0.	-5.3884e-004
17542	7.5326	2.1818	5.e-002	5.838
17543	7.5326	1.9091	0.	1.1735e-003
17544	7.4407	2.	0.	4.6083e-004
17545	7.5326	2.	5.e-002	5.837
17546	7.5326	1.7273	0.	2.4318e-003
17547	7.4407	1.8182	0.	1.6792e-003
17548	7.5326	1.8182	5.e-002	5.8355
17549	7.5326	1.5455	0.	3.9335e-003
17550	7.4407	1.6364	0.	3.1364e-003
17551	7.5326	1.6364	5.e-002	5.8332
17552	7.5326	1.3636	0.	5.7099e-003
17553	7.4407	1.4545	0.	4.8785e-003
17554	7.5326	1.4545	5.e-002	5.8299
17555	7.5326	1.1818	0.	7.8908e-003
17556	7.4407	1.2727	0.	6.9323e-003
17557	7.5326	1.2727	5.e-002	5.8255
17558	7.5326	1.	0.	1.0436e-002
17559	7.4407	1.0909	0.	9.5556e-003
17560	7.5326	1.0909	5.e-002	5.8197
17561	7.5326	0.81818	0.	1.4496e-002
17562	7.4407	0.90909	0.	1.2435e-002
17563	7.5326	0.90909	5.e-002	5.8122
17564	7.5326	0.63636	0.	1.7464e-002
17565	7.4407	0.72727	0.	1.8372e-002
17566	7.5326	0.72727	5.e-002	5.8022
17567	7.5326	0.45455	0.	4.017e-002
17568	7.4407	0.54545	0.	1.9367e-002
17569	7.5326	0.54545	5.e-002	5.777
17570	7.5326	0.27273	0.	6.107e-002
17571	7.4407	0.36364	0.	6.8475e-002
17572	7.5326	0.36364	5.e-002	5.5464
17573	7.4407	0.18182	0.	0.11474
17574	7.5326	0.18182	5.e-002	2.2847
17575	7.5326	9.0909e-002	0.	0.14794
17576	7.3488	5.7273	0.	6.5392e-002
17577	7.257	5.8182	0.	0.11086
17578	7.3488	5.8182	5.e-002	2.5066
17579	7.3488	5.9091	0.	0.13434
17580	7.3488	5.5455	0.	4.4308e-002
17581	7.257	5.6364	0.	7.5245e-002
17582	7.3488	5.6364	5.e-002	5.6134
17583	7.3488	5.3636	0.	1.9278e-002
17584	7.257	5.4545	0.	2.1454e-002
17585	7.3488	5.4545	5.e-002	5.8345
17586	7.3488	5.1818	0.	1.5875e-002
17587	7.257	5.2727	0.	2.0189e-002
17588	7.3488	5.2727	5.e-002	5.8595
17589	7.3488	5.	0.	1.1319e-002
17590	7.257	5.0909	0.	1.3562e-002
17591	7.3488	5.0909	5.e-002	5.8697
17592	7.3488	4.8182	0.	8.4502e-003
17593	7.257	4.9091	0.	1.0316e-002
17594	7.3488	4.9091	5.e-002	5.8771
17595	7.3488	4.6364	0.	6.0002e-003
17596	7.257	4.7273	0.	7.3734e-003
17597	7.3488	4.7273	5.e-002	5.8828
17598	7.3488	4.4545	0.	4.0075e-003
17599	7.257	4.5455	0.	5.0712e-003
17600	7.3488	4.5455	5.e-002	5.8871
17601	7.3488	4.2727	0.	2.3261e-003
17602	7.257	4.3636	0.	3.1226e-003
17603	7.3488	4.3636	5.e-002	5.89
17604	7.3488	4.0909	0.	9.1907e-004
17605	7.257	4.1818	0.	1.4945e-003
17606	7.3488	4.1818	5.e-002	5.892
17607	7.3488	3.9091	0.	-2.4744e-004
17608	7.257	4.	0.	1.3496e-004
17609	7.3488	4.	5.e-002	5.8932
17610	7.3488	3.7273	0.	-1.1894e-003
17611	7.257	3.8182	0.	-9.7937e-004
17612	7.3488	3.8182	5.e-002	5.8938
17613	7.3488	3.5455	0.	-1.915e-003
17614	7.257	3.6364	0.	-1.8607e-003
17615	7.3488	3.6364	5.e-002	5.894
17616	7.3488	3.3636	0.	-2.4307e-003
17617	7.257	3.4545	0.	-2.5159e-003
17618	7.3488	3.4545	5.e-002	5.894
17619	7.3488	3.1818	0.	-2.74e-003
17620	7.257	3.2727	0.	-2.9522e-003
17621	7.3488	3.2727	5.e-002	5.8939
17622	7.3488	3.	0.	-2.8431e-003
17623	7.257	3.0909	0.	-3.17e-003
17624	7.3488	3.0909	5.e-002	5.8939
17625	7.3488	2.8182	0.	-2.7398e-003
17626	7.257	2.9091	0.	-3.1699e-003
17627	7.3488	2.9091	5.e-002	5.8938
17628	7.3488	2.6364	0.	-2.4307e-003
17629	7.257	2.7273	0.	-2.9519e-003
17630	7.3488	2.7273	5.e-002	5.8939
17631	7.3488	2.4545	0.	-1.915e-003
17632	7.257	2.5455	0.	-2.5157e-003
17633	7.3488	2.5455	5.e-002	5.894
17634	7.3488	2.2727	0.	-1.1889e-003
17635	7.257	2.3636	0.	-1.8604e-003
17636	7.3488	2.3636	5.e-002	5.894
17637	7.3488	2.0909	0.	-2.4685e-004
17638	7.257	2.1818	0.	-9.7894e-004
17639	7.3488	2.1818	5.e-002	5.8937
17640	7.3488	1.9091	0.	9.196e-004
17641	7.257	2.	0.	1.3546e-004
17642	7.3488	2.	5.e-002	5.8931
17643	7.3488	1.7273	0.	2.3265e-003
17644	7.257	1.8182	0.	1.495e-003
17645	7.3488	1.8182	5.e-002	5.8919
17646	7.3488	1.5455	0.	4.008e-003
17647	7.257	1.6364	0.	3.1232e-003
17648	7.3488	1.6364	5.e-002	5.89
17649	7.3488	1.3636	0.	6.0009e-003
17650	7.257	1.4545	0.	5.0718e-003
17651	7.3488	1.4545	5.e-002	5.887
17652	7.3488	1.1818	0.	8.451e-003
17653	7.257	1.2727	0.	7.3743e-003
17654	7.3488	1.2727	5.e-002	5.8828
17655	7.3488	1.	0.	1.132e-002
17656	7.257	1.0909	0.	1.0317e-002
17657	7.3488	1.0909	5.e-002	5.8771
17658	7.3488	0.81818	0.	1.5876e-002
17659	7.257	0.90909	0.	1.3564e-002
17660	7.3488	0.90909	5.e-002	5.8695
17661	7.3488	0.63636	0.	1.9279e-002
17662	7.257	0.72727	0.	2.019e-002
17663	7.3488	0.72727	5.e-002	5.8593
17664	7.3488	0.45455	0.	4.4309e-002
17665	7.257	0.54545	0.	2.1454e-002
17666	7.3488	0.54545	5.e-002	5.8344
17667	7.3488	0.27273	0.	6.5393e-002
17668	7.257	0.36364	0.	7.5247e-002
17669	7.3488	0.36364	5.e-002	5.6132
17670	7.257	0.18182	0.	0.11087
17671	7.3488	0.18182	5.e-002	2.5064
17672	7.3488	9.0909e-002	0.	0.13434
17673	7.1651	5.7273	0.	7.0429e-002
17674	7.0733	5.8182	0.	0.11013
17675	7.1651	5.8182	5.e-002	2.7466
17676	7.1651	5.9091	0.	0.12779
17677	7.1651	5.5455	0.	4.8821e-002
17678	7.0733	5.6364	0.	8.2631e-002
17679	7.1651	5.6364	5.e-002	5.6852
17680	7.1651	5.3636	0.	2.1267e-002
17681	7.0733	5.4545	0.	2.3742e-002
17682	7.1651	5.4545	5.e-002	5.8959
17683	7.1651	5.1818	0.	1.739e-002
17684	7.0733	5.2727	0.	2.2179e-002
17685	7.1651	5.2727	5.e-002	5.9206
17686	7.1651	5.	0.	1.2295e-002
17687	7.0733	5.0909	0.	1.4804e-002
17688	7.1651	5.0909	5.e-002	5.931
17689	7.1651	4.8182	0.	9.074e-003
17690	7.0733	4.9091	0.	1.1158e-002
17691	7.1651	4.9091	5.e-002	5.9385
17692	7.1651	4.6364	0.	6.3312e-003
17693	7.0733	4.7273	0.	7.8685e-003
17694	7.1651	4.7273	5.e-002	5.944
17695	7.1651	4.4545	0.	4.103e-003
17696	7.0733	4.5455	0.	5.2959e-003
17697	7.1651	4.5455	5.e-002	5.948
17698	7.1651	4.2727	0.	2.226e-003
17699	7.0733	4.3636	0.	3.1222e-003
17700	7.1651	4.3636	5.e-002	5.9505
17701	7.1651	4.0909	0.	6.5715e-004
17702	7.0733	4.1818	0.	1.3081e-003
17703	7.1651	4.1818	5.e-002	5.952
17704	7.1651	3.9091	0.	-6.4235e-004
17705	7.0733	4.	0.	-2.0514e-004
17706	7.1651	4.	5.e-002	5.9527
17707	7.1651	3.7273	0.	-1.6907e-003
17708	7.0733	3.8182	0.	-1.4443e-003
17709	7.1651	3.8182	5.e-002	5.9529
17710	7.1651	3.5455	0.	-2.4981e-003
17711	7.0733	3.6364	0.	-2.4237e-003
17712	7.1651	3.6364	5.e-002	5.9527
17713	7.1651	3.3636	0.	-3.0716e-003
17714	7.0733	3.4545	0.	-3.1517e-003
17715	7.1651	3.4545	5.e-002	5.9524
17716	7.1651	3.1818	0.	-3.4151e-003
17717	7.0733	3.2727	0.	-3.636e-003
17718	7.1651	3.2727	5.e-002	5.9521
17719	7.1651	3.	0.	-3.5294e-003
17720	7.0733	3.0909	0.	-3.8777e-003
17721	7.1651	3.0909	5.e-002	5.9519
17722	7.1651	2.8182	0.	-3.4149e-003
17723	7.0733	2.9091	0.	-3.8778e-003
17724	7.1651	2.9091	5.e-002	5.9519
17725	7.1651	2.6364	0.	-3.0711e-003
17726	7.0733	2.7273	0.	-3.6357e-003
17727	7.1651	2.7273	5.e-002	5.9521
17728	7.1651	2.4545	0.	-2.4976e-003
17729	7.0733	2.5455	0.	-3.1514e-003
17730	7.1651	2.5455	5.e-002	5.9524
17731	7.1651	2.2727	0.	-1.6905e-003
17732	7.0733	2.3636	0.	-2.4235e-003
17733	7.1651	2.3636	5.e-002	5.9526
17734	7.1651	2.0909	0.	-6.42e-004
17735	7.0733	2.1818	0.	-1.444e-003
17736	7.1651	2.1818	5.e-002	5.9529
17737	7.1651	1.9091	0.	6.5762e-004
17738	7.0733	2.	0.	-2.0482e-004
17739	7.1651	2.	5.e-002	5.9527
17740	7.1651	1.7273	0.	2.2266e-003
17741	7.0733	1.8182	0.	1.3086e-003
17742	7.1651	1.8182	5.e-002	5.952
17743	7.1651	1.5455	0.	4.1037e-003
17744	7.0733	1.6364	0.	3.1229e-003
17745	7.1651	1.6364	5.e-002	5.9505
17746	7.1651	1.3636	0.	6.332e-003
17747	7.0733	1.4545	0.	5.2966e-003
17748	7.1651	1.4545	5.e-002	5.9478
17749	7.1651	1.1818	0.	9.0747e-003
17750	7.0733	1.2727	0.	7.8693e-003
17751	7.1651	1.2727	5.e-002	5.944
17752	7.1651	1.	0.	1.2296e-002
17753	7.0733	1.0909	0.	1.1158e-002
17754	7.1651	1.0909	5.e-002	5.9383
17755	7.1651	0.81818	0.	1.7392e-002
17756	7.0733	0.90909	0.	1.4806e-002
17757	7.1651	0.90909	5.e-002	5.9308
17758	7.1651	0.63636	0.	2.1268e-002
17759	7.0733	0.72727	0.	2.218e-002
17760	7.1651	0.72727	5.e-002	5.9205
17761	7.1651	0.45455	0.	4.8822e-002
17762	7.0733	0.54545	0.	2.3742e-002
17763	7.1651	0.54545	5.e-002	5.8958
17764	7.1651	0.27273	0.	7.043e-002
17765	7.0733	0.36364	0.	8.2632e-002
17766	7.1651	0.36364	5.e-002	5.685
17767	7.0733	0.18182	0.	0.11013
17768	7.1651	0.18182	5.e-002	2.7464
17769	7.1651	9.0909e-002	0.	0.1278
17770	6.9814	5.7273	0.	7.6196e-002
17771	6.8895	5.8182	0.	0.11177
17772	6.9814	5.8182	5.e-002	3.0062
17773	6.9814	5.9091	0.	0.12535
17774	6.9814	5.5455	0.	5.3741e-002
17775	6.8895	5.6364	0.	9.0681e-002
17776	6.9814	5.6364	5.e-002	5.7625
17777	6.9814	5.3636	0.	2.3446e-002
17778	6.8895	5.4545	0.	2.6248e-002
17779	6.9814	5.4545	5.e-002	5.9619
17780	6.9814	5.1818	0.	1.9052e-002
17781	6.8895	5.2727	0.	2.4354e-002
17782	6.9814	5.2727	5.e-002	5.9862
17783	6.9814	5.	0.	1.337e-002
17784	6.8895	5.0909	0.	1.6166e-002
17785	6.9814	5.0909	5.e-002	5.9966
17786	6.9814	4.8182	0.	9.7666e-003
17787	6.8895	4.9091	0.	1.2085e-002
17788	6.9814	4.9091	5.e-002	6.004
17789	6.9814	4.6364	0.	6.7057e-003
17790	6.8895	4.7273	0.	8.4182e-003
17791	6.9814	4.7273	5.e-002	6.0093
17792	6.9814	4.4545	0.	4.2211e-003
17793	6.8895	4.5455	0.	5.5513e-003
17794	6.9814	4.5455	5.e-002	6.0129
17795	6.9814	4.2727	0.	2.1309e-003
17796	6.8895	4.3636	0.	3.1326e-003
17797	6.9814	4.3636	5.e-002	6.015
17798	6.9814	4.0909	0.	3.8572e-004
17799	6.8895	4.1818	0.	1.1162e-003
17800	6.9814	4.1818	5.e-002	6.0159
17801	6.9814	3.9091	0.	-1.0583e-003
17802	6.8895	4.	0.	-5.6453e-004
17803	6.9814	4.	5.e-002	6.0161
17804	6.9814	3.7273	0.	-2.2225e-003
17805	6.8895	3.8182	0.	-1.9394e-003
17806	6.9814	3.8182	5.e-002	6.0157
17807	6.9814	3.5455	0.	-3.1185e-003
17808	6.8895	3.6364	0.	-3.0256e-003
17809	6.9814	3.6364	5.e-002	6.0151
17810	6.9814	3.3636	0.	-3.7547e-003
17811	6.8895	3.4545	0.	-3.8326e-003
17812	6.9814	3.4545	5.e-002	6.0143
17813	6.9814	3.1818	0.	-4.1357e-003
17814	6.8895	3.2727	0.	-4.3691e-003
17815	6.9814	3.2727	5.e-002	6.0138
17816	6.9814	3.	0.	-4.2627e-003
17817	6.8895	3.0909	0.	-4.6371e-003
17818	6.9814	3.0909	5.e-002	6.0134
17819	6.9814	2.8182	0.	-4.1357e-003
17820	6.8895	2.9091	0.	-4.6372e-003
17821	6.9814	2.9091	5.e-002	6.0134
17822	6.9814	2.6364	0.	-3.7546e-003
17823	6.8895	2.7273	0.	-4.369e-003
17824	6.9814	2.7273	5.e-002	6.0138
17825	6.9814	2.4545	0.	-3.1185e-003
17826	6.8895	2.5455	0.	-3.8327e-003
17827	6.9814	2.5455	5.e-002	6.0143
17828	6.9814	2.2727	0.	-2.2223e-003
17829	6.8895	2.3636	0.	-3.0253e-003
17830	6.9814	2.3636	5.e-002	6.015
17831	6.9814	2.0909	0.	-1.058e-003
17832	6.8895	2.1818	0.	-1.939e-003
17833	6.9814	2.1818	5.e-002	6.0156
17834	6.9814	1.9091	0.	3.8609e-004
17835	6.8895	2.	0.	-5.6424e-004
17836	6.9814	2.	5.e-002	6.0161
17837	6.9814	1.7273	0.	2.1315e-003
17838	6.8895	1.8182	0.	1.1167e-003
17839	6.9814	1.8182	5.e-002	6.0159
17840	6.9814	1.5455	0.	4.2217e-003
17841	6.8895	1.6364	0.	3.1332e-003
17842	6.9814	1.6364	5.e-002	6.0149
17843	6.9814	1.3636	0.	6.7063e-003
17844	6.8895	1.4545	0.	5.5521e-003
17845	6.9814	1.4545	5.e-002	6.0128
17846	6.9814	1.1818	0.	9.7672e-003
17847	6.8895	1.2727	0.	8.4187e-003
17848	6.9814	1.2727	5.e-002	6.0093
17849	6.9814	1.	0.	1.3371e-002
17850	6.8895	1.0909	0.	1.2085e-002
17851	6.9814	1.0909	5.e-002	6.0039
17852	6.9814	0.81818	0.	1.9053e-002
17853	6.8895	0.90909	0.	1.6168e-002
17854	6.9814	0.90909	5.e-002	5.9965
17855	6.9814	0.63636	0.	2.3446e-002
17856	6.8895	0.72727	0.	2.4355e-002
17857	6.9814	0.72727	5.e-002	5.986
17858	6.9814	0.45455	0.	5.3742e-002
17859	6.8895	0.54545	0.	2.6248e-002
17860	6.9814	0.54545	5.e-002	5.9618
17861	6.9814	0.27273	0.	7.6197e-002
17862	6.8895	0.36364	0.	9.0683e-002
17863	6.9814	0.36364	5.e-002	5.7624
17864	6.8895	0.18182	0.	0.11177
17865	6.9814	0.18182	5.e-002	3.0061
17866	6.9814	9.0909e-002	0.	0.12535
17867	6.7977	5.7273	0.	8.2727e-002
17868	6.7058	5.8182	0.	0.11539
17869	6.7977	5.8182	5.e-002	3.2871
17870	6.7977	5.9091	0.	0.12559
17871	6.7977	5.5455	0.	5.9102e-002
17872	6.7058	5.6364	0.	9.9456e-002
17873	6.7977	5.6364	5.e-002	5.8459
17874	6.7977	5.3636	0.	2.5826e-002
17875	6.7058	5.4545	0.	2.8989e-002
17876	6.7977	5.4545	5.e-002	6.0328
17877	6.7977	5.1818	0.	2.0867e-002
17878	6.7058	5.2727	0.	2.6729e-002
17879	6.7977	5.2727	5.e-002	6.0566
17880	6.7977	5.	0.	1.4548e-002
17881	6.7058	5.0909	0.	1.7656e-002
17882	6.7977	5.0909	5.e-002	6.0671
17883	6.7977	4.8182	0.	1.0528e-002
17884	6.7058	4.9091	0.	1.3101e-002
17885	6.7977	4.9091	5.e-002	6.0744
17886	6.7977	4.6364	0.	7.1204e-003
17887	6.7058	4.7273	0.	9.0241e-003
17888	6.7977	4.7273	5.e-002	6.0793
17889	6.7977	4.4545	0.	4.357e-003
17890	6.7058	4.5455	0.	5.8372e-003
17891	6.7977	4.5455	5.e-002	6.0824
17892	6.7977	4.2727	0.	2.0353e-003
17893	6.7058	4.3636	0.	3.1521e-003
17894	6.7977	4.3636	5.e-002	6.0839
17895	6.7977	4.0909	0.	9.8304e-005
17896	6.7058	4.1818	0.	9.1548e-004
17897	6.7977	4.1818	5.e-002	6.0842
17898	6.7977	3.9091	0.	-1.5032e-003
17899	6.7058	4.	0.	-9.4725e-004
17900	6.7977	4.	5.e-002	6.0836
17901	6.7977	3.7273	0.	-2.7934e-003
17902	6.7058	3.8182	0.	-2.4699e-003
17903	6.7977	3.8182	5.e-002	6.0826
17904	6.7977	3.5455	0.	-3.786e-003
17905	6.7058	3.6364	0.	-3.6723e-003
17906	6.7977	3.6364	5.e-002	6.0813
17907	6.7977	3.3636	0.	-4.4905e-003
17908	6.7058	3.4545	0.	-4.5654e-003
17909	6.7977	3.4545	5.e-002	6.0802
17910	6.7977	3.1818	0.	-4.9123e-003
17911	6.7058	3.2727	0.	-5.1588e-003
17912	6.7977	3.2727	5.e-002	6.0793
17913	6.7977	3.	0.	-5.0529e-003
17914	6.7058	3.0909	0.	-5.4552e-003
17915	6.7977	3.0909	5.e-002	6.0788
17916	6.7977	2.8182	0.	-4.9123e-003
17917	6.7058	2.9091	0.	-5.4552e-003
17918	6.7977	2.9091	5.e-002	6.0788
17919	6.7977	2.6364	0.	-4.4905e-003
17920	6.7058	2.7273	0.	-5.1586e-003
17921	6.7977	2.7273	5.e-002	6.0793
17922	6.7977	2.4545	0.	-3.7858e-003
17923	6.7058	2.5455	0.	-4.5654e-003
17924	6.7977	2.5455	5.e-002	6.0801
17925	6.7977	2.2727	0.	-2.7929e-003
17926	6.7058	2.3636	0.	-3.6718e-003
17927	6.7977	2.3636	5.e-002	6.0813
17928	6.7977	2.0909	0.	-1.5029e-003
17929	6.7058	2.1818	0.	-2.4696e-003
17930	6.7977	2.1818	5.e-002	6.0826
17931	6.7977	1.9091	0.	9.8797e-005
17932	6.7058	2.	0.	-9.469e-004
17933	6.7977	2.	5.e-002	6.0836
17934	6.7977	1.7273	0.	2.0359e-003
17935	6.7058	1.8182	0.	9.1609e-004
17936	6.7977	1.8182	5.e-002	6.0841
17937	6.7977	1.5455	0.	4.3579e-003
17938	6.7058	1.6364	0.	3.1527e-003
17939	6.7977	1.6364	5.e-002	6.0838
17940	6.7977	1.3636	0.	7.1213e-003
17941	6.7058	1.4545	0.	5.8381e-003
17942	6.7977	1.4545	5.e-002	6.0823
17943	6.7977	1.1818	0.	1.0529e-002
17944	6.7058	1.2727	0.	9.0248e-003
17945	6.7977	1.2727	5.e-002	6.0792
17946	6.7977	1.	0.	1.455e-002
17947	6.7058	1.0909	0.	1.3102e-002
17948	6.7977	1.0909	5.e-002	6.0743
17949	6.7977	0.81818	0.	2.0868e-002
17950	6.7058	0.90909	0.	1.7658e-002
17951	6.7977	0.90909	5.e-002	6.067
17952	6.7977	0.63636	0.	2.5827e-002
17953	6.7058	0.72727	0.	2.6729e-002
17954	6.7977	0.72727	5.e-002	6.0565
17955	6.7977	0.45455	0.	5.9103e-002
17956	6.7058	0.54545	0.	2.899e-002
17957	6.7977	0.54545	5.e-002	6.0327
17958	6.7977	0.27273	0.	8.2729e-002
17959	6.7058	0.36364	0.	9.9458e-002
17960	6.7977	0.36364	5.e-002	5.8457
17961	6.7058	0.18182	0.	0.1154
17962	6.7977	0.18182	5.e-002	3.287
17963	6.7977	9.0909e-002	0.	0.12559
17964	6.614	5.7273	0.	9.0079e-002
17965	6.5221	5.8182	0.	0.12084
17966	6.614	5.8182	5.e-002	3.5909
17967	6.614	5.9091	0.	0.12779
17968	6.614	5.5455	0.	6.4945e-002
17969	6.5221	5.6364	0.	0.10903
17970	6.614	5.6364	5.e-002	5.9359
17971	6.614	5.3636	0.	2.8428e-002
17972	6.5221	5.4545	0.	3.1996e-002
17973	6.614	5.4545	5.e-002	6.1094
17974	6.614	5.1818	0.	2.285e-002
17975	6.5221	5.2727	0.	2.9327e-002
17976	6.614	5.2727	5.e-002	6.1326
17977	6.614	5.	0.	1.5839e-002
17978	6.5221	5.0909	0.	1.9292e-002
17979	6.614	5.0909	5.e-002	6.1429
17980	6.614	4.8182	0.	1.1365e-002
17981	6.5221	4.9091	0.	1.4221e-002
17982	6.614	4.9091	5.e-002	6.15
17983	6.614	4.6364	0.	7.5805e-003
17984	6.5221	4.7273	0.	9.6976e-003
17985	6.614	4.7273	5.e-002	6.1545
17986	6.614	4.4545	0.	4.5138e-003
17987	6.5221	4.5455	0.	6.1625e-003
17988	6.614	4.5455	5.e-002	6.157
17989	6.614	4.2727	0.	1.9397e-003
17990	6.5221	4.3636	0.	3.1874e-003
17991	6.614	4.3636	5.e-002	6.1577
17992	6.614	4.0909	0.	-2.0589e-004
17993	6.5221	4.1818	0.	7.1114e-004
17994	6.614	4.1818	5.e-002	6.1572
17995	6.614	3.9091	0.	-1.9786e-003
17996	6.5221	4.	0.	-1.3496e-003
17997	6.614	4.	5.e-002	6.1558
17998	6.614	3.7273	0.	-3.4059e-003
17999	6.5221	3.8182	0.	-3.033e-003
18000	6.614	3.8182	5.e-002	6.154
18001	6.614	3.5455	0.	-4.5036e-003
18002	6.5221	3.6364	0.	-4.3617e-003
18003	6.614	3.6364	5.e-002	6.1521
18004	6.614	3.3636	0.	-5.2824e-003
18005	6.5221	3.4545	0.	-5.3484e-003
18006	6.614	3.4545	5.e-002	6.1503
18007	6.614	3.1818	0.	-5.7485e-003
18008	6.5221	3.2727	0.	-6.0037e-003
18009	6.614	3.2727	5.e-002	6.1491
18010	6.614	3.	0.	-5.9038e-003
18011	6.5221	3.0909	0.	-6.3309e-003
18012	6.614	3.0909	5.e-002	6.1484
18013	6.614	2.8182	0.	-5.7483e-003
18014	6.5221	2.9091	0.	-6.3308e-003
18015	6.614	2.9091	5.e-002	6.1484
18016	6.614	2.6364	0.	-5.2822e-003
18017	6.5221	2.7273	0.	-6.0035e-003
18018	6.614	2.7273	5.e-002	6.1491
18019	6.614	2.4545	0.	-4.5034e-003
18020	6.5221	2.5455	0.	-5.3482e-003
18021	6.614	2.5455	5.e-002	6.1503
18022	6.614	2.2727	0.	-3.4055e-003
18023	6.5221	2.3636	0.	-4.3613e-003
18024	6.614	2.3636	5.e-002	6.152
18025	6.614	2.0909	0.	-1.9782e-003
18026	6.5221	2.1818	0.	-3.0327e-003
18027	6.614	2.1818	5.e-002	6.1539
18028	6.614	1.9091	0.	-2.0543e-004
18029	6.5221	2.	0.	-1.3493e-003
18030	6.614	2.	5.e-002	6.1557
18031	6.614	1.7273	0.	1.9402e-003
18032	6.5221	1.8182	0.	7.1161e-004
18033	6.614	1.8182	5.e-002	6.1571
18034	6.614	1.5455	0.	4.5143e-003
18035	6.5221	1.6364	0.	3.188e-003
18036	6.614	1.6364	5.e-002	6.1576
18037	6.614	1.3636	0.	7.5812e-003
18038	6.5221	1.4545	0.	6.1631e-003
18039	6.614	1.4545	5.e-002	6.1569
18040	6.614	1.1818	0.	1.1365e-002
18041	6.5221	1.2727	0.	9.6984e-003
18042	6.614	1.2727	5.e-002	6.1544
18043	6.614	1.	0.	1.584e-002
18044	6.5221	1.0909	0.	1.4222e-002
18045	6.614	1.0909	5.e-002	6.1499
18046	6.614	0.81818	0.	2.2852e-002
18047	6.5221	0.90909	0.	1.9294e-002
18048	6.614	0.90909	5.e-002	6.1429
18049	6.614	0.63636	0.	2.8429e-002
18050	6.5221	0.72727	0.	2.9327e-002
18051	6.614	0.72727	5.e-002	6.1323
18052	6.614	0.45455	0.	6.4946e-002
18053	6.5221	0.54545	0.	3.1997e-002
18054	6.614	0.54545	5.e-002	6.1092
18055	6.614	0.27273	0.	9.0081e-002
18056	6.5221	0.36364	0.	0.10903
18057	6.614	0.36364	5.e-002	5.9358
18058	6.5221	0.18182	0.	0.12084
18059	6.614	0.18182	5.e-002	3.5907
18060	6.614	9.0909e-002	0.	0.12779
18061	6.4302	5.7273	0.	9.8337e-002
18062	6.3384	5.8182	0.	0.12808
18063	6.4302	5.8182	5.e-002	3.9192
18064	6.4302	5.9091	0.	0.13154
18065	6.4302	5.5455	0.	7.1327e-002
18066	6.3384	5.6364	0.	0.11948
18067	6.4302	5.6364	5.e-002	6.0333
18068	6.4302	5.3636	0.	3.1285e-002
18069	6.3384	5.4545	0.	3.5299e-002
18070	6.4302	5.4545	5.e-002	6.1921
18071	6.4302	5.1818	0.	2.5029e-002
18072	6.3384	5.2727	0.	3.2172e-002
18073	6.4302	5.2727	5.e-002	6.2145
18074	6.4302	5.	0.	1.7263e-002
18075	6.3384	5.0909	0.	2.1091e-002
18076	6.4302	5.0909	5.e-002	6.2249
18077	6.4302	4.8182	0.	1.2295e-002
18078	6.3384	4.9091	0.	1.5457e-002
18079	6.4302	4.9091	5.e-002	6.2316
18080	6.4302	4.6364	0.	8.1004e-003
18081	6.3384	4.7273	0.	1.0448e-002
18082	6.4302	4.7273	5.e-002	6.2355
18083	6.4302	4.4545	0.	4.7036e-003
18084	6.3384	4.5455	0.	6.5331e-003
18085	6.4302	4.5455	5.e-002	6.2371
18086	6.4302	4.2727	0.	1.8553e-003
18087	6.3384	4.3636	0.	3.2427e-003
18088	6.4302	4.3636	5.e-002	6.237
18089	6.4302	4.0909	0.	-5.1738e-004
18090	6.3384	4.1818	0.	5.0587e-004
18091	6.4302	4.1818	5.e-002	6.2355
18092	6.4302	3.9091	0.	-2.4763e-003
18093	6.3384	4.	0.	-1.7702e-003
18094	6.4302	4.	5.e-002	6.2332
18095	6.4302	3.7273	0.	-4.0526e-003
18096	6.3384	3.8182	0.	-3.6283e-003
18097	6.4302	3.8182	5.e-002	6.2305
18098	6.4302	3.5455	0.	-5.2645e-003
18099	6.3384	3.6364	0.	-5.0942e-003
18100	6.4302	3.6364	5.e-002	6.2277
18101	6.4302	3.3636	0.	-6.1242e-003
18102	6.3384	3.4545	0.	-6.1825e-003
18103	6.4302	3.4545	5.e-002	6.2253
18104	6.4302	3.1818	0.	-6.6385e-003
18105	6.3384	3.2727	0.	-6.9051e-003
18106	6.4302	3.2727	5.e-002	6.2236
18107	6.4302	3.	0.	-6.8096e-003
18108	6.3384	3.0909	0.	-7.2657e-003
18109	6.4302	3.0909	5.e-002	6.2227
18110	6.4302	2.8182	0.	-6.6383e-003
18111	6.3384	2.9091	0.	-7.2657e-003
18112	6.4302	2.9091	5.e-002	6.2227
18113	6.4302	2.6364	0.	-6.1239e-003
18114	6.3384	2.7273	0.	-6.905e-003
18115	6.4302	2.7273	5.e-002	6.2235
18116	6.4302	2.4545	0.	-5.2642e-003
18117	6.3384	2.5455	0.	-6.1824e-003
18118	6.4302	2.5455	5.e-002	6.2253
18119	6.4302	2.2727	0.	-4.0523e-003
18120	6.3384	2.3636	0.	-5.0939e-003
18121	6.4302	2.3636	5.e-002	6.2276
18122	6.4302	2.0909	0.	-2.476e-003
18123	6.3384	2.1818	0.	-3.628e-003
18124	6.4302	2.1818	5.e-002	6.2304
18125	6.4302	1.9091	0.	-5.1708e-004
18126	6.3384	2.	0.	-1.7699e-003
18127	6.4302	2.	5.e-002	6.2331
18128	6.4302	1.7273	0.	1.8558e-003
18129	6.3384	1.8182	0.	5.0628e-004
18130	6.4302	1.8182	5.e-002	6.2354
18131	6.4302	1.5455	0.	4.7043e-003
18132	6.3384	1.6364	0.	3.2435e-003
18133	6.4302	1.6364	5.e-002	6.2369
18134	6.4302	1.3636	0.	8.1011e-003
18135	6.3384	1.4545	0.	6.5337e-003
18136	6.4302	1.4545	5.e-002	6.2371
18137	6.4302	1.1818	0.	1.2295e-002
18138	6.3384	1.2727	0.	1.0448e-002
18139	6.4302	1.2727	5.e-002	6.2354
18140	6.4302	1.	0.	1.7264e-002
18141	6.3384	1.0909	0.	1.5458e-002
18142	6.4302	1.0909	5.e-002	6.2314
18143	6.4302	0.81818	0.	2.503e-002
18144	6.3384	0.90909	0.	2.1092e-002
18145	6.4302	0.90909	5.e-002	6.2247
18146	6.4302	0.63636	0.	3.1285e-002
18147	6.3384	0.72727	0.	3.2172e-002
18148	6.4302	0.72727	5.e-002	6.2143
18149	6.4302	0.45455	0.	7.1328e-002
18150	6.3384	0.54545	0.	3.5299e-002
18151	6.4302	0.54545	5.e-002	6.192
18152	6.4302	0.27273	0.	9.8339e-002
18153	6.3384	0.36364	0.	0.11948
18154	6.4302	0.36364	5.e-002	6.0331
18155	6.3384	0.18182	0.	0.12808
18156	6.4302	0.18182	5.e-002	3.919
18157	6.4302	9.0909e-002	0.	0.13155
18158	6.2465	5.7273	0.	0.10759
18159	6.1547	5.8182	0.	0.13717
18160	6.2465	5.8182	5.e-002	4.2739
18161	6.2465	5.9091	0.	0.13663
18162	6.2465	5.5455	0.	7.8294e-002
18163	6.1547	5.6364	0.	0.13088
18164	6.2465	5.6364	5.e-002	6.1387
18165	6.2465	5.3636	0.	3.4414e-002
18166	6.1547	5.4545	0.	3.8926e-002
18167	6.2465	5.4545	5.e-002	6.2816
18168	6.2465	5.1818	0.	2.7414e-002
18169	6.1547	5.2727	0.	3.5286e-002
18170	6.2465	5.2727	5.e-002	6.3031
18171	6.2465	5.	0.	1.8827e-002
18172	6.1547	5.0909	0.	2.3065e-002
18173	6.2465	5.0909	5.e-002	6.3134
18174	6.2465	4.8182	0.	1.3321e-002
18175	6.1547	4.9091	0.	1.6818e-002
18176	6.2465	4.9091	5.e-002	6.3196
18177	6.2465	4.6364	0.	8.6806e-003
18178	6.1547	4.7273	0.	1.1279e-002
18179	6.2465	4.7273	5.e-002	6.3228
18180	6.2465	4.4545	0.	4.9245e-003
18181	6.1547	4.5455	0.	6.9521e-003
18182	6.2465	4.5455	5.e-002	6.3236
18183	6.2465	4.2727	0.	1.7778e-003
18184	6.1547	4.3636	0.	3.3187e-003
18185	6.2465	4.3636	5.e-002	6.3224
18186	6.2465	4.0909	0.	-8.416e-004
18187	6.1547	4.1818	0.	2.9836e-004
18188	6.2465	4.1818	5.e-002	6.3198
18189	6.2465	3.9091	0.	-3.0029e-003
18190	6.1547	4.	0.	-2.2117e-003
18191	6.2465	4.	5.e-002	6.3163
18192	6.2465	3.7273	0.	-4.7412e-003
18193	6.1547	3.8182	0.	-4.2595e-003
18194	6.2465	3.8182	5.e-002	6.3125
18195	6.2465	3.5455	0.	-6.077e-003
18196	6.1547	3.6364	0.	-5.8744e-003
18197	6.2465	3.6364	5.e-002	6.3088
18198	6.2465	3.3636	0.	-7.0242e-003
18199	6.1547	3.4545	0.	-7.0729e-003
18200	6.2465	3.4545	5.e-002	6.3056
18201	6.2465	3.1818	0.	-7.5908e-003
18202	6.1547	3.2727	0.	-7.8683e-003
18203	6.2465	3.2727	5.e-002	6.3034
18204	6.2465	3.	0.	-7.7795e-003
18205	6.1547	3.0909	0.	-8.2652e-003
18206	6.2465	3.0909	5.e-002	6.3022
18207	6.2465	2.8182	0.	-7.5908e-003
18208	6.1547	2.9091	0.	-8.2652e-003
18209	6.2465	2.9091	5.e-002	6.3022
18210	6.2465	2.6364	0.	-7.0242e-003
18211	6.1547	2.7273	0.	-7.8682e-003
18212	6.2465	2.7273	5.e-002	6.3033
18213	6.2465	2.4545	0.	-6.0769e-003
18214	6.1547	2.5455	0.	-7.0729e-003
18215	6.2465	2.5455	5.e-002	6.3057
18216	6.2465	2.2727	0.	-4.7408e-003
18217	6.1547	2.3636	0.	-5.8741e-003
18218	6.2465	2.3636	5.e-002	6.3088
18219	6.2465	2.0909	0.	-3.0025e-003
18220	6.1547	2.1818	0.	-4.2592e-003
18221	6.2465	2.1818	5.e-002	6.3124
18222	6.2465	1.9091	0.	-8.4113e-004
18223	6.1547	2.	0.	-2.2113e-003
18224	6.2465	2.	5.e-002	6.3162
18225	6.2465	1.7273	0.	1.7785e-003
18226	6.1547	1.8182	0.	2.9891e-004
18227	6.2465	1.8182	5.e-002	6.3197
18228	6.2465	1.5455	0.	4.9253e-003
18229	6.1547	1.6364	0.	3.3195e-003
18230	6.2465	1.6364	5.e-002	6.3223
18231	6.2465	1.3636	0.	8.6812e-003
18232	6.1547	1.4545	0.	6.9528e-003
18233	6.2465	1.4545	5.e-002	6.3235
18234	6.2465	1.1818	0.	1.3322e-002
18235	6.1547	1.2727	0.	1.128e-002
18236	6.2465	1.2727	5.e-002	6.3228
18237	6.2465	1.	0.	1.8828e-002
18238	6.1547	1.0909	0.	1.6819e-002
18239	6.2465	1.0909	5.e-002	6.3195
18240	6.2465	0.81818	0.	2.7415e-002
18241	6.1547	0.90909	0.	2.3066e-002
18242	6.2465	0.90909	5.e-002	6.3132
18243	6.2465	0.63636	0.	3.4415e-002
18244	6.1547	0.72727	0.	3.5286e-002
18245	6.2465	0.72727	5.e-002	6.303
18246	6.2465	0.45455	0.	7.8295e-002
18247	6.1547	0.54545	0.	3.8926e-002
18248	6.2465	0.54545	5.e-002	6.2814
18249	6.2465	0.27273	0.	0.10759
18250	6.1547	0.36364	0.	0.13088
18251	6.2465	0.36364	5.e-002	6.1385
18252	6.1547	0.18182	0.	0.13717
18253	6.2465	0.18182	5.e-002	4.2738
18254	6.2465	9.0909e-002	0.	0.13663
18255	6.0628	5.7273	0.	0.11795
18256	5.9709	5.8182	0.	0.14827
18257	6.0628	5.8182	5.e-002	4.657
18258	6.0628	5.9091	0.	0.14291
18259	6.0628	5.5455	0.	8.5906e-002
18260	5.9709	5.6364	0.	0.14334
18261	6.0628	5.6364	5.e-002	6.2529
18262	6.0628	5.3636	0.	3.7846e-002
18263	5.9709	5.4545	0.	4.2916e-002
18264	6.0628	5.4545	5.e-002	6.3786
18265	6.0628	5.1818	0.	3.003e-002
18266	5.9709	5.2727	0.	3.8699e-002
18267	6.0628	5.2727	5.e-002	6.3992
18268	6.0628	5.	0.	2.0548e-002
18269	5.9709	5.0909	0.	2.5237e-002
18270	6.0628	5.0909	5.e-002	6.4091
18271	6.0628	4.8182	0.	1.4455e-002
18272	5.9709	4.9091	0.	1.8321e-002
18273	6.0628	4.9091	5.e-002	6.4149
18274	6.0628	4.6364	0.	9.3287e-003
18275	5.9709	4.7273	0.	1.2206e-002
18276	6.0628	4.7273	5.e-002	6.4174
18277	6.0628	4.4545	0.	5.182e-003
18278	5.9709	4.5455	0.	7.4295e-003
18279	6.0628	4.5455	5.e-002	6.417
18280	6.0628	4.2727	0.	1.7107e-003
18281	5.9709	4.3636	0.	3.423e-003
18282	6.0628	4.3636	5.e-002	6.4146
18283	6.0628	4.0909	0.	-1.1772e-003
18284	5.9709	4.1818	0.	9.4378e-005
18285	6.0628	4.1818	5.e-002	6.4106
18286	6.0628	3.9091	0.	-3.5582e-003
18287	5.9709	4.	0.	-2.6697e-003
18288	6.0628	4.	5.e-002	6.4058
18289	6.0628	3.7273	0.	-5.472e-003
18290	5.9709	3.8182	0.	-4.9234e-003
18291	6.0628	3.8182	5.e-002	6.4008
18292	6.0628	3.5455	0.	-6.9425e-003
18293	5.9709	3.6364	0.	-6.6996e-003
18294	6.0628	3.6364	5.e-002	6.396
18295	6.0628	3.3636	0.	-7.9847e-003
18296	5.9709	3.4545	0.	-8.0178e-003
18297	6.0628	3.4545	5.e-002	6.392
18298	6.0628	3.1818	0.	-8.6078e-003
18299	5.9709	3.2727	0.	-8.892e-003
18300	6.0628	3.2727	5.e-002	6.3891
18301	6.0628	3.	0.	-8.8152e-003
18302	5.9709	3.0909	0.	-9.328e-003
18303	6.0628	3.0909	5.e-002	6.3875
18304	6.0628	2.8182	0.	-8.6078e-003
18305	5.9709	2.9091	0.	-9.328e-003
18306	6.0628	2.9091	5.e-002	6.3875
18307	6.0628	2.6364	0.	-7.9846e-003
18308	5.9709	2.7273	0.	-8.8919e-003
18309	6.0628	2.7273	5.e-002	6.389
18310	6.0628	2.4545	0.	-6.9423e-003
18311	5.9709	2.5455	0.	-8.0175e-003
18312	6.0628	2.5455	5.e-002	6.3919
18313	6.0628	2.2727	0.	-5.4717e-003
18314	5.9709	2.3636	0.	-6.6994e-003
18315	6.0628	2.3636	5.e-002	6.396
18316	6.0628	2.0909	0.	-3.5578e-003
18317	5.9709	2.1818	0.	-4.9231e-003
18318	6.0628	2.1818	5.e-002	6.4007
18319	6.0628	1.9091	0.	-1.1766e-003
18320	5.9709	2.	0.	-2.6693e-003
18321	6.0628	2.	5.e-002	6.4058
18322	6.0628	1.7273	0.	1.7113e-003
18323	5.9709	1.8182	0.	9.4987e-005
18324	6.0628	1.8182	5.e-002	6.4105
18325	6.0628	1.5455	0.	5.1826e-003
18326	5.9709	1.6364	0.	3.4236e-003
18327	6.0628	1.6364	5.e-002	6.4145
18328	6.0628	1.3636	0.	9.3294e-003
18329	5.9709	1.4545	0.	7.4303e-003
18330	6.0628	1.4545	5.e-002	6.4169
18331	6.0628	1.1818	0.	1.4456e-002
18332	5.9709	1.2727	0.	1.2206e-002
18333	6.0628	1.2727	5.e-002	6.4172
18334	6.0628	1.	0.	2.0549e-002
18335	5.9709	1.0909	0.	1.8322e-002
18336	6.0628	1.0909	5.e-002	6.4148
18337	6.0628	0.81818	0.	3.0031e-002
18338	5.9709	0.90909	0.	2.5238e-002
18339	6.0628	0.90909	5.e-002	6.4091
18340	6.0628	0.63636	0.	3.7847e-002
18341	5.9709	0.72727	0.	3.87e-002
18342	6.0628	0.72727	5.e-002	6.399
18343	6.0628	0.45455	0.	8.5907e-002
18344	5.9709	0.54545	0.	4.2916e-002
18345	6.0628	0.54545	5.e-002	6.3785
18346	6.0628	0.27273	0.	0.11795
18347	5.9709	0.36364	0.	0.14334
18348	6.0628	0.36364	5.e-002	6.2528
18349	5.9709	0.18182	0.	0.14827
18350	6.0628	0.18182	5.e-002	4.6569
18351	6.0628	9.0909e-002	0.	0.14291
18352	5.8791	5.7273	0.	0.12955
18353	5.7872	5.8182	0.	0.16158
18354	5.8791	5.8182	5.e-002	5.0706
18355	5.8791	5.9091	0.	0.15034
18356	5.8791	5.5455	0.	9.4233e-002
18357	5.7872	5.6364	0.	0.15696
18358	5.8791	5.6364	5.e-002	6.3767
18359	5.8791	5.3636	0.	4.162e-002
18360	5.7872	5.4545	0.	4.7308e-002
18361	5.8791	5.4545	5.e-002	6.4839
18362	5.8791	5.1818	0.	3.2904e-002
18363	5.7872	5.2727	0.	4.2442e-002
18364	5.8791	5.2727	5.e-002	6.5034
18365	5.8791	5.	0.	2.2447e-002
18366	5.7872	5.0909	0.	2.7625e-002
18367	5.8791	5.0909	5.e-002	6.5132
18368	5.8791	4.8182	0.	1.5715e-002
18369	5.7872	4.9091	0.	1.9979e-002
18370	5.8791	4.9091	5.e-002	6.5182
18371	5.8791	4.6364	0.	1.006e-002
18372	5.7872	4.7273	0.	1.3236e-002
18373	5.8791	4.7273	5.e-002	6.5196
18374	5.8791	4.4545	0.	5.4879e-003
18375	5.7872	4.5455	0.	7.9709e-003
18376	5.8791	4.5455	5.e-002	6.5181
18377	5.8791	4.2727	0.	1.6637e-003
18378	5.7872	4.3636	0.	3.5584e-003
18379	5.8791	4.3636	5.e-002	6.5143
18380	5.8791	4.0909	0.	-1.5154e-003
18381	5.7872	4.1818	0.	-1.0485e-004
18382	5.8791	4.1818	5.e-002	6.5088
18383	5.8791	3.9091	0.	-4.1349e-003
18384	5.7872	4.	0.	-3.1446e-003
18385	5.8791	4.	5.e-002	6.5025
18386	5.8791	3.7273	0.	-6.2393e-003
18387	5.7872	3.8182	0.	-5.6214e-003
18388	5.8791	3.8182	5.e-002	6.496
18389	5.8791	3.5455	0.	-7.8553e-003
18390	5.7872	3.6364	0.	-7.5723e-003
18391	5.8791	3.6364	5.e-002	6.49
18392	5.8791	3.3636	0.	-9.0003e-003
18393	5.7872	3.4545	0.	-9.0194e-003
18394	5.8791	3.4545	5.e-002	6.4849
18395	5.8791	3.1818	0.	-9.6846e-003
18396	5.7872	3.2727	0.	-9.9788e-003
18397	5.8791	3.2727	5.e-002	6.4813
18398	5.8791	3.	0.	-9.9124e-003
18399	5.7872	3.0909	0.	-1.0457e-002
18400	5.8791	3.0909	5.e-002	6.4795
18401	5.8791	2.8182	0.	-9.6846e-003
18402	5.7872	2.9091	0.	-1.0457e-002
18403	5.8791	2.9091	5.e-002	6.4795
18404	5.8791	2.6364	0.	-9.0001e-003
18405	5.7872	2.7273	0.	-9.9788e-003
18406	5.8791	2.7273	5.e-002	6.4813
18407	5.8791	2.4545	0.	-7.855e-003
18408	5.7872	2.5455	0.	-9.0192e-003
18409	5.8791	2.5455	5.e-002	6.485
18410	5.8791	2.2727	0.	-6.239e-003
18411	5.7872	2.3636	0.	-7.5721e-003
18412	5.8791	2.3636	5.e-002	6.49
18413	5.8791	2.0909	0.	-4.1346e-003
18414	5.7872	2.1818	0.	-5.621e-003
18415	5.8791	2.1818	5.e-002	6.496
18416	5.8791	1.9091	0.	-1.5149e-003
18417	5.7872	2.	0.	-3.1443e-003
18418	5.8791	2.	5.e-002	6.5025
18419	5.8791	1.7273	0.	1.6643e-003
18420	5.7872	1.8182	0.	-1.0428e-004
18421	5.8791	1.8182	5.e-002	6.5088
18422	5.8791	1.5455	0.	5.4886e-003
18423	5.7872	1.6364	0.	3.559e-003
18424	5.8791	1.6364	5.e-002	6.5142
18425	5.8791	1.3636	0.	1.0061e-002
18426	5.7872	1.4545	0.	7.9715e-003
18427	5.8791	1.4545	5.e-002	6.5181
18428	5.8791	1.1818	0.	1.5716e-002
18429	5.7872	1.2727	0.	1.3237e-002
18430	5.8791	1.2727	5.e-002	6.5197
18431	5.8791	1.	0.	2.2448e-002
18432	5.7872	1.0909	0.	1.998e-002
18433	5.8791	1.0909	5.e-002	6.5181
18434	5.8791	0.81818	0.	3.2905e-002
18435	5.7872	0.90909	0.	2.7627e-002
18436	5.8791	0.90909	5.e-002	6.513
18437	5.8791	0.63636	0.	4.162e-002
18438	5.7872	0.72727	0.	4.2443e-002
18439	5.8791	0.72727	5.e-002	6.5033
18440	5.8791	0.45455	0.	9.4234e-002
18441	5.7872	0.54545	0.	4.7308e-002
18442	5.8791	0.54545	5.e-002	6.4838
18443	5.8791	0.27273	0.	0.12955
18444	5.7872	0.36364	0.	0.15696
18445	5.8791	0.36364	5.e-002	6.3765
18446	5.7872	0.18182	0.	0.16158
18447	5.8791	0.18182	5.e-002	5.0704
18448	5.8791	9.0909e-002	0.	0.15034
18449	5.6953	5.7273	0.	0.14253
18450	5.6035	5.8182	0.	0.17741
18451	5.6953	5.8182	5.e-002	5.5166
18452	5.6953	5.9091	0.	0.15888
18453	5.6953	5.5455	0.	0.10334
18454	5.6035	5.6364	0.	0.17185
18455	5.6953	5.6364	5.e-002	6.5109
18456	5.6953	5.3636	0.	4.5761e-002
18457	5.6035	5.4545	0.	5.2145e-002
18458	5.6953	5.4545	5.e-002	6.5984
18459	5.6953	5.1818	0.	3.6055e-002
18460	5.6035	5.2727	0.	4.6545e-002
18461	5.6953	5.2727	5.e-002	6.6168
18462	5.6953	5.	0.	2.4534e-002
18463	5.6035	5.0909	0.	3.0251e-002
18464	5.6953	5.0909	5.e-002	6.6261
18465	5.6953	4.8182	0.	1.7105e-002
18466	5.6035	4.9091	0.	2.1806e-002
18467	5.6953	4.9091	5.e-002	6.6305
18468	5.6953	4.6364	0.	1.0873e-002
18469	5.6035	4.7273	0.	1.4379e-002
18470	5.6953	4.7273	5.e-002	6.6309
18471	5.6953	4.4545	0.	5.8387e-003
18472	5.6035	4.5455	0.	8.581e-003
18473	5.6953	4.5455	5.e-002	6.628
18474	5.6953	4.2727	0.	1.6311e-003
18475	5.6035	4.3636	0.	3.7275e-003
18476	5.6953	4.3636	5.e-002	6.6225
18477	5.6953	4.0909	0.	-1.8643e-003
18478	5.6035	4.1818	0.	-2.9901e-004
18479	5.6953	4.1818	5.e-002	6.6153
18480	5.6953	3.9091	0.	-4.7422e-003
18481	5.6035	4.	0.	-3.6376e-003
18482	5.6953	4.	5.e-002	6.6073
18483	5.6953	3.7273	0.	-7.0525e-003
18484	5.6035	3.8182	0.	-6.3555e-003
18485	5.6953	3.8182	5.e-002	6.5992
18486	5.6953	3.5455	0.	-8.8257e-003
18487	5.6035	3.6364	0.	-8.4948e-003
18488	5.6953	3.6364	5.e-002	6.5917
18489	5.6953	3.3636	0.	-1.0082e-002
18490	5.6035	3.4545	0.	-1.0081e-002
18491	5.6953	3.4545	5.e-002	6.5855
18492	5.6953	3.1818	0.	-1.0832e-002
18493	5.6035	3.2727	0.	-1.1132e-002
18494	5.6953	3.2727	5.e-002	6.581
18495	5.6953	3.	0.	-1.1082e-002
18496	5.6035	3.0909	0.	-1.1656e-002
18497	5.6953	3.0909	5.e-002	6.5787
18498	5.6953	2.8182	0.	-1.0832e-002
18499	5.6035	2.9091	0.	-1.1656e-002
18500	5.6953	2.9091	5.e-002	6.5787
18501	5.6953	2.6364	0.	-1.0082e-002
18502	5.6035	2.7273	0.	-1.1132e-002
18503	5.6953	2.7273	5.e-002	6.581
18504	5.6953	2.4545	0.	-8.8255e-003
18505	5.6035	2.5455	0.	-1.0081e-002
18506	5.6953	2.5455	5.e-002	6.5855
18507	5.6953	2.2727	0.	-7.0521e-003
18508	5.6035	2.3636	0.	-8.4946e-003
18509	5.6953	2.3636	5.e-002	6.5917
18510	5.6953	2.0909	0.	-4.7418e-003
18511	5.6035	2.1818	0.	-6.355e-003
18512	5.6953	2.1818	5.e-002	6.5991
18513	5.6953	1.9091	0.	-1.8639e-003
18514	5.6035	2.	0.	-3.6372e-003
18515	5.6953	2.	5.e-002	6.6072
18516	5.6953	1.7273	0.	1.6316e-003
18517	5.6035	1.8182	0.	-2.984e-004
18518	5.6953	1.8182	5.e-002	6.6152
18519	5.6953	1.5455	0.	5.8391e-003
18520	5.6035	1.6364	0.	3.728e-003
18521	5.6953	1.6364	5.e-002	6.6224
18522	5.6953	1.3636	0.	1.0874e-002
18523	5.6035	1.4545	0.	8.5815e-003
18524	5.6953	1.4545	5.e-002	6.6278
18525	5.6953	1.1818	0.	1.7106e-002
18526	5.6035	1.2727	0.	1.438e-002
18527	5.6953	1.2727	5.e-002	6.6308
18528	5.6953	1.	0.	2.4535e-002
18529	5.6035	1.0909	0.	2.1807e-002
18530	5.6953	1.0909	5.e-002	6.6304
18531	5.6953	0.81818	0.	3.6056e-002
18532	5.6035	0.90909	0.	3.0252e-002
18533	5.6953	0.90909	5.e-002	6.626
18534	5.6953	0.63636	0.	4.5762e-002
18535	5.6035	0.72727	0.	4.6546e-002
18536	5.6953	0.72727	5.e-002	6.6166
18537	5.6953	0.45455	0.	0.10334
18538	5.6035	0.54545	0.	5.2145e-002
18539	5.6953	0.54545	5.e-002	6.5982
18540	5.6953	0.27273	0.	0.14254
18541	5.6035	0.36364	0.	0.17185
18542	5.6953	0.36364	5.e-002	6.5107
18543	5.6035	0.18182	0.	0.17741
18544	5.6953	0.18182	5.e-002	5.5164
18545	5.6953	9.0909e-002	0.	0.15888
18546	5.5116	5.7273	0.	0.15709
18547	5.4198	5.8182	0.	0.19613
18548	5.5116	5.8182	5.e-002	5.9975
18549	5.5116	5.9091	0.	0.16857
18550	5.5116	5.5455	0.	0.11331
18551	5.4198	5.6364	0.	0.18815
18552	5.5116	5.6364	5.e-002	6.6565
18553	5.5116	5.3636	0.	5.0315e-002
18554	5.4198	5.4545	0.	5.7481e-002
18555	5.5116	5.4545	5.e-002	6.7229
18556	5.5116	5.1818	0.	3.9516e-002
18557	5.4198	5.2727	0.	5.1052e-002
18558	5.5116	5.2727	5.e-002	6.74
18559	5.5116	5.	0.	2.6833e-002
18560	5.4198	5.0909	0.	3.3144e-002
18561	5.5116	5.0909	5.e-002	6.749
18562	5.5116	4.8182	0.	1.8642e-002
18563	5.4198	4.9091	0.	2.3826e-002
18564	5.5116	4.9091	5.e-002	6.7526
18565	5.5116	4.6364	0.	1.1783e-002
18566	5.4198	4.7273	0.	1.5653e-002
18567	5.5116	4.7273	5.e-002	6.7518
18568	5.5116	4.4545	0.	6.2449e-003
18569	5.4198	4.5455	0.	9.2751e-003
18570	5.5116	4.5455	5.e-002	6.7473
18571	5.5116	4.2727	0.	1.6211e-003
18572	5.4198	4.3636	0.	3.942e-003
18573	5.5116	4.3636	5.e-002	6.7401
18574	5.5116	4.0909	0.	-2.2169e-003
18575	5.4198	4.1818	0.	-4.7819e-004
18576	5.5116	4.1818	5.e-002	6.731
18577	5.5116	3.9091	0.	-5.3742e-003
18578	5.4198	4.	0.	-4.1399e-003
18579	5.5116	4.	5.e-002	6.721
18580	5.5116	3.7273	0.	-7.9067e-003
18581	5.4198	3.8182	0.	-7.1179e-003
18582	5.5116	3.8182	5.e-002	6.7111
18583	5.5116	3.5455	0.	-9.8493e-003
18584	5.4198	3.6364	0.	-9.46e-003
18585	5.5116	3.6364	5.e-002	6.702
18586	5.5116	3.3636	0.	-1.1224e-002
18587	5.4198	3.4545	0.	-1.1195e-002
18588	5.5116	3.4545	5.e-002	6.6945
18589	5.5116	3.1818	0.	-1.2045e-002
18590	5.4198	3.2727	0.	-1.2345e-002
18591	5.5116	3.2727	5.e-002	6.6891
18592	5.5116	3.	0.	-1.2318e-002
18593	5.4198	3.0909	0.	-1.2917e-002
18594	5.5116	3.0909	5.e-002	6.6864
18595	5.5116	2.8182	0.	-1.2045e-002
18596	5.4198	2.9091	0.	-1.2917e-002
18597	5.5116	2.9091	5.e-002	6.6863
18598	5.5116	2.6364	0.	-1.1224e-002
18599	5.4198	2.7273	0.	-1.2344e-002
18600	5.5116	2.7273	5.e-002	6.6891
18601	5.5116	2.4545	0.	-9.8491e-003
18602	5.4198	2.5455	0.	-1.1195e-002
18603	5.5116	2.5455	5.e-002	6.6945
18604	5.5116	2.2727	0.	-7.9065e-003
18605	5.4198	2.3636	0.	-9.4598e-003
18606	5.5116	2.3636	5.e-002	6.7019
18607	5.5116	2.0909	0.	-5.3737e-003
18608	5.4198	2.1818	0.	-7.1174e-003
18609	5.5116	2.1818	5.e-002	6.7111
18610	5.5116	1.9091	0.	-2.2163e-003
18611	5.4198	2.	0.	-4.1394e-003
18612	5.5116	2.	5.e-002	6.721
18613	5.5116	1.7273	0.	1.6218e-003
18614	5.4198	1.8182	0.	-4.7765e-004
18615	5.5116	1.8182	5.e-002	6.7309
18616	5.5116	1.5455	0.	6.2456e-003
18617	5.4198	1.6364	0.	3.9427e-003
18618	5.5116	1.6364	5.e-002	6.74
18619	5.5116	1.3636	0.	1.1784e-002
18620	5.4198	1.4545	0.	9.2757e-003
18621	5.5116	1.4545	5.e-002	6.7473
18622	5.5116	1.1818	0.	1.8643e-002
18623	5.4198	1.2727	0.	1.5653e-002
18624	5.5116	1.2727	5.e-002	6.7517
18625	5.5116	1.	0.	2.6834e-002
18626	5.4198	1.0909	0.	2.3827e-002
18627	5.5116	1.0909	5.e-002	6.7525
18628	5.5116	0.81818	0.	3.9517e-002
18629	5.4198	0.90909	0.	3.3145e-002
18630	5.5116	0.90909	5.e-002	6.7489
18631	5.5116	0.63636	0.	5.0315e-002
18632	5.4198	0.72727	0.	5.1052e-002
18633	5.5116	0.72727	5.e-002	6.7398
18634	5.5116	0.45455	0.	0.11331
18635	5.4198	0.54545	0.	5.7482e-002
18636	5.5116	0.54545	5.e-002	6.7227
18637	5.5116	0.27273	0.	0.1571
18638	5.4198	0.36364	0.	0.18816
18639	5.5116	0.36364	5.e-002	6.6564
18640	5.4198	0.18182	0.	0.19613
18641	5.5116	0.18182	5.e-002	5.9973
18642	5.5116	9.0909e-002	0.	0.16857
18643	5.3279	5.7273	0.	0.17345
18644	5.236	5.8182	0.	0.21823
18645	5.3279	5.8182	5.e-002	6.5154
18646	5.3279	5.9091	0.	0.17944
18647	5.3279	5.5455	0.	0.12424
18648	5.236	5.6364	0.	0.20601
18649	5.3279	5.6364	5.e-002	6.8144
18650	5.3279	5.3636	0.	5.5332e-002
18651	5.236	5.4545	0.	6.3377e-002
18652	5.3279	5.4545	5.e-002	6.8583
18653	5.3279	5.1818	0.	4.3326e-002
18654	5.236	5.2727	0.	5.6005e-002
18655	5.3279	5.2727	5.e-002	6.8743
18656	5.3279	5.	0.	2.9374e-002
18657	5.236	5.0909	0.	3.6335e-002
18658	5.3279	5.0909	5.e-002	6.8829
18659	5.3279	4.8182	0.	2.0352e-002
18660	5.236	4.9091	0.	2.6061e-002
18661	5.3279	4.9091	5.e-002	6.8858
18662	5.3279	4.6364	0.	1.2809e-002
18663	5.236	4.7273	0.	1.7073e-002
18664	5.3279	4.7273	5.e-002	6.8837
18665	5.3279	4.4545	0.	6.7228e-003
18666	5.236	4.5455	0.	1.0064e-002
18667	5.3279	4.5455	5.e-002	6.8775
18668	5.3279	4.2727	0.	1.6472e-003
18669	5.236	4.3636	0.	4.2103e-003
18670	5.3279	4.3636	5.e-002	6.8683
18671	5.3279	4.0909	0.	-2.5616e-003
18672	5.236	4.1818	0.	-6.3618e-004
18673	5.3279	4.1818	5.e-002	6.8571
18674	5.3279	3.9091	0.	-6.0204e-003
18675	5.236	4.	0.	-4.6464e-003
18676	5.3279	4.	5.e-002	6.845
18677	5.3279	3.7273	0.	-8.792e-003
18678	5.236	3.8182	0.	-7.9038e-003
18679	5.3279	3.8182	5.e-002	6.833
18680	5.3279	3.5455	0.	-1.0916e-002
18681	5.236	3.6364	0.	-1.0463e-002
18682	5.3279	3.6364	5.e-002	6.822
18683	5.3279	3.3636	0.	-1.2419e-002
18684	5.236	3.4545	0.	-1.2358e-002
18685	5.3279	3.4545	5.e-002	6.8131
18686	5.3279	3.1818	0.	-1.3316e-002
18687	5.236	3.2727	0.	-1.3612e-002
18688	5.3279	3.2727	5.e-002	6.8067
18689	5.3279	3.	0.	-1.3614e-002
18690	5.236	3.0909	0.	-1.4236e-002
18691	5.3279	3.0909	5.e-002	6.8034
18692	5.3279	2.8182	0.	-1.3315e-002
18693	5.236	2.9091	0.	-1.4236e-002
18694	5.3279	2.9091	5.e-002	6.8034
18695	5.3279	2.6364	0.	-1.2419e-002
18696	5.236	2.7273	0.	-1.3612e-002
18697	5.3279	2.7273	5.e-002	6.8067
18698	5.3279	2.4545	0.	-1.0916e-002
18699	5.236	2.5455	0.	-1.2358e-002
18700	5.3279	2.5455	5.e-002	6.8131
18701	5.3279	2.2727	0.	-8.7916e-003
18702	5.236	2.3636	0.	-1.0463e-002
18703	5.3279	2.3636	5.e-002	6.8221
18704	5.3279	2.0909	0.	-6.02e-003
18705	5.236	2.1818	0.	-7.9035e-003
18706	5.3279	2.1818	5.e-002	6.8329
18707	5.3279	1.9091	0.	-2.5612e-003
18708	5.236	2.	0.	-4.646e-003
18709	5.3279	2.	5.e-002	6.8449
18710	5.3279	1.7273	0.	1.6478e-003
18711	5.236	1.8182	0.	-6.3574e-004
18712	5.3279	1.8182	5.e-002	6.857
18713	5.3279	1.5455	0.	6.7234e-003
18714	5.236	1.6364	0.	4.211e-003
18715	5.3279	1.6364	5.e-002	6.8682
18716	5.3279	1.3636	0.	1.2809e-002
18717	5.236	1.4545	0.	1.0065e-002
18718	5.3279	1.4545	5.e-002	6.8774
18719	5.3279	1.1818	0.	2.0353e-002
18720	5.236	1.2727	0.	1.7074e-002
18721	5.3279	1.2727	5.e-002	6.8836
18722	5.3279	1.	0.	2.9375e-002
18723	5.236	1.0909	0.	2.6062e-002
18724	5.3279	1.0909	5.e-002	6.8857
18725	5.3279	0.81818	0.	4.3326e-002
18726	5.236	0.90909	0.	3.6336e-002
18727	5.3279	0.90909	5.e-002	6.8828
18728	5.3279	0.63636	0.	5.5333e-002
18729	5.236	0.72727	0.	5.6006e-002
18730	5.3279	0.72727	5.e-002	6.8741
18731	5.3279	0.45455	0.	0.12424
18732	5.236	0.54545	0.	6.3377e-002
18733	5.3279	0.54545	5.e-002	6.8581
18734	5.3279	0.27273	0.	0.17345
18735	5.236	0.36364	0.	0.20601
18736	5.3279	0.36364	5.e-002	6.8142
18737	5.236	0.18182	0.	0.21823
18738	5.3279	0.18182	5.e-002	6.5153
18739	5.3279	9.0909e-002	0.	0.17944
18740	5.1442	5.7273	0.	0.19184
18741	5.0523	5.8182	0.	0.2443
18742	5.1442	5.8182	5.e-002	7.0729
18743	5.1442	5.9091	0.	0.19155
18744	5.1442	5.5455	0.	0.13622
18745	5.0523	5.6364	0.	0.22559
18746	5.1442	5.6364	5.e-002	6.9855
18747	5.1442	5.3636	0.	6.086e-002
18748	5.0523	5.4545	0.	6.9894e-002
18749	5.1442	5.4545	5.e-002	7.0058
18750	5.1442	5.1818	0.	4.7516e-002
18751	5.0523	5.2727	0.	6.1449e-002
18752	5.1442	5.2727	5.e-002	7.0205
18753	5.1442	5.	0.	3.2177e-002
18754	5.0523	5.0909	0.	3.985e-002
18755	5.1442	5.0909	5.e-002	7.029
18756	5.1442	4.8182	0.	2.2246e-002
18757	5.0523	4.9091	0.	2.8529e-002
18758	5.1442	4.9091	5.e-002	7.0311
18759	5.1442	4.6364	0.	1.3957e-002
18760	5.0523	4.7273	0.	1.8652e-002
18761	5.1442	4.7273	5.e-002	7.0277
18762	5.1442	4.4545	0.	7.2754e-003
18763	5.0523	4.5455	0.	1.0956e-002
18764	5.1442	4.5455	5.e-002	7.0197
18765	5.1442	4.2727	0.	1.7102e-003
18766	5.0523	4.3636	0.	4.5371e-003
18767	5.1442	4.3636	5.e-002	7.0084
18768	5.1442	4.0909	0.	-2.8988e-003
18769	5.0523	4.1818	0.	-7.7003e-004
18770	5.1442	4.1818	5.e-002	6.9948
18771	5.1442	3.9091	0.	-6.6816e-003
18772	5.0523	4.	0.	-5.1548e-003
18773	5.1442	4.	5.e-002	6.9804
18774	5.1442	3.7273	0.	-9.7092e-003
18775	5.0523	3.8182	0.	-8.7116e-003
18776	5.1442	3.8182	5.e-002	6.9661
18777	5.1442	3.5455	0.	-1.2027e-002
18778	5.0523	3.6364	0.	-1.1502e-002
18779	5.1442	3.6364	5.e-002	6.9532
18780	5.1442	3.3636	0.	-1.3665e-002
18781	5.0523	3.4545	0.	-1.3566e-002
18782	5.1442	3.4545	5.e-002	6.9426
18783	5.1442	3.1818	0.	-1.4643e-002
18784	5.0523	3.2727	0.	-1.493e-002
18785	5.1442	3.2727	5.e-002	6.9352
18786	5.1442	3.	0.	-1.4967e-002
18787	5.0523	3.0909	0.	-1.5609e-002
18788	5.1442	3.0909	5.e-002	6.9313
18789	5.1442	2.8182	0.	-1.4642e-002
18790	5.0523	2.9091	0.	-1.5609e-002
18791	5.1442	2.9091	5.e-002	6.9313
18792	5.1442	2.6364	0.	-1.3665e-002
18793	5.0523	2.7273	0.	-1.493e-002
18794	5.1442	2.7273	5.e-002	6.9352
18795	5.1442	2.4545	0.	-1.2027e-002
18796	5.0523	2.5455	0.	-1.3566e-002
18797	5.1442	2.5455	5.e-002	6.9427
18798	5.1442	2.2727	0.	-9.7091e-003
18799	5.0523	2.3636	0.	-1.1502e-002
18800	5.1442	2.3636	5.e-002	6.9532
18801	5.1442	2.0909	0.	-6.6813e-003
18802	5.0523	2.1818	0.	-8.7113e-003
18803	5.1442	2.1818	5.e-002	6.9661
18804	5.1442	1.9091	0.	-2.8984e-003
18805	5.0523	2.	0.	-5.1545e-003
18806	5.1442	2.	5.e-002	6.9803
18807	5.1442	1.7273	0.	1.7109e-003
18808	5.0523	1.8182	0.	-7.6957e-004
18809	5.1442	1.8182	5.e-002	6.9947
18810	5.1442	1.5455	0.	7.276e-003
18811	5.0523	1.6364	0.	4.5378e-003
18812	5.1442	1.6364	5.e-002	7.0083
18813	5.1442	1.3636	0.	1.3957e-002
18814	5.0523	1.4545	0.	1.0957e-002
18815	5.1442	1.4545	5.e-002	7.0197
18816	5.1442	1.1818	0.	2.2246e-002
18817	5.0523	1.2727	0.	1.8653e-002
18818	5.1442	1.2727	5.e-002	7.0275
18819	5.1442	1.	0.	3.2178e-002
18820	5.0523	1.0909	0.	2.8529e-002
18821	5.1442	1.0909	5.e-002	7.031
18822	5.1442	0.81818	0.	4.7517e-002
18823	5.0523	0.90909	0.	3.9851e-002
18824	5.1442	0.90909	5.e-002	7.0289
18825	5.1442	0.63636	0.	6.0861e-002
18826	5.0523	0.72727	0.	6.145e-002
18827	5.1442	0.72727	5.e-002	7.0204
18828	5.1442	0.45455	0.	0.13622
18829	5.0523	0.54545	0.	6.9894e-002
18830	5.1442	0.54545	5.e-002	7.0056
18831	5.1442	0.27273	0.	0.19184
18832	5.0523	0.36364	0.	0.2256
18833	5.1442	0.36364	5.e-002	6.9853
18834	5.0523	0.18182	0.	0.24431
18835	5.1442	0.18182	5.e-002	7.0727
18836	5.1442	9.0909e-002	0.	0.19156
18837	4.9605	5.7273	0.	0.21256
18838	4.8686	5.8182	0.	0.27511
18839	4.9605	5.8182	5.e-002	7.6722
18840	4.9605	5.9091	0.	0.20501
18841	4.9605	5.5455	0.	0.14937
18842	4.8686	5.6364	0.	0.24709
18843	4.9605	5.6364	5.e-002	7.1708
18844	4.9605	5.3636	0.	6.6953e-002
18845	4.8686	5.4545	0.	7.711e-002
18846	4.9605	5.4545	5.e-002	7.1663
18847	4.9605	5.1818	0.	5.2126e-002
18848	4.8686	5.2727	0.	6.7441e-002
18849	4.9605	5.2727	5.e-002	7.1801
18850	4.9605	5.	0.	3.5267e-002
18851	4.8686	5.0909	0.	4.373e-002
18852	4.9605	5.0909	5.e-002	7.1885
18853	4.9605	4.8182	0.	2.4342e-002
18854	4.8686	4.9091	0.	3.126e-002
18855	4.9605	4.9091	5.e-002	7.19
18856	4.9605	4.6364	0.	1.524e-002
18857	4.8686	4.7273	0.	2.0413e-002
18858	4.9605	4.7273	5.e-002	7.1853
18859	4.9605	4.4545	0.	7.9115e-003
18860	4.8686	4.5455	0.	1.1968e-002
18861	4.9605	4.5455	5.e-002	7.1755
18862	4.9605	4.2727	0.	1.8168e-003
18863	4.8686	4.3636	0.	4.9369e-003
18864	4.9605	4.3636	5.e-002	7.1619
18865	4.9605	4.0909	0.	-3.2232e-003
18866	4.8686	4.1818	0.	-8.6671e-004
18867	4.9605	4.1818	5.e-002	7.1458
18868	4.9605	3.9091	0.	-7.3531e-003
18869	4.8686	4.	0.	-5.6529e-003
18870	4.9605	4.	5.e-002	7.1287
18871	4.9605	3.7273	0.	-1.0653e-002
18872	4.8686	3.8182	0.	-9.528e-003
18873	4.9605	3.8182	5.e-002	7.1121
18874	4.9605	3.5455	0.	-1.3177e-002
18875	4.8686	3.6364	0.	-1.2563e-002
18876	4.9605	3.6364	5.e-002	7.097
18877	4.9605	3.3636	0.	-1.4958e-002
18878	4.8686	3.4545	0.	-1.4805e-002
18879	4.9605	3.4545	5.e-002	7.0847
18880	4.9605	3.1818	0.	-1.6019e-002
18881	4.8686	3.2727	0.	-1.6285e-002
18882	4.9605	3.2727	5.e-002	7.076
18883	4.9605	3.	0.	-1.6372e-002
18884	4.8686	3.0909	0.	-1.7021e-002
18885	4.9605	3.0909	5.e-002	7.0715
18886	4.9605	2.8182	0.	-1.6019e-002
18887	4.8686	2.9091	0.	-1.7021e-002
18888	4.9605	2.9091	5.e-002	7.0715
18889	4.9605	2.6364	0.	-1.4958e-002
18890	4.8686	2.7273	0.	-1.6285e-002
18891	4.9605	2.7273	5.e-002	7.0759
18892	4.9605	2.4545	0.	-1.3176e-002
18893	4.8686	2.5455	0.	-1.4805e-002
18894	4.9605	2.5455	5.e-002	7.0847
18895	4.9605	2.2727	0.	-1.0653e-002
18896	4.8686	2.3636	0.	-1.2563e-002
18897	4.9605	2.3636	5.e-002	7.097
18898	4.9605	2.0909	0.	-7.3528e-003
18899	4.8686	2.1818	0.	-9.5277e-003
18900	4.9605	2.1818	5.e-002	7.1121
18901	4.9605	1.9091	0.	-3.2228e-003
18902	4.8686	2.	0.	-5.6526e-003
18903	4.9605	2.	5.e-002	7.1287
18904	4.9605	1.7273	0.	1.8172e-003
18905	4.8686	1.8182	0.	-8.6625e-004
18906	4.9605	1.8182	5.e-002	7.1457
18907	4.9605	1.5455	0.	7.9123e-003
18908	4.8686	1.6364	0.	4.9375e-003
18909	4.9605	1.6364	5.e-002	7.1618
18910	4.9605	1.3636	0.	1.524e-002
18911	4.8686	1.4545	0.	1.1968e-002
18912	4.9605	1.4545	5.e-002	7.1754
18913	4.9605	1.1818	0.	2.4342e-002
18914	4.8686	1.2727	0.	2.0413e-002
18915	4.9605	1.2727	5.e-002	7.1852
18916	4.9605	1.	0.	3.5268e-002
18917	4.8686	1.0909	0.	3.126e-002
18918	4.9605	1.0909	5.e-002	7.1898
18919	4.9605	0.81818	0.	5.2127e-002
18920	4.8686	0.90909	0.	4.3731e-002
18921	4.9605	0.90909	5.e-002	7.1885
18922	4.9605	0.63636	0.	6.6954e-002
18923	4.8686	0.72727	0.	6.7442e-002
18924	4.9605	0.72727	5.e-002	7.18
18925	4.9605	0.45455	0.	0.14937
18926	4.8686	0.54545	0.	7.711e-002
18927	4.9605	0.54545	5.e-002	7.1662
18928	4.9605	0.27273	0.	0.21256
18929	4.8686	0.36364	0.	0.24709
18930	4.9605	0.36364	5.e-002	7.1706
18931	4.8686	0.18182	0.	0.27511
18932	4.9605	0.18182	5.e-002	7.672
18933	4.9605	9.0909e-002	0.	0.20501
18934	4.7767	5.7273	0.	0.23596
18935	4.6849	5.8182	0.	0.31159
18936	4.7767	5.8182	5.e-002	8.3159
18937	4.7767	5.9091	0.	0.21992
18938	4.7767	5.5455	0.	0.16384
18939	4.6849	5.6364	0.	0.27072
18940	4.7767	5.6364	5.e-002	7.3713
18941	4.7767	5.3636	0.	7.3688e-002
18942	4.6849	5.4545	0.	8.5117e-002
18943	4.7767	5.4545	5.e-002	7.3412
18944	4.7767	5.1818	0.	5.7211e-002
18945	4.6849	5.2727	0.	7.4048e-002
18946	4.7767	5.2727	5.e-002	7.3542
18947	4.7767	5.	0.	3.8688e-002
18948	4.6849	5.0909	0.	4.802e-002
18949	4.7767	5.0909	5.e-002	7.363
18950	4.7767	4.8182	0.	2.6673e-002
18951	4.6849	4.9091	0.	3.4286e-002
18952	4.7767	4.9091	5.e-002	7.3639
18953	4.7767	4.6364	0.	1.6684e-002
18954	4.6849	4.7273	0.	2.2379e-002
18955	4.7767	4.7273	5.e-002	7.358
18956	4.7767	4.4545	0.	8.6539e-003
18957	4.6849	4.5455	0.	1.3119e-002
18958	4.7767	4.5455	5.e-002	7.3463
18959	4.7767	4.2727	0.	1.9873e-003
18960	4.6849	4.3636	0.	5.4264e-003
18961	4.7767	4.3636	5.e-002	7.3304
18962	4.7767	4.0909	0.	-3.515e-003
18963	4.6849	4.1818	0.	-9.1029e-004
18964	4.7767	4.1818	5.e-002	7.3117
18965	4.7767	3.9091	0.	-8.0145e-003
18966	4.6849	4.	0.	-6.1241e-003
18967	4.7767	4.	5.e-002	7.292
18968	4.7767	3.7273	0.	-1.1603e-002
18969	4.6849	3.8182	0.	-1.0335e-002
18970	4.7767	3.8182	5.e-002	7.2727
18971	4.7767	3.5455	0.	-1.4342e-002
18972	4.6849	3.6364	0.	-1.3627e-002
18973	4.7767	3.6364	5.e-002	7.2553
18974	4.7767	3.3636	0.	-1.6272e-002
18975	4.6849	3.4545	0.	-1.6053e-002
18976	4.7767	3.4545	5.e-002	7.2411
18977	4.7767	3.1818	0.	-1.7422e-002
18978	4.6849	3.2727	0.	-1.7653e-002
18979	4.7767	3.2727	5.e-002	7.231
18980	4.7767	3.	0.	-1.7803e-002
18981	4.6849	3.0909	0.	-1.8447e-002
18982	4.7767	3.0909	5.e-002	7.2258
18983	4.7767	2.8182	0.	-1.7422e-002
18984	4.6849	2.9091	0.	-1.8447e-002
18985	4.7767	2.9091	5.e-002	7.2258
18986	4.7767	2.6364	0.	-1.6272e-002
18987	4.6849	2.7273	0.	-1.7652e-002
18988	4.7767	2.7273	5.e-002	7.231
18989	4.7767	2.4545	0.	-1.4342e-002
18990	4.6849	2.5455	0.	-1.6053e-002
18991	4.7767	2.5455	5.e-002	7.241
18992	4.7767	2.2727	0.	-1.1603e-002
18993	4.6849	2.3636	0.	-1.3627e-002
18994	4.7767	2.3636	5.e-002	7.2553
18995	4.7767	2.0909	0.	-8.0142e-003
18996	4.6849	2.1818	0.	-1.0335e-002
18997	4.7767	2.1818	5.e-002	7.2726
18998	4.7767	1.9091	0.	-3.5146e-003
18999	4.6849	2.	0.	-6.1237e-003
19000	4.7767	2.	5.e-002	7.2919
19001	4.7767	1.7273	0.	1.9879e-003
19002	4.6849	1.8182	0.	-9.0979e-004
19003	4.7767	1.8182	5.e-002	7.3116
19004	4.7767	1.5455	0.	8.6544e-003
19005	4.6849	1.6364	0.	5.427e-003
19006	4.7767	1.6364	5.e-002	7.3302
19007	4.7767	1.3636	0.	1.6685e-002
19008	4.6849	1.4545	0.	1.312e-002
19009	4.7767	1.4545	5.e-002	7.3462
19010	4.7767	1.1818	0.	2.6674e-002
19011	4.6849	1.2727	0.	2.238e-002
19012	4.7767	1.2727	5.e-002	7.3579
19013	4.7767	1.	0.	3.8688e-002
19014	4.6849	1.0909	0.	3.4287e-002
19015	4.7767	1.0909	5.e-002	7.3639
19016	4.7767	0.81818	0.	5.7212e-002
19017	4.6849	0.90909	0.	4.8021e-002
19018	4.7767	0.90909	5.e-002	7.3628
19019	4.7767	0.63636	0.	7.3689e-002
19020	4.6849	0.72727	0.	7.4048e-002
19021	4.7767	0.72727	5.e-002	7.3541
19022	4.7767	0.45455	0.	0.16384
19023	4.6849	0.54545	0.	8.5117e-002
19024	4.7767	0.54545	5.e-002	7.3411
19025	4.7767	0.27273	0.	0.23597
19026	4.6849	0.36364	0.	0.27072
19027	4.7767	0.36364	5.e-002	7.3711
19028	4.6849	0.18182	0.	0.31159
19029	4.7767	0.18182	5.e-002	8.3157
19030	4.7767	9.0909e-002	0.	0.21992
19031	4.593	5.7273	0.	0.26248
19032	4.5012	5.8182	0.	0.35494
19033	4.593	5.8182	5.e-002	9.0064
19034	4.593	5.9091	0.	0.23644
19035	4.593	5.5455	0.	0.17976
19036	4.5012	5.6364	0.	0.29673
19037	4.593	5.6364	5.e-002	7.588
19038	4.593	5.3636	0.	8.1139e-002
19039	4.5012	5.4545	0.	9.4009e-002
19040	4.593	5.4545	5.e-002	7.5315
19041	4.593	5.1818	0.	6.2823e-002
19042	4.5012	5.2727	0.	8.1332e-002
19043	4.593	5.2727	5.e-002	7.5444
19044	4.593	5.	0.	4.2472e-002
19045	4.5012	5.0909	0.	5.276e-002
19046	4.593	5.0909	5.e-002	7.5537
19047	4.593	4.8182	0.	2.9264e-002
19048	4.5012	4.9091	0.	3.7636e-002
19049	4.593	4.9091	5.e-002	7.5545
19050	4.593	4.6364	0.	1.8308e-002
19051	4.5012	4.7273	0.	2.4569e-002
19052	4.593	4.7273	5.e-002	7.5475
19053	4.593	4.4545	0.	9.516e-003
19054	4.5012	4.5455	0.	1.4424e-002
19055	4.593	4.5455	5.e-002	7.5341
19056	4.593	4.2727	0.	2.2338e-003
19057	4.5012	4.3636	0.	6.016e-003
19058	4.593	4.3636	5.e-002	7.5158
19059	4.593	4.0909	0.	-3.7618e-003
19060	4.5012	4.1818	0.	-8.9068e-004
19061	4.593	4.1818	5.e-002	7.4945
19062	4.593	3.9091	0.	-8.6521e-003
19063	4.5012	4.	0.	-6.5567e-003
19064	4.593	4.	5.e-002	7.4719
19065	4.593	3.7273	0.	-1.2542e-002
19066	4.5012	3.8182	0.	-1.112e-002
19067	4.593	3.8182	5.e-002	7.4499
19068	4.593	3.5455	0.	-1.5505e-002
19069	4.5012	3.6364	0.	-1.4676e-002
19070	4.593	3.6364	5.e-002	7.4301
19071	4.593	3.3636	0.	-1.7589e-002
19072	4.5012	3.4545	0.	-1.7291e-002
19073	4.593	3.4545	5.e-002	7.4139
19074	4.593	3.1818	0.	-1.8828e-002
19075	4.5012	3.2727	0.	-1.9012e-002
19076	4.593	3.2727	5.e-002	7.4025
19077	4.593	3.	0.	-1.924e-002
19078	4.5012	3.0909	0.	-1.9866e-002
19079	4.593	3.0909	5.e-002	7.3966
19080	4.593	2.8182	0.	-1.8828e-002
19081	4.5012	2.9091	0.	-1.9866e-002
19082	4.593	2.9091	5.e-002	7.3966
19083	4.593	2.6364	0.	-1.7589e-002
19084	4.5012	2.7273	0.	-1.9012e-002
19085	4.593	2.7273	5.e-002	7.4025
19086	4.593	2.4545	0.	-1.5505e-002
19087	4.5012	2.5455	0.	-1.7291e-002
19088	4.593	2.5455	5.e-002	7.4139
19089	4.593	2.2727	0.	-1.2542e-002
19090	4.5012	2.3636	0.	-1.4676e-002
19091	4.593	2.3636	5.e-002	7.4301
19092	4.593	2.0909	0.	-8.6516e-003
19093	4.5012	2.1818	0.	-1.1119e-002
19094	4.593	2.1818	5.e-002	7.4499
19095	4.593	1.9091	0.	-3.7614e-003
19096	4.5012	2.	0.	-6.5563e-003
19097	4.593	2.	5.e-002	7.4718
19098	4.593	1.7273	0.	2.2343e-003
19099	4.5012	1.8182	0.	-8.9021e-004
19100	4.593	1.8182	5.e-002	7.4944
19101	4.593	1.5455	0.	9.5166e-003
19102	4.5012	1.6364	0.	6.0166e-003
19103	4.593	1.6364	5.e-002	7.5158
19104	4.593	1.3636	0.	1.8309e-002
19105	4.5012	1.4545	0.	1.4424e-002
19106	4.593	1.4545	5.e-002	7.534
19107	4.593	1.1818	0.	2.9264e-002
19108	4.5012	1.2727	0.	2.457e-002
19109	4.593	1.2727	5.e-002	7.5475
19110	4.593	1.	0.	4.2473e-002
19111	4.5012	1.0909	0.	3.7637e-002
19112	4.593	1.0909	5.e-002	7.5545
19113	4.593	0.81818	0.	6.2824e-002
19114	4.5012	0.90909	0.	5.2761e-002
19115	4.593	0.90909	5.e-002	7.5537
19116	4.593	0.63636	0.	8.1139e-002
19117	4.5012	0.72727	0.	8.1333e-002
19118	4.593	0.72727	5.e-002	7.5442
19119	4.593	0.45455	0.	0.17976
19120	4.5012	0.54545	0.	9.4009e-002
19121	4.593	0.54545	5.e-002	7.5313
19122	4.593	0.27273	0.	0.26248
19123	4.5012	0.36364	0.	0.29673
19124	4.593	0.36364	5.e-002	7.5879
19125	4.5012	0.18182	0.	0.35494
19126	4.593	0.18182	5.e-002	9.0062
19127	4.593	9.0909e-002	0.	0.23644
19128	4.4093	5.7273	0.	0.2926
19129	4.3174	5.8182	0.	0.40665
19130	4.4093	5.8182	5.e-002	9.746
19131	4.4093	5.9091	0.	0.25473
19132	4.4093	5.5455	0.	0.19729
19133	4.3174	5.6364	0.	0.32539
19134	4.4093	5.6364	5.e-002	7.8219
19135	4.4093	5.3636	0.	8.9382e-002
19136	4.3174	5.4545	0.	0.10389
19137	4.4093	5.4545	5.e-002	7.7387
19138	4.4093	5.1818	0.	6.9013e-002
19139	4.3174	5.2727	0.	8.9366e-002
19140	4.4093	5.2727	5.e-002	7.752
19141	4.4093	5.	0.	4.6653e-002
19142	4.3174	5.0909	0.	5.7995e-002
19143	4.4093	5.0909	5.e-002	7.7628
19144	4.4093	4.8182	0.	3.2134e-002
19145	4.3174	4.9091	0.	4.1339e-002
19146	4.4093	4.9091	5.e-002	7.7639
19147	4.4093	4.6364	0.	2.0124e-002
19148	4.3174	4.7273	0.	2.7002e-002
19149	4.4093	4.7273	5.e-002	7.7561
19150	4.4093	4.4545	0.	1.0507e-002
19151	4.3174	4.5455	0.	1.5894e-002
19152	4.4093	4.5455	5.e-002	7.7411
19153	4.4093	4.2727	0.	2.5642e-003
19154	4.3174	4.3636	0.	6.7176e-003
19155	4.4093	4.3636	5.e-002	7.7205
19156	4.4093	4.0909	0.	-3.9546e-003
19157	4.3174	4.1818	0.	-7.9493e-004
19158	4.4093	4.1818	5.e-002	7.6964
19159	4.4093	3.9091	0.	-9.254e-003
19160	4.3174	4.	0.	-6.9349e-003
19161	4.4093	4.	5.e-002	7.671
19162	4.4093	3.7273	0.	-1.3456e-002
19163	4.3174	3.8182	0.	-1.1861e-002
19164	4.4093	3.8182	5.e-002	7.6462
19165	4.4093	3.5455	0.	-1.6647e-002
19166	4.3174	3.6364	0.	-1.5686e-002
19167	4.4093	3.6364	5.e-002	7.624
19168	4.4093	3.3636	0.	-1.8887e-002
19169	4.3174	3.4545	0.	-1.849e-002
19170	4.4093	3.4545	5.e-002	7.6058
19171	4.4093	3.1818	0.	-2.0216e-002
19172	4.3174	3.2727	0.	-2.0331e-002
19173	4.4093	3.2727	5.e-002	7.5929
19174	4.4093	3.	0.	-2.0657e-002
19175	4.3174	3.0909	0.	-2.1243e-002
19176	4.4093	3.0909	5.e-002	7.5863
19177	4.4093	2.8182	0.	-2.0216e-002
19178	4.3174	2.9091	0.	-2.1243e-002
19179	4.4093	2.9091	5.e-002	7.5863
19180	4.4093	2.6364	0.	-1.8887e-002
19181	4.3174	2.7273	0.	-2.0331e-002
19182	4.4093	2.7273	5.e-002	7.5929
19183	4.4093	2.4545	0.	-1.6647e-002
19184	4.3174	2.5455	0.	-1.849e-002
19185	4.4093	2.5455	5.e-002	7.6058
19186	4.4093	2.2727	0.	-1.3456e-002
19187	4.3174	2.3636	0.	-1.5686e-002
19188	4.4093	2.3636	5.e-002	7.624
19189	4.4093	2.0909	0.	-9.2536e-003
19190	4.3174	2.1818	0.	-1.186e-002
19191	4.4093	2.1818	5.e-002	7.6462
19192	4.4093	1.9091	0.	-3.9542e-003
19193	4.3174	2.	0.	-6.9345e-003
19194	4.4093	2.	5.e-002	7.6709
19195	4.4093	1.7273	0.	2.5647e-003
19196	4.3174	1.8182	0.	-7.9438e-004
19197	4.4093	1.8182	5.e-002	7.6964
19198	4.4093	1.5455	0.	1.0507e-002
19199	4.3174	1.6364	0.	6.7182e-003
19200	4.4093	1.6364	5.e-002	7.7205
19201	4.4093	1.3636	0.	2.0124e-002
19202	4.3174	1.4545	0.	1.5895e-002
19203	4.4093	1.4545	5.e-002	7.7409
19204	4.4093	1.1818	0.	3.2135e-002
19205	4.3174	1.2727	0.	2.7003e-002
19206	4.4093	1.2727	5.e-002	7.756
19207	4.4093	1.	0.	4.6654e-002
19208	4.3174	1.0909	0.	4.134e-002
19209	4.4093	1.0909	5.e-002	7.7638
19210	4.4093	0.81818	0.	6.9014e-002
19211	4.3174	0.90909	0.	5.7996e-002
19212	4.4093	0.90909	5.e-002	7.7627
19213	4.4093	0.63636	0.	8.9382e-002
19214	4.3174	0.72727	0.	8.9367e-002
19215	4.4093	0.72727	5.e-002	7.7519
19216	4.4093	0.45455	0.	0.19729
19217	4.3174	0.54545	0.	0.10389
19218	4.4093	0.54545	5.e-002	7.7385
19219	4.4093	0.27273	0.	0.2926
19220	4.3174	0.36364	0.	0.32539
19221	4.4093	0.36364	5.e-002	7.8218
19222	4.3174	0.18182	0.	0.40665
19223	4.4093	0.18182	5.e-002	9.7458
19224	4.4093	9.0909e-002	0.	0.25473
19225	4.2256	5.7273	0.	0.32691
19226	4.1337	5.8182	0.	0.46868
19227	4.2256	5.8182	5.e-002	10.537
19228	4.2256	5.9091	0.	0.27503
19229	4.2256	5.5455	0.	0.21664
19230	4.1337	5.6364	0.	0.35705
19231	4.2256	5.6364	5.e-002	8.0741
19232	4.2256	5.3636	0.	9.8512e-002
19233	4.1337	5.4545	0.	0.11491
19234	4.2256	5.4545	5.e-002	7.9642
19235	4.2256	5.1818	0.	7.5843e-002
19236	4.1337	5.2727	0.	9.8242e-002
19237	4.2256	5.2727	5.e-002	7.979
19238	4.2256	5.	0.	5.127e-002
19239	4.1337	5.0909	0.	6.3783e-002
19240	4.2256	5.0909	5.e-002	7.9919
19241	4.2256	4.8182	0.	3.5311e-002
19242	4.1337	4.9091	0.	4.5435e-002
19243	4.2256	4.9091	5.e-002	7.994
19244	4.2256	4.6364	0.	2.2151e-002
19245	4.1337	4.7273	0.	2.9708e-002
19246	4.2256	4.7273	5.e-002	7.9859
19247	4.2256	4.4545	0.	1.1642e-002
19248	4.1337	4.5455	0.	1.7555e-002
19249	4.2256	4.5455	5.e-002	7.9695
19250	4.2256	4.2727	0.	2.9951e-003
19251	4.1337	4.3636	0.	7.5543e-003
19252	4.2256	4.3636	5.e-002	7.9469
19253	4.2256	4.0909	0.	-4.0739e-003
19254	4.1337	4.1818	0.	-5.9732e-004
19255	4.2256	4.1818	5.e-002	7.9203
19256	4.2256	3.9091	0.	-9.7966e-003
19257	4.1337	4.	0.	-7.2281e-003
19258	4.2256	4.	5.e-002	7.892
19259	4.2256	3.7273	0.	-1.4316e-002
19260	4.1337	3.8182	0.	-1.2522e-002
19261	4.2256	3.8182	5.e-002	7.8645
19262	4.2256	3.5455	0.	-1.7735e-002
19263	4.1337	3.6364	0.	-1.6614e-002
19264	4.2256	3.6364	5.e-002	7.8398
19265	4.2256	3.3636	0.	-2.0127e-002
19266	4.1337	3.4545	0.	-1.9602e-002
19267	4.2256	3.4545	5.e-002	7.8197
19268	4.2256	3.1818	0.	-2.1544e-002
19269	4.1337	3.2727	0.	-2.1558e-002
19270	4.2256	3.2727	5.e-002	7.8054
19271	4.2256	3.	0.	-2.2013e-002
19272	4.1337	3.0909	0.	-2.2525e-002
19273	4.2256	3.0909	5.e-002	7.7981
19274	4.2256	2.8182	0.	-2.1544e-002
19275	4.1337	2.9091	0.	-2.2525e-002
19276	4.2256	2.9091	5.e-002	7.7981
19277	4.2256	2.6364	0.	-2.0127e-002
19278	4.1337	2.7273	0.	-2.1558e-002
19279	4.2256	2.7273	5.e-002	7.8055
19280	4.2256	2.4545	0.	-1.7735e-002
19281	4.1337	2.5455	0.	-1.9602e-002
19282	4.2256	2.5455	5.e-002	7.8197
19283	4.2256	2.2727	0.	-1.4316e-002
19284	4.1337	2.3636	0.	-1.6614e-002
19285	4.2256	2.3636	5.e-002	7.8398
19286	4.2256	2.0909	0.	-9.7963e-003
19287	4.1337	2.1818	0.	-1.2521e-002
19288	4.2256	2.1818	5.e-002	7.8645
19289	4.2256	1.9091	0.	-4.0734e-003
19290	4.1337	2.	0.	-7.2277e-003
19291	4.2256	2.	5.e-002	7.892
19292	4.2256	1.7273	0.	2.9957e-003
19293	4.1337	1.8182	0.	-5.9681e-004
19294	4.2256	1.8182	5.e-002	7.9202
19295	4.2256	1.5455	0.	1.1643e-002
19296	4.1337	1.6364	0.	7.5548e-003
19297	4.2256	1.6364	5.e-002	7.9469
19298	4.2256	1.3636	0.	2.2151e-002
19299	4.1337	1.4545	0.	1.7556e-002
19300	4.2256	1.4545	5.e-002	7.9695
19301	4.2256	1.1818	0.	3.5312e-002
19302	4.1337	1.2727	0.	2.9709e-002
19303	4.2256	1.2727	5.e-002	7.9859
19304	4.2256	1.	0.	5.1271e-002
19305	4.1337	1.0909	0.	4.5435e-002
19306	4.2256	1.0909	5.e-002	7.9939
19307	4.2256	0.81818	0.	7.5844e-002
19308	4.1337	0.90909	0.	6.3785e-002
19309	4.2256	0.90909	5.e-002	7.9918
19310	4.2256	0.63636	0.	9.8512e-002
19311	4.1337	0.72727	0.	9.8242e-002
19312	4.2256	0.72727	5.e-002	7.9789
19313	4.2256	0.45455	0.	0.21664
19314	4.1337	0.54545	0.	0.11491
19315	4.2256	0.54545	5.e-002	7.964
19316	4.2256	0.27273	0.	0.32691
19317	4.1337	0.36364	0.	0.35705
19318	4.2256	0.36364	5.e-002	8.0739
19319	4.1337	0.18182	0.	0.46868
19320	4.2256	0.18182	5.e-002	10.537
19321	4.2256	9.0909e-002	0.	0.27503
19322	4.0419	5.7273	0.	0.36616
19323	3.95	5.8182	0.	0.54353
19324	4.0419	5.8182	5.e-002	11.381
19325	4.0419	5.9091	0.	0.29763
19326	4.0419	5.5455	0.	0.23803
19327	3.95	5.6364	0.	0.39208
19328	4.0419	5.6364	5.e-002	8.3456
19329	4.0419	5.3636	0.	0.10865
19330	3.95	5.4545	0.	0.1272
19331	4.0419	5.4545	5.e-002	8.2096
19332	4.0419	5.1818	0.	8.3396e-002
19333	3.95	5.2727	0.	0.10806
19334	4.0419	5.2727	5.e-002	8.2272
19335	4.0419	5.	0.	5.6381e-002
19336	3.95	5.0909	0.	7.0186e-002
19337	4.0419	5.0909	5.e-002	8.2435
19338	4.0419	4.8182	0.	3.8837e-002
19339	3.95	4.9091	0.	4.9963e-002
19340	4.0419	4.9091	5.e-002	8.2475
19341	4.0419	4.6364	0.	2.4421e-002
19342	3.95	4.7273	0.	3.2714e-002
19343	4.0419	4.7273	5.e-002	8.2398
19344	4.0419	4.4545	0.	1.2953e-002
19345	3.95	4.5455	0.	1.9428e-002
19346	4.0419	4.5455	5.e-002	8.2225
19347	4.0419	4.2727	0.	3.558e-003
19348	3.95	4.3636	0.	8.5483e-003
19349	4.0419	4.3636	5.e-002	8.1979
19350	4.0419	4.0909	0.	-4.0834e-003
19351	3.95	4.1818	0.	-2.7092e-004
19352	4.0419	4.1818	5.e-002	8.169
19353	4.0419	3.9091	0.	-1.0237e-002
19354	3.95	4.	0.	-7.4014e-003
19355	4.0419	4.	5.e-002	8.1382
19356	4.0419	3.7273	0.	-1.507e-002
19357	3.95	3.8182	0.	-1.3059e-002
19358	4.0419	3.8182	5.e-002	8.1081
19359	4.0419	3.5455	0.	-1.871e-002
19360	3.95	3.6364	0.	-1.7408e-002
19361	4.0419	3.6364	5.e-002	8.0812
19362	4.0419	3.3636	0.	-2.1247e-002
19363	3.95	3.4545	0.	-2.0567e-002
19364	4.0419	3.4545	5.e-002	8.0592
19365	4.0419	3.1818	0.	-2.2744e-002
19366	3.95	3.2727	0.	-2.2626e-002
19367	4.0419	3.2727	5.e-002	8.0437
19368	4.0419	3.	0.	-2.324e-002
19369	3.95	3.0909	0.	-2.3641e-002
19370	4.0419	3.0909	5.e-002	8.0357
19371	4.0419	2.8182	0.	-2.2744e-002
19372	3.95	2.9091	0.	-2.3641e-002
19373	4.0419	2.9091	5.e-002	8.0357
19374	4.0419	2.6364	0.	-2.1247e-002
19375	3.95	2.7273	0.	-2.2626e-002
19376	4.0419	2.7273	5.e-002	8.0437
19377	4.0419	2.4545	0.	-1.871e-002
19378	3.95	2.5455	0.	-2.0566e-002
19379	4.0419	2.5455	5.e-002	8.0592
19380	4.0419	2.2727	0.	-1.507e-002
19381	3.95	2.3636	0.	-1.7407e-002
19382	4.0419	2.3636	5.e-002	8.0811
19383	4.0419	2.0909	0.	-1.0236e-002
19384	3.95	2.1818	0.	-1.3059e-002
19385	4.0419	2.1818	5.e-002	8.1081
19386	4.0419	1.9091	0.	-4.083e-003
19387	3.95	2.	0.	-7.4011e-003
19388	4.0419	2.	5.e-002	8.1381
19389	4.0419	1.7273	0.	3.5585e-003
19390	3.95	1.8182	0.	-2.7035e-004
19391	4.0419	1.8182	5.e-002	8.1689
19392	4.0419	1.5455	0.	1.2953e-002
19393	3.95	1.6364	0.	8.5488e-003
19394	4.0419	1.6364	5.e-002	8.1979
19395	4.0419	1.3636	0.	2.4422e-002
19396	3.95	1.4545	0.	1.9428e-002
19397	4.0419	1.4545	5.e-002	8.2224
19398	4.0419	1.1818	0.	3.8837e-002
19399	3.95	1.2727	0.	3.2714e-002
19400	4.0419	1.2727	5.e-002	8.2397
19401	4.0419	1.	0.	5.6382e-002
19402	3.95	1.0909	0.	4.9964e-002
19403	4.0419	1.0909	5.e-002	8.2473
19404	4.0419	0.81818	0.	8.3397e-002
19405	3.95	0.90909	0.	7.0187e-002
19406	4.0419	0.90909	5.e-002	8.2434
19407	4.0419	0.63636	0.	0.10865
19408	3.95	0.72727	0.	0.10806
19409	4.0419	0.72727	5.e-002	8.2271
19410	4.0419	0.45455	0.	0.23803
19411	3.95	0.54545	0.	0.1272
19412	4.0419	0.54545	5.e-002	8.2095
19413	4.0419	0.27273	0.	0.36616
19414	3.95	0.36364	0.	0.39208
19415	4.0419	0.36364	5.e-002	8.3454
19416	3.95	0.18182	0.	0.54353
19417	4.0419	0.18182	5.e-002	11.381
19418	4.0419	9.0909e-002	0.	0.29763
19419	3.8581	5.7273	0.	0.41124
19420	3.7663	5.8182	0.	0.63451
19421	3.8581	5.8182	5.e-002	12.281
19422	3.8581	5.9091	0.	0.3229
19423	3.8581	5.5455	0.	0.26171
19424	3.7663	5.6364	0.	0.43093
19425	3.8581	5.6364	5.e-002	8.6373
19426	3.8581	5.3636	0.	0.11991
19427	3.7663	5.4545	0.	0.14093
19428	3.8581	5.4545	5.e-002	8.4769
19429	3.8581	5.1818	0.	9.1742e-002
19430	3.7663	5.2727	0.	0.11891
19431	3.8581	5.2727	5.e-002	8.4991
19432	3.8581	5.	0.	6.2025e-002
19433	3.7663	5.0909	0.	7.7261e-002
19434	3.8581	5.0909	5.e-002	8.5203
19435	3.8581	4.8182	0.	4.2733e-002
19436	3.7663	4.9091	0.	5.4959e-002
19437	3.8581	4.9091	5.e-002	8.5271
19438	3.8581	4.6364	0.	2.6951e-002
19439	3.7663	4.7273	0.	3.6039e-002
19440	3.8581	4.7273	5.e-002	8.5206
19441	3.8581	4.4545	0.	1.4451e-002
19442	3.7663	4.5455	0.	2.1529e-002
19443	3.8581	4.5455	5.e-002	8.503
19444	3.8581	4.2727	0.	4.27e-003
19445	3.7663	4.3636	0.	9.7189e-003
19446	3.8581	4.3636	5.e-002	8.4771
19447	3.8581	4.0909	0.	-3.9581e-003
19448	3.7663	4.1818	0.	2.1178e-004
19449	3.8581	4.1818	5.e-002	8.4462
19450	3.8581	3.9091	0.	-1.0539e-002
19451	3.7663	4.	0.	-7.4163e-003
19452	3.8581	4.	5.e-002	8.4131
19453	3.8581	3.7273	0.	-1.5674e-002
19454	3.7663	3.8182	0.	-1.3421e-002
19455	3.8581	3.8182	5.e-002	8.3809
19456	3.8581	3.5455	0.	-1.9517e-002
19457	3.7663	3.6364	0.	-1.8003e-002
19458	3.8581	3.6364	5.e-002	8.352
19459	3.8581	3.3636	0.	-2.2182e-002
19460	3.7663	3.4545	0.	-2.1309e-002
19461	3.8581	3.4545	5.e-002	8.3286
19462	3.8581	3.1818	0.	-2.375e-002
19463	3.7663	3.2727	0.	-2.3454e-002
19464	3.8581	3.2727	5.e-002	8.312
19465	3.8581	3.	0.	-2.4267e-002
19466	3.7663	3.0909	0.	-2.4508e-002
19467	3.8581	3.0909	5.e-002	8.3035
19468	3.8581	2.8182	0.	-2.375e-002
19469	3.7663	2.9091	0.	-2.4508e-002
19470	3.8581	2.9091	5.e-002	8.3035
19471	3.8581	2.6364	0.	-2.2182e-002
19472	3.7663	2.7273	0.	-2.3453e-002
19473	3.8581	2.7273	5.e-002	8.312
19474	3.8581	2.4545	0.	-1.9517e-002
19475	3.7663	2.5455	0.	-2.1309e-002
19476	3.8581	2.5455	5.e-002	8.3285
19477	3.8581	2.2727	0.	-1.5674e-002
19478	3.7663	2.3636	0.	-1.8003e-002
19479	3.8581	2.3636	5.e-002	8.352
19480	3.8581	2.0909	0.	-1.0539e-002
19481	3.7663	2.1818	0.	-1.3421e-002
19482	3.8581	2.1818	5.e-002	8.3808
19483	3.8581	1.9091	0.	-3.9576e-003
19484	3.7663	2.	0.	-7.416e-003
19485	3.8581	2.	5.e-002	8.4131
19486	3.8581	1.7273	0.	4.2707e-003
19487	3.7663	1.8182	0.	2.1237e-004
19488	3.8581	1.8182	5.e-002	8.4461
19489	3.8581	1.5455	0.	1.4452e-002
19490	3.7663	1.6364	0.	9.7194e-003
19491	3.8581	1.6364	5.e-002	8.4771
19492	3.8581	1.3636	0.	2.6952e-002
19493	3.7663	1.4545	0.	2.153e-002
19494	3.8581	1.4545	5.e-002	8.5029
19495	3.8581	1.1818	0.	4.2734e-002
19496	3.7663	1.2727	0.	3.604e-002
19497	3.8581	1.2727	5.e-002	8.5205
19498	3.8581	1.	0.	6.2026e-002
19499	3.7663	1.0909	0.	5.496e-002
19500	3.8581	1.0909	5.e-002	8.527
19501	3.8581	0.81818	0.	9.1743e-002
19502	3.7663	0.90909	0.	7.7262e-002
19503	3.8581	0.90909	5.e-002	8.5201
19504	3.8581	0.63636	0.	0.11991
19505	3.7663	0.72727	0.	0.11891
19506	3.8581	0.72727	5.e-002	8.499
19507	3.8581	0.45455	0.	0.26172
19508	3.7663	0.54545	0.	0.14093
19509	3.8581	0.54545	5.e-002	8.4768
19510	3.8581	0.27273	0.	0.41124
19511	3.7663	0.36364	0.	0.43094
19512	3.8581	0.36364	5.e-002	8.6372
19513	3.7663	0.18182	0.	0.63451
19514	3.8581	0.18182	5.e-002	12.28
19515	3.8581	9.0909e-002	0.	0.3229
19516	3.6744	5.7273	0.	0.46323
19517	3.5826	5.8182	0.	0.74604
19518	3.6744	5.8182	5.e-002	13.236
19519	3.6744	5.9091	0.	0.35133
19520	3.6744	5.5455	0.	0.28799
19521	3.5826	5.6364	0.	0.47415
19522	3.6744	5.6364	5.e-002	8.9506
19523	3.6744	5.3636	0.	0.13244
19524	3.5826	5.4545	0.	0.15632
19525	3.6744	5.4545	5.e-002	8.7683
19526	3.6744	5.1818	0.	0.10097
19527	3.5826	5.2727	0.	0.13094
19528	3.6744	5.2727	5.e-002	8.7974
19529	3.6744	5.	0.	6.8253e-002
19530	3.5826	5.0909	0.	8.5081e-002
19531	3.6744	5.0909	5.e-002	8.8252
19532	3.6744	4.8182	0.	4.7032e-002
19533	3.5826	4.9091	0.	6.0465e-002
19534	3.6744	4.9091	5.e-002	8.8365
19535	3.6744	4.6364	0.	2.976e-002
19536	3.5826	4.7273	0.	3.9712e-002
19537	3.6744	4.7273	5.e-002	8.8322
19538	3.6744	4.4545	0.	1.6159e-002
19539	3.5826	4.5455	0.	2.3883e-002
19540	3.6744	4.5455	5.e-002	8.8149
19541	3.6744	4.2727	0.	5.1601e-003
19542	3.5826	4.3636	0.	1.1096e-002
19543	3.6744	4.3636	5.e-002	8.7883
19544	3.6744	4.0909	0.	-3.6574e-003
19545	3.5826	4.1818	0.	8.9284e-004
19546	3.6744	4.1818	5.e-002	8.7559
19547	3.6744	3.9091	0.	-1.0649e-002
19548	3.5826	4.	0.	-7.2149e-003
19549	3.6744	4.	5.e-002	8.7212
19550	3.6744	3.7273	0.	-1.6059e-002
19551	3.5826	3.8182	0.	-1.3534e-002
19552	3.6744	3.8182	5.e-002	8.6873
19553	3.6744	3.5455	0.	-2.0076e-002
19554	3.5826	3.6364	0.	-1.831e-002
19555	3.6744	3.6364	5.e-002	8.6571
19556	3.6744	3.3636	0.	-2.2843e-002
19557	3.5826	3.4545	0.	-2.1727e-002
19558	3.6744	3.4545	5.e-002	8.6327
19559	3.6744	3.1818	0.	-2.4463e-002
19560	3.5826	3.2727	0.	-2.3929e-002
19561	3.6744	3.2727	5.e-002	8.6156
19562	3.6744	3.	0.	-2.4997e-002
19563	3.5826	3.0909	0.	-2.5007e-002
19564	3.6744	3.0909	5.e-002	8.6068
19565	3.6744	2.8182	0.	-2.4463e-002
19566	3.5826	2.9091	0.	-2.5007e-002
19567	3.6744	2.9091	5.e-002	8.6067
19568	3.6744	2.6364	0.	-2.2843e-002
19569	3.5826	2.7273	0.	-2.3929e-002
19570	3.6744	2.7273	5.e-002	8.6156
19571	3.6744	2.4545	0.	-2.0075e-002
19572	3.5826	2.5455	0.	-2.1727e-002
19573	3.6744	2.5455	5.e-002	8.6327
19574	3.6744	2.2727	0.	-1.6059e-002
19575	3.5826	2.3636	0.	-1.8309e-002
19576	3.6744	2.3636	5.e-002	8.6571
19577	3.6744	2.0909	0.	-1.0649e-002
19578	3.5826	2.1818	0.	-1.3534e-002
19579	3.6744	2.1818	5.e-002	8.6873
19580	3.6744	1.9091	0.	-3.657e-003
19581	3.5826	2.	0.	-7.2146e-003
19582	3.6744	2.	5.e-002	8.7211
19583	3.6744	1.7273	0.	5.1605e-003
19584	3.5826	1.8182	0.	8.9328e-004
19585	3.6744	1.8182	5.e-002	8.7558
19586	3.6744	1.5455	0.	1.616e-002
19587	3.5826	1.6364	0.	1.1096e-002
19588	3.6744	1.6364	5.e-002	8.7882
19589	3.6744	1.3636	0.	2.9761e-002
19590	3.5826	1.4545	0.	2.3883e-002
19591	3.6744	1.4545	5.e-002	8.8148
19592	3.6744	1.1818	0.	4.7032e-002
19593	3.5826	1.2727	0.	3.9713e-002
19594	3.6744	1.2727	5.e-002	8.832
19595	3.6744	1.	0.	6.8254e-002
19596	3.5826	1.0909	0.	6.0465e-002
19597	3.6744	1.0909	5.e-002	8.8364
19598	3.6744	0.81818	0.	0.10097
19599	3.5826	0.90909	0.	8.5082e-002
19600	3.6744	0.90909	5.e-002	8.8251
19601	3.6744	0.63636	0.	0.13244
19602	3.5826	0.72727	0.	0.13094
19603	3.6744	0.72727	5.e-002	8.7973
19604	3.6744	0.45455	0.	0.28799
19605	3.5826	0.54545	0.	0.15632
19606	3.6744	0.54545	5.e-002	8.7682
19607	3.6744	0.27273	0.	0.46323
19608	3.5826	0.36364	0.	0.47415
19609	3.6744	0.36364	5.e-002	8.9505
19610	3.5826	0.18182	0.	0.74604
19611	3.6744	0.18182	5.e-002	13.236
19612	3.6744	9.0909e-002	0.	0.35133
19613	3.4907	5.7273	0.	0.5235
19614	3.3988	5.8182	0.	0.88413
19615	3.4907	5.8182	5.e-002	14.249
19616	3.4907	5.9091	0.	0.38358
19617	3.4907	5.5455	0.	0.31722
19618	3.3988	5.6364	0.	0.52236
19619	3.4907	5.6364	5.e-002	9.2869
19620	3.4907	5.3636	0.	0.14639
19621	3.3988	5.4545	0.	0.17358
19622	3.4907	5.4545	5.e-002	9.0865
19623	3.4907	5.1818	0.	0.11118
19624	3.3988	5.2727	0.	0.14426
19625	3.4907	5.2727	5.e-002	9.1256
19626	3.4907	5.	0.	7.5123e-002
19627	3.3988	5.0909	0.	9.3712e-002
19628	3.4907	5.0909	5.e-002	9.1624
19629	3.4907	4.8182	0.	5.1768e-002
19630	3.3988	4.9091	0.	6.6514e-002
19631	3.4907	4.9091	5.e-002	9.1796
19632	3.4907	4.6364	0.	3.2877e-002
19633	3.3988	4.7273	0.	4.375e-002
19634	3.4907	4.7273	5.e-002	9.1786
19635	3.4907	4.4545	0.	1.8107e-002
19636	3.3988	4.5455	0.	2.6506e-002
19637	3.4907	4.5455	5.e-002	9.1627
19638	3.4907	4.2727	0.	6.2698e-003
19639	3.3988	4.3636	0.	1.2707e-002
19640	3.4907	4.3636	5.e-002	9.136
19641	3.4907	4.0909	0.	-3.1228e-003
19642	3.3988	4.1818	0.	1.8185e-003
19643	3.4907	4.1818	5.e-002	9.1029
19644	3.4907	3.9091	0.	-1.049e-002
19645	3.3988	4.	0.	-6.7292e-003
19646	3.4907	4.	5.e-002	9.0673
19647	3.4907	3.7273	0.	-1.6128e-002
19648	3.3988	3.8182	0.	-1.3307e-002
19649	3.4907	3.8182	5.e-002	9.0328
19650	3.4907	3.5455	0.	-2.0273e-002
19651	3.3988	3.6364	0.	-1.8218e-002
19652	3.4907	3.6364	5.e-002	9.0021
19653	3.4907	3.3636	0.	-2.3104e-002
19654	3.3988	3.4545	0.	-2.1695e-002
19655	3.4907	3.4545	5.e-002	8.9775
19656	3.4907	3.1818	0.	-2.4751e-002
19657	3.3988	3.2727	0.	-2.3915e-002
19658	3.4907	3.2727	5.e-002	8.9604
19659	3.4907	3.	0.	-2.5292e-002
19660	3.3988	3.0909	0.	-2.4996e-002
19661	3.4907	3.0909	5.e-002	8.9516
19662	3.4907	2.8182	0.	-2.4751e-002
19663	3.3988	2.9091	0.	-2.4996e-002
19664	3.4907	2.9091	5.e-002	8.9516
19665	3.4907	2.6364	0.	-2.3104e-002
19666	3.3988	2.7273	0.	-2.3915e-002
19667	3.4907	2.7273	5.e-002	8.9603
19668	3.4907	2.4545	0.	-2.0272e-002
19669	3.3988	2.5455	0.	-2.1695e-002
19670	3.4907	2.5455	5.e-002	8.9775
19671	3.4907	2.2727	0.	-1.6128e-002
19672	3.3988	2.3636	0.	-1.8218e-002
19673	3.4907	2.3636	5.e-002	9.0022
19674	3.4907	2.0909	0.	-1.049e-002
19675	3.3988	2.1818	0.	-1.3307e-002
19676	3.4907	2.1818	5.e-002	9.0327
19677	3.4907	1.9091	0.	-3.1225e-003
19678	3.3988	2.	0.	-6.729e-003
19679	3.4907	2.	5.e-002	9.0672
19680	3.4907	1.7273	0.	6.2703e-003
19681	3.3988	1.8182	0.	1.8188e-003
19682	3.4907	1.8182	5.e-002	9.1028
19683	3.4907	1.5455	0.	1.8108e-002
19684	3.3988	1.6364	0.	1.2708e-002
19685	3.4907	1.6364	5.e-002	9.136
19686	3.4907	1.3636	0.	3.2878e-002
19687	3.3988	1.4545	0.	2.6507e-002
19688	3.4907	1.4545	5.e-002	9.1626
19689	3.4907	1.1818	0.	5.1768e-002
19690	3.3988	1.2727	0.	4.3751e-002
19691	3.4907	1.2727	5.e-002	9.1785
19692	3.4907	1.	0.	7.5123e-002
19693	3.3988	1.0909	0.	6.6515e-002
19694	3.4907	1.0909	5.e-002	9.1795
19695	3.4907	0.81818	0.	0.11118
19696	3.3988	0.90909	0.	9.3713e-002
19697	3.4907	0.90909	5.e-002	9.1623
19698	3.4907	0.63636	0.	0.14639
19699	3.3988	0.72727	0.	0.14426
19700	3.4907	0.72727	5.e-002	9.1254
19701	3.4907	0.45455	0.	0.31722
19702	3.3988	0.54545	0.	0.17358
19703	3.4907	0.54545	5.e-002	9.0864
19704	3.4907	0.27273	0.	0.5235
19705	3.3988	0.36364	0.	0.52236
19706	3.4907	0.36364	5.e-002	9.2868
19707	3.3988	0.18182	0.	0.88413
19708	3.4907	0.18182	5.e-002	14.249
19709	3.4907	9.0909e-002	0.	0.38359
19710	3.307	5.7273	0.	0.59375
19711	3.2151	5.8182	0.	1.0571
19712	3.307	5.8182	5.e-002	15.319
19713	3.307	5.9091	0.	0.4206
19714	3.307	5.5455	0.	0.34979
19715	3.2151	5.6364	0.	0.57631
19716	3.307	5.6364	5.e-002	9.648
19717	3.307	5.3636	0.	0.16196
19718	3.2151	5.4545	0.	0.19299
19719	3.307	5.4545	5.e-002	9.4351
19720	3.307	5.1818	0.	0.12245
19721	3.2151	5.2727	0.	0.15904
19722	3.307	5.2727	5.e-002	9.4879
19723	3.307	5.	0.	8.2674e-002
19724	3.2151	5.0909	0.	0.10322
19725	3.307	5.0909	5.e-002	9.5365
19726	3.307	4.8182	0.	5.6955e-002
19727	3.2151	4.9091	0.	7.3136e-002
19728	3.307	4.9091	5.e-002	9.5616
19729	3.307	4.6364	0.	3.6308e-002
19730	3.2151	4.7273	0.	4.8166e-002
19731	3.307	4.7273	5.e-002	9.5651
19732	3.307	4.4545	0.	2.0309e-002
19733	3.2151	4.5455	0.	2.9415e-002
19734	3.307	4.5455	5.e-002	9.5514
19735	3.307	4.2727	0.	7.6312e-003
19736	3.2151	4.3636	0.	1.4586e-002
19737	3.307	4.3636	5.e-002	9.5255
19738	3.307	4.0909	0.	-2.2994e-003
19739	3.2151	4.1818	0.	3.0464e-003
19740	3.307	4.1818	5.e-002	9.4927
19741	3.307	3.9091	0.	-9.9811e-003
19742	3.2151	4.	0.	-5.8729e-003
19743	3.307	4.	5.e-002	9.4573
19744	3.307	3.7273	0.	-1.5779e-002
19745	3.2151	3.8182	0.	-1.2627e-002
19746	3.307	3.8182	5.e-002	9.4234
19747	3.307	3.5455	0.	-1.9985e-002
19748	3.2151	3.6364	0.	-1.759e-002
19749	3.307	3.6364	5.e-002	9.3936
19750	3.307	3.3636	0.	-2.2827e-002
19751	3.2151	3.4545	0.	-2.1054e-002
19752	3.307	3.4545	5.e-002	9.37
19753	3.307	3.1818	0.	-2.4467e-002
19754	3.2151	3.2727	0.	-2.3242e-002
19755	3.307	3.2727	5.e-002	9.3536
19756	3.307	3.	0.	-2.5003e-002
19757	3.2151	3.0909	0.	-2.4299e-002
19758	3.307	3.0909	5.e-002	9.3454
19759	3.307	2.8182	0.	-2.4467e-002
19760	3.2151	2.9091	0.	-2.4299e-002
19761	3.307	2.9091	5.e-002	9.3454
19762	3.307	2.6364	0.	-2.2827e-002
19763	3.2151	2.7273	0.	-2.3241e-002
19764	3.307	2.7273	5.e-002	9.3536
19765	3.307	2.4545	0.	-1.9985e-002
19766	3.2151	2.5455	0.	-2.1054e-002
19767	3.307	2.5455	5.e-002	9.3699
19768	3.307	2.2727	0.	-1.5778e-002
19769	3.2151	2.3636	0.	-1.759e-002
19770	3.307	2.3636	5.e-002	9.3936
19771	3.307	2.0909	0.	-9.9808e-003
19772	3.2151	2.1818	0.	-1.2627e-002
19773	3.307	2.1818	5.e-002	9.4233
19774	3.307	1.9091	0.	-2.2991e-003
19775	3.2151	2.	0.	-5.8726e-003
19776	3.307	2.	5.e-002	9.4573
19777	3.307	1.7273	0.	7.6315e-003
19778	3.2151	1.8182	0.	3.0467e-003
19779	3.307	1.8182	5.e-002	9.4926
19780	3.307	1.5455	0.	2.031e-002
19781	3.2151	1.6364	0.	1.4586e-002
19782	3.307	1.6364	5.e-002	9.5255
19783	3.307	1.3636	0.	3.6309e-002
19784	3.2151	1.4545	0.	2.9415e-002
19785	3.307	1.4545	5.e-002	9.5513
19786	3.307	1.1818	0.	5.6956e-002
19787	3.2151	1.2727	0.	4.8167e-002
19788	3.307	1.2727	5.e-002	9.565
19789	3.307	1.	0.	8.2674e-002
19790	3.2151	1.0909	0.	7.3136e-002
19791	3.307	1.0909	5.e-002	9.5615
19792	3.307	0.81818	0.	0.12245
19793	3.2151	0.90909	0.	0.10322
19794	3.307	0.90909	5.e-002	9.5364
19795	3.307	0.63636	0.	0.16196
19796	3.2151	0.72727	0.	0.15904
19797	3.307	0.72727	5.e-002	9.4878
19798	3.307	0.45455	0.	0.34979
19799	3.2151	0.54545	0.	0.19299
19800	3.307	0.54545	5.e-002	9.435
19801	3.307	0.27273	0.	0.59375
19802	3.2151	0.36364	0.	0.57631
19803	3.307	0.36364	5.e-002	9.6479
19804	3.2151	0.18182	0.	1.0571
19805	3.307	0.18182	5.e-002	15.318
19806	3.307	9.0909e-002	0.	0.4206
19807	3.1233	5.7273	0.	0.67613
19808	3.0314	5.8182	0.	1.2769
19809	3.1233	5.8182	5.e-002	16.444
19810	3.1233	5.9091	0.	0.46374
19811	3.1233	5.5455	0.	0.3862
19812	3.0314	5.6364	0.	0.63694
19813	3.1233	5.6364	5.e-002	10.036
19814	3.1233	5.3636	0.	0.17933
19815	3.0314	5.4545	0.	0.21486
19816	3.1233	5.4545	5.e-002	9.819
19817	3.1233	5.1818	0.	0.13491
19818	3.0314	5.2727	0.	0.17543
19819	3.1233	5.2727	5.e-002	9.8902
19820	3.1233	5.	0.	9.0956e-002
19821	3.0314	5.0909	0.	0.11369
19822	3.1233	5.0909	5.e-002	9.9537
19823	3.1233	4.8182	0.	6.2615e-002
19824	3.0314	4.9091	0.	8.036e-002
19825	3.1233	4.9091	5.e-002	9.9886
19826	3.1233	4.6364	0.	4.007e-002
19827	3.0314	4.7273	0.	5.2976e-002
19828	3.1233	4.7273	5.e-002	9.9978
19829	3.1233	4.4545	0.	2.2797e-002
19830	3.0314	4.5455	0.	3.2635e-002
19831	3.1233	4.5455	5.e-002	9.9872
19832	3.1233	4.2727	0.	9.3011e-003
19833	3.0314	4.3636	0.	1.6784e-002
19834	3.1233	4.3636	5.e-002	9.9631
19835	3.1233	4.0909	0.	-1.0987e-003
19836	3.0314	4.1818	0.	4.6641e-003
19837	3.1233	4.1818	5.e-002	9.9316
19838	3.1233	3.9091	0.	-9.0027e-003
19839	3.0314	4.	0.	-4.5221e-003
19840	3.1233	4.	5.e-002	9.8981
19841	3.1233	3.7273	0.	-1.4862e-002
19842	3.0314	3.8182	0.	-1.1335e-002
19843	3.1233	3.8182	5.e-002	9.8664
19844	3.1233	3.5455	0.	-1.9041e-002
19845	3.0314	3.6364	0.	-1.624e-002
19846	3.1233	3.6364	5.e-002	9.8391
19847	3.1233	3.3636	0.	-2.1823e-002
19848	3.0314	3.4545	0.	-1.96e-002
19849	3.1233	3.4545	5.e-002	9.818
19850	3.1233	3.1818	0.	-2.3412e-002
19851	3.0314	3.2727	0.	-2.1689e-002
19852	3.1233	3.2727	5.e-002	9.8037
19853	3.1233	3.	0.	-2.3928e-002
19854	3.0314	3.0909	0.	-2.2689e-002
19855	3.1233	3.0909	5.e-002	9.7965
19856	3.1233	2.8182	0.	-2.3412e-002
19857	3.0314	2.9091	0.	-2.2689e-002
19858	3.1233	2.9091	5.e-002	9.7965
19859	3.1233	2.6364	0.	-2.1823e-002
19860	3.0314	2.7273	0.	-2.1689e-002
19861	3.1233	2.7273	5.e-002	9.8037
19862	3.1233	2.4545	0.	-1.9041e-002
19863	3.0314	2.5455	0.	-1.96e-002
19864	3.1233	2.5455	5.e-002	9.818
19865	3.1233	2.2727	0.	-1.4861e-002
19866	3.0314	2.3636	0.	-1.624e-002
19867	3.1233	2.3636	5.e-002	9.8391
19868	3.1233	2.0909	0.	-9.0024e-003
19869	3.0314	2.1818	0.	-1.1335e-002
19870	3.1233	2.1818	5.e-002	9.8663
19871	3.1233	1.9091	0.	-1.0984e-003
19872	3.0314	2.	0.	-4.5218e-003
19873	3.1233	2.	5.e-002	9.8979
19874	3.1233	1.7273	0.	9.3015e-003
19875	3.0314	1.8182	0.	4.6645e-003
19876	3.1233	1.8182	5.e-002	9.9315
19877	3.1233	1.5455	0.	2.2798e-002
19878	3.0314	1.6364	0.	1.6784e-002
19879	3.1233	1.6364	5.e-002	9.9629
19880	3.1233	1.3636	0.	4.0071e-002
19881	3.0314	1.4545	0.	3.2636e-002
19882	3.1233	1.4545	5.e-002	9.9871
19883	3.1233	1.1818	0.	6.2616e-002
19884	3.0314	1.2727	0.	5.2977e-002
19885	3.1233	1.2727	5.e-002	9.9977
19886	3.1233	1.	0.	9.0956e-002
19887	3.0314	1.0909	0.	8.0361e-002
19888	3.1233	1.0909	5.e-002	9.9885
19889	3.1233	0.81818	0.	0.13492
19890	3.0314	0.90909	0.	0.11369
19891	3.1233	0.90909	5.e-002	9.9536
19892	3.1233	0.63636	0.	0.17933
19893	3.0314	0.72727	0.	0.17543
19894	3.1233	0.72727	5.e-002	9.8901
19895	3.1233	0.45455	0.	0.38621
19896	3.0314	0.54545	0.	0.21486
19897	3.1233	0.54545	5.e-002	9.8189
19898	3.1233	0.27273	0.	0.67613
19899	3.0314	0.36364	0.	0.63695
19900	3.1233	0.36364	5.e-002	10.036
19901	3.0314	0.18182	0.	1.2769
19902	3.1233	0.18182	5.e-002	16.443
19903	3.1233	9.0909e-002	0.	0.46374
19904	2.9395	5.7273	0.	0.7734
19905	2.8477	5.8182	0.	1.5607
19906	2.9395	5.8182	5.e-002	17.622
19907	2.9395	5.9091	0.	0.51509
19908	2.9395	5.5455	0.	0.42704
19909	2.8477	5.6364	0.	0.70539
19910	2.9395	5.6364	5.e-002	10.456
19911	2.9395	5.3636	0.	0.19876
19912	2.8477	5.4545	0.	0.23959
19913	2.9395	5.4545	5.e-002	10.245
19914	2.9395	5.1818	0.	0.14868
19915	2.8477	5.2727	0.	0.19364
19916	2.9395	5.2727	5.e-002	10.34
19917	2.9395	5.	0.	0.10002
19918	2.8477	5.0909	0.	0.1252
19919	2.9395	5.0909	5.e-002	10.422
19920	2.9395	4.8182	0.	6.877e-002
19921	2.8477	4.9091	0.	8.8217e-002
19922	2.9395	4.9091	5.e-002	10.468
19923	2.9395	4.6364	0.	4.4186e-002
19924	2.8477	4.7273	0.	5.8198e-002
19925	2.9395	4.7273	5.e-002	10.484
19926	2.9395	4.4545	0.	2.5616e-002
19927	2.8477	4.5455	0.	3.6205e-002
19928	2.9395	4.5455	5.e-002	10.477
19929	2.9395	4.2727	0.	1.1361e-002
19930	2.8477	4.3636	0.	1.9379e-002
19931	2.9395	4.3636	5.e-002	10.456
19932	2.9395	4.0909	0.	6.0122e-004
19933	2.8477	4.1818	0.	6.7949e-003
19934	2.9395	4.1818	5.e-002	10.427
19935	2.9395	3.9091	0.	-7.3941e-003
19936	2.8477	4.	0.	-2.509e-003
19937	2.9395	4.	5.e-002	10.397
19938	2.9395	3.7273	0.	-1.3184e-002
19939	2.8477	3.8182	0.	-9.2269e-003
19940	2.9395	3.8182	5.e-002	10.37
19941	2.9395	3.5455	0.	-1.7221e-002
19942	2.8477	3.6364	0.	-1.3934e-002
19943	2.9395	3.6364	5.e-002	10.347
19944	2.9395	3.3636	0.	-1.9856e-002
19945	2.8477	3.4545	0.	-1.7077e-002
19946	2.9395	3.4545	5.e-002	10.331
19947	2.9395	3.1818	0.	-2.1338e-002
19948	2.8477	3.2727	0.	-1.899e-002
19949	2.9395	3.2727	5.e-002	10.32
19950	2.9395	3.	0.	-2.1816e-002
19951	2.8477	3.0909	0.	-1.9892e-002
19952	2.9395	3.0909	5.e-002	10.315
19953	2.9395	2.8182	0.	-2.1338e-002
19954	2.8477	2.9091	0.	-1.9892e-002
19955	2.9395	2.9091	5.e-002	10.315
19956	2.9395	2.6364	0.	-1.9856e-002
19957	2.8477	2.7273	0.	-1.899e-002
19958	2.9395	2.7273	5.e-002	10.32
19959	2.9395	2.4545	0.	-1.7221e-002
19960	2.8477	2.5455	0.	-1.7077e-002
19961	2.9395	2.5455	5.e-002	10.331
19962	2.9395	2.2727	0.	-1.3183e-002
19963	2.8477	2.3636	0.	-1.3934e-002
19964	2.9395	2.3636	5.e-002	10.347
19965	2.9395	2.0909	0.	-7.3939e-003
19966	2.8477	2.1818	0.	-9.2268e-003
19967	2.9395	2.1818	5.e-002	10.37
19968	2.9395	1.9091	0.	6.0153e-004
19969	2.8477	2.	0.	-2.5087e-003
19970	2.9395	2.	5.e-002	10.397
19971	2.9395	1.7273	0.	1.1362e-002
19972	2.8477	1.8182	0.	6.7952e-003
19973	2.9395	1.8182	5.e-002	10.427
19974	2.9395	1.5455	0.	2.5616e-002
19975	2.8477	1.6364	0.	1.9379e-002
19976	2.9395	1.6364	5.e-002	10.456
19977	2.9395	1.3636	0.	4.4187e-002
19978	2.8477	1.4545	0.	3.6206e-002
19979	2.9395	1.4545	5.e-002	10.477
19980	2.9395	1.1818	0.	6.877e-002
19981	2.8477	1.2727	0.	5.8198e-002
19982	2.9395	1.2727	5.e-002	10.484
19983	2.9395	1.	0.	0.10002
19984	2.8477	1.0909	0.	8.8218e-002
19985	2.9395	1.0909	5.e-002	10.468
19986	2.9395	0.81818	0.	0.14868
19987	2.8477	0.90909	0.	0.1252
19988	2.9395	0.90909	5.e-002	10.422
19989	2.9395	0.63636	0.	0.19876
19990	2.8477	0.72727	0.	0.19364
19991	2.9395	0.72727	5.e-002	10.34
19992	2.9395	0.45455	0.	0.42704
19993	2.8477	0.54545	0.	0.23959
19994	2.9395	0.54545	5.e-002	10.245
19995	2.9395	0.27273	0.	0.7734
19996	2.8477	0.36364	0.	0.70539
19997	2.9395	0.36364	5.e-002	10.456
19998	2.8477	0.18182	0.	1.5607
19999	2.9395	0.18182	5.e-002	17.621
20000	2.9395	9.0909e-002	0.	0.51509
20001	2.7558	5.7273	0.	0.88912
20002	2.664	5.8182	0.	1.9348
20003	2.7558	5.8182	5.e-002	18.848
20004	2.7558	5.9091	0.	0.57803
20005	2.7558	5.5455	0.	0.473
20006	2.664	5.6364	0.	0.78304
20007	2.7558	5.6364	5.e-002	10.913
20008	2.7558	5.3636	0.	0.22055
20009	2.664	5.4545	0.	0.2676
20010	2.7558	5.4545	5.e-002	10.723
20011	2.7558	5.1818	0.	0.16389
20012	2.664	5.2727	0.	0.21386
20013	2.7558	5.2727	5.e-002	10.848
20014	2.7558	5.	0.	0.10991
20015	2.664	5.0909	0.	0.1378
20016	2.7558	5.0909	5.e-002	10.952
20017	2.7558	4.8182	0.	7.5437e-002
20018	2.664	4.9091	0.	9.6705e-002
20019	2.7558	4.9091	5.e-002	11.011
20020	2.7558	4.6364	0.	4.8685e-002
20021	2.664	4.7273	0.	6.3827e-002
20022	2.7558	4.7273	5.e-002	11.034
20023	2.7558	4.4545	0.	2.8833e-002
20024	2.664	4.5455	0.	4.0158e-002
20025	2.7558	4.5455	5.e-002	11.03
20026	2.7558	4.2727	0.	1.3928e-002
20027	2.664	4.3636	0.	2.2458e-002
20028	2.7558	4.3636	5.e-002	11.012
20029	2.7558	4.0909	0.	2.9683e-003
20030	2.664	4.1818	0.	9.5846e-003
20031	2.7558	4.1818	5.e-002	10.988
20032	2.7558	3.9091	0.	-4.9425e-003
20033	2.664	4.	0.	3.6402e-004
20034	2.7558	4.	5.e-002	10.964
20035	2.7558	3.7273	0.	-1.0497e-002
20036	2.664	3.8182	0.	-6.0645e-003
20037	2.7558	3.8182	5.e-002	10.944
20038	2.7558	3.5455	0.	-1.4253e-002
20039	2.664	3.6364	0.	-1.0406e-002
20040	2.7558	3.6364	5.e-002	10.929
20041	2.7558	3.3636	0.	-1.6638e-002
20042	2.664	3.4545	0.	-1.3203e-002
20043	2.7558	3.4545	5.e-002	10.919
20044	2.7558	3.1818	0.	-1.795e-002
20045	2.664	3.2727	0.	-1.4854e-002
20046	2.7558	3.2727	5.e-002	10.914
20047	2.7558	3.	0.	-1.8368e-002
20048	2.664	3.0909	0.	-1.5616e-002
20049	2.7558	3.0909	5.e-002	10.912
20050	2.7558	2.8182	0.	-1.795e-002
20051	2.664	2.9091	0.	-1.5616e-002
20052	2.7558	2.9091	5.e-002	10.912
20053	2.7558	2.6364	0.	-1.6637e-002
20054	2.664	2.7273	0.	-1.4854e-002
20055	2.7558	2.7273	5.e-002	10.914
20056	2.7558	2.4545	0.	-1.4253e-002
20057	2.664	2.5455	0.	-1.3203e-002
20058	2.7558	2.5455	5.e-002	10.919
20059	2.7558	2.2727	0.	-1.0497e-002
20060	2.664	2.3636	0.	-1.0406e-002
20061	2.7558	2.3636	5.e-002	10.929
20062	2.7558	2.0909	0.	-4.9423e-003
20063	2.664	2.1818	0.	-6.0643e-003
20064	2.7558	2.1818	5.e-002	10.943
20065	2.7558	1.9091	0.	2.9686e-003
20066	2.664	2.	0.	3.6431e-004
20067	2.7558	2.	5.e-002	10.964
20068	2.7558	1.7273	0.	1.3929e-002
20069	2.664	1.8182	0.	9.5848e-003
20070	2.7558	1.8182	5.e-002	10.988
20071	2.7558	1.5455	0.	2.8833e-002
20072	2.664	1.6364	0.	2.2459e-002
20073	2.7558	1.6364	5.e-002	11.012
20074	2.7558	1.3636	0.	4.8685e-002
20075	2.664	1.4545	0.	4.0158e-002
20076	2.7558	1.4545	5.e-002	11.03
20077	2.7558	1.1818	0.	7.5437e-002
20078	2.664	1.2727	0.	6.3827e-002
20079	2.7558	1.2727	5.e-002	11.034
20080	2.7558	1.	0.	0.10991
20081	2.664	1.0909	0.	9.6706e-002
20082	2.7558	1.0909	5.e-002	11.011
20083	2.7558	0.81818	0.	0.16389
20084	2.664	0.90909	0.	0.1378
20085	2.7558	0.90909	5.e-002	10.952
20086	2.7558	0.63636	0.	0.22055
20087	2.664	0.72727	0.	0.21386
20088	2.7558	0.72727	5.e-002	10.848
20089	2.7558	0.45455	0.	0.473
20090	2.664	0.54545	0.	0.26759
20091	2.7558	0.54545	5.e-002	10.722
20092	2.7558	0.27273	0.	0.88912
20093	2.664	0.36364	0.	0.78304
20094	2.7558	0.36364	5.e-002	10.913
20095	2.664	0.18182	0.	1.9348
20096	2.7558	0.18182	5.e-002	18.848
20097	2.7558	9.0909e-002	0.	0.57803
20098	2.5721	5.7273	0.	1.0279
20099	2.4802	5.8182	0.	2.44
20100	2.5721	5.8182	5.e-002	20.115
20101	2.5721	5.9091	0.	0.65837
20102	2.5721	5.5455	0.	0.52491
20103	2.4802	5.6364	0.	0.87164
20104	2.5721	5.6364	5.e-002	11.416
20105	2.5721	5.3636	0.	0.24497
20106	2.4802	5.4545	0.	0.29946
20107	2.5721	5.4545	5.e-002	11.266
20108	2.5721	5.1818	0.	0.18064
20109	2.4802	5.2727	0.	0.23639
20110	2.5721	5.2727	5.e-002	11.429
20111	2.5721	5.	0.	0.12063
20112	2.4802	5.0909	0.	0.15161
20113	2.5721	5.0909	5.e-002	11.557
20114	2.5721	4.8182	0.	8.2584e-002
20115	2.4802	4.9091	0.	0.10588
20116	2.5721	4.9091	5.e-002	11.629
20117	2.5721	4.6364	0.	5.3559e-002
20118	2.4802	4.7273	0.	6.9938e-002
20119	2.5721	4.7273	5.e-002	11.657
20120	2.5721	4.4545	0.	3.2497e-002
20121	2.4802	4.5455	0.	4.4628e-002
20122	2.5721	4.5455	5.e-002	11.657
20123	2.5721	4.2727	0.	1.7117e-002
20124	2.4802	4.3636	0.	2.6234e-002
20125	2.5721	4.3636	5.e-002	11.642
20126	2.5721	4.0909	0.	6.1774e-003
20127	2.4802	4.1818	0.	1.3317e-002
20128	2.5721	4.1818	5.e-002	11.623
20129	2.5721	3.9091	0.	-1.4262e-003
20130	2.4802	4.	0.	4.4351e-003
20131	2.5721	4.	5.e-002	11.608
20132	2.5721	3.7273	0.	-6.5476e-003
20133	2.4802	3.8182	0.	-1.4749e-003
20134	2.5721	3.8182	5.e-002	11.598
20135	2.5721	3.5455	0.	-9.8645e-003
20136	2.4802	3.6364	0.	-5.2667e-003
20137	2.5721	3.6364	5.e-002	11.595
20138	2.5721	3.3636	0.	-1.1885e-002
20139	2.4802	3.4545	0.	-7.5823e-003
20140	2.5721	3.4545	5.e-002	11.595
20141	2.5721	3.1818	0.	-1.296e-002
20142	2.4802	3.2727	0.	-8.883e-003
20143	2.5721	3.2727	5.e-002	11.598
20144	2.5721	3.	0.	-1.3296e-002
20145	2.4802	3.0909	0.	-9.462e-003
20146	2.5721	3.0909	5.e-002	11.599
20147	2.5721	2.8182	0.	-1.296e-002
20148	2.4802	2.9091	0.	-9.4619e-003
20149	2.5721	2.9091	5.e-002	11.599
20150	2.5721	2.6364	0.	-1.1885e-002
20151	2.4802	2.7273	0.	-8.8829e-003
20152	2.5721	2.7273	5.e-002	11.598
20153	2.5721	2.4545	0.	-9.8643e-003
20154	2.4802	2.5455	0.	-7.5822e-003
20155	2.5721	2.5455	5.e-002	11.595
20156	2.5721	2.2727	0.	-6.5474e-003
20157	2.4802	2.3636	0.	-5.2665e-003
20158	2.5721	2.3636	5.e-002	11.595
20159	2.5721	2.0909	0.	-1.4259e-003
20160	2.4802	2.1818	0.	-1.4747e-003
20161	2.5721	2.1818	5.e-002	11.598
20162	2.5721	1.9091	0.	6.1776e-003
20163	2.4802	2.	0.	4.4353e-003
20164	2.5721	2.	5.e-002	11.608
20165	2.5721	1.7273	0.	1.7118e-002
20166	2.4802	1.8182	0.	1.3317e-002
20167	2.5721	1.8182	5.e-002	11.623
20168	2.5721	1.5455	0.	3.2497e-002
20169	2.4802	1.6364	0.	2.6234e-002
20170	2.5721	1.6364	5.e-002	11.642
20171	2.5721	1.3636	0.	5.356e-002
20172	2.4802	1.4545	0.	4.4628e-002
20173	2.5721	1.4545	5.e-002	11.657
20174	2.5721	1.1818	0.	8.2584e-002
20175	2.4802	1.2727	0.	6.9939e-002
20176	2.5721	1.2727	5.e-002	11.657
20177	2.5721	1.	0.	0.12063
20178	2.4802	1.0909	0.	0.10588
20179	2.5721	1.0909	5.e-002	11.629
20180	2.5721	0.81818	0.	0.18064
20181	2.4802	0.90909	0.	0.15161
20182	2.5721	0.90909	5.e-002	11.557
20183	2.5721	0.63636	0.	0.24497
20184	2.4802	0.72727	0.	0.23639
20185	2.5721	0.72727	5.e-002	11.429
20186	2.5721	0.45455	0.	0.52491
20187	2.4802	0.54545	0.	0.29946
20188	2.5721	0.54545	5.e-002	11.266
20189	2.5721	0.27273	0.	1.0279
20190	2.4802	0.36364	0.	0.87164
20191	2.5721	0.36364	5.e-002	11.416
20192	2.4802	0.18182	0.	2.44
20193	2.5721	0.18182	5.e-002	20.115
20194	2.5721	9.0909e-002	0.	0.65837
20195	2.3884	5.7273	0.	1.196
20196	2.2965	5.8182	0.	3.1425
20197	2.3884	5.8182	5.e-002	21.412
20198	2.3884	5.9091	0.	0.76732
20199	2.3884	5.5455	0.	0.58388
20200	2.2965	5.6364	0.	0.97331
20201	2.3884	5.6364	5.e-002	11.981
20202	2.3884	5.3636	0.	0.27251
20203	2.2965	5.4545	0.	0.33572
20204	2.3884	5.4545	5.e-002	11.896
20205	2.3884	5.1818	0.	0.19919
20206	2.2965	5.2727	0.	0.26135
20207	2.3884	5.2727	5.e-002	12.104
20208	2.3884	5.	0.	0.13233
20209	2.2965	5.0909	0.	0.16654
20210	2.3884	5.0909	5.e-002	12.257
20211	2.3884	4.8182	0.	9.0363e-002
20212	2.2965	4.9091	0.	0.1156
20213	2.3884	4.9091	5.e-002	12.339
20214	2.3884	4.6364	0.	5.9019e-002
20215	2.2965	4.7273	0.	7.6427e-002
20216	2.3884	4.7273	5.e-002	12.369
20217	2.3884	4.4545	0.	3.6903e-002
20218	2.2965	4.5455	0.	4.96e-002
20219	2.3884	4.5455	5.e-002	12.369
20220	2.3884	4.2727	0.	2.1307e-002
20221	2.2965	4.3636	0.	3.0785e-002
20222	2.3884	4.3636	5.e-002	12.357
20223	2.3884	4.0909	0.	1.0675e-002
20224	2.2965	4.1818	0.	1.8145e-002
20225	2.3884	4.1818	5.e-002	12.346
20226	2.3884	3.9091	0.	3.6447e-003
20227	2.2965	4.	0.	9.901e-003
20228	2.3884	4.	5.e-002	12.342
20229	2.3884	3.7273	0.	-8.2437e-004
20230	2.2965	3.8182	0.	4.7543e-003
20231	2.3884	3.8182	5.e-002	12.347
20232	2.3884	3.5455	0.	-3.5377e-003
20233	2.2965	3.6364	0.	1.6935e-003
20234	2.3884	3.6364	5.e-002	12.359
20235	2.3884	3.3636	0.	-5.0829e-003
20236	2.2965	3.4545	0.	-1.9068e-005
20237	2.3884	3.4545	5.e-002	12.373
20238	2.3884	3.1818	0.	-5.8582e-003
20239	2.2965	3.2727	0.	-8.9696e-004
20240	2.3884	3.2727	5.e-002	12.385
20241	2.3884	3.	0.	-6.0918e-003
20242	2.2965	3.0909	0.	-1.2595e-003
20243	2.3884	3.0909	5.e-002	12.391
20244	2.3884	2.8182	0.	-5.8582e-003
20245	2.2965	2.9091	0.	-1.2594e-003
20246	2.3884	2.9091	5.e-002	12.391
20247	2.3884	2.6364	0.	-5.0828e-003
20248	2.2965	2.7273	0.	-8.9688e-004
20249	2.3884	2.7273	5.e-002	12.385
20250	2.3884	2.4545	0.	-3.5375e-003
20251	2.2965	2.5455	0.	-1.8939e-005
20252	2.3884	2.5455	5.e-002	12.372
20253	2.3884	2.2727	0.	-8.2419e-004
20254	2.2965	2.3636	0.	1.6936e-003
20255	2.3884	2.3636	5.e-002	12.359
20256	2.3884	2.0909	0.	3.6449e-003
20257	2.2965	2.1818	0.	4.7545e-003
20258	2.3884	2.1818	5.e-002	12.347
20259	2.3884	1.9091	0.	1.0675e-002
20260	2.2965	2.	0.	9.9012e-003
20261	2.3884	2.	5.e-002	12.342
20262	2.3884	1.7273	0.	2.1307e-002
20263	2.2965	1.8182	0.	1.8145e-002
20264	2.3884	1.8182	5.e-002	12.346
20265	2.3884	1.5455	0.	3.6903e-002
20266	2.2965	1.6364	0.	3.0786e-002
20267	2.3884	1.6364	5.e-002	12.357
20268	2.3884	1.3636	0.	5.902e-002
20269	2.2965	1.4545	0.	4.96e-002
20270	2.3884	1.4545	5.e-002	12.369
20271	2.3884	1.1818	0.	9.0363e-002
20272	2.2965	1.2727	0.	7.6427e-002
20273	2.3884	1.2727	5.e-002	12.369
20274	2.3884	1.	0.	0.13233
20275	2.2965	1.0909	0.	0.1156
20276	2.3884	1.0909	5.e-002	12.339
20277	2.3884	0.81818	0.	0.19919
20278	2.2965	0.90909	0.	0.16654
20279	2.3884	0.90909	5.e-002	12.257
20280	2.3884	0.63636	0.	0.27251
20281	2.2965	0.72727	0.	0.26135
20282	2.3884	0.72727	5.e-002	12.104
20283	2.3884	0.45455	0.	0.58388
20284	2.2965	0.54545	0.	0.33572
20285	2.3884	0.54545	5.e-002	11.896
20286	2.3884	0.27273	0.	1.196
20287	2.2965	0.36364	0.	0.97331
20288	2.3884	0.36364	5.e-002	11.981
20289	2.2965	0.18182	0.	3.1425
20290	2.3884	0.18182	5.e-002	21.412
20291	2.3884	9.0909e-002	0.	0.76732
20292	2.2047	5.7273	0.	1.4014
20293	2.1128	5.8182	0.	4.1555
20294	2.2047	5.8182	5.e-002	22.724
20295	2.2047	5.9091	0.	0.9292
20296	2.2047	5.5455	0.	0.6509
20297	2.1128	5.6364	0.	1.0912
20298	2.2047	5.6364	5.e-002	12.633
20299	2.2047	5.3636	0.	0.30325
20300	2.1128	5.4545	0.	0.37778
20301	2.2047	5.4545	5.e-002	12.645
20302	2.2047	5.1818	0.	0.21928
20303	2.1128	5.2727	0.	0.28975
20304	2.2047	5.2727	5.e-002	12.903
20305	2.2047	5.	0.	0.14459
20306	2.1128	5.0909	0.	0.1834
20307	2.2047	5.0909	5.e-002	13.077
20308	2.2047	4.8182	0.	9.8358e-002
20309	2.1128	4.9091	0.	0.12668
20310	2.2047	4.9091	5.e-002	13.161
20311	2.2047	4.6364	0.	6.4726e-002
20312	2.1128	4.7273	0.	8.4227e-002
20313	2.2047	4.7273	5.e-002	13.186
20314	2.2047	4.4545	0.	4.1813e-002
20315	2.1128	4.5455	0.	5.6161e-002
20316	2.2047	4.5455	5.e-002	13.182
20317	2.2047	4.2727	0.	2.6348e-002
20318	2.1128	4.3636	0.	3.7328e-002
20319	2.2047	4.3636	5.e-002	13.172
20320	2.2047	4.0909	0.	1.6364e-002
20321	2.1128	4.1818	0.	2.5363e-002
20322	2.2047	4.1818	5.e-002	13.17
20323	2.2047	3.9091	0.	1.0191e-002
20324	2.1128	4.	0.	1.8083e-002
20325	2.2047	4.	5.e-002	13.182
20326	2.2047	3.7273	0.	6.5839e-003
20327	2.1128	3.8182	0.	1.3932e-002
20328	2.2047	3.8182	5.e-002	13.205
20329	2.2047	3.5455	0.	4.615e-003
20330	2.1128	3.6364	0.	1.1748e-002
20331	2.2047	3.6364	5.e-002	13.235
20332	2.2047	3.3636	0.	3.6296e-003
20333	2.1128	3.4545	0.	1.0719e-002
20334	2.2047	3.4545	5.e-002	13.265
20335	2.2047	3.1818	0.	3.1983e-003
20336	2.1128	3.2727	0.	1.0303e-002
20337	2.2047	3.2727	5.e-002	13.289
20338	2.2047	3.	0.	3.0805e-003
20339	2.1128	3.0909	0.	1.0172e-002
20340	2.2047	3.0909	5.e-002	13.303
20341	2.2047	2.8182	0.	3.1984e-003
20342	2.1128	2.9091	0.	1.0172e-002
20343	2.2047	2.9091	5.e-002	13.303
20344	2.2047	2.6364	0.	3.6297e-003
20345	2.1128	2.7273	0.	1.0303e-002
20346	2.2047	2.7273	5.e-002	13.289
20347	2.2047	2.4545	0.	4.6151e-003
20348	2.1128	2.5455	0.	1.0719e-002
20349	2.2047	2.5455	5.e-002	13.265
20350	2.2047	2.2727	0.	6.5841e-003
20351	2.1128	2.3636	0.	1.1748e-002
20352	2.2047	2.3636	5.e-002	13.235
20353	2.2047	2.0909	0.	1.0191e-002
20354	2.1128	2.1818	0.	1.3932e-002
20355	2.2047	2.1818	5.e-002	13.205
20356	2.2047	1.9091	0.	1.6364e-002
20357	2.1128	2.	0.	1.8083e-002
20358	2.2047	2.	5.e-002	13.181
20359	2.2047	1.7273	0.	2.6349e-002
20360	2.1128	1.8182	0.	2.5363e-002
20361	2.2047	1.8182	5.e-002	13.17
20362	2.2047	1.5455	0.	4.1814e-002
20363	2.1128	1.6364	0.	3.7328e-002
20364	2.2047	1.6364	5.e-002	13.172
20365	2.2047	1.3636	0.	6.4726e-002
20366	2.1128	1.4545	0.	5.6162e-002
20367	2.2047	1.4545	5.e-002	13.182
20368	2.2047	1.1818	0.	9.8359e-002
20369	2.1128	1.2727	0.	8.4228e-002
20370	2.2047	1.2727	5.e-002	13.186
20371	2.2047	1.	0.	0.14459
20372	2.1128	1.0909	0.	0.12668
20373	2.2047	1.0909	5.e-002	13.161
20374	2.2047	0.81818	0.	0.21928
20375	2.1128	0.90909	0.	0.1834
20376	2.2047	0.90909	5.e-002	13.077
20377	2.2047	0.63636	0.	0.30325
20378	2.1128	0.72727	0.	0.28975
20379	2.2047	0.72727	5.e-002	12.903
20380	2.2047	0.45455	0.	0.6509
20381	2.1128	0.54545	0.	0.37778
20382	2.2047	0.54545	5.e-002	12.645
20383	2.2047	0.27273	0.	1.4014
20384	2.1128	0.36364	0.	1.0912
20385	2.2047	0.36364	5.e-002	12.633
20386	2.1128	0.18182	0.	4.1555
20387	2.2047	0.18182	5.e-002	22.723
20388	2.2047	9.0909e-002	0.	0.9292
20389	2.0209	5.7273	0.	1.656
20390	1.9291	5.8182	0.	5.6785
20391	2.0209	5.8182	5.e-002	24.028
20392	2.0209	5.9091	0.	1.2093
20393	2.0209	5.5455	0.	0.72886
20394	1.9291	5.6364	0.	1.2274
20395	2.0209	5.6364	5.e-002	13.412
20396	2.0209	5.3636	0.	0.33937
20397	1.9291	5.4545	0.	0.42453
20398	2.0209	5.4545	5.e-002	13.558
20399	2.0209	5.1818	0.	0.24291
20400	1.9291	5.2727	0.	0.31952
20401	2.0209	5.2727	5.e-002	13.867
20402	2.0209	5.	0.	0.15942
20403	1.9291	5.0909	0.	0.19966
20404	2.0209	5.0909	5.e-002	14.051
20405	2.0209	4.8182	0.	0.10872
20406	1.9291	4.9091	0.	0.13652
20407	2.0209	4.9091	5.e-002	14.123
20408	2.0209	4.6364	0.	7.3029e-002
20409	1.9291	4.7273	0.	9.0804e-002
20410	2.0209	4.7273	5.e-002	14.13
20411	2.0209	4.4545	0.	4.9765e-002
20412	1.9291	4.5455	0.	6.188e-002
20413	2.0209	4.5455	5.e-002	14.114
20414	2.0209	4.2727	0.	3.4901e-002
20415	1.9291	4.3636	0.	4.3485e-002
20416	2.0209	4.3636	5.e-002	14.103
20417	2.0209	4.0909	0.	2.596e-002
20418	1.9291	4.1818	0.	3.2578e-002
20419	2.0209	4.1818	5.e-002	14.112
20420	2.0209	3.9091	0.	2.0924e-002
20421	1.9291	4.	0.	2.6511e-002
20422	2.0209	4.	5.e-002	14.142
20423	2.0209	3.7273	0.	1.8351e-002
20424	1.9291	3.8182	0.	2.3477e-002
20425	2.0209	3.8182	5.e-002	14.188
20426	2.0209	3.5455	0.	1.7215e-002
20427	1.9291	3.6364	0.	2.22e-002
20428	2.0209	3.6364	5.e-002	14.24
20429	2.0209	3.3636	0.	1.6825e-002
20430	1.9291	3.4545	0.	2.1835e-002
20431	2.0209	3.4545	5.e-002	14.289
20432	2.0209	3.1818	0.	1.6748e-002
20433	1.9291	3.2727	0.	2.1845e-002
20434	2.0209	3.2727	5.e-002	14.327
20435	2.0209	3.	0.	1.6748e-002
20436	1.9291	3.0909	0.	2.1921e-002
20437	2.0209	3.0909	5.e-002	14.347
20438	2.0209	2.8182	0.	1.6748e-002
20439	1.9291	2.9091	0.	2.1921e-002
20440	2.0209	2.9091	5.e-002	14.347
20441	2.0209	2.6364	0.	1.6825e-002
20442	1.9291	2.7273	0.	2.1845e-002
20443	2.0209	2.7273	5.e-002	14.327
20444	2.0209	2.4545	0.	1.7215e-002
20445	1.9291	2.5455	0.	2.1835e-002
20446	2.0209	2.5455	5.e-002	14.289
20447	2.0209	2.2727	0.	1.8351e-002
20448	1.9291	2.3636	0.	2.22e-002
20449	2.0209	2.3636	5.e-002	14.24
20450	2.0209	2.0909	0.	2.0924e-002
20451	1.9291	2.1818	0.	2.3477e-002
20452	2.0209	2.1818	5.e-002	14.188
20453	2.0209	1.9091	0.	2.596e-002
20454	1.9291	2.	0.	2.6512e-002
20455	2.0209	2.	5.e-002	14.142
20456	2.0209	1.7273	0.	3.4901e-002
20457	1.9291	1.8182	0.	3.2578e-002
20458	2.0209	1.8182	5.e-002	14.112
20459	2.0209	1.5455	0.	4.9765e-002
20460	1.9291	1.6364	0.	4.3485e-002
20461	2.0209	1.6364	5.e-002	14.103
20462	2.0209	1.3636	0.	7.3029e-002
20463	1.9291	1.4545	0.	6.188e-002
20464	2.0209	1.4545	5.e-002	14.114
20465	2.0209	1.1818	0.	0.10872
20466	1.9291	1.2727	0.	9.0804e-002
20467	2.0209	1.2727	5.e-002	14.13
20468	2.0209	1.	0.	0.15942
20469	1.9291	1.0909	0.	0.13652
20470	2.0209	1.0909	5.e-002	14.123
20471	2.0209	0.81818	0.	0.24291
20472	1.9291	0.90909	0.	0.19967
20473	2.0209	0.90909	5.e-002	14.051
20474	2.0209	0.63636	0.	0.33937
20475	1.9291	0.72727	0.	0.31952
20476	2.0209	0.72727	5.e-002	13.867
20477	2.0209	0.45455	0.	0.72886
20478	1.9291	0.54545	0.	0.42453
20479	2.0209	0.54545	5.e-002	13.558
20480	2.0209	0.27273	0.	1.656
20481	1.9291	0.36364	0.	1.2274
20482	2.0209	0.36364	5.e-002	13.412
20483	1.9291	0.18182	0.	5.6785
20484	2.0209	0.18182	5.e-002	24.028
20485	2.0209	9.0909e-002	0.	1.2093
20486	1.8372	5.7273	0.	1.9715
20487	1.7453	5.8182	0.	8.0795
20488	1.8372	5.8182	5.e-002	25.294
20489	1.8372	5.9091	0.	1.8393
20490	1.8372	5.5455	0.	0.81472
20491	1.7453	5.6364	0.	1.393
20492	1.8372	5.6364	5.e-002	14.386
20493	1.8372	5.3636	0.	0.37533
20494	1.7453	5.4545	0.	0.48633
20495	1.8372	5.4545	5.e-002	14.708
20496	1.8372	5.1818	0.	0.26343
20497	1.7453	5.2727	0.	0.36146
20498	1.8372	5.2727	5.e-002	15.057
20499	1.8372	5.	0.	0.16965
20500	1.7453	5.0909	0.	0.22661
20501	1.8372	5.0909	5.e-002	15.226
20502	1.8372	4.8182	0.	0.11412
20503	1.7453	4.9091	0.	0.15702
20504	1.8372	4.9091	5.e-002	15.259
20505	1.8372	4.6364	0.	7.6598e-002
20506	1.7453	4.7273	0.	0.10869
20507	1.8372	4.7273	5.e-002	15.227
20508	1.8372	4.4545	0.	5.3408e-002
20509	1.7453	4.5455	0.	7.9751e-002
20510	1.8372	4.5455	5.e-002	15.187
20511	1.8372	4.2727	0.	3.9535e-002
20512	1.7453	4.3636	0.	6.2514e-002
20513	1.8372	4.3636	5.e-002	15.172
20514	1.8372	4.0909	0.	3.1886e-002
20515	1.7453	4.1818	0.	5.3134e-002
20516	1.8372	4.1818	5.e-002	15.193
20517	1.8372	3.9091	0.	2.8086e-002
20518	1.7453	4.	0.	4.85e-002
20519	1.8372	4.	5.e-002	15.245
20520	1.8372	3.7273	0.	2.6531e-002
20521	1.7453	3.8182	0.	4.6617e-002
20522	1.8372	3.8182	5.e-002	15.316
20523	1.8372	3.5455	0.	2.615e-002
20524	1.7453	3.6364	0.	4.6172e-002
20525	1.8372	3.6364	5.e-002	15.391
20526	1.8372	3.3636	0.	2.6265e-002
20527	1.7453	3.4545	0.	4.6358e-002
20528	1.8372	3.4545	5.e-002	15.46
20529	1.8372	3.1818	0.	2.6473e-002
20530	1.7453	3.2727	0.	4.6693e-002
20531	1.8372	3.2727	5.e-002	15.51
20532	1.8372	3.	0.	2.6564e-002
20533	1.7453	3.0909	0.	4.6918e-002
20534	1.8372	3.0909	5.e-002	15.537
20535	1.8372	2.8182	0.	2.6473e-002
20536	1.7453	2.9091	0.	4.6918e-002
20537	1.8372	2.9091	5.e-002	15.537
20538	1.8372	2.6364	0.	2.6265e-002
20539	1.7453	2.7273	0.	4.6693e-002
20540	1.8372	2.7273	5.e-002	15.51
20541	1.8372	2.4545	0.	2.615e-002
20542	1.7453	2.5455	0.	4.6358e-002
20543	1.8372	2.5455	5.e-002	15.46
20544	1.8372	2.2727	0.	2.6531e-002
20545	1.7453	2.3636	0.	4.6172e-002
20546	1.8372	2.3636	5.e-002	15.391
20547	1.8372	2.0909	0.	2.8086e-002
20548	1.7453	2.1818	0.	4.6617e-002
20549	1.8372	2.1818	5.e-002	15.315
20550	1.8372	1.9091	0.	3.1886e-002
20551	1.7453	2.	0.	4.85e-002
20552	1.8372	2.	5.e-002	15.245
20553	1.8372	1.7273	0.	3.9535e-002
20554	1.7453	1.8182	0.	5.3134e-002
20555	1.8372	1.8182	5.e-002	15.192
20556	1.8372	1.5455	0.	5.3409e-002
20557	1.7453	1.6364	0.	6.2514e-002
20558	1.8372	1.6364	5.e-002	15.172
20559	1.8372	1.3636	0.	7.6598e-002
20560	1.7453	1.4545	0.	7.9751e-002
20561	1.8372	1.4545	5.e-002	15.187
20562	1.8372	1.1818	0.	0.11412
20563	1.7453	1.2727	0.	0.10869
20564	1.8372	1.2727	5.e-002	15.227
20565	1.8372	1.	0.	0.16965
20566	1.7453	1.0909	0.	0.15702
20567	1.8372	1.0909	5.e-002	15.259
20568	1.8372	0.81818	0.	0.26343
20569	1.7453	0.90909	0.	0.22661
20570	1.8372	0.90909	5.e-002	15.226
20571	1.8372	0.63636	0.	0.37533
20572	1.7453	0.72727	0.	0.36146
20573	1.8372	0.72727	5.e-002	15.057
20574	1.8372	0.45455	0.	0.81472
20575	1.7453	0.54545	0.	0.48633
20576	1.8372	0.54545	5.e-002	14.708
20577	1.8372	0.27273	0.	1.9715
20578	1.7453	0.36364	0.	1.393
20579	1.8372	0.36364	5.e-002	14.386
20580	1.7453	0.18182	0.	8.0795
20581	1.8372	0.18182	5.e-002	25.293
20582	1.8372	9.0909e-002	0.	1.8393
20583	1.6535	5.7273	0.	2.3814
20584	1.5616	5.8182	0.	12.001
20585	1.6535	5.8182	5.e-002	26.48
20586	1.6535	5.9091	0.	3.9826
20587	1.6535	5.5455	0.	0.93183
20588	1.5616	5.6364	0.	1.5685
20589	1.6535	5.6364	5.e-002	15.664
20590	1.6535	5.3636	0.	0.43753
20591	1.5616	5.4545	0.	0.53055
20592	1.6535	5.4545	5.e-002	16.199
20593	1.6535	5.1818	0.	0.30939
20594	1.5616	5.2727	0.	0.37721
20595	1.6535	5.2727	5.e-002	16.555
20596	1.6535	5.	0.	0.20554
20597	1.5616	5.0909	0.	0.22274
20598	1.6535	5.0909	5.e-002	16.659
20599	1.6535	4.8182	0.	0.1463
20600	1.5616	4.9091	0.	0.14493
20601	1.6535	4.9091	5.e-002	16.608
20602	1.6535	4.6364	0.	0.10828
20603	1.5616	4.7273	0.	9.3425e-002
20604	1.6535	4.7273	5.e-002	16.507
20605	1.6535	4.4545	0.	8.6345e-002
20606	1.5616	4.5455	0.	6.429e-002
20607	1.6535	4.5455	5.e-002	16.428
20608	1.6535	4.2727	0.	7.4287e-002
20609	1.5616	4.3636	0.	4.7939e-002
20610	1.6535	4.3636	5.e-002	16.405
20611	1.6535	4.0909	0.	6.8383e-002
20612	1.5616	4.1818	0.	3.9612e-002
20613	1.6535	4.1818	5.e-002	16.438
20614	1.6535	3.9091	0.	6.5981e-002
20615	1.5616	4.	0.	3.5783e-002
20616	1.6535	4.	5.e-002	16.513
20617	1.6535	3.7273	0.	6.5423e-002
20618	1.5616	3.8182	0.	3.4374e-002
20619	1.6535	3.8182	5.e-002	16.608
20620	1.6535	3.5455	0.	6.5689e-002
20621	1.5616	3.6364	0.	3.4128e-002
20622	1.6535	3.6364	5.e-002	16.706
20623	1.6535	3.3636	0.	6.6185e-002
20624	1.5616	3.4545	0.	3.4343e-002
20625	1.6535	3.4545	5.e-002	16.79
20626	1.6535	3.1818	0.	6.6588e-002
20627	1.5616	3.2727	0.	3.4638e-002
20628	1.6535	3.2727	5.e-002	16.852
20629	1.6535	3.	0.	6.6737e-002
20630	1.5616	3.0909	0.	3.4824e-002
20631	1.6535	3.0909	5.e-002	16.884
20632	1.6535	2.8182	0.	6.6588e-002
20633	1.5616	2.9091	0.	3.4824e-002
20634	1.6535	2.9091	5.e-002	16.884
20635	1.6535	2.6364	0.	6.6185e-002
20636	1.5616	2.7273	0.	3.4638e-002
20637	1.6535	2.7273	5.e-002	16.852
20638	1.6535	2.4545	0.	6.5689e-002
20639	1.5616	2.5455	0.	3.4343e-002
20640	1.6535	2.5455	5.e-002	16.79
20641	1.6535	2.2727	0.	6.5423e-002
20642	1.5616	2.3636	0.	3.4128e-002
20643	1.6535	2.3636	5.e-002	16.706
20644	1.6535	2.0909	0.	6.5981e-002
20645	1.5616	2.1818	0.	3.4374e-002
20646	1.6535	2.1818	5.e-002	16.608
20647	1.6535	1.9091	0.	6.8383e-002
20648	1.5616	2.	0.	3.5783e-002
20649	1.6535	2.	5.e-002	16.513
20650	1.6535	1.7273	0.	7.4287e-002
20651	1.5616	1.8182	0.	3.9612e-002
20652	1.6535	1.8182	5.e-002	16.438
20653	1.6535	1.5455	0.	8.6346e-002
20654	1.5616	1.6364	0.	4.794e-002
20655	1.6535	1.6364	5.e-002	16.405
20656	1.6535	1.3636	0.	0.10828
20657	1.5616	1.4545	0.	6.4291e-002
20658	1.6535	1.4545	5.e-002	16.428
20659	1.6535	1.1818	0.	0.1463
20660	1.5616	1.2727	0.	9.3425e-002
20661	1.6535	1.2727	5.e-002	16.506
20662	1.6535	1.	0.	0.20554
20663	1.5616	1.0909	0.	0.14493
20664	1.6535	1.0909	5.e-002	16.608
20665	1.6535	0.81818	0.	0.30939
20666	1.5616	0.90909	0.	0.22274
20667	1.6535	0.90909	5.e-002	16.659
20668	1.6535	0.63636	0.	0.43753
20669	1.5616	0.72727	0.	0.37721
20670	1.6535	0.72727	5.e-002	16.555
20671	1.6535	0.45455	0.	0.93183
20672	1.5616	0.54545	0.	0.53055
20673	1.6535	0.54545	5.e-002	16.199
20674	1.6535	0.27273	0.	2.3814
20675	1.5616	0.36364	0.	1.5685
20676	1.6535	0.36364	5.e-002	15.664
20677	1.5616	0.18182	0.	12.001
20678	1.6535	0.18182	5.e-002	26.479
20679	1.6535	9.0909e-002	0.	3.9826
20680	1.4698	5.7273	0.	2.8619
20681	1.3779	5.8182	0.	18.497
20682	1.4698	5.8182	5.e-002	27.535
20683	1.4698	5.9091	0.	10.322
20684	1.4698	5.5455	0.	1.0026
20685	1.3779	5.6364	0.	1.8668
20686	1.4698	5.6364	5.e-002	17.43
20687	1.4698	5.3636	0.	0.42815
20688	1.3779	5.4545	0.	0.70039
20689	1.4698	5.4545	5.e-002	18.189
20690	1.4698	5.1818	0.	0.27223
20691	1.3779	5.2727	0.	0.52677
20692	1.4698	5.2727	5.e-002	18.474
20693	1.4698	5.	0.	0.152
20694	1.3779	5.0909	0.	0.35935
20695	1.4698	5.0909	5.e-002	18.425
20696	1.4698	4.8182	0.	8.577e-002
20697	1.3779	4.9091	0.	0.27982
20698	1.4698	4.9091	5.e-002	18.219
20699	1.4698	4.6364	0.	4.5279e-002
20700	1.3779	4.7273	0.	0.23048
20701	1.4698	4.7273	5.e-002	18.008
20702	1.4698	4.4545	0.	2.3024e-002
20703	1.3779	4.5455	0.	0.20507
20704	1.4698	4.5455	5.e-002	17.875
20705	1.4698	4.2727	0.	1.1241e-002
20706	1.3779	4.3636	0.	0.19215
20707	1.4698	4.3636	5.e-002	17.839
20708	1.4698	4.0909	0.	5.5423e-003
20709	1.3779	4.1818	0.	0.18635
20710	1.4698	4.1818	5.e-002	17.883
20711	1.4698	3.9091	0.	3.0751e-003
20712	1.3779	4.	0.	0.18411
20713	1.4698	4.	5.e-002	17.976
20714	1.4698	3.7273	0.	2.223e-003
20715	1.3779	3.8182	0.	0.18355
20716	1.4698	3.8182	5.e-002	18.089
20717	1.4698	3.5455	0.	2.0867e-003
20718	1.3779	3.6364	0.	0.18366
20719	1.4698	3.6364	5.e-002	18.2
20720	1.4698	3.3636	0.	2.1993e-003
20721	1.3779	3.4545	0.	0.18395
20722	1.4698	3.4545	5.e-002	18.293
20723	1.4698	3.1818	0.	2.3319e-003
20724	1.3779	3.2727	0.	0.18421
20725	1.4698	3.2727	5.e-002	18.359
20726	1.4698	3.	0.	2.3852e-003
20727	1.3779	3.0909	0.	0.18436
20728	1.4698	3.0909	5.e-002	18.393
20729	1.4698	2.8182	0.	2.3319e-003
20730	1.3779	2.9091	0.	0.18436
20731	1.4698	2.9091	5.e-002	18.393
20732	1.4698	2.6364	0.	2.1993e-003
20733	1.3779	2.7273	0.	0.18422
20734	1.4698	2.7273	5.e-002	18.359
20735	1.4698	2.4545	0.	2.0868e-003
20736	1.3779	2.5455	0.	0.18395
20737	1.4698	2.5455	5.e-002	18.293
20738	1.4698	2.2727	0.	2.2231e-003
20739	1.3779	2.3636	0.	0.18366
20740	1.4698	2.3636	5.e-002	18.2
20741	1.4698	2.0909	0.	3.0752e-003
20742	1.3779	2.1818	0.	0.18355
20743	1.4698	2.1818	5.e-002	18.089
20744	1.4698	1.9091	0.	5.5425e-003
20745	1.3779	2.	0.	0.18411
20746	1.4698	2.	5.e-002	17.976
20747	1.4698	1.7273	0.	1.1242e-002
20748	1.3779	1.8182	0.	0.18635
20749	1.4698	1.8182	5.e-002	17.883
20750	1.4698	1.5455	0.	2.3025e-002
20751	1.3779	1.6364	0.	0.19215
20752	1.4698	1.6364	5.e-002	17.839
20753	1.4698	1.3636	0.	4.5279e-002
20754	1.3779	1.4545	0.	0.20507
20755	1.4698	1.4545	5.e-002	17.875
20756	1.4698	1.1818	0.	8.577e-002
20757	1.3779	1.2727	0.	0.23048
20758	1.4698	1.2727	5.e-002	18.008
20759	1.4698	1.	0.	0.152
20760	1.3779	1.0909	0.	0.27982
20761	1.4698	1.0909	5.e-002	18.219
20762	1.4698	0.81818	0.	0.27223
20763	1.3779	0.90909	0.	0.35935
20764	1.4698	0.90909	5.e-002	18.425
20765	1.4698	0.63636	0.	0.42815
20766	1.3779	0.72727	0.	0.52677
20767	1.4698	0.72727	5.e-002	18.474
20768	1.4698	0.45455	0.	1.0026
20769	1.3779	0.54545	0.	0.70039
20770	1.4698	0.54545	5.e-002	18.189
20771	1.4698	0.27273	0.	2.8619
20772	1.3779	0.36364	0.	1.8668
20773	1.4698	0.36364	5.e-002	17.43
20774	1.3779	0.18182	0.	18.497
20775	1.4698	0.18182	5.e-002	27.535
20776	1.4698	9.0909e-002	0.	10.322
20777	1.286	5.7273	0.	3.6497
20778	1.1942	5.8182	0.	28.585
20779	1.286	5.8182	5.e-002	28.403
20780	1.286	5.9091	0.	20.529
20781	1.286	5.5455	0.	1.3582
20782	1.1942	5.6364	0.	1.8874
20783	1.286	5.6364	5.e-002	19.977
20784	1.286	5.3636	0.	0.74759
20785	1.1942	5.4545	0.	0.45173
20786	1.286	5.4545	5.e-002	20.907
20787	1.286	5.1818	0.	0.59149
20788	1.1942	5.2727	0.	0.19379
20789	1.286	5.2727	5.e-002	20.962
20790	1.286	5.	0.	0.47487
20791	1.1942	5.0909	0.	-2.5065e-002
20792	1.286	5.0909	5.e-002	20.606
20793	1.286	4.8182	0.	0.41703
20794	1.1942	4.9091	0.	-0.13144
20795	1.286	4.9091	5.e-002	20.144
20796	1.286	4.6364	0.	0.38544
20797	1.1942	4.7273	0.	-0.19681
20798	1.286	4.7273	5.e-002	19.776
20799	1.286	4.4545	0.	0.37098
20800	1.1942	4.5455	0.	-0.23294
20801	1.286	4.5455	5.e-002	19.573
20802	1.286	4.2727	0.	0.36506
20803	1.1942	4.3636	0.	-0.25435
20804	1.286	4.3636	5.e-002	19.518
20805	1.286	4.0909	0.	0.36338
20806	1.1942	4.1818	0.	-0.26742
20807	1.286	4.1818	5.e-002	19.564
20808	1.286	3.9091	0.	0.36347
20809	1.1942	4.	0.	-0.27601
20810	1.286	4.	5.e-002	19.662
20811	1.286	3.7273	0.	0.36413
20812	1.1942	3.8182	0.	-0.28198
20813	1.286	3.8182	5.e-002	19.775
20814	1.286	3.5455	0.	0.36484
20815	1.1942	3.6364	0.	-0.28626
20816	1.286	3.6364	5.e-002	19.882
20817	1.286	3.3636	0.	0.36539
20818	1.1942	3.4545	0.	-0.28928
20819	1.286	3.4545	5.e-002	19.968
20820	1.286	3.1818	0.	0.36572
20821	1.1942	3.2727	0.	-0.29124
20822	1.286	3.2727	5.e-002	20.027
20823	1.286	3.	0.	0.36583
20824	1.1942	3.0909	0.	-0.2922
20825	1.286	3.0909	5.e-002	20.057
20826	1.286	2.8182	0.	0.36572
20827	1.1942	2.9091	0.	-0.2922
20828	1.286	2.9091	5.e-002	20.057
20829	1.286	2.6364	0.	0.36539
20830	1.1942	2.7273	0.	-0.29124
20831	1.286	2.7273	5.e-002	20.027
20832	1.286	2.4545	0.	0.36484
20833	1.1942	2.5455	0.	-0.28928
20834	1.286	2.5455	5.e-002	19.967
20835	1.286	2.2727	0.	0.36413
20836	1.1942	2.3636	0.	-0.28626
20837	1.286	2.3636	5.e-002	19.882
20838	1.286	2.0909	0.	0.36347
20839	1.1942	2.1818	0.	-0.28198
20840	1.286	2.1818	5.e-002	19.775
20841	1.286	1.9091	0.	0.36338
20842	1.1942	2.	0.	-0.27601
20843	1.286	2.	5.e-002	19.662
20844	1.286	1.7273	0.	0.36506
20845	1.1942	1.8182	0.	-0.26742
20846	1.286	1.8182	5.e-002	19.564
20847	1.286	1.5455	0.	0.37098
20848	1.1942	1.6364	0.	-0.25435
20849	1.286	1.6364	5.e-002	19.518
20850	1.286	1.3636	0.	0.38544
20851	1.1942	1.4545	0.	-0.23295
20852	1.286	1.4545	5.e-002	19.573
20853	1.286	1.1818	0.	0.41703
20854	1.1942	1.2727	0.	-0.19682
20855	1.286	1.2727	5.e-002	19.776
20856	1.286	1.	0.	0.47488
20857	1.1942	1.0909	0.	-0.13144
20858	1.286	1.0909	5.e-002	20.144
20859	1.286	0.81818	0.	0.59149
20860	1.1942	0.90909	0.	-2.5064e-002
20861	1.286	0.90909	5.e-002	20.606
20862	1.286	0.63636	0.	0.74759
20863	1.1942	0.72727	0.	0.19379
20864	1.286	0.72727	5.e-002	20.961
20865	1.286	0.45455	0.	1.3582
20866	1.1942	0.54545	0.	0.45173
20867	1.286	0.54545	5.e-002	20.907
20868	1.286	0.27273	0.	3.6497
20869	1.1942	0.36364	0.	1.8874
20870	1.286	0.36364	5.e-002	19.977
20871	1.1942	0.18182	0.	28.585
20872	1.286	0.18182	5.e-002	28.403
20873	1.286	9.0909e-002	0.	20.529
20874	1.1023	5.7273	0.	3.9866
20875	1.0105	5.8182	0.	43.408
20876	1.1023	5.8182	5.e-002	29.098
20877	1.1023	5.9091	0.	33.86
20878	1.1023	5.5455	0.	0.71882
20879	1.0105	5.6364	0.	3.3102
20880	1.1023	5.6364	5.e-002	23.8
20881	1.1023	5.3636	0.	-0.16619
20882	1.0105	5.4545	0.	1.9995
20883	1.1023	5.4545	5.e-002	24.685
20884	1.1023	5.1818	0.	-0.45072
20885	1.0105	5.2727	0.	1.8596
20886	1.1023	5.2727	5.e-002	24.196
20887	1.1023	5.	0.	-0.64652
20888	1.0105	5.0909	0.	1.7232
20889	1.1023	5.0909	5.e-002	23.295
20890	1.1023	4.8182	0.	-0.75425
20891	1.0105	4.9091	0.	1.6854
20892	1.1023	4.9091	5.e-002	22.455
20893	1.1023	4.6364	0.	-0.82075
20894	1.0105	4.7273	0.	1.6732
20895	1.1023	4.7273	5.e-002	21.89
20896	1.1023	4.4545	0.	-0.86179
20897	1.0105	4.5455	0.	1.6772
20898	1.1023	4.5455	5.e-002	21.605
20899	1.1023	4.2727	0.	-0.88912
20900	1.0105	4.3636	0.	1.6853
20901	1.1023	4.3636	5.e-002	21.519
20902	1.1023	4.0909	0.	-0.90836
20903	1.0105	4.1818	0.	1.6938
20904	1.1023	4.1818	5.e-002	21.544
20905	1.1023	3.9091	0.	-0.92255
20906	1.0105	4.	0.	1.7011
20907	1.1023	4.	5.e-002	21.616
20908	1.1023	3.7273	0.	-0.93318
20909	1.0105	3.8182	0.	1.7067
20910	1.1023	3.8182	5.e-002	21.698
20911	1.1023	3.5455	0.	-0.94102
20912	1.0105	3.6364	0.	1.7107
20913	1.1023	3.6364	5.e-002	21.77
20914	1.1023	3.3636	0.	-0.94645
20915	1.0105	3.4545	0.	1.7135
20916	1.1023	3.4545	5.e-002	21.826
20917	1.1023	3.1818	0.	-0.94964
20918	1.0105	3.2727	0.	1.7153
20919	1.1023	3.2727	5.e-002	21.863
20920	1.1023	3.	0.	-0.9507
20921	1.0105	3.0909	0.	1.7161
20922	1.1023	3.0909	5.e-002	21.881
20923	1.1023	2.8182	0.	-0.94964
20924	1.0105	2.9091	0.	1.7161
20925	1.1023	2.9091	5.e-002	21.881
20926	1.1023	2.6364	0.	-0.94645
20927	1.0105	2.7273	0.	1.7153
20928	1.1023	2.7273	5.e-002	21.863
20929	1.1023	2.4545	0.	-0.94102
20930	1.0105	2.5455	0.	1.7135
20931	1.1023	2.5455	5.e-002	21.826
20932	1.1023	2.2727	0.	-0.93318
20933	1.0105	2.3636	0.	1.7107
20934	1.1023	2.3636	5.e-002	21.77
20935	1.1023	2.0909	0.	-0.92255
20936	1.0105	2.1818	0.	1.7067
20937	1.1023	2.1818	5.e-002	21.698
20938	1.1023	1.9091	0.	-0.90836
20939	1.0105	2.	0.	1.7011
20940	1.1023	2.	5.e-002	21.616
20941	1.1023	1.7273	0.	-0.88912
20942	1.0105	1.8182	0.	1.6938
20943	1.1023	1.8182	5.e-002	21.544
20944	1.1023	1.5455	0.	-0.86179
20945	1.0105	1.6364	0.	1.6853
20946	1.1023	1.6364	5.e-002	21.519
20947	1.1023	1.3636	0.	-0.82075
20948	1.0105	1.4545	0.	1.6772
20949	1.1023	1.4545	5.e-002	21.605
20950	1.1023	1.1818	0.	-0.75425
20951	1.0105	1.2727	0.	1.6732
20952	1.1023	1.2727	5.e-002	21.89
20953	1.1023	1.	0.	-0.64652
20954	1.0105	1.0909	0.	1.6854
20955	1.1023	1.0909	5.e-002	22.455
20956	1.1023	0.81818	0.	-0.45072
20957	1.0105	0.90909	0.	1.7232
20958	1.1023	0.90909	5.e-002	23.295
20959	1.1023	0.63636	0.	-0.16619
20960	1.0105	0.72727	0.	1.8596
20961	1.1023	0.72727	5.e-002	24.196
20962	1.1023	0.45455	0.	0.71882
20963	1.0105	0.54545	0.	1.9995
20964	1.1023	0.54545	5.e-002	24.685
20965	1.1023	0.27273	0.	3.9866
20966	1.0105	0.36364	0.	3.3102
20967	1.1023	0.36364	5.e-002	23.8
20968	1.0105	0.18182	0.	43.408
20969	1.1023	0.18182	5.e-002	29.098
20970	1.1023	9.0909e-002	0.	33.86
20971	0.9186	5.7273	0.	7.0636
20972	0.82674	5.8182	0.	61.564
20973	0.9186	5.8182	5.e-002	29.827
20974	0.9186	5.9091	0.	51.571
20975	0.9186	5.5455	0.	4.2556
20976	0.82674	5.6364	0.	-0.4081
20977	0.9186	5.6364	5.e-002	29.678
20978	0.9186	5.3636	0.	3.9435
20979	0.82674	5.4545	0.	-3.3318
20980	0.9186	5.4545	5.e-002	29.972
20981	0.9186	5.1818	0.	3.9979
20982	0.82674	5.2727	0.	-4.2034
20983	0.9186	5.2727	5.e-002	28.354
20984	0.9186	5.	0.	4.0363
20985	0.82674	5.0909	0.	-4.8267
20986	0.9186	5.0909	5.e-002	26.555
20987	0.9186	4.8182	0.	4.1023
20988	0.82674	4.9091	0.	-5.1913
20989	0.9186	4.9091	5.e-002	25.211
20990	0.9186	4.6364	0.	4.165
20991	0.82674	4.7273	0.	-5.4423
20992	0.9186	4.7273	5.e-002	24.418
20993	0.9186	4.4545	0.	4.2206
20994	0.82674	4.5455	0.	-5.6189
20995	0.9186	4.5455	5.e-002	24.029
20996	0.9186	4.2727	0.	4.266
20997	0.82674	4.3636	0.	-5.7511
20998	0.9186	4.3636	5.e-002	23.869
20999	0.9186	4.0909	0.	4.3018
21000	0.82674	4.1818	0.	-5.8522
21001	0.9186	4.1818	5.e-002	23.815
21002	0.9186	3.9091	0.	4.3293
21003	0.82674	4.	0.	-5.9303
21004	0.9186	4.	5.e-002	23.801
21005	0.9186	3.7273	0.	4.3498
21006	0.82674	3.8182	0.	-5.9903
21007	0.9186	3.8182	5.e-002	23.797
21008	0.9186	3.5455	0.	4.3647
21009	0.82674	3.6364	0.	-6.0353
21010	0.9186	3.6364	5.e-002	23.791
21011	0.9186	3.3636	0.	4.3747
21012	0.82674	3.4545	0.	-6.0676
21013	0.9186	3.4545	5.e-002	23.783
21014	0.9186	3.1818	0.	4.3805
21015	0.82674	3.2727	0.	-6.0884
21016	0.9186	3.2727	5.e-002	23.776
21017	0.9186	3.	0.	4.3824
21018	0.82674	3.0909	0.	-6.0985
21019	0.9186	3.0909	5.e-002	23.771
21020	0.9186	2.8182	0.	4.3805
21021	0.82674	2.9091	0.	-6.0985
21022	0.9186	2.9091	5.e-002	23.771
21023	0.9186	2.6364	0.	4.3747
21024	0.82674	2.7273	0.	-6.0884
21025	0.9186	2.7273	5.e-002	23.776
21026	0.9186	2.4545	0.	4.3647
21027	0.82674	2.5455	0.	-6.0676
21028	0.9186	2.5455	5.e-002	23.783
21029	0.9186	2.2727	0.	4.3498
21030	0.82674	2.3636	0.	-6.0353
21031	0.9186	2.3636	5.e-002	23.791
21032	0.9186	2.0909	0.	4.3293
21033	0.82674	2.1818	0.	-5.9903
21034	0.9186	2.1818	5.e-002	23.797
21035	0.9186	1.9091	0.	4.3018
21036	0.82674	2.	0.	-5.9303
21037	0.9186	2.	5.e-002	23.801
21038	0.9186	1.7273	0.	4.266
21039	0.82674	1.8182	0.	-5.8522
21040	0.9186	1.8182	5.e-002	23.815
21041	0.9186	1.5455	0.	4.2206
21042	0.82674	1.6364	0.	-5.7511
21043	0.9186	1.6364	5.e-002	23.869
21044	0.9186	1.3636	0.	4.165
21045	0.82674	1.4545	0.	-5.6189
21046	0.9186	1.4545	5.e-002	24.028
21047	0.9186	1.1818	0.	4.1023
21048	0.82674	1.2727	0.	-5.4423
21049	0.9186	1.2727	5.e-002	24.418
21050	0.9186	1.	0.	4.0363
21051	0.82674	1.0909	0.	-5.1913
21052	0.9186	1.0909	5.e-002	25.211
21053	0.9186	0.81818	0.	3.9979
21054	0.82674	0.90909	0.	-4.8267
21055	0.9186	0.90909	5.e-002	26.555
21056	0.9186	0.63636	0.	3.9435
21057	0.82674	0.72727	0.	-4.2034
21058	0.9186	0.72727	5.e-002	28.354
21059	0.9186	0.45455	0.	4.2556
21060	0.82674	0.54545	0.	-3.3318
21061	0.9186	0.54545	5.e-002	29.972
21062	0.9186	0.27273	0.	7.0635
21063	0.82674	0.36364	0.	-0.4081
21064	0.9186	0.36364	5.e-002	29.678
21065	0.82674	0.18182	0.	61.564
21066	0.9186	0.18182	5.e-002	29.827
21067	0.9186	9.0909e-002	0.	51.571
21068	0.73488	5.7273	0.	0.39759
21069	0.64302	5.8182	0.	86.926
21070	0.73488	5.8182	5.e-002	32.164
21071	0.73488	5.9091	0.	72.802
21072	0.73488	5.5455	0.	-8.4408
21073	0.64302	5.6364	0.	17.383
21074	0.73488	5.6364	5.e-002	38.979
21075	0.73488	5.3636	0.	-11.588
21076	0.64302	5.4545	0.	19.299
21077	0.73488	5.4545	5.e-002	37.295
21078	0.73488	5.1818	0.	-13.075
21079	0.64302	5.2727	0.	20.72
21080	0.73488	5.2727	5.e-002	33.583
21081	0.73488	5.	0.	-14.077
21082	0.64302	5.0909	0.	21.715
21083	0.73488	5.0909	5.e-002	30.571
21084	0.73488	4.8182	0.	-14.748
21085	0.64302	4.9091	0.	22.513
21086	0.73488	4.9091	5.e-002	28.714
21087	0.73488	4.6364	0.	-15.233
21088	0.64302	4.7273	0.	23.12
21089	0.73488	4.7273	5.e-002	27.714
21090	0.73488	4.4545	0.	-15.594
21091	0.64302	4.5455	0.	23.589
21092	0.73488	4.5455	5.e-002	27.183
21093	0.73488	4.2727	0.	-15.871
21094	0.64302	4.3636	0.	23.953
21095	0.73488	4.3636	5.e-002	26.869
21096	0.73488	4.0909	0.	-16.086
21097	0.64302	4.1818	0.	24.236
21098	0.73488	4.1818	5.e-002	26.646
21099	0.73488	3.9091	0.	-16.251
21100	0.64302	4.	0.	24.455
21101	0.73488	4.	5.e-002	26.463
21102	0.73488	3.7273	0.	-16.376
21103	0.64302	3.8182	0.	24.623
21104	0.73488	3.8182	5.e-002	26.305
21105	0.73488	3.5455	0.	-16.468
21106	0.64302	3.6364	0.	24.748
21107	0.73488	3.6364	5.e-002	26.17
21108	0.73488	3.3636	0.	-16.531
21109	0.64302	3.4545	0.	24.838
21110	0.73488	3.4545	5.e-002	26.063
21111	0.73488	3.1818	0.	-16.568
21112	0.64302	3.2727	0.	24.895
21113	0.73488	3.2727	5.e-002	25.989
21114	0.73488	3.	0.	-16.58
21115	0.64302	3.0909	0.	24.924
21116	0.73488	3.0909	5.e-002	25.951
21117	0.73488	2.8182	0.	-16.568
21118	0.64302	2.9091	0.	24.924
21119	0.73488	2.9091	5.e-002	25.951
21120	0.73488	2.6364	0.	-16.531
21121	0.64302	2.7273	0.	24.895
21122	0.73488	2.7273	5.e-002	25.989
21123	0.73488	2.4545	0.	-16.468
21124	0.64302	2.5455	0.	24.838
21125	0.73488	2.5455	5.e-002	26.063
21126	0.73488	2.2727	0.	-16.376
21127	0.64302	2.3636	0.	24.748
21128	0.73488	2.3636	5.e-002	26.17
21129	0.73488	2.0909	0.	-16.251
21130	0.64302	2.1818	0.	24.623
21131	0.73488	2.1818	5.e-002	26.305
21132	0.73488	1.9091	0.	-16.086
21133	0.64302	2.	0.	24.455
21134	0.73488	2.	5.e-002	26.463
21135	0.73488	1.7273	0.	-15.871
21136	0.64302	1.8182	0.	24.236
21137	0.73488	1.8182	5.e-002	26.646
21138	0.73488	1.5455	0.	-15.594
21139	0.64302	1.6364	0.	23.953
21140	0.73488	1.6364	5.e-002	26.869
21141	0.73488	1.3636	0.	-15.233
21142	0.64302	1.4545	0.	23.589
21143	0.73488	1.4545	5.e-002	27.183
21144	0.73488	1.1818	0.	-14.748
21145	0.64302	1.2727	0.	23.12
21146	0.73488	1.2727	5.e-002	27.713
21147	0.73488	1.	0.	-14.077
21148	0.64302	1.0909	0.	22.513
21149	0.73488	1.0909	5.e-002	28.714
21150	0.73488	0.81818	0.	-13.075
21151	0.64302	0.90909	0.	21.715
21152	0.73488	0.90909	5.e-002	30.571
21153	0.73488	0.63636	0.	-11.588
21154	0.64302	0.72727	0.	20.72
21155	0.73488	0.72727	5.e-002	33.583
21156	0.73488	0.45455	0.	-8.4408
21157	0.64302	0.54545	0.	19.299
21158	0.73488	0.54545	5.e-002	37.295
21159	0.73488	0.27273	0.	0.39757
21160	0.64302	0.36364	0.	17.383
21161	0.73488	0.36364	5.e-002	38.979
21162	0.64302	0.18182	0.	86.926
21163	0.73488	0.18182	5.e-002	32.164
21164	0.73488	9.0909e-002	0.	72.802
21165	0.55116	5.7273	0.	33.77
21166	0.4593	5.8182	0.	95.811
21167	0.55116	5.8182	5.e-002	40.269
21168	0.55116	5.9091	0.	107.44
21169	0.55116	5.5455	0.	44.557
21170	0.4593	5.6364	0.	-48.824
21171	0.55116	5.6364	5.e-002	54.007
21172	0.55116	5.3636	0.	51.459
21173	0.4593	5.4545	0.	-67.275
21174	0.55116	5.4545	5.e-002	46.983
21175	0.55116	5.1818	0.	55.452
21176	0.4593	5.2727	0.	-76.51
21177	0.55116	5.2727	5.e-002	39.716
21178	0.55116	5.	0.	58.28
21179	0.4593	5.0909	0.	-82.337
21180	0.55116	5.0909	5.e-002	35.231
21181	0.55116	4.8182	0.	60.369
21182	0.4593	4.9091	0.	-86.372
21183	0.55116	4.9091	5.e-002	32.741
21184	0.55116	4.6364	0.	61.936
21185	0.4593	4.7273	0.	-89.302
21186	0.55116	4.7273	5.e-002	31.324
21187	0.55116	4.4545	0.	63.133
21188	0.4593	4.5455	0.	-91.504
21189	0.55116	4.5455	5.e-002	30.388
21190	0.55116	4.2727	0.	64.058
21191	0.4593	4.3636	0.	-93.19
21192	0.55116	4.3636	5.e-002	29.675
21193	0.55116	4.0909	0.	64.775
21194	0.4593	4.1818	0.	-94.491
21195	0.55116	4.1818	5.e-002	29.086
21196	0.55116	3.9091	0.	65.327
21197	0.4593	4.	0.	-95.497
21198	0.55116	4.	5.e-002	28.586
21199	0.55116	3.7273	0.	65.746
21200	0.4593	3.8182	0.	-96.267
21201	0.55116	3.8182	5.e-002	28.168
21202	0.55116	3.5455	0.	66.054
21203	0.4593	3.6364	0.	-96.842
21204	0.55116	3.6364	5.e-002	27.83
21205	0.55116	3.3636	0.	66.264
21206	0.4593	3.4545	0.	-97.251
21207	0.55116	3.4545	5.e-002	27.575
21208	0.55116	3.1818	0.	66.386
21209	0.4593	3.2727	0.	-97.514
21210	0.55116	3.2727	5.e-002	27.405
21211	0.55116	3.	0.	66.427
21212	0.4593	3.0909	0.	-97.643
21213	0.55116	3.0909	5.e-002	27.319
21214	0.55116	2.8182	0.	66.386
21215	0.4593	2.9091	0.	-97.643
21216	0.55116	2.9091	5.e-002	27.319
21217	0.55116	2.6364	0.	66.264
21218	0.4593	2.7273	0.	-97.514
21219	0.55116	2.7273	5.e-002	27.404
21220	0.55116	2.4545	0.	66.054
21221	0.4593	2.5455	0.	-97.251
21222	0.55116	2.5455	5.e-002	27.575
21223	0.55116	2.2727	0.	65.746
21224	0.4593	2.3636	0.	-96.842
21225	0.55116	2.3636	5.e-002	27.83
21226	0.55116	2.0909	0.	65.327
21227	0.4593	2.1818	0.	-96.267
21228	0.55116	2.1818	5.e-002	28.168
21229	0.55116	1.9091	0.	64.775
21230	0.4593	2.	0.	-95.497
21231	0.55116	2.	5.e-002	28.586
21232	0.55116	1.7273	0.	64.058
21233	0.4593	1.8182	0.	-94.491
21234	0.55116	1.8182	5.e-002	29.086
21235	0.55116	1.5455	0.	63.133
21236	0.4593	1.6364	0.	-93.19
21237	0.55116	1.6364	5.e-002	29.675
21238	0.55116	1.3636	0.	61.936
21239	0.4593	1.4545	0.	-91.504
21240	0.55116	1.4545	5.e-002	30.388
21241	0.55116	1.1818	0.	60.369
21242	0.4593	1.2727	0.	-89.302
21243	0.55116	1.2727	5.e-002	31.324
21244	0.55116	1.	0.	58.28
21245	0.4593	1.0909	0.	-86.372
21246	0.55116	1.0909	5.e-002	32.741
21247	0.55116	0.81818	0.	55.452
21248	0.4593	0.90909	0.	-82.337
21249	0.55116	0.90909	5.e-002	35.231
21250	0.55116	0.63636	0.	51.459
21251	0.4593	0.72727	0.	-76.51
21252	0.55116	0.72727	5.e-002	39.716
21253	0.55116	0.45455	0.	44.557
21254	0.4593	0.54545	0.	-67.275
21255	0.55116	0.54545	5.e-002	46.983
21256	0.55116	0.27273	0.	33.77
21257	0.4593	0.36364	0.	-48.824
21258	0.55116	0.36364	5.e-002	54.007
21259	0.4593	0.18182	0.	95.81
21260	0.55116	0.18182	5.e-002	40.269
21261	0.55116	9.0909e-002	0.	107.44
21262	0.36744	5.7273	0.	-90.421
21263	0.27558	5.8182	0.	164.52
21264	0.36744	5.8182	5.e-002	70.407
21265	0.36744	5.9091	0.	132.25
21266	0.36744	5.5455	0.	-161.64
21267	0.27558	5.6364	0.	235.68
21268	0.36744	5.6364	5.e-002	78.125
21269	0.36744	5.3636	0.	-195.46
21270	0.27558	5.4545	0.	279.49
21271	0.36744	5.4545	5.e-002	59.469
21272	0.36744	5.1818	0.	-214.37
21273	0.27558	5.2727	0.	310.7
21274	0.36744	5.2727	5.e-002	48.931
21275	0.36744	5.	0.	-227.02
21276	0.27558	5.0909	0.	330.68
21277	0.36744	5.0909	5.e-002	43.511
21278	0.36744	4.8182	0.	-236.05
21279	0.27558	4.9091	0.	345.25
21280	0.36744	4.9091	5.e-002	40.621
21281	0.36744	4.6364	0.	-242.74
21282	0.27558	4.7273	0.	355.96
21283	0.36744	4.7273	5.e-002	38.666
21284	0.36744	4.4545	0.	-247.83
21285	0.27558	4.5455	0.	364.11
21286	0.36744	4.5455	5.e-002	37.151
21287	0.36744	4.2727	0.	-251.74
21288	0.27558	4.3636	0.	370.38
21289	0.36744	4.3636	5.e-002	35.902
21290	0.36744	4.0909	0.	-254.76
21291	0.27558	4.1818	0.	375.24
21292	0.36744	4.1818	5.e-002	34.859
21293	0.36744	3.9091	0.	-257.09
21294	0.27558	4.	0.	379.01
21295	0.36744	4.	5.e-002	33.992
21296	0.36744	3.7273	0.	-258.85
21297	0.27558	3.8182	0.	381.9
21298	0.36744	3.8182	5.e-002	33.288
21299	0.36744	3.5455	0.	-260.15
21300	0.27558	3.6364	0.	384.07
21301	0.36744	3.6364	5.e-002	32.736
21302	0.36744	3.3636	0.	-261.03
21303	0.27558	3.4545	0.	385.61
21304	0.36744	3.4545	5.e-002	32.328
21305	0.36744	3.1818	0.	-261.54
21306	0.27558	3.2727	0.	386.61
21307	0.36744	3.2727	5.e-002	32.059
21308	0.36744	3.	0.	-261.71
21309	0.27558	3.0909	0.	387.09
21310	0.36744	3.0909	5.e-002	31.926
21311	0.36744	2.8182	0.	-261.54
21312	0.27558	2.9091	0.	387.09
21313	0.36744	2.9091	5.e-002	31.926
21314	0.36744	2.6364	0.	-261.03
21315	0.27558	2.7273	0.	386.61
21316	0.36744	2.7273	5.e-002	32.059
21317	0.36744	2.4545	0.	-260.15
21318	0.27558	2.5455	0.	385.61
21319	0.36744	2.5455	5.e-002	32.328
21320	0.36744	2.2727	0.	-258.85
21321	0.27558	2.3636	0.	384.07
21322	0.36744	2.3636	5.e-002	32.736
21323	0.36744	2.0909	0.	-257.09
21324	0.27558	2.1818	0.	381.9
21325	0.36744	2.1818	5.e-002	33.288
21326	0.36744	1.9091	0.	-254.76
21327	0.27558	2.	0.	379.01
21328	0.36744	2.	5.e-002	33.992
21329	0.36744	1.7273	0.	-251.74
21330	0.27558	1.8182	0.	375.24
21331	0.36744	1.8182	5.e-002	34.859
21332	0.36744	1.5455	0.	-247.83
21333	0.27558	1.6364	0.	370.38
21334	0.36744	1.6364	5.e-002	35.902
21335	0.36744	1.3636	0.	-242.74
21336	0.27558	1.4545	0.	364.11
21337	0.36744	1.4545	5.e-002	37.15
21338	0.36744	1.1818	0.	-236.05
21339	0.27558	1.2727	0.	355.96
21340	0.36744	1.2727	5.e-002	38.666
21341	0.36744	1.	0.	-227.02
21342	0.27558	1.0909	0.	345.25
21343	0.36744	1.0909	5.e-002	40.621
21344	0.36744	0.81818	0.	-214.37
21345	0.27558	0.90909	0.	330.68
21346	0.36744	0.90909	5.e-002	43.511
21347	0.36744	0.63636	0.	-195.46
21348	0.27558	0.72727	0.	310.7
21349	0.36744	0.72727	5.e-002	48.931
21350	0.36744	0.45455	0.	-161.64
21351	0.27558	0.54545	0.	279.49
21352	0.36744	0.54545	5.e-002	59.469
21353	0.36744	0.27273	0.	-90.421
21354	0.27558	0.36364	0.	235.68
21355	0.36744	0.36364	5.e-002	78.125
21356	0.27558	0.18182	0.	164.52
21357	0.36744	0.18182	5.e-002	70.407
21358	0.36744	9.0909e-002	0.	132.24
21359	0.18372	5.7273	0.	448.03
21360	0.18372	5.8182	5.e-002	169.93
21361	0.18372	5.9091	0.	222.82
21362	9.186e-002	5.8182	0.	-399.87
21363	0.18372	5.5455	0.	676.09
21364	0.18372	5.6364	5.e-002	108.26
21365	9.186e-002	5.6364	0.	-830.95
21366	0.18372	5.3636	0.	785.59
21367	0.18372	5.4545	5.e-002	73.51
21368	9.186e-002	5.4545	0.	-1028.1
21369	0.18372	5.1818	0.	855.79
21370	0.18372	5.2727	5.e-002	56.29
21371	9.186e-002	5.2727	0.	-1144.5
21372	0.18372	5.	0.	902.97
21373	0.18372	5.0909	5.e-002	47.349
21374	9.186e-002	5.0909	0.	-1223.
21375	0.18372	4.8182	0.	937.28
21376	0.18372	4.9091	5.e-002	41.244
21377	9.186e-002	4.9091	0.	-1278.9
21378	0.18372	4.6364	0.	962.83
21379	0.18372	4.7273	5.e-002	36.793
21380	9.186e-002	4.7273	0.	-1320.3
21381	0.18372	4.4545	0.	982.33
21382	0.18372	4.5455	5.e-002	33.395
21383	9.186e-002	4.5455	0.	-1351.8
21384	0.18372	4.2727	0.	997.37
21385	0.18372	4.3636	5.e-002	30.746
21386	9.186e-002	4.3636	0.	-1376.
21387	0.18372	4.0909	0.	1009.
21388	0.18372	4.1818	5.e-002	28.66
21389	9.186e-002	4.1818	0.	-1394.7
21390	0.18372	3.9091	0.	1018.
21391	0.18372	4.	5.e-002	27.019
21392	9.186e-002	4.	0.	-1409.3
21393	0.18372	3.7273	0.	1024.8
21394	0.18372	3.8182	5.e-002	25.743
21395	9.186e-002	3.8182	0.	-1420.5
21396	0.18372	3.5455	0.	1029.8
21397	0.18372	3.6364	5.e-002	24.777
21398	9.186e-002	3.6364	0.	-1428.8
21399	0.18372	3.3636	0.	1033.3
21400	0.18372	3.4545	5.e-002	24.081
21401	9.186e-002	3.4545	0.	-1434.8
21402	0.18372	3.1818	0.	1035.3
21403	0.18372	3.2727	5.e-002	23.63
21404	9.186e-002	3.2727	0.	-1438.6
21405	0.18372	3.	0.	1035.9
21406	0.18372	3.0909	5.e-002	23.409
21407	9.186e-002	3.0909	0.	-1440.5
21408	0.18372	2.8182	0.	1035.3
21409	0.18372	2.9091	5.e-002	23.409
21410	9.186e-002	2.9091	0.	-1440.5
21411	0.18372	2.6364	0.	1033.3
21412	0.18372	2.7273	5.e-002	23.63
21413	9.186e-002	2.7273	0.	-1438.6
21414	0.18372	2.4545	0.	1029.8
21415	0.18372	2.5455	5.e-002	24.081
21416	9.186e-002	2.5455	0.	-1434.8
21417	0.18372	2.2727	0.	1024.8
21418	0.18372	2.3636	5.e-002	24.777
21419	9.186e-002	2.3636	0.	-1428.8
21420	0.18372	2.0909	0.	1018.
21421	0.18372	2.1818	5.e-002	25.743
21422	9.186e-002	2.1818	0.	-1420.5
21423	0.18372	1.9091	0.	1009.
21424	0.18372	2.	5.e-002	27.019
21425	9.186e-002	2.	0.	-1409.3
21426	0.18372	1.7273	0.	997.37
21427	0.18372	1.8182	5.e-002	28.66
21428	9.186e-002	1.8182	0.	-1394.7
21429	0.18372	1.5455	0.	982.33
21430	0.18372	1.6364	5.e-002	30.746
21431	9.186e-002	1.6364	0.	-1376.
21432	0.18372	1.3636	0.	962.83
21433	0.18372	1.4545	5.e-002	33.395
21434	9.186e-002	1.4545	0.	-1351.8
21435	0.18372	1.1818	0.	937.28
21436	0.18372	1.2727	5.e-002	36.792
21437	9.186e-002	1.2727	0.	-1320.3
21438	0.18372	1.	0.	902.97
21439	0.18372	1.0909	5.e-002	41.244
21440	9.186e-002	1.0909	0.	-1278.9
21441	0.18372	0.81818	0.	855.79
21442	0.18372	0.90909	5.e-002	47.349
21443	9.186e-002	0.90909	0.	-1223.
21444	0.18372	0.63636	0.	785.6
21445	0.18372	0.72727	5.e-002	56.29
21446	9.186e-002	0.72727	0.	-1144.5
21447	0.18372	0.45455	0.	676.09
21448	0.18372	0.54545	5.e-002	73.51
21449	9.186e-002	0.54545	0.	-1028.1
21450	0.18372	0.27273	0.	448.03
21451	0.18372	0.36364	5.e-002	108.26
21452	9.186e-002	0.36364	0.	-830.95
21453	0.18372	0.18182	5.e-002	169.93
21454	0.18372	9.0909e-002	0.	222.82
21455	9.186e-002	0.18182	0.	-399.87
21456	23.867	2.2727	0.	94.46
21457	23.867	2.1818	5.e-002	122.73
21458	23.933	2.1818	0.	30.246
21459	23.867	2.0909	0.	228.93
21460	23.867	2.4545	0.	28.874
21461	23.867	2.3636	5.e-002	28.782
21462	23.933	2.3636	0.	8.8425
21463	23.867	2.6364	0.	22.659
21464	23.867	2.5455	5.e-002	13.248
21465	23.933	2.5455	0.	7.753
21466	23.867	2.8182	0.	26.715
21467	23.867	2.7273	5.e-002	7.285
21468	23.933	2.7273	0.	18.525
21469	23.867	3.	0.	30.364
21470	23.867	2.9091	5.e-002	5.2617
21471	23.933	2.9091	0.	31.79
21472	23.867	3.1818	0.	26.715
21473	23.867	3.0909	5.e-002	5.2617
21474	23.933	3.0909	0.	31.79
21475	23.867	3.3636	0.	22.659
21476	23.867	3.2727	5.e-002	7.285
21477	23.933	3.2727	0.	18.525
21478	23.867	3.5455	0.	28.874
21479	23.867	3.4545	5.e-002	13.248
21480	23.933	3.4545	0.	7.7529
21481	23.867	3.7273	0.	94.46
21482	23.867	3.6364	5.e-002	28.782
21483	23.933	3.6364	0.	8.8425
21484	23.867	3.8182	5.e-002	122.73
21485	23.933	3.8182	0.	30.246
21486	23.867	3.9091	0.	228.93
21487	23.867	3.7273	0.1	664.76
21488	23.783	3.8182	0.1	758.86
21489	23.867	3.9091	0.1	1934.8
21490	23.933	3.8182	0.1	909.87
21491	23.867	3.5455	0.1	234.83
21492	23.783	3.6364	0.1	293.62
21493	23.933	3.6364	0.1	283.45
21494	23.867	3.3636	0.1	102.95
21495	23.783	3.4545	0.1	144.24
21496	23.933	3.4545	0.1	106.28
21497	23.867	3.1818	0.1	56.31
21498	23.783	3.2727	0.1	88.163
21499	23.933	3.2727	0.1	41.403
21500	23.867	3.	0.1	46.012
21501	23.783	3.0909	0.1	70.894
21502	23.933	3.0909	0.1	25.672
21503	23.867	2.8182	0.1	56.31
21504	23.783	2.9091	0.1	70.894
21505	23.933	2.9091	0.1	25.672
21506	23.867	2.6364	0.1	102.95
21507	23.783	2.7273	0.1	88.163
21508	23.933	2.7273	0.1	41.403
21509	23.867	2.4545	0.1	234.83
21510	23.783	2.5455	0.1	144.24
21511	23.933	2.5455	0.1	106.28
21512	23.867	2.2727	0.1	664.76
21513	23.783	2.3636	0.1	293.62
21514	23.933	2.3636	0.1	283.45
21515	23.783	2.1818	0.1	758.86
21516	23.867	2.0909	0.1	1934.8
21517	23.933	2.1818	0.1	909.87
21518	0.18372	0.27273	0.1	4169.6
21519	0.27558	0.18182	0.1	4453.9
21520	9.186e-002	0.18182	0.1	3189.5
21521	0.18372	9.0909e-002	0.1	3684.6
21522	0.18372	0.45455	0.1	4826.2
21523	0.27558	0.36364	0.1	4817.7
21524	9.186e-002	0.36364	0.1	4544.7
21525	0.18372	0.63636	0.1	5442.5
21526	0.27558	0.54545	0.1	5308.5
21527	9.186e-002	0.54545	0.1	5424.
21528	0.18372	0.81818	0.1	5908.
21529	0.27558	0.72727	0.1	5738.1
21530	9.186e-002	0.72727	0.1	6015.5
21531	0.18372	1.	0.1	6257.6
21532	0.27558	0.90909	0.1	6089.
21533	9.186e-002	0.90909	0.1	6431.6
21534	0.18372	1.1818	0.1	6522.5
21535	0.27558	1.0909	0.1	6368.1
21536	9.186e-002	1.0909	0.1	6735.9
21537	0.18372	1.3636	0.1	6726.4
21538	0.27558	1.2727	0.1	6589.4
21539	9.186e-002	1.2727	0.1	6964.8
21540	0.18372	1.5455	0.1	6885.1
21541	0.27558	1.4545	0.1	6765.1
21542	9.186e-002	1.4545	0.1	7140.3
21543	0.18372	1.7273	0.1	7009.3
21544	0.27558	1.6364	0.1	6904.8
21545	9.186e-002	1.6364	0.1	7276.5
21546	0.18372	1.9091	0.1	7106.6
21547	0.27558	1.8182	0.1	7015.8
21548	9.186e-002	1.8182	0.1	7382.6
21549	0.18372	2.0909	0.1	7182.2
21550	0.27558	2.	0.1	7103.3
21551	9.186e-002	2.	0.1	7465.2
21552	0.18372	2.2727	0.1	7240.
21553	0.27558	2.1818	0.1	7171.3
21554	9.186e-002	2.1818	0.1	7528.8
21555	0.18372	2.4545	0.1	7282.5
21556	0.27558	2.3636	0.1	7222.8
21557	9.186e-002	2.3636	0.1	7576.6
21558	0.18372	2.6364	0.1	7311.7
21559	0.27558	2.5455	0.1	7259.8
21560	9.186e-002	2.5455	0.1	7610.7
21561	0.18372	2.8182	0.1	7328.7
21562	0.27558	2.7273	0.1	7283.7
21563	9.186e-002	2.7273	0.1	7632.6
21564	0.18372	3.	0.1	7334.4
21565	0.27558	2.9091	0.1	7295.4
21566	9.186e-002	2.9091	0.1	7643.4
21567	0.18372	3.1818	0.1	7328.7
21568	0.27558	3.0909	0.1	7295.4
21569	9.186e-002	3.0909	0.1	7643.4
21570	0.18372	3.3636	0.1	7311.7
21571	0.27558	3.2727	0.1	7283.7
21572	9.186e-002	3.2727	0.1	7632.6
21573	0.18372	3.5455	0.1	7282.5
21574	0.27558	3.4545	0.1	7259.8
21575	9.186e-002	3.4545	0.1	7610.7
21576	0.18372	3.7273	0.1	7240.
21577	0.27558	3.6364	0.1	7222.8
21578	9.186e-002	3.6364	0.1	7576.6
21579	0.18372	3.9091	0.1	7182.2
21580	0.27558	3.8182	0.1	7171.3
21581	9.186e-002	3.8182	0.1	7528.8
21582	0.18372	4.0909	0.1	7106.6
21583	0.27558	4.	0.1	7103.3
21584	9.186e-002	4.	0.1	7465.2
21585	0.18372	4.2727	0.1	7009.3
21586	0.27558	4.1818	0.1	7015.8
21587	9.186e-002	4.1818	0.1	7382.6
21588	0.18372	4.4545	0.1	6885.1
21589	0.27558	4.3636	0.1	6904.8
21590	9.186e-002	4.3636	0.1	7276.5
21591	0.18372	4.6364	0.1	6726.4
21592	0.27558	4.5455	0.1	6765.1
21593	9.186e-002	4.5455	0.1	7140.3
21594	0.18372	4.8182	0.1	6522.5
21595	0.27558	4.7273	0.1	6589.4
21596	9.186e-002	4.7273	0.1	6964.8
21597	0.18372	5.	0.1	6257.6
21598	0.27558	4.9091	0.1	6368.1
21599	9.186e-002	4.9091	0.1	6735.9
21600	0.18372	5.1818	0.1	5908.
21601	0.27558	5.0909	0.1	6089.
21602	9.186e-002	5.0909	0.1	6431.6
21603	0.18372	5.3636	0.1	5442.5
21604	0.27558	5.2727	0.1	5738.1
21605	9.186e-002	5.2727	0.1	6015.5
21606	0.18372	5.5455	0.1	4826.2
21607	0.27558	5.4545	0.1	5308.5
21608	9.186e-002	5.4545	0.1	5424.
21609	0.18372	5.7273	0.1	4169.6
21610	0.27558	5.6364	0.1	4817.7
21611	9.186e-002	5.6364	0.1	4544.7
21612	0.27558	5.8182	0.1	4453.9
21613	9.186e-002	5.8182	0.1	3189.5
21614	0.18372	5.9091	0.1	3684.6
21615	0.36744	0.27273	0.1	5086.8
21616	0.4593	0.18182	0.1	5270.1
21617	0.36744	9.0909e-002	0.1	4868.4
21618	0.36744	0.45455	0.1	5299.7
21619	0.4593	0.36364	0.1	5335.5
21620	0.36744	0.63636	0.1	5611.2
21621	0.4593	0.54545	0.1	5539.4
21622	0.36744	0.81818	0.1	5925.8
21623	0.4593	0.72727	0.1	5785.4
21624	0.36744	1.	0.1	6204.2
21625	0.4593	0.90909	0.1	6028.1
21626	0.36744	1.1818	0.1	6438.
21627	0.4593	1.0909	0.1	6247.
21628	0.36744	1.3636	0.1	6630.
21629	0.4593	1.2727	0.1	6435.7
21630	0.36744	1.5455	0.1	6786.1
21631	0.4593	1.4545	0.1	6594.4
21632	0.36744	1.7273	0.1	6912.
21633	0.4593	1.6364	0.1	6725.9
21634	0.36744	1.9091	0.1	7012.9
21635	0.4593	1.8182	0.1	6833.5
21636	0.36744	2.0909	0.1	7092.7
21637	0.4593	2.	0.1	6920.2
21638	0.36744	2.2727	0.1	7154.3
21639	0.4593	2.1818	0.1	6988.8
21640	0.36744	2.4545	0.1	7200.1
21641	0.4593	2.3636	0.1	7041.3
21642	0.36744	2.6364	0.1	7231.8
21643	0.4593	2.5455	0.1	7079.4
21644	0.36744	2.8182	0.1	7250.3
21645	0.4593	2.7273	0.1	7104.1
21646	0.36744	3.	0.1	7256.4
21647	0.4593	2.9091	0.1	7116.3
21648	0.36744	3.1818	0.1	7250.3
21649	0.4593	3.0909	0.1	7116.3
21650	0.36744	3.3636	0.1	7231.8
21651	0.4593	3.2727	0.1	7104.1
21652	0.36744	3.5455	0.1	7200.1
21653	0.4593	3.4545	0.1	7079.4
21654	0.36744	3.7273	0.1	7154.3
21655	0.4593	3.6364	0.1	7041.3
21656	0.36744	3.9091	0.1	7092.7
21657	0.4593	3.8182	0.1	6988.8
21658	0.36744	4.0909	0.1	7012.9
21659	0.4593	4.	0.1	6920.2
21660	0.36744	4.2727	0.1	6912.
21661	0.4593	4.1818	0.1	6833.5
21662	0.36744	4.4545	0.1	6786.1
21663	0.4593	4.3636	0.1	6725.9
21664	0.36744	4.6364	0.1	6630.
21665	0.4593	4.5455	0.1	6594.4
21666	0.36744	4.8182	0.1	6438.
21667	0.4593	4.7273	0.1	6435.7
21668	0.36744	5.	0.1	6204.2
21669	0.4593	4.9091	0.1	6247.
21670	0.36744	5.1818	0.1	5925.8
21671	0.4593	5.0909	0.1	6028.1
21672	0.36744	5.3636	0.1	5611.2
21673	0.4593	5.2727	0.1	5785.4
21674	0.36744	5.5455	0.1	5299.7
21675	0.4593	5.4545	0.1	5539.4
21676	0.36744	5.7273	0.1	5086.8
21677	0.4593	5.6364	0.1	5335.5
21678	0.4593	5.8182	0.1	5270.1
21679	0.36744	5.9091	0.1	4868.4
21680	0.55116	0.27273	0.1	5517.1
21681	0.64302	0.18182	0.1	5661.3
21682	0.55116	9.0909e-002	0.1	5409.3
21683	0.55116	0.45455	0.1	5571.4
21684	0.64302	0.36364	0.1	5638.7
21685	0.55116	0.63636	0.1	5710.5
21686	0.64302	0.54545	0.1	5714.5
21687	0.55116	0.81818	0.1	5886.7
21688	0.64302	0.72727	0.1	5837.4
21689	0.55116	1.	0.1	6071.1
21690	0.64302	0.90909	0.1	5983.5
21691	0.55116	1.1818	0.1	6245.3
21692	0.64302	1.0909	0.1	6133.7
21693	0.55116	1.3636	0.1	6400.7
21694	0.64302	1.2727	0.1	6276.1
21695	0.55116	1.5455	0.1	6534.7
21696	0.64302	1.4545	0.1	6404.4
21697	0.55116	1.7273	0.1	6647.7
21698	0.64302	1.6364	0.1	6516.2
21699	0.55116	1.9091	0.1	6741.
21700	0.64302	1.8182	0.1	6611.3
21701	0.55116	2.0909	0.1	6816.5
21702	0.64302	2.	0.1	6690.2
21703	0.55116	2.2727	0.1	6875.9
21704	0.64302	2.1818	0.1	6753.9
21705	0.55116	2.4545	0.1	6920.6
21706	0.64302	2.3636	0.1	6803.5
21707	0.55116	2.6364	0.1	6951.8
21708	0.64302	2.5455	0.1	6839.8
21709	0.55116	2.8182	0.1	6970.1
21710	0.64302	2.7273	0.1	6863.6
21711	0.55116	3.	0.1	6976.2
21712	0.64302	2.9091	0.1	6875.4
21713	0.55116	3.1818	0.1	6970.1
21714	0.64302	3.0909	0.1	6875.4
21715	0.55116	3.3636	0.1	6951.8
21716	0.64302	3.2727	0.1	6863.6
21717	0.55116	3.5455	0.1	6920.6
21718	0.64302	3.4545	0.1	6839.8
21719	0.55116	3.7273	0.1	6875.9
21720	0.64302	3.6364	0.1	6803.5
21721	0.55116	3.9091	0.1	6816.5
21722	0.64302	3.8182	0.1	6753.9
21723	0.55116	4.0909	0.1	6741.
21724	0.64302	4.	0.1	6690.2
21725	0.55116	4.2727	0.1	6647.7
21726	0.64302	4.1818	0.1	6611.3
21727	0.55116	4.4545	0.1	6534.7
21728	0.64302	4.3636	0.1	6516.2
21729	0.55116	4.6364	0.1	6400.7
21730	0.64302	4.5455	0.1	6404.4
21731	0.55116	4.8182	0.1	6245.3
21732	0.64302	4.7273	0.1	6276.1
21733	0.55116	5.	0.1	6071.1
21734	0.64302	4.9091	0.1	6133.7
21735	0.55116	5.1818	0.1	5886.7
21736	0.64302	5.0909	0.1	5983.5
21737	0.55116	5.3636	0.1	5710.5
21738	0.64302	5.2727	0.1	5837.4
21739	0.55116	5.5455	0.1	5571.4
21740	0.64302	5.4545	0.1	5714.5
21741	0.55116	5.7273	0.1	5517.1
21742	0.64302	5.6364	0.1	5638.7
21743	0.64302	5.8182	0.1	5661.3
21744	0.55116	5.9091	0.1	5409.3
21745	0.73488	0.27273	0.1	5782.9
21746	0.82674	0.18182	0.1	5880.
21747	0.73488	9.0909e-002	0.1	5718.
21748	0.73488	0.45455	0.1	5781.
21749	0.82674	0.36364	0.1	5831.1
21750	0.73488	0.63636	0.1	5839.6
21751	0.82674	0.54545	0.1	5851.5
21752	0.73488	0.81818	0.1	5932.6
21753	0.82674	0.72727	0.1	5907.5
21754	0.73488	1.	0.1	6045.2
21755	0.82674	0.90909	0.1	5988.6
21756	0.73488	1.1818	0.1	6164.2
21757	0.82674	1.0909	0.1	6083.5
21758	0.73488	1.3636	0.1	6279.7
21759	0.82674	1.2727	0.1	6182.5
21760	0.73488	1.5455	0.1	6386.
21761	0.82674	1.4545	0.1	6278.4
21762	0.73488	1.7273	0.1	6480.
21763	0.82674	1.6364	0.1	6366.9
21764	0.73488	1.9091	0.1	6560.6
21765	0.82674	1.8182	0.1	6445.3
21766	0.73488	2.0909	0.1	6627.6
21767	0.82674	2.	0.1	6512.5
21768	0.73488	2.2727	0.1	6681.5
21769	0.82674	2.1818	0.1	6568.1
21770	0.73488	2.4545	0.1	6722.6
21771	0.82674	2.3636	0.1	6612.2
21772	0.73488	2.6364	0.1	6751.6
21773	0.82674	2.5455	0.1	6645.
21774	0.73488	2.8182	0.1	6768.8
21775	0.82674	2.7273	0.1	6666.7
21776	0.73488	3.	0.1	6774.5
21777	0.82674	2.9091	0.1	6677.5
21778	0.73488	3.1818	0.1	6768.8
21779	0.82674	3.0909	0.1	6677.5
21780	0.73488	3.3636	0.1	6751.6
21781	0.82674	3.2727	0.1	6666.7
21782	0.73488	3.5455	0.1	6722.6
21783	0.82674	3.4545	0.1	6645.
21784	0.73488	3.7273	0.1	6681.5
21785	0.82674	3.6364	0.1	6612.2
21786	0.73488	3.9091	0.1	6627.6
21787	0.82674	3.8182	0.1	6568.1
21788	0.73488	4.0909	0.1	6560.6
21789	0.82674	4.	0.1	6512.5
21790	0.73488	4.2727	0.1	6480.
21791	0.82674	4.1818	0.1	6445.3
21792	0.73488	4.4545	0.1	6386.
21793	0.82674	4.3636	0.1	6366.9
21794	0.73488	4.6364	0.1	6279.7
21795	0.82674	4.5455	0.1	6278.4
21796	0.73488	4.8182	0.1	6164.2
21797	0.82674	4.7273	0.1	6182.5
21798	0.73488	5.	0.1	6045.2
21799	0.82674	4.9091	0.1	6083.5
21800	0.73488	5.1818	0.1	5932.6
21801	0.82674	5.0909	0.1	5988.6
21802	0.73488	5.3636	0.1	5839.6
21803	0.82674	5.2727	0.1	5907.5
21804	0.73488	5.5455	0.1	5781.
21805	0.82674	5.4545	0.1	5851.5
21806	0.73488	5.7273	0.1	5782.9
21807	0.82674	5.6364	0.1	5831.1
21808	0.82674	5.8182	0.1	5880.
21809	0.73488	5.9091	0.1	5718.
21810	0.9186	0.27273	0.1	5928.7
21811	1.0105	0.18182	0.1	5996.2
21812	0.9186	9.0909e-002	0.1	5889.2
21813	0.9186	0.45455	0.1	5901.8
21814	1.0105	0.36364	0.1	5938.7
21815	0.9186	0.63636	0.1	5918.7
21816	1.0105	0.54545	0.1	5932.1
21817	0.9186	0.81818	0.1	5962.4
21818	1.0105	0.72727	0.1	5951.1
21819	0.9186	1.	0.1	6025.8
21820	1.0105	0.90909	0.1	5991.1
21821	0.9186	1.1818	0.1	6101.
21822	1.0105	1.0909	0.1	6046.2
21823	0.9186	1.3636	0.1	6180.7
21824	1.0105	1.2727	0.1	6110.
21825	0.9186	1.5455	0.1	6259.
21826	1.0105	1.4545	0.1	6176.8
21827	0.9186	1.7273	0.1	6332.
21828	1.0105	1.6364	0.1	6242.1
21829	0.9186	1.9091	0.1	6397.
21830	1.0105	1.8182	0.1	6302.7
21831	0.9186	2.0909	0.1	6452.9
21832	1.0105	2.	0.1	6356.5
21833	0.9186	2.2727	0.1	6498.8
21834	1.0105	2.1818	0.1	6402.3
21835	0.9186	2.4545	0.1	6534.5
21836	1.0105	2.3636	0.1	6439.4
21837	0.9186	2.6364	0.1	6560.
21838	1.0105	2.5455	0.1	6467.4
21839	0.9186	2.8182	0.1	6575.2
21840	1.0105	2.7273	0.1	6486.
21841	0.9186	3.	0.1	6580.3
21842	1.0105	2.9091	0.1	6495.4
21843	0.9186	3.1818	0.1	6575.2
21844	1.0105	3.0909	0.1	6495.4
21845	0.9186	3.3636	0.1	6560.
21846	1.0105	3.2727	0.1	6486.
21847	0.9186	3.5455	0.1	6534.5
21848	1.0105	3.4545	0.1	6467.4
21849	0.9186	3.7273	0.1	6498.8
21850	1.0105	3.6364	0.1	6439.4
21851	0.9186	3.9091	0.1	6452.9
21852	1.0105	3.8182	0.1	6402.3
21853	0.9186	4.0909	0.1	6397.
21854	1.0105	4.	0.1	6356.5
21855	0.9186	4.2727	0.1	6332.
21856	1.0105	4.1818	0.1	6302.7
21857	0.9186	4.4545	0.1	6259.
21858	1.0105	4.3636	0.1	6242.1
21859	0.9186	4.6364	0.1	6180.7
21860	1.0105	4.5455	0.1	6176.8
21861	0.9186	4.8182	0.1	6101.
21862	1.0105	4.7273	0.1	6110.
21863	0.9186	5.	0.1	6025.8
21864	1.0105	4.9091	0.1	6046.2
21865	0.9186	5.1818	0.1	5962.4
21866	1.0105	5.0909	0.1	5991.1
21867	0.9186	5.3636	0.1	5918.7
21868	1.0105	5.2727	0.1	5951.1
21869	0.9186	5.5455	0.1	5901.8
21870	1.0105	5.4545	0.1	5932.1
21871	0.9186	5.7273	0.1	5928.7
21872	1.0105	5.6364	0.1	5938.7
21873	1.0105	5.8182	0.1	5996.2
21874	0.9186	5.9091	0.1	5889.2
21875	1.1023	0.27273	0.1	6006.7
21876	1.1942	0.18182	0.1	6051.8
21877	1.1023	9.0909e-002	0.1	5982.6
21878	1.1023	0.45455	0.1	5969.4
21879	1.1942	0.36364	0.1	5993.2
21880	1.1023	0.63636	0.1	5964.4
21881	1.1942	0.54545	0.1	5973.2
21882	1.1023	0.81818	0.1	5979.3
21883	1.1942	0.72727	0.1	5971.5
21884	1.1023	1.	0.1	6010.7
21885	1.1942	0.90909	0.1	5986.
21886	1.1023	1.1818	0.1	6054.4
21887	1.1942	1.0909	0.1	6013.9
21888	1.1023	1.3636	0.1	6105.5
21889	1.1942	1.2727	0.1	6051.4
21890	1.1023	1.5455	0.1	6159.4
21891	1.1942	1.4545	0.1	6094.5
21892	1.1023	1.7273	0.1	6212.5
21893	1.1942	1.6364	0.1	6139.5
21894	1.1023	1.9091	0.1	6261.9
21895	1.1942	1.8182	0.1	6183.4
21896	1.1023	2.0909	0.1	6305.8
21897	1.1942	2.	0.1	6224.
21898	1.1023	2.2727	0.1	6342.7
21899	1.1942	2.1818	0.1	6259.5
21900	1.1023	2.4545	0.1	6372.
21901	1.1942	2.3636	0.1	6289.
21902	1.1023	2.6364	0.1	6393.2
21903	1.1942	2.5455	0.1	6311.5
21904	1.1023	2.8182	0.1	6406.
21905	1.1942	2.7273	0.1	6326.8
21906	1.1023	3.	0.1	6410.3
21907	1.1942	2.9091	0.1	6334.5
21908	1.1023	3.1818	0.1	6406.
21909	1.1942	3.0909	0.1	6334.5
21910	1.1023	3.3636	0.1	6393.2
21911	1.1942	3.2727	0.1	6326.8
21912	1.1023	3.5455	0.1	6372.
21913	1.1942	3.4545	0.1	6311.5
21914	1.1023	3.7273	0.1	6342.7
21915	1.1942	3.6364	0.1	6289.
21916	1.1023	3.9091	0.1	6305.8
21917	1.1942	3.8182	0.1	6259.5
21918	1.1023	4.0909	0.1	6261.9
21919	1.1942	4.	0.1	6224.
21920	1.1023	4.2727	0.1	6212.5
21921	1.1942	4.1818	0.1	6183.4
21922	1.1023	4.4545	0.1	6159.4
21923	1.1942	4.3636	0.1	6139.5
21924	1.1023	4.6364	0.1	6105.5
21925	1.1942	4.5455	0.1	6094.5
21926	1.1023	4.8182	0.1	6054.4
21927	1.1942	4.7273	0.1	6051.4
21928	1.1023	5.	0.1	6010.7
21929	1.1942	4.9091	0.1	6013.9
21930	1.1023	5.1818	0.1	5979.3
21931	1.1942	5.0909	0.1	5986.
21932	1.1023	5.3636	0.1	5964.4
21933	1.1942	5.2727	0.1	5971.5
21934	1.1023	5.5455	0.1	5969.4
21935	1.1942	5.4545	0.1	5973.2
21936	1.1023	5.7273	0.1	6006.7
21937	1.1942	5.6364	0.1	5993.2
21938	1.1942	5.8182	0.1	6051.8
21939	1.1023	5.9091	0.1	5982.6
21940	1.286	0.27273	0.1	6038.8
21941	1.3779	0.18182	0.1	6067.8
21942	1.286	9.0909e-002	0.1	6025.5
21943	1.286	0.45455	0.1	5997.5
21944	1.3779	0.36364	0.1	6011.1
21945	1.286	0.63636	0.1	5980.4
21946	1.3779	0.54545	0.1	5984.2
21947	1.286	0.81818	0.1	5978.
21948	1.3779	0.72727	0.1	5970.5
21949	1.286	1.	0.1	5988.8
21950	1.3779	0.90909	0.1	5969.2
21951	1.286	1.1818	0.1	6010.4
21952	1.3779	1.0909	0.1	5978.9
21953	1.286	1.3636	0.1	6039.9
21954	1.3779	1.2727	0.1	5997.4
21955	1.286	1.5455	0.1	6074.1
21956	1.3779	1.4545	0.1	6022.2
21957	1.286	1.7273	0.1	6110.
21958	1.3779	1.6364	0.1	6050.6
21959	1.286	1.9091	0.1	6145.1
21960	1.3779	1.8182	0.1	6080.1
21961	1.286	2.0909	0.1	6177.5
21962	1.3779	2.	0.1	6108.6
21963	1.286	2.2727	0.1	6205.5
21964	1.3779	2.1818	0.1	6134.4
21965	1.286	2.4545	0.1	6228.2
21966	1.3779	2.3636	0.1	6156.4
21967	1.286	2.6364	0.1	6244.8
21968	1.3779	2.5455	0.1	6173.5
21969	1.286	2.8182	0.1	6255.
21970	1.3779	2.7273	0.1	6185.3
21971	1.286	3.	0.1	6258.4
21972	1.3779	2.9091	0.1	6191.2
21973	1.286	3.1818	0.1	6255.
21974	1.3779	3.0909	0.1	6191.2
21975	1.286	3.3636	0.1	6244.8
21976	1.3779	3.2727	0.1	6185.3
21977	1.286	3.5455	0.1	6228.2
21978	1.3779	3.4545	0.1	6173.5
21979	1.286	3.7273	0.1	6205.5
21980	1.3779	3.6364	0.1	6156.4
21981	1.286	3.9091	0.1	6177.5
21982	1.3779	3.8182	0.1	6134.4
21983	1.286	4.0909	0.1	6145.1
21984	1.3779	4.	0.1	6108.6
21985	1.286	4.2727	0.1	6110.
21986	1.3779	4.1818	0.1	6080.1
21987	1.286	4.4545	0.1	6074.1
21988	1.3779	4.3636	0.1	6050.6
21989	1.286	4.6364	0.1	6039.9
21990	1.3779	4.5455	0.1	6022.2
21991	1.286	4.8182	0.1	6010.4
21992	1.3779	4.7273	0.1	5997.4
21993	1.286	5.	0.1	5988.8
21994	1.3779	4.9091	0.1	5978.9
21995	1.286	5.1818	0.1	5978.
21996	1.3779	5.0909	0.1	5969.2
21997	1.286	5.3636	0.1	5980.4
21998	1.3779	5.2727	0.1	5970.5
21999	1.286	5.5455	0.1	5997.5
22000	1.3779	5.4545	0.1	5984.2
22001	1.286	5.7273	0.1	6038.8
22002	1.3779	5.6364	0.1	6011.1
22003	1.3779	5.8182	0.1	6067.8
22004	1.286	5.9091	0.1	6025.5
22005	1.4698	0.27273	0.1	6040.6
22006	1.5616	0.18182	0.1	6057.5
22007	1.4698	9.0909e-002	0.1	6035.
22008	1.4698	0.45455	0.1	5998.3
22009	1.5616	0.36364	0.1	6003.9
22010	1.4698	0.63636	0.1	5974.6
22011	1.5616	0.54545	0.1	5973.6
22012	1.4698	0.81818	0.1	5961.8
22013	1.5616	0.72727	0.1	5953.
22014	1.4698	1.	0.1	5959.2
22015	1.5616	0.90909	0.1	5941.8
22016	1.4698	1.1818	0.1	5965.6
22017	1.5616	1.0909	0.1	5939.3
22018	1.4698	1.3636	0.1	5979.4
22019	1.5616	1.2727	0.1	5944.5
22020	1.4698	1.5455	0.1	5998.3
22021	1.5616	1.4545	0.1	5955.7
22022	1.4698	1.7273	0.1	6020.3
22023	1.5616	1.6364	0.1	5971.
22024	1.4698	1.9091	0.1	6043.1
22025	1.5616	1.8182	0.1	5988.6
22026	1.4698	2.0909	0.1	6065.2
22027	1.5616	2.	0.1	6006.8
22028	1.4698	2.2727	0.1	6085.
22029	1.5616	2.1818	0.1	6024.1
22030	1.4698	2.4545	0.1	6101.4
22031	1.5616	2.3636	0.1	6039.2
22032	1.4698	2.6364	0.1	6113.7
22033	1.5616	2.5455	0.1	6051.3
22034	1.4698	2.8182	0.1	6121.2
22035	1.5616	2.7273	0.1	6059.7
22036	1.4698	3.	0.1	6123.8
22037	1.5616	2.9091	0.1	6064.
22038	1.4698	3.1818	0.1	6121.2
22039	1.5616	3.0909	0.1	6064.
22040	1.4698	3.3636	0.1	6113.7
22041	1.5616	3.2727	0.1	6059.7
22042	1.4698	3.5455	0.1	6101.4
22043	1.5616	3.4545	0.1	6051.3
22044	1.4698	3.7273	0.1	6085.
22045	1.5616	3.6364	0.1	6039.2
22046	1.4698	3.9091	0.1	6065.2
22047	1.5616	3.8182	0.1	6024.1
22048	1.4698	4.0909	0.1	6043.1
22049	1.5616	4.	0.1	6006.8
22050	1.4698	4.2727	0.1	6020.3
22051	1.5616	4.1818	0.1	5988.6
22052	1.4698	4.4545	0.1	5998.3
22053	1.5616	4.3636	0.1	5971.
22054	1.4698	4.6364	0.1	5979.4
22055	1.5616	4.5455	0.1	5955.7
22056	1.4698	4.8182	0.1	5965.6
22057	1.5616	4.7273	0.1	5944.5
22058	1.4698	5.	0.1	5959.2
22059	1.5616	4.9091	0.1	5939.3
22060	1.4698	5.1818	0.1	5961.8
22061	1.5616	5.0909	0.1	5941.8
22062	1.4698	5.3636	0.1	5974.6
22063	1.5616	5.2727	0.1	5953.
22064	1.4698	5.5455	0.1	5998.3
22065	1.5616	5.4545	0.1	5973.6
22066	1.4698	5.7273	0.1	6040.6
22067	1.5616	5.6364	0.1	6003.9
22068	1.5616	5.8182	0.1	6057.5
22069	1.4698	5.9091	0.1	6035.
22070	1.6535	0.27273	0.1	6021.2
22071	1.7453	0.18182	0.1	6029.
22072	1.6535	9.0909e-002	0.1	6021.4
22073	1.6535	0.45455	0.1	5979.5
22074	1.7453	0.36364	0.1	5978.8
22075	1.6535	0.63636	0.1	5952.3
22076	1.7453	0.54545	0.1	5947.1
22077	1.6535	0.81818	0.1	5933.2
22078	1.7453	0.72727	0.1	5922.7
22079	1.6535	1.	0.1	5921.9
22080	1.7453	0.90909	0.1	5905.3
22081	1.6535	1.1818	0.1	5918.1
22082	1.7453	1.0909	0.1	5894.9
22083	1.6535	1.3636	0.1	5920.5
22084	1.7453	1.2727	0.1	5890.7
22085	1.6535	1.5455	0.1	5928.
22086	1.7453	1.4545	0.1	5892.
22087	1.6535	1.7273	0.1	5939.
22088	1.7453	1.6364	0.1	5897.4
22089	1.6535	1.9091	0.1	5951.9
22090	1.7453	1.8182	0.1	5905.7
22091	1.6535	2.0909	0.1	5965.3
22092	1.7453	2.	0.1	5915.4
22093	1.6535	2.2727	0.1	5978.
22094	1.7453	2.1818	0.1	5925.5
22095	1.6535	2.4545	0.1	5988.8
22096	1.7453	2.3636	0.1	5934.7
22097	1.6535	2.6364	0.1	5997.1
22098	1.7453	2.5455	0.1	5942.4
22099	1.6535	2.8182	0.1	6002.3
22100	1.7453	2.7273	0.1	5947.9
22101	1.6535	3.	0.1	6004.
22102	1.7453	2.9091	0.1	5950.7
22103	1.6535	3.1818	0.1	6002.3
22104	1.7453	3.0909	0.1	5950.7
22105	1.6535	3.3636	0.1	5997.1
22106	1.7453	3.2727	0.1	5947.9
22107	1.6535	3.5455	0.1	5988.8
22108	1.7453	3.4545	0.1	5942.4
22109	1.6535	3.7273	0.1	5978.
22110	1.7453	3.6364	0.1	5934.7
22111	1.6535	3.9091	0.1	5965.3
22112	1.7453	3.8182	0.1	5925.5
22113	1.6535	4.0909	0.1	5951.9
22114	1.7453	4.	0.1	5915.4
22115	1.6535	4.2727	0.1	5939.
22116	1.7453	4.1818	0.1	5905.7
22117	1.6535	4.4545	0.1	5928.
22118	1.7453	4.3636	0.1	5897.4
22119	1.6535	4.6364	0.1	5920.5
22120	1.7453	4.5455	0.1	5892.
22121	1.6535	4.8182	0.1	5918.1
22122	1.7453	4.7273	0.1	5890.7
22123	1.6535	5.	0.1	5922.
22124	1.7453	4.9091	0.1	5894.9
22125	1.6535	5.1818	0.1	5933.2
22126	1.7453	5.0909	0.1	5905.3
22127	1.6535	5.3636	0.1	5952.3
22128	1.7453	5.2727	0.1	5922.7
22129	1.6535	5.5455	0.1	5979.5
22130	1.7453	5.4545	0.1	5947.1
22131	1.6535	5.7273	0.1	6021.2
22132	1.7453	5.6364	0.1	5978.8
22133	1.7453	5.8182	0.1	6029.
22134	1.6535	5.9091	0.1	6021.4
22135	1.8372	0.27273	0.1	5987.
22136	1.9291	0.18182	0.1	5987.9
22137	1.8372	9.0909e-002	0.1	5991.6
22138	1.8372	0.45455	0.1	5946.8
22139	1.9291	0.36364	0.1	5941.1
22140	1.8372	0.63636	0.1	5917.8
22141	1.9291	0.54545	0.1	5909.2
22142	1.8372	0.81818	0.1	5895.
22143	1.9291	0.72727	0.1	5882.7
22144	1.8372	1.	0.1	5878.3
22145	1.9291	0.90909	0.1	5861.7
22146	1.8372	1.1818	0.1	5867.5
22147	1.9291	1.0909	0.1	5846.
22148	1.8372	1.3636	0.1	5862.
22149	1.9291	1.2727	0.1	5835.5
22150	1.8372	1.5455	0.1	5861.1
22151	1.9291	1.4545	0.1	5829.7
22152	1.8372	1.7273	0.1	5863.8
22153	1.9291	1.6364	0.1	5827.9
22154	1.8372	1.9091	0.1	5868.9
22155	1.9291	1.8182	0.1	5829.
22156	1.8372	2.0909	0.1	5875.2
22157	1.9291	2.	0.1	5832.1
22158	1.8372	2.2727	0.1	5881.9
22159	1.9291	2.1818	0.1	5836.3
22160	1.8372	2.4545	0.1	5888.
22161	1.9291	2.3636	0.1	5840.7
22162	1.8372	2.6364	0.1	5892.9
22163	1.9291	2.5455	0.1	5844.6
22164	1.8372	2.8182	0.1	5896.
22165	1.9291	2.7273	0.1	5847.6
22166	1.8372	3.	0.1	5897.1
22167	1.9291	2.9091	0.1	5849.1
22168	1.8372	3.1818	0.1	5896.
22169	1.9291	3.0909	0.1	5849.1
22170	1.8372	3.3636	0.1	5892.9
22171	1.9291	3.2727	0.1	5847.6
22172	1.8372	3.5455	0.1	5888.
22173	1.9291	3.4545	0.1	5844.6
22174	1.8372	3.7273	0.1	5881.9
22175	1.9291	3.6364	0.1	5840.7
22176	1.8372	3.9091	0.1	5875.2
22177	1.9291	3.8182	0.1	5836.3
22178	1.8372	4.0909	0.1	5868.9
22179	1.9291	4.	0.1	5832.1
22180	1.8372	4.2727	0.1	5863.8
22181	1.9291	4.1818	0.1	5829.
22182	1.8372	4.4545	0.1	5861.1
22183	1.9291	4.3636	0.1	5827.9
22184	1.8372	4.6364	0.1	5862.
22185	1.9291	4.5455	0.1	5829.7
22186	1.8372	4.8182	0.1	5867.5
22187	1.9291	4.7273	0.1	5835.5
22188	1.8372	5.	0.1	5878.3
22189	1.9291	4.9091	0.1	5846.
22190	1.8372	5.1818	0.1	5895.
22191	1.9291	5.0909	0.1	5861.7
22192	1.8372	5.3636	0.1	5917.8
22193	1.9291	5.2727	0.1	5882.7
22194	1.8372	5.5455	0.1	5946.8
22195	1.9291	5.4545	0.1	5909.2
22196	1.8372	5.7273	0.1	5987.
22197	1.9291	5.6364	0.1	5941.1
22198	1.9291	5.8182	0.1	5987.9
22199	1.8372	5.9091	0.1	5991.6
22200	2.0209	0.27273	0.1	5942.3
22201	2.1128	0.18182	0.1	5937.8
22202	2.0209	9.0909e-002	0.1	5950.3
22203	2.0209	0.45455	0.1	5903.9
22204	2.1128	0.36364	0.1	5894.5
22205	2.0209	0.63636	0.1	5874.4
22206	2.1128	0.54545	0.1	5863.
22207	2.0209	0.81818	0.1	5849.6
22208	2.1128	0.72727	0.1	5835.7
22209	2.0209	1.	0.1	5829.5
22210	2.1128	0.90909	0.1	5812.5
22211	2.0209	1.1818	0.1	5814.1
22212	2.1128	1.0909	0.1	5793.5
22213	2.0209	1.3636	0.1	5803.2
22214	2.1128	1.2727	0.1	5778.9
22215	2.0209	1.5455	0.1	5796.3
22216	2.1128	1.4545	0.1	5768.2
22217	2.0209	1.7273	0.1	5792.8
22218	2.1128	1.6364	0.1	5761.
22219	2.0209	1.9091	0.1	5791.9
22220	2.1128	1.8182	0.1	5756.8
22221	2.0209	2.0909	0.1	5792.8
22222	2.1128	2.	0.1	5754.9
22223	2.0209	2.2727	0.1	5794.7
22224	2.1128	2.1818	0.1	5754.5
22225	2.0209	2.4545	0.1	5797.
22226	2.1128	2.3636	0.1	5755.1
22227	2.0209	2.6364	0.1	5799.
22228	2.1128	2.5455	0.1	5756.
22229	2.0209	2.8182	0.1	5800.4
22230	2.1128	2.7273	0.1	5756.9
22231	2.0209	3.	0.1	5800.9
22232	2.1128	2.9091	0.1	5757.4
22233	2.0209	3.1818	0.1	5800.4
22234	2.1128	3.0909	0.1	5757.4
22235	2.0209	3.3636	0.1	5799.
22236	2.1128	3.2727	0.1	5756.9
22237	2.0209	3.5455	0.1	5797.
22238	2.1128	3.4545	0.1	5756.
22239	2.0209	3.7273	0.1	5794.7
22240	2.1128	3.6364	0.1	5755.1
22241	2.0209	3.9091	0.1	5792.8
22242	2.1128	3.8182	0.1	5754.5
22243	2.0209	4.0909	0.1	5791.9
22244	2.1128	4.	0.1	5754.9
22245	2.0209	4.2727	0.1	5792.8
22246	2.1128	4.1818	0.1	5756.8
22247	2.0209	4.4545	0.1	5796.3
22248	2.1128	4.3636	0.1	5761.
22249	2.0209	4.6364	0.1	5803.2
22250	2.1128	4.5455	0.1	5768.2
22251	2.0209	4.8182	0.1	5814.1
22252	2.1128	4.7273	0.1	5778.9
22253	2.0209	5.	0.1	5829.5
22254	2.1128	4.9091	0.1	5793.5
22255	2.0209	5.1818	0.1	5849.6
22256	2.1128	5.0909	0.1	5812.5
22257	2.0209	5.3636	0.1	5874.4
22258	2.1128	5.2727	0.1	5835.7
22259	2.0209	5.5455	0.1	5903.9
22260	2.1128	5.4545	0.1	5863.
22261	2.0209	5.7273	0.1	5942.3
22262	2.1128	5.6364	0.1	5894.5
22263	2.1128	5.8182	0.1	5937.8
22264	2.0209	5.9091	0.1	5950.3
22265	2.2047	0.27273	0.1	5890.2
22266	2.2965	0.18182	0.1	5881.5
22267	2.2047	9.0909e-002	0.1	5900.7
22268	2.2047	0.45455	0.1	5853.8
22269	2.2965	0.36364	0.1	5841.4
22270	2.2047	0.63636	0.1	5824.5
22271	2.2965	0.54545	0.1	5810.8
22272	2.2047	0.81818	0.1	5798.7
22273	2.2965	0.72727	0.1	5783.4
22274	2.2047	1.	0.1	5776.7
22275	2.2965	0.90909	0.1	5759.1
22276	2.2047	1.1818	0.1	5758.4
22277	2.2965	1.0909	0.1	5738.3
22278	2.2047	1.3636	0.1	5743.8
22279	2.2965	1.2727	0.1	5720.9
22280	2.2047	1.5455	0.1	5732.8
22281	2.2965	1.4545	0.1	5707.
22282	2.2047	1.7273	0.1	5724.9
22283	2.2965	1.6364	0.1	5696.1
22284	2.2047	1.9091	0.1	5719.6
22285	2.2965	1.8182	0.1	5688.1
22286	2.2047	2.0909	0.1	5716.3
22287	2.2965	2.	0.1	5682.4
22288	2.2047	2.2727	0.1	5714.6
22289	2.2965	2.1818	0.1	5678.6
22290	2.2047	2.4545	0.1	5713.8
22291	2.2965	2.3636	0.1	5676.2
22292	2.2047	2.6364	0.1	5713.6
22293	2.2965	2.5455	0.1	5674.9
22294	2.2047	2.8182	0.1	5713.6
22295	2.2965	2.7273	0.1	5674.1
22296	2.2047	3.	0.1	5713.6
22297	2.2965	2.9091	0.1	5673.8
22298	2.2047	3.1818	0.1	5713.6
22299	2.2965	3.0909	0.1	5673.8
22300	2.2047	3.3636	0.1	5713.6
22301	2.2965	3.2727	0.1	5674.1
22302	2.2047	3.5455	0.1	5713.8
22303	2.2965	3.4545	0.1	5674.9
22304	2.2047	3.7273	0.1	5714.6
22305	2.2965	3.6364	0.1	5676.2
22306	2.2047	3.9091	0.1	5716.3
22307	2.2965	3.8182	0.1	5678.6
22308	2.2047	4.0909	0.1	5719.6
22309	2.2965	4.	0.1	5682.4
22310	2.2047	4.2727	0.1	5724.9
22311	2.2965	4.1818	0.1	5688.1
22312	2.2047	4.4545	0.1	5732.8
22313	2.2965	4.3636	0.1	5696.1
22314	2.2047	4.6364	0.1	5743.8
22315	2.2965	4.5455	0.1	5707.
22316	2.2047	4.8182	0.1	5758.4
22317	2.2965	4.7273	0.1	5720.9
22318	2.2047	5.	0.1	5776.7
22319	2.2965	4.9091	0.1	5738.3
22320	2.2047	5.1818	0.1	5798.7
22321	2.2965	5.0909	0.1	5759.1
22322	2.2047	5.3636	0.1	5824.5
22323	2.2965	5.2727	0.1	5783.4
22324	2.2047	5.5455	0.1	5853.8
22325	2.2965	5.4545	0.1	5810.8
22326	2.2047	5.7273	0.1	5890.2
22327	2.2965	5.6364	0.1	5841.4
22328	2.2965	5.8182	0.1	5881.5
22329	2.2047	5.9091	0.1	5900.7
22330	2.3884	0.27273	0.1	5832.9
22331	2.4802	0.18182	0.1	5820.9
22332	2.3884	9.0909e-002	0.1	5845.3
22333	2.3884	0.45455	0.1	5798.6
22334	2.4802	0.36364	0.1	5783.8
22335	2.3884	0.63636	0.1	5769.9
22336	2.4802	0.54545	0.1	5754.4
22337	2.3884	0.81818	0.1	5743.9
22338	2.4802	0.72727	0.1	5727.3
22339	2.3884	1.	0.1	5720.9
22340	2.4802	0.90909	0.1	5702.8
22341	2.3884	1.1818	0.1	5700.9
22342	2.4802	1.0909	0.1	5681.
22343	2.3884	1.3636	0.1	5684.1
22344	2.4802	1.2727	0.1	5662.
22345	2.3884	1.5455	0.1	5670.2
22346	2.4802	1.4545	0.1	5646.
22347	2.3884	1.7273	0.1	5659.2
22348	2.4802	1.6364	0.1	5632.7
22349	2.3884	1.9091	0.1	5650.8
22350	2.4802	1.8182	0.1	5622.
22351	2.3884	2.0909	0.1	5644.5
22352	2.4802	2.	0.1	5613.7
22353	2.3884	2.2727	0.1	5640.1
22354	2.4802	2.1818	0.1	5607.4
22355	2.3884	2.4545	0.1	5637.
22356	2.4802	2.3636	0.1	5602.9
22357	2.3884	2.6364	0.1	5635.1
22358	2.4802	2.5455	0.1	5599.7
22359	2.3884	2.8182	0.1	5634.1
22360	2.4802	2.7273	0.1	5597.8
22361	2.3884	3.	0.1	5633.7
22362	2.4802	2.9091	0.1	5596.9
22363	2.3884	3.1818	0.1	5634.1
22364	2.4802	3.0909	0.1	5596.9
22365	2.3884	3.3636	0.1	5635.1
22366	2.4802	3.2727	0.1	5597.8
22367	2.3884	3.5455	0.1	5637.
22368	2.4802	3.4545	0.1	5599.7
22369	2.3884	3.7273	0.1	5640.1
22370	2.4802	3.6364	0.1	5602.9
22371	2.3884	3.9091	0.1	5644.5
22372	2.4802	3.8182	0.1	5607.4
22373	2.3884	4.0909	0.1	5650.8
22374	2.4802	4.	0.1	5613.7
22375	2.3884	4.2727	0.1	5659.2
22376	2.4802	4.1818	0.1	5622.
22377	2.3884	4.4545	0.1	5670.2
22378	2.4802	4.3636	0.1	5632.7
22379	2.3884	4.6364	0.1	5684.1
22380	2.4802	4.5455	0.1	5646.
22381	2.3884	4.8182	0.1	5700.9
22382	2.4802	4.7273	0.1	5662.
22383	2.3884	5.	0.1	5720.9
22384	2.4802	4.9091	0.1	5681.
22385	2.3884	5.1818	0.1	5743.9
22386	2.4802	5.0909	0.1	5702.8
22387	2.3884	5.3636	0.1	5769.9
22388	2.4802	5.2727	0.1	5727.3
22389	2.3884	5.5455	0.1	5798.6
22390	2.4802	5.4545	0.1	5754.4
22391	2.3884	5.7273	0.1	5832.9
22392	2.4802	5.6364	0.1	5783.8
22393	2.4802	5.8182	0.1	5820.9
22394	2.3884	5.9091	0.1	5845.3
22395	2.5721	0.27273	0.1	5771.9
22396	2.664	0.18182	0.1	5757.3
22397	2.5721	9.0909e-002	0.1	5785.8
22398	2.5721	0.45455	0.1	5739.7
22399	2.664	0.36364	0.1	5723.
22400	2.5721	0.63636	0.1	5712.
22401	2.664	0.54545	0.1	5694.9
22402	2.5721	0.81818	0.1	5686.3
22403	2.664	0.72727	0.1	5668.6
22404	2.5721	1.	0.1	5663.
22405	2.664	0.90909	0.1	5644.3
22406	2.5721	1.1818	0.1	5642.2
22407	2.664	1.0909	0.1	5622.2
22408	2.5721	1.3636	0.1	5624.
22409	2.664	1.2727	0.1	5602.4
22410	2.5721	1.5455	0.1	5608.4
22411	2.664	1.4545	0.1	5585.2
22412	2.5721	1.7273	0.1	5595.4
22413	2.664	1.6364	0.1	5570.4
22414	2.5721	1.9091	0.1	5584.8
22415	2.664	1.8182	0.1	5558.
22416	2.5721	2.0909	0.1	5576.4
22417	2.664	2.	0.1	5547.9
22418	2.5721	2.2727	0.1	5570.
22419	2.664	2.1818	0.1	5539.9
22420	2.5721	2.4545	0.1	5565.4
22421	2.664	2.3636	0.1	5533.8
22422	2.5721	2.6364	0.1	5562.2
22423	2.664	2.5455	0.1	5529.5
22424	2.5721	2.8182	0.1	5560.4
22425	2.664	2.7273	0.1	5526.6
22426	2.5721	3.	0.1	5559.8
22427	2.664	2.9091	0.1	5525.3
22428	2.5721	3.1818	0.1	5560.4
22429	2.664	3.0909	0.1	5525.3
22430	2.5721	3.3636	0.1	5562.2
22431	2.664	3.2727	0.1	5526.6
22432	2.5721	3.5455	0.1	5565.4
22433	2.664	3.4545	0.1	5529.5
22434	2.5721	3.7273	0.1	5570.
22435	2.664	3.6364	0.1	5533.8
22436	2.5721	3.9091	0.1	5576.4
22437	2.664	3.8182	0.1	5539.9
22438	2.5721	4.0909	0.1	5584.8
22439	2.664	4.	0.1	5547.9
22440	2.5721	4.2727	0.1	5595.4
22441	2.664	4.1818	0.1	5558.
22442	2.5721	4.4545	0.1	5608.4
22443	2.664	4.3636	0.1	5570.4
22444	2.5721	4.6364	0.1	5624.
22445	2.664	4.5455	0.1	5585.2
22446	2.5721	4.8182	0.1	5642.2
22447	2.664	4.7273	0.1	5602.4
22448	2.5721	5.	0.1	5663.
22449	2.664	4.9091	0.1	5622.2
22450	2.5721	5.1818	0.1	5686.3
22451	2.664	5.0909	0.1	5644.3
22452	2.5721	5.3636	0.1	5712.
22453	2.664	5.2727	0.1	5668.6
22454	2.5721	5.5455	0.1	5739.7
22455	2.664	5.4545	0.1	5694.9
22456	2.5721	5.7273	0.1	5771.9
22457	2.664	5.6364	0.1	5723.
22458	2.664	5.8182	0.1	5757.3
22459	2.5721	5.9091	0.1	5785.8
22460	2.7558	0.27273	0.1	5708.5
22461	2.8477	0.18182	0.1	5691.8
22462	2.7558	9.0909e-002	0.1	5723.3
22463	2.7558	0.45455	0.1	5678.3
22464	2.8477	0.36364	0.1	5660.1
22465	2.7558	0.63636	0.1	5651.7
22466	2.8477	0.54545	0.1	5633.4
22467	2.7558	0.81818	0.1	5626.7
22468	2.8477	0.72727	0.1	5608.1
22469	2.7558	1.	0.1	5603.6
22470	2.8477	0.90909	0.1	5584.3
22471	2.7558	1.1818	0.1	5582.5
22472	2.8477	1.0909	0.1	5562.4
22473	2.7558	1.3636	0.1	5563.7
22474	2.8477	1.2727	0.1	5542.4
22475	2.7558	1.5455	0.1	5547.1
22476	2.8477	1.4545	0.1	5524.6
22477	2.7558	1.7273	0.1	5532.9
22478	2.8477	1.6364	0.1	5509.
22479	2.7558	1.9091	0.1	5521.
22480	2.8477	1.8182	0.1	5495.6
22481	2.7558	2.0909	0.1	5511.2
22482	2.8477	2.	0.1	5484.4
22483	2.7558	2.2727	0.1	5503.5
22484	2.8477	2.1818	0.1	5475.3
22485	2.7558	2.4545	0.1	5497.7
22486	2.8477	2.3636	0.1	5468.2
22487	2.7558	2.6364	0.1	5493.7
22488	2.8477	2.5455	0.1	5463.
22489	2.7558	2.8182	0.1	5491.3
22490	2.8477	2.7273	0.1	5459.6
22491	2.7558	3.	0.1	5490.5
22492	2.8477	2.9091	0.1	5457.9
22493	2.7558	3.1818	0.1	5491.3
22494	2.8477	3.0909	0.1	5457.9
22495	2.7558	3.3636	0.1	5493.7
22496	2.8477	3.2727	0.1	5459.6
22497	2.7558	3.5455	0.1	5497.7
22498	2.8477	3.4545	0.1	5463.
22499	2.7558	3.7273	0.1	5503.5
22500	2.8477	3.6364	0.1	5468.2
22501	2.7558	3.9091	0.1	5511.2
22502	2.8477	3.8182	0.1	5475.3
22503	2.7558	4.0909	0.1	5521.
22504	2.8477	4.	0.1	5484.4
22505	2.7558	4.2727	0.1	5532.9
22506	2.8477	4.1818	0.1	5495.6
22507	2.7558	4.4545	0.1	5547.1
22508	2.8477	4.3636	0.1	5509.
22509	2.7558	4.6364	0.1	5563.7
22510	2.8477	4.5455	0.1	5524.6
22511	2.7558	4.8182	0.1	5582.5
22512	2.8477	4.7273	0.1	5542.4
22513	2.7558	5.	0.1	5603.6
22514	2.8477	4.9091	0.1	5562.4
22515	2.7558	5.1818	0.1	5626.7
22516	2.8477	5.0909	0.1	5584.3
22517	2.7558	5.3636	0.1	5651.7
22518	2.8477	5.2727	0.1	5608.1
22519	2.7558	5.5455	0.1	5678.3
22520	2.8477	5.4545	0.1	5633.4
22521	2.7558	5.7273	0.1	5708.5
22522	2.8477	5.6364	0.1	5660.1
22523	2.8477	5.8182	0.1	5691.8
22524	2.7558	5.9091	0.1	5723.3
22525	2.9395	0.27273	0.1	5643.5
22526	3.0314	0.18182	0.1	5625.1
22527	2.9395	9.0909e-002	0.1	5658.9
22528	2.9395	0.45455	0.1	5615.3
22529	3.0314	0.36364	0.1	5595.8
22530	2.9395	0.63636	0.1	5589.9
22531	3.0314	0.54545	0.1	5570.6
22532	2.9395	0.81818	0.1	5565.8
22533	3.0314	0.72727	0.1	5546.3
22534	2.9395	1.	0.1	5543.2
22535	3.0314	0.90909	0.1	5523.4
22536	2.9395	1.1818	0.1	5522.3
22537	3.0314	1.0909	0.1	5502.
22538	2.9395	1.3636	0.1	5503.4
22539	3.0314	1.2727	0.1	5482.2
22540	2.9395	1.5455	0.1	5486.5
22541	3.0314	1.4545	0.1	5464.3
22542	2.9395	1.7273	0.1	5471.6
22543	3.0314	1.6364	0.1	5448.4
22544	2.9395	1.9091	0.1	5458.9
22545	3.0314	1.8182	0.1	5434.5
22546	2.9395	2.0909	0.1	5448.4
22547	3.0314	2.	0.1	5422.7
22548	2.9395	2.2727	0.1	5439.8
22549	3.0314	2.1818	0.1	5413.
22550	2.9395	2.4545	0.1	5433.3
22551	3.0314	2.3636	0.1	5405.3
22552	2.9395	2.6364	0.1	5428.7
22553	3.0314	2.5455	0.1	5399.6
22554	2.9395	2.8182	0.1	5426.
22555	3.0314	2.7273	0.1	5395.8
22556	2.9395	3.	0.1	5425.1
22557	3.0314	2.9091	0.1	5393.9
22558	2.9395	3.1818	0.1	5426.
22559	3.0314	3.0909	0.1	5393.9
22560	2.9395	3.3636	0.1	5428.7
22561	3.0314	3.2727	0.1	5395.8
22562	2.9395	3.5455	0.1	5433.3
22563	3.0314	3.4545	0.1	5399.6
22564	2.9395	3.7273	0.1	5439.8
22565	3.0314	3.6364	0.1	5405.3
22566	2.9395	3.9091	0.1	5448.4
22567	3.0314	3.8182	0.1	5413.
22568	2.9395	4.0909	0.1	5458.9
22569	3.0314	4.	0.1	5422.7
22570	2.9395	4.2727	0.1	5471.6
22571	3.0314	4.1818	0.1	5434.5
22572	2.9395	4.4545	0.1	5486.5
22573	3.0314	4.3636	0.1	5448.4
22574	2.9395	4.6364	0.1	5503.4
22575	3.0314	4.5455	0.1	5464.3
22576	2.9395	4.8182	0.1	5522.3
22577	3.0314	4.7273	0.1	5482.2
22578	2.9395	5.	0.1	5543.2
22579	3.0314	4.9091	0.1	5502.
22580	2.9395	5.1818	0.1	5565.8
22581	3.0314	5.0909	0.1	5523.4
22582	2.9395	5.3636	0.1	5589.9
22583	3.0314	5.2727	0.1	5546.3
22584	2.9395	5.5455	0.1	5615.3
22585	3.0314	5.4545	0.1	5570.6
22586	2.9395	5.7273	0.1	5643.5
22587	3.0314	5.6364	0.1	5595.8
22588	3.0314	5.8182	0.1	5625.1
22589	2.9395	5.9091	0.1	5658.9
22590	3.1233	0.27273	0.1	5577.6
22591	3.2151	0.18182	0.1	5557.8
22592	3.1233	9.0909e-002	0.1	5593.3
22593	3.1233	0.45455	0.1	5551.2
22594	3.2151	0.36364	0.1	5530.8
22595	3.1233	0.63636	0.1	5527.1
22596	3.2151	0.54545	0.1	5506.9
22597	3.1233	0.81818	0.1	5504.1
22598	3.2151	0.72727	0.1	5483.9
22599	3.1233	1.	0.1	5482.2
22600	3.2151	0.90909	0.1	5461.9
22601	3.1233	1.1818	0.1	5461.9
22602	3.2151	1.0909	0.1	5441.2
22603	3.1233	1.3636	0.1	5443.2
22604	3.2151	1.2727	0.1	5421.9
22605	3.1233	1.5455	0.1	5426.3
22606	3.2151	1.4545	0.1	5404.3
22607	3.1233	1.7273	0.1	5411.3
22608	3.2151	1.6364	0.1	5388.5
22609	3.1233	1.9091	0.1	5398.3
22610	3.2151	1.8182	0.1	5374.5
22611	3.1233	2.0909	0.1	5387.3
22612	3.2151	2.	0.1	5362.5
22613	3.1233	2.2727	0.1	5378.3
22614	3.2151	2.1818	0.1	5352.5
22615	3.1233	2.4545	0.1	5371.4
22616	3.2151	2.3636	0.1	5344.5
22617	3.1233	2.6364	0.1	5366.5
22618	3.2151	2.5455	0.1	5338.5
22619	3.1233	2.8182	0.1	5363.5
22620	3.2151	2.7273	0.1	5334.5
22621	3.1233	3.	0.1	5362.6
22622	3.2151	2.9091	0.1	5332.5
22623	3.1233	3.1818	0.1	5363.5
22624	3.2151	3.0909	0.1	5332.5
22625	3.1233	3.3636	0.1	5366.5
22626	3.2151	3.2727	0.1	5334.5
22627	3.1233	3.5455	0.1	5371.4
22628	3.2151	3.4545	0.1	5338.5
22629	3.1233	3.7273	0.1	5378.3
22630	3.2151	3.6364	0.1	5344.5
22631	3.1233	3.9091	0.1	5387.3
22632	3.2151	3.8182	0.1	5352.5
22633	3.1233	4.0909	0.1	5398.3
22634	3.2151	4.	0.1	5362.5
22635	3.1233	4.2727	0.1	5411.3
22636	3.2151	4.1818	0.1	5374.5
22637	3.1233	4.4545	0.1	5426.3
22638	3.2151	4.3636	0.1	5388.5
22639	3.1233	4.6364	0.1	5443.2
22640	3.2151	4.5455	0.1	5404.3
22641	3.1233	4.8182	0.1	5461.9
22642	3.2151	4.7273	0.1	5421.9
22643	3.1233	5.	0.1	5482.2
22644	3.2151	4.9091	0.1	5441.2
22645	3.1233	5.1818	0.1	5504.1
22646	3.2151	5.0909	0.1	5461.9
22647	3.1233	5.3636	0.1	5527.1
22648	3.2151	5.2727	0.1	5483.9
22649	3.1233	5.5455	0.1	5551.2
22650	3.2151	5.4545	0.1	5506.9
22651	3.1233	5.7273	0.1	5577.6
22652	3.2151	5.6364	0.1	5530.8
22653	3.2151	5.8182	0.1	5557.8
22654	3.1233	5.9091	0.1	5593.3
22655	3.307	0.27273	0.1	5511.2
22656	3.3988	0.18182	0.1	5490.3
22657	3.307	9.0909e-002	0.1	5526.9
22658	3.307	0.45455	0.1	5486.6
22659	3.3988	0.36364	0.1	5465.4
22660	3.307	0.63636	0.1	5463.8
22661	3.3988	0.54545	0.1	5442.9
22662	3.307	0.81818	0.1	5441.9
22663	3.3988	0.72727	0.1	5421.1
22664	3.307	1.	0.1	5421.
22665	3.3988	0.90909	0.1	5400.2
22666	3.307	1.1818	0.1	5401.3
22667	3.3988	1.0909	0.1	5380.3
22668	3.307	1.3636	0.1	5383.1
22669	3.3988	1.2727	0.1	5361.8
22670	3.307	1.5455	0.1	5366.5
22671	3.3988	1.4545	0.1	5344.6
22672	3.307	1.7273	0.1	5351.7
22673	3.3988	1.6364	0.1	5329.1
22674	3.307	1.9091	0.1	5338.7
22675	3.3988	1.8182	0.1	5315.3
22676	3.307	2.0909	0.1	5327.6
22677	3.3988	2.	0.1	5303.4
22678	3.307	2.2727	0.1	5318.5
22679	3.3988	2.1818	0.1	5293.4
22680	3.307	2.4545	0.1	5311.5
22681	3.3988	2.3636	0.1	5285.3
22682	3.307	2.6364	0.1	5306.4
22683	3.3988	2.5455	0.1	5279.3
22684	3.307	2.8182	0.1	5303.4
22685	3.3988	2.7273	0.1	5275.2
22686	3.307	3.	0.1	5302.3
22687	3.3988	2.9091	0.1	5273.2
22688	3.307	3.1818	0.1	5303.4
22689	3.3988	3.0909	0.1	5273.2
22690	3.307	3.3636	0.1	5306.4
22691	3.3988	3.2727	0.1	5275.2
22692	3.307	3.5455	0.1	5311.5
22693	3.3988	3.4545	0.1	5279.3
22694	3.307	3.7273	0.1	5318.5
22695	3.3988	3.6364	0.1	5285.3
22696	3.307	3.9091	0.1	5327.6
22697	3.3988	3.8182	0.1	5293.4
22698	3.307	4.0909	0.1	5338.7
22699	3.3988	4.	0.1	5303.4
22700	3.307	4.2727	0.1	5351.7
22701	3.3988	4.1818	0.1	5315.3
22702	3.307	4.4545	0.1	5366.5
22703	3.3988	4.3636	0.1	5329.1
22704	3.307	4.6364	0.1	5383.1
22705	3.3988	4.5455	0.1	5344.6
22706	3.307	4.8182	0.1	5401.3
22707	3.3988	4.7273	0.1	5361.8
22708	3.307	5.	0.1	5421.
22709	3.3988	4.9091	0.1	5380.3
22710	3.307	5.1818	0.1	5441.9
22711	3.3988	5.0909	0.1	5400.2
22712	3.307	5.3636	0.1	5463.8
22713	3.3988	5.2727	0.1	5421.1
22714	3.307	5.5455	0.1	5486.6
22715	3.3988	5.4545	0.1	5442.9
22716	3.307	5.7273	0.1	5511.2
22717	3.3988	5.6364	0.1	5465.4
22718	3.3988	5.8182	0.1	5490.3
22719	3.307	5.9091	0.1	5526.9
22720	3.4907	0.27273	0.1	5444.6
22721	3.5826	0.18182	0.1	5422.9
22722	3.4907	9.0909e-002	0.1	5460.3
22723	3.4907	0.45455	0.1	5421.8
22724	3.5826	0.36364	0.1	5399.8
22725	3.4907	0.63636	0.1	5400.3
22726	3.5826	0.54545	0.1	5378.8
22727	3.4907	0.81818	0.1	5379.5
22728	3.5826	0.72727	0.1	5358.2
22729	3.4907	1.	0.1	5359.6
22730	3.5826	0.90909	0.1	5338.4
22731	3.4907	1.1818	0.1	5340.8
22732	3.5826	1.0909	0.1	5319.5
22733	3.4907	1.3636	0.1	5323.3
22734	3.5826	1.2727	0.1	5301.7
22735	3.4907	1.5455	0.1	5307.2
22736	3.5826	1.4545	0.1	5285.3
22737	3.4907	1.7273	0.1	5292.8
22738	3.5826	1.6364	0.1	5270.3
22739	3.4907	1.9091	0.1	5280.
22740	3.5826	1.8182	0.1	5256.9
22741	3.4907	2.0909	0.1	5269.1
22742	3.5826	2.	0.1	5245.2
22743	3.4907	2.2727	0.1	5260.1
22744	3.5826	2.1818	0.1	5235.4
22745	3.4907	2.4545	0.1	5253.
22746	3.5826	2.3636	0.1	5227.4
22747	3.4907	2.6364	0.1	5248.
22748	3.5826	2.5455	0.1	5221.4
22749	3.4907	2.8182	0.1	5244.9
22750	3.5826	2.7273	0.1	5217.4
22751	3.4907	3.	0.1	5243.9
22752	3.5826	2.9091	0.1	5215.4
22753	3.4907	3.1818	0.1	5244.9
22754	3.5826	3.0909	0.1	5215.4
22755	3.4907	3.3636	0.1	5248.
22756	3.5826	3.2727	0.1	5217.4
22757	3.4907	3.5455	0.1	5253.
22758	3.5826	3.4545	0.1	5221.4
22759	3.4907	3.7273	0.1	5260.1
22760	3.5826	3.6364	0.1	5227.4
22761	3.4907	3.9091	0.1	5269.1
22762	3.5826	3.8182	0.1	5235.4
22763	3.4907	4.0909	0.1	5280.
22764	3.5826	4.	0.1	5245.2
22765	3.4907	4.2727	0.1	5292.8
22766	3.5826	4.1818	0.1	5256.9
22767	3.4907	4.4545	0.1	5307.2
22768	3.5826	4.3636	0.1	5270.3
22769	3.4907	4.6364	0.1	5323.3
22770	3.5826	4.5455	0.1	5285.3
22771	3.4907	4.8182	0.1	5340.8
22772	3.5826	4.7273	0.1	5301.7
22773	3.4907	5.	0.1	5359.6
22774	3.5826	4.9091	0.1	5319.5
22775	3.4907	5.1818	0.1	5379.5
22776	3.5826	5.0909	0.1	5338.4
22777	3.4907	5.3636	0.1	5400.3
22778	3.5826	5.2727	0.1	5358.2
22779	3.4907	5.5455	0.1	5421.8
22780	3.5826	5.4545	0.1	5378.8
22781	3.4907	5.7273	0.1	5444.6
22782	3.5826	5.6364	0.1	5399.8
22783	3.5826	5.8182	0.1	5422.9
22784	3.4907	5.9091	0.1	5460.3
22785	3.6744	0.27273	0.1	5378.2
22786	3.7663	0.18182	0.1	5355.8
22787	3.6744	9.0909e-002	0.1	5393.6
22788	3.6744	0.45455	0.1	5356.9
22789	3.7663	0.36364	0.1	5334.5
22790	3.6744	0.63636	0.1	5336.8
22791	3.7663	0.54545	0.1	5314.7
22792	3.6744	0.81818	0.1	5317.2
22793	3.7663	0.72727	0.1	5295.4
22794	3.6744	1.	0.1	5298.4
22795	3.7663	0.90909	0.1	5276.7
22796	3.6744	1.1818	0.1	5280.5
22797	3.7663	1.0909	0.1	5258.8
22798	3.6744	1.3636	0.1	5263.8
22799	3.7663	1.2727	0.1	5242.
22800	3.6744	1.5455	0.1	5248.3
22801	3.7663	1.4545	0.1	5226.3
22802	3.6744	1.7273	0.1	5234.4
22803	3.7663	1.6364	0.1	5211.9
22804	3.6744	1.9091	0.1	5222.1
22805	3.7663	1.8182	0.1	5199.
22806	3.6744	2.0909	0.1	5211.5
22807	3.7663	2.	0.1	5187.8
22808	3.6744	2.2727	0.1	5202.7
22809	3.7663	2.1818	0.1	5178.3
22810	3.6744	2.4545	0.1	5195.8
22811	3.7663	2.3636	0.1	5170.6
22812	3.6744	2.6364	0.1	5190.8
22813	3.7663	2.5455	0.1	5164.7
22814	3.6744	2.8182	0.1	5187.8
22815	3.7663	2.7273	0.1	5160.8
22816	3.6744	3.	0.1	5186.8
22817	3.7663	2.9091	0.1	5158.8
22818	3.6744	3.1818	0.1	5187.8
22819	3.7663	3.0909	0.1	5158.8
22820	3.6744	3.3636	0.1	5190.8
22821	3.7663	3.2727	0.1	5160.8
22822	3.6744	3.5455	0.1	5195.8
22823	3.7663	3.4545	0.1	5164.7
22824	3.6744	3.7273	0.1	5202.7
22825	3.7663	3.6364	0.1	5170.6
22826	3.6744	3.9091	0.1	5211.5
22827	3.7663	3.8182	0.1	5178.3
22828	3.6744	4.0909	0.1	5222.1
22829	3.7663	4.	0.1	5187.8
22830	3.6744	4.2727	0.1	5234.4
22831	3.7663	4.1818	0.1	5199.
22832	3.6744	4.4545	0.1	5248.3
22833	3.7663	4.3636	0.1	5211.9
22834	3.6744	4.6364	0.1	5263.8
22835	3.7663	4.5455	0.1	5226.3
22836	3.6744	4.8182	0.1	5280.5
22837	3.7663	4.7273	0.1	5242.
22838	3.6744	5.	0.1	5298.4
22839	3.7663	4.9091	0.1	5258.8
22840	3.6744	5.1818	0.1	5317.2
22841	3.7663	5.0909	0.1	5276.7
22842	3.6744	5.3636	0.1	5336.8
22843	3.7663	5.2727	0.1	5295.4
22844	3.6744	5.5455	0.1	5356.9
22845	3.7663	5.4545	0.1	5314.7
22846	3.6744	5.7273	0.1	5378.2
22847	3.7663	5.6364	0.1	5334.5
22848	3.7663	5.8182	0.1	5355.8
22849	3.6744	5.9091	0.1	5393.6
22850	3.8581	0.27273	0.1	5312.1
22851	3.95	0.18182	0.1	5289.1
22852	3.8581	9.0909e-002	0.1	5327.1
22853	3.8581	0.45455	0.1	5292.3
22854	3.95	0.36364	0.1	5269.4
22855	3.8581	0.63636	0.1	5273.4
22856	3.95	0.54545	0.1	5250.9
22857	3.8581	0.81818	0.1	5255.
22858	3.95	0.72727	0.1	5232.8
22859	3.8581	1.	0.1	5237.3
22860	3.95	0.90909	0.1	5215.2
22861	3.8581	1.1818	0.1	5220.4
22862	3.95	1.0909	0.1	5198.4
22863	3.8581	1.3636	0.1	5204.5
22864	3.95	1.2727	0.1	5182.5
22865	3.8581	1.5455	0.1	5189.8
22866	3.95	1.4545	0.1	5167.6
22867	3.8581	1.7273	0.1	5176.5
22868	3.95	1.6364	0.1	5153.9
22869	3.8581	1.9091	0.1	5164.7
22870	3.95	1.8182	0.1	5141.7
22871	3.8581	2.0909	0.1	5154.6
22872	3.95	2.	0.1	5130.9
22873	3.8581	2.2727	0.1	5146.1
22874	3.95	2.1818	0.1	5121.8
22875	3.8581	2.4545	0.1	5139.4
22876	3.95	2.3636	0.1	5114.4
22877	3.8581	2.6364	0.1	5134.6
22878	3.95	2.5455	0.1	5108.8
22879	3.8581	2.8182	0.1	5131.7
22880	3.95	2.7273	0.1	5105.
22881	3.8581	3.	0.1	5130.7
22882	3.95	2.9091	0.1	5103.1
22883	3.8581	3.1818	0.1	5131.7
22884	3.95	3.0909	0.1	5103.1
22885	3.8581	3.3636	0.1	5134.6
22886	3.95	3.2727	0.1	5105.
22887	3.8581	3.5455	0.1	5139.4
22888	3.95	3.4545	0.1	5108.8
22889	3.8581	3.7273	0.1	5146.1
22890	3.95	3.6364	0.1	5114.4
22891	3.8581	3.9091	0.1	5154.6
22892	3.95	3.8182	0.1	5121.8
22893	3.8581	4.0909	0.1	5164.7
22894	3.95	4.	0.1	5130.9
22895	3.8581	4.2727	0.1	5176.5
22896	3.95	4.1818	0.1	5141.7
22897	3.8581	4.4545	0.1	5189.8
22898	3.95	4.3636	0.1	5153.9
22899	3.8581	4.6364	0.1	5204.5
22900	3.95	4.5455	0.1	5167.6
22901	3.8581	4.8182	0.1	5220.4
22902	3.95	4.7273	0.1	5182.5
22903	3.8581	5.	0.1	5237.3
22904	3.95	4.9091	0.1	5198.4
22905	3.8581	5.1818	0.1	5255.
22906	3.95	5.0909	0.1	5215.2
22907	3.8581	5.3636	0.1	5273.4
22908	3.95	5.2727	0.1	5232.8
22909	3.8581	5.5455	0.1	5292.3
22910	3.95	5.4545	0.1	5250.9
22911	3.8581	5.7273	0.1	5312.1
22912	3.95	5.6364	0.1	5269.4
22913	3.95	5.8182	0.1	5289.1
22914	3.8581	5.9091	0.1	5327.1
22915	4.0419	0.27273	0.1	5246.5
22916	4.1337	0.18182	0.1	5223.
22917	4.0419	9.0909e-002	0.1	5260.9
22918	4.0419	0.45455	0.1	5228.1
22919	4.1337	0.36364	0.1	5204.7
22920	4.0419	0.63636	0.1	5210.4
22921	4.1337	0.54545	0.1	5187.5
22922	4.0419	0.81818	0.1	5193.1
22923	4.1337	0.72727	0.1	5170.5
22924	4.0419	1.	0.1	5176.4
22925	4.1337	0.90909	0.1	5154.1
22926	4.0419	1.1818	0.1	5160.5
22927	4.1337	1.0909	0.1	5138.2
22928	4.0419	1.3636	0.1	5145.6
22929	4.1337	1.2727	0.1	5123.2
22930	4.0419	1.5455	0.1	5131.7
22931	4.1337	1.4545	0.1	5109.2
22932	4.0419	1.7273	0.1	5119.1
22933	4.1337	1.6364	0.1	5096.4
22934	4.0419	1.9091	0.1	5107.9
22935	4.1337	1.8182	0.1	5084.8
22936	4.0419	2.0909	0.1	5098.2
22937	4.1337	2.	0.1	5074.6
22938	4.0419	2.2727	0.1	5090.1
22939	4.1337	2.1818	0.1	5065.9
22940	4.0419	2.4545	0.1	5083.8
22941	4.1337	2.3636	0.1	5058.9
22942	4.0419	2.6364	0.1	5079.2
22943	4.1337	2.5455	0.1	5053.5
22944	4.0419	2.8182	0.1	5076.4
22945	4.1337	2.7273	0.1	5049.9
22946	4.0419	3.	0.1	5075.4
22947	4.1337	2.9091	0.1	5048.1
22948	4.0419	3.1818	0.1	5076.4
22949	4.1337	3.0909	0.1	5048.1
22950	4.0419	3.3636	0.1	5079.2
22951	4.1337	3.2727	0.1	5049.9
22952	4.0419	3.5455	0.1	5083.8
22953	4.1337	3.4545	0.1	5053.5
22954	4.0419	3.7273	0.1	5090.1
22955	4.1337	3.6364	0.1	5058.9
22956	4.0419	3.9091	0.1	5098.2
22957	4.1337	3.8182	0.1	5065.9
22958	4.0419	4.0909	0.1	5107.9
22959	4.1337	4.	0.1	5074.6
22960	4.0419	4.2727	0.1	5119.1
22961	4.1337	4.1818	0.1	5084.8
22962	4.0419	4.4545	0.1	5131.7
22963	4.1337	4.3636	0.1	5096.4
22964	4.0419	4.6364	0.1	5145.6
22965	4.1337	4.5455	0.1	5109.2
22966	4.0419	4.8182	0.1	5160.5
22967	4.1337	4.7273	0.1	5123.2
22968	4.0419	5.	0.1	5176.4
22969	4.1337	4.9091	0.1	5138.2
22970	4.0419	5.1818	0.1	5193.1
22971	4.1337	5.0909	0.1	5154.1
22972	4.0419	5.3636	0.1	5210.4
22973	4.1337	5.2727	0.1	5170.5
22974	4.0419	5.5455	0.1	5228.1
22975	4.1337	5.4545	0.1	5187.5
22976	4.0419	5.7273	0.1	5246.5
22977	4.1337	5.6364	0.1	5204.7
22978	4.1337	5.8182	0.1	5223.
22979	4.0419	5.9091	0.1	5260.9
22980	4.2256	0.27273	0.1	5181.3
22981	4.3174	0.18182	0.1	5157.4
22982	4.2256	9.0909e-002	0.1	5195.2
22983	4.2256	0.45455	0.1	5164.2
22984	4.3174	0.36364	0.1	5140.5
22985	4.2256	0.63636	0.1	5147.7
22986	4.3174	0.54545	0.1	5124.5
22987	4.2256	0.81818	0.1	5131.5
22988	4.3174	0.72727	0.1	5108.6
22989	4.2256	1.	0.1	5115.9
22990	4.3174	0.90909	0.1	5093.2
22991	4.2256	1.1818	0.1	5101.
22992	4.3174	1.0909	0.1	5078.4
22993	4.2256	1.3636	0.1	5086.9
22994	4.3174	1.2727	0.1	5064.3
22995	4.2256	1.5455	0.1	5073.9
22996	4.3174	1.4545	0.1	5051.2
22997	4.2256	1.7273	0.1	5062.
22998	4.3174	1.6364	0.1	5039.1
22999	4.2256	1.9091	0.1	5051.4
23000	4.3174	1.8182	0.1	5028.2
23001	4.2256	2.0909	0.1	5042.3
23002	4.3174	2.	0.1	5018.6
23003	4.2256	2.2727	0.1	5034.6
23004	4.3174	2.1818	0.1	5010.4
23005	4.2256	2.4545	0.1	5028.6
23006	4.3174	2.3636	0.1	5003.8
23007	4.2256	2.6364	0.1	5024.2
23008	4.3174	2.5455	0.1	4998.7
23009	4.2256	2.8182	0.1	5021.6
23010	4.3174	2.7273	0.1	4995.3
23011	4.2256	3.	0.1	5020.7
23012	4.3174	2.9091	0.1	4993.6
23013	4.2256	3.1818	0.1	5021.6
23014	4.3174	3.0909	0.1	4993.6
23015	4.2256	3.3636	0.1	5024.2
23016	4.3174	3.2727	0.1	4995.3
23017	4.2256	3.5455	0.1	5028.6
23018	4.3174	3.4545	0.1	4998.7
23019	4.2256	3.7273	0.1	5034.6
23020	4.3174	3.6364	0.1	5003.8
23021	4.2256	3.9091	0.1	5042.3
23022	4.3174	3.8182	0.1	5010.4
23023	4.2256	4.0909	0.1	5051.4
23024	4.3174	4.	0.1	5018.6
23025	4.2256	4.2727	0.1	5062.
23026	4.3174	4.1818	0.1	5028.2
23027	4.2256	4.4545	0.1	5073.9
23028	4.3174	4.3636	0.1	5039.1
23029	4.2256	4.6364	0.1	5086.9
23030	4.3174	4.5455	0.1	5051.2
23031	4.2256	4.8182	0.1	5101.
23032	4.3174	4.7273	0.1	5064.3
23033	4.2256	5.	0.1	5115.9
23034	4.3174	4.9091	0.1	5078.4
23035	4.2256	5.1818	0.1	5131.5
23036	4.3174	5.0909	0.1	5093.2
23037	4.2256	5.3636	0.1	5147.7
23038	4.3174	5.2727	0.1	5108.6
23039	4.2256	5.5455	0.1	5164.2
23040	4.3174	5.4545	0.1	5124.5
23041	4.2256	5.7273	0.1	5181.3
23042	4.3174	5.6364	0.1	5140.5
23043	4.3174	5.8182	0.1	5157.4
23044	4.2256	5.9091	0.1	5195.2
23045	4.4093	0.27273	0.1	5116.7
23046	4.5012	0.18182	0.1	5092.5
23047	4.4093	9.0909e-002	0.1	5129.9
23048	4.4093	0.45455	0.1	5100.8
23049	4.5012	0.36364	0.1	5076.9
23050	4.4093	0.63636	0.1	5085.4
23051	4.5012	0.54545	0.1	5061.9
23052	4.4093	0.81818	0.1	5070.3
23053	4.5012	0.72727	0.1	5047.1
23054	4.4093	1.	0.1	5055.7
23055	4.5012	0.90909	0.1	5032.7
23056	4.4093	1.1818	0.1	5041.8
23057	4.5012	1.0909	0.1	5018.9
23058	4.4093	1.3636	0.1	5028.6
23059	4.5012	1.2727	0.1	5005.8
23060	4.4093	1.5455	0.1	5016.4
23061	4.5012	1.4545	0.1	4993.5
23062	4.4093	1.7273	0.1	5005.3
23063	4.5012	1.6364	0.1	4982.1
23064	4.4093	1.9091	0.1	4995.3
23065	4.5012	1.8182	0.1	4971.9
23066	4.4093	2.0909	0.1	4986.7
23067	4.5012	2.	0.1	4962.9
23068	4.4093	2.2727	0.1	4979.5
23069	4.5012	2.1818	0.1	4955.2
23070	4.4093	2.4545	0.1	4973.8
23071	4.5012	2.3636	0.1	4949.
23072	4.4093	2.6364	0.1	4969.7
23073	4.5012	2.5455	0.1	4944.2
23074	4.4093	2.8182	0.1	4967.2
23075	4.5012	2.7273	0.1	4941.
23076	4.4093	3.	0.1	4966.4
23077	4.5012	2.9091	0.1	4939.4
23078	4.4093	3.1818	0.1	4967.2
23079	4.5012	3.0909	0.1	4939.4
23080	4.4093	3.3636	0.1	4969.7
23081	4.5012	3.2727	0.1	4941.
23082	4.4093	3.5455	0.1	4973.8
23083	4.5012	3.4545	0.1	4944.2
23084	4.4093	3.7273	0.1	4979.5
23085	4.5012	3.6364	0.1	4949.
23086	4.4093	3.9091	0.1	4986.7
23087	4.5012	3.8182	0.1	4955.2
23088	4.4093	4.0909	0.1	4995.3
23089	4.5012	4.	0.1	4962.9
23090	4.4093	4.2727	0.1	5005.3
23091	4.5012	4.1818	0.1	4971.9
23092	4.4093	4.4545	0.1	5016.4
23093	4.5012	4.3636	0.1	4982.1
23094	4.4093	4.6364	0.1	5028.6
23095	4.5012	4.5455	0.1	4993.5
23096	4.4093	4.8182	0.1	5041.8
23097	4.5012	4.7273	0.1	5005.8
23098	4.4093	5.	0.1	5055.7
23099	4.5012	4.9091	0.1	5018.9
23100	4.4093	5.1818	0.1	5070.3
23101	4.5012	5.0909	0.1	5032.7
23102	4.4093	5.3636	0.1	5085.4
23103	4.5012	5.2727	0.1	5047.1
23104	4.4093	5.5455	0.1	5100.8
23105	4.5012	5.4545	0.1	5061.9
23106	4.4093	5.7273	0.1	5116.7
23107	4.5012	5.6364	0.1	5076.9
23108	4.5012	5.8182	0.1	5092.5
23109	4.4093	5.9091	0.1	5129.9
23110	4.593	0.27273	0.1	5052.7
23111	4.6849	0.18182	0.1	5028.3
23112	4.593	9.0909e-002	0.1	5065.3
23113	4.593	0.45455	0.1	5038.
23114	4.6849	0.36364	0.1	5013.8
23115	4.593	0.63636	0.1	5023.6
23116	4.6849	0.54545	0.1	4999.8
23117	4.593	0.81818	0.1	5009.5
23118	4.6849	0.72727	0.1	4986.
23119	4.593	1.	0.1	4995.9
23120	4.6849	0.90909	0.1	4972.6
23121	4.593	1.1818	0.1	4982.9
23122	4.6849	1.0909	0.1	4959.7
23123	4.593	1.3636	0.1	4970.6
23124	4.6849	1.2727	0.1	4947.5
23125	4.593	1.5455	0.1	4959.2
23126	4.6849	1.4545	0.1	4936.
23127	4.593	1.7273	0.1	4948.8
23128	4.6849	1.6364	0.1	4925.4
23129	4.593	1.9091	0.1	4939.5
23130	4.6849	1.8182	0.1	4915.9
23131	4.593	2.0909	0.1	4931.4
23132	4.6849	2.	0.1	4907.5
23133	4.593	2.2727	0.1	4924.7
23134	4.6849	2.1818	0.1	4900.3
23135	4.593	2.4545	0.1	4919.3
23136	4.6849	2.3636	0.1	4894.4
23137	4.593	2.6364	0.1	4915.5
23138	4.6849	2.5455	0.1	4890.
23139	4.593	2.8182	0.1	4913.2
23140	4.6849	2.7273	0.1	4887.
23141	4.593	3.	0.1	4912.4
23142	4.6849	2.9091	0.1	4885.5
23143	4.593	3.1818	0.1	4913.2
23144	4.6849	3.0909	0.1	4885.5
23145	4.593	3.3636	0.1	4915.5
23146	4.6849	3.2727	0.1	4887.
23147	4.593	3.5455	0.1	4919.3
23148	4.6849	3.4545	0.1	4890.
23149	4.593	3.7273	0.1	4924.7
23150	4.6849	3.6364	0.1	4894.4
23151	4.593	3.9091	0.1	4931.4
23152	4.6849	3.8182	0.1	4900.3
23153	4.593	4.0909	0.1	4939.5
23154	4.6849	4.	0.1	4907.5
23155	4.593	4.2727	0.1	4948.8
23156	4.6849	4.1818	0.1	4915.9
23157	4.593	4.4545	0.1	4959.2
23158	4.6849	4.3636	0.1	4925.4
23159	4.593	4.6364	0.1	4970.6
23160	4.6849	4.5455	0.1	4936.
23161	4.593	4.8182	0.1	4982.9
23162	4.6849	4.7273	0.1	4947.5
23163	4.593	5.	0.1	4995.9
23164	4.6849	4.9091	0.1	4959.7
23165	4.593	5.1818	0.1	5009.5
23166	4.6849	5.0909	0.1	4972.6
23167	4.593	5.3636	0.1	5023.6
23168	4.6849	5.2727	0.1	4986.
23169	4.593	5.5455	0.1	5038.
23170	4.6849	5.4545	0.1	4999.8
23171	4.593	5.7273	0.1	5052.7
23172	4.6849	5.6364	0.1	5013.8
23173	4.6849	5.8182	0.1	5028.3
23174	4.593	5.9091	0.1	5065.3
23175	4.7767	0.27273	0.1	4989.3
23176	4.8686	0.18182	0.1	4964.7
23177	4.7767	9.0909e-002	0.1	5001.2
23178	4.7767	0.45455	0.1	4975.6
23179	4.8686	0.36364	0.1	4951.2
23180	4.7767	0.63636	0.1	4962.3
23181	4.8686	0.54545	0.1	4938.2
23182	4.7767	0.81818	0.1	4949.2
23183	4.8686	0.72727	0.1	4925.4
23184	4.7767	1.	0.1	4936.5
23185	4.8686	0.90909	0.1	4912.9
23186	4.7767	1.1818	0.1	4924.4
23187	4.8686	1.0909	0.1	4900.9
23188	4.7767	1.3636	0.1	4912.9
23189	4.8686	1.2727	0.1	4889.5
23190	4.7767	1.5455	0.1	4902.3
23191	4.8686	1.4545	0.1	4878.8
23192	4.7767	1.7273	0.1	4892.5
23193	4.8686	1.6364	0.1	4869.
23194	4.7767	1.9091	0.1	4883.9
23195	4.8686	1.8182	0.1	4860.1
23196	4.7767	2.0909	0.1	4876.3
23197	4.8686	2.	0.1	4852.2
23198	4.7767	2.2727	0.1	4870.
23199	4.8686	2.1818	0.1	4845.5
23200	4.7767	2.4545	0.1	4865.1
23201	4.8686	2.3636	0.1	4840.1
23202	4.7767	2.6364	0.1	4861.5
23203	4.8686	2.5455	0.1	4835.9
23204	4.7767	2.8182	0.1	4859.3
23205	4.8686	2.7273	0.1	4833.2
23206	4.7767	3.	0.1	4858.6
23207	4.8686	2.9091	0.1	4831.7
23208	4.7767	3.1818	0.1	4859.3
23209	4.8686	3.0909	0.1	4831.7
23210	4.7767	3.3636	0.1	4861.5
23211	4.8686	3.2727	0.1	4833.2
23212	4.7767	3.5455	0.1	4865.1
23213	4.8686	3.4545	0.1	4835.9
23214	4.7767	3.7273	0.1	4870.
23215	4.8686	3.6364	0.1	4840.1
23216	4.7767	3.9091	0.1	4876.3
23217	4.8686	3.8182	0.1	4845.5
23218	4.7767	4.0909	0.1	4883.9
23219	4.8686	4.	0.1	4852.2
23220	4.7767	4.2727	0.1	4892.5
23221	4.8686	4.1818	0.1	4860.1
23222	4.7767	4.4545	0.1	4902.3
23223	4.8686	4.3636	0.1	4869.
23224	4.7767	4.6364	0.1	4912.9
23225	4.8686	4.5455	0.1	4878.8
23226	4.7767	4.8182	0.1	4924.4
23227	4.8686	4.7273	0.1	4889.5
23228	4.7767	5.	0.1	4936.5
23229	4.8686	4.9091	0.1	4900.9
23230	4.7767	5.1818	0.1	4949.2
23231	4.8686	5.0909	0.1	4912.9
23232	4.7767	5.3636	0.1	4962.3
23233	4.8686	5.2727	0.1	4925.4
23234	4.7767	5.5455	0.1	4975.6
23235	4.8686	5.4545	0.1	4938.2
23236	4.7767	5.7273	0.1	4989.3
23237	4.8686	5.6364	0.1	4951.2
23238	4.8686	5.8182	0.1	4964.7
23239	4.7767	5.9091	0.1	5001.2
23240	4.9605	0.27273	0.1	4926.6
23241	5.0523	0.18182	0.1	4901.7
23242	4.9605	9.0909e-002	0.1	4937.7
23243	4.9605	0.45455	0.1	4913.8
23244	5.0523	0.36364	0.1	4889.2
23245	4.9605	0.63636	0.1	4901.4
23246	5.0523	0.54545	0.1	4877.2
23247	4.9605	0.81818	0.1	4889.2
23248	5.0523	0.72727	0.1	4865.2
23249	4.9605	1.	0.1	4877.4
23250	5.0523	0.90909	0.1	4853.6
23251	4.9605	1.1818	0.1	4866.1
23252	5.0523	1.0909	0.1	4842.5
23253	4.9605	1.3636	0.1	4855.5
23254	5.0523	1.2727	0.1	4831.9
23255	4.9605	1.5455	0.1	4845.6
23256	5.0523	1.4545	0.1	4821.9
23257	4.9605	1.7273	0.1	4836.5
23258	5.0523	1.6364	0.1	4812.8
23259	4.9605	1.9091	0.1	4828.5
23260	5.0523	1.8182	0.1	4804.5
23261	4.9605	2.0909	0.1	4821.5
23262	5.0523	2.	0.1	4797.2
23263	4.9605	2.2727	0.1	4815.6
23264	5.0523	2.1818	0.1	4791.
23265	4.9605	2.4545	0.1	4811.
23266	5.0523	2.3636	0.1	4785.9
23267	4.9605	2.6364	0.1	4807.6
23268	5.0523	2.5455	0.1	4782.
23269	4.9605	2.8182	0.1	4805.6
23270	5.0523	2.7273	0.1	4779.4
23271	4.9605	3.	0.1	4804.9
23272	5.0523	2.9091	0.1	4778.1
23273	4.9605	3.1818	0.1	4805.6
23274	5.0523	3.0909	0.1	4778.1
23275	4.9605	3.3636	0.1	4807.6
23276	5.0523	3.2727	0.1	4779.4
23277	4.9605	3.5455	0.1	4811.
23278	5.0523	3.4545	0.1	4782.
23279	4.9605	3.7273	0.1	4815.6
23280	5.0523	3.6364	0.1	4785.9
23281	4.9605	3.9091	0.1	4821.5
23282	5.0523	3.8182	0.1	4791.
23283	4.9605	4.0909	0.1	4828.5
23284	5.0523	4.	0.1	4797.2
23285	4.9605	4.2727	0.1	4836.5
23286	5.0523	4.1818	0.1	4804.5
23287	4.9605	4.4545	0.1	4845.6
23288	5.0523	4.3636	0.1	4812.8
23289	4.9605	4.6364	0.1	4855.5
23290	5.0523	4.5455	0.1	4821.9
23291	4.9605	4.8182	0.1	4866.1
23292	5.0523	4.7273	0.1	4831.9
23293	4.9605	5.	0.1	4877.4
23294	5.0523	4.9091	0.1	4842.5
23295	4.9605	5.1818	0.1	4889.2
23296	5.0523	5.0909	0.1	4853.6
23297	4.9605	5.3636	0.1	4901.4
23298	5.0523	5.2727	0.1	4865.2
23299	4.9605	5.5455	0.1	4913.8
23300	5.0523	5.4545	0.1	4877.2
23301	4.9605	5.7273	0.1	4926.6
23302	5.0523	5.6364	0.1	4889.2
23303	5.0523	5.8182	0.1	4901.7
23304	4.9605	5.9091	0.1	4937.7
23305	5.1442	0.27273	0.1	4864.4
23306	5.236	0.18182	0.1	4839.4
23307	5.1442	9.0909e-002	0.1	4874.9
23308	5.1442	0.45455	0.1	4852.6
23309	5.236	0.36364	0.1	4827.8
23310	5.1442	0.63636	0.1	4841.
23311	5.236	0.54545	0.1	4816.6
23312	5.1442	0.81818	0.1	4829.7
23313	5.236	0.72727	0.1	4805.5
23314	5.1442	1.	0.1	4818.7
23315	5.236	0.90909	0.1	4794.7
23316	5.1442	1.1818	0.1	4808.2
23317	5.236	1.0909	0.1	4784.3
23318	5.1442	1.3636	0.1	4798.3
23319	5.236	1.2727	0.1	4774.5
23320	5.1442	1.5455	0.1	4789.1
23321	5.236	1.4545	0.1	4765.3
23322	5.1442	1.7273	0.1	4780.7
23323	5.236	1.6364	0.1	4756.7
23324	5.1442	1.9091	0.1	4773.2
23325	5.236	1.8182	0.1	4749.1
23326	5.1442	2.0909	0.1	4766.7
23327	5.236	2.	0.1	4742.3
23328	5.1442	2.2727	0.1	4761.3
23329	5.236	2.1818	0.1	4736.5
23330	5.1442	2.4545	0.1	4757.
23331	5.236	2.3636	0.1	4731.8
23332	5.1442	2.6364	0.1	4753.9
23333	5.236	2.5455	0.1	4728.2
23334	5.1442	2.8182	0.1	4752.
23335	5.236	2.7273	0.1	4725.8
23336	5.1442	3.	0.1	4751.4
23337	5.236	2.9091	0.1	4724.6
23338	5.1442	3.1818	0.1	4752.
23339	5.236	3.0909	0.1	4724.6
23340	5.1442	3.3636	0.1	4753.9
23341	5.236	3.2727	0.1	4725.8
23342	5.1442	3.5455	0.1	4757.
23343	5.236	3.4545	0.1	4728.2
23344	5.1442	3.7273	0.1	4761.3
23345	5.236	3.6364	0.1	4731.8
23346	5.1442	3.9091	0.1	4766.7
23347	5.236	3.8182	0.1	4736.5
23348	5.1442	4.0909	0.1	4773.2
23349	5.236	4.	0.1	4742.3
23350	5.1442	4.2727	0.1	4780.7
23351	5.236	4.1818	0.1	4749.1
23352	5.1442	4.4545	0.1	4789.1
23353	5.236	4.3636	0.1	4756.7
23354	5.1442	4.6364	0.1	4798.3
23355	5.236	4.5455	0.1	4765.3
23356	5.1442	4.8182	0.1	4808.2
23357	5.236	4.7273	0.1	4774.5
23358	5.1442	5.	0.1	4818.7
23359	5.236	4.9091	0.1	4784.3
23360	5.1442	5.1818	0.1	4829.7
23361	5.236	5.0909	0.1	4794.7
23362	5.1442	5.3636	0.1	4841.
23363	5.236	5.2727	0.1	4805.5
23364	5.1442	5.5455	0.1	4852.6
23365	5.236	5.4545	0.1	4816.6
23366	5.1442	5.7273	0.1	4864.4
23367	5.236	5.6364	0.1	4827.8
23368	5.236	5.8182	0.1	4839.4
23369	5.1442	5.9091	0.1	4874.9
23370	5.3279	0.27273	0.1	4802.8
23371	5.4198	0.18182	0.1	4777.7
23372	5.3279	9.0909e-002	0.1	4812.6
23373	5.3279	0.45455	0.1	4791.8
23374	5.4198	0.36364	0.1	4766.9
23375	5.3279	0.63636	0.1	4781.1
23376	5.4198	0.54545	0.1	4756.5
23377	5.3279	0.81818	0.1	4770.6
23378	5.4198	0.72727	0.1	4746.2
23379	5.3279	1.	0.1	4760.4
23380	5.4198	0.90909	0.1	4736.2
23381	5.3279	1.1818	0.1	4750.6
23382	5.4198	1.0909	0.1	4726.5
23383	5.3279	1.3636	0.1	4741.4
23384	5.4198	1.2727	0.1	4717.4
23385	5.3279	1.5455	0.1	4732.9
23386	5.4198	1.4545	0.1	4708.8
23387	5.3279	1.7273	0.1	4725.1
23388	5.4198	1.6364	0.1	4700.9
23389	5.3279	1.9091	0.1	4718.2
23390	5.4198	1.8182	0.1	4693.8
23391	5.3279	2.0909	0.1	4712.1
23392	5.4198	2.	0.1	4687.6
23393	5.3279	2.2727	0.1	4707.1
23394	5.4198	2.1818	0.1	4682.2
23395	5.3279	2.4545	0.1	4703.1
23396	5.4198	2.3636	0.1	4677.8
23397	5.3279	2.6364	0.1	4700.2
23398	5.4198	2.5455	0.1	4674.5
23399	5.3279	2.8182	0.1	4698.5
23400	5.4198	2.7273	0.1	4672.3
23401	5.3279	3.	0.1	4697.9
23402	5.4198	2.9091	0.1	4671.2
23403	5.3279	3.1818	0.1	4698.5
23404	5.4198	3.0909	0.1	4671.2
23405	5.3279	3.3636	0.1	4700.2
23406	5.4198	3.2727	0.1	4672.3
23407	5.3279	3.5455	0.1	4703.1
23408	5.4198	3.4545	0.1	4674.5
23409	5.3279	3.7273	0.1	4707.1
23410	5.4198	3.6364	0.1	4677.8
23411	5.3279	3.9091	0.1	4712.1
23412	5.4198	3.8182	0.1	4682.2
23413	5.3279	4.0909	0.1	4718.2
23414	5.4198	4.	0.1	4687.6
23415	5.3279	4.2727	0.1	4725.1
23416	5.4198	4.1818	0.1	4693.8
23417	5.3279	4.4545	0.1	4732.9
23418	5.4198	4.3636	0.1	4700.9
23419	5.3279	4.6364	0.1	4741.4
23420	5.4198	4.5455	0.1	4708.8
23421	5.3279	4.8182	0.1	4750.6
23422	5.4198	4.7273	0.1	4717.4
23423	5.3279	5.	0.1	4760.4
23424	5.4198	4.9091	0.1	4726.5
23425	5.3279	5.1818	0.1	4770.6
23426	5.4198	5.0909	0.1	4736.2
23427	5.3279	5.3636	0.1	4781.1
23428	5.4198	5.2727	0.1	4746.2
23429	5.3279	5.5455	0.1	4791.8
23430	5.4198	5.4545	0.1	4756.5
23431	5.3279	5.7273	0.1	4802.8
23432	5.4198	5.6364	0.1	4766.9
23433	5.4198	5.8182	0.1	4777.7
23434	5.3279	5.9091	0.1	4812.6
23435	5.5116	0.27273	0.1	4741.8
23436	5.6035	0.18182	0.1	4716.6
23437	5.5116	9.0909e-002	0.1	4750.9
23438	5.5116	0.45455	0.1	4731.6
23439	5.6035	0.36364	0.1	4706.6
23440	5.5116	0.63636	0.1	4721.6
23441	5.6035	0.54545	0.1	4696.9
23442	5.5116	0.81818	0.1	4711.8
23443	5.6035	0.72727	0.1	4687.3
23444	5.5116	1.	0.1	4702.4
23445	5.6035	0.90909	0.1	4678.
23446	5.5116	1.1818	0.1	4693.3
23447	5.6035	1.0909	0.1	4669.1
23448	5.5116	1.3636	0.1	4684.8
23449	5.6035	1.2727	0.1	4660.6
23450	5.5116	1.5455	0.1	4676.9
23451	5.6035	1.4545	0.1	4652.6
23452	5.5116	1.7273	0.1	4669.7
23453	5.6035	1.6364	0.1	4645.3
23454	5.5116	1.9091	0.1	4663.2
23455	5.6035	1.8182	0.1	4638.7
23456	5.5116	2.0909	0.1	4657.6
23457	5.6035	2.	0.1	4632.9
23458	5.5116	2.2727	0.1	4653.
23459	5.6035	2.1818	0.1	4628.
23460	5.5116	2.4545	0.1	4649.3
23461	5.6035	2.3636	0.1	4623.9
23462	5.5116	2.6364	0.1	4646.6
23463	5.6035	2.5455	0.1	4620.9
23464	5.5116	2.8182	0.1	4645.
23465	5.6035	2.7273	0.1	4618.8
23466	5.5116	3.	0.1	4644.4
23467	5.6035	2.9091	0.1	4617.8
23468	5.5116	3.1818	0.1	4645.
23469	5.6035	3.0909	0.1	4617.8
23470	5.5116	3.3636	0.1	4646.6
23471	5.6035	3.2727	0.1	4618.8
23472	5.5116	3.5455	0.1	4649.3
23473	5.6035	3.4545	0.1	4620.9
23474	5.5116	3.7273	0.1	4653.
23475	5.6035	3.6364	0.1	4623.9
23476	5.5116	3.9091	0.1	4657.6
23477	5.6035	3.8182	0.1	4628.
23478	5.5116	4.0909	0.1	4663.2
23479	5.6035	4.	0.1	4632.9
23480	5.5116	4.2727	0.1	4669.7
23481	5.6035	4.1818	0.1	4638.7
23482	5.5116	4.4545	0.1	4676.9
23483	5.6035	4.3636	0.1	4645.3
23484	5.5116	4.6364	0.1	4684.8
23485	5.6035	4.5455	0.1	4652.6
23486	5.5116	4.8182	0.1	4693.3
23487	5.6035	4.7273	0.1	4660.6
23488	5.5116	5.	0.1	4702.4
23489	5.6035	4.9091	0.1	4669.1
23490	5.5116	5.1818	0.1	4711.8
23491	5.6035	5.0909	0.1	4678.
23492	5.5116	5.3636	0.1	4721.6
23493	5.6035	5.2727	0.1	4687.3
23494	5.5116	5.5455	0.1	4731.6
23495	5.6035	5.4545	0.1	4696.9
23496	5.5116	5.7273	0.1	4741.8
23497	5.6035	5.6364	0.1	4706.6
23498	5.6035	5.8182	0.1	4716.7
23499	5.5116	5.9091	0.1	4750.9
23500	5.6953	0.27273	0.1	4681.4
23501	5.7872	0.18182	0.1	4656.1
23502	5.6953	9.0909e-002	0.1	4689.8
23503	5.6953	0.45455	0.1	4671.9
23504	5.7872	0.36364	0.1	4646.8
23505	5.6953	0.63636	0.1	4662.6
23506	5.7872	0.54545	0.1	4637.7
23507	5.6953	0.81818	0.1	4653.5
23508	5.7872	0.72727	0.1	4628.8
23509	5.6953	1.	0.1	4644.7
23510	5.7872	0.90909	0.1	4620.2
23511	5.6953	1.1818	0.1	4636.3
23512	5.7872	1.0909	0.1	4611.9
23513	5.6953	1.3636	0.1	4628.4
23514	5.7872	1.2727	0.1	4604.
23515	5.6953	1.5455	0.1	4621.1
23516	5.7872	1.4545	0.1	4596.7
23517	5.6953	1.7273	0.1	4614.4
23518	5.7872	1.6364	0.1	4589.9
23519	5.6953	1.9091	0.1	4608.4
23520	5.7872	1.8182	0.1	4583.8
23521	5.6953	2.0909	0.1	4603.3
23522	5.7872	2.	0.1	4578.4
23523	5.6953	2.2727	0.1	4598.9
23524	5.7872	2.1818	0.1	4573.8
23525	5.6953	2.4545	0.1	4595.5
23526	5.7872	2.3636	0.1	4570.1
23527	5.6953	2.6364	0.1	4593.1
23528	5.7872	2.5455	0.1	4567.3
23529	5.6953	2.8182	0.1	4591.6
23530	5.7872	2.7273	0.1	4565.3
23531	5.6953	3.	0.1	4591.1
23532	5.7872	2.9091	0.1	4564.4
23533	5.6953	3.1818	0.1	4591.6
23534	5.7872	3.0909	0.1	4564.4
23535	5.6953	3.3636	0.1	4593.1
23536	5.7872	3.2727	0.1	4565.3
23537	5.6953	3.5455	0.1	4595.5
23538	5.7872	3.4545	0.1	4567.3
23539	5.6953	3.7273	0.1	4598.9
23540	5.7872	3.6364	0.1	4570.1
23541	5.6953	3.9091	0.1	4603.3
23542	5.7872	3.8182	0.1	4573.8
23543	5.6953	4.0909	0.1	4608.4
23544	5.7872	4.	0.1	4578.4
23545	5.6953	4.2727	0.1	4614.4
23546	5.7872	4.1818	0.1	4583.8
23547	5.6953	4.4545	0.1	4621.1
23548	5.7872	4.3636	0.1	4589.9
23549	5.6953	4.6364	0.1	4628.4
23550	5.7872	4.5455	0.1	4596.7
23551	5.6953	4.8182	0.1	4636.3
23552	5.7872	4.7273	0.1	4604.
23553	5.6953	5.	0.1	4644.7
23554	5.7872	4.9091	0.1	4611.9
23555	5.6953	5.1818	0.1	4653.5
23556	5.7872	5.0909	0.1	4620.2
23557	5.6953	5.3636	0.1	4662.6
23558	5.7872	5.2727	0.1	4628.8
23559	5.6953	5.5455	0.1	4671.9
23560	5.7872	5.4545	0.1	4637.7
23561	5.6953	5.7273	0.1	4681.4
23562	5.7872	5.6364	0.1	4646.8
23563	5.7872	5.8182	0.1	4656.1
23564	5.6953	5.9091	0.1	4689.8
23565	5.8791	0.27273	0.1	4621.5
23566	5.9709	0.18182	0.1	4596.2
23567	5.8791	9.0909e-002	0.1	4629.2
23568	5.8791	0.45455	0.1	4612.6
23569	5.9709	0.36364	0.1	4587.4
23570	5.8791	0.63636	0.1	4604.
23571	5.9709	0.54545	0.1	4579.
23572	5.8791	0.81818	0.1	4595.5
23573	5.9709	0.72727	0.1	4570.7
23574	5.8791	1.	0.1	4587.4
23575	5.9709	0.90909	0.1	4562.7
23576	5.8791	1.1818	0.1	4579.6
23577	5.9709	1.0909	0.1	4555.
23578	5.8791	1.3636	0.1	4572.3
23579	5.9709	1.2727	0.1	4547.7
23580	5.8791	1.5455	0.1	4565.5
23581	5.9709	1.4545	0.1	4540.9
23582	5.8791	1.7273	0.1	4559.3
23583	5.9709	1.6364	0.1	4534.6
23584	5.8791	1.9091	0.1	4553.8
23585	5.9709	1.8182	0.1	4529.
23586	5.8791	2.0909	0.1	4549.
23587	5.9709	2.	0.1	4524.
23588	5.8791	2.2727	0.1	4545.
23589	5.9709	2.1818	0.1	4519.8
23590	5.8791	2.4545	0.1	4541.8
23591	5.9709	2.3636	0.1	4516.3
23592	5.8791	2.6364	0.1	4539.5
23593	5.9709	2.5455	0.1	4513.7
23594	5.8791	2.8182	0.1	4538.2
23595	5.9709	2.7273	0.1	4511.9
23596	5.8791	3.	0.1	4537.7
23597	5.9709	2.9091	0.1	4511.
23598	5.8791	3.1818	0.1	4538.2
23599	5.9709	3.0909	0.1	4511.
23600	5.8791	3.3636	0.1	4539.5
23601	5.9709	3.2727	0.1	4511.9
23602	5.8791	3.5455	0.1	4541.8
23603	5.9709	3.4545	0.1	4513.7
23604	5.8791	3.7273	0.1	4545.
23605	5.9709	3.6364	0.1	4516.3
23606	5.8791	3.9091	0.1	4549.
23607	5.9709	3.8182	0.1	4519.8
23608	5.8791	4.0909	0.1	4553.8
23609	5.9709	4.	0.1	4524.
23610	5.8791	4.2727	0.1	4559.3
23611	5.9709	4.1818	0.1	4529.
23612	5.8791	4.4545	0.1	4565.5
23613	5.9709	4.3636	0.1	4534.6
23614	5.8791	4.6364	0.1	4572.3
23615	5.9709	4.5455	0.1	4540.9
23616	5.8791	4.8182	0.1	4579.6
23617	5.9709	4.7273	0.1	4547.7
23618	5.8791	5.	0.1	4587.4
23619	5.9709	4.9091	0.1	4555.
23620	5.8791	5.1818	0.1	4595.5
23621	5.9709	5.0909	0.1	4562.7
23622	5.8791	5.3636	0.1	4604.
23623	5.9709	5.2727	0.1	4570.7
23624	5.8791	5.5455	0.1	4612.6
23625	5.9709	5.4545	0.1	4579.
23626	5.8791	5.7273	0.1	4621.5
23627	5.9709	5.6364	0.1	4587.4
23628	5.9709	5.8182	0.1	4596.2
23629	5.8791	5.9091	0.1	4629.2
23630	6.0628	0.27273	0.1	4562.1
23631	6.1547	0.18182	0.1	4536.7
23632	6.0628	9.0909e-002	0.1	4569.2
23633	6.0628	0.45455	0.1	4553.8
23634	6.1547	0.36364	0.1	4528.5
23635	6.0628	0.63636	0.1	4545.8
23636	6.1547	0.54545	0.1	4520.7
23637	6.0628	0.81818	0.1	4537.9
23638	6.1547	0.72727	0.1	4513.
23639	6.0628	1.	0.1	4530.4
23640	6.1547	0.90909	0.1	4505.6
23641	6.0628	1.1818	0.1	4523.2
23642	6.1547	1.0909	0.1	4498.4
23643	6.0628	1.3636	0.1	4516.4
23644	6.1547	1.2727	0.1	4491.7
23645	6.0628	1.5455	0.1	4510.1
23646	6.1547	1.4545	0.1	4485.4
23647	6.0628	1.7273	0.1	4504.3
23648	6.1547	1.6364	0.1	4479.6
23649	6.0628	1.9091	0.1	4499.2
23650	6.1547	1.8182	0.1	4474.3
23651	6.0628	2.0909	0.1	4494.8
23652	6.1547	2.	0.1	4469.7
23653	6.0628	2.2727	0.1	4491.1
23654	6.1547	2.1818	0.1	4465.8
23655	6.0628	2.4545	0.1	4488.2
23656	6.1547	2.3636	0.1	4462.6
23657	6.0628	2.6364	0.1	4486.1
23658	6.1547	2.5455	0.1	4460.2
23659	6.0628	2.8182	0.1	4484.8
23660	6.1547	2.7273	0.1	4458.6
23661	6.0628	3.	0.1	4484.4
23662	6.1547	2.9091	0.1	4457.7
23663	6.0628	3.1818	0.1	4484.8
23664	6.1547	3.0909	0.1	4457.7
23665	6.0628	3.3636	0.1	4486.1
23666	6.1547	3.2727	0.1	4458.6
23667	6.0628	3.5455	0.1	4488.2
23668	6.1547	3.4545	0.1	4460.2
23669	6.0628	3.7273	0.1	4491.1
23670	6.1547	3.6364	0.1	4462.6
23671	6.0628	3.9091	0.1	4494.8
23672	6.1547	3.8182	0.1	4465.8
23673	6.0628	4.0909	0.1	4499.2
23674	6.1547	4.	0.1	4469.7
23675	6.0628	4.2727	0.1	4504.3
23676	6.1547	4.1818	0.1	4474.3
23677	6.0628	4.4545	0.1	4510.1
23678	6.1547	4.3636	0.1	4479.6
23679	6.0628	4.6364	0.1	4516.4
23680	6.1547	4.5455	0.1	4485.4
23681	6.0628	4.8182	0.1	4523.2
23682	6.1547	4.7273	0.1	4491.7
23683	6.0628	5.	0.1	4530.4
23684	6.1547	4.9091	0.1	4498.4
23685	6.0628	5.1818	0.1	4537.9
23686	6.1547	5.0909	0.1	4505.6
23687	6.0628	5.3636	0.1	4545.8
23688	6.1547	5.2727	0.1	4513.
23689	6.0628	5.5455	0.1	4553.8
23690	6.1547	5.4545	0.1	4520.7
23691	6.0628	5.7273	0.1	4562.1
23692	6.1547	5.6364	0.1	4528.5
23693	6.1547	5.8182	0.1	4536.7
23694	6.0628	5.9091	0.1	4569.2
23695	6.2465	0.27273	0.1	4503.2
23696	6.3384	0.18182	0.1	4477.8
23697	6.2465	9.0909e-002	0.1	4509.6
23698	6.2465	0.45455	0.1	4495.4
23699	6.3384	0.36364	0.1	4470.1
23700	6.2465	0.63636	0.1	4488.
23701	6.3384	0.54545	0.1	4462.8
23702	6.2465	0.81818	0.1	4480.7
23703	6.3384	0.72727	0.1	4455.7
23704	6.2465	1.	0.1	4473.7
23705	6.3384	0.90909	0.1	4448.8
23706	6.2465	1.1818	0.1	4467.
23707	6.3384	1.0909	0.1	4442.1
23708	6.2465	1.3636	0.1	4460.7
23709	6.3384	1.2727	0.1	4435.9
23710	6.2465	1.5455	0.1	4454.8
23711	6.3384	1.4545	0.1	4430.
23712	6.2465	1.7273	0.1	4449.5
23713	6.3384	1.6364	0.1	4424.6
23714	6.2465	1.9091	0.1	4444.8
23715	6.3384	1.8182	0.1	4419.8
23716	6.2465	2.0909	0.1	4440.7
23717	6.3384	2.	0.1	4415.5
23718	6.2465	2.2727	0.1	4437.3
23719	6.3384	2.1818	0.1	4411.9
23720	6.2465	2.4545	0.1	4434.6
23721	6.3384	2.3636	0.1	4409.
23722	6.2465	2.6364	0.1	4432.7
23723	6.3384	2.5455	0.1	4406.7
23724	6.2465	2.8182	0.1	4431.5
23725	6.3384	2.7273	0.1	4405.2
23726	6.2465	3.	0.1	4431.1
23727	6.3384	2.9091	0.1	4404.5
23728	6.2465	3.1818	0.1	4431.5
23729	6.3384	3.0909	0.1	4404.5
23730	6.2465	3.3636	0.1	4432.7
23731	6.3384	3.2727	0.1	4405.2
23732	6.2465	3.5455	0.1	4434.6
23733	6.3384	3.4545	0.1	4406.7
23734	6.2465	3.7273	0.1	4437.3
23735	6.3384	3.6364	0.1	4409.
23736	6.2465	3.9091	0.1	4440.7
23737	6.3384	3.8182	0.1	4411.9
23738	6.2465	4.0909	0.1	4444.8
23739	6.3384	4.	0.1	4415.5
23740	6.2465	4.2727	0.1	4449.5
23741	6.3384	4.1818	0.1	4419.8
23742	6.2465	4.4545	0.1	4454.8
23743	6.3384	4.3636	0.1	4424.6
23744	6.2465	4.6364	0.1	4460.7
23745	6.3384	4.5455	0.1	4430.
23746	6.2465	4.8182	0.1	4467.
23747	6.3384	4.7273	0.1	4435.9
23748	6.2465	5.	0.1	4473.7
23749	6.3384	4.9091	0.1	4442.1
23750	6.2465	5.1818	0.1	4480.7
23751	6.3384	5.0909	0.1	4448.8
23752	6.2465	5.3636	0.1	4488.
23753	6.3384	5.2727	0.1	4455.7
23754	6.2465	5.5455	0.1	4495.4
23755	6.3384	5.4545	0.1	4462.8
23756	6.2465	5.7273	0.1	4503.2
23757	6.3384	5.6364	0.1	4470.1
23758	6.3384	5.8182	0.1	4477.8
23759	6.2465	5.9091	0.1	4509.6
23760	6.4302	0.27273	0.1	4444.7
23761	6.5221	0.18182	0.1	4419.3
23762	6.4302	9.0909e-002	0.1	4450.6
23763	6.4302	0.45455	0.1	4437.5
23764	6.5221	0.36364	0.1	4412.1
23765	6.4302	0.63636	0.1	4430.5
23766	6.5221	0.54545	0.1	4405.3
23767	6.4302	0.81818	0.1	4423.8
23768	6.5221	0.72727	0.1	4398.7
23769	6.4302	1.	0.1	4417.2
23770	6.5221	0.90909	0.1	4392.3
23771	6.4302	1.1818	0.1	4411.
23772	6.5221	1.0909	0.1	4386.1
23773	6.4302	1.3636	0.1	4405.2
23774	6.5221	1.2727	0.1	4380.3
23775	6.4302	1.5455	0.1	4399.8
23776	6.5221	1.4545	0.1	4374.9
23777	6.4302	1.7273	0.1	4394.9
23778	6.5221	1.6364	0.1	4369.9
23779	6.4302	1.9091	0.1	4390.5
23780	6.5221	1.8182	0.1	4365.4
23781	6.4302	2.0909	0.1	4386.7
23782	6.5221	2.	0.1	4361.5
23783	6.4302	2.2727	0.1	4383.6
23784	6.5221	2.1818	0.1	4358.1
23785	6.4302	2.4545	0.1	4381.1
23786	6.5221	2.3636	0.1	4355.4
23787	6.4302	2.6364	0.1	4379.3
23788	6.5221	2.5455	0.1	4353.3
23789	6.4302	2.8182	0.1	4378.2
23790	6.5221	2.7273	0.1	4351.9
23791	6.4302	3.	0.1	4377.8
23792	6.5221	2.9091	0.1	4351.2
23793	6.4302	3.1818	0.1	4378.2
23794	6.5221	3.0909	0.1	4351.2
23795	6.4302	3.3636	0.1	4379.3
23796	6.5221	3.2727	0.1	4351.9
23797	6.4302	3.5455	0.1	4381.1
23798	6.5221	3.4545	0.1	4353.3
23799	6.4302	3.7273	0.1	4383.6
23800	6.5221	3.6364	0.1	4355.4
23801	6.4302	3.9091	0.1	4386.7
23802	6.5221	3.8182	0.1	4358.1
23803	6.4302	4.0909	0.1	4390.5
23804	6.5221	4.	0.1	4361.5
23805	6.4302	4.2727	0.1	4394.9
23806	6.5221	4.1818	0.1	4365.4
23807	6.4302	4.4545	0.1	4399.8
23808	6.5221	4.3636	0.1	4369.9
23809	6.4302	4.6364	0.1	4405.2
23810	6.5221	4.5455	0.1	4374.9
23811	6.4302	4.8182	0.1	4411.
23812	6.5221	4.7273	0.1	4380.3
23813	6.4302	5.	0.1	4417.2
23814	6.5221	4.9091	0.1	4386.1
23815	6.4302	5.1818	0.1	4423.8
23816	6.5221	5.0909	0.1	4392.3
23817	6.4302	5.3636	0.1	4430.5
23818	6.5221	5.2727	0.1	4398.7
23819	6.4302	5.5455	0.1	4437.5
23820	6.5221	5.4545	0.1	4405.3
23821	6.4302	5.7273	0.1	4444.7
23822	6.5221	5.6364	0.1	4412.1
23823	6.5221	5.8182	0.1	4419.3
23824	6.4302	5.9091	0.1	4450.6
23825	6.614	0.27273	0.1	4386.7
23826	6.7058	0.18182	0.1	4361.3
23827	6.614	9.0909e-002	0.1	4392.
23828	6.614	0.45455	0.1	4379.9
23829	6.7058	0.36364	0.1	4354.5
23830	6.614	0.63636	0.1	4373.5
23831	6.7058	0.54545	0.1	4348.2
23832	6.614	0.81818	0.1	4367.2
23833	6.7058	0.72727	0.1	4342.
23834	6.614	1.	0.1	4361.1
23835	6.7058	0.90909	0.1	4336.
23836	6.614	1.1818	0.1	4355.4
23837	6.7058	1.0909	0.1	4330.3
23838	6.614	1.3636	0.1	4349.9
23839	6.7058	1.2727	0.1	4324.9
23840	6.614	1.5455	0.1	4344.9
23841	6.7058	1.4545	0.1	4319.9
23842	6.614	1.7273	0.1	4340.4
23843	6.7058	1.6364	0.1	4315.3
23844	6.614	1.9091	0.1	4336.3
23845	6.7058	1.8182	0.1	4311.1
23846	6.614	2.0909	0.1	4332.8
23847	6.7058	2.	0.1	4307.5
23848	6.614	2.2727	0.1	4329.9
23849	6.7058	2.1818	0.1	4304.4
23850	6.614	2.4545	0.1	4327.6
23851	6.7058	2.3636	0.1	4301.9
23852	6.614	2.6364	0.1	4325.9
23853	6.7058	2.5455	0.1	4300.
23854	6.614	2.8182	0.1	4324.9
23855	6.7058	2.7273	0.1	4298.7
23856	6.614	3.	0.1	4324.6
23857	6.7058	2.9091	0.1	4298.
23858	6.614	3.1818	0.1	4324.9
23859	6.7058	3.0909	0.1	4298.
23860	6.614	3.3636	0.1	4325.9
23861	6.7058	3.2727	0.1	4298.7
23862	6.614	3.5455	0.1	4327.6
23863	6.7058	3.4545	0.1	4300.
23864	6.614	3.7273	0.1	4329.9
23865	6.7058	3.6364	0.1	4301.9
23866	6.614	3.9091	0.1	4332.8
23867	6.7058	3.8182	0.1	4304.4
23868	6.614	4.0909	0.1	4336.3
23869	6.7058	4.	0.1	4307.5
23870	6.614	4.2727	0.1	4340.4
23871	6.7058	4.1818	0.1	4311.1
23872	6.614	4.4545	0.1	4344.9
23873	6.7058	4.3636	0.1	4315.3
23874	6.614	4.6364	0.1	4349.9
23875	6.7058	4.5455	0.1	4319.9
23876	6.614	4.8182	0.1	4355.4
23877	6.7058	4.7273	0.1	4324.9
23878	6.614	5.	0.1	4361.1
23879	6.7058	4.9091	0.1	4330.3
23880	6.614	5.1818	0.1	4367.2
23881	6.7058	5.0909	0.1	4336.
23882	6.614	5.3636	0.1	4373.5
23883	6.7058	5.2727	0.1	4342.
23884	6.614	5.5455	0.1	4379.9
23885	6.7058	5.4545	0.1	4348.2
23886	6.614	5.7273	0.1	4386.7
23887	6.7058	5.6364	0.1	4354.5
23888	6.7058	5.8182	0.1	4361.3
23889	6.614	5.9091	0.1	4392.
23890	6.7977	0.27273	0.1	4329.1
23891	6.8895	0.18182	0.1	4303.7
23892	6.7977	9.0909e-002	0.1	4333.9
23893	6.7977	0.45455	0.1	4322.8
23894	6.8895	0.36364	0.1	4297.3
23895	6.7977	0.63636	0.1	4316.7
23896	6.8895	0.54545	0.1	4291.4
23897	6.7977	0.81818	0.1	4310.9
23898	6.8895	0.72727	0.1	4285.7
23899	6.7977	1.	0.1	4305.3
23900	6.8895	0.90909	0.1	4280.1
23901	6.7977	1.1818	0.1	4299.9
23902	6.8895	1.0909	0.1	4274.8
23903	6.7977	1.3636	0.1	4294.9
23904	6.8895	1.2727	0.1	4269.8
23905	6.7977	1.5455	0.1	4290.3
23906	6.8895	1.4545	0.1	4265.1
23907	6.7977	1.7273	0.1	4286.
23908	6.8895	1.6364	0.1	4260.9
23909	6.7977	1.9091	0.1	4282.3
23910	6.8895	1.8182	0.1	4257.
23911	6.7977	2.0909	0.1	4279.1
23912	6.8895	2.	0.1	4253.6
23913	6.7977	2.2727	0.1	4276.4
23914	6.8895	2.1818	0.1	4250.8
23915	6.7977	2.4545	0.1	4274.2
23916	6.8895	2.3636	0.1	4248.4
23917	6.7977	2.6364	0.1	4272.7
23918	6.8895	2.5455	0.1	4246.7
23919	6.7977	2.8182	0.1	4271.7
23920	6.8895	2.7273	0.1	4245.5
23921	6.7977	3.	0.1	4271.4
23922	6.8895	2.9091	0.1	4244.9
23923	6.7977	3.1818	0.1	4271.7
23924	6.8895	3.0909	0.1	4244.9
23925	6.7977	3.3636	0.1	4272.7
23926	6.8895	3.2727	0.1	4245.5
23927	6.7977	3.5455	0.1	4274.2
23928	6.8895	3.4545	0.1	4246.7
23929	6.7977	3.7273	0.1	4276.4
23930	6.8895	3.6364	0.1	4248.4
23931	6.7977	3.9091	0.1	4279.1
23932	6.8895	3.8182	0.1	4250.8
23933	6.7977	4.0909	0.1	4282.3
23934	6.8895	4.	0.1	4253.6
23935	6.7977	4.2727	0.1	4286.
23936	6.8895	4.1818	0.1	4257.
23937	6.7977	4.4545	0.1	4290.3
23938	6.8895	4.3636	0.1	4260.9
23939	6.7977	4.6364	0.1	4294.9
23940	6.8895	4.5455	0.1	4265.1
23941	6.7977	4.8182	0.1	4299.9
23942	6.8895	4.7273	0.1	4269.8
23943	6.7977	5.	0.1	4305.3
23944	6.8895	4.9091	0.1	4274.8
23945	6.7977	5.1818	0.1	4310.9
23946	6.8895	5.0909	0.1	4280.1
23947	6.7977	5.3636	0.1	4316.7
23948	6.8895	5.2727	0.1	4285.7
23949	6.7977	5.5455	0.1	4322.8
23950	6.8895	5.4545	0.1	4291.4
23951	6.7977	5.7273	0.1	4329.1
23952	6.8895	5.6364	0.1	4297.3
23953	6.8895	5.8182	0.1	4303.7
23954	6.7977	5.9091	0.1	4333.9
23955	6.9814	0.27273	0.1	4271.9
23956	7.0733	0.18182	0.1	4246.6
23957	6.9814	9.0909e-002	0.1	4276.2
23958	6.9814	0.45455	0.1	4266.
23959	7.0733	0.36364	0.1	4240.5
23960	6.9814	0.63636	0.1	4260.4
23961	7.0733	0.54545	0.1	4235.
23962	6.9814	0.81818	0.1	4254.9
23963	7.0733	0.72727	0.1	4229.7
23964	6.9814	1.	0.1	4249.7
23965	7.0733	0.90909	0.1	4224.5
23966	6.9814	1.1818	0.1	4244.7
23967	7.0733	1.0909	0.1	4219.6
23968	6.9814	1.3636	0.1	4240.1
23969	7.0733	1.2727	0.1	4214.9
23970	6.9814	1.5455	0.1	4235.8
23971	7.0733	1.4545	0.1	4210.6
23972	6.9814	1.7273	0.1	4231.8
23973	7.0733	1.6364	0.1	4206.6
23974	6.9814	1.9091	0.1	4228.4
23975	7.0733	1.8182	0.1	4203.
23976	6.9814	2.0909	0.1	4225.4
23977	7.0733	2.	0.1	4199.9
23978	6.9814	2.2727	0.1	4222.9
23979	7.0733	2.1818	0.1	4197.3
23980	6.9814	2.4545	0.1	4220.9
23981	7.0733	2.3636	0.1	4195.1
23982	6.9814	2.6364	0.1	4219.5
23983	7.0733	2.5455	0.1	4193.5
23984	6.9814	2.8182	0.1	4218.6
23985	7.0733	2.7273	0.1	4192.4
23986	6.9814	3.	0.1	4218.3
23987	7.0733	2.9091	0.1	4191.8
23988	6.9814	3.1818	0.1	4218.6
23989	7.0733	3.0909	0.1	4191.8
23990	6.9814	3.3636	0.1	4219.5
23991	7.0733	3.2727	0.1	4192.4
23992	6.9814	3.5455	0.1	4220.9
23993	7.0733	3.4545	0.1	4193.5
23994	6.9814	3.7273	0.1	4222.9
23995	7.0733	3.6364	0.1	4195.1
23996	6.9814	3.9091	0.1	4225.4
23997	7.0733	3.8182	0.1	4197.3
23998	6.9814	4.0909	0.1	4228.4
23999	7.0733	4.	0.1	4199.9
24000	6.9814	4.2727	0.1	4231.8
24001	7.0733	4.1818	0.1	4203.
24002	6.9814	4.4545	0.1	4235.8
24003	7.0733	4.3636	0.1	4206.6
24004	6.9814	4.6364	0.1	4240.1
24005	7.0733	4.5455	0.1	4210.6
24006	6.9814	4.8182	0.1	4244.7
24007	7.0733	4.7273	0.1	4214.9
24008	6.9814	5.	0.1	4249.7
24009	7.0733	4.9091	0.1	4219.6
24010	6.9814	5.1818	0.1	4254.9
24011	7.0733	5.0909	0.1	4224.5
24012	6.9814	5.3636	0.1	4260.4
24013	7.0733	5.2727	0.1	4229.7
24014	6.9814	5.5455	0.1	4266.
24015	7.0733	5.4545	0.1	4235.
24016	6.9814	5.7273	0.1	4271.9
24017	7.0733	5.6364	0.1	4240.5
24018	7.0733	5.8182	0.1	4246.6
24019	6.9814	5.9091	0.1	4276.2
24020	7.1651	0.27273	0.1	4215.1
24021	7.257	0.18182	0.1	4189.8
24022	7.1651	9.0909e-002	0.1	4218.9
24023	7.1651	0.45455	0.1	4209.5
24024	7.257	0.36364	0.1	4184.1
24025	7.1651	0.63636	0.1	4204.3
24026	7.257	0.54545	0.1	4178.9
24027	7.1651	0.81818	0.1	4199.2
24028	7.257	0.72727	0.1	4173.9
24029	7.1651	1.	0.1	4194.4
24030	7.257	0.90909	0.1	4169.1
24031	7.1651	1.1818	0.1	4189.7
24032	7.257	1.0909	0.1	4164.5
24033	7.1651	1.3636	0.1	4185.4
24034	7.257	1.2727	0.1	4160.2
24035	7.1651	1.5455	0.1	4181.4
24036	7.257	1.4545	0.1	4156.2
24037	7.1651	1.7273	0.1	4177.8
24038	7.257	1.6364	0.1	4152.5
24039	7.1651	1.9091	0.1	4174.6
24040	7.257	1.8182	0.1	4149.2
24041	7.1651	2.0909	0.1	4171.8
24042	7.257	2.	0.1	4146.3
24043	7.1651	2.2727	0.1	4169.5
24044	7.257	2.1818	0.1	4143.8
24045	7.1651	2.4545	0.1	4167.7
24046	7.257	2.3636	0.1	4141.8
24047	7.1651	2.6364	0.1	4166.3
24048	7.257	2.5455	0.1	4140.3
24049	7.1651	2.8182	0.1	4165.5
24050	7.257	2.7273	0.1	4139.3
24051	7.1651	3.	0.1	4165.3
24052	7.257	2.9091	0.1	4138.8
24053	7.1651	3.1818	0.1	4165.5
24054	7.257	3.0909	0.1	4138.8
24055	7.1651	3.3636	0.1	4166.3
24056	7.257	3.2727	0.1	4139.3
24057	7.1651	3.5455	0.1	4167.7
24058	7.257	3.4545	0.1	4140.3
24059	7.1651	3.7273	0.1	4169.5
24060	7.257	3.6364	0.1	4141.8
24061	7.1651	3.9091	0.1	4171.8
24062	7.257	3.8182	0.1	4143.8
24063	7.1651	4.0909	0.1	4174.6
24064	7.257	4.	0.1	4146.3
24065	7.1651	4.2727	0.1	4177.8
24066	7.257	4.1818	0.1	4149.2
24067	7.1651	4.4545	0.1	4181.4
24068	7.257	4.3636	0.1	4152.5
24069	7.1651	4.6364	0.1	4185.4
24070	7.257	4.5455	0.1	4156.2
24071	7.1651	4.8182	0.1	4189.7
24072	7.257	4.7273	0.1	4160.2
24073	7.1651	5.	0.1	4194.4
24074	7.257	4.9091	0.1	4164.5
24075	7.1651	5.1818	0.1	4199.2
24076	7.257	5.0909	0.1	4169.1
24077	7.1651	5.3636	0.1	4204.3
24078	7.257	5.2727	0.1	4173.9
24079	7.1651	5.5455	0.1	4209.5
24080	7.257	5.4545	0.1	4178.9
24081	7.1651	5.7273	0.1	4215.1
24082	7.257	5.6364	0.1	4184.1
24083	7.257	5.8182	0.1	4189.8
24084	7.1651	5.9091	0.1	4218.9
24085	7.3488	0.27273	0.1	4158.7
24086	7.4407	0.18182	0.1	4133.4
24087	7.3488	9.0909e-002	0.1	4162.1
24088	7.3488	0.45455	0.1	4153.5
24089	7.4407	0.36364	0.1	4128.
24090	7.3488	0.63636	0.1	4148.6
24091	7.4407	0.54545	0.1	4123.2
24092	7.3488	0.81818	0.1	4143.8
24093	7.4407	0.72727	0.1	4118.5
24094	7.3488	1.	0.1	4139.3
24095	7.4407	0.90909	0.1	4114.
24096	7.3488	1.1818	0.1	4135.
24097	7.4407	1.0909	0.1	4109.8
24098	7.3488	1.3636	0.1	4131.
24099	7.4407	1.2727	0.1	4105.7
24100	7.3488	1.5455	0.1	4127.3
24101	7.4407	1.4545	0.1	4102.
24102	7.3488	1.7273	0.1	4123.9
24103	7.4407	1.6364	0.1	4098.6
24104	7.3488	1.9091	0.1	4120.9
24105	7.4407	1.8182	0.1	4095.5
24106	7.3488	2.0909	0.1	4118.3
24107	7.4407	2.	0.1	4092.8
24108	7.3488	2.2727	0.1	4116.2
24109	7.4407	2.1818	0.1	4090.5
24110	7.3488	2.4545	0.1	4114.5
24111	7.4407	2.3636	0.1	4088.7
24112	7.3488	2.6364	0.1	4113.3
24113	7.4407	2.5455	0.1	4087.3
24114	7.3488	2.8182	0.1	4112.5
24115	7.4407	2.7273	0.1	4086.3
24116	7.3488	3.	0.1	4112.3
24117	7.4407	2.9091	0.1	4085.8
24118	7.3488	3.1818	0.1	4112.5
24119	7.4407	3.0909	0.1	4085.8
24120	7.3488	3.3636	0.1	4113.3
24121	7.4407	3.2727	0.1	4086.3
24122	7.3488	3.5455	0.1	4114.5
24123	7.4407	3.4545	0.1	4087.3
24124	7.3488	3.7273	0.1	4116.2
24125	7.4407	3.6364	0.1	4088.7
24126	7.3488	3.9091	0.1	4118.3
24127	7.4407	3.8182	0.1	4090.5
24128	7.3488	4.0909	0.1	4120.9
24129	7.4407	4.	0.1	4092.8
24130	7.3488	4.2727	0.1	4123.9
24131	7.4407	4.1818	0.1	4095.5
24132	7.3488	4.4545	0.1	4127.3
24133	7.4407	4.3636	0.1	4098.6
24134	7.3488	4.6364	0.1	4131.
24135	7.4407	4.5455	0.1	4102.
24136	7.3488	4.8182	0.1	4135.
24137	7.4407	4.7273	0.1	4105.7
24138	7.3488	5.	0.1	4139.3
24139	7.4407	4.9091	0.1	4109.8
24140	7.3488	5.1818	0.1	4143.8
24141	7.4407	5.0909	0.1	4114.
24142	7.3488	5.3636	0.1	4148.6
24143	7.4407	5.2727	0.1	4118.5
24144	7.3488	5.5455	0.1	4153.5
24145	7.4407	5.4545	0.1	4123.2
24146	7.3488	5.7273	0.1	4158.7
24147	7.4407	5.6364	0.1	4128.
24148	7.4407	5.8182	0.1	4133.4
24149	7.3488	5.9091	0.1	4162.1
24150	7.5326	0.27273	0.1	4102.7
24151	7.6244	0.18182	0.1	4077.4
24152	7.5326	9.0909e-002	0.1	4105.6
24153	7.5326	0.45455	0.1	4097.7
24154	7.6244	0.36364	0.1	4072.2
24155	7.5326	0.63636	0.1	4093.1
24156	7.6244	0.54545	0.1	4067.7
24157	7.5326	0.81818	0.1	4088.7
24158	7.6244	0.72727	0.1	4063.4
24159	7.5326	1.	0.1	4084.5
24160	7.6244	0.90909	0.1	4059.2
24161	7.5326	1.1818	0.1	4080.5
24162	7.6244	1.0909	0.1	4055.2
24163	7.5326	1.3636	0.1	4076.7
24164	7.6244	1.2727	0.1	4051.5
24165	7.5326	1.5455	0.1	4073.3
24166	7.6244	1.4545	0.1	4048.
24167	7.5326	1.7273	0.1	4070.2
24168	7.6244	1.6364	0.1	4044.8
24169	7.5326	1.9091	0.1	4067.4
24170	7.6244	1.8182	0.1	4041.9
24171	7.5326	2.0909	0.1	4065.
24172	7.6244	2.	0.1	4039.4
24173	7.5326	2.2727	0.1	4063.
24174	7.6244	2.1818	0.1	4037.3
24175	7.5326	2.4545	0.1	4061.4
24176	7.6244	2.3636	0.1	4035.6
24177	7.5326	2.6364	0.1	4060.3
24178	7.6244	2.5455	0.1	4034.3
24179	7.5326	2.8182	0.1	4059.6
24180	7.6244	2.7273	0.1	4033.4
24181	7.5326	3.	0.1	4059.4
24182	7.6244	2.9091	0.1	4033.
24183	7.5326	3.1818	0.1	4059.6
24184	7.6244	3.0909	0.1	4033.
24185	7.5326	3.3636	0.1	4060.3
24186	7.6244	3.2727	0.1	4033.4
24187	7.5326	3.5455	0.1	4061.4
24188	7.6244	3.4545	0.1	4034.3
24189	7.5326	3.7273	0.1	4063.
24190	7.6244	3.6364	0.1	4035.6
24191	7.5326	3.9091	0.1	4065.
24192	7.6244	3.8182	0.1	4037.3
24193	7.5326	4.0909	0.1	4067.4
24194	7.6244	4.	0.1	4039.4
24195	7.5326	4.2727	0.1	4070.2
24196	7.6244	4.1818	0.1	4041.9
24197	7.5326	4.4545	0.1	4073.3
24198	7.6244	4.3636	0.1	4044.8
24199	7.5326	4.6364	0.1	4076.7
24200	7.6244	4.5455	0.1	4048.
24201	7.5326	4.8182	0.1	4080.5
24202	7.6244	4.7273	0.1	4051.5
24203	7.5326	5.	0.1	4084.5
24204	7.6244	4.9091	0.1	4055.2
24205	7.5326	5.1818	0.1	4088.7
24206	7.6244	5.0909	0.1	4059.2
24207	7.5326	5.3636	0.1	4093.1
24208	7.6244	5.2727	0.1	4063.4
24209	7.5326	5.5455	0.1	4097.7
24210	7.6244	5.4545	0.1	4067.7
24211	7.5326	5.7273	0.1	4102.7
24212	7.6244	5.6364	0.1	4072.2
24213	7.6244	5.8182	0.1	4077.4
24214	7.5326	5.9091	0.1	4105.6
24215	7.7163	0.27273	0.1	4046.9
24216	7.8081	0.18182	0.1	4021.8
24217	7.7163	9.0909e-002	0.1	4049.4
24218	7.7163	0.45455	0.1	4042.3
24219	7.8081	0.36364	0.1	4016.8
24220	7.7163	0.63636	0.1	4038.
24221	7.8081	0.54545	0.1	4012.6
24222	7.7163	0.81818	0.1	4033.9
24223	7.8081	0.72727	0.1	4008.5
24224	7.7163	1.	0.1	4029.9
24225	7.8081	0.90909	0.1	4004.6
24226	7.7163	1.1818	0.1	4026.2
24227	7.8081	1.0909	0.1	4000.9
24228	7.7163	1.3636	0.1	4022.7
24229	7.8081	1.2727	0.1	3997.4
24230	7.7163	1.5455	0.1	4019.5
24231	7.8081	1.4545	0.1	3994.2
24232	7.7163	1.7273	0.1	4016.6
24233	7.8081	1.6364	0.1	3991.2
24234	7.7163	1.9091	0.1	4014.
24235	7.8081	1.8182	0.1	3988.5
24236	7.7163	2.0909	0.1	4011.8
24237	7.8081	2.	0.1	3986.2
24238	7.7163	2.2727	0.1	4009.9
24239	7.8081	2.1818	0.1	3984.2
24240	7.7163	2.4545	0.1	4008.5
24241	7.8081	2.3636	0.1	3982.6
24242	7.7163	2.6364	0.1	4007.4
24243	7.8081	2.5455	0.1	3981.4
24244	7.7163	2.8182	0.1	4006.8
24245	7.8081	2.7273	0.1	3980.6
24246	7.7163	3.	0.1	4006.6
24247	7.8081	2.9091	0.1	3980.2
24248	7.7163	3.1818	0.1	4006.8
24249	7.8081	3.0909	0.1	3980.2
24250	7.7163	3.3636	0.1	4007.4
24251	7.8081	3.2727	0.1	3980.6
24252	7.7163	3.5455	0.1	4008.5
24253	7.8081	3.4545	0.1	3981.4
24254	7.7163	3.7273	0.1	4009.9
24255	7.8081	3.6364	0.1	3982.6
24256	7.7163	3.9091	0.1	4011.8
24257	7.8081	3.8182	0.1	3984.2
24258	7.7163	4.0909	0.1	4014.
24259	7.8081	4.	0.1	3986.2
24260	7.7163	4.2727	0.1	4016.6
24261	7.8081	4.1818	0.1	3988.5
24262	7.7163	4.4545	0.1	4019.5
24263	7.8081	4.3636	0.1	3991.2
24264	7.7163	4.6364	0.1	4022.7
24265	7.8081	4.5455	0.1	3994.2
24266	7.7163	4.8182	0.1	4026.2
24267	7.8081	4.7273	0.1	3997.4
24268	7.7163	5.	0.1	4029.9
24269	7.8081	4.9091	0.1	4000.9
24270	7.7163	5.1818	0.1	4033.9
24271	7.8081	5.0909	0.1	4004.6
24272	7.7163	5.3636	0.1	4038.
24273	7.8081	5.2727	0.1	4008.5
24274	7.7163	5.5455	0.1	4042.3
24275	7.8081	5.4545	0.1	4012.6
24276	7.7163	5.7273	0.1	4047.
24277	7.8081	5.6364	0.1	4016.8
24278	7.8081	5.8182	0.1	4021.8
24279	7.7163	5.9091	0.1	4049.5
24280	7.9	0.27273	0.1	3991.6
24281	7.9919	0.18182	0.1	3966.4
24282	7.9	9.0909e-002	0.1	3993.7
24283	7.9	0.45455	0.1	3987.1
24284	7.9919	0.36364	0.1	3961.7
24285	7.9	0.63636	0.1	3983.1
24286	7.9919	0.54545	0.1	3957.7
24287	7.9	0.81818	0.1	3979.3
24288	7.9919	0.72727	0.1	3953.9
24289	7.9	1.	0.1	3975.6
24290	7.9919	0.90909	0.1	3950.3
24291	7.9	1.1818	0.1	3972.1
24292	7.9919	1.0909	0.1	3946.8
24293	7.9	1.3636	0.1	3968.8
24294	7.9919	1.2727	0.1	3943.5
24295	7.9	1.5455	0.1	3965.9
24296	7.9919	1.4545	0.1	3940.5
24297	7.9	1.7273	0.1	3963.1
24298	7.9919	1.6364	0.1	3937.8
24299	7.9	1.9091	0.1	3960.7
24300	7.9919	1.8182	0.1	3935.3
24301	7.9	2.0909	0.1	3958.7
24302	7.9919	2.	0.1	3933.1
24303	7.9	2.2727	0.1	3957.
24304	7.9919	2.1818	0.1	3931.3
24305	7.9	2.4545	0.1	3955.6
24306	7.9919	2.3636	0.1	3929.8
24307	7.9	2.6364	0.1	3954.6
24308	7.9919	2.5455	0.1	3928.7
24309	7.9	2.8182	0.1	3954.
24310	7.9919	2.7273	0.1	3927.9
24311	7.9	3.	0.1	3953.8
24312	7.9919	2.9091	0.1	3927.5
24313	7.9	3.1818	0.1	3954.
24314	7.9919	3.0909	0.1	3927.5
24315	7.9	3.3636	0.1	3954.6
24316	7.9919	3.2727	0.1	3927.9
24317	7.9	3.5455	0.1	3955.6
24318	7.9919	3.4545	0.1	3928.7
24319	7.9	3.7273	0.1	3957.
24320	7.9919	3.6364	0.1	3929.8
24321	7.9	3.9091	0.1	3958.7
24322	7.9919	3.8182	0.1	3931.3
24323	7.9	4.0909	0.1	3960.7
24324	7.9919	4.	0.1	3933.1
24325	7.9	4.2727	0.1	3963.1
24326	7.9919	4.1818	0.1	3935.3
24327	7.9	4.4545	0.1	3965.9
24328	7.9919	4.3636	0.1	3937.8
24329	7.9	4.6364	0.1	3968.8
24330	7.9919	4.5455	0.1	3940.5
24331	7.9	4.8182	0.1	3972.1
24332	7.9919	4.7273	0.1	3943.5
24333	7.9	5.	0.1	3975.6
24334	7.9919	4.9091	0.1	3946.8
24335	7.9	5.1818	0.1	3979.3
24336	7.9919	5.0909	0.1	3950.3
24337	7.9	5.3636	0.1	3983.1
24338	7.9919	5.2727	0.1	3953.9
24339	7.9	5.5455	0.1	3987.1
24340	7.9919	5.4545	0.1	3957.7
24341	7.9	5.7273	0.1	3991.6
24342	7.9919	5.6364	0.1	3961.7
24343	7.9919	5.8182	0.1	3966.4
24344	7.9	5.9091	0.1	3993.7
24345	8.0837	0.27273	0.1	3936.5
24346	8.1756	0.18182	0.1	3911.4
24347	8.0837	9.0909e-002	0.1	3938.3
24348	8.0837	0.45455	0.1	3932.3
24349	8.1756	0.36364	0.1	3906.9
24350	8.0837	0.63636	0.1	3928.5
24351	8.1756	0.54545	0.1	3903.2
24352	8.0837	0.81818	0.1	3924.9
24353	8.1756	0.72727	0.1	3899.6
24354	8.0837	1.	0.1	3921.5
24355	8.1756	0.90909	0.1	3896.2
24356	8.0837	1.1818	0.1	3918.2
24357	8.1756	1.0909	0.1	3892.9
24358	8.0837	1.3636	0.1	3915.2
24359	8.1756	1.2727	0.1	3889.9
24360	8.0837	1.5455	0.1	3912.4
24361	8.1756	1.4545	0.1	3887.1
24362	8.0837	1.7273	0.1	3909.9
24363	8.1756	1.6364	0.1	3884.5
24364	8.0837	1.9091	0.1	3907.6
24365	8.1756	1.8182	0.1	3882.2
24366	8.0837	2.0909	0.1	3905.7
24367	8.1756	2.	0.1	3880.2
24368	8.0837	2.2727	0.1	3904.1
24369	8.1756	2.1818	0.1	3878.5
24370	8.0837	2.4545	0.1	3902.9
24371	8.1756	2.3636	0.1	3877.1
24372	8.0837	2.6364	0.1	3901.9
24373	8.1756	2.5455	0.1	3876.
24374	8.0837	2.8182	0.1	3901.4
24375	8.1756	2.7273	0.1	3875.3
24376	8.0837	3.	0.1	3901.2
24377	8.1756	2.9091	0.1	3875.
24378	8.0837	3.1818	0.1	3901.4
24379	8.1756	3.0909	0.1	3875.
24380	8.0837	3.3636	0.1	3901.9
24381	8.1756	3.2727	0.1	3875.3
24382	8.0837	3.5455	0.1	3902.9
24383	8.1756	3.4545	0.1	3876.
24384	8.0837	3.7273	0.1	3904.1
24385	8.1756	3.6364	0.1	3877.1
24386	8.0837	3.9091	0.1	3905.7
24387	8.1756	3.8182	0.1	3878.5
24388	8.0837	4.0909	0.1	3907.6
24389	8.1756	4.	0.1	3880.2
24390	8.0837	4.2727	0.1	3909.9
24391	8.1756	4.1818	0.1	3882.2
24392	8.0837	4.4545	0.1	3912.4
24393	8.1756	4.3636	0.1	3884.5
24394	8.0837	4.6364	0.1	3915.2
24395	8.1756	4.5455	0.1	3887.1
24396	8.0837	4.8182	0.1	3918.2
24397	8.1756	4.7273	0.1	3889.9
24398	8.0837	5.	0.1	3921.5
24399	8.1756	4.9091	0.1	3892.9
24400	8.0837	5.1818	0.1	3924.9
24401	8.1756	5.0909	0.1	3896.2
24402	8.0837	5.3636	0.1	3928.5
24403	8.1756	5.2727	0.1	3899.6
24404	8.0837	5.5455	0.1	3932.3
24405	8.1756	5.4545	0.1	3903.2
24406	8.0837	5.7273	0.1	3936.5
24407	8.1756	5.6364	0.1	3906.9
24408	8.1756	5.8182	0.1	3911.4
24409	8.0837	5.9091	0.1	3938.3
24410	8.2674	0.27273	0.1	3881.8
24411	8.3593	0.18182	0.1	3856.7
24412	8.2674	9.0909e-002	0.1	3883.2
24413	8.2674	0.45455	0.1	3877.8
24414	8.3593	0.36364	0.1	3852.4
24415	8.2674	0.63636	0.1	3874.2
24416	8.3593	0.54545	0.1	3848.9
24417	8.2674	0.81818	0.1	3870.8
24418	8.3593	0.72727	0.1	3845.5
24419	8.2674	1.	0.1	3867.6
24420	8.3593	0.90909	0.1	3842.3
24421	8.2674	1.1818	0.1	3864.6
24422	8.3593	1.0909	0.1	3839.3
24423	8.2674	1.3636	0.1	3861.7
24424	8.3593	1.2727	0.1	3836.4
24425	8.2674	1.5455	0.1	3859.1
24426	8.3593	1.4545	0.1	3833.8
24427	8.2674	1.7273	0.1	3856.8
24428	8.3593	1.6364	0.1	3831.4
24429	8.2674	1.9091	0.1	3854.7
24430	8.3593	1.8182	0.1	3829.2
24431	8.2674	2.0909	0.1	3852.9
24432	8.3593	2.	0.1	3827.3
24433	8.2674	2.2727	0.1	3851.4
24434	8.3593	2.1818	0.1	3825.8
24435	8.2674	2.4545	0.1	3850.2
24436	8.3593	2.3636	0.1	3824.5
24437	8.2674	2.6364	0.1	3849.4
24438	8.3593	2.5455	0.1	3823.5
24439	8.2674	2.8182	0.1	3848.9
24440	8.3593	2.7273	0.1	3822.8
24441	8.2674	3.	0.1	3848.7
24442	8.3593	2.9091	0.1	3822.5
24443	8.2674	3.1818	0.1	3848.9
24444	8.3593	3.0909	0.1	3822.5
24445	8.2674	3.3636	0.1	3849.4
24446	8.3593	3.2727	0.1	3822.8
24447	8.2674	3.5455	0.1	3850.2
24448	8.3593	3.4545	0.1	3823.5
24449	8.2674	3.7273	0.1	3851.4
24450	8.3593	3.6364	0.1	3824.5
24451	8.2674	3.9091	0.1	3852.9
24452	8.3593	3.8182	0.1	3825.8
24453	8.2674	4.0909	0.1	3854.7
24454	8.3593	4.	0.1	3827.3
24455	8.2674	4.2727	0.1	3856.8
24456	8.3593	4.1818	0.1	3829.2
24457	8.2674	4.4545	0.1	3859.1
24458	8.3593	4.3636	0.1	3831.4
24459	8.2674	4.6364	0.1	3861.7
24460	8.3593	4.5455	0.1	3833.8
24461	8.2674	4.8182	0.1	3864.6
24462	8.3593	4.7273	0.1	3836.4
24463	8.2674	5.	0.1	3867.6
24464	8.3593	4.9091	0.1	3839.3
24465	8.2674	5.1818	0.1	3870.8
24466	8.3593	5.0909	0.1	3842.3
24467	8.2674	5.3636	0.1	3874.2
24468	8.3593	5.2727	0.1	3845.5
24469	8.2674	5.5455	0.1	3877.8
24470	8.3593	5.4545	0.1	3848.9
24471	8.2674	5.7273	0.1	3881.8
24472	8.3593	5.6364	0.1	3852.4
24473	8.3593	5.8182	0.1	3856.7
24474	8.2674	5.9091	0.1	3883.2
24475	8.4512	0.27273	0.1	3827.3
24476	8.543	0.18182	0.1	3802.4
24477	8.4512	9.0909e-002	0.1	3828.4
24478	8.4512	0.45455	0.1	3823.5
24479	8.543	0.36364	0.1	3798.2
24480	8.4512	0.63636	0.1	3820.2
24481	8.543	0.54545	0.1	3794.9
24482	8.4512	0.81818	0.1	3817.
24483	8.543	0.72727	0.1	3791.7
24484	8.4512	1.	0.1	3814.
24485	8.543	0.90909	0.1	3788.7
24486	8.4512	1.1818	0.1	3811.1
24487	8.543	1.0909	0.1	3785.8
24488	8.4512	1.3636	0.1	3808.5
24489	8.543	1.2727	0.1	3783.2
24490	8.4512	1.5455	0.1	3806.
24491	8.543	1.4545	0.1	3780.7
24492	8.4512	1.7273	0.1	3803.8
24493	8.543	1.6364	0.1	3778.4
24494	8.4512	1.9091	0.1	3801.9
24495	8.543	1.8182	0.1	3776.4
24496	8.4512	2.0909	0.1	3800.2
24497	8.543	2.	0.1	3774.7
24498	8.4512	2.2727	0.1	3798.8
24499	8.543	2.1818	0.1	3773.2
24500	8.4512	2.4545	0.1	3797.7
24501	8.543	2.3636	0.1	3772.
24502	8.4512	2.6364	0.1	3796.9
24503	8.543	2.5455	0.1	3771.1
24504	8.4512	2.8182	0.1	3796.5
24505	8.543	2.7273	0.1	3770.5
24506	8.4512	3.	0.1	3796.3
24507	8.543	2.9091	0.1	3770.2
24508	8.4512	3.1818	0.1	3796.5
24509	8.543	3.0909	0.1	3770.2
24510	8.4512	3.3636	0.1	3796.9
24511	8.543	3.2727	0.1	3770.5
24512	8.4512	3.5455	0.1	3797.7
24513	8.543	3.4545	0.1	3771.1
24514	8.4512	3.7273	0.1	3798.8
24515	8.543	3.6364	0.1	3772.
24516	8.4512	3.9091	0.1	3800.2
24517	8.543	3.8182	0.1	3773.2
24518	8.4512	4.0909	0.1	3801.9
24519	8.543	4.	0.1	3774.7
24520	8.4512	4.2727	0.1	3803.8
24521	8.543	4.1818	0.1	3776.4
24522	8.4512	4.4545	0.1	3806.
24523	8.543	4.3636	0.1	3778.4
24524	8.4512	4.6364	0.1	3808.5
24525	8.543	4.5455	0.1	3780.7
24526	8.4512	4.8182	0.1	3811.1
24527	8.543	4.7273	0.1	3783.2
24528	8.4512	5.	0.1	3814.
24529	8.543	4.9091	0.1	3785.8
24530	8.4512	5.1818	0.1	3817.
24531	8.543	5.0909	0.1	3788.7
24532	8.4512	5.3636	0.1	3820.2
24533	8.543	5.2727	0.1	3791.7
24534	8.4512	5.5455	0.1	3823.5
24535	8.543	5.4545	0.1	3794.9
24536	8.4512	5.7273	0.1	3827.3
24537	8.543	5.6364	0.1	3798.2
24538	8.543	5.8182	0.1	3802.4
24539	8.4512	5.9091	0.1	3828.4
24540	8.6349	0.27273	0.1	3773.1
24541	8.7267	0.18182	0.1	3748.3
24542	8.6349	9.0909e-002	0.1	3773.9
24543	8.6349	0.45455	0.1	3769.5
24544	8.7267	0.36364	0.1	3744.2
24545	8.6349	0.63636	0.1	3766.4
24546	8.7267	0.54545	0.1	3741.1
24547	8.6349	0.81818	0.1	3763.4
24548	8.7267	0.72727	0.1	3738.1
24549	8.6349	1.	0.1	3760.6
24550	8.7267	0.90909	0.1	3735.3
24551	8.6349	1.1818	0.1	3757.9
24552	8.7267	1.0909	0.1	3732.6
24553	8.6349	1.3636	0.1	3755.4
24554	8.7267	1.2727	0.1	3730.1
24555	8.6349	1.5455	0.1	3753.1
24556	8.7267	1.4545	0.1	3727.8
24557	8.6349	1.7273	0.1	3751.
24558	8.7267	1.6364	0.1	3725.7
24559	8.6349	1.9091	0.1	3749.2
24560	8.7267	1.8182	0.1	3723.8
24561	8.6349	2.0909	0.1	3747.7
24562	8.7267	2.	0.1	3722.2
24563	8.6349	2.2727	0.1	3746.4
24564	8.7267	2.1818	0.1	3720.8
24565	8.6349	2.4545	0.1	3745.3
24566	8.7267	2.3636	0.1	3719.6
24567	8.6349	2.6364	0.1	3744.6
24568	8.7267	2.5455	0.1	3718.8
24569	8.6349	2.8182	0.1	3744.2
24570	8.7267	2.7273	0.1	3718.2
24571	8.6349	3.	0.1	3744.
24572	8.7267	2.9091	0.1	3717.9
24573	8.6349	3.1818	0.1	3744.2
24574	8.7267	3.0909	0.1	3717.9
24575	8.6349	3.3636	0.1	3744.6
24576	8.7267	3.2727	0.1	3718.2
24577	8.6349	3.5455	0.1	3745.3
24578	8.7267	3.4545	0.1	3718.8
24579	8.6349	3.7273	0.1	3746.4
24580	8.7267	3.6364	0.1	3719.6
24581	8.6349	3.9091	0.1	3747.7
24582	8.7267	3.8182	0.1	3720.8
24583	8.6349	4.0909	0.1	3749.2
24584	8.7267	4.	0.1	3722.2
24585	8.6349	4.2727	0.1	3751.
24586	8.7267	4.1818	0.1	3723.8
24587	8.6349	4.4545	0.1	3753.1
24588	8.7267	4.3636	0.1	3725.7
24589	8.6349	4.6364	0.1	3755.4
24590	8.7267	4.5455	0.1	3727.8
24591	8.6349	4.8182	0.1	3757.9
24592	8.7267	4.7273	0.1	3730.1
24593	8.6349	5.	0.1	3760.6
24594	8.7267	4.9091	0.1	3732.6
24595	8.6349	5.1818	0.1	3763.4
24596	8.7267	5.0909	0.1	3735.3
24597	8.6349	5.3636	0.1	3766.4
24598	8.7267	5.2727	0.1	3738.1
24599	8.6349	5.5455	0.1	3769.5
24600	8.7267	5.4545	0.1	3741.1
24601	8.6349	5.7273	0.1	3773.1
24602	8.7267	5.6364	0.1	3744.2
24603	8.7267	5.8182	0.1	3748.3
24604	8.6349	5.9091	0.1	3773.9
24605	8.8186	0.27273	0.1	3719.3
24606	8.9105	0.18182	0.1	3694.5
24607	8.8186	9.0909e-002	0.1	3719.8
24608	8.8186	0.45455	0.1	3715.8
24609	8.9105	0.36364	0.1	3690.5
24610	8.8186	0.63636	0.1	3712.8
24611	8.9105	0.54545	0.1	3687.6
24612	8.8186	0.81818	0.1	3710.
24613	8.9105	0.72727	0.1	3684.8
24614	8.8186	1.	0.1	3707.4
24615	8.9105	0.90909	0.1	3682.1
24616	8.8186	1.1818	0.1	3704.8
24617	8.9105	1.0909	0.1	3679.6
24618	8.8186	1.3636	0.1	3702.5
24619	8.9105	1.2727	0.1	3677.3
24620	8.8186	1.5455	0.1	3700.4
24621	8.9105	1.4545	0.1	3675.1
24622	8.8186	1.7273	0.1	3698.4
24623	8.9105	1.6364	0.1	3673.1
24624	8.8186	1.9091	0.1	3696.7
24625	8.9105	1.8182	0.1	3671.3
24626	8.8186	2.0909	0.1	3695.3
24627	8.9105	2.	0.1	3669.8
24628	8.8186	2.2727	0.1	3694.
24629	8.9105	2.1818	0.1	3668.5
24630	8.8186	2.4545	0.1	3693.1
24631	8.9105	2.3636	0.1	3667.4
24632	8.8186	2.6364	0.1	3692.4
24633	8.9105	2.5455	0.1	3666.6
24634	8.8186	2.8182	0.1	3692.
24635	8.9105	2.7273	0.1	3666.1
24636	8.8186	3.	0.1	3691.9
24637	8.9105	2.9091	0.1	3665.8
24638	8.8186	3.1818	0.1	3692.
24639	8.9105	3.0909	0.1	3665.8
24640	8.8186	3.3636	0.1	3692.4
24641	8.9105	3.2727	0.1	3666.1
24642	8.8186	3.5455	0.1	3693.1
24643	8.9105	3.4545	0.1	3666.6
24644	8.8186	3.7273	0.1	3694.
24645	8.9105	3.6364	0.1	3667.4
24646	8.8186	3.9091	0.1	3695.3
24647	8.9105	3.8182	0.1	3668.5
24648	8.8186	4.0909	0.1	3696.7
24649	8.9105	4.	0.1	3669.8
24650	8.8186	4.2727	0.1	3698.4
24651	8.9105	4.1818	0.1	3671.3
24652	8.8186	4.4545	0.1	3700.4
24653	8.9105	4.3636	0.1	3673.1
24654	8.8186	4.6364	0.1	3702.5
24655	8.9105	4.5455	0.1	3675.1
24656	8.8186	4.8182	0.1	3704.8
24657	8.9105	4.7273	0.1	3677.3
24658	8.8186	5.	0.1	3707.4
24659	8.9105	4.9091	0.1	3679.6
24660	8.8186	5.1818	0.1	3710.
24661	8.9105	5.0909	0.1	3682.1
24662	8.8186	5.3636	0.1	3712.8
24663	8.9105	5.2727	0.1	3684.8
24664	8.8186	5.5455	0.1	3715.8
24665	8.9105	5.4545	0.1	3687.6
24666	8.8186	5.7273	0.1	3719.3
24667	8.9105	5.6364	0.1	3690.5
24668	8.9105	5.8182	0.1	3694.5
24669	8.8186	5.9091	0.1	3719.8
24670	9.0023	0.27273	0.1	3665.7
24671	9.0942	0.18182	0.1	3640.9
24672	9.0023	9.0909e-002	0.1	3665.9
24673	9.0023	0.45455	0.1	3662.3
24674	9.0942	0.36364	0.1	3637.1
24675	9.0023	0.63636	0.1	3659.5
24676	9.0942	0.54545	0.1	3634.3
24677	9.0023	0.81818	0.1	3656.9
24678	9.0942	0.72727	0.1	3631.7
24679	9.0023	1.	0.1	3654.4
24680	9.0942	0.90909	0.1	3629.2
24681	9.0023	1.1818	0.1	3652.
24682	9.0942	1.0909	0.1	3626.8
24683	9.0023	1.3636	0.1	3649.8
24684	9.0942	1.2727	0.1	3624.6
24685	9.0023	1.5455	0.1	3647.8
24686	9.0942	1.4545	0.1	3622.6
24687	9.0023	1.7273	0.1	3646.
24688	9.0942	1.6364	0.1	3620.7
24689	9.0023	1.9091	0.1	3644.4
24690	9.0942	1.8182	0.1	3619.
24691	9.0023	2.0909	0.1	3643.
24692	9.0942	2.	0.1	3617.6
24693	9.0023	2.2727	0.1	3641.9
24694	9.0942	2.1818	0.1	3616.4
24695	9.0023	2.4545	0.1	3641.
24696	9.0942	2.3636	0.1	3615.4
24697	9.0023	2.6364	0.1	3640.3
24698	9.0942	2.5455	0.1	3614.6
24699	9.0023	2.8182	0.1	3640.
24700	9.0942	2.7273	0.1	3614.1
24701	9.0023	3.	0.1	3639.8
24702	9.0942	2.9091	0.1	3613.9
24703	9.0023	3.1818	0.1	3640.
24704	9.0942	3.0909	0.1	3613.9
24705	9.0023	3.3636	0.1	3640.3
24706	9.0942	3.2727	0.1	3614.1
24707	9.0023	3.5455	0.1	3641.
24708	9.0942	3.4545	0.1	3614.6
24709	9.0023	3.7273	0.1	3641.9
24710	9.0942	3.6364	0.1	3615.4
24711	9.0023	3.9091	0.1	3643.
24712	9.0942	3.8182	0.1	3616.4
24713	9.0023	4.0909	0.1	3644.4
24714	9.0942	4.	0.1	3617.6
24715	9.0023	4.2727	0.1	3646.
24716	9.0942	4.1818	0.1	3619.
24717	9.0023	4.4545	0.1	3647.8
24718	9.0942	4.3636	0.1	3620.7
24719	9.0023	4.6364	0.1	3649.8
24720	9.0942	4.5455	0.1	3622.6
24721	9.0023	4.8182	0.1	3652.
24722	9.0942	4.7273	0.1	3624.6
24723	9.0023	5.	0.1	3654.4
24724	9.0942	4.9091	0.1	3626.8
24725	9.0023	5.1818	0.1	3656.9
24726	9.0942	5.0909	0.1	3629.2
24727	9.0023	5.3636	0.1	3659.5
24728	9.0942	5.2727	0.1	3631.7
24729	9.0023	5.5455	0.1	3662.3
24730	9.0942	5.4545	0.1	3634.3
24731	9.0023	5.7273	0.1	3665.7
24732	9.0942	5.6364	0.1	3637.1
24733	9.0942	5.8182	0.1	3640.9
24734	9.0023	5.9091	0.1	3665.9
24735	9.186	0.27273	0.1	3612.3
24736	9.2779	0.18182	0.1	3587.7
24737	9.186	9.0909e-002	0.1	3612.3
24738	9.186	0.45455	0.1	3609.1
24739	9.2779	0.36364	0.1	3584.
24740	9.186	0.63636	0.1	3606.5
24741	9.2779	0.54545	0.1	3581.3
24742	9.186	0.81818	0.1	3604.
24743	9.2779	0.72727	0.1	3578.8
24744	9.186	1.	0.1	3601.6
24745	9.2779	0.90909	0.1	3576.5
24746	9.186	1.1818	0.1	3599.4
24747	9.2779	1.0909	0.1	3574.2
24748	9.186	1.3636	0.1	3597.3
24749	9.2779	1.2727	0.1	3572.1
24750	9.186	1.5455	0.1	3595.4
24751	9.2779	1.4545	0.1	3570.2
24752	9.186	1.7273	0.1	3593.7
24753	9.2779	1.6364	0.1	3568.5
24754	9.186	1.9091	0.1	3592.2
24755	9.2779	1.8182	0.1	3566.9
24756	9.186	2.0909	0.1	3590.9
24757	9.2779	2.	0.1	3565.5
24758	9.186	2.2727	0.1	3589.9
24759	9.2779	2.1818	0.1	3564.4
24760	9.186	2.4545	0.1	3589.
24761	9.2779	2.3636	0.1	3563.5
24762	9.186	2.6364	0.1	3588.4
24763	9.2779	2.5455	0.1	3562.8
24764	9.186	2.8182	0.1	3588.1
24765	9.2779	2.7273	0.1	3562.3
24766	9.186	3.	0.1	3587.9
24767	9.2779	2.9091	0.1	3562.1
24768	9.186	3.1818	0.1	3588.1
24769	9.2779	3.0909	0.1	3562.1
24770	9.186	3.3636	0.1	3588.4
24771	9.2779	3.2727	0.1	3562.3
24772	9.186	3.5455	0.1	3589.
24773	9.2779	3.4545	0.1	3562.8
24774	9.186	3.7273	0.1	3589.9
24775	9.2779	3.6364	0.1	3563.5
24776	9.186	3.9091	0.1	3590.9
24777	9.2779	3.8182	0.1	3564.4
24778	9.186	4.0909	0.1	3592.2
24779	9.2779	4.	0.1	3565.5
24780	9.186	4.2727	0.1	3593.7
24781	9.2779	4.1818	0.1	3566.9
24782	9.186	4.4545	0.1	3595.4
24783	9.2779	4.3636	0.1	3568.5
24784	9.186	4.6364	0.1	3597.3
24785	9.2779	4.5455	0.1	3570.2
24786	9.186	4.8182	0.1	3599.4
24787	9.2779	4.7273	0.1	3572.1
24788	9.186	5.	0.1	3601.6
24789	9.2779	4.9091	0.1	3574.2
24790	9.186	5.1818	0.1	3604.
24791	9.2779	5.0909	0.1	3576.5
24792	9.186	5.3636	0.1	3606.5
24793	9.2779	5.2727	0.1	3578.8
24794	9.186	5.5455	0.1	3609.1
24795	9.2779	5.4545	0.1	3581.3
24796	9.186	5.7273	0.1	3612.3
24797	9.2779	5.6364	0.1	3584.
24798	9.2779	5.8182	0.1	3587.7
24799	9.186	5.9091	0.1	3612.3
24800	9.3698	0.27273	0.1	3559.3
24801	9.4616	0.18182	0.1	3534.7
24802	9.3698	9.0909e-002	0.1	3559.
24803	9.3698	0.45455	0.1	3556.2
24804	9.4616	0.36364	0.1	3531.1
24805	9.3698	0.63636	0.1	3553.7
24806	9.4616	0.54545	0.1	3528.6
24807	9.3698	0.81818	0.1	3551.3
24808	9.4616	0.72727	0.1	3526.2
24809	9.3698	1.	0.1	3549.1
24810	9.4616	0.90909	0.1	3524.
24811	9.3698	1.1818	0.1	3547.
24812	9.4616	1.0909	0.1	3521.8
24813	9.3698	1.3636	0.1	3545.
24814	9.4616	1.2727	0.1	3519.9
24815	9.3698	1.5455	0.1	3543.2
24816	9.4616	1.4545	0.1	3518.1
24817	9.3698	1.7273	0.1	3541.6
24818	9.4616	1.6364	0.1	3516.4
24819	9.3698	1.9091	0.1	3540.2
24820	9.4616	1.8182	0.1	3514.9
24821	9.3698	2.0909	0.1	3539.
24822	9.4616	2.	0.1	3513.7
24823	9.3698	2.2727	0.1	3538.
24824	9.4616	2.1818	0.1	3512.6
24825	9.3698	2.4545	0.1	3537.2
24826	9.4616	2.3636	0.1	3511.7
24827	9.3698	2.6364	0.1	3536.6
24828	9.4616	2.5455	0.1	3511.
24829	9.3698	2.8182	0.1	3536.3
24830	9.4616	2.7273	0.1	3510.6
24831	9.3698	3.	0.1	3536.2
24832	9.4616	2.9091	0.1	3510.4
24833	9.3698	3.1818	0.1	3536.3
24834	9.4616	3.0909	0.1	3510.4
24835	9.3698	3.3636	0.1	3536.6
24836	9.4616	3.2727	0.1	3510.6
24837	9.3698	3.5455	0.1	3537.2
24838	9.4616	3.4545	0.1	3511.
24839	9.3698	3.7273	0.1	3538.
24840	9.4616	3.6364	0.1	3511.7
24841	9.3698	3.9091	0.1	3539.
24842	9.4616	3.8182	0.1	3512.6
24843	9.3698	4.0909	0.1	3540.2
24844	9.4616	4.	0.1	3513.7
24845	9.3698	4.2727	0.1	3541.6
24846	9.4616	4.1818	0.1	3514.9
24847	9.3698	4.4545	0.1	3543.2
24848	9.4616	4.3636	0.1	3516.4
24849	9.3698	4.6364	0.1	3545.
24850	9.4616	4.5455	0.1	3518.1
24851	9.3698	4.8182	0.1	3547.
24852	9.4616	4.7273	0.1	3519.9
24853	9.3698	5.	0.1	3549.1
24854	9.4616	4.9091	0.1	3521.8
24855	9.3698	5.1818	0.1	3551.3
24856	9.4616	5.0909	0.1	3524.
24857	9.3698	5.3636	0.1	3553.7
24858	9.4616	5.2727	0.1	3526.2
24859	9.3698	5.5455	0.1	3556.2
24860	9.4616	5.4545	0.1	3528.6
24861	9.3698	5.7273	0.1	3559.3
24862	9.4616	5.6364	0.1	3531.1
24863	9.4616	5.8182	0.1	3534.7
24864	9.3698	5.9091	0.1	3559.
24865	9.5535	0.27273	0.1	3506.4
24866	9.6453	0.18182	0.1	3482.
24867	9.5535	9.0909e-002	0.1	3506.
24868	9.5535	0.45455	0.1	3503.5
24869	9.6453	0.36364	0.1	3478.4
24870	9.5535	0.63636	0.1	3501.1
24871	9.6453	0.54545	0.1	3476.1
24872	9.5535	0.81818	0.1	3498.8
24873	9.6453	0.72727	0.1	3473.8
24874	9.5535	1.	0.1	3496.7
24875	9.6453	0.90909	0.1	3471.7
24876	9.5535	1.1818	0.1	3494.7
24877	9.6453	1.0909	0.1	3469.7
24878	9.5535	1.3636	0.1	3492.9
24879	9.6453	1.2727	0.1	3467.8
24880	9.5535	1.5455	0.1	3491.2
24881	9.6453	1.4545	0.1	3466.1
24882	9.5535	1.7273	0.1	3489.7
24883	9.6453	1.6364	0.1	3464.5
24884	9.5535	1.9091	0.1	3488.4
24885	9.6453	1.8182	0.1	3463.1
24886	9.5535	2.0909	0.1	3487.2
24887	9.6453	2.	0.1	3461.9
24888	9.5535	2.2727	0.1	3486.3
24889	9.6453	2.1818	0.1	3460.9
24890	9.5535	2.4545	0.1	3485.5
24891	9.6453	2.3636	0.1	3460.1
24892	9.5535	2.6364	0.1	3485.
24893	9.6453	2.5455	0.1	3459.5
24894	9.5535	2.8182	0.1	3484.7
24895	9.6453	2.7273	0.1	3459.1
24896	9.5535	3.	0.1	3484.6
24897	9.6453	2.9091	0.1	3458.8
24898	9.5535	3.1818	0.1	3484.7
24899	9.6453	3.0909	0.1	3458.8
24900	9.5535	3.3636	0.1	3485.
24901	9.6453	3.2727	0.1	3459.1
24902	9.5535	3.5455	0.1	3485.5
24903	9.6453	3.4545	0.1	3459.5
24904	9.5535	3.7273	0.1	3486.3
24905	9.6453	3.6364	0.1	3460.1
24906	9.5535	3.9091	0.1	3487.2
24907	9.6453	3.8182	0.1	3460.9
24908	9.5535	4.0909	0.1	3488.4
24909	9.6453	4.	0.1	3461.9
24910	9.5535	4.2727	0.1	3489.7
24911	9.6453	4.1818	0.1	3463.1
24912	9.5535	4.4545	0.1	3491.2
24913	9.6453	4.3636	0.1	3464.5
24914	9.5535	4.6364	0.1	3492.9
24915	9.6453	4.5455	0.1	3466.1
24916	9.5535	4.8182	0.1	3494.7
24917	9.6453	4.7273	0.1	3467.8
24918	9.5535	5.	0.1	3496.7
24919	9.6453	4.9091	0.1	3469.7
24920	9.5535	5.1818	0.1	3498.8
24921	9.6453	5.0909	0.1	3471.7
24922	9.5535	5.3636	0.1	3501.1
24923	9.6453	5.2727	0.1	3473.8
24924	9.5535	5.5455	0.1	3503.5
24925	9.6453	5.4545	0.1	3476.1
24926	9.5535	5.7273	0.1	3506.4
24927	9.6453	5.6364	0.1	3478.4
24928	9.6453	5.8182	0.1	3482.
24929	9.5535	5.9091	0.1	3506.
24930	9.7372	0.27273	0.1	3453.9
24931	9.8291	0.18182	0.1	3429.5
24932	9.7372	9.0909e-002	0.1	3453.2
24933	9.7372	0.45455	0.1	3451.
24934	9.8291	0.36364	0.1	3426.1
24935	9.7372	0.63636	0.1	3448.7
24936	9.8291	0.54545	0.1	3423.8
24937	9.7372	0.81818	0.1	3446.6
24938	9.8291	0.72727	0.1	3421.6
24939	9.7372	1.	0.1	3444.6
24940	9.8291	0.90909	0.1	3419.6
24941	9.7372	1.1818	0.1	3442.7
24942	9.8291	1.0909	0.1	3417.7
24943	9.7372	1.3636	0.1	3441.
24944	9.8291	1.2727	0.1	3415.9
24945	9.7372	1.5455	0.1	3439.4
24946	9.8291	1.4545	0.1	3414.3
24947	9.7372	1.7273	0.1	3438.
24948	9.8291	1.6364	0.1	3412.8
24949	9.7372	1.9091	0.1	3436.7
24950	9.8291	1.8182	0.1	3411.5
24951	9.7372	2.0909	0.1	3435.6
24952	9.8291	2.	0.1	3410.4
24953	9.7372	2.2727	0.1	3434.7
24954	9.8291	2.1818	0.1	3409.4
24955	9.7372	2.4545	0.1	3434.
24956	9.8291	2.3636	0.1	3408.6
24957	9.7372	2.6364	0.1	3433.5
24958	9.8291	2.5455	0.1	3408.1
24959	9.7372	2.8182	0.1	3433.2
24960	9.8291	2.7273	0.1	3407.7
24961	9.7372	3.	0.1	3433.1
24962	9.8291	2.9091	0.1	3407.5
24963	9.7372	3.1818	0.1	3433.2
24964	9.8291	3.0909	0.1	3407.5
24965	9.7372	3.3636	0.1	3433.5
24966	9.8291	3.2727	0.1	3407.7
24967	9.7372	3.5455	0.1	3434.
24968	9.8291	3.4545	0.1	3408.1
24969	9.7372	3.7273	0.1	3434.7
24970	9.8291	3.6364	0.1	3408.6
24971	9.7372	3.9091	0.1	3435.6
24972	9.8291	3.8182	0.1	3409.4
24973	9.7372	4.0909	0.1	3436.7
24974	9.8291	4.	0.1	3410.4
24975	9.7372	4.2727	0.1	3438.
24976	9.8291	4.1818	0.1	3411.5
24977	9.7372	4.4545	0.1	3439.4
24978	9.8291	4.3636	0.1	3412.8
24979	9.7372	4.6364	0.1	3441.
24980	9.8291	4.5455	0.1	3414.3
24981	9.7372	4.8182	0.1	3442.7
24982	9.8291	4.7273	0.1	3415.9
24983	9.7372	5.	0.1	3444.6
24984	9.8291	4.9091	0.1	3417.7
24985	9.7372	5.1818	0.1	3446.6
24986	9.8291	5.0909	0.1	3419.6
24987	9.7372	5.3636	0.1	3448.7
24988	9.8291	5.2727	0.1	3421.6
24989	9.7372	5.5455	0.1	3451.
24990	9.8291	5.4545	0.1	3423.8
24991	9.7372	5.7273	0.1	3453.9
24992	9.8291	5.6364	0.1	3426.1
24993	9.8291	5.8182	0.1	3429.5
24994	9.7372	5.9091	0.1	3453.2
24995	9.9209	0.27273	0.1	3401.6
24996	10.013	0.18182	0.1	3377.3
24997	9.9209	9.0909e-002	0.1	3400.7
24998	9.9209	0.45455	0.1	3398.8
24999	10.013	0.36364	0.1	3373.9
25000	9.9209	0.63636	0.1	3396.6
25001	10.013	0.54545	0.1	3371.7
25002	9.9209	0.81818	0.1	3394.6
25003	10.013	0.72727	0.1	3369.7
25004	9.9209	1.	0.1	3392.7
25005	10.013	0.90909	0.1	3367.7
25006	9.9209	1.1818	0.1	3390.9
25007	10.013	1.0909	0.1	3365.9
25008	9.9209	1.3636	0.1	3389.2
25009	10.013	1.2727	0.1	3364.3
25010	9.9209	1.5455	0.1	3387.7
25011	10.013	1.4545	0.1	3362.7
25012	9.9209	1.7273	0.1	3386.4
25013	10.013	1.6364	0.1	3361.3
25014	9.9209	1.9091	0.1	3385.2
25015	10.013	1.8182	0.1	3360.1
25016	9.9209	2.0909	0.1	3384.2
25017	10.013	2.	0.1	3359.
25018	9.9209	2.2727	0.1	3383.3
25019	10.013	2.1818	0.1	3358.1
25020	9.9209	2.4545	0.1	3382.7
25021	10.013	2.3636	0.1	3357.4
25022	9.9209	2.6364	0.1	3382.2
25023	10.013	2.5455	0.1	3356.8
25024	9.9209	2.8182	0.1	3381.9
25025	10.013	2.7273	0.1	3356.4
25026	9.9209	3.	0.1	3381.8
25027	10.013	2.9091	0.1	3356.2
25028	9.9209	3.1818	0.1	3381.9
25029	10.013	3.0909	0.1	3356.2
25030	9.9209	3.3636	0.1	3382.2
25031	10.013	3.2727	0.1	3356.4
25032	9.9209	3.5455	0.1	3382.7
25033	10.013	3.4545	0.1	3356.8
25034	9.9209	3.7273	0.1	3383.3
25035	10.013	3.6364	0.1	3357.4
25036	9.9209	3.9091	0.1	3384.2
25037	10.013	3.8182	0.1	3358.1
25038	9.9209	4.0909	0.1	3385.2
25039	10.013	4.	0.1	3359.
25040	9.9209	4.2727	0.1	3386.4
25041	10.013	4.1818	0.1	3360.1
25042	9.9209	4.4545	0.1	3387.7
25043	10.013	4.3636	0.1	3361.3
25044	9.9209	4.6364	0.1	3389.2
25045	10.013	4.5455	0.1	3362.7
25046	9.9209	4.8182	0.1	3390.9
25047	10.013	4.7273	0.1	3364.3
25048	9.9209	5.	0.1	3392.7
25049	10.013	4.9091	0.1	3365.9
25050	9.9209	5.1818	0.1	3394.6
25051	10.013	5.0909	0.1	3367.7
25052	9.9209	5.3636	0.1	3396.6
25053	10.013	5.2727	0.1	3369.7
25054	9.9209	5.5455	0.1	3398.8
25055	10.013	5.4545	0.1	3371.7
25056	9.9209	5.7273	0.1	3401.6
25057	10.013	5.6364	0.1	3373.9
25058	10.013	5.8182	0.1	3377.3
25059	9.9209	5.9091	0.1	3400.7
25060	10.105	0.27273	0.1	3349.5
25061	10.197	0.18182	0.1	3325.3
25062	10.105	9.0909e-002	0.1	3348.5
25063	10.105	0.45455	0.1	3346.8
25064	10.197	0.36364	0.1	3322.
25065	10.105	0.63636	0.1	3344.7
25066	10.197	0.54545	0.1	3319.9
25067	10.105	0.81818	0.1	3342.8
25068	10.197	0.72727	0.1	3317.9
25069	10.105	1.	0.1	3341.
25070	10.197	0.90909	0.1	3316.1
25071	10.105	1.1818	0.1	3339.3
25072	10.197	1.0909	0.1	3314.4
25073	10.105	1.3636	0.1	3337.7
25074	10.197	1.2727	0.1	3312.8
25075	10.105	1.5455	0.1	3336.3
25076	10.197	1.4545	0.1	3311.3
25077	10.105	1.7273	0.1	3335.
25078	10.197	1.6364	0.1	3310.
25079	10.105	1.9091	0.1	3333.9
25080	10.197	1.8182	0.1	3308.8
25081	10.105	2.0909	0.1	3332.9
25082	10.197	2.	0.1	3307.8
25083	10.105	2.2727	0.1	3332.1
25084	10.197	2.1818	0.1	3306.9
25085	10.105	2.4545	0.1	3331.5
25086	10.197	2.3636	0.1	3306.2
25087	10.105	2.6364	0.1	3331.
25088	10.197	2.5455	0.1	3305.7
25089	10.105	2.8182	0.1	3330.7
25090	10.197	2.7273	0.1	3305.3
25091	10.105	3.	0.1	3330.7
25092	10.197	2.9091	0.1	3305.2
25093	10.105	3.1818	0.1	3330.7
25094	10.197	3.0909	0.1	3305.2
25095	10.105	3.3636	0.1	3331.
25096	10.197	3.2727	0.1	3305.3
25097	10.105	3.5455	0.1	3331.5
25098	10.197	3.4545	0.1	3305.7
25099	10.105	3.7273	0.1	3332.1
25100	10.197	3.6364	0.1	3306.2
25101	10.105	3.9091	0.1	3332.9
25102	10.197	3.8182	0.1	3306.9
25103	10.105	4.0909	0.1	3333.9
25104	10.197	4.	0.1	3307.8
25105	10.105	4.2727	0.1	3335.
25106	10.197	4.1818	0.1	3308.8
25107	10.105	4.4545	0.1	3336.3
25108	10.197	4.3636	0.1	3310.
25109	10.105	4.6364	0.1	3337.7
25110	10.197	4.5455	0.1	3311.3
25111	10.105	4.8182	0.1	3339.3
25112	10.197	4.7273	0.1	3312.8
25113	10.105	5.	0.1	3341.
25114	10.197	4.9091	0.1	3314.4
25115	10.105	5.1818	0.1	3342.8
25116	10.197	5.0909	0.1	3316.1
25117	10.105	5.3636	0.1	3344.7
25118	10.197	5.2727	0.1	3317.9
25119	10.105	5.5455	0.1	3346.8
25120	10.197	5.4545	0.1	3319.9
25121	10.105	5.7273	0.1	3349.5
25122	10.197	5.6364	0.1	3322.
25123	10.197	5.8182	0.1	3325.3
25124	10.105	5.9091	0.1	3348.5
25125	10.288	0.27273	0.1	3297.7
25126	10.38	0.18182	0.1	3273.6
25127	10.288	9.0909e-002	0.1	3296.5
25128	10.288	0.45455	0.1	3295.
25129	10.38	0.36364	0.1	3270.3
25130	10.288	0.63636	0.1	3293.1
25131	10.38	0.54545	0.1	3268.3
25132	10.288	0.81818	0.1	3291.2
25133	10.38	0.72727	0.1	3266.4
25134	10.288	1.	0.1	3289.5
25135	10.38	0.90909	0.1	3264.7
25136	10.288	1.1818	0.1	3287.9
25137	10.38	1.0909	0.1	3263.
25138	10.288	1.3636	0.1	3286.4
25139	10.38	1.2727	0.1	3261.5
25140	10.288	1.5455	0.1	3285.
25141	10.38	1.4545	0.1	3260.1
25142	10.288	1.7273	0.1	3283.8
25143	10.38	1.6364	0.1	3258.8
25144	10.288	1.9091	0.1	3282.7
25145	10.38	1.8182	0.1	3257.7
25146	10.288	2.0909	0.1	3281.8
25147	10.38	2.	0.1	3256.7
25148	10.288	2.2727	0.1	3281.
25149	10.38	2.1818	0.1	3255.9
25150	10.288	2.4545	0.1	3280.4
25151	10.38	2.3636	0.1	3255.3
25152	10.288	2.6364	0.1	3280.
25153	10.38	2.5455	0.1	3254.8
25154	10.288	2.8182	0.1	3279.8
25155	10.38	2.7273	0.1	3254.4
25156	10.288	3.	0.1	3279.7
25157	10.38	2.9091	0.1	3254.3
25158	10.288	3.1818	0.1	3279.8
25159	10.38	3.0909	0.1	3254.3
25160	10.288	3.3636	0.1	3280.
25161	10.38	3.2727	0.1	3254.4
25162	10.288	3.5455	0.1	3280.4
25163	10.38	3.4545	0.1	3254.8
25164	10.288	3.7273	0.1	3281.
25165	10.38	3.6364	0.1	3255.3
25166	10.288	3.9091	0.1	3281.8
25167	10.38	3.8182	0.1	3255.9
25168	10.288	4.0909	0.1	3282.7
25169	10.38	4.	0.1	3256.7
25170	10.288	4.2727	0.1	3283.8
25171	10.38	4.1818	0.1	3257.7
25172	10.288	4.4545	0.1	3285.
25173	10.38	4.3636	0.1	3258.8
25174	10.288	4.6364	0.1	3286.4
25175	10.38	4.5455	0.1	3260.1
25176	10.288	4.8182	0.1	3287.9
25177	10.38	4.7273	0.1	3261.5
25178	10.288	5.	0.1	3289.5
25179	10.38	4.9091	0.1	3263.
25180	10.288	5.1818	0.1	3291.2
25181	10.38	5.0909	0.1	3264.7
25182	10.288	5.3636	0.1	3293.1
25183	10.38	5.2727	0.1	3266.4
25184	10.288	5.5455	0.1	3295.
25185	10.38	5.4545	0.1	3268.3
25186	10.288	5.7273	0.1	3297.7
25187	10.38	5.6364	0.1	3270.3
25188	10.38	5.8182	0.1	3273.6
25189	10.288	5.9091	0.1	3296.5
25190	10.472	0.27273	0.1	3246.1
25191	10.564	0.18182	0.1	3222.1
25192	10.472	9.0909e-002	0.1	3244.7
25193	10.472	0.45455	0.1	3243.5
25194	10.564	0.36364	0.1	3218.8
25195	10.472	0.63636	0.1	3241.6
25196	10.564	0.54545	0.1	3216.9
25197	10.472	0.81818	0.1	3239.8
25198	10.564	0.72727	0.1	3215.1
25199	10.472	1.	0.1	3238.2
25200	10.564	0.90909	0.1	3213.4
25201	10.472	1.1818	0.1	3236.6
25202	10.564	1.0909	0.1	3211.9
25203	10.472	1.3636	0.1	3235.2
25204	10.564	1.2727	0.1	3210.4
25205	10.472	1.5455	0.1	3233.9
25206	10.564	1.4545	0.1	3209.1
25207	10.472	1.7273	0.1	3232.7
25208	10.564	1.6364	0.1	3207.9
25209	10.472	1.9091	0.1	3231.7
25210	10.564	1.8182	0.1	3206.8
25211	10.472	2.0909	0.1	3230.9
25212	10.564	2.	0.1	3205.9
25213	10.472	2.2727	0.1	3230.1
25214	10.564	2.1818	0.1	3205.1
25215	10.472	2.4545	0.1	3229.6
25216	10.564	2.3636	0.1	3204.5
25217	10.472	2.6364	0.1	3229.2
25218	10.564	2.5455	0.1	3204.
25219	10.472	2.8182	0.1	3228.9
25220	10.564	2.7273	0.1	3203.7
25221	10.472	3.	0.1	3228.8
25222	10.564	2.9091	0.1	3203.5
25223	10.472	3.1818	0.1	3228.9
25224	10.564	3.0909	0.1	3203.5
25225	10.472	3.3636	0.1	3229.2
25226	10.564	3.2727	0.1	3203.7
25227	10.472	3.5455	0.1	3229.6
25228	10.564	3.4545	0.1	3204.
25229	10.472	3.7273	0.1	3230.1
25230	10.564	3.6364	0.1	3204.5
25231	10.472	3.9091	0.1	3230.9
25232	10.564	3.8182	0.1	3205.1
25233	10.472	4.0909	0.1	3231.7
25234	10.564	4.	0.1	3205.9
25235	10.472	4.2727	0.1	3232.7
25236	10.564	4.1818	0.1	3206.8
25237	10.472	4.4545	0.1	3233.9
25238	10.564	4.3636	0.1	3207.9
25239	10.472	4.6364	0.1	3235.2
25240	10.564	4.5455	0.1	3209.1
25241	10.472	4.8182	0.1	3236.6
25242	10.564	4.7273	0.1	3210.4
25243	10.472	5.	0.1	3238.2
25244	10.564	4.9091	0.1	3211.9
25245	10.472	5.1818	0.1	3239.8
25246	10.564	5.0909	0.1	3213.4
25247	10.472	5.3636	0.1	3241.6
25248	10.564	5.2727	0.1	3215.1
25249	10.472	5.5455	0.1	3243.5
25250	10.564	5.4545	0.1	3216.9
25251	10.472	5.7273	0.1	3246.1
25252	10.564	5.6364	0.1	3218.8
25253	10.564	5.8182	0.1	3222.1
25254	10.472	5.9091	0.1	3244.7
25255	10.656	0.27273	0.1	3194.7
25256	10.748	0.18182	0.1	3170.8
25257	10.656	9.0909e-002	0.1	3193.2
25258	10.656	0.45455	0.1	3192.2
25259	10.748	0.36364	0.1	3167.6
25260	10.656	0.63636	0.1	3190.4
25261	10.748	0.54545	0.1	3165.7
25262	10.656	0.81818	0.1	3188.7
25263	10.748	0.72727	0.1	3164.
25264	10.656	1.	0.1	3187.1
25265	10.748	0.90909	0.1	3162.4
25266	10.656	1.1818	0.1	3185.6
25267	10.748	1.0909	0.1	3160.9
25268	10.656	1.3636	0.1	3184.2
25269	10.748	1.2727	0.1	3159.5
25270	10.656	1.5455	0.1	3183.
25271	10.748	1.4545	0.1	3158.2
25272	10.656	1.7273	0.1	3181.9
25273	10.748	1.6364	0.1	3157.1
25274	10.656	1.9091	0.1	3180.9
25275	10.748	1.8182	0.1	3156.1
25276	10.656	2.0909	0.1	3180.1
25277	10.748	2.	0.1	3155.2
25278	10.656	2.2727	0.1	3179.4
25279	10.748	2.1818	0.1	3154.4
25280	10.656	2.4545	0.1	3178.9
25281	10.748	2.3636	0.1	3153.8
25282	10.656	2.6364	0.1	3178.5
25283	10.748	2.5455	0.1	3153.4
25284	10.656	2.8182	0.1	3178.3
25285	10.748	2.7273	0.1	3153.1
25286	10.656	3.	0.1	3178.2
25287	10.748	2.9091	0.1	3152.9
25288	10.656	3.1818	0.1	3178.3
25289	10.748	3.0909	0.1	3152.9
25290	10.656	3.3636	0.1	3178.5
25291	10.748	3.2727	0.1	3153.1
25292	10.656	3.5455	0.1	3178.9
25293	10.748	3.4545	0.1	3153.4
25294	10.656	3.7273	0.1	3179.4
25295	10.748	3.6364	0.1	3153.8
25296	10.656	3.9091	0.1	3180.1
25297	10.748	3.8182	0.1	3154.4
25298	10.656	4.0909	0.1	3180.9
25299	10.748	4.	0.1	3155.2
25300	10.656	4.2727	0.1	3181.9
25301	10.748	4.1818	0.1	3156.1
25302	10.656	4.4545	0.1	3183.
25303	10.748	4.3636	0.1	3157.1
25304	10.656	4.6364	0.1	3184.2
25305	10.748	4.5455	0.1	3158.2
25306	10.656	4.8182	0.1	3185.6
25307	10.748	4.7273	0.1	3159.5
25308	10.656	5.	0.1	3187.1
25309	10.748	4.9091	0.1	3160.9
25310	10.656	5.1818	0.1	3188.7
25311	10.748	5.0909	0.1	3162.4
25312	10.656	5.3636	0.1	3190.4
25313	10.748	5.2727	0.1	3164.
25314	10.656	5.5455	0.1	3192.2
25315	10.748	5.4545	0.1	3165.7
25316	10.656	5.7273	0.1	3194.7
25317	10.748	5.6364	0.1	3167.6
25318	10.748	5.8182	0.1	3170.8
25319	10.656	5.9091	0.1	3193.2
25320	10.84	0.27273	0.1	3143.6
25321	10.931	0.18182	0.1	3119.8
25322	10.84	9.0909e-002	0.1	3141.9
25323	10.84	0.45455	0.1	3141.1
25324	10.931	0.36364	0.1	3116.6
25325	10.84	0.63636	0.1	3139.4
25326	10.931	0.54545	0.1	3114.8
25327	10.84	0.81818	0.1	3137.7
25328	10.931	0.72727	0.1	3113.2
25329	10.84	1.	0.1	3136.2
25330	10.931	0.90909	0.1	3111.6
25331	10.84	1.1818	0.1	3134.8
25332	10.931	1.0909	0.1	3110.2
25333	10.84	1.3636	0.1	3133.5
25334	10.931	1.2727	0.1	3108.8
25335	10.84	1.5455	0.1	3132.3
25336	10.931	1.4545	0.1	3107.6
25337	10.84	1.7273	0.1	3131.2
25338	10.931	1.6364	0.1	3106.5
25339	10.84	1.9091	0.1	3130.3
25340	10.931	1.8182	0.1	3105.5
25341	10.84	2.0909	0.1	3129.5
25342	10.931	2.	0.1	3104.7
25343	10.84	2.2727	0.1	3128.9
25344	10.931	2.1818	0.1	3104.
25345	10.84	2.4545	0.1	3128.3
25346	10.931	2.3636	0.1	3103.4
25347	10.84	2.6364	0.1	3128.
25348	10.931	2.5455	0.1	3103.
25349	10.84	2.8182	0.1	3127.8
25350	10.931	2.7273	0.1	3102.7
25351	10.84	3.	0.1	3127.7
25352	10.931	2.9091	0.1	3102.5
25353	10.84	3.1818	0.1	3127.8
25354	10.931	3.0909	0.1	3102.5
25355	10.84	3.3636	0.1	3128.
25356	10.931	3.2727	0.1	3102.7
25357	10.84	3.5455	0.1	3128.3
25358	10.931	3.4545	0.1	3103.
25359	10.84	3.7273	0.1	3128.9
25360	10.931	3.6364	0.1	3103.4
25361	10.84	3.9091	0.1	3129.5
25362	10.931	3.8182	0.1	3104.
25363	10.84	4.0909	0.1	3130.3
25364	10.931	4.	0.1	3104.7
25365	10.84	4.2727	0.1	3131.2
25366	10.931	4.1818	0.1	3105.5
25367	10.84	4.4545	0.1	3132.3
25368	10.931	4.3636	0.1	3106.5
25369	10.84	4.6364	0.1	3133.5
25370	10.931	4.5455	0.1	3107.6
25371	10.84	4.8182	0.1	3134.8
25372	10.931	4.7273	0.1	3108.8
25373	10.84	5.	0.1	3136.2
25374	10.931	4.9091	0.1	3110.2
25375	10.84	5.1818	0.1	3137.7
25376	10.931	5.0909	0.1	3111.6
25377	10.84	5.3636	0.1	3139.4
25378	10.931	5.2727	0.1	3113.2
25379	10.84	5.5455	0.1	3141.1
25380	10.931	5.4545	0.1	3114.8
25381	10.84	5.7273	0.1	3143.6
25382	10.931	5.6364	0.1	3116.6
25383	10.931	5.8182	0.1	3119.8
25384	10.84	5.9091	0.1	3141.9
25385	11.023	0.27273	0.1	3092.7
25386	11.115	0.18182	0.1	3068.9
25387	11.023	9.0909e-002	0.1	3090.9
25388	11.023	0.45455	0.1	3090.3
25389	11.115	0.36364	0.1	3065.8
25390	11.023	0.63636	0.1	3088.6
25391	11.115	0.54545	0.1	3064.1
25392	11.023	0.81818	0.1	3087.
25393	11.115	0.72727	0.1	3062.5
25394	11.023	1.	0.1	3085.5
25395	11.115	0.90909	0.1	3061.
25396	11.023	1.1818	0.1	3084.2
25397	11.115	1.0909	0.1	3059.6
25398	11.023	1.3636	0.1	3082.9
25399	11.115	1.2727	0.1	3058.3
25400	11.023	1.5455	0.1	3081.8
25401	11.115	1.4545	0.1	3057.1
25402	11.023	1.7273	0.1	3080.8
25403	11.115	1.6364	0.1	3056.1
25404	11.023	1.9091	0.1	3079.9
25405	11.115	1.8182	0.1	3055.1
25406	11.023	2.0909	0.1	3079.1
25407	11.115	2.	0.1	3054.3
25408	11.023	2.2727	0.1	3078.5
25409	11.115	2.1818	0.1	3053.7
25410	11.023	2.4545	0.1	3078.
25411	11.115	2.3636	0.1	3053.1
25412	11.023	2.6364	0.1	3077.6
25413	11.115	2.5455	0.1	3052.7
25414	11.023	2.8182	0.1	3077.4
25415	11.115	2.7273	0.1	3052.4
25416	11.023	3.	0.1	3077.4
25417	11.115	2.9091	0.1	3052.3
25418	11.023	3.1818	0.1	3077.4
25419	11.115	3.0909	0.1	3052.3
25420	11.023	3.3636	0.1	3077.6
25421	11.115	3.2727	0.1	3052.4
25422	11.023	3.5455	0.1	3078.
25423	11.115	3.4545	0.1	3052.7
25424	11.023	3.7273	0.1	3078.5
25425	11.115	3.6364	0.1	3053.1
25426	11.023	3.9091	0.1	3079.1
25427	11.115	3.8182	0.1	3053.7
25428	11.023	4.0909	0.1	3079.9
25429	11.115	4.	0.1	3054.3
25430	11.023	4.2727	0.1	3080.8
25431	11.115	4.1818	0.1	3055.1
25432	11.023	4.4545	0.1	3081.8
25433	11.115	4.3636	0.1	3056.1
25434	11.023	4.6364	0.1	3082.9
25435	11.115	4.5455	0.1	3057.1
25436	11.023	4.8182	0.1	3084.2
25437	11.115	4.7273	0.1	3058.3
25438	11.023	5.	0.1	3085.5
25439	11.115	4.9091	0.1	3059.6
25440	11.023	5.1818	0.1	3087.
25441	11.115	5.0909	0.1	3061.
25442	11.023	5.3636	0.1	3088.6
25443	11.115	5.2727	0.1	3062.5
25444	11.023	5.5455	0.1	3090.3
25445	11.115	5.4545	0.1	3064.1
25446	11.023	5.7273	0.1	3092.7
25447	11.115	5.6364	0.1	3065.8
25448	11.115	5.8182	0.1	3068.9
25449	11.023	5.9091	0.1	3090.9
25450	11.207	0.27273	0.1	3042.
25451	11.299	0.18182	0.1	3018.4
25452	11.207	9.0909e-002	0.1	3040.1
25453	11.207	0.45455	0.1	3039.6
25454	11.299	0.36364	0.1	3015.3
25455	11.207	0.63636	0.1	3038.
25456	11.299	0.54545	0.1	3013.6
25457	11.207	0.81818	0.1	3036.5
25458	11.299	0.72727	0.1	3012.
25459	11.207	1.	0.1	3035.
25460	11.299	0.90909	0.1	3010.6
25461	11.207	1.1818	0.1	3033.7
25462	11.299	1.0909	0.1	3009.2
25463	11.207	1.3636	0.1	3032.5
25464	11.299	1.2727	0.1	3008.
25465	11.207	1.5455	0.1	3031.4
25466	11.299	1.4545	0.1	3006.9
25467	11.207	1.7273	0.1	3030.5
25468	11.299	1.6364	0.1	3005.9
25469	11.207	1.9091	0.1	3029.6
25470	11.299	1.8182	0.1	3005.
25471	11.207	2.0909	0.1	3028.9
25472	11.299	2.	0.1	3004.2
25473	11.207	2.2727	0.1	3028.3
25474	11.299	2.1818	0.1	3003.5
25475	11.207	2.4545	0.1	3027.8
25476	11.299	2.3636	0.1	3003.
25477	11.207	2.6364	0.1	3027.5
25478	11.299	2.5455	0.1	3002.6
25479	11.207	2.8182	0.1	3027.3
25480	11.299	2.7273	0.1	3002.4
25481	11.207	3.	0.1	3027.2
25482	11.299	2.9091	0.1	3002.2
25483	11.207	3.1818	0.1	3027.3
25484	11.299	3.0909	0.1	3002.2
25485	11.207	3.3636	0.1	3027.5
25486	11.299	3.2727	0.1	3002.4
25487	11.207	3.5455	0.1	3027.8
25488	11.299	3.4545	0.1	3002.6
25489	11.207	3.7273	0.1	3028.3
25490	11.299	3.6364	0.1	3003.
25491	11.207	3.9091	0.1	3028.9
25492	11.299	3.8182	0.1	3003.5
25493	11.207	4.0909	0.1	3029.6
25494	11.299	4.	0.1	3004.2
25495	11.207	4.2727	0.1	3030.5
25496	11.299	4.1818	0.1	3005.
25497	11.207	4.4545	0.1	3031.4
25498	11.299	4.3636	0.1	3005.9
25499	11.207	4.6364	0.1	3032.5
25500	11.299	4.5455	0.1	3006.9
25501	11.207	4.8182	0.1	3033.7
25502	11.299	4.7273	0.1	3008.
25503	11.207	5.	0.1	3035.
25504	11.299	4.9091	0.1	3009.2
25505	11.207	5.1818	0.1	3036.5
25506	11.299	5.0909	0.1	3010.6
25507	11.207	5.3636	0.1	3038.
25508	11.299	5.2727	0.1	3012.
25509	11.207	5.5455	0.1	3039.6
25510	11.299	5.4545	0.1	3013.6
25511	11.207	5.7273	0.1	3042.
25512	11.299	5.6364	0.1	3015.3
25513	11.299	5.8182	0.1	3018.4
25514	11.207	5.9091	0.1	3040.1
25515	11.391	0.27273	0.1	2991.6
25516	11.483	0.18182	0.1	2968.
25517	11.391	9.0909e-002	0.1	2989.5
25518	11.391	0.45455	0.1	2989.2
25519	11.483	0.36364	0.1	2964.9
25520	11.391	0.63636	0.1	2987.6
25521	11.483	0.54545	0.1	2963.3
25522	11.391	0.81818	0.1	2986.1
25523	11.483	0.72727	0.1	2961.8
25524	11.391	1.	0.1	2984.8
25525	11.483	0.90909	0.1	2960.4
25526	11.391	1.1818	0.1	2983.5
25527	11.483	1.0909	0.1	2959.1
25528	11.391	1.3636	0.1	2982.3
25529	11.483	1.2727	0.1	2957.9
25530	11.391	1.5455	0.1	2981.3
25531	11.483	1.4545	0.1	2956.8
25532	11.391	1.7273	0.1	2980.4
25533	11.483	1.6364	0.1	2955.8
25534	11.391	1.9091	0.1	2979.5
25535	11.483	1.8182	0.1	2955.
25536	11.391	2.0909	0.1	2978.8
25537	11.483	2.	0.1	2954.2
25538	11.391	2.2727	0.1	2978.3
25539	11.483	2.1818	0.1	2953.6
25540	11.391	2.4545	0.1	2977.8
25541	11.483	2.3636	0.1	2953.1
25542	11.391	2.6364	0.1	2977.5
25543	11.483	2.5455	0.1	2952.7
25544	11.391	2.8182	0.1	2977.3
25545	11.483	2.7273	0.1	2952.5
25546	11.391	3.	0.1	2977.2
25547	11.483	2.9091	0.1	2952.3
25548	11.391	3.1818	0.1	2977.3
25549	11.483	3.0909	0.1	2952.3
25550	11.391	3.3636	0.1	2977.5
25551	11.483	3.2727	0.1	2952.5
25552	11.391	3.5455	0.1	2977.8
25553	11.483	3.4545	0.1	2952.7
25554	11.391	3.7273	0.1	2978.3
25555	11.483	3.6364	0.1	2953.1
25556	11.391	3.9091	0.1	2978.8
25557	11.483	3.8182	0.1	2953.6
25558	11.391	4.0909	0.1	2979.5
25559	11.483	4.	0.1	2954.2
25560	11.391	4.2727	0.1	2980.4
25561	11.483	4.1818	0.1	2955.
25562	11.391	4.4545	0.1	2981.3
25563	11.483	4.3636	0.1	2955.8
25564	11.391	4.6364	0.1	2982.3
25565	11.483	4.5455	0.1	2956.8
25566	11.391	4.8182	0.1	2983.5
25567	11.483	4.7273	0.1	2957.9
25568	11.391	5.	0.1	2984.8
25569	11.483	4.9091	0.1	2959.1
25570	11.391	5.1818	0.1	2986.1
25571	11.483	5.0909	0.1	2960.4
25572	11.391	5.3636	0.1	2987.6
25573	11.483	5.2727	0.1	2961.8
25574	11.391	5.5455	0.1	2989.2
25575	11.483	5.4545	0.1	2963.3
25576	11.391	5.7273	0.1	2991.6
25577	11.483	5.6364	0.1	2964.9
25578	11.483	5.8182	0.1	2968.
25579	11.391	5.9091	0.1	2989.5
25580	11.574	0.27273	0.1	2941.3
25581	11.666	0.18182	0.1	2917.9
25582	11.574	9.0909e-002	0.1	2939.1
25583	11.574	0.45455	0.1	2939.
25584	11.666	0.36364	0.1	2914.8
25585	11.574	0.63636	0.1	2937.4
25586	11.666	0.54545	0.1	2913.2
25587	11.574	0.81818	0.1	2936.
25588	11.666	0.72727	0.1	2911.8
25589	11.574	1.	0.1	2934.7
25590	11.666	0.90909	0.1	2910.4
25591	11.574	1.1818	0.1	2933.5
25592	11.666	1.0909	0.1	2909.1
25593	11.574	1.3636	0.1	2932.4
25594	11.666	1.2727	0.1	2908.
25595	11.574	1.5455	0.1	2931.3
25596	11.666	1.4545	0.1	2906.9
25597	11.574	1.7273	0.1	2930.4
25598	11.666	1.6364	0.1	2906.
25599	11.574	1.9091	0.1	2929.6
25600	11.666	1.8182	0.1	2905.2
25601	11.574	2.0909	0.1	2929.
25602	11.666	2.	0.1	2904.4
25603	11.574	2.2727	0.1	2928.4
25604	11.666	2.1818	0.1	2903.8
25605	11.574	2.4545	0.1	2928.
25606	11.666	2.3636	0.1	2903.4
25607	11.574	2.6364	0.1	2927.7
25608	11.666	2.5455	0.1	2903.
25609	11.574	2.8182	0.1	2927.5
25610	11.666	2.7273	0.1	2902.7
25611	11.574	3.	0.1	2927.4
25612	11.666	2.9091	0.1	2902.6
25613	11.574	3.1818	0.1	2927.5
25614	11.666	3.0909	0.1	2902.6
25615	11.574	3.3636	0.1	2927.7
25616	11.666	3.2727	0.1	2902.7
25617	11.574	3.5455	0.1	2928.
25618	11.666	3.4545	0.1	2903.
25619	11.574	3.7273	0.1	2928.4
25620	11.666	3.6364	0.1	2903.4
25621	11.574	3.9091	0.1	2929.
25622	11.666	3.8182	0.1	2903.8
25623	11.574	4.0909	0.1	2929.6
25624	11.666	4.	0.1	2904.4
25625	11.574	4.2727	0.1	2930.4
25626	11.666	4.1818	0.1	2905.2
25627	11.574	4.4545	0.1	2931.3
25628	11.666	4.3636	0.1	2906.
25629	11.574	4.6364	0.1	2932.4
25630	11.666	4.5455	0.1	2906.9
25631	11.574	4.8182	0.1	2933.5
25632	11.666	4.7273	0.1	2908.
25633	11.574	5.	0.1	2934.7
25634	11.666	4.9091	0.1	2909.1
25635	11.574	5.1818	0.1	2936.
25636	11.666	5.0909	0.1	2910.4
25637	11.574	5.3636	0.1	2937.4
25638	11.666	5.2727	0.1	2911.8
25639	11.574	5.5455	0.1	2939.
25640	11.666	5.4545	0.1	2913.2
25641	11.574	5.7273	0.1	2941.3
25642	11.666	5.6364	0.1	2914.8
25643	11.666	5.8182	0.1	2917.9
25644	11.574	5.9091	0.1	2939.1
25645	11.758	0.27273	0.1	2891.3
25646	11.85	0.18182	0.1	2868.
25647	11.758	9.0909e-002	0.1	2889.
25648	11.758	0.45455	0.1	2889.
25649	11.85	0.36364	0.1	2864.9
25650	11.758	0.63636	0.1	2887.5
25651	11.85	0.54545	0.1	2863.3
25652	11.758	0.81818	0.1	2886.1
25653	11.85	0.72727	0.1	2861.9
25654	11.758	1.	0.1	2884.8
25655	11.85	0.90909	0.1	2860.6
25656	11.758	1.1818	0.1	2883.6
25657	11.85	1.0909	0.1	2859.4
25658	11.758	1.3636	0.1	2882.6
25659	11.85	1.2727	0.1	2858.3
25660	11.758	1.5455	0.1	2881.6
25661	11.85	1.4545	0.1	2857.3
25662	11.758	1.7273	0.1	2880.7
25663	11.85	1.6364	0.1	2856.3
25664	11.758	1.9091	0.1	2879.9
25665	11.85	1.8182	0.1	2855.5
25666	11.758	2.0909	0.1	2879.3
25667	11.85	2.	0.1	2854.8
25668	11.758	2.2727	0.1	2878.8
25669	11.85	2.1818	0.1	2854.3
25670	11.758	2.4545	0.1	2878.3
25671	11.85	2.3636	0.1	2853.8
25672	11.758	2.6364	0.1	2878.
25673	11.85	2.5455	0.1	2853.4
25674	11.758	2.8182	0.1	2877.9
25675	11.85	2.7273	0.1	2853.2
25676	11.758	3.	0.1	2877.8
25677	11.85	2.9091	0.1	2853.1
25678	11.758	3.1818	0.1	2877.9
25679	11.85	3.0909	0.1	2853.1
25680	11.758	3.3636	0.1	2878.
25681	11.85	3.2727	0.1	2853.2
25682	11.758	3.5455	0.1	2878.3
25683	11.85	3.4545	0.1	2853.4
25684	11.758	3.7273	0.1	2878.8
25685	11.85	3.6364	0.1	2853.8
25686	11.758	3.9091	0.1	2879.3
25687	11.85	3.8182	0.1	2854.3
25688	11.758	4.0909	0.1	2879.9
25689	11.85	4.	0.1	2854.8
25690	11.758	4.2727	0.1	2880.7
25691	11.85	4.1818	0.1	2855.5
25692	11.758	4.4545	0.1	2881.6
25693	11.85	4.3636	0.1	2856.3
25694	11.758	4.6364	0.1	2882.6
25695	11.85	4.5455	0.1	2857.3
25696	11.758	4.8182	0.1	2883.6
25697	11.85	4.7273	0.1	2858.3
25698	11.758	5.	0.1	2884.8
25699	11.85	4.9091	0.1	2859.4
25700	11.758	5.1818	0.1	2886.1
25701	11.85	5.0909	0.1	2860.6
25702	11.758	5.3636	0.1	2887.5
25703	11.85	5.2727	0.1	2861.9
25704	11.758	5.5455	0.1	2889.
25705	11.85	5.4545	0.1	2863.3
25706	11.758	5.7273	0.1	2891.3
25707	11.85	5.6364	0.1	2864.9
25708	11.85	5.8182	0.1	2868.
25709	11.758	5.9091	0.1	2889.
25710	11.942	0.27273	0.1	2841.5
25711	12.034	0.18182	0.1	2818.3
25712	11.942	9.0909e-002	0.1	2839.1
25713	11.942	0.45455	0.1	2839.2
25714	12.034	0.36364	0.1	2815.2
25715	11.942	0.63636	0.1	2837.8
25716	12.034	0.54545	0.1	2813.7
25717	11.942	0.81818	0.1	2836.4
25718	12.034	0.72727	0.1	2812.3
25719	11.942	1.	0.1	2835.2
25720	12.034	0.90909	0.1	2811.
25721	11.942	1.1818	0.1	2834.
25722	12.034	1.0909	0.1	2809.8
25723	11.942	1.3636	0.1	2833.
25724	12.034	1.2727	0.1	2808.8
25725	11.942	1.5455	0.1	2832.
25726	12.034	1.4545	0.1	2807.8
25727	11.942	1.7273	0.1	2831.2
25728	12.034	1.6364	0.1	2806.9
25729	11.942	1.9091	0.1	2830.4
25730	12.034	1.8182	0.1	2806.1
25731	11.942	2.0909	0.1	2829.8
25732	12.034	2.	0.1	2805.4
25733	11.942	2.2727	0.1	2829.3
25734	12.034	2.1818	0.1	2804.9
25735	11.942	2.4545	0.1	2828.9
25736	12.034	2.3636	0.1	2804.4
25737	11.942	2.6364	0.1	2828.6
25738	12.034	2.5455	0.1	2804.1
25739	11.942	2.8182	0.1	2828.4
25740	12.034	2.7273	0.1	2803.8
25741	11.942	3.	0.1	2828.4
25742	12.034	2.9091	0.1	2803.7
25743	11.942	3.1818	0.1	2828.4
25744	12.034	3.0909	0.1	2803.7
25745	11.942	3.3636	0.1	2828.6
25746	12.034	3.2727	0.1	2803.8
25747	11.942	3.5455	0.1	2828.9
25748	12.034	3.4545	0.1	2804.1
25749	11.942	3.7273	0.1	2829.3
25750	12.034	3.6364	0.1	2804.4
25751	11.942	3.9091	0.1	2829.8
25752	12.034	3.8182	0.1	2804.9
25753	11.942	4.0909	0.1	2830.4
25754	12.034	4.	0.1	2805.4
25755	11.942	4.2727	0.1	2831.2
25756	12.034	4.1818	0.1	2806.1
25757	11.942	4.4545	0.1	2832.
25758	12.034	4.3636	0.1	2806.9
25759	11.942	4.6364	0.1	2833.
25760	12.034	4.5455	0.1	2807.8
25761	11.942	4.8182	0.1	2834.
25762	12.034	4.7273	0.1	2808.8
25763	11.942	5.	0.1	2835.2
25764	12.034	4.9091	0.1	2809.8
25765	11.942	5.1818	0.1	2836.4
25766	12.034	5.0909	0.1	2811.
25767	11.942	5.3636	0.1	2837.8
25768	12.034	5.2727	0.1	2812.3
25769	11.942	5.5455	0.1	2839.2
25770	12.034	5.4545	0.1	2813.7
25771	11.942	5.7273	0.1	2841.5
25772	12.034	5.6364	0.1	2815.2
25773	12.034	5.8182	0.1	2818.3
25774	11.942	5.9091	0.1	2839.1
25775	12.126	0.27273	0.1	2791.9
25776	12.217	0.18182	0.1	2768.8
25777	12.126	9.0909e-002	0.1	2789.4
25778	12.126	0.45455	0.1	2789.7
25779	12.217	0.36364	0.1	2765.8
25780	12.126	0.63636	0.1	2788.2
25781	12.217	0.54545	0.1	2764.2
25782	12.126	0.81818	0.1	2786.9
25783	12.217	0.72727	0.1	2762.9
25784	12.126	1.	0.1	2785.7
25785	12.217	0.90909	0.1	2761.6
25786	12.126	1.1818	0.1	2784.6
25787	12.217	1.0909	0.1	2760.5
25788	12.126	1.3636	0.1	2783.5
25789	12.217	1.2727	0.1	2759.4
25790	12.126	1.5455	0.1	2782.6
25791	12.217	1.4545	0.1	2758.5
25792	12.126	1.7273	0.1	2781.8
25793	12.217	1.6364	0.1	2757.6
25794	12.126	1.9091	0.1	2781.1
25795	12.217	1.8182	0.1	2756.9
25796	12.126	2.0909	0.1	2780.5
25797	12.217	2.	0.1	2756.2
25798	12.126	2.2727	0.1	2780.
25799	12.217	2.1818	0.1	2755.7
25800	12.126	2.4545	0.1	2779.6
25801	12.217	2.3636	0.1	2755.2
25802	12.126	2.6364	0.1	2779.3
25803	12.217	2.5455	0.1	2754.9
25804	12.126	2.8182	0.1	2779.1
25805	12.217	2.7273	0.1	2754.7
25806	12.126	3.	0.1	2779.1
25807	12.217	2.9091	0.1	2754.6
25808	12.126	3.1818	0.1	2779.1
25809	12.217	3.0909	0.1	2754.6
25810	12.126	3.3636	0.1	2779.3
25811	12.217	3.2727	0.1	2754.7
25812	12.126	3.5455	0.1	2779.6
25813	12.217	3.4545	0.1	2754.9
25814	12.126	3.7273	0.1	2780.
25815	12.217	3.6364	0.1	2755.2
25816	12.126	3.9091	0.1	2780.5
25817	12.217	3.8182	0.1	2755.7
25818	12.126	4.0909	0.1	2781.1
25819	12.217	4.	0.1	2756.2
25820	12.126	4.2727	0.1	2781.8
25821	12.217	4.1818	0.1	2756.9
25822	12.126	4.4545	0.1	2782.6
25823	12.217	4.3636	0.1	2757.6
25824	12.126	4.6364	0.1	2783.5
25825	12.217	4.5455	0.1	2758.5
25826	12.126	4.8182	0.1	2784.6
25827	12.217	4.7273	0.1	2759.4
25828	12.126	5.	0.1	2785.7
25829	12.217	4.9091	0.1	2760.5
25830	12.126	5.1818	0.1	2786.9
25831	12.217	5.0909	0.1	2761.6
25832	12.126	5.3636	0.1	2788.2
25833	12.217	5.2727	0.1	2762.9
25834	12.126	5.5455	0.1	2789.7
25835	12.217	5.4545	0.1	2764.2
25836	12.126	5.7273	0.1	2791.9
25837	12.217	5.6364	0.1	2765.8
25838	12.217	5.8182	0.1	2768.8
25839	12.126	5.9091	0.1	2789.4
25840	12.309	0.27273	0.1	2742.5
25841	12.401	0.18182	0.1	2719.5
25842	12.309	9.0909e-002	0.1	2739.9
25843	12.309	0.45455	0.1	2740.3
25844	12.401	0.36364	0.1	2716.5
25845	12.309	0.63636	0.1	2738.9
25846	12.401	0.54545	0.1	2715.
25847	12.309	0.81818	0.1	2737.6
25848	12.401	0.72727	0.1	2713.7
25849	12.309	1.	0.1	2736.4
25850	12.401	0.90909	0.1	2712.5
25851	12.309	1.1818	0.1	2735.3
25852	12.401	1.0909	0.1	2711.3
25853	12.309	1.3636	0.1	2734.3
25854	12.401	1.2727	0.1	2710.3
25855	12.309	1.5455	0.1	2733.4
25856	12.401	1.4545	0.1	2709.4
25857	12.309	1.7273	0.1	2732.6
25858	12.401	1.6364	0.1	2708.5
25859	12.309	1.9091	0.1	2732.
25860	12.401	1.8182	0.1	2707.8
25861	12.309	2.0909	0.1	2731.4
25862	12.401	2.	0.1	2707.2
25863	12.309	2.2727	0.1	2730.9
25864	12.401	2.1818	0.1	2706.6
25865	12.309	2.4545	0.1	2730.5
25866	12.401	2.3636	0.1	2706.2
25867	12.309	2.6364	0.1	2730.2
25868	12.401	2.5455	0.1	2705.9
25869	12.309	2.8182	0.1	2730.1
25870	12.401	2.7273	0.1	2705.7
25871	12.309	3.	0.1	2730.
25872	12.401	2.9091	0.1	2705.6
25873	12.309	3.1818	0.1	2730.1
25874	12.401	3.0909	0.1	2705.6
25875	12.309	3.3636	0.1	2730.2
25876	12.401	3.2727	0.1	2705.7
25877	12.309	3.5455	0.1	2730.5
25878	12.401	3.4545	0.1	2705.9
25879	12.309	3.7273	0.1	2730.9
25880	12.401	3.6364	0.1	2706.2
25881	12.309	3.9091	0.1	2731.4
25882	12.401	3.8182	0.1	2706.6
25883	12.309	4.0909	0.1	2732.
25884	12.401	4.	0.1	2707.2
25885	12.309	4.2727	0.1	2732.6
25886	12.401	4.1818	0.1	2707.8
25887	12.309	4.4545	0.1	2733.4
25888	12.401	4.3636	0.1	2708.5
25889	12.309	4.6364	0.1	2734.3
25890	12.401	4.5455	0.1	2709.4
25891	12.309	4.8182	0.1	2735.3
25892	12.401	4.7273	0.1	2710.3
25893	12.309	5.	0.1	2736.4
25894	12.401	4.9091	0.1	2711.3
25895	12.309	5.1818	0.1	2737.6
25896	12.401	5.0909	0.1	2712.5
25897	12.309	5.3636	0.1	2738.9
25898	12.401	5.2727	0.1	2713.7
25899	12.309	5.5455	0.1	2740.3
25900	12.401	5.4545	0.1	2715.
25901	12.309	5.7273	0.1	2742.5
25902	12.401	5.6364	0.1	2716.5
25903	12.401	5.8182	0.1	2719.5
25904	12.309	5.9091	0.1	2739.9
25905	12.493	0.27273	0.1	2693.4
25906	12.585	0.18182	0.1	2670.5
25907	12.493	9.0909e-002	0.1	2690.7
25908	12.493	0.45455	0.1	2691.2
25909	12.585	0.36364	0.1	2667.4
25910	12.493	0.63636	0.1	2689.8
25911	12.585	0.54545	0.1	2666.
25912	12.493	0.81818	0.1	2688.5
25913	12.585	0.72727	0.1	2664.7
25914	12.493	1.	0.1	2687.4
25915	12.585	0.90909	0.1	2663.5
25916	12.493	1.1818	0.1	2686.3
25917	12.585	1.0909	0.1	2662.4
25918	12.493	1.3636	0.1	2685.3
25919	12.585	1.2727	0.1	2661.4
25920	12.493	1.5455	0.1	2684.4
25921	12.585	1.4545	0.1	2660.5
25922	12.493	1.7273	0.1	2683.7
25923	12.585	1.6364	0.1	2659.7
25924	12.493	1.9091	0.1	2683.
25925	12.585	1.8182	0.1	2658.9
25926	12.493	2.0909	0.1	2682.4
25927	12.585	2.	0.1	2658.3
25928	12.493	2.2727	0.1	2682.
25929	12.585	2.1818	0.1	2657.8
25930	12.493	2.4545	0.1	2681.6
25931	12.585	2.3636	0.1	2657.4
25932	12.493	2.6364	0.1	2681.3
25933	12.585	2.5455	0.1	2657.1
25934	12.493	2.8182	0.1	2681.2
25935	12.585	2.7273	0.1	2656.9
25936	12.493	3.	0.1	2681.1
25937	12.585	2.9091	0.1	2656.8
25938	12.493	3.1818	0.1	2681.2
25939	12.585	3.0909	0.1	2656.8
25940	12.493	3.3636	0.1	2681.3
25941	12.585	3.2727	0.1	2656.9
25942	12.493	3.5455	0.1	2681.6
25943	12.585	3.4545	0.1	2657.1
25944	12.493	3.7273	0.1	2682.
25945	12.585	3.6364	0.1	2657.4
25946	12.493	3.9091	0.1	2682.4
25947	12.585	3.8182	0.1	2657.8
25948	12.493	4.0909	0.1	2683.
25949	12.585	4.	0.1	2658.3
25950	12.493	4.2727	0.1	2683.7
25951	12.585	4.1818	0.1	2658.9
25952	12.493	4.4545	0.1	2684.4
25953	12.585	4.3636	0.1	2659.7
25954	12.493	4.6364	0.1	2685.3
25955	12.585	4.5455	0.1	2660.5
25956	12.493	4.8182	0.1	2686.3
25957	12.585	4.7273	0.1	2661.4
25958	12.493	5.	0.1	2687.4
25959	12.585	4.9091	0.1	2662.4
25960	12.493	5.1818	0.1	2688.5
25961	12.585	5.0909	0.1	2663.5
25962	12.493	5.3636	0.1	2689.8
25963	12.585	5.2727	0.1	2664.7
25964	12.493	5.5455	0.1	2691.2
25965	12.585	5.4545	0.1	2666.
25966	12.493	5.7273	0.1	2693.4
25967	12.585	5.6364	0.1	2667.4
25968	12.585	5.8182	0.1	2670.5
25969	12.493	5.9091	0.1	2690.7
25970	12.677	0.27273	0.1	2644.4
25971	12.769	0.18182	0.1	2621.6
25972	12.677	9.0909e-002	0.1	2641.6
25973	12.677	0.45455	0.1	2642.2
25974	12.769	0.36364	0.1	2618.6
25975	12.677	0.63636	0.1	2640.9
25976	12.769	0.54545	0.1	2617.1
25977	12.677	0.81818	0.1	2639.6
25978	12.769	0.72727	0.1	2615.9
25979	12.677	1.	0.1	2638.5
25980	12.769	0.90909	0.1	2614.7
25981	12.677	1.1818	0.1	2637.4
25982	12.769	1.0909	0.1	2613.6
25983	12.677	1.3636	0.1	2636.5
25984	12.769	1.2727	0.1	2612.6
25985	12.677	1.5455	0.1	2635.6
25986	12.769	1.4545	0.1	2611.8
25987	12.677	1.7273	0.1	2634.9
25988	12.769	1.6364	0.1	2611.
25989	12.677	1.9091	0.1	2634.2
25990	12.769	1.8182	0.1	2610.3
25991	12.677	2.0909	0.1	2633.7
25992	12.769	2.	0.1	2609.7
25993	12.677	2.2727	0.1	2633.2
25994	12.769	2.1818	0.1	2609.2
25995	12.677	2.4545	0.1	2632.9
25996	12.769	2.3636	0.1	2608.8
25997	12.677	2.6364	0.1	2632.6
25998	12.769	2.5455	0.1	2608.5
25999	12.677	2.8182	0.1	2632.5
26000	12.769	2.7273	0.1	2608.3
26001	12.677	3.	0.1	2632.4
26002	12.769	2.9091	0.1	2608.2
26003	12.677	3.1818	0.1	2632.5
26004	12.769	3.0909	0.1	2608.2
26005	12.677	3.3636	0.1	2632.6
26006	12.769	3.2727	0.1	2608.3
26007	12.677	3.5455	0.1	2632.9
26008	12.769	3.4545	0.1	2608.5
26009	12.677	3.7273	0.1	2633.2
26010	12.769	3.6364	0.1	2608.8
26011	12.677	3.9091	0.1	2633.7
26012	12.769	3.8182	0.1	2609.2
26013	12.677	4.0909	0.1	2634.2
26014	12.769	4.	0.1	2609.7
26015	12.677	4.2727	0.1	2634.9
26016	12.769	4.1818	0.1	2610.3
26017	12.677	4.4545	0.1	2635.6
26018	12.769	4.3636	0.1	2611.
26019	12.677	4.6364	0.1	2636.5
26020	12.769	4.5455	0.1	2611.8
26021	12.677	4.8182	0.1	2637.4
26022	12.769	4.7273	0.1	2612.6
26023	12.677	5.	0.1	2638.5
26024	12.769	4.9091	0.1	2613.6
26025	12.677	5.1818	0.1	2639.6
26026	12.769	5.0909	0.1	2614.7
26027	12.677	5.3636	0.1	2640.9
26028	12.769	5.2727	0.1	2615.9
26029	12.677	5.5455	0.1	2642.2
26030	12.769	5.4545	0.1	2617.1
26031	12.677	5.7273	0.1	2644.4
26032	12.769	5.6364	0.1	2618.6
26033	12.769	5.8182	0.1	2621.6
26034	12.677	5.9091	0.1	2641.6
26035	12.86	0.27273	0.1	2595.7
26036	12.952	0.18182	0.1	2573.
26037	12.86	9.0909e-002	0.1	2592.8
26038	12.86	0.45455	0.1	2593.5
26039	12.952	0.36364	0.1	2569.9
26040	12.86	0.63636	0.1	2592.1
26041	12.952	0.54545	0.1	2568.5
26042	12.86	0.81818	0.1	2590.9
26043	12.952	0.72727	0.1	2567.3
26044	12.86	1.	0.1	2589.8
26045	12.952	0.90909	0.1	2566.1
26046	12.86	1.1818	0.1	2588.8
26047	12.952	1.0909	0.1	2565.1
26048	12.86	1.3636	0.1	2587.9
26049	12.952	1.2727	0.1	2564.1
26050	12.86	1.5455	0.1	2587.
26051	12.952	1.4545	0.1	2563.2
26052	12.86	1.7273	0.1	2586.3
26053	12.952	1.6364	0.1	2562.5
26054	12.86	1.9091	0.1	2585.7
26055	12.952	1.8182	0.1	2561.8
26056	12.86	2.0909	0.1	2585.1
26057	12.952	2.	0.1	2561.2
26058	12.86	2.2727	0.1	2584.7
26059	12.952	2.1818	0.1	2560.7
26060	12.86	2.4545	0.1	2584.3
26061	12.952	2.3636	0.1	2560.3
26062	12.86	2.6364	0.1	2584.1
26063	12.952	2.5455	0.1	2560.
26064	12.86	2.8182	0.1	2583.9
26065	12.952	2.7273	0.1	2559.8
26066	12.86	3.	0.1	2583.9
26067	12.952	2.9091	0.1	2559.7
26068	12.86	3.1818	0.1	2583.9
26069	12.952	3.0909	0.1	2559.7
26070	12.86	3.3636	0.1	2584.1
26071	12.952	3.2727	0.1	2559.8
26072	12.86	3.5455	0.1	2584.3
26073	12.952	3.4545	0.1	2560.
26074	12.86	3.7273	0.1	2584.7
26075	12.952	3.6364	0.1	2560.3
26076	12.86	3.9091	0.1	2585.1
26077	12.952	3.8182	0.1	2560.7
26078	12.86	4.0909	0.1	2585.7
26079	12.952	4.	0.1	2561.2
26080	12.86	4.2727	0.1	2586.3
26081	12.952	4.1818	0.1	2561.8
26082	12.86	4.4545	0.1	2587.
26083	12.952	4.3636	0.1	2562.5
26084	12.86	4.6364	0.1	2587.9
26085	12.952	4.5455	0.1	2563.2
26086	12.86	4.8182	0.1	2588.8
26087	12.952	4.7273	0.1	2564.1
26088	12.86	5.	0.1	2589.8
26089	12.952	4.9091	0.1	2565.1
26090	12.86	5.1818	0.1	2590.9
26091	12.952	5.0909	0.1	2566.1
26092	12.86	5.3636	0.1	2592.1
26093	12.952	5.2727	0.1	2567.3
26094	12.86	5.5455	0.1	2593.5
26095	12.952	5.4545	0.1	2568.5
26096	12.86	5.7273	0.1	2595.7
26097	12.952	5.6364	0.1	2569.9
26098	12.952	5.8182	0.1	2573.
26099	12.86	5.9091	0.1	2592.8
26100	13.044	0.27273	0.1	2547.1
26101	13.136	0.18182	0.1	2524.5
26102	13.044	9.0909e-002	0.1	2544.2
26103	13.044	0.45455	0.1	2545.
26104	13.136	0.36364	0.1	2521.5
26105	13.044	0.63636	0.1	2543.6
26106	13.136	0.54545	0.1	2520.1
26107	13.044	0.81818	0.1	2542.4
26108	13.136	0.72727	0.1	2518.9
26109	13.044	1.	0.1	2541.4
26110	13.136	0.90909	0.1	2517.8
26111	13.044	1.1818	0.1	2540.4
26112	13.136	1.0909	0.1	2516.7
26113	13.044	1.3636	0.1	2539.4
26114	13.136	1.2727	0.1	2515.8
26115	13.044	1.5455	0.1	2538.6
26116	13.136	1.4545	0.1	2514.9
26117	13.044	1.7273	0.1	2537.9
26118	13.136	1.6364	0.1	2514.2
26119	13.044	1.9091	0.1	2537.3
26120	13.136	1.8182	0.1	2513.5
26121	13.044	2.0909	0.1	2536.8
26122	13.136	2.	0.1	2512.9
26123	13.044	2.2727	0.1	2536.3
26124	13.136	2.1818	0.1	2512.4
26125	13.044	2.4545	0.1	2536.
26126	13.136	2.3636	0.1	2512.1
26127	13.044	2.6364	0.1	2535.7
26128	13.136	2.5455	0.1	2511.8
26129	13.044	2.8182	0.1	2535.6
26130	13.136	2.7273	0.1	2511.6
26131	13.044	3.	0.1	2535.5
26132	13.136	2.9091	0.1	2511.5
26133	13.044	3.1818	0.1	2535.6
26134	13.136	3.0909	0.1	2511.5
26135	13.044	3.3636	0.1	2535.7
26136	13.136	3.2727	0.1	2511.6
26137	13.044	3.5455	0.1	2536.
26138	13.136	3.4545	0.1	2511.8
26139	13.044	3.7273	0.1	2536.3
26140	13.136	3.6364	0.1	2512.1
26141	13.044	3.9091	0.1	2536.8
26142	13.136	3.8182	0.1	2512.4
26143	13.044	4.0909	0.1	2537.3
26144	13.136	4.	0.1	2512.9
26145	13.044	4.2727	0.1	2537.9
26146	13.136	4.1818	0.1	2513.5
26147	13.044	4.4545	0.1	2538.6
26148	13.136	4.3636	0.1	2514.2
26149	13.044	4.6364	0.1	2539.4
26150	13.136	4.5455	0.1	2514.9
26151	13.044	4.8182	0.1	2540.4
26152	13.136	4.7273	0.1	2515.8
26153	13.044	5.	0.1	2541.4
26154	13.136	4.9091	0.1	2516.7
26155	13.044	5.1818	0.1	2542.4
26156	13.136	5.0909	0.1	2517.8
26157	13.044	5.3636	0.1	2543.6
26158	13.136	5.2727	0.1	2518.9
26159	13.044	5.5455	0.1	2545.
26160	13.136	5.4545	0.1	2520.1
26161	13.044	5.7273	0.1	2547.1
26162	13.136	5.6364	0.1	2521.5
26163	13.136	5.8182	0.1	2524.5
26164	13.044	5.9091	0.1	2544.2
26165	13.228	0.27273	0.1	2498.8
26166	13.32	0.18182	0.1	2476.3
26167	13.228	9.0909e-002	0.1	2495.8
26168	13.228	0.45455	0.1	2496.6
26169	13.32	0.36364	0.1	2473.3
26170	13.228	0.63636	0.1	2495.3
26171	13.32	0.54545	0.1	2471.9
26172	13.228	0.81818	0.1	2494.2
26173	13.32	0.72727	0.1	2470.7
26174	13.228	1.	0.1	2493.1
26175	13.32	0.90909	0.1	2469.6
26176	13.228	1.1818	0.1	2492.1
26177	13.32	1.0909	0.1	2468.6
26178	13.228	1.3636	0.1	2491.2
26179	13.32	1.2727	0.1	2467.6
26180	13.228	1.5455	0.1	2490.4
26181	13.32	1.4545	0.1	2466.8
26182	13.228	1.7273	0.1	2489.7
26183	13.32	1.6364	0.1	2466.
26184	13.228	1.9091	0.1	2489.1
26185	13.32	1.8182	0.1	2465.4
26186	13.228	2.0909	0.1	2488.6
26187	13.32	2.	0.1	2464.8
26188	13.228	2.2727	0.1	2488.2
26189	13.32	2.1818	0.1	2464.4
26190	13.228	2.4545	0.1	2487.8
26191	13.32	2.3636	0.1	2464.
26192	13.228	2.6364	0.1	2487.6
26193	13.32	2.5455	0.1	2463.7
26194	13.228	2.8182	0.1	2487.5
26195	13.32	2.7273	0.1	2463.5
26196	13.228	3.	0.1	2487.4
26197	13.32	2.9091	0.1	2463.4
26198	13.228	3.1818	0.1	2487.5
26199	13.32	3.0909	0.1	2463.4
26200	13.228	3.3636	0.1	2487.6
26201	13.32	3.2727	0.1	2463.5
26202	13.228	3.5455	0.1	2487.8
26203	13.32	3.4545	0.1	2463.7
26204	13.228	3.7273	0.1	2488.2
26205	13.32	3.6364	0.1	2464.
26206	13.228	3.9091	0.1	2488.6
26207	13.32	3.8182	0.1	2464.4
26208	13.228	4.0909	0.1	2489.1
26209	13.32	4.	0.1	2464.8
26210	13.228	4.2727	0.1	2489.7
26211	13.32	4.1818	0.1	2465.4
26212	13.228	4.4545	0.1	2490.4
26213	13.32	4.3636	0.1	2466.
26214	13.228	4.6364	0.1	2491.2
26215	13.32	4.5455	0.1	2466.8
26216	13.228	4.8182	0.1	2492.1
26217	13.32	4.7273	0.1	2467.6
26218	13.228	5.	0.1	2493.1
26219	13.32	4.9091	0.1	2468.6
26220	13.228	5.1818	0.1	2494.2
26221	13.32	5.0909	0.1	2469.6
26222	13.228	5.3636	0.1	2495.3
26223	13.32	5.2727	0.1	2470.7
26224	13.228	5.5455	0.1	2496.6
26225	13.32	5.4545	0.1	2471.9
26226	13.228	5.7273	0.1	2498.8
26227	13.32	5.6364	0.1	2473.3
26228	13.32	5.8182	0.1	2476.3
26229	13.228	5.9091	0.1	2495.8
26230	13.412	0.27273	0.1	2450.7
26231	13.503	0.18182	0.1	2428.3
26232	13.412	9.0909e-002	0.1	2447.6
26233	13.412	0.45455	0.1	2448.5
26234	13.503	0.36364	0.1	2425.3
26235	13.412	0.63636	0.1	2447.2
26236	13.503	0.54545	0.1	2423.9
26237	13.412	0.81818	0.1	2446.1
26238	13.503	0.72727	0.1	2422.7
26239	13.412	1.	0.1	2445.
26240	13.503	0.90909	0.1	2421.6
26241	13.412	1.1818	0.1	2444.1
26242	13.503	1.0909	0.1	2420.6
26243	13.412	1.3636	0.1	2443.2
26244	13.503	1.2727	0.1	2419.7
26245	13.412	1.5455	0.1	2442.4
26246	13.503	1.4545	0.1	2418.9
26247	13.412	1.7273	0.1	2441.7
26248	13.503	1.6364	0.1	2418.1
26249	13.412	1.9091	0.1	2441.1
26250	13.503	1.8182	0.1	2417.5
26251	13.412	2.0909	0.1	2440.6
26252	13.503	2.	0.1	2416.9
26253	13.412	2.2727	0.1	2440.2
26254	13.503	2.1818	0.1	2416.5
26255	13.412	2.4545	0.1	2439.9
26256	13.503	2.3636	0.1	2416.1
26257	13.412	2.6364	0.1	2439.6
26258	13.503	2.5455	0.1	2415.9
26259	13.412	2.8182	0.1	2439.5
26260	13.503	2.7273	0.1	2415.7
26261	13.412	3.	0.1	2439.4
26262	13.503	2.9091	0.1	2415.6
26263	13.412	3.1818	0.1	2439.5
26264	13.503	3.0909	0.1	2415.6
26265	13.412	3.3636	0.1	2439.6
26266	13.503	3.2727	0.1	2415.7
26267	13.412	3.5455	0.1	2439.9
26268	13.503	3.4545	0.1	2415.9
26269	13.412	3.7273	0.1	2440.2
26270	13.503	3.6364	0.1	2416.1
26271	13.412	3.9091	0.1	2440.6
26272	13.503	3.8182	0.1	2416.5
26273	13.412	4.0909	0.1	2441.1
26274	13.503	4.	0.1	2416.9
26275	13.412	4.2727	0.1	2441.7
26276	13.503	4.1818	0.1	2417.5
26277	13.412	4.4545	0.1	2442.4
26278	13.503	4.3636	0.1	2418.1
26279	13.412	4.6364	0.1	2443.2
26280	13.503	4.5455	0.1	2418.9
26281	13.412	4.8182	0.1	2444.1
26282	13.503	4.7273	0.1	2419.7
26283	13.412	5.	0.1	2445.
26284	13.503	4.9091	0.1	2420.6
26285	13.412	5.1818	0.1	2446.1
26286	13.503	5.0909	0.1	2421.6
26287	13.412	5.3636	0.1	2447.2
26288	13.503	5.2727	0.1	2422.7
26289	13.412	5.5455	0.1	2448.5
26290	13.503	5.4545	0.1	2423.9
26291	13.412	5.7273	0.1	2450.7
26292	13.503	5.6364	0.1	2425.3
26293	13.503	5.8182	0.1	2428.3
26294	13.412	5.9091	0.1	2447.6
26295	13.595	0.27273	0.1	2402.8
26296	13.687	0.18182	0.1	2380.5
26297	13.595	9.0909e-002	0.1	2399.6
26298	13.595	0.45455	0.1	2400.6
26299	13.687	0.36364	0.1	2377.4
26300	13.595	0.63636	0.1	2399.3
26301	13.687	0.54545	0.1	2376.1
26302	13.595	0.81818	0.1	2398.2
26303	13.687	0.72727	0.1	2374.9
26304	13.595	1.	0.1	2397.1
26305	13.687	0.90909	0.1	2373.8
26306	13.595	1.1818	0.1	2396.2
26307	13.687	1.0909	0.1	2372.8
26308	13.595	1.3636	0.1	2395.3
26309	13.687	1.2727	0.1	2371.9
26310	13.595	1.5455	0.1	2394.6
26311	13.687	1.4545	0.1	2371.1
26312	13.595	1.7273	0.1	2393.9
26313	13.687	1.6364	0.1	2370.4
26314	13.595	1.9091	0.1	2393.3
26315	13.687	1.8182	0.1	2369.8
26316	13.595	2.0909	0.1	2392.8
26317	13.687	2.	0.1	2369.2
26318	13.595	2.2727	0.1	2392.4
26319	13.687	2.1818	0.1	2368.8
26320	13.595	2.4545	0.1	2392.1
26321	13.687	2.3636	0.1	2368.4
26322	13.595	2.6364	0.1	2391.9
26323	13.687	2.5455	0.1	2368.2
26324	13.595	2.8182	0.1	2391.7
26325	13.687	2.7273	0.1	2368.
26326	13.595	3.	0.1	2391.7
26327	13.687	2.9091	0.1	2367.9
26328	13.595	3.1818	0.1	2391.7
26329	13.687	3.0909	0.1	2367.9
26330	13.595	3.3636	0.1	2391.9
26331	13.687	3.2727	0.1	2368.
26332	13.595	3.5455	0.1	2392.1
26333	13.687	3.4545	0.1	2368.2
26334	13.595	3.7273	0.1	2392.4
26335	13.687	3.6364	0.1	2368.4
26336	13.595	3.9091	0.1	2392.8
26337	13.687	3.8182	0.1	2368.8
26338	13.595	4.0909	0.1	2393.3
26339	13.687	4.	0.1	2369.2
26340	13.595	4.2727	0.1	2393.9
26341	13.687	4.1818	0.1	2369.8
26342	13.595	4.4545	0.1	2394.6
26343	13.687	4.3636	0.1	2370.4
26344	13.595	4.6364	0.1	2395.3
26345	13.687	4.5455	0.1	2371.1
26346	13.595	4.8182	0.1	2396.2
26347	13.687	4.7273	0.1	2371.9
26348	13.595	5.	0.1	2397.1
26349	13.687	4.9091	0.1	2372.8
26350	13.595	5.1818	0.1	2398.2
26351	13.687	5.0909	0.1	2373.8
26352	13.595	5.3636	0.1	2399.3
26353	13.687	5.2727	0.1	2374.9
26354	13.595	5.5455	0.1	2400.6
26355	13.687	5.4545	0.1	2376.1
26356	13.595	5.7273	0.1	2402.8
26357	13.687	5.6364	0.1	2377.4
26358	13.687	5.8182	0.1	2380.5
26359	13.595	5.9091	0.1	2399.6
26360	13.779	0.27273	0.1	2355.1
26361	13.871	0.18182	0.1	2332.9
26362	13.779	9.0909e-002	0.1	2351.8
26363	13.779	0.45455	0.1	2352.9
26364	13.871	0.36364	0.1	2329.8
26365	13.779	0.63636	0.1	2351.6
26366	13.871	0.54545	0.1	2328.5
26367	13.779	0.81818	0.1	2350.5
26368	13.871	0.72727	0.1	2327.3
26369	13.779	1.	0.1	2349.5
26370	13.871	0.90909	0.1	2326.2
26371	13.779	1.1818	0.1	2348.5
26372	13.871	1.0909	0.1	2325.3
26373	13.779	1.3636	0.1	2347.7
26374	13.871	1.2727	0.1	2324.4
26375	13.779	1.5455	0.1	2346.9
26376	13.871	1.4545	0.1	2323.6
26377	13.779	1.7273	0.1	2346.3
26378	13.871	1.6364	0.1	2322.9
26379	13.779	1.9091	0.1	2345.7
26380	13.871	1.8182	0.1	2322.3
26381	13.779	2.0909	0.1	2345.2
26382	13.871	2.	0.1	2321.7
26383	13.779	2.2727	0.1	2344.8
26384	13.871	2.1818	0.1	2321.3
26385	13.779	2.4545	0.1	2344.5
26386	13.871	2.3636	0.1	2321.
26387	13.779	2.6364	0.1	2344.3
26388	13.871	2.5455	0.1	2320.7
26389	13.779	2.8182	0.1	2344.2
26390	13.871	2.7273	0.1	2320.5
26391	13.779	3.	0.1	2344.1
26392	13.871	2.9091	0.1	2320.4
26393	13.779	3.1818	0.1	2344.2
26394	13.871	3.0909	0.1	2320.4
26395	13.779	3.3636	0.1	2344.3
26396	13.871	3.2727	0.1	2320.5
26397	13.779	3.5455	0.1	2344.5
26398	13.871	3.4545	0.1	2320.7
26399	13.779	3.7273	0.1	2344.8
26400	13.871	3.6364	0.1	2321.
26401	13.779	3.9091	0.1	2345.2
26402	13.871	3.8182	0.1	2321.3
26403	13.779	4.0909	0.1	2345.7
26404	13.871	4.	0.1	2321.7
26405	13.779	4.2727	0.1	2346.3
26406	13.871	4.1818	0.1	2322.3
26407	13.779	4.4545	0.1	2346.9
26408	13.871	4.3636	0.1	2322.9
26409	13.779	4.6364	0.1	2347.7
26410	13.871	4.5455	0.1	2323.6
26411	13.779	4.8182	0.1	2348.5
26412	13.871	4.7273	0.1	2324.4
26413	13.779	5.	0.1	2349.5
26414	13.871	4.9091	0.1	2325.3
26415	13.779	5.1818	0.1	2350.5
26416	13.871	5.0909	0.1	2326.2
26417	13.779	5.3636	0.1	2351.6
26418	13.871	5.2727	0.1	2327.3
26419	13.779	5.5455	0.1	2352.9
26420	13.871	5.4545	0.1	2328.5
26421	13.779	5.7273	0.1	2355.1
26422	13.871	5.6364	0.1	2329.8
26423	13.871	5.8182	0.1	2332.9
26424	13.779	5.9091	0.1	2351.8
26425	13.963	0.27273	0.1	2307.5
26426	14.055	0.18182	0.1	2285.5
26427	13.963	9.0909e-002	0.1	2304.2
26428	13.963	0.45455	0.1	2305.4
26429	14.055	0.36364	0.1	2282.4
26430	13.963	0.63636	0.1	2304.1
26431	14.055	0.54545	0.1	2281.1
26432	13.963	0.81818	0.1	2303.
26433	14.055	0.72727	0.1	2279.9
26434	13.963	1.	0.1	2302.
26435	14.055	0.90909	0.1	2278.9
26436	13.963	1.1818	0.1	2301.1
26437	14.055	1.0909	0.1	2277.9
26438	13.963	1.3636	0.1	2300.2
26439	14.055	1.2727	0.1	2277.
26440	13.963	1.5455	0.1	2299.5
26441	14.055	1.4545	0.1	2276.2
26442	13.963	1.7273	0.1	2298.9
26443	14.055	1.6364	0.1	2275.6
26444	13.963	1.9091	0.1	2298.3
26445	14.055	1.8182	0.1	2274.9
26446	13.963	2.0909	0.1	2297.8
26447	14.055	2.	0.1	2274.4
26448	13.963	2.2727	0.1	2297.4
26449	14.055	2.1818	0.1	2274.
26450	13.963	2.4545	0.1	2297.1
26451	14.055	2.3636	0.1	2273.7
26452	13.963	2.6364	0.1	2296.9
26453	14.055	2.5455	0.1	2273.4
26454	13.963	2.8182	0.1	2296.8
26455	14.055	2.7273	0.1	2273.2
26456	13.963	3.	0.1	2296.7
26457	14.055	2.9091	0.1	2273.1
26458	13.963	3.1818	0.1	2296.8
26459	14.055	3.0909	0.1	2273.1
26460	13.963	3.3636	0.1	2296.9
26461	14.055	3.2727	0.1	2273.2
26462	13.963	3.5455	0.1	2297.1
26463	14.055	3.4545	0.1	2273.4
26464	13.963	3.7273	0.1	2297.4
26465	14.055	3.6364	0.1	2273.7
26466	13.963	3.9091	0.1	2297.8
26467	14.055	3.8182	0.1	2274.
26468	13.963	4.0909	0.1	2298.3
26469	14.055	4.	0.1	2274.4
26470	13.963	4.2727	0.1	2298.9
26471	14.055	4.1818	0.1	2274.9
26472	13.963	4.4545	0.1	2299.5
26473	14.055	4.3636	0.1	2275.6
26474	13.963	4.6364	0.1	2300.2
26475	14.055	4.5455	0.1	2276.2
26476	13.963	4.8182	0.1	2301.1
26477	14.055	4.7273	0.1	2277.
26478	13.963	5.	0.1	2302.
26479	14.055	4.9091	0.1	2277.9
26480	13.963	5.1818	0.1	2303.
26481	14.055	5.0909	0.1	2278.9
26482	13.963	5.3636	0.1	2304.1
26483	14.055	5.2727	0.1	2279.9
26484	13.963	5.5455	0.1	2305.4
26485	14.055	5.4545	0.1	2281.1
26486	13.963	5.7273	0.1	2307.5
26487	14.055	5.6364	0.1	2282.4
26488	14.055	5.8182	0.1	2285.5
26489	13.963	5.9091	0.1	2304.2
26490	14.147	0.27273	0.1	2260.2
26491	14.238	0.18182	0.1	2238.3
26492	14.147	9.0909e-002	0.1	2256.8
26493	14.147	0.45455	0.1	2258.1
26494	14.238	0.36364	0.1	2235.2
26495	14.147	0.63636	0.1	2256.8
26496	14.238	0.54545	0.1	2233.9
26497	14.147	0.81818	0.1	2255.7
26498	14.238	0.72727	0.1	2232.7
26499	14.147	1.	0.1	2254.7
26500	14.238	0.90909	0.1	2231.7
26501	14.147	1.1818	0.1	2253.8
26502	14.238	1.0909	0.1	2230.7
26503	14.147	1.3636	0.1	2253.
26504	14.238	1.2727	0.1	2229.9
26505	14.147	1.5455	0.1	2252.3
26506	14.238	1.4545	0.1	2229.1
26507	14.147	1.7273	0.1	2251.6
26508	14.238	1.6364	0.1	2228.4
26509	14.147	1.9091	0.1	2251.1
26510	14.238	1.8182	0.1	2227.8
26511	14.147	2.0909	0.1	2250.6
26512	14.238	2.	0.1	2227.3
26513	14.147	2.2727	0.1	2250.2
26514	14.238	2.1818	0.1	2226.9
26515	14.147	2.4545	0.1	2249.9
26516	14.238	2.3636	0.1	2226.6
26517	14.147	2.6364	0.1	2249.7
26518	14.238	2.5455	0.1	2226.3
26519	14.147	2.8182	0.1	2249.6
26520	14.238	2.7273	0.1	2226.1
26521	14.147	3.	0.1	2249.5
26522	14.238	2.9091	0.1	2226.1
26523	14.147	3.1818	0.1	2249.6
26524	14.238	3.0909	0.1	2226.1
26525	14.147	3.3636	0.1	2249.7
26526	14.238	3.2727	0.1	2226.1
26527	14.147	3.5455	0.1	2249.9
26528	14.238	3.4545	0.1	2226.3
26529	14.147	3.7273	0.1	2250.2
26530	14.238	3.6364	0.1	2226.6
26531	14.147	3.9091	0.1	2250.6
26532	14.238	3.8182	0.1	2226.9
26533	14.147	4.0909	0.1	2251.1
26534	14.238	4.	0.1	2227.3
26535	14.147	4.2727	0.1	2251.6
26536	14.238	4.1818	0.1	2227.8
26537	14.147	4.4545	0.1	2252.3
26538	14.238	4.3636	0.1	2228.4
26539	14.147	4.6364	0.1	2253.
26540	14.238	4.5455	0.1	2229.1
26541	14.147	4.8182	0.1	2253.8
26542	14.238	4.7273	0.1	2229.9
26543	14.147	5.	0.1	2254.7
26544	14.238	4.9091	0.1	2230.7
26545	14.147	5.1818	0.1	2255.7
26546	14.238	5.0909	0.1	2231.7
26547	14.147	5.3636	0.1	2256.8
26548	14.238	5.2727	0.1	2232.7
26549	14.147	5.5455	0.1	2258.1
26550	14.238	5.4545	0.1	2233.9
26551	14.147	5.7273	0.1	2260.2
26552	14.238	5.6364	0.1	2235.2
26553	14.238	5.8182	0.1	2238.3
26554	14.147	5.9091	0.1	2256.8
26555	14.33	0.27273	0.1	2213.1
26556	14.422	0.18182	0.1	2191.3
26557	14.33	9.0909e-002	0.1	2209.6
26558	14.33	0.45455	0.1	2211.
26559	14.422	0.36364	0.1	2188.2
26560	14.33	0.63636	0.1	2209.7
26561	14.422	0.54545	0.1	2186.8
26562	14.33	0.81818	0.1	2208.6
26563	14.422	0.72727	0.1	2185.7
26564	14.33	1.	0.1	2207.6
26565	14.422	0.90909	0.1	2184.7
26566	14.33	1.1818	0.1	2206.7
26567	14.422	1.0909	0.1	2183.7
26568	14.33	1.3636	0.1	2205.9
26569	14.422	1.2727	0.1	2182.9
26570	14.33	1.5455	0.1	2205.2
26571	14.422	1.4545	0.1	2182.1
26572	14.33	1.7273	0.1	2204.6
26573	14.422	1.6364	0.1	2181.5
26574	14.33	1.9091	0.1	2204.
26575	14.422	1.8182	0.1	2180.9
26576	14.33	2.0909	0.1	2203.6
26577	14.422	2.	0.1	2180.4
26578	14.33	2.2727	0.1	2203.2
26579	14.422	2.1818	0.1	2180.
26580	14.33	2.4545	0.1	2202.9
26581	14.422	2.3636	0.1	2179.7
26582	14.33	2.6364	0.1	2202.7
26583	14.422	2.5455	0.1	2179.4
26584	14.33	2.8182	0.1	2202.6
26585	14.422	2.7273	0.1	2179.2
26586	14.33	3.	0.1	2202.6
26587	14.422	2.9091	0.1	2179.2
26588	14.33	3.1818	0.1	2202.6
26589	14.422	3.0909	0.1	2179.2
26590	14.33	3.3636	0.1	2202.7
26591	14.422	3.2727	0.1	2179.2
26592	14.33	3.5455	0.1	2202.9
26593	14.422	3.4545	0.1	2179.4
26594	14.33	3.7273	0.1	2203.2
26595	14.422	3.6364	0.1	2179.7
26596	14.33	3.9091	0.1	2203.6
26597	14.422	3.8182	0.1	2180.
26598	14.33	4.0909	0.1	2204.
26599	14.422	4.	0.1	2180.4
26600	14.33	4.2727	0.1	2204.6
26601	14.422	4.1818	0.1	2180.9
26602	14.33	4.4545	0.1	2205.2
26603	14.422	4.3636	0.1	2181.5
26604	14.33	4.6364	0.1	2205.9
26605	14.422	4.5455	0.1	2182.1
26606	14.33	4.8182	0.1	2206.7
26607	14.422	4.7273	0.1	2182.9
26608	14.33	5.	0.1	2207.6
26609	14.422	4.9091	0.1	2183.7
26610	14.33	5.1818	0.1	2208.6
26611	14.422	5.0909	0.1	2184.7
26612	14.33	5.3636	0.1	2209.7
26613	14.422	5.2727	0.1	2185.7
26614	14.33	5.5455	0.1	2211.
26615	14.422	5.4545	0.1	2186.8
26616	14.33	5.7273	0.1	2213.1
26617	14.422	5.6364	0.1	2188.2
26618	14.422	5.8182	0.1	2191.3
26619	14.33	5.9091	0.1	2209.6
26620	14.514	0.27273	0.1	2166.2
26621	14.606	0.18182	0.1	2144.5
26622	14.514	9.0909e-002	0.1	2162.7
26623	14.514	0.45455	0.1	2164.
26624	14.606	0.36364	0.1	2141.4
26625	14.514	0.63636	0.1	2162.8
26626	14.606	0.54545	0.1	2140.
26627	14.514	0.81818	0.1	2161.7
26628	14.606	0.72727	0.1	2138.9
26629	14.514	1.	0.1	2160.8
26630	14.606	0.90909	0.1	2137.9
26631	14.514	1.1818	0.1	2159.9
26632	14.606	1.0909	0.1	2137.
26633	14.514	1.3636	0.1	2159.1
26634	14.606	1.2727	0.1	2136.1
26635	14.514	1.5455	0.1	2158.4
26636	14.606	1.4545	0.1	2135.4
26637	14.514	1.7273	0.1	2157.8
26638	14.606	1.6364	0.1	2134.7
26639	14.514	1.9091	0.1	2157.2
26640	14.606	1.8182	0.1	2134.2
26641	14.514	2.0909	0.1	2156.8
26642	14.606	2.	0.1	2133.7
26643	14.514	2.2727	0.1	2156.4
26644	14.606	2.1818	0.1	2133.3
26645	14.514	2.4545	0.1	2156.1
26646	14.606	2.3636	0.1	2132.9
26647	14.514	2.6364	0.1	2155.9
26648	14.606	2.5455	0.1	2132.7
26649	14.514	2.8182	0.1	2155.8
26650	14.606	2.7273	0.1	2132.5
26651	14.514	3.	0.1	2155.8
26652	14.606	2.9091	0.1	2132.5
26653	14.514	3.1818	0.1	2155.8
26654	14.606	3.0909	0.1	2132.5
26655	14.514	3.3636	0.1	2155.9
26656	14.606	3.2727	0.1	2132.5
26657	14.514	3.5455	0.1	2156.1
26658	14.606	3.4545	0.1	2132.7
26659	14.514	3.7273	0.1	2156.4
26660	14.606	3.6364	0.1	2132.9
26661	14.514	3.9091	0.1	2156.8
26662	14.606	3.8182	0.1	2133.3
26663	14.514	4.0909	0.1	2157.2
26664	14.606	4.	0.1	2133.7
26665	14.514	4.2727	0.1	2157.8
26666	14.606	4.1818	0.1	2134.2
26667	14.514	4.4545	0.1	2158.4
26668	14.606	4.3636	0.1	2134.7
26669	14.514	4.6364	0.1	2159.1
26670	14.606	4.5455	0.1	2135.4
26671	14.514	4.8182	0.1	2159.9
26672	14.606	4.7273	0.1	2136.1
26673	14.514	5.	0.1	2160.8
26674	14.606	4.9091	0.1	2137.
26675	14.514	5.1818	0.1	2161.7
26676	14.606	5.0909	0.1	2137.9
26677	14.514	5.3636	0.1	2162.8
26678	14.606	5.2727	0.1	2138.9
26679	14.514	5.5455	0.1	2164.
26680	14.606	5.4545	0.1	2140.
26681	14.514	5.7273	0.1	2166.2
26682	14.606	5.6364	0.1	2141.4
26683	14.606	5.8182	0.1	2144.5
26684	14.514	5.9091	0.1	2162.7
26685	14.698	0.27273	0.1	2119.5
26686	14.79	0.18182	0.1	2097.9
26687	14.698	9.0909e-002	0.1	2115.9
26688	14.698	0.45455	0.1	2117.3
26689	14.79	0.36364	0.1	2094.7
26690	14.698	0.63636	0.1	2116.1
26691	14.79	0.54545	0.1	2093.4
26692	14.698	0.81818	0.1	2115.
26693	14.79	0.72727	0.1	2092.3
26694	14.698	1.	0.1	2114.1
26695	14.79	0.90909	0.1	2091.3
26696	14.698	1.1818	0.1	2113.2
26697	14.79	1.0909	0.1	2090.4
26698	14.698	1.3636	0.1	2112.4
26699	14.79	1.2727	0.1	2089.6
26700	14.698	1.5455	0.1	2111.7
26701	14.79	1.4545	0.1	2088.8
26702	14.698	1.7273	0.1	2111.1
26703	14.79	1.6364	0.1	2088.2
26704	14.698	1.9091	0.1	2110.6
26705	14.79	1.8182	0.1	2087.6
26706	14.698	2.0909	0.1	2110.1
26707	14.79	2.	0.1	2087.1
26708	14.698	2.2727	0.1	2109.8
26709	14.79	2.1818	0.1	2086.8
26710	14.698	2.4545	0.1	2109.5
26711	14.79	2.3636	0.1	2086.4
26712	14.698	2.6364	0.1	2109.3
26713	14.79	2.5455	0.1	2086.2
26714	14.698	2.8182	0.1	2109.2
26715	14.79	2.7273	0.1	2086.
26716	14.698	3.	0.1	2109.2
26717	14.79	2.9091	0.1	2086.
26718	14.698	3.1818	0.1	2109.2
26719	14.79	3.0909	0.1	2086.
26720	14.698	3.3636	0.1	2109.3
26721	14.79	3.2727	0.1	2086.
26722	14.698	3.5455	0.1	2109.5
26723	14.79	3.4545	0.1	2086.2
26724	14.698	3.7273	0.1	2109.8
26725	14.79	3.6364	0.1	2086.4
26726	14.698	3.9091	0.1	2110.1
26727	14.79	3.8182	0.1	2086.8
26728	14.698	4.0909	0.1	2110.6
26729	14.79	4.	0.1	2087.1
26730	14.698	4.2727	0.1	2111.1
26731	14.79	4.1818	0.1	2087.6
26732	14.698	4.4545	0.1	2111.7
26733	14.79	4.3636	0.1	2088.2
26734	14.698	4.6364	0.1	2112.4
26735	14.79	4.5455	0.1	2088.8
26736	14.698	4.8182	0.1	2113.2
26737	14.79	4.7273	0.1	2089.6
26738	14.698	5.	0.1	2114.1
26739	14.79	4.9091	0.1	2090.4
26740	14.698	5.1818	0.1	2115.
26741	14.79	5.0909	0.1	2091.3
26742	14.698	5.3636	0.1	2116.1
26743	14.79	5.2727	0.1	2092.3
26744	14.698	5.5455	0.1	2117.3
26745	14.79	5.4545	0.1	2093.4
26746	14.698	5.7273	0.1	2119.5
26747	14.79	5.6364	0.1	2094.7
26748	14.79	5.8182	0.1	2097.9
26749	14.698	5.9091	0.1	2115.9
26750	14.881	0.27273	0.1	2073.
26751	14.973	0.18182	0.1	2051.5
26752	14.881	9.0909e-002	0.1	2069.3
26753	14.881	0.45455	0.1	2070.8
26754	14.973	0.36364	0.1	2048.3
26755	14.881	0.63636	0.1	2069.6
26756	14.973	0.54545	0.1	2047.
26757	14.881	0.81818	0.1	2068.5
26758	14.973	0.72727	0.1	2045.9
26759	14.881	1.	0.1	2067.6
26760	14.973	0.90909	0.1	2044.9
26761	14.881	1.1818	0.1	2066.7
26762	14.973	1.0909	0.1	2044.
26763	14.881	1.3636	0.1	2066.
26764	14.973	1.2727	0.1	2043.2
26765	14.881	1.5455	0.1	2065.3
26766	14.973	1.4545	0.1	2042.5
26767	14.881	1.7273	0.1	2064.7
26768	14.973	1.6364	0.1	2041.8
26769	14.881	1.9091	0.1	2064.2
26770	14.973	1.8182	0.1	2041.3
26771	14.881	2.0909	0.1	2063.7
26772	14.973	2.	0.1	2040.8
26773	14.881	2.2727	0.1	2063.4
26774	14.973	2.1818	0.1	2040.4
26775	14.881	2.4545	0.1	2063.1
26776	14.973	2.3636	0.1	2040.1
26777	14.881	2.6364	0.1	2062.9
26778	14.973	2.5455	0.1	2039.9
26779	14.881	2.8182	0.1	2062.8
26780	14.973	2.7273	0.1	2039.7
26781	14.881	3.	0.1	2062.8
26782	14.973	2.9091	0.1	2039.7
26783	14.881	3.1818	0.1	2062.8
26784	14.973	3.0909	0.1	2039.7
26785	14.881	3.3636	0.1	2062.9
26786	14.973	3.2727	0.1	2039.7
26787	14.881	3.5455	0.1	2063.1
26788	14.973	3.4545	0.1	2039.9
26789	14.881	3.7273	0.1	2063.4
26790	14.973	3.6364	0.1	2040.1
26791	14.881	3.9091	0.1	2063.7
26792	14.973	3.8182	0.1	2040.4
26793	14.881	4.0909	0.1	2064.2
26794	14.973	4.	0.1	2040.8
26795	14.881	4.2727	0.1	2064.7
26796	14.973	4.1818	0.1	2041.3
26797	14.881	4.4545	0.1	2065.3
26798	14.973	4.3636	0.1	2041.8
26799	14.881	4.6364	0.1	2066.
26800	14.973	4.5455	0.1	2042.5
26801	14.881	4.8182	0.1	2066.7
26802	14.973	4.7273	0.1	2043.2
26803	14.881	5.	0.1	2067.6
26804	14.973	4.9091	0.1	2044.
26805	14.881	5.1818	0.1	2068.5
26806	14.973	5.0909	0.1	2044.9
26807	14.881	5.3636	0.1	2069.6
26808	14.973	5.2727	0.1	2045.9
26809	14.881	5.5455	0.1	2070.8
26810	14.973	5.4545	0.1	2047.
26811	14.881	5.7273	0.1	2073.
26812	14.973	5.6364	0.1	2048.3
26813	14.973	5.8182	0.1	2051.5
26814	14.881	5.9091	0.1	2069.3
26815	15.065	0.27273	0.1	2026.7
26816	15.157	0.18182	0.1	2005.3
26817	15.065	9.0909e-002	0.1	2022.9
26818	15.065	0.45455	0.1	2024.5
26819	15.157	0.36364	0.1	2002.1
26820	15.065	0.63636	0.1	2023.3
26821	15.157	0.54545	0.1	2000.8
26822	15.065	0.81818	0.1	2022.2
26823	15.157	0.72727	0.1	1999.7
26824	15.065	1.	0.1	2021.3
26825	15.157	0.90909	0.1	1998.7
26826	15.065	1.1818	0.1	2020.4
26827	15.157	1.0909	0.1	1997.8
26828	15.065	1.3636	0.1	2019.7
26829	15.157	1.2727	0.1	1997.
26830	15.065	1.5455	0.1	2019.
26831	15.157	1.4545	0.1	1996.3
26832	15.065	1.7273	0.1	2018.4
26833	15.157	1.6364	0.1	1995.7
26834	15.065	1.9091	0.1	2017.9
26835	15.157	1.8182	0.1	1995.1
26836	15.065	2.0909	0.1	2017.5
26837	15.157	2.	0.1	1994.7
26838	15.065	2.2727	0.1	2017.2
26839	15.157	2.1818	0.1	1994.3
26840	15.065	2.4545	0.1	2016.9
26841	15.157	2.3636	0.1	1994.
26842	15.065	2.6364	0.1	2016.7
26843	15.157	2.5455	0.1	1993.8
26844	15.065	2.8182	0.1	2016.6
26845	15.157	2.7273	0.1	1993.6
26846	15.065	3.	0.1	2016.5
26847	15.157	2.9091	0.1	1993.6
26848	15.065	3.1818	0.1	2016.6
26849	15.157	3.0909	0.1	1993.6
26850	15.065	3.3636	0.1	2016.7
26851	15.157	3.2727	0.1	1993.6
26852	15.065	3.5455	0.1	2016.9
26853	15.157	3.4545	0.1	1993.8
26854	15.065	3.7273	0.1	2017.2
26855	15.157	3.6364	0.1	1994.
26856	15.065	3.9091	0.1	2017.5
26857	15.157	3.8182	0.1	1994.3
26858	15.065	4.0909	0.1	2017.9
26859	15.157	4.	0.1	1994.7
26860	15.065	4.2727	0.1	2018.4
26861	15.157	4.1818	0.1	1995.1
26862	15.065	4.4545	0.1	2019.
26863	15.157	4.3636	0.1	1995.7
26864	15.065	4.6364	0.1	2019.7
26865	15.157	4.5455	0.1	1996.3
26866	15.065	4.8182	0.1	2020.4
26867	15.157	4.7273	0.1	1997.
26868	15.065	5.	0.1	2021.3
26869	15.157	4.9091	0.1	1997.8
26870	15.065	5.1818	0.1	2022.2
26871	15.157	5.0909	0.1	1998.7
26872	15.065	5.3636	0.1	2023.3
26873	15.157	5.2727	0.1	1999.7
26874	15.065	5.5455	0.1	2024.5
26875	15.157	5.4545	0.1	2000.8
26876	15.065	5.7273	0.1	2026.7
26877	15.157	5.6364	0.1	2002.1
26878	15.157	5.8182	0.1	2005.3
26879	15.065	5.9091	0.1	2022.9
26880	15.249	0.27273	0.1	1980.6
26881	15.341	0.18182	0.1	1959.3
26882	15.249	9.0909e-002	0.1	1976.7
26883	15.249	0.45455	0.1	1978.4
26884	15.341	0.36364	0.1	1956.1
26885	15.249	0.63636	0.1	1977.2
26886	15.341	0.54545	0.1	1954.8
26887	15.249	0.81818	0.1	1976.1
26888	15.341	0.72727	0.1	1953.7
26889	15.249	1.	0.1	1975.2
26890	15.341	0.90909	0.1	1952.7
26891	15.249	1.1818	0.1	1974.4
26892	15.341	1.0909	0.1	1951.8
26893	15.249	1.3636	0.1	1973.6
26894	15.341	1.2727	0.1	1951.
26895	15.249	1.5455	0.1	1973.
26896	15.341	1.4545	0.1	1950.3
26897	15.249	1.7273	0.1	1972.4
26898	15.341	1.6364	0.1	1949.7
26899	15.249	1.9091	0.1	1971.9
26900	15.341	1.8182	0.1	1949.2
26901	15.249	2.0909	0.1	1971.5
26902	15.341	2.	0.1	1948.8
26903	15.249	2.2727	0.1	1971.1
26904	15.341	2.1818	0.1	1948.4
26905	15.249	2.4545	0.1	1970.9
26906	15.341	2.3636	0.1	1948.1
26907	15.249	2.6364	0.1	1970.7
26908	15.341	2.5455	0.1	1947.9
26909	15.249	2.8182	0.1	1970.6
26910	15.341	2.7273	0.1	1947.7
26911	15.249	3.	0.1	1970.5
26912	15.341	2.9091	0.1	1947.6
26913	15.249	3.1818	0.1	1970.6
26914	15.341	3.0909	0.1	1947.6
26915	15.249	3.3636	0.1	1970.7
26916	15.341	3.2727	0.1	1947.7
26917	15.249	3.5455	0.1	1970.9
26918	15.341	3.4545	0.1	1947.9
26919	15.249	3.7273	0.1	1971.1
26920	15.341	3.6364	0.1	1948.1
26921	15.249	3.9091	0.1	1971.5
26922	15.341	3.8182	0.1	1948.4
26923	15.249	4.0909	0.1	1971.9
26924	15.341	4.	0.1	1948.8
26925	15.249	4.2727	0.1	1972.4
26926	15.341	4.1818	0.1	1949.2
26927	15.249	4.4545	0.1	1973.
26928	15.341	4.3636	0.1	1949.7
26929	15.249	4.6364	0.1	1973.6
26930	15.341	4.5455	0.1	1950.3
26931	15.249	4.8182	0.1	1974.4
26932	15.341	4.7273	0.1	1951.
26933	15.249	5.	0.1	1975.2
26934	15.341	4.9091	0.1	1951.8
26935	15.249	5.1818	0.1	1976.1
26936	15.341	5.0909	0.1	1952.7
26937	15.249	5.3636	0.1	1977.2
26938	15.341	5.2727	0.1	1953.7
26939	15.249	5.5455	0.1	1978.4
26940	15.341	5.4545	0.1	1954.8
26941	15.249	5.7273	0.1	1980.6
26942	15.341	5.6364	0.1	1956.1
26943	15.341	5.8182	0.1	1959.3
26944	15.249	5.9091	0.1	1976.7
26945	15.433	0.27273	0.1	1934.7
26946	15.524	0.18182	0.1	1913.5
26947	15.433	9.0909e-002	0.1	1930.8
26948	15.433	0.45455	0.1	1932.4
26949	15.524	0.36364	0.1	1910.2
26950	15.433	0.63636	0.1	1931.3
26951	15.524	0.54545	0.1	1908.9
26952	15.433	0.81818	0.1	1930.2
26953	15.524	0.72727	0.1	1907.9
26954	15.433	1.	0.1	1929.3
26955	15.524	0.90909	0.1	1906.9
26956	15.433	1.1818	0.1	1928.5
26957	15.524	1.0909	0.1	1906.
26958	15.433	1.3636	0.1	1927.7
26959	15.524	1.2727	0.1	1905.3
26960	15.433	1.5455	0.1	1927.1
26961	15.524	1.4545	0.1	1904.6
26962	15.433	1.7273	0.1	1926.5
26963	15.524	1.6364	0.1	1904.
26964	15.433	1.9091	0.1	1926.
26965	15.524	1.8182	0.1	1903.5
26966	15.433	2.0909	0.1	1925.6
26967	15.524	2.	0.1	1903.
26968	15.433	2.2727	0.1	1925.3
26969	15.524	2.1818	0.1	1902.7
26970	15.433	2.4545	0.1	1925.1
26971	15.524	2.3636	0.1	1902.4
26972	15.433	2.6364	0.1	1924.9
26973	15.524	2.5455	0.1	1902.2
26974	15.433	2.8182	0.1	1924.8
26975	15.524	2.7273	0.1	1902.
26976	15.433	3.	0.1	1924.7
26977	15.524	2.9091	0.1	1901.9
26978	15.433	3.1818	0.1	1924.8
26979	15.524	3.0909	0.1	1901.9
26980	15.433	3.3636	0.1	1924.9
26981	15.524	3.2727	0.1	1902.
26982	15.433	3.5455	0.1	1925.1
26983	15.524	3.4545	0.1	1902.2
26984	15.433	3.7273	0.1	1925.3
26985	15.524	3.6364	0.1	1902.4
26986	15.433	3.9091	0.1	1925.6
26987	15.524	3.8182	0.1	1902.7
26988	15.433	4.0909	0.1	1926.
26989	15.524	4.	0.1	1903.
26990	15.433	4.2727	0.1	1926.5
26991	15.524	4.1818	0.1	1903.5
26992	15.433	4.4545	0.1	1927.1
26993	15.524	4.3636	0.1	1904.
26994	15.433	4.6364	0.1	1927.7
26995	15.524	4.5455	0.1	1904.6
26996	15.433	4.8182	0.1	1928.5
26997	15.524	4.7273	0.1	1905.3
26998	15.433	5.	0.1	1929.3
26999	15.524	4.9091	0.1	1906.
27000	15.433	5.1818	0.1	1930.2
27001	15.524	5.0909	0.1	1906.9
27002	15.433	5.3636	0.1	1931.3
27003	15.524	5.2727	0.1	1907.9
27004	15.433	5.5455	0.1	1932.4
27005	15.524	5.4545	0.1	1908.9
27006	15.433	5.7273	0.1	1934.7
27007	15.524	5.6364	0.1	1910.2
27008	15.524	5.8182	0.1	1913.5
27009	15.433	5.9091	0.1	1930.8
27010	15.616	0.27273	0.1	1888.9
27011	15.708	0.18182	0.1	1867.8
27012	15.616	9.0909e-002	0.1	1885.
27013	15.616	0.45455	0.1	1886.7
27014	15.708	0.36364	0.1	1864.6
27015	15.616	0.63636	0.1	1885.5
27016	15.708	0.54545	0.1	1863.3
27017	15.616	0.81818	0.1	1884.5
27018	15.708	0.72727	0.1	1862.2
27019	15.616	1.	0.1	1883.6
27020	15.708	0.90909	0.1	1861.3
27021	15.616	1.1818	0.1	1882.8
27022	15.708	1.0909	0.1	1860.4
27023	15.616	1.3636	0.1	1882.1
27024	15.708	1.2727	0.1	1859.7
27025	15.616	1.5455	0.1	1881.4
27026	15.708	1.4545	0.1	1859.
27027	15.616	1.7273	0.1	1880.9
27028	15.708	1.6364	0.1	1858.4
27029	15.616	1.9091	0.1	1880.4
27030	15.708	1.8182	0.1	1857.9
27031	15.616	2.0909	0.1	1880.
27032	15.708	2.	0.1	1857.5
27033	15.616	2.2727	0.1	1879.7
27034	15.708	2.1818	0.1	1857.1
27035	15.616	2.4545	0.1	1879.4
27036	15.708	2.3636	0.1	1856.8
27037	15.616	2.6364	0.1	1879.3
27038	15.708	2.5455	0.1	1856.6
27039	15.616	2.8182	0.1	1879.2
27040	15.708	2.7273	0.1	1856.5
27041	15.616	3.	0.1	1879.1
27042	15.708	2.9091	0.1	1856.4
27043	15.616	3.1818	0.1	1879.2
27044	15.708	3.0909	0.1	1856.4
27045	15.616	3.3636	0.1	1879.3
27046	15.708	3.2727	0.1	1856.5
27047	15.616	3.5455	0.1	1879.4
27048	15.708	3.4545	0.1	1856.6
27049	15.616	3.7273	0.1	1879.7
27050	15.708	3.6364	0.1	1856.8
27051	15.616	3.9091	0.1	1880.
27052	15.708	3.8182	0.1	1857.1
27053	15.616	4.0909	0.1	1880.4
27054	15.708	4.	0.1	1857.5
27055	15.616	4.2727	0.1	1880.9
27056	15.708	4.1818	0.1	1857.9
27057	15.616	4.4545	0.1	1881.4
27058	15.708	4.3636	0.1	1858.4
27059	15.616	4.6364	0.1	1882.1
27060	15.708	4.5455	0.1	1859.
27061	15.616	4.8182	0.1	1882.8
27062	15.708	4.7273	0.1	1859.7
27063	15.616	5.	0.1	1883.6
27064	15.708	4.9091	0.1	1860.4
27065	15.616	5.1818	0.1	1884.5
27066	15.708	5.0909	0.1	1861.3
27067	15.616	5.3636	0.1	1885.5
27068	15.708	5.2727	0.1	1862.2
27069	15.616	5.5455	0.1	1886.7
27070	15.708	5.4545	0.1	1863.3
27071	15.616	5.7273	0.1	1888.9
27072	15.708	5.6364	0.1	1864.6
27073	15.708	5.8182	0.1	1867.8
27074	15.616	5.9091	0.1	1885.
27075	15.8	0.27273	0.1	1843.4
27076	15.892	0.18182	0.1	1822.4
27077	15.8	9.0909e-002	0.1	1839.4
27078	15.8	0.45455	0.1	1841.2
27079	15.892	0.36364	0.1	1819.2
27080	15.8	0.63636	0.1	1840.
27081	15.892	0.54545	0.1	1817.9
27082	15.8	0.81818	0.1	1839.
27083	15.892	0.72727	0.1	1816.8
27084	15.8	1.	0.1	1838.1
27085	15.892	0.90909	0.1	1815.9
27086	15.8	1.1818	0.1	1837.3
27087	15.892	1.0909	0.1	1815.
27088	15.8	1.3636	0.1	1836.6
27089	15.892	1.2727	0.1	1814.3
27090	15.8	1.5455	0.1	1836.
27091	15.892	1.4545	0.1	1813.6
27092	15.8	1.7273	0.1	1835.4
27093	15.892	1.6364	0.1	1813.
27094	15.8	1.9091	0.1	1835.
27095	15.892	1.8182	0.1	1812.6
27096	15.8	2.0909	0.1	1834.6
27097	15.892	2.	0.1	1812.1
27098	15.8	2.2727	0.1	1834.3
27099	15.892	2.1818	0.1	1811.8
27100	15.8	2.4545	0.1	1834.
27101	15.892	2.3636	0.1	1811.5
27102	15.8	2.6364	0.1	1833.9
27103	15.892	2.5455	0.1	1811.3
27104	15.8	2.8182	0.1	1833.8
27105	15.892	2.7273	0.1	1811.2
27106	15.8	3.	0.1	1833.7
27107	15.892	2.9091	0.1	1811.1
27108	15.8	3.1818	0.1	1833.8
27109	15.892	3.0909	0.1	1811.1
27110	15.8	3.3636	0.1	1833.9
27111	15.892	3.2727	0.1	1811.2
27112	15.8	3.5455	0.1	1834.
27113	15.892	3.4545	0.1	1811.3
27114	15.8	3.7273	0.1	1834.3
27115	15.892	3.6364	0.1	1811.5
27116	15.8	3.9091	0.1	1834.6
27117	15.892	3.8182	0.1	1811.8
27118	15.8	4.0909	0.1	1835.
27119	15.892	4.	0.1	1812.1
27120	15.8	4.2727	0.1	1835.4
27121	15.892	4.1818	0.1	1812.6
27122	15.8	4.4545	0.1	1836.
27123	15.892	4.3636	0.1	1813.
27124	15.8	4.6364	0.1	1836.6
27125	15.892	4.5455	0.1	1813.6
27126	15.8	4.8182	0.1	1837.3
27127	15.892	4.7273	0.1	1814.3
27128	15.8	5.	0.1	1838.1
27129	15.892	4.9091	0.1	1815.
27130	15.8	5.1818	0.1	1839.
27131	15.892	5.0909	0.1	1815.9
27132	15.8	5.3636	0.1	1840.
27133	15.892	5.2727	0.1	1816.8
27134	15.8	5.5455	0.1	1841.2
27135	15.892	5.4545	0.1	1817.9
27136	15.8	5.7273	0.1	1843.4
27137	15.892	5.6364	0.1	1819.2
27138	15.892	5.8182	0.1	1822.4
27139	15.8	5.9091	0.1	1839.4
27140	15.984	0.27273	0.1	1798.
27141	16.076	0.18182	0.1	1777.2
27142	15.984	9.0909e-002	0.1	1793.9
27143	15.984	0.45455	0.1	1795.8
27144	16.076	0.36364	0.1	1773.9
27145	15.984	0.63636	0.1	1794.7
27146	16.076	0.54545	0.1	1772.6
27147	15.984	0.81818	0.1	1793.7
27148	16.076	0.72727	0.1	1771.6
27149	15.984	1.	0.1	1792.8
27150	16.076	0.90909	0.1	1770.6
27151	15.984	1.1818	0.1	1792.
27152	16.076	1.0909	0.1	1769.8
27153	15.984	1.3636	0.1	1791.3
27154	16.076	1.2727	0.1	1769.1
27155	15.984	1.5455	0.1	1790.7
27156	16.076	1.4545	0.1	1768.4
27157	15.984	1.7273	0.1	1790.2
27158	16.076	1.6364	0.1	1767.9
27159	15.984	1.9091	0.1	1789.7
27160	16.076	1.8182	0.1	1767.4
27161	15.984	2.0909	0.1	1789.3
27162	16.076	2.	0.1	1767.
27163	15.984	2.2727	0.1	1789.
27164	16.076	2.1818	0.1	1766.7
27165	15.984	2.4545	0.1	1788.8
27166	16.076	2.3636	0.1	1766.4
27167	15.984	2.6364	0.1	1788.6
27168	16.076	2.5455	0.1	1766.2
27169	15.984	2.8182	0.1	1788.5
27170	16.076	2.7273	0.1	1766.1
27171	15.984	3.	0.1	1788.5
27172	16.076	2.9091	0.1	1766.
27173	15.984	3.1818	0.1	1788.5
27174	16.076	3.0909	0.1	1766.
27175	15.984	3.3636	0.1	1788.6
27176	16.076	3.2727	0.1	1766.1
27177	15.984	3.5455	0.1	1788.8
27178	16.076	3.4545	0.1	1766.2
27179	15.984	3.7273	0.1	1789.
27180	16.076	3.6364	0.1	1766.4
27181	15.984	3.9091	0.1	1789.3
27182	16.076	3.8182	0.1	1766.7
27183	15.984	4.0909	0.1	1789.7
27184	16.076	4.	0.1	1767.
27185	15.984	4.2727	0.1	1790.2
27186	16.076	4.1818	0.1	1767.4
27187	15.984	4.4545	0.1	1790.7
27188	16.076	4.3636	0.1	1767.9
27189	15.984	4.6364	0.1	1791.3
27190	16.076	4.5455	0.1	1768.4
27191	15.984	4.8182	0.1	1792.
27192	16.076	4.7273	0.1	1769.1
27193	15.984	5.	0.1	1792.8
27194	16.076	4.9091	0.1	1769.8
27195	15.984	5.1818	0.1	1793.7
27196	16.076	5.0909	0.1	1770.6
27197	15.984	5.3636	0.1	1794.7
27198	16.076	5.2727	0.1	1771.6
27199	15.984	5.5455	0.1	1795.8
27200	16.076	5.4545	0.1	1772.6
27201	15.984	5.7273	0.1	1798.
27202	16.076	5.6364	0.1	1773.9
27203	16.076	5.8182	0.1	1777.2
27204	15.984	5.9091	0.1	1793.9
27205	16.167	0.27273	0.1	1752.9
27206	16.259	0.18182	0.1	1732.1
27207	16.167	9.0909e-002	0.1	1748.7
27208	16.167	0.45455	0.1	1750.7
27209	16.259	0.36364	0.1	1728.8
27210	16.167	0.63636	0.1	1749.5
27211	16.259	0.54545	0.1	1727.6
27212	16.167	0.81818	0.1	1748.5
27213	16.259	0.72727	0.1	1726.5
27214	16.167	1.	0.1	1747.7
27215	16.259	0.90909	0.1	1725.6
27216	16.167	1.1818	0.1	1746.9
27217	16.259	1.0909	0.1	1724.8
27218	16.167	1.3636	0.1	1746.2
27219	16.259	1.2727	0.1	1724.1
27220	16.167	1.5455	0.1	1745.6
27221	16.259	1.4545	0.1	1723.5
27222	16.167	1.7273	0.1	1745.1
27223	16.259	1.6364	0.1	1722.9
27224	16.167	1.9091	0.1	1744.7
27225	16.259	1.8182	0.1	1722.5
27226	16.167	2.0909	0.1	1744.3
27227	16.259	2.	0.1	1722.1
27228	16.167	2.2727	0.1	1744.
27229	16.259	2.1818	0.1	1721.7
27230	16.167	2.4545	0.1	1743.8
27231	16.259	2.3636	0.1	1721.5
27232	16.167	2.6364	0.1	1743.6
27233	16.259	2.5455	0.1	1721.3
27234	16.167	2.8182	0.1	1743.5
27235	16.259	2.7273	0.1	1721.2
27236	16.167	3.	0.1	1743.5
27237	16.259	2.9091	0.1	1721.1
27238	16.167	3.1818	0.1	1743.5
27239	16.259	3.0909	0.1	1721.1
27240	16.167	3.3636	0.1	1743.6
27241	16.259	3.2727	0.1	1721.2
27242	16.167	3.5455	0.1	1743.8
27243	16.259	3.4545	0.1	1721.3
27244	16.167	3.7273	0.1	1744.
27245	16.259	3.6364	0.1	1721.5
27246	16.167	3.9091	0.1	1744.3
27247	16.259	3.8182	0.1	1721.7
27248	16.167	4.0909	0.1	1744.7
27249	16.259	4.	0.1	1722.1
27250	16.167	4.2727	0.1	1745.1
27251	16.259	4.1818	0.1	1722.5
27252	16.167	4.4545	0.1	1745.6
27253	16.259	4.3636	0.1	1722.9
27254	16.167	4.6364	0.1	1746.2
27255	16.259	4.5455	0.1	1723.5
27256	16.167	4.8182	0.1	1746.9
27257	16.259	4.7273	0.1	1724.1
27258	16.167	5.	0.1	1747.7
27259	16.259	4.9091	0.1	1724.8
27260	16.167	5.1818	0.1	1748.5
27261	16.259	5.0909	0.1	1725.6
27262	16.167	5.3636	0.1	1749.5
27263	16.259	5.2727	0.1	1726.5
27264	16.167	5.5455	0.1	1750.7
27265	16.259	5.4545	0.1	1727.6
27266	16.167	5.7273	0.1	1752.9
27267	16.259	5.6364	0.1	1728.8
27268	16.259	5.8182	0.1	1732.1
27269	16.167	5.9091	0.1	1748.7
27270	16.351	0.27273	0.1	1707.9
27271	16.443	0.18182	0.1	1687.3
27272	16.351	9.0909e-002	0.1	1703.7
27273	16.351	0.45455	0.1	1705.7
27274	16.443	0.36364	0.1	1683.9
27275	16.351	0.63636	0.1	1704.6
27276	16.443	0.54545	0.1	1682.7
27277	16.351	0.81818	0.1	1703.6
27278	16.443	0.72727	0.1	1681.7
27279	16.351	1.	0.1	1702.7
27280	16.443	0.90909	0.1	1680.8
27281	16.351	1.1818	0.1	1702.
27282	16.443	1.0909	0.1	1680.
27283	16.351	1.3636	0.1	1701.3
27284	16.443	1.2727	0.1	1679.3
27285	16.351	1.5455	0.1	1700.7
27286	16.443	1.4545	0.1	1678.7
27287	16.351	1.7273	0.1	1700.2
27288	16.443	1.6364	0.1	1678.1
27289	16.351	1.9091	0.1	1699.8
27290	16.443	1.8182	0.1	1677.7
27291	16.351	2.0909	0.1	1699.5
27292	16.443	2.	0.1	1677.3
27293	16.351	2.2727	0.1	1699.2
27294	16.443	2.1818	0.1	1677.
27295	16.351	2.4545	0.1	1699.
27296	16.443	2.3636	0.1	1676.8
27297	16.351	2.6364	0.1	1698.8
27298	16.443	2.5455	0.1	1676.6
27299	16.351	2.8182	0.1	1698.7
27300	16.443	2.7273	0.1	1676.5
27301	16.351	3.	0.1	1698.7
27302	16.443	2.9091	0.1	1676.4
27303	16.351	3.1818	0.1	1698.7
27304	16.443	3.0909	0.1	1676.4
27305	16.351	3.3636	0.1	1698.8
27306	16.443	3.2727	0.1	1676.5
27307	16.351	3.5455	0.1	1699.
27308	16.443	3.4545	0.1	1676.6
27309	16.351	3.7273	0.1	1699.2
27310	16.443	3.6364	0.1	1676.8
27311	16.351	3.9091	0.1	1699.5
27312	16.443	3.8182	0.1	1677.
27313	16.351	4.0909	0.1	1699.8
27314	16.443	4.	0.1	1677.3
27315	16.351	4.2727	0.1	1700.2
27316	16.443	4.1818	0.1	1677.7
27317	16.351	4.4545	0.1	1700.7
27318	16.443	4.3636	0.1	1678.1
27319	16.351	4.6364	0.1	1701.3
27320	16.443	4.5455	0.1	1678.7
27321	16.351	4.8182	0.1	1702.
27322	16.443	4.7273	0.1	1679.3
27323	16.351	5.	0.1	1702.7
27324	16.443	4.9091	0.1	1680.
27325	16.351	5.1818	0.1	1703.6
27326	16.443	5.0909	0.1	1680.8
27327	16.351	5.3636	0.1	1704.6
27328	16.443	5.2727	0.1	1681.7
27329	16.351	5.5455	0.1	1705.7
27330	16.443	5.4545	0.1	1682.7
27331	16.351	5.7273	0.1	1707.9
27332	16.443	5.6364	0.1	1683.9
27333	16.443	5.8182	0.1	1687.3
27334	16.351	5.9091	0.1	1703.7
27335	16.535	0.27273	0.1	1663.1
27336	16.627	0.18182	0.1	1642.6
27337	16.535	9.0909e-002	0.1	1658.8
27338	16.535	0.45455	0.1	1660.9
27339	16.627	0.36364	0.1	1639.3
27340	16.535	0.63636	0.1	1659.8
27341	16.627	0.54545	0.1	1638.
27342	16.535	0.81818	0.1	1658.8
27343	16.627	0.72727	0.1	1637.
27344	16.535	1.	0.1	1658.
27345	16.627	0.90909	0.1	1636.1
27346	16.535	1.1818	0.1	1657.3
27347	16.627	1.0909	0.1	1635.3
27348	16.535	1.3636	0.1	1656.6
27349	16.627	1.2727	0.1	1634.7
27350	16.535	1.5455	0.1	1656.1
27351	16.627	1.4545	0.1	1634.1
27352	16.535	1.7273	0.1	1655.6
27353	16.627	1.6364	0.1	1633.6
27354	16.535	1.9091	0.1	1655.2
27355	16.627	1.8182	0.1	1633.1
27356	16.535	2.0909	0.1	1654.8
27357	16.627	2.	0.1	1632.8
27358	16.535	2.2727	0.1	1654.6
27359	16.627	2.1818	0.1	1632.5
27360	16.535	2.4545	0.1	1654.4
27361	16.627	2.3636	0.1	1632.3
27362	16.535	2.6364	0.1	1654.2
27363	16.627	2.5455	0.1	1632.1
27364	16.535	2.8182	0.1	1654.1
27365	16.627	2.7273	0.1	1632.
27366	16.535	3.	0.1	1654.1
27367	16.627	2.9091	0.1	1631.9
27368	16.535	3.1818	0.1	1654.1
27369	16.627	3.0909	0.1	1631.9
27370	16.535	3.3636	0.1	1654.2
27371	16.627	3.2727	0.1	1632.
27372	16.535	3.5455	0.1	1654.4
27373	16.627	3.4545	0.1	1632.1
27374	16.535	3.7273	0.1	1654.6
27375	16.627	3.6364	0.1	1632.3
27376	16.535	3.9091	0.1	1654.8
27377	16.627	3.8182	0.1	1632.5
27378	16.535	4.0909	0.1	1655.2
27379	16.627	4.	0.1	1632.8
27380	16.535	4.2727	0.1	1655.6
27381	16.627	4.1818	0.1	1633.1
27382	16.535	4.4545	0.1	1656.1
27383	16.627	4.3636	0.1	1633.6
27384	16.535	4.6364	0.1	1656.6
27385	16.627	4.5455	0.1	1634.1
27386	16.535	4.8182	0.1	1657.3
27387	16.627	4.7273	0.1	1634.7
27388	16.535	5.	0.1	1658.
27389	16.627	4.9091	0.1	1635.3
27390	16.535	5.1818	0.1	1658.8
27391	16.627	5.0909	0.1	1636.1
27392	16.535	5.3636	0.1	1659.8
27393	16.627	5.2727	0.1	1637.
27394	16.535	5.5455	0.1	1660.9
27395	16.627	5.4545	0.1	1638.
27396	16.535	5.7273	0.1	1663.1
27397	16.627	5.6364	0.1	1639.3
27398	16.627	5.8182	0.1	1642.6
27399	16.535	5.9091	0.1	1658.8
27400	16.719	0.27273	0.1	1618.6
27401	16.81	0.18182	0.1	1598.1
27402	16.719	9.0909e-002	0.1	1614.2
27403	16.719	0.45455	0.1	1616.3
27404	16.81	0.36364	0.1	1594.7
27405	16.719	0.63636	0.1	1615.2
27406	16.81	0.54545	0.1	1593.5
27407	16.719	0.81818	0.1	1614.3
27408	16.81	0.72727	0.1	1592.5
27409	16.719	1.	0.1	1613.4
27410	16.81	0.90909	0.1	1591.7
27411	16.719	1.1818	0.1	1612.7
27412	16.81	1.0909	0.1	1590.9
27413	16.719	1.3636	0.1	1612.1
27414	16.81	1.2727	0.1	1590.3
27415	16.719	1.5455	0.1	1611.6
27416	16.81	1.4545	0.1	1589.7
27417	16.719	1.7273	0.1	1611.1
27418	16.81	1.6364	0.1	1589.2
27419	16.719	1.9091	0.1	1610.7
27420	16.81	1.8182	0.1	1588.8
27421	16.719	2.0909	0.1	1610.4
27422	16.81	2.	0.1	1588.5
27423	16.719	2.2727	0.1	1610.2
27424	16.81	2.1818	0.1	1588.2
27425	16.719	2.4545	0.1	1610.
27426	16.81	2.3636	0.1	1588.
27427	16.719	2.6364	0.1	1609.8
27428	16.81	2.5455	0.1	1587.8
27429	16.719	2.8182	0.1	1609.8
27430	16.81	2.7273	0.1	1587.7
27431	16.719	3.	0.1	1609.7
27432	16.81	2.9091	0.1	1587.7
27433	16.719	3.1818	0.1	1609.8
27434	16.81	3.0909	0.1	1587.7
27435	16.719	3.3636	0.1	1609.8
27436	16.81	3.2727	0.1	1587.7
27437	16.719	3.5455	0.1	1610.
27438	16.81	3.4545	0.1	1587.8
27439	16.719	3.7273	0.1	1610.2
27440	16.81	3.6364	0.1	1588.
27441	16.719	3.9091	0.1	1610.4
27442	16.81	3.8182	0.1	1588.2
27443	16.719	4.0909	0.1	1610.7
27444	16.81	4.	0.1	1588.5
27445	16.719	4.2727	0.1	1611.1
27446	16.81	4.1818	0.1	1588.8
27447	16.719	4.4545	0.1	1611.6
27448	16.81	4.3636	0.1	1589.2
27449	16.719	4.6364	0.1	1612.1
27450	16.81	4.5455	0.1	1589.7
27451	16.719	4.8182	0.1	1612.7
27452	16.81	4.7273	0.1	1590.3
27453	16.719	5.	0.1	1613.5
27454	16.81	4.9091	0.1	1590.9
27455	16.719	5.1818	0.1	1614.3
27456	16.81	5.0909	0.1	1591.7
27457	16.719	5.3636	0.1	1615.2
27458	16.81	5.2727	0.1	1592.5
27459	16.719	5.5455	0.1	1616.3
27460	16.81	5.4545	0.1	1593.5
27461	16.719	5.7273	0.1	1618.6
27462	16.81	5.6364	0.1	1594.7
27463	16.81	5.8182	0.1	1598.1
27464	16.719	5.9091	0.1	1614.2
27465	16.902	0.27273	0.1	1574.1
27466	16.994	0.18182	0.1	1553.8
27467	16.902	9.0909e-002	0.1	1569.7
27468	16.902	0.45455	0.1	1571.9
27469	16.994	0.36364	0.1	1550.4
27470	16.902	0.63636	0.1	1570.8
27471	16.994	0.54545	0.1	1549.2
27472	16.902	0.81818	0.1	1569.9
27473	16.994	0.72727	0.1	1548.2
27474	16.902	1.	0.1	1569.1
27475	16.994	0.90909	0.1	1547.4
27476	16.902	1.1818	0.1	1568.4
27477	16.994	1.0909	0.1	1546.7
27478	16.902	1.3636	0.1	1567.8
27479	16.994	1.2727	0.1	1546.
27480	16.902	1.5455	0.1	1567.3
27481	16.994	1.4545	0.1	1545.5
27482	16.902	1.7273	0.1	1566.8
27483	16.994	1.6364	0.1	1545.
27484	16.902	1.9091	0.1	1566.5
27485	16.994	1.8182	0.1	1544.6
27486	16.902	2.0909	0.1	1566.2
27487	16.994	2.	0.1	1544.3
27488	16.902	2.2727	0.1	1566.
27489	16.994	2.1818	0.1	1544.1
27490	16.902	2.4545	0.1	1565.8
27491	16.994	2.3636	0.1	1543.9
27492	16.902	2.6364	0.1	1565.6
27493	16.994	2.5455	0.1	1543.7
27494	16.902	2.8182	0.1	1565.6
27495	16.994	2.7273	0.1	1543.6
27496	16.902	3.	0.1	1565.5
27497	16.994	2.9091	0.1	1543.6
27498	16.902	3.1818	0.1	1565.6
27499	16.994	3.0909	0.1	1543.6
27500	16.902	3.3636	0.1	1565.6
27501	16.994	3.2727	0.1	1543.6
27502	16.902	3.5455	0.1	1565.8
27503	16.994	3.4545	0.1	1543.7
27504	16.902	3.7273	0.1	1566.
27505	16.994	3.6364	0.1	1543.9
27506	16.902	3.9091	0.1	1566.2
27507	16.994	3.8182	0.1	1544.1
27508	16.902	4.0909	0.1	1566.5
27509	16.994	4.	0.1	1544.3
27510	16.902	4.2727	0.1	1566.8
27511	16.994	4.1818	0.1	1544.6
27512	16.902	4.4545	0.1	1567.3
27513	16.994	4.3636	0.1	1545.
27514	16.902	4.6364	0.1	1567.8
27515	16.994	4.5455	0.1	1545.5
27516	16.902	4.8182	0.1	1568.4
27517	16.994	4.7273	0.1	1546.
27518	16.902	5.	0.1	1569.1
27519	16.994	4.9091	0.1	1546.7
27520	16.902	5.1818	0.1	1569.9
27521	16.994	5.0909	0.1	1547.4
27522	16.902	5.3636	0.1	1570.8
27523	16.994	5.2727	0.1	1548.2
27524	16.902	5.5455	0.1	1571.9
27525	16.994	5.4545	0.1	1549.2
27526	16.902	5.7273	0.1	1574.1
27527	16.994	5.6364	0.1	1550.4
27528	16.994	5.8182	0.1	1553.8
27529	16.902	5.9091	0.1	1569.7
27530	17.086	0.27273	0.1	1529.9
27531	17.178	0.18182	0.1	1509.6
27532	17.086	9.0909e-002	0.1	1525.4
27533	17.086	0.45455	0.1	1527.7
27534	17.178	0.36364	0.1	1506.3
27535	17.086	0.63636	0.1	1526.6
27536	17.178	0.54545	0.1	1505.1
27537	17.086	0.81818	0.1	1525.7
27538	17.178	0.72727	0.1	1504.1
27539	17.086	1.	0.1	1524.9
27540	17.178	0.90909	0.1	1503.3
27541	17.086	1.1818	0.1	1524.3
27542	17.178	1.0909	0.1	1502.6
27543	17.086	1.3636	0.1	1523.7
27544	17.178	1.2727	0.1	1502.
27545	17.086	1.5455	0.1	1523.2
27546	17.178	1.4545	0.1	1501.5
27547	17.086	1.7273	0.1	1522.8
27548	17.178	1.6364	0.1	1501.1
27549	17.086	1.9091	0.1	1522.4
27550	17.178	1.8182	0.1	1500.7
27551	17.086	2.0909	0.1	1522.2
27552	17.178	2.	0.1	1500.4
27553	17.086	2.2727	0.1	1521.9
27554	17.178	2.1818	0.1	1500.2
27555	17.086	2.4545	0.1	1521.8
27556	17.178	2.3636	0.1	1500.
27557	17.086	2.6364	0.1	1521.7
27558	17.178	2.5455	0.1	1499.8
27559	17.086	2.8182	0.1	1521.6
27560	17.178	2.7273	0.1	1499.7
27561	17.086	3.	0.1	1521.6
27562	17.178	2.9091	0.1	1499.7
27563	17.086	3.1818	0.1	1521.6
27564	17.178	3.0909	0.1	1499.7
27565	17.086	3.3636	0.1	1521.7
27566	17.178	3.2727	0.1	1499.7
27567	17.086	3.5455	0.1	1521.8
27568	17.178	3.4545	0.1	1499.8
27569	17.086	3.7273	0.1	1521.9
27570	17.178	3.6364	0.1	1500.
27571	17.086	3.9091	0.1	1522.2
27572	17.178	3.8182	0.1	1500.2
27573	17.086	4.0909	0.1	1522.4
27574	17.178	4.	0.1	1500.4
27575	17.086	4.2727	0.1	1522.8
27576	17.178	4.1818	0.1	1500.7
27577	17.086	4.4545	0.1	1523.2
27578	17.178	4.3636	0.1	1501.1
27579	17.086	4.6364	0.1	1523.7
27580	17.178	4.5455	0.1	1501.5
27581	17.086	4.8182	0.1	1524.3
27582	17.178	4.7273	0.1	1502.
27583	17.086	5.	0.1	1524.9
27584	17.178	4.9091	0.1	1502.6
27585	17.086	5.1818	0.1	1525.7
27586	17.178	5.0909	0.1	1503.3
27587	17.086	5.3636	0.1	1526.6
27588	17.178	5.2727	0.1	1504.1
27589	17.086	5.5455	0.1	1527.7
27590	17.178	5.4545	0.1	1505.1
27591	17.086	5.7273	0.1	1529.9
27592	17.178	5.6364	0.1	1506.3
27593	17.178	5.8182	0.1	1509.6
27594	17.086	5.9091	0.1	1525.4
27595	17.27	0.27273	0.1	1485.9
27596	17.362	0.18182	0.1	1465.7
27597	17.27	9.0909e-002	0.1	1481.3
27598	17.27	0.45455	0.1	1483.6
27599	17.362	0.36364	0.1	1462.3
27600	17.27	0.63636	0.1	1482.6
27601	17.362	0.54545	0.1	1461.1
27602	17.27	0.81818	0.1	1481.7
27603	17.362	0.72727	0.1	1460.2
27604	17.27	1.	0.1	1481.
27605	17.362	0.90909	0.1	1459.4
27606	17.27	1.1818	0.1	1480.3
27607	17.362	1.0909	0.1	1458.7
27608	17.27	1.3636	0.1	1479.8
27609	17.362	1.2727	0.1	1458.2
27610	17.27	1.5455	0.1	1479.3
27611	17.362	1.4545	0.1	1457.7
27612	17.27	1.7273	0.1	1478.9
27613	17.362	1.6364	0.1	1457.3
27614	17.27	1.9091	0.1	1478.6
27615	17.362	1.8182	0.1	1456.9
27616	17.27	2.0909	0.1	1478.3
27617	17.362	2.	0.1	1456.7
27618	17.27	2.2727	0.1	1478.1
27619	17.362	2.1818	0.1	1456.4
27620	17.27	2.4545	0.1	1478.
27621	17.362	2.3636	0.1	1456.3
27622	17.27	2.6364	0.1	1477.9
27623	17.362	2.5455	0.1	1456.2
27624	17.27	2.8182	0.1	1477.8
27625	17.362	2.7273	0.1	1456.1
27626	17.27	3.	0.1	1477.8
27627	17.362	2.9091	0.1	1456.
27628	17.27	3.1818	0.1	1477.8
27629	17.362	3.0909	0.1	1456.
27630	17.27	3.3636	0.1	1477.9
27631	17.362	3.2727	0.1	1456.1
27632	17.27	3.5455	0.1	1478.
27633	17.362	3.4545	0.1	1456.2
27634	17.27	3.7273	0.1	1478.1
27635	17.362	3.6364	0.1	1456.3
27636	17.27	3.9091	0.1	1478.3
27637	17.362	3.8182	0.1	1456.4
27638	17.27	4.0909	0.1	1478.6
27639	17.362	4.	0.1	1456.7
27640	17.27	4.2727	0.1	1478.9
27641	17.362	4.1818	0.1	1456.9
27642	17.27	4.4545	0.1	1479.3
27643	17.362	4.3636	0.1	1457.3
27644	17.27	4.6364	0.1	1479.8
27645	17.362	4.5455	0.1	1457.7
27646	17.27	4.8182	0.1	1480.3
27647	17.362	4.7273	0.1	1458.2
27648	17.27	5.	0.1	1481.
27649	17.362	4.9091	0.1	1458.7
27650	17.27	5.1818	0.1	1481.7
27651	17.362	5.0909	0.1	1459.4
27652	17.27	5.3636	0.1	1482.6
27653	17.362	5.2727	0.1	1460.2
27654	17.27	5.5455	0.1	1483.6
27655	17.362	5.4545	0.1	1461.1
27656	17.27	5.7273	0.1	1485.9
27657	17.362	5.6364	0.1	1462.3
27658	17.362	5.8182	0.1	1465.7
27659	17.27	5.9091	0.1	1481.3
27660	17.453	0.27273	0.1	1442.
27661	17.545	0.18182	0.1	1421.9
27662	17.453	9.0909e-002	0.1	1437.3
27663	17.453	0.45455	0.1	1439.8
27664	17.545	0.36364	0.1	1418.5
27665	17.453	0.63636	0.1	1438.7
27666	17.545	0.54545	0.1	1417.4
27667	17.453	0.81818	0.1	1437.9
27668	17.545	0.72727	0.1	1416.5
27669	17.453	1.	0.1	1437.2
27670	17.545	0.90909	0.1	1415.7
27671	17.453	1.1818	0.1	1436.6
27672	17.545	1.0909	0.1	1415.1
27673	17.453	1.3636	0.1	1436.
27674	17.545	1.2727	0.1	1414.5
27675	17.453	1.5455	0.1	1435.6
27676	17.545	1.4545	0.1	1414.1
27677	17.453	1.7273	0.1	1435.3
27678	17.545	1.6364	0.1	1413.7
27679	17.453	1.9091	0.1	1435.
27680	17.545	1.8182	0.1	1413.4
27681	17.453	2.0909	0.1	1434.7
27682	17.545	2.	0.1	1413.1
27683	17.453	2.2727	0.1	1434.5
27684	17.545	2.1818	0.1	1412.9
27685	17.453	2.4545	0.1	1434.4
27686	17.545	2.3636	0.1	1412.8
27687	17.453	2.6364	0.1	1434.3
27688	17.545	2.5455	0.1	1412.7
27689	17.453	2.8182	0.1	1434.3
27690	17.545	2.7273	0.1	1412.6
27691	17.453	3.	0.1	1434.2
27692	17.545	2.9091	0.1	1412.6
27693	17.453	3.1818	0.1	1434.3
27694	17.545	3.0909	0.1	1412.6
27695	17.453	3.3636	0.1	1434.3
27696	17.545	3.2727	0.1	1412.6
27697	17.453	3.5455	0.1	1434.4
27698	17.545	3.4545	0.1	1412.7
27699	17.453	3.7273	0.1	1434.5
27700	17.545	3.6364	0.1	1412.8
27701	17.453	3.9091	0.1	1434.7
27702	17.545	3.8182	0.1	1412.9
27703	17.453	4.0909	0.1	1435.
27704	17.545	4.	0.1	1413.1
27705	17.453	4.2727	0.1	1435.3
27706	17.545	4.1818	0.1	1413.4
27707	17.453	4.4545	0.1	1435.6
27708	17.545	4.3636	0.1	1413.7
27709	17.453	4.6364	0.1	1436.
27710	17.545	4.5455	0.1	1414.1
27711	17.453	4.8182	0.1	1436.6
27712	17.545	4.7273	0.1	1414.5
27713	17.453	5.	0.1	1437.2
27714	17.545	4.9091	0.1	1415.1
27715	17.453	5.1818	0.1	1437.9
27716	17.545	5.0909	0.1	1415.7
27717	17.453	5.3636	0.1	1438.7
27718	17.545	5.2727	0.1	1416.5
27719	17.453	5.5455	0.1	1439.8
27720	17.545	5.4545	0.1	1417.4
27721	17.453	5.7273	0.1	1442.
27722	17.545	5.6364	0.1	1418.5
27723	17.545	5.8182	0.1	1421.9
27724	17.453	5.9091	0.1	1437.3
27725	17.637	0.27273	0.1	1398.3
27726	17.729	0.18182	0.1	1378.3
27727	17.637	9.0909e-002	0.1	1393.5
27728	17.637	0.45455	0.1	1396.1
27729	17.729	0.36364	0.1	1374.9
27730	17.637	0.63636	0.1	1395.1
27731	17.729	0.54545	0.1	1373.8
27732	17.637	0.81818	0.1	1394.3
27733	17.729	0.72727	0.1	1372.9
27734	17.637	1.	0.1	1393.6
27735	17.729	0.90909	0.1	1372.2
27736	17.637	1.1818	0.1	1393.
27737	17.729	1.0909	0.1	1371.6
27738	17.637	1.3636	0.1	1392.5
27739	17.729	1.2727	0.1	1371.1
27740	17.637	1.5455	0.1	1392.1
27741	17.729	1.4545	0.1	1370.7
27742	17.637	1.7273	0.1	1391.8
27743	17.729	1.6364	0.1	1370.3
27744	17.637	1.9091	0.1	1391.5
27745	17.729	1.8182	0.1	1370.
27746	17.637	2.0909	0.1	1391.3
27747	17.729	2.	0.1	1369.8
27748	17.637	2.2727	0.1	1391.2
27749	17.729	2.1818	0.1	1369.7
27750	17.637	2.4545	0.1	1391.
27751	17.729	2.3636	0.1	1369.5
27752	17.637	2.6364	0.1	1391.
27753	17.729	2.5455	0.1	1369.4
27754	17.637	2.8182	0.1	1390.9
27755	17.729	2.7273	0.1	1369.4
27756	17.637	3.	0.1	1390.9
27757	17.729	2.9091	0.1	1369.3
27758	17.637	3.1818	0.1	1390.9
27759	17.729	3.0909	0.1	1369.3
27760	17.637	3.3636	0.1	1391.
27761	17.729	3.2727	0.1	1369.4
27762	17.637	3.5455	0.1	1391.
27763	17.729	3.4545	0.1	1369.4
27764	17.637	3.7273	0.1	1391.2
27765	17.729	3.6364	0.1	1369.5
27766	17.637	3.9091	0.1	1391.3
27767	17.729	3.8182	0.1	1369.7
27768	17.637	4.0909	0.1	1391.5
27769	17.729	4.	0.1	1369.8
27770	17.637	4.2727	0.1	1391.8
27771	17.729	4.1818	0.1	1370.
27772	17.637	4.4545	0.1	1392.1
27773	17.729	4.3636	0.1	1370.3
27774	17.637	4.6364	0.1	1392.5
27775	17.729	4.5455	0.1	1370.7
27776	17.637	4.8182	0.1	1393.
27777	17.729	4.7273	0.1	1371.1
27778	17.637	5.	0.1	1393.6
27779	17.729	4.9091	0.1	1371.6
27780	17.637	5.1818	0.1	1394.3
27781	17.729	5.0909	0.1	1372.2
27782	17.637	5.3636	0.1	1395.1
27783	17.729	5.2727	0.1	1372.9
27784	17.637	5.5455	0.1	1396.1
27785	17.729	5.4545	0.1	1373.8
27786	17.637	5.7273	0.1	1398.3
27787	17.729	5.6364	0.1	1374.9
27788	17.729	5.8182	0.1	1378.3
27789	17.637	5.9091	0.1	1393.5
27790	17.821	0.27273	0.1	1354.7
27791	17.913	0.18182	0.1	1334.8
27792	17.821	9.0909e-002	0.1	1349.9
27793	17.821	0.45455	0.1	1352.5
27794	17.913	0.36364	0.1	1331.4
27795	17.821	0.63636	0.1	1351.6
27796	17.913	0.54545	0.1	1330.3
27797	17.821	0.81818	0.1	1350.8
27798	17.913	0.72727	0.1	1329.5
27799	17.821	1.	0.1	1350.2
27800	17.913	0.90909	0.1	1328.8
27801	17.821	1.1818	0.1	1349.6
27802	17.913	1.0909	0.1	1328.3
27803	17.821	1.3636	0.1	1349.2
27804	17.913	1.2727	0.1	1327.8
27805	17.821	1.5455	0.1	1348.8
27806	17.913	1.4545	0.1	1327.4
27807	17.821	1.7273	0.1	1348.5
27808	17.913	1.6364	0.1	1327.1
27809	17.821	1.9091	0.1	1348.3
27810	17.913	1.8182	0.1	1326.9
27811	17.821	2.0909	0.1	1348.1
27812	17.913	2.	0.1	1326.7
27813	17.821	2.2727	0.1	1348.
27814	17.913	2.1818	0.1	1326.6
27815	17.821	2.4545	0.1	1347.9
27816	17.913	2.3636	0.1	1326.5
27817	17.821	2.6364	0.1	1347.8
27818	17.913	2.5455	0.1	1326.4
27819	17.821	2.8182	0.1	1347.8
27820	17.913	2.7273	0.1	1326.3
27821	17.821	3.	0.1	1347.8
27822	17.913	2.9091	0.1	1326.3
27823	17.821	3.1818	0.1	1347.8
27824	17.913	3.0909	0.1	1326.3
27825	17.821	3.3636	0.1	1347.8
27826	17.913	3.2727	0.1	1326.3
27827	17.821	3.5455	0.1	1347.9
27828	17.913	3.4545	0.1	1326.4
27829	17.821	3.7273	0.1	1348.
27830	17.913	3.6364	0.1	1326.5
27831	17.821	3.9091	0.1	1348.1
27832	17.913	3.8182	0.1	1326.6
27833	17.821	4.0909	0.1	1348.3
27834	17.913	4.	0.1	1326.7
27835	17.821	4.2727	0.1	1348.5
27836	17.913	4.1818	0.1	1326.9
27837	17.821	4.4545	0.1	1348.8
27838	17.913	4.3636	0.1	1327.1
27839	17.821	4.6364	0.1	1349.2
27840	17.913	4.5455	0.1	1327.4
27841	17.821	4.8182	0.1	1349.6
27842	17.913	4.7273	0.1	1327.8
27843	17.821	5.	0.1	1350.2
27844	17.913	4.9091	0.1	1328.3
27845	17.821	5.1818	0.1	1350.8
27846	17.913	5.0909	0.1	1328.8
27847	17.821	5.3636	0.1	1351.6
27848	17.913	5.2727	0.1	1329.5
27849	17.821	5.5455	0.1	1352.5
27850	17.913	5.4545	0.1	1330.3
27851	17.821	5.7273	0.1	1354.7
27852	17.913	5.6364	0.1	1331.4
27853	17.913	5.8182	0.1	1334.8
27854	17.821	5.9091	0.1	1349.9
27855	18.005	0.27273	0.1	1311.4
27856	18.097	0.18182	0.1	1291.5
27857	18.005	9.0909e-002	0.1	1306.5
27858	18.005	0.45455	0.1	1309.2
27859	18.097	0.36364	0.1	1288.2
27860	18.005	0.63636	0.1	1308.3
27861	18.097	0.54545	0.1	1287.1
27862	18.005	0.81818	0.1	1307.5
27863	18.097	0.72727	0.1	1286.3
27864	18.005	1.	0.1	1306.9
27865	18.097	0.90909	0.1	1285.7
27866	18.005	1.1818	0.1	1306.4
27867	18.097	1.0909	0.1	1285.2
27868	18.005	1.3636	0.1	1306.
27869	18.097	1.2727	0.1	1284.7
27870	18.005	1.5455	0.1	1305.7
27871	18.097	1.4545	0.1	1284.4
27872	18.005	1.7273	0.1	1305.5
27873	18.097	1.6364	0.1	1284.2
27874	18.005	1.9091	0.1	1305.3
27875	18.097	1.8182	0.1	1284.
27876	18.005	2.0909	0.1	1305.1
27877	18.097	2.	0.1	1283.8
27878	18.005	2.2727	0.1	1305.
27879	18.097	2.1818	0.1	1283.7
27880	18.005	2.4545	0.1	1304.9
27881	18.097	2.3636	0.1	1283.6
27882	18.005	2.6364	0.1	1304.9
27883	18.097	2.5455	0.1	1283.5
27884	18.005	2.8182	0.1	1304.8
27885	18.097	2.7273	0.1	1283.5
27886	18.005	3.	0.1	1304.8
27887	18.097	2.9091	0.1	1283.5
27888	18.005	3.1818	0.1	1304.8
27889	18.097	3.0909	0.1	1283.5
27890	18.005	3.3636	0.1	1304.9
27891	18.097	3.2727	0.1	1283.5
27892	18.005	3.5455	0.1	1304.9
27893	18.097	3.4545	0.1	1283.5
27894	18.005	3.7273	0.1	1305.
27895	18.097	3.6364	0.1	1283.6
27896	18.005	3.9091	0.1	1305.1
27897	18.097	3.8182	0.1	1283.7
27898	18.005	4.0909	0.1	1305.3
27899	18.097	4.	0.1	1283.8
27900	18.005	4.2727	0.1	1305.5
27901	18.097	4.1818	0.1	1284.
27902	18.005	4.4545	0.1	1305.7
27903	18.097	4.3636	0.1	1284.2
27904	18.005	4.6364	0.1	1306.
27905	18.097	4.5455	0.1	1284.4
27906	18.005	4.8182	0.1	1306.4
27907	18.097	4.7273	0.1	1284.7
27908	18.005	5.	0.1	1306.9
27909	18.097	4.9091	0.1	1285.2
27910	18.005	5.1818	0.1	1307.5
27911	18.097	5.0909	0.1	1285.7
27912	18.005	5.3636	0.1	1308.3
27913	18.097	5.2727	0.1	1286.3
27914	18.005	5.5455	0.1	1309.2
27915	18.097	5.4545	0.1	1287.1
27916	18.005	5.7273	0.1	1311.4
27917	18.097	5.6364	0.1	1288.2
27918	18.097	5.8182	0.1	1291.5
27919	18.005	5.9091	0.1	1306.5
27920	18.188	0.27273	0.1	1268.1
27921	18.28	0.18182	0.1	1248.4
27922	18.188	9.0909e-002	0.1	1263.2
27923	18.188	0.45455	0.1	1266.
27924	18.28	0.36364	0.1	1245.
27925	18.188	0.63636	0.1	1265.1
27926	18.28	0.54545	0.1	1244.
27927	18.188	0.81818	0.1	1264.4
27928	18.28	0.72727	0.1	1243.3
27929	18.188	1.	0.1	1263.9
27930	18.28	0.90909	0.1	1242.7
27931	18.188	1.1818	0.1	1263.4
27932	18.28	1.0909	0.1	1242.2
27933	18.188	1.3636	0.1	1263.1
27934	18.28	1.2727	0.1	1241.9
27935	18.188	1.5455	0.1	1262.8
27936	18.28	1.4545	0.1	1241.6
27937	18.188	1.7273	0.1	1262.6
27938	18.28	1.6364	0.1	1241.4
27939	18.188	1.9091	0.1	1262.4
27940	18.28	1.8182	0.1	1241.2
27941	18.188	2.0909	0.1	1262.3
27942	18.28	2.	0.1	1241.1
27943	18.188	2.2727	0.1	1262.2
27944	18.28	2.1818	0.1	1241.
27945	18.188	2.4545	0.1	1262.2
27946	18.28	2.3636	0.1	1241.
27947	18.188	2.6364	0.1	1262.2
27948	18.28	2.5455	0.1	1240.9
27949	18.188	2.8182	0.1	1262.1
27950	18.28	2.7273	0.1	1240.9
27951	18.188	3.	0.1	1262.1
27952	18.28	2.9091	0.1	1240.9
27953	18.188	3.1818	0.1	1262.1
27954	18.28	3.0909	0.1	1240.9
27955	18.188	3.3636	0.1	1262.2
27956	18.28	3.2727	0.1	1240.9
27957	18.188	3.5455	0.1	1262.2
27958	18.28	3.4545	0.1	1240.9
27959	18.188	3.7273	0.1	1262.2
27960	18.28	3.6364	0.1	1241.
27961	18.188	3.9091	0.1	1262.3
27962	18.28	3.8182	0.1	1241.
27963	18.188	4.0909	0.1	1262.4
27964	18.28	4.	0.1	1241.1
27965	18.188	4.2727	0.1	1262.6
27966	18.28	4.1818	0.1	1241.2
27967	18.188	4.4545	0.1	1262.8
27968	18.28	4.3636	0.1	1241.4
27969	18.188	4.6364	0.1	1263.1
27970	18.28	4.5455	0.1	1241.6
27971	18.188	4.8182	0.1	1263.4
27972	18.28	4.7273	0.1	1241.9
27973	18.188	5.	0.1	1263.9
27974	18.28	4.9091	0.1	1242.2
27975	18.188	5.1818	0.1	1264.4
27976	18.28	5.0909	0.1	1242.7
27977	18.188	5.3636	0.1	1265.1
27978	18.28	5.2727	0.1	1243.3
27979	18.188	5.5455	0.1	1266.
27980	18.28	5.4545	0.1	1244.
27981	18.188	5.7273	0.1	1268.1
27982	18.28	5.6364	0.1	1245.
27983	18.28	5.8182	0.1	1248.4
27984	18.188	5.9091	0.1	1263.2
27985	18.372	0.27273	0.1	1225.1
27986	18.464	0.18182	0.1	1205.4
27987	18.372	9.0909e-002	0.1	1220.1
27988	18.372	0.45455	0.1	1223.
27989	18.464	0.36364	0.1	1202.1
27990	18.372	0.63636	0.1	1222.1
27991	18.464	0.54545	0.1	1201.1
27992	18.372	0.81818	0.1	1221.5
27993	18.464	0.72727	0.1	1200.4
27994	18.372	1.	0.1	1221.
27995	18.464	0.90909	0.1	1199.9
27996	18.372	1.1818	0.1	1220.6
27997	18.464	1.0909	0.1	1199.5
27998	18.372	1.3636	0.1	1220.3
27999	18.464	1.2727	0.1	1199.2
28000	18.372	1.5455	0.1	1220.1
28001	18.464	1.4545	0.1	1198.9
28002	18.372	1.7273	0.1	1219.9
28003	18.464	1.6364	0.1	1198.8
28004	18.372	1.9091	0.1	1219.8
28005	18.464	1.8182	0.1	1198.7
28006	18.372	2.0909	0.1	1219.8
28007	18.464	2.	0.1	1198.6
28008	18.372	2.2727	0.1	1219.7
28009	18.464	2.1818	0.1	1198.6
28010	18.372	2.4545	0.1	1219.7
28011	18.464	2.3636	0.1	1198.5
28012	18.372	2.6364	0.1	1219.6
28013	18.464	2.5455	0.1	1198.5
28014	18.372	2.8182	0.1	1219.6
28015	18.464	2.7273	0.1	1198.5
28016	18.372	3.	0.1	1219.6
28017	18.464	2.9091	0.1	1198.5
28018	18.372	3.1818	0.1	1219.6
28019	18.464	3.0909	0.1	1198.5
28020	18.372	3.3636	0.1	1219.6
28021	18.464	3.2727	0.1	1198.5
28022	18.372	3.5455	0.1	1219.7
28023	18.464	3.4545	0.1	1198.5
28024	18.372	3.7273	0.1	1219.7
28025	18.464	3.6364	0.1	1198.5
28026	18.372	3.9091	0.1	1219.8
28027	18.464	3.8182	0.1	1198.6
28028	18.372	4.0909	0.1	1219.8
28029	18.464	4.	0.1	1198.6
28030	18.372	4.2727	0.1	1219.9
28031	18.464	4.1818	0.1	1198.7
28032	18.372	4.4545	0.1	1220.1
28033	18.464	4.3636	0.1	1198.8
28034	18.372	4.6364	0.1	1220.3
28035	18.464	4.5455	0.1	1198.9
28036	18.372	4.8182	0.1	1220.6
28037	18.464	4.7273	0.1	1199.2
28038	18.372	5.	0.1	1221.
28039	18.464	4.9091	0.1	1199.5
28040	18.372	5.1818	0.1	1221.5
28041	18.464	5.0909	0.1	1199.9
28042	18.372	5.3636	0.1	1222.1
28043	18.464	5.2727	0.1	1200.4
28044	18.372	5.5455	0.1	1223.
28045	18.464	5.4545	0.1	1201.1
28046	18.372	5.7273	0.1	1225.1
28047	18.464	5.6364	0.1	1202.1
28048	18.464	5.8182	0.1	1205.4
28049	18.372	5.9091	0.1	1220.1
28050	18.556	0.27273	0.1	1182.2
28051	18.648	0.18182	0.1	1162.5
28052	18.556	9.0909e-002	0.1	1177.1
28053	18.556	0.45455	0.1	1180.1
28054	18.648	0.36364	0.1	1159.2
28055	18.556	0.63636	0.1	1179.3
28056	18.648	0.54545	0.1	1158.3
28057	18.556	0.81818	0.1	1178.8
28058	18.648	0.72727	0.1	1157.7
28059	18.556	1.	0.1	1178.3
28060	18.648	0.90909	0.1	1157.2
28061	18.556	1.1818	0.1	1178.
28062	18.648	1.0909	0.1	1156.9
28063	18.556	1.3636	0.1	1177.8
28064	18.648	1.2727	0.1	1156.7
28065	18.556	1.5455	0.1	1177.6
28066	18.648	1.4545	0.1	1156.5
28067	18.556	1.7273	0.1	1177.5
28068	18.648	1.6364	0.1	1156.4
28069	18.556	1.9091	0.1	1177.4
28070	18.648	1.8182	0.1	1156.3
28071	18.556	2.0909	0.1	1177.4
28072	18.648	2.	0.1	1156.3
28073	18.556	2.2727	0.1	1177.4
28074	18.648	2.1818	0.1	1156.3
28075	18.556	2.4545	0.1	1177.4
28076	18.648	2.3636	0.1	1156.3
28077	18.556	2.6364	0.1	1177.4
28078	18.648	2.5455	0.1	1156.3
28079	18.556	2.8182	0.1	1177.4
28080	18.648	2.7273	0.1	1156.3
28081	18.556	3.	0.1	1177.4
28082	18.648	2.9091	0.1	1156.3
28083	18.556	3.1818	0.1	1177.4
28084	18.648	3.0909	0.1	1156.3
28085	18.556	3.3636	0.1	1177.4
28086	18.648	3.2727	0.1	1156.3
28087	18.556	3.5455	0.1	1177.4
28088	18.648	3.4545	0.1	1156.3
28089	18.556	3.7273	0.1	1177.4
28090	18.648	3.6364	0.1	1156.3
28091	18.556	3.9091	0.1	1177.4
28092	18.648	3.8182	0.1	1156.3
28093	18.556	4.0909	0.1	1177.4
28094	18.648	4.	0.1	1156.3
28095	18.556	4.2727	0.1	1177.5
28096	18.648	4.1818	0.1	1156.3
28097	18.556	4.4545	0.1	1177.6
28098	18.648	4.3636	0.1	1156.4
28099	18.556	4.6364	0.1	1177.8
28100	18.648	4.5455	0.1	1156.5
28101	18.556	4.8182	0.1	1178.
28102	18.648	4.7273	0.1	1156.7
28103	18.556	5.	0.1	1178.3
28104	18.648	4.9091	0.1	1156.9
28105	18.556	5.1818	0.1	1178.8
28106	18.648	5.0909	0.1	1157.2
28107	18.556	5.3636	0.1	1179.3
28108	18.648	5.2727	0.1	1157.7
28109	18.556	5.5455	0.1	1180.1
28110	18.648	5.4545	0.1	1158.3
28111	18.556	5.7273	0.1	1182.2
28112	18.648	5.6364	0.1	1159.2
28113	18.648	5.8182	0.1	1162.5
28114	18.556	5.9091	0.1	1177.1
28115	18.74	0.27273	0.1	1139.4
28116	18.831	0.18182	0.1	1119.8
28117	18.74	9.0909e-002	0.1	1134.3
28118	18.74	0.45455	0.1	1137.4
28119	18.831	0.36364	0.1	1116.6
28120	18.74	0.63636	0.1	1136.7
28121	18.831	0.54545	0.1	1115.7
28122	18.74	0.81818	0.1	1136.2
28123	18.831	0.72727	0.1	1115.2
28124	18.74	1.	0.1	1135.8
28125	18.831	0.90909	0.1	1114.8
28126	18.74	1.1818	0.1	1135.5
28127	18.831	1.0909	0.1	1114.5
28128	18.74	1.3636	0.1	1135.4
28129	18.831	1.2727	0.1	1114.3
28130	18.74	1.5455	0.1	1135.3
28131	18.831	1.4545	0.1	1114.3
28132	18.74	1.7273	0.1	1135.2
28133	18.831	1.6364	0.1	1114.2
28134	18.74	1.9091	0.1	1135.2
28135	18.831	1.8182	0.1	1114.2
28136	18.74	2.0909	0.1	1135.2
28137	18.831	2.	0.1	1114.2
28138	18.74	2.2727	0.1	1135.2
28139	18.831	2.1818	0.1	1114.3
28140	18.74	2.4545	0.1	1135.3
28141	18.831	2.3636	0.1	1114.3
28142	18.74	2.6364	0.1	1135.3
28143	18.831	2.5455	0.1	1114.3
28144	18.74	2.8182	0.1	1135.3
28145	18.831	2.7273	0.1	1114.4
28146	18.74	3.	0.1	1135.3
28147	18.831	2.9091	0.1	1114.4
28148	18.74	3.1818	0.1	1135.3
28149	18.831	3.0909	0.1	1114.4
28150	18.74	3.3636	0.1	1135.3
28151	18.831	3.2727	0.1	1114.4
28152	18.74	3.5455	0.1	1135.3
28153	18.831	3.4545	0.1	1114.3
28154	18.74	3.7273	0.1	1135.2
28155	18.831	3.6364	0.1	1114.3
28156	18.74	3.9091	0.1	1135.2
28157	18.831	3.8182	0.1	1114.3
28158	18.74	4.0909	0.1	1135.2
28159	18.831	4.	0.1	1114.2
28160	18.74	4.2727	0.1	1135.2
28161	18.831	4.1818	0.1	1114.2
28162	18.74	4.4545	0.1	1135.3
28163	18.831	4.3636	0.1	1114.2
28164	18.74	4.6364	0.1	1135.4
28165	18.831	4.5455	0.1	1114.3
28166	18.74	4.8182	0.1	1135.5
28167	18.831	4.7273	0.1	1114.3
28168	18.74	5.	0.1	1135.8
28169	18.831	4.9091	0.1	1114.5
28170	18.74	5.1818	0.1	1136.2
28171	18.831	5.0909	0.1	1114.8
28172	18.74	5.3636	0.1	1136.7
28173	18.831	5.2727	0.1	1115.2
28174	18.74	5.5455	0.1	1137.4
28175	18.831	5.4545	0.1	1115.7
28176	18.74	5.7273	0.1	1139.4
28177	18.831	5.6364	0.1	1116.6
28178	18.831	5.8182	0.1	1119.8
28179	18.74	5.9091	0.1	1134.3
28180	18.923	0.27273	0.1	1096.8
28181	19.015	0.18182	0.1	1077.2
28182	18.923	9.0909e-002	0.1	1091.6
28183	18.923	0.45455	0.1	1094.8
28184	19.015	0.36364	0.1	1074.
28185	18.923	0.63636	0.1	1094.2
28186	19.015	0.54545	0.1	1073.3
28187	18.923	0.81818	0.1	1093.7
28188	19.015	0.72727	0.1	1072.8
28189	18.923	1.	0.1	1093.5
28190	19.015	0.90909	0.1	1072.5
28191	18.923	1.1818	0.1	1093.3
28192	19.015	1.0909	0.1	1072.3
28193	18.923	1.3636	0.1	1093.2
28194	19.015	1.2727	0.1	1072.2
28195	18.923	1.5455	0.1	1093.2
28196	19.015	1.4545	0.1	1072.2
28197	18.923	1.7273	0.1	1093.2
28198	19.015	1.6364	0.1	1072.2
28199	18.923	1.9091	0.1	1093.2
28200	19.015	1.8182	0.1	1072.3
28201	18.923	2.0909	0.1	1093.3
28202	19.015	2.	0.1	1072.4
28203	18.923	2.2727	0.1	1093.3
28204	19.015	2.1818	0.1	1072.5
28205	18.923	2.4545	0.1	1093.4
28206	19.015	2.3636	0.1	1072.5
28207	18.923	2.6364	0.1	1093.4
28208	19.015	2.5455	0.1	1072.6
28209	18.923	2.8182	0.1	1093.4
28210	19.015	2.7273	0.1	1072.6
28211	18.923	3.	0.1	1093.5
28212	19.015	2.9091	0.1	1072.7
28213	18.923	3.1818	0.1	1093.4
28214	19.015	3.0909	0.1	1072.7
28215	18.923	3.3636	0.1	1093.4
28216	19.015	3.2727	0.1	1072.6
28217	18.923	3.5455	0.1	1093.4
28218	19.015	3.4545	0.1	1072.6
28219	18.923	3.7273	0.1	1093.3
28220	19.015	3.6364	0.1	1072.5
28221	18.923	3.9091	0.1	1093.3
28222	19.015	3.8182	0.1	1072.5
28223	18.923	4.0909	0.1	1093.2
28224	19.015	4.	0.1	1072.4
28225	18.923	4.2727	0.1	1093.2
28226	19.015	4.1818	0.1	1072.3
28227	18.923	4.4545	0.1	1093.2
28228	19.015	4.3636	0.1	1072.2
28229	18.923	4.6364	0.1	1093.2
28230	19.015	4.5455	0.1	1072.2
28231	18.923	4.8182	0.1	1093.3
28232	19.015	4.7273	0.1	1072.2
28233	18.923	5.	0.1	1093.5
28234	19.015	4.9091	0.1	1072.3
28235	18.923	5.1818	0.1	1093.7
28236	19.015	5.0909	0.1	1072.5
28237	18.923	5.3636	0.1	1094.2
28238	19.015	5.2727	0.1	1072.8
28239	18.923	5.5455	0.1	1094.8
28240	19.015	5.4545	0.1	1073.3
28241	18.923	5.7273	0.1	1096.8
28242	19.015	5.6364	0.1	1074.
28243	19.015	5.8182	0.1	1077.2
28244	18.923	5.9091	0.1	1091.6
28245	19.107	0.27273	0.1	1054.3
28246	19.199	0.18182	0.1	1034.8
28247	19.107	9.0909e-002	0.1	1049.
28248	19.107	0.45455	0.1	1052.4
28249	19.199	0.36364	0.1	1031.6
28250	19.107	0.63636	0.1	1051.8
28251	19.199	0.54545	0.1	1030.9
28252	19.107	0.81818	0.1	1051.5
28253	19.199	0.72727	0.1	1030.6
28254	19.107	1.	0.1	1051.3
28255	19.199	0.90909	0.1	1030.3
28256	19.107	1.1818	0.1	1051.2
28257	19.199	1.0909	0.1	1030.3
28258	19.107	1.3636	0.1	1051.2
28259	19.199	1.2727	0.1	1030.3
28260	19.107	1.5455	0.1	1051.2
28261	19.199	1.4545	0.1	1030.3
28262	19.107	1.7273	0.1	1051.3
28263	19.199	1.6364	0.1	1030.5
28264	19.107	1.9091	0.1	1051.4
28265	19.199	1.8182	0.1	1030.6
28266	19.107	2.0909	0.1	1051.5
28267	19.199	2.	0.1	1030.7
28268	19.107	2.2727	0.1	1051.6
28269	19.199	2.1818	0.1	1030.9
28270	19.107	2.4545	0.1	1051.7
28271	19.199	2.3636	0.1	1031.
28272	19.107	2.6364	0.1	1051.8
28273	19.199	2.5455	0.1	1031.1
28274	19.107	2.8182	0.1	1051.8
28275	19.199	2.7273	0.1	1031.1
28276	19.107	3.	0.1	1051.8
28277	19.199	2.9091	0.1	1031.1
28278	19.107	3.1818	0.1	1051.8
28279	19.199	3.0909	0.1	1031.1
28280	19.107	3.3636	0.1	1051.8
28281	19.199	3.2727	0.1	1031.1
28282	19.107	3.5455	0.1	1051.7
28283	19.199	3.4545	0.1	1031.1
28284	19.107	3.7273	0.1	1051.6
28285	19.199	3.6364	0.1	1031.
28286	19.107	3.9091	0.1	1051.5
28287	19.199	3.8182	0.1	1030.9
28288	19.107	4.0909	0.1	1051.4
28289	19.199	4.	0.1	1030.7
28290	19.107	4.2727	0.1	1051.3
28291	19.199	4.1818	0.1	1030.6
28292	19.107	4.4545	0.1	1051.2
28293	19.199	4.3636	0.1	1030.5
28294	19.107	4.6364	0.1	1051.2
28295	19.199	4.5455	0.1	1030.3
28296	19.107	4.8182	0.1	1051.2
28297	19.199	4.7273	0.1	1030.3
28298	19.107	5.	0.1	1051.3
28299	19.199	4.9091	0.1	1030.3
28300	19.107	5.1818	0.1	1051.5
28301	19.199	5.0909	0.1	1030.3
28302	19.107	5.3636	0.1	1051.8
28303	19.199	5.2727	0.1	1030.6
28304	19.107	5.5455	0.1	1052.4
28305	19.199	5.4545	0.1	1030.9
28306	19.107	5.7273	0.1	1054.3
28307	19.199	5.6364	0.1	1031.6
28308	19.199	5.8182	0.1	1034.8
28309	19.107	5.9091	0.1	1049.
28310	19.291	0.27273	0.1	1011.9
28311	19.383	0.18182	0.1	992.4
28312	19.291	9.0909e-002	0.1	1006.6
28313	19.291	0.45455	0.1	1010.1
28314	19.383	0.36364	0.1	989.37
28315	19.291	0.63636	0.1	1009.6
28316	19.383	0.54545	0.1	988.75
28317	19.291	0.81818	0.1	1009.4
28318	19.383	0.72727	0.1	988.48
28319	19.291	1.	0.1	1009.3
28320	19.383	0.90909	0.1	988.37
28321	19.291	1.1818	0.1	1009.3
28322	19.383	1.0909	0.1	988.4
28323	19.291	1.3636	0.1	1009.4
28324	19.383	1.2727	0.1	988.51
28325	19.291	1.5455	0.1	1009.5
28326	19.383	1.4545	0.1	988.68
28327	19.291	1.7273	0.1	1009.7
28328	19.383	1.6364	0.1	988.88
28329	19.291	1.9091	0.1	1009.9
28330	19.383	1.8182	0.1	989.09
28331	19.291	2.0909	0.1	1010.
28332	19.383	2.	0.1	989.29
28333	19.291	2.2727	0.1	1010.2
28334	19.383	2.1818	0.1	989.47
28335	19.291	2.4545	0.1	1010.3
28336	19.383	2.3636	0.1	989.62
28337	19.291	2.6364	0.1	1010.4
28338	19.383	2.5455	0.1	989.74
28339	19.291	2.8182	0.1	1010.4
28340	19.383	2.7273	0.1	989.82
28341	19.291	3.	0.1	1010.4
28342	19.383	2.9091	0.1	989.86
28343	19.291	3.1818	0.1	1010.4
28344	19.383	3.0909	0.1	989.86
28345	19.291	3.3636	0.1	1010.4
28346	19.383	3.2727	0.1	989.82
28347	19.291	3.5455	0.1	1010.3
28348	19.383	3.4545	0.1	989.74
28349	19.291	3.7273	0.1	1010.2
28350	19.383	3.6364	0.1	989.62
28351	19.291	3.9091	0.1	1010.
28352	19.383	3.8182	0.1	989.47
28353	19.291	4.0909	0.1	1009.9
28354	19.383	4.	0.1	989.29
28355	19.291	4.2727	0.1	1009.7
28356	19.383	4.1818	0.1	989.09
28357	19.291	4.4545	0.1	1009.5
28358	19.383	4.3636	0.1	988.88
28359	19.291	4.6364	0.1	1009.4
28360	19.383	4.5455	0.1	988.68
28361	19.291	4.8182	0.1	1009.3
28362	19.383	4.7273	0.1	988.51
28363	19.291	5.	0.1	1009.3
28364	19.383	4.9091	0.1	988.4
28365	19.291	5.1818	0.1	1009.4
28366	19.383	5.0909	0.1	988.37
28367	19.291	5.3636	0.1	1009.6
28368	19.383	5.2727	0.1	988.48
28369	19.291	5.5455	0.1	1010.1
28370	19.383	5.4545	0.1	988.75
28371	19.291	5.7273	0.1	1011.9
28372	19.383	5.6364	0.1	989.37
28373	19.383	5.8182	0.1	992.4
28374	19.291	5.9091	0.1	1006.6
28375	19.474	0.27273	0.1	969.66
28376	19.566	0.18182	0.1	950.13
28377	19.474	9.0909e-002	0.1	964.26
28378	19.474	0.45455	0.1	967.94
28379	19.566	0.36364	0.1	947.2
28380	19.474	0.63636	0.1	967.56
28381	19.566	0.54545	0.1	946.69
28382	19.474	0.81818	0.1	967.43
28383	19.566	0.72727	0.1	946.54
28384	19.474	1.	0.1	967.44
28385	19.566	0.90909	0.1	946.55
28386	19.474	1.1818	0.1	967.57
28387	19.566	1.0909	0.1	946.7
28388	19.474	1.3636	0.1	967.76
28389	19.566	1.2727	0.1	946.93
28390	19.474	1.5455	0.1	968.
28391	19.566	1.4545	0.1	947.21
28392	19.474	1.7273	0.1	968.25
28393	19.566	1.6364	0.1	947.5
28394	19.474	1.9091	0.1	968.49
28395	19.566	1.8182	0.1	947.8
28396	19.474	2.0909	0.1	968.71
28397	19.566	2.	0.1	948.07
28398	19.474	2.2727	0.1	968.9
28399	19.566	2.1818	0.1	948.31
28400	19.474	2.4545	0.1	969.06
28401	19.566	2.3636	0.1	948.5
28402	19.474	2.6364	0.1	969.17
28403	19.566	2.5455	0.1	948.65
28404	19.474	2.8182	0.1	969.24
28405	19.566	2.7273	0.1	948.75
28406	19.474	3.	0.1	969.26
28407	19.566	2.9091	0.1	948.8
28408	19.474	3.1818	0.1	969.24
28409	19.566	3.0909	0.1	948.8
28410	19.474	3.3636	0.1	969.17
28411	19.566	3.2727	0.1	948.75
28412	19.474	3.5455	0.1	969.06
28413	19.566	3.4545	0.1	948.65
28414	19.474	3.7273	0.1	968.9
28415	19.566	3.6364	0.1	948.5
28416	19.474	3.9091	0.1	968.71
28417	19.566	3.8182	0.1	948.31
28418	19.474	4.0909	0.1	968.49
28419	19.566	4.	0.1	948.07
28420	19.474	4.2727	0.1	968.25
28421	19.566	4.1818	0.1	947.8
28422	19.474	4.4545	0.1	968.
28423	19.566	4.3636	0.1	947.5
28424	19.474	4.6364	0.1	967.76
28425	19.566	4.5455	0.1	947.21
28426	19.474	4.8182	0.1	967.57
28427	19.566	4.7273	0.1	946.93
28428	19.474	5.	0.1	967.44
28429	19.566	4.9091	0.1	946.7
28430	19.474	5.1818	0.1	967.43
28431	19.566	5.0909	0.1	946.56
28432	19.474	5.3636	0.1	967.56
28433	19.566	5.2727	0.1	946.54
28434	19.474	5.5455	0.1	967.95
28435	19.566	5.4545	0.1	946.69
28436	19.474	5.7273	0.1	969.66
28437	19.566	5.6364	0.1	947.2
28438	19.566	5.8182	0.1	950.13
28439	19.474	5.9091	0.1	964.26
28440	19.658	0.27273	0.1	927.49
28441	19.75	0.18182	0.1	907.94
28442	19.658	9.0909e-002	0.1	922.03
28443	19.658	0.45455	0.1	925.88
28444	19.75	0.36364	0.1	905.13
28445	19.658	0.63636	0.1	925.62
28446	19.75	0.54545	0.1	904.74
28447	19.658	0.81818	0.1	925.62
28448	19.75	0.72727	0.1	904.73
28449	19.658	1.	0.1	925.77
28450	19.75	0.90909	0.1	904.89
28451	19.658	1.1818	0.1	926.02
28452	19.75	1.0909	0.1	905.17
28453	19.658	1.3636	0.1	926.33
28454	19.75	1.2727	0.1	905.53
28455	19.658	1.5455	0.1	926.68
28456	19.75	1.4545	0.1	905.93
28457	19.658	1.7273	0.1	927.02
28458	19.75	1.6364	0.1	906.34
28459	19.658	1.9091	0.1	927.34
28460	19.75	1.8182	0.1	906.72
28461	19.658	2.0909	0.1	927.63
28462	19.75	2.	0.1	907.07
28463	19.658	2.2727	0.1	927.87
28464	19.75	2.1818	0.1	907.37
28465	19.658	2.4545	0.1	928.07
28466	19.75	2.3636	0.1	907.61
28467	19.658	2.6364	0.1	928.2
28468	19.75	2.5455	0.1	907.79
28469	19.658	2.8182	0.1	928.29
28470	19.75	2.7273	0.1	907.91
28471	19.658	3.	0.1	928.31
28472	19.75	2.9091	0.1	907.97
28473	19.658	3.1818	0.1	928.29
28474	19.75	3.0909	0.1	907.97
28475	19.658	3.3636	0.1	928.2
28476	19.75	3.2727	0.1	907.91
28477	19.658	3.5455	0.1	928.07
28478	19.75	3.4545	0.1	907.79
28479	19.658	3.7273	0.1	927.87
28480	19.75	3.6364	0.1	907.61
28481	19.658	3.9091	0.1	927.63
28482	19.75	3.8182	0.1	907.37
28483	19.658	4.0909	0.1	927.34
28484	19.75	4.	0.1	907.07
28485	19.658	4.2727	0.1	927.02
28486	19.75	4.1818	0.1	906.72
28487	19.658	4.4545	0.1	926.68
28488	19.75	4.3636	0.1	906.34
28489	19.658	4.6364	0.1	926.33
28490	19.75	4.5455	0.1	905.93
28491	19.658	4.8182	0.1	926.02
28492	19.75	4.7273	0.1	905.53
28493	19.658	5.	0.1	925.77
28494	19.75	4.9091	0.1	905.17
28495	19.658	5.1818	0.1	925.62
28496	19.75	5.0909	0.1	904.89
28497	19.658	5.3636	0.1	925.62
28498	19.75	5.2727	0.1	904.73
28499	19.658	5.5455	0.1	925.89
28500	19.75	5.4545	0.1	904.74
28501	19.658	5.7273	0.1	927.49
28502	19.75	5.6364	0.1	905.13
28503	19.75	5.8182	0.1	907.94
28504	19.658	5.9091	0.1	922.03
28505	19.842	0.27273	0.1	885.39
28506	19.934	0.18182	0.1	865.81
28507	19.842	9.0909e-002	0.1	879.89
28508	19.842	0.45455	0.1	883.92
28509	19.934	0.36364	0.1	863.14
28510	19.842	0.63636	0.1	883.8
28511	19.934	0.54545	0.1	862.9
28512	19.842	0.81818	0.1	883.95
28513	19.934	0.72727	0.1	863.04
28514	19.842	1.	0.1	884.25
28515	19.934	0.90909	0.1	863.36
28516	19.842	1.1818	0.1	884.64
28517	19.934	1.0909	0.1	863.81
28518	19.842	1.3636	0.1	885.09
28519	19.934	1.2727	0.1	864.32
28520	19.842	1.5455	0.1	885.56
28521	19.934	1.4545	0.1	864.86
28522	19.842	1.7273	0.1	886.01
28523	19.934	1.6364	0.1	865.38
28524	19.842	1.9091	0.1	886.42
28525	19.934	1.8182	0.1	865.87
28526	19.842	2.0909	0.1	886.77
28527	19.934	2.	0.1	866.3
28528	19.842	2.2727	0.1	887.07
28529	19.934	2.1818	0.1	866.66
28530	19.842	2.4545	0.1	887.3
28531	19.934	2.3636	0.1	866.94
28532	19.842	2.6364	0.1	887.46
28533	19.934	2.5455	0.1	867.15
28534	19.842	2.8182	0.1	887.56
28535	19.934	2.7273	0.1	867.29
28536	19.842	3.	0.1	887.59
28537	19.934	2.9091	0.1	867.36
28538	19.842	3.1818	0.1	887.56
28539	19.934	3.0909	0.1	867.36
28540	19.842	3.3636	0.1	887.46
28541	19.934	3.2727	0.1	867.29
28542	19.842	3.5455	0.1	887.3
28543	19.934	3.4545	0.1	867.15
28544	19.842	3.7273	0.1	887.07
28545	19.934	3.6364	0.1	866.94
28546	19.842	3.9091	0.1	886.77
28547	19.934	3.8182	0.1	866.66
28548	19.842	4.0909	0.1	886.42
28549	19.934	4.	0.1	866.3
28550	19.842	4.2727	0.1	886.01
28551	19.934	4.1818	0.1	865.87
28552	19.842	4.4545	0.1	885.56
28553	19.934	4.3636	0.1	865.38
28554	19.842	4.6364	0.1	885.09
28555	19.934	4.5455	0.1	864.86
28556	19.842	4.8182	0.1	884.64
28557	19.934	4.7273	0.1	864.32
28558	19.842	5.	0.1	884.25
28559	19.934	4.9091	0.1	863.81
28560	19.842	5.1818	0.1	883.95
28561	19.934	5.0909	0.1	863.36
28562	19.842	5.3636	0.1	883.8
28563	19.934	5.2727	0.1	863.04
28564	19.842	5.5455	0.1	883.92
28565	19.934	5.4545	0.1	862.9
28566	19.842	5.7273	0.1	885.39
28567	19.934	5.6364	0.1	863.14
28568	19.934	5.8182	0.1	865.81
28569	19.842	5.9091	0.1	879.89
28570	20.026	0.27273	0.1	843.36
28571	20.117	0.18182	0.1	823.72
28572	20.026	9.0909e-002	0.1	837.81
28573	20.026	0.45455	0.1	842.05
28574	20.117	0.36364	0.1	821.21
28575	20.026	0.63636	0.1	842.09
28576	20.117	0.54545	0.1	821.14
28577	20.026	0.81818	0.1	842.41
28578	20.117	0.72727	0.1	821.46
28579	20.026	1.	0.1	842.88
28580	20.117	0.90909	0.1	821.97
28581	20.026	1.1818	0.1	843.44
28582	20.117	1.0909	0.1	822.6
28583	20.026	1.3636	0.1	844.05
28584	20.117	1.2727	0.1	823.29
28585	20.026	1.5455	0.1	844.65
28586	20.117	1.4545	0.1	823.98
28587	20.026	1.7273	0.1	845.21
28588	20.117	1.6364	0.1	824.64
28589	20.026	1.9091	0.1	845.72
28590	20.117	1.8182	0.1	825.24
28591	20.026	2.0909	0.1	846.15
28592	20.117	2.	0.1	825.76
28593	20.026	2.2727	0.1	846.5
28594	20.117	2.1818	0.1	826.18
28595	20.026	2.4545	0.1	846.76
28596	20.117	2.3636	0.1	826.51
28597	20.026	2.6364	0.1	846.95
28598	20.117	2.5455	0.1	826.75
28599	20.026	2.8182	0.1	847.06
28600	20.117	2.7273	0.1	826.9
28601	20.026	3.	0.1	847.1
28602	20.117	2.9091	0.1	826.98
28603	20.026	3.1818	0.1	847.06
28604	20.117	3.0909	0.1	826.98
28605	20.026	3.3636	0.1	846.95
28606	20.117	3.2727	0.1	826.9
28607	20.026	3.5455	0.1	846.76
28608	20.117	3.4545	0.1	826.75
28609	20.026	3.7273	0.1	846.5
28610	20.117	3.6364	0.1	826.51
28611	20.026	3.9091	0.1	846.15
28612	20.117	3.8182	0.1	826.18
28613	20.026	4.0909	0.1	845.72
28614	20.117	4.	0.1	825.76
28615	20.026	4.2727	0.1	845.21
28616	20.117	4.1818	0.1	825.24
28617	20.026	4.4545	0.1	844.65
28618	20.117	4.3636	0.1	824.64
28619	20.026	4.6364	0.1	844.05
28620	20.117	4.5455	0.1	823.98
28621	20.026	4.8182	0.1	843.44
28622	20.117	4.7273	0.1	823.29
28623	20.026	5.	0.1	842.88
28624	20.117	4.9091	0.1	822.6
28625	20.026	5.1818	0.1	842.41
28626	20.117	5.0909	0.1	821.97
28627	20.026	5.3636	0.1	842.09
28628	20.117	5.2727	0.1	821.46
28629	20.026	5.5455	0.1	842.05
28630	20.117	5.4545	0.1	821.14
28631	20.026	5.7273	0.1	843.36
28632	20.117	5.6364	0.1	821.21
28633	20.117	5.8182	0.1	823.72
28634	20.026	5.9091	0.1	837.81
28635	20.209	0.27273	0.1	801.37
28636	20.301	0.18182	0.1	781.63
28637	20.209	9.0909e-002	0.1	795.77
28638	20.209	0.45455	0.1	800.24
28639	20.301	0.36364	0.1	779.33
28640	20.209	0.63636	0.1	800.46
28641	20.301	0.54545	0.1	779.45
28642	20.209	0.81818	0.1	800.98
28643	20.301	0.72727	0.1	779.99
28644	20.209	1.	0.1	801.66
28645	20.301	0.90909	0.1	780.72
28646	20.209	1.1818	0.1	802.41
28647	20.301	1.0909	0.1	781.56
28648	20.209	1.3636	0.1	803.19
28649	20.301	1.2727	0.1	782.45
28650	20.209	1.5455	0.1	803.95
28651	20.301	1.4545	0.1	783.32
28652	20.209	1.7273	0.1	804.64
28653	20.301	1.6364	0.1	784.13
28654	20.209	1.9091	0.1	805.25
28655	20.301	1.8182	0.1	784.85
28656	20.209	2.0909	0.1	805.76
28657	20.301	2.	0.1	785.46
28658	20.209	2.2727	0.1	806.16
28659	20.301	2.1818	0.1	785.94
28660	20.209	2.4545	0.1	806.46
28661	20.301	2.3636	0.1	786.31
28662	20.209	2.6364	0.1	806.67
28663	20.301	2.5455	0.1	786.58
28664	20.209	2.8182	0.1	806.79
28665	20.301	2.7273	0.1	786.74
28666	20.209	3.	0.1	806.83
28667	20.301	2.9091	0.1	786.82
28668	20.209	3.1818	0.1	806.79
28669	20.301	3.0909	0.1	786.82
28670	20.209	3.3636	0.1	806.67
28671	20.301	3.2727	0.1	786.74
28672	20.209	3.5455	0.1	806.46
28673	20.301	3.4545	0.1	786.58
28674	20.209	3.7273	0.1	806.16
28675	20.301	3.6364	0.1	786.31
28676	20.209	3.9091	0.1	805.76
28677	20.301	3.8182	0.1	785.94
28678	20.209	4.0909	0.1	805.25
28679	20.301	4.	0.1	785.46
28680	20.209	4.2727	0.1	804.64
28681	20.301	4.1818	0.1	784.85
28682	20.209	4.4545	0.1	803.95
28683	20.301	4.3636	0.1	784.13
28684	20.209	4.6364	0.1	803.19
28685	20.301	4.5455	0.1	783.32
28686	20.209	4.8182	0.1	802.41
28687	20.301	4.7273	0.1	782.45
28688	20.209	5.	0.1	801.66
28689	20.301	4.9091	0.1	781.56
28690	20.209	5.1818	0.1	800.98
28691	20.301	5.0909	0.1	780.72
28692	20.209	5.3636	0.1	800.46
28693	20.301	5.2727	0.1	779.99
28694	20.209	5.5455	0.1	800.24
28695	20.301	5.4545	0.1	779.45
28696	20.209	5.7273	0.1	801.37
28697	20.301	5.6364	0.1	779.33
28698	20.301	5.8182	0.1	781.63
28699	20.209	5.9091	0.1	795.77
28700	20.393	0.27273	0.1	759.39
28701	20.485	0.18182	0.1	739.53
28702	20.393	9.0909e-002	0.1	753.76
28703	20.393	0.45455	0.1	758.47
28704	20.485	0.36364	0.1	737.46
28705	20.393	0.63636	0.1	758.92
28706	20.485	0.54545	0.1	737.81
28707	20.393	0.81818	0.1	759.67
28708	20.485	0.72727	0.1	738.59
28709	20.393	1.	0.1	760.57
28710	20.485	0.90909	0.1	739.58
28711	20.393	1.1818	0.1	761.55
28712	20.485	1.0909	0.1	740.67
28713	20.393	1.3636	0.1	762.54
28714	20.485	1.2727	0.1	741.79
28715	20.393	1.5455	0.1	763.47
28716	20.485	1.4545	0.1	742.86
28717	20.393	1.7273	0.1	764.31
28718	20.485	1.6364	0.1	743.85
28719	20.393	1.9091	0.1	765.03
28720	20.485	1.8182	0.1	744.7
28721	20.393	2.0909	0.1	765.61
28722	20.485	2.	0.1	745.41
28723	20.393	2.2727	0.1	766.07
28724	20.485	2.1818	0.1	745.96
28725	20.393	2.4545	0.1	766.4
28726	20.485	2.3636	0.1	746.36
28727	20.393	2.6364	0.1	766.62
28728	20.485	2.5455	0.1	746.64
28729	20.393	2.8182	0.1	766.75
28730	20.485	2.7273	0.1	746.82
28731	20.393	3.	0.1	766.79
28732	20.485	2.9091	0.1	746.9
28733	20.393	3.1818	0.1	766.75
28734	20.485	3.0909	0.1	746.9
28735	20.393	3.3636	0.1	766.62
28736	20.485	3.2727	0.1	746.82
28737	20.393	3.5455	0.1	766.4
28738	20.485	3.4545	0.1	746.64
28739	20.393	3.7273	0.1	766.07
28740	20.485	3.6364	0.1	746.36
28741	20.393	3.9091	0.1	765.61
28742	20.485	3.8182	0.1	745.96
28743	20.393	4.0909	0.1	765.03
28744	20.485	4.	0.1	745.41
28745	20.393	4.2727	0.1	764.31
28746	20.485	4.1818	0.1	744.7
28747	20.393	4.4545	0.1	763.47
28748	20.485	4.3636	0.1	743.85
28749	20.393	4.6364	0.1	762.54
28750	20.485	4.5455	0.1	742.87
28751	20.393	4.8182	0.1	761.55
28752	20.485	4.7273	0.1	741.79
28753	20.393	5.	0.1	760.57
28754	20.485	4.9091	0.1	740.67
28755	20.393	5.1818	0.1	759.67
28756	20.485	5.0909	0.1	739.58
28757	20.393	5.3636	0.1	758.92
28758	20.485	5.2727	0.1	738.59
28759	20.393	5.5455	0.1	758.47
28760	20.485	5.4545	0.1	737.81
28761	20.393	5.7273	0.1	759.39
28762	20.485	5.6364	0.1	737.46
28763	20.485	5.8182	0.1	739.53
28764	20.393	5.9091	0.1	753.76
28765	20.577	0.27273	0.1	717.39
28766	20.669	0.18182	0.1	697.36
28767	20.577	9.0909e-002	0.1	711.73
28768	20.577	0.45455	0.1	716.73
28769	20.669	0.36364	0.1	695.58
28770	20.577	0.63636	0.1	717.43
28771	20.669	0.54545	0.1	696.2
28772	20.577	0.81818	0.1	718.45
28773	20.669	0.72727	0.1	697.26
28774	20.577	1.	0.1	719.63
28775	20.669	0.90909	0.1	698.54
28776	20.577	1.1818	0.1	720.86
28777	20.669	1.0909	0.1	699.93
28778	20.577	1.3636	0.1	722.08
28779	20.669	1.2727	0.1	701.32
28780	20.577	1.5455	0.1	723.22
28781	20.669	1.4545	0.1	702.63
28782	20.577	1.7273	0.1	724.22
28783	20.669	1.6364	0.1	703.81
28784	20.577	1.9091	0.1	725.06
28785	20.669	1.8182	0.1	704.82
28786	20.577	2.0909	0.1	725.72
28787	20.669	2.	0.1	705.62
28788	20.577	2.2727	0.1	726.23
28789	20.669	2.1818	0.1	706.23
28790	20.577	2.4545	0.1	726.58
28791	20.669	2.3636	0.1	706.67
28792	20.577	2.6364	0.1	726.81
28793	20.669	2.5455	0.1	706.96
28794	20.577	2.8182	0.1	726.94
28795	20.669	2.7273	0.1	707.13
28796	20.577	3.	0.1	726.98
28797	20.669	2.9091	0.1	707.2
28798	20.577	3.1818	0.1	726.94
28799	20.669	3.0909	0.1	707.2
28800	20.577	3.3636	0.1	726.81
28801	20.669	3.2727	0.1	707.13
28802	20.577	3.5455	0.1	726.58
28803	20.669	3.4545	0.1	706.96
28804	20.577	3.7273	0.1	726.23
28805	20.669	3.6364	0.1	706.67
28806	20.577	3.9091	0.1	725.72
28807	20.669	3.8182	0.1	706.23
28808	20.577	4.0909	0.1	725.06
28809	20.669	4.	0.1	705.62
28810	20.577	4.2727	0.1	724.22
28811	20.669	4.1818	0.1	704.82
28812	20.577	4.4545	0.1	723.22
28813	20.669	4.3636	0.1	703.81
28814	20.577	4.6364	0.1	722.08
28815	20.669	4.5455	0.1	702.63
28816	20.577	4.8182	0.1	720.86
28817	20.669	4.7273	0.1	701.32
28818	20.577	5.	0.1	719.63
28819	20.669	4.9091	0.1	699.93
28820	20.577	5.1818	0.1	718.45
28821	20.669	5.0909	0.1	698.54
28822	20.577	5.3636	0.1	717.43
28823	20.669	5.2727	0.1	697.26
28824	20.577	5.5455	0.1	716.73
28825	20.669	5.4545	0.1	696.2
28826	20.577	5.7273	0.1	717.39
28827	20.669	5.6364	0.1	695.58
28828	20.669	5.8182	0.1	697.36
28829	20.577	5.9091	0.1	711.73
28830	20.76	0.27273	0.1	675.33
28831	20.852	0.18182	0.1	655.1
28832	20.76	9.0909e-002	0.1	669.66
28833	20.76	0.45455	0.1	674.97
28834	20.852	0.36364	0.1	653.64
28835	20.76	0.63636	0.1	675.97
28836	20.852	0.54545	0.1	654.57
28837	20.76	0.81818	0.1	677.31
28838	20.852	0.72727	0.1	655.97
28839	20.76	1.	0.1	678.8
28840	20.852	0.90909	0.1	657.6
28841	20.76	1.1818	0.1	680.34
28842	20.852	1.0909	0.1	659.33
28843	20.76	1.3636	0.1	681.84
28844	20.852	1.2727	0.1	661.04
28845	20.76	1.5455	0.1	683.2
28846	20.852	1.4545	0.1	662.64
28847	20.76	1.7273	0.1	684.39
28848	20.852	1.6364	0.1	664.04
28849	20.76	1.9091	0.1	685.36
28850	20.852	1.8182	0.1	665.21
28851	20.76	2.0909	0.1	686.11
28852	20.852	2.	0.1	666.12
28853	20.76	2.2727	0.1	686.65
28854	20.852	2.1818	0.1	666.79
28855	20.76	2.4545	0.1	687.02
28856	20.852	2.3636	0.1	667.24
28857	20.76	2.6364	0.1	687.24
28858	20.852	2.5455	0.1	667.52
28859	20.76	2.8182	0.1	687.36
28860	20.852	2.7273	0.1	667.67
28861	20.76	3.	0.1	687.4
28862	20.852	2.9091	0.1	667.73
28863	20.76	3.1818	0.1	687.36
28864	20.852	3.0909	0.1	667.73
28865	20.76	3.3636	0.1	687.24
28866	20.852	3.2727	0.1	667.67
28867	20.76	3.5455	0.1	687.02
28868	20.852	3.4545	0.1	667.52
28869	20.76	3.7273	0.1	686.65
28870	20.852	3.6364	0.1	667.24
28871	20.76	3.9091	0.1	686.11
28872	20.852	3.8182	0.1	666.79
28873	20.76	4.0909	0.1	685.36
28874	20.852	4.	0.1	666.12
28875	20.76	4.2727	0.1	684.39
28876	20.852	4.1818	0.1	665.21
28877	20.76	4.4545	0.1	683.2
28878	20.852	4.3636	0.1	664.04
28879	20.76	4.6364	0.1	681.84
28880	20.852	4.5455	0.1	662.64
28881	20.76	4.8182	0.1	680.34
28882	20.852	4.7273	0.1	661.04
28883	20.76	5.	0.1	678.8
28884	20.852	4.9091	0.1	659.33
28885	20.76	5.1818	0.1	677.31
28886	20.852	5.0909	0.1	657.6
28887	20.76	5.3636	0.1	675.97
28888	20.852	5.2727	0.1	655.97
28889	20.76	5.5455	0.1	674.97
28890	20.852	5.4545	0.1	654.57
28891	20.76	5.7273	0.1	675.33
28892	20.852	5.6364	0.1	653.64
28893	20.852	5.8182	0.1	655.1
28894	20.76	5.9091	0.1	669.66
28895	20.944	0.27273	0.1	633.18
28896	21.036	0.18182	0.1	612.69
28897	20.944	9.0909e-002	0.1	627.5
28898	20.944	0.45455	0.1	633.16
28899	21.036	0.36364	0.1	611.61
28900	20.944	0.63636	0.1	634.51
28901	21.036	0.54545	0.1	612.9
28902	20.944	0.81818	0.1	636.22
28903	21.036	0.72727	0.1	614.7
28904	20.944	1.	0.1	638.09
28905	21.036	0.90909	0.1	616.74
28906	20.944	1.1818	0.1	639.99
28907	21.036	1.0909	0.1	618.87
28908	20.944	1.3636	0.1	641.81
28909	21.036	1.2727	0.1	620.96
28910	20.944	1.5455	0.1	643.45
28911	21.036	1.4545	0.1	622.89
28912	20.944	1.7273	0.1	644.84
28913	21.036	1.6364	0.1	624.56
28914	20.944	1.9091	0.1	645.96
28915	21.036	1.8182	0.1	625.91
28916	20.944	2.0909	0.1	646.78
28917	21.036	2.	0.1	626.94
28918	20.944	2.2727	0.1	647.36
28919	21.036	2.1818	0.1	627.65
28920	20.944	2.4545	0.1	647.71
28921	21.036	2.3636	0.1	628.09
28922	20.944	2.6364	0.1	647.92
28923	21.036	2.5455	0.1	628.33
28924	20.944	2.8182	0.1	648.01
28925	21.036	2.7273	0.1	628.44
28926	20.944	3.	0.1	648.04
28927	21.036	2.9091	0.1	628.49
28928	20.944	3.1818	0.1	648.01
28929	21.036	3.0909	0.1	628.49
28930	20.944	3.3636	0.1	647.92
28931	21.036	3.2727	0.1	628.44
28932	20.944	3.5455	0.1	647.71
28933	21.036	3.4545	0.1	628.33
28934	20.944	3.7273	0.1	647.36
28935	21.036	3.6364	0.1	628.09
28936	20.944	3.9091	0.1	646.78
28937	21.036	3.8182	0.1	627.65
28938	20.944	4.0909	0.1	645.96
28939	21.036	4.	0.1	626.94
28940	20.944	4.2727	0.1	644.84
28941	21.036	4.1818	0.1	625.91
28942	20.944	4.4545	0.1	643.45
28943	21.036	4.3636	0.1	624.56
28944	20.944	4.6364	0.1	641.81
28945	21.036	4.5455	0.1	622.89
28946	20.944	4.8182	0.1	639.99
28947	21.036	4.7273	0.1	620.96
28948	20.944	5.	0.1	638.09
28949	21.036	4.9091	0.1	618.87
28950	20.944	5.1818	0.1	636.22
28951	21.036	5.0909	0.1	616.74
28952	20.944	5.3636	0.1	634.51
28953	21.036	5.2727	0.1	614.7
28954	20.944	5.5455	0.1	633.16
28955	21.036	5.4545	0.1	612.9
28956	20.944	5.7273	0.1	633.18
28957	21.036	5.6364	0.1	611.61
28958	21.036	5.8182	0.1	612.69
28959	20.944	5.9091	0.1	627.5
28960	21.128	0.27273	0.1	590.88
28961	21.22	0.18182	0.1	570.07
28962	21.128	9.0909e-002	0.1	585.2
28963	21.128	0.45455	0.1	591.26
28964	21.22	0.36364	0.1	569.44
28965	21.128	0.63636	0.1	593.02
28966	21.22	0.54545	0.1	571.14
28967	21.128	0.81818	0.1	595.16
28968	21.22	0.72727	0.1	573.39
28969	21.128	1.	0.1	597.48
28970	21.22	0.90909	0.1	575.92
28971	21.128	1.1818	0.1	599.81
28972	21.22	1.0909	0.1	578.54
28973	21.128	1.3636	0.1	602.01
28974	21.22	1.2727	0.1	581.08
28975	21.128	1.5455	0.1	603.97
28976	21.22	1.4545	0.1	583.41
28977	21.128	1.7273	0.1	605.61
28978	21.22	1.6364	0.1	585.39
28979	21.128	1.9091	0.1	606.88
28980	21.22	1.8182	0.1	586.96
28981	21.128	2.0909	0.1	607.78
28982	21.22	2.	0.1	588.1
28983	21.128	2.2727	0.1	608.36
28984	21.22	2.1818	0.1	588.83
28985	21.128	2.4545	0.1	608.69
28986	21.22	2.3636	0.1	589.24
28987	21.128	2.6364	0.1	608.84
28988	21.22	2.5455	0.1	589.41
28989	21.128	2.8182	0.1	608.89
28990	21.22	2.7273	0.1	589.46
28991	21.128	3.	0.1	608.91
28992	21.22	2.9091	0.1	589.45
28993	21.128	3.1818	0.1	608.89
28994	21.22	3.0909	0.1	589.45
28995	21.128	3.3636	0.1	608.84
28996	21.22	3.2727	0.1	589.46
28997	21.128	3.5455	0.1	608.69
28998	21.22	3.4545	0.1	589.41
28999	21.128	3.7273	0.1	608.36
29000	21.22	3.6364	0.1	589.24
29001	21.128	3.9091	0.1	607.78
29002	21.22	3.8182	0.1	588.83
29003	21.128	4.0909	0.1	606.88
29004	21.22	4.	0.1	588.1
29005	21.128	4.2727	0.1	605.61
29006	21.22	4.1818	0.1	586.96
29007	21.128	4.4545	0.1	603.97
29008	21.22	4.3636	0.1	585.39
29009	21.128	4.6364	0.1	602.01
29010	21.22	4.5455	0.1	583.41
29011	21.128	4.8182	0.1	599.81
29012	21.22	4.7273	0.1	581.08
29013	21.128	5.	0.1	597.48
29014	21.22	4.9091	0.1	578.54
29015	21.128	5.1818	0.1	595.16
29016	21.22	5.0909	0.1	575.92
29017	21.128	5.3636	0.1	593.02
29018	21.22	5.2727	0.1	573.39
29019	21.128	5.5455	0.1	591.26
29020	21.22	5.4545	0.1	571.14
29021	21.128	5.7273	0.1	590.88
29022	21.22	5.6364	0.1	569.44
29023	21.22	5.8182	0.1	570.07
29024	21.128	5.9091	0.1	585.2
29025	21.312	0.27273	0.1	548.37
29026	21.403	0.18182	0.1	527.18
29027	21.312	9.0909e-002	0.1	542.71
29028	21.312	0.45455	0.1	549.22
29029	21.403	0.36364	0.1	527.06
29030	21.312	0.63636	0.1	551.44
29031	21.403	0.54545	0.1	529.23
29032	21.312	0.81818	0.1	554.1
29033	21.403	0.72727	0.1	532.02
29034	21.312	1.	0.1	556.94
29035	21.403	0.90909	0.1	535.12
29036	21.312	1.1818	0.1	559.79
29037	21.403	1.0909	0.1	538.32
29038	21.312	1.3636	0.1	562.46
29039	21.403	1.2727	0.1	541.42
29040	21.312	1.5455	0.1	564.81
29041	21.403	1.4545	0.1	544.22
29042	21.312	1.7273	0.1	566.73
29043	21.403	1.6364	0.1	546.58
29044	21.312	1.9091	0.1	568.17
29045	21.403	1.8182	0.1	548.4
29046	21.312	2.0909	0.1	569.14
29047	21.403	2.	0.1	549.66
29048	21.312	2.2727	0.1	569.7
29049	21.403	2.1818	0.1	550.39
29050	21.312	2.4545	0.1	569.95
29051	21.403	2.3636	0.1	550.72
29052	21.312	2.6364	0.1	570.01
29053	21.403	2.5455	0.1	550.77
29054	21.312	2.8182	0.1	570.
29055	21.403	2.7273	0.1	550.7
29056	21.312	3.	0.1	569.98
29057	21.403	2.9091	0.1	550.63
29058	21.312	3.1818	0.1	570.
29059	21.403	3.0909	0.1	550.63
29060	21.312	3.3636	0.1	570.01
29061	21.403	3.2727	0.1	550.7
29062	21.312	3.5455	0.1	569.95
29063	21.403	3.4545	0.1	550.77
29064	21.312	3.7273	0.1	569.7
29065	21.403	3.6364	0.1	550.72
29066	21.312	3.9091	0.1	569.14
29067	21.403	3.8182	0.1	550.39
29068	21.312	4.0909	0.1	568.17
29069	21.403	4.	0.1	549.66
29070	21.312	4.2727	0.1	566.73
29071	21.403	4.1818	0.1	548.4
29072	21.312	4.4545	0.1	564.81
29073	21.403	4.3636	0.1	546.58
29074	21.312	4.6364	0.1	562.46
29075	21.403	4.5455	0.1	544.22
29076	21.312	4.8182	0.1	559.79
29077	21.403	4.7273	0.1	541.42
29078	21.312	5.	0.1	556.94
29079	21.403	4.9091	0.1	538.32
29080	21.312	5.1818	0.1	554.1
29081	21.403	5.0909	0.1	535.12
29082	21.312	5.3636	0.1	551.44
29083	21.403	5.2727	0.1	532.02
29084	21.312	5.5455	0.1	549.22
29085	21.403	5.4545	0.1	529.23
29086	21.312	5.7273	0.1	548.37
29087	21.403	5.6364	0.1	527.06
29088	21.403	5.8182	0.1	527.18
29089	21.312	5.9091	0.1	542.71
29090	21.495	0.27273	0.1	505.6
29091	21.587	0.18182	0.1	483.96
29092	21.495	9.0909e-002	0.1	499.98
29093	21.495	0.45455	0.1	506.97
29094	21.587	0.36364	0.1	484.41
29095	21.495	0.63636	0.1	509.74
29096	21.587	0.54545	0.1	487.12
29097	21.495	0.81818	0.1	512.99
29098	21.587	0.72727	0.1	490.53
29099	21.495	1.	0.1	516.46
29100	21.587	0.90909	0.1	494.3
29101	21.495	1.1818	0.1	519.93
29102	21.587	1.0909	0.1	498.2
29103	21.495	1.3636	0.1	523.17
29104	21.587	1.2727	0.1	501.96
29105	21.495	1.5455	0.1	525.99
29106	21.587	1.4545	0.1	505.36
29107	21.495	1.7273	0.1	528.25
29108	21.587	1.6364	0.1	508.19
29109	21.495	1.9091	0.1	529.88
29110	21.587	1.8182	0.1	510.31
29111	21.495	2.0909	0.1	530.9
29112	21.587	2.	0.1	511.68
29113	21.495	2.2727	0.1	531.4
29114	21.587	2.1818	0.1	512.38
29115	21.495	2.4545	0.1	531.52
29116	21.587	2.3636	0.1	512.56
29117	21.495	2.6364	0.1	531.44
29118	21.587	2.5455	0.1	512.42
29119	21.495	2.8182	0.1	531.32
29120	21.587	2.7273	0.1	512.18
29121	21.495	3.	0.1	531.26
29122	21.587	2.9091	0.1	512.01
29123	21.495	3.1818	0.1	531.32
29124	21.587	3.0909	0.1	512.01
29125	21.495	3.3636	0.1	531.44
29126	21.587	3.2727	0.1	512.18
29127	21.495	3.5455	0.1	531.52
29128	21.587	3.4545	0.1	512.42
29129	21.495	3.7273	0.1	531.4
29130	21.587	3.6364	0.1	512.56
29131	21.495	3.9091	0.1	530.9
29132	21.587	3.8182	0.1	512.38
29133	21.495	4.0909	0.1	529.88
29134	21.587	4.	0.1	511.68
29135	21.495	4.2727	0.1	528.25
29136	21.587	4.1818	0.1	510.31
29137	21.495	4.4545	0.1	525.99
29138	21.587	4.3636	0.1	508.19
29139	21.495	4.6364	0.1	523.17
29140	21.587	4.5455	0.1	505.36
29141	21.495	4.8182	0.1	519.93
29142	21.587	4.7273	0.1	501.96
29143	21.495	5.	0.1	516.46
29144	21.587	4.9091	0.1	498.2
29145	21.495	5.1818	0.1	512.99
29146	21.587	5.0909	0.1	494.3
29147	21.495	5.3636	0.1	509.74
29148	21.587	5.2727	0.1	490.53
29149	21.495	5.5455	0.1	506.97
29150	21.587	5.4545	0.1	487.12
29151	21.495	5.7273	0.1	505.6
29152	21.587	5.6364	0.1	484.41
29153	21.587	5.8182	0.1	483.96
29154	21.495	5.9091	0.1	499.98
29155	21.679	0.27273	0.1	462.5
29156	21.771	0.18182	0.1	440.35
29157	21.679	9.0909e-002	0.1	456.94
29158	21.679	0.45455	0.1	464.47
29159	21.771	0.36364	0.1	441.45
29160	21.679	0.63636	0.1	467.85
29161	21.771	0.54545	0.1	444.75
29162	21.679	0.81818	0.1	471.8
29163	21.771	0.72727	0.1	448.86
29164	21.679	1.	0.1	476.01
29165	21.771	0.90909	0.1	453.41
29166	21.679	1.1818	0.1	480.22
29167	21.771	1.0909	0.1	458.14
29168	21.679	1.3636	0.1	484.15
29169	21.771	1.2727	0.1	462.73
29170	21.679	1.5455	0.1	487.56
29171	21.771	1.4545	0.1	466.86
29172	21.679	1.7273	0.1	490.24
29173	21.771	1.6364	0.1	470.27
29174	21.679	1.9091	0.1	492.1
29175	21.771	1.8182	0.1	472.76
29176	21.679	2.0909	0.1	493.15
29177	21.771	2.	0.1	474.26
29178	21.679	2.2727	0.1	493.53
29179	21.771	2.1818	0.1	474.88
29180	21.679	2.4545	0.1	493.44
29181	21.771	2.3636	0.1	474.82
29182	21.679	2.6364	0.1	493.14
29183	21.771	2.5455	0.1	474.38
29184	21.679	2.8182	0.1	492.84
29185	21.771	2.7273	0.1	473.88
29186	21.679	3.	0.1	492.73
29187	21.771	2.9091	0.1	473.56
29188	21.679	3.1818	0.1	492.84
29189	21.771	3.0909	0.1	473.56
29190	21.679	3.3636	0.1	493.14
29191	21.771	3.2727	0.1	473.88
29192	21.679	3.5455	0.1	493.44
29193	21.771	3.4545	0.1	474.38
29194	21.679	3.7273	0.1	493.53
29195	21.771	3.6364	0.1	474.82
29196	21.679	3.9091	0.1	493.15
29197	21.771	3.8182	0.1	474.88
29198	21.679	4.0909	0.1	492.1
29199	21.771	4.	0.1	474.26
29200	21.679	4.2727	0.1	490.24
29201	21.771	4.1818	0.1	472.76
29202	21.679	4.4545	0.1	487.56
29203	21.771	4.3636	0.1	470.27
29204	21.679	4.6364	0.1	484.15
29205	21.771	4.5455	0.1	466.86
29206	21.679	4.8182	0.1	480.22
29207	21.771	4.7273	0.1	462.73
29208	21.679	5.	0.1	476.01
29209	21.771	4.9091	0.1	458.14
29210	21.679	5.1818	0.1	471.8
29211	21.771	5.0909	0.1	453.41
29212	21.679	5.3636	0.1	467.85
29213	21.771	5.2727	0.1	448.86
29214	21.679	5.5455	0.1	464.47
29215	21.771	5.4545	0.1	444.75
29216	21.679	5.7273	0.1	462.5
29217	21.771	5.6364	0.1	441.45
29218	21.771	5.8182	0.1	440.35
29219	21.679	5.9091	0.1	456.94
29220	21.863	0.27273	0.1	419.01
29221	21.955	0.18182	0.1	396.31
29222	21.863	9.0909e-002	0.1	413.54
29223	21.863	0.45455	0.1	421.63
29224	21.955	0.36364	0.1	398.1
29225	21.863	0.63636	0.1	425.7
29226	21.955	0.54545	0.1	402.06
29227	21.863	0.81818	0.1	430.44
29228	21.955	0.72727	0.1	406.94
29229	21.863	1.	0.1	435.53
29230	21.955	0.90909	0.1	412.4
29231	21.863	1.1818	0.1	440.65
29232	21.955	1.0909	0.1	418.11
29233	21.863	1.3636	0.1	445.44
29234	21.955	1.2727	0.1	423.7
29235	21.863	1.5455	0.1	449.58
29236	21.955	1.4545	0.1	428.77
29237	21.863	1.7273	0.1	452.79
29238	21.955	1.6364	0.1	432.92
29239	21.863	1.9091	0.1	454.92
29240	21.955	1.8182	0.1	435.87
29241	21.863	2.0909	0.1	455.98
29242	21.955	2.	0.1	437.53
29243	21.863	2.2727	0.1	456.16
29244	21.955	2.1818	0.1	437.99
29245	21.863	2.4545	0.1	455.75
29246	21.955	2.3636	0.1	437.57
29247	21.863	2.6364	0.1	455.11
29248	21.955	2.5455	0.1	436.7
29249	21.863	2.8182	0.1	454.58
29250	21.955	2.7273	0.1	435.82
29251	21.863	3.	0.1	454.37
29252	21.955	2.9091	0.1	435.29
29253	21.863	3.1818	0.1	454.58
29254	21.955	3.0909	0.1	435.29
29255	21.863	3.3636	0.1	455.11
29256	21.955	3.2727	0.1	435.82
29257	21.863	3.5455	0.1	455.75
29258	21.955	3.4545	0.1	436.7
29259	21.863	3.7273	0.1	456.16
29260	21.955	3.6364	0.1	437.57
29261	21.863	3.9091	0.1	455.98
29262	21.955	3.8182	0.1	437.99
29263	21.863	4.0909	0.1	454.92
29264	21.955	4.	0.1	437.53
29265	21.863	4.2727	0.1	452.79
29266	21.955	4.1818	0.1	435.87
29267	21.863	4.4545	0.1	449.58
29268	21.955	4.3636	0.1	432.92
29269	21.863	4.6364	0.1	445.44
29270	21.955	4.5455	0.1	428.77
29271	21.863	4.8182	0.1	440.65
29272	21.955	4.7273	0.1	423.7
29273	21.863	5.	0.1	435.53
29274	21.955	4.9091	0.1	418.11
29275	21.863	5.1818	0.1	430.44
29276	21.955	5.0909	0.1	412.4
29277	21.863	5.3636	0.1	425.7
29278	21.955	5.2727	0.1	406.94
29279	21.863	5.5455	0.1	421.63
29280	21.955	5.4545	0.1	402.06
29281	21.863	5.7273	0.1	419.01
29282	21.955	5.6364	0.1	398.1
29283	21.955	5.8182	0.1	396.31
29284	21.863	5.9091	0.1	413.54
29285	22.047	0.27273	0.1	375.1
29286	22.138	0.18182	0.1	351.83
29287	22.047	9.0909e-002	0.1	369.76
29288	22.047	0.45455	0.1	378.42
29289	22.138	0.36364	0.1	354.35
29290	22.047	0.63636	0.1	383.24
29291	22.138	0.54545	0.1	358.99
29292	22.047	0.81818	0.1	388.88
29293	22.138	0.72727	0.1	364.71
29294	22.047	1.	0.1	394.99
29295	22.138	0.90909	0.1	371.18
29296	22.047	1.1818	0.1	401.19
29297	22.138	1.0909	0.1	378.05
29298	22.047	1.3636	0.1	407.05
29299	22.138	1.2727	0.1	384.87
29300	22.047	1.5455	0.1	412.12
29301	22.138	1.4545	0.1	391.11
29302	22.047	1.7273	0.1	416.01
29303	22.138	1.6364	0.1	396.24
29304	22.047	1.9091	0.1	418.48
29305	22.138	1.8182	0.1	399.82
29306	22.047	2.0909	0.1	419.53
29307	22.138	2.	0.1	401.65
29308	22.047	2.2727	0.1	419.4
29309	22.138	2.1818	0.1	401.87
29310	22.047	2.4545	0.1	418.51
29311	22.138	2.3636	0.1	400.91
29312	22.047	2.6364	0.1	417.39
29313	22.138	2.5455	0.1	399.42
29314	22.047	2.8182	0.1	416.5
29315	22.138	2.7273	0.1	398.01
29316	22.047	3.	0.1	416.17
29317	22.138	2.9091	0.1	397.17
29318	22.047	3.1818	0.1	416.5
29319	22.138	3.0909	0.1	397.17
29320	22.047	3.3636	0.1	417.39
29321	22.138	3.2727	0.1	398.01
29322	22.047	3.5455	0.1	418.51
29323	22.138	3.4545	0.1	399.42
29324	22.047	3.7273	0.1	419.4
29325	22.138	3.6364	0.1	400.91
29326	22.047	3.9091	0.1	419.53
29327	22.138	3.8182	0.1	401.87
29328	22.047	4.0909	0.1	418.48
29329	22.138	4.	0.1	401.65
29330	22.047	4.2727	0.1	416.01
29331	22.138	4.1818	0.1	399.82
29332	22.047	4.4545	0.1	412.12
29333	22.138	4.3636	0.1	396.24
29334	22.047	4.6364	0.1	407.05
29335	22.138	4.5455	0.1	391.11
29336	22.047	4.8182	0.1	401.19
29337	22.138	4.7273	0.1	384.87
29338	22.047	5.	0.1	394.99
29339	22.138	4.9091	0.1	378.05
29340	22.047	5.1818	0.1	388.88
29341	22.138	5.0909	0.1	371.18
29342	22.047	5.3636	0.1	383.24
29343	22.138	5.2727	0.1	364.71
29344	22.047	5.5455	0.1	378.42
29345	22.138	5.4545	0.1	358.99
29346	22.047	5.7273	0.1	375.1
29347	22.138	5.6364	0.1	354.35
29348	22.138	5.8182	0.1	351.83
29349	22.047	5.9091	0.1	369.76
29350	22.23	0.27273	0.1	330.76
29351	22.322	0.18182	0.1	306.96
29352	22.23	9.0909e-002	0.1	325.59
29353	22.23	0.45455	0.1	334.81
29354	22.322	0.36364	0.1	310.21
29355	22.23	0.63636	0.1	340.42
29356	22.322	0.54545	0.1	315.53
29357	22.23	0.81818	0.1	347.03
29358	22.322	0.72727	0.1	322.13
29359	22.23	1.	0.1	354.3
29360	22.322	0.90909	0.1	329.7
29361	22.23	1.1818	0.1	361.79
29362	22.322	1.0909	0.1	337.89
29363	22.23	1.3636	0.1	368.98
29364	22.322	1.2727	0.1	346.18
29365	22.23	1.5455	0.1	375.25
29366	22.322	1.4545	0.1	353.92
29367	22.23	1.7273	0.1	380.05
29368	22.322	1.6364	0.1	360.35
29369	22.23	1.9091	0.1	382.98
29370	22.322	1.8182	0.1	364.8
29371	22.23	2.0909	0.1	383.99
29372	22.322	2.	0.1	366.89
29373	22.23	2.2727	0.1	383.39
29374	22.322	2.1818	0.1	366.75
29375	22.23	2.4545	0.1	381.82
29376	22.322	2.3636	0.1	365.01
29377	22.23	2.6364	0.1	380.01
29378	22.322	2.5455	0.1	362.61
29379	22.23	2.8182	0.1	378.64
29380	22.322	2.7273	0.1	360.47
29381	22.23	3.	0.1	378.13
29382	22.322	2.9091	0.1	359.24
29383	22.23	3.1818	0.1	378.64
29384	22.322	3.0909	0.1	359.24
29385	22.23	3.3636	0.1	380.01
29386	22.322	3.2727	0.1	360.47
29387	22.23	3.5455	0.1	381.82
29388	22.322	3.4545	0.1	362.61
29389	22.23	3.7273	0.1	383.39
29390	22.322	3.6364	0.1	365.01
29391	22.23	3.9091	0.1	383.99
29392	22.322	3.8182	0.1	366.75
29393	22.23	4.0909	0.1	382.98
29394	22.322	4.	0.1	366.89
29395	22.23	4.2727	0.1	380.05
29396	22.322	4.1818	0.1	364.8
29397	22.23	4.4545	0.1	375.25
29398	22.322	4.3636	0.1	360.35
29399	22.23	4.6364	0.1	368.98
29400	22.322	4.5455	0.1	353.92
29401	22.23	4.8182	0.1	361.79
29402	22.322	4.7273	0.1	346.18
29403	22.23	5.	0.1	354.3
29404	22.322	4.9091	0.1	337.89
29405	22.23	5.1818	0.1	347.03
29406	22.322	5.0909	0.1	329.7
29407	22.23	5.3636	0.1	340.42
29408	22.322	5.2727	0.1	322.13
29409	22.23	5.5455	0.1	334.81
29410	22.322	5.4545	0.1	315.53
29411	22.23	5.7273	0.1	330.76
29412	22.322	5.6364	0.1	310.21
29413	22.322	5.8182	0.1	306.96
29414	22.23	5.9091	0.1	325.59
29415	22.414	0.27273	0.1	286.08
29416	22.506	0.18182	0.1	261.86
29417	22.414	9.0909e-002	0.1	281.13
29418	22.414	0.45455	0.1	290.84
29419	22.506	0.36364	0.1	265.8
29420	22.414	0.63636	0.1	297.24
29421	22.506	0.54545	0.1	271.77
29422	22.414	0.81818	0.1	304.86
29423	22.506	0.72727	0.1	279.22
29424	22.414	1.	0.1	313.39
29425	22.506	0.90909	0.1	287.91
29426	22.414	1.1818	0.1	322.38
29427	22.506	1.0909	0.1	297.52
29428	22.414	1.3636	0.1	331.2
29429	22.506	1.2727	0.1	307.53
29430	22.414	1.5455	0.1	339.05
29431	22.506	1.4545	0.1	317.16
29432	22.414	1.7273	0.1	345.09
29433	22.506	1.6364	0.1	325.39
29434	22.414	1.9091	0.1	348.69
29435	22.506	1.8182	0.1	331.12
29436	22.414	2.0909	0.1	349.64
29437	22.506	2.	0.1	333.63
29438	22.414	2.2727	0.1	348.38
29439	22.506	2.1818	0.1	332.97
29440	22.414	2.4545	0.1	345.82
29441	22.506	2.3636	0.1	330.09
29442	22.414	2.6364	0.1	343.05
29443	22.506	2.5455	0.1	326.43
29444	22.414	2.8182	0.1	341.02
29445	22.506	2.7273	0.1	323.3
29446	22.414	3.	0.1	340.28
29447	22.506	2.9091	0.1	321.56
29448	22.414	3.1818	0.1	341.02
29449	22.506	3.0909	0.1	321.56
29450	22.414	3.3636	0.1	343.05
29451	22.506	3.2727	0.1	323.3
29452	22.414	3.5455	0.1	345.82
29453	22.506	3.4545	0.1	326.43
29454	22.414	3.7273	0.1	348.38
29455	22.506	3.6364	0.1	330.09
29456	22.414	3.9091	0.1	349.64
29457	22.506	3.8182	0.1	332.97
29458	22.414	4.0909	0.1	348.69
29459	22.506	4.	0.1	333.63
29460	22.414	4.2727	0.1	345.09
29461	22.506	4.1818	0.1	331.12
29462	22.414	4.4545	0.1	339.05
29463	22.506	4.3636	0.1	325.39
29464	22.414	4.6364	0.1	331.2
29465	22.506	4.5455	0.1	317.16
29466	22.414	4.8182	0.1	322.38
29467	22.506	4.7273	0.1	307.53
29468	22.414	5.	0.1	313.39
29469	22.506	4.9091	0.1	297.52
29470	22.414	5.1818	0.1	304.86
29471	22.506	5.0909	0.1	287.91
29472	22.414	5.3636	0.1	297.24
29473	22.506	5.2727	0.1	279.22
29474	22.414	5.5455	0.1	290.84
29475	22.506	5.4545	0.1	271.77
29476	22.414	5.7273	0.1	286.09
29477	22.506	5.6364	0.1	265.8
29478	22.506	5.8182	0.1	261.86
29479	22.414	5.9091	0.1	281.13
29480	22.598	0.27273	0.1	241.25
29481	22.69	0.18182	0.1	216.81
29482	22.598	9.0909e-002	0.1	236.54
29483	22.598	0.45455	0.1	246.65
29484	22.69	0.36364	0.1	221.37
29485	22.598	0.63636	0.1	253.78
29486	22.69	0.54545	0.1	227.89
29487	22.598	0.81818	0.1	262.4
29488	22.69	0.72727	0.1	236.12
29489	22.598	1.	0.1	272.23
29490	22.69	0.90909	0.1	245.86
29491	22.598	1.1818	0.1	282.86
29492	22.69	1.0909	0.1	256.88
29493	22.598	1.3636	0.1	293.63
29494	22.69	1.2727	0.1	268.77
29495	22.598	1.5455	0.1	303.54
29496	22.69	1.4545	0.1	280.73
29497	22.598	1.7273	0.1	311.37
29498	22.69	1.6364	0.1	291.45
29499	22.598	1.9091	0.1	316.
29500	22.69	1.8182	0.1	299.19
29501	22.598	2.0909	0.1	316.94
29502	22.69	2.	0.1	302.48
29503	22.598	2.2727	0.1	314.72
29504	22.69	2.1818	0.1	301.11
29505	22.598	2.4545	0.1	310.73
29506	22.69	2.3636	0.1	296.53
29507	22.598	2.6364	0.1	306.65
29508	22.69	2.5455	0.1	291.07
29509	22.598	2.8182	0.1	303.76
29510	22.69	2.7273	0.1	286.68
29511	22.598	3.	0.1	302.74
29512	22.69	2.9091	0.1	284.36
29513	22.598	3.1818	0.1	303.76
29514	22.69	3.0909	0.1	284.36
29515	22.598	3.3636	0.1	306.65
29516	22.69	3.2727	0.1	286.68
29517	22.598	3.5455	0.1	310.73
29518	22.69	3.4545	0.1	291.07
29519	22.598	3.7273	0.1	314.72
29520	22.69	3.6364	0.1	296.53
29521	22.598	3.9091	0.1	316.94
29522	22.69	3.8182	0.1	301.11
29523	22.598	4.0909	0.1	316.
29524	22.69	4.	0.1	302.48
29525	22.598	4.2727	0.1	311.37
29526	22.69	4.1818	0.1	299.19
29527	22.598	4.4545	0.1	303.54
29528	22.69	4.3636	0.1	291.45
29529	22.598	4.6364	0.1	293.63
29530	22.69	4.5455	0.1	280.73
29531	22.598	4.8182	0.1	282.86
29532	22.69	4.7273	0.1	268.77
29533	22.598	5.	0.1	272.23
29534	22.69	4.9091	0.1	256.88
29535	22.598	5.1818	0.1	262.4
29536	22.69	5.0909	0.1	245.86
29537	22.598	5.3636	0.1	253.78
29538	22.69	5.2727	0.1	236.12
29539	22.598	5.5455	0.1	246.65
29540	22.69	5.4545	0.1	227.9
29541	22.598	5.7273	0.1	241.25
29542	22.69	5.6364	0.1	221.37
29543	22.69	5.8182	0.1	216.81
29544	22.598	5.9091	0.1	236.54
29545	22.781	0.27273	0.1	196.6
29546	22.873	0.18182	0.1	172.28
29547	22.781	9.0909e-002	0.1	192.16
29548	22.781	0.45455	0.1	202.57
29549	22.873	0.36364	0.1	177.37
29550	22.781	0.63636	0.1	210.34
29551	22.873	0.54545	0.1	184.37
29552	22.781	0.81818	0.1	219.82
29553	22.873	0.72727	0.1	193.22
29554	22.781	1.	0.1	230.84
29555	22.873	0.90909	0.1	203.79
29556	22.781	1.1818	0.1	243.11
29557	22.873	1.0909	0.1	215.99
29558	22.781	1.3636	0.1	256.09
29559	22.873	1.2727	0.1	229.65
29560	22.781	1.5455	0.1	268.69
29561	22.873	1.4545	0.1	244.27
29562	22.781	1.7273	0.1	279.14
29563	22.873	1.6364	0.1	258.51
29564	22.781	1.9091	0.1	285.5
29565	22.873	1.8182	0.1	269.63
29566	22.781	2.0909	0.1	286.6
29567	22.873	2.	0.1	274.61
29568	22.781	2.2727	0.1	283.01
29569	22.873	2.1818	0.1	272.29
29570	22.781	2.4545	0.1	276.95
29571	22.873	2.3636	0.1	265.01
29572	22.781	2.6364	0.1	271.07
29573	22.873	2.5455	0.1	256.9
29574	22.781	2.8182	0.1	267.13
29575	22.873	2.7273	0.1	250.95
29576	22.781	3.	0.1	265.78
29577	22.873	2.9091	0.1	248.02
29578	22.781	3.1818	0.1	267.13
29579	22.873	3.0909	0.1	248.02
29580	22.781	3.3636	0.1	271.07
29581	22.873	3.2727	0.1	250.95
29582	22.781	3.5455	0.1	276.95
29583	22.873	3.4545	0.1	256.9
29584	22.781	3.7273	0.1	283.01
29585	22.873	3.6364	0.1	265.01
29586	22.781	3.9091	0.1	286.6
29587	22.873	3.8182	0.1	272.29
29588	22.781	4.0909	0.1	285.5
29589	22.873	4.	0.1	274.61
29590	22.781	4.2727	0.1	279.14
29591	22.873	4.1818	0.1	269.63
29592	22.781	4.4545	0.1	268.69
29593	22.873	4.3636	0.1	258.51
29594	22.781	4.6364	0.1	256.09
29595	22.873	4.5455	0.1	244.27
29596	22.781	4.8182	0.1	243.11
29597	22.873	4.7273	0.1	229.65
29598	22.781	5.	0.1	230.84
29599	22.873	4.9091	0.1	215.99
29600	22.781	5.1818	0.1	219.82
29601	22.873	5.0909	0.1	203.79
29602	22.781	5.3636	0.1	210.34
29603	22.873	5.2727	0.1	193.22
29604	22.781	5.5455	0.1	202.57
29605	22.873	5.4545	0.1	184.37
29606	22.781	5.7273	0.1	196.6
29607	22.873	5.6364	0.1	177.37
29608	22.873	5.8182	0.1	172.28
29609	22.781	5.9091	0.1	192.16
29610	22.965	0.27273	0.1	152.73
29611	23.057	0.18182	0.1	128.96
29612	22.965	9.0909e-002	0.1	148.49
29613	22.965	0.45455	0.1	159.19
29614	23.057	0.36364	0.1	134.53
29615	22.965	0.63636	0.1	167.5
29616	23.057	0.54545	0.1	142.02
29617	22.965	0.81818	0.1	177.62
29618	23.057	0.72727	0.1	151.36
29619	22.965	1.	0.1	189.48
29620	23.057	0.90909	0.1	162.39
29621	22.965	1.1818	0.1	203.07
29622	23.057	1.0909	0.1	175.17
29623	22.965	1.3636	0.1	218.23
29624	23.057	1.2727	0.1	189.96
29625	22.965	1.5455	0.1	234.16
29626	23.057	1.4545	0.1	207.09
29627	22.965	1.7273	0.1	248.65
29628	23.057	1.6364	0.1	225.9
29629	22.965	1.9091	0.1	258.24
29630	23.057	1.8182	0.1	243.21
29631	22.965	2.0909	0.1	260.1
29632	23.057	2.	0.1	252.24
29633	22.965	2.2727	0.1	254.48
29634	23.057	2.1818	0.1	248.78
29635	22.965	2.4545	0.1	245.17
29636	23.057	2.3636	0.1	236.94
29637	22.965	2.6364	0.1	236.74
29638	23.057	2.5455	0.1	224.68
29639	22.965	2.8182	0.1	231.58
29640	23.057	2.7273	0.1	216.68
29641	22.965	3.	0.1	229.92
29642	23.057	2.9091	0.1	213.15
29643	22.965	3.1818	0.1	231.58
29644	23.057	3.0909	0.1	213.15
29645	22.965	3.3636	0.1	236.74
29646	23.057	3.2727	0.1	216.68
29647	22.965	3.5455	0.1	245.17
29648	23.057	3.4545	0.1	224.68
29649	22.965	3.7273	0.1	254.48
29650	23.057	3.6364	0.1	236.94
29651	22.965	3.9091	0.1	260.1
29652	23.057	3.8182	0.1	248.78
29653	22.965	4.0909	0.1	258.24
29654	23.057	4.	0.1	252.24
29655	22.965	4.2727	0.1	248.65
29656	23.057	4.1818	0.1	243.21
29657	22.965	4.4545	0.1	234.16
29658	23.057	4.3636	0.1	225.9
29659	22.965	4.6364	0.1	218.23
29660	23.057	4.5455	0.1	207.09
29661	22.965	4.8182	0.1	203.07
29662	23.057	4.7273	0.1	189.96
29663	22.965	5.	0.1	189.48
29664	23.057	4.9091	0.1	175.17
29665	22.965	5.1818	0.1	177.62
29666	23.057	5.0909	0.1	162.39
29667	22.965	5.3636	0.1	167.5
29668	23.057	5.2727	0.1	151.36
29669	22.965	5.5455	0.1	159.19
29670	23.057	5.4545	0.1	142.02
29671	22.965	5.7273	0.1	152.73
29672	23.057	5.6364	0.1	134.53
29673	23.057	5.8182	0.1	128.96
29674	22.965	5.9091	0.1	148.5
29675	23.149	0.27273	0.1	110.55
29676	23.241	0.18182	0.1	87.809
29677	23.149	9.0909e-002	0.1	106.28
29678	23.149	0.45455	0.1	117.56
29679	23.241	0.36364	0.1	94.04
29680	23.149	0.63636	0.1	126.39
29681	23.241	0.54545	0.1	102.26
29682	23.149	0.81818	0.1	136.86
29683	23.241	0.72727	0.1	112.05
29684	23.149	1.	0.1	148.95
29685	23.241	0.90909	0.1	123.09
29686	23.149	1.1818	0.1	162.96
29687	23.241	1.0909	0.1	135.5
29688	23.149	1.3636	0.1	179.56
29689	23.241	1.2727	0.1	149.99
29690	23.149	1.5455	0.1	199.01
29691	23.241	1.4545	0.1	167.71
29692	23.149	1.7273	0.1	219.6
29693	23.241	1.6364	0.1	191.98
29694	23.149	1.9091	0.1	235.79
29695	23.241	1.8182	0.1	219.28
29696	23.149	2.0909	0.1	240.26
29697	23.241	2.	0.1	241.23
29698	23.149	2.2727	0.1	231.73
29699	23.241	2.1818	0.1	237.76
29700	23.149	2.4545	0.1	216.94
29701	23.241	2.3636	0.1	216.27
29702	23.149	2.6364	0.1	204.52
29703	23.241	2.5455	0.1	195.72
29704	23.149	2.8182	0.1	197.8
29705	23.241	2.7273	0.1	184.63
29706	23.149	3.	0.1	195.85
29707	23.241	2.9091	0.1	180.21
29708	23.149	3.1818	0.1	197.8
29709	23.241	3.0909	0.1	180.21
29710	23.149	3.3636	0.1	204.52
29711	23.241	3.2727	0.1	184.63
29712	23.149	3.5455	0.1	216.94
29713	23.241	3.4545	0.1	195.72
29714	23.149	3.7273	0.1	231.73
29715	23.241	3.6364	0.1	216.27
29716	23.149	3.9091	0.1	240.26
29717	23.241	3.8182	0.1	237.76
29718	23.149	4.0909	0.1	235.79
29719	23.241	4.	0.1	241.23
29720	23.149	4.2727	0.1	219.6
29721	23.241	4.1818	0.1	219.28
29722	23.149	4.4545	0.1	199.01
29723	23.241	4.3636	0.1	191.98
29724	23.149	4.6364	0.1	179.56
29725	23.241	4.5455	0.1	167.71
29726	23.149	4.8182	0.1	162.96
29727	23.241	4.7273	0.1	149.99
29728	23.149	5.	0.1	148.95
29729	23.241	4.9091	0.1	135.5
29730	23.149	5.1818	0.1	136.87
29731	23.241	5.0909	0.1	123.09
29732	23.149	5.3636	0.1	126.39
29733	23.241	5.2727	0.1	112.05
29734	23.149	5.5455	0.1	117.56
29735	23.241	5.4545	0.1	102.26
29736	23.149	5.7273	0.1	110.55
29737	23.241	5.6364	0.1	94.04
29738	23.241	5.8182	0.1	87.809
29739	23.149	5.9091	0.1	106.28
29740	23.333	0.27273	0.1	71.382
29741	23.424	0.18182	0.1	50.314
29742	23.333	9.0909e-002	0.1	66.435
29743	23.333	0.45455	0.1	79.391
29744	23.424	0.36364	0.1	58.434
29745	23.333	0.63636	0.1	88.922
29746	23.424	0.54545	0.1	68.284
29747	23.333	0.81818	0.1	99.466
29748	23.424	0.72727	0.1	78.821
29749	23.333	1.	0.1	110.95
29750	23.424	0.90909	0.1	89.713
29751	23.333	1.1818	0.1	123.92
29752	23.424	1.0909	0.1	101.09
29753	23.333	1.3636	0.1	139.5
29754	23.424	1.2727	0.1	113.5
29755	23.333	1.5455	0.1	161.44
29756	23.424	1.4545	0.1	128.59
29757	23.333	1.7273	0.1	190.31
29758	23.424	1.6364	0.1	149.83
29759	23.333	1.9091	0.1	220.11
29760	23.424	1.8182	0.1	192.16
29761	23.333	2.0909	0.1	236.27
29762	23.424	2.	0.1	263.76
29763	23.333	2.2727	0.1	223.57
29764	23.424	2.1818	0.1	262.06
29765	23.333	2.4545	0.1	196.08
29766	23.424	2.3636	0.1	209.87
29767	23.333	2.6364	0.1	175.5
29768	23.424	2.5455	0.1	172.94
29769	23.333	2.8182	0.1	166.28
29770	23.424	2.7273	0.1	154.91
29771	23.333	3.	0.1	163.78
29772	23.424	2.9091	0.1	148.28
29773	23.333	3.1818	0.1	166.28
29774	23.424	3.0909	0.1	148.28
29775	23.333	3.3636	0.1	175.5
29776	23.424	3.2727	0.1	154.91
29777	23.333	3.5455	0.1	196.08
29778	23.424	3.4545	0.1	172.94
29779	23.333	3.7273	0.1	223.57
29780	23.424	3.6364	0.1	209.87
29781	23.333	3.9091	0.1	236.27
29782	23.424	3.8182	0.1	262.06
29783	23.333	4.0909	0.1	220.11
29784	23.424	4.	0.1	263.76
29785	23.333	4.2727	0.1	190.31
29786	23.424	4.1818	0.1	192.16
29787	23.333	4.4545	0.1	161.44
29788	23.424	4.3636	0.1	149.83
29789	23.333	4.6364	0.1	139.5
29790	23.424	4.5455	0.1	128.59
29791	23.333	4.8182	0.1	123.92
29792	23.424	4.7273	0.1	113.5
29793	23.333	5.	0.1	110.95
29794	23.424	4.9091	0.1	101.09
29795	23.333	5.1818	0.1	99.466
29796	23.424	5.0909	0.1	89.713
29797	23.333	5.3636	0.1	88.922
29798	23.424	5.2727	0.1	78.821
29799	23.333	5.5455	0.1	79.391
29800	23.424	5.4545	0.1	68.284
29801	23.333	5.7273	0.1	71.382
29802	23.424	5.6364	0.1	58.434
29803	23.424	5.8182	0.1	50.314
29804	23.333	5.9091	0.1	66.435
29805	23.516	0.27273	0.1	38.835
29806	23.608	0.18182	0.1	21.023
29807	23.516	9.0909e-002	0.1	30.555
29808	23.516	0.45455	0.1	49.427
29809	23.608	0.36364	0.1	29.495
29810	23.516	0.63636	0.1	60.389
29811	23.608	0.54545	0.1	37.672
29812	23.516	0.81818	0.1	71.272
29813	23.608	0.72727	0.1	45.465
29814	23.516	1.	0.1	82.094
29815	23.608	0.90909	0.1	52.926
29816	23.516	1.1818	0.1	93.062
29817	23.608	1.0909	0.1	60.23
29818	23.516	1.3636	0.1	105.28
29819	23.608	1.2727	0.1	67.522
29820	23.516	1.5455	0.1	120.53
29821	23.608	1.4545	0.1	76.251
29822	23.516	1.7273	0.1	152.66
29823	23.608	1.6364	0.1	87.207
29824	23.516	1.9091	0.1	222.9
29825	23.608	1.8182	0.1	113.39
29826	23.516	2.0909	0.1	272.46
29827	23.608	2.	0.1	455.28
29828	23.516	2.2727	0.1	252.62
29829	23.608	2.1818	0.1	420.09
29830	23.516	2.4545	0.1	188.83
29831	23.608	2.3636	0.1	236.98
29832	23.516	2.6364	0.1	151.43
29833	23.608	2.5455	0.1	157.65
29834	23.516	2.8182	0.1	135.73
29835	23.608	2.7273	0.1	124.59
29836	23.516	3.	0.1	131.7
29837	23.608	2.9091	0.1	113.39
29838	23.516	3.1818	0.1	135.73
29839	23.608	3.0909	0.1	113.39
29840	23.516	3.3636	0.1	151.43
29841	23.608	3.2727	0.1	124.59
29842	23.516	3.5455	0.1	188.83
29843	23.608	3.4545	0.1	157.65
29844	23.516	3.7273	0.1	252.62
29845	23.608	3.6364	0.1	236.98
29846	23.516	3.9091	0.1	272.46
29847	23.608	3.8182	0.1	420.09
29848	23.516	4.0909	0.1	222.9
29849	23.608	4.	0.1	455.28
29850	23.516	4.2727	0.1	152.66
29851	23.608	4.1818	0.1	113.39
29852	23.516	4.4545	0.1	120.53
29853	23.608	4.3636	0.1	87.207
29854	23.516	4.6364	0.1	105.28
29855	23.608	4.5455	0.1	76.251
29856	23.516	4.8182	0.1	93.062
29857	23.608	4.7273	0.1	67.522
29858	23.516	5.	0.1	82.094
29859	23.608	4.9091	0.1	60.23
29860	23.516	5.1818	0.1	71.272
29861	23.608	5.0909	0.1	52.926
29862	23.516	5.3636	0.1	60.389
29863	23.608	5.2727	0.1	45.465
29864	23.516	5.5455	0.1	49.427
29865	23.608	5.4545	0.1	37.672
29866	23.516	5.7273	0.1	38.835
29867	23.608	5.6364	0.1	29.495
29868	23.608	5.8182	0.1	21.023
29869	23.516	5.9091	0.1	30.555
29870	23.7	3.7273	0.1	427.8
29871	23.7	3.9091	0.1	538.06
29872	23.7	3.5455	0.1	209.69
29873	23.7	3.3636	0.1	129.28
29874	23.7	3.1818	0.1	100.57
29875	23.7	3.	0.1	93.619
29876	23.7	2.8182	0.1	100.57
29877	23.7	2.6364	0.1	129.28
29878	23.7	2.4545	0.1	209.69
29879	23.7	2.2727	0.1	427.8
29880	23.7	2.0909	0.1	538.06
29881	23.867	5.7273	0.1	64.862
29882	23.867	5.9091	0.1	13.717
29883	23.933	5.8182	0.1	28.206
29884	23.867	5.8182	5.e-002	1.015
29885	23.867	5.5455	0.1	164.55
29886	23.933	5.6364	0.1	102.99
29887	23.867	5.6364	5.e-002	1.0395
29888	23.867	5.3636	0.1	313.94
29889	23.933	5.4545	0.1	227.48
29890	23.867	5.4545	5.e-002	1.0962
29891	23.867	5.1818	0.1	513.09
29892	23.933	5.2727	0.1	401.71
29893	23.867	5.2727	5.e-002	1.1687
29894	23.867	5.	0.1	761.99
29895	23.933	5.0909	0.1	625.74
29896	23.867	5.0909	5.e-002	1.263
29897	23.867	4.8182	0.1	1060.7
29898	23.933	4.9091	0.1	899.51
29899	23.867	4.9091	5.e-002	1.3477
29900	23.867	4.6364	0.1	1409.2
29901	23.933	4.7273	0.1	1223.2
29902	23.867	4.7273	5.e-002	1.5012
29903	23.867	4.4545	0.1	1807.2
29904	23.933	4.5455	0.1	1596.5
29905	23.867	4.5455	5.e-002	1.631
29906	23.867	4.2727	0.1	2233.9
29907	23.933	4.3636	0.1	2018.4
29908	23.867	4.3636	5.e-002	1.7544
29909	23.867	4.0909	0.1	2594.8
29910	23.933	4.1818	0.1	2514.1
29911	23.867	4.1818	5.e-002	31.202
29912	23.783	4.	0.1	1273.1
29913	23.933	4.	0.1	2543.2
29914	23.867	4.	5.e-002	322.47
29915	23.7	4.0909	0.1	287.35
29916	23.7	4.	5.e-002	287.29
29917	23.7	4.2727	0.1	65.437
29918	23.7	4.1818	5.e-002	120.92
29919	23.7	4.4545	0.1	51.819
29920	23.7	4.3636	5.e-002	88.868
29921	23.7	4.6364	0.1	46.845
29922	23.7	4.5455	5.e-002	67.932
29923	23.7	4.8182	0.1	41.889
29924	23.7	4.7273	5.e-002	55.766
29925	23.7	5.	0.1	37.333
29926	23.7	4.9091	5.e-002	45.461
29927	23.7	5.1818	0.1	32.459
29928	23.7	5.0909	5.e-002	36.502
29929	23.7	5.3636	0.1	27.281
29930	23.7	5.2727	5.e-002	28.34
29931	23.7	5.5455	0.1	21.659
29932	23.7	5.4545	5.e-002	20.748
29933	23.7	5.7273	0.1	15.234
29934	23.7	5.6364	5.e-002	13.595
29935	23.7	5.9091	0.1	6.809
29936	23.7	5.8182	5.e-002	6.7463
29937	23.867	0.27273	0.1	64.862
29938	23.933	0.18182	0.1	28.206
29939	23.867	9.0909e-002	0.1	13.716
29940	23.867	0.18182	5.e-002	1.015
29941	23.867	0.45455	0.1	164.55
29942	23.933	0.36364	0.1	102.99
29943	23.867	0.36364	5.e-002	1.0395
29944	23.867	0.63636	0.1	313.94
29945	23.933	0.54545	0.1	227.48
29946	23.867	0.54545	5.e-002	1.0962
29947	23.867	0.81818	0.1	513.09
29948	23.933	0.72727	0.1	401.71
29949	23.867	0.72727	5.e-002	1.1687
29950	23.867	1.	0.1	761.99
29951	23.933	0.90909	0.1	625.74
29952	23.867	0.90909	5.e-002	1.2631
29953	23.867	1.1818	0.1	1060.7
29954	23.933	1.0909	0.1	899.51
29955	23.867	1.0909	5.e-002	1.3479
29956	23.867	1.3636	0.1	1409.2
29957	23.933	1.2727	0.1	1223.2
29958	23.867	1.2727	5.e-002	1.5015
29959	23.867	1.5455	0.1	1807.2
29960	23.933	1.4545	0.1	1596.5
29961	23.867	1.4545	5.e-002	1.6317
29962	23.867	1.7273	0.1	2233.9
29963	23.933	1.6364	0.1	2018.4
29964	23.867	1.6364	5.e-002	1.7547
29965	23.867	1.9091	0.1	2594.8
29966	23.933	1.8182	0.1	2514.1
29967	23.867	1.8182	5.e-002	31.204
29968	23.783	2.	0.1	1273.1
29969	23.933	2.	0.1	2543.2
29970	23.867	2.	5.e-002	322.47
29971	23.7	1.9091	0.1	287.35
29972	23.7	2.	5.e-002	287.29
29973	23.7	1.7273	0.1	65.437
29974	23.7	1.8182	5.e-002	120.91
29975	23.7	1.5455	0.1	51.819
29976	23.7	1.6364	5.e-002	88.868
29977	23.7	1.3636	0.1	46.845
29978	23.7	1.4545	5.e-002	67.932
29979	23.7	1.1818	0.1	41.889
29980	23.7	1.2727	5.e-002	55.766
29981	23.7	1.	0.1	37.333
29982	23.7	1.0909	5.e-002	45.461
29983	23.7	0.81818	0.1	32.459
29984	23.7	0.90909	5.e-002	36.502
29985	23.7	0.63636	0.1	27.281
29986	23.7	0.72727	5.e-002	28.34
29987	23.7	0.45455	0.1	21.659
29988	23.7	0.54545	5.e-002	20.748
29989	23.7	0.27273	0.1	15.234
29990	23.7	0.36364	5.e-002	13.595
29991	23.7	9.0909e-002	0.1	6.809
29992	23.7	0.18182	5.e-002	6.7463
29993	23.933	6.	0.1	2.7337
29994	23.867	6.	5.e-002	1.4699
29995	24.	5.9091	0.1	15.946
29996	24.	6.	5.e-002	2.8259
29997	24.	5.7273	0.1	68.573
29998	24.	5.8182	5.e-002	13.73
29999	24.	5.5455	0.1	169.06
30000	24.	5.6364	5.e-002	27.077
30001	24.	5.3636	0.1	318.71
30002	24.	5.4545	5.e-002	40.524
30003	24.	5.1818	0.1	517.98
30004	24.	5.2727	5.e-002	53.986
30005	24.	5.	0.1	766.94
30006	24.	5.0909	5.e-002	67.455
30007	24.	4.8182	0.1	1065.7
30008	24.	4.9091	5.e-002	80.928
30009	24.	4.6364	0.1	1414.3
30010	24.	4.7273	5.e-002	94.425
30011	24.	4.4545	0.1	1811.5
30012	24.	4.5455	5.e-002	107.73
30013	24.	4.2727	0.1	2303.8
30014	24.	4.3636	5.e-002	122.44
30015	24.	4.0909	0.1	2447.2
30016	24.	4.1818	5.e-002	143.33
30017	24.	3.9091	0.1	1605.
30018	24.	4.	5.e-002	39.965
30019	24.	3.7273	0.1	585.27
30020	24.	3.8182	5.e-002	32.104
30021	24.	3.5455	0.1	174.37
30022	24.	3.6364	5.e-002	19.731
30023	24.	3.3636	0.1	48.275
30024	24.	3.4545	5.e-002	15.597
30025	24.	3.1818	0.1	9.9095
30026	24.	3.2727	5.e-002	9.2182
30027	24.	3.	0.1	6.1553
30028	24.	3.0909	5.e-002	5.5242
30029	24.	2.8182	0.1	9.9095
30030	24.	2.9091	5.e-002	5.5242
30031	24.	2.6364	0.1	48.275
30032	24.	2.7273	5.e-002	9.2183
30033	24.	2.4545	0.1	174.37
30034	24.	2.5455	5.e-002	15.597
30035	24.	2.2727	0.1	585.27
30036	24.	2.3636	5.e-002	19.731
30037	24.	2.0909	0.1	1605.
30038	24.	2.1818	5.e-002	32.104
30039	24.	1.9091	0.1	2447.2
30040	24.	2.	5.e-002	39.963
30041	24.	1.7273	0.1	2303.8
30042	24.	1.8182	5.e-002	143.32
30043	24.	1.5455	0.1	1811.5
30044	24.	1.6364	5.e-002	122.44
30045	24.	1.3636	0.1	1414.3
30046	24.	1.4545	5.e-002	107.73
30047	24.	1.1818	0.1	1065.7
30048	24.	1.2727	5.e-002	94.425
30049	24.	1.	0.1	766.94
30050	24.	1.0909	5.e-002	80.927
30051	24.	0.81818	0.1	517.98
30052	24.	0.90909	5.e-002	67.455
30053	24.	0.63636	0.1	318.71
30054	24.	0.72727	5.e-002	53.986
30055	24.	0.45455	0.1	169.06
30056	24.	0.54545	5.e-002	40.525
30057	24.	0.27273	0.1	68.573
30058	24.	0.36364	5.e-002	27.077
30059	24.	9.0909e-002	0.1	15.946
30060	24.	0.18182	5.e-002	13.73
30061	2.3842e-015	0.27273	0.1	3540.4
30062	7.9472e-016	9.0909e-002	0.1	1435.3
30063	1.6109e-015	0.18182	5.e-002	95.327
30064	3.9736e-015	0.45455	0.1	5158.4
30065	3.2219e-015	0.36364	5.e-002	49.698
30066	5.563e-015	0.63636	0.1	6005.8
30067	4.8328e-015	0.54545	5.e-002	44.953
30068	7.1525e-015	0.81818	0.1	6543.4
30069	6.4438e-015	0.72727	5.e-002	39.551
30070	8.7419e-015	1.	0.1	6912.2
30071	8.0547e-015	0.90909	5.e-002	33.666
30072	1.0331e-014	1.1818	0.1	7179.5
30073	9.6657e-015	1.0909	5.e-002	28.602
30074	1.1921e-014	1.3636	0.1	7379.5
30075	1.1277e-014	1.2727	5.e-002	24.495
30076	1.351e-014	1.5455	0.1	7532.1
30077	1.2888e-014	1.4545	5.e-002	21.158
30078	1.51e-014	1.7273	0.1	7650.1
30079	1.4498e-014	1.6364	5.e-002	18.456
30080	1.6689e-014	1.9091	0.1	7741.5
30081	1.6109e-014	1.8182	5.e-002	16.277
30082	1.8279e-014	2.0909	0.1	7812.
30083	1.772e-014	2.	5.e-002	14.535
30084	1.9868e-014	2.2727	0.1	7865.5
30085	1.9331e-014	2.1818	5.e-002	13.165
30086	2.1457e-014	2.4545	0.1	7904.7
30087	2.0942e-014	2.3636	5.e-002	12.118
30088	2.3047e-014	2.6364	0.1	7931.6
30089	2.2553e-014	2.5455	5.e-002	11.361
30090	2.4636e-014	2.8182	0.1	7947.2
30091	2.4164e-014	2.7273	5.e-002	10.869
30092	2.6226e-014	3.	0.1	7952.4
30093	2.5775e-014	2.9091	5.e-002	10.626
30094	2.7815e-014	3.1818	0.1	7947.2
30095	2.7386e-014	3.0909	5.e-002	10.626
30096	2.9405e-014	3.3636	0.1	7931.6
30097	2.8997e-014	3.2727	5.e-002	10.869
30098	3.0994e-014	3.5455	0.1	7904.7
30099	3.0608e-014	3.4545	5.e-002	11.361
30100	3.2583e-014	3.7273	0.1	7865.5
30101	3.2219e-014	3.6364	5.e-002	12.118
30102	3.4173e-014	3.9091	0.1	7812.
30103	3.383e-014	3.8182	5.e-002	13.165
30104	3.5762e-014	4.0909	0.1	7741.5
30105	3.5441e-014	4.	5.e-002	14.535
30106	3.7352e-014	4.2727	0.1	7650.1
30107	3.7052e-014	4.1818	5.e-002	16.277
30108	3.8941e-014	4.4545	0.1	7532.1
30109	3.8663e-014	4.3636	5.e-002	18.456
30110	4.0531e-014	4.6364	0.1	7379.5
30111	4.0274e-014	4.5455	5.e-002	21.158
30112	4.212e-014	4.8182	0.1	7179.5
30113	4.1885e-014	4.7273	5.e-002	24.495
30114	4.371e-014	5.	0.1	6912.2
30115	4.3495e-014	4.9091	5.e-002	28.602
30116	4.5299e-014	5.1818	0.1	6543.4
30117	4.5106e-014	5.0909	5.e-002	33.666
30118	4.6888e-014	5.3636	0.1	6005.8
30119	4.6717e-014	5.2727	5.e-002	39.552
30120	4.8478e-014	5.5455	0.1	5158.4
30121	4.8328e-014	5.4545	5.e-002	44.954
30122	5.0067e-014	5.7273	0.1	3540.4
30123	4.9939e-014	5.6364	5.e-002	49.698
30124	5.1657e-014	5.9091	0.1	1435.3
30125	5.155e-014	5.8182	5.e-002	95.327
30126	23.933	0.	0.1	2.7337
30127	24.	0.	5.e-002	2.8258
30128	23.867	0.	5.e-002	1.4699
30129	23.608	7.2509e-030	0.1	14.965
30130	23.7	7.2791e-030	5.e-002	1.351
30131	23.424	7.1945e-030	0.1	46.759
30132	23.516	0.	5.e-002	2.9925
30133	23.241	7.138e-030	0.1	85.052
30134	23.333	0.	5.e-002	5.1687
30135	23.057	7.0816e-030	0.1	125.95
30136	23.149	0.	5.e-002	8.2441
30137	22.873	7.0252e-030	0.1	168.63
30138	22.965	0.	5.e-002	11.678
30139	22.69	6.9688e-030	0.1	212.34
30140	22.781	0.	5.e-002	15.3
30141	22.506	6.9123e-030	0.1	256.51
30142	22.598	0.	5.e-002	18.959
30143	22.322	6.8559e-030	0.1	300.74
30144	22.414	0.	5.e-002	22.551
30145	22.138	6.7995e-030	0.1	344.79
30146	22.23	0.	5.e-002	26.006
30147	21.955	6.743e-030	0.1	388.54
30148	22.047	0.	5.e-002	29.28
30149	21.771	6.6866e-030	0.1	431.94
30150	21.863	0.	5.e-002	32.348
30151	21.587	6.6302e-030	0.1	475.
30152	21.679	0.	5.e-002	35.204
30153	21.403	6.5738e-030	0.1	517.76
30154	21.495	0.	5.e-002	37.849
30155	21.22	6.5173e-030	0.1	560.27
30156	21.312	0.	5.e-002	40.294
30157	21.036	6.4609e-030	0.1	602.59
30158	21.128	0.	5.e-002	42.549
30159	20.852	6.4045e-030	0.1	644.76
30160	20.944	0.	5.e-002	44.631
30161	20.669	6.3481e-030	0.1	686.83
30162	20.76	0.	5.e-002	46.554
30163	20.485	6.2916e-030	0.1	728.85
30164	20.577	0.	5.e-002	48.333
30165	20.301	6.2352e-030	0.1	770.86
30166	20.393	0.	5.e-002	49.981
30167	20.117	6.1788e-030	0.1	812.88
30168	20.209	0.	5.e-002	51.511
30169	19.934	6.1223e-030	0.1	854.94
30170	20.026	0.	5.e-002	52.934
30171	19.75	6.0659e-030	0.1	897.07
30172	19.842	0.	5.e-002	54.261
30173	19.566	6.0095e-030	0.1	939.27
30174	19.658	0.	5.e-002	55.501
30175	19.383	5.9531e-030	0.1	981.57
30176	19.474	0.	5.e-002	56.661
30177	19.199	5.8966e-030	0.1	1024.
30178	19.291	0.	5.e-002	57.75
30179	19.015	5.8402e-030	0.1	1066.5
30180	19.107	0.	5.e-002	58.773
30181	18.831	5.7838e-030	0.1	1109.2
30182	18.923	0.	5.e-002	59.735
30183	18.648	5.7274e-030	0.1	1152.
30184	18.74	0.	5.e-002	60.643
30185	18.464	5.6709e-030	0.1	1194.9
30186	18.556	0.	5.e-002	61.501
30187	18.28	5.6145e-030	0.1	1238.
30188	18.372	0.	5.e-002	62.313
30189	18.097	5.5581e-030	0.1	1281.3
30190	18.188	0.	5.e-002	63.081
30191	17.913	5.5016e-030	0.1	1324.7
30192	18.005	0.	5.e-002	63.811
30193	17.729	5.4452e-030	0.1	1368.2
30194	17.821	0.	5.e-002	64.504
30195	17.545	5.3888e-030	0.1	1412.
30196	17.637	0.	5.e-002	65.163
30197	17.362	5.3324e-030	0.1	1455.9
30198	17.453	0.	5.e-002	65.791
30199	17.178	5.2759e-030	0.1	1500.
30200	17.27	0.	5.e-002	66.39
30201	16.994	5.2195e-030	0.1	1544.2
30202	17.086	0.	5.e-002	66.962
30203	16.81	5.1631e-030	0.1	1588.7
30204	16.902	0.	5.e-002	67.507
30205	16.627	5.1067e-030	0.1	1633.3
30206	16.719	0.	5.e-002	68.029
30207	16.443	5.0502e-030	0.1	1678.1
30208	16.535	0.	5.e-002	68.528
30209	16.259	4.9938e-030	0.1	1723.1
30210	16.351	0.	5.e-002	69.005
30211	16.076	4.9374e-030	0.1	1768.2
30212	16.167	0.	5.e-002	69.462
30213	15.892	4.881e-030	0.1	1813.6
30214	15.984	0.	5.e-002	69.899
30215	15.708	4.8245e-030	0.1	1859.2
30216	15.8	0.	5.e-002	70.318
30217	15.524	4.7681e-030	0.1	1904.9
30218	15.616	0.	5.e-002	70.718
30219	15.341	4.7117e-030	0.1	1950.8
30220	15.433	0.	5.e-002	71.101
30221	15.157	4.6552e-030	0.1	1997.
30222	15.249	0.	5.e-002	71.467
30223	14.973	4.5988e-030	0.1	2043.3
30224	15.065	0.	5.e-002	71.816
30225	14.79	4.5424e-030	0.1	2089.8
30226	14.881	0.	5.e-002	72.148
30227	14.606	4.486e-030	0.1	2136.5
30228	14.698	0.	5.e-002	72.463
30229	14.422	4.4295e-030	0.1	2183.5
30230	14.514	0.	5.e-002	72.762
30231	14.238	4.3731e-030	0.1	2230.6
30232	14.33	0.	5.e-002	73.045
30233	14.055	4.3167e-030	0.1	2277.9
30234	14.147	0.	5.e-002	73.31
30235	13.871	4.2603e-030	0.1	2325.4
30236	13.963	0.	5.e-002	73.559
30237	13.687	4.2038e-030	0.1	2373.2
30238	13.779	0.	5.e-002	73.789
30239	13.503	4.1474e-030	0.1	2421.1
30240	13.595	0.	5.e-002	74.001
30241	13.32	4.091e-030	0.1	2469.3
30242	13.412	0.	5.e-002	74.195
30243	13.136	4.0345e-030	0.1	2517.6
30244	13.228	0.	5.e-002	74.368
30245	12.952	3.9781e-030	0.1	2566.2
30246	13.044	0.	5.e-002	74.521
30247	12.769	3.9217e-030	0.1	2615.
30248	12.86	0.	5.e-002	74.653
30249	12.585	3.8653e-030	0.1	2663.9
30250	12.677	0.	5.e-002	74.761
30251	12.401	3.8088e-030	0.1	2713.2
30252	12.493	0.	5.e-002	74.845
30253	12.217	3.7524e-030	0.1	2762.6
30254	12.309	0.	5.e-002	74.903
30255	12.034	3.696e-030	0.1	2812.2
30256	12.126	0.	5.e-002	74.934
30257	11.85	3.6396e-030	0.1	2862.1
30258	11.942	0.	5.e-002	74.936
30259	11.666	3.5831e-030	0.1	2912.2
30260	11.758	0.	5.e-002	74.907
30261	11.483	3.5267e-030	0.1	2962.5
30262	11.574	0.	5.e-002	74.843
30263	11.299	3.4703e-030	0.1	3013.
30264	11.391	0.	5.e-002	74.744
30265	11.115	3.4138e-030	0.1	3063.8
30266	11.207	0.	5.e-002	74.607
30267	10.931	3.3574e-030	0.1	3114.8
30268	11.023	0.	5.e-002	74.428
30269	10.748	3.301e-030	0.1	3166.
30270	10.84	0.	5.e-002	74.204
30271	10.564	3.2446e-030	0.1	3217.5
30272	10.656	0.	5.e-002	73.931
30273	10.38	3.1881e-030	0.1	3269.2
30274	10.472	0.	5.e-002	73.607
30275	10.197	3.1317e-030	0.1	3321.2
30276	10.288	0.	5.e-002	73.227
30277	10.013	3.0753e-030	0.1	3373.4
30278	10.105	0.	5.e-002	72.787
30279	9.8291	3.0189e-030	0.1	3425.9
30280	9.9209	0.	5.e-002	72.28
30281	9.6453	2.9624e-030	0.1	3478.7
30282	9.7372	0.	5.e-002	71.704
30283	9.4616	2.906e-030	0.1	3531.7
30284	9.5535	0.	5.e-002	71.051
30285	9.2779	2.8496e-030	0.1	3585.
30286	9.3698	0.	5.e-002	70.315
30287	9.0942	2.7931e-030	0.1	3638.6
30288	9.186	0.	5.e-002	69.49
30289	8.9105	2.7367e-030	0.1	3692.4
30290	9.0023	0.	5.e-002	68.568
30291	8.7267	2.6803e-030	0.1	3746.6
30292	8.8186	0.	5.e-002	67.542
30293	8.543	2.6239e-030	0.1	3801.
30294	8.6349	0.	5.e-002	66.403
30295	8.3593	2.5674e-030	0.1	3855.8
30296	8.4512	0.	5.e-002	65.142
30297	8.1756	2.511e-030	0.1	3910.9
30298	8.2674	0.	5.e-002	63.749
30299	7.9919	2.4546e-030	0.1	3966.4
30300	8.0837	0.	5.e-002	62.212
30301	7.8081	2.3982e-030	0.1	4022.2
30302	7.9	0.	5.e-002	60.521
30303	7.6244	2.3417e-030	0.1	4078.3
30304	7.7163	0.	5.e-002	58.662
30305	7.4407	2.2853e-030	0.1	4134.8
30306	7.5326	0.	5.e-002	56.622
30307	7.257	2.2289e-030	0.1	4191.7
30308	7.3488	0.	5.e-002	54.386
30309	7.0733	2.1724e-030	0.1	4249.
30310	7.1651	0.	5.e-002	51.938
30311	6.8895	2.116e-030	0.1	4306.8
30312	6.9814	0.	5.e-002	49.261
30313	6.7058	2.0596e-030	0.1	4364.9
30314	6.7977	0.	5.e-002	46.336
30315	6.5221	2.0032e-030	0.1	4423.5
30316	6.614	0.	5.e-002	43.143
30317	6.3384	1.9467e-030	0.1	4482.6
30318	6.4302	0.	5.e-002	39.661
30319	6.1547	1.8903e-030	0.1	4542.2
30320	6.2465	0.	5.e-002	35.867
30321	5.9709	1.8339e-030	0.1	4602.3
30322	6.0628	0.	5.e-002	31.736
30323	5.7872	1.7775e-030	0.1	4662.9
30324	5.8791	0.	5.e-002	27.242
30325	5.6035	1.721e-030	0.1	4724.
30326	5.6953	0.	5.e-002	22.358
30327	5.4198	1.6646e-030	0.1	4785.7
30328	5.5116	0.	5.e-002	17.059
30329	5.236	1.6082e-030	0.1	4848.
30330	5.3279	0.	5.e-002	11.331
30331	5.0523	1.5517e-030	0.1	4910.9
30332	5.1442	0.	5.e-002	5.2577
30333	4.8686	1.4953e-030	0.1	4974.4
30334	4.9605	0.	5.e-002	2.7778
30335	4.6849	1.4389e-030	0.1	5038.4
30336	4.7767	0.	5.e-002	9.5586
30337	4.5012	1.3825e-030	0.1	5103.
30338	4.593	0.	5.e-002	17.49
30339	4.3174	1.326e-030	0.1	5168.2
30340	4.4093	0.	5.e-002	26.154
30341	4.1337	1.2696e-030	0.1	5233.8
30342	4.2256	0.	5.e-002	35.562
30343	3.95	1.2132e-030	0.1	5299.9
30344	4.0419	0.	5.e-002	45.763
30345	3.7663	1.1568e-030	0.1	5366.3
30346	3.8581	0.	5.e-002	56.816
30347	3.5826	1.1003e-030	0.1	5432.9
30348	3.6744	0.	5.e-002	68.787
30349	3.3988	1.0439e-030	0.1	5499.5
30350	3.4907	0.	5.e-002	81.75
30351	3.2151	9.8748e-031	0.1	5565.7
30352	3.307	0.	5.e-002	95.785
30353	3.0314	9.3105e-031	0.1	5631.3
30354	3.1233	0.	5.e-002	110.99
30355	2.8477	8.7462e-031	0.1	5695.8
30356	2.9395	0.	5.e-002	127.45
30357	2.664	8.1819e-031	0.1	5758.4
30358	2.7558	0.	5.e-002	145.3
30359	2.4802	7.6177e-031	0.1	5818.4
30360	2.5721	0.	5.e-002	164.66
30361	2.2965	7.0534e-031	0.1	5874.6
30362	2.3884	0.	5.e-002	185.68
30363	2.1128	6.4891e-031	0.1	5925.4
30364	2.2047	0.	5.e-002	208.56
30365	1.9291	5.9249e-031	0.1	5968.8
30366	2.0209	0.	5.e-002	233.51
30367	1.7453	5.3606e-031	0.1	6001.7
30368	1.8372	0.	5.e-002	260.79
30369	1.5616	4.7963e-031	0.1	6020.2
30370	1.6535	0.	5.e-002	290.76
30371	1.3779	4.232e-031	0.1	6018.2
30372	1.4698	0.	5.e-002	323.87
30373	1.1942	3.6678e-031	0.1	5986.8
30374	1.286	0.	5.e-002	360.72
30375	1.0105	3.1035e-031	0.1	5911.8
30376	1.1023	0.	5.e-002	402.2
30377	0.82674	2.5392e-031	0.1	5770.
30378	0.9186	0.	5.e-002	449.54
30379	0.64302	1.975e-031	0.1	5516.
30380	0.73488	0.	5.e-002	505.23
30381	0.4593	1.4107e-031	0.1	5063.8
30382	0.55116	0.	5.e-002	572.68
30383	0.27558	8.4641e-032	0.1	4156.6
30384	0.36744	0.	5.e-002	663.66
30385	9.186e-002	2.8214e-032	0.1	1945.4
30386	0.18372	0.	5.e-002	844.47
30387	0.	0.	5.e-002	1118.1
30388	9.186e-002	6.	0.1	1945.4
30389	5.2451e-014	6.	5.e-002	1118.1
30390	0.27558	6.	0.1	4156.6
30391	0.18372	6.	5.e-002	844.47
30392	0.4593	6.	0.1	5063.8
30393	0.36744	6.	5.e-002	663.66
30394	0.64302	6.	0.1	5516.
30395	0.55116	6.	5.e-002	572.68
30396	0.82674	6.	0.1	5770.
30397	0.73488	6.	5.e-002	505.23
30398	1.0105	6.	0.1	5911.8
30399	0.9186	6.	5.e-002	449.54
30400	1.1942	6.	0.1	5986.8
30401	1.1023	6.	5.e-002	402.2
30402	1.3779	6.	0.1	6018.2
30403	1.286	6.	5.e-002	360.72
30404	1.5616	6.	0.1	6020.2
30405	1.4698	6.	5.e-002	323.87
30406	1.7453	6.	0.1	6001.7
30407	1.6535	6.	5.e-002	290.76
30408	1.9291	6.	0.1	5968.8
30409	1.8372	6.	5.e-002	260.79
30410	2.1128	6.	0.1	5925.4
30411	2.0209	6.	5.e-002	233.51
30412	2.2965	6.	0.1	5874.6
30413	2.2047	6.	5.e-002	208.56
30414	2.4802	6.	0.1	5818.4
30415	2.3884	6.	5.e-002	185.68
30416	2.664	6.	0.1	5758.4
30417	2.5721	6.	5.e-002	164.66
30418	2.8477	6.	0.1	5695.8
30419	2.7558	6.	5.e-002	145.3
30420	3.0314	6.	0.1	5631.3
30421	2.9395	6.	5.e-002	127.45
30422	3.2151	6.	0.1	5565.7
30423	3.1233	6.	5.e-002	110.99
30424	3.3988	6.	0.1	5499.5
30425	3.307	6.	5.e-002	95.786
30426	3.5826	6.	0.1	5432.9
30427	3.4907	6.	5.e-002	81.75
30428	3.7663	6.	0.1	5366.3
30429	3.6744	6.	5.e-002	68.788
30430	3.95	6.	0.1	5299.9
30431	3.8581	6.	5.e-002	56.817
30432	4.1337	6.	0.1	5233.8
30433	4.0419	6.	5.e-002	45.764
30434	4.3174	6.	0.1	5168.2
30435	4.2256	6.	5.e-002	35.563
30436	4.5012	6.	0.1	5103.
30437	4.4093	6.	5.e-002	26.154
30438	4.6849	6.	0.1	5038.4
30439	4.593	6.	5.e-002	17.491
30440	4.8686	6.	0.1	4974.4
30441	4.7767	6.	5.e-002	9.5591
30442	5.0523	6.	0.1	4910.9
30443	4.9605	6.	5.e-002	2.7781
30444	5.236	6.	0.1	4848.
30445	5.1442	6.	5.e-002	5.2576
30446	5.4198	6.	0.1	4785.7
30447	5.3279	6.	5.e-002	11.33
30448	5.6035	6.	0.1	4724.
30449	5.5116	6.	5.e-002	17.059
30450	5.7872	6.	0.1	4662.9
30451	5.6953	6.	5.e-002	22.358
30452	5.9709	6.	0.1	4602.3
30453	5.8791	6.	5.e-002	27.242
30454	6.1547	6.	0.1	4542.2
30455	6.0628	6.	5.e-002	31.736
30456	6.3384	6.	0.1	4482.6
30457	6.2465	6.	5.e-002	35.867
30458	6.5221	6.	0.1	4423.5
30459	6.4302	6.	5.e-002	39.661
30460	6.7058	6.	0.1	4364.9
30461	6.614	6.	5.e-002	43.143
30462	6.8895	6.	0.1	4306.8
30463	6.7977	6.	5.e-002	46.336
30464	7.0733	6.	0.1	4249.
30465	6.9814	6.	5.e-002	49.261
30466	7.257	6.	0.1	4191.7
30467	7.1651	6.	5.e-002	51.938
30468	7.4407	6.	0.1	4134.8
30469	7.3488	6.	5.e-002	54.386
30470	7.6244	6.	0.1	4078.3
30471	7.5326	6.	5.e-002	56.622
30472	7.8081	6.	0.1	4022.2
30473	7.7163	6.	5.e-002	58.662
30474	7.9919	6.	0.1	3966.4
30475	7.9	6.	5.e-002	60.521
30476	8.1756	6.	0.1	3910.9
30477	8.0837	6.	5.e-002	62.212
30478	8.3593	6.	0.1	3855.8
30479	8.2674	6.	5.e-002	63.749
30480	8.543	6.	0.1	3801.
30481	8.4512	6.	5.e-002	65.142
30482	8.7267	6.	0.1	3746.6
30483	8.6349	6.	5.e-002	66.403
30484	8.9105	6.	0.1	3692.4
30485	8.8186	6.	5.e-002	67.542
30486	9.0942	6.	0.1	3638.6
30487	9.0023	6.	5.e-002	68.568
30488	9.2779	6.	0.1	3585.
30489	9.186	6.	5.e-002	69.49
30490	9.4616	6.	0.1	3531.7
30491	9.3698	6.	5.e-002	70.315
30492	9.6453	6.	0.1	3478.7
30493	9.5535	6.	5.e-002	71.05
30494	9.8291	6.	0.1	3425.9
30495	9.7372	6.	5.e-002	71.703
30496	10.013	6.	0.1	3373.4
30497	9.9209	6.	5.e-002	72.28
30498	10.197	6.	0.1	3321.2
30499	10.105	6.	5.e-002	72.786
30500	10.38	6.	0.1	3269.2
30501	10.288	6.	5.e-002	73.227
30502	10.564	6.	0.1	3217.5
30503	10.472	6.	5.e-002	73.607
30504	10.748	6.	0.1	3166.
30505	10.656	6.	5.e-002	73.931
30506	10.931	6.	0.1	3114.8
30507	10.84	6.	5.e-002	74.203
30508	11.115	6.	0.1	3063.8
30509	11.023	6.	5.e-002	74.427
30510	11.299	6.	0.1	3013.
30511	11.207	6.	5.e-002	74.607
30512	11.483	6.	0.1	2962.5
30513	11.391	6.	5.e-002	74.744
30514	11.666	6.	0.1	2912.2
30515	11.574	6.	5.e-002	74.843
30516	11.85	6.	0.1	2862.1
30517	11.758	6.	5.e-002	74.906
30518	12.034	6.	0.1	2812.2
30519	11.942	6.	5.e-002	74.936
30520	12.217	6.	0.1	2762.6
30521	12.126	6.	5.e-002	74.934
30522	12.401	6.	0.1	2713.2
30523	12.309	6.	5.e-002	74.903
30524	12.585	6.	0.1	2663.9
30525	12.493	6.	5.e-002	74.845
30526	12.769	6.	0.1	2615.
30527	12.677	6.	5.e-002	74.761
30528	12.952	6.	0.1	2566.2
30529	12.86	6.	5.e-002	74.652
30530	13.136	6.	0.1	2517.6
30531	13.044	6.	5.e-002	74.521
30532	13.32	6.	0.1	2469.3
30533	13.228	6.	5.e-002	74.368
30534	13.503	6.	0.1	2421.1
30535	13.412	6.	5.e-002	74.195
30536	13.687	6.	0.1	2373.2
30537	13.595	6.	5.e-002	74.001
30538	13.871	6.	0.1	2325.4
30539	13.779	6.	5.e-002	73.789
30540	14.055	6.	0.1	2277.9
30541	13.963	6.	5.e-002	73.558
30542	14.238	6.	0.1	2230.6
30543	14.147	6.	5.e-002	73.31
30544	14.422	6.	0.1	2183.5
30545	14.33	6.	5.e-002	73.045
30546	14.606	6.	0.1	2136.5
30547	14.514	6.	5.e-002	72.762
30548	14.79	6.	0.1	2089.8
30549	14.698	6.	5.e-002	72.463
30550	14.973	6.	0.1	2043.3
30551	14.881	6.	5.e-002	72.148
30552	15.157	6.	0.1	1997.
30553	15.065	6.	5.e-002	71.815
30554	15.341	6.	0.1	1950.8
30555	15.249	6.	5.e-002	71.467
30556	15.524	6.	0.1	1904.9
30557	15.433	6.	5.e-002	71.101
30558	15.708	6.	0.1	1859.2
30559	15.616	6.	5.e-002	70.718
30560	15.892	6.	0.1	1813.6
30561	15.8	6.	5.e-002	70.318
30562	16.076	6.	0.1	1768.2
30563	15.984	6.	5.e-002	69.899
30564	16.259	6.	0.1	1723.1
30565	16.167	6.	5.e-002	69.462
30566	16.443	6.	0.1	1678.1
30567	16.351	6.	5.e-002	69.005
30568	16.627	6.	0.1	1633.3
30569	16.535	6.	5.e-002	68.528
30570	16.81	6.	0.1	1588.7
30571	16.719	6.	5.e-002	68.029
30572	16.994	6.	0.1	1544.2
30573	16.902	6.	5.e-002	67.507
30574	17.178	6.	0.1	1500.
30575	17.086	6.	5.e-002	66.961
30576	17.362	6.	0.1	1455.9
30577	17.27	6.	5.e-002	66.39
30578	17.545	6.	0.1	1412.
30579	17.453	6.	5.e-002	65.791
30580	17.729	6.	0.1	1368.2
30581	17.637	6.	5.e-002	65.163
30582	17.913	6.	0.1	1324.7
30583	17.821	6.	5.e-002	64.504
30584	18.097	6.	0.1	1281.3
30585	18.005	6.	5.e-002	63.811
30586	18.28	6.	0.1	1238.
30587	18.188	6.	5.e-002	63.081
30588	18.464	6.	0.1	1194.9
30589	18.372	6.	5.e-002	62.312
30590	18.648	6.	0.1	1152.
30591	18.556	6.	5.e-002	61.501
30592	18.831	6.	0.1	1109.2
30593	18.74	6.	5.e-002	60.643
30594	19.015	6.	0.1	1066.5
30595	18.923	6.	5.e-002	59.735
30596	19.199	6.	0.1	1024.
30597	19.107	6.	5.e-002	58.772
30598	19.383	6.	0.1	981.57
30599	19.291	6.	5.e-002	57.75
30600	19.566	6.	0.1	939.27
30601	19.474	6.	5.e-002	56.661
30602	19.75	6.	0.1	897.07
30603	19.658	6.	5.e-002	55.501
30604	19.934	6.	0.1	854.94
30605	19.842	6.	5.e-002	54.261
30606	20.117	6.	0.1	812.88
30607	20.026	6.	5.e-002	52.934
30608	20.301	6.	0.1	770.86
30609	20.209	6.	5.e-002	51.511
30610	20.485	6.	0.1	728.85
30611	20.393	6.	5.e-002	49.981
30612	20.669	6.	0.1	686.83
30613	20.577	6.	5.e-002	48.333
30614	20.852	6.	0.1	644.76
30615	20.76	6.	5.e-002	46.554
30616	21.036	6.	0.1	602.59
30617	20.944	6.	5.e-002	44.631
30618	21.22	6.	0.1	560.27
30619	21.128	6.	5.e-002	42.549
30620	21.403	6.	0.1	517.76
30621	21.312	6.	5.e-002	40.293
30622	21.587	6.	0.1	475.
30623	21.495	6.	5.e-002	37.849
30624	21.771	6.	0.1	431.94
30625	21.679	6.	5.e-002	35.204
30626	21.955	6.	0.1	388.54
30627	21.863	6.	5.e-002	32.348
30628	22.138	6.	0.1	344.79
30629	22.047	6.	5.e-002	29.28
30630	22.322	6.	0.1	300.74
30631	22.23	6.	5.e-002	26.006
30632	22.506	6.	0.1	256.51
30633	22.414	6.	5.e-002	22.551
30634	22.69	6.	0.1	212.34
30635	22.598	6.	5.e-002	18.959
30636	22.873	6.	0.1	168.63
30637	22.781	6.	5.e-002	15.3
30638	23.057	6.	0.1	125.95
30639	22.965	6.	5.e-002	11.678
30640	23.241	6.	0.1	85.052
30641	23.149	6.	5.e-002	8.2441
30642	23.424	6.	0.1	46.76
30643	23.333	6.	5.e-002	5.1687
30644	23.608	6.	0.1	14.965
30645	23.516	6.	5.e-002	2.9926
30646	23.7	6.	5.e-002	1.3511
30647	23.424	6.	0.	0.99857
30648	23.608	6.	0.	0.18523
30649	23.241	6.	0.	1.8522
30650	23.057	6.	0.	2.8135
30651	22.873	6.	0.	3.8409
30652	22.69	6.	0.	4.876
30653	22.506	6.	0.	5.8759
30654	22.322	6.	0.	6.8058
30655	22.138	6.	0.	7.6443
30656	21.955	6.	0.	8.3807
30657	21.771	6.	0.	9.013
30658	21.587	6.	0.	9.5445
30659	21.403	6.	0.	9.9826
30660	21.22	6.	0.	10.336
30661	21.036	6.	0.	10.615
30662	20.852	6.	0.	10.829
30663	20.669	6.	0.	10.986
30664	20.485	6.	0.	11.095
30665	20.301	6.	0.	11.163
30666	20.117	6.	0.	11.197
30667	19.934	6.	0.	11.202
30668	19.75	6.	0.	11.182
30669	19.566	6.	0.	11.141
30670	19.383	6.	0.	11.084
30671	19.199	6.	0.	11.012
30672	19.015	6.	0.	10.929
30673	18.831	6.	0.	10.836
30674	18.648	6.	0.	10.736
30675	18.464	6.	0.	10.629
30676	18.28	6.	0.	10.517
30677	18.097	6.	0.	10.401
30678	17.913	6.	0.	10.282
30679	17.729	6.	0.	10.16
30680	17.545	6.	0.	10.038
30681	17.362	6.	0.	9.9136
30682	17.178	6.	0.	9.789
30683	16.994	6.	0.	9.6643
30684	16.81	6.	0.	9.5395
30685	16.627	6.	0.	9.4151
30686	16.443	6.	0.	9.2911
30687	16.259	6.	0.	9.1678
30688	16.076	6.	0.	9.0452
30689	15.892	6.	0.	8.9235
30690	15.708	6.	0.	8.8025
30691	15.524	6.	0.	8.6824
30692	15.341	6.	0.	8.563
30693	15.157	6.	0.	8.4445
30694	14.973	6.	0.	8.3267
30695	14.79	6.	0.	8.2095
30696	14.606	6.	0.	8.0928
30697	14.422	6.	0.	7.9766
30698	14.238	6.	0.	7.8606
30699	14.055	6.	0.	7.7447
30700	13.871	6.	0.	7.6288
30701	13.687	6.	0.	7.5127
30702	13.503	6.	0.	7.3962
30703	13.32	6.	0.	7.2791
30704	13.136	6.	0.	7.1611
30705	12.952	6.	0.	7.042
30706	12.769	6.	0.	6.9217
30707	12.585	6.	0.	6.7997
30708	12.401	6.	0.	6.676
30709	12.217	6.	0.	6.55
30710	12.034	6.	0.	6.4216
30711	11.85	6.	0.	6.2905
30712	11.666	6.	0.	6.1563
30713	11.483	6.	0.	6.0186
30714	11.299	6.	0.	5.8771
30715	11.115	6.	0.	5.7314
30716	10.931	6.	0.	5.5811
30717	10.748	6.	0.	5.4258
30718	10.564	6.	0.	5.2651
30719	10.38	6.	0.	5.0984
30720	10.197	6.	0.	4.9255
30721	10.013	6.	0.	4.7457
30722	9.8291	6.	0.	4.5587
30723	9.6453	6.	0.	4.364
30724	9.4616	6.	0.	4.161
30725	9.2779	6.	0.	3.9494
30726	9.0942	6.	0.	3.7286
30727	8.9105	6.	0.	3.4983
30728	8.7267	6.	0.	3.2579
30729	8.543	6.	0.	3.0073
30730	8.3593	6.	0.	2.7459
30731	8.1756	6.	0.	2.4737
30732	7.9919	6.	0.	2.1905
30733	7.8081	6.	0.	1.8961
30734	7.6244	6.	0.	1.5908
30735	7.4407	6.	0.	1.2749
30736	7.257	6.	0.	0.94875
30737	7.0733	6.	0.	0.61354
30738	6.8895	6.	0.	0.47092
30739	6.7058	6.	0.	0.51347
30740	6.5221	6.	0.	0.55981
30741	6.3384	6.	0.	0.60998
30742	6.1547	6.	0.	0.66427
30743	5.9709	6.	0.	0.723
30744	5.7872	6.	0.	0.78652
30745	5.6035	6.	0.	0.85522
30746	5.4198	6.	0.	0.92954
30747	5.236	6.	0.	1.0099
30748	5.0523	6.	0.	1.097
30749	4.8686	6.	0.	1.1912
30750	4.6849	6.	0.	1.2934
30751	4.5012	6.	0.	1.4044
30752	4.3174	6.	0.	1.5253
30753	4.1337	6.	0.	1.6576
30754	3.95	6.	0.	1.8034
30755	3.7663	6.	0.	1.9664
30756	3.5826	6.	0.	2.1541
30757	3.3988	6.	0.	2.3848
30758	3.2151	6.	0.	2.7226
30759	3.0314	6.	0.	3.4537
30760	2.8477	6.	0.	5.1274
30761	2.664	6.	0.	7.6477
30762	2.4802	6.	0.	10.889
30763	2.2965	6.	0.	14.921
30764	2.1128	6.	0.	19.887
30765	1.9291	6.	0.	25.987
30766	1.7453	6.	0.	33.492
30767	1.5616	6.	0.	42.773
30768	1.3779	6.	0.	54.377
30769	1.1942	6.	0.	69.08
30770	1.0105	6.	0.	88.312
30771	0.82674	6.	0.	114.14
30772	0.64302	6.	0.	151.91
30773	0.4593	6.	0.	213.52
30774	0.27558	6.	0.	335.24
30775	9.186e-002	6.	0.	899.22
30776	23.7	5.9091	0.	4.8818
30777	5.1657e-014	5.9091	0.	144.33
30778	0.27558	8.4641e-032	0.	335.24
30779	9.186e-002	2.8214e-032	0.	899.22
30780	0.4593	1.4107e-031	0.	213.52
30781	0.64302	1.975e-031	0.	151.91
30782	0.82674	2.5392e-031	0.	114.14
30783	1.0105	3.1035e-031	0.	88.312
30784	1.1942	3.6678e-031	0.	69.08
30785	1.3779	4.232e-031	0.	54.377
30786	1.5616	4.7963e-031	0.	42.773
30787	1.7453	5.3606e-031	0.	33.492
30788	1.9291	5.9249e-031	0.	25.987
30789	2.1128	6.4891e-031	0.	19.887
30790	2.2965	7.0534e-031	0.	14.921
30791	2.4802	7.6177e-031	0.	10.889
30792	2.664	8.1819e-031	0.	7.6476
30793	2.8477	8.7462e-031	0.	5.1273
30794	3.0314	9.3105e-031	0.	3.4537
30795	3.2151	9.8748e-031	0.	2.7226
30796	3.3988	1.0439e-030	0.	2.3848
30797	3.5826	1.1003e-030	0.	2.1541
30798	3.7663	1.1568e-030	0.	1.9664
30799	3.95	1.2132e-030	0.	1.8034
30800	4.1337	1.2696e-030	0.	1.6576
30801	4.3174	1.326e-030	0.	1.5253
30802	4.5012	1.3825e-030	0.	1.4044
30803	4.6849	1.4389e-030	0.	1.2934
30804	4.8686	1.4953e-030	0.	1.1912
30805	5.0523	1.5517e-030	0.	1.097
30806	5.236	1.6082e-030	0.	1.0099
30807	5.4198	1.6646e-030	0.	0.92954
30808	5.6035	1.721e-030	0.	0.85522
30809	5.7872	1.7775e-030	0.	0.78652
30810	5.9709	1.8339e-030	0.	0.723
30811	6.1547	1.8903e-030	0.	0.66427
30812	6.3384	1.9467e-030	0.	0.60998
30813	6.5221	2.0032e-030	0.	0.55981
30814	6.7058	2.0596e-030	0.	0.51347
30815	6.8895	2.116e-030	0.	0.47092
30816	7.0733	2.1724e-030	0.	0.61357
30817	7.257	2.2289e-030	0.	0.94877
30818	7.4407	2.2853e-030	0.	1.2749
30819	7.6244	2.3417e-030	0.	1.5909
30820	7.8081	2.3982e-030	0.	1.8962
30821	7.9919	2.4546e-030	0.	2.1905
30822	8.1756	2.511e-030	0.	2.4738
30823	8.3593	2.5674e-030	0.	2.746
30824	8.543	2.6239e-030	0.	3.0073
30825	8.7267	2.6803e-030	0.	3.258
30826	8.9105	2.7367e-030	0.	3.4983
30827	9.0942	2.7931e-030	0.	3.7286
30828	9.2779	2.8496e-030	0.	3.9494
30829	9.4616	2.906e-030	0.	4.161
30830	9.6453	2.9624e-030	0.	4.364
30831	9.8291	3.0189e-030	0.	4.5588
30832	10.013	3.0753e-030	0.	4.7458
30833	10.197	3.1317e-030	0.	4.9255
30834	10.38	3.1881e-030	0.	5.0985
30835	10.564	3.2446e-030	0.	5.2651
30836	10.748	3.301e-030	0.	5.4259
30837	10.931	3.3574e-030	0.	5.5812
30838	11.115	3.4138e-030	0.	5.7315
30839	11.299	3.4703e-030	0.	5.8772
30840	11.483	3.5267e-030	0.	6.0187
30841	11.666	3.5831e-030	0.	6.1563
30842	11.85	3.6396e-030	0.	6.2906
30843	12.034	3.696e-030	0.	6.4217
30844	12.217	3.7524e-030	0.	6.5501
30845	12.401	3.8088e-030	0.	6.676
30846	12.585	3.8653e-030	0.	6.7998
30847	12.769	3.9217e-030	0.	6.9217
30848	12.952	3.9781e-030	0.	7.0421
30849	13.136	4.0345e-030	0.	7.1611
30850	13.32	4.091e-030	0.	7.2791
30851	13.503	4.1474e-030	0.	7.3962
30852	13.687	4.2038e-030	0.	7.5128
30853	13.871	4.2603e-030	0.	7.6289
30854	14.055	4.3167e-030	0.	7.7448
30855	14.238	4.3731e-030	0.	7.8607
30856	14.422	4.4295e-030	0.	7.9766
30857	14.606	4.486e-030	0.	8.0929
30858	14.79	4.5424e-030	0.	8.2096
30859	14.973	4.5988e-030	0.	8.3268
30860	15.157	4.6552e-030	0.	8.4446
30861	15.341	4.7117e-030	0.	8.5631
30862	15.524	4.7681e-030	0.	8.6824
30863	15.708	4.8245e-030	0.	8.8026
30864	15.892	4.881e-030	0.	8.9235
30865	16.076	4.9374e-030	0.	9.0453
30866	16.259	4.9938e-030	0.	9.1679
30867	16.443	5.0502e-030	0.	9.2912
30868	16.627	5.1067e-030	0.	9.4151
30869	16.81	5.1631e-030	0.	9.5396
30870	16.994	5.2195e-030	0.	9.6643
30871	17.178	5.2759e-030	0.	9.7891
30872	17.362	5.3324e-030	0.	9.9136
30873	17.545	5.3888e-030	0.	10.038
30874	17.729	5.4452e-030	0.	10.16
30875	17.913	5.5016e-030	0.	10.282
30876	18.097	5.5581e-030	0.	10.401
30877	18.28	5.6145e-030	0.	10.517
30878	18.464	5.6709e-030	0.	10.629
30879	18.648	5.7274e-030	0.	10.736
30880	18.831	5.7838e-030	0.	10.836
30881	19.015	5.8402e-030	0.	10.929
30882	19.199	5.8966e-030	0.	11.012
30883	19.383	5.9531e-030	0.	11.084
30884	19.566	6.0095e-030	0.	11.141
30885	19.75	6.0659e-030	0.	11.182
30886	19.934	6.1223e-030	0.	11.202
30887	20.117	6.1788e-030	0.	11.197
30888	20.301	6.2352e-030	0.	11.163
30889	20.485	6.2916e-030	0.	11.095
30890	20.669	6.3481e-030	0.	10.986
30891	20.852	6.4045e-030	0.	10.829
30892	21.036	6.4609e-030	0.	10.615
30893	21.22	6.5173e-030	0.	10.336
30894	21.403	6.5738e-030	0.	9.9827
30895	21.587	6.6302e-030	0.	9.5446
30896	21.771	6.6866e-030	0.	9.013
30897	21.955	6.743e-030	0.	8.3808
30898	22.138	6.7995e-030	0.	7.6443
30899	22.322	6.8559e-030	0.	6.8058
30900	22.506	6.9123e-030	0.	5.8759
30901	22.69	6.9688e-030	0.	4.876
30902	22.873	7.0252e-030	0.	3.8409
30903	23.057	7.0816e-030	0.	2.8135
30904	23.241	7.138e-030	0.	1.8523
30905	23.424	7.1945e-030	0.	0.99858
30906	23.608	7.2509e-030	0.	0.18524
30907	23.7	9.0909e-002	0.	4.8818
30908	7.9472e-016	9.0909e-002	0.	144.32
30909	23.933	0.	0.	1.9184
30910	23.867	9.0909e-002	0.	0.2731
30911	24.	9.0909e-002	0.	3.3856
30912	5.0067e-014	5.7273	0.	-1663.4
30913	4.8478e-014	5.5455	0.	-2512.7
30914	4.6888e-014	5.3636	0.	-2945.7
30915	4.5299e-014	5.1818	0.	-3215.2
30916	4.371e-014	5.	0.	-3399.2
30917	4.212e-014	4.8182	0.	-3532.3
30918	4.0531e-014	4.6364	0.	-3631.8
30919	3.8941e-014	4.4545	0.	-3707.6
30920	3.7352e-014	4.2727	0.	-3766.2
30921	3.5762e-014	4.0909	0.	-3811.7
30922	3.4173e-014	3.9091	0.	-3846.7
30923	3.2583e-014	3.7273	0.	-3873.4
30924	3.0994e-014	3.5455	0.	-3892.9
30925	2.9405e-014	3.3636	0.	-3906.4
30926	2.7815e-014	3.1818	0.	-3914.3
30927	2.6226e-014	3.	0.	-3916.9
30928	2.4636e-014	2.8182	0.	-3914.3
30929	2.3047e-014	2.6364	0.	-3906.4
30930	2.1457e-014	2.4545	0.	-3892.9
30931	1.9868e-014	2.2727	0.	-3873.4
30932	1.8279e-014	2.0909	0.	-3846.7
30933	1.6689e-014	1.9091	0.	-3811.7
30934	1.51e-014	1.7273	0.	-3766.2
30935	1.351e-014	1.5455	0.	-3707.6
30936	1.1921e-014	1.3636	0.	-3631.8
30937	1.0331e-014	1.1818	0.	-3532.3
30938	8.7419e-015	1.	0.	-3399.2
30939	7.1525e-015	0.81818	0.	-3215.2
30940	5.563e-015	0.63636	0.	-2945.7
30941	3.9736e-015	0.45455	0.	-2512.7
30942	2.3842e-015	0.27273	0.	-1663.4
30943	24.	0.27273	0.	6.6352
30944	23.933	0.18182	0.	2.5761
30945	24.	0.45455	0.	7.5137
30946	23.933	0.36364	0.	2.7104
30947	24.	0.63636	0.	7.8296
30948	23.933	0.54545	0.	2.7351
30949	24.	0.81818	0.	7.9437
30950	23.933	0.72727	0.	2.7574
30951	24.	1.	0.	8.1136
30952	23.933	0.90909	0.	2.715
30953	24.	1.1818	0.	7.8005
30954	23.933	1.0909	0.	2.9056
30955	24.	1.3636	0.	9.1072
30956	23.933	1.2727	0.	2.255
30957	24.	1.5455	0.	5.6244
30958	23.933	1.4545	0.	5.4685
30959	24.	1.7273	0.	5.7339
30960	23.933	1.6364	0.	0.81312
30961	24.	1.9091	0.	14.61
30962	23.933	1.8182	0.	46.594
30963	24.	2.0909	0.	6.3311
30964	23.933	2.	0.	170.93
30965	24.	2.2727	0.	9.4519
30966	24.	2.4545	0.	8.371
30967	24.	2.6364	0.	7.0289
30968	24.	2.8182	0.	20.562
30969	24.	3.	0.	31.074
30970	24.	3.1818	0.	20.562
30971	24.	3.3636	0.	7.0289
30972	24.	3.5455	0.	8.371
30973	24.	3.7273	0.	9.4519
30974	24.	3.9091	0.	6.3312
30975	24.	4.0909	0.	14.61
30976	23.933	4.	0.	170.93
30977	24.	4.2727	0.	5.7339
30978	23.933	4.1818	0.	46.594
30979	24.	4.4545	0.	5.6244
30980	23.933	4.3636	0.	0.81315
30981	24.	4.6364	0.	9.1072
30982	23.933	4.5455	0.	5.4685
30983	24.	4.8182	0.	7.8005
30984	23.933	4.7273	0.	2.255
30985	24.	5.	0.	8.1136
30986	23.933	4.9091	0.	2.9056
30987	24.	5.1818	0.	7.9437
30988	23.933	5.0909	0.	2.715
30989	24.	5.3636	0.	7.8296
30990	23.933	5.2727	0.	2.7574
30991	24.	5.5455	0.	7.5137
30992	23.933	5.4545	0.	2.7351
30993	24.	5.7273	0.	6.6351
30994	23.933	5.6364	0.	2.7104
30995	24.	5.9091	0.	3.3856
30996	23.933	5.8182	0.	2.5761
30997	23.933	6.	0.	1.9184
30998	23.867	5.9091	0.	0.27311
30999	23.7	1.7273	0.	557.17
31000	23.7	1.9091	0.	930.95
31001	23.7	1.5455	0.	367.22
31002	23.7	1.3636	0.	271.96
31003	23.7	1.1818	0.	203.32
31004	23.7	1.	0.	150.7
31005	23.7	0.81818	0.	108.3
31006	23.7	0.63636	0.	73.276
31007	23.7	0.45455	0.	44.339
31008	23.7	0.27273	0.	21.192
31009	23.783	2.	0.	421.1
31010	23.867	0.27273	0.	0.59777
31011	23.867	0.45455	0.	0.70409
31012	23.867	0.63636	0.	0.74314
31013	23.867	0.81818	0.	0.74589
31014	23.867	1.	0.	0.80217
31015	23.867	1.1818	0.	0.62718
31016	23.867	1.3636	0.	1.5921
31017	23.867	1.5455	0.	-0.44958
31018	23.867	1.7273	0.	36.293
31019	23.867	1.9091	0.	186.96
31020	23.7	4.2727	0.	557.17
31021	23.7	4.0909	0.	930.95
31022	23.7	4.4545	0.	367.22
31023	23.7	4.6364	0.	271.96
31024	23.7	4.8182	0.	203.32
31025	23.7	5.	0.	150.7
31026	23.7	5.1818	0.	108.3
31027	23.7	5.3636	0.	73.276
31028	23.7	5.5455	0.	44.339
31029	23.7	5.7273	0.	21.192
31030	23.783	4.	0.	421.1
31031	23.867	5.7273	0.	0.59778
31032	23.867	5.5455	0.	0.7041
31033	23.867	5.3636	0.	0.74315
31034	23.867	5.1818	0.	0.7459
31035	23.867	5.	0.	0.80218
31036	23.867	4.8182	0.	0.62719
31037	23.867	4.6364	0.	1.5921
31038	23.867	4.4545	0.	-0.44957
31039	23.867	4.2727	0.	36.293
31040	23.867	4.0909	0.	186.96
