Node Number	X Location (in)	Y Location (in)	Z Location (in)	Maximum Principal Stress (psi)
1	5.1073	3.6031	0.	295.75
2	5.2869	3.5684	0.	264.68
3	4.5383	5.3813	0.	48.504
4	4.8326	3.9631	0.	346.57
5	4.8439	3.7264	0.	226.5
6	5.7883	4.2067	0.	127.05
7	5.5206	3.296	0.	125.11
8	4.5164	0.619	0.	74.561
9	4.5838	3.9552	0.	148.53
10	4.6031	3.682	0.	74.441
11	5.4653	3.0469	0.	139.37
12	4.2653	4.4339	0.	100.63
13	4.8257	2.2099	0.	197.57
14	5.8188	1.5825	0.	154.24
15	4.5977	1.4071	0.	300.43
16	4.1927	0.90669	0.	62.23
17	6.032	4.2168	0.	14.485
18	5.8046	4.4318	0.	162.48
19	4.9051	3.0127	0.	166.33
20	5.7306	2.9259	0.	21.028
21	6.1007	3.2285	0.	0.72936
22	3.9134	4.6785	0.	16.543
23	4.0272	4.1649	0.	4.9412
24	5.0266	2.5858	0.	215.5
25	5.4876	2.7188	0.	139.29
26	4.601	2.2374	0.	80.184
27	5.8378	4.8774	0.	121.89
28	5.8415	5.1202	0.	80.315
29	6.2828	3.9917	0.	-1.7854
30	4.7628	3.1917	0.	86.218
31	4.06	3.9188	0.	-1.0461
32	4.0831	3.6579	0.	2.1943
33	6.0317	2.9754	0.	-0.3739
34	6.268	2.9257	0.	-8.1315
35	3.1334	5.2581	0.	1.5409
36	2.7462	5.2544	0.	0.88484
37	2.3538	5.2544	0.	0.59559
38	1.9528	5.2485	0.	1.8608
39	1.5538	5.2348	0.	-1.4422
40	1.1558	5.2178	0.	16.216
41	0.77215	0.77712	0.	-53.498
42	1.1681	0.76827	0.	15.761
43	1.5628	0.75502	0.	-1.5179
44	1.9615	0.74559	0.	2.0275
45	2.3538	0.74559	0.	0.65325
46	2.7462	0.74559	0.	1.1458
47	6.8433	0.73299	0.	16.445
48	7.2232	0.74407	0.	7.7685
49	7.6083	0.74559	0.	1.7701
50	7.9986	0.74559	0.	0.22229
51	8.3889	0.74559	0.	9.5095e-002
52	8.7792	0.74559	0.	2.4968e-002
53	9.1694	0.74559	0.	8.8619e-004
54	9.5597	0.74559	0.	-1.3664e-002
55	9.95	0.74559	0.	-2.2365e-002
56	10.34	0.74559	0.	-2.8739e-002
57	10.731	0.74559	0.	-3.3873e-002
58	11.121	0.74559	0.	6.2418e-002
59	11.511	0.74559	0.	1.2189
60	11.901	0.74559	0.	2.279
61	12.292	0.74559	0.	3.2208
62	12.682	0.74559	0.	4.0471
63	13.072	0.74559	0.	4.7652
64	13.463	0.74559	0.	5.385
65	13.853	0.74559	0.	5.917
66	14.243	0.74559	0.	6.3718
67	14.633	0.74559	0.	6.759
68	15.024	0.74559	0.	7.0874
69	15.414	0.74559	0.	7.365
70	15.804	0.74559	0.	7.5986
71	16.194	0.74559	0.	7.7941
72	16.585	0.74559	0.	7.9564
73	16.975	0.74559	0.	8.0897
74	17.365	0.74559	0.	8.1974
75	17.756	0.74559	0.	8.2821
76	18.146	0.74559	0.	8.3459
77	18.536	0.74559	0.	8.3901
78	18.926	0.74559	0.	8.4151
79	19.317	0.74559	0.	8.4207
80	19.707	0.74559	0.	8.4058
81	20.097	0.74559	0.	8.3674
82	20.487	0.74559	0.	8.3072
83	20.878	0.74559	0.	8.2237
84	21.272	0.74902	0.	8.0831
85	21.669	0.75736	0.	7.9366
86	22.065	0.76414	0.	7.7038
87	22.464	0.78536	0.	7.4739
88	22.853	0.78792	0.	7.0647
89	0.75135	4.8051	0.	-61.223
90	0.76131	4.4074	0.	-63.574
91	0.75614	4.0072	0.	-65.396
92	0.74948	3.6059	0.	-65.944
93	0.74559	3.2	0.	-66.937
94	0.74559	2.8	0.	-66.59
95	0.75279	2.3872	0.	-65.874
96	0.76564	1.9785	0.	-65.825
97	0.77057	1.5757	0.	-64.446
98	0.77539	1.1762	0.	-62.733
99	23.25	1.1966	0.	8.5532
100	23.254	1.6	0.	10.156
101	23.254	2.	0.	11.375
102	23.254	2.4	0.	12.196
103	23.254	2.8	0.	12.623
104	23.254	3.2	0.	12.598
105	23.247	3.609	0.	12.159
106	23.235	4.0211	0.	11.306
107	23.231	4.4247	0.	10.087
108	23.225	4.8275	0.	8.4766
109	22.835	5.2363	0.	6.9807
110	22.444	5.2466	0.	7.3565
111	22.049	5.2544	0.	7.6587
112	21.658	5.2544	0.	7.8925
113	21.268	5.2544	0.	8.0773
114	20.878	5.2544	0.	8.2099
115	20.487	5.2544	0.	8.3053
116	20.097	5.2544	0.	8.3688
117	19.707	5.2544	0.	8.406
118	19.317	5.2544	0.	8.4207
119	18.926	5.2544	0.	8.415
120	18.536	5.2544	0.	8.3901
121	18.146	5.2544	0.	8.3461
122	17.756	5.2544	0.	8.2823
123	17.365	5.2544	0.	8.1976
124	16.975	5.2544	0.	8.0898
125	16.585	5.2544	0.	7.9564
126	16.194	5.2544	0.	7.794
127	15.804	5.2544	0.	7.5985
128	15.414	5.2544	0.	7.3648
129	15.024	5.2544	0.	7.0871
130	14.633	5.2544	0.	6.7585
131	14.243	5.2544	0.	6.3712
132	13.853	5.2544	0.	5.9163
133	13.463	5.2544	0.	5.384
134	13.072	5.2544	0.	4.7639
135	12.682	5.2544	0.	4.0455
136	12.292	5.2544	0.	3.219
137	11.901	5.2544	0.	2.2767
138	11.511	5.2544	0.	1.2164
139	11.121	5.2544	0.	6.0176e-002
140	10.731	5.2544	0.	-3.3919e-002
141	10.34	5.2544	0.	-2.8873e-002
142	9.95	5.2544	0.	-2.2266e-002
143	9.5597	5.2544	0.	-1.3894e-002
144	9.1694	5.2544	0.	9.9534e-004
145	8.7792	5.2544	0.	2.1779e-002
146	8.3889	5.2544	0.	0.12359
147	7.9986	5.2544	0.	0.10634
148	7.6083	5.2544	0.	1.9665
149	7.2181	5.2544	0.	8.2851
150	6.8403	5.2643	0.	16.348
151	6.4754	5.2671	0.	23.996
152	5.7668	5.3684	0.	76.244
153	4.5965	1.7996	0.	282.76
154	6.1226	1.3188	0.	46.394
155	4.3264	1.402	0.	146.2
156	4.4626	3.2039	0.	11.316
157	4.6036	2.4656	0.	48.998
158	4.3827	2.0481	0.	46.718
159	6.0426	2.3374	0.	-1.4781
160	6.1128	4.9014	0.	50.579
161	6.5	4.0143	0.	0.29498
162	6.7112	4.1227	0.	5.1528
163	4.1808	3.1996	0.	0.20682
164	4.3836	2.5237	0.	7.2994
165	6.855	3.1397	0.	-2.7377
166	3.4321	4.1518	0.	1.4557
167	3.4852	3.7946	0.	1.2659
168	4.07	2.0753	0.	15.195
169	3.6958	3.4354	0.	-2.7435
170	3.8549	3.0676	0.	-0.87439
171	3.801	1.7673	0.	4.9736
172	3.9325	2.3042	0.	6.7573
173	3.695	2.0349	0.	-0.45957
174	7.278	3.7867	0.	1.9621
175	3.638	2.7461	0.	-1.7904
176	7.625	3.7724	0.	-0.78157
177	1.92	1.9427	0.	-1.4636
178	2.3217	1.8904	0.	-0.97333
179	2.7199	1.8521	0.	2.4241
180	7.6236	1.851	0.	0.11088
181	7.9986	1.864	0.	0.10635
182	2.8757	3.4493	0.	-2.0297
183	3.1865	2.9277	0.	-3.4508
184	3.3553	2.1941	0.	-8.6116
185	3.2053	2.6148	0.	3.2476
186	21.504	3.4289	0.	12.804
187	2.3459	2.2324	0.	0.69073
188	8.3837	2.6231	0.	-0.36205
189	8.7793	2.6184	0.	-6.9668e-003
190	9.1699	2.6167	0.	-3.6796e-002
191	9.5597	2.6096	0.	1.3041e-002
192	9.95	2.6096	0.	1.1282e-002
193	10.34	2.6096	0.	1.5813e-003
194	10.731	2.6096	0.	-3.5397e-003
195	11.121	3.3904	0.	-1.1616e-002
196	10.731	3.3904	0.	-6.2563e-003
197	10.34	3.3904	0.	-1.5614e-003
198	9.95	3.3904	0.	1.1172e-003
199	9.5597	3.3904	0.	-1.2008e-004
200	9.1694	3.3904	0.	-5.3512e-003
201	23.613	5.6069	0.	3.9732
202	23.226	5.6187	0.	4.7821
203	22.833	5.6185	0.	5.5454
204	22.442	5.6226	0.	6.0714
205	22.049	5.6272	0.	6.4731
206	21.658	5.6272	0.	6.7748
207	21.268	5.6272	0.	6.9906
208	20.878	5.6272	0.	7.1513
209	20.487	5.6272	0.	7.2687
210	20.097	5.6272	0.	7.3518
211	19.707	5.6272	0.	7.4081
212	19.317	5.6272	0.	7.4424
213	18.926	5.6272	0.	7.4577
214	18.536	5.6272	0.	7.4559
215	18.146	5.6272	0.	7.438
216	17.756	5.6272	0.	7.4041
217	17.365	5.6272	0.	7.3541
218	16.975	5.6272	0.	7.2871
219	16.585	5.6272	0.	7.2015
220	16.194	5.6272	0.	7.0956
221	15.804	5.6272	0.	6.9669
222	15.414	5.6272	0.	6.8126
223	15.024	5.6272	0.	6.629
224	14.633	5.6272	0.	6.4122
225	14.243	5.6272	0.	6.1575
226	13.853	5.6272	0.	5.8599
227	13.463	5.6272	0.	5.5139
228	13.072	5.6272	0.	5.1138
229	12.682	5.6272	0.	4.6543
230	12.292	5.6272	0.	4.1314
231	11.901	5.6272	0.	3.543
232	11.511	5.6272	0.	2.8915
233	11.121	5.6272	0.	2.1863
234	10.731	5.6272	0.	1.4484
235	10.34	5.6272	0.	0.71752
236	9.95	5.6272	0.	9.0416e-002
237	9.5597	5.6272	0.	-2.7132e-002
238	9.1694	5.6272	0.	6.8184e-003
239	8.7792	5.6272	0.	0.11929
240	8.3889	5.6272	0.	0.9219
241	7.9986	5.6272	0.	3.1551
242	7.6083	5.6272	0.	7.0368
243	7.2181	5.6272	0.	12.239
244	6.8341	5.6335	0.	18.052
245	6.4497	5.634	0.	25.25
246	6.0468	5.6034	0.	28.431
247	5.6632	5.7428	0.	30.537
248	5.4491	5.3813	0.	151.3
249	5.5224	5.2372	0.	147.92
250	5.5542	5.0483	0.	188.53
251	5.5545	4.8392	0.	263.35
252	5.5417	4.6259	0.	364.49
253	5.5388	4.4159	0.	471.31
254	5.5333	4.2059	0.	462.54
255	5.5393	3.9929	0.	173.98
256	23.614	0.3977	0.	3.9799
257	23.621	0.7936	0.	6.2696
258	23.624	1.1968	0.	8.3609
259	23.627	1.6	0.	10.027
260	23.627	2.	0.	11.272
261	23.627	2.4	0.	12.1
262	23.627	2.8	0.	12.514
263	23.627	3.2	0.	12.514
264	23.624	3.604	0.	12.088
265	23.618	4.0084	0.	11.248
266	23.616	4.4081	0.	10.002
267	23.611	4.8116	0.	8.3352
268	23.612	5.2111	0.	6.2547
269	5.6936	0.28712	0.	33.629
270	6.0928	0.3278	0.	27.52
271	6.4658	0.34906	0.	25.092
272	6.8408	0.3642	0.	18.774
273	7.2241	0.36993	0.	12.141
274	7.6083	0.3728	0.	6.9528
275	7.9986	0.3728	0.	3.1305
276	8.3889	0.3728	0.	0.91134
277	8.7792	0.3728	0.	0.12092
278	9.1694	0.3728	0.	6.5333e-003
279	9.5597	0.3728	0.	-2.7146e-002
280	9.95	0.3728	0.	9.0549e-002
281	10.34	0.3728	0.	0.71871
282	10.731	0.3728	0.	1.4501
283	11.121	0.3728	0.	2.1882
284	11.511	0.3728	0.	2.8933
285	11.901	0.3728	0.	3.5446
286	12.292	0.3728	0.	4.1328
287	12.682	0.3728	0.	4.6555
288	13.072	0.3728	0.	5.1147
289	13.463	0.3728	0.	5.5146
290	13.853	0.3728	0.	5.8605
291	14.243	0.3728	0.	6.158
292	14.633	0.3728	0.	6.4126
293	15.024	0.3728	0.	6.6293
294	15.414	0.3728	0.	6.8128
295	15.804	0.3728	0.	6.9671
296	16.194	0.3728	0.	7.0958
297	16.585	0.3728	0.	7.2016
298	16.975	0.3728	0.	7.2871
299	17.365	0.3728	0.	7.3542
300	17.756	0.3728	0.	7.4043
301	18.146	0.3728	0.	7.4382
302	18.536	0.3728	0.	7.4562
303	18.926	0.3728	0.	7.4581
304	19.317	0.3728	0.	7.4428
305	19.707	0.3728	0.	7.4085
306	20.097	0.3728	0.	7.3521
307	20.487	0.3728	0.	7.2695
308	20.878	0.3728	0.	7.1494
309	21.271	0.37578	0.	7.0013
310	21.662	0.3761	0.	6.7637
311	22.054	0.38352	0.	6.4857
312	22.447	0.39112	0.	6.0883
313	22.839	0.39641	0.	5.5675
314	23.228	0.39682	0.	4.8286
315	4.709	0.19298	0.	35.71
316	4.7567	0.35157	0.	60.434
317	4.8144	0.59367	0.	128.67
318	4.8207	0.80128	0.	203.19
319	4.834	1.0016	0.	304.51
320	4.845	1.2	0.	418.95
321	4.85	1.4014	0.	559.92
322	4.8489	1.6	0.	717.82
323	4.845	1.8	0.	756.31
324	4.8407	2.0059	0.	389.75
325	0.38754	0.39389	0.	171.91
326	0.77742	0.38947	0.	-34.994
327	1.1715	0.38068	0.	8.8115
328	1.5654	0.37521	0.	-1.885
329	1.9615	0.3728	0.	0.32216
330	2.3538	0.3728	0.	6.6306e-002
331	2.7462	0.3728	0.	0.6108
332	3.1347	0.37006	0.	2.4445
333	3.5119	0.35788	0.	12.565
334	3.896	0.34442	0.	23.582
335	4.2962	0.30992	0.	35.981
336	0.3872	5.6026	0.	171.46
337	0.37973	5.2068	0.	243.68
338	0.37846	4.8036	0.	259.4
339	0.37864	4.4021	0.	269.77
340	0.37796	4.003	0.	275.72
341	0.3728	3.6	0.	277.61
342	0.3728	3.2	0.	280.11
343	0.3728	2.8	0.	279.67
344	0.37657	2.396	0.	277.78
345	0.38247	1.9914	0.	275.75
346	0.38396	1.5931	0.	271.2
347	0.38669	1.1934	0.	257.92
348	0.38638	0.79013	0.	245.34
349	4.6676	5.7001	0.	45.964
350	4.2677	5.6743	0.	35.044
351	3.8934	5.6503	0.	26.816
352	3.5145	5.6354	0.	13.015
353	3.1333	5.6287	0.	2.0305
354	2.7462	5.6272	0.	0.75135
355	2.3538	5.6272	0.	0.20046
356	1.9571	5.6224	0.	0.42248
357	1.5598	5.6162	0.	-2.131
358	1.1664	5.6089	0.	8.3312
359	0.7753	5.6043	0.	-34.788
360	4.8673	5.5606	0.	130.2
361	4.8229	5.3922	0.	133.29
362	4.8334	5.1968	0.	202.29
363	4.8563	4.9941	0.	321.03
364	4.8417	4.7955	0.	419.14
365	4.8392	4.6034	0.	541.81
366	4.8268	4.4017	0.	684.44
367	4.8317	4.1886	0.	719.41
368	5.4978	0.43516	0.	94.93
369	5.5397	0.60218	0.	94.565
370	5.5307	0.80071	0.	143.33
371	5.5135	1.0038	0.	227.25
372	5.5247	1.2042	0.	296.47
373	5.5273	1.3966	0.	382.62
374	5.54	1.5944	0.	476.36
375	5.5319	1.8072	0.	465.43
376	5.5349	2.0372	0.	159.72
377	5.0605	2.2092	0.	465.68
378	5.3037	2.2327	0.	376.92
379	5.3055	3.7894	0.	396.25
380	5.0584	3.7733	0.	482.39
381	5.567	5.5394	0.	68.93
382	5.8205	0.61365	0.	30.717
383	23.225	5.2222	0.	6.5802
384	23.239	0.79567	0.	6.6585
385	4.5314	0.44445	0.	69.586
386	0.76424	5.206	0.	-52.59
387	5.5476	2.2738	0.	94.953
388	5.5376	3.7875	0.	100.29
389	5.8209	4.6486	0.	146.77
390	5.7921	3.9892	0.	32.647
391	6.129	0.66269	0.	40.563
392	6.4782	0.70285	0.	27.548
393	4.5459	0.81817	0.	117.85
394	4.5636	1.0201	0.	160.46
395	4.6003	1.2124	0.	251.36
396	4.5891	1.6003	0.	318.42
397	4.6017	2.0193	0.	170.1
398	3.1315	0.7431	0.	1.1581
399	3.5166	0.73034	0.	5.3732
400	3.8696	0.67986	0.	30.628
401	4.2196	5.3533	0.	55.296
402	3.8801	5.2996	0.	30.101
403	3.5069	5.2731	0.	4.7791
404	4.5555	4.8342	0.	236.74
405	4.6439	4.9862	0.	213.8
406	4.5425	4.4183	0.	277.49
407	4.5255	4.6485	0.	242.96
408	4.5639	4.1886	0.	244.44
409	5.8069	1.1763	0.	156.65
410	5.7194	1.0134	0.	144.45
411	5.8311	1.3566	0.	149.38
412	5.7951	2.0598	0.	19.778
413	5.8054	1.8189	0.	109.16
414	5.0378	2.4019	0.	275.16
415	5.2945	2.4324	0.	262.63
416	4.8203	2.4246	0.	162.21
417	5.5418	2.5193	0.	116.52
418	5.8125	3.7554	0.	4.6845
419	22.839	4.8437	0.	8.6671
420	22.861	1.1905	0.	8.7747
421	4.2135	0.64124	0.	42.784
422	1.1647	1.1584	0.	15.565
423	1.1493	4.8203	0.	15.322
424	4.2511	5.001	0.	82.216
425	6.0879	1.0187	0.	53.155
426	5.7936	2.3164	0.	10.042
427	5.5499	3.535	0.	122.12
428	4.9576	3.4612	0.	224.57
429	22.055	4.868	0.	9.0422
430	21.664	4.8769	0.	9.1861
431	21.268	4.8816	0.	9.3194
432	20.878	4.8816	0.	9.4154
433	20.487	4.8816	0.	9.4806
434	20.097	4.8816	0.	9.5181
435	19.707	4.8816	0.	9.5308
436	19.317	4.8816	0.	9.5218
437	18.926	4.8816	0.	9.4925
438	18.536	4.8816	0.	9.4422
439	18.146	4.8816	0.	9.3706
440	17.756	4.8816	0.	9.2761
441	17.365	4.8816	0.	9.1563
442	16.975	4.8816	0.	9.0083
443	16.585	4.8816	0.	8.828
444	16.194	4.8816	0.	8.6106
445	15.804	4.8816	0.	8.3503
446	15.414	4.8816	0.	8.04
447	15.024	4.8816	0.	7.6715
448	14.633	4.8816	0.	7.2352
449	14.243	4.8816	0.	6.7198
450	13.853	4.8816	0.	6.1125
451	13.463	4.8816	0.	5.3988
452	13.072	4.8816	0.	4.5626
453	12.682	4.8816	0.	3.5866
454	12.292	4.8816	0.	2.4529
455	11.901	4.8816	0.	1.1454
456	11.511	4.8816	0.	-2.6729e-002
457	11.121	4.8816	0.	-3.5663e-002
458	10.731	4.8816	0.	-3.5253e-002
459	10.34	4.8816	0.	-3.402e-002
460	9.95	4.8816	0.	-3.2052e-002
461	9.5597	4.8816	0.	-2.8215e-002
462	9.1694	4.8816	0.	-1.8815e-002
463	8.7792	4.8816	0.	3.0489e-004
464	8.3889	4.8816	0.	2.1108e-002
465	7.9986	4.8816	0.	0.2377
466	7.6111	4.8846	0.	0.43953
467	7.2201	4.8874	0.	1.167
468	6.854	4.9054	0.	3.1077
469	6.1306	4.6691	0.	46.377
470	6.0762	4.4429	0.	41.108
471	6.4953	4.9405	0.	16.756
472	6.0484	3.9719	0.	-0.97465
473	22.876	1.9973	0.	11.443
474	22.877	2.3948	0.	12.229
475	22.882	2.8	0.	12.676
476	22.872	3.2088	0.	12.713
477	22.849	3.6191	0.	12.135
478	22.842	4.029	0.	11.415
479	6.8462	1.0831	0.	4.4619
480	7.2245	1.1114	0.	1.719
481	7.6083	1.1184	0.	0.27794
482	7.9986	1.1184	0.	0.20144
483	8.3889	1.1184	0.	2.3245e-002
484	8.7792	1.1184	0.	1.3506e-002
485	9.1694	1.1184	0.	-2.4557e-002
486	9.5597	1.1184	0.	-2.6229e-002
487	9.95	1.1184	0.	-3.2086e-002
488	10.34	1.1184	0.	-3.4013e-002
489	10.731	1.1184	0.	-3.5093e-002
490	11.121	1.1184	0.	-3.5592e-002
491	11.511	1.1184	0.	-2.6604e-002
492	11.901	1.1184	0.	1.148
493	12.292	1.1184	0.	2.4551
494	12.682	1.1184	0.	3.5883
495	13.072	1.1184	0.	4.564
496	13.463	1.1184	0.	5.3999
497	13.853	1.1184	0.	6.1134
498	14.243	1.1184	0.	6.7205
499	14.633	1.1184	0.	7.2357
500	15.024	1.1184	0.	7.6718
501	15.414	1.1184	0.	8.0402
502	15.804	1.1184	0.	8.3503
503	16.194	1.1184	0.	8.6105
504	16.585	1.1184	0.	8.8277
505	16.975	1.1184	0.	9.0079
506	17.365	1.1184	0.	9.1558
507	17.756	1.1184	0.	9.2754
508	18.146	1.1184	0.	9.3699
509	18.536	1.1184	0.	9.4414
510	18.926	1.1184	0.	9.4915
511	19.317	1.1184	0.	9.5211
512	19.707	1.1184	0.	9.5295
513	20.097	1.1184	0.	9.5161
514	20.487	1.1184	0.	9.4869
515	20.878	1.1184	0.	9.4397
516	21.28	1.1288	0.	9.3538
517	21.679	1.1466	0.	9.2724
518	22.076	1.1629	0.	9.141
519	4.2773	1.1071	0.	127.04
520	4.3833	1.2419	0.	161.02
521	4.3087	1.5896	0.	120.53
522	4.3632	1.8022	0.	110.22
523	1.9529	1.1382	0.	1.1701
524	2.3451	1.1297	0.	2.632e-002
525	2.7453	1.1232	0.	1.0227
526	3.1394	1.1198	0.	0.48632
527	3.5252	1.0956	0.	2.069
528	3.8636	1.0186	0.	36.025
529	1.1445	4.0196	0.	14.594
530	1.1295	3.6149	0.	15.051
531	1.1195	3.2076	0.	16.275
532	1.1184	2.8	0.	15.154
533	1.1303	2.379	0.	15.045
534	1.1474	1.968	0.	15.181
535	3.5054	4.9189	0.	-3.7899e-002
536	3.1274	4.89	0.	1.0008
537	2.7462	4.8816	0.	0.5068
538	2.3538	4.8816	0.	0.85475
539	1.9471	4.8685	0.	1.8055
540	1.5486	4.8439	0.	-2.5555
541	4.2292	4.6907	0.	94.196
542	4.3304	3.9389	0.	24.834
543	4.2911	4.1838	0.	70.587
544	6.0865	1.5661	0.	37.127
545	6.0569	2.0786	0.	-1.838
546	6.0611	1.8226	0.	4.4664
547	5.2425	2.5876	0.	225.31
548	4.8203	2.6335	0.	132.24
549	22.84	4.4432	0.	10.192
550	22.449	4.8569	0.	8.8571
551	22.472	1.1823	0.	8.9856
552	22.868	1.5908	0.	10.263
553	1.1602	1.5597	0.	14.893
554	1.5578	1.1479	0.	-2.9663
555	1.1525	4.4244	0.	15.258
556	3.8685	4.9726	0.	26.758
557	6.4779	1.0287	0.	20.84
558	5.7858	2.6088	0.	30.887
559	5.8103	3.5151	0.	5.1261
560	5.2535	3.3587	0.	188.87
561	4.6836	3.4406	0.	83.574
562	6.4473	4.6527	0.	4.891
563	6.0994	3.7172	0.	-1.0802
564	4.3761	2.2977	0.	1.7912
565	4.3492	3.6608	0.	-3.3331
566	22.069	4.481	0.	10.299
567	21.667	4.5048	0.	10.363
568	21.268	4.5088	0.	10.444
569	20.878	4.5088	0.	10.499
570	20.487	4.5088	0.	10.518
571	20.097	4.5088	0.	10.523
572	19.707	4.5088	0.	10.507
573	19.317	4.5088	0.	10.473
574	18.926	4.5088	0.	10.418
575	18.536	4.5088	0.	10.342
576	18.146	4.5088	0.	10.244
577	17.756	4.5088	0.	10.12
578	17.365	4.5088	0.	9.9685
579	16.975	4.5088	0.	9.7839
580	16.585	4.5088	0.	9.5617
581	16.194	4.5088	0.	9.2956
582	15.804	4.5088	0.	8.9782
583	15.414	4.5088	0.	8.6007
584	15.024	4.5088	0.	8.1526
585	14.633	4.5088	0.	7.6216
586	14.243	4.5088	0.	6.9935
587	13.853	4.5088	0.	6.2514
588	13.463	4.5088	0.	5.376
589	13.072	4.5088	0.	4.3452
590	12.682	4.5088	0.	3.134
591	12.292	4.5088	0.	1.7153
592	11.901	4.5088	0.	8.4882e-002
593	11.511	4.5088	0.	-3.0155e-002
594	11.121	4.5088	0.	-2.8666e-002
595	10.731	4.5088	0.	-2.6478e-002
596	10.34	4.5088	0.	-2.4613e-002
597	9.95	4.5088	0.	-2.2919e-002
598	9.5597	4.5088	0.	-2.1121e-002
599	9.1694	4.5088	0.	-2.121e-002
600	8.7792	4.5088	0.	-1.8807e-002
601	8.3889	4.5088	0.	5.6399e-003
602	7.9986	4.5088	0.	0.31997
603	7.6195	4.5163	0.	-0.91818
604	7.2309	4.5266	0.	2.5803
605	6.804	4.5267	0.	0.81461
606	6.2489	4.2047	0.	1.3206
607	22.485	1.9767	0.	11.463
608	22.496	2.385	0.	12.224
609	22.511	2.7783	0.	12.635
610	22.519	3.1858	0.	12.864
611	22.43	3.6277	0.	11.975
612	22.449	4.0557	0.	11.449
613	6.8168	1.4555	0.	1.07
614	7.2314	1.4664	0.	1.8672
615	7.6172	1.4823	0.	-0.24032
616	8.0036	1.4887	0.	0.26706
617	8.3889	1.4912	0.	-4.1401e-002
618	8.7792	1.4912	0.	-3.954e-003
619	9.1694	1.4912	0.	-2.3434e-002
620	9.5597	1.4912	0.	-2.2815e-002
621	9.95	1.4912	0.	-2.214e-002
622	10.34	1.4912	0.	-2.4509e-002
623	10.731	1.4912	0.	-2.6736e-002
624	11.121	1.4912	0.	-2.874e-002
625	11.511	1.4912	0.	-3.0222e-002
626	11.901	1.4912	0.	8.6907e-002
627	12.292	1.4912	0.	1.7174
628	12.682	1.4912	0.	3.1357
629	13.072	1.4912	0.	4.3465
630	13.463	1.4912	0.	5.377
631	13.853	1.4912	0.	6.2522
632	14.243	1.4912	0.	6.9941
633	14.633	1.4912	0.	7.6221
634	15.024	1.4912	0.	8.1529
635	15.414	1.4912	0.	8.6008
636	15.804	1.4912	0.	8.9782
637	16.194	1.4912	0.	9.2955
638	16.585	1.4912	0.	9.5614
639	16.975	1.4912	0.	9.7834
640	17.365	1.4912	0.	9.9677
641	17.756	1.4912	0.	10.119
642	18.146	1.4912	0.	10.242
643	18.536	1.4912	0.	10.341
644	18.926	1.4912	0.	10.416
645	19.317	1.4912	0.	10.469
646	19.707	1.4912	0.	10.506
647	20.097	1.4912	0.	10.53
648	20.49	1.494	0.	10.523
649	20.886	1.5041	0.	10.518
650	21.291	1.5237	0.	10.494
651	21.689	1.5445	0.	10.478
652	22.086	1.5626	0.	10.424
653	3.9685	1.3318	0.	38.703
654	4.042	1.6196	0.	16.842
655	4.1462	1.837	0.	23.156
656	4.1956	2.0781	0.	0.67247
657	1.9373	1.536	0.	1.8506
658	2.3312	1.5126	0.	1.1895
659	2.7325	1.4907	0.	-0.29952
660	3.1282	1.4775	0.	1.2518
661	3.5616	1.4998	0.	6.3632
662	1.5387	4.0423	0.	-1.5027
663	1.4978	3.6242	0.	-3.2248
664	1.4771	3.206	0.	-4.8139
665	1.4787	2.7916	0.	-2.5222
666	1.5099	2.3728	0.	0.24549
667	1.5278	1.956	0.	-2.7263
668	3.5232	4.5406	0.	2.3795
669	3.1263	4.5298	0.	2.466
670	2.7407	4.5181	0.	1.6467
671	2.3454	4.4954	0.	-0.11073
672	1.9484	4.464	0.	-0.69627
673	1.5499	4.4403	0.	-3.1976
674	3.9894	4.423	0.	15.471
675	6.3502	1.5839	0.	3.0955
676	6.4311	1.3218	0.	4.935
677	6.3141	2.0823	0.	-0.58873
678	6.3181	1.8368	0.	2.3535
679	5.0104	2.7525	0.	188.67
680	5.2272	2.9034	0.	172.59
681	4.8438	2.8417	0.	117.62
682	5.3776	2.8578	0.	129.07
683	22.455	4.4586	0.	10.291
684	22.478	1.5787	0.	10.364
685	4.6272	2.6893	0.	51.32
686	1.5471	1.5508	0.	-3.1431
687	6.3474	4.4271	0.	4.1994
688	6.1301	3.464	0.	3.6122
689	4.3973	3.4295	0.	3.1896
690	6.0309	2.6441	0.	2.4976
691	6.3815	3.71	0.	3.0181
692	4.1581	2.3527	0.	9.2554
693	1.9432	4.0406	0.	1.1621
694	3.7487	4.3649	0.	5.5144
695	6.9291	1.8234	0.	0.72321
696	6.5967	1.6303	0.	5.4429
697	6.3156	2.3902	0.	4.1962
698	5.2407	3.1566	0.	195.67
699	22.063	4.1028	0.	11.36
700	21.651	4.1487	0.	11.299
701	21.254	4.1529	0.	11.368
702	20.867	4.1431	0.	11.371
703	20.483	4.137	0.	11.37
704	20.097	4.136	0.	11.336
705	19.707	4.136	0.	11.297
706	19.317	4.136	0.	11.242
707	18.926	4.136	0.	11.164
708	18.536	4.136	0.	11.065
709	18.146	4.136	0.	10.943
710	17.756	4.136	0.	10.794
711	17.365	4.136	0.	10.615
712	16.975	4.136	0.	10.4
713	16.585	4.136	0.	10.143
714	16.194	4.136	0.	9.836
715	15.804	4.136	0.	9.4714
716	15.414	4.136	0.	9.0383
717	15.024	4.136	0.	8.5244
718	14.633	4.136	0.	7.9153
719	14.243	4.136	0.	7.1936
720	13.853	4.136	0.	6.3391
721	13.463	4.136	0.	5.328
722	13.072	4.136	0.	4.1324
723	12.682	4.136	0.	2.7197
724	12.292	4.136	0.	1.0529
725	11.901	4.136	0.	-2.6339e-002
726	11.511	4.136	0.	-2.5115e-002
727	11.121	4.136	0.	-2.2205e-002
728	10.731	4.136	0.	-1.9216e-002
729	10.34	4.136	0.	-1.6361e-002
730	9.95	4.136	0.	-1.3927e-002
731	9.5597	4.136	0.	-1.5772e-002
732	9.1694	4.136	0.	-2.1108e-002
733	8.7792	4.136	0.	-2.7037e-002
734	8.3889	4.136	0.	2.3016e-004
735	7.9986	4.136	0.	1.2866e-002
736	7.6306	4.1469	0.	0.83503
737	7.2767	4.1682	0.	-1.2928e-002
738	6.9659	4.1654	0.	1.0952
739	6.5568	4.3245	0.	2.0381
740	6.4423	4.1842	0.	4.1594
741	22.099	1.9652	0.	11.494
742	22.11	2.3673	0.	12.194
743	22.14	2.7838	0.	12.614
744	22.155	3.1308	0.	12.556
745	7.2624	1.8178	0.	0.61997
746	8.386	1.8687	0.	6.4408e-002
747	8.7792	1.864	0.	-4.2272e-002
748	9.1694	1.864	0.	-3.0075e-002
749	9.5597	1.864	0.	-1.1171e-002
750	9.95	1.864	0.	-1.6079e-002
751	10.34	1.864	0.	-1.453e-002
752	10.731	1.864	0.	-1.8627e-002
753	11.121	1.864	0.	-2.1728e-002
754	11.511	1.864	0.	-2.4819e-002
755	11.901	1.864	0.	-2.6153e-002
756	12.292	1.864	0.	1.0548
757	12.682	1.864	0.	2.7211
758	13.072	1.864	0.	4.1335
759	13.463	1.864	0.	5.3288
760	13.853	1.864	0.	6.3397
761	14.243	1.864	0.	7.194
762	14.633	1.864	0.	7.9155
763	15.024	1.864	0.	8.5245
764	15.414	1.864	0.	9.0382
765	15.804	1.864	0.	9.4712
766	16.194	1.864	0.	9.8357
767	16.585	1.864	0.	10.142
768	16.975	1.864	0.	10.399
769	17.365	1.864	0.	10.614
770	17.756	1.864	0.	10.793
771	18.146	1.864	0.	10.941
772	18.536	1.864	0.	11.061
773	18.926	1.864	0.	11.16
774	19.317	1.864	0.	11.238
775	19.707	1.864	0.	11.297
776	20.097	1.864	0.	11.352
777	20.497	1.8741	0.	11.391
778	20.902	1.8953	0.	11.414
779	21.305	1.9229	0.	11.46
780	3.9736	1.9578	0.	-11.792
781	3.0839	1.8313	0.	1.2171
782	1.8141	3.2001	0.	3.9443
783	1.8163	2.8173	0.	1.1247
784	3.1214	4.1529	0.	1.4472
785	2.7702	4.1488	0.	-0.44947
786	2.3801	4.1456	0.	0.50525
787	3.7666	3.8787	0.	-6.4691
788	3.7343	4.1442	0.	0.56714
789	6.6182	2.129	0.	0.96437
790	6.6271	1.8441	0.	0.61844
791	5.0381	2.888	0.	176.11
792	5.0511	3.0552	0.	188.63
793	4.6695	2.9299	0.	90.068
794	5.7935	3.2425	0.	35.087
795	4.423	2.7493	0.	-6.319
796	6.4633	3.4428	0.	0.2162
797	1.831	3.5885	0.	1.4038
798	4.0753	3.405	0.	-4.1032
799	6.3005	2.6859	0.	-5.8485
800	21.983	3.7691	0.	11.975
801	22.135	3.4044	0.	12.773
802	6.5982	3.7898	0.	1.1498
803	21.706	1.946	0.	11.478
804	1.8959	2.3822	0.	0.97394
805	3.4112	1.8661	0.	0.91464
806	3.8622	3.6766	0.	1.5129
807	6.598	2.4287	0.	0.76278
808	6.9184	2.1376	0.	0.96577
809	21.223	3.8013	0.	12.006
810	20.851	3.7862	0.	11.978
811	20.472	3.7686	0.	11.974
812	20.097	3.7632	0.	11.894
813	19.707	3.7632	0.	11.882
814	19.317	3.7632	0.	11.807
815	18.926	3.7632	0.	11.708
816	18.536	3.7632	0.	11.591
817	18.146	3.7632	0.	11.452
818	17.756	3.7632	0.	11.284
819	17.365	3.7632	0.	11.084
820	16.975	3.7632	0.	10.845
821	16.585	3.7632	0.	10.562
822	16.194	3.7632	0.	10.225
823	15.804	3.7632	0.	9.8249
824	15.414	3.7632	0.	9.3502
825	15.024	3.7632	0.	8.7872
826	14.633	3.7632	0.	8.1194
827	14.243	3.7632	0.	7.3274
828	13.853	3.7632	0.	6.3881
829	13.463	3.7632	0.	5.2741
830	13.072	3.7632	0.	3.9524
831	12.682	3.7632	0.	2.384
832	12.292	3.7632	0.	0.52339
833	11.901	3.7632	0.	-2.4025e-002
834	11.511	3.7632	0.	-2.0655e-002
835	11.121	3.7632	0.	-1.6625e-002
836	10.731	3.7632	0.	-1.2632e-002
837	10.34	3.7632	0.	-7.9496e-003
838	9.95	3.7632	0.	-9.0645e-003
839	9.5597	3.7632	0.	-7.3691e-003
840	9.1694	3.7632	0.	-1.459e-002
841	8.7792	3.7632	0.	-3.6258e-002
842	8.3889	3.7632	0.	-0.10995
843	8.0043	3.7658	0.	0.37013
844	6.9749	3.8203	0.	-0.52311
845	21.743	2.7199	0.	12.499
846	21.77	3.0928	0.	12.536
847	7.6171	2.2273	0.	-5.7364e-003
848	7.9931	2.2491	0.	0.25937
849	8.3845	2.2458	0.	-0.16886
850	8.7773	2.2409	0.	-3.6033e-002
851	9.1694	2.2368	0.	-3.5429e-002
852	9.5597	2.2368	0.	-1.5256e-002
853	9.95	2.2368	0.	-1.2448e-002
854	10.34	2.2368	0.	-1.3113e-002
855	10.731	2.2368	0.	-1.517e-002
856	11.121	2.2368	0.	-1.8531e-002
857	11.511	2.2368	0.	-2.1872e-002
858	11.901	2.2368	0.	-2.4766e-002
859	12.292	2.2368	0.	0.52444
860	12.682	2.2368	0.	2.3849
861	13.072	2.2368	0.	3.9532
862	13.463	2.2368	0.	5.2748
863	13.853	2.2368	0.	6.3888
864	14.243	2.2368	0.	7.328
865	14.633	2.2368	0.	8.12
866	15.024	2.2368	0.	8.7877
867	15.414	2.2368	0.	9.3507
868	15.804	2.2368	0.	9.8253
869	16.194	2.2368	0.	10.225
870	16.585	2.2368	0.	10.562
871	16.975	2.2368	0.	10.845
872	17.365	2.2368	0.	11.084
873	17.756	2.2368	0.	11.283
874	18.146	2.2368	0.	11.451
875	18.536	2.2368	0.	11.59
876	18.926	2.2368	0.	11.706
877	19.317	2.2368	0.	11.808
878	19.707	2.2368	0.	11.91
879	20.104	2.2457	0.	11.979
880	20.505	2.2598	0.	12.015
881	20.914	2.2811	0.	12.091
882	21.319	2.3075	0.	12.137
883	2.7454	2.2137	0.	-1.5866
884	3.0735	2.2056	0.	0.69291
885	2.1553	3.1844	0.	1.6339
886	2.1551	2.8637	0.	-6.9971
887	2.8326	3.7894	0.	-2.4135
888	2.4782	3.8081	0.	0.92143
889	2.1991	3.7728	0.	1.7007
890	4.5153	2.9805	0.	4.8907
891	2.1815	2.6143	0.	5.2824
892	2.1551	3.4986	0.	-4.5221
893	3.1794	3.7523	0.	0.70167
894	21.891	3.5175	0.	12.355
895	21.598	3.8046	0.	11.996
896	6.8408	3.4886	0.	5.5206e-003
897	21.723	2.3459	0.	12.165
898	6.5807	2.766	0.	0.74317
899	6.8787	2.4557	0.	-1.082
900	7.2685	2.1745	0.	3.0297e-002
901	6.4785	3.1219	0.	-2.3375
902	3.893	2.6968	0.	-7.2436
903	7.2488	3.4364	0.	2.9561
904	7.6305	3.4043	0.	-1.3513
905	7.9986	3.3904	0.	0.18319
906	8.3889	3.3904	0.	-1.527e-002
907	8.7792	3.3904	0.	-4.8166e-002
908	11.511	3.3904	0.	-1.6689e-002
909	11.901	3.3904	0.	-2.1189e-002
910	12.292	3.3904	0.	0.17773
911	12.682	3.3904	0.	2.1634
912	13.072	3.3904	0.	3.8313
913	13.463	3.3904	0.	5.2329
914	13.853	3.3904	0.	6.412
915	14.243	3.3904	0.	7.4046
916	14.633	3.3904	0.	8.2406
917	15.024	3.3904	0.	8.945
918	15.414	3.3904	0.	9.5388
919	15.804	3.3904	0.	10.039
920	16.194	3.3904	0.	10.462
921	16.585	3.3904	0.	10.817
922	16.975	3.3904	0.	11.118
923	17.365	3.3904	0.	11.371
924	17.756	3.3904	0.	11.584
925	18.146	3.3904	0.	11.764
926	18.536	3.3904	0.	11.916
927	18.926	3.3904	0.	12.045
928	19.317	3.3904	0.	12.153
929	19.707	3.3904	0.	12.232
930	20.098	3.384	0.	12.315
931	20.485	3.383	0.	12.192
932	20.831	3.423	0.	12.249
933	2.8053	2.5566	0.	-2.0587
934	2.5102	3.1755	0.	0.1111
935	2.5159	2.8722	0.	-1.5233
936	2.5143	3.478	0.	-0.462
937	21.333	2.6912	0.	12.428
938	21.19	3.4594	0.	12.617
939	7.9839	2.6292	0.	-0.11453
940	11.121	2.6096	0.	-1.0053e-002
941	11.511	2.6096	0.	-1.5655e-002
942	11.901	2.6096	0.	-2.0624e-002
943	12.292	2.6096	0.	0.17609
944	12.682	2.6096	0.	2.1633
945	13.072	2.6096	0.	3.8323
946	13.463	2.6096	0.	5.235
947	13.853	2.6096	0.	6.4149
948	14.243	2.6096	0.	7.4081
949	14.633	2.6096	0.	8.2446
950	15.024	2.6096	0.	8.9495
951	15.414	2.6096	0.	9.5437
952	15.804	2.6096	0.	10.045
953	16.194	2.6096	0.	10.467
954	16.585	2.6096	0.	10.823
955	16.975	2.6096	0.	11.123
956	17.365	2.6096	0.	11.376
957	17.756	2.6096	0.	11.589
958	18.146	2.6096	0.	11.768
959	18.536	2.6096	0.	11.92
960	18.926	2.6096	0.	12.041
961	19.316	2.6179	0.	12.148
962	19.705	2.6241	0.	12.26
963	20.106	2.6279	0.	12.354
964	20.519	2.6442	0.	12.444
965	20.925	2.6633	0.	12.391
966	4.1867	2.8563	0.	8.8131
967	3.5858	2.2201	0.	10.572
968	3.6722	2.4782	0.	6.02
969	2.4326	2.5318	0.	0.57058
970	3.2894	3.3548	0.	3.2871
971	6.8539	2.8033	0.	2.262
972	7.2053	2.4677	0.	6.6815e-002
973	7.2308	3.1003	0.	-1.8097
974	2.8752	3.1906	0.	0.39097
975	7.612	3.0359	0.	0.19731
976	8.3848	3.0058	0.	-9.3142e-002
977	7.9948	3.0079	0.	-0.2926
978	9.1697	3.0094	0.	-2.0236e-002
979	8.7793	3.0042	0.	-3.2415e-002
980	9.95	3.0176	0.	9.6528e-003
981	9.5597	3.0176	0.	1.0807e-002
982	10.731	3.0176	0.	-3.2887e-003
983	10.34	3.0176	0.	1.8318e-003
984	11.511	3.0176	0.	-1.5199e-002
985	11.121	3.0176	0.	-9.6356e-003
986	12.292	3.0176	0.	5.1896e-002
987	11.901	3.0176	0.	-2.0177e-002
988	13.072	3.0176	0.	3.7858
989	12.682	3.0176	0.	2.0829
990	13.853	3.0176	0.	6.4173
991	13.463	3.0176	0.	5.2155
992	14.633	3.0176	0.	8.2797
993	14.243	3.0176	0.	7.4284
994	15.414	3.0176	0.	9.6013
995	15.024	3.0176	0.	8.9969
996	16.194	3.0176	0.	10.541
997	15.804	3.0176	0.	10.111
998	16.975	3.0176	0.	11.209
999	16.585	3.0176	0.	10.903
1000	17.756	3.0176	0.	11.685
1001	17.365	3.0176	0.	11.467
1002	18.536	3.0176	0.	12.024
1003	18.146	3.0176	0.	11.868
1004	19.316	3.0108	0.	12.272
1005	18.926	3.0176	0.	12.151
1006	20.104	3.0061	0.	12.471
1007	19.709	3.0057	0.	12.386
1008	20.976	3.0435	0.	12.536
1009	20.51	3.0125	0.	12.699
1010	2.8828	2.8946	0.	1.8438
1011	7.5663	2.6361	0.	-2.0322
1012	3.5336	3.0149	0.	5.8001
1013	7.164	2.8051	0.	-0.8678
1014	3.404	2.4327	0.	1.3905
1015	4.1286	2.6229	0.	-0.35059
1016	5.0487	3.2162	0.	182.57
1017	6.1454	5.2366	0.	31.996
1018	4.2853	3.0079	0.	-8.4225
1019	6.7359	3.904	0.	-5.444
1020	5.8096	0.84587	0.	97.322
1021	4.551	5.1533	0.	143.18
1022	5.1595	2.8466	0.	175.75
1023	5.184	2.7157	0.	238.98
1024	21.398	3.0677	0.	12.447
1025	21.398	3.0677	0.1	21.386
1026	5.184	2.7157	0.1	2392.7
1027	5.1595	2.8466	0.1	2317.3
1028	4.551	5.1533	0.1	745.97
1029	5.8096	0.84587	0.1	570.53
1030	6.7359	3.904	0.1	999.89
1031	4.2853	3.0079	0.1	1725.5
1032	6.1454	5.2366	0.1	632.73
1033	5.0487	3.2162	0.1	2345.
1034	4.1286	2.6229	0.1	1613.2
1035	3.404	2.4327	0.1	1401.3
1036	7.164	2.8051	0.1	956.73
1037	3.5336	3.0149	0.1	1430.4
1038	7.5663	2.6361	0.1	857.24
1039	2.8828	2.8946	0.1	1379.7
1040	20.51	3.0125	0.1	37.033
1041	20.976	3.0435	0.1	28.133
1042	19.709	3.0057	0.1	55.346
1043	20.104	3.0061	0.1	45.845
1044	18.926	3.0176	0.1	76.795
1045	19.316	3.0108	0.1	65.673
1046	18.146	3.0176	0.1	101.71
1047	18.536	3.0176	0.1	88.806
1048	17.365	3.0176	0.1	130.18
1049	17.756	3.0176	0.1	115.5
1050	16.585	3.0176	0.1	162.19
1051	16.975	3.0176	0.1	145.74
1052	15.804	3.0176	0.1	197.73
1053	16.194	3.0176	0.1	179.52
1054	15.024	3.0176	0.1	236.8
1055	15.414	3.0176	0.1	216.83
1056	14.243	3.0176	0.1	279.36
1057	14.633	3.0176	0.1	257.64
1058	13.463	3.0176	0.1	325.41
1059	13.853	3.0176	0.1	301.95
1060	12.682	3.0176	0.1	374.91
1061	13.072	3.0176	0.1	349.73
1062	11.901	3.0176	0.1	427.86
1063	12.292	3.0176	0.1	400.95
1064	11.121	3.0176	0.1	484.37
1065	11.511	3.0176	0.1	455.66
1066	10.34	3.0176	0.1	544.83
1067	10.731	3.0176	0.1	514.05
1068	9.5597	3.0176	0.1	610.65
1069	9.95	3.0176	0.1	576.91
1070	8.7793	3.0042	0.1	686.38
1071	9.1697	3.0094	0.1	646.73
1072	7.9948	3.0079	0.1	785.41
1073	8.3848	3.0058	0.1	731.75
1074	7.612	3.0359	0.1	853.07
1075	2.8752	3.1906	0.1	1373.6
1076	7.2308	3.1003	0.1	941.04
1077	7.2053	2.4677	0.1	931.23
1078	6.8539	2.8033	0.1	1057.5
1079	3.2894	3.3548	0.1	1387.
1080	2.4326	2.5318	0.1	1380.8
1081	3.6722	2.4782	0.1	1411.
1082	3.5858	2.2201	0.1	1347.8
1083	4.1867	2.8563	0.1	1710.7
1084	20.925	2.6633	0.1	29.251
1085	20.519	2.6442	0.1	36.86
1086	20.106	2.6279	0.1	45.841
1087	19.705	2.6241	0.1	55.434
1088	19.316	2.6179	0.1	65.689
1089	18.926	2.6096	0.1	76.811
1090	18.536	2.6096	0.1	88.824
1091	18.146	2.6096	0.1	101.73
1092	17.756	2.6096	0.1	115.52
1093	17.365	2.6096	0.1	130.2
1094	16.975	2.6096	0.1	145.77
1095	16.585	2.6096	0.1	162.22
1096	16.194	2.6096	0.1	179.55
1097	15.804	2.6096	0.1	197.77
1098	15.414	2.6096	0.1	216.86
1099	15.024	2.6096	0.1	236.84
1100	14.633	2.6096	0.1	257.69
1101	14.243	2.6096	0.1	279.41
1102	13.853	2.6096	0.1	302.01
1103	13.463	2.6096	0.1	325.47
1104	13.072	2.6096	0.1	349.8
1105	12.682	2.6096	0.1	374.99
1106	12.292	2.6096	0.1	401.05
1107	11.901	2.6096	0.1	427.97
1108	11.511	2.6096	0.1	455.78
1109	11.121	2.6096	0.1	484.5
1110	7.9839	2.6292	0.1	785.39
1111	21.19	3.4594	0.1	24.374
1112	21.333	2.6912	0.1	22.392
1113	2.5143	3.478	0.1	1386.3
1114	2.5159	2.8722	0.1	1391.7
1115	2.5102	3.1755	0.1	1389.5
1116	2.8053	2.5566	0.1	1371.8
1117	20.831	3.423	0.1	31.373
1118	20.485	3.383	0.1	37.683
1119	20.098	3.384	0.1	46.081
1120	19.707	3.3904	0.1	55.42
1121	19.317	3.3904	0.1	65.664
1122	18.926	3.3904	0.1	76.806
1123	18.536	3.3904	0.1	88.823
1124	18.146	3.3904	0.1	101.73
1125	17.756	3.3904	0.1	115.52
1126	17.365	3.3904	0.1	130.2
1127	16.975	3.3904	0.1	145.77
1128	16.585	3.3904	0.1	162.22
1129	16.194	3.3904	0.1	179.55
1130	15.804	3.3904	0.1	197.77
1131	15.414	3.3904	0.1	216.86
1132	15.024	3.3904	0.1	236.84
1133	14.633	3.3904	0.1	257.69
1134	14.243	3.3904	0.1	279.41
1135	13.853	3.3904	0.1	302.01
1136	13.463	3.3904	0.1	325.47
1137	13.072	3.3904	0.1	349.8
1138	12.682	3.3904	0.1	374.99
1139	12.292	3.3904	0.1	401.05
1140	11.901	3.3904	0.1	427.97
1141	11.511	3.3904	0.1	455.78
1142	8.7792	3.3904	0.1	685.76
1143	8.3889	3.3904	0.1	729.94
1144	7.9986	3.3904	0.1	781.36
1145	7.6305	3.4043	0.1	842.2
1146	7.2488	3.4364	0.1	926.14
1147	3.893	2.6968	0.1	1492.1
1148	6.4785	3.1219	0.1	1242.3
1149	7.2685	2.1745	0.1	890.28
1150	6.8787	2.4557	0.1	1018.2
1151	6.5807	2.766	0.1	1178.7
1152	21.723	2.3459	0.1	16.677
1153	6.8408	3.4886	0.1	1031.6
1154	21.598	3.8046	0.1	18.098
1155	21.891	3.5175	0.1	14.521
1156	3.1794	3.7523	0.1	1347.4
1157	2.1551	3.4986	0.1	1418.7
1158	2.1815	2.6143	0.1	1443.3
1159	4.5153	2.9805	0.1	1947.9
1160	2.1991	3.7728	0.1	1425.4
1161	2.4782	3.8081	0.1	1373.5
1162	2.8326	3.7894	0.1	1357.7
1163	2.1551	2.8637	0.1	1424.1
1164	2.1553	3.1844	0.1	1420.2
1165	3.0735	2.2056	0.1	1345.2
1166	2.7454	2.2137	0.1	1358.1
1167	21.319	2.3075	0.1	22.517
1168	20.914	2.2811	0.1	29.352
1169	20.505	2.2598	0.1	37.237
1170	20.104	2.2457	0.1	45.911
1171	19.707	2.2368	0.1	55.423
1172	19.317	2.2368	0.1	65.729
1173	18.926	2.2368	0.1	76.866
1174	18.536	2.2368	0.1	88.886
1175	18.146	2.2368	0.1	101.8
1176	17.756	2.2368	0.1	115.6
1177	17.365	2.2368	0.1	130.28
1178	16.975	2.2368	0.1	145.85
1179	16.585	2.2368	0.1	162.31
1180	16.194	2.2368	0.1	179.65
1181	15.804	2.2368	0.1	197.87
1182	15.414	2.2368	0.1	216.98
1183	15.024	2.2368	0.1	236.96
1184	14.633	2.2368	0.1	257.82
1185	14.243	2.2368	0.1	279.56
1186	13.853	2.2368	0.1	302.17
1187	13.463	2.2368	0.1	325.65
1188	13.072	2.2368	0.1	350.
1189	12.682	2.2368	0.1	375.22
1190	12.292	2.2368	0.1	401.3
1191	11.901	2.2368	0.1	428.26
1192	11.511	2.2368	0.1	456.1
1193	11.121	2.2368	0.1	484.85
1194	10.731	2.2368	0.1	514.55
1195	10.34	2.2368	0.1	545.29
1196	9.95	2.2368	0.1	577.23
1197	9.5597	2.2368	0.1	610.62
1198	9.1694	2.2368	0.1	645.99
1199	8.7773	2.2409	0.1	684.26
1200	8.3845	2.2458	0.1	726.7
1201	7.9931	2.2491	0.1	775.04
1202	7.6171	2.2273	0.1	828.44
1203	21.77	3.0928	0.1	16.128
1204	21.743	2.7199	0.1	16.406
1205	6.9749	3.8203	0.1	957.93
1206	8.0043	3.7658	0.1	773.01
1207	8.3889	3.7632	0.1	726.12
1208	8.7792	3.7632	0.1	684.04
1209	9.1694	3.7632	0.1	645.99
1210	9.5597	3.7632	0.1	610.64
1211	9.95	3.7632	0.1	577.23
1212	10.34	3.7632	0.1	545.3
1213	10.731	3.7632	0.1	514.56
1214	11.121	3.7632	0.1	484.85
1215	11.511	3.7632	0.1	456.1
1216	11.901	3.7632	0.1	428.26
1217	12.292	3.7632	0.1	401.31
1218	12.682	3.7632	0.1	375.22
1219	13.072	3.7632	0.1	350.
1220	13.463	3.7632	0.1	325.65
1221	13.853	3.7632	0.1	302.17
1222	14.243	3.7632	0.1	279.56
1223	14.633	3.7632	0.1	257.82
1224	15.024	3.7632	0.1	236.96
1225	15.414	3.7632	0.1	216.98
1226	15.804	3.7632	0.1	197.87
1227	16.194	3.7632	0.1	179.65
1228	16.585	3.7632	0.1	162.31
1229	16.975	3.7632	0.1	145.85
1230	17.365	3.7632	0.1	130.28
1231	17.756	3.7632	0.1	115.6
1232	18.146	3.7632	0.1	101.8
1233	18.536	3.7632	0.1	88.885
1234	18.926	3.7632	0.1	76.858
1235	19.317	3.7632	0.1	65.716
1236	19.707	3.7632	0.1	55.457
1237	20.097	3.7632	0.1	46.157
1238	20.472	3.7686	0.1	37.982
1239	20.851	3.7862	0.1	30.449
1240	21.223	3.8013	0.1	24.15
1241	6.9184	2.1376	0.1	963.41
1242	6.598	2.4287	0.1	1126.4
1243	3.8622	3.6766	0.1	1467.
1244	3.4112	1.8661	0.1	1309.8
1245	1.8959	2.3822	0.1	1431.2
1246	21.706	1.946	0.1	16.834
1247	6.5982	3.7898	0.1	1112.2
1248	22.135	3.4044	0.1	11.802
1249	21.983	3.7691	0.1	13.649
1250	6.3005	2.6859	0.1	1354.1
1251	4.0753	3.405	0.1	1567.3
1252	1.831	3.5885	0.1	1456.6
1253	6.4633	3.4428	0.1	1219.7
1254	4.423	2.7493	0.1	1823.6
1255	5.7935	3.2425	0.1	1822.8
1256	4.6695	2.9299	0.1	2051.5
1257	5.0511	3.0552	0.1	2281.7
1258	5.0381	2.888	0.1	2294.
1259	6.6271	1.8441	0.1	975.08
1260	6.6182	2.129	0.1	1051.9
1261	3.7343	4.1442	0.1	1306.2
1262	3.7666	3.8787	0.1	1382.3
1263	2.3801	4.1456	0.1	1385.6
1264	2.7702	4.1488	0.1	1339.7
1265	3.1214	4.1529	0.1	1315.3
1266	1.8163	2.8173	0.1	1463.4
1267	1.8141	3.2001	0.1	1466.7
1268	3.0839	1.8313	0.1	1318.4
1269	3.9736	1.9578	0.1	1355.8
1270	21.305	1.9229	0.1	22.746
1271	20.902	1.8953	0.1	29.608
1272	20.497	1.8741	0.1	37.433
1273	20.097	1.864	0.1	46.128
1274	19.707	1.864	0.1	55.539
1275	19.317	1.864	0.1	65.811
1276	18.926	1.864	0.1	76.963
1277	18.536	1.864	0.1	88.997
1278	18.146	1.864	0.1	101.92
1279	17.756	1.864	0.1	115.73
1280	17.365	1.864	0.1	130.42
1281	16.975	1.864	0.1	146.
1282	16.585	1.864	0.1	162.46
1283	16.194	1.864	0.1	179.81
1284	15.804	1.864	0.1	198.05
1285	15.414	1.864	0.1	217.17
1286	15.024	1.864	0.1	237.16
1287	14.633	1.864	0.1	258.04
1288	14.243	1.864	0.1	279.8
1289	13.853	1.864	0.1	302.44
1290	13.463	1.864	0.1	325.95
1291	13.072	1.864	0.1	350.33
1292	12.682	1.864	0.1	375.59
1293	12.292	1.864	0.1	401.72
1294	11.901	1.864	0.1	428.72
1295	11.511	1.864	0.1	456.61
1296	11.121	1.864	0.1	485.4
1297	10.731	1.864	0.1	515.12
1298	10.34	1.864	0.1	545.81
1299	9.95	1.864	0.1	577.58
1300	9.5597	1.864	0.1	610.58
1301	9.1694	1.864	0.1	645.08
1302	8.7792	1.864	0.1	681.51
1303	8.386	1.8687	0.1	720.76
1304	7.2624	1.8178	0.1	856.04
1305	22.155	3.1308	0.1	11.361
1306	22.14	2.7838	0.1	11.556
1307	22.11	2.3673	0.1	11.838
1308	22.099	1.9652	0.1	11.902
1309	6.4423	4.1842	0.1	1012.4
1310	6.5568	4.3245	0.1	954.64
1311	6.9659	4.1654	0.1	906.24
1312	7.2767	4.1682	0.1	852.75
1313	7.6306	4.1469	0.1	807.19
1314	7.9986	4.136	0.1	762.42
1315	8.3889	4.136	0.1	720.49
1316	8.7792	4.136	0.1	681.52
1317	9.1694	4.136	0.1	645.11
1318	9.5597	4.136	0.1	610.61
1319	9.95	4.136	0.1	577.6
1320	10.34	4.136	0.1	545.83
1321	10.731	4.136	0.1	515.13
1322	11.121	4.136	0.1	485.41
1323	11.511	4.136	0.1	456.62
1324	11.901	4.136	0.1	428.73
1325	12.292	4.136	0.1	401.72
1326	12.682	4.136	0.1	375.59
1327	13.072	4.136	0.1	350.33
1328	13.463	4.136	0.1	325.95
1329	13.853	4.136	0.1	302.44
1330	14.243	4.136	0.1	279.8
1331	14.633	4.136	0.1	258.04
1332	15.024	4.136	0.1	237.16
1333	15.414	4.136	0.1	217.17
1334	15.804	4.136	0.1	198.05
1335	16.194	4.136	0.1	179.81
1336	16.585	4.136	0.1	162.46
1337	16.975	4.136	0.1	146.
1338	17.365	4.136	0.1	130.42
1339	17.756	4.136	0.1	115.72
1340	18.146	4.136	0.1	101.92
1341	18.536	4.136	0.1	88.994
1342	18.926	4.136	0.1	76.956
1343	19.317	4.136	0.1	65.802
1344	19.707	4.136	0.1	55.537
1345	20.097	4.136	0.1	46.194
1346	20.483	4.137	0.1	37.741
1347	20.867	4.1431	0.1	30.279
1348	21.254	4.1529	0.1	23.471
1349	21.651	4.1487	0.1	17.592
1350	22.063	4.1028	0.1	12.289
1351	5.2407	3.1566	0.1	2321.5
1352	6.3156	2.3902	0.1	1272.6
1353	6.5967	1.6303	0.1	918.16
1354	6.9291	1.8234	0.1	908.91
1355	3.7487	4.3649	0.1	1248.6
1356	1.9432	4.0406	0.1	1423.3
1357	4.1581	2.3527	0.1	1558.1
1358	6.3815	3.71	0.1	1198.3
1359	6.0309	2.6441	0.1	1573.2
1360	4.3973	3.4295	0.1	1798.1
1361	6.1301	3.464	0.1	1448.9
1362	6.3474	4.4271	0.1	941.29
1363	1.5471	1.5508	0.1	1476.6
1364	4.6272	2.6893	0.1	2023.8
1365	22.478	1.5787	0.1	7.9076
1366	22.455	4.4586	0.1	8.0645
1367	5.3776	2.8578	0.1	2253.2
1368	4.8438	2.8417	0.1	2201.
1369	5.2272	2.9034	0.1	2336.
1370	5.0104	2.7525	0.1	2337.1
1371	6.3181	1.8368	0.1	1062.1
1372	6.3141	2.0823	0.1	1169.
1373	6.4311	1.3218	0.1	852.69
1374	6.3502	1.5839	0.1	947.99
1375	3.9894	4.423	0.1	1221.9
1376	1.5499	4.4403	0.1	1478.8
1377	1.9484	4.464	0.1	1419.6
1378	2.3454	4.4954	0.1	1372.2
1379	2.7407	4.5181	0.1	1324.8
1380	3.1263	4.5298	0.1	1276.9
1381	3.5232	4.5406	0.1	1221.
1382	1.5278	1.956	0.1	1497.8
1383	1.5099	2.3728	0.1	1513.2
1384	1.4787	2.7916	0.1	1529.1
1385	1.4771	3.206	0.1	1526.8
1386	1.4978	3.6242	0.1	1516.4
1387	1.5387	4.0423	0.1	1494.8
1388	3.5616	1.4998	0.1	1223.2
1389	3.1282	1.4775	0.1	1279.2
1390	2.7325	1.4907	0.1	1326.9
1391	2.3312	1.5126	0.1	1373.6
1392	1.9373	1.536	0.1	1421.9
1393	4.1956	2.0781	0.1	1485.1
1394	4.1462	1.837	0.1	1344.7
1395	4.042	1.6196	0.1	1227.9
1396	3.9685	1.3318	0.1	1122.3
1397	22.086	1.5626	0.1	12.019
1398	21.689	1.5445	0.1	17.042
1399	21.291	1.5237	0.1	23.008
1400	20.886	1.5041	0.1	29.931
1401	20.49	1.494	0.1	37.682
1402	20.097	1.4912	0.1	46.245
1403	19.707	1.4912	0.1	55.67
1404	19.317	1.4912	0.1	65.951
1405	18.926	1.4912	0.1	77.115
1406	18.536	1.4912	0.1	89.163
1407	18.146	1.4912	0.1	102.1
1408	17.756	1.4912	0.1	115.91
1409	17.365	1.4912	0.1	130.62
1410	16.975	1.4912	0.1	146.21
1411	16.585	1.4912	0.1	162.69
1412	16.194	1.4912	0.1	180.05
1413	15.804	1.4912	0.1	198.3
1414	15.414	1.4912	0.1	217.43
1415	15.024	1.4912	0.1	237.45
1416	14.633	1.4912	0.1	258.35
1417	14.243	1.4912	0.1	280.14
1418	13.853	1.4912	0.1	302.8
1419	13.463	1.4912	0.1	326.35
1420	13.072	1.4912	0.1	350.78
1421	12.682	1.4912	0.1	376.09
1422	12.292	1.4912	0.1	402.28
1423	11.901	1.4912	0.1	429.35
1424	11.511	1.4912	0.1	457.3
1425	11.121	1.4912	0.1	486.14
1426	10.731	1.4912	0.1	515.87
1427	10.34	1.4912	0.1	546.51
1428	9.95	1.4912	0.1	578.07
1429	9.5597	1.4912	0.1	610.56
1430	9.1694	1.4912	0.1	644.02
1431	8.7792	1.4912	0.1	678.47
1432	8.3889	1.4912	0.1	713.7
1433	8.0036	1.4887	0.1	749.11
1434	7.6172	1.4823	0.1	784.61
1435	7.2314	1.4664	0.1	819.62
1436	6.8168	1.4555	0.1	849.82
1437	22.449	4.0557	0.1	8.1485
1438	22.43	3.6277	0.1	8.3741
1439	22.519	3.1858	0.1	7.5776
1440	22.511	2.7783	0.1	7.7413
1441	22.496	2.385	0.1	7.8702
1442	22.485	1.9767	0.1	7.9094
1443	6.2489	4.2047	0.1	1075.3
1444	6.804	4.5267	0.1	852.59
1445	7.2309	4.5266	0.1	821.58
1446	7.6195	4.5163	0.1	784.62
1447	7.9986	4.5088	0.1	749.41
1448	8.3889	4.5088	0.1	713.87
1449	8.7792	4.5088	0.1	678.49
1450	9.1694	4.5088	0.1	644.07
1451	9.5597	4.5088	0.1	610.6
1452	9.95	4.5088	0.1	578.1
1453	10.34	4.5088	0.1	546.53
1454	10.731	4.5088	0.1	515.89
1455	11.121	4.5088	0.1	486.15
1456	11.511	4.5088	0.1	457.31
1457	11.901	4.5088	0.1	429.35
1458	12.292	4.5088	0.1	402.28
1459	12.682	4.5088	0.1	376.09
1460	13.072	4.5088	0.1	350.78
1461	13.463	4.5088	0.1	326.35
1462	13.853	4.5088	0.1	302.81
1463	14.243	4.5088	0.1	280.14
1464	14.633	4.5088	0.1	258.35
1465	15.024	4.5088	0.1	237.45
1466	15.414	4.5088	0.1	217.43
1467	15.804	4.5088	0.1	198.3
1468	16.194	4.5088	0.1	180.05
1469	16.585	4.5088	0.1	162.69
1470	16.975	4.5088	0.1	146.21
1471	17.365	4.5088	0.1	130.62
1472	17.756	4.5088	0.1	115.91
1473	18.146	4.5088	0.1	102.09
1474	18.536	4.5088	0.1	89.159
1475	18.926	4.5088	0.1	77.111
1476	19.317	4.5088	0.1	65.946
1477	19.707	4.5088	0.1	55.666
1478	20.097	4.5088	0.1	46.273
1479	20.487	4.5088	0.1	37.761
1480	20.878	4.5088	0.1	30.113
1481	21.268	4.5088	0.1	23.311
1482	21.667	4.5048	0.1	17.363
1483	22.069	4.481	0.1	12.202
1484	4.3492	3.6608	0.1	1680.7
1485	4.3761	2.2977	0.1	1689.7
1486	6.0994	3.7172	0.1	1393.1
1487	6.4473	4.6527	0.1	863.36
1488	4.6836	3.4406	0.1	2088.8
1489	5.2535	3.3587	0.1	2470.4
1490	5.8103	3.5151	0.1	1789.6
1491	5.7858	2.6088	0.1	1832.8
1492	6.4779	1.0287	0.1	754.43
1493	3.8685	4.9726	0.1	1058.9
1494	1.1525	4.4244	0.1	1534.
1495	1.5578	1.1479	0.1	1463.8
1496	1.1602	1.5597	0.1	1531.4
1497	22.868	1.5908	0.1	4.7029
1498	22.472	1.1823	0.1	7.915
1499	22.449	4.8569	0.1	8.1317
1500	22.84	4.4432	0.1	4.8779
1501	4.8203	2.6335	0.1	2244.9
1502	5.2425	2.5876	0.1	2491.6
1503	6.0611	1.8226	0.1	1164.8
1504	6.0569	2.0786	0.1	1327.2
1505	6.0865	1.5661	0.1	991.89
1506	4.2911	4.1838	0.1	1378.3
1507	4.3304	3.9389	0.1	1539.1
1508	4.2292	4.6907	0.1	1077.2
1509	1.5486	4.8439	0.1	1465.2
1510	1.9471	4.8685	0.1	1415.4
1511	2.3538	4.8816	0.1	1363.1
1512	2.7462	4.8816	0.1	1306.7
1513	3.1274	4.89	0.1	1241.2
1514	3.5054	4.9189	0.1	1157.2
1515	1.1474	1.968	0.1	1562.9
1516	1.1303	2.379	0.1	1587.9
1517	1.1184	2.8	0.1	1602.2
1518	1.1195	3.2076	0.1	1601.6
1519	1.1295	3.6149	0.1	1587.9
1520	1.1445	4.0196	0.1	1563.2
1521	3.8636	1.0186	0.1	1056.5
1522	3.5252	1.0956	0.1	1156.
1523	3.1394	1.1198	0.1	1240.3
1524	2.7453	1.1232	0.1	1306.4
1525	2.3451	1.1297	0.1	1364.4
1526	1.9529	1.1382	0.1	1415.5
1527	4.3632	1.8022	0.1	1392.
1528	4.3087	1.5896	0.1	1240.8
1529	4.3833	1.2419	0.1	955.03
1530	4.2773	1.1071	0.1	984.47
1531	22.076	1.1629	0.1	12.125
1532	21.679	1.1466	0.1	17.215
1533	21.28	1.1288	0.1	23.258
1534	20.878	1.1184	0.1	30.198
1535	20.487	1.1184	0.1	37.901
1536	20.097	1.1184	0.1	46.441
1537	19.707	1.1184	0.1	55.862
1538	19.317	1.1184	0.1	66.16
1539	18.926	1.1184	0.1	77.338
1540	18.536	1.1184	0.1	89.398
1541	18.146	1.1184	0.1	102.34
1542	17.756	1.1184	0.1	116.17
1543	17.365	1.1184	0.1	130.89
1544	16.975	1.1184	0.1	146.49
1545	16.585	1.1184	0.1	162.98
1546	16.194	1.1184	0.1	180.36
1547	15.804	1.1184	0.1	198.63
1548	15.414	1.1184	0.1	217.78
1549	15.024	1.1184	0.1	237.82
1550	14.633	1.1184	0.1	258.75
1551	14.243	1.1184	0.1	280.57
1552	13.853	1.1184	0.1	303.27
1553	13.463	1.1184	0.1	326.87
1554	13.072	1.1184	0.1	351.35
1555	12.682	1.1184	0.1	376.72
1556	12.292	1.1184	0.1	402.97
1557	11.901	1.1184	0.1	430.11
1558	11.511	1.1184	0.1	458.14
1559	11.121	1.1184	0.1	487.03
1560	10.731	1.1184	0.1	516.79
1561	10.34	1.1184	0.1	547.36
1562	9.95	1.1184	0.1	578.69
1563	9.5597	1.1184	0.1	610.66
1564	9.1694	1.1184	0.1	643.04
1565	8.7792	1.1184	0.1	675.41
1566	8.3889	1.1184	0.1	707.03
1567	7.9986	1.1184	0.1	736.67
1568	7.6083	1.1184	0.1	762.2
1569	7.2245	1.1114	0.1	779.09
1570	6.8462	1.0831	0.1	776.59
1571	22.842	4.029	0.1	4.9944
1572	22.849	3.6191	0.1	5.0091
1573	22.872	3.2088	0.1	4.827
1574	22.882	2.8	0.1	4.7313
1575	22.877	2.3948	0.1	4.7776
1576	22.876	1.9973	0.1	4.7323
1577	6.0484	3.9719	0.1	1301.2
1578	6.4953	4.9405	0.1	768.84
1579	6.0762	4.4429	0.1	990.12
1580	6.1306	4.6691	0.1	856.6
1581	6.854	4.9054	0.1	779.86
1582	7.2201	4.8874	0.1	779.84
1583	7.6111	4.8846	0.1	762.36
1584	7.9986	4.8816	0.1	736.55
1585	8.3889	4.8816	0.1	707.12
1586	8.7792	4.8816	0.1	675.46
1587	9.1694	4.8816	0.1	643.08
1588	9.5597	4.8816	0.1	610.7
1589	9.95	4.8816	0.1	578.72
1590	10.34	4.8816	0.1	547.38
1591	10.731	4.8816	0.1	516.8
1592	11.121	4.8816	0.1	487.05
1593	11.511	4.8816	0.1	458.15
1594	11.901	4.8816	0.1	430.12
1595	12.292	4.8816	0.1	402.98
1596	12.682	4.8816	0.1	376.72
1597	13.072	4.8816	0.1	351.35
1598	13.463	4.8816	0.1	326.87
1599	13.853	4.8816	0.1	303.28
1600	14.243	4.8816	0.1	280.57
1601	14.633	4.8816	0.1	258.75
1602	15.024	4.8816	0.1	237.82
1603	15.414	4.8816	0.1	217.78
1604	15.804	4.8816	0.1	198.63
1605	16.194	4.8816	0.1	180.36
1606	16.585	4.8816	0.1	162.98
1607	16.975	4.8816	0.1	146.49
1608	17.365	4.8816	0.1	130.89
1609	17.756	4.8816	0.1	116.17
1610	18.146	4.8816	0.1	102.34
1611	18.536	4.8816	0.1	89.395
1612	18.926	4.8816	0.1	77.334
1613	19.317	4.8816	0.1	66.157
1614	19.707	4.8816	0.1	55.863
1615	20.097	4.8816	0.1	46.449
1616	20.487	4.8816	0.1	37.914
1617	20.878	4.8816	0.1	30.249
1618	21.268	4.8816	0.1	23.433
1619	21.664	4.8769	0.1	17.448
1620	22.055	4.868	0.1	12.359
1621	4.9576	3.4612	0.1	2450.3
1622	5.5499	3.535	0.1	2245.6
1623	5.7936	2.3164	0.1	1756.1
1624	6.0879	1.0187	0.1	697.17
1625	4.2511	5.001	0.1	913.4
1626	1.1493	4.8203	0.1	1504.1
1627	1.1647	1.1584	0.1	1501.5
1628	4.2135	0.64124	0.1	808.46
1629	22.861	1.1905	0.1	4.6652
1630	22.839	4.8437	0.1	4.8151
1631	5.8125	3.7554	0.1	1696.2
1632	5.5418	2.5193	0.1	2240.3
1633	4.8203	2.4246	0.1	2347.9
1634	5.2945	2.4324	0.1	2684.8
1635	5.0378	2.4019	0.1	2707.8
1636	5.8054	1.8189	0.1	1315.3
1637	5.7951	2.0598	0.1	1568.2
1638	5.8311	1.3566	0.1	866.66
1639	5.7194	1.0134	0.1	582.72
1640	5.8069	1.1763	0.1	714.36
1641	4.5639	4.1886	0.1	1484.6
1642	4.5255	4.6485	0.1	1046.5
1643	4.5425	4.4183	0.1	1244.6
1644	4.6439	4.9862	0.1	722.59
1645	4.5555	4.8342	0.1	880.61
1646	3.5069	5.2731	0.1	1105.9
1647	3.8801	5.2996	0.1	971.2
1648	4.2196	5.3533	0.1	811.34
1649	3.8696	0.67986	0.1	969.27
1650	3.5166	0.73034	0.1	1101.9
1651	3.1315	0.7431	0.1	1208.2
1652	4.6017	2.0193	0.1	1736.
1653	4.5891	1.6003	0.1	1275.1
1654	4.6003	1.2124	0.1	932.32
1655	4.5636	1.0201	0.1	800.43
1656	4.5459	0.81817	0.1	713.3
1657	6.4782	0.70285	0.1	673.04
1658	6.129	0.66269	0.1	589.23
1659	5.7921	3.9892	0.1	1534.7
1660	5.8209	4.6486	0.1	862.31
1661	5.5376	3.7875	0.1	2331.6
1662	5.5476	2.2738	0.1	2292.9
1663	0.76424	5.206	0.1	1516.8
1664	4.5314	0.44445	0.1	576.17
1665	23.239	0.79567	0.1	2.2849
1666	23.225	5.2222	0.1	2.3613
1667	5.8205	0.61365	0.1	473.16
1668	5.567	5.5394	0.1	291.03
1669	5.0584	3.7733	0.1	3188.3
1670	5.3055	3.7894	0.1	3252.9
1671	5.3037	2.2327	0.1	3192.4
1672	5.0605	2.2092	0.1	3265.1
1673	5.5349	2.0372	0.1	2163.7
1674	5.5319	1.8072	0.1	1676.8
1675	5.54	1.5944	0.1	1172.7
1676	5.5273	1.3966	0.1	911.75
1677	5.5247	1.2042	0.1	729.4
1678	5.5135	1.0038	0.1	580.13
1679	5.5307	0.80071	0.1	458.63
1680	5.5397	0.60218	0.1	377.89
1681	5.4978	0.43516	0.1	273.07
1682	4.8317	4.1886	0.1	1807.3
1683	4.8268	4.4017	0.1	1312.4
1684	4.8392	4.6034	0.1	1051.8
1685	4.8417	4.7955	0.1	868.02
1686	4.8563	4.9941	0.1	712.04
1687	4.8334	5.1968	0.1	576.15
1688	4.8229	5.3922	0.1	490.26
1689	4.8673	5.5606	0.1	360.55
1690	0.7753	5.6043	0.1	1484.4
1691	1.1664	5.6089	0.1	1491.1
1692	1.5598	5.6162	0.1	1472.6
1693	1.9571	5.6224	0.1	1424.9
1694	2.3538	5.6272	0.1	1362.3
1695	2.7462	5.6272	0.1	1284.5
1696	3.1333	5.6287	0.1	1188.5
1697	3.5145	5.6354	0.1	1066.7
1698	3.8934	5.6503	0.1	908.34
1699	4.2677	5.6743	0.1	698.69
1700	4.6676	5.7001	0.1	430.85
1701	0.38638	0.79013	0.1	1434.7
1702	0.38669	1.1934	0.1	1563.1
1703	0.38396	1.5931	0.1	1640.4
1704	0.38247	1.9914	0.1	1690.
1705	0.37657	2.396	0.1	1719.8
1706	0.3728	2.8	0.1	1733.6
1707	0.3728	3.2	0.1	1733.9
1708	0.3728	3.6	0.1	1721.4
1709	0.37796	4.003	0.1	1692.9
1710	0.37864	4.4021	0.1	1644.7
1711	0.37846	4.8036	0.1	1568.
1712	0.37973	5.2068	0.1	1438.
1713	0.3872	5.6026	0.1	1268.9
1714	4.2962	0.30992	0.1	674.74
1715	3.896	0.34442	0.1	902.19
1716	3.5119	0.35788	0.1	1065.6
1717	3.1347	0.37006	0.1	1187.2
1718	2.7462	0.3728	0.1	1284.1
1719	2.3538	0.3728	0.1	1362.
1720	1.9615	0.3728	0.1	1424.5
1721	1.5654	0.37521	0.1	1472.5
1722	1.1715	0.38068	0.1	1491.2
1723	0.77742	0.38947	0.1	1485.5
1724	0.38754	0.39389	0.1	1267.1
1725	4.8407	2.0059	0.1	2279.8
1726	4.845	1.8	0.1	1825.1
1727	4.8489	1.6	0.1	1324.1
1728	4.85	1.4014	0.1	1059.7
1729	4.845	1.2	0.1	856.14
1730	4.834	1.0016	0.1	709.96
1731	4.8207	0.80128	0.1	587.28
1732	4.8144	0.59367	0.1	465.95
1733	4.7567	0.35157	0.1	364.64
1734	4.709	0.19298	0.1	392.68
1735	23.228	0.39682	0.1	2.5151
1736	22.839	0.39641	0.1	5.1826
1737	22.447	0.39112	0.1	8.6849
1738	22.054	0.38352	0.1	13.052
1739	21.662	0.3761	0.1	18.226
1740	21.271	0.37578	0.1	24.208
1741	20.878	0.3728	0.1	31.092
1742	20.487	0.3728	0.1	38.798
1743	20.097	0.3728	0.1	47.367
1744	19.707	0.3728	0.1	56.807
1745	19.317	0.3728	0.1	67.125
1746	18.926	0.3728	0.1	78.323
1747	18.536	0.3728	0.1	90.402
1748	18.146	0.3728	0.1	103.37
1749	17.756	0.3728	0.1	117.22
1750	17.365	0.3728	0.1	131.95
1751	16.975	0.3728	0.1	147.58
1752	16.585	0.3728	0.1	164.1
1753	16.194	0.3728	0.1	181.5
1754	15.804	0.3728	0.1	199.81
1755	15.414	0.3728	0.1	219.
1756	15.024	0.3728	0.1	239.09
1757	14.633	0.3728	0.1	260.08
1758	14.243	0.3728	0.1	281.97
1759	13.853	0.3728	0.1	304.75
1760	13.463	0.3728	0.1	328.45
1761	13.072	0.3728	0.1	353.04
1762	12.682	0.3728	0.1	378.54
1763	12.292	0.3728	0.1	404.94
1764	11.901	0.3728	0.1	432.24
1765	11.511	0.3728	0.1	460.41
1766	11.121	0.3728	0.1	489.44
1767	10.731	0.3728	0.1	519.24
1768	10.34	0.3728	0.1	549.73
1769	9.95	0.3728	0.1	580.68
1770	9.5597	0.3728	0.1	611.76
1771	9.1694	0.3728	0.1	642.35
1772	8.7792	0.3728	0.1	671.45
1773	8.3889	0.3728	0.1	697.36
1774	7.9986	0.3728	0.1	717.32
1775	7.6083	0.3728	0.1	726.91
1776	7.2241	0.36993	0.1	719.52
1777	6.8408	0.3642	0.1	686.74
1778	6.4658	0.34906	0.1	616.78
1779	6.0928	0.3278	0.1	497.57
1780	5.6936	0.28712	0.1	316.2
1781	23.612	5.2111	0.1	0.82716
1782	23.611	4.8116	0.1	0.89023
1783	23.616	4.4081	0.1	0.933
1784	23.618	4.0084	0.1	0.95682
1785	23.624	3.604	0.1	0.95262
1786	23.627	3.2	0.1	0.94881
1787	23.627	2.8	0.1	0.95014
1788	23.627	2.4	0.1	0.93932
1789	23.627	2.	0.1	0.92337
1790	23.627	1.6	0.1	0.8979
1791	23.624	1.1968	0.1	0.85963
1792	23.621	0.7936	0.1	0.81845
1793	23.614	0.3977	0.1	0.81191
1794	5.5393	3.9929	0.1	2101.
1795	5.5333	4.2059	0.1	1653.5
1796	5.5388	4.4159	0.1	1150.6
1797	5.5417	4.6259	0.1	885.3
1798	5.5545	4.8392	0.1	692.61
1799	5.5542	5.0483	0.1	555.28
1800	5.5224	5.2372	0.1	439.16
1801	5.4491	5.3813	0.1	341.79
1802	5.6632	5.7428	0.1	308.97
1803	6.0468	5.6034	0.1	492.98
1804	6.4497	5.634	0.1	614.47
1805	6.8341	5.6335	0.1	686.39
1806	7.2181	5.6272	0.1	719.45
1807	7.6083	5.6272	0.1	727.1
1808	7.9986	5.6272	0.1	717.45
1809	8.3889	5.6272	0.1	697.45
1810	8.7792	5.6272	0.1	671.52
1811	9.1694	5.6272	0.1	642.4
1812	9.5597	5.6272	0.1	611.8
1813	9.95	5.6272	0.1	580.72
1814	10.34	5.6272	0.1	549.75
1815	10.731	5.6272	0.1	519.27
1816	11.121	5.6272	0.1	489.45
1817	11.511	5.6272	0.1	460.43
1818	11.901	5.6272	0.1	432.25
1819	12.292	5.6272	0.1	404.95
1820	12.682	5.6272	0.1	378.54
1821	13.072	5.6272	0.1	353.04
1822	13.463	5.6272	0.1	328.45
1823	13.853	5.6272	0.1	304.76
1824	14.243	5.6272	0.1	281.97
1825	14.633	5.6272	0.1	260.08
1826	15.024	5.6272	0.1	239.09
1827	15.414	5.6272	0.1	219.
1828	15.804	5.6272	0.1	199.81
1829	16.194	5.6272	0.1	181.5
1830	16.585	5.6272	0.1	164.1
1831	16.975	5.6272	0.1	147.58
1832	17.365	5.6272	0.1	131.95
1833	17.756	5.6272	0.1	117.21
1834	18.146	5.6272	0.1	103.36
1835	18.536	5.6272	0.1	90.4
1836	18.926	5.6272	0.1	78.321
1837	19.317	5.6272	0.1	67.125
1838	19.707	5.6272	0.1	56.809
1839	20.097	5.6272	0.1	47.371
1840	20.487	5.6272	0.1	38.806
1841	20.878	5.6272	0.1	31.106
1842	21.268	5.6272	0.1	24.266
1843	21.658	5.6272	0.1	18.274
1844	22.049	5.6272	0.1	13.129
1845	22.442	5.6226	0.1	8.7713
1846	22.833	5.6185	0.1	5.2313
1847	23.226	5.6187	0.1	2.5475
1848	23.613	5.6069	0.1	0.80146
1849	9.1694	3.3904	0.1	646.57
1850	9.5597	3.3904	0.1	610.66
1851	9.95	3.3904	0.1	577.
1852	10.34	3.3904	0.1	544.96
1853	10.731	3.3904	0.1	514.19
1854	11.121	3.3904	0.1	484.5
1855	10.731	2.6096	0.1	514.19
1856	10.34	2.6096	0.1	544.96
1857	9.95	2.6096	0.1	577.
1858	9.5597	2.6096	0.1	610.65
1859	9.1699	2.6167	0.1	646.53
1860	8.7793	2.6184	0.1	685.8
1861	8.3837	2.6231	0.1	730.64
1862	2.3459	2.2324	0.1	1407.3
1863	21.504	3.4289	0.1	19.392
1864	3.2053	2.6148	0.1	1373.6
1865	3.3553	2.1941	0.1	1361.
1866	3.1865	2.9277	0.1	1383.1
1867	2.8757	3.4493	0.1	1369.1
1868	7.9986	1.864	0.1	762.59
1869	7.6236	1.851	0.1	807.21
1870	2.7199	1.8521	0.1	1346.6
1871	2.3217	1.8904	0.1	1387.
1872	1.92	1.9427	0.1	1430.7
1873	7.625	3.7724	0.1	828.59
1874	3.638	2.7461	0.1	1445.2
1875	7.278	3.7867	0.1	888.17
1876	3.695	2.0349	0.1	1351.1
1877	3.9325	2.3042	0.1	1444.6
1878	3.801	1.7673	0.1	1288.6
1879	3.8549	3.0676	0.1	1489.
1880	3.6958	3.4354	0.1	1432.6
1881	4.07	2.0753	0.1	1435.9
1882	3.4852	3.7946	0.1	1360.
1883	3.4321	4.1518	0.1	1302.
1884	6.855	3.1397	0.1	1062.6
1885	4.3836	2.5237	0.1	1769.9
1886	4.1808	3.1996	0.1	1705.9
1887	6.7112	4.1227	0.1	957.47
1888	6.5	4.0143	0.1	1056.4
1889	6.1128	4.9014	0.1	736.23
1890	6.0426	2.3374	0.1	1469.4
1891	4.3827	2.0481	0.1	1568.6
1892	4.6036	2.4656	0.1	1986.5
1893	4.4626	3.2039	0.1	1867.7
1894	4.3264	1.402	0.1	1110.8
1895	6.1226	1.3188	0.1	847.6
1896	4.5965	1.7996	0.1	1492.4
1897	5.7668	5.3684	0.1	444.89
1898	6.4754	5.2671	0.1	682.14
1899	6.8403	5.2643	0.1	725.57
1900	7.2181	5.2544	0.1	743.86
1901	7.6083	5.2544	0.1	742.04
1902	7.9986	5.2544	0.1	725.46
1903	8.3889	5.2544	0.1	701.34
1904	8.7792	5.2544	0.1	672.94
1905	9.1694	5.2544	0.1	642.4
1906	9.5597	5.2544	0.1	611.
1907	9.95	5.2544	0.1	579.53
1908	10.34	5.2544	0.1	548.4
1909	10.731	5.2544	0.1	517.88
1910	11.121	5.2544	0.1	488.1
1911	11.511	5.2544	0.1	459.14
1912	11.901	5.2544	0.1	431.04
1913	12.292	5.2544	0.1	403.82
1914	12.682	5.2544	0.1	377.49
1915	13.072	5.2544	0.1	352.06
1916	13.463	5.2544	0.1	327.52
1917	13.853	5.2544	0.1	303.88
1918	14.243	5.2544	0.1	281.13
1919	14.633	5.2544	0.1	259.28
1920	15.024	5.2544	0.1	238.32
1921	15.414	5.2544	0.1	218.25
1922	15.804	5.2544	0.1	199.08
1923	16.194	5.2544	0.1	180.8
1924	16.585	5.2544	0.1	163.4
1925	16.975	5.2544	0.1	146.9
1926	17.365	5.2544	0.1	131.28
1927	17.756	5.2544	0.1	116.55
1928	18.146	5.2544	0.1	102.71
1929	18.536	5.2544	0.1	89.756
1930	18.926	5.2544	0.1	77.684
1931	19.317	5.2544	0.1	66.496
1932	19.707	5.2544	0.1	56.189
1933	20.097	5.2544	0.1	46.761
1934	20.487	5.2544	0.1	38.207
1935	20.878	5.2544	0.1	30.521
1936	21.268	5.2544	0.1	23.697
1937	21.658	5.2544	0.1	17.731
1938	22.049	5.2544	0.1	12.601
1939	22.444	5.2466	0.1	8.292
1940	22.835	5.2363	0.1	4.8699
1941	23.225	4.8275	0.1	2.4074
1942	23.231	4.4247	0.1	2.4935
1943	23.235	4.0211	0.1	2.5651
1944	23.247	3.609	0.1	2.5556
1945	23.254	3.2	0.1	2.531
1946	23.254	2.8	0.1	2.5132
1947	23.254	2.4	0.1	2.4842
1948	23.254	2.	0.1	2.4417
1949	23.254	1.6	0.1	2.3758
1950	23.25	1.1966	0.1	2.2958
1951	0.77539	1.1762	0.1	1582.8
1952	0.77057	1.5757	0.1	1642.8
1953	0.76564	1.9785	0.1	1687.6
1954	0.75279	2.3872	0.1	1718.6
1955	0.74559	2.8	0.1	1733.9
1956	0.74559	3.2	0.1	1733.8
1957	0.74948	3.6059	0.1	1719.4
1958	0.75614	4.0072	0.1	1690.
1959	0.76131	4.4074	0.1	1645.1
1960	0.75135	4.8051	0.1	1586.7
1961	22.853	0.78792	0.1	4.7318
1962	22.464	0.78536	0.1	8.0729
1963	22.065	0.76414	0.1	12.408
1964	21.669	0.75736	0.1	17.571
1965	21.272	0.74902	0.1	23.633
1966	20.878	0.74559	0.1	30.494
1967	20.487	0.74559	0.1	38.195
1968	20.097	0.74559	0.1	46.756
1969	19.707	0.74559	0.1	56.188
1970	19.317	0.74559	0.1	66.497
1971	18.926	0.74559	0.1	77.687
1972	18.536	0.74559	0.1	89.758
1973	18.146	0.74559	0.1	102.71
1974	17.756	0.74559	0.1	116.55
1975	17.365	0.74559	0.1	131.28
1976	16.975	0.74559	0.1	146.9
1977	16.585	0.74559	0.1	163.4
1978	16.194	0.74559	0.1	180.8
1979	15.804	0.74559	0.1	199.08
1980	15.414	0.74559	0.1	218.25
1981	15.024	0.74559	0.1	238.32
1982	14.633	0.74559	0.1	259.28
1983	14.243	0.74559	0.1	281.13
1984	13.853	0.74559	0.1	303.88
1985	13.463	0.74559	0.1	327.52
1986	13.072	0.74559	0.1	352.05
1987	12.682	0.74559	0.1	377.49
1988	12.292	0.74559	0.1	403.81
1989	11.901	0.74559	0.1	431.03
1990	11.511	0.74559	0.1	459.13
1991	11.121	0.74559	0.1	488.09
1992	10.731	0.74559	0.1	517.86
1993	10.34	0.74559	0.1	548.38
1994	9.95	0.74559	0.1	579.49
1995	9.5597	0.74559	0.1	610.96
1996	9.1694	0.74559	0.1	642.35
1997	8.7792	0.74559	0.1	672.88
1998	8.3889	0.74559	0.1	701.28
1999	7.9986	0.74559	0.1	725.36
2000	7.6083	0.74559	0.1	741.69
2001	7.2232	0.74407	0.1	743.84
2002	6.8433	0.73299	0.1	724.84
2003	2.7462	0.74559	0.1	1291.5
2004	2.3538	0.74559	0.1	1359.3
2005	1.9615	0.74559	0.1	1415.4
2006	1.5628	0.75502	0.1	1461.3
2007	1.1681	0.76827	0.1	1483.1
2008	0.77215	0.77712	0.1	1516.8
2009	1.1558	5.2178	0.1	1484.1
2010	1.5538	5.2348	0.1	1462.1
2011	1.9528	5.2485	0.1	1416.
2012	2.3538	5.2544	0.1	1359.5
2013	2.7462	5.2544	0.1	1291.5
2014	3.1334	5.2581	0.1	1208.1
2015	6.268	2.9257	0.1	1428.5
2016	6.0317	2.9754	0.1	1607.9
2017	4.0831	3.6579	0.1	1523.5
2018	4.06	3.9188	0.1	1431.9
2019	4.7628	3.1917	0.1	2126.6
2020	6.2828	3.9917	0.1	1160.
2021	5.8415	5.1202	0.1	573.83
2022	5.8378	4.8774	0.1	711.21
2023	4.601	2.2374	0.1	1907.7
2024	5.4876	2.7188	0.1	2245.8
2025	5.0266	2.5858	0.1	2462.6
2026	4.0272	4.1649	0.1	1329.2
2027	3.9134	4.6785	0.1	1153.3
2028	6.1007	3.2285	0.1	1535.
2029	5.7306	2.9259	0.1	1896.8
2030	4.9051	3.0127	0.1	2272.6
2031	5.8046	4.4318	0.1	1059.
2032	6.032	4.2168	0.1	1152.9
2033	4.1927	0.90669	0.1	903.17
2034	4.5977	1.4071	0.1	1078.
2035	5.8188	1.5825	0.1	1062.2
2036	4.8257	2.2099	0.1	2401.
2037	4.2653	4.4339	0.1	1219.7
2038	5.4653	3.0469	0.1	2195.8
2039	4.6031	3.682	0.1	1932.
2040	4.5838	3.9552	0.1	1732.7
2041	4.5164	0.619	0.1	650.94
2042	5.5206	3.296	0.1	2173.9
2043	5.7883	4.2067	0.1	1300.1
2044	4.8439	3.7264	0.1	2410.3
2045	4.8326	3.9631	0.1	2268.3
2046	4.5383	5.3813	0.1	633.56
2047	5.2869	3.5684	0.1	2686.9
2048	5.1073	3.6031	0.1	2794.8
2049	5.2667	5.8	0.1	142.51
2050	5.2667	5.6	0.1	208.08
2051	5.2667	5.4	0.1	252.68
2052	5.2667	5.2	0.1	349.45
2053	5.2667	5.	0.1	470.59
2054	5.2667	4.8	0.1	594.1
2055	5.2667	4.6	0.1	747.44
2056	5.2667	4.4	0.1	997.89
2057	5.2667	4.2	0.1	1583.
2058	5.2667	4.	0.1	5057.9
2059	5.1	4.	0.1	5129.
2060	5.1	4.2	0.1	1681.4
2061	5.1	4.4	0.1	1073.9
2062	5.1	4.6	0.1	819.94
2063	5.1	4.8	0.1	660.89
2064	5.1	5.	0.1	530.11
2065	5.1	5.2	0.1	446.15
2066	5.1	5.4	0.1	356.39
2067	5.1	5.6	0.1	225.97
2068	5.1	5.8	0.1	226.12
2069	5.2667	0.2	0.1	171.02
2070	5.2667	0.4	0.1	176.4
2071	5.2667	0.6	0.1	280.08
2072	5.2667	0.8	0.1	361.63
2073	5.2667	1.	0.1	444.9
2074	5.2667	1.2	0.1	571.58
2075	5.2667	1.4	0.1	735.47
2076	5.2667	1.6	0.1	995.04
2077	5.2667	1.8	0.1	1616.7
2078	5.2667	2.	0.1	5115.8
2079	5.1	2.	0.1	5075.5
2080	5.1	1.8	0.1	1583.6
2081	5.1	1.6	0.1	1031.9
2082	5.1	1.4	0.1	800.41
2083	5.1	1.2	0.1	655.75
2084	5.1	1.	0.1	548.68
2085	5.1	0.8	0.1	455.54
2086	5.1	0.6	0.1	371.23
2087	5.1	0.4	0.1	297.91
2088	5.1	0.2	0.1	191.84
2089	5.2667	6.	0.1	90.456
2090	5.6569	6.	0.1	260.71
2091	6.0472	6.	0.1	451.93
2092	6.4375	6.	0.1	579.55
2093	6.8278	6.	0.1	664.61
2094	7.2181	6.	0.1	705.56
2095	7.6083	6.	0.1	718.41
2096	7.9986	6.	0.1	712.8
2097	8.3889	6.	0.1	695.36
2098	8.7792	6.	0.1	670.96
2099	9.1694	6.	0.1	642.69
2100	9.5597	6.	0.1	612.47
2101	9.95	6.	0.1	581.49
2102	10.34	6.	0.1	550.48
2103	10.731	6.	0.1	519.85
2104	11.121	6.	0.1	489.85
2105	11.511	6.	0.1	460.62
2106	11.901	6.	0.1	432.25
2107	12.292	6.	0.1	404.77
2108	12.682	6.	0.1	378.2
2109	13.072	6.	0.1	352.56
2110	13.463	6.	0.1	327.83
2111	13.853	6.	0.1	304.03
2112	14.243	6.	0.1	281.15
2113	14.633	6.	0.1	259.19
2114	15.024	6.	0.1	238.13
2115	15.414	6.	0.1	217.99
2116	15.804	6.	0.1	198.75
2117	16.194	6.	0.1	180.41
2118	16.585	6.	0.1	162.97
2119	16.975	6.	0.1	146.43
2120	17.365	6.	0.1	130.79
2121	17.756	6.	0.1	116.04
2122	18.146	6.	0.1	102.19
2123	18.536	6.	0.1	89.232
2124	18.926	6.	0.1	77.163
2125	19.317	6.	0.1	65.984
2126	19.707	6.	0.1	55.694
2127	20.097	6.	0.1	46.291
2128	20.487	6.	0.1	37.772
2129	20.878	6.	0.1	30.134
2130	21.268	6.	0.1	23.371
2131	21.658	6.	0.1	17.482
2132	22.049	6.	0.1	12.463
2133	22.439	6.	0.1	8.2799
2134	22.829	6.	0.1	4.9315
2135	23.219	6.	0.1	2.3816
2136	23.61	6.	0.1	0.45821
2137	24.	6.	0.1	-0.1592
2138	24.	5.6	0.1	-8.281e-003
2139	24.	5.2	0.1	0.15651
2140	24.	4.8	0.1	0.20523
2141	24.	4.4	0.1	0.23776
2142	24.	4.	0.1	0.24638
2143	24.	3.6	0.1	0.24681
2144	24.	3.2	0.1	0.24429
2145	24.	2.8	0.1	0.24384
2146	24.	2.4	0.1	0.24207
2147	24.	2.	0.1	0.24008
2148	24.	1.6	0.1	0.23538
2149	24.	1.2	0.1	0.20969
2150	24.	0.8	0.1	0.16543
2151	24.	0.4	0.1	3.1096e-003
2152	3.4968e-015	0.4	0.1	1422.8
2153	6.9935e-015	0.8	0.1	1774.
2154	1.049e-014	1.2	0.1	1934.8
2155	1.3987e-014	1.6	0.1	2021.4
2156	1.7484e-014	2.	0.1	2067.3
2157	2.0981e-014	2.4	0.1	2088.9
2158	2.4477e-014	2.8	0.1	2097.1
2159	2.7974e-014	3.2	0.1	2097.3
2160	3.1471e-014	3.6	0.1	2087.4
2161	3.4968e-014	4.	0.1	2065.7
2162	3.8464e-014	4.4	0.1	2019.7
2163	4.1961e-014	4.8	0.1	1931.6
2164	4.5458e-014	5.2	0.1	1774.4
2165	4.8955e-014	5.6	0.1	1427.4
2166	24.	0.	0.1	-0.15701
2167	23.61	0.	0.1	0.454
2168	23.219	0.	0.1	2.3528
2169	22.829	0.	0.1	4.923
2170	22.439	0.	0.1	8.2872
2171	22.049	0.	0.1	12.461
2172	21.658	0.	0.1	17.501
2173	21.268	0.	0.1	23.368
2174	20.878	0.	0.1	30.125
2175	20.487	0.	0.1	37.765
2176	20.097	0.	0.1	46.287
2177	19.707	0.	0.1	55.693
2178	19.317	0.	0.1	65.985
2179	18.926	0.	0.1	77.165
2180	18.536	0.	0.1	89.234
2181	18.146	0.	0.1	102.19
2182	17.756	0.	0.1	116.05
2183	17.365	0.	0.1	130.79
2184	16.975	0.	0.1	146.43
2185	16.585	0.	0.1	162.97
2186	16.194	0.	0.1	180.41
2187	15.804	0.	0.1	198.75
2188	15.414	0.	0.1	217.99
2189	15.024	0.	0.1	238.13
2190	14.633	0.	0.1	259.18
2191	14.243	0.	0.1	281.15
2192	13.853	0.	0.1	304.03
2193	13.463	0.	0.1	327.83
2194	13.072	0.	0.1	352.55
2195	12.682	0.	0.1	378.19
2196	12.292	0.	0.1	404.76
2197	11.901	0.	0.1	432.24
2198	11.511	0.	0.1	460.61
2199	11.121	0.	0.1	489.83
2200	10.731	0.	0.1	519.82
2201	10.34	0.	0.1	550.45
2202	9.95	0.	0.1	581.46
2203	9.5597	0.	0.1	612.43
2204	9.1694	0.	0.1	642.63
2205	8.7792	0.	0.1	670.89
2206	8.3889	0.	0.1	695.27
2207	7.9986	0.	0.1	712.67
2208	7.6083	0.	0.1	718.24
2209	7.2181	0.	0.1	705.07
2210	6.8278	0.	0.1	663.13
2211	6.4375	0.	0.1	580.92
2212	6.0472	0.	0.1	444.43
2213	5.6569	0.	0.1	260.08
2214	5.2667	0.	0.1	99.374
2215	5.1	0.	0.1	110.77
2216	4.7077	2.0158e-030	0.1	351.97
2217	4.3154	1.8478e-030	0.1	631.56
2218	3.9231	1.6798e-030	0.1	859.22
2219	3.5308	1.5118e-030	0.1	1037.9
2220	3.1385	1.3438e-030	0.1	1175.7
2221	2.7462	1.1759e-030	0.1	1283.3
2222	2.3538	1.0079e-030	0.1	1369.4
2223	1.9615	8.399e-031	0.1	1438.2
2224	1.5692	6.7192e-031	0.1	1490.6
2225	1.1769	5.0394e-031	0.1	1513.8
2226	0.78462	3.3596e-031	0.1	1501.9
2227	0.39231	1.6798e-031	0.1	1271.6
2228	0.	0.	0.1	605.08
2229	3.937e-014	6.	0.1	607.88
2230	0.39231	6.	0.1	1272.4
2231	0.78462	6.	0.1	1503.2
2232	1.1769	6.	0.1	1515.2
2233	1.5692	6.	0.1	1491.3
2234	1.9615	6.	0.1	1438.6
2235	2.3538	6.	0.1	1369.9
2236	2.7462	6.	0.1	1284.
2237	3.1385	6.	0.1	1176.5
2238	3.5308	6.	0.1	1038.3
2239	3.9231	6.	0.1	860.07
2240	4.3154	6.	0.1	626.87
2241	4.7077	6.	0.1	356.15
2242	5.1	6.	0.1	138.7
2243	4.7077	6.	0.	10.921
2244	4.3154	6.	0.	21.498
2245	3.9231	6.	0.	16.472
2246	3.5308	6.	0.	10.515
2247	3.1385	6.	0.	4.3289
2248	2.7462	6.	0.	-0.19292
2249	2.3538	6.	0.	-1.4628
2250	1.9615	6.	0.	-2.0228
2251	1.5692	6.	0.	-4.0475
2252	1.1769	6.	0.	0.40037
2253	0.78462	6.	0.	5.926
2254	0.39231	6.	0.	97.189
2255	5.1	6.	0.	-15.94
2256	3.937e-014	6.	0.	25.135
2257	0.39231	1.6798e-031	0.	98.823
2258	0.78462	3.3596e-031	0.	7.6184
2259	1.1769	5.0394e-031	0.	1.0671
2260	1.5692	6.7192e-031	0.	-3.8905
2261	1.9615	8.399e-031	0.	-1.8132
2262	2.3538	1.0079e-030	0.	-1.3379
2263	2.7462	1.1759e-030	0.	-7.6302e-002
2264	3.1385	1.3438e-030	0.	4.0676
2265	3.5308	1.5118e-030	0.	10.105
2266	3.9231	1.6798e-030	0.	15.907
2267	4.3154	1.8478e-030	0.	13.522
2268	4.7077	2.0158e-030	0.	-1.7653
2269	5.1	0.	0.	-10.74
2270	0.	0.	0.	25.178
2271	5.6569	0.	0.	8.3769
2272	6.0472	0.	0.	17.56
2273	6.4375	0.	0.	14.365
2274	6.8278	0.	0.	11.146
2275	7.2181	0.	0.	7.9018
2276	7.6083	0.	0.	5.2518
2277	7.9986	0.	0.	3.4151
2278	8.3889	0.	0.	2.2595
2279	8.7792	0.	0.	1.6887
2280	9.1694	0.	0.	1.5096
2281	9.5597	0.	0.	1.5893
2282	9.95	0.	0.	1.8245
2283	10.34	0.	0.	2.1447
2284	10.731	0.	0.	2.502
2285	11.121	0.	0.	2.8654
2286	11.511	0.	0.	3.2158
2287	11.901	0.	0.	3.5427
2288	12.292	0.	0.	3.8408
2289	12.682	0.	0.	4.1083
2290	13.072	0.	0.	4.3455
2291	13.463	0.	0.	4.5541
2292	13.853	0.	0.	4.7363
2293	14.243	0.	0.	4.8946
2294	14.633	0.	0.	5.0314
2295	15.024	0.	0.	5.1491
2296	15.414	0.	0.	5.25
2297	15.804	0.	0.	5.3358
2298	16.194	0.	0.	5.4084
2299	16.585	0.	0.	5.4691
2300	16.975	0.	0.	5.5192
2301	17.365	0.	0.	5.5597
2302	17.756	0.	0.	5.5911
2303	18.146	0.	0.	5.614
2304	18.536	0.	0.	5.6286
2305	18.926	0.	0.	5.6346
2306	19.317	0.	0.	5.6316
2307	19.707	0.	0.	5.6185
2308	20.097	0.	0.	5.5929
2309	20.487	0.	0.	5.5539
2310	20.878	0.	0.	5.5053
2311	21.268	0.	0.	5.4121
2312	21.658	0.	0.	5.3173
2313	22.049	0.	0.	5.1734
2314	22.439	0.	0.	4.9557
2315	22.829	0.	0.	4.566
2316	23.219	0.	0.	3.8984
2317	23.61	0.	0.	2.7589
2318	5.2667	0.	0.	-11.732
2319	24.	0.	0.	1.3328
2320	4.8955e-014	5.6	0.	-696.29
2321	4.5458e-014	5.2	0.	-873.17
2322	4.1961e-014	4.8	0.	-950.39
2323	3.8464e-014	4.4	0.	-994.55
2324	3.4968e-014	4.	0.	-1017.5
2325	3.1471e-014	3.6	0.	-1028.2
2326	2.7974e-014	3.2	0.	-1033.
2327	2.4477e-014	2.8	0.	-1033.
2328	2.0981e-014	2.4	0.	-1028.9
2329	1.7484e-014	2.	0.	-1018.2
2330	1.3987e-014	1.6	0.	-995.48
2331	1.049e-014	1.2	0.	-952.1
2332	6.9935e-015	0.8	0.	-873.1
2333	3.4968e-015	0.4	0.	-693.94
2334	24.	0.4	0.	3.4575
2335	24.	0.8	0.	6.0369
2336	24.	1.2	0.	8.1463
2337	24.	1.6	0.	9.8153
2338	24.	2.	0.	11.069
2339	24.	2.4	0.	11.901
2340	24.	2.8	0.	12.316
2341	24.	3.2	0.	12.315
2342	24.	3.6	0.	11.897
2343	24.	4.	0.	11.065
2344	24.	4.4	0.	9.8125
2345	24.	4.8	0.	8.1534
2346	24.	5.2	0.	6.046
2347	24.	5.6	0.	3.4694
2348	24.	6.	0.	1.3341
2349	23.61	6.	0.	2.74
2350	23.219	6.	0.	3.8174
2351	22.829	6.	0.	4.4918
2352	22.439	6.	0.	4.8671
2353	22.049	6.	0.	5.1174
2354	21.658	6.	0.	5.2848
2355	21.268	6.	0.	5.4084
2356	20.878	6.	0.	5.4937
2357	20.487	6.	0.	5.5525
2358	20.097	6.	0.	5.5926
2359	19.707	6.	0.	5.6178
2360	19.317	6.	0.	5.631
2361	18.926	6.	0.	5.6342
2362	18.536	6.	0.	5.6282
2363	18.146	6.	0.	5.6138
2364	17.756	6.	0.	5.5909
2365	17.365	6.	0.	5.5595
2366	16.975	6.	0.	5.5191
2367	16.585	6.	0.	5.469
2368	16.194	6.	0.	5.4083
2369	15.804	6.	0.	5.3357
2370	15.414	6.	0.	5.2498
2371	15.024	6.	0.	5.1489
2372	14.633	6.	0.	5.0312
2373	14.243	6.	0.	4.8943
2374	13.853	6.	0.	4.736
2375	13.463	6.	0.	4.5537
2376	13.072	6.	0.	4.345
2377	12.682	6.	0.	4.1077
2378	12.292	6.	0.	3.8401
2379	11.901	6.	0.	3.5419
2380	11.511	6.	0.	3.2149
2381	11.121	6.	0.	2.8643
2382	10.731	6.	0.	2.501
2383	10.34	6.	0.	2.1439
2384	9.95	6.	0.	1.8241
2385	9.5597	6.	0.	1.5893
2386	9.1694	6.	0.	1.5101
2387	8.7792	6.	0.	1.6907
2388	8.3889	6.	0.	2.2612
2389	7.9986	6.	0.	3.4223
2390	7.6083	6.	0.	5.2942
2391	7.2181	6.	0.	7.6349
2392	6.8278	6.	0.	11.024
2393	6.4375	6.	0.	13.376
2394	6.0472	6.	0.	16.386
2395	5.6569	6.	0.	-0.77881
2396	5.2667	6.	0.	-2.9325
2397	5.1	1.8	0.	1401.8
2398	5.1	1.6	0.	696.04
2399	5.1	1.4	0.	512.01
2400	5.1	1.2	0.	372.27
2401	5.1	1.	0.	269.99
2402	5.1	0.8	0.	186.19
2403	5.1	0.6	0.	114.08
2404	5.1	0.4	0.	34.187
2405	5.1	0.2	0.	-11.493
2406	5.1	2.	0.	968.03
2407	5.2667	0.2	0.	-8.5638
2408	5.2667	0.4	0.	40.749
2409	5.2667	0.6	0.	82.739
2410	5.2667	0.8	0.	135.14
2411	5.2667	1.	0.	190.22
2412	5.2667	1.2	0.	267.21
2413	5.2667	1.4	0.	369.76
2414	5.2667	1.6	0.	478.98
2415	5.2667	1.8	0.	1076.3
2416	5.2667	2.	0.	503.03
2417	5.1	4.2	0.	1406.8
2418	5.1	4.4	0.	690.28
2419	5.1	4.6	0.	517.44
2420	5.1	4.8	0.	376.32
2421	5.1	5.	0.	269.24
2422	5.1	5.2	0.	189.98
2423	5.1	5.4	0.	116.72
2424	5.1	5.6	0.	54.56
2425	5.1	5.8	0.	-11.304
2426	5.1	4.	0.	889.32
2427	5.2667	5.8	0.	-8.948
2428	5.2667	5.6	0.	38.325
2429	5.2667	5.4	0.	98.4
2430	5.2667	5.2	0.	137.58
2431	5.2667	5.	0.	195.52
2432	5.2667	4.8	0.	270.36
2433	5.2667	4.6	0.	372.55
2434	5.2667	4.4	0.	493.12
2435	5.2667	4.2	0.	1073.5
2436	5.2667	4.	0.	565.68
2437	5.1971	3.5857	0.	270.58
2438	5.0829	3.6882	0.	386.66
2439	5.0325	3.5322	0.	259.64
2440	5.1073	3.6031	5.e-002	31.553
2441	5.2962	3.6789	0.	325.56
2442	5.4184	3.5517	0.	188.9
2443	5.2702	3.4635	0.	225.14
2444	5.2869	3.5684	5.e-002	12.539
2445	4.6029	5.5407	0.	46.932
2446	4.6806	5.3868	0.	79.048
2447	4.3789	5.3673	0.	48.708
2448	4.5446	5.2673	0.	95.084
2449	4.5383	5.3813	5.e-002	16.733
2450	4.8383	3.8448	0.	263.5
2451	4.7082	3.9592	0.	243.1
2452	4.8321	4.0759	0.	520.92
2453	4.8326	3.9631	5.e-002	114.78
2454	4.9663	3.9816	0.	573.68
2455	4.7235	3.7042	0.	149.97
2456	4.9512	3.7498	0.	343.52
2457	4.9008	3.5938	0.	212.87
2458	4.8439	3.7264	5.e-002	65.369
2459	5.9101	4.2117	0.	67.136
2460	5.7964	4.3193	0.	143.9
2461	5.6608	4.2063	0.	286.98
2462	5.7902	4.0979	0.	76.987
2463	5.7883	4.2067	5.e-002	22.954
2464	5.493	3.1714	0.	130.48
2465	5.5353	3.4155	0.	119.46
2466	5.3871	3.3273	0.	155.51
2467	5.6571	3.2692	0.	79.593
2468	5.5206	3.296	5.e-002	23.558
2469	4.6654	0.60634	0.	93.271
2470	4.5239	0.53172	0.	71.378
2471	4.5312	0.71859	0.	95.9
2472	4.3649	0.63012	0.	53.492
2473	4.5164	0.619	5.e-002	24.703
2474	4.5935	3.8186	0.	108.79
2475	4.5739	4.0719	0.	193.28
2476	4.4571	3.947	0.	84.72
2477	4.5838	3.9552	5.e-002	20.987
2478	4.6433	3.5613	0.	75.975
2479	4.4762	3.6714	0.	27.175
2480	4.6031	3.682	5.e-002	26.257
2481	5.598	2.9864	0.	79.656
2482	5.4215	2.9523	0.	132.8
2483	5.353	3.1017	0.	166.02
2484	5.4653	3.0469	5.e-002	20.981
2485	4.4039	4.4261	0.	184.61
2486	4.2473	4.5623	0.	97.372
2487	4.2782	4.3089	0.	85.135
2488	4.1274	4.4284	0.	54.571
2489	4.2653	4.4339	5.e-002	7.9652
2490	4.7134	2.2237	0.	137.28
2491	4.8332	2.1079	0.	275.72
2492	4.9431	2.2096	0.	316.32
2493	4.823	2.3173	0.	173.52
2494	4.8257	2.2099	5.e-002	71.223
2495	5.6794	1.5884	0.	299.3
2496	5.825	1.4695	0.	151.3
2497	5.8121	1.7007	0.	130.6
2498	5.9526	1.5743	0.	91.509
2499	5.8188	1.5825	5.e-002	14.261
2500	4.4621	1.4045	0.	213.29
2501	4.7239	1.4043	0.	417.24
2502	4.599	1.3098	0.	275.72
2503	4.5934	1.5037	0.	308.09
2504	4.5977	1.4071	5.e-002	18.094
2505	4.3693	0.86243	0.	83.356
2506	4.2031	0.77397	0.	52.25
2507	4.235	1.0069	0.	93.818
2508	4.0282	0.96265	0.	47.195
2509	4.1927	0.90669	5.e-002	18.714
2510	6.0541	4.3298	0.	27.434
2511	6.0402	4.0943	0.	1.9045
2512	6.1405	4.2107	0.	4.1375
2513	6.032	4.2168	5.e-002	10.338
2514	5.6717	4.4239	0.	302.1
2515	5.8128	4.5402	0.	154.33
2516	5.9404	4.4374	0.	97.174
2517	5.8046	4.4318	5.e-002	15.049
2518	4.834	3.1022	0.	122.97
2519	4.8745	2.9272	0.	141.23
2520	4.9716	2.9503	0.	170.73
2521	4.9781	3.034	0.	177.36
2522	4.9051	3.0127	5.e-002	16.201
2523	5.6091	2.8223	0.	78.285
2524	5.8811	2.9506	0.	5.3181e-002
2525	5.7582	2.7673	0.	19.719
2526	5.7621	3.0842	0.	24.098
2527	5.7306	2.9259	5.e-002	7.0475
2528	6.0662	3.102	0.	2.0269e-002
2529	6.1154	3.3463	0.	1.8549
2530	5.9471	3.2355	0.	3.5714
2531	6.2896	3.1752	0.	-1.1387
2532	6.1007	3.2285	5.e-002	26.247
2533	4.0713	4.6846	0.	53.017
2534	3.891	4.8256	0.	21.621
2535	3.7183	4.6096	0.	1.9776
2536	3.9514	4.5507	0.	15.706
2537	3.9134	4.6785	5.e-002	11.519
2538	4.0436	4.0419	0.	1.2946
2539	4.1592	4.1744	0.	27.655
2540	4.0083	4.2939	0.	7.5057
2541	3.8808	4.1546	0.	1.9764
2542	4.0272	4.1649	5.e-002	8.2665
2543	5.0322	2.4939	0.	244.84
2544	5.1346	2.5867	0.	216.65
2545	4.9234	2.6097	0.	173.16
2546	5.0185	2.6691	0.	201.81
2547	5.0266	2.5858	5.e-002	14.967
2548	5.5147	2.619	0.	125.24
2549	5.3651	2.6532	0.	180.81
2550	5.4326	2.7883	0.	132.4
2551	5.4876	2.7188	5.e-002	24.924
2552	4.6023	2.3515	0.	61.671
2553	4.6013	2.1284	0.	123.2
2554	4.4886	2.2676	0.	36.516
2555	4.601	2.2374	5.e-002	23.319
2556	5.8397	4.9988	0.	101.09
2557	5.9753	4.8894	0.	80.851
2558	5.6962	4.8583	0.	182.83
2559	5.8294	4.763	0.	134.24
2560	5.8378	4.8774	5.e-002	12.457
2561	5.8042	5.2443	0.	78.128
2562	5.6979	5.0842	0.	125.2
2563	5.9935	5.1784	0.	50.646
2564	5.8415	5.1202	5.e-002	7.6792
2565	6.3914	4.003	0.	-0.8467
2566	6.1656	3.9818	0.	-1.6092
2567	6.2659	4.0982	0.	-0.96705
2568	6.3321	3.8508	0.	0.58453
2569	6.2828	3.9917	5.e-002	9.3674
2570	4.6127	3.1978	0.	37.53
2571	4.7232	3.3161	0.	81.881
2572	4.7162	3.0608	0.	81.399
2573	4.9058	3.2039	0.	133.92
2574	4.7628	3.1917	5.e-002	20.107
2575	4.0715	3.7883	0.	9.8753e-002
2576	4.1952	3.9289	0.	-1.1227e-002
2577	3.9133	3.8988	0.	-3.8739
2578	4.06	3.9188	5.e-002	5.7903
2579	4.2162	3.6593	0.	-0.57626
2580	4.0792	3.5314	0.	-1.3023
2581	3.9727	3.6672	0.	1.5206
2582	4.0831	3.6579	5.e-002	14.993
2583	6.1498	2.9505	0.	-4.2737
2584	6.0313	2.8097	0.	0.98116
2585	6.0317	2.9754	5.e-002	22.247
2586	6.2842	2.8058	0.	-7.0108
2587	6.3732	3.0238	0.	-5.2364
2588	6.268	2.9257	5.e-002	13.093
2589	2.9398	5.2562	0.	1.1848
2590	3.1333	5.4434	0.	1.3658
2591	3.3201	5.2656	0.	1.9668
2592	3.1304	5.074	0.	1.2299
2593	3.1334	5.2581	5.e-002	8.7902
2594	2.55	5.2544	0.	0.73424
2595	2.7462	5.4408	0.	0.70084
2596	2.7462	5.068	0.	0.67827
2597	2.7462	5.2544	5.e-002	7.5472
2598	2.1533	5.2515	0.	1.2268
2599	2.3538	5.4408	0.	0.29495
2600	2.3538	5.068	0.	0.71183
2601	2.3538	5.2544	5.e-002	6.9521
2602	1.7533	5.2417	0.	0.20912
2603	1.955	5.4355	0.	1.0312
2604	1.95	5.0585	0.	1.8191
2605	1.9528	5.2485	5.e-002	6.876
2606	1.3548	5.2263	0.	7.3857
2607	1.5568	5.4255	0.	-1.9295
2608	1.5512	5.0394	0.	-2.0186
2609	1.5538	5.2348	5.e-002	7.7917
2610	1.1611	5.4133	0.	12.12
2611	0.96003	5.2119	0.	-18.193
2612	1.1525	5.019	0.	15.739
2613	1.1558	5.2178	5.e-002	9.8271
2614	0.97013	0.77269	0.	-18.875
2615	0.77377	0.97666	0.	-58.179
2616	0.77479	0.58329	0.	-44.836
2617	0.57926	0.78362	0.	95.831
2618	0.77215	0.77712	5.e-002	13.982
2619	1.3654	0.76164	0.	7.1201
2620	1.1698	0.57448	0.	12.13
2621	1.1664	0.96331	0.	15.637
2622	1.1681	0.76827	5.e-002	9.4989
2623	1.7621	0.75031	0.	0.25456
2624	1.5641	0.56511	0.	-1.8519
2625	1.5603	0.95148	0.	-2.2643
2626	1.5628	0.75502	5.e-002	7.8425
2627	2.1577	0.74559	0.	1.3393
2628	1.9615	0.55919	0.	1.0617
2629	1.9572	0.94189	0.	1.5822
2630	1.9615	0.74559	5.e-002	7.0776
2631	2.55	0.74559	0.	0.89294
2632	2.3538	0.55919	0.	0.25679
2633	2.3495	0.93764	0.	0.32327
2634	2.3538	0.74559	5.e-002	7.043
2635	2.7462	0.55919	0.	0.75789
2636	2.9388	0.74434	0.	1.1127
2637	2.7457	0.93439	0.	1.0647
2638	2.7462	0.74559	5.e-002	7.6325
2639	7.0332	0.73853	0.	11.836
2640	6.8421	0.5486	0.	17.578
2641	6.6607	0.71792	0.	21.324
2642	6.8448	0.90803	0.	10.158
2643	6.8433	0.73299	5.e-002	4.0482
2644	7.4157	0.74483	0.	4.4604
2645	7.2236	0.557	0.	9.9034
2646	7.2238	0.92775	0.	2.1348
2647	7.2232	0.74407	5.e-002	1.6001
2648	7.8035	0.74559	0.	0.68872
2649	7.6083	0.55919	0.	4.0093
2650	7.6083	0.93199	0.	0.49907
2651	7.6083	0.74559	5.e-002	1.3713
2652	8.1938	0.74559	0.	0.14388
2653	7.9986	0.55919	0.	0.57739
2654	7.9986	0.93199	0.	0.17788
2655	7.9986	0.74559	5.e-002	1.7721
2656	8.584	0.74559	0.	5.7995e-002
2657	8.3889	0.55919	0.	0.14331
2658	8.3889	0.93199	0.	5.2638e-002
2659	8.3889	0.74559	5.e-002	2.1812
2660	8.9743	0.74559	0.	1.2429e-002
2661	8.7792	0.55919	0.	3.3112e-002
2662	8.7792	0.93199	0.	1.7102e-002
2663	8.7792	0.74559	5.e-002	2.404
2664	9.3646	0.74559	0.	-6.5585e-003
2665	9.1694	0.55919	0.	-1.1358e-002
2666	9.1694	0.93199	0.	-1.2818e-002
2667	9.1694	0.74559	5.e-002	2.5048
2668	9.7549	0.74559	0.	-1.81e-002
2669	9.5597	0.55919	0.	-3.4666e-002
2670	9.5597	0.93199	0.	-2.0452e-002
2671	9.5597	0.74559	5.e-002	2.5298
2672	10.145	0.74559	0.	-2.5629e-002
2673	9.95	0.55919	0.	-4.5365e-002
2674	9.95	0.93199	0.	-2.7479e-002
2675	9.95	0.74559	5.e-002	2.5093
2676	10.535	0.74559	0.	-3.1508e-002
2677	10.34	0.55919	0.	-4.9833e-002
2678	10.34	0.93199	0.	-3.1463e-002
2679	10.34	0.74559	5.e-002	2.4631
2680	10.926	0.74559	0.	-3.4837e-002
2681	10.731	0.55919	0.	8.5803e-002
2682	10.731	0.93199	0.	-3.4512e-002
2683	10.731	0.74559	5.e-002	2.4027
2684	11.316	0.74559	0.	0.63058
2685	11.121	0.55919	0.	1.0882
2686	11.121	0.93199	0.	-3.5597e-002
2687	11.121	0.74559	5.e-002	2.3348
2688	11.706	0.74559	0.	1.7463
2689	11.511	0.55919	0.	2.0271
2690	11.511	0.93199	0.	0.4204
2691	11.511	0.74559	5.e-002	2.2632
2692	12.097	0.74559	0.	2.7475
2693	11.901	0.55919	0.	2.8824
2694	11.901	0.93199	0.	1.6935
2695	11.901	0.74559	5.e-002	2.1901
2696	12.487	0.74559	0.	3.6317
2697	12.292	0.55919	0.	3.6468
2698	12.292	0.93199	0.	2.8174
2699	12.292	0.74559	5.e-002	2.1167
2700	12.877	0.74559	0.	4.404
2701	12.682	0.55919	0.	4.3206
2702	12.682	0.93199	0.	3.7965
2703	12.682	0.74559	5.e-002	2.0434
2704	13.267	0.74559	0.	5.0731
2705	13.072	0.55919	0.	4.9086
2706	13.072	0.93199	0.	4.6428
2707	13.072	0.74559	5.e-002	1.9705
2708	13.658	0.74559	0.	5.649
2709	13.463	0.55919	0.	5.4178
2710	13.463	0.93199	0.	5.37
2711	13.463	0.74559	5.e-002	1.8981
2712	14.048	0.74559	0.	6.1425
2713	13.853	0.55919	0.	5.8562
2714	13.853	0.93199	0.	5.9922
2715	13.853	0.74559	5.e-002	1.8263
2716	14.438	0.74559	0.	6.5634
2717	14.243	0.55919	0.	6.2317
2718	14.243	0.93199	0.	6.5226
2719	14.243	0.74559	5.e-002	1.755
2720	14.828	0.74559	0.	6.9212
2721	14.633	0.55919	0.	6.5521
2722	14.633	0.93199	0.	6.9734
2723	14.633	0.74559	5.e-002	1.6841
2724	15.219	0.74559	0.	7.2242
2725	15.024	0.55919	0.	6.8242
2726	15.024	0.93199	0.	7.3552
2727	15.024	0.74559	5.e-002	1.6136
2728	15.609	0.74559	0.	7.4798
2729	15.414	0.55919	0.	7.0542
2730	15.414	0.93199	0.	7.6778
2731	15.414	0.74559	5.e-002	1.5433
2732	15.999	0.74559	0.	7.6942
2733	15.804	0.55919	0.	7.2477
2734	15.804	0.93199	0.	7.9493
2735	15.804	0.74559	5.e-002	1.4734
2736	16.39	0.74559	0.	7.873
2737	16.194	0.55919	0.	7.4093
2738	16.194	0.93199	0.	8.1768
2739	16.194	0.74559	5.e-002	1.4037
2740	16.78	0.74559	0.	8.0207
2741	16.585	0.55919	0.	7.543
2742	16.585	0.93199	0.	8.3662
2743	16.585	0.74559	5.e-002	1.3343
2744	17.17	0.74559	0.	8.1411
2745	16.975	0.55919	0.	7.6519
2746	16.975	0.93199	0.	8.5226
2747	16.975	0.74559	5.e-002	1.265
2748	17.56	0.74559	0.	8.2372
2749	17.365	0.55919	0.	7.7389
2750	17.365	0.93199	0.	8.6501
2751	17.365	0.74559	5.e-002	1.1959
2752	17.951	0.74559	0.	8.3113
2753	17.756	0.55919	0.	7.8058
2754	17.756	0.93199	0.	8.752
2755	17.756	0.74559	5.e-002	1.127
2756	18.341	0.74559	0.	8.365
2757	18.146	0.55919	0.	7.8541
2758	18.146	0.93199	0.	8.8308
2759	18.146	0.74559	5.e-002	1.0583
2760	18.731	0.74559	0.	8.3994
2761	18.536	0.55919	0.	7.8846
2762	18.536	0.93199	0.	8.8883
2763	18.536	0.74559	5.e-002	0.9898
2764	19.122	0.74559	0.	8.4145
2765	18.926	0.55919	0.	7.8974
2766	18.926	0.93199	0.	8.9254
2767	18.926	0.74559	5.e-002	0.92147
2768	19.512	0.74559	0.	8.4096
2769	19.317	0.55919	0.	7.8917
2770	19.317	0.93199	0.	8.9426
2771	19.317	0.74559	5.e-002	0.85352
2772	19.902	0.74559	0.	8.3828
2773	19.707	0.55919	0.	7.8662
2774	19.707	0.93199	0.	8.9387
2775	19.707	0.74559	5.e-002	0.78573
2776	20.292	0.74559	0.	8.3333
2777	20.097	0.55919	0.	7.8176
2778	20.097	0.93199	0.	8.9123
2779	20.097	0.74559	5.e-002	0.71737
2780	20.683	0.74559	0.	8.2613
2781	20.487	0.55919	0.	7.7447
2782	20.487	0.93199	0.	8.867
2783	20.487	0.74559	5.e-002	0.65047
2784	21.075	0.74731	0.	8.1498
2785	20.878	0.55919	0.	7.6414
2786	20.878	0.93199	0.	8.8002
2787	20.878	0.74559	5.e-002	0.58948
2788	21.47	0.75319	0.	8.0066
2789	21.271	0.5624	0.	7.4937
2790	21.276	0.93891	0.	8.6856
2791	21.272	0.74902	5.e-002	0.51649
2792	21.867	0.76075	0.	7.8181
2793	21.665	0.56673	0.	7.2979
2794	21.674	0.95199	0.	8.5686
2795	21.669	0.75736	5.e-002	0.44335
2796	22.264	0.77475	0.	7.5882
2797	22.059	0.57383	0.	7.0372
2798	22.071	0.96354	0.	8.3846
2799	22.065	0.76414	5.e-002	0.3726
2800	22.659	0.78664	0.	7.2693
2801	22.456	0.58824	0.	6.7155
2802	22.468	0.98383	0.	8.1914
2803	22.464	0.78536	5.e-002	0.31202
2804	22.846	0.59217	0.	6.2426
2805	23.046	0.79179	0.	6.8601
2806	22.857	0.98923	0.	7.8828
2807	22.853	0.78792	5.e-002	0.26495
2808	0.75633	4.6062	0.	-62.412
2809	0.56491	4.8043	0.	99.051
2810	0.7578	5.0055	0.	-56.975
2811	0.9503	4.8127	0.	-22.954
2812	0.75135	4.8051	5.e-002	12.371
2813	0.75872	4.2073	0.	-64.488
2814	0.56997	4.4048	0.	103.09
2815	0.95692	4.4159	0.	-24.162
2816	0.76131	4.4074	5.e-002	12.134
2817	0.75281	3.8066	0.	-65.671
2818	0.56705	4.0051	0.	105.15
2819	0.9503	4.0134	0.	-25.404
2820	0.75614	4.0072	5.e-002	12.226
2821	0.74753	3.4029	0.	-66.441
2822	0.56114	3.6029	0.	105.82
2823	0.93951	3.6104	0.	-25.449
2824	0.74948	3.6059	5.e-002	12.009
2825	0.74559	3.	0.	-66.764
2826	0.55919	3.2	0.	106.58
2827	0.93254	3.2038	0.	-25.333
2828	0.74559	3.2	5.e-002	11.827
2829	0.74919	2.5936	0.	-66.232
2830	0.55919	2.8	0.	106.53
2831	0.93199	2.8	0.	-25.72
2832	0.74559	2.8	5.e-002	11.828
2833	0.75922	2.1829	0.	-65.851
2834	0.56468	2.3916	0.	105.94
2835	0.94155	2.3831	0.	-25.417
2836	0.75279	2.3872	5.e-002	12.022
2837	0.76811	1.7771	0.	-65.139
2838	0.57406	1.985	0.	104.95
2839	0.95653	1.9732	0.	-25.326
2840	0.76564	1.9785	5.e-002	12.139
2841	0.77298	1.376	0.	-63.605
2842	0.57727	1.5844	0.	103.36
2843	0.96539	1.5677	0.	-24.78
2844	0.77057	1.5757	5.e-002	12.338
2845	0.58104	1.1848	0.	97.556
2846	0.97005	1.1673	0.	-23.587
2847	0.77539	1.1762	5.e-002	12.562
2848	23.252	1.3983	0.	9.3407
2849	23.437	1.1967	0.	8.4536
2850	23.244	0.99613	0.	7.5769
2851	23.056	1.1936	0.	8.6622
2852	23.25	1.1966	5.e-002	0.20544
2853	23.254	1.8	0.	10.757
2854	23.441	1.6	0.	10.09
2855	23.061	1.5954	0.	10.209
2856	23.254	1.6	5.e-002	0.18816
2857	23.254	2.2	0.	11.779
2858	23.441	2.	0.	11.323
2859	23.065	1.9986	0.	11.408
2860	23.254	2.	5.e-002	0.17543
2861	23.254	2.6	0.	12.404
2862	23.441	2.4	0.	12.148
2863	23.066	2.3974	0.	12.212
2864	23.254	2.4	5.e-002	0.16228
2865	23.254	3.	0.	12.604
2866	23.441	2.8	0.	12.568
2867	23.068	2.8	0.	12.649
2868	23.254	2.8	5.e-002	0.1559
2869	23.251	3.4045	0.	12.373
2870	23.441	3.2	0.	12.556
2871	23.063	3.2044	0.	12.655
2872	23.254	3.2	5.e-002	0.15321
2873	23.241	3.8151	0.	11.725
2874	23.435	3.6065	0.	12.123
2875	23.048	3.6141	0.	12.147
2876	23.247	3.609	5.e-002	0.16854
2877	23.233	4.2229	0.	10.687
2878	23.426	4.0147	0.	11.276
2879	23.038	4.025	0.	11.36
2880	23.235	4.0211	5.e-002	0.17573
2881	23.228	4.6261	0.	9.2668
2882	23.423	4.4164	0.	10.042
2883	23.035	4.434	0.	10.138
2884	23.231	4.4247	5.e-002	0.18532
2885	23.418	4.8196	0.	8.4016
2886	23.225	5.0248	0.	7.4987
2887	23.032	4.8356	0.	8.5697
2888	23.225	4.8275	5.e-002	0.20649
2889	22.64	5.2415	0.	7.1685
2890	22.834	5.4274	0.	6.1913
2891	23.03	5.2292	0.	6.7789
2892	22.837	5.04	0.	7.7871
2893	22.835	5.2363	5.e-002	0.26274
2894	22.246	5.2505	0.	7.5064
2895	22.443	5.4346	0.	6.6512
2896	22.446	5.0518	0.	8.0684
2897	22.444	5.2466	5.e-002	0.3193
2898	21.853	5.2544	0.	7.7728
2899	22.049	5.4408	0.	7.0098
2900	22.052	5.0612	0.	8.3132
2901	22.049	5.2544	5.e-002	0.38618
2902	21.463	5.2544	0.	7.9814
2903	21.658	5.4408	0.	7.282
2904	21.661	5.0656	0.	8.5054
2905	21.658	5.2544	5.e-002	0.45331
2906	21.073	5.2544	0.	8.1396
2907	21.268	5.4408	0.	7.4862
2908	21.268	5.068	0.	8.6658
2909	21.268	5.2544	5.e-002	0.52026
2910	20.683	5.2544	0.	8.2535
2911	20.878	5.4408	0.	7.6351
2912	20.878	5.068	0.	8.7816
2913	20.878	5.2544	5.e-002	0.58483
2914	20.292	5.2544	0.	8.333
2915	20.487	5.4408	0.	7.7434
2916	20.487	5.068	0.	8.8627
2917	20.487	5.2544	5.e-002	0.65053
2918	19.902	5.2544	0.	8.3836
2919	20.097	5.4408	0.	7.8182
2920	20.097	5.068	0.	8.9139
2921	20.097	5.2544	5.e-002	0.71775
2922	19.512	5.2544	0.	8.4097
2923	19.707	5.4408	0.	7.8661
2924	19.707	5.068	0.	8.9395
2925	19.707	5.2544	5.e-002	0.78546
2926	19.122	5.2544	0.	8.4145
2927	19.317	5.4408	0.	7.8915
2928	19.317	5.068	0.	8.9429
2929	19.317	5.2544	5.e-002	0.85337
2930	18.731	5.2544	0.	8.3994
2931	18.926	5.4408	0.	7.8971
2932	18.926	5.068	0.	8.9259
2933	18.926	5.2544	5.e-002	0.9215
2934	18.341	5.2544	0.	8.3652
2935	18.536	5.4408	0.	7.8845
2936	18.536	5.068	0.	8.8887
2937	18.536	5.2544	5.e-002	0.98983
2938	17.951	5.2544	0.	8.3115
2939	18.146	5.4408	0.	7.8541
2940	18.146	5.068	0.	8.8312
2941	18.146	5.2544	5.e-002	1.0583
2942	17.56	5.2544	0.	8.2374
2943	17.756	5.4408	0.	7.8058
2944	17.756	5.068	0.	8.7524
2945	17.756	5.2544	5.e-002	1.1271
2946	17.17	5.2544	0.	8.1413
2947	17.365	5.4408	0.	7.7389
2948	17.365	5.068	0.	8.6505
2949	17.365	5.2544	5.e-002	1.1959
2950	16.78	5.2544	0.	8.0208
2951	16.975	5.4408	0.	7.652
2952	16.975	5.068	0.	8.5229
2953	16.975	5.2544	5.e-002	1.265
2954	16.39	5.2544	0.	7.8731
2955	16.585	5.4408	0.	7.5429
2956	16.585	5.068	0.	8.3664
2957	16.585	5.2544	5.e-002	1.3343
2958	15.999	5.2544	0.	7.6942
2959	16.194	5.4408	0.	7.4092
2960	16.194	5.068	0.	8.1768
2961	16.194	5.2544	5.e-002	1.4038
2962	15.609	5.2544	0.	7.4796
2963	15.804	5.4408	0.	7.2476
2964	15.804	5.068	0.	7.9492
2965	15.804	5.2544	5.e-002	1.4734
2966	15.219	5.2544	0.	7.224
2967	15.414	5.4408	0.	7.054
2968	15.414	5.068	0.	7.6776
2969	15.414	5.2544	5.e-002	1.5434
2970	14.828	5.2544	0.	6.9208
2971	15.024	5.4408	0.	6.8238
2972	15.024	5.068	0.	7.3549
2973	15.024	5.2544	5.e-002	1.6136
2974	14.438	5.2544	0.	6.5629
2975	14.633	5.4408	0.	6.5516
2976	14.633	5.068	0.	6.9729
2977	14.633	5.2544	5.e-002	1.6841
2978	14.048	5.2544	0.	6.1418
2979	14.243	5.4408	0.	6.2312
2980	14.243	5.068	0.	6.522
2981	14.243	5.2544	5.e-002	1.755
2982	13.658	5.2544	0.	5.6481
2983	13.853	5.4408	0.	5.8555
2984	13.853	5.068	0.	5.9914
2985	13.853	5.2544	5.e-002	1.8264
2986	13.267	5.2544	0.	5.0719
2987	13.463	5.4408	0.	5.4169
2988	13.463	5.068	0.	5.369
2989	13.463	5.2544	5.e-002	1.8982
2990	12.877	5.2544	0.	4.4026
2991	13.072	5.4408	0.	4.9075
2992	13.072	5.068	0.	4.6414
2993	13.072	5.2544	5.e-002	1.9706
2994	12.487	5.2544	0.	3.63
2995	12.682	5.4408	0.	4.3192
2996	12.682	5.068	0.	3.7949
2997	12.682	5.2544	5.e-002	2.0435
2998	12.097	5.2544	0.	2.7454
2999	12.292	5.4408	0.	3.6452
3000	12.292	5.068	0.	2.8154
3001	12.292	5.2544	5.e-002	2.1168
3002	11.706	5.2544	0.	1.7439
3003	11.901	5.4408	0.	2.8805
3004	11.901	5.068	0.	1.6911
3005	11.901	5.2544	5.e-002	2.1903
3006	11.316	5.2544	0.	0.62798
3007	11.511	5.4408	0.	2.0249
3008	11.511	5.068	0.	0.41767
3009	11.511	5.2544	5.e-002	2.2635
3010	10.926	5.2544	0.	-3.4878e-002
3011	11.121	5.4408	0.	1.0859
3012	11.121	5.068	0.	-3.5648e-002
3013	11.121	5.2544	5.e-002	2.3351
3014	10.535	5.2544	0.	-3.1597e-002
3015	10.731	5.4408	0.	8.3663e-002
3016	10.731	5.068	0.	-3.4614e-002
3017	10.731	5.2544	5.e-002	2.4031
3018	10.145	5.2544	0.	-2.5646e-002
3019	10.34	5.4408	0.	-4.9924e-002
3020	10.34	5.068	0.	-3.1532e-002
3021	10.34	5.2544	5.e-002	2.4636
3022	9.7549	5.2544	0.	-1.8165e-002
3023	9.95	5.4408	0.	-4.5343e-002
3024	9.95	5.068	0.	-2.7413e-002
3025	9.95	5.2544	5.e-002	2.5099
3026	9.3646	5.2544	0.	-6.6191e-003
3027	9.5597	5.4408	0.	-3.4795e-002
3028	9.5597	5.068	0.	-2.1559e-002
3029	9.5597	5.2544	5.e-002	2.5303
3030	8.9743	5.2544	0.	1.0882e-002
3031	9.1694	5.4408	0.	-1.1174e-002
3032	9.1694	5.068	0.	-9.8826e-003
3033	9.1694	5.2544	5.e-002	2.5053
3034	8.584	5.2544	0.	7.0609e-002
3035	8.7792	5.4408	0.	3.0351e-002
3036	8.7792	5.068	0.	8.8536e-003
3037	8.7792	5.2544	5.e-002	2.4055
3038	8.1938	5.2544	0.	0.10165
3039	8.3889	5.4408	0.	0.1594
3040	8.3889	5.068	0.	6.5822e-002
3041	8.3889	5.2544	5.e-002	2.1856
3042	7.8035	5.2544	0.	0.72901
3043	7.9986	5.4408	0.	0.53244
3044	7.9986	5.068	0.	0.14046
3045	7.9986	5.2544	5.e-002	1.7309
3046	7.4132	5.2544	0.	4.7542
3047	7.6083	5.4408	0.	4.1051
3048	7.6097	5.0695	0.	0.67234
3049	7.6083	5.2544	5.e-002	1.5107
3050	7.0292	5.2593	0.	12.054
3051	7.2181	5.4408	0.	10.221
3052	7.2191	5.0709	0.	1.8839
3053	7.2181	5.2544	5.e-002	1.5754
3054	6.6579	5.2657	0.	19.485
3055	6.8372	5.4489	0.	17.177
3056	6.8472	5.0848	0.	9.6165
3057	6.8403	5.2643	5.e-002	3.7186
3058	6.4626	5.4506	0.	24.58
3059	6.4853	5.1038	0.	20.139
3060	6.3104	5.2518	0.	25.974
3061	6.4754	5.2671	5.e-002	6.6219
3062	5.9068	5.4859	0.	47.734
3063	5.6446	5.3028	0.	102.31
3064	5.6669	5.4539	0.	69.439
3065	5.7668	5.3684	5.e-002	11.238
3066	4.7207	1.7998	0.	510.64
3067	4.5928	1.7	0.	299.18
3068	4.5991	1.9095	0.	223.
3069	4.4799	1.8009	0.	193.34
3070	4.5965	1.7996	5.e-002	26.101
3071	5.9769	1.3377	0.	91.799
3072	6.1053	1.1688	0.	49.389
3073	6.1046	1.4425	0.	41.743
3074	6.2768	1.3203	0.	22.644
3075	6.1226	1.3188	5.e-002	6.9158
3076	4.3548	1.3219	0.	150.86
3077	4.3176	1.4958	0.	132.77
3078	4.1474	1.3669	0.	90.703
3079	4.3264	1.402	5.e-002	28.627
3080	4.3217	3.2018	0.	5.7159
3081	4.4299	3.3167	0.	6.0885
3082	4.4889	3.0922	0.	-0.53806
3083	4.4626	3.2039	5.e-002	20.504
3084	4.4936	2.4946	0.	7.9157
3085	4.712	2.4451	0.	105.55
3086	4.6154	2.5774	0.	47.947
3087	4.6036	2.4656	5.e-002	18.538
3088	4.4922	2.0337	0.	106.97
3089	4.373	1.9252	0.	77.528
3090	4.3794	2.1729	0.	19.986
3091	4.2891	2.0631	0.	18.034
3092	4.3827	2.0481	5.e-002	9.6533
3093	5.9181	2.3269	0.	3.1345
3094	6.0497	2.208	0.	-1.7737
3095	6.0367	2.4908	0.	0.50081
3096	6.1791	2.3638	0.	1.3388
3097	6.0426	2.3374	5.e-002	15.752
3098	6.1217	4.7853	0.	48.388
3099	6.304	4.9209	0.	30.34
3100	6.1291	5.069	0.	41.143
3101	6.1128	4.9014	5.e-002	7.5451
3102	6.6056	4.0685	0.	2.7059
3103	6.4711	4.0992	0.	2.2045
3104	6.5491	3.902	0.	0.56465
3105	6.5	4.0143	5.e-002	16.398
3106	6.8386	4.144	0.	3.1022
3107	6.634	4.2236	0.	3.1196
3108	6.7235	4.0133	0.	-0.23773
3109	6.7112	4.1227	5.e-002	7.2925
3110	4.0178	3.1336	0.	-3.438
3111	4.128	3.3023	0.	-5.2199
3112	4.2331	3.1038	0.	-5.2676
3113	4.1808	3.1996	5.e-002	30.192
3114	4.3799	2.4107	0.	3.4453
3115	4.4033	2.6365	0.	9.8351e-002
3116	4.2561	2.5733	0.	3.3047
3117	4.3836	2.5237	5.e-002	8.7576
3118	6.8479	3.3141	0.	-1.4098
3119	6.6667	3.1308	0.	-2.5378
3120	6.8544	2.9715	0.	-0.23873
3121	7.0429	3.12	0.	-2.2746
3122	6.855	3.1397	5.e-002	10.172
3123	3.4587	3.9732	0.	1.2492
3124	3.4777	4.3462	0.	1.7711
3125	3.2768	4.1523	0.	1.4414
3126	3.5832	4.148	0.	0.95831
3127	3.4321	4.1518	5.e-002	4.7543
3128	3.5905	3.615	0.	-0.88284
3129	3.6259	3.8367	0.	-2.6374
3130	3.3323	3.7735	0.	0.96388
3131	3.4852	3.7946	5.e-002	2.6214
3132	4.0013	2.1898	0.	9.973
3133	4.1328	2.0767	0.	7.6193
3134	4.0218	2.0165	0.	1.1923
3135	4.07	2.0753	5.e-002	18.132
3136	3.7753	3.2515	0.	-1.8989
3137	3.8855	3.4202	0.	-3.496
3138	3.779	3.556	0.	-0.62253
3139	3.4926	3.3951	0.	0.23254
3140	3.6958	3.4354	5.e-002	6.7442
3141	3.8739	2.8822	0.	-4.0867
3142	4.0208	2.962	0.	2.189
3143	3.6942	3.0413	0.	2.3709
3144	3.8549	3.0676	5.e-002	8.7391
3145	3.748	1.9011	0.	0.94866
3146	3.9215	1.6934	0.	7.2226
3147	3.6813	1.6336	0.	5.3241
3148	3.8873	1.8625	0.	-3.7575
3149	3.801	1.7673	5.e-002	13.982
3150	3.8138	2.1696	0.	2.8385
3151	4.0453	2.3285	0.	8.0045
3152	3.9531	2.131	0.	-2.5219
3153	3.9128	2.5005	0.	-0.59694
3154	3.8023	2.3912	0.	6.2257
3155	3.9325	2.3042	5.e-002	12.938
3156	3.5531	1.9505	0.	-1.4938e-002
3157	3.6404	2.1275	0.	4.9614
3158	3.695	2.0349	5.e-002	1.3867
3159	7.4515	3.7796	0.	0.59021
3160	7.2774	3.9774	0.	0.9652
3161	7.1264	3.8035	0.	0.6864
3162	7.2634	3.6115	0.	2.4553
3163	7.278	3.7867	5.e-002	4.7789
3164	3.4216	2.6804	0.	0.60307
3165	3.7655	2.7215	0.	-4.6722
3166	3.6551	2.6122	0.	2.0662
3167	3.5858	2.8805	0.	1.993
3168	3.638	2.7461	5.e-002	14.386
3169	7.6278	3.9597	0.	1.6651e-002
3170	7.8147	3.7691	0.	-0.20595
3171	7.6278	3.5883	0.	-1.067
3172	7.625	3.7724	5.e-002	4.6021
3173	2.1208	1.9166	0.	-1.2211
3174	1.9286	1.7393	0.	0.17717
3175	1.7239	1.9494	0.	-2.0998
3176	1.9079	2.1625	0.	-0.25463
3177	1.92	1.9427	5.e-002	6.1908
3178	2.5208	1.8713	0.	0.70565
3179	2.3338	2.0614	0.	-0.18951
3180	2.3264	1.7015	0.	9.3915e-002
3181	2.3217	1.8904	5.e-002	3.5191
3182	2.7262	1.6714	0.	1.0622
3183	2.9019	1.8417	0.	1.8196
3184	2.7327	2.0329	0.	0.39759
3185	2.7199	1.8521	5.e-002	7.4974
3186	7.8111	1.8575	0.	0.10836
3187	7.6204	1.6666	0.	-7.3286e-002
3188	7.443	1.8344	0.	0.36148
3189	7.6203	2.0392	0.	4.8465e-002
3190	7.6236	1.851	5.e-002	4.2238
3191	8.0011	1.6763	0.	0.18288
3192	8.1923	1.8663	0.	8.5361e-002
3193	7.9958	2.0565	0.	0.18045
3194	7.9986	1.864	5.e-002	3.8677
3195	2.8542	3.6193	0.	-2.2235
3196	2.695	3.4636	0.	-1.2535
3197	3.0826	3.402	0.	0.61431
3198	2.8755	3.3199	0.	-0.81953
3199	2.8757	3.4493	5.e-002	3.0234
3200	3.1959	2.7713	0.	-0.1084
3201	3.238	3.1413	0.	-0.12887
3202	3.0346	2.9112	0.	-0.82763
3203	3.36	2.9713	0.	1.1369
3204	3.1865	2.9277	5.e-002	3.1115
3205	3.3832	2.0301	0.	-4.0055
3206	3.2144	2.1998	0.	-3.974
3207	3.4705	2.2071	0.	0.93075
3208	3.3796	2.3134	0.	-3.6692
3209	3.3553	2.1941	5.e-002	4.2167
3210	3.1394	2.4102	0.	1.9633
3211	3.0053	2.5857	0.	0.58466
3212	3.3046	2.5237	0.	2.2762
3213	3.2053	2.6148	5.e-002	5.4273
3214	21.697	3.4732	0.	12.579
3215	21.551	3.6167	0.	12.388
3216	21.347	3.4441	0.	12.71
3217	21.451	3.2483	0.	12.611
3218	21.504	3.4289	5.e-002	0.48326
3219	2.1209	2.3073	0.	0.77176
3220	2.5457	2.223	0.	-0.49825
3221	2.3893	2.3821	0.	0.57078
3222	2.3459	2.2324	5.e-002	5.6156
3223	8.5815	2.6207	0.	-0.18454
3224	8.3841	2.4344	0.	-0.26648
3225	8.1838	2.6261	0.	-0.2385
3226	8.3842	2.8144	0.	-0.2287
3227	8.3837	2.6231	5.e-002	4.043
3228	8.9746	2.6175	0.	-2.1906e-002
3229	8.7783	2.4296	0.	-2.2096e-002
3230	8.7793	2.8113	0.	-2.0331e-002
3231	8.7793	2.6184	5.e-002	3.5217
3232	9.3648	2.6131	0.	-1.1882e-002
3233	9.1697	2.4267	0.	-3.6521e-002
3234	9.1698	2.813	0.	-2.8915e-002
3235	9.1699	2.6167	5.e-002	3.1261
3236	9.7549	2.6096	0.	1.2159e-002
3237	9.5597	2.4232	0.	-1.3415e-003
3238	9.5597	2.8136	0.	1.1659e-002
3239	9.5597	2.6096	5.e-002	2.8883
3240	10.145	2.6096	0.	6.4295e-003
3241	9.95	2.4232	0.	-7.2223e-004
3242	9.95	2.8136	0.	1.0307e-002
3243	9.95	2.6096	5.e-002	2.7238
3244	10.535	2.6096	0.	-9.8174e-004
3245	10.34	2.4232	0.	-5.841e-003
3246	10.34	2.8136	0.	1.6128e-003
3247	10.34	2.6096	5.e-002	2.5937
3248	10.731	2.4232	0.	-9.391e-003
3249	10.926	2.6096	0.	-6.7999e-003
3250	10.731	2.8136	0.	-3.4614e-003
3251	10.731	2.6096	5.e-002	2.4872
3252	10.926	3.3904	0.	-8.9397e-003
3253	11.121	3.5768	0.	-1.4133e-002
3254	11.316	3.3904	0.	-1.4159e-002
3255	11.121	3.204	0.	-1.0643e-002
3256	11.121	3.3904	5.e-002	2.3954
3257	10.535	3.3904	0.	-3.9114e-003
3258	10.731	3.5768	0.	-9.4823e-003
3259	10.731	3.204	0.	-4.8163e-003
3260	10.731	3.3904	5.e-002	2.4874
3261	10.145	3.3904	0.	-2.2441e-004
3262	10.34	3.5768	0.	-4.8342e-003
3263	10.34	3.204	0.	5.1025e-005
3264	10.34	3.3904	5.e-002	2.5929
3265	9.7549	3.3904	0.	4.9565e-004
3266	9.95	3.5768	0.	-4.1085e-003
3267	9.95	3.204	0.	5.2354e-003
3268	9.95	3.3904	5.e-002	2.725
3269	9.3646	3.3904	0.	-2.7425e-003
3270	9.5597	3.5768	0.	-3.9848e-003
3271	9.5597	3.204	0.	5.0949e-003
3272	9.5597	3.3904	5.e-002	2.9039
3273	9.1694	3.5768	0.	-1.0359e-002
3274	8.9743	3.3904	0.	-2.6775e-002
3275	9.1696	3.1999	0.	-1.3224e-002
3276	9.1694	3.3904	5.e-002	3.1317
3277	23.42	5.6128	0.	4.3702
3278	23.613	5.409	0.	5.0616
3279	23.613	5.6069	5.e-002	0.24218
3280	23.807	5.6035	0.	3.6562
3281	23.611	5.8035	0.	3.2099
3282	23.03	5.6186	0.	5.1633
3283	23.226	5.4204	0.	5.6015
3284	23.226	5.6187	5.e-002	0.2335
3285	23.223	5.8093	0.	4.1855
3286	22.638	5.6206	0.	5.8046
3287	22.833	5.6185	5.e-002	0.25823
3288	22.831	5.8093	0.	4.9215
3289	22.245	5.6249	0.	6.2659
3290	22.442	5.6226	5.e-002	0.29526
3291	22.44	5.8113	0.	5.3797
3292	21.853	5.6272	0.	6.6159
3293	22.049	5.6272	5.e-002	0.3403
3294	22.049	5.8136	0.	5.707
3295	21.463	5.6272	0.	6.8744
3296	21.658	5.6272	5.e-002	0.38775
3297	21.658	5.8136	0.	5.942
3298	21.073	5.6272	0.	7.0629
3299	21.268	5.6272	5.e-002	0.43524
3300	21.268	5.8136	0.	6.1104
3301	20.683	5.6272	0.	7.2024
3302	20.878	5.6272	5.e-002	0.48395
3303	20.878	5.8136	0.	6.2318
3304	20.292	5.6272	0.	7.3032
3305	20.487	5.6272	5.e-002	0.53471
3306	20.487	5.8136	0.	6.3183
3307	19.902	5.6272	0.	7.3735
3308	20.097	5.6272	5.e-002	0.58556
3309	20.097	5.8136	0.	6.3785
3310	19.512	5.6272	0.	7.4193
3311	19.707	5.6272	5.e-002	0.63713
3312	19.707	5.8136	0.	6.4179
3313	19.122	5.6272	0.	7.4446
3314	19.317	5.6272	5.e-002	0.6893
3315	19.317	5.8136	0.	6.4406
3316	18.731	5.6272	0.	7.4518
3317	18.926	5.6272	5.e-002	0.74197
3318	18.926	5.8136	0.	6.4489
3319	18.341	5.6272	0.	7.4423
3320	18.536	5.6272	5.e-002	0.79507
3321	18.536	5.8136	0.	6.4445
3322	17.951	5.6272	0.	7.4168
3323	18.146	5.6272	5.e-002	0.84859
3324	18.146	5.8136	0.	6.4279
3325	17.56	5.6272	0.	7.3752
3326	17.756	5.6272	5.e-002	0.90254
3327	17.756	5.8136	0.	6.3993
3328	17.17	5.6272	0.	7.3169
3329	17.365	5.6272	5.e-002	0.95692
3330	17.365	5.8136	0.	6.3587
3331	16.78	5.6272	0.	7.2408
3332	16.975	5.6272	5.e-002	1.0118
3333	16.975	5.8136	0.	6.3051
3334	16.39	5.6272	0.	7.1453
3335	16.585	5.6272	5.e-002	1.0671
3336	16.585	5.8136	0.	6.2378
3337	15.999	5.6272	0.	7.0282
3338	16.194	5.6272	5.e-002	1.123
3339	16.194	5.8136	0.	6.1552
3340	15.609	5.6272	0.	6.8868
3341	15.804	5.6272	5.e-002	1.1796
3342	15.804	5.8136	0.	6.0555
3343	15.219	5.6272	0.	6.7179
3344	15.414	5.6272	5.e-002	1.2369
3345	15.414	5.8136	0.	5.9365
3346	14.828	5.6272	0.	6.5178
3347	15.024	5.6272	5.e-002	1.295
3348	15.024	5.8136	0.	5.7958
3349	14.438	5.6272	0.	6.2821
3350	14.633	5.6272	5.e-002	1.3541
3351	14.633	5.8136	0.	5.6304
3352	14.048	5.6272	0.	6.006
3353	14.243	5.6272	5.e-002	1.4144
3354	14.243	5.8136	0.	5.4368
3355	13.658	5.6272	0.	5.6841
3356	13.853	5.6272	5.e-002	1.476
3357	13.853	5.8136	0.	5.2114
3358	13.267	5.6272	0.	5.311
3359	13.463	5.6272	5.e-002	1.5391
3360	13.463	5.8136	0.	4.9503
3361	12.877	5.6272	0.	4.8811
3362	13.072	5.6272	5.e-002	1.6039
3363	13.072	5.8136	0.	4.6494
3364	12.487	5.6272	0.	4.3898
3365	12.682	5.6272	5.e-002	1.6705
3366	12.682	5.8136	0.	4.3051
3367	12.097	5.6272	0.	3.834
3368	12.292	5.6272	5.e-002	1.739
3369	12.292	5.8136	0.	3.9145
3370	11.706	5.6272	0.	3.2138
3371	11.901	5.6272	5.e-002	1.809
3372	11.901	5.8136	0.	3.4765
3373	11.316	5.6272	0.	2.5353
3374	11.511	5.6272	5.e-002	1.8799
3375	11.511	5.8136	0.	2.9933
3376	10.926	5.6272	0.	1.8135
3377	11.121	5.6272	5.e-002	1.95
3378	11.121	5.8136	0.	2.472
3379	10.535	5.6272	0.	1.0785
3380	10.731	5.6272	5.e-002	2.0162
3381	10.731	5.8136	0.	1.9286
3382	10.145	5.6272	0.	0.38712
3383	10.34	5.6272	5.e-002	2.0725
3384	10.34	5.8136	0.	1.3914
3385	9.7549	5.6272	0.	-1.2652e-002
3386	9.95	5.6272	5.e-002	2.1088
3387	9.95	5.8136	0.	0.90737
3388	9.3646	5.6272	0.	-1.0389e-002
3389	9.5597	5.6272	5.e-002	2.1076
3390	9.5597	5.8136	0.	0.54812
3391	8.9743	5.6272	0.	5.6422e-002
3392	9.1694	5.6272	5.e-002	2.04
3393	9.1694	5.8136	0.	0.41267
3394	8.584	5.6272	0.	0.4244
3395	8.7792	5.6272	5.e-002	1.8576
3396	8.7792	5.8136	0.	0.64917
3397	8.1938	5.6272	0.	2.0225
3398	8.3889	5.6272	5.e-002	1.4939
3399	8.3889	5.8136	0.	1.488
3400	7.8035	5.6272	0.	5.0811
3401	7.9986	5.6272	5.e-002	0.81474
3402	7.9986	5.8136	0.	3.1938
3403	7.4132	5.6272	0.	9.5873
3404	7.6083	5.6272	5.e-002	0.50059
3405	7.6083	5.8136	0.	6.0357
3406	7.0261	5.6303	0.	15.
3407	7.2181	5.6272	5.e-002	2.3255
3408	7.2181	5.8136	0.	9.7329
3409	6.6419	5.6338	0.	21.188
3410	6.8341	5.6335	5.e-002	5.101
3411	6.831	5.8167	0.	14.132
3412	6.2483	5.6187	0.	24.875
3413	6.4497	5.634	5.e-002	8.7968
3414	6.4436	5.817	0.	18.29
3415	5.855	5.6731	0.	26.914
3416	6.0961	5.42	0.	30.033
3417	6.0468	5.6034	5.e-002	13.449
3418	6.047	5.8017	0.	20.696
3419	5.6151	5.6411	0.	46.318
3420	5.6632	5.7428	5.e-002	17.756
3421	5.6601	5.8714	0.	9.6486
3422	5.4649	5.7714	0.	-1.457
3423	5.4857	5.3093	0.	149.23
3424	5.5081	5.4604	0.	107.88
3425	5.4491	5.3813	5.e-002	19.054
3426	5.3579	5.3907	0.	111.17
3427	5.5383	5.1428	0.	168.04
3428	5.5224	5.2372	5.e-002	13.103
3429	5.3945	5.2186	0.	131.57
3430	5.5544	4.9437	0.	225.9
3431	5.5542	5.0483	5.e-002	20.415
3432	5.4104	5.0241	0.	178.61
3433	5.5481	4.7326	0.	313.84
3434	5.5545	4.8392	5.e-002	24.611
3435	5.4106	4.8196	0.	250.14
3436	5.5403	4.5209	0.	417.4
3437	5.6813	4.6373	0.	243.28
3438	5.5417	4.6259	5.e-002	30.822
3439	5.4042	4.613	0.	347.04
3440	5.5361	4.3109	0.	460.66
3441	5.5388	4.4159	5.e-002	47.673
3442	5.4028	4.4079	0.	447.6
3443	5.5363	4.0994	0.	310.09
3444	5.5333	4.2059	5.e-002	56.326
3445	5.4	4.2029	0.	695.36
3446	5.5385	3.8902	0.	111.44
3447	5.6657	3.9911	0.	97.957
3448	5.5393	3.9929	5.e-002	115.19
3449	5.403	3.9965	0.	316.83
3450	23.618	0.59565	0.	5.0723
3451	23.421	0.39726	0.	4.3978
3452	23.614	0.3977	5.e-002	0.24088
3453	23.612	0.19885	0.	3.2231
3454	23.807	0.39885	0.	3.6557
3455	23.622	0.99521	0.	7.2998
3456	23.43	0.79463	0.	6.4572
3457	23.621	0.7936	5.e-002	0.21609
3458	23.81	0.7968	0.	6.1271
3459	23.626	1.3984	0.	9.186
3460	23.624	1.1968	5.e-002	0.18549
3461	23.812	1.1984	0.	8.24
3462	23.627	1.8	0.	10.644
3463	23.627	1.6	5.e-002	0.15643
3464	23.814	1.6	0.	9.9137
3465	23.627	2.2	0.	11.682
3466	23.627	2.	5.e-002	0.1312
3467	23.814	2.	0.	11.167
3468	23.627	2.6	0.	12.304
3469	23.627	2.4	5.e-002	0.1111
3470	23.814	2.4	0.	12.
3471	23.627	3.	0.	12.511
3472	23.627	2.8	5.e-002	0.10158
3473	23.814	2.8	0.	12.415
3474	23.625	3.402	0.	12.298
3475	23.627	3.2	5.e-002	0.10225
3476	23.814	3.2	0.	12.415
3477	23.621	3.8062	0.	11.664
3478	23.624	3.604	5.e-002	0.11153
3479	23.812	3.602	0.	11.991
3480	23.617	4.2082	0.	10.62
3481	23.618	4.0084	5.e-002	0.13157
3482	23.809	4.0042	0.	11.153
3483	23.613	4.6098	0.	9.1605
3484	23.616	4.4081	5.e-002	0.15387
3485	23.808	4.404	0.	9.8998
3486	23.611	5.0114	0.	7.2795
3487	23.611	4.8116	5.e-002	0.18193
3488	23.805	4.8058	0.	8.2302
3489	23.419	5.2166	0.	6.4094
3490	23.612	5.2111	5.e-002	0.21449
3491	23.806	5.2056	0.	6.1234
3492	5.8932	0.30746	0.	26.635
3493	5.5957	0.36114	0.	58.622
3494	5.7571	0.45038	0.	32.
3495	5.6936	0.28712	5.e-002	17.851
3496	5.6753	0.14356	0.	17.356
3497	5.4801	0.24356	0.	2.1978
3498	6.2793	0.33843	0.	25.392
3499	6.1109	0.49524	0.	33.543
3500	6.0928	0.3278	5.e-002	14.029
3501	6.07	0.1639	0.	20.72
3502	6.6533	0.35663	0.	21.519
3503	6.472	0.52596	0.	26.206
3504	6.4658	0.34906	5.e-002	9.8758
3505	6.4516	0.17453	0.	19.048
3506	7.0325	0.36706	0.	15.307
3507	6.8408	0.3642	5.e-002	4.9045
3508	6.8343	0.1821	0.	14.537
3509	7.4162	0.37136	0.	9.4984
3510	7.2241	0.36993	5.e-002	2.3171
3511	7.2211	0.18496	0.	9.8118
3512	7.8035	0.3728	0.	5.0271
3513	7.6083	0.3728	5.e-002	0.48834
3514	7.6083	0.1864	0.	5.9741
3515	8.1938	0.3728	0.	2.0048
3516	7.9986	0.3728	5.e-002	0.81136
3517	7.9986	0.1864	0.	3.1767
3518	8.584	0.3728	0.	0.41911
3519	8.3889	0.3728	5.e-002	1.4885
3520	8.3889	0.1864	0.	1.4819
3521	8.9743	0.3728	0.	5.7264e-002
3522	8.7792	0.3728	5.e-002	1.8569
3523	8.7792	0.1864	0.	0.64589
3524	9.3646	0.3728	0.	-1.0539e-002
3525	9.1694	0.3728	5.e-002	2.0392
3526	9.1694	0.1864	0.	0.41079
3527	9.7549	0.3728	0.	-1.2689e-002
3528	9.5597	0.3728	5.e-002	2.107
3529	9.5597	0.1864	0.	0.54734
3530	10.145	0.3728	0.	0.38776
3531	9.95	0.3728	5.e-002	2.1082
3532	9.95	0.1864	0.	0.90758
3533	10.535	0.3728	0.	1.08
3534	10.34	0.3728	5.e-002	2.072
3535	10.34	0.1864	0.	1.3923
3536	10.926	0.3728	0.	1.8153
3537	10.731	0.3728	5.e-002	2.0157
3538	10.731	0.1864	0.	1.93
3539	11.316	0.3728	0.	2.5372
3540	11.121	0.3728	5.e-002	1.9496
3541	11.121	0.1864	0.	2.4735
3542	11.706	0.3728	0.	3.2156
3543	11.511	0.3728	5.e-002	1.8796
3544	11.511	0.1864	0.	2.9946
3545	12.097	0.3728	0.	3.8355
3546	11.901	0.3728	5.e-002	1.8088
3547	11.901	0.1864	0.	3.4777
3548	12.487	0.3728	0.	4.3911
3549	12.292	0.3728	5.e-002	1.7388
3550	12.292	0.1864	0.	3.9155
3551	12.877	0.3728	0.	4.8822
3552	12.682	0.3728	5.e-002	1.6703
3553	12.682	0.1864	0.	4.306
3554	13.267	0.3728	0.	5.3118
3555	13.072	0.3728	5.e-002	1.6037
3556	13.072	0.1864	0.	4.6501
3557	13.658	0.3728	0.	5.6848
3558	13.463	0.3728	5.e-002	1.539
3559	13.463	0.1864	0.	4.9509
3560	14.048	0.3728	0.	6.0066
3561	13.853	0.3728	5.e-002	1.4759
3562	13.853	0.1864	0.	5.2119
3563	14.438	0.3728	0.	6.2826
3564	14.243	0.3728	5.e-002	1.4143
3565	14.243	0.1864	0.	5.4372
3566	14.828	0.3728	0.	6.5182
3567	14.633	0.3728	5.e-002	1.3541
3568	14.633	0.1864	0.	5.6307
3569	15.219	0.3728	0.	6.7182
3570	15.024	0.3728	5.e-002	1.295
3571	15.024	0.1864	0.	5.7961
3572	15.609	0.3728	0.	6.887
3573	15.414	0.3728	5.e-002	1.2368
3574	15.414	0.1864	0.	5.9368
3575	15.999	0.3728	0.	7.0284
3576	15.804	0.3728	5.e-002	1.1796
3577	15.804	0.1864	0.	6.0556
3578	16.39	0.3728	0.	7.1454
3579	16.194	0.3728	5.e-002	1.123
3580	16.194	0.1864	0.	6.1553
3581	16.78	0.3728	0.	7.2409
3582	16.585	0.3728	5.e-002	1.0671
3583	16.585	0.1864	0.	6.2379
3584	17.17	0.3728	0.	7.317
3585	16.975	0.3728	5.e-002	1.0117
3586	16.975	0.1864	0.	6.3053
3587	17.56	0.3728	0.	7.3753
3588	17.365	0.3728	5.e-002	0.95688
3589	17.365	0.1864	0.	6.3588
3590	17.951	0.3728	0.	7.417
3591	17.756	0.3728	5.e-002	0.90249
3592	17.756	0.1864	0.	6.3995
3593	18.341	0.3728	0.	7.4426
3594	18.146	0.3728	5.e-002	0.84856
3595	18.146	0.1864	0.	6.4281
3596	18.731	0.3728	0.	7.4521
3597	18.536	0.3728	5.e-002	0.79507
3598	18.536	0.1864	0.	6.4448
3599	19.122	0.3728	0.	7.445
3600	18.926	0.3728	5.e-002	0.74202
3601	18.926	0.1864	0.	6.4494
3602	19.512	0.3728	0.	7.4197
3603	19.317	0.3728	5.e-002	0.68939
3604	19.317	0.1864	0.	6.441
3605	19.902	0.3728	0.	7.3738
3606	19.707	0.3728	5.e-002	0.63742
3607	19.707	0.1864	0.	6.4185
3608	20.292	0.3728	0.	7.3037
3609	20.097	0.3728	5.e-002	0.58602
3610	20.097	0.1864	0.	6.3788
3611	20.683	0.3728	0.	7.2019
3612	20.487	0.3728	5.e-002	0.53406
3613	20.487	0.1864	0.	6.3194
3614	21.074	0.37429	0.	7.0674
3615	20.878	0.3728	5.e-002	0.48375
3616	20.878	0.1864	0.	6.2363
3617	21.466	0.37594	0.	6.8745
3618	21.271	0.37578	5.e-002	0.43826
3619	21.27	0.18789	0.	6.1189
3620	21.858	0.37981	0.	6.6174
3621	21.662	0.3761	5.e-002	0.38078
3622	21.66	0.18805	0.	5.9524
3623	22.251	0.38732	0.	6.2814
3624	22.054	0.38352	5.e-002	0.33737
3625	22.051	0.19176	0.	5.743
3626	22.643	0.39377	0.	5.8245
3627	22.447	0.39112	5.e-002	0.29043
3628	22.443	0.19556	0.	5.4329
3629	23.033	0.39662	0.	5.1977
3630	22.839	0.39641	5.e-002	0.25857
3631	22.834	0.19821	0.	4.9697
3632	23.233	0.59624	0.	5.6644
3633	23.228	0.39682	5.e-002	0.23545
3634	23.224	0.19841	0.	4.2477
3635	4.7328	0.27227	0.	45.859
3636	4.5026	0.25145	0.	33.001
3637	4.709	0.19298	5.e-002	28.334
3638	4.7083	9.6488e-002	0.	10.369
3639	4.9045	0.19649	0.	-2.9911
3640	4.7856	0.47262	0.	91.677
3641	4.6441	0.39801	0.	61.025
3642	4.7567	0.35157	5.e-002	25.
3643	4.9284	0.37578	0.	25.69
3644	4.8176	0.69748	0.	165.44
3645	4.8144	0.59367	5.e-002	26.262
3646	4.9572	0.59684	0.	105.49
3647	4.8273	0.90145	0.	253.82
3648	4.6833	0.80972	0.	150.91
3649	4.8207	0.80128	5.e-002	23.068
3650	4.9604	0.80064	0.	179.45
3651	4.8395	1.1008	0.	361.69
3652	4.6988	1.0109	0.	221.83
3653	4.834	1.0016	5.e-002	28.271
3654	4.967	1.0008	0.	269.97
3655	4.8475	1.3007	0.	489.16
3656	4.7226	1.2062	0.	323.95
3657	4.845	1.2	5.e-002	31.824
3658	4.9725	1.2	0.	375.17
3659	4.8495	1.5007	0.	637.96
3660	4.85	1.4014	5.e-002	37.553
3661	4.975	1.4007	0.	510.95
3662	4.8469	1.7	0.	727.84
3663	4.719	1.6001	0.	499.99
3664	4.8489	1.6	5.e-002	59.029
3665	4.9744	1.6	0.	667.3
3666	4.8429	1.903	0.	560.85
3667	4.845	1.8	5.e-002	70.577
3668	4.9725	1.8	0.	1003.7
3669	4.7212	2.0126	0.	274.49
3670	4.8407	2.0059	5.e-002	134.62
3671	4.9704	2.003	0.	624.19
3672	0.58248	0.39168	0.	68.087
3673	0.38696	0.59201	0.	208.17
3674	0.38754	0.39389	5.e-002	30.641
3675	0.38992	0.19695	0.	112.58
3676	0.19377	0.39695	0.	-263.55
3677	0.97448	0.38508	0.	-13.201
3678	0.77742	0.38947	5.e-002	15.736
3679	0.78102	0.19473	0.	-27.69
3680	1.3685	0.37794	0.	3.4584
3681	1.1715	0.38068	5.e-002	9.1146
3682	1.1742	0.19034	0.	4.3412
3683	1.7635	0.374	0.	-0.78234
3684	1.5654	0.37521	5.e-002	8.1626
3685	1.5673	0.1876	0.	-3.3952
3686	2.1577	0.3728	0.	0.19153
3687	1.9615	0.3728	5.e-002	7.7226
3688	1.9615	0.1864	0.	-1.1204
3689	2.55	0.3728	0.	0.32057
3690	2.3538	0.3728	5.e-002	7.9279
3691	2.3538	0.1864	0.	-0.95872
3692	2.9404	0.37143	0.	1.2794
3693	2.7462	0.3728	5.e-002	8.7072
3694	2.7462	0.1864	0.	-0.19868
3695	3.3233	0.36397	0.	6.0314
3696	3.1331	0.55658	0.	1.4056
3697	3.1347	0.37006	5.e-002	10.131
3698	3.1366	0.18503	0.	1.3143
3699	3.704	0.35115	0.	17.692
3700	3.5143	0.54411	0.	8.5436
3701	3.5119	0.35788	5.e-002	13.105
3702	3.5213	0.17894	0.	10.362
3703	4.0961	0.32717	0.	28.059
3704	3.8828	0.51214	0.	26.856
3705	3.896	0.34442	5.e-002	17.168
3706	3.9095	0.17221	0.	18.435
3707	4.4138	0.37718	0.	50.637
3708	4.2549	0.47558	0.	39.016
3709	4.2962	0.30992	5.e-002	23.667
3710	4.3058	0.15496	0.	22.6
3711	0.38347	5.4047	0.	207.1
3712	0.58125	5.6034	0.	67.987
3713	0.3872	5.6026	5.e-002	31.009
3714	0.38976	5.8013	0.	112.28
3715	0.1936	5.6013	0.	-264.9
3716	0.37909	5.0052	0.	251.5
3717	0.57198	5.2064	0.	95.455
3718	0.37973	5.2068	5.e-002	13.473
3719	0.18986	5.2034	0.	-315.9
3720	0.37855	4.6029	0.	264.58
3721	0.37846	4.8036	5.e-002	7.7137
3722	0.18923	4.8018	0.	-346.5
3723	0.3783	4.2026	0.	272.74
3724	0.37864	4.4021	5.e-002	6.2788
3725	0.18932	4.4011	0.	-362.7
3726	0.37538	3.8015	0.	276.66
3727	0.37796	4.003	5.e-002	5.3046
3728	0.18898	4.0015	0.	-371.
3729	0.3728	3.4	0.	278.86
3730	0.3728	3.6	5.e-002	4.5996
3731	0.1864	3.6	0.	-375.35
3732	0.3728	3.	0.	279.89
3733	0.3728	3.2	5.e-002	4.1893
3734	0.1864	3.2	0.	-376.5
3735	0.37468	2.598	0.	278.72
3736	0.3728	2.8	5.e-002	4.173
3737	0.1864	2.8	0.	-376.69
3738	0.37952	2.1937	0.	276.77
3739	0.37657	2.396	5.e-002	4.6786
3740	0.18828	2.398	0.	-375.62
3741	0.38322	1.7923	0.	273.48
3742	0.38247	1.9914	5.e-002	5.4244
3743	0.19123	1.9957	0.	-371.36
3744	0.38533	1.3933	0.	264.56
3745	0.38396	1.5931	5.e-002	6.4152
3746	0.19198	1.5966	0.	-362.43
3747	0.38653	0.99178	0.	251.6
3748	0.38669	1.1934	5.e-002	8.0706
3749	0.19335	1.1967	0.	-348.04
3750	0.38638	0.79013	5.e-002	13.549
3751	0.19319	0.79506	0.	-315.
3752	4.4676	5.6872	0.	35.359
3753	4.7674	5.6304	0.	80.692
3754	4.6676	5.7001	5.e-002	24.515
3755	4.6876	5.85	0.	23.891
3756	4.8838	5.75	0.	4.3133
3757	4.0805	5.6623	0.	29.935
3758	4.2436	5.5138	0.	44.516
3759	4.2677	5.6743	5.e-002	21.651
3760	4.2915	5.8371	0.	25.493
3761	3.704	5.6428	0.	19.398
3762	3.8868	5.475	0.	28.251
3763	3.8934	5.6503	5.e-002	17.777
3764	3.9083	5.8251	0.	20.439
3765	3.3239	5.632	0.	6.0861
3766	3.5107	5.4543	0.	8.0405
3767	3.5145	5.6354	5.e-002	12.566
3768	3.5227	5.8177	0.	10.752
3769	2.9397	5.6279	0.	1.139
3770	3.1333	5.6287	5.e-002	10.148
3771	3.1359	5.8143	0.	1.2713
3772	2.55	5.6272	0.	0.45992
3773	2.7462	5.6272	5.e-002	8.6472
3774	2.7462	5.8136	0.	-0.15792
3775	2.1555	5.6248	0.	0.30794
3776	2.3538	5.6272	5.e-002	7.9265
3777	2.3538	5.8136	0.	-0.95746
3778	1.7584	5.6193	0.	-0.85501
3779	1.9571	5.6224	5.e-002	7.6264
3780	1.9593	5.8112	0.	-1.1677
3781	1.3631	5.6126	0.	3.0964
3782	1.5598	5.6162	5.e-002	8.0494
3783	1.5645	5.8081	0.	-3.5642
3784	0.97083	5.6066	0.	-13.335
3785	1.1664	5.6089	5.e-002	9.3798
3786	1.1716	5.8044	0.	3.8133
3787	0.76977	5.4051	0.	-44.272
3788	0.7753	5.6043	5.e-002	16.117
3789	0.77996	5.8022	0.	-27.859
3790	4.8451	5.4764	0.	131.69
3791	4.8673	5.5606	5.e-002	20.685
3792	4.9836	5.5803	0.	73.232
3793	4.8282	5.2945	0.	167.74
3794	4.8229	5.3922	5.e-002	27.564
3795	4.9615	5.3961	0.	111.57
3796	4.8449	5.0954	0.	261.48
3797	4.6922	5.175	0.	161.77
3798	4.8334	5.1968	5.e-002	25.409
3799	4.9667	5.1984	0.	180.67
3800	4.849	4.8948	0.	369.97
3801	4.7501	4.9901	0.	262.31
3802	4.8563	4.9941	5.e-002	23.851
3803	4.9782	4.997	0.	277.9
3804	4.8404	4.6994	0.	480.03
3805	4.6986	4.8148	0.	312.69
3806	4.8417	4.7955	5.e-002	24.647
3807	4.9708	4.7977	0.	378.66
3808	4.833	4.5025	0.	611.83
3809	4.6823	4.6259	0.	376.6
3810	4.8392	4.6034	5.e-002	38.688
3811	4.9696	4.6017	0.	504.75
3812	4.8292	4.2952	0.	692.76
3813	4.6846	4.41	0.	463.16
3814	4.8268	4.4017	5.e-002	54.371
3815	4.9634	4.4008	0.	650.81
3816	4.6978	4.1886	0.	473.32
3817	4.8317	4.1886	5.e-002	73.103
3818	4.9658	4.1943	0.	985.67
3819	5.5187	0.51867	0.	94.684
3820	5.4978	0.43516	5.e-002	16.799
3821	5.3822	0.41758	0.	53.
3822	5.5352	0.70144	0.	118.92
3823	5.6801	0.60791	0.	53.536
3824	5.5397	0.60218	5.e-002	20.337
3825	5.4032	0.60109	0.	77.975
3826	5.5221	0.90226	0.	185.12
3827	5.6702	0.82329	0.	111.71
3828	5.5307	0.80071	5.e-002	20.29
3829	5.3987	0.80035	0.	126.54
3830	5.5191	1.104	0.	261.81
3831	5.6165	1.0086	0.	181.59
3832	5.5135	1.0038	5.e-002	18.347
3833	5.3901	1.0019	0.	194.61
3834	5.526	1.3004	0.	339.28
3835	5.6658	1.1903	0.	214.13
3836	5.5247	1.2042	5.e-002	22.553
3837	5.3957	1.2021	0.	264.74
3838	5.5337	1.4955	0.	428.65
3839	5.6792	1.3766	0.	252.38
3840	5.5273	1.3966	5.e-002	33.379
3841	5.397	1.3983	0.	353.27
3842	5.536	1.7008	0.	464.26
3843	5.54	1.5944	5.e-002	47.658
3844	5.4034	1.5972	0.	443.05
3845	5.5334	1.9222	0.	302.69
3846	5.6686	1.813	0.	278.12
3847	5.5319	1.8072	5.e-002	67.246
3848	5.3993	1.8036	0.	694.09
3849	5.5413	2.1555	0.	100.23
3850	5.665	2.0485	0.	84.57
3851	5.5349	2.0372	5.e-002	110.64
3852	5.4008	2.0186	0.	278.24
3853	5.1821	2.221	0.	368.44
3854	5.0492	2.3056	0.	369.56
3855	5.0605	2.2092	5.e-002	111.98
3856	5.0803	2.1046	0.	668.25
3857	5.4257	2.2533	0.	224.57
3858	5.2991	2.3325	0.	316.11
3859	5.3037	2.2327	5.e-002	112.38
3860	5.2852	2.1164	0.	384.36
3861	5.182	3.7813	0.	387.95
3862	5.4215	3.7884	0.	233.17
3863	5.3055	3.7894	5.e-002	106.18
3864	5.2861	3.8947	0.	427.2
3865	5.0584	3.7733	5.e-002	117.97
3866	5.0792	3.8866	0.	638.85
3867	5.567	5.5394	5.e-002	11.407
3868	5.4169	5.5697	0.	41.884
3869	5.9748	0.63817	0.	33.064
3870	5.8151	0.72976	0.	63.429
3871	5.8205	0.61365	5.e-002	11.723
3872	23.225	5.2222	5.e-002	0.22593
3873	23.239	0.79567	5.e-002	0.22569
3874	4.5314	0.44445	5.e-002	10.766
3875	0.76424	5.206	5.e-002	14.347
3876	5.5447	2.3966	0.	95.498
3877	5.6706	2.2951	0.	48.098
3878	5.5476	2.2738	5.e-002	70.941
3879	5.675	3.7715	0.	42.265
3880	5.5438	3.6612	0.	100.14
3881	5.5376	3.7875	5.e-002	80.529
3882	5.9757	4.6589	0.	90.591
3883	5.8209	4.6486	5.e-002	16.328
3884	5.8023	3.8723	0.	10.7
3885	5.9203	3.9805	0.	7.9582
3886	5.7921	3.9892	5.e-002	25.515
3887	6.3036	0.68277	0.	31.743
3888	6.1085	0.84072	0.	46.384
3889	6.129	0.66269	5.e-002	10.636
3890	6.478	0.86579	0.	23.959
3891	6.4782	0.70285	5.e-002	8.4555
3892	4.5547	0.91913	0.	138.99
3893	4.5459	0.81817	5.e-002	28.007
3894	4.5819	1.1163	0.	205.74
3895	4.4204	1.0636	0.	136.82
3896	4.5636	1.0201	5.e-002	21.29
3897	4.4918	1.2272	0.	203.25
3898	4.6003	1.2124	5.e-002	25.557
3899	4.4489	1.595	0.	214.43
3900	4.5891	1.6003	5.e-002	20.355
3901	4.6017	2.0193	5.e-002	20.4
3902	3.324	0.73672	0.	1.6043
3903	3.1354	0.93143	0.	0.77189
3904	3.1315	0.7431	5.e-002	9.0262
3905	3.6931	0.7051	0.	16.84
3906	3.5209	0.91297	0.	2.4143
3907	3.5166	0.73034	5.e-002	11.461
3908	4.0416	0.66055	0.	35.297
3909	3.8666	0.84923	0.	33.246
3910	3.8696	0.67986	5.e-002	13.257
3911	4.0498	5.3265	0.	40.259
3912	4.2354	5.1771	0.	68.234
3913	4.2196	5.3533	5.e-002	17.163
3914	3.6935	5.2864	0.	15.574
3915	3.8743	5.1361	0.	28.261
3916	3.8801	5.2996	5.e-002	15.279
3917	3.5061	5.096	0.	1.4288
3918	3.5069	5.2731	5.e-002	11.071
3919	4.5997	4.9102	0.	222.25
3920	4.5405	4.7414	0.	239.52
3921	4.4033	4.9176	0.	154.88
3922	4.5555	4.8342	5.e-002	25.891
3923	4.5975	5.0697	0.	176.56
3924	4.6439	4.9862	5.e-002	7.7139
3925	4.534	4.5334	0.	259.46
3926	4.5532	4.3035	0.	259.67
3927	4.5425	4.4183	5.e-002	15.972
3928	4.3773	4.6696	0.	161.82
3929	4.5255	4.6485	5.e-002	17.815
3930	4.4275	4.1862	0.	154.03
3931	4.5639	4.1886	5.e-002	23.133
3932	5.7632	1.0949	0.	148.53
3933	5.819	1.2665	0.	152.87
3934	5.9474	1.0975	0.	100.85
3935	5.8069	1.1763	5.e-002	18.184
3936	5.7645	0.92963	0.	119.42
3937	5.7194	1.0134	5.e-002	6.5598
3938	5.8311	1.3566	5.e-002	14.438
3939	5.8002	1.9393	0.	61.05
3940	5.7943	2.1881	0.	14.595
3941	5.926	2.0692	0.	8.6665
3942	5.7951	2.0598	5.e-002	24.567
3943	5.9332	1.8208	0.	51.026
3944	5.8054	1.8189	5.e-002	21.467
3945	5.1661	2.4172	0.	253.58
3946	4.9291	2.4133	0.	215.07
3947	5.0378	2.4019	5.e-002	18.59
3948	5.4181	2.4758	0.	187.59
3949	5.2685	2.51	0.	242.33
3950	5.2945	2.4324	5.e-002	28.508
3951	4.8203	2.5291	0.	144.66
3952	4.8203	2.4246	5.e-002	29.454
3953	5.6638	2.564	0.	72.947
3954	5.5418	2.5193	5.e-002	31.194
3955	5.8114	3.6353	0.	3.081
3956	5.9559	3.7363	0.	1.6987
3957	5.8125	3.7554	5.e-002	31.247
3958	22.839	4.6434	0.	9.4079
3959	22.644	4.8503	0.	8.7619
3960	22.839	4.8437	5.e-002	0.25498
3961	22.666	1.1864	0.	8.8799
3962	22.865	1.3907	0.	9.4987
3963	22.861	1.1905	5.e-002	0.25275
3964	4.2135	0.64124	5.e-002	15.242
3965	1.1625	1.359	0.	15.219
3966	1.3612	1.1531	0.	6.2987
3967	1.1647	1.1584	5.e-002	8.7954
3968	1.3489	4.8321	0.	6.3816
3969	1.1509	4.6223	0.	15.28
3970	1.1493	4.8203	5.e-002	8.777
3971	4.2401	4.8459	0.	87.654
3972	4.0598	4.9868	0.	50.28
3973	4.4011	5.0771	0.	107.39
3974	4.2511	5.001	5.e-002	22.082
3975	6.2829	1.0237	0.	32.994
3976	5.9487	0.93231	0.	71.081
3977	6.0879	1.0187	5.e-002	13.781
3978	5.7897	2.4626	0.	13.703
3979	5.7936	2.3164	5.e-002	28.382
3980	5.6801	3.525	0.	57.507
3981	5.5499	3.535	5.e-002	39.127
3982	5.1056	3.41	0.	200.97
3983	4.8206	3.4509	0.	152.25
3984	5.0032	3.3387	0.	202.76
3985	4.9576	3.4612	5.e-002	27.264
3986	21.86	4.8724	0.	9.1136
3987	22.252	4.8624	0.	8.9496
3988	22.062	4.6745	0.	9.6441
3989	22.055	4.868	5.e-002	0.37222
3990	21.466	4.8792	0.	9.2514
3991	21.666	4.6908	0.	9.7501
3992	21.664	4.8769	5.e-002	0.45324
3993	21.073	4.8816	0.	9.3655
3994	21.268	4.6952	0.	9.8571
3995	21.268	4.8816	5.e-002	0.52169
3996	20.683	4.8816	0.	9.4459
3997	20.878	4.6952	0.	9.9322
3998	20.878	4.8816	5.e-002	0.59116
3999	20.292	4.8816	0.	9.4971
4000	20.487	4.6952	0.	9.9741
4001	20.487	4.8816	5.e-002	0.66042
4002	19.902	4.8816	0.	9.5222
4003	20.097	4.6952	0.	9.9956
4004	20.097	4.8816	5.e-002	0.7299
4005	19.512	4.8816	0.	9.5241
4006	19.707	4.6952	0.	9.994
4007	19.707	4.8816	5.e-002	0.79938
4008	19.122	4.8816	0.	9.5051
4009	19.317	4.6952	0.	9.9725
4010	19.317	4.8816	5.e-002	0.86975
4011	18.731	4.8816	0.	9.4654
4012	18.926	4.6952	0.	9.9305
4013	18.926	4.8816	5.e-002	0.94017
4014	18.341	4.8816	0.	9.4046
4015	18.536	4.6952	0.	9.8679
4016	18.536	4.8816	5.e-002	1.0107
4017	17.951	4.8816	0.	9.3216
4018	18.146	4.6952	0.	9.7831
4019	18.146	4.8816	5.e-002	1.0814
4020	17.56	4.8816	0.	9.2145
4021	17.756	4.6952	0.	9.6742
4022	17.756	4.8816	5.e-002	1.1522
4023	17.17	4.8816	0.	9.0807
4024	17.365	4.6952	0.	9.5385
4025	17.365	4.8816	5.e-002	1.2231
4026	16.78	4.8816	0.	8.9166
4027	16.975	4.6952	0.	9.3724
4028	16.975	4.8816	5.e-002	1.2941
4029	16.39	4.8816	0.	8.7178
4030	16.585	4.6952	0.	9.1714
4031	16.585	4.8816	5.e-002	1.3652
4032	15.999	4.8816	0.	8.479
4033	16.194	4.6952	0.	8.9299
4034	16.194	4.8816	5.e-002	1.4365
4035	15.609	4.8816	0.	8.1938
4036	15.804	4.6952	0.	8.6414
4037	15.804	4.8816	5.e-002	1.5079
4038	15.219	4.8816	0.	7.8544
4039	15.414	4.6952	0.	8.2978
4040	15.414	4.8816	5.e-002	1.5795
4041	14.828	4.8816	0.	7.452
4042	15.024	4.6952	0.	7.8899
4043	15.024	4.8816	5.e-002	1.6512
4044	14.438	4.8816	0.	6.9762
4045	14.633	4.6952	0.	7.4067
4046	14.633	4.8816	5.e-002	1.7231
4047	14.048	4.8816	0.	6.4148
4048	14.243	4.6952	0.	6.8354
4049	14.243	4.8816	5.e-002	1.7953
4050	13.658	4.8816	0.	5.7543
4051	13.853	4.6952	0.	6.1612
4052	13.853	4.8816	5.e-002	1.8677
4053	13.267	4.8816	0.	4.9793
4054	13.463	4.6952	0.	5.3673
4055	13.463	4.8816	5.e-002	1.9405
4056	12.877	4.8816	0.	4.073
4057	13.072	4.6952	0.	4.4345
4058	13.072	4.8816	5.e-002	2.0137
4059	12.487	4.8816	0.	3.0181
4060	12.682	4.6952	0.	3.3416
4061	12.682	4.8816	5.e-002	2.0874
4062	12.097	4.8816	0.	1.7971
4063	12.292	4.6952	0.	2.0662
4064	12.292	4.8816	5.e-002	2.1615
4065	11.706	4.8816	0.	0.39976
4066	11.901	4.6952	0.	0.58817
4067	11.901	4.8816	5.e-002	2.2361
4068	11.316	4.8816	0.	-3.4937e-002
4069	11.511	4.6952	0.	-3.1693e-002
4070	11.511	4.8816	5.e-002	2.311
4071	10.926	4.8816	0.	-3.5645e-002
4072	11.121	4.6952	0.	-3.2212e-002
4073	11.121	4.8816	5.e-002	2.3858
4074	10.535	4.8816	0.	-3.4705e-002
4075	10.731	4.6952	0.	-3.0874e-002
4076	10.731	4.8816	5.e-002	2.46
4077	10.145	4.8816	0.	-3.309e-002
4078	10.34	4.6952	0.	-2.9374e-002
4079	10.34	4.8816	5.e-002	2.532
4080	9.7549	4.8816	0.	-3.0202e-002
4081	9.95	4.6952	0.	-2.7631e-002
4082	9.95	4.8816	5.e-002	2.5992
4083	9.3646	4.8816	0.	-2.3634e-002
4084	9.5597	4.6952	0.	-2.496e-002
4085	9.5597	4.8816	5.e-002	2.6576
4086	8.9743	4.8816	0.	-9.5015e-003
4087	9.1694	4.6952	0.	-2.0583e-002
4088	9.1694	4.8816	5.e-002	2.6983
4089	8.584	4.8816	0.	1.0073e-002
4090	8.7792	4.6952	0.	-1.0381e-002
4091	8.7792	4.8816	5.e-002	2.7117
4092	8.1938	4.8816	0.	0.12796
4093	8.3889	4.6952	0.	1.0978e-002
4094	8.3889	4.8816	5.e-002	2.6565
4095	7.8049	4.8831	0.	0.32503
4096	7.9986	4.6952	0.	0.27259
4097	7.9986	4.8816	5.e-002	2.6272
4098	7.4156	4.886	0.	0.79063
4099	7.6153	4.7004	0.	-0.27238
4100	7.6111	4.8846	5.e-002	2.6939
4101	7.0371	4.8964	0.	0.40715
4102	7.2255	4.707	0.	1.8231
4103	7.2201	4.8874	5.e-002	1.7033
4104	6.6746	4.9229	0.	9.0704
4105	6.829	4.7161	0.	-2.214e-002
4106	6.854	4.9054	5.e-002	2.1724
4107	6.1034	4.556	0.	43.736
4108	6.289	4.6609	0.	22.293
4109	6.1306	4.6691	5.e-002	9.2426
4110	6.2118	4.435	0.	13.375
4111	6.0762	4.4429	5.e-002	9.1973
4112	6.4713	4.7966	0.	10.302
4113	6.4953	4.9405	5.e-002	6.7699
4114	6.0739	3.8445	0.	-1.3274
4115	6.0484	3.9719	5.e-002	13.616
4116	22.877	2.196	0.	11.826
4117	22.872	1.794	0.	10.84
4118	22.681	1.987	0.	11.452
4119	22.876	1.9973	5.e-002	0.22545
4120	22.879	2.5974	0.	12.444
4121	22.687	2.3899	0.	12.226
4122	22.877	2.3948	5.e-002	0.22542
4123	22.877	3.0044	0.	12.686
4124	22.696	2.7891	0.	12.655
4125	22.882	2.8	5.e-002	0.19724
4126	22.86	3.414	0.	12.416
4127	22.695	3.1973	0.	12.788
4128	22.872	3.2088	5.e-002	0.23137
4129	22.845	3.8241	0.	11.764
4130	22.64	3.6234	0.	12.055
4131	22.849	3.6191	5.e-002	0.24123
4132	22.841	4.2361	0.	10.789
4133	22.645	4.0423	0.	11.432
4134	22.842	4.029	5.e-002	0.22517
4135	7.0354	1.0973	0.	1.762
4136	6.6621	1.0559	0.	11.619
4137	6.8315	1.2693	0.	1.2194
4138	6.8462	1.0831	5.e-002	3.2511
4139	7.4164	1.1149	0.	0.96788
4140	7.228	1.2889	0.	1.7183
4141	7.2245	1.1114	5.e-002	2.2021
4142	7.8035	1.1184	0.	0.23099
4143	7.6128	1.3003	0.	-3.9514e-003
4144	7.6083	1.1184	5.e-002	2.4554
4145	8.1938	1.1184	0.	0.11067
4146	8.0011	1.3035	0.	0.22814
4147	7.9986	1.1184	5.e-002	2.6099
4148	8.584	1.1184	0.	1.7818e-002
4149	8.3889	1.3048	0.	-1.1543e-002
4150	8.3889	1.1184	5.e-002	2.6613
4151	8.9743	1.1184	0.	-5.7957e-003
4152	8.7792	1.3048	0.	3.6074e-003
4153	8.7792	1.1184	5.e-002	2.715
4154	9.3646	1.1184	0.	-2.5509e-002
4155	9.1694	1.3048	0.	-2.4556e-002
4156	9.1694	1.1184	5.e-002	2.6971
4157	9.7549	1.1184	0.	-2.9226e-002
4158	9.5597	1.3048	0.	-2.4822e-002
4159	9.5597	1.1184	5.e-002	2.6571
4160	10.145	1.1184	0.	-3.3104e-002
4161	9.95	1.3048	0.	-2.7258e-002
4162	9.95	1.1184	5.e-002	2.5987
4163	10.535	1.1184	0.	-3.4622e-002
4164	10.34	1.3048	0.	-2.9319e-002
4165	10.34	1.1184	5.e-002	2.5313
4166	10.926	1.1184	0.	-3.553e-002
4167	10.731	1.3048	0.	-3.0923e-002
4168	10.731	1.1184	5.e-002	2.4595
4169	11.316	1.1184	0.	-3.4879e-002
4170	11.121	1.3048	0.	-3.2213e-002
4171	11.121	1.1184	5.e-002	2.3855
4172	11.706	1.1184	0.	0.4025
4173	11.511	1.3048	0.	-3.1703e-002
4174	11.511	1.1184	5.e-002	2.3107
4175	12.097	1.1184	0.	1.7994
4176	11.901	1.3048	0.	0.59071
4177	11.901	1.1184	5.e-002	2.2359
4178	12.487	1.1184	0.	3.02
4179	12.292	1.3048	0.	2.0683
4180	12.292	1.1184	5.e-002	2.1614
4181	12.877	1.1184	0.	4.0746
4182	12.682	1.3048	0.	3.3433
4183	12.682	1.1184	5.e-002	2.0873
4184	13.267	1.1184	0.	4.9805
4185	13.072	1.3048	0.	4.4358
4186	13.072	1.1184	5.e-002	2.0137
4187	13.658	1.1184	0.	5.7552
4188	13.463	1.3048	0.	5.3684
4189	13.463	1.1184	5.e-002	1.9405
4190	14.048	1.1184	0.	6.4156
4191	13.853	1.3048	0.	6.1621
4192	13.853	1.1184	5.e-002	1.8677
4193	14.438	1.1184	0.	6.9767
4194	14.243	1.3048	0.	6.836
4195	14.243	1.1184	5.e-002	1.7952
4196	14.828	1.1184	0.	7.4524
4197	14.633	1.3048	0.	7.4072
4198	14.633	1.1184	5.e-002	1.7231
4199	15.219	1.1184	0.	7.8547
4200	15.024	1.3048	0.	7.8902
4201	15.024	1.1184	5.e-002	1.6512
4202	15.609	1.1184	0.	8.1939
4203	15.414	1.3048	0.	8.298
4204	15.414	1.1184	5.e-002	1.5794
4205	15.999	1.1184	0.	8.479
4206	15.804	1.3048	0.	8.6414
4207	15.804	1.1184	5.e-002	1.5079
4208	16.39	1.1184	0.	8.7177
4209	16.194	1.3048	0.	8.9298
4210	16.194	1.1184	5.e-002	1.4365
4211	16.78	1.1184	0.	8.9163
4212	16.585	1.3048	0.	9.1712
4213	16.585	1.1184	5.e-002	1.3652
4214	17.17	1.1184	0.	9.0802
4215	16.975	1.3048	0.	9.372
4216	16.975	1.1184	5.e-002	1.2941
4217	17.56	1.1184	0.	9.2139
4218	17.365	1.3048	0.	9.5379
4219	17.365	1.1184	5.e-002	1.223
4220	17.951	1.1184	0.	9.3209
4221	17.756	1.3048	0.	9.6733
4222	17.756	1.1184	5.e-002	1.1521
4223	18.341	1.1184	0.	9.4038
4224	18.146	1.3048	0.	9.7819
4225	18.146	1.1184	5.e-002	1.0813
4226	18.731	1.1184	0.	9.4645
4227	18.536	1.3048	0.	9.8668
4228	18.536	1.1184	5.e-002	1.0106
4229	19.122	1.1184	0.	9.5043
4230	18.926	1.3048	0.	9.9293
4231	18.926	1.1184	5.e-002	0.9402
4232	19.512	1.1184	0.	9.5232
4233	19.317	1.3048	0.	9.9706
4234	19.317	1.1184	5.e-002	0.87015
4235	19.902	1.1184	0.	9.5206
4236	19.707	1.3048	0.	9.9928
4237	19.707	1.1184	5.e-002	0.79916
4238	20.292	1.1184	0.	9.4992
4239	20.097	1.3048	0.	9.9982
4240	20.097	1.1184	5.e-002	0.73048
4241	20.683	1.1184	0.	9.4612
4242	20.489	1.3062	0.	9.9794
4243	20.487	1.1184	5.e-002	0.66337
4244	21.079	1.1236	0.	9.3952
4245	20.882	1.3112	0.	9.9522
4246	20.878	1.1184	5.e-002	0.59186
4247	21.48	1.1377	0.	9.3123
4248	21.285	1.3262	0.	9.8964
4249	21.28	1.1288	5.e-002	0.51193
4250	21.878	1.1548	0.	9.2063
4251	21.684	1.3456	0.	9.8478
4252	21.679	1.1466	5.e-002	0.43702
4253	22.274	1.1726	0.	9.0633
4254	22.081	1.3628	0.	9.7561
4255	22.076	1.1629	5.e-002	0.36702
4256	4.3303	1.1745	0.	142.64
4257	4.1229	1.2195	0.	79.04
4258	4.2773	1.1071	5.e-002	23.711
4259	4.3833	1.2419	5.e-002	9.0735
4260	4.336	1.6959	0.	115.11
4261	4.1754	1.6046	0.	61.877
4262	4.3087	1.5896	5.e-002	9.4791
4263	4.2547	1.8196	0.	63.397
4264	4.3632	1.8022	5.e-002	9.2523
4265	2.149	1.1339	0.	0.59775
4266	1.7553	1.1431	0.	-0.89859
4267	1.9451	1.3371	0.	1.5038
4268	1.9529	1.1382	5.e-002	7.0144
4269	2.5452	1.1264	0.	0.52011
4270	2.3381	1.3211	0.	0.60336
4271	2.3451	1.1297	5.e-002	6.6037
4272	2.9424	1.1215	0.	0.742
4273	2.7389	1.3069	0.	0.35119
4274	2.7453	1.1232	5.e-002	6.8603
4275	3.3323	1.1077	0.	1.1182
4276	3.1338	1.2986	0.	0.8412
4277	3.1394	1.1198	5.e-002	8.106
4278	3.6944	1.0571	0.	10.076
4279	3.5434	1.2977	0.	4.148
4280	3.5252	1.0956	5.e-002	8.5621
4281	3.916	1.1752	0.	36.97
4282	3.8636	1.0186	5.e-002	13.969
4283	1.137	3.8172	0.	14.821
4284	1.1485	4.222	0.	14.921
4285	1.3416	4.0309	0.	6.5453
4286	1.1445	4.0196	5.e-002	8.2002
4287	1.1245	3.4112	0.	15.661
4288	1.3137	3.6195	0.	5.9125
4289	1.1295	3.6149	5.e-002	8.4655
4290	1.1189	3.0038	0.	15.713
4291	1.2983	3.2068	0.	5.7303
4292	1.1195	3.2076	5.e-002	7.8784
4293	1.1243	2.5895	0.	15.099
4294	1.2985	2.7958	0.	6.3153
4295	1.1184	2.8	5.e-002	8.3181
4296	1.1389	2.1735	0.	15.11
4297	1.3201	2.3759	0.	7.645
4298	1.1303	2.379	5.e-002	7.7915
4299	1.1538	1.7638	0.	15.033
4300	1.3376	1.962	0.	6.2247
4301	1.1474	1.968	5.e-002	8.1153
4302	3.3164	4.9044	0.	0.36949
4303	3.6869	4.9458	0.	6.4214
4304	3.5143	4.7298	0.	1.1407
4305	3.5054	4.9189	5.e-002	9.7525
4306	2.9368	4.8858	0.	0.74544
4307	3.1268	4.7099	0.	1.7182
4308	3.1274	4.89	5.e-002	7.3609
4309	2.55	4.8816	0.	0.67756
4310	2.7434	4.6999	0.	1.0721
4311	2.7462	4.8816	5.e-002	6.8947
4312	2.1505	4.875	0.	1.3291
4313	2.3496	4.6885	0.	0.3573
4314	2.3538	4.8816	5.e-002	6.663
4315	1.7478	4.8562	0.	-0.37541
4316	1.9477	4.6663	0.	0.54081
4317	1.9471	4.8685	5.e-002	6.9218
4318	1.5493	4.6421	0.	-2.8838
4319	1.5486	4.8439	5.e-002	7.8256
4320	4.2292	4.6907	5.e-002	10.775
4321	4.3107	4.0614	0.	46.889
4322	4.3398	3.7998	0.	1.8898
4323	4.3304	3.9389	5.e-002	9.6277
4324	4.2911	4.1838	5.e-002	7.2569
4325	6.0738	1.6944	0.	18.031
4326	6.2184	1.575	0.	13.843
4327	6.0865	1.5661	5.e-002	7.0785
4328	6.059	1.9506	0.	-0.32333
4329	6.1855	2.0804	0.	-1.2295
4330	6.0569	2.0786	5.e-002	14.679
4331	6.1896	1.8297	0.	2.0396
4332	6.0611	1.8226	5.e-002	10.147
4333	5.2133	2.6516	0.	231.44
4334	5.2425	2.5876	5.e-002	13.922
4335	4.832	2.7376	0.	123.3
4336	4.7237	2.6614	0.	91.69
4337	4.8203	2.6335	5.e-002	16.293
4338	22.647	4.4509	0.	10.241
4339	22.84	4.4432	5.e-002	0.24038
4340	22.452	4.6577	0.	9.5498
4341	22.449	4.8569	5.e-002	0.31311
4342	22.475	1.3805	0.	9.6514
4343	22.472	1.1823	5.e-002	0.31061
4344	22.673	1.5848	0.	10.313
4345	22.868	1.5908	5.e-002	0.23569
4346	1.3537	1.5553	0.	5.8734
4347	1.1602	1.5597	5.e-002	8.429
4348	1.5524	1.3494	0.	-3.0623
4349	1.5578	1.1479	5.e-002	7.7389
4350	1.3512	4.4323	0.	6.0281
4351	1.1525	4.4244	5.e-002	8.1721
4352	3.8685	4.9726	5.e-002	14.899
4353	6.4545	1.1753	0.	12.559
4354	6.4779	1.0287	5.e-002	8.1502
4355	5.9083	2.6264	0.	2.3188
4356	5.7858	2.6088	5.e-002	21.665
4357	5.9702	3.4896	0.	2.9388
4358	5.8019	3.3788	0.	13.925
4359	5.8103	3.5151	5.e-002	27.885
4360	5.2471	3.2576	0.	191.76
4361	5.2535	3.3587	5.e-002	20.321
4362	4.5404	3.4351	0.	29.5
4363	4.6836	3.4406	5.e-002	31.694
4364	6.6257	4.5897	0.	0.93031
4365	6.3974	4.5399	0.	3.6984
4366	6.4473	4.6527	5.e-002	5.9837
4367	6.1148	3.5906	0.	1.2043
4368	6.2404	3.7136	0.	0.96206
4369	6.0994	3.7172	5.e-002	18.756
4370	4.2671	2.3252	0.	4.4442
4371	4.3761	2.2977	5.e-002	12.865
4372	4.3732	3.5452	0.	-9.9061e-002
4373	4.3492	3.6608	5.e-002	14.775
4374	21.868	4.4929	0.	10.331
4375	22.262	4.4698	0.	10.295
4376	22.066	4.2919	0.	10.812
4377	22.069	4.481	5.e-002	0.36114
4378	21.467	4.5068	0.	10.403
4379	21.659	4.3267	0.	10.813
4380	21.667	4.5048	5.e-002	0.45618
4381	21.073	4.5088	0.	10.471
4382	21.261	4.3309	0.	10.887
4383	21.268	4.5088	5.e-002	0.5247
4384	20.683	4.5088	0.	10.507
4385	20.872	4.326	0.	10.915
4386	20.878	4.5088	5.e-002	0.58518
4387	20.292	4.5088	0.	10.519
4388	20.485	4.3229	0.	10.922
4389	20.487	4.5088	5.e-002	0.65385
4390	19.902	4.5088	0.	10.514
4391	20.097	4.3224	0.	10.908
4392	20.097	4.5088	5.e-002	0.7256
4393	19.512	4.5088	0.	10.488
4394	19.707	4.3224	0.	10.88
4395	19.707	4.5088	5.e-002	0.79719
4396	19.122	4.5088	0.	10.444
4397	19.317	4.3224	0.	10.835
4398	19.317	4.5088	5.e-002	0.86809
4399	18.731	4.5088	0.	10.379
4400	18.926	4.3224	0.	10.768
4401	18.926	4.5088	5.e-002	0.93896
4402	18.341	4.5088	0.	10.292
4403	18.536	4.3224	0.	10.681
4404	18.536	4.5088	5.e-002	1.0099
4405	17.951	4.5088	0.	10.181
4406	18.146	4.3224	0.	10.571
4407	18.146	4.5088	5.e-002	1.081
4408	17.56	4.5088	0.	10.043
4409	17.756	4.3224	0.	10.435
4410	17.756	4.5088	5.e-002	1.1523
4411	17.17	4.5088	0.	9.8752
4412	17.365	4.3224	0.	10.269
4413	17.365	4.5088	5.e-002	1.2236
4414	16.78	4.5088	0.	9.6719
4415	16.975	4.3224	0.	10.07
4416	16.975	4.5088	5.e-002	1.295
4417	16.39	4.5088	0.	9.4278
4418	16.585	4.3224	0.	9.83
4419	16.585	4.5088	5.e-002	1.3665
4420	15.999	4.5088	0.	9.136
4421	16.194	4.3224	0.	9.5438
4422	16.194	4.5088	5.e-002	1.438
4423	15.609	4.5088	0.	8.7886
4424	15.804	4.3224	0.	9.2031
4425	15.804	4.5088	5.e-002	1.5097
4426	15.219	4.5088	0.	8.3758
4427	15.414	4.3224	0.	8.7981
4428	15.414	4.5088	5.e-002	1.5815
4429	14.828	4.5088	0.	7.8862
4430	15.024	4.3224	0.	8.3175
4431	15.024	4.5088	5.e-002	1.6534
4432	14.438	4.5088	0.	7.3067
4433	14.633	4.3224	0.	7.7479
4434	14.633	4.5088	5.e-002	1.7254
4435	14.048	4.5088	0.	6.6215
4436	14.243	4.3224	0.	7.0734
4437	14.243	4.5088	5.e-002	1.7976
4438	13.658	4.5088	0.	5.8128
4439	13.853	4.3224	0.	6.2757
4440	13.853	4.5088	5.e-002	1.8701
4441	13.267	4.5088	0.	4.8596
4442	13.463	4.3224	0.	5.3332
4443	13.463	4.5088	5.e-002	1.9429
4444	12.877	4.5088	0.	3.7386
4445	13.072	4.3224	0.	4.2207
4446	13.072	4.5088	5.e-002	2.016
4447	12.487	4.5088	0.	2.4234
4448	12.682	4.3224	0.	2.9097
4449	12.682	4.5088	5.e-002	2.0897
4450	12.097	4.5088	0.	0.88691
4451	12.292	4.3224	0.	1.3679
4452	12.292	4.5088	5.e-002	2.164
4453	11.706	4.5088	0.	-2.9353e-002
4454	11.901	4.3224	0.	-2.448e-002
4455	11.901	4.5088	5.e-002	2.2392
4456	11.316	4.5088	0.	-2.9629e-002
4457	11.511	4.3224	0.	-2.7709e-002
4458	11.511	4.5088	5.e-002	2.3156
4459	10.926	4.5088	0.	-2.763e-002
4460	11.121	4.3224	0.	-2.5436e-002
4461	11.121	4.5088	5.e-002	2.3937
4462	10.535	4.5088	0.	-2.5579e-002
4463	10.731	4.3224	0.	-2.2866e-002
4464	10.731	4.5088	5.e-002	2.4743
4465	10.145	4.5088	0.	-2.3799e-002
4466	10.34	4.3224	0.	-2.055e-002
4467	10.34	4.5088	5.e-002	2.5584
4468	9.7549	4.5088	0.	-2.2064e-002
4469	9.95	4.3224	0.	-1.8557e-002
4470	9.95	4.5088	5.e-002	2.648
4471	9.3646	4.5088	0.	-2.1236e-002
4472	9.5597	4.3224	0.	-1.8702e-002
4473	9.5597	4.5088	5.e-002	2.7462
4474	8.9743	4.5088	0.	-2.0145e-002
4475	9.1694	4.3224	0.	-2.1614e-002
4476	9.1694	4.5088	5.e-002	2.8538
4477	8.584	4.5088	0.	-6.9016e-003
4478	8.7792	4.3224	0.	-2.3759e-002
4479	8.7792	4.5088	5.e-002	2.9942
4480	8.1938	4.5088	0.	0.1625
4481	8.3889	4.3224	0.	1.011e-003
4482	8.3889	4.5088	5.e-002	3.1443
4483	7.809	4.5125	0.	-0.30067
4484	7.9986	4.3224	0.	0.16386
4485	7.9986	4.5088	5.e-002	3.3301
4486	7.4252	4.5214	0.	0.82823
4487	7.625	4.3316	0.	-4.5876e-002
4488	7.6195	4.5163	5.e-002	2.9611
4489	7.0175	4.5267	0.	1.6023
4490	7.2538	4.3474	0.	1.2699
4491	7.2309	4.5266	5.e-002	3.5141
4492	6.885	4.346	0.	0.90193
4493	6.6804	4.4256	0.	1.2057
4494	6.804	4.5267	5.e-002	6.005
4495	6.2982	4.3159	0.	2.7285
4496	6.3456	4.1944	0.	2.2244
4497	6.2489	4.2047	5.e-002	9.5776
4498	22.491	2.1809	0.	11.831
4499	22.481	1.7777	0.	10.896
4500	22.292	1.9709	0.	11.478
4501	22.485	1.9767	5.e-002	0.28926
4502	22.504	2.5816	0.	12.418
4503	22.303	2.3761	0.	12.209
4504	22.496	2.385	5.e-002	0.28341
4505	22.515	2.9821	0.	12.743
4506	22.325	2.781	0.	12.625
4507	22.511	2.7783	5.e-002	0.27781
4508	22.474	3.4068	0.	12.402
4509	22.337	3.1583	0.	12.71
4510	22.519	3.1858	5.e-002	0.29273
4511	22.439	3.8417	0.	11.698
4512	22.206	3.6984	0.	11.971
4513	22.282	3.5161	0.	12.366
4514	22.43	3.6277	5.e-002	0.20641
4515	22.452	4.2571	0.	10.852
4516	22.256	4.0793	0.	11.405
4517	22.449	4.0557	5.e-002	0.26736
4518	7.0241	1.4609	0.	1.349
4519	6.6239	1.3887	0.	1.0273
4520	6.873	1.6394	0.	0.74165
4521	6.7067	1.5429	0.	3.2505
4522	6.8168	1.4555	5.e-002	5.667
4523	7.4243	1.4743	0.	0.80795
4524	7.2469	1.6421	0.	1.2294
4525	7.2314	1.4664	5.e-002	3.6884
4526	7.8104	1.4855	0.	1.1829e-002
4527	7.6172	1.4823	5.e-002	3.4243
4528	8.1962	1.4899	0.	0.11228
4529	8.0036	1.4887	5.e-002	3.3373
4530	8.584	1.4912	0.	-2.2918e-002
4531	8.3874	1.6799	0.	1.013e-002
4532	8.3889	1.4912	5.e-002	3.1113
4533	8.9743	1.4912	0.	-1.383e-002
4534	8.7792	1.6776	0.	-2.4052e-002
4535	8.7792	1.4912	5.e-002	2.9893
4536	9.3646	1.4912	0.	-2.3201e-002
4537	9.1694	1.6776	0.	-2.7201e-002
4538	9.1694	1.4912	5.e-002	2.8584
4539	9.7549	1.4912	0.	-2.2519e-002
4540	9.5597	1.6776	0.	-1.7234e-002
4541	9.5597	1.4912	5.e-002	2.7433
4542	10.145	1.4912	0.	-2.3357e-002
4543	9.95	1.6776	0.	-1.9247e-002
4544	9.95	1.4912	5.e-002	2.6477
4545	10.535	1.4912	0.	-2.5657e-002
4546	10.34	1.6776	0.	-1.9582e-002
4547	10.34	1.4912	5.e-002	2.5579
4548	10.926	1.4912	0.	-2.7796e-002
4549	10.731	1.6776	0.	-2.2701e-002
4550	10.731	1.4912	5.e-002	2.4738
4551	11.316	1.4912	0.	-2.9699e-002
4552	11.121	1.6776	0.	-2.5235e-002
4553	11.121	1.4912	5.e-002	2.3934
4554	11.706	1.4912	0.	-2.94e-002
4555	11.511	1.6776	0.	-2.7595e-002
4556	11.511	1.4912	5.e-002	2.3154
4557	12.097	1.4912	0.	0.88922
4558	11.901	1.6776	0.	-2.4383e-002
4559	11.901	1.4912	5.e-002	2.239
4560	12.487	1.4912	0.	2.4253
4561	12.292	1.6776	0.	1.3698
4562	12.292	1.4912	5.e-002	2.1639
4563	12.877	1.4912	0.	3.7401
4564	12.682	1.6776	0.	2.9112
4565	12.682	1.4912	5.e-002	2.0896
4566	13.267	1.4912	0.	4.8608
4567	13.072	1.6776	0.	4.2219
4568	13.072	1.4912	5.e-002	2.0159
4569	13.658	1.4912	0.	5.8137
4570	13.463	1.6776	0.	5.3341
4571	13.463	1.4912	5.e-002	1.9428
4572	14.048	1.4912	0.	6.6223
4573	13.853	1.6776	0.	6.2765
4574	13.853	1.4912	5.e-002	1.8701
4575	14.438	1.4912	0.	7.3073
4576	14.243	1.6776	0.	7.074
4577	14.243	1.4912	5.e-002	1.7976
4578	14.828	1.4912	0.	7.8866
4579	14.633	1.6776	0.	7.7482
4580	14.633	1.4912	5.e-002	1.7254
4581	15.219	1.4912	0.	8.376
4582	15.024	1.6776	0.	8.3177
4583	15.024	1.4912	5.e-002	1.6533
4584	15.609	1.4912	0.	8.7887
4585	15.414	1.6776	0.	8.7981
4586	15.414	1.4912	5.e-002	1.5814
4587	15.999	1.4912	0.	9.136
4588	15.804	1.6776	0.	9.203
4589	15.804	1.4912	5.e-002	1.5097
4590	16.39	1.4912	0.	9.4276
4591	16.194	1.6776	0.	9.5436
4592	16.194	1.4912	5.e-002	1.438
4593	16.78	1.4912	0.	9.6715
4594	16.585	1.6776	0.	9.8295
4595	16.585	1.4912	5.e-002	1.3665
4596	17.17	1.4912	0.	9.8746
4597	16.975	1.6776	0.	10.069
4598	16.975	1.4912	5.e-002	1.295
4599	17.56	1.4912	0.	10.042
4600	17.365	1.6776	0.	10.268
4601	17.365	1.4912	5.e-002	1.2236
4602	17.951	1.4912	0.	10.18
4603	17.756	1.6776	0.	10.434
4604	17.756	1.4912	5.e-002	1.1522
4605	18.341	1.4912	0.	10.291
4606	18.146	1.6776	0.	10.569
4607	18.146	1.4912	5.e-002	1.081
4608	18.731	1.4912	0.	10.377
4609	18.536	1.6776	0.	10.678
4610	18.536	1.4912	5.e-002	1.01
4611	19.122	1.4912	0.	10.442
4612	18.926	1.6776	0.	10.765
4613	18.926	1.4912	5.e-002	0.93887
4614	19.512	1.4912	0.	10.486
4615	19.317	1.6776	0.	10.831
4616	19.317	1.4912	5.e-002	0.86666
4617	19.902	1.4912	0.	10.517
4618	19.707	1.6776	0.	10.879
4619	19.707	1.4912	5.e-002	0.79733
4620	20.294	1.4926	0.	10.525
4621	20.097	1.6776	0.	10.918
4622	20.097	1.4912	5.e-002	0.73248
4623	20.688	1.499	0.	10.519
4624	20.494	1.684	0.	10.934
4625	20.49	1.494	5.e-002	0.65905
4626	21.088	1.5139	0.	10.505
4627	20.894	1.6997	0.	10.943
4628	20.886	1.5041	5.e-002	0.57566
4629	21.49	1.5341	0.	10.486
4630	21.298	1.7233	0.	10.954
4631	21.291	1.5237	5.e-002	0.50202
4632	21.887	1.5536	0.	10.451
4633	21.697	1.7452	0.	10.956
4634	21.689	1.5445	5.e-002	0.43072
4635	22.282	1.5707	0.	10.394
4636	22.092	1.7639	0.	10.94
4637	22.086	1.5626	5.e-002	0.36275
4638	4.0052	1.4757	0.	26.288
4639	3.765	1.4158	0.	8.7254
4640	3.9685	1.3318	5.e-002	23.067
4641	4.0941	1.7283	0.	19.71
4642	4.042	1.6196	5.e-002	14.506
4643	4.1709	1.9575	0.	8.1618
4644	4.0599	1.8974	0.	-1.2841
4645	4.1462	1.837	5.e-002	13.068
4646	4.1768	2.2154	0.	4.9346
4647	4.1956	2.0781	5.e-002	6.8846
4648	2.1342	1.5243	0.	1.5192
4649	1.7422	1.5434	0.	-0.64699
4650	1.9373	1.536	5.e-002	6.6294
4651	2.5318	1.5016	0.	0.44419
4652	2.3312	1.5126	5.e-002	6.3275
4653	2.9304	1.4841	0.	0.4747
4654	2.7325	1.4907	5.e-002	6.1565
4655	3.3449	1.4887	0.	3.6443
4656	3.1061	1.6544	0.	1.2292
4657	3.1282	1.4775	5.e-002	6.6553
4658	3.4864	1.683	0.	3.5872
4659	3.5616	1.4998	5.e-002	11.664
4660	1.5183	3.8332	0.	-2.3648
4661	1.5443	4.2413	0.	-2.3576
4662	1.7409	4.0414	0.	-0.17252
4663	1.5387	4.0423	5.e-002	7.57
4664	1.4875	3.4151	0.	-4.0215
4665	1.6644	3.6064	0.	-0.91352
4666	1.4978	3.6242	5.e-002	7.5086
4667	1.4779	2.9988	0.	-3.6686
4668	1.6456	3.2031	0.	-0.43624
4669	1.4771	3.206	5.e-002	7.29
4670	1.4943	2.5822	0.	-1.1413
4671	1.6475	2.8045	0.	-0.70375
4672	1.4787	2.7916	5.e-002	6.4173
4673	1.5189	2.1644	0.	-1.2467
4674	1.7029	2.3775	0.	0.60129
4675	1.5099	2.3728	5.e-002	7.5459
4676	1.5375	1.7534	0.	-2.9367
4677	1.5278	1.956	5.e-002	7.5298
4678	3.3247	4.5352	0.	2.2904
4679	3.636	4.4527	0.	3.7103
4680	3.5232	4.5406	5.e-002	10.838
4681	2.9335	4.5239	0.	2.0555
4682	3.1238	4.3413	0.	1.9478
4683	3.1263	4.5298	5.e-002	6.5764
4684	2.543	4.5067	0.	0.7555
4685	2.7554	4.3334	0.	0.58439
4686	2.7407	4.5181	5.e-002	7.3988
4687	2.1469	4.4797	0.	-0.40409
4688	2.3628	4.3205	0.	0.17297
4689	2.3454	4.4954	5.e-002	4.8997
4690	1.7492	4.4522	0.	-1.9475
4691	1.9458	4.2523	0.	0.22695
4692	1.9484	4.464	5.e-002	6.2498
4693	1.5499	4.4403	5.e-002	7.6198
4694	3.8691	4.3939	0.	6.1807
4695	3.9894	4.423	5.e-002	8.0139
4696	6.3906	1.4529	0.	3.3294
4697	6.3342	1.7104	0.	2.1961
4698	6.4734	1.6071	0.	3.9168
4699	6.3502	1.5839	5.e-002	6.7685
4700	6.4311	1.3218	5.e-002	5.5384
4701	6.3161	1.9595	0.	0.74567
4702	6.3148	2.2362	0.	1.7848
4703	6.4662	2.1056	0.	0.18311
4704	6.3141	2.0823	5.e-002	9.9188
4705	6.4726	1.8404	0.	1.4444
4706	6.3181	1.8368	5.e-002	9.3068
4707	4.9271	2.7971	0.	153.11
4708	5.0243	2.8202	0.	182.17
4709	5.0972	2.7341	0.	212.12
4710	5.0104	2.7525	5.e-002	2.9674
4711	5.3024	2.8806	0.	150.44
4712	5.234	3.03	0.	183.22
4713	5.1391	2.9793	0.	179.42
4714	5.1934	2.875	0.	174.12
4715	5.2272	2.9034	5.e-002	13.707
4716	4.7567	2.8858	0.	102.65
4717	4.8438	2.8417	5.e-002	4.4388
4718	5.2808	2.7867	0.	183.51
4719	5.3776	2.8578	5.e-002	5.8385
4720	22.455	4.4586	5.e-002	0.30051
4721	22.478	1.5787	5.e-002	0.30117
4722	4.6483	2.8096	0.	69.401
4723	4.5251	2.7193	0.	17.158
4724	4.6272	2.6893	5.e-002	9.162
4725	1.5471	1.5508	5.e-002	7.6935
4726	6.4521	4.3758	0.	3.0347
4727	6.3474	4.4271	5.e-002	10.232
4728	6.2967	3.4534	0.	1.8477
4729	6.1301	3.464	5.e-002	25.466
4730	4.2363	3.4173	0.	-0.52999
4731	4.3973	3.4295	5.e-002	19.85
4732	6.1657	2.665	0.	-1.6833
4733	6.0309	2.6441	5.e-002	15.23
4734	6.4224	3.5764	0.	1.6054
4735	6.4898	3.7499	0.	2.0392
4736	6.3815	3.71	5.e-002	16.642
4737	4.1434	2.4878	0.	4.0348
4738	4.1581	2.3527	5.e-002	12.335
4739	2.1617	4.0931	0.	0.81355
4740	1.8871	3.8145	0.	1.2762
4741	2.0711	3.9067	0.	1.4285
4742	1.9432	4.0406	5.e-002	10.313
4743	3.7415	4.2545	0.	2.669
4744	3.7487	4.3649	5.e-002	9.4109
4745	7.0957	1.8206	0.	0.65961
4746	6.7781	1.8337	0.	0.6612
4747	6.9238	1.9805	0.	0.79032
4748	6.9291	1.8234	5.e-002	6.9578
4749	6.6119	1.7372	0.	2.8688
4750	6.5967	1.6303	5.e-002	7.8432
4751	6.308	2.538	0.	-0.86019
4752	6.4568	2.4095	0.	2.4648
4753	6.3156	2.3902	5.e-002	12.733
4754	5.1447	3.1864	0.	186.62
4755	5.2407	3.1566	5.e-002	13.071
4756	21.857	4.1258	0.	11.329
4757	22.023	3.936	0.	11.66
4758	22.063	4.1028	5.e-002	0.39344
4759	21.452	4.1508	0.	11.333
4760	21.624	3.9766	0.	11.63
4761	21.651	4.1487	5.e-002	0.41688
4762	21.06	4.148	0.	11.369
4763	21.239	3.9771	0.	11.673
4764	21.254	4.1529	5.e-002	0.54741
4765	20.675	4.1401	0.	11.37
4766	20.859	3.9646	0.	11.658
4767	20.867	4.1431	5.e-002	0.58596
4768	20.29	4.1365	0.	11.352
4769	20.477	3.9528	0.	11.652
4770	20.483	4.137	5.e-002	0.64714
4771	19.902	4.136	0.	11.316
4772	20.097	3.9496	0.	11.595
4773	20.097	4.136	5.e-002	0.71921
4774	19.512	4.136	0.	11.269
4775	19.707	3.9496	0.	11.569
4776	19.707	4.136	5.e-002	0.79334
4777	19.122	4.136	0.	11.202
4778	19.317	3.9496	0.	11.503
4779	19.317	4.136	5.e-002	0.86396
4780	18.731	4.136	0.	11.114
4781	18.926	3.9496	0.	11.415
4782	18.926	4.136	5.e-002	0.936
4783	18.341	4.136	0.	11.003
4784	18.536	3.9496	0.	11.307
4785	18.536	4.136	5.e-002	1.0073
4786	17.951	4.136	0.	10.868
4787	18.146	3.9496	0.	11.176
4788	18.146	4.136	5.e-002	1.0785
4789	17.56	4.136	0.	10.704
4790	17.756	3.9496	0.	11.018
4791	17.756	4.136	5.e-002	1.1499
4792	17.17	4.136	0.	10.507
4793	17.365	3.9496	0.	10.828
4794	17.365	4.136	5.e-002	1.2214
4795	16.78	4.136	0.	10.271
4796	16.975	3.9496	0.	10.601
4797	16.975	4.136	5.e-002	1.2929
4798	16.39	4.136	0.	9.9888
4799	16.585	3.9496	0.	10.331
4800	16.585	4.136	5.e-002	1.3645
4801	15.999	4.136	0.	9.6532
4802	16.194	3.9496	0.	10.009
4803	16.194	4.136	5.e-002	1.4362
4804	15.609	4.136	0.	9.2543
4805	15.804	3.9496	0.	9.6272
4806	15.804	4.136	5.e-002	1.5079
4807	15.219	4.136	0.	8.7809
4808	15.414	3.9496	0.	9.1736
4809	15.414	4.136	5.e-002	1.5797
4810	14.828	4.136	0.	8.2194
4811	15.024	3.9496	0.	8.6356
4812	15.024	4.136	5.e-002	1.6515
4813	14.438	4.136	0.	7.5539
4814	14.633	3.9496	0.	7.9975
4815	14.633	4.136	5.e-002	1.7235
4816	14.048	4.136	0.	6.7658
4817	14.243	3.9496	0.	7.2412
4818	14.243	4.136	5.e-002	1.7957
4819	13.658	4.136	0.	5.833
4820	13.853	3.9496	0.	6.345
4821	13.853	4.136	5.e-002	1.868
4822	13.267	4.136	0.	4.7296
4823	13.463	3.9496	0.	5.2831
4824	13.463	4.136	5.e-002	1.9406
4825	12.877	4.136	0.	3.4254
4826	13.072	3.9496	0.	4.0253
4827	13.072	4.136	5.e-002	2.0136
4828	12.487	4.136	0.	1.8854
4829	12.682	3.9496	0.	2.5357
4830	12.682	4.136	5.e-002	2.0871
4831	12.097	4.136	0.	8.5782e-002
4832	12.292	3.9496	0.	0.77316
4833	12.292	4.136	5.e-002	2.1615
4834	11.706	4.136	0.	-2.6255e-002
4835	11.901	3.9496	0.	-2.5425e-002
4836	11.901	4.136	5.e-002	2.2371
4837	11.316	4.136	0.	-2.3718e-002
4838	11.511	3.9496	0.	-2.2889e-002
4839	11.511	4.136	5.e-002	2.3147
4840	10.926	4.136	0.	-2.0734e-002
4841	11.121	3.9496	0.	-1.9421e-002
4842	11.121	4.136	5.e-002	2.3954
4843	10.535	4.136	0.	-1.7806e-002
4844	10.731	3.9496	0.	-1.5953e-002
4845	10.731	4.136	5.e-002	2.4813
4846	10.145	4.136	0.	-1.5162e-002
4847	10.34	3.9496	0.	-1.2226e-002
4848	10.34	4.136	5.e-002	2.5759
4849	9.7549	4.136	0.	-1.4873e-002
4850	9.95	3.9496	0.	-1.1635e-002
4851	9.95	4.136	5.e-002	2.6848
4852	9.3646	4.136	0.	-1.848e-002
4853	9.5597	3.9496	0.	-1.1805e-002
4854	9.5597	4.136	5.e-002	2.8165
4855	8.9743	4.136	0.	-2.4145e-002
4856	9.1694	3.9496	0.	-1.8253e-002
4857	9.1694	4.136	5.e-002	2.9863
4858	8.584	4.136	0.	-1.3473e-002
4859	8.7792	3.9496	0.	-3.2387e-002
4860	8.7792	4.136	5.e-002	3.2321
4861	8.1938	4.136	0.	6.2191e-003
4862	8.3889	3.9496	0.	-5.585e-002
4863	8.3889	4.136	5.e-002	3.5035
4864	7.8146	4.1414	0.	0.42251
4865	8.0014	3.9509	0.	0.18952
4866	7.9986	4.136	5.e-002	3.9977
4867	7.4537	4.1575	0.	0.40986
4868	7.6306	4.1469	5.e-002	4.8612
4869	7.1213	4.1668	0.	0.44039
4870	7.2767	4.1682	5.e-002	3.9889
4871	6.9704	3.9928	0.	-6.6665e-002
4872	6.9659	4.1654	5.e-002	9.4747
4873	6.4995	4.2543	0.	2.6368
4874	6.5568	4.3245	5.e-002	9.7584
4875	6.4423	4.1842	5.e-002	9.9032
4876	22.105	2.1662	0.	11.827
4877	21.902	1.9556	0.	11.486
4878	22.099	1.9652	5.e-002	0.35241
4879	22.125	2.5755	0.	12.391
4880	21.916	2.3566	0.	12.179
4881	22.11	2.3673	5.e-002	0.33699
4882	22.147	2.9573	0.	12.574
4883	21.942	2.7518	0.	12.556
4884	22.14	2.7838	5.e-002	0.35434
4885	22.145	3.2676	0.	12.662
4886	21.962	3.1118	0.	12.546
4887	22.155	3.1308	5.e-002	0.3433
4888	7.2654	1.9961	0.	0.31517
4889	7.2624	1.8178	5.e-002	5.0472
4890	8.5826	1.8663	0.	1.0818e-002
4891	8.3852	2.0572	0.	-5.3775e-002
4892	8.386	1.8687	5.e-002	3.6148
4893	8.9743	1.864	0.	-3.6214e-002
4894	8.7782	2.0524	0.	-3.9807e-002
4895	8.7792	1.864	5.e-002	3.2262
4896	9.3646	1.864	0.	-2.0664e-002
4897	9.1694	2.0504	0.	-3.3168e-002
4898	9.1694	1.864	5.e-002	2.9919
4899	9.7549	1.864	0.	-1.3653e-002
4900	9.5597	2.0504	0.	-1.3457e-002
4901	9.5597	1.864	5.e-002	2.8166
4902	10.145	1.864	0.	-1.5321e-002
4903	9.95	2.0504	0.	-1.4392e-002
4904	9.95	1.864	5.e-002	2.6815
4905	10.535	1.864	0.	-1.6596e-002
4906	10.34	2.0504	0.	-1.3893e-002
4907	10.34	1.864	5.e-002	2.5754
4908	10.926	1.864	0.	-2.0201e-002
4909	10.731	2.0504	0.	-1.6929e-002
4910	10.731	1.864	5.e-002	2.4811
4911	11.316	1.864	0.	-2.3332e-002
4912	11.121	2.0504	0.	-2.0135e-002
4913	11.121	1.864	5.e-002	2.3952
4914	11.706	1.864	0.	-2.6014e-002
4915	11.511	2.0504	0.	-2.3349e-002
4916	11.511	1.864	5.e-002	2.3145
4917	12.097	1.864	0.	8.7573e-002
4918	11.901	2.0504	0.	-2.5701e-002
4919	11.901	1.864	5.e-002	2.2369
4920	12.487	1.864	0.	1.887
4921	12.292	2.0504	0.	0.77461
4922	12.292	1.864	5.e-002	2.1614
4923	12.877	1.864	0.	3.4267
4924	12.682	2.0504	0.	2.5369
4925	12.682	1.864	5.e-002	2.087
4926	13.267	1.864	0.	4.7306
4927	13.072	2.0504	0.	4.0263
4928	13.072	1.864	5.e-002	2.0135
4929	13.658	1.864	0.	5.8337
4930	13.463	2.0504	0.	5.2839
4931	13.463	1.864	5.e-002	1.9406
4932	14.048	1.864	0.	6.7663
4933	13.853	2.0504	0.	6.3456
4934	13.853	1.864	5.e-002	1.868
4935	14.438	1.864	0.	7.5543
4936	14.243	2.0504	0.	7.2418
4937	14.243	1.864	5.e-002	1.7956
4938	14.828	1.864	0.	8.2195
4939	14.633	2.0504	0.	7.9979
4940	14.633	1.864	5.e-002	1.7235
4941	15.219	1.864	0.	8.7809
4942	15.024	2.0504	0.	8.6359
4943	15.024	1.864	5.e-002	1.6515
4944	15.609	1.864	0.	9.2542
4945	15.414	2.0504	0.	9.1738
4946	15.414	1.864	5.e-002	1.5797
4947	15.999	1.864	0.	9.6529
4948	15.804	2.0504	0.	9.6273
4949	15.804	1.864	5.e-002	1.5079
4950	16.39	1.864	0.	9.9884
4951	16.194	2.0504	0.	10.009
4952	16.194	1.864	5.e-002	1.4362
4953	16.78	1.864	0.	10.27
4954	16.585	2.0504	0.	10.331
4955	16.585	1.864	5.e-002	1.3645
4956	17.17	1.864	0.	10.506
4957	16.975	2.0504	0.	10.601
4958	16.975	1.864	5.e-002	1.2929
4959	17.56	1.864	0.	10.703
4960	17.365	2.0504	0.	10.827
4961	17.365	1.864	5.e-002	1.2213
4962	17.951	1.864	0.	10.866
4963	17.756	2.0504	0.	11.016
4964	17.756	1.864	5.e-002	1.1499
4965	18.341	1.864	0.	11.
4966	18.146	2.0504	0.	11.174
4967	18.146	1.864	5.e-002	1.0784
4968	18.731	1.864	0.	11.11
4969	18.536	2.0504	0.	11.304
4970	18.536	1.864	5.e-002	1.0057
4971	19.122	1.864	0.	11.199
4972	18.926	2.0504	0.	11.412
4973	18.926	1.864	5.e-002	0.93548
4974	19.512	1.864	0.	11.267
4975	19.317	2.0504	0.	11.502
4976	19.317	1.864	5.e-002	0.86542
4977	19.902	1.864	0.	11.324
4978	19.707	2.0504	0.	11.582
4979	19.707	1.864	5.e-002	0.79804
4980	20.297	1.869	0.	11.371
4981	20.101	2.0548	0.	11.645
4982	20.097	1.864	5.e-002	0.72805
4983	20.7	1.8847	0.	11.402
4984	20.501	2.0669	0.	11.682
4985	20.497	1.8741	5.e-002	0.65019
4986	21.104	1.9091	0.	11.437
4987	20.908	2.0882	0.	11.734
4988	20.902	1.8953	5.e-002	0.57695
4989	21.505	1.9344	0.	11.469
4990	21.312	2.1152	0.	11.78
4991	21.305	1.9229	5.e-002	0.4985
4992	3.9736	1.9578	5.e-002	10.848
4993	3.2476	1.8487	0.	0.94034
4994	3.0787	2.0185	0.	0.93245
4995	3.0839	1.8313	5.e-002	4.6879
4996	1.8152	3.0087	0.	2.5246
4997	1.8225	3.3943	0.	2.669
4998	1.9847	3.1922	0.	2.7888
4999	1.8141	3.2001	5.e-002	4.5934
5000	1.8561	2.5997	0.	1.0326
5001	1.9857	2.8405	0.	-2.9366
5002	1.8163	2.8173	5.e-002	5.1364
5003	2.9458	4.1508	0.	0.49672
5004	3.1504	3.9526	0.	1.0546
5005	3.1214	4.1529	5.e-002	4.6005
5006	2.5752	4.1472	0.	1.2971e-003
5007	2.8014	3.9691	0.	-1.4398
5008	2.7702	4.1488	5.e-002	3.8875
5009	2.4291	3.9769	0.	0.696
5010	2.3801	4.1456	5.e-002	2.826
5011	3.7504	4.0114	0.	-3.0745
5012	3.8144	3.7776	0.	-2.4897
5013	3.7666	3.8787	5.e-002	3.7883
5014	3.7343	4.1442	5.e-002	6.9153
5015	6.6227	1.9866	0.	0.71903
5016	6.6081	2.2789	0.	0.83043
5017	6.7683	2.1333	0.	0.96189
5018	6.6182	2.129	5.e-002	8.4216
5019	6.6271	1.8441	5.e-002	8.1091
5020	5.0446	2.9716	0.	181.82
5021	5.0988	2.8673	0.	175.68
5022	5.0381	2.888	5.e-002	14.184
5023	5.0499	3.1357	0.	183.02
5024	5.0511	3.0552	5.e-002	23.402
5025	4.5924	2.9552	0.	46.083
5026	4.6695	2.9299	5.e-002	27.418
5027	5.7935	3.2425	5.e-002	24.843
5028	4.4692	2.8649	0.	-3.9139
5029	4.3049	2.8028	0.	1.1581
5030	4.423	2.7493	5.e-002	17.949
5031	6.6521	3.4657	0.	8.4934e-002
5032	6.4709	3.2823	0.	-1.1754
5033	6.4633	3.4428	5.e-002	16.631
5034	1.9931	3.5436	0.	-1.5595
5035	1.831	3.5885	5.e-002	5.7263
5036	4.0753	3.405	5.e-002	20.934
5037	6.4406	2.726	0.	-2.5849
5038	6.3005	2.6859	5.e-002	17.486
5039	21.937	3.6433	0.	12.154
5040	21.79	3.7868	0.	11.985
5041	21.983	3.7691	5.e-002	0.43937
5042	22.013	3.461	0.	12.561
5043	22.135	3.4044	5.e-002	0.18344
5044	6.7195	3.6392	0.	0.54908
5045	6.6671	3.8469	0.	-2.1699
5046	6.5982	3.7898	5.e-002	4.6624
5047	21.714	2.1459	0.	11.804
5048	21.706	1.946	5.e-002	0.42303
5049	2.0387	2.4982	0.	3.1104
5050	1.8959	2.3822	5.e-002	13.695
5051	3.4112	1.8661	5.e-002	10.37
5052	3.8622	3.6766	5.e-002	4.7319
5053	6.5893	2.5974	0.	0.69705
5054	6.7383	2.4422	0.	-0.16019
5055	6.598	2.4287	5.e-002	8.9973
5056	6.8985	2.2967	0.	-6.867e-002
5057	7.0934	2.156	0.	0.49778
5058	6.9184	2.1376	5.e-002	7.1545
5059	21.037	3.7937	0.	11.992
5060	21.411	3.8029	0.	12.001
5061	21.206	3.6303	0.	12.299
5062	21.223	3.8013	5.e-002	0.52414
5063	20.662	3.7774	0.	11.976
5064	20.841	3.6046	0.	12.095
5065	20.851	3.7862	5.e-002	0.57016
5066	20.285	3.7659	0.	11.934
5067	20.479	3.5758	0.	12.066
5068	20.472	3.7686	5.e-002	0.61134
5069	19.902	3.7632	0.	11.888
5070	20.097	3.5736	0.	12.084
5071	20.097	3.7632	5.e-002	0.70061
5072	19.512	3.7632	0.	11.844
5073	19.707	3.5768	0.	12.037
5074	19.707	3.7632	5.e-002	0.79644
5075	19.122	3.7632	0.	11.757
5076	19.317	3.5768	0.	11.96
5077	19.317	3.7632	5.e-002	0.86343
5078	18.731	3.7632	0.	11.649
5079	18.926	3.5768	0.	11.856
5080	18.926	3.7632	5.e-002	0.93321
5081	18.341	3.7632	0.	11.521
5082	18.536	3.5768	0.	11.733
5083	18.536	3.7632	5.e-002	1.0038
5084	17.951	3.7632	0.	11.368
5085	18.146	3.5768	0.	11.587
5086	18.146	3.7632	5.e-002	1.0763
5087	17.56	3.7632	0.	11.184
5088	17.756	3.5768	0.	11.413
5089	17.756	3.7632	5.e-002	1.148
5090	17.17	3.7632	0.	10.964
5091	17.365	3.5768	0.	11.206
5092	17.365	3.7632	5.e-002	1.2195
5093	16.78	3.7632	0.	10.703
5094	16.975	3.5768	0.	10.961
5095	16.975	3.7632	5.e-002	1.2911
5096	16.39	3.7632	0.	10.393
5097	16.585	3.5768	0.	10.669
5098	16.585	3.7632	5.e-002	1.3628
5099	15.999	3.7632	0.	10.025
5100	16.194	3.5768	0.	10.323
5101	16.194	3.7632	5.e-002	1.4345
5102	15.609	3.7632	0.	9.5874
5103	15.804	3.5768	0.	9.9117
5104	15.804	3.7632	5.e-002	1.5062
5105	15.219	3.7632	0.	9.0685
5106	15.414	3.5768	0.	9.4244
5107	15.414	3.7632	5.e-002	1.578
5108	14.828	3.7632	0.	8.4531
5109	15.024	3.5768	0.	8.8464
5110	15.024	3.7632	5.e-002	1.6498
5111	14.438	3.7632	0.	7.7232
5112	14.633	3.5768	0.	8.1607
5113	14.633	3.7632	5.e-002	1.7217
5114	14.048	3.7632	0.	6.8575
5115	14.243	3.5768	0.	7.3473
5116	14.243	3.7632	5.e-002	1.7938
5117	13.658	3.7632	0.	5.8309
5118	13.853	3.5768	0.	6.382
5119	13.853	3.7632	5.e-002	1.866
5120	13.267	3.7632	0.	4.6129
5121	13.463	3.5768	0.	5.2362
5122	13.463	3.7632	5.e-002	1.9384
5123	12.877	3.7632	0.	3.1679
5124	13.072	3.5768	0.	3.8754
5125	13.072	3.7632	5.e-002	2.0112
5126	12.487	3.7632	0.	1.4529
5127	12.682	3.5768	0.	2.2583
5128	12.682	3.7632	5.e-002	2.0846
5129	12.097	3.7632	0.	-2.4471e-002
5130	12.292	3.5768	0.	0.33644
5131	12.292	3.7632	5.e-002	2.1589
5132	11.706	3.7632	0.	-2.2432e-002
5133	11.901	3.5768	0.	-2.2631e-002
5134	11.901	3.7632	5.e-002	2.2347
5135	11.316	3.7632	0.	-1.8659e-002
5136	11.511	3.5768	0.	-1.8673e-002
5137	11.511	3.7632	5.e-002	2.313
5138	10.926	3.7632	0.	-1.4638e-002
5139	11.121	3.7632	5.e-002	2.3956
5140	10.535	3.7632	0.	-1.0298e-002
5141	10.731	3.7632	5.e-002	2.4853
5142	10.145	3.7632	0.	-8.514e-003
5143	10.34	3.7632	5.e-002	2.5872
5144	9.7549	3.7632	0.	-8.2297e-003
5145	9.95	3.7632	5.e-002	2.7077
5146	9.3646	3.7632	0.	-1.0999e-002
5147	9.5597	3.7632	5.e-002	2.8672
5148	8.9743	3.7632	0.	-2.5451e-002
5149	9.1694	3.7632	5.e-002	3.0833
5150	8.584	3.7632	0.	-7.319e-002
5151	8.7792	3.5768	0.	-4.2829e-002
5152	8.7792	3.7632	5.e-002	3.3906
5153	8.1966	3.7645	0.	0.12992
5154	8.3889	3.5768	0.	-6.3773e-002
5155	8.3889	3.7632	5.e-002	3.8427
5156	8.0014	3.5781	0.	0.27412
5157	8.0043	3.7658	5.e-002	4.5891
5158	6.9078	3.6544	0.	-0.33535
5159	6.8554	3.8621	0.	-3.0938
5160	6.9749	3.8203	5.e-002	8.5747
5161	21.756	2.9064	0.	12.506
5162	21.733	2.5329	0.	12.318
5163	21.538	2.7055	0.	12.463
5164	21.743	2.7199	5.e-002	0.44096
5165	21.83	3.3052	0.	12.431
5166	21.584	3.0803	0.	12.492
5167	21.77	3.0928	5.e-002	0.36583
5168	7.8051	2.2382	0.	0.12676
5169	7.4428	2.2009	0.	1.0877e-002
5170	7.5917	2.4317	0.	-1.0192
5171	7.6171	2.2273	5.e-002	5.0089
5172	8.1888	2.2474	0.	4.5234e-002
5173	7.9885	2.4391	0.	7.1673e-002
5174	7.9931	2.2491	5.e-002	4.3881
5175	8.5809	2.2433	0.	-0.1025
5176	8.3845	2.2458	5.e-002	3.8525
5177	8.9734	2.2388	0.	-3.5759e-002
5178	8.7773	2.2409	5.e-002	3.4125
5179	9.3646	2.2368	0.	-2.5361e-002
5180	9.1694	2.2368	5.e-002	3.0704
5181	9.7549	2.2368	0.	-1.3863e-002
5182	9.5597	2.2368	5.e-002	2.8742
5183	10.145	2.2368	0.	-1.2789e-002
5184	9.95	2.2368	5.e-002	2.7104
5185	10.535	2.2368	0.	-1.4149e-002
5186	10.34	2.2368	5.e-002	2.5865
5187	10.926	2.2368	0.	-1.686e-002
5188	10.731	2.2368	5.e-002	2.4854
5189	11.316	2.2368	0.	-2.022e-002
5190	11.121	2.4232	0.	-1.4304e-002
5191	11.121	2.2368	5.e-002	2.3956
5192	11.706	2.2368	0.	-2.3411e-002
5193	11.511	2.4232	0.	-1.8764e-002
5194	11.511	2.2368	5.e-002	2.3131
5195	12.097	2.2368	0.	-2.5018e-002
5196	11.901	2.4232	0.	-2.2721e-002
5197	11.901	2.2368	5.e-002	2.2347
5198	12.487	2.2368	0.	1.4539
5199	12.292	2.4232	0.	0.33614
5200	12.292	2.2368	5.e-002	2.1589
5201	12.877	2.2368	0.	3.1687
5202	12.682	2.4232	0.	2.2587
5203	12.682	2.2368	5.e-002	2.0846
5204	13.267	2.2368	0.	4.6137
5205	13.072	2.4232	0.	3.8764
5206	13.072	2.2368	5.e-002	2.0112
5207	13.658	2.2368	0.	5.8316
5208	13.463	2.4232	0.	5.2376
5209	13.463	2.2368	5.e-002	1.9384
5210	14.048	2.2368	0.	6.8582
5211	13.853	2.4232	0.	6.3838
5212	13.853	2.2368	5.e-002	1.866
5213	14.438	2.2368	0.	7.7238
5214	14.243	2.4232	0.	7.3494
5215	14.243	2.2368	5.e-002	1.7938
5216	14.828	2.2368	0.	8.4536
5217	14.633	2.4232	0.	8.163
5218	14.633	2.2368	5.e-002	1.7218
5219	15.219	2.2368	0.	9.069
5220	15.024	2.4232	0.	8.8489
5221	15.024	2.2368	5.e-002	1.6498
5222	15.609	2.2368	0.	9.5878
5223	15.414	2.4232	0.	9.4271
5224	15.414	2.2368	5.e-002	1.578
5225	15.999	2.2368	0.	10.025
5226	15.804	2.4232	0.	9.9145
5227	15.804	2.2368	5.e-002	1.5062
5228	16.39	2.2368	0.	10.393
5229	16.194	2.4232	0.	10.325
5230	16.194	2.2368	5.e-002	1.4345
5231	16.78	2.2368	0.	10.704
5232	16.585	2.4232	0.	10.672
5233	16.585	2.2368	5.e-002	1.3628
5234	17.17	2.2368	0.	10.964
5235	16.975	2.4232	0.	10.963
5236	16.975	2.2368	5.e-002	1.2911
5237	17.56	2.2368	0.	11.183
5238	17.365	2.4232	0.	11.209
5239	17.365	2.2368	5.e-002	1.2195
5240	17.951	2.2368	0.	11.367
5241	17.756	2.4232	0.	11.415
5242	17.756	2.2368	5.e-002	1.1479
5243	18.341	2.2368	0.	11.52
5244	18.146	2.4232	0.	11.589
5245	18.146	2.2368	5.e-002	1.0758
5246	18.731	2.2368	0.	11.648
5247	18.536	2.4232	0.	11.735
5248	18.536	2.2368	5.e-002	1.0074
5249	19.122	2.2368	0.	11.757
5250	18.926	2.4232	0.	11.853
5251	18.926	2.2368	5.e-002	0.93756
5252	19.512	2.2368	0.	11.859
5253	19.317	2.4273	0.	11.957
5254	19.317	2.2368	5.e-002	0.86046
5255	19.906	2.2412	0.	11.944
5256	19.706	2.4305	0.	12.065
5257	19.707	2.2368	5.e-002	0.79252
5258	20.305	2.2527	0.	11.997
5259	20.105	2.4368	0.	12.146
5260	20.104	2.2457	5.e-002	0.72243
5261	20.71	2.2704	0.	12.053
5262	20.512	2.452	0.	12.212
5263	20.505	2.2598	5.e-002	0.65288
5264	21.116	2.2943	0.	12.114
5265	20.919	2.4722	0.	12.222
5266	20.914	2.2811	5.e-002	0.57149
5267	21.521	2.3267	0.	12.15
5268	21.326	2.4993	0.	12.267
5269	21.319	2.3075	5.e-002	0.50872
5270	2.9095	2.2096	0.	-0.45021
5271	2.7754	2.3851	0.	-1.8301
5272	2.7454	2.2137	5.e-002	2.419
5273	3.0735	2.2056	5.e-002	0.96017
5274	2.1552	3.024	0.	-2.685
5275	2.1552	3.3415	0.	-1.4484
5276	2.3327	3.1799	0.	0.87145
5277	2.1553	3.1844	5.e-002	4.4761
5278	2.1683	2.739	0.	-0.86985
5279	2.3355	2.8679	0.	-4.2628
5280	2.1551	2.8637	5.e-002	5.0907
5281	2.6554	3.7988	0.	-0.74996
5282	3.006	3.7709	0.	-0.85711
5283	2.8326	3.7894	5.e-002	2.0898
5284	2.3386	3.7905	0.	1.299
5285	2.4962	3.6431	0.	0.22564
5286	2.4782	3.8081	5.e-002	3.7042
5287	2.1771	3.6357	0.	-1.4118
5288	2.1991	3.7728	5.e-002	7.0713
5289	4.4003	2.9942	0.	-8.7104
5290	4.5153	2.9805	5.e-002	11.007
5291	2.3071	2.5731	0.	2.8826
5292	2.1815	2.6143	5.e-002	9.7271
5293	2.3347	3.4883	0.	-2.4935
5294	2.1551	3.4986	5.e-002	5.4844
5295	3.2344	3.5536	0.	1.9832
5296	3.1794	3.7523	5.e-002	3.5284
5297	21.891	3.5175	5.e-002	0.42086
5298	21.598	3.8046	5.e-002	0.4161
5299	7.0448	3.4625	0.	1.4762
5300	6.8408	3.4886	5.e-002	8.1803
5301	21.723	2.3459	5.e-002	0.42169
5302	6.5296	2.9439	0.	-0.87095
5303	6.7173	2.7847	0.	1.4444
5304	6.5807	2.766	5.e-002	12.971
5305	6.8663	2.6295	0.	0.58925
5306	7.042	2.4617	0.	-0.5084
5307	6.8787	2.4557	5.e-002	8.391
5308	7.2369	2.3211	0.	3.8766e-002
5309	7.2685	2.1745	5.e-002	5.8369
5310	6.4785	3.1219	5.e-002	12.393
5311	4.0108	2.6599	0.	-3.8347
5312	3.893	2.6968	5.e-002	2.6144
5313	7.4397	3.4203	0.	0.79776
5314	7.2398	3.2683	0.	0.54643
5315	7.2488	3.4364	5.e-002	8.1633
5316	7.8146	3.3973	0.	-0.58444
5317	7.6213	3.2201	0.	-0.58665
5318	7.6305	3.4043	5.e-002	5.2793
5319	8.1938	3.3904	0.	8.3899e-002
5320	7.9967	3.1992	0.	-5.6336e-002
5321	7.9986	3.3904	5.e-002	4.7911
5322	8.584	3.3904	0.	-3.1758e-002
5323	8.3868	3.1981	0.	-5.5133e-002
5324	8.3889	3.3904	5.e-002	4.0438
5325	8.7793	3.1973	0.	-4.0988e-002
5326	8.7792	3.3904	5.e-002	3.5005
5327	11.706	3.3904	0.	-1.8957e-002
5328	11.511	3.204	0.	-1.5947e-002
5329	11.511	3.3904	5.e-002	2.3119
5330	12.097	3.3904	0.	-2.3025e-002
5331	11.901	3.204	0.	-2.0688e-002
5332	11.901	3.3904	5.e-002	2.2331
5333	12.487	3.3904	0.	1.17
5334	12.292	3.204	0.	0.10101
5335	12.292	3.3904	5.e-002	2.1572
5336	12.877	3.3904	0.	2.9972
5337	12.682	3.204	0.	2.1082
5338	12.682	3.3904	5.e-002	2.083
5339	13.267	3.3904	0.	4.532
5340	13.072	3.204	0.	3.7925
5341	13.072	3.3904	5.e-002	2.0097
5342	13.658	3.3904	0.	5.8224
5343	13.463	3.204	0.	5.2073
5344	13.463	3.3904	5.e-002	1.937
5345	14.048	3.3904	0.	6.9082
5346	13.853	3.204	0.	6.3969
5347	13.853	3.3904	5.e-002	1.8647
5348	14.438	3.3904	0.	7.8225
5349	14.243	3.204	0.	7.398
5350	14.243	3.3904	5.e-002	1.7926
5351	14.828	3.3904	0.	8.5927
5352	14.633	3.204	0.	8.2412
5353	14.633	3.3904	5.e-002	1.7206
5354	15.219	3.3904	0.	9.2419
5355	15.024	3.204	0.	8.9515
5356	15.024	3.3904	5.e-002	1.6487
5357	15.609	3.3904	0.	9.7891
5358	15.414	3.204	0.	9.5502
5359	15.414	3.3904	5.e-002	1.5769
5360	15.999	3.3904	0.	10.25
5361	15.804	3.204	0.	10.055
5362	15.804	3.3904	5.e-002	1.5051
5363	16.39	3.3904	0.	10.639
5364	16.194	3.204	0.	10.481
5365	16.194	3.3904	5.e-002	1.4334
5366	16.78	3.3904	0.	10.967
5367	16.585	3.204	0.	10.84
5368	16.585	3.3904	5.e-002	1.3617
5369	17.17	3.3904	0.	11.244
5370	16.975	3.204	0.	11.143
5371	16.975	3.3904	5.e-002	1.29
5372	17.56	3.3904	0.	11.477
5373	17.365	3.204	0.	11.398
5374	17.365	3.3904	5.e-002	1.2183
5375	17.951	3.3904	0.	11.674
5376	17.756	3.204	0.	11.614
5377	17.756	3.3904	5.e-002	1.1466
5378	18.341	3.3904	0.	11.84
5379	18.146	3.204	0.	11.796
5380	18.146	3.3904	5.e-002	1.0746
5381	18.731	3.3904	0.	11.98
5382	18.536	3.204	0.	11.95
5383	18.536	3.3904	5.e-002	1.0061
5384	19.122	3.3904	0.	12.099
5385	18.926	3.204	0.	12.078
5386	18.926	3.3904	5.e-002	0.93531
5387	19.512	3.3904	0.	12.192
5388	19.316	3.2006	0.	12.193
5389	19.317	3.3904	5.e-002	0.86066
5390	19.902	3.3872	0.	12.273
5391	19.708	3.198	0.	12.289
5392	19.707	3.3904	5.e-002	0.78497
5393	20.291	3.3835	0.	12.253
5394	20.101	3.1951	0.	12.375
5395	20.098	3.384	5.e-002	0.71373
5396	20.658	3.403	0.	12.221
5397	20.498	3.1977	0.	12.425
5398	20.485	3.383	5.e-002	0.6959
5399	21.01	3.4412	0.	12.43
5400	20.904	3.2333	0.	12.379
5401	20.831	3.423	5.e-002	0.4815
5402	2.619	2.5442	0.	-0.76236
5403	2.844	2.7256	0.	-0.1092
5404	2.8053	2.5566	5.e-002	2.277
5405	2.5131	3.0238	0.	-0.71865
5406	2.5123	3.3267	0.	-0.18193
5407	2.6927	3.183	0.	0.25018
5408	2.5102	3.1755	5.e-002	2.2253
5409	2.4743	2.702	0.	-0.49331
5410	2.6993	2.8834	0.	0.1437
5411	2.5159	2.8722	5.e-002	4.452
5412	2.5143	3.478	5.e-002	4.4895
5413	21.129	2.6772	0.	12.409
5414	21.365	2.8795	0.	12.42
5415	21.333	2.6912	5.e-002	0.50407
5416	21.083	3.2515	0.	12.552
5417	21.19	3.4594	5.e-002	0.49354
5418	7.9894	2.8185	0.	-0.2051
5419	7.7751	2.6327	0.	-1.0738
5420	7.9839	2.6292	5.e-002	5.0337
5421	11.316	2.6096	0.	-1.286e-002
5422	11.121	2.8136	0.	-9.8626e-003
5423	11.121	2.6096	5.e-002	2.3952
5424	11.706	2.6096	0.	-1.8157e-002
5425	11.511	2.8136	0.	-1.5429e-002
5426	11.511	2.6096	5.e-002	2.3116
5427	12.097	2.6096	0.	-2.2625e-002
5428	11.901	2.8136	0.	-2.0407e-002
5429	11.901	2.6096	5.e-002	2.2329
5430	12.487	2.6096	0.	1.1691
5431	12.292	2.8136	0.	9.7342e-002
5432	12.292	2.6096	5.e-002	2.157
5433	12.877	2.6096	0.	2.9977
5434	12.682	2.8136	0.	2.1052
5435	12.682	2.6096	5.e-002	2.0828
5436	13.267	2.6096	0.	4.5336
5437	13.072	2.8136	0.	3.7898
5438	13.072	2.6096	5.e-002	2.0096
5439	13.658	2.6096	0.	5.8249
5440	13.463	2.8136	0.	5.2049
5441	13.463	2.6096	5.e-002	1.9369
5442	14.048	2.6096	0.	6.9114
5443	13.853	2.8136	0.	6.3948
5444	13.853	2.6096	5.e-002	1.8646
5445	14.438	2.6096	0.	7.8263
5446	14.243	2.8136	0.	7.3962
5447	14.243	2.6096	5.e-002	1.7925
5448	14.828	2.6096	0.	8.597
5449	14.633	2.8136	0.	8.2394
5450	14.633	2.6096	5.e-002	1.7206
5451	15.219	2.6096	0.	9.2466
5452	15.024	2.8136	0.	8.9499
5453	15.024	2.6096	5.e-002	1.6487
5454	15.609	2.6096	0.	9.7941
5455	15.414	2.8136	0.	9.5487
5456	15.414	2.6096	5.e-002	1.5769
5457	15.999	2.6096	0.	10.256
5458	15.804	2.8136	0.	10.054
5459	15.804	2.6096	5.e-002	1.5051
5460	16.39	2.6096	0.	10.645
5461	16.194	2.8136	0.	10.479
5462	16.194	2.6096	5.e-002	1.4334
5463	16.78	2.6096	0.	10.973
5464	16.585	2.8136	0.	10.838
5465	16.585	2.6096	5.e-002	1.3617
5466	17.17	2.6096	0.	11.25
5467	16.975	2.8136	0.	11.141
5468	16.975	2.6096	5.e-002	1.29
5469	17.56	2.6096	0.	11.483
5470	17.365	2.8136	0.	11.397
5471	17.365	2.6096	5.e-002	1.2183
5472	17.951	2.6096	0.	11.679
5473	17.756	2.8136	0.	11.613
5474	17.756	2.6096	5.e-002	1.1466
5475	18.341	2.6096	0.	11.844
5476	18.146	2.8136	0.	11.794
5477	18.146	2.6096	5.e-002	1.0755
5478	18.731	2.6096	0.	11.98
5479	18.536	2.8136	0.	11.948
5480	18.536	2.6096	5.e-002	1.0016
5481	19.121	2.6137	0.	12.094
5482	18.926	2.8136	0.	12.073
5483	18.926	2.6096	5.e-002	0.92453
5484	19.511	2.621	0.	12.204
5485	19.316	2.8143	0.	12.188
5486	19.316	2.6179	5.e-002	0.85913
5487	19.905	2.626	0.	12.307
5488	19.707	2.8149	0.	12.303
5489	19.705	2.6241	5.e-002	0.79611
5490	20.312	2.6361	0.	12.399
5491	20.105	2.817	0.	12.394
5492	20.106	2.6279	5.e-002	0.72172
5493	20.722	2.6538	0.	12.418
5494	20.514	2.8284	0.	12.556
5495	20.519	2.6442	5.e-002	0.69079
5496	20.951	2.8534	0.	12.447
5497	20.925	2.6633	5.e-002	0.55236
5498	4.1576	2.7396	0.	3.4347
5499	4.236	2.9321	0.	-2.5096
5500	4.1867	2.8563	5.e-002	21.995
5501	3.629	2.3492	0.	8.2588
5502	3.5858	2.2201	5.e-002	12.46
5503	3.5381	2.4555	0.	3.6297
5504	3.6722	2.4782	5.e-002	4.4756
5505	2.4326	2.5318	5.e-002	6.9033
5506	3.0823	3.2727	0.	1.8215
5507	3.4115	3.1848	0.	4.3831
5508	3.2894	3.3548	5.e-002	3.475
5509	7.0089	2.8042	0.	0.69505
5510	6.8539	2.8033	5.e-002	8.9548
5511	7.3858	2.5519	0.	-0.98489
5512	7.1846	2.6364	0.	-0.40067
5513	7.2053	2.4677	5.e-002	6.2715
5514	7.4214	3.0681	0.	-0.80653
5515	7.1974	2.9527	0.	-1.3393
5516	7.2308	3.1003	5.e-002	8.3878
5517	2.879	3.0426	0.	1.1152
5518	2.8752	3.1906	5.e-002	2.9342
5519	7.8034	3.0219	0.	-4.8945e-002
5520	7.5891	2.836	0.	-0.9193
5521	7.612	3.0359	5.e-002	6.6473
5522	8.1898	3.0069	0.	-0.19299
5523	8.5821	3.005	0.	-6.2829e-002
5524	8.3848	3.0058	5.e-002	4.1404
5525	7.9948	3.0079	5.e-002	4.922
5526	8.9745	3.0068	0.	-2.6338e-002
5527	9.3647	3.0135	0.	-4.7167e-003
5528	9.1697	3.0094	5.e-002	3.1539
5529	8.7793	3.0042	5.e-002	3.5371
5530	9.7549	3.0176	0.	1.023e-002
5531	10.145	3.0176	0.	5.7421e-003
5532	9.95	3.0176	5.e-002	2.7278
5533	9.5597	3.0176	5.e-002	2.9032
5534	10.535	3.0176	0.	-7.2922e-004
5535	10.926	3.0176	0.	-6.4635e-003
5536	10.731	3.0176	5.e-002	2.4873
5537	10.34	3.0176	5.e-002	2.5949
5538	11.316	3.0176	0.	-1.2419e-002
5539	11.706	3.0176	0.	-1.769e-002
5540	11.511	3.0176	5.e-002	2.3108
5541	11.121	3.0176	5.e-002	2.3947
5542	12.097	3.0176	0.	-2.2303e-002
5543	12.487	3.0176	0.	1.0674
5544	12.292	3.0176	5.e-002	2.1562
5545	11.901	3.0176	5.e-002	2.2321
5546	12.877	3.0176	0.	2.9344
5547	13.267	3.0176	0.	4.5006
5548	13.072	3.0176	5.e-002	2.0089
5549	12.682	3.0176	5.e-002	2.0821
5550	13.658	3.0176	0.	5.8164
5551	14.048	3.0176	0.	6.9228
5552	13.853	3.0176	5.e-002	1.8641
5553	13.463	3.0176	5.e-002	1.9363
5554	14.438	3.0176	0.	7.8541
5555	14.828	3.0176	0.	8.6383
5556	14.633	3.0176	5.e-002	1.7201
5557	14.243	3.0176	5.e-002	1.792
5558	15.219	3.0176	0.	9.2991
5559	15.609	3.0176	0.	9.8561
5560	15.414	3.0176	5.e-002	1.5765
5561	15.024	3.0176	5.e-002	1.6483
5562	15.999	3.0176	0.	10.326
5563	16.39	3.0176	0.	10.722
5564	16.194	3.0176	5.e-002	1.433
5565	15.804	3.0176	5.e-002	1.5047
5566	16.78	3.0176	0.	11.056
5567	17.17	3.0176	0.	11.338
5568	16.975	3.0176	5.e-002	1.2895
5569	16.585	3.0176	5.e-002	1.3612
5570	17.56	3.0176	0.	11.576
5571	17.951	3.0176	0.	11.777
5572	17.756	3.0176	5.e-002	1.1461
5573	17.365	3.0176	5.e-002	1.2179
5574	18.341	3.0176	0.	11.946
5575	18.731	3.0176	0.	12.088
5576	18.536	3.0176	5.e-002	1.0007
5577	18.146	3.0176	5.e-002	1.0751
5578	19.121	3.0142	0.	12.212
5579	19.512	3.0082	0.	12.329
5580	19.316	3.0108	5.e-002	0.86391
5581	18.926	3.0176	5.e-002	0.92522
5582	19.906	3.0059	0.	12.429
5583	20.307	3.0093	0.	12.585
5584	20.104	3.0061	5.e-002	0.76459
5585	19.709	3.0057	5.e-002	0.78145
5586	20.743	3.028	0.	12.617
5587	21.187	3.0556	0.	12.491
5588	20.976	3.0435	5.e-002	0.46984
5589	20.51	3.0125	5.e-002	0.72705
5590	2.8828	2.8946	5.e-002	3.6462
5591	7.3651	2.7206	0.	-1.4528
5592	7.5663	2.6361	5.e-002	5.4577
5593	3.5336	3.0149	5.e-002	9.0851
5594	7.164	2.8051	5.e-002	7.1535
5595	3.404	2.4327	5.e-002	3.501
5596	4.1286	2.6229	5.e-002	6.9289
5597	5.0487	3.2162	5.e-002	16.853
5598	6.1454	5.2366	5.e-002	4.376
5599	4.2853	3.0079	5.e-002	21.124
5600	6.7359	3.904	5.e-002	9.7929
5601	5.8096	0.84587	5.e-002	14.816
5602	4.551	5.1533	5.e-002	22.613
5603	5.1718	2.7811	0.	205.28
5604	5.1595	2.8466	5.e-002	13.148
5605	5.184	2.7157	5.e-002	30.334
5606	21.398	3.0677	5.e-002	0.49273
5607	21.187	3.0556	0.1	24.759
5608	21.365	2.8795	0.1	21.871
5609	21.584	3.0803	0.1	18.757
5610	21.451	3.2483	0.1	20.375
5611	5.1718	2.7811	0.1	2355.
5612	5.2808	2.7867	0.1	2322.8
5613	5.0972	2.7341	0.1	2364.1
5614	5.2133	2.6516	0.1	2441.9
5615	5.0988	2.8673	0.1	2305.6
5616	5.1934	2.875	0.1	2326.6
5617	4.4011	5.0771	0.1	824.88
5618	4.5975	5.0697	0.1	732.25
5619	4.6922	5.175	0.1	650.34
5620	4.5446	5.2673	0.1	689.21
5621	5.9487	0.93231	0.1	630.09
5622	5.7645	0.92963	0.1	575.07
5623	5.8151	0.72976	0.1	521.41
5624	5.6702	0.82329	0.1	506.03
5625	6.8554	3.8621	0.1	978.84
5626	6.6671	3.8469	0.1	1056.
5627	6.7235	4.0133	0.1	978.53
5628	4.236	2.9321	0.1	1717.8
5629	4.4003	2.9942	0.1	1836.6
5630	4.2331	3.1038	0.1	1714.6
5631	6.0961	5.42	0.1	562.78
5632	6.1291	5.069	0.1	684.35
5633	6.3104	5.2518	0.1	655.39
5634	5.9935	5.1784	0.1	597.76
5635	5.0499	3.1357	0.1	2312.4
5636	5.1447	3.1864	0.1	2331.8
5637	5.0032	3.3387	0.1	2396.9
5638	4.9058	3.2039	0.1	2235.8
5639	4.1576	2.7396	0.1	1661.3
5640	4.0108	2.6599	0.1	1552.5
5641	4.1434	2.4878	0.1	1584.9
5642	4.2561	2.5733	0.1	1691.
5643	3.5381	2.4555	0.1	1405.7
5644	3.3046	2.5237	0.1	1387.4
5645	3.3796	2.3134	0.1	1380.9
5646	7.3651	2.7206	0.1	906.99
5647	7.1974	2.9527	0.1	948.84
5648	7.1846	2.6364	0.1	943.92
5649	7.0089	2.8042	0.1	1007.1
5650	3.4115	3.1848	0.1	1408.5
5651	3.36	2.9713	0.1	1406.7
5652	3.5858	2.8805	0.1	1437.6
5653	3.6942	3.0413	0.1	1459.6
5654	7.5891	2.836	0.1	855.14
5655	7.3858	2.5519	0.1	894.17
5656	7.7751	2.6327	0.1	821.31
5657	7.5917	2.4317	0.1	842.83
5658	2.879	3.0426	0.1	1376.5
5659	2.6993	2.8834	0.1	1385.7
5660	2.844	2.7256	0.1	1375.6
5661	3.0346	2.9112	0.1	1381.4
5662	20.743	3.028	0.1	32.582
5663	20.307	3.0093	0.1	41.438
5664	20.514	2.8284	0.1	36.931
5665	20.498	3.1977	0.1	37.338
5666	20.951	2.8534	0.1	28.675
5667	21.083	3.2515	0.1	26.231
5668	20.904	3.2333	0.1	29.739
5669	19.906	3.0059	0.1	50.595
5670	19.512	3.0082	0.1	60.509
5671	19.707	2.8149	0.1	55.369
5672	19.708	3.198	0.1	55.363
5673	20.105	2.817	0.1	45.825
5674	20.101	3.1951	0.1	45.945
5675	19.121	3.0142	0.1	71.234
5676	18.731	3.0176	0.1	82.8
5677	18.926	2.8136	0.1	76.779
5678	18.926	3.204	0.1	76.78
5679	19.316	2.8143	0.1	65.659
5680	19.316	3.2006	0.1	65.648
5681	18.341	3.0176	0.1	95.258
5682	17.951	3.0176	0.1	108.61
5683	18.146	2.8136	0.1	101.7
5684	18.146	3.204	0.1	101.7
5685	18.536	2.8136	0.1	88.791
5686	18.536	3.204	0.1	88.794
5687	17.56	3.0176	0.1	122.84
5688	17.17	3.0176	0.1	137.96
5689	17.365	2.8136	0.1	130.17
5690	17.365	3.204	0.1	130.17
5691	17.756	2.8136	0.1	115.49
5692	17.756	3.204	0.1	115.49
5693	16.78	3.0176	0.1	153.97
5694	16.39	3.0176	0.1	170.86
5695	16.585	2.8136	0.1	162.18
5696	16.585	3.204	0.1	162.18
5697	16.975	2.8136	0.1	145.73
5698	16.975	3.204	0.1	145.73
5699	15.999	3.0176	0.1	188.63
5700	15.609	3.0176	0.1	207.28
5701	15.804	2.8136	0.1	197.73
5702	15.804	3.204	0.1	197.73
5703	16.194	2.8136	0.1	179.51
5704	16.194	3.204	0.1	179.52
5705	15.219	3.0176	0.1	226.81
5706	14.828	3.0176	0.1	247.22
5707	15.024	2.8136	0.1	236.79
5708	15.024	3.204	0.1	236.8
5709	15.414	2.8136	0.1	216.82
5710	15.414	3.204	0.1	216.83
5711	14.438	3.0176	0.1	268.5
5712	14.048	3.0176	0.1	290.66
5713	14.243	2.8136	0.1	279.36
5714	14.243	3.204	0.1	279.37
5715	14.633	2.8136	0.1	257.64
5716	14.633	3.204	0.1	257.65
5717	13.658	3.0176	0.1	313.68
5718	13.267	3.0176	0.1	337.57
5719	13.463	2.8136	0.1	325.42
5720	13.463	3.204	0.1	325.42
5721	13.853	2.8136	0.1	301.96
5722	13.853	3.204	0.1	301.96
5723	12.877	3.0176	0.1	362.32
5724	12.487	3.0176	0.1	387.93
5725	12.682	2.8136	0.1	374.93
5726	12.682	3.204	0.1	374.93
5727	13.072	2.8136	0.1	349.74
5728	13.072	3.204	0.1	349.75
5729	12.097	3.0176	0.1	414.41
5730	11.706	3.0176	0.1	441.76
5731	11.901	2.8136	0.1	427.9
5732	11.901	3.204	0.1	427.91
5733	12.292	2.8136	0.1	400.98
5734	12.292	3.204	0.1	400.99
5735	11.316	3.0176	0.1	470.01
5736	10.926	3.0176	0.1	499.21
5737	11.121	2.8136	0.1	484.42
5738	11.121	3.204	0.1	484.42
5739	11.511	2.8136	0.1	455.71
5740	11.511	3.204	0.1	455.71
5741	10.535	3.0176	0.1	529.44
5742	10.145	3.0176	0.1	560.87
5743	10.34	3.204	0.1	544.89
5744	10.34	2.8136	0.1	544.89
5745	10.731	3.204	0.1	514.11
5746	10.731	2.8136	0.1	514.11
5747	9.7549	3.0176	0.1	593.78
5748	9.3647	3.0135	0.1	628.69
5749	9.5597	3.204	0.1	610.65
5750	9.5597	2.8136	0.1	610.65
5751	9.95	3.204	0.1	576.95
5752	9.95	2.8136	0.1	576.95
5753	8.9745	3.0068	0.1	666.56
5754	8.5821	3.005	0.1	709.07
5755	8.7793	3.1973	0.1	686.07
5756	8.7793	2.8113	0.1	686.09
5757	9.1696	3.1999	0.1	646.65
5758	9.1698	2.813	0.1	646.63
5759	8.1898	3.0069	0.1	758.58
5760	7.8034	3.0219	0.1	819.24
5761	7.9894	2.8185	0.1	785.39
5762	7.9967	3.1992	0.1	783.38
5763	8.3868	3.1981	0.1	730.85
5764	8.3842	2.8144	0.1	731.2
5765	7.4214	3.0681	0.1	897.05
5766	7.6213	3.2201	0.1	847.63
5767	3.0823	3.2727	0.1	1380.2
5768	2.6927	3.183	0.1	1381.6
5769	2.8755	3.3199	0.1	1371.3
5770	7.2398	3.2683	0.1	933.49
5771	7.0429	3.12	0.1	1001.8
5772	7.2369	2.3211	0.1	910.74
5773	7.042	2.4617	0.1	974.6
5774	6.8663	2.6295	0.1	1037.6
5775	6.7173	2.7847	0.1	1118.
5776	6.8544	2.9715	0.1	1059.9
5777	3.2344	3.5536	0.1	1367.
5778	3.238	3.1413	0.1	1384.7
5779	3.0826	3.402	0.1	1378.
5780	3.4926	3.3951	0.1	1409.5
5781	2.4743	2.702	0.1	1386.1
5782	2.619	2.5442	0.1	1376.3
5783	2.3071	2.5731	0.1	1412.
5784	2.3893	2.3821	0.1	1393.7
5785	3.629	2.3492	0.1	1379.3
5786	3.6551	2.6122	0.1	1427.
5787	3.8023	2.3912	0.1	1427.6
5788	3.4705	2.2071	0.1	1354.3
5789	3.6404	2.1275	0.1	1349.1
5790	4.3049	2.8028	0.1	1766.8
5791	4.0208	2.962	0.1	1599.3
5792	20.722	2.6538	0.1	33.055
5793	21.129	2.6772	0.1	25.821
5794	20.919	2.4722	0.1	29.282
5795	20.312	2.6361	0.1	41.35
5796	20.512	2.452	0.1	37.03
5797	19.905	2.626	0.1	50.637
5798	20.105	2.4368	0.1	45.855
5799	19.511	2.621	0.1	60.562
5800	19.706	2.4305	0.1	55.408
5801	19.121	2.6137	0.1	71.25
5802	19.317	2.4273	0.1	65.688
5803	18.731	2.6096	0.1	82.817
5804	18.926	2.4232	0.1	76.817
5805	18.341	2.6096	0.1	95.277
5806	18.536	2.4232	0.1	88.834
5807	17.951	2.6096	0.1	108.63
5808	18.146	2.4232	0.1	101.74
5809	17.56	2.6096	0.1	122.86
5810	17.756	2.4232	0.1	115.54
5811	17.17	2.6096	0.1	137.99
5812	17.365	2.4232	0.1	130.22
5813	16.78	2.6096	0.1	153.99
5814	16.975	2.4232	0.1	145.79
5815	16.39	2.6096	0.1	170.88
5816	16.585	2.4232	0.1	162.24
5817	15.999	2.6096	0.1	188.66
5818	16.194	2.4232	0.1	179.58
5819	15.609	2.6096	0.1	207.32
5820	15.804	2.4232	0.1	197.8
5821	15.219	2.6096	0.1	226.85
5822	15.414	2.4232	0.1	216.9
5823	14.828	2.6096	0.1	247.26
5824	15.024	2.4232	0.1	236.88
5825	14.438	2.6096	0.1	268.55
5826	14.633	2.4232	0.1	257.74
5827	14.048	2.6096	0.1	290.71
5828	14.243	2.4232	0.1	279.47
5829	13.658	2.6096	0.1	313.74
5830	13.853	2.4232	0.1	302.07
5831	13.267	2.6096	0.1	337.63
5832	13.463	2.4232	0.1	325.54
5833	12.877	2.6096	0.1	362.39
5834	13.072	2.4232	0.1	349.88
5835	12.487	2.6096	0.1	388.02
5836	12.682	2.4232	0.1	375.09
5837	12.097	2.6096	0.1	414.51
5838	12.292	2.4232	0.1	401.16
5839	11.706	2.6096	0.1	441.87
5840	11.901	2.4232	0.1	428.1
5841	11.316	2.6096	0.1	470.14
5842	11.511	2.4232	0.1	455.93
5843	11.121	2.4232	0.1	484.66
5844	10.926	2.6096	0.1	499.34
5845	7.9885	2.4391	0.1	780.21
5846	8.1838	2.6261	0.1	758.01
5847	21.01	3.4412	0.1	27.872
5848	21.206	3.6303	0.1	24.25
5849	21.347	3.4441	0.1	21.882
5850	21.326	2.4993	0.1	22.44
5851	21.538	2.7055	0.1	19.399
5852	2.5123	3.3267	0.1	1387.8
5853	2.3347	3.4883	0.1	1402.5
5854	2.4962	3.6431	0.1	1379.8
5855	2.695	3.4636	0.1	1377.7
5856	2.5131	3.0238	0.1	1390.5
5857	2.3355	2.8679	0.1	1407.9
5858	2.3327	3.1799	0.1	1404.8
5859	2.7754	2.3851	0.1	1364.9
5860	3.0053	2.5857	0.1	1372.7
5861	20.658	3.403	0.1	34.528
5862	20.841	3.6046	0.1	30.892
5863	20.291	3.3835	0.1	41.882
5864	20.479	3.5758	0.1	37.815
5865	19.902	3.3872	0.1	50.751
5866	20.097	3.5736	0.1	46.099
5867	19.512	3.3904	0.1	60.542
5868	19.707	3.5768	0.1	55.419
5869	19.122	3.3904	0.1	71.235
5870	19.317	3.5768	0.1	65.67
5871	18.731	3.3904	0.1	82.814
5872	18.926	3.5768	0.1	76.812
5873	18.341	3.3904	0.1	95.276
5874	18.536	3.5768	0.1	88.833
5875	17.951	3.3904	0.1	108.63
5876	18.146	3.5768	0.1	101.74
5877	17.56	3.3904	0.1	122.86
5878	17.756	3.5768	0.1	115.54
5879	17.17	3.3904	0.1	137.99
5880	17.365	3.5768	0.1	130.22
5881	16.78	3.3904	0.1	153.99
5882	16.975	3.5768	0.1	145.79
5883	16.39	3.3904	0.1	170.89
5884	16.585	3.5768	0.1	162.24
5885	15.999	3.3904	0.1	188.66
5886	16.194	3.5768	0.1	179.58
5887	15.609	3.3904	0.1	207.32
5888	15.804	3.5768	0.1	197.8
5889	15.219	3.3904	0.1	226.85
5890	15.414	3.5768	0.1	216.9
5891	14.828	3.3904	0.1	247.26
5892	15.024	3.5768	0.1	236.88
5893	14.438	3.3904	0.1	268.55
5894	14.633	3.5768	0.1	257.74
5895	14.048	3.3904	0.1	290.71
5896	14.243	3.5768	0.1	279.47
5897	13.658	3.3904	0.1	313.74
5898	13.853	3.5768	0.1	302.07
5899	13.267	3.3904	0.1	337.63
5900	13.463	3.5768	0.1	325.54
5901	12.877	3.3904	0.1	362.39
5902	13.072	3.5768	0.1	349.88
5903	12.487	3.3904	0.1	388.02
5904	12.682	3.5768	0.1	375.09
5905	12.097	3.3904	0.1	414.51
5906	12.292	3.5768	0.1	401.16
5907	11.706	3.3904	0.1	441.88
5908	11.901	3.5768	0.1	428.1
5909	11.511	3.5768	0.1	455.93
5910	11.316	3.3904	0.1	470.14
5911	8.584	3.3904	0.1	707.85
5912	8.7792	3.5768	0.1	684.9
5913	8.9743	3.3904	0.1	666.16
5914	8.1938	3.3904	0.1	755.65
5915	8.3889	3.5768	0.1	728.03
5916	7.8146	3.3973	0.1	811.78
5917	8.0014	3.5781	0.1	777.18
5918	7.4397	3.4203	0.1	884.11
5919	7.6278	3.5883	0.1	835.38
5920	7.0448	3.4625	0.1	978.74
5921	7.2634	3.6115	0.1	907.15
5922	3.7655	2.7215	0.1	1468.4
5923	3.9128	2.5005	0.1	1467.3
5924	3.8739	2.8822	0.1	1489.4
5925	6.5296	2.9439	0.1	1209.6
5926	6.4709	3.2823	0.1	1230.5
5927	6.6667	3.1308	0.1	1152.4
5928	6.3732	3.0238	0.1	1335.1
5929	6.2896	3.1752	0.1	1388.1
5930	7.4428	2.2009	0.1	859.31
5931	7.0934	2.156	0.1	926.66
5932	7.2654	1.9961	0.1	873.13
5933	6.8985	2.2967	0.1	990.74
5934	6.7383	2.4422	0.1	1072.2
5935	6.5893	2.5974	0.1	1152.2
5936	6.4406	2.726	0.1	1266.2
5937	21.521	2.3267	0.1	19.597
5938	21.733	2.5329	0.1	16.528
5939	21.714	2.1459	0.1	16.738
5940	21.916	2.3566	0.1	14.258
5941	6.9078	3.6544	0.1	994.7
5942	6.7195	3.6392	0.1	1071.6
5943	6.6521	3.4657	0.1	1125.6
5944	6.8479	3.3141	0.1	1046.7
5945	21.411	3.8029	0.1	21.124
5946	21.79	3.7868	0.1	15.873
5947	21.624	3.9766	0.1	17.828
5948	21.551	3.6167	0.1	18.733
5949	21.83	3.3052	0.1	15.31
5950	22.013	3.461	0.1	13.159
5951	21.937	3.6433	0.1	14.073
5952	21.697	3.4732	0.1	16.956
5953	3.006	3.7709	0.1	1352.6
5954	3.1504	3.9526	0.1	1331.1
5955	3.3323	3.7735	0.1	1353.5
5956	2.1771	3.6357	0.1	1422.
5957	2.1552	3.3415	0.1	1419.3
5958	1.9931	3.5436	0.1	1437.7
5959	2.1683	2.739	0.1	1433.6
5960	2.0387	2.4982	0.1	1437.2
5961	4.4692	2.8649	0.1	1883.8
5962	4.5924	2.9552	0.1	1999.2
5963	4.4889	3.0922	0.1	1907.
5964	2.3386	3.7905	0.1	1399.4
5965	2.0711	3.9067	0.1	1424.3
5966	2.6554	3.7988	0.1	1365.6
5967	2.4291	3.9769	0.1	1379.3
5968	2.8014	3.9691	0.1	1348.6
5969	2.8542	3.6193	0.1	1363.3
5970	2.1552	3.024	0.1	1422.
5971	1.9857	2.8405	0.1	1443.7
5972	1.9847	3.1922	0.1	1443.5
5973	2.9095	2.2096	0.1	1351.6
5974	3.0787	2.0185	0.1	1331.6
5975	3.1394	2.4102	0.1	1359.3
5976	3.2144	2.1998	0.1	1353.
5977	2.5457	2.223	0.1	1382.7
5978	2.7327	2.0329	0.1	1352.2
5979	21.116	2.2943	0.1	25.934
5980	21.312	2.1152	0.1	22.613
5981	20.71	2.2704	0.1	33.294
5982	20.908	2.0882	0.1	29.461
5983	20.305	2.2527	0.1	41.574
5984	20.501	2.0669	0.1	37.314
5985	19.906	2.2412	0.1	50.667
5986	20.101	2.0548	0.1	45.999
5987	19.512	2.2368	0.1	60.576
5988	19.707	2.0504	0.1	55.46
5989	19.122	2.2368	0.1	71.297
5990	19.317	2.0504	0.1	65.749
5991	18.731	2.2368	0.1	82.875
5992	18.926	2.0504	0.1	76.893
5993	18.341	2.2368	0.1	95.342
5994	18.536	2.0504	0.1	88.92
5995	17.951	2.2368	0.1	108.7
5996	18.146	2.0504	0.1	101.84
5997	17.56	2.2368	0.1	122.94
5998	17.756	2.0504	0.1	115.64
5999	17.17	2.2368	0.1	138.07
6000	17.365	2.0504	0.1	130.33
6001	16.78	2.2368	0.1	154.08
6002	16.975	2.0504	0.1	145.91
6003	16.39	2.2368	0.1	170.98
6004	16.585	2.0504	0.1	162.37
6005	15.999	2.2368	0.1	188.76
6006	16.194	2.0504	0.1	179.71
6007	15.609	2.2368	0.1	207.42
6008	15.804	2.0504	0.1	197.94
6009	15.219	2.2368	0.1	226.97
6010	15.414	2.0504	0.1	217.05
6011	14.828	2.2368	0.1	247.39
6012	15.024	2.0504	0.1	237.04
6013	14.438	2.2368	0.1	268.69
6014	14.633	2.0504	0.1	257.91
6015	14.048	2.2368	0.1	290.86
6016	14.243	2.0504	0.1	279.66
6017	13.658	2.2368	0.1	313.91
6018	13.853	2.0504	0.1	302.28
6019	13.267	2.2368	0.1	337.82
6020	13.463	2.0504	0.1	325.78
6021	12.877	2.2368	0.1	362.61
6022	13.072	2.0504	0.1	350.15
6023	12.487	2.2368	0.1	388.26
6024	12.682	2.0504	0.1	375.39
6025	12.097	2.2368	0.1	414.78
6026	12.292	2.0504	0.1	401.49
6027	11.706	2.2368	0.1	442.18
6028	11.901	2.0504	0.1	428.48
6029	11.316	2.2368	0.1	470.47
6030	11.511	2.0504	0.1	456.34
6031	10.926	2.2368	0.1	499.7
6032	11.121	2.0504	0.1	485.11
6033	10.535	2.2368	0.1	529.92
6034	10.731	2.0504	0.1	514.82
6035	10.731	2.4232	0.1	514.36
6036	10.145	2.2368	0.1	561.26
6037	10.34	2.0504	0.1	545.54
6038	10.34	2.4232	0.1	545.12
6039	9.7549	2.2368	0.1	593.92
6040	9.95	2.0504	0.1	577.4
6041	9.95	2.4232	0.1	577.11
6042	9.3646	2.2368	0.1	628.3
6043	9.5597	2.0504	0.1	610.59
6044	9.5597	2.4232	0.1	610.63
6045	8.9734	2.2388	0.1	665.12
6046	9.1694	2.0504	0.1	645.53
6047	9.1697	2.4267	0.1	646.26
6048	8.5809	2.2433	0.1	705.48
6049	8.7782	2.0524	0.1	682.88
6050	8.7783	2.4296	0.1	685.03
6051	8.1888	2.2474	0.1	750.87
6052	8.3852	2.0572	0.1	723.73
6053	8.3841	2.4344	0.1	728.67
6054	7.8051	2.2382	0.1	801.72
6055	7.9958	2.0565	0.1	768.81
6056	7.6203	2.0392	0.1	817.82
6057	21.756	2.9064	0.1	16.256
6058	21.962	3.1118	0.1	13.744
6059	21.942	2.7518	0.1	13.981
6060	6.9704	3.9928	0.1	932.08
6061	7.1264	3.8035	0.1	922.66
6062	8.1966	3.7645	0.1	749.56
6063	8.0014	3.9509	0.1	767.71
6064	7.8147	3.7691	0.1	800.79
6065	8.584	3.7632	0.1	705.08
6066	8.3889	3.9496	0.1	723.3
6067	8.9743	3.7632	0.1	665.02
6068	8.7792	3.9496	0.1	682.78
6069	9.3646	3.7632	0.1	628.32
6070	9.1694	3.9496	0.1	645.55
6071	9.1694	3.5768	0.1	646.28
6072	9.7549	3.7632	0.1	593.94
6073	9.5597	3.9496	0.1	610.62
6074	9.5597	3.5768	0.1	610.65
6075	10.145	3.7632	0.1	561.27
6076	9.95	3.9496	0.1	577.41
6077	9.95	3.5768	0.1	577.11
6078	10.535	3.7632	0.1	529.93
6079	10.34	3.9496	0.1	545.56
6080	10.34	3.5768	0.1	545.12
6081	10.926	3.7632	0.1	499.7
6082	10.731	3.9496	0.1	514.83
6083	10.731	3.5768	0.1	514.37
6084	11.316	3.7632	0.1	470.48
6085	11.121	3.9496	0.1	485.12
6086	11.121	3.5768	0.1	484.67
6087	11.706	3.7632	0.1	442.18
6088	11.511	3.9496	0.1	456.35
6089	12.097	3.7632	0.1	414.78
6090	11.901	3.9496	0.1	428.48
6091	12.487	3.7632	0.1	388.26
6092	12.292	3.9496	0.1	401.5
6093	12.877	3.7632	0.1	362.61
6094	12.682	3.9496	0.1	375.39
6095	13.267	3.7632	0.1	337.83
6096	13.072	3.9496	0.1	350.15
6097	13.658	3.7632	0.1	313.91
6098	13.463	3.9496	0.1	325.78
6099	14.048	3.7632	0.1	290.86
6100	13.853	3.9496	0.1	302.28
6101	14.438	3.7632	0.1	268.69
6102	14.243	3.9496	0.1	279.66
6103	14.828	3.7632	0.1	247.39
6104	14.633	3.9496	0.1	257.91
6105	15.219	3.7632	0.1	226.97
6106	15.024	3.9496	0.1	237.04
6107	15.609	3.7632	0.1	207.42
6108	15.414	3.9496	0.1	217.05
6109	15.999	3.7632	0.1	188.76
6110	15.804	3.9496	0.1	197.94
6111	16.39	3.7632	0.1	170.98
6112	16.194	3.9496	0.1	179.71
6113	16.78	3.7632	0.1	154.08
6114	16.585	3.9496	0.1	162.37
6115	17.17	3.7632	0.1	138.07
6116	16.975	3.9496	0.1	145.9
6117	17.56	3.7632	0.1	122.94
6118	17.365	3.9496	0.1	130.33
6119	17.951	3.7632	0.1	108.7
6120	17.756	3.9496	0.1	115.64
6121	18.341	3.7632	0.1	95.341
6122	18.146	3.9496	0.1	101.84
6123	18.731	3.7632	0.1	82.872
6124	18.536	3.9496	0.1	88.918
6125	19.122	3.7632	0.1	71.287
6126	18.926	3.9496	0.1	76.886
6127	19.512	3.7632	0.1	60.586
6128	19.317	3.9496	0.1	65.738
6129	19.902	3.7632	0.1	50.807
6130	19.707	3.9496	0.1	55.476
6131	20.285	3.7659	0.1	42.069
6132	20.097	3.9496	0.1	46.156
6133	20.662	3.7774	0.1	34.215
6134	20.477	3.9528	0.1	37.841
6135	21.037	3.7937	0.1	27.299
6136	20.859	3.9646	0.1	30.347
6137	21.239	3.9771	0.1	23.796
6138	6.7683	2.1333	0.1	1007.3
6139	6.9238	1.9805	0.1	936.12
6140	6.6081	2.2789	0.1	1089.
6141	6.4568	2.4095	0.1	1199.
6142	3.8144	3.7776	0.1	1424.5
6143	3.779	3.556	0.1	1449.7
6144	3.9727	3.6672	0.1	1494.8
6145	3.2476	1.8487	0.1	1314.
6146	3.4864	1.683	0.1	1266.
6147	3.3832	2.0301	0.1	1335.2
6148	3.5531	1.9505	0.1	1330.4
6149	1.8561	2.5997	0.1	1447.1
6150	1.7029	2.3775	0.1	1472.2
6151	2.1209	2.3073	0.1	1419.1
6152	1.9079	2.1625	0.1	1430.7
6153	21.505	1.9344	0.1	19.79
6154	21.902	1.9556	0.1	14.368
6155	21.697	1.7452	0.1	16.916
6156	6.4898	3.7499	0.1	1154.7
6157	6.5491	3.902	0.1	1083.6
6158	22.145	3.2676	0.1	11.578
6159	22.282	3.5161	0.1	10.081
6160	22.023	3.936	0.1	12.961
6161	22.206	3.6984	0.1	11.008
6162	6.308	2.538	0.1	1312.6
6163	6.1657	2.665	0.1	1463.5
6164	6.2842	2.8058	0.1	1390.4
6165	4.2363	3.4173	0.1	1681.9
6166	3.8855	3.4202	0.1	1499.9
6167	4.128	3.3023	0.1	1636.5
6168	4.0792	3.5314	0.1	1544.1
6169	1.8225	3.3943	0.1	1461.6
6170	1.8871	3.8145	0.1	1439.7
6171	1.6644	3.6064	0.1	1486.5
6172	6.4224	3.5764	0.1	1207.6
6173	6.2967	3.4534	0.1	1333.3
6174	4.5251	2.7193	0.1	1923.6
6175	4.4033	2.6365	0.1	1795.7
6176	5.8019	3.3788	0.1	1803.2
6177	5.9471	3.2355	0.1	1678.9
6178	5.7621	3.0842	0.1	1855.9
6179	5.6571	3.2692	0.1	1998.3
6180	4.6483	2.8096	0.1	2036.4
6181	4.7567	2.8858	0.1	2126.2
6182	4.7162	3.0608	0.1	2086.6
6183	5.0446	2.9716	0.1	2287.8
6184	5.1391	2.9793	0.1	2308.7
6185	4.9781	3.034	0.1	2277.
6186	5.0243	2.8202	0.1	2315.3
6187	4.9716	2.9503	0.1	2283.2
6188	6.6227	1.9866	0.1	1013.4
6189	6.6119	1.7372	0.1	946.59
6190	6.7781	1.8337	0.1	941.51
6191	6.4726	1.8404	0.1	1017.7
6192	6.4662	2.1056	0.1	1109.6
6193	3.7504	4.0114	0.1	1344.1
6194	3.7415	4.2545	0.1	1277.3
6195	3.5832	4.148	0.1	1303.7
6196	3.8808	4.1546	0.1	1317.1
6197	3.6259	3.8367	0.1	1370.9
6198	3.9133	3.8988	0.1	1406.5
6199	2.5752	4.1472	0.1	1362.6
6200	2.1617	4.0931	0.1	1404.4
6201	2.3628	4.3205	0.1	1378.8
6202	2.9458	4.1508	0.1	1327.5
6203	2.7554	4.3334	0.1	1332.2
6204	3.1238	4.3413	0.1	1296.
6205	3.2768	4.1523	0.1	1308.6
6206	1.8152	3.0087	0.1	1465.
6207	1.6475	2.8045	0.1	1496.2
6208	1.6456	3.2031	0.1	1496.8
6209	3.1061	1.6544	0.1	1298.7
6210	2.9019	1.8417	0.1	1332.4
6211	4.0599	1.8974	0.1	1349.4
6212	3.9531	2.131	0.1	1399.5
6213	3.8873	1.8625	0.1	1322.1
6214	4.0218	2.0165	0.1	1395.8
6215	21.104	1.9091	0.1	26.177
6216	21.298	1.7233	0.1	22.855
6217	20.7	1.8847	0.1	33.52
6218	20.894	1.6997	0.1	29.747
6219	20.297	1.869	0.1	41.78
6220	20.494	1.684	0.1	37.535
6221	19.902	1.864	0.1	50.833
6222	20.097	1.6776	0.1	46.164
6223	19.512	1.864	0.1	60.675
6224	19.707	1.6776	0.1	55.583
6225	19.122	1.864	0.1	71.386
6226	19.317	1.6776	0.1	65.859
6227	18.731	1.864	0.1	82.979
6228	18.926	1.6776	0.1	77.016
6229	18.341	1.864	0.1	95.457
6230	18.536	1.6776	0.1	89.058
6231	17.951	1.864	0.1	108.82
6232	18.146	1.6776	0.1	101.98
6233	17.56	1.864	0.1	123.07
6234	17.756	1.6776	0.1	115.8
6235	17.17	1.864	0.1	138.21
6236	17.365	1.6776	0.1	130.5
6237	16.78	1.864	0.1	154.23
6238	16.975	1.6776	0.1	146.08
6239	16.39	1.864	0.1	171.14
6240	16.585	1.6776	0.1	162.55
6241	15.999	1.864	0.1	188.93
6242	16.194	1.6776	0.1	179.91
6243	15.609	1.864	0.1	207.61
6244	15.804	1.6776	0.1	198.15
6245	15.219	1.864	0.1	227.16
6246	15.414	1.6776	0.1	217.28
6247	14.828	1.864	0.1	247.6
6248	15.024	1.6776	0.1	237.29
6249	14.438	1.864	0.1	268.92
6250	14.633	1.6776	0.1	258.18
6251	14.048	1.864	0.1	291.12
6252	14.243	1.6776	0.1	279.95
6253	13.658	1.864	0.1	314.19
6254	13.853	1.6776	0.1	302.6
6255	13.267	1.864	0.1	338.14
6256	13.463	1.6776	0.1	326.13
6257	12.877	1.864	0.1	362.96
6258	13.072	1.6776	0.1	350.54
6259	12.487	1.864	0.1	388.65
6260	12.682	1.6776	0.1	375.82
6261	12.097	1.864	0.1	415.22
6262	12.292	1.6776	0.1	401.98
6263	11.706	1.864	0.1	442.67
6264	11.901	1.6776	0.1	429.02
6265	11.316	1.864	0.1	471.01
6266	11.511	1.6776	0.1	456.94
6267	10.926	1.864	0.1	500.26
6268	11.121	1.6776	0.1	485.76
6269	10.535	1.864	0.1	530.47
6270	10.731	1.6776	0.1	515.48
6271	10.145	1.864	0.1	561.7
6272	10.34	1.6776	0.1	546.15
6273	9.7549	1.864	0.1	594.08
6274	9.95	1.6776	0.1	577.81
6275	9.3646	1.864	0.1	627.82
6276	9.5597	1.6776	0.1	610.56
6277	8.9743	1.864	0.1	663.29
6278	9.1694	1.6776	0.1	644.54
6279	8.5826	1.8663	0.1	701.14
6280	8.7792	1.6776	0.1	679.98
6281	8.3874	1.6799	0.1	717.23
6282	8.1923	1.8663	0.1	741.68
6283	7.0957	1.8206	0.1	882.29
6284	7.2469	1.6421	0.1	837.8
6285	7.443	1.8344	0.1	831.54
6286	22.147	2.9573	0.1	11.448
6287	22.337	3.1583	0.1	9.4689
6288	22.125	2.5755	0.1	11.684
6289	22.325	2.781	0.1	9.6485
6290	22.105	2.1662	0.1	11.854
6291	22.303	2.3761	0.1	9.854
6292	22.092	1.7639	0.1	11.941
6293	22.292	1.9709	0.1	9.9053
6294	6.4995	4.2543	0.1	983.46
6295	6.3456	4.1944	0.1	1043.2
6296	6.4711	4.0992	0.1	1034.3
6297	6.4521	4.3758	0.1	947.2
6298	6.6804	4.4256	0.1	903.42
6299	6.634	4.2236	0.1	955.83
6300	7.1213	4.1668	0.1	879.43
6301	6.885	4.346	0.1	879.
6302	6.8386	4.144	0.1	931.44
6303	7.4537	4.1575	0.1	829.87
6304	7.2538	4.3474	0.1	837.15
6305	7.2774	3.9774	0.1	870.35
6306	7.8146	4.1414	0.1	784.78
6307	7.625	4.3316	0.1	795.89
6308	7.6278	3.9597	0.1	817.88
6309	8.1938	4.136	0.1	741.45
6310	7.9986	4.3224	0.1	755.9
6311	8.584	4.136	0.1	701.
6312	8.3889	4.3224	0.1	717.17
6313	8.9743	4.136	0.1	663.31
6314	8.7792	4.3224	0.1	680.
6315	9.3646	4.136	0.1	627.86
6316	9.1694	4.3224	0.1	644.58
6317	9.7549	4.136	0.1	594.11
6318	9.5597	4.3224	0.1	610.6
6319	10.145	4.136	0.1	561.72
6320	9.95	4.3224	0.1	577.84
6321	10.535	4.136	0.1	530.48
6322	10.34	4.3224	0.1	546.17
6323	10.926	4.136	0.1	500.27
6324	10.731	4.3224	0.1	515.5
6325	11.316	4.136	0.1	471.01
6326	11.121	4.3224	0.1	485.77
6327	11.706	4.136	0.1	442.67
6328	11.511	4.3224	0.1	456.95
6329	12.097	4.136	0.1	415.22
6330	11.901	4.3224	0.1	429.03
6331	12.487	4.136	0.1	388.65
6332	12.292	4.3224	0.1	401.99
6333	12.877	4.136	0.1	362.96
6334	12.682	4.3224	0.1	375.82
6335	13.267	4.136	0.1	338.14
6336	13.072	4.3224	0.1	350.54
6337	13.658	4.136	0.1	314.19
6338	13.463	4.3224	0.1	326.13
6339	14.048	4.136	0.1	291.12
6340	13.853	4.3224	0.1	302.6
6341	14.438	4.136	0.1	268.92
6342	14.243	4.3224	0.1	279.95
6343	14.828	4.136	0.1	247.6
6344	14.633	4.3224	0.1	258.18
6345	15.219	4.136	0.1	227.16
6346	15.024	4.3224	0.1	237.29
6347	15.609	4.136	0.1	207.61
6348	15.414	4.3224	0.1	217.28
6349	15.999	4.136	0.1	188.93
6350	15.804	4.3224	0.1	198.15
6351	16.39	4.136	0.1	171.14
6352	16.194	4.3224	0.1	179.91
6353	16.78	4.136	0.1	154.23
6354	16.585	4.3224	0.1	162.55
6355	17.17	4.136	0.1	138.21
6356	16.975	4.3224	0.1	146.08
6357	17.56	4.136	0.1	123.07
6358	17.365	4.3224	0.1	130.5
6359	17.951	4.136	0.1	108.82
6360	17.756	4.3224	0.1	115.8
6361	18.341	4.136	0.1	95.454
6362	18.146	4.3224	0.1	101.98
6363	18.731	4.136	0.1	82.975
6364	18.536	4.3224	0.1	89.054
6365	19.122	4.136	0.1	71.379
6366	18.926	4.3224	0.1	77.011
6367	19.512	4.136	0.1	60.669
6368	19.317	4.3224	0.1	65.852
6369	19.902	4.136	0.1	50.865
6370	19.707	4.3224	0.1	55.579
6371	20.29	4.1365	0.1	41.967
6372	20.097	4.3224	0.1	46.211
6373	20.675	4.1401	0.1	34.009
6374	20.485	4.3229	0.1	37.73
6375	21.06	4.148	0.1	26.875
6376	20.872	4.326	0.1	30.176
6377	21.452	4.1508	0.1	20.531
6378	21.261	4.3309	0.1	23.372
6379	21.857	4.1258	0.1	14.94
6380	21.659	4.3267	0.1	17.46
6381	22.256	4.0793	0.1	10.218
6382	22.066	4.2919	0.1	12.227
6383	5.234	3.03	0.1	2328.5
6384	5.2471	3.2576	0.1	2395.9
6385	5.353	3.1017	0.1	2258.6
6386	6.3148	2.2362	0.1	1220.2
6387	6.1791	2.3638	0.1	1370.1
6388	6.4734	1.6071	0.1	932.14
6389	6.7067	1.5429	0.1	883.84
6390	6.873	1.6394	0.1	879.13
6391	3.8691	4.3939	0.1	1234.6
6392	3.636	4.4527	0.1	1234.7
6393	1.9458	4.2523	0.1	1421.3
6394	1.7409	4.0414	0.1	1459.1
6395	4.1768	2.2154	0.1	1519.9
6396	4.2671	2.3252	0.1	1623.
6397	4.0453	2.3285	0.1	1501.3
6398	6.2404	3.7136	0.1	1295.4
6399	6.3321	3.8508	0.1	1178.7
6400	5.9083	2.6264	0.1	1702.6
6401	6.0367	2.4908	0.1	1518.8
6402	6.0313	2.8097	0.1	1588.5
6403	4.3732	3.5452	0.1	1738.6
6404	4.5404	3.4351	0.1	1943.4
6405	4.4299	3.3167	0.1	1831.
6406	6.1148	3.5906	0.1	1420.1
6407	5.9702	3.4896	0.1	1618.7
6408	6.1154	3.3463	0.1	1490.9
6409	6.2982	4.3159	0.1	1008.2
6410	6.3974	4.5399	0.1	902.29
6411	6.2118	4.435	0.1	963.36
6412	1.5375	1.7534	0.1	1487.
6413	1.7422	1.5434	0.1	1449.2
6414	1.5524	1.3494	0.1	1470.
6415	1.3537	1.5553	0.1	1504.
6416	4.7237	2.6614	0.1	2134.4
6417	4.6154	2.5774	0.1	2002.9
6418	22.282	1.5707	0.1	9.9634
6419	22.481	1.7777	0.1	7.8919
6420	22.673	1.5848	0.1	6.3048
6421	22.475	1.3805	0.1	7.8882
6422	22.452	4.2571	0.1	8.0886
6423	22.262	4.4698	0.1	10.133
6424	22.452	4.6577	0.1	8.0739
6425	22.647	4.4509	0.1	6.4706
6426	5.3024	2.8806	0.1	2294.4
6427	5.4326	2.7883	0.1	2248.5
6428	5.4215	2.9523	0.1	2223.8
6429	4.9271	2.7971	0.1	2269.1
6430	4.832	2.7376	0.1	2221.4
6431	4.8745	2.9272	0.1	2236.3
6432	5.0185	2.6691	0.1	2399.6
6433	6.3161	1.9595	0.1	1115.3
6434	6.3342	1.7104	0.1	1005.
6435	6.1896	1.8297	0.1	1111.9
6436	6.1855	2.0804	0.1	1246.9
6437	6.3906	1.4529	0.1	900.32
6438	6.6239	1.3887	0.1	849.77
6439	6.4545	1.1753	0.1	803.55
6440	6.2768	1.3203	0.1	847.89
6441	6.2184	1.575	0.1	967.91
6442	4.0083	4.2939	0.1	1275.5
6443	3.9514	4.5507	0.1	1187.6
6444	4.1274	4.4284	0.1	1218.7
6445	1.7492	4.4522	0.1	1449.2
6446	1.5443	4.2413	0.1	1486.5
6447	1.3512	4.4323	0.1	1506.4
6448	1.5493	4.6421	0.1	1471.8
6449	2.1469	4.4797	0.1	1395.9
6450	1.9477	4.6663	0.1	1417.4
6451	2.543	4.5067	0.1	1348.5
6452	2.3496	4.6885	0.1	1367.6
6453	2.9335	4.5239	0.1	1300.8
6454	2.7434	4.6999	0.1	1315.7
6455	3.3247	4.5352	0.1	1248.6
6456	3.1268	4.7099	0.1	1259.
6457	3.5143	4.7298	0.1	1189.1
6458	3.4777	4.3462	0.1	1261.1
6459	3.7183	4.6096	0.1	1185.8
6460	1.5189	2.1644	0.1	1505.3
6461	1.3376	1.962	0.1	1530.3
6462	1.7239	1.9494	0.1	1464.2
6463	1.4943	2.5822	0.1	1521.
6464	1.3201	2.3759	0.1	1550.6
6465	1.4779	2.9988	0.1	1527.8
6466	1.2985	2.7958	0.1	1565.6
6467	1.4875	3.4151	0.1	1521.4
6468	1.2983	3.2068	0.1	1564.2
6469	1.5183	3.8332	0.1	1505.4
6470	1.3137	3.6195	0.1	1552.2
6471	1.3416	4.0309	0.1	1529.
6472	3.3449	1.4887	0.1	1250.7
6473	3.765	1.4158	0.1	1170.3
6474	3.5434	1.2977	0.1	1189.6
6475	3.6813	1.6336	0.1	1255.8
6476	2.9304	1.4841	0.1	1303.
6477	3.1338	1.2986	0.1	1259.7
6478	2.5318	1.5016	0.1	1350.3
6479	2.7389	1.3069	0.1	1316.6
6480	2.7262	1.6714	0.1	1336.6
6481	2.1342	1.5243	0.1	1397.7
6482	2.3381	1.3211	0.1	1368.9
6483	2.3264	1.7015	0.1	1380.2
6484	1.9451	1.3371	0.1	1418.6
6485	1.9286	1.7393	0.1	1426.1
6486	4.1709	1.9575	0.1	1414.8
6487	4.1328	2.0767	0.1	1460.
6488	4.2891	2.0631	0.1	1526.3
6489	4.0941	1.7283	0.1	1286.3
6490	4.2547	1.8196	0.1	1366.8
6491	4.0052	1.4757	0.1	1174.8
6492	4.1754	1.6046	0.1	1231.5
6493	3.9215	1.6934	0.1	1257.4
6494	3.916	1.1752	0.1	1089.2
6495	4.1229	1.2195	0.1	1050.6
6496	4.1474	1.3669	0.1	1114.5
6497	21.887	1.5536	0.1	14.531
6498	22.081	1.3628	0.1	12.046
6499	21.49	1.5341	0.1	20.025
6500	21.684	1.3456	0.1	17.101
6501	21.088	1.5139	0.1	26.469
6502	21.285	1.3262	0.1	23.106
6503	20.688	1.499	0.1	33.805
6504	20.882	1.3112	0.1	30.038
6505	20.294	1.4926	0.1	41.962
6506	20.489	1.3062	0.1	37.766
6507	19.902	1.4912	0.1	50.956
6508	20.097	1.3048	0.1	46.318
6509	19.512	1.4912	0.1	60.809
6510	19.707	1.3048	0.1	55.741
6511	19.122	1.4912	0.1	71.532
6512	19.317	1.3048	0.1	66.031
6513	18.731	1.4912	0.1	83.138
6514	18.926	1.3048	0.1	77.202
6515	18.341	1.4912	0.1	95.628
6516	18.536	1.3048	0.1	89.257
6517	17.951	1.4912	0.1	109.
6518	18.146	1.3048	0.1	102.2
6519	17.56	1.4912	0.1	123.27
6520	17.756	1.3048	0.1	116.02
6521	17.17	1.4912	0.1	138.41
6522	17.365	1.3048	0.1	130.73
6523	16.78	1.4912	0.1	154.45
6524	16.975	1.3048	0.1	146.33
6525	16.39	1.4912	0.1	171.37
6526	16.585	1.3048	0.1	162.81
6527	15.999	1.4912	0.1	189.17
6528	16.194	1.3048	0.1	180.18
6529	15.609	1.4912	0.1	207.86
6530	15.804	1.3048	0.1	198.44
6531	15.219	1.4912	0.1	227.44
6532	15.414	1.3048	0.1	217.59
6533	14.828	1.4912	0.1	247.9
6534	15.024	1.3048	0.1	237.62
6535	14.438	1.4912	0.1	269.24
6536	14.633	1.3048	0.1	258.53
6537	14.048	1.4912	0.1	291.47
6538	14.243	1.3048	0.1	280.33
6539	13.658	1.4912	0.1	314.58
6540	13.853	1.3048	0.1	303.02
6541	13.267	1.4912	0.1	338.57
6542	13.463	1.3048	0.1	326.59
6543	12.877	1.4912	0.1	363.43
6544	13.072	1.3048	0.1	351.05
6545	12.487	1.4912	0.1	389.18
6546	12.682	1.3048	0.1	376.38
6547	12.097	1.4912	0.1	415.81
6548	12.292	1.3048	0.1	402.61
6549	11.706	1.4912	0.1	443.32
6550	11.901	1.3048	0.1	429.71
6551	11.316	1.4912	0.1	471.72
6552	11.511	1.3048	0.1	457.7
6553	10.926	1.4912	0.1	501.
6554	11.121	1.3048	0.1	486.57
6555	10.535	1.4912	0.1	531.19
6556	10.731	1.3048	0.1	516.31
6557	10.145	1.4912	0.1	562.29
6558	10.34	1.3048	0.1	546.92
6559	9.7549	1.4912	0.1	594.31
6560	9.95	1.3048	0.1	578.37
6561	9.3646	1.4912	0.1	627.29
6562	9.5597	1.3048	0.1	610.6
6563	8.9743	1.4912	0.1	661.25
6564	9.1694	1.3048	0.1	643.52
6565	8.584	1.4912	0.1	696.09
6566	8.7792	1.3048	0.1	676.93
6567	8.1962	1.4899	0.1	731.4
6568	8.3889	1.3048	0.1	710.35
6569	7.8104	1.4855	0.1	766.83
6570	8.0011	1.3035	0.1	742.88
6571	8.0011	1.6763	0.1	755.84
6572	7.4243	1.4743	0.1	802.
6573	7.6128	1.3003	0.1	773.39
6574	7.6204	1.6666	0.1	795.9
6575	7.0241	1.4609	0.1	834.21
6576	7.228	1.2889	0.1	799.34
6577	6.8315	1.2693	0.1	813.2
6578	22.439	3.8417	0.1	8.2476
6579	22.645	4.0423	0.1	6.5708
6580	22.474	3.4068	0.1	7.9583
6581	22.64	3.6234	0.1	6.6905
6582	22.515	2.9821	0.1	7.6524
6583	22.695	3.1973	0.1	6.2019
6584	22.504	2.5816	0.1	7.7947
6585	22.696	2.7891	0.1	6.2362
6586	22.491	2.1809	0.1	7.8777
6587	22.687	2.3899	0.1	6.3236
6588	22.681	1.987	0.1	6.3205
6589	6.2659	4.0982	0.1	1117.2
6590	6.1405	4.2107	0.1	1112.9
6591	7.0175	4.5267	0.1	836.52
6592	6.6257	4.5897	0.1	856.66
6593	6.829	4.7161	0.1	816.22
6594	7.4252	4.5214	0.1	802.99
6595	7.2255	4.707	0.1	800.7
6596	7.809	4.5125	0.1	766.99
6597	7.6153	4.7004	0.1	773.47
6598	8.1938	4.5088	0.1	731.64
6599	7.9986	4.6952	0.1	742.97
6600	8.584	4.5088	0.1	696.18
6601	8.3889	4.6952	0.1	710.48
6602	8.9743	4.5088	0.1	661.28
6603	8.7792	4.6952	0.1	676.96
6604	9.3646	4.5088	0.1	627.34
6605	9.1694	4.6952	0.1	643.56
6606	9.7549	4.5088	0.1	594.35
6607	9.5597	4.6952	0.1	610.64
6608	10.145	4.5088	0.1	562.31
6609	9.95	4.6952	0.1	578.4
6610	10.535	4.5088	0.1	531.21
6611	10.34	4.6952	0.1	546.94
6612	10.926	4.5088	0.1	501.02
6613	10.731	4.6952	0.1	516.33
6614	11.316	4.5088	0.1	471.73
6615	11.121	4.6952	0.1	486.58
6616	11.706	4.5088	0.1	443.33
6617	11.511	4.6952	0.1	457.71
6618	12.097	4.5088	0.1	415.82
6619	11.901	4.6952	0.1	429.72
6620	12.487	4.5088	0.1	389.19
6621	12.292	4.6952	0.1	402.61
6622	12.877	4.5088	0.1	363.44
6623	12.682	4.6952	0.1	376.39
6624	13.267	4.5088	0.1	338.57
6625	13.072	4.6952	0.1	351.05
6626	13.658	4.5088	0.1	314.58
6627	13.463	4.6952	0.1	326.59
6628	14.048	4.5088	0.1	291.47
6629	13.853	4.6952	0.1	303.02
6630	14.438	4.5088	0.1	269.25
6631	14.243	4.6952	0.1	280.33
6632	14.828	4.5088	0.1	247.9
6633	14.633	4.6952	0.1	258.53
6634	15.219	4.5088	0.1	227.44
6635	15.024	4.6952	0.1	237.62
6636	15.609	4.5088	0.1	207.87
6637	15.414	4.6952	0.1	217.59
6638	15.999	4.5088	0.1	189.17
6639	15.804	4.6952	0.1	198.44
6640	16.39	4.5088	0.1	171.37
6641	16.194	4.6952	0.1	180.18
6642	16.78	4.5088	0.1	154.45
6643	16.585	4.6952	0.1	162.81
6644	17.17	4.5088	0.1	138.41
6645	16.975	4.6952	0.1	146.33
6646	17.56	4.5088	0.1	123.26
6647	17.365	4.6952	0.1	130.73
6648	17.951	4.5088	0.1	109.
6649	17.756	4.6952	0.1	116.02
6650	18.341	4.5088	0.1	95.625
6651	18.146	4.6952	0.1	102.19
6652	18.731	4.5088	0.1	83.134
6653	18.536	4.6952	0.1	89.253
6654	19.122	4.5088	0.1	71.527
6655	18.926	4.6952	0.1	77.198
6656	19.512	4.5088	0.1	60.805
6657	19.317	4.6952	0.1	66.027
6658	19.902	4.5088	0.1	50.968
6659	19.707	4.6952	0.1	55.739
6660	20.292	4.5088	0.1	42.016
6661	20.097	4.6952	0.1	46.336
6662	20.683	4.5088	0.1	33.936
6663	20.487	4.6952	0.1	37.813
6664	21.073	4.5088	0.1	26.711
6665	20.878	4.6952	0.1	30.156
6666	21.467	4.5068	0.1	20.336
6667	21.268	4.6952	0.1	23.347
6668	21.868	4.4929	0.1	14.782
6669	21.666	4.6908	0.1	17.381
6670	22.062	4.6745	0.1	12.254
6671	4.3398	3.7998	0.1	1608.6
6672	4.2162	3.6593	0.1	1601.8
6673	4.4762	3.6714	0.1	1805.7
6674	4.3799	2.4107	0.1	1728.5
6675	4.3794	2.1729	0.1	1627.9
6676	4.4886	2.2676	0.1	1797.8
6677	6.0739	3.8445	0.1	1345.6
6678	5.9559	3.7363	0.1	1542.6
6679	6.4713	4.7966	0.1	816.08
6680	6.289	4.6609	0.1	857.42
6681	4.8206	3.4509	0.1	2268.
6682	4.7232	3.3161	0.1	2104.7
6683	4.6433	3.5613	0.1	2007.7
6684	5.1056	3.41	0.1	2455.
6685	5.3871	3.3273	0.1	2321.
6686	5.2702	3.4635	0.1	2577.
6687	5.6801	3.525	0.1	2017.6
6688	5.8114	3.6353	0.1	1739.7
6689	5.7897	2.4626	0.1	1790.4
6690	5.6638	2.564	0.1	2036.5
6691	5.7582	2.7673	0.1	1860.1
6692	6.6621	1.0559	0.1	764.48
6693	6.2829	1.0237	0.1	721.7
6694	6.478	0.86579	0.1	713.69
6695	3.6869	4.9458	0.1	1107.1
6696	4.0598	4.9868	0.1	982.03
6697	3.8743	5.1361	0.1	1015.
6698	3.891	4.8256	0.1	1106.1
6699	1.1485	4.222	0.1	1548.3
6700	1.1509	4.6223	0.1	1518.7
6701	0.95692	4.4159	0.1	1589.4
6702	1.7553	1.1431	0.1	1439.6
6703	1.3612	1.1531	0.1	1482.7
6704	1.5603	0.95148	0.1	1462.5
6705	1.1538	1.7638	0.1	1546.9
6706	1.1625	1.359	0.1	1516.1
6707	0.96539	1.5677	0.1	1587.
6708	22.872	1.794	0.1	4.705
6709	22.865	1.3907	0.1	4.6641
6710	23.061	1.5954	0.1	3.5381
6711	22.274	1.1726	0.1	10.02
6712	22.666	1.1864	0.1	6.2898
6713	22.468	0.98383	0.1	7.9558
6714	22.252	4.8624	0.1	10.245
6715	22.644	4.8503	0.1	6.4732
6716	22.446	5.0518	0.1	8.1737
6717	22.841	4.2361	0.1	4.922
6718	22.839	4.6434	0.1	4.8252
6719	23.035	4.434	0.1	3.6842
6720	4.8203	2.5291	0.1	2293.8
6721	4.9234	2.6097	0.1	2353.1
6722	5.2685	2.51	0.1	2586.8
6723	5.3651	2.6532	0.1	2368.
6724	5.1346	2.5867	0.1	2473.4
6725	6.059	1.9506	0.1	1245.5
6726	6.0738	1.6944	0.1	1078.1
6727	5.9332	1.8208	0.1	1236.7
6728	5.926	2.0692	0.1	1446.2
6729	6.0497	2.208	0.1	1397.4
6730	6.1046	1.4425	0.1	919.74
6731	5.9526	1.5743	0.1	1022.9
6732	4.3107	4.0614	0.1	1458.1
6733	4.4275	4.1862	0.1	1427.9
6734	4.1592	4.1744	0.1	1352.3
6735	4.2782	4.3089	0.1	1298.5
6736	4.1952	3.9289	0.1	1484.4
6737	4.4571	3.947	0.1	1634.6
6738	4.2401	4.8459	0.1	994.92
6739	4.3773	4.6696	0.1	1055.1
6740	4.0713	4.6846	0.1	1113.
6741	4.2473	4.5623	0.1	1148.4
6742	1.7478	4.8562	0.1	1440.2
6743	1.3489	4.8321	0.1	1484.6
6744	1.5512	5.0394	0.1	1463.5
6745	2.1505	4.875	0.1	1389.2
6746	1.95	5.0585	0.1	1415.7
6747	2.55	4.8816	0.1	1334.9
6748	2.3538	5.068	0.1	1361.3
6749	2.9368	4.8858	0.1	1273.9
6750	2.7462	5.068	0.1	1299.1
6751	3.3164	4.9044	0.1	1198.9
6752	3.1304	5.074	0.1	1224.7
6753	3.5061	5.096	0.1	1131.5
6754	1.1389	2.1735	0.1	1575.2
6755	0.95653	1.9732	0.1	1625.2
6756	1.1243	2.5895	0.1	1594.9
6757	0.94155	2.3831	0.1	1653.2
6758	1.1189	3.0038	0.1	1601.8
6759	0.93199	2.8	0.1	1668.1
6760	1.1245	3.4112	0.1	1594.6
6761	0.93254	3.2038	0.1	1667.7
6762	1.137	3.8172	0.1	1575.4
6763	0.93951	3.6104	0.1	1653.6
6764	0.9503	4.0134	0.1	1626.5
6765	3.6944	1.0571	0.1	1105.3
6766	3.8666	0.84923	0.1	1012.8
6767	4.0282	0.96265	0.1	977.91
6768	3.3323	1.1077	0.1	1197.8
6769	3.5209	0.91297	0.1	1128.9
6770	2.9424	1.1215	0.1	1273.3
6771	3.1354	0.93143	0.1	1224.2
6772	2.5452	1.1264	0.1	1335.4
6773	2.7457	0.93439	0.1	1298.9
6774	2.149	1.1339	0.1	1389.9
6775	2.3495	0.93764	0.1	1361.8
6776	1.9572	0.94189	0.1	1415.4
6777	4.336	1.6959	0.1	1316.1
6778	4.373	1.9252	0.1	1479.4
6779	4.4799	1.8009	0.1	1439.
6780	4.4489	1.595	0.1	1252.9
6781	4.3176	1.4958	0.1	1175.7
6782	4.3303	1.1745	0.1	968.37
6783	4.4918	1.2272	0.1	940.68
6784	4.3548	1.3219	0.1	1030.8
6785	4.4204	1.0636	0.1	885.95
6786	4.235	1.0069	0.1	943.5
6787	21.878	1.1548	0.1	14.67
6788	22.071	0.96354	0.1	12.229
6789	21.48	1.1377	0.1	20.235
6790	21.674	0.95199	0.1	17.357
6791	21.079	1.1236	0.1	26.727
6792	21.276	0.93891	0.1	23.413
6793	20.683	1.1184	0.1	34.047
6794	20.878	0.93199	0.1	30.315
6795	20.292	1.1184	0.1	42.168
6796	20.487	0.93199	0.1	38.018
6797	19.902	1.1184	0.1	51.149
6798	20.097	0.93199	0.1	46.569
6799	19.512	1.1184	0.1	61.009
6800	19.707	0.93199	0.1	55.996
6801	19.122	1.1184	0.1	71.747
6802	19.317	0.93199	0.1	66.301
6803	18.731	1.1184	0.1	83.366
6804	18.926	0.93199	0.1	77.485
6805	18.341	1.1184	0.1	95.869
6806	18.536	0.93199	0.1	89.551
6807	17.951	1.1184	0.1	109.26
6808	18.146	0.93199	0.1	102.5
6809	17.56	1.1184	0.1	123.53
6810	17.756	0.93199	0.1	116.34
6811	17.17	1.1184	0.1	138.69
6812	17.365	0.93199	0.1	131.06
6813	16.78	1.1184	0.1	154.74
6814	16.975	0.93199	0.1	146.67
6815	16.39	1.1184	0.1	171.67
6816	16.585	0.93199	0.1	163.17
6817	15.999	1.1184	0.1	189.49
6818	16.194	0.93199	0.1	180.55
6819	15.609	1.1184	0.1	208.2
6820	15.804	0.93199	0.1	198.83
6821	15.219	1.1184	0.1	227.8
6822	15.414	0.93199	0.1	217.99
6823	14.828	1.1184	0.1	248.29
6824	15.024	0.93199	0.1	238.05
6825	14.438	1.1184	0.1	269.66
6826	14.633	0.93199	0.1	258.99
6827	14.048	1.1184	0.1	291.92
6828	14.243	0.93199	0.1	280.83
6829	13.658	1.1184	0.1	315.07
6830	13.853	0.93199	0.1	303.55
6831	13.267	1.1184	0.1	339.11
6832	13.463	0.93199	0.1	327.17
6833	12.877	1.1184	0.1	364.03
6834	13.072	0.93199	0.1	351.68
6835	12.487	1.1184	0.1	389.84
6836	12.682	0.93199	0.1	377.08
6837	12.097	1.1184	0.1	416.54
6838	12.292	0.93199	0.1	403.37
6839	11.706	1.1184	0.1	444.12
6840	11.901	0.93199	0.1	430.55
6841	11.316	1.1184	0.1	472.58
6842	11.511	0.93199	0.1	458.61
6843	10.926	1.1184	0.1	501.91
6844	11.121	0.93199	0.1	487.54
6845	10.535	1.1184	0.1	532.07
6846	10.731	0.93199	0.1	517.3
6847	10.145	1.1184	0.1	563.02
6848	10.34	0.93199	0.1	547.85
6849	9.7549	1.1184	0.1	594.67
6850	9.95	0.93199	0.1	579.07
6851	9.3646	1.1184	0.1	626.85
6852	9.5597	0.93199	0.1	610.79
6853	8.9743	1.1184	0.1	659.22
6854	9.1694	0.93199	0.1	642.67
6855	8.584	1.1184	0.1	691.22
6856	8.7792	0.93199	0.1	674.13
6857	8.1938	1.1184	0.1	721.85
6858	8.3889	0.93199	0.1	704.13
6859	7.8035	1.1184	0.1	749.41
6860	7.9986	0.93199	0.1	731.
6861	7.4164	1.1149	0.1	770.55
6862	7.6083	0.93199	0.1	751.93
6863	7.0354	1.0973	0.1	777.4
6864	7.2238	0.92775	0.1	761.46
6865	6.8448	0.90803	0.1	750.71
6866	22.845	3.8241	0.1	4.9911
6867	23.038	4.025	0.1	3.7788
6868	22.86	3.414	0.1	4.9104
6869	23.048	3.6141	0.1	3.782
6870	22.877	3.0044	0.1	4.7706
6871	23.063	3.2044	0.1	3.6788
6872	22.879	2.5974	0.1	4.7468
6873	23.068	2.8	0.1	3.6218
6874	22.877	2.196	0.1	4.7456
6875	23.066	2.3974	0.1	3.6305
6876	23.065	1.9986	0.1	3.5862
6877	5.9203	3.9805	0.1	1416.3
6878	6.1656	3.9818	0.1	1229.5
6879	6.0402	4.0943	0.1	1226.4
6880	6.6746	4.9229	0.1	773.45
6881	6.304	4.9209	0.1	749.36
6882	6.4853	5.1038	0.1	725.47
6883	6.1034	4.556	0.1	923.35
6884	5.9404	4.4374	0.1	1020.
6885	6.0541	4.3298	0.1	1071.4
6886	5.9757	4.6589	0.1	853.53
6887	6.1217	4.7853	0.1	796.38
6888	7.0371	4.8964	0.1	779.41
6889	6.8472	5.0848	0.1	752.72
6890	7.4156	4.886	0.1	771.01
6891	7.2191	5.0709	0.1	761.84
6892	7.8049	4.8831	0.1	749.43
6893	7.6097	5.0695	0.1	752.19
6894	8.1938	4.8816	0.1	721.83
6895	7.9986	5.068	0.1	730.99
6896	8.584	4.8816	0.1	691.29
6897	8.3889	5.068	0.1	704.21
6898	8.9743	4.8816	0.1	659.27
6899	8.7792	5.068	0.1	674.18
6900	9.3646	4.8816	0.1	626.89
6901	9.1694	5.068	0.1	642.72
6902	9.7549	4.8816	0.1	594.71
6903	9.5597	5.068	0.1	610.83
6904	10.145	4.8816	0.1	563.05
6905	9.95	5.068	0.1	579.11
6906	10.535	4.8816	0.1	532.09
6907	10.34	5.068	0.1	547.88
6908	10.926	4.8816	0.1	501.92
6909	10.731	5.068	0.1	517.32
6910	11.316	4.8816	0.1	472.6
6911	11.121	5.068	0.1	487.56
6912	11.706	4.8816	0.1	444.13
6913	11.511	5.068	0.1	458.63
6914	12.097	4.8816	0.1	416.55
6915	11.901	5.068	0.1	430.56
6916	12.487	4.8816	0.1	389.85
6917	12.292	5.068	0.1	403.38
6918	12.877	4.8816	0.1	364.04
6919	12.682	5.068	0.1	377.09
6920	13.267	4.8816	0.1	339.11
6921	13.072	5.068	0.1	351.68
6922	13.658	4.8816	0.1	315.07
6923	13.463	5.068	0.1	327.17
6924	14.048	4.8816	0.1	291.92
6925	13.853	5.068	0.1	303.55
6926	14.438	4.8816	0.1	269.66
6927	14.243	5.068	0.1	280.83
6928	14.828	4.8816	0.1	248.29
6929	14.633	5.068	0.1	258.99
6930	15.219	4.8816	0.1	227.8
6931	15.024	5.068	0.1	238.05
6932	15.609	4.8816	0.1	208.2
6933	15.414	5.068	0.1	217.99
6934	15.999	4.8816	0.1	189.49
6935	15.804	5.068	0.1	198.83
6936	16.39	4.8816	0.1	171.67
6937	16.194	5.068	0.1	180.55
6938	16.78	4.8816	0.1	154.74
6939	16.585	5.068	0.1	163.17
6940	17.17	4.8816	0.1	138.69
6941	16.975	5.068	0.1	146.67
6942	17.56	4.8816	0.1	123.53
6943	17.365	5.068	0.1	131.06
6944	17.951	4.8816	0.1	109.25
6945	17.756	5.068	0.1	116.34
6946	18.341	4.8816	0.1	95.866
6947	18.146	5.068	0.1	102.5
6948	18.731	4.8816	0.1	83.363
6949	18.536	5.068	0.1	89.548
6950	19.122	4.8816	0.1	71.743
6951	18.926	5.068	0.1	77.482
6952	19.512	4.8816	0.1	61.007
6953	19.317	5.068	0.1	66.298
6954	19.902	4.8816	0.1	51.153
6955	19.707	5.068	0.1	55.997
6956	20.292	4.8816	0.1	42.179
6957	20.097	5.068	0.1	46.576
6958	20.683	4.8816	0.1	34.079
6959	20.487	5.068	0.1	38.031
6960	21.073	4.8816	0.1	26.839
6961	20.878	5.068	0.1	30.354
6962	21.466	4.8792	0.1	20.439
6963	21.268	5.068	0.1	23.533
6964	21.86	4.8724	0.1	14.903
6965	21.661	5.0656	0.1	17.556
6966	22.052	5.0612	0.1	12.443
6967	4.9008	3.5938	0.1	2418.1
6968	5.0325	3.5322	0.1	2622.
6969	5.5438	3.6612	0.1	2279.2
6970	5.5353	3.4155	0.1	2205.6
6971	5.4184	3.5517	0.1	2462.
6972	5.7943	2.1881	0.1	1659.9
6973	5.6706	2.2951	0.1	2024.
6974	5.9181	2.3269	0.1	1612.
6975	5.9474	1.0975	0.1	701.69
6976	6.1085	0.84072	0.1	642.87
6977	6.1053	1.1688	0.1	772.07
6978	4.4033	4.9176	0.1	892.29
6979	4.2354	5.1771	0.1	862.02
6980	0.9503	4.8127	0.1	1545.3
6981	1.1525	5.019	0.1	1493.8
6982	0.97005	1.1673	0.1	1542.1
6983	1.1664	0.96331	0.1	1492.
6984	4.0416	0.66055	0.1	887.56
6985	4.2549	0.47558	0.1	741.5
6986	4.2031	0.77397	0.1	855.65
6987	4.3649	0.63012	0.1	724.63
6988	23.056	1.1936	0.1	3.4787
6989	22.857	0.98923	0.1	4.6618
6990	22.837	5.04	0.1	4.8059
6991	23.032	4.8356	0.1	3.6091
6992	5.8023	3.8723	0.1	1613.9
6993	5.675	3.7715	0.1	2013.2
6994	5.4181	2.4758	0.1	2460.5
6995	5.5447	2.3966	0.1	2258.6
6996	5.5147	2.619	0.1	2240.5
6997	4.9291	2.4133	0.1	2524.2
6998	4.712	2.4451	0.1	2167.2
6999	4.823	2.3173	0.1	2368.6
7000	5.1661	2.4172	0.1	2681.1
7001	5.2991	2.3325	0.1	2934.6
7002	5.0492	2.3056	0.1	2985.
7003	5.0322	2.4939	0.1	2584.8
7004	5.8002	1.9393	0.1	1439.5
7005	5.6686	1.813	0.1	1487.1
7006	5.8121	1.7007	0.1	1188.
7007	5.665	2.0485	0.1	1860.8
7008	5.819	1.2665	0.1	790.41
7009	5.6792	1.3766	0.1	875.54
7010	5.9769	1.3377	0.1	851.06
7011	5.825	1.4695	0.1	963.94
7012	5.7632	1.0949	0.1	646.7
7013	5.6165	1.0086	0.1	577.19
7014	5.6658	1.1903	0.1	709.52
7015	4.5532	4.3035	0.1	1363.4
7016	4.6978	4.1886	0.1	1637.3
7017	4.5739	4.0719	0.1	1605.8
7018	4.534	4.5334	0.1	1144.8
7019	4.5405	4.7414	0.1	963.41
7020	4.6823	4.6259	0.1	1033.4
7021	4.6846	4.41	0.1	1260.7
7022	4.4039	4.4261	0.1	1227.7
7023	4.5997	4.9102	0.1	798.97
7024	4.7501	4.9901	0.1	712.32
7025	4.6986	4.8148	0.1	859.28
7026	3.6935	5.2864	0.1	1037.9
7027	3.5107	5.4543	0.1	1086.2
7028	3.3201	5.2656	0.1	1156.8
7029	4.0498	5.3265	0.1	888.91
7030	3.8868	5.475	0.1	939.62
7031	4.2436	5.5138	0.1	754.35
7032	4.3789	5.3673	0.1	719.31
7033	3.6931	0.7051	0.1	1034.9
7034	3.8828	0.51214	0.1	935.5
7035	3.324	0.73672	0.1	1154.8
7036	3.5143	0.54411	0.1	1083.7
7037	3.1331	0.55658	0.1	1197.6
7038	2.9388	0.74434	0.1	1249.8
7039	4.7212	2.0126	0.1	2002.6
7040	4.4922	2.0337	0.1	1651.
7041	4.5991	1.9095	0.1	1610.9
7042	4.6013	2.1284	0.1	1819.9
7043	4.719	1.6001	0.1	1281.5
7044	4.5928	1.7	0.1	1382.4
7045	4.5934	1.5037	0.1	1175.2
7046	4.5819	1.1163	0.1	866.34
7047	4.7226	1.2062	0.1	882.96
7048	4.599	1.3098	0.1	1005.
7049	4.5547	0.91913	0.1	756.73
7050	4.6988	1.0109	0.1	744.53
7051	4.6833	0.80972	0.1	640.6
7052	4.3693	0.86243	0.1	801.51
7053	4.5312	0.71859	0.1	681.81
7054	6.3036	0.68277	0.1	628.82
7055	6.472	0.52596	0.1	644.85
7056	6.6607	0.71792	0.1	698.27
7057	5.9748	0.63817	0.1	528.67
7058	6.1109	0.49524	0.1	542.87
7059	5.6657	3.9911	0.1	1811.8
7060	5.7902	4.0979	0.1	1414.9
7061	5.6813	4.6373	0.1	861.42
7062	5.8294	4.763	0.1	786.7
7063	5.8128	4.5402	0.1	960.35
7064	5.4215	3.7884	0.1	2779.3
7065	5.5385	3.8902	0.1	2205.7
7066	5.4257	2.2533	0.1	2734.7
7067	5.5413	2.1555	0.1	2215.7
7068	0.76977	5.4051	0.1	1499.8
7069	0.57198	5.2064	0.1	1476.7
7070	0.7578	5.0055	0.1	1550.8
7071	0.96003	5.2119	0.1	1500.4
7072	4.4138	0.37718	0.1	622.94
7073	4.6441	0.39801	0.1	467.14
7074	4.5239	0.53172	0.1	612.81
7075	23.233	0.59624	0.1	2.3199
7076	23.43	0.79463	0.1	1.5445
7077	23.244	0.99613	0.1	2.2614
7078	23.046	0.79179	0.1	3.5068
7079	23.419	5.2166	0.1	1.5859
7080	23.226	5.4204	0.1	2.3737
7081	23.03	5.2292	0.1	3.6141
7082	23.225	5.0248	0.1	2.3548
7083	5.6801	0.60791	0.1	416.29
7084	5.7571	0.45038	0.1	394.62
7085	5.5081	5.4604	0.1	314.12
7086	5.6151	5.6411	0.1	295.88
7087	5.6669	5.4539	0.1	364.71
7088	5.4169	5.5697	0.1	237.84
7089	5.182	3.7813	0.1	3168.
7090	4.9512	3.7498	0.1	2789.7
7091	5.0829	3.6882	0.1	2988.2
7092	5.0792	3.8866	0.1	4108.7
7093	5.2962	3.6789	0.1	2965.2
7094	5.2861	3.8947	0.1	4099.
7095	5.1821	2.221	0.1	3173.8
7096	5.2852	2.1164	0.1	4100.1
7097	4.9431	2.2096	0.1	2818.7
7098	5.0803	2.1046	0.1	4122.2
7099	5.5334	1.9222	0.1	1910.6
7100	5.4008	2.0186	0.1	3636.4
7101	5.536	1.7008	0.1	1418.2
7102	5.3993	1.8036	0.1	1544.5
7103	5.5337	1.4955	0.1	1041.4
7104	5.6794	1.5884	0.1	1101.5
7105	5.4034	1.5972	0.1	1050.7
7106	5.526	1.3004	0.1	820.31
7107	5.397	1.3983	0.1	798.57
7108	5.5191	1.104	0.1	654.71
7109	5.3957	1.2021	0.1	631.98
7110	5.5221	0.90226	0.1	519.36
7111	5.3901	1.0019	0.1	497.33
7112	5.5352	0.70144	0.1	418.2
7113	5.3987	0.80035	0.1	397.67
7114	5.5187	0.51867	0.1	325.23
7115	5.4032	0.60109	0.1	319.31
7116	5.5957	0.36114	0.1	288.23
7117	5.3822	0.41758	0.1	213.01
7118	4.8292	4.2952	0.1	1550.7
7119	4.8321	4.0759	0.1	2025.5
7120	4.9658	4.1943	0.1	1635.9
7121	4.833	4.5025	0.1	1180.8
7122	4.9634	4.4008	0.1	1157.6
7123	4.8404	4.6994	0.1	959.49
7124	4.9696	4.6017	0.1	908.05
7125	4.849	4.8948	0.1	789.92
7126	4.9708	4.7977	0.1	743.21
7127	4.8449	5.0954	0.1	644.08
7128	4.9782	4.997	0.1	602.63
7129	4.8282	5.2945	0.1	533.12
7130	4.9667	5.1984	0.1	495.74
7131	4.8451	5.4764	0.1	425.1
7132	4.6806	5.3868	0.1	549.98
7133	4.9615	5.3961	0.1	411.14
7134	4.7674	5.6304	0.1	387.41
7135	4.9836	5.5803	0.1	278.08
7136	0.97083	5.6066	0.1	1487.2
7137	0.58125	5.6034	0.1	1376.5
7138	0.77996	5.8022	0.1	1492.6
7139	1.3631	5.6126	0.1	1481.6
7140	1.1611	5.4133	0.1	1487.5
7141	1.1716	5.8044	0.1	1502.3
7142	1.7584	5.6193	0.1	1448.6
7143	1.5568	5.4255	0.1	1467.3
7144	1.5645	5.8081	0.1	1481.3
7145	2.1555	5.6248	0.1	1393.5
7146	1.955	5.4355	0.1	1420.4
7147	1.9593	5.8112	0.1	1431.3
7148	2.55	5.6272	0.1	1323.4
7149	2.3538	5.4408	0.1	1360.9
7150	2.3538	5.8136	0.1	1365.6
7151	2.9397	5.6279	0.1	1236.5
7152	2.7462	5.4408	0.1	1288.
7153	2.7462	5.8136	0.1	1283.9
7154	3.3239	5.632	0.1	1127.5
7155	3.1333	5.4434	0.1	1198.3
7156	3.1359	5.8143	0.1	1182.
7157	3.704	5.6428	0.1	987.13
7158	3.5227	5.8177	0.1	1051.9
7159	4.0805	5.6623	0.1	802.54
7160	3.9083	5.8251	0.1	883.04
7161	4.4676	5.6872	0.1	559.83
7162	4.2915	5.8371	0.1	660.63
7163	4.6029	5.5407	0.1	532.13
7164	4.8838	5.75	0.1	315.42
7165	4.6876	5.85	0.1	389.65
7166	0.38653	0.99178	0.1	1498.
7167	0.38696	0.59201	0.1	1347.3
7168	0.57926	0.78362	0.1	1475.
7169	0.19319	0.79506	0.1	1601.2
7170	0.38533	1.3933	0.1	1601.6
7171	0.58104	1.1848	0.1	1572.2
7172	0.19335	1.1967	0.1	1748.2
7173	0.38322	1.7923	0.1	1665.2
7174	0.57727	1.5844	0.1	1641.2
7175	0.19198	1.5966	0.1	1830.7
7176	0.37952	2.1937	0.1	1704.9
7177	0.57406	1.985	0.1	1688.7
7178	0.19123	1.9957	0.1	1878.5
7179	0.37468	2.598	0.1	1726.7
7180	0.56468	2.3916	0.1	1719.2
7181	0.18828	2.398	0.1	1904.3
7182	0.3728	3.	0.1	1733.7
7183	0.55919	2.8	0.1	1733.8
7184	0.1864	2.8	0.1	1915.3
7185	0.3728	3.4	0.1	1727.6
7186	0.55919	3.2	0.1	1733.8
7187	0.1864	3.2	0.1	1915.5
7188	0.37538	3.8015	0.1	1707.1
7189	0.56114	3.6029	0.1	1720.4
7190	0.1864	3.6	0.1	1904.3
7191	0.3783	4.2026	0.1	1668.8
7192	0.56705	4.0051	0.1	1691.3
7193	0.18898	4.0015	0.1	1879.2
7194	0.37855	4.6029	0.1	1606.2
7195	0.56997	4.4048	0.1	1644.6
7196	0.18932	4.4011	0.1	1832.
7197	0.37909	5.0052	0.1	1502.1
7198	0.56491	4.8043	0.1	1576.6
7199	0.18923	4.8018	0.1	1749.1
7200	0.38347	5.4047	0.1	1349.8
7201	0.18986	5.2034	0.1	1603.1
7202	0.1936	5.6013	0.1	1339.7
7203	0.38976	5.8013	0.1	1267.4
7204	4.0961	0.32717	0.1	786.92
7205	4.5026	0.25145	0.1	530.94
7206	4.3058	0.15496	0.1	651.15
7207	3.704	0.35115	0.1	983.59
7208	3.9095	0.17221	0.1	879.54
7209	3.3233	0.36397	0.1	1126.3
7210	3.5213	0.17894	0.1	1051.1
7211	2.9404	0.37143	0.1	1235.6
7212	3.1366	0.18503	0.1	1181.
7213	2.55	0.3728	0.1	1323.1
7214	2.7462	0.55919	0.1	1287.8
7215	2.7462	0.1864	0.1	1283.3
7216	2.1577	0.3728	0.1	1393.2
7217	2.3538	0.55919	0.1	1360.7
7218	2.3538	0.1864	0.1	1365.3
7219	1.7635	0.374	0.1	1448.3
7220	1.9615	0.55919	0.1	1419.9
7221	1.9615	0.1864	0.1	1430.8
7222	1.3685	0.37794	0.1	1481.6
7223	1.5641	0.56511	0.1	1466.9
7224	1.5673	0.1876	0.1	1480.9
7225	0.97448	0.38508	0.1	1487.8
7226	1.1698	0.57448	0.1	1487.1
7227	1.1742	0.19034	0.1	1501.7
7228	0.58248	0.39168	0.1	1376.2
7229	0.77479	0.58329	0.1	1500.4
7230	0.78102	0.19473	0.1	1492.4
7231	0.19377	0.39695	0.1	1336.4
7232	0.38992	0.19695	0.1	1266.2
7233	4.8429	1.903	0.1	2040.7
7234	4.8332	2.1079	0.1	2329.2
7235	4.9704	2.003	0.1	3668.
7236	4.8469	1.7	0.1	1565.4
7237	4.7207	1.7998	0.1	1649.8
7238	4.9725	1.8	0.1	1592.6
7239	4.8495	1.5007	0.1	1191.
7240	4.9744	1.6	0.1	1140.8
7241	4.8475	1.3007	0.1	957.65
7242	4.7239	1.4043	0.1	1055.9
7243	4.975	1.4007	0.1	901.52
7244	4.8395	1.1008	0.1	783.03
7245	4.9725	1.2	0.1	734.6
7246	4.8273	0.90145	0.1	648.6
7247	4.967	1.0008	0.1	611.68
7248	4.8176	0.69748	0.1	526.49
7249	4.9604	0.80064	0.1	506.06
7250	4.7856	0.47262	0.1	413.15
7251	4.6654	0.60634	0.1	549.69
7252	4.9572	0.59684	0.1	404.01
7253	4.7328	0.27227	0.1	376.42
7254	4.9284	0.37578	0.1	313.47
7255	4.9045	0.19649	0.1	279.73
7256	4.7083	9.6488e-002	0.1	366.11
7257	23.033	0.39662	0.1	3.8481
7258	23.421	0.39726	0.1	1.654
7259	23.224	0.19841	0.1	2.3247
7260	22.643	0.39377	0.1	6.9303
7261	22.846	0.59217	0.1	4.8833
7262	22.834	0.19821	0.1	4.9653
7263	22.251	0.38732	0.1	10.863
7264	22.456	0.58824	0.1	8.313
7265	22.443	0.19556	0.1	8.4077
7266	21.858	0.37981	0.1	15.632
7267	22.059	0.57383	0.1	12.672
7268	22.051	0.19176	0.1	12.681
7269	21.466	0.37594	0.1	21.209
7270	21.665	0.56673	0.1	17.846
7271	21.66	0.18805	0.1	17.787
7272	21.074	0.37429	0.1	27.642
7273	21.271	0.5624	0.1	23.872
7274	21.27	0.18789	0.1	23.711
7275	20.683	0.3728	0.1	34.937
7276	20.878	0.55919	0.1	30.747
7277	20.878	0.1864	0.1	30.529
7278	20.292	0.3728	0.1	43.075
7279	20.487	0.55919	0.1	38.453
7280	20.487	0.1864	0.1	38.201
7281	19.902	0.3728	0.1	52.081
7282	20.097	0.55919	0.1	47.019
7283	20.097	0.1864	0.1	46.744
7284	19.512	0.3728	0.1	61.96
7285	19.707	0.55919	0.1	56.457
7286	19.707	0.1864	0.1	56.166
7287	19.122	0.3728	0.1	72.719
7288	19.317	0.55919	0.1	66.771
7289	19.317	0.1864	0.1	66.47
7290	18.731	0.3728	0.1	84.357
7291	18.926	0.55919	0.1	77.965
7292	18.926	0.1864	0.1	77.658
7293	18.341	0.3728	0.1	96.879
7294	18.536	0.55919	0.1	90.041
7295	18.536	0.1864	0.1	89.731
7296	17.951	0.3728	0.1	110.29
7297	18.146	0.55919	0.1	103.
7298	18.146	0.1864	0.1	102.69
7299	17.56	0.3728	0.1	124.58
7300	17.756	0.55919	0.1	116.85
7301	17.756	0.1864	0.1	116.54
7302	17.17	0.3728	0.1	139.76
7303	17.365	0.55919	0.1	131.58
7304	17.365	0.1864	0.1	131.29
7305	16.78	0.3728	0.1	155.83
7306	16.975	0.55919	0.1	147.2
7307	16.975	0.1864	0.1	146.92
7308	16.39	0.3728	0.1	172.8
7309	16.585	0.55919	0.1	163.71
7310	16.585	0.1864	0.1	163.45
7311	15.999	0.3728	0.1	190.65
7312	16.194	0.55919	0.1	181.11
7313	16.194	0.1864	0.1	180.87
7314	15.609	0.3728	0.1	209.4
7315	15.804	0.55919	0.1	199.41
7316	15.804	0.1864	0.1	199.19
7317	15.219	0.3728	0.1	229.04
7318	15.414	0.55919	0.1	218.59
7319	15.414	0.1864	0.1	218.41
7320	14.828	0.3728	0.1	249.58
7321	15.024	0.55919	0.1	238.67
7322	15.024	0.1864	0.1	238.53
7323	14.438	0.3728	0.1	271.02
7324	14.633	0.55919	0.1	259.65
7325	14.633	0.1864	0.1	259.55
7326	14.048	0.3728	0.1	293.36
7327	14.243	0.55919	0.1	281.52
7328	14.243	0.1864	0.1	281.48
7329	13.658	0.3728	0.1	316.6
7330	13.853	0.55919	0.1	304.28
7331	13.853	0.1864	0.1	304.31
7332	13.267	0.3728	0.1	340.74
7333	13.463	0.55919	0.1	327.95
7334	13.463	0.1864	0.1	328.06
7335	12.877	0.3728	0.1	365.79
7336	13.072	0.55919	0.1	352.52
7337	13.072	0.1864	0.1	352.72
7338	12.487	0.3728	0.1	391.74
7339	12.682	0.55919	0.1	377.98
7340	12.682	0.1864	0.1	378.29
7341	12.097	0.3728	0.1	418.58
7342	12.292	0.55919	0.1	404.35
7343	12.292	0.1864	0.1	404.78
7344	11.706	0.3728	0.1	446.32
7345	11.901	0.55919	0.1	431.6
7346	11.901	0.1864	0.1	432.17
7347	11.316	0.3728	0.1	474.92
7348	11.511	0.55919	0.1	459.74
7349	11.511	0.1864	0.1	460.45
7350	10.926	0.3728	0.1	504.34
7351	11.121	0.55919	0.1	488.73
7352	11.121	0.1864	0.1	489.58
7353	10.535	0.3728	0.1	534.48
7354	10.731	0.55919	0.1	518.52
7355	10.731	0.1864	0.1	519.48
7356	10.145	0.3728	0.1	565.2
7357	10.34	0.55919	0.1	549.02
7358	10.34	0.1864	0.1	550.04
7359	9.7549	0.3728	0.1	596.22
7360	9.95	0.55919	0.1	580.06
7361	9.95	0.1864	0.1	581.03
7362	9.3646	0.3728	0.1	627.05
7363	9.5597	0.55919	0.1	611.33
7364	9.5597	0.1864	0.1	612.05
7365	8.9743	0.3728	0.1	656.9
7366	9.1694	0.55919	0.1	642.32
7367	9.1694	0.1864	0.1	642.46
7368	8.584	0.3728	0.1	684.41
7369	8.7792	0.55919	0.1	672.14
7370	8.7792	0.1864	0.1	671.14
7371	8.1938	0.3728	0.1	707.34
7372	8.3889	0.55919	0.1	699.3
7373	8.3889	0.1864	0.1	696.28
7374	7.8035	0.3728	0.1	722.1
7375	7.9986	0.55919	0.1	721.32
7376	7.9986	0.1864	0.1	714.96
7377	7.4162	0.37136	0.1	723.16
7378	7.6083	0.55919	0.1	734.29
7379	7.6083	0.1864	0.1	722.53
7380	7.0325	0.36706	0.1	702.98
7381	7.2236	0.557	0.1	731.68
7382	7.2211	0.18496	0.1	712.19
7383	6.6533	0.35663	0.1	651.34
7384	6.8421	0.5486	0.1	705.78
7385	6.8343	0.1821	0.1	674.7
7386	6.2793	0.33843	0.1	556.32
7387	6.4516	0.17453	0.1	598.22
7388	5.8932	0.30746	0.1	403.15
7389	6.07	0.1639	0.1	469.63
7390	5.4801	0.24356	0.1	233.59
7391	5.6753	0.14356	0.1	285.14
7392	23.611	5.0114	0.1	0.84286
7393	23.613	5.409	0.1	0.75886
7394	23.806	5.2056	0.1	0.46628
7395	23.613	4.6098	0.1	0.90337
7396	23.418	4.8196	0.1	1.6445
7397	23.805	4.8058	0.1	0.53388
7398	23.617	4.2082	0.1	0.93973
7399	23.423	4.4164	0.1	1.7109
7400	23.808	4.404	0.1	0.57633
7401	23.621	3.8062	0.1	0.95063
7402	23.426	4.0147	0.1	1.7597
7403	23.809	4.0042	0.1	0.59541
7404	23.625	3.402	0.1	0.94715
7405	23.435	3.6065	0.1	1.7533
7406	23.812	3.602	0.1	0.59464
7407	23.627	3.	0.1	0.94612
7408	23.441	3.2	0.1	1.739
7409	23.814	3.2	0.1	0.59238
7410	23.627	2.6	0.1	0.94123
7411	23.441	2.8	0.1	1.7308
7412	23.814	2.8	0.1	0.59287
7413	23.627	2.2	0.1	0.92738
7414	23.441	2.4	0.1	1.7109
7415	23.814	2.4	0.1	0.58583
7416	23.627	1.8	0.1	0.90562
7417	23.441	2.	0.1	1.6814
7418	23.814	2.	0.1	0.57556
7419	23.626	1.3984	0.1	0.87103
7420	23.441	1.6	0.1	1.635
7421	23.814	1.6	0.1	0.55784
7422	23.622	0.99521	0.1	0.82322
7423	23.437	1.1967	0.1	1.5742
7424	23.812	1.1984	0.1	0.52121
7425	23.618	0.59565	0.1	0.76014
7426	23.81	0.7968	0.1	0.46641
7427	23.807	0.39885	0.1	0.3441
7428	23.612	0.19885	0.1	0.48444
7429	5.5363	4.0994	0.1	1869.8
7430	5.403	3.9965	0.1	3575.6
7431	5.5361	4.3109	0.1	1395.8
7432	5.6608	4.2063	0.1	1469.2
7433	5.4	4.2029	0.1	1516.8
7434	5.5403	4.5209	0.1	1017.5
7435	5.6717	4.4239	0.1	1090.
7436	5.4028	4.4079	0.1	1041.3
7437	5.5481	4.7326	0.1	788.89
7438	5.4042	4.613	0.1	792.42
7439	5.5544	4.9437	0.1	623.91
7440	5.6962	4.8583	0.1	692.08
7441	5.4106	4.8196	0.1	625.92
7442	5.5383	5.1428	0.1	497.01
7443	5.6979	5.0842	0.1	555.34
7444	5.4104	5.0241	0.1	499.07
7445	5.4857	5.3093	0.1	389.97
7446	5.6446	5.3028	0.1	432.23
7447	5.3945	5.2186	0.1	383.15
7448	5.3579	5.3907	0.1	283.48
7449	5.855	5.6731	0.1	398.4
7450	5.4649	5.7714	0.1	216.1
7451	5.6601	5.8714	0.1	279.86
7452	6.2483	5.6187	0.1	551.9
7453	5.9068	5.4859	0.1	464.04
7454	6.047	5.8017	0.1	471.07
7455	6.6419	5.6338	0.1	649.96
7456	6.4626	5.4506	0.1	648.26
7457	6.4436	5.817	0.1	596.27
7458	7.0261	5.6303	0.1	702.78
7459	6.8372	5.4489	0.1	705.97
7460	6.831	5.8167	0.1	675.27
7461	7.4132	5.6272	0.1	723.22
7462	7.2181	5.4408	0.1	731.65
7463	7.2181	5.8136	0.1	712.4
7464	7.8035	5.6272	0.1	722.26
7465	7.6083	5.4408	0.1	734.56
7466	7.6083	5.8136	0.1	722.7
7467	8.1938	5.6272	0.1	707.45
7468	7.9986	5.4408	0.1	721.44
7469	7.9986	5.8136	0.1	715.09
7470	8.584	5.6272	0.1	684.48
7471	8.3889	5.4408	0.1	699.37
7472	8.3889	5.8136	0.1	696.37
7473	8.9743	5.6272	0.1	656.96
7474	8.7792	5.4408	0.1	672.2
7475	8.7792	5.8136	0.1	671.21
7476	9.3646	5.6272	0.1	627.1
7477	9.1694	5.4408	0.1	642.37
7478	9.1694	5.8136	0.1	642.51
7479	9.7549	5.6272	0.1	596.25
7480	9.5597	5.4408	0.1	611.38
7481	9.5597	5.8136	0.1	612.09
7482	10.145	5.6272	0.1	565.23
7483	9.95	5.4408	0.1	580.09
7484	9.95	5.8136	0.1	581.06
7485	10.535	5.6272	0.1	534.51
7486	10.34	5.4408	0.1	549.05
7487	10.34	5.8136	0.1	550.07
7488	10.926	5.6272	0.1	504.36
7489	10.731	5.4408	0.1	518.55
7490	10.731	5.8136	0.1	519.5
7491	11.316	5.6272	0.1	474.94
7492	11.121	5.4408	0.1	488.75
7493	11.121	5.8136	0.1	489.59
7494	11.706	5.6272	0.1	446.33
7495	11.511	5.4408	0.1	459.75
7496	11.511	5.8136	0.1	460.46
7497	12.097	5.6272	0.1	418.59
7498	11.901	5.4408	0.1	431.61
7499	11.901	5.8136	0.1	432.18
7500	12.487	5.6272	0.1	391.74
7501	12.292	5.4408	0.1	404.35
7502	12.292	5.8136	0.1	404.79
7503	12.877	5.6272	0.1	365.79
7504	12.682	5.4408	0.1	377.99
7505	12.682	5.8136	0.1	378.3
7506	13.267	5.6272	0.1	340.74
7507	13.072	5.4408	0.1	352.52
7508	13.072	5.8136	0.1	352.73
7509	13.658	5.6272	0.1	316.6
7510	13.463	5.4408	0.1	327.95
7511	13.463	5.8136	0.1	328.06
7512	14.048	5.6272	0.1	293.36
7513	13.853	5.4408	0.1	304.28
7514	13.853	5.8136	0.1	304.32
7515	14.438	5.6272	0.1	271.02
7516	14.243	5.4408	0.1	281.52
7517	14.243	5.8136	0.1	281.48
7518	14.828	5.6272	0.1	249.58
7519	14.633	5.4408	0.1	259.65
7520	14.633	5.8136	0.1	259.55
7521	15.219	5.6272	0.1	229.04
7522	15.024	5.4408	0.1	238.67
7523	15.024	5.8136	0.1	238.53
7524	15.609	5.6272	0.1	209.4
7525	15.414	5.4408	0.1	218.59
7526	15.414	5.8136	0.1	218.41
7527	15.999	5.6272	0.1	190.65
7528	15.804	5.4408	0.1	199.41
7529	15.804	5.8136	0.1	199.19
7530	16.39	5.6272	0.1	172.8
7531	16.194	5.4408	0.1	181.11
7532	16.194	5.8136	0.1	180.87
7533	16.78	5.6272	0.1	155.83
7534	16.585	5.4408	0.1	163.71
7535	16.585	5.8136	0.1	163.45
7536	17.17	5.6272	0.1	139.76
7537	16.975	5.4408	0.1	147.2
7538	16.975	5.8136	0.1	146.92
7539	17.56	5.6272	0.1	124.58
7540	17.365	5.4408	0.1	131.58
7541	17.365	5.8136	0.1	131.28
7542	17.951	5.6272	0.1	110.28
7543	17.756	5.4408	0.1	116.85
7544	17.756	5.8136	0.1	116.54
7545	18.341	5.6272	0.1	96.877
7546	18.146	5.4408	0.1	103.
7547	18.146	5.8136	0.1	102.69
7548	18.731	5.6272	0.1	84.355
7549	18.536	5.4408	0.1	90.039
7550	18.536	5.8136	0.1	89.729
7551	19.122	5.6272	0.1	72.717
7552	18.926	5.4408	0.1	77.963
7553	18.926	5.8136	0.1	77.656
7554	19.512	5.6272	0.1	61.961
7555	19.317	5.4408	0.1	66.77
7556	19.317	5.8136	0.1	66.47
7557	19.902	5.6272	0.1	52.084
7558	19.707	5.4408	0.1	56.458
7559	19.707	5.8136	0.1	56.168
7560	20.292	5.6272	0.1	43.081
7561	20.097	5.4408	0.1	47.024
7562	20.097	5.8136	0.1	46.749
7563	20.683	5.6272	0.1	34.948
7564	20.487	5.4408	0.1	38.463
7565	20.487	5.8136	0.1	38.208
7566	21.073	5.6272	0.1	27.678
7567	20.878	5.4408	0.1	30.768
7568	20.878	5.8136	0.1	30.541
7569	21.463	5.6272	0.1	21.261
7570	21.268	5.4408	0.1	23.933
7571	21.268	5.8136	0.1	23.741
7572	21.853	5.6272	0.1	15.693
7573	21.658	5.4408	0.1	17.95
7574	21.658	5.8136	0.1	17.801
7575	22.245	5.6249	0.1	10.944
7576	22.049	5.4408	0.1	12.808
7577	22.049	5.8136	0.1	12.719
7578	22.638	5.6206	0.1	6.9975
7579	22.443	5.4346	0.1	8.4685
7580	22.44	5.8113	0.1	8.447
7581	23.03	5.6186	0.1	3.8883
7582	22.834	5.4274	0.1	4.9785
7583	22.831	5.8093	0.1	4.9947
7584	23.42	5.6128	0.1	1.6633
7585	23.223	5.8093	0.1	2.3566
7586	23.611	5.8035	0.1	0.47955
7587	23.807	5.6035	0.1	0.32938
7588	9.3646	3.3904	0.1	628.61
7589	9.7549	3.3904	0.1	593.83
7590	10.145	3.3904	0.1	560.98
7591	10.535	3.3904	0.1	529.58
7592	10.926	3.3904	0.1	499.35
7593	10.535	2.6096	0.1	529.57
7594	10.145	2.6096	0.1	560.98
7595	9.7549	2.6096	0.1	593.83
7596	9.3648	2.6131	0.1	628.59
7597	8.9746	2.6175	0.1	666.17
7598	8.5815	2.6207	0.1	708.22
7599	2.3338	2.0614	0.1	1397.1
7600	3.1959	2.7713	0.1	1378.1
7601	3.4216	2.6804	0.1	1409.3
7602	7.8111	1.8575	0.1	784.88
7603	2.5208	1.8713	0.1	1366.8
7604	2.1208	1.9166	0.1	1408.9
7605	7.4515	3.7796	0.1	858.37
7606	3.8138	2.1696	0.1	1397.9
7607	3.748	1.9011	0.1	1319.3
7608	4.0013	2.1898	0.1	1439.7
7609	3.7753	3.2515	0.1	1459.7
7610	4.0178	3.1336	0.1	1596.7
7611	3.5905	3.615	0.1	1396.2
7612	3.4587	3.9732	0.1	1331.
7613	4.4936	2.4946	0.1	1877.8
7614	4.3217	3.2018	0.1	1786.8
7615	6.6056	4.0685	0.1	1006.7
7616	6.3914	4.003	0.1	1107.9
7617	5.9753	4.8894	0.1	718.34
7618	4.6023	2.3515	0.1	1944.5
7619	4.6127	3.1978	0.1	1997.2
7620	4.4621	1.4045	0.1	1085.6
7621	5.8042	5.2443	0.1	509.35
7622	6.6579	5.2657	0.1	703.18
7623	7.0292	5.2593	0.1	734.46
7624	7.4132	5.2544	0.1	742.86
7625	7.8035	5.2544	0.1	733.73
7626	8.1938	5.2544	0.1	713.4
7627	8.584	5.2544	0.1	687.14
7628	8.9743	5.2544	0.1	657.67
7629	9.3646	5.2544	0.1	626.7
7630	9.7549	5.2544	0.1	595.26
7631	10.145	5.2544	0.1	563.96
7632	10.535	5.2544	0.1	533.14
7633	10.926	5.2544	0.1	502.99
7634	11.316	5.2544	0.1	473.62
7635	11.706	5.2544	0.1	445.09
7636	12.097	5.2544	0.1	417.43
7637	12.487	5.2544	0.1	390.65
7638	12.877	5.2544	0.1	364.77
7639	13.267	5.2544	0.1	339.79
7640	13.658	5.2544	0.1	315.7
7641	14.048	5.2544	0.1	292.5
7642	14.438	5.2544	0.1	270.2
7643	14.828	5.2544	0.1	248.8
7644	15.219	5.2544	0.1	228.29
7645	15.609	5.2544	0.1	208.67
7646	15.999	5.2544	0.1	189.94
7647	16.39	5.2544	0.1	172.1
7648	16.78	5.2544	0.1	155.15
7649	17.17	5.2544	0.1	139.09
7650	17.56	5.2544	0.1	123.91
7651	17.951	5.2544	0.1	109.63
7652	18.341	5.2544	0.1	96.231
7653	18.731	5.2544	0.1	83.717
7654	19.122	5.2544	0.1	72.087
7655	19.512	5.2544	0.1	61.339
7656	19.902	5.2544	0.1	51.471
7657	20.292	5.2544	0.1	42.48
7658	20.683	5.2544	0.1	34.36
7659	21.073	5.2544	0.1	27.105
7660	21.463	5.2544	0.1	20.71
7661	21.853	5.2544	0.1	15.163
7662	22.246	5.2505	0.1	10.445
7663	22.64	5.2415	0.1	6.5809
7664	23.228	4.6261	0.1	2.4357
7665	23.233	4.2229	0.1	2.5198
7666	23.241	3.8151	0.1	2.5536
7667	23.251	3.4045	0.1	2.5379
7668	23.254	3.	0.1	2.5164
7669	23.254	2.6	0.1	2.4933
7670	23.254	2.2	0.1	2.4568
7671	23.254	1.8	0.1	2.4001
7672	23.252	1.3983	0.1	2.3219
7673	0.77298	1.376	0.1	1612.3
7674	0.77377	0.97666	0.1	1549.
7675	0.76811	1.7771	0.1	1665.
7676	0.75922	2.1829	0.1	1703.
7677	0.74919	2.5936	0.1	1726.2
7678	0.74559	3.	0.1	1733.8
7679	0.74753	3.4029	0.1	1726.6
7680	0.75281	3.8066	0.1	1704.6
7681	0.75872	4.2073	0.1	1667.4
7682	0.75633	4.6062	0.1	1615.5
7683	22.659	0.78664	0.1	6.4023
7684	22.264	0.77475	0.1	10.24
7685	21.867	0.76075	0.1	14.987
7686	21.47	0.75319	0.1	20.599
7687	21.075	0.74731	0.1	27.06
7688	20.683	0.74559	0.1	34.34
7689	20.292	0.74559	0.1	42.472
7690	19.902	0.74559	0.1	51.468
7691	19.512	0.74559	0.1	61.339
7692	19.122	0.74559	0.1	72.089
7693	18.731	0.74559	0.1	83.719
7694	18.341	0.74559	0.1	96.233
7695	17.951	0.74559	0.1	109.63
7696	17.56	0.74559	0.1	123.92
7697	17.17	0.74559	0.1	139.09
7698	16.78	0.74559	0.1	155.15
7699	16.39	0.74559	0.1	172.1
7700	15.999	0.74559	0.1	189.94
7701	15.609	0.74559	0.1	208.66
7702	15.219	0.74559	0.1	228.29
7703	14.828	0.74559	0.1	248.8
7704	14.438	0.74559	0.1	270.2
7705	14.048	0.74559	0.1	292.5
7706	13.658	0.74559	0.1	315.69
7707	13.267	0.74559	0.1	339.78
7708	12.877	0.74559	0.1	364.77
7709	12.487	0.74559	0.1	390.65
7710	12.097	0.74559	0.1	417.42
7711	11.706	0.74559	0.1	445.08
7712	11.316	0.74559	0.1	473.6
7713	10.926	0.74559	0.1	502.97
7714	10.535	0.74559	0.1	533.11
7715	10.145	0.74559	0.1	563.93
7716	9.7549	0.74559	0.1	595.22
7717	9.3646	0.74559	0.1	626.65
7718	8.9743	0.74559	0.1	657.61
7719	8.584	0.74559	0.1	687.08
7720	8.1938	0.74559	0.1	713.32
7721	7.8035	0.74559	0.1	733.51
7722	7.4157	0.74483	0.1	742.68
7723	7.0332	0.73853	0.1	734.08
7724	2.55	0.74559	0.1	1325.4
7725	2.1577	0.74559	0.1	1387.3
7726	1.7621	0.75031	0.1	1438.3
7727	1.3654	0.76164	0.1	1472.1
7728	0.97013	0.77269	0.1	1499.9
7729	1.3548	5.2263	0.1	1473.
7730	1.7533	5.2417	0.1	1438.9
7731	2.1533	5.2515	0.1	1387.7
7732	2.55	5.2544	0.1	1325.5
7733	2.9398	5.2562	0.1	1249.8
7734	6.1498	2.9505	0.1	1518.2
7735	6.0662	3.102	0.1	1569.4
7736	5.8811	2.9506	0.1	1752.3
7737	4.0715	3.7883	0.1	1477.4
7738	4.0436	4.0419	0.1	1380.3
7739	4.834	3.1022	0.1	2198.9
7740	5.8397	4.9988	0.1	642.51
7741	4.7134	2.2237	0.1	2153.9
7742	5.6091	2.8223	0.1	2070.3
7743	5.598	2.9864	0.1	2045.8
7744	5.7964	4.3193	0.1	1178.9
7745	5.9101	4.2117	0.1	1223.1
7746	5.493	3.1714	0.1	2183.1
7747	4.5935	3.8186	0.1	1829.8
7748	4.7235	3.7042	0.1	2171.
7749	4.7082	3.9592	0.1	1996.5
7750	4.8383	3.8448	0.1	2326.1
7751	4.9663	3.9816	0.1	3691.9
7752	5.1971	3.5857	0.1	2731.3
7753	5.2667	5.7	0.1	174.59
7754	5.2667	5.9	0.1	104.99
7755	5.2667	5.8	5.e-002	17.743
7756	5.2667	5.5	0.1	229.49
7757	5.2667	5.6	5.e-002	36.202
7758	5.2667	5.3	0.1	300.07
7759	5.2667	5.4	5.e-002	85.099
7760	5.2667	5.1	0.1	409.87
7761	5.2667	5.2	5.e-002	86.412
7762	5.2667	4.9	0.1	532.26
7763	5.2667	5.	5.e-002	107.04
7764	5.2667	4.7	0.1	670.65
7765	5.2667	4.8	5.e-002	140.46
7766	5.2667	4.5	0.1	872.43
7767	5.2667	4.6	5.e-002	191.41
7768	5.2667	4.3	0.1	1289.5
7769	5.2667	4.4	5.e-002	273.98
7770	5.2667	4.1	0.1	3076.3
7771	5.2667	4.2	5.e-002	476.11
7772	5.1833	4.	0.1	4502.7
7773	5.2667	4.	5.e-002	332.84
7774	5.1	4.1	0.1	3125.4
7775	5.1	4.	5.e-002	392.72
7776	5.1	4.3	0.1	1376.5
7777	5.1	4.2	5.e-002	555.7
7778	5.1	4.5	0.1	946.29
7779	5.1	4.4	5.e-002	333.34
7780	5.1	4.7	0.1	740.14
7781	5.1	4.6	5.e-002	252.79
7782	5.1	4.9	0.1	595.22
7783	5.1	4.8	5.e-002	197.
7784	5.1	5.1	0.1	487.96
7785	5.1	5.	5.e-002	156.02
7786	5.1	5.3	0.1	401.21
7787	5.1	5.2	5.e-002	111.49
7788	5.1	5.5	0.1	290.17
7789	5.1	5.4	5.e-002	78.419
7790	5.1	5.7	0.1	222.62
7791	5.1	5.6	5.e-002	48.18
7792	5.1	5.9	0.1	160.82
7793	5.1	5.8	5.e-002	37.45
7794	5.2667	0.3	0.1	171.1
7795	5.2667	0.1	0.1	120.75
7796	5.2667	0.2	5.e-002	27.564
7797	5.2667	0.5	0.1	227.61
7798	5.2667	0.4	5.e-002	36.518
7799	5.2667	0.7	0.1	320.83
7800	5.2667	0.6	5.e-002	58.941
7801	5.2667	0.9	0.1	403.19
7802	5.2667	0.8	5.e-002	84.883
7803	5.2667	1.1	0.1	508.11
7804	5.2667	1.	5.e-002	118.31
7805	5.2667	1.3	0.1	653.4
7806	5.2667	1.2	5.e-002	154.19
7807	5.2667	1.5	0.1	864.85
7808	5.2667	1.4	5.e-002	201.91
7809	5.2667	1.7	0.1	1305.
7810	5.2667	1.6	5.e-002	269.65
7811	5.2667	1.9	0.1	3116.7
7812	5.2667	1.8	5.e-002	476.93
7813	5.1833	2.	0.1	4511.9
7814	5.2667	2.	5.e-002	329.71
7815	5.1	1.9	0.1	3042.
7816	5.1	2.	5.e-002	414.06
7817	5.1	1.7	0.1	1306.7
7818	5.1	1.8	5.e-002	571.45
7819	5.1	1.5	0.1	915.66
7820	5.1	1.6	5.e-002	357.58
7821	5.1	1.3	0.1	727.81
7822	5.1	1.4	5.e-002	257.03
7823	5.1	1.1	0.1	602.06
7824	5.1	1.2	5.e-002	196.06
7825	5.1	0.9	0.1	501.99
7826	5.1	1.	5.e-002	148.78
7827	5.1	0.7	0.1	413.34
7828	5.1	0.8	5.e-002	110.32
7829	5.1	0.5	0.1	334.46
7830	5.1	0.6	5.e-002	80.221
7831	5.1	0.3	0.1	244.21
7832	5.1	0.4	5.e-002	48.798
7833	5.1	0.1	0.1	142.25
7834	5.1	0.2	5.e-002	23.621
7835	5.4618	6.	0.1	174.33
7836	5.2667	6.	5.e-002	19.584
7837	5.8521	6.	0.1	356.28
7838	5.6569	6.	5.e-002	4.2495
7839	6.2424	6.	0.1	514.8
7840	6.0472	6.	5.e-002	12.181
7841	6.6326	6.	0.1	622.03
7842	6.4375	6.	5.e-002	6.7631
7843	7.0229	6.	0.1	685.05
7844	6.8278	6.	5.e-002	8.8139
7845	7.4132	6.	0.1	711.97
7846	7.2181	6.	5.e-002	9.7225
7847	7.8035	6.	0.1	715.6
7848	7.6083	6.	5.e-002	10.036
7849	8.1938	6.	0.1	704.08
7850	7.9986	6.	5.e-002	10.456
7851	8.584	6.	0.1	683.16
7852	8.3889	6.	5.e-002	10.865
7853	8.9743	6.	0.1	656.82
7854	8.7792	6.	5.e-002	11.269
7855	9.3646	6.	0.1	627.57
7856	9.1694	6.	5.e-002	11.636
7857	9.7549	6.	0.1	596.98
7858	9.5597	6.	5.e-002	11.949
7859	10.145	6.	0.1	565.98
7860	9.95	6.	5.e-002	12.195
7861	10.535	6.	0.1	535.16
7862	10.34	6.	5.e-002	12.369
7863	10.926	6.	0.1	504.84
7864	10.731	6.	5.e-002	12.469
7865	11.316	6.	0.1	475.23
7866	11.121	6.	5.e-002	12.499
7867	11.706	6.	0.1	446.43
7868	11.511	6.	5.e-002	12.463
7869	12.097	6.	0.1	418.51
7870	11.901	6.	5.e-002	12.368
7871	12.487	6.	0.1	391.48
7872	12.292	6.	5.e-002	12.22
7873	12.877	6.	0.1	365.38
7874	12.682	6.	5.e-002	12.025
7875	13.267	6.	0.1	340.19
7876	13.072	6.	5.e-002	11.79
7877	13.658	6.	0.1	315.93
7878	13.463	6.	5.e-002	11.52
7879	14.048	6.	0.1	292.59
7880	13.853	6.	5.e-002	11.22
7881	14.438	6.	0.1	270.17
7882	14.243	6.	5.e-002	10.895
7883	14.828	6.	0.1	248.66
7884	14.633	6.	5.e-002	10.548
7885	15.219	6.	0.1	228.06
7886	15.024	6.	5.e-002	10.183
7887	15.609	6.	0.1	208.36
7888	15.414	6.	5.e-002	9.8017
7889	15.999	6.	0.1	189.57
7890	15.804	6.	5.e-002	9.4074
7891	16.39	6.	0.1	171.69
7892	16.194	6.	5.e-002	9.0019
7893	16.78	6.	0.1	154.7
7894	16.585	6.	5.e-002	8.5869
7895	17.17	6.	0.1	138.61
7896	16.975	6.	5.e-002	8.164
7897	17.56	6.	0.1	123.41
7898	17.365	6.	5.e-002	7.7342
7899	17.951	6.	0.1	109.11
7900	17.756	6.	5.e-002	7.2988
7901	18.341	6.	0.1	95.707
7902	18.146	6.	5.e-002	6.8586
7903	18.731	6.	0.1	83.192
7904	18.536	6.	5.e-002	6.4143
7905	19.122	6.	0.1	71.567
7906	18.926	6.	5.e-002	5.9667
7907	19.512	6.	0.1	60.832
7908	19.317	6.	5.e-002	5.5163
7909	19.902	6.	0.1	50.984
7910	19.707	6.	5.e-002	5.0635
7911	20.292	6.	0.1	42.022
7912	20.097	6.	5.e-002	4.6088
7913	20.683	6.	0.1	33.942
7914	20.487	6.	5.e-002	4.1525
7915	21.073	6.	0.1	26.74
7916	20.878	6.	5.e-002	3.6954
7917	21.463	6.	0.1	20.412
7918	21.268	6.	5.e-002	3.2369
7919	21.853	6.	0.1	14.956
7920	21.658	6.	5.e-002	2.7775
7921	22.244	6.	0.1	10.354
7922	22.049	6.	5.e-002	2.3217
7923	22.634	6.	0.1	6.5873
7924	22.439	6.	5.e-002	1.8401
7925	23.024	6.	0.1	3.6403
7926	22.829	6.	5.e-002	1.3757
7927	23.415	6.	0.1	1.4134
7928	23.219	6.	5.e-002	0.91373
7929	23.805	6.	0.1	-9.9307e-002
7930	23.61	6.	5.e-002	0.452
7931	24.	5.8	0.1	-0.11612
7932	24.	6.	5.e-002	0.17443
7933	24.	5.4	0.1	6.3368e-002
7934	24.	5.6	5.e-002	4.0852e-002
7935	24.	5.	0.1	0.17806
7936	24.	5.2	5.e-002	5.5984e-002
7937	24.	4.6	0.1	0.21916
7938	24.	4.8	5.e-002	9.6178e-002
7939	24.	4.2	0.1	0.24047
7940	24.	4.4	5.e-002	0.1013
7941	24.	3.8	0.1	0.24507
7942	24.	4.	5.e-002	9.5542e-002
7943	24.	3.4	0.1	0.24417
7944	24.	3.6	5.e-002	7.8084e-002
7945	24.	3.	0.1	0.24275
7946	24.	3.2	5.e-002	6.0437e-002
7947	24.	2.6	0.1	0.24158
7948	24.	2.8	5.e-002	6.0115e-002
7949	24.	2.2	0.1	0.2396
7950	24.	2.4	5.e-002	7.778e-002
7951	24.	1.8	0.1	0.23611
7952	24.	2.	5.e-002	9.7784e-002
7953	24.	1.4	0.1	0.22037
7954	24.	1.6	5.e-002	0.10792
7955	24.	1.	0.1	0.18489
7956	24.	1.2	5.e-002	0.10147
7957	24.	0.6	0.1	7.5019e-002
7958	24.	0.8	5.e-002	5.9844e-002
7959	24.	0.2	0.1	-0.11391
7960	24.	0.4	5.e-002	3.5166e-002
7961	5.2451e-015	0.6	0.1	1597.9
7962	1.7484e-015	0.2	0.1	944.44
7963	3.5441e-015	0.4	5.e-002	24.735
7964	8.7419e-015	1.	0.1	1854.4
7965	7.0881e-015	0.8	5.e-002	4.0588
7966	1.2239e-014	1.4	0.1	1978.1
7967	1.0632e-014	1.2	5.e-002	4.889
7968	1.5735e-014	1.8	0.1	2044.3
7969	1.4176e-014	1.6	5.e-002	4.1843
7970	1.9232e-014	2.2	0.1	2078.1
7971	1.772e-014	2.	5.e-002	6.0762
7972	2.2729e-014	2.6	0.1	2093.
7973	2.1264e-014	2.4	5.e-002	7.2109
7974	2.6226e-014	3.	0.1	2097.2
7975	2.4809e-014	2.8	5.e-002	7.548
7976	2.9723e-014	3.4	0.1	2092.4
7977	2.8353e-014	3.2	5.e-002	7.4797
7978	3.3219e-014	3.8	0.1	2076.6
7979	3.1897e-014	3.6	5.e-002	6.9728
7980	3.6716e-014	4.2	0.1	2042.7
7981	3.5441e-014	4.	5.e-002	6.1429
7982	4.0213e-014	4.6	0.1	1975.6
7983	3.8985e-014	4.4	5.e-002	4.2808
7984	4.371e-014	5.	0.1	1853.
7985	4.2529e-014	4.8	5.e-002	4.9464
7986	4.7206e-014	5.4	0.1	1600.4
7987	4.6073e-014	5.2	5.e-002	4.2697
7988	5.0703e-014	5.8	0.1	948.11
7989	4.9617e-014	5.6	5.e-002	24.227
7990	23.805	0.	0.1	-9.9766e-002
7991	24.	0.	5.e-002	0.17426
7992	23.415	0.	0.1	1.397
7993	23.61	0.	5.e-002	0.45041
7994	23.024	0.	0.1	3.6222
7995	23.219	0.	5.e-002	0.89115
7996	22.634	0.	0.1	6.5872
7997	22.829	0.	5.e-002	1.3397
7998	22.244	0.	0.1	10.357
7999	22.439	0.	5.e-002	1.7953
8000	21.853	0.	0.1	14.965
8001	22.049	0.	5.e-002	2.2725
8002	21.463	0.	0.1	20.42
8003	21.658	0.	5.e-002	2.7654
8004	21.073	0.	0.1	26.734
8005	21.268	0.	5.e-002	3.2126
8006	20.683	0.	0.1	33.934
8007	20.878	0.	5.e-002	3.6981
8008	20.292	0.	0.1	42.017
8009	20.487	0.	5.e-002	4.1537
8010	19.902	0.	0.1	50.981
8011	20.097	0.	5.e-002	4.6089
8012	19.512	0.	0.1	60.831
8013	19.707	0.	5.e-002	5.0638
8014	19.122	0.	0.1	71.568
8015	19.317	0.	5.e-002	5.5166
8016	18.731	0.	0.1	83.193
8017	18.926	0.	5.e-002	5.967
8018	18.341	0.	0.1	95.709
8019	18.536	0.	5.e-002	6.4146
8020	17.951	0.	0.1	109.12
8021	18.146	0.	5.e-002	6.8588
8022	17.56	0.	0.1	123.41
8023	17.756	0.	5.e-002	7.299
8024	17.17	0.	0.1	138.61
8025	17.365	0.	5.e-002	7.7344
8026	16.78	0.	0.1	154.7
8027	16.975	0.	5.e-002	8.1641
8028	16.39	0.	0.1	171.69
8029	16.585	0.	5.e-002	8.5871
8030	15.999	0.	0.1	189.57
8031	16.194	0.	5.e-002	9.002
8032	15.609	0.	0.1	208.36
8033	15.804	0.	5.e-002	9.4075
8034	15.219	0.	0.1	228.06
8035	15.414	0.	5.e-002	9.8018
8036	14.828	0.	0.1	248.66
8037	15.024	0.	5.e-002	10.183
8038	14.438	0.	0.1	270.17
8039	14.633	0.	5.e-002	10.548
8040	14.048	0.	0.1	292.59
8041	14.243	0.	5.e-002	10.895
8042	13.658	0.	0.1	315.93
8043	13.853	0.	5.e-002	11.221
8044	13.267	0.	0.1	340.19
8045	13.463	0.	5.e-002	11.52
8046	12.877	0.	0.1	365.37
8047	13.072	0.	5.e-002	11.79
8048	12.487	0.	0.1	391.47
8049	12.682	0.	5.e-002	12.025
8050	12.097	0.	0.1	418.5
8051	12.292	0.	5.e-002	12.22
8052	11.706	0.	0.1	446.42
8053	11.901	0.	5.e-002	12.368
8054	11.316	0.	0.1	475.22
8055	11.511	0.	5.e-002	12.464
8056	10.926	0.	0.1	504.82
8057	11.121	0.	5.e-002	12.5
8058	10.535	0.	0.1	535.13
8059	10.731	0.	5.e-002	12.47
8060	10.145	0.	0.1	565.95
8061	10.34	0.	5.e-002	12.37
8062	9.7549	0.	0.1	596.94
8063	9.95	0.	5.e-002	12.196
8064	9.3646	0.	0.1	627.53
8065	9.5597	0.	5.e-002	11.949
8066	8.9743	0.	0.1	656.76
8067	9.1694	0.	5.e-002	11.636
8068	8.584	0.	0.1	683.08
8069	8.7792	0.	5.e-002	11.268
8070	8.1938	0.	0.1	703.97
8071	8.3889	0.	5.e-002	10.864
8072	7.8035	0.	0.1	715.46
8073	7.9986	0.	5.e-002	10.444
8074	7.4132	0.	0.1	711.64
8075	7.6083	0.	5.e-002	10.061
8076	7.0229	0.	0.1	684.07
8077	7.2181	0.	5.e-002	9.6805
8078	6.6326	0.	0.1	621.93
8079	6.8278	0.	5.e-002	9.2876
8080	6.2424	0.	0.1	512.52
8081	6.4375	0.	5.e-002	9.3237
8082	5.8521	0.	0.1	351.43
8083	6.0472	0.	5.e-002	7.6048
8084	5.4618	0.	0.1	176.49
8085	5.6569	0.	5.e-002	5.7619
8086	5.2667	0.	5.e-002	23.289
8087	4.9038	2.0997e-030	0.1	230.05
8088	5.1	2.1837e-030	5.e-002	14.596
8089	4.5115	1.9318e-030	0.1	491.72
8090	4.7077	0.	5.e-002	5.0981
8091	4.1192	1.7638e-030	0.1	744.71
8092	4.3154	0.	5.e-002	14.527
8093	3.7269	1.5958e-030	0.1	948.48
8094	3.9231	0.	5.e-002	8.9526
8095	3.3346	1.4278e-030	0.1	1106.8
8096	3.5308	0.	5.e-002	11.05
8097	2.9423	1.2598e-030	0.1	1229.5
8098	3.1385	0.	5.e-002	13.285
8099	2.55	1.0919e-030	0.1	1326.4
8100	2.7462	0.	5.e-002	17.371
8101	2.1577	9.2389e-031	0.1	1403.8
8102	2.3538	0.	5.e-002	23.333
8103	1.7654	7.5591e-031	0.1	1464.3
8104	1.9615	0.	5.e-002	31.245
8105	1.3731	5.8793e-031	0.1	1502.
8106	1.5692	0.	5.e-002	41.739
8107	0.98077	4.1995e-031	0.1	1507.
8108	1.1769	0.	5.e-002	54.98
8109	0.58846	2.5197e-031	0.1	1382.9
8110	0.78462	0.	5.e-002	82.895
8111	0.19615	8.399e-032	0.1	894.66
8112	0.39231	0.	5.e-002	124.05
8113	0.	0.	5.e-002	269.9
8114	0.19615	6.	0.1	896.3
8115	5.2451e-014	6.	5.e-002	270.89
8116	0.58846	6.	0.1	1383.9
8117	0.39231	6.	5.e-002	123.14
8118	0.98077	6.	0.1	1508.3
8119	0.78462	6.	5.e-002	81.982
8120	1.3731	6.	0.1	1503.
8121	1.1769	6.	5.e-002	53.911
8122	1.7654	6.	0.1	1464.8
8123	1.5692	6.	5.e-002	40.929
8124	2.1577	6.	0.1	1404.2
8125	1.9615	6.	5.e-002	30.901
8126	2.55	6.	0.1	1326.9
8127	2.3538	6.	5.e-002	23.247
8128	2.9423	6.	0.1	1230.3
8129	2.7462	6.	5.e-002	17.337
8130	3.3346	6.	0.1	1107.4
8131	3.1385	6.	5.e-002	13.082
8132	3.7269	6.	0.1	949.11
8133	3.5308	6.	5.e-002	10.341
8134	4.1192	6.	0.1	743.32
8135	3.9231	6.	5.e-002	9.4311
8136	4.5115	6.	0.1	490.11
8137	4.3154	6.	5.e-002	7.0654
8138	4.9038	6.	0.1	241.73
8139	4.7077	6.	5.e-002	6.6969
8140	5.1	6.	5.e-002	34.115
8141	4.5115	6.	0.	14.552
8142	4.9038	6.	0.	-9.1543
8143	4.1192	6.	0.	18.809
8144	3.7269	6.	0.	13.406
8145	3.3346	6.	0.	7.4013
8146	2.9423	6.	0.	1.8907
8147	2.55	6.	0.	-0.9317
8148	2.1577	6.	0.	-1.7503
8149	1.7654	6.	0.	-3.0356
8150	1.3731	6.	0.	-1.8847
8151	0.98077	6.	0.	1.2437
8152	0.58846	6.	0.	47.616
8153	0.19615	6.	0.	23.252
8154	5.1	5.9	0.	-17.562
8155	5.0703e-014	5.8	0.	-410.82
8156	0.58846	2.5197e-031	0.	49.224
8157	0.19615	8.399e-032	0.	24.03
8158	0.98077	4.1995e-031	0.	2.9694
8159	1.3731	5.8793e-031	0.	-1.5055
8160	1.7654	7.5591e-031	0.	-2.857
8161	2.1577	9.2389e-031	0.	-1.5811
8162	2.55	1.0919e-030	0.	-0.83
8163	2.9423	1.2598e-030	0.	1.8308
8164	3.3346	1.4278e-030	0.	7.0698
8165	3.7269	1.5958e-030	0.	12.948
8166	4.1192	1.7638e-030	0.	13.942
8167	4.5115	1.9318e-030	0.	5.0327
8168	4.9038	2.0997e-030	0.	-8.4117
8169	5.1	0.1	0.	-13.762
8170	1.7484e-015	0.2	0.	-409.7
8171	5.8521	0.	0.	11.982
8172	5.4618	0.	0.	-6.5882
8173	6.2424	0.	0.	15.81
8174	6.6326	0.	0.	12.663
8175	7.0229	0.	0.	9.491
8176	7.4132	0.	0.	6.5664
8177	7.8035	0.	0.	4.3314
8178	8.1938	0.	0.	2.837
8179	8.584	0.	0.	1.9732
8180	8.9743	0.	0.	1.5974
8181	9.3646	0.	0.	1.5469
8182	9.7549	0.	0.	1.7037
8183	10.145	0.	0.	1.9812
8184	10.535	0.	0.	2.3199
8185	10.926	0.	0.	2.6803
8186	11.316	0.	0.	3.0374
8187	11.706	0.	0.	3.3762
8188	12.097	0.	0.	3.6888
8189	12.487	0.	0.	3.9717
8190	12.877	0.	0.	4.2242
8191	13.267	0.	0.	4.4471
8192	13.658	0.	0.	4.6426
8193	14.048	0.	0.	4.8128
8194	14.438	0.	0.	4.9603
8195	14.828	0.	0.	5.0875
8196	15.219	0.	0.	5.1967
8197	15.609	0.	0.	5.2899
8198	15.999	0.	0.	5.3689
8199	16.39	0.	0.	5.4354
8200	16.78	0.	0.	5.4906
8201	17.17	0.	0.	5.5355
8202	17.56	0.	0.	5.5711
8203	17.951	0.	0.	5.5979
8204	18.341	0.	0.	5.6161
8205	18.731	0.	0.	5.6258
8206	19.122	0.	0.	5.6266
8207	19.512	0.	0.	5.6177
8208	19.902	0.	0.	5.5974
8209	20.292	0.	0.	5.5639
8210	20.683	0.	0.	5.5185
8211	21.073	0.	0.	5.4464
8212	21.463	0.	0.	5.3499
8213	21.853	0.	0.	5.2291
8214	22.244	0.	0.	5.0469
8215	22.634	0.	0.	4.743
8216	23.024	0.	0.	4.2164
8217	23.415	0.	0.	3.3221
8218	23.805	0.	0.	2.0107
8219	5.2667	0.1	0.	-12.711
8220	24.	0.2	0.	2.3618
8221	4.7206e-014	5.4	0.	-785.24
8222	4.371e-014	5.	0.	-911.78
8223	4.0213e-014	4.6	0.	-972.47
8224	3.6716e-014	4.2	0.	-1006.
8225	3.3219e-014	3.8	0.	-1022.8
8226	2.9723e-014	3.4	0.	-1030.6
8227	2.6226e-014	3.	0.	-1033.
8228	2.2729e-014	2.6	0.	-1031.
8229	1.9232e-014	2.2	0.	-1023.6
8230	1.5735e-014	1.8	0.	-1006.9
8231	1.2239e-014	1.4	0.	-973.79
8232	8.7419e-015	1.	0.	-912.6
8233	5.2451e-015	0.6	0.	-784.04
8234	24.	0.6	0.	4.7425
8235	24.	1.	0.	7.0887
8236	24.	1.4	0.	8.9786
8237	24.	1.8	0.	10.44
8238	24.	2.2	0.	11.484
8239	24.	2.6	0.	12.107
8240	24.	3.	0.	12.314
8241	24.	3.4	0.	12.104
8242	24.	3.8	0.	11.479
8243	24.	4.2	0.	10.437
8244	24.	4.6	0.	8.9806
8245	24.	5.	0.	7.0968
8246	24.	5.4	0.	4.7532
8247	24.	5.8	0.	2.3683
8248	23.805	6.	0.	2.001
8249	23.415	6.	0.	3.272
8250	23.024	6.	0.	4.1384
8251	22.634	6.	0.	4.661
8252	22.244	6.	0.	4.9744
8253	21.853	6.	0.	5.1846
8254	21.463	6.	0.	5.3323
8255	21.073	6.	0.	5.4385
8256	20.683	6.	0.	5.5122
8257	20.292	6.	0.	5.5631
8258	19.902	6.	0.	5.5969
8259	19.512	6.	0.	5.6171
8260	19.122	6.	0.	5.6261
8261	18.731	6.	0.	5.6254
8262	18.341	6.	0.	5.6158
8263	17.951	6.	0.	5.5976
8264	17.56	6.	0.	5.5709
8265	17.17	6.	0.	5.5354
8266	16.78	6.	0.	5.4904
8267	16.39	6.	0.	5.4352
8268	15.999	6.	0.	5.3688
8269	15.609	6.	0.	5.2897
8270	15.219	6.	0.	5.1965
8271	14.828	6.	0.	5.0873
8272	14.438	6.	0.	4.96
8273	14.048	6.	0.	4.8125
8274	13.658	6.	0.	4.6422
8275	13.267	6.	0.	4.4467
8276	12.877	6.	0.	4.2236
8277	12.487	6.	0.	3.971
8278	12.097	6.	0.	3.688
8279	11.706	6.	0.	3.3753
8280	11.316	6.	0.	3.0364
8281	10.926	6.	0.	2.6793
8282	10.535	6.	0.	2.319
8283	10.145	6.	0.	1.9806
8284	9.7549	6.	0.	1.7036
8285	9.3646	6.	0.	1.5471
8286	8.9743	6.	0.	1.5986
8287	8.584	6.	0.	1.9751
8288	8.1938	6.	0.	2.8414
8289	7.8035	6.	0.	4.3563
8290	7.4132	6.	0.	6.4537
8291	7.0229	6.	0.	9.2978
8292	6.6326	6.	0.	12.147
8293	6.2424	6.	0.	13.856
8294	5.8521	6.	0.	6.7606
8295	5.4618	6.	0.	-3.5568
8296	5.2667	5.9	0.	-7.9811
8297	5.1	1.7	0.	1045.3
8298	5.1	1.9	0.	999.28
8299	5.1	1.5	0.	603.08
8300	5.1	1.3	0.	441.89
8301	5.1	1.1	0.	320.97
8302	5.1	0.9	0.	227.99
8303	5.1	0.7	0.	150.07
8304	5.1	0.5	0.	74.126
8305	5.1	0.3	0.	2.0178
8306	5.1833	2.	0.	337.03
8307	5.2667	0.3	0.	13.489
8308	5.2667	0.5	0.	60.325
8309	5.2667	0.7	0.	108.92
8310	5.2667	0.9	0.	162.58
8311	5.2667	1.1	0.	228.59
8312	5.2667	1.3	0.	318.35
8313	5.2667	1.5	0.	423.88
8314	5.2667	1.7	0.	774.88
8315	5.2667	1.9	0.	624.25
8316	5.1	4.3	0.	1045.8
8317	5.1	4.1	0.	958.76
8318	5.1	4.5	0.	603.17
8319	5.1	4.7	0.	446.59
8320	5.1	4.9	0.	322.52
8321	5.1	5.1	0.	229.41
8322	5.1	5.3	0.	153.3
8323	5.1	5.5	0.	83.575
8324	5.1	5.7	0.	18.819
8325	5.1833	4.	0.	318.66
8326	5.2667	5.7	0.	6.7198
8327	5.2667	5.5	0.	67.513
8328	5.2667	5.3	0.	117.18
8329	5.2667	5.1	0.	166.24
8330	5.2667	4.9	0.	232.86
8331	5.2667	4.7	0.	321.37
8332	5.2667	4.5	0.	432.1
8333	5.2667	4.3	0.	780.48
8334	5.2667	4.1	0.	663.29
